# vtk DataFile Version 2.0
Wound Healing Simulation
ASCII
DATASET UNSTRUCTURED_GRID
POINTS 3012 float
69.9759 18.75 4
67.2507 60.3285 4
69.976 18.75 2
73.0099 25.446 4
71.1327 20.9142 4
68.6801 16.6661 4
67.8263 19.9128 3.99381
67.2507 60.3286 2
71.1327 54.0858 4
68.6801 58.3339 4
65.6939 62.2254 4
65.3129 59.0119 3.99471
74.6784 42.3946 4
73.7221 47.2057 4
69.9759 18.75 0
73.0099 25.446 2
68.6801 16.6661 2
71.1327 20.9142 2
67.8262 19.9123 2
74.6792 32.6053 4
73.7222 27.7943 4
72.1454 23.1494 4
70.6165 26.2099 3.99231
68.887 21.945 3.99335
67.2507 14.6715 4
66.6376 17.9593 3.99421
65.8041 21.0011 3.99008
67.2507 60.3285 0
71.1327 54.0858 2
68.6801 58.3339 2
65.694 62.2255 2
65.3128 59.0124 2
72.1454 51.8506 4
69.9759 56.25 4
68.8378 53.126 3.9932
64.0165 64.0165 4
66.6113 57.1458 3.99439
63.8863 60.7749 3.995
63.5043 57.7962 3.99126
60.3285 67.2507 4
74.6792 42.3947 2
73.7222 47.2057 2
74.9194 39.9526 4
74.2788 44.8158 4
72.172 42.0916 3.99167
73.0099 49.554 4
71.2523 46.6081 3.99195
73.0099 25.446 0
71.1327 20.9142 0
68.6801 16.6661 0
67.8263 19.9128 0.00619129
74.6792 32.6053 2
73.7222 27.7943 2
67.2508 14.6715 2
72.1455 23.1494 2
70.6165 26.2094 2
66.6375 17.9588 2
68.887 21.9445 2
65.8041 21.0007 2
74.9197 35.0474 4
74.2794 30.1841 4
72.1884 32.9374 3.99154
71.281 28.4216 3.99175
69.8174 24.0474 3.99285
68.3573 26.9336 3.98853
66.7709 22.9109 3.98957
65.694 12.7746 4
65.3241 16.0924 3.99456
64.7191 19.1695 3.99057
63.9013 22.0024 3.98803
71.1327 54.0858 0
65.6939 62.2254 0
68.6801 58.3339 0
65.3129 59.0119 0.00528658
72.1455 51.8506 2
69.9759 56.25 2
68.8378 53.1265 2
64.0165 64.0165 2
66.6112 57.1463 2
63.8862 60.7754 2
63.5043 57.7967 2
62.2254 65.694 4
58.8935 65.4198 3.99514
69.7709 51.0012 3.99257
67.7847 55.1802 3.99388
66.6581 52.2316 3.9893
62.3364 62.4349 3.99514
64.6663 56.0561 3.99082
62.2051 59.4275 3.99167
61.8317 56.7149 3.98911
58.3339 68.6801 4
60.3285 67.2508 2
73.7221 47.2057 0
74.6784 42.3946 0
74.9197 39.9526 2
74.2794 44.8159 2
72.172 42.0918 2
73.0099 49.554 2
71.2523 46.6085 2
75 37.5 4
72.4096 39.8054 3.99213
71.7859 44.3611 3.99168
69.8173 41.7984 3.98854
70.5776 48.8248 3.99219
68.9241 46.0305 3.98851
74.6792 32.6053 0
73.7222 27.7943 0
67.2507 14.6715 0
72.1454 23.1494 0
70.6165 26.2099 0.00769128
68.887 21.945 0.00664567
66.6376 17.9593 0.005785
65.8041 21.0011 0.0099163
74.9197 35.0474 2
74.2794 30.1841 2
72.1885 32.9372 2
71.281 28.4212 2
65.694 12.7745 2
65.324 16.0919 2
69.8174 24.0469 2
68.3574 26.9332 2
64.7191 19.169 2
66.7709 22.9104 2
63.9013 22.002 2
72.4174 35.221 3.99191
71.8071 30.6682 3.99148
69.8528 33.2601 3.98833
68.9773 29.0231 3.98803
67.6208 24.8917 3.98905
66.2143 27.6115 3.98681
64.0165 10.9835 4
64.7731 23.7998 3.98759
63.8903 14.3181 3.9948
63.5165 17.4216 3.99103
62.9184 20.2858 3.9884
62.1146 22.9035 3.98702
60.6838 11.091 3.995
57.6121 11.4314 3.99177
72.1454 51.8506 0
69.9759 56.25 0
68.8378 53.126 0.00679973
64.0165 64.0165 0
63.8863 60.7749 0.00500439
66.6113 57.1458 0.00561359
63.5043 57.7962 0.00874374
62.2255 65.694 2
58.8934 65.4202 2
69.7709 51.0017 2
67.7846 55.1807 2
66.6582 52.232 2
62.3363 62.4353 2
64.6663 56.0566 2
62.205 59.428 2
61.8317 56.7153 2
60.6685 63.9834 3.99514
57.024 66.7398 3.99517
57.5573 63.7057 3.99195
67.5173 50.1972 3.98876
65.7092 54.1972 3.99009
64.5548 51.4156 3.98729
60.7739 60.9581 3.99191
62.8315 55.1014 3.98869
60.6642 58.1915 3.98947
60.3407 55.8263 3.98796
56.25 69.9759 4
58.3339 68.6801 2
60.3285 67.2507 0
58.9208 9.64991 3.99503
62.2254 9.30607 4
73.0099 49.554 0
74.2788 44.8158 0
71.2523 46.6081 0.00804685
72.172 42.0916 0.00833374
74.9194 39.9526 0
75 37.5 2
72.4097 39.8055 2
71.7859 44.3614 2
69.8175 41.7985 2
70.5776 48.8253 2
68.9242 46.0308 2
72.4932 37.512 3.99236
70.0553 39.662 3.98928
69.4428 43.92 3.98833
67.6216 41.5087 3.98748
68.2768 48.1254 3.9886
66.7319 45.4602 3.9872
74.9197 35.0474 0
74.2794 30.1841 0
72.1884 32.9374 0.00846369
71.281 28.4216 0.00824757
65.694 12.7746 0
65.3241 16.0924 0.00544276
69.8174 24.0474 0.00715451
68.3573 26.9336 0.0114732
66.7709 22.9109 0.0104284
64.7191 19.1695 0.00943384
63.9013 22.0024 0.0119723
72.4174 35.2208 2
71.8071 30.6679 2
69.8529 33.26 2
68.9774 29.0228 2
64.0165 10.9835 2
63.8902 14.3176 2
63.5165 17.4211 2
67.6208 24.8913 2
66.2145 27.6112 2
62.9184 20.2854 2
64.7732 23.7995 2
62.1147 22.9032 2
60.6837 11.0905 2
57.612 11.431 2
70.0717 35.3877 3.98895
69.479 31.1376 3.98802
67.6789 33.5809 3.98717
66.7932 29.6037 3.98648
65.5423 25.6723 3.9872
64.1758 28.228 3.98602
62.3417 12.6474 3.99494
62.8818 24.6007 3.98671
62.2003 15.7613 3.9914
61.8215 18.6505 3.98882
61.2353 21.3002 3.98719
60.4547 23.682 3.98659
59.2463 12.7606 3.99174
55.8738 10.2198 3.9918
56.4061 13.0899 3.98965
69.7709 51.0012 0.00742651
62.2254 65.694 0
58.8935 65.4198 0.00485946
67.7847 55.1802 0.00611896
66.6581 52.2316 0.0106954
62.3364 62.4349 0.00486451
62.2051 59.4275 0.00833471
64.6663 56.0561 0.00918148
61.8317 56.7149 0.0108862
60.6684 63.9839 2
57.0239 66.7402 2
57.5572 63.7061 2
67.5174 50.1976 2
65.7092 54.1976 2
64.5548 51.4159 2
60.7739 60.9586 2
62.8316 55.1018 2
60.6642 58.1919 2
60.3407 55.8266 2
55.0696 67.9361 3.99521
59.2194 62.3833 3.99194
55.8034 64.9212 3.99201
56.3277 62.1104 3.98985
65.3509 49.4358 3.98707
63.7205 53.3248 3.9879
62.4676 50.6892 3.98643
59.3364 59.5852 3.98975
61.0935 54.3495 3.98759
59.2982 57.0516 3.988
59.2575 55.2278 3.98761
48.1019 68.5848 3.99191
50.9476 69.9347 3.99516
54.0858 71.1327 4
56.25 69.976 2
58.3339 68.6801 0
57.0578 8.33041 3.99505
60.3285 7.74928 4
58.9207 9.64947 2
62.2255 9.30602 2
70.5776 48.8248 0.00780516
71.7859 44.3611 0.00831665
68.9241 46.0305 0.0114919
69.8173 41.7984 0.0114644
72.4096 39.8054 0.00786767
75 37.5 0
72.4933 37.512 2
70.0555 39.662 2
69.443 43.9202 2
67.6218 41.5088 2
68.2769 48.1258 2
66.732 45.4604 2
70.1438 37.5217 3.98966
67.8602 39.5183 3.98831
67.2467 43.4858 3.98707
65.5915 41.2232 3.98716
66.0895 47.4422 3.98726
64.685 44.8729 3.98687
72.4174 35.221 0.00808528
71.8071 30.6682 0.00851935
69.8528 33.2601 0.0116691
68.9773 29.0231 0.0119714
64.0165 10.9835 0
63.8903 14.3181 0.00519705
63.5165 17.4216 0.00897101
67.6208 24.8917 0.0109522
66.2143 27.6115 0.0131947
64.7731 23.7998 0.0124093
62.9184 20.2858 0.0116009
62.1146 22.9035 0.0129753
60.6838 11.091 0.00499837
57.6121 11.4314 0.00822813
70.0719 35.3877 2
69.4791 31.1374 2
67.6791 33.5809 2
66.7933 29.6036 2
62.3416 12.6469 2
62.2003 15.7608 2
61.8215 18.6501 2
65.5425 25.672 2
64.176 28.2278 2
61.2354 21.2999 2
62.8819 24.6004 2
60.4548 23.6817 2
59.2462 12.7601 2
56.4061 13.0895 2
55.8737 10.2194 2
67.8956 35.5426 3.98788
67.2875 31.6077 3.98672
65.7319 33.9162 3.98689
64.6943 30.17 3.98576
63.5656 26.3818 3.98642
62.2963 28.7463 3.98614
60.7756 14.2027 3.99164
61.0782 25.2959 3.9863
60.6168 17.096 3.98921
60.2348 19.7757 3.98747
59.685 22.2112 3.98661
59.0133 24.2697 3.98684
54.0368 9.12436 3.99181
57.9115 14.3059 3.98965
54.7872 11.9918 3.98968
55.3141 14.6172 3.98832
67.5173 50.1972 0.0112415
57.024 66.7398 0.00482632
60.6685 63.9834 0.00486335
57.5573 63.7057 0.00805005
65.7092 54.1972 0.00991258
64.5548 51.4156 0.0127093
60.7739 60.9581 0.00808547
60.6642 58.1915 0.0105277
62.8315 55.1014 0.0113122
60.3407 55.8263 0.0120414
55.0694 67.9365 2
59.2193 62.3837 2
55.8033 64.9216 2
56.3277 62.1108 2
65.351 49.436 2
63.7206 53.3252 2
62.4677 50.6894 2
59.3364 59.5856 2
61.0935 54.3498 2
59.2982 57.0519 2
59.2576 55.228 2
53.0416 69.0034 3.99521
53.9655 66.0221 3.99207
57.8824 60.8944 3.98986
54.6837 63.2239 3.98995
55.2134 60.6417 3.9885
63.2233 48.6949 3.98656
61.763 52.6145 3.98675
60.3084 50.063 3.98603
58.0234 58.2953 3.98822
59.347 53.9931 3.98713
58.1391 55.858 3.98685
50.1082 67.8635 3.99197
47.4626 66.5907 3.98978
46.0559 69.1637 3.9919
48.1018 68.5852 2
48.802 70.7256 3.99513
50.9475 69.935 2
51.8506 72.1454 4
54.0858 71.1327 2
56.25 69.9759 0
55.1021 7.13549 3.99505
58.3339 6.31992 4
57.0577 8.33 2
60.3286 7.74926 2
58.9208 9.64991 0.00497241
62.2254 9.30607 0
68.2768 48.1254 0.0113953
69.4428 43.92 0.0116739
66.7319 45.4602 0.0128035
67.6216 41.5087 0.0125226
70.0553 39.662 0.0107169
72.4932 37.512 0.00763603
70.144 37.5217 2
67.8604 39.5184 2
67.2468 43.486 2
65.5917 41.2232 2
66.0897 47.4424 2
64.6852 44.873 2
67.9571 37.5225 3.98875
65.8252 39.3776 3.98799
65.2099 43.0444 3.98669
63.802 40.9447 3.98706
63.9969 46.7462 3.98694
62.8504 44.2448 3.98663
70.0717 35.3877 0.0110486
69.479 31.1376 0.0119838
67.6789 33.5809 0.0128294
66.7932 29.6037 0.0135226
62.3417 12.6474 0.00505531
62.2003 15.7613 0.00859781
61.8215 18.6505 0.0111841
65.5423 25.6723 0.0128004
64.1758 28.228 0.0139817
62.8818 24.6007 0.0132914
61.2353 21.3002 0.0128092
60.4547 23.682 0.0134108
59.2463 12.7606 0.00825719
56.4061 13.0899 0.0103457
55.8738 10.2198 0.00819826
67.8958 35.5425 2
67.2877 31.6076 2
65.7321 33.9162 2
64.6945 30.1699 2
60.7755 14.2022 2
60.6168 17.0957 2
60.2348 19.7754 2
63.5657 26.3816 2
62.2965 28.7462 2
59.685 22.2109 2
61.0784 25.2957 2
59.0134 24.2695 2
57.9115 14.3056 2
55.3142 14.6169 2
54.0367 9.12396 2
54.7872 11.9914 2
65.9127 35.6614 3.9873
65.2193 32.1378 3.98633
64.3267 34.2386 3.98581
62.6371 30.6103 3.98572
61.688 27.0351 3.9863
60.8968 29.1064 3.98559
59.3125 15.6403 3.98951
59.3715 25.7491 3.98657
59.1302 18.318 3.98784
58.7569 20.8081 3.98668
58.3144 23.04 3.98658
58.0069 24.6109 3.98748
52.1114 8.14394 3.99175
53.0581 11 3.98967
56.6784 15.711 3.98835
53.8107 13.6552 3.9883
54.3782 15.9654 3.98759
55.0696 67.9361 0.0047872
65.3509 49.4358 0.0129258
55.8034 64.9212 0.00798755
59.2194 62.3833 0.00805872
56.3277 62.1104 0.0101465
63.7205 53.3248 0.0121031
62.4676 50.6892 0.0135686
59.3364 59.5852 0.0102472
59.2982 57.0516 0.0119963
61.0935 54.3495 0.0124072
59.2575 55.2278 0.0123927
53.0414 69.0037 2
53.9654 66.0225 2
57.8824 60.8948 2
54.6837 63.2243 2
55.2134 60.642 2
63.2234 48.695 2
61.7631 52.6148 2
60.3086 50.0632 2
58.0235 58.2957 2
59.347 53.9933 2
58.1392 55.8583 2
52.0691 67.0075 3.99205
52.9527 64.2323 3.98999
56.6514 59.5186 3.98852
53.6819 61.6437 3.98863
54.2628 59.3514 3.98766
61.0336 47.9209 3.9867
59.7374 52.1509 3.98644
58.0683 49.6694 3.9873
56.7845 57.0283 3.98698
57.1408 54.1737 3.98641
50.1081 67.8639 2
49.3362 65.9318 3.98986
47.4626 66.591 2
46.8919 64.7492 3.98836
45.5579 67.1076 3.98978
43.9732 69.5959 3.99182
46.0559 69.164 2
46.6088 71.3698 3.99511
48.1019 68.5848 0.00809274
48.8019 70.7259 2
49.554 73.0099 4
50.9476 69.9347 0.00483623
51.8506 72.1455 2
54.0858 71.1327 0
53.0632 6.06747 3.995
55.102 7.1351 2
56.25 5.02411 4
58.3339 6.3199 2
57.0578 8.33041 0.00495498
60.3285 7.74928 0
66.0895 47.4422 0.0127424
67.2467 43.4858 0.0129255
64.685 44.8729 0.0131347
65.5915 41.2232 0.0128401
67.8602 39.5183 0.0116913
70.1438 37.5217 0.0103417
67.9573 37.5225 2
65.8254 39.3776 2
65.2101 43.0445 2
63.8022 40.9448 2
63.997 46.7463 2
62.8506 44.2449 2
65.9289 37.5027 3.98844
63.9491 39.2753 3.98763
63.3737 42.5717 3.9864
62.4866 40.7137 3.98539
62.0101 45.9543 3.98746
61.5038 43.7144 3.98605
67.8956 35.5426 0.0121193
67.2875 31.6077 0.0132836
65.7319 33.9162 0.013113
64.6943 30.17 0.0142384
60.7756 14.2027 0.00835782
60.6168 17.096 0.0107881
60.2348 19.7757 0.0125306
63.5656 26.3818 0.0135815
62.2963 28.7463 0.0138606
61.0782 25.2959 0.0136974
59.685 22.2112 0.0133919
59.0133 24.2697 0.0131581
57.9115 14.3059 0.0103492
55.3141 14.6172 0.0116762
54.0368 9.12436 0.00819217
54.7872 11.9918 0.0103192
65.9129 35.6614 2
65.2195 32.1377 2
64.3269 34.2386 2
62.6373 30.6102 2
59.3125 15.6399 2
59.1303 18.3177 2
58.757 20.8079 2
61.6882 27.0349 2
60.897 29.1063 2
58.3145 23.0398 2
59.3717 25.7489 2
58.007 24.6108 2
56.6785 15.7107 2
54.3783 15.9651 2
53.8108 13.6548 2
52.1113 8.14355 2
53.0581 10.9996 2
64.1373 35.6264 3.98674
62.9773 33.029 3.98594
60.6671 30.5832 3.98538
59.6206 27.8684 3.98625
57.9425 16.9492 3.98815
57.7848 25.6727 3.9874
57.7244 19.434 3.98698
57.3927 21.7898 3.98621
57.2217 23.891 3.98698
50.1115 7.27679 3.9917
51.2325 10.11 3.98966
52.1728 12.7748 3.98819
55.5399 16.9369 3.98754
52.9791 15.233 3.98743
53.7605 16.9451 3.98712
53.0416 69.0034 0.00478908
53.9655 66.0221 0.0079306
63.2233 48.6949 0.013443
54.6837 63.2239 0.0100493
57.8824 60.8944 0.010144
55.2134 60.6417 0.0114997
61.763 52.6145 0.0132531
60.3084 50.063 0.0139697
58.0234 58.2953 0.0117824
58.1391 55.858 0.0131468
59.347 53.9931 0.0128716
52.069 67.0079 2
52.9527 64.2327 2
56.6515 59.5189 2
53.682 61.644 2
54.2629 59.3517 2
61.0338 47.9211 2
59.7375 52.1511 2
58.0684 49.6695 2
56.7846 57.0285 2
57.1409 54.1738 2
51.1671 65.1398 3.98993
52.0462 62.5566 3.98857
55.4847 58.2841 3.98764
52.8361 60.1612 3.9878
53.6434 58.504 3.98717
58.3611 46.8984 3.98798
57.5924 51.8392 3.98644
56.2948 49.6118 3.9883
55.483 55.8397 3.98634
55.3813 53.437 3.9854
50.1082 67.8635 0.00802761
49.3362 65.9321 2
48.6177 64.1365 3.98844
47.4626 66.5907 0.0102194
45.5579 67.108 2
46.8919 64.7495 2
46.3814 63.0693 3.98748
45.1323 65.2104 3.98834
43.6312 67.4782 3.98975
41.8607 69.8833 3.99167
43.9732 69.5962 2
44.3764 71.8645 3.99504
46.0559 69.1637 0.00810472
46.6087 71.3701 2
47.2057 73.7222 4
48.802 70.7256 0.00487214
49.554 73.0099 2
51.8506 72.1454 0
50.953 5.12824 3.99502
53.0631 6.06711 2
54.0858 3.86728 4
55.1021 7.13549 0.00495493
56.25 5.02406 2
58.3339 6.31992 0
63.9969 46.7462 0.0130556
65.2099 43.0444 0.0133084
62.8504 44.2448 0.0133719
63.802 40.9447 0.01294
65.8252 39.3776 0.0120124
67.9571 37.5225 0.0112453
65.9292 37.5027 2
63.9494 39.2753 2
63.3739 42.5718 2
62.4869 40.7138 2
62.0103 45.9544 2
61.504 43.7146 2
64.0106 37.4583 3.98843
62.2194 39.3644 3.98669
61.2776 41.9827 3.98572
60.3053 44.8096 3.98771
65.9127 35.6614 0.0127037
65.2193 32.1378 0.0136697
64.3267 34.2386 0.0141935
62.6371 30.6103 0.0142799
59.3125 15.6403 0.010489
59.1302 18.318 0.0121629
58.7569 20.8081 0.0133154
61.688 27.0351 0.0136988
60.8968 29.1064 0.0144061
59.3715 25.7491 0.0134339
58.3144 23.04 0.013419
58.0069 24.6109 0.0125155
56.6784 15.711 0.01165
54.3782 15.9654 0.0124148
53.8107 13.6552 0.0116997
52.1114 8.14394 0.00825257
53.0581 11 0.0103312
64.1375 35.6264 2
62.9775 33.029 2
60.6674 30.5831 2
57.9425 16.9489 2
57.7245 19.4338 2
57.3927 21.7897 2
59.6209 27.8682 2
57.2218 23.8908 2
57.7849 25.6725 2
50.1115 7.27642 2
55.54 16.9366 2
53.7606 16.9449 2
52.9792 15.2328 2
52.1729 12.7745 2
51.2325 10.1096 2
62.2488 35.3512 3.98707
60.3531 32.7255 3.98551
58.6847 30.0388 3.98582
57.3488 27.3304 3.98707
56.6404 18.118 3.98728
56.3374 25.0429 3.98778
56.3703 20.476 3.98631
56.1373 22.8142 3.98602
48.0554 6.5205 3.9919
49.3244 9.31917 3.98944
50.4337 11.9748 3.98828
51.3789 14.4716 3.9872
54.4182 17.8836 3.9869
52.3632 17.0011 3.98669
52.0691 67.0075 0.00795309
52.9527 64.2323 0.0100114
61.0336 47.9209 0.0133025
53.6819 61.6437 0.0113682
56.6514 59.5186 0.0114838
54.2628 59.3514 0.0123367
59.7374 52.1509 0.0135593
58.0683 49.6694 0.0126955
56.7845 57.0283 0.0130159
57.1408 54.1737 0.0135871
51.1671 65.1402 2
52.0462 62.5569 2
55.4848 58.2844 2
52.8362 60.1615 2
53.6435 58.5043 2
58.3613 46.8985 2
57.5925 51.8392 2
56.295 49.6118 2
55.4831 55.8399 2
55.3814 53.4371 2
50.3459 63.3961 3.98848
51.2448 60.9571 3.98754
54.2246 57.3018 3.98691
52.3151 58.6647 3.98708
56.7979 44.2299 3.98796
55.5542 47.9538 3.98808
55.1064 51.4483 3.98619
54.0209 54.5963 3.98582
49.3362 65.9318 0.0101422
48.6177 64.1368 2
47.9618 62.4914 3.98753
45.5579 67.1076 0.0102158
46.8919 64.7492 0.0116398
43.6312 67.4785 2
46.3815 63.0696 2
45.1323 65.2107 2
45.9869 61.6043 3.98692
44.7667 63.4701 3.98736
43.3562 65.5199 3.9884
41.6635 67.6972 3.98955
39.7026 70.0307 3.99165
41.8607 69.8836 2
42.111 72.2093 3.99495
43.9732 69.5959 0.0081767
44.3763 71.8648 2
44.8159 74.2794 4
46.6088 71.3698 0.00489454
47.2057 73.7222 2
49.554 73.0099 0
48.7836 4.31957 3.99512
50.9529 5.1279 2
51.8506 2.85458 4
53.0632 6.06747 0.00499849
54.0858 3.86728 2
56.25 5.02411 0
62.0101 45.9543 0.0125399
63.3737 42.5717 0.0135995
61.5038 43.7144 0.0139521
62.4866 40.7137 0.0146059
63.9491 39.2753 0.0123747
65.9289 37.5027 0.0115567
64.0109 37.4584 2
62.2197 39.3644 2
61.2779 41.9828 2
60.3055 44.8098 2
62.0614 37.4454 3.98855
60.3242 39.8616 3.98575
59.067 42.9546 3.98723
64.1373 35.6264 0.0132559
62.9773 33.029 0.01406
60.6671 30.5832 0.0146248
57.9425 16.9492 0.0118478
57.7244 19.434 0.0130215
57.3927 21.7898 0.0137929
59.6206 27.8684 0.0137457
57.7848 25.6727 0.0126011
57.2217 23.891 0.0130206
55.5399 16.9369 0.0124606
53.7605 16.9451 0.0128788
52.9791 15.233 0.012567
50.1115 7.27679 0.00830416
52.1728 12.7748 0.0118064
51.2325 10.11 0.0103414
62.249 35.3512 2
60.3533 32.7254 2
58.6849 30.0386 2
56.6405 18.1177 2
56.3703 20.4759 2
56.1374 22.8141 2
57.349 27.3302 2
56.3375 25.0428 2
48.0553 6.52014 2
49.3243 9.31882 2
54.4183 17.8834 2
52.3633 17.0008 2
51.379 14.4714 2
50.4337 11.9745 2
59.9704 35.1104 3.98749
58.0717 32.2424 3.98487
56.6184 29.2931 3.98658
55.5076 26.5391 3.98819
55.3482 19.1499 3.9866
54.9684 23.9962 3.98651
55.0197 21.5134 3.98586
45.9614 5.87628 3.99198
43.3734 7.46495 3.98961
47.3548 8.61356 3.98963
48.6003 11.2781 3.988
49.7148 13.7207 3.9873
50.6348 16.1022 3.98652
53.1287 18.6218 3.98639
51.3056 18.013 3.98627
51.1671 65.1398 0.0100727
52.0462 62.5566 0.0114338
58.3611 46.8984 0.0120159
52.8361 60.1612 0.0121985
55.4847 58.2841 0.0123589
53.6434 58.504 0.0128304
57.5924 51.8392 0.0135618
56.2948 49.6118 0.0116985
55.483 55.8397 0.0136559
55.3813 53.437 0.0146038
50.3459 63.3964 2
51.2449 60.9574 2
54.2247 57.3021 2
52.3152 58.665 2
56.7981 44.2302 2
55.5543 47.9539 2
55.1065 51.4483 2
54.021 54.5965 2
49.5918 61.7629 3.9875
55.749 41.742 3.98639
50.5683 59.3543 3.98673
52.1912 56.5276 3.98621
54.2744 45.6198 3.98872
53.4003 49.3939 3.98706
52.6952 52.9118 3.98534
48.6177 64.1365 0.0115569
47.9618 62.4917 2
47.329 61.0284 3.98688
43.6312 67.4782 0.0102526
45.1323 65.2104 0.0116566
46.3814 63.0693 0.0125234
41.6635 67.6975 2
43.3562 65.5202 2
45.9869 61.6046 2
44.7667 63.4704 2
45.7657 60.65 3.98665
44.4827 61.8534 3.98669
43.1459 63.7425 3.98744
41.5457 65.6576 3.98821
39.6328 67.7774 3.98948
37.5263 70.0562 3.99169
39.7026 70.031 2
39.8179 72.4065 3.99494
41.8607 69.8833 0.00832661
42.1109 72.2095 2
42.3947 74.6792 4
44.3764 71.8645 0.00495826
44.8159 74.2794 2
47.2057 73.7222 0
43.851 5.35407 3.99178
46.5698 3.64445 3.99514
48.7835 4.31925 2
49.554 1.99015 4
50.953 5.12824 0.0049835
51.8506 2.85453 2
54.0858 3.86728 0
60.3053 44.8096 0.0122882
61.2776 41.9827 0.0142811
62.2194 39.3644 0.0133053
64.0106 37.4583 0.0115722
62.0617 37.4454 2
60.3245 39.8617 2
59.0673 42.9549 2
59.8505 37.5686 3.98866
58.0959 40.6843 3.98658
55.2422 39.7444 3.99163
62.2488 35.3512 0.0129295
60.3531 32.7255 0.0144918
58.6847 30.0388 0.0141812
56.6404 18.118 0.0127185
56.3703 20.476 0.0136891
56.1373 22.8142 0.0139817
57.3488 27.3304 0.0129339
56.3374 25.0429 0.0122239
54.4182 17.8836 0.013104
52.3632 17.0011 0.0133062
51.3789 14.4716 0.0128029
48.0554 6.5205 0.0081026
49.3244 9.31917 0.0105649
50.4337 11.9748 0.0117201
59.9707 35.1104 2
45.9614 5.87594 2
43.3734 7.46462 2
58.072 32.2423 2
56.6187 29.2928 2
55.3483 19.1496 2
55.0198 21.5133 2
54.9685 23.9961 2
55.5078 26.5388 2
47.3548 8.61319 2
48.6004 11.2778 2
53.1288 18.6216 2
51.3057 18.0128 2
50.6348 16.102 2
49.7148 13.7204 2
57.4957 34.7485 3.98459
55.8202 31.4805 3.98516
54.5939 28.3455 3.98843
53.8256 25.4314 3.98746
53.9767 20.0949 3.98609
53.6068 22.6538 3.98566
41.3986 7.07016 3.98997
45.3595 7.98573 3.98984
42.8655 9.40438 3.98817
46.6667 10.6395 3.98809
47.7457 13.0832 3.98716
48.932 15.3754 3.98625
50.0078 17.6671 3.98608
51.6576 19.2896 3.98628
50.3459 63.3961 0.0115211
51.2448 60.9571 0.0124558
56.7979 44.2299 0.012037
55.5542 47.9538 0.0119227
52.3151 58.6647 0.0129209
54.2246 57.3018 0.0130918
55.1064 51.4483 0.0138119
54.0209 54.5963 0.0141815
49.5919 61.7632 2
55.7494 41.7421 2
50.5684 59.3546 2
52.1913 56.5279 2
54.2746 45.6198 2
53.4004 49.3939 2
52.6953 52.9119 2
48.8492 60.2233 3.98679
52.6673 42.6886 3.98959
49.792 57.6584 3.98623
50.61 54.4685 3.98546
51.9107 47.3373 3.98765
51.2614 51.0136 3.98456
48.3798 43.7926 3.98228
47.9618 62.4914 0.0124684
47.3291 61.0287 2
46.6184 59.8168 3.9864
41.6635 67.6972 0.0104506
43.3562 65.5199 0.0116047
44.7667 63.4701 0.0126358
45.9869 61.6043 0.0130834
39.6328 67.7777 2
41.5458 65.6579 2
45.7658 60.6503 2
43.1459 63.7428 2
44.4827 61.8537 2
44.6229 60.3126 3.98636
42.9499 62.1019 3.98651
41.5993 63.8357 3.98734
39.6474 65.6264 3.98805
37.5636 67.7604 3.98951
31.698 65.1458 3.98823
33.3928 67.4979 3.98947
35.3338 69.9664 3.99166
37.5263 70.0565 2
37.5097 72.4611 3.99496
39.7026 70.0307 0.00835239
39.8179 72.4067 2
39.9526 74.9197 4
42.111 72.2093 0.00504586
42.3947 74.6792 2
44.8159 74.2794 0
41.7358 4.96337 3.99203
43.8509 5.35374 2
44.3252 3.10801 3.99506
46.5697 3.64416 2
47.2057 1.27793 4
48.7836 4.31957 0.00487816
49.554 1.99013 2
51.8506 2.85458 0
59.067 42.9546 0.0127683
60.3242 39.8616 0.0142489
62.0614 37.4454 0.0114468
59.8509 37.5685 2
58.0963 40.6845 2
55.2427 39.7446 2
56.9471 37.9071 3.98728
49.8466 41.3385 3.99152
53.2978 39.3319 3.99383
39.442 6.79394 3.98993
59.9704 35.1104 0.0125085
58.0717 32.2424 0.0151298
56.6184 29.2931 0.0134183
55.3482 19.1499 0.0133977
55.0197 21.5134 0.0141396
54.9684 23.9962 0.013493
55.5076 26.5391 0.0118086
53.1287 18.6218 0.0136148
51.3056 18.013 0.013726
50.6348 16.1022 0.0134845
45.9614 5.87628 0.00801666
49.7148 13.7207 0.0126961
47.3548 8.61356 0.0103718
48.6003 11.2781 0.0120047
43.3734 7.46495 0.0103878
57.496 34.7485 2
41.3985 7.06982 2
45.3595 7.98537 2
42.8655 9.40406 2
55.8205 31.4802 2
54.5942 28.3452 2
53.9768 20.0947 2
53.6069 22.6538 2
53.8257 25.4314 2
46.6667 10.6391 2
47.7458 13.0829 2
51.6577 19.2895 2
50.0079 17.667 2
48.9321 15.3751 2
55.0091 33.9488 3.9824
53.6036 30.4339 3.98751
52.6686 27.1298 3.98876
52.1836 24.0208 3.98595
52.4041 21.0286 3.98582
41.0134 9.03727 3.98825
44.7239 9.98302 3.98823
42.4683 10.8886 3.98809
46.0053 12.7116 3.98655
47.6818 14.5621 3.98665
48.114 16.96 3.98528
49.8202 19.5576 3.98595
49.5918 61.7629 0.0125001
50.5683 59.3543 0.013267
55.749 41.742 0.0136116
54.2744 45.6198 0.0112808
53.4003 49.3939 0.012941
52.1912 56.5276 0.0137948
52.6952 52.9118 0.014655
48.8493 60.2235 2
52.6677 42.6887 2
49.7921 57.6587 2
50.6102 54.4687 2
51.9108 47.3373 2
51.2615 51.0137 2
48.3802 43.7926 2
47.9873 58.768 3.98622
50.25 45.3346 3.98601
48.6052 55.9522 3.98599
49.1578 52.6508 3.98437
49.7457 49.1227 3.98381
46.196 39.8918 3.97121
46.6447 42.7233 3.98182
46.6656 45.8028 3.97847
44.0286 41.2463 4.058
42.0649 42.0006 4.01698
47.329 61.0284 0.0131198
46.6184 59.8171 2
45.468 58.8141 3.98612
39.6328 67.7774 0.0105153
41.5457 65.6576 0.0117885
43.1459 63.7425 0.0125619
44.4827 61.8534 0.0133133
45.7657 60.65 0.0133528
41.5993 63.836 2
37.5636 67.7607 2
39.6474 65.6267 2
44.623 60.3128 2
42.9499 62.1022 2
41.7529 62.5121 3.98691
42.4806 60.0043 3.98601
39.8929 63.5713 3.98705
37.6423 65.5262 3.98801
35.4639 67.6698 3.98946
33.5761 65.3592 3.98811
31.9603 63.3206 3.9874
29.8841 64.7374 3.98836
31.698 65.1461 2
31.3776 67.2077 3.98955
33.3928 67.4982 2
33.1568 69.7597 3.9916
35.3338 69.9667 2
35.1952 72.3756 3.99494
37.5263 70.0562 0.00831333
37.5097 72.4613 2
37.5 75 4
39.8179 72.4065 0.00506147
39.9526 74.9197 2
42.3947 74.6792 0
39.6235 4.71071 3.99205
41.7357 4.96305 2
42.0618 2.71574 3.99519
43.851 5.35407 0.00821683
44.3251 3.10774 2
44.8158 0.721173 4
46.5698 3.64445 0.00486166
47.2057 1.27779 2
49.554 1.99015 0
58.0959 40.6843 0.0134229
59.8505 37.5686 0.011341
55.2422 39.7444 0.00836675
49.8471 41.3385 2
56.9476 37.9072 2
53.2983 39.3321 2
54.1479 36.6297 3.98549
47.7768 40.4392 3.99067
50.8015 38.5042 3.99219
37.5158 6.66456 3.99042
39.4419 6.79362 2
39.2108 8.6802 3.9885
35.941 8.4798 3.98893
57.4957 34.7485 0.0154094
55.8202 31.4805 0.0148357
54.5939 28.3455 0.0115659
53.9767 20.0949 0.0139098
53.6068 22.6538 0.0143389
53.8256 25.4314 0.0125414
51.6576 19.2896 0.0137224
50.0078 17.6671 0.0139154
48.932 15.3754 0.0137532
45.3595 7.98573 0.0101568
47.7457 13.0832 0.0128425
46.6667 10.6395 0.0119147
41.3986 7.07016 0.0100309
42.8655 9.40438 0.0118286
55.0094 33.9487 2
41.0134 9.03693 2
44.7239 9.98267 2
42.4683 10.8883 2
53.6039 30.4334 2
52.6688 27.1297 2
52.4042 21.0285 2
52.1837 24.0208 2
46.0053 12.7112 2
47.6819 14.5618 2
49.8204 19.5574 2
48.1141 16.9598 2
52.5624 32.8334 3.98424
51.456 29.0877 3.9906
50.8555 25.6507 3.9857
49.9537 22.1251 3.98584
40.5692 11.5908 3.98701
43.858 11.902 3.9867
45.8023 15.3974 3.98546
47.5053 19.1882 3.985
46.5329 37.5037 3.97864
48.8492 60.2233 0.0132119
49.792 57.6584 0.0137729
52.6673 42.6886 0.0104086
51.9107 47.3373 0.0123454
51.2614 51.0136 0.0154408
50.61 54.4685 0.0145433
48.3798 43.7926 0.0177176
47.9874 58.7682 2
50.2503 45.3347 2
48.6053 55.9525 2
49.158 52.6511 2
49.7458 49.1228 2
46.1962 39.8886 2
46.6454 42.7227 2
46.6658 45.8029 2
44.026 41.2407 2
42.0626 41.9993 2
46.84 57.3724 3.98607
44.7851 39.4972 4.05993
42.4253 40.8702 4.00889
48.2052 47.3286 3.98317
47.181 54.2892 3.98558
47.6344 50.8373 3.98175
44.9257 47.4342 3.97548
45.279 42.0071 3.9579
45.1626 44.6382 3.97819
42.8463 42.7584 4.04245
40.9153 42.3525 4.00598
46.6184 59.8168 0.0136047
45.4681 58.8143 2
43.8766 57.7384 3.98587
37.5636 67.7604 0.010495
39.6474 65.6264 0.0119476
41.5993 63.8357 0.0126551
42.9499 62.1019 0.0134939
44.6229 60.3126 0.013643
35.4639 67.6702 2
41.7529 62.5124 2
39.8929 63.5715 2
37.6423 65.5265 2
42.4806 60.0045 2
40.6225 61.6713 3.9865
40.4447 58.2374 3.98554
37.8366 63.2335 3.98685
35.5734 65.4485 3.98797
33.5761 65.3595 2
31.9603 63.3209 2
33.6297 63.3603 3.98719
30.3793 62.8799 3.98741
32.1237 62.0286 3.98718
26.8684 61.5253 3.98717
28.0629 64.1658 3.98835
29.8841 64.7377 2
29.4072 66.7717 3.98973
31.698 65.1458 0.011768
31.3776 67.208 2
31.0143 69.4247 3.99165
33.3928 67.4979 0.0105308
33.1568 69.76 2
32.8924 72.1498 3.9949
35.3338 69.9664 0.00834366
35.1952 72.3758 2
35.0474 74.9194 4
37.5097 72.4611 0.0050355
37.5 75 2
39.9526 74.9197 0
35.6203 6.7159 3.9901
37.5229 4.61008 3.99234
39.6235 4.71041 2
39.7884 2.47228 3.99524
41.7358 4.96337 0.00796516
42.0617 2.71549 2
42.3946 0.32156 4
44.3252 3.10801 0.00493656
44.8159 0.72056 2
47.2057 1.27793 0
49.8466 41.3385 0.00848397
56.9471 37.9071 0.0127152
53.2978 39.3319 0.00616934
47.7775 40.4388 2
50.8021 38.5044 2
54.1485 36.63 2
51.5792 35.5677 3.9829
48.4448 37.7528 3.991
46.1951 35.1132 3.97646
44.0281 33.7566 4.05761
42.0647 32.9995 4.01581
37.4574 8.52102 3.98888
37.5158 6.66422 2
39.442 6.79394 0.0100668
39.2108 8.67987 2
38.9759 10.1108 3.98826
35.8976 9.75754 3.98833
34.1493 8.80893 3.98872
35.941 8.47947 2
55.0091 33.9488 0.0176006
53.6036 30.4339 0.012494
52.6686 27.1298 0.0112426
52.4041 21.0286 0.0141839
52.1836 24.0208 0.0140501
49.8202 19.5576 0.0140513
48.114 16.96 0.0147219
47.6818 14.5621 0.013346
44.7239 9.98302 0.0117721
46.0053 12.7116 0.013448
41.0134 9.03727 0.011751
42.4683 10.8886 0.0119093
52.5628 32.833 2
40.5692 11.5905 2
43.8581 11.9017 2
51.4562 29.0874 2
50.8555 25.6507 2
49.9539 22.1249 2
45.8024 15.3971 2
47.5054 19.188 2
50.1798 31.3638 3.99036
49.3887 27.3964 3.98658
49.4481 24.3308 3.98421
47.1935 21.863 3.98497
38.3014 12.7138 3.9856
42.1004 14.2836 3.98555
44.8003 18.4299 3.98414
45.0699 37.502 4.0636
46.5329 37.5039 2
47.9873 58.768 0.0137833
48.6052 55.9522 0.0140083
50.25 45.3346 0.0139879
49.7457 49.1227 0.016185
49.1578 52.6508 0.0156318
46.196 39.8918 0.0287899
46.6447 42.7233 0.0181805
46.6656 45.8028 0.0215289
44.0286 41.2463 -0.0579972
42.0649 42.0006 -0.016983
46.8401 57.3726 2
44.7818 39.4932 2
42.4221 40.8694 2
48.2053 47.3288 2
47.1811 54.2895 2
47.6345 50.8376 2
44.9259 47.4343 2
45.2802 42.002 2
45.1633 44.6374 2
42.8452 42.7533 2
40.9133 42.3536 2
45.4012 55.959 3.98591
42.7672 39.2645 3.99245
40.869 40.812 3.96984
46.1712 49.0302 3.98144
45.5704 52.5809 3.98468
43.5517 48.5232 3.97744
43.5264 46.2132 3.97563
43.8528 43.8271 3.94998
41.3153 43.9305 4.02736
39.2953 42.6755 3.98347
45.468 58.8141 0.0138794
43.8766 57.7387 2
42.1079 56.3645 3.98547
35.4639 67.6698 0.0105376
37.6423 65.5262 0.0119893
39.8929 63.5713 0.0129492
41.7529 62.5121 0.0130906
42.4806 60.0043 0.0139932
35.5734 65.4488 2
40.6225 61.6716 2
37.8366 63.2338 2
40.4447 58.2376 2
38.926 56.5333 3.98522
38.25 60.3563 3.98594
35.6072 63.2271 3.98691
33.5761 65.3592 0.0118912
31.9603 63.3206 0.0126042
33.6297 63.3606 2
30.3793 62.8802 2
32.1237 62.0288 2
28.6815 62.2261 3.9875
33.3462 61.5415 3.98663
31.0666 61.2467 3.98662
27.5668 59.6261 3.98674
23.7879 59.1184 3.98769
25.033 60.9001 3.98761
26.8683 61.5256 2
26.2292 63.4988 3.98824
28.0629 64.1662 2
27.4638 66.196 3.98976
29.8841 64.7374 0.0116419
29.4072 66.7721 2
28.9068 68.9506 3.99179
31.3776 67.2077 0.0104533
31.0143 69.425 2
30.615 71.7809 3.99492
33.1568 69.7597 0.00839621
32.8925 72.1501 2
32.6054 74.6784 4
35.1952 72.3756 0.00505519
35.0474 74.9197 2
37.5 75 0
33.7229 6.97017 3.98997
35.4344 4.68056 3.99213
35.6203 6.71558 2
37.5141 2.3849 3.99536
37.5229 4.60978 2
39.6235 4.71071 0.00795027
39.7883 2.47205 2
39.9526 0.0806499 4
42.0618 2.71574 0.0048143
42.3947 0.320817 2
44.8158 0.721173 0
44.7875 35.5056 4.06548
42.4242 34.1267 4.00962
47.7768 40.4392 0.00932513
50.8015 38.5042 0.00781421
54.1479 36.6297 0.0145094
48.4456 37.7526 2
51.5798 35.5678 2
46.1955 35.1163 2
44.0257 33.7623 2
42.0622 33.0012 2
48.6056 34.2533 3.98681
45.2795 32.9962 3.95865
42.8475 32.2435 4.04516
40.9138 32.6481 4.00426
37.3098 10.6124 3.98732
37.4574 8.52066 2
37.5158 6.66456 0.00958176
39.2108 8.6802 0.0115015
38.9759 10.1104 2
34.7527 10.3626 3.98756
35.8976 9.75719 2
32.3759 9.35504 3.98837
34.1493 8.8086 2
35.941 8.4798 0.0110694
52.5624 32.8334 0.0157571
51.456 29.0877 0.00940329
50.8555 25.6507 0.014295
49.9537 22.1251 0.0141587
47.5053 19.1882 0.0149964
45.8023 15.3974 0.0145407
43.858 11.902 0.0133018
40.5692 11.5908 0.012989
50.1801 31.3634 2
38.3014 12.7135 2
42.1004 14.2832 2
49.3888 27.3964 2
49.4482 24.3307 2
47.1936 21.8627 2
44.8004 18.4295 2
47.957 29.4971 3.98619
47.1519 25.0376 3.9832
44.2922 21.278 3.98252
36.5809 12.91 3.98605
38.6798 14.7822 3.98517
41.7491 17.8085 3.98443
42.9063 37.4908 3.98737
45.0667 37.5019 2
46.5329 37.5037 0.0213567
46.84 57.3724 0.013925
47.181 54.2892 0.0144208
48.2052 47.3286 0.0168276
47.6344 50.8373 0.0182545
44.7851 39.4972 -0.0599324
45.279 42.0071 0.0420973
45.1626 44.6382 0.0218142
44.9257 47.4342 0.0245165
42.8463 42.7584 -0.0424515
42.4253 40.8702 -0.00889036
40.9153 42.3525 -0.00597634
45.4013 55.9592 2
42.7632 39.2641 2
40.8662 40.8135 2
46.1713 49.0306 2
45.5705 52.5813 2
43.5519 48.5238 2
43.527 46.2122 2
43.8547 43.8215 2
41.3153 43.928 2
39.2941 42.6795 2
43.7437 54.4682 3.98626
40.9563 39.1784 3.95451
39.2207 40.882 3.95837
43.7543 50.5601 3.98458
42.0742 47.7545 3.97939
42.0122 45.2261 3.95286
39.5353 44.6895 3.99806
37.5063 42.7925 3.9823
43.8766 57.7384 0.0141329
42.108 56.3648 2
40.4222 54.9732 3.98468
35.5734 65.4485 0.0120343
37.8366 63.2335 0.0131482
40.6225 61.6713 0.0135023
40.4447 58.2374 0.0144593
35.6072 63.2274 2
38.25 60.3565 2
38.926 56.5335 2
38.0009 55.2889 3.98469
36.9343 57.6609 3.98524
35.3636 60.9407 3.98632
33.6297 63.3603 0.0128061
30.3793 62.8799 0.0125873
32.1237 62.0286 0.0128165
33.3462 61.5418 2
28.6815 62.2264 2
31.0666 61.247 2
29.4023 60.3181 3.98667
32.356 59.7753 3.9866
28.0185 58.4072 3.98723
27.5668 59.6263 2
25.3753 58.6303 3.98687
22.7497 58.28 3.9867
23.3979 60.3819 3.98778
23.7878 59.1187 2
25.033 60.9004 2
24.4313 62.7926 3.98852
26.8684 61.5253 0.012832
26.2292 63.4991 2
25.5479 65.5067 3.98978
28.0629 64.1658 0.011653
27.4638 66.1964 2
26.8367 68.3394 3.99188
29.4072 66.7717 0.0102726
28.9068 68.9509 2
28.3702 71.2663 3.99501
31.0143 69.4247 0.00835366
30.615 71.7812 2
30.1842 74.2788 4
32.8924 72.1498 0.00510332
32.6053 74.6792 2
35.0474 74.9194 0
31.7873 7.4094 3.98975
33.3465 4.91944 3.99208
33.7229 6.96984 2
35.2444 2.46106 3.99525
35.4345 4.68026 2
35.6203 6.7159 0.00990401
37.5 0 4
37.514 2.38468 2
37.5229 4.61008 0.00766256
39.7884 2.47228 0.00475754
39.9526 0.0802889 2
42.3946 0.32156 0
42.7707 35.7218 3.99372
44.7844 35.5094 2
40.8665 34.1869 3.96944
42.4211 34.1277 2
48.4448 37.7528 0.00899567
51.5792 35.5677 0.0170973
46.1951 35.1132 0.0235403
44.0281 33.7566 -0.0576087
42.0647 32.9995 -0.0158085
48.6063 34.253 2
45.2806 33.001 2
42.846 32.2491 2
40.9116 32.6468 2
46.5802 31.5334 3.98011
43.8555 31.1774 3.9489
41.3199 31.0706 4.02591
39.2897 32.3343 3.98695
35.6913 11.7559 3.9864
37.3098 10.612 2
37.4574 8.52102 0.0111236
38.9759 10.1108 0.0117378
33.0966 11.1982 3.98724
34.7527 10.3623 2
35.8976 9.75754 0.011673
30.4807 10.0022 3.98819
32.3759 9.3547 2
34.1493 8.80893 0.0112817
50.1798 31.3638 0.00963501
49.3887 27.3964 0.0134202
49.4481 24.3308 0.0157891
47.1935 21.863 0.0150289
44.8003 18.4299 0.0158641
42.1004 14.2836 0.0144486
38.3014 12.7138 0.0143975
36.5809 12.9097 2
47.9571 29.4972 2
38.6798 14.7819 2
41.7492 17.8081 2
47.152 25.0374 2
44.2923 21.2777 2
45.6818 27.6834 3.98066
43.8271 23.9777 3.98093
41.343 20.6835 3.98308
35.7701 14.7328 3.98543
38.6803 17.5655 3.98486
41.0078 37.4816 3.94787
42.9021 37.4908 2
45.0699 37.502 -0.0636031
45.4012 55.959 0.0140873
45.5704 52.5809 0.015324
46.1712 49.0302 0.0185585
42.7672 39.2645 0.00754935
43.8528 43.8271 0.0500203
43.5264 46.2132 0.0243739
43.5517 48.5232 0.0225579
41.3153 43.9305 -0.0273588
40.869 40.812 0.0301617
39.2953 42.6755 0.01653
43.7437 54.4685 2
40.953 39.1794 2
39.2192 40.8851 2
43.7543 50.5607 2
42.0745 47.7547 2
42.0137 45.223 2
37.5066 42.7969 2
39.5359 44.6918 2
41.8917 53.0395 3.98412
39.2193 39.1689 3.94852
37.5047 40.9203 3.95908
35.7168 42.662 3.98967
40.9955 49.7758 3.98719
39.8844 46.1223 3.96895
37.4984 44.9493 3.99478
42.1079 56.3645 0.0145337
40.4222 54.9734 2
38.7329 53.9064 3.98499
35.6072 63.2271 0.0130875
38.25 60.3563 0.0140574
38.926 56.5333 0.0147764
35.3636 60.941 2
36.9344 57.6611 2
38.0009 55.2891 2
36.3199 55.4206 3.98493
34.4871 58.5538 3.98603
33.3462 61.5415 0.0133706
28.6815 62.2261 0.012498
31.0666 61.2467 0.0133808
32.3559 59.7756 2
29.4023 60.3184 2
30.2945 57.8511 3.9862
28.0184 58.4075 2
26.9355 56.8626 3.98596
27.5668 59.6261 0.013257
25.3752 58.6306 2
23.8272 56.8501 3.98591
21.3239 57.4423 3.98677
21.9892 59.6567 3.9879
22.7495 58.2803 2
22.7345 62.0456 3.98856
23.3978 60.3822 2
23.7879 59.1184 0.012315
25.033 60.9001 0.0123937
24.4313 62.7929 2
23.6816 64.7258 3.98986
26.2292 63.4988 0.0117564
25.5479 65.507 2
24.8092 67.6011 3.99195
27.4638 66.196 0.0102401
26.8368 68.3397 2
26.1656 70.6073 3.99509
28.9068 68.9506 0.00820788
28.3703 71.2666 2
27.7943 73.7221 4
30.615 71.7809 0.00508174
30.1841 74.2794 2
32.6054 74.6784 0
29.8098 7.98196 3.98962
31.2518 5.32611 3.99193
31.7873 7.40906 2
32.9803 2.69906 3.99522
33.3466 4.91913 2
33.7229 6.97017 0.0100327
35.0474 0.080333 4
35.2445 2.46084 2
35.4344 4.68056 0.00786898
37.5 0 2
37.5141 2.3849 0.0046422
39.9526 0.0806499 0
40.961 35.7966 3.95381
42.7667 35.7224 2
44.7875 35.5056 -0.0654822
28.5418 10.677 3.98794
39.2151 34.1251 3.96134
40.8636 34.1853 2
42.4242 34.1267 -0.00961764
48.6056 34.2533 0.0131923
45.2795 32.9962 0.0413469
42.8475 32.2435 -0.0451619
40.9138 32.6481 -0.0042555
46.5807 31.5341 2
43.8571 31.1833 2
41.3198 31.0729 2
39.2885 32.3307 2
44.632 29.6743 3.97697
42.018 29.7719 3.95315
39.5388 30.3217 3.99463
37.4984 32.2066 3.98144
34.0909 12.9122 3.98615
35.6913 11.7556 2
37.3098 10.6124 0.0126809
31.1847 11.9655 3.98687
33.0966 11.1979 2
34.7527 10.3626 0.012445
30.4806 10.0019 2
32.3759 9.35504 0.011634
47.957 29.4971 0.0138095
47.1519 25.0376 0.0168041
36.5809 12.91 0.0139519
44.2922 21.278 0.0174782
41.7491 17.8085 0.0155741
38.6798 14.7822 0.014827
35.7701 14.7325 2
45.6819 27.6831 2
38.6803 17.5652 2
41.3431 20.6831 2
43.8272 23.9774 2
33.606 15.8493 3.98483
43.1406 26.3768 3.97841
40.9278 23.2569 3.98196
38.4226 20.2921 3.98412
35.8467 17.4796 3.98425
39.2319 37.4832 3.94345
41.0047 37.4816 2
42.9063 37.4908 0.0126278
43.7437 54.4682 0.0137382
43.7543 50.5601 0.0154209
40.9563 39.1784 0.0454941
42.0122 45.2261 0.0471416
42.0742 47.7545 0.0206114
39.5353 44.6895 0.00194006
39.2207 40.882 0.0416325
37.5063 42.7925 0.0177
41.8917 53.0398 2
39.2176 39.1705 2
37.5048 40.9235 2
40.9955 49.776 2
35.7184 42.6653 2
39.8849 46.1229 2
37.4986 44.9526 2
39.8325 51.9551 3.98312
37.5004 39.1786 3.94899
35.7911 40.8805 3.96395
34.0923 42.3465 4.00552
35.463 44.6637 3.99844
38.7465 48.9077 3.9899
37.4984 46.4075 3.96664
40.4222 54.9732 0.0153238
38.7329 53.9065 2
36.7192 53.2495 3.98586
35.3636 60.9407 0.013676
36.9343 57.6609 0.0147629
38.0009 55.2889 0.0153094
34.4871 58.5541 2
36.3199 55.4209 2
33.2229 55.5392 3.98509
32.356 59.7753 0.0133996
29.4023 60.3181 0.0133346
30.2945 57.8514 2
28.6727 55.3491 3.98458
28.0185 58.4072 0.0127731
26.9354 56.863 2
25.2896 55.1931 3.98516
21.7888 55.3966 3.98565
25.3753 58.6303 0.0131283
23.8271 56.8504 2
20.2066 57.0742 3.98718
20.6387 58.8176 3.9877
21.3238 57.4426 2
21.1637 61.198 3.98881
21.9891 59.657 2
22.7497 58.28 0.0133025
21.8946 63.8552 3.98992
22.7345 62.0459 2
23.3979 60.3819 0.0122196
24.4313 62.7926 0.0114849
23.6816 64.7262 2
22.8376 66.7455 3.99197
25.5479 65.5067 0.0102176
24.8093 67.6015 2
24.01 69.8087 3.99516
26.8367 68.3394 0.00812236
26.1657 70.6076 2
25.446 73.0099 4
28.3702 71.2663 0.00499214
27.7943 73.7222 2
30.1842 74.2788 0
27.8198 8.64085 3.98943
29.154 5.87132 3.99178
29.8098 7.98162 2
30.7257 3.09601 3.99515
31.2519 5.32578 2
31.7873 7.4094 0.0102492
32.6053 0.320823 4
32.9804 2.69882 2
33.3465 4.91944 0.00792468
35.0474 0.0802903 2
35.2444 2.46106 0.00474791
37.5 0 0
39.2239 35.8108 3.94927
40.9578 35.7956 2
42.7707 35.7218 0.00627991
28.5418 10.6767 2
26.621 11.3707 3.98815
29.2239 12.6219 3.98697
37.4959 34.0819 3.95803
39.2135 34.1223 2
40.8665 34.1869 0.0305582
46.5802 31.5334 0.0198896
43.8555 31.1774 0.0510969
41.3199 31.0706 -0.0259077
39.2897 32.3343 0.0130537
44.6326 29.6747 2
42.0191 29.775 2
39.5391 30.3197 2
37.4986 32.2026 2
42.4749 28.3243 3.97965
39.8891 28.8892 3.96286
37.5026 30.0443 3.99359
35.7089 32.3273 3.98585
31.9126 14.4566 3.98576
34.0908 12.9119 2
35.6913 11.7559 0.0136048
31.1847 11.9652 2
33.0966 11.1982 0.0127626
30.4807 10.0022 0.0118094
45.6818 27.6834 0.0193356
43.8271 23.9777 0.0190695
35.7701 14.7328 0.0145716
41.343 20.6835 0.0169179
38.6803 17.5655 0.0151361
33.606 15.849 2
35.8467 17.4792 2
43.1407 26.3767 2
38.4227 20.2917 2
40.9279 23.2565 2
33.5481 17.3577 3.98439
40.4936 25.558 3.97941
38.0832 22.8243 3.98308
35.5833 20.0467 3.98284
37.5015 37.4905 3.94472
39.2303 37.4832 2
41.0078 37.4816 0.0521282
41.8917 53.0395 0.0158769
40.9955 49.7758 0.0128123
39.2193 39.1689 0.0514772
39.8844 46.1223 0.0310462
37.4984 44.9493 0.00522386
37.5047 40.9203 0.0409242
35.7168 42.662 0.0103308
39.8326 51.9553 2
37.5004 39.1802 2
35.7929 40.8831 2
38.7464 48.908 2
34.0948 42.3476 2
35.463 44.6651 2
37.4984 46.4089 2
37.6644 51.105 3.98488
35.7856 39.178 3.95197
34.1476 40.814 3.97139
32.9396 41.9948 4.01677
33.6815 43.9186 4.02744
35.1133 46.0934 3.96524
36.8621 48.4951 3.97949
38.7329 53.9064 0.0150136
36.7192 53.2498 2
34.3471 52.5251 3.98394
34.4871 58.5538 0.0139688
36.3199 55.4206 0.0150691
33.2228 55.5396 2
30.496 53.4597 3.98311
30.2945 57.8511 0.0138042
28.6725 55.3496 2
26.85 53.5017 3.98381
26.9355 56.8626 0.0140374
25.2894 55.1934 2
23.5383 53.541 3.98478
20.4322 53.2849 3.98531
19.9151 55.8803 3.98654
21.7886 55.3968 2
23.8272 56.8501 0.0140901
19.4291 57.9329 3.9875
20.2065 57.0744 2
19.7023 60.2346 3.9886
20.6386 58.8179 2
21.3239 57.4423 0.013228
20.2064 62.8785 3.99009
21.1637 61.1984 2
21.9892 59.6567 0.0120987
20.939 65.7756 3.99202
21.8947 63.8555 2
22.7345 62.0456 0.0114444
23.6816 64.7258 0.0101432
22.8377 66.7459 2
21.9127 68.8762 3.99516
24.8092 67.6011 0.00804709
24.0101 69.8091 2
23.1494 72.1454 4
26.1656 70.6073 0.00490859
25.446 73.0099 2
27.7943 73.7221 0
25.8592 9.36778 3.98964
27.0689 6.53467 3.99166
27.8198 8.64052 2
28.488 3.64168 3.99505
29.154 5.87098 2
29.8098 7.98196 0.0103839
30.1841 0.720592 4
30.7258 3.09574 2
31.2518 5.32611 0.00806782
32.6053 0.320817 2
32.9803 2.69906 0.00478253
35.0474 0.080333 0
37.5011 35.8087 3.94784
39.2222 35.8093 2
40.961 35.7966 0.0461863
24.776 12.0523 3.98832
23.75 14.3329 3.98772
28.5418 10.677 0.0120571
26.6209 11.3704 2
29.2238 12.6216 2
27.2901 13.3532 3.9869
29.7787 14.179 3.9867
35.781 34.1146 3.96074
37.4959 34.079 2
39.2151 34.1251 0.0386594
37.4984 32.2066 0.0185574
44.632 29.6743 0.0230312
42.018 29.7719 0.0468504
39.5388 30.3217 0.00537132
42.4753 28.3246 2
39.8897 28.8891 2
37.5026 30.0416 2
35.7105 32.3234 2
40.1136 27.4674 3.98326
37.5024 28.5875 3.96273
35.4651 30.3157 3.99425
34.0884 32.6426 4.00499
30.9242 16.8112 3.98538
31.9126 14.4562 2
34.0909 12.9122 0.0138528
31.1847 11.9655 0.0131266
43.1406 26.3768 0.0215932
40.9278 23.2569 0.0180409
33.606 15.8493 0.0151679
35.8467 17.4796 0.0157455
38.4226 20.2921 0.0158794
33.5481 17.3573 2
35.5833 20.0463 2
40.4937 25.5575 2
38.0832 22.8239 2
32.8607 19.7644 3.98333
37.7849 25.1439 3.98025
35.2039 22.6061 3.98108
35.7738 37.4942 3.94566
37.5016 37.4906 2
39.2319 37.4832 0.0565468
39.8325 51.9551 0.016881
38.7465 48.9077 0.0100954
37.5004 39.1786 0.0510115
37.4984 46.4075 0.0333617
35.463 44.6637 0.00155777
35.7911 40.8805 0.0360514
34.0923 42.3465 -0.00551967
37.6644 51.1054 2
35.7874 39.1794 2
34.1507 40.8154 2
36.862 48.4955 2
32.9423 41.9931 2
33.6818 43.9158 2
35.1127 46.0927 2
35.4069 50.2821 3.98077
34.0561 39.1889 3.95602
32.5813 40.8684 4.01074
32.153 42.7495 4.04615
32.9849 45.219 3.95373
34.216 47.5122 3.97565
36.7192 53.2495 0.0141386
34.347 52.5257 2
31.9578 51.3 3.98117
33.2229 55.5392 0.0149061
30.4959 53.4602 2
28.381 51.7081 3.982
28.6727 55.3491 0.0154195
26.8499 53.502 2
25.0281 51.8452 3.98402
25.2896 55.1931 0.0148381
23.5382 53.5412 2
21.9146 51.8793 3.9853
19.155 51.6981 3.98583
18.8955 54.3606 3.98581
20.4321 53.285 2
18.4344 56.767 3.9873
19.915 55.8806 2
21.7888 55.3966 0.014355
18.3628 59.1453 3.98826
19.4291 57.9332 2
20.2066 57.0742 0.0128232
18.6165 61.7885 3.98996
19.7022 60.235 2
20.6387 58.8176 0.0122959
19.1276 64.6878 3.99209
20.2064 62.8789 2
21.1637 61.198 0.0111882
19.8868 67.8133 3.99519
20.9391 65.776 2
21.8946 63.8552 0.0100791
22.8376 66.7455 0.00803186
21.9128 68.8766 2
20.9142 71.1327 4
24.01 69.8087 0.00484432
23.1494 72.1455 2
25.446 73.0099 0
23.0954 12.7657 3.9885
23.9721 10.1533 3.98976
25.023 7.30394 3.99178
25.8592 9.36744 2
26.2799 4.32558 3.99499
27.069 6.53433 2
27.8198 8.64085 0.0105702
27.7943 1.27781 4
28.4881 3.6414 2
29.154 5.87132 0.00822342
30.1841 0.720551 2
30.7257 3.09601 0.00484929
32.6053 0.320823 0
35.7803 35.8124 3.94994
37.5011 35.8073 2
39.2239 35.8108 0.0507336
24.776 12.052 2
23.7499 14.3327 2
22.4783 15.0075 3.98793
25.3563 13.8837 3.98733
24.0227 15.5927 3.98727
26.621 11.3707 0.0118526
29.2239 12.6219 0.0130322
27.29 13.353 2
29.7786 14.1788 2
28.3549 15.9508 3.98637
34.1384 34.1792 3.97002
35.7826 34.1117 2
37.4959 34.0819 0.0419728
35.7089 32.3273 0.0141458
37.5026 30.0443 0.00640708
42.4749 28.3243 0.0203535
39.8891 28.8892 0.03714
40.1138 27.4671 2
37.5025 28.5864 2
35.4648 30.3135 2
34.0909 32.6414 2
37.6 27.1112 3.98234
35.1146 28.8822 3.96368
33.6831 31.0675 4.02786
32.9377 32.9969 4.01895
30.2049 19.3125 3.98528
30.9242 16.811 2
31.9126 14.4566 0.0142351
40.4936 25.558 0.0205888
38.0832 22.8243 0.0169217
33.5481 17.3577 0.0156071
35.5833 20.0467 0.0171604
32.8607 19.7641 2
35.2039 22.6058 2
37.7849 25.1436 2
32.3056 22.3779 3.98269
34.9307 25.1119 3.97956
34.0035 37.4952 3.94947
35.7755 37.4941 2
37.5015 37.4905 0.0552808
37.6644 51.105 0.0151163
36.8621 48.4951 0.0205094
35.7856 39.178 0.0480335
35.1133 46.0934 0.0347606
33.6815 43.9186 -0.0274357
34.1476 40.814 0.0286128
32.9396 41.9948 -0.0167713
35.4068 50.2828 2
34.0594 39.1898 2
32.5847 40.8672 2
34.2158 47.5118 2
32.1546 42.7438 2
32.9837 45.2155 2
33.1535 49.2756 3.97802
32.2356 39.2702 3.99501
30.9706 41.2398 4.05813
31.1467 43.8183 3.94901
32.1022 46.4429 3.97655
34.3471 52.5251 0.0160594
31.9576 51.3007 2
29.776 49.8313 3.97985
30.496 53.4597 0.0168907
28.3809 51.7084 2
26.4285 50.0975 3.98329
26.85 53.5017 0.0161862
25.0279 51.8454 2
23.2701 50.2825 3.98579
23.5383 53.541 0.0152186
21.9145 51.8792 2
20.4048 50.3878 3.98655
17.9381 50.3901 3.98675
17.7994 52.8462 3.98588
19.1549 51.6982 2
17.4186 55.3859 3.98663
18.8955 54.3607 2
20.4322 53.2849 0.0146899
17.1266 57.91 3.98816
18.4344 56.7673 2
19.9151 55.8803 0.0134589
17.133 60.5746 3.98966
18.3627 59.1456 2
19.4291 57.9329 0.0125001
17.4075 63.482 3.99202
18.6165 61.7889 2
19.7023 60.2346 0.0114037
17.9429 66.6224 3.99521
19.1276 64.6882 2
20.2064 62.8785 0.00990681
18.75 69.9759 4
19.8869 67.8137 2
20.939 65.7756 0.00798317
21.9127 68.8762 0.0048355
20.9142 71.1327 2
23.1494 72.1454 0
21.5861 13.584 3.9887
22.1904 11.0113 3.98985
23.0954 12.7654 2
23.0412 8.16849 3.99186
23.9721 10.1529 2
24.1176 5.13992 3.99502
25.023 7.30358 2
25.8592 9.36778 0.0103561
25.446 1.99014 4
26.28 4.32527 2
27.0689 6.53467 0.0083384
27.7943 1.27778 2
28.488 3.64168 0.00494968
30.1841 0.720592 0
34.0478 35.8021 3.95412
35.782 35.8109 2
37.5011 35.8087 0.0521627
21.3029 15.801 3.98769
24.776 12.0523 0.0116815
23.75 14.3329 0.0122828
25.3562 13.8834 2
22.4782 15.0072 2
24.0226 15.5924 2
23.2615 16.2223 3.98699
25.3781 16.0607 3.98698
27.2901 13.3532 0.0130973
29.7787 14.179 0.0133032
28.3548 15.9505 2
27.4362 18.7681 3.98617
32.5774 34.1247 4.01158
34.1413 34.1776 2
35.781 34.1146 0.0392573
34.0884 32.6426 -0.0049905
35.4651 30.3157 0.00574631
37.5024 28.5875 0.0372718
40.1136 27.4674 0.0167413
37.6 27.1107 2
32.9404 32.9987 2
35.1141 28.8818 2
33.6832 31.07 2
34.9924 27.2678 3.98598
32.9855 29.7708 3.95286
32.1554 32.2432 4.04807
29.5645 21.9072 3.98653
30.2049 19.3122 2
30.9242 16.8112 0.0146175
37.7849 25.1439 0.0197491
35.2039 22.6061 0.0189195
32.8607 19.7644 0.0166717
32.3056 22.3777 2
34.9306 25.1116 2
31.6112 25.5524 3.9807
32.0977 37.4982 3.9879
34.0068 37.4952 2
35.7738 37.4942 0.0543427
35.4069 50.2821 0.0192329
34.216 47.5122 0.0243507
34.0561 39.1889 0.0439775
32.9849 45.219 0.0462694
32.153 42.7495 -0.0461466
32.5813 40.8684 -0.0107376
33.1534 49.2761 2
32.2397 39.2696 2
30.9732 41.2341 2
32.1018 46.4423 2
31.145 43.8121 2
31.0139 48.0255 3.9765
30.2099 39.493 4.06599
29.7202 42.003 3.95831
30.1763 45.0149 3.97591
31.9578 51.3 0.0188286
29.7759 49.8316 2
27.7529 48.3031 3.98235
28.381 51.7081 0.0180019
26.4284 50.0976 2
24.5476 48.5688 3.98667
25.0281 51.8452 0.0159841
23.27 50.2824 2
21.569 48.8723 3.9878
21.9146 51.8793 0.0146981
20.4047 50.3878 2
18.9695 49.1584 3.9878
16.844 49.3855 3.98713
16.7351 51.46 3.98635
17.938 50.3902 2
16.3653 53.9174 3.98638
17.7993 52.8463 2
19.155 51.6981 0.0141712
15.9652 56.5139 3.98771
17.4186 55.3861 2
18.8955 54.3606 0.0141947
15.7454 59.2383 3.98949
17.1266 57.9103 2
18.4344 56.767 0.0126967
15.7875 62.1546 3.99183
17.133 60.575 2
18.3628 59.1453 0.0117371
16.0894 65.3055 3.99518
17.4076 63.4824 2
18.6165 61.7885 0.0100359
16.6661 68.6801 4
17.9431 66.6228 2
19.1276 64.6878 0.00791366
18.75 69.9759 2
19.8868 67.8133 0.00480911
20.9142 71.1327 0
20.2177 14.5706 3.98849
21.5861 13.5837 2
20.5297 11.9797 3.98996
21.1444 9.13744 3.99192
22.1904 11.011 2
23.0954 12.7657 0.0115039
22.0167 6.07856 3.99508
23.0412 8.16812 2
23.9721 10.1533 0.0102404
23.1494 2.85457 4
24.1177 5.13959 2
25.023 7.30394 0.00822474
25.446 1.99012 2
26.2799 4.32558 0.00500522
27.7943 1.27781 0
32.2328 35.7254 3.99151
34.0511 35.8011 2
35.7803 35.8124 0.0500601
21.3029 15.8007 2
20.2992 16.9318 3.98759
22.0943 16.6049 3.98739
25.3563 13.8837 0.0126678
22.4783 15.0075 0.012069
24.0227 15.5927 0.0127326
25.378 16.0604 2
23.2614 16.2221 2
24.2003 18.4177 3.98639
27.0027 21.4234 3.98643
28.3549 15.9508 0.0136325
27.4362 18.7679 2
30.9716 33.7576 4.06092
32.5805 34.1257 2
34.1384 34.1792 0.0299835
32.9377 32.9969 -0.0189504
33.6831 31.0675 -0.0278564
35.1146 28.8822 0.0363206
37.6 27.1112 0.0176646
34.9922 27.2676 2
32.157 32.2492 2
32.9844 29.7741 2
32.3819 28.0212 3.98219
31.1487 31.1816 3.95295
28.7327 24.3768 3.98553
29.5645 21.9069 2
30.2049 19.3125 0.0147248
34.9307 25.1119 0.0204441
32.3056 22.3779 0.0173091
31.611 25.5523 2
29.5041 27.1848 3.98388
29.9263 37.4983 4.06346
32.102 37.4981 2
34.0035 37.4952 0.0505326
33.1535 49.2756 0.0219839
32.1022 46.4429 0.0234482
32.2356 39.2702 0.00499014
31.1467 43.8183 0.0509877
30.9706 41.2398 -0.0581292
31.0137 48.0256 2
30.2132 39.4893 2
29.719 41.9979 2
30.1756 45.0143 2
29.0068 46.5596 3.97876
28.8024 39.8869 3.9764
28.4028 43.2032 3.97967
29.776 49.8313 0.02015
27.7528 48.3033 2
25.7943 46.7597 3.98741
26.4285 50.0975 0.0167068
24.5475 48.5687 2
22.6884 47.1702 3.98937
23.2701 50.2825 0.0142098
21.5689 48.8723 2
19.9031 47.6886 3.9887
20.4048 50.3878 0.0134496
18.9693 49.1585 2
17.6117 48.2349 3.98754
16.095 48.732 3.98673
16.8438 49.3857 2
15.8102 50.2194 3.9867
15.3506 52.4616 3.98647
16.735 51.4602 2
17.9381 50.3901 0.0132466
14.8534 55.0165 3.98724
16.3653 53.9176 2
17.7994 52.8462 0.014118
14.4533 57.7693 3.98915
15.9652 56.5142 2
17.4186 55.3859 0.0133681
14.2651 60.7112 3.99165
15.7454 59.2387 2
17.1266 57.91 0.0118403
14.3334 63.8653 3.99509
15.7876 62.155 2
17.133 60.5746 0.0103404
14.6715 67.2507 4
16.0895 65.3059 2
17.4075 63.482 0.00797705
16.6661 68.6801 2
17.9429 66.6224 0.0047946
18.75 69.9759 0
18.9307 15.7544 3.98836
20.2177 14.5702 2
18.9793 13.0885 3.98981
21.5861 13.584 0.0112957
20.5298 11.9793 2
19.3439 10.2243 3.99197
19.9915 7.14287 3.99511
21.1445 9.13705 2
22.1904 11.0113 0.010149
20.9142 3.86727 4
22.0169 6.07821 2
23.0412 8.16849 0.00813564
23.1494 2.85451 2
24.1176 5.13992 0.00497536
25.446 1.99014 0
30.2081 35.5045 4.06039
32.2368 35.7259 2
34.0478 35.8021 0.0458848
21.3029 15.801 0.0123137
22.0943 16.6047 2
20.2991 16.9315 2
19.2364 18.3749 3.98743
21.7779 17.8174 3.98716
25.3781 16.0607 0.013025
23.2615 16.2223 0.0130086
24.2002 18.4175 2
22.2682 19.8537 3.9866
24.5779 21.2809 3.98608
26.3666 23.6794 3.98629
27.0027 21.4232 2
27.4362 18.7681 0.0138265
29.7246 32.9993 3.96559
30.9738 33.7633 2
32.5774 34.1247 -0.0115833
32.1554 32.2432 -0.0480681
32.9855 29.7708 0.0471405
34.9924 27.2678 0.0140241
32.3816 28.021 2
31.1471 31.1883 2
29.8794 29.4827 3.98136
27.7598 26.4929 3.98266
28.7326 24.3764 2
29.5645 21.9072 0.0134713
31.6112 25.5524 0.0193011
29.5039 27.1845 2
28.4625 37.4975 3.97754
29.9298 37.4984 2
32.0977 37.4982 0.0121042
31.0139 48.0255 0.0234956
30.1763 45.0149 0.0240885
30.2099 39.493 -0.0659879
29.7202 42.003 0.0416876
29.0067 46.5598 2
28.802 39.8836 2
28.4022 43.2023 2
27.0604 44.9067 3.98496
26.517 40.6351 3.98729
27.7529 48.3031 0.0176469
25.7942 46.7597 2
23.8173 45.2956 3.99067
24.5476 48.5688 0.0133266
22.6882 47.1703 2
20.8164 45.9676 3.98884
21.569 48.8723 0.0121956
19.9029 47.6888 2
18.2469 46.7934 3.98738
18.9695 49.1584 0.0121966
17.6114 48.2351 2
16.2807 47.7605 3.98641
16.0948 48.7322 2
15.1546 49.0602 3.98639
16.844 49.3855 0.0128749
15.81 50.2196 2
14.4615 51.0279 3.9866
13.8121 53.4729 3.98704
15.3506 52.4618 2
16.7351 51.46 0.0136465
13.2464 56.1987 3.98865
14.8533 55.0168 2
16.3653 53.9174 0.0136238
12.8471 59.1467 3.99139
14.4533 57.7697 2
15.9652 56.5139 0.0122923
12.6786 62.3085 3.99497
14.2652 60.7117 2
15.7454 59.2383 0.0105096
12.7746 65.6939 4
14.3335 63.8657 2
15.7875 62.1546 0.00817414
14.6714 67.2507 2
16.0894 65.3055 0.0048204
16.6661 68.6801 0
17.664 17.1267 3.9881
18.9307 15.7541 2
17.5102 14.3499 3.98964
20.2177 14.5706 0.0115142
18.9793 13.0881 2
17.6395 11.4417 3.99189
20.5297 11.9797 0.0100425
19.344 10.2239 2
18.0517 8.33529 3.99512
18.75 5.0241 4
19.9916 7.14249 2
21.1444 9.13744 0.00807624
20.9142 3.86727 2
22.0167 6.07856 0.00492467
23.1494 2.85457 0
28.7972 35.1094 3.97296
30.2113 35.5082 2
32.2328 35.7254 0.00849237
22.0943 16.6049 0.0126059
20.2992 16.9318 0.0124099
21.7778 17.8171 2
19.2363 18.3746 2
17.9686 19.903 3.98732
20.8678 19.3401 3.98704
24.2003 18.4177 0.0136059
22.2681 19.8535 2
24.5778 21.2807 2
22.3388 21.6735 3.9865
24.6543 23.1231 3.98645
25.3599 25.9039 3.98338
26.3665 23.6791 2
27.0027 21.4234 0.0135716
28.0736 32.2703 3.98571
29.7231 33.0044 2
30.9716 33.7576 -0.0609238
31.1487 31.1816 0.0470537
32.3819 28.0212 0.0178081
29.879 29.4824 2
26.8447 29.0953 3.9786
27.7596 26.4925 2
28.7327 24.3768 0.0144672
29.5041 27.1848 0.0161178
26.6257 37.366 3.98843
28.4627 37.4973 2
29.9263 37.4983 -0.063464
29.0068 46.5596 0.0212404
28.4028 43.2032 0.0203342
28.8024 39.8869 0.0236024
27.0603 44.9066 2
26.5162 40.6352 2
25.0229 43.2228 3.98977
23.7721 39.4376 3.98442
25.7943 46.7597 0.0125908
23.8171 45.2959 2
21.7741 44.0114 3.98751
22.6884 47.1702 0.0106306
20.8161 45.9679 2
18.8937 45.0211 3.9867
19.9031 47.6886 0.011302
18.2467 46.7936 2
16.5627 46.2558 3.98598
17.6117 48.2349 0.012456
16.2805 47.7607 2
14.8804 47.7109 3.98579
16.095 48.732 0.0132659
15.1544 49.0604 2
13.757 49.5856 3.98635
15.8102 50.2194 0.0132956
14.4614 51.0281 2
12.8765 51.9104 3.98696
12.1318 54.5577 3.98827
13.8121 53.4731 2
15.3506 52.4616 0.0135332
11.5308 57.4803 3.99096
13.2464 56.199 2
14.8534 55.0165 0.0127562
11.1332 60.6356 3.99481
12.8471 59.1471 2
14.4533 57.7693 0.0108521
10.9835 64.0165 4
12.6787 62.309 2
14.2651 60.7112 0.00835023
12.7745 65.694 2
14.3334 63.8653 0.00491384
14.6715 67.2507 0
16.3943 18.6169 3.98798
17.6639 17.1264 2
16.1006 15.7562 3.98944
18.9307 15.7544 0.0116391
17.5102 14.3496 2
16.021 12.7932 3.99173
18.9793 13.0885 0.0101878
17.6396 11.4413 2
16.2029 9.65778 3.99509
19.3439 10.2243 0.00803401
18.0519 8.33488 2
16.6661 6.31991 4
18.75 5.02404 2
19.9915 7.14287 0.00488932
20.9142 3.86727 0
27.1383 34.7433 3.99224
28.7969 35.1127 2
30.2081 35.5045 -0.0603866
16.6638 21.3342 3.98672
21.7779 17.8174 0.0128411
19.2364 18.3749 0.012569
20.8677 19.3399 2
17.9685 19.9028 2
19.7061 21.5281 3.98683
22.2682 19.8537 0.0134001
24.5779 21.2809 0.0139192
22.3387 21.6733 2
24.6542 23.1229 2
22.7846 24.5529 3.985
24.4013 28.4834 3.98175
25.3597 25.9037 2
26.3666 23.6794 0.0137106
25.9239 31.6779 3.98188
28.0729 32.2704 2
29.7246 32.9993 0.0344109
29.8794 29.4827 0.0186449
26.8444 29.0952 2
27.7598 26.4929 0.0173366
24.4493 36.8543 3.98956
26.6251 37.3661 2
28.4625 37.4975 0.0224581
27.0604 44.9067 0.0150435
26.517 40.6351 0.0127057
25.0225 43.2232 2
23.7715 39.4377 2
22.8074 41.8411 3.9842
21.5376 38.5037 3.98733
23.8173 45.2956 0.00932959
21.7738 44.0118 2
19.6296 42.9285 3.98539
20.8164 45.9676 0.0111568
18.8934 45.0213 2
16.8814 44.4167 3.98576
18.2469 46.7934 0.0126175
16.5624 46.256 2
14.795 46.1265 3.98545
16.2807 47.7605 0.0135862
14.8801 47.7111 2
13.2609 48.0443 3.98578
15.1546 49.0602 0.013612
13.7568 49.5858 2
12.0934 50.2864 3.98671
14.4615 51.0279 0.0133971
12.8764 51.9107 2
11.1257 52.8658 3.98799
10.3203 55.7331 3.99048
12.1318 54.558 2
13.8121 53.4729 0.0129584
9.69991 58.8595 3.99454
11.5309 57.4808 2
13.2464 56.1987 0.0113479
9.30605 62.2254 4
11.1333 60.6361 2
12.8471 59.1467 0.00860588
10.9835 64.0165 2
12.6786 62.3085 0.00503324
12.7746 65.6939 0
15.1359 20.1483 3.98753
16.3942 18.6166 2
14.7452 17.276 3.9892
17.664 17.1267 0.0118976
16.1006 15.7558 2
14.4832 14.2726 3.99154
17.5102 14.3499 0.0103594
16.0211 12.7928 2
14.4456 11.1083 3.99499
17.6395 11.4417 0.00811224
16.203 9.65734 2
14.6715 7.74927 4
18.0517 8.33529 0.00487662
16.6661 6.31988 2
18.75 5.0241 0
25.092 34.2579 3.99371
27.1376 34.7435 2
28.7972 35.1094 0.0270426
17.8311 22.2771 3.98701
15.5028 22.8757 3.98622
16.6637 21.3339 2
20.8678 19.3401 0.012962
17.9686 19.903 0.0126777
19.706 21.5278 2
19.6146 24.333 3.98555
22.3388 21.6735 0.0134953
24.6543 23.1231 0.0135521
22.7844 24.5526 2
21.7979 27.7763 3.98256
23.557 31.1484 3.98451
24.4011 28.4833 2
25.3599 25.9039 0.0166178
25.9235 31.678 2
28.0736 32.2703 0.0142917
26.8447 29.0953 0.0214049
22.2387 36.2549 3.99193
24.4488 36.8543 2
26.6257 37.366 0.0115713
25.0229 43.2228 0.0102315
23.7721 39.4376 0.0155835
22.807 41.8415 2
21.5372 38.5036 2
20.5357 40.6531 3.984
19.9075 37.7813 3.98975
21.7741 44.0114 0.0124865
19.6293 42.9286 2
17.2644 42.1267 3.98522
18.8937 45.0211 0.0133005
16.8811 44.4168 2
14.7892 44.2301 3.98531
16.5627 46.2558 0.0140208
14.7948 46.1266 2
12.9288 46.3269 3.98548
14.8804 47.7109 0.0142074
13.2607 48.0445 2
11.4625 48.5804 3.9862
13.757 49.5856 0.0136453
12.0932 50.2867 2
10.2498 51.1078 3.98763
12.8765 51.9104 0.0130432
11.1256 52.8662 2
9.2282 53.911 3.99003
8.38352 56.9936 3.99418
10.3204 55.7335 2
12.1318 54.5577 0.0117272
7.74927 60.3285 4
9.7 58.86 2
11.5308 57.4803 0.00904071
9.306 62.2255 2
11.1332 60.6356 0.00518772
10.9835 64.0165 0
13.9444 21.7132 3.9872
15.1359 20.148 2
13.4444 18.8705 3.98881
16.3943 18.6169 0.0120165
14.7452 17.2756 2
13.0283 15.8629 3.99129
16.1006 15.7562 0.0105573
14.4833 14.2722 2
12.7828 12.6808 3.99486
16.021 12.7932 0.00826802
14.4457 11.1078 2
12.7746 9.30605 4
16.2029 9.65778 0.00491047
14.6715 7.74924 2
16.6661 6.31991 0
22.8394 33.7677 3.99365
25.0914 34.2581 2
27.1383 34.7433 0.00776085
17.5878 23.9949 3.98634
17.831 22.2769 2
14.2804 24.408 3.9857
15.5027 22.8754 2
16.6638 21.3342 0.0132762
18.9498 27.1566 3.98323
19.7061 21.5281 0.0131653
19.6145 24.3327 2
21.0197 30.624 3.98345
22.7846 24.5529 0.0149955
21.7978 27.7762 2
23.5566 31.1486 2
24.4013 28.4834 0.0182527
25.9239 31.6779 0.0181219
20.0167 35.9072 3.9914
22.2382 36.2548 2
24.4493 36.8543 0.0104354
22.8074 41.8411 0.0157988
21.5376 38.5037 0.0126681
20.5354 40.6531 2
19.9071 37.7812 2
17.919 39.0089 3.98747
19.6296 42.9285 0.0146141
17.2641 42.1268 2
14.7276 41.9386 3.98568
16.8814 44.4167 0.0142404
14.7889 44.2301 2
12.6641 44.4178 3.9855
14.795 46.1265 0.014546
12.9286 46.327 2
10.9614 46.7606 3.98579
13.2609 48.0443 0.014218
11.4623 48.5806 2
9.51153 49.2654 3.98707
12.0934 50.2864 0.0132896
10.2498 51.1081 2
8.26018 52.0231 3.98955
11.1257 52.8658 0.0120108
9.2282 53.9115 2
7.19244 55.0448 3.99377
6.31991 58.3339 4
8.3836 56.9942 2
10.3203 55.7331 0.00952189
7.74924 60.3285 2
9.69991 58.8595 0.00545639
9.30605 62.2254 0
13.1997 25.3248 3.98627
12.8079 23.2425 3.98684
13.9443 21.7129 2
12.2275 20.5181 3.98845
15.1359 20.1483 0.0124675
13.4443 18.8701 2
11.6574 17.5419 3.99098
14.7452 17.276 0.0107991
13.0283 15.8624 2
11.2201 14.3646 3.99469
14.4832 14.2726 0.00845723
12.7829 12.6803 2
10.9835 10.9835 4
14.4456 11.1083 0.00500848
12.7745 9.306 2
14.6715 7.74927 0
20.4152 33.3651 3.98989
22.8389 33.7678 2
25.092 34.2579 0.00629477
15.8504 26.3571 3.98466
17.5877 23.9947 2
17.8311 22.2771 0.0129908
14.2802 24.4078 2
15.5028 22.8757 0.0137784
18.2768 30.1357 3.98308
18.9496 27.1565 2
19.6146 24.333 0.0144527
21.0195 30.624 2
21.7979 27.7763 0.0174409
23.557 31.1484 0.0154885
17.5341 35.9533 3.99212
20.0162 35.9072 2
22.2387 36.2549 0.00807149
20.5357 40.6531 0.0160029
19.9075 37.7813 0.0102479
17.9187 39.0088 2
14.2249 39.1841 3.98834
17.2644 42.1267 0.0147799
14.7274 41.9385 2
12.3456 42.2963 3.98688
14.7892 44.2301 0.0146887
12.6639 44.4179 2
10.5355 44.8252 3.98574
12.9288 46.3269 0.0145231
10.9613 46.7608 2
8.89232 47.3417 3.98653
11.4625 48.5804 0.0138004
9.5114 49.2657 2
7.42618 50.055 3.98894
10.2498 51.1078 0.0123728
8.26015 52.0235 2
6.13278 53.0199 3.99333
9.2282 53.911 0.00997
7.1925 55.0454 2
5.0241 56.25 4
6.31988 58.3339 2
8.38352 56.9936 0.00582221
7.74927 60.3285 0
13.4304 26.7785 3.98479
11.9185 24.7532 3.9861
13.1996 25.3246 2
11.1281 22.2027 3.98804
12.8078 23.2423 2
13.9444 21.7132 0.0128031
12.2275 20.5177 2
10.3865 19.2955 3.99066
13.4444 18.8705 0.0111882
11.6574 17.5414 2
9.76105 16.1465 3.99449
13.0283 15.8629 0.00870981
11.2202 14.3641 2
9.30607 12.7746 4
12.7828 12.6808 0.00513944
10.9835 10.9835 2
12.7746 9.30605 0
17.7288 33.0859 3.98821
20.4147 33.3652 2
22.8394 33.7677 0.00634806
15.4259 29.6022 3.9841
15.8503 26.3569 2
17.5878 23.9949 0.0136604
14.2804 24.408 0.0142991
18.2766 30.1357 2
18.9498 27.1566 0.016772
21.0197 30.624 0.0165464
14.8067 36.0104 3.99092
17.5336 35.9534 2
20.0167 35.9072 0.00860203
12.5279 37.8317 3.98822
17.919 39.0089 0.0125339
14.2246 39.184 2
11.8542 40.1538 3.98855
14.7276 41.9386 0.014324
12.3454 42.2962 2
10.1312 42.7958 3.98657
12.6641 44.4178 0.0144983
10.5354 44.8252 2
8.36847 45.3404 3.98628
10.9614 46.7606 0.0142103
8.89218 47.342 2
6.71659 48.0183 3.98827
9.51153 49.2654 0.0129277
7.42612 50.0554 2
5.20914 50.9228 3.99278
8.26018 52.0231 0.0104475
6.13282 53.0204 2
3.86727 54.0858 4
7.19244 55.0448 0.0062257
5.02404 56.25 2
6.31991 58.3339 0
12.8802 29.003 3.98462
11.3454 26.4565 3.98543
13.4303 26.7783 2
10.1851 23.9382 3.98723
11.9184 24.753 2
13.1997 25.3248 0.0137324
9.23737 21.1143 3.9902
11.128 22.2024 2
12.8079 23.2425 0.0131598
12.2275 20.5181 0.0115466
10.3865 19.295 2
8.4169 18.0161 3.99425
11.6574 17.5419 0.00901664
9.76114 16.146 2
7.74928 14.6715 4
11.2201 14.3646 0.00531425
9.30602 12.7745 2
10.9835 10.9835 0
14.4085 32.8392 3.98728
17.7284 33.086 2
20.4152 33.3651 0.0101097
15.4257 29.6021 2
15.8504 26.3571 0.0153434
18.2768 30.1357 0.0169161
12.8113 36.2041 3.98911
14.8063 36.0104 2
17.5341 35.9533 0.00787523
12.5276 37.8318 2
11.2108 38.3161 3.98813
14.2249 39.1841 0.0116646
11.854 40.1538 2
9.71329 40.7671 3.98793
12.3456 42.2963 0.0131175
10.131 42.7958 2
7.91559 43.2855 3.98676
10.5355 44.8252 0.0142572
8.36832 45.3405 2
6.12186 45.9211 3.9878
8.89232 47.3417 0.0134706
6.71651 48.0187 2
4.42027 48.7628 3.99211
7.42618 50.055 0.0110605
5.20916 50.9233 2
2.85457 51.8506 4
6.13278 53.0199 0.00666604
3.86727 54.0858 2
5.0241 56.25 0
12.0169 31.2321 3.9877
10.7552 28.3887 3.98489
12.8801 29.0029 2
9.39822 25.7717 3.98648
11.3453 26.4563 2
13.4304 26.7785 0.0152109
8.22324 23.0006 3.9894
10.185 23.9379 2
11.9185 24.7532 0.0138977
7.19884 19.965 3.9939
9.23736 21.1139 2
11.1281 22.2027 0.011961
10.3865 19.2955 0.00934391
8.41698 18.0155 2
6.31992 16.6661 4
9.76105 16.1465 0.00551009
7.74926 14.6714 2
9.30607 12.7746 0
12.0251 34.2804 3.98597
14.4082 32.8393 2
17.7288 33.0859 0.0117914
15.4259 29.6022 0.0158999
10.7741 36.6107 3.98891
12.8109 36.2041 2
14.8067 36.0104 0.009077
12.5279 37.8317 0.0117796
11.2105 38.3161 2
9.30631 38.8307 3.98859
11.8542 40.1538 0.0114471
9.71309 40.7671 2
7.5246 41.2226 3.98776
10.1312 42.7958 0.0134297
7.91544 43.2856 2
5.63271 43.7812 3.98789
8.36847 45.3404 0.013719
6.12176 45.9214 2
3.76549 46.5474 3.99152
6.71659 48.0183 0.0117281
4.42026 48.7633 2
1.99014 49.554 4
5.20914 50.9228 0.00722322
2.85451 51.8506 2
3.86727 54.0858 0
10.8795 32.9008 3.98727
10.0654 30.3606 3.9865
12.0167 31.232 2
8.70486 27.7095 3.98574
10.7551 28.3886 2
12.8802 29.003 0.0153768
7.34772 24.9619 3.98859
9.39813 25.7715 2
11.3454 26.4565 0.0145718
6.11541 21.9886 3.99332
8.22321 23.0002 2
10.1851 23.9382 0.0127712
5.02411 18.75 4
7.19889 19.9645 2
9.23737 21.1143 0.00979901
8.4169 18.0161 0.00574845
6.3199 16.6661 2
7.74928 14.6715 0
10.3909 34.9921 3.98626
12.0247 34.2804 2
14.4085 32.8392 0.0127202
8.97855 36.986 3.98906
10.7737 36.6108 2
12.8113 36.2041 0.0108943
11.2108 38.3161 0.0118693
9.30606 38.8307 2
7.20347 39.1884 3.98864
9.71329 40.7671 0.0120679
7.52442 41.2226 2
5.24672 41.6234 3.98859
7.91559 43.2855 0.0132391
5.6326 43.7813 2
3.24269 44.2906 3.99128
6.12186 45.9211 0.0122006
3.76546 46.5478 2
1.27781 47.2057 4
4.42027 48.7628 0.00788546
1.99012 49.554 2
2.85457 51.8506 0
10.0482 33.8688 3.98592
9.35666 32.1376 3.98745
10.8792 32.9007 2
8.05252 29.6771 3.98638
10.0653 30.3605 2
12.0169 31.2321 0.0122997
6.59061 26.9906 3.9877
8.70477 27.7093 2
10.7552 28.3887 0.0151072
5.17022 24.0823 3.99263
7.34768 24.9615 2
9.39822 25.7717 0.0135211
3.86728 20.9142 4
6.11545 21.9881 2
8.22324 23.0006 0.0106004
5.02406 18.75 2
7.19884 19.965 0.00609888
6.31992 16.6661 0
8.80768 35.2739 3.98753
10.3906 34.9921 2
12.0251 34.2804 0.0140291
6.98725 37.2068 3.98942
8.97826 36.986 2
10.7741 36.6107 0.0110866
9.30631 38.8307 0.0114126
7.20325 39.1885 2
4.97328 39.4727 3.98953
7.5246 41.2226 0.0122443
5.24658 41.6235 2
2.85264 42.0088 3.9916
5.63271 43.7812 0.0121106
3.24265 44.291 2
0.720592 44.8159 4
3.76549 46.5474 0.00848497
1.27778 47.2057 2
1.99014 49.554 0
8.85236 33.6863 3.98714
10.0479 33.8687 2
7.48801 31.5948 3.98754
9.35644 32.1375 2
10.8795 32.9008 0.0127297
5.93494 29.0547 3.98759
8.0524 29.677 2
10.0654 30.3606 0.0134959
4.35742 26.2361 3.99181
6.59056 26.9902 2
8.70486 27.7095 0.0142557
2.85458 23.1494 4
5.17025 24.0817 2
7.34772 24.9619 0.0114118
3.86728 20.9142 2
6.11541 21.9886 0.00667768
5.02411 18.75 0
6.93904 35.3014 3.98863
8.8074 35.2739 2
10.3909 34.9921 0.0137386
4.82327 37.3406 3.99028
6.987 37.2068 2
8.97855 36.986 0.0109409
7.20347 39.1884 0.0113585
4.97311 39.4728 2
2.60014 39.7177 3.99226
5.24672 41.6234 0.0114055
2.85257 42.009 2
0.320823 42.3947 4
3.24269 44.2906 0.00871531
0.720551 44.8159 2
1.27781 47.2057 0
7.10074 33.4512 3.98781
8.85213 33.6862 2
10.0482 33.8688 0.0140845
5.4044 31.1218 3.98852
7.48782 31.5946 2
9.35666 32.1376 0.0125516
3.67874 28.4336 3.99132
5.93486 29.0544 2
8.05252 29.6771 0.0136192
1.99015 25.446 4
4.35743 26.2356 2
6.59061 26.9906 0.0123041
2.85453 23.1494 2
5.17022 24.0823 0.00737431
3.86728 20.9142 0
4.83838 35.2478 3.98976
6.9388 35.3014 2
8.80768 35.2739 0.0124717
2.4914 37.429 3.99284
4.82307 37.3406 2
6.98725 37.2068 0.0105783
4.97328 39.4727 0.0104744
2.60005 39.7178 2
0.080333 39.9526 4
2.85264 42.0088 0.00840431
0.320817 42.3947 2
0.720592 44.8159 0
5.03287 33.1822 3.98896
7.10054 33.4512 2
8.85236 33.6863 0.0128591
3.14243 30.6582 3.99173
5.40427 31.1216 2
7.48801 31.5948 0.0124576
1.27793 27.7943 4
3.67873 28.4332 2
5.93494 29.0547 0.0124103
1.99013 25.446 2
4.35742 26.2361 0.0081933
2.85458 23.1494 0
2.54385 35.1563 3.99258
4.8382 35.2478 2
6.93904 35.3014 0.0113694
0 37.5 4
2.4913 37.429 2
4.82327 37.3406 0.00971876
2.60014 39.7177 0.00774479
0.0802903 39.9526 2
0.320823 42.3947 0
2.76194 32.9001 3.99204
5.03272 33.1821 2
7.10074 33.4512 0.0121886
0.721173 30.1842 4
3.14238 30.6578 2
5.4044 31.1218 0.0114839
1.27779 27.7943 2
3.67874 28.4336 0.0086822
1.99015 25.446 0
0.0806499 35.0474 4
2.54376 35.1561 2
4.83838 35.2478 0.0102368
0 37.5 2
2.4914 37.429 0.0071611
0.080333 39.9526 0
0.32156 32.6054 4
2.76187 32.8999 2
5.03287 33.1822 0.0110382
0.72056 30.1841 2
3.14243 30.6582 0.00827213
1.27793 27.7943 0
0.0802889 35.0474 2
2.54385 35.1563 0.00742381
0 37.5 0
0.320817 32.6053 2
2.76194 32.9001 0.00795875
0.721173 30.1842 0
0.0806499 35.0474 0
0.32156 32.6054 0
CELLS 1910 17190
8 18 6 25 56 2 0 5 16
8 57 23 6 18 17 4 0 2
8 78 36 9 29 31 11 1 7
8 31 11 1 7 79 37 10 30
8 110 57 18 50 48 17 2 14
8 50 18 56 111 14 2 16 49
8 116 62 22 55 52 20 3 15
8 56 25 67 118 16 5 24 53
8 119 63 23 57 54 21 4 17
8 55 22 63 119 15 3 21 54
8 58 26 68 121 18 6 25 56
8 122 65 26 58 57 23 6 18
8 73 31 7 27 142 79 30 71
8 143 78 29 72 73 31 7 27
8 83 147 76 34 32 74 28 8
8 84 148 78 36 33 75 29 9
8 76 34 8 28 148 84 33 75
8 37 79 150 86 10 30 77 35
8 151 87 36 78 80 38 11 31
8 80 38 11 31 152 88 37 79
8 175 100 42 94 96 44 12 40
8 44 96 176 101 12 40 95 43
8 101 176 98 46 43 95 41 13
8 46 98 178 103 13 41 97 45
8 178 103 45 97 147 83 32 74
8 189 116 55 109 106 52 15 47
8 111 56 118 191 49 16 53 107
8 192 119 57 110 108 54 17 48
8 109 55 119 192 47 15 54 108
8 194 122 58 112 110 57 18 50
8 112 58 121 195 50 18 56 111
8 115 61 19 51 197 124 59 113
8 115 61 125 198 51 19 60 114
8 198 125 62 116 114 60 20 52
8 200 127 64 120 116 62 22 55
8 118 67 132 202 53 24 66 117
8 121 68 133 203 56 25 67 118
8 120 64 128 204 55 22 63 119
8 204 128 65 122 119 63 23 57
8 206 134 68 121 123 69 26 58
8 123 69 26 58 207 131 65 122
8 226 147 74 138 140 76 28 70
8 229 148 75 139 143 78 29 72
8 140 76 28 70 229 148 75 139
8 142 79 30 71 231 150 77 141
8 144 80 31 73 232 152 79 142
8 233 151 78 143 144 80 31 73
8 150 86 35 77 235 154 81 145
8 235 154 81 145 146 82 39 91
8 146 82 39 91 236 155 90 165
8 238 157 83 147 149 85 34 76
8 239 158 84 148 151 87 36 78
8 149 85 34 76 239 158 84 148
8 152 88 37 79 241 160 86 150
8 242 161 87 151 153 89 38 80
8 153 89 38 80 243 162 88 152
8 171 98 41 92 265 178 97 169
8 265 178 97 169 226 147 74 138
8 172 96 40 93 266 176 95 170
8 266 176 95 170 171 98 41 92
8 269 175 94 173 172 96 40 93
8 271 180 99 174 175 100 42 94
8 197 124 59 113 271 180 99 174
8 272 181 100 175 177 102 44 96
8 273 182 101 176 179 104 46 98
8 177 102 44 96 273 182 101 176
8 179 104 46 98 275 184 103 178
8 275 184 103 178 238 157 83 147
8 188 115 51 105 283 197 113 186
8 188 115 198 284 105 51 114 187
8 284 198 116 189 187 114 52 106
8 286 200 120 193 189 116 55 109
8 191 118 202 288 107 53 117 190
8 195 121 203 289 111 56 118 191
8 193 120 204 290 109 55 119 192
8 290 204 122 194 192 119 57 110
8 196 123 58 112 292 207 122 194
8 293 206 121 195 196 123 58 112
8 199 126 61 115 297 211 124 197
8 298 212 127 200 198 125 62 116
8 199 126 212 298 115 61 125 198
8 205 129 64 120 300 214 127 200
8 301 217 130 201 202 132 66 117
8 209 136 168 264 301 217 130 201
8 302 219 132 202 203 133 67 118
8 303 220 133 203 206 134 68 121
8 205 129 215 304 120 64 128 204
8 304 215 131 207 204 128 65 122
8 306 221 134 206 208 135 69 123
8 208 135 69 123 307 218 131 207
8 210 137 167 263 309 223 136 209
8 328 238 147 226 230 149 76 140
8 228 146 91 166 329 236 165 260
8 231 150 77 141 330 235 145 227
8 330 235 145 227 228 146 91 166
8 332 239 148 229 233 151 78 143
8 230 149 76 140 332 239 148 229
8 232 152 79 142 334 241 150 231
8 234 153 80 144 335 243 152 232
8 336 242 151 233 234 153 80 144
8 236 155 90 165 338 245 164 259
8 241 160 86 150 339 246 154 235
8 339 246 154 235 237 156 82 146
8 237 156 82 146 340 247 155 236
8 342 249 157 238 240 159 85 149
8 343 250 158 239 242 161 87 151
8 240 159 85 149 343 250 158 239
8 243 162 88 152 345 252 160 241
8 244 163 253 346 153 89 161 242
8 244 163 89 153 347 254 162 243
8 311 224 261 371 210 137 167 263
8 263 167 262 372 209 136 168 264
8 267 179 98 171 375 275 178 265
8 375 275 178 265 328 238 147 226
8 376 273 176 266 267 179 98 171
8 268 177 96 172 376 273 176 266
8 379 272 175 269 268 177 96 172
8 380 271 174 270 269 175 94 173
8 283 197 113 186 380 271 174 270
8 381 277 180 271 272 181 100 175
8 297 211 124 197 381 277 180 271
8 382 278 181 272 274 183 102 177
8 274 183 102 177 383 279 182 273
8 383 279 182 273 276 185 104 179
8 385 281 184 275 342 249 157 238
8 276 185 104 179 385 281 184 275
8 285 199 115 188 393 297 197 283
8 394 298 200 286 284 198 116 189
8 285 199 298 394 188 115 198 284
8 291 205 120 193 396 300 200 286
8 397 301 201 287 288 202 117 190
8 295 209 264 374 397 301 201 287
8 398 302 202 288 289 203 118 191
8 399 303 203 289 293 206 121 195
8 291 205 304 400 193 120 204 290
8 400 304 207 292 290 204 122 194
8 294 208 123 196 402 307 207 292
8 403 306 206 293 294 208 123 196
8 296 210 263 373 405 309 209 295
8 408 312 213 299 297 211 126 199
8 299 213 313 409 199 126 212 298
8 409 313 214 300 298 212 127 200
8 305 216 129 205 411 315 214 300
8 412 318 217 301 302 219 132 202
8 309 223 136 209 412 318 217 301
8 413 320 219 302 303 220 133 203
8 306 221 321 414 206 134 220 303
8 307 218 131 207 415 316 215 304
8 305 216 316 415 205 129 215 304
8 417 322 221 306 308 222 135 208
8 308 222 135 208 418 319 218 307
8 310 225 137 210 420 325 223 309
8 423 326 224 311 310 225 137 210
8 329 236 165 260 441 338 259 368
8 442 342 238 328 333 240 149 230
8 331 237 146 228 443 340 236 329
8 334 241 150 231 444 339 235 330
8 444 339 235 330 331 237 146 228
8 446 343 239 332 336 242 151 233
8 333 240 149 230 446 343 239 332
8 335 243 152 232 448 345 241 334
8 337 244 153 234 449 347 243 335
8 337 244 346 450 234 153 242 336
8 338 245 164 259 452 349 258 367
8 340 247 155 236 453 350 245 338
8 345 252 160 241 454 351 246 339
8 454 351 246 339 341 248 156 237
8 341 248 156 237 455 352 247 340
8 240 159 251 344 342 249 354 457
8 242 161 253 346 343 250 355 458
8 343 250 355 458 240 159 251 344
8 347 254 162 243 460 357 252 345
8 348 255 358 461 244 163 253 346
8 348 255 163 244 462 359 254 347
8 473 360 257 365 363 256 364 482
8 452 349 258 367 365 257 366 485
8 422 324 369 488 311 224 261 371
8 371 261 370 490 263 167 262 372
8 407 311 371 491 296 210 263 373
8 373 263 372 492 295 209 264 374
8 493 385 275 375 442 342 238 328
8 377 276 179 267 493 385 275 375
8 378 274 177 268 494 383 273 376
8 494 383 273 376 377 276 179 267
8 497 382 272 379 378 274 177 268
8 498 381 271 380 379 272 175 269
8 393 297 197 283 498 381 271 380
8 499 387 277 381 382 278 181 272
8 408 312 211 297 499 387 277 381
8 500 388 278 382 384 280 183 274
8 501 389 279 383 386 282 185 276
8 384 280 183 274 501 389 279 383
8 386 282 185 276 503 391 281 385
8 503 391 281 385 457 354 249 342
8 511 408 299 395 393 297 199 285
8 395 299 409 512 285 199 298 394
8 512 409 300 396 394 298 200 286
8 401 305 205 291 514 411 300 396
8 515 412 301 397 398 302 202 288
8 405 309 209 295 515 412 301 397
8 516 413 302 398 399 303 203 289
8 403 306 414 517 293 206 303 399
8 402 307 207 292 518 415 304 400
8 401 305 415 518 291 205 304 400
8 404 308 208 294 520 418 307 402
8 521 417 306 403 404 308 208 294
8 406 310 210 296 523 420 309 405
8 526 423 311 407 406 310 210 296
8 410 314 213 299 527 424 312 408
8 528 425 315 411 409 313 214 300
8 410 314 425 528 299 213 313 409
8 416 317 216 305 530 427 315 411
8 531 430 318 412 413 320 219 302
8 420 325 223 309 531 430 318 412
8 532 432 320 413 414 321 220 303
8 417 322 433 533 306 221 321 414
8 418 319 218 307 534 428 316 415
8 416 317 428 534 305 216 316 415
8 419 323 434 536 308 222 322 417
8 419 323 222 308 537 431 319 418
8 421 327 225 310 539 438 325 420
8 421 327 439 541 310 225 326 423
8 543 437 324 422 423 326 224 311
8 441 338 259 368 559 452 367 486
8 443 340 236 329 560 453 338 441
8 333 240 344 447 442 342 457 561
8 445 341 237 331 562 455 340 443
8 448 345 241 334 563 454 339 444
8 563 454 339 444 445 341 237 331
8 336 242 346 450 446 343 458 565
8 446 343 458 565 333 240 344 447
8 449 347 243 335 567 460 345 448
8 451 348 244 337 568 462 347 449
8 451 348 461 569 337 244 346 450
8 570 463 349 452 473 360 257 365
8 453 350 245 338 570 463 349 452
8 455 352 247 340 571 464 350 453
8 460 357 252 345 572 465 351 454
8 572 465 351 454 456 353 248 341
8 456 353 248 341 573 466 352 455
8 344 251 356 459 457 354 468 575
8 458 355 469 576 344 251 356 459
8 346 253 358 461 458 355 469 576
8 462 359 254 347 578 471 357 460
8 348 255 359 462 461 358 472 579
8 591 474 360 473 475 361 256 363
8 475 361 256 363 594 477 362 479
8 363 256 364 482 479 362 480 603
8 590 473 365 484 481 363 482 605
8 482 364 257 365 606 483 366 485
8 559 452 367 486 484 365 485 607
8 542 436 487 609 422 324 369 488
8 525 422 488 611 407 311 371 491
8 488 369 489 612 371 261 370 490
8 491 371 490 613 373 263 372 492
8 495 386 276 377 614 503 385 493
8 614 503 385 493 561 457 342 442
8 615 501 383 494 495 386 276 377
8 496 384 274 378 615 501 383 494
8 618 500 382 497 496 384 274 378
8 619 499 381 498 497 382 272 379
8 511 408 297 393 619 499 381 498
8 620 505 387 499 500 388 278 382
8 527 424 312 408 620 505 387 499
8 502 390 506 621 384 280 388 500
8 622 507 389 501 504 392 282 386
8 502 390 280 384 622 507 389 501
8 504 392 282 386 624 509 391 503
8 624 509 391 503 575 468 354 457
8 513 410 299 395 630 527 408 511
8 631 528 411 514 512 409 300 396
8 513 410 528 631 395 299 409 512
8 519 416 305 401 633 530 411 514
8 634 531 412 515 516 413 302 398
8 523 420 309 405 634 531 412 515
8 635 532 413 516 517 414 303 399
8 521 417 533 636 403 306 414 517
8 520 418 307 402 637 534 415 518
8 519 416 534 637 401 305 415 518
8 522 419 308 404 639 537 418 520
8 522 419 536 640 404 308 417 521
8 524 421 310 406 642 539 420 523
8 524 421 541 644 406 310 423 526
8 646 543 422 525 526 423 311 407
8 529 426 314 410 647 544 424 527
8 528 425 545 648 411 315 427 530
8 529 426 545 648 410 314 425 528
8 535 429 317 416 649 546 427 530
8 650 548 430 531 532 432 320 413
8 539 438 325 420 650 548 430 531
8 533 433 550 651 414 321 432 532
8 536 434 551 652 417 322 433 533
8 537 431 319 418 653 547 428 534
8 535 429 547 653 416 317 428 534
8 538 435 552 654 419 323 434 536
8 538 435 323 419 655 549 431 537
8 540 440 327 421 657 556 438 539
8 540 440 557 659 421 327 439 541
8 541 439 555 660 423 326 437 543
8 661 554 436 542 543 437 324 422
8 676 570 452 559 590 473 365 484
8 560 453 338 441 676 570 452 559
8 562 455 340 443 677 571 453 560
8 447 344 459 566 561 457 575 678
8 564 456 341 445 679 573 455 562
8 567 460 345 448 680 572 454 563
8 680 572 454 563 564 456 341 445
8 565 458 576 682 447 344 459 566
8 450 346 461 569 565 458 576 682
8 568 462 347 449 684 578 460 567
8 451 348 462 568 569 461 579 685
8 686 580 463 570 591 474 360 473
8 571 464 350 453 686 580 463 570
8 573 466 352 455 687 581 464 571
8 572 465 582 688 460 357 471 578
8 574 467 582 688 456 353 465 572
8 574 467 353 456 689 583 466 573
8 459 356 470 577 575 468 585 691
8 576 469 586 692 459 356 470 577
8 461 358 472 579 576 469 586 692
8 462 359 471 578 579 472 588 694
8 704 591 473 590 593 475 363 481
8 595 476 592 705 475 361 474 591
8 593 475 363 481 707 594 479 602
8 594 477 362 479 709 598 478 600
8 595 476 361 475 711 597 477 594
8 479 362 480 603 600 478 601 720
8 481 363 482 605 602 479 603 722
8 603 480 364 482 723 604 483 606
8 605 482 365 484 724 606 485 607
8 656 553 608 726 542 436 487 609
8 645 542 609 728 525 422 488 611
8 609 487 610 729 488 369 489 612
8 611 488 612 730 491 371 490 613
8 616 504 386 495 731 624 503 614
8 731 624 503 614 678 575 457 561
8 732 622 501 615 616 504 386 495
8 617 502 384 496 732 622 501 615
8 617 502 621 735 496 384 500 618
8 736 620 499 619 618 500 382 497
8 630 527 408 511 736 620 499 619
8 621 506 626 737 500 388 505 620
8 647 544 424 527 737 626 505 620
8 623 508 627 738 502 390 506 621
8 623 508 390 502 739 628 507 622
8 625 510 628 739 504 392 507 622
8 740 629 509 624 691 585 468 575
8 625 510 392 504 740 629 509 624
8 632 529 410 513 744 647 527 630
8 631 528 648 745 514 411 530 633
8 632 529 648 745 513 410 528 631
8 638 535 416 519 746 649 530 633
8 747 650 531 634 635 532 413 516
8 642 539 420 523 747 650 531 634
8 636 533 651 748 517 414 532 635
8 640 536 652 749 521 417 533 636
8 639 537 418 520 750 653 534 637
8 638 535 653 750 519 416 534 637
8 641 538 419 522 751 655 537 639
8 641 538 654 752 522 419 536 640
8 643 540 421 524 753 657 539 642
8 643 540 659 755 524 421 541 644
8 644 541 660 757 526 423 543 646
8 758 661 542 645 646 543 422 525
8 529 426 544 647 648 545 662 759
8 530 427 545 648 649 546 663 760
8 535 429 546 649 653 547 664 761
8 762 666 548 650 651 550 432 532
8 657 556 438 539 762 666 548 650
8 652 551 668 763 533 433 550 651
8 654 552 669 764 536 434 551 652
8 655 549 431 537 765 665 547 653
8 538 435 549 655 654 552 667 766
8 661 554 671 768 542 436 553 656
8 658 558 440 540 769 674 556 657
8 658 558 675 770 540 440 557 659
8 659 557 673 771 541 439 555 660
8 660 555 672 772 543 437 554 661
8 788 686 570 676 704 591 473 590
8 677 571 453 560 788 686 570 676
8 679 573 455 562 789 687 571 677
8 566 459 577 683 678 575 691 790
8 681 574 456 564 791 689 573 679
8 680 572 688 792 567 460 578 684
8 681 574 688 792 564 456 572 680
8 682 576 692 794 566 459 577 683
8 569 461 579 685 682 576 692 794
8 568 462 578 684 685 579 694 796
8 687 581 464 571 798 696 580 686
8 798 696 580 686 705 592 474 591
8 689 583 466 573 799 697 581 687
8 688 582 698 800 578 471 588 694
8 690 584 698 800 574 467 582 688
8 690 584 467 574 801 699 583 689
8 693 587 701 803 577 470 585 691
8 693 587 470 577 804 702 586 692
8 695 589 702 804 579 472 586 692
8 695 589 472 579 805 703 588 694
8 708 595 705 813 593 475 591 704
8 710 596 706 814 595 476 592 705
8 707 594 479 602 816 709 600 719
8 708 595 475 593 817 711 594 707
8 709 598 478 600 819 715 599 717
8 711 597 477 594 820 714 598 709
8 710 596 476 595 822 713 597 711
8 600 478 601 720 717 599 718 832
8 602 479 603 722 719 600 720 834
8 720 601 480 603 835 721 604 723
8 722 603 482 605 836 723 606 724
8 767 670 725 839 656 553 608 726
8 756 656 726 841 645 542 609 728
8 726 608 727 842 609 487 610 729
8 728 609 729 843 611 488 612 730
8 844 740 624 731 790 691 575 678
8 733 625 504 616 844 740 624 731
8 734 623 502 617 845 739 622 732
8 733 625 739 845 616 504 622 732
8 734 623 738 846 617 502 621 735
8 735 621 737 847 618 500 620 736
8 744 647 527 630 847 737 620 736
8 621 506 627 738 737 626 741 848
8 647 544 626 737 759 662 741 848
8 623 508 628 739 738 627 742 849
8 740 629 585 691 850 743 700 802
8 625 510 629 740 739 628 743 850
8 632 529 647 744 745 648 759 854
8 633 530 648 745 746 649 760 855
8 638 535 649 746 750 653 761 856
8 857 762 650 747 748 651 532 635
8 753 657 539 642 857 762 650 747
8 749 652 763 858 636 533 651 748
8 752 654 764 859 640 536 652 749
8 751 655 537 639 860 765 653 750
8 641 538 655 751 752 654 766 861
8 754 658 540 643 862 769 657 753
8 754 658 770 863 643 540 659 755
8 755 659 771 864 644 541 660 757
8 758 661 768 866 645 542 656 756
8 757 660 772 867 646 543 661 758
8 759 662 773 868 648 545 663 760
8 649 546 663 760 761 664 774 871
8 765 665 547 653 872 775 664 761
8 873 777 666 762 763 668 550 651
8 769 674 556 657 873 777 666 762
8 764 669 779 874 652 551 668 763
8 654 552 667 766 764 669 778 875
8 655 549 665 765 766 667 776 876
8 768 671 782 877 656 553 670 767
8 772 672 783 878 661 554 671 768
8 658 558 674 769 770 675 786 879
8 659 557 675 770 771 673 785 881
8 882 784 672 772 771 673 555 660
8 789 687 571 677 897 798 686 788
8 897 798 686 788 813 705 591 704
8 791 689 573 679 898 799 687 789
8 795 693 803 900 683 577 691 790
8 793 690 574 681 901 801 689 791
8 792 688 800 902 684 578 694 796
8 793 690 800 902 681 574 688 792
8 795 693 577 683 903 804 692 794
8 797 695 804 903 685 579 692 794
8 797 695 579 685 904 805 694 796
8 905 806 697 799 798 696 581 687
8 814 706 806 905 705 592 696 798
8 689 583 697 799 801 699 808 907
8 800 698 809 908 694 588 703 805
8 690 584 699 801 800 698 809 908
8 803 701 810 909 691 585 700 802
8 693 587 702 804 803 701 811 910
8 695 589 703 805 804 702 812 911
8 818 710 814 919 708 595 705 813
8 821 712 815 920 710 596 706 814
8 816 709 600 719 922 819 717 831
8 817 711 594 707 923 820 709 816
8 818 710 595 708 924 822 711 817
8 819 715 599 717 926 827 716 829
8 820 714 598 709 927 826 715 819
8 929 825 713 822 820 714 597 711
8 821 712 596 710 930 824 713 822
8 717 599 718 832 829 716 830 942
8 719 600 720 834 831 717 832 944
8 832 718 601 720 945 833 721 835
8 834 720 603 722 946 835 723 836
8 869 780 838 950 767 670 725 839
8 865 767 839 952 756 656 726 841
8 839 725 840 953 726 608 727 842
8 841 726 842 954 728 609 729 843
8 844 740 691 790 955 850 802 899
8 733 625 740 844 845 739 850 955
8 734 623 739 845 846 738 849 956
8 735 621 738 846 847 737 848 957
8 744 647 737 847 854 759 848 957
8 738 627 742 849 848 741 851 958
8 848 741 851 958 759 662 773 868
8 850 743 700 802 959 852 807 906
8 849 742 628 739 959 852 743 850
8 854 759 868 965 745 648 760 855
8 746 649 760 855 856 761 871 966
8 860 765 653 750 967 872 761 856
8 968 873 762 857 858 763 651 748
8 862 769 657 753 968 873 762 857
8 859 764 874 969 749 652 763 858
8 752 654 766 861 859 764 875 970
8 751 655 765 860 861 766 876 971
8 754 658 769 862 863 770 879 972
8 755 659 770 863 864 771 881 974
8 976 882 772 867 864 771 660 757
8 866 768 877 977 756 656 767 865
8 867 772 878 978 758 661 768 866
8 760 663 773 868 871 774 883 980
8 870 781 837 948 982 890 780 869
8 982 890 780 869 877 782 670 767
8 761 664 774 871 872 775 884 984
8 876 776 665 765 985 885 775 872
8 873 777 668 763 986 887 779 874
8 769 674 777 873 879 786 887 986
8 764 669 778 875 874 779 888 987
8 766 667 776 876 875 778 886 988
8 878 783 892 989 768 671 782 877
8 878 783 672 772 990 893 784 882
8 880 787 675 770 991 896 786 879
8 880 787 895 992 770 675 785 881
8 881 785 894 993 771 673 784 882
8 1006 905 799 898 897 798 687 789
8 919 814 905 1006 813 705 798 897
8 791 689 799 898 901 801 907 1007
8 900 803 909 1009 790 691 802 899
8 795 693 804 903 900 803 910 1010
8 902 800 908 1011 796 694 805 904
8 793 690 801 901 902 800 908 1011
8 797 695 805 904 903 804 911 1012
8 799 697 806 905 907 808 912 1013
8 920 815 912 1013 814 706 806 905
8 802 700 810 909 906 807 913 1014
8 801 699 808 907 908 809 914 1015
8 805 703 809 908 911 812 915 1016
8 803 701 811 910 909 810 916 1017
8 911 812 917 1018 804 702 811 910
8 925 821 920 1030 818 710 814 919
8 928 823 921 1031 821 712 815 920
8 922 819 717 831 1033 926 829 941
8 923 820 709 816 1034 927 819 922
8 1035 929 822 924 923 820 711 817
8 925 821 710 818 1036 930 822 924
8 1038 933 825 929 927 826 714 820
8 926 827 716 829 1039 935 828 939
8 927 826 715 819 1040 934 827 926
8 928 823 712 821 1041 931 824 930
8 1042 932 824 930 929 825 713 822
8 829 716 830 942 939 828 940 1058
8 831 717 832 944 941 829 942 1060
8 942 830 718 832 1061 943 833 945
8 944 832 720 834 1062 945 835 946
8 981 889 947 1064 870 781 837 948
8 948 837 949 1067 869 780 838 950
8 975 869 950 1069 865 767 839 952
8 950 838 951 1070 839 725 840 953
8 952 839 953 1071 841 726 842 954
8 955 850 802 899 1072 959 906 1008
8 956 849 739 845 1072 959 850 955
8 846 738 849 956 957 848 958 1073
8 957 848 958 1073 854 759 868 965
8 849 742 852 959 958 851 961 1076
8 960 853 961 1076 906 807 852 959
8 958 851 961 1076 868 773 883 980
8 960 853 807 906 1077 963 913 1014
8 855 760 868 965 966 871 980 1085
8 856 761 871 966 967 872 984 1086
8 971 876 765 860 1087 985 872 967
8 968 873 763 858 1088 986 874 969
8 862 769 873 968 972 879 986 1088
8 859 764 875 970 969 874 987 1089
8 861 766 876 971 970 875 988 1090
8 973 880 770 863 1091 991 879 972
8 973 880 992 1092 863 770 881 974
8 974 881 993 1093 864 771 882 976
8 979 870 948 1066 1094 982 869 975
8 1094 982 869 975 977 877 767 865
8 978 878 772 867 1095 990 882 976
8 978 878 989 1096 866 768 877 977
8 871 774 883 980 984 884 994 1099
8 983 891 999 1100 870 781 889 981
8 1101 1000 890 982 989 892 782 877
8 983 891 781 870 1101 1000 890 982
8 872 775 884 984 985 885 995 1103
8 876 776 885 985 988 886 996 1104
8 986 887 779 874 1105 998 888 987
8 879 786 887 986 991 896 998 1105
8 875 778 886 988 987 888 997 1106
8 990 893 1002 1107 878 783 892 989
8 1108 1003 893 990 993 894 784 882
8 880 787 896 991 992 895 1005 1109
8 993 894 785 881 1110 1004 895 992
8 898 799 905 1006 1007 907 1013 1120
8 1030 920 1013 1120 919 814 905 1006
8 901 801 907 1007 1011 908 1015 1121
8 899 802 909 1009 1008 906 1014 1122
8 900 803 910 1010 1009 909 1017 1123
8 1012 911 1018 1124 903 804 910 1010
8 904 805 908 1011 1012 911 1016 1125
8 1013 912 1020 1127 907 808 914 1015
8 1031 921 1020 1127 920 815 912 1013
8 1019 918 962 1075 1128 1021 913 1014
8 1128 1021 913 1014 1017 916 810 909
8 1015 914 1022 1129 908 809 915 1016
8 1016 915 1023 1130 911 812 917 1018
8 1018 917 1024 1131 910 811 916 1017
8 1037 928 1031 1148 925 821 920 1030
8 928 823 931 1041 1031 921 1032 1149
8 1033 926 829 941 1151 1039 939 1057
8 1034 927 819 922 1152 1040 926 1033
8 1153 1038 929 1035 1034 927 820 923
8 1154 1042 930 1036 1035 929 822 924
8 1037 928 821 925 1155 1041 930 1036
8 1039 935 828 939 1156 1047 938 1055
8 1157 1043 932 1042 1038 933 825 929
8 1038 933 826 927 1158 1045 934 1040
8 1040 934 827 926 1159 1046 935 1039
8 930 824 932 1042 1041 931 1044 1160
8 1051 936 1048 1165 1175 1052 937 1053
8 1156 1047 938 1055 1053 937 1054 1178
8 939 828 940 1058 1055 938 1056 1181
8 941 829 942 1060 1057 939 1058 1183
8 942 830 943 1061 1058 940 1059 1184
8 1060 942 832 944 1185 1061 945 1062
8 1082 964 1063 1188 981 889 947 1064
8 1097 981 1064 1190 979 870 948 1066
8 1064 947 1065 1191 948 837 949 1067
8 1066 948 1067 1193 975 869 950 1069
8 1067 949 1068 1194 950 838 951 1070
8 1069 950 1070 1195 952 839 953 1071
8 956 849 959 1072 1073 958 1076 1197
8 1074 960 1076 1197 1008 906 959 1072
8 1073 958 1076 1197 965 868 980 1085
8 1074 960 906 1008 1198 1077 1014 1122
8 1133 1026 1079 1199 1019 918 962 1075
8 1077 963 913 1014 1200 1080 962 1075
8 960 853 963 1077 1076 961 1078 1201
8 980 883 961 1076 1099 994 1078 1201
8 1210 1083 964 1082 1100 999 889 981
8 966 871 980 1085 1086 984 1099 1215
8 967 872 984 1086 1087 985 1103 1216
8 971 876 985 1087 1090 988 1104 1217
8 1088 986 874 969 1218 1105 987 1089
8 972 879 986 1088 1091 991 1105 1218
8 970 875 988 1090 1089 987 1106 1219
8 973 880 991 1091 1092 992 1109 1220
8 1093 993 881 974 1221 1110 992 1092
8 1222 1108 990 1095 1093 993 882 976
8 1223 1101 982 1094 1096 989 877 977
8 1098 983 870 979 1223 1101 982 1094
8 1095 990 1107 1224 978 878 989 1096
8 1098 983 1100 1225 979 870 981 1097
8 984 884 994 1099 1103 995 1111 1227
8 1102 1001 1115 1228 983 891 999 1100
8 1101 1000 892 989 1229 1116 1002 1107
8 1102 1001 891 983 1229 1116 1000 1101
8 985 885 995 1103 1104 996 1112 1230
8 988 886 996 1104 1106 997 1113 1231
8 1105 998 888 987 1232 1114 997 1106
8 991 896 998 1105 1109 1005 1114 1232
8 1108 1003 1117 1233 990 893 1002 1107
8 1108 1003 894 993 1233 1117 1004 1110
8 992 895 1005 1109 1110 1004 1118 1234
8 1120 1013 1127 1244 1007 907 1015 1121
8 1148 1031 1127 1244 1030 920 1013 1120
8 1121 1015 1129 1245 1011 908 1016 1125
8 1126 1019 1075 1196 1246 1128 1014 1122
8 1246 1128 1014 1122 1123 1017 909 1009
8 1124 1018 1131 1247 1010 910 1017 1123
8 1125 1016 1130 1248 1012 911 1018 1124
8 1127 1020 1137 1254 1015 914 1022 1129
8 1031 921 1032 1149 1127 1020 1137 1254
8 1134 1027 918 1019 1257 1140 1021 1128
8 1257 1140 1021 1128 1131 1024 916 1017
8 1129 1022 1141 1258 1016 915 1023 1130
8 1130 1023 1142 1259 1018 917 1024 1131
8 1261 1144 1025 1132 1133 1026 1079 1199
8 1255 1138 1025 1132 1135 1028 1144 1261
8 1133 1026 918 1019 1262 1145 1027 1134
8 1136 1029 1139 1256 1263 1146 1028 1135
8 1037 928 1041 1155 1148 1031 1149 1275
8 1041 931 1044 1160 1149 1032 1150 1276
8 1151 1039 939 1057 1278 1156 1055 1180
8 1152 1040 926 1033 1279 1159 1039 1151
8 1153 1038 927 1034 1280 1158 1040 1152
8 1281 1157 1042 1154 1153 1038 929 1035
8 1036 930 1042 1154 1155 1041 1160 1282
8 1283 1164 1046 1159 1156 1047 935 1039
8 1165 1048 1164 1283 1053 937 1047 1156
8 1157 1043 933 1038 1284 1161 1045 1158
8 1157 1043 1161 1284 1042 932 1044 1160
8 1040 934 1046 1159 1158 1045 1163 1285
8 1166 1049 1167 1292 1051 936 1048 1165
8 1166 1049 936 1051 1293 1168 1050 1172
8 1051 936 1052 1175 1172 1050 1173 1306
8 1174 1051 1165 1290 1308 1175 1053 1177
8 1053 937 1054 1178 1175 1052 1176 1309
8 1278 1156 1055 1180 1177 1053 1178 1311
8 1055 938 1056 1181 1178 1054 1179 1312
8 1057 939 1058 1183 1180 1055 1181 1314
8 1058 940 1059 1184 1181 1056 1182 1315
8 1060 942 1061 1185 1183 1058 1184 1316
8 1208 1081 1187 1321 1082 964 1063 1188
8 1209 1082 1188 1322 1097 981 1064 1190
8 1188 1063 1189 1323 1064 947 1065 1191
8 1190 1064 1191 1325 1066 948 1067 1193
8 1191 1065 1192 1326 1067 949 1068 1194
8 1067 1193 1069 950 1194 1327 1195 1070
8 1250 1133 1199 1330 1126 1019 1075 1196
8 1198 1077 1014 1122 1331 1200 1075 1196
8 1074 960 1077 1198 1197 1076 1201 1332
8 1085 980 1076 1197 1215 1099 1201 1332
8 1199 1079 1203 1333 1075 962 1080 1200
8 1132 1025 1119 1243 1199 1079 1203 1333
8 1201 1078 963 1077 1334 1202 1080 1200
8 1099 994 1078 1201 1227 1111 1202 1334
8 1343 1207 1081 1208 1210 1083 964 1082
8 1214 1084 1186 1319 1343 1207 1081 1208
8 1345 1210 1082 1209 1225 1100 981 1097
8 1346 1211 1083 1210 1228 1115 999 1100
8 1086 984 1099 1215 1216 1103 1227 1352
8 1087 985 1103 1216 1217 1104 1230 1353
8 1090 988 1104 1217 1219 1106 1231 1354
8 1218 1105 987 1089 1355 1232 1106 1219
8 1091 991 1105 1218 1220 1109 1232 1355
8 1092 992 1109 1220 1221 1110 1234 1356
8 1222 1108 1233 1357 1095 990 1107 1224
8 1222 1108 993 1093 1357 1233 1110 1221
8 1223 1101 989 1096 1358 1229 1107 1224
8 1226 1102 983 1098 1358 1229 1101 1223
8 1226 1102 1228 1359 1098 983 1100 1225
8 1103 995 1111 1227 1230 1112 1235 1360
8 1107 1002 1117 1233 1229 1116 1240 1362
8 1102 1001 1116 1229 1228 1115 1240 1362
8 1104 996 1112 1230 1231 1113 1236 1363
8 1364 1237 1114 1232 1231 1113 997 1106
8 1109 1005 1114 1232 1234 1118 1238 1365
8 1110 1004 1118 1234 1233 1117 1241 1366
8 1242 1374 1255 1138 1119 1243 1132 1025
8 1244 1127 1254 1376 1121 1015 1129 1245
8 1148 1031 1149 1275 1244 1127 1254 1376
8 1245 1129 1258 1377 1125 1016 1130 1248
8 1251 1134 1019 1126 1378 1257 1128 1246
8 1378 1257 1128 1246 1247 1131 1017 1123
8 1248 1130 1259 1379 1124 1018 1131 1247
8 1261 1381 1250 1133 1132 1249 1330 1199
8 1255 1380 1252 1135 1132 1249 1381 1261
8 1250 1133 1019 1126 1382 1262 1134 1251
8 1253 1136 1256 1385 1384 1263 1135 1252
8 1254 1137 1265 1387 1129 1022 1141 1258
8 1149 1032 1150 1276 1254 1137 1265 1387
8 1028 1135 1255 1138 1139 1256 1388 1266
8 1136 1029 1147 1264 1256 1139 1267 1389
8 1390 1268 1140 1257 1259 1142 1024 1131
8 1260 1143 1027 1134 1390 1268 1140 1257
8 1258 1141 1269 1391 1130 1023 1142 1259
8 1262 1145 1027 1134 1393 1271 1143 1260
8 1261 1144 1026 1133 1394 1272 1145 1262
8 1135 1028 1144 1261 1263 1146 1272 1394
8 1136 1029 1146 1263 1264 1147 1273 1395
8 1155 1041 1160 1282 1275 1149 1276 1405
8 1276 1150 1044 1160 1406 1277 1162 1286
8 1408 1283 1159 1279 1278 1156 1039 1151
8 1290 1165 1283 1408 1177 1053 1156 1278
8 1152 1040 1159 1279 1280 1158 1285 1409
8 1281 1157 1038 1153 1410 1284 1158 1280
8 1281 1157 1284 1410 1154 1042 1160 1282
8 1159 1046 1164 1283 1285 1163 1289 1412
8 1292 1167 1289 1412 1165 1048 1164 1283
8 1158 1045 1163 1285 1284 1161 1288 1413
8 1284 1161 1288 1413 1160 1044 1162 1286
8 1291 1166 1292 1418 1174 1051 1165 1290
8 1291 1166 1051 1174 1419 1293 1172 1305
8 1294 1169 1296 1421 1166 1049 1167 1292
8 1293 1168 1050 1172 1422 1295 1171 1303
8 1294 1169 1049 1166 1423 1297 1168 1293
8 1422 1295 1171 1303 1301 1170 1302 1435
8 1172 1050 1173 1306 1303 1171 1304 1438
8 1174 1051 1175 1308 1305 1172 1306 1440
8 1175 1052 1176 1309 1306 1173 1307 1441
8 1177 1053 1178 1311 1308 1175 1309 1443
8 1178 1054 1179 1312 1309 1176 1310 1444
8 1180 1055 1181 1314 1311 1178 1312 1446
8 1056 1181 1312 1179 1182 1315 1447 1313
8 1183 1058 1184 1316 1314 1181 1315 1448
8 1319 1186 1084 1214 1451 1317 1213 1350
8 1319 1186 1318 1453 1208 1081 1187 1321
8 1321 1187 1320 1456 1188 1063 1189 1323
8 1344 1208 1321 1457 1209 1082 1188 1322
8 1322 1188 1323 1458 1190 1064 1191 1325
8 1323 1189 1324 1459 1191 1065 1192 1326
8 1191 1325 1193 1067 1326 1460 1327 1194
8 1242 1374 1243 1119 1328 1462 1335 1204
8 1330 1199 1333 1465 1196 1075 1200 1331
8 1132 1249 1330 1199 1243 1375 1465 1333
8 1332 1201 1077 1198 1466 1334 1200 1331
8 1215 1099 1201 1332 1352 1227 1334 1466
8 1119 1243 1333 1203 1204 1335 1470 1338
8 1333 1203 1338 1470 1200 1080 1202 1334
8 1227 1111 1202 1334 1360 1235 1338 1470
8 1328 1462 1335 1204 1205 1336 1471 1339
8 1337 1206 1340 1472 1464 1329 1205 1336
8 1346 1211 1342 1479 1210 1083 1207 1343
8 1346 1211 1115 1228 1479 1342 1239 1361
8 1348 1212 1084 1214 1479 1342 1207 1343
8 1480 1343 1208 1344 1345 1210 1082 1209
8 1351 1214 1319 1454 1480 1343 1208 1344
8 1481 1346 1210 1345 1359 1228 1100 1225
8 1348 1212 1347 1483 1214 1084 1213 1350
8 1216 1103 1227 1352 1353 1230 1360 1488
8 1217 1104 1230 1353 1354 1231 1363 1489
8 1490 1364 1232 1355 1354 1231 1106 1219
8 1220 1109 1232 1355 1356 1234 1365 1491
8 1221 1110 1234 1356 1357 1233 1366 1492
8 1224 1107 1233 1357 1358 1229 1362 1493
8 1226 1102 1229 1358 1359 1228 1362 1493
8 1230 1112 1235 1360 1363 1236 1367 1496
8 1361 1239 1115 1228 1497 1371 1240 1362
8 1366 1241 1372 1498 1233 1117 1240 1362
8 1364 1237 1113 1231 1499 1368 1236 1363
8 1364 1237 1368 1499 1232 1114 1238 1365
8 1234 1118 1238 1365 1366 1241 1369 1500
8 1507 1373 1242 1374 1388 1266 1138 1255
8 1508 1374 1243 1375 1380 1255 1132 1249
8 1376 1254 1387 1509 1245 1129 1258 1377
8 1275 1149 1276 1405 1376 1254 1387 1509
8 1377 1258 1391 1510 1248 1130 1259 1379
8 1511 1390 1257 1378 1379 1259 1131 1247
8 1383 1260 1134 1251 1511 1390 1257 1378
8 1252 1135 1256 1385 1380 1255 1388 1512
8 1261 1381 1513 1394 1133 1250 1382 1262
8 1135 1252 1384 1263 1261 1381 1513 1394
8 1382 1262 1134 1251 1514 1393 1260 1383
8 1253 1136 1263 1384 1386 1264 1395 1516
8 1253 1136 1264 1386 1385 1256 1389 1517
8 1387 1265 1397 1519 1258 1141 1269 1391
8 1276 1150 1277 1406 1387 1265 1397 1519
8 1256 1139 1267 1389 1388 1266 1398 1520
8 1264 1147 1274 1396 1389 1267 1399 1521
8 1392 1270 1143 1260 1522 1400 1268 1390
8 1390 1268 1142 1259 1522 1400 1269 1391
8 1392 1270 1401 1523 1260 1143 1271 1393
8 1272 1394 1524 1402 1145 1262 1393 1271
8 1395 1273 1146 1263 1524 1402 1272 1394
8 1273 1395 1264 1147 1403 1526 1396 1274
8 1405 1276 1160 1282 1534 1406 1286 1411
8 1414 1287 1407 1535 1286 1162 1277 1406
8 1279 1159 1283 1408 1409 1285 1412 1537
8 1418 1292 1412 1537 1290 1165 1283 1408
8 1280 1158 1285 1409 1410 1284 1413 1538
8 1410 1284 1413 1538 1282 1160 1286 1411
8 1285 1163 1289 1412 1413 1288 1417 1540
8 1421 1296 1417 1540 1292 1167 1289 1412
8 1414 1287 1162 1286 1541 1416 1288 1413
8 1420 1294 1421 1545 1291 1166 1292 1418
8 1419 1293 1172 1305 1546 1422 1303 1437
8 1420 1294 1166 1291 1547 1423 1293 1419
8 1294 1169 1297 1423 1421 1296 1425 1548
8 1423 1297 1168 1293 1549 1424 1295 1422
8 1301 1170 1298 1427 1422 1295 1424 1549
8 1432 1300 1428 1554 1301 1170 1298 1427
8 1431 1299 1428 1554 1560 1430 1300 1432
8 1563 1433 1300 1432 1435 1302 1170 1301
8 1546 1422 1303 1437 1434 1301 1435 1565
8 1303 1171 1304 1438 1435 1302 1436 1566
8 1305 1172 1306 1440 1437 1303 1438 1568
8 1306 1173 1307 1441 1438 1304 1439 1569
8 1308 1175 1309 1443 1440 1306 1441 1571
8 1309 1176 1310 1444 1441 1307 1442 1572
8 1311 1178 1312 1446 1443 1309 1444 1574
8 1179 1312 1444 1310 1313 1447 1575 1445
8 1314 1181 1315 1448 1446 1312 1447 1576
8 1350 1213 1349 1486 1451 1317 1449 1579
8 1451 1317 1450 1581 1319 1186 1318 1453
8 1454 1319 1214 1351 1582 1451 1350 1487
8 1453 1318 1452 1584 1321 1187 1320 1456
8 1454 1319 1453 1585 1344 1208 1321 1457
8 1456 1320 1455 1586 1323 1189 1324 1459
8 1457 1321 1456 1587 1322 1188 1323 1458
8 1458 1323 1459 1588 1325 1191 1326 1460
8 1205 1336 1464 1329 1328 1462 1590 1461
8 1507 1373 1461 1590 1374 1242 1328 1462
8 1508 1374 1462 1591 1375 1243 1335 1467
8 1337 1206 1329 1464 1473 1341 1463 1594
8 1375 1243 1335 1467 1465 1333 1470 1596
8 1465 1333 1470 1596 1331 1200 1334 1466
8 1352 1227 1334 1466 1488 1360 1470 1596
8 1591 1462 1336 1468 1467 1335 1471 1597
8 1469 1337 1472 1598 1595 1464 1336 1468
8 1471 1339 1474 1600 1335 1204 1338 1470
8 1600 1474 1367 1496 1470 1338 1235 1360
8 1336 1205 1340 1472 1471 1339 1475 1601
8 1337 1206 1341 1473 1472 1340 1476 1602
8 1495 1370 1478 1609 1361 1239 1342 1479
8 1348 1212 1342 1479 1483 1347 1478 1609
8 1481 1346 1479 1610 1345 1210 1343 1480
8 1481 1346 1228 1359 1610 1479 1361 1494
8 1484 1348 1214 1351 1610 1479 1343 1480
8 1483 1347 1482 1612 1350 1213 1349 1486
8 1484 1348 1483 1613 1351 1214 1350 1487
8 1353 1230 1360 1488 1489 1363 1496 1616
8 1490 1364 1231 1354 1617 1499 1363 1489
8 1490 1364 1499 1617 1355 1232 1365 1491
8 1356 1234 1365 1491 1492 1366 1500 1619
8 1492 1366 1498 1620 1357 1233 1362 1493
8 1494 1361 1228 1359 1621 1497 1362 1493
8 1495 1370 1239 1361 1622 1504 1371 1497
8 1363 1236 1367 1496 1499 1368 1501 1623
8 1497 1371 1240 1362 1624 1505 1372 1498
8 1625 1503 1372 1498 1500 1369 1241 1366
8 1365 1238 1368 1499 1500 1369 1502 1626
8 1520 1398 1506 1633 1388 1266 1373 1507
8 1634 1507 1374 1508 1512 1388 1255 1380
8 1509 1387 1519 1635 1377 1258 1391 1510
8 1405 1276 1406 1534 1509 1387 1519 1635
8 1515 1392 1260 1383 1636 1522 1390 1511
8 1511 1390 1259 1379 1636 1522 1391 1510
8 1385 1256 1389 1517 1512 1388 1520 1637
8 1513 1394 1262 1382 1638 1524 1393 1514
8 1395 1516 1638 1524 1263 1384 1513 1394
8 1515 1392 1523 1639 1383 1260 1393 1514
8 1516 1395 1526 1640 1386 1264 1396 1518
8 1386 1264 1396 1518 1517 1389 1521 1641
8 1519 1397 1527 1643 1391 1269 1400 1522
8 1535 1407 1527 1643 1406 1277 1397 1519
8 1389 1267 1399 1521 1520 1398 1528 1644
8 1645 1529 1399 1521 1525 1404 1274 1396
8 1392 1270 1400 1522 1523 1401 1531 1646
8 1524 1402 1271 1393 1648 1532 1401 1523
8 1403 1526 1648 1532 1273 1395 1524 1402
8 1525 1404 1274 1396 1649 1533 1403 1526
8 1539 1414 1535 1657 1411 1286 1406 1534
8 1542 1415 1536 1658 1414 1287 1407 1535
8 1409 1285 1412 1537 1538 1413 1540 1660
8 1545 1421 1540 1660 1418 1292 1412 1537
8 1539 1414 1286 1411 1661 1541 1413 1538
8 1540 1417 1544 1663 1413 1288 1416 1541
8 1421 1296 1425 1548 1540 1417 1544 1663
8 1542 1415 1287 1414 1664 1543 1416 1541
8 1420 1294 1423 1547 1545 1421 1548 1666
8 1547 1423 1293 1419 1667 1549 1422 1546
8 1434 1301 1427 1553 1546 1422 1549 1667
8 1423 1297 1424 1549 1548 1425 1550 1668
8 1551 1426 1550 1668 1427 1298 1424 1549
8 1551 1426 1298 1427 1671 1552 1428 1554
8 1562 1432 1554 1674 1434 1301 1427 1553
8 1431 1299 1429 1558 1554 1428 1555 1675
8 1431 1299 1430 1560 1558 1429 1557 1680
8 1560 1430 1300 1432 1683 1559 1433 1563
8 1561 1431 1554 1674 1684 1560 1432 1562
8 1685 1563 1432 1562 1565 1435 1301 1434
8 1435 1302 1436 1566 1563 1433 1564 1686
8 1437 1303 1438 1568 1565 1435 1566 1688
8 1438 1304 1439 1569 1566 1436 1567 1689
8 1440 1306 1441 1571 1568 1438 1569 1691
8 1441 1307 1442 1572 1569 1439 1570 1692
8 1443 1309 1444 1574 1571 1441 1572 1694
8 1310 1444 1572 1442 1445 1575 1695 1573
8 1446 1312 1447 1576 1574 1444 1575 1696
8 1486 1349 1485 1614 1579 1449 1577 1699
8 1451 1317 1449 1579 1581 1450 1578 1701
8 1487 1350 1486 1615 1582 1451 1579 1702
8 1581 1450 1580 1704 1453 1318 1452 1584
8 1582 1451 1581 1705 1454 1319 1453 1585
8 1584 1452 1583 1706 1456 1320 1455 1586
8 1585 1453 1584 1707 1457 1321 1456 1587
8 1587 1456 1586 1708 1458 1323 1459 1588
8 1633 1506 1589 1710 1507 1373 1461 1590
8 1464 1329 1461 1590 1594 1463 1589 1710
8 1468 1336 1462 1591 1595 1464 1590 1711
8 1634 1507 1590 1711 1508 1374 1462 1591
8 1473 1341 1463 1594 1603 1477 1593 1716
8 1469 1337 1464 1595 1599 1473 1594 1717
8 1471 1597 1467 1335 1600 1718 1596 1470
8 1718 1600 1496 1616 1596 1470 1360 1488
8 1336 1468 1597 1471 1472 1598 1719 1601
8 1469 1337 1473 1599 1598 1472 1602 1720
8 1722 1604 1501 1623 1600 1474 1367 1496
8 1475 1601 1471 1339 1604 1722 1600 1474
8 1602 1476 1605 1723 1472 1340 1475 1601
8 1476 1602 1724 1606 1341 1473 1603 1477
8 1483 1347 1478 1609 1612 1482 1608 1731
8 1495 1370 1504 1622 1609 1478 1608 1731
8 1618 1495 1609 1732 1494 1361 1479 1610
8 1484 1348 1479 1610 1613 1483 1609 1732
8 1486 1349 1482 1612 1614 1485 1611 1733
8 1613 1483 1612 1734 1487 1350 1486 1615
8 1489 1363 1496 1616 1617 1499 1623 1736
8 1491 1365 1499 1617 1619 1500 1626 1737
8 1618 1495 1361 1494 1738 1622 1497 1621
8 1739 1625 1498 1620 1619 1500 1366 1492
8 1621 1497 1362 1493 1740 1624 1498 1620
8 1742 1631 1504 1622 1624 1505 1371 1497
8 1743 1628 1502 1626 1623 1501 1368 1499
8 1744 1630 1505 1624 1625 1503 1372 1498
8 1745 1629 1503 1625 1626 1502 1369 1500
8 1520 1398 1528 1644 1633 1506 1632 1751
8 1637 1520 1633 1752 1512 1388 1507 1634
8 1635 1519 1643 1753 1510 1391 1522 1636
8 1657 1535 1643 1753 1534 1406 1519 1635
8 1515 1392 1522 1636 1639 1523 1646 1754
8 1517 1389 1521 1641 1637 1520 1644 1755
8 1524 1638 1756 1648 1393 1514 1639 1523
8 1640 1526 1395 1516 1756 1648 1524 1638
8 1642 1525 1396 1518 1757 1649 1526 1640
8 1758 1645 1521 1641 1642 1525 1396 1518
8 1646 1531 1400 1522 1760 1650 1527 1643
8 1535 1407 1536 1658 1643 1527 1650 1760
8 1521 1399 1529 1645 1644 1528 1651 1761
8 1647 1530 1652 1762 1525 1404 1529 1645
8 1401 1523 1648 1532 1531 1646 1763 1655
8 1525 1404 1533 1649 1647 1530 1654 1765
8 1533 1649 1766 1656 1403 1526 1648 1532
8 1662 1542 1658 1774 1539 1414 1535 1657
8 1542 1415 1543 1664 1658 1536 1659 1775
8 1660 1540 1663 1777 1538 1413 1541 1661
8 1545 1421 1548 1666 1660 1540 1663 1777
8 1662 1542 1414 1539 1778 1664 1541 1661
8 1664 1543 1416 1541 1779 1665 1544 1663
8 1548 1425 1550 1668 1663 1544 1665 1779
8 1547 1423 1549 1667 1666 1548 1668 1781
8 1670 1551 1668 1781 1553 1427 1549 1667
8 1551 1426 1552 1671 1668 1550 1669 1782
8 1670 1551 1427 1553 1784 1671 1554 1674
8 1675 1555 1672 1785 1554 1428 1552 1671
8 1678 1556 1673 1789 1558 1429 1555 1675
8 1561 1431 1558 1681 1674 1554 1675 1790
8 1794 1677 1556 1678 1680 1557 1429 1558
8 1560 1430 1559 1683 1680 1557 1679 1797
8 1561 1431 1560 1684 1681 1558 1680 1798
8 1563 1433 1564 1686 1683 1559 1682 1800
8 1684 1560 1432 1562 1801 1683 1563 1685
8 1565 1435 1566 1688 1685 1563 1686 1802
8 1566 1436 1567 1689 1686 1564 1687 1803
8 1568 1438 1569 1691 1688 1566 1689 1805
8 1569 1439 1570 1692 1689 1567 1690 1806
8 1571 1441 1572 1694 1691 1569 1692 1808
8 1442 1572 1692 1570 1573 1695 1809 1693
8 1574 1444 1575 1696 1694 1572 1695 1810
8 1614 1485 1592 1712 1699 1577 1697 1813
8 1579 1449 1577 1699 1701 1578 1698 1815
8 1615 1486 1614 1735 1702 1579 1699 1816
8 1701 1578 1700 1818 1581 1450 1580 1704
8 1582 1451 1579 1702 1705 1581 1701 1819
8 1704 1580 1703 1820 1584 1452 1583 1706
8 1705 1581 1704 1821 1585 1453 1584 1707
8 1707 1584 1706 1822 1587 1456 1586 1708
8 1710 1589 1506 1633 1824 1709 1632 1751
8 1594 1463 1589 1710 1716 1593 1709 1824
8 1752 1633 1710 1825 1634 1507 1590 1711
8 1595 1464 1590 1711 1717 1594 1710 1825
8 1830 1714 1592 1712 1733 1611 1485 1614
8 1603 1477 1593 1716 1725 1607 1715 1834
8 1599 1473 1594 1717 1721 1603 1716 1835
8 1837 1722 1623 1736 1718 1600 1496 1616
8 1719 1601 1722 1837 1597 1471 1600 1718
8 1602 1720 1598 1472 1723 1838 1719 1601
8 1720 1602 1473 1599 1839 1724 1603 1721
8 1723 1605 1726 1840 1601 1475 1604 1722
8 1840 1726 1628 1743 1722 1604 1501 1623
8 1724 1606 1727 1841 1602 1476 1605 1723
8 1725 1607 1728 1842 1603 1477 1606 1724
8 1612 1482 1608 1731 1733 1611 1730 1849
8 1741 1627 1730 1849 1622 1504 1608 1731
8 1613 1483 1609 1732 1734 1612 1731 1850
8 1618 1495 1622 1738 1732 1609 1731 1850
8 1615 1486 1612 1734 1735 1614 1733 1851
8 1852 1743 1626 1737 1736 1623 1499 1617
8 1853 1745 1625 1739 1737 1626 1500 1619
8 1855 1742 1622 1738 1740 1624 1497 1621
8 1856 1744 1624 1740 1739 1625 1498 1620
8 1741 1627 1504 1622 1857 1746 1631 1742
8 1742 1631 1505 1624 1858 1749 1630 1744
8 1859 1747 1629 1745 1743 1628 1502 1626
8 1860 1748 1630 1744 1745 1629 1503 1625
8 1644 1528 1651 1761 1751 1632 1750 1865
8 1637 1520 1644 1755 1752 1633 1751 1866
8 1754 1646 1522 1636 1867 1760 1643 1753
8 1657 1535 1658 1774 1753 1643 1760 1867
8 1639 1523 1646 1754 1756 1648 1763 1868
8 1641 1521 1645 1758 1755 1644 1761 1869
8 1757 1649 1526 1640 1870 1766 1648 1756
8 1642 1525 1649 1757 1759 1647 1765 1871
8 1759 1647 1762 1872 1642 1525 1645 1758
8 1760 1650 1767 1874 1646 1531 1655 1763
8 1658 1536 1659 1775 1760 1650 1767 1874
8 1762 1652 1768 1875 1645 1529 1651 1761
8 1764 1653 1769 1876 1647 1530 1652 1762
8 1656 1766 1877 1773 1532 1648 1763 1655
8 1771 1879 1765 1654 1653 1764 1647 1530
8 1533 1649 1765 1654 1656 1766 1880 1772
8 1662 1542 1664 1778 1774 1658 1775 1887
8 1664 1543 1665 1779 1775 1659 1776 1888
8 1778 1664 1541 1661 1890 1779 1663 1777
8 1666 1548 1668 1781 1777 1663 1779 1890
8 1782 1669 1780 1891 1668 1550 1665 1779
8 1670 1551 1671 1784 1781 1668 1782 1893
8 1671 1552 1672 1785 1782 1669 1783 1894
8 1790 1675 1785 1896 1674 1554 1671 1784
8 1675 1555 1673 1789 1785 1672 1786 1897
8 1792 1676 1788 1903 1678 1556 1673 1789
8 1795 1678 1789 1904 1681 1558 1675 1790
8 1792 1676 1556 1678 1906 1791 1677 1794
8 1680 1557 1679 1797 1794 1677 1793 1909
8 1910 1794 1678 1795 1798 1680 1558 1681
8 1683 1559 1682 1800 1797 1679 1796 1912
8 1684 1560 1683 1801 1798 1680 1797 1913
8 1686 1564 1687 1803 1800 1682 1799 1915
8 1685 1563 1686 1802 1801 1683 1800 1916
8 1688 1566 1689 1805 1802 1686 1803 1917
8 1689 1567 1690 1806 1803 1687 1804 1918
8 1691 1569 1692 1808 1805 1689 1806 1920
8 1692 1570 1693 1809 1806 1690 1807 1921
8 1694 1572 1695 1810 1808 1692 1809 1922
8 1829 1713 1811 1926 1712 1592 1697 1813
8 1813 1697 1812 1928 1699 1577 1698 1815
8 1735 1614 1712 1828 1816 1699 1813 1929
8 1815 1698 1814 1931 1701 1578 1700 1818
8 1702 1579 1699 1816 1819 1701 1815 1932
8 1818 1700 1817 1933 1704 1580 1703 1820
8 1819 1701 1818 1934 1705 1581 1704 1821
8 1821 1704 1820 1935 1707 1584 1706 1822
8 1824 1709 1632 1751 1937 1823 1750 1865
8 1716 1593 1709 1824 1834 1715 1823 1937
8 1825 1710 1633 1752 1938 1824 1751 1866
8 1717 1594 1710 1825 1835 1716 1824 1938
8 1945 1830 1712 1828 1851 1733 1614 1735
8 1830 1714 1831 1946 1712 1592 1713 1829
8 1947 1832 1714 1830 1849 1730 1611 1733
8 1843 1729 1607 1725 1950 1833 1715 1834
8 1721 1603 1716 1835 1836 1725 1834 1951
8 1836 1725 1842 1953 1721 1603 1724 1839
8 1723 1838 1719 1601 1840 1954 1837 1722
8 1954 1840 1743 1852 1837 1722 1623 1736
8 1724 1839 1720 1602 1841 1955 1838 1723
8 1841 1727 1844 1956 1723 1605 1726 1840
8 1956 1844 1747 1859 1840 1726 1628 1743
8 1728 1842 1724 1606 1845 1957 1841 1727
8 1725 1607 1729 1843 1842 1728 1846 1958
8 1741 1627 1746 1857 1849 1730 1848 1965
8 1734 1612 1731 1850 1851 1733 1849 1966
8 1854 1741 1849 1966 1738 1622 1731 1850
8 1967 1859 1745 1853 1852 1743 1626 1737
8 1968 1860 1744 1856 1853 1745 1625 1739
8 1854 1741 1622 1738 1969 1857 1742 1855
8 1855 1742 1624 1740 1970 1858 1744 1856
8 1857 1746 1631 1742 1971 1861 1749 1858
8 1858 1749 1630 1744 1972 1863 1748 1860
8 1859 1747 1862 1973 1745 1629 1748 1860
8 1875 1768 1864 1977 1761 1651 1750 1865
8 1755 1644 1761 1869 1866 1751 1865 1978
8 1867 1760 1874 1979 1754 1646 1763 1868
8 1774 1658 1775 1887 1867 1760 1874 1979
8 1870 1766 1648 1756 1980 1877 1763 1868
8 1872 1762 1875 1981 1758 1645 1761 1869
8 1757 1649 1766 1870 1871 1765 1880 1982
8 1983 1879 1764 1873 1871 1765 1647 1759
8 1873 1764 1876 1984 1759 1647 1762 1872
8 1877 1773 1655 1763 1986 1881 1767 1874
8 1775 1659 1776 1888 1874 1767 1881 1986
8 1876 1769 1882 1987 1762 1652 1768 1875
8 1878 1770 1883 1988 1764 1653 1769 1876
8 1880 1772 1656 1766 1989 1886 1773 1877
8 1878 1770 1653 1764 1990 1884 1771 1879
8 1765 1654 1772 1880 1879 1771 1885 1991
8 1778 1664 1779 1890 1887 1775 1888 1997
8 1998 1889 1776 1888 1891 1780 1665 1779
8 1893 1782 1891 2000 1781 1668 1779 1890
8 1894 1783 1892 2001 1782 1669 1780 1891
8 1784 1671 1785 1896 1893 1782 1894 2003
8 1897 1786 1895 2004 1785 1672 1783 1894
8 1790 1675 1789 1904 1896 1785 1897 2006
8 1901 1787 1898 2007 1789 1673 1786 1897
8 1903 1788 1900 2013 1789 1673 1787 1901
8 1792 1676 1791 1906 1903 1788 1902 2016
8 1907 1792 1903 2017 1795 1678 1789 1904
8 1906 1791 1677 1794 2019 1905 1793 1909
8 1907 1792 1678 1795 2020 1906 1794 1910
8 1797 1679 1796 1912 1909 1793 1908 2022
8 1798 1680 1797 1913 1910 1794 1909 2023
8 1800 1682 1799 1915 1912 1796 1911 2025
8 1801 1683 1800 1916 1913 1797 1912 2026
8 1803 1687 1804 1918 1915 1799 1914 2028
8 1802 1686 1803 1917 1916 1800 1915 2029
8 1805 1689 1806 1920 1917 1803 1918 2030
8 1806 1690 1807 1921 1918 1804 1919 2031
8 1808 1692 1809 1922 1920 1806 1921 2032
8 1939 1826 1924 2037 1829 1713 1811 1926
8 1926 1811 1925 2039 1813 1697 1812 1928
8 1944 1829 1926 2040 1828 1712 1813 1929
8 1928 1812 1927 2042 1815 1698 1814 1931
8 1929 1813 1928 2043 1816 1699 1815 1932
8 1931 1814 1930 2044 1818 1700 1817 1933
8 1932 1815 1931 2045 1819 1701 1818 1934
8 1934 1818 1933 2046 1821 1704 1820 1935
8 2048 1936 1823 1937 1977 1864 1750 1865
8 1950 1833 1715 1834 2048 1936 1823 1937
8 1938 1824 1751 1866 2049 1937 1865 1978
8 1835 1716 1824 1938 1951 1834 1937 2049
8 1939 1826 1713 1829 2053 1942 1831 1946
8 1940 1827 1923 2035 2053 1942 1826 1939
8 1945 1830 1946 2058 1828 1712 1829 1944
8 2059 1947 1830 1945 1966 1849 1733 1851
8 1947 1832 1730 1849 2060 1948 1848 1965
8 1947 1832 1948 2060 1830 1714 1831 1946
8 1959 1847 1729 1843 2063 1949 1833 1950
8 1952 1843 1725 1836 2064 1950 1834 1951
8 1836 1725 1843 1952 1953 1842 1958 2066
8 1953 1842 1957 2067 1839 1724 1841 1955
8 1841 1955 1838 1723 1956 2068 1954 1840
8 2068 1956 1859 1967 1954 1840 1743 1852
8 1956 1844 1960 2069 1859 1747 1862 1973
8 1845 1957 1841 1727 1960 2069 1956 1844
8 1728 1842 1957 1845 1846 1958 2071 1961
8 1962 2072 1959 1847 1846 1958 1843 1729
8 1971 1861 1964 2077 1857 1746 1848 1965
8 1854 1741 1857 1969 1966 1849 1965 2078
8 1967 1859 1973 2079 1853 1745 1860 1968
8 1970 1858 1744 1856 2080 1972 1860 1968
8 1969 1857 1742 1855 2081 1971 1858 1970
8 1971 1861 1749 1858 2082 1974 1863 1972
8 1973 1862 1975 2083 1860 1748 1863 1972
8 1987 1882 1976 2086 1875 1768 1864 1977
8 1981 1875 1977 2087 1869 1761 1865 1978
8 1980 1877 1763 1868 2088 1986 1874 1979
8 1887 1775 1888 1997 1979 1874 1986 2088
8 1880 1982 2089 1989 1766 1870 1980 1877
8 1984 1876 1987 2090 1872 1762 1875 1981
8 1765 1871 1983 1879 1880 1982 2091 1991
8 1985 1878 1764 1873 2092 1990 1879 1983
8 1985 1878 1988 2093 1873 1764 1876 1984
8 2094 1992 1881 1986 1998 1889 1776 1888
8 1986 1881 1992 2094 1877 1773 1886 1989
8 1988 1883 1993 2095 1876 1769 1882 1987
8 1878 1770 1884 1990 1988 1883 1994 2096
8 1991 1885 1772 1880 2097 1996 1886 1989
8 1879 1771 1885 1991 1990 1884 1995 2098
8 2103 1998 1888 1997 2000 1891 1779 1890
8 2104 1999 1889 1998 2001 1892 1780 1891
8 2003 1894 2001 2106 1893 1782 1891 2000
8 2004 1895 2002 2107 1894 1783 1892 2001
8 2006 1897 2004 2109 1896 1785 1894 2003
8 2007 1898 2005 2110 1897 1786 1895 2004
8 2014 1901 2007 2112 1904 1789 1897 2006
8 2011 1899 2008 2113 1901 1787 1898 2007
8 2119 2010 1899 2011 2013 1900 1787 1901
8 2016 1902 2012 2122 1903 1788 1900 2013
8 2017 1903 2013 2123 1904 1789 1901 2014
8 1906 1791 1905 2019 2016 1902 2015 2125
8 1907 1792 1906 2020 2017 1903 2016 2126
8 1909 1793 1908 2022 2019 1905 2018 2128
8 2020 1906 1794 1910 2129 2019 1909 2023
8 1912 1796 1911 2025 2022 1908 2021 2131
8 1913 1797 1912 2026 2023 1909 2022 2132
8 1915 1799 1914 2028 2025 1911 2024 2134
8 1916 1800 1915 2029 2026 1912 2025 2135
8 1918 1804 1919 2031 2028 1914 2027 2136
8 1917 1803 1918 2030 2029 1915 2028 2137
8 1920 1806 1921 2032 2030 1918 2031 2138
8 1940 1827 1941 2054 2035 1923 2033 2140
8 2035 1923 2034 2143 1939 1826 1924 2037
8 2037 1924 2036 2146 1926 1811 1925 2039
8 2051 1939 2037 2147 1944 1829 1926 2040
8 2039 1925 2038 2149 1928 1812 1927 2042
8 2040 1926 2039 2150 1929 1813 1928 2043
8 2042 1927 2041 2151 1931 1814 1930 2044
8 2043 1928 2042 2152 1932 1815 1931 2045
8 2045 1931 2044 2153 1934 1818 1933 2046
8 2155 2047 1936 2048 2086 1976 1864 1977
8 2063 1949 1833 1950 2155 2047 1936 2048
8 2156 2048 1937 2049 2087 1977 1865 1978
8 2064 1950 1834 1951 2156 2048 1937 2049
8 2051 1939 1829 1944 2160 2053 1946 2058
8 2052 1940 2035 2144 2160 2053 1939 2051
8 2053 1942 1831 1946 2163 2057 1948 2060
8 2055 1943 1827 1940 2163 2057 1942 2053
8 2055 1943 2056 2164 1940 1827 1941 2054
8 2059 1947 1849 1966 2167 2060 1965 2078
8 2059 1947 2060 2167 1945 1830 1946 2058
8 2077 1964 2061 2168 1965 1848 1948 2060
8 2070 1963 1847 1959 2170 2062 1949 2063
8 2065 1959 1843 1952 2171 2063 1950 2064
8 2173 2072 1958 2066 2065 1959 1843 1952
8 1953 1842 1958 2066 2067 1957 2071 2174
8 2068 1956 2069 2175 1967 1859 1973 2079
8 2067 1957 2069 2175 1955 1841 1956 2068
8 1845 1957 2069 1960 1961 2071 2176 2073
8 2069 1960 2073 2176 1973 1862 1975 2083
8 2070 1963 2075 2177 1959 1847 1962 2072
8 1846 1958 2071 1961 1962 2072 2178 2074
8 2077 1964 1861 1971 2182 2076 1974 2082
8 2081 1971 2077 2183 1969 1857 1965 2078
8 2079 1973 2083 2184 1968 1860 1972 2080
8 2081 1971 1858 1970 2185 2082 1972 2080
8 2083 1975 2084 2186 1972 1863 1974 2082
8 2086 1976 1882 1987 2189 2085 1993 2095
8 2090 1987 2086 2190 1981 1875 1977 2087
8 2191 2094 1986 2088 2103 1998 1888 1997
8 2088 1986 2094 2191 1980 1877 1989 2089
8 1991 2091 2192 2097 1880 1982 2089 1989
8 2093 1988 2095 2193 1984 1876 1987 2090
8 1879 1983 2092 1990 1991 2091 2194 2098
8 1985 1878 1990 2092 2093 1988 2096 2195
8 2097 1996 1886 1989 2196 2099 1992 2094
8 2196 2099 1992 2094 2104 1999 1889 1998
8 1994 2096 1988 1883 2100 2197 2095 1993
8 2096 1994 1884 1990 2198 2101 1995 2098
8 1995 2098 2199 2102 1885 1991 2097 1996
8 2203 2104 1998 2103 2106 2001 1891 2000
8 2107 2002 2105 2204 2001 1892 1999 2104
8 2109 2004 2107 2206 2003 1894 2001 2106
8 2110 2005 2108 2207 2004 1895 2002 2107
8 2112 2007 2110 2209 2006 1897 2004 2109
8 2113 2008 2111 2210 2007 1898 2005 2110
8 2120 2011 2113 2212 2014 1901 2007 2112
8 2117 2009 2114 2213 2011 1899 2008 2113
8 2219 2116 2009 2117 2119 2010 1899 2011
8 2222 2118 2010 2119 2122 2012 1900 2013
8 2223 2119 2011 2120 2123 2013 1901 2014
8 2016 1902 2015 2125 2122 2012 2121 2225
8 2126 2016 2122 2226 2017 1903 2013 2123
8 2019 1905 2018 2128 2125 2015 2124 2228
8 2020 1906 2019 2129 2126 2016 2125 2229
8 2022 1908 2021 2131 2128 2018 2127 2231
8 2023 1909 2022 2132 2129 2019 2128 2232
8 2025 1911 2024 2134 2131 2021 2130 2234
8 2026 1912 2025 2135 2132 2022 2131 2235
8 1914 2028 2134 2024 2027 2136 2236 2133
8 2029 1915 2028 2137 2135 2025 2134 2237
8 2030 1918 2031 2138 2137 2028 2136 2238
8 2157 2050 2139 2240 2054 1941 2033 2140
8 2052 1940 2054 2161 2144 2035 2140 2242
8 2140 2033 2141 2243 2035 1923 2034 2143
8 2143 2034 2142 2246 2037 1924 2036 2146
8 2144 2035 2143 2247 2051 1939 2037 2147
8 2146 2036 2145 2249 2039 1925 2038 2149
8 2147 2037 2146 2250 2040 1926 2039 2150
8 2149 2038 2148 2251 2042 1927 2041 2151
8 2150 2039 2149 2252 2043 1928 2042 2152
8 2152 2042 2151 2253 2045 1931 2044 2153
8 2255 2154 2047 2155 2189 2085 1976 2086
8 2170 2062 1949 2063 2255 2154 2047 2155
8 2256 2155 2048 2156 2190 2086 1977 2087
8 2171 2063 1950 2064 2256 2155 2048 2156
8 2258 2159 2050 2157 2164 2056 1941 2054
8 2160 2053 1946 2058 2262 2163 2060 2167
8 2162 2055 1940 2052 2262 2163 2053 2160
8 2162 2055 2164 2263 2052 1940 2054 2161
8 2163 2057 1948 2060 2264 2165 2061 2168
8 2055 1943 2057 2163 2164 2056 2165 2264
8 2182 2076 2166 2268 2077 1964 2061 2168
8 2183 2077 2168 2269 2078 1965 2060 2167
8 2070 1963 2062 2170 2177 2075 2169 2271
8 2172 2070 1959 2065 2272 2170 2063 2171
8 2172 2070 2177 2273 2065 1959 2072 2173
8 2066 1958 2072 2173 2174 2071 2178 2274
8 2067 1957 2071 2174 2175 2069 2176 2275
8 2175 2069 2176 2275 2079 1973 2083 2184
8 2071 1961 2074 2178 2176 2073 2179 2276
8 2176 2073 2179 2276 2083 1975 2084 2186
8 2072 1962 2075 2177 2178 2074 2180 2277
8 2182 2076 1974 2082 2280 2181 2084 2186
8 2183 2077 1971 2081 2281 2182 2082 2185
8 2184 2083 2186 2282 2080 1972 2082 2185
8 2189 2085 1993 2095 2285 2188 2100 2197
8 2190 2086 1987 2090 2286 2189 2095 2193
8 2192 2097 1989 2089 2287 2196 2094 2191
8 2287 2196 2094 2191 2203 2104 1998 2103
8 2194 2098 1991 2091 2288 2199 2097 2192
8 2195 2096 2197 2289 2093 1988 2095 2193
8 2096 2195 2290 2198 1990 2092 2194 2098
8 2097 1996 2099 2196 2199 2102 2200 2291
8 2196 2099 1999 2104 2291 2200 2105 2204
8 2100 2197 2292 2201 1994 2096 2198 2101
8 1995 2098 2198 2101 2102 2199 2293 2202
8 2206 2107 2204 2296 2106 2001 2104 2203
8 2207 2108 2205 2297 2107 2002 2105 2204
8 2209 2110 2207 2299 2109 2004 2107 2206
8 2210 2111 2208 2300 2110 2005 2108 2207
8 2212 2113 2210 2302 2112 2007 2110 2209
8 2213 2114 2211 2303 2113 2008 2111 2210
8 2220 2117 2213 2305 2120 2011 2113 2212
8 2216 2115 2214 2306 2117 2009 2114 2213
8 2216 2115 2009 2117 2311 2217 2116 2219
8 2219 2116 2010 2119 2314 2218 2118 2222
8 2315 2219 2117 2220 2223 2119 2011 2120
8 2122 2012 2121 2225 2222 2118 2221 2317
8 2318 2222 2119 2223 2226 2122 2013 2123
8 2125 2015 2124 2228 2225 2121 2224 2320
8 2126 2016 2125 2229 2226 2122 2225 2321
8 2128 2018 2127 2231 2228 2124 2227 2323
8 2129 2019 2128 2232 2229 2125 2228 2324
8 2131 2021 2130 2234 2231 2127 2230 2326
8 2132 2022 2131 2235 2232 2128 2231 2327
8 2134 2024 2133 2236 2234 2130 2233 2328
8 2135 2025 2134 2237 2235 2131 2234 2329
8 2137 2028 2136 2238 2237 2134 2236 2330
8 2157 2050 2158 2259 2240 2139 2239 2332
8 2257 2157 2240 2334 2161 2054 2140 2242
8 2240 2139 2241 2335 2140 2033 2141 2243
8 2242 2140 2243 2337 2144 2035 2143 2247
8 2243 2141 2244 2338 2143 2034 2142 2246
8 2246 2142 2245 2341 2146 2036 2145 2249
8 2247 2143 2246 2342 2147 2037 2146 2250
8 2249 2145 2248 2343 2149 2038 2148 2251
8 2250 2146 2249 2344 2150 2039 2149 2252
8 2252 2149 2251 2345 2152 2042 2151 2253
8 2169 2271 2347 2254 2062 2170 2255 2154
8 2189 2085 2188 2285 2255 2154 2254 2347
8 2348 2255 2155 2256 2286 2189 2086 2190
8 2272 2170 2063 2171 2348 2255 2155 2256
8 2349 2258 2157 2257 2263 2164 2054 2161
8 2258 2159 2261 2351 2157 2050 2158 2259
8 2258 2159 2056 2164 2351 2261 2165 2264
8 2262 2163 2060 2167 2355 2264 2168 2269
8 2162 2055 2163 2262 2263 2164 2264 2355
8 2357 2266 2165 2264 2268 2166 2061 2168
8 2268 2166 2076 2182 2361 2267 2181 2280
8 2281 2182 2268 2362 2183 2077 2168 2269
8 2271 2169 2270 2364 2177 2075 2180 2277
8 2172 2070 2170 2272 2273 2177 2271 2365
8 2072 2173 2274 2178 2177 2273 2366 2277
8 2071 2174 2275 2176 2178 2274 2367 2276
8 2275 2176 2276 2367 2184 2083 2186 2282
8 2283 2187 2084 2186 2368 2278 2179 2276
8 2178 2074 2180 2277 2276 2179 2278 2368
8 2283 2187 2279 2370 2186 2084 2181 2280
8 2281 2182 2082 2185 2371 2280 2186 2282
8 2188 2285 2374 2284 2100 2197 2292 2201
8 2286 2189 2095 2193 2375 2285 2197 2289
8 2192 2097 2196 2287 2288 2199 2291 2376
8 2287 2196 2104 2203 2376 2291 2204 2296
8 2194 2098 2199 2288 2290 2198 2293 2377
8 2289 2197 2096 2195 2378 2292 2198 2290
8 2291 2200 2105 2204 2379 2294 2205 2297
8 2199 2102 2200 2291 2293 2202 2294 2379
8 2198 2101 2202 2293 2292 2201 2295 2380
8 2299 2207 2297 2383 2206 2107 2204 2296
8 2300 2208 2298 2384 2207 2108 2205 2297
8 2302 2210 2300 2386 2209 2110 2207 2299
8 2303 2211 2301 2387 2210 2111 2208 2300
8 2305 2213 2303 2389 2212 2113 2210 2302
8 2306 2214 2304 2390 2213 2114 2211 2303
8 2310 2216 2306 2392 2220 2117 2213 2305
8 2308 2215 2307 2393 2216 2115 2214 2306
8 2308 2215 2115 2216 2396 2309 2217 2311
8 2310 2216 2117 2220 2398 2311 2219 2315
8 2311 2217 2116 2219 2399 2312 2218 2314
8 2314 2218 2118 2222 2402 2313 2221 2317
8 2315 2219 2119 2223 2403 2314 2222 2318
8 2225 2121 2224 2320 2317 2221 2316 2405
8 2226 2122 2225 2321 2318 2222 2317 2406
8 2228 2124 2227 2323 2320 2224 2319 2408
8 2229 2125 2228 2324 2321 2225 2320 2409
8 2231 2127 2230 2326 2323 2227 2322 2411
8 2232 2128 2231 2327 2324 2228 2323 2412
8 2234 2130 2233 2328 2326 2230 2325 2413
8 2235 2131 2234 2329 2327 2231 2326 2414
8 2237 2134 2236 2330 2329 2234 2328 2415
8 2259 2158 2260 2352 2332 2239 2331 2417
8 2257 2157 2259 2350 2334 2240 2332 2419
8 2240 2139 2239 2332 2335 2241 2333 2420
8 2334 2240 2335 2422 2242 2140 2243 2337
8 2335 2241 2336 2423 2243 2141 2244 2338
8 2337 2243 2338 2425 2247 2143 2246 2342
8 2338 2244 2339 2426 2246 2142 2245 2341
8 2341 2245 2340 2428 2249 2145 2248 2343
8 2342 2246 2341 2429 2250 2146 2249 2344
8 2344 2249 2343 2430 2252 2149 2251 2345
8 2188 2285 2347 2254 2284 2374 2432 2346
8 2347 2254 2346 2432 2271 2169 2270 2364
8 2365 2271 2170 2272 2433 2347 2255 2348
8 2286 2189 2285 2375 2348 2255 2347 2433
8 2349 2258 2351 2435 2257 2157 2259 2350
8 2349 2258 2164 2263 2435 2351 2264 2355
8 2259 2158 2261 2351 2352 2260 2354 2437
8 2356 2265 2354 2437 2264 2165 2261 2351
8 2441 2357 2264 2355 2362 2268 2168 2269
8 2356 2265 2165 2264 2442 2358 2266 2357
8 2443 2359 2266 2357 2361 2267 2166 2268
8 2370 2279 2360 2446 2280 2181 2267 2361
8 2362 2268 2182 2281 2447 2361 2280 2371
8 2180 2277 2368 2278 2270 2364 2449 2363
8 2271 2365 2273 2177 2364 2450 2366 2277
8 2372 2283 2186 2282 2451 2368 2276 2367
8 2178 2274 2367 2276 2277 2366 2451 2368
8 2283 2187 2278 2368 2370 2279 2369 2452
8 2372 2283 2370 2453 2282 2186 2280 2371
8 2284 2374 2455 2373 2201 2292 2380 2295
8 2375 2285 2197 2289 2456 2374 2292 2378
8 2376 2291 2204 2296 2457 2379 2297 2383
8 2288 2199 2291 2376 2377 2293 2379 2457
8 2198 2290 2378 2292 2293 2377 2458 2380
8 2293 2202 2294 2379 2380 2295 2381 2459
8 2384 2298 2381 2459 2297 2205 2294 2379
8 2386 2300 2384 2463 2299 2207 2297 2383
8 2387 2301 2385 2464 2300 2208 2298 2384
8 2389 2303 2387 2466 2302 2210 2300 2386
8 2390 2304 2388 2467 2303 2211 2301 2387
8 2392 2306 2390 2469 2305 2213 2303 2389
8 2393 2307 2391 2470 2306 2214 2304 2390
8 2395 2308 2393 2472 2310 2216 2306 2392
8 2308 2215 2309 2396 2393 2307 2394 2473
8 2395 2308 2216 2310 2475 2396 2311 2398
8 2396 2309 2217 2311 2476 2397 2312 2399
8 2398 2311 2219 2315 2478 2399 2314 2403
8 2399 2312 2218 2314 2479 2400 2313 2402
8 2317 2221 2316 2405 2402 2313 2401 2482
8 2403 2314 2222 2318 2483 2402 2317 2406
8 2320 2224 2319 2408 2405 2316 2404 2485
8 2321 2225 2320 2409 2406 2317 2405 2486
8 2323 2227 2322 2411 2408 2319 2407 2488
8 2324 2228 2323 2412 2409 2320 2408 2489
8 2326 2230 2325 2413 2411 2322 2410 2490
8 2327 2231 2326 2414 2412 2323 2411 2491
8 2329 2234 2328 2415 2414 2326 2413 2492
8 2417 2331 2260 2352 2494 2416 2353 2438
8 2350 2259 2352 2436 2419 2332 2417 2496
8 2332 2239 2331 2417 2420 2333 2418 2497
8 2334 2240 2332 2419 2422 2335 2420 2499
8 2420 2333 2421 2500 2335 2241 2336 2423
8 2422 2335 2423 2502 2337 2243 2338 2425
8 2423 2336 2424 2503 2338 2244 2339 2426
8 2425 2338 2426 2505 2342 2246 2341 2429
8 2426 2339 2427 2506 2341 2245 2340 2428
8 2429 2341 2428 2507 2344 2249 2343 2430
8 2432 2346 2284 2374 2509 2431 2373 2455
8 2432 2346 2431 2509 2364 2270 2363 2449
8 2375 2285 2374 2456 2433 2347 2432 2510
8 2347 2433 2365 2271 2432 2510 2450 2364
8 2350 2259 2351 2435 2436 2352 2437 2514
8 2440 2356 2437 2514 2355 2264 2351 2435
8 2352 2260 2354 2437 2438 2353 2439 2516
8 2356 2265 2358 2442 2437 2354 2439 2516
8 2440 2356 2264 2355 2518 2442 2357 2441
8 2519 2443 2357 2441 2447 2361 2268 2362
8 2443 2359 2444 2520 2357 2266 2358 2442
8 2443 2359 2267 2361 2520 2444 2360 2446
8 2446 2360 2279 2370 2523 2445 2369 2452
8 2453 2370 2446 2524 2371 2280 2361 2447
8 2449 2363 2448 2525 2368 2278 2369 2452
8 2366 2277 2364 2450 2451 2368 2449 2526
8 2372 2283 2368 2451 2453 2370 2452 2527
8 2455 2373 2295 2380 2529 2454 2382 2460
8 2456 2374 2292 2378 2530 2455 2380 2458
8 2377 2293 2379 2457 2458 2380 2459 2531
8 2463 2384 2459 2531 2383 2297 2379 2457
8 2533 2461 2382 2460 2459 2381 2295 2380
8 2464 2385 2461 2533 2384 2298 2381 2459
8 2466 2387 2464 2537 2386 2300 2384 2463
8 2467 2388 2465 2538 2387 2301 2385 2464
8 2469 2390 2467 2540 2389 2303 2387 2466
8 2470 2391 2468 2541 2390 2304 2388 2467
8 2472 2393 2470 2543 2392 2306 2390 2469
8 2393 2307 2394 2473 2470 2391 2471 2544
8 2395 2308 2396 2475 2472 2393 2473 2546
8 2396 2309 2397 2476 2473 2394 2474 2547
8 2475 2396 2311 2398 2549 2476 2399 2478
8 2476 2397 2312 2399 2550 2477 2400 2479
8 2478 2399 2314 2403 2552 2479 2402 2483
8 2479 2400 2313 2402 2553 2480 2401 2482
8 2405 2316 2404 2485 2482 2401 2481 2556
8 2406 2317 2405 2486 2483 2402 2482 2557
8 2408 2319 2407 2488 2485 2404 2484 2559
8 2409 2320 2408 2489 2486 2405 2485 2560
8 2411 2322 2410 2490 2488 2407 2487 2561
8 2412 2323 2411 2491 2489 2408 2488 2562
8 2414 2326 2413 2492 2491 2411 2490 2563
8 2513 2434 2493 2565 2438 2353 2416 2494
8 2496 2417 2352 2436 2567 2494 2438 2515
8 2494 2416 2495 2568 2417 2331 2418 2497
8 2419 2332 2417 2496 2499 2420 2497 2570
8 2497 2418 2498 2571 2420 2333 2421 2500
8 2499 2420 2500 2573 2422 2335 2423 2502
8 2500 2421 2501 2574 2423 2336 2424 2503
8 2502 2423 2503 2576 2425 2338 2426 2505
8 2503 2424 2504 2577 2426 2339 2427 2506
8 2505 2426 2506 2578 2429 2341 2428 2507
8 2509 2431 2373 2455 2580 2508 2454 2529
8 2509 2431 2508 2580 2449 2363 2448 2525
8 2432 2510 2581 2509 2374 2456 2530 2455
8 2432 2510 2450 2364 2509 2581 2526 2449
8 2583 2511 2434 2513 2516 2439 2353 2438
8 2436 2352 2437 2514 2515 2438 2516 2588
8 2440 2356 2442 2518 2514 2437 2516 2588
8 2442 2358 2444 2520 2516 2439 2517 2589
8 2519 2443 2520 2591 2441 2357 2442 2518
8 2519 2443 2361 2447 2591 2520 2446 2524
8 2446 2360 2445 2523 2520 2444 2521 2592
8 2525 2448 2522 2593 2452 2369 2445 2523
8 2524 2446 2370 2453 2594 2523 2452 2527
8 2526 2449 2525 2595 2451 2368 2452 2527
8 2534 2462 2528 2597 2460 2382 2454 2529
8 2530 2455 2380 2458 2598 2529 2460 2532
8 2599 2533 2460 2532 2531 2459 2380 2458
8 2537 2464 2533 2599 2463 2384 2459 2531
8 2534 2462 2382 2460 2601 2535 2461 2533
8 2538 2465 2535 2601 2464 2385 2461 2533
8 2540 2467 2538 2604 2466 2387 2464 2537
8 2541 2468 2539 2605 2467 2388 2465 2538
8 2543 2470 2541 2607 2469 2390 2467 2540
8 2470 2391 2471 2544 2541 2468 2542 2608
8 2472 2393 2473 2546 2543 2470 2544 2610
8 2473 2394 2474 2547 2544 2471 2545 2611
8 2475 2396 2476 2549 2546 2473 2547 2613
8 2476 2397 2477 2550 2547 2474 2548 2614
8 2549 2476 2399 2478 2616 2550 2479 2552
8 2479 2400 2480 2553 2550 2477 2551 2617
8 2552 2479 2402 2483 2619 2553 2482 2557
8 2482 2401 2481 2556 2553 2480 2554 2620
8 2485 2404 2484 2559 2556 2481 2555 2623
8 2486 2405 2485 2560 2557 2482 2556 2624
8 2488 2407 2487 2561 2559 2484 2558 2625
8 2489 2408 2488 2562 2560 2485 2559 2626
8 2491 2411 2490 2563 2562 2488 2561 2627
8 2513 2434 2512 2585 2565 2493 2564 2630
8 2586 2513 2565 2632 2515 2438 2494 2567
8 2565 2493 2566 2633 2494 2416 2495 2568
8 2567 2494 2568 2635 2496 2417 2497 2570
8 2568 2495 2569 2636 2497 2418 2498 2571
8 2570 2497 2571 2638 2499 2420 2500 2573
8 2571 2498 2572 2639 2500 2421 2501 2574
8 2573 2500 2574 2641 2502 2423 2503 2576
8 2574 2501 2575 2642 2503 2424 2504 2577
8 2576 2503 2577 2643 2505 2426 2506 2578
8 2597 2528 2579 2645 2529 2454 2508 2580
8 2580 2508 2579 2645 2525 2448 2522 2593
8 2581 2509 2455 2530 2646 2580 2529 2598
8 2581 2509 2580 2646 2526 2449 2525 2595
8 2583 2511 2582 2648 2513 2434 2512 2585
8 2583 2511 2439 2516 2648 2582 2517 2589
8 2649 2583 2513 2586 2588 2516 2438 2515
8 2589 2517 2444 2520 2653 2587 2521 2592
8 2518 2442 2520 2591 2588 2516 2589 2654
8 2593 2522 2590 2655 2523 2445 2521 2592
8 2524 2446 2523 2594 2591 2520 2592 2656
8 2595 2525 2593 2657 2527 2452 2523 2594
8 2602 2536 2596 2659 2534 2462 2528 2597
8 2600 2534 2597 2660 2532 2460 2529 2598
8 2600 2534 2460 2532 2661 2601 2533 2599
8 2604 2538 2601 2661 2537 2464 2533 2599
8 2602 2536 2462 2534 2663 2603 2535 2601
8 2601 2535 2465 2538 2663 2603 2539 2605
8 2607 2541 2605 2665 2540 2467 2538 2604
8 2608 2542 2606 2666 2541 2468 2539 2605
8 2543 2470 2544 2610 2607 2541 2608 2668
8 2544 2471 2545 2611 2608 2542 2609 2669
8 2546 2473 2547 2613 2610 2544 2611 2671
8 2547 2474 2548 2614 2611 2545 2612 2672
8 2549 2476 2550 2616 2613 2547 2614 2674
8 2550 2477 2551 2617 2614 2548 2615 2675
8 2552 2479 2553 2619 2616 2550 2617 2677
8 2553 2480 2554 2620 2617 2551 2618 2678
8 2557 2482 2556 2624 2619 2553 2620 2680
8 2556 2481 2555 2623 2620 2554 2621 2681
8 2559 2484 2558 2625 2623 2555 2622 2683
8 2560 2485 2559 2626 2624 2556 2623 2684
8 2562 2488 2561 2627 2626 2559 2625 2685
8 2690 2629 2564 2630 2650 2584 2512 2585
8 2586 2513 2585 2651 2632 2565 2630 2691
8 2630 2564 2631 2692 2565 2493 2566 2633
8 2632 2565 2633 2694 2567 2494 2568 2635
8 2633 2566 2634 2695 2568 2495 2569 2636
8 2635 2568 2636 2697 2570 2497 2571 2638
8 2636 2569 2637 2698 2571 2498 2572 2639
8 2638 2571 2639 2700 2573 2500 2574 2641
8 2639 2572 2640 2701 2574 2501 2575 2642
8 2641 2574 2642 2702 2576 2503 2577 2643
8 2597 2528 2596 2659 2645 2579 2644 2704
8 2645 2579 2644 2704 2593 2522 2590 2655
8 2660 2597 2645 2705 2598 2529 2580 2646
8 2646 2580 2645 2705 2595 2525 2593 2657
8 2650 2584 2512 2585 2707 2647 2582 2648
8 2648 2582 2517 2589 2707 2647 2587 2653
8 2649 2583 2648 2708 2586 2513 2585 2651
8 2649 2583 2516 2588 2708 2648 2589 2654
8 2655 2590 2652 2710 2592 2521 2587 2653
8 2654 2589 2520 2591 2711 2653 2592 2656
8 2657 2593 2655 2712 2594 2523 2592 2656
8 2602 2536 2603 2663 2659 2596 2658 2714
8 2662 2602 2659 2715 2600 2534 2597 2660
8 2662 2602 2534 2600 2717 2663 2601 2661
8 2661 2601 2538 2604 2717 2663 2605 2665
8 2666 2606 2664 2718 2605 2539 2603 2663
8 2668 2608 2666 2720 2607 2541 2605 2665
8 2608 2542 2609 2669 2666 2606 2667 2721
8 2610 2544 2611 2671 2668 2608 2669 2723
8 2611 2545 2612 2672 2669 2609 2670 2724
8 2613 2547 2614 2674 2671 2611 2672 2726
8 2614 2548 2615 2675 2672 2612 2673 2727
8 2616 2550 2617 2677 2674 2614 2675 2729
8 2617 2551 2618 2678 2675 2615 2676 2730
8 2619 2553 2620 2680 2677 2617 2678 2732
8 2620 2554 2621 2681 2678 2618 2679 2733
8 2624 2556 2623 2684 2680 2620 2681 2735
8 2681 2621 2555 2623 2736 2682 2622 2683
8 2626 2559 2625 2685 2684 2623 2683 2737
8 2688 2628 2584 2650 2740 2686 2647 2707
8 2688 2628 2687 2742 2650 2584 2629 2690
8 2690 2629 2689 2745 2630 2564 2631 2692
8 2746 2690 2630 2691 2709 2650 2585 2651
8 2691 2630 2692 2747 2632 2565 2633 2694
8 2692 2631 2693 2748 2633 2566 2634 2695
8 2694 2633 2695 2750 2635 2568 2636 2697
8 2695 2634 2696 2751 2636 2569 2637 2698
8 2697 2636 2698 2753 2638 2571 2639 2700
8 2698 2637 2699 2754 2639 2572 2640 2701
8 2700 2639 2701 2755 2641 2574 2642 2702
8 2659 2596 2658 2714 2704 2644 2703 2757
8 2704 2644 2703 2757 2655 2590 2652 2710
8 2660 2597 2659 2715 2705 2645 2704 2758
8 2705 2645 2704 2758 2657 2593 2655 2712
8 2759 2706 2647 2707 2710 2652 2587 2653
8 2709 2650 2585 2651 2760 2707 2648 2708
8 2708 2648 2589 2654 2760 2707 2653 2711
8 2712 2655 2710 2761 2656 2592 2653 2711
8 2763 2713 2658 2714 2718 2664 2603 2663
8 2662 2602 2663 2717 2715 2659 2714 2764
8 2720 2666 2718 2767 2665 2605 2663 2717
8 2768 2719 2664 2718 2721 2667 2606 2666
8 2668 2608 2669 2723 2720 2666 2721 2770
8 2669 2609 2670 2724 2721 2667 2722 2771
8 2671 2611 2672 2726 2723 2669 2724 2773
8 2672 2612 2673 2727 2724 2670 2725 2774
8 2674 2614 2675 2729 2726 2672 2727 2776
8 2675 2615 2676 2730 2727 2673 2728 2777
8 2677 2617 2678 2732 2729 2675 2730 2779
8 2678 2618 2679 2733 2730 2676 2731 2780
8 2680 2620 2681 2735 2732 2678 2733 2782
8 2733 2679 2621 2681 2783 2734 2682 2736
8 2735 2681 2623 2684 2784 2736 2683 2737
8 2740 2686 2647 2707 2787 2738 2706 2759
8 2688 2628 2686 2740 2742 2687 2739 2789
8 2743 2688 2650 2709 2790 2740 2707 2760
8 2742 2687 2741 2792 2690 2629 2689 2745
8 2743 2688 2742 2793 2709 2650 2690 2746
8 2745 2689 2744 2795 2692 2631 2693 2748
8 2746 2690 2745 2796 2691 2630 2692 2747
8 2747 2692 2748 2797 2694 2633 2695 2750
8 2748 2693 2749 2798 2695 2634 2696 2751
8 2750 2695 2751 2800 2697 2636 2698 2753
8 2751 2696 2752 2801 2698 2637 2699 2754
8 2753 2698 2754 2802 2700 2639 2701 2755
8 2763 2713 2756 2804 2714 2658 2703 2757
8 2759 2706 2652 2710 2804 2756 2703 2757
8 2715 2659 2714 2764 2758 2704 2757 2805
8 2758 2704 2757 2805 2712 2655 2710 2761
8 2806 2759 2707 2760 2761 2710 2653 2711
8 2765 2716 2762 2808 2718 2664 2713 2763
8 2809 2763 2714 2764 2767 2718 2663 2717
8 2765 2716 2664 2718 2811 2766 2719 2768
8 2813 2768 2718 2767 2770 2721 2666 2720
8 2814 2769 2719 2768 2771 2722 2667 2721
8 2723 2669 2724 2773 2770 2721 2771 2816
8 2724 2670 2725 2774 2771 2722 2772 2817
8 2726 2672 2727 2776 2773 2724 2774 2819
8 2727 2673 2728 2777 2774 2725 2775 2820
8 2729 2675 2730 2779 2776 2727 2777 2822
8 2730 2676 2731 2780 2777 2728 2778 2823
8 2732 2678 2733 2782 2779 2730 2780 2825
8 2780 2731 2679 2733 2826 2781 2734 2783
8 2782 2733 2681 2735 2827 2783 2736 2784
8 2830 2785 2738 2787 2804 2756 2706 2759
8 2789 2739 2686 2740 2832 2786 2738 2787
8 2790 2740 2707 2760 2833 2787 2759 2806
8 2742 2687 2739 2789 2792 2741 2788 2835
8 2743 2688 2740 2790 2793 2742 2789 2836
8 2792 2741 2791 2838 2745 2689 2744 2795
8 2793 2742 2792 2839 2746 2690 2745 2796
8 2795 2744 2794 2841 2748 2693 2749 2798
8 2796 2745 2795 2842 2747 2692 2748 2797
8 2797 2748 2798 2843 2750 2695 2751 2800
8 2798 2749 2799 2844 2751 2696 2752 2801
8 2800 2751 2801 2845 2753 2698 2754 2802
8 2808 2762 2803 2847 2763 2713 2756 2804
8 2809 2763 2804 2848 2764 2714 2757 2805
8 2806 2759 2710 2761 2848 2804 2757 2805
8 2765 2716 2766 2811 2808 2762 2807 2850
8 2810 2765 2808 2851 2767 2718 2763 2809
8 2810 2765 2718 2767 2852 2811 2768 2813
8 2811 2766 2719 2768 2853 2812 2769 2814
8 2855 2814 2768 2813 2816 2771 2721 2770
8 2856 2815 2769 2814 2817 2772 2722 2771
8 2773 2724 2774 2819 2816 2771 2817 2858
8 2774 2725 2775 2820 2817 2772 2818 2859
8 2776 2727 2777 2822 2819 2774 2820 2861
8 2777 2728 2778 2823 2820 2775 2821 2862
8 2779 2730 2780 2825 2822 2777 2823 2864
8 2823 2778 2731 2780 2865 2824 2781 2826
8 2825 2780 2733 2782 2866 2826 2783 2827
8 2869 2828 2785 2830 2847 2803 2756 2804
8 2871 2829 2786 2832 2830 2785 2738 2787
8 2872 2830 2787 2833 2848 2804 2759 2806
8 2789 2739 2786 2832 2835 2788 2831 2874
8 2836 2789 2740 2790 2875 2832 2787 2833
8 2792 2741 2788 2835 2838 2791 2834 2877
8 2793 2742 2789 2836 2839 2792 2835 2878
8 2838 2791 2837 2880 2795 2744 2794 2841
8 2839 2792 2838 2881 2796 2745 2795 2842
8 2841 2794 2840 2882 2798 2749 2799 2844
8 2842 2795 2841 2883 2797 2748 2798 2843
8 2843 2798 2844 2884 2800 2751 2801 2845
8 2886 2846 2803 2847 2850 2807 2762 2808
8 2851 2808 2847 2887 2809 2763 2804 2848
8 2850 2807 2766 2811 2889 2849 2812 2853
8 2810 2765 2811 2852 2851 2808 2850 2890
8 2852 2811 2768 2813 2891 2853 2814 2855
8 2853 2812 2769 2814 2892 2854 2815 2856
8 2894 2856 2814 2855 2858 2817 2771 2816
8 2817 2772 2818 2859 2856 2815 2857 2895
8 2819 2774 2820 2861 2858 2817 2859 2897
8 2820 2775 2821 2862 2859 2818 2860 2898
8 2822 2777 2823 2864 2861 2820 2862 2900
8 2823 2778 2824 2865 2862 2821 2863 2901
8 2864 2823 2780 2825 2902 2865 2826 2866
8 2904 2867 2828 2869 2886 2846 2803 2847
8 2869 2828 2868 2906 2830 2785 2829 2871
8 2907 2869 2830 2872 2887 2847 2804 2848
8 2871 2829 2870 2909 2832 2786 2831 2874
8 2910 2871 2832 2875 2872 2830 2787 2833
8 2835 2788 2831 2874 2877 2834 2873 2912
8 2836 2789 2832 2875 2878 2835 2874 2913
8 2877 2834 2876 2915 2838 2791 2837 2880
8 2839 2792 2835 2878 2881 2838 2877 2916
8 2880 2837 2879 2917 2841 2794 2840 2882
8 2881 2838 2880 2918 2842 2795 2841 2883
8 2883 2841 2882 2919 2843 2798 2844 2884
8 2921 2885 2846 2886 2889 2849 2807 2850
8 2922 2886 2847 2887 2890 2850 2808 2851
8 2889 2849 2812 2853 2924 2888 2854 2892
8 2890 2850 2811 2852 2925 2889 2853 2891
8 2891 2853 2814 2855 2926 2892 2856 2894
8 2892 2854 2815 2856 2927 2893 2857 2895
8 2858 2817 2859 2897 2894 2856 2895 2929
8 2859 2818 2860 2898 2895 2857 2896 2930
8 2861 2820 2862 2900 2897 2859 2898 2932
8 2862 2821 2863 2901 2898 2860 2899 2933
8 2864 2823 2865 2902 2900 2862 2901 2934
8 2904 2867 2846 2886 2936 2903 2885 2921
8 2904 2867 2903 2936 2869 2828 2868 2906
8 2937 2904 2869 2907 2922 2886 2847 2887
8 2906 2868 2905 2939 2871 2829 2870 2909
8 2907 2869 2906 2940 2872 2830 2871 2910
8 2909 2870 2908 2942 2874 2831 2873 2912
8 2910 2871 2909 2943 2875 2832 2874 2913
8 2912 2873 2911 2945 2877 2834 2876 2915
8 2878 2835 2874 2913 2916 2877 2912 2946
8 2915 2876 2914 2947 2880 2837 2879 2917
8 2916 2877 2915 2948 2881 2838 2880 2918
8 2918 2880 2917 2949 2883 2841 2882 2919
8 2921 2885 2849 2889 2951 2920 2888 2924
8 2952 2921 2886 2922 2925 2889 2850 2890
8 2924 2888 2854 2892 2954 2923 2893 2927
8 2925 2889 2853 2891 2955 2924 2892 2926
8 2926 2892 2856 2894 2956 2927 2895 2929
8 2895 2857 2896 2930 2927 2893 2928 2957
8 2897 2859 2898 2932 2929 2895 2930 2959
8 2898 2860 2899 2933 2930 2896 2931 2960
8 2900 2862 2901 2934 2932 2898 2933 2961
8 2936 2903 2885 2921 2963 2935 2920 2951
8 2936 2903 2935 2963 2906 2868 2905 2939
8 2937 2904 2886 2922 2964 2936 2921 2952
8 2937 2904 2936 2964 2907 2869 2906 2940
8 2939 2905 2938 2966 2909 2870 2908 2942
8 2940 2906 2939 2967 2910 2871 2909 2943
8 2942 2908 2941 2969 2912 2873 2911 2945
8 2943 2909 2942 2970 2913 2874 2912 2946
8 2945 2911 2944 2971 2915 2876 2914 2947
8 2946 2912 2945 2972 2916 2877 2915 2948
8 2948 2915 2947 2973 2918 2880 2917 2949
8 2951 2920 2888 2924 2975 2950 2923 2954
8 2952 2921 2889 2925 2976 2951 2924 2955
8 2927 2893 2928 2957 2954 2923 2953 2978
8 2955 2924 2892 2926 2979 2954 2927 2956
8 2929 2895 2930 2959 2956 2927 2957 2980
8 2930 2896 2931 2960 2957 2928 2958 2981
8 2932 2898 2933 2961 2959 2930 2960 2982
8 2951 2920 2950 2975 2963 2935 2962 2984
8 2963 2935 2962 2984 2939 2905 2938 2966
8 2964 2936 2921 2952 2985 2963 2951 2976
8 2964 2936 2963 2985 2940 2906 2939 2967
8 2966 2938 2965 2987 2942 2908 2941 2969
8 2967 2939 2966 2988 2943 2909 2942 2970
8 2969 2941 2968 2989 2945 2911 2944 2971
8 2970 2942 2969 2990 2946 2912 2945 2972
8 2972 2945 2971 2991 2948 2915 2947 2973
8 2954 2923 2953 2978 2975 2950 2974 2993
8 2976 2951 2924 2955 2994 2975 2954 2979
8 2957 2928 2958 2981 2978 2953 2977 2995
8 2956 2927 2957 2980 2979 2954 2978 2996
8 2959 2930 2960 2982 2980 2957 2981 2997
8 2984 2962 2983 2999 2966 2938 2965 2987
8 2975 2950 2974 2993 2984 2962 2983 2999
8 2976 2951 2975 2994 2985 2963 2984 3000
8 2985 2963 2984 3000 2967 2939 2966 2988
8 2987 2965 2986 3001 2969 2941 2968 2989
8 2988 2966 2987 3002 2970 2942 2969 2990
8 2990 2969 2989 3003 2972 2945 2971 2991
8 2978 2953 2977 2995 2993 2974 2992 3004
8 2979 2954 2978 2996 2994 2975 2993 3005
8 2980 2957 2981 2997 2996 2978 2995 3006
8 2974 2993 2999 2983 2992 3004 3007 2998
8 2983 2999 2987 2965 2998 3007 3001 2986
8 3000 2984 2999 3008 2988 2966 2987 3002
8 2994 2975 2993 3005 3000 2984 2999 3008
8 3002 2987 3001 3009 2990 2969 2989 3003
8 2996 2978 2995 3006 3005 2993 3004 3010
8 3005 2993 3004 3010 3008 2999 3007 3011
8 3008 2999 3007 3011 3002 2987 3001 3009

CELL_TYPES 1910
12
12
12
12
12
12
12
12
12
12
12
12
12
12
12
12
12
12
12
12
12
12
12
12
12
12
12
12
12
12
12
12
12
12
12
12
12
12
12
12
12
12
12
12
12
12
12
12
12
12
12
12
12
12
12
12
12
12
12
12
12
12
12
12
12
12
12
12
12
12
12
12
12
12
12
12
12
12
12
12
12
12
12
12
12
12
12
12
12
12
12
12
12
12
12
12
12
12
12
12
12
12
12
12
12
12
12
12
12
12
12
12
12
12
12
12
12
12
12
12
12
12
12
12
12
12
12
12
12
12
12
12
12
12
12
12
12
12
12
12
12
12
12
12
12
12
12
12
12
12
12
12
12
12
12
12
12
12
12
12
12
12
12
12
12
12
12
12
12
12
12
12
12
12
12
12
12
12
12
12
12
12
12
12
12
12
12
12
12
12
12
12
12
12
12
12
12
12
12
12
12
12
12
12
12
12
12
12
12
12
12
12
12
12
12
12
12
12
12
12
12
12
12
12
12
12
12
12
12
12
12
12
12
12
12
12
12
12
12
12
12
12
12
12
12
12
12
12
12
12
12
12
12
12
12
12
12
12
12
12
12
12
12
12
12
12
12
12
12
12
12
12
12
12
12
12
12
12
12
12
12
12
12
12
12
12
12
12
12
12
12
12
12
12
12
12
12
12
12
12
12
12
12
12
12
12
12
12
12
12
12
12
12
12
12
12
12
12
12
12
12
12
12
12
12
12
12
12
12
12
12
12
12
12
12
12
12
12
12
12
12
12
12
12
12
12
12
12
12
12
12
12
12
12
12
12
12
12
12
12
12
12
12
12
12
12
12
12
12
12
12
12
12
12
12
12
12
12
12
12
12
12
12
12
12
12
12
12
12
12
12
12
12
12
12
12
12
12
12
12
12
12
12
12
12
12
12
12
12
12
12
12
12
12
12
12
12
12
12
12
12
12
12
12
12
12
12
12
12
12
12
12
12
12
12
12
12
12
12
12
12
12
12
12
12
12
12
12
12
12
12
12
12
12
12
12
12
12
12
12
12
12
12
12
12
12
12
12
12
12
12
12
12
12
12
12
12
12
12
12
12
12
12
12
12
12
12
12
12
12
12
12
12
12
12
12
12
12
12
12
12
12
12
12
12
12
12
12
12
12
12
12
12
12
12
12
12
12
12
12
12
12
12
12
12
12
12
12
12
12
12
12
12
12
12
12
12
12
12
12
12
12
12
12
12
12
12
12
12
12
12
12
12
12
12
12
12
12
12
12
12
12
12
12
12
12
12
12
12
12
12
12
12
12
12
12
12
12
12
12
12
12
12
12
12
12
12
12
12
12
12
12
12
12
12
12
12
12
12
12
12
12
12
12
12
12
12
12
12
12
12
12
12
12
12
12
12
12
12
12
12
12
12
12
12
12
12
12
12
12
12
12
12
12
12
12
12
12
12
12
12
12
12
12
12
12
12
12
12
12
12
12
12
12
12
12
12
12
12
12
12
12
12
12
12
12
12
12
12
12
12
12
12
12
12
12
12
12
12
12
12
12
12
12
12
12
12
12
12
12
12
12
12
12
12
12
12
12
12
12
12
12
12
12
12
12
12
12
12
12
12
12
12
12
12
12
12
12
12
12
12
12
12
12
12
12
12
12
12
12
12
12
12
12
12
12
12
12
12
12
12
12
12
12
12
12
12
12
12
12
12
12
12
12
12
12
12
12
12
12
12
12
12
12
12
12
12
12
12
12
12
12
12
12
12
12
12
12
12
12
12
12
12
12
12
12
12
12
12
12
12
12
12
12
12
12
12
12
12
12
12
12
12
12
12
12
12
12
12
12
12
12
12
12
12
12
12
12
12
12
12
12
12
12
12
12
12
12
12
12
12
12
12
12
12
12
12
12
12
12
12
12
12
12
12
12
12
12
12
12
12
12
12
12
12
12
12
12
12
12
12
12
12
12
12
12
12
12
12
12
12
12
12
12
12
12
12
12
12
12
12
12
12
12
12
12
12
12
12
12
12
12
12
12
12
12
12
12
12
12
12
12
12
12
12
12
12
12
12
12
12
12
12
12
12
12
12
12
12
12
12
12
12
12
12
12
12
12
12
12
12
12
12
12
12
12
12
12
12
12
12
12
12
12
12
12
12
12
12
12
12
12
12
12
12
12
12
12
12
12
12
12
12
12
12
12
12
12
12
12
12
12
12
12
12
12
12
12
12
12
12
12
12
12
12
12
12
12
12
12
12
12
12
12
12
12
12
12
12
12
12
12
12
12
12
12
12
12
12
12
12
12
12
12
12
12
12
12
12
12
12
12
12
12
12
12
12
12
12
12
12
12
12
12
12
12
12
12
12
12
12
12
12
12
12
12
12
12
12
12
12
12
12
12
12
12
12
12
12
12
12
12
12
12
12
12
12
12
12
12
12
12
12
12
12
12
12
12
12
12
12
12
12
12
12
12
12
12
12
12
12
12
12
12
12
12
12
12
12
12
12
12
12
12
12
12
12
12
12
12
12
12
12
12
12
12
12
12
12
12
12
12
12
12
12
12
12
12
12
12
12
12
12
12
12
12
12
12
12
12
12
12
12
12
12
12
12
12
12
12
12
12
12
12
12
12
12
12
12
12
12
12
12
12
12
12
12
12
12
12
12
12
12
12
12
12
12
12
12
12
12
12
12
12
12
12
12
12
12
12
12
12
12
12
12
12
12
12
12
12
12
12
12
12
12
12
12
12
12
12
12
12
12
12
12
12
12
12
12
12
12
12
12
12
12
12
12
12
12
12
12
12
12
12
12
12
12
12
12
12
12
12
12
12
12
12
12
12
12
12
12
12
12
12
12
12
12
12
12
12
12
12
12
12
12
12
12
12
12
12
12
12
12
12
12
12
12
12
12
12
12
12
12
12
12
12
12
12
12
12
12
12
12
12
12
12
12
12
12
12
12
12
12
12
12
12
12
12
12
12
12
12
12
12
12
12
12
12
12
12
12
12
12
12
12
12
12
12
12
12
12
12
12
12
12
12
12
12
12
12
12
12
12
12
12
12
12
12
12
12
12
12
12
12
12
12
12
12
12
12
12
12
12
12
12
12
12
12
12
12
12
12
12
12
12
12
12
12
12
12
12
12
12
12
12
12
12
12
12
12
12
12
12
12
12
12
12
12
12
12
12
12
12
12
12
12
12
12
12
12
12
12
12
12
12
12
12
12
12
12
12
12
12
12
12
12
12
12
12
12
12
12
12
12
12
12
12
12
12
12
12
12
12
12
12
12
12
12
12
12
12
12
12
12
12
12
12
12
12
12
12
12
12
12
12
12
12
12
12
12
12
12
12
12
12
12
12
12
12
12
12
12
12
12
12
12
12
12
12
12
12
12
12
12
12
12
12
12
12
12
12
12
12
12
12
12
12
12
12
12
12
12
12
12
12
12
12
12
12
12
12
12
12
12
12
12
12
12
12
12
12
12
12
12
12
12
12
12
12
12
12
12
12
12
12
12
12
12
12
12
12
12
12
12
12
12
12
12
12
12
12
12
12
12
12
12
12
12
12
12
12
12
12
12
12
12
12
12
12
12
12
12
12
12
12
12
12
12
12
12
12
12
12
12
12
12
12
12
12
12
12
12
12
12
12
12
12
12
12
12
12
12
12
12
12
12
12
12
12
12
12
12
12
12
12
12
12
12
12
12
12
12
12
12
12
12
12
12
12
12
12
12
12
12
12
12
12
12
12
12
12
12
12
12
12
12
12
12
12
12
12
12
12
12
12
12
12
12
12
12
12
12
12
12
12
12
12
12
12
12
12
12
12
12
12
12
12
12
12
12
12
12
12
12
12
12
12
12
12
12
12
12
12
12
12
12
12
12
12
12
12
12
12
12
12
12
12
12
12
12
12
12
12
12
12
12
12
12
12
12
12
12
12
12
12
12
12
12
12
12
12
12
12
12
12
12
12
12
12
12
12
12
12
12
12
12
12
12
12
12
12
12
12
12
12
12
12
12
12
12
12
12
12
12
12
12
12
12
12
12
12
12
12
12
12
12
12
12
12
12
12
12
12
12
12
12
12
12
12
12
12
12
12
12
12
12
12
12
12
12
12
12
12
12
12
12
12
12
12
12
12
12
12
12
12
12
12
12
12
12
12
12
12
12
12
12
12
12
12
12
12
12
12
12
12
12
12
12
12
12
12
12
12
12
12
12
12
12
12
12
12
12
12
12
12
12
12
12
12
12
12
12
12
12
12
12
12
12
12
12
12
12
12
12
12
12
12
12
12
12
12
12
12
12
12
12
12
12
12
12
12
12
12
12
12
12
12
12
12
12

POINT_DATA 3012
SCALARS Jp_lamdaP float 4
LOOKUP_TABLE default
1 1 1 1
1 1 1 1
1 1 1 1
1 1 1 1
1 1 1 1
1 1 1 1
1 1 1 1
1 1 1 1
1 1 1 1
1 1 1 1
1 1 1 1
1 1 1 1
1 1 1 1
1 1 1 1
1 1 1 1
1 1 1 1
1 1 1 1
1 1 1 1
1 1 1 1
1 1 1 1
1 1 1 1
1 1 1 1
1 1 1 1
1 1 1 1
1 1 1 1
1 1 1 1
1 1 1 1
1 1 1 1
1 1 1 1
1 1 1 1
1 1 1 1
1 1 1 1
1 1 1 1
1 1 1 1
1 1 1 1
1 1 1 1
1 1 1 1
1 1 1 1
1 1 1 1
1 1 1 1
1 1 1 1
1 1 1 1
1 1 1 1
1 1 1 1
1 1 1 1
1 1 1 1
1 1 1 1
1 1 1 1
1 1 1 1
1 1 1 1
1 1 1 1
1 1 1 1
1 1 1 1
1 1 1 1
1 1 1 1
1 1 1 1
1 1 1 1
1 1 1 1
1 1 1 1
1 1 1 1
1 1 1 1
1 1 1 1
1 1 1 1
1 1 1 1
0.999999 1 1 0.999999
0.999999 1 1 0.999999
1 1 1 1
1 1 1 1
1 1 1 1
0.999998 1 1 0.999998
1 1 1 1
1 1 1 1
1 1 1 1
1 1 1 1
1 1 1 1
1 1 1 1
1 1 1 1
1 1 1 1
1 1 1 1
1 1 1 1
1 1 1 1
1 1 1 1
1 1 1 1
1 1 1 1
1 1 1 1
0.999999 1 1 0.999999
1 1 1 1
1 1 1 1
1 1 1 1
0.999999 1 1 0.999999
1 1 1 1
1 1 1 1
1 1 1 1
1 1 1 1
1 1 1 1
1 1 1 1
1 1 1 1
1 1 1 1
1 1 1 1
1 1 1 1
1 1 1 1
1 1 1 1
0.999999 1 1 0.999999
1 1 1 1
0.999999 1 1 0.999999
1 1 1 1
1 1 1 1
1 1 1 1
1 1 1 1
1 1 1 1
1 1 1 1
1 1 1 1
1 1 1 1
1 1 1 1
1 1 1 1
1 1 1 1
1 1 1 1
1 1 1 1
1 1 1 1
1 1 1 1
0.999999 1 1 0.999999
1 1 1 1
1 1 1 1
0.999998 1 1 0.999998
1 1 1 1
1 1 1 1
0.999999 1 1 0.999999
0.999999 1 1 0.999999
0.999999 1 1 0.999999
0.999997 1 1 0.999997
1 1 1 1
0.999998 1 1 0.999998
1 1 1 1
1 1 1 1
0.999999 1 1 0.999999
0.999997 1 1 0.999997
1 1 1 1
1 1 1 1
1 1 1 1
1 1 1 1
1 1 1 1
1 1 1 1
1 1 1 1
1 1 1 1
1 1 1 1
1 1 1 1
1 1 1 1
1 1 1 1
1 1 1 1
0.999999 1 1 0.999999
1 1 1 1
1 1 1 1
1 1 1 1
0.999999 1 1 0.999999
1 1 1 1
1 1 1 1
1 1 1 1
0.999999 1 1 0.999999
1 1 1 1
0.999998 1 1 0.999998
1 1 1 1
0.999999 1 1 0.999999
1 1 1 1
0.999998 1 1 0.999998
1 1 1 1
1 1 1 1
1 1 1 1
1 1 1 1
1 1 1 1
1 1 1 1
1 1 1 1
1 1 1 1
1 1 1 1
1 1 1 1
1 1 1 1
1 1 1 1
1 1 1 1
0.999999 1 1 0.999999
1 1 1 1
0.999999 1 1 0.999999
1 1 1 1
1 1 1 1
0.999999 1 1 0.999999
0.999998 1 1 0.999998
0.999999 1 1 0.999999
0.999997 1 1 0.999997
1 1 1 1
1 1 1 1
1 1 1 1
1 1 1 1
1 1 1 1
1 1 1 1
1 1 1 1
0.999999 1 1 0.999999
1 1 1 1
1 1 1 1
0.999998 1 1 0.999998
1 1 1 1
1 1 1 1
0.999999 1 1 0.999999
0.999999 1 1 0.999999
1 1 1 1
1 1 1 1
1 1 1 1
0.999999 1 1 0.999999
0.999997 1 1 0.999997
0.999998 1 1 0.999998
0.999998 1 1 0.999998
0.999997 1 1 0.999997
1 1 1 1
1 1 1 1
1 1 1 1
0.999999 1 1 0.999999
0.999998 1 1 0.999998
0.999997 1 1 0.999997
0.999998 1 1 0.999998
0.999996 1 1 0.999996
1 1 1 1
0.999997 1 1 0.999997
1 1 1 1
0.999999 1 1 0.999999
0.999997 1 1 0.999997
0.999997 1 1 0.999997
1 1 1 1
1 1 1 1
1 1 1 1
1 1 1 1
1 1 1 1
1 1 1 1
1 1 1 1
1 1 1 1
1 1 1 1
1 1 1 1
1 1 1 1
0.999999 1 1 0.999999
1 1 1 1
1 1 1 1
1 1 1 1
0.999999 1 1 0.999999
1 1 1 1
0.999998 1 1 0.999998
1 1 1 1
0.999999 1 1 0.999999
1 1 1 1
0.999998 1 1 0.999998
1 1 1 1
1 1 1 1
1 1 1 1
1 1 1 1
0.999997 1 1 0.999997
0.999998 1 1 0.999998
0.999997 1 1 0.999997
1 1 1 1
0.999997 1 1 0.999997
0.999998 1 1 0.999998
0.999997 1 1 0.999997
1 1 1 1
1 1 1 1
1 1 1 1
1 1 1 1
1 1 1 1
1 1 1 1
1 1 1 1
1 1 1 1
1 1 1 1
1 1 1 1
1 1 1 1
0.999999 1 1 0.999999
0.999999 1 1 0.999999
1 1 1 1
1 1 1 1
1 1 1 1
1 1 1 1
0.999999 1 1 0.999999
0.999998 1 1 0.999998
0.999999 1 1 0.999999
0.999997 1 1 0.999997
1 1 1 1
0.999999 1 1 0.999999
0.999998 1 1 0.999998
0.999997 1 1 0.999997
0.999997 1 1 0.999997
0.999997 1 1 0.999997
1 1 1 1
1 1 1 1
0.999999 1 1 0.999999
0.999999 1 1 0.999999
1 1 1 1
1 1 1 1
1 1 1 1
0.999999 1 1 0.999999
0.999997 1 1 0.999997
0.999998 1 1 0.999998
0.999998 1 1 0.999998
0.999997 1 1 0.999997
1 1 1 1
1 1 1 1
0.999999 1 1 0.999999
0.999999 1 1 0.999999
0.999998 1 1 0.999998
0.999997 1 1 0.999997
1 1 1 1
1 1 1 1
0.999999 1 1 0.999999
0.999998 1 1 0.999998
0.999996 1 1 0.999996
0.999997 1 1 0.999997
0.999997 1 1 0.999997
0.999997 1 1 0.999997
1 1 1 1
1 1 1 1
1 1 1 1
0.999999 1 1 0.999999
0.999997 1 1 0.999997
0.999997 1 1 0.999997
0.999996 1 1 0.999996
0.999996 1 1 0.999996
0.999996 1 1 0.999996
1 1 1 1
0.999996 1 1 0.999996
0.999999 1 1 0.999999
0.999997 1 1 0.999997
0.999997 1 1 0.999997
0.999997 1 1 0.999997
1 1 1 1
1 1 1 1
1 1 1 1
0.999999 1 1 0.999999
0.999999 1 1 0.999999
1 1 1 1
1 1 1 1
1 1 1 1
1 1 1 1
0.999998 1 1 0.999998
1 1 1 1
1 1 1 1
0.999999 1 1 0.999999
0.999998 1 1 0.999998
1 1 1 1
1 1 1 1
1 1 1 1
1 1 1 1
0.999997 1 1 0.999997
0.999998 1 1 0.999998
0.999997 1 1 0.999997
1 1 1 1
0.999998 1 1 0.999998
0.999998 1 1 0.999998
0.999997 1 1 0.999997
1 1 1 1
1 1 1 1
1 1 1 1
1 1 1 1
0.999999 1 1 0.999999
0.999997 1 1 0.999997
0.999997 1 1 0.999997
0.999996 1 1 0.999996
0.999998 1 1 0.999998
0.999997 1 1 0.999997
0.999997 1 1 0.999997
1 1 1 1
1 1 1 1
1 1 1 1
1 1 1 1
1 1 1 1
1 1 1 1
1 1 1 1
1 1 1 1
1 1 1 1
1 1 1 1
1 1 1 1
1 1 1 1
1 1 1 1
1 1 1 1
1 1 1 1
0.999999 1 1 0.999999
0.999999 1 1 0.999999
0.999997 1 1 0.999997
0.999998 1 1 0.999998
1 1 1 1
1 1 1 1
1 1 1 1
0.999999 1 1 0.999999
0.999998 1 1 0.999998
0.999997 1 1 0.999997
0.999997 1 1 0.999997
0.999997 1 1 0.999997
0.999999 1 1 0.999999
0.999998 1 1 0.999998
0.999997 1 1 0.999997
0.999997 1 1 0.999997
0.999997 1 1 0.999997
0.999997 1 1 0.999997
0.999999 1 1 0.999999
0.999999 1 1 0.999999
0.999998 1 1 0.999998
0.999997 1 1 0.999997
1 1 1 1
1 1 1 1
0.999999 1 1 0.999999
0.999998 1 1 0.999998
0.999996 1 1 0.999996
0.999997 1 1 0.999997
0.999997 1 1 0.999997
0.999997 1 1 0.999997
1 1 1 1
1 1 1 1
1 1 1 1
0.999999 1 1 0.999999
0.999997 1 1 0.999997
0.999997 1 1 0.999997
0.999996 1 1 0.999996
1 1 1 1
0.999999 1 1 0.999999
0.999998 1 1 0.999998
0.999997 1 1 0.999997
0.999996 1 1 0.999996
0.999997 1 1 0.999997
0.999996 1 1 0.999996
0.999997 1 1 0.999997
1 1 1 1
0.999999 1 1 0.999999
1 1 1 1
1 1 1 1
0.999998 1 1 0.999998
0.999996 1 1 0.999996
0.999997 1 1 0.999997
0.999996 1 1 0.999996
0.999996 1 1 0.999996
0.999996 1 1 0.999996
1 1 1 1
0.999997 1 1 0.999997
0.999998 1 1 0.999998
0.999997 1 1 0.999997
0.999997 1 1 0.999997
0.999997 1 1 0.999997
1 1 1 1
1 1 1 1
0.999998 1 1 0.999998
0.999999 1 1 0.999999
0.999998 1 1 0.999998
1 1 1 1
0.999997 1 1 0.999997
1 1 1 1
1 1 1 1
1 1 1 1
0.999998 1 1 0.999998
0.999997 1 1 0.999997
1 1 1 1
0.999998 1 1 0.999998
0.999998 1 1 0.999998
0.999998 1 1 0.999998
1 1 1 1
1 1 1 1
1 1 1 1
1 1 1 1
0.999999 1 1 0.999999
0.999997 1 1 0.999997
0.999997 1 1 0.999997
0.999996 1 1 0.999996
0.999998 1 1 0.999998
0.999997 1 1 0.999997
0.999997 1 1 0.999997
1 1 1 1
1 1 1 1
0.999998 1 1 0.999998
0.999999 1 1 0.999999
0.999998 1 1 0.999998
0.999997 1 1 0.999997
0.999997 1 1 0.999997
0.999997 1 1 0.999997
0.999997 1 1 0.999997
0.999996 1 1 0.999996
1 1 1 1
1 1 1 1
1 1 1 1
0.999999 1 1 0.999999
1 1 1 1
1 1 1 1
1 1 1 1
1 1 1 1
1 1 1 1
1 1 1 1
1 1 1 1
1 1 1 1
1 1 1 1
1 1 1 1
1 1 1 1
1 1 1 1
1 1 1 1
1 1 1 1
1 1 1 1
1 1 1 1
0.999997 1 1 0.999997
0.999998 1 1 0.999998
0.999997 1 1 0.999997
0.999998 1 1 0.999998
0.999999 1 1 0.999999
1 1 1 1
0.999999 1 1 0.999999
0.999998 1 1 0.999998
0.999997 1 1 0.999997
0.999997 1 1 0.999997
0.999997 1 1 0.999997
0.999997 1 1 0.999997
0.999998 1 1 0.999998
0.999998 1 1 0.999998
0.999997 1 1 0.999997
0.999996 1 1 0.999996
0.999997 1 1 0.999997
0.999997 1 1 0.999997
0.999999 1 1 0.999999
0.999997 1 1 0.999997
0.999997 1 1 0.999997
0.999996 1 1 0.999996
1 1 1 1
0.999999 1 1 0.999999
0.999998 1 1 0.999998
0.999997 1 1 0.999997
0.999996 1 1 0.999996
0.999996 1 1 0.999996
0.999997 1 1 0.999997
0.999997 1 1 0.999997
1 1 1 1
0.999998 1 1 0.999998
1 1 1 1
1 1 1 1
0.999998 1 1 0.999998
0.999996 1 1 0.999996
0.999996 1 1 0.999996
0.999996 1 1 0.999996
1 1 1 1
0.999998 1 1 0.999998
0.999997 1 1 0.999997
0.999996 1 1 0.999996
0.999996 1 1 0.999996
0.999997 1 1 0.999997
0.999997 1 1 0.999997
0.999997 1 1 0.999997
0.999998 1 1 0.999998
0.999998 1 1 0.999998
0.999999 1 1 0.999999
1 1 1 1
1 1 1 1
0.999998 1 1 0.999998
0.999996 1 1 0.999996
0.999995 1 1 0.999995
0.999996 1 1 0.999996
0.999998 1 1 0.999998
0.999997 1 1 0.999997
0.999997 1 1 0.999997
0.999996 1 1 0.999996
0.999997 1 1 0.999997
1 1 1 1
1 1 1 1
0.999998 1 1 0.999998
0.999998 1 1 0.999998
0.999998 1 1 0.999998
0.999997 1 1 0.999997
1 1 1 1
1 1 1 1
0.999997 1 1 0.999997
1 1 1 1
1 1 1 1
0.999999 1 1 0.999999
0.999997 1 1 0.999997
0.999996 1 1 0.999996
0.999998 1 1 0.999998
0.999997 1 1 0.999997
0.999997 1 1 0.999997
1 1 1 1
1 1 1 1
0.999998 1 1 0.999998
0.999999 1 1 0.999999
0.999998 1 1 0.999998
0.999997 1 1 0.999997
0.999997 1 1 0.999997
0.999997 1 1 0.999997
0.999997 1 1 0.999997
0.999996 1 1 0.999996
1 1 1 1
0.999999 1 1 0.999999
0.999997 1 1 0.999997
0.999998 1 1 0.999998
0.999997 1 1 0.999997
0.999998 1 1 0.999998
0.999997 1 1 0.999997
0.999998 1 1 0.999998
0.999997 1 1 0.999997
0.999996 1 1 0.999996
1 1 1 1
1 1 1 1
0.999998 1 1 0.999998
1 1 1 1
1 1 1 1
0.999999 1 1 0.999999
0.999998 1 1 0.999998
0.999998 1 1 0.999998
1 1 1 1
1 1 1 1
1 1 1 1
1 1 1 1
1 1 1 1
1 1 1 1
1 1 1 1
1 1 1 1
1 1 1 1
1 1 1 1
1 1 1 1
1 1 1 1
1 1 1 1
1 1 1 1
1 1 1 1
1 1 1 1
0.999997 1 1 0.999997
0.999997 1 1 0.999997
0.999997 1 1 0.999997
0.999997 1 1 0.999997
0.999998 1 1 0.999998
0.999999 1 1 0.999999
0.999998 1 1 0.999998
0.999998 1 1 0.999998
0.999997 1 1 0.999997
0.999996 1 1 0.999996
0.999997 1 1 0.999997
0.999996 1 1 0.999996
0.999999 1 1 0.999999
0.999997 1 1 0.999997
0.999996 1 1 0.999996
0.999998 1 1 0.999998
0.999998 1 1 0.999998
0.999997 1 1 0.999997
0.999996 1 1 0.999996
0.999996 1 1 0.999996
1 1 1 1
0.999998 1 1 0.999998
0.999997 1 1 0.999997
0.999996 1 1 0.999996
0.999996 1 1 0.999996
0.999997 1 1 0.999997
0.999997 1 1 0.999997
0.999997 1 1 0.999997
0.999998 1 1 0.999998
0.999998 1 1 0.999998
0.999999 1 1 0.999999
1 1 1 1
1 1 1 1
0.999997 1 1 0.999997
0.999996 1 1 0.999996
0.999995 1 1 0.999995
0.999998 1 1 0.999998
0.999997 1 1 0.999997
0.999996 1 1 0.999996
0.999996 1 1 0.999996
0.999997 1 1 0.999997
0.999997 1 1 0.999997
1 1 1 1
0.999998 1 1 0.999998
0.999997 1 1 0.999997
0.999998 1 1 0.999998
0.999999 1 1 0.999999
1 1 1 1
0.999997 1 1 0.999997
0.999996 1 1 0.999996
0.999996 1 1 0.999996
0.999997 1 1 0.999997
0.999997 1 1 0.999997
0.999998 1 1 0.999998
0.999996 1 1 0.999996
0.999996 1 1 0.999996
1 1 1 1
0.999999 1 1 0.999999
0.999999 1 1 0.999999
0.999997 1 1 0.999997
0.999997 1 1 0.999997
0.999997 1 1 0.999997
1 1 1 1
1 1 1 1
0.999997 1 1 0.999997
0.999999 1 1 0.999999
0.999999 1 1 0.999999
0.999998 1 1 0.999998
0.999997 1 1 0.999997
0.999997 1 1 0.999997
0.999997 1 1 0.999997
0.999996 1 1 0.999996
1 1 1 1
0.999999 1 1 0.999999
0.999998 1 1 0.999998
0.999998 1 1 0.999998
0.999997 1 1 0.999997
0.999998 1 1 0.999998
0.999997 1 1 0.999997
0.999998 1 1 0.999998
0.999997 1 1 0.999997
0.999996 1 1 0.999996
0.999998 1 1 0.999998
0.999998 1 1 0.999998
0.999997 1 1 0.999997
0.999997 1 1 0.999997
0.999998 1 1 0.999998
0.999998 1 1 0.999998
0.999996 1 1 0.999996
0.999996 1 1 0.999996
1 1 1 1
0.999999 1 1 0.999999
0.999998 1 1 0.999998
1 1 1 1
0.999998 1 1 0.999998
1 1 1 1
0.999998 1 1 0.999998
0.999998 1 1 0.999998
0.999997 1 1 0.999997
0.999997 1 1 0.999997
0.999998 1 1 0.999998
1 1 1 1
1 1 1 1
1 1 1 1
1 1 1 1
1 1 1 1
1 1 1 1
1 1 1 1
1 1 1 1
1 1 1 1
1 1 1 1
1 1 1 1
1 1 1 1
1 1 1 1
1 1 1 1
1 1 1 1
1 1 1 1
0.999997 1 1 0.999997
0.999997 1 1 0.999997
0.999996 1 1 0.999996
0.999996 1 1 0.999996
0.999998 1 1 0.999998
0.999999 1 1 0.999999
0.999998 1 1 0.999998
0.999997 1 1 0.999997
0.999996 1 1 0.999996
0.999997 1 1 0.999997
0.999998 1 1 0.999998
0.999997 1 1 0.999997
0.999997 1 1 0.999997
0.999997 1 1 0.999997
0.999996 1 1 0.999996
0.999996 1 1 0.999996
0.999998 1 1 0.999998
0.999997 1 1 0.999997
0.999996 1 1 0.999996
0.999996 1 1 0.999996
0.999997 1 1 0.999997
0.999997 1 1 0.999997
0.999998 1 1 0.999998
0.999997 1 1 0.999997
0.999998 1 1 0.999998
1 1 1 1
0.999999 1 1 0.999999
1 1 1 1
0.999997 1 1 0.999997
0.999996 1 1 0.999996
0.999996 1 1 0.999996
0.999997 1 1 0.999997
0.999996 1 1 0.999996
0.999996 1 1 0.999996
0.999997 1 1 0.999997
0.999997 1 1 0.999997
1 1 1 1
0.999999 1 1 0.999999
0.999997 1 1 0.999997
0.999997 1 1 0.999997
0.999997 1 1 0.999997
0.999998 1 1 0.999998
0.999998 1 1 0.999998
0.999995 1 1 0.999995
0.999997 1 1 0.999997
0.999998 1 1 0.999998
0.999996 1 1 0.999996
0.999997 1 1 0.999997
0.999996 1 1 0.999996
1 1 1 1
1 1 1 1
0.999999 1 1 0.999999
0.999998 1 1 0.999998
0.999997 1 1 0.999997
0.999997 1 1 0.999997
0.999996 1 1 0.999996
0.999996 1 1 0.999996
1 1 1 1
0.999999 1 1 0.999999
0.999998 1 1 0.999998
0.999998 1 1 0.999998
0.999998 1 1 0.999998
0.999997 1 1 0.999997
0.999997 1 1 0.999997
0.999998 1 1 0.999998
0.999996 1 1 0.999996
0.999996 1 1 0.999996
0.999998 1 1 0.999998
0.999998 1 1 0.999998
0.999997 1 1 0.999997
0.999997 1 1 0.999997
0.999998 1 1 0.999998
0.999998 1 1 0.999998
0.999996 1 1 0.999996
0.999996 1 1 0.999996
0.999998 1 1 0.999998
0.999998 1 1 0.999998
0.999997 1 1 0.999997
0.999996 1 1 0.999996
0.999999 1 1 0.999999
0.999997 1 1 0.999997
0.999996 1 1 0.999996
0.999999 1 1 0.999999
0.999998 1 1 0.999998
0.999997 1 1 0.999997
1 1 1 1
0.999998 1 1 0.999998
0.999997 1 1 0.999997
1 1 1 1
0.999998 1 1 0.999998
0.999997 1 1 0.999997
0.999997 1 1 0.999997
0.999997 1 1 0.999997
0.999997 1 1 0.999997
0.999997 1 1 0.999997
0.999998 1 1 0.999998
1 1 1 1
1 1 1 1
1 1 1 1
1 1 1 1
1 1 1 1
1 1 1 1
1 1 1 1
1 1 1 1
1 1 1 1
1 1 1 1
1 1 1 1
1 1 1 1
1 1 1 1
1 1 1 1
1 1 1 1
1 1 1 1
1 1 1 1
0.999997 1 1 0.999997
0.999996 1 1 0.999996
0.999997 1 1 0.999997
0.999998 1 1 0.999998
0.999998 1 1 0.999998
0.999997 1 1 0.999997
0.999997 1 1 0.999997
0.999998 1 1 0.999998
0.999997 1 1 0.999997
0.999999 1 1 0.999999
0.999998 1 1 0.999998
0.999996 1 1 0.999996
0.999996 1 1 0.999996
0.999997 1 1 0.999997
0.999996 1 1 0.999996
0.999996 1 1 0.999996
0.999997 1 1 0.999997
0.999997 1 1 0.999997
0.999997 1 1 0.999997
0.999997 1 1 0.999997
0.999997 1 1 0.999997
1 1 1 1
0.999999 1 1 0.999999
0.999998 1 1 0.999998
0.999997 1 1 0.999997
1 1 1 1
1 1 1 1
0.999995 1 1 0.999995
0.999997 1 1 0.999997
0.999996 1 1 0.999996
0.999996 1 1 0.999996
0.999997 1 1 0.999997
0.999998 1 1 0.999998
1 1 1 1
0.999998 1 1 0.999998
0.999996 1 1 0.999996
0.999996 1 1 0.999996
0.999997 1 1 0.999997
0.999997 1 1 0.999997
0.999995 1 1 0.999995
0.999995 1 1 0.999995
0.999998 1 1 0.999998
0.999997 1 1 0.999997
0.999996 1 1 0.999996
0.999996 1 1 0.999996
1 1 1 1
1 1 1 1
0.999999 1 1 0.999999
0.999998 1 1 0.999998
0.999997 1 1 0.999997
0.999996 1 1 0.999996
0.999996 1 1 0.999996
0.999996 1 1 0.999996
0.999998 1 1 0.999998
0.999998 1 1 0.999998
0.999998 1 1 0.999998
0.999998 1 1 0.999998
0.999997 1 1 0.999997
0.999997 1 1 0.999997
0.999997 1 1 0.999997
0.999996 1 1 0.999996
0.999998 1 1 0.999998
0.999998 1 1 0.999998
0.999997 1 1 0.999997
0.999996 1 1 0.999996
0.999999 1 1 0.999999
0.999997 1 1 0.999997
0.999996 1 1 0.999996
0.999997 1 1 0.999997
0.999999 1 1 0.999999
0.999996 1 1 0.999996
0.999996 1 1 0.999996
0.999997 1 1 0.999997
0.999995 1 1 0.999995
0.999994 1 1 0.999994
0.999998 1 1 0.999998
0.999997 1 1 0.999997
0.999996 1 1 0.999996
1 1 1 1
0.999998 1 1 0.999998
0.999998 1 1 0.999998
0.999997 1 1 0.999997
1 1 1 1
0.999998 1 1 0.999998
0.999997 1 1 0.999997
0.999997 1 1 0.999997
0.999997 1 1 0.999997
0.999996 1 1 0.999996
0.999997 1 1 0.999997
0.999997 1 1 0.999997
0.999998 1 1 0.999998
0.999999 1 1 0.999999
0.999999 1 1 0.999999
0.999999 1 1 0.999999
1 1 1 1
1 1 1 1
1 1 1 1
1 1 1 1
1 1 1 1
1 1 1 1
1 1 1 1
1 1 1 1
1 1 1 1
1 1 1 1
1 1 1 1
1 1 1 1
1 1 1 1
1 1 1 1
1 1 1 1
1 1 1 1
1 1 1 1
0.999997 1 1 0.999997
0.999997 1 1 0.999997
0.999998 1 1 0.999998
0.999998 1 1 0.999998
0.999997 1 1 0.999997
0.999999 1 1 0.999999
0.999997 1 1 0.999997
1 1 1 1
1 1 1 1
1 1 1 1
0.999997 1 1 0.999997
0.999995 1 1 0.999995
0.999996 1 1 0.999996
0.999997 1 1 0.999997
0.999996 1 1 0.999996
0.999997 1 1 0.999997
0.999998 1 1 0.999998
0.999996 1 1 0.999996
0.999996 1 1 0.999996
0.999997 1 1 0.999997
1 1 1 1
0.999997 1 1 0.999997
1 1 1 1
0.999998 1 1 0.999998
1 1 1 1
0.999995 1 1 0.999995
1 1 1 1
1 1 1 1
0.999998 1 1 0.999998
0.999995 1 1 0.999995
0.999998 1 1 0.999998
0.999996 1 1 0.999996
0.999996 1 1 0.999996
0.999997 1 1 0.999997
0.999998 1 1 0.999998
0.999997 1 1 0.999997
0.999996 1 1 0.999996
0.999996 1 1 0.999996
0.999996 1 1 0.999996
1.00004 1 1.00004 0.999993
0.999997 1 1 0.999997
0.999998 1 1 0.999998
0.999996 1 1 0.999996
0.999996 1 1 0.999996
0.999998 1 1 0.999998
0.999998 1 1 0.999998
0.999997 1 1 0.999997
0.999997 1 1 0.999997
0.999996 1 1 0.999996
0.999996 1 1 0.999996
0.999996 1 1 0.999996
0.999998 1 1 0.999998
0.999997 1 1 0.999997
0.999999 1 1 0.999999
0.999999 1 1 0.999999
0.999997 1 1 0.999997
0.999996 1 1 0.999996
0.999996 1 1 0.999996
0.999997 1 1 0.999997
0.999999 1 1 0.999999
0.999996 1 1 0.999996
0.999996 1 1 0.999996
0.999997 1 1 0.999997
0.999995 1 1 0.999995
0.999994 1 1 0.999994
0.999996 1 1 0.999996
0.999996 1 1 0.999996
0.999996 1 1 0.999996
0.999995 1 1 0.999995
0.999994 1 1 0.999994
0.993274 0.993319 0.999959 0.999996
0.99999 1 1 0.99999
0.99999 1 1 0.99999
0.995961 0.996004 0.999953 1
0.999903 0.999996 0.999907 1
0.999997 1 1 0.999997
0.999996 1 1 0.999996
0.999996 1 1 0.999996
1 1 1 1
0.999998 1 1 0.999998
0.999997 1 1 0.999997
0.999997 1 1 0.999997
0.999997 1 1 0.999997
0.999997 1 1 0.999997
0.999999 1 1 0.999999
0.999998 1 1 0.999998
0.999996 1 1 0.999996
0.999997 1 1 0.999997
0.999997 1 1 0.999997
0.999996 1 1 0.999996
0.999997 1 1 0.999997
0.999998 1 1 0.999998
0.999999 1 1 0.999999
0.999998 1 1 0.999998
0.999998 1 1 0.999998
0.999998 1 1 0.999998
0.999998 1 1 0.999998
1 1 1 1
0.999999 1 1 0.999999
1 1 1 1
1 1 1 1
1 1 1 1
1 1 1 1
1 1 1 1
1 1 1 1
1 1 1 1
1 1 1 1
1 1 1 1
1 1 1 1
1 1 1 1
1 1 1 1
1 1 1 1
1 1 1 1
1 1 1 1
1 1 1 1
1 1 1 1
1 1 1 1
0.999997 1 1 0.999997
0.999998 1 1 0.999998
1 1 1 1
1 1 1 1
0.999997 1 1 0.999997
1 1 1 1
1.00003 1 1.00004 0.999997
0.999996 1 1 0.999996
1 1 1 1
1 1 1 1
1 1 1 1
0.999999 1 1 0.999999
0.999999 1 1 0.999999
0.999995 1 1 0.999995
0.999995 1 1 0.999995
0.999998 1 1 0.999998
0.999996 1 1 0.999996
0.999996 1 1 0.999996
0.999997 1 1 0.999997
0.999996 1 1 0.999996
0.999996 1 1 0.999996
0.999996 1 1 0.999996
1 1 1 1
0.999997 1 1 0.999997
0.999998 1 1 0.999998
1 1 1 1
0.999998 1 1 0.999998
1.00003 1 1.00003 0.999994
0.999998 1 1 0.999998
0.999998 1 1 0.999998
0.999998 1 1 0.999998
0.999997 1 1 0.999997
0.999998 1 1 0.999998
0.999996 1 1 0.999996
0.999996 1 1 0.999996
0.999997 1 1 0.999997
0.999996 1 1 0.999996
0.999996 1 1 0.999996
0.999996 1 1 0.999996
1.00003 1 1.00003 0.999995
0.999999 1 1 0.999999
0.999997 1 1 0.999997
0.999996 1 1 0.999996
0.999997 1 1 0.999997
0.999997 1 1 0.999997
0.999996 1 1 0.999996
0.999995 1 1 0.999995
0.99388 0.994442 0.999435 0.999999
0.999997 1 1 0.999997
0.999996 1 1 0.999996
0.999999 1 1 0.999999
0.999997 1 1 0.999997
0.999995 1 1 0.999995
0.999996 1 1 0.999996
0.999993 1 1 0.999993
0.999996 1 1 0.999996
0.999996 1 1 0.999996
0.999996 1 1 0.999996
0.999995 1 1 0.999995
0.999994 1 1 0.999994
0.99434 0.994647 0.999695 0.999996
0.999988 1 1 0.999988
0.99999 1 1 0.99999
0.99539 0.995426 0.999962 1
0.999968 0.999995 0.999973 1
0.999996 1 1 0.999996
0.994355 0.994376 0.999976 1
0.999949 0.999992 0.999956 1
0.999992 1 1 0.999992
0.999995 1 1 0.999995
0.999993 1 1 0.999993
1.00016 1 1.00017 0.999988
0.993398 0.99341 1 0.999988
1.0002 1 1.00022 0.999982
0.996777 0.996916 0.999859 1
1 0.999999 1.00001 1
0.999996 1 1 0.999996
0.999996 1 1 0.999996
0.999996 1 1 0.999996
1 1 1 1
0.999998 1 1 0.999998
0.999997 1 1 0.999997
0.999997 1 1 0.999997
0.999996 1 1 0.999996
0.999999 1 1 0.999999
0.999997 1 1 0.999997
0.999997 1 1 0.999997
0.999998 1 1 0.999998
0.999996 1 1 0.999996
0.999996 1 1 0.999996
0.999995 1 1 0.999995
0.999997 1 1 0.999997
0.999998 1 1 0.999998
0.999998 1 1 0.999998
0.999997 1 1 0.999997
0.999997 1 1 0.999997
0.999997 1 1 0.999997
0.999997 1 1 0.999997
0.999997 1 1 0.999997
0.999998 1 1 0.999998
0.999998 1 1 0.999998
1 1 1 1
0.999998 1 1 0.999998
1 1 1 1
1 1 1 1
0.999999 1 1 0.999999
1 1 1 1
1 1 1 1
1 1 1 1
1 1 1 1
1 1 1 1
1 1 1 1
1 1 1 1
1 1 1 1
1 1 1 1
1 1 1 1
1 1 1 1
1 1 1 1
1 1 1 1
1 1 1 1
1 1 1 1
1 1 1 1
1 1 1 1
1 1 1 1
1 1 1 1
0.999997 1 1 0.999997
0.999999 1 1 0.999999
0.999997 1 1 0.999997
1 1 1 1
1.00003 1 1.00003 0.999996
1.00003 1 1.00004 0.999995
0.999997 1 1 0.999997
0.992397 0.992425 0.999977 0.999994
0.99468 0.994789 0.99989 1
0.999887 0.999997 0.99989 1
0.999999 1 1 0.999999
1 1 1 1
1 1 1 1
0.999999 1 1 0.999999
0.999998 1 1 0.999998
0.999998 1 1 0.999998
0.999999 1 1 0.999999
0.999999 1 1 0.999999
1.00002 1 1.00003 0.999994
0.999997 1 1 0.999997
0.999998 1 1 0.999998
0.999996 1 1 0.999996
0.999996 1 1 0.999996
0.999996 1 1 0.999996
0.999996 1 1 0.999996
0.999997 1 1 0.999997
0.999998 1 1 0.999998
0.999997 1 1 0.999997
0.999999 1 1 0.999999
0.999998 1 1 0.999998
1.00003 1 1.00004 0.999995
0.999997 1 1 0.999997
0.999997 1 1 0.999997
0.999999 1 1 0.999999
0.999997 1 1 0.999997
0.999996 1 1 0.999996
0.999996 1 1 0.999996
0.999995 1 1 0.999995
0.999997 1 1 0.999997
0.999997 1 1 0.999997
0.999995 1 1 0.999995
0.999994 1 1 0.999994
0.999996 1 1 0.999996
0.999996 1 1 0.999996
0.999995 1 1 0.999995
0.995403 0.996383 0.99901 1.00001
0.993044 0.993236 0.999809 0.999997
0.999996 1 1 0.999996
0.999996 1 1 0.999996
0.999996 1 1 0.999996
0.999995 1 1 0.999995
0.999995 1 1 0.999995
0.993217 0.993263 0.999959 0.999995
0.99999 1 1 0.99999
0.999989 1 1 0.999989
0.994468 0.994588 0.999879 1
1.00003 0.999995 1.00003 1
0.999996 1 1 0.999996
0.995907 0.996362 0.999538 1
0.999967 0.999993 0.999974 1
0.999992 1 1 0.999992
0.999995 1 1 0.999995
0.999993 1 1 0.999993
1.00016 1 1.00017 0.999988
0.993593 0.993591 1.00001 0.999987
1.00005 1 1.00006 0.999985
0.995523 0.995624 0.999901 0.999998
1 0.999998 1.00001 1
0.999996 1 1 0.999996
0.99999 0.999989 1 1
1.00001 1 1 1
0.999991 1 1 0.999991
0.999994 1 1 0.999994
1.00086 1 1.00087 0.999989
1.00138 1 1.0014 0.999983
0.995472 0.995433 1.00006 0.999984
0.997353 0.997798 0.999559 0.999996
0.999996 0.999995 1 1
0.999996 1 1 0.999996
0.999996 1 1 0.999996
0.999995 1 1 0.999995
0.999999 1 1 0.999999
0.999998 1 1 0.999998
0.999997 1 1 0.999997
0.999997 1 1 0.999997
0.999996 1 1 0.999996
0.999998 1 1 0.999998
0.999996 1 1 0.999996
0.999997 1 1 0.999997
0.999995 1 1 0.999995
0.999995 1 1 0.999995
0.999996 1 1 0.999996
0.999997 1 1 0.999997
0.999998 1 1 0.999998
0.999997 1 1 0.999997
0.999997 1 1 0.999997
0.999997 1 1 0.999997
0.999997 1 1 0.999997
0.999997 1 1 0.999997
0.999997 1 1 0.999997
0.999997 1 1 0.999997
0.999997 1 1 0.999997
0.999997 1 1 0.999997
0.999997 1 1 0.999997
0.999997 1 1 0.999997
0.999998 1 1 0.999998
0.999998 1 1 0.999998
1 1 1 1
0.999998 1 1 0.999998
1 1 1 1
1 1 1 1
0.999999 1 1 0.999999
1 1 1 1
1 1 1 1
1 1 1 1
1 1 1 1
1 1 1 1
1 1 1 1
1 1 1 1
1 1 1 1
1 1 1 1
1 1 1 1
1 1 1 1
1 1 1 1
1 1 1 1
1 1 1 1
1 1 1 1
1 1 1 1
1 1 1 1
1 1 1 1
1 1 1 1
0.995652 0.99629 0.999354 1.00001
1.00001 0.999997 1.00001 1
0.999997 1 1 0.999997
1 1 1 1
1.00002 1 1.00003 0.999996
0.999999 1 1 0.999999
1.00003 1 1.00004 0.999995
0.993472 0.993775 0.9997 0.999996
0.996086 0.996119 0.999963 1
0.999959 0.999996 0.999964 1
0.999998 1 1 0.999994
0.992865 0.992846 1.00003 0.99999
0.996791 0.99685 0.999938 1
0.99996 1.00001 0.999954 1
0.999997 1 1 0.999997
0.999999 1 1 0.999999
1 1 1 1
0.999999 1 1 0.999999
0.999998 1 1 0.999998
0.999998 1 1 0.999998
0.999998 1 1 0.999998
0.999998 1 1 0.999998
0.999999 1 1 0.999999
0.999999 1 1 0.999999
1.00003 1 1.00004 0.999995
0.999999 1 1 0.999999
0.999997 1 1 0.999997
0.999995 1 1 0.999995
0.999995 1 1 0.999995
0.999996 1 1 0.999996
0.999997 1 1 0.999997
0.999997 1 1 0.999997
0.999997 1 1 0.999997
0.999996 1 1 0.999996
0.999996 1 1 0.999996
0.999997 1 1 0.999997
0.999995 1 1 0.999995
0.999994 1 1 0.999994
0.999995 1 1 0.999995
0.999996 1 1 0.999996
0.999993 1 1 0.999993
0.999993 1 1 0.999993
0.999996 1 1 0.999996
0.999995 1 1 0.999995
0.999994 1 1 0.999994
0.999966 0.999994 0.999972 1
0.994199 0.994626 0.999568 1
0.994094 0.994682 0.999409 0.999999
0.999996 1 1 0.999996
0.999995 1 1 0.999995
0.999992 1 1 0.999992
0.999993 1 1 0.999993
0.994386 0.99503 0.99935 1
0.994526 0.994532 1 0.999994
0.999982 1 1 0.999982
1.00015 1 1.00016 0.999988
0.996889 0.996905 0.999981 1
0.999939 0.999993 0.999945 1
0.999964 1 0.999962 1
0.999996 1 1 0.999996
0.999973 0.999993 0.999979 1
1.00001 1 1 1
0.999991 1 1 0.999991
0.999994 1 1 0.999994
1.00052 1 1.00053 0.999989
1.00144 1 1.00145 0.999981
0.994041 0.994058 1 0.999982
0.998655 0.998736 0.999918 1
0.999989 1 0.999987 1
0.999995 1 1 0.999995
1 1 1 1
0.999996 0.999996 1 1
1.00004 1 1.00005 0.999994
1.0029 1 1.00292 0.999986
0.997662 0.996481 1.0012 0.999982
0.997666 1.00001 0.99766 1
0.99999 0.999998 0.999992 1
0.999996 1 1 0.999996
0.999995 1 1 0.999995
0.999995 1 1 0.999995
0.999998 1 1 0.999998
0.999997 1 1 0.999997
0.999996 1 1 0.999996
0.999995 1 1 0.999995
0.999997 1 1 0.999997
0.999996 1 1 0.999996
0.999995 1 1 0.999995
0.999995 1 1 0.999995
0.999995 1 1 0.999995
0.999996 1 1 0.999996
0.999997 1 1 0.999997
0.999997 1 1 0.999997
0.999997 1 1 0.999997
0.999997 1 1 0.999997
0.999997 1 1 0.999997
0.999997 1 1 0.999997
0.999997 1 1 0.999997
0.999996 1 1 0.999996
0.999996 1 1 0.999996
0.999997 1 1 0.999997
0.999997 1 1 0.999997
0.999997 1 1 0.999997
0.999998 1 1 0.999998
0.999997 1 1 0.999997
0.999998 1 1 0.999998
0.999998 1 1 0.999998
0.999997 1 1 0.999997
0.999998 1 1 0.999998
1 1 1 1
0.999998 1 1 0.999998
1 1 1 1
1 1 1 1
1 1 1 1
1 1 1 1
1 1 1 1
1 1 1 1
1 1 1 1
1 1 1 1
1 1 1 1
1 1 1 1
1 1 1 1
1 1 1 1
1 1 1 1
1 1 1 1
1 1 1 1
1 1 1 1
1 1 1 1
1 1 1 1
1 1 1 1
1 1 1 1
1 1 1 1
1 1 1 1
1 1 1 1
0.999995 0.999995 1 1
0.994695 0.995153 0.999536 1
1.00001 1 1.00001 1
1 0.999997 1.00001 1
0.999998 1 1 0.999998
1.00004 1 1.00004 0.999996
0.994341 0.994365 0.999977 0.999999
0.994182 0.9943 0.99988 1
1.00002 0.999994 1.00003 1
0.999999 1 1 0.999995
0.994618 0.994591 1.00004 0.999989
0.995457 0.995535 0.999924 0.999997
0.999972 0.999993 0.999979 1
0.999993 1 1 0.99999
0.996126 0.995753 1.00039 0.999982
0.998736 0.998706 1.00003 1
0.999993 0.99999 1 1
0.999997 1 1 0.999997
0.999997 1 1 0.999997
0.999999 1 1 0.999999
0.999998 1 1 0.999998
0.999997 1 1 0.999997
0.999998 1 1 0.999998
0.999998 1 1 0.999998
0.999998 1 1 0.999998
0.999998 1 1 0.999998
0.999999 1 1 0.999999
0.999998 1 1 0.999998
0.999997 1 1 0.999997
0.999995 1 1 0.999995
0.999995 1 1 0.999995
0.999995 1 1 0.999995
0.999995 1 1 0.999995
0.999996 1 1 0.999996
0.999996 1 1 0.999996
0.999996 1 1 0.999996
0.999995 1 1 0.999995
0.999994 1 1 0.999994
0.999994 1 1 0.999994
0.999993 1 1 0.999993
0.999992 1 1 0.999992
0.999992 1 1 0.999992
0.999993 1 1 0.999993
0.999995 1 1 0.999995
0.999994 1 1 0.999994
1 1 1 1
0.999983 0.999994 0.999988 1
0.995426 0.996383 0.999034 1.00001
0.999996 1 1 0.999996
0.999994 1 1 0.999994
0.999991 1 1 0.999991
0.999997 0.999997 1 1
0.995872 0.995873 1.00002 0.999982
1.00137 1 1.00139 0.999983
1.00022 1 1.00024 0.999988
0.997399 0.997488 0.999915 0.999997
1 1 1 1
0.999993 1 0.99999 1
0.999995 1 1 0.999995
1.00001 1.00001 1 1
0.999997 0.999997 1 1
1.00014 1 1.00015 0.999993
1.0028 1 1.00282 0.999987
0.99878 0.99778 1.00102 0.999982
0.999994 0.999997 0.999997 1
0.997817 0.999517 0.998302 0.999998
0.999995 1 1 0.999995
0.999999 0.999999 1 1
1 1 1 1
0.999994 0.99999 1 1
1.00128 1 1.00129 0.999993
1.00379 0.998922 1.00488 0.999985
0.996119 1.00002 0.996102 1
0.999995 1 1 0.999995
0.999995 1 1 0.999995
0.999994 1 1 0.999994
0.999997 1 1 0.999997
0.999996 1 1 0.999996
0.999995 1 1 0.999995
0.999996 1 1 0.999996
0.999995 1 1 0.999995
0.999994 1 1 0.999994
0.999995 1 1 0.999995
0.999996 1 1 0.999996
0.999997 1 1 0.999997
0.999997 1 1 0.999997
0.999997 1 1 0.999997
0.999996 1 1 0.999996
0.999997 1 1 0.999997
0.999996 1 1 0.999996
0.999997 1 1 0.999997
0.999996 1 1 0.999996
0.999997 1 1 0.999997
0.999997 1 1 0.999997
0.999996 1 1 0.999996
0.999997 1 1 0.999997
0.999998 1 1 0.999998
0.999997 1 1 0.999997
0.999999 1 1 0.999999
0.999998 1 1 0.999998
0.999998 1 1 0.999998
0.999998 1 1 0.999998
0.999999 1 1 0.999999
1 1 1 1
0.999998 1 1 0.999998
1 1 1 1
1 1 1 1
1 1 1 1
1 1 1 1
1 1 1 1
1 1 1 1
1 1 1 1
1 1 1 1
1 1 1 1
1 1 1 1
1 1 1 1
0.999999 1 1 0.999999
1 1 1 1
1 1 1 1
1 1 1 1
1 1 1 1
1 1 1 1
1 1 1 1
1 1 1 1
1 1 1 1
1 1 1 1
1 1 1 1
1 1 1 1
0.999998 0.999998 1 1
0.999957 0.999995 0.999962 1
0.994245 0.994274 0.999968 1
0.999998 1 1 0.999998
1.00001 1.00001 0.999999 1
1.00001 1 1 1
0.999945 0.999996 0.999949 1
0.999994 1 1 0.999994
0.992922 0.992888 1.00005 0.999987
0.996883 0.996856 1.00002 1
0.999948 0.999992 0.999956 1
1.00004 1 1.00006 0.999987
0.994433 0.993962 1.00049 0.999981
0.997964 0.99836 0.999605 0.999998
0.999987 0.999996 0.999991 1
1.00037 1 1.00039 0.999983
0.997251 0.99717 1.0001 0.999977
0.99747 0.999977 0.997497 0.999996
0.99999 0.999999 0.999991 1
0.999996 1 1 0.999996
0.999996 1 1 0.999996
0.999998 1 1 0.999998
0.999997 1 1 0.999997
0.999997 1 1 0.999997
0.999998 1 1 0.999998
0.999998 1 1 0.999998
0.999999 1 1 0.999999
0.999996 1 1 0.999996
0.999994 1 1 0.999994
0.999996 1 1 0.999996
0.999993 1 1 0.999993
0.999994 1 1 0.999994
0.999995 1 1 0.999995
0.999995 1 1 0.999995
0.999992 1 1 0.999992
0.999994 1 1 0.999994
0.999993 1 1 0.999993
0.999997 1 1 0.999992
0.999995 1 1 0.999995
1.00076 1 1.00077 0.999989
0.999991 1 1 0.999991
0.999993 1 1 0.999993
0.999994 1 1 0.999994
1 1 1 1
1 1 1 1
0.999994 0.999994 1 1
0.999996 1 1 0.999996
1.00023 1 1.00024 0.999993
1.00001 1.00001 1 1
0.997898 0.996512 1.00141 0.999979
1.00256 1 1.00257 0.999985
0.997132 0.999956 0.997179 0.999997
0.999997 0.999997 1 1
0.999997 0.999995 1 1
0.999995 1 1 0.999995
1 1 1 1
1 1 1 1
1.00091 1 1.00092 0.999994
0.999987 0.999996 0.99999 1
1.00253 0.99939 1.00316 0.999985
0.995019 1.00001 0.995011 0.999996
0.999994 1 1 0.999994
1 1 1 1
1.00001 1.00001 0.999999 1
0.999958 1.00001 0.999953 1
0.997498 0.999954 0.997548 0.999996
1.0052 1 1.0052 0.999993
1.00674 0.999948 1.0068 0.999986
0.999995 1 1 0.999995
0.999994 1 1 0.999994
0.999994 1 1 0.999994
0.999996 1 1 0.999996
0.999995 1 1 0.999995
0.999994 1 1 0.999994
0.999996 1 1 0.999996
0.999995 1 1 0.999995
0.999994 1 1 0.999994
0.999996 1 1 0.999996
0.999997 1 1 0.999997
0.999996 1 1 0.999996
0.999995 1 1 0.999995
0.999997 1 1 0.999997
0.999996 1 1 0.999996
0.999995 1 1 0.999995
0.999996 1 1 0.999996
0.999997 1 1 0.999997
0.999996 1 1 0.999996
0.999997 1 1 0.999997
0.999998 1 1 0.999998
0.999997 1 1 0.999997
0.999999 1 1 0.999999
0.999998 1 1 0.999998
0.999997 1 1 0.999997
1 1 1 1
0.999999 1 1 0.999999
0.999998 1 1 0.999998
0.999999 1 1 0.999999
1 1 1 1
1 1 1 1
1 1 1 1
1 1 1 1
1 1 1 1
1 1 1 1
1 1 1 1
1 1 1 1
1 1 1 1
1 1 1 1
1 1 1 1
0.999999 1 1 0.999999
1 1 1 1
0.999999 1 1 0.999999
1 1 1 1
1 1 1 1
1 1 1 1
1 1 1 1
1 1 1 1
1 1 1 1
1 1 1 1
1 1 1 1
1 1 1 1
1 1 1 1
0.999998 0.999998 1 1
0.999968 0.999995 0.999973 1
0.999998 1 1 0.999998
0.999998 1 1 0.999998
0.999997 1 1 0.999997
1 1 1 1
1.00001 1.00001 1 1
1 1 1 1
0.999991 1 1 0.999989
0.996112 0.995357 1.00078 0.999984
0.997521 0.997637 0.999888 0.999996
0.999994 0.99999 1 1
1.00042 1 1.00044 0.999986
0.99903 0.997121 1.00193 0.999982
0.998128 1.00002 0.998108 1
0.999993 0.999997 0.999996 1
1.00273 1 1.00274 0.999986
0.999532 0.999545 1.00001 0.999981
0.995864 1.00002 0.995846 1
0.999996 0.999995 1 1
0.999996 1 1 0.999996
0.999996 1 1 0.999996
0.999996 1 1 0.999996
0.999997 1 1 0.999997
0.999997 1 1 0.999997
0.999998 1 1 0.999998
0.999992 1 1 0.999992
1.00001 1 1.00001 0.999992
0.999995 1 1 0.999995
0.999993 1 1 0.999993
0.999994 1 1 0.999994
0.999995 1 1 0.999995
0.999994 1 1 0.999994
1.00055 1 1.00056 0.999989
0.999993 1 1 0.999993
0.999998 1 1.00001 0.999991
0.999994 1 1 0.999994
1.0019 1 1.00191 0.999989
1.00001 1 1.00002 0.999991
0.999993 1 1 0.999993
0.999997 0.999997 1 1
1 1 1 1
0.999997 0.999997 1 1
0.999995 1 1 0.999995
1.00194 1 1.00195 0.999994
1 1 1 1
1.00234 0.999981 1.00237 0.999989
0.996115 1.00001 0.996107 1
1 1 1 1
0.999996 0.99999 1.00001 1
0.999994 1 1 0.999994
1 1 1 1
1.00001 1.00001 1 1
1.00618 1 1.00619 0.999991
0.999972 0.999992 0.99998 1
0.998018 1.00002 0.997998 1
1.00207 1 1.00208 0.999984
1.00005 1 1.00006 0.999994
1 1 1 1
1.00001 1 1.00001 1
0.999881 0.999997 0.999885 1
0.99868 0.998673 1.00001 1
1.00234 0.999497 1.00287 0.999982
1.01001 1 1.01003 0.999986
0.999994 1 1 0.999994
0.999995 1 1 0.999995
1.00001 1 1.00002 0.999993
0.999996 1 1 0.999996
0.999995 1 1 0.999995
0.999994 1 1 0.999994
0.999992 1 1 0.999992
0.999996 1 1 0.999996
0.999995 1 1 0.999995
0.999994 1 1 0.999994
0.999996 1 1 0.999996
0.999995 1 1 0.999995
0.999995 1 1 0.999995
0.999996 1 1 0.999996
0.999996 1 1 0.999996
0.999996 1 1 0.999996
0.999996 1 1 0.999996
0.999998 1 1 0.999998
0.999997 1 1 0.999997
0.999999 1 1 0.999999
0.999998 1 1 0.999998
0.999997 1 1 0.999997
1 1 1 1
0.999999 1 1 0.999999
0.999998 1 1 0.999998
1 1 1 1
1 1 1 1
0.999999 1 1 0.999999
1 1 1 1
1 1 1 1
1 1 1 1
1 1 1 1
1 1 1 1
1 1 1 1
1 1 1 1
1 1 1 1
1 1 1 1
1 1 1 1
1 1 1 1
1 1 1 1
1 1 1 1
1 1 1 1
0.999999 1 1 0.999999
1 1 1 1
1 1 1 1
1 1 1 1
1 1 1 1
1 1 1 1
1 1 1 1
1 1 1 1
1 1 1 1
0.999998 0.999998 1 1
0.999998 1 1 0.999998
0.999998 1 1 0.999998
0.999998 1 1 0.999998
0.999998 1 1 0.999998
0.999997 1 1 0.999997
0.999997 1 1 0.999997
0.999996 1 1 0.999996
0.999997 0.999996 1 1
1 1 1 1
1.00001 1.00001 1 1
0.999996 0.999995 1 1
1.00037 1 1.00038 0.999983
0.998986 0.997591 1.00141 0.999985
0.995984 0.999567 0.99642 0.999996
1.00183 1 1.00185 0.999984
1.00136 0.999499 1.00188 0.999984
0.9948 1.00001 0.994791 0.999996
0.999989 1 0.999984 1
1.00655 1 1.00656 0.999987
1.00463 1 1.00464 0.999985
0.997365 1.00001 0.997355 1
1 0.999999 1.00001 1
0.999995 1 1 0.999995
0.999996 1 1 0.999996
0.999996 1 1 0.999996
0.999997 1 1 0.999997
1.00033 1 1.00034 0.999989
1 1 1.00001 0.999991
0.999995 1 1 0.999995
0.999994 1 1 0.999994
0.999993 1 1 0.999993
0.999994 1 1 0.999994
0.999993 1 1 0.999993
1.00164 1 1.00165 0.999989
1.00002 1 1.00003 0.999991
0.999993 1 1 0.999993
1.00272 1 1.00273 0.999989
0.999991 1 1 0.999991
1 1 1 1
0.999999 0.999999 1 1
0.999999 0.999999 1 1
0.999994 1 1 0.999994
1.00513 1 1.00514 0.999994
0.999999 0.999999 1 1
1.00688 0.999992 1.0069 0.999986
0.995726 0.999518 0.99621 0.999996
1.00001 1.00001 1 1
0.999947 0.999992 0.999955 1
1.00003 1 1.00003 0.999995
1 1 1 1
1.00001 1 1 1
1.01209 1 1.01211 0.999986
0.999958 0.999995 0.999963 1
0.997784 0.998328 0.999456 0.999998
1.00286 0.999467 1.00341 0.999985
1.00135 1 1.00136 0.999989
0.999998 0.999998 1 1
1.00001 0.999997 1.00001 1
0.996738 0.996825 0.99991 1
0.998124 0.997087 1.00106 0.99998
1.00902 1 1.00904 0.999981
0.999995 1 1 0.999995
1 1 1.00001 0.999993
1.00024 1 1.00025 0.99999
0.999994 1 1 0.999994
0.999993 1 1 0.999993
0.999992 1 1 0.999992
0.999995 1 1 0.999995
0.999994 1 1 0.999994
0.999994 1 1 0.999994
0.999995 1 1 0.999995
0.999995 1 1 0.999995
0.999996 1 1 0.999996
0.999996 1 1 0.999996
0.999996 1 1 0.999996
0.999996 1 1 0.999996
0.999997 1 1 0.999997
0.999996 1 1 0.999996
0.999996 1 1 0.999996
0.999998 1 1 0.999998
0.999998 1 1 0.999998
0.999997 1 1 0.999997
1 1 1 1
0.999999 1 1 0.999999
0.999998 1 1 0.999998
1 1 1 1
1 1 1 1
0.999999 1 1 0.999999
1 1 1 1
1 1 1 1
1 1 1 1
1 1 1 1
1 1 1 1
1 1 1 1
1 1 1 1
1 1 1 1
1 1 1 1
0.999999 1 1 0.999999
1 1 1 1
1 1 1 1
1 1 1 1
1 1 1 1
1 1 1 1
1 1 1 1
1 1 1 1
1 1 1 1
1 1 1 1
1 1 1 1
1 1 1 1
1 1 1 1
0.999999 0.999999 1 1
1 1 1 1
1 1 1 1
0.999998 1 1 0.999998
0.999998 1 1 0.999998
0.999998 1 1 0.999998
0.999997 1 1 0.999997
0.999997 1 1 0.999997
0.999998 1 1 0.999998
0.999997 1 1 0.999997
0.999997 1 1 0.999997
0.999996 1 1 0.999996
0.999996 1 1 0.999996
1.00001 1 1 1
0.999997 0.999997 1 1
1 1 1 1
0.999993 1 0.999989 1
0.995862 1.00001 0.995853 1
1.00175 1 1.00177 0.999983
1.00223 0.999514 1.00273 0.999982
1.00683 1 1.00684 0.999985
0.999309 1 0.999327 0.999982
0.997851 0.999696 0.998156 0.999998
1 0.999998 1.00001 1
1.00981 1 1.00982 0.999985
1.00234 0.99887 1.00349 0.999983
0.996961 0.997587 0.999376 0.999996
0.999901 0.999996 0.999905 1
0.999995 1 1 0.999995
0.999995 1 1 0.999995
0.999996 1 1 0.999996
1.00139 1 1.0014 0.999989
1.00003 1 1.00004 0.999991
0.999994 1 1 0.999994
0.999993 1 1 0.999993
0.999994 1 1 0.999994
0.999991 1 1 0.999991
1.00276 1 1.00277 0.999989
0.999993 1 1 0.999993
1.00091 1 1.00092 0.99999
1 1 1 1
1 1 1 1
1 1 1 1
0.999995 1 1 0.999995
1.01232 1 1.01233 0.999984
1 1 1 1
1.00275 0.999461 1.00331 0.999981
0.997469 0.997593 0.999879 0.999996
1 1 1 1
1.00003 0.999994 1.00003 1
1.0014 1 1.00141 0.999989
0.999998 0.999998 1 1
1 0.999997 1.00001 1
1.00983 1 1.00984 0.999982
0.995414 0.995508 0.999908 0.999998
0.998849 0.997022 1.00185 0.99998
1.00226 1 1.00228 0.999987
0.999995 0.999995 1 1
0.994694 0.994821 0.999872 1
0.996231 0.995701 1.00055 0.999982
1.00307 1 1.00309 0.999983
0.999993 1 1 0.999993
1.0003 1 1.00031 0.99999
1.00013 1 1.00013 0.999991
0.999993 1 1 0.999993
0.999992 1 1 0.999992
0.999994 1 1 0.999994
0.999994 1 1 0.999994
0.999994 1 1 0.999994
0.999996 1 1 0.999996
0.999995 1 1 0.999995
0.999996 1 1 0.999996
0.999997 1 1 0.999997
0.999997 1 1 0.999997
0.999996 1 1 0.999996
0.999996 1 1 0.999996
0.999997 1 1 0.999997
0.999996 1 1 0.999996
0.999996 1 1 0.999996
0.999998 1 1 0.999998
0.999997 1 1 0.999997
0.999997 1 1 0.999997
1 1 1 1
0.999998 1 1 0.999998
0.999997 1 1 0.999997
1 1 1 1
1 1 1 1
0.999999 1 1 0.999999
1 1 1 1
1 1 1 1
1 1 1 1
1 1 1 1
1 1 1 1
1 1 1 1
1 1 1 1
1 1 1 1
1 1 1 1
0.999999 1 1 0.999999
1 1 1 1
0.999999 1 1 0.999999
1 1 1 1
1 1 1 1
1 1 1 1
1 1 1 1
1 1 1 1
1 1 1 1
1 1 1 1
1 1 1 1
1 1 1 1
1 1 1 1
1 1 1 1
1.00001 1.00001 1 1
1 1 1 1
0.999999 0.999999 1 1
0.999998 1 1 0.999998
0.999998 1 1 0.999998
0.999998 1 1 0.999998
0.999997 1 1 0.999997
0.999998 1 1 0.999998
0.999997 1 1 0.999997
0.999997 1 1 0.999997
0.999997 1 1 0.999997
0.999997 1 1 0.999997
0.999997 1 1 0.999997
0.999996 1 1 0.999996
0.999996 1 1 0.999996
0.999938 0.999991 0.999947 1
1.00001 1 1 1
0.999997 0.999997 1 1
0.999964 1.00001 0.999958 1
0.997038 1.00001 0.997033 0.999996
1.00464 1 1.00466 0.999985
1.00685 1 1.00687 0.999987
1.012 1 1.01202 0.999986
0.999969 0.999995 0.999973 1
0.999554 0.999453 1.00012 0.999983
0.998687 0.998768 0.999918 1
1.00494 1 1.00495 0.999989
0.99799 0.996453 1.00156 0.999982
0.996704 0.996805 0.999897 1
0.999995 1 1 0.999995
0.999995 1 1 0.999995
0.999995 1 1 0.999995
1.0028 1 1.00281 0.999989
0.999991 1 1 0.999991
0.999994 1 1 0.999994
0.999993 1 1 0.999993
1.00091 1 1.00091 0.99999
0.999992 1 1 0.999992
0.999957 0.999987 0.999969 1
1 1 1 1
0.999999 0.999999 1 1
1.00146 1 1.00147 0.99999
1.00877 1 1.00879 0.999982
0.999998 0.999998 1 1
1.00057 0.997528 1.00307 0.999985
0.996831 0.996833 0.999996 1
0.999943 0.999996 0.999946 1
1.0025 1 1.00251 0.999987
0.999954 0.999995 0.999959 1
0.996066 0.996121 0.999941 1
1.0033 1 1.00332 0.999981
0.994473 0.993888 1.00061 0.999981
1.00069 1 1.0007 0.999988
0.995651 0.996347 0.999297 1.00001
0.992871 0.992866 1.00001 0.99999
1.00066 1 1.00068 0.999982
1.00036 1 1.00037 0.99999
1.00015 1 1.00016 0.99999
0.999993 1 1 0.999993
0.999992 1 1 0.999992
0.999994 1 1 0.999994
0.999997 1 1 0.999997
0.999995 1 1 0.999995
0.999996 1 1 0.999996
0.999998 1 1 0.999998
0.999996 1 1 0.999996
0.999997 1 1 0.999997
0.999998 1 1 0.999998
0.999997 1 1 0.999997
0.999996 1 1 0.999996
0.999997 1 1 0.999997
0.999996 1 1 0.999996
0.999996 1 1 0.999996
0.999996 1 1 0.999996
0.999998 1 1 0.999998
0.999997 1 1 0.999997
0.999996 1 1 0.999996
1 1 1 1
0.999998 1 1 0.999998
0.999997 1 1 0.999997
1 1 1 1
1 1 1 1
0.999998 1 1 0.999998
1 1 1 1
1 1 1 1
1 1 1 1
1 1 1 1
1 1 1 1
1 1 1 1
1 1 1 1
1 1 1 1
1 1 1 1
0.999999 1 1 0.999999
0.999999 1 1 0.999999
1 1 1 1
1 1 1 1
1 1 1 1
0.999999 1 1 0.999999
1 1 1 1
1 1 1 1
1 1 1 1
1 1 1 1
1 1 1 1
1 1 1 1
1 1 1 1
1 1 1 1
1 1 1 1
0.999989 0.999988 1 1
1.00001 1.00001 1 1
1 1 1 1
0.999998 1 1 0.999998
0.999998 1 1 0.999998
0.999997 1 1 0.999997
0.999998 1 1 0.999998
0.999998 1 1 0.999998
0.999997 1 1 0.999997
0.999997 1 1 0.999997
0.999997 1 1 0.999997
0.999997 1 1 0.999997
0.999996 1 1 0.999996
0.999996 1 1 0.999996
0.999996 1 1 0.999996
0.995965 0.996018 0.999943 1
0.999966 0.999992 0.999973 1
1 1 1 1
1.00003 0.999995 1.00003 1
0.997482 0.997572 0.999913 0.999997
1.00028 1 1.00029 0.999986
1.01052 1 1.01054 0.999985
1.00565 1 1.00567 0.999986
0.995241 0.995344 0.999898 0.999998
0.999272 0.997793 1.0015 0.999985
1.00129 1 1.0013 0.999986
0.996141 0.994964 1.0012 0.999987
0.999995 1 1 0.999995
0.999995 1 1 0.999995
0.999995 1 1 0.999995
1.0009 1 1.00091 0.99999
0.999993 1 1 0.999993
1 1 1.00001 0.999992
0.999992 1 1 0.999992
0.995377 0.996469 0.998899 1.00001
0.999978 0.999991 0.999987 1
1 1 1 1
1.00272 1 1.00274 0.999986
1.00303 1 1.00305 0.999983
0.999965 0.999995 0.99997 1
0.995973 0.995349 1.00064 0.999984
0.994167 0.994295 0.99987 1
1.00065 1 1.00066 0.999987
0.99467 0.995185 0.999479 1
0.994625 0.994608 1.00003 0.999989
1.00076 1 1.00077 0.999984
0.99999 1 1 0.99999
0.992401 0.992474 0.999933 0.999994
0.999992 1 1 0.99999
1.00018 1 1.00019 0.99999
0.999993 1 1 0.999993
0.999997 1 1 0.999997
0.999994 1 1 0.999994
0.999997 1 1 0.999997
0.999999 1 1 0.999999
0.999996 1 1 0.999996
0.999998 1 1 0.999998
0.999998 1 1 0.999998
0.999997 1 1 0.999997
0.999998 1 1 0.999998
0.999997 1 1 0.999997
0.999997 1 1 0.999997
0.999997 1 1 0.999997
0.999997 1 1 0.999997
0.999997 1 1 0.999997
0.999996 1 1 0.999996
0.999997 1 1 0.999997
0.999997 1 1 0.999997
0.999997 1 1 0.999997
0.999996 1 1 0.999996
0.999999 1 1 0.999999
0.999998 1 1 0.999998
0.999997 1 1 0.999997
1 1 1 1
1 1 1 1
0.999998 1 1 0.999998
1 1 1 1
1 1 1 1
1 1 1 1
1 1 1 1
1 1 1 1
1 1 1 1
1 1 1 1
1 1 1 1
1 1 1 1
0.999999 1 1 0.999999
0.999999 1 1 0.999999
1 1 1 1
0.999999 1 1 0.999999
1 1 1 1
1 1 1 1
1 1 1 1
1 1 1 1
1 1 1 1
1 1 1 1
1 1 1 1
1 1 1 1
1 1 1 1
1 1 1 1
1 1 1 1
0.994327 0.994351 0.999973 1
0.999964 0.999989 0.999974 1
1.00001 1.00001 1 1
0.999998 1 1 0.999998
0.999997 1 1 0.999997
0.999998 1 1 0.999998
0.999997 1 1 0.999997
0.999997 1 1 0.999997
0.999997 1 1 0.999997
0.999997 1 1 0.999997
0.999996 1 1 0.999996
0.999997 1 1 0.999997
0.999996 1 1 0.999996
0.999995 1 1 0.999995
0.999996 1 1 0.999996
0.999996 1 1 0.999996
0.993283 0.993255 1.00004 0.999989
0.99532 0.995369 0.999948 1
0.999937 0.999993 0.999944 1
0.996835 0.996809 1.00002 1
0.998217 0.996482 1.00176 0.999978
1.00494 1 1.00495 0.999989
1.00168 1 1.00169 0.999987
0.994496 0.99369 1.00083 0.999985
1.00063 1 1.00064 0.999987
0.999993 1 1 0.999993
0.999995 1 1 0.999995
0.999996 1 1 0.999996
1.00001 1 1.00002 0.999992
0.999993 1 1 0.999993
0.993912 0.994527 0.999383 0.999999
0.994194 0.994711 0.999477 1
0.999994 0.999994 1 1
1.00061 1 1.00063 0.999987
1.00083 1 1.00084 0.999982
0.994299 0.994332 0.999964 1
0.992927 0.992916 1.00002 0.999987
0.99999 1 1 0.99999
0.993496 0.99386 0.999638 0.999996
1.00004 1 1.00006 0.999987
0.999995 1 1 0.999995
0.999995 1 1 0.999994
0.999993 1 1 0.999993
0.999997 1 1 0.999997
0.999999 1 1 0.999999
0.999997 1 1 0.999997
0.999999 1 1 0.999999
0.999998 1 1 0.999998
0.999998 1 1 0.999998
0.999998 1 1 0.999998
0.999997 1 1 0.999997
0.999998 1 1 0.999998
0.999997 1 1 0.999997
0.999997 1 1 0.999997
0.999997 1 1 0.999997
0.999996 1 1 0.999996
0.999997 1 1 0.999997
0.999997 1 1 0.999997
0.999997 1 1 0.999997
0.999997 1 1 0.999997
0.999997 1 1 0.999997
0.999996 1 1 0.999996
0.999999 1 1 0.999999
0.999997 1 1 0.999997
0.999997 1 1 0.999997
1 1 1 1
0.999999 1 1 0.999999
0.999998 1 1 0.999998
1 1 1 1
1 1 1 1
1 1 1 1
1 1 1 1
1 1 1 1
1 1 1 1
1 1 1 1
1 1 1 1
1 1 1 1
0.999998 1 1 0.999998
0.999999 1 1 0.999999
1 1 1 1
0.999999 1 1 0.999999
1 1 1 1
1 1 1 1
1 1 1 1
1 1 1 1
1 1 1 1
1 1 1 1
1 1 1 1
1 1 1 1
1 1 1 1
1 1 1 1
1 1 1 1
0.993403 0.993466 0.99994 0.999996
0.995902 0.996416 0.999479 1.00001
0.999991 0.99999 1 1
0.999997 1 1 0.999997
0.999998 1 1 0.999998
0.999997 1 1 0.999997
0.999997 1 1 0.999997
0.999997 1 1 0.999997
0.999997 1 1 0.999997
0.999996 1 1 0.999996
0.999997 1 1 0.999997
0.999996 1 1 0.999996
0.999996 1 1 0.999996
0.999996 1 1 0.999996
0.999994 1 1 0.999994
0.999995 1 1 0.999995
0.999996 1 1 0.999996
1.00002 1 1.00003 0.999994
0.993514 0.993513 1.00001 0.999993
0.994126 0.994258 0.999865 1
0.996444 0.995661 1.0008 0.999984
1.00228 1 1.00229 0.999989
1.00065 1 1.00066 0.99999
0.999992 1 1 0.999992
0.999993 1 1 0.999993
0.999995 1 1 0.999995
0.999993 1 1 0.999993
1.00002 1 1.00002 0.999997
0.99312 0.993403 0.999718 0.999997
0.995403 0.996469 0.998925 1.00001
0.99999 1 1 0.99999
0.99999 1 1 0.999988
0.994357 0.994426 0.999932 0.999999
0.999995 1 1 0.999995
1 1 1.00001 0.999995
0.999997 1 1 0.999997
0.999997 1 1 0.999996
0.999997 1 1 0.999997
0.999999 1 1 0.999999
0.999997 1 1 0.999997
0.999999 1 1 0.999999
0.999998 1 1 0.999998
0.999997 1 1 0.999997
0.999998 1 1 0.999998
0.999997 1 1 0.999997
0.999996 1 1 0.999996
0.999997 1 1 0.999997
0.999997 1 1 0.999997
0.999996 1 1 0.999996
0.999997 1 1 0.999997
0.999996 1 1 0.999996
0.999996 1 1 0.999996
0.999997 1 1 0.999997
0.999997 1 1 0.999997
0.999997 1 1 0.999997
0.999998 1 1 0.999998
0.999997 1 1 0.999997
0.999997 1 1 0.999997
1 1 1 1
0.999999 1 1 0.999999
0.999997 1 1 0.999997
1 1 1 1
1 1 1 1
0.999999 1 1 0.999999
1 1 1 1
1 1 1 1
1 1 1 1
1 1 1 1
1 1 1 1
1 1 1 1
0.999998 1 1 0.999998
0.999998 1 1 0.999998
0.999999 1 1 0.999999
0.999999 1 1 0.999999
1 1 1 1
1 1 1 1
1 1 1 1
1 1 1 1
1 1 1 1
1 1 1 1
1 1 1 1
1 1 1 1
1 1 1 1
1 1 1 1
1 1 1 1
0.999998 1 1 0.999998
0.994387 0.994732 0.999656 0.999997
0.994529 0.995238 0.999286 1
0.999997 1 1 0.999997
0.999997 1 1 0.999997
0.999998 1 1 0.999998
0.999997 1 1 0.999997
0.999997 1 1 0.999997
0.999997 1 1 0.999997
0.999996 1 1 0.999996
0.999996 1 1 0.999996
0.999996 1 1 0.999996
0.999996 1 1 0.999996
0.999995 1 1 0.999995
0.999992 1 1 0.999992
0.999994 1 1 0.999994
0.999995 1 1 0.999995
0.999995 1 1 0.999995
1.00008 1 1.00009 0.999992
0.994168 0.994172 1 0.999996
1.00046 1 1.00047 0.999988
0.999991 1 1 0.999991
0.999993 1 1 0.999993
1.00002 1 1.00002 1
1.00001 1 1.00001 0.999998
0.994064 0.994707 0.999355 0.999999
0.999995 1 1 0.999995
1 1 1.00001 0.999994
0.999997 1 1 0.999997
1 1 1.00001 0.999996
0.999996 1 1 0.999996
0.999997 1 1 0.999997
0.999999 1 1 0.999999
0.999997 1 1 0.999997
0.999996 1 1 0.999996
0.999998 1 1 0.999998
0.999997 1 1 0.999997
0.999996 1 1 0.999996
0.999997 1 1 0.999997
0.999996 1 1 0.999996
0.999995 1 1 0.999995
0.999997 1 1 0.999997
0.999996 1 1 0.999996
0.999996 1 1 0.999996
0.999996 1 1 0.999996
0.999996 1 1 0.999996
0.999997 1 1 0.999997
0.999997 1 1 0.999997
0.999997 1 1 0.999997
0.999998 1 1 0.999998
1 1 1 1
0.999998 1 1 0.999998
0.999997 1 1 0.999997
1 1 1 1
1 1 1 1
0.999999 1 1 0.999999
1 1 1 1
1 1 1 1
1 1 1 1
1 1 1 1
1 1 1 1
1 1 1 1
0.999998 1 1 0.999998
0.999998 1 1 0.999998
0.999999 1 1 0.999999
0.999998 1 1 0.999998
0.999999 1 1 0.999999
1 1 1 1
1 1 1 1
1 1 1 1
1 1 1 1
1 1 1 1
1 1 1 1
1 1 1 1
1 1 1 1
1 1 1 1
1 1 1 1
0.999999 1 1 0.999999
0.999996 1 1 0.999996
0.993349 0.993411 0.99994 0.999997
0.999996 1 1 0.999996
0.999996 1 1 0.999996
0.999997 1 1 0.999997
0.999997 1 1 0.999997
0.999997 1 1 0.999997
0.999996 1 1 0.999996
0.999995 1 1 0.999995
0.999996 1 1 0.999996
0.999996 1 1 0.999996
0.999995 1 1 0.999995
0.999993 1 1 0.999993
0.999996 1 1 0.999996
0.999993 1 1 0.999993
0.999994 1 1 0.999994
0.999995 1 1 0.999995
1.00002 1 1.00003 0.999993
0.999991 1 1 0.999991
1 1 1 1
1.00001 1 1.00001 1
0.999998 1 1 0.999997
0.999997 1 1 0.999997
1.00001 1 1.00001 0.999996
0.999996 1 1 0.999996
0.999997 1 1 0.999997
0.999996 1 1 0.999996
0.999999 1 1 0.999999
0.999997 1 1 0.999997
0.999996 1 1 0.999996
0.999995 1 1 0.999995
0.999997 1 1 0.999997
0.999996 1 1 0.999996
0.999996 1 1 0.999996
0.999996 1 1 0.999996
0.999995 1 1 0.999995
0.999996 1 1 0.999996
0.999996 1 1 0.999996
0.999996 1 1 0.999996
0.999996 1 1 0.999996
0.999996 1 1 0.999996
0.999997 1 1 0.999997
0.999998 1 1 0.999998
0.999997 1 1 0.999997
0.999998 1 1 0.999998
1 1 1 1
1 1 1 1
1 1 1 1
0.999999 1 1 0.999999
1 1 1 1
1 1 1 1
1 1 1 1
1 1 1 1
1 1 1 1
1 1 1 1
0.999997 1 1 0.999997
0.999998 1 1 0.999998
0.999999 1 1 0.999999
0.999998 1 1 0.999998
0.999999 1 1 0.999999
1 1 1 1
1 1 1 1
1 1 1 1
1 1 1 1
1 1 1 1
1 1 1 1
1 1 1 1
1 1 1 1
1 1 1 1
1 1 1 1
0.999999 1 1 0.999999
0.999999 1 1 0.999999
0.999999 1 1 0.999999
0.999996 1 1 0.999996
0.999997 1 1 0.999997
0.999996 1 1 0.999996
0.999996 1 1 0.999996
0.999997 1 1 0.999997
0.999994 1 1 0.999994
0.999996 1 1 0.999996
0.999995 1 1 0.999995
0.999995 1 1 0.999995
0.999995 1 1 0.999995
0.999993 1 1 0.999993
0.999996 1 1 0.999996
0.999993 1 1 0.999993
0.999995 1 1 0.999995
1 1 1 1
1 1 1 1
1 1 1 0.999999
0.999996 1 1 0.999996
0.999998 1 1 0.999998
0.999996 1 1 0.999996
0.999999 1 1 0.999999
0.999998 1 1 0.999998
0.999996 1 1 0.999996
0.999996 1 1 0.999996
0.999996 1 1 0.999996
0.999996 1 1 0.999996
0.999995 1 1 0.999995
0.999996 1 1 0.999996
0.999995 1 1 0.999995
0.999996 1 1 0.999996
0.999996 1 1 0.999996
0.999996 1 1 0.999996
0.999996 1 1 0.999996
0.999997 1 1 0.999997
0.999997 1 1 0.999997
0.999998 1 1 0.999998
1 1 1 1
0.999998 1 1 0.999998
1 1 1 1
1 1 1 1
1 1 1 1
1 1 1 1
1 1 1 1
1 1 1 1
1 1 1 1
1 1 1 1
0.999996 1 1 0.999996
0.999997 1 1 0.999997
0.999997 1 1 0.999997
0.999999 1 1 0.999999
0.999997 1 1 0.999997
0.999999 1 1 0.999999
1 1 1 1
0.999999 1 1 0.999999
1 1 1 1
1 1 1 1
1 1 1 1
1 1 1 1
1 1 1 1
1 1 1 1
1 1 1 1
1 1 1 1
0.999999 1 1 0.999999
0.999999 1 1 0.999999
0.999999 1 1 0.999999
0.999995 1 1 0.999995
0.999996 1 1 0.999996
0.999997 1 1 0.999997
0.999996 1 1 0.999996
0.999996 1 1 0.999996
0.999995 1 1 0.999995
0.999994 1 1 0.999994
0.999995 1 1 0.999995
0.999995 1 1 0.999995
0.999993 1 1 0.999993
0.999996 1 1 0.999996
1 1 1 1
1 1 1 1
1 1 1 1
0.999995 1 1 0.999995
1 1 1 1
0.999998 1 1 0.999998
0.999999 1 1 0.999999
0.999996 1 1 0.999996
0.999996 1 1 0.999996
0.999997 1 1 0.999997
0.999995 1 1 0.999995
0.999996 1 1 0.999996
0.999996 1 1 0.999996
0.999996 1 1 0.999996
0.999996 1 1 0.999996
0.999997 1 1 0.999997
0.999996 1 1 0.999996
0.999997 1 1 0.999997
0.999999 1 1 0.999999
0.999998 1 1 0.999998
1 1 1 1
1 1 1 1
1 1 1 1
1 1 1 1
1 1 1 1
1 1 1 1
1 1 1 1
1 1 1 1
0.999995 1 1 0.999995
0.999996 1 1 0.999996
0.999996 1 1 0.999996
0.999998 1 1 0.999998
0.999997 1 1 0.999997
0.999997 1 1 0.999997
0.999999 1 1 0.999999
1 1 1 1
0.999999 1 1 0.999999
1 1 1 1
1 1 1 1
1 1 1 1
1 1 1 1
1 1 1 1
1 1 1 1
1 1 1 1
1 1 1 1
0.999998 1 1 0.999998
0.999999 1 1 0.999999
0.999999 1 1 0.999999
0.999995 1 1 0.999995
0.999995 1 1 0.999995
0.999996 1 1 0.999996
0.999996 1 1 0.999996
0.999995 1 1 0.999995
0.999994 1 1 0.999994
0.999995 1 1 0.999995
1 1 1 1
1 1 1 1
1 1 1 1
0.999999 1 1 0.999999
0.999998 1 1 0.999998
0.999998 1 1 0.999998
0.999998 1 1 0.999998
0.999996 1 1 0.999996
0.999997 1 1 0.999997
0.999997 1 1 0.999997
0.999996 1 1 0.999996
0.999996 1 1 0.999996
0.999997 1 1 0.999997
0.999996 1 1 0.999996
0.999997 1 1 0.999997
0.999999 1 1 0.999999
0.999997 1 1 0.999997
0.999999 1 1 0.999999
1 1 1 1
1 1 1 1
1 1 1 1
1 1 1 1
1 1 1 1
1 1 1 1
1 1 1 1
0.999995 1 1 0.999995
0.999995 1 1 0.999995
0.999995 1 1 0.999995
0.999998 1 1 0.999998
0.999996 1 1 0.999996
0.999996 1 1 0.999996
1 1 1 1
0.999998 1 1 0.999998
0.999997 1 1 0.999997
0.999999 1 1 0.999999
1 1 1 1
1 1 1 1
1 1 1 1
1 1 1 1
1 1 1 1
1 1 1 1
1 1 1 1
1 1 1 1
0.999998 1 1 0.999998
0.999998 1 1 0.999998
0.999999 1 1 0.999999
0.999995 1 1 0.999995
0.999995 1 1 0.999995
0.999995 1 1 0.999995
0.999999 1 1 0.999999
1 1 1 1
1 1 1 1
0.999999 1 1 0.999999
0.999999 1 1 0.999999
0.999998 1 1 0.999998
0.999998 1 1 0.999998
0.999998 1 1 0.999998
0.999997 1 1 0.999997
0.999997 1 1 0.999997
0.999997 1 1 0.999997
0.999996 1 1 0.999996
0.999997 1 1 0.999997
0.999998 1 1 0.999998
0.999997 1 1 0.999997
0.999999 1 1 0.999999
1 1 1 1
0.999999 1 1 0.999999
1 1 1 1
1 1 1 1
1 1 1 1
1 1 1 1
1 1 1 1
0.999997 1 1 0.999997
0.999995 1 1 0.999995
0.999995 1 1 0.999995
0.999997 1 1 0.999997
0.999996 1 1 0.999996
0.999995 1 1 0.999995
1 1 1 1
0.999998 1 1 0.999998
0.999996 1 1 0.999996
1 1 1 1
1 1 1 1
0.999998 1 1 0.999998
1 1 1 1
1 1 1 1
1 1 1 1
1 1 1 1
1 1 1 1
1 1 1 1
0.999997 1 1 0.999997
0.999997 1 1 0.999997
0.999998 1 1 0.999998
0.999995 1 1 0.999995
0.999999 1 1 0.999999
0.999999 1 1 0.999999
1 1 1 1
0.999999 1 1 0.999999
0.999999 1 1 0.999999
0.999999 1 1 0.999999
0.999998 1 1 0.999998
0.999998 1 1 0.999998
0.999998 1 1 0.999998
0.999997 1 1 0.999997
0.999997 1 1 0.999997
0.999999 1 1 0.999999
0.999997 1 1 0.999997
0.999998 1 1 0.999998
1 1 1 1
0.999999 1 1 0.999999
1 1 1 1
1 1 1 1
1 1 1 1
1 1 1 1
1 1 1 1
0.999997 1 1 0.999997
0.999997 1 1 0.999997
0.999997 1 1 0.999997
0.999996 1 1 0.999996
0.999995 1 1 0.999995
0.999995 1 1 0.999995
0.999999 1 1 0.999999
0.999997 1 1 0.999997
0.999996 1 1 0.999996
1 1 1 1
0.999999 1 1 0.999999
0.999997 1 1 0.999997
1 1 1 1
1 1 1 1
1 1 1 1
1 1 1 1
1 1 1 1
1 1 1 1
0.999997 1 1 0.999997
0.999997 1 1 0.999997
0.999997 1 1 0.999997
0.999999 1 1 0.999999
0.999999 1 1 0.999999
0.999999 1 1 0.999999
0.999999 1 1 0.999999
0.999999 1 1 0.999999
0.999999 1 1 0.999999
0.999998 1 1 0.999998
0.999998 1 1 0.999998
0.999999 1 1 0.999999
0.999997 1 1 0.999997
0.999999 1 1 0.999999
1 1 1 1
0.999998 1 1 0.999998
1 1 1 1
1 1 1 1
1 1 1 1
1 1 1 1
1 1 1 1
0.999997 1 1 0.999997
0.999997 1 1 0.999997
0.999997 1 1 0.999997
0.999997 1 1 0.999997
0.999997 1 1 0.999997
0.999997 1 1 0.999997
0.999998 1 1 0.999998
0.999996 1 1 0.999996
0.999996 1 1 0.999996
1 1 1 1
0.999999 1 1 0.999999
0.999997 1 1 0.999997
1 1 1 1
1 1 1 1
0.999999 1 1 0.999999
1 1 1 1
1 1 1 1
1 1 1 1
0.999998 1 1 0.999998
0.999997 1 1 0.999997
0.999998 1 1 0.999998
1 1 1 1
0.999999 1 1 0.999999
0.999999 1 1 0.999999
0.999999 1 1 0.999999
0.999999 1 1 0.999999
1 1 1 1
0.999998 1 1 0.999998
0.999999 1 1 0.999999
1 1 1 1
0.999999 1 1 0.999999
1 1 1 1
1 1 1 1
1 1 1 1
1 1 1 1
1 1 1 1
0.999998 1 1 0.999998
0.999997 1 1 0.999997
0.999998 1 1 0.999998
0.999997 1 1 0.999997
0.999997 1 1 0.999997
0.999998 1 1 0.999998
0.999997 1 1 0.999997
0.999997 1 1 0.999997
1 1 1 1
0.999998 1 1 0.999998
0.999996 1 1 0.999996
1 1 1 1
1 1 1 1
0.999998 1 1 0.999998
1 1 1 1
1 1 1 1
1 1 1 1
0.999999 1 1 0.999999
0.999998 1 1 0.999998
0.999997 1 1 0.999997
1 1 1 1
1 1 1 1
0.999999 1 1 0.999999
0.999999 1 1 0.999999
1 1 1 1
1 1 1 1
0.999999 1 1 0.999999
1 1 1 1
1 1 1 1
1 1 1 1
1 1 1 1
1 1 1 1
0.999998 1 1 0.999998
0.999997 1 1 0.999997
0.999996 1 1 0.999996
0.999999 1 1 0.999999
0.999998 1 1 0.999998
0.999997 1 1 0.999997
1 1 1 1
0.999998 1 1 0.999998
0.999997 1 1 0.999997
1 1 1 1
1 1 1 1
0.999998 1 1 0.999998
1 1 1 1
1 1 1 1
1 1 1 1
1 1 1 1
0.999999 1 1 0.999999
0.999998 1 1 0.999998
1 1 1 1
1 1 1 1
1 1 1 1
1 1 1 1
1 1 1 1
1 1 1 1
1 1 1 1
1 1 1 1
1 1 1 1
1 1 1 1
0.999998 1 1 0.999998
0.999997 1 1 0.999997
1 1 1 1
0.999999 1 1 0.999999
0.999998 1 1 0.999998
1 1 1 1
1 1 1 1
0.999998 1 1 0.999998
1 1 1 1
1 1 1 1
1 1 1 1
1 1 1 1
1 1 1 1
0.999999 1 1 0.999999
1 1 1 1
1 1 1 1
1 1 1 1
1 1 1 1
1 1 1 1
1 1 1 1
1 1 1 1
1 1 1 1
0.999998 1 1 0.999998
1 1 1 1
1 1 1 1
0.999999 1 1 0.999999
1 1 1 1
1 1 1 1
1 1 1 1
1 1 1 1
1 1 1 1
1 1 1 1
1 1 1 1
1 1 1 1
1 1 1 1
1 1 1 1
1 1 1 1
0.999999 1 1 0.999999
1 1 1 1
1 1 1 1
1 1 1 1
1 1 1 1
1 1 1 1
1 1 1 1
1 1 1 1
1 1 1 1
1 1 1 1
1 1 1 1
1 1 1 1

VECTORS lamdaE float
0.999397 0.997409 0.998437
0.999521 0.996815 0.999431
0.999402 0.997364 0.998451
0.99896 0.998762 0.998059
0.999279 0.997792 0.998322
0.999486 0.997098 0.99854
0.999589 0.998197 0.997203
0.999532 0.996836 0.99944
0.999293 0.997687 0.999282
0.999474 0.997031 0.999405
0.99959 0.996586 0.998743
0.999664 0.997639 0.997442
0.998241 1.00026 0.997936
0.998745 0.999212 0.997995
0.999406 0.997318 0.998464
0.998959 0.998717 0.998076
0.999492 0.997055 0.998552
0.999282 0.997746 0.998337
0.999581 0.998207 0.997211
0.99832 0.999904 0.999109
0.998776 0.999297 0.997932
0.999132 0.998248 0.998194
0.99928 0.99945 0.996635
0.999506 0.998561 0.997025
0.999555 0.996851 0.998627
0.999647 0.997896 0.997365
0.999874 0.999494 0.995429
0.999544 0.996856 0.999449
0.999292 0.997733 0.998782
0.999473 0.997049 0.998989
0.999586 0.996628 0.999465
0.99966 0.997619 0.997448
0.999119 0.998201 0.998153
0.999374 0.997351 0.998463
0.999534 0.998538 0.997252
0.999655 0.996438 0.999484
0.999624 0.997887 0.997684
0.99969 0.997452 0.997557
0.999855 0.999013 0.995692
0.999736 0.99623 0.999487
0.99826 0.999931 0.999132
0.998707 0.999201 0.99856
0.998065 1.00019 0.999173
0.998513 0.999762 0.997932
0.998677 1.00088 0.996169
0.99896 0.99856 0.999177
0.999086 0.999852 0.996784
0.998958 0.998671 0.998093
0.999285 0.997698 0.998352
0.999499 0.997011 0.998563
0.999573 0.998218 0.997218
0.998297 1.00007 0.998503
0.998771 0.999258 0.997945
0.999563 0.996808 0.998637
0.999133 0.998202 0.99821
0.999277 0.999445 0.996643
0.999639 0.997911 0.997372
0.9995 0.998566 0.997033
0.999873 0.999497 0.995396
0.998175 1.00014 0.999134
0.998563 0.999814 0.997875
0.998715 1.00072 0.996694
0.999151 0.999917 0.996452
0.999402 0.998983 0.996834
0.99975 1.00048 0.994648
0.999854 0.999803 0.995048
0.999623 0.99668 0.998696
0.999693 0.997641 0.997527
0.999881 0.999249 0.995655
1.00006 1.00022 0.994059
0.999309 0.997712 0.999303
0.9996 0.996666 0.999474
0.99948 0.997088 0.999415
0.999655 0.997599 0.997455
0.999128 0.99814 0.999212
0.999373 0.997364 0.999341
0.999538 0.99855 0.99678
0.999655 0.996447 0.999129
0.999626 0.997864 0.997294
0.999692 0.997444 0.99775
0.999852 0.999011 0.995693
0.999689 0.99633 0.999486
0.999822 0.997088 0.997661
0.999438 0.998991 0.996466
0.999576 0.998207 0.997005
0.999896 0.999816 0.994785
0.999739 0.997295 0.997989
0.999864 0.999239 0.995446
0.999858 0.998832 0.995872
0.999976 0.999847 0.994632
0.999777 0.996138 0.999489
0.999742 0.996255 0.999487
0.998792 0.999017 0.999156
0.998347 0.999868 0.999125
0.998105 1.00017 0.999162
0.99848 0.999702 0.998523
0.998703 1.0008 0.996463
0.998966 0.998658 0.998612
0.999125 0.999909 0.996512
0.998043 1.00026 0.999171
0.998495 1.00116 0.996312
0.99889 1.00032 0.996719
0.999271 1.00147 0.994449
0.999303 0.999352 0.996899
0.999639 1.00078 0.994361
0.998275 1.00024 0.997897
0.998766 0.999218 0.997958
0.999571 0.996765 0.998646
0.999134 0.998155 0.998227
0.999273 0.999442 0.99665
0.999493 0.998572 0.997041
0.999631 0.997926 0.99738
0.999873 0.999501 0.995362
0.998131 1.00016 0.999147
0.998557 0.999779 0.997878
0.998722 1.00082 0.996275
0.999147 0.999913 0.996456
0.999624 0.996638 0.999073
0.999683 0.997657 0.99765
0.999397 0.998984 0.996842
0.999753 1.00049 0.994567
0.999882 0.999255 0.995623
0.999852 0.999794 0.995101
1.00006 1.00022 0.994062
0.998545 1.00116 0.996226
0.998973 1.00036 0.996388
0.999313 1.00143 0.994484
0.999711 1.00082 0.99435
0.999809 1.00015 0.99477
0.999987 1.00095 0.993558
0.999675 0.996514 0.999466
1.00007 1.00043 0.993887
0.999729 0.997441 0.997503
0.999886 0.999044 0.995607
1.00005 1.00007 0.994226
1.00019 1.00051 0.993522
0.999801 0.997178 0.99759
0.999946 0.998559 0.995946
0.999187 0.998107 0.999237
0.999401 0.99737 0.999367
0.999517 0.998549 0.996772
0.999654 0.996511 0.999484
0.999693 0.997407 0.997575
0.999613 0.997843 0.997289
0.999848 0.999008 0.995695
0.999697 0.996359 0.999486
0.999821 0.997077 0.997662
0.999443 0.998967 0.99677
0.999574 0.998191 0.997262
0.999894 0.999823 0.994781
0.999744 0.997273 0.997642
0.999858 0.999238 0.995449
0.999855 0.998828 0.995874
0.999975 0.999864 0.994572
0.999786 0.997168 0.997656
0.999853 0.997008 0.997674
0.999935 0.9985 0.996039
0.99988 1.00008 0.994547
0.999877 0.999531 0.995122
1.00012 1.00038 0.993765
0.999887 0.998659 0.995985
1.00002 1.00003 0.994274
0.999958 0.99974 0.99477
1.00005 1.00032 0.994093
0.999815 0.996049 0.999492
0.999782 0.996157 0.99949
0.999749 0.99628 0.999488
0.999832 0.997101 0.997604
0.99972 0.996392 0.999472
0.999012 0.998548 0.999188
0.998565 0.999475 0.999132
0.999102 0.999978 0.996218
0.998704 1.00089 0.996155
0.998145 1.00014 0.999152
0.998039 1.00026 0.999175
0.9985 1.00117 0.996303
0.998928 1.00039 0.996432
0.999274 1.00147 0.994443
0.999319 0.999432 0.996341
0.999637 1.00079 0.994358
0.998426 1.00127 0.996358
0.99904 1.00171 0.9947
0.999473 1.00116 0.994329
0.999501 1.00163 0.993837
0.999789 1.00039 0.994432
0.999871 1.00105 0.993644
0.998087 1.00018 0.99916
0.998551 0.999743 0.997882
0.998729 1.00091 0.995857
0.999144 0.999909 0.996459
0.999623 0.996597 0.99945
0.999673 0.997673 0.997773
0.999392 0.998986 0.996849
0.999755 1.0005 0.994487
0.999849 0.999785 0.995154
0.999883 0.999262 0.995592
1.00006 1.00021 0.994066
0.998538 1.00115 0.996236
0.998972 1.00035 0.996385
0.999335 1.00145 0.994345
0.999704 1.00081 0.994385
0.999666 0.996487 0.999463
0.999727 0.997459 0.997681
0.999886 0.999044 0.995718
0.99981 1.00014 0.994768
0.99999 1.00096 0.993469
1.00005 1.00006 0.994199
1.00006 1.00041 0.993946
1.00019 1.00051 0.993526
0.999801 0.99719 0.997589
0.999946 0.998562 0.995946
0.999065 1.0017 0.994628
0.999564 1.00113 0.994303
0.999577 1.00163 0.993731
0.999979 1.00119 0.993293
1.00004 1.00067 0.993764
1.00011 1.0011 0.993103
0.999764 0.997282 0.997557
1.00018 1.00066 0.993386
0.999893 0.998859 0.995752
1.00002 0.999924 0.994356
1.00018 1.00042 0.99371
1.00027 1.00055 0.993298
0.999932 0.998607 0.995924
0.999959 0.998523 0.995957
1.00002 0.999501 0.994869
0.999437 0.998977 0.996512
0.999705 0.996388 0.999486
0.999821 0.997066 0.997663
0.999566 0.998165 0.997057
0.999893 0.99983 0.994778
0.99974 0.997252 0.99764
0.999851 0.998824 0.995876
0.999852 0.999238 0.995452
0.999974 0.999881 0.994513
0.999786 0.997157 0.997656
0.999853 0.996998 0.997675
0.999935 0.998493 0.99604
0.999882 1.00009 0.99454
0.999871 0.999534 0.995124
1.00013 1.00039 0.993756
0.999884 0.998653 0.995987
1.00002 1.00004 0.994299
0.999957 0.999744 0.994767
1.00005 1.00033 0.99403
0.999885 0.996927 0.997688
0.999918 0.998552 0.996025
0.999953 0.99844 0.996063
1 0.999434 0.994978
1.00012 1.00049 0.993659
1.00007 1.00024 0.994033
1.00027 1.00053 0.993314
0.999978 0.999587 0.994889
1.00012 1.00041 0.993719
1.00002 1.00034 0.994057
1.00011 1.0005 0.993686
1.00003 0.99832 0.996018
0.999943 0.996811 0.997673
0.99985 0.99597 0.999493
0.99982 0.996065 0.999493
0.999788 0.996177 0.999491
0.999862 0.997034 0.997611
0.99976 0.996286 0.999475
0.999833 0.997111 0.997604
0.999713 0.996365 0.999471
0.999293 0.999457 0.996336
0.998906 1.00048 0.996134
0.999635 1.0008 0.994356
0.999277 1.00148 0.994437
0.998505 1.00118 0.996295
0.998033 1.00026 0.999178
0.998424 1.00127 0.996361
0.999042 1.00171 0.994696
0.999474 1.00117 0.994324
0.999503 1.00163 0.993834
0.999788 1.0004 0.994426
0.999869 1.00105 0.993644
0.998953 1.00181 0.99479
0.999246 1.00186 0.994144
0.999707 1.00138 0.993653
0.999635 1.00166 0.993578
1.00003 1.0007 0.993661
0.999963 1.00107 0.993432
0.998532 1.00114 0.996246
0.998971 1.00034 0.996383
0.999357 1.00147 0.994205
0.999697 1.00081 0.99442
0.999658 0.99646 0.99946
0.999725 0.997477 0.997858
0.999887 0.999045 0.995828
0.999811 1.00014 0.994766
0.999994 1.00097 0.99338
1.00006 1.0004 0.994004
1.00005 1.00006 0.994172
1.00019 1.0005 0.99353
0.999802 0.997202 0.997588
0.999947 0.998566 0.995946
0.999082 1.00171 0.994572
0.999565 1.00113 0.994296
0.999564 1.00162 0.993742
0.999967 1.00119 0.993372
0.999766 0.997297 0.997555
0.999896 0.998863 0.995749
1.00002 0.999915 0.994419
1.00004 1.00066 0.993776
1.00012 1.00109 0.993076
1.00017 1.00042 0.993646
1.00018 1.00066 0.99339
1.00028 1.00052 0.993307
0.999933 0.998611 0.995924
1.00002 0.999501 0.994822
0.99996 0.998525 0.995957
0.999308 1.00186 0.994071
0.999814 1.00137 0.993491
0.999643 1.00169 0.993462
1.00011 1.00128 0.992983
1.00017 1.00084 0.993254
1.00018 1.00103 0.992998
0.999912 0.998703 0.995868
1.00027 1.00067 0.993218
1.00001 0.999758 0.994638
1.00014 1.00038 0.993718
1.00027 1.00051 0.993383
1.00032 1.00038 0.993384
0.99998 0.998481 0.995955
1.00002 0.999517 0.99485
1.00002 0.999498 0.994777
1.00007 1.00007 0.994292
0.999883 1.0001 0.994532
0.999853 0.996988 0.997676
0.999785 0.997145 0.997657
0.999934 0.998487 0.99604
0.999865 0.999536 0.995125
1.00013 1.0004 0.993748
0.999882 0.998647 0.995989
0.999955 0.999748 0.994764
1.00002 1.00004 0.994324
1.00005 1.00034 0.993967
0.999885 0.99692 0.997688
0.999916 0.998546 0.996026
0.999952 0.998435 0.996063
1 0.99943 0.994979
1.00013 1.0005 0.993649
1.00007 1.00025 0.99403
1.00028 1.00054 0.993306
0.999974 0.999584 0.99489
1.00013 1.0004 0.993774
1.00002 1.00034 0.994048
1.0001 1.00049 0.993718
0.999916 0.99686 0.997687
0.999976 0.998369 0.996082
1 0.999474 0.994951
1.00001 0.999388 0.995007
1.00005 1.00003 0.994295
1.00026 1.00051 0.99336
1.00021 1.00051 0.993482
1.00037 1.00044 0.99323
1.00003 1.00025 0.994136
1.00019 1.00052 0.993506
1.00008 1.0007 0.993484
1.00002 0.998317 0.996045
1.00007 0.999347 0.994932
1.00004 0.998311 0.995998
1.00003 0.998319 0.996018
0.999964 0.996764 0.998006
0.999941 0.996814 0.997846
0.999889 0.99594 0.998791
0.999855 0.995985 0.999493
0.999825 0.996081 0.999494
0.999896 0.99697 0.997608
0.999799 0.996187 0.999476
0.999863 0.997042 0.997611
0.999755 0.996262 0.999474
0.999833 0.997121 0.997603
0.999706 0.996338 0.99947
0.999788 1.00041 0.99442
0.999475 1.00118 0.99432
0.999868 1.00105 0.993644
0.999506 1.00163 0.993831
0.999045 1.00171 0.994692
0.998421 1.00127 0.996364
0.998952 1.00181 0.994791
0.999246 1.00186 0.994142
0.999709 1.00138 0.993651
0.999617 1.00167 0.9936
1.00003 1.0007 0.993656
0.999962 1.00107 0.993438
0.999146 1.00198 0.994241
0.999349 1.00193 0.993895
0.999799 1.00141 0.993437
0.999671 1.00173 0.993424
1.00014 1.00068 0.993447
1.00006 1.00102 0.99338
0.999099 1.00171 0.994515
0.999565 1.00112 0.994289
0.999552 1.00161 0.993752
0.999956 1.00118 0.993451
0.999767 0.997311 0.997552
0.999899 0.998868 0.995747
1.00002 0.999906 0.994482
1.00004 1.00066 0.993789
1.00012 1.00108 0.99305
1.00018 1.00065 0.993394
1.00017 1.00042 0.993582
1.00029 1.0005 0.993316
0.999934 0.998616 0.995923
1.00002 0.999501 0.994776
0.99996 0.998528 0.995957
0.999291 1.00187 0.994059
0.999814 1.00138 0.993485
0.999659 1.0017 0.993419
1.00008 1.00127 0.993023
0.999915 0.998708 0.995866
1.00001 0.999756 0.994638
1.00013 1.00038 0.993777
1.00017 1.00084 0.993288
1.00019 1.00103 0.992985
1.00027 1.00051 0.993357
1.00027 1.00066 0.993218
1.00033 1.00033 0.993413
1.00002 0.999518 0.99485
1.00008 1.00007 0.994216
0.999981 0.998484 0.995955
1.00002 0.999499 0.994777
0.999399 1.00198 0.993729
0.999984 1.00142 0.993126
0.999651 1.00182 0.993237
1.00013 1.00124 0.992904
1.00026 1.00081 0.993143
1.00021 1.00101 0.99294
1.00001 0.999609 0.994779
1.00031 1.00046 0.993314
1.00009 1.00029 0.99388
1.00022 1.0006 0.993404
1.00032 1.00045 0.993351
1.00037 1.00008 0.993565
1 0.998456 0.995939
1.00003 0.99948 0.994766
1.00009 1.00007 0.994177
1.00007 1.00012 0.994215
1.00013 1.00038 0.993851
0.999885 0.996913 0.997688
1.00013 1.00051 0.99364
0.999952 0.99843 0.996064
0.999915 0.99854 0.996027
1 0.999427 0.994979
1.00006 1.00025 0.994027
1.00029 1.00054 0.993298
0.99997 0.99958 0.994892
1.00002 1.00035 0.994038
1.00013 1.00039 0.993829
1.00009 1.00047 0.993751
0.999916 0.996857 0.997686
0.999976 0.998368 0.996081
0.999998 0.999468 0.994953
1.00001 0.999388 0.995006
1.00005 1.00003 0.994265
1.00027 1.00052 0.993349
1.0002 1.00052 0.993479
1.00036 1.00046 0.993217
1.00002 1.00025 0.994139
1.00019 1.00052 0.993533
1.0001 1.00069 0.993501
1 0.998324 0.996073
1.00004 0.999323 0.99502
1.00005 1.00011 0.994176
1.00005 1 0.99432
1.00007 1.0004 0.993926
1.00038 1.00023 0.993412
1.00028 1.00055 0.993301
1.00036 1.00007 0.993582
1.00006 1.00072 0.993594
1.0002 1.0008 0.993243
1.00002 0.998316 0.996044
1.00007 0.999312 0.994863
1.00007 0.999344 0.994883
1.00008 1.00003 0.994314
1.00007 0.999348 0.994923
1.00006 0.998313 0.995963
1.00004 0.99831 0.995999
0.999987 0.99673 0.997994
1.00003 0.998318 0.996018
0.999964 0.996784 0.998004
0.999925 0.995897 0.998781
0.999939 0.996816 0.998018
0.999891 0.995911 0.99914
0.99986 0.996001 0.999492
0.999928 0.996914 0.997598
0.999897 0.996975 0.997608
0.999837 0.996096 0.999474
0.999793 0.996168 0.999476
0.999864 0.99705 0.997611
0.999749 0.996239 0.999474
1.00003 1.0007 0.993652
0.999712 1.00138 0.993649
0.999962 1.00107 0.993445
0.999599 1.00167 0.993623
0.999246 1.00187 0.994141
0.99895 1.00181 0.994793
0.999144 1.00198 0.994244
0.999311 1.00193 0.993942
0.999804 1.00141 0.993436
0.999682 1.00177 0.99337
1.00014 1.00069 0.993449
1.00005 1.00103 0.993362
0.999219 1.00207 0.994021
0.99929 1.00209 0.993812
0.999875 1.00148 0.993224
0.999658 1.00209 0.993166
1.00024 1.00039 0.99352
1.00007 1.0011 0.993322
0.999274 1.00187 0.994046
0.999814 1.00139 0.993479
0.999675 1.00171 0.993376
1.00006 1.00127 0.993063
0.999917 0.998713 0.995864
1.00001 0.999755 0.994637
1.00013 1.00037 0.993836
1.00016 1.00085 0.993321
1.0002 1.00103 0.992972
1.00027 1.00065 0.993218
1.00028 1.00052 0.99333
1.00033 1.00029 0.993443
1.00002 0.999519 0.99485
1.00008 1.00006 0.994139
0.999982 0.998486 0.995955
1.00002 0.9995 0.994776
0.999396 1.00198 0.993737
0.99996 1.00141 0.99316
0.999708 1.00186 0.993144
1.00015 1.00124 0.992906
1.00001 0.999609 0.994778
1.00009 1.00029 0.993924
1.00021 1.00062 0.993397
1.00025 1.00081 0.99315
1.00022 1.00106 0.992902
1.00032 1.00046 0.993339
1.00032 1.00046 0.993313
1.00036 1.00004 0.993615
1.00009 1.00007 0.994176
1.00013 1.00037 0.993802
1.00007 1.00011 0.994212
1 0.998456 0.995861
1.00003 0.999484 0.994765
0.999397 1.00209 0.993592
0.999935 1.00158 0.99301
1.00016 1.00137 0.992765
1.00028 1.00072 0.993154
1.00008 1.00017 0.99409
1.00037 0.999973 0.99368
1.00015 1.00061 0.99348
1.00027 1.00072 0.993181
1.00038 1.00025 0.993391
1.00002 0.998451 0.995759
1.00004 0.999467 0.99491
1.00007 1.00015 0.994175
1.00014 1.00039 0.993759
1.00013 1.00048 0.993722
1.00016 1.00056 0.993542
0.999916 0.996854 0.997685
0.999976 0.998366 0.996081
1.00027 1.00053 0.993338
1.00001 0.999387 0.995006
0.999995 0.999462 0.994955
1.00005 1.00004 0.994236
1.0002 1.00053 0.993477
1.00036 1.00048 0.993204
1.00002 1.00024 0.994142
1.00011 1.00067 0.993518
1.00019 1.00052 0.993559
1 0.998323 0.996073
1.00004 0.999326 0.995018
1.00004 1.0001 0.994212
1.00005 1.00001 0.994318
1.00008 1.00041 0.993875
1.00037 1.00025 0.993413
1.00028 1.00055 0.993285
1.00036 1.00004 0.993617
1.00005 1.00073 0.993569
1.0002 1.00081 0.993217
1.00006 0.999298 0.994999
1.00008 0.999948 0.994234
1.00007 1.00058 0.993706
1.00009 1.00038 0.993814
1.00012 1.00059 0.993607
1.00043 0.99968 0.993889
1.00029 1.00057 0.993314
1.0004 0.999834 0.993688
1.00012 1.00097 0.993293
1.0002 1.00098 0.993004
1.00002 0.998316 0.996044
1.00007 0.999311 0.994917
1.0001 0.999982 0.994182
1.00007 0.999341 0.994835
1.00007 0.999345 0.994924
1.00009 1.00003 0.99423
1.0001 1.00048 0.993812
1.00009 1.00005 0.994136
1.00008 0.999352 0.994891
1.00007 0.998338 0.995914
1.00006 0.998314 0.995962
1.00001 0.996709 0.997973
1.00004 0.998308 0.995999
0.999987 0.99675 0.997992
0.999956 0.995842 0.998774
0.999963 0.996805 0.998003
0.999928 0.995861 0.998782
0.999894 0.995885 0.999489
0.999956 0.996846 0.997609
0.999929 0.996918 0.997599
0.999875 0.996009 0.999473
0.999897 0.996981 0.997608
0.999832 0.996081 0.999475
0.999788 0.996149 0.999476
1.00014 1.00069 0.99345
0.999808 1.00141 0.993434
1.00004 1.00104 0.993345
0.999693 1.00181 0.993316
0.999274 1.00192 0.993989
0.999142 1.00198 0.994247
0.999199 1.00207 0.994046
0.999315 1.00204 0.993815
0.999861 1.00146 0.993246
0.999658 1.00218 0.993038
1.00023 1.00039 0.993537
1.00007 1.00112 0.993239
0.999143 1.00212 0.994092
0.99931 1.00231 0.99354
0.999779 1.00194 0.992965
1.00026 1.0003 0.993725
0.999393 1.00198 0.993745
0.999936 1.0014 0.993193
0.999765 1.0019 0.993051
1.00017 1.00123 0.992909
1.00002 0.99961 0.994776
1.00009 1.00028 0.993968
1.00021 1.00064 0.99339
1.00025 1.00081 0.993158
1.00023 1.00111 0.992864
1.00032 1.00046 0.993312
1.00033 1.00047 0.993327
1.00036 1.00001 0.993665
1.00009 1.00007 0.994175
1.00014 1.00036 0.993754
1.00007 1.00011 0.994209
1.00001 0.998457 0.995782
1.00003 0.999489 0.994764
0.999447 1.00208 0.993506
0.999926 1.00158 0.993038
1.00016 1.00133 0.992797
1.00008 1.00016 0.994089
1.00015 1.00061 0.993533
1.00027 1.00074 0.993169
1.00028 1.00075 0.993126
1.00037 1.00022 0.993433
1.00037 0.999998 0.993684
1.00001 0.998452 0.995763
1.00014 1.0004 0.993756
1.00017 1.00053 0.993548
1.00012 1.00047 0.993753
1.00007 1.00015 0.994207
1.00005 0.999463 0.994833
0.999563 1.00197 0.993442
0.999888 1.00178 0.992913
1.00017 1.00119 0.992951
1.00034 1.0002 0.99351
1.00013 1.00051 0.993648
1.00045 0.999802 0.993692
1.00019 1.00086 0.993152
1.00033 1.00069 0.993083
1.00003 0.998351 0.995825
1.00005 0.999528 0.994843
1.00007 1.00014 0.994245
1.00011 1.00057 0.993633
1.00017 1.00066 0.993397
1.00018 1.00071 0.993361
1 0.998323 0.996072
1.00004 0.999329 0.995017
1.00036 1.00027 0.993413
1.00005 1.00001 0.994316
1.00004 1.0001 0.994248
1.00008 1.00043 0.993823
1.00029 1.00055 0.99327
1.00036 1 0.993651
1.00004 1.00074 0.993544
1.00021 1.00082 0.993191
1.00006 0.999298 0.994998
1.00008 0.999955 0.994271
1.00006 1.00056 0.993763
1.00009 1.00038 0.993847
1.00012 1.0006 0.993602
1.00043 0.999683 0.993903
1.0003 1.00054 0.993305
1.00035 0.999836 0.993815
1.00011 1.00097 0.993271
1.00022 1.00104 0.992922
1.0001 0.999964 0.994196
1.00012 1.00041 0.99374
1.0001 1.00083 0.993407
1.00013 1.00064 0.993468
1.00024 1.00016 0.993897
1.0005 0.999391 0.994041
1.00029 1.00067 0.993156
1.00014 1.00118 0.992916
1.00006 0.99931 0.994971
1.00009 0.999983 0.994234
1.00011 1.00044 0.993799
1.00007 0.999343 0.994925
1.00009 1.00003 0.994146
1.00008 0.999351 0.994892
1.0001 1.00048 0.993757
1.00009 1.00005 0.994169
1.00012 1.00073 0.993489
1.0001 1.00052 0.993666
1.0001 1.00003 0.994127
1.00009 0.999394 0.994833
1.00008 0.998347 0.995892
1.00007 0.998341 0.995913
1.00003 0.996706 0.997944
1.00006 0.998315 0.995961
1.00001 0.99673 0.997968
0.999983 0.995803 0.998757
0.999986 0.996769 0.997989
0.999957 0.99581 0.998775
0.999931 0.995825 0.998783
0.999983 0.996758 0.99764
0.999957 0.996852 0.997608
0.999908 0.995914 0.999478
0.99993 0.996921 0.9976
0.999869 0.995999 0.999473
0.999826 0.996065 0.999476
1.00023 1.00039 0.993554
0.999846 1.00144 0.993268
1.00008 1.00114 0.993156
0.99966 1.00226 0.992911
0.99934 1.002 0.993818
0.999179 1.00207 0.994072
0.999193 1.00211 0.994007
0.999353 1.00227 0.993526
0.999745 1.00189 0.993039
1.00023 1.00032 0.993667
0.999246 1.00213 0.993869
0.999275 1.00255 0.993327
0.999935 1.00118 0.993436
0.999496 1.00208 0.99342
0.999917 1.00159 0.993065
1.00016 1.00129 0.992829
1.00009 1.00016 0.994088
1.00015 1.00061 0.993586
1.00026 1.00076 0.993158
1.00028 1.00077 0.993098
1.00036 1.00002 0.993688
1.00037 1.00019 0.993475
1.00014 1.0004 0.993754
1.00018 1.0005 0.993553
1.00012 1.00046 0.993784
1.00001 0.998452 0.995767
1.00007 1.00016 0.994239
1.00005 0.999459 0.994756
0.999502 1.00197 0.99354
0.999925 1.00173 0.992858
1.00016 1.00121 0.992921
1.00013 1.00051 0.993648
1.00019 1.00086 0.993183
1.00032 1.00066 0.993124
1.00034 1.00019 0.993562
1.00045 0.999826 0.993678
1.00003 0.998347 0.995912
1.00004 0.999539 0.99484
1.00017 1.00065 0.993414
1.00018 1.00071 0.993369
1.00011 1.00057 0.993652
1.00008 1.00013 0.994208
0.999495 1.00185 0.993646
0.999954 1.00206 0.992533
1.00021 1.00053 0.993468
1.00048 0.999577 0.993893
1.00016 1.00081 0.993257
1.00041 1.00029 0.993315
1.00024 1.00098 0.993004
1.00006 0.998264 0.99601
1.0001 0.999321 0.994889
1.00004 0.999453 0.994758
1.00007 1.00025 0.99409
1.00011 1.00057 0.99363
1.00015 1.00084 0.993307
1.00017 1.00083 0.993258
1.00017 1.00097 0.993167
1.00006 0.999298 0.994998
1.00008 0.999961 0.994308
1.00042 0.999688 0.993916
1.00008 1.00038 0.99388
1.00006 1.00055 0.993821
1.00011 1.0006 0.993597
1.00032 1.00052 0.993296
1.00031 0.999839 0.993942
1.0001 1.00098 0.993249
1.00023 1.00109 0.992841
1.0001 0.99996 0.994199
1.00011 1.0004 0.993784
1.00009 1.00082 0.993444
1.00013 1.00065 0.993498
1.00024 1.00014 0.993859
1.00045 0.999471 0.994016
1.00031 1.00066 0.993191
1.00015 1.00119 0.992901
1.00011 1.00044 0.993791
0.999758 1.00117 0.993786
1.00015 1.00073 0.993461
1.00015 1.00098 0.993167
1.00051 0.999308 0.994278
1.00042 1.00024 0.993247
1.00016 1.00128 0.992814
1.00009 0.999985 0.994285
1.00011 1.00044 0.993797
1.00013 1.00072 0.993466
1.00008 0.999349 0.994893
1.00008 1.00006 0.994202
1.0001 1.00048 0.993703
1.00009 0.999397 0.994832
1.0001 1.00003 0.994132
1.00012 1.00073 0.993456
1.00009 1.00053 0.993726
1.00014 1.00089 0.99329
1.00012 1.0008 0.993359
1.00011 1.0005 0.993728
1.0001 1.00008 0.994123
1.00009 0.999427 0.994794
1.00008 0.998336 0.995893
1.00008 0.998348 0.995891
1.00004 0.996691 0.997933
1.00007 0.998344 0.995912
1.00003 0.996723 0.997941
1.00001 0.995776 0.998739
1.00001 0.996751 0.997963
0.999982 0.995772 0.99876
0.999958 0.995777 0.998777
1.00007 0.99825 0.996006
1.00001 0.996701 0.997646
0.999984 0.996765 0.997638
0.99994 0.995826 0.999484
0.999958 0.996858 0.997607
0.999903 0.995912 0.999476
0.999863 0.995989 0.999474
1.00021 1.00033 0.993609
0.999712 1.00184 0.993113
0.999396 1.00223 0.993512
0.999243 1.0021 0.993923
0.999236 1.00213 0.99391
0.99928 1.0026 0.993312
0.99991 1.00113 0.993514
0.999247 1.00226 0.993745
0.99939 1.00216 0.993469
0.999449 1.00113 0.994628
0.99944 1.00197 0.993639
0.999962 1.00169 0.992804
1.00016 1.00122 0.99289
1.00013 1.00051 0.993647
1.00018 1.00085 0.993214
1.0003 1.00063 0.993166
1.00034 1.00017 0.993614
1.00044 0.999852 0.993663
1.00017 1.00064 0.993432
1.00018 1.0007 0.993377
1.0001 1.00056 0.993671
1.00003 0.998343 0.995999
1.00004 0.999549 0.994837
1.00008 1.00012 0.994171
0.999518 1.0019 0.993503
1.00006 0.998265 0.99601
1.0001 0.999318 0.994846
0.999958 1.00197 0.992581
1.00021 1.00064 0.993379
1.00016 1.0008 0.993277
1.00023 1.00097 0.993004
1.0004 1.00026 0.993323
1.00048 0.999563 0.993913
1.00005 0.999451 0.994894
1.00006 1.00025 0.994084
1.00017 1.00084 0.993255
1.00017 1.00094 0.993161
1.00016 1.00084 0.993268
1.00011 1.00057 0.993636
0.999557 1.00278 0.992683
0.99998 1.00176 0.992763
1.00041 0.999461 0.994152
1.00051 0.999777 0.99363
1.00019 1.00098 0.993084
1.00028 1.00092 0.992978
1.0001 0.999267 0.994844
1.00009 0.99932 0.994901
1.00012 0.999994 0.994269
1.00005 1.00029 0.993952
1.0001 1.00064 0.993644
1.00015 1.00096 0.993102
1.00015 1.00115 0.993011
1.00015 1.00102 0.993093
1.0001 0.999955 0.994203
1.00011 1.00038 0.993828
1.00023 1.00011 0.993821
1.00039 0.999549 0.993991
1.00014 1.00066 0.993528
1.00009 1.00081 0.993481
1.00033 1.00065 0.993225
1.00017 1.00121 0.992886
1.00011 1.00043 0.993789
0.999653 1.00104 0.994036
1.00015 1.00072 0.993441
1.00015 1.00098 0.99314
1.00042 0.999363 0.994233
1.00048 1.00024 0.993269
1.00017 1.00134 0.992784
1.00014 1.00076 0.993418
1.00007 0.999813 0.994568
1.00021 1.0009 0.993163
1.00018 1.00134 0.992815
1.00074 0.999599 0.993189
1.00023 1.00129 0.99259
1.00184 0.998665 0.991762
1.00011 1.00044 0.993795
1.00013 1.00073 0.993462
1.00015 1.00092 0.993242
1.00009 0.999401 0.99483
1.0001 1.00003 0.994137
1.00009 1.00053 0.993786
1.00012 1.00074 0.993422
1.00009 0.999431 0.994792
1.00011 1.00008 0.994096
1.00013 1.00087 0.9933
1.00011 1.00051 0.993725
1.00012 1.0008 0.993397
1.00014 1.00099 0.993169
1.00012 1.00087 0.993371
1.00012 1.00052 0.99373
1.00011 1.00013 0.993994
1.0001 0.999434 0.994675
1.00011 1.00003 0.994248
1.0001 0.999435 0.994687
1.00008 0.998346 0.995884
1.00008 0.998336 0.995893
1.00005 0.996686 0.99757
1.00008 0.998349 0.995891
1.00004 0.996704 0.99775
1 0.995717 0.999466
1.00003 0.996741 0.997937
1 0.995747 0.99874
0.999982 0.995741 0.998762
1.00007 0.998208 0.996046
1.00007 0.998252 0.996005
1.00003 0.996668 0.997645
1.00001 0.996702 0.997823
0.999967 0.995768 0.999483
0.999986 0.996772 0.997636
0.999935 0.995825 0.999482
0.999898 0.99591 0.999474
0.999883 1.00107 0.993591
0.999283 1.00265 0.993297
0.999227 1.00213 0.993951
0.99925 1.00225 0.993763
0.999405 1.0022 0.993447
0.99915 1.0013 0.994968
0.999322 1.00237 0.993592
1.00029 0.998803 0.995072
0.998711 1.00088 0.996015
1.0001 0.999144 0.995062
0.999542 1.00194 0.99336
0.999961 1.00188 0.992629
1.00021 1.00073 0.99329
1.00016 1.00078 0.993297
1.00022 1.00097 0.993005
1.0004 1.00023 0.993332
1.00048 0.999548 0.993932
1.00018 1.00084 0.993252
1.00017 1.00091 0.993154
1.00016 1.00084 0.99323
1.00006 0.998267 0.99601
1.00011 1.00057 0.993642
1.00005 0.999449 0.995031
1.00006 1.00025 0.994079
1.0001 0.999316 0.994803
0.999609 1.00273 0.992527
1.0001 0.999254 0.994914
1.00009 0.999328 0.994899
1.00012 1.00001 0.994191
0.999969 1.00176 0.992785
1.0004 0.999575 0.99405
1.00019 1.00098 0.993085
1.00027 1.00089 0.992989
1.0005 0.999758 0.993635
1.00005 1.00028 0.994007
1.00011 1.00064 0.993618
1.00015 1.00102 0.993099
1.00016 1.0011 0.993045
1.00015 1.00097 0.993142
0.999584 1.00349 0.991876
1.00018 1.00028 0.993787
1.00061 0.999217 0.993982
1.00036 1.0007 0.993076
1.00019 1.00108 0.992965
1.00012 0.999957 0.994131
1.0001 1.00008 0.994013
1.00008 1.00055 0.99372
1.00009 1.0009 0.993392
1.00014 1.00091 0.993186
1.00014 1.00141 0.992796
1.00015 1.00123 0.9929
1.00011 1.00043 0.993787
1.00015 1.00071 0.993421
0.999547 1.00091 0.994287
1.00033 0.999416 0.994189
1.00054 1.00025 0.993291
1.00015 1.00098 0.993113
1.00018 1.00139 0.992755
1.00014 1.00075 0.993438
0.999972 0.999735 0.994667
1.0002 1.0009 0.993147
1.00016 1.00134 0.992801
1.00075 0.999544 0.99335
1.00025 1.00136 0.99255
1.0021 0.99864 0.991657
1.00018 1.00094 0.993142
1.00103 0.999265 0.992742
1.00019 1.00115 0.992922
1.00011 1.0019 0.992316
1.0006 1.00119 0.99185
0.995723 0.99748 0.992334
1.00272 1.00009 0.989732
1.00194 0.999888 0.990122
0.990991 0.991989 1.01634
1.00529 0.982319 1.00932
1.00013 1.00073 0.993459
1.00015 1.00091 0.993254
1.00014 1.00108 0.99309
1.00009 0.999436 0.994791
1.00011 1.00008 0.994069
1.00011 1.00051 0.993722
1.00012 1.00081 0.993435
1.00013 1.00084 0.99331
1.00012 1.00052 0.993677
1.0001 0.999435 0.99473
1.00011 1.00014 0.99403
1.00013 1.00097 0.993192
1.00012 1.00085 0.993367
1.00012 1.00081 0.993409
1.00013 1.0011 0.993091
1.00014 1.00058 0.993534
1.00011 1.00018 0.993944
1.0001 0.999449 0.994665
1.00011 1.00012 0.994114
1.00013 1.00043 0.993784
1.00011 1 0.994189
1.00012 1.00004 0.994168
1.0001 0.999379 0.994833
1.0001 0.999436 0.994683
1.00008 0.998363 0.995873
1.00008 0.998346 0.995884
1.00006 0.996703 0.997566
1.00008 0.998337 0.995893
1.00005 0.996687 0.99757
1.00001 0.995699 0.999467
1.00005 0.996717 0.997567
1.00001 0.995714 0.999101
1 0.995717 0.998742
1.00008 0.998119 0.996118
1.00007 0.998211 0.996045
1.00003 0.99662 0.997673
1.00007 0.998255 0.996005
1.00002 0.996666 0.99782
0.999987 0.99572 0.999485
1.00001 0.996695 0.997652
0.99996 0.995771 0.999485
0.99993 0.995823 0.99948
0.999423 1.00224 0.993425
0.999253 1.00224 0.993781
0.998854 1.00147 0.995307
1.00015 0.998977 0.995082
0.999232 1.0024 0.993605
0.998783 1.00126 0.995623
0.99884 1.00321 0.993498
1.00091 0.998622 0.992514
0.998745 1.00161 0.99566
1.0001 0.999079 0.995141
1.0001 0.999148 0.995059
1.00012 0.999856 0.994296
1.00011 0.99971 0.994478
0.999661 1.0027 0.99237
0.999958 1.00175 0.992808
1.0004 0.999688 0.993947
1.00019 1.00098 0.993085
1.00025 1.00086 0.993
1.00049 0.99974 0.993639
1.00015 1.00102 0.993105
1.00016 1.00104 0.993079
1.00014 1.00098 0.993182
1.00009 0.999336 0.994898
1.00012 1.00064 0.993593
1.00005 1.00027 0.994062
1.00009 0.999242 0.994984
1.00013 1.00003 0.994113
0.999638 1.00332 0.99193
1.00012 0.999973 0.994217
1.00011 1.00009 0.994061
1.00008 1.00045 0.993809
1.00016 1.00042 0.993742
1.00059 0.999218 0.993972
1.00019 1.0011 0.992961
1.00033 1.00064 0.993116
1.00009 1.0009 0.993417
1.00014 1.00088 0.993224
1.00015 1.00124 0.992899
1.00014 1.00138 0.992822
0.999598 1.00261 0.992714
1.00064 0.998837 0.994344
1.0005 1.0002 0.993188
1.0002 1.0012 0.992836
1.00008 1.00072 0.993535
1.0001 1.00076 0.993431
1.00011 1.00143 0.992773
1.00014 1.00169 0.992499
0.993335 0.995222 1.00011
1.00014 1.00074 0.993458
1.0002 1.00089 0.993131
0.999878 0.999657 0.994767
1.00076 0.99949 0.993512
1.00028 1.00143 0.992511
1.00015 1.00135 0.992787
1.00237 0.9986 0.991552
1.00017 1.00093 0.993168
1.00106 0.999316 0.992804
1.00019 1.00113 0.992934
1.00012 1.00188 0.992318
1.00062 1.00107 0.992028
0.994096 0.996604 0.997635
1.00276 0.99942 0.988312
1.00219 1.00012 0.989898
0.992048 0.992922 1.01359
1.00543 0.982378 1.0091
1.00016 1.0011 0.993033
0.991539 0.993539 1.01069
1.0033 0.988381 1.00733
1.00109 1.00081 0.991143
1.0001 1.00166 0.992628
1.00008 1.00291 0.991431
1.00101 1.00337 0.988964
0.996357 1.00106 0.987623
1.0029 1.00184 0.985929
0.994455 0.990849 1.01496
1.00865 0.987754 0.997637
1.00014 1.0009 0.993266
1.00014 1.00107 0.993088
1.00012 1.00129 0.99294
1.0001 0.999436 0.994784
1.00011 1.00014 0.994067
1.00012 1.00052 0.993623
1.00012 1.00083 0.993364
1.00013 1.00096 0.993214
1.0001 0.999448 0.994666
1.00012 1.00077 0.993422
1.00014 1.00058 0.993592
1.00011 1.00018 0.993999
1.00014 1.00111 0.99306
1.00014 1.00092 0.993216
1.00015 1.00127 0.992858
1.00014 1.00069 0.993479
1.00011 1.00019 0.994052
1.00011 1.00012 0.994111
1.00014 1.00043 0.993737
1.00013 1.00054 0.993649
1.00013 1.00043 0.993735
1.00013 1.00068 0.993485
1.0001 1.00051 0.993702
1.0001 1.00003 0.994192
1.00011 1.00001 0.994188
1.0001 0.999331 0.994884
1.00012 1.00004 0.994089
1.0001 0.99938 0.994782
1.00007 0.998346 0.995896
1.0001 0.999437 0.99468
1.00008 0.998362 0.995874
1.00004 0.996731 0.997919
1.00008 0.998345 0.995884
1.00005 0.9967 0.997745
1.00003 0.995698 0.998735
1.00005 0.996687 0.99757
1.00001 0.995695 0.999467
1.00002 0.995711 0.998736
1.0001 0.999109 0.995112
1.00008 0.998071 0.996166
1.00008 0.998124 0.996116
1.00004 0.996564 0.997716
1.00007 0.998214 0.996044
1.00003 0.996618 0.997675
0.999999 0.99567 0.999492
1.00002 0.996661 0.997992
0.99999 0.995733 0.999127
0.999972 0.995783 0.998781
1.00002 0.999153 0.995093
0.999139 1.00244 0.993618
0.998854 1.00164 0.995232
1.00083 0.998746 0.993398
0.998617 1.0017 0.995662
0.998991 1.00321 0.993187
0.998918 1.00418 0.992638
0.999505 1.00104 0.993351
0.995049 0.997229 0.991808
0.99319 0.990668 1.01385
1.00355 0.983698 1.00935
1.00011 0.999774 0.994329
1.0001 0.99908 0.995139
1.0001 0.999153 0.995057
1.00012 0.999856 0.994282
1.0001 1.0004 0.993859
1.00013 1.00018 0.994007
1.00009 0.999878 0.994392
1.0001 0.999749 0.994435
0.999692 1.00315 0.991983
1.00014 1.00055 0.993698
1.00058 0.999223 0.993962
1.00019 1.00111 0.992957
1.00031 1.00059 0.993155
1.00015 1.00124 0.992898
1.00013 1.00136 0.992847
1.00015 1.00086 0.993263
1.00011 1.0001 0.99411
1.00008 1.00091 0.993441
1.00012 0.999989 0.994303
1.00008 1.00035 0.993898
0.999631 1.00258 0.992745
1.00008 1.0007 0.993552
1.0001 1.00078 0.99348
1.00061 0.998902 0.994309
1.00051 1.00013 0.993181
1.00022 1.00121 0.99277
1.0001 1.00142 0.992801
1.00014 1.00164 0.992519
1.00051 0.999742 0.993746
1.00071 0.999949 0.993218
1.00039 1.00101 0.99248
1.00024 1.00188 0.992091
1.00008 1.00128 0.993002
1.00007 1.00141 0.992884
1.00009 1.00209 0.992287
0.989803 0.990468 1.02321
0.995058 0.997024 0.994638
1.00017 1.00093 0.993193
1.00018 1.00111 0.992946
1.00109 0.999366 0.992866
1.00064 1.00094 0.992206
1.00013 1.00185 0.99232
0.995729 0.996487 0.991458
1.00266 0.999586 0.989957
1.00242 1.00035 0.989675
0.992413 0.991352 1.01343
1.00549 0.98247 1.00888
1.00015 1.00109 0.993034
0.990334 0.991073 1.02188
1.00308 0.989651 1.00618
1.00117 1.00082 0.99115
1.00009 1.00161 0.992658
1.00005 1.00281 0.991492
1.00107 1.00345 0.988963
0.995332 1.00063 0.988893
1.00272 1.00145 0.987778
0.996254 0.990368 1.00686
1.00817 0.985252 0.999923
1.0001 1.00135 0.992913
1.00293 0.996803 0.998319
1.01025 0.995652 0.98844
1.00005 1.00358 0.990492
0.999784 1.00279 0.992186
0.999912 1.00542 0.989855
1.00151 1.00476 0.987229
0.99588 1.00338 0.988919
0.999916 0.98754 1.00199
1.01048 0.992066 0.9905
1.00014 1.00106 0.993085
1.00012 1.00128 0.992943
1.00009 1.00153 0.992705
1.0001 0.999446 0.994667
1.00011 1.00018 0.994055
1.00013 1.00058 0.99365
1.00012 1.00073 0.993435
1.00014 1.00112 0.993029
1.00011 1.00019 0.994049
1.00014 1.0009 0.993253
1.00014 1.00069 0.99348
1.00016 1.00131 0.992823
1.00015 1.00151 0.992625
1.00016 1.00109 0.993036
1.00013 1.00066 0.993529
1.00011 1.00012 0.994108
1.00014 1.00044 0.993691
1.00013 1.00054 0.993644
1.00013 1.00043 0.99373
1.00013 1.00066 0.993513
1.0001 1.00051 0.99371
1.00013 1.0008 0.993368
1.00014 1.00072 0.993373
1.00015 1.0007 0.99343
1.00006 1.00066 0.99361
1.00011 1.00043 0.993736
1.0001 1.00051 0.993703
1.00009 1.00004 0.994196
1.0001 1.00004 0.99419
1.00008 0.999319 0.994917
1.00011 1.00001 0.994188
1.0001 0.999334 0.994883
1.00007 0.998308 0.995949
1.0001 0.999382 0.994732
1.00007 0.998344 0.995898
1.00003 0.99675 0.997923
1.00008 0.99836 0.995875
1.00004 0.996724 0.997735
1.00002 0.995697 0.998726
1.00005 0.996695 0.997562
1.00001 0.995698 0.999466
1.00001 0.995692 0.999467
1.00009 0.999199 0.995186
1.00008 0.998105 0.996139
1.0001 0.999103 0.995112
1.00004 0.996542 0.997737
1.00008 0.998074 0.996165
1.00008 0.998129 0.996114
1.00004 0.99657 0.997713
1.00001 0.995628 0.999502
1.00003 0.996618 0.998018
1 0.995673 0.99914
0.999997 0.995756 0.998772
0.990078 0.991962 1.01827
1.00286 0.99069 1.00122
1.00094 0.999777 0.993268
0.998489 1.00181 0.995664
0.999142 1.00322 0.992876
0.999377 1.00169 0.994658
0.999005 1.00392 0.99272
0.994423 0.997208 0.995886
0.991103 0.992236 1.01872
1.0046 0.983056 1.00897
1.0003 1.0023 0.992042
0.995682 1.0004 0.988785
0.994199 0.990633 1.01564
1.00836 0.985847 1.00155
1.00009 1.00053 0.993661
1.00011 0.999782 0.994379
1.0001 0.999081 0.995136
1.00012 0.999856 0.994268
1.0001 1.00031 0.993934
1.00011 1.0004 0.993864
1.00012 1.00013 0.99405
1.00008 1.00009 0.994209
1.00009 0.99989 0.994335
1.0001 0.999787 0.994392
0.999664 1.00254 0.992777
1.00059 0.998969 0.994273
1.00053 1.00006 0.993174
1.00024 1.00122 0.992705
1.00015 1.00159 0.99254
1.0001 1.00141 0.99283
1.00009 1.00079 0.993528
1.00009 1.00068 0.993569
1.00042 0.999876 0.99376
1.00007 1.0013 0.992967
1.00007 1.00144 0.992825
1.00068 0.999689 0.993382
1.00043 1.00112 0.992372
1.00021 1.00187 0.992132
1.0001 1.00206 0.992248
1.00134 0.999103 0.992702
1.00044 1.00206 0.991532
1.00013 1.00257 0.991619
1.00008 1.00128 0.992962
1.00006 1.00172 0.992633
1.00006 1.00205 0.992323
1.00281 0.997379 0.999004
0.991305 0.992181 1.01411
0.99335 0.995329 0.99973
1.00015 1.00107 0.993035
1.00008 1.00156 0.992688
1.00126 1.00082 0.991157
1.00001 1.00272 0.991554
0.992157 0.99024 1.0157
0.994036 1.00025 0.99541
1.00289 1.001 0.985938
1.00114 1.00356 0.988961
0.995217 0.991539 1.01174
1.00279 0.989877 1.00796
1.00746 0.985273 1.00192
1.00009 1.00134 0.992918
1.00267 0.996143 1.00015
1.00995 0.995607 0.98852
1.00016 1.00352 0.990385
0.999764 1.00274 0.992194
0.999954 1.00531 0.989536
1.00141 1.00472 0.985894
0.996708 1.00254 0.984117
0.998924 0.989975 1.00682
1.01007 0.991225 0.992354
0.999881 1.00204 0.992645
1.01169 1.00066 0.982826
1.01373 0.996337 0.981919
0.999246 1.00402 0.991951
0.999634 1.00649 0.988819
0.99715 1.00112 0.984796
1.00417 0.986815 0.99859
1.01011 0.991683 0.99241
1.00012 1.00127 0.992946
1.0001 1.00154 0.992729
1.0001 1.00179 0.992421
1.00011 1.00019 0.994046
1.00014 1.00069 0.99348
1.00014 1.00087 0.99329
1.00017 1.00135 0.992788
1.00014 1.00066 0.993525
1.00016 1.00109 0.993047
1.00016 1.00154 0.992596
1.0001 1.0017 0.992517
1.00015 1.00141 0.992723
1.00015 1.00097 0.993192
1.00014 1.00054 0.99364
1.00013 1.00044 0.993725
1.00012 1.00063 0.993542
1.00014 1.00078 0.993394
1.0001 1.00051 0.993711
1.00015 1.00072 0.993387
1.00014 1.00078 0.993342
1.00012 1.00097 0.993219
1.00014 1.00092 0.993209
1.00015 1.0007 0.993428
1.00011 1.00074 0.993432
1.00009 1.00082 0.993422
1.00009 1.00032 0.993986
1.00006 1.00061 0.993674
1.0001 1.00043 0.993788
1.00008 1.00001 0.994188
1.00011 1.00051 0.993703
1.00009 1.00004 0.994196
1.00007 0.999336 0.994933
1.0001 1.00004 0.994188
1.00008 0.999325 0.994915
1.00005 0.998287 0.995996
1.0001 0.999336 0.994883
1.00007 0.998308 0.995949
1.00001 0.996753 0.997952
1.00008 0.998342 0.995899
1.00003 0.996735 0.997746
1.00001 0.99572 0.998733
1.00005 0.996717 0.997552
1.00001 0.995711 0.999095
1.00001 0.9957 0.999464
1.00006 0.999349 0.994982
1.00007 0.998165 0.996092
1.00008 0.999199 0.995064
1.00004 0.996569 0.997719
1.00008 0.998099 0.996141
1.0001 0.999099 0.995111
1.00001 0.995616 0.999504
1.00004 0.996543 0.997736
1.00008 0.998077 0.996163
1.00004 0.996576 0.997711
1.00001 0.995632 0.999499
0.999997 0.995672 0.999491
1.00252 0.996818 0.996069
0.990329 0.991941 1.01752
1.01021 0.994343 0.98917
1.0036 0.990111 1.0023
0.999352 1.00058 0.993702
0.999094 1.00366 0.992802
0.993445 0.997858 1.00011
0.992665 0.99121 1.01299
1.00559 0.982589 1.00859
1.00025 1.00148 0.992229
0.994432 1.00043 0.993267
0.995617 0.990116 1.00808
1.00818 0.985094 1.00223
1.00167 1.00127 0.989883
0.995122 1.00297 0.988552
0.999621 0.989992 1.00682
1.01006 0.990899 0.992851
1.00011 1.0009 0.993333
1.00009 1.0005 0.993744
1.00011 0.999791 0.99443
1.0001 1.00022 0.994009
1.0001 1.00061 0.993595
1.00011 1.00036 0.993899
1.00012 1.00008 0.994093
1.00007 1.00018 0.994193
1.00008 1.00007 0.994256
1.00009 0.999903 0.994278
1.00032 1 0.993775
1.00064 0.999431 0.993546
1.00048 1.00122 0.992264
1.00018 1.00187 0.992174
1.0001 1.00203 0.992209
1.00007 1.00148 0.992766
1.00006 1.00133 0.992932
1.00008 1.00129 0.992977
1.00116 0.99923 0.992721
1.00005 1.00171 0.992654
1.00007 1.0021 0.992298
1.00038 1.002 0.991709
1.00014 1.00255 0.991624
1.00096 1.00187 0.990732
1.00005 1.00351 0.990837
1.00008 1.00267 0.991621
1.00007 1.00159 0.992696
1.00008 1.00193 0.992362
1.01241 1.00242 0.979296
1.00265 0.998691 0.996156
0.989953 0.992326 1.01764
1.00008 1.00133 0.992923
0.999744 1.00268 0.992203
1.00027 1.00346 0.990279
1.00235 0.997177 0.996493
0.995212 1.00201 0.988567
1.00146 1.00451 0.987176
0.999993 1.0052 0.989218
0.998528 0.990055 1.00417
1.00964 0.995562 0.988599
1.01 0.992187 0.991324
0.999879 1.00196 0.992729
1.01159 1.00094 0.981622
1.01374 0.996196 0.981781
0.99928 1.00415 0.991701
0.999505 1.00649 0.989186
0.996934 1.00204 0.98753
1.01057 0.992 0.9911
1.0031 0.99068 0.996629
0.999774 1.0025 0.992277
1.0165 0.998131 0.975323
1.01454 0.99435 0.982563
1.01017 0.989624 0.993956
0.999284 1.00413 0.991745
0.996229 1.00332 0.986872
1.0061 0.986671 0.995586
1.00011 1.00155 0.992753
1.0001 1.00179 0.992433
1.00009 1.00192 0.992307
1.00014 1.00066 0.99352
1.00016 1.00108 0.993058
1.00017 1.00157 0.992567
1.00015 1.00093 0.993219
1.00015 1.00142 0.99272
1.00013 1.00171 0.99247
1.0001 1.00165 0.992578
1.00011 1.00125 0.992971
1.00014 1.00076 0.99342
1.0001 1.00051 0.993713
1.00015 1.00073 0.9934
1.00013 1.00096 0.993225
1.00014 1.00078 0.993337
1.0001 1.00119 0.993085
1.00012 1.00085 0.993322
1.00014 1.00125 0.992819
1.00015 1.00071 0.993425
1.00013 1.00075 0.993436
1.00013 1.00109 0.993053
1.00004 1.00095 0.993399
1.00005 1.00042 0.993921
1.00007 1.00083 0.99342
1.00008 0.999936 0.994337
1.00009 1.00034 0.993939
1.00006 1.00056 0.993738
1.00011 1.00043 0.993841
1.00008 1.00001 0.994221
1.00006 0.999336 0.994964
1.00009 1.00005 0.994196
1.00007 0.999336 0.994934
1.00003 0.9983 0.996025
1.00009 0.999331 0.994913
1.00005 0.99829 0.995995
0.999991 0.996738 0.997987
1.00007 0.998308 0.995949
1.00002 0.996734 0.997778
0.999989 0.995739 0.998754
1.00004 0.996726 0.997564
1 0.995739 0.999097
1 0.995722 0.999462
1.00006 0.999454 0.994743
1.00006 0.998262 0.995873
1.00007 0.999349 0.99498
1.00003 0.996613 0.99769
1.00007 0.998168 0.996011
1.00008 0.999199 0.994943
1 0.995634 0.999498
1.00004 0.996563 0.997721
1.00008 0.998094 0.996144
1.00001 0.995616 0.999504
1.00004 0.996544 0.997736
1 0.995637 0.999496
1.01169 0.999832 0.981826
1.00263 0.995128 1.00149
0.991379 0.992766 1.01261
1.0001 1.0002 0.994021
1.01426 0.994635 0.982184
1.01028 0.994706 0.989289
1.00408 0.988415 1.00643
1.00052 1.00141 0.991566
0.996215 1.00156 0.98681
0.994204 0.990504 1.01425
1.00792 0.986712 1.00279
1.00216 1.00096 0.98818
0.996379 1.00324 0.98402
0.999886 0.989187 1.0018
1.00989 0.989997 0.994538
1.00182 1.00351 0.986108
0.996778 1.0019 0.981802
1.00205 0.991695 0.994949
1.01005 0.992308 0.991733
1.00013 1.00111 0.993034
1.00011 1.00093 0.993299
1.0001 1.00046 0.993826
1.0001 1.0007 0.99352
1.00011 1.00059 0.993649
1.00012 1.00032 0.993935
1.00007 1.00017 0.994206
1.00008 1.00005 0.994303
1.00098 0.999377 0.992739
1.00032 1.00193 0.991887
1.00008 1.00129 0.992992
1.00014 1.00253 0.991629
1.00007 1.00215 0.992272
1.00005 1.00169 0.992675
1.00008 1.0016 0.992683
1.00086 1.00189 0.990693
1.00008 1.00197 0.992311
1.00008 1.0027 0.99161
1.00006 1.00353 0.990832
1.0001 1.00164 0.992578
1.00009 1.00456 0.989848
0.999905 1.00388 0.990852
1.00011 1.00239 0.99193
1.00009 1.0021 0.992169
1.0176 0.99927 0.973303
1.01242 1.002 0.979348
1.0025 0.99986 0.993308
0.999878 1.00188 0.992813
0.999315 1.00428 0.99145
1.01149 1.00114 0.980418
0.996992 1.00136 0.983427
0.999818 1.0064 0.987944
1.00196 0.990792 0.994584
1.01372 0.996052 0.981643
1.01109 0.992271 0.989791
0.9998 1.00253 0.99233
1.01643 0.998111 0.975265
1.01512 0.994433 0.981315
0.998984 1.00403 0.992561
1.00998 0.988825 0.995562
0.997457 1.00181 0.987178
1.00393 0.989441 0.993412
0.999984 1.00203 0.992421
1.01789 0.995431 0.975896
1.01427 0.993612 0.983204
1.00854 0.984642 1.00241
1.00188 0.990828 0.996055
0.998387 1.00578 0.992704
0.997349 1.00034 0.987902
1.0001 1.00179 0.992444
1.00008 1.00194 0.99229
0.999874 1.00207 0.992524
1.00015 1.0009 0.993246
1.00015 1.00143 0.992717
1.00015 1.00172 0.992423
1.00012 1.00122 0.992975
1.00009 1.00167 0.992572
0.999996 1.00205 0.992372
1.00014 1.00094 0.99323
1.00014 1.00077 0.993331
1.00011 1.00121 0.993037
1.00004 1.00182 0.99255
1.00011 1.00077 0.993436
1.00012 1.00125 0.992887
1.00016 1.00155 0.992581
1.00017 1.00119 0.992917
1.00015 1.00077 0.993439
1.00014 1.00112 0.993026
1.00005 1.00091 0.993487
0.999973 1.00062 0.993805
1.00004 1.00092 0.993446
1.00004 0.999976 0.994373
1.00005 1.00043 0.993914
1.00006 1.00083 0.993418
1.00005 0.999307 0.995012
1.00008 0.999938 0.994306
1.0001 1.00035 0.993892
1.00008 1 0.994254
1.00006 0.999333 0.994966
1.00001 0.998323 0.996044
1.00007 0.999336 0.994935
1.00003 0.998301 0.996025
0.999972 0.996765 0.997658
1.00005 0.998293 0.995995
0.999998 0.996733 0.997636
0.999951 0.995771 0.999481
1.00002 0.996726 0.997598
0.999982 0.995762 0.999109
0.999988 0.995742 0.999467
1.00006 0.999477 0.994697
1.00004 0.998371 0.995794
1.00005 0.999461 0.994814
1.00002 0.996674 0.997656
1.00006 0.998268 0.995863
1.00007 0.999349 0.994978
0.999995 0.995663 0.999492
1.00003 0.996607 0.997691
1.00007 0.99817 0.995931
1.00001 0.995631 0.9995
1.00004 0.996557 0.997723
1.00001 0.995617 0.999504
1.01675 0.997731 0.975473
1.01182 0.999825 0.981793
1.00253 0.995123 1.00131
1.0001 1.00018 0.99405
1.00013 1.0001 0.993989
1.00012 1.00065 0.993586
1.01472 0.994681 0.982028
1.01431 0.995132 0.982055
1.01034 0.995025 0.989408
1.00227 1.00153 0.989176
0.995563 1.00409 0.988939
1.00015 0.988925 1.00186
1.00987 0.990726 0.993995
1.0016 1.00378 0.98774
0.996363 1.00282 0.98605
1.00445 0.989699 0.99643
1.01061 0.992523 0.990482
1.00027 1.00595 0.988695
0.996837 1.00093 0.98479
1.00645 0.986929 0.994657
1.01062 0.991187 0.991093
1.00012 1.00124 0.992952
1.00013 1.00111 0.993049
1.00011 1.00097 0.993265
1.0001 1.00071 0.993512
1.00012 1.00056 0.993702
1.00008 1.00015 0.99422
1.00075 1.0019 0.990653
1.00007 1.00355 0.990827
1.00008 1.0016 0.992671
1.00008 1.00272 0.991599
1.00008 1.00201 0.992261
1.00009 1.00171 0.992535
1.00009 1.00211 0.992115
1.00009 1.0044 0.98979
1.00011 1.00239 0.99185
0.999885 1.00386 0.990794
1.00009 1.00205 0.992139
0.999614 1.00551 0.990138
0.99995 1.00335 0.991109
1.00013 1.00268 0.991488
1.01921 0.996195 0.973382
1.01747 0.998767 0.97315
1.01243 1.00155 0.9794
0.999822 1.00257 0.992384
0.998838 1.00451 0.992611
1.01636 0.998091 0.975207
0.99731 1.00178 0.990212
1.00635 0.986223 0.994974
1.01572 0.994527 0.980067
1.00999 0.989531 0.99499
0.999977 1.00211 0.992389
1.01803 0.995659 0.975344
1.01433 0.994073 0.983081
0.998457 1.00595 0.991086
1.00838 0.983977 1.003
1.0043 0.988526 0.997889
0.996262 1.00099 0.986662
0.999751 1.0024 0.992781
1.01669 0.996784 0.976519
1.01032 0.993219 0.990111
1.00371 0.98279 1.00991
0.999616 0.989287 1.00755
0.996635 1.00169 0.985477
0.997877 1.00847 0.989168
1.00007 1.00196 0.992273
0.999925 1.00201 0.992545
0.999685 1.00332 0.991654
1.00013 1.00118 0.992979
1.00009 1.00168 0.992565
0.999993 1.00202 0.992408
0.999935 1.00308 0.991369
1.00013 1.00123 0.992988
1.00007 1.00191 0.992461
1.00016 1.00212 0.992108
1.00009 1.00125 0.992954
1.00015 1.00154 0.992581
1.00025 1.00148 0.99255
1.00027 1.00112 0.992813
1.0001 1.00097 0.993206
1.00016 1.0012 0.992895
1.00014 1.00115 0.992998
1.00003 1.00064 0.993816
1.00004 1.00086 0.993516
0.99997 1.00018 0.994248
0.999982 1.00061 0.993868
1.00004 1.00089 0.993492
1.00001 0.999341 0.995046
1.00004 0.999974 0.994372
1.00006 1.00044 0.993906
0.999994 0.998342 0.996067
1.00005 0.999305 0.995013
1.00008 0.999939 0.994275
1.00006 0.99933 0.994967
1.00001 0.998323 0.996045
0.999943 0.996813 0.997671
1.00004 0.998302 0.996025
0.999973 0.996767 0.997658
0.999923 0.995865 0.999485
1 0.996736 0.997634
0.999956 0.995786 0.999125
0.999968 0.995762 0.999475
1.00008 0.999407 0.994847
1.00004 0.998406 0.995918
1.00007 0.999484 0.994743
1.00001 0.996746 0.997617
1.00004 0.99837 0.995867
1.00005 0.999468 0.994885
0.999981 0.995711 0.999484
1.00002 0.996666 0.997658
1.00005 0.998275 0.995853
0.999998 0.995664 0.999494
1.00003 0.996601 0.997693
1.00001 0.995629 0.999502
1.01808 0.995685 0.975348
1.01676 0.997931 0.97541
1.01195 0.999958 0.98176
1.00012 0.999988 0.994114
1.00016 1.00027 0.9939
1.00011 1.00016 0.99408
1.00013 1.00008 0.994002
1.00012 1.00067 0.993528
1.00014 1.0006 0.993569
1.00012 1.00096 0.993216
1.01408 0.995095 0.982688
1.01522 0.994847 0.980767
1.01437 0.995649 0.981927
1.01128 0.99271 0.989232
1.00179 1.00367 0.985996
0.996825 1.0027 0.988565
1.00398 0.986585 0.995571
1.00024 1.00584 0.987436
0.997942 1.0002 0.986484
1.00432 0.990026 0.992147
1.01044 0.990299 0.992551
0.999026 1.0076 0.989645
0.9979 0.999849 0.986432
1.00494 0.986492 0.997946
1.00892 0.987361 0.997771
1.00011 1.00158 0.992638
1.00012 1.00127 0.992938
1.00012 1.00112 0.993064
1.0001 1.00072 0.993505
1.00009 1.00424 0.989733
0.999865 1.00384 0.990737
1.00009 1.00178 0.992491
1.00009 1.00212 0.99206
1.00011 1.00239 0.99177
1.00009 1.00203 0.992206
1.00013 1.00269 0.991488
0.999501 1.00539 0.99015
0.99995 1.00328 0.991114
1.0001 1.00245 0.99177
0.999337 1.00524 0.990702
1 1.00366 0.990712
1.01775 0.998178 0.974119
1.01908 0.996165 0.973076
1.01734 0.998293 0.972996
0.999972 1.0022 0.992358
0.998413 1.00533 0.992786
1.01815 0.995896 0.974792
0.997332 1.00041 0.987634
1.00381 0.985717 0.996745
1.01439 0.994552 0.982957
1.00811 0.985494 1.00364
0.999815 1.00212 0.992831
1.01671 0.996975 0.976462
1.01039 0.993568 0.990233
0.99833 1.00928 0.989487
1.00478 0.982191 1.00951
0.999913 0.98831 1.00268
0.997542 1.00057 0.987407
0.999704 1.00458 0.99067
1.01174 0.998731 0.982835
1.00302 0.989803 1.00186
0.994194 0.990177 1.01609
0.99663 1.00219 0.983596
0.999451 1.00846 0.98678
0.999974 1.00194 0.992566
0.999706 1.00328 0.991692
0.999745 1.00438 0.9905
0.999991 1.002 0.992443
0.999909 1.00304 0.991482
1.00019 1.00291 0.991193
1.00011 1.002 0.992372
1.00016 1.00213 0.992042
1.00033 1.00165 0.992176
1.00014 1.00153 0.992581
1.00024 1.00147 0.992527
1.00036 1.00101 0.99274
1.00042 1.0006 0.99299
1.00022 1.00101 0.993024
1.00026 1.00111 0.992795
1.00006 1.0007 0.993557
1.0001 1.00096 0.993254
1.00015 1.00121 0.992872
0.999997 1.00028 0.994168
1.00002 1.00064 0.993767
1.00002 1.00082 0.993545
0.999965 0.999487 0.995
0.999974 1.00016 0.99429
0.999989 1.0006 0.99393
0.999961 0.998393 0.996085
1.00002 0.99934 0.995047
1.00005 0.999971 0.994371
0.999909 0.9969 0.997679
0.999994 0.998342 0.996069
1.00005 0.999303 0.995014
1.00002 0.998324 0.996046
0.999943 0.996817 0.997671
0.99989 0.995934 0.999489
0.999973 0.996769 0.997659
0.999918 0.995855 0.999487
0.999942 0.995793 0.999483
1.00013 0.999901 0.994269
1.00007 0.999354 0.994914
1.00003 0.99839 0.995945
1.00008 0.999409 0.994845
0.999989 0.9968 0.997597
1.00004 0.998405 0.995918
1.00007 0.999491 0.994789
0.999962 0.995771 0.999476
1.00001 0.996738 0.997619
1.00004 0.998368 0.995941
0.999984 0.995712 0.999487
1.00002 0.996658 0.99766
1 0.995666 0.999495
1.01678 0.996954 0.97602
1.0182 0.995927 0.97482
1.01678 0.998133 0.975347
1.00012 0.999989 0.994155
1.00016 1.00026 0.993851
1.00013 1.00022 0.993873
1.00015 1.00038 0.993696
1.00018 1.00049 0.993619
1.00013 1.00007 0.994015
1.00012 1.00069 0.99347
1.00015 1.00059 0.993568
1.00013 1.00091 0.993253
1.00013 1.00099 0.993215
1.01043 0.995227 0.988552
1.01393 0.995036 0.982556
1.01571 0.995021 0.979505
1.01041 0.991207 0.99158
1.00666 0.986617 0.99398
1.00036 1.00591 0.986863
0.996291 1.0018 0.985481
0.998662 1.00784 0.988166
0.996881 1.00035 0.985635
1.00363 0.99054 0.99556
1.00838 0.984819 1.00006
0.997823 1.00864 0.988802
0.996119 1.00181 0.985807
1.00009 0.987745 1.00213
1.00522 0.981854 1.0104
1.00006 1.00159 0.992719
1.00011 1.00156 0.992667
1.00012 1.0013 0.992923
0.999393 1.00528 0.990161
0.99995 1.00321 0.991118
1.00009 1.002 0.992272
1.00012 1.00271 0.991489
1.00008 1.00247 0.991803
0.999991 1.00369 0.990721
0.999318 1.00522 0.990729
0.999875 1.00328 0.991283
0.999437 1.00497 0.990777
1.01266 1.00143 0.980251
1.01762 0.997748 0.973919
1.01896 0.996138 0.97277
0.999883 1.00184 0.992882
0.998152 1.00923 0.988254
1.01672 0.997168 0.976404
0.995927 1.00191 0.984828
1.00015 0.988157 1.00258
1.01046 0.993872 0.990355
1.00578 0.981765 1.00911
0.999642 1.00454 0.990743
1.01187 0.998744 0.9828
1.00375 0.989245 1.00293
0.999059 1.00874 0.987435
0.995658 0.989645 1.00845
0.996164 1.00292 0.985052
0.999917 1.0056 0.989243
1.00263 0.995966 0.996742
0.99331 0.990171 1.01408
0.994998 1.003 0.988683
1.00064 1.00627 0.98711
0.999729 1.00324 0.991731
0.999728 1.00441 0.990509
1.00024 1.00387 0.990379
0.999882 1.00299 0.991596
1.00016 1.0029 0.991172
1.00052 1.00156 0.991859
1.00016 1.00214 0.991976
1.00031 1.00158 0.99221
1.0005 1.00055 0.992911
1.00023 1.00145 0.992503
1.00035 1.00095 0.992768
1.00053 1.00008 0.993286
1.00051 1.00009 0.99331
1.00034 1.00077 0.992977
1.00042 1.00056 0.993005
1.00015 1.00081 0.993333
1.00021 1.00103 0.99298
1.00025 1.00111 0.992778
1.00002 1.00031 0.994067
1.00006 1.00068 0.993603
1.0001 1.00095 0.993303
0.999951 0.999628 0.994888
0.99999 1.00028 0.994152
1.00002 1.00065 0.993718
0.999918 0.998506 0.996055
0.999969 0.99949 0.994998
0.999978 1.00014 0.994333
0.999863 0.996951 0.998032
0.999962 0.998394 0.996085
1.00002 0.999338 0.995047
0.999865 0.996009 0.998797
0.999904 0.996888 0.997854
0.999995 0.998341 0.99607
0.999943 0.99682 0.997671
0.999883 0.995923 0.999489
0.999912 0.995844 0.999488
1.00012 0.999863 0.994272
1.00007 0.9993 0.994967
1.00013 0.999894 0.994245
1.00002 0.998374 0.995988
1.00007 0.999356 0.994912
0.999968 0.996832 0.997607
1.00003 0.998393 0.995943
1.00008 0.999411 0.994844
0.999938 0.995829 0.999473
0.999989 0.996796 0.997597
1.00004 0.998404 0.995918
0.999965 0.995774 0.999478
1.00001 0.99673 0.997621
0.999987 0.995712 0.999489
1.01198 1.00037 0.980292
1.01671 0.996933 0.975965
1.01832 0.996175 0.974291
1.00011 1.00031 0.99395
1.00011 0.99999 0.994196
1.00017 1.00025 0.993802
1.00015 1.00039 0.993747
1.00013 1.00023 0.993926
1.00018 1.00045 0.993624
1.00016 1.00054 0.99355
1.00016 1.00066 0.993432
1.00015 1.00058 0.993567
1.00013 1.00087 0.99329
1.00014 1.00096 0.993222
1.00013 1.0011 0.993143
1.00345 0.987218 1.00818
1.01014 0.995195 0.988617
1.01379 0.994973 0.982425
1.0077 0.984794 1.00218
1.00265 0.990649 0.993424
0.997924 0.999848 0.986372
0.998745 1.00772 0.990116
0.998153 1.00955 0.990026
1.00523 0.981852 1.01016
0.997715 0.999901 0.985376
0.998766 0.989695 1.0071
0.998785 1.00698 0.990728
0.996359 1.00222 0.984462
0.993779 0.989906 1.01711
0.999931 1.00179 0.992795
1.00008 1.00156 0.992733
1.00011 1.00154 0.992695
0.999298 1.0052 0.990756
0.999983 1.00372 0.990731
1.00006 1.00249 0.991836
0.999898 1.00332 0.99131
0.999446 1.00497 0.990779
0.999603 1.004 0.991015
1.00312 0.996321 1.00196
1.01261 1.00127 0.978726
1.01749 0.99734 0.973718
0.999577 1.00451 0.990816
0.999454 1.00841 0.987575
1.01201 0.998893 0.982766
0.996709 1.00316 0.989252
0.994236 0.990059 1.01467
1.00424 0.987599 1.007
0.999877 1.00567 0.989235
1.00274 0.994322 1.0021
0.991199 0.991742 1.01902
1.00067 1.0064 0.985522
0.996354 1.0033 0.983947
1.00057 1.00443 0.989018
0.990247 0.991435 1.0185
0.995727 1.00039 0.988696
1.00203 1.00358 0.985547
0.999708 1.00443 0.990518
1.00019 1.00387 0.990191
1.00084 1.0015 0.991346
1.00012 1.00289 0.991151
1.0005 1.00148 0.991901
1.00075 0.999766 0.99321
1.0003 1.00151 0.992245
1.00049 1.00046 0.992944
1.00064 0.999363 0.99377
1.00034 1.00089 0.992795
1.00052 1.00005 0.993298
1.00057 0.999523 0.993723
1.00045 1 0.993478
1.00043 1.00041 0.993202
1.0005 1.00007 0.99331
1.00025 1.00069 0.993213
1.00032 1.00076 0.993018
1.00041 1.00052 0.993019
1.00006 1.00043 0.993878
1.00013 1.00081 0.99333
1.00019 1.00105 0.992936
0.99996 0.999728 0.994768
1.00003 1.00031 0.994064
1.00006 1.00066 0.99365
0.999888 0.998647 0.995976
0.999955 0.999629 0.994887
0.999983 1.00027 0.994135
0.999823 0.997052 0.997671
0.999921 0.998512 0.996053
0.999973 0.999493 0.994996
0.999808 0.99606 0.999493
0.999868 0.99695 0.997686
0.999963 0.998395 0.996085
0.999848 0.996013 0.999491
0.99991 0.99688 0.997682
0.999877 0.995912 0.99949
1.00008 0.999963 0.994386
1.00011 0.999865 0.994307
1.00006 0.999306 0.994987
1 0.998367 0.99602
1.00007 0.999303 0.994965
1.00013 0.999886 0.994222
0.999943 0.996864 0.997627
1.00002 0.998375 0.995987
1.00007 0.999358 0.994911
0.999911 0.995882 0.999476
0.999967 0.996831 0.997605
1.00003 0.998396 0.995941
0.999942 0.995838 0.999473
0.999988 0.996792 0.997597
0.999969 0.995777 0.999481
1.00346 0.995952 0.997912
1.01197 1.00038 0.980227
1.01665 0.996911 0.97591
1.00011 1.00032 0.993905
1.00012 1.00037 0.993827
1.00013 1.0005 0.993654
1.00014 1.0004 0.993798
1.00013 1.00025 0.99398
1.00018 1.00041 0.993629
1.00016 1.00064 0.993456
1.00016 1.00052 0.993583
1.00013 1.00089 0.993305
1.00009 1.00113 0.993139
1.00014 1.00092 0.993228
1.00013 1.00107 0.993119
0.991017 0.990223 1.01798
1.00313 0.988644 1.00712
1.00986 0.995163 0.988682
1.00519 0.981879 1.00992
0.998443 0.989314 1.00466
0.997591 1.00035 0.988077
0.997861 1.00892 0.988645
0.998675 1.00738 0.988784
0.995635 0.989823 1.00841
0.996481 1.00269 0.989132
0.999905 1.00572 0.98762
0.994969 1.0037 0.990991
0.999813 1.00249 0.992436
0.999949 1.00172 0.992816
1.0001 1.00154 0.992746
0.999452 1.00497 0.990781
0.99992 1.00336 0.991337
0.999768 1.00402 0.991019
1.00006 1.00298 0.991031
0.990116 0.989924 1.02319
1.00293 0.997751 0.997937
1.01255 1.00102 0.977201
0.999833 1.00575 0.989226
1.00076 1.00644 0.987079
1.00265 0.994305 1.00192
0.995472 1.00401 0.989003
0.992742 0.990874 1.01323
1.00053 1.00442 0.988859
0.990451 0.9915 1.01775
0.9944 1.00035 0.993256
1.0019 1.00384 0.987139
1.00155 1.00131 0.989943
0.995151 0.997113 0.991634
1.00182 1.00125 0.989705
1.00014 1.00388 0.990004
1.00079 1.00141 0.991375
1.00111 0.99902 0.993297
1.00047 1.0014 0.991944
1.00071 0.999674 0.993244
1.00073 0.998663 0.994276
1.00048 1.00038 0.992977
1.00063 0.999348 0.993768
1.00058 0.999151 0.99408
1.00051 1.00001 0.993309
1.00056 0.999547 0.99371
1.00047 0.999784 0.993667
1.0004 1.0002 0.993335
1.00046 1.00001 0.993467
1.00039 1.00028 0.993363
1.00034 1.00047 0.993304
1.00041 1.00041 0.993203
1.0005 1.00006 0.99331
1.00014 1.00046 0.993622
1.00024 1.00069 0.993261
1.0003 1.00074 0.993059
0.999971 0.999872 0.994601
1.00006 1.00043 0.993878
1.00011 1.00081 0.993327
0.99987 0.998781 0.995877
0.999964 0.999727 0.994767
1.00003 1.00031 0.994061
0.999777 0.997184 0.997631
0.999891 0.998654 0.995974
0.999958 0.99963 0.994887
0.999758 0.996234 0.999491
0.999825 0.997064 0.997669
0.999924 0.998519 0.996051
0.99981 0.996075 0.999146
0.99987 0.996961 0.997685
0.999837 0.99599 0.999492
1.00007 1.00006 0.99424
1.00009 0.999966 0.994311
1.00004 0.999389 0.994954
1.0001 0.999866 0.994342
1.00006 0.999306 0.994987
0.999988 0.998396 0.996028
0.999915 0.996905 0.997644
1 0.998368 0.996019
1.00007 0.999306 0.994963
0.999879 0.995939 0.99948
0.999942 0.996861 0.997626
1.00002 0.998376 0.995986
0.999915 0.995897 0.999475
0.999967 0.99683 0.997604
0.999947 0.995847 0.999474
0.991848 0.992533 1.01123
1.00316 0.995013 1.00158
1.01195 1.00039 0.980161
1.00011 1.00033 0.99386
1.00013 1.00049 0.993666
1.00012 1.00037 0.993848
1.00011 1.00048 0.993726
1.00013 1.00057 0.99357
1.00016 1.00062 0.993481
1.00016 1.00051 0.993616
1.00013 1.00087 0.993287
1.00009 1.00089 0.993326
1.0001 1.00111 0.993139
1.00014 1.00143 0.992773
1.00008 1.00115 0.993135
1.00013 1.00105 0.993095
0.996243 0.99938 0.988239
0.99202 0.99154 1.01509
1.00292 0.98894 1.00876
0.994777 0.990452 1.01334
0.996429 1.00218 0.982353
0.998802 1.007 0.990719
0.99987 1.00581 0.988486
0.995808 1.0027 0.985915
1.00078 1.0033 0.988417
1.00016 1.00256 0.991574
0.999826 1.00245 0.992403
0.999967 1.00165 0.992837
0.999931 1.00403 0.991022
1.00001 1.00292 0.991277
0.993521 0.994997 0.999845
0.991535 0.991692 1.01414
1.00275 0.999108 0.993913
1.00049 1.00439 0.988699
1.00207 1.00373 0.985465
0.991503 0.992219 1.01284
0.996181 1.00164 0.986733
1.00146 1.00136 0.989909
0.994443 0.997098 0.995822
1.00228 1.00086 0.987974
1.00177 0.998682 0.992201
1.00025 1.00242 0.992105
1.00075 1.00132 0.991403
1.00105 0.998941 0.993335
1.00073 0.998584 0.99443
1.00068 0.999583 0.993279
1.00071 0.9987 0.994255
1.00048 0.999223 0.994207
1.00062 0.999334 0.993765
1.00057 0.999212 0.994052
1.0004 0.999941 0.993675
1.00056 0.999573 0.993697
1.00046 0.999842 0.993647
1.00038 1.00033 0.993287
1.00041 1.00022 0.993345
1.00037 1.00049 0.993155
1.00046 1.00002 0.993456
1.0004 1.00026 0.993363
1.00034 1.00041 0.993343
1.00023 1.00038 0.993526
1.00033 1.00048 0.993296
1.0004 1.00041 0.993204
1.00001 1 0.994387
1.00014 1.00046 0.993661
1.00023 1.0007 0.993309
0.999858 0.998941 0.995741
0.999976 0.999869 0.9946
1.00006 1.00043 0.993877
0.999734 0.997327 0.997573
0.999874 0.998786 0.995875
0.999969 0.999725 0.994766
0.999705 0.996374 0.999483
0.99978 0.997199 0.997628
0.999894 0.99866 0.995972
0.999749 0.99622 0.999489
0.999826 0.997076 0.997667
0.999791 0.996086 0.999492
1.00006 1.00022 0.994036
1.00007 1.00007 0.994241
1.00003 0.999512 0.994781
1.00009 0.999969 0.994236
1.00004 0.999396 0.994902
0.999964 0.998484 0.995993
1.00006 0.999307 0.994987
0.999988 0.998394 0.996028
0.999885 0.996966 0.997646
0.999845 0.996004 0.999483
0.999915 0.9969 0.997643
1 0.998369 0.996018
0.999885 0.995957 0.999479
0.999942 0.996859 0.997625
0.99992 0.995912 0.999474
0.995761 0.997057 0.992706
0.990757 0.989985 1.02222
1.00292 0.995846 0.999415
1.00012 1.00048 0.993678
1.00012 1.00037 0.993869
1.00014 1.00057 0.993593
1.00011 1.00047 0.993757
1.00007 1.00067 0.99363
1.00011 1.00069 0.993524
1.00013 1.00086 0.993268
1.0001 1.00091 0.99332
1.00008 1.00113 0.993129
1.00007 1.00107 0.993138
1.00021 1.0012 0.992925
1.00047 1.00167 0.991923
1.00011 1.00142 0.992797
1.00006 1.00118 0.99313
1.00164 0.999841 0.991889
0.994789 0.999165 0.992568
0.99236 0.989625 1.01528
0.994643 1.00276 0.990082
1.00001 1.00588 0.989871
1.00068 1.00351 0.98981
1.00123 1.00126 0.990673
1.00016 1.00252 0.991455
0.999839 1.0024 0.992371
0.999954 1.00288 0.991523
0.999548 1.00146 0.992801
0.995126 0.99705 0.994354
0.990293 0.991758 1.01769
1.00136 1.00142 0.989875
1.00245 1.00151 0.98889
0.99348 0.997702 1.00011
1.00161 0.998787 0.992224
1.00021 1.00157 0.992229
1.00056 0.999859 0.993522
0.998642 1.00427 0.992898
1.00099 0.998862 0.993372
1.00069 0.998656 0.994408
1.00018 1.00025 0.993829
1.00068 0.99874 0.994234
1.00047 0.999317 0.99417
1.00025 1.00051 0.99346
1.00056 0.999273 0.994024
1.00039 0.999987 0.993662
1.00032 1.00064 0.993127
1.00046 0.999899 0.993626
1.00038 1.00034 0.993307
1.00035 1.00074 0.992959
1.00041 1.00023 0.993354
1.00037 1.00047 0.993172
1.00032 1.0006 0.99317
1.00041 1.00025 0.993362
1.00035 1.0004 0.993341
1.00025 1.00039 0.99354
1.00008 1.00006 0.99411
1.00023 1.00039 0.993573
1.00033 1.00049 0.993287
0.999863 0.999126 0.995545
1.00001 0.999997 0.994389
1.00013 1.00046 0.9937
0.999694 0.997486 0.997491
0.999862 0.998947 0.995738
0.99998 0.999866 0.994598
0.999652 0.996532 0.999471
0.999738 0.997342 0.997569
0.999878 0.998791 0.995874
0.999697 0.996359 0.99948
0.999782 0.997213 0.997625
0.999741 0.996205 0.999487
1.00003 1.00038 0.993981
1.00006 1.00021 0.994108
0.999998 0.999682 0.994663
1.00007 1.00007 0.994242
1.00002 0.999528 0.994767
0.999936 0.998614 0.995923
1.00004 0.999402 0.994849
0.999963 0.998479 0.995995
0.99985 0.997061 0.997626
0.999988 0.998392 0.996028
0.999885 0.996958 0.997646
0.999806 0.996085 0.999483
0.999851 0.996025 0.999483
0.999915 0.996896 0.997642
0.99989 0.995975 0.999478
1.00111 0.998984 0.994193
0.99401 0.995325 0.998268
0.99249 0.988964 1.01631
1.00008 1.0008 0.993525
1.00014 1.00056 0.993616
1.00011 1.00046 0.993788
1.00012 1.0007 0.9935
1.00007 1.00067 0.993625
1.00006 1.00092 0.993377
1.0001 1.00093 0.993313
1.00007 1.00115 0.993119
1.00009 1.00107 0.993182
1.00016 1.00118 0.993011
1.00031 1.00135 0.992484
1.00094 1.00123 0.991208
1.00042 1.00168 0.991959
1.00008 1.00141 0.992821
1.00154 0.998893 0.992233
1.00175 0.999842 0.990823
0.993545 0.99941 0.996943
1.00104 1.00339 0.988408
1.00123 1.00138 0.990445
1.00017 1.00247 0.991336
0.99874 1.00239 0.994897
0.999554 1.00221 0.993829
0.993525 0.995136 0.999596
1.00146 0.998914 0.992248
1.00041 1.00156 0.991593
1.00049 0.999934 0.993557
0.998751 1.00413 0.993018
0.99945 1.00256 0.992933
0.998745 1.00357 0.993324
1.00066 0.99873 0.994385
1.00017 1.00036 0.993805
0.999938 1.00173 0.992903
1.00046 0.999409 0.994133
1.00024 1.00052 0.993463
1.0002 1.00111 0.992952
1.00039 1.00003 0.993649
1.00032 1.00063 0.99315
1.00032 1.00098 0.99279
1.00038 1.00036 0.993328
1.00036 1.00074 0.99296
1.00031 1.00085 0.992949
1.00037 1.00045 0.993189
1.00032 1.00058 0.993159
1.00024 1.00056 0.993337
1.00035 1.00039 0.993338
1.00026 1.00038 0.99351
1.00011 1.00015 0.994018
0.999888 0.999299 0.995321
1.00008 1.00006 0.994167
1.00022 1.00039 0.993621
0.99966 0.997675 0.997367
0.999867 0.999129 0.995543
1.00002 0.999992 0.994391
0.999597 0.996704 0.999455
0.999699 0.997504 0.997486
0.999867 0.998952 0.995735
0.999643 0.996514 0.999467
0.999742 0.997358 0.997566
0.999688 0.996343 0.999477
1.00003 1.00053 0.993831
1.00003 1.00039 0.993982
0.999973 0.999854 0.994627
1.00006 1.00021 0.994179
0.999993 0.999685 0.994703
0.999905 0.998776 0.995827
1.00001 0.999543 0.994754
0.999935 0.998609 0.995924
0.999809 0.997192 0.997582
0.999962 0.998474 0.995996
0.999849 0.99705 0.997628
0.999761 0.99619 0.999477
0.999885 0.996951 0.997647
0.999813 0.996108 0.999483
0.999857 0.996046 0.999482
1.00034 0.998541 0.99521
1.001 0.998292 0.992771
0.995779 0.996185 0.993559
1.0001 1.00088 0.993329
1.0002 1.00082 0.99325
1.00006 1.00081 0.993498
1.00012 1.0007 0.993475
1.00006 1.00068 0.993621
1.00008 1.00093 0.993338
1.00028 1.00125 0.992616
1.0001 1.00108 0.993226
1.0001 1.00116 0.993096
1.0003 1.00134 0.99247
1.00064 1.00135 0.991651
1.00095 0.999567 0.992939
1.00094 1.00122 0.991302
1.00036 1.00169 0.991995
1.00153 0.998974 0.992241
1.00126 0.999318 0.990818
1.00124 1.0015 0.990217
0.998718 1.00134 0.995616
0.998703 1.00229 0.994907
0.999485 1.00094 0.993224
1.00043 0.999987 0.993593
0.998861 1.00398 0.993138
0.999532 1.00252 0.992925
0.998811 1.00345 0.993474
0.999394 1.00291 0.992833
0.998913 1.00255 0.994504
1.00015 1.00046 0.993782
0.999942 1.00165 0.992951
0.999959 1.00184 0.992752
1.00023 1.00053 0.993466
1.0002 1.00109 0.992959
1.00018 1.00125 0.992793
1.00033 1.00063 0.993174
1.00032 1.00098 0.992787
1.00029 1.00104 0.992798
1.00036 1.00074 0.992961
1.00031 1.00084 0.992949
1.00024 1.0008 0.99314
1.00033 1.00056 0.993147
1.00025 1.00055 0.993334
1.00011 1.00034 0.993842
1.00026 1.00038 0.993479
1.00011 1.00014 0.993992
0.999902 0.99949 0.995099
0.99964 0.997898 0.997228
0.99989 0.999298 0.995322
1.00007 1.00005 0.994223
0.999542 0.996897 0.99943
0.999666 0.997694 0.99736
0.99987 0.999132 0.995541
0.999588 0.996685 0.999449
0.999704 0.997522 0.997481
0.999634 0.996495 0.999463
1.00008 1.00063 0.993572
1.00003 1.00054 0.99379
0.999978 1.00002 0.994457
1.00003 1.00039 0.993983
0.999969 0.999853 0.994628
0.999875 0.998963 0.995705
0.999989 0.999687 0.994743
0.999902 0.998771 0.995828
0.999762 0.997355 0.997518
0.999933 0.998603 0.995925
0.999808 0.997178 0.997584
0.999707 0.996325 0.999466
0.999849 0.997039 0.997629
0.999769 0.996212 0.999479
0.99982 0.99613 0.999484
1.00003 0.99904 0.995443
1.00034 0.998673 0.995163
1.00072 0.999011 0.994643
1.00029 1.00093 0.992956
1.00007 1.00088 0.99338
1.00026 1.00092 0.992855
1.0002 1.00082 0.993237
1.00004 1.00083 0.993472
1.00052 1.00131 0.992036
1.00009 1.00094 0.993299
1.00028 1.00125 0.992598
1.00067 1.00045 0.992521
1.0003 1.00132 0.992455
1.00069 1.00136 0.991577
1.001 0.999538 0.99288
1.00095 1.00121 0.991397
1.00152 0.999054 0.992249
0.998954 1.00135 0.995425
0.998693 1.00145 0.995553
0.998669 1.0022 0.994918
0.999612 1.00248 0.992918
0.998877 1.00332 0.993624
0.999405 1.00292 0.992742
0.998904 1.00232 0.994601
0.999203 1.00204 0.994109
0.999946 1.00157 0.992999
0.999963 1.00174 0.992795
0.999894 1.00158 0.993132
1.0002 1.00107 0.992967
1.00021 1.00125 0.992761
1.00018 1.00115 0.992914
1.00033 1.00098 0.992784
1.00029 1.00104 0.992798
1.00022 1.00101 0.992962
1.00031 1.00084 0.992949
1.00024 1.0008 0.993141
1.0001 1.00061 0.993591
1.00025 1.00054 0.99333
1.00011 1.00033 0.993845
0.999888 0.99976 0.994857
1.00011 1.00014 0.993967
0.999904 0.999486 0.995101
0.999602 0.998149 0.997489
0.999489 0.997133 0.998543
0.999639 0.997916 0.997422
0.999891 0.999297 0.995323
0.999533 0.996879 0.999421
0.999672 0.997712 0.997353
0.99958 0.996665 0.999442
1.00031 1.00096 0.99284
1.00011 1.00079 0.993328
1.00009 1.00064 0.993544
0.999998 1.00016 0.994271
1.00003 1.00055 0.993748
0.999972 1.00002 0.994458
0.999853 0.999156 0.995558
0.999966 0.999852 0.994628
0.99987 0.998959 0.995707
0.999709 0.997547 0.997437
0.9999 0.998766 0.995829
0.99976 0.997341 0.997521
0.999644 0.996491 0.999451
0.999807 0.997165 0.997587
0.999718 0.996345 0.99947
0.999778 0.996234 0.999481
0.99998 1.00019 0.994399
1.00005 0.999011 0.995348
1.00034 0.998808 0.995116
1.00047 1.00105 0.992439
1.00025 1.00092 0.99304
1.00005 1.00088 0.993431
1.0003 1.0009 0.992894
1.00019 1.00083 0.993224
1.00051 1.00099 0.992282
1.00054 1.00135 0.99199
1.00028 1.00124 0.99258
1.00072 1.00046 0.992468
1.00074 1.00137 0.991504
1.00106 0.999509 0.99282
0.99873 1.00156 0.995261
0.998871 1.00145 0.995382
0.998665 1.00157 0.99549
0.999416 1.00293 0.992651
0.998899 1.0021 0.994697
0.999209 1.00203 0.994075
0.999255 1.00184 0.99414
0.999967 1.00164 0.992839
0.999965 1.00153 0.993033
0.999928 1.00118 0.993423
1.00025 1.00125 0.992729
1.00018 1.00116 0.99291
1.00014 1.00115 0.992996
1.00029 1.00104 0.992798
1.00022 1.00101 0.992966
1.00009 1.00088 0.993352
1.00024 1.0008 0.993143
1.0001 1.00061 0.993593
0.999861 1.00011 0.994567
1.00011 1.00033 0.993847
0.999893 0.999753 0.994857
0.999533 0.998481 0.99732
0.999907 0.999482 0.995102
0.999593 0.998171 0.997465
0.999407 0.997397 0.998429
0.999487 0.997099 0.998963
0.999638 0.997934 0.997617
0.999524 0.99686 0.999411
1.00043 1.00104 0.992467
1.00018 1.0009 0.993249
1.00028 1.00093 0.992921
1.00001 1.00038 0.994025
1.00012 1.0008 0.993344
1.0001 1.00064 0.993516
0.999992 1.00017 0.994271
0.999833 0.999369 0.995385
0.999966 1.00002 0.994459
0.999847 0.999155 0.99556
0.999652 0.997762 0.997341
0.999866 0.998955 0.995709
0.999705 0.997533 0.997441
0.999571 0.996688 0.999432
0.999757 0.997327 0.997525
0.999657 0.996508 0.999456
0.999729 0.996364 0.999473
0.999772 1.00105 0.993906
0.99993 1.00021 0.994411
1.00007 0.99898 0.995253
1.00041 1.00092 0.992482
1.00047 1.00105 0.99243
1.00022 1.00091 0.993124
1.00034 1.00088 0.992932
1.00055 1.00099 0.992294
1.00056 1.0014 0.991945
1.00077 1.00048 0.992415
0.998843 1.00188 0.994858
0.99886 1.00163 0.995089
0.998787 1.00155 0.995339
0.999085 1.00203 0.994316
0.999213 1.00203 0.994041
0.999254 1.00186 0.994125
0.999482 1.00155 0.993981
1.00004 1.00149 0.992934
0.999913 1.0012 0.99343
0.999915 1.00126 0.993366
1.00019 1.00116 0.992905
1.00013 1.00116 0.993005
1.00002 1.00111 0.993278
1.00021 1.00101 0.992969
1.00009 1.00088 0.993357
0.999829 1.00048 0.994269
1.0001 1.0006 0.993596
0.999866 1.0001 0.994568
0.99944 0.998896 0.997116
0.999897 0.999747 0.994858
0.999524 0.998496 0.997291
0.9993 0.997759 0.998315
0.999584 0.998193 0.99744
0.999412 0.997355 0.998442
0.999484 0.997064 0.999384
1.00053 1.00088 0.992486
1.00031 1.001 0.992759
1.00041 1.00105 0.992534
1.00005 1.00057 0.993889
1.00018 1.00091 0.993198
1.00025 1.0009 0.993001
0.999822 0.999639 0.995137
1 1.0004 0.994024
1.00013 1.0008 0.99336
0.999986 1.00017 0.99427
0.999827 0.99937 0.995387
0.999592 0.998007 0.997221
0.999842 0.999153 0.995562
0.999646 0.997749 0.997346
0.99949 0.996913 0.99941
0.999701 0.997519 0.997446
0.999586 0.996702 0.999438
0.99967 0.996525 0.99946
0.999812 1.00127 0.993612
0.999867 1.00101 0.993793
0.99988 1.00023 0.994423
1.00053 1.00089 0.992357
1.00048 1.00105 0.99242
1.00059 1.00099 0.992306
0.998878 1.00238 0.994323
0.998797 1.00199 0.994917
0.998991 1.0017 0.994918
0.999102 1.00207 0.994253
0.99916 1.002 0.994167
0.999252 1.00189 0.99411
0.999472 1.00155 0.993982
0.999587 1.00151 0.993875
0.999896 1.00122 0.993436
0.999904 1.00126 0.993378
0.999828 1.0013 0.993488
1.00012 1.00116 0.993014
1.00001 1.0011 0.993286
0.999759 1.00082 0.994079
1.00008 1.00088 0.993363
0.99983 1.00047 0.994272
0.999308 0.999391 0.996847
0.99987 1.00009 0.994569
0.999433 0.998905 0.997081
0.999162 0.998211 0.998172
0.999515 0.998511 0.997262
0.999303 0.997712 0.99833
0.999415 0.997311 0.998455
1.00023 1.00054 0.993561
1.00043 1.00094 0.992597
1.00056 1.00087 0.992469
1.00015 1.00079 0.993372
1.00032 1.001 0.992795
1.00039 1.00105 0.992601
0.99984 0.99991 0.994847
1.00005 1.0006 0.99377
1.00018 1.00092 0.993148
0.999538 0.998298 0.997041
0.999815 0.999641 0.99514
0.999998 1.00041 0.994022
0.999822 0.999371 0.995388
0.999584 0.997994 0.997227
0.999401 0.997171 0.99938
0.999641 0.997735 0.997351
0.999507 0.996924 0.999416
0.999602 0.996715 0.999443
0.999408 1.00233 0.993362
0.99985 1.00122 0.993573
0.99996 1.00096 0.993681
1.00065 1.00088 0.992233
0.998954 1.00253 0.994082
0.998845 1.00242 0.994392
0.998751 1.0021 0.994976
0.999117 1.00211 0.99419
0.999151 1.00202 0.994202
0.99919 1.00185 0.994244
0.999462 1.00155 0.993983
0.999577 1.0015 0.993861
0.99955 1.00156 0.993858
0.999893 1.00126 0.99339
0.999817 1.0013 0.993499
0.999586 1.00114 0.99413
1.00001 1.0011 0.993295
0.999754 1.00081 0.994087
0.999182 0.999967 0.996056
0.999831 1.00046 0.994276
0.999318 0.999423 0.99654
0.998983 0.998556 0.999167
0.999426 0.998914 0.997046
0.999163 0.998162 0.998191
0.999306 0.997663 0.998346
0.999832 1.00146 0.993472
1.00029 1.00063 0.993277
1.00016 1.00058 0.993518
1.00019 1.0009 0.993004
1.00042 1.0009 0.992698
1.0006 1.00085 0.992453
0.999891 1.00023 0.994297
1.00016 1.00079 0.993376
1.00033 1.00099 0.99283
0.999498 0.998632 0.996783
0.999836 0.999937 0.994742
1.00005 1.00062 0.993652
0.99931 0.99747 0.999335
0.999526 0.998286 0.99705
0.999808 0.999643 0.995142
0.999576 0.997982 0.997233
0.999419 0.997177 0.999389
0.999524 0.996934 0.999423
0.999073 1.00281 0.993511
0.999322 1.00227 0.993528
0.999887 1.00116 0.993534
0.998905 1.00227 0.994452
0.998963 1.00253 0.994091
0.998811 1.00246 0.994461
0.999144 1.00204 0.994238
0.999193 1.00185 0.994254
0.999122 1.00187 0.994413
0.999567 1.0015 0.993848
0.999537 1.00156 0.993889
0.9993 1.00146 0.99437
0.999806 1.00131 0.993509
0.999578 1.00113 0.99414
0.99899 1.00046 0.995979
0.99975 1.00081 0.994095
0.999193 0.999951 0.996053
0.998842 0.998997 0.999125
0.999326 0.999454 0.996233
0.998966 0.998625 0.998599
0.999164 0.998111 0.99821
0.999507 1.00228 0.993375
0.999899 1.0011 0.99355
0.999794 1.00146 0.993432
1.00009 1.00086 0.993334
1.00023 1.00065 0.993308
1.0001 1.00062 0.993475
0.999914 1.0005 0.99393
1.0002 1.00088 0.993095
1.00041 1.00087 0.992798
0.999462 0.999013 0.996463
0.999893 1.00025 0.994239
1.00016 1.00078 0.99338
0.999215 0.997813 0.999271
0.999483 0.998623 0.996795
0.999831 0.999964 0.994638
0.999328 0.997469 0.999349
0.999514 0.998274 0.99706
0.999437 0.997183 0.999398
0.999051 1.00241 0.993923
0.999097 1.00275 0.993544
0.999237 1.00221 0.993694
0.998857 1.00215 0.994679
0.998955 1.00225 0.994388
0.998971 1.00253 0.994101
0.999197 1.00185 0.994264
0.999126 1.00185 0.994418
0.998915 1.00177 0.994841
0.999525 1.00156 0.99392
0.999314 1.00146 0.994374
0.998729 1.00089 0.996108
0.999569 1.00113 0.994151
0.998991 1.00044 0.995985
0.998626 0.999456 0.999092
0.999203 0.999935 0.99605
0.998789 0.999042 0.999113
0.998952 0.998696 0.998031
0.999511 1.00188 0.993653
0.999495 1.00233 0.993261
0.99978 1.00118 0.993704
0.999878 1.0011 0.993575
0.999754 1.00145 0.993392
0.999815 1.00068 0.994064
1.00011 1.00086 0.993321
1.00016 1.00067 0.993339
0.999396 0.999435 0.996154
0.999922 1.0005 0.993961
1.00022 1.00087 0.993185
0.999109 0.998203 0.999194
0.999445 0.999011 0.996476
0.999895 1.00027 0.99418
0.999235 0.997803 0.999291
0.999467 0.998615 0.996807
0.999346 0.997467 0.999363
0.999101 1.00209 0.994267
0.9991 1.00238 0.993907
0.99912 1.0027 0.993577
0.998734 1.00194 0.995064
0.998865 1.00211 0.994688
0.999005 1.00223 0.994325
0.999131 1.00184 0.994422
0.998954 1.00176 0.994783
0.998459 1.00121 0.99637
0.999327 1.00145 0.994378
0.998722 1.00087 0.996121
0.998375 0.999856 0.999106
0.998992 1.00042 0.995991
0.998561 0.999503 0.999093
0.998735 0.999087 0.9991
0.999437 1.00172 0.99394
0.999514 1.00193 0.993594
0.999484 1.00238 0.993148
0.999532 1.00104 0.994322
0.999774 1.00118 0.993709
0.999858 1.0011 0.993599
0.999234 0.999872 0.996029
0.999827 1.00069 0.99405
1.00012 1.00087 0.993307
0.99897 0.998634 0.999123
0.999383 0.999442 0.996162
0.99993 1.00051 0.993993
0.999133 0.998182 0.999217
0.999428 0.999009 0.996489
0.999254 0.997793 0.99931
0.9989 1.00182 0.994903
0.999073 1.00211 0.99426
0.999149 1.00235 0.993891
0.998306 1.00133 0.996561
0.998737 1.00194 0.995057
0.998872 1.00208 0.994698
0.998993 1.00175 0.994726
0.998449 1.0012 0.996383
0.998128 1.00014 0.99916
0.998716 1.00086 0.996133
0.998306 0.999895 0.999121
0.998496 0.999549 0.999094
0.999173 1.0015 0.99463
0.999411 1.00174 0.993947
0.999518 1.00198 0.993534
0.998947 1.00022 0.996718
0.999534 1.00105 0.994317
0.999768 1.00118 0.993715
0.998747 0.999085 0.999105
0.999235 0.999888 0.996023
0.999838 1.0007 0.994036
0.999006 0.998603 0.999143
0.999371 0.999449 0.996169
0.999158 0.998162 0.99924
0.998352 1.00122 0.996542
0.99889 1.00184 0.994879
0.999046 1.00213 0.994253
0.997968 1.00027 0.999216
0.998304 1.00133 0.996562
0.998741 1.00193 0.995049
0.99844 1.00118 0.996396
0.998076 1.00017 0.999179
0.998237 0.999934 0.999135
0.998597 1.00069 0.996898
0.999173 1.0015 0.994629
0.999383 1.00176 0.993955
0.998527 0.999485 0.999125
0.998978 1.00037 0.996106
0.999535 1.00105 0.994311
0.998811 0.999046 0.999106
0.999235 0.999904 0.996017
0.999042 0.998572 0.999163
0.997994 1.00057 0.998133
0.998391 1.00112 0.996773
0.998881 1.00186 0.994855
0.997963 1.00027 0.999221
0.998302 1.00133 0.996564
0.998023 1.00019 0.999198
0.99825 1.0002 0.998003
0.998658 1.00078 0.996579
0.999173 1.0015 0.994627
0.998542 0.99964 0.998531
0.998962 1.0004 0.996105
0.998876 0.999007 0.999107
0.998002 1.00019 0.999216
0.998396 1.00122 0.996491
0.997957 1.00027 0.999226
0.998213 1.0001 0.998603
0.998646 1.00088 0.996295
0.998618 0.999449 0.999112
0.998082 1.00015 0.999196
0.998324 0.999852 0.999152

TENSORS stress float
0.00119479 1.80721e-05 6.35524e-06
1.80721e-05 0.000121195 -3.23575e-06
6.35524e-06 -3.23575e-06 0.000128263
0.00219119 -1.64702e-05 3.57326e-06
-1.64702e-05 0.000582834 2.21707e-06
3.57326e-06 2.21707e-06 0.000600929
0.001165 1.82669e-05 2.29906e-06
1.82669e-05 0.000106121 -1.3659e-06
2.29906e-06 -1.3659e-06 0.000113626
0.00119914 1.76759e-05 8.11159e-06
1.76759e-05 0.000175807 -2.56963e-06
8.11159e-06 -2.56963e-06 0.000170666
0.00120213 1.85353e-05 6.90629e-06
1.85353e-05 0.000139065 -3.04526e-06
6.90629e-06 -3.04526e-06 0.000142562
0.0011824 1.72689e-05 5.82929e-06
1.72689e-05 0.00010428 -3.40471e-06
5.82929e-06 -3.40471e-06 0.000114332
0.00116992 1.33919e-05 2.816e-06
1.33919e-05 9.6149e-05 -1.16181e-06
2.816e-06 -1.16181e-06 8.88301e-05
0.00227371 -1.63594e-05 4.21175e-08
-1.63594e-05 0.000621451 -6.47055e-08
4.21175e-08 -6.47055e-08 0.000639432
0.00250772 -1.86147e-05 1.92841e-06
-1.86147e-05 0.000763226 7.02057e-07
1.92841e-06 7.02057e-07 0.00077407
0.00231683 -1.75254e-05 1.60663e-06
-1.75254e-05 0.000649274 7.76743e-07
1.60663e-06 7.76743e-07 0.00066561
0.00106791 -1.5471e-05 3.31718e-06
-1.5471e-05 3.55e-05 2.09935e-06
3.31718e-06 2.09935e-06 5.08079e-05
0.000947834 -1.22163e-05 2.91008e-06
-1.22163e-05 -2.18204e-05 1.39634e-06
2.91008e-06 1.39634e-06 -2.30402e-05
0.000872516 -9.14323e-06 5.4578e-06
-9.14323e-06 0.000100402 3.60034e-07
5.4578e-06 3.60034e-07 8.44673e-05
0.00106404 -1.66252e-05 2.27072e-06
-1.66252e-05 0.000135502 2.57978e-07
2.27072e-06 2.57978e-07 0.000126871
0.00113324 1.84594e-05 -1.76068e-06
1.84594e-05 9.01189e-05 4.96245e-07
-1.76068e-06 4.96245e-07 9.80695e-05
0.00115426 1.78915e-05 2.97255e-06
1.78915e-05 0.000154176 -1.08869e-06
2.97255e-06 -1.08869e-06 0.000149476
0.00115745 1.74536e-05 2.10119e-06
1.74536e-05 9.13672e-05 -1.42232e-06
2.10119e-06 -1.42232e-06 0.000101837
0.00116684 1.87415e-05 2.51104e-06
1.87415e-05 0.000121526 -1.29099e-06
2.51104e-06 -1.29099e-06 0.000125479
0.00117097 1.32508e-05 -4.56089e-07
1.32508e-05 9.74829e-05 1.79906e-07
-4.56089e-07 1.79906e-07 9.01495e-05
0.00233104 1.03698e-05 5.8009e-06
1.03698e-05 0.000789424 -7.31346e-07
5.8009e-06 -7.31346e-07 0.000784303
0.00119664 1.60772e-05 8.75727e-06
1.60772e-05 0.000196457 -2.12497e-06
8.75727e-06 -2.12497e-06 0.000186794
0.00120381 1.84637e-05 7.49503e-06
1.84637e-05 0.000157541 -2.82562e-06
7.49503e-06 -2.82562e-06 0.000156914
0.00116884 1.28142e-05 3.09067e-06
1.28142e-05 0.000134673 -8.36689e-07
3.09067e-06 -8.36689e-07 0.00011452
0.00117509 1.36123e-05 2.93072e-06
1.36123e-05 0.000109251 -1.04186e-06
2.93072e-06 -1.04186e-06 9.80713e-05
0.00117352 1.62777e-05 5.35344e-06
1.62777e-05 9.14574e-05 -3.54778e-06
5.35344e-06 -3.54778e-06 0.000103945
0.00115792 1.29306e-05 2.67531e-06
1.29306e-05 8.25117e-05 -1.27994e-06
2.67531e-06 -1.27994e-06 7.85145e-05
0.00140726 5.88405e-06 1.23848e-06
5.88405e-06 0.000191013 -1.18511e-07
1.23848e-06 -1.18511e-07 0.000161813
0.00235661 -1.62492e-05 -3.33646e-06
-1.62492e-05 0.000660226 -2.2094e-06
-3.33646e-06 -2.2094e-06 0.000678095
0.00183753 -1.85852e-05 -1.29602e-06
-1.85852e-05 0.000442157 -7.80861e-07
-1.29602e-06 -7.80861e-07 0.000449233
0.00173003 -1.74682e-05 -1.05228e-06
-1.74682e-05 0.000367917 -8.18351e-07
-1.05228e-06 -8.18351e-07 0.000381349
0.00217959 -1.53922e-05 4.43929e-08
-1.53922e-05 0.000569603 -5.10671e-08
4.43929e-08 -5.10671e-08 0.00058929
0.000912405 -1.23354e-05 8.38105e-08
-1.23354e-05 -3.84843e-05 -1.5308e-08
8.38105e-08 -1.5308e-08 -3.95045e-05
0.0010311 -1.83078e-05 5.06979e-06
-1.83078e-05 7.57305e-05 1.51024e-06
5.06979e-06 1.51024e-06 7.51856e-05
0.0010715 -1.81534e-05 4.29536e-06
-1.81534e-05 6.3928e-05 1.82611e-06
4.29536e-06 1.82611e-06 7.16601e-05
0.00156529 -1.30384e-05 3.54452e-06
-1.30384e-05 0.000293441 1.15579e-06
3.54452e-06 1.15579e-06 0.000284281
0.00215741 -1.43739e-05 1.30506e-06
-1.43739e-05 0.000550802 9.2745e-07
1.30506e-06 9.2745e-07 0.00057202
0.001535 -1.26103e-05 3.13695e-06
-1.26103e-05 0.000265608 1.36338e-06
3.13695e-06 1.36338e-06 0.000264135
0.000927659 -1.16174e-05 3.54021e-06
-1.16174e-05 -3.53711e-05 2.31428e-06
3.54021e-06 2.31428e-06 -3.44259e-05
0.00102451 -5.77288e-06 1.8793e-06
-5.77288e-06 6.07927e-06 8.21126e-07
1.8793e-06 8.21126e-07 -1.79061e-05
0.00212117 -1.19406e-05 2.69574e-06
-1.19406e-05 0.000524009 2.70241e-06
2.69574e-06 2.70241e-06 0.000546785
0.00220851 -9.68177e-06 2.31745e-08
-9.68177e-06 0.000736766 -1.25756e-07
2.31745e-08 -1.25756e-07 0.000731617
0.00175454 -1.59665e-05 -1.56766e-06
-1.59665e-05 0.000470239 -5.39779e-07
-1.56766e-06 -5.39779e-07 0.000465723
0.00201074 -5.0648e-06 5.07577e-06
-5.0648e-06 0.000662904 1.71212e-07
5.07577e-06 1.71212e-07 0.000656375
0.00102094 -1.39697e-05 2.33763e-06
-1.39697e-05 0.000141494 2.03491e-07
2.33763e-06 2.03491e-07 0.000128765
0.000616693 -7.64731e-06 5.43605e-06
-7.64731e-06 -6.11265e-05 1.69198e-07
5.43605e-06 1.69198e-07 -9.36256e-05
0.00254883 -1.78555e-05 2.21353e-06
-1.78555e-05 0.000821737 5.41728e-07
2.21353e-06 5.41728e-07 0.000825882
0.00134609 -1.16649e-05 5.41456e-06
-1.16649e-05 0.000241415 1.07831e-06
5.41456e-06 1.07831e-06 0.000219934
0.00110749 1.81129e-05 -2.18026e-06
1.81129e-05 0.00013162 3.65581e-07
-2.18026e-06 3.65581e-07 0.000127371
0.00112894 1.89463e-05 -1.89377e-06
1.89463e-05 0.000102734 4.44003e-07
-1.89377e-06 4.44003e-07 0.000107154
0.00113151 1.76366e-05 -1.63175e-06
1.76366e-05 7.79944e-05 5.49643e-07
-1.63175e-06 5.49643e-07 8.8884e-05
0.0011727 1.31101e-05 -3.7274e-06
1.31101e-05 9.9142e-05 1.52099e-06
-3.7274e-06 1.52099e-06 9.17904e-05
0.00160408 9.86637e-06 -3.7262e-08
9.86637e-06 0.000444308 -7.96903e-08
-3.7262e-08 -7.96903e-08 0.000433733
0.00114228 1.62724e-05 3.20767e-06
1.62724e-05 0.000170689 -9.52246e-07
3.20767e-06 -9.52246e-07 0.000161386
0.00115022 1.64515e-05 1.92672e-06
1.64515e-05 7.91902e-05 -1.46423e-06
1.92672e-06 -1.46423e-06 9.20761e-05
0.00116327 1.86763e-05 2.73619e-06
1.86763e-05 0.000137736 -1.20174e-06
2.73619e-06 -1.20174e-06 0.000137563
0.00116256 1.26895e-05 -7.38621e-07
1.26895e-05 0.000131932 1.75962e-07
-7.38621e-07 1.75962e-07 0.000111871
0.00116322 1.28032e-05 -3.93127e-07
1.28032e-05 8.59707e-05 1.74761e-07
-3.93127e-07 1.74761e-07 8.19218e-05
0.0011728 1.3468e-05 -5.34322e-07
1.3468e-05 0.000108814 1.82466e-07
-5.34322e-07 1.82466e-07 9.76627e-05
0.00136204 5.81052e-06 -7.05474e-07
5.81052e-06 0.000169397 4.89512e-07
-7.05474e-07 4.89512e-07 0.000139891
0.00223833 7.43388e-06 5.69505e-06
7.43388e-06 0.000760816 -3.53563e-07
5.69505e-06 -3.53563e-07 0.000754377
0.00117855 1.35949e-05 9.12592e-06
1.35949e-05 0.000212243 -1.51142e-06
9.12592e-06 -1.51142e-06 0.000198772
0.00128248 7.21282e-06 2.30239e-06
7.21282e-06 0.000253352 3.09154e-09
2.30239e-06 3.09154e-09 0.000225657
0.00116621 1.17127e-05 3.17912e-06
1.17127e-05 0.000149273 -5.98397e-07
3.17912e-06 -5.98397e-07 0.00012465
0.00117443 1.34573e-05 3.01678e-06
1.34573e-05 0.00012212 -9.33799e-07
3.01678e-06 -9.33799e-07 0.000106604
0.001317 5.49376e-06 1.01689e-06
5.49376e-06 0.000166356 -3.29444e-08
1.01689e-06 -3.29444e-08 0.000124549
0.00123976 5.93684e-06 1.56531e-06
5.93684e-06 0.000114665 -3.5351e-07
1.56531e-06 -3.5351e-07 8.03182e-05
0.001246 1.50483e-05 4.94565e-06
1.50483e-05 0.000118355 -3.66087e-06
4.94565e-06 -3.66087e-06 0.000132571
0.00117191 1.23619e-05 2.49739e-06
1.23619e-05 8.29049e-05 -1.35872e-06
2.49739e-06 -1.35872e-06 8.19209e-05
0.00140218 5.77122e-06 1.24243e-06
5.77122e-06 0.000186232 -2.05605e-07
1.24243e-06 -2.05605e-07 0.000160404
0.00109692 2.2826e-06 9.71428e-07
2.2826e-06 2.81541e-05 -3.21763e-07
9.71428e-07 -3.21763e-07 -1.68856e-05
0.00262811 -1.83741e-05 -4.27221e-06
-1.83741e-05 0.00081951 -1.90778e-06
-4.27221e-06 -1.90778e-06 0.000830288
0.00229408 -1.52121e-05 -3.11442e-06
-1.52121e-05 0.000623446 -2.32183e-06
-3.11442e-06 -2.32183e-06 0.000642878
0.00243418 -1.71853e-05 -3.60679e-06
-1.71853e-05 0.00070537 -2.09959e-06
-3.60679e-06 -2.09959e-06 0.00072133
0.000877111 -1.24543e-05 -2.80427e-06
-1.24543e-05 -5.508e-05 -1.47883e-06
-2.80427e-06 -1.47883e-06 -5.59015e-05
0.00253172 -1.815e-05 5.19039e-08
-1.815e-05 0.000794066 -9.51185e-08
5.19039e-08 -9.51185e-08 0.000801296
0.00238191 -1.80031e-05 4.41378e-08
-1.80031e-05 0.000692705 -6.30301e-08
4.41378e-08 -6.30301e-08 0.000706224
0.000898703 -1.33187e-05 1.01715e-07
-1.33187e-05 -2.65228e-05 -4.82267e-08
1.01715e-07 -4.82267e-08 -3.89896e-05
0.00164652 -1.4299e-05 -8.1364e-07
-1.4299e-05 0.000305782 -8.88221e-07
-8.1364e-07 -8.88221e-07 0.000324616
0.000933976 -1.28132e-05 4.86798e-08
-1.28132e-05 -2.30756e-05 -6.95553e-09
4.86798e-08 -6.95553e-09 -2.69585e-05
0.00120495 -1.16633e-05 4.922e-07
-1.16633e-05 9.742e-05 4.28189e-07
4.922e-07 4.28189e-07 9.96927e-05
0.00101142 -5.79297e-06 4.95728e-08
-5.79297e-06 1.33482e-07 -2.82381e-08
4.95728e-08 -2.82381e-08 -2.3827e-05
0.00211196 -1.31332e-05 2.87541e-06
-1.31332e-05 0.000524912 2.54642e-06
2.87541e-06 2.54642e-06 0.000546946
0.000976053 -9.17565e-06 2.26871e-06
-9.17565e-06 -2.76691e-05 1.84062e-06
2.26871e-06 1.84062e-06 -2.33318e-05
0.000759857 -1.31295e-05 5.08654e-06
-1.31295e-05 -8.02251e-05 1.61703e-06
5.08654e-06 1.61703e-06 -9.81007e-05
0.000851901 -1.29581e-05 4.38063e-06
-1.29581e-05 -5.51518e-05 2.07152e-06
4.38063e-06 2.07152e-06 -6.35822e-05
0.00100922 -5.30715e-06 1.85414e-06
-5.30715e-06 6.09485e-08 5.32306e-07
1.85414e-06 5.32306e-07 -3.64383e-05
0.00149241 -1.08561e-05 2.61651e-06
-1.08561e-05 0.000229671 1.63442e-06
2.61651e-06 1.63442e-06 0.000234606
0.00102529 -5.60486e-06 1.88196e-06
-5.60486e-06 7.08915e-06 8.45507e-07
1.88196e-06 8.45507e-07 -2.0333e-05
0.00103157 -5.78419e-06 1.78139e-06
-5.78419e-06 7.97089e-06 9.29909e-07
1.78139e-06 9.29909e-07 -1.33855e-05
0.00109414 -2.43229e-06 1.117e-06
-2.43229e-06 3.30935e-05 4.97872e-07
1.117e-06 4.97872e-07 -4.81848e-06
0.00212329 -1.07921e-05 2.48816e-06
-1.07921e-05 0.000520337 2.83267e-06
2.48816e-06 2.83267e-06 0.00054382
0.00217901 -1.1854e-05 5.85411e-08
-1.1854e-05 0.000551327 -4.54326e-08
5.85411e-08 -4.54326e-08 0.000573906
0.00264073 -1.65288e-05 -5.32005e-06
-1.65288e-05 0.00088541 -1.31394e-06
-5.32005e-06 -1.31394e-06 0.000886363
0.00238968 -1.11605e-05 -5.6527e-06
-1.11605e-05 0.00081465 -7.07431e-07
-5.6527e-06 -7.07431e-07 0.000809871
0.00209533 -6.118e-06 2.10223e-08
-6.118e-06 0.000699268 -9.79627e-08
2.10223e-08 -9.79627e-08 0.00069282
0.00169435 -1.32731e-05 -1.62652e-06
-1.32731e-05 0.00046718 -4.40573e-07
-1.62652e-06 -4.40573e-07 0.000459119
0.00101183 -7.80716e-06 8.01552e-07
-7.80716e-06 0.00012512 -2.24262e-08
8.01552e-07 -2.24262e-08 9.53253e-05
0.00187709 -1.78157e-05 -1.50132e-06
-1.78157e-05 0.00049976 -6.54233e-07
-1.50132e-06 -6.54233e-07 0.000499242
0.001154 -1.20516e-05 8.15279e-07
-1.20516e-05 0.000145883 1.99436e-07
8.15279e-07 1.99436e-07 0.000122135
0.00203908 1.25011e-06 5.3575e-06
1.25011e-06 0.000679049 -4.45091e-08
5.3575e-06 -4.45091e-08 0.000672083
0.000638419 -5.15327e-06 3.55817e-06
-5.15327e-06 -3.10662e-05 -1.74389e-07
3.55817e-06 -1.74389e-07 -6.41534e-05
0.00128843 -9.95338e-06 5.52127e-06
-9.95338e-06 0.000236237 7.75261e-07
5.52127e-06 7.75261e-07 0.000211273
0.000902473 -5.16928e-06 1.36601e-06
-5.16928e-06 2.11442e-05 -5.48494e-07
1.36601e-06 -5.48494e-07 -2.84073e-05
0.0014875 -1.28805e-05 3.81405e-06
-1.28805e-05 0.000284489 6.77612e-07
3.81405e-06 6.77612e-07 0.000267192
0.000969136 -5.95687e-06 1.52452e-06
-5.95687e-06 1.2451e-05 7.83008e-08
1.52452e-06 7.83008e-08 -3.36377e-05
0.000890957 9.30357e-06 -5.62282e-06
9.30357e-06 0.00010572 3.73384e-07
-5.62282e-06 3.73384e-07 8.96496e-05
0.00108695 1.64768e-05 -2.33196e-06
1.64768e-05 0.000144444 3.22538e-07
-2.33196e-06 3.22538e-07 0.000135505
0.00112675 1.66245e-05 -1.51495e-06
1.66245e-05 6.68405e-05 5.97333e-07
-1.51495e-06 5.97333e-07 8.01259e-05
0.00112037 1.8891e-05 -2.03299e-06
1.8891e-05 0.000116787 4.01331e-07
-2.03299e-06 4.01331e-07 0.00011708
0.00115781 1.25625e-05 -4.57044e-06
1.25625e-05 0.000129928 1.18222e-06
-4.57044e-06 1.18222e-06 0.000109952
0.00117183 1.33243e-05 -4.00006e-06
1.33243e-05 0.000109011 1.40458e-06
-4.00006e-06 1.40458e-06 9.78822e-05
0.00116866 1.2676e-05 -3.45629e-06
1.2676e-05 8.95051e-05 1.63238e-06
-3.45629e-06 1.63238e-06 8.54025e-05
0.00131731 5.73818e-06 -2.57957e-06
5.73818e-06 0.000148001 1.09186e-06
-2.57957e-06 1.09186e-06 0.00011819
0.00214509 6.32315e-06 -2.59742e-08
6.32315e-06 0.000720595 -1.11812e-07
-2.59742e-08 -1.11812e-07 0.000714096
0.00111123 1.37847e-05 3.35681e-06
1.37847e-05 0.00018045 -7.08372e-07
3.35681e-06 -7.08372e-07 0.000167227
0.00082736 7.35322e-06 -1.64894e-06
7.35322e-06 3.50057e-05 1.54637e-07
-1.64894e-06 1.54637e-07 3.52246e-06
0.0011526 1.15748e-05 -8.5465e-07
1.15748e-05 0.000143056 1.57652e-07
-8.5465e-07 1.57652e-07 0.000118487
0.00174234 1.52367e-05 1.82472e-06
1.52367e-05 0.000356149 -1.57255e-06
1.82472e-06 -1.57255e-06 0.000373158
0.00134314 1.2242e-05 -3.31056e-07
1.2242e-05 0.000166121 2.08541e-07
-3.31056e-07 2.08541e-07 0.000165976
0.00116998 1.33186e-05 -6.2993e-07
1.33186e-05 0.000120468 1.83246e-07
-6.2993e-07 1.83246e-07 0.000105013
0.00121468 5.44587e-06 -7.5022e-07
5.44587e-06 0.000117101 3.39653e-07
-7.5022e-07 3.39653e-07 7.45368e-05
0.00136843 5.69985e-06 -6.73058e-07
5.69985e-06 0.000169986 5.19382e-07
-6.73058e-07 5.19382e-07 0.000143861
0.00129681 5.90862e-06 -3.45094e-07
5.90862e-06 0.000142167 1.66363e-07
-3.45094e-07 1.66363e-07 0.000108355
0.0010931 2.30066e-06 1.81222e-08
2.30066e-06 2.6251e-05 -1.85192e-08
1.81222e-08 -1.85192e-08 -1.87171e-05
0.000680204 4.24843e-06 3.78983e-06
4.24843e-06 -1.58612e-05 1.20821e-07
3.78983e-06 1.20821e-07 -4.96193e-05
0.00114415 1.01121e-05 3.14378e-06
1.01121e-05 0.000159254 -2.65539e-07
3.14378e-06 -2.65539e-07 0.000131292
0.00103782 4.39787e-06 1.06488e-06
4.39787e-06 8.16635e-05 4.52118e-07
1.06488e-06 4.52118e-07 3.26291e-05
0.00124063 5.36542e-06 1.32896e-06
5.36542e-06 0.000135685 -2.91693e-08
1.32896e-06 -2.91693e-08 8.93403e-05
0.00118643 5.76397e-06 1.44701e-06
5.76397e-06 9.58262e-05 -2.87041e-07
1.44701e-06 -2.87041e-07 5.70366e-05
0.00118565 2.75109e-06 2.66866e-07
2.75109e-06 8.28925e-05 1.06019e-08
2.66866e-07 1.06019e-08 2.91563e-05
0.00230726 1.40054e-05 2.97863e-06
1.40054e-05 0.000621333 -2.49263e-06
2.97863e-06 -2.49263e-06 0.000641824
0.0011495 2.71797e-06 8.38126e-07
2.71797e-06 5.45279e-05 -2.57562e-07
8.38126e-07 -2.57562e-07 6.80518e-06
0.000959809 1.15744e-05 2.63853e-06
1.15744e-05 -2.38759e-05 -1.52437e-06
2.63853e-06 -1.52437e-06 -2.32207e-05
0.0010448 5.67019e-06 1.79156e-06
5.67019e-06 1.3008e-05 -8.61325e-07
1.79156e-06 -8.61325e-07 -1.18346e-05
0.0010658 1.66756e-06 1.02656e-06
1.66756e-06 1.35904e-05 -4.55201e-07
1.02656e-06 -4.55201e-07 -2.90795e-05
0.00115401 -4.67546e-08 3.94012e-07
-4.67546e-08 4.45882e-05 -9.89324e-09
3.94012e-07 -9.89324e-09 -6.73436e-06
0.00093417 9.93283e-06 2.35e-06
9.93283e-06 -4.50727e-05 -1.76821e-06
2.35e-06 -1.76821e-06 -4.18767e-05
0.00102628 4.5033e-06 1.47347e-06
4.5033e-06 -5.15335e-06 -1.07641e-06
1.47347e-06 -1.07641e-06 -2.40675e-05
0.00271129 -1.83947e-05 -4.71261e-06
-1.83947e-05 0.000874188 -1.77757e-06
-4.71261e-06 -1.77757e-06 0.000881791
0.00252285 -1.79383e-05 -3.89408e-06
-1.79383e-05 0.000757576 -1.99676e-06
-3.89408e-06 -1.99676e-06 0.00077119
0.000817496 -1.33696e-05 -3.46738e-06
-1.33696e-05 -6.3391e-05 -1.32044e-06
-3.46738e-06 -1.32044e-06 -7.59019e-05
0.00226266 -1.40801e-05 -2.95081e-06
-1.40801e-05 0.000601912 -2.46538e-06
-2.95081e-06 -2.46538e-06 0.000622552
0.000896715 -1.18145e-05 -2.62235e-06
-1.18145e-05 -5.08294e-05 -1.54082e-06
-2.62235e-06 -1.54082e-06 -4.94032e-05
0.000855267 -1.2968e-05 -3.018e-06
-1.2968e-05 -5.97412e-05 -1.37358e-06
-3.018e-06 -1.37358e-06 -6.35071e-05
0.00099839 -5.81255e-06 -1.83466e-06
-5.81255e-06 -5.78512e-06 -9.12136e-07
-1.83466e-06 -9.12136e-07 -2.97209e-05
0.00218112 -1.30207e-05 5.43475e-08
-1.30207e-05 0.000557528 -4.97217e-08
5.43475e-08 -4.97217e-08 0.000579327
0.000959887 -9.21636e-06 6.17727e-08
-9.21636e-06 -3.54819e-05 -3.04031e-08
6.17727e-08 -3.04031e-08 -3.105e-05
0.0011893 -1.3166e-05 8.21303e-07
-1.3166e-05 0.000125085 2.7649e-07
8.21303e-07 2.7649e-07 0.000109533
0.00119883 -1.3049e-05 6.764e-07
-1.3049e-05 0.000111412 4.10606e-07
6.764e-07 4.10606e-07 0.000104853
0.00100864 -5.26048e-06 3.13351e-08
-5.26048e-06 -6.14506e-09 -8.7432e-08
3.13351e-08 -8.7432e-08 -3.65721e-05
0.000965296 -1.09167e-05 2.84452e-08
-1.09167e-05 -2.38854e-05 -2.1145e-08
2.84452e-08 -2.1145e-08 -2.10322e-05
0.00100832 -5.62705e-06 1.67141e-08
-5.62705e-06 -4.40021e-07 2.69335e-08
1.67141e-08 2.69335e-08 -2.78364e-05
0.00101694 -5.80755e-06 3.37916e-08
-5.80755e-06 1.243e-06 5.87671e-09
3.37916e-08 5.87671e-09 -2.00734e-05
0.00102887 -2.36467e-06 7.68784e-09
-2.36467e-06 2.01349e-06 -2.90002e-08
7.68784e-09 -2.90002e-08 -3.65281e-05
0.000969353 -1.00293e-05 2.44731e-06
-1.00293e-05 -2.68042e-05 1.6808e-06
2.44731e-06 1.6808e-06 -2.30933e-05
0.000982341 -8.36166e-06 2.06377e-06
-8.36166e-06 -2.83438e-05 1.98543e-06
2.06377e-06 1.98543e-06 -2.33306e-05
0.00104218 -4.87223e-06 1.55716e-06
-4.87223e-06 3.07579e-06 1.02617e-06
1.55716e-06 1.02617e-06 -1.47201e-05
0.000997412 -5.6161e-06 1.7763e-06
-5.6161e-06 -2.27717e-06 1.68592e-07
1.7763e-06 1.68592e-07 -4.24205e-05
0.00102165 -5.36699e-06 1.87997e-06
-5.36699e-06 6.013e-06 7.82649e-07
1.87997e-06 7.82649e-07 -2.59123e-05
0.00108591 -1.43733e-06 8.39798e-07
-1.43733e-06 1.83037e-05 2.10962e-07
8.39798e-07 2.10962e-07 -3.02185e-05
0.00103894 -5.56586e-06 1.72973e-06
-5.56586e-06 7.37911e-06 9.3971e-07
1.72973e-06 9.3971e-07 -1.19245e-05
0.000985596 -1.13199e-06 1.02058e-06
-1.13199e-06 -2.1991e-05 5.48274e-07
1.02058e-06 5.48274e-07 -6.41083e-05
0.00108027 -2.49261e-06 1.10659e-06
-2.49261e-06 2.75618e-05 6.04596e-07
1.10659e-06 6.04596e-07 -8.53358e-06
0.00123353 9.21391e-07 3.10413e-07
9.21391e-07 9.57171e-05 -7.17396e-08
3.10413e-07 -7.17396e-08 5.04544e-05
0.00212112 -9.6689e-06 2.26246e-06
-9.6689e-06 0.00051496 2.93362e-06
2.26246e-06 2.93362e-06 0.000539133
0.00217091 -1.07282e-05 6.01522e-08
-1.07282e-05 0.000542815 -3.98697e-08
6.01522e-08 -3.98697e-08 0.000566144
0.00223712 -1.17676e-05 -2.57331e-06
-1.17676e-05 0.000578766 -2.75387e-06
-2.57331e-06 -2.75387e-06 0.000601147
0.000945524 9.08376e-06 2.17045e-06
9.08376e-06 -4.32527e-05 -1.91567e-06
2.17045e-06 -1.91567e-06 -3.93943e-05
0.00228468 1.28391e-05 2.79677e-06
1.28391e-05 0.000605191 -2.64016e-06
2.79677e-06 -2.64016e-06 0.000626627
0.00271494 -1.78533e-05 -5.08212e-06
-1.78533e-05 0.00089619 -1.5686e-06
-5.08212e-06 -1.5686e-06 0.000900477
0.00253481 -1.42877e-05 -5.50915e-06
-1.42877e-05 0.000860119 -1.04005e-06
-5.50915e-06 -1.04005e-06 0.000857916
0.000747354 -1.17727e-05 -3.87666e-06
-1.17727e-05 -4.62924e-05 -6.63772e-07
-3.87666e-06 -6.63772e-07 -7.25994e-05
0.000699838 -7.45674e-06 -3.88309e-06
-7.45674e-06 -2.38588e-05 -2.12338e-07
-3.88309e-06 -2.12338e-07 -5.648e-05
0.00217711 -7.22912e-06 -5.55469e-06
-7.22912e-06 0.000734402 -3.44357e-07
-5.55469e-06 -3.44357e-07 0.00072803
0.00202966 1.23616e-07 1.53795e-08
1.23616e-07 0.000674954 -7.78411e-08
1.53795e-08 -7.78411e-08 0.000668013
0.000655618 -4.70791e-06 -7.85301e-08
-4.70791e-06 -2.32043e-05 -3.42987e-08
-7.85301e-08 -3.42987e-08 -5.64146e-05
0.00109669 -1.0393e-05 8.61575e-07
-1.0393e-05 0.000141039 8.02626e-08
8.61575e-07 8.02626e-08 0.000113601
0.000911462 -5.04443e-06 -3.9671e-08
-5.04443e-06 2.51572e-05 -1.55068e-07
-3.9671e-08 -1.55068e-07 -2.4466e-05
0.000836082 -1.31201e-05 6.3068e-08
-1.31201e-05 -2.88891e-05 -9.08226e-08
6.3068e-08 -9.08226e-08 -5.06547e-05
0.000969171 -5.86289e-06 -2.0388e-08
-5.86289e-06 1.27565e-05 -1.67996e-08
-2.0388e-08 -1.67996e-08 -3.33947e-05
0.00064996 -4.05929e-07 3.54079e-06
-4.05929e-07 -1.79785e-05 1.58116e-07
3.54079e-06 1.58116e-07 -5.14113e-05
0.000866966 -3.89128e-06 1.16906e-06
-3.89128e-06 2.8322e-05 -3.99746e-07
1.16906e-06 -3.99746e-07 -2.06033e-05
0.000938192 -5.59464e-06 1.46814e-06
-5.59464e-06 1.64558e-05 -1.54006e-07
1.46814e-06 -1.54006e-07 -3.22412e-05
0.000998708 -4.99881e-06 3.12049e-07
-4.99881e-06 4.54888e-05 -6.98528e-07
3.12049e-07 -6.98528e-07 -1.00572e-05
0.000986902 -6.00584e-06 1.63986e-06
-6.00584e-06 3.71232e-06 3.88755e-08
1.63986e-06 3.88755e-08 -3.93524e-05
0.00106681 -4.24688e-06 3.29787e-07
-4.24688e-06 3.79966e-05 -4.35988e-08
3.29787e-07 -4.35988e-08 -1.56298e-05
0.00205215 5.28039e-06 -5.17565e-06
5.28039e-06 0.000680542 1.47782e-07
-5.17565e-06 1.47782e-07 0.00067398
0.00104317 1.3982e-05 -2.41974e-06
1.3982e-05 0.000148301 2.21202e-07
-2.41974e-06 2.21202e-07 0.000135329
0.000364845 7.51976e-06 -5.5887e-06
7.51976e-06 -0.000186851 2.16699e-07
-5.5887e-06 2.16699e-07 -0.000222099
0.00114022 1.14329e-05 -4.87105e-06
1.14329e-05 0.000137441 1.01718e-06
-4.87105e-06 1.01718e-06 0.000112921
0.0022348 1.54633e-05 -1.40435e-06
1.54633e-05 0.000592206 8.81656e-07
-1.40435e-06 8.81656e-07 0.000612006
0.00151455 1.21244e-05 -3.22534e-06
1.21244e-05 0.000249405 1.70194e-06
-3.22534e-06 1.70194e-06 0.000250101
0.00116706 1.31794e-05 -4.27926e-06
1.31794e-05 0.000119556 1.29374e-06
-4.27926e-06 1.29374e-06 0.000104155
0.00111093 5.39596e-06 -2.45587e-06
5.39596e-06 6.71974e-05 7.8516e-07
-2.45587e-06 7.8516e-07 2.38757e-05
0.00135264 5.88106e-06 -2.22992e-06
5.88106e-06 0.00016912 6.63922e-07
-2.22992e-06 6.63922e-07 0.000135843
0.00133598 5.62858e-06 -2.53375e-06
5.62858e-06 0.000154328 1.23729e-06
-2.53375e-06 1.23729e-06 0.000127905
0.0010888 2.28001e-06 -9.00096e-07
2.28001e-06 2.41299e-05 2.66772e-07
-9.00096e-07 2.66772e-07 -2.07663e-05
0.000659778 4.68492e-06 9.19285e-08
4.68492e-06 -2.50644e-05 -9.82614e-08
9.19285e-08 -9.82614e-08 -5.86929e-05
0.00112169 1.00004e-05 -9.42121e-07
1.00004e-05 0.000148487 1.75898e-07
-9.42121e-07 1.75898e-07 0.000120555
0.000933769 4.4964e-06 -3.81403e-07
4.4964e-06 2.96849e-05 1.01184e-07
-3.81403e-07 1.01184e-07 -2.06454e-05
0.00126459 5.28375e-06 -4.31974e-07
5.28375e-06 0.00014785 1.24863e-07
-4.31974e-07 1.24863e-07 0.000101839
0.00223503 1.41206e-05 -4.90902e-08
1.41206e-05 0.000587299 -5.08171e-08
-4.90902e-08 -5.08171e-08 0.000607991
0.00123902 1.15063e-05 -4.47308e-08
1.15063e-05 0.000110473 -7.71822e-08
-4.47308e-08 -7.71822e-08 0.000112149
0.00121058 5.62238e-06 -1.8144e-08
5.62238e-06 9.24338e-05 -2.16294e-09
-1.8144e-08 -2.16294e-09 6.84494e-05
0.0011828 5.77023e-06 -3.72256e-07
5.77023e-06 9.39592e-05 1.5803e-07
-3.72256e-07 1.5803e-07 5.51769e-05
0.0010808 2.75563e-06 -3.48468e-07
2.75563e-06 3.23482e-05 1.80997e-07
-3.48468e-07 1.80997e-07 -2.22709e-05
0.00101696 1.71684e-06 3.95946e-09
1.71684e-06 -9.70496e-06 -4.83073e-08
3.95946e-09 -4.83073e-08 -5.26088e-05
0.00120284 2.72066e-06 -2.30885e-10
2.72066e-06 8.03355e-05 -3.07533e-08
-2.30885e-10 -3.07533e-08 3.3208e-05
0.00114497 2.83255e-09 5.19923e-08
2.83255e-09 4.04185e-05 5.39831e-09
5.19923e-08 5.39831e-09 -1.08444e-05
0.000952481 9.88224e-06 -5.01709e-08
9.88224e-06 -3.62719e-05 -2.82347e-08
-5.01709e-08 -2.82347e-08 -3.31808e-05
0.00103375 4.49312e-06 -4.47007e-08
4.49312e-06 -1.60826e-06 -2.49219e-08
-4.47007e-08 -2.49219e-08 -2.05465e-05
0.000835745 3.14813e-06 1.31104e-06
3.14813e-06 1.0916e-05 4.68038e-07
1.31104e-06 4.68038e-07 -3.85951e-05
0.00114998 5.10757e-06 1.1958e-06
5.10757e-06 0.000108696 2.3437e-07
1.1958e-06 2.3437e-07 6.00294e-05
0.00109252 4.016e-06 1.04112e-07
4.016e-06 8.29504e-05 3.90023e-07
1.04112e-07 3.90023e-07 2.65842e-05
0.00112202 3.30317e-06 7.67383e-07
3.30317e-06 5.4574e-05 -3.2738e-08
7.67383e-07 -3.2738e-08 -2.8874e-06
0.00125261 2.89882e-06 4.96502e-07
2.89882e-06 0.000107631 -8.48342e-08
4.96502e-07 -8.48342e-08 5.73974e-05
0.00115003 2.37074e-06 -2.91631e-07
2.37074e-06 5.42728e-05 6.17623e-08
-2.91631e-07 6.17623e-08 -4.2782e-06
0.000919661 1.08116e-05 2.50036e-06
1.08116e-05 -4.76899e-05 -1.62802e-06
2.50036e-06 -1.62802e-06 -4.54835e-05
0.00114809 1.12253e-06 1.90129e-07
1.12253e-06 4.34498e-05 -4.34757e-08
1.90129e-07 -4.34757e-08 -9.96722e-06
0.00100791 5.47809e-06 1.72152e-06
5.47809e-06 -6.66978e-06 -8.78006e-07
1.72152e-06 -8.78006e-07 -2.91416e-05
0.000958396 1.76653e-06 1.29374e-06
1.76653e-06 -3.6206e-05 -8.51667e-07
1.29374e-06 -8.51667e-07 -7.69386e-05
0.00123933 -1.26137e-06 2.67223e-07
-1.26137e-06 8.66401e-05 1.16644e-07
2.67223e-07 1.16644e-07 3.75151e-05
0.00114299 -1.01441e-06 -1.61666e-07
-1.01441e-06 3.15624e-05 3.01689e-07
-1.61666e-07 3.01689e-07 -2.19094e-05
0.00102056 4.83894e-06 1.59846e-06
4.83894e-06 -6.25166e-06 -9.66193e-07
1.59846e-06 -9.66193e-07 -2.56668e-05
0.00103147 4.20349e-06 1.34226e-06
4.20349e-06 -4.2071e-06 -1.16466e-06
1.34226e-06 -1.16466e-06 -2.27845e-05
0.00107855 1.58594e-06 9.41238e-07
1.58594e-06 1.89579e-05 -6.22549e-07
9.41238e-07 -6.22549e-07 -1.47794e-05
0.000804136 -1.3294e-05 -3.70829e-06
-1.3294e-05 -5.89273e-05 -1.13449e-06
-3.70829e-06 -1.13449e-06 -7.63246e-05
0.00225065 -1.2908e-05 -2.77808e-06
-1.2908e-05 0.000590302 -2.62053e-06
-2.77808e-06 -2.62053e-06 0.000611867
0.000943617 -9.25763e-06 -2.14782e-06
-9.25763e-06 -4.33364e-05 -1.91178e-06
-2.14782e-06 -1.91178e-06 -3.88105e-05
0.000833008 -1.32795e-05 -3.21361e-06
-1.32795e-05 -6.35119e-05 -1.35218e-06
-3.21361e-06 -1.35218e-06 -7.12403e-05
0.00100795 -5.21562e-06 -1.90851e-06
-5.21562e-06 -1.30589e-07 -7.51411e-07
-1.90851e-06 -7.51411e-07 -3.6763e-05
0.000917793 -1.10204e-05 -2.49563e-06
-1.10204e-05 -4.64312e-05 -1.61075e-06
-2.49563e-06 -1.61075e-06 -4.34191e-05
0.00100278 -5.82999e-06 -1.75187e-06
-5.82999e-06 -5.26082e-06 -9.45367e-07
-1.75187e-06 -9.45367e-07 -2.65382e-05
0.000991153 -5.64784e-06 -1.90817e-06
-5.64784e-06 -8.05208e-06 -8.20777e-07
-1.90817e-06 -8.20777e-07 -3.5423e-05
0.000963315 -2.28212e-06 -1.13052e-06
-2.28212e-06 -2.91985e-05 -6.11799e-07
-1.13052e-06 -6.11799e-07 -6.83697e-05
0.000951694 -1.00767e-05 5.19942e-08
-1.00767e-05 -3.53306e-05 -3.62692e-08
5.19942e-08 -3.62692e-08 -3.15215e-05
0.000968 -8.39624e-06 6.06024e-08
-8.39624e-06 -3.52749e-05 -1.90967e-08
6.06024e-08 -1.90967e-08 -3.01724e-05
0.00103149 -4.88989e-06 5.39946e-08
-4.88989e-06 -2.02775e-06 -2.66413e-08
5.39946e-08 -2.66413e-08 -1.97786e-05
0.00100526 -5.54624e-06 7.48617e-09
-5.54624e-06 1.35908e-06 -1.26066e-07
7.48617e-09 -1.26066e-07 -3.88881e-05
0.00100774 -5.36447e-06 3.90928e-08
-5.36447e-06 -1.72e-08 -2.28615e-08
3.90928e-08 -2.28615e-08 -3.1947e-05
0.00110153 -1.40186e-06 2.0887e-08
-1.40186e-06 2.53536e-05 5.83133e-09
2.0887e-08 5.83133e-09 -2.32804e-05
0.00102376 -5.59262e-06 1.28539e-08
-5.59262e-06 3.48282e-07 1.36517e-08
1.28539e-08 1.36517e-08 -1.8904e-05
0.0010228 -1.14221e-06 -1.73211e-09
-1.14221e-06 -3.92246e-06 -2.27949e-08
-1.73211e-09 -2.27949e-08 -4.58351e-05
0.00107611 -2.45791e-06 2.01282e-08
-2.45791e-06 2.57483e-05 -1.66472e-08
2.01282e-08 -1.66472e-08 -1.03985e-05
0.00115017 9.8015e-07 -3.12181e-07
9.8015e-07 5.59769e-05 -2.09251e-07
-3.12181e-07 -2.09251e-07 1.00842e-05
0.000986685 -7.52514e-06 1.86515e-06
-7.52514e-06 -2.99686e-05 2.10061e-06
1.86515e-06 2.10061e-06 -2.42613e-05
0.0010406 -5.19769e-06 1.68864e-06
-5.19769e-06 4.43751e-06 9.35886e-07
1.68864e-06 9.35886e-07 -1.3828e-05
0.00104472 -4.55976e-06 1.39401e-06
-4.55976e-06 2.18027e-06 1.14094e-06
1.39401e-06 1.14094e-06 -1.50248e-05
0.00108575 -2.38346e-06 1.01291e-06
-2.38346e-06 2.35469e-05 5.83101e-07
1.01291e-06 5.83101e-07 -8.86673e-06
0.00108212 -2.93562e-06 7.53215e-07
-2.93562e-06 1.70599e-05 -1.88875e-07
7.53215e-07 -1.88875e-07 -3.29964e-05
0.001092 -4.61206e-07 9.59183e-07
-4.61206e-07 2.54385e-05 5.43643e-07
9.59183e-07 5.43643e-07 -1.99131e-05
0.00113302 9.42806e-08 2.8026e-07
9.42806e-08 2.70776e-05 4.01505e-09
2.8026e-07 4.01505e-09 -2.61777e-05
0.00109312 -2.33965e-06 1.10618e-06
-2.33965e-06 3.07263e-05 6.68073e-07
1.10618e-06 6.68073e-07 -3.4063e-06
0.00106442 1.98987e-06 1.87821e-07
1.98987e-06 7.66964e-06 9.44421e-08
1.87821e-07 9.44421e-08 -4.13842e-05
0.00111221 8.96583e-07 7.52402e-07
8.96583e-07 4.08031e-05 2.38094e-07
7.52402e-07 2.38094e-07 -4.95372e-06
0.00111554 3.65284e-06 2.0251e-07
3.65284e-06 3.4085e-05 -2.17379e-07
2.0251e-07 -2.17379e-07 -1.58293e-05
0.00105886 -2.52208e-06 9.19404e-07
-2.52208e-06 4.08667e-07 1.46482e-06
9.19404e-07 1.46482e-06 -1.62981e-05
0.00098336 -5.74409e-06 1.51991e-06
-5.74409e-06 -3.81198e-05 2.33106e-06
1.51991e-06 2.33106e-06 -3.16438e-05
0.00212433 -8.53763e-06 2.03679e-06
-8.53763e-06 0.000512419 3.02402e-06
2.03679e-06 3.02402e-06 0.00053719
0.00216222 -9.61554e-06 5.96868e-08
-9.61554e-06 0.000534321 -3.36491e-08
5.96868e-08 -3.36491e-08 0.000558362
0.00221872 -1.0664e-05 -2.34976e-06
-1.0664e-05 0.000565373 -2.86151e-06
-2.34976e-06 -2.86151e-06 0.00058855
0.000955957 8.26912e-06 1.98122e-06
8.26912e-06 -4.17274e-05 -2.04312e-06
1.98122e-06 -2.04312e-06 -3.73214e-05
0.00226466 1.16988e-05 2.59607e-06
1.16988e-05 0.000590881 -2.77615e-06
2.59607e-06 -2.77615e-06 0.000613128
0.000961686 9.04414e-06 -5.69877e-08
9.04414e-06 -3.5494e-05 -2.86808e-08
-5.69877e-08 -2.86808e-08 -3.17213e-05
0.00222033 1.29412e-05 -5.4448e-08
1.29412e-05 0.00057479 -4.74594e-08
-5.4448e-08 -4.74594e-08 0.000596437
0.000780939 -1.2875e-05 -3.84386e-06
-1.2875e-05 -5.25832e-05 -8.49136e-07
-3.84386e-06 -8.49136e-07 -7.45517e-05
0.000719393 -9.9163e-06 -3.91002e-06
-9.9163e-06 -3.70756e-05 -5.388e-07
-3.91002e-06 -5.388e-07 -6.72526e-05
0.000969391 -5.76965e-06 -1.53898e-06
-5.76965e-06 1.3141e-05 -1.11718e-07
-1.53898e-06 -1.11718e-07 -3.30721e-05
0.000920214 -4.92063e-06 -1.40485e-06
-4.92063e-06 2.90616e-05 2.28056e-07
-1.40485e-06 2.28056e-07 -2.06332e-05
0.000672952 -4.25953e-06 -3.67219e-06
-4.25953e-06 -1.52981e-05 1.26042e-07
-3.67219e-06 1.26042e-07 -4.86293e-05
0.00201611 -1.00772e-06 -5.24688e-06
-1.00772e-06 0.000668996 -7.80256e-08
-5.24688e-06 -7.80256e-08 0.000662077
0.000645261 4.27062e-08 2.79101e-08
4.27062e-08 -1.99828e-05 6.08137e-08
2.79101e-08 6.08137e-08 -5.33962e-05
0.000872522 -3.74817e-06 -6.03256e-08
-3.74817e-06 3.07766e-05 5.62365e-08
-6.03256e-08 5.62365e-08 -1.82009e-05
0.000943844 -5.48532e-06 -6.85452e-09
-5.48532e-06 1.91034e-05 -1.27623e-07
-6.85452e-09 -1.27623e-07 -2.96574e-05
0.00100349 -4.97592e-06 -2.18848e-08
-4.97592e-06 4.75274e-05 -1.23313e-07
-2.18848e-08 -1.23313e-07 -8.03816e-06
0.000991854 -5.92247e-06 -2.9247e-08
-5.92247e-06 6.16467e-06 -4.73299e-08
-2.9247e-08 -4.73299e-08 -3.69959e-05
0.00106555 -4.20872e-06 -9.36205e-09
-4.20872e-06 3.75828e-05 5.87978e-09
-9.36205e-09 5.87978e-09 -1.60624e-05
0.000860022 -1.96618e-07 1.16167e-06
-1.96618e-07 3.41874e-05 3.54261e-07
1.16167e-06 3.54261e-07 -1.46016e-05
0.000958585 -4.21807e-06 1.79714e-07
-4.21807e-06 5.28094e-05 -4.88395e-07
1.79714e-07 -4.88395e-07 -1.55843e-06
0.00103166 -4.53194e-06 3.60089e-07
-4.53194e-06 3.94102e-05 -3.38196e-07
3.60089e-07 -3.38196e-07 -1.61626e-05
0.0011015 -6.04222e-06 -5.84278e-08
-6.04222e-06 8.16309e-05 -7.64225e-07
-5.84278e-08 -7.64225e-07 2.38036e-05
0.00108312 -3.866e-06 4.08923e-07
-3.866e-06 2.82464e-05 -1.8396e-07
4.08923e-07 -1.8396e-07 -2.30891e-05
0.00109804 -4.51911e-06 -1.69798e-07
-4.51911e-06 4.39297e-05 -1.11615e-08
-1.69798e-07 -1.11615e-08 -1.16429e-05
0.000640041 5.1187e-06 -3.66309e-06
5.1187e-06 -3.39753e-05 -2.97873e-07
-3.66309e-06 -2.97873e-07 -6.7472e-05
0.00110047 9.88435e-06 -5.03464e-06
9.88435e-06 0.000138322 6.9224e-07
-5.03464e-06 6.9224e-07 0.000110417
0.000830519 4.60104e-06 -1.90188e-06
4.60104e-06 -2.18858e-05 -2.71649e-07
-1.90188e-06 -2.71649e-07 -7.35171e-05
0.00128949 5.20404e-06 -2.14349e-06
5.20404e-06 0.000160429 3.6587e-07
-2.14349e-06 3.6587e-07 0.000114752
0.00216269 1.42359e-05 -3.10172e-06
1.42359e-05 0.000553199 2.44655e-06
-3.10172e-06 2.44655e-06 0.000574096
0.00151998 1.14186e-05 -2.77931e-06
1.14186e-05 0.000245601 1.53537e-06
-2.77931e-06 1.53537e-06 0.000248301
0.00137684 5.57221e-06 -1.84161e-06
5.57221e-06 0.000172085 7.69267e-07
-1.84161e-06 7.69267e-07 0.000148957
0.00117927 5.77641e-06 -2.19049e-06
5.77641e-06 9.21316e-05 6.05301e-07
-2.19049e-06 6.05301e-07 5.33568e-05
0.000975596 2.75936e-06 -9.44898e-07
2.75936e-06 -1.83576e-05 4.30744e-07
-9.44898e-07 4.30744e-07 -7.38591e-05
0.00125678 2.72237e-06 -7.95789e-07
2.72237e-06 0.000106418 1.72652e-07
-7.95789e-07 1.72652e-07 5.98859e-05
0.000968324 1.8076e-06 -1.01181e-06
1.8076e-06 -3.29103e-05 3.65027e-07
-1.01181e-06 3.65027e-07 -7.60474e-05
0.00113536 8.98037e-08 -3.19543e-07
8.98037e-08 3.59911e-05 3.4497e-08
-3.19543e-07 3.4497e-08 -1.5212e-05
0.00097066 9.83201e-06 -2.44388e-06
9.83201e-06 -2.7526e-05 1.69769e-06
-2.44388e-06 1.69769e-06 -2.45404e-05
0.00104128 4.48291e-06 -1.55612e-06
4.48291e-06 1.96715e-06 1.02142e-06
-1.55612e-06 1.02142e-06 -1.69953e-05
0.000817072 3.36904e-06 6.72859e-08
3.36904e-06 2.88067e-07 -3.62564e-08
6.72859e-08 -3.62564e-08 -4.97323e-05
0.0011368 5.07882e-06 -4.1971e-07
5.07882e-06 0.000102302 1.42204e-07
-4.1971e-07 1.42204e-07 5.35863e-05
0.00105308 4.04599e-06 -2.96504e-07
4.04599e-06 6.52566e-05 -1.13534e-07
-2.96504e-07 -1.13534e-07 9.00137e-06
0.0011917 3.23519e-06 1.68071e-07
3.23519e-06 8.91337e-05 -1.1735e-07
1.68071e-07 -1.1735e-07 3.2416e-05
0.00094257 1.0742e-05 -4.66363e-08
1.0742e-05 -3.67609e-05 -1.84354e-08
-4.66363e-08 -1.84354e-08 -3.46896e-05
0.00102131 5.45183e-06 -2.86507e-08
5.45183e-06 -5.15622e-07 2.37799e-09
-2.86507e-08 2.37799e-09 -2.30354e-05
0.00103579 1.62116e-06 2.31971e-07
1.62116e-06 8.96346e-07 -2.97697e-07
2.31971e-07 -2.97697e-07 -3.9219e-05
0.00125202 2.88299e-06 -2.1656e-07
2.88299e-06 0.000107624 1.05722e-07
-2.1656e-07 1.05722e-07 5.75423e-05
0.00110761 2.42841e-06 -1.48157e-07
2.42841e-06 3.33849e-05 1.37811e-07
-1.48157e-07 1.37811e-07 -2.53429e-05
0.00113945 -1.03199e-06 -2.11771e-07
-1.03199e-06 3.88294e-05 2.07343e-07
-2.11771e-07 2.07343e-07 -1.0883e-05
0.00114461 1.114e-06 1.62077e-08
1.114e-06 4.1888e-05 -3.61269e-08
1.62077e-08 -3.61269e-08 -1.14753e-05
0.00114695 -8.61491e-07 8.83466e-08
-8.61491e-07 3.25417e-05 9.66648e-08
8.83466e-08 9.66648e-08 -2.07034e-05
0.00102975 4.82332e-06 -2.69874e-08
4.82332e-06 -1.90762e-06 -1.52737e-08
-2.69874e-08 -1.52737e-08 -2.13576e-05
0.00101303 1.59175e-06 -4.10609e-08
1.59175e-06 -1.25832e-05 -3.49126e-08
-4.10609e-08 -3.49126e-08 -4.67309e-05
0.00103862 4.19374e-06 -3.97745e-08
4.19374e-06 -8.44281e-07 -1.42713e-08
-3.97745e-08 -1.42713e-08 -1.94412e-05
0.00105057 3.45319e-06 6.14719e-08
3.45319e-06 9.07739e-05 4.81552e-07
6.14719e-08 4.81552e-07 3.58786e-05
0.00114072 3.80306e-06 3.00419e-07
3.80306e-06 8.10648e-05 4.20728e-07
3.00419e-07 4.20728e-07 2.42027e-05
0.000998645 4.88941e-06 3.00537e-07
4.88941e-06 3.17626e-05 1.84834e-07
3.00537e-07 1.84834e-07 -2.72903e-05
0.00120846 3.48252e-06 -3.77785e-08
3.48252e-06 8.3956e-05 1.39925e-07
-3.77785e-08 1.39925e-07 2.33605e-05
0.00117608 1.91117e-06 5.58924e-08
1.91117e-06 5.9191e-05 -7.24148e-08
5.58924e-08 -7.24148e-08 3.57595e-06
0.00111259 2.7707e-06 -1.99921e-07
2.7707e-06 2.89952e-05 -6.04465e-08
-1.99921e-07 -6.04465e-08 -3.00333e-05
0.00101329 5.2086e-06 1.66429e-06
5.2086e-06 -7.0783e-06 -8.95079e-07
1.66429e-06 -8.95079e-07 -2.75901e-05
0.00119243 8.78832e-07 -3.54068e-07
8.78832e-07 5.65714e-05 1.30595e-07
-3.54068e-07 1.30595e-07 1.66607e-06
0.00107619 1.77193e-06 1.02873e-06
1.77193e-06 2.07434e-05 -5.79011e-07
1.02873e-06 -5.79011e-07 -1.65394e-05
0.00106033 -1.41377e-06 7.32376e-07
-1.41377e-06 4.3847e-06 -5.20974e-07
7.32376e-07 -5.20974e-07 -4.44987e-05
0.00118535 -2.7803e-06 1.12972e-08
-2.7803e-06 5.21743e-05 3.94382e-07
1.12972e-08 3.94382e-07 -2.88945e-07
0.00118043 -1.2849e-06 -7.13145e-07
-1.2849e-06 4.33699e-05 7.10633e-07
-7.13145e-07 7.10633e-07 -8.27755e-06
0.00103684 3.81846e-06 1.22898e-06
3.81846e-06 -4.01412e-06 -1.2126e-06
1.22898e-06 -1.2126e-06 -2.23194e-05
0.00107652 1.62073e-06 1.02786e-06
1.62073e-06 1.80031e-05 -5.36754e-07
1.02786e-06 -5.36754e-07 -1.59919e-05
0.000942807 1.613e-06 1.06816e-06
1.613e-06 -4.63058e-05 -1.01784e-06
1.06816e-06 -1.01784e-06 -8.08355e-05
0.00125101 -9.12103e-07 3.71203e-07
-9.12103e-07 0.000100024 3.4198e-08
3.71203e-07 3.4198e-08 5.79402e-05
0.00101293 -5.47603e-06 -1.84285e-06
-5.47603e-06 4.91677e-06 -4.50423e-07
-1.84285e-06 -4.50423e-07 -3.5434e-05
0.000953565 -8.43137e-06 -1.94646e-06
-8.43137e-06 -4.22426e-05 -2.03749e-06
-1.94646e-06 -2.03749e-06 -3.70515e-05
0.000933715 -1.01249e-05 -2.34151e-06
-1.01249e-05 -4.39995e-05 -1.75777e-06
-2.34151e-06 -1.75777e-06 -4.00921e-05
0.00102088 -4.90756e-06 -1.45371e-06
-4.90756e-06 -7.09504e-06 -1.08118e-06
-1.45371e-06 -1.08118e-06 -2.48012e-05
0.000994087 -5.36214e-06 -1.89801e-06
-5.36214e-06 -5.93352e-06 -8.68574e-07
-1.89801e-06 -8.68574e-07 -3.78679e-05
0.00111698 -1.36531e-06 -8.29464e-07
-1.36531e-06 3.23215e-05 -2.11067e-07
-8.29464e-07 -2.11067e-07 -1.64238e-05
0.00100843 -5.61935e-06 -1.70318e-06
-5.61935e-06 -6.74632e-06 -9.06731e-07
-1.70318e-06 -9.06731e-07 -2.59477e-05
0.00107247 -2.43072e-06 -1.12701e-06
-2.43072e-06 2.41828e-05 -6.84852e-07
-1.12701e-06 -6.84852e-07 -1.20163e-05
0.00106089 -1.19892e-06 -1.0066e-06
-1.19892e-06 1.45521e-05 -5.7006e-07
-1.0066e-06 -5.7006e-07 -2.71556e-05
0.00106608 1.02359e-06 -1.01004e-06
1.02359e-06 1.58961e-05 -5.40772e-07
-1.01004e-06 -5.40772e-07 -3.06258e-05
0.000976521 -7.54827e-06 4.84154e-08
-7.54827e-06 -3.48943e-05 -1.34352e-08
4.84154e-08 -1.34352e-08 -2.91251e-05
0.00102801 -5.21932e-06 3.64295e-08
-5.21932e-06 -1.49963e-06 -2.03425e-08
3.64295e-08 -2.03425e-08 -1.97185e-05
0.00103683 -4.57238e-06 4.18625e-08
-4.57238e-06 -1.59001e-06 -1.18757e-08
4.18625e-08 -1.18757e-08 -1.87592e-05
0.00107868 -2.38896e-06 5.51168e-08
-2.38896e-06 2.0208e-05 -2.87184e-08
5.51168e-08 -2.87184e-08 -1.21844e-05
0.00110367 -2.89228e-06 1.01057e-07
-2.89228e-06 2.68635e-05 -3.04511e-08
1.01057e-07 -3.04511e-08 -2.3321e-05
0.00109222 -5.71375e-07 1.36212e-08
-5.71375e-07 2.58422e-05 1.55087e-08
1.36212e-08 1.55087e-08 -1.95794e-05
0.00115578 1.70132e-07 1.69587e-08
1.70132e-07 3.71353e-05 1.41391e-07
1.69587e-08 1.41391e-07 -1.62005e-05
0.00107773 -2.37182e-06 9.55563e-09
-2.37182e-06 2.37301e-05 1.88957e-08
9.55563e-09 1.88957e-08 -1.03745e-05
0.00114394 2.10693e-06 -1.66901e-07
2.10693e-06 4.55687e-05 -3.46672e-07
-1.66901e-07 -3.46672e-07 -2.95162e-06
0.00111395 9.1974e-07 3.83897e-08
9.1974e-07 4.14679e-05 -8.71611e-08
3.83897e-08 -8.71611e-08 -4.40786e-06
0.00111053 3.53332e-06 -4.39789e-07
3.53332e-06 3.24532e-05 -3.28365e-07
-4.39789e-07 -3.28365e-07 -1.70834e-05
0.000990626 -6.62524e-06 1.69631e-06
-6.62524e-06 -3.16752e-05 2.20977e-06
1.69631e-06 2.20977e-06 -2.54801e-05
0.00104655 -4.08961e-06 1.27217e-06
-4.08961e-06 2.08163e-07 1.21296e-06
1.27217e-06 1.21296e-06 -1.63616e-05
0.00109176 -2.25694e-06 1.08485e-06
-2.25694e-06 2.70889e-05 6.03384e-07
1.08485e-06 6.03384e-07 -5.8064e-06
0.00108481 -2.38036e-06 8.68766e-07
-2.38036e-06 2.20379e-05 6.79959e-07
8.68766e-07 6.79959e-07 -9.84803e-06
0.00110703 -8.2956e-07 6.38068e-07
-8.2956e-07 3.32075e-05 3.0103e-07
6.38068e-07 3.0103e-07 -8.62101e-06
0.00113554 -2.67991e-06 1.25171e-07
-2.67991e-06 2.89553e-05 -6.16537e-07
1.25171e-07 -6.16537e-07 -2.37546e-05
0.00113744 2.14795e-06 2.81856e-07
2.14795e-06 3.53415e-05 4.44444e-07
2.81856e-07 4.44444e-07 -1.63451e-05
0.00120596 4.18285e-07 -5.14881e-07
4.18285e-07 5.13568e-05 -2.76353e-07
-5.14881e-07 -2.76353e-07 -2.00322e-06
0.0011247 7.22033e-07 8.82178e-07
7.22033e-07 4.53053e-05 8.92597e-07
8.82178e-07 8.92597e-07 7.82549e-07
0.00112563 4.44798e-06 2.32035e-07
4.44798e-06 3.16562e-05 6.82888e-08
2.32035e-07 6.82888e-08 -1.98957e-05
0.00102251 3.51589e-06 5.76209e-07
3.51589e-06 -6.46764e-06 -9.95645e-08
5.76209e-07 -9.95645e-08 -5.93755e-05
0.00105461 -2.92035e-06 1.09074e-06
-2.92035e-06 -5.08633e-07 1.37776e-06
1.09074e-06 1.37776e-06 -1.69928e-05
0.00109591 -1.02324e-06 6.28551e-07
-1.02324e-06 2.15991e-05 8.78232e-07
6.28551e-07 8.78232e-07 -1.06044e-05
0.0010624 -2.0653e-06 7.19328e-07
-2.0653e-06 6.71404e-07 1.52989e-06
7.19328e-07 1.52989e-06 -1.6123e-05
0.00105527 -2.52836e-06 5.81381e-08
-2.52836e-06 -1.26635e-06 -1.50088e-08
5.81381e-08 -1.50088e-08 -1.79654e-05
0.00147703 -4.87107e-06 8.97405e-07
-4.87107e-06 0.000196325 1.50673e-06
8.97405e-07 1.50673e-06 0.000205286
0.00123743 -5.74222e-06 5.07348e-08
-5.74222e-06 8.39868e-05 1.16524e-08
5.07348e-08 1.16524e-08 9.15499e-05
0.00117213 -7.39242e-06 2.61079e-06
-7.39242e-06 5.1398e-05 5.01559e-06
2.61079e-06 5.01559e-06 7.18718e-05
0.00216153 -8.4859e-06 6.23991e-08
-8.4859e-06 0.000529911 -2.9205e-08
6.23991e-08 -2.9205e-08 0.00055455
0.00220369 -9.56053e-06 -2.13241e-06
-9.56053e-06 0.00055384 -2.96524e-06
-2.13241e-06 -2.96524e-06 0.00057775
0.000967 7.42815e-06 1.80878e-06
7.42815e-06 -4.01835e-05 -2.15538e-06
1.80878e-06 -2.15538e-06 -3.53347e-05
0.0022476 1.05826e-05 2.38256e-06
1.05826e-05 0.00057823 -2.89669e-06
2.38256e-06 -2.89669e-06 0.000601223
0.000970579 8.23609e-06 -5.56343e-08
8.23609e-06 -3.47441e-05 -2.26584e-08
-5.56343e-08 -2.26584e-08 -3.0408e-05
0.00221043 1.17795e-05 -5.87565e-08
1.17795e-05 0.000565247 -4.33624e-08
-5.87565e-08 -4.33624e-08 0.00058768
0.00097779 9.00502e-06 -2.27983e-06
9.00502e-06 -2.77578e-05 1.84551e-06
-2.27983e-06 1.84551e-06 -2.40712e-05
0.00215648 1.30426e-05 -2.90503e-06
1.30426e-05 0.000544605 2.57727e-06
-2.90503e-06 2.57727e-06 0.000566464
0.000996463 -5.8389e-06 -1.70248e-06
-5.8389e-06 8.45615e-06 -1.39907e-07
-1.70248e-06 -1.39907e-07 -3.47997e-05
0.000949745 -5.37691e-06 -1.47446e-06
-5.37691e-06 2.18608e-05 -1.10625e-07
-1.47446e-06 -1.10625e-07 -2.69632e-05
0.00106472 -4.17158e-06 -3.1252e-07
-4.17158e-06 3.73546e-05 5.72032e-08
-3.1252e-07 5.72032e-08 -1.63086e-05
0.00100785 -4.95361e-06 -3.14557e-07
-4.95361e-06 4.93811e-05 4.49368e-07
-3.14557e-07 4.49368e-07 -6.20442e-06
0.000878124 -3.60604e-06 -1.23877e-06
-3.60604e-06 3.32535e-05 4.98376e-07
-1.23877e-06 4.98376e-07 -1.57764e-05
0.000640714 4.90292e-07 -3.50463e-06
4.90292e-07 -2.19366e-05 -1.81376e-08
-3.50463e-06 -1.81376e-08 -5.5328e-05
0.00085759 -6.13964e-08 1.859e-08
-6.13964e-08 3.31485e-05 2.23813e-07
1.859e-08 2.23813e-07 -1.5626e-05
0.000957682 -4.17582e-06 -3.63328e-08
-4.17582e-06 5.2379e-05 8.77922e-08
-3.63328e-08 8.77922e-08 -2.00386e-06
0.00103911 -4.50013e-06 4.4295e-09
-4.50013e-06 4.27201e-05 -1.47788e-07
4.4295e-09 -1.47788e-07 -1.28703e-05
0.00108514 -6.12083e-06 -1.20027e-08
-6.12083e-06 7.55705e-05 -6.93299e-08
-1.20027e-08 -6.93299e-08 1.78844e-05
0.00108973 -3.83241e-06 -5.69632e-08
-3.83241e-06 3.12245e-05 3.57403e-08
-5.69632e-08 3.57403e-08 -2.01654e-05
0.00110156 -4.55293e-06 1.31259e-08
-4.55293e-06 4.5698e-05 6.37456e-09
1.31259e-08 6.37456e-09 -9.80208e-06
0.000942597 -9.54087e-08 2.38068e-07
-9.54087e-08 5.57401e-05 5.16724e-07
2.38068e-07 5.16724e-07 1.50939e-06
0.00102428 -5.24795e-06 -2.89186e-08
-5.24795e-06 7.44835e-05 -7.24056e-07
-2.89186e-08 -7.24056e-07 1.77194e-05
0.00107154 -5.094e-06 -7.37579e-08
-5.094e-06 4.95512e-05 -4.34145e-07
-7.37579e-08 -4.34145e-07 -8.05058e-06
0.00109363 -7.32517e-06 6.29028e-07
-7.32517e-06 7.46294e-05 -5.16428e-07
6.29028e-07 -5.16428e-07 1.50873e-05
0.00113352 -4.08107e-06 -2.13767e-07
-4.08107e-06 4.05459e-05 -2.19615e-07
-2.13767e-07 -2.19615e-07 -1.24675e-05
0.00125134 -6.47082e-06 -1.83864e-07
-6.47082e-06 0.000107487 1.78795e-07
-1.83864e-07 1.78795e-07 5.19251e-05
0.000797557 3.58714e-06 -1.24912e-06
3.58714e-06 -1.07652e-05 -5.91635e-07
-1.24912e-06 -5.91635e-07 -6.12897e-05
0.00112309 5.04987e-06 -2.0448e-06
5.04987e-06 9.56514e-05 4.29491e-08
-2.0448e-06 4.29491e-08 4.68879e-05
0.00101288 4.07446e-06 -7.37988e-07
4.07446e-06 4.71742e-05 -6.06598e-07
-7.37988e-07 -6.06598e-07 -8.96513e-06
0.00126122 3.16736e-06 -4.4772e-07
3.16736e-06 0.000123623 -1.44411e-07
-4.4772e-07 -1.44411e-07 6.76496e-05
0.000965143 1.06728e-05 -2.5849e-06
1.06728e-05 -2.59786e-05 1.57649e-06
-2.5849e-06 1.57649e-06 -2.40433e-05
0.00103488 5.42505e-06 -1.75696e-06
5.42505e-06 5.71662e-06 8.68438e-07
-1.75696e-06 8.68438e-07 -1.68515e-05
0.00111347 1.43093e-06 -8.33704e-07
1.43093e-06 3.81307e-05 2.33703e-07
-8.33704e-07 2.33703e-07 -1.36758e-06
0.00125101 2.86762e-06 -9.13549e-07
2.86762e-06 0.000107429 2.66157e-07
-9.13549e-07 2.66157e-07 5.74987e-05
0.00106462 2.4846e-06 -4.98002e-08
2.4846e-06 1.22306e-05 2.25915e-07
-4.98002e-08 2.25915e-07 -4.66729e-05
0.00114107 1.14436e-06 -1.28373e-07
1.14436e-06 4.02987e-05 -3.96934e-08
-1.28373e-07 -3.96934e-08 -1.30112e-05
0.00104014 -8.43636e-07 -7.24017e-07
-8.43636e-07 -8.73308e-06 3.08367e-07
-7.24017e-07 3.08367e-07 -5.90317e-05
0.001152 -7.12074e-07 2.20262e-07
-7.12074e-07 3.39854e-05 -1.54701e-07
2.20262e-07 -1.54701e-07 -1.90291e-05
0.00103879 4.80763e-06 -1.64662e-06
4.80763e-06 2.36694e-06 9.32013e-07
-1.64662e-06 9.32013e-07 -1.71179e-05
0.000947584 1.59583e-06 -1.00047e-06
1.59583e-06 -4.40934e-05 5.83109e-07
-1.00047e-06 5.83109e-07 -7.86512e-05
0.00104591 4.18371e-06 -1.41715e-06
4.18371e-06 2.58737e-06 1.13241e-06
-1.41715e-06 1.13241e-06 -1.60297e-05
0.000983654 3.47512e-06 -2.52731e-07
3.47512e-06 6.04343e-05 -2.10951e-07
-2.52731e-07 -2.10951e-07 5.36256e-06
0.00114145 3.79759e-06 -1.76625e-07
3.79759e-06 8.14148e-05 1.11292e-07
-1.76625e-07 1.11292e-07 2.44625e-05
0.00100693 5.03735e-06 -2.3701e-07
5.03735e-06 3.41819e-05 -3.28012e-07
-2.3701e-07 -3.28012e-07 -2.53056e-05
0.0011847 3.48671e-06 5.53611e-08
3.48671e-06 7.48903e-05 -1.00462e-07
5.53611e-08 -1.00462e-07 1.46497e-05
0.00102576 5.18259e-06 -2.14366e-08
5.18259e-06 -1.28831e-06 -1.13609e-09
-2.14366e-08 -1.13609e-09 -2.18489e-05
0.001082 1.61745e-06 -1.12308e-08
1.61745e-06 2.32551e-05 5.78033e-10
-1.12308e-08 5.78033e-10 -1.4021e-05
0.00112832 -1.32906e-06 1.34769e-07
-1.32906e-06 3.74452e-05 -2.12058e-07
1.34769e-07 -2.12058e-07 -1.09008e-05
0.00121755 1.97461e-06 1.77461e-08
1.97461e-06 7.95677e-05 -7.38704e-08
1.77461e-08 -7.38704e-08 2.42338e-05
0.00112125 2.74688e-06 -3.34622e-08
2.74688e-06 3.24053e-05 7.16648e-10
-3.34622e-08 7.16648e-10 -2.67425e-05
0.00117322 -2.83035e-06 -6.62338e-08
-2.83035e-06 4.59503e-05 1.50877e-07
-6.62338e-08 1.50877e-07 -6.79228e-06
0.00118582 1.09683e-06 1.63581e-08
1.09683e-06 5.31239e-05 -7.98578e-08
1.63581e-08 -7.98578e-08 -1.7253e-06
0.00116936 -1.212e-06 1.98662e-07
-1.212e-06 3.74317e-05 2.64207e-07
1.98662e-07 2.64207e-07 -1.36857e-05
0.00108197 1.60842e-06 -8.06378e-10
1.60842e-06 2.0493e-05 1.70122e-09
-8.06378e-10 1.70122e-09 -1.35094e-05
0.00114247 -9.07176e-07 -2.32013e-07
-9.07176e-07 4.7654e-05 2.80448e-07
-2.32013e-07 2.80448e-07 4.91803e-06
0.00104372 3.80788e-06 -2.89815e-08
3.80788e-06 -8.05343e-07 -9.21353e-09
-2.89815e-08 -9.21353e-09 -1.91281e-05
0.000941108 1.61255e-06 1.94112e-07
1.61255e-06 -4.70395e-05 -3.21789e-07
1.94112e-07 -3.21789e-07 -8.15791e-05
0.00101616 4.52875e-06 3.85423e-07
4.52875e-06 6.59512e-05 6.01656e-07
3.85423e-07 6.01656e-07 7.49497e-06
0.00122894 4.74167e-06 -7.56992e-08
4.74167e-06 0.000106685 1.0298e-07
-7.56992e-08 1.0298e-07 4.64933e-05
0.000891906 5.99078e-06 -2.19842e-07
5.99078e-06 -1.9519e-05 2.85715e-07
-2.19842e-07 2.85715e-07 -8.13434e-05
0.00113374 4.18808e-06 -4.65295e-08
4.18808e-06 4.51353e-05 -7.40753e-08
-4.65295e-08 -7.40753e-08 -1.59926e-05
0.00124853 2.27531e-06 -4.39152e-07
2.27531e-06 8.54763e-05 1.2573e-08
-4.39152e-07 1.2573e-08 2.9104e-05
0.00109126 3.13033e-06 -3.65691e-07
3.13033e-06 1.5811e-05 7.53693e-08
-3.65691e-07 7.53693e-08 -4.36148e-05
0.00107334 1.77334e-06 1.0186e-06
1.77334e-06 1.80957e-05 -5.41918e-07
1.0186e-06 -5.41918e-07 -1.70789e-05
0.00117626 1.08874e-06 -1.04123e-06
1.08874e-06 4.28891e-05 1.69826e-07
-1.04123e-06 1.69826e-07 -9.9013e-06
0.00102815 -1.32065e-06 7.04286e-07
-1.32065e-06 -7.05426e-06 -6.38972e-07
7.04286e-07 -6.38972e-07 -5.40769e-05
0.00120393 -3.54273e-06 3.19454e-07
-3.54273e-06 6.65146e-05 4.93274e-08
3.19454e-07 4.93274e-08 1.36225e-05
0.00122079 -3.57254e-06 -1.53258e-07
-3.57254e-06 6.3633e-05 1.01916e-06
-1.53258e-07 1.01916e-06 1.12835e-05
0.00114955 -1.63383e-06 -5.19683e-07
-1.63383e-06 2.23827e-05 5.49412e-07
-5.19683e-07 5.49412e-07 -2.58549e-05
0.00104358 3.44938e-06 1.11055e-06
3.44938e-06 -3.01259e-06 -1.28551e-06
1.11055e-06 -1.28551e-06 -2.12624e-05
0.000938401 1.43668e-06 9.71042e-07
1.43668e-06 -4.97104e-05 -1.0938e-06
9.71042e-07 -1.0938e-06 -8.42056e-05
0.00111383 -1.00444e-06 6.11362e-07
-1.00444e-06 3.30851e-05 -2.56858e-07
6.11362e-07 -2.56858e-07 -9.97693e-06
0.00117048 -7.90272e-07 5.44193e-07
-7.90272e-07 6.26429e-05 -2.30276e-07
5.44193e-07 -2.30276e-07 1.96022e-05
0.0012201 -2.66883e-06 2.50657e-07
-2.66883e-06 8.20719e-05 7.25641e-08
2.50657e-07 7.25641e-08 3.43827e-05
0.000966159 -7.57222e-06 -1.77423e-06
-7.57222e-06 -3.99068e-05 -2.14595e-06
-1.77423e-06 -2.14595e-06 -3.4076e-05
0.00112604 -2.84965e-06 -5.26315e-07
-2.84965e-06 3.70404e-05 1.32861e-07
-5.26315e-07 1.32861e-07 -1.32729e-05
0.00102897 -4.58476e-06 -1.31624e-06
-4.58476e-06 -5.34179e-06 -1.16973e-06
-1.31624e-06 -1.16973e-06 -2.24754e-05
0.00101515 -5.24107e-06 -1.61071e-06
-5.24107e-06 -7.56196e-06 -9.68429e-07
-1.61071e-06 -9.68429e-07 -2.5734e-05
0.00107165 -2.39453e-06 -9.06507e-07
-2.39453e-06 1.68925e-05 -6.40891e-07
-9.06507e-07 -6.40891e-07 -1.54785e-05
0.00109092 -6.46048e-07 -9.53435e-07
-6.46048e-07 2.55531e-05 -5.22522e-07
-9.53435e-07 -5.22522e-07 -1.99388e-05
0.00117853 2.80818e-07 -1.95884e-07
2.80818e-07 4.71928e-05 2.95467e-07
-1.95884e-07 2.95467e-07 -6.22372e-06
0.00106245 -2.3994e-06 -1.07572e-06
-2.3994e-06 1.67878e-05 -6.13362e-07
-1.07572e-06 -6.13362e-07 -1.7289e-05
0.00111621 9.48859e-07 -7.79424e-07
9.48859e-07 4.23856e-05 -5.18523e-07
-7.79424e-07 -5.18523e-07 -3.61022e-06
0.00122366 2.26526e-06 -6.16042e-07
2.26526e-06 8.35484e-05 -7.18932e-07
-6.16042e-07 -7.18932e-07 3.55621e-05
0.00110741 3.41634e-06 -1.16009e-06
3.41634e-06 3.16799e-05 -1.58004e-07
-1.16009e-06 -1.58004e-07 -1.74787e-05
0.000984703 -6.63822e-06 4.58436e-08
-6.63822e-06 -3.4551e-05 -2.02078e-08
4.58436e-08 -2.02078e-08 -2.83279e-05
0.00104306 -4.09243e-06 1.97055e-08
-4.09243e-06 -1.45761e-06 -6.54832e-09
1.97055e-08 -6.54832e-09 -1.80194e-05
0.00107791 -2.28675e-06 9.55184e-09
-2.28675e-06 2.06673e-05 9.49489e-09
9.55184e-09 9.49489e-09 -1.21827e-05
0.00108257 -2.3778e-06 1.53676e-08
-2.3778e-06 2.10041e-05 1.25781e-11
1.53676e-08 1.25781e-11 -1.08855e-05
0.00107324 -9.60922e-07 6.31821e-08
-9.60922e-07 1.70496e-05 -3.132e-08
6.31821e-08 -3.132e-08 -2.50863e-05
0.00115657 -2.63242e-06 1.70582e-07
-2.63242e-06 3.85408e-05 -8.25883e-08
1.70582e-07 -8.25883e-08 -1.43287e-05
0.00114419 2.39126e-06 -9.45447e-09
2.39126e-06 3.8747e-05 1.47454e-07
-9.45447e-09 1.47454e-07 -1.30119e-05
0.00119817 6.94824e-07 5.25737e-08
6.94824e-07 4.83481e-05 2.32115e-07
5.25737e-08 2.32115e-07 -5.26212e-06
0.00110908 6.76859e-07 1.97911e-07
6.76859e-07 3.83216e-05 3.00249e-07
1.97911e-07 3.00249e-07 -6.17146e-06
0.00117117 4.3378e-06 1.19916e-07
4.3378e-06 5.31374e-05 -2.35541e-07
1.19916e-07 -2.35541e-07 1.84963e-06
0.00106499 3.58545e-06 -2.1507e-07
3.58545e-06 1.26359e-05 -2.23595e-07
-2.1507e-07 -2.23595e-07 -4.00144e-05
0.00105047 -3.46913e-06 1.20328e-06
-3.46913e-06 -7.23002e-07 1.28548e-06
1.20328e-06 1.28548e-06 -1.70396e-05
0.00108657 -1.94843e-06 8.39789e-07
-1.94843e-06 2.0096e-05 7.07887e-07
8.39789e-07 7.07887e-07 -1.12604e-05
0.00105827 3.3918e-07 5.98825e-07
3.3918e-07 1.03443e-05 3.89087e-07
5.98825e-07 3.89087e-07 -3.30272e-05
0.00110892 -1.0392e-06 4.85596e-07
-1.0392e-06 3.36809e-05 3.85061e-07
4.85596e-07 3.85061e-07 -7.7614e-06
0.00119626 4.71833e-07 2.44926e-07
4.71833e-07 7.58445e-05 -4.10347e-08
2.44926e-07 -4.10347e-08 2.86461e-05
0.00118456 -3.63394e-06 -4.51275e-07
-3.63394e-06 3.89346e-05 -1.17708e-06
-4.51275e-07 -1.17708e-06 -1.15435e-05
0.00117197 4.15536e-06 -9.53066e-08
4.15536e-06 4.45144e-05 2.28964e-07
-9.53066e-08 2.28964e-07 -8.90778e-06
0.00112778 2.7312e-06 -7.79426e-07
2.7312e-06 1.28895e-05 -7.21584e-07
-7.79426e-07 -7.21584e-07 -3.51562e-05
0.00111953 2.80964e-06 3.42997e-07
2.80964e-06 4.29061e-05 8.21223e-07
3.42997e-07 8.21223e-07 -9.11659e-06
0.00119751 5.12326e-06 6.32919e-07
5.12326e-06 6.63003e-05 -8.895e-08
6.32919e-07 -8.895e-08 1.08415e-05
0.00105176 -2.92367e-06 4.21279e-08
-2.92367e-06 -1.83821e-06 -1.97617e-08
4.21279e-08 -1.97617e-08 -1.83199e-05
0.000952383 -9.98235e-07 8.97292e-07
-9.98235e-07 -4.77296e-05 1.18945e-06
8.97292e-07 1.18945e-06 -8.03384e-05
0.00102268 -1.01914e-06 5.39725e-08
-1.01914e-06 -1.36186e-05 -8.85961e-09
5.39725e-08 -8.85961e-09 -4.62281e-05
0.00125852 6.53367e-07 2.84933e-07
6.53367e-07 0.000102451 1.10831e-07
2.84933e-07 1.10831e-07 6.07999e-05
0.00109987 -9.32613e-07 4.51427e-07
-9.32613e-07 2.30267e-05 9.24788e-07
4.51427e-07 9.24788e-07 -9.25186e-06
0.0010617 -1.47569e-06 5.89069e-07
-1.47569e-06 -1.1732e-06 1.55602e-06
5.89069e-07 1.55602e-06 -1.825e-05
0.00105883 -2.07627e-06 3.34181e-08
-2.07627e-06 -9.97645e-07 -5.70753e-10
3.34181e-08 -5.70753e-10 -1.77777e-05
0.00148341 -3.9678e-06 7.32968e-07
-3.9678e-06 0.000196907 1.57168e-06
7.32968e-07 1.57168e-06 0.000206036
0.00105185 -2.53467e-06 -8.055e-07
-2.53467e-06 -2.86472e-06 -1.49067e-06
-8.055e-07 -1.49067e-06 -1.95568e-05
0.0015019 -4.84406e-06 -3.62621e-07
-4.84406e-06 0.000208465 -1.00298e-06
-3.62621e-07 -1.00298e-06 0.000217253
0.00121462 -6.21792e-06 2.21967e-06
-6.21792e-06 6.78929e-05 5.18463e-06
2.21967e-06 5.18463e-06 8.861e-05
0.00148865 -5.71713e-06 -1.45427e-06
-5.71713e-06 0.000204739 -2.40551e-06
-1.45427e-06 -2.40551e-06 0.000213402
0.00165121 -7.36751e-06 9.66149e-07
-7.36751e-06 0.000280922 1.96062e-06
9.66149e-07 1.96062e-06 0.000303862
0.0021991 -8.43236e-06 -1.91856e-06
-8.43236e-06 0.000547568 -3.08004e-06
-1.91856e-06 -3.08004e-06 0.000572075
0.000977439 6.5947e-06 1.59345e-06
6.5947e-06 -3.87889e-05 -2.29573e-06
1.59345e-06 -2.29573e-06 -3.35974e-05
0.000978717 7.40302e-06 -4.67594e-08
7.40302e-06 -3.461e-05 -2.04579e-08
-4.67594e-08 -2.04579e-08 -2.98062e-05
0.00223885 9.45912e-06 2.17265e-06
9.45912e-06 0.000569588 -3.0172e-06
2.17265e-06 -3.0172e-06 0.000593251
0.002202 1.06461e-05 -6.09135e-08
1.06461e-05 0.00055673 -3.82078e-08
-6.09135e-08 -3.82078e-08 0.000579876
0.000985066 8.20369e-06 -2.09246e-06
8.20369e-06 -2.78178e-05 1.99015e-06
-2.09246e-06 1.99015e-06 -2.35522e-05
0.00215653 1.186e-05 -2.71363e-06
1.186e-05 0.000539749 2.71885e-06
-2.71363e-06 2.71885e-06 0.00056237
0.00109607 -3.7991e-06 -4.84406e-07
-3.7991e-06 3.40818e-05 2.60981e-07
-4.84406e-07 2.60981e-07 -1.73622e-05
0.00104672 -4.46964e-06 -3.0131e-07
-4.46964e-06 4.61033e-05 4.55689e-08
-3.0131e-07 4.55689e-08 -9.5042e-06
0.00110595 -4.58927e-06 3.73962e-07
-4.58927e-06 4.78394e-05 8.68215e-08
3.73962e-07 8.68215e-08 -7.5863e-06
0.00106748 -6.20054e-06 5.49472e-08
-6.20054e-06 6.89497e-05 5.56413e-07
5.49472e-08 5.56413e-07 1.14011e-05
0.000956688 -4.13401e-06 -2.22191e-07
-4.13401e-06 5.191e-05 6.56566e-07
-2.22191e-07 6.56566e-07 -2.48809e-06
0.00085547 7.37985e-08 -1.1244e-06
7.37985e-08 3.2254e-05 7.47845e-08
-1.1244e-06 7.47845e-08 -1.65062e-05
0.000939656 -6.84828e-08 1.66602e-08
-6.84828e-08 5.45258e-05 3.26755e-07
1.66602e-08 3.26755e-07 3.18171e-07
0.000966718 -5.16939e-06 7.49891e-08
-5.16939e-06 5.06184e-05 -1.65064e-07
7.49891e-08 -1.65064e-07 -5.78124e-06
0.00107739 -5.13626e-06 4.45936e-08
-5.13626e-06 5.18955e-05 -1.82678e-07
4.45936e-08 -1.82678e-07 -5.68454e-06
0.00110987 -7.60656e-06 -9.2183e-08
-7.60656e-06 8.14878e-05 -1.46807e-07
-9.2183e-08 -1.46807e-07 2.12717e-05
0.00113839 -4.02519e-06 -7.44669e-08
-4.02519e-06 4.31671e-05 1.29402e-07
-7.44669e-08 1.29402e-07 -9.87632e-06
0.00121923 -6.56203e-06 1.90209e-07
-6.56203e-06 9.29081e-05 -1.6182e-07
1.90209e-07 -1.6182e-07 3.71034e-05
0.000994004 -2.72862e-08 -7.22679e-08
-2.72862e-08 7.37184e-05 5.42864e-07
-7.22679e-08 5.42864e-07 1.71514e-05
0.000943775 -5.34534e-06 3.30115e-08
-5.34534e-06 4.26785e-05 -8.74591e-07
3.30115e-08 -8.74591e-07 -1.57689e-05
0.00110499 -7.0815e-06 6.51021e-07
-7.0815e-06 5.83667e-05 -2.06446e-07
6.51021e-07 -2.06446e-07 -1.42657e-06
0.00121138 -8.86052e-06 -8.69292e-08
-8.86052e-06 0.000134437 -2.94488e-07
-8.69292e-08 -2.94488e-07 7.06644e-05
0.00114031 -5.44036e-06 -6.11184e-07
-5.44036e-06 3.22542e-05 2.38683e-07
-6.11184e-07 2.38683e-07 -1.83549e-05
0.00131249 -8.61933e-06 -6.49457e-07
-8.61933e-06 0.000136605 3.62806e-08
-6.49457e-07 3.62806e-08 8.00552e-05
0.000917849 3.50228e-06 -5.61194e-07
3.50228e-06 3.0645e-05 -9.00275e-07
-5.61194e-07 -9.00275e-07 -2.46082e-05
0.00114202 3.79205e-06 -6.74545e-07
3.79205e-06 8.16922e-05 -2.62948e-07
-6.74545e-07 -2.62948e-07 2.46503e-05
0.00101652 5.18979e-06 -3.17525e-07
5.18979e-06 3.72383e-05 -5.03407e-07
-3.17525e-07 -5.03407e-07 -2.2688e-05
0.00116032 3.49151e-06 -5.77397e-09
3.49151e-06 6.55199e-05 -2.25602e-07
-5.77397e-09 -2.25602e-07 5.63645e-06
0.00103804 5.15648e-06 -1.70131e-06
5.15648e-06 4.41612e-06 8.9052e-07
-1.70131e-06 8.9052e-07 -1.61936e-05
0.00108828 1.48658e-06 -1.04308e-06
1.48658e-06 2.5991e-05 5.69551e-07
-1.04308e-06 5.69551e-07 -1.12793e-05
0.00119522 -1.21138e-06 -4.32519e-07
-1.21138e-06 7.00351e-05 1.07392e-07
-4.32519e-07 1.07392e-07 2.22239e-05
0.00125958 2.00153e-06 6.38853e-09
2.00153e-06 0.000100202 -1.00083e-07
6.38853e-09 -1.00083e-07 4.51492e-05
0.001132 2.7279e-06 3.42205e-07
2.7279e-06 3.6791e-05 2.37335e-07
3.42205e-07 2.37335e-07 -2.24787e-05
0.00117969 1.31582e-06 2.06525e-07
1.31582e-06 4.98823e-05 -2.36367e-07
2.06525e-07 -2.36367e-07 -4.90984e-06
0.00115976 -2.87761e-06 -2.5486e-07
-2.87761e-06 3.9152e-05 -1.11717e-07
-2.5486e-07 -1.11717e-07 -1.38737e-05
0.00115758 -1.16928e-06 9.2157e-07
-1.16928e-06 3.11579e-05 -4.92187e-07
9.2157e-07 -4.92187e-07 -1.9427e-05
0.00108714 1.59772e-06 -1.03177e-06
1.59772e-06 2.28463e-05 5.43995e-07
-1.03177e-06 5.43995e-07 -1.1163e-05
0.00103427 -8.9966e-07 -8.39706e-07
-8.9966e-07 -4.56881e-06 5.90139e-07
-8.39706e-07 5.90139e-07 -4.79561e-05
0.00105066 3.79737e-06 -1.29111e-06
3.79737e-06 2.43471e-06 1.20778e-06
-1.29111e-06 1.20778e-06 -1.5906e-05
0.0009393 1.61155e-06 -6.86892e-07
1.61155e-06 -4.78242e-05 3.66366e-07
-6.86892e-07 3.66366e-07 -8.23735e-05
0.00101863 4.48027e-06 6.3724e-09
4.48027e-06 6.74571e-05 -1.82365e-07
6.3724e-09 -1.82365e-07 9.06485e-06
0.00118488 4.65582e-06 -5.18735e-08
4.65582e-06 8.79025e-05 -8.56585e-08
-5.18735e-08 -8.56585e-08 2.80313e-05
0.00100551 6.20117e-06 -1.9707e-07
6.20117e-06 2.95487e-05 -3.78486e-07
-1.9707e-07 -3.78486e-07 -3.32459e-05
0.00118878 4.10327e-06 -1.66103e-08
4.10327e-06 6.96261e-05 -9.50035e-08
-1.66103e-08 -9.50035e-08 8.60185e-06
0.00108173 1.70874e-06 -4.60707e-09
1.70874e-06 2.1837e-05 1.09137e-08
-4.60707e-09 1.09137e-08 -1.33489e-05
0.00108278 -1.13885e-06 1.40635e-07
-1.13885e-06 1.91423e-05 -2.26022e-07
1.40635e-07 -2.26022e-07 -2.74458e-05
0.00120135 -3.53775e-06 -5.24854e-08
-3.53775e-06 6.586e-05 7.58846e-08
-5.24854e-08 7.58846e-08 1.2809e-05
0.00124671 2.28843e-06 6.94988e-08
2.28843e-06 8.49862e-05 -3.34768e-08
6.94988e-08 -3.34768e-08 2.86822e-05
0.00113919 3.16127e-06 -6.74906e-08
3.16127e-06 3.81767e-05 2.17534e-07
-6.74906e-08 2.17534e-07 -2.1849e-05
0.00123179 -3.56665e-06 -1.9951e-08
-3.56665e-06 6.86023e-05 2.25567e-07
-1.9951e-08 2.25567e-07 1.60892e-05
0.00118873 1.19614e-06 -5.79859e-08
1.19614e-06 4.83963e-05 1.43485e-08
-5.79859e-08 1.43485e-08 -4.38771e-06
0.00116262 -1.92885e-06 3.84474e-07
-1.92885e-06 2.85377e-05 -3.15873e-07
3.84474e-07 -3.15873e-07 -1.90333e-05
0.00111921 -1.01353e-06 2.17258e-08
-1.01353e-06 3.54728e-05 2.40618e-08
2.17258e-08 2.40618e-08 -7.6001e-06
0.00116421 -2.66397e-06 -1.41274e-07
-2.66397e-06 5.44859e-05 2.01233e-07
-1.41274e-07 2.01233e-07 6.40206e-06
0.00116473 -8.2537e-07 -3.77992e-08
-8.2537e-07 5.97776e-05 1.13038e-07
-3.77992e-08 1.13038e-07 1.6726e-05
0.000936885 3.41591e-06 -2.59592e-08
3.41591e-06 -5.44037e-05 -2.74547e-08
-2.59592e-08 -2.74547e-08 -7.33086e-05
0.000938385 1.46647e-06 1.50738e-07
1.46647e-06 -4.95276e-05 -3.44493e-07
1.50738e-07 -3.44493e-07 -8.40604e-05
0.000974376 6.15037e-06 -2.31897e-07
6.15037e-06 4.67093e-05 8.31272e-07
-2.31897e-07 8.31272e-07 -1.35855e-05
0.00112821 6.0184e-06 -4.81704e-07
6.0184e-06 6.41656e-05 6.17695e-07
-4.81704e-07 6.17695e-07 1.98545e-06
0.00119142 4.78728e-06 -1.91534e-07
4.78728e-06 7.1106e-05 4.72464e-08
-1.91534e-07 4.72464e-08 8.07091e-06
0.00122578 3.19906e-06 -9.00451e-07
3.19906e-06 7.11914e-05 -6.89353e-08
-9.00451e-07 -6.89353e-08 1.5449e-05
0.0011135 -1.0194e-06 5.58591e-07
-1.0194e-06 3.4049e-05 -3.56654e-07
5.58591e-07 -3.56654e-07 -1.03504e-05
0.00116983 -1.30222e-07 -9.07629e-07
-1.30222e-07 3.12116e-05 2.05143e-07
-9.07629e-07 2.05143e-07 -1.5372e-05
0.00108547 -3.29786e-06 4.48674e-07
-3.29786e-06 1.69401e-05 -4.81973e-07
4.48674e-07 -4.81973e-07 -3.54036e-05
0.0012206 -4.44899e-06 2.92024e-07
-4.44899e-06 6.97278e-05 4.30359e-07
2.92024e-07 4.30359e-07 1.42494e-05
0.00119726 -3.73544e-06 -1.85421e-07
-3.73544e-06 4.47626e-05 9.42598e-07
-1.85421e-07 9.42598e-07 -6.01388e-06
0.000824175 3.20919e-06 1.08519e-06
3.20919e-06 -0.000109802 -1.94279e-06
1.08519e-06 -1.94279e-06 -0.000129499
0.00116194 1.35888e-06 6.67958e-07
1.35888e-06 5.64978e-05 -5.79669e-07
6.67958e-07 -5.79669e-07 2.32888e-05
0.00115724 -8.43435e-07 4.7144e-07
-8.43435e-07 5.64043e-05 -3.28728e-07
4.7144e-07 -3.28728e-07 1.28416e-05
0.00114134 -2.77299e-06 3.59786e-07
-2.77299e-06 4.33827e-05 -1.94955e-07
3.59786e-07 -1.94955e-07 -5.21011e-06
0.00118975 -2.8597e-06 2.77919e-07
-2.8597e-06 6.79352e-05 5.2674e-08
2.77919e-07 5.2674e-08 1.85119e-05
0.00116858 -3.21557e-06 5.97992e-08
-3.21557e-06 5.46801e-05 1.78761e-07
5.97992e-08 1.78761e-07 3.2034e-06
0.000978564 -6.65222e-06 -1.60642e-06
-6.65222e-06 -3.75256e-05 -2.26166e-06
-1.60642e-06 -2.26166e-06 -3.12743e-05
0.00103949 -4.09525e-06 -1.24158e-06
-4.09525e-06 -3.16165e-06 -1.23507e-06
-1.24158e-06 -1.23507e-06 -1.97152e-05
0.00117765 -2.58213e-06 1.36337e-07
-2.58213e-06 4.81679e-05 4.10531e-07
1.36337e-07 4.10531e-07 -4.86408e-06
0.00108028 -2.37403e-06 -8.50627e-07
-2.37403e-06 1.9945e-05 -6.96104e-07
-8.50627e-07 -6.96104e-07 -1.1948e-05
0.00106361 -2.31476e-06 -1.04635e-06
-2.31476e-06 1.40306e-05 -5.60956e-07
-1.04635e-06 -5.60956e-07 -1.87734e-05
0.00104018 -1.21447e-06 -4.83268e-07
-1.21447e-06 1.24009e-06 -3.72775e-07
-4.83268e-07 -3.72775e-07 -4.12052e-05
0.00115065 2.56926e-06 -2.82972e-07
2.56926e-06 4.202e-05 -1.38313e-07
-2.82972e-07 -1.38313e-07 -9.81083e-06
0.0011887 9.62938e-07 5.1238e-07
9.62938e-07 4.45575e-05 7.05584e-07
5.1238e-07 7.05584e-07 -9.30159e-06
0.00109104 6.2458e-07 -4.60714e-07
6.2458e-07 3.01832e-05 -2.65017e-07
-4.60714e-07 -2.65017e-07 -1.4274e-05
0.0011052 3.64818e-06 -6.39138e-07
3.64818e-06 3.06962e-05 -2.43708e-07
-6.39138e-07 -2.43708e-07 -2.16952e-05
0.00121598 4.22656e-06 -3.98273e-07
4.22656e-06 7.42878e-05 -4.48695e-07
-3.98273e-07 -4.48695e-07 2.32635e-05
0.00104809 -3.47041e-06 2.79062e-08
-3.47041e-06 -1.8476e-06 -1.68087e-08
2.79062e-08 -1.68087e-08 -1.81629e-05
0.00108811 -1.93787e-06 4.21186e-10
-1.93787e-06 2.08677e-05 -4.43562e-09
4.21186e-10 -4.43562e-09 -1.05166e-05
0.0010795 3.27692e-07 1.33415e-09
3.27692e-07 2.10377e-05 -3.47672e-08
1.33415e-09 -3.47672e-08 -2.19715e-05
0.00111458 -8.99885e-07 -4.0433e-08
-8.99885e-07 3.6455e-05 1.53774e-08
-4.0433e-08 1.53774e-08 -5.04079e-06
0.0011491 4.22893e-07 -1.01677e-07
4.22893e-07 5.30268e-05 -2.45011e-07
-1.01677e-07 -2.45011e-07 5.28914e-06
0.00119272 -3.43145e-06 -2.32665e-07
-3.43145e-06 4.37049e-05 -4.05039e-07
-2.32665e-07 -4.05039e-07 -6.89418e-06
0.00116321 4.20237e-06 2.36883e-07
4.20237e-06 4.00801e-05 1.64454e-07
2.36883e-07 1.64454e-07 -1.3506e-05
0.00113445 2.5415e-06 2.55294e-08
2.5415e-06 1.5648e-05 2.34921e-07
2.55294e-08 2.34921e-07 -3.18869e-05
0.00107351 2.7995e-06 1.65962e-07
2.7995e-06 2.17247e-05 4.35937e-07
1.65962e-07 4.35937e-07 -3.06131e-05
0.00118819 5.09502e-06 5.78063e-08
5.09502e-06 6.15796e-05 -1.33654e-07
5.78063e-08 -1.33654e-07 5.81099e-06
0.00109248 -1.35556e-06 8.37006e-07
-1.35556e-06 2.05161e-05 7.67129e-07
8.37006e-07 7.67129e-07 -1.08347e-05
0.00100748 1.85312e-07 7.43125e-07
1.85312e-07 -1.83525e-05 6.36588e-07
7.43125e-07 6.36588e-07 -6.02239e-05
0.00111058 2.14668e-06 1.68701e-07
2.14668e-06 3.68257e-05 5.08588e-08
1.68701e-07 5.08588e-08 -1.34063e-05
0.00105103 7.14042e-07 2.67469e-07
7.14042e-07 4.63579e-06 2.70012e-07
2.67469e-07 2.70012e-07 -4.3462e-05
0.00117265 9.33044e-07 -1.37769e-09
9.33044e-07 6.07493e-05 -2.11709e-07
-1.37769e-09 -2.11709e-07 9.66404e-06
0.00126051 -2.46957e-06 -9.13302e-07
-2.46957e-06 6.6193e-05 -5.4291e-07
-9.13302e-07 -5.4291e-07 2.32997e-05
0.00124074 5.75461e-06 -1.10164e-07
5.75461e-06 7.71629e-05 -8.15906e-07
-1.10164e-07 -8.15906e-07 2.37501e-05
0.00106404 3.71181e-06 -1.96318e-07
3.71181e-06 -2.31259e-05 -4.3753e-07
-1.96318e-07 -4.3753e-07 -6.88125e-05
0.00125262 3.72924e-06 3.68131e-07
3.72924e-06 0.000101797 7.75695e-07
3.68131e-07 7.75695e-07 4.57833e-05
0.00111988 5.15833e-06 -3.84128e-08
5.15833e-06 3.00805e-05 -1.35837e-07
-3.84128e-08 -1.35837e-07 -2.86082e-05
0.00104893 -2.92701e-06 -1.00664e-06
-2.92701e-06 -3.16048e-06 -1.40899e-06
-1.00664e-06 -1.40899e-06 -1.96396e-05
0.00102036 -1.02854e-06 1.84397e-07
-1.02854e-06 -1.48351e-05 3.37227e-07
1.84397e-07 3.37227e-07 -4.69674e-05
0.00102794 8.14918e-07 5.96544e-07
8.14918e-07 -9.72371e-06 7.1096e-07
5.96544e-07 7.1096e-07 -5.22339e-05
0.000950258 -1.01436e-06 -5.14832e-07
-1.01436e-06 -4.84562e-05 -9.16001e-07
-5.14832e-07 -9.16001e-07 -8.14732e-05
0.00109682 -9.39756e-07 2.91764e-08
-9.39756e-07 2.15845e-05 5.2946e-09
2.91764e-08 5.2946e-09 -1.06738e-05
0.00114367 6.53196e-07 -1.19855e-07
6.53196e-07 4.70705e-05 -3.64283e-07
-1.19855e-07 -3.64283e-07 4.67943e-06
0.00121917 1.95859e-06 1.85925e-07
1.95859e-06 8.49803e-05 -3.85987e-08
1.85925e-07 -3.85987e-08 3.63496e-05
0.0010212 6.56278e-08 3.05435e-07
6.56278e-08 -1.14078e-05 8.23315e-07
3.05435e-07 8.23315e-07 -5.47198e-05
0.00109977 -4.11587e-07 3.71529e-07
-4.11587e-07 2.18078e-05 9.25111e-07
3.71529e-07 9.25111e-07 -1.07549e-05
0.00106151 -1.07887e-06 4.42694e-07
-1.07887e-06 -2.10238e-06 1.58051e-06
4.42694e-07 1.58051e-06 -1.97255e-05
0.00106138 -1.48124e-06 2.3736e-08
-1.48124e-06 -1.28787e-06 -4.13163e-09
2.3736e-08 -4.13163e-09 -1.8375e-05
0.00149015 -3.02851e-06 5.8086e-07
-3.02851e-06 0.000197921 1.61491e-06
5.8086e-07 1.61491e-06 0.000207058
0.00105517 -2.08742e-06 -6.54406e-07
-2.08742e-06 -2.70672e-06 -1.52165e-06
-6.54406e-07 -1.52165e-06 -1.94723e-05
0.001507 -3.95059e-06 -3.02521e-07
-3.95059e-06 0.0002084 -1.01606e-06
-3.02521e-07 -1.01606e-06 0.000217357
0.00122267 -5.07361e-06 1.81786e-06
-5.07361e-06 6.83514e-05 5.29769e-06
1.81786e-06 5.29769e-06 8.94344e-05
0.0015264 -4.82038e-06 -1.60206e-06
-4.82038e-06 0.000220443 -3.51885e-06
-1.60206e-06 -3.51885e-06 0.000229057
0.00117262 -6.22898e-06 7.68493e-07
-6.22898e-06 4.72213e-05 1.99091e-06
7.68493e-07 1.99091e-06 6.82297e-05
0.00213598 -7.39092e-06 -7.70845e-07
-7.39092e-06 0.000513144 -1.26796e-06
-7.70845e-07 -1.26796e-06 0.000538525
0.000983972 5.83175e-06 1.3091e-06
5.83175e-06 -3.88637e-05 -2.39413e-06
1.3091e-06 -2.39413e-06 -3.30856e-05
0.000986625 6.57558e-06 -6.60993e-08
6.57558e-06 -3.44328e-05 -2.41059e-08
-6.60993e-08 -2.41059e-08 -2.92676e-05
0.00223025 8.33864e-06 1.9278e-06
8.33864e-06 0.000561162 -3.11713e-06
1.9278e-06 -3.11713e-06 0.000585473
0.000990174 7.37881e-06 -1.90589e-06
7.37881e-06 -2.91526e-05 2.11282e-06
-1.90589e-06 2.11282e-06 -2.43937e-05
0.00219862 9.51651e-06 -6.15392e-08
9.51651e-06 0.000550724 -3.26469e-08
-6.15392e-08 -3.26469e-08 0.000574519
0.00215656 1.07091e-05 -2.508e-06
1.07091e-05 0.000535298 2.84966e-06
-2.508e-06 2.84966e-06 0.000558598
0.00114341 -3.97126e-06 1.9851e-07
-3.97126e-06 4.5844e-05 5.16909e-07
1.9851e-07 5.16909e-07 -7.22818e-06
0.00108305 -5.17896e-06 1.2512e-07
-5.17896e-06 5.41534e-05 5.78911e-08
1.2512e-07 5.78911e-08 -3.40505e-06
0.00118891 -6.6522e-06 6.40464e-07
-6.6522e-06 7.91783e-05 -3.81258e-07
6.40464e-07 -3.81258e-07 2.31265e-05
0.00112873 -7.88586e-06 -3.41095e-07
-7.88586e-06 8.9685e-05 8.50026e-07
-3.41095e-07 8.50026e-07 2.87805e-05
0.000909591 -5.08919e-06 2.22869e-07
-5.08919e-06 2.69285e-05 5.26975e-07
2.22869e-07 5.26975e-07 -2.91037e-05
0.000936733 -4.22019e-08 -1.55459e-07
-4.22019e-08 5.33228e-05 1.2703e-07
-1.55459e-07 1.2703e-07 -8.62019e-07
0.000964315 4.80066e-08 5.88619e-08
4.80066e-08 6.14154e-05 3.21015e-07
5.88619e-08 3.21015e-07 5.05556e-06
0.000965687 -5.27431e-06 9.79684e-08
-5.27431e-06 5.04854e-05 2.10838e-07
9.79684e-08 2.10838e-07 -7.6692e-06
0.00106254 -7.07004e-06 1.70851e-07
-7.07004e-06 3.93754e-05 -1.03387e-07
1.70851e-07 -1.03387e-07 -2.0149e-05
0.00115504 -8.88142e-06 -5.65723e-07
-8.88142e-06 0.000107864 2.51777e-07
-5.65723e-07 2.51777e-07 4.24471e-05
0.00113977 -5.46969e-06 -1.44312e-07
-5.46969e-06 3.26547e-05 3.60495e-07
-1.44312e-07 3.60495e-07 -1.77993e-05
0.00124715 -8.36466e-06 2.99435e-07
-8.36466e-06 0.000104546 -4.23164e-07
2.99435e-07 -4.23164e-07 4.71358e-05
0.00092775 1.02133e-06 -4.41449e-07
1.02133e-06 4.97403e-05 2.80108e-07
-4.41449e-07 2.80108e-07 -6.58233e-06
0.000940151 -6.19338e-06 -2.94413e-07
-6.19338e-06 4.02036e-05 -1.01673e-06
-2.94413e-07 -1.01673e-06 -2.18243e-05
0.00108222 -9.80963e-06 -6.7058e-07
-9.80963e-06 5.95395e-05 2.23034e-07
-6.7058e-07 2.23034e-07 -5.13165e-06
0.00135375 -7.19009e-06 -1.03025e-06
-7.19009e-06 0.00013251 2.89008e-07
-1.03025e-06 2.89008e-07 8.43251e-05
0.00102186 4.43127e-06 2.48898e-08
4.43127e-06 6.93026e-05 -9.88718e-07
2.48898e-08 -9.88718e-07 1.09744e-05
0.00113997 4.56752e-06 -2.52099e-07
4.56752e-06 6.87139e-05 -5.3424e-07
-2.52099e-07 -5.3424e-07 9.16454e-06
0.00111653 6.40962e-06 -3.54905e-07
6.40962e-06 7.73853e-05 -7.17411e-07
-3.54905e-07 -7.17411e-07 1.36262e-05
0.0012427 4.0114e-06 2.17971e-07
4.0114e-06 9.36144e-05 -1.62826e-07
2.17971e-07 -1.62826e-07 3.26928e-05
0.0010899 1.66322e-06 -1.02654e-06
1.66322e-06 2.54848e-05 5.63365e-07
-1.02654e-06 5.63365e-07 -9.71275e-06
0.00113885 -1.0142e-06 -4.13362e-07
-1.0142e-06 4.59901e-05 1.5325e-07
-4.13362e-07 1.5325e-07 -1.62679e-07
0.00119884 -3.53318e-06 -3.51596e-07
-3.53318e-06 6.52375e-05 2.13936e-07
-3.51596e-07 2.13936e-07 1.20268e-05
0.00124348 2.30166e-06 3.36415e-07
2.30166e-06 8.38161e-05 -1.67922e-07
3.36415e-07 -1.67922e-07 2.75845e-05
0.001183 3.19468e-06 2.65781e-07
3.19468e-06 5.85786e-05 6.10419e-07
2.65781e-07 6.10419e-07 -2.03695e-06
0.00120234 1.32822e-06 8.53742e-07
1.32822e-06 5.44205e-05 -1.54225e-07
8.53742e-07 -1.54225e-07 1.64357e-06
0.00124319 -3.55912e-06 6.77823e-08
-3.55912e-06 7.37306e-05 -5.94856e-07
6.77823e-08 -5.94856e-07 2.10567e-05
0.00117754 -2.20785e-06 9.39736e-07
-2.20785e-06 3.56205e-05 -1.07565e-06
9.39736e-07 -1.07565e-06 -1.1296e-05
0.00112438 -1.02331e-06 -5.82428e-07
-1.02331e-06 3.77669e-05 3.24882e-07
-5.82428e-07 3.24882e-07 -5.31649e-06
0.00110823 -2.66062e-06 -5.49599e-07
-2.66062e-06 2.68552e-05 3.56931e-07
-5.49599e-07 3.56931e-07 -2.16228e-05
0.00115891 -8.59857e-07 -6.37129e-07
-8.59857e-07 5.68864e-05 4.48063e-07
-6.37129e-07 4.48063e-07 1.38238e-05
0.000830344 3.38263e-06 -1.17488e-06
3.38263e-06 -0.000105743 1.27515e-06
-1.17488e-06 1.27515e-06 -0.000125301
0.000938659 1.49855e-06 -6.09543e-07
1.49855e-06 -4.92103e-05 4.11682e-07
-6.09543e-07 4.11682e-07 -8.37812e-05
0.00100379 6.21255e-06 3.81488e-07
6.21255e-06 5.58708e-05 -3.78377e-07
3.81488e-07 -3.78377e-07 -5.10685e-06
0.00115131 5.87969e-06 -2.66242e-07
5.87969e-06 7.61877e-05 2.4909e-07
-2.66242e-07 2.4909e-07 1.42146e-05
0.00118759 4.82756e-06 1.91988e-07
4.82756e-06 6.88385e-05 1.46882e-07
1.91988e-07 1.46882e-07 6.31743e-06
0.00112037 -1.04071e-06 -1.86455e-09
-1.04071e-06 3.70118e-05 1.07078e-08
-1.86455e-09 1.07078e-08 -7.38204e-06
0.00116699 -3.35884e-06 1.10624e-07
-3.35884e-06 5.58602e-05 -1.87404e-07
1.10624e-07 -1.87404e-07 4.0232e-06
0.00121559 -4.42971e-06 -3.21493e-08
-4.42971e-06 6.81931e-05 1.0437e-07
-3.21493e-08 1.0437e-07 1.24664e-05
0.00121697 3.23464e-06 -8.23173e-08
3.23464e-06 6.71798e-05 6.30486e-08
-8.23173e-08 6.30486e-08 1.10451e-05
0.00119354 -3.52059e-06 6.76598e-09
-3.52059e-06 4.34588e-05 -4.0628e-07
6.76598e-09 -4.0628e-07 -6.77318e-06
0.0012055 -4.90997e-07 4.13955e-08
-4.90997e-07 4.86573e-05 1.16276e-08
4.13955e-08 1.16276e-08 1.96917e-06
0.000824923 3.26408e-06 1.3188e-07
3.26408e-06 -0.000109266 -5.17257e-07
1.3188e-07 -5.17257e-07 -0.000128936
0.001148 -2.79709e-06 1.27941e-08
-2.79709e-06 4.64336e-05 3.57233e-08
1.27941e-08 3.57233e-08 -2.19948e-06
0.00115493 -3.20387e-06 -2.90923e-07
-3.20387e-06 4.71844e-05 3.58658e-07
-2.90923e-07 3.58658e-07 -4.0585e-06
0.00120707 -2.83102e-06 -1.61477e-07
-2.83102e-06 7.66292e-05 2.04556e-07
-1.61477e-07 2.04556e-07 2.75296e-05
0.00121413 -8.70004e-07 -5.82064e-08
-8.70004e-07 8.37246e-05 9.39396e-08
-5.82064e-08 9.39396e-08 4.04149e-05
0.00105335 1.28787e-06 -5.48996e-08
1.28787e-06 4.0612e-06 1.50082e-07
-5.48996e-08 1.50082e-07 -2.97635e-05
0.00113214 6.92454e-06 -9.16167e-07
6.92454e-06 0.000105198 1.49787e-06
-9.16167e-07 1.49787e-06 4.43961e-05
0.00113669 7.22121e-06 -2.83687e-07
7.22121e-06 7.40554e-05 7.14796e-07
-2.83687e-07 7.14796e-07 9.82144e-06
0.00125242 5.48955e-06 -8.34029e-07
5.48955e-06 9.79766e-05 -4.23922e-07
-8.34029e-07 -4.23922e-07 3.76369e-05
0.00115805 2.24175e-06 -9.19498e-07
2.24175e-06 3.01748e-05 6.4563e-08
-9.19498e-07 6.4563e-08 -1.93248e-05
0.00114188 -3.06712e-06 3.1489e-07
-3.06712e-06 4.48935e-05 -3.13334e-07
3.1489e-07 -3.13334e-07 -5.3916e-06
0.00121818 -3.08296e-06 -5.4823e-07
-3.08296e-06 4.46347e-05 5.9479e-07
-5.4823e-07 5.9479e-07 -7.35624e-07
0.00112839 -4.32074e-06 2.29961e-07
-4.32074e-06 3.45766e-05 -1.73141e-07
2.29961e-07 -1.73141e-07 -2.21143e-05
0.00123699 -4.83329e-06 1.33952e-07
-4.83329e-06 7.14334e-05 7.80797e-07
1.33952e-07 7.80797e-07 1.52857e-05
0.000821468 2.93998e-06 8.33701e-07
2.93998e-06 -0.000113236 -1.98309e-06
8.33701e-07 -1.98309e-06 -0.000131735
0.00116689 1.57507e-06 5.62889e-07
1.57507e-06 5.88332e-05 -6.42646e-07
5.62889e-07 -6.42646e-07 2.46836e-05
0.00126924 -8.7761e-07 1.68367e-07
-8.7761e-07 0.000109475 1.77998e-07
1.68367e-07 1.77998e-07 6.6603e-05
0.00113333 -2.74547e-06 4.16597e-07
-2.74547e-06 4.32225e-05 -4.44485e-07
4.16597e-07 -4.44485e-07 -7.543e-06
0.00111058 -3.5738e-06 1.2581e-07
-3.5738e-06 2.70579e-05 -7.58556e-08
1.2581e-07 -7.58556e-08 -2.62877e-05
0.00116393 -3.73759e-06 2.37918e-07
-3.73759e-06 5.18612e-05 -2.86128e-08
2.37918e-07 -2.86128e-08 -2.04457e-06
0.00104567 -3.47179e-06 -1.14975e-06
-3.47179e-06 -2.98639e-06 -1.31566e-06
-1.14975e-06 -1.31566e-06 -1.93003e-05
0.0010896 -1.9272e-06 -8.51333e-07
-1.9272e-06 2.16101e-05 -7.31791e-07
-8.51333e-07 -7.31791e-07 -9.80182e-06
0.00120133 -3.22078e-06 4.43613e-07
-3.22078e-06 4.87037e-05 5.49256e-07
4.43613e-07 5.49256e-07 -2.01994e-06
0.00112003 -8.51663e-07 -5.78952e-07
-8.51663e-07 3.9133e-05 -3.68425e-07
-5.78952e-07 -3.68425e-07 -2.41566e-06
0.00110241 3.2667e-07 -5.77057e-07
3.2667e-07 3.25271e-05 -4.04344e-07
-5.77057e-07 -4.04344e-07 -1.01236e-05
0.00110288 3.85816e-07 -4.20478e-07
3.85816e-07 3.06516e-05 -4.85295e-07
-4.20478e-07 -4.85295e-07 -1.76276e-05
0.00115527 4.24909e-06 1.1483e-07
4.24909e-06 3.6006e-05 -1.08386e-08
1.1483e-07 -1.08386e-08 -1.77418e-05
0.0011415 2.35934e-06 6.48299e-07
2.35934e-06 1.85161e-05 8.12765e-07
6.48299e-07 8.12765e-07 -2.84991e-05
0.00102858 2.7936e-06 -1.67471e-07
2.7936e-06 1.06253e-06 -7.32762e-08
-1.67471e-07 -7.32762e-08 -5.1593e-05
0.00118146 5.07334e-06 -1.61565e-07
5.07334e-06 5.81099e-05 7.35317e-08
-1.61565e-07 7.35317e-08 2.02339e-06
0.00109102 -1.3518e-06 2.36053e-08
-1.3518e-06 1.98499e-05 -1.44353e-08
2.36053e-08 -1.44353e-08 -1.1501e-05
0.00106395 2.15225e-07 1.71483e-07
2.15225e-07 9.0232e-06 2.33034e-07
1.71483e-07 2.33034e-07 -3.25529e-05
0.00115625 2.1894e-06 -4.62666e-08
2.1894e-06 5.90415e-05 -3.11798e-07
-4.62666e-08 -3.11798e-07 9.42275e-06
0.0010934 6.13843e-07 -1.04821e-07
6.13843e-07 2.52632e-05 2.58989e-08
-1.04821e-07 2.58989e-08 -2.25502e-05
0.00114537 7.98199e-07 -2.30779e-07
7.98199e-07 4.85642e-05 -4.02726e-07
-2.30779e-07 -4.02726e-07 -2.61763e-06
0.00126392 -2.73295e-06 -1.86691e-07
-2.73295e-06 6.8488e-05 -2.13645e-07
-1.86691e-07 -2.13645e-07 2.56822e-05
0.00124086 5.73235e-06 9.03282e-08
5.73235e-06 7.55458e-05 -3.57666e-08
9.03282e-08 -3.57666e-08 2.2214e-05
0.00110671 3.56733e-06 -5.08557e-08
3.56733e-06 1.76456e-06 4.86762e-07
-5.08557e-08 4.86762e-07 -4.28346e-05
0.00119362 3.67227e-06 1.7854e-07
3.67227e-06 7.46249e-05 3.5795e-07
1.7854e-07 3.5795e-07 1.83445e-05
0.00113234 5.20648e-06 -2.44049e-07
5.20648e-06 3.50145e-05 -2.62998e-08
-2.44049e-07 -2.62998e-08 -2.47277e-05
0.00102805 7.44628e-07 6.85932e-07
7.44628e-07 -9.96715e-06 7.10195e-07
6.85932e-07 7.10195e-07 -5.22515e-05
0.00106423 2.15557e-06 3.33782e-07
2.15557e-06 8.55227e-06 1.01589e-08
3.33782e-07 1.01589e-08 -4.03234e-05
0.00114584 2.56987e-06 4.26546e-08
2.56987e-06 5.1996e-05 5.48923e-08
4.26546e-08 5.48923e-08 -2.27299e-06
0.00106161 1.79345e-06 2.30467e-07
1.79345e-06 7.17413e-06 2.24088e-07
2.30467e-07 2.24088e-07 -4.54575e-05
0.00135712 -5.82897e-06 -8.61462e-07
-5.82897e-06 0.00013439 -4.67223e-08
-8.61462e-07 -4.67223e-08 8.85471e-05
0.0012765 1.51766e-06 4.99409e-08
1.51766e-06 6.52127e-05 -4.02233e-07
4.99409e-08 -4.02233e-07 2.54762e-05
0.00118606 5.54469e-06 1.37281e-07
5.54469e-06 5.05892e-05 -1.12739e-06
1.37281e-07 -1.12739e-06 -4.79905e-06
0.00106254 4.21322e-06 -1.13296e-08
4.21322e-06 1.02989e-05 3.49582e-07
-1.13296e-08 3.49582e-07 -5.03691e-05
0.00108769 -1.05919e-06 -5.40611e-07
-1.05919e-06 1.77551e-05 -4.83059e-07
-5.40611e-07 -4.83059e-07 -1.38995e-05
0.00109649 7.94853e-07 1.2824e-07
7.94853e-07 2.34356e-05 2.47015e-07
1.2824e-07 2.47015e-07 -1.86298e-05
0.00117297 2.21155e-06 2.54516e-07
2.21155e-06 6.15564e-05 1.86044e-07
2.54516e-07 1.86044e-07 1.30441e-05
0.0010939 -9.46995e-07 -3.96321e-07
-9.46995e-07 2.02085e-05 -9.08966e-07
-3.96321e-07 -9.08966e-07 -1.20303e-05
0.00102841 6.51373e-07 -5.06762e-07
6.51373e-07 -8.50619e-06 -8.92287e-07
-5.06762e-07 -8.92287e-07 -5.16354e-05
0.00109805 -4.07125e-07 -8.72709e-09
-4.07125e-07 2.09935e-05 6.4038e-09
-8.72709e-09 6.4038e-09 -1.15535e-05
0.00114991 1.92075e-06 -1.27603e-07
1.92075e-06 5.15426e-05 -2.48387e-07
-1.27603e-07 -2.48387e-07 2.40476e-06
0.00107332 1.90306e-07 9.37231e-08
1.90306e-07 1.36574e-05 2.85713e-07
9.37231e-08 2.85713e-07 -2.93739e-05
0.00120332 2.43155e-06 9.83707e-08
2.43155e-06 7.64406e-05 -1.14772e-07
9.83707e-08 -1.14772e-07 2.3504e-05
0.00106181 1.03866e-06 3.47769e-07
1.03866e-06 1.00598e-05 4.95913e-07
3.47769e-07 4.95913e-07 -4.0155e-05
0.00102989 6.86645e-07 2.27165e-07
6.86645e-07 -8.6211e-06 8.16754e-07
2.27165e-07 8.16754e-07 -5.19133e-05
0.00109536 -3.67298e-07 3.33594e-07
-3.67298e-07 1.93785e-05 9.02125e-07
3.33594e-07 9.02125e-07 -1.39327e-05
0.00106404 -8.0655e-07 1.70033e-07
-8.0655e-07 -1.50462e-06 1.59775e-06
1.70033e-07 1.59775e-06 -1.93517e-05
0.00106298 -1.08538e-06 7.54849e-08
-1.08538e-06 -1.35263e-06 -5.36154e-09
7.54849e-08 -5.36154e-09 -1.90024e-05
0.00149916 -2.12269e-06 4.0567e-07
-2.12269e-06 0.000200519 1.65371e-06
4.0567e-07 1.65371e-06 0.00020948
0.00106095 -1.48685e-06 -5.43579e-07
-1.48685e-06 -1.45583e-06 -1.5529e-06
-5.43579e-07 -1.5529e-06 -1.85529e-05
0.00151386 -3.00928e-06 -2.31041e-07
-3.00928e-06 0.000209424 -1.03334e-06
-2.31041e-07 -1.03334e-06 0.000218364
0.00122959 -3.89411e-06 1.40579e-06
-3.89411e-06 6.86797e-05 5.41225e-06
1.40579e-06 5.41225e-06 8.99508e-05
0.00152983 -3.93725e-06 -1.29588e-06
-3.93725e-06 0.000219539 -3.60549e-06
-1.29588e-06 -3.60549e-06 0.000228327
0.00117907 -5.08397e-06 6.15049e-07
-5.08397e-06 4.71405e-05 2.02806e-06
6.15049e-07 2.02806e-06 6.84955e-05
0.00113135 -6.23397e-06 -6.73343e-07
-6.23397e-06 2.68729e-05 -1.18575e-06
-6.73343e-07 -1.18575e-06 4.81738e-05
0.000991107 4.95444e-06 1.12325e-06
4.95444e-06 -3.88309e-05 -2.42439e-06
1.12325e-06 -2.42439e-06 -3.21854e-05
0.000995091 5.80578e-06 -8.30892e-08
5.80578e-06 -3.35943e-05 -1.06839e-08
-8.30892e-08 -1.06839e-08 -2.78728e-05
0.00220962 7.23588e-06 1.6413e-06
7.23588e-06 0.000547226 -3.16424e-06
1.6413e-06 -3.16424e-06 0.000572288
0.000995678 6.55731e-06 -1.72159e-06
6.55731e-06 -3.01358e-05 2.22949e-06
-1.72159e-06 2.22949e-06 -2.49968e-05
0.00219718 8.38804e-06 -7.0166e-08
8.38804e-06 0.000545774 -3.03385e-08
-7.0166e-08 -3.03385e-08 0.000570176
0.00215864 9.57252e-06 -2.29043e-06
9.57252e-06 0.000531962 2.96239e-06
-2.29043e-06 2.96239e-06 0.000555891
0.00113871 -5.50302e-06 6.91986e-07
-5.50302e-06 3.27855e-05 7.0215e-07
6.91986e-07 7.0215e-07 -1.75094e-05
0.00102025 -7.06076e-06 1.6599e-07
-7.06076e-06 2.04077e-05 9.57117e-08
1.6599e-07 9.57117e-08 -3.88434e-05
0.00117714 -8.11538e-06 1.14449e-06
-8.11538e-06 7.03617e-05 -1.24527e-06
1.14449e-06 -1.24527e-06 1.20892e-05
0.00109259 -8.89898e-06 -9.79611e-07
-8.89898e-06 7.82563e-05 8.24402e-07
-9.79611e-07 8.24402e-07 1.12198e-05
0.000985265 -5.20216e-06 -1.60812e-07
-5.20216e-06 5.71378e-05 1.06311e-06
-1.60812e-07 1.06311e-06 -7.14453e-07
0.000934613 1.23686e-07 2.60989e-07
1.23686e-07 4.91099e-05 -1.25371e-08
2.60989e-07 -1.25371e-08 -7.04325e-06
0.000952972 1.17087e-06 2.27232e-07
1.17087e-06 5.68229e-05 -2.96966e-08
2.27232e-07 -2.96966e-08 -1.31155e-07
0.00100178 -6.2841e-06 -4.44583e-07
-6.2841e-06 6.52095e-05 6.16328e-07
-4.44583e-07 6.16328e-07 3.33128e-06
0.00100532 -9.59988e-06 1.01812e-07
-9.59988e-06 2.57206e-05 2.11267e-07
1.01812e-07 2.11267e-07 -3.80797e-05
0.00120859 -7.26385e-06 3.11882e-07
-7.26385e-06 6.54773e-05 1.32165e-07
3.11882e-07 1.32165e-07 1.66374e-05
0.000943253 1.10777e-06 -3.99162e-07
1.10777e-06 4.69445e-05 -5.84328e-07
-3.99162e-07 -5.84328e-07 -1.1244e-05
0.000863544 -1.07822e-05 -7.22356e-07
-1.07822e-05 8.09744e-06 -5.63116e-07
-7.22356e-07 -5.63116e-07 -5.71464e-05
0.00117435 -9.20928e-06 -1.44758e-06
-9.20928e-06 8.36431e-05 5.25408e-07
-1.44758e-06 5.25408e-07 2.7615e-05
0.00103083 6.27616e-06 4.52519e-07
6.27616e-06 6.39732e-05 -1.63818e-06
4.52519e-07 -1.63818e-06 2.31078e-06
0.00117604 5.74329e-06 1.51526e-07
5.74329e-06 8.89782e-05 -4.18362e-07
1.51526e-07 -4.18362e-07 2.7209e-05
0.00118621 4.86972e-06 5.16493e-07
4.86972e-06 6.77486e-05 3.41164e-08
5.16493e-07 3.41164e-08 5.73514e-06
0.00112692 -1.0369e-06 -5.54248e-07
-1.0369e-06 3.98255e-05 3.74081e-07
-5.54248e-07 3.74081e-07 -4.56238e-06
0.00124872 -3.42017e-06 -1.98739e-07
-3.42017e-06 9.48796e-05 9.00945e-08
-1.98739e-07 9.00945e-08 4.35492e-05
0.00121042 -4.41053e-06 -2.2533e-07
-4.41053e-06 6.65829e-05 -4.01599e-08
-2.2533e-07 -4.01599e-08 1.06075e-05
0.00121162 3.26757e-06 6.76326e-07
3.26757e-06 6.47612e-05 2.55736e-08
6.76326e-07 2.55736e-08 8.2321e-06
0.00123697 -8.53009e-07 1.21235e-06
-8.53009e-07 6.41165e-05 -2.24622e-07
1.21235e-06 -2.24622e-07 1.73348e-05
0.00119327 -3.3184e-06 3.25648e-08
-3.3184e-06 4.37923e-05 -1.55483e-06
3.25648e-08 -1.55483e-06 -5.90482e-06
0.00115457 -2.8203e-06 -3.20757e-07
-2.8203e-06 4.94444e-05 2.58377e-07
-3.20757e-07 2.58377e-07 7.71177e-07
0.00114116 -3.19035e-06 -6.16398e-07
-3.19035e-06 3.96598e-05 5.70845e-07
-6.16398e-07 5.70845e-07 -1.13526e-05
0.00122427 -2.80232e-06 -6.15051e-07
-2.80232e-06 8.52601e-05 3.52271e-07
-6.15051e-07 3.52271e-07 3.64854e-05
0.000825728 3.32112e-06 -7.7106e-07
3.32112e-06 -0.000108705 9.16025e-07
-7.7106e-07 9.16025e-07 -0.000128348
0.00127158 -9.0217e-07 -5.31217e-07
-9.0217e-07 0.000111323 5.38837e-07
-5.31217e-07 5.38837e-07 6.82628e-05
0.000944856 1.21216e-06 -8.15096e-07
1.21216e-06 -4.83266e-05 8.57983e-07
-8.15096e-07 8.57983e-07 -8.27672e-05
0.00107324 6.93337e-06 -1.75203e-07
6.93337e-06 8.29934e-05 3.38269e-07
-1.75203e-07 3.38269e-07 2.29956e-05
0.00110715 7.19719e-06 -1.01398e-07
7.19719e-06 5.59359e-05 2.12568e-07
-1.01398e-07 2.12568e-07 -8.51211e-06
0.00120662 5.60813e-06 -1.22198e-07
5.60813e-06 7.67616e-05 1.53333e-08
-1.22198e-07 1.53333e-08 1.605e-05
0.00114534 -3.07721e-06 -4.38162e-09
-3.07721e-06 4.64342e-05 -4.19169e-10
-4.38162e-09 -4.19169e-10 -3.85511e-06
0.00115433 -4.30757e-06 -2.39371e-09
-4.30757e-06 4.73562e-05 1.47785e-08
-2.39371e-09 1.47785e-08 -9.0266e-06
0.00120189 -4.5772e-06 -1.51062e-07
-4.5772e-06 5.59035e-05 1.18263e-07
-1.51062e-07 1.18263e-07 2.87691e-07
0.00121669 2.21617e-06 1.88182e-07
2.21617e-06 5.7857e-05 1.89885e-07
1.88182e-07 1.89885e-07 8.94562e-06
0.00121526 -3.09033e-06 -2.79589e-07
-3.09033e-06 4.39116e-05 -4.00878e-07
-2.79589e-07 -4.00878e-07 -1.72949e-06
0.000941045 2.92627e-06 1.28948e-07
2.92627e-06 -5.58796e-05 -4.99534e-07
1.28948e-07 -4.99534e-07 -7.36268e-05
0.00116465 1.66511e-06 -5.89998e-08
1.66511e-06 5.82452e-05 1.6531e-07
-5.89998e-08 1.6531e-07 2.40039e-05
0.00111798 -3.52741e-06 -1.15198e-07
-3.52741e-06 3.05799e-05 1.96064e-07
-1.15198e-07 1.96064e-07 -2.25388e-05
0.00117331 -3.77337e-06 -6.14495e-08
-3.77337e-06 5.63274e-05 5.42015e-08
-6.14495e-08 5.42015e-08 2.50183e-06
0.00114466 -2.69331e-06 1.13255e-07
-2.69331e-06 4.89223e-05 -1.86623e-07
1.13255e-07 -1.86623e-07 -1.65093e-06
0.00122204 -9.48227e-07 -3.0176e-07
-9.48227e-07 8.62803e-05 5.54797e-07
-3.0176e-07 5.54797e-07 4.31147e-05
0.00102748 7.45299e-06 2.77548e-07
7.45299e-06 6.11077e-05 1.16527e-06
2.77548e-07 1.16527e-06 2.66582e-06
0.00121158 8.7065e-06 7.81176e-08
8.7065e-06 0.000104887 1.28262e-07
7.81176e-08 1.28262e-07 3.58047e-05
0.00117977 4.63265e-06 -1.24465e-06
4.63265e-06 5.47954e-05 -6.35778e-07
-1.24465e-06 -6.35778e-07 2.89822e-06
0.00126274 -1.20277e-06 -7.98859e-07
-1.20277e-06 6.20719e-05 3.27882e-07
-7.98859e-07 3.27882e-07 1.98933e-05
0.00111039 -4.01265e-06 8.53892e-08
-4.01265e-06 2.85195e-05 -1.19314e-07
8.53892e-08 -1.19314e-07 -2.69697e-05
0.00125241 -4.72677e-06 2.3163e-07
-4.72677e-06 6.83443e-05 1.47288e-06
2.3163e-07 1.47288e-06 1.66788e-05
0.00123052 -4.98663e-06 6.81781e-08
-4.98663e-06 7.97658e-05 2.37294e-08
6.81781e-08 2.37294e-08 2.11478e-05
0.00105892 1.94329e-06 7.86023e-07
1.94329e-06 -2.83425e-06 -1.45105e-06
7.86023e-07 -1.45105e-06 -1.92021e-05
0.00109324 7.42644e-07 1.73911e-07
7.42644e-07 1.71315e-05 -9.76022e-07
1.73911e-07 -9.76022e-07 -1.52413e-05
0.000915898 1.98807e-06 4.48751e-07
1.98807e-06 -6.15703e-05 -1.2993e-06
4.48751e-07 -1.2993e-06 -9.59597e-05
0.00118418 3.73967e-07 2.17832e-07
3.73967e-07 6.98143e-05 -4.67684e-08
2.17832e-07 -4.67684e-08 2.49263e-05
0.00114433 -2.69027e-06 4.9595e-07
-2.69027e-06 4.81099e-05 -4.64487e-07
4.9595e-07 -4.64487e-07 -2.70067e-06
0.00117902 -3.56198e-06 2.93516e-07
-3.56198e-06 6.27896e-05 -6.16379e-08
2.93516e-07 -6.16379e-08 7.63181e-06
0.00116262 -4.27221e-06 2.10459e-07
-4.27221e-06 5.30574e-05 -3.27314e-07
2.10459e-07 -3.27314e-07 -2.51265e-06
0.00124443 -4.39719e-06 -8.00777e-08
-4.39719e-06 9.27055e-05 2.72478e-07
-8.00777e-08 2.72478e-07 3.55824e-05
0.00108962 -1.34826e-06 -7.87485e-07
-1.34826e-06 1.92079e-05 -7.84106e-07
-7.87485e-07 -7.84106e-07 -1.21431e-05
0.00112 3.36113e-07 -4.34755e-07
3.36113e-07 3.6204e-05 -1.6082e-07
-4.34755e-07 -1.6082e-07 -5.07621e-06
0.0012685 -3.00558e-06 5.96681e-07
-3.00558e-06 7.13452e-05 3.10578e-07
5.96681e-07 3.10578e-07 2.86223e-05
0.00113669 6.21718e-07 -4.677e-07
6.21718e-07 4.62879e-05 -1.6811e-07
-4.677e-07 -1.6811e-07 -1.23875e-06
0.00120198 2.22725e-06 -4.11139e-07
2.22725e-06 8.12676e-05 -7.45752e-07
-4.11139e-07 -7.45752e-07 3.22641e-05
0.00111383 6.73822e-07 -3.9689e-07
6.73822e-07 3.43776e-05 -5.99063e-07
-3.9689e-07 -5.99063e-07 -1.68934e-05
0.00123881 5.71343e-06 4.3168e-07
5.71343e-06 7.28945e-05 5.19321e-07
4.3168e-07 5.19321e-07 1.96475e-05
0.00115177 3.42224e-06 1.55022e-07
3.42224e-06 2.77949e-05 1.44899e-06
1.55022e-07 1.44899e-06 -1.57266e-05
0.00113322 3.61088e-06 7.00449e-08
3.61088e-06 4.67948e-05 9.25902e-08
7.00449e-08 9.25902e-08 -9.75019e-06
0.00114015 5.24244e-06 -3.50078e-07
5.24244e-06 3.76875e-05 1.33756e-07
-3.50078e-07 1.33756e-07 -2.30924e-05
0.00102151 7.28317e-07 1.53149e-07
7.28317e-07 -1.29735e-05 2.49297e-07
1.53149e-07 2.49297e-07 -5.52013e-05
0.00111144 2.1668e-06 -1.27242e-07
2.1668e-06 3.11908e-05 -2.41759e-07
-1.27242e-07 -2.41759e-07 -1.72265e-05
0.00117019 2.58331e-06 -9.68628e-08
2.58331e-06 6.39417e-05 -2.6511e-07
-9.68628e-08 -2.6511e-07 1.00716e-05
0.00112695 1.73725e-06 5.08746e-08
1.73725e-06 3.82943e-05 1.9701e-08
5.08746e-08 1.9701e-08 -1.40981e-05
0.00124185 -5.81251e-06 1.01079e-07
-5.81251e-06 7.95691e-05 -3.00409e-07
1.01079e-07 -3.00409e-07 3.35222e-05
0.00118192 1.36127e-06 2.51556e-07
1.36127e-06 2.57614e-05 -7.22091e-08
2.51556e-07 -7.22091e-08 -1.47447e-05
0.00128694 5.68272e-06 -2.59419e-07
5.68272e-06 9.7035e-05 -7.77234e-08
-2.59419e-07 -7.77234e-08 4.20387e-05
0.00111211 4.38658e-06 1.14683e-07
4.38658e-06 3.27607e-05 1.64519e-07
1.14683e-07 1.64519e-07 -2.81075e-05
0.00117583 2.34569e-06 1.81446e-07
2.34569e-06 6.25189e-05 -8.03535e-09
1.81446e-07 -8.03535e-09 1.39364e-05
0.00109321 -1.0157e-05 -2.26792e-06
-1.0157e-05 6.1846e-05 -9.58646e-07
-2.26792e-06 -9.58646e-07 8.70409e-06
0.00123325 3.31743e-06 3.97474e-07
3.31743e-06 8.8439e-05 2.7201e-07
3.97474e-07 2.7201e-07 3.52945e-05
0.00118623 3.71132e-06 4.50367e-08
3.71132e-06 6.71596e-05 2.3987e-07
4.50367e-08 2.3987e-07 9.93096e-06
0.00153071 -1.51969e-06 1.17911e-07
-1.51969e-06 0.000185939 -8.43031e-07
1.17911e-07 -8.43031e-07 0.000148813
0.00109325 5.37731e-06 1.26347e-06
5.37731e-06 -8.78478e-06 -1.41674e-06
1.26347e-06 -1.41674e-06 -6.07998e-05
0.00115833 5.15771e-06 1.78954e-08
5.15771e-06 5.42592e-05 1.97627e-07
1.78954e-08 1.97627e-07 -7.87387e-06
0.0011656 7.75318e-07 -3.4368e-07
7.75318e-07 5.68593e-05 -2.09214e-07
-3.4368e-07 -2.09214e-07 1.52374e-05
0.0011694 2.20085e-06 -3.33642e-08
2.20085e-06 5.99411e-05 -4.99373e-08
-3.33642e-08 -4.99373e-08 1.14022e-05
0.0011734 2.74841e-06 1.13593e-07
2.74841e-06 6.16278e-05 1.32463e-07
1.13593e-07 1.32463e-07 8.51075e-06
0.00109622 -4.02414e-07 -3.885e-07
-4.02414e-07 2.01269e-05 -8.83292e-07
-3.885e-07 -8.83292e-07 -1.2404e-05
0.00112533 3.75057e-07 -1.54537e-07
3.75057e-07 3.86737e-05 -2.83367e-07
-1.54537e-07 -2.83367e-07 -4.07705e-06
0.00107989 1.88332e-06 -4.01128e-07
1.88332e-06 1.77491e-05 -4.89893e-07
-4.01128e-07 -4.89893e-07 -3.18945e-05
0.00109795 -3.64754e-07 6.88097e-08
-3.64754e-07 2.06599e-05 -4.79082e-09
6.88097e-08 -4.79082e-09 -1.26812e-05
0.00102662 4.61185e-07 3.84431e-08
4.61185e-07 -1.00945e-05 2.97087e-07
3.84431e-08 2.97087e-07 -5.33226e-05
0.00115838 2.37587e-06 -1.53225e-07
2.37587e-06 5.49746e-05 -1.68305e-07
-1.53225e-07 -1.68305e-07 1.70086e-06
0.00115285 1.33181e-06 1.01853e-07
1.33181e-06 5.38709e-05 1.93472e-07
1.01853e-07 1.93472e-07 4.18e-06
0.0011979 2.83293e-06 -1.88229e-08
2.83293e-06 7.32785e-05 -2.68343e-07
-1.88229e-08 -2.68343e-07 1.76543e-05
0.00111748 2.0329e-06 2.74484e-07
2.0329e-06 3.56914e-05 6.61119e-08
2.74484e-07 6.61119e-08 -1.88411e-05
0.0011603 1.50811e-06 7.88551e-10
1.50811e-06 5.62257e-05 4.25793e-07
7.88551e-10 4.25793e-07 6.67361e-06
0.0011176 3.7914e-07 2.44477e-07
3.7914e-07 3.31792e-05 4.85417e-07
2.44477e-07 4.85417e-07 -1.04229e-05
0.00109491 -7.49218e-07 1.03681e-07
-7.49218e-07 1.91362e-05 9.07618e-07
1.03681e-07 9.07618e-07 -1.47063e-05
0.00106552 -2.00915e-07 -1.74176e-08
-2.00915e-07 -1.3573e-06 1.58103e-06
-1.74176e-08 1.58103e-06 -1.91164e-05
0.00106475 -8.14237e-07 5.44617e-08
-8.14237e-07 -1.14273e-06 8.17381e-09
5.44617e-08 8.17381e-09 -1.90025e-05
0.00150333 -1.19172e-06 1.85719e-07
-1.19172e-06 0.00020112 1.67062e-06
1.85719e-07 1.67062e-06 0.000210115
0.00106451 -1.09207e-06 -2.96074e-07
-1.09207e-06 -5.76856e-07 -1.59313e-06
-2.96074e-07 -1.59313e-06 -1.82535e-05
0.001521 -2.10173e-06 -1.31946e-07
-2.10173e-06 0.000211078 -1.05057e-06
-1.31946e-07 -1.05057e-06 0.000219875
0.00123603 -2.71854e-06 9.28285e-07
-2.71854e-06 6.93645e-05 5.51001e-06
9.28285e-07 5.51001e-06 9.07093e-05
0.00153736 -2.99524e-06 -9.9918e-07
-2.99524e-06 0.000220842 -3.69226e-06
-9.9918e-07 -3.69226e-06 0.000229584
0.00118619 -3.8998e-06 4.70556e-07
-3.8998e-06 4.77218e-05 2.06289e-06
4.70556e-07 2.06289e-06 6.92547e-05
0.00113636 -5.08747e-06 -5.4696e-07
-5.08747e-06 2.63218e-05 -1.23252e-06
-5.4696e-07 -1.23252e-06 4.79495e-05
0.00105885 1.5708e-06 3.8912e-07
1.5708e-06 -3.76231e-06 -1.57573e-06
3.8912e-07 -1.57573e-06 -2.00734e-05
0.00100295 3.87453e-06 9.99865e-07
3.87453e-06 -3.62231e-05 -2.51948e-06
9.99865e-07 -2.51948e-06 -2.91101e-05
0.001002 4.9255e-06 -3.73922e-08
4.9255e-06 -3.36642e-05 3.0963e-09
-3.73922e-08 3.0963e-09 -2.70887e-05
0.00219251 6.07682e-06 1.39233e-06
6.07682e-06 0.000535271 -3.21736e-06
1.39233e-06 -3.21736e-06 0.00056105
0.00100628 5.78079e-06 -1.46886e-06
5.78079e-06 -2.82855e-05 2.34993e-06
-1.46886e-06 2.34993e-06 -2.26213e-05
0.00218624 7.27339e-06 -7.54319e-08
7.27339e-06 0.000536506 -2.64982e-08
-7.54319e-08 -2.64982e-08 0.000561582
0.00216468 8.43658e-06 -2.06671e-06
8.43658e-06 0.000530655 3.0695e-06
-2.06671e-06 3.0695e-06 0.000555146
0.00106535 -7.32904e-06 9.89315e-07
-7.32904e-06 -6.68161e-07 -2.62894e-07
9.89315e-07 -2.62894e-07 -5.01657e-05
0.00093299 -9.38276e-06 4.30111e-07
-9.38276e-06 -5.93355e-06 -1.51235e-07
4.30111e-07 -1.51235e-07 -6.88705e-05
0.00106695 -6.37456e-06 1.38148e-08
-6.37456e-06 9.1934e-05 1.7576e-06
1.38148e-08 1.7576e-06 3.01946e-05
0.000981016 1.31924e-06 4.10956e-07
1.31924e-06 6.52052e-05 -3.72207e-07
4.10956e-07 -3.72207e-07 7.61793e-06
0.00097027 1.16739e-06 6.66433e-08
1.16739e-06 6.08952e-05 -4.68611e-07
6.66433e-08 -4.68611e-07 3.06596e-06
0.000933258 -1.06111e-05 3.51521e-08
-1.06111e-05 4.12794e-05 4.39374e-07
3.51521e-08 4.39374e-07 -2.43336e-05
0.00112573 -9.27745e-06 -2.55838e-07
-9.27745e-06 6.2498e-05 1.98765e-07
-2.55838e-07 1.98765e-07 7.41016e-06
0.000957657 -1.2254e-06 -2.43421e-07
-1.2254e-06 5.43586e-05 -1.34434e-06
-2.43421e-07 -1.34434e-06 -5.60501e-06
0.000880311 -1.16114e-05 -2.15532e-06
-1.16114e-05 2.38755e-06 1.25563e-07
-2.15532e-06 1.25563e-07 -5.93954e-05
0.00122321 -1.28453e-05 -1.56205e-06
-1.28453e-05 0.000156085 -6.22082e-07
-1.56205e-06 -6.22082e-07 0.000110136
0.00101056 6.93723e-06 6.69905e-07
6.93723e-06 5.90829e-05 -7.71106e-07
6.69905e-07 -7.71106e-07 -1.12722e-07
0.00108219 7.17229e-06 -6.65884e-08
7.17229e-06 4.00369e-05 -5.88224e-07
-6.65884e-08 -5.88224e-07 -2.46399e-05
0.00115389 5.7329e-06 6.56482e-07
5.7329e-06 5.23559e-05 2.01476e-07
6.56482e-07 2.01476e-07 -8.72349e-06
0.00114842 -3.08714e-06 -3.02458e-07
-3.08714e-06 4.7804e-05 2.98445e-07
-3.02458e-07 2.98445e-07 -2.48951e-06
0.00117892 -4.28931e-06 -1.73791e-07
-4.28931e-06 5.94944e-05 2.29932e-07
-1.73791e-07 2.29932e-07 3.42278e-06
0.0011645 -4.31529e-06 -1.21429e-07
-4.31529e-06 3.92539e-05 -6.72773e-07
-1.21429e-07 -6.72773e-07 -1.58195e-05
0.0012786 2.17529e-06 1.57444e-06
2.17529e-06 8.70651e-05 2.53753e-07
1.57444e-06 2.53753e-07 3.87355e-05
0.00121614 -3.09994e-06 -1.2306e-07
-3.09994e-06 4.4988e-05 -1.27154e-06
-1.2306e-07 -1.27154e-06 -9.35038e-07
0.00112568 -3.48297e-06 -3.56308e-07
-3.48297e-06 3.42415e-05 4.21126e-07
-3.56308e-07 4.21126e-07 -1.86509e-05
0.00118322 -3.80856e-06 -2.60712e-07
-3.80856e-06 6.10342e-05 1.36348e-07
-2.60712e-07 1.36348e-07 7.2881e-06
0.00115569 -2.63599e-06 -2.63026e-07
-2.63599e-06 5.44716e-05 2.9738e-08
-2.63026e-07 2.9738e-08 4.09215e-06
0.00106056 2.91049e-06 -5.95304e-07
2.91049e-06 1.47396e-06 9.59018e-07
-5.95304e-07 9.59018e-07 -1.55252e-05
0.00116199 1.76027e-06 -6.51489e-07
1.76027e-06 5.74671e-05 9.82746e-07
-6.51489e-07 9.82746e-07 2.31341e-05
0.0011725 -1.0144e-06 -7.58941e-07
-1.0144e-06 6.19916e-05 9.58498e-07
-7.58941e-07 9.58498e-07 1.85361e-05
0.000959387 7.10602e-06 -8.75272e-08
7.10602e-06 2.64164e-05 -1.47503e-07
-8.75272e-08 -1.47503e-07 -3.35655e-05
0.00106172 1.93916e-06 3.78488e-08
1.93916e-06 -1.49886e-06 -2.90887e-09
3.78488e-08 -2.90887e-09 -1.78828e-05
0.00103433 7.96597e-07 -1.46939e-07
7.96597e-07 -1.13633e-05 -3.81537e-08
-1.46939e-07 -3.81537e-08 -4.41012e-05
0.00116145 8.68708e-06 5.66066e-08
8.68708e-06 8.00027e-05 5.03667e-07
5.66066e-08 5.03667e-07 1.18152e-05
0.00118872 4.62427e-06 -1.45001e-07
4.62427e-06 6.00363e-05 -1.62446e-07
-1.45001e-07 -1.62446e-07 6.75733e-06
0.0011108 -3.93716e-06 -8.141e-08
-3.93716e-06 2.88144e-05 1.66754e-07
-8.141e-08 1.66754e-07 -2.64029e-05
0.00119777 -4.92459e-06 -5.57013e-08
-4.92459e-06 6.47641e-05 7.0882e-08
-5.57013e-08 7.0882e-08 6.16827e-06
0.00119453 -4.5748e-06 1.21142e-07
-4.5748e-06 4.11182e-05 9.34698e-08
1.21142e-07 9.34698e-08 -1.0307e-05
0.00127225 -1.41874e-06 5.02935e-08
-1.41874e-06 6.64941e-05 -2.24914e-07
5.02935e-08 -2.24914e-07 2.45734e-05
0.0011238 1.97289e-06 6.71614e-08
1.97289e-06 3.77941e-05 -3.55353e-07
6.71614e-08 -3.55353e-07 4.587e-06
0.00117328 3.49812e-07 -8.82016e-08
3.49812e-07 6.48842e-05 3.47338e-07
-8.82016e-08 3.47338e-07 1.99161e-05
0.00118225 -4.28649e-06 1.2182e-07
-4.28649e-06 6.20192e-05 -1.45627e-07
1.2182e-07 -1.45627e-07 6.40311e-06
0.00119474 -4.34618e-06 -1.48079e-07
-4.34618e-06 6.86382e-05 1.07218e-07
-1.48079e-07 1.07218e-07 1.15978e-05
0.00114317 -3.61198e-06 2.08081e-08
-3.61198e-06 4.50009e-05 3.62086e-08
2.08081e-08 3.62086e-08 -1.05126e-05
0.00114898 -2.69533e-06 1.21319e-07
-2.69533e-06 5.03064e-05 -2.59937e-07
1.21319e-07 -2.59937e-07 -4.24154e-07
0.00118983 8.38178e-06 7.31316e-07
8.38178e-06 0.000137673 1.37805e-06
7.31316e-07 1.37805e-06 6.58302e-05
0.00119168 8.90826e-06 -4.56613e-07
8.90826e-06 9.09596e-05 -8.52181e-07
-4.56613e-07 -8.52181e-07 2.56117e-05
0.00123242 1.26216e-06 -1.56825e-06
1.26216e-06 5.39743e-05 -1.92519e-07
-1.56825e-06 -1.92519e-07 1.47361e-05
0.00127207 -4.70038e-06 3.6024e-08
-4.70038e-06 6.47905e-05 1.17209e-06
3.6024e-08 1.17209e-06 1.9109e-05
0.00117534 -4.74704e-06 4.20764e-08
-4.74704e-06 5.82715e-05 -2.2818e-07
4.20764e-08 -2.2818e-07 3.4567e-07
0.00124752 -5.40372e-06 5.12937e-08
-5.40372e-06 8.31757e-05 6.6393e-07
5.12937e-08 6.6393e-07 2.47136e-05
0.000951089 1.026e-06 2.77016e-07
1.026e-06 -5.14831e-05 -1.4391e-06
2.77016e-07 -1.4391e-06 -8.39415e-05
0.00108967 6.76337e-07 5.7699e-07
6.76337e-07 1.60234e-05 -8.50072e-07
5.7699e-07 -8.50072e-07 -1.625e-05
0.00124761 4.18011e-07 1.07594e-07
4.18011e-07 9.345e-05 1.56469e-07
1.07594e-07 1.56469e-07 5.16795e-05
0.000978575 7.5294e-07 4.04966e-07
7.5294e-07 -2.65477e-05 -5.51118e-07
4.04966e-07 -5.51118e-07 -7.29385e-05
0.00123389 -1.60502e-06 4.57375e-07
-1.60502e-06 9.26998e-05 -1.12133e-07
4.57375e-07 -1.12133e-07 4.16228e-05
0.00107091 -3.71792e-06 1.13092e-07
-3.71792e-06 1.15318e-05 -1.65372e-07
1.13092e-07 -1.65372e-07 -4.62165e-05
0.00122752 -4.36764e-06 2.80163e-07
-4.36764e-06 8.75255e-05 1.60028e-07
2.80163e-07 1.60028e-07 2.79334e-05
0.00114085 -5.04885e-06 -1.30337e-07
-5.04885e-06 4.55214e-05 5.74522e-08
-1.30337e-07 5.74522e-08 -1.26232e-05
0.00101512 7.11603e-07 -3.7857e-07
7.11603e-07 -1.59095e-05 -2.09469e-07
-3.7857e-07 -2.09469e-07 -5.80808e-05
0.00115916 2.17673e-06 -6.08768e-07
2.17673e-06 5.40691e-05 -4.19228e-07
-6.08768e-07 -4.19228e-07 6.10926e-06
0.00112731 -5.80603e-06 5.95766e-07
-5.80603e-06 2.50367e-05 -3.81966e-07
5.95766e-07 -3.81966e-07 -2.12086e-05
0.00108482 1.20118e-06 1.91978e-07
1.20118e-06 -1.48896e-05 7.47621e-07
1.91978e-07 7.47621e-07 -5.61565e-05
0.00119347 1.7463e-06 -2.78337e-07
1.7463e-06 6.99791e-05 -1.85592e-07
-2.78337e-07 -1.85592e-07 1.78231e-05
0.001196 2.52375e-06 -2.32354e-07
2.52375e-06 7.65738e-05 -5.39183e-07
-2.32354e-07 -5.39183e-07 2.30999e-05
0.00139015 5.82348e-06 -1.20218e-08
5.82348e-06 0.000144604 6.45668e-07
-1.20218e-08 6.45668e-07 8.99947e-05
0.00116452 4.56753e-06 -6.25395e-08
4.56753e-06 5.66005e-05 -9.30307e-08
-6.25395e-08 -9.30307e-08 -4.47751e-06
0.00116943 2.35657e-06 -1.52565e-07
2.35657e-06 5.92957e-05 -2.52266e-07
-1.52565e-07 -2.52266e-07 1.07237e-05
0.00091658 -1.02078e-05 -4.328e-07
-1.02078e-05 -1.30729e-05 5.63304e-07
-4.328e-07 5.63304e-07 -6.3431e-05
0.00119764 3.33944e-06 1.16097e-07
3.33944e-06 7.10958e-05 2.26238e-07
1.16097e-07 2.26238e-07 1.7819e-05
0.00115307 3.70401e-06 6.07905e-08
3.70401e-06 5.10196e-05 4.75042e-08
6.07905e-08 4.75042e-08 -6.46084e-06
0.00124515 -1.89191e-06 2.89964e-07
-1.89191e-06 5.84745e-05 -1.77396e-07
2.89964e-07 -1.77396e-07 2.05134e-05
0.00133445 5.74996e-06 3.5544e-07
5.74996e-06 0.000100575 -3.27922e-07
3.5544e-07 -3.27922e-07 4.88691e-05
0.00122641 5.37945e-06 1.32552e-07
5.37945e-06 8.62727e-05 2.60468e-07
1.32552e-07 2.60468e-07 2.36047e-05
0.00118165 3.08725e-06 1.77051e-07
3.08725e-06 6.48855e-05 1.24185e-07
1.77051e-07 1.24185e-07 1.11571e-05
0.0013071 -7.76746e-06 -9.9595e-07
-7.76746e-06 0.00012242 -2.96458e-06
-9.9595e-07 -2.96458e-06 8.43492e-05
0.00126608 4.20156e-06 1.55804e-07
4.20156e-06 9.89388e-05 1.4027e-08
1.55804e-07 1.4027e-08 4.21827e-05
0.00130007 5.50305e-06 -1.65076e-07
5.50305e-06 0.00012092 3.80626e-07
-1.65076e-07 3.80626e-07 5.85546e-05
0.00111624 6.19511e-06 2.12808e-06
6.19511e-06 -3.3845e-05 -1.1565e-06
2.12808e-06 -1.1565e-06 -8.22195e-05
0.0010574 6.74038e-06 6.24658e-07
6.74038e-06 -8.17284e-07 -4.15087e-08
6.24658e-07 -4.15087e-08 -6.49761e-05
0.00132288 1.6606e-06 1.67386e-06
1.6606e-06 -5.55994e-05 -2.38364e-06
1.67386e-06 -2.38364e-06 -0.0001104
0.00116611 2.19034e-06 -3.22795e-07
2.19034e-06 5.84498e-05 -2.86108e-07
-3.22795e-07 -2.86108e-07 9.88477e-06
0.00117017 2.7355e-06 -1.58526e-08
2.7355e-06 6.01391e-05 -2.87681e-08
-1.58526e-08 -2.87681e-08 6.97699e-06
0.0012137 3.15579e-06 -5.51715e-08
3.15579e-06 7.97804e-05 -1.10202e-07
-5.51715e-08 -1.10202e-07 2.35678e-05
0.00110037 -3.62239e-07 -1.98713e-07
-3.62239e-07 2.18553e-05 -9.07984e-07
-1.98713e-07 -9.07984e-07 -1.15149e-05
0.00102337 1.5293e-07 -1.66964e-07
1.5293e-07 -1.15519e-05 -2.55838e-07
-1.66964e-07 -2.55838e-07 -5.47169e-05
0.00124432 1.56727e-06 -9.32429e-08
1.56727e-06 9.78823e-05 -9.43748e-08
-9.32429e-08 -9.43748e-08 4.87138e-05
0.00111411 2.32002e-06 -3.20362e-07
2.32002e-06 3.38293e-05 -2.31036e-07
-3.20362e-07 -2.31036e-07 -1.97829e-05
0.00109829 -7.5302e-07 4.72661e-08
-7.5302e-07 2.07976e-05 3.78812e-09
4.72661e-08 3.78812e-09 -1.30841e-05
0.00107656 4.14212e-07 3.13472e-08
4.14212e-07 1.34155e-05 5.04987e-09
3.13472e-08 5.04987e-09 -3.04165e-05
0.00116461 2.75406e-06 -1.09326e-07
2.75406e-06 5.7584e-05 -2.69572e-07
-1.09326e-07 -2.69572e-07 2.16976e-06
0.00115937 1.34551e-06 4.00207e-08
1.34551e-06 5.57451e-05 -5.14291e-09
4.00207e-08 -5.14291e-09 6.16261e-06
0.0011652 2.02408e-06 2.19174e-08
2.02408e-06 5.9015e-05 -2.68136e-08
2.19174e-08 -2.68136e-08 4.81355e-06
0.001149 2.66005e-06 1.776e-07
2.66005e-06 5.07883e-05 -5.23934e-08
1.776e-07 -5.23934e-08 -6.47548e-06
0.00121416 2.09906e-06 -1.43249e-07
2.09906e-06 8.3068e-05 -4.08043e-08
-1.43249e-07 -4.08043e-08 2.82828e-05
0.00122863 1.86653e-06 6.71124e-08
1.86653e-06 8.75629e-05 -1.80448e-10
6.71124e-08 -1.80448e-10 3.80045e-05
0.00102221 -9.20004e-07 9.99842e-08
-9.20004e-07 -1.30572e-05 4.98027e-07
9.99842e-08 4.98027e-07 -5.8087e-05
0.00094294 -2.76072e-07 -3.41892e-08
-2.76072e-07 -5.40878e-05 1.2661e-06
-3.41892e-08 1.2661e-06 -8.90123e-05
0.00125232 -8.86954e-07 -1.95539e-07
-8.86954e-07 9.66492e-05 8.3853e-08
-1.95539e-07 8.3853e-08 5.44587e-05
0.000963111 5.6046e-07 -2.59296e-07
5.6046e-07 -4.4446e-05 1.19523e-06
-2.59296e-07 1.19523e-06 -7.9272e-05
0.00106604 5.72768e-07 -1.09997e-07
5.72768e-07 -9.85278e-07 1.5669e-06
-1.09997e-07 1.5669e-06 -1.88919e-05
0.0010663 -2.07492e-07 1.55869e-08
-2.07492e-07 -9.73418e-07 5.86422e-09
1.55869e-08 5.86422e-09 -1.87402e-05
0.00101408 -1.97595e-07 2.50865e-08
-1.97595e-07 -3.53341e-05 2.67999e-06
2.50865e-08 2.67999e-06 -2.8646e-05
0.00106548 -8.21805e-07 -6.63668e-08
-8.21805e-07 -7.68803e-07 -1.59252e-06
-6.63668e-08 -1.59252e-06 -1.86413e-05
0.00126726 -1.19832e-06 -4.90166e-08
-1.19832e-06 8.74675e-05 -1.06393e-06
-4.90166e-08 -1.06393e-06 9.51794e-05
0.00221377 -1.47416e-06 3.82844e-07
-1.47416e-06 0.000538413 3.44429e-06
3.82844e-07 3.44429e-06 0.000564896
0.00154276 -2.08722e-06 -6.35405e-07
-2.08722e-06 0.000221598 -3.75553e-06
-6.35405e-07 -3.75553e-06 0.000230231
0.00119075 -2.71257e-06 3.12651e-07
-2.71257e-06 4.76e-05 2.09401e-06
3.12651e-07 2.09401e-06 6.91913e-05
0.00114348 -3.89504e-06 -4.22001e-07
-3.89504e-06 2.70623e-05 -1.27675e-06
-4.22001e-07 -1.27675e-06 4.88584e-05
0.0010592 1.32356e-06 3.1024e-07
1.32356e-06 -3.94568e-06 -1.61283e-06
3.1024e-07 -1.61283e-06 -1.96572e-05
0.00106186 1.56569e-06 -1.49309e-07
1.56569e-06 -2.31912e-06 -3.68068e-08
-1.49309e-07 -3.68068e-08 -1.86498e-05
0.00100431 2.94346e-06 6.57044e-07
2.94346e-06 -3.73269e-05 -2.63245e-06
6.57044e-07 -2.63245e-06 -2.99742e-05
0.00125448 3.86384e-06 -1.88443e-08
3.86384e-06 8.48276e-05 1.13399e-08
-1.88443e-08 1.13399e-08 9.30616e-05
0.00219502 4.83755e-06 1.16504e-06
4.83755e-06 0.000533366 -3.3242e-06
1.16504e-06 -3.3242e-06 0.00055958
0.00101244 4.898e-06 -1.20319e-06
4.898e-06 -2.87119e-05 2.43538e-06
-1.20319e-06 2.43538e-06 -2.22052e-05
0.00217116 6.12211e-06 -6.48013e-08
6.12211e-06 0.000525505 -1.92655e-08
-6.48013e-08 -1.92655e-08 0.00055129
0.00216307 7.31054e-06 -1.81519e-06
7.31054e-06 0.000525886 3.17084e-06
-1.81519e-06 3.17084e-06 0.000550974
0.00107267 -9.35356e-06 7.0451e-07
-9.35356e-06 3.93107e-05 -8.12634e-08
7.0451e-07 -8.12634e-08 -1.4837e-05
0.000995959 -1.04464e-05 1.15465e-06
-1.04464e-05 7.12336e-05 1.4245e-06
1.15465e-06 1.4245e-06 5.25295e-06
0.00100119 1.22771e-06 5.90096e-07
1.22771e-06 7.65721e-05 -2.69389e-07
5.90096e-07 -2.69389e-07 1.91073e-05
0.000981543 -1.65681e-06 -4.60893e-07
-1.65681e-06 6.55336e-05 -8.19243e-07
-4.60893e-07 -8.19243e-07 5.78332e-06
0.000956502 -1.13882e-05 -1.79287e-08
-1.13882e-05 3.76062e-05 7.98112e-08
-1.79287e-08 7.98112e-08 -2.45258e-05
0.00102065 -1.29465e-05 7.18841e-07
-1.29465e-05 8.82376e-05 3.07147e-07
7.18841e-07 3.07147e-07 4.39013e-05
0.00114247 -4.18177e-06 -1.43674e-06
-4.18177e-06 0.000135926 1.01453e-06
-1.43674e-06 1.01453e-06 7.41891e-05
0.000875875 -1.2402e-05 9.70267e-07
-1.2402e-05 -9.20022e-05 -3.3574e-06
9.70267e-07 -3.3574e-06 -0.00011926
0.000533794 -9.04753e-06 -1.86347e-06
-9.04753e-06 -0.000106346 -5.66774e-07
-1.86347e-06 -5.66774e-07 -0.000139825
0.00110196 7.83026e-07 -1.96889e-07
7.83026e-07 1.97041e-05 -1.055e-06
-1.96889e-07 -1.055e-06 -1.01215e-05
0.000886865 6.74016e-06 -2.86858e-07
6.74016e-06 -1.04512e-05 -1.02079e-06
-2.86858e-07 -1.02079e-06 -7.19551e-05
0.00110933 8.66673e-06 1.80783e-07
8.66673e-06 5.41644e-05 2.82583e-07
1.80783e-07 2.82583e-07 -1.3123e-05
0.00119219 4.62771e-06 1.10356e-06
4.62771e-06 6.26841e-05 4.01727e-07
1.10356e-06 4.01727e-07 8.03753e-06
0.00111234 -3.86531e-06 -2.5885e-07
-3.86531e-06 2.96461e-05 4.29294e-07
-2.5885e-07 4.29294e-07 -2.53024e-05
0.0011627 -4.85772e-06 -1.0071e-08
-4.85772e-06 4.8675e-05 3.40626e-08
-1.0071e-08 3.40626e-08 -9.89526e-06
0.00113859 -4.43016e-06 -1.88178e-07
-4.43016e-06 1.48038e-05 -1.06173e-06
-1.88178e-07 -1.06173e-06 -3.63848e-05
0.0012747 -1.61846e-06 7.3076e-07
-1.61846e-06 6.76931e-05 -8.53014e-07
7.3076e-07 -8.53014e-07 2.60345e-05
0.00120237 -4.30049e-06 1.09444e-07
-4.30049e-06 7.1216e-05 -5.66226e-08
1.09444e-07 -5.66226e-08 1.55529e-05
0.00114286 -4.29753e-06 -3.69382e-07
-4.29753e-06 4.35318e-05 -2.99036e-09
-3.69382e-07 -2.99036e-09 -1.34201e-05
0.00110469 -3.66669e-06 -4.51585e-07
-3.66669e-06 2.59869e-05 4.13554e-08
-4.51585e-07 4.13554e-08 -2.98787e-05
0.00106385 1.93534e-06 -7.14189e-07
1.93534e-06 -4.83109e-07 1.47955e-06
-7.14189e-07 1.47955e-06 -1.68807e-05
0.00115578 -2.70388e-06 -1.45097e-07
-2.70388e-06 5.35318e-05 9.96835e-08
-1.45097e-07 9.96835e-08 2.8752e-06
0.00133223 1.95975e-06 -3.29967e-07
1.95975e-06 0.000137394 5.10421e-07
-3.29967e-07 5.10421e-07 0.000105369
0.00116477 3.22972e-07 -6.1529e-07
3.22972e-07 6.10405e-05 6.45057e-07
-6.1529e-07 6.45057e-07 1.59925e-05
0.000976206 8.51346e-07 -5.27847e-07
8.51346e-07 -3.95277e-05 9.06561e-07
-5.27847e-07 9.06561e-07 -7.26277e-05
0.00106375 8.48355e-06 2.72956e-07
8.48355e-06 7.19526e-05 -3.3258e-08
2.72956e-07 -3.3258e-08 -1.14817e-06
0.0010259 1.00236e-06 5.94671e-08
1.00236e-06 -1.53889e-05 -4.39089e-07
5.94671e-08 -4.39089e-07 -4.71612e-05
0.00110245 6.61015e-07 8.27299e-08
6.61015e-07 2.21001e-05 2.74642e-08
8.27299e-08 2.74642e-08 -1.02326e-05
0.00117957 3.10717e-07 9.99192e-08
3.10717e-07 6.0472e-05 4.11251e-07
9.99192e-08 4.11251e-07 1.78965e-05
0.00117924 8.9648e-06 2.96886e-07
8.9648e-06 8.59689e-05 4.1756e-07
2.96886e-07 4.1756e-07 2.08679e-05
0.00123892 8.82466e-07 -5.04566e-08
8.82466e-07 5.81103e-05 -4.4641e-07
-5.04566e-08 -4.4641e-07 1.72708e-05
0.00117756 -4.75142e-06 5.71883e-08
-4.75142e-06 5.93853e-05 -6.62911e-08
5.71883e-08 -6.62911e-08 1.45121e-06
0.00118271 -5.32604e-06 1.40607e-07
-5.32604e-06 5.31648e-05 1.93101e-07
1.40607e-07 1.93101e-07 -5.07466e-06
0.00120953 -4.56103e-06 -1.88628e-07
-4.56103e-06 3.59122e-05 -7.29937e-08
-1.88628e-07 -7.29937e-08 -9.62806e-06
0.00104837 9.91416e-07 -8.90998e-09
9.91416e-07 6.88538e-06 1.72094e-09
-8.90998e-09 1.72094e-09 -3.89743e-05
0.00122111 -1.8271e-06 1.43688e-07
-1.8271e-06 8.58118e-05 3.24189e-08
1.43688e-07 3.24189e-08 3.45047e-05
0.00115951 -4.98908e-06 -7.17796e-10
-4.98908e-06 5.42672e-05 -5.90102e-08
-7.17796e-10 -5.90102e-08 -3.82875e-06
0.00120805 -4.36048e-06 5.71691e-09
-4.36048e-06 7.75007e-05 -2.91894e-09
5.71691e-09 -2.91894e-09 1.85158e-05
0.00112963 -3.67198e-06 -2.69579e-07
-3.67198e-06 4.02115e-05 2.65757e-07
-2.69579e-07 2.65757e-07 -1.72241e-05
0.00114057 1.26349e-05 9.50356e-08
1.26349e-05 0.000115498 7.15671e-07
9.50356e-08 7.15671e-07 3.23521e-05
0.00115536 6.21295e-06 -1.61207e-06
6.21295e-06 4.47998e-05 -1.27951e-06
-1.61207e-06 -1.27951e-06 -2.73054e-06
0.00128773 -4.07939e-06 -6.03084e-07
-4.07939e-06 5.85066e-05 9.92299e-07
-6.03084e-07 9.92299e-07 1.94131e-05
0.0013216 -6.1607e-06 7.7897e-07
-6.1607e-06 0.000109549 7.37858e-07
7.7897e-07 7.37858e-07 5.33503e-05
0.00117115 -5.60782e-06 -1.84869e-07
-5.60782e-06 5.65519e-05 -6.06022e-08
-1.84869e-07 -6.06022e-08 -3.05206e-06
0.000976693 1.45963e-06 1.882e-07
1.45963e-06 -3.63049e-05 -6.23438e-07
1.882e-07 -6.23438e-07 -7.91003e-05
0.000952916 -3.01283e-07 2.02009e-07
-3.01283e-07 -4.581e-05 -3.46025e-07
2.02009e-07 -3.46025e-07 -9.04129e-05
0.00113975 8.50015e-07 -1.84346e-08
8.50015e-07 4.8897e-05 1.91696e-07
-1.84346e-08 1.91696e-07 -9.98948e-07
0.00120175 -1.73615e-06 4.85462e-07
-1.73615e-06 7.98151e-05 -3.27241e-07
4.85462e-07 -3.27241e-07 2.50236e-05
0.00107238 -3.16778e-06 9.29797e-08
-3.16778e-06 1.32172e-05 1.57452e-07
9.29797e-08 1.57452e-07 -4.35032e-05
0.00125202 -4.72318e-06 6.56223e-07
-4.72318e-06 0.000101858 -2.31112e-07
6.56223e-07 -2.31112e-07 3.88902e-05
0.00114971 -6.01678e-06 1.22884e-07
-6.01678e-06 5.14012e-05 2.49583e-07
1.22884e-07 2.49583e-07 -9.6581e-06
0.00116181 2.36814e-06 -4.68818e-07
2.36814e-06 5.5528e-05 -5.04744e-07
-4.68818e-07 -5.04744e-07 6.96526e-06
0.00116222 3.36457e-06 -1.06779e-07
3.36457e-06 5.38406e-05 1.10431e-07
-1.06779e-07 1.10431e-07 4.30837e-07
0.000736825 -1.02446e-05 2.22388e-06
-1.02446e-05 -8.91654e-05 1.49208e-06
2.22388e-06 1.49208e-06 -0.000136759
0.000953579 -2.24124e-06 1.04404e-06
-2.24124e-06 -7.17146e-05 8.32118e-08
1.04404e-06 8.32118e-08 -0.000110506
0.00157705 6.13026e-06 -2.30909e-07
6.13026e-06 0.00021053 6.94845e-07
-2.30909e-07 6.94845e-07 0.000159137
0.001117 3.69452e-06 2.12524e-08
3.69452e-06 3.34997e-05 -5.3875e-08
2.12524e-08 -5.3875e-08 -2.42261e-05
0.00129157 5.59435e-06 -1.64565e-07
5.59435e-06 0.000116897 2.14219e-07
-1.64565e-07 2.14219e-07 5.37016e-05
0.00120193 3.12053e-06 1.32171e-08
3.12053e-06 7.44663e-05 1.97309e-08
1.32171e-08 1.97309e-08 2.09751e-05
0.00101704 -7.78608e-06 -6.55587e-07
-7.78608e-06 -7.16243e-06 -6.03345e-08
-6.55587e-07 -6.03345e-08 -4.40876e-05
0.00121168 4.12894e-06 5.29736e-08
4.12894e-06 7.34905e-05 7.89117e-08
5.29736e-08 7.89117e-08 1.65982e-05
0.00123011 5.40612e-06 -3.42356e-08
5.40612e-06 8.89378e-05 1.54001e-07
-3.42356e-08 1.54001e-07 2.63921e-05
0.00130494 5.47045e-06 9.75538e-07
5.47045e-06 5.5264e-05 -5.60432e-07
9.75538e-07 -5.60432e-07 8.70781e-06
0.0011803 7.11793e-06 -1.08186e-07
7.11793e-06 5.63188e-05 5.23511e-07
-1.08186e-07 5.23511e-07 -8.53858e-06
0.00178695 2.02138e-06 -7.30152e-07
2.02138e-06 0.000151385 -3.91839e-07
-7.30152e-07 -3.91839e-07 9.61899e-05
0.00118406 3.55963e-06 -1.00016e-07
3.55963e-06 6.29308e-05 -2.3945e-07
-1.00016e-07 -2.3945e-07 5.73561e-06
0.00100669 5.02222e-06 2.76871e-06
5.02222e-06 -0.000122521 -5.35709e-07
2.76871e-06 -5.35709e-07 -0.000172875
0.00122633 5.0827e-06 -1.86107e-07
5.0827e-06 8.29035e-05 -1.52282e-07
-1.86107e-07 -1.52282e-07 2.2557e-05
0.00117325 7.25749e-06 -9.87368e-08
7.25749e-06 6.99799e-05 7.9815e-07
-9.87368e-08 7.9815e-07 -1.13261e-07
0.00102657 1.17247e-05 2.19602e-06
1.17247e-05 -5.26265e-05 -8.67404e-07
2.19602e-06 -8.67404e-07 -0.000122872
0.00621795 5.79641e-06 -3.1795e-05
5.79641e-06 0.00180405 -4.38506e-06
-3.1795e-05 -4.38506e-06 0.00175952
0.00301758 1.41688e-05 1.38739e-05
1.41688e-05 0.000692106 4.71824e-06
1.38739e-05 4.71824e-06 0.000611001
0.00109828 1.60146e-05 1.32696e-06
1.60146e-05 -0.000167785 -8.59927e-07
1.32696e-06 -8.59927e-07 -0.000246
-0.00605201 -3.6042e-05 -3.07254e-05
-3.6042e-05 -0.00254372 -1.2964e-05
-3.07254e-05 -1.2964e-05 -0.00245501
0.000609111 -3.13159e-05 7.46645e-06
-3.13159e-05 0.000208527 4.93529e-06
7.46645e-06 4.93529e-06 0.000286107
0.00116732 2.72286e-06 -1.90946e-07
2.72286e-06 5.88137e-05 -1.68105e-07
-1.90946e-07 -1.68105e-07 5.60709e-06
0.00120099 3.08968e-06 -3.43188e-09
3.08968e-06 7.40096e-05 -1.122e-07
-3.43188e-09 -1.122e-07 1.79645e-05
0.00117357 3.22374e-06 5.03042e-08
3.22374e-06 6.29087e-05 -9.74997e-08
5.03042e-08 -9.74997e-08 4.42509e-06
0.00110173 -7.57199e-07 -1.32267e-08
-7.57199e-07 2.24856e-05 -9.16936e-07
-1.32267e-08 -9.16936e-07 -1.14354e-05
0.00103585 4.48567e-07 -1.5101e-07
4.48567e-07 -6.20068e-06 -4.9416e-07
-1.5101e-07 -4.9416e-07 -5.02627e-05
0.00115853 1.26542e-06 -1.42056e-07
1.26542e-06 5.53054e-05 -4.17325e-07
-1.42056e-07 -4.17325e-07 5.6929e-06
0.00121342 2.01387e-06 -1.6847e-07
2.01387e-06 8.25594e-05 -7.85735e-08
-1.6847e-07 -7.85735e-08 2.86904e-05
0.00113081 2.67668e-06 -2.33886e-07
2.67668e-06 4.16534e-05 -3.7714e-07
-2.33886e-07 -3.7714e-07 -1.35499e-05
0.0011559 1.78515e-06 -1.54077e-07
1.78515e-06 5.25656e-05 -2.46632e-07
-1.54077e-07 -2.46632e-07 2.51374e-06
0.00102258 -2.85784e-07 -5.21976e-09
-2.85784e-07 -1.58242e-05 3.49504e-07
-5.21976e-09 3.49504e-07 -5.02705e-05
0.00107358 -9.48588e-07 4.5531e-08
-9.48588e-07 1.18659e-05 -6.42941e-09
4.5531e-08 -6.42941e-09 -3.28554e-05
0.00115807 2.60362e-06 3.49159e-08
2.60362e-06 5.51333e-05 2.13332e-09
3.49159e-08 2.13332e-09 -1.84692e-06
0.00118806 2.09657e-06 -3.43361e-08
2.09657e-06 7.01559e-05 -1.97901e-07
-3.43361e-08 -1.97901e-07 1.54485e-05
0.00121038 2.2017e-06 -5.58527e-08
2.2017e-06 8.02279e-05 -2.45178e-07
-5.58527e-08 -2.45178e-07 2.6112e-05
0.00119124 2.1453e-06 6.527e-08
2.1453e-06 7.18511e-05 5.88045e-08
6.527e-08 5.88045e-08 1.32692e-05
0.00109945 7.0324e-07 1.41795e-07
7.0324e-07 2.40797e-05 4.93583e-07
1.41795e-07 4.93583e-07 -2.76064e-05
0.00101569 -2.83467e-07 -2.44434e-08
-2.83467e-07 -1.58258e-05 2.52463e-07
-2.44434e-08 2.52463e-07 -6.15642e-05
0.000951541 4.67706e-07 -1.1286e-07
4.67706e-07 -4.98481e-05 1.25905e-06
-1.1286e-07 1.25905e-06 -8.49527e-05
0.00118286 1.22885e-07 -2.07391e-07
1.22885e-07 6.40334e-05 3.45043e-07
-2.07391e-07 3.45043e-07 2.0128e-05
0.00122178 -1.78839e-06 -1.59617e-07
-1.78839e-06 8.24759e-05 -1.74404e-07
-1.59617e-07 -1.74404e-07 3.39101e-05
0.00111833 -9.35256e-07 -3.50663e-07
-9.35256e-07 3.21733e-05 4.07747e-07
-3.50663e-07 4.07747e-07 -1.03443e-05
0.00115352 -9.14643e-07 1.05236e-07
-9.14643e-07 4.8854e-05 -3.20508e-07
1.05236e-07 -3.20508e-07 5.94121e-06
0.00109756 2.87784e-07 -3.58682e-07
2.87784e-07 1.95724e-05 8.18976e-07
-3.58682e-07 8.18976e-07 -1.36409e-05
0.000958817 5.4967e-07 -3.51852e-08
5.4967e-07 -4.6467e-05 3.39785e-07
-3.51852e-08 3.39785e-07 -8.13345e-05
0.00106471 1.04922e-06 -2.64849e-07
1.04922e-06 -1.17187e-06 1.55017e-06
-2.64849e-07 1.55017e-06 -1.92771e-05
0.00106614 5.64707e-07 3.06915e-08
5.64707e-07 -9.60091e-07 2.92037e-10
3.06915e-08 2.92037e-10 -1.88603e-05
0.00103964 8.49345e-07 -2.6696e-07
8.49345e-07 -2.31369e-05 3.72134e-06
-2.6696e-07 3.72134e-06 -1.66122e-05
0.001067 -2.14024e-07 4.36379e-08
-2.14024e-07 -6.3044e-07 -1.57762e-06
4.36379e-08 -1.57762e-06 -1.84047e-05
0.00101462 -2.13959e-07 4.28205e-08
-2.13959e-07 -3.50709e-05 7.34553e-09
4.28205e-08 7.34553e-09 -2.83866e-05
0.00221317 -2.87857e-07 5.82975e-08
-2.87857e-07 0.000537249 3.43502e-06
5.82975e-08 3.43502e-06 0.000563876
0.00103435 -1.21612e-06 -2.43411e-07
-1.21612e-06 -2.47528e-05 -3.76709e-06
-2.43411e-07 -3.76709e-06 -1.83263e-05
0.00170033 -1.47221e-06 6.8402e-08
-1.47221e-06 0.000291128 1.20164e-08
6.8402e-08 1.20164e-08 0.000315288
0.00114579 -2.69396e-06 -2.83919e-07
-2.69396e-06 2.59734e-05 -1.31205e-06
-2.83919e-07 -1.31205e-06 4.7812e-05
0.00106029 8.49364e-07 -3.25956e-08
8.49364e-07 -4.84985e-06 -1.61741e-06
-3.25956e-08 -1.61741e-06 -1.93936e-05
0.00106328 1.30977e-06 1.84706e-08
1.30977e-06 -2.02002e-06 5.28443e-09
1.84706e-08 5.28443e-09 -1.77551e-05
0.00100463 2.05851e-06 4.2823e-07
2.05851e-06 -3.83973e-05 -2.68131e-06
4.2823e-07 -2.68131e-06 -3.04929e-05
0.00106538 1.5605e-06 -6.87011e-07
1.5605e-06 -6.3759e-07 1.52082e-06
-6.87011e-07 1.52082e-06 -1.69894e-05
0.00125174 2.8997e-06 3.0904e-08
2.8997e-06 8.16145e-05 -5.10225e-07
3.0904e-08 -5.10225e-07 9.01031e-05
0.00219146 3.62662e-06 8.41766e-07
3.62662e-06 0.000529382 -3.37195e-06
8.41766e-07 -3.37195e-06 0.000555969
0.00100014 3.88068e-06 -1.05709e-06
3.88068e-06 -3.75292e-05 2.46969e-06
-1.05709e-06 2.46969e-06 -3.03353e-05
0.00217831 4.91974e-06 -3.74045e-07
4.91974e-06 0.000526059 9.63985e-07
-3.74045e-07 9.63985e-07 0.00055227
0.00214955 6.16509e-06 -1.53799e-06
6.16509e-06 0.00051561 3.22348e-06
-1.53799e-06 3.22348e-06 0.000541404
0.00104318 -1.11595e-05 6.92777e-07
-1.11595e-05 7.75581e-05 6.19621e-07
6.92777e-07 6.19621e-07 1.50787e-05
0.00100792 -2.0665e-06 3.81989e-07
-2.0665e-06 7.78294e-05 -4.09095e-07
3.81989e-07 -4.09095e-07 1.82946e-05
0.000821947 -1.30558e-05 5.38721e-06
-1.30558e-05 2.16335e-05 1.67257e-06
5.38721e-06 1.67257e-06 -2.10474e-05
0.000725749 -1.15587e-05 1.66691e-07
-1.15587e-05 -0.000150304 -8.66064e-08
1.66691e-07 -8.66064e-08 -0.000178746
0.000918815 -4.26328e-06 1.10802e-07
-4.26328e-06 3.80307e-05 -2.05331e-07
1.10802e-07 -2.05331e-07 -2.3994e-05
0.000776602 -8.23656e-06 1.25109e-07
-8.23656e-06 4.16295e-06 -1.80822e-06
1.25109e-07 -1.80822e-06 -3.46995e-05
0.000708169 6.14e-06 -1.66702e-06
6.14e-06 -2.20995e-05 2.72412e-06
-1.66702e-06 2.72412e-06 -9.00376e-05
0.00072808 -3.91935e-06 1.94952e-05
-3.91935e-06 -0.000324775 2.97347e-06
1.94952e-05 2.97347e-06 -0.000376492
0.000863918 -1.53705e-06 -1.13854e-06
-1.53705e-06 6.98663e-05 3.18809e-06
-1.13854e-06 3.18809e-06 2.98595e-05
0.00110927 -2.0056e-08 1.34228e-07
-2.0056e-08 2.31823e-05 -9.54317e-07
1.34228e-07 -9.54317e-07 -5.57222e-06
0.0011032 8.03986e-07 -1.68424e-07
8.03986e-07 2.03597e-05 -3.504e-09
-1.68424e-07 -3.504e-09 -9.5082e-06
0.0010983 1.70309e-06 -1.77112e-07
1.70309e-06 2.05261e-05 -4.16319e-07
-1.77112e-07 -4.16319e-07 -2.01932e-05
0.00108974 -1.32796e-06 6.11219e-08
-1.32796e-06 1.72956e-05 -1.59132e-07
6.11219e-08 -1.59132e-07 -2.09926e-05
0.000956397 8.59864e-06 -7.98329e-07
8.59864e-06 1.51691e-05 -5.52056e-07
-7.98329e-07 -5.52056e-07 -5.92279e-05
0.00116495 9.01895e-06 1.23412e-06
9.01895e-06 7.99911e-05 1.17759e-06
1.23412e-06 1.17759e-06 1.5147e-05
0.00124956 4.98614e-07 1.09021e-06
4.98614e-07 6.4084e-05 -3.1592e-07
1.09021e-06 -3.1592e-07 2.16519e-05
0.00117989 -4.75606e-06 1.06662e-07
-4.75606e-06 6.05486e-05 1.38524e-07
1.06662e-07 1.38524e-07 2.6063e-06
0.00111412 -5.24438e-06 1.40685e-07
-5.24438e-06 2.14155e-05 -3.08647e-07
1.40685e-07 -3.08647e-07 -3.65975e-05
0.00115474 -4.43552e-06 -3.18974e-07
-4.43552e-06 1.062e-05 -1.42317e-06
-3.18974e-07 -1.42317e-06 -3.479e-05
0.00117711 -4.92848e-06 1.64455e-10
-4.92848e-06 6.24907e-05 -6.07859e-08
1.64455e-10 -6.07859e-08 4.44797e-06
0.00119149 -4.35146e-06 -3.90037e-07
-4.35146e-06 6.8828e-05 -1.80435e-07
-3.90037e-07 -1.80435e-07 1.04476e-05
0.00118807 -3.62259e-06 -4.76935e-07
-3.62259e-06 6.87396e-05 5.71595e-07
-4.76935e-07 5.71595e-07 1.16192e-05
0.00111513 6.45377e-07 -4.02268e-07
6.45377e-07 2.81406e-05 8.95378e-07
-4.02268e-07 8.95378e-07 -4.25181e-06
0.00120573 -2.05213e-06 -4.48983e-07
-2.05213e-06 7.7719e-05 2.03503e-07
-4.48983e-07 2.03503e-07 2.61854e-05
0.00111637 1.16694e-06 -2.85834e-07
1.16694e-06 3.94976e-05 6.19757e-07
-2.85834e-07 6.19757e-07 -5.82997e-06
0.00109997 9.77616e-07 -9.65449e-08
9.77616e-07 2.04014e-05 6.22226e-07
-9.65449e-08 6.22226e-07 -1.06885e-05
0.00110997 2.03561e-07 -3.91191e-07
2.03561e-07 2.6742e-05 8.94157e-07
-3.91191e-07 8.94157e-07 -1.66328e-05
0.00114343 1.23846e-05 4.86672e-07
1.23846e-05 0.000110804 4.85177e-07
4.86672e-07 4.85177e-07 2.91339e-05
0.00112795 1.50021e-06 -3.72762e-08
1.50021e-06 3.62851e-05 -2.31344e-07
-3.72762e-08 -2.31344e-07 -5.83188e-06
0.00104922 -6.55974e-07 2.46474e-08
-6.55974e-07 4.0395e-09 -6.32611e-09
2.46474e-08 -6.32611e-09 -4.41851e-05
0.00111835 2.62766e-07 -1.46876e-08
2.62766e-07 3.82537e-05 6.03875e-07
-1.46876e-08 6.03875e-07 -1.02944e-05
0.0012353 6.08663e-06 2.41066e-07
6.08663e-06 8.58719e-05 -1.24354e-07
2.41066e-07 -1.24354e-07 3.71414e-05
0.00123516 -3.99053e-06 -5.18766e-07
-3.99053e-06 3.44078e-05 -6.17535e-07
-5.18766e-07 -6.17535e-07 -4.7856e-06
0.00118282 -5.61497e-06 3.17494e-08
-5.61497e-06 6.23994e-05 -7.7954e-08
3.17494e-08 -7.7954e-08 2.67555e-06
0.00121256 -5.89262e-06 2.16025e-07
-5.89262e-06 5.95232e-05 4.25329e-07
2.16025e-07 4.25329e-07 3.95209e-06
0.00122833 -1.47083e-06 2.52057e-08
-1.47083e-06 9.31976e-05 -2.92454e-08
2.52057e-08 -2.92454e-08 3.85999e-05
0.0011083 -3.45472e-06 -3.2459e-07
-3.45472e-06 2.96864e-05 5.35612e-07
-3.2459e-07 5.35612e-07 -2.65044e-05
0.00116414 -6.03342e-06 -1.48328e-07
-6.03342e-06 5.82054e-05 -9.10748e-08
-1.48328e-07 -9.10748e-08 -2.89888e-06
0.00124036 -4.55363e-06 2.1341e-07
-4.55363e-06 9.65776e-05 -1.59058e-07
2.1341e-07 -1.59058e-07 3.39635e-05
0.00112129 1.36378e-05 -1.54116e-06
1.36378e-05 9.93317e-05 -1.10058e-06
-1.54116e-06 -1.10058e-06 2.85184e-05
0.00133207 -2.2624e-06 -1.39732e-06
-2.2624e-06 7.56302e-05 -2.65511e-07
-1.39732e-06 -2.65511e-07 4.20991e-05
0.00123321 -7.03349e-06 1.4524e-06
-7.03349e-06 4.88083e-05 1.91697e-06
1.4524e-06 1.91697e-06 -3.38954e-06
0.00119478 -7.76087e-06 6.42317e-08
-7.76087e-06 6.74031e-05 -2.54556e-07
6.42317e-08 -2.54556e-07 5.96554e-06
0.001106 1.2349e-06 3.61747e-08
1.2349e-06 3.42633e-05 -3.7048e-07
3.61747e-08 -3.7048e-07 -1.82535e-05
0.00109963 -2.13711e-06 -6.73215e-08
-2.13711e-06 2.87458e-05 -8.79895e-07
-6.73215e-08 -8.79895e-07 -2.49059e-05
0.00113856 -3.64855e-06 3.0693e-07
-3.64855e-06 5.09739e-05 -3.05454e-07
3.0693e-07 -3.05454e-07 -1.23841e-05
0.00121895 -6.32749e-06 5.25718e-07
-6.32749e-06 8.79242e-05 3.51068e-07
5.25718e-07 3.51068e-07 2.06955e-05
-0.00145767 -2.63316e-06 -6.77172e-05
-2.63316e-06 -0.00135392 5.91599e-06
-6.77172e-05 5.91599e-06 -0.00131675
0.00122139 3.15132e-06 -1.70818e-07
3.15132e-06 8.36735e-05 -1.17235e-07
-1.70818e-07 -1.17235e-07 3.04198e-05
0.00115929 4.05745e-06 1.14701e-07
4.05745e-06 4.89833e-05 2.36403e-07
1.14701e-07 2.36403e-07 -8.04923e-06
0.000736644 -7.83587e-06 8.06433e-07
-7.83587e-06 -0.000132621 1.09526e-06
8.06433e-07 1.09526e-06 -0.000168399
0.00148855 4.73818e-06 -3.92124e-07
4.73818e-06 0.000142121 5.17497e-07
-3.92124e-07 5.17497e-07 9.73782e-05
0.00130505 7.50038e-06 -1.00212e-06
7.50038e-06 0.000114302 9.03244e-07
-1.00212e-06 9.03244e-07 4.87464e-05
0.00116194 5.31086e-06 9.20829e-08
5.31086e-06 5.78573e-05 -7.67633e-09
9.20829e-08 -7.67633e-09 -4.8788e-06
0.00226735 2.35138e-06 -3.73314e-06
2.35138e-06 0.000364427 2.22932e-06
-3.73314e-06 2.22932e-06 0.000308924
0.00119369 3.55209e-06 -7.31539e-08
3.55209e-06 6.81157e-05 -1.37495e-07
-7.31539e-08 -1.37495e-07 1.11791e-05
0.00126646 4.53472e-06 7.92624e-07
4.53472e-06 -3.07717e-07 -3.94693e-07
7.92624e-07 -3.94693e-07 -5.02573e-05
0.0011842 4.96502e-06 1.15044e-08
4.96502e-06 6.3369e-05 -1.38466e-07
1.15044e-08 -1.38466e-07 3.22619e-06
0.00116494 7.23561e-06 -2.37815e-07
7.23561e-06 6.5235e-05 2.34998e-07
-2.37815e-07 2.34998e-07 -4.72833e-06
0.00117211 1.10528e-05 3.29315e-07
1.10528e-05 1.42105e-05 -3.85507e-08
3.29315e-07 -3.85507e-08 -5.35132e-05
-0.000991035 2.46941e-06 4.94955e-06
2.46941e-06 -0.00115905 3.55789e-06
4.94955e-06 3.55789e-06 -0.00116283
0.00169831 1.27915e-05 2.80031e-07
1.27915e-05 -3.30012e-05 -9.49357e-07
2.80031e-07 -9.49357e-07 -0.000130962
0.00191511 1.76548e-05 -1.23384e-06
1.76548e-05 0.000200438 -5.00516e-07
-1.23384e-06 -5.00516e-07 0.000119372
-0.00049787 -3.17296e-05 -3.37879e-06
-3.17296e-05 -0.000191846 -2.04667e-06
-3.37879e-06 -2.04667e-06 -0.000134289
0.000415439 -3.41298e-05 -7.8386e-06
-3.41298e-05 9.04705e-05 -4.70024e-06
-7.8386e-06 -4.70024e-06 0.000170055
0.00119263 4.01528e-06 -6.75339e-08
4.01528e-06 7.03745e-05 -2.63585e-07
-6.75339e-08 -2.63585e-07 1.12416e-05
-0.000473978 -8.43907e-06 -6.08695e-05
-8.43907e-06 -0.00035312 -6.51721e-06
-6.08695e-05 -6.51721e-06 -0.000299916
0.000927677 -2.74954e-05 1.32467e-05
-2.74954e-05 0.000471324 8.42329e-06
1.32467e-05 8.42329e-06 0.000519389
0.0011572 1.53245e-05 3.63258e-06
1.53245e-05 -4.74956e-05 6.68921e-07
3.63258e-06 6.68921e-07 -0.000122156
0.00123256 6.01689e-06 -2.34641e-07
6.01689e-06 9.85011e-05 1.45711e-07
-2.34641e-07 1.45711e-07 3.25859e-05
0.00127895 1.04944e-05 9.196e-08
1.04944e-05 0.000128286 1.44365e-07
9.196e-08 1.44365e-07 4.46749e-05
0.00149378 2.18233e-05 2.27511e-07
2.18233e-05 0.000135563 5.38232e-07
2.27511e-07 5.38232e-07 2.52023e-05
0.00688191 -1.21203e-05 -7.31875e-05
-1.21203e-05 0.00204747 -3.14503e-05
-7.31875e-05 -3.14503e-05 0.00191287
0.00193524 2.94825e-05 1.26636e-05
2.94825e-05 0.000100179 1.28844e-05
1.26636e-05 1.28844e-05 -4.21862e-05
-0.00108545 -5.19323e-05 -2.70169e-05
-5.19323e-05 -0.000211838 -2.70594e-05
-2.70169e-05 -2.70594e-05 -0.000136469
-0.000212988 -1.6605e-05 1.34613e-05
-1.6605e-05 -0.00033204 8.06256e-06
1.34613e-05 8.06256e-06 -0.000300239
0.00118652 3.02076e-06 -1.14641e-07
3.02076e-06 6.74316e-05 -2.00424e-07
-1.14641e-07 -2.00424e-07 1.15544e-05
0.0011673 3.18433e-06 1.15177e-08
3.18433e-06 5.96549e-05 5.24843e-08
1.15177e-08 5.24843e-08 1.18319e-06
0.00119573 2.93274e-06 3.18092e-09
2.93274e-06 7.68262e-05 -3.36049e-07
3.18092e-09 -3.36049e-07 1.57989e-05
0.0011014 -2.94263e-07 1.89916e-08
-2.94263e-07 2.20734e-05 -5.6273e-07
1.89916e-08 -5.6273e-07 -1.18957e-05
0.00112537 -9.76782e-07 -5.49326e-09
-9.76782e-07 3.69771e-05 -5.01167e-07
-5.49326e-09 -5.01167e-07 -7.43553e-06
0.00108311 1.73679e-06 -1.82993e-07
1.73679e-06 1.75495e-05 -4.87116e-07
-1.82993e-07 -4.87116e-07 -3.29965e-05
0.00116122 2.09444e-06 -1.95284e-07
2.09444e-06 5.69021e-05 -4.79485e-07
-1.95284e-07 -4.79485e-07 2.27296e-06
0.00116708 2.54623e-06 -1.11132e-07
2.54623e-06 5.94443e-05 7.78414e-08
-1.11132e-07 7.78414e-08 2.74813e-06
0.000949028 4.96656e-07 2.09178e-09
4.96656e-07 -5.10354e-05 3.54855e-07
2.09178e-09 3.54855e-07 -8.61245e-05
0.00116668 2.1379e-06 -1.97224e-08
2.1379e-06 5.91077e-05 -3.47466e-07
-1.97224e-08 -3.47466e-07 5.32466e-06
0.00116707 3.42781e-07 4.40975e-08
3.42781e-07 5.69481e-05 2.55967e-07
4.40975e-08 2.55967e-07 5.80193e-06
0.00109428 -2.09214e-07 4.57959e-09
-2.09214e-07 2.19166e-05 -2.64415e-07
4.57959e-09 -2.64415e-07 -2.33291e-05
0.0011786 2.13992e-06 -3.04484e-08
2.13992e-06 6.54468e-05 1.06587e-07
-3.04484e-08 1.06587e-07 6.512e-06
0.00113437 1.7771e-06 7.39775e-08
1.7771e-06 4.28077e-05 9.96555e-08
7.39775e-08 9.96555e-08 -1.36385e-05
0.00115763 1.4072e-06 1.20174e-07
1.4072e-06 5.54614e-05 -7.4328e-09
1.20174e-07 -7.4328e-09 -6.22805e-06
0.00116447 -8.79123e-07 -4.25012e-08
-8.79123e-07 5.62275e-05 3.13333e-07
-4.25012e-08 3.13333e-07 3.44933e-06
0.00117881 4.64159e-07 -1.07252e-07
4.64159e-07 6.27717e-05 1.2977e-07
-1.07252e-07 1.2977e-07 1.79278e-05
0.0011783 -1.04014e-07 -1.37468e-08
-1.04014e-07 6.1871e-05 -9.2158e-08
-1.37468e-08 -9.2158e-08 1.79345e-05
0.00116907 -1.88871e-06 -2.06855e-08
-1.88871e-06 5.69841e-05 -2.37937e-07
-2.06855e-08 -2.37937e-07 7.97008e-06
0.00117062 -7.24293e-07 -3.20619e-07
-7.24293e-07 5.90072e-05 9.43816e-08
-3.20619e-07 9.43816e-08 8.60004e-06
0.00114614 -1.95134e-06 -1.75654e-07
-1.95134e-06 4.63765e-05 1.16143e-07
-1.75654e-07 1.16143e-07 -2.64086e-06
0.0011427 -2.12954e-06 -5.19512e-08
-2.12954e-06 4.66159e-05 -2.96871e-07
-5.19512e-08 -2.96871e-07 -6.10621e-06
0.00112153 -7.53199e-07 -4.0739e-07
-7.53199e-07 3.77775e-05 2.66915e-07
-4.0739e-07 2.66915e-07 -1.20059e-05
0.00111152 2.34344e-07 -3.13776e-07
2.34344e-07 3.07069e-05 4.14803e-07
-3.13776e-07 4.14803e-07 -1.1967e-05
0.00112519 -9.46427e-07 -6.42332e-09
-9.46427e-07 3.54548e-05 -8.71981e-09
-6.42332e-09 -8.71981e-09 -7.0965e-06
0.00109462 4.35868e-07 -5.18997e-07
4.35868e-07 1.80838e-05 7.76492e-07
-5.18997e-07 7.76492e-07 -1.43961e-05
0.00105455 -9.79497e-07 4.09847e-07
-9.79497e-07 9.85054e-07 -7.47908e-07
4.09847e-07 -7.47908e-07 -4.26505e-05
0.00103055 2.6682e-07 5.82238e-08
2.6682e-07 -1.26936e-05 1.99949e-08
5.82238e-08 1.99949e-08 -4.6361e-05
0.00106242 1.30111e-06 -5.05569e-07
1.30111e-06 -2.07913e-06 1.49593e-06
-5.05569e-07 1.49593e-06 -1.98883e-05
0.000954486 5.39564e-07 2.03294e-07
5.39564e-07 -4.85064e-05 -5.27164e-07
2.03294e-07 -5.27164e-07 -8.34151e-05
0.00106422 1.04377e-06 6.19707e-08
1.04377e-06 -1.44231e-06 5.8613e-09
6.19707e-08 5.8613e-09 -1.95291e-05
0.00154876 1.80006e-06 -6.15858e-07
1.80006e-06 0.000222952 3.69758e-06
-6.15858e-07 3.69758e-06 0.000231531
0.0010662 5.56599e-07 1.65664e-07
5.56599e-07 -9.48646e-07 -1.5588e-06
1.65664e-07 -1.5588e-06 -1.88424e-05
0.00128073 8.48291e-07 -2.01341e-08
8.48291e-07 9.31053e-05 5.22001e-07
-2.01341e-08 5.22001e-07 0.000100813
0.00119217 1.00383e-06 -2.30018e-07
1.00383e-06 4.54878e-05 3.31299e-06
-2.30018e-07 3.31299e-06 6.74138e-05
0.00101492 -2.30328e-07 6.43218e-08
-2.30328e-07 -3.49316e-05 -2.66865e-06
6.43218e-08 -2.66865e-06 -2.8249e-05
0.00220794 -2.29528e-07 8.16664e-08
-2.29528e-07 0.000534709 -7.56261e-12
8.16664e-08 -7.56261e-12 0.000561368
0.00118061 -1.44743e-06 -1.94637e-07
-1.44743e-06 4.09996e-05 -3.33434e-06
-1.94637e-07 -3.33434e-06 6.28404e-05
0.0011143 -1.04979e-06 -9.44562e-10
-1.04979e-06 2.56532e-05 -5.80024e-07
-9.44562e-10 -5.80024e-07 -3.51982e-06
0.00106217 5.51383e-08 7.20147e-08
5.51383e-08 -4.38204e-06 -1.61731e-06
7.20147e-08 -1.61731e-06 -1.82282e-05
0.00106501 8.38654e-07 -1.21379e-07
8.38654e-07 -2.5738e-06 4.52061e-10
-1.21379e-07 4.52061e-10 -1.71631e-05
0.00100754 1.08975e-06 1.27709e-07
1.08975e-06 -3.81162e-05 -2.67522e-06
1.27709e-07 -2.67522e-06 -2.94965e-05
0.00106717 1.29599e-06 -2.6725e-07
1.29599e-06 -1.83689e-07 1.61888e-06
-2.6725e-07 1.61888e-06 -1.59417e-05
0.0010054 2.02689e-06 4.39582e-08
2.02689e-06 -3.80846e-05 -5.28859e-07
4.39582e-08 -5.28859e-07 -3.01503e-05
0.00217089 2.42786e-06 5.39394e-07
2.42786e-06 0.000517879 -3.39088e-06
5.39394e-07 -3.39088e-06 0.000544909
0.00148005 2.94045e-06 -5.95465e-07
2.94045e-06 0.000191747 1.58364e-06
-5.95465e-07 1.58364e-06 0.000201381
0.0016931 3.70726e-06 -2.80235e-07
3.70726e-06 0.000289949 9.98956e-07
-2.80235e-07 9.98956e-07 0.000314146
0.0011986 4.96005e-06 -1.84432e-06
4.96005e-06 5.47324e-05 5.20615e-06
-1.84432e-06 5.20615e-06 7.63298e-05
0.000571777 -1.0719e-05 1.97517e-07
-1.0719e-05 -0.000210075 1.59404e-06
1.97517e-07 1.59404e-06 -0.000239714
0.000677064 -4.35641e-06 5.93161e-07
-4.35641e-06 -6.82066e-05 -8.33919e-07
5.93161e-07 -8.33919e-07 -0.000130504
0.00101746 -7.41345e-06 1.40876e-06
-7.41345e-06 0.000113859 -2.50005e-06
1.40876e-06 -2.50005e-06 6.96079e-05
0.00107074 -5.72569e-06 3.86633e-06
-5.72569e-06 -0.000104556 9.9825e-07
3.86633e-06 9.9825e-07 -0.000146971
0.000611464 -8.39361e-07 1.66242e-07
-8.39361e-07 -3.90492e-05 7.24183e-07
1.66242e-07 7.24183e-07 -7.97901e-05
0.000732152 6.22918e-06 -9.97672e-08
6.22918e-06 -2.47347e-05 -7.92205e-08
-9.97672e-08 -7.92205e-08 -9.5272e-05
0.000922293 1.57426e-05 -2.30506e-06
1.57426e-05 8.94435e-05 3.4587e-06
-2.30506e-06 3.4587e-06 9.37541e-06
0.000815241 -4.47571e-06 9.33883e-06
-4.47571e-06 -0.000122526 4.05231e-07
9.33883e-06 4.05231e-07 -0.000179148
0.00385248 4.57334e-06 -8.1486e-05
4.57334e-06 0.00071115 3.5018e-05
-8.1486e-05 3.5018e-05 0.000656107
0.00267623 3.79328e-05 -1.14096e-05
3.79328e-05 0.00134552 6.6824e-06
-1.14096e-05 6.6824e-06 0.00138555
-0.000337372 3.77775e-05 8.55472e-06
3.77775e-05 -0.000348959 -6.3284e-06
8.55472e-06 -6.3284e-06 -0.000271896
0.000975042 3.17543e-07 1.29635e-07
3.17543e-07 -3.76022e-05 -9.56586e-07
1.29635e-07 -9.56586e-07 -7.75914e-05
0.00110615 -1.15279e-08 1.66954e-07
-1.15279e-08 2.16965e-05 6.91374e-09
1.66954e-07 6.91374e-09 -7.08353e-06
0.0011045 8.24557e-07 -1.4114e-07
8.24557e-07 2.10392e-05 1.05111e-06
-1.4114e-07 1.05111e-06 -8.87084e-06
0.00107777 1.6966e-06 1.18865e-07
1.6966e-06 1.0687e-05 4.22792e-09
1.18865e-07 4.22792e-09 -3.01553e-05
0.00118672 2.86818e-06 -1.29168e-08
2.86818e-06 6.85495e-05 1.73736e-07
-1.29168e-08 1.73736e-07 2.0773e-05
0.00116442 -9.02134e-07 1.0875e-08
-9.02134e-07 5.417e-05 6.16323e-08
1.0875e-08 6.16323e-08 8.97823e-06
0.00115668 -5.717e-07 1.20908e-07
-5.717e-07 5.21311e-05 -1.042e-06
1.20908e-07 -1.042e-06 1.20659e-05
0.0010724 -1.46402e-06 1.11638e-07
-1.46402e-06 9.58334e-06 3.79265e-07
1.11638e-07 3.79265e-07 -2.93224e-05
0.00114351 1.21307e-05 9.34159e-07
1.21307e-05 0.000104827 2.37126e-07
9.34159e-07 2.37126e-07 2.46236e-05
0.00130795 5.96578e-06 2.17364e-06
5.96578e-06 0.000123625 8.74638e-07
2.17364e-06 8.74638e-07 7.37043e-05
0.00118811 -3.9087e-06 -7.67498e-07
-3.9087e-06 1.29846e-05 -1.79337e-06
-7.67498e-07 -1.79337e-06 -2.63388e-05
0.0011972 -5.62064e-06 2.72973e-07
-5.62064e-06 6.95261e-05 -9.62021e-08
2.72973e-07 -9.62021e-08 9.67619e-06
0.0011017 -5.62078e-06 -1.83665e-08
-5.62078e-06 8.72257e-06 -3.4329e-07
-1.83665e-08 -3.4329e-07 -4.6226e-05
0.00117867 -6.04935e-06 -3.98355e-07
-6.04935e-06 6.50743e-05 -2.51848e-07
-3.98355e-07 -2.51848e-07 3.92332e-06
0.0012283 -4.3825e-06 -1.13835e-07
-4.3825e-06 9.11178e-05 -1.54336e-07
-1.13835e-07 -1.54336e-07 2.88566e-05
0.00114685 -3.74254e-06 -6.12894e-07
-3.74254e-06 4.74222e-05 8.82647e-07
-6.12894e-07 8.82647e-07 -8.24727e-06
0.00114777 -9.33235e-07 -2.93027e-07
-9.33235e-07 4.68898e-05 6.68115e-07
-2.93027e-07 6.68115e-07 3.10766e-06
0.0012567 -1.14462e-06 -2.55289e-07
-1.14462e-06 0.000107374 3.11693e-07
-2.55289e-07 3.11693e-07 5.29725e-05
0.00128031 1.54559e-06 -2.24779e-08
1.54559e-06 0.000109385 3.0498e-07
-2.24779e-08 3.0498e-07 6.79442e-05
0.00109743 -3.17416e-07 5.64157e-08
-3.17416e-07 2.79161e-05 8.37318e-07
5.64157e-08 8.37318e-07 -1.92947e-05
0.00124714 1.35472e-05 3.98267e-07
1.35472e-05 0.000155277 8.05295e-07
3.98267e-07 8.05295e-07 8.50424e-05
0.00111158 9.37888e-07 -2.81585e-07
9.37888e-07 3.64304e-05 1.15203e-07
-2.81585e-07 1.15203e-07 -1.58328e-05
0.00116895 -2.06128e-06 3.21848e-09
-2.06128e-06 6.28767e-05 -1.41157e-07
3.21848e-09 -1.41157e-07 9.56852e-06
0.00127994 -2.1908e-06 -1.11199e-06
-2.1908e-06 5.41727e-05 -9.68013e-07
-1.11199e-06 -9.68013e-07 1.99527e-05
0.00115114 -7.05476e-06 6.54498e-07
-7.05476e-06 8.36105e-06 2.58041e-07
6.54498e-07 2.58041e-07 -4.34681e-05
0.00118108 -7.82304e-06 -1.65391e-07
-7.82304e-06 5.87225e-05 -3.21777e-08
-1.65391e-07 -3.21777e-08 -3.35902e-06
0.00114836 -3.5162e-06 -5.27824e-08
-3.5162e-06 5.60978e-05 -1.20032e-07
-5.27824e-08 -1.20032e-07 -6.95631e-06
0.00118033 -6.30374e-06 -7.12893e-09
-6.30374e-06 6.89444e-05 1.22492e-07
-7.12893e-09 1.22492e-07 2.15464e-06
0.00148573 7.67669e-07 -9.93656e-10
7.67669e-07 0.00016076 -2.26935e-06
-9.93656e-10 -2.26935e-06 0.000116896
0.0015721 -1.06478e-05 2.00018e-06
-1.06478e-05 0.00018978 2.33299e-06
2.00018e-06 2.33299e-06 0.000139816
0.000994323 -9.53594e-06 2.25346e-07
-9.53594e-06 -4.78024e-05 2.93146e-07
2.25346e-07 2.93146e-07 -0.000111365
0.00121968 -1.0751e-05 5.52213e-07
-1.0751e-05 7.97732e-05 -8.40978e-08
5.52213e-07 -8.40978e-08 7.80088e-06
0.00114508 -9.9721e-07 -9.45878e-08
-9.9721e-07 5.62794e-05 -6.50308e-07
-9.45878e-08 -6.50308e-07 -4.16807e-06
0.00115393 -2.51487e-06 2.93475e-09
-2.51487e-06 6.19042e-05 -6.35162e-07
2.93475e-09 -6.35162e-07 -3.91012e-07
0.00134745 -4.63738e-06 4.44577e-07
-4.63738e-06 0.000156583 -2.0384e-07
4.44577e-07 -2.0384e-07 8.52463e-05
-0.00359372 7.14044e-07 -6.72894e-05
7.14044e-07 -0.00105432 -2.25268e-06
-6.72894e-05 -2.25268e-06 -0.00090581
0.00652357 2.5351e-06 -4.21827e-06
2.5351e-06 0.00198944 6.77369e-06
-4.21827e-06 6.77369e-06 0.00197869
0.00120514 3.5469e-06 -8.51439e-08
3.5469e-06 7.41192e-05 -2.91911e-08
-8.51439e-08 -2.91911e-08 1.74422e-05
0.00114152 4.84643e-06 2.69459e-07
4.84643e-06 4.35833e-05 -6.6296e-08
2.69459e-07 -6.6296e-08 -1.63558e-05
0.0015217 4.06757e-06 -2.17774e-06
4.06757e-06 0.000119846 9.09906e-07
-2.17774e-06 9.09906e-07 7.03051e-05
0.00132049 1.03785e-05 -9.81002e-07
1.03785e-05 8.24124e-05 1.07857e-06
-9.81002e-07 1.07857e-06 1.71994e-05
0.0011525 7.20439e-06 -4.47036e-07
7.20439e-06 5.85764e-05 -4.2875e-07
-4.47036e-07 -4.2875e-07 -1.12556e-05
0.00498137 -2.6476e-06 6.85386e-05
-2.6476e-06 0.00110368 2.78225e-05
6.85386e-05 2.78225e-05 0.00105323
0.00198514 1.14046e-05 -1.48513e-05
1.14046e-05 0.000221754 -5.64085e-06
-1.48513e-05 -5.64085e-06 0.000145536
0.00270137 1.93196e-05 -3.83361e-06
1.93196e-05 0.000554884 -1.15755e-07
-3.83361e-06 -1.15755e-07 0.000470925
0.00128382 -3.80429e-05 1.71838e-05
-3.80429e-05 0.000698683 7.97388e-06
1.71838e-05 7.97388e-06 0.000735257
0.000162631 -3.65443e-05 -2.26493e-05
-3.65443e-05 -6.24114e-05 -1.77629e-05
-2.26493e-05 -1.77629e-05 1.89906e-05
0.00116922 3.94875e-06 3.27424e-09
3.94875e-06 5.91367e-05 -2.10925e-08
3.27424e-09 -2.10925e-08 8.54517e-08
-0.00302863 -4.7858e-06 -1.1771e-05
-4.7858e-06 -0.000783684 -1.45204e-06
-1.1771e-05 -1.45204e-06 -0.000663857
0.000600211 -2.82237e-05 -7.55332e-06
-2.82237e-05 0.000280562 -3.704e-06
-7.55332e-06 -3.704e-06 0.000325353
0.00143738 1.5069e-05 7.50993e-07
1.5069e-05 7.86787e-05 6.66164e-07
7.50993e-07 6.66164e-07 4.46687e-06
0.00116144 5.78781e-06 -8.00085e-08
5.78781e-06 6.52995e-05 -3.59179e-07
-8.00085e-08 -3.59179e-07 -1.19122e-07
0.00109971 1.04504e-05 4.72668e-08
1.04504e-05 4.61128e-05 -1.04517e-08
4.72668e-08 -1.04517e-08 -3.66015e-05
0.00183623 2.26414e-05 -1.0053e-06
2.26414e-05 0.000293133 -1.58191e-06
-1.0053e-06 -1.58191e-06 0.000182536
0.00174936 -8.46664e-06 3.86541e-06
-8.46664e-06 -0.000173833 5.78382e-06
3.86541e-06 5.78382e-06 -0.000309902
0.00164308 2.76322e-05 -3.46683e-06
2.76322e-05 6.64411e-05 -3.61015e-06
-3.46683e-06 -3.61015e-06 -4.32631e-05
0.00151164 -7.03088e-05 1.43571e-06
-7.03088e-05 0.00042228 4.39945e-06
1.43571e-06 4.39945e-06 0.000439288
-0.000845389 -2.03144e-05 1.6651e-06
-2.03144e-05 -0.00073171 -1.37461e-06
1.6651e-06 -1.37461e-06 -0.000681073
0.00119499 4.16943e-06 -1.23501e-07
4.16943e-06 7.86421e-05 -4.36466e-07
-1.23501e-07 -4.36466e-07 1.69904e-05
-0.000170229 -1.79605e-05 2.45876e-05
-1.79605e-05 -0.000168654 7.85556e-06
2.45876e-05 7.85556e-06 -0.000161789
0.000675259 -8.3404e-06 1.2622e-05
-8.3404e-06 0.000219867 1.34978e-05
1.2622e-05 1.34978e-05 0.00019326
0.000909224 1.51659e-05 2.27674e-06
1.51659e-05 -4.79868e-05 2.9535e-06
2.27674e-06 2.9535e-06 -0.000144887
0.00123315 7.02261e-06 -1.16019e-06
7.02261e-06 0.000135852 6.6543e-07
-1.16019e-06 6.6543e-07 5.96664e-05
0.0017537 1.9106e-05 -9.42511e-07
1.9106e-05 0.000410575 1.26432e-06
-9.42511e-07 1.26432e-06 0.000293595
0.00163184 3.50603e-05 1.43047e-06
3.50603e-05 0.000220348 5.45512e-06
1.43047e-06 5.45512e-06 7.58791e-05
0.00331287 -2.05906e-05 -5.55966e-05
-2.05906e-05 0.000632355 -4.48565e-05
-5.55966e-05 -4.48565e-05 0.000472294
0.000871658 -9.60048e-05 -3.38215e-06
-9.60048e-05 -0.000163204 -1.30759e-05
-3.38215e-06 -1.30759e-05 -0.000137412
-7.83939e-05 1.7738e-06 3.65371e-06
1.7738e-06 -0.000263768 4.35438e-06
3.65371e-06 4.35438e-06 -0.000269413
0.0011611 3.14598e-06 6.53421e-09
3.14598e-06 5.64451e-05 2.3335e-07
6.53421e-09 2.3335e-07 -2.01543e-06
0.0011826 3.02177e-06 -2.49042e-08
3.02177e-06 7.05608e-05 2.21738e-08
-2.49042e-08 2.21738e-08 9.60527e-06
0.00114007 2.00888e-06 4.66041e-07
2.00888e-06 5.39006e-05 -2.60053e-08
4.66041e-07 -2.60053e-08 -1.06825e-05
0.000946682 5.25184e-07 8.32984e-08
5.25184e-07 -5.21394e-05 -5.57389e-07
8.32984e-08 -5.57389e-07 -8.72141e-05
0.00117413 -1.36102e-07 6.65119e-09
-1.36102e-07 6.02254e-05 -7.73405e-07
6.65119e-09 -7.73405e-07 1.54728e-05
0.00123458 -1.01783e-08 -5.02963e-08
-1.01783e-08 8.97614e-05 5.33335e-08
-5.02963e-08 5.33335e-08 3.91557e-05
0.00112281 2.07535e-06 1.28544e-07
2.07535e-06 3.79187e-05 -6.21245e-07
1.28544e-07 -6.21245e-07 -1.55321e-05
0.00116677 2.13426e-06 -4.89465e-08
2.13426e-06 5.94387e-05 1.91614e-07
-4.89465e-08 1.91614e-07 1.47466e-07
0.0011743 6.95835e-07 -5.15901e-10
6.95835e-07 6.06026e-05 -3.53002e-07
-5.15901e-10 -3.53002e-07 1.57334e-05
0.00115234 1.50243e-06 3.04502e-08
1.50243e-06 5.14269e-05 -5.86791e-09
3.04502e-08 -5.86791e-09 -4.56645e-06
0.0011688 -4.89132e-08 1.2821e-08
-4.89132e-08 5.83708e-05 1.00982e-07
1.2821e-08 1.00982e-07 5.58125e-06
0.00119874 1.21972e-06 2.48313e-08
1.21972e-06 7.44161e-05 1.29987e-07
2.48313e-08 1.29987e-07 1.22117e-05
0.00116617 -7.72796e-07 1.27327e-08
-7.72796e-07 6.11058e-05 -1.33979e-07
1.27327e-08 -1.33979e-07 -4.0404e-06
0.00118036 -4.52342e-07 -1.02697e-07
-4.52342e-07 6.44025e-05 1.84679e-07
-1.02697e-07 1.84679e-07 5.36074e-06
0.0011905 2.98838e-07 -9.53321e-08
2.98838e-07 6.87151e-05 1.46883e-07
-9.53321e-08 1.46883e-07 1.65599e-05
0.00117381 -3.38717e-07 2.10391e-07
-3.38717e-07 5.97387e-05 -5.28189e-07
2.10391e-07 -5.28189e-07 1.57712e-05
0.00111664 -1.95168e-06 3.07055e-07
-1.95168e-06 3.16138e-05 -4.33314e-07
3.07055e-07 -4.33314e-07 -1.78469e-05
0.00117708 -1.07469e-06 8.96054e-09
-1.07469e-06 6.17217e-05 -7.97045e-08
8.96054e-09 -7.97045e-08 1.12774e-05
0.0011467 -1.97066e-06 4.32643e-08
-1.97066e-06 4.66752e-05 3.40644e-08
4.32643e-08 3.40644e-08 -2.41486e-06
0.00113646 -2.17067e-06 1.27717e-07
-2.17067e-06 4.36712e-05 -3.02247e-07
1.27717e-07 -3.02247e-07 -8.63928e-06
0.00113357 -6.11142e-07 -2.73706e-07
-6.11142e-07 4.37439e-05 3.81924e-07
-2.73706e-07 3.81924e-07 -6.00071e-06
0.00116623 -1.76606e-06 -2.56223e-07
-1.76606e-06 5.82001e-05 -2.08654e-07
-2.56223e-07 -2.08654e-07 3.75321e-06
0.0010792 -2.5744e-06 1.14678e-07
-2.5744e-06 1.47925e-05 -6.3395e-08
1.14678e-07 -6.3395e-08 -3.91164e-05
0.00114328 -1.87169e-06 -5.72418e-08
-1.87169e-06 4.5224e-05 -5.02528e-07
-5.72418e-08 -5.02528e-07 -8.05018e-06
0.00106207 -2.54574e-06 1.07559e-07
-2.54574e-06 1.47187e-05 -1.52163e-07
1.07559e-07 -1.52163e-07 -3.68338e-05
0.00105899 -1.31634e-06 -3.34539e-07
-1.31634e-06 7.17422e-06 -2.39415e-07
-3.34539e-07 -2.39415e-07 -4.18713e-05
0.00113112 -9.14178e-07 -1.72868e-07
-9.14178e-07 4.23132e-05 1.88618e-07
-1.72868e-07 1.88618e-07 -7.4883e-06
0.00111509 2.77795e-07 -5.00997e-07
2.77795e-07 3.32325e-05 6.20543e-07
-5.00997e-07 6.20543e-07 -9.51048e-06
0.00112102 2.57165e-08 -1.90993e-08
2.57165e-08 3.51701e-05 -2.29682e-08
-1.90993e-08 -2.29682e-08 -7.55409e-06
0.00108888 1.01595e-06 -5.25108e-07
1.01595e-06 1.6355e-05 7.80323e-07
-5.25108e-07 7.80323e-07 -1.57845e-05
0.00113236 -9.58181e-07 3.21755e-07
-9.58181e-07 3.88869e-05 -3.87653e-07
3.21755e-07 -3.87653e-07 -3.69879e-06
0.00109755 4.45313e-07 -6.79182e-09
4.45313e-07 1.95072e-05 -1.77035e-09
-6.79182e-09 -1.77035e-09 -1.29991e-05
0.00105819 1.75347e-06 -7.24307e-07
1.75347e-06 -3.63424e-06 1.41686e-06
-7.24307e-07 1.41686e-06 -2.07795e-05
0.000964364 2.43985e-07 4.70012e-07
2.43985e-07 -4.45974e-05 -8.1401e-07
4.70012e-07 -8.1401e-07 -7.87177e-05
0.00106206 1.29823e-06 6.59212e-08
1.29823e-06 -2.29083e-06 1.77798e-08
6.59212e-08 1.77798e-08 -2.00805e-05
0.00154867 2.68477e-06 -9.9588e-07
2.68477e-06 0.000224125 3.63394e-06
-9.9588e-07 3.63394e-06 0.000232593
0.00106379 1.03832e-06 3.83085e-07
1.03832e-06 -1.69088e-06 -1.52788e-06
3.83085e-07 -1.52788e-06 -1.97592e-05
0.00127784 1.83692e-06 -4.20556e-08
1.83692e-06 9.25816e-05 5.32544e-07
-4.20556e-08 5.32544e-07 0.000100034
0.0011494 2.30149e-06 -2.76552e-07
2.30149e-06 2.57929e-05 1.28905e-06
-2.76552e-07 1.28905e-06 4.76759e-05
0.00101708 8.3874e-07 2.75325e-07
8.3874e-07 -3.38747e-05 -2.65594e-06
2.75325e-07 -2.65594e-06 -2.73069e-05
0.00221438 1.01363e-06 8.4931e-08
1.01363e-06 0.000537711 1.52173e-09
8.4931e-08 1.52173e-09 0.000564341
0.00220313 -1.71234e-07 1.06527e-07
-1.71234e-07 0.000532383 -3.40796e-06
1.06527e-07 -3.40796e-06 0.000559069
0.00131358 -8.15745e-07 -8.26881e-08
-8.15745e-07 0.000123134 -7.57573e-07
-8.26881e-08 -7.57573e-07 9.3974e-05
0.00107041 -7.73365e-07 -1.55263e-07
-7.73365e-07 -1.037e-07 -1.64468e-06
-1.55263e-07 -1.64468e-06 -1.43885e-05
0.00110447 -1.0575e-06 -8.79307e-08
-1.0575e-06 2.09343e-05 3.33395e-07
-8.79307e-08 3.33395e-07 -8.21837e-06
0.00101205 2.14137e-08 -1.31398e-09
2.14137e-08 -3.62781e-05 -2.67786e-06
-1.31398e-09 -2.67786e-06 -2.73458e-05
0.00106569 4.41044e-08 8.0788e-08
4.41044e-08 -2.67153e-06 5.88013e-09
8.0788e-08 5.88013e-09 -1.6549e-05
0.0010702 8.27746e-07 -2.04585e-07
8.27746e-07 -7.00246e-08 1.62402e-06
-2.04585e-07 1.62402e-06 -1.47068e-05
0.00101326 1.0812e-06 -8.2187e-08
1.0812e-06 -3.53173e-05 8.00489e-09
-8.2187e-08 8.00489e-09 -2.67604e-05
0.00214693 1.20773e-06 2.07188e-07
1.20773e-06 0.000505339 -3.37044e-06
2.07188e-07 -3.37044e-06 0.000532756
0.00148742 2.00592e-06 -3.49705e-07
2.00592e-06 0.000193973 1.66254e-06
-3.49705e-07 1.66254e-06 0.000204115
0.00167398 2.50359e-06 -2.62013e-08
2.50359e-06 0.000278899 6.83402e-10
-2.62013e-08 6.83402e-10 0.000303653
0.00122836 3.71421e-06 -1.37696e-06
3.71421e-06 6.63505e-05 5.40746e-06
-1.37696e-06 5.40746e-06 8.80826e-05
-0.00531016 1.97321e-05 -2.69693e-05
1.97321e-05 -0.00222278 1.28752e-05
-2.69693e-05 1.28752e-05 -0.00209611
-0.00218175 3.28008e-05 2.51531e-05
3.28008e-05 -0.00145427 -1.24961e-05
2.51531e-05 -1.24961e-05 -0.00142078
0.00195327 -1.32325e-07 -1.41783e-05
-1.32325e-07 0.000356581 -1.5045e-06
-1.41783e-05 -1.5045e-06 0.000307643
0.000365614 -1.25214e-07 1.03643e-06
-1.25214e-07 -0.000144605 -4.78193e-07
1.03643e-06 -4.78193e-07 -0.000186123
0.000770755 6.31205e-06 7.8417e-07
6.31205e-06 -2.03377e-05 -2.48291e-06
7.8417e-07 -2.48291e-06 -9.34909e-05
0.00170403 1.03265e-06 1.56357e-06
1.03265e-06 0.000404404 -3.65696e-07
1.56357e-06 -3.65696e-07 0.000356208
0.000983277 1.55536e-05 -7.44596e-08
1.55536e-05 0.000106487 1.56141e-06
-7.44596e-08 1.56141e-06 2.85017e-05
0.00256832 -1.19357e-06 -2.30496e-05
-1.19357e-06 0.000338032 1.18743e-05
-2.30496e-05 1.18743e-05 0.000325086
-0.00277613 2.7454e-05 1.45089e-05
2.7454e-05 -0.000847138 -6.74533e-06
1.45089e-05 -6.74533e-06 -0.000760725
-0.000112398 3.70646e-05 -9.33495e-06
3.70646e-05 -0.000223773 6.61412e-06
-9.33495e-06 6.61412e-06 -0.000144651
0.00173537 -2.73224e-06 6.53618e-06
-2.73224e-06 0.000332831 -2.51465e-06
6.53618e-06 -2.51465e-06 0.000258778
0.00477149 1.04212e-05 -7.02332e-05
1.04212e-05 0.00117294 4.53693e-05
-7.02332e-05 4.53693e-05 0.00105829
-0.00116436 5.03683e-05 -1.88843e-05
5.03683e-05 -0.000229697 2.78973e-05
-1.88843e-05 2.78973e-05 -0.000152231
0.000898243 1.67961e-05 9.70999e-06
1.67961e-05 0.000357594 -7.63418e-06
9.70999e-06 -7.63418e-06 0.000407116
0.00104614 2.64688e-07 1.02646e-07
2.64688e-07 3.47332e-06 -8.68766e-07
1.02646e-07 -8.68766e-07 -4.68653e-05
0.00106475 3.17441e-07 -6.14422e-09
3.17441e-07 5.32024e-06 -3.43913e-07
-6.14422e-09 -3.43913e-07 -3.42543e-05
0.00110291 -3.03924e-09 2.1199e-07
-3.03924e-09 2.01556e-05 1.00759e-06
2.1199e-07 1.00759e-06 -8.65005e-06
0.00105594 1.68633e-06 9.74724e-09
1.68633e-06 2.16768e-07 4.84708e-07
9.74724e-09 4.84708e-07 -4.07433e-05
0.00115203 2.78162e-06 7.72707e-08
2.78162e-06 5.15879e-05 6.40771e-07
7.72707e-08 6.40771e-07 5.00381e-06
0.00120045 -1.23217e-06 1.17914e-07
-1.23217e-06 7.47554e-05 -4.58111e-07
1.17914e-07 -4.58111e-07 2.70543e-05
0.00114294 -1.1433e-06 1.47723e-08
-1.1433e-06 4.38546e-05 7.81567e-07
1.47723e-08 7.81567e-07 -6.7164e-07
0.00116422 -3.61484e-07 -6.7052e-08
-3.61484e-07 5.80498e-05 -2.0406e-07
-6.7052e-08 -2.0406e-07 1.51415e-05
0.00109272 -1.01417e-06 -2.6865e-08
-1.01417e-06 2.14897e-05 -3.5781e-07
-2.6865e-08 -3.5781e-07 -1.9148e-05
0.00105366 -1.59983e-06 -5.17559e-08
-1.59983e-06 1.18161e-06 9.83897e-07
-5.17559e-08 9.83897e-07 -3.83349e-05
0.00135659 1.34748e-05 3.0799e-06
1.34748e-05 0.000203225 1.32421e-06
3.0799e-06 1.32421e-06 0.000133609
0.00123574 -2.12431e-06 -9.04179e-07
-2.12431e-06 3.636e-05 -1.61271e-06
-9.04179e-07 -1.61271e-06 1.4376e-06
0.00106248 -7.07486e-06 -7.17924e-07
-7.07486e-06 -3.51975e-05 -1.09189e-06
-7.17924e-07 -1.09189e-06 -8.66325e-05
0.00116144 -7.86766e-06 -1.70544e-07
-7.86766e-06 4.72861e-05 -7.13289e-08
-1.70544e-07 -7.13289e-08 -1.54323e-05
0.00114426 -6.28368e-06 -5.24033e-07
-6.28368e-06 5.11871e-05 -1.89335e-07
-5.24033e-07 -1.89335e-07 -1.51707e-05
0.0011579 -3.38359e-06 -2.44217e-07
-3.38359e-06 6.11009e-05 7.71248e-08
-2.44217e-07 7.71248e-08 -1.64915e-06
0.00123655 -2.06379e-06 1.2152e-07
-2.06379e-06 9.61999e-05 9.11192e-08
1.2152e-07 9.11192e-08 4.32387e-05
0.00111468 6.37099e-07 -1.43409e-07
6.37099e-07 3.73987e-05 6.56151e-07
-1.43409e-07 6.56151e-07 -1.46019e-05
0.00143151 7.99743e-07 -6.66695e-07
7.99743e-07 0.00014317 -7.2416e-07
-6.66695e-07 -7.2416e-07 9.85448e-05
0.00111039 -3.30802e-07 6.42464e-08
-3.30802e-07 4.05769e-05 -1.68189e-07
6.42464e-08 -1.68189e-07 -2.03694e-05
0.00110817 -2.46547e-06 4.37466e-08
-2.46547e-06 4.0441e-05 -3.11205e-07
4.37466e-08 -3.11205e-07 -2.25974e-05
0.00128501 -9.74126e-06 3.14532e-07
-9.74126e-06 5.53764e-05 7.50625e-07
3.14532e-07 7.50625e-07 8.34116e-06
0.00115374 -1.009e-05 -5.61614e-07
-1.009e-05 2.38122e-05 -1.89621e-07
-5.61614e-07 -1.89621e-07 -4.1216e-05
0.00118379 -1.04563e-05 -2.46367e-07
-1.04563e-05 6.50789e-05 -3.27025e-08
-2.46367e-07 -3.27025e-08 -6.54798e-06
0.00126297 -4.53609e-06 1.80597e-07
-4.53609e-06 0.000115461 -1.2973e-07
1.80597e-07 -1.2973e-07 4.38869e-05
0.00182219 -1.68424e-05 3.66983e-06
-1.68424e-05 0.00023077 2.85358e-07
3.66983e-06 2.85358e-07 0.000181795
0.00128488 -1.47873e-05 1.84132e-06
-1.47873e-05 9.35307e-05 4.03151e-07
1.84132e-06 4.03151e-07 1.56786e-05
0.00122751 -7.41215e-06 9.05309e-07
-7.41215e-06 9.69541e-05 -5.20977e-07
9.05309e-07 -5.20977e-07 1.67859e-05
0.00109538 -1.17679e-06 -8.70767e-08
-1.17679e-06 3.263e-05 3.01695e-07
-8.70767e-08 3.01695e-07 -2.82608e-05
0.00119379 -1.58022e-06 -1.06867e-07
-1.58022e-06 8.4344e-05 -7.29611e-08
-1.06867e-07 -7.29611e-08 1.80711e-05
0.00124466 -2.50076e-06 -1.74876e-07
-2.50076e-06 0.00011002 3.43226e-08
-1.74876e-07 3.43226e-08 3.91477e-05
0.000926079 -5.90875e-06 1.86213e-05
-5.90875e-06 0.000508702 6.92174e-07
1.86213e-05 6.92174e-07 0.000496723
0.000910673 1.60952e-06 3.22582e-06
1.60952e-06 0.000418525 -6.12946e-06
3.22582e-06 -6.12946e-06 0.000506059
-0.00172053 7.72129e-06 6.39676e-05
7.72129e-06 -0.00149056 9.44768e-06
6.39676e-05 9.44768e-06 -0.00145823
0.00114602 3.88263e-06 1.16352e-07
3.88263e-06 4.79863e-05 2.63353e-07
1.16352e-07 2.63353e-07 -1.09823e-05
0.00108948 5.55697e-06 3.8625e-07
5.55697e-06 3.17137e-05 -5.4298e-07
3.8625e-07 -5.4298e-07 -3.32068e-05
0.00172631 1.48009e-05 -1.94846e-06
1.48009e-05 0.000208927 6.05307e-07
-1.94846e-06 6.05307e-07 0.000135158
0.000928778 1.04052e-05 6.24514e-08
1.04052e-05 -3.23009e-05 -1.46274e-07
6.24514e-08 -1.46274e-07 -0.000114116
0.00221137 -1.62924e-05 2.26073e-05
-1.62924e-05 0.00112141 5.55291e-06
2.26073e-05 5.55291e-06 0.00120949
4.54944e-05 -1.1019e-05 9.32819e-05
-1.1019e-05 -0.000612679 5.68259e-05
9.32819e-05 5.68259e-05 -0.000678119
0.000717048 2.78365e-05 -2.22536e-05
2.78365e-05 -0.000496217 -1.88941e-05
-2.22536e-05 -1.88941e-05 -0.00063049
0.00223206 2.33973e-05 -2.28845e-06
2.33973e-05 0.000475462 -2.76963e-06
-2.28845e-06 -2.76963e-06 0.000364743
-0.00231766 -5.47057e-05 1.93942e-05
-5.47057e-05 -0.000968113 2.77837e-05
1.93942e-05 2.77837e-05 -0.000895578
0.00171112 -2.40747e-05 -2.29028e-05
-2.40747e-05 0.000977221 -1.25743e-05
-2.29028e-05 -1.25743e-05 0.00101971
-0.000123946 -2.48133e-05 -1.6502e-05
-2.48133e-05 -0.000274194 -1.50501e-05
-1.6502e-05 -1.50501e-05 -0.000220173
0.00116419 4.08032e-06 4.76463e-08
4.08032e-06 6.45341e-05 -1.28024e-07
4.76463e-08 -1.28024e-07 2.96301e-06
0.00051411 -1.58907e-05 7.9281e-06
-1.58907e-05 0.000256577 1.80566e-06
7.9281e-06 1.80566e-06 0.000261473
0.000375243 -8.87112e-06 1.89562e-06
-8.87112e-06 3.82766e-05 2.37189e-06
1.89562e-06 2.37189e-06 1.28522e-05
0.00100446 1.60338e-05 1.05863e-06
1.60338e-05 -1.26431e-05 1.06439e-06
1.05863e-06 1.06439e-06 -0.000109939
0.00109732 6.62247e-06 -2.50357e-11
6.62247e-06 7.23206e-05 3.49696e-07
-2.50357e-11 3.49696e-07 -3.62633e-06
0.00156136 1.83856e-05 8.1225e-07
1.83856e-05 0.000296164 -2.43953e-06
8.1225e-07 -2.43953e-06 0.000178575
0.0010899 3.51387e-05 -7.08515e-07
3.51387e-05 -0.000119567 -6.26407e-06
-7.08515e-07 -6.26407e-06 -0.000289362
0.00515818 -4.58304e-05 6.11794e-06
-4.58304e-05 0.00117169 2.1514e-06
6.11794e-06 2.1514e-06 0.000978875
-0.000893134 -7.32974e-05 3.62274e-06
-7.32974e-05 -0.000558355 1.2148e-05
3.62274e-06 1.2148e-05 -0.000491334
0.000297163 8.52735e-08 -1.48703e-06
8.52735e-08 -3.07712e-05 -6.09131e-07
-1.48703e-06 -6.09131e-07 -2.78218e-05
0.00111306 3.94801e-06 3.50219e-07
3.94801e-06 6.47607e-05 -1.10031e-07
3.50219e-07 -1.10031e-07 -3.28671e-06
0.00184452 -4.3643e-06 1.28159e-05
-4.3643e-06 0.000939555 6.81172e-06
1.28159e-05 6.81172e-06 0.00088091
0.000674976 6.0548e-06 6.23346e-06
6.0548e-06 0.000156436 4.54437e-06
6.23346e-06 4.54437e-06 0.00010344
0.000926497 6.42363e-06 -5.08818e-08
6.42363e-06 4.94531e-05 2.09837e-06
-5.08818e-08 2.09837e-06 -3.59966e-05
0.000513011 2.67617e-05 1.31918e-06
2.67617e-05 -0.000117017 1.34302e-05
1.31918e-06 1.34302e-05 -0.000267315
0.00492943 -7.51925e-05 -4.55585e-05
-7.51925e-05 0.000961193 -5.40132e-05
-4.55585e-05 -5.40132e-05 0.00078863
-0.00131478 -3.76474e-05 -4.03898e-07
-3.76474e-05 -0.00132859 -3.15115e-05
-4.03898e-07 -3.15115e-05 -0.00120824
0.000598351 8.33022e-06 -1.61041e-06
8.33022e-06 0.000162869 5.97987e-06
-1.61041e-06 5.97987e-06 0.00016527
0.00116848 3.10908e-06 -1.21524e-07
3.10908e-06 6.37938e-05 2.93163e-07
-1.21524e-07 2.93163e-07 2.9165e-06
0.00120788 2.07418e-06 7.45469e-08
2.07418e-06 8.58055e-05 2.34063e-07
7.45469e-08 2.34063e-07 2.14371e-05
0.00112287 -8.57471e-09 4.84027e-08
-8.57471e-09 4.63229e-05 -3.42902e-07
4.84027e-08 -3.42902e-07 -2.22654e-05
0.0011684 9.35915e-07 8.44114e-08
9.35915e-07 5.78132e-05 -8.37628e-07
8.44114e-08 -8.37628e-07 1.29176e-05
0.00117284 7.67031e-07 8.81576e-09
7.67031e-07 6.03826e-05 -1.18158e-07
8.81576e-09 -1.18158e-07 7.58141e-06
0.00117004 1.1868e-06 2.28107e-08
1.1868e-06 5.99085e-05 -5.04433e-08
2.28107e-08 -5.04433e-08 4.36959e-06
0.00123764 1.03628e-06 9.70895e-09
1.03628e-06 9.23175e-05 1.76462e-07
9.70895e-09 1.76462e-07 2.96038e-05
0.00118469 1.65308e-07 4.67986e-10
1.65308e-07 6.58581e-05 5.58819e-09
4.67986e-10 5.58819e-09 1.36661e-05
0.00119445 1.68038e-07 -2.35593e-08
1.68038e-07 7.09401e-05 1.54326e-07
-2.35593e-08 1.54326e-07 1.20342e-05
0.00120412 -1.10538e-06 1.13273e-09
-1.10538e-06 7.82902e-05 -1.75759e-07
1.13273e-09 -1.75759e-07 1.27485e-05
0.00113279 -2.23116e-06 -1.28146e-07
-2.23116e-06 5.04358e-05 -4.38067e-07
-1.28146e-07 -4.38067e-07 -1.67825e-05
0.00116058 -1.93911e-06 -9.73403e-08
-1.93911e-06 5.7767e-05 7.17872e-08
-9.73403e-08 7.17872e-08 -5.91485e-06
0.00121732 -8.77862e-07 -1.73341e-07
-8.77862e-07 8.15748e-05 -1.06235e-07
-1.73341e-07 -1.06235e-07 2.46536e-05
0.00118366 -1.41851e-06 2.12872e-07
-1.41851e-06 6.44888e-05 -2.38669e-07
2.12872e-07 -2.38669e-07 1.40074e-05
0.00114823 -1.99216e-06 3.17845e-07
-1.99216e-06 4.74326e-05 -2.00495e-07
3.17845e-07 -2.00495e-07 -1.73184e-06
0.00112693 -2.21071e-06 1.58432e-07
-2.21071e-06 3.92082e-05 -4.29583e-07
1.58432e-07 -4.29583e-07 -1.26884e-05
0.0011815 -1.89565e-06 1.49015e-07
-1.89565e-06 6.49617e-05 -4.5953e-08
1.49015e-07 -4.5953e-08 1.08964e-05
0.00113569 -6.65712e-07 -9.38115e-08
-6.65712e-07 4.48217e-05 1.37607e-07
-9.38115e-08 1.37607e-07 -4.91025e-06
0.00111585 -2.55047e-06 3.62514e-08
-2.55047e-06 3.22868e-05 -1.55653e-07
3.62514e-08 -1.55653e-07 -2.15395e-05
0.00112215 -1.52265e-06 -4.09373e-07
-1.52265e-06 3.60833e-05 -1.27798e-07
-4.09373e-07 -1.27798e-07 -1.84688e-05
0.00115752 -2.80946e-06 1.43817e-07
-2.80946e-06 5.60644e-05 -1.95578e-07
1.43817e-07 -1.95578e-07 -6.73572e-07
0.00113319 -3.43395e-06 1.57916e-07
-3.43395e-06 4.23181e-05 -3.27749e-07
1.57916e-07 -3.27749e-07 -1.42333e-05
0.00115622 -2.02371e-06 -2.25686e-07
-2.02371e-06 5.11493e-05 -5.97197e-08
-2.25686e-07 -5.97197e-08 -2.16757e-06
0.00109686 -3.36659e-06 7.37076e-08
-3.36659e-06 2.64367e-05 2.0129e-07
7.37076e-08 2.0129e-07 -2.709e-05
0.0011429 -3.4746e-06 -1.35563e-07
-3.4746e-06 5.10497e-05 8.43059e-07
-1.35563e-07 8.43059e-07 -3.06885e-06
0.00121185 -9.88699e-07 -1.45061e-07
-9.88699e-07 8.16125e-05 -3.31384e-07
-1.45061e-07 -3.31384e-07 3.53961e-05
0.00108518 -2.65074e-06 1.3801e-07
-2.65074e-06 2.53332e-05 -6.04711e-07
1.3801e-07 -6.04711e-07 -2.53467e-05
0.00113621 -1.268e-06 1.60588e-07
-1.268e-06 4.42551e-05 -1.72708e-07
1.60588e-07 -1.72708e-07 -4.32088e-06
0.00102872 4.51742e-07 -5.07252e-07
4.51742e-07 -7.51118e-06 2.92223e-07
-5.07252e-07 2.92223e-07 -5.01602e-05
0.00114117 -1.07743e-06 4.00699e-08
-1.07743e-06 4.70455e-05 1.53997e-07
4.00699e-08 1.53997e-07 -2.77242e-06
0.00111797 1.93279e-07 -6.80654e-08
1.93279e-07 3.45472e-05 2.54659e-07
-6.80654e-08 2.54659e-07 -8.19629e-06
0.00109131 1.53434e-06 -6.17731e-07
1.53434e-06 1.90425e-05 7.65933e-07
-6.17731e-07 7.65933e-07 -1.30769e-05
0.00113009 -1.44071e-07 2.67666e-07
-1.44071e-07 3.94264e-05 -4.40084e-07
2.67666e-07 -4.40084e-07 -3.34637e-06
0.00109616 1.00827e-06 2.23072e-08
1.00827e-06 1.98468e-05 -5.96345e-09
2.23072e-08 -5.96345e-09 -1.23481e-05
0.00105391 2.41054e-06 -8.31369e-07
2.41054e-06 -4.49363e-06 1.35535e-06
-8.31369e-07 1.35535e-06 -2.11369e-05
0.00110046 4.54699e-07 5.04112e-07
4.54699e-07 2.09161e-05 -7.94088e-07
5.04112e-07 -7.94088e-07 -1.16164e-05
0.00106018 1.75069e-06 2.27746e-08
1.75069e-06 -2.71101e-06 1.16553e-08
2.27746e-08 1.16553e-08 -1.98595e-05
0.00154218 3.63074e-06 -1.3282e-06
3.63074e-06 0.00022261 3.51052e-06
-1.3282e-06 3.51052e-06 0.00023125
0.00106173 1.29554e-06 6.33743e-07
1.29554e-06 -2.49147e-06 -1.46369e-06
6.33743e-07 -1.46369e-06 -2.02616e-05
0.00127294 2.72875e-06 -8.2334e-08
2.72875e-06 9.14437e-05 5.39138e-07
-8.2334e-08 5.39138e-07 9.88937e-05
0.00115243 3.50954e-06 -4.24079e-07
3.50954e-06 2.86824e-05 1.25717e-06
-4.24079e-07 1.25717e-06 5.04383e-05
0.00101425 1.81094e-06 5.55486e-07
1.81094e-06 -3.44336e-05 -2.6303e-06
5.55486e-07 -2.6303e-06 -2.81033e-05
0.00169131 2.27216e-06 2.22908e-07
2.27216e-06 0.000286632 -1.04899e-06
2.22908e-07 -1.04899e-06 0.000310779
0.00220841 1.09706e-06 4.05582e-07
1.09706e-06 0.000535058 -3.41231e-06
4.05582e-07 -3.41231e-06 0.000561664
0.00116399 -1.09522e-06 -1.76511e-07
-1.09522e-06 5.45457e-05 -7.53881e-07
-1.76511e-07 -7.53881e-07 2.26887e-05
0.00106853 -1.12413e-06 -3.30218e-07
-1.12413e-06 4.26273e-08 -1.631e-06
-3.30218e-07 -1.631e-06 -1.50206e-05
0.00112841 -9.07454e-07 5.30735e-08
-9.07454e-07 3.45329e-05 1.75277e-07
5.30735e-08 1.75277e-07 4.34402e-06
0.00101797 -1.02042e-06 -2.85983e-07
-1.02042e-06 -3.30204e-05 -2.68748e-06
-2.85983e-07 -2.68748e-06 -2.44135e-05
0.00106494 -7.79487e-07 -9.44029e-08
-7.79487e-07 -2.7548e-06 -5.31097e-09
-9.44029e-08 -5.31097e-09 -1.69856e-05
0.0010951 -1.06881e-06 -1.67903e-07
-1.06881e-06 1.64509e-05 1.36297e-06
-1.67903e-07 1.36297e-06 -1.26847e-05
0.00213777 -4.07557e-08 -7.02897e-08
-4.07557e-08 0.000500698 -3.40015e-06
-7.02897e-08 -3.40015e-06 0.000528225
0.00101323 1.61978e-08 -6.71021e-09
1.61978e-08 -3.56924e-05 -1.17481e-09
-6.71021e-09 -1.17481e-09 -2.67762e-05
0.0010685 3.33348e-08 9.4663e-08
3.33348e-08 -1.30887e-06 1.62659e-06
9.4663e-08 1.62659e-06 -1.52148e-05
0.00101902 1.07341e-06 -2.93985e-07
1.07341e-06 -3.25084e-05 2.68115e-06
-2.93985e-07 2.68115e-06 -2.40131e-05
0.00214593 1.25359e-06 -9.51743e-08
1.25359e-06 0.000504998 -3.48526e-09
-9.51743e-08 -3.48526e-09 0.000532367
0.00216512 2.46768e-06 -7.04634e-07
2.46768e-06 0.000515328 3.38469e-06
-7.04634e-07 3.38469e-06 0.000542332
-0.00192038 1.93418e-05 1.7063e-05
1.93418e-05 -0.001258 -4.73849e-06
1.7063e-05 -4.73849e-06 -0.00126211
-0.0024097 1.2196e-05 2.63467e-05
1.2196e-05 -0.000844369 -7.77636e-06
2.63467e-05 -7.77636e-06 -0.000743343
0.000242432 7.29159e-06 1.72318e-05
7.29159e-06 -5.41254e-05 -9.64793e-06
1.72318e-05 -9.64793e-06 -7.48459e-05
-0.00109815 3.35097e-05 1.46485e-07
3.35097e-05 -0.000790768 -2.36664e-07
1.46485e-07 -2.36664e-07 -0.000753677
-4.44898e-06 5.36292e-06 -7.93866e-06
5.36292e-06 -0.000493909 -2.25406e-06
-7.93866e-06 -2.25406e-06 -0.000545633
0.00103489 1.53224e-05 1.91858e-06
1.53224e-05 0.000119879 7.08095e-08
1.91858e-06 7.08095e-08 4.39103e-05
0.00120286 -6.84043e-06 2.13909e-05
-6.84043e-06 4.14956e-05 -3.47714e-06
2.13909e-05 -3.47714e-06 4.42361e-05
0.00123267 3.61565e-05 6.99825e-05
3.61565e-05 0.000641055 -3.47192e-05
6.99825e-05 -3.47192e-05 0.00067835
0.000163121 3.60296e-05 -2.47604e-05
3.60296e-05 -6.3941e-05 1.8695e-05
-2.47604e-05 1.8695e-05 1.64356e-05
0.00113839 1.0095e-06 9.53661e-07
1.0095e-06 2.12312e-05 -2.90941e-07
9.53661e-07 -2.90941e-07 -4.69028e-05
-5.57351e-05 -2.0007e-07 -3.98212e-06
-2.0007e-07 -0.00074424 4.95195e-06
-3.98212e-06 4.95195e-06 -0.000837884
0.00141628 6.78988e-05 4.80424e-07
6.78988e-05 0.000397247 3.21022e-06
4.80424e-07 3.21022e-06 0.000414838
0.000567763 1.34464e-05 -3.67422e-06
1.34464e-05 0.000154197 2.75801e-06
-3.67422e-06 2.75801e-06 0.000209082
0.00131223 -2.52002e-05 5.70212e-06
-2.52002e-05 -5.89288e-07 -4.46134e-06
5.70212e-06 -4.46134e-06 -8.86145e-05
-0.000317497 3.35417e-05 -5.05042e-05
3.35417e-05 -0.0010212 4.82442e-05
-5.05042e-05 4.82442e-05 -0.00119292
0.000699321 6.0157e-05 -1.77701e-07
6.0157e-05 0.000168529 3.31159e-05
-1.77701e-07 3.31159e-05 0.00023255
0.000179276 -1.70288e-06 6.59298e-06
-1.70288e-06 -9.57843e-05 -4.67612e-06
6.59298e-06 -4.67612e-06 -8.88459e-05
0.00116267 -1.90575e-06 -7.49981e-08
-1.90575e-06 5.96248e-05 -4.98382e-07
-7.49981e-08 -4.98382e-07 4.32938e-06
0.00113892 3.31121e-07 -1.0499e-07
3.31121e-07 4.70342e-05 -1.58974e-07
-1.0499e-07 -1.58974e-07 -2.34444e-06
0.00115631 3.20107e-07 1.21812e-07
3.20107e-07 4.91411e-05 3.62189e-07
1.21812e-07 3.62189e-07 9.97269e-06
0.00112042 2.70375e-06 -1.42038e-07
2.70375e-06 3.6121e-05 9.48752e-07
-1.42038e-07 9.48752e-07 -9.28229e-06
0.00112338 1.05897e-07 -7.19637e-08
1.05897e-07 3.93587e-05 -1.29303e-07
-7.19637e-08 -1.29303e-07 -1.19961e-05
0.00122181 -7.56406e-07 -2.69042e-08
-7.56406e-07 8.40455e-05 2.38067e-07
-2.69042e-08 2.38067e-07 3.68876e-05
0.00112271 -1.38258e-06 -5.75759e-08
-1.38258e-06 3.41393e-05 1.49334e-06
-5.75759e-08 1.49334e-06 -9.72555e-06
0.00125778 5.95186e-07 -1.659e-07
5.95186e-07 0.00010436 -4.72716e-07
-1.659e-07 -4.72716e-07 6.07631e-05
0.00121705 7.9593e-08 6.55292e-08
7.9593e-08 8.3052e-05 3.59106e-07
6.55292e-08 3.59106e-07 4.06681e-05
0.00102877 -9.75571e-07 -2.61517e-09
-9.75571e-07 -9.13047e-06 2.73626e-07
-2.61517e-09 2.73626e-07 -5.03425e-05
0.00135965 8.90229e-07 -2.8481e-07
8.90229e-07 0.000117098 -5.4672e-07
-2.8481e-07 -5.4672e-07 7.18103e-05
0.00100342 -8.83475e-06 -1.27213e-06
-8.83475e-06 -7.654e-05 -1.05361e-06
-1.27213e-06 -1.05361e-06 -0.000120641
0.00132656 -1.06723e-05 -1.64137e-06
-1.06723e-05 0.000101585 9.1672e-08
-1.64137e-06 9.1672e-08 3.50761e-05
0.00115037 -1.01749e-05 -1.17286e-06
-1.01749e-05 5.1495e-05 2.32722e-07
-1.17286e-06 2.32722e-07 -1.97815e-05
0.00117744 -4.43431e-06 1.12833e-08
-4.43431e-06 7.38449e-05 -1.01385e-07
1.12833e-08 -1.01385e-07 2.03507e-06
0.00106239 -2.41862e-06 8.15812e-08
-2.41862e-06 1.89786e-05 -1.7856e-07
8.15812e-08 -1.7856e-07 -4.48046e-05
0.00107619 1.14805e-07 -1.50153e-07
1.14805e-07 2.51125e-05 7.06671e-08
-1.50153e-07 7.06671e-08 -3.63339e-05
0.00112397 -1.56162e-06 1.23199e-07
-1.56162e-06 4.63245e-05 4.71882e-07
1.23199e-07 4.71882e-07 -1.44371e-05
0.00145112 -1.63665e-05 -5.29362e-08
-1.63665e-05 7.12491e-05 -4.16836e-08
-5.29362e-08 -4.16836e-08 2.13494e-05
0.00118807 -1.00087e-06 1.11727e-07
-1.00087e-06 8.19566e-05 -1.57291e-07
1.11727e-07 -1.57291e-07 1.59502e-05
0.00128888 -2.61576e-06 -6.68847e-08
-2.61576e-06 0.000131293 7.71028e-09
-6.68847e-08 7.71028e-09 5.99499e-05
0.00127629 -1.40532e-05 3.04279e-07
-1.40532e-05 9.42637e-05 3.47458e-07
3.04279e-07 3.47458e-07 1.83162e-05
0.00121093 -7.35463e-06 4.36782e-07
-7.35463e-06 8.86478e-05 -5.40977e-07
4.36782e-07 -5.40977e-07 8.63658e-06
0.00174637 -2.29648e-05 2.58235e-06
-2.29648e-05 0.000250194 4.65848e-07
2.58235e-06 4.65848e-07 0.000166473
0.0011479 -9.67899e-06 4.92493e-07
-9.67899e-06 7.44846e-05 -1.14282e-06
4.92493e-07 -1.14282e-06 -1.79143e-05
0.00119596 -2.76424e-06 -5.42422e-07
-2.76424e-06 8.82935e-05 -1.9599e-07
-5.42422e-07 -1.9599e-07 7.51922e-06
0.00115248 -1.23778e-06 -3.01723e-08
-1.23778e-06 6.2183e-05 9.7747e-09
-3.01723e-08 9.7747e-09 -2.82896e-06
0.00118385 -1.38797e-06 4.12671e-08
-1.38797e-06 7.87079e-05 2.41533e-07
4.12671e-08 2.41533e-07 8.792e-06
0.00151465 -1.88904e-06 7.08283e-06
-1.88904e-06 0.000724864 1.03137e-06
7.08283e-06 1.03137e-06 0.000646312
-0.000377473 -3.43435e-06 4.90441e-07
-3.43435e-06 -0.000295283 -7.11492e-07
4.90441e-07 -7.11492e-07 -0.000313023
-0.00610714 7.0772e-07 6.51856e-05
7.0772e-07 -0.00261259 1.39133e-06
6.51856e-05 1.39133e-06 -0.00247153
0.00113485 3.99635e-06 2.65665e-07
3.99635e-06 5.11436e-05 2.34985e-07
2.65665e-07 2.34985e-07 -1.03535e-05
0.000963384 6.23097e-06 3.88545e-07
6.23097e-06 9.71302e-06 -7.51092e-07
3.88545e-07 -7.51092e-07 -6.60015e-05
0.00107563 1.69761e-05 -4.32625e-07
1.69761e-05 1.13415e-05 -5.72536e-07
-4.32625e-07 -5.72536e-07 -8.63074e-05
-0.00160428 -1.67287e-05 -1.12317e-05
-1.67287e-05 -0.00105346 -3.26602e-06
-1.12317e-05 -3.26602e-06 -0.00105779
-0.0013242 -3.7689e-05 6.08892e-05
-3.7689e-05 -0.00152737 5.67591e-05
6.08892e-05 5.67591e-05 -0.00168308
0.000968801 3.41914e-05 -4.58218e-06
3.41914e-05 -9.27211e-05 -1.15103e-05
-4.58218e-06 -1.15103e-05 -0.000236455
0.00135881 1.77405e-05 3.02456e-06
1.77405e-05 0.000176961 -6.13705e-06
3.02456e-06 -6.13705e-06 5.84799e-05
0.00333754 -8.44049e-05 2.56323e-05
-8.44049e-05 0.00111391 5.14143e-05
2.56323e-05 5.14143e-05 0.00113192
6.91756e-05 -9.4906e-06 -1.50275e-05
-9.4906e-06 -0.000146305 -9.28764e-06
-1.50275e-05 -9.28764e-06 -0.00017038
0.000162193 2.6492e-06 -6.30952e-06
2.6492e-06 -0.000109242 -6.58084e-06
-6.30952e-06 -6.58084e-06 -0.000113324
0.00111204 3.97354e-06 4.0728e-07
3.97354e-06 6.40667e-05 -1.53509e-07
4.0728e-07 -1.53509e-07 -2.81563e-06
0.00119179 -3.77201e-06 1.96182e-06
-3.77201e-06 0.000532821 1.5588e-06
1.96182e-06 1.5588e-06 0.000468361
0.000513028 6.52309e-06 2.96026e-07
6.52309e-06 5.44321e-05 -1.33237e-06
2.96026e-07 -1.33237e-06 1.26551e-06
0.000894741 7.25574e-06 6.48835e-07
7.25574e-06 3.04107e-05 4.0621e-07
6.48835e-07 4.0621e-07 -5.896e-05
0.00111519 2.2975e-05 -4.98166e-07
2.2975e-05 0.000160357 -1.47716e-07
-4.98166e-07 -1.47716e-07 1.39551e-05
0.00252934 -4.98611e-05 -2.96683e-06
-4.98611e-05 0.00011759 -6.09579e-06
-2.96683e-06 -6.09579e-06 -3.24203e-05
0.000399976 8.93672e-06 -3.1253e-07
8.93672e-06 3.27559e-05 2.13068e-06
-3.1253e-07 2.13068e-06 2.91686e-05
0.00262217 -5.176e-05 3.88543e-06
-5.176e-05 0.000479769 6.33347e-06
3.88543e-06 6.33347e-06 0.000549221
0.000895181 2.81814e-07 -8.71802e-08
2.81814e-07 -2.64483e-05 -6.60395e-07
-8.71802e-08 -6.60395e-07 -0.000100558
0.000672369 5.62457e-06 3.9017e-06
5.62457e-06 0.000101775 3.62176e-06
3.9017e-06 3.62176e-06 1.44035e-05
0.000696347 9.62399e-06 -2.51387e-06
9.62399e-06 0.000147232 5.9283e-06
-2.51387e-06 5.9283e-06 0.000103857
0.000185957 1.79435e-06 -7.0217e-06
1.79435e-06 -9.82888e-05 4.96941e-06
-7.0217e-06 4.96941e-06 -8.34153e-05
0.000867219 5.42393e-06 -1.61187e-06
5.42393e-06 2.85155e-05 1.06091e-06
-1.61187e-06 1.06091e-06 -6.84965e-05
0.00434778 -2.07005e-05 -2.45304e-05
-2.07005e-05 0.000850938 -3.51104e-05
-2.45304e-05 -3.51104e-05 0.000726583
0.000404154 2.17068e-05 6.00573e-07
2.17068e-05 -0.000722438 -4.56479e-05
6.00573e-07 -4.56479e-05 -0.000564704
0.00127785 2.14161e-06 -8.33012e-08
2.14161e-06 0.000118774 5.14659e-07
-8.33012e-08 5.14659e-07 5.46102e-05
0.00113267 -1.15725e-07 -2.75e-07
-1.15725e-07 5.12738e-05 -2.31594e-07
-2.75e-07 -2.31594e-07 -1.72039e-05
0.00112624 -2.9019e-06 -5.14054e-07
-2.9019e-06 4.9491e-05 -5.09893e-07
-5.14054e-07 -5.09893e-07 -2.08958e-05
0.00117884 6.42381e-08 1.54013e-07
6.42381e-08 6.29831e-05 -1.42744e-07
1.54013e-07 -1.42744e-07 1.07544e-05
0.00120633 7.97993e-07 3.71732e-08
7.97993e-07 7.64495e-05 1.91e-07
3.71732e-08 1.91e-07 1.76823e-05
0.00124967 -1.45033e-06 -5.92183e-08
-1.45033e-06 9.91176e-05 1.12497e-08
-5.92183e-08 1.12497e-08 3.31593e-05
0.00120704 -1.19622e-06 -6.43425e-09
-1.19622e-06 7.64786e-05 -5.89101e-08
-6.43425e-09 -5.89101e-08 1.99859e-05
0.0011689 -1.85235e-06 2.78659e-08
-1.85235e-06 6.18483e-05 1.02665e-07
2.78659e-08 1.02665e-07 -1.91078e-06
0.00116815 -2.39007e-06 1.54288e-07
-2.39007e-06 6.50711e-05 -1.39552e-08
1.54288e-07 -1.39552e-08 -2.61574e-06
0.00113333 -3.00128e-06 1.7261e-08
-3.00128e-06 5.17368e-05 -5.09571e-07
1.7261e-08 -5.09571e-07 -1.46746e-05
0.00116965 -2.5551e-06 -3.79054e-07
-2.5551e-06 6.45534e-05 3.78026e-09
-3.79054e-07 3.78026e-09 4.00651e-06
0.00119707 -2.02519e-06 2.77282e-07
-2.02519e-06 7.18927e-05 -9.61127e-08
2.77282e-07 -9.61127e-08 1.8205e-05
0.00113678 -7.15112e-07 3.28268e-08
-7.15112e-07 4.54509e-05 1.97199e-08
3.28268e-08 1.97199e-08 -4.27144e-06
0.00115326 -2.52344e-06 1.08435e-07
-2.52344e-06 5.01013e-05 9.34776e-08
1.08435e-07 9.34776e-08 -3.63985e-06
0.00116942 -2.80089e-06 4.13306e-08
-2.80089e-06 6.09334e-05 -9.93214e-08
4.13306e-08 -9.93214e-08 4.33468e-06
0.00110268 -1.49582e-06 -1.03338e-07
-1.49582e-06 2.6786e-05 1.96707e-07
-1.03338e-07 1.96707e-07 -2.77877e-05
0.00119156 -3.76532e-06 -6.76201e-08
-3.76532e-06 7.63401e-05 3.15978e-07
-6.76201e-08 3.15978e-07 1.71804e-05
0.00113184 -3.43399e-06 6.69481e-08
-3.43399e-06 4.28382e-05 -4.35686e-07
6.69481e-08 -4.35686e-07 -1.22801e-05
0.00102825 -5.05503e-06 3.45364e-07
-5.05503e-06 -5.644e-06 3.88074e-07
3.45364e-07 3.88074e-07 -6.76246e-05
0.00117145 -2.17815e-06 1.15432e-07
-2.17815e-06 5.80946e-05 1.36938e-07
1.15432e-07 1.36938e-07 4.73761e-06
0.0011825 -3.46809e-06 9.35848e-08
-3.46809e-06 6.576e-05 3.26941e-07
9.35848e-08 3.26941e-07 1.22248e-05
0.00113201 -4.54749e-06 1.48027e-07
-4.54749e-06 4.3445e-05 5.86156e-07
1.48027e-07 5.86156e-07 -1.55141e-05
0.00111034 -2.97167e-06 -3.37442e-07
-2.97167e-06 4.16318e-05 9.52394e-08
-3.37442e-07 9.52394e-08 -1.34468e-05
0.00112428 -1.19265e-06 -3.95516e-07
-1.19265e-06 4.40747e-05 4.38e-07
-3.95516e-07 4.38e-07 -3.29733e-06
0.00108443 -3.34373e-06 -1.13261e-07
-3.34373e-06 2.4901e-05 1.51671e-07
-1.13261e-07 1.51671e-07 -2.92961e-05
0.0011156 6.90181e-07 -4.61274e-07
6.90181e-07 3.41885e-05 2.53088e-07
-4.61274e-07 2.53088e-07 -6.69826e-06
0.00118067 -1.17935e-06 1.25569e-08
-1.17935e-06 6.61683e-05 -2.309e-07
1.25569e-08 -2.309e-07 1.94676e-05
0.00111303 -2.71102e-06 -5.99804e-08
-2.71102e-06 3.81702e-05 -8.29117e-07
-5.99804e-08 -8.29117e-07 -1.1646e-05
0.0012152 -1.18358e-06 5.88442e-07
-1.18358e-06 8.21072e-05 -2.29016e-07
5.88442e-07 -2.29016e-07 3.40039e-05
0.00106918 5.60942e-07 1.48954e-08
5.60942e-07 1.1834e-05 -8.44234e-10
1.48954e-08 -8.44234e-10 -3.04858e-05
0.00108963 1.97154e-06 -7.3766e-07
1.97154e-06 1.96397e-05 7.07348e-07
-7.3766e-07 7.07348e-07 -1.22405e-05
0.00111956 1.12336e-07 3.76113e-07
1.12336e-07 3.52736e-05 -1.45939e-07
3.76113e-07 -1.45939e-07 -7.4695e-06
0.00109394 1.53033e-06 4.12545e-08
1.53033e-06 2.02575e-05 1.18126e-08
4.12545e-08 1.18126e-08 -1.18578e-05
0.00105168 3.11797e-06 -9.61014e-07
3.11797e-06 -3.55996e-06 1.30491e-06
-9.61014e-07 1.30491e-06 -2.00731e-05
0.00110345 9.99997e-07 5.70354e-07
9.99997e-07 2.33485e-05 -8.03377e-07
5.70354e-07 -8.03377e-07 -8.90199e-06
0.00105826 2.4022e-06 3.4446e-08
2.4022e-06 -2.43763e-06 1.03146e-08
3.4446e-08 1.03146e-08 -1.91064e-05
0.00149963 4.67042e-06 -1.21483e-06
4.67042e-06 0.00020427 2.38458e-06
-1.21483e-06 2.38458e-06 0.000213293
0.00106207 1.74796e-06 7.69787e-07
1.74796e-06 -1.83302e-06 -1.4082e-06
7.69787e-07 -1.4082e-06 -1.89845e-05
0.00126504 3.67407e-06 -1.36421e-07
3.67407e-06 8.92675e-05 5.27839e-07
-1.36421e-07 5.27839e-07 9.69502e-05
0.00115016 4.7503e-06 -5.51696e-07
4.7503e-06 2.95563e-05 1.20119e-06
-5.51696e-07 1.20119e-06 5.13213e-05
0.0010085 2.70469e-06 8.47586e-07
2.70469e-06 -3.60258e-05 -2.55385e-06
8.47586e-07 -2.55385e-06 -2.96795e-05
0.00169336 3.48805e-06 3.02992e-07
3.48805e-06 0.000289079 -1.03823e-06
3.02992e-07 -1.03823e-06 0.00031302
0.00221297 2.33813e-06 7.21896e-07
2.33813e-06 0.000538195 -3.39024e-06
7.21896e-07 -3.39024e-06 0.000564614
0.000936671 -1.07142e-06 -3.9278e-07
-1.07142e-06 -5.28279e-05 -1.22272e-06
-3.9278e-07 -1.22272e-06 -8.73412e-05
0.000856374 -1.73228e-06 -5.36336e-07
-1.73228e-06 -0.000100012 -2.11954e-06
-5.36336e-07 -2.11954e-06 -0.000117502
0.00116463 -1.06609e-06 3.39727e-08
-1.06609e-06 5.47432e-05 1.68453e-07
3.39727e-08 1.68453e-07 2.28703e-05
0.00101744 -1.93108e-06 -5.43428e-07
-1.93108e-06 -3.23012e-05 -2.65547e-06
-5.43428e-07 -2.65547e-06 -2.42281e-05
0.000955941 -1.16043e-06 -2.67829e-08
-1.16043e-06 -5.4011e-05 -5.84404e-10
-2.67829e-08 -5.84404e-10 -6.97511e-05
0.000942048 -9.95678e-07 1.43356e-07
-9.95678e-07 -5.46395e-05 1.12128e-06
1.43356e-07 1.12128e-06 -8.58532e-05
0.00214336 -1.27685e-06 -4.02378e-07
-1.27685e-06 0.000503882 -3.40544e-06
-4.02378e-07 -3.40544e-06 0.000531233
0.00101218 -1.0277e-06 -8.39844e-08
-1.0277e-06 -3.58419e-05 -6.62364e-09
-8.39844e-08 -6.62364e-09 -2.71774e-05
0.00105957 -7.85549e-07 -2.91898e-08
-7.85549e-07 -5.35835e-06 1.61091e-06
-2.91898e-08 1.61091e-06 -1.95353e-05
0.00213775 7.25145e-09 -7.01104e-08
7.25145e-09 0.000500685 9.26371e-10
-7.01104e-08 9.26371e-10 0.000528211
0.0010138 1.10752e-08 -1.66188e-08
1.10752e-08 -3.54155e-05 2.6882e-06
-1.66188e-08 2.6882e-06 -2.65104e-05
0.00214527 1.29855e-06 -4.03717e-07
1.29855e-06 0.000504833 3.40258e-06
-4.03717e-07 3.40258e-06 0.000532149
0.000665924 2.34975e-06 1.04493e-05
2.34975e-06 0.000200528 -4.50276e-06
1.04493e-05 -4.50276e-06 0.000135605
0.000873458 1.62248e-05 -4.24522e-06
1.62248e-05 0.000470662 1.31503e-06
-4.24522e-06 1.31503e-06 0.000473214
0.00104303 1.57621e-05 8.45852e-05
1.57621e-05 0.000319092 -1.64169e-05
8.45852e-05 -1.64169e-05 0.000382195
0.0011159 1.33135e-06 -4.18843e-07
1.33135e-06 3.37241e-05 -4.36837e-07
-4.18843e-07 -4.36837e-07 -1.14574e-05
0.000389588 -2.27638e-06 5.95329e-06
-2.27638e-06 -4.09579e-05 -9.41768e-06
5.95329e-06 -9.41768e-06 -8.67873e-05
0.000618345 7.46556e-06 3.19094e-06
7.46556e-06 0.000181672 -3.31791e-07
3.19094e-06 -3.31791e-07 0.000161859
0.0012537 2.89851e-05 -1.86997e-05
2.89851e-05 0.000657006 1.28233e-05
-1.86997e-05 1.28233e-05 0.000699656
0.00149943 -2.26961e-06 -4.23293e-06
-2.26961e-06 0.000137237 -2.02323e-06
-4.23293e-06 -2.02323e-06 6.27072e-05
0.00586966 3.6425e-06 2.88832e-05
3.6425e-06 0.00164868 -9.65902e-06
2.88832e-05 -9.65902e-06 0.00150508
-0.0023632 5.28875e-05 2.74055e-05
5.28875e-05 -0.00098876 -2.64477e-05
2.74055e-05 -2.64477e-05 -0.000908735
0.00175779 1.20497e-05 -1.49087e-05
1.20497e-05 0.000909894 9.89916e-06
-1.49087e-05 9.89916e-06 0.000954889
0.00149008 -2.85902e-05 -5.34111e-06
-2.85902e-05 -4.63902e-05 -2.29906e-07
-5.34111e-06 -2.29906e-07 -0.000154866
0.00486251 4.5087e-05 2.48415e-06
4.5087e-05 0.00108074 -6.14761e-06
2.48415e-06 -6.14761e-06 0.0008778
-0.00163564 7.15364e-05 4.94097e-06
7.15364e-05 -0.00126397 5.78432e-06
4.94097e-06 5.78432e-06 -0.00121519
0.000582727 1.24592e-06 9.81589e-07
1.24592e-06 0.000153314 -1.09883e-06
9.81589e-07 -1.09883e-06 0.000168991
0.00121751 -3.77059e-05 9.47838e-06
-3.77059e-05 -0.000134215 -1.77852e-05
9.47838e-06 -1.77852e-05 -0.000282663
0.00309004 5.41558e-05 -2.32944e-05
5.41558e-05 -7.95331e-05 2.14611e-05
-2.32944e-05 2.14611e-05 -0.000254982
0.00296404 4.66123e-05 -1.30958e-07
4.66123e-05 0.000412979 3.53761e-05
-1.30958e-07 3.53761e-05 0.000527595
0.000500643 9.22829e-07 1.09618e-06
9.22829e-07 0.000105468 -3.12854e-06
1.09618e-06 -3.12854e-06 0.000103564
0.00113223 -1.35366e-06 -2.65206e-07
-1.35366e-06 4.35641e-05 -5.05619e-07
-2.65206e-07 -5.05619e-07 -1.56339e-05
0.00116716 -1.87473e-06 4.68768e-08
-1.87473e-06 6.19839e-05 -2.22799e-08
4.68768e-08 -2.22799e-08 6.17818e-06
0.00123041 3.90081e-07 3.3307e-08
3.90081e-07 8.99654e-05 6.04214e-07
3.3307e-08 6.04214e-07 4.1552e-05
0.001122 1.25586e-06 -2.93798e-07
1.25586e-06 3.97031e-05 -7.37682e-07
-2.93798e-07 -7.37682e-07 -1.28183e-05
0.00118019 6.17147e-07 -6.54606e-09
6.17147e-07 6.58545e-05 2.4414e-07
-6.54606e-09 2.4414e-07 1.51462e-05
0.00124189 -4.48647e-07 1.51712e-07
-4.48647e-07 9.27636e-05 1.0552e-06
1.51712e-07 1.0552e-06 4.61476e-05
0.0012648 5.83604e-07 1.25951e-09
5.83604e-07 0.000107333 3.95784e-08
1.25951e-09 3.95784e-08 6.39436e-05
0.0012696 5.22732e-07 1.69955e-07
5.22732e-07 0.000107931 9.03166e-07
1.69955e-07 9.03166e-07 6.60706e-05
0.00112125 -1.59861e-05 -3.74197e-06
-1.59861e-05 -6.86657e-05 -3.04505e-07
-3.74197e-06 -3.04505e-07 -0.000119631
0.00125391 -1.33007e-05 -9.37985e-07
-1.33007e-05 8.85564e-05 1.60225e-07
-9.37985e-07 1.60225e-07 1.45245e-05
0.00115716 -1.94363e-06 3.68628e-07
-1.94363e-06 6.21769e-05 3.84324e-07
3.68628e-07 3.84324e-07 1.53702e-06
0.00119472 -7.2987e-06 -1.1946e-07
-7.2987e-06 8.05111e-05 -2.15797e-07
-1.1946e-07 -2.15797e-07 6.56928e-07
0.00133433 -2.7296e-06 1.05467e-07
-2.7296e-06 0.000153102 1.38554e-07
1.05467e-07 1.38554e-07 8.12906e-05
0.00118353 -1.62022e-07 -5.8536e-08
-1.62022e-07 8.01014e-05 -3.28302e-07
-5.8536e-08 -3.28302e-07 1.43622e-05
0.00114135 -1.29604e-06 -7.5972e-08
-1.29604e-06 5.67504e-05 4.00933e-08
-7.5972e-08 4.00933e-08 -8.3944e-06
0.00136772 -2.24182e-05 4.72219e-07
-2.24182e-05 7.92388e-05 -3.64686e-07
4.72219e-07 -3.64686e-07 -5.34334e-06
0.00116894 -1.61891e-06 4.83266e-08
-1.61891e-06 7.15914e-05 1.31372e-08
4.83266e-08 1.31372e-08 9.94717e-07
0.00122395 -2.85652e-06 -1.0262e-07
-2.85652e-06 0.000101415 6.31345e-08
-1.0262e-07 6.31345e-08 2.04676e-05
0.00119495 -9.77703e-06 -1.01991e-07
-9.77703e-06 9.63019e-05 -3.21264e-07
-1.01991e-07 -3.21264e-07 3.78243e-06
0.00112012 -7.70814e-07 -1.56012e-08
-7.70814e-07 4.46152e-05 3.39441e-07
-1.56012e-08 3.39441e-07 -2.1713e-05
0.00157351 -1.51498e-05 -7.23826e-07
-1.51498e-05 0.000274096 6.02559e-07
-7.23826e-07 6.02559e-07 0.000162091
0.00122891 -1.60915e-06 -5.2539e-07
-1.60915e-06 0.000130394 -7.85822e-07
-5.2539e-07 -7.85822e-07 3.6236e-05
0.00130872 -2.7129e-06 1.45213e-07
-2.7129e-06 0.000138153 1.99006e-07
1.45213e-07 1.99006e-07 6.18895e-05
0.00119011 -1.06987e-06 1.54613e-07
-1.06987e-06 8.10066e-05 1.26409e-07
1.54613e-07 1.26409e-07 8.42549e-06
0.00130848 1.34008e-06 3.47564e-06
1.34008e-06 0.000480715 5.22282e-07
3.47564e-06 5.22282e-07 0.000382188
0.0012767 -1.10336e-06 -4.46953e-06
-1.10336e-06 0.000574105 5.52411e-07
-4.46953e-06 5.52411e-07 0.000495734
-0.00176935 -1.12404e-06 -2.67962e-05
-1.12404e-06 -0.00115512 4.49276e-07
-2.67962e-05 4.49276e-07 -0.00117808
0.00111056 3.98628e-06 -7.04125e-08
3.98628e-06 6.29805e-05 -3.96977e-07
-7.04125e-08 -3.96977e-07 -2.71813e-06
0.000868219 8.01593e-06 9.0837e-07
8.01593e-06 1.38995e-05 -1.36768e-06
9.0837e-07 -1.36768e-06 -7.9362e-05
0.000492433 -3.08612e-06 -1.32235e-05
-3.08612e-06 9.65927e-05 -3.81365e-06
-1.32235e-05 -3.81365e-06 2.64209e-05
0.00345673 -7.46773e-05 1.79029e-05
-7.46773e-05 0.000251581 1.48272e-05
1.79029e-05 1.48272e-05 5.79707e-05
0.00113975 2.78129e-05 3.08304e-06
2.78129e-05 9.12422e-05 -1.32781e-05
3.08304e-06 -1.32781e-05 -7.03747e-05
0.00112974 -4.225e-05 -2.31562e-06
-4.225e-05 -0.000509121 5.10822e-05
-2.31562e-06 5.10822e-05 -0.000375316
0.00031878 7.02198e-06 -4.10498e-06
7.02198e-06 -6.72682e-05 -7.63055e-06
-4.10498e-06 -7.63055e-06 -0.000120758
0.000249966 9.38903e-06 1.52036e-06
9.38903e-06 -6.84694e-05 -2.95254e-06
1.52036e-06 -2.95254e-06 -7.78628e-05
0.00110225 8.85533e-07 -2.73849e-07
8.85533e-07 7.09448e-05 -2.83919e-07
-2.73849e-07 -2.83919e-07 -2.67682e-06
0.000551143 5.2928e-06 1.06194e-07
5.2928e-06 2.7252e-05 7.94795e-07
1.06194e-07 7.94795e-07 -6.06563e-05
0.000598589 9.02177e-06 -9.17832e-07
9.02177e-06 7.38207e-05 4.88527e-07
-9.17832e-07 4.88527e-07 2.47898e-05
0.00099547 7.77978e-07 -2.65479e-07
7.77978e-07 0.000112959 -4.98498e-07
-2.65479e-07 -4.98498e-07 2.65882e-05
0.000585324 4.53141e-06 -9.19497e-07
4.53141e-06 0.000148997 1.10698e-06
-9.19497e-07 1.10698e-06 0.000171781
0.00282779 -5.25926e-06 -5.4324e-06
-5.25926e-06 0.000155836 -4.12027e-06
-5.4324e-06 -4.12027e-06 6.43668e-05
0.00374397 2.35582e-05 1.65721e-06
2.35582e-05 0.000502966 5.49007e-07
1.65721e-06 5.49007e-07 0.000714206
0.00109538 -5.07555e-06 -5.61458e-07
-5.07555e-06 4.60745e-05 -8.78853e-07
-5.61458e-07 -8.78853e-07 -2.39342e-05
0.000798519 6.00434e-06 -1.75081e-06
6.00434e-06 0.00014421 4.25898e-06
-1.75081e-06 4.25898e-06 6.7475e-05
0.000400524 1.81036e-06 -5.99521e-06
1.81036e-06 -3.76119e-05 9.30699e-06
-5.99521e-06 9.30699e-06 -7.59179e-05
0.000889071 1.63975e-05 -9.68633e-06
1.63975e-05 0.000343788 7.82804e-06
-9.68633e-06 7.82804e-06 0.00040002
0.00279344 5.48631e-05 5.16419e-07
5.48631e-05 0.000340641 -3.46786e-05
5.16419e-07 -3.46786e-05 0.000467024
0.00140172 1.07149e-05 8.83674e-07
1.07149e-05 0.000421924 2.86245e-07
8.83674e-07 2.86245e-07 0.000302672
0.00160146 2.33946e-05 7.61223e-07
2.33946e-05 -0.000435648 -2.84938e-05
7.61223e-07 -2.84938e-05 -0.00053776
0.00114115 -2.42099e-07 -1.25023e-07
-2.42099e-07 5.56238e-05 -2.17059e-07
-1.25023e-07 -2.17059e-07 -1.27428e-05
0.00108794 -2.54002e-06 3.33455e-07
-2.54002e-06 3.27657e-05 -2.8509e-07
3.33455e-07 -2.8509e-07 -3.79052e-05
0.00101835 -1.44943e-06 3.89561e-07
-1.44943e-06 1.71574e-05 -7.17331e-07
3.89561e-07 -7.17331e-07 -5.23231e-05
0.00120098 -1.55363e-06 2.22343e-07
-1.55363e-06 7.33565e-05 1.06322e-07
2.22343e-07 1.06322e-07 1.72866e-05
0.00117857 -1.76768e-06 1.72137e-07
-1.76768e-06 6.65639e-05 1.28592e-07
1.72137e-07 1.28592e-07 2.72527e-06
0.00119168 -2.5405e-06 4.96723e-08
-2.5405e-06 7.40108e-05 3.71522e-07
4.96723e-08 3.71522e-07 5.89134e-06
0.00115573 -2.57289e-06 -5.18882e-08
-2.57289e-06 5.68814e-05 1.75626e-07
-5.18882e-08 1.75626e-07 -3.44458e-06
0.00111835 -3.18426e-06 -1.60477e-07
-3.18426e-06 4.52315e-05 1.71378e-07
-1.60477e-07 1.71378e-07 -2.13147e-05
0.00108241 -4.23183e-06 4.50948e-07
-4.23183e-06 3.95647e-05 4.54142e-07
4.50948e-07 4.54142e-07 -3.09916e-05
0.0011788 -2.7932e-06 1.61257e-07
-2.7932e-06 6.46011e-05 1.74137e-07
1.61257e-07 1.74137e-07 8.14841e-06
0.00108254 -1.47175e-06 5.72124e-09
-1.47175e-06 1.71985e-05 2.95726e-07
5.72124e-09 2.95726e-07 -3.73986e-05
0.00119893 -3.90806e-06 8.46406e-08
-3.90806e-06 7.84449e-05 3.15937e-07
8.46406e-08 3.15937e-07 1.87525e-05
0.00116382 -6.18666e-06 -1.17107e-07
-6.18666e-06 7.21646e-05 9.59345e-07
-1.17107e-07 9.59345e-07 4.56909e-06
0.00112582 -3.43072e-06 -1.3201e-07
-3.43072e-06 4.12426e-05 -7.41002e-08
-1.3201e-07 -7.41002e-08 -1.2445e-05
0.00105512 -4.8673e-06 2.68056e-07
-4.8673e-06 9.3253e-06 -2.65901e-07
2.68056e-07 -2.65901e-07 -5.2032e-05
0.00121119 -6.00148e-06 -3.25055e-08
-6.00148e-06 8.1038e-05 3.29235e-07
-3.25055e-08 3.29235e-07 1.53314e-05
0.00118271 -4.84112e-06 -3.37201e-07
-4.84112e-06 6.49735e-05 4.67907e-07
-3.37201e-07 4.67907e-07 4.32542e-06
0.00126755 -3.60022e-06 7.33159e-08
-3.60022e-06 0.000104825 2.74586e-08
7.33159e-08 2.74586e-08 5.12795e-05
0.00114554 -4.64497e-06 -3.5448e-08
-4.64497e-06 4.96903e-05 2.8217e-08
-3.5448e-08 2.8217e-08 -9.64846e-06
0.00122477 -2.96548e-06 -2.10168e-08
-2.96548e-06 9.50362e-05 -1.28314e-07
-2.10168e-08 -1.28314e-07 4.10042e-05
0.00101796 -1.95434e-07 -3.62479e-07
-1.95434e-07 1.86571e-06 3.17829e-07
-3.62479e-07 3.17829e-07 -4.78514e-05
0.00114099 -2.93189e-06 1.40142e-07
-2.93189e-06 5.59818e-05 -1.7232e-07
1.40142e-07 -1.7232e-07 1.49644e-06
0.00110995 1.0657e-06 -5.95876e-07
1.0657e-06 3.52804e-05 2.04237e-07
-5.95876e-07 2.04237e-07 -5.5661e-06
0.00114214 -1.28001e-06 -1.95408e-07
-1.28001e-06 5.23577e-05 2.9338e-07
-1.95408e-07 2.9338e-07 4.86317e-06
0.0010235 -3.21181e-06 -1.31708e-07
-3.21181e-06 -2.41537e-06 -2.02595e-07
-1.31708e-07 -2.02595e-07 -5.66849e-05
0.00108699 2.22081e-06 -7.97994e-07
2.22081e-06 1.90963e-05 6.09755e-07
-7.97994e-07 6.09755e-07 -1.22135e-05
0.00108102 6.87604e-07 7.61462e-08
6.87604e-07 1.73602e-05 3.34427e-08
7.61462e-08 3.34427e-08 -2.38124e-05
0.0011462 -1.40252e-06 5.07039e-07
-1.40252e-06 4.92417e-05 -3.76031e-07
5.07039e-07 -3.76031e-07 2.05537e-06
0.00110919 6.26688e-07 5.36656e-07
6.26688e-07 3.10023e-05 -2.91302e-07
5.36656e-07 -2.91302e-07 -1.0991e-05
0.00109067 1.97255e-06 1.49691e-08
1.97255e-06 2.0043e-05 9.21568e-09
1.49691e-08 9.21568e-09 -1.18041e-05
0.00104708 3.75869e-06 -1.07085e-06
3.75869e-06 -3.60535e-06 1.24872e-06
-1.07085e-06 1.24872e-06 -2.01335e-05
0.00109702 1.52708e-06 6.89949e-07
1.52708e-06 2.16827e-05 -7.27738e-07
6.89949e-07 -7.27738e-07 -1.043e-05
0.00105505 3.11256e-06 2.50039e-08
3.11256e-06 -1.984e-06 7.58443e-09
2.50039e-08 7.58443e-09 -1.85044e-05
0.000991256 5.71896e-06 -1.36379e-06
5.71896e-06 -3.7621e-05 2.26516e-06
-1.36379e-06 2.26516e-06 -3.09077e-05
0.00106261 2.39387e-06 9.04639e-07
2.39387e-06 -3.79257e-07 -1.35884e-06
9.04639e-07 -1.35884e-06 -1.70737e-05
0.00099654 4.69088e-06 4.65572e-08
4.69088e-06 -3.7881e-05 1.81538e-08
4.65572e-08 1.81538e-08 -3.10854e-05
0.00214542 6.01961e-06 -6.44493e-07
6.01961e-06 0.000511147 1.26732e-06
-6.44493e-07 1.26732e-06 0.000537341
0.00100513 3.65395e-06 1.07837e-06
3.65395e-06 -3.60494e-05 -2.45164e-06
1.07837e-06 -2.45164e-06 -2.94682e-05
0.00168606 4.71436e-06 3.68686e-07
4.71436e-06 0.000287563 -1.01738e-06
3.68686e-07 -1.01738e-06 0.000311418
0.00220156 3.56308e-06 1.02125e-06
3.56308e-06 0.000534265 -3.31585e-06
1.02125e-06 -3.31585e-06 0.000560565
0.000934519 -5.6688e-07 -7.04466e-07
-5.6688e-07 -5.46718e-05 -1.16733e-06
-7.04466e-07 -1.16733e-06 -8.97156e-05
0.000848669 -2.09819e-06 -7.4469e-07
-2.09819e-06 -0.00010144 -2.03032e-06
-7.4469e-07 -2.03032e-06 -0.000120298
0.00105018 -1.08269e-06 -7.38511e-08
-1.08269e-06 1.67348e-06 -3.55462e-07
-7.38511e-08 -3.55462e-07 -3.22902e-05
0.00101838 -2.89083e-06 -7.65068e-07
-2.89083e-06 -3.02298e-05 -2.60157e-06
-7.65068e-07 -2.60157e-06 -2.28468e-05
0.000842146 -1.74223e-06 -1.16976e-07
-1.74223e-06 -0.000106531 -5.19882e-07
-1.16976e-07 -5.19882e-07 -0.000124148
0.00116551 -1.03662e-06 2.85867e-07
-1.03662e-06 5.50467e-05 1.08284e-06
2.85867e-07 1.08284e-06 2.31581e-05
0.00214772 -2.48893e-06 -7.13499e-07
-2.48893e-06 0.000507092 -3.37841e-06
-7.13499e-07 -3.37841e-06 0.000534181
0.00101139 -1.94257e-06 -5.47774e-08
-1.94257e-06 -3.52454e-05 4.96465e-09
-5.47774e-08 4.96465e-09 -2.71185e-05
0.000844835 -1.19908e-06 2.65996e-07
-1.19908e-06 -0.000107385 1.6216e-06
2.65996e-07 1.6216e-06 -0.000123803
0.0021463 -1.23261e-06 -9.79542e-08
-1.23261e-06 0.000505165 5.70716e-09
-9.79542e-08 5.70716e-09 0.000532549
0.00100641 -1.03561e-06 1.14498e-07
-1.03561e-06 -3.86609e-05 2.67762e-06
1.14498e-07 2.67762e-06 -2.99373e-05
0.00213823 5.5154e-08 -7.8681e-08
5.5154e-08 0.000500927 3.39477e-06
-7.8681e-08 3.39477e-06 0.000528448
0.000782656 -2.47863e-06 3.65136e-06
-2.47863e-06 0.000164446 -4.13638e-06
3.65136e-06 -4.13638e-06 7.93504e-05
0.000779303 2.48185e-06 -5.07019e-07
2.48185e-06 0.000268709 6.62975e-07
-5.07019e-07 6.62975e-07 0.000204897
0.000644426 1.69022e-05 -1.90481e-05
1.69022e-05 0.000328002 7.16077e-06
-1.90481e-05 7.16077e-06 0.000330866
0.00114997 1.35497e-06 -8.40842e-08
1.35497e-06 4.94147e-05 1.76849e-08
-8.40842e-08 1.76849e-08 4.59946e-06
0.00103407 1.89299e-06 -4.62456e-07
1.89299e-06 -9.50895e-06 -5.16707e-07
-4.62456e-07 -5.16707e-07 -5.43768e-05
0.00120128 1.82373e-06 -6.06696e-08
1.82373e-06 7.55942e-05 1.71071e-07
-6.06696e-08 1.71071e-07 2.39872e-05
0.000759831 2.69434e-06 6.75033e-07
2.69434e-06 0.000184664 -9.10071e-06
6.75033e-07 -9.10071e-06 0.000137923
0.000683676 -2.80698e-06 8.11894e-07
-2.80698e-06 0.000144193 -2.68158e-07
8.11894e-07 -2.68158e-07 9.74517e-05
0.000966911 7.5977e-06 -9.6158e-06
7.5977e-06 0.000401007 1.01418e-05
-9.6158e-06 1.01418e-05 0.000382136
0.00254217 -2.77581e-05 -1.17001e-05
-2.77581e-05 0.000535314 5.95428e-06
-1.17001e-05 5.95428e-06 0.000439919
0.00313575 1.51537e-05 6.41929e-05
1.51537e-05 0.000612197 -5.76377e-05
6.41929e-05 -5.76377e-05 0.000435146
0.00312178 8.33504e-05 6.66932e-06
8.33504e-05 0.000933794 -1.6125e-05
6.66932e-06 -1.6125e-05 0.000944716
0.000581023 2.89446e-07 -4.2429e-06
2.89446e-07 0.000160254 4.08096e-06
-4.2429e-06 4.08096e-06 0.000170951
0.0015365 -3.39143e-05 -4.68172e-06
-3.39143e-05 0.000133764 3.26246e-06
-4.68172e-06 3.26246e-06 6.71594e-06
0.00359417 5.23587e-05 4.0622e-06
5.23587e-05 0.000525659 -1.41464e-05
4.0622e-06 -1.41464e-05 0.000342684
0.000274149 5.5894e-05 9.87316e-07
5.5894e-05 -0.000494321 6.94571e-06
9.87316e-07 6.94571e-06 -0.000420232
0.00039048 1.70295e-06 5.41757e-07
1.70295e-06 2.80324e-05 9.03988e-07
5.41757e-07 9.03988e-07 2.06861e-05
0.00176706 -3.0759e-05 2.18053e-06
-3.0759e-05 0.000399645 -1.28043e-05
2.18053e-06 -1.28043e-05 0.000262404
0.00460625 3.37871e-05 -4.15139e-06
3.37871e-05 0.000503614 2.90259e-06
-4.15139e-06 2.90259e-06 0.000500059
0.00043519 5.42627e-06 -3.65589e-07
5.42627e-06 -0.000732792 4.91541e-05
-3.65589e-07 4.91541e-05 -0.000577096
-0.000111585 8.72098e-08 -3.81819e-06
8.72098e-08 -0.000289664 -5.63781e-07
-3.81819e-06 -5.63781e-07 -0.000290469
0.00115684 7.12362e-07 -4.53914e-07
7.12362e-07 5.74404e-05 -1.79567e-07
-4.53914e-07 -1.79567e-07 -3.20309e-06
0.00113305 -1.61723e-06 -2.85139e-08
-1.61723e-06 4.48376e-05 -1.74421e-07
-2.85139e-08 -1.74421e-07 -1.42528e-05
0.00117068 -1.84304e-06 1.34648e-07
-1.84304e-06 6.38566e-05 5.14739e-07
1.34648e-07 5.14739e-07 7.54539e-06
0.0011345 1.13763e-06 -1.58398e-07
1.13763e-06 4.55246e-05 -5.41123e-07
-1.58398e-07 -5.41123e-07 -7.11764e-06
0.00123726 9.29248e-07 1.27857e-07
9.29248e-07 9.2434e-05 8.12455e-07
1.27857e-07 8.12455e-07 4.23761e-05
0.00127079 5.72019e-07 1.72193e-07
5.72019e-07 0.000109786 5.87542e-07
1.72193e-07 5.87542e-07 6.66105e-05
0.000980427 -2.1845e-05 -2.81766e-06
-2.1845e-05 -9.53588e-05 6.62634e-07
-2.81766e-06 6.62634e-07 -0.00018082
0.00125125 -9.88304e-06 -5.97204e-07
-9.88304e-06 0.000122685 1.87791e-07
-5.97204e-07 1.87791e-07 2.99926e-05
0.00112775 -1.33472e-06 6.9514e-08
-1.33472e-06 5.01697e-05 4.04271e-08
6.9514e-08 4.04271e-08 -1.51042e-05
0.0012514 -2.94732e-06 3.40754e-07
-2.94732e-06 0.00011429 2.69326e-07
3.40754e-07 2.69326e-07 3.31694e-05
0.00115173 -1.75442e-06 -2.11648e-07
-1.75442e-06 6.34059e-05 -8.53159e-09
-2.11648e-07 -8.53159e-09 -7.86974e-06
0.0011448 -1.07417e-06 1.13841e-07
-1.07417e-06 5.73903e-05 3.67672e-07
1.13841e-07 3.67672e-07 -9.71918e-06
0.00112587 -8.35575e-07 -1.682e-07
-8.35575e-07 5.03782e-05 1.82546e-07
-1.682e-07 1.82546e-07 -2.28088e-05
0.00126047 -1.45535e-05 -5.27434e-07
-1.45535e-05 0.00012236 -2.74316e-07
-5.27434e-07 -2.74316e-07 1.14463e-05
0.00118574 -2.87477e-06 1.37649e-07
-2.87477e-06 7.96625e-05 2.91093e-07
1.37649e-07 2.91093e-07 2.57236e-06
0.00110339 -1.49498e-06 -5.21344e-08
-1.49498e-06 6.97205e-05 2.47225e-08
-5.21344e-08 2.47225e-08 -2.5123e-05
0.00107516 1.26905e-06 -2.81962e-07
1.26905e-06 2.56266e-05 -1.15924e-07
-2.81962e-07 -1.15924e-07 -4.70287e-05
0.00174358 -4.33968e-06 -6.80576e-07
-4.33968e-06 0.000420503 1.64202e-06
-6.80576e-07 1.64202e-06 0.0002992
0.00108983 -1.42329e-06 6.65946e-07
-1.42329e-06 5.03034e-05 -1.25902e-06
6.65946e-07 -1.25902e-06 -3.9192e-05
0.00114338 -2.76787e-06 3.99744e-07
-2.76787e-06 5.94445e-05 -2.78401e-07
3.99744e-07 -2.78401e-07 -2.25921e-05
0.0011009 3.05852e-06 -1.05397e-06
3.05852e-06 0.000309018 3.1375e-07
-1.05397e-06 3.1375e-07 0.000218056
0.000752411 7.13175e-07 5.67683e-07
7.13175e-07 0.000133378 8.06956e-07
5.67683e-07 8.06956e-07 3.36107e-05
0.00101948 -3.69016e-07 -1.61445e-05
-3.69016e-07 0.000411078 1.60604e-06
-1.61445e-05 1.60604e-06 0.000332967
0.00129581 1.52107e-06 -5.84758e-07
1.52107e-06 0.0001622 2.78442e-07
-5.84758e-07 2.78442e-07 8.90654e-05
0.00131254 3.5836e-07 2.16287e-06
3.5836e-07 0.000286984 -2.17517e-06
2.16287e-06 -2.17517e-06 0.000192583
0.000426009 4.96647e-06 -2.8393e-06
4.96647e-06 -4.9677e-05 -2.05807e-06
-2.8393e-06 -2.05807e-06 -0.000138145
0.00162918 -1.41532e-05 2.24025e-07
-1.41532e-05 -0.000195872 5.67833e-06
2.24025e-07 5.67833e-06 -0.000212197
-0.000134692 2.26402e-05 4.74631e-07
2.26402e-05 -0.00106151 4.60283e-05
4.74631e-07 4.60283e-05 -0.00090397
0.000525853 8.39772e-06 9.21025e-07
8.39772e-06 1.55988e-05 -6.06368e-06
9.21025e-07 -6.06368e-06 -3.90128e-05
0.000584574 3.55587e-06 4.78835e-06
3.55587e-06 0.000155782 -4.23727e-06
4.78835e-06 -4.23727e-06 0.000173627
0.00117275 -4.53206e-06 -1.74885e-07
-4.53206e-06 8.31066e-05 4.68576e-07
-1.74885e-07 4.68576e-07 1.23719e-05
0.000736253 5.22762e-06 -4.63491e-07
5.22762e-06 0.000103143 1.98874e-06
-4.63491e-07 1.98874e-06 2.28974e-05
0.000677331 1.14157e-06 -4.88065e-07
1.14157e-06 0.000136633 2.66515e-07
-4.88065e-07 2.66515e-07 9.73812e-05
0.000577222 1.67658e-05 -1.19122e-06
1.67658e-05 -8.45299e-06 -8.15259e-07
-1.19122e-06 -8.15259e-07 -0.000174329
0.000578344 1.3258e-05 3.49432e-06
1.3258e-05 0.000152627 -2.88327e-06
3.49432e-06 -2.88327e-06 0.000213759
0.000260697 6.1158e-05 -1.2771e-06
6.1158e-05 -0.000503466 -6.87158e-06
-1.2771e-06 -6.87158e-06 -0.000410359
0.00508786 3.12739e-05 -2.35168e-06
3.12739e-05 0.000691998 -1.27329e-06
-2.35168e-06 -1.27329e-06 0.000824993
0.00112429 1.06471e-06 3.39803e-06
1.06471e-06 9.98284e-05 4.63716e-07
3.39803e-06 4.63716e-07 3.09507e-05
0.000774352 -3.37467e-07 -3.71679e-06
-3.37467e-07 0.000157913 4.20369e-06
-3.71679e-06 4.20369e-06 8.05463e-05
0.000247727 7.92758e-06 -1.6969e-05
7.92758e-06 -5.63112e-05 9.51793e-06
-1.6969e-05 9.51793e-06 -6.99851e-05
-0.00037398 3.68192e-05 -8.63832e-06
3.68192e-05 -0.000378322 6.42773e-06
-8.63832e-06 6.42773e-06 -0.000296307
0.000692319 5.65082e-05 1.10623e-06
5.65082e-05 0.0001688 -3.23102e-05
1.10623e-06 -3.23102e-05 0.000239378
0.00591277 3.62098e-05 6.29335e-06
3.62098e-05 0.00116455 -1.22319e-05
6.29335e-06 -1.22319e-05 0.00116964
0.000109939 3.13528e-06 2.77782e-06
3.13528e-06 -0.000130509 1.01755e-05
2.77782e-06 1.01755e-05 -0.000389748
0.00105156 -2.18901e-06 7.5538e-07
-2.18901e-06 1.69342e-05 -4.94309e-07
7.5538e-07 -4.94309e-07 -5.40218e-05
0.00111057 -2.18571e-06 -3.15335e-07
-2.18571e-06 5.64034e-05 -5.8495e-07
-3.15335e-07 -5.8495e-07 -1.24296e-05
0.000992711 -1.80253e-06 7.21115e-07
-1.80253e-06 2.9197e-05 7.80142e-07
7.21115e-07 7.80142e-07 -5.52417e-05
0.00113884 -2.58679e-06 2.17042e-07
-2.58679e-06 4.77912e-05 1.67769e-07
2.17042e-07 1.67769e-07 -1.23055e-05
0.00110856 -3.37285e-06 1.97582e-07
-3.37285e-06 4.11149e-05 7.94377e-07
1.97582e-07 7.94377e-07 -2.55694e-05
0.00109107 -4.13611e-06 4.08998e-08
-4.13611e-06 4.37579e-05 3.37867e-07
4.08998e-08 3.37867e-07 -2.63322e-05
0.000939504 -7.58788e-06 2.39185e-07
-7.58788e-06 -1.70391e-05 1.13656e-06
2.39185e-07 1.13656e-06 -0.000102631
0.00120897 -4.04909e-06 2.44603e-08
-4.04909e-06 8.18016e-05 1.57988e-07
2.44603e-08 1.57988e-07 2.15729e-05
0.00127054 -6.54561e-06 -2.01898e-07
-6.54561e-06 0.000120715 4.22609e-07
-2.01898e-07 4.22609e-07 5.19004e-05
0.00135239 -8.27157e-06 -5.1272e-07
-8.27157e-06 0.000152109 5.64814e-07
-5.1272e-07 5.64814e-07 7.90348e-05
0.00108221 -4.67205e-06 -9.2677e-08
-4.67205e-06 2.43876e-05 -5.27029e-07
-9.2677e-08 -5.27029e-07 -3.63455e-05
0.00116315 -5.87916e-06 -3.62449e-08
-5.87916e-06 5.90517e-05 -1.18915e-07
-3.62449e-08 -1.18915e-07 -6.65048e-06
0.00134972 -6.51306e-06 -3.19881e-07
-6.51306e-06 0.000138676 1.73437e-08
-3.19881e-07 1.73437e-08 7.31667e-05
0.00127205 -5.41124e-06 -2.00808e-07
-5.41124e-06 9.67615e-05 -1.13131e-07
-2.00808e-07 -1.13131e-07 3.57054e-05
0.00107894 -3.84423e-06 -1.84196e-07
-3.84423e-06 2.03715e-05 6.01372e-07
-1.84196e-07 6.01372e-07 -3.65591e-05
0.00113962 -4.82702e-06 -5.26853e-08
-4.82702e-06 4.52411e-05 6.7915e-08
-5.26853e-08 6.7915e-08 -1.57101e-05
0.00115649 -4.72848e-06 -1.4751e-07
-4.72848e-06 5.47926e-05 -3.18703e-07
-1.4751e-07 -3.18703e-07 -4.92947e-06
0.00123884 -1.40602e-06 -8.88185e-08
-1.40602e-06 0.000102245 -5.01651e-08
-8.88185e-08 -5.01651e-08 5.26496e-05
0.00115406 -2.78918e-06 2.84242e-07
-2.78918e-06 6.22261e-05 -4.75222e-07
2.84242e-07 -4.75222e-07 8.67773e-06
0.000996842 2.18133e-06 -4.34972e-07
2.18133e-06 -1.07339e-05 6.89489e-07
-4.34972e-07 6.89489e-07 -5.39658e-05
0.00111896 -2.06419e-07 3.2821e-08
-2.06419e-07 4.9387e-05 -5.19957e-08
3.2821e-08 -5.19957e-08 3.24867e-07
0.00117077 -2.89192e-06 5.97393e-07
-2.89192e-06 6.99197e-05 -7.34938e-07
5.97393e-07 -7.34938e-07 1.60292e-05
0.00108121 2.72373e-06 -9.05368e-07
2.72373e-06 1.97614e-05 5.27095e-07
-9.05368e-07 5.27095e-07 -1.1498e-05
0.00112141 1.07514e-06 -9.84791e-08
1.07514e-06 4.02848e-05 -5.47175e-08
-9.84791e-08 -5.47175e-08 -5.50238e-07
0.00116441 -1.37802e-06 1.31034e-07
-1.37802e-06 6.27121e-05 -6.39262e-08
1.31034e-07 -6.39262e-08 1.50869e-05
0.00104294 4.30848e-06 -1.21932e-06
4.30848e-06 -3.44425e-06 1.14229e-06
-1.21932e-06 1.14229e-06 -1.99337e-05
0.00108937 2.22064e-06 5.44315e-08
2.22064e-06 2.01159e-05 3.41281e-08
5.44315e-08 3.41281e-08 -1.11699e-05
0.0010479 6.80603e-07 6.36404e-07
6.80603e-07 1.17499e-06 -2.24936e-07
6.36404e-07 -2.24936e-07 -4.0282e-05
0.0010915 1.97275e-06 7.57549e-07
1.97275e-06 2.03436e-05 -6.71108e-07
7.57549e-07 -6.71108e-07 -1.14694e-05
0.00105056 3.7553e-06 4.42951e-08
3.7553e-06 -1.99002e-06 1.60804e-08
4.42951e-08 1.60804e-08 -1.85159e-05
0.000982767 6.71182e-06 -1.53647e-06
6.71182e-06 -3.84105e-05 2.16807e-06
-1.53647e-06 2.16807e-06 -3.19618e-05
0.00105855 3.1071e-06 1.00788e-06
3.1071e-06 -3.49322e-07 -1.29333e-06
1.00788e-06 -1.29333e-06 -1.68774e-05
0.000996294 5.70594e-06 4.00069e-08
5.70594e-06 -3.52162e-05 1.67544e-08
4.00069e-08 1.67544e-08 -2.85196e-05
0.00219825 7.16141e-06 -1.63022e-06
7.16141e-06 0.00053992 3.07766e-06
-1.63022e-06 3.07766e-06 0.000565409
0.00100362 4.66454e-06 1.27961e-06
4.66454e-06 -3.45902e-05 -2.33892e-06
1.27961e-06 -2.33892e-06 -2.78337e-05
0.00165798 5.99254e-06 4.31226e-07
5.99254e-06 0.000276849 -9.96993e-07
4.31226e-07 -9.96993e-07 0.000300641
0.00217732 4.80014e-06 1.28264e-06
4.80014e-06 0.000524746 -3.21541e-06
1.28264e-06 -3.21541e-06 0.000550957
0.00108586 -2.32338e-07 -7.22639e-07
-2.32338e-07 1.63689e-05 -7.50299e-07
-7.22639e-07 -7.50299e-07 -1.69218e-05
0.00105977 -2.23881e-06 -9.21706e-07
-2.23881e-06 8.13874e-07 -1.39838e-06
-9.21706e-07 -1.39838e-06 -1.72433e-05
0.00101494 -4.87389e-07 -1.85748e-07
-4.87389e-07 -1.61243e-05 -3.08936e-07
-1.85748e-07 -3.08936e-07 -5.0796e-05
0.00101645 -3.78568e-06 -1.01409e-06
-3.78568e-06 -2.90849e-05 -2.5371e-06
-1.01409e-06 -2.5371e-06 -2.25163e-05
0.000948923 -2.10293e-06 -1.46284e-07
-2.10293e-06 -5.31413e-05 -4.94267e-07
-1.46284e-07 -4.94267e-07 -7.13825e-05
0.00116538 -1.09504e-06 2.39633e-07
-1.09504e-06 5.69771e-05 5.26185e-07
2.39633e-07 5.26185e-07 2.35581e-05
0.00215809 -3.69479e-06 -1.00317e-06
-3.69479e-06 0.00051385 -3.34873e-06
-1.00317e-06 -3.34873e-06 0.00054052
0.00100918 -2.90997e-06 -5.27938e-08
-2.90997e-06 -3.46742e-05 2.55228e-09
-5.27938e-08 2.55228e-09 -2.7215e-05
0.000827953 -1.75262e-06 3.3927e-07
-1.75262e-06 -0.000113016 1.06974e-06
3.3927e-07 1.06974e-06 -0.000130763
0.00215895 -2.44396e-06 -8.42805e-08
-2.44396e-06 0.000512281 9.84506e-09
-8.42805e-08 9.84506e-09 0.000539365
0.00100516 -1.95508e-06 4.30434e-07
-1.95508e-06 -3.8281e-05 2.66993e-06
4.30434e-07 2.66993e-06 -3.00982e-05
0.00214975 -1.18758e-06 2.00229e-07
-1.18758e-06 0.000506703 3.37364e-06
2.00229e-07 3.37364e-06 0.000534116
0.0008159 2.49996e-06 1.29647e-07
2.49996e-06 0.000152034 -4.27051e-06
1.29647e-07 -4.27051e-06 7.18162e-05
0.000886424 -2.67141e-06 5.02927e-07
-2.67141e-06 0.000229659 -1.92144e-07
5.02927e-07 -1.92144e-07 0.000144418
0.000982604 2.70252e-06 -1.13347e-05
2.70252e-06 0.000393575 5.68002e-06
-1.13347e-05 5.68002e-06 0.000330611
0.00102997 1.2899e-06 -5.60319e-07
1.2899e-06 -1.14995e-05 -3.82284e-07
-5.60319e-07 -3.82284e-07 -5.46161e-05
0.00123455 2.47837e-06 -3.20383e-07
2.47837e-06 8.50842e-05 6.13416e-08
-3.20383e-07 6.13416e-08 3.8507e-05
0.00118647 1.37759e-06 2.40136e-07
1.37759e-06 6.62674e-05 5.57469e-07
2.40136e-07 5.57469e-07 2.18106e-05
0.00102502 1.85465e-06 1.23506e-09
1.85465e-06 -1.37798e-05 5.13296e-10
1.23506e-09 5.13296e-10 -5.84437e-05
0.00115799 1.96696e-06 1.81573e-07
1.96696e-06 5.46486e-05 2.5483e-07
1.81573e-07 2.5483e-07 2.39792e-06
0.00119695 2.95263e-06 -2.34758e-07
2.95263e-06 7.04442e-05 -1.52752e-07
-2.34758e-07 -1.52752e-07 1.89799e-05
0.00114045 2.58873e-06 -6.28293e-08
2.58873e-06 4.76147e-05 2.77747e-07
-6.28293e-08 2.77747e-07 -9.08644e-06
0.000746112 3.32686e-06 -6.61823e-06
3.32686e-06 0.000190194 -8.31961e-06
-6.61823e-06 -8.31961e-06 0.000144042
0.000621031 2.28905e-06 5.32172e-07
2.28905e-06 8.737e-05 -3.63769e-06
5.32172e-07 -3.63769e-06 3.46989e-05
0.000989719 -3.35752e-06 -3.91882e-06
-3.35752e-06 0.000336668 7.06775e-06
-3.91882e-06 7.06775e-06 0.000288884
0.000367867 2.30298e-06 2.36851e-07
2.30298e-06 3.4231e-06 6.1776e-06
2.36851e-07 6.1776e-06 -9.12323e-06
0.00123734 -3.44905e-05 -1.64033e-05
-3.44905e-05 -0.000117251 2.37127e-05
-1.64033e-05 2.37127e-05 -0.000275121
0.00289287 5.01064e-05 4.63852e-05
5.01064e-05 0.000425174 -7.43439e-05
4.63852e-05 -7.43439e-05 0.000271453
0.00266183 4.88348e-05 3.67672e-06
4.88348e-05 0.000129424 -1.60898e-05
3.67672e-06 -1.60898e-05 0.000267168
0.000564996 -2.93227e-05 -3.70875e-06
-2.93227e-05 -0.000217806 6.83012e-06
-3.70875e-06 6.83012e-06 -0.000376603
0.00172203 1.90966e-05 -2.37647e-06
1.90966e-05 -0.000473687 -1.31211e-05
-2.37647e-06 -1.31211e-05 -0.000566422
0.00391702 6.135e-06 -1.74741e-06
6.135e-06 0.000555572 -1.29791e-07
-1.74741e-06 -1.29791e-07 0.000760345
0.000224368 -1.86844e-06 1.96715e-06
-1.86844e-06 -8.65211e-05 3.47993e-06
1.96715e-06 3.47993e-06 -7.92137e-05
0.0019208 -2.17011e-05 2.35632e-07
-2.17011e-05 0.000611795 -4.19848e-06
2.35632e-07 -4.19848e-06 0.000449023
0.00108264 2.06828e-06 1.70883e-06
2.06828e-06 -0.000783728 1.56201e-05
1.70883e-06 1.56201e-05 -0.000892977
-0.000718614 -3.99793e-05 -1.78817e-06
-3.99793e-05 -0.0010709 3.4186e-05
-1.78817e-06 3.4186e-05 -0.00095021
-9.63258e-05 -1.63535e-05 -1.41742e-05
-1.63535e-05 -0.00026609 -7.40346e-06
-1.41742e-05 -7.40346e-06 -0.00023247
0.00115893 3.2208e-06 -1.07098e-06
3.2208e-06 6.18691e-05 -2.50518e-07
-1.07098e-06 -2.50518e-07 -3.56948e-06
0.0011748 4.48265e-07 -4.70529e-08
4.48265e-07 6.64904e-05 4.83973e-09
-4.70529e-08 4.83973e-09 5.53534e-06
0.00113516 -1.8117e-06 8.28037e-08
-1.8117e-06 4.67403e-05 -5.99627e-08
8.28037e-08 -5.99627e-08 -1.22474e-05
0.00114788 9.82345e-07 3.02702e-08
9.82345e-07 5.177e-05 -1.91414e-07
3.02702e-08 -1.91414e-07 -9.96713e-07
0.000937882 -1.39348e-05 -1.16186e-06
-1.39348e-05 -3.41351e-05 8.0026e-07
-1.16186e-06 8.0026e-07 -0.000143922
0.000974563 -1.39408e-06 3.73762e-07
-1.39408e-06 7.37543e-06 7.31419e-07
3.73762e-07 7.31419e-07 -8.81103e-05
0.00117205 -1.37073e-06 1.93355e-07
-1.37073e-06 7.13995e-05 5.07125e-07
1.93355e-07 5.07125e-07 3.50072e-06
0.00106305 -7.27583e-07 -2.64882e-07
-7.27583e-07 2.0393e-05 4.09571e-07
-2.64882e-07 4.09571e-07 -5.33998e-05
0.00106309 -3.06174e-06 -1.25002e-07
-3.06174e-06 2.13282e-05 2.30287e-07
-1.25002e-07 2.30287e-07 -5.65875e-05
0.00112807 1.27378e-06 -2.17315e-08
1.27378e-06 5.12002e-05 -2.65412e-08
-2.17315e-08 -2.65412e-08 -2.06872e-05
0.00115707 -2.07136e-06 -1.43599e-07
-2.07136e-06 6.6508e-05 2.61509e-08
-1.43599e-07 2.61509e-08 -1.56108e-05
0.00105617 -4.23937e-06 3.63912e-07
-4.23937e-06 0.000109559 5.65722e-07
3.63912e-07 5.65722e-07 -1.07464e-05
0.000983978 -1.80652e-06 3.02611e-07
-1.80652e-06 -3.25261e-08 -5.61948e-07
3.02611e-07 -5.61948e-07 -8.92692e-05
0.00112891 2.689e-06 -3.38305e-07
2.689e-06 5.39946e-05 -2.4324e-08
-3.38305e-07 -2.4324e-08 -2.42098e-05
0.000837015 -1.72788e-08 5.83544e-08
-1.72788e-08 4.15495e-05 2.08382e-06
5.83544e-08 2.08382e-06 -8.05112e-05
0.00112695 -1.05277e-06 3.20332e-07
-1.05277e-06 6.50867e-05 -1.22341e-06
3.20332e-07 -1.22341e-06 -2.95612e-05
0.00128801 2.41981e-06 -3.75999e-06
2.41981e-06 0.000461835 2.61241e-08
-3.75999e-06 2.61241e-08 0.000370236
0.000764955 2.16881e-06 -3.6137e-07
2.16881e-06 0.0001002 1.72647e-07
-3.6137e-07 1.72647e-07 6.79207e-06
0.000212066 1.45939e-07 -1.6922e-06
1.45939e-07 -0.000203901 9.05998e-07
-1.6922e-06 9.05998e-07 -0.000304961
0.00126631 -3.99914e-06 2.82313e-07
-3.99914e-06 0.000127695 1.8962e-06
2.82313e-07 1.8962e-06 5.62207e-05
0.00106677 7.95732e-06 -1.90894e-06
7.95732e-06 0.000249886 -1.08118e-06
-1.90894e-06 -1.08118e-06 0.000133796
0.000672907 4.46622e-06 9.07876e-07
4.46622e-06 6.15472e-05 -1.24657e-06
9.07876e-07 -1.24657e-06 -2.22465e-05
0.00131631 4.22231e-05 -4.79137e-06
4.22231e-05 -0.000573915 2.72609e-05
-4.79137e-06 2.72609e-05 -0.000683698
0.00265937 5.24316e-05 -3.41196e-06
5.24316e-05 0.000119924 1.51555e-05
-3.41196e-06 1.51555e-05 0.000283918
0.000964748 4.54889e-07 4.62821e-06
4.54889e-07 0.000317381 -7.01353e-06
4.62821e-06 -7.01353e-06 0.000277066
0.00173079 1.18392e-05 1.46214e-05
1.18392e-05 0.00088495 -1.03159e-05
1.46214e-05 -1.03159e-05 0.000936435
0.00104381 -1.01475e-06 4.13792e-07
-1.01475e-06 5.0707e-05 6.71878e-07
4.13792e-07 6.71878e-07 -1.61097e-05
0.000876361 -4.72101e-07 -1.69733e-07
-4.72101e-07 0.000222019 1.27106e-07
-1.69733e-07 1.27106e-07 0.000144521
0.00061344 8.06726e-06 -3.18861e-06
8.06726e-06 0.000173151 3.10798e-07
-3.18861e-06 3.10798e-07 0.000160241
0.00167888 4.19166e-06 5.83016e-07
4.19166e-06 0.000611191 1.69563e-06
5.83016e-07 1.69563e-06 0.000411794
-0.000118363 3.61065e-05 9.22548e-06
3.61065e-05 -0.000234046 -6.5713e-06
9.22548e-06 -6.5713e-06 -0.000150325
-0.00161552 6.62143e-05 -4.46992e-06
6.62143e-05 -0.0012553 -6.01293e-06
-4.46992e-06 -6.01293e-06 -0.0011914
0.00127035 2.93905e-05 2.89537e-06
2.93905e-05 -0.000580099 2.45049e-06
2.89537e-06 2.45049e-06 -0.000675718
0.00102799 -6.6227e-07 2.09762e-06
-6.6227e-07 8.35613e-05 1.71111e-06
2.09762e-06 1.71111e-06 -2.54478e-05
0.000655756 2.27986e-06 -1.02587e-05
2.27986e-06 0.000190479 4.54446e-06
-1.02587e-05 4.54446e-06 0.00013282
-0.00217105 3.17505e-05 -2.49208e-05
3.17505e-05 -0.00145311 1.23417e-05
-2.49208e-05 1.23417e-05 -0.00141466
-0.00117869 4.74485e-05 1.88392e-05
4.74485e-05 -0.000236392 -2.73464e-05
1.88392e-05 -2.73464e-05 -0.000155416
0.00388401 4.70095e-05 2.59186e-05
4.70095e-05 0.000403446 -3.46842e-05
2.59186e-05 -3.46842e-05 0.000267048
0.00202911 -3.23575e-05 2.61469e-07
-3.23575e-05 0.000567775 1.36315e-05
2.61469e-07 1.36315e-05 0.000336478
0.00119471 -2.96339e-06 1.2956e-07
-2.96339e-06 9.20132e-05 -8.57532e-08
1.2956e-07 -8.57532e-08 2.38258e-05
0.00104969 -2.18885e-06 -3.46056e-08
-2.18885e-06 5.43326e-05 -3.10855e-08
-3.46056e-08 -3.10855e-08 -2.93643e-05
0.00106099 -7.94295e-06 2.98719e-07
-7.94295e-06 6.35881e-05 1.63491e-06
2.98719e-07 1.63491e-06 -3.89104e-05
0.00110102 -4.04069e-06 -4.37497e-07
-4.04069e-06 4.86103e-05 2.74206e-07
-4.37497e-07 2.74206e-07 -2.10199e-05
0.000951069 -7.06527e-06 5.03178e-08
-7.06527e-06 -9.17219e-06 4.50345e-07
5.03178e-08 4.50345e-07 -9.34307e-05
0.00130725 -1.17085e-05 -1.08e-06
-1.17085e-05 0.000130642 5.14779e-07
-1.08e-06 5.14779e-07 4.48067e-05
0.00137919 -6.9164e-06 -1.57108e-07
-6.9164e-06 0.000170126 -2.44626e-07
-1.57108e-07 -2.44626e-07 0.000100095
0.00127837 -8.23544e-06 -2.20295e-07
-8.23544e-06 0.000116724 1.62576e-07
-2.20295e-07 1.62576e-07 4.29159e-05
0.0012967 -8.62835e-06 -8.0642e-07
-8.62835e-06 0.00010647 -7.37841e-07
-8.0642e-07 -7.37841e-07 3.66706e-05
0.00111874 -5.77383e-06 -6.71828e-08
-5.77383e-06 3.87172e-05 -4.75577e-07
-6.71828e-08 -4.75577e-07 -2.69803e-05
0.00125669 -6.34478e-06 -6.93184e-08
-6.34478e-06 9.50265e-05 -7.58713e-08
-6.93184e-08 -7.58713e-08 2.93405e-05
0.00127695 -5.94476e-06 -2.29261e-07
-5.94476e-06 9.00702e-05 -9.58611e-07
-2.29261e-07 -9.58611e-07 2.90631e-05
0.00124901 -4.66754e-06 -6.97732e-08
-4.66754e-06 6.81008e-05 -1.05762e-06
-6.97732e-08 -1.05762e-06 1.17098e-05
0.00126341 -4.8858e-06 -3.56339e-07
-4.8858e-06 9.68759e-05 3.82106e-07
-3.56339e-07 3.82106e-07 3.8284e-05
0.00121101 -5.29867e-06 -6.22555e-08
-5.29867e-06 6.83813e-05 -9.84729e-08
-6.22555e-08 -9.84729e-08 7.15426e-06
0.00103951 -2.96948e-06 -2.40848e-07
-2.96948e-06 4.38979e-06 3.02207e-07
-2.40848e-07 3.02207e-07 -4.7892e-05
0.00112582 -3.8248e-06 1.469e-07
-3.8248e-06 4.28527e-05 5.88814e-09
1.469e-07 5.88814e-09 -1.35499e-05
0.00109897 -4.82373e-06 7.08001e-08
-4.82373e-06 2.66138e-05 -2.99302e-07
7.08001e-08 -2.99302e-07 -3.46399e-05
0.00112308 9.13101e-07 -3.82774e-07
9.13101e-07 4.77642e-05 4.18373e-07
-3.82774e-07 4.18373e-07 3.28426e-06
0.00115799 -1.4231e-06 4.71114e-08
-1.4231e-06 6.40629e-05 -2.68855e-07
4.71114e-08 -2.68855e-07 1.39765e-05
0.00108601 -2.61876e-06 6.40571e-07
-2.61876e-06 3.06494e-05 -7.30308e-07
6.40571e-07 -7.30308e-07 -2.24185e-05
0.00106703 3.20946e-06 -7.75998e-07
3.20946e-06 1.88264e-05 6.07752e-07
-7.75998e-07 6.07752e-07 -1.37693e-05
0.00104752 2.24092e-06 -7.51052e-08
2.24092e-06 1.30592e-05 2.37138e-07
-7.51052e-08 2.37138e-07 -2.96857e-05
0.00121693 -2.11173e-07 2.53513e-07
-2.11173e-07 9.54898e-05 -3.91463e-07
2.53513e-07 -3.91463e-07 4.70884e-05
0.00103335 4.93484e-06 -1.33551e-06
4.93484e-06 -4.4039e-06 1.03125e-06
-1.33551e-06 1.03125e-06 -2.1114e-05
0.00108766 2.7184e-06 -4.55519e-08
2.7184e-06 2.26208e-05 -2.3862e-08
-4.55519e-08 -2.3862e-08 -8.62742e-06
0.00113267 1.09115e-06 4.11499e-07
1.09115e-06 4.51983e-05 -3.43207e-07
4.11499e-07 -3.43207e-07 4.37481e-06
0.0010145 7.60735e-06 -2.30547e-06
7.60735e-06 -1.92714e-05 2.94428e-06
-2.30547e-06 2.94428e-06 -1.34264e-05
0.00104611 4.3077e-06 4.40639e-08
4.3077e-06 -1.98671e-06 2.59753e-08
4.40639e-08 2.59753e-08 -1.84627e-05
0.00109169 2.22136e-06 9.12139e-07
2.22136e-06 2.1113e-05 -5.58585e-07
9.12139e-07 -5.58585e-07 -1.01485e-05
0.0010541 3.75172e-06 1.15328e-06
3.75172e-06 -3.49397e-07 -1.21059e-06
1.15328e-06 -1.21059e-06 -1.68729e-05
0.000989539 6.69661e-06 5.78928e-08
6.69661e-06 -3.51549e-05 2.07127e-08
5.78928e-08 2.07127e-08 -2.87364e-05
0.00219443 8.37105e-06 -1.84706e-06
8.37105e-06 0.000541892 2.97472e-06
-1.84706e-06 2.97472e-06 0.000566883
0.00100107 5.69402e-06 1.449e-06
5.69402e-06 -3.29373e-05 -2.23488e-06
1.449e-06 -2.23488e-06 -2.62565e-05
0.00216538 7.21885e-06 6.2501e-08
7.21885e-06 0.000524632 2.13891e-08
6.2501e-08 2.13891e-08 0.00055022
0.00215113 6.04345e-06 1.52028e-06
6.04345e-06 0.000514912 -3.1101e-06
1.52028e-06 -3.1101e-06 0.000540948
0.00113884 8.53593e-07 -6.46752e-07
8.53593e-07 3.98299e-05 -2.73545e-07
-6.46752e-07 -2.73545e-07 -1.38815e-06
0.0010873 -8.0125e-07 -7.67836e-07
-8.0125e-07 1.73012e-05 -7.0279e-07
-7.67836e-07 -7.0279e-07 -1.5103e-05
0.00105154 -2.54637e-06 -1.05128e-06
-2.54637e-06 -2.53796e-06 -1.2971e-06
-1.05128e-06 -1.2971e-06 -2.02859e-05
0.00108973 -1.90611e-07 8.75647e-09
-1.90611e-07 1.81696e-05 1.05933e-08
8.75647e-09 1.05933e-08 -1.51427e-05
0.00100909 -4.61385e-06 -1.28244e-06
-4.61385e-06 -3.04852e-05 -2.4154e-06
-1.28244e-06 -2.4154e-06 -2.44558e-05
0.00105486 -2.24757e-06 -8.55523e-08
-2.24757e-06 -1.46166e-06 3.57203e-08
-8.55523e-08 3.57203e-08 -1.95156e-05
0.00109426 -4.0725e-07 3.59875e-07
-4.0725e-07 2.18949e-05 5.12064e-07
3.59875e-07 5.12064e-07 -1.24006e-05
0.00217122 -4.87155e-06 -1.28846e-06
-4.87155e-06 0.000522502 -3.29939e-06
-1.28846e-06 -3.29939e-06 0.000548652
0.00100552 -3.809e-06 -6.53325e-08
-3.809e-06 -3.43253e-05 8.27248e-09
-6.53325e-08 8.27248e-09 -2.76801e-05
0.00104757 -2.10556e-06 4.64853e-07
-2.10556e-06 -5.59799e-06 1.02553e-06
4.64853e-07 1.02553e-06 -2.32186e-05
0.00217282 -3.65334e-06 -7.82431e-08
-3.65334e-06 0.000520633 1.41216e-08
-7.82431e-08 1.41216e-08 0.000547307
0.000999666 -2.9304e-06 6.58533e-07
-2.9304e-06 -3.92714e-05 2.61873e-06
6.58533e-07 2.61873e-06 -3.17342e-05
0.00217059 -2.39727e-06 5.42456e-07
-2.39727e-06 0.000517675 3.39288e-06
5.42456e-07 3.39288e-06 0.000544752
0.000656642 5.24621e-06 -4.18503e-06
5.24621e-06 8.28811e-05 -4.01977e-06
-4.18503e-06 -4.01977e-06 2.12133e-06
0.000768838 1.99017e-06 2.04628e-07
1.99017e-06 0.000120661 -2.09161e-06
2.04628e-07 -2.09161e-06 3.70677e-05
0.000991808 -2.85557e-06 -2.62293e-06
-2.85557e-06 0.000295858 3.36245e-06
-2.62293e-06 3.36245e-06 0.000210455
0.00107298 1.28656e-06 -5.41787e-10
1.28656e-06 9.68561e-06 1.68937e-08
-5.41787e-10 1.68937e-08 -3.30684e-05
0.00116618 2.47351e-06 2.57055e-07
2.47351e-06 5.18863e-05 1.59541e-07
2.57055e-07 1.59541e-07 4.90549e-06
0.00104438 1.29882e-06 -3.18962e-07
1.29882e-06 -4.05521e-06 -5.62815e-07
-3.18962e-07 -5.62815e-07 -5.06353e-05
0.00108452 2.82163e-06 -6.51032e-07
2.82163e-06 1.43673e-05 -3.59584e-07
-6.51032e-07 -3.59584e-07 -3.4701e-05
0.00124463 3.55884e-06 2.85255e-09
3.55884e-06 8.87255e-05 2.53433e-07
2.85255e-09 2.53433e-07 3.83736e-05
0.00101455 1.81986e-06 5.69084e-07
1.81986e-06 -1.8702e-05 4.87804e-07
5.69084e-07 4.87804e-07 -6.31616e-05
0.00111416 2.03311e-06 3.31549e-07
2.03311e-06 3.34532e-05 4.43284e-07
3.31549e-07 4.43284e-07 -1.94405e-05
0.00118079 3.05271e-06 6.57428e-09
3.05271e-06 6.25488e-05 -5.91172e-09
6.57428e-09 -5.91172e-09 1.11423e-05
0.00113657 2.36773e-06 2.33609e-07
2.36773e-06 4.52664e-05 3.09753e-07
2.33609e-07 3.09753e-07 -1.08497e-05
0.00121687 3.7272e-06 -3.90526e-07
3.7272e-06 8.34e-05 -7.84654e-09
-3.90526e-07 -7.84654e-09 2.65586e-05
0.000664713 -1.05058e-05 -1.28356e-05
-1.05058e-05 0.000207938 -1.33262e-05
-1.28356e-05 -1.33262e-05 0.000183025
0.000469742 3.26229e-06 -4.26191e-07
3.26229e-06 2.00938e-05 -1.78782e-06
-4.26191e-07 -1.78782e-06 -2.65314e-05
0.000477614 1.89267e-06 1.06003e-07
1.89267e-06 -1.26255e-05 2.99848e-06
1.06003e-07 2.99848e-06 -7.12925e-05
0.000146482 5.33429e-07 6.46726e-06
5.33429e-07 -0.000130623 8.89845e-06
6.46726e-06 8.89845e-06 -0.000130164
-0.000100188 6.30758e-06 -9.7389e-08
6.30758e-06 -0.00106838 -4.95862e-05
-9.7389e-08 -4.95862e-05 -0.000913577
0.00108932 -3.46958e-05 -7.08541e-06
-3.46958e-05 -2.14522e-05 2.76426e-05
-7.08541e-06 2.76426e-05 -0.000192726
0.00509039 3.10476e-05 1.55084e-05
3.10476e-05 0.000848812 -3.61405e-05
1.55084e-05 -3.61405e-05 0.000793121
0.000439711 -2.67522e-05 -6.0201e-08
-2.67522e-05 -0.000113286 3.4337e-06
-6.0201e-08 3.4337e-06 -0.000327033
0.00520223 9.54852e-06 2.89614e-06
9.54852e-06 0.000611075 4.59613e-08
2.89614e-06 4.59613e-08 0.000776236
0.00245767 -5.36262e-05 -3.61755e-06
-5.36262e-05 0.000353232 -7.03963e-06
-3.61755e-06 -7.03963e-06 0.000418918
-0.000805311 -1.98947e-05 -1.93137e-06
-1.98947e-05 -0.000713402 1.05413e-06
-1.93137e-06 1.05413e-06 -0.000660434
-2.87334e-05 -2.31533e-06 -1.07962e-06
-2.31533e-06 -0.000210576 -1.02707e-05
-1.07962e-06 -1.02707e-05 -0.000473882
0.004891 -3.12532e-05 2.52349e-05
-3.12532e-05 0.000846714 5.51893e-05
2.52349e-05 5.51893e-05 0.000740886
0.00192955 -9.39459e-05 3.00765e-07
-9.39459e-05 0.000330632 1.29632e-05
3.00765e-07 1.29632e-05 0.000354732
0.000925264 -3.43821e-05 -8.13697e-06
-3.43821e-05 0.000404914 -5.23246e-06
-8.13697e-06 -5.23246e-06 0.000484491
0.00113012 5.50661e-06 -5.56186e-07
5.50661e-06 5.26694e-05 6.33975e-07
-5.56186e-07 6.33975e-07 -1.21042e-05
0.00116969 3.30857e-06 -3.25401e-07
3.30857e-06 6.69603e-05 -2.63073e-07
-3.25401e-07 -2.63073e-07 1.89652e-06
0.00119133 9.50354e-08 2.40381e-07
9.50354e-08 7.4871e-05 -3.2644e-08
2.40381e-07 -3.2644e-08 1.36067e-05
0.000394644 -4.12693e-06 9.04718e-07
-4.12693e-06 -0.000189893 2.49561e-07
9.04718e-07 2.49561e-07 -0.000309146
0.000877597 -2.20436e-06 6.82943e-08
-2.20436e-06 -5.05929e-05 1.2694e-07
6.82943e-08 1.2694e-07 -0.00013958
0.0011788 1.35017e-06 2.94351e-07
1.35017e-06 7.57646e-05 1.32436e-07
2.94351e-07 1.32436e-07 4.64882e-06
0.00117045 -1.38017e-06 -1.44703e-07
-1.38017e-06 7.34187e-05 4.26299e-07
-1.44703e-07 4.26299e-07 -8.78071e-06
0.00115248 2.70445e-06 3.90164e-07
2.70445e-06 6.71365e-05 1.70441e-07
3.90164e-07 1.70441e-07 -1.08726e-05
0.00115745 -3.7186e-07 7.07623e-08
-3.7186e-07 8.08515e-05 -6.73455e-07
7.07623e-08 -6.73455e-07 -1.38421e-05
0.000793012 6.50137e-07 -5.96914e-07
6.50137e-07 2.22027e-05 1.21842e-06
-5.96914e-07 1.21842e-06 -9.99342e-05
0.000970599 7.72457e-06 -1.40856e-06
7.72457e-06 1.39506e-06 -7.39003e-07
-1.40856e-06 -7.39003e-07 -8.60726e-05
0.000913502 9.5243e-06 -2.6528e-07
9.5243e-06 5.21354e-05 3.61631e-06
-2.6528e-07 3.61631e-06 -5.52528e-05
0.00174 -1.8437e-06 -1.1919e-05
-1.8437e-06 0.000858357 -1.22937e-06
-1.1919e-05 -1.22937e-06 0.000786801
0.00074635 1.55998e-06 -5.0798e-07
1.55998e-06 0.000123694 -6.75117e-07
-5.0798e-07 -6.75117e-07 3.06205e-05
0.000436233 1.2722e-06 3.32463e-07
1.2722e-06 -0.000104079 -2.24804e-08
3.32463e-07 -2.24804e-08 -0.000199979
0.000968676 -3.0775e-06 -3.32608e-07
-3.0775e-06 4.03901e-06 2.11444e-06
-3.32608e-07 2.11444e-06 -6.06779e-05
0.000763744 1.46869e-05 -2.87587e-06
1.46869e-05 0.000159315 -6.96074e-06
-2.87587e-06 -6.96074e-06 -0.000112172
0.000979345 -5.95158e-07 3.33715e-06
-5.95158e-07 0.000286704 -3.44081e-06
3.33715e-06 -3.44081e-06 0.000209066
0.00455424 3.32936e-05 -1.79019e-05
3.32936e-05 0.000561216 3.17572e-05
-1.79019e-05 3.17572e-05 0.000488284
0.00305586 7.81952e-05 -7.09049e-06
7.81952e-05 0.000901592 1.53266e-05
-7.09049e-06 1.53266e-05 0.000919937
0.000952276 8.17e-06 9.42024e-06
8.17e-06 0.000386404 -1.01588e-05
9.42024e-06 -1.01588e-05 0.000374297
0.000176603 3.51128e-05 2.47213e-05
3.51128e-05 -6.19982e-05 -1.8799e-05
2.47213e-05 -1.8799e-05 2.26442e-05
0.000872241 -8.63656e-07 1.15762e-06
-8.63656e-07 1.55483e-05 4.73999e-07
1.15762e-06 4.73999e-07 -9.35147e-05
0.000780074 2.51763e-06 4.38033e-07
2.51763e-06 0.000265555 -7.80676e-07
4.38033e-07 -7.80676e-07 0.000208977
-0.0010847 3.24881e-05 -2.19525e-07
3.24881e-05 -0.000787698 2.79616e-07
-2.19525e-07 2.79616e-07 -0.000745954
0.00121961 -2.62418e-05 3.65418e-07
-2.62418e-05 0.000284243 2.61147e-06
3.65418e-07 2.61147e-06 4.39092e-05
0.00138715 6.40641e-05 -5.50902e-07
6.40641e-05 0.00038322 -2.97728e-06
-5.50902e-07 -2.97728e-06 0.000404566
0.0025121 3.80449e-05 -7.61732e-07
3.80449e-05 -1.03602e-05 5.208e-06
-7.61732e-07 5.208e-06 -0.000212657
0.00117545 -1.37554e-05 -6.50227e-08
-1.37554e-05 0.000142186 8.91837e-07
-6.50227e-08 8.91837e-07 7.97711e-06
-0.00191411 1.79582e-05 -1.67758e-05
1.79582e-05 -0.00125834 4.87916e-06
-1.67758e-05 4.87916e-06 -0.00125771
0.00261848 3.57577e-05 1.17823e-05
3.57577e-05 0.00131214 -6.62303e-06
1.17823e-05 -6.62303e-06 0.0013554
-0.00037259 2.59359e-05 5.1113e-05
2.59359e-05 -0.00103649 -4.80291e-05
5.1113e-05 -4.80291e-05 -0.00121043
0.00143294 -3.57497e-05 -4.77915e-06
-3.57497e-05 0.000197197 1.2889e-05
-4.77915e-06 1.2889e-05 3.19775e-05
0.00112072 -2.56599e-06 -1.26463e-06
-2.56599e-06 8.57675e-05 -1.01564e-06
-1.26463e-06 -1.01564e-06 2.84683e-06
0.00105615 -7.42302e-06 9.07356e-09
-7.42302e-06 6.37076e-05 3.56042e-07
9.07356e-09 3.56042e-07 -3.94182e-05
0.0016334 -1.61298e-05 -1.18879e-06
-1.61298e-05 0.00029039 7.44065e-07
-1.18879e-06 7.44065e-07 0.000191389
0.000956959 -6.53965e-06 -3.95801e-07
-6.53965e-06 -3.96424e-06 -1.0495e-07
-3.95801e-07 -1.0495e-07 -8.68831e-05
0.00112458 -1.12227e-05 -3.96299e-07
-1.12227e-05 4.75377e-05 9.47503e-08
-3.96299e-07 9.47503e-08 -3.86188e-05
0.00137553 -1.25054e-05 -1.73043e-06
-1.25054e-05 0.000122544 -1.38133e-06
-1.73043e-06 -1.38133e-06 5.05071e-05
0.00120018 -8.18543e-06 8.38702e-08
-8.18543e-06 7.94044e-05 -2.8521e-07
8.38702e-08 -2.8521e-07 4.86485e-06
0.00120424 -8.31561e-06 -6.87396e-08
-8.31561e-06 6.30496e-05 -4.50365e-07
-6.87396e-08 -4.50365e-07 -6.11525e-06
0.00133429 -7.02555e-06 -5.90277e-07
-7.02555e-06 0.000100246 -1.54608e-06
-5.90277e-07 -1.54608e-06 4.35714e-05
0.00116066 -6.16534e-06 1.53765e-08
-6.16534e-06 4.99941e-05 -9.12665e-08
1.53765e-08 -9.12665e-08 -1.58684e-05
0.00119772 -5.67833e-06 4.8012e-08
-5.67833e-06 5.2683e-05 -3.16961e-07
4.8012e-08 -3.16961e-07 -7.77569e-06
0.00127257 -4.52319e-06 1.68649e-08
-4.52319e-06 6.5114e-05 -1.53954e-06
1.68649e-08 -1.53954e-06 1.45759e-05
0.00126916 -3.24557e-06 3.93326e-07
-3.24557e-06 6.50434e-05 -8.89345e-07
3.93326e-07 -8.89345e-07 1.46577e-05
0.00122325 -4.74939e-06 -1.6239e-07
-4.74939e-06 6.47901e-05 -4.10554e-07
-1.6239e-07 -4.10554e-07 7.19735e-06
0.00120132 -4.45713e-06 3.19782e-08
-4.45713e-06 4.53014e-05 -2.11868e-07
3.19782e-08 -2.11868e-07 -1.07406e-05
0.00116461 -3.92436e-06 -3.5325e-07
-3.92436e-06 5.58788e-05 4.66941e-07
-3.5325e-07 4.66941e-07 1.12455e-06
0.00118115 -4.81795e-06 -1.4571e-07
-4.81795e-06 5.9073e-05 9.8718e-08
-1.4571e-07 9.8718e-08 -8.8198e-08
0.00114582 -5.1712e-06 -5.2108e-08
-5.1712e-06 3.80819e-05 1.00221e-07
-5.2108e-08 1.00221e-07 -2.33122e-05
0.00110127 -5.13292e-07 -5.58413e-07
-5.13292e-07 3.47906e-05 3.07276e-07
-5.58413e-07 3.07276e-07 -1.07172e-05
0.00107716 -2.92878e-06 -3.38509e-08
-2.92878e-06 2.22471e-05 -1.17419e-07
-3.38509e-08 -1.17419e-07 -2.94806e-05
0.00117273 -3.80173e-06 3.2108e-07
-3.80173e-06 6.53358e-05 -5.46848e-07
3.2108e-07 -5.46848e-07 9.46225e-06
0.00106361 3.00013e-06 -8.35082e-07
3.00013e-06 1.95278e-05 6.54801e-07
-8.35082e-07 6.54801e-07 -1.48962e-05
0.00106804 9.16906e-07 7.54819e-08
9.16906e-07 2.20118e-05 6.44991e-08
7.54819e-08 6.44991e-08 -2.26027e-05
0.00107663 -1.44029e-06 4.05432e-07
-1.44029e-06 2.56265e-05 -4.53827e-07
4.05432e-07 -4.53827e-07 -2.49486e-05
0.0010181 5.45101e-06 -1.355e-06
5.45101e-06 -6.73623e-06 9.90456e-07
-1.355e-06 9.90456e-07 -2.4454e-05
0.00108107 3.19894e-06 9.28046e-09
3.19894e-06 2.51953e-05 -2.5516e-08
9.28046e-09 -2.5516e-08 -7.43005e-06
0.00109989 2.29714e-06 2.62787e-07
2.29714e-06 3.76284e-05 -1.61e-07
2.62787e-07 -1.61e-07 -4.62999e-06
0.00145573 8.60944e-06 -1.96354e-06
8.60944e-06 0.000197421 1.9572e-06
-1.96354e-06 1.9572e-06 0.000205182
0.00104087 4.92507e-06 7.57822e-09
4.92507e-06 -9.22247e-07 3.27583e-09
7.57822e-09 3.27583e-09 -1.76397e-05
0.00109335 2.71269e-06 8.19893e-07
2.71269e-06 2.51222e-05 -5.89484e-07
8.19893e-07 -5.89484e-07 -6.11331e-06
0.00120183 9.57025e-06 -2.09757e-06
9.57025e-06 6.8552e-05 2.69966e-06
-2.09757e-06 2.69966e-06 8.85353e-05
0.00123766 7.6291e-06 -2.53854e-07
7.6291e-06 8.82293e-05 4.90638e-07
-2.53854e-07 4.90638e-07 9.52994e-05
0.00104928 4.30719e-06 1.30038e-06
4.30719e-06 -5.28471e-07 -1.0857e-06
1.30038e-06 -1.0857e-06 -1.69909e-05
0.000996205 6.68227e-06 1.65348e-06
6.68227e-06 -3.19475e-05 -2.12043e-06
1.65348e-06 -2.12043e-06 -2.5559e-05
0.002157 8.42936e-06 6.50023e-08
8.42936e-06 0.000524487 2.69389e-08
6.50023e-08 2.69389e-08 0.000549581
0.00213269 7.27431e-06 1.74669e-06
7.27431e-06 0.000509429 -3.0238e-06
1.74669e-06 -3.0238e-06 0.000535116
0.00104834 -2.77366e-07 -6.17287e-07
-2.77366e-07 -2.64404e-06 -5.52697e-07
-6.17287e-07 -5.52697e-07 -4.3643e-05
0.00108681 -1.3273e-06 -8.66302e-07
-1.3273e-06 1.66816e-05 -6.02327e-07
-8.66302e-07 -6.02327e-07 -1.49403e-05
0.00109465 8.5177e-07 -2.62396e-08
8.5177e-07 1.85369e-05 2.98679e-08
-2.62396e-08 2.98679e-08 -2.28477e-05
0.00104922 -3.11258e-06 -1.15323e-06
-3.11258e-06 -2.4658e-06 -1.21726e-06
-1.15323e-06 -1.21726e-06 -1.97843e-05
0.00109035 -7.68936e-07 -1.78187e-08
-7.68936e-07 1.87002e-05 7.38476e-09
-1.78187e-08 7.38476e-09 -1.37245e-05
0.00100019 -5.4781e-06 -1.49323e-06
-5.4781e-06 -3.24156e-05 -2.2798e-06
-1.49323e-06 -2.2798e-06 -2.65613e-05
0.00105177 -2.54195e-06 -1.94726e-08
-2.54195e-06 -2.37507e-06 2.21505e-08
-1.94726e-08 2.21505e-08 -2.01531e-05
0.00109357 -1.49942e-07 7.32612e-07
-1.49942e-07 1.99578e-05 7.4369e-07
7.32612e-07 7.4369e-07 -1.33759e-05
0.00217462 -6.03183e-06 -1.55618e-06
-6.03183e-06 0.000526874 -3.20517e-06
-1.55618e-06 -3.20517e-06 0.000552565
0.00100077 -4.63291e-06 -7.25836e-08
-4.63291e-06 -3.44308e-05 2.48534e-08
-7.25836e-08 2.48534e-08 -2.83667e-05
0.0010503 -2.25663e-06 7.5287e-07
-2.25663e-06 -3.56787e-06 1.46452e-06
7.5287e-07 1.46452e-06 -2.16199e-05
0.00219057 -4.83139e-06 -7.87095e-08
-4.83139e-06 0.000531448 1.93051e-08
-7.87095e-08 1.93051e-08 0.000557586
0.0009944 -3.83348e-06 8.82432e-07
-3.83348e-06 -3.9654e-05 2.56533e-06
8.82432e-07 2.56533e-06 -3.29315e-05
0.00218748 -3.61012e-06 8.41762e-07
-3.61012e-06 0.000527386 3.3531e-06
8.41762e-07 3.3531e-06 0.000554065
0.000452612 -5.84054e-06 -1.37257e-05
-5.84054e-06 5.82057e-05 -7.12631e-06
-1.37257e-05 -7.12631e-06 -1.16101e-05
0.000539629 4.31277e-06 -1.77511e-07
4.31277e-06 1.09594e-05 -1.10612e-06
-1.77511e-07 -1.10612e-06 -7.02626e-05
0.000720278 1.49563e-06 4.62906e-08
1.49563e-06 8.84786e-05 1.16904e-06
4.62906e-08 1.16904e-06 1.48088e-06
0.00122084 4.11784e-07 -1.19021e-07
4.11784e-07 8.36162e-05 1.34185e-07
-1.19021e-07 1.34185e-07 3.71541e-05
0.00111685 1.28048e-06 5.40603e-07
1.28048e-06 3.12573e-05 4.28453e-07
5.40603e-07 4.28453e-07 -1.11338e-05
0.00109758 2.4712e-06 6.22494e-07
2.4712e-06 1.85816e-05 2.33414e-07
6.22494e-07 2.33414e-07 -2.88026e-05
0.00115486 2.76264e-06 -1.83781e-07
2.76264e-06 4.87548e-05 -2.11474e-07
-1.83781e-07 -2.11474e-07 8.90113e-08
0.00113759 1.29172e-06 -1.43959e-07
1.29172e-06 4.10981e-05 -3.18337e-07
-1.43959e-07 -3.18337e-07 -5.10005e-06
0.00118625 3.47168e-06 1.84653e-07
3.47168e-06 6.06535e-05 2.71534e-07
1.84653e-07 2.71534e-07 1.05629e-05
0.00111994 3.05034e-06 -2.60144e-07
3.05034e-06 3.19701e-05 -1.94928e-07
-2.60144e-07 -1.94928e-07 -1.93155e-05
0.00111636 3.82741e-06 -1.9887e-07
3.82741e-06 3.10544e-05 8.53733e-08
-1.9887e-07 8.53733e-08 -2.19746e-05
0.00116544 3.15159e-06 3.39372e-07
3.15159e-06 5.50161e-05 1.12419e-07
3.39372e-07 1.12419e-07 3.66817e-06
0.00113162 2.1518e-06 5.85753e-07
2.1518e-06 4.23737e-05 2.22473e-07
5.85753e-07 2.22473e-07 -1.31507e-05
0.00118222 3.61604e-06 -1.48164e-07
3.61604e-06 6.64837e-05 -7.22853e-08
-1.48164e-07 -7.22853e-08 9.8713e-06
0.00126066 4.8059e-06 -1.27442e-07
4.8059e-06 0.000105426 3.2351e-07
-1.27442e-07 3.2351e-07 4.73291e-05
0.000900338 -3.29736e-05 -1.38049e-05
-3.29736e-05 0.000444736 -8.75427e-06
-1.38049e-05 -8.75427e-06 0.000499168
0.000382273 -1.08902e-05 -1.84446e-06
-1.08902e-05 3.71563e-05 -2.0414e-06
-1.84446e-06 -2.0414e-06 1.32878e-05
0.000199527 3.19318e-06 4.22973e-06
3.19318e-06 -0.000146436 5.17573e-06
4.22973e-06 5.17573e-06 -0.000193508
-8.88121e-06 -2.51086e-05 1.7215e-05
-2.51086e-05 -0.000208601 1.48609e-05
1.7215e-05 1.48609e-05 -0.000152325
0.0014219 -4.3523e-05 2.32419e-06
-4.3523e-05 -0.000433041 -5.51736e-05
2.32419e-06 -5.51736e-05 -0.000309889
0.00108283 1.79815e-05 2.8851e-06
1.79815e-05 -0.000786433 -1.63193e-05
2.8851e-06 -1.63193e-05 -0.000896966
0.00142373 -2.28007e-05 -1.09846e-06
-2.28007e-05 0.00042683 9.3274e-06
-1.09846e-06 9.3274e-06 0.000264377
0.00249587 2.71461e-06 -1.11946e-06
2.71461e-06 0.00100065 -6.94209e-07
-1.11946e-06 -6.94209e-07 0.000814989
0.000549687 -3.81727e-05 8.23089e-06
-3.81727e-05 0.000173822 4.74455e-06
8.23089e-06 4.74455e-06 0.000256878
0.00351573 -1.09081e-05 6.01876e-06
-1.09081e-05 0.000111833 1.71521e-05
6.01876e-06 1.71521e-05 6.70556e-05
-0.00118092 -7.0345e-05 -3.78364e-06
-7.0345e-05 -0.000706025 -1.24892e-05
-3.78364e-06 -1.24892e-05 -0.000636973
0.0018363 2.79779e-05 -1.85909e-06
2.79779e-05 0.000580596 -1.01426e-05
-1.85909e-06 -1.01426e-05 0.000438509
0.00397036 -7.18259e-05 4.69306e-05
-7.18259e-05 0.000561538 5.6518e-05
4.69306e-05 5.6518e-05 0.000371911
-0.00115339 -5.8878e-05 2.67522e-05
-5.8878e-05 -0.000223199 2.63037e-05
2.67522e-05 2.63037e-05 -0.000135915
0.00111814 1.11413e-05 -1.11697e-06
1.11413e-05 6.06465e-05 3.65911e-07
-1.11697e-06 3.65911e-07 -4.60363e-06
0.00117603 5.21956e-06 6.31557e-07
5.21956e-06 7.26202e-05 2.28089e-07
6.31557e-07 2.28089e-07 8.13039e-06
0.0011824 3.39746e-06 1.48132e-07
3.39746e-06 7.29589e-05 -3.13316e-07
1.48132e-07 -3.13316e-07 8.2671e-06
0.000748136 1.30794e-06 9.58675e-08
1.30794e-06 2.45404e-06 4.70653e-07
9.58675e-08 4.70653e-07 -0.000119755
0.00118827 3.10603e-07 -1.10719e-07
3.10603e-07 9.67724e-05 -8.80787e-08
-1.10719e-07 -8.80787e-08 2.03339e-06
0.00117656 2.67639e-06 1.39864e-06
2.67639e-06 8.04678e-05 4.32741e-07
1.39864e-06 4.32741e-07 2.65583e-06
0.00113736 8.18458e-06 -2.00516e-07
8.18458e-06 7.9732e-05 -1.48995e-07
-2.00516e-07 -1.48995e-07 -7.49643e-06
0.000955489 9.32868e-06 6.19108e-07
9.32868e-06 7.07248e-05 1.55541e-06
6.19108e-07 1.55541e-06 -3.64357e-05
0.000482749 2.24983e-05 -7.36976e-07
2.24983e-05 -0.000188983 1.06065e-07
-7.36976e-07 1.06065e-07 -0.000282922
0.00235921 -5.77781e-06 -1.59267e-05
-5.77781e-06 0.00140146 2.1521e-07
-1.59267e-05 2.1521e-07 0.0014068
0.000653806 -1.17066e-06 -1.27745e-06
-1.17066e-06 0.000177216 -1.64865e-06
-1.27745e-06 -1.64865e-06 9.74347e-05
0.000215701 7.46251e-07 2.33136e-06
7.46251e-07 -0.000207359 -1.21036e-06
2.33136e-06 -1.21036e-06 -0.000301953
0.000719172 -9.8766e-07 -1.74013e-06
-9.8766e-07 -5.11462e-05 -1.96003e-06
-1.74013e-06 -1.96003e-06 -0.00016038
0.00143032 -2.14144e-05 3.48321e-06
-2.14144e-05 0.000359118 -1.15194e-05
3.48321e-06 -1.15194e-05 0.000151571
0.000992669 2.83898e-06 1.09887e-05
2.83898e-06 0.000396307 -5.83539e-06
1.09887e-05 -5.83539e-06 0.000340505
0.00405454 3.83696e-05 -4.31698e-05
3.83696e-05 0.00101483 6.99703e-05
-4.31698e-05 6.99703e-05 0.000856233
-0.00235385 4.99295e-05 -2.75112e-05
4.99295e-05 -0.000980777 2.61127e-05
-2.75112e-05 2.61127e-05 -0.000897099
0.00127722 2.81559e-05 1.85022e-05
2.81559e-05 0.000666504 -1.26602e-05
1.85022e-05 -1.26602e-05 0.000713185
0.0011438 -1.19146e-05 -1.40787e-07
-1.19146e-05 0.000132734 -9.56323e-07
-1.40787e-07 -9.56323e-07 -3.80864e-06
0.000875465 1.51023e-05 4.18096e-06
1.51023e-05 0.000467912 -1.31955e-06
4.18096e-06 -1.31955e-06 0.000474612
-0.00279426 2.53851e-05 -1.46779e-05
2.53851e-05 -0.000860009 6.8255e-06
-1.46779e-05 6.8255e-06 -0.000770432
0.000990528 -4.14039e-05 -4.34095e-07
-4.14039e-05 -9.10588e-05 5.30111e-06
-4.34095e-07 5.30111e-06 -0.000289567
0.00478719 3.77437e-05 7.73138e-07
3.77437e-05 0.00105055 1.30607e-06
7.73138e-07 1.30607e-06 0.000844651
0.00167984 -2.31081e-05 -1.16582e-07
-2.31081e-05 0.00027943 5.14875e-07
-1.16582e-07 5.14875e-07 0.000160075
-0.00526345 1.85824e-05 2.76167e-05
1.85824e-05 -0.002215 -1.29292e-05
2.76167e-05 -1.29292e-05 -0.0020833
0.00482411 6.46629e-06 7.04988e-05
6.46629e-06 0.00118901 -4.52032e-05
7.04988e-05 -4.52032e-05 0.00107383
0.00112271 -4.16864e-05 -1.00023e-05
-4.16864e-05 -0.000195796 1.62248e-05
-1.00023e-05 1.62248e-05 -0.000352033
0.00104016 -6.90489e-06 -4.71717e-07
-6.90489e-06 5.87926e-05 -9.60318e-07
-4.71717e-07 -9.60318e-07 -4.49788e-05
0.00123861 -1.55416e-05 1.05512e-07
-1.55416e-05 0.000104413 9.33885e-08
1.05512e-07 9.33885e-08 2.69058e-06
0.00147841 -1.83798e-05 -2.90253e-06
-1.83798e-05 0.000143278 -7.6805e-07
-2.90253e-06 -7.6805e-07 6.73328e-05
0.000942678 -1.07295e-05 1.39014e-07
-1.07295e-05 -3.52207e-05 -1.67794e-07
1.39014e-07 -1.67794e-07 -0.000121698
0.0012228 -1.20792e-05 -1.78928e-07
-1.20792e-05 5.16845e-05 -5.43167e-07
-1.78928e-07 -5.43167e-07 -1.95952e-05
0.00143855 -9.16733e-06 -1.14817e-06
-9.16733e-06 0.000119451 -1.93189e-06
-1.14817e-06 -1.93189e-06 7.03544e-05
0.00111249 -8.00454e-06 5.59219e-07
-8.00454e-06 1.99757e-05 -3.50464e-08
5.59219e-07 -3.50464e-08 -4.85578e-05
0.00120996 -6.69736e-06 1.12495e-07
-6.69736e-06 4.14416e-05 -2.64561e-07
1.12495e-07 -2.64561e-07 -1.44787e-05
0.00129371 -4.30216e-06 1.68702e-07
-4.30216e-06 5.94601e-05 -1.43929e-06
1.68702e-07 -1.43929e-06 1.76598e-05
0.00111738 -5.40967e-06 2.44506e-07
-5.40967e-06 1.47698e-05 4.39171e-07
2.44506e-07 4.39171e-07 -4.51357e-05
0.00121433 -4.35954e-06 1.41328e-08
-4.35954e-06 3.77521e-05 -7.43293e-08
1.41328e-08 -7.43293e-08 -1.25049e-05
0.00123371 -2.29571e-06 8.62451e-07
-2.29571e-06 3.86525e-05 -8.55316e-07
8.62451e-07 -8.55316e-07 -4.6284e-06
0.00119709 -1.17446e-06 9.04085e-07
-1.17446e-06 3.60215e-05 -3.91286e-07
9.04085e-07 -3.91286e-07 -1.24592e-05
0.00129982 -3.83296e-06 1.08521e-07
-3.83296e-06 9.0375e-05 -6.34986e-07
1.08521e-07 -6.34986e-07 3.70555e-05
0.00121953 -3.0775e-06 8.0712e-08
-3.0775e-06 4.19725e-05 3.10063e-07
8.0712e-08 3.10063e-07 -8.34143e-06
0.00114894 -4.04295e-06 -4.71842e-07
-4.04295e-06 3.75787e-05 1.30735e-08
-4.71842e-07 1.30735e-08 -1.74954e-05
0.00120207 -4.59797e-06 2.24534e-07
-4.59797e-06 5.62539e-05 -1.62756e-07
2.24534e-07 -1.62756e-07 -8.92751e-07
0.00115479 -4.24961e-06 8.20587e-08
-4.24961e-06 2.30301e-05 7.03668e-07
8.20587e-08 7.03668e-07 -3.26619e-05
0.0011127 -1.71928e-06 -4.98708e-07
-1.71928e-06 3.75597e-05 5.14975e-07
-4.98708e-07 5.14975e-07 -1.02542e-05
0.00110224 -3.81201e-06 3.32919e-08
-3.81201e-06 2.77981e-05 -4.51925e-08
3.32919e-08 -4.51925e-08 -2.70261e-05
0.00109646 -4.74881e-06 1.06806e-07
-4.74881e-06 2.01489e-05 -1.2234e-07
1.06806e-07 -1.2234e-07 -3.95796e-05
0.00106352 2.53765e-06 -9.92437e-07
2.53765e-06 1.92937e-05 5.5482e-07
-9.92437e-07 5.5482e-07 -1.6754e-05
0.00110964 -5.49468e-07 -4.81866e-08
-5.49468e-07 3.83626e-05 -5.23042e-08
-4.81866e-08 -5.23042e-08 -7.15348e-06
0.00111691 -2.89437e-06 2.04203e-07
-2.89437e-06 4.11086e-05 -5.12217e-07
2.04203e-07 -5.12217e-07 -1.00708e-05
0.00101025 5.61958e-06 -1.44797e-06
5.61958e-06 -6.48749e-06 9.8304e-07
-1.44797e-06 9.8304e-07 -2.57874e-05
0.00107536 3.00143e-06 7.01487e-08
3.00143e-06 2.4825e-05 3.70991e-08
7.01487e-08 3.70991e-08 -9.59962e-06
0.00101195 9.26515e-07 5.54156e-07
9.26515e-07 -4.21652e-06 -3.09993e-07
5.54156e-07 -3.09993e-07 -4.89658e-05
0.000942617 9.54887e-06 -2.06353e-06
9.54887e-06 -4.41455e-05 1.79133e-06
-2.06353e-06 1.79133e-06 -3.94567e-05
0.00103433 5.42056e-06 2.35688e-08
5.42056e-06 7.86395e-07 -6.65622e-09
2.35688e-08 -6.65622e-09 -1.69897e-05
0.00109534 3.18735e-06 7.88241e-07
3.18735e-06 3.16821e-05 -6.59208e-07
7.88241e-07 -6.59208e-07 -9.73945e-07
0.00211737 1.09154e-05 -1.02918e-06
1.09154e-05 0.000513837 1.06878e-06
-1.02918e-06 1.06878e-06 0.000537936
0.000960916 8.63139e-06 4.47821e-08
8.63139e-06 -4.05283e-05 1.83456e-08
4.47821e-08 1.83456e-08 -3.49887e-05
0.00104795 4.91558e-06 1.34769e-06
4.91558e-06 2.34986e-06 -1.02488e-06
1.34769e-06 -1.02488e-06 -1.43742e-05
0.00217482 9.5878e-06 6.0474e-08
9.5878e-06 0.000537179 3.12491e-08
6.0474e-08 3.12491e-08 0.000561603
0.000988971 7.63738e-06 1.8421e-06
7.63738e-06 -3.16879e-05 -1.98321e-06
1.8421e-06 -1.98321e-06 -2.56699e-05
0.00211988 8.48661e-06 1.97388e-06
8.48661e-06 0.00050722 -2.92902e-06
1.97388e-06 -2.92902e-06 0.000532416
0.00125519 -1.37889e-06 -3.20391e-07
-1.37889e-06 0.000100469 5.84256e-09
-3.20391e-07 5.84256e-09 5.98648e-05
0.00107856 -4.10789e-07 -9.7294e-08
-4.10789e-07 1.2587e-05 -2.23009e-07
-9.7294e-08 -2.23009e-07 -2.81133e-05
0.00109123 -1.94133e-06 -8.16658e-07
-1.94133e-06 1.98531e-05 -6.16333e-07
-8.16658e-07 -6.16333e-07 -1.1654e-05
0.00104508 -3.71824e-06 -1.27339e-06
-3.71824e-06 -3.26835e-06 -1.11218e-06
-1.27339e-06 -1.11218e-06 -2.03002e-05
0.00109035 -1.29762e-06 -3.30136e-08
-1.29762e-06 1.83299e-05 2.25957e-08
-3.30136e-08 2.25957e-08 -1.33245e-05
0.00105036 8.48575e-07 5.88492e-07
8.48575e-07 -2.7995e-06 3.45038e-07
5.88492e-07 3.45038e-07 -4.43505e-05
0.000994254 -6.39604e-06 -1.67417e-06
-6.39604e-06 -3.25269e-05 -2.14864e-06
-1.67417e-06 -2.14864e-06 -2.67689e-05
0.00104832 -3.11037e-06 -2.7764e-08
-3.11037e-06 -2.87051e-06 1.54955e-08
-2.7764e-08 1.54955e-08 -2.0197e-05
0.00109361 -7.36691e-07 7.39323e-07
-7.36691e-07 2.02e-05 7.26373e-07
7.39323e-07 7.26373e-07 -1.22456e-05
0.00216682 -7.2003e-06 -1.79073e-06
-7.2003e-06 0.000526234 -3.08904e-06
-1.79073e-06 -3.08904e-06 0.000551544
0.000994611 -5.49051e-06 -5.00799e-08
-5.49051e-06 -3.50378e-05 2.76995e-08
-5.00799e-08 2.76995e-08 -2.91799e-05
0.00105189 -2.53735e-06 1.01327e-06
-2.53735e-06 -2.25996e-06 1.33574e-06
1.01327e-06 1.33574e-06 -2.00677e-05
0.00220222 -5.98527e-06 -7.64018e-08
-5.98527e-06 0.000539765 2.38854e-08
-7.64018e-08 2.38854e-08 0.000565383
0.000992441 -4.65301e-06 1.13838e-06
-4.65301e-06 -3.83787e-05 2.478e-06
1.13838e-06 2.478e-06 -3.22801e-05
0.00221003 -4.79012e-06 1.12597e-06
-4.79012e-06 0.000540451 3.30949e-06
1.12597e-06 3.30949e-06 0.000566578
-0.00041052 -2.07138e-05 -2.17838e-05
-2.07138e-05 -0.000331358 -7.73191e-06
-2.17838e-05 -7.73191e-06 -0.000323078
0.000397397 -4.38986e-06 -6.34328e-07
-4.38986e-06 2.49416e-05 -1.84387e-06
-6.34328e-07 -1.84387e-06 -4.50254e-05
0.00041858 3.38901e-06 3.3309e-06
3.38901e-06 -6.3442e-05 1.83832e-06
3.3309e-06 1.83832e-06 -0.000145148
0.00117402 4.41282e-07 9.07717e-08
4.41282e-07 6.09894e-05 2.38428e-07
9.07717e-08 2.38428e-07 1.40786e-05
0.00115777 3.04073e-07 -1.16567e-07
3.04073e-07 5.25244e-05 1.7115e-07
-1.16567e-07 1.7115e-07 4.66363e-06
0.00114252 2.51329e-06 -8.61227e-08
2.51329e-06 4.47608e-05 2.60813e-07
-8.61227e-08 2.60813e-07 -5.39587e-06
0.00122468 2.7049e-06 2.64481e-07
2.7049e-06 8.2906e-05 -1.92659e-07
2.64481e-07 -1.92659e-07 3.46425e-05
0.00123163 1.28598e-06 3.00602e-07
1.28598e-06 8.66403e-05 1.05172e-08
3.00602e-07 1.05172e-08 4.08223e-05
0.00112858 3.38567e-06 2.01119e-07
3.38567e-06 3.29089e-05 5.40494e-07
2.01119e-07 5.40494e-07 -1.69208e-05
0.00114022 3.75245e-06 -7.69003e-08
3.75245e-06 4.20609e-05 3.06613e-08
-7.69003e-08 3.06613e-08 -1.06427e-05
0.00114118 3.03687e-06 5.17346e-08
3.03687e-06 4.21148e-05 5.55806e-08
5.17346e-08 5.55806e-08 -8.77574e-06
0.00118933 3.89256e-06 -2.59667e-07
3.89256e-06 6.98462e-05 -2.23495e-08
-2.59667e-07 -2.23495e-08 1.43796e-05
0.00118308 6.52032e-06 2.22484e-07
6.52032e-06 7.21415e-05 5.86822e-07
2.22484e-07 5.86822e-07 1.37475e-05
0.00114641 3.50083e-06 8.68728e-08
3.50083e-06 4.90479e-05 -1.38479e-07
8.68728e-08 -1.38479e-07 -7.33687e-06
0.00119224 4.62444e-06 -3.76911e-08
4.62444e-06 7.23324e-05 5.75935e-08
-3.76911e-08 5.75935e-08 1.41369e-05
-0.00602132 -4.68119e-05 2.9357e-05
-4.68119e-05 -0.00255844 1.07464e-05
2.9357e-05 1.07464e-05 -0.0024523
0.000618331 -3.37223e-05 7.52585e-06
-3.37223e-05 0.000284685 4.21522e-06
7.52585e-06 4.21522e-06 0.000335091
9.75943e-05 -1.13406e-05 1.48769e-05
-1.13406e-05 -0.000134247 9.66588e-06
1.48769e-05 9.66588e-06 -0.000156877
0.000144901 -4.13239e-05 2.59521e-05
-4.13239e-05 -7.38331e-05 1.89681e-05
2.59521e-05 1.89681e-05 1.23518e-05
0.00261994 -8.06669e-05 -2.24497e-05
-8.06669e-05 0.000776358 -5.45269e-05
-2.24497e-05 -5.45269e-05 0.00080086
0.0012569 -2.40572e-05 1.98495e-07
-2.40572e-05 -0.000647411 -2.33589e-06
1.98495e-07 -2.33589e-06 -0.000654908
0.000254601 1.08446e-05 -9.05363e-08
1.08446e-05 -7.74302e-05 9.05248e-06
-9.05363e-08 9.05248e-06 -0.000342655
0.000853264 3.28676e-05 9.23535e-10
3.28676e-05 5.85891e-05 -5.09644e-06
9.23535e-10 -5.09644e-06 -0.000131729
0.0013279 -7.84987e-05 -1.56604e-06
-7.84987e-05 0.000359524 -5.32317e-06
-1.56604e-06 -5.32317e-06 0.000390022
0.003271 -4.94142e-05 5.51184e-06
-4.94142e-05 0.000566822 1.46598e-05
5.51184e-06 1.46598e-05 0.000445805
0.000692793 3.85323e-05 -6.84846e-06
3.85323e-05 -0.000184602 -2.42389e-05
-6.84846e-06 -2.42389e-05 -0.000344472
0.00312404 -2.32809e-05 6.23069e-05
-2.32809e-05 0.000703483 6.01026e-05
6.23069e-05 6.01026e-05 0.000551152
0.00120917 1.8064e-05 -5.2427e-07
1.8064e-05 0.000120569 -1.61828e-06
-5.2427e-07 -1.61828e-06 4.83365e-05
0.00109799 1.02473e-05 2.21221e-07
1.02473e-05 4.91311e-05 2.65343e-07
2.21221e-07 2.65343e-07 -1.55591e-05
0.00122194 4.94178e-06 1.09218e-06
4.94178e-06 9.26142e-05 -3.64463e-07
1.09218e-06 -3.64463e-07 2.84052e-05
0.000986867 9.15353e-06 -5.32246e-07
9.15353e-06 8.45593e-05 -4.312e-07
-5.32246e-07 -4.312e-07 -2.24105e-05
0.00130607 8.63918e-06 1.21523e-06
8.63918e-06 0.000158843 4.51208e-07
1.21523e-06 4.51208e-07 7.18533e-05
0.00107054 2.29942e-05 5.18152e-09
2.29942e-05 7.5425e-05 3.1743e-07
5.18152e-09 3.1743e-07 -1.7991e-05
0.000386552 3.00907e-05 3.02134e-07
3.00907e-05 -0.000281399 -4.31774e-08
3.02134e-07 -4.31774e-08 -0.000369668
-0.0035016 1.40743e-06 6.8193e-05
1.40743e-06 -0.00103879 2.18054e-06
6.8193e-05 2.18054e-06 -0.00088445
0.000396936 -3.89923e-06 -4.99663e-07
-3.89923e-06 0.000184062 7.48798e-07
-4.99663e-07 7.48798e-07 0.000177179
-0.000499326 -4.27204e-07 1.29899e-05
-4.27204e-07 -0.000546158 -2.77851e-06
1.29899e-05 -2.77851e-06 -0.000633985
0.00108276 -1.01006e-05 -7.75843e-07
-1.01006e-05 0.000110542 -3.06871e-06
-7.75843e-07 -3.06871e-06 -2.83374e-05
0.00156502 -3.75089e-05 2.18093e-06
-3.75089e-05 0.00027396 -6.55439e-06
2.18093e-06 -6.55439e-06 0.000109001
0.00064477 1.58842e-05 1.87884e-05
1.58842e-05 0.000324049 -7.104e-06
1.87884e-05 -7.104e-06 0.000331239
0.00301142 8.92947e-06 -5.88732e-05
8.92947e-06 0.000547306 4.71913e-05
-5.88732e-05 4.71913e-05 0.000371949
0.00131217 3.3387e-05 -7.03753e-05
3.3387e-05 0.000675441 3.46875e-05
-7.03753e-05 3.46875e-05 0.00071415
0.0011103 -2.30564e-05 6.90602e-07
-2.30564e-05 2.0079e-05 -3.74265e-07
6.90602e-07 -3.74265e-07 -0.000101342
-0.00236511 1.06784e-05 -2.6553e-05
1.06784e-05 -0.000834967 7.72688e-06
-2.6553e-05 7.72688e-06 -0.00072974
-0.00014949 -3.42881e-06 3.88798e-06
-3.42881e-06 -0.000795105 -4.96954e-06
3.88798e-06 -4.96954e-06 -0.000888938
0.00160205 -3.8089e-05 1.97104e-06
-3.8089e-05 0.000145126 9.38777e-07
1.97104e-06 9.38777e-07 9.45083e-06
0.00178252 -2.64359e-05 -2.69111e-06
-2.64359e-05 0.000200573 3.50817e-07
-2.69111e-06 3.50817e-07 0.000112797
0.00388353 4.1863e-06 8.15053e-05
4.1863e-06 0.000704217 -3.47055e-05
8.15053e-05 -3.47055e-05 0.000650062
0.00144251 -2.57898e-05 -6.11084e-06
-2.57898e-05 5.06055e-05 4.33752e-06
-6.11084e-06 4.33752e-06 -3.86552e-05
0.000864831 -1.4961e-05 1.4599e-06
-1.4961e-05 -7.15651e-05 -1.06136e-06
1.4599e-06 -1.06136e-06 -0.000176064
0.00126041 -1.79149e-05 5.23782e-08
-1.79149e-05 4.25818e-05 1.03054e-08
5.23782e-08 1.03054e-08 -3.2814e-05
0.00158758 -1.2241e-05 -4.00824e-06
-1.2241e-05 0.000153055 -1.34725e-06
-4.00824e-06 -1.34725e-06 0.000109642
0.00107055 -1.16535e-05 1.36324e-06
-1.16535e-05 -1.89211e-05 3.43804e-07
1.36324e-06 3.43804e-07 -8.94445e-05
0.00124294 -8.76751e-06 2.53821e-07
-8.76751e-06 2.84021e-05 -1.29682e-07
2.53821e-07 -1.29682e-07 -1.98856e-05
0.00131468 -3.29176e-06 7.28551e-07
-3.29176e-06 5.5128e-05 -7.52203e-07
7.28551e-07 -7.52203e-07 2.21943e-05
0.00108485 -6.37112e-06 8.01383e-07
-6.37112e-06 -1.77525e-05 1.07383e-06
8.01383e-07 1.07383e-06 -7.29103e-05
0.00122779 -4.19319e-06 1.54267e-07
-4.19319e-06 2.89376e-05 2.28002e-07
1.54267e-07 2.28002e-07 -1.27964e-05
0.00122522 -5.46456e-07 1.36595e-06
-5.46456e-07 3.1605e-05 -1.09442e-07
1.36595e-06 -1.09442e-07 -6.24056e-06
0.00115849 -4.20355e-06 1.50284e-07
-4.20355e-06 1.14977e-05 1.26933e-06
1.50284e-07 1.26933e-06 -3.84807e-05
0.001232 -2.33903e-06 2.14002e-07
-2.33903e-06 3.85389e-05 3.96639e-07
2.14002e-07 3.96639e-07 -5.00444e-06
0.00119445 5.02822e-07 1.58362e-06
5.02822e-07 3.19588e-05 1.9023e-07
1.58362e-06 1.9023e-07 -1.34973e-05
0.00111945 5.41383e-07 7.64107e-07
5.41383e-07 4.9453e-06 -1.87408e-07
7.64107e-07 -1.87408e-07 -4.60559e-05
0.00120363 -1.20094e-06 -1.25431e-07
-1.20094e-06 3.88246e-05 3.25358e-07
-1.25431e-07 3.25358e-07 -9.78439e-06
0.00123905 -2.04608e-06 7.05891e-07
-2.04608e-06 6.38581e-05 -5.61579e-07
7.05891e-07 -5.61579e-07 1.26782e-05
0.00124628 -3.45961e-06 -1.71519e-07
-3.45961e-06 7.42415e-05 -4.31874e-07
-1.71519e-07 -4.31874e-07 2.13575e-05
0.00125671 -3.69938e-06 1.55338e-07
-3.69938e-06 7.11733e-05 6.62954e-10
1.55338e-07 6.62954e-10 1.78272e-05
0.00117132 -2.91347e-06 -1.14001e-07
-2.91347e-06 1.95474e-05 1.38557e-06
-1.14001e-07 1.38557e-06 -3.06954e-05
0.00105215 -2.6835e-06 -8.19195e-07
-2.6835e-06 6.4755e-07 5.74839e-07
-8.19195e-07 5.74839e-07 -4.95809e-05
0.00119912 -4.05218e-06 2.58545e-08
-4.05218e-06 6.25453e-05 -1.5889e-08
2.58545e-08 -1.5889e-08 7.87707e-06
0.00117885 -4.44065e-06 3.97919e-07
-4.44065e-06 4.67568e-05 1.51545e-07
3.97919e-07 1.51545e-07 -9.93917e-06
0.00106838 1.3837e-06 -9.72535e-07
1.3837e-06 2.14319e-05 6.10623e-07
-9.72535e-07 6.10623e-07 -1.68916e-05
0.00111446 -1.71529e-06 3.10115e-08
-1.71529e-06 3.8276e-05 1.47451e-08
3.10115e-08 1.47451e-08 -9.53678e-06
0.00103794 -3.69436e-06 3.28188e-07
-3.69436e-06 -1.1967e-06 -5.1319e-07
3.28188e-07 -5.1319e-07 -5.60865e-05
0.00100479 5.57325e-06 -1.60276e-06
5.57325e-06 -6.4621e-06 9.06903e-07
-1.60276e-06 9.06903e-07 -2.74371e-05
0.0010745 2.35135e-06 -1.29391e-09
2.35135e-06 2.41046e-05 -1.26433e-08
-1.29391e-09 -1.26433e-08 -1.1933e-05
0.00111754 -5.89946e-07 5.21861e-07
-5.89946e-07 4.17134e-05 -4.59845e-07
5.21861e-07 -4.59845e-07 -3.81041e-06
0.00092673 1.03216e-05 -2.2241e-06
1.03216e-05 -4.62655e-05 1.70069e-06
-2.2241e-06 1.70069e-06 -4.28279e-05
0.00102774 5.58917e-06 5.6389e-08
5.58917e-06 1.60565e-06 2.08677e-08
5.6389e-08 2.08677e-08 -1.77464e-05
0.00108737 2.99957e-06 9.51868e-07
2.99957e-06 3.02497e-05 -5.59325e-07
9.51868e-07 -5.59325e-07 -4.17617e-06
0.00220533 1.19091e-05 -2.47187e-06
1.19091e-05 0.00056224 2.64231e-06
-2.47187e-06 2.64231e-06 0.000584988
0.000962963 9.49845e-06 4.66586e-08
9.49845e-06 -3.44687e-05 1.35952e-08
4.66586e-08 1.35952e-08 -2.98883e-05
0.00105048 5.38986e-06 1.40867e-06
5.38986e-06 8.27853e-06 -1.01754e-06
1.40867e-06 -1.01754e-06 -9.55657e-06
0.00163312 1.08713e-05 6.67602e-07
1.08713e-05 0.000281426 -9.07452e-07
6.67602e-07 -9.07452e-07 0.000303174
0.000984266 8.58331e-06 2.00395e-06
8.58331e-06 -2.94642e-05 -1.85911e-06
2.00395e-06 -1.85911e-06 -2.40207e-05
0.00210711 9.69189e-06 2.18716e-06
9.69189e-06 0.000505612 -2.82068e-06
2.18716e-06 -2.82068e-06 0.00053023
0.001159 -1.692e-06 -4.40325e-07
-1.692e-06 5.59164e-05 -1.27959e-07
-4.40325e-07 -1.27959e-07 1.34109e-05
0.00115906 -1.39204e-06 1.48878e-07
-1.39204e-06 5.40884e-05 3.27388e-07
1.48878e-07 3.27388e-07 1.28029e-05
0.00110683 -2.5217e-06 -8.78806e-07
-2.5217e-06 2.96833e-05 -5.70936e-07
-8.78806e-07 -5.70936e-07 -2.62969e-06
0.00110851 -5.0532e-07 4.11182e-07
-5.0532e-07 2.76901e-05 6.62626e-08
4.11182e-07 6.62626e-08 -1.27107e-05
0.00108956 -1.93425e-06 2.62736e-08
-1.93425e-06 1.91104e-05 -1.96042e-08
2.62736e-08 -1.96042e-08 -1.23985e-05
0.00104427 -4.35068e-06 -1.34221e-06
-4.35068e-06 -1.8348e-06 -1.04915e-06
-1.34221e-06 -1.04915e-06 -1.90088e-05
0.000987708 -7.33317e-06 -1.8487e-06
-7.33317e-06 -3.26408e-05 -2.00866e-06
-1.8487e-06 -2.00866e-06 -2.70782e-05
0.00104483 -3.71294e-06 -3.58704e-08
-3.71294e-06 -3.40246e-06 2.09963e-08
-3.58704e-08 2.09963e-08 -2.04422e-05
0.00109373 -1.26842e-06 8.12034e-07
-1.26842e-06 1.99036e-05 6.64513e-07
8.12034e-07 6.64513e-07 -1.17828e-05
0.00215406 -8.3809e-06 -2.00541e-06
-8.3809e-06 0.000523576 -2.97035e-06
-2.00541e-06 -2.97035e-06 0.000548494
0.000987583 -6.41044e-06 -4.6025e-08
-6.41044e-06 -3.57045e-05 2.60412e-08
-4.6025e-08 2.60412e-08 -2.9927e-05
0.00104749 -3.10801e-06 1.09691e-06
-3.10801e-06 -3.24581e-06 1.2406e-06
1.09691e-06 1.2406e-06 -2.05804e-05
0.00220227 -7.14533e-06 -6.72767e-08
-7.14533e-06 0.000542881 2.65686e-08
-6.72767e-08 2.65686e-08 0.000568062
0.000988854 -5.50379e-06 1.39379e-06
-5.50379e-06 -3.77459e-05 2.3477e-06
1.39379e-06 2.3477e-06 -3.18837e-05
0.00222984 -5.93841e-06 1.41119e-06
-5.93841e-06 0.000552665 3.25628e-06
1.41119e-06 3.25628e-06 0.00057821
-0.000397076 -1.27814e-05 5.93811e-05
-1.27814e-05 -0.000329508 3.96696e-06
5.93811e-05 3.96696e-06 -0.000266765
0.00117134 -1.79554e-05 -3.26511e-06
-1.79554e-05 0.000656701 -9.7151e-07
-3.26511e-06 -9.7151e-07 0.000671248
0.000344333 -2.98827e-06 1.31499e-05
-2.98827e-06 -7.21117e-06 3.31154e-06
1.31499e-05 3.31154e-06 -7.73332e-05
0.00112572 4.63112e-07 4.19513e-07
4.63112e-07 3.76555e-05 5.46864e-07
4.19513e-07 5.46864e-07 -9.69971e-06
0.00112878 2.3931e-06 3.05089e-07
2.3931e-06 3.86879e-05 3.38407e-07
3.05089e-07 3.38407e-07 -1.13166e-05
0.00118174 3.29175e-07 1.14415e-07
3.29175e-07 6.42421e-05 1.83774e-07
1.14415e-07 1.83774e-07 1.65672e-05
0.00113846 6.36439e-07 -5.51023e-08
6.36439e-07 4.48675e-05 2.1259e-07
-5.51023e-08 2.1259e-07 -4.5225e-06
0.00112171 2.75629e-06 -2.96529e-07
2.75629e-06 3.52155e-05 7.30086e-08
-2.96529e-07 7.30086e-08 -1.60941e-05
0.00116419 3.67838e-06 1.10859e-07
3.67838e-06 5.31104e-05 3.71708e-08
1.10859e-07 3.71708e-08 7.32765e-07
0.00116178 3.02054e-06 4.31521e-07
3.02054e-06 5.19744e-05 9.86032e-08
4.31521e-07 9.86032e-08 1.47797e-06
0.00113593 3.90781e-06 -9.85457e-08
3.90781e-06 4.43663e-05 -1.31873e-07
-9.85457e-08 -1.31873e-07 -1.12125e-05
0.00109186 3.90085e-06 2.74855e-09
3.90085e-06 2.74715e-05 3.41991e-07
2.74855e-09 3.41991e-07 -2.79366e-05
0.00117879 5.89723e-06 5.00631e-08
5.89723e-06 6.9269e-05 3.97856e-07
5.00631e-08 3.97856e-07 1.09844e-05
0.00125161 1.04445e-05 1.32053e-07
1.04445e-05 0.000101157 -7.75648e-07
1.32053e-07 -7.75648e-07 3.78286e-05
0.00116018 6.48168e-06 1.15061e-07
6.48168e-06 6.27478e-05 -4.57508e-08
1.15061e-07 -4.57508e-08 4.16481e-06
0.00112269 4.44591e-06 1.76275e-07
4.44591e-06 3.87166e-05 -2.81002e-07
1.76275e-07 -2.81002e-07 -1.95757e-05
0.00624485 -2.08451e-05 6.52365e-05
-2.08451e-05 0.00167523 2.73007e-05
6.52365e-05 2.73007e-05 0.00156446
-0.000454709 -4.18606e-05 3.2824e-06
-4.18606e-05 -0.00017636 1.8481e-06
3.2824e-06 1.8481e-06 -0.000102472
0.00176276 -2.9183e-05 2.35903e-05
-2.9183e-05 0.00100144 1.4276e-05
2.35903e-05 1.4276e-05 0.00104822
-0.0025622 -6.23639e-05 -1.76458e-05
-6.23639e-05 -0.00109811 -2.84865e-05
-1.76458e-05 -2.84865e-05 -0.00101194
0.00263495 -7.25574e-05 -1.60921e-05
-7.25574e-05 -0.000142935 -3.13664e-06
-1.60921e-05 -3.13664e-06 -0.000372941
0.00191486 2.67654e-05 -4.42875e-07
2.67654e-05 0.000617081 1.0668e-06
-4.42875e-07 1.0668e-06 0.000475357
0.00116363 3.42124e-05 -3.59251e-06
3.42124e-05 8.78069e-05 -5.20816e-06
-3.59251e-06 -5.20816e-06 -5.90943e-05
0.00481469 -5.64147e-05 2.76016e-06
-5.64147e-05 0.00112913 4.71332e-06
2.76016e-06 4.71332e-06 0.000954965
0.00042587 2.8596e-05 -1.07201e-05
2.8596e-05 -0.000377138 -1.28253e-05
-1.07201e-05 -1.28253e-05 -0.000509717
0.0011902 2.13765e-05 1.19554e-06
2.13765e-05 7.71542e-05 -8.48997e-07
1.19554e-06 -8.48997e-07 -3.3064e-06
0.00113145 1.75304e-05 -6.96949e-07
1.75304e-05 8.24025e-05 -1.05895e-06
-6.96949e-07 -1.05895e-06 1.00612e-05
0.00107822 9.36647e-06 1.16923e-06
9.36647e-06 3.78582e-05 5.93967e-08
1.16923e-06 5.93967e-08 -2.62796e-05
0.00163001 2.34944e-05 1.76496e-07
2.34944e-05 0.000327655 -2.41627e-07
1.76496e-07 -2.41627e-07 0.000234751
0.000768468 3.05115e-05 1.80507e-07
3.05115e-05 -0.000107954 8.71495e-07
1.80507e-07 8.71495e-07 -0.000193512
-0.00147976 1.38426e-07 6.88294e-05
1.38426e-07 -0.00139282 -5.30448e-06
6.88294e-05 -5.30448e-06 -0.00135472
0.000837695 2.35305e-06 -3.1118e-06
2.35305e-06 0.000368553 5.83676e-06
-3.1118e-06 5.83676e-06 0.000461301
-0.00159988 -2.26647e-06 2.66146e-05
-2.26647e-06 -0.00105539 -8.38459e-07
2.66146e-05 -8.38459e-07 -0.00107403
0.000565905 -2.30575e-05 2.08564e-06
-2.30575e-05 -0.000229161 -2.15341e-06
2.08564e-06 -2.15341e-06 -0.000352476
0.00134121 -3.9564e-05 1.1196e-05
-3.9564e-05 -8.09347e-05 -1.35823e-05
1.1196e-05 -1.35823e-05 -0.000251399
0.0009405 1.45508e-05 -8.60976e-05
1.45508e-05 0.000259015 1.62846e-05
-8.60976e-05 1.62846e-05 0.000325752
0.00581791 -6.9581e-07 -2.94373e-05
-6.9581e-07 0.00162327 9.31837e-06
-2.94373e-05 9.31837e-06 0.00147859
0.00151234 -2.61841e-05 7.12081e-07
-2.61841e-05 8.02259e-05 6.23856e-07
7.12081e-07 6.23856e-07 -8.49878e-06
0.00247645 -1.46512e-06 2.31469e-05
-1.46512e-06 0.000280465 -1.21859e-05
2.31469e-05 -1.21859e-05 0.000269932
0.00143901 -2.91079e-05 5.46755e-06
-2.91079e-05 -8.34533e-05 3.47885e-07
5.46755e-06 3.47885e-07 -0.000193569
0.00189725 -1.65058e-05 -5.95473e-06
-1.65058e-05 0.000219037 -7.85718e-07
-5.95473e-06 -7.85718e-07 0.000168326
0.00179159 -1.02032e-06 -7.10191e-06
-1.02032e-06 0.000368359 2.27476e-06
-7.10191e-06 2.27476e-06 0.000294259
0.00103368 -1.74334e-05 3.28494e-06
-1.74334e-05 -6.24256e-05 4.89711e-07
3.28494e-06 4.89711e-07 -0.00013724
0.00132792 -1.1727e-05 -9.49197e-07
-1.1727e-05 3.41946e-05 -1.29788e-07
-9.49197e-07 -1.29788e-07 -8.46157e-06
0.00137495 -2.55795e-07 1.26462e-06
-2.55795e-07 8.55324e-05 7.79813e-07
1.26462e-06 7.79813e-07 5.44673e-05
0.001049 -8.37416e-06 1.68492e-06
-8.37416e-06 -6.18529e-05 1.68459e-06
1.68492e-06 1.68459e-06 -0.00010933
0.00125625 -3.2363e-06 5.15825e-07
-3.2363e-06 2.9718e-05 6.18661e-07
5.15825e-07 6.18661e-07 -3.6342e-06
0.00121457 3.29132e-06 1.70894e-06
3.29132e-06 3.60296e-05 6.59646e-07
1.70894e-06 6.59646e-07 -1.18256e-06
0.00116713 -4.0916e-06 3.29547e-07
-4.0916e-06 8.82532e-07 1.66255e-06
3.29547e-07 1.66255e-06 -4.07984e-05
0.00124474 -6.07275e-07 3.34041e-07
-6.07275e-07 4.22495e-05 5.1861e-07
3.34041e-07 5.1861e-07 3.78557e-06
0.0012041 3.61663e-06 1.69995e-06
3.61663e-06 4.46203e-05 4.64278e-07
1.69995e-06 4.64278e-07 -1.77182e-06
0.00123425 -2.38695e-06 -2.29995e-07
-2.38695e-06 4.0313e-05 1.38082e-06
-2.29995e-07 1.38082e-06 -3.50593e-06
0.001235 4.40799e-07 1.83168e-07
4.40799e-07 5.22228e-05 2.79903e-07
1.83168e-07 2.79903e-07 6.24168e-06
0.00115586 2.37965e-06 1.11366e-06
2.37965e-06 2.54337e-05 1.96969e-07
1.11366e-06 1.96969e-07 -2.67499e-05
0.0011642 1.96691e-07 -5.27897e-07
1.96691e-07 2.63241e-05 -1.64065e-07
-5.27897e-07 -1.64065e-07 -2.46787e-05
0.00116741 -1.77552e-07 7.96878e-07
-1.77552e-07 3.33052e-05 -1.45874e-07
7.96878e-07 -1.45874e-07 -2.10336e-05
0.00121253 -1.23766e-06 -8.86936e-07
-1.23766e-06 4.27694e-05 7.9992e-07
-8.86936e-07 7.9992e-07 -5.97698e-06
0.00124427 -2.02353e-06 8.9262e-08
-2.02353e-06 6.5438e-05 -1.25979e-07
8.9262e-08 -1.25979e-07 1.43465e-05
0.00123763 -2.30859e-06 2.59673e-07
-2.30859e-06 6.8977e-05 -3.18457e-07
2.59673e-07 -3.18457e-07 1.68106e-05
0.00110487 -2.33602e-06 -7.12018e-07
-2.33602e-06 1.62053e-05 1.73719e-07
-7.12018e-07 1.73719e-07 -3.43266e-05
0.00123907 -3.46642e-06 5.20506e-08
-3.46642e-06 7.10527e-05 -1.47176e-07
5.20506e-08 -1.47176e-07 1.80389e-05
0.00121661 -3.57265e-06 8.6834e-08
-3.57265e-06 5.33817e-05 7.61186e-07
8.6834e-08 7.61186e-07 4.08513e-09
0.00108525 3.19047e-07 -1.03188e-06
3.19047e-07 2.61641e-05 6.37315e-07
-1.03188e-06 6.37315e-07 -1.47458e-05
0.00109879 -2.66004e-06 -1.46159e-07
-2.66004e-06 2.34271e-05 2.44805e-07
-1.46159e-07 2.44805e-07 -2.64463e-05
0.00124909 -4.06158e-06 3.89318e-07
-4.06158e-06 8.74231e-05 -1.04812e-07
3.89318e-07 -1.04812e-07 3.31603e-05
0.00099832 5.45663e-06 -1.67939e-06
5.45663e-06 -7.20638e-06 8.76304e-07
-1.67939e-06 8.76304e-07 -3.03214e-05
0.00107689 1.25736e-06 1.48517e-08
1.25736e-06 2.50358e-05 -1.47846e-08
1.48517e-08 -1.47846e-08 -1.32793e-05
0.00111739 -1.68397e-06 5.44891e-07
-1.68397e-06 3.95297e-05 -4.7501e-07
5.44891e-07 -4.7501e-07 -8.28229e-06
0.000910885 1.09835e-05 -2.41115e-06
1.09835e-05 -4.86507e-05 1.59458e-06
-2.41115e-06 1.59458e-06 -4.66607e-05
0.00102188 5.54473e-06 3.25902e-08
5.54473e-06 1.39112e-06 1.00225e-08
3.25902e-08 1.00225e-08 -1.96261e-05
0.00108516 2.18951e-06 9.88216e-07
2.18951e-06 2.87681e-05 -5.7567e-07
9.88216e-07 -5.7567e-07 -7.25977e-06
0.00222724 1.3014e-05 -2.66812e-06
1.3014e-05 0.000578947 2.52882e-06
-2.66812e-06 2.52882e-06 0.000600599
0.000952744 1.0256e-05 6.00889e-08
1.0256e-05 -3.39543e-05 1.8832e-08
6.00889e-08 1.8832e-08 -3.06486e-05
0.00104545 5.55843e-06 1.55222e-06
5.55843e-06 9.80981e-06 -9.37248e-07
1.55222e-06 -9.37248e-07 -9.59534e-06
0.00215215 1.19789e-05 5.39677e-08
1.19789e-05 0.000537479 3.91923e-08
5.39677e-08 3.91923e-08 0.000560342
0.000983003 9.44859e-06 2.16052e-06
9.44859e-06 -2.49247e-05 -1.76209e-06
2.16052e-06 -1.76209e-06 -2.04536e-05
0.0020978 1.0888e-05 2.39021e-06
1.0888e-05 0.000506342 -2.71013e-06
2.39021e-06 -2.71013e-06 0.00053024
0.00104226 -1.27281e-06 -4.74433e-07
-1.27281e-06 2.43918e-06 -1.3408e-07
-4.74433e-07 -1.3408e-07 -4.28026e-05
0.00116089 -1.69887e-06 7.24799e-08
-1.69887e-06 5.7092e-05 9.52554e-08
7.24799e-08 9.52554e-08 1.45576e-05
0.00098349 -2.8726e-06 -1.11551e-06
-2.8726e-06 -2.71447e-05 -7.82716e-07
-1.11551e-06 -7.82716e-07 -6.17277e-05
0.00106299 -1.43672e-06 6.22815e-07
-1.43672e-06 7.7331e-06 6.66716e-07
6.22815e-07 6.66716e-07 -3.42335e-05
0.00103499 -2.53755e-06 -3.22556e-08
-2.53755e-06 -4.60684e-06 1.34093e-08
-3.22556e-08 1.34093e-08 -3.74164e-05
0.00104418 -4.95396e-06 -1.42282e-06
-4.95396e-06 1.09896e-06 -9.7797e-07
-1.42282e-06 -9.7797e-07 -1.69467e-05
0.00108764 -1.92712e-06 8.72843e-07
-1.92712e-06 1.82483e-05 5.80343e-07
8.72843e-07 5.80343e-07 -1.32623e-05
0.00104084 -4.35429e-06 -1.51077e-08
-4.35429e-06 -3.48485e-06 5.86948e-09
-1.51077e-08 5.86948e-09 -2.06391e-05
0.000981987 -8.2775e-06 -2.009e-06
-8.2775e-06 -3.19654e-05 -1.87669e-06
-2.009e-06 -1.87669e-06 -2.68405e-05
0.00214191 -9.57133e-06 -2.20887e-06
-9.57133e-06 0.000521592 -2.84805e-06
-2.20887e-06 -2.84805e-06 0.000546039
0.000979847 -7.35021e-06 -4.82489e-08
-7.35021e-06 -3.64446e-05 2.61621e-08
-4.82489e-08 2.61621e-08 -3.08437e-05
0.00104461 -3.70768e-06 1.20674e-06
-3.70768e-06 -3.52052e-06 1.15767e-06
1.20674e-06 1.15767e-06 -2.05681e-05
0.00219635 -8.31894e-06 -6.24382e-08
-8.31894e-06 0.000543488 2.98674e-08
-6.24382e-08 2.98674e-08 0.000568245
0.00098073 -6.42576e-06 1.57767e-06
-6.42576e-06 -3.89651e-05 2.20141e-06
1.57767e-06 2.20141e-06 -3.31679e-05
0.00223826 -7.08888e-06 1.67498e-06
-7.08888e-06 0.000559784 3.16516e-06
1.67498e-06 3.16516e-06 0.000584833
0.00619864 1.61601e-06 3.30907e-05
1.61601e-06 0.00178172 2.42092e-06
3.30907e-05 2.42092e-06 0.00174683
-0.00304956 -7.42648e-06 1.15695e-05
-7.42648e-06 -0.000813467 1.13675e-06
1.15695e-05 1.13675e-06 -0.000684883
-8.78654e-05 -1.86367e-05 1.40077e-05
-1.86367e-05 -0.000116463 4.13589e-06
1.40077e-05 4.13589e-06 -0.000103735
0.0011169 2.27539e-06 6.74688e-07
2.27539e-06 3.34889e-05 1.51173e-07
6.74688e-07 1.51173e-07 -1.63664e-05
0.00120637 3.55965e-07 3.9332e-07
3.55965e-07 7.6279e-05 1.77149e-07
3.9332e-07 1.77149e-07 2.87883e-05
0.00115663 2.7022e-06 -9.04063e-08
2.7022e-06 5.17205e-05 -6.24494e-09
-9.04063e-08 -6.24494e-09 6.49546e-07
0.00117018 8.83555e-07 1.00229e-07
8.83555e-07 6.00059e-05 1.3545e-07
1.00229e-07 1.3545e-07 1.09529e-05
0.00114747 7.21232e-07 2.12771e-08
7.21232e-07 5.43074e-05 -2.36524e-07
2.12771e-08 -2.36524e-07 2.93257e-06
0.00115139 2.85822e-06 -1.79753e-07
2.85822e-06 5.25346e-05 1.3837e-07
-1.79753e-07 1.3837e-07 1.23813e-07
0.00108223 3.91974e-06 5.98939e-08
3.91974e-06 1.87477e-05 -2.90627e-07
5.98939e-08 -2.90627e-07 -3.69433e-05
0.00112774 3.80711e-06 2.39622e-07
3.80711e-06 4.41083e-05 1.65527e-07
2.39622e-07 1.65527e-07 -1.14277e-05
0.00113951 5.92578e-06 9.09261e-08
5.92578e-06 5.21637e-05 -1.08282e-07
9.09261e-08 -1.08282e-07 -6.35178e-06
0.00101565 5.8181e-06 2.10305e-07
5.8181e-06 -6.4247e-06 3.43321e-09
2.10305e-07 3.43321e-09 -6.45568e-05
0.00137412 8.81214e-06 2.10065e-07
8.81214e-06 0.000151815 1.90559e-07
2.10065e-07 1.90559e-07 9.12533e-05
0.00143968 1.26506e-05 2.67675e-07
1.26506e-05 0.000159907 -1.00442e-06
2.67675e-07 -1.00442e-06 8.77353e-05
0.00116671 1.03109e-05 -6.17357e-08
1.03109e-05 6.3556e-05 -3.8916e-08
-6.17357e-08 -3.8916e-08 4.46961e-07
0.00113746 6.43802e-06 3.31626e-08
6.43802e-06 5.33749e-05 -4.05096e-07
3.31626e-08 -4.05096e-07 -5.39053e-06
0.00199244 1.04127e-06 -9.08966e-06
1.04127e-06 0.000321616 -1.07485e-07
-9.08966e-06 -1.07485e-07 0.00026214
0.00212956 -2.68884e-05 -3.46133e-06
-2.68884e-05 0.000106977 -5.05559e-06
-3.46133e-06 -5.05559e-06 2.94597e-05
0.00124584 -4.72803e-05 -1.60079e-05
-4.72803e-05 0.000689775 -6.81717e-06
-1.60079e-05 -6.81717e-06 0.000750084
-0.000463825 -4.34334e-05 -5.16881e-05
-4.34334e-05 -0.00101141 -5.66648e-05
-5.16881e-05 -5.66648e-05 -0.00116811
0.00297226 3.62425e-05 2.57167e-06
3.62425e-05 0.000976688 1.0903e-05
2.57167e-06 1.0903e-05 0.000853886
0.00147352 2.98946e-05 -3.07996e-06
2.98946e-05 0.000180843 -6.04368e-07
-3.07996e-06 -6.04368e-07 7.35215e-05
0.00133483 1.21758e-05 1.03406e-06
1.21758e-05 3.87479e-05 2.53059e-07
1.03406e-06 2.53059e-07 -4.23205e-05
0.00100915 2.19584e-05 1.51072e-07
2.19584e-05 -1.26837e-05 4.16877e-07
1.51072e-07 4.16877e-07 -9.42396e-05
0.00104739 1.69582e-05 2.26863e-07
1.69582e-05 4.11875e-05 1.11278e-07
2.26863e-07 1.11278e-07 -3.12471e-05
0.00119498 3.09202e-05 9.83451e-08
3.09202e-05 8.56422e-05 4.73185e-07
9.83451e-08 4.73185e-07 2.75104e-06
0.000771519 -1.72825e-06 -9.1159e-06
-1.72825e-06 -0.000145066 -9.30279e-07
-9.1159e-06 -9.30279e-07 -0.000208942
0.00638938 5.64472e-06 3.91406e-06
5.64472e-06 0.00190864 -5.9375e-06
3.91406e-06 -5.9375e-06 0.00189932
-0.00596535 1.07429e-06 -6.60403e-05
1.07429e-06 -0.00256668 -1.27074e-06
-6.60403e-05 -1.27074e-06 -0.00241964
0.00121029 -2.58841e-05 5.08467e-06
-2.58841e-05 -5.40461e-05 -3.06733e-07
5.08467e-06 -3.06733e-07 -0.000143781
0.00256359 -2.83568e-05 1.23519e-05
-2.83568e-05 0.00053312 -5.75034e-06
1.23519e-05 -5.75034e-06 0.000435286
0.00115186 -6.71114e-06 -2.14093e-05
-6.71114e-06 6.17048e-06 2.59442e-06
-2.14093e-05 2.59442e-06 1.21604e-05
0.00159286 -1.603e-05 -1.54404e-06
-1.603e-05 8.86877e-05 -9.56598e-08
-1.54404e-06 -9.56598e-08 3.72354e-05
0.00111265 3.08148e-06 -8.66266e-07
3.08148e-06 1.48183e-05 -5.40732e-08
-8.66266e-07 -5.40732e-08 -5.37543e-05
0.00148758 3.75033e-06 -1.93619e-07
3.75033e-06 0.00015727 2.06521e-06
-1.93619e-07 2.06521e-06 0.000110778
0.000567042 1.76377e-05 1.43934e-06
1.76377e-05 -5.55859e-05 -2.01356e-06
1.43934e-06 -2.01356e-06 -0.000133928
0.00106072 -1.11978e-05 2.00677e-06
-1.11978e-05 -8.81003e-05 1.23939e-06
2.00677e-06 1.23939e-06 -0.000130009
0.00132452 -1.90925e-07 1.24399e-06
-1.90925e-07 6.58368e-05 7.95187e-07
1.24399e-06 7.95187e-07 3.41337e-05
0.00117756 9.54116e-06 1.44509e-06
9.54116e-06 5.48919e-05 1.37397e-06
1.44509e-06 1.37397e-06 7.95453e-06
0.00120551 -3.19281e-06 4.65482e-07
-3.19281e-06 7.98173e-06 1.74989e-06
4.65482e-07 1.74989e-06 -2.58216e-05
0.00126101 3.16858e-06 1.75403e-07
3.16858e-06 6.00824e-05 4.09339e-07
1.75403e-07 4.09339e-07 2.19462e-05
0.00123375 8.19852e-06 1.28738e-06
8.19852e-06 7.71188e-05 5.563e-07
1.28738e-06 5.563e-07 2.53486e-05
0.0012657 -6.66362e-07 -5.85514e-07
-6.66362e-07 5.36025e-05 9.84572e-07
-5.85514e-07 9.84572e-07 1.45141e-05
0.00123742 3.58113e-06 3.33423e-08
3.58113e-06 6.1386e-05 1.68272e-08
3.33423e-08 1.68272e-08 1.4601e-05
0.00116227 5.26801e-06 1.01668e-06
5.26801e-06 3.69494e-05 1.70437e-07
1.01668e-06 1.70437e-07 -1.85437e-05
0.00127395 3.85289e-07 -1.2161e-06
3.85289e-07 7.17479e-05 4.09326e-07
-1.2161e-06 4.09326e-07 2.52455e-05
0.00121469 2.1831e-06 -3.12121e-07
2.1831e-06 5.37561e-05 -2.0498e-07
-3.12121e-07 -2.0498e-07 1.66682e-06
0.00120164 1.64408e-06 9.27288e-07
1.64408e-06 5.28301e-05 3.29269e-07
9.27288e-07 3.29269e-07 -4.75233e-06
0.00120449 -1.45928e-07 -1.72103e-06
-1.45928e-07 4.56476e-05 -4.29683e-07
-1.72103e-06 -4.29683e-07 -5.35242e-06
0.00116238 -2.08133e-07 -5.68979e-08
-2.08133e-07 3.05952e-05 -2.02037e-07
-5.68979e-08 -2.02037e-07 -2.34574e-05
0.00117764 -1.04366e-06 3.62293e-07
-1.04366e-06 4.41126e-05 -1.23388e-07
3.62293e-07 -1.23388e-07 -1.0764e-05
0.00124984 -1.99817e-06 -4.20181e-07
-1.99817e-06 6.71652e-05 4.63938e-07
-4.20181e-07 4.63938e-07 1.61634e-05
0.00123239 -2.29418e-06 8.23059e-08
-2.29418e-06 6.59672e-05 -1.26265e-07
8.23059e-08 -1.26265e-07 1.384e-05
0.00119041 -1.31615e-06 -1.86889e-07
-1.31615e-06 5.53568e-05 -1.24643e-07
-1.86889e-07 -1.24643e-07 4.977e-06
0.000988922 4.35327e-07 -1.33625e-06
4.35327e-07 -2.6244e-05 6.62531e-07
-1.33625e-06 6.62531e-07 -6.99011e-05
0.00116046 -2.38399e-06 -1.57547e-07
-2.38399e-06 4.34205e-05 1.20922e-07
-1.57547e-07 1.20922e-07 -6.69903e-06
0.0012323 -3.47267e-06 3.13154e-07
-3.47267e-06 6.80648e-05 1.73379e-07
3.13154e-07 1.73379e-07 1.49216e-05
0.000999754 5.25925e-06 -1.75215e-06
5.25925e-06 -5.80855e-06 9.01208e-07
-1.75215e-06 9.01208e-07 -3.16938e-05
0.00108239 3.58267e-07 3.12357e-08
3.58267e-07 2.46916e-05 4.74058e-08
3.12357e-08 4.74058e-08 -1.61705e-05
0.00114398 -2.65933e-06 4.80129e-07
-2.65933e-06 4.55581e-05 -1.04485e-07
4.80129e-07 -1.04485e-07 -3.96191e-06
0.000892705 1.15881e-05 -2.58004e-06
1.15881e-05 -5.22319e-05 1.48994e-06
-2.58004e-06 1.48994e-06 -5.1978e-05
0.00101673 5.42185e-06 2.32398e-08
5.42185e-06 1.20285e-06 -1.38422e-08
2.32398e-08 -1.38422e-08 -2.19676e-05
0.001086 1.09968e-06 9.97627e-07
1.09968e-06 2.89229e-05 -6.34785e-07
9.97627e-07 -6.34785e-07 -9.38422e-06
0.00226434 1.40664e-05 -2.87829e-06
1.40664e-05 0.000603152 2.4162e-06
-2.87829e-06 2.4162e-06 0.000623555
0.000940699 1.09058e-05 5.93918e-08
1.09058e-05 -3.45885e-05 2.03311e-08
5.93918e-08 2.03311e-08 -3.27425e-05
0.00103873 5.51593e-06 1.65687e-06
5.51593e-06 9.14197e-06 -8.79372e-07
1.65687e-06 -8.79372e-07 -1.19175e-05
0.00217079 1.30861e-05 5.33328e-08
1.30861e-05 0.0005526 4.56523e-08
5.33328e-08 4.56523e-08 0.000574365
0.000978607 1.01909e-05 2.3367e-06
1.01909e-05 -2.17039e-05 -1.6496e-06
2.3367e-06 -1.6496e-06 -1.8531e-05
0.00209897 1.20484e-05 2.59701e-06
1.20484e-05 0.000512691 -2.6092e-06
2.59701e-06 -2.6092e-06 0.000535671
0.00111905 -4.51977e-07 -4.52872e-07
-4.51977e-07 4.26675e-05 -4.08334e-07
-4.52872e-07 -4.08334e-07 -3.99172e-06
0.00113476 -1.27554e-06 -5.20619e-11
-1.27554e-06 4.68535e-05 1.98181e-08
-5.20619e-11 1.98181e-08 2.29035e-06
0.000967546 -3.0322e-06 -1.10183e-06
-3.0322e-06 -3.0827e-05 -7.08019e-07
-1.10183e-06 -7.08019e-07 -6.7474e-05
0.00116246 -1.70848e-06 5.77266e-07
-1.70848e-06 5.81139e-05 3.22372e-07
5.77266e-07 3.22372e-07 1.55516e-05
0.000966912 -2.86363e-06 -2.02316e-07
-2.86363e-06 -3.43932e-05 -2.73164e-07
-2.02316e-07 -2.73164e-07 -6.91898e-05
0.00104021 -5.43095e-06 -1.51103e-06
-5.43095e-06 2.84586e-06 -8.80506e-07
-1.51103e-06 -8.80506e-07 -1.66335e-05
0.000963909 -2.55213e-06 8.05171e-07
-2.55213e-06 -3.85295e-05 6.0861e-07
8.05171e-07 6.0861e-07 -7.18384e-05
0.00103602 -4.97026e-06 -3.01009e-08
-4.97026e-06 -2.75838e-06 1.07094e-08
-3.01009e-08 1.07094e-08 -2.07585e-05
0.000977486 -9.21405e-06 -2.15732e-06
-9.21405e-06 -2.99932e-05 -1.75322e-06
-2.15732e-06 -1.75322e-06 -2.5712e-05
0.00103726 -4.35777e-06 1.3135e-06
-4.35777e-06 -5.20355e-06 1.0599e-06
1.3135e-06 1.0599e-06 -2.2338e-05
0.000971294 -8.30426e-06 -4.43285e-08
-8.30426e-06 -3.71698e-05 2.27682e-08
-4.43285e-08 2.27682e-08 -3.19737e-05
0.00213227 -1.07728e-05 -2.40334e-06
-1.07728e-05 0.000521361 -2.72507e-06
-2.40334e-06 -2.72507e-06 0.000545203
0.00219096 -9.50076e-06 -5.97204e-08
-9.50076e-06 0.000544714 3.4055e-08
-5.97204e-08 3.4055e-08 0.000568982
0.000971831 -7.36814e-06 1.75177e-06
-7.36814e-06 -4.03176e-05 2.06865e-06
1.75177e-06 2.06865e-06 -3.46783e-05
0.00223898 -8.25552e-06 1.89793e-06
-8.25552e-06 0.000563561 3.04193e-06
1.89793e-06 3.04193e-06 0.000588157
0.00266801 -1.02267e-05 -8.03583e-06
-1.02267e-05 0.00067841 -2.58933e-06
-8.03583e-06 -2.58933e-06 0.000643683
-0.00154567 -3.96487e-06 -1.11065e-05
-3.96487e-06 -0.0014687 -4.84708e-06
-1.11065e-05 -4.84708e-06 -0.00145278
0.00214425 -2.44073e-05 -2.31496e-05
-2.44073e-05 0.00105653 -4.71046e-06
-2.31496e-05 -4.71046e-06 0.00115849
0.00121509 1.80439e-06 3.87432e-07
1.80439e-06 8.67477e-05 1.84175e-07
3.87432e-07 1.84175e-07 3.37005e-05
0.00119026 2.64818e-06 1.99657e-07
2.64818e-06 6.76468e-05 -1.01693e-07
1.99657e-07 -1.01693e-07 1.68131e-05
0.00120196 1.09262e-06 2.71448e-07
1.09262e-06 7.51575e-05 8.14136e-08
2.71448e-07 8.14136e-08 2.64432e-05
0.00114968 2.85705e-06 4.42543e-09
2.85705e-06 5.11002e-05 3.98295e-08
4.42543e-09 3.98295e-08 -1.5687e-06
0.00114025 1.17452e-06 -1.33654e-07
1.17452e-06 5.12846e-05 -3.34675e-07
-1.33654e-07 -3.34675e-07 -1.78207e-07
0.00112401 3.69696e-06 -1.19309e-07
3.69696e-06 4.54114e-05 -8.4687e-08
-1.19309e-07 -8.4687e-08 -9.69221e-06
0.00116737 3.71778e-06 4.49919e-07
3.71778e-06 6.25169e-05 -1.2331e-07
4.49919e-07 -1.2331e-07 6.84523e-06
0.00110305 5.95527e-06 -3.69632e-07
5.95527e-06 3.63729e-05 -3.66094e-07
-3.69632e-07 -3.66094e-07 -2.2377e-05
0.00113694 5.89497e-06 -5.19678e-08
5.89497e-06 5.03266e-05 1.74309e-08
-5.19678e-08 1.74309e-08 -7.38126e-06
0.00127544 8.51103e-06 1.03685e-07
8.51103e-06 0.000110323 4.30316e-07
1.03685e-07 4.30316e-07 5.05707e-05
0.00123876 9.49545e-06 1.63609e-07
9.49545e-06 7.88683e-05 -9.02946e-07
1.63609e-07 -9.02946e-07 1.35063e-05
0.00125401 7.24554e-06 -1.4197e-06
7.24554e-06 2.35093e-05 2.17203e-07
-1.4197e-06 2.17203e-07 -5.26164e-05
0.00133645 1.26431e-05 3.25017e-07
1.26431e-05 0.000115807 5.76789e-07
3.25017e-07 5.76789e-07 4.38162e-05
0.00109095 1.01927e-05 -2.53176e-07
1.01927e-05 3.01644e-05 6.39771e-07
-2.53176e-07 6.39771e-07 -3.27324e-05
0.00151577 -1.64551e-05 -1.40498e-06
-1.64551e-05 5.95775e-05 6.21975e-06
-1.40498e-06 6.21975e-06 7.42769e-06
0.00154124 4.53655e-06 -5.2639e-07
4.53655e-06 5.49305e-05 9.32891e-07
-5.2639e-07 9.32891e-07 -1.75072e-05
-0.000615996 -1.81643e-05 -8.44271e-05
-1.81643e-05 -0.000870928 -5.20705e-05
-8.44271e-05 -5.20705e-05 -0.000913339
0.00180983 3.30812e-05 5.57825e-06
3.30812e-05 0.000229913 1.11736e-05
5.57825e-06 1.11736e-05 0.000107736
0.00136433 1.24578e-05 -1.35474e-07
1.24578e-05 4.44261e-05 -1.58371e-07
-1.35474e-07 -1.58371e-07 -3.96251e-05
0.0008288 2.25548e-05 4.87699e-07
2.25548e-05 -0.000102641 2.76334e-06
4.87699e-07 2.76334e-06 -0.000185251
0.000869683 -4.12394e-07 3.73673e-07
-4.12394e-07 7.77539e-05 -4.61553e-06
3.73673e-07 -4.61553e-06 2.7174e-05
0.00176456 3.49698e-06 -1.45734e-06
3.49698e-06 0.00042258 6.99764e-07
-1.45734e-06 6.99764e-07 0.000364534
-0.00154434 1.12166e-05 -6.3686e-05
1.12166e-05 -0.00143301 -7.75345e-06
-6.3686e-05 -7.75345e-06 -0.00139843
0.00133957 -1.5674e-05 3.09088e-06
-1.5674e-05 -1.75665e-05 3.00422e-07
3.09088e-06 3.00422e-07 -6.98911e-05
0.00141944 -2.88707e-07 4.95276e-06
-2.88707e-07 0.000109874 1.42506e-06
4.95276e-06 1.42506e-06 3.45964e-05
0.00147729 3.81339e-06 7.23232e-07
3.81339e-06 0.000157253 5.31089e-07
7.23232e-07 5.31089e-07 0.000110565
0.000878786 1.77168e-05 1.56995e-07
1.77168e-05 8.26293e-05 -8.05848e-07
1.56995e-07 -8.05848e-07 6.35092e-06
0.000944028 1.59262e-05 7.08443e-07
1.59262e-05 2.52463e-05 2.80879e-07
7.08443e-07 2.80879e-07 -4.33743e-05
0.000675884 1.13129e-05 4.59545e-07
1.13129e-05 -2.61673e-05 -2.1504e-06
4.59545e-07 -2.1504e-06 -9.7209e-05
0.00128065 -1.31992e-07 1.00287e-06
-1.31992e-07 4.91747e-05 1.10598e-06
1.00287e-06 1.10598e-06 1.68257e-05
0.00125343 9.40337e-06 -2.34487e-07
9.40337e-06 9.34369e-05 -8.94918e-08
-2.34487e-07 -8.94918e-08 4.56625e-05
0.00120276 1.34034e-05 6.41192e-07
1.34034e-05 9.99773e-05 3.28726e-07
6.41192e-07 3.28726e-07 3.60958e-05
0.00130333 3.05667e-06 -1.30916e-06
3.05667e-06 8.21673e-05 1.02093e-07
-1.30916e-06 1.02093e-07 4.31252e-05
0.00122764 8.20217e-06 -1.9206e-07
8.20217e-06 7.50685e-05 -2.06775e-07
-1.9206e-07 -2.06775e-07 2.32533e-05
0.00121561 8.99518e-06 8.57045e-07
8.99518e-06 7.70576e-05 1.7592e-07
8.57045e-07 1.7592e-07 1.72094e-05
0.00126657 3.54863e-06 -1.73408e-06
3.54863e-06 7.61707e-05 -1.85995e-07
-1.73408e-06 -1.85995e-07 2.90056e-05
0.0012138 5.14227e-06 -2.8734e-07
5.14227e-06 6.09689e-05 -2.25166e-07
-2.8734e-07 -2.25166e-07 5.73667e-06
0.00117895 3.72231e-06 7.88988e-07
3.72231e-06 4.71334e-05 1.31547e-07
7.88988e-07 1.31547e-07 -1.33843e-05
0.00127103 2.00001e-06 -1.89021e-06
2.00001e-06 8.08979e-05 -4.3957e-07
-1.89021e-06 -4.3957e-07 2.89094e-05
0.00121197 1.73528e-06 4.32145e-08
1.73528e-06 5.73638e-05 8.22911e-08
4.32145e-08 8.22911e-08 -1.84995e-07
0.00119895 6.37622e-07 3.73003e-07
6.37622e-07 5.64098e-05 2.82015e-07
3.73003e-07 2.82015e-07 -1.88756e-06
0.00115763 -2.49283e-07 -9.81194e-07
-2.49283e-07 2.80259e-05 -3.48169e-07
-9.81194e-07 -3.48169e-07 -2.57417e-05
0.0011493 -8.79237e-07 6.47227e-08
-8.79237e-07 2.99173e-05 -1.87623e-07
6.47227e-08 -1.87623e-07 -2.49622e-05
0.00111721 -8.72885e-08 -1.71022e-07
-8.72885e-08 2.22364e-05 6.99104e-08
-1.71022e-07 6.99104e-08 -3.09853e-05
0.00122761 -2.27992e-06 9.40301e-09
-2.27992e-06 6.31679e-05 2.31029e-07
9.40301e-09 2.31029e-07 1.10795e-05
0.00115809 -1.23e-06 1.03044e-07
-1.23e-06 3.92034e-05 -1.18377e-07
1.03044e-07 -1.18377e-07 -1.14167e-05
0.00107061 1.04129e-06 -9.57538e-07
1.04129e-06 1.05562e-05 2.6576e-07
-9.57538e-07 2.6576e-07 -3.43476e-05
0.0010069 5.13899e-06 -1.85222e-06
5.13899e-06 -3.64717e-06 8.2126e-07
-1.85222e-06 8.2126e-07 -3.24436e-05
0.00105591 4.08703e-07 -2.49992e-07
4.08703e-07 6.06832e-06 2.68269e-07
-2.49992e-07 2.68269e-07 -3.70459e-05
0.00121691 -2.42976e-06 4.3671e-07
-2.42976e-06 7.10331e-05 5.67625e-08
4.3671e-07 5.67625e-08 2.13259e-05
0.000876051 1.21298e-05 -2.75018e-06
1.21298e-05 -5.5526e-05 1.44009e-06
-2.75018e-06 1.44009e-06 -5.75134e-05
0.00101333 5.23529e-06 4.71512e-08
5.23529e-06 3.76607e-07 9.36384e-09
4.71512e-08 9.36384e-09 -2.55417e-05
0.00108018 4.03434e-07 1.06146e-06
4.03434e-07 2.35108e-05 -5.19871e-07
1.06146e-06 -5.19871e-07 -1.73032e-05
0.00231412 1.50902e-05 -3.08643e-06
1.50902e-05 0.000633636 2.29547e-06
-3.08643e-06 2.29547e-06 0.000652658
0.000927595 1.14904e-05 5.47103e-08
1.14904e-05 -3.58642e-05 2.20334e-09
5.47103e-08 2.20334e-09 -3.57841e-05
0.0010353 5.38635e-06 1.70973e-06
5.38635e-06 9.69004e-06 -8.94856e-07
1.70973e-06 -8.94856e-07 -1.35362e-05
0.0022025 1.41498e-05 5.05381e-08
1.41498e-05 0.00057421 5.09403e-08
5.05381e-08 5.09403e-08 0.000594738
0.00097023 1.08284e-05 2.51287e-06
1.08284e-05 -2.06494e-05 -1.53182e-06
2.51287e-06 -1.53182e-06 -1.89481e-05
0.00211438 1.31584e-05 2.81165e-06
1.31584e-05 0.000526252 -2.50382e-06
2.81165e-06 -2.50382e-06 0.000548131
0.00111102 3.61261e-07 -3.85291e-07
3.61261e-07 3.98417e-05 -2.78579e-07
-3.85291e-07 -2.78579e-07 -9.00424e-06
0.00111474 -6.16722e-07 -5.27987e-08
-6.16722e-07 4.10157e-05 -1.93921e-07
-5.27987e-08 -1.93921e-07 -5.67324e-06
0.00108554 -3.03994e-06 -8.50536e-07
-3.03994e-06 2.93855e-05 -4.36302e-07
-8.50536e-07 -4.36302e-07 -8.60349e-06
0.00122768 -1.20184e-06 4.63411e-07
-1.20184e-06 9.14779e-05 1.21068e-07
4.63411e-07 1.21068e-07 4.75905e-05
0.00101495 -2.99734e-06 -2.16468e-07
-2.99734e-06 -7.63145e-06 -2.5044e-07
-2.16468e-07 -2.5044e-07 -4.39463e-05
0.00103558 -5.76602e-06 -1.56636e-06
-5.76602e-06 4.85506e-06 -7.93502e-07
-1.56636e-06 -7.93502e-07 -1.64648e-05
0.000950349 -2.85461e-06 6.79205e-07
-2.85461e-06 -4.16379e-05 2.50043e-07
6.79205e-07 2.50043e-07 -7.66475e-05
0.00102995 -5.44907e-06 -3.35758e-08
-5.44907e-06 -1.97589e-06 1.85045e-08
-3.35758e-08 1.85045e-08 -2.14129e-05
0.000971124 -1.01046e-05 -2.31417e-06
-1.01046e-05 -2.80957e-05 -1.62243e-06
-2.31417e-06 -1.62243e-06 -2.50825e-05
0.00102788 -4.98646e-06 1.36688e-06
-4.98646e-06 -6.60257e-06 9.99434e-07
1.36688e-06 9.99434e-07 -2.45576e-05
0.000962175 -9.25667e-06 -4.56044e-08
-9.25667e-06 -3.7392e-05 1.8012e-08
-4.56044e-08 1.8012e-08 -3.30029e-05
0.00212917 -1.19701e-05 -2.59844e-06
-1.19701e-05 0.000525081 -2.61004e-06
-2.59844e-06 -2.61004e-06 0.000548101
0.000960412 -8.33167e-06 1.92054e-06
-8.33167e-06 -4.2457e-05 1.93132e-06
1.92054e-06 1.93132e-06 -3.71901e-05
0.00218901 -1.06909e-05 -5.61106e-08
-1.06909e-05 0.000548072 3.81062e-08
-5.61106e-08 3.81062e-08 0.000571728
0.00224045 -9.42882e-06 2.10347e-06
-9.42882e-06 0.000568033 2.91365e-06
2.10347e-06 2.91365e-06 0.000592122
0.00131489 -2.60425e-05 2.46442e-07
-2.60425e-05 8.59183e-05 -4.49853e-07
2.46442e-07 -4.49853e-07 6.13003e-05
0.000620212 -1.15927e-05 2.44529e-08
-1.15927e-05 -0.000372883 7.1234e-08
2.44529e-08 7.1234e-08 -0.000418351
0.00612555 -8.90093e-06 -7.88546e-05
-8.90093e-06 0.00172593 -2.5974e-05
-7.88546e-05 -2.5974e-05 0.00170372
0.00109986 3.13542e-06 2.03581e-07
3.13542e-06 3.02949e-05 2.7238e-07
2.03581e-07 2.7238e-07 -2.49769e-05
0.00122911 3.61266e-06 1.72639e-07
3.61266e-06 8.19325e-05 -2.56691e-07
1.72639e-07 -2.56691e-07 2.6407e-05
0.00113405 2.17137e-06 1.27833e-07
2.17137e-06 4.99165e-05 1.45239e-07
1.27833e-07 1.45239e-07 -3.49008e-06
0.00114645 2.85591e-06 1.85151e-07
2.85591e-06 4.89273e-05 -1.3914e-07
1.85151e-07 -1.3914e-07 -3.99346e-06
0.0011335 1.63094e-06 -1.00475e-07
1.63094e-06 4.84958e-05 -2.52982e-07
-1.00475e-07 -2.52982e-07 -3.05739e-06
0.00112316 3.8594e-06 1.42122e-09
3.8594e-06 4.39267e-05 -4.86841e-08
1.42122e-09 -4.86841e-08 -1.15886e-05
0.00119656 6.65169e-06 -1.18014e-07
6.65169e-06 6.10695e-05 -6.05564e-07
-1.18014e-07 -6.05564e-07 -2.64083e-06
0.00125603 5.97602e-06 4.36337e-08
5.97602e-06 0.000106084 7.55492e-08
4.36337e-08 7.55492e-08 4.87999e-05
0.00117209 8.21748e-06 -7.59429e-07
8.21748e-06 6.66999e-05 3.70228e-07
-7.59429e-07 3.70228e-07 7.75855e-06
0.00118791 9.34004e-06 -5.21199e-08
9.34004e-06 5.47019e-05 9.84045e-09
-5.21199e-08 9.84045e-09 -1.07977e-05
0.00109187 6.10276e-06 1.49116e-07
6.10276e-06 -2.39291e-05 -4.28495e-07
1.49116e-07 -4.28495e-07 -9.68935e-05
0.00133352 -1.3031e-05 -3.92781e-07
-1.3031e-05 5.0337e-05 5.09019e-06
-3.92781e-07 5.09019e-06 -9.26486e-08
0.00138059 7.00335e-06 -3.50828e-07
7.00335e-06 8.38227e-05 4.21793e-07
-3.50828e-07 4.21793e-07 8.74567e-06
0.00122008 1.26306e-05 1.11384e-08
1.26306e-05 6.57389e-05 1.87712e-06
1.11384e-08 1.87712e-06 -6.0727e-06
0.00161865 -1.53698e-05 2.31759e-09
-1.53698e-05 0.000110228 1.63584e-06
2.31759e-09 1.63584e-06 5.76701e-05
-3.11872e-05 1.68772e-06 1.09394e-05
1.68772e-06 -0.000698354 3.08909e-06
1.09394e-05 3.08909e-06 -0.000768318
0.00139575 1.27713e-05 -5.89932e-07
1.27713e-05 5.16813e-05 -1.71865e-07
-5.89932e-07 -1.71865e-07 -3.53896e-05
0.000694049 -9.09737e-06 1.09086e-06
-9.09737e-06 -3.06211e-05 -1.48058e-06
1.09086e-06 -1.48058e-06 -6.97061e-05
0.00064671 -3.65701e-07 -3.00766e-07
-3.65701e-07 -2.71808e-05 -1.2287e-06
-3.00766e-07 -1.2287e-06 -7.72805e-05
0.000254584 8.33517e-06 7.55162e-06
8.33517e-06 -0.000380919 3.30121e-06
7.55162e-06 3.30121e-06 -0.00043855
0.00144278 3.95116e-06 7.84934e-07
3.95116e-06 0.000145185 2.24931e-07
7.84934e-07 2.24931e-07 9.84545e-05
0.00116653 1.77709e-05 -1.62426e-06
1.77709e-05 0.000210457 2.73132e-07
-1.62426e-06 2.73132e-07 0.000136248
0.00112872 1.61339e-05 -6.50227e-07
1.61339e-05 0.000106096 -7.4605e-07
-6.50227e-07 -7.4605e-07 3.78652e-05
0.000908155 1.12007e-05 -7.97634e-08
1.12007e-05 7.89675e-05 1.04679e-06
-7.97634e-08 1.04679e-06 1.00537e-05
0.00104493 1.47182e-05 3.9701e-07
1.47182e-05 8.58047e-05 -2.03241e-06
3.9701e-07 -2.03241e-06 1.44903e-05
0.00138144 8.45315e-06 5.63817e-07
8.45315e-06 0.000293156 -1.06777e-06
5.63817e-07 -1.06777e-06 0.00023808
0.00132084 9.27112e-06 -2.12363e-06
9.27112e-06 0.000127995 -1.16709e-06
-2.12363e-06 -1.16709e-06 7.94076e-05
0.00116992 1.34164e-05 -8.27933e-08
1.34164e-05 8.32671e-05 -5.50112e-07
-8.27933e-08 -5.50112e-07 2.02556e-05
0.00121371 1.31909e-05 3.4124e-08
1.31909e-05 0.000103838 -5.3379e-07
3.4124e-08 -5.3379e-07 3.79768e-05
0.00121711 8.20948e-06 -1.77148e-06
8.20948e-06 7.09227e-05 -7.65834e-07
-1.77148e-06 -7.65834e-07 1.90721e-05
0.00120642 8.96721e-06 -6.73625e-08
8.96721e-06 7.23312e-05 -2.3331e-07
-6.73625e-08 -2.3331e-07 1.26545e-05
0.0011284 6.63944e-06 5.05462e-07
6.63944e-06 3.78376e-05 -8.55913e-09
5.05462e-07 -8.55913e-09 -2.42781e-05
0.00126516 5.01595e-06 -1.75902e-06
5.01595e-06 8.49067e-05 -4.15301e-07
-1.75902e-06 -4.15301e-07 2.99348e-05
0.00120288 3.86345e-06 3.55303e-08
3.86345e-06 5.77632e-05 7.15558e-08
3.55303e-08 7.15558e-08 -2.76404e-06
0.0011888 2.51081e-06 3.03425e-07
2.51081e-06 5.49601e-05 8.29858e-08
3.03425e-07 8.29858e-08 -5.83047e-06
0.00122292 1.83087e-06 -7.92977e-07
1.83087e-06 6.21764e-05 -1.48987e-07
-7.92977e-07 -1.48987e-07 4.66202e-06
0.00119366 7.5717e-07 2.37277e-08
7.5717e-07 5.37644e-05 9.03798e-08
2.37277e-08 9.03798e-08 -4.50606e-06
0.0011676 9.65127e-07 -5.66912e-08
9.65127e-07 4.84866e-05 2.65404e-07
-5.66912e-08 2.65404e-07 -7.90085e-06
0.00112053 -7.88005e-07 -2.84373e-07
-7.88005e-07 1.55205e-05 -3.37843e-07
-2.84373e-07 -3.37843e-07 -3.93611e-05
0.00111831 -2.17149e-08 -4.04116e-08
-2.17149e-08 2.22049e-05 -4.07847e-08
-4.04116e-08 -4.07847e-08 -3.09992e-05
0.00110781 1.94841e-06 -8.25088e-07
1.94841e-06 2.91785e-05 2.68438e-07
-8.25088e-07 2.68438e-07 -1.8374e-05
0.00112386 -1.15146e-06 4.9119e-07
-1.15146e-06 2.21942e-05 -5.01866e-08
4.9119e-07 -5.01866e-08 -2.86676e-05
0.00103119 1.09412e-06 -4.23244e-08
1.09412e-06 -8.53282e-06 1.60152e-08
-4.23244e-08 1.60152e-08 -5.36458e-05
0.00100985 5.25869e-06 -1.88999e-06
5.25869e-06 -2.36865e-06 6.70498e-07
-1.88999e-06 6.70498e-07 -3.41984e-05
0.000933901 1.25895e-05 -2.95963e-06
1.25895e-05 -2.42845e-05 1.37549e-06
-2.95963e-06 1.37549e-06 -2.88764e-05
0.001013 5.13999e-06 4.59416e-08
5.13999e-06 -9.13508e-07 3.39566e-08
4.59416e-08 3.39566e-08 -2.97001e-05
0.00112077 3.80091e-07 8.49034e-07
3.80091e-07 3.74246e-05 -1.32102e-07
8.49034e-07 -1.32102e-07 -5.148e-06
0.00238249 1.6075e-05 -3.30497e-06
1.6075e-05 0.000673125 2.18461e-06
-3.30497e-06 2.18461e-06 0.000690571
0.000913159 1.20156e-05 7.73278e-08
1.20156e-05 -3.81918e-05 -3.25973e-09
7.73278e-08 -3.25973e-09 -4.03723e-05
0.00102749 5.21104e-06 1.78953e-06
5.21104e-06 6.82577e-06 -8.45861e-07
1.78953e-06 -8.45861e-07 -1.91258e-05
0.00224772 1.51823e-05 4.36397e-08
1.51823e-05 0.000602478 5.26927e-08
4.36397e-08 5.26927e-08 0.000621619
0.000962329 1.13929e-05 2.66785e-06
1.13929e-05 -1.95626e-05 -1.4616e-06
2.66785e-06 -1.4616e-06 -1.96569e-05
0.00214062 1.42339e-05 3.02636e-06
1.42339e-05 0.000545232 -2.3862e-06
3.02636e-06 -2.3862e-06 0.000565887
0.00103764 1.24397e-06 -4.0392e-07
1.24397e-06 7.52441e-07 -3.68667e-07
-4.0392e-07 -3.68667e-07 -5.09828e-05
0.00105956 3.04135e-07 -1.90458e-08
3.04135e-07 1.55014e-05 -3.95396e-09
-1.90458e-08 -3.95396e-09 -3.37962e-05
0.00109281 -2.76797e-06 -8.89377e-07
-2.76797e-06 3.33487e-05 -4.15025e-07
-8.89377e-07 -4.15025e-07 -7.0661e-06
0.00111004 -7.82505e-07 2.9448e-07
-7.82505e-07 3.91728e-05 -2.17323e-08
2.9448e-07 -2.17323e-08 -7.54406e-06
0.0010734 -3.02347e-06 9.44286e-09
-3.02347e-06 2.38945e-05 -2.21189e-08
9.44286e-09 -2.21189e-08 -1.40953e-05
0.00103282 -5.94655e-06 -1.62668e-06
-5.94655e-06 7.77741e-06 -7.46759e-07
-1.62668e-06 -7.46759e-07 -1.57608e-05
0.00106174 -2.964e-06 7.11429e-07
-2.964e-06 1.52647e-05 1.78084e-07
7.11429e-07 1.78084e-07 -2.0716e-05
0.00102267 -5.78703e-06 -2.58931e-08
-5.78703e-06 -1.13382e-06 1.15688e-08
-2.58931e-08 1.15688e-08 -2.24172e-05
0.000962904 -1.09127e-05 -2.4657e-06
-1.09127e-05 -2.62289e-05 -1.49928e-06
-2.4657e-06 -1.49928e-06 -2.48574e-05
0.00101978 -5.46689e-06 1.46117e-06
-5.46689e-06 -6.75967e-06 9.31597e-07
1.46117e-06 9.31597e-07 -2.61547e-05
0.000951568 -1.01607e-05 -5.38097e-08
-1.01607e-05 -3.74714e-05 1.9497e-08
-5.38097e-08 1.9497e-08 -3.43302e-05
0.00213533 -1.31354e-05 -2.79999e-06
-1.31354e-05 0.000534277 -2.49357e-06
-2.79999e-06 -2.49357e-06 0.000556218
0.000946639 -9.29991e-06 2.07036e-06
-9.29991e-06 -4.48887e-05 1.80186e-06
2.07036e-06 1.80186e-06 -4.03923e-05
0.00219285 -1.18804e-05 -5.22958e-08
-1.18804e-05 0.00055496 4.20301e-08
-5.22958e-08 4.20301e-08 0.000577808
0.00224618 -1.06078e-05 2.29974e-06
-1.06078e-05 0.000574978 2.78401e-06
2.29974e-06 2.78401e-06 0.000598448
0.00121631 -2.49622e-05 1.58558e-06
-2.49622e-05 8.15865e-05 8.82078e-07
1.58558e-06 8.82078e-07 5.53646e-05
0.00127435 -2.53175e-05 1.00989e-06
-2.53175e-05 7.57749e-05 -2.86456e-06
1.00989e-06 -2.86456e-06 5.00538e-05
0.00163802 -1.16546e-05 1.01963e-05
-1.16546e-05 0.000246612 1.46322e-06
1.01963e-05 1.46322e-06 0.000215664
0.00124824 4.64684e-06 1.22475e-07
4.64684e-06 8.30342e-05 -3.72739e-07
1.22475e-07 -3.72739e-07 2.4305e-05
0.0011029 3.1975e-06 6.58393e-08
3.1975e-06 3.40522e-05 2.71778e-07
6.58393e-08 2.71778e-07 -2.07966e-05
0.00101357 4.24265e-06 -4.16149e-07
4.24265e-06 -2.74035e-05 -3.01768e-07
-4.16149e-07 -3.01768e-07 -8.70836e-05
0.00121055 3.6009e-06 1.243e-08
3.6009e-06 7.3243e-05 1.35983e-08
1.243e-08 1.35983e-08 1.757e-05
0.00105253 2.5367e-06 -7.01407e-08
2.5367e-06 1.28621e-05 4.59825e-07
-7.01407e-08 4.59825e-07 -4.09036e-05
0.00124402 5.45117e-06 -2.08889e-07
5.45117e-06 5.94405e-05 -1.12392e-06
-2.08889e-07 -1.12392e-06 -9.71723e-06
0.00112327 4.01822e-06 1.95907e-08
4.01822e-06 4.28695e-05 -9.20702e-08
1.95907e-08 -9.20702e-08 -1.30566e-05
0.00116038 6.6948e-06 -3.45296e-08
6.6948e-06 4.36296e-05 2.05656e-07
-3.45296e-08 2.05656e-07 -2.02071e-05
0.00117394 -1.03763e-05 1.02031e-06
-1.03763e-05 4.4235e-06 3.68489e-06
1.02031e-06 3.68489e-06 -5.52611e-05
0.00114049 9.17252e-06 -5.24237e-08
9.17252e-06 3.20574e-05 8.05919e-07
-5.24237e-08 8.05919e-07 -3.35754e-05
0.00118079 6.27515e-06 -1.52385e-07
6.27515e-06 1.30126e-05 -2.83854e-07
-1.52385e-07 -2.83854e-07 -6.0612e-05
0.0013945 -1.3254e-05 2.20437e-07
-1.3254e-05 7.36264e-05 1.43287e-06
2.20437e-07 1.43287e-06 2.29073e-05
0.00151452 6.73619e-06 -2.57141e-08
6.73619e-06 0.000147416 2.63655e-07
-2.57141e-08 2.63655e-07 7.33932e-05
0.00170463 -1.43184e-05 -2.86623e-07
-1.43184e-05 0.00015318 -3.40642e-06
-2.86623e-07 -3.40642e-06 0.000100211
0.00112834 -1.1021e-05 8.79833e-07
-1.1021e-05 0.000158073 -7.14447e-07
8.79833e-07 -7.14447e-07 0.000117322
0.000669644 -9.14928e-06 -1.14973e-07
-9.14928e-06 -3.8516e-05 5.33892e-07
-1.14973e-07 5.33892e-07 -7.87578e-05
0.000429615 -3.24321e-07 -7.45042e-07
-3.24321e-07 -0.000129466 1.10135e-06
-7.45042e-07 1.10135e-06 -0.000179071
0.00131542 1.63602e-05 -2.9274e-06
1.63602e-05 0.000187788 -1.23877e-06
-2.9274e-06 -1.23877e-06 0.000119927
0.00113742 1.10763e-05 1.31143e-07
1.10763e-05 0.000182827 3.69766e-06
1.31143e-07 3.69766e-06 0.000116049
0.000963734 1.48023e-05 -5.56039e-08
1.48023e-05 4.57648e-05 -7.95961e-07
-5.56039e-08 -7.95961e-07 -2.64605e-05
0.00117821 7.7325e-06 2.59964e-07
7.7325e-06 0.000194396 1.6952e-06
2.59964e-07 1.6952e-06 0.000141287
0.00102044 1.09978e-05 8.25839e-08
1.09978e-05 8.72562e-05 -2.82521e-06
8.25839e-08 -2.82521e-06 3.15878e-05
0.00114399 1.34237e-05 -1.13915e-06
1.34237e-05 6.98804e-05 -7.15301e-07
-1.13915e-06 -7.15301e-07 7.71431e-06
0.00114751 1.30214e-05 -8.35628e-08
1.30214e-05 7.11701e-05 -4.49678e-07
-8.35628e-08 -4.49678e-07 6.19961e-06
0.00118033 9.89907e-06 -3.35145e-07
9.89907e-06 9.30347e-05 -9.0335e-07
-3.35145e-07 -9.0335e-07 3.18751e-05
0.00119943 8.93612e-06 -1.04741e-06
8.93612e-06 6.86041e-05 -3.9916e-07
-1.04741e-06 -3.9916e-07 9.09811e-06
0.00119325 6.80664e-06 1.74343e-07
6.80664e-06 6.56055e-05 2.97924e-08
1.74343e-07 2.97924e-08 3.24724e-06
0.00117754 4.6932e-06 2.07102e-07
4.6932e-06 6.05336e-05 -2.77854e-07
2.07102e-07 -2.77854e-07 7.35537e-08
0.00122756 4.0055e-06 -6.55438e-07
4.0055e-06 6.87351e-05 2.35943e-08
-6.55438e-07 2.35943e-08 8.19877e-06
0.00119313 2.54267e-06 -6.45751e-09
2.54267e-06 5.68393e-05 1.01913e-07
-6.45751e-09 1.01913e-07 -3.94361e-06
0.00116967 2.04138e-06 -4.39196e-08
2.04138e-06 5.23299e-05 1.79112e-07
-4.39196e-08 1.79112e-07 -6.89361e-06
0.00118873 9.14819e-07 -2.75764e-07
9.14819e-07 5.12787e-05 -1.06104e-07
-2.75764e-07 -1.06104e-07 -6.96419e-06
0.00116216 9.44667e-07 -4.2742e-09
9.44667e-07 4.59432e-05 5.40055e-08
-4.2742e-09 5.40055e-08 -1.04146e-05
0.00111248 2.38185e-06 -6.76644e-07
2.38185e-06 3.41161e-05 3.64407e-07
-6.76644e-07 3.64407e-07 -1.72778e-05
0.00112106 7.86343e-08 1.51537e-07
7.86343e-08 2.29052e-05 -1.99839e-07
1.51537e-07 -1.99839e-07 -3.02787e-05
0.0011059 1.90395e-06 -3.02179e-08
1.90395e-06 2.81518e-05 -1.23493e-08
-3.02179e-08 -1.23493e-08 -1.93497e-05
0.0010066 5.45567e-06 -1.85166e-06
5.45567e-06 -8.11321e-07 5.87565e-07
-1.85166e-06 5.87565e-07 -3.63525e-05
0.000993316 1.15506e-06 9.23645e-07
1.15506e-06 -2.69383e-05 -2.47331e-07
9.23645e-07 -2.47331e-07 -7.22583e-05
0.00101395 5.27821e-06 2.61175e-08
5.27821e-06 -6.75736e-07 2.69201e-08
2.61175e-08 2.69201e-08 -3.24702e-05
0.00156534 1.31624e-05 -2.10364e-06
1.31624e-05 0.000284119 6.30256e-07
-2.10364e-06 6.30256e-07 0.000279414
0.00124853 1.69325e-05 -5.67188e-06
1.69325e-05 0.000135952 3.30334e-06
-5.67188e-06 3.30334e-06 0.000145742
0.00124273 1.24686e-05 7.26996e-08
1.24686e-05 0.000124143 8.32502e-08
7.26996e-08 8.32502e-08 0.000120702
0.00101932 5.14091e-06 1.86217e-06
5.14091e-06 1.92548e-06 -7.05866e-07
1.86217e-06 -7.05866e-07 -2.68512e-05
0.00231155 1.61678e-05 4.11572e-08
1.61678e-05 0.000639846 5.85636e-08
4.11572e-08 5.85636e-08 0.000657378
0.000950529 1.19013e-05 2.84876e-06
1.19013e-05 -2.07345e-05 -1.39979e-06
2.84876e-06 -1.39979e-06 -2.31087e-05
0.00218101 1.52741e-05 3.26484e-06
1.52741e-05 0.000571173 -2.28948e-06
3.26484e-06 -2.28948e-06 0.000590433
0.00118678 3.74804e-06 5.86921e-08
3.74804e-06 5.16321e-05 8.39078e-09
5.86921e-08 8.39078e-09 -8.29088e-06
0.00101311 1.96081e-06 -1.12748e-07
1.96081e-06 -1.29202e-05 -3.97998e-07
-1.12748e-07 -3.97998e-07 -6.7741e-05
0.00102835 1.39656e-06 2.0697e-09
1.39656e-06 -4.56277e-06 -1.04265e-09
2.0697e-09 -1.04265e-09 -5.65562e-05
0.00109567 -2.14625e-06 -9.16723e-07
-2.14625e-06 3.37202e-05 -4.25849e-07
-9.16723e-07 -4.25849e-07 -9.1412e-06
0.00100847 2.11024e-07 2.6849e-07
2.11024e-07 -8.65972e-06 3.23978e-07
2.6849e-07 3.23978e-07 -5.84098e-05
0.00107546 -2.79786e-06 -3.39035e-08
-2.79786e-06 2.56359e-05 1.02622e-08
-3.39035e-08 1.02622e-08 -1.47815e-05
0.00102991 -5.99518e-06 -1.71727e-06
-5.99518e-06 9.87047e-06 -6.96548e-07
-1.71727e-06 -6.96548e-07 -1.61132e-05
0.00106111 -3.00945e-06 8.98691e-07
-3.00945e-06 1.83423e-05 4.12292e-07
8.98691e-07 4.12292e-07 -1.96487e-05
0.00101602 -5.97247e-06 -2.89108e-08
-5.97247e-06 1.15444e-07 3.20066e-09
-2.89108e-08 3.20066e-09 -2.33849e-05
0.000953492 -1.16162e-05 -2.63105e-06
-1.16162e-05 -2.41775e-05 -1.38619e-06
-2.63105e-06 -1.38619e-06 -2.47696e-05
0.00100976 -5.80785e-06 1.54058e-06
-5.80785e-06 -7.12077e-06 8.36658e-07
1.54058e-06 8.36658e-07 -2.83677e-05
0.000938914 -1.09823e-05 -5.43462e-08
-1.09823e-05 -3.76106e-05 1.525e-08
-5.43462e-08 1.525e-08 -3.61006e-05
0.00215038 -1.42417e-05 -3.01122e-06
-1.42417e-05 0.000548896 -2.37871e-06
-3.01122e-06 -2.37871e-06 0.000569499
0.000931964 -1.0217e-05 2.22359e-06
-1.0217e-05 -4.68635e-05 1.6871e-06
2.22359e-06 1.6871e-06 -4.35951e-05
0.00220455 -1.30427e-05 -5.06477e-08
-1.30427e-05 0.000566596 4.73803e-08
-5.06477e-08 4.73803e-08 0.000588391
0.0022565 -1.17903e-05 2.48485e-06
-1.17903e-05 0.000584812 2.65264e-06
2.48485e-06 2.65264e-06 0.00060749
0.00128178 -2.36861e-05 1.45624e-06
-2.36861e-05 0.000122242 1.67792e-06
1.45624e-06 1.67792e-06 8.02056e-05
0.00114263 -2.52436e-05 3.78237e-07
-2.52436e-05 4.15579e-05 -1.70245e-06
3.78237e-07 -1.70245e-06 1.47533e-05
0.00125761 -2.45882e-05 -2.75367e-07
-2.45882e-05 7.61517e-05 -5.40253e-06
-2.75367e-07 -5.40253e-06 4.93096e-05
0.00127083 4.4886e-06 -2.18726e-07
4.4886e-06 7.63033e-05 -7.33994e-07
-2.18726e-07 -7.33994e-07 1.23436e-05
0.00124539 4.42627e-06 -8.38837e-09
4.42627e-06 8.5028e-05 8.12083e-08
-8.38837e-09 8.12083e-08 2.70862e-05
0.0011045 3.25974e-06 -3.45144e-07
3.25974e-06 3.71495e-05 1.55458e-07
-3.45144e-07 1.55458e-07 -1.72757e-05
0.00116224 4.25287e-06 1.35211e-08
4.25287e-06 4.00918e-05 1.52564e-07
1.35211e-08 1.52564e-07 -1.90483e-05
0.00119131 3.58928e-06 -1.85018e-07
3.58928e-06 6.42213e-05 3.39433e-07
-1.85018e-07 3.39433e-07 8.4034e-06
0.00108318 -5.51495e-06 2.99503e-07
-5.51495e-06 -1.81611e-05 1.52432e-06
2.99503e-07 1.52432e-06 -8.33861e-05
0.00130426 5.6014e-06 -2.79621e-07
5.6014e-06 8.67451e-05 -4.81109e-07
-2.79621e-07 -4.81109e-07 1.69725e-05
0.00112353 6.74318e-06 8.98908e-08
6.74318e-06 2.59243e-05 1.01469e-06
8.98908e-08 1.01469e-06 -3.80437e-05
0.00129482 -9.91705e-06 5.1294e-08
-9.91705e-06 5.73056e-05 1.10767e-06
5.1294e-08 1.10767e-06 -2.87016e-06
0.00126673 6.44507e-06 -2.79579e-07
6.44507e-06 4.85602e-05 4.48574e-08
-2.79579e-07 4.48574e-08 -2.57178e-05
0.00145298 -1.34738e-05 5.53329e-07
-1.34738e-05 9.57999e-05 -2.35325e-06
5.53329e-07 -2.35325e-06 4.47934e-05
0.00045738 -4.89759e-06 1.11101e-06
-4.89759e-06 -0.000138692 -1.23109e-07
1.11101e-06 -1.23109e-07 -0.000182502
0.000932967 -1.03483e-05 -1.27663e-07
-1.03483e-05 7.40275e-05 -3.27351e-07
-1.27663e-07 -3.27351e-07 3.22512e-05
0.000637803 -9.19425e-06 -6.3704e-07
-9.19425e-06 -4.96381e-05 2.59933e-06
-6.3704e-07 2.59933e-06 -9.10589e-05
0.000883551 1.48889e-05 3.71755e-07
1.48889e-05 6.23798e-06 -8.04559e-08
3.71755e-07 -8.04559e-08 -6.6899e-05
0.000997792 7.03935e-06 -1.0051e-07
7.03935e-06 0.000106198 3.93351e-06
-1.0051e-07 3.93351e-06 5.50271e-05
0.00098485 1.07441e-05 -4.81818e-07
1.07441e-05 6.96112e-05 -5.74223e-07
-4.81818e-07 -5.74223e-07 1.35941e-05
0.000949214 6.98601e-06 6.35037e-07
6.98601e-06 4.71339e-05 -1.09892e-06
6.35037e-07 -1.09892e-06 -7.13769e-06
0.00107393 1.28536e-05 -3.66053e-07
1.28536e-05 3.49411e-05 -4.95967e-08
-3.66053e-07 -4.95967e-08 -2.91179e-05
0.0011969 9.87381e-06 -1.33979e-07
9.87381e-06 9.36264e-05 -5.46869e-08
-1.33979e-07 -5.46869e-08 3.19204e-05
0.00113187 6.99214e-06 -2.5504e-07
6.99214e-06 6.41692e-05 -1.84828e-06
-2.5504e-07 -1.84828e-06 7.85808e-06
0.00125751 6.97094e-06 -3.97249e-07
6.97094e-06 9.31315e-05 3.13353e-07
-3.97249e-07 3.13353e-07 3.05281e-05
0.00118105 4.6082e-06 -2.24624e-08
4.6082e-06 6.2211e-05 3.04903e-07
-2.24624e-08 3.04903e-07 1.68338e-06
0.00115705 3.63975e-06 -1.51562e-08
3.63975e-06 5.52095e-05 -1.67021e-07
-1.51562e-08 -1.67021e-07 -4.57006e-06
0.00119757 2.57588e-06 -2.04109e-07
2.57588e-06 5.87645e-05 1.07623e-07
-2.04109e-07 1.07623e-07 -2.01031e-06
0.00116246 2.05764e-06 -1.38716e-08
2.05764e-06 4.92183e-05 1.13715e-07
-1.38716e-08 1.13715e-07 -9.9728e-06
0.0011193 2.68072e-06 -6.05318e-07
2.68072e-06 4.04567e-05 3.27705e-07
-6.05318e-07 3.27705e-07 -1.46415e-05
0.00115691 9.29037e-07 8.79235e-08
9.29037e-07 4.34869e-05 -1.7038e-07
8.79235e-08 -1.7038e-07 -1.28409e-05
0.00110946 2.35496e-06 -9.65443e-09
2.35496e-06 3.26141e-05 3.50932e-08
-9.65443e-09 3.50932e-08 -1.87307e-05
0.00100494 5.47634e-06 -1.78866e-06
5.47634e-06 3.36005e-06 5.97043e-07
-1.78866e-06 5.97043e-07 -3.67716e-05
0.00110364 1.85813e-06 7.69384e-07
1.85813e-06 2.6963e-05 -2.95304e-07
7.69384e-07 -2.95304e-07 -2.04873e-05
0.00101298 5.49049e-06 1.31727e-08
5.49049e-06 1.74716e-06 9.56929e-09
1.31727e-08 9.56929e-09 -3.37519e-05
0.00158032 1.35614e-05 -2.19214e-06
1.35614e-05 0.000300377 5.50478e-07
-2.19214e-06 5.50478e-07 0.00029213
0.00101776 5.29796e-06 1.86713e-06
5.29796e-06 8.87044e-07 -5.80456e-07
1.86713e-06 -5.80456e-07 -3.0872e-05
0.00153032 1.29663e-05 1.15415e-06
1.29663e-05 0.000268367 -6.58181e-07
1.15415e-06 -6.58181e-07 0.000263321
0.00120042 1.7932e-05 -6.2968e-06
1.7932e-05 0.000122782 3.20096e-06
-6.2968e-06 3.20096e-06 0.000129875
0.00181032 1.71066e-05 -2.12982e-06
1.71066e-05 0.000405441 1.45128e-06
-2.12982e-06 1.45128e-06 0.000418314
0.00155444 1.23293e-05 3.10839e-06
1.23293e-05 0.000273861 -1.32423e-06
3.10839e-06 -1.32423e-06 0.000271572
0.00224062 1.626e-05 3.55607e-06
1.626e-05 0.000606571 -2.21127e-06
3.55607e-06 -2.21127e-06 0.00062419
0.00117128 2.35931e-06 -1.06381e-07
2.35931e-06 3.22703e-05 -5.27679e-07
-1.06381e-07 -5.27679e-07 -3.14372e-05
0.00128858 2.27644e-06 1.85869e-07
2.27644e-06 0.000112745 -1.5434e-07
1.85869e-07 -1.5434e-07 5.6762e-05
0.00117406 3.81877e-06 2.33652e-07
3.81877e-06 4.7957e-05 5.20145e-07
2.33652e-07 5.20145e-07 -1.10902e-05
0.00109249 -1.21747e-06 -8.2453e-07
-1.21747e-06 3.28331e-05 -6.49328e-07
-8.2453e-07 -6.49328e-07 -1.35004e-05
0.00108397 2.2532e-06 -9.82223e-09
2.2532e-06 1.98805e-05 -3.78058e-08
-9.82223e-09 -3.78058e-08 -3.4786e-05
0.00102009 1.52023e-06 4.04104e-07
1.52023e-06 -9.41571e-06 3.95881e-07
4.04104e-07 3.95881e-07 -6.16666e-05
0.00108679 -2.27185e-06 -1.28921e-08
-2.27185e-06 3.01017e-05 -9.45652e-10
-1.28921e-08 -9.45652e-10 -1.2818e-05
0.0010237 -5.94906e-06 -1.76609e-06
-5.94906e-06 1.03203e-05 -6.87951e-07
-1.76609e-06 -6.87951e-07 -1.84325e-05
0.00105837 -2.82698e-06 8.39878e-07
-2.82698e-06 1.80439e-05 4.45706e-07
8.39878e-07 4.45706e-07 -2.23767e-05
0.00101275 -6.01448e-06 -4.09796e-08
-6.01448e-06 2.17973e-06 1.09261e-08
-4.09796e-08 1.09261e-08 -2.3778e-05
0.000941417 -1.22025e-05 -2.80267e-06
-1.22025e-05 -2.28005e-05 -1.28352e-06
-2.80267e-06 -1.28352e-06 -2.56217e-05
0.000999221 -5.99793e-06 1.5896e-06
-5.99793e-06 -7.54822e-06 7.67353e-07
1.5896e-06 7.67353e-07 -3.10108e-05
0.000924985 -1.16975e-05 -6.16051e-08
-1.16975e-05 -3.75479e-05 1.50049e-08
-6.16051e-08 1.50049e-08 -3.79971e-05
0.00217297 -1.52641e-05 -3.23735e-06
-1.52641e-05 0.000568284 -2.263e-06
-3.23735e-06 -2.263e-06 0.000587313
0.000914948 -1.10518e-05 2.38375e-06
-1.10518e-05 -4.89743e-05 1.56225e-06
2.38375e-06 1.56225e-06 -4.73272e-05
0.00222423 -1.41506e-05 -4.71627e-08
-1.41506e-05 0.000583186 5.10836e-08
-4.71627e-08 5.10836e-08 0.000603675
0.00227402 -1.29494e-05 2.66931e-06
-1.29494e-05 0.000599014 2.52623e-06
2.66931e-06 2.52623e-06 0.000620665
0.00113713 -1.49255e-05 4.07801e-07
-1.49255e-05 8.06523e-05 2.99735e-06
4.07801e-07 2.99735e-06 2.90719e-05
0.00116738 -2.30916e-05 1.04094e-07
-2.30916e-05 7.24761e-05 -1.01008e-06
1.04094e-07 -1.01008e-06 3.03459e-05
0.00108102 -2.55273e-05 -3.41195e-07
-2.55273e-05 6.71372e-06 -3.7625e-06
-3.41195e-07 -3.7625e-06 -2.06583e-05
0.000954724 -2.17675e-06 -2.16527e-07
-2.17675e-06 -7.06946e-05 9.51713e-07
-2.16527e-07 9.51713e-07 -0.000133704
0.00127355 4.21747e-06 1.35932e-08
4.21747e-06 7.70049e-05 -3.14856e-07
1.35932e-08 -3.14856e-07 1.29615e-05
0.00124367 4.20637e-06 -1.91531e-07
4.20637e-06 8.75843e-05 5.32644e-07
-1.91531e-07 5.32644e-07 3.04245e-05
0.00131068 4.26366e-06 4.46993e-08
4.26366e-06 0.000107477 3.3028e-07
4.46993e-08 3.3028e-07 4.88776e-05
0.00122783 -5.05685e-06 -2.62298e-08
-5.05685e-06 4.71704e-05 6.45071e-08
-2.62298e-08 6.45071e-08 -1.78057e-05
0.00137106 5.74725e-06 -1.00454e-07
5.74725e-06 0.000117027 8.56047e-08
-1.00454e-07 8.56047e-08 4.66418e-05
0.0014118 -9.44492e-06 -4.18934e-07
-9.44492e-06 0.000108438 -1.32973e-06
-4.18934e-07 -1.32973e-06 4.77649e-05
0.000708644 -3.94813e-06 1.95954e-06
-3.94813e-06 -2.7353e-05 4.14817e-07
1.95954e-06 4.14817e-07 -7.61083e-05
0.000731393 -4.48141e-06 -3.59664e-08
-4.48141e-06 -1.97809e-05 -3.72795e-08
-3.59664e-08 -3.72795e-08 -6.5211e-05
0.000733449 -9.66472e-06 -1.82375e-06
-9.66472e-06 -1.19304e-05 4.32833e-07
-1.82375e-06 4.32833e-07 -5.47273e-05
0.000923133 3.69784e-06 7.25035e-07
3.69784e-06 5.26151e-05 -2.88831e-07
7.25035e-07 -2.88831e-07 -1.28058e-06
0.000948655 1.04674e-05 -2.37943e-07
1.04674e-05 5.17747e-05 1.34492e-06
-2.37943e-07 1.34492e-06 -4.59997e-06
0.00095514 7.13648e-06 3.48199e-07
7.13648e-06 5.02331e-05 4.53221e-08
3.48199e-07 4.53221e-08 -4.32201e-06
0.00103246 6.77058e-06 3.22878e-07
6.77058e-06 6.29075e-05 -1.80639e-07
3.22878e-07 -1.80639e-07 9.06995e-06
0.00121777 9.85782e-06 -3.01977e-08
9.85782e-06 9.62436e-05 7.48141e-07
-3.01977e-08 7.48141e-07 3.39829e-05
0.00111475 6.70491e-06 -3.36772e-07
6.70491e-06 5.765e-05 -6.57287e-07
-3.36772e-07 -6.57287e-07 1.27932e-06
0.00112109 5.68648e-06 -6.5561e-09
5.68648e-06 6.08958e-05 -1.51605e-06
-6.5561e-09 -1.51605e-06 3.61925e-06
0.00118436 4.5271e-06 1.6798e-07
4.5271e-06 6.37943e-05 8.32391e-07
1.6798e-07 8.32391e-07 3.1999e-06
0.00114678 3.64756e-06 -1.61965e-08
3.64756e-06 5.10852e-05 2.41353e-07
-1.61965e-08 2.41353e-07 -8.63525e-06
0.001116 3.54191e-06 -5.37626e-07
3.54191e-06 4.68315e-05 4.54054e-08
-5.37626e-07 4.54054e-08 -1.02479e-05
0.00115484 2.0695e-06 5.33632e-08
2.0695e-06 4.59267e-05 4.02828e-08
5.33632e-08 4.02828e-08 -1.32321e-05
0.00110978 2.71909e-06 -1.20118e-08
2.71909e-06 3.62091e-05 1.01646e-07
-1.20118e-08 1.01646e-07 -1.88307e-05
0.00100731 5.36154e-06 -1.74557e-06
5.36154e-06 1.00516e-05 5.67262e-07
-1.74557e-06 5.67262e-07 -3.48714e-05
0.00110639 2.32761e-06 6.61025e-07
2.32761e-06 3.10916e-05 -2.96671e-07
6.61025e-07 -2.96671e-07 -2.0204e-05
0.0010102 5.53007e-06 1.43566e-08
5.53007e-06 5.36961e-06 2.79764e-08
1.43566e-08 2.79764e-08 -3.47127e-05
0.00158509 1.35933e-05 -2.26599e-06
1.35933e-05 0.000314721 5.14814e-07
-2.26599e-06 5.14814e-07 0.000302137
0.00101896 5.52565e-06 1.82005e-06
5.52565e-06 4.12332e-06 -5.46785e-07
1.82005e-06 -5.46785e-07 -3.13337e-05
0.00152912 1.33331e-05 1.25099e-06
1.33331e-05 0.000276795 -6.30885e-07
1.25099e-06 -6.30885e-07 0.000268218
0.00121365 1.85697e-05 -6.83698e-06
1.85697e-05 0.000142205 3.03197e-06
-6.83698e-06 3.03197e-06 0.000145885
0.00149698 1.27721e-05 4.40471e-06
1.27721e-05 0.000253389 -1.952e-06
4.40471e-06 -1.952e-06 0.000247997
0.00117121 1.81194e-05 -2.27573e-06
1.81194e-05 0.000108083 1.35507e-06
-2.27573e-06 1.35507e-06 0.000115594
0.0023682 1.73168e-05 1.60742e-06
1.73168e-05 0.000673194 -7.77192e-07
1.60742e-06 -7.77192e-07 0.000689145
0.00127644 -2.18971e-06 -3.65608e-07
-2.18971e-06 7.1984e-05 8.0954e-07
-3.65608e-07 8.0954e-07 9.51682e-06
0.00115051 2.04999e-06 -2.93035e-08
2.04999e-06 3.41089e-05 -5.34355e-07
-2.93035e-08 -5.34355e-07 -2.68253e-05
0.00121504 2.54927e-06 -1.02808e-07
2.54927e-06 5.52023e-05 2.02734e-07
-1.02808e-07 2.02734e-07 -7.92424e-06
0.00132539 -6.91543e-07 -4.86926e-07
-6.91543e-07 0.000140969 -2.02727e-07
-4.86926e-07 -2.02727e-07 9.24322e-05
0.00122097 2.397e-06 2.29221e-07
2.397e-06 8.05419e-05 9.06493e-08
2.29221e-07 9.06493e-08 2.4032e-05
0.00116419 3.88328e-06 3.65373e-07
3.88328e-06 4.56435e-05 9.68887e-07
3.65373e-07 9.68887e-07 -1.25364e-05
0.00102109 -5.68693e-06 -1.7551e-06
-5.68693e-06 1.19627e-05 -8.32681e-07
-1.7551e-06 -8.32681e-07 -2.05365e-05
0.00109494 -1.37552e-06 2.86317e-08
-1.37552e-06 3.44464e-05 -6.76784e-08
2.86317e-08 -6.76784e-08 -1.19628e-05
0.00115429 2.57638e-06 4.51995e-07
2.57638e-06 5.24488e-05 4.65694e-07
4.51995e-07 4.65694e-07 -2.06517e-06
0.00107763 -2.35674e-06 8.9513e-07
-2.35674e-06 2.63484e-05 4.28752e-07
8.9513e-07 4.28752e-07 -1.66291e-05
0.00101021 -5.95016e-06 -3.0706e-08
-5.95016e-06 4.38225e-06 -5.03488e-09
-3.0706e-08 -5.03488e-09 -2.43701e-05
0.000927176 -1.26411e-05 -2.97248e-06
-1.26411e-05 -2.19639e-05 -1.22251e-06
-2.97248e-06 -1.22251e-06 -2.74009e-05
0.000995569 -6.03383e-06 1.64955e-06
-6.03383e-06 -5.52255e-06 7.24839e-07
1.64955e-06 7.24839e-07 -3.14542e-05
0.000909666 -1.22903e-05 -6.82129e-08
-1.22903e-05 -3.75573e-05 1.25069e-08
-6.82129e-08 1.25069e-08 -4.02395e-05
0.00220285 -1.61812e-05 -3.4858e-06
-1.61812e-05 0.000592269 -2.14983e-06
-3.4858e-06 -2.14983e-06 0.000609504
0.000896439 -1.17787e-05 2.53735e-06
-1.17787e-05 -5.09299e-05 1.44741e-06
2.53735e-06 1.44741e-06 -5.1237e-05
0.00225072 -1.51795e-05 -4.49763e-08
-1.51795e-05 0.000604215 5.57658e-08
-4.49763e-08 5.57658e-08 0.00062316
0.00229833 -1.4059e-05 2.86455e-06
-1.4059e-05 0.000617586 2.40356e-06
2.86455e-06 2.40356e-06 0.000637962
0.00116167 -9.16244e-06 8.36833e-07
-9.16244e-06 9.02532e-05 1.70371e-06
8.36833e-07 1.70371e-06 3.51227e-05
0.00121555 -1.50178e-05 1.09009e-07
-1.50178e-05 0.000108597 5.61282e-07
1.09009e-07 5.61282e-07 5.64191e-05
0.00105043 -2.25002e-05 -1.20534e-06
-2.25002e-05 2.15724e-05 -3.65984e-06
-1.20534e-06 -3.65984e-06 -2.06482e-05
0.00112842 -2.45614e-06 -1.50873e-07
-2.45614e-06 6.42205e-07 -1.1809e-07
-1.50873e-07 -1.1809e-07 -6.32086e-05
0.00127618 3.94689e-06 1.50615e-07
3.94689e-06 7.76024e-05 1.76077e-07
1.50615e-07 1.76077e-07 1.34828e-05
0.00136976 -4.5977e-06 -2.05711e-07
-4.5977e-06 0.000111236 -1.45839e-06
-2.05711e-07 -1.45839e-06 4.65105e-05
0.000779936 -3.80798e-06 1.24972e-06
-3.80798e-06 6.2703e-06 7.1449e-07
1.24972e-06 7.1449e-07 -4.97231e-05
0.000804111 -3.29726e-06 4.55894e-07
-3.29726e-06 2.3583e-05 2.17228e-08
4.55894e-07 2.17228e-08 -2.52726e-05
0.00101348 -4.06286e-06 -8.25309e-07
-4.06286e-06 0.000102832 1.34405e-07
-8.25309e-07 1.34405e-07 5.57788e-05
0.000948189 3.443e-06 -2.54785e-07
3.443e-06 6.32366e-05 3.45307e-07
-2.54785e-07 3.45307e-07 8.59008e-06
0.00090716 4.49639e-06 4.41172e-07
4.49639e-06 3.74388e-05 -1.57707e-07
4.41172e-07 -1.57707e-07 -1.75344e-05
0.000959911 7.28328e-06 -1.51605e-07
7.28328e-06 5.28126e-05 1.00319e-06
-1.51605e-07 1.00319e-06 -2.02615e-06
0.000997394 6.53758e-06 8.96306e-08
6.53758e-06 4.71253e-05 3.9458e-07
8.96306e-08 3.9458e-07 -6.71324e-06
0.00115345 6.71438e-06 4.73656e-07
6.71438e-06 0.000110374 -3.15503e-07
4.73656e-07 -3.15503e-07 5.59759e-05
0.00109616 6.4053e-06 -1.35827e-07
6.4053e-06 5.05087e-05 4.94058e-07
-1.35827e-07 4.94058e-07 -5.9263e-06
0.00110437 5.72762e-06 -1.22227e-07
5.72762e-06 5.39613e-05 -5.41912e-07
-1.22227e-07 -5.41912e-07 -3.22751e-06
0.00107598 4.81811e-06 -5.21006e-07
4.81811e-06 4.81833e-05 -7.5544e-07
-5.21006e-07 -7.5544e-07 -8.31856e-06
0.00113684 3.65595e-06 -1.99765e-08
3.65595e-06 4.71079e-05 6.50949e-07
-1.99765e-08 6.50949e-07 -1.2553e-05
0.00109779 3.58335e-06 -2.36002e-08
3.58335e-06 3.89554e-05 2.02075e-07
-2.36002e-08 2.02075e-07 -1.80515e-05
0.00100434 5.39006e-06 -1.69404e-06
5.39006e-06 1.77359e-05 3.43463e-07
-1.69404e-06 3.43463e-07 -3.08871e-05
0.00110012 2.75768e-06 5.82252e-07
2.75768e-06 3.18959e-05 -1.24674e-07
5.82252e-07 -1.24674e-07 -2.30852e-05
0.00100532 5.4348e-06 1.12403e-08
5.4348e-06 8.91539e-06 8.53792e-08
1.12403e-08 8.53792e-08 -3.59403e-05
0.00148724 1.28412e-05 -2.36996e-06
1.28412e-05 0.000284197 4.99204e-07
-2.36996e-06 4.99204e-07 0.000266263
0.00101533 5.58366e-06 1.76514e-06
5.58366e-06 7.31923e-06 -5.2649e-07
1.76514e-06 -5.2649e-07 -3.27136e-05
0.00152266 1.33367e-05 1.36726e-06
1.33367e-05 0.000285502 -5.8806e-07
1.36726e-06 -5.8806e-07 0.000272577
0.00121627 1.86561e-05 -7.45247e-06
1.86561e-05 0.00016026 2.86621e-06
-7.45247e-06 2.86621e-06 0.00015973
0.00147901 1.31065e-05 4.69106e-06
1.31065e-05 0.000253752 -1.81895e-06
4.69106e-06 -1.81895e-06 0.000244838
0.00117657 1.87661e-05 -2.48862e-06
1.87661e-05 0.000123826 1.27879e-06
-2.48862e-06 1.27879e-06 0.000127974
0.00113987 1.83037e-05 1.7437e-06
1.83037e-05 9.2378e-05 -4.90167e-07
1.7437e-06 -4.90167e-07 0.000100315
0.00136307 -7.91502e-06 4.87833e-07
-7.91502e-06 0.00014151 1.20822e-06
4.87833e-07 1.20822e-06 9.04362e-05
0.00122331 -1.21138e-06 -3.50811e-07
-1.21138e-06 5.64365e-05 5.27197e-07
-3.50811e-07 5.27197e-07 -5.49204e-06
0.00134942 -2.39511e-06 1.41271e-08
-2.39511e-06 0.000103471 -4.89893e-08
1.41271e-08 -4.89893e-08 4.09734e-05
0.00122081 -3.54768e-07 -6.61381e-07
-3.54768e-07 8.21467e-05 -5.01783e-07
-6.61381e-07 -5.01783e-07 2.78305e-05
0.00121852 1.94537e-06 1.57634e-07
1.94537e-06 6.59818e-05 2.33954e-07
1.57634e-07 2.33954e-07 5.43464e-06
0.00125566 2.74552e-06 2.02206e-07
2.74552e-06 7.67e-05 4.16508e-07
2.02206e-07 4.16508e-07 1.41561e-05
0.00105483 -5.34428e-06 -1.86279e-06
-5.34428e-06 2.80959e-05 -8.19732e-07
-1.86279e-06 -8.19732e-07 -8.48265e-06
0.00118139 -8.14034e-07 3.63044e-07
-8.14034e-07 7.23507e-05 4.15829e-07
3.63044e-07 4.15829e-07 2.25817e-05
0.00115152 2.55603e-06 4.46755e-07
2.55603e-06 4.74566e-05 9.52406e-07
4.46755e-07 9.52406e-07 -9.5752e-06
0.000913928 -1.28476e-05 -3.17202e-06
-1.28476e-05 -2.09664e-05 -1.25884e-06
-3.17202e-06 -1.25884e-06 -2.97659e-05
0.00100587 -5.67797e-06 -2.11477e-08
-5.67797e-06 5.33674e-06 -5.40507e-08
-2.11477e-08 -5.40507e-08 -2.71616e-05
0.00109744 -1.61325e-06 8.68433e-07
-1.61325e-06 3.60821e-05 5.12334e-07
8.68433e-07 5.12334e-07 -1.04027e-05
0.000996499 -5.95139e-06 1.74026e-06
-5.95139e-06 -1.65257e-06 6.96297e-07
1.74026e-06 6.96297e-07 -3.04045e-05
0.000891447 -1.27362e-05 -7.69338e-08
-1.27362e-05 -3.84177e-05 -2.36425e-09
-7.69338e-08 -2.36425e-09 -4.37148e-05
0.00224742 -1.69486e-05 -3.78228e-06
-1.69486e-05 0.000624203 -2.05482e-06
-3.78228e-06 -2.05482e-06 0.000639377
0.000877786 -1.2378e-05 2.70606e-06
-1.2378e-05 -5.23658e-05 1.34225e-06
2.70606e-06 1.34225e-06 -5.49099e-05
0.002284 -1.61071e-05 -4.1973e-08
-1.61071e-05 0.000629606 6.01587e-08
-4.1973e-08 6.01587e-08 0.000646788
0.00232871 -1.50948e-05 3.06511e-06
-1.50948e-05 0.000640241 2.28014e-06
3.06511e-06 2.28014e-06 0.000659104
0.00103702 -9.25855e-06 1.0241e-06
-9.25855e-06 7.68034e-05 -6.32285e-07
1.0241e-06 -6.32285e-07 1.32675e-05
0.00114344 -9.48177e-06 -7.51229e-08
-9.48177e-06 7.74389e-05 2.80903e-07
-7.51229e-08 2.80903e-07 2.22564e-05
0.00128534 -1.51013e-05 -6.54054e-07
-1.51013e-05 0.00013258 -2.0162e-06
-6.54054e-07 -2.0162e-06 7.98087e-05
0.00130377 -2.74325e-06 3.64646e-07
-2.74325e-06 7.28245e-05 -8.2461e-07
3.64646e-07 -8.2461e-07 8.12084e-06
0.000893099 -1.66266e-06 4.59844e-07
-1.66266e-06 5.39542e-05 1.64033e-06
4.59844e-07 1.64033e-06 -4.75914e-06
0.000829001 -3.40459e-06 -4.01414e-07
-3.40459e-06 3.32954e-05 8.74449e-08
-4.01414e-07 8.74449e-08 -2.23006e-05
0.000899083 -2.64379e-06 -1.44101e-06
-2.64379e-06 7.42273e-05 -2.23996e-07
-1.44101e-06 -2.23996e-07 2.52806e-05
0.000964832 3.1865e-06 -1.02639e-06
3.1865e-06 6.99621e-05 9.50027e-07
-1.02639e-06 9.50027e-07 1.4574e-05
0.000959506 4.53489e-06 1.77099e-07
4.53489e-06 6.34727e-05 3.04193e-07
1.77099e-07 3.04193e-07 8.71902e-06
0.000906551 5.62063e-06 7.75643e-08
5.62063e-06 3.33806e-05 -5.63457e-07
7.75643e-08 -5.63457e-07 -2.0128e-05
0.00096154 6.31112e-06 -1.26003e-07
6.31112e-06 3.09032e-05 1.20315e-06
-1.26003e-07 1.20315e-06 -2.2927e-05
0.00109907 6.62524e-06 4.4134e-08
6.62524e-06 8.52545e-05 3.31896e-07
4.4134e-08 3.31896e-07 3.07218e-05
0.001082 5.66336e-06 -1.48351e-07
5.66336e-06 8.01428e-05 -7.43781e-07
-1.48351e-07 -7.43781e-07 2.52589e-05
0.00108716 5.7673e-06 -2.38519e-07
5.7673e-06 4.68153e-05 4.39031e-07
-2.38519e-07 4.39031e-07 -1.02865e-05
0.00105868 4.84909e-06 -1.16004e-07
4.84909e-06 4.09936e-05 -1.14367e-07
-1.16004e-07 -1.14367e-07 -1.54416e-05
0.000978162 5.58279e-06 -1.58011e-06
5.58279e-06 2.42481e-05 -1.18473e-07
-1.58011e-06 -1.18473e-07 -2.59053e-05
0.00107947 3.62524e-06 5.0548e-07
3.62524e-06 3.10319e-05 3.58742e-07
5.0548e-07 3.58742e-07 -2.59025e-05
0.000991488 5.48179e-06 -7.23123e-09
5.48179e-06 1.19817e-05 1.69681e-07
-7.23123e-09 1.69681e-07 -3.65475e-05
0.000757669 1.1803e-05 -4.00956e-06
1.1803e-05 -4.93532e-05 8.82874e-07
-4.00956e-06 8.82874e-07 -7.68222e-05
0.00100324 5.50777e-06 1.71652e-06
5.50777e-06 7.7345e-06 -3.8301e-07
1.71652e-06 -3.8301e-07 -3.70536e-05
0.00111264 1.28118e-05 1.55697e-06
1.28118e-05 0.000103787 -5.69737e-07
1.55697e-06 -5.69737e-07 8.34334e-05
0.00260193 1.78171e-05 -5.14717e-06
1.78171e-05 0.000844907 1.65209e-06
-5.14717e-06 1.65209e-06 0.000849005
0.00146084 1.30794e-05 4.9909e-06
1.30794e-05 0.0002566 -1.71613e-06
4.9909e-06 -1.71613e-06 0.000243329
0.00117486 1.88593e-05 -2.72387e-06
1.88593e-05 0.000140018 1.20601e-06
-2.72387e-06 1.20601e-06 0.000139986
0.00113658 1.89604e-05 1.87621e-06
1.89604e-05 0.000104051 -4.36726e-07
1.87621e-06 -4.36726e-07 0.000108681
0.00130508 -8.85342e-06 7.07356e-07
-8.85342e-06 0.000158265 -8.10433e-07
7.07356e-07 -8.10433e-07 0.000100882
0.00128824 -6.25994e-06 1.7172e-08
-6.25994e-06 9.99115e-05 1.1219e-06
1.7172e-08 1.1219e-06 4.58237e-05
0.00115404 -7.6986e-06 2.04884e-07
-7.6986e-06 4.77727e-05 8.88326e-08
2.04884e-07 8.88326e-08 -4.03223e-06
0.000956792 -1.68985e-06 -9.25802e-07
-1.68985e-06 -4.73161e-05 1.6964e-07
-9.25802e-07 1.6964e-07 -0.000105615
0.00127125 -1.4273e-06 3.74237e-08
-1.4273e-06 8.05287e-05 3.51033e-09
3.74237e-08 3.51033e-09 1.97453e-05
0.00142074 -2.59479e-06 2.39309e-07
-2.59479e-06 0.000134133 -1.00101e-06
2.39309e-07 -1.00101e-06 7.16144e-05
0.000881546 -4.77628e-06 -2.30293e-06
-4.77628e-06 -5.80187e-05 -1.2337e-06
-2.30293e-06 -1.2337e-06 -0.000101221
0.00123196 -3.46913e-07 1.83147e-07
-3.46913e-07 8.71241e-05 1.25802e-07
1.83147e-07 1.25802e-07 3.28645e-05
0.00128742 1.84642e-06 5.26536e-07
1.84642e-06 9.82806e-05 6.48909e-07
5.26536e-07 6.48909e-07 3.81175e-05
0.000895347 -1.28209e-05 -3.46002e-06
-1.28209e-05 -2.36252e-05 -1.25871e-06
-3.46002e-06 -1.25871e-06 -3.66516e-05
0.000925816 -5.21763e-06 -6.41475e-08
-5.21763e-06 -3.31418e-05 -3.19893e-10
-6.41475e-08 -3.19893e-10 -7.08109e-05
0.00103681 -9.40013e-07 1.19086e-06
-9.40013e-07 3.45213e-06 1.12038e-06
1.19086e-06 1.12038e-06 -4.75464e-05
0.0023208 -1.74854e-05 -4.18273e-06
-1.74854e-05 0.000670455 -2.00197e-06
-4.18273e-06 -2.00197e-06 0.000683192
0.000870634 -1.29557e-05 -9.88854e-08
-1.29557e-05 -4.062e-05 -3.3173e-08
-9.88854e-08 -3.3173e-08 -4.926e-05
0.000990653 -5.66857e-06 1.77983e-06
-5.66857e-06 -1.28406e-06 7.57386e-07
1.77983e-06 7.57386e-07 -3.37821e-05
0.000855547 -1.28306e-05 2.88841e-06
-1.28306e-05 -5.49386e-05 1.26555e-06
2.88841e-06 1.26555e-06 -6.00973e-05
0.00232939 -1.68988e-05 -3.77e-08
-1.68988e-05 0.000661774 6.34914e-08
-3.77e-08 6.34914e-08 0.000676945
0.00236525 -1.60335e-05 3.28286e-06
-1.60335e-05 0.000666969 2.15837e-06
3.28286e-06 2.15837e-06 0.000684102
0.000858097 -7.61254e-06 4.23421e-07
-7.61254e-06 2.69824e-05 6.00839e-07
4.23421e-07 6.00839e-07 -3.81572e-05
0.00090453 -9.26565e-06 -5.86969e-07
-9.26565e-06 2.14282e-05 -9.00575e-07
-5.86969e-07 -9.00575e-07 -4.0433e-05
0.00112322 -9.80175e-06 -6.34119e-07
-9.80175e-06 6.37414e-05 -1.10457e-06
-6.34119e-07 -1.10457e-06 8.50368e-06
0.000890365 8.17932e-07 2.75134e-07
8.17932e-07 5.61361e-05 5.49352e-07
2.75134e-07 5.49352e-07 1.9431e-06
0.000936933 -1.58681e-06 2.18651e-07
-1.58681e-06 7.41321e-05 6.63965e-07
2.18651e-07 6.63965e-07 1.55176e-05
0.000876871 -3.00617e-06 -1.94103e-06
-3.00617e-06 5.97554e-05 -4.71852e-07
-1.94103e-06 -4.71852e-07 4.55856e-06
0.00101612 4.57857e-06 -2.5283e-07
4.57857e-06 9.14829e-05 4.64982e-07
-2.5283e-07 4.64982e-07 3.69443e-05
0.000930803 5.68662e-06 -3.21772e-08
5.68662e-06 4.46338e-05 1.80542e-07
-3.21772e-08 1.80542e-07 -8.76863e-06
0.000948385 4.80902e-06 8.35235e-08
4.80902e-06 6.02029e-05 -6.6891e-07
8.35235e-08 -6.6891e-07 8.05273e-06
0.00104403 6.53683e-06 -2.41832e-07
6.53683e-06 5.97995e-05 1.28948e-06
-2.41832e-07 1.28948e-06 5.13606e-06
0.0010879 5.53373e-06 -1.55878e-09
5.53373e-06 8.42261e-05 8.3615e-09
-1.55878e-09 8.3615e-09 2.95961e-05
0.000875497 5.5443e-06 -1.57662e-06
5.5443e-06 5.23456e-06 -7.13211e-07
-1.57662e-06 -7.13211e-07 -4.49654e-05
0.00104042 4.88739e-06 2.85005e-07
4.88739e-06 3.33477e-05 5.37796e-07
2.85005e-07 5.37796e-07 -2.30189e-05
0.000959324 5.6886e-06 -4.58875e-08
5.6886e-06 1.59973e-05 1.73047e-07
-4.58875e-08 1.73047e-07 -3.40502e-05
0.000739887 1.01881e-05 -4.07113e-06
1.01881e-05 -3.56534e-05 4.82036e-07
-4.07113e-06 4.82036e-07 -6.68972e-05
0.000978592 5.57373e-06 1.6389e-06
5.57373e-06 6.20398e-06 8.8071e-09
1.6389e-06 8.8071e-09 -4.22311e-05
0.000764035 1.20031e-05 1.09114e-07
1.20031e-05 -4.74717e-05 1.3138e-07
1.09114e-07 1.3138e-07 -7.487e-05
0.00272802 1.67756e-05 -5.40398e-06
1.67756e-05 0.000922225 1.3741e-06
-5.40398e-06 1.3741e-06 0.000923111
0.000732346 1.27913e-05 5.29425e-06
1.27913e-05 -7.92193e-05 -1.57247e-06
5.29425e-06 -1.57247e-06 -0.000101985
0.00181309 1.7753e-05 7.27441e-08
1.7753e-05 0.000468712 1.23674e-07
7.27441e-08 1.23674e-07 0.000468342
0.00113101 1.90646e-05 2.02269e-06
1.90646e-05 0.000118582 -4.06072e-07
2.02269e-06 -4.06072e-07 0.000119063
0.00130655 -9.03748e-06 2.80388e-07
-9.03748e-06 0.000196006 -9.11811e-08
2.80388e-07 -9.11811e-08 0.00013301
0.00110844 -7.34844e-06 -1.68767e-07
-7.34844e-06 5.53503e-05 -2.35516e-07
-1.68767e-07 -2.35516e-07 6.2722e-07
0.00110849 -8.71827e-06 -4.26591e-07
-8.71827e-06 6.78082e-05 1.4451e-08
-4.26591e-07 1.4451e-08 1.00114e-05
0.00106777 -4.53061e-06 -5.89529e-07
-4.53061e-06 1.50253e-05 1.0086e-06
-5.89529e-07 1.0086e-06 -4.01062e-05
0.00115687 -6.16011e-06 2.50762e-07
-6.16011e-06 4.33852e-05 -2.26885e-07
2.50762e-07 -2.26885e-07 -1.06515e-05
0.000946841 -7.49135e-06 3.3308e-08
-7.49135e-06 -4.51531e-05 -6.07966e-07
3.3308e-08 -6.07966e-07 -9.76876e-05
0.000822798 -4.6115e-06 -2.28619e-06
-4.6115e-06 -8.67114e-05 -6.36122e-07
-2.28619e-06 -6.36122e-07 -0.000134743
0.00111494 -1.64104e-06 -1.88484e-07
-1.64104e-06 2.69563e-05 1.51783e-07
-1.88484e-07 1.51783e-07 -3.03689e-05
0.00131783 -1.61134e-06 3.59127e-07
-1.61134e-06 0.000104024 -8.23565e-07
3.59127e-07 -8.23565e-07 4.43817e-05
0.000867514 -1.25996e-05 -3.77811e-06
-1.25996e-05 -3.07907e-05 -1.25402e-06
-3.77811e-06 -1.25402e-06 -4.88217e-05
0.000838114 -4.59395e-06 -4.20682e-07
-4.59395e-06 -7.88997e-05 -3.74442e-07
-4.20682e-07 -3.74442e-07 -0.000122751
0.0012433 -3.44062e-07 1.05406e-06
-3.44062e-07 9.219e-05 6.93045e-07
1.05406e-06 6.93045e-07 3.79865e-05
0.00242237 -1.77115e-05 -4.68432e-06
-1.77115e-05 0.000730849 -1.93965e-06
-4.68432e-06 -1.93965e-06 0.000740745
0.000849416 -1.29196e-05 -1.49387e-07
-1.29196e-05 -4.41677e-05 -1.165e-08
-1.49387e-07 -1.165e-08 -5.70374e-05
0.000798338 -5.08587e-06 1.79221e-06
-5.08587e-06 -9.36539e-05 9.39667e-07
1.79221e-06 9.39667e-07 -0.000132417
0.00239999 -1.74839e-05 -3.23774e-08
-1.74839e-05 0.00070665 6.67659e-08
-3.23774e-08 6.67659e-08 0.000719472
0.000827172 -1.30623e-05 3.08289e-06
-1.30623e-05 -6.0337e-05 1.2549e-06
3.08289e-06 1.2549e-06 -6.88193e-05
0.00241151 -1.68494e-05 3.51999e-06
-1.68494e-05 0.000699396 2.04004e-06
3.51999e-06 2.04004e-06 0.000714568
0.000795302 -4.83067e-06 -2.71526e-07
-4.83067e-06 -3.08753e-06 6.43649e-07
-2.71526e-07 6.43649e-07 -6.25502e-05
0.000901922 -7.42978e-06 4.81931e-07
-7.42978e-06 4.52967e-05 -1.00576e-06
4.81931e-07 -1.00576e-06 -1.92085e-05
0.000777866 -9.26605e-06 -1.54074e-06
-9.26605e-06 -3.12968e-05 -1.53347e-06
-1.54074e-06 -1.53347e-06 -9.14836e-05
0.000887113 6.44036e-07 -8.07256e-09
6.44036e-07 5.85326e-05 2.8707e-07
-8.07256e-09 2.8707e-07 6.88634e-06
0.000930151 8.09149e-07 -1.05025e-07
8.09149e-07 7.01112e-05 5.01092e-08
-1.05025e-07 5.01092e-08 1.55456e-05
0.000980088 -1.51113e-06 -5.05206e-07
-1.51113e-06 9.40033e-05 -1.12724e-07
-5.05206e-07 -1.12724e-07 3.54875e-05
0.000954801 5.75187e-06 -2.4088e-07
5.75187e-06 5.57661e-05 5.73576e-07
-2.4088e-07 5.73576e-07 2.47016e-06
0.000950829 4.87856e-06 1.76485e-07
4.87856e-06 6.08364e-05 6.4019e-09
1.76485e-07 6.4019e-09 8.79559e-06
0.000749636 4.18922e-06 -1.34728e-06
4.18922e-06 -1.51953e-05 -7.99698e-07
-1.34728e-06 -7.99698e-07 -6.34112e-05
0.00109481 5.39677e-06 1.75208e-07
5.39677e-06 8.87779e-05 8.64165e-07
1.75208e-07 8.64165e-07 3.44004e-05
0.000915468 5.60839e-06 -3.05284e-07
5.60839e-06 2.29899e-05 -1.29167e-07
-3.05284e-07 -1.29167e-07 -2.70998e-05
0.000712066 7.88804e-06 -3.89887e-06
7.88804e-06 -2.04948e-05 9.4981e-09
-3.89887e-06 9.4981e-09 -5.34759e-05
0.000940652 5.79519e-06 1.48895e-06
5.79519e-06 7.81752e-06 4.76119e-07
1.48895e-06 4.76119e-07 -4.21238e-05
0.000724203 1.05049e-05 1.91051e-08
1.05049e-05 -4.33994e-05 1.8086e-07
1.91051e-08 1.8086e-07 -7.44899e-05
0.0026501 1.4615e-05 -5.72025e-06
1.4615e-05 0.000909184 1.06897e-06
-5.72025e-06 1.06897e-06 0.000906842
0.00077068 1.21999e-05 3.97527e-06
1.21999e-05 -4.54626e-05 -5.68616e-07
3.97527e-06 -5.68616e-07 -7.27908e-05
0.00260167 1.61894e-05 2.69606e-08
1.61894e-05 0.000867199 1.24638e-07
2.69606e-08 1.24638e-07 0.000867703
0.0010346 1.76607e-05 5.41654e-06
1.76607e-05 9.72736e-05 -1.35738e-06
5.41654e-06 -1.35738e-06 9.24186e-05
0.00113074 -7.0048e-06 -5.04681e-07
-7.0048e-06 0.000109185 2.17472e-07
-5.04681e-07 2.17472e-07 5.07364e-05
0.00117599 -8.8151e-06 2.77395e-07
-8.8151e-06 0.000134922 1.7184e-07
2.77395e-07 1.7184e-07 7.05687e-05
0.00104767 -5.75603e-06 -4.29496e-07
-5.75603e-06 3.85791e-05 4.34915e-07
-4.29496e-07 4.34915e-07 -1.53424e-05
0.00107143 -7.3916e-06 3.37296e-08
-7.3916e-06 3.96686e-05 -3.47428e-07
3.37296e-08 -3.47428e-07 -1.48532e-05
0.000912312 -8.57727e-06 -1.52637e-07
-8.57727e-06 -2.23331e-05 9.40165e-07
-1.52637e-07 9.40165e-07 -8.05564e-05
0.000965802 -5.60381e-06 -1.84865e-06
-5.60381e-06 -7.2327e-06 5.67815e-07
-1.84865e-06 5.67815e-07 -5.51671e-05
0.00109951 -4.47609e-06 7.70209e-08
-4.47609e-06 2.89122e-05 1.57496e-07
7.70209e-08 1.57496e-07 -2.63401e-05
0.00102549 -6.06028e-06 -1.53696e-07
-6.06028e-06 -1.31653e-05 -1.50993e-06
-1.53696e-07 -1.50993e-06 -6.71475e-05
0.000818942 -1.22604e-05 -4.09506e-06
-1.22604e-05 -4.46928e-05 -9.63055e-07
-4.09506e-06 -9.63055e-07 -6.79187e-05
0.000900585 -4.50822e-06 -4.14483e-07
-4.50822e-06 -5.01616e-05 -1.2894e-07
-4.14483e-07 -1.2894e-07 -9.78893e-05
0.00127411 -1.62259e-06 5.98346e-07
-1.62259e-06 0.000101713 1.25141e-07
5.98346e-07 1.25141e-07 4.53599e-05
0.00253567 -1.75151e-05 -5.27235e-06
-1.75151e-05 0.000798302 -1.85526e-06
-5.27235e-06 -1.85526e-06 0.000804982
0.000826851 -1.26503e-05 -1.72321e-07
-1.26503e-05 -4.85886e-05 -1.22668e-08
-1.72321e-07 -1.22668e-08 -6.64998e-05
0.000794343 -4.41296e-06 1.52768e-06
-4.41296e-06 -9.99448e-05 5.40422e-07
1.52768e-06 5.40422e-07 -0.000144443
0.00250142 -1.77808e-05 -3.27721e-08
-1.77808e-05 0.000766758 8.10581e-08
-3.27721e-08 8.10581e-08 0.000776838
0.000803561 -1.30167e-05 3.33899e-06
-1.30167e-05 -6.46634e-05 1.31866e-06
3.33899e-06 1.31866e-06 -7.7378e-05
0.00247884 -1.74833e-05 3.79763e-06
-1.74833e-05 0.000742666 1.93841e-06
3.79763e-06 1.93841e-06 0.000755576
0.000996004 -4.16386e-06 -5.41266e-07
-4.16386e-06 8.64133e-05 7.19379e-07
-5.41266e-07 7.19379e-07 3.17716e-05
0.000889304 -4.93805e-06 1.7638e-08
-4.93805e-06 3.6959e-05 -3.59675e-07
1.7638e-08 -3.59675e-07 -2.23891e-05
0.000946811 -7.251e-06 -4.28505e-07
-7.251e-06 6.42072e-05 -2.14168e-06
-4.28505e-07 -2.14168e-06 3.24919e-07
0.000746136 2.63003e-07 -1.2301e-06
2.63003e-07 1.96271e-06 -9.371e-08
-1.2301e-06 -9.371e-08 -4.54797e-05
0.000876083 8.5603e-07 1.06985e-07
8.5603e-07 5.23595e-05 2.31277e-08
1.06985e-07 2.31277e-08 9.75528e-07
0.000972187 7.99273e-07 -9.0706e-08
7.99273e-07 8.51605e-05 -2.48951e-07
-9.0706e-08 -2.48951e-07 3.0217e-05
0.000952547 4.94713e-06 2.73366e-07
4.94713e-06 6.11212e-05 6.72371e-07
2.73366e-07 6.72371e-07 9.19208e-06
0.000782688 4.43059e-06 -2.87389e-07
4.43059e-06 -3.24995e-06 -1.84386e-07
-2.87389e-07 -1.84386e-07 -5.18681e-05
0.000676836 4.73643e-06 -3.5652e-06
4.73643e-06 -8.76641e-06 -2.69448e-07
-3.5652e-06 -2.69448e-07 -4.1711e-05
0.000955825 5.67838e-06 1.0887e-06
5.67838e-06 4.09843e-05 5.20476e-07
1.0887e-06 5.20476e-07 -9.00251e-06
0.000682936 8.29569e-06 -8.30031e-08
8.29569e-06 -3.39132e-05 1.47618e-07
-8.30031e-08 1.47618e-07 -6.67001e-05
0.00243683 1.15529e-05 -5.76458e-06
1.15529e-05 0.000834348 6.86683e-07
-5.76458e-06 6.86683e-07 0.000829522
0.00070929 1.08181e-05 3.97555e-06
1.08181e-05 -5.08037e-05 -1.05966e-07
3.97555e-06 -1.05966e-07 -8.17407e-05
0.00250538 1.3811e-05 2.61179e-08
1.3811e-05 0.000846586 1.32883e-07
2.61179e-08 1.32883e-07 0.000843945
0.0024746 1.56063e-05 5.71799e-06
1.56063e-05 0.000811864 -1.23611e-06
5.71799e-06 -1.23611e-06 0.000811986
0.00107004 -5.56285e-06 -5.50895e-07
-5.56285e-06 8.64361e-05 6.6503e-07
-5.50895e-07 6.6503e-07 3.12987e-05
0.00112993 -7.28332e-06 8.97445e-08
-7.28332e-06 0.000108679 2.58739e-07
8.97445e-08 2.58739e-07 4.94474e-05
0.00104153 -8.59293e-06 2.10601e-07
-8.59293e-06 7.18456e-05 1.0261e-06
2.10601e-07 1.0261e-06 6.15568e-06
0.000937521 -6.05623e-06 -1.58029e-06
-6.05623e-06 9.49854e-06 4.64028e-07
-1.58029e-06 4.64028e-07 -3.84886e-05
0.00104316 -5.70855e-06 7.70911e-08
-5.70855e-06 3.70136e-05 -2.10293e-07
7.70911e-08 -2.10293e-07 -1.68892e-05
0.00103696 -7.43882e-06 -3.70411e-07
-7.43882e-06 2.5095e-05 -7.32624e-07
-3.70411e-07 -7.32624e-07 -2.92214e-05
0.000747947 -1.18732e-05 -4.25356e-06
-1.18732e-05 -5.98248e-05 -2.61158e-07
-4.25356e-06 -2.61158e-07 -8.69099e-05
0.000994795 -5.50388e-06 1.97717e-08
-5.50388e-06 5.61326e-06 2.81397e-07
1.97717e-08 2.81397e-07 -4.24759e-05
0.00113042 -4.42043e-06 6.98505e-07
-4.42043e-06 4.24334e-05 -6.92422e-07
6.98505e-07 -6.92422e-07 -1.29407e-05
0.00260925 -1.67697e-05 -5.78069e-06
-1.67697e-05 0.000850277 -1.63592e-06
-5.78069e-06 -1.63592e-06 0.000853555
0.000798637 -1.22147e-05 -1.89008e-07
-1.22147e-05 -5.31069e-05 1.0177e-07
-1.89008e-07 1.0177e-07 -7.6309e-05
0.000977728 -4.40774e-06 1.57077e-06
-4.40774e-06 -1.39217e-05 4.05967e-07
1.57077e-06 4.05967e-07 -6.13428e-05
0.00261925 -1.7692e-05 -2.87098e-08
-1.7692e-05 0.000835868 9.0715e-08
-2.87098e-08 9.0715e-08 0.000842831
0.000786524 -1.26992e-05 3.69926e-06
-1.26992e-05 -6.6224e-05 1.33187e-06
3.69926e-06 1.33187e-06 -8.40165e-05
0.0025795 -1.78527e-05 4.16443e-06
-1.78527e-05 0.000802209 1.8647e-06
4.16443e-06 1.8647e-06 0.000812476
0.000872866 -3.76576e-06 -1.23443e-06
-3.76576e-06 4.56249e-05 5.59688e-07
-1.23443e-06 5.59688e-07 -2.32081e-06
0.00092262 -4.13297e-06 3.16139e-08
-4.13297e-06 5.40742e-05 1.68861e-07
3.16139e-08 1.68861e-07 -7.66634e-07
0.000980687 -5.04272e-06 7.20622e-07
-5.04272e-06 7.57342e-05 -1.61867e-06
7.20622e-07 -1.61867e-06 1.65087e-05
0.000637139 -1.08564e-07 -3.30943e-06
-1.08564e-07 -1.19622e-05 -1.75632e-07
-3.30943e-06 -1.75632e-07 -4.42201e-05
0.000738014 5.92365e-07 -2.01927e-07
5.92365e-07 -2.2809e-06 -1.57897e-07
-2.01927e-07 -1.57897e-07 -4.97551e-05
0.000863762 1.07007e-06 2.33941e-07
1.07007e-06 4.55571e-05 2.61157e-08
2.33941e-07 2.61157e-08 -5.56011e-06
0.000815985 4.67341e-06 9.04013e-07
4.67341e-06 8.80435e-06 4.64502e-07
9.04013e-07 4.64502e-07 -4.02155e-05
0.000648197 5.19456e-06 -1.21524e-07
5.19456e-06 -2.16202e-05 6.15597e-08
-1.21524e-07 6.15597e-08 -5.44046e-05
0.00213021 7.59336e-06 -5.49272e-06
7.59336e-06 0.000713627 3.14908e-07
-5.49272e-06 3.14908e-07 0.000707313
0.000654476 8.69907e-06 3.77561e-06
8.69907e-06 -4.70403e-05 2.6881e-07
3.77561e-06 2.6881e-07 -7.96322e-05
0.00228972 1.0542e-05 2.51954e-08
1.0542e-05 0.000770911 1.22091e-07
2.51954e-08 1.22091e-07 0.000765924
0.00236227 1.3013e-05 5.71294e-06
1.3013e-05 0.000784737 -8.38257e-07
5.71294e-06 -8.38257e-07 0.000781797
0.000889538 -5.31568e-06 -1.43516e-06
-5.31568e-06 2.47211e-05 6.39493e-07
-1.43516e-06 6.39493e-07 -2.35183e-05
0.00102581 -5.60612e-06 -2.67254e-08
-5.60612e-06 6.80286e-05 1.32067e-07
-2.67254e-08 1.32067e-07 1.27978e-05
0.00113072 -7.5595e-06 3.3654e-07
-7.5595e-06 0.00010901 4.72443e-08
3.3654e-07 4.72443e-08 4.89846e-05
0.00132634 -1.06149e-05 -4.05539e-06
-1.06149e-05 0.000248122 -1.21678e-07
-4.05539e-06 -1.21678e-07 0.000223807
0.000948113 -5.93099e-06 1.03863e-07
-5.93099e-06 1.44333e-05 -6.50676e-08
1.03863e-07 -6.50676e-08 -3.36412e-05
0.00103921 -5.66507e-06 3.58386e-07
-5.66507e-06 3.5687e-05 -9.02902e-07
3.58386e-07 -9.02902e-07 -1.81953e-05
0.0025164 -1.53617e-05 -5.84476e-06
-1.53617e-05 0.000830793 -1.1913e-06
-5.84476e-06 -1.1913e-06 0.000830955
0.00076296 -1.16891e-05 -7.98586e-08
-1.16891e-05 -5.25144e-05 2.53239e-07
-7.98586e-08 2.53239e-07 -7.97374e-05
0.00102318 -5.40371e-06 1.9262e-06
-5.40371e-06 1.81814e-05 1.86131e-08
1.9262e-06 1.86131e-08 -3.00624e-05
0.00271127 -1.70915e-05 -3.34549e-08
-1.70915e-05 0.000895425 1.20057e-07
-3.34549e-08 1.20057e-07 0.000899038
0.00077922 -1.21666e-05 4.05533e-06
-1.21666e-05 -6.11059e-05 1.27082e-06
4.05533e-06 1.27082e-06 -8.42857e-05
0.00270265 -1.78695e-05 4.65582e-06
-1.78695e-05 0.000873335 1.79085e-06
4.65582e-06 1.79085e-06 0.000880581
0.000591691 -4.42388e-06 -4.89132e-06
-4.42388e-06 -3.90647e-05 1.75107e-07
-4.89132e-06 1.75107e-07 -7.07875e-05
0.00083312 -3.60218e-06 9.90251e-08
-3.60218e-06 2.76274e-05 -1.16013e-09
9.90251e-08 -1.16013e-09 -2.06473e-05
0.000851322 -4.09853e-06 5.29854e-07
-4.09853e-06 2.27146e-05 -7.75972e-07
5.29854e-07 -7.75972e-07 -3.23286e-05
0.00187215 1.33702e-06 -5.06416e-06
1.33702e-06 0.000606407 3.91647e-08
-5.06416e-06 3.91647e-08 0.000599663
0.00063246 3.43548e-07 -2.39889e-08
3.43548e-07 -1.40377e-05 -9.54411e-08
-2.39889e-08 -9.54411e-08 -4.62743e-05
0.000731506 9.21238e-07 7.97445e-07
9.21238e-07 -5.81242e-06 -5.40581e-08
7.97445e-07 -5.40581e-08 -5.33159e-05
0.000619909 5.64953e-06 3.46031e-06
5.64953e-06 -3.43309e-05 3.68114e-07
3.46031e-06 3.68114e-07 -6.69532e-05
0.00202242 6.43907e-06 2.298e-08
6.43907e-06 0.000667231 9.98844e-08
2.298e-08 9.98844e-08 0.000660888
0.00214338 9.54923e-06 5.41739e-06
9.54923e-06 0.000707836 -4.38359e-07
5.41739e-06 -4.38359e-07 0.000702686
0.00114296 -7.8198e-06 -5.4058e-06
-7.8198e-06 0.000197707 -1.31485e-07
-5.4058e-06 -1.31485e-07 0.00017174
0.00089271 -5.19519e-06 4.25501e-08
-5.19519e-06 2.62573e-05 1.30733e-07
4.25501e-08 1.30733e-07 -2.20169e-05
0.000981556 -5.65228e-06 2.99821e-07
-5.65228e-06 4.96505e-05 -3.09646e-07
2.99821e-07 -3.09646e-07 -5.67838e-06
0.00241412 -1.40851e-05 -2.44251e-06
-1.40851e-05 0.000806185 -3.1889e-07
-2.44251e-06 -3.1889e-07 0.000803871
0.000754757 -1.07053e-05 4.93164e-08
-1.07053e-05 -2.7969e-05 8.1019e-08
4.93164e-08 8.1019e-08 -5.76591e-05
0.000958357 -5.80769e-06 1.6625e-06
-5.80769e-06 1.92043e-05 -6.0748e-07
1.6625e-06 -6.0748e-07 -2.8957e-05
0.0026716 -1.58545e-05 -3.79947e-08
-1.58545e-05 0.000898592 1.51027e-07
-3.79947e-08 1.51027e-07 0.000899016
0.000778237 -1.1499e-05 4.31377e-06
-1.1499e-05 -4.50747e-05 8.18886e-07
4.31377e-06 8.18886e-07 -7.2438e-05
0.00281421 -1.74195e-05 5.21398e-06
-1.74195e-05 0.000940977 1.67806e-06
5.21398e-06 1.67806e-06 0.000944927
0.000811374 -4.94997e-06 -4.78096e-06
-4.94997e-06 9.74189e-05 -2.7239e-08
-4.78096e-06 -2.7239e-08 8.0966e-05
0.000911628 -4.67875e-06 -6.66867e-07
-4.67875e-06 0.000109856 -5.47399e-08
-6.66867e-07 -5.47399e-08 8.04335e-05
0.000791335 -3.44197e-06 1.27557e-06
-3.44197e-06 8.6616e-06 -5.98605e-07
1.27557e-06 -5.98605e-07 -3.99374e-05
0.00186473 1.28909e-07 -1.6294e-08
1.28909e-07 0.000603329 6.63437e-08
-1.6294e-08 6.63437e-08 0.000596614
0.000628049 7.95168e-07 3.33022e-06
7.95168e-07 -1.60105e-05 -3.44133e-08
3.33022e-06 -3.44133e-08 -4.8223e-05
0.00191297 5.33388e-06 4.8961e-06
5.33388e-06 0.000620118 -1.2505e-07
4.8961e-06 -1.2505e-07 0.000613743
0.000908454 -1.08153e-05 -2.29554e-06
-1.08153e-05 0.000116374 -4.12626e-08
-2.29554e-06 -4.12626e-08 0.000101343
0.0010134 -8.3055e-06 -7.8524e-07
-8.3055e-06 0.000130183 -6.12874e-09
-7.8524e-07 -6.12874e-09 0.000101367
0.000896241 -5.07686e-06 1.39902e-06
-5.07686e-06 2.79527e-05 -3.81206e-07
1.39902e-06 -3.81206e-07 -2.03558e-05
0.00181833 -1.39186e-05 1.6599e-06
-1.39186e-05 0.000520032 4.44927e-07
1.6599e-06 4.44927e-07 0.000512444
0.00074576 -1.01298e-05 4.2033e-06
-1.01298e-05 -3.04232e-05 1.52941e-07
4.2033e-06 1.52941e-07 -6.03299e-05
0.00282996 -1.63647e-05 5.752e-06
-1.63647e-05 0.000967823 1.43591e-06
5.752e-06 1.43591e-06 0.000968512
0.00186524 -5.6482e-06 1.72817e-08
-5.6482e-06 0.000599226 9.13825e-08
1.72817e-08 9.13825e-08 0.000592991
0.000668147 -4.22652e-06 3.56962e-06
-4.22652e-06 -6.69697e-06 -2.07273e-07
3.56962e-06 -2.07273e-07 -3.87953e-05
0.00185347 -1.08082e-06 4.99423e-06
-1.08082e-06 0.000598524 6.21647e-08
4.99423e-06 6.21647e-08 0.000591834
0.00153222 -1.0042e-05 1.61718e-06
-1.0042e-05 0.000418339 3.19085e-07
1.61718e-06 3.19085e-07 0.00040827
0.000702681 -7.66358e-06 3.86303e-06
-7.66358e-06 -1.68815e-05 1.45167e-08
3.86303e-06 1.45167e-08 -4.83775e-05
0.00264014 -1.44539e-05 5.9433e-06
-1.44539e-05 0.000905246 1.04047e-06
5.9433e-06 1.04047e-06 0.000903079
0.00203657 -7.4064e-06 5.39489e-06
-7.4064e-06 0.000673258 3.16316e-07
5.39489e-06 3.16316e-07 0.000667156
0.00233236 -1.14573e-05 5.69357e-06
-1.14573e-05 0.000789241 6.7224e-07
5.69357e-06 6.7224e-07 0.000784733
