# vtk DataFile Version 2.0
Wound Healing Simulation
ASCII
DATASET UNSTRUCTURED_GRID
POINTS 3012 float
69.9759 18.75 4
67.2507 60.3285 4
69.976 18.75 2
73.0099 25.446 4
71.1327 20.9142 4
68.6801 16.6661 4
67.8277 19.9229 3.98871
67.2507 60.3286 2
71.1327 54.0858 4
68.6801 58.3339 4
65.6939 62.2254 4
65.314 59.0054 3.9901
74.6784 42.3946 4
73.7221 47.2057 4
69.9759 18.75 0
73.0099 25.446 2
68.6801 16.6661 2
71.1327 20.9142 2
67.828 19.9234 2
74.6792 32.6053 4
73.7222 27.7943 4
72.1454 23.1494 4
70.6164 26.2219 3.98763
68.8881 21.9565 3.98835
67.2507 14.6715 4
66.639 17.9675 3.98942
65.8042 21.0187 3.98447
67.2507 60.3285 0
71.1327 54.0858 2
68.6801 58.3339 2
65.694 62.2255 2
65.3142 59.0054 2
72.1454 51.8506 4
69.9759 56.25 4
68.8391 53.1142 3.9883
64.0165 64.0165 4
66.6128 57.1375 3.98959
63.8873 60.7699 3.9911
63.5059 57.7811 3.98559
60.3285 67.2507 4
74.6792 42.3947 2
73.7222 47.2057 2
74.9194 39.9526 4
74.2788 44.8158 4
72.1697 42.0851 3.98656
73.0099 49.554 4
71.2516 46.5968 3.98771
73.0099 25.446 0
71.1327 20.9142 0
68.6801 16.6661 0
67.8277 19.9229 0.0112943
74.6792 32.6053 2
73.7222 27.7943 2
67.2508 14.6715 2
72.1455 23.1494 2
70.6165 26.223 2
66.6393 17.9677 2
68.8884 21.9574 2
65.8044 21.0184 2
74.9197 35.0474 4
74.2794 30.1841 4
72.1863 32.9434 3.98674
71.2802 28.4323 3.98746
69.818 24.0596 3.98804
68.3532 26.9502 3.98142
66.7698 22.9289 3.98375
65.694 12.7746 4
65.3253 16.0987 3.99041
64.7202 19.1859 3.9853
63.8987 22.0245 3.98207
71.1327 54.0858 0
65.6939 62.2254 0
68.6801 58.3339 0
65.314 59.0054 0.00990036
72.1455 51.8506 2
69.9759 56.25 2
68.8394 53.1134 2
64.0165 64.0165 2
66.613 57.1374 2
63.8874 60.7699 2
63.506 57.7814 2
62.2254 65.694 4
58.8942 65.4167 3.99254
69.7717 50.9885 3.98796
67.7862 55.17 3.989
66.6575 52.2131 3.98373
62.3372 62.4307 3.99189
64.6677 56.0396 3.9857
62.2068 59.4143 3.98582
61.8324 56.695 3.98356
58.3339 68.6801 4
60.3285 67.2508 2
73.7221 47.2057 0
74.6784 42.3946 0
74.9197 39.9526 2
74.2794 44.8159 2
72.1697 42.0853 2
73.0099 49.554 2
71.2516 46.5964 2
75 37.5 4
72.4066 39.802 3.9857
71.7844 44.352 3.98732
69.8091 41.789 3.98004
70.5777 48.8123 3.98788
68.9188 46.0148 3.98093
74.6792 32.6053 0
73.7222 27.7943 0
67.2507 14.6715 0
72.1454 23.1494 0
70.6164 26.2219 0.0123689
68.8881 21.9565 0.0116481
66.639 17.9675 0.0105787
65.8042 21.0187 0.0155344
74.9197 35.0474 2
74.2794 30.1841 2
72.1863 32.9435 2
71.2802 28.4331 2
65.694 12.7745 2
65.3255 16.0986 2
69.8183 24.0608 2
68.3531 26.9502 2
64.7205 19.1855 2
66.77 22.9286 2
63.8989 22.0241 2
72.4144 35.224 3.98572
71.8057 30.6768 3.98735
69.8449 33.2684 3.98024
68.972 29.0377 3.98071
67.6183 24.9094 3.98268
66.2047 27.6306 3.97898
64.0165 10.9835 4
64.7685 23.8217 3.98144
63.8913 14.323 3.99126
63.5184 17.4363 3.98613
62.9177 20.307 3.98274
62.1085 22.9286 3.9809
60.6846 11.0946 3.99216
57.613 11.4389 3.98732
72.1454 51.8506 0
69.9759 56.25 0
68.8391 53.1142 0.0117016
64.0165 64.0165 0
63.8873 60.7699 0.00889693
66.6128 57.1375 0.0104077
63.5059 57.7811 0.0144077
62.2255 65.694 2
58.8944 65.4168 2
69.7719 50.9876 2
67.7865 55.1696 2
66.6576 52.2135 2
62.3374 62.4307 2
64.6679 56.04 2
62.2068 59.4146 2
61.8325 56.6953 2
60.6692 63.9798 3.99224
57.0247 66.7372 3.99293
57.5582 63.698 3.98744
67.5152 50.1789 3.98263
65.7098 54.1793 3.98494
64.5508 51.3932 3.981
60.7755 60.9471 3.98647
62.8316 55.0804 3.98386
60.6652 58.1734 3.98354
60.3402 55.8028 3.98273
56.25 69.9759 4
58.3339 68.6801 2
60.3285 67.2507 0
58.9215 9.65296 3.99255
62.2254 9.30607 4
73.0099 49.554 0
74.2788 44.8158 0
71.2516 46.5968 0.0122854
72.1697 42.0851 0.0134351
74.9194 39.9526 0
75 37.5 2
72.4066 39.8023 2
71.7844 44.3519 2
69.8091 41.789 2
70.5778 48.8115 2
68.9187 46.0147 2
72.4898 37.5119 3.98522
70.0452 39.6568 3.97899
69.4363 43.907 3.98062
67.6058 41.4981 3.97735
68.2732 48.1081 3.98169
66.7204 45.4421 3.97857
74.9197 35.0474 0
74.2794 30.1841 0
72.1863 32.9434 0.0132556
71.2802 28.4323 0.0125446
65.694 12.7746 0
65.3253 16.0987 0.00958681
69.818 24.0596 0.0119634
68.3532 26.9502 0.0185846
66.7698 22.9289 0.0162525
64.7202 19.1859 0.0146982
63.8987 22.0245 0.0179253
72.4145 35.2242 2
71.8057 30.6772 2
69.8449 33.2685 2
68.9719 29.0378 2
64.0165 10.9835 2
63.8915 14.3229 2
63.5186 17.4359 2
67.6183 24.9092 2
66.2046 27.6304 2
62.918 20.3066 2
64.7686 23.8213 2
62.1086 22.9284 2
60.6847 11.0945 2
57.613 11.4384 2
70.062 35.3918 3.97944
69.4726 31.1494 3.98061
67.6638 33.5894 3.97752
66.7817 29.6199 3.97815
65.5354 25.6933 3.98025
64.1599 28.2484 3.97819
62.3426 12.6515 3.99179
62.8729 24.6251 3.9805
62.2023 15.7743 3.98636
61.8223 18.6699 3.9838
61.2319 21.3248 3.98107
60.4447 23.7098 3.98066
59.2475 12.7698 3.98662
55.8746 10.2257 3.98848
56.4067 13.1012 3.9844
69.7717 50.9885 0.0120395
62.2254 65.694 0
58.8942 65.4167 0.00745508
67.7862 55.17 0.0109996
66.6575 52.2131 0.0162672
62.3372 62.4307 0.00810815
62.2068 59.4143 0.0141785
64.6677 56.0396 0.0142956
61.8324 56.695 0.0164354
60.6694 63.9799 2
57.0249 66.7373 2
57.5582 63.6985 2
67.5152 50.1791 2
65.71 54.1798 2
64.5509 51.3936 2
60.7756 60.9476 2
62.8318 55.0809 2
60.6653 58.1738 2
60.3403 55.8031 2
55.0701 67.934 3.99325
59.2206 62.374 3.9868
55.8042 64.9149 3.98835
56.3284 62.0988 3.98459
65.3444 49.4138 3.97993
63.7189 53.3028 3.98256
62.4595 50.6634 3.97962
59.3378 59.5696 3.98438
61.092 54.3251 3.98305
59.2984 57.0295 3.98197
59.2562 55.2019 3.98296
48.1024 68.5819 3.99011
50.948 69.9333 3.99377
54.0858 71.1327 4
56.25 69.976 2
58.3339 68.6801 0
57.0585 8.33292 3.99304
60.3285 7.74928 4
58.9217 9.65287 2
62.2255 9.30602 2
70.5777 48.8123 0.0121215
71.7844 44.352 0.012683
68.9188 46.0148 0.019066
69.8091 41.789 0.0199624
72.4066 39.802 0.0143047
75 37.5 0
72.4898 37.5122 2
70.0452 39.6567 2
69.4362 43.9069 2
67.6058 41.4982 2
68.2731 48.1081 2
66.7203 45.4423 2
70.1329 37.5212 3.97859
67.8414 39.5122 3.97631
67.2333 43.4712 3.97808
65.5677 41.2117 3.97655
66.0805 47.4216 3.97925
64.6666 44.8529 3.97775
72.4144 35.224 0.0142833
71.8057 30.6768 0.0126465
69.8449 33.2684 0.0197577
68.972 29.0377 0.019293
64.0165 10.9835 0
63.8913 14.323 0.00874115
63.5184 17.4363 0.0138689
67.6183 24.9094 0.0173163
66.2047 27.6306 0.0210235
64.7685 23.8217 0.0185614
62.9177 20.307 0.0172579
62.1085 22.9286 0.019102
60.6846 11.0946 0.00783683
57.613 11.4389 0.0126776
70.062 35.3919 2
69.4726 31.1495 2
67.6638 33.5892 2
66.7815 29.6197 2
62.3427 12.6515 2
62.2024 15.7738 2
61.8226 18.6695 2
65.5353 25.6929 2
64.1598 28.2481 2
61.2322 21.3246 2
62.873 24.6248 2
60.4448 23.7097 2
59.2475 12.7693 2
56.4067 13.1007 2
55.8746 10.2252 2
67.8777 35.5466 3.97687
67.2745 31.6202 3.9781
65.7091 33.9243 3.9765
64.6756 30.1866 3.97703
63.5532 26.4047 3.97928
62.2741 28.7677 3.97864
60.7772 14.2139 3.98637
61.0646 25.3224 3.98035
60.6184 17.1135 3.98452
60.2339 19.7984 3.98231
59.6782 22.239 3.9799
58.9999 24.3005 3.98104
54.0376 9.12927 3.98926
57.9126 14.3193 3.98447
54.7876 12.0007 3.98512
55.3147 14.6317 3.98326
67.5152 50.1789 0.0173683
57.0247 66.7372 0.00707266
60.6692 63.9798 0.00776399
57.5582 63.698 0.0125596
65.7098 54.1793 0.015056
64.5508 51.3932 0.0189993
60.7755 60.9471 0.01353
60.6652 58.1734 0.0164621
62.8316 55.0804 0.0161396
60.3402 55.8028 0.0172725
55.0704 67.9341 2
59.2206 62.3746 2
55.8042 64.9153 2
56.3284 62.0992 2
65.3444 49.4143 2
63.7191 53.3033 2
62.4596 50.6638 2
59.3379 59.5702 2
61.0922 54.3254 2
59.2985 57.0298 2
59.2564 55.2021 2
53.0421 69.0016 3.99354
53.9662 66.0168 3.98903
57.8835 60.8808 3.98452
54.6841 63.2142 3.98525
55.214 60.6265 3.98327
63.2114 48.6699 3.97876
61.7588 52.5891 3.98135
60.2956 50.0338 3.9789
58.0244 58.2761 3.98287
59.3442 53.9657 3.98227
58.1382 55.832 3.98045
50.1088 67.8599 3.98986
47.4627 66.5862 3.98776
46.0562 69.1614 3.99035
48.1025 68.5823 2
48.8023 70.7244 3.99397
50.9482 69.9334 2
51.8506 72.1454 4
54.0858 71.1327 2
56.25 69.9759 0
55.1028 7.13755 3.99338
58.3339 6.31992 4
57.0587 8.33278 2
60.3286 7.74926 2
58.9215 9.65296 0.00745023
62.2254 9.30607 0
68.2732 48.1081 0.0183058
69.4363 43.907 0.0193827
66.7204 45.4421 0.0214298
67.6058 41.4981 0.0226505
70.0452 39.6568 0.0210147
72.4898 37.5119 0.0147838
70.1328 37.5212 2
67.8414 39.5122 2
67.2332 43.4714 2
65.5677 41.2119 2
66.0804 47.422 2
64.6665 44.8532 2
67.937 37.5215 3.97568
65.7975 39.3709 3.9756
65.1891 43.0285 3.97718
63.7705 40.9328 3.97648
63.9814 46.7231 3.97823
62.8249 44.2229 3.97835
70.062 35.3918 0.0205641
69.4726 31.1494 0.0193899
67.6638 33.5894 0.0224811
66.7817 29.6199 0.0218518
62.3426 12.6515 0.00821239
62.2023 15.7743 0.0136363
61.8223 18.6699 0.0162041
65.5354 25.6933 0.0197518
64.1599 28.2484 0.0218074
62.8729 24.6251 0.0195022
61.2319 21.3248 0.01893
60.4447 23.7098 0.0193376
59.2475 12.7698 0.0133753
56.4067 13.1012 0.0155965
55.8746 10.2257 0.0115195
67.8778 35.5464 2
67.2744 31.62 2
65.7091 33.924 2
64.6755 30.1863 2
60.7772 14.2133 2
60.6186 17.113 2
60.2343 19.7981 2
63.5532 26.4044 2
62.2739 28.7675 2
59.6785 22.2389 2
61.0646 25.3222 2
59 24.3005 2
57.9125 14.3189 2
55.3147 14.6313 2
54.0376 9.12876 2
54.7876 12.0001 2
65.8866 35.6651 3.97593
65.1986 32.1498 3.97689
64.2979 34.2463 3.97614
62.6109 30.6275 3.97697
61.6698 27.0596 3.97898
60.8698 29.128 3.98051
59.314 15.6558 3.9846
59.3537 25.7786 3.98165
59.1309 18.3385 3.98359
58.7537 20.8338 3.98076
58.3042 23.0711 3.97883
57.9911 24.6441 3.98181
52.1122 8.14805 3.98973
53.0582 11.0071 3.98611
56.6795 15.7274 3.98372
53.811 13.6672 3.98333
54.3791 15.9826 3.98313
55.0701 67.934 0.00674609
65.3444 49.4138 0.0200651
55.8042 64.9149 0.011648
59.2206 62.374 0.0131991
56.3284 62.0988 0.015411
63.7189 53.3028 0.0174371
62.4595 50.6634 0.020376
59.3378 59.5696 0.0156182
59.2984 57.0295 0.0180327
61.092 54.3251 0.0169482
59.2562 55.2019 0.017036
53.0423 69.0017 2
53.9663 66.0172 2
57.8835 60.8813 2
54.6841 63.2147 2
55.2139 60.627 2
63.2113 48.6703 2
61.7589 52.5895 2
60.2956 50.0341 2
58.0245 58.2766 2
59.3444 53.9659 2
58.1384 55.8322 2
52.0698 67.0031 3.98953
52.9529 64.2242 3.98605
56.6524 59.5015 3.98349
53.6823 61.6307 3.98372
54.2636 59.3331 3.98245
61.0152 47.8925 3.97806
59.7305 52.1222 3.98105
58.0514 49.6345 3.97966
56.7848 57.0053 3.98083
57.1373 54.143 3.9801
50.1089 67.8603 2
49.3363 65.9263 3.98735
47.4627 66.5866 2
46.8916 64.7431 3.98591
45.5579 67.1037 3.9879
43.9734 69.594 3.99058
46.0563 69.1618 2
46.6091 71.3689 3.99419
48.1024 68.5819 0.00988833
48.8025 70.7246 2
49.554 73.0099 4
50.948 69.9333 0.00623152
51.8506 72.1455 2
54.0858 71.1327 0
53.0638 6.06918 3.99363
55.103 7.1374 2
56.25 5.02411 4
58.3339 6.3199 2
57.0585 8.33292 0.00695666
60.3285 7.74928 0
66.0805 47.4216 0.0207543
67.2333 43.4712 0.0219237
64.6666 44.8529 0.0222542
65.5677 41.2117 0.023447
67.8414 39.5122 0.0236876
70.1329 37.5212 0.0214101
67.937 37.5214 2
65.7976 39.3709 2
65.1891 43.0287 2
63.7705 40.9329 2
63.9813 46.7235 2
62.8248 44.2231 2
65.8995 37.5012 3.97456
63.913 39.2681 3.97554
63.3454 42.555 3.97707
62.4491 40.7016 3.97637
61.9873 45.928 3.97819
61.4724 43.6914 3.9797
67.8777 35.5466 0.0231276
67.2745 31.6202 0.0219042
65.7091 33.9243 0.0234957
64.6756 30.1866 0.022972
60.7772 14.2139 0.0136299
60.6184 17.1135 0.0154801
60.2339 19.7984 0.0176862
63.5532 26.4047 0.0207204
62.2741 28.7677 0.0213585
61.0646 25.3224 0.0196467
59.6782 22.239 0.0201048
58.9999 24.3005 0.0189633
57.9126 14.3193 0.0155252
55.3147 14.6317 0.0167432
54.0376 9.12927 0.0107448
54.7876 12.0007 0.014881
65.8867 35.6649 2
65.1985 32.1496 2
64.2979 34.246 2
62.6107 30.6272 2
59.314 15.6552 2
59.1313 18.338 2
58.7542 20.8335 2
61.6696 27.0594 2
60.8695 29.1278 2
58.3044 23.0711 2
59.3537 25.7786 2
57.9912 24.6442 2
56.6795 15.727 2
54.3791 15.9821 2
53.811 13.6666 2
52.1122 8.14756 2
53.0582 11.0066 2
64.104 35.6301 3.97548
62.947 33.0404 3.9759
60.6346 30.6005 3.97731
59.5948 27.8948 3.98001
57.9437 16.9677 3.98393
57.7649 25.7058 3.98314
57.7239 19.457 3.98251
57.3865 21.8185 3.97876
57.2075 23.9255 3.97866
50.1123 7.2804 3.98998
51.2325 10.1159 3.98686
52.1729 12.7845 3.98438
55.5409 16.9557 3.98361
52.9797 15.2484 3.98202
53.7614 16.9639 3.98336
53.0421 69.0016 0.00645832
53.9662 66.0168 0.010968
63.2114 48.6699 0.0212362
54.6841 63.2142 0.014752
57.8835 60.8808 0.0154762
55.214 60.6265 0.0167299
61.7588 52.5891 0.0186469
60.2956 50.0338 0.0210969
58.0244 58.2761 0.0171321
58.1382 55.832 0.0195494
59.3442 53.9657 0.0177305
52.0698 67.0035 2
52.9529 64.2247 2
56.6525 59.502 2
53.6822 61.6312 2
54.2636 59.3336 2
61.0151 47.8928 2
59.7306 52.1225 2
58.0513 49.6348 2
56.785 57.0058 2
57.1375 54.1431 2
51.1672 65.1332 3.98676
52.0463 62.5457 3.98432
55.4856 58.264 3.983
52.8366 60.1451 3.98274
53.6443 58.4837 3.98236
58.3341 46.8631 3.98058
57.5833 51.8061 3.97984
56.2756 49.5726 3.98202
55.482 55.8128 3.97927
55.3753 53.4034 3.97684
50.1088 67.8599 0.0101443
49.3363 65.9268 2
48.6175 64.1292 3.98549
47.4627 66.5862 0.0122391
45.5579 67.1042 2
46.8916 64.7435 2
46.3811 63.0614 3.98452
45.1319 65.2048 3.98618
43.6312 67.4749 3.98808
41.8607 69.8817 3.99066
43.9734 69.5945 2
44.3766 71.8638 3.99433
46.0562 69.1614 0.00964855
46.6092 71.3691 2
47.2057 73.7222 4
48.8023 70.7244 0.00602678
49.554 73.0099 2
51.8506 72.1454 0
50.9536 5.12972 3.99379
53.064 6.069 2
54.0858 3.86728 4
55.1028 7.13755 0.00662334
56.25 5.02406 2
58.3339 6.31992 0
63.9814 46.7231 0.0217681
65.1891 43.0285 0.0228238
62.8249 44.2229 0.0216528
63.7705 40.9328 0.0235185
65.7975 39.3709 0.0243992
67.937 37.5215 0.0243245
65.8994 37.5012 2
63.9131 39.2681 2
63.3453 42.5552 2
62.4491 40.7017 2
61.9872 45.9283 2
61.4723 43.6916 2
63.972 37.4565 3.97449
62.1761 39.3571 3.97598
61.2398 41.9649 3.9772
60.274 44.7803 3.98009
65.8866 35.6651 0.0240668
65.1986 32.1498 0.0231116
64.2979 34.2463 0.0238582
62.6109 30.6275 0.0230328
59.314 15.6558 0.0153954
59.1309 18.3385 0.016405
58.7537 20.8338 0.0192353
61.6698 27.0596 0.0210173
60.8698 29.128 0.0194942
59.3537 25.7786 0.0183475
58.3042 23.0711 0.021165
57.9911 24.6441 0.0181943
56.6795 15.7274 0.0162828
54.3791 15.9826 0.0168742
53.811 13.6672 0.0166688
52.1122 8.14805 0.0102719
53.0582 11.0071 0.013887
64.1041 35.6299 2
62.9468 33.04 2
60.6343 30.6002 2
57.9439 16.9672 2
57.7244 19.4564 2
57.3869 21.8184 2
59.5945 27.8948 2
57.2077 23.9257 2
57.7649 25.7059 2
50.1123 7.27993 2
55.541 16.9552 2
53.7614 16.9634 2
52.9797 15.2478 2
52.1729 12.7839 2
51.2324 10.1153 2
62.2082 35.3559 3.97506
60.3138 32.7371 3.97528
58.6473 30.0605 3.97791
57.3201 27.3611 3.98242
56.6412 18.1387 3.98368
56.3177 25.081 3.97959
56.3678 20.5013 3.98063
56.127 22.8467 3.9759
48.0561 6.52369 3.99021
49.3243 9.32423 3.98746
50.4334 11.983 3.98482
51.3793 14.4839 3.98268
54.4189 17.9038 3.98336
52.3639 17.0201 3.98216
52.0698 67.0031 0.0104694
52.9529 64.2242 0.0139481
61.0152 47.8925 0.0219447
53.6823 61.6307 0.0162807
56.6524 59.5015 0.0165114
54.2636 59.3331 0.0175497
59.7305 52.1222 0.0189506
58.0514 49.6345 0.0203354
56.7848 57.0053 0.0191714
57.1373 54.143 0.0198957
51.1672 65.1336 2
52.0462 62.5461 2
55.4858 58.2645 2
52.8366 60.1456 2
53.6443 58.4843 2
58.334 46.8634 2
57.5833 51.8063 2
56.2755 49.5728 2
55.4822 55.8133 2
55.3754 53.4036 2
50.3458 63.3872 3.98493
51.2451 60.9435 3.98283
54.2254 57.2791 3.98194
52.316 58.6454 3.98176
56.7532 44.1985 3.97959
55.5265 47.9136 3.98151
55.0942 51.4086 3.97718
54.0174 54.5651 3.97696
49.3363 65.9263 0.0126464
48.6174 64.1297 2
47.9616 62.4821 3.98414
45.5579 67.1037 0.0121004
46.8916 64.7431 0.0140887
43.6312 67.4755 2
46.381 63.0618 2
45.1319 65.2053 2
45.9868 61.5945 3.98339
44.7663 63.4629 3.98499
43.3558 65.5149 3.98625
41.6634 67.6943 3.98819
39.7024 70.0289 3.99065
41.8607 69.8821 2
42.111 72.2086 3.99431
43.9734 69.594 0.00941919
44.3767 71.8641 2
44.8159 74.2794 4
46.6091 71.3689 0.00580754
47.2057 73.7222 2
49.554 73.0099 0
48.7841 4.32083 3.994
50.9537 5.12951 2
51.8506 2.85458 4
53.0638 6.06918 0.00637025
54.0858 3.86728 2
56.25 5.02411 0
61.9873 45.928 0.0218074
63.3454 42.555 0.022928
61.4724 43.6914 0.0203048
62.4491 40.7016 0.0236319
63.913 39.2681 0.0244569
65.8995 37.5012 0.025439
63.9719 37.4564 2
62.1763 39.3571 2
61.2398 41.9651 2
60.274 44.7806 2
62.0133 37.4441 3.97493
60.2744 39.8515 3.97649
59.0241 42.9282 3.97801
64.104 35.6301 0.0245177
62.947 33.0404 0.0241036
60.6346 30.6005 0.0226895
57.9437 16.9677 0.0160739
57.7239 19.457 0.017487
57.3865 21.8185 0.0212382
59.5948 27.8948 0.0199882
57.7649 25.7058 0.0168605
57.2075 23.9255 0.0213441
55.5409 16.9557 0.0163906
53.7614 16.9639 0.0166409
52.9797 15.2484 0.0179838
50.1123 7.2804 0.0100229
52.1729 12.7845 0.0156157
51.2325 10.1159 0.0131431
62.2084 35.3557 2
60.3135 32.7368 2
58.6468 30.0602 2
56.6415 18.1381 2
56.3685 20.5008 2
56.1274 22.8469 2
57.3198 27.3611 2
56.3178 25.0816 2
48.0561 6.5233 2
49.3242 9.32371 2
54.4191 17.9033 2
52.364 17.0195 2
51.3793 14.4832 2
50.4334 11.9824 2
59.9207 35.1151 3.97509
58.025 32.2577 3.9757
56.5772 29.3192 3.97885
55.4789 26.5789 3.9833
55.3481 19.1719 3.98316
54.952 24.0341 3.97465
55.0143 21.5414 3.97909
45.9621 5.87889 3.99049
43.3734 7.46786 3.98854
47.3547 8.61828 3.98774
48.5999 11.2847 3.98554
49.7148 13.7313 3.98358
50.6356 16.1179 3.98115
53.1291 18.6433 3.98228
51.3061 18.0333 3.98374
51.1672 65.1332 0.0132436
52.0463 62.5457 0.0156825
58.3341 46.8631 0.0194199
52.8366 60.1451 0.0172594
55.4856 58.264 0.0170013
53.6443 58.4837 0.0176364
57.5833 51.8061 0.0201559
56.2756 49.5726 0.0179837
55.482 55.8128 0.0207257
55.3753 53.4034 0.0231595
50.3457 63.3876 2
51.245 60.944 2
54.2257 57.2797 2
52.316 58.646 2
56.7531 44.1989 2
55.5264 47.9139 2
55.0941 51.4085 2
54.0177 54.5655 2
49.5918 61.7517 3.98358
55.6875 41.7188 3.97731
50.569 59.3375 3.98126
52.1916 56.5029 3.97991
54.2293 45.5824 3.98211
53.3761 49.3466 3.97817
52.6873 52.8713 3.97569
48.6175 64.1292 0.0145075
47.9614 62.4826 2
47.3291 61.0171 3.98293
43.6312 67.4749 0.0119191
45.1319 65.2048 0.0138171
46.3811 63.0614 0.0154847
41.6634 67.6948 2
43.3558 65.5154 2
45.9866 61.5948 2
44.7662 63.4634 2
45.766 60.6387 3.98258
44.4824 61.8444 3.98365
43.1455 63.7357 3.9849
41.5454 65.6533 3.98654
39.6326 67.7745 3.98824
37.5259 70.0543 3.99069
39.7024 70.0294 2
39.8179 72.4057 3.99424
41.8607 69.8817 0.00934091
42.1111 72.2089 2
42.3947 74.6792 4
44.3766 71.8638 0.00567176
44.8159 74.2794 2
47.2057 73.7222 0
43.8515 5.35602 3.99072
46.5702 3.64548 3.99421
48.7842 4.32064 2
49.554 1.99015 4
50.9536 5.12972 0.00620594
51.8506 2.85453 2
54.0858 3.86728 0
60.274 44.7803 0.0199093
61.2398 41.9649 0.0228034
62.1761 39.3571 0.0240162
63.972 37.4565 0.0255108
62.0131 37.444 2
60.2746 39.8514 2
59.0241 42.9284 2
59.792 37.567 3.97599
58.0389 40.6643 3.97647
55.1684 39.7283 3.9761
62.2082 35.3559 0.024943
60.3138 32.7371 0.0247176
58.6473 30.0605 0.0220882
56.6412 18.1387 0.0163166
56.3678 20.5013 0.0193744
56.127 22.8467 0.0241005
57.3201 27.3611 0.0175766
56.3177 25.081 0.0204101
54.4189 17.9038 0.0166443
52.3639 17.0201 0.0178382
51.3793 14.4839 0.0173175
48.0561 6.52369 0.00978836
49.3243 9.32423 0.0125363
50.4334 11.983 0.0151819
59.921 35.115 2
45.9621 5.87849 2
43.3735 7.46746 2
58.0246 32.2573 2
56.5765 29.3189 2
55.3486 19.1713 2
55.0152 21.541 2
54.9524 24.0351 2
55.4786 26.5795 2
47.3547 8.61788 2
48.5999 11.2842 2
53.1294 18.6427 2
51.3062 18.0326 2
50.6356 16.1172 2
49.7147 13.7307 2
57.4367 34.7534 3.97643
55.7669 31.5008 3.97534
54.5507 28.3813 3.98465
53.8009 25.4762 3.9777
53.9759 20.1189 3.98313
53.5971 22.6858 3.97457
41.3985 7.07305 3.98869
45.3595 7.98978 3.9881
42.8651 9.40833 3.98689
46.6661 10.6458 3.98586
47.7455 13.0917 3.98383
48.9328 15.3884 3.98258
50.0086 17.6868 3.97949
51.6571 19.3109 3.98512
50.3458 63.3872 0.0150696
51.2451 60.9435 0.0171668
56.7532 44.1985 0.0204134
55.5265 47.9136 0.0184944
52.316 58.6454 0.0182398
54.2254 57.2791 0.0180587
55.0942 51.4086 0.0228182
54.0174 54.5651 0.023043
49.5917 61.7522 2
55.688 41.718 2
50.5689 59.3379 2
52.192 56.5036 2
54.2292 45.5831 2
53.3757 49.346 2
52.6876 52.8706 2
48.8497 60.2097 3.98242
52.5976 42.6602 3.97633
49.793 57.6376 3.98094
50.6068 54.4386 3.97712
51.8701 47.2869 3.98059
51.2443 50.9646 3.97353
48.2787 43.7611 3.98182
47.9616 62.4821 0.0158647
47.329 61.0175 2
46.619 59.8037 3.98229
41.6634 67.6943 0.0118146
43.3558 65.5149 0.0137519
44.7663 63.4629 0.0150081
45.9868 61.5945 0.0166136
39.6326 67.7749 2
41.5454 65.6538 2
45.7659 60.639 2
43.1454 63.7361 2
44.4823 61.8448 2
44.6233 60.3013 3.98274
42.9496 62.0934 3.98427
41.5988 63.8298 3.98505
39.6471 65.6224 3.98675
37.5632 67.7573 3.9882
31.6973 65.1416 3.98694
33.392 67.495 3.98825
35.3333 69.9645 3.99068
37.5259 70.0548 2
37.5096 72.4604 3.99424
39.7024 70.0289 0.00935043
39.8179 72.406 2
39.9526 74.9197 4
42.111 72.2086 0.00568982
42.3947 74.6792 2
44.8159 74.2794 0
41.7361 4.96511 3.99097
43.8515 5.35562 2
44.3255 3.10883 3.99433
46.5703 3.64526 2
47.2057 1.27793 4
48.7841 4.32083 0.00599583
49.554 1.99013 2
51.8506 2.85458 0
59.0241 42.9282 0.0219931
60.2744 39.8515 0.02351
62.0133 37.4441 0.025074
59.7917 37.5669 2
58.0392 40.6639 2
55.1679 39.7278 2
56.8749 37.8973 3.97783
49.7325 41.3166 3.97831
53.2107 39.3144 3.97531
39.4419 6.79659 3.9889
59.9207 35.1151 0.0249098
58.025 32.2577 0.0242969
56.5772 29.3192 0.0211525
55.3481 19.1719 0.0168424
55.0143 21.5414 0.0209137
54.952 24.0341 0.0253478
55.4789 26.5789 0.0166974
53.1291 18.6433 0.0177227
51.3061 18.0333 0.0162633
50.6356 16.1179 0.0188482
45.9621 5.87889 0.00950981
49.7148 13.7313 0.0164185
47.3547 8.61828 0.0122588
48.5999 11.2847 0.0144575
43.3734 7.46786 0.0114608
57.437 34.7535 2
41.3986 7.07258 2
45.3595 7.98942 2
42.8651 9.40792 2
55.7663 31.5003 2
54.5499 28.382 2
53.9766 20.1181 2
53.5979 22.6846 2
53.8008 25.4775 2
46.6661 10.6455 2
47.7454 13.0912 2
51.6573 19.3101 2
50.0087 17.6862 2
48.9328 15.3878 2
54.9433 33.9586 3.97762
53.5452 30.4606 3.97868
52.6288 27.1791 3.98065
52.1669 24.0679 3.97473
52.4009 21.0503 3.98076
41.0131 9.04156 3.98705
44.7232 9.98859 3.98636
42.4678 10.8941 3.98528
46.0049 12.7198 3.98443
47.6823 14.5732 3.98321
48.1154 16.9754 3.981
49.8212 19.5853 3.97811
49.5918 61.7517 0.0164165
50.569 59.3375 0.0187382
55.6875 41.7188 0.0226904
54.2293 45.5824 0.0178864
53.3761 49.3466 0.0218321
52.1916 56.5029 0.0200865
52.6873 52.8713 0.0243055
48.8495 60.2102 2
52.5988 42.6594 2
49.793 57.638 2
50.6071 54.4397 2
51.8695 47.2863 2
51.2443 50.963 2
48.2711 43.7634 2
47.9884 58.7519 3.98152
50.1863 45.2869 3.97776
48.6046 55.9295 3.98124
49.1487 52.6164 3.97788
49.7144 49.064 3.97253
46.1494 39.8882 3.91696
46.5329 42.7222 3.96597
46.5874 45.7957 3.98482
43.9918 41.2091 3.95158
42.1115 41.9883 3.94414
47.3291 61.0171 0.0170668
46.6189 59.8039 2
45.4689 58.8001 3.98178
39.6326 67.7745 0.0117576
41.5454 65.6533 0.0134597
43.1455 63.7357 0.0151013
44.4824 61.8444 0.0163488
45.766 60.6387 0.0174189
41.5988 63.8302 2
37.5632 67.7577 2
39.6471 65.6228 2
44.6232 60.3016 2
42.9495 62.0939 2
41.7526 62.5049 3.98474
42.4809 59.9939 3.9833
39.8924 63.5659 3.98513
37.6419 65.5219 3.98656
35.4633 67.6667 3.98824
33.5754 65.3553 3.98691
31.9597 63.3152 3.98554
29.8835 64.7323 3.98669
31.6974 65.1421 2
31.3767 67.2046 3.98832
33.3921 67.4955 2
33.1561 69.7578 3.99071
35.3333 69.9649 2
35.195 72.3748 3.99422
37.5259 70.0543 0.00931038
37.5096 72.4607 2
37.5 75 4
39.8179 72.4057 0.00575793
39.9526 74.9197 2
42.3947 74.6792 0
39.6237 4.71231 3.99107
41.7361 4.96468 2
42.062 2.71645 3.9945
43.8515 5.35602 0.0092765
44.3256 3.10859 2
44.8158 0.721173 4
46.5702 3.64548 0.00579244
47.2057 1.27779 2
49.554 1.99015 0
58.0389 40.6643 0.0235305
59.792 37.567 0.0240118
55.1684 39.7283 0.0238983
49.7321 41.3175 2
56.8744 37.8973 2
53.2098 39.3132 2
54.0661 36.6216 3.97619
47.6626 40.4386 3.98614
50.6993 38.4954 3.97912
37.5157 6.66767 3.9889
39.4419 6.7961 2
39.2107 8.68409 3.98728
35.9412 8.48401 3.9874
57.4367 34.7534 0.0235723
55.7669 31.5008 0.0246573
54.5507 28.3813 0.0153535
53.9759 20.1189 0.0168701
53.5971 22.6858 0.0254295
53.8009 25.4762 0.0223005
51.6571 19.3109 0.0148762
50.0086 17.6868 0.0205093
48.9328 15.3884 0.0174189
45.3595 7.98978 0.0119015
47.7455 13.0917 0.0161712
46.6661 10.6458 0.0141425
41.3985 7.07305 0.0113058
42.8651 9.40833 0.0131086
54.9437 33.9588 2
41.0131 9.04102 2
44.7232 9.98828 2
42.4677 10.8937 2
53.544 30.4589 2
52.6284 27.1816 2
52.4015 21.0491 2
52.1676 24.0689 2
46.0048 12.7195 2
47.6822 14.5727 2
49.8214 19.5847 2
48.1154 16.9748 2
52.4912 32.8542 3.97674
51.3955 29.1359 3.97927
50.8248 25.7047 3.97194
49.9498 22.1635 3.97926
40.5686 11.5973 3.98475
43.8576 11.909 3.98486
45.8034 15.4082 3.983
47.507 19.2081 3.97949
46.4869 37.4971 3.91671
48.8497 60.2097 0.0175806
49.793 57.6376 0.0190583
52.5976 42.6602 0.0236712
51.8701 47.2869 0.0194085
51.2443 50.9646 0.026467
50.6068 54.4386 0.0228791
48.2787 43.7611 0.0181831
47.9884 58.7523 2
50.1853 45.29 2
48.6046 55.9299 2
49.1488 52.6178 2
49.7135 49.0623 2
46.1562 39.8914 2
46.5386 42.7266 2
46.5818 45.7968 2
43.999 41.213 2
42.1188 41.9906 2
46.841 57.3548 3.98267
44.7595 39.4856 3.94621
42.4922 40.8668 3.95371
48.1566 47.2603 3.97988
47.1793 54.2632 3.98143
47.618 50.7753 3.97743
44.8728 47.3539 3.99508
45.2119 41.9956 3.91905
45 44.6268 3.96312
42.7926 42.7217 3.94995
40.9608 42.3423 3.95134
46.619 59.8037 0.0177094
45.4687 58.8003 2
43.8769 57.7246 3.98208
37.5632 67.7573 0.0118015
39.6471 65.6224 0.0132521
41.5988 63.8298 0.0149497
42.9496 62.0934 0.0157325
44.6233 60.3013 0.0172592
35.4634 67.6672 2
41.7525 62.5052 2
39.8923 63.5662 2
37.6419 65.5224 2
42.4808 59.9942 2
40.6225 61.664 3.98411
40.4447 58.2269 3.98215
37.836 63.2281 3.98575
35.5728 65.4444 3.98674
33.5755 65.3557 2
31.9598 63.3157 2
33.6291 63.3554 3.98568
30.3786 62.8735 3.98528
32.123 62.0221 3.98445
26.8677 61.5158 3.98397
28.0623 64.1599 3.98636
29.8836 64.7328 2
29.4062 66.768 3.98827
31.6973 65.1416 0.0130559
31.3767 67.205 2
31.0134 69.4228 3.99062
33.392 67.495 0.0117513
33.1561 69.7583 2
32.8921 72.149 3.99425
35.3333 69.9645 0.0093227
35.1949 72.3751 2
35.0474 74.9194 4
37.5096 72.4604 0.00576487
37.5 75 2
39.9526 74.9197 0
35.6202 6.71878 3.98891
37.5228 4.61179 3.99115
39.6237 4.71189 2
39.7885 2.47294 3.99458
41.7361 4.96511 0.00903315
42.062 2.71619 2
42.3946 0.32156 4
44.3255 3.10883 0.00567278
44.8159 0.72056 2
47.2057 1.27793 0
49.7325 41.3166 0.0216868
56.8749 37.8973 0.0221662
53.2107 39.3144 0.0246884
47.663 40.437 2
50.6975 38.4953 2
54.0656 36.6215 2
51.4861 35.5707 3.96578
48.3328 37.7606 3.98724
46.1517 35.1054 3.91593
43.9911 33.7819 3.94977
42.1048 33.0176 3.94457
37.4575 8.5258 3.98738
37.5157 6.66721 2
39.4419 6.79659 0.0110952
39.2107 8.68352 2
38.9757 10.116 3.98656
35.8977 9.76307 3.98633
34.1496 8.81345 3.98712
35.9411 8.48347 2
54.9433 33.9586 0.0223783
53.5452 30.4606 0.021325
52.6288 27.1791 0.0193515
52.4009 21.0503 0.0192373
52.1669 24.0679 0.0252694
49.8212 19.5853 0.0218927
48.1154 16.9754 0.0189988
47.6823 14.5732 0.0167931
44.7232 9.98859 0.0136409
46.0049 12.7198 0.0155672
41.0131 9.04156 0.0129501
42.4678 10.8941 0.0147179
52.4919 32.8532 2
40.5685 11.5968 2
43.8574 11.9087 2
51.3942 29.1382 2
50.8253 25.707 2
49.9506 22.1628 2
45.8033 15.4079 2
47.507 19.2073 2
50.1022 31.3918 3.972
49.3364 27.4598 3.97138
49.4296 24.3764 3.98112
47.1927 21.9098 3.97806
38.3012 12.7219 3.98406
42.1009 14.2925 3.9828
44.8026 18.4432 3.98123
45.0408 37.4972 3.94388
46.5 37.4987 2
47.9884 58.7519 0.0184825
48.6046 55.9295 0.018758
50.1863 45.2869 0.0222411
49.7144 49.064 0.0274735
49.1487 52.6164 0.0221226
46.1494 39.8882 0.0830396
46.5329 42.7222 0.034029
46.5874 45.7957 0.0151804
43.9918 41.2091 0.0484242
42.1115 41.9883 0.0558642
46.841 57.3552 2
44.7697 39.4852 2
42.4931 40.8679 2
48.1545 47.2574 2
47.1792 54.2633 2
47.6179 50.7752 2
44.871 47.3459 2
45.2158 41.9991 2
45.0082 44.6356 2
42.805 42.7218 2
40.968 42.3425 2
45.4014 55.9414 3.98081
42.8191 39.2569 3.96058
40.9318 40.801 3.97113
46.1421 48.9369 3.98039
45.5627 52.564 3.98304
43.5108 48.4759 3.96562
43.3981 46.1965 3.97097
43.7626 43.8088 3.91557
41.266 43.884 3.95527
39.3244 42.6597 3.94912
45.4689 58.8001 0.0182241
43.8768 57.7247 2
42.1075 56.3504 3.98237
35.4633 67.6667 0.0117631
37.6419 65.5219 0.0134444
39.8924 63.5659 0.0148732
41.7526 62.5049 0.0152574
42.4809 59.9939 0.0166987
35.5728 65.4448 2
40.6223 61.6643 2
37.836 63.2284 2
40.4447 58.2272 2
38.9259 56.5198 3.98337
38.2501 60.3497 3.98416
35.6067 63.2221 3.98574
33.5754 65.3553 0.013092
31.9597 63.3152 0.0144613
33.6292 63.3558 2
30.3788 62.8739 2
32.1231 62.0225 2
28.6808 62.2185 3.98503
33.3457 61.5353 3.9844
31.0658 61.239 3.98387
27.5652 59.6137 3.98262
23.7869 59.1007 3.98397
25.0324 60.8877 3.98324
26.8678 61.5162 2
26.2287 63.4915 3.98573
28.0624 64.1603 2
27.4629 66.1915 3.98814
29.8835 64.7323 0.0133135
29.4063 66.7685 2
28.9057 68.9481 3.99053
31.3767 67.2046 0.0116827
31.0134 69.4232 2
30.6145 71.7801 3.99426
33.1561 69.7578 0.00929464
32.892 72.1493 2
32.6054 74.6784 4
35.195 72.3748 0.00577877
35.0474 74.9197 2
37.5 75 0
33.7228 6.9734 3.98865
35.4342 4.68223 3.99105
35.6201 6.71828 2
37.514 2.38557 3.99465
37.5228 4.61139 2
39.6237 4.71231 0.00893355
39.7885 2.47267 2
39.9526 0.0806499 4
42.062 2.71645 0.00549571
42.3947 0.320817 2
44.8158 0.721173 0
44.7686 35.5046 3.94508
42.4902 34.1307 3.95328
47.6626 40.4386 0.0138588
50.6993 38.4954 0.0208785
54.0661 36.6216 0.0238114
48.3317 37.7594 2
51.4856 35.5701 2
46.1553 35.1037 2
44.0035 33.7766 2
42.1084 33.0176 2
48.4997 34.2569 4.00283
45.2054 32.9953 3.91353
42.7873 32.2816 3.94864
40.9525 32.6677 3.95397
37.3097 10.619 3.98573
37.4574 8.52523 2
37.5157 6.66767 0.0110978
39.2107 8.68409 0.0127212
38.9757 10.1154 2
34.7528 10.3686 3.98565
35.8976 9.7625 2
32.3763 9.3601 3.98637
34.1495 8.81283 2
35.9412 8.48401 0.012599
52.4912 32.8542 0.0232643
51.3955 29.1359 0.0207326
50.8248 25.7047 0.0280649
49.9498 22.1635 0.0207417
47.507 19.2081 0.0205104
45.8034 15.4082 0.0170029
43.8576 11.909 0.0151362
40.5686 11.5973 0.0152543
50.1001 31.3922 2
38.301 12.7211 2
42.1007 14.2923 2
49.3355 27.4612 2
49.4306 24.3756 2
47.1932 21.9106 2
44.8024 18.4426 2
47.8771 29.5925 3.96883
47.1323 25.1018 3.97933
44.2925 21.2957 3.97945
36.5808 12.9184 3.9839
38.6804 14.7917 3.98264
41.7507 17.8214 3.98054
42.9539 37.4883 3.95905
45.0567 37.4971 2
46.4869 37.4971 0.0832898
46.841 57.3548 0.0173295
47.1793 54.2632 0.0185713
48.1566 47.2603 0.0201185
47.618 50.7753 0.022571
44.7595 39.4856 0.0537944
45.2119 41.9956 0.0809523
45 44.6268 0.0368765
44.8728 47.3539 0.00492364
42.7926 42.7217 0.0500459
42.4922 40.8668 0.0462855
40.9608 42.3423 0.0486553
45.4015 55.9416 2
42.8204 39.2573 2
40.9314 40.8013 2
46.1421 48.9324 2
45.5629 52.563 2
43.5093 48.4776 2
43.4256 46.2076 2
43.7703 43.8144 2
41.2737 43.8782 2
39.3278 42.6644 2
43.7409 54.4527 3.98718
40.9982 39.1723 3.96676
39.2471 40.8611 3.95237
43.741 50.5346 3.98701
42.0107 47.7287 4.00624
41.921 45.2042 3.90962
39.4865 44.6422 3.95764
37.4971 42.788 3.94827
43.8769 57.7246 0.0179225
42.1074 56.3504 2
40.4212 54.9547 3.97992
35.5728 65.4444 0.0132638
37.836 63.2281 0.0142494
40.6225 61.664 0.0158936
40.4447 58.2269 0.0178496
35.6067 63.2225 2
38.2499 60.3498 2
38.9257 56.5212 2
38 55.276 3.9824
36.9348 57.6532 3.9824
35.3633 60.9347 3.98458
33.6291 63.3554 0.014318
30.3786 62.8735 0.0147234
32.123 62.0221 0.0155524
33.3457 61.5357 2
28.681 62.2189 2
31.0658 61.2393 2
29.4011 60.3084 3.98339
32.3552 59.7672 3.9836
28.0168 58.3933 3.9831
27.5653 59.6141 2
25.3737 58.6128 3.98227
22.7491 58.2597 3.98072
23.3971 60.367 3.98274
23.7869 59.1012 2
25.0324 60.8881 2
24.4308 62.7833 3.98494
26.8677 61.5158 0.0160315
26.2288 63.492 2
25.547 65.5011 3.98773
28.0623 64.1599 0.0136357
27.4629 66.1919 2
26.8355 68.3363 3.99037
29.4062 66.768 0.0117302
28.9057 68.9486 2
28.3697 71.2653 3.99423
31.0134 69.4228 0.00938175
30.6144 71.7803 2
30.1842 74.2788 4
32.8921 72.149 0.00574746
32.6053 74.6792 2
35.0474 74.9194 0
31.7872 7.41307 3.98829
33.3462 4.92139 3.99088
33.7227 6.97279 2
35.2443 2.46173 3.99457
35.4342 4.68179 2
35.6202 6.71878 0.011088
37.5 0 4
37.5141 2.3853 2
37.5228 4.61179 0.00884925
39.7885 2.47294 0.0054176
39.9526 0.0802889 2
42.3946 0.32156 0
42.8255 35.7274 3.9597
44.7754 35.5067 2
40.9304 34.2051 3.97158
42.4906 34.1311 2
48.3328 37.7606 0.0127559
51.4861 35.5707 0.0342234
46.1517 35.1054 0.0840651
43.9911 33.7819 0.0502292
42.1048 33.0176 0.0554276
48.5012 34.2562 2
45.2127 32.9901 2
42.7988 32.2799 2
40.9562 32.6648 2
46.4214 31.5064 3.9843
43.7515 31.1913 3.91443
41.2611 31.1279 3.94744
39.3137 32.3512 3.94647
35.6911 11.7633 3.98421
37.3096 10.6183 2
37.4575 8.5258 0.0126234
38.9757 10.116 0.0134439
33.0967 11.2052 3.98463
34.7527 10.368 2
35.8977 9.76307 0.0136673
30.4809 10.0081 3.98589
32.3762 9.35951 2
34.1496 8.81345 0.0128779
50.1022 31.3918 0.0279983
49.3364 27.4598 0.0286231
49.4296 24.3764 0.0188844
47.1927 21.9098 0.0219365
44.8026 18.4432 0.0187679
42.1009 14.2925 0.0172031
38.3012 12.7219 0.0159403
36.5807 12.9179 2
47.8735 29.5931 2
38.6801 14.7908 2
41.7503 17.8211 2
47.1333 25.1017 2
44.2928 21.2951 2
45.6272 27.7915 3.97625
43.8204 24.0285 3.98122
41.3438 20.6988 3.98022
35.7705 14.7431 3.98293
38.681 17.5781 3.9809
41.0428 37.4848 3.96235
42.9565 37.4896 2
45.0408 37.4972 0.0561161
45.4014 55.9414 0.0191909
45.5627 52.564 0.0169605
46.1421 48.9369 0.019613
42.8191 39.2569 0.0394199
43.7626 43.8088 0.0844264
43.3981 46.1965 0.0290289
43.5108 48.4759 0.0343821
41.266 43.884 0.0447329
40.9318 40.801 0.0288659
39.3244 42.6597 0.050881
43.7413 54.4531 2
40.9981 39.1726 2
39.2461 40.8655 2
43.7405 50.5364 2
42.0119 47.7334 2
41.934 45.2066 2
37.4986 42.7962 2
39.4997 44.6466 2
41.8908 53.0213 3.98797
39.236 39.1609 3.92859
37.4998 40.9024 3.92415
35.676 42.6723 3.94865
40.9807 49.7607 3.99716
39.8156 46.0835 3.91035
37.5003 44.9088 3.95919
42.1075 56.3504 0.017632
40.4209 54.9546 2
38.7297 53.8859 3.9843
35.6067 63.2221 0.0142615
38.2501 60.3497 0.0158383
38.9259 56.5198 0.0166299
35.3632 60.935 2
36.9345 57.6531 2
37.9996 55.2761 2
36.3189 55.4128 3.98407
34.4868 58.5462 3.98321
33.3457 61.5353 0.0156008
28.6808 62.2185 0.0149651
31.0658 61.239 0.0161339
32.3552 59.7674 2
29.4012 60.3087 2
30.293 57.8397 3.98312
28.0168 58.3936 2
26.9346 56.8431 3.981
27.5652 59.6137 0.0173832
25.3737 58.6132 2
23.8277 56.8254 3.97892
21.3238 57.4198 3.98134
21.9884 59.6396 3.98309
22.749 58.2603 2
22.7339 62.0341 3.98419
23.3972 60.3675 2
23.7869 59.1007 0.0160266
25.0324 60.8877 0.0167618
24.4309 62.7837 2
23.6807 64.7191 3.98695
26.2287 63.4915 0.0142702
25.547 65.5016 2
24.8079 67.5973 3.99019
27.4629 66.1915 0.0118559
26.8354 68.3367 2
26.165 70.6061 3.99411
28.9057 68.9481 0.00946734
28.3695 71.2655 2
27.7943 73.7221 4
30.6145 71.7801 0.00573842
30.1841 74.2794 2
32.6054 74.6784 0
29.8098 7.98625 3.98778
31.2513 5.32844 3.99058
31.7871 7.41247 2
32.9801 2.69983 3.99446
33.3461 4.92086 2
33.7228 6.9734 0.0113478
35.0474 0.080333 4
35.2443 2.46145 2
35.4342 4.68223 0.00895118
37.5 0 2
37.514 2.38557 0.00535459
39.9526 0.0806499 0
41.0051 35.8092 3.96634
42.8254 35.7287 2
44.7686 35.5046 0.0549227
28.5418 10.6835 3.98562
39.2438 34.1496 3.95201
40.9285 34.2045 2
42.4902 34.1307 0.0467162
48.4997 34.2569 -0.00282756
45.2054 32.9953 0.0864672
42.7873 32.2816 0.0513571
40.9525 32.6677 0.0460315
46.432 31.5027 2
43.7547 31.1856 2
41.2718 31.1246 2
39.3175 32.346 2
44.4431 29.6767 3.97465
41.9108 29.8105 3.91507
39.4787 30.3778 3.95633
37.4824 32.225 3.94466
34.0908 12.9213 3.98355
35.691 11.7628 2
37.3097 10.619 0.0142739
31.1847 11.9734 3.98462
33.0966 11.2047 2
34.7528 10.3686 0.0143464
30.4809 10.0076 2
32.3763 9.3601 0.0136256
47.8771 29.5925 0.0311703
47.1323 25.1018 0.0206711
36.5808 12.9184 0.0160971
44.2925 21.2957 0.020551
41.7507 17.8214 0.0194557
38.6804 14.7917 0.0173551
35.7702 14.743 2
45.6252 27.7931 2
38.6807 17.5772 2
41.3435 20.698 2
43.8209 24.0324 2
33.6057 15.8601 3.98296
43.106 26.5188 3.98911
40.9254 23.2717 3.98033
38.4221 20.3062 3.98179
35.8467 17.4912 3.98187
39.2468 37.4869 3.92549
41.0424 37.4846 2
42.9539 37.4883 0.0409512
43.7409 54.4527 0.0128166
43.741 50.5346 0.012993
40.9982 39.1723 0.033237
41.921 45.2042 0.0903826
42.0107 47.7287 -0.00624056
39.4865 44.6422 0.0423557
39.2471 40.8611 0.0476347
37.4971 42.788 0.0517338
41.8909 53.0225 2
39.2358 39.1633 2
37.4999 40.9076 2
40.9793 49.7618 2
35.6727 42.6767 2
39.8308 46.093 2
37.4984 44.8959 2
39.8314 51.9451 3.99244
37.4988 39.175 3.91975
35.7549 40.876 3.95081
34.0389 42.3525 3.95255
35.4984 44.6481 3.9559
38.768 48.7694 4.02427
37.5044 46.3937 3.90723
40.4212 54.9547 0.0200842
38.7294 53.8851 2
36.7169 53.2434 3.99172
35.3633 60.9347 0.0154222
36.9348 57.6532 0.0176049
38 55.276 0.0175993
34.4867 58.5463 2
36.3185 55.4121 2
33.2217 55.5294 3.98296
32.3552 59.7672 0.0164049
29.4011 60.3084 0.0166056
30.293 57.8398 2
28.6739 55.3322 3.9797
28.0168 58.3933 0.0169045
26.9345 56.8435 2
25.2924 55.1636 3.97853
21.7909 55.369 3.97876
25.3737 58.6128 0.017728
23.8275 56.826 2
20.207 57.0507 3.9832
20.638 58.7982 3.98277
21.3236 57.4203 2
21.1631 61.1842 3.98417
21.9883 59.6401 2
22.7491 58.2597 0.0192833
21.8938 63.8467 3.98622
22.734 62.0346 2
23.3971 60.367 0.0172567
24.4308 62.7833 0.0150587
23.6808 64.7196 2
22.8362 66.7409 3.98987
25.547 65.5011 0.0122693
24.8078 67.5977 2
24.0093 69.8072 3.99396
26.8355 68.3363 0.00962551
26.1648 70.6062 2
25.446 73.0099 4
28.3697 71.2653 0.0057728
27.7943 73.7222 2
30.1842 74.2788 0
27.8197 8.6459 3.98749
29.1533 5.87413 3.9902
29.8097 7.9857 2
30.7254 3.09692 3.99427
31.2512 5.32792 2
31.7872 7.41307 0.0117133
32.6053 0.320823 4
32.98 2.69954 2
33.3462 4.92139 0.00912121
35.0474 0.0802903 2
35.2443 2.46173 0.00542918
37.5 0 0
39.2427 35.8252 3.928
41.0043 35.8087 2
42.8255 35.7274 0.0402962
28.5418 10.6831 2
26.6207 11.3789 3.98529
29.2236 12.6301 3.98447
37.4949 34.1109 3.92426
39.242 34.1454 2
40.9304 34.2051 0.0284191
46.4214 31.5064 0.0156993
43.7515 31.1913 0.0855742
41.2611 31.1279 0.0525592
39.3137 32.3512 0.0535258
44.4544 29.6692 2
41.9259 29.8024 2
39.4891 30.3737 2
37.4839 32.2126 2
42.3583 28.3528 3.9726
39.8178 28.9289 3.91463
37.4847 30.1035 3.95956
35.6582 32.3405 3.94683
31.9122 14.4667 3.98333
34.0908 12.9208 2
35.6911 11.7633 0.0157862
31.1847 11.9729 2
33.0967 11.2052 0.0153739
30.4809 10.0081 0.0141093
45.6272 27.7915 0.023752
43.8204 24.0285 0.0187773
35.7705 14.7431 0.0170704
41.3438 20.6988 0.0197787
38.681 17.5781 0.0190997
33.6055 15.8602 2
35.8463 17.4913 2
43.1046 26.5222 2
38.4219 20.3061 2
40.9258 23.2702 2
33.5476 17.3681 3.98354
40.4787 25.6174 4.00429
38.0821 22.8346 3.98842
35.5822 20.0582 3.9833
37.5012 37.4973 3.92095
39.2465 37.4873 2
41.0428 37.4848 0.0376542
41.8908 53.0213 0.0120254
40.9807 49.7607 0.00283537
39.236 39.1609 0.0714088
39.8156 46.0835 0.0896535
37.5003 44.9088 0.0408096
37.4998 40.9024 0.0758524
35.676 42.6723 0.0513507
39.8317 51.945 2
37.4994 39.1771 2
35.7563 40.881 2
38.764 48.7798 2
34.0338 42.3549 2
35.4929 44.6512 2
37.5027 46.4073 2
37.6687 51.0358 3.98964
35.7664 39.1796 3.92669
34.0762 40.8172 3.96952
32.8858 41.9975 3.9437
33.7184 43.8948 3.95042
35.1832 46.0917 3.91486
36.8961 48.4133 4.00892
38.7297 53.8859 0.0157029
36.7166 53.2423 2
34.3507 52.5015 3.98279
34.4868 58.5462 0.0167942
36.3189 55.4128 0.0159314
33.2216 55.5292 2
30.4999 53.4301 3.98089
30.293 57.8397 0.0168819
28.6738 55.3322 2
26.8563 53.4679 3.97799
26.9346 56.8431 0.0189972
25.2921 55.1642 2
23.5455 53.5067 3.9762
20.4398 53.2528 3.97686
19.9164 55.8551 3.98206
21.7905 55.3695 2
23.8277 56.8254 0.0210776
19.4289 57.9113 3.98262
20.2067 57.0511 2
19.7015 60.2185 3.98354
20.6379 58.7986 2
21.3238 57.4198 0.0186592
20.2055 62.868 3.98564
21.1631 61.1846 2
21.9884 59.6396 0.0169134
20.9377 65.7699 3.98935
21.8939 63.8472 2
22.7339 62.0341 0.0158115
23.6807 64.7191 0.0130528
22.8362 66.7413 2
21.9118 68.8743 3.99378
24.8079 67.5973 0.00981149
24.0091 69.8073 2
23.1494 72.1454 4
26.165 70.6061 0.00589048
25.446 73.0099 2
27.7943 73.7221 0
25.859 9.37392 3.98697
27.0681 6.53821 3.98981
27.8197 8.64543 2
28.4876 3.64279 3.99403
29.1532 5.87367 2
29.8098 7.98625 0.0122221
30.1841 0.720592 4
30.7253 3.09665 2
31.2513 5.32844 0.00942154
32.6053 0.320817 2
32.9801 2.69983 0.00554252
35.0474 0.080333 0
37.502 35.8254 3.91819
39.2419 35.8237 2
41.0051 35.8092 0.0336588
24.7755 12.0618 3.98517
23.7491 14.3459 3.98401
28.5418 10.6835 0.0143796
26.6208 11.3785 2
29.2236 12.6298 2
27.2896 13.3632 3.98438
29.7782 14.1889 3.98364
35.7516 34.1356 3.95304
37.495 34.1035 2
39.2438 34.1496 0.0479851
37.4824 32.225 0.0553439
44.4431 29.6767 0.0253464
41.9108 29.8105 0.0849257
39.4787 30.3778 0.043671
42.3673 28.3401 2
39.8336 28.9213 2
37.4828 30.1158 2
35.6567 32.3362 2
40.0394 27.5275 3.98748
37.4925 28.6146 3.90999
35.4818 30.3701 3.9549
34.0272 32.6545 3.95211
30.9232 16.8234 3.98289
31.9123 14.4662 2
34.0908 12.9213 0.016446
31.1847 11.9734 0.0153783
43.106 26.5188 0.0108923
40.9254 23.2717 0.0196687
33.6057 15.8601 0.0170377
35.8467 17.4912 0.0181323
38.4221 20.3062 0.0182095
33.5472 17.3686 2
35.5822 20.0581 2
40.476 25.6213 2
38.0823 22.8362 2
32.8598 19.7741 3.98244
37.7882 25.1292 4.0219
35.2025 22.6159 3.97942
35.7587 37.5027 3.92383
37.5018 37.4969 2
39.2468 37.4869 0.0745135
39.8314 51.9451 0.00755874
38.768 48.7694 -0.0242655
37.4988 39.175 0.0802453
37.5044 46.3937 0.0927733
35.4984 44.6481 0.0440992
35.7549 40.876 0.0491857
34.0389 42.3525 0.0474514
37.6691 51.0452 2
35.7679 39.1821 2
34.0776 40.8177 2
36.8931 48.4186 2
32.8812 41.9984 2
33.7132 43.8944 2
35.1665 46.1012 2
35.4238 50.1686 3.99103
34.0116 39.1934 3.96207
32.507 40.879 3.95464
32.1978 42.7263 3.94999
33.0868 45.2081 3.91647
34.2834 47.5071 3.98618
36.7169 53.2434 0.00828265
34.3503 52.5023 2
31.9683 51.2261 3.97968
33.2217 55.5294 0.0170424
30.4999 53.4316 2
28.3922 51.6521 3.98034
28.6739 55.3322 0.0203026
26.856 53.4693 2
25.0406 51.7941 3.97405
25.2924 55.1636 0.0214669
23.545 53.5075 2
21.9274 51.8401 3.97448
19.1675 51.6628 3.97623
18.8998 54.3329 3.97929
20.4394 53.2529 2
18.4347 56.7441 3.98327
19.916 55.8555 2
21.7909 55.369 0.0212398
18.3621 59.1269 3.98279
19.4287 57.9117 2
20.207 57.0507 0.0167958
18.6156 61.7762 3.985
19.7015 60.219 2
20.638 58.7982 0.0172309
19.1263 64.6808 3.98865
20.2056 62.8685 2
21.1631 61.1842 0.0158307
19.8859 67.811 3.99345
20.9377 65.7703 2
21.8938 63.8467 0.0137825
22.8362 66.7409 0.0101272
21.9116 68.8745 2
20.9142 71.1327 4
24.0093 69.8072 0.0060377
23.1494 72.1455 2
25.446 73.0099 0
23.0946 12.7765 3.98478
23.9716 10.1604 3.98665
25.0221 7.30815 3.9896
25.859 9.37346 2
26.2794 4.32697 3.99373
27.068 6.53778 2
27.8197 8.6459 0.0125125
27.7943 1.27781 4
28.4874 3.64256 2
29.1533 5.87413 0.00979709
30.1841 0.720551 2
30.7254 3.09692 0.00573224
32.6053 0.320823 0
35.7639 35.8276 3.92593
37.5022 35.8222 2
39.2427 35.8252 0.0719955
24.7756 12.0615 2
23.7493 14.3458 2
22.4772 15.0221 3.98372
25.3556 13.8952 3.9841
24.0216 15.6075 3.98341
26.6207 11.3789 0.0147088
29.2236 12.6301 0.0155286
27.2897 13.363 2
29.7782 14.1885 2
28.3538 15.963 3.98352
34.0791 34.1955 3.96939
35.7537 34.132 2
37.4949 34.1109 0.0757372
35.6582 32.3405 0.0531699
37.4847 30.1035 0.0404403
42.3583 28.3528 0.0274004
39.8178 28.9289 0.0853738
40.0422 27.523 2
37.4924 28.6015 2
35.4739 30.3666 2
34.0277 32.6507 2
37.6263 27.2186 3.99117
35.1481 28.9188 3.91406
33.7007 31.119 3.94945
32.8805 33.0112 3.94297
30.203 19.3263 3.98385
30.9232 16.823 2
31.9122 14.4667 0.0166727
40.4787 25.6174 -0.004289
38.0821 22.8346 0.0115846
33.5476 17.3681 0.0164645
35.5822 20.0582 0.0166998
32.8595 19.7751 2
35.2028 22.6148 2
37.7872 25.1341 2
32.3039 22.3882 3.98157
34.9411 25.1449 3.99637
33.969 37.5045 3.95892
35.7602 37.5033 2
37.5012 37.4973 0.0790531
37.6687 51.0358 0.0103595
36.8961 48.4133 -0.008922
35.7664 39.1796 0.073313
35.1832 46.0917 0.085144
33.7184 43.8948 0.0495752
34.0762 40.8172 0.0304848
32.8858 41.9975 0.0563041
35.4232 50.1763 2
34.0133 39.1937 2
32.5065 40.8779 2
34.2764 47.5218 2
32.1874 42.7248 2
33.0721 45.2164 2
33.1844 49.155 3.99157
32.1793 39.2751 3.96041
30.9991 41.2203 3.9495
31.2369 43.8091 3.91794
32.2244 46.4302 3.97554
34.3507 52.5015 0.0172118
31.9683 51.2285 2
29.7963 49.7528 3.97955
30.4999 53.4301 0.0191105
28.3919 51.651 2
26.4513 50.035 3.97525
26.8563 53.4679 0.0220106
25.0402 51.7932 2
23.2904 50.2339 3.97559
23.5455 53.5067 0.0238022
21.9271 51.8399 2
20.4232 50.3457 3.97574
17.9544 50.3536 3.97787
17.8075 52.8158 3.97812
19.1675 51.6625 2
17.4205 55.3611 3.9814
18.8995 54.333 2
20.4398 53.2528 0.0231428
17.1261 57.89 3.98367
18.4344 56.7445 2
19.9164 55.8551 0.0179375
17.132 60.5605 3.98419
18.362 59.1274 2
19.4289 57.9113 0.0173754
17.4062 63.4739 3.9879
18.6157 61.7767 2
19.7015 60.2185 0.016458
17.942 66.6195 3.99309
19.1264 64.6812 2
20.2055 62.868 0.0143647
18.75 69.9759 4
19.8857 67.8111 2
20.9377 65.7699 0.0106504
21.9118 68.8743 0.00621608
20.9142 71.1327 2
23.1494 72.1454 0
21.5851 13.5964 3.98444
22.1896 11.0196 3.98608
23.0948 12.7763 2
23.0402 8.17343 3.98939
23.9717 10.1601 2
24.117 5.14156 3.99359
25.0219 7.30776 2
25.859 9.37392 0.0130338
25.446 1.99014 4
26.2792 4.3268 2
27.0681 6.53821 0.0101879
27.7943 1.27778 2
28.4876 3.64279 0.0059715
30.1841 0.720592 0
34.0069 35.8168 3.96232
35.7651 35.8265 2
37.502 35.8254 0.081812
21.3017 15.8176 3.98338
24.7755 12.0618 0.0148336
23.7491 14.3459 0.015994
25.3557 13.895 2
22.4775 15.0222 2
24.0219 15.6075 2
23.2602 16.2387 3.98317
25.3769 16.0752 3.98373
27.2896 13.3632 0.0156204
29.7782 14.1889 0.0163559
28.3539 15.9629 2
27.4345 18.7844 3.98374
32.519 34.1309 3.9549
34.0812 34.194 2
35.7516 34.1356 0.0469643
34.0272 32.6545 0.0478856
35.4818 30.3701 0.0451041
37.4925 28.6146 0.0900099
40.0394 27.5275 0.0125181
37.6224 27.19 2
32.881 33.0117 2
35.1291 28.9098 2
33.6906 31.1123 2
35.0528 27.331 3.99223
33.0489 29.8051 3.9175
32.1844 32.2742 3.94945
29.5643 21.921 3.98917
30.2032 19.3266 2
30.9232 16.8234 0.017114
37.7882 25.1292 -0.0219012
35.2025 22.6159 0.0205775
32.8598 19.7741 0.0175556
32.3041 22.3899 2
34.9425 25.1525 2
31.6361 25.6046 3.98867
32.0531 37.5065 3.95845
33.9708 37.5041 2
35.7587 37.5027 0.0761735
35.4238 50.1686 0.00897045
34.2834 47.5071 0.0138199
34.0116 39.1934 0.0379297
33.0868 45.2081 0.0835341
32.1978 42.7263 0.0500113
32.507 40.879 0.045356
33.1846 49.1399 2
32.1793 39.2737 2
30.9875 41.2225 2
32.2095 46.4425 2
31.23 43.8133 2
31.057 47.9203 3.99144
30.2263 39.4908 3.94456
29.783 42.0023 3.91311
30.3366 45.0028 3.97561
31.9683 51.2261 0.020318
29.7966 49.751 2
27.7885 48.2297 3.98334
28.3922 51.6521 0.0196571
26.4512 50.0332 2
24.5808 48.5099 3.97418
25.0406 51.7941 0.0259547
23.2905 50.2332 2
21.5966 48.8237 3.97731
21.9274 51.8401 0.0255226
20.4235 50.345 2
18.9917 49.1173 3.9797
16.8623 49.3511 3.98077
16.7468 51.4282 3.97836
17.9547 50.3533 2
16.3699 53.8905 3.98001
17.8074 52.8158 2
19.1675 51.6628 0.0237748
15.9654 56.4922 3.9829
17.4202 55.3614 2
18.8998 54.3329 0.0207122
15.7443 59.222 3.98426
17.1259 57.8904 2
18.4347 56.7441 0.0167269
15.7861 62.145 3.98697
17.1321 60.561 2
18.3621 59.1269 0.0172129
16.0885 65.3022 3.99284
17.4063 63.4744 2
18.6156 61.7762 0.0149952
16.6661 68.6801 4
17.9418 66.6196 2
19.1263 64.6808 0.011354
18.75 69.9759 2
19.8859 67.811 0.0065504
20.9142 71.1327 0
20.2165 14.585 3.98396
21.5853 13.5964 2
20.5286 11.9892 3.98562
21.1433 9.1429 3.98918
22.1897 11.0193 2
23.0946 12.7765 0.0152237
22.0161 6.08049 3.99341
23.0401 8.17309 2
23.9716 10.1604 0.0133498
23.1494 2.85457 4
24.1168 5.14144 2
25.0221 7.30815 0.0104025
25.446 1.99012 2
26.2794 4.32697 0.00626966
27.7943 1.27781 0
32.1852 35.7349 3.95912
34.0082 35.8157 2
35.7639 35.8276 0.0740717
21.3019 15.8175 2
20.2978 16.9507 3.98403
22.093 16.6228 3.98287
25.3556 13.8952 0.0158981
22.4772 15.0221 0.0162813
24.0216 15.6075 0.0165874
25.3772 16.0752 2
23.2606 16.2388 2
24.1986 18.437 3.98203
27.0008 21.4429 3.98284
28.3538 15.963 0.016484
27.4348 18.7847 2
31.0071 33.7854 3.94637
32.5184 34.1329 2
34.0791 34.1955 0.0306086
32.8805 33.0112 0.0570275
33.7007 31.119 0.0505505
35.1481 28.9188 0.0859409
37.6263 27.2186 0.00882716
35.0417 27.3184 2
32.1847 32.2766 2
33.0409 29.7949 2
32.4737 28.0532 3.99862
31.2069 31.1974 3.91981
28.7546 24.3856 3.98716
29.5644 21.9222 2
30.203 19.3263 0.0161495
34.9411 25.1449 0.00362896
32.3039 22.3882 0.0184346
31.6365 25.5945 2
29.5668 27.2921 3.98157
29.9571 37.5002 3.94358
32.0536 37.5057 2
33.969 37.5045 0.0410822
33.1844 49.155 0.00843173
32.2244 46.4302 0.024458
32.1793 39.2751 0.0395941
31.2369 43.8091 0.08206
30.9991 41.2203 0.0505049
31.0596 47.912 2
30.2182 39.494 2
29.7762 42.0073 2
30.3229 45.0126 2
29.0647 46.4931 3.97861
28.8396 39.8917 3.91299
28.529 43.2263 3.97917
29.7963 49.7528 0.0204544
27.7891 48.227 2
25.8503 46.6926 3.97354
26.4513 50.035 0.0247496
24.5813 48.5088 2
22.7305 47.1172 3.9822
23.2904 50.2339 0.0244076
21.5974 48.8226 2
19.9346 47.6456 3.98308
20.4232 50.3457 0.0242609
18.9923 49.1168 2
17.6354 48.1987 3.98245
16.1142 48.7007 3.98277
16.8627 49.3511 2
15.8247 50.188 3.97992
15.3582 52.4333 3.97949
16.747 51.4281 2
17.9544 50.3536 0.022127
14.8552 54.993 3.98155
16.3697 53.8906 2
17.8075 52.8158 0.0218838
14.4523 57.7513 3.98402
15.9651 56.4926 2
17.4205 55.3611 0.018601
14.2637 60.6998 3.98626
15.7443 59.2226 2
17.1261 57.89 0.0163334
14.3325 63.8615 3.99245
15.7862 62.1456 2
17.132 60.5605 0.0158133
14.6715 67.2507 4
16.0883 65.3023 2
17.4062 63.4739 0.0121004
16.6661 68.6801 2
17.942 66.6195 0.0069061
18.75 69.9759 0
18.9294 15.7714 3.98389
20.2167 14.585 2
18.9779 13.1 3.98505
21.5851 13.5964 0.0155598
20.5288 11.9891 2
19.3426 10.2305 3.98874
19.9907 7.14504 3.99334
21.1433 9.14263 2
22.1896 11.0196 0.0139185
20.9142 3.86727 4
22.0158 6.08044 2
23.0402 8.17343 0.010606
23.1494 2.85451 2
24.117 5.14156 0.00641391
25.446 1.99014 0
30.2418 35.5238 3.94869
32.184 35.7355 2
34.0069 35.8168 0.0376849
21.3017 15.8176 0.0166188
22.0933 16.6227 2
20.298 16.9505 2
19.2354 18.3966 3.98368
21.7763 17.8379 3.98317
25.3769 16.0752 0.0162659
23.2602 16.2387 0.0168335
24.199 18.4374 2
22.2675 19.8779 3.98219
24.577 21.3071 3.98291
26.3814 23.7084 3.98233
27.0017 21.4439 2
27.4345 18.7844 0.0162597
29.7825 32.9981 3.91717
30.9962 33.7775 2
32.519 34.1309 0.0451035
32.1844 32.2742 0.0505547
33.0489 29.8051 0.0824988
35.0528 27.331 0.00777261
32.4593 28.0492 2
31.2147 31.1986 2
30.0138 29.4985 3.99246
27.8094 26.5318 3.97066
28.7549 24.3908 2
29.5643 21.921 0.0108341
31.6361 25.6046 0.011333
29.5584 27.2579 2
28.5094 37.5009 3.91893
29.9492 37.504 2
32.0531 37.5065 0.0415491
31.057 47.9203 0.00856084
30.3366 45.0028 0.0243898
30.2263 39.4908 0.0554436
29.783 42.0023 0.0868901
29.0691 46.5017 2
28.8334 39.8927 2
28.5185 43.2323 2
27.1387 44.8052 3.9663
26.619 40.6404 4.00574
27.7885 48.2297 0.0166611
25.8519 46.6907 2
23.8805 45.2459 3.97473
24.5808 48.5099 0.0258242
22.7316 47.1155 2
20.8623 45.9279 3.98391
21.5966 48.8237 0.0226856
19.9354 47.6451 2
18.2793 46.7591 3.98409
18.9917 49.1173 0.0202958
17.6359 48.1988 2
16.3036 47.7305 3.9825
16.1146 48.7009 2
15.1713 49.031 3.98136
16.8623 49.3511 0.0192275
15.8249 50.1881 2
14.4719 50.9995 3.97987
13.8162 53.4479 3.98071
15.3582 52.4333 2
16.7468 51.4282 0.0216384
13.2462 56.1788 3.98316
14.855 54.9932 2
16.3699 53.8905 0.0199869
12.8454 59.1335 3.98608
14.4522 57.7517 2
15.9654 56.4922 0.0170971
12.6778 62.3042 3.99178
14.2637 60.7002 2
15.7443 59.222 0.0157383
12.7746 65.6939 4
14.3324 63.8616 2
15.7861 62.145 0.0130296
14.6714 67.2507 2
16.0885 65.3022 0.00716326
16.6661 68.6801 0
17.6625 17.1462 3.98372
18.9295 15.7711 2
17.5088 14.3638 3.98472
20.2165 14.585 0.0160358
18.9782 13.0998 2
17.6381 11.4494 3.98792
20.5286 11.9892 0.0143825
19.3428 10.2303 2
18.0509 8.33783 3.99315
18.75 5.0241 4
19.9905 7.14507 2
21.1433 9.1429 0.0108216
20.9142 3.86727 2
22.0161 6.08049 0.00659442
23.1494 2.85457 0
28.848 35.1095 3.91769
30.2331 35.5226 2
32.1852 35.7349 0.0408792
22.093 16.6228 0.0171258
20.2978 16.9507 0.0159735
21.7765 17.8376 2
19.2355 18.3962 2
17.969 19.9277 3.98329
20.8669 19.3644 3.98348
24.1986 18.437 0.0179651
22.268 19.8773 2
24.5778 21.3076 2
22.3402 21.7017 3.98335
24.666 23.1521 3.98243
25.3994 25.937 3.9731
26.3825 23.7081 2
27.0008 21.4429 0.017158
28.1705 32.2685 3.97247
29.7773 32.9981 2
31.0071 33.7854 0.0536251
31.2069 31.1974 0.0801861
32.4737 28.0532 0.00137966
29.9886 29.4918 2
26.9119 29.1263 3.97904
27.805 26.5299 2
28.7546 24.3856 0.0128415
29.5668 27.2921 0.0184253
26.7379 37.3558 3.98303
28.5039 37.4991 2
29.9571 37.5002 0.0564225
29.0647 46.4931 0.021392
28.529 43.2263 0.0208311
28.8396 39.8917 0.0870143
27.1444 44.8065 2
26.618 40.6436 2
25.1057 43.1956 3.97244
23.8654 39.4322 3.96683
25.8503 46.6926 0.0264581
23.8813 45.2457 2
21.8346 43.9798 3.97911
22.7305 47.1172 0.0178006
20.8634 45.928 2
18.9379 44.9924 3.98037
19.9346 47.6456 0.0169248
18.2799 46.7595 2
16.5933 46.2292 3.98069
17.6354 48.1987 0.0175463
16.304 47.7308 2
14.9007 47.6842 3.98105
16.1142 48.7007 0.017233
15.1716 49.0312 2
13.77 49.5586 3.98045
15.8247 50.188 0.0200839
14.4721 50.9997 2
12.8829 51.8849 3.9804
12.133 54.5363 3.98233
13.8161 53.4481 2
15.3582 52.4333 0.0205107
11.5293 57.4653 3.98557
13.246 56.1792 2
14.8552 54.993 0.0184508
11.1322 60.6306 3.99116
12.8454 59.1339 2
14.4523 57.7513 0.0159755
10.9835 64.0165 4
12.6776 62.3042 2
14.2637 60.6998 0.013735
12.7745 65.694 2
14.3325 63.8615 0.00755148
14.6715 67.2507 0
16.3935 18.6392 3.98375
17.6626 17.1458 2
16.099 15.7722 3.9847
18.9294 15.7714 0.0161112
17.5089 14.3633 2
16.0194 12.8026 3.98697
18.9779 13.1 0.0149452
17.6383 11.449 2
16.202 9.6609 3.9928
19.3426 10.2305 0.0112595
18.0507 8.3379 2
16.6661 6.31991 4
18.75 5.02404 2
19.9907 7.14504 0.00665944
20.9142 3.86727 0
27.2449 34.7346 3.97025
28.8398 35.1084 2
30.2418 35.5238 0.0513124
16.6668 21.3624 3.98131
21.7763 17.8379 0.0168254
19.2354 18.3966 0.0163156
20.8671 19.3638 2
17.9691 19.9274 2
19.708 21.5561 3.98514
22.2675 19.8779 0.0178143
24.577 21.3071 0.0170858
22.3409 21.7005 2
24.6663 23.1521 2
22.8072 24.5854 3.97737
24.4597 28.5142 3.97146
25.3968 25.9353 2
26.3814 23.7084 0.0176719
26.0085 31.6959 3.98416
28.1637 32.2634 2
29.7825 32.9981 0.0828263
30.0138 29.4985 0.00753659
26.9161 29.128 2
27.8094 26.5318 0.0293429
24.5536 36.8593 3.97931
26.7371 37.3602 2
28.5094 37.5009 0.0810735
27.1387 44.8052 0.0337019
26.619 40.6404 -0.00574115
25.1064 43.1972 2
23.8653 39.4333 2
22.8805 41.8178 3.97777
21.6214 38.5015 3.97485
23.8805 45.2459 0.0252711
21.835 43.9812 2
19.6851 42.9056 3.9762
20.8623 45.9279 0.0160857
18.9386 44.9933 2
16.9211 44.3949 3.97737
18.2793 46.7591 0.015911
16.5937 46.2296 2
14.8215 46.1031 3.97888
16.3036 47.7305 0.0175037
14.901 47.6845 2
13.2771 48.0194 3.97991
15.1713 49.031 0.0186396
13.7702 49.5589 2
12.1021 50.2616 3.98035
14.4719 50.9995 0.020128
12.883 51.8852 2
11.1285 52.8436 3.98167
10.3194 55.7164 3.98481
12.1328 54.5366 2
13.8162 53.4479 0.0192885
9.69871 58.853 3.99022
11.5292 57.4657 2
13.2462 56.1788 0.0168405
9.30605 62.2254 4
11.1321 60.6306 2
12.8454 59.1335 0.0139222
10.9835 64.0165 2
12.6778 62.3042 0.00822378
12.7746 65.6939 0
15.1367 20.1729 3.98246
16.3936 18.6388 2
14.7438 17.2945 3.98418
17.6625 17.1462 0.0162765
16.0991 15.7717 2
14.4814 14.284 3.98641
17.5088 14.3638 0.0152808
16.0196 12.8021 2
14.4446 11.112 3.99241
17.6381 11.4494 0.0120817
16.2019 9.6609 2
14.6715 7.74927 4
18.0509 8.33783 0.00684762
16.6661 6.31988 2
18.75 5.0241 0
25.1914 34.2605 3.98451
27.2422 34.7359 2
28.848 35.1095 0.0823124
17.837 22.307 3.98569
15.5098 22.9059 3.97959
16.6668 21.3619 2
20.8669 19.3644 0.0165225
17.969 19.9277 0.0167121
19.7083 21.5553 2
19.6324 24.3616 3.98036
22.3402 21.7017 0.0166476
24.666 23.1521 0.017565
22.8055 24.5835 2
21.8451 27.8065 3.97278
23.6281 31.1724 3.9734
24.462 28.5158 2
25.3994 25.937 0.0269013
26.015 31.6926 2
28.1705 32.2685 0.0275331
26.9119 29.1263 0.020964
22.3327 36.2653 3.98113
24.5541 36.8599 2
26.7379 37.3558 0.0169725
25.1057 43.1956 0.0275572
23.8654 39.4322 0.0331748
22.8798 41.8186 2
21.6212 38.5018 2
20.6045 40.6391 3.97662
19.9854 37.7806 3.97793
21.8346 43.9798 0.0208865
19.6851 42.9062 2
17.3134 42.1114 3.97633
18.9379 44.9924 0.0196252
16.9216 44.3956 2
14.8222 44.2112 3.97642
16.5933 46.2292 0.0193147
14.8218 46.1035 2
12.9497 46.3047 3.97796
14.9007 47.6842 0.0189541
13.2773 48.0198 2
11.4738 48.557 3.97966
13.77 49.5586 0.0195462
12.1022 50.2619 2
10.2544 51.0855 3.98118
12.8829 51.8849 0.0196023
11.1284 52.8439 2
9.22818 53.8931 3.98416
8.3822 56.9853 3.98921
10.3192 55.7167 2
12.133 54.5363 0.0176686
7.74927 60.3285 4
9.69855 58.8531 2
11.5293 57.4653 0.0144275
9.306 62.2255 2
11.1322 60.6306 0.00884037
10.9835 64.0165 0
13.9476 21.7394 3.98121
15.1367 20.1723 2
13.4434 18.891 3.9835
16.3935 18.6392 0.016246
14.7439 17.2939 2
13.0263 15.8765 3.98597
16.099 15.7722 0.0153044
14.4815 14.2835 2
12.7818 12.6851 3.9919
16.0194 12.8026 0.0130348
14.4445 11.1119 2
12.7746 9.30605 4
16.202 9.6609 0.00719659
14.6715 7.74924 2
16.6661 6.31991 0
22.9257 33.7865 3.98012
25.1898 34.259 2
27.2449 34.7346 0.0297543
17.6016 24.0259 3.98118
17.8369 22.3061 2
14.2914 24.4386 3.978
15.5092 22.9049 2
16.6668 21.3624 0.0186893
18.9854 27.1846 3.97216
19.708 21.5561 0.0148593
19.6312 24.3613 2
21.079 30.6472 3.97417
22.8072 24.5854 0.0226282
21.8468 27.807 2
23.6259 31.1728 2
24.4597 28.5142 0.028535
26.0085 31.6959 0.0158354
20.1008 35.9143 3.98142
22.3327 36.2664 2
24.5536 36.8593 0.020685
22.8805 41.8178 0.0222322
21.6214 38.5015 0.0251476
20.604 40.6391 2
19.9851 37.7809 2
17.9834 39.0043 3.97723
19.6851 42.9056 0.0238047
17.3133 42.1119 2
14.7678 41.9259 3.97598
16.9211 44.3949 0.022634
14.8226 44.2118 2
12.6896 44.3993 3.97639
14.8215 46.1031 0.0211165
12.95 46.3051 2
10.9762 46.7393 3.97805
13.2771 48.0194 0.0200927
11.474 48.5574 2
9.51807 49.2439 3.9804
12.1021 50.2616 0.0196513
10.2545 51.086 2
8.26124 52.0047 3.98356
11.1285 52.8436 0.018326
9.22802 53.8935 2
7.19113 55.0347 3.98851
6.31991 58.3339 4
8.38196 56.9852 2
10.3194 55.7164 0.0151873
7.74924 60.3285 2
9.69871 58.853 0.00978474
9.30605 62.2254 0
13.2127 25.3532 3.98224
12.814 23.2695 3.98003
13.9472 21.7385 2
12.2279 20.5402 3.98291
15.1367 20.1729 0.01754
13.4435 18.8905 2
11.6555 17.5573 3.9858
14.7438 17.2945 0.0158162
13.0264 15.876 2
11.219 14.3697 3.9912
14.4814 14.284 0.0135889
12.7817 12.685 2
10.9835 10.9835 4
14.4446 11.112 0.00759003
12.7745 9.306 2
14.6715 7.74927 0
20.4888 33.3808 3.97785
22.9255 33.7868 2
25.1914 34.2605 0.0154907
15.873 26.3883 3.9756
17.6009 24.0249 2
17.837 22.307 0.0143076
14.2914 24.4385 2
15.5098 22.9059 0.0204085
18.3241 30.1583 3.97313
18.9866 27.1848 2
19.6324 24.3616 0.0196398
21.0773 30.6462 2
21.8451 27.8065 0.0272153
23.6281 31.1724 0.0265976
17.6068 35.9593 3.97919
20.1009 35.9146 2
22.3327 36.2653 0.0188698
20.6045 40.6391 0.0233816
19.9854 37.7806 0.0220708
17.9829 39.0045 2
14.2729 39.1793 3.9768
17.3134 42.1114 0.0236656
14.7677 41.9264 2
12.3758 42.2823 3.97624
14.8222 44.2112 0.0235839
12.6898 44.3998 2
10.5535 44.807 3.97704
12.9497 46.3047 0.0220432
10.9764 46.7398 2
8.90119 47.3218 3.97906
11.4738 48.557 0.0203371
9.51814 49.2444 2
7.42846 50.0368 3.9827
10.2544 51.0855 0.018823
8.26115 52.005 2
6.13167 53.0082 3.98812
9.22818 53.8931 0.0158365
7.19084 55.0342 2
5.0241 56.25 4
6.31988 58.3339 2
8.3822 56.9853 0.0107877
7.74927 60.3285 0
13.4487 26.8052 3.97701
11.9279 24.7801 3.97922
13.2129 25.3528 2
11.1305 22.226 3.98179
12.8139 23.269 2
13.9476 21.7394 0.0187869
12.2276 20.5394 2
10.3851 19.3125 3.9855
13.4434 18.891 0.0164954
11.6555 17.5567 2
9.75975 16.1529 3.99039
13.0263 15.8765 0.014026
11.219 14.3697 2
9.30607 12.7746 4
12.7818 12.6851 0.00809748
10.9835 10.9835 2
12.7746 9.30605 0
17.7887 33.1009 3.97553
20.4885 33.3813 2
22.9257 33.7865 0.0198825
15.4611 29.6268 3.97473
15.8739 26.3882 2
17.6016 24.0259 0.0188215
14.2914 24.4386 0.0219973
18.3228 30.1576 2
18.9854 27.1846 0.0278353
21.079 30.6472 0.0258299
14.8658 36.0154 3.97728
17.6068 35.9595 2
20.1008 35.9143 0.0185804
12.572 37.8299 3.97656
17.9834 39.0043 0.0227683
14.2725 39.1796 2
11.8891 40.1444 3.97668
14.7678 41.9259 0.0240234
12.3758 42.2829 2
10.1523 42.7815 3.97669
12.6896 44.3993 0.023612
10.5537 44.8074 2
8.37946 45.323 3.97824
10.9762 46.7393 0.0219542
8.90133 47.3222 2
6.72026 48.001 3.98153
9.51807 49.2439 0.0196009
7.42847 50.037 2
5.20846 50.9102 3.98789
8.26124 52.0047 0.0164445
6.13139 53.0075 2
3.86727 54.0858 4
7.19113 55.0347 0.0114946
5.02404 56.25 2
6.31991 58.3339 0
12.9047 29.0263 3.97377
11.358 26.4815 3.97813
13.4491 26.8045 2
10.1902 23.962 3.9802
11.928 24.7796 2
13.2127 25.3532 0.017763
9.23707 21.1326 3.98448
11.1303 22.2254 2
12.814 23.2695 0.0199734
12.2279 20.5402 0.0170921
10.3849 19.3117 2
8.41547 18.0242 3.98959
11.6555 17.5573 0.0141977
9.75967 16.1528 2
7.74928 14.6715 4
11.219 14.3697 0.00880332
9.30602 12.7745 2
10.9835 10.9835 0
14.4526 32.8553 3.97566
17.7886 33.101 2
20.4888 33.3808 0.0221529
15.4601 29.6261 2
15.873 26.3883 0.0243974
18.3241 30.1583 0.0268708
12.8605 36.2072 3.97567
14.8658 36.0156 2
17.6068 35.9593 0.020806
12.5718 37.83 2
11.2479 38.3112 3.97597
14.2729 39.1793 0.0231967
11.8888 40.1448 2
9.73814 40.757 3.97682
12.3758 42.2823 0.0237587
10.1523 42.782 2
7.9287 43.2715 3.97787
10.5535 44.807 0.0229617
8.37965 45.3234 2
6.12681 45.9055 3.98078
8.90119 47.3218 0.0209439
6.72035 48.0011 2
4.4202 48.7502 3.98769
7.42846 50.0368 0.0173008
5.20825 50.9093 2
2.85457 51.8506 4
6.13167 53.0082 0.011885
3.86727 54.0858 2
5.0241 56.25 0
12.0456 31.2513 3.97595
10.7714 28.4107 3.97608
12.904 29.0255 2
9.40548 25.7942 3.97922
11.3583 26.481 2
13.4487 26.8052 0.0229879
8.22454 23.0197 3.98285
10.1902 23.9613 2
11.9279 24.7801 0.020781
7.19747 19.9751 3.98878
9.23692 21.1319 2
11.1305 22.226 0.0182133
10.3851 19.3125 0.0144999
8.41524 18.0241 2
6.31992 16.6661 4
9.75975 16.1529 0.00960837
7.74926 14.6714 2
9.30607 12.7746 0
12.064 34.2912 3.97556
14.4526 32.8555 2
17.7887 33.1009 0.0244726
15.4611 29.6268 0.0252688
10.8129 36.6101 3.97501
12.8605 36.2072 2
14.8658 36.0154 0.0227219
12.572 37.8299 0.023435
11.2478 38.3113 2
9.33428 38.8249 3.97636
11.8891 40.1444 0.0233176
9.73803 40.7573 2
7.54051 41.2123 3.97762
10.1523 42.7815 0.0233108
7.92872 43.2719 2
5.63895 43.7683 3.98074
8.37946 45.323 0.0217557
6.12696 45.9056 2
3.76608 46.536 3.98756
6.72026 48.001 0.018475
4.4201 48.7493 2
1.99014 49.554 4
5.20846 50.9102 0.0121063
2.85451 51.8506 2
3.86727 54.0858 0
10.9093 32.9156 3.97677
10.0848 30.3787 3.97638
12.0454 31.2513 2
8.71435 27.7294 3.97799
10.771 28.4099 2
12.9047 29.0263 0.0262252
7.35035 24.9804 3.98185
9.40567 25.7936 2
11.358 26.4815 0.0218748
6.11443 22.0003 3.98784
8.22449 23.0191 2
10.1902 23.962 0.0198047
5.02411 18.75 4
7.19717 19.9754 2
9.23707 21.1326 0.0155151
8.41547 18.0242 0.0104097
6.3199 16.6661 2
7.74928 14.6715 0
10.4244 34.9981 3.97624
12.064 34.2911 2
14.4526 32.8553 0.0243449
9.00843 36.9849 3.97494
10.8129 36.6101 2
12.8605 36.2072 0.0243318
11.2479 38.3112 0.0240279
9.33417 38.8251 2
7.22223 39.1825 3.97723
9.73814 40.757 0.0231757
7.54047 41.2126 2
5.25475 41.6139 3.9803
7.9287 43.2715 0.022134
5.63899 43.7683 2
3.244 44.2814 3.98744
6.12681 45.9055 0.0192182
3.76607 46.5354 2
1.27781 47.2057 4
4.4202 48.7502 0.0123128
1.99012 49.554 2
2.85457 51.8506 0
10.0772 33.8791 3.97671
9.37883 32.1519 3.97687
10.9092 32.9156 2
8.06418 29.6937 3.9776
10.0847 30.3785 2
12.0456 31.2513 0.0240473
6.59456 27.0075 3.9809
8.71409 27.7288 2
10.7714 28.4107 0.023923
5.16969 24.0947 3.98744
7.3505 24.98 2
9.40548 25.7942 0.020777
3.86728 20.9142 4
6.11415 22.001 2
8.22454 23.0197 0.0171494
5.02406 18.75 2
7.19747 19.9751 0.0112224
6.31992 16.6661 0
8.83483 35.2784 3.97604
10.4244 34.998 2
12.064 34.2912 0.0244441
7.00763 37.2058 3.9761
9.00841 36.9849 2
10.8129 36.6101 0.0249946
9.33428 38.8249 0.0236388
7.2222 39.1827 2
4.98337 39.4672 3.97956
7.54051 41.2123 0.0223784
5.25475 41.614 2
2.85474 42.0022 3.98692
5.63895 43.7683 0.019255
3.24398 44.2811 2
0.720592 44.8159 4
3.76608 46.536 0.0124418
1.27778 47.2057 2
1.99014 49.554 0
8.87607 33.696 3.9768
10.0771 33.879 2
7.50241 31.608 3.97764
9.37871 32.1518 2
10.9093 32.9156 0.0232311
5.94019 29.0692 3.98029
8.06409 29.6935 2
10.0848 30.3787 0.0236152
4.35749 26.2482 3.98733
6.59445 27.0072 2
8.71435 27.7294 0.0220149
2.85458 23.1494 4
5.16958 24.0955 2
7.35035 24.9804 0.0181534
3.86728 20.9142 2
6.11443 22.0003 0.0121633
5.02411 18.75 0
6.95806 35.3057 3.97643
8.83482 35.2784 2
10.4244 34.9981 0.0237557
4.83439 37.3397 3.97892
7.00765 37.2059 2
9.00843 36.9849 0.0250635
7.22223 39.1825 0.022766
4.98338 39.4673 2
2.60315 39.7141 3.98598
5.25475 41.6139 0.0197002
2.85473 42.0021 2
0.320823 42.3947 4
3.244 44.2814 0.0125567
0.720551 44.8159 2
1.27781 47.2057 0
7.11719 33.4601 3.97727
8.876 33.6958 2
10.0772 33.8791 0.0232898
5.41159 31.1336 3.98007
7.50231 31.6078 2
9.37883 32.1519 0.02313
3.67946 28.4442 3.98717
5.94016 29.0692 2
8.06418 29.6937 0.0224023
1.99015 25.446 4
4.35733 26.2489 2
6.59456 27.0075 0.0191021
2.85453 23.1494 2
5.16969 24.0947 0.0125558
3.86728 20.9142 0
4.84887 35.2516 3.979
6.95807 35.3057 2
8.83483 35.2784 0.023965
2.49482 37.4287 3.98559
4.83443 37.3398 2
7.00763 37.2058 0.0238991
4.98337 39.4672 0.0204364
2.60316 39.7142 2
0.080333 39.9526 4
2.85474 42.0022 0.0130761
0.320817 42.3947 2
0.720592 44.8159 0
5.04169 33.1903 3.9797
7.11713 33.4601 2
8.87607 33.696 0.0232009
3.14408 30.6666 3.98677
5.41152 31.1337 2
7.50241 31.608 0.0223642
1.27793 27.7943 4
3.67939 28.4449 2
5.94019 29.0692 0.0197051
1.99013 25.446 2
4.35749 26.2482 0.012668
2.85458 23.1494 0
2.54703 35.1592 3.98553
4.84887 35.2518 2
6.95806 35.3057 0.0235747
0 37.5 4
2.49487 37.4289 2
4.83439 37.3397 0.0210788
2.60315 39.7141 0.0140231
0.0802903 39.9526 2
0.320823 42.3947 0
2.76442 32.906 3.9861
5.04164 33.1906 2
7.11719 33.4601 0.0227282
0.721173 30.1842 4
3.14402 30.6671 2
5.41159 31.1336 0.0199259
1.27779 27.7943 2
3.67946 28.4442 0.0128273
1.99015 25.446 0
0.0806499 35.0474 4
2.54704 35.1596 2
4.84887 35.2516 0.0209979
0 37.5 2
2.49482 37.4287 0.0144147
0.080333 39.9526 0
0.32156 32.6054 4
2.76439 32.9064 2
5.04169 33.1903 0.0202995
0.72056 30.1841 2
3.14408 30.6666 0.0132315
1.27793 27.7943 0
0.0802889 35.0474 2
2.54703 35.1592 0.0144657
0 37.5 0
0.320817 32.6053 2
2.76442 32.906 0.0138961
0.721173 30.1842 0
0.0806499 35.0474 0
0.32156 32.6054 0
CELLS 1910 17190
8 18 6 25 56 2 0 5 16
8 57 23 6 18 17 4 0 2
8 78 36 9 29 31 11 1 7
8 31 11 1 7 79 37 10 30
8 110 57 18 50 48 17 2 14
8 50 18 56 111 14 2 16 49
8 116 62 22 55 52 20 3 15
8 56 25 67 118 16 5 24 53
8 119 63 23 57 54 21 4 17
8 55 22 63 119 15 3 21 54
8 58 26 68 121 18 6 25 56
8 122 65 26 58 57 23 6 18
8 73 31 7 27 142 79 30 71
8 143 78 29 72 73 31 7 27
8 83 147 76 34 32 74 28 8
8 84 148 78 36 33 75 29 9
8 76 34 8 28 148 84 33 75
8 37 79 150 86 10 30 77 35
8 151 87 36 78 80 38 11 31
8 80 38 11 31 152 88 37 79
8 175 100 42 94 96 44 12 40
8 44 96 176 101 12 40 95 43
8 101 176 98 46 43 95 41 13
8 46 98 178 103 13 41 97 45
8 178 103 45 97 147 83 32 74
8 189 116 55 109 106 52 15 47
8 111 56 118 191 49 16 53 107
8 192 119 57 110 108 54 17 48
8 109 55 119 192 47 15 54 108
8 194 122 58 112 110 57 18 50
8 112 58 121 195 50 18 56 111
8 115 61 19 51 197 124 59 113
8 115 61 125 198 51 19 60 114
8 198 125 62 116 114 60 20 52
8 200 127 64 120 116 62 22 55
8 118 67 132 202 53 24 66 117
8 121 68 133 203 56 25 67 118
8 120 64 128 204 55 22 63 119
8 204 128 65 122 119 63 23 57
8 206 134 68 121 123 69 26 58
8 123 69 26 58 207 131 65 122
8 226 147 74 138 140 76 28 70
8 229 148 75 139 143 78 29 72
8 140 76 28 70 229 148 75 139
8 142 79 30 71 231 150 77 141
8 144 80 31 73 232 152 79 142
8 233 151 78 143 144 80 31 73
8 150 86 35 77 235 154 81 145
8 235 154 81 145 146 82 39 91
8 146 82 39 91 236 155 90 165
8 238 157 83 147 149 85 34 76
8 239 158 84 148 151 87 36 78
8 149 85 34 76 239 158 84 148
8 152 88 37 79 241 160 86 150
8 242 161 87 151 153 89 38 80
8 153 89 38 80 243 162 88 152
8 171 98 41 92 265 178 97 169
8 265 178 97 169 226 147 74 138
8 172 96 40 93 266 176 95 170
8 266 176 95 170 171 98 41 92
8 269 175 94 173 172 96 40 93
8 271 180 99 174 175 100 42 94
8 197 124 59 113 271 180 99 174
8 272 181 100 175 177 102 44 96
8 273 182 101 176 179 104 46 98
8 177 102 44 96 273 182 101 176
8 179 104 46 98 275 184 103 178
8 275 184 103 178 238 157 83 147
8 188 115 51 105 283 197 113 186
8 188 115 198 284 105 51 114 187
8 284 198 116 189 187 114 52 106
8 286 200 120 193 189 116 55 109
8 191 118 202 288 107 53 117 190
8 195 121 203 289 111 56 118 191
8 193 120 204 290 109 55 119 192
8 290 204 122 194 192 119 57 110
8 196 123 58 112 292 207 122 194
8 293 206 121 195 196 123 58 112
8 199 126 61 115 297 211 124 197
8 298 212 127 200 198 125 62 116
8 199 126 212 298 115 61 125 198
8 205 129 64 120 300 214 127 200
8 301 217 130 201 202 132 66 117
8 209 136 168 264 301 217 130 201
8 302 219 132 202 203 133 67 118
8 303 220 133 203 206 134 68 121
8 205 129 215 304 120 64 128 204
8 304 215 131 207 204 128 65 122
8 306 221 134 206 208 135 69 123
8 208 135 69 123 307 218 131 207
8 210 137 167 263 309 223 136 209
8 328 238 147 226 230 149 76 140
8 228 146 91 166 329 236 165 260
8 231 150 77 141 330 235 145 227
8 330 235 145 227 228 146 91 166
8 332 239 148 229 233 151 78 143
8 230 149 76 140 332 239 148 229
8 232 152 79 142 334 241 150 231
8 234 153 80 144 335 243 152 232
8 336 242 151 233 234 153 80 144
8 236 155 90 165 338 245 164 259
8 241 160 86 150 339 246 154 235
8 339 246 154 235 237 156 82 146
8 237 156 82 146 340 247 155 236
8 342 249 157 238 240 159 85 149
8 343 250 158 239 242 161 87 151
8 240 159 85 149 343 250 158 239
8 243 162 88 152 345 252 160 241
8 244 163 253 346 153 89 161 242
8 244 163 89 153 347 254 162 243
8 311 224 261 371 210 137 167 263
8 263 167 262 372 209 136 168 264
8 267 179 98 171 375 275 178 265
8 375 275 178 265 328 238 147 226
8 376 273 176 266 267 179 98 171
8 268 177 96 172 376 273 176 266
8 379 272 175 269 268 177 96 172
8 380 271 174 270 269 175 94 173
8 283 197 113 186 380 271 174 270
8 381 277 180 271 272 181 100 175
8 297 211 124 197 381 277 180 271
8 382 278 181 272 274 183 102 177
8 274 183 102 177 383 279 182 273
8 383 279 182 273 276 185 104 179
8 385 281 184 275 342 249 157 238
8 276 185 104 179 385 281 184 275
8 285 199 115 188 393 297 197 283
8 394 298 200 286 284 198 116 189
8 285 199 298 394 188 115 198 284
8 291 205 120 193 396 300 200 286
8 397 301 201 287 288 202 117 190
8 295 209 264 374 397 301 201 287
8 398 302 202 288 289 203 118 191
8 399 303 203 289 293 206 121 195
8 291 205 304 400 193 120 204 290
8 400 304 207 292 290 204 122 194
8 294 208 123 196 402 307 207 292
8 403 306 206 293 294 208 123 196
8 296 210 263 373 405 309 209 295
8 408 312 213 299 297 211 126 199
8 299 213 313 409 199 126 212 298
8 409 313 214 300 298 212 127 200
8 305 216 129 205 411 315 214 300
8 412 318 217 301 302 219 132 202
8 309 223 136 209 412 318 217 301
8 413 320 219 302 303 220 133 203
8 306 221 321 414 206 134 220 303
8 307 218 131 207 415 316 215 304
8 305 216 316 415 205 129 215 304
8 417 322 221 306 308 222 135 208
8 308 222 135 208 418 319 218 307
8 310 225 137 210 420 325 223 309
8 423 326 224 311 310 225 137 210
8 329 236 165 260 441 338 259 368
8 442 342 238 328 333 240 149 230
8 331 237 146 228 443 340 236 329
8 334 241 150 231 444 339 235 330
8 444 339 235 330 331 237 146 228
8 446 343 239 332 336 242 151 233
8 333 240 149 230 446 343 239 332
8 335 243 152 232 448 345 241 334
8 337 244 153 234 449 347 243 335
8 337 244 346 450 234 153 242 336
8 338 245 164 259 452 349 258 367
8 340 247 155 236 453 350 245 338
8 345 252 160 241 454 351 246 339
8 454 351 246 339 341 248 156 237
8 341 248 156 237 455 352 247 340
8 240 159 251 344 342 249 354 457
8 242 161 253 346 343 250 355 458
8 343 250 355 458 240 159 251 344
8 347 254 162 243 460 357 252 345
8 348 255 358 461 244 163 253 346
8 348 255 163 244 462 359 254 347
8 473 360 257 365 363 256 364 482
8 452 349 258 367 365 257 366 485
8 422 324 369 488 311 224 261 371
8 371 261 370 490 263 167 262 372
8 407 311 371 491 296 210 263 373
8 373 263 372 492 295 209 264 374
8 493 385 275 375 442 342 238 328
8 377 276 179 267 493 385 275 375
8 378 274 177 268 494 383 273 376
8 494 383 273 376 377 276 179 267
8 497 382 272 379 378 274 177 268
8 498 381 271 380 379 272 175 269
8 393 297 197 283 498 381 271 380
8 499 387 277 381 382 278 181 272
8 408 312 211 297 499 387 277 381
8 500 388 278 382 384 280 183 274
8 501 389 279 383 386 282 185 276
8 384 280 183 274 501 389 279 383
8 386 282 185 276 503 391 281 385
8 503 391 281 385 457 354 249 342
8 511 408 299 395 393 297 199 285
8 395 299 409 512 285 199 298 394
8 512 409 300 396 394 298 200 286
8 401 305 205 291 514 411 300 396
8 515 412 301 397 398 302 202 288
8 405 309 209 295 515 412 301 397
8 516 413 302 398 399 303 203 289
8 403 306 414 517 293 206 303 399
8 402 307 207 292 518 415 304 400
8 401 305 415 518 291 205 304 400
8 404 308 208 294 520 418 307 402
8 521 417 306 403 404 308 208 294
8 406 310 210 296 523 420 309 405
8 526 423 311 407 406 310 210 296
8 410 314 213 299 527 424 312 408
8 528 425 315 411 409 313 214 300
8 410 314 425 528 299 213 313 409
8 416 317 216 305 530 427 315 411
8 531 430 318 412 413 320 219 302
8 420 325 223 309 531 430 318 412
8 532 432 320 413 414 321 220 303
8 417 322 433 533 306 221 321 414
8 418 319 218 307 534 428 316 415
8 416 317 428 534 305 216 316 415
8 419 323 434 536 308 222 322 417
8 419 323 222 308 537 431 319 418
8 421 327 225 310 539 438 325 420
8 421 327 439 541 310 225 326 423
8 543 437 324 422 423 326 224 311
8 441 338 259 368 559 452 367 486
8 443 340 236 329 560 453 338 441
8 333 240 344 447 442 342 457 561
8 445 341 237 331 562 455 340 443
8 448 345 241 334 563 454 339 444
8 563 454 339 444 445 341 237 331
8 336 242 346 450 446 343 458 565
8 446 343 458 565 333 240 344 447
8 449 347 243 335 567 460 345 448
8 451 348 244 337 568 462 347 449
8 451 348 461 569 337 244 346 450
8 570 463 349 452 473 360 257 365
8 453 350 245 338 570 463 349 452
8 455 352 247 340 571 464 350 453
8 460 357 252 345 572 465 351 454
8 572 465 351 454 456 353 248 341
8 456 353 248 341 573 466 352 455
8 344 251 356 459 457 354 468 575
8 458 355 469 576 344 251 356 459
8 346 253 358 461 458 355 469 576
8 462 359 254 347 578 471 357 460
8 348 255 359 462 461 358 472 579
8 591 474 360 473 475 361 256 363
8 475 361 256 363 594 477 362 479
8 363 256 364 482 479 362 480 603
8 590 473 365 484 481 363 482 605
8 482 364 257 365 606 483 366 485
8 559 452 367 486 484 365 485 607
8 542 436 487 609 422 324 369 488
8 525 422 488 611 407 311 371 491
8 488 369 489 612 371 261 370 490
8 491 371 490 613 373 263 372 492
8 495 386 276 377 614 503 385 493
8 614 503 385 493 561 457 342 442
8 615 501 383 494 495 386 276 377
8 496 384 274 378 615 501 383 494
8 618 500 382 497 496 384 274 378
8 619 499 381 498 497 382 272 379
8 511 408 297 393 619 499 381 498
8 620 505 387 499 500 388 278 382
8 527 424 312 408 620 505 387 499
8 502 390 506 621 384 280 388 500
8 622 507 389 501 504 392 282 386
8 502 390 280 384 622 507 389 501
8 504 392 282 386 624 509 391 503
8 624 509 391 503 575 468 354 457
8 513 410 299 395 630 527 408 511
8 631 528 411 514 512 409 300 396
8 513 410 528 631 395 299 409 512
8 519 416 305 401 633 530 411 514
8 634 531 412 515 516 413 302 398
8 523 420 309 405 634 531 412 515
8 635 532 413 516 517 414 303 399
8 521 417 533 636 403 306 414 517
8 520 418 307 402 637 534 415 518
8 519 416 534 637 401 305 415 518
8 522 419 308 404 639 537 418 520
8 522 419 536 640 404 308 417 521
8 524 421 310 406 642 539 420 523
8 524 421 541 644 406 310 423 526
8 646 543 422 525 526 423 311 407
8 529 426 314 410 647 544 424 527
8 528 425 545 648 411 315 427 530
8 529 426 545 648 410 314 425 528
8 535 429 317 416 649 546 427 530
8 650 548 430 531 532 432 320 413
8 539 438 325 420 650 548 430 531
8 533 433 550 651 414 321 432 532
8 536 434 551 652 417 322 433 533
8 537 431 319 418 653 547 428 534
8 535 429 547 653 416 317 428 534
8 538 435 552 654 419 323 434 536
8 538 435 323 419 655 549 431 537
8 540 440 327 421 657 556 438 539
8 540 440 557 659 421 327 439 541
8 541 439 555 660 423 326 437 543
8 661 554 436 542 543 437 324 422
8 676 570 452 559 590 473 365 484
8 560 453 338 441 676 570 452 559
8 562 455 340 443 677 571 453 560
8 447 344 459 566 561 457 575 678
8 564 456 341 445 679 573 455 562
8 567 460 345 448 680 572 454 563
8 680 572 454 563 564 456 341 445
8 565 458 576 682 447 344 459 566
8 450 346 461 569 565 458 576 682
8 568 462 347 449 684 578 460 567
8 451 348 462 568 569 461 579 685
8 686 580 463 570 591 474 360 473
8 571 464 350 453 686 580 463 570
8 573 466 352 455 687 581 464 571
8 572 465 582 688 460 357 471 578
8 574 467 582 688 456 353 465 572
8 574 467 353 456 689 583 466 573
8 459 356 470 577 575 468 585 691
8 576 469 586 692 459 356 470 577
8 461 358 472 579 576 469 586 692
8 462 359 471 578 579 472 588 694
8 704 591 473 590 593 475 363 481
8 595 476 592 705 475 361 474 591
8 593 475 363 481 707 594 479 602
8 594 477 362 479 709 598 478 600
8 595 476 361 475 711 597 477 594
8 479 362 480 603 600 478 601 720
8 481 363 482 605 602 479 603 722
8 603 480 364 482 723 604 483 606
8 605 482 365 484 724 606 485 607
8 656 553 608 726 542 436 487 609
8 645 542 609 728 525 422 488 611
8 609 487 610 729 488 369 489 612
8 611 488 612 730 491 371 490 613
8 616 504 386 495 731 624 503 614
8 731 624 503 614 678 575 457 561
8 732 622 501 615 616 504 386 495
8 617 502 384 496 732 622 501 615
8 617 502 621 735 496 384 500 618
8 736 620 499 619 618 500 382 497
8 630 527 408 511 736 620 499 619
8 621 506 626 737 500 388 505 620
8 647 544 424 527 737 626 505 620
8 623 508 627 738 502 390 506 621
8 623 508 390 502 739 628 507 622
8 625 510 628 739 504 392 507 622
8 740 629 509 624 691 585 468 575
8 625 510 392 504 740 629 509 624
8 632 529 410 513 744 647 527 630
8 631 528 648 745 514 411 530 633
8 632 529 648 745 513 410 528 631
8 638 535 416 519 746 649 530 633
8 747 650 531 634 635 532 413 516
8 642 539 420 523 747 650 531 634
8 636 533 651 748 517 414 532 635
8 640 536 652 749 521 417 533 636
8 639 537 418 520 750 653 534 637
8 638 535 653 750 519 416 534 637
8 641 538 419 522 751 655 537 639
8 641 538 654 752 522 419 536 640
8 643 540 421 524 753 657 539 642
8 643 540 659 755 524 421 541 644
8 644 541 660 757 526 423 543 646
8 758 661 542 645 646 543 422 525
8 529 426 544 647 648 545 662 759
8 530 427 545 648 649 546 663 760
8 535 429 546 649 653 547 664 761
8 762 666 548 650 651 550 432 532
8 657 556 438 539 762 666 548 650
8 652 551 668 763 533 433 550 651
8 654 552 669 764 536 434 551 652
8 655 549 431 537 765 665 547 653
8 538 435 549 655 654 552 667 766
8 661 554 671 768 542 436 553 656
8 658 558 440 540 769 674 556 657
8 658 558 675 770 540 440 557 659
8 659 557 673 771 541 439 555 660
8 660 555 672 772 543 437 554 661
8 788 686 570 676 704 591 473 590
8 677 571 453 560 788 686 570 676
8 679 573 455 562 789 687 571 677
8 566 459 577 683 678 575 691 790
8 681 574 456 564 791 689 573 679
8 680 572 688 792 567 460 578 684
8 681 574 688 792 564 456 572 680
8 682 576 692 794 566 459 577 683
8 569 461 579 685 682 576 692 794
8 568 462 578 684 685 579 694 796
8 687 581 464 571 798 696 580 686
8 798 696 580 686 705 592 474 591
8 689 583 466 573 799 697 581 687
8 688 582 698 800 578 471 588 694
8 690 584 698 800 574 467 582 688
8 690 584 467 574 801 699 583 689
8 693 587 701 803 577 470 585 691
8 693 587 470 577 804 702 586 692
8 695 589 702 804 579 472 586 692
8 695 589 472 579 805 703 588 694
8 708 595 705 813 593 475 591 704
8 710 596 706 814 595 476 592 705
8 707 594 479 602 816 709 600 719
8 708 595 475 593 817 711 594 707
8 709 598 478 600 819 715 599 717
8 711 597 477 594 820 714 598 709
8 710 596 476 595 822 713 597 711
8 600 478 601 720 717 599 718 832
8 602 479 603 722 719 600 720 834
8 720 601 480 603 835 721 604 723
8 722 603 482 605 836 723 606 724
8 767 670 725 839 656 553 608 726
8 756 656 726 841 645 542 609 728
8 726 608 727 842 609 487 610 729
8 728 609 729 843 611 488 612 730
8 844 740 624 731 790 691 575 678
8 733 625 504 616 844 740 624 731
8 734 623 502 617 845 739 622 732
8 733 625 739 845 616 504 622 732
8 734 623 738 846 617 502 621 735
8 735 621 737 847 618 500 620 736
8 744 647 527 630 847 737 620 736
8 621 506 627 738 737 626 741 848
8 647 544 626 737 759 662 741 848
8 623 508 628 739 738 627 742 849
8 740 629 585 691 850 743 700 802
8 625 510 629 740 739 628 743 850
8 632 529 647 744 745 648 759 854
8 633 530 648 745 746 649 760 855
8 638 535 649 746 750 653 761 856
8 857 762 650 747 748 651 532 635
8 753 657 539 642 857 762 650 747
8 749 652 763 858 636 533 651 748
8 752 654 764 859 640 536 652 749
8 751 655 537 639 860 765 653 750
8 641 538 655 751 752 654 766 861
8 754 658 540 643 862 769 657 753
8 754 658 770 863 643 540 659 755
8 755 659 771 864 644 541 660 757
8 758 661 768 866 645 542 656 756
8 757 660 772 867 646 543 661 758
8 759 662 773 868 648 545 663 760
8 649 546 663 760 761 664 774 871
8 765 665 547 653 872 775 664 761
8 873 777 666 762 763 668 550 651
8 769 674 556 657 873 777 666 762
8 764 669 779 874 652 551 668 763
8 654 552 667 766 764 669 778 875
8 655 549 665 765 766 667 776 876
8 768 671 782 877 656 553 670 767
8 772 672 783 878 661 554 671 768
8 658 558 674 769 770 675 786 879
8 659 557 675 770 771 673 785 881
8 882 784 672 772 771 673 555 660
8 789 687 571 677 897 798 686 788
8 897 798 686 788 813 705 591 704
8 791 689 573 679 898 799 687 789
8 795 693 803 900 683 577 691 790
8 793 690 574 681 901 801 689 791
8 792 688 800 902 684 578 694 796
8 793 690 800 902 681 574 688 792
8 795 693 577 683 903 804 692 794
8 797 695 804 903 685 579 692 794
8 797 695 579 685 904 805 694 796
8 905 806 697 799 798 696 581 687
8 814 706 806 905 705 592 696 798
8 689 583 697 799 801 699 808 907
8 800 698 809 908 694 588 703 805
8 690 584 699 801 800 698 809 908
8 803 701 810 909 691 585 700 802
8 693 587 702 804 803 701 811 910
8 695 589 703 805 804 702 812 911
8 818 710 814 919 708 595 705 813
8 821 712 815 920 710 596 706 814
8 816 709 600 719 922 819 717 831
8 817 711 594 707 923 820 709 816
8 818 710 595 708 924 822 711 817
8 819 715 599 717 926 827 716 829
8 820 714 598 709 927 826 715 819
8 929 825 713 822 820 714 597 711
8 821 712 596 710 930 824 713 822
8 717 599 718 832 829 716 830 942
8 719 600 720 834 831 717 832 944
8 832 718 601 720 945 833 721 835
8 834 720 603 722 946 835 723 836
8 869 780 838 950 767 670 725 839
8 865 767 839 952 756 656 726 841
8 839 725 840 953 726 608 727 842
8 841 726 842 954 728 609 729 843
8 844 740 691 790 955 850 802 899
8 733 625 740 844 845 739 850 955
8 734 623 739 845 846 738 849 956
8 735 621 738 846 847 737 848 957
8 744 647 737 847 854 759 848 957
8 738 627 742 849 848 741 851 958
8 848 741 851 958 759 662 773 868
8 850 743 700 802 959 852 807 906
8 849 742 628 739 959 852 743 850
8 854 759 868 965 745 648 760 855
8 746 649 760 855 856 761 871 966
8 860 765 653 750 967 872 761 856
8 968 873 762 857 858 763 651 748
8 862 769 657 753 968 873 762 857
8 859 764 874 969 749 652 763 858
8 752 654 766 861 859 764 875 970
8 751 655 765 860 861 766 876 971
8 754 658 769 862 863 770 879 972
8 755 659 770 863 864 771 881 974
8 976 882 772 867 864 771 660 757
8 866 768 877 977 756 656 767 865
8 867 772 878 978 758 661 768 866
8 760 663 773 868 871 774 883 980
8 870 781 837 948 982 890 780 869
8 982 890 780 869 877 782 670 767
8 761 664 774 871 872 775 884 984
8 876 776 665 765 985 885 775 872
8 873 777 668 763 986 887 779 874
8 769 674 777 873 879 786 887 986
8 764 669 778 875 874 779 888 987
8 766 667 776 876 875 778 886 988
8 878 783 892 989 768 671 782 877
8 878 783 672 772 990 893 784 882
8 880 787 675 770 991 896 786 879
8 880 787 895 992 770 675 785 881
8 881 785 894 993 771 673 784 882
8 1006 905 799 898 897 798 687 789
8 919 814 905 1006 813 705 798 897
8 791 689 799 898 901 801 907 1007
8 900 803 909 1009 790 691 802 899
8 795 693 804 903 900 803 910 1010
8 902 800 908 1011 796 694 805 904
8 793 690 801 901 902 800 908 1011
8 797 695 805 904 903 804 911 1012
8 799 697 806 905 907 808 912 1013
8 920 815 912 1013 814 706 806 905
8 802 700 810 909 906 807 913 1014
8 801 699 808 907 908 809 914 1015
8 805 703 809 908 911 812 915 1016
8 803 701 811 910 909 810 916 1017
8 911 812 917 1018 804 702 811 910
8 925 821 920 1030 818 710 814 919
8 928 823 921 1031 821 712 815 920
8 922 819 717 831 1033 926 829 941
8 923 820 709 816 1034 927 819 922
8 1035 929 822 924 923 820 711 817
8 925 821 710 818 1036 930 822 924
8 1038 933 825 929 927 826 714 820
8 926 827 716 829 1039 935 828 939
8 927 826 715 819 1040 934 827 926
8 928 823 712 821 1041 931 824 930
8 1042 932 824 930 929 825 713 822
8 829 716 830 942 939 828 940 1058
8 831 717 832 944 941 829 942 1060
8 942 830 718 832 1061 943 833 945
8 944 832 720 834 1062 945 835 946
8 981 889 947 1064 870 781 837 948
8 948 837 949 1067 869 780 838 950
8 975 869 950 1069 865 767 839 952
8 950 838 951 1070 839 725 840 953
8 952 839 953 1071 841 726 842 954
8 955 850 802 899 1072 959 906 1008
8 956 849 739 845 1072 959 850 955
8 846 738 849 956 957 848 958 1073
8 957 848 958 1073 854 759 868 965
8 849 742 852 959 958 851 961 1076
8 960 853 961 1076 906 807 852 959
8 958 851 961 1076 868 773 883 980
8 960 853 807 906 1077 963 913 1014
8 855 760 868 965 966 871 980 1085
8 856 761 871 966 967 872 984 1086
8 971 876 765 860 1087 985 872 967
8 968 873 763 858 1088 986 874 969
8 862 769 873 968 972 879 986 1088
8 859 764 875 970 969 874 987 1089
8 861 766 876 971 970 875 988 1090
8 973 880 770 863 1091 991 879 972
8 973 880 992 1092 863 770 881 974
8 974 881 993 1093 864 771 882 976
8 979 870 948 1066 1094 982 869 975
8 1094 982 869 975 977 877 767 865
8 978 878 772 867 1095 990 882 976
8 978 878 989 1096 866 768 877 977
8 871 774 883 980 984 884 994 1099
8 983 891 999 1100 870 781 889 981
8 1101 1000 890 982 989 892 782 877
8 983 891 781 870 1101 1000 890 982
8 872 775 884 984 985 885 995 1103
8 876 776 885 985 988 886 996 1104
8 986 887 779 874 1105 998 888 987
8 879 786 887 986 991 896 998 1105
8 875 778 886 988 987 888 997 1106
8 990 893 1002 1107 878 783 892 989
8 1108 1003 893 990 993 894 784 882
8 880 787 896 991 992 895 1005 1109
8 993 894 785 881 1110 1004 895 992
8 898 799 905 1006 1007 907 1013 1120
8 1030 920 1013 1120 919 814 905 1006
8 901 801 907 1007 1011 908 1015 1121
8 899 802 909 1009 1008 906 1014 1122
8 900 803 910 1010 1009 909 1017 1123
8 1012 911 1018 1124 903 804 910 1010
8 904 805 908 1011 1012 911 1016 1125
8 1013 912 1020 1127 907 808 914 1015
8 1031 921 1020 1127 920 815 912 1013
8 1019 918 962 1075 1128 1021 913 1014
8 1128 1021 913 1014 1017 916 810 909
8 1015 914 1022 1129 908 809 915 1016
8 1016 915 1023 1130 911 812 917 1018
8 1018 917 1024 1131 910 811 916 1017
8 1037 928 1031 1148 925 821 920 1030
8 928 823 931 1041 1031 921 1032 1149
8 1033 926 829 941 1151 1039 939 1057
8 1034 927 819 922 1152 1040 926 1033
8 1153 1038 929 1035 1034 927 820 923
8 1154 1042 930 1036 1035 929 822 924
8 1037 928 821 925 1155 1041 930 1036
8 1039 935 828 939 1156 1047 938 1055
8 1157 1043 932 1042 1038 933 825 929
8 1038 933 826 927 1158 1045 934 1040
8 1040 934 827 926 1159 1046 935 1039
8 930 824 932 1042 1041 931 1044 1160
8 1051 936 1048 1165 1175 1052 937 1053
8 1156 1047 938 1055 1053 937 1054 1178
8 939 828 940 1058 1055 938 1056 1181
8 941 829 942 1060 1057 939 1058 1183
8 942 830 943 1061 1058 940 1059 1184
8 1060 942 832 944 1185 1061 945 1062
8 1082 964 1063 1188 981 889 947 1064
8 1097 981 1064 1190 979 870 948 1066
8 1064 947 1065 1191 948 837 949 1067
8 1066 948 1067 1193 975 869 950 1069
8 1067 949 1068 1194 950 838 951 1070
8 1069 950 1070 1195 952 839 953 1071
8 956 849 959 1072 1073 958 1076 1197
8 1074 960 1076 1197 1008 906 959 1072
8 1073 958 1076 1197 965 868 980 1085
8 1074 960 906 1008 1198 1077 1014 1122
8 1133 1026 1079 1199 1019 918 962 1075
8 1077 963 913 1014 1200 1080 962 1075
8 960 853 963 1077 1076 961 1078 1201
8 980 883 961 1076 1099 994 1078 1201
8 1210 1083 964 1082 1100 999 889 981
8 966 871 980 1085 1086 984 1099 1215
8 967 872 984 1086 1087 985 1103 1216
8 971 876 985 1087 1090 988 1104 1217
8 1088 986 874 969 1218 1105 987 1089
8 972 879 986 1088 1091 991 1105 1218
8 970 875 988 1090 1089 987 1106 1219
8 973 880 991 1091 1092 992 1109 1220
8 1093 993 881 974 1221 1110 992 1092
8 1222 1108 990 1095 1093 993 882 976
8 1223 1101 982 1094 1096 989 877 977
8 1098 983 870 979 1223 1101 982 1094
8 1095 990 1107 1224 978 878 989 1096
8 1098 983 1100 1225 979 870 981 1097
8 984 884 994 1099 1103 995 1111 1227
8 1102 1001 1115 1228 983 891 999 1100
8 1101 1000 892 989 1229 1116 1002 1107
8 1102 1001 891 983 1229 1116 1000 1101
8 985 885 995 1103 1104 996 1112 1230
8 988 886 996 1104 1106 997 1113 1231
8 1105 998 888 987 1232 1114 997 1106
8 991 896 998 1105 1109 1005 1114 1232
8 1108 1003 1117 1233 990 893 1002 1107
8 1108 1003 894 993 1233 1117 1004 1110
8 992 895 1005 1109 1110 1004 1118 1234
8 1120 1013 1127 1244 1007 907 1015 1121
8 1148 1031 1127 1244 1030 920 1013 1120
8 1121 1015 1129 1245 1011 908 1016 1125
8 1126 1019 1075 1196 1246 1128 1014 1122
8 1246 1128 1014 1122 1123 1017 909 1009
8 1124 1018 1131 1247 1010 910 1017 1123
8 1125 1016 1130 1248 1012 911 1018 1124
8 1127 1020 1137 1254 1015 914 1022 1129
8 1031 921 1032 1149 1127 1020 1137 1254
8 1134 1027 918 1019 1257 1140 1021 1128
8 1257 1140 1021 1128 1131 1024 916 1017
8 1129 1022 1141 1258 1016 915 1023 1130
8 1130 1023 1142 1259 1018 917 1024 1131
8 1261 1144 1025 1132 1133 1026 1079 1199
8 1255 1138 1025 1132 1135 1028 1144 1261
8 1133 1026 918 1019 1262 1145 1027 1134
8 1136 1029 1139 1256 1263 1146 1028 1135
8 1037 928 1041 1155 1148 1031 1149 1275
8 1041 931 1044 1160 1149 1032 1150 1276
8 1151 1039 939 1057 1278 1156 1055 1180
8 1152 1040 926 1033 1279 1159 1039 1151
8 1153 1038 927 1034 1280 1158 1040 1152
8 1281 1157 1042 1154 1153 1038 929 1035
8 1036 930 1042 1154 1155 1041 1160 1282
8 1283 1164 1046 1159 1156 1047 935 1039
8 1165 1048 1164 1283 1053 937 1047 1156
8 1157 1043 933 1038 1284 1161 1045 1158
8 1157 1043 1161 1284 1042 932 1044 1160
8 1040 934 1046 1159 1158 1045 1163 1285
8 1166 1049 1167 1292 1051 936 1048 1165
8 1166 1049 936 1051 1293 1168 1050 1172
8 1051 936 1052 1175 1172 1050 1173 1306
8 1174 1051 1165 1290 1308 1175 1053 1177
8 1053 937 1054 1178 1175 1052 1176 1309
8 1278 1156 1055 1180 1177 1053 1178 1311
8 1055 938 1056 1181 1178 1054 1179 1312
8 1057 939 1058 1183 1180 1055 1181 1314
8 1058 940 1059 1184 1181 1056 1182 1315
8 1060 942 1061 1185 1183 1058 1184 1316
8 1208 1081 1187 1321 1082 964 1063 1188
8 1209 1082 1188 1322 1097 981 1064 1190
8 1188 1063 1189 1323 1064 947 1065 1191
8 1190 1064 1191 1325 1066 948 1067 1193
8 1191 1065 1192 1326 1067 949 1068 1194
8 1067 1193 1069 950 1194 1327 1195 1070
8 1250 1133 1199 1330 1126 1019 1075 1196
8 1198 1077 1014 1122 1331 1200 1075 1196
8 1074 960 1077 1198 1197 1076 1201 1332
8 1085 980 1076 1197 1215 1099 1201 1332
8 1199 1079 1203 1333 1075 962 1080 1200
8 1132 1025 1119 1243 1199 1079 1203 1333
8 1201 1078 963 1077 1334 1202 1080 1200
8 1099 994 1078 1201 1227 1111 1202 1334
8 1343 1207 1081 1208 1210 1083 964 1082
8 1214 1084 1186 1319 1343 1207 1081 1208
8 1345 1210 1082 1209 1225 1100 981 1097
8 1346 1211 1083 1210 1228 1115 999 1100
8 1086 984 1099 1215 1216 1103 1227 1352
8 1087 985 1103 1216 1217 1104 1230 1353
8 1090 988 1104 1217 1219 1106 1231 1354
8 1218 1105 987 1089 1355 1232 1106 1219
8 1091 991 1105 1218 1220 1109 1232 1355
8 1092 992 1109 1220 1221 1110 1234 1356
8 1222 1108 1233 1357 1095 990 1107 1224
8 1222 1108 993 1093 1357 1233 1110 1221
8 1223 1101 989 1096 1358 1229 1107 1224
8 1226 1102 983 1098 1358 1229 1101 1223
8 1226 1102 1228 1359 1098 983 1100 1225
8 1103 995 1111 1227 1230 1112 1235 1360
8 1107 1002 1117 1233 1229 1116 1240 1362
8 1102 1001 1116 1229 1228 1115 1240 1362
8 1104 996 1112 1230 1231 1113 1236 1363
8 1364 1237 1114 1232 1231 1113 997 1106
8 1109 1005 1114 1232 1234 1118 1238 1365
8 1110 1004 1118 1234 1233 1117 1241 1366
8 1242 1374 1255 1138 1119 1243 1132 1025
8 1244 1127 1254 1376 1121 1015 1129 1245
8 1148 1031 1149 1275 1244 1127 1254 1376
8 1245 1129 1258 1377 1125 1016 1130 1248
8 1251 1134 1019 1126 1378 1257 1128 1246
8 1378 1257 1128 1246 1247 1131 1017 1123
8 1248 1130 1259 1379 1124 1018 1131 1247
8 1261 1381 1250 1133 1132 1249 1330 1199
8 1255 1380 1252 1135 1132 1249 1381 1261
8 1250 1133 1019 1126 1382 1262 1134 1251
8 1253 1136 1256 1385 1384 1263 1135 1252
8 1254 1137 1265 1387 1129 1022 1141 1258
8 1149 1032 1150 1276 1254 1137 1265 1387
8 1028 1135 1255 1138 1139 1256 1388 1266
8 1136 1029 1147 1264 1256 1139 1267 1389
8 1390 1268 1140 1257 1259 1142 1024 1131
8 1260 1143 1027 1134 1390 1268 1140 1257
8 1258 1141 1269 1391 1130 1023 1142 1259
8 1262 1145 1027 1134 1393 1271 1143 1260
8 1261 1144 1026 1133 1394 1272 1145 1262
8 1135 1028 1144 1261 1263 1146 1272 1394
8 1136 1029 1146 1263 1264 1147 1273 1395
8 1155 1041 1160 1282 1275 1149 1276 1405
8 1276 1150 1044 1160 1406 1277 1162 1286
8 1408 1283 1159 1279 1278 1156 1039 1151
8 1290 1165 1283 1408 1177 1053 1156 1278
8 1152 1040 1159 1279 1280 1158 1285 1409
8 1281 1157 1038 1153 1410 1284 1158 1280
8 1281 1157 1284 1410 1154 1042 1160 1282
8 1159 1046 1164 1283 1285 1163 1289 1412
8 1292 1167 1289 1412 1165 1048 1164 1283
8 1158 1045 1163 1285 1284 1161 1288 1413
8 1284 1161 1288 1413 1160 1044 1162 1286
8 1291 1166 1292 1418 1174 1051 1165 1290
8 1291 1166 1051 1174 1419 1293 1172 1305
8 1294 1169 1296 1421 1166 1049 1167 1292
8 1293 1168 1050 1172 1422 1295 1171 1303
8 1294 1169 1049 1166 1423 1297 1168 1293
8 1422 1295 1171 1303 1301 1170 1302 1435
8 1172 1050 1173 1306 1303 1171 1304 1438
8 1174 1051 1175 1308 1305 1172 1306 1440
8 1175 1052 1176 1309 1306 1173 1307 1441
8 1177 1053 1178 1311 1308 1175 1309 1443
8 1178 1054 1179 1312 1309 1176 1310 1444
8 1180 1055 1181 1314 1311 1178 1312 1446
8 1056 1181 1312 1179 1182 1315 1447 1313
8 1183 1058 1184 1316 1314 1181 1315 1448
8 1319 1186 1084 1214 1451 1317 1213 1350
8 1319 1186 1318 1453 1208 1081 1187 1321
8 1321 1187 1320 1456 1188 1063 1189 1323
8 1344 1208 1321 1457 1209 1082 1188 1322
8 1322 1188 1323 1458 1190 1064 1191 1325
8 1323 1189 1324 1459 1191 1065 1192 1326
8 1191 1325 1193 1067 1326 1460 1327 1194
8 1242 1374 1243 1119 1328 1462 1335 1204
8 1330 1199 1333 1465 1196 1075 1200 1331
8 1132 1249 1330 1199 1243 1375 1465 1333
8 1332 1201 1077 1198 1466 1334 1200 1331
8 1215 1099 1201 1332 1352 1227 1334 1466
8 1119 1243 1333 1203 1204 1335 1470 1338
8 1333 1203 1338 1470 1200 1080 1202 1334
8 1227 1111 1202 1334 1360 1235 1338 1470
8 1328 1462 1335 1204 1205 1336 1471 1339
8 1337 1206 1340 1472 1464 1329 1205 1336
8 1346 1211 1342 1479 1210 1083 1207 1343
8 1346 1211 1115 1228 1479 1342 1239 1361
8 1348 1212 1084 1214 1479 1342 1207 1343
8 1480 1343 1208 1344 1345 1210 1082 1209
8 1351 1214 1319 1454 1480 1343 1208 1344
8 1481 1346 1210 1345 1359 1228 1100 1225
8 1348 1212 1347 1483 1214 1084 1213 1350
8 1216 1103 1227 1352 1353 1230 1360 1488
8 1217 1104 1230 1353 1354 1231 1363 1489
8 1490 1364 1232 1355 1354 1231 1106 1219
8 1220 1109 1232 1355 1356 1234 1365 1491
8 1221 1110 1234 1356 1357 1233 1366 1492
8 1224 1107 1233 1357 1358 1229 1362 1493
8 1226 1102 1229 1358 1359 1228 1362 1493
8 1230 1112 1235 1360 1363 1236 1367 1496
8 1361 1239 1115 1228 1497 1371 1240 1362
8 1366 1241 1372 1498 1233 1117 1240 1362
8 1364 1237 1113 1231 1499 1368 1236 1363
8 1364 1237 1368 1499 1232 1114 1238 1365
8 1234 1118 1238 1365 1366 1241 1369 1500
8 1507 1373 1242 1374 1388 1266 1138 1255
8 1508 1374 1243 1375 1380 1255 1132 1249
8 1376 1254 1387 1509 1245 1129 1258 1377
8 1275 1149 1276 1405 1376 1254 1387 1509
8 1377 1258 1391 1510 1248 1130 1259 1379
8 1511 1390 1257 1378 1379 1259 1131 1247
8 1383 1260 1134 1251 1511 1390 1257 1378
8 1252 1135 1256 1385 1380 1255 1388 1512
8 1261 1381 1513 1394 1133 1250 1382 1262
8 1135 1252 1384 1263 1261 1381 1513 1394
8 1382 1262 1134 1251 1514 1393 1260 1383
8 1253 1136 1263 1384 1386 1264 1395 1516
8 1253 1136 1264 1386 1385 1256 1389 1517
8 1387 1265 1397 1519 1258 1141 1269 1391
8 1276 1150 1277 1406 1387 1265 1397 1519
8 1256 1139 1267 1389 1388 1266 1398 1520
8 1264 1147 1274 1396 1389 1267 1399 1521
8 1392 1270 1143 1260 1522 1400 1268 1390
8 1390 1268 1142 1259 1522 1400 1269 1391
8 1392 1270 1401 1523 1260 1143 1271 1393
8 1272 1394 1524 1402 1145 1262 1393 1271
8 1395 1273 1146 1263 1524 1402 1272 1394
8 1273 1395 1264 1147 1403 1526 1396 1274
8 1405 1276 1160 1282 1534 1406 1286 1411
8 1414 1287 1407 1535 1286 1162 1277 1406
8 1279 1159 1283 1408 1409 1285 1412 1537
8 1418 1292 1412 1537 1290 1165 1283 1408
8 1280 1158 1285 1409 1410 1284 1413 1538
8 1410 1284 1413 1538 1282 1160 1286 1411
8 1285 1163 1289 1412 1413 1288 1417 1540
8 1421 1296 1417 1540 1292 1167 1289 1412
8 1414 1287 1162 1286 1541 1416 1288 1413
8 1420 1294 1421 1545 1291 1166 1292 1418
8 1419 1293 1172 1305 1546 1422 1303 1437
8 1420 1294 1166 1291 1547 1423 1293 1419
8 1294 1169 1297 1423 1421 1296 1425 1548
8 1423 1297 1168 1293 1549 1424 1295 1422
8 1301 1170 1298 1427 1422 1295 1424 1549
8 1432 1300 1428 1554 1301 1170 1298 1427
8 1431 1299 1428 1554 1560 1430 1300 1432
8 1563 1433 1300 1432 1435 1302 1170 1301
8 1546 1422 1303 1437 1434 1301 1435 1565
8 1303 1171 1304 1438 1435 1302 1436 1566
8 1305 1172 1306 1440 1437 1303 1438 1568
8 1306 1173 1307 1441 1438 1304 1439 1569
8 1308 1175 1309 1443 1440 1306 1441 1571
8 1309 1176 1310 1444 1441 1307 1442 1572
8 1311 1178 1312 1446 1443 1309 1444 1574
8 1179 1312 1444 1310 1313 1447 1575 1445
8 1314 1181 1315 1448 1446 1312 1447 1576
8 1350 1213 1349 1486 1451 1317 1449 1579
8 1451 1317 1450 1581 1319 1186 1318 1453
8 1454 1319 1214 1351 1582 1451 1350 1487
8 1453 1318 1452 1584 1321 1187 1320 1456
8 1454 1319 1453 1585 1344 1208 1321 1457
8 1456 1320 1455 1586 1323 1189 1324 1459
8 1457 1321 1456 1587 1322 1188 1323 1458
8 1458 1323 1459 1588 1325 1191 1326 1460
8 1205 1336 1464 1329 1328 1462 1590 1461
8 1507 1373 1461 1590 1374 1242 1328 1462
8 1508 1374 1462 1591 1375 1243 1335 1467
8 1337 1206 1329 1464 1473 1341 1463 1594
8 1375 1243 1335 1467 1465 1333 1470 1596
8 1465 1333 1470 1596 1331 1200 1334 1466
8 1352 1227 1334 1466 1488 1360 1470 1596
8 1591 1462 1336 1468 1467 1335 1471 1597
8 1469 1337 1472 1598 1595 1464 1336 1468
8 1471 1339 1474 1600 1335 1204 1338 1470
8 1600 1474 1367 1496 1470 1338 1235 1360
8 1336 1205 1340 1472 1471 1339 1475 1601
8 1337 1206 1341 1473 1472 1340 1476 1602
8 1495 1370 1478 1609 1361 1239 1342 1479
8 1348 1212 1342 1479 1483 1347 1478 1609
8 1481 1346 1479 1610 1345 1210 1343 1480
8 1481 1346 1228 1359 1610 1479 1361 1494
8 1484 1348 1214 1351 1610 1479 1343 1480
8 1483 1347 1482 1612 1350 1213 1349 1486
8 1484 1348 1483 1613 1351 1214 1350 1487
8 1353 1230 1360 1488 1489 1363 1496 1616
8 1490 1364 1231 1354 1617 1499 1363 1489
8 1490 1364 1499 1617 1355 1232 1365 1491
8 1356 1234 1365 1491 1492 1366 1500 1619
8 1492 1366 1498 1620 1357 1233 1362 1493
8 1494 1361 1228 1359 1621 1497 1362 1493
8 1495 1370 1239 1361 1622 1504 1371 1497
8 1363 1236 1367 1496 1499 1368 1501 1623
8 1497 1371 1240 1362 1624 1505 1372 1498
8 1625 1503 1372 1498 1500 1369 1241 1366
8 1365 1238 1368 1499 1500 1369 1502 1626
8 1520 1398 1506 1633 1388 1266 1373 1507
8 1634 1507 1374 1508 1512 1388 1255 1380
8 1509 1387 1519 1635 1377 1258 1391 1510
8 1405 1276 1406 1534 1509 1387 1519 1635
8 1515 1392 1260 1383 1636 1522 1390 1511
8 1511 1390 1259 1379 1636 1522 1391 1510
8 1385 1256 1389 1517 1512 1388 1520 1637
8 1513 1394 1262 1382 1638 1524 1393 1514
8 1395 1516 1638 1524 1263 1384 1513 1394
8 1515 1392 1523 1639 1383 1260 1393 1514
8 1516 1395 1526 1640 1386 1264 1396 1518
8 1386 1264 1396 1518 1517 1389 1521 1641
8 1519 1397 1527 1643 1391 1269 1400 1522
8 1535 1407 1527 1643 1406 1277 1397 1519
8 1389 1267 1399 1521 1520 1398 1528 1644
8 1645 1529 1399 1521 1525 1404 1274 1396
8 1392 1270 1400 1522 1523 1401 1531 1646
8 1524 1402 1271 1393 1648 1532 1401 1523
8 1403 1526 1648 1532 1273 1395 1524 1402
8 1525 1404 1274 1396 1649 1533 1403 1526
8 1539 1414 1535 1657 1411 1286 1406 1534
8 1542 1415 1536 1658 1414 1287 1407 1535
8 1409 1285 1412 1537 1538 1413 1540 1660
8 1545 1421 1540 1660 1418 1292 1412 1537
8 1539 1414 1286 1411 1661 1541 1413 1538
8 1540 1417 1544 1663 1413 1288 1416 1541
8 1421 1296 1425 1548 1540 1417 1544 1663
8 1542 1415 1287 1414 1664 1543 1416 1541
8 1420 1294 1423 1547 1545 1421 1548 1666
8 1547 1423 1293 1419 1667 1549 1422 1546
8 1434 1301 1427 1553 1546 1422 1549 1667
8 1423 1297 1424 1549 1548 1425 1550 1668
8 1551 1426 1550 1668 1427 1298 1424 1549
8 1551 1426 1298 1427 1671 1552 1428 1554
8 1562 1432 1554 1674 1434 1301 1427 1553
8 1431 1299 1429 1558 1554 1428 1555 1675
8 1431 1299 1430 1560 1558 1429 1557 1680
8 1560 1430 1300 1432 1683 1559 1433 1563
8 1561 1431 1554 1674 1684 1560 1432 1562
8 1685 1563 1432 1562 1565 1435 1301 1434
8 1435 1302 1436 1566 1563 1433 1564 1686
8 1437 1303 1438 1568 1565 1435 1566 1688
8 1438 1304 1439 1569 1566 1436 1567 1689
8 1440 1306 1441 1571 1568 1438 1569 1691
8 1441 1307 1442 1572 1569 1439 1570 1692
8 1443 1309 1444 1574 1571 1441 1572 1694
8 1310 1444 1572 1442 1445 1575 1695 1573
8 1446 1312 1447 1576 1574 1444 1575 1696
8 1486 1349 1485 1614 1579 1449 1577 1699
8 1451 1317 1449 1579 1581 1450 1578 1701
8 1487 1350 1486 1615 1582 1451 1579 1702
8 1581 1450 1580 1704 1453 1318 1452 1584
8 1582 1451 1581 1705 1454 1319 1453 1585
8 1584 1452 1583 1706 1456 1320 1455 1586
8 1585 1453 1584 1707 1457 1321 1456 1587
8 1587 1456 1586 1708 1458 1323 1459 1588
8 1633 1506 1589 1710 1507 1373 1461 1590
8 1464 1329 1461 1590 1594 1463 1589 1710
8 1468 1336 1462 1591 1595 1464 1590 1711
8 1634 1507 1590 1711 1508 1374 1462 1591
8 1473 1341 1463 1594 1603 1477 1593 1716
8 1469 1337 1464 1595 1599 1473 1594 1717
8 1471 1597 1467 1335 1600 1718 1596 1470
8 1718 1600 1496 1616 1596 1470 1360 1488
8 1336 1468 1597 1471 1472 1598 1719 1601
8 1469 1337 1473 1599 1598 1472 1602 1720
8 1722 1604 1501 1623 1600 1474 1367 1496
8 1475 1601 1471 1339 1604 1722 1600 1474
8 1602 1476 1605 1723 1472 1340 1475 1601
8 1476 1602 1724 1606 1341 1473 1603 1477
8 1483 1347 1478 1609 1612 1482 1608 1731
8 1495 1370 1504 1622 1609 1478 1608 1731
8 1618 1495 1609 1732 1494 1361 1479 1610
8 1484 1348 1479 1610 1613 1483 1609 1732
8 1486 1349 1482 1612 1614 1485 1611 1733
8 1613 1483 1612 1734 1487 1350 1486 1615
8 1489 1363 1496 1616 1617 1499 1623 1736
8 1491 1365 1499 1617 1619 1500 1626 1737
8 1618 1495 1361 1494 1738 1622 1497 1621
8 1739 1625 1498 1620 1619 1500 1366 1492
8 1621 1497 1362 1493 1740 1624 1498 1620
8 1742 1631 1504 1622 1624 1505 1371 1497
8 1743 1628 1502 1626 1623 1501 1368 1499
8 1744 1630 1505 1624 1625 1503 1372 1498
8 1745 1629 1503 1625 1626 1502 1369 1500
8 1520 1398 1528 1644 1633 1506 1632 1751
8 1637 1520 1633 1752 1512 1388 1507 1634
8 1635 1519 1643 1753 1510 1391 1522 1636
8 1657 1535 1643 1753 1534 1406 1519 1635
8 1515 1392 1522 1636 1639 1523 1646 1754
8 1517 1389 1521 1641 1637 1520 1644 1755
8 1524 1638 1756 1648 1393 1514 1639 1523
8 1640 1526 1395 1516 1756 1648 1524 1638
8 1642 1525 1396 1518 1757 1649 1526 1640
8 1758 1645 1521 1641 1642 1525 1396 1518
8 1646 1531 1400 1522 1760 1650 1527 1643
8 1535 1407 1536 1658 1643 1527 1650 1760
8 1521 1399 1529 1645 1644 1528 1651 1761
8 1647 1530 1652 1762 1525 1404 1529 1645
8 1401 1523 1648 1532 1531 1646 1763 1655
8 1525 1404 1533 1649 1647 1530 1654 1765
8 1533 1649 1766 1656 1403 1526 1648 1532
8 1662 1542 1658 1774 1539 1414 1535 1657
8 1542 1415 1543 1664 1658 1536 1659 1775
8 1660 1540 1663 1777 1538 1413 1541 1661
8 1545 1421 1548 1666 1660 1540 1663 1777
8 1662 1542 1414 1539 1778 1664 1541 1661
8 1664 1543 1416 1541 1779 1665 1544 1663
8 1548 1425 1550 1668 1663 1544 1665 1779
8 1547 1423 1549 1667 1666 1548 1668 1781
8 1670 1551 1668 1781 1553 1427 1549 1667
8 1551 1426 1552 1671 1668 1550 1669 1782
8 1670 1551 1427 1553 1784 1671 1554 1674
8 1675 1555 1672 1785 1554 1428 1552 1671
8 1678 1556 1673 1789 1558 1429 1555 1675
8 1561 1431 1558 1681 1674 1554 1675 1790
8 1794 1677 1556 1678 1680 1557 1429 1558
8 1560 1430 1559 1683 1680 1557 1679 1797
8 1561 1431 1560 1684 1681 1558 1680 1798
8 1563 1433 1564 1686 1683 1559 1682 1800
8 1684 1560 1432 1562 1801 1683 1563 1685
8 1565 1435 1566 1688 1685 1563 1686 1802
8 1566 1436 1567 1689 1686 1564 1687 1803
8 1568 1438 1569 1691 1688 1566 1689 1805
8 1569 1439 1570 1692 1689 1567 1690 1806
8 1571 1441 1572 1694 1691 1569 1692 1808
8 1442 1572 1692 1570 1573 1695 1809 1693
8 1574 1444 1575 1696 1694 1572 1695 1810
8 1614 1485 1592 1712 1699 1577 1697 1813
8 1579 1449 1577 1699 1701 1578 1698 1815
8 1615 1486 1614 1735 1702 1579 1699 1816
8 1701 1578 1700 1818 1581 1450 1580 1704
8 1582 1451 1579 1702 1705 1581 1701 1819
8 1704 1580 1703 1820 1584 1452 1583 1706
8 1705 1581 1704 1821 1585 1453 1584 1707
8 1707 1584 1706 1822 1587 1456 1586 1708
8 1710 1589 1506 1633 1824 1709 1632 1751
8 1594 1463 1589 1710 1716 1593 1709 1824
8 1752 1633 1710 1825 1634 1507 1590 1711
8 1595 1464 1590 1711 1717 1594 1710 1825
8 1830 1714 1592 1712 1733 1611 1485 1614
8 1603 1477 1593 1716 1725 1607 1715 1834
8 1599 1473 1594 1717 1721 1603 1716 1835
8 1837 1722 1623 1736 1718 1600 1496 1616
8 1719 1601 1722 1837 1597 1471 1600 1718
8 1602 1720 1598 1472 1723 1838 1719 1601
8 1720 1602 1473 1599 1839 1724 1603 1721
8 1723 1605 1726 1840 1601 1475 1604 1722
8 1840 1726 1628 1743 1722 1604 1501 1623
8 1724 1606 1727 1841 1602 1476 1605 1723
8 1725 1607 1728 1842 1603 1477 1606 1724
8 1612 1482 1608 1731 1733 1611 1730 1849
8 1741 1627 1730 1849 1622 1504 1608 1731
8 1613 1483 1609 1732 1734 1612 1731 1850
8 1618 1495 1622 1738 1732 1609 1731 1850
8 1615 1486 1612 1734 1735 1614 1733 1851
8 1852 1743 1626 1737 1736 1623 1499 1617
8 1853 1745 1625 1739 1737 1626 1500 1619
8 1855 1742 1622 1738 1740 1624 1497 1621
8 1856 1744 1624 1740 1739 1625 1498 1620
8 1741 1627 1504 1622 1857 1746 1631 1742
8 1742 1631 1505 1624 1858 1749 1630 1744
8 1859 1747 1629 1745 1743 1628 1502 1626
8 1860 1748 1630 1744 1745 1629 1503 1625
8 1644 1528 1651 1761 1751 1632 1750 1865
8 1637 1520 1644 1755 1752 1633 1751 1866
8 1754 1646 1522 1636 1867 1760 1643 1753
8 1657 1535 1658 1774 1753 1643 1760 1867
8 1639 1523 1646 1754 1756 1648 1763 1868
8 1641 1521 1645 1758 1755 1644 1761 1869
8 1757 1649 1526 1640 1870 1766 1648 1756
8 1642 1525 1649 1757 1759 1647 1765 1871
8 1759 1647 1762 1872 1642 1525 1645 1758
8 1760 1650 1767 1874 1646 1531 1655 1763
8 1658 1536 1659 1775 1760 1650 1767 1874
8 1762 1652 1768 1875 1645 1529 1651 1761
8 1764 1653 1769 1876 1647 1530 1652 1762
8 1656 1766 1877 1773 1532 1648 1763 1655
8 1771 1879 1765 1654 1653 1764 1647 1530
8 1533 1649 1765 1654 1656 1766 1880 1772
8 1662 1542 1664 1778 1774 1658 1775 1887
8 1664 1543 1665 1779 1775 1659 1776 1888
8 1778 1664 1541 1661 1890 1779 1663 1777
8 1666 1548 1668 1781 1777 1663 1779 1890
8 1782 1669 1780 1891 1668 1550 1665 1779
8 1670 1551 1671 1784 1781 1668 1782 1893
8 1671 1552 1672 1785 1782 1669 1783 1894
8 1790 1675 1785 1896 1674 1554 1671 1784
8 1675 1555 1673 1789 1785 1672 1786 1897
8 1792 1676 1788 1903 1678 1556 1673 1789
8 1795 1678 1789 1904 1681 1558 1675 1790
8 1792 1676 1556 1678 1906 1791 1677 1794
8 1680 1557 1679 1797 1794 1677 1793 1909
8 1910 1794 1678 1795 1798 1680 1558 1681
8 1683 1559 1682 1800 1797 1679 1796 1912
8 1684 1560 1683 1801 1798 1680 1797 1913
8 1686 1564 1687 1803 1800 1682 1799 1915
8 1685 1563 1686 1802 1801 1683 1800 1916
8 1688 1566 1689 1805 1802 1686 1803 1917
8 1689 1567 1690 1806 1803 1687 1804 1918
8 1691 1569 1692 1808 1805 1689 1806 1920
8 1692 1570 1693 1809 1806 1690 1807 1921
8 1694 1572 1695 1810 1808 1692 1809 1922
8 1829 1713 1811 1926 1712 1592 1697 1813
8 1813 1697 1812 1928 1699 1577 1698 1815
8 1735 1614 1712 1828 1816 1699 1813 1929
8 1815 1698 1814 1931 1701 1578 1700 1818
8 1702 1579 1699 1816 1819 1701 1815 1932
8 1818 1700 1817 1933 1704 1580 1703 1820
8 1819 1701 1818 1934 1705 1581 1704 1821
8 1821 1704 1820 1935 1707 1584 1706 1822
8 1824 1709 1632 1751 1937 1823 1750 1865
8 1716 1593 1709 1824 1834 1715 1823 1937
8 1825 1710 1633 1752 1938 1824 1751 1866
8 1717 1594 1710 1825 1835 1716 1824 1938
8 1945 1830 1712 1828 1851 1733 1614 1735
8 1830 1714 1831 1946 1712 1592 1713 1829
8 1947 1832 1714 1830 1849 1730 1611 1733
8 1843 1729 1607 1725 1950 1833 1715 1834
8 1721 1603 1716 1835 1836 1725 1834 1951
8 1836 1725 1842 1953 1721 1603 1724 1839
8 1723 1838 1719 1601 1840 1954 1837 1722
8 1954 1840 1743 1852 1837 1722 1623 1736
8 1724 1839 1720 1602 1841 1955 1838 1723
8 1841 1727 1844 1956 1723 1605 1726 1840
8 1956 1844 1747 1859 1840 1726 1628 1743
8 1728 1842 1724 1606 1845 1957 1841 1727
8 1725 1607 1729 1843 1842 1728 1846 1958
8 1741 1627 1746 1857 1849 1730 1848 1965
8 1734 1612 1731 1850 1851 1733 1849 1966
8 1854 1741 1849 1966 1738 1622 1731 1850
8 1967 1859 1745 1853 1852 1743 1626 1737
8 1968 1860 1744 1856 1853 1745 1625 1739
8 1854 1741 1622 1738 1969 1857 1742 1855
8 1855 1742 1624 1740 1970 1858 1744 1856
8 1857 1746 1631 1742 1971 1861 1749 1858
8 1858 1749 1630 1744 1972 1863 1748 1860
8 1859 1747 1862 1973 1745 1629 1748 1860
8 1875 1768 1864 1977 1761 1651 1750 1865
8 1755 1644 1761 1869 1866 1751 1865 1978
8 1867 1760 1874 1979 1754 1646 1763 1868
8 1774 1658 1775 1887 1867 1760 1874 1979
8 1870 1766 1648 1756 1980 1877 1763 1868
8 1872 1762 1875 1981 1758 1645 1761 1869
8 1757 1649 1766 1870 1871 1765 1880 1982
8 1983 1879 1764 1873 1871 1765 1647 1759
8 1873 1764 1876 1984 1759 1647 1762 1872
8 1877 1773 1655 1763 1986 1881 1767 1874
8 1775 1659 1776 1888 1874 1767 1881 1986
8 1876 1769 1882 1987 1762 1652 1768 1875
8 1878 1770 1883 1988 1764 1653 1769 1876
8 1880 1772 1656 1766 1989 1886 1773 1877
8 1878 1770 1653 1764 1990 1884 1771 1879
8 1765 1654 1772 1880 1879 1771 1885 1991
8 1778 1664 1779 1890 1887 1775 1888 1997
8 1998 1889 1776 1888 1891 1780 1665 1779
8 1893 1782 1891 2000 1781 1668 1779 1890
8 1894 1783 1892 2001 1782 1669 1780 1891
8 1784 1671 1785 1896 1893 1782 1894 2003
8 1897 1786 1895 2004 1785 1672 1783 1894
8 1790 1675 1789 1904 1896 1785 1897 2006
8 1901 1787 1898 2007 1789 1673 1786 1897
8 1903 1788 1900 2013 1789 1673 1787 1901
8 1792 1676 1791 1906 1903 1788 1902 2016
8 1907 1792 1903 2017 1795 1678 1789 1904
8 1906 1791 1677 1794 2019 1905 1793 1909
8 1907 1792 1678 1795 2020 1906 1794 1910
8 1797 1679 1796 1912 1909 1793 1908 2022
8 1798 1680 1797 1913 1910 1794 1909 2023
8 1800 1682 1799 1915 1912 1796 1911 2025
8 1801 1683 1800 1916 1913 1797 1912 2026
8 1803 1687 1804 1918 1915 1799 1914 2028
8 1802 1686 1803 1917 1916 1800 1915 2029
8 1805 1689 1806 1920 1917 1803 1918 2030
8 1806 1690 1807 1921 1918 1804 1919 2031
8 1808 1692 1809 1922 1920 1806 1921 2032
8 1939 1826 1924 2037 1829 1713 1811 1926
8 1926 1811 1925 2039 1813 1697 1812 1928
8 1944 1829 1926 2040 1828 1712 1813 1929
8 1928 1812 1927 2042 1815 1698 1814 1931
8 1929 1813 1928 2043 1816 1699 1815 1932
8 1931 1814 1930 2044 1818 1700 1817 1933
8 1932 1815 1931 2045 1819 1701 1818 1934
8 1934 1818 1933 2046 1821 1704 1820 1935
8 2048 1936 1823 1937 1977 1864 1750 1865
8 1950 1833 1715 1834 2048 1936 1823 1937
8 1938 1824 1751 1866 2049 1937 1865 1978
8 1835 1716 1824 1938 1951 1834 1937 2049
8 1939 1826 1713 1829 2053 1942 1831 1946
8 1940 1827 1923 2035 2053 1942 1826 1939
8 1945 1830 1946 2058 1828 1712 1829 1944
8 2059 1947 1830 1945 1966 1849 1733 1851
8 1947 1832 1730 1849 2060 1948 1848 1965
8 1947 1832 1948 2060 1830 1714 1831 1946
8 1959 1847 1729 1843 2063 1949 1833 1950
8 1952 1843 1725 1836 2064 1950 1834 1951
8 1836 1725 1843 1952 1953 1842 1958 2066
8 1953 1842 1957 2067 1839 1724 1841 1955
8 1841 1955 1838 1723 1956 2068 1954 1840
8 2068 1956 1859 1967 1954 1840 1743 1852
8 1956 1844 1960 2069 1859 1747 1862 1973
8 1845 1957 1841 1727 1960 2069 1956 1844
8 1728 1842 1957 1845 1846 1958 2071 1961
8 1962 2072 1959 1847 1846 1958 1843 1729
8 1971 1861 1964 2077 1857 1746 1848 1965
8 1854 1741 1857 1969 1966 1849 1965 2078
8 1967 1859 1973 2079 1853 1745 1860 1968
8 1970 1858 1744 1856 2080 1972 1860 1968
8 1969 1857 1742 1855 2081 1971 1858 1970
8 1971 1861 1749 1858 2082 1974 1863 1972
8 1973 1862 1975 2083 1860 1748 1863 1972
8 1987 1882 1976 2086 1875 1768 1864 1977
8 1981 1875 1977 2087 1869 1761 1865 1978
8 1980 1877 1763 1868 2088 1986 1874 1979
8 1887 1775 1888 1997 1979 1874 1986 2088
8 1880 1982 2089 1989 1766 1870 1980 1877
8 1984 1876 1987 2090 1872 1762 1875 1981
8 1765 1871 1983 1879 1880 1982 2091 1991
8 1985 1878 1764 1873 2092 1990 1879 1983
8 1985 1878 1988 2093 1873 1764 1876 1984
8 2094 1992 1881 1986 1998 1889 1776 1888
8 1986 1881 1992 2094 1877 1773 1886 1989
8 1988 1883 1993 2095 1876 1769 1882 1987
8 1878 1770 1884 1990 1988 1883 1994 2096
8 1991 1885 1772 1880 2097 1996 1886 1989
8 1879 1771 1885 1991 1990 1884 1995 2098
8 2103 1998 1888 1997 2000 1891 1779 1890
8 2104 1999 1889 1998 2001 1892 1780 1891
8 2003 1894 2001 2106 1893 1782 1891 2000
8 2004 1895 2002 2107 1894 1783 1892 2001
8 2006 1897 2004 2109 1896 1785 1894 2003
8 2007 1898 2005 2110 1897 1786 1895 2004
8 2014 1901 2007 2112 1904 1789 1897 2006
8 2011 1899 2008 2113 1901 1787 1898 2007
8 2119 2010 1899 2011 2013 1900 1787 1901
8 2016 1902 2012 2122 1903 1788 1900 2013
8 2017 1903 2013 2123 1904 1789 1901 2014
8 1906 1791 1905 2019 2016 1902 2015 2125
8 1907 1792 1906 2020 2017 1903 2016 2126
8 1909 1793 1908 2022 2019 1905 2018 2128
8 2020 1906 1794 1910 2129 2019 1909 2023
8 1912 1796 1911 2025 2022 1908 2021 2131
8 1913 1797 1912 2026 2023 1909 2022 2132
8 1915 1799 1914 2028 2025 1911 2024 2134
8 1916 1800 1915 2029 2026 1912 2025 2135
8 1918 1804 1919 2031 2028 1914 2027 2136
8 1917 1803 1918 2030 2029 1915 2028 2137
8 1920 1806 1921 2032 2030 1918 2031 2138
8 1940 1827 1941 2054 2035 1923 2033 2140
8 2035 1923 2034 2143 1939 1826 1924 2037
8 2037 1924 2036 2146 1926 1811 1925 2039
8 2051 1939 2037 2147 1944 1829 1926 2040
8 2039 1925 2038 2149 1928 1812 1927 2042
8 2040 1926 2039 2150 1929 1813 1928 2043
8 2042 1927 2041 2151 1931 1814 1930 2044
8 2043 1928 2042 2152 1932 1815 1931 2045
8 2045 1931 2044 2153 1934 1818 1933 2046
8 2155 2047 1936 2048 2086 1976 1864 1977
8 2063 1949 1833 1950 2155 2047 1936 2048
8 2156 2048 1937 2049 2087 1977 1865 1978
8 2064 1950 1834 1951 2156 2048 1937 2049
8 2051 1939 1829 1944 2160 2053 1946 2058
8 2052 1940 2035 2144 2160 2053 1939 2051
8 2053 1942 1831 1946 2163 2057 1948 2060
8 2055 1943 1827 1940 2163 2057 1942 2053
8 2055 1943 2056 2164 1940 1827 1941 2054
8 2059 1947 1849 1966 2167 2060 1965 2078
8 2059 1947 2060 2167 1945 1830 1946 2058
8 2077 1964 2061 2168 1965 1848 1948 2060
8 2070 1963 1847 1959 2170 2062 1949 2063
8 2065 1959 1843 1952 2171 2063 1950 2064
8 2173 2072 1958 2066 2065 1959 1843 1952
8 1953 1842 1958 2066 2067 1957 2071 2174
8 2068 1956 2069 2175 1967 1859 1973 2079
8 2067 1957 2069 2175 1955 1841 1956 2068
8 1845 1957 2069 1960 1961 2071 2176 2073
8 2069 1960 2073 2176 1973 1862 1975 2083
8 2070 1963 2075 2177 1959 1847 1962 2072
8 1846 1958 2071 1961 1962 2072 2178 2074
8 2077 1964 1861 1971 2182 2076 1974 2082
8 2081 1971 2077 2183 1969 1857 1965 2078
8 2079 1973 2083 2184 1968 1860 1972 2080
8 2081 1971 1858 1970 2185 2082 1972 2080
8 2083 1975 2084 2186 1972 1863 1974 2082
8 2086 1976 1882 1987 2189 2085 1993 2095
8 2090 1987 2086 2190 1981 1875 1977 2087
8 2191 2094 1986 2088 2103 1998 1888 1997
8 2088 1986 2094 2191 1980 1877 1989 2089
8 1991 2091 2192 2097 1880 1982 2089 1989
8 2093 1988 2095 2193 1984 1876 1987 2090
8 1879 1983 2092 1990 1991 2091 2194 2098
8 1985 1878 1990 2092 2093 1988 2096 2195
8 2097 1996 1886 1989 2196 2099 1992 2094
8 2196 2099 1992 2094 2104 1999 1889 1998
8 1994 2096 1988 1883 2100 2197 2095 1993
8 2096 1994 1884 1990 2198 2101 1995 2098
8 1995 2098 2199 2102 1885 1991 2097 1996
8 2203 2104 1998 2103 2106 2001 1891 2000
8 2107 2002 2105 2204 2001 1892 1999 2104
8 2109 2004 2107 2206 2003 1894 2001 2106
8 2110 2005 2108 2207 2004 1895 2002 2107
8 2112 2007 2110 2209 2006 1897 2004 2109
8 2113 2008 2111 2210 2007 1898 2005 2110
8 2120 2011 2113 2212 2014 1901 2007 2112
8 2117 2009 2114 2213 2011 1899 2008 2113
8 2219 2116 2009 2117 2119 2010 1899 2011
8 2222 2118 2010 2119 2122 2012 1900 2013
8 2223 2119 2011 2120 2123 2013 1901 2014
8 2016 1902 2015 2125 2122 2012 2121 2225
8 2126 2016 2122 2226 2017 1903 2013 2123
8 2019 1905 2018 2128 2125 2015 2124 2228
8 2020 1906 2019 2129 2126 2016 2125 2229
8 2022 1908 2021 2131 2128 2018 2127 2231
8 2023 1909 2022 2132 2129 2019 2128 2232
8 2025 1911 2024 2134 2131 2021 2130 2234
8 2026 1912 2025 2135 2132 2022 2131 2235
8 1914 2028 2134 2024 2027 2136 2236 2133
8 2029 1915 2028 2137 2135 2025 2134 2237
8 2030 1918 2031 2138 2137 2028 2136 2238
8 2157 2050 2139 2240 2054 1941 2033 2140
8 2052 1940 2054 2161 2144 2035 2140 2242
8 2140 2033 2141 2243 2035 1923 2034 2143
8 2143 2034 2142 2246 2037 1924 2036 2146
8 2144 2035 2143 2247 2051 1939 2037 2147
8 2146 2036 2145 2249 2039 1925 2038 2149
8 2147 2037 2146 2250 2040 1926 2039 2150
8 2149 2038 2148 2251 2042 1927 2041 2151
8 2150 2039 2149 2252 2043 1928 2042 2152
8 2152 2042 2151 2253 2045 1931 2044 2153
8 2255 2154 2047 2155 2189 2085 1976 2086
8 2170 2062 1949 2063 2255 2154 2047 2155
8 2256 2155 2048 2156 2190 2086 1977 2087
8 2171 2063 1950 2064 2256 2155 2048 2156
8 2258 2159 2050 2157 2164 2056 1941 2054
8 2160 2053 1946 2058 2262 2163 2060 2167
8 2162 2055 1940 2052 2262 2163 2053 2160
8 2162 2055 2164 2263 2052 1940 2054 2161
8 2163 2057 1948 2060 2264 2165 2061 2168
8 2055 1943 2057 2163 2164 2056 2165 2264
8 2182 2076 2166 2268 2077 1964 2061 2168
8 2183 2077 2168 2269 2078 1965 2060 2167
8 2070 1963 2062 2170 2177 2075 2169 2271
8 2172 2070 1959 2065 2272 2170 2063 2171
8 2172 2070 2177 2273 2065 1959 2072 2173
8 2066 1958 2072 2173 2174 2071 2178 2274
8 2067 1957 2071 2174 2175 2069 2176 2275
8 2175 2069 2176 2275 2079 1973 2083 2184
8 2071 1961 2074 2178 2176 2073 2179 2276
8 2176 2073 2179 2276 2083 1975 2084 2186
8 2072 1962 2075 2177 2178 2074 2180 2277
8 2182 2076 1974 2082 2280 2181 2084 2186
8 2183 2077 1971 2081 2281 2182 2082 2185
8 2184 2083 2186 2282 2080 1972 2082 2185
8 2189 2085 1993 2095 2285 2188 2100 2197
8 2190 2086 1987 2090 2286 2189 2095 2193
8 2192 2097 1989 2089 2287 2196 2094 2191
8 2287 2196 2094 2191 2203 2104 1998 2103
8 2194 2098 1991 2091 2288 2199 2097 2192
8 2195 2096 2197 2289 2093 1988 2095 2193
8 2096 2195 2290 2198 1990 2092 2194 2098
8 2097 1996 2099 2196 2199 2102 2200 2291
8 2196 2099 1999 2104 2291 2200 2105 2204
8 2100 2197 2292 2201 1994 2096 2198 2101
8 1995 2098 2198 2101 2102 2199 2293 2202
8 2206 2107 2204 2296 2106 2001 2104 2203
8 2207 2108 2205 2297 2107 2002 2105 2204
8 2209 2110 2207 2299 2109 2004 2107 2206
8 2210 2111 2208 2300 2110 2005 2108 2207
8 2212 2113 2210 2302 2112 2007 2110 2209
8 2213 2114 2211 2303 2113 2008 2111 2210
8 2220 2117 2213 2305 2120 2011 2113 2212
8 2216 2115 2214 2306 2117 2009 2114 2213
8 2216 2115 2009 2117 2311 2217 2116 2219
8 2219 2116 2010 2119 2314 2218 2118 2222
8 2315 2219 2117 2220 2223 2119 2011 2120
8 2122 2012 2121 2225 2222 2118 2221 2317
8 2318 2222 2119 2223 2226 2122 2013 2123
8 2125 2015 2124 2228 2225 2121 2224 2320
8 2126 2016 2125 2229 2226 2122 2225 2321
8 2128 2018 2127 2231 2228 2124 2227 2323
8 2129 2019 2128 2232 2229 2125 2228 2324
8 2131 2021 2130 2234 2231 2127 2230 2326
8 2132 2022 2131 2235 2232 2128 2231 2327
8 2134 2024 2133 2236 2234 2130 2233 2328
8 2135 2025 2134 2237 2235 2131 2234 2329
8 2137 2028 2136 2238 2237 2134 2236 2330
8 2157 2050 2158 2259 2240 2139 2239 2332
8 2257 2157 2240 2334 2161 2054 2140 2242
8 2240 2139 2241 2335 2140 2033 2141 2243
8 2242 2140 2243 2337 2144 2035 2143 2247
8 2243 2141 2244 2338 2143 2034 2142 2246
8 2246 2142 2245 2341 2146 2036 2145 2249
8 2247 2143 2246 2342 2147 2037 2146 2250
8 2249 2145 2248 2343 2149 2038 2148 2251
8 2250 2146 2249 2344 2150 2039 2149 2252
8 2252 2149 2251 2345 2152 2042 2151 2253
8 2169 2271 2347 2254 2062 2170 2255 2154
8 2189 2085 2188 2285 2255 2154 2254 2347
8 2348 2255 2155 2256 2286 2189 2086 2190
8 2272 2170 2063 2171 2348 2255 2155 2256
8 2349 2258 2157 2257 2263 2164 2054 2161
8 2258 2159 2261 2351 2157 2050 2158 2259
8 2258 2159 2056 2164 2351 2261 2165 2264
8 2262 2163 2060 2167 2355 2264 2168 2269
8 2162 2055 2163 2262 2263 2164 2264 2355
8 2357 2266 2165 2264 2268 2166 2061 2168
8 2268 2166 2076 2182 2361 2267 2181 2280
8 2281 2182 2268 2362 2183 2077 2168 2269
8 2271 2169 2270 2364 2177 2075 2180 2277
8 2172 2070 2170 2272 2273 2177 2271 2365
8 2072 2173 2274 2178 2177 2273 2366 2277
8 2071 2174 2275 2176 2178 2274 2367 2276
8 2275 2176 2276 2367 2184 2083 2186 2282
8 2283 2187 2084 2186 2368 2278 2179 2276
8 2178 2074 2180 2277 2276 2179 2278 2368
8 2283 2187 2279 2370 2186 2084 2181 2280
8 2281 2182 2082 2185 2371 2280 2186 2282
8 2188 2285 2374 2284 2100 2197 2292 2201
8 2286 2189 2095 2193 2375 2285 2197 2289
8 2192 2097 2196 2287 2288 2199 2291 2376
8 2287 2196 2104 2203 2376 2291 2204 2296
8 2194 2098 2199 2288 2290 2198 2293 2377
8 2289 2197 2096 2195 2378 2292 2198 2290
8 2291 2200 2105 2204 2379 2294 2205 2297
8 2199 2102 2200 2291 2293 2202 2294 2379
8 2198 2101 2202 2293 2292 2201 2295 2380
8 2299 2207 2297 2383 2206 2107 2204 2296
8 2300 2208 2298 2384 2207 2108 2205 2297
8 2302 2210 2300 2386 2209 2110 2207 2299
8 2303 2211 2301 2387 2210 2111 2208 2300
8 2305 2213 2303 2389 2212 2113 2210 2302
8 2306 2214 2304 2390 2213 2114 2211 2303
8 2310 2216 2306 2392 2220 2117 2213 2305
8 2308 2215 2307 2393 2216 2115 2214 2306
8 2308 2215 2115 2216 2396 2309 2217 2311
8 2310 2216 2117 2220 2398 2311 2219 2315
8 2311 2217 2116 2219 2399 2312 2218 2314
8 2314 2218 2118 2222 2402 2313 2221 2317
8 2315 2219 2119 2223 2403 2314 2222 2318
8 2225 2121 2224 2320 2317 2221 2316 2405
8 2226 2122 2225 2321 2318 2222 2317 2406
8 2228 2124 2227 2323 2320 2224 2319 2408
8 2229 2125 2228 2324 2321 2225 2320 2409
8 2231 2127 2230 2326 2323 2227 2322 2411
8 2232 2128 2231 2327 2324 2228 2323 2412
8 2234 2130 2233 2328 2326 2230 2325 2413
8 2235 2131 2234 2329 2327 2231 2326 2414
8 2237 2134 2236 2330 2329 2234 2328 2415
8 2259 2158 2260 2352 2332 2239 2331 2417
8 2257 2157 2259 2350 2334 2240 2332 2419
8 2240 2139 2239 2332 2335 2241 2333 2420
8 2334 2240 2335 2422 2242 2140 2243 2337
8 2335 2241 2336 2423 2243 2141 2244 2338
8 2337 2243 2338 2425 2247 2143 2246 2342
8 2338 2244 2339 2426 2246 2142 2245 2341
8 2341 2245 2340 2428 2249 2145 2248 2343
8 2342 2246 2341 2429 2250 2146 2249 2344
8 2344 2249 2343 2430 2252 2149 2251 2345
8 2188 2285 2347 2254 2284 2374 2432 2346
8 2347 2254 2346 2432 2271 2169 2270 2364
8 2365 2271 2170 2272 2433 2347 2255 2348
8 2286 2189 2285 2375 2348 2255 2347 2433
8 2349 2258 2351 2435 2257 2157 2259 2350
8 2349 2258 2164 2263 2435 2351 2264 2355
8 2259 2158 2261 2351 2352 2260 2354 2437
8 2356 2265 2354 2437 2264 2165 2261 2351
8 2441 2357 2264 2355 2362 2268 2168 2269
8 2356 2265 2165 2264 2442 2358 2266 2357
8 2443 2359 2266 2357 2361 2267 2166 2268
8 2370 2279 2360 2446 2280 2181 2267 2361
8 2362 2268 2182 2281 2447 2361 2280 2371
8 2180 2277 2368 2278 2270 2364 2449 2363
8 2271 2365 2273 2177 2364 2450 2366 2277
8 2372 2283 2186 2282 2451 2368 2276 2367
8 2178 2274 2367 2276 2277 2366 2451 2368
8 2283 2187 2278 2368 2370 2279 2369 2452
8 2372 2283 2370 2453 2282 2186 2280 2371
8 2284 2374 2455 2373 2201 2292 2380 2295
8 2375 2285 2197 2289 2456 2374 2292 2378
8 2376 2291 2204 2296 2457 2379 2297 2383
8 2288 2199 2291 2376 2377 2293 2379 2457
8 2198 2290 2378 2292 2293 2377 2458 2380
8 2293 2202 2294 2379 2380 2295 2381 2459
8 2384 2298 2381 2459 2297 2205 2294 2379
8 2386 2300 2384 2463 2299 2207 2297 2383
8 2387 2301 2385 2464 2300 2208 2298 2384
8 2389 2303 2387 2466 2302 2210 2300 2386
8 2390 2304 2388 2467 2303 2211 2301 2387
8 2392 2306 2390 2469 2305 2213 2303 2389
8 2393 2307 2391 2470 2306 2214 2304 2390
8 2395 2308 2393 2472 2310 2216 2306 2392
8 2308 2215 2309 2396 2393 2307 2394 2473
8 2395 2308 2216 2310 2475 2396 2311 2398
8 2396 2309 2217 2311 2476 2397 2312 2399
8 2398 2311 2219 2315 2478 2399 2314 2403
8 2399 2312 2218 2314 2479 2400 2313 2402
8 2317 2221 2316 2405 2402 2313 2401 2482
8 2403 2314 2222 2318 2483 2402 2317 2406
8 2320 2224 2319 2408 2405 2316 2404 2485
8 2321 2225 2320 2409 2406 2317 2405 2486
8 2323 2227 2322 2411 2408 2319 2407 2488
8 2324 2228 2323 2412 2409 2320 2408 2489
8 2326 2230 2325 2413 2411 2322 2410 2490
8 2327 2231 2326 2414 2412 2323 2411 2491
8 2329 2234 2328 2415 2414 2326 2413 2492
8 2417 2331 2260 2352 2494 2416 2353 2438
8 2350 2259 2352 2436 2419 2332 2417 2496
8 2332 2239 2331 2417 2420 2333 2418 2497
8 2334 2240 2332 2419 2422 2335 2420 2499
8 2420 2333 2421 2500 2335 2241 2336 2423
8 2422 2335 2423 2502 2337 2243 2338 2425
8 2423 2336 2424 2503 2338 2244 2339 2426
8 2425 2338 2426 2505 2342 2246 2341 2429
8 2426 2339 2427 2506 2341 2245 2340 2428
8 2429 2341 2428 2507 2344 2249 2343 2430
8 2432 2346 2284 2374 2509 2431 2373 2455
8 2432 2346 2431 2509 2364 2270 2363 2449
8 2375 2285 2374 2456 2433 2347 2432 2510
8 2347 2433 2365 2271 2432 2510 2450 2364
8 2350 2259 2351 2435 2436 2352 2437 2514
8 2440 2356 2437 2514 2355 2264 2351 2435
8 2352 2260 2354 2437 2438 2353 2439 2516
8 2356 2265 2358 2442 2437 2354 2439 2516
8 2440 2356 2264 2355 2518 2442 2357 2441
8 2519 2443 2357 2441 2447 2361 2268 2362
8 2443 2359 2444 2520 2357 2266 2358 2442
8 2443 2359 2267 2361 2520 2444 2360 2446
8 2446 2360 2279 2370 2523 2445 2369 2452
8 2453 2370 2446 2524 2371 2280 2361 2447
8 2449 2363 2448 2525 2368 2278 2369 2452
8 2366 2277 2364 2450 2451 2368 2449 2526
8 2372 2283 2368 2451 2453 2370 2452 2527
8 2455 2373 2295 2380 2529 2454 2382 2460
8 2456 2374 2292 2378 2530 2455 2380 2458
8 2377 2293 2379 2457 2458 2380 2459 2531
8 2463 2384 2459 2531 2383 2297 2379 2457
8 2533 2461 2382 2460 2459 2381 2295 2380
8 2464 2385 2461 2533 2384 2298 2381 2459
8 2466 2387 2464 2537 2386 2300 2384 2463
8 2467 2388 2465 2538 2387 2301 2385 2464
8 2469 2390 2467 2540 2389 2303 2387 2466
8 2470 2391 2468 2541 2390 2304 2388 2467
8 2472 2393 2470 2543 2392 2306 2390 2469
8 2393 2307 2394 2473 2470 2391 2471 2544
8 2395 2308 2396 2475 2472 2393 2473 2546
8 2396 2309 2397 2476 2473 2394 2474 2547
8 2475 2396 2311 2398 2549 2476 2399 2478
8 2476 2397 2312 2399 2550 2477 2400 2479
8 2478 2399 2314 2403 2552 2479 2402 2483
8 2479 2400 2313 2402 2553 2480 2401 2482
8 2405 2316 2404 2485 2482 2401 2481 2556
8 2406 2317 2405 2486 2483 2402 2482 2557
8 2408 2319 2407 2488 2485 2404 2484 2559
8 2409 2320 2408 2489 2486 2405 2485 2560
8 2411 2322 2410 2490 2488 2407 2487 2561
8 2412 2323 2411 2491 2489 2408 2488 2562
8 2414 2326 2413 2492 2491 2411 2490 2563
8 2513 2434 2493 2565 2438 2353 2416 2494
8 2496 2417 2352 2436 2567 2494 2438 2515
8 2494 2416 2495 2568 2417 2331 2418 2497
8 2419 2332 2417 2496 2499 2420 2497 2570
8 2497 2418 2498 2571 2420 2333 2421 2500
8 2499 2420 2500 2573 2422 2335 2423 2502
8 2500 2421 2501 2574 2423 2336 2424 2503
8 2502 2423 2503 2576 2425 2338 2426 2505
8 2503 2424 2504 2577 2426 2339 2427 2506
8 2505 2426 2506 2578 2429 2341 2428 2507
8 2509 2431 2373 2455 2580 2508 2454 2529
8 2509 2431 2508 2580 2449 2363 2448 2525
8 2432 2510 2581 2509 2374 2456 2530 2455
8 2432 2510 2450 2364 2509 2581 2526 2449
8 2583 2511 2434 2513 2516 2439 2353 2438
8 2436 2352 2437 2514 2515 2438 2516 2588
8 2440 2356 2442 2518 2514 2437 2516 2588
8 2442 2358 2444 2520 2516 2439 2517 2589
8 2519 2443 2520 2591 2441 2357 2442 2518
8 2519 2443 2361 2447 2591 2520 2446 2524
8 2446 2360 2445 2523 2520 2444 2521 2592
8 2525 2448 2522 2593 2452 2369 2445 2523
8 2524 2446 2370 2453 2594 2523 2452 2527
8 2526 2449 2525 2595 2451 2368 2452 2527
8 2534 2462 2528 2597 2460 2382 2454 2529
8 2530 2455 2380 2458 2598 2529 2460 2532
8 2599 2533 2460 2532 2531 2459 2380 2458
8 2537 2464 2533 2599 2463 2384 2459 2531
8 2534 2462 2382 2460 2601 2535 2461 2533
8 2538 2465 2535 2601 2464 2385 2461 2533
8 2540 2467 2538 2604 2466 2387 2464 2537
8 2541 2468 2539 2605 2467 2388 2465 2538
8 2543 2470 2541 2607 2469 2390 2467 2540
8 2470 2391 2471 2544 2541 2468 2542 2608
8 2472 2393 2473 2546 2543 2470 2544 2610
8 2473 2394 2474 2547 2544 2471 2545 2611
8 2475 2396 2476 2549 2546 2473 2547 2613
8 2476 2397 2477 2550 2547 2474 2548 2614
8 2549 2476 2399 2478 2616 2550 2479 2552
8 2479 2400 2480 2553 2550 2477 2551 2617
8 2552 2479 2402 2483 2619 2553 2482 2557
8 2482 2401 2481 2556 2553 2480 2554 2620
8 2485 2404 2484 2559 2556 2481 2555 2623
8 2486 2405 2485 2560 2557 2482 2556 2624
8 2488 2407 2487 2561 2559 2484 2558 2625
8 2489 2408 2488 2562 2560 2485 2559 2626
8 2491 2411 2490 2563 2562 2488 2561 2627
8 2513 2434 2512 2585 2565 2493 2564 2630
8 2586 2513 2565 2632 2515 2438 2494 2567
8 2565 2493 2566 2633 2494 2416 2495 2568
8 2567 2494 2568 2635 2496 2417 2497 2570
8 2568 2495 2569 2636 2497 2418 2498 2571
8 2570 2497 2571 2638 2499 2420 2500 2573
8 2571 2498 2572 2639 2500 2421 2501 2574
8 2573 2500 2574 2641 2502 2423 2503 2576
8 2574 2501 2575 2642 2503 2424 2504 2577
8 2576 2503 2577 2643 2505 2426 2506 2578
8 2597 2528 2579 2645 2529 2454 2508 2580
8 2580 2508 2579 2645 2525 2448 2522 2593
8 2581 2509 2455 2530 2646 2580 2529 2598
8 2581 2509 2580 2646 2526 2449 2525 2595
8 2583 2511 2582 2648 2513 2434 2512 2585
8 2583 2511 2439 2516 2648 2582 2517 2589
8 2649 2583 2513 2586 2588 2516 2438 2515
8 2589 2517 2444 2520 2653 2587 2521 2592
8 2518 2442 2520 2591 2588 2516 2589 2654
8 2593 2522 2590 2655 2523 2445 2521 2592
8 2524 2446 2523 2594 2591 2520 2592 2656
8 2595 2525 2593 2657 2527 2452 2523 2594
8 2602 2536 2596 2659 2534 2462 2528 2597
8 2600 2534 2597 2660 2532 2460 2529 2598
8 2600 2534 2460 2532 2661 2601 2533 2599
8 2604 2538 2601 2661 2537 2464 2533 2599
8 2602 2536 2462 2534 2663 2603 2535 2601
8 2601 2535 2465 2538 2663 2603 2539 2605
8 2607 2541 2605 2665 2540 2467 2538 2604
8 2608 2542 2606 2666 2541 2468 2539 2605
8 2543 2470 2544 2610 2607 2541 2608 2668
8 2544 2471 2545 2611 2608 2542 2609 2669
8 2546 2473 2547 2613 2610 2544 2611 2671
8 2547 2474 2548 2614 2611 2545 2612 2672
8 2549 2476 2550 2616 2613 2547 2614 2674
8 2550 2477 2551 2617 2614 2548 2615 2675
8 2552 2479 2553 2619 2616 2550 2617 2677
8 2553 2480 2554 2620 2617 2551 2618 2678
8 2557 2482 2556 2624 2619 2553 2620 2680
8 2556 2481 2555 2623 2620 2554 2621 2681
8 2559 2484 2558 2625 2623 2555 2622 2683
8 2560 2485 2559 2626 2624 2556 2623 2684
8 2562 2488 2561 2627 2626 2559 2625 2685
8 2690 2629 2564 2630 2650 2584 2512 2585
8 2586 2513 2585 2651 2632 2565 2630 2691
8 2630 2564 2631 2692 2565 2493 2566 2633
8 2632 2565 2633 2694 2567 2494 2568 2635
8 2633 2566 2634 2695 2568 2495 2569 2636
8 2635 2568 2636 2697 2570 2497 2571 2638
8 2636 2569 2637 2698 2571 2498 2572 2639
8 2638 2571 2639 2700 2573 2500 2574 2641
8 2639 2572 2640 2701 2574 2501 2575 2642
8 2641 2574 2642 2702 2576 2503 2577 2643
8 2597 2528 2596 2659 2645 2579 2644 2704
8 2645 2579 2644 2704 2593 2522 2590 2655
8 2660 2597 2645 2705 2598 2529 2580 2646
8 2646 2580 2645 2705 2595 2525 2593 2657
8 2650 2584 2512 2585 2707 2647 2582 2648
8 2648 2582 2517 2589 2707 2647 2587 2653
8 2649 2583 2648 2708 2586 2513 2585 2651
8 2649 2583 2516 2588 2708 2648 2589 2654
8 2655 2590 2652 2710 2592 2521 2587 2653
8 2654 2589 2520 2591 2711 2653 2592 2656
8 2657 2593 2655 2712 2594 2523 2592 2656
8 2602 2536 2603 2663 2659 2596 2658 2714
8 2662 2602 2659 2715 2600 2534 2597 2660
8 2662 2602 2534 2600 2717 2663 2601 2661
8 2661 2601 2538 2604 2717 2663 2605 2665
8 2666 2606 2664 2718 2605 2539 2603 2663
8 2668 2608 2666 2720 2607 2541 2605 2665
8 2608 2542 2609 2669 2666 2606 2667 2721
8 2610 2544 2611 2671 2668 2608 2669 2723
8 2611 2545 2612 2672 2669 2609 2670 2724
8 2613 2547 2614 2674 2671 2611 2672 2726
8 2614 2548 2615 2675 2672 2612 2673 2727
8 2616 2550 2617 2677 2674 2614 2675 2729
8 2617 2551 2618 2678 2675 2615 2676 2730
8 2619 2553 2620 2680 2677 2617 2678 2732
8 2620 2554 2621 2681 2678 2618 2679 2733
8 2624 2556 2623 2684 2680 2620 2681 2735
8 2681 2621 2555 2623 2736 2682 2622 2683
8 2626 2559 2625 2685 2684 2623 2683 2737
8 2688 2628 2584 2650 2740 2686 2647 2707
8 2688 2628 2687 2742 2650 2584 2629 2690
8 2690 2629 2689 2745 2630 2564 2631 2692
8 2746 2690 2630 2691 2709 2650 2585 2651
8 2691 2630 2692 2747 2632 2565 2633 2694
8 2692 2631 2693 2748 2633 2566 2634 2695
8 2694 2633 2695 2750 2635 2568 2636 2697
8 2695 2634 2696 2751 2636 2569 2637 2698
8 2697 2636 2698 2753 2638 2571 2639 2700
8 2698 2637 2699 2754 2639 2572 2640 2701
8 2700 2639 2701 2755 2641 2574 2642 2702
8 2659 2596 2658 2714 2704 2644 2703 2757
8 2704 2644 2703 2757 2655 2590 2652 2710
8 2660 2597 2659 2715 2705 2645 2704 2758
8 2705 2645 2704 2758 2657 2593 2655 2712
8 2759 2706 2647 2707 2710 2652 2587 2653
8 2709 2650 2585 2651 2760 2707 2648 2708
8 2708 2648 2589 2654 2760 2707 2653 2711
8 2712 2655 2710 2761 2656 2592 2653 2711
8 2763 2713 2658 2714 2718 2664 2603 2663
8 2662 2602 2663 2717 2715 2659 2714 2764
8 2720 2666 2718 2767 2665 2605 2663 2717
8 2768 2719 2664 2718 2721 2667 2606 2666
8 2668 2608 2669 2723 2720 2666 2721 2770
8 2669 2609 2670 2724 2721 2667 2722 2771
8 2671 2611 2672 2726 2723 2669 2724 2773
8 2672 2612 2673 2727 2724 2670 2725 2774
8 2674 2614 2675 2729 2726 2672 2727 2776
8 2675 2615 2676 2730 2727 2673 2728 2777
8 2677 2617 2678 2732 2729 2675 2730 2779
8 2678 2618 2679 2733 2730 2676 2731 2780
8 2680 2620 2681 2735 2732 2678 2733 2782
8 2733 2679 2621 2681 2783 2734 2682 2736
8 2735 2681 2623 2684 2784 2736 2683 2737
8 2740 2686 2647 2707 2787 2738 2706 2759
8 2688 2628 2686 2740 2742 2687 2739 2789
8 2743 2688 2650 2709 2790 2740 2707 2760
8 2742 2687 2741 2792 2690 2629 2689 2745
8 2743 2688 2742 2793 2709 2650 2690 2746
8 2745 2689 2744 2795 2692 2631 2693 2748
8 2746 2690 2745 2796 2691 2630 2692 2747
8 2747 2692 2748 2797 2694 2633 2695 2750
8 2748 2693 2749 2798 2695 2634 2696 2751
8 2750 2695 2751 2800 2697 2636 2698 2753
8 2751 2696 2752 2801 2698 2637 2699 2754
8 2753 2698 2754 2802 2700 2639 2701 2755
8 2763 2713 2756 2804 2714 2658 2703 2757
8 2759 2706 2652 2710 2804 2756 2703 2757
8 2715 2659 2714 2764 2758 2704 2757 2805
8 2758 2704 2757 2805 2712 2655 2710 2761
8 2806 2759 2707 2760 2761 2710 2653 2711
8 2765 2716 2762 2808 2718 2664 2713 2763
8 2809 2763 2714 2764 2767 2718 2663 2717
8 2765 2716 2664 2718 2811 2766 2719 2768
8 2813 2768 2718 2767 2770 2721 2666 2720
8 2814 2769 2719 2768 2771 2722 2667 2721
8 2723 2669 2724 2773 2770 2721 2771 2816
8 2724 2670 2725 2774 2771 2722 2772 2817
8 2726 2672 2727 2776 2773 2724 2774 2819
8 2727 2673 2728 2777 2774 2725 2775 2820
8 2729 2675 2730 2779 2776 2727 2777 2822
8 2730 2676 2731 2780 2777 2728 2778 2823
8 2732 2678 2733 2782 2779 2730 2780 2825
8 2780 2731 2679 2733 2826 2781 2734 2783
8 2782 2733 2681 2735 2827 2783 2736 2784
8 2830 2785 2738 2787 2804 2756 2706 2759
8 2789 2739 2686 2740 2832 2786 2738 2787
8 2790 2740 2707 2760 2833 2787 2759 2806
8 2742 2687 2739 2789 2792 2741 2788 2835
8 2743 2688 2740 2790 2793 2742 2789 2836
8 2792 2741 2791 2838 2745 2689 2744 2795
8 2793 2742 2792 2839 2746 2690 2745 2796
8 2795 2744 2794 2841 2748 2693 2749 2798
8 2796 2745 2795 2842 2747 2692 2748 2797
8 2797 2748 2798 2843 2750 2695 2751 2800
8 2798 2749 2799 2844 2751 2696 2752 2801
8 2800 2751 2801 2845 2753 2698 2754 2802
8 2808 2762 2803 2847 2763 2713 2756 2804
8 2809 2763 2804 2848 2764 2714 2757 2805
8 2806 2759 2710 2761 2848 2804 2757 2805
8 2765 2716 2766 2811 2808 2762 2807 2850
8 2810 2765 2808 2851 2767 2718 2763 2809
8 2810 2765 2718 2767 2852 2811 2768 2813
8 2811 2766 2719 2768 2853 2812 2769 2814
8 2855 2814 2768 2813 2816 2771 2721 2770
8 2856 2815 2769 2814 2817 2772 2722 2771
8 2773 2724 2774 2819 2816 2771 2817 2858
8 2774 2725 2775 2820 2817 2772 2818 2859
8 2776 2727 2777 2822 2819 2774 2820 2861
8 2777 2728 2778 2823 2820 2775 2821 2862
8 2779 2730 2780 2825 2822 2777 2823 2864
8 2823 2778 2731 2780 2865 2824 2781 2826
8 2825 2780 2733 2782 2866 2826 2783 2827
8 2869 2828 2785 2830 2847 2803 2756 2804
8 2871 2829 2786 2832 2830 2785 2738 2787
8 2872 2830 2787 2833 2848 2804 2759 2806
8 2789 2739 2786 2832 2835 2788 2831 2874
8 2836 2789 2740 2790 2875 2832 2787 2833
8 2792 2741 2788 2835 2838 2791 2834 2877
8 2793 2742 2789 2836 2839 2792 2835 2878
8 2838 2791 2837 2880 2795 2744 2794 2841
8 2839 2792 2838 2881 2796 2745 2795 2842
8 2841 2794 2840 2882 2798 2749 2799 2844
8 2842 2795 2841 2883 2797 2748 2798 2843
8 2843 2798 2844 2884 2800 2751 2801 2845
8 2886 2846 2803 2847 2850 2807 2762 2808
8 2851 2808 2847 2887 2809 2763 2804 2848
8 2850 2807 2766 2811 2889 2849 2812 2853
8 2810 2765 2811 2852 2851 2808 2850 2890
8 2852 2811 2768 2813 2891 2853 2814 2855
8 2853 2812 2769 2814 2892 2854 2815 2856
8 2894 2856 2814 2855 2858 2817 2771 2816
8 2817 2772 2818 2859 2856 2815 2857 2895
8 2819 2774 2820 2861 2858 2817 2859 2897
8 2820 2775 2821 2862 2859 2818 2860 2898
8 2822 2777 2823 2864 2861 2820 2862 2900
8 2823 2778 2824 2865 2862 2821 2863 2901
8 2864 2823 2780 2825 2902 2865 2826 2866
8 2904 2867 2828 2869 2886 2846 2803 2847
8 2869 2828 2868 2906 2830 2785 2829 2871
8 2907 2869 2830 2872 2887 2847 2804 2848
8 2871 2829 2870 2909 2832 2786 2831 2874
8 2910 2871 2832 2875 2872 2830 2787 2833
8 2835 2788 2831 2874 2877 2834 2873 2912
8 2836 2789 2832 2875 2878 2835 2874 2913
8 2877 2834 2876 2915 2838 2791 2837 2880
8 2839 2792 2835 2878 2881 2838 2877 2916
8 2880 2837 2879 2917 2841 2794 2840 2882
8 2881 2838 2880 2918 2842 2795 2841 2883
8 2883 2841 2882 2919 2843 2798 2844 2884
8 2921 2885 2846 2886 2889 2849 2807 2850
8 2922 2886 2847 2887 2890 2850 2808 2851
8 2889 2849 2812 2853 2924 2888 2854 2892
8 2890 2850 2811 2852 2925 2889 2853 2891
8 2891 2853 2814 2855 2926 2892 2856 2894
8 2892 2854 2815 2856 2927 2893 2857 2895
8 2858 2817 2859 2897 2894 2856 2895 2929
8 2859 2818 2860 2898 2895 2857 2896 2930
8 2861 2820 2862 2900 2897 2859 2898 2932
8 2862 2821 2863 2901 2898 2860 2899 2933
8 2864 2823 2865 2902 2900 2862 2901 2934
8 2904 2867 2846 2886 2936 2903 2885 2921
8 2904 2867 2903 2936 2869 2828 2868 2906
8 2937 2904 2869 2907 2922 2886 2847 2887
8 2906 2868 2905 2939 2871 2829 2870 2909
8 2907 2869 2906 2940 2872 2830 2871 2910
8 2909 2870 2908 2942 2874 2831 2873 2912
8 2910 2871 2909 2943 2875 2832 2874 2913
8 2912 2873 2911 2945 2877 2834 2876 2915
8 2878 2835 2874 2913 2916 2877 2912 2946
8 2915 2876 2914 2947 2880 2837 2879 2917
8 2916 2877 2915 2948 2881 2838 2880 2918
8 2918 2880 2917 2949 2883 2841 2882 2919
8 2921 2885 2849 2889 2951 2920 2888 2924
8 2952 2921 2886 2922 2925 2889 2850 2890
8 2924 2888 2854 2892 2954 2923 2893 2927
8 2925 2889 2853 2891 2955 2924 2892 2926
8 2926 2892 2856 2894 2956 2927 2895 2929
8 2895 2857 2896 2930 2927 2893 2928 2957
8 2897 2859 2898 2932 2929 2895 2930 2959
8 2898 2860 2899 2933 2930 2896 2931 2960
8 2900 2862 2901 2934 2932 2898 2933 2961
8 2936 2903 2885 2921 2963 2935 2920 2951
8 2936 2903 2935 2963 2906 2868 2905 2939
8 2937 2904 2886 2922 2964 2936 2921 2952
8 2937 2904 2936 2964 2907 2869 2906 2940
8 2939 2905 2938 2966 2909 2870 2908 2942
8 2940 2906 2939 2967 2910 2871 2909 2943
8 2942 2908 2941 2969 2912 2873 2911 2945
8 2943 2909 2942 2970 2913 2874 2912 2946
8 2945 2911 2944 2971 2915 2876 2914 2947
8 2946 2912 2945 2972 2916 2877 2915 2948
8 2948 2915 2947 2973 2918 2880 2917 2949
8 2951 2920 2888 2924 2975 2950 2923 2954
8 2952 2921 2889 2925 2976 2951 2924 2955
8 2927 2893 2928 2957 2954 2923 2953 2978
8 2955 2924 2892 2926 2979 2954 2927 2956
8 2929 2895 2930 2959 2956 2927 2957 2980
8 2930 2896 2931 2960 2957 2928 2958 2981
8 2932 2898 2933 2961 2959 2930 2960 2982
8 2951 2920 2950 2975 2963 2935 2962 2984
8 2963 2935 2962 2984 2939 2905 2938 2966
8 2964 2936 2921 2952 2985 2963 2951 2976
8 2964 2936 2963 2985 2940 2906 2939 2967
8 2966 2938 2965 2987 2942 2908 2941 2969
8 2967 2939 2966 2988 2943 2909 2942 2970
8 2969 2941 2968 2989 2945 2911 2944 2971
8 2970 2942 2969 2990 2946 2912 2945 2972
8 2972 2945 2971 2991 2948 2915 2947 2973
8 2954 2923 2953 2978 2975 2950 2974 2993
8 2976 2951 2924 2955 2994 2975 2954 2979
8 2957 2928 2958 2981 2978 2953 2977 2995
8 2956 2927 2957 2980 2979 2954 2978 2996
8 2959 2930 2960 2982 2980 2957 2981 2997
8 2984 2962 2983 2999 2966 2938 2965 2987
8 2975 2950 2974 2993 2984 2962 2983 2999
8 2976 2951 2975 2994 2985 2963 2984 3000
8 2985 2963 2984 3000 2967 2939 2966 2988
8 2987 2965 2986 3001 2969 2941 2968 2989
8 2988 2966 2987 3002 2970 2942 2969 2990
8 2990 2969 2989 3003 2972 2945 2971 2991
8 2978 2953 2977 2995 2993 2974 2992 3004
8 2979 2954 2978 2996 2994 2975 2993 3005
8 2980 2957 2981 2997 2996 2978 2995 3006
8 2974 2993 2999 2983 2992 3004 3007 2998
8 2983 2999 2987 2965 2998 3007 3001 2986
8 3000 2984 2999 3008 2988 2966 2987 3002
8 2994 2975 2993 3005 3000 2984 2999 3008
8 3002 2987 3001 3009 2990 2969 2989 3003
8 2996 2978 2995 3006 3005 2993 3004 3010
8 3005 2993 3004 3010 3008 2999 3007 3011
8 3008 2999 3007 3011 3002 2987 3001 3009

CELL_TYPES 1910
12
12
12
12
12
12
12
12
12
12
12
12
12
12
12
12
12
12
12
12
12
12
12
12
12
12
12
12
12
12
12
12
12
12
12
12
12
12
12
12
12
12
12
12
12
12
12
12
12
12
12
12
12
12
12
12
12
12
12
12
12
12
12
12
12
12
12
12
12
12
12
12
12
12
12
12
12
12
12
12
12
12
12
12
12
12
12
12
12
12
12
12
12
12
12
12
12
12
12
12
12
12
12
12
12
12
12
12
12
12
12
12
12
12
12
12
12
12
12
12
12
12
12
12
12
12
12
12
12
12
12
12
12
12
12
12
12
12
12
12
12
12
12
12
12
12
12
12
12
12
12
12
12
12
12
12
12
12
12
12
12
12
12
12
12
12
12
12
12
12
12
12
12
12
12
12
12
12
12
12
12
12
12
12
12
12
12
12
12
12
12
12
12
12
12
12
12
12
12
12
12
12
12
12
12
12
12
12
12
12
12
12
12
12
12
12
12
12
12
12
12
12
12
12
12
12
12
12
12
12
12
12
12
12
12
12
12
12
12
12
12
12
12
12
12
12
12
12
12
12
12
12
12
12
12
12
12
12
12
12
12
12
12
12
12
12
12
12
12
12
12
12
12
12
12
12
12
12
12
12
12
12
12
12
12
12
12
12
12
12
12
12
12
12
12
12
12
12
12
12
12
12
12
12
12
12
12
12
12
12
12
12
12
12
12
12
12
12
12
12
12
12
12
12
12
12
12
12
12
12
12
12
12
12
12
12
12
12
12
12
12
12
12
12
12
12
12
12
12
12
12
12
12
12
12
12
12
12
12
12
12
12
12
12
12
12
12
12
12
12
12
12
12
12
12
12
12
12
12
12
12
12
12
12
12
12
12
12
12
12
12
12
12
12
12
12
12
12
12
12
12
12
12
12
12
12
12
12
12
12
12
12
12
12
12
12
12
12
12
12
12
12
12
12
12
12
12
12
12
12
12
12
12
12
12
12
12
12
12
12
12
12
12
12
12
12
12
12
12
12
12
12
12
12
12
12
12
12
12
12
12
12
12
12
12
12
12
12
12
12
12
12
12
12
12
12
12
12
12
12
12
12
12
12
12
12
12
12
12
12
12
12
12
12
12
12
12
12
12
12
12
12
12
12
12
12
12
12
12
12
12
12
12
12
12
12
12
12
12
12
12
12
12
12
12
12
12
12
12
12
12
12
12
12
12
12
12
12
12
12
12
12
12
12
12
12
12
12
12
12
12
12
12
12
12
12
12
12
12
12
12
12
12
12
12
12
12
12
12
12
12
12
12
12
12
12
12
12
12
12
12
12
12
12
12
12
12
12
12
12
12
12
12
12
12
12
12
12
12
12
12
12
12
12
12
12
12
12
12
12
12
12
12
12
12
12
12
12
12
12
12
12
12
12
12
12
12
12
12
12
12
12
12
12
12
12
12
12
12
12
12
12
12
12
12
12
12
12
12
12
12
12
12
12
12
12
12
12
12
12
12
12
12
12
12
12
12
12
12
12
12
12
12
12
12
12
12
12
12
12
12
12
12
12
12
12
12
12
12
12
12
12
12
12
12
12
12
12
12
12
12
12
12
12
12
12
12
12
12
12
12
12
12
12
12
12
12
12
12
12
12
12
12
12
12
12
12
12
12
12
12
12
12
12
12
12
12
12
12
12
12
12
12
12
12
12
12
12
12
12
12
12
12
12
12
12
12
12
12
12
12
12
12
12
12
12
12
12
12
12
12
12
12
12
12
12
12
12
12
12
12
12
12
12
12
12
12
12
12
12
12
12
12
12
12
12
12
12
12
12
12
12
12
12
12
12
12
12
12
12
12
12
12
12
12
12
12
12
12
12
12
12
12
12
12
12
12
12
12
12
12
12
12
12
12
12
12
12
12
12
12
12
12
12
12
12
12
12
12
12
12
12
12
12
12
12
12
12
12
12
12
12
12
12
12
12
12
12
12
12
12
12
12
12
12
12
12
12
12
12
12
12
12
12
12
12
12
12
12
12
12
12
12
12
12
12
12
12
12
12
12
12
12
12
12
12
12
12
12
12
12
12
12
12
12
12
12
12
12
12
12
12
12
12
12
12
12
12
12
12
12
12
12
12
12
12
12
12
12
12
12
12
12
12
12
12
12
12
12
12
12
12
12
12
12
12
12
12
12
12
12
12
12
12
12
12
12
12
12
12
12
12
12
12
12
12
12
12
12
12
12
12
12
12
12
12
12
12
12
12
12
12
12
12
12
12
12
12
12
12
12
12
12
12
12
12
12
12
12
12
12
12
12
12
12
12
12
12
12
12
12
12
12
12
12
12
12
12
12
12
12
12
12
12
12
12
12
12
12
12
12
12
12
12
12
12
12
12
12
12
12
12
12
12
12
12
12
12
12
12
12
12
12
12
12
12
12
12
12
12
12
12
12
12
12
12
12
12
12
12
12
12
12
12
12
12
12
12
12
12
12
12
12
12
12
12
12
12
12
12
12
12
12
12
12
12
12
12
12
12
12
12
12
12
12
12
12
12
12
12
12
12
12
12
12
12
12
12
12
12
12
12
12
12
12
12
12
12
12
12
12
12
12
12
12
12
12
12
12
12
12
12
12
12
12
12
12
12
12
12
12
12
12
12
12
12
12
12
12
12
12
12
12
12
12
12
12
12
12
12
12
12
12
12
12
12
12
12
12
12
12
12
12
12
12
12
12
12
12
12
12
12
12
12
12
12
12
12
12
12
12
12
12
12
12
12
12
12
12
12
12
12
12
12
12
12
12
12
12
12
12
12
12
12
12
12
12
12
12
12
12
12
12
12
12
12
12
12
12
12
12
12
12
12
12
12
12
12
12
12
12
12
12
12
12
12
12
12
12
12
12
12
12
12
12
12
12
12
12
12
12
12
12
12
12
12
12
12
12
12
12
12
12
12
12
12
12
12
12
12
12
12
12
12
12
12
12
12
12
12
12
12
12
12
12
12
12
12
12
12
12
12
12
12
12
12
12
12
12
12
12
12
12
12
12
12
12
12
12
12
12
12
12
12
12
12
12
12
12
12
12
12
12
12
12
12
12
12
12
12
12
12
12
12
12
12
12
12
12
12
12
12
12
12
12
12
12
12
12
12
12
12
12
12
12
12
12
12
12
12
12
12
12
12
12
12
12
12
12
12
12
12
12
12
12
12
12
12
12
12
12
12
12
12
12
12
12
12
12
12
12
12
12
12
12
12
12
12
12
12
12
12
12
12
12
12
12
12
12
12
12
12
12
12
12
12
12
12
12
12
12
12
12
12
12
12
12
12
12
12
12
12
12
12
12
12
12
12
12
12
12
12
12
12
12
12
12
12
12
12
12
12
12
12
12
12
12
12
12
12
12
12
12
12
12
12
12
12
12
12
12
12
12
12
12
12
12
12
12
12
12
12
12
12
12
12
12
12
12
12
12
12
12
12
12
12
12
12
12
12
12
12
12
12
12
12
12
12
12
12
12
12
12
12
12
12
12
12
12
12
12
12
12
12
12
12
12
12
12
12
12
12
12
12
12
12
12
12
12
12
12
12
12
12
12
12
12
12
12
12
12
12
12
12
12
12
12
12
12
12
12
12
12
12
12
12
12
12
12
12
12
12
12
12
12
12
12
12
12
12
12
12
12
12
12
12
12
12
12
12
12
12
12
12
12
12
12
12
12
12
12
12
12
12
12
12
12
12
12
12
12
12
12
12
12
12
12
12
12
12
12
12
12
12
12
12
12
12
12
12
12
12
12
12
12
12
12
12
12
12
12
12
12
12
12
12
12
12
12
12
12
12
12
12
12
12
12
12
12
12
12
12
12
12
12
12
12
12
12
12
12
12
12
12
12
12
12
12
12
12
12
12
12
12
12
12
12
12
12
12
12
12
12
12
12
12
12
12
12
12
12
12
12
12
12
12
12
12
12
12
12
12
12
12
12
12
12
12
12
12
12
12
12
12
12
12
12
12
12
12
12
12
12
12
12
12
12
12
12
12
12
12
12
12
12
12
12
12
12
12
12
12
12
12
12
12
12
12
12
12
12
12
12
12
12
12
12
12
12
12
12
12
12
12
12
12
12
12
12
12
12
12
12
12
12
12
12
12
12
12
12
12
12
12
12
12
12
12
12
12
12
12
12
12
12
12
12
12
12
12
12
12
12
12
12
12
12
12
12
12
12
12
12
12
12
12
12
12
12
12
12
12
12
12
12
12
12
12
12
12
12
12
12
12
12
12
12
12
12
12
12
12
12
12
12
12
12
12
12
12
12
12
12
12
12
12
12
12
12
12
12
12
12
12
12
12
12
12
12
12

POINT_DATA 3012
SCALARS Jp_lamdaP float 4
LOOKUP_TABLE default
1 1 1 1
1 1 1 1
1 1 1 1
1 1 1 1
1 1 1 1
1 1 1 1
0.999959 1 1 0.999959
1 1 1 1
1 1 1 1
1 1 1 1
1 1 1 1
0.999997 1 1 0.999997
0.999999 1 1 0.999999
1 1 1 1
1 1 1 1
1 1 1 1
1 1 1 1
1 1 1 1
0.999959 1 1 0.999959
1 1 1 1
1 1 1 1
1 1 1 1
0.999922 1 1 0.999922
0.999949 1 1 0.999949
1 1 1 1
0.99997 1 1 0.99997
0.999865 1 1 0.999865
1 1 1 1
1 1 1 1
1 1 1 1
1 1 1 1
0.999997 1 1 0.999997
1 1 1 1
1 1 1 1
0.999974 1 1 0.999974
1 1 1 1
0.999992 1 1 0.999992
0.999999 1 1 0.999999
0.999889 1 1 0.999889
1 1 1 1
1 1 1 1
1 1 1 1
1 1 1 1
1 1 1 1
0.999937 1 1 0.999937
1 1 1 1
0.999955 1 1 0.999955
1 1 1 1
1 1 1 1
1 1 1 1
0.99996 1 1 0.99996
1 1 1 1
1 1 1 1
1 1 1 1
1 1 1 1
0.999923 1 1 0.999923
0.999971 1 1 0.999971
0.999949 1 1 0.999949
0.999862 1 1 0.999862
1 1 1 1
1 1 1 1
0.999943 1 1 0.999943
0.999913 1 1 0.999913
0.999936 1 1 0.999936
0.999776 1 1 0.999776
0.999828 1 1 0.999828
1 1 1 1
0.99998 1 1 0.99998
0.99989 1 1 0.99989
0.999726 1 1 0.999726
1 1 1 1
1 1 1 1
1 1 1 1
0.999998 1 1 0.999998
1 1 1 1
1 1 1 1
0.999977 1 1 0.999977
1 1 1 1
0.999993 1 1 0.999993
1 1 1 1
0.999889 1 1 0.999889
1 1 1 1
1 1 1 1
0.999966 1 1 0.999966
0.999984 1 1 0.999984
0.999815 1 1 0.999815
1 1 1 1
0.999877 1 1 0.999877
0.999903 1 1 0.999903
0.999783 1 1 0.999783
1 1 1 1
1 1 1 1
1 1 1 1
1 1 1 1
1 1 1 1
1 1 1 1
0.99994 1 1 0.99994
1 1 1 1
0.999957 1 1 0.999957
1 1 1 1
0.999928 1 1 0.999928
0.999948 1 1 0.999948
0.9997 1 1 0.9997
0.99996 1 1 0.99996
0.999735 1 1 0.999735
1 1 1 1
1 1 1 1
1 1 1 1
1 1 1 1
0.999924 1 1 0.999924
0.99995 1 1 0.99995
0.999971 1 1 0.999971
0.999859 1 1 0.999859
1 1 1 1
1 1 1 1
0.999923 1 1 0.999923
0.999914 1 1 0.999914
1 1 1 1
0.999989 1 1 0.999989
0.999937 1 1 0.999937
0.999767 1 1 0.999767
0.999887 1 1 0.999887
0.999834 1 1 0.999834
0.999726 1 1 0.999726
0.999934 1 1 0.999934
0.999911 1 1 0.999911
0.999721 1 1 0.999721
0.999741 1 1 0.999741
0.999795 1 1 0.999795
0.999643 1 1 0.999643
1 1 1 1
0.999709 1 1 0.999709
1 1 1 1
0.999896 1 1 0.999896
0.999744 1 1 0.999744
0.999671 1 1 0.999671
1 1 1 1
0.999927 1 1 0.999927
1 1 1 1
1 1 1 1
0.99998 1 1 0.99998
1 1 1 1
1 1 1 1
0.999995 1 1 0.999995
0.999889 1 1 0.999889
1 1 1 1
1 1 1 1
0.999968 1 1 0.999968
0.999987 1 1 0.999987
0.999816 1 1 0.999816
1 1 1 1
0.999877 1 1 0.999877
0.999903 1 1 0.999903
0.99978 1 1 0.99978
1 1 1 1
1 1 1 1
0.999935 1 1 0.999935
0.999782 1 1 0.999782
0.999852 1 1 0.999852
0.999699 1 1 0.999699
0.999918 1 1 0.999918
0.999769 1 1 0.999769
0.99979 1 1 0.99979
0.999736 1 1 0.999736
1 1 1 1
1 1 1 1
1 1 1 1
1 1 1 1
1 1 1 1
1 1 1 1
1 1 1 1
0.999958 1 1 0.999958
0.999942 1 1 0.999942
1 1 1 1
1 1 1 1
0.999929 1 1 0.999929
0.99995 1 1 0.99995
0.9997 1 1 0.9997
0.999961 1 1 0.999961
0.999735 1 1 0.999735
0.999927 1 1 0.999927
0.999684 1 1 0.999684
0.999718 1 1 0.999718
0.999589 1 1 0.999589
0.999756 1 1 0.999756
0.999627 1 1 0.999627
1 1 1 1
1 1 1 1
0.999903 1 1 0.999903
0.999914 1 1 0.999914
1 1 1 1
0.999999 1 1 0.999999
0.999938 1 1 0.999938
0.999758 1 1 0.999758
0.99984 1 1 0.99984
0.999883 1 1 0.999883
0.999727 1 1 0.999727
0.999933 1 1 0.999933
0.999911 1 1 0.999911
0.999703 1 1 0.999703
0.999747 1 1 0.999747
1 1 1 1
1 1 1 1
0.999902 1 1 0.999902
0.999796 1 1 0.999796
0.999632 1 1 0.999632
0.999742 1 1 0.999742
0.999714 1 1 0.999714
0.999672 1 1 0.999672
1 1 1 1
0.999927 1 1 0.999927
0.999689 1 1 0.999689
0.999731 1 1 0.999731
0.9996 1 1 0.9996
0.999597 1 1 0.999597
0.999687 1 1 0.999687
0.999591 1 1 0.999591
1 1 1 1
0.999659 1 1 0.999659
0.999908 1 1 0.999908
0.999767 1 1 0.999767
0.999687 1 1 0.999687
0.999657 1 1 0.999657
0.999918 1 1 0.999918
0.999944 1 1 0.999944
0.999793 1 1 0.999793
0.99997 1 1 0.99997
1 1 1 1
1 1 1 1
0.999989 1 1 0.999989
0.999816 1 1 0.999816
1 1 1 1
0.999903 1 1 0.999903
0.999877 1 1 0.999877
0.999776 1 1 0.999776
1 1 1 1
1 1 1 1
0.999935 1 1 0.999935
0.999782 1 1 0.999782
0.999852 1 1 0.999852
0.999699 1 1 0.999699
0.999918 1 1 0.999918
0.999773 1 1 0.999773
0.999789 1 1 0.999789
0.999731 1 1 0.999731
1 1 1 1
0.999928 1 1 0.999928
0.999946 1 1 0.999946
0.999811 1 1 0.999811
0.999667 1 1 0.999667
0.999742 1 1 0.999742
0.999641 1 1 0.999641
0.999802 1 1 0.999802
0.999722 1 1 0.999722
0.99972 1 1 0.99972
0.999697 1 1 0.999697
0.999982 1 1 0.999982
1 1 1 1
1 1 1 1
1 1 1 1
1 1 1 1
1 1 1 1
1 1 1 1
1 1 1 1
1 1 1 1
0.999963 1 1 0.999963
0.999952 1 1 0.999952
0.999736 1 1 0.999736
0.9997 1 1 0.9997
0.999931 1 1 0.999931
1 1 1 1
0.999926 1 1 0.999926
0.999684 1 1 0.999684
0.999718 1 1 0.999718
0.999589 1 1 0.999589
0.999756 1 1 0.999756
0.999627 1 1 0.999627
0.99968 1 1 0.99968
0.999573 1 1 0.999573
0.999607 1 1 0.999607
0.999554 1 1 0.999554
0.999647 1 1 0.999647
0.999588 1 1 0.999588
0.999931 1 1 0.999931
0.999911 1 1 0.999911
0.999685 1 1 0.999685
0.999752 1 1 0.999752
1 1 1 1
1 1 1 1
0.999909 1 1 0.999909
0.999797 1 1 0.999797
0.999622 1 1 0.999622
0.999719 1 1 0.999719
0.99974 1 1 0.99974
0.999673 1 1 0.999673
1 1 1 1
0.999928 1 1 0.999928
0.999682 1 1 0.999682
0.999731 1 1 0.999731
0.999597 1 1 0.999597
0.999609 1 1 0.999609
1 1 1 1
0.999908 1 1 0.999908
0.999775 1 1 0.999775
0.999688 1 1 0.999688
0.999589 1 1 0.999589
0.999679 1 1 0.999679
0.999659 1 1 0.999659
0.999657 1 1 0.999657
0.999919 1 1 0.999919
0.99979 1 1 0.99979
0.999944 1 1 0.999944
0.999592 1 1 0.999592
0.999599 1 1 0.999599
0.999543 1 1 0.999543
0.999555 1 1 0.999555
0.999636 1 1 0.999636
0.999593 1 1 0.999593
0.999914 1 1 0.999914
0.999651 1 1 0.999651
0.999799 1 1 0.999799
0.9997 1 1 0.9997
0.999641 1 1 0.999641
0.999674 1 1 0.999674
0.999964 1 1 0.999964
0.999799 1 1 0.999799
0.999785 1 1 0.999785
0.999737 1 1 0.999737
0.999782 1 1 0.999782
1 1 1 1
1 1 1 1
0.999935 1 1 0.999935
0.999853 1 1 0.999853
0.999698 1 1 0.999698
0.999919 1 1 0.999919
0.999788 1 1 0.999788
0.999776 1 1 0.999776
0.999726 1 1 0.999726
1 1 1 1
0.999927 1 1 0.999927
0.999946 1 1 0.999946
0.99981 1 1 0.99981
0.999667 1 1 0.999667
0.999743 1 1 0.999743
0.999641 1 1 0.999641
0.999802 1 1 0.999802
0.999727 1 1 0.999727
0.999719 1 1 0.999719
0.999707 1 1 0.999707
1 1 1 1
0.999959 1 1 0.999959
0.999809 1 1 0.999809
0.999817 1 1 0.999817
0.999735 1 1 0.999735
0.999617 1 1 0.999617
0.999686 1 1 0.999686
0.99962 1 1 0.99962
0.999727 1 1 0.999727
0.999692 1 1 0.999692
0.99965 1 1 0.99965
0.999976 1 1 0.999976
0.999871 1 1 0.999871
0.999986 1 1 0.999986
0.999983 1 1 0.999983
1 1 1 1
1 1 1 1
1 1 1 1
1 1 1 1
1 1 1 1
1 1 1 1
1 1 1 1
1 1 1 1
1 1 1 1
1 1 1 1
1 1 1 1
0.999756 1 1 0.999756
0.999718 1 1 0.999718
0.999627 1 1 0.999627
0.999588 1 1 0.999588
0.999684 1 1 0.999684
0.999926 1 1 0.999926
0.99968 1 1 0.99968
0.999573 1 1 0.999573
0.999607 1 1 0.999607
0.999553 1 1 0.999553
0.999646 1 1 0.999646
0.999589 1 1 0.999589
0.999569 1 1 0.999569
0.999543 1 1 0.999543
0.999567 1 1 0.999567
0.999547 1 1 0.999547
0.999606 1 1 0.999606
0.999603 1 1 0.999603
0.999675 1 1 0.999675
0.999731 1 1 0.999731
0.999594 1 1 0.999594
0.99962 1 1 0.99962
1 1 1 1
0.999907 1 1 0.999907
0.999782 1 1 0.999782
0.999688 1 1 0.999688
0.999586 1 1 0.999586
0.999659 1 1 0.999659
0.999672 1 1 0.999672
0.999656 1 1 0.999656
0.999919 1 1 0.999919
0.999786 1 1 0.999786
0.999944 1 1 0.999944
0.999584 1 1 0.999584
0.999599 1 1 0.999599
0.999537 1 1 0.999537
0.999558 1 1 0.999558
0.999914 1 1 0.999914
0.999798 1 1 0.999798
0.999707 1 1 0.999707
0.999639 1 1 0.999639
0.999596 1 1 0.999596
0.999634 1 1 0.999634
0.999651 1 1 0.999651
0.999678 1 1 0.999678
0.9998 1 1 0.9998
0.999731 1 1 0.999731
0.999963 1 1 0.999963
0.999787 1 1 0.999787
0.999533 1 1 0.999533
0.999539 1 1 0.999539
0.99951 1 1 0.99951
0.999551 1 1 0.999551
0.999638 1 1 0.999638
0.999614 1 1 0.999614
0.999804 1 1 0.999804
0.999684 1 1 0.999684
0.999733 1 1 0.999733
0.999647 1 1 0.999647
0.999612 1 1 0.999612
0.999681 1 1 0.999681
0.999976 1 1 0.999976
0.999802 1 1 0.999802
0.999744 1 1 0.999744
0.999715 1 1 0.999715
0.999707 1 1 0.999707
1 1 1 1
0.999666 1 1 0.999666
0.999946 1 1 0.999946
0.999927 1 1 0.999927
0.99981 1 1 0.99981
0.999743 1 1 0.999743
0.999641 1 1 0.999641
0.999803 1 1 0.999803
0.999717 1 1 0.999717
0.999732 1 1 0.999732
0.999717 1 1 0.999717
1 1 1 1
0.999959 1 1 0.999959
0.999809 1 1 0.999809
0.999816 1 1 0.999816
0.999734 1 1 0.999734
0.999617 1 1 0.999617
0.999687 1 1 0.999687
0.999617 1 1 0.999617
0.999728 1 1 0.999728
0.999695 1 1 0.999695
0.999655 1 1 0.999655
0.999969 1 1 0.999969
0.999827 1 1 0.999827
0.999734 1 1 0.999734
0.999736 1 1 0.999736
0.999702 1 1 0.999702
0.999607 1 1 0.999607
0.999658 1 1 0.999658
0.999637 1 1 0.999637
0.999663 1 1 0.999663
0.999615 1 1 0.999615
0.999977 1 1 0.999977
0.999841 1 1 0.999841
0.999863 1 1 0.999863
0.999788 1 1 0.999788
0.99988 1 1 0.99988
0.99999 1 1 0.99999
0.999988 1 1 0.999988
1 1 1 1
0.999985 1 1 0.999985
1 1 1 1
1 1 1 1
1 1 1 1
1 1 1 1
1 1 1 1
1 1 1 1
1 1 1 1
1 1 1 1
1 1 1 1
1 1 1 1
1 1 1 1
0.999646 1 1 0.999646
0.999607 1 1 0.999607
0.999589 1 1 0.999589
0.999552 1 1 0.999552
0.999573 1 1 0.999573
0.99968 1 1 0.99968
0.999569 1 1 0.999569
0.999542 1 1 0.999542
0.999567 1 1 0.999567
0.999545 1 1 0.999545
0.999605 1 1 0.999605
0.999603 1 1 0.999603
0.999534 1 1 0.999534
0.999537 1 1 0.999537
0.999565 1 1 0.999565
0.999537 1 1 0.999537
0.999611 1 1 0.999611
0.999623 1 1 0.999623
0.999577 1 1 0.999577
0.999598 1 1 0.999598
0.999532 1 1 0.999532
0.99956 1 1 0.99956
0.999915 1 1 0.999915
0.999798 1 1 0.999798
0.999714 1 1 0.999714
0.999642 1 1 0.999642
0.9996 1 1 0.9996
0.999652 1 1 0.999652
0.999628 1 1 0.999628
0.999682 1 1 0.999682
0.999801 1 1 0.999801
0.999724 1 1 0.999724
0.999961 1 1 0.999961
0.999789 1 1 0.999789
0.999534 1 1 0.999534
0.99954 1 1 0.99954
0.999508 1 1 0.999508
0.999552 1 1 0.999552
0.999805 1 1 0.999805
0.999738 1 1 0.999738
0.999646 1 1 0.999646
0.999635 1 1 0.999635
0.999627 1 1 0.999627
0.999609 1 1 0.999609
0.999685 1 1 0.999685
0.999692 1 1 0.999692
0.999744 1 1 0.999744
0.999704 1 1 0.999704
0.999713 1 1 0.999713
0.999964 1 1 0.999964
0.999805 1 1 0.999805
0.999511 1 1 0.999511
0.999498 1 1 0.999498
0.999573 1 1 0.999573
0.999663 1 1 0.999663
0.999752 1 1 0.999752
0.999722 1 1 0.999722
0.999688 1 1 0.999688
0.999582 1 1 0.999582
0.99959 1 1 0.99959
0.999964 1 1 0.999964
0.999844 1 1 0.999844
0.999724 1 1 0.999724
0.999719 1 1 0.999719
0.99966 1 1 0.99966
0.999681 1 1 0.999681
1 1 1 1
0.999959 1 1 0.999959
0.999616 1 1 0.999616
0.999816 1 1 0.999816
0.999809 1 1 0.999809
0.999732 1 1 0.999732
0.999687 1 1 0.999687
0.999615 1 1 0.999615
0.999729 1 1 0.999729
0.999661 1 1 0.999661
0.999699 1 1 0.999699
0.99997 1 1 0.99997
0.999827 1 1 0.999827
0.999738 1 1 0.999738
0.999735 1 1 0.999735
0.999698 1 1 0.999698
0.999606 1 1 0.999606
0.999656 1 1 0.999656
0.99964 1 1 0.99964
0.999659 1 1 0.999659
0.999607 1 1 0.999607
0.999839 1 1 0.999839
0.999728 1 1 0.999728
0.999686 1 1 0.999686
0.999683 1 1 0.999683
0.999671 1 1 0.999671
0.999675 1 1 0.999675
0.999605 1 1 0.999605
0.999623 1 1 0.999623
0.999613 1 1 0.999613
0.999529 1 1 0.999529
0.999979 1 1 0.999979
0.999847 1 1 0.999847
0.999749 1 1 0.999749
0.999855 1 1 0.999855
0.99988 1 1 0.99988
0.999776 1 1 0.999776
0.999715 1 1 0.999715
0.999773 1 1 0.999773
0.999888 1 1 0.999888
0.999992 1 1 0.999992
0.999991 1 1 0.999991
1 1 1 1
0.999989 1 1 0.999989
1 1 1 1
1 1 1 1
1 1 1 1
1 1 1 1
1 1 1 1
1 1 1 1
1 1 1 1
1 1 1 1
1 1 1 1
1 1 1 1
1 1 1 1
0.999605 1 1 0.999605
0.999568 1 1 0.999568
0.999604 1 1 0.999604
0.999543 1 1 0.999543
0.99954 1 1 0.99954
0.999569 1 1 0.999569
0.999533 1 1 0.999533
0.999538 1 1 0.999538
0.999561 1 1 0.999561
0.999531 1 1 0.999531
0.999611 1 1 0.999611
0.999633 1 1 0.999633
0.999535 1 1 0.999535
0.999537 1 1 0.999537
0.999564 1 1 0.999564
0.999674 1 1 0.999674
0.999535 1 1 0.999535
0.999542 1 1 0.999542
0.999505 1 1 0.999505
0.999553 1 1 0.999553
0.999805 1 1 0.999805
0.999744 1 1 0.999744
0.999646 1 1 0.999646
0.999632 1 1 0.999632
0.999641 1 1 0.999641
0.999686 1 1 0.999686
0.999605 1 1 0.999605
0.999703 1 1 0.999703
0.999744 1 1 0.999744
0.999702 1 1 0.999702
0.999712 1 1 0.999712
0.999953 1 1 0.999953
0.999808 1 1 0.999808
0.999509 1 1 0.999509
0.999503 1 1 0.999503
0.999578 1 1 0.999578
0.999752 1 1 0.999752
0.999696 1 1 0.999696
0.99958 1 1 0.99958
0.999658 1 1 0.999658
0.999605 1 1 0.999605
0.99972 1 1 0.99972
0.999965 1 1 0.999965
0.999719 1 1 0.999719
0.999686 1 1 0.999686
0.999662 1 1 0.999662
0.999727 1 1 0.999727
0.999835 1 1 0.999835
0.999502 1 1 0.999502
0.999495 1 1 0.999495
0.999616 1 1 0.999616
0.999716 1 1 0.999716
0.999719 1 1 0.999719
0.999645 1 1 0.999645
0.999616 1 1 0.999616
0.999531 1 1 0.999531
0.999974 1 1 0.999974
0.999866 1 1 0.999866
0.999751 1 1 0.999751
0.999641 1 1 0.999641
0.999688 1 1 0.999688
0.999641 1 1 0.999641
0.999971 1 1 0.999971
0.999826 1 1 0.999826
0.999604 1 1 0.999604
0.999735 1 1 0.999735
0.999742 1 1 0.999742
0.999694 1 1 0.999694
0.999654 1 1 0.999654
0.999643 1 1 0.999643
0.999655 1 1 0.999655
0.999599 1 1 0.999599
0.999839 1 1 0.999839
0.999731 1 1 0.999731
0.999692 1 1 0.999692
0.999687 1 1 0.999687
0.999675 1 1 0.999675
0.999679 1 1 0.999679
0.999608 1 1 0.999608
0.999644 1 1 0.999644
0.999607 1 1 0.999607
0.999521 1 1 0.999521
0.999736 1 1 0.999736
0.999661 1 1 0.999661
0.99964 1 1 0.99964
0.999643 1 1 0.999643
0.99968 1 1 0.99968
0.99968 1 1 0.99968
0.999525 1 1 0.999525
0.999948 1 1.00045 0.999499
0.999852 1 1 0.999852
0.999755 1 1 0.999755
0.999696 1 1 0.999696
0.99988 1 1 0.99988
0.999764 1 1 0.999764
0.999888 1 1 0.999888
0.999706 1 1 0.999706
0.999777 1 1 0.999777
0.99966 1 1 0.99966
0.999703 1 1 0.999703
0.999779 1 1 0.999779
0.999892 1 1 0.999892
0.999993 1 1 0.999993
0.999992 1 1 0.999992
1 1 1 1
0.999991 1 1 0.999991
1 1 1 1
1 1 1 1
1 1 1 1
1 1 1 1
1 1 1 1
1 1 1 1
1 1 1 1
1 1 1 1
1 1 1 1
1 1 1 1
1 1 1 1
0.999611 1 1 0.999611
0.999558 1 1 0.999558
0.999643 1 1 0.999643
0.999525 1 1 0.999525
0.999538 1 1 0.999538
0.999532 1 1 0.999532
0.999533 1 1 0.999533
0.999537 1 1 0.999537
0.99957 1 1 0.99957
0.99967 1 1 0.99967
0.999536 1 1 0.999536
0.999554 1 1 0.999554
0.999622 1 1 0.999622
0.999506 1 1 0.999506
0.999508 1 1 0.999508
0.999582 1 1 0.999582
0.999751 1 1 0.999751
0.999704 1 1 0.999704
0.999578 1 1 0.999578
0.999652 1 1 0.999652
0.999717 1 1 0.999717
0.999621 1 1 0.999621
0.999718 1 1 0.999718
0.999691 1 1 0.999691
0.999664 1 1 0.999664
0.999965 1 1 0.999965
0.999731 1 1 0.999731
0.999826 1 1 0.999826
0.999508 1 1 0.999508
0.999493 1 1 0.999493
0.999607 1 1 0.999607
0.999718 1 1 0.999718
0.999626 1 1 0.999626
0.999536 1 1 0.999536
0.999722 1 1 0.999722
0.999644 1 1 0.999644
0.999982 1 1 0.999982
0.999866 1 1 0.999866
0.999688 1 1 0.999688
0.999643 1 1 0.999643
0.999646 1 1 0.999646
0.999745 1 1 0.999745
0.999523 1 1 0.999523
0.999511 1 1 0.999511
0.999616 1 0.999906 0.99971
0.999732 1 1 0.999732
0.99967 1 1 0.99967
1.00024 1 1.00073 0.999513
0.999561 1 1 0.999561
0.999997 1 1 0.999997
0.999913 1 1 0.999913
0.999871 1 1 0.999871
0.999756 1 1 0.999756
0.999663 1 1 0.999663
0.999595 1 1 0.999595
0.999664 1 1 0.999664
0.999612 1 1 0.999612
0.999839 1 1 0.999839
0.999735 1 1 0.999735
0.999683 1 1 0.999683
0.999691 1 1 0.999691
0.999699 1 1 0.999699
0.999679 1 1 0.999679
0.999611 1 1 0.999611
0.999665 1 1 0.999665
0.999602 1 1 0.999602
0.999514 1 1 0.999514
0.999734 1 1 0.999734
0.999668 1 1 0.999668
0.999646 1 1 0.999646
0.999647 1 1 0.999647
0.999681 1 1 0.999681
0.999676 1 1 0.999676
0.999535 1 1 0.999535
0.999771 1 1.00028 0.999496
0.99968 1 1 0.99968
0.999619 1 1 0.999619
0.999623 1 1 0.999623
0.999586 1 1 0.999586
0.999558 1.00003 0.999824 0.9997
0.999507 1 1 0.999507
1.00024 1 1.00079 0.999449
0.999761 1 1 0.999761
0.999696 1 1 0.999696
0.999648 1 1 0.999648
0.999888 1 1 0.999888
0.999782 1 1 0.999782
0.999698 1 1 0.999698
0.999892 1 1 0.999892
0.999778 1 1 0.999778
0.999653 1 1 0.999653
0.999712 1 1 0.999712
0.99962 1 1 0.99962
0.999647 1 1 0.999647
0.999718 1 1 0.999718
0.999791 1 1 0.999791
0.999892 1 1 0.999892
0.999992 1 1 0.999992
0.999993 1 1 0.999993
1 1 1 1
0.999993 1 1 0.999993
1 1 1 1
1 1 1 1
1 1 1 1
1 1 1 1
1 1 1 1
0.999999 1 1 0.999999
1 1 1 1
1 1 1 1
1 1 1 1
1 1 1 1
1 1 1 1
1 1 1 1
0.999666 1 1 0.999666
0.999575 1 1 0.999575
0.999536 1 1 0.999536
0.999531 1 1 0.999531
0.999541 1 1 0.999541
0.999548 1 1 0.999548
0.999635 1 1 0.999635
0.999555 1 1 0.999555
0.999571 1 1 0.999571
0.999649 1 1 0.999649
0.999513 1 1 0.999513
0.999491 1 1 0.999491
0.999599 1 1 0.999599
0.999717 1 1 0.999717
0.999636 1 1 0.999636
0.999541 1 1 0.999541
0.999728 1 1 0.999728
0.999642 1 1 0.999642
0.999687 1 1 0.999687
0.999645 1 1 0.999645
0.999652 1 1 0.999652
0.99999 1 1 0.99999
0.999866 1 1 0.999866
0.999738 1 1 0.999738
0.999521 1 1 0.999521
0.999995 1 1 0.999995
0.999907 1 1 0.999907
0.999513 1 1 0.999513
0.999693 1 1 0.999693
0.999675 1 1 0.999675
0.999582 1 1.00003 0.999549
0.999793 1 1.00028 0.999517
0.999729 1 1 0.999729
0.999887 1 1 0.999887
0.999755 1 1 0.999755
0.999665 1 1 0.999665
0.999623 1 1 0.999623
0.999586 1 1 0.999586
0.999664 1 1 0.999664
0.999516 1 1 0.999516
0.999594 1 1 0.999594
0.999407 1 0.999601 0.999807
0.999595 1 1 0.999595
0.999635 1 1 0.999635
1.001 1 1.00152 0.999475
0.999912 1 1 0.999912
0.999901 1 1 0.999901
0.999828 1 1 0.999828
0.999761 1 1 0.999761
0.999684 1 1 0.999684
0.999592 1 1 0.999592
0.999543 1 1 0.999543
0.999624 1 1 0.999624
0.999732 1 1 0.999732
0.999674 1 1 0.999674
0.999683 1 1 0.999683
0.999672 1 1 0.999672
0.999652 1 1 0.999652
0.999652 1 1 0.999652
0.999545 1 1 0.999545
0.999628 1 1.00014 0.999492
0.99968 1 1 0.99968
0.999636 1 1 0.999636
0.999623 1 1 0.999623
0.999635 1 1.00006 0.999575
0.999624 1.00003 0.999896 0.999694
0.999509 1 1 0.999509
1.00015 1 1.0007 0.999447
0.999629 1 1 0.999629
1.00151 1.00242 0.999451 0.999649
0.99959 1 1 0.99959
1.00003 1 1.00054 0.999494
0.999283 1.00003 0.99974 0.999513
1.00072 1 1.00131 0.999411
0.997697 1.00607 0.99223 0.999445
0.999696 1 1 0.999696
0.999648 1 1 0.999648
0.999614 1 1 0.999614
0.999892 1 1 0.999892
0.999778 1 1 0.999778
0.999721 1 1 0.999721
0.999646 1 1 0.999646
0.999892 1 1 0.999892
0.999785 1 1 0.999785
0.999618 1 1 0.999618
0.999718 1 1 0.999718
0.999654 1 1 0.999654
0.999598 1 1 0.999598
0.999665 1 1 0.999665
0.999723 1 1 0.999723
0.999777 1 1 0.999777
0.999876 1 1 0.999876
0.999801 1 1 0.999801
0.999874 1 1 0.999874
0.999992 1 1 0.999992
0.999992 1 1 0.999992
1 1 1 1
0.999992 1 1 0.999992
1 1 1 1
1 1 1 1
1 1 1 1
1 1 1 1
1 1 1 1
1 1 1 1
0.999999 1 1 0.999999
1 1 1 1
1 1 1 1
1 1 1 1
1 1 1 1
1 1 1 1
1 1 1 1
0.999648 1 1 0.999648
0.999542 1 1 0.999542
0.999547 1 1 0.999547
0.999556 1 1 0.999556
0.999577 1 1 0.999577
0.999656 1 1 0.999656
0.999588 1 1 0.999588
0.998487 1.00347 0.995308 0.99973
1.00007 1.00062 0.999705 0.999746
0.999933 1 1 0.999933
0.999519 1 1 0.999519
0.999515 1 1 0.999515
0.999676 1 1 0.999676
0.99968 1 1 0.99968
0.999609 1 1.00007 0.999538
0.999521 1 1 0.999521
0.999726 1 1 0.999726
0.999666 1 1 0.999666
0.999634 1 1 0.999634
0.999576 1 1 0.999576
0.999994 1 1 0.999994
0.999666 1 1 0.999666
0.999904 1 1 0.999904
0.999755 1 1 0.999755
0.9999 1 1 0.9999
0.999509 1 1 0.999509
0.999919 1 1 0.999919
0.999901 1 1 0.999901
0.999815 1 1 0.999815
0.999597 1 1 0.999597
0.999252 1 0.999469 0.999783
0.999639 1 1 0.999639
1.00088 1 1.00141 0.99947
0.999657 1 1.00006 0.999599
0.99977 1 1 0.99977
0.99968 1 1 0.99968
0.99962 1 1 0.99962
0.999587 1 1.00003 0.999553
0.999598 1 1 0.999598
0.999542 1 1.00004 0.999498
0.997113 1.00001 0.997376 0.999728
0.999386 1 0.999716 0.99967
1.00046 1 1.00097 0.999488
1.00064 1 1.00106 0.999578
0.999816 1 1 0.999816
0.999784 1 1 0.999784
0.999744 1 1 0.999744
0.999686 1 1 0.999686
0.999624 1 1 0.999624
0.999549 1 1 0.999549
1.00113 1 1.0016 0.999527
0.99968 1 1 0.99968
0.999623 1 1 0.999623
0.999653 1 1 0.999653
0.999592 1 0.999904 0.999689
0.999511 1 1 0.999511
0.999644 1 1.00008 0.999564
0.999991 1 1.00055 0.999444
0.999633 1 1 0.999633
1.00163 1.00258 0.999402 0.999658
0.99959 1 1 0.99959
0.999937 1 1.00044 0.999493
0.999363 1.0002 0.999637 0.99953
1.00135 1 1.00195 0.999408
1.00062 1.00854 0.992656 0.999479
0.999598 1 1 0.999598
1.00071 1.00261 0.99862 0.999487
0.999557 1 1 0.999557
1.00281 1 1.00337 0.999441
1.00048 1 1.00108 0.999404
0.961805 0.963823 1.00004 0.997866
0.996469 1.00115 0.995959 0.99936
0.985327 1.00906 0.97701 0.99946
0.94559 0.956559 0.988991 0.999536
0.957249 0.982067 0.974956 0.999767
0.999648 1 1 0.999648
0.999615 1 1 0.999615
0.999585 1 1 0.999585
0.999892 1 1 0.999892
0.999779 1 1 0.999779
0.999718 1 1 0.999718
0.999662 1 1 0.999662
0.999615 1 1 0.999615
0.999714 1 1 0.999714
0.999883 1 1 0.999883
0.999783 1 1 0.999783
0.999603 1 1 0.999603
0.999663 1 1 0.999663
0.999671 1 1 0.999671
0.999608 1 1 0.999608
0.999697 1 1 0.999697
0.999775 1 1 0.999775
0.999874 1 1 0.999874
0.999793 1 1 0.999793
0.999721 1 1 0.999721
0.999778 1 1 0.999778
0.999789 1 1 0.999789
0.999885 1 1 0.999885
0.999874 1 1 0.999874
0.999991 1 1 0.999991
0.999991 1 1 0.999991
1 1 1 1
0.999992 1 1 0.999992
1 1 1 1
1 1 1 1
1 1 1 1
1 1 1 1
1 1 1 1
1 1 1 1
1 1 1 1
1 1 1 1
0.999998 1 1 0.999998
1 1 1 1
1 1 1 1
1 1 1 1
1 1 1 1
1 1 1 1
0.999582 1 1 0.999582
0.999556 1 1 0.999556
0.999662 1 1 0.999662
0.998418 1.00317 0.995536 0.999729
0.999583 1 1 0.999583
0.999969 1.00039 0.999863 0.999712
0.999558 1 1.00004 0.99952
0.980983 0.984914 0.99692 0.999086
1.00012 1.00059 0.999727 0.999807
0.999938 1 1 0.999938
0.999933 1 1 0.999933
0.999841 1 1 0.999841
0.999853 1 1 0.999853
0.999501 1 1 0.999501
0.999599 1 1 0.999599
0.99924 1 0.999481 0.99976
0.999642 1 1 0.999642
1.00053 1 1.00107 0.999466
0.999603 1 1 0.999603
0.999617 1 1 0.999617
0.999614 1 1.00005 0.999562
0.999605 1 1 0.999605
0.9999 1 1 0.9999
0.999676 1 1 0.999676
0.999779 1 1 0.999779
0.999926 1 1 0.999926
0.999802 1 1 0.999802
0.999545 1 1.00003 0.99951
0.999829 1 1 0.999829
0.999792 1 1 0.999792
0.999745 1 1 0.999745
0.998148 1.00011 0.998306 0.999729
0.999212 1 0.999541 0.999671
1.00059 1 1.00102 0.999577
1.00048 1 1.00099 0.99949
0.999689 1 1 0.999689
0.999627 1 1 0.999627
1.00051 1 1.00099 0.999527
0.999571 1 1.00003 0.999545
0.999737 1.00021 0.999954 0.999569
0.99794 1.00054 0.997706 0.999698
0.999857 1 1.0004 0.999459
1.00063 1 1.00112 0.999516
0.999719 1 1 0.999719
0.999704 1 1 0.999704
0.999591 1 1 0.999591
1.00154 1 1.00207 0.999473
0.959727 0.963719 0.998056 0.997798
0.999637 1 1 0.999637
0.99959 1 1 0.99959
1.00186 1.0027 0.999499 0.999666
0.999832 1.00039 0.999895 0.999547
1.00205 1 1.00265 0.999405
0.999922 1 1.00043 0.999492
1.00368 1.01087 0.993374 0.999513
0.999601 1 1 0.999601
1.001 1.00321 0.99831 0.999484
0.999558 1 1 0.999558
1.00244 1 1.003 0.999444
1.0001 1 1.00069 0.999415
0.962096 0.964303 0.999656 0.998055
0.991597 0.997861 0.994812 0.998905
0.989395 1.01079 0.97935 0.999473
0.950405 0.959262 0.991465 0.999296
0.954283 0.97849 0.975484 0.99977
0.999591 1 1 0.999591
0.95809 0.962302 0.996599 0.999021
0.967907 0.982049 0.985773 0.999823
0.989072 1.00078 0.988838 0.999453
1.00141 1 1.00187 0.99954
1.00825 1 1.0088 0.999449
1.00184 1.01017 0.992323 0.999426
0.973394 0.971646 1.00408 0.997725
0.995685 1.0053 0.991585 0.998841
0.948796 0.962432 0.986358 0.999467
0.990394 1.00668 0.983975 0.999847
0.999616 1 1 0.999616
0.999585 1 1 0.999585
0.999559 1 1 0.999559
0.99989 1 1 0.99989
0.99979 1 1 0.99979
0.999705 1 1 0.999705
0.99966 1 1 0.99966
0.999608 1 1 0.999608
0.999875 1 1 0.999875
0.999669 1 1 0.999669
0.999707 1 1 0.999707
0.999783 1 1 0.999783
0.9996 1 1 0.9996
0.999639 1 1 0.999639
0.99976 1 1.0002 0.999562
0.999703 1 1 0.999703
0.999791 1 1 0.999791
0.999793 1 1 0.999793
0.999711 1 1 0.999711
0.999713 1 1 0.999713
0.9997 1 1 0.9997
0.999662 1 1 0.999662
0.999669 1 1 0.999669
0.999763 1 1 0.999763
0.999778 1 1 0.999778
0.999879 1 1 0.999879
0.999776 1 1 0.999776
0.999879 1 1 0.999879
0.99999 1 1 0.99999
0.999875 1 1 0.999875
0.999991 1 1 0.999991
1 1 1 1
0.999991 1 1 0.999991
1 1 1 1
1 1 1 1
1 1 1 1
1 1 1 1
1 1 1 1
0.999935 1 1 0.999935
1 1 1 1
1 1 1 1
1 1 1 1
1 1 1 1
1 1 1 1
1 1 1 1
1 1 1 1
1 1 1 1
1 1 1 1
0.998447 1.00325 0.995487 0.999729
0.999579 1 1 0.999579
0.99985 1.00017 1 0.999678
0.981313 0.98446 0.997437 0.999365
1.00009 1.0004 0.999883 0.999807
0.999542 1.00001 1.00003 0.999503
1.00129 1.00015 1.00159 0.999543
0.987335 0.986526 1.00163 0.999195
0.964615 0.967083 1.00011 0.997334
0.942942 0.956635 0.986712 0.998961
0.953861 0.975199 0.978332 0.999783
0.999838 1 1 0.999838
0.999938 1 1 0.999938
0.999933 1 1 0.999933
0.999837 1 1 0.999837
0.999776 1 1 0.999776
0.999793 1 1 0.999793
0.999842 1 1 0.999842
0.999847 1 1 0.999847
0.999549 1 1.00003 0.999523
0.999051 1.00019 0.999126 0.999731
0.998989 1 0.999317 0.999672
1.0006 1 1.00102 0.999576
1.00075 1 1.00126 0.999491
0.999974 1 1.00045 0.999528
0.999609 1 1.00007 0.999541
0.999631 1 1 0.999631
0.999801 1 1 0.999801
0.999693 1 1 0.999693
0.999843 1 1 0.999843
0.999746 1 1 0.999746
0.999316 1.00029 0.999465 0.999557
0.999724 1 1 0.999724
0.999706 1 1 0.999706
0.997357 1.00038 0.997284 0.999696
0.999697 1 1.00022 0.999475
1.00108 1 1.00158 0.999501
0.999589 1 1 0.999589
1.00156 1 1.00208 0.999476
0.990988 1.00529 0.986212 0.999554
1.00224 1.00045 1.0023 0.99949
1.00004 1 1.00061 0.999438
1.00454 1 1.0051 0.999442
0.999665 1 1 0.999665
0.999621 1 1 0.999621
1.00005 1 1.00054 0.999505
0.958013 0.965449 0.992913 0.999381
0.963416 0.965575 0.99988 0.997885
0.999604 1 1 0.999604
0.999559 1 1 0.999559
1.00103 1.00396 0.997599 0.999481
0.999695 1 1.00027 0.999426
1.00199 1 1.00255 0.999447
0.962253 0.964993 0.999863 0.997298
0.992403 0.998094 0.99484 0.999456
0.993746 1.01295 0.98155 0.999485
0.946179 0.958226 0.988399 0.999018
0.950931 0.974842 0.975694 0.999773
0.99959 1 1 0.99959
0.954815 0.964078 0.990948 0.999438
0.969439 0.980484 0.988896 0.999837
0.990794 1.00084 0.99051 0.999447
1.00056 1 1.00101 0.999543
1.00749 1 1.00804 0.99946
0.996862 1.0076 0.989928 0.999407
0.974341 0.973153 1.00374 0.997495
0.991141 1.0007 0.991103 0.999335
0.948773 0.962764 0.986483 0.998972
0.984697 1.00486 0.980093 0.999839
0.999564 1 1 0.999564
0.987134 0.989077 0.998146 0.99989
1.01292 1.0148 0.998236 0.999914
1.00733 1 1.00786 0.999482
1.00607 1 1.00646 0.999614
1.00431 1.00361 1.00103 0.999673
0.991231 0.998943 0.992598 0.999679
0.977894 0.975068 1.0053 0.997612
0.963508 0.980881 0.983323 0.998947
1.00402 1.01625 0.988092 0.999875
0.999586 1 1 0.999586
0.999556 1 1 0.999556
0.999964 1 1.00042 0.999543
0.999875 1 1 0.999875
0.99979 1 1 0.99979
0.999718 1 1 0.999718
0.999667 1 1 0.999667
0.999592 1 1 0.999592
0.99979 1 1 0.99979
0.999645 1 1 0.999645
0.999703 1 1 0.999703
0.999801 1 1.00024 0.999557
1.00008 1 1.00055 0.999526
0.999702 1 1.00009 0.999615
0.999708 1 1 0.999708
0.999793 1 1 0.999793
0.999701 1 1 0.999701
0.999713 1 1 0.999713
0.9997 1 1 0.9997
0.99966 1 1 0.99966
0.999682 1 1 0.999682
0.999653 1 1 0.999653
0.99963 1 1 0.99963
0.999633 1 1 0.999633
0.999666 1 1 0.999666
0.999673 1 1 0.999673
0.99967 1 1 0.99967
0.999748 1 1 0.999748
0.999762 1 1 0.999762
0.999867 1 1 0.999867
0.999778 1 1 0.999778
0.999878 1 1 0.999878
0.999987 1 1 0.999987
0.999872 1 1 0.999872
0.999989 1 1 0.999989
1 1 1 1
0.99999 1 1 0.99999
1 1 1 1
1 1 1 1
1 1 1 1
1 1 1 1
1 1 1 1
0.999941 1 1 0.999941
1 1 1 1
0.999935 1 1 0.999935
1 1 1 1
1 1 1 1
1 1 1 1
1 1 1 1
1 1 1 1
1 1 1 1
1 1 1 1
1 1 1 1
0.951995 0.961103 0.991022 0.999497
0.972854 0.983618 0.989181 0.999875
0.982949 0.98512 0.998194 0.999602
0.99999 1.0002 0.999984 0.999807
0.999519 1 1.00003 0.999485
0.986687 0.985026 1.00196 0.999732
1.00052 1.00017 1.0008 0.999554
0.968555 0.96931 1.00136 0.997867
0.948207 0.958076 0.990178 0.999516
0.952113 0.975288 0.976445 0.999788
1.00004 0.995676 1.00465 0.999733
0.973507 0.972805 1.0029 0.997824
0.946851 0.961442 0.985333 0.999482
0.98141 1.00227 0.979365 0.999817
0.999754 1 1 0.999754
0.999844 1 1 0.999844
0.999937 1 1 0.999937
0.999834 1 1 0.999834
0.999783 1 1 0.999783
0.999768 1 1 0.999768
0.999795 1 1 0.999795
0.99981 1 1 0.99981
0.999834 1 1 0.999834
0.999842 1 1 0.999842
0.998811 1.00024 0.999025 0.999546
0.997047 1.00029 0.997063 0.999694
0.999507 1 1.00002 0.999491
1.00138 1 1.0019 0.999485
1.00145 1 1.00198 0.999479
0.999588 1 1 0.999588
0.999709 1 1 0.999709
0.999728 1 1 0.999728
0.993372 1.0042 0.989686 0.99953
0.999661 1 1 0.999661
0.999612 1 1 0.999612
1.00044 1.0003 1.00065 0.999485
1.0004 1 1.00095 0.999446
1.00359 1 1.00416 0.999432
1.00062 1 1.00112 0.999497
0.986776 1.0126 0.975085 0.999397
1.0082 1 1.00877 0.999441
1.00419 1 1.00476 0.99943
0.999659 1 1 0.999659
0.999602 1 1 0.999602
0.999536 1 1 0.999536
0.987861 0.990889 0.997113 0.999832
0.958602 0.964631 0.994784 0.998961
0.961442 0.965399 0.998115 0.997782
0.999589 1 1 0.999589
0.999709 1 1.00016 0.999546
0.992763 1.00084 0.992484 0.999442
1.00688 1 1.00741 0.999472
0.951483 0.961969 0.990129 0.99896
0.97207 0.97207 1.00173 0.998272
0.992802 1.00183 0.992089 0.998887
0.992765 1.00518 0.988249 0.999393
0.949902 0.962468 0.987418 0.99952
0.972359 0.98289 0.989469 0.999814
0.980312 1.00027 0.980228 0.99982
0.999563 1 1 0.999563
0.983825 0.987959 0.995952 0.999863
1.01323 1.0153 0.998044 0.999913
1.00641 1 1.00693 0.999485
1.00637 1 1.00676 0.999615
1.00763 1.00315 1.00515 0.999319
0.99009 0.999019 0.992048 0.999006
0.976934 0.976434 1.00296 0.997561
0.970105 0.982721 0.987594 0.999563
0.999995 1.01391 0.986416 0.999853
0.999657 1 1.00001 0.999647
1.01369 1.01396 0.999791 0.999945
1.01368 1.01607 0.9977 0.999951
1.00768 1 1.00791 0.999771
0.996842 0.994184 1.0028 0.999876
0.985363 0.982704 1.00501 0.997704
0.982538 0.997571 0.985367 0.999558
1.00156 1.0168 0.985162 0.999842
0.999552 1 1 0.999552
0.999907 1 1.00036 0.999552
1.00087 1 1.0013 0.999567
0.99979 1 1 0.99979
0.999703 1 1 0.999703
0.999651 1 1 0.999651
0.999832 1 1.00028 0.999551
0.999708 1 1 0.999708
0.999647 1 1.00003 0.999616
1.00046 1 1.00093 0.999524
1.0004 1 1.00086 0.999549
0.999751 1 1.00021 0.999539
0.999642 1 1 0.999642
0.999712 1 1 0.999712
0.999699 1 1 0.999699
0.999659 1 1 0.999659
0.999655 1 1 0.999655
0.999682 1 1 0.999682
0.999633 1 1 0.999633
0.999618 1 1 0.999618
0.999607 1 1 0.999607
0.999607 1 1 0.999607
0.999634 1 1 0.999634
0.99964 1 1 0.99964
0.999642 1 1 0.999642
0.999714 1 1 0.999714
0.999685 1 1 0.999685
0.999679 1 1 0.999679
0.999733 1 1 0.999733
0.999671 1 1 0.999671
0.999748 1 1 0.999748
0.999852 1 1 0.999852
0.999762 1 1 0.999762
0.999866 1 1 0.999866
0.999984 1 1 0.999984
0.999878 1 1 0.999878
0.999987 1 1 0.999987
1 1 1 1
0.999988 1 1 0.999988
1 1 1 1
1 1 1 1
1 1 1 1
1 1 1 1
1 1 1 1
0.999911 1 1 0.999911
1 1 1 1
0.999928 1 1 0.999928
1 1 1 1
1 1 1 1
0.999935 1 1 0.999935
1 1 1 1
1 1 1 1
1 1 1 1
1 1 1 1
1 1 1 1
1 1 1 1
0.987539 0.989609 0.998009 0.999899
0.954815 0.962501 0.992783 0.999226
1.0107 1.01499 0.995849 0.999924
0.969516 0.980083 0.989352 0.999865
0.98339 0.983685 1.00054 0.999162
0.999875 1.00027 1.00004 0.999566
0.968551 0.969125 1.00098 0.998424
0.945717 0.958213 0.987963 0.998984
0.95084 0.975753 0.97467 0.999793
0.997098 0.997203 1.00037 0.99953
0.97298 0.970836 1.00449 0.997733
0.949259 0.964589 0.985122 0.998969
0.980014 1.00231 0.977932 0.999824
0.996522 1.00424 0.99262 0.999697
0.974817 0.972318 1.00497 0.997617
0.969175 0.985118 0.984266 0.999543
1.00013 1.01679 0.983745 0.999867
0.999706 1 1 0.999706
0.999762 1 1 0.999762
0.99985 1 1 0.99985
0.999789 1 1 0.999789
0.999724 1 1 0.999724
0.999774 1 1 0.999774
0.999798 1 1 0.999798
0.9998 1 1 0.9998
0.999817 1 1 0.999817
0.999827 1 1 0.999827
0.996121 1.00345 0.993186 0.999506
0.998486 1.0001 0.998908 0.999481
1.00081 1 1.00136 0.999453
1.00291 1 1.00349 0.999423
1.00125 1 1.00176 0.999488
0.999603 1 1 0.999603
0.999658 1 1 0.999658
0.99966 1 1 0.99966
0.988757 1.01023 0.979328 0.999399
0.999607 1 1 0.999607
0.999623 1 1.00009 0.999532
1.00771 1 1.00828 0.999432
1.00405 1 1.00462 0.999429
0.989204 1.01062 0.979386 0.999412
1.01742 1 1.01794 0.999495
1.00026 1 1.00078 0.999481
0.999615 1 1 0.999615
0.999542 1 1 0.999542
1.01299 1.01327 0.999768 0.999956
0.988405 0.990617 0.997898 0.999869
0.958864 0.965385 0.99378 0.999461
0.999561 1 1 0.999561
1.00651 1 1.0069 0.999616
1.00518 1 1.0057 0.999488
0.987997 0.989898 0.998185 0.999894
0.976827 0.974411 1.00496 0.997527
0.989308 0.9982 0.991475 0.999614
1.00898 1.002 1.00803 0.998945
0.96399 0.979731 0.984965 0.998954
1.01377 1.01602 0.997869 0.999913
1.00148 1.01379 0.987999 0.999851
0.999675 1 1.00002 0.999657
1.0149 1.01504 0.999921 0.999948
1.01485 1.01753 0.997412 0.999952
1.00799 0.999985 1.00834 0.999673
0.996921 0.995792 1.00147 0.999665
0.987446 0.984763 1.00514 0.997596
1.0038 1.01768 0.986497 0.999865
0.98028 0.993537 0.987342 0.999306
0.999764 1 1.00003 0.999731
1.00708 1.0082 0.998903 0.999987
1.0127 1.0147 0.998073 0.999965
1.00228 1.01562 0.986994 0.999868
1.00702 0.996219 1.01094 0.999903
0.982616 0.982086 1.00266 0.997882
0.976303 0.994164 0.982572 0.999452
0.999829 1 1.00027 0.999561
1.00064 1 1.00109 0.999545
1.00317 1 1.00355 0.999622
0.999707 1 1 0.999707
0.999617 1 1 0.999617
1.0009 1 1.00138 0.999522
0.999644 1 1 0.999644
0.999863 1 1.00033 0.999538
1.0008 1 1.00126 0.999534
0.999922 1 1.00035 0.999568
0.999571 1 1 0.999571
0.999657 1 1 0.999657
0.999683 1 1 0.999683
0.999636 1 1 0.999636
0.999607 1 1 0.999607
0.999618 1 1 0.999618
0.999592 1 1 0.999592
0.999626 1 1 0.999626
0.999772 1 1.00022 0.99955
0.999634 1 1 0.999634
0.999639 1 1 0.999639
0.999579 1 1 0.999579
0.999657 1 1 0.999657
0.999717 1 1 0.999717
0.999643 1 1 0.999643
0.999749 1 1 0.999749
0.99971 1 1 0.99971
0.999704 1 1 0.999704
0.999685 1 1 0.999685
0.999738 1 1 0.999738
0.999839 1 1 0.999839
0.999748 1 1 0.999748
0.999852 1 1 0.999852
0.999979 1 1 0.999979
0.999866 1 1 0.999866
0.999983 1 1 0.999983
1 1 1 1
0.999986 1 1 0.999986
1 1 1 1
1 1 1 1
1 1 1 1
1 1 1 1
1 1 1 1
0.999875 1 1 0.999875
0.999982 1 1 0.999982
0.999911 1 1 0.999911
1 1 1 1
0.999993 1 1 0.999993
0.999915 1 1 0.999915
1 1 1 1
1 1 1 1
1 1 1 1
1 1 1 1
1 1 1 1
1 1 1 1
1.01213 1.01245 0.999728 0.999952
0.983214 0.987975 0.995345 0.999836
0.956803 0.962575 0.994992 0.999007
0.999768 1 1 0.999768
1.01566 1.01742 0.998312 0.999961
1.01253 1.01583 0.996819 0.999924
0.96723 0.980243 0.986907 0.999816
0.994287 0.998282 0.99669 0.999306
0.975599 0.971501 1.00645 0.99778
0.953153 0.966763 0.986399 0.999516
0.979206 1.00001 0.979386 0.999806
0.995348 1.00777 0.988542 0.999117
0.976219 0.973715 1.00491 0.997672
0.967415 0.984631 0.983227 0.999276
0.998471 1.01624 0.982665 0.999849
0.978928 1.00018 0.979707 0.999021
0.979602 0.977928 1.00459 0.99713
0.978993 0.993744 0.986147 0.998995
1.00058 1.01853 0.982539 0.999827
0.999657 1 1 0.999657
0.999701 1 1 0.999701
0.999771 1 1 0.999771
0.99971 1 1 0.99971
0.999733 1 1 0.999733
0.999779 1 1 0.999779
0.999803 1 1 0.999803
0.999825 1 1 0.999825
0.990532 1.00772 0.983533 0.999401
1.00713 1 1.00771 0.999423
0.999661 1 1 0.999661
1.0038 1 1.00438 0.999429
0.999695 1 1.00017 0.999528
0.999612 1 1 0.999612
0.999616 1 1 0.999616
0.989865 1.00979 0.98085 0.999412
0.999544 1 1 0.999544
1.00108 1 1.0016 0.999478
1.01755 1 1.01807 0.999488
0.99961 1 1 0.99961
1.00368 1.00289 1.00118 0.999617
1.01319 1 1.01363 0.999561
0.999532 1 1 0.999532
0.999564 1 1 0.999564
1.00557 1.00583 0.999745 0.99999
1.01202 1.01231 0.999757 0.999957
0.988702 0.990225 0.998555 0.999906
0.999666 1 1 0.999666
1.00857 0.999979 1.00901 0.999577
1.0161 1.01615 0.999995 0.99995
0.98394 0.979112 1.00733 0.997623
1.00075 0.999353 1.00229 0.999111
0.976811 0.992475 0.985143 0.99906
1.01568 1.01863 0.997154 0.999953
1.00689 1.01887 0.988351 0.999888
0.999867 1 1.00015 0.999716
1.00676 1.00792 0.998866 0.999988
1.01153 1.01334 0.998238 0.999971
1.00579 0.996033 1.00986 0.999936
1.00024 1.01497 0.985635 0.999848
0.9803 0.984812 0.997358 0.998054
0.974984 0.992756 0.983119 0.998961
1.0066 0.998583 1.00824 0.999784
1.00126 1.00168 0.999581 0.999998
1.01682 1.01776 0.999113 0.999958
0.983819 1.00205 0.981987 0.999814
0.979144 0.992076 0.987948 0.999004
1.00138 0.992867 1.00843 1.00015
0.976088 0.979744 0.998393 0.997872
1.00041 1 1.00089 0.999524
1.00229 1 1.00268 0.999611
1.01221 1 1.01262 0.999592
0.999647 1 1 0.999647
0.999903 1 1.00037 0.999537
1.00106 1 1.00154 0.999519
0.999572 1 1 0.999572
0.999998 1 1.00043 0.999565
1.00293 1 1.00337 0.999553
0.999608 1 1 0.999608
0.999618 1 1 0.999618
0.999766 1 1.00018 0.999587
1.00135 1 1.00183 0.999522
0.999645 1 1 0.999645
0.999685 1 1.00012 0.99956
0.999893 1 1.00039 0.9995
0.999571 1 1 0.999571
0.999638 1 1 0.999638
0.999571 1 1 0.999571
0.999691 1 1 0.999691
0.999714 1 1 0.999714
0.999665 1 1 0.999665
0.99976 1 1 0.99976
0.999715 1 1 0.999715
0.999644 1 1 0.999644
0.999834 1 1 0.999834
0.999746 1 1 0.999746
0.999706 1 1 0.999706
0.999744 1 1 0.999744
0.999839 1 1 0.999839
0.999973 1 1 0.999973
0.999852 1 1 0.999852
0.999978 1 1 0.999978
1 1 1 1
0.999982 1 1 0.999982
1 1 1 1
1 1 1 1
1 1 1 1
1 1 1 1
1 1 1 1
0.999857 1 1 0.999857
0.999972 1 1 0.999972
0.999882 1 1 0.999882
1 1 1 1
0.999982 1 1 0.999982
0.99991 1 1 0.99991
1 1 1 1
1 1 1 1
0.999986 1 1 0.999986
1 1 1 1
1 1 1 1
1 1 1 1
1.00735 1.00769 0.999668 0.999987
1.01199 1.0125 0.999542 0.999952
0.985337 0.98885 0.996613 0.999833
0.999771 1 1 0.999771
0.999749 1 1 0.999749
0.99971 1 1 0.99971
1.01136 1.01402 0.997407 0.999966
1.01666 1.01847 0.99826 0.999961
1.01475 1.01669 0.998166 0.999923
0.999204 1.01157 0.988118 0.999657
0.975858 0.972395 1.00593 0.997646
0.964589 0.982117 0.98316 0.998975
0.999985 1.01738 0.983036 0.99986
0.977126 0.998104 0.979411 0.999562
0.983315 0.979608 1.00607 0.997726
0.980721 0.997157 0.984017 0.999493
1.00224 1.01914 0.983559 0.999856
0.975196 0.993245 0.982118 0.999705
0.979275 0.980026 1.00141 0.997822
0.979477 0.997516 0.982527 0.999378
0.998883 1.01507 0.984171 0.999876
0.999642 1 1 0.999642
0.999657 1 1 0.999657
0.999696 1 1 0.999696
0.99971 1 1 0.99971
0.999742 1 1 0.999742
0.999806 1 1 0.999806
0.990689 1.00883 0.982598 0.999412
1.01741 1 1.01794 0.999481
0.999617 1 1 0.999617
1.00179 1 1.00231 0.999475
0.999547 1 1 0.999547
0.999609 1 1 0.999609
0.99956 1 1 0.99956
1.00085 1.0039 0.997356 0.999608
0.99954 1 1 0.99954
1.01369 1 1.01412 0.99958
0.99957 1 1 0.99957
1.02005 0.998849 1.02147 0.999757
1.0001 1 1.00044 0.999664
0.999529 1 1 0.999529
0.999504 0.99954 0.999963 1
1.00418 1.00448 0.999711 0.999993
1.01102 1.01133 0.999734 0.999958
0.999981 1 1.00028 0.999701
1.00269 0.995452 1.00728 0.999986
1.00642 1.00759 0.998852 0.999988
0.985997 0.988204 0.998917 0.998849
0.98058 0.99816 0.982883 0.999497
1.01074 1.01212 0.998661 0.999977
1.00195 1.01616 0.986159 0.99986
1.00553 0.999312 1.00643 0.999796
1.0007 1.00089 0.999813 0.999999
1.01784 1.01885 0.999056 0.999958
1.00402 0.992628 1.01185 0.999631
0.982796 1.00221 0.980802 0.99982
0.980671 0.995551 0.985538 0.999507
0.975823 0.980029 0.997772 0.997932
1.02264 1 1.02276 0.999884
1.00742 1.00763 0.999801 0.999986
1.01232 1.01542 0.997019 0.99992
0.954422 0.974695 0.979417 0.999779
0.970811 0.983672 0.987377 0.999542
0.988657 0.984697 1.00619 0.997848
0.981694 0.991274 0.990893 0.999438
1.00127 1 1.00167 0.9996
1.01336 1 1.01377 0.999596
1.01954 1 1.01998 0.999572
0.999573 1 1 0.999573
1.00011 1 1.00055 0.999562
1.00236 1 1.00281 0.999556
1.01014 1 1.01067 0.999473
0.999901 1 1.00032 0.999582
1.00163 1 1.00212 0.99951
1.00434 1 1.00491 0.99943
0.999571 1 1 0.999571
1.00029 1 1.00079 0.999498
1.00012 1 1.00066 0.999466
0.999532 1 1 0.999532
0.999651 1 1 0.999651
0.999562 1 1 0.999562
0.999563 1 1 0.999563
0.999727 1 1 0.999727
0.999699 1 1 0.999699
0.999754 1 1 0.999754
0.99972 1 1 0.99972
0.999674 1 1 0.999674
0.999834 1 1 0.999834
0.99976 1 1 0.99976
0.999714 1 1 0.999714
0.999966 1 1 0.999966
0.999835 1 1 0.999835
0.999743 1 1 0.999743
0.99984 1 1 0.99984
0.999972 1 1 0.999972
1 1 1 1
0.999977 1 1 0.999977
1 1 1 1
1 1 1 1
1 1 1 1
1 1 1 1
1 1 1 1
0.999855 1 1 0.999855
0.999982 1 1 0.999982
0.999863 1 1 0.999863
1 1 1 1
0.999982 1 1 0.999982
0.999889 1 1 0.999889
1 1 1 1
1 1 1 1
0.999981 1 1 0.999981
1 1 1 1
1 1 1 1
1 1 1 1
1.0013 1.00158 0.999721 0.999997
1.00718 1.00757 0.999619 0.999987
1.01173 1.01254 0.999244 0.999953
0.999744 1 1 0.999744
0.999708 1 1 0.999708
0.999775 1 1 0.999775
0.999748 1 1 0.999748
0.999702 1 1 0.999702
0.999696 1 1 0.999696
0.999661 1 1 0.999661
1.0125 1.01472 0.997858 0.999953
1.01063 1.01296 0.997736 0.999973
1.01745 1.01953 0.997992 0.999961
1.00514 1.01988 0.985657 0.999884
0.981143 1.00325 0.978939 0.999007
0.984559 0.979479 1.00693 0.998271
0.976038 0.994117 0.982859 0.998936
0.979617 0.993245 0.986898 0.999373
0.983835 0.983825 1.00224 0.997774
0.978116 0.995911 0.983197 0.998916
0.996866 1.01427 0.982997 0.999839
0.985051 0.987953 0.997239 0.999822
0.975837 0.984253 0.993709 0.997726
0.984163 1.0011 0.983582 0.99949
0.988316 1.00535 0.983201 0.99985
0.999621 1 1 0.999621
0.99964 1 1 0.99964
0.999657 1 1 0.999657
0.999709 1 1 0.999709
0.99703 1.00489 0.992573 0.9996
1.01457 1 1.01497 0.999598
0.999608 1 1 0.999608
0.999556 1 1 0.999556
0.999547 1 1 0.999547
0.999574 1 1 0.999574
0.999524 1 1 0.999524
1.01086 0.996888 1.01424 0.999775
1.00013 1 1.00044 0.999692
0.999526 1 1 0.999526
1.02331 0.993188 1.03044 0.999898
1.00346 1 1.00395 0.999515
1.00558 1.0057 0.99989 0.99999
0.999186 0.999165 1.00002 1
1.00286 1.00312 0.999743 0.999995
1.00468 1 1.00487 0.999807
1.00422 0.991926 1.01228 1.00011
1.00011 1.00013 0.999978 1
0.97626 0.979602 0.998742 0.997844
0.975763 0.992477 0.984191 0.998952
1.0187 1.01995 0.998819 0.999958
0.982719 0.999771 0.983136 0.999805
1.02492 0.99953 1.02554 0.999868
1.00722 1.00749 0.999738 0.999987
1.01418 1.01625 0.998042 0.999919
0.986204 0.99368 0.992398 1.00008
0.95271 0.974666 0.977684 0.999785
0.96803 0.982357 0.986137 0.999269
0.990541 0.984056 1.00858 0.998025
1.0095 1 1.00966 0.999837
1.01258 1.01258 1.00005 0.999948
0.974405 0.983756 0.990621 0.999872
0.945959 0.960117 0.98577 0.999476
0.982419 0.977847 1.00702 0.997675
0.980894 0.996222 0.985391 0.999211
1.01472 1 1.01513 0.9996
1.02022 1 1.02066 0.999569
1.02002 1 1.02054 0.999495
1.00185 1 1.0023 0.999558
1.0106 1 1.01112 0.999484
1.00781 1 1.00843 0.999391
1.0021 1 1.0026 0.999498
1.00435 1 1.00494 0.999418
1.00283 1 1.00344 0.999389
1.00076 1 1.00127 0.999495
1.00028 1 1.00083 0.999455
1.00001 1 1.00055 0.999464
0.999537 1 1 0.999537
0.999602 1 1 0.999602
0.999524 1 1 0.999524
0.999706 1 1 0.999706
0.999658 1 1 0.999658
0.999554 1 1 0.999554
0.999749 1 1 0.999749
0.999724 1 1 0.999724
0.999708 1 1 0.999708
0.999827 1 1 0.999827
0.999757 1 1 0.999757
0.999726 1 1 0.999726
0.999958 1 1 0.999958
0.999835 1 1 0.999835
0.999761 1 1 0.999761
1 1 1 1
0.999966 1 1 0.999966
0.999835 1 1 0.999835
0.999971 1 1 0.999971
1 1 1 1
1 1 1 1
1 1 1 1
1 1 1 1
1 1 1 1
0.999746 1 1 0.999746
0.99984 1 1 0.99984
0.999976 1 1 0.999976
0.999855 1 1 0.999855
1 1 1 1
0.999984 1 1 0.999984
0.999869 1 1 0.999869
1 1 1 1
1 1 1 1
0.999991 1 1 0.999991
1 1 1 1
1 1 1 1
1 1 1 1
1.00714 1.00761 0.99954 0.999987
1.00078 1.00082 0.99996 0.999999
1.00704 1.00744 0.999614 0.999988
0.999747 1 1 0.999747
0.999703 1 1 0.999703
0.999701 1 1 0.999701
0.999696 1 1 0.999696
0.999682 1 1 0.999682
0.999747 1 1 0.999747
0.999694 1 1 0.999694
0.999696 1 1 0.999696
0.999661 1 1 0.999661
0.999659 1 1 0.999659
1.01202 1.01284 0.999269 0.999915
1.01345 1.01595 0.997581 0.999954
1.00948 1.01162 0.997904 0.999979
0.997974 1.01413 0.984226 0.999837
0.981693 0.99972 0.982515 0.999443
0.983462 0.992734 0.991553 0.999099
0.978619 0.98262 0.998068 0.997856
0.989135 0.987435 1.00249 0.999238
0.975836 0.981645 0.996275 0.997799
0.981333 0.997174 0.984866 0.999237
0.984271 1.00365 0.980842 0.999844
1.00898 0.985465 1.02458 0.999299
0.981773 0.984074 0.999788 0.997872
0.961686 0.98105 0.981265 0.998979
0.958616 0.98183 0.976564 0.999788
0.999662 1 1 0.999662
0.999623 1 1 0.999623
0.999639 1 1 0.999639
1.0028 0.995204 1.00784 0.999793
1.00013 1 1.00041 0.99972
0.999579 1 1 0.999579
0.999519 1 1 0.999519
0.999564 1 1.00003 0.999531
1.00395 1 1.00444 0.99951
1.02348 0.994912 1.02882 0.999898
1.00388 1 1.00435 0.999527
1.01276 0.999006 1.01406 0.999717
1.01222 1.01227 1 0.999952
1.00424 1.00435 0.999897 0.999993
0.998852 0.998807 1.00004 1
1.02687 0.99905 1.028 0.999852
0.987649 0.992632 0.995571 0.999407
1.00706 1.00734 0.999736 0.999987
0.982527 0.981797 1.00349 0.99726
0.966522 0.980685 0.986578 0.998967
1.01617 1.01709 0.999172 0.999919
0.951658 0.975315 0.97595 0.99979
1.00963 1 1.00979 0.999843
1.01251 1.01263 0.999932 0.999949
0.970476 0.979986 0.990431 0.999863
0.977021 0.993771 0.9836 0.999537
0.948902 0.963741 0.985619 0.998969
0.985163 0.979427 1.00854 0.997337
0.991358 1.00028 0.991366 0.999711
0.988349 0.990083 0.998354 0.999895
0.942976 0.9568 0.986581 0.998957
0.975924 0.973721 1.00467 0.997603
0.985544 0.99968 0.986324 0.99953
1.02046 1 1.02091 0.999567
1.02139 1 1.02191 0.999493
1.01162 1 1.01222 0.999414
1.01086 1 1.01137 0.999495
1.00739 1 1.008 0.999395
1.0018 1 1.00242 0.999387
1.00414 1 1.00474 0.999406
1.00214 1 1.00275 0.999392
0.999488 1 1 0.999488
1.00035 1 1.0009 0.999445
0.999781 1 1.00031 0.99947
0.999557 1 1 0.999557
0.999597 1 1 0.999597
0.999577 1 1 0.999577
0.99954 1 1 0.99954
0.999664 1 1 0.999664
0.999591 1 1 0.999591
0.999517 1 1 0.999517
0.999752 1 1 0.999752
0.999713 1 1 0.999713
0.999665 1 1 0.999665
0.999814 1 1 0.999814
0.999749 1 1 0.999749
0.999721 1 1 0.999721
0.999949 1 1 0.999949
0.999827 1 1 0.999827
0.999761 1 1 0.999761
1 1 1 1
0.999959 1 1 0.999959
0.999835 1 1 0.999835
1 1 1 1
1 1 1 1
0.999965 1 1 0.999965
1 1 1 1
1 1 1 1
1 1 1 1
0.999736 1 1 0.999736
0.999827 1 1 0.999827
0.999743 1 1 0.999743
0.99997 1 1 0.99997
0.99984 1 1 0.99984
1 1 1 1
0.999978 1 1 0.999978
0.999855 1 1 0.999855
1 1 1 1
1 1 1 1
0.999986 1 1 0.999986
1 1 1 1
1 1 1 1
1 1 1 1
1.0124 1.01245 1 0.999949
1.00696 1.00745 0.999521 0.999988
1.00023 1.00011 1.00012 1
0.999711 1 1 0.999711
0.99975 1 1 0.99975
0.999699 1 1 0.999699
0.999701 1 1 0.999701
0.999705 1 1 0.999705
0.999682 1 1 0.999682
0.999675 1 1 0.999675
0.999667 1 1 0.999667
0.999697 1 1 0.999697
0.999661 1 1 0.999661
0.999659 1 1 0.999659
0.999649 1 1 0.999649
0.971017 0.982706 0.988281 0.999822
1.01208 1.01304 0.999134 0.999914
1.01482 1.01752 0.997387 0.999954
0.981544 1.00025 0.981485 0.999815
0.979438 0.996905 0.983478 0.998984
0.974681 0.983135 0.993654 0.997733
0.991136 0.98389 1.00749 0.999875
1.00961 0.98506 1.02502 0.999907
0.955284 0.977842 0.977132 0.999794
0.983333 0.985045 1.00076 0.997509
0.9639 0.980361 0.983659 0.999543
1.00248 0.993622 1.00905 0.999868
0.982 0.979021 1.00517 0.997886
0.944884 0.959327 0.98541 0.999528
1.00014 1 1.00041 0.999729
0.999663 1 1 0.999663
0.999626 1 1 0.999626
1.02373 0.996811 1.02711 0.999899
1.00457 1 1.00506 0.999505
0.999586 1 1.00005 0.999536
1.00417 1 1.00465 0.99953
1.01181 0.999584 1.01251 0.99972
1.0091 1 1.00939 0.999715
0.987217 0.990016 0.997345 0.999828
1.01142 1.01147 0.999993 0.999956
1.00296 1.003 0.99996 0.999995
1.00963 1 1.00979 0.999849
0.976689 0.995396 0.98144 0.999763
1.01235 1.01269 0.999712 0.999949
0.989375 0.980949 1.01036 0.998248
0.95231 0.965989 0.986321 0.999512
0.967442 0.979955 0.987416 0.999812
0.989359 1.00103 0.988622 0.999712
0.983698 0.988357 0.995454 0.999832
0.948234 0.957859 0.990433 0.999514
0.98536 0.999892 0.986463 0.998989
0.97844 0.975941 1.00493 0.997647
0.98718 1.00817 0.97967 0.999499
0.95278 0.961881 0.991034 0.999501
0.973631 0.973214 1.00264 0.997795
0.987548 1.00462 0.984024 0.998966
1.02331 1 1.02383 0.999492
1.01054 1 1.01113 0.999417
1.00251 1 1.00305 0.999455
1.0072 1 1.0078 0.999399
1.00177 1 1.00238 0.99939
0.999576 1 1 0.999576
1.00162 1 1.00223 0.999395
0.999588 1 1.00009 0.999496
0.999663 1 1 0.999663
0.999578 1 1.0001 0.999475
0.999561 1 1 0.999561
0.999676 1 1 0.999676
0.99968 1 1 0.99968
0.999607 1 1 0.999607
0.999605 1 1 0.999605
0.999631 1 1 0.999631
0.999585 1 1 0.999585
0.999544 1 1 0.999544
0.999732 1 1 0.999732
0.999663 1 1 0.999663
0.999579 1 1 0.999579
0.999808 1 1 0.999808
0.999751 1 1 0.999751
0.99972 1 1 0.99972
0.999936 1 1 0.999936
0.999815 1 1 0.999815
0.999749 1 1 0.999749
1 1 1 1
0.999949 1 1 0.999949
0.999827 1 1 0.999827
1 1 1 1
1 1 1 1
0.999959 1 1 0.999959
1 1 1 1
1 1 1 1
1 1 1 1
0.999747 1 1 0.999747
0.999738 1 1 0.999738
0.999815 1 1 0.999815
0.999961 1 1 0.999961
0.999826 1 1 0.999826
0.99974 1 1 0.99974
1 1 1 1
0.999971 1 1 0.999971
0.999839 1 1 0.999839
1 1 1 1
1 1 1 1
0.99998 1 1 0.99998
1 1 1 1
1 1 1 1
1 1 1 1
0.986181 0.988253 0.998009 0.999894
1.01357 1.01362 1 0.999949
1.00674 1.00723 0.999523 0.999988
0.999708 1 1 0.999708
0.999723 1 1 0.999723
0.99969 1 1 0.99969
0.999707 1 1 0.999707
0.999709 1 1 0.999709
0.999682 1 1 0.999682
0.999669 1 1 0.999669
0.999677 1 1 0.999677
0.999653 1 1 0.999653
0.999659 1 1 0.999659
0.999659 1 1 0.999659
0.99965 1 1 0.99965
0.948253 0.958133 0.990146 0.999538
0.970693 0.981206 0.989442 0.999842
1.01234 1.01333 0.999119 0.999913
0.952198 0.974463 0.977346 0.999801
0.959745 0.978389 0.981933 0.998993
0.988562 0.988927 1.00125 0.998386
1.01505 0.98529 1.03095 0.99928
1.00261 0.99335 1.01007 0.999257
0.946192 0.961165 0.985374 0.999034
0.985757 0.982741 1.00495 0.998126
0.998218 0.993192 1.00582 0.999242
0.978345 0.976419 1.00413 0.997854
1.00782 1 1.00819 0.999638
0.999995 1 1.00027 0.999729
0.999664 1 1 0.999664
1.01062 1 1.0109 0.999723
1.00447 1 1.00494 0.999532
1.00889 1 1.00918 0.999712
1.00167 1.00058 1.00146 0.999628
0.956649 0.965982 0.990929 0.999404
0.987882 0.989868 0.99813 0.999864
1.01052 1.01061 0.999952 0.999961
0.986671 1.00122 0.985751 0.999715
0.984702 0.998588 0.986512 0.999577
0.985877 0.989343 0.996667 0.999829
0.977756 0.97453 1.00568 0.997639
0.945487 0.957878 0.988075 0.998977
0.989209 1.00739 0.982422 0.999522
0.955479 0.963318 0.99264 0.999217
0.974514 0.972148 1.00473 0.997716
0.986983 1.00349 0.984024 0.999519
0.994345 1.01242 0.982748 0.999389
0.964851 0.967187 1.00026 0.997328
0.992849 1.00177 0.991421 0.999669
1.00998 1 1.01057 0.99942
1.00236 1 1.00291 0.999447
0.999167 1.00031 0.999258 0.999595
1.00166 1 1.00226 0.999393
0.999483 1 0.999906 0.999577
0.999209 1 0.999403 0.999806
0.999625 1 1.00012 0.999505
0.999665 1 1 0.999665
0.999788 1 1 0.999788
0.999564 1 1 0.999564
0.999676 1 1 0.999676
0.999744 1 1 0.999744
0.99972 1 1 0.99972
0.999689 1 1 0.999689
0.999669 1 1 0.999669
0.999638 1 1 0.999638
0.999609 1 1 0.999609
0.999613 1 1 0.999613
0.99969 1 1 0.99969
0.99964 1 1 0.99964
0.999593 1 1 0.999593
0.999795 1 1 0.999795
0.999731 1 1 0.999731
0.999662 1 1 0.999662
0.999921 1 1 0.999921
0.999808 1 1 0.999808
0.99975 1 1 0.99975
1 1 1 1
0.999935 1 1 0.999935
0.999815 1 1 0.999815
1 1 1 1
1 1 1 1
0.999948 1 1 0.999948
1 1 1 1
1 1 1 1
1 1 1 1
0.999751 1 1 0.999751
0.999741 1 1 0.999741
0.999807 1 1 0.999807
0.999741 1 1 0.999741
0.999815 1 1 0.999815
0.999949 1 1 0.999949
1 1 1 1
0.999962 1 1 0.999962
0.999826 1 1 0.999826
1 1 1 1
1 1 1 1
0.999972 1 1 0.999972
1 1 1 1
1 1 1 1
1 1 1 1
0.958595 0.963716 0.995629 0.999053
0.984283 0.987631 0.996745 0.999864
1.01477 1.01482 1 0.999948
0.999704 1 1 0.999704
0.999689 1 1 0.999689
0.999726 1 1 0.999726
0.999728 1 1 0.999728
0.999697 1 1 0.999697
0.999671 1 1 0.999671
0.999679 1 1 0.999679
0.999655 1 1 0.999655
0.999683 1 1 0.999683
0.999645 1 1 0.999645
0.999865 1 1.00026 0.999608
0.999654 1 1 0.999654
0.99965 1 1 0.99965
0.975105 0.97684 1.00086 0.997363
0.952036 0.960715 0.991665 0.999295
0.971664 0.982207 0.989448 0.999817
0.946981 0.96173 0.985097 0.999561
0.982151 0.978805 1.00619 0.997249
1.00559 0.994149 1.01163 0.999879
0.99922 0.994485 1.00521 0.999558
0.979207 0.977537 1.00379 0.997922
0.992659 0.999119 0.994196 0.999334
1.00631 1.00124 1.0057 0.999367
1.00629 1 1.00666 0.99963
0.999728 1 1 0.999728
1.00775 1 1.00804 0.99971
1.00069 1.00083 1.00017 0.999696
0.960736 0.965271 0.997455 0.99784
0.958039 0.965308 0.993462 0.999001
0.988562 0.989739 0.998909 0.999902
0.990707 1.00691 0.98436 0.999545
0.991291 1.00818 0.984266 0.998966
0.957986 0.963371 0.995409 0.998998
0.975947 0.971796 1.00651 0.997772
0.991369 1.01103 0.981156 0.999385
0.968256 0.968883 1.00149 0.997861
0.991529 1.0042 0.988273 0.999099
0.986506 1.00996 0.977367 0.999392
0.998133 0.993069 1.00537 0.999733
1.0016 1 1.00216 0.999439
0.998399 1.00033 0.998477 0.999589
0.997103 1.0007 0.996675 0.999733
0.999315 1 0.999738 0.999577
0.998948 1 0.999144 0.999804
0.998933 1 0.99908 0.999853
0.999666 1 1 0.999666
0.999775 1 0.999994 0.999782
0.999773 1 0.999987 0.999786
0.999675 1 1 0.999675
0.999739 1 1 0.999739
0.999732 1 1 0.999732
0.99973 1 1 0.99973
0.999694 1 1 0.999694
0.999698 1 1 0.999698
0.999668 1 1 0.999668
0.999661 1 1 0.999661
0.999671 1 1 0.999671
0.999636 1 1 0.999636
0.99961 1 1 0.99961
0.99977 1 1 0.99977
0.999696 1 1 0.999696
0.999648 1 1 0.999648
0.999907 1 1 0.999907
0.999795 1 1 0.999795
0.99973 1 1 0.99973
1 1 1 1
0.999921 1 1 0.999921
0.999809 1 1 0.999809
1 1 1 1
1 1 1 1
0.999935 1 1 0.999935
1 1 1 1
1 1 1 1
1 1 1 1
0.999743 1 1 0.999743
0.999751 1 1 0.999751
0.999795 1 1 0.999795
0.999735 1 1 0.999735
0.999802 1 1 0.999802
0.999934 1 1 0.999934
0.999815 1 1 0.999815
0.999949 1 1 0.999949
1 1 1 1
1 1 1 1
1 1 1 1
0.999962 1 1 0.999962
1 1 1 1
1 1 1 1
1 1 1 1
0.968942 0.970669 1.00031 0.997913
0.95724 0.965825 0.991638 0.999469
0.986691 0.988893 0.997882 0.99989
0.999688 1 1 0.999688
0.999729 1 1 0.999729
0.999699 1 1 0.999699
0.999729 1 1 0.999729
0.999719 1 1 0.999719
0.99971 1 1 0.99971
0.999656 1 1 0.999656
0.999679 1 1 0.999679
0.999646 1 1 0.999646
0.999674 1 1 0.999674
0.999624 1 1 0.999624
0.999527 1 1.00011 0.999412
0.999665 1 1.00006 0.999608
0.999649 1 1 0.999649
0.991087 0.994079 0.997342 0.999647
0.972275 0.973864 1.00052 0.997848
0.948621 0.959685 0.989456 0.999004
0.976757 0.97529 1.00371 0.997802
0.997386 0.994008 1.00352 0.999879
0.993183 0.997061 0.996323 0.999787
0.996905 1.00419 0.993324 0.99942
1.0033 1.00052 1.00337 0.999407
1.00525 1 1.00563 0.999621
0.998505 1.00081 0.997932 0.999762
0.987982 0.986386 1.00245 0.999174
0.96522 0.966874 1.00035 0.997938
0.957291 0.965726 0.991776 0.999485
0.98967 1.00946 0.981002 0.999382
0.996358 1.00773 0.989086 0.999622
0.968677 0.96849 1.00178 0.998412
0.986641 1.00773 0.979666 0.999398
0.993699 0.993997 1.00018 0.999522
0.984936 1.00353 0.981916 0.99955
1.002 1.00004 1.00249 0.999466
0.997263 1.00022 0.997457 0.999584
0.996547 1.00052 0.99629 0.999734
0.997252 1.0002 0.997308 0.999741
0.998841 1 0.999038 0.999802
0.999062 1 0.999214 0.999848
0.999539 1 0.999799 0.99974
0.999775 1 1 0.999775
0.99978 1 1 0.99978
0.999696 1 1 0.999696
0.999735 1 1 0.999735
0.999734 1 1 0.999734
0.999677 1 1 0.999677
0.999739 1 1 0.999739
0.9997 1 1 0.9997
0.999667 1 1 0.999667
0.999666 1 1 0.999666
0.999659 1 1 0.999659
0.999678 1 1 0.999678
0.999735 1 1 0.999735
0.999676 1 1 0.999676
0.999634 1 1 0.999634
0.999885 1 1 0.999885
0.99977 1 1 0.99977
0.999701 1 1 0.999701
1 1 1 1
0.999906 1 1 0.999906
0.999795 1 1 0.999795
1 1 1 1
1 1 1 1
0.999921 1 1 0.999921
1 1 1 1
1 1 1 1
1 1 1 1
0.999737 1 1 0.999737
0.999748 1 1 0.999748
0.99979 1 1 0.99979
0.999751 1 1 0.999751
0.999794 1 1 0.999794
0.999921 1 1 0.999921
0.999797 1 1 0.999797
0.999934 1 1 0.999934
1 1 1 1
0.999949 1 1 0.999949
1 1 1 1
1 1 1 1
1 1 1 1
1 1 1 1
1 1 1 1
0.984463 0.986272 0.998582 0.999584
0.964563 0.967849 0.99873 0.997873
0.954492 0.964287 0.990833 0.998999
0.999697 1 1 0.999697
0.9997 1 1 0.9997
0.999729 1 1 0.999729
0.999709 1 1 0.999709
0.999718 1 1 0.999718
0.999733 1 1 0.999733
0.999675 1 1 0.999675
0.999647 1 1 0.999647
0.99968 1 1 0.99968
0.999643 1 1 0.999643
0.999517 1 1 0.999517
0.999375 1.00012 1 0.999259
0.999547 1 1.00013 0.999418
0.999609 1 1 0.999609
0.996521 1.0007 0.996382 0.999444
0.991743 0.995444 0.996885 0.999395
0.973915 0.974818 1.00072 0.998358
0.996253 0.998571 0.998425 0.999253
1.00047 1.0044 0.996742 0.999336
1.00176 1 1.00231 0.999448
0.999739 1 1.00002 0.99972
0.988929 0.985341 1.00397 0.999668
0.962624 0.966694 0.997922 0.997864
0.986287 1.0054 0.981571 0.999403
0.990017 0.994537 0.996162 0.99929
0.988622 1.00285 0.986279 0.99953
1.00092 1.00004 1.00136 0.99953
0.999489 1.00049 0.999492 0.999504
0.999463 1 1 0.999463
0.996154 1.00047 0.995951 0.999735
0.99813 1.00025 0.998138 0.999743
0.999628 1 1 0.999628
0.999227 1 0.999384 0.999843
0.999695 1 0.999957 0.999738
0.999624 1 1 0.999624
0.999775 1 1 0.999775
0.999705 1 1 0.999705
0.999619 1 1 0.999619
0.999737 1 1 0.999737
0.999678 1 1 0.999678
0.999643 1 1 0.999643
0.999705 1 1 0.999705
0.999669 1 1 0.999669
0.999666 1 1 0.999666
0.999658 1 1 0.999658
0.999674 1 1 0.999674
0.999723 1 1 0.999723
0.99986 1 1 0.99986
0.999741 1 1 0.999741
0.999682 1 1 0.999682
0.999998 1 1 0.999998
0.999885 1 1 0.999885
0.999769 1 1 0.999769
1 1 1 1
1 1 1 1
0.999906 1 1 0.999906
1 1 1 1
1 1 1 1
1 1 1 1
0.999716 1 1 0.999716
0.999738 1 1 0.999738
0.999786 1 1 0.999786
0.999752 1 1 0.999752
0.999793 1 1 0.999793
0.999909 1 1 0.999909
0.999794 1 1 0.999794
0.999921 1 1 0.999921
1 1 1 1
0.999934 1 1 0.999934
1 1 1 1
1 1 1 1
1 1 1 1
1 1 1 1
1 1 1 1
0.997996 1.00085 0.997452 0.999693
0.984723 0.987573 0.998008 0.999105
0.965764 0.968098 0.999659 0.99793
0.999708 1 1 0.999708
0.99964 1 1 0.99964
0.9997 1 1 0.9997
0.999709 1 1 0.999709
0.999716 1 1 0.999716
0.999727 1 1 0.999727
0.999567 1 1 0.999567
0.999687 1 1 0.999687
0.999663 1 1 0.999663
0.999521 1 1 0.999521
0.999345 1 1 0.999345
0.999702 1.00055 0.999714 0.999439
0.999544 1.00027 1 0.99927
0.999424 1 1 0.999424
0.998464 1.00246 0.996551 0.999462
0.990488 0.994916 0.996435 0.999111
1.00254 1.00453 0.998771 0.999252
0.999718 1 1 0.999718
1.00089 1 1.00116 0.999732
0.987189 0.98512 1.00298 0.999123
0.992753 1.0025 0.990765 0.99951
0.999865 1 1.00027 0.999596
0.999378 1.00068 0.999187 0.999515
0.999493 1 1 0.999493
0.999518 1 1 0.999518
0.999643 1 1 0.999643
0.999001 1.00031 0.998947 0.999745
0.999633 1 1 0.999633
0.999538 1 1 0.999538
0.999736 1 1 0.999736
0.999627 1 1 0.999627
0.99956 1 1 0.99956
0.999714 1 1 0.999714
0.999618 1 1 0.999618
0.999591 1 1 0.999591
0.999678 1 1 0.999678
0.999642 1 1 0.999642
0.999642 1 1 0.999642
0.999671 1 1 0.999671
0.999667 1 1 0.999667
0.999708 1 1 0.999708
0.99967 1 1 0.99967
0.999721 1 1 0.999721
0.999837 1 1 0.999837
0.999993 1 1 0.999993
0.99986 1 1 0.99986
0.999747 1 1 0.999747
1 1 1 1
0.999997 1 1 0.999997
0.999884 1 1 0.999884
1 1 1 1
0.999999 1 1 0.999999
1 1 1 1
0.99967 1 1 0.99967
0.999711 1 1 0.999711
0.999768 1 1 0.999768
0.999738 1 1 0.999738
0.999785 1 1 0.999785
0.999896 1 1 0.999896
0.999796 1 1 0.999796
0.999909 1 1 0.999909
1 1 1 1
0.999921 1 1 0.999921
1 1 1 1
1 1 1 1
1 1 1 1
1 1 1 1
1 1 1 1
0.99937 1 0.999688 0.999682
0.997388 1.00024 0.99744 0.999703
0.984154 0.986214 0.998319 0.999591
0.999608 1 1 0.999608
0.999733 1 1 0.999733
0.999555 1 1 0.999555
0.999636 1 1 0.999636
0.999704 1 1 0.999704
0.999423 1 1 0.999423
0.999722 1 1 0.999722
0.999566 1 1 0.999566
0.999422 1 1 0.999422
0.999525 1 1 0.999525
0.99933 1 1 0.99933
0.999538 1.00028 0.999822 0.999434
0.999415 1.00013 1 0.999281
0.99992 1.00353 0.996917 0.99948
0.999736 1 1 0.999736
0.999713 1 1 0.999713
1.00199 1 1.00224 0.999744
0.999241 1.00081 0.998911 0.999525
0.999523 1 1 0.999523
0.999512 1 1 0.999512
0.999647 1 1 0.999647
0.999608 1 1 0.999608
0.999638 1 1 0.999638
0.999543 1 1 0.999543
0.999531 1 1 0.999531
0.99963 1 1 0.99963
0.999557 1 1 0.999557
0.999543 1 1 0.999543
0.999618 1 1 0.999618
0.99959 1 1 0.99959
0.999599 1 1 0.999599
0.999642 1 1 0.999642
0.999641 1 1 0.999641
0.99968 1 1 0.99968
0.999667 1 1 0.999667
0.999708 1 1 0.999708
0.999816 1 1 0.999816
0.999719 1 1 0.999719
0.999837 1 1 0.999837
0.999985 1 1 0.999985
1 1 1 1
0.99999 1 1 0.99999
0.99986 1 1 0.99986
1 1 1 1
0.999995 1 1 0.999995
1 1 1 1
0.999572 1 1 0.999572
0.999628 1 1 0.999628
0.999664 1 1 0.999664
0.999746 1 1 0.999746
0.999705 1 1 0.999705
0.999769 1 1 0.999769
0.999883 1 1 0.999883
0.999785 1 1 0.999785
0.999896 1 1 0.999896
0.999999 1 1 0.999999
0.999909 1 1 0.999909
1 1 1 1
1 1 1 1
1 1 1 1
1 1 1 1
1 1 1 1
0.999621 1 1 0.999621
0.999841 1.00035 0.999816 0.999678
0.997516 1.00038 0.997427 0.999713
0.999478 1 1 0.999478
0.999632 1 1 0.999632
0.999757 1 1 0.999757
0.999565 1 1 0.999565
0.999632 1 1 0.999632
0.999401 1 1 0.999401
0.999411 1 1 0.999411
0.999564 1 1 0.999564
0.999416 1 1 0.999416
0.999314 1 1 0.999314
1.00004 1.00069 0.999918 0.999428
0.999694 1 1 0.999694
0.999731 1 1 0.999731
0.999708 1 1 0.999708
0.999506 1 1 0.999506
0.999652 1 1 0.999652
0.999608 1 1 0.999608
0.999595 1 1 0.999595
0.999549 1 1 0.999549
0.999527 1 1 0.999527
0.999544 1 1 0.999544
0.999554 1 1 0.999554
0.999542 1 1 0.999542
0.99956 1 1 0.99956
0.999589 1 1 0.999589
0.999598 1 1 0.999598
0.999643 1 1 0.999643
0.999641 1 1 0.999641
0.99968 1 1 0.99968
0.999788 1 1 0.999788
0.999708 1 1 0.999708
0.999815 1 1 0.999815
0.999977 1 1 0.999977
0.999837 1 1 0.999837
0.999982 1 1 0.999982
1 1 1 1
1 1 1 1
0.999988 1 1 0.999988
1 1 1 1
0.999498 1 1 0.999498
0.999621 1 1 0.999621
0.999605 1 1 0.999605
0.999709 1 1 0.999709
0.999628 1 1 0.999628
0.999659 1 1 0.999659
0.999746 1 1 0.999746
0.999866 1 1 0.999866
0.99977 1 1 0.99977
0.999883 1 1 0.999883
0.999997 1 1 0.999997
0.999896 1 1 0.999896
1 1 1 1
1 1 1 1
1 1 1 1
1 1 1 1
1 1 1 1
0.999556 1 1 0.999556
0.999621 1 1 0.999621
0.999943 1.00031 0.999956 0.999674
0.999434 1 1 0.999434
0.999479 1 1 0.999479
0.999655 1 1 0.999655
0.999576 1 1 0.999576
0.999402 1 1 0.999402
0.9994 1 1 0.9994
0.999411 1 1 0.999411
0.999642 1 1 0.999642
0.999677 1 1 0.999677
0.999725 1 1 0.999725
0.999588 1 1 0.999588
0.999608 1 1 0.999608
0.999593 1 1 0.999593
0.999578 1 1 0.999578
0.999523 1 1 0.999523
0.999545 1 1 0.999545
0.999553 1 1 0.999553
0.999541 1 1 0.999541
0.99956 1 1 0.99956
0.999611 1 1 0.999611
0.999597 1 1 0.999597
0.999643 1 1 0.999643
0.999755 1 1 0.999755
0.99968 1 1 0.99968
0.999787 1 1 0.999787
0.99997 1 1 0.99997
0.999815 1 1 0.999815
0.999975 1 1 0.999975
1 1 1 1
0.99998 1 1 0.99998
1 1 1 1
1 1 1 1
0.999455 1 1 0.999455
0.999546 1 1 0.999546
0.999511 1 1 0.999511
0.999682 1 1 0.999682
0.999619 1 1 0.999619
0.999639 1 1 0.999639
0.999831 1 1 0.999831
0.999709 1 1 0.999709
0.999628 1 1 0.999628
0.999747 1 1 0.999747
0.999866 1 1 0.999866
0.99999 1 1 0.99999
0.999884 1 1 0.999884
0.999998 1 1 0.999998
1 1 1 1
1 1 1 1
1 1 1 1
1 1 1 1
0.999534 1 1 0.999534
0.999543 1 1 0.999543
0.999621 1 1 0.999621
0.999427 1 1 0.999427
0.999479 1 1 0.999479
0.999403 1 1 0.999403
0.999588 1 1 0.999588
0.999644 1 1 0.999644
0.999659 1 1 0.999659
0.999585 1 1 0.999585
0.99957 1 1 0.99957
0.99959 1 1 0.99959
0.999578 1 1 0.999578
0.999577 1 1 0.999577
0.999545 1 1 0.999545
0.999554 1 1 0.999554
0.999597 1 1 0.999597
0.99956 1 1 0.99956
0.999611 1 1 0.999611
0.999728 1 1 0.999728
0.999643 1 1 0.999643
0.999754 1 1 0.999754
0.999963 1 1 0.999963
0.999787 1 1 0.999787
0.999968 1 1 0.999968
1 1 1 1
0.999973 1 1 0.999973
1 1 1 1
1 1 1 1
0.99953 1 1 0.99953
0.999491 1 1 0.999491
0.999451 1 1 0.999451
0.999622 1 1 0.999622
0.999552 1 1 0.999552
0.999524 1 1 0.999524
0.999789 1 1 0.999789
0.99967 1 1 0.99967
0.999616 1 1 0.999616
0.999978 1 1 0.999978
0.999832 1 1 0.999832
0.999708 1 1 0.999708
0.999866 1 1 0.999866
0.999992 1 1 0.999992
1 1 1 1
0.999999 1 1 0.999999
1 1 1 1
1 1 1 1
0.999529 1 1 0.999529
0.999529 1 1 0.999529
0.999529 1 1 0.999529
0.999419 1 1 0.999419
0.999553 1 1 0.999553
0.999593 1 1 0.999593
0.999647 1 1 0.999647
0.999582 1 1 0.999582
0.999571 1 1 0.999571
0.999583 1 1 0.999583
0.999578 1 1 0.999578
0.999578 1 1 0.999578
0.999601 1 1 0.999601
0.999556 1 1 0.999556
0.999598 1 1 0.999598
0.999715 1 1 0.999715
0.99961 1 1 0.99961
0.999728 1 1 0.999728
0.999957 1 1 0.999957
0.999754 1 1 0.999754
0.999961 1 1 0.999961
1 1 1 1
0.999966 1 1 0.999966
1 1 1 1
1 1 1 1
0.99954 1 1 0.99954
0.999531 1 1 0.999531
0.99953 1 1 0.99953
0.999559 1 1 0.999559
0.999501 1 1 0.999501
0.999447 1 1 0.999447
0.999727 1 1 0.999727
0.999621 1 1 0.999621
0.999559 1 1 0.999559
0.999963 1 1 0.999963
0.999778 1 1 0.999778
0.999657 1 1 0.999657
1 1 1 1
0.999982 1 1 0.999982
0.999832 1 1 0.999832
0.999994 1 1 0.999994
1 1 1 1
1 1 1 1
0.999541 1 1 0.999541
0.999538 1 1 0.999538
0.999525 1 1 0.999525
0.999559 1 1 0.999559
0.999551 1 1 0.999551
0.999597 1 1 0.999597
0.999572 1 1 0.999572
0.999584 1 1 0.999584
0.999623 1 1 0.999623
0.999579 1 1 0.999579
0.99961 1 1 0.99961
0.999698 1 1 0.999698
0.999599 1 1 0.999599
0.999715 1 1 0.999715
0.999952 1 1 0.999952
0.999727 1 1 0.999727
0.999956 1 1 0.999956
1 1 1 1
0.999959 1 1 0.999959
1 1 1 1
1 1 1 1
0.999545 1 1 0.999545
0.999558 1 1 0.999558
0.99954 1 1 0.99954
0.999576 1 1 0.999576
0.999534 1 1 0.999534
0.99953 1 1 0.99953
0.999687 1 1 0.999687
0.999573 1 1 0.999573
0.999512 1 1 0.999512
0.999952 1 1 0.999952
0.999721 1 1 0.999721
0.999621 1 1 0.999621
1 1 1 1
0.999968 1 1 0.999968
0.999767 1 1 0.999767
1 1 1 1
0.999986 1 1 0.999986
1 1 1 1
0.999555 1 1 0.999555
0.999541 1 1 0.999541
0.999547 1 1 0.999547
0.9996 1 1 0.9996
0.999559 1 1 0.999559
0.99955 1 1 0.99955
0.999584 1 1 0.999584
0.999623 1 1 0.999623
0.999696 1 1 0.999696
0.999619 1 1 0.999619
0.999705 1 1 0.999705
0.999946 1 1 0.999946
0.999715 1 1 0.999715
0.999951 1 1 0.999951
1 1 1 1
0.999954 1 1 0.999954
1 1 1 1
1 1 1 1
0.999566 1 1 0.999566
0.999541 1 1 0.999541
0.999592 1 1 0.999592
0.999559 1 1 0.999559
0.99954 1 1 0.99954
0.999694 1 1 0.999694
0.999575 1 1 0.999575
0.999538 1 1 0.999538
0.999945 1 1 0.999945
0.999693 1 1 0.999693
0.999586 1 1 0.999586
1 1 1 1
0.999955 1 1 0.999955
0.999716 1 1 0.999716
1 1 1 1
0.999972 1 1 0.999972
1 1 1 1
0.999599 1 1 0.999599
0.999556 1 1 0.999556
0.999542 1 1 0.999542
0.999682 1 1 0.999682
0.9996 1 1 0.9996
0.999559 1 1 0.999559
0.999624 1 1 0.999624
0.999697 1 1 0.999697
0.999939 1 1 0.999939
0.999712 1 1 0.999712
0.999945 1 1 0.999945
1 1 1 1
0.99995 1 1 0.99995
1 1 1 1
1 1 1 1
0.999596 1 1 0.999596
0.999562 1 1 0.999562
0.999537 1 1 0.999537
0.999699 1 1 0.999699
0.999591 1 1 0.999591
0.999559 1 1 0.999559
0.999944 1 1 0.999944
0.999694 1 1 0.999694
0.999574 1 1 0.999574
1 1 1 1
0.999947 1 1 0.999947
0.9997 1 1 0.9997
1 1 1 1
0.999958 1 1 0.999958
1 1 1 1
0.999695 1 1 0.999695
0.999591 1 1 0.999591
0.999557 1 1 0.999557
0.999933 1 1 0.999933
0.999684 1 1 0.999684
0.9996 1 1 0.9996
0.999699 1 1 0.999699
0.999938 1 1 0.999938
1 1 1 1
0.999944 1 1 0.999944
1 1 1 1
1 1 1 1
0.9997 1 1 0.9997
0.999593 1 1 0.999593
0.999558 1 1 0.999558
0.999943 1 1 0.999943
0.999699 1 1 0.999699
0.999591 1 1 0.999591
1 1 1 1
0.999944 1 1 0.999944
0.999693 1 1 0.999693
1 1 1 1
0.999948 1 1 0.999948
1 1 1 1
0.999931 1 1 0.999931
0.999688 1 1 0.999688
0.999584 1 1 0.999584
1 1 1 1
0.999932 1 1 0.999932
0.999685 1 1 0.999685
0.999937 1 1 0.999937
1 1 1 1
1 1 1 1
0.999938 1 1 0.999938
0.9997 1 1 0.9997
0.999591 1 1 0.999591
1 1 1 1
0.999942 1 1 0.999942
0.999698 1 1 0.999698
1 1 1 1
0.999944 1 1 0.999944
1 1 1 1
0.999996 1 1 0.999996
0.999933 1 1 0.999933
0.999681 1 1 0.999681
1 1 1 1
0.999932 1 1 0.999932
1 1 1 1
0.999998 1 1 0.999998
0.999939 1 1 0.999939
0.9997 1 1 0.9997
1 1 1 1
0.999942 1 1 0.999942
1 1 1 1
1 1 1 1
0.999933 1 1 0.999933
1 1 1 1
0.999999 1 1 0.999999
0.999939 1 1 0.999939
1 1 1 1
1 1 1 1
1 1 1 1

VECTORS lamdaE float
0.998982 0.999719 0.997116
0.999176 0.998728 0.998904
0.998935 0.999773 0.997156
0.999012 1.00009 0.996826
0.998907 1.00001 0.997018
0.999105 0.999263 0.997293
0.999508 1.00043 0.995271
0.999207 0.998633 0.998931
0.998773 1.00001 0.998765
0.998988 0.999128 0.998895
0.999343 0.998299 0.997734
0.999516 1.00005 0.995384
0.9993 0.999956 0.996543
0.998955 1.00007 0.996928
0.998887 0.999828 0.9972
0.998953 1.00015 0.996874
0.999073 0.999273 0.997338
0.998854 1.00008 0.997056
0.999539 1.00041 0.995271
0.999241 0.999985 0.99851
0.999114 0.999997 0.996773
0.998913 1.00012 0.996929
0.999998 1.00019 0.994655
0.99962 1.00043 0.995086
0.999267 0.998695 0.997535
0.999416 1.0003 0.99554
1.00048 1.00106 0.992833
0.999241 0.998529 0.998959
0.998812 1.00004 0.997895
0.999028 0.999233 0.998117
0.999334 0.998194 0.999013
0.999478 1.0001 0.995385
0.998893 1.00032 0.996938
0.99892 0.999905 0.997192
0.999705 1.00046 0.995391
0.999428 0.997788 0.999135
0.999524 1.00022 0.995862
0.999521 0.999746 0.995668
1 1.00143 0.993094
0.999586 0.997364 0.999183
0.999281 1 0.998478
0.999016 1.00005 0.997764
0.99941 0.999989 0.998377
0.999059 0.999969 0.996834
1.00042 0.999963 0.993616
0.998868 1.00018 0.998715
1.00015 1.00008 0.995006
0.998893 1.00022 0.996921
0.998797 1.00016 0.997097
0.999039 0.999273 0.997386
0.99957 1.00039 0.995269
0.999229 0.999966 0.997577
0.999059 1.00002 0.996821
0.999245 0.998659 0.997579
0.998859 1.00019 0.996973
1.00003 1.00017 0.994652
0.999441 1.00029 0.995542
0.999658 1.00039 0.995086
1.00053 1.00107 0.992785
0.999323 0.999996 0.99844
0.999173 0.999957 0.99672
1.00037 0.999962 0.99465
1.00016 1.00001 0.994535
0.99978 1.00035 0.994881
1.00161 1.00022 0.991591
1.00081 1.00071 0.992357
0.999452 0.998126 0.99777
0.999379 0.999983 0.99592
1.00012 1.00134 0.993208
1.0011 1.00105 0.991367
0.998839 0.999879 0.998739
0.99937 0.998095 0.999055
0.999072 0.999026 0.998877
0.999437 1.00015 0.995386
0.998888 1.00016 0.998668
0.998891 0.999667 0.998778
0.999627 1.00056 0.994591
0.999447 0.997832 0.998521
0.999475 1.00035 0.995138
0.999505 0.999694 0.996032
0.999995 1.00144 0.993081
0.999518 0.997583 0.999145
0.999745 0.998588 0.996393
0.999853 1.0004 0.994353
0.999569 1.00052 0.994808
1.0008 1.0008 0.992155
0.999569 0.999266 0.996618
1.00016 1.00126 0.992974
0.999915 1.00148 0.993223
1.00039 1.00167 0.992072
0.999648 0.997137 0.999224
0.999594 0.997335 0.999196
0.999009 1.00008 0.998636
0.99922 1.00001 0.998522
0.999378 0.999994 0.998401
0.999118 1 0.997678
1.00041 0.999964 0.994135
0.998902 1.00014 0.997806
1.0001 1.00005 0.9946
0.99942 0.99999 0.998368
1.00057 0.999926 0.993343
1.00028 1.00001 0.994836
1.00216 0.99981 0.990462
0.999997 1.00021 0.995116
1.00175 1.0001 0.990998
0.999284 0.999931 0.996577
0.999004 1.00005 0.996867
0.99922 0.998607 0.997625
0.998799 1.00029 0.997017
1.00006 1.00015 0.994649
0.999698 1.00035 0.995084
0.999468 1.00029 0.995543
1.00058 1.00109 0.992736
0.999364 0.999995 0.998409
0.999124 0.999946 0.996776
1.0004 0.999936 0.993929
1.00019 1 0.994522
0.999408 0.998084 0.99841
0.999421 0.999959 0.996043
0.999818 1.00032 0.994883
1.00161 1.00021 0.991494
1.00018 1.00137 0.99315
1.00084 1.00073 0.992417
1.00109 1.00105 0.991374
1.00052 0.99997 0.993397
1.00024 0.99993 0.994475
1.00215 0.999754 0.990792
1.00183 0.999925 0.991208
1.00121 1.00044 0.991888
1.00239 1.00006 0.990069
0.999505 0.997727 0.999119
1.00142 1.00066 0.991093
0.999527 0.999539 0.995845
0.999874 1.00142 0.993269
1.00074 1.00154 0.991643
1.00147 1.00092 0.990775
0.999708 0.998795 0.996214
1.00006 1.00049 0.993911
0.998852 1.00009 0.998684
0.998912 0.999502 0.998813
0.99958 1.00063 0.994597
0.999466 0.997777 0.999126
0.999486 0.999691 0.99573
0.999409 1.00045 0.995125
0.999991 1.00145 0.993067
0.999529 0.99756 0.999157
0.999752 0.998551 0.996405
0.999818 1.00038 0.994805
0.999511 1.00051 0.99524
1.0008 1.00079 0.992166
0.999584 0.999231 0.996059
1.00015 1.00125 0.992973
0.999897 1.0015 0.993215
1.00039 1.00166 0.992048
0.999663 0.998905 0.996231
0.999813 0.998285 0.996573
1.00005 1.00046 0.993939
1.00119 1.00051 0.991683
1.00041 1.00109 0.992645
1.00142 1.00085 0.99093
0.999964 1.00115 0.993447
1.00062 1.00133 0.991955
1.0002 1.00206 0.992134
1.0005 1.00193 0.991664
0.999711 0.996908 0.999263
0.999656 0.997103 0.999236
0.999601 0.997303 0.999208
0.999769 0.998488 0.996421
0.999568 0.997502 0.999164
0.998917 1.00013 0.998657
0.999109 1.00003 0.998595
1.00009 1.00003 0.994171
1.00038 0.999952 0.993688
0.999342 0.999997 0.99843
0.999424 0.999993 0.998363
1.00056 0.999932 0.993353
1.00024 0.999989 0.994432
1.00216 0.999815 0.990463
0.999944 1.00021 0.994282
1.00174 1.00012 0.991003
1.00062 0.999934 0.993216
1.0024 0.999711 0.990089
1.00195 0.999934 0.99077
1.00297 0.999598 0.98914
1.0015 1.00029 0.991292
1.00251 0.999892 0.989758
0.999398 0.999993 0.99838
0.999074 0.999927 0.996832
1.0004 0.999923 0.993239
1.00021 0.999996 0.994509
0.999352 0.998034 0.99907
0.99946 0.999954 0.996166
0.999857 1.00027 0.994885
1.00161 1.0002 0.991396
1.00087 1.00076 0.992478
1.00024 1.0014 0.993092
1.00109 1.00105 0.991381
1.00053 0.999961 0.993386
1.00027 0.999921 0.994458
1.00213 0.999752 0.990602
1.00185 0.999964 0.99127
0.999485 0.997757 0.999104
0.999524 0.999544 0.996141
0.999932 1.00142 0.993384
1.0012 1.00045 0.991899
1.00238 1.00001 0.989957
1.00069 1.00155 0.991628
1.00147 1.00066 0.991131
1.00146 1.00092 0.990787
0.999693 0.998847 0.996207
1.00006 1.00047 0.993912
1.00238 0.999687 0.990162
1.00197 0.999801 0.991079
1.00295 0.99958 0.989432
1.00266 0.999647 0.989572
1.00183 1.00035 0.990701
1.00281 0.999677 0.989538
0.999614 0.999143 0.996028
1.00186 1.00039 0.990526
0.999882 1.00131 0.993396
1.00029 1.00176 0.992035
1.0011 1.00167 0.991025
1.00172 1.00066 0.990624
1.00004 1.00085 0.99361
1.00007 1.00005 0.99433
1.00022 1.00159 0.992532
0.999769 1.00044 0.994404
0.999539 0.997535 0.999169
0.999758 0.998516 0.996417
0.999438 1.00064 0.994871
1.00079 1.00078 0.992178
0.99958 0.999196 0.996044
0.999876 1.00152 0.993208
1.00014 1.00125 0.992972
1.0004 1.00165 0.992023
0.999673 0.998862 0.996238
0.999812 0.998261 0.996585
1.00005 1.00047 0.993939
1.00119 1.0005 0.991693
1.0004 1.00107 0.992656
1.00142 1.00085 0.990932
0.999935 1.0012 0.993446
1.00063 1.00133 0.991996
1.0002 1.00206 0.992129
1.00049 1.00193 0.991621
0.999867 0.998013 0.996743
1.00004 1.00077 0.993671
1.00006 1.00012 0.99428
1.00021 1.00152 0.992644
1.00187 1.00047 0.990426
1.00094 1.00117 0.991555
1.00176 1.0008 0.990309
1.00017 1.00195 0.992336
1.00082 1.00143 0.991551
1.00023 1.00263 0.991499
1.00061 1.00193 0.991295
1.00013 0.999118 0.995148
0.999952 0.997599 0.996987
0.999773 0.9967 0.999298
0.99972 0.996878 0.999274
0.999664 0.99707 0.999249
0.999813 0.998192 0.99664
0.999616 0.997273 0.999213
0.999761 0.998529 0.996406
0.999559 0.997526 0.999151
0.999942 1.0002 0.99429
1.00023 0.999961 0.993979
1.00173 1.00013 0.991007
1.00216 0.999821 0.990464
1.00055 0.999939 0.993363
0.999424 0.999997 0.998365
1.00063 0.99994 0.993212
1.0024 0.999709 0.990091
1.00194 0.999947 0.990771
1.00297 0.999604 0.98914
1.00149 1.0003 0.9913
1.00252 0.999889 0.989758
1.00249 0.999658 0.989968
1.00323 0.999507 0.988724
1.00275 0.999693 0.989484
1.00332 0.999297 0.988785
1.00222 1.00016 0.990058
1.00293 0.999515 0.989331
1.00054 0.999954 0.993374
1.00029 0.999923 0.994441
1.00211 0.999739 0.990413
1.00186 1 0.991331
0.999466 0.997787 0.999088
0.999529 0.999551 0.996426
0.999989 1.00142 0.993499
1.00119 1.00047 0.99191
1.00236 0.999966 0.989846
1.00151 1.00066 0.99117
1.00063 1.00155 0.991612
1.00145 1.00091 0.9908
0.999679 0.998899 0.9962
1.00007 1.00046 0.993914
1.00236 0.999681 0.9901
1.00197 0.999808 0.991076
1.00296 0.999555 0.989374
1.00267 0.999702 0.989691
0.999608 0.999187 0.996026
0.999908 1.00129 0.9934
1.0003 1.00175 0.992111
1.00187 1.00037 0.990691
1.0028 0.99961 0.989515
1.00105 1.00169 0.99094
1.00187 1.00038 0.990527
1.00169 1.00065 0.990615
1.00005 1.0008 0.993617
1.00022 1.00156 0.992528
1.00007 1.00006 0.994323
1.00317 0.999532 0.98905
1.00282 0.999566 0.989587
1.00335 0.999381 0.988759
1.00313 0.999303 0.989152
1.00222 0.999968 0.990127
1.00305 0.999109 0.989588
0.999952 1.00113 0.993475
1.00207 1.00004 0.990449
1.00021 1.0017 0.99244
1.00047 1.00214 0.99135
1.00128 1.00174 0.990472
1.00186 1.00038 0.990805
1.00009 0.99965 0.99469
1.00024 1.00158 0.992506
1.0002 1.00138 0.992694
1.00022 1.00212 0.992086
1.00118 1.0005 0.991703
0.999812 0.998237 0.996597
0.999684 0.998816 0.996246
1.00005 1.00048 0.99394
1.00039 1.00106 0.992668
1.00141 1.00086 0.990934
0.999906 1.00125 0.993444
1.00019 1.00206 0.992124
1.00064 1.00134 0.992039
1.00048 1.00193 0.991577
0.999863 0.997998 0.996753
1.00002 1.0008 0.993668
1.00006 1.00011 0.994285
1.0002 1.00153 0.992635
1.00187 1.00048 0.990421
1.00093 1.00118 0.991566
1.00176 1.0008 0.990312
1.00015 1.00196 0.99234
1.00083 1.00144 0.991595
1.00024 1.00264 0.991479
1.00059 1.00191 0.991419
0.999912 0.997786 0.996884
1.00007 0.999767 0.994596
1.00022 1.00165 0.992506
1.00019 1.00127 0.992907
1.00019 1.00219 0.991995
1.00225 1.00031 0.989843
1.00119 1.00121 0.991013
1.0019 1.00077 0.990086
1.00016 1.00267 0.991651
1.00093 1.00151 0.991261
1.00033 1.0029 0.990763
1.00012 0.999277 0.995012
1.00015 1.00022 0.994034
1.00014 0.99899 0.995261
1.00013 0.99913 0.995147
0.999976 0.997411 0.997524
0.999944 0.997582 0.99722
0.999862 0.996541 0.998433
0.999781 0.996672 0.999307
0.999728 0.996847 0.999285
0.99986 0.997931 0.996817
0.999668 0.997034 0.999261
0.999815 0.998216 0.996625
0.999612 0.997304 0.999198
0.999754 0.99857 0.996392
0.99955 0.997552 0.999138
1.00149 1.00031 0.991309
1.00193 0.999956 0.990771
1.00252 0.999894 0.989758
1.00298 0.99961 0.98914
1.0024 0.999707 0.990094
1.00063 0.999945 0.993209
1.00249 0.999654 0.989964
1.00323 0.999508 0.988728
1.00275 0.999702 0.989486
1.00335 0.999284 0.988747
1.00222 1.00016 0.990053
1.00293 0.999525 0.98933
1.00333 0.99946 0.988587
1.00354 0.999269 0.98835
1.00317 0.999302 0.989054
1.00354 0.999001 0.988721
1.00261 0.999889 0.989575
1.00314 0.998897 0.989533
1.00234 0.999676 0.990039
1.00198 0.999807 0.991073
1.00297 0.999534 0.989317
1.00267 0.999759 0.989809
0.999603 0.99923 0.996024
0.999934 1.00127 0.993405
1.0003 1.00174 0.992187
1.00191 1.0004 0.990682
1.00279 0.999541 0.989492
1.00187 1.00038 0.990527
1.001 1.0017 0.990854
1.00165 1.00063 0.990605
1.00006 1.00076 0.993623
1.00023 1.00153 0.992523
1.00006 1.00006 0.994316
1.00318 0.999518 0.988936
1.00283 0.999541 0.989587
1.00335 0.999352 0.988708
1.00314 0.999327 0.989172
0.999977 1.00108 0.993482
1.00024 1.00169 0.99243
1.00045 1.00214 0.99144
1.00224 1.00003 0.990161
1.00304 0.999 0.98964
1.00121 1.00181 0.990395
1.00208 1.00003 0.990453
1.00182 1.0003 0.990837
1.00025 1.00157 0.992518
1.00023 1.00212 0.992035
1.00008 0.999666 0.994682
1.00021 1.00132 0.992751
1.00352 0.999353 0.988362
1.00329 0.999278 0.988954
1.00354 0.999216 0.988479
1.00337 0.998888 0.989077
1.00248 0.999473 0.990165
1.00328 0.998432 0.989805
1.00021 1.00163 0.992528
1.00216 0.999427 0.990868
1.00023 1.00209 0.991876
1.00064 1.00259 0.99073
1.00138 1.00184 0.990041
1.00197 1.0002 0.990784
1.0001 0.999417 0.994901
1.0002 1.00092 0.993118
1.00027 1.00193 0.992115
1.00016 1.00218 0.992077
1.00026 1.00222 0.991905
0.99986 0.997984 0.996762
1.00187 1.00049 0.990417
1.00006 1.0001 0.994291
1.00001 1.00085 0.993665
1.00019 1.00155 0.992625
1.00091 1.00118 0.991576
1.00176 1.00079 0.990314
1.00012 1.00197 0.992344
1.00026 1.00265 0.991458
1.00085 1.00146 0.991639
1.00056 1.00189 0.991542
0.999909 0.997774 0.996891
1.00008 0.999756 0.994603
1.00021 1.00166 0.992502
1.00019 1.00128 0.992903
1.00019 1.0022 0.991973
1.00225 1.00031 0.989836
1.00119 1.00122 0.991016
1.0019 1.00077 0.990063
1.00014 1.00267 0.991663
1.00094 1.00152 0.991289
1.0004 1.00288 0.990824
1.00009 0.999492 0.994836
1.00019 1.00091 0.993251
1.00023 1.00229 0.991867
1.00016 1.00209 0.992173
1.00016 1.0026 0.99167
1.00243 1.0001 0.989684
1.00133 1.00121 0.990748
1.0018 1.00055 0.990341
1.00012 1.00333 0.991
1.00084 1.00257 0.990388
1.00011 0.999282 0.995015
1.00018 1.00038 0.99371
1.00016 1.00023 0.993962
1.00014 1.00107 0.993334
1.00014 1.00016 0.99411
1.00015 0.998887 0.995347
1.00014 0.999001 0.99526
1.00001 0.997245 0.997603
1.00012 0.999142 0.995147
0.999981 0.997402 0.997535
0.999919 0.996361 0.998494
0.999938 0.997568 0.997452
0.999846 0.996509 0.998885
0.999789 0.996647 0.999316
0.999902 0.997729 0.996938
0.999864 0.997944 0.996807
0.999728 0.996814 0.999297
0.999664 0.997069 0.999247
0.999817 0.998239 0.996611
0.999607 0.997337 0.999182
1.00223 1.00017 0.990048
1.00275 0.999704 0.989488
1.00293 0.999534 0.98933
1.00337 0.999272 0.98871
1.00324 0.999507 0.988732
1.0025 0.999652 0.98996
1.00333 0.999458 0.988587
1.00356 0.999291 0.988282
1.00317 0.99931 0.989059
1.00355 0.998965 0.988722
1.00261 0.999896 0.989563
1.00316 0.998864 0.98953
1.00367 0.999301 0.988075
1.00371 0.999144 0.988198
1.00341 0.998738 0.989078
1.00364 0.99886 0.988703
1.00283 0.999371 0.989588
1.0034 0.998387 0.989676
1.00319 0.999502 0.988823
1.00284 0.999521 0.989587
1.00335 0.999324 0.988658
1.00315 0.999348 0.989192
1 1.00103 0.99349
1.00027 1.00168 0.99242
1.00043 1.00215 0.99153
1.00226 1.0001 0.990195
1.00303 0.998891 0.989692
1.00208 1.00002 0.990457
1.00115 1.00187 0.990317
1.00179 1.00021 0.990868
1.00026 1.00156 0.992529
1.00024 1.00211 0.991985
1.00008 0.999681 0.994675
1.00021 1.00127 0.992808
1.00352 0.999353 0.988362
1.00329 0.999271 0.98897
1.00352 0.999206 0.988503
1.00337 0.998884 0.989087
1.00023 1.00161 0.992529
1.00023 1.00206 0.991946
1.00062 1.00263 0.990725
1.0025 0.999558 0.990127
1.00316 0.998353 0.990024
1.00137 1.00192 0.989998
1.00215 0.999443 0.990885
1.00193 0.999985 0.990899
1.00028 1.00193 0.992118
1.00026 1.0022 0.991898
1.00016 1.00221 0.992062
1.0001 0.999418 0.994816
1.00022 1.00087 0.993172
1.00371 0.999224 0.988116
1.00362 0.999016 0.988481
1.00356 0.998401 0.989183
1.00279 0.998554 0.990462
1.00024 1.00192 0.992168
1.00241 0.998803 0.991241
1.00015 1.0025 0.991465
1.00082 1.00312 0.989845
1.00165 1.00179 0.989635
1.00011 0.99926 0.994887
1.00021 1.00056 0.993632
1.00015 1.00179 0.992493
1.00029 1.00199 0.992036
1.00017 1.00266 0.991638
1.00031 1.00217 0.991776
0.999905 0.997762 0.996897
1.00008 0.999746 0.994609
1.00226 1.00031 0.989829
1.00018 1.0013 0.992899
1.00019 1.00167 0.992498
1.00018 1.00222 0.99195
1.00119 1.00122 0.99102
1.0019 1.00077 0.990039
1.00012 1.00267 0.991674
1.00046 1.00285 0.990885
1.00094 1.00153 0.991318
1.0001 0.999487 0.994841
1.00019 1.00091 0.993252
1.00021 1.00228 0.991903
1.00016 1.0021 0.992165
1.00015 1.00263 0.991628
1.00242 1.00014 0.989671
1.00135 1.0012 0.990727
1.00185 1.00049 0.990379
1.0001 1.00332 0.990955
1.00083 1.00269 0.99028
1.00019 1.0006 0.993572
1.00019 1.00179 0.992351
1.00017 1.00288 0.991425
1.00015 1.00263 0.991605
1.00021 1.00278 0.991364
1.0027 0.998721 0.990501
1.00141 1.00178 0.990154
1.00193 0.999919 0.990319
1.00035 1.00368 0.990475
1.00072 1.00315 0.989419
1.00011 0.999287 0.995018
1.00018 1.00038 0.99376
1.00018 1.00123 0.992915
1.00017 1.00024 0.99389
1.00014 1.00017 0.994109
1.00015 1.00106 0.993232
1.00013 1.00171 0.992688
1.00013 1.001 0.993229
1.00014 1.0001 0.99418
1.00016 0.998833 0.995388
1.00015 0.998888 0.995348
1.00005 0.99711 0.997659
1.00013 0.999011 0.995259
1.00002 0.99724 0.997613
0.999962 0.996211 0.998548
0.999985 0.997391 0.997547
0.999912 0.996336 0.998491
0.999828 0.996469 0.999341
0.999943 0.997559 0.997031
0.999907 0.997737 0.996933
0.999789 0.996625 0.999324
0.999868 0.997957 0.996798
0.999722 0.996843 0.999287
0.999659 0.997102 0.999232
1.00262 0.999903 0.989551
1.00318 0.99932 0.989063
1.00318 0.998831 0.989528
1.00355 0.998931 0.988723
1.00359 0.999311 0.988214
1.00333 0.999457 0.988588
1.00369 0.999313 0.988046
1.00369 0.999161 0.988224
1.00344 0.998758 0.989029
1.00364 0.998807 0.988694
1.00283 0.999414 0.989587
1.00334 0.998248 0.989821
1.00385 0.99921 0.987836
1.00372 0.998975 0.988357
1.00361 0.998412 0.98909
1.00318 0.998342 0.990058
1.00351 0.999354 0.988363
1.00329 0.999263 0.988987
1.00349 0.999193 0.988526
1.00338 0.998883 0.989097
1.00024 1.0016 0.992529
1.00024 1.00203 0.992017
1.0006 1.00267 0.99072
1.00252 0.999642 0.990088
1.00305 0.998277 0.990242
1.00214 0.999459 0.990902
1.00135 1.00199 0.989955
1.00188 0.999786 0.991013
1.00029 1.00193 0.99212
1.00027 1.00217 0.991891
1.00016 1.00223 0.992047
1.0001 0.999421 0.994732
1.00023 1.00082 0.993226
1.00367 0.999203 0.988175
1.00361 0.999043 0.988503
1.00353 0.998427 0.98927
1.00026 1.00192 0.99216
1.00023 1.00247 0.991552
1.00078 1.0032 0.98983
1.00283 0.998619 0.990374
1.00161 1.00164 0.989824
1.00233 0.998792 0.991204
1.00011 0.999236 0.994907
1.00029 1.002 0.99203
1.0003 1.00213 0.991833
1.00017 1.00269 0.991607
1.00016 1.00178 0.992527
1.00021 1.00056 0.993563
1.00376 0.999151 0.988157
1.00382 0.998761 0.98834
1.00347 0.9981 0.989551
1.00317 0.997328 0.991042
1.00025 1.00213 0.991965
1.00216 1.00029 0.990085
1.00027 1.00326 0.99061
1.00098 1.00362 0.989152
1.00012 0.999108 0.99503
1.00019 1.00032 0.993921
1.00018 1.00146 0.992851
1.00014 1.00259 0.991726
1.00031 1.00211 0.991866
1.00026 1.00255 0.991508
1.0001 0.99948 0.994846
1.00019 1.00092 0.993252
1.00241 1.00018 0.989659
1.00016 1.0021 0.992158
1.00019 1.00227 0.991941
1.00013 1.00267 0.991587
1.00137 1.00119 0.990706
1.0019 1.00041 0.990417
1.00008 1.00333 0.99091
1.00083 1.00281 0.990172
1.00019 1.0006 0.993574
1.00018 1.0018 0.992372
1.00016 1.00285 0.991485
1.00014 1.00266 0.991626
1.00017 1.00281 0.991401
1.00278 0.998741 0.990469
1.00146 1.00167 0.990182
1.0019 0.999965 0.990587
1.00029 1.0037 0.990418
1.00082 1.00339 0.989279
1.0002 1.00144 0.992692
1.00016 1.0025 0.991678
1.00017 1.00333 0.990965
1.00014 1.00302 0.991099
1.00374 0.997533 0.990102
1.00283 0.997879 0.990868
1.0015 1.00231 0.989309
1.00032 1.00437 0.989278
1.00018 1.00038 0.99381
1.00017 1.00124 0.992957
1.00016 1.00189 0.992382
1.00014 1.00018 0.994108
1.00016 1.00105 0.993129
1.00014 1.0001 0.994181
1.00014 1.00172 0.992605
1.00013 1.001 0.993268
1.00013 1.00222 0.992145
1.00012 1.00162 0.992643
1.00011 1.00097 0.993298
1.00015 1.00004 0.994234
1.00016 0.998821 0.995398
1.00016 0.998826 0.995389
1.00007 0.997044 0.99767
1.00015 0.998887 0.995348
1.00005 0.997117 0.997663
0.999999 0.996099 0.998578
1.00002 0.997234 0.997624
0.999958 0.996185 0.998545
0.999905 0.996313 0.998487
0.999984 0.997389 0.997122
0.999947 0.997565 0.997027
0.999844 0.996453 0.999346
0.999912 0.997744 0.996927
0.999781 0.996648 0.999316
0.999715 0.996873 0.999276
1.00283 0.999457 0.989586
1.00347 0.998777 0.98898
1.00328 0.99811 0.989965
1.00363 0.998748 0.988685
1.00367 0.999176 0.988249
1.0037 0.999326 0.988016
1.00381 0.999215 0.987927
1.0037 0.998981 0.988358
1.00359 0.998409 0.989121
1.0032 0.998256 0.990027
1.00379 0.999134 0.988065
1.00377 0.998565 0.988729
1.00361 0.998051 0.989432
1.00364 0.999183 0.988234
1.0036 0.999069 0.988524
1.0035 0.998451 0.989357
1.00029 1.00191 0.992152
1.0003 1.00243 0.991639
1.00074 1.00328 0.989816
1.00286 0.998682 0.990287
1.00225 0.998777 0.991166
1.00158 1.00149 0.990015
1.00029 1.00201 0.992024
1.00028 1.00209 0.99189
1.00017 1.00271 0.991576
1.00011 0.999212 0.994926
1.00017 1.00177 0.992561
1.00021 1.00054 0.993495
1.00375 0.999148 0.988124
1.00383 0.998752 0.988333
1.00352 0.998147 0.989442
1.00027 1.00213 0.991946
1.00024 1.00319 0.990772
1.001 1.00362 0.989162
1.00311 0.997421 0.991093
1.00218 1.00017 0.990077
1.00012 0.999094 0.995118
1.00019 1.00032 0.993925
1.00028 1.00211 0.991858
1.00027 1.0025 0.991553
1.00013 1.00256 0.991746
1.00017 1.00149 0.992789
1.00379 0.998993 0.988188
1.00392 0.998464 0.988423
1.0037 0.996738 0.990493
1.00316 0.997683 0.991106
1.00012 1.00262 0.991614
1.00134 1.00342 0.988558
1.00047 1.00389 0.989984
1.00013 0.998945 0.995318
1.00014 0.999933 0.994342
1.00017 1.0002 0.993926
1.00016 1.00126 0.993029
1.00012 1.00222 0.99209
1.00011 1.00316 0.991184
1.00034 1.00189 0.991854
1.00022 1.00308 0.991491
1.00019 1.00059 0.993577
1.00018 1.00182 0.992392
1.00286 0.998759 0.990436
1.00013 1.00269 0.991646
1.00014 1.00283 0.991545
1.00012 1.00284 0.991437
1.0015 1.00155 0.99021
1.00188 1.00001 0.990855
1.00023 1.00371 0.99036
1.00092 1.00361 0.989139
1.00019 1.00147 0.99265
1.00016 1.00249 0.991718
1.00016 1.0033 0.991022
1.00018 1.00304 0.991148
1.00372 0.997457 0.99001
1.00276 0.998142 0.990845
1.00156 1.00222 0.989445
1.00041 1.00434 0.989204
1.00016 1.00215 0.992121
1.00393 0.997711 0.989176
1.00015 1.00312 0.991245
1.00022 1.00374 0.990429
1.00405 0.996276 0.990464
1.0024 1.0005 0.98924
1.00088 1.00438 0.988754
1.00017 1.00126 0.992998
1.00016 1.0019 0.992382
1.00014 1.00244 0.991877
1.00014 1.00011 0.994181
1.00012 1.001 0.993307
1.00015 1.00173 0.992523
1.00015 1.00002 0.994237
1.00011 1.00098 0.993289
1.00014 1.00223 0.99208
1.00011 1.00163 0.992721
1.00018 1.00251 0.99176
1.00014 1.00212 0.992129
1.00011 1.00156 0.992832
1.0001 1.00086 0.993494
1.00016 0.999982 0.994262
1.00015 0.998822 0.995404
1.00016 0.998817 0.995399
1.00009 0.997031 0.997656
1.00016 0.99882 0.995391
1.00007 0.997063 0.997669
1.00003 0.996045 0.998574
1.00005 0.997123 0.997668
0.999998 0.996069 0.998577
0.999953 0.996159 0.99854
1.00015 0.998801 0.995438
1.00002 0.997229 0.997208
0.999986 0.9974 0.997118
0.999895 0.996293 0.999369
0.999951 0.997572 0.997023
0.999838 0.996477 0.999339
0.999774 0.996672 0.999309
1.00321 0.998173 0.989997
1.00358 0.998403 0.989152
1.00369 0.998988 0.988359
1.00376 0.99922 0.988017
1.00378 0.999137 0.988068
1.00377 0.998569 0.988688
1.00358 0.998036 0.989492
1.00374 0.998877 0.988422
1.00383 0.998292 0.988892
1.00383 0.997933 0.988655
1.00374 0.999145 0.988091
1.00384 0.998752 0.988327
1.00359 0.998193 0.989332
1.00029 1.00214 0.991927
1.00022 1.00311 0.990934
1.00102 1.00355 0.989172
1.00304 0.997514 0.991144
1.0022 1.00005 0.990069
1.00025 1.00211 0.991851
1.00028 1.00246 0.991598
1.00013 1.00254 0.991765
1.00012 0.999077 0.995207
1.00018 1.00031 0.993929
1.00017 1.00152 0.992727
1.00378 0.998955 0.988255
1.00014 0.998941 0.995315
1.00013 0.999932 0.994293
1.00396 0.998448 0.988413
1.00364 0.996927 0.990322
1.00011 1.00257 0.991699
1.00047 1.00403 0.98978
1.00133 1.00329 0.988622
1.00305 0.997639 0.991088
1.00016 1.0002 0.994066
1.00015 1.00125 0.99303
1.0004 1.00195 0.991795
1.00016 1.00271 0.991701
1.00008 1.00324 0.991095
1.00014 1.0022 0.992097
1.00378 0.998406 0.988753
1.00402 0.998105 0.98873
1.00407 0.995293 0.991449
1.00225 1.00063 0.989448
1.0002 1.00283 0.991391
1.00077 1.00474 0.988609
1.00012 0.999837 0.994354
1.00014 1.00007 0.994194
1.00009 1.00085 0.993678
1.00013 1.00114 0.993091
1.00012 1.002 0.992413
1.00004 1.00284 0.991515
0.99999 1.00396 0.990738
1.00009 1.00256 0.99177
1.00019 1.00151 0.992607
1.00016 1.00249 0.991758
1.0037 0.997395 0.989919
1.00268 0.998413 0.990822
1.00022 1.00306 0.991198
1.00014 1.00327 0.991078
1.00163 1.00215 0.989582
1.00051 1.00433 0.98913
1.00015 1.00216 0.992118
1.00391 0.997697 0.989134
1.00013 1.00308 0.991261
1.00023 1.00371 0.990333
1.00392 0.996315 0.990359
1.00251 1.00046 0.989286
1.00082 1.00445 0.988776
1.00012 1.00286 0.991519
1.00469 0.996359 0.989372
1.00035 1.00327 0.990861
1.00048 1.00437 0.989627
1.00381 0.997182 0.989496
1.00126 1.00336 0.988529
1.00225 1.00058 0.990224
1.00016 1.0019 0.992382
1.00013 1.00245 0.991876
1.00021 1.00268 0.991544
1.00015 1.00001 0.99424
1.00011 1.00099 0.993279
1.00011 1.00164 0.992799
1.00016 1.00224 0.992015
1.00016 0.999973 0.994262
1.00011 1.00086 0.993439
1.00017 1.0025 0.991737
1.00011 1.00156 0.992826
1.00013 1.00213 0.992195
1.00022 1.00243 0.991716
1.00008 1.00195 0.992501
1.00012 1.00143 0.992966
1.00013 1.00077 0.993446
1.00017 0.999954 0.994164
1.00013 1.00068 0.993738
1.00016 0.999915 0.994215
1.00015 0.99882 0.995409
1.00015 0.998821 0.995404
1.00011 0.997049 0.997233
1.00016 0.998813 0.9954
1.00009 0.99705 0.997447
1.00002 0.995988 0.999392
1.00007 0.997079 0.997668
1.00003 0.996011 0.998576
0.999996 0.99604 0.998576
1.00016 0.998689 0.995537
1.00015 0.998797 0.995436
1.00006 0.997092 0.997282
1.00002 0.997236 0.997412
0.999939 0.996155 0.999389
0.999988 0.99741 0.997114
0.999889 0.996316 0.999362
0.999831 0.996499 0.999333
1.00354 0.998018 0.989552
1.00377 0.998578 0.988647
1.00377 0.999144 0.98807
1.00374 0.998862 0.988415
1.00375 0.998303 0.988947
1.00398 0.998057 0.988583
1.00373 0.998339 0.98897
1.00333 0.998205 0.98984
1.00445 0.997349 0.988413
1.00013 0.999775 0.994525
1.00376 0.998911 0.988322
1.00399 0.998432 0.988404
1.00358 0.997138 0.990151
1.00009 1.00253 0.991784
1.00047 1.00424 0.989576
1.00132 1.00309 0.988686
1.00294 0.997622 0.991071
1.00045 1.00202 0.991736
1.00011 1.00236 0.991912
1.00006 1.00333 0.991006
1.00014 0.99894 0.995313
1.00015 1.00218 0.992105
1.00015 1.00021 0.994205
1.00015 1.00125 0.99303
1.00013 0.999929 0.994244
1.0038 0.998398 0.988764
1.00013 0.999829 0.994412
1.00014 1.00008 0.99419
1.00009 1.00084 0.993568
1.00408 0.997855 0.988777
1.00389 0.995663 0.991224
1.00024 1.00261 0.991447
1.00059 1.00485 0.988507
1.00223 1.0006 0.989502
1.00013 1.00113 0.993168
1.00012 1.002 0.992375
1.00009 1.00265 0.991649
0.999984 1.00385 0.990826
1.00006 1.00283 0.99158
1.00393 0.99807 0.988725
1.00448 0.996752 0.989312
1.00377 0.997488 0.989889
1.00123 1.00351 0.988745
1.00011 1.00362 0.990718
1.00007 1.00072 0.993574
1.0001 1.001 0.993304
1.00008 1.00152 0.992978
1.00008 1.00188 0.992555
1.00009 1.0025 0.991936
0.999956 1.00345 0.991202
0.99984 1.00427 0.990563
1.00014 1.00217 0.992114
1.00011 1.00303 0.991277
1.00391 0.997653 0.989092
1.0038 0.996348 0.990255
1.00264 1.00041 0.989332
1.00024 1.00369 0.990237
1.00075 1.0045 0.988798
1.00011 1.00282 0.99158
1.00463 0.996148 0.989339
1.00027 1.00325 0.9909
1.00032 1.00445 0.989632
1.00388 0.99701 0.989718
1.00127 1.00352 0.988508
1.00232 1.00035 0.989843
1.00021 1.00302 0.991202
1.00485 0.995112 0.990297
1.0002 1.00362 0.990717
1.00014 1.00488 0.989357
1.00188 1.00133 0.988685
0.998781 0.996854 0.97071
0.998344 1.00194 0.983085
1.00195 1.00002 0.991425
0.995731 0.997134 0.974087
0.996268 0.994635 0.976078
1.00012 1.00246 0.991875
1.00018 1.00268 0.991574
1.00029 1.00253 0.991508
1.00016 0.999965 0.994262
1.00011 1.00087 0.993383
1.00011 1.00155 0.992821
1.00012 1.00214 0.992261
1.00018 1.00249 0.991714
1.00013 1.00143 0.992902
1.00017 0.999957 0.994212
1.00013 1.00077 0.993498
1.0002 1.00244 0.991745
1.00009 1.00193 0.992482
1.00008 1.00182 0.992584
1.00016 1.0022 0.992099
1.00016 1.00132 0.992843
1.00015 1.00069 0.993497
1.00017 0.999923 0.994187
1.00015 1.00063 0.993668
1.00014 1.00124 0.993132
1.00011 1.00077 0.993568
1.00012 1.00068 0.99365
1.00016 0.999924 0.994311
1.00016 0.999918 0.994212
1.00015 0.998819 0.995408
1.00015 0.998818 0.99541
1.0001 0.997073 0.997232
1.00015 0.998819 0.995405
1.00011 0.997049 0.997233
1.00002 0.995978 0.999391
1.0001 0.99707 0.997238
1.00003 0.995986 0.998978
1.00003 0.995978 0.998577
1.00016 0.998612 0.995601
1.00016 0.998683 0.995536
1.00008 0.996985 0.997347
1.00015 0.998793 0.995434
1.00005 0.997088 0.997485
0.999975 0.996041 0.999406
1.00002 0.997254 0.997194
0.999932 0.996195 0.99938
0.999882 0.996341 0.999355
1.00366 0.998312 0.989002
1.00375 0.998847 0.988408
1.00407 0.998201 0.988511
1.0032 0.997923 0.990021
1.00378 0.998298 0.988866
1.00432 0.997627 0.988421
1.00431 0.998331 0.987711
0.99899 0.998262 0.983434
1.00383 0.997382 0.989988
1.00013 0.999758 0.99455
1.00013 0.999771 0.994524
1.00006 1.00063 0.993807
1.00006 1.0006 0.993848
1.00382 0.998386 0.988776
1.00413 0.997668 0.988823
1.00371 0.995994 0.990998
1.00028 1.00236 0.991504
1.00042 1.00501 0.988405
1.00221 1.0006 0.989557
1.00009 1.00275 0.991527
0.99998 1.00373 0.990913
1.00007 1.00283 0.991644
1.00014 1.00009 0.994187
1.00012 1.00201 0.992337
1.00012 1.00111 0.993246
1.00014 0.999821 0.994469
1.00008 1.00083 0.993458
1.0039 0.998076 0.988827
1.00007 1.00073 0.993686
1.0001 1.00097 0.993367
1.00008 1.00147 0.992955
1.00441 0.996534 0.989367
1.0036 0.997474 0.989877
1.00017 1.0035 0.990721
1.0012 1.00379 0.988603
1.00008 1.00188 0.992589
1.00008 1.00246 0.991945
0.999854 1.00426 0.990563
0.999981 1.00359 0.991094
1.00457 0.996759 0.988701
1.00479 0.996399 0.988776
1.0023 1.0024 0.988039
1.00007 1.00435 0.990119
1.00007 1.00165 0.992735
1.00005 1.00173 0.992707
1.00006 1.00265 0.991811
0.999981 1.00431 0.990322
0.998141 0.997119 0.96749
1.0001 1.00278 0.991641
1.00019 1.00321 0.99094
1.00456 0.995887 0.989305
1.00392 0.996654 0.989941
1.00126 1.00368 0.988486
1.00015 1.00451 0.989637
1.00227 1.00023 0.989462
1.00017 1.00304 0.991247
1.00481 0.995145 0.990176
1.00013 1.00362 0.990726
1.00013 1.00489 0.989392
1.00201 1.00128 0.988721
0.998625 0.996728 0.969843
0.99786 1.0017 0.980225
1.00198 0.999608 0.99175
0.995666 0.997793 0.973252
0.996319 0.994444 0.974985
1.00011 1.00303 0.991385
0.996684 0.995295 0.972181
0.997181 0.995735 0.977537
1.00358 0.997023 0.990533
1.00004 1.00361 0.990747
1.00005 1.00496 0.989872
1.00174 0.999515 0.993005
0.997556 0.999383 0.968938
0.997388 1.00278 0.978882
0.994994 0.999587 0.973736
1.00053 0.994961 0.977551
1.00015 1.00268 0.991603
1.00027 1.00256 0.991518
1.00037 1.00236 0.991594
1.00017 0.999958 0.994261
1.00013 1.00077 0.993549
1.00013 1.00143 0.992839
1.00011 1.0019 0.992462
1.00017 1.00244 0.991774
1.00017 0.999931 0.994183
1.00008 1.00178 0.992617
1.00016 1.00134 0.99292
1.00016 1.00068 0.993549
1.00017 1.00221 0.992031
1.00017 1.00182 0.992377
1.00015 1.00248 0.991888
1.00018 1.00116 0.993069
1.00016 1.00063 0.993637
1.00015 1.00063 0.99367
1.00015 1.00124 0.99305
1.00017 1.00113 0.993115
1.00013 1.00137 0.992942
1.0002 1.00158 0.992645
1.00002 1.00213 0.992369
1.00011 1.00093 0.993402
1.00011 1.00077 0.993566
1.00015 0.999978 0.994285
1.00012 1.00069 0.993562
1.00016 0.999927 0.994266
1.00015 0.998845 0.995388
1.00017 0.999923 0.994209
1.00015 0.998817 0.995409
1.00007 0.997093 0.997654
1.00015 0.998817 0.99541
1.00009 0.997065 0.997442
1.00005 0.995986 0.998557
1.00011 0.997051 0.997234
1.00002 0.995977 0.999391
1.00005 0.995985 0.998563
1.00012 0.999786 0.994522
1.00016 0.998593 0.995621
1.00016 0.99861 0.9956
1.0001 0.996914 0.997391
1.00016 0.998677 0.995535
1.00008 0.996978 0.997349
1 0.995952 0.99942
1.00004 0.997102 0.997676
0.999983 0.996081 0.998987
0.999959 0.996221 0.998545
1.00296 0.997701 0.990204
1.00385 0.998275 0.988762
1.00419 0.997868 0.98843
0.998658 0.998331 0.985584
1.00378 0.997713 0.990126
1.00429 0.998199 0.987689
1.00447 0.998164 0.989394
0.999378 0.997895 0.985182
0.997849 0.998398 0.966035
0.996236 0.997032 0.970907
0.996391 0.994375 0.97594
1.00005 1.0006 0.993748
1.00013 0.999762 0.994549
1.00014 0.999771 0.994524
1.00006 1.00064 0.993768
1.00003 1.00128 0.993254
1.00006 1.00113 0.99334
1.00007 1.00072 0.993736
1.00006 1.00061 0.993797
1.00387 0.998109 0.988929
1.00441 0.996222 0.989423
1.00342 0.997456 0.989865
1.00022 1.00338 0.990724
1.00117 1.00399 0.988462
0.999869 1.00424 0.990563
1.00001 1.00371 0.990985
1.00008 1.00242 0.991954
1.00009 1.00095 0.993429
1.00008 1.00188 0.992622
1.00007 1.00074 0.993798
1.00009 1.00142 0.992933
1.00452 0.997091 0.988537
1.00006 1.00164 0.992787
1.00005 1.00175 0.992701
1.00471 0.996399 0.988741
1.00194 1.00199 0.988326
1.00015 1.00439 0.989964
1.00009 1.00266 0.991751
1 1.00425 0.990344
1.00492 0.997785 0.98795
1.00333 1.00036 0.988107
1.00012 1.00455 0.989157
1.00004 1.00442 0.990112
1.00003 1.00208 0.992338
1.0001 1.00245 0.991929
1.00011 1.00349 0.990966
0.997387 0.994751 0.97188
0.998669 0.997713 0.970539
1.00014 1.00305 0.991292
1.00006 1.00361 0.990736
1.00477 0.995252 0.990055
1.00221 1.00121 0.988758
1.00012 1.00488 0.989427
0.998749 0.996988 0.966079
0.998117 1.00174 0.982487
1.00203 0.99928 0.992078
0.995607 0.997192 0.972411
0.996212 0.994255 0.973891
1.00014 1.00294 0.991381
0.997091 0.994719 0.972814
0.99692 0.995875 0.977261
1.0037 0.99726 0.990411
0.999964 1.00389 0.990776
0.999918 1.00491 0.989853
1.00183 0.99942 0.99296
0.997254 0.999695 0.966969
0.99725 1.0043 0.981571
0.995019 0.999686 0.97191
0.999691 0.995296 0.977453
1.00042 1.00244 0.991317
0.997475 0.997014 0.979629
1.00524 0.996047 0.980683
1.00106 0.999964 0.992044
0.999708 1.00411 0.991715
1.00107 1.004 0.994696
0.998047 1.00263 0.986237
0.995254 1.00236 0.967254
0.99491 0.99952 0.972521
1.00518 0.997527 0.975124
1.00025 1.00258 0.991528
1.00036 1.00238 0.991525
1.00007 1.00257 0.991627
1.00017 0.999937 0.994179
1.00016 1.00067 0.993601
1.00016 1.00136 0.992997
1.00008 1.00174 0.99265
1.00017 1.00223 0.991962
1.00016 1.00063 0.993638
1.00015 1.00182 0.992442
1.00017 1.00116 0.993065
1.00012 1.00251 0.991866
1.00017 1.0026 0.991831
1.0002 1.00181 0.992407
1.00017 1.00111 0.993129
1.00015 1.00063 0.993672
1.00015 1.00124 0.992967
1.00017 1.00113 0.993118
1.00013 1.00137 0.992939
1.00022 1.00153 0.992621
1.00008 1.00165 0.99273
1.00022 1.00149 0.992673
1.00024 1.00172 0.992317
1.0001 1.00261 0.991746
0.999843 1.00331 0.991445
0.999979 1.00251 0.992014
1.00002 1.00215 0.99237
1.00009 1.00126 0.993117
1.00011 1.00095 0.993397
1.00014 1.00007 0.9942
1.00011 1.00078 0.993563
1.00015 0.999978 0.994282
1.00013 0.998921 0.995345
1.00015 0.999928 0.994221
1.00015 0.998843 0.995389
1.00005 0.997135 0.997654
1.00015 0.998815 0.995409
1.00008 0.997087 0.997447
1.00003 0.995987 0.998563
1.0001 0.997056 0.997234
1.00002 0.995985 0.99939
1.00002 0.995976 0.99939
1.00013 0.999861 0.994593
1.00016 0.998635 0.995586
1.00012 0.999793 0.994522
1.0001 0.996896 0.997405
1.00016 0.998593 0.995621
1.00016 0.998605 0.9956
1.0001 0.996917 0.99739
1.00002 0.995896 0.999429
1.00007 0.996979 0.997741
1.00001 0.995965 0.999017
1 0.996089 0.998586
0.997095 0.995196 0.973444
0.997051 0.995296 0.978724
0.998928 0.998237 0.987055
1.00377 0.998141 0.990261
1.00426 0.99808 0.987666
0.999411 0.997875 0.988937
1.00455 0.998252 0.989271
0.998621 0.997329 0.969643
0.99562 0.997232 0.973364
0.996321 0.994267 0.974962
1.00097 0.997286 0.991563
0.996979 1.00037 0.969944
0.99526 0.999526 0.972917
0.999004 0.997308 0.975948
1.00004 1.00141 0.993036
1.00006 1.0006 0.993793
1.00013 0.99976 0.994548
1.00005 1.00065 0.99373
1.00002 1.00123 0.993313
1.00005 1.00143 0.993088
1.00006 1.0011 0.993347
1.00009 1.00099 0.993389
1.00007 1.00073 0.99367
1.00006 1.00062 0.993746
1.00448 0.997387 0.988375
1.00455 0.996377 0.988699
1.00156 1.00163 0.988614
1.00023 1.00444 0.989808
1.00002 1.00419 0.990367
1.00011 1.00267 0.991692
1.00005 1.00175 0.992694
1.00004 1.00163 0.992839
1.00498 0.997324 0.987779
1.00004 1.00211 0.992307
1.00011 1.00247 0.991833
1.00309 1.00053 0.987757
1.00004 1.00447 0.989702
1.00011 1.00437 0.990046
1.00015 1.00342 0.990926
1.00316 1.00262 0.987109
1.0006 1.00359 0.990139
1.00006 1.00407 0.990347
1.00004 1.00222 0.99224
1.00015 1.00252 0.991717
1.00027 1.00298 0.991081
0.998866 0.996656 0.97854
0.997132 0.99546 0.971011
0.998258 0.997187 0.967477
1.00017 1.00284 0.991376
0.999906 1.00416 0.990806
1.00381 0.997517 0.990289
0.99976 1.00487 0.989831
0.99754 0.995068 0.971301
0.996979 0.99921 0.971003
0.99722 1.00406 0.978719
1.0018 0.999264 0.992979
0.995034 0.999814 0.973812
0.996971 0.995912 0.976991
0.998726 0.995064 0.977629
1.00034 1.00264 0.99131
0.997532 0.997072 0.979054
1.00481 0.996254 0.980967
1.00115 1.00022 0.992165
0.999454 1.00388 0.99175
1.00171 1.0037 0.99194
0.997994 1.00311 0.98209
0.995536 1.00361 0.967929
0.995716 0.999229 0.974989
1.00268 0.997901 0.976125
0.999696 1.0028 0.992737
1.00745 0.9971 0.980601
1.0144 0.996695 0.972676
0.998361 1.00451 0.99324
0.998396 1.00186 0.99277
0.995345 1.00258 0.967887
0.997213 0.99928 0.975574
1.00267 1.00056 0.97465
1.00034 1.00239 0.991458
1.00019 1.0025 0.991743
1.00016 1.00193 0.992234
1.00016 1.00063 0.993639
1.00017 1.00116 0.993061
1.00013 1.00183 0.992506
1.0001 1.00255 0.991844
1.00017 1.00111 0.99313
1.00019 1.00181 0.99241
1.00012 1.00254 0.991852
1.00005 1.00238 0.992342
1.00028 1.00206 0.99197
1.00022 1.0015 0.99266
1.00017 1.00112 0.993121
1.00012 1.00138 0.992936
1.00024 1.00149 0.992597
1.00023 1.00149 0.992672
1.00008 1.00168 0.992727
1.00026 1.00168 0.992349
1.0002 1.00208 0.992064
1.00032 1.00175 0.992193
1.00013 1.00272 0.991545
1.00012 1.0026 0.991777
0.999835 1.0033 0.991471
1.00011 1.00344 0.99095
1.00003 1.00265 0.991936
0.999802 1.0032 0.991666
0.999993 1.00249 0.992089
1.00009 1.00166 0.992638
1.00002 1.00216 0.992371
1.00009 1.00126 0.993112
1.00014 1.00026 0.994003
1.0001 1.00097 0.993391
1.00014 1.00008 0.994196
1.00011 0.999037 0.995278
1.00015 0.999978 0.99428
1.00014 0.998914 0.995346
1.00002 0.997218 0.997638
1.00015 0.99884 0.99539
1.00005 0.997137 0.997444
1 0.996048 0.998564
1.00009 0.997077 0.997238
1.00002 0.995999 0.998976
1.00002 0.995988 0.999391
1.00014 1.00004 0.994282
1.00015 0.998718 0.995516
1.00013 0.99987 0.994468
1.00009 0.996935 0.997379
1.00016 0.998634 0.995587
1.00012 0.999802 0.994522
1.00002 0.995884 0.99943
1.0001 0.996894 0.997405
1.00016 0.99859 0.995621
1.0001 0.99692 0.997389
1.00001 0.995904 0.999427
0.999999 0.995959 0.999417
0.998015 0.996778 0.979688
0.996863 0.995152 0.972041
1.00588 0.995335 0.979855
0.99702 0.995398 0.978208
0.999574 0.998199 0.984441
1.00461 0.998341 0.989108
0.998097 0.996921 0.973324
0.996055 0.998317 0.971273
0.996187 0.994217 0.973985
1.00077 0.997771 0.989379
0.997309 0.999393 0.96733
0.995194 0.999514 0.970964
0.99924 0.996741 0.975963
0.999082 0.999266 0.98943
0.996076 1.00161 0.967015
0.995133 1.00032 0.973523
1.00339 1.00038 0.973819
1.00007 1.00189 0.992583
1.00004 1.0014 0.993103
1.00006 1.0006 0.993838
1 1.00118 0.993372
1.00008 1.0017 0.992666
1.00005 1.00138 0.993143
1.00006 1.00107 0.993353
1.00012 1.00109 0.993304
1.00009 1.00098 0.993453
1.00007 1.00075 0.993604
1.00501 0.996868 0.987609
1.00285 1.00072 0.987411
0.999983 1.0043 0.990247
1.00018 1.00432 0.989981
1.00019 1.00336 0.990885
1.00013 1.00249 0.991737
1.00004 1.00215 0.992276
1.00005 1.00222 0.992251
1.0033 1.00171 0.987324
1.00013 1.00256 0.991771
1.00028 1.00304 0.991077
1.0006 1.00363 0.989855
1.00017 1.00399 0.990348
1.00114 1.00309 0.989177
1.00004 1.00337 0.991381
1.00029 1.00296 0.990916
1.00018 1.00234 0.991862
1.00034 1.00281 0.991071
1.00932 0.997263 0.9792
0.998767 0.996982 0.978978
0.997168 0.995201 0.973045
1.00026 1.00288 0.991303
0.999198 1.00369 0.991787
1.00127 1.00034 0.99227
0.997394 0.997251 0.979582
0.995508 1.00221 0.966702
0.997903 1.00356 0.984202
1.00251 1.0034 0.989065
0.995307 0.999303 0.972397
1.00426 0.996448 0.981248
1.00203 0.997886 0.97647
0.999648 1.00247 0.992861
1.00729 0.997052 0.981183
1.01414 0.9968 0.973009
0.998449 1.00428 0.993164
0.998576 1.00187 0.991113
0.99543 1.00324 0.966593
1.0049 0.999557 0.973817
0.996107 0.999085 0.974455
0.998965 1.00252 0.99402
1.02276 0.992449 0.968012
1.01846 0.99627 0.968382
1.00347 0.999714 0.974616
0.996039 1.0031 0.996117
0.995517 0.999488 0.971892
0.994619 0.999809 0.976692
1.00031 1.0024 0.991857
1.00032 1.00209 0.991843
1.00023 1.00096 0.993387
1.00017 1.00111 0.993131
1.00019 1.00181 0.992414
1.0001 1.00241 0.991873
1.00023 1.0015 0.992671
1.00029 1.00202 0.991956
1.00011 1.00227 0.992161
0.999786 1.00191 0.992964
1.00037 1.00177 0.992064
1.00023 1.00149 0.99267
1.00007 1.00171 0.992724
1.00027 1.00165 0.992382
1.00032 1.00173 0.992197
1.00022 1.00202 0.992104
1.00008 1.00253 0.991867
1.00009 1.00271 0.991637
0.999986 1.00398 0.990649
1.00013 1.0026 0.991808
0.999932 1.00331 0.991436
1.00006 1.00381 0.990404
1.00013 1.0033 0.990988
1.00003 1.0028 0.991749
1.00005 1.00345 0.990976
1.0001 1.00198 0.9924
1.00003 1.00268 0.991888
0.999759 1.00309 0.991887
1.00001 1.00248 0.992165
1.00009 1.00163 0.99272
1.00014 1.00059 0.993691
1.0001 1.00128 0.993107
1.00014 1.00028 0.993996
1.00008 0.999191 0.995173
1.00013 1.00009 0.994192
1.00011 0.999028 0.995277
0.999966 0.99735 0.99759
1.00014 0.998906 0.995347
1.00002 0.99723 0.997421
0.999959 0.996143 0.998552
1.00006 0.99713 0.997236
0.99999 0.996056 0.998978
0.999997 0.996021 0.999392
1.00015 1.00023 0.993915
1.00013 0.998876 0.995232
1.00014 1.00005 0.994278
1.00008 0.997023 0.99732
1.00015 0.998729 0.995433
1.00012 0.999879 0.994342
1.00001 0.995917 0.999422
1.00009 0.996927 0.997381
1.00016 0.998632 0.995587
1.00002 0.995884 0.999431
1.0001 0.996894 0.997405
1.00001 0.99591 0.999425
1.00995 0.996447 0.977574
0.998197 0.996431 0.978741
0.997012 0.99535 0.971469
1.00019 1.00112 0.993075
1.01504 0.99495 0.973834
1.00535 0.996105 0.980109
0.997251 0.995478 0.977601
1.00069 0.998031 0.987066
0.997276 1.00019 0.969977
0.995274 0.999461 0.97293
0.999616 0.995592 0.97549
0.998605 0.9997 0.984306
0.99558 1.002 0.968883
0.995794 1.00035 0.972879
1.00262 0.999478 0.974812
0.997726 1.0024 0.981215
0.995337 1.00167 0.965301
0.995688 1.00025 0.972301
1.00295 1.00126 0.973679
1.00016 1.00205 0.992171
1.00006 1.00191 0.992545
1.00004 1.00139 0.99317
1.00014 1.00168 0.992599
1.00008 1.00167 0.99275
1.00005 1.00133 0.993197
1.00013 1.00108 0.993324
1.0001 1.00097 0.993518
1.0034 1.00085 0.987538
1.0006 1.00371 0.989571
1.00005 1.00219 0.992261
1.00028 1.00396 0.990349
1.00029 1.00305 0.991072
1.00011 1.00259 0.991825
1.00017 1.00237 0.991875
1.00149 1.00352 0.989338
1.00031 1.00278 0.991179
1.00032 1.00315 0.990861
1.00005 1.00308 0.99119
1.00027 1.00217 0.991952
1.00018 1.00038 0.994143
0.999498 1.00339 0.992294
1.00037 1.00229 0.9914
1.0003 1.00247 0.9916
1.02315 0.993247 0.967645
1.01025 0.996908 0.97801
0.998648 0.997292 0.979422
0.999583 1.00213 0.992987
0.998524 1.00403 0.99309
1.00712 0.996981 0.981765
0.995436 1.00133 0.968388
0.998621 1.00233 0.985197
0.996155 0.999243 0.972778
1.01393 0.996866 0.973344
1.00721 0.998623 0.972985
0.99908 1.00274 0.993672
1.02288 0.992474 0.967969
1.01948 0.996432 0.967458
0.996255 1.00459 0.997642
1.00261 0.998922 0.975376
0.995108 0.99964 0.970693
0.995918 0.99955 0.973024
0.998476 1.00197 0.996272
1.02878 0.98991 0.962595
1.01524 0.994872 0.973407
0.99918 0.996984 0.976035
0.995963 0.999194 0.972681
0.996121 1.00034 1.00084
0.995051 1.00015 0.96792
1.00045 1.00234 0.991452
1.00024 1.00099 0.993245
0.998926 1.00155 0.994624
1.00024 1.00151 0.992683
1.00029 1.002 0.991943
1.00015 1.00227 0.991981
1.00035 1.0018 0.992054
0.999883 1.0017 0.992969
0.999733 1.00317 0.991762
1.00032 1.00171 0.992201
1.00023 1.00196 0.992144
1.00016 1.00256 0.991778
0.999777 1.00417 0.990832
1.00005 1.00271 0.991729
0.999892 1.00384 0.9908
1.00004 1.00474 0.989765
1.00054 1.00349 0.99004
1.00003 1.00331 0.991401
1.00012 1.00393 0.990264
1.00025 1.00287 0.991377
0.999934 1.00299 0.991583
1.00013 1.00319 0.991095
1.00008 1.00217 0.992264
1.00005 1.00278 0.991736
1 1.00346 0.991002
1.00014 1.00094 0.993351
1.00011 1.00195 0.992383
1.00003 1.00271 0.991841
1.00009 1.0016 0.992801
1.00014 1.00059 0.993685
1.00005 0.999432 0.995001
1.00013 1.0003 0.993989
1.00008 0.999192 0.995167
0.999928 0.99752 0.997099
1.00012 0.999022 0.995276
0.999981 0.997363 0.997162
0.999876 0.996268 0.999377
1.00003 0.997226 0.997212
0.99995 0.996145 0.998972
0.999967 0.996084 0.99939
1.00019 1.00032 0.993754
1.00012 0.999083 0.995029
1.00016 1.00023 0.993984
1.00006 0.997159 0.997231
1.00013 0.998895 0.995209
1.00014 1.00006 0.994275
0.999995 0.995986 0.999407
1.00008 0.997014 0.997323
1.00014 0.998741 0.99535
1.00001 0.995908 0.999425
1.0001 0.99692 0.997384
1.00002 0.995884 0.999431
1.02241 0.992797 0.968325
1.00991 0.996333 0.977819
0.998196 0.996152 0.978912
1.00018 1.00114 0.993095
1.00023 1.00117 0.992901
1.00016 1.0017 0.992632
1.01809 0.9969 0.968075
1.01423 0.996246 0.974131
1.00481 0.996862 0.980364
0.998157 1.00006 0.987781
0.995954 1.00203 0.966878
0.995108 1.00049 0.971322
1.00316 0.998326 0.975022
0.997152 1.00228 0.985105
0.995359 1.00135 0.968098
0.99485 1.00051 0.975813
1.00492 1.00048 0.972867
0.997334 1.0004 0.985792
0.994976 1.00091 0.970373
0.994625 0.999905 0.976739
1.00447 0.999039 0.974391
1.00022 1.00207 0.992075
1.00015 1.00209 0.992164
1.00006 1.00195 0.992506
1.00014 1.00169 0.992593
1.00009 1.00165 0.992834
1.00014 1.00108 0.993344
1.00188 1.00383 0.989499
1.00005 1.00281 0.991
1.00017 1.00241 0.991887
1.00035 1.00325 0.990808
1.00029 1.00279 0.991288
1.00027 1.00212 0.991934
1.0003 1.00245 0.991593
1.00028 1.00106 0.994066
1.00039 1.00229 0.991529
0.999173 1.00315 0.993342
1.00026 1.00204 0.991984
0.99822 1.00046 0.997589
0.998893 1.00038 0.99647
1.00027 1.00232 0.99162
1.02946 0.990698 0.961292
1.0244 0.992775 0.966056
1.01118 0.996532 0.976822
0.999193 1.00295 0.993323
0.996412 1.00213 0.998027
1.02299 0.992477 0.967926
0.994982 1.00064 0.979414
0.997045 0.999791 0.975714
1.02049 0.996451 0.966533
1.00318 0.997862 0.975587
0.998491 1.0018 0.996056
1.02907 0.989826 0.962116
1.01438 0.996434 0.973698
0.99583 1.00155 0.993537
0.999459 0.996626 0.975915
0.995029 0.999793 0.975882
0.99497 1.00018 0.971555
0.997654 1.00364 0.998881
1.02248 0.993403 0.967662
1.0059 0.995839 0.979287
0.996479 0.994588 0.97603
0.995148 0.999307 0.97416
0.995092 1.00009 0.970921
0.995889 1.00058 0.990766
1.00022 1.00101 0.993104
0.999054 1.00129 0.994633
0.998645 1.00409 0.993039
1.00034 1.00181 0.992044
0.999976 1.00147 0.992972
0.999606 1.00328 0.991896
0.999764 1.00407 0.990792
1.00025 1.00259 0.991689
0.999963 1.00412 0.990682
1.00005 1.00495 0.989491
0.999799 1.0037 0.990952
1.00007 1.00466 0.989771
1.00067 1.00467 0.988913
1.00088 1.00374 0.989242
1.00034 1.00277 0.990964
1.00052 1.0036 0.989938
1.00019 1.00406 0.990124
1.00021 1.00257 0.991719
1.00019 1.00274 0.991516
0.999989 1.00253 0.991985
0.999968 1.00295 0.991646
1.00014 1.00308 0.991202
1.00013 1.00126 0.993045
1.00009 1.00215 0.992273
1.00008 1.00277 0.991722
1.00002 0.999743 0.994749
1.00014 1.00093 0.993353
1.00012 1.00193 0.992366
1.00014 1.0006 0.993679
1.00005 0.999437 0.994994
0.999868 0.997732 0.997001
1.00009 0.999193 0.995162
0.999932 0.997529 0.997095
0.999832 0.996426 0.999361
0.999986 0.997365 0.997162
0.999895 0.996285 0.998951
0.999926 0.996181 0.999382
1.00021 1.00043 0.993701
1.00013 0.999239 0.995021
1.00018 1.00033 0.993805
1.00002 0.99734 0.997116
1.00013 0.999098 0.995093
1.00017 1.00024 0.994052
0.999967 0.996096 0.999384
1.00006 0.997148 0.997236
1.00013 0.998914 0.995185
0.999998 0.995975 0.999412
1.00008 0.997004 0.997327
1.00002 0.9959 0.999428
1.02854 0.990257 0.962394
1.02259 0.992715 0.96828
1.00987 0.996268 0.978065
1.00024 1.00128 0.992762
1.00023 1.00182 0.992361
1.00017 1.00115 0.993115
1.00022 1.00119 0.992884
1.00017 1.00169 0.992566
1.00019 1.00171 0.992496
1.00017 1.00201 0.992228
1.01397 0.997826 0.972213
1.01909 0.997115 0.967217
1.01341 0.997471 0.974428
1.00719 0.999336 0.972055
0.996441 1.00227 0.981734
0.995393 1.00153 0.970813
0.994694 1.00075 0.973118
0.996921 0.999971 0.98382
0.994999 1.00001 0.968124
0.995986 0.999887 0.973009
1.00239 0.999246 0.975377
0.996128 0.997888 0.990822
0.994916 1.00002 0.968009
0.997305 1.00065 0.974666
1.00021 0.99574 0.977095
1.00028 1.00205 0.992035
1.00022 1.00205 0.992067
1.00013 1.00211 0.992157
1.00014 1.0017 0.992588
1.00038 1.00239 0.993985
0.99879 1.00298 0.994394
1.00028 1.00204 0.991916
1.00029 1.00242 0.991585
1.00041 1.00233 0.991658
1.00027 1.00206 0.991952
1.00027 1.00233 0.991552
0.997705 1.00144 0.997676
0.999022 1.0002 0.996786
1.0002 1.00241 0.991754
0.996185 0.998985 1.00157
0.999542 1.00282 0.993547
1.02317 0.994431 0.966554
1.02961 0.990644 0.961025
1.02564 0.992285 0.964465
0.998593 1.00158 0.995863
0.995943 1.00038 1.00067
1.02936 0.989816 0.961637
0.994885 1.00032 0.968213
0.994841 1.00021 0.973289
1.01351 0.997842 0.973988
0.999861 0.995366 0.975666
0.997598 1.00331 0.998843
1.02265 0.993283 0.967605
1.00534 0.996581 0.979581
0.99604 1.00074 0.996399
0.996449 0.994273 0.974911
0.99584 0.999713 0.973405
0.99514 1.00004 0.970355
0.99738 1.00503 0.996573
1.01005 0.997458 0.976513
0.997008 0.995578 0.978706
0.995113 0.999382 0.973561
0.99545 1.00084 0.970077
0.995803 1.00053 0.985814
0.999298 1.00095 0.994644
0.998606 1.00428 0.993003
1.00053 1.00204 0.992096
0.999474 1.00339 0.99203
0.999525 1.00418 0.990899
1.00019 1.00426 0.990079
1.00015 1.00405 0.990532
1.00015 1.00494 0.989403
1.00078 1.00445 0.988423
1.00011 1.00459 0.989778
1.00069 1.00468 0.988778
1.00103 1.00439 0.988222
1.0013 1.00319 0.988877
1.00083 1.00307 0.990148
1.00089 1.00382 0.989106
1.00027 1.00235 0.991523
1.00035 1.00277 0.991039
1.00051 1.00372 0.989836
1.00016 1.00249 0.991837
1.00018 1.0026 0.991702
1.00012 1.0026 0.991656
1.0001 1.0016 0.992725
1.00001 1.00247 0.992035
1 1.00291 0.991709
1 1.00006 0.994441
1.00013 1.00124 0.99305
1.00011 1.00212 0.992282
0.999821 0.997968 0.996877
1.00001 0.99975 0.994744
1.00014 1.00091 0.993356
1.00004 0.999442 0.994988
0.999873 0.997744 0.996995
0.999766 0.99661 0.99934
0.999936 0.997537 0.997091
0.999824 0.996451 0.999355
0.999875 0.996313 0.999368
1.00025 1.00139 0.992701
1.00024 1.00055 0.993522
1.00012 0.999381 0.994894
1.00021 1.00043 0.993701
0.999987 0.99752 0.997002
1.00013 0.999247 0.995022
1.00017 1.00034 0.993856
0.999931 0.996243 0.999356
1.00002 0.997327 0.997121
1.00013 0.999111 0.995158
0.999971 0.996079 0.999391
1.00005 0.997137 0.997241
1 0.995961 0.999416
1.02246 0.993772 0.967175
1.02885 0.990312 0.961899
1.02277 0.99259 0.968235
1.00023 1.00129 0.992787
1.00023 1.00182 0.992317
1.0002 1.00204 0.992098
1.00021 1.00176 0.992348
1.00021 1.00214 0.992086
1.00022 1.00121 0.992866
1.00018 1.00169 0.9925
1.00018 1.00171 0.9925
1.00019 1.00199 0.992207
1.00016 1.00211 0.99219
1.00535 0.99675 0.979925
1.01371 0.998019 0.972492
1.02004 0.997574 0.966359
1.00148 0.999103 0.975691
0.996961 0.999925 0.975549
0.996488 0.999278 0.982262
0.995008 0.999918 0.97006
0.995951 0.997346 0.985627
0.99497 1 0.970287
0.995918 1.00031 0.973765
0.999386 0.995998 0.977101
0.994961 0.996712 0.989524
0.995059 0.99963 0.971014
0.995154 1.00036 0.972171
0.996315 0.994639 0.975762
1.00003 1.00188 0.992587
1.00024 1.00213 0.992013
1.00022 1.00203 0.992059
0.997236 1.00186 0.997757
0.999158 0.999923 0.997112
1.00028 1.00209 0.99192
1.00028 1.00238 0.991485
1.00017 1.00237 0.991815
0.999348 1.00286 0.9933
0.996477 0.998425 1.0016
0.999089 1.00351 0.992579
0.99803 1.00238 0.99637
1.00909 0.99859 0.978094
1.02435 0.993774 0.965102
1.02975 0.990686 0.960758
0.997497 1.00304 0.998782
0.996167 1.00029 0.988694
1.02283 0.993141 0.967549
0.995367 0.999761 0.965757
0.99519 0.999673 0.972258
1.00478 0.997405 0.979874
0.99637 0.994157 0.973793
0.997604 1.00502 0.996741
1.01002 0.997276 0.976747
0.996974 0.995558 0.978213
0.996102 1.00078 0.988476
0.995148 0.999241 0.971544
0.995481 1.0005 0.967079
0.998999 1.00313 0.993832
0.998034 0.997258 0.979382
0.996357 0.99696 0.970928
0.996187 1.00055 0.968056
0.996429 1.00174 0.987079
0.998577 1.00445 0.992967
1.0003 1.00216 0.992073
1.00212 0.999637 0.991295
0.999299 1.00432 0.991006
1.00002 1.00415 0.99013
1.00101 1.0036 0.988912
1.00025 1.00493 0.989316
1.00081 1.00452 0.988404
1.0016 1.00319 0.988289
1.0007 1.00467 0.988642
1.00104 1.00428 0.98826
1.0017 1.0026 0.988717
1.00185 1.00157 0.989357
1.00106 1.00281 0.98963
1.0013 1.0031 0.98892
1.00061 1.00256 0.990927
1.00077 1.00314 0.990002
1.00091 1.00389 0.988971
1.00025 1.00217 0.991899
1.00027 1.00232 0.99161
1.00036 1.00277 0.991114
1.00011 1.00188 0.99245
1.00013 1.00247 0.991858
1.00016 1.00263 0.991685
0.999986 1.00044 0.994092
1.00011 1.0016 0.992728
1.00003 1.00241 0.992085
0.999759 0.998222 0.997184
0.999999 1.00007 0.994436
1.00014 1.00123 0.993056
0.999712 0.996852 0.998353
0.999815 0.997998 0.997085
1.00001 0.999758 0.994739
0.999878 0.997755 0.996988
0.999757 0.996644 0.999331
0.999815 0.996477 0.999349
1.00022 1.00166 0.99244
1.00026 1.00073 0.993315
1.00025 1.00142 0.99266
1.0001 0.999522 0.994786
1.00024 1.00056 0.993523
0.999949 0.997679 0.996914
1.00012 0.999386 0.994896
1.00021 1.00043 0.993701
0.999887 0.996399 0.99933
0.999985 0.997509 0.997007
1.00013 0.999258 0.995023
0.999935 0.99622 0.999365
1.00002 0.997315 0.997127
0.999975 0.996061 0.999398
1.0078 0.998453 0.979495
1.02257 0.993826 0.96712
1.02918 0.99049 0.961403
1.00017 1.00217 0.992085
1.00023 1.00131 0.992811
1.00024 1.00182 0.992272
1.00021 1.00177 0.992397
1.00021 1.00203 0.992139
1.00021 1.00209 0.992071
1.0002 1.0023 0.991889
1.00016 1.00217 0.992028
1.00017 1.00172 0.992504
1.00021 1.00196 0.992187
1.00015 1.00211 0.992182
1.00019 1.00243 0.992073
0.997361 0.995698 0.977003
1.00475 0.997089 0.980208
1.01353 0.998138 0.972771
0.998632 0.995915 0.976887
0.99589 1.00031 0.972409
0.99493 1.00002 0.968037
0.995635 0.996656 0.990317
0.994974 0.996535 0.994578
0.996385 0.994502 0.974623
0.994935 1 0.967258
0.995462 1.00004 0.973845
0.996049 0.998346 0.992666
0.995419 0.999236 0.972473
0.995209 0.999343 0.973224
0.99951 1.00183 0.993562
1.00014 1.00181 0.992596
1.00019 1.0022 0.991991
0.996749 0.997761 1.00163
0.999284 1.0028 0.993046
1.00011 1.00234 0.991875
0.999331 1.00349 0.992502
0.997688 1.00254 0.996478
0.998864 1.00148 0.994675
0.998655 0.997242 0.977841
1.01024 0.998286 0.976858
1.02552 0.993096 0.963649
0.997802 1.00505 0.996956
0.996114 1.00084 0.99022
1.00998 0.997228 0.976981
0.995476 0.999926 0.971754
0.995066 0.999359 0.973325
0.997222 0.995512 0.977477
0.998913 1.00321 0.994065
0.9982 0.996912 0.978371
0.995703 0.997197 0.973426
0.996221 1.00181 0.983181
0.995858 1.00063 0.969706
1.00082 1.00068 0.992776
0.997151 0.995302 0.973351
0.997421 0.999873 0.969264
0.997299 1.00152 0.981614
1.00008 1.00236 0.992051
1.00178 0.999375 0.991631
1.00209 0.999806 0.990398
0.999816 1.00399 0.990181
1.00108 1.00346 0.988882
1.00263 1.00086 0.988682
1.00085 1.00455 0.988385
1.00156 1.00312 0.988337
1.00248 1.00039 0.989482
1.00104 1.00417 0.988299
1.00172 1.00238 0.988763
1.0024 0.999826 0.990072
1.00224 0.999775 0.990445
1.00161 1.00172 0.989709
1.00184 1.00146 0.989488
1.00082 1.00235 0.990371
1.00108 1.00278 0.98971
1.0013 1.00299 0.988964
1.00038 1.00216 0.991653
1.00053 1.00257 0.990919
1.0007 1.00322 0.989855
1.00017 1.00189 0.992343
1.00027 1.00216 0.991892
1.00027 1.00229 0.991697
0.99994 1.00093 0.993719
1.00012 1.00187 0.992463
1.00011 1.00246 0.99188
0.999712 0.998495 0.996531
0.999987 1.00045 0.994086
1.00012 1.0016 0.99273
0.99961 0.997086 0.99927
0.999765 0.998263 0.996674
0.999996 1.00008 0.994431
0.999694 0.996851 0.999302
0.99982 0.998015 0.996839
0.999749 0.996679 0.999322
1.00018 1.00186 0.992394
1.00022 1.00167 0.99245
1.00022 1.00104 0.993082
1.00008 0.999693 0.994656
1.00025 1.00074 0.993316
1.00024 1.00145 0.992619
0.999911 0.99782 0.996846
1.00011 0.999515 0.99479
1.00024 1.00056 0.993523
0.999838 0.996548 0.999309
0.999946 0.997672 0.996917
1.00012 0.999389 0.994898
0.999892 0.996378 0.999337
0.999982 0.997499 0.997011
0.999939 0.996196 0.999373
0.997964 0.997307 0.978964
1.00761 0.998465 0.979745
1.02266 0.993859 0.967065
1.00017 1.00219 0.992051
1.00014 1.00227 0.992116
1.00019 1.00233 0.991899
1.0002 1.00178 0.992445
1.00021 1.00202 0.99218
1.00022 1.00205 0.992056
1.00016 1.00218 0.99203
1.0002 1.0023 0.991886
1.00007 1.0028 0.991682
1.00009 1.00228 0.99201
1.00015 1.00211 0.992175
1.00013 1.00235 0.992085
0.995601 0.997671 0.973257
0.99715 0.99592 0.976894
1.00412 0.997301 0.980491
0.996511 0.994344 0.973483
0.994921 1.00017 0.971927
0.995222 1.00009 0.97373
0.995067 0.996511 0.989284
0.995831 0.998325 0.988075
0.995321 0.99871 0.971392
0.99526 0.999607 0.971578
0.997737 0.996156 0.987941
0.996084 1.00025 0.968906
1.00025 1.00263 0.992104
0.999694 1.0016 0.993505
1.00023 1.00174 0.992606
0.997099 1.00278 0.99661
0.999562 1.00348 0.992426
0.999552 1.00166 0.994385
1.0018 0.999193 0.992455
0.997425 0.99472 0.971931
0.998524 0.997608 0.978357
1.01139 0.997893 0.975622
0.999101 1.00319 0.994261
0.995988 1.00185 0.986284
0.998209 0.996543 0.978533
0.996045 1.00078 0.967763
0.996121 0.998147 0.971369
1.00104 1.0006 0.992646
0.997033 0.995236 0.971762
0.997857 0.998786 0.967102
0.996714 1.00143 0.985525
1.00091 1.00318 0.989848
0.998017 0.998524 0.965561
0.999031 0.998287 0.988436
1.00141 0.998877 0.991966
1.00175 1.00059 0.99026
1.00345 0.998906 0.988361
1.00116 1.00336 0.988851
1.00264 1.00071 0.988589
1.00386 0.997181 0.990124
1.00151 1.0031 0.988385
1.00246 1.00017 0.989514
1.00326 0.997093 0.991126
1.00174 1.00218 0.988808
1.0024 0.999708 0.990089
1.00274 0.99793 0.991197
1.00245 0.998823 0.991117
1.00222 0.999655 0.990582
1.00198 1.0003 0.990405
1.00144 1.00161 0.990186
1.00161 1.00176 0.98972
1.00183 1.00134 0.989619
1.00066 1.00206 0.991044
1.00086 1.00236 0.990479
1.00111 1.00275 0.98979
1.00026 1.00183 0.992201
1.0004 1.00217 0.991638
1.00046 1.00259 0.990911
0.999923 1.00124 0.993435
1.00019 1.00186 0.99235
1.00029 1.00216 0.991884
0.999641 0.998827 0.996318
0.999956 1.00088 0.993722
1.00014 1.00185 0.992475
0.99957 0.997292 0.999235
0.999708 0.998528 0.996518
0.99999 1.00045 0.99408
0.999626 0.997102 0.998772
0.999769 0.998275 0.996673
0.999683 0.996909 0.999285
1.00016 1.00199 0.992297
1.00018 1.00188 0.992345
1.00017 1.00135 0.992868
1.00022 1.00167 0.992459
1.00021 1.00105 0.993079
1.00003 0.999995 0.994444
0.999868 0.997968 0.996781
1.00008 0.999684 0.994661
1.00024 1.00076 0.993317
0.999782 0.996694 0.999293
0.999906 0.997816 0.996849
1.00011 0.999511 0.994793
0.999844 0.996533 0.999315
0.999942 0.997666 0.99692
0.999897 0.996357 0.999345
0.99638 0.996535 0.971862
0.997746 0.997443 0.978416
1.00745 0.99848 0.979995
1.00017 1.00221 0.992017
1.00016 1.00239 0.991858
1.0001 1.00225 0.992152
1.00011 1.00233 0.992112
1.00009 1.00254 0.991894
1.00017 1.00219 0.992031
1.00019 1.00229 0.991884
1.00004 1.00273 0.991717
0.99991 1.00261 0.991793
1.00003 1.00269 0.991688
1.00081 1.0029 0.990568
0.999992 1.00259 0.992016
1.0001 1.00227 0.992097
0.997549 0.999543 0.96623
0.995591 0.998525 0.972545
0.9971 0.996155 0.976463
0.995502 0.998539 0.973115
0.995207 1.00011 0.967271
0.99573 0.998282 0.993365
0.997913 0.996279 0.990593
0.996182 0.998668 0.971781
1.00085 0.996085 0.986775
1.00235 1.00128 0.988906
0.999849 1.00256 0.992041
0.999843 1.00135 0.993446
1.00006 1.00181 0.994088
1.00233 0.99878 0.991975
0.998098 0.997305 0.96734
0.99721 0.995354 0.971225
0.998404 0.998074 0.978874
1.00132 1.00048 0.99252
0.996154 1.0019 0.981994
0.997208 0.995282 0.971187
0.997669 0.99884 0.969817
1.00152 1.00297 0.989923
0.998838 0.997281 0.969174
0.998608 0.999188 0.983899
1.0027 1.00393 0.986778
1.00081 0.996653 0.991637
1.0014 1.00123 0.990123
1.00322 0.999331 0.988272
1.00502 0.996491 0.988105
1.0026 1.00056 0.9885
1.0036 0.997263 0.990112
1.00415 0.99526 0.991167
1.00245 0.999912 0.989547
1.00322 0.997072 0.991067
1.00339 0.996295 0.991581
1.0024 0.999594 0.990106
1.00273 0.998013 0.991146
1.0028 0.997822 0.991273
1.00238 0.998678 0.991259
1.00232 0.999362 0.990839
1.00221 0.999548 0.99072
1.00199 1.00032 0.990376
1.00185 1.00061 0.990376
1.00113 1.00155 0.990653
1.00142 1.00165 0.990165
1.00161 1.00181 0.98973
1.00046 1.00178 0.991865
1.00065 1.00207 0.991118
1.00088 1.00236 0.990588
0.999922 1.00139 0.993244
1.00029 1.00182 0.992191
1.00042 1.00218 0.991622
0.999582 0.999189 0.996048
0.999946 1.00119 0.993443
1.00021 1.00183 0.992357
0.99951 0.997524 0.999194
0.999634 0.998875 0.996306
0.999968 1.00085 0.993724
0.999563 0.997321 0.999224
0.999705 0.998563 0.996505
0.999619 0.997133 0.999249
1.00014 1.00217 0.992167
1.00015 1.00198 0.992301
1.00015 1.0016 0.992623
1.00019 1.00189 0.992297
1.00017 1.00139 0.992816
1.00001 1.00037 0.994119
1.00021 1.00105 0.993076
1.00004 0.999978 0.994448
0.999806 0.998198 0.996672
0.999718 0.996853 0.999277
0.999863 0.997964 0.996786
1.00009 0.999671 0.994667
0.99979 0.996683 0.999298
0.999902 0.997811 0.996853
0.99985 0.996517 0.999321
0.998322 0.998926 0.969285
0.996506 0.995858 0.973238
0.997326 0.997612 0.978812
1.00014 1.00246 0.991816
1.00007 1.00224 0.992189
1.0001 1.00254 0.991917
1.0001 1.00233 0.992107
1.00009 1.0026 0.991882
0.999965 1.0025 0.992019
1.00002 1.00264 0.991752
0.999985 1.00276 0.991686
0.999937 1.00292 0.991648
1.00015 1.00233 0.99153
1.00111 1.00251 0.990847
1.0021 1.00204 0.988586
1.00063 1.00274 0.990688
0.999884 1.00291 0.992023
1.00044 0.997598 0.985703
0.996978 1.00013 0.968371
0.995806 0.997743 0.971138
0.996314 0.999926 0.968872
0.998116 0.996399 0.993072
1.00083 0.996095 0.990658
1.00428 0.99645 0.990529
1.00238 1.00072 0.989491
0.999673 1.00254 0.991974
1.00337 0.998559 0.991489
0.998922 0.999839 0.984557
0.998599 0.997963 0.970218
0.997208 0.995189 0.973241
1.0021 1.00296 0.990001
0.998242 0.999794 0.986627
0.998371 0.996882 0.972864
1.00298 1.00295 0.987071
1.00046 0.997706 0.989368
1.00477 0.998789 0.987772
1.00429 0.99818 0.989351
1.00309 1.00034 0.988179
1.00492 0.996503 0.988116
1.00463 0.996483 0.989074
1.00337 0.997302 0.990095
1.00403 0.995528 0.991131
1.00394 0.996413 0.990457
1.00318 0.997082 0.991008
1.00332 0.996499 0.991515
1.00337 0.997381 0.990647
1.00273 0.998101 0.991095
1.00272 0.997909 0.991308
1.0026 0.998835 0.990634
1.00232 0.998536 0.991401
1.00229 0.99925 0.990908
1.0022 0.999926 0.990499
1.002 1.00034 0.990348
1.00185 1.00064 0.990352
1.00164 1.00083 0.990629
1.00078 1.00146 0.991385
1.00111 1.00158 0.990726
1.00141 1.0017 0.990144
1 1.00149 0.99299
1.00048 1.00178 0.991858
1.00064 1.00208 0.991192
0.999514 0.999627 0.995744
0.999951 1.00137 0.993248
1.00032 1.00182 0.99218
0.999461 0.997776 0.999132
0.999578 0.999238 0.996041
0.999968 1.00114 0.993452
0.999507 0.997557 0.999176
0.999629 0.998919 0.996294
0.999558 0.99735 0.999212
1.00015 1.00235 0.991973
1.00015 1.00215 0.992195
1.00011 1.00184 0.99249
1.00013 1.00198 0.992306
1.00014 1.00164 0.992602
0.999989 1.00075 0.993776
1.00017 1.00143 0.992765
1.00001 1.00037 0.99412
0.999739 0.998496 0.996502
1.00005 0.999962 0.994451
0.999806 0.998176 0.996682
0.99965 0.997059 0.99925
0.999729 0.99684 0.999282
0.999859 0.997958 0.996791
0.999797 0.996672 0.999303
0.999628 0.999519 0.984749
0.998087 0.998084 0.967469
0.996923 0.996073 0.971198
1.00041 1.00239 0.991452
1.00009 1.00254 0.991939
1.00008 1.00232 0.992102
1 1.00256 0.99201
1.00005 1.00264 0.991858
1.00002 1.00208 0.99226
1.00006 1.00295 0.991578
0.999907 1.00318 0.991608
1.00028 1.00234 0.991644
1.00083 1.00244 0.991039
1.00191 1.00152 0.989369
1.00405 0.999155 0.987288
1.00213 1.00176 0.98852
1.00052 1.00249 0.990808
1.00444 0.995525 0.991041
1.00023 0.998098 0.983952
0.99696 1.00003 0.971055
1.00071 0.996138 0.986386
1.00434 0.996247 0.990569
1.00203 1.00002 0.990092
1.00299 0.999859 0.990146
0.998927 0.999334 0.987777
0.998193 0.997537 0.967528
1.0033 1.00178 0.987358
1.00033 0.998384 0.986987
1.00484 0.997994 0.987655
1.00421 0.99818 0.989807
1.00476 0.996632 0.988345
1.00391 0.998473 0.987959
1.00475 0.996431 0.988129
1.00462 0.99631 0.989117
1.00401 0.997776 0.988995
1.00391 0.995764 0.991096
1.00393 0.996451 0.990457
1.00373 0.99794 0.989437
1.00325 0.996706 0.99145
1.00324 0.997462 0.990796
1.0031 0.998631 0.989833
1.00263 0.997991 0.991343
1.00259 0.998844 0.990638
1.00248 0.999546 0.990181
1.00226 0.999138 0.990977
1.00218 0.999847 0.990525
1.00196 1.00031 0.990469
1.00185 1.00067 0.990328
1.00161 1.00085 0.990579
1.00126 1.00101 0.991146
1.00025 1.00135 0.992661
1.00077 1.00148 0.991458
1.00108 1.00161 0.990799
0.999456 1.00012 0.995377
1.00002 1.00149 0.992993
1.00049 1.00178 0.991851
0.999381 0.998075 0.999057
0.999533 0.999632 0.995738
0.999977 1.00134 0.993252
0.999448 0.997812 0.99911
0.999575 0.999281 0.996033
0.999502 0.997588 0.999157
1.0003 1.0023 0.991594
1.00014 1.00232 0.991982
1.00016 1.00196 0.992341
1.00016 1.00213 0.992224
1.00011 1.00184 0.992513
0.999946 1.00112 0.993503
1.00013 1.00168 0.992582
0.999977 1.00078 0.993772
0.999657 0.998851 0.996298
1.00001 1.00038 0.994122
0.999743 0.99846 0.996515
0.999583 0.997291 0.99921
0.999808 0.998155 0.996692
0.999661 0.997029 0.999259
0.999738 0.996828 0.999287
1.00358 0.996979 0.991057
0.99961 0.9995 0.981432
0.998091 0.998957 0.96934
1.00046 1.00182 0.991701
1.0012 1.00173 0.990601
1.00026 1.00242 0.991526
1.00004 1.00259 0.992001
1.00003 1.00269 0.991834
1.00017 1.00206 0.992155
1.00181 1.00112 0.989961
1.00036 1.00236 0.991758
1.00042 1.00237 0.991231
1.00186 1.00146 0.989494
1.00354 0.999689 0.987611
1.00484 0.996474 0.988308
1.00406 0.999138 0.9873
1.00221 1.00153 0.988453
1.00448 0.995553 0.991262
1.00018 0.998629 0.981373
1.00449 0.996202 0.990598
1.00344 0.998119 0.990294
1.00285 0.999334 0.990449
0.999202 0.999174 0.983074
1.00489 0.997201 0.987538
1.00422 0.9982 0.99022
1.0047 0.996716 0.988385
1.00402 0.998294 0.988172
1.00394 0.998123 0.988679
1.00359 0.998002 0.989374
1.00462 0.99603 0.98916
1.00408 0.99756 0.989036
1.00381 0.998439 0.988658
1.00392 0.996539 0.990456
1.00367 0.997884 0.989544
1.00351 0.998612 0.989021
1.00311 0.997538 0.990945
1.00311 0.998637 0.989821
1.00295 0.99929 0.989494
1.00258 0.998854 0.990641
1.00248 0.999541 0.99018
1.00226 1.00003 0.990123
1.00216 0.999766 0.990551
1.00194 1.00028 0.990474
1.00155 1.00062 0.990915
1.00157 1.00086 0.99053
1.00121 1.00101 0.991127
1.00059 1.00102 0.992351
0.999489 1.0004 0.995027
1.00026 1.00136 0.992663
1.00077 1.00149 0.991531
0.999253 0.998487 0.998966
0.999506 1.00007 0.995368
1.00004 1.00148 0.992995
0.999356 0.998139 0.999031
0.999551 0.999641 0.995733
0.999436 0.997855 0.999088
1.00066 1.00211 0.990908
1.00031 1.00228 0.991524
1.00035 1.0019 0.992039
1.00014 1.00229 0.99199
1.00014 1.00196 0.992346
0.999913 1.00141 0.993297
1.0001 1.00184 0.992535
0.999922 1.00117 0.993498
0.999574 0.99925 0.996061
0.999964 1.00082 0.993768
0.999666 0.998806 0.99631
0.999514 0.997541 0.999161
0.999747 0.998425 0.996529
0.999593 0.997257 0.999223
0.999673 0.997006 0.999269
1.00418 0.996178 0.989778
1.0036 0.997152 0.990847
0.999838 0.999313 0.983869
1.00188 1.00096 0.990291
1.00031 1.00177 0.992079
1.00187 1.0009 0.989593
1.00121 1.00174 0.990547
1.00009 1.00247 0.991601
1.00336 0.999895 0.988156
1.00032 1.00203 0.99205
1.00189 1.00102 0.989883
1.00437 0.997955 0.987909
1.00183 1.00139 0.98962
1.00367 0.999726 0.987495
1.00473 0.99663 0.98831
1.00397 0.999192 0.987313
1.00455 0.995427 0.991468
1.00343 0.997736 0.990213
1.00334 0.997934 0.990229
1.00272 0.998775 0.990754
1.00463 0.996819 0.988426
1.00413 0.998177 0.988382
1.00402 0.998059 0.988632
1.00366 0.998064 0.989345
1.00363 0.9984 0.989098
1.00414 0.997414 0.989076
1.00383 0.998415 0.988685
1.00368 0.998708 0.988633
1.00362 0.997837 0.989652
1.00354 0.998627 0.988994
1.00338 0.999073 0.98887
1.00313 0.998644 0.989809
1.00296 0.999288 0.98948
1.0027 0.999749 0.989551
1.00248 0.999536 0.990179
1.00227 1.00002 0.990121
1.00188 1.00036 0.990528
1.00191 1.00025 0.99048
1.00155 1.00061 0.99092
1.00091 1.00069 0.992054
1.00117 1.001 0.991109
1.00058 1.00103 0.99235
0.999541 1.00047 0.995526
0.999162 0.999145 0.997275
0.999538 1.00031 0.995393
1.00026 1.00137 0.992665
0.999229 0.998589 0.998933
0.999551 1.00002 0.99536
0.999335 0.998203 0.999004
1.00234 1.00003 0.989796
1.00114 1.0017 0.990376
1.00075 1.00209 0.990824
1.0006 1.00175 0.991684
1.00031 1.00225 0.991454
1.00032 1.00189 0.992055
0.999942 1.00154 0.993128
1.00012 1.00196 0.992351
0.999887 1.00144 0.993295
0.999514 0.999665 0.995773
0.999897 1.00123 0.993493
0.999578 0.999207 0.996068
0.999431 0.997825 0.999097
0.999674 0.99876 0.996321
0.999525 0.997506 0.999176
0.999605 0.997222 0.999235
1.00394 0.997561 0.989239
1.00413 0.99643 0.989977
1.00362 0.997446 0.990641
1.00311 0.999763 0.988707
1.00162 1.00098 0.990602
1.00013 1.00172 0.992455
1.00204 1.00086 0.989715
1.00123 1.00176 0.990493
1.00424 0.998671 0.987571
1.00336 0.999948 0.988011
1.00195 1.00096 0.989804
1.0044 0.998065 0.987874
1.00385 0.999732 0.98738
1.00457 0.99673 0.988312
1.00347 0.998263 0.989465
1.00345 0.997739 0.990092
1.00323 0.997718 0.990163
1.00411 0.997985 0.988587
1.00373 0.998095 0.989315
1.00363 0.998404 0.989118
1.00352 0.998914 0.988791
1.00385 0.998379 0.988712
1.0037 0.998708 0.988627
1.00352 0.999013 0.988657
1.00356 0.998647 0.988968
1.00339 0.999075 0.988859
1.00309 0.999453 0.989077
1.00298 0.999286 0.989465
1.0027 0.999745 0.989541
1.00227 1.00009 0.990029
1.00227 1.00002 0.990118
1.00189 1.00035 0.990526
1.00121 1.00048 0.991685
1.00154 1.00061 0.990925
1.0009 1.0007 0.992048
0.999646 1.00047 0.995354
1.00058 1.00105 0.992349
0.999613 1.00044 0.995483
0.999023 0.999701 0.997064
0.999118 0.999131 0.998051
0.999599 1.00023 0.995744
0.999207 0.998681 0.998898
1.00317 0.999468 0.988874
1.00183 1.00081 0.990277
1.0022 0.99989 0.99024
1.00091 1.00162 0.991187
1.00126 1.00169 0.99036
1.00085 1.00207 0.990741
1.00056 1.00179 0.991692
1.00007 1.00153 0.992883
1.00029 1.00188 0.99207
0.999927 1.00154 0.993126
0.999484 1.00005 0.995454
0.999862 1.00146 0.993292
0.999503 0.999643 0.995778
0.999316 0.998193 0.999016
0.999582 0.999162 0.996076
0.999448 0.997783 0.999118
0.999537 0.997468 0.999192
1.00401 0.998205 0.988479
1.00398 0.997524 0.989227
1.0041 0.996666 0.990174
1.00397 0.998775 0.987897
1.0031 0.999792 0.988715
1.00139 1.001 0.990914
1.00219 1.00078 0.989837
1.00427 0.998679 0.987583
1.0034 0.999986 0.987867
1.00439 0.998196 0.987839
1.0036 0.998673 0.98885
1.00352 0.9983 0.989321
1.00344 0.997772 0.989972
1.00351 0.999203 0.988531
1.00363 0.998414 0.989139
1.00352 0.998918 0.988784
1.00343 0.999191 0.988693
1.00371 0.998708 0.988621
1.00352 0.999021 0.988661
1.00324 0.999364 0.988875
1.0034 0.999076 0.988848
1.00309 0.999458 0.989073
1.00262 0.999812 0.989642
1.00271 0.999742 0.989532
1.00227 1.00009 0.990024
1.00152 1.00029 0.991262
1.00189 1.00034 0.990524
1.00121 1.00047 0.991673
0.999777 1.00037 0.995234
1.0009 1.00071 0.992043
0.999718 1.00045 0.995317
0.998943 0.999997 0.996963
0.999686 1.00041 0.995438
0.998981 0.999742 0.997105
0.999048 0.999095 0.998859
1.00367 0.999307 0.9882
1.00275 0.999852 0.98939
1.00308 0.999556 0.989027
1.00145 1.00107 0.990835
1.00181 1.00074 0.990276
1.00207 0.999791 0.99068
1.00036 1.00144 0.992417
1.00091 1.00161 0.991182
1.00136 1.00169 0.990343
1.00052 1.00182 0.9917
1.00005 1.00154 0.992884
0.99949 1.0004 0.995113
0.999911 1.00152 0.993124
0.999447 1.00009 0.995457
0.999163 0.998672 0.998926
0.999491 0.999618 0.995783
0.999343 0.998123 0.999042
0.999465 0.997739 0.999138
1.00405 0.998334 0.988319
1.00409 0.998186 0.98835
1.00405 0.997464 0.989215
1.00404 0.998701 0.987907
1.0031 0.999839 0.988723
1.00426 0.998684 0.987595
1.00368 0.998956 0.98843
1.00359 0.998713 0.988823
1.00359 0.998335 0.989176
1.0035 0.999169 0.988576
1.00343 0.999457 0.988468
1.00352 0.998921 0.988778
1.00343 0.999201 0.988697
1.00323 0.999462 0.988805
1.00352 0.999028 0.988666
1.00323 0.999367 0.988881
1.00278 0.999708 0.989433
1.00309 0.999461 0.989069
1.00261 0.999816 0.989638
1.00178 1.00008 0.990964
1.00228 1.00009 0.990019
1.00153 1.00028 0.991249
0.999963 1.00019 0.995116
1.00122 1.00047 0.99166
0.999846 1.00036 0.995196
0.998926 1.00013 0.996902
0.999793 1.00041 0.995279
0.998896 1.00006 0.997
0.998938 0.999782 0.997149
1.00385 0.998589 0.988384
1.00327 0.999521 0.988654
1.00368 0.999249 0.988151
1.00214 1.00031 0.990167
1.00272 0.999901 0.989467
1.00298 0.999624 0.989183
1.0008 1.00102 0.991896
1.00143 1.00103 0.99071
1.0018 1.00066 0.990275
0.999563 1.00063 0.994731
1.00035 1.00142 0.992424
1.00091 1.00161 0.991177
1.00003 1.00154 0.992885
0.999424 1.00048 0.995121
0.999004 0.999231 0.99883
0.999407 1.00013 0.995461
0.999193 0.998577 0.998955
0.999373 0.998058 0.999067
1.00389 0.998566 0.988423
1.00406 0.998361 0.988296
1.00418 0.998174 0.988222
1.00411 0.998614 0.987918
1.00368 0.999172 0.988244
1.00369 0.998954 0.988453
1.00358 0.998753 0.988797
1.0035 0.999135 0.988621
1.00344 0.999422 0.988449
1.00329 0.999591 0.988613
1.00343 0.999213 0.988701
1.00322 0.999472 0.988845
1.00283 0.9997 0.989246
1.00322 0.999372 0.988887
1.00277 0.999707 0.989434
1.00192 0.999946 0.99081
1.00261 0.999822 0.989634
1.00179 1.00007 0.990957
1.00012 1.00002 0.994128
1.00154 1.00027 0.991236
1.00001 1.0002 0.994636
0.998977 1.00013 0.998636
0.999919 1.00034 0.995156
0.998879 1.00019 0.99694
0.998846 1.00013 0.99704
1.00379 0.998572 0.988618
1.00338 0.99918 0.988668
1.00383 0.998642 0.988424
1.00266 0.99977 0.989389
1.00324 0.999523 0.988726
1.00369 0.999208 0.988103
1.0013 1.00046 0.991223
1.00215 1.00031 0.990158
1.00267 0.999967 0.989545
0.999737 1.00062 0.994371
1.00081 1.001 0.991785
1.00141 1.00099 0.990584
0.998916 0.999754 0.998726
0.999487 1.00071 0.994748
1.00034 1.0014 0.99243
0.999354 1.00057 0.995129
0.999027 0.999116 0.998863
0.99923 0.998473 0.998982
1.00377 0.998783 0.988433
1.0039 0.998548 0.988421
1.00406 0.998391 0.988272
1.00362 0.999407 0.988174
1.00369 0.999183 0.988201
1.0037 0.998949 0.988477
1.00345 0.999386 0.988429
1.00329 0.999575 0.988614
1.00299 0.999685 0.989137
1.00322 0.999483 0.988885
1.00283 0.999724 0.989365
1.00204 0.999893 0.990424
1.00277 0.999703 0.989435
1.00192 0.999937 0.99081
1.0002 0.999955 0.994026
1.0018 1.00006 0.99095
1.00012 1.00003 0.994123
0.999032 1.00007 0.998623
1.00003 1.00021 0.994182
0.998963 1.00016 0.997774
0.998826 1.00027 0.996979
1.00367 0.998794 0.988723
1.00343 0.999001 0.988844
1.00376 0.998548 0.988641
1.00286 0.999566 0.989357
1.0034 0.999153 0.988694
1.00382 0.998684 0.988464
1.00177 1.00002 0.99077
1.00268 0.999835 0.989534
1.00323 0.999516 0.988799
0.999944 1.0004 0.994142
1.00136 1.00043 0.991168
1.00215 1.0003 0.990149
0.998925 1.00009 0.998643
0.999675 1.00068 0.994388
1.00082 1.00097 0.991674
0.99891 0.999637 0.998762
0.999415 1.00079 0.994764
0.999049 0.998992 0.998893
1.00361 0.999137 0.988443
1.00376 0.998799 0.988441
1.0039 0.998534 0.98842
1.00327 0.999528 0.988736
1.00358 0.999427 0.98821
1.00369 0.999197 0.988158
1.0033 0.999562 0.988614
1.00299 0.999681 0.98914
1.00225 0.999815 0.99008
1.00282 0.999749 0.989485
1.00202 0.999905 0.990542
1.0003 0.999977 0.993808
1.00193 0.999924 0.99081
1.00021 0.999957 0.994024
0.9991 1.00002 0.998601
1.00011 1.00005 0.994118
0.999054 1.00007 0.998617
0.99899 1.00021 0.996859
1.00345 0.999083 0.988858
1.00364 0.998729 0.988753
1.00299 0.999419 0.989268
1.00344 0.998999 0.988835
1.00374 0.998523 0.988665
1.00201 0.999862 0.990709
1.00289 0.999546 0.989346
1.00342 0.999131 0.988721
1.00013 1.00012 0.994025
1.00178 1.00006 0.990841
1.0027 0.999899 0.98968
0.999 1.00019 0.998603
0.999913 1.00042 0.994156
1.00142 1.00041 0.991113
0.998898 1 0.998669
0.99962 1.00073 0.994405
0.998904 0.999518 0.998799
1.00322 0.999423 0.988967
1.00359 0.99916 0.988472
1.00376 0.998814 0.988448
1.00244 0.999705 0.989819
1.00327 0.999556 0.988733
1.00355 0.999445 0.988246
1.00299 0.999678 0.989143
1.00222 0.999821 0.99013
1.00045 0.999984 0.993506
1.00201 0.999913 0.990659
1.00031 0.999979 0.9938
0.999173 1 0.998554
1.00021 0.999962 0.994022
0.999125 1.00002 0.998589
0.999082 1.00007 0.99861
1.00308 0.999419 0.989139
1.00346 0.999021 0.988842
1.00362 0.998666 0.988783
1.00215 0.999757 0.990539
1.003 0.999419 0.989261
1.00346 0.998997 0.988826
1.00027 0.999946 0.993916
1.00201 0.999868 0.990708
1.00292 0.999526 0.989335
0.99909 1.00013 0.99858
1.00011 1.00013 0.994037
1.0018 1.0001 0.990912
0.998959 1.00015 0.998613
0.999883 1.00044 0.99417
0.998863 0.999923 0.998698
1.00241 0.999702 0.990089
1.00323 0.999424 0.988845
1.00356 0.99918 0.988501
1.00056 0.999959 0.993307
1.00243 0.999709 0.989839
1.00326 0.999585 0.988731
1.00219 0.999825 0.990179
1.00046 0.999985 0.993498
0.999282 1 0.99847
1.00032 0.999981 0.993792
0.99921 1 0.998525
0.99915 1.00001 0.998574
1.00228 0.999724 0.990317
1.00309 0.99939 0.989093
1.00346 0.99896 0.988826
1.00042 0.999907 0.994674
1.00215 0.999768 0.990533
1.00302 0.999419 0.989253
0.999186 1.00004 0.998546
1.00027 0.999936 0.993923
1.00201 0.999874 0.990707
0.999057 1.00013 0.998587
1.00009 1.00014 0.994048
0.998925 1.00011 0.998625
1.0006 0.999954 0.993264
1.00241 0.999683 0.990001
1.00324 0.999421 0.988722
0.999377 0.999996 0.998402
1.00057 0.999955 0.993301
1.00241 0.999712 0.989859
1.00047 0.999988 0.993487
0.999319 1 0.998442
0.999249 1 0.998495
1.00056 0.999931 0.99442
1.00229 0.99972 0.990317
1.00311 0.999359 0.989048
0.999155 0.999998 0.998592
1.00038 0.999894 0.993763
1.00216 0.999776 0.990528
0.999152 1.00005 0.998559
1.00027 0.999927 0.99393
0.999015 1.00012 0.998593
0.999394 0.999991 0.996316
1.0006 0.999952 0.993804
1.00241 0.999669 0.989913
0.999389 0.999995 0.998389
1.00058 0.999952 0.993299
0.999352 1 0.998417
0.999229 0.999952 0.996545
1.00051 0.99994 0.99399
1.00229 0.999716 0.990318
0.999195 0.999979 0.997587
1.00038 0.999893 0.993748
0.999125 1.00005 0.998571
0.9994 0.999992 0.998381
1.00057 0.999945 0.993315
0.999403 0.999992 0.99838
0.999291 0.999985 0.997467
1.00049 0.99994 0.993507
0.999215 1 0.998531
0.999374 0.999989 0.998404
0.999301 0.999991 0.998467

TENSORS stress float
0.00117895 2.88883e-05 4.06038e-05
2.88883e-05 0.000246045 -6.12595e-06
4.06038e-05 -6.12595e-06 0.000227685
0.00292584 -6.70234e-05 3.67286e-05
-6.70234e-05 0.00112412 3.34773e-06
3.67286e-05 3.34773e-06 0.00112382
0.00117824 3.81204e-05 1.76439e-05
3.81204e-05 0.000250238 -2.05837e-06
1.76439e-05 -2.05837e-06 0.000230554
0.00139349 7.49644e-06 5.52596e-05
7.49644e-06 0.000355176 -4.81672e-06
5.52596e-05 -4.81672e-06 0.00033403
0.00123169 1.84426e-05 4.64157e-05
1.84426e-05 0.000280391 -5.88394e-06
4.64157e-05 -5.88394e-06 0.000260353
0.00114014 3.52043e-05 3.43782e-05
3.52043e-05 0.000213362 -6.39247e-06
3.43782e-05 -6.39247e-06 0.000198625
0.00111747 6.48499e-06 7.90269e-06
6.48499e-06 0.000176215 -2.78778e-06
7.90269e-06 -2.78778e-06 0.000136957
0.00292034 -6.85904e-05 6.54026e-07
-6.85904e-05 0.00111819 -1.68624e-07
6.54026e-07 -1.68624e-07 0.00111847
0.00338929 -0.000106407 9.39796e-06
-0.000106407 0.00140575 1.33001e-06
9.39796e-06 1.33001e-06 0.00139217
0.0029331 -8.35371e-05 1.25903e-05
-8.35371e-05 0.00114632 1.31553e-06
1.25903e-05 1.31553e-06 0.00114104
0.00109236 -3.48361e-05 2.89583e-05
-3.48361e-05 0.000162797 3.98713e-06
2.89583e-05 3.98713e-06 0.000158053
0.000770418 -7.64337e-06 6.13194e-06
-7.64337e-06 -7.94318e-06 3.4674e-06
6.13194e-06 3.4674e-06 -4.14836e-05
0.00164941 -7.83718e-06 6.78651e-05
-7.83718e-06 0.000464852 6.17022e-07
6.78651e-05 6.17022e-07 0.000443479
0.00134207 -2.58049e-05 9.44656e-06
-2.58049e-05 0.000333097 1.23552e-06
9.44656e-06 1.23552e-06 0.000310144
0.00118 5.11738e-05 -6.96411e-06
5.11738e-05 0.000256086 1.95316e-06
-6.96411e-06 1.95316e-06 0.000234666
0.00137375 3.16244e-05 2.56983e-05
3.16244e-05 0.000351675 -1.45093e-06
2.56983e-05 -1.45093e-06 0.000328007
0.00112502 4.0932e-05 1.44067e-05
4.0932e-05 0.000208435 -2.25121e-06
1.44067e-05 -2.25121e-06 0.000193131
0.00123423 3.45617e-05 2.0467e-05
3.45617e-05 0.000287487 -1.82471e-06
2.0467e-05 -1.82471e-06 0.000265345
0.0011815 4.95487e-06 -6.81149e-06
4.95487e-06 0.000206295 4.06936e-07
-6.81149e-06 4.06936e-07 0.000167778
0.00440174 3.69003e-05 6.76858e-05
3.69003e-05 0.00188437 -6.0348e-07
6.76858e-05 -6.0348e-07 0.00187717
0.00148624 8.00891e-06 5.88658e-05
8.00891e-06 0.000394216 -3.73459e-06
5.88658e-05 -3.73459e-06 0.000373485
0.00129318 1.05261e-05 5.09818e-05
1.05261e-05 0.000311875 -5.5587e-06
5.09818e-05 -5.5587e-06 0.000290987
0.00134267 5.64308e-06 9.5036e-06
5.64308e-06 0.000252241 -3.1407e-06
9.5036e-06 -3.1407e-06 0.000208557
0.00118214 3.78159e-06 8.17961e-06
3.78159e-06 0.000201336 -3.05764e-06
8.17961e-06 -3.05764e-06 0.000160134
0.00114779 3.71611e-05 3.09411e-05
3.71611e-05 0.000200263 -6.44575e-06
3.09411e-05 -6.44575e-06 0.000190978
0.00105211 1.3544e-05 7.15463e-06
1.3544e-05 0.000148323 -2.66486e-06
7.15463e-06 -2.66486e-06 0.00011258
0.00143925 -4.97779e-05 2.66936e-06
-4.97779e-05 0.00026719 -1.0053e-06
2.66936e-06 -1.0053e-06 0.000203653
0.00291029 -6.96921e-05 -3.3395e-05
-6.96921e-05 0.00110959 -3.37844e-06
-3.3395e-05 -3.37844e-06 0.00111057
0.00228918 -6.11753e-05 -1.85036e-05
-6.11753e-05 0.000834751 -5.18247e-07
-1.85036e-05 -5.18247e-07 0.000817734
0.00207157 -5.96834e-05 -1.42581e-05
-5.96834e-05 0.000699589 -7.70256e-07
-1.42581e-05 -7.70256e-07 0.00068951
0.0027752 -6.34523e-05 4.40491e-07
-6.34523e-05 0.00103027 -9.52359e-08
4.40491e-07 -9.52359e-08 0.00103426
0.000717773 -1.34678e-05 -2.30235e-08
-1.34678e-05 -3.08992e-05 -6.69947e-08
-2.30235e-08 -6.69947e-08 -6.51402e-05
0.00154324 -8.20953e-06 4.98258e-05
-8.20953e-06 0.000443262 3.26323e-06
4.98258e-05 3.26323e-06 0.000421415
0.00138032 -2.3413e-05 4.15344e-05
-2.3413e-05 0.000355384 3.54307e-06
4.15344e-05 3.54307e-06 0.000337058
0.00193362 2.2869e-05 2.58674e-05
2.2869e-05 0.000580951 3.21466e-06
2.58674e-05 3.21466e-06 0.00054417
0.00264241 -6.47045e-05 1.15362e-05
-6.47045e-05 0.000951673 1.47893e-06
1.15362e-05 1.47893e-06 0.000958419
0.0017342 -6.18548e-06 1.95976e-05
-6.18548e-06 0.000489493 2.76067e-06
1.95976e-05 2.76067e-06 0.000458291
0.000743832 -2.66598e-05 6.68838e-06
-2.66598e-05 -2.27874e-05 5.41575e-06
6.68838e-06 5.41575e-06 -5.28405e-05
0.000904176 3.02362e-05 3.09279e-06
3.02362e-05 3.42899e-05 1.03891e-06
3.09279e-06 1.03891e-06 -2.95433e-05
0.00256742 -4.78155e-05 2.83071e-05
-4.78155e-05 0.000896978 3.82553e-06
2.83071e-05 3.82553e-06 0.00090869
0.00449941 -3.59236e-05 1.81787e-06
-3.59236e-05 0.00193198 -2.46771e-07
1.81787e-06 -2.46771e-07 0.00192464
0.00273015 -3.71014e-05 -2.56621e-05
-3.71014e-05 0.00104262 -2.64601e-07
-2.56621e-05 -2.64601e-07 0.00102697
0.0047232 -2.56768e-05 7.51138e-05
-2.56768e-05 0.00203764 1.17748e-07
7.51138e-05 1.17748e-07 0.00203036
0.0013701 -1.96506e-05 1.01588e-05
-1.96506e-05 0.000338455 8.20814e-07
1.01588e-05 8.20814e-07 0.000315703
0.000785645 -9.31775e-06 1.23591e-05
-9.31775e-06 -7.38719e-05 1.88916e-06
1.23591e-05 1.88916e-06 -0.000121477
0.00386773 -0.000100024 9.80702e-06
-0.000100024 0.00164344 1.00201e-06
9.80702e-06 1.00201e-06 0.00162962
0.00215524 -9.28121e-06 3.42152e-05
-9.28121e-06 0.000654491 2.75546e-06
3.42152e-05 2.75546e-06 0.000618614
0.00137295 4.01653e-05 -7.62076e-06
4.01653e-05 0.000356026 1.93198e-06
-7.62076e-06 1.93198e-06 0.000331096
0.00125241 5.44279e-05 -5.96616e-06
5.44279e-05 0.000303279 2.11705e-06
-5.96616e-06 2.11705e-06 0.000278576
0.00109514 4.82264e-05 -7.22107e-06
4.82264e-05 0.000196122 1.77633e-06
-7.22107e-06 1.77633e-06 0.000180072
0.00124214 1.17275e-06 -2.22744e-05
1.17275e-06 0.000234499 3.60113e-06
-2.22744e-05 3.60113e-06 0.000196913
0.00296607 3.60546e-05 -2.70856e-05
3.60546e-05 0.00114686 -8.95802e-07
-2.70856e-05 -8.95802e-07 0.00113102
0.00142739 2.40703e-05 2.57807e-05
2.40703e-05 0.000368909 -1.16415e-06
2.57807e-05 -1.16415e-06 0.000346548
0.00109505 4.12074e-05 1.22885e-05
4.12074e-05 0.00017477 -2.3221e-06
1.22885e-05 -2.3221e-06 0.000165389
0.00129892 3.21412e-05 2.3288e-05
3.21412e-05 0.000321044 -1.63091e-06
2.3288e-05 -1.63091e-06 0.000297687
0.00140473 -6.17166e-06 -9.45216e-06
-6.17166e-06 0.000280217 9.91924e-08
-9.45216e-06 9.91924e-08 0.000238338
0.00111209 1.34147e-05 -5.36897e-06
1.34147e-05 0.000176947 4.58898e-07
-5.36897e-06 4.58898e-07 0.00014173
0.00125095 -4.27302e-07 -8.32505e-06
-4.27302e-07 0.000232916 3.42477e-07
-8.32505e-06 3.42477e-07 0.000192799
0.00152557 -5.33403e-05 -1.57289e-06
-5.33403e-05 0.000308305 5.75137e-07
-1.57289e-06 5.75137e-07 0.00024414
0.00456265 4.00001e-05 6.80025e-05
4.00001e-05 0.00196141 5.05305e-08
6.80025e-05 5.05305e-08 0.00195372
0.00152527 1.16048e-05 6.16067e-05
1.16048e-05 0.000409728 -2.75527e-06
6.16067e-05 -2.75527e-06 0.000388944
0.0021342 2.48174e-05 1.06536e-05
2.48174e-05 0.000624934 -1.10506e-06
1.06536e-05 -1.10506e-06 0.000585202
0.00140969 2.24787e-06 1.1938e-05
2.24787e-06 0.000270549 -2.38133e-06
1.1938e-05 -2.38133e-06 0.000227984
0.00125127 3.83303e-06 8.51979e-06
3.83303e-06 0.000223948 -3.35234e-06
8.51979e-06 -3.35234e-06 0.000181202
0.00178383 -5.05764e-05 4.12284e-06
-5.05764e-05 0.000347331 -1.75206e-06
4.12284e-06 -1.75206e-06 0.000278096
0.00120333 -4.69095e-05 3.62927e-06
-4.69095e-05 0.000117728 -1.70776e-06
3.62927e-06 -1.70776e-06 5.17593e-05
0.00121762 3.68999e-05 2.98316e-05
3.68999e-05 0.000217071 -6.31e-06
2.98316e-05 -6.31e-06 0.000213519
0.00102813 3.85845e-05 5.03524e-06
3.85845e-05 0.000137593 -2.71046e-06
5.03524e-06 -2.71046e-06 0.000106491
0.00130556 -3.8685e-05 2.22853e-06
-3.8685e-05 0.000228683 -8.8304e-07
2.22853e-06 -8.8304e-07 0.000167144
0.00112471 -6.39943e-05 2.02438e-06
-6.39943e-05 5.6547e-05 -7.47226e-07
2.02438e-06 -7.47226e-07 -2.26307e-05
0.00336107 -8.16795e-05 -4.08099e-05
-8.16795e-05 0.00138359 -2.70901e-06
-4.08099e-05 -2.70901e-06 0.00137387
0.00280362 -6.42754e-05 -3.14796e-05
-6.42754e-05 0.00104128 -3.45701e-06
-3.14796e-05 -3.45701e-06 0.00104612
0.00301102 -7.4255e-05 -3.56907e-05
-7.4255e-05 0.00117852 -3.15895e-06
-3.56907e-05 -3.15895e-06 0.00117544
0.000674913 -1.4994e-05 -4.90836e-06
-1.4994e-05 -4.97441e-05 -4.00454e-06
-4.90836e-06 -4.00454e-06 -8.39426e-05
0.00382398 -7.3325e-05 2.36644e-07
-7.3325e-05 0.00161889 -1.55855e-07
2.36644e-07 -1.55855e-07 0.00160787
0.00326253 -7.63842e-05 1.29058e-06
-7.63842e-05 0.00132693 -1.48271e-07
1.29058e-06 -1.48271e-07 0.00131924
0.000676892 3.11296e-05 -9.67928e-08
3.11296e-05 -5.9265e-05 -1.62109e-07
-9.67928e-08 -1.62109e-07 -0.000103203
0.0018702 -4.87192e-05 -1.18364e-05
-4.87192e-05 0.000552098 -9.63246e-07
-1.18364e-05 -9.63246e-07 0.000555171
0.000715322 4.6246e-06 -1.09487e-07
4.6246e-06 -3.06011e-05 -6.62215e-08
-1.09487e-07 -6.62215e-08 -6.80705e-05
0.0011527 -3.75204e-05 6.55552e-06
-3.75204e-05 0.000188943 5.09601e-07
6.55552e-06 5.09601e-07 0.000161858
0.000879346 2.71047e-05 1.39428e-07
2.71047e-05 2.17072e-05 -2.37549e-07
1.39428e-07 -2.37549e-07 -4.2094e-05
0.00262605 -5.28479e-05 2.97718e-05
-5.28479e-05 0.000934284 3.69951e-06
2.97718e-05 3.69951e-06 0.00094397
0.000784914 -3.45581e-05 3.65067e-06
-3.45581e-05 -2.76651e-05 3.91646e-06
3.65067e-06 3.91646e-06 -4.44222e-05
0.000781281 3.79627e-05 1.09478e-05
3.79627e-05 -2.42068e-05 4.94725e-06
1.09478e-05 4.94725e-06 -6.9247e-05
0.00076997 2.16336e-05 8.97805e-06
2.16336e-05 -7.76584e-06 5.17623e-06
8.97805e-06 5.17623e-06 -4.95124e-05
0.00101768 4.92677e-05 3.98035e-06
4.92677e-05 2.38797e-05 1.65902e-06
3.98035e-06 1.65902e-06 -4.47832e-05
0.00157135 -5.16687e-05 1.39006e-05
-5.16687e-05 0.000397616 3.48015e-06
1.39006e-05 3.48015e-06 0.000377162
0.000942544 4.23186e-05 3.07868e-06
4.23186e-05 4.03527e-05 1.18118e-06
3.07868e-06 1.18118e-06 -2.34931e-05
0.000897308 1.73185e-05 2.81216e-06
1.73185e-05 3.77473e-05 1.70509e-06
2.81216e-06 1.70509e-06 -2.51035e-05
0.000926268 5.80829e-05 1.66946e-06
5.80829e-05 1.71503e-05 -6.59313e-08
1.66946e-06 -6.59313e-08 -5.91495e-05
0.00247864 -4.28303e-05 2.6205e-05
-4.28303e-05 0.000844651 3.92188e-06
2.6205e-05 3.92188e-06 0.000858429
0.00256382 -4.79087e-05 4.16087e-07
-4.79087e-05 0.000894348 -8.89797e-08
4.16087e-07 -8.89797e-08 0.000906293
0.00403383 -4.50267e-05 -5.66696e-05
-4.50267e-05 0.00171339 -1.65532e-06
-5.66696e-05 -1.65532e-06 0.00170522
0.00439008 -3.40553e-05 -6.4943e-05
-3.40553e-05 0.00188 -6.00922e-07
-6.4943e-05 -6.00922e-07 0.00187266
0.00466981 -1.51466e-05 3.21236e-06
-1.51466e-05 0.00201245 -3.36631e-07
3.21236e-06 -3.36631e-07 0.0020052
0.00283346 -3.03463e-05 -2.69401e-05
-3.03463e-05 0.00108708 -2.20079e-07
-2.69401e-05 -2.20079e-07 0.00107167
0.00150588 1.27533e-07 1.50719e-05
1.27533e-07 0.000298004 2.73369e-08
1.50719e-05 2.73369e-08 0.000255301
0.00257107 -5.17301e-05 -2.51423e-05
-5.17301e-05 0.000972155 -2.49399e-07
-2.51423e-05 -2.49399e-07 0.000954828
0.00138127 1.05316e-05 1.25567e-05
1.05316e-05 0.000260538 7.95765e-08
1.25567e-05 7.95765e-08 0.000220735
0.0047408 4.29783e-05 6.94107e-05
4.29783e-05 0.00204626 8.47527e-07
6.94107e-05 8.47527e-07 0.00203836
0.000773474 -1.05424e-06 1.05256e-05
-1.05424e-06 -9.29504e-05 4.155e-07
1.05256e-05 4.155e-07 -0.000142395
0.00219306 -2.78819e-05 3.65204e-05
-2.78819e-05 0.000663486 1.98495e-06
3.65204e-05 1.98495e-06 0.000626324
0.00121843 6.77522e-06 6.1683e-06
6.77522e-06 4.09402e-06 1.41082e-06
6.1683e-06 1.41082e-06 -7.21558e-05
0.00205337 2.51878e-05 3.08021e-05
2.51878e-05 0.000616635 2.77777e-06
3.08021e-05 2.77777e-06 0.00058015
0.00116657 3.0772e-05 5.76246e-06
3.0772e-05 1.60745e-05 1.53005e-06
5.76246e-06 1.53005e-06 -5.75186e-05
0.00161452 1.60826e-05 -6.58478e-05
1.60826e-05 0.000448047 5.51136e-07
-6.58478e-05 5.51136e-07 0.000426761
0.00137127 2.61004e-05 -1.00077e-05
2.61004e-05 0.000344061 1.47667e-06
-1.00077e-05 1.47667e-06 0.000320769
0.00101388 4.531e-05 -7.06558e-06
4.531e-05 0.000134927 1.63838e-06
-7.06558e-06 1.63838e-06 0.000125466
0.00132553 5.81003e-05 -4.74636e-06
5.81003e-05 0.00034213 2.21209e-06
-4.74636e-06 2.21209e-06 0.000315659
0.00144856 -9.7154e-06 -3.0113e-05
-9.7154e-06 0.000299714 3.34634e-06
-3.0113e-05 3.34634e-06 0.000259043
0.00129941 -6.46781e-06 -2.4977e-05
-6.46781e-06 0.000253705 3.63166e-06
-2.4977e-05 3.63166e-06 0.000214936
0.00118683 1.20453e-05 -1.88856e-05
1.20453e-05 0.000212931 3.55051e-06
-1.88856e-05 3.55051e-06 0.000178331
0.00161969 -5.67587e-05 -5.93744e-06
-5.67587e-05 0.000353263 2.23328e-06
-5.93744e-06 2.23328e-06 0.000288475
0.00463751 5.06923e-05 -2.94997e-06
5.06923e-05 0.00199762 -3.46749e-07
-2.94997e-06 -3.46749e-07 0.00198961
0.00144631 2.13955e-05 2.64119e-05
2.13955e-05 0.000372935 -7.88576e-07
2.64119e-05 -7.88576e-07 0.00035105
0.00113003 1.26206e-05 -1.64731e-05
1.26206e-05 0.000105896 2.3414e-07
-1.64731e-05 2.3414e-07 6.10246e-05
0.00145572 -4.36993e-06 -9.45512e-06
-4.36993e-06 0.00029149 7.46217e-08
-9.45512e-06 7.46217e-08 0.000250063
0.00196029 4.98358e-05 2.1721e-05
4.98358e-05 0.000603231 -1.8609e-06
2.1721e-05 -1.8609e-06 0.000604064
0.00130088 3.15839e-05 -4.27997e-06
3.15839e-05 0.000273769 4.39354e-07
-4.27997e-06 4.39354e-07 0.00024464
0.00132402 -2.61939e-06 -9.48671e-06
-2.61939e-06 0.000257464 1.97177e-07
-9.48671e-06 1.97177e-07 0.000216037
0.00162428 -4.70672e-05 -2.72044e-06
-4.70672e-05 0.000264913 5.55001e-07
-2.72044e-06 5.55001e-07 0.000194742
0.00143761 -4.46143e-05 -1.28283e-06
-4.46143e-05 0.000292476 6.47473e-07
-1.28283e-06 6.47473e-07 0.000230091
0.00140674 -5.1698e-05 -6.88469e-07
-5.1698e-05 0.000220371 1.3048e-07
-6.88469e-07 1.3048e-07 0.000154904
0.00112222 -6.35374e-05 -1.15542e-08
-6.35374e-05 5.55001e-05 -3.67572e-08
-1.15542e-08 -3.67572e-08 -2.35541e-05
0.000757186 3.73351e-06 1.03706e-05
3.73351e-06 -9.62175e-05 -1.61862e-06
1.03706e-05 -1.61862e-06 -0.000145469
0.00143117 7.34547e-06 1.25534e-05
7.34547e-06 0.000273916 -1.7853e-06
1.25534e-05 -1.7853e-06 0.000231941
0.00157404 7.07329e-06 5.5171e-06
7.07329e-06 0.000188573 -1.06231e-06
5.5171e-06 -1.06231e-06 0.000115773
0.00147785 -3.42677e-05 5.38433e-06
-3.42677e-05 0.000168016 -1.42095e-06
5.38433e-06 -1.42095e-06 9.7297e-05
0.00134826 -4.92898e-05 4.30166e-06
-4.92898e-05 0.000157654 -2.12945e-06
4.30166e-06 -2.12945e-06 8.90567e-05
0.0017113 -5.99442e-05 1.75489e-06
-5.99442e-05 0.000242498 -6.42673e-07
1.75489e-06 -6.42673e-07 0.000158702
0.00276289 5.87306e-05 3.06365e-05
5.87306e-05 0.00100671 -3.46419e-06
3.06365e-05 -3.46419e-06 0.00101485
0.00113868 -6.06393e-05 1.89e-06
-6.06393e-05 3.37181e-05 -6.55948e-07
1.89e-06 -6.55948e-07 -4.51783e-05
0.000716567 4.65117e-05 3.3283e-06
4.65117e-05 -3.68696e-05 -3.72784e-06
3.3283e-06 -3.72784e-06 -6.54014e-05
0.000756621 -2.34163e-05 2.31067e-06
-2.34163e-05 -3.29105e-05 -1.21632e-06
2.31067e-06 -1.21632e-06 -9.44013e-05
0.00118881 -6.84895e-05 1.98533e-06
-6.84895e-05 0.000122197 -1.14492e-06
1.98533e-06 -1.14492e-06 4.21715e-05
0.00122318 -7.23626e-05 1.1963e-06
-7.23626e-05 7.3833e-05 -2.20387e-07
1.1963e-06 -2.20387e-07 -1.09818e-05
0.000713228 3.63406e-05 4.06411e-06
3.63406e-05 -5.93728e-05 -3.90905e-06
4.06411e-06 -3.90905e-06 -7.91274e-05
0.000894295 8.98316e-06 1.96671e-06
8.98316e-06 1.62882e-05 -2.46651e-06
1.96671e-06 -2.46651e-06 -3.26826e-05
0.00362472 -8.11027e-05 -4.46842e-05
-8.11027e-05 0.00151967 -2.58323e-06
-4.46842e-05 -2.58323e-06 0.00150842
0.00313358 -7.95693e-05 -3.6969e-05
-7.95693e-05 0.00125799 -2.88298e-06
-3.6969e-05 -2.88298e-06 0.00125107
0.000646838 2.63052e-05 -6.91665e-06
2.63052e-05 -7.11108e-05 -4.09825e-06
-6.91665e-06 -4.09825e-06 -0.000115236
0.00272756 -5.8576e-05 -3.04917e-05
-5.8576e-05 0.000992139 -3.53196e-06
-3.04917e-05 -3.53196e-06 0.000999971
0.000647585 -4.4716e-05 -3.20455e-06
-4.4716e-05 -6.78916e-05 -4.20523e-06
-3.20455e-06 -4.20523e-06 -9.82672e-05
0.000650087 3.48925e-06 -6.22196e-06
3.48925e-06 -5.82927e-05 -3.63114e-06
-6.22196e-06 -3.63114e-06 -9.643e-05
0.00085122 2.76261e-05 -2.85999e-06
2.76261e-05 6.81954e-06 -1.36947e-06
-2.85999e-06 -1.36947e-06 -5.66456e-05
0.00264233 -5.3007e-05 3.62842e-07
-5.3007e-05 0.000941629 -1.01279e-07
3.62842e-07 -1.01279e-07 0.000951508
0.000766595 -3.30001e-05 1.56803e-07
-3.30001e-05 -3.79761e-05 9.49414e-09
1.56803e-07 9.49414e-09 -5.43086e-05
0.0013 3.21744e-05 1.07174e-05
3.21744e-05 0.000245116 2.05419e-08
1.07174e-05 2.05419e-08 0.00020426
0.00120636 1.15098e-05 8.31593e-06
1.15098e-05 0.000221236 2.5656e-07
8.31593e-06 2.5656e-07 0.0001832
0.000998752 4.9357e-05 2.02604e-07
4.9357e-05 1.45863e-05 -2.65797e-09
2.02604e-07 -2.65797e-09 -5.39387e-05
0.000752289 -4.33053e-05 -1.20135e-08
-4.33053e-05 -2.57835e-05 2.36154e-08
-1.20135e-08 2.36154e-08 -5.02208e-05
0.000907145 4.0603e-05 -4.0633e-08
4.0603e-05 2.24999e-05 1.25585e-07
-4.0633e-08 1.25585e-07 -4.11721e-05
0.000866249 1.50863e-05 5.29524e-08
1.50863e-05 2.28881e-05 -2.17359e-07
5.29524e-08 -2.17359e-07 -3.98601e-05
0.000889236 5.69725e-05 -5.41147e-08
5.69725e-05 -2.42222e-06 -1.52102e-07
-5.41147e-08 -1.52102e-07 -7.88781e-05
0.000765365 -3.94387e-05 3.63767e-06
-3.94387e-05 -2.82513e-05 3.89161e-06
3.63767e-06 3.89161e-06 -4.87957e-05
0.000807065 -2.96282e-05 3.49498e-06
-2.96282e-05 -2.45349e-05 3.84823e-06
3.49498e-06 3.84823e-06 -3.74992e-05
0.000861936 -8.62847e-07 2.74828e-06
-8.62847e-07 7.15352e-07 2.13434e-06
2.74828e-06 2.13434e-06 -4.82093e-05
0.00106228 4.52918e-05 4.56536e-06
4.52918e-05 1.28067e-05 1.73021e-06
4.56536e-06 1.73021e-06 -5.79339e-05
0.000983021 4.8665e-05 3.42782e-06
4.8665e-05 3.95486e-05 1.53999e-06
3.42782e-06 1.53999e-06 -2.64917e-05
0.00118364 6.54874e-05 2.2589e-06
6.54874e-05 5.8465e-05 9.55172e-07
2.2589e-06 9.55172e-07 -2.36411e-05
0.000894696 1.11597e-05 2.75319e-06
1.11597e-05 3.00945e-05 1.93671e-06
2.75319e-06 1.93671e-06 -2.83158e-05
0.000947406 6.09233e-05 1.3393e-06
6.09233e-05 7.0786e-06 2.62647e-07
1.3393e-06 2.62647e-07 -6.84789e-05
0.00104626 5.7181e-05 1.74409e-06
5.7181e-05 9.5339e-05 3.68176e-07
1.74409e-06 3.68176e-07 1.75785e-05
0.00106939 7.10142e-05 -5.65105e-08
7.10142e-05 8.25206e-05 -6.83198e-07
-5.65105e-08 -6.83198e-07 -4.56563e-07
0.00238976 -3.80991e-05 2.3788e-05
-3.80991e-05 0.000792217 3.95234e-06
2.3788e-05 3.95234e-06 0.00080804
0.00247023 -4.29864e-05 4.6518e-07
-4.29864e-05 0.000839493 -7.50801e-08
4.6518e-07 -7.50801e-08 0.000853528
0.00255964 -4.80522e-05 -2.687e-05
-4.80522e-05 0.000891369 -3.75226e-06
-2.687e-05 -3.75226e-06 0.000903552
0.000748765 3.1288e-05 3.63478e-06
3.1288e-05 -4.89398e-05 -3.82054e-06
3.63478e-06 -3.82054e-06 -6.46375e-05
0.00268738 5.34059e-05 2.89839e-05
5.34059e-05 0.000961177 -3.59878e-06
2.89839e-05 -3.59878e-06 0.000971451
0.00384978 -5.79624e-05 -5.15126e-05
-5.79624e-05 0.00162737 -2.14492e-06
-5.15126e-05 -2.14492e-06 0.001618
0.00420076 -3.8377e-05 -6.08981e-05
-3.8377e-05 0.00179102 -1.12941e-06
-6.08981e-05 -1.12941e-06 0.00178349
0.000686016 2.13049e-05 -9.07005e-06
2.13049e-05 -9.63696e-05 -2.85725e-06
-9.07005e-06 -2.85725e-06 -0.00013974
0.00072925 1.36968e-05 -9.98592e-06
1.36968e-05 -9.89781e-05 -1.59053e-06
-9.98592e-06 -1.59053e-06 -0.000145742
0.00460753 -1.69988e-05 -6.79998e-05
-1.69988e-05 0.0019827 -8.20588e-08
-6.79998e-05 -8.20588e-08 0.00197548
0.0047507 1.82004e-05 -1.01581e-06
1.82004e-05 0.00205077 3.58878e-07
-1.01581e-06 3.58878e-07 0.00204337
0.000762219 6.2971e-07 6.50685e-08
6.2971e-07 -9.76872e-05 -2.32305e-07
6.50685e-08 -2.32305e-07 -0.000147076
0.00144669 -3.00586e-06 1.3807e-05
-3.00586e-06 0.000282453 1.2055e-07
1.3807e-05 1.2055e-07 0.000241905
0.00121625 1.0101e-05 1.04551e-07
1.0101e-05 3.39928e-06 2.50095e-08
1.04551e-07 2.50095e-08 -7.28742e-05
0.000667757 2.86304e-05 -5.64595e-08
2.86304e-05 -9.20262e-05 -7.07009e-08
-5.64595e-08 -7.07009e-08 -0.000135812
0.0011678 3.18216e-05 9.84534e-08
3.18216e-05 1.75517e-05 -1.5255e-07
9.84534e-08 -1.5255e-07 -5.61523e-05
0.000755993 -2.56477e-06 1.06591e-05
-2.56477e-06 -0.000106044 -7.89292e-07
1.06591e-05 -7.89292e-07 -0.000156672
0.00125964 2.67974e-06 6.32826e-06
2.67974e-06 4.18016e-06 7.45242e-07
6.32826e-06 7.45242e-07 -7.50323e-05
0.0011952 1.89203e-05 6.01068e-06
1.89203e-05 1.18829e-05 1.39483e-06
6.01068e-06 1.39483e-06 -6.24052e-05
0.00143717 7.70696e-06 2.91002e-06
7.70696e-06 4.65473e-05 1.01077e-06
2.91002e-06 1.01077e-06 -4.16353e-05
0.00111837 3.87125e-05 5.18152e-06
3.87125e-05 1.3666e-05 1.79081e-06
5.18152e-06 1.79081e-06 -5.87914e-05
0.0013688 3.53138e-05 2.64304e-06
3.53138e-05 5.3822e-05 4.5889e-07
2.64304e-06 4.5889e-07 -3.09396e-05
0.00469559 4.36598e-05 -7.62037e-05
4.36598e-05 0.00202478 -5.45359e-07
-7.62037e-05 -5.45359e-07 0.00201712
0.00135011 1.96707e-05 -1.04132e-05
1.96707e-05 0.000326688 1.00925e-06
-1.04132e-05 1.00925e-06 0.000304204
0.000107335 2.74164e-06 -1.15551e-05
2.74164e-06 -0.000421196 2.34954e-06
-1.15551e-05 2.34954e-06 -0.000472461
0.00150166 -4.40107e-06 -3.20482e-05
-4.40107e-06 0.000312903 2.59311e-06
-3.20482e-05 2.59311e-06 0.000272225
0.00267789 6.98472e-05 -1.1816e-05
6.98472e-05 0.000977771 1.37933e-06
-1.1816e-05 1.37933e-06 0.000982009
0.00159452 3.35046e-05 -1.65751e-05
3.35046e-05 0.000420879 3.5653e-06
-1.65751e-05 3.5653e-06 0.00039364
0.00136936 -1.07817e-05 -2.75546e-05
-1.07817e-05 0.000276241 3.64442e-06
-2.75546e-05 3.64442e-06 0.000236524
0.00146875 -4.40857e-05 -9.06917e-06
-4.40857e-05 0.000184612 2.8013e-06
-9.06917e-06 2.8013e-06 0.000113477
0.00162734 -5.65509e-05 -5.4524e-06
-5.65509e-05 0.000331821 1.96687e-06
-5.4524e-06 1.96687e-06 0.000266816
0.00156498 -5.01169e-05 -5.32328e-06
-5.01169e-05 0.000354014 2.26809e-06
-5.32328e-06 2.26809e-06 0.000290772
0.00112114 -6.31723e-05 -1.69024e-06
-6.31723e-05 5.51448e-05 5.77883e-07
-1.69024e-06 5.77883e-07 -2.37918e-05
0.000768432 5.01846e-06 -1.63955e-07
5.01846e-06 -9.16256e-05 -2.22906e-07
-1.63955e-07 -2.22906e-07 -0.000140932
0.00147512 4.57316e-06 -9.99246e-06
4.57316e-06 0.000294112 5.47558e-08
-9.99246e-06 5.47558e-08 0.000253005
0.00123999 5.57041e-06 -1.74937e-06
5.57041e-06 1.79955e-05 8.92742e-08
-1.74937e-06 8.92742e-08 -5.67406e-05
0.00166946 -3.59676e-05 -1.51123e-06
-3.59676e-05 0.000265531 1.3596e-07
-1.51123e-06 1.3596e-07 0.000195413
0.00272269 5.83195e-05 -3.37057e-07
5.83195e-05 0.000987855 -1.05264e-07
-3.37057e-07 -1.05264e-07 0.000995729
0.00114956 4.79667e-05 1.13243e-06
4.79667e-05 0.000185643 8.38104e-08
1.13243e-06 8.38104e-08 0.000159518
0.00110924 -2.34543e-05 1.19119e-07
-2.34543e-05 0.000144365 -4.67884e-08
1.19119e-07 -4.67884e-08 8.3526e-05
0.00134923 -4.88885e-05 -1.13809e-06
-4.88885e-05 0.000158814 1.24863e-07
-1.13809e-06 1.24863e-07 9.03384e-05
0.00143406 -5.53102e-05 -1.14179e-06
-5.53102e-05 0.00010063 4.64844e-07
-1.14179e-06 4.64844e-07 1.58208e-05
0.00101545 -6.31437e-05 -2.42168e-07
-6.31437e-05 3.69418e-05 -1.44586e-07
-2.42168e-07 -1.44586e-07 -4.31469e-05
0.0013361 -6.41025e-05 9.39853e-08
-6.41025e-05 0.000131728 1.03008e-07
9.39853e-08 1.03008e-07 5.3301e-05
0.00121337 -7.18142e-05 1.18734e-07
-7.18142e-05 6.9374e-05 1.96588e-08
1.18734e-07 1.96588e-08 -1.52688e-05
0.000734482 3.83146e-05 -1.40311e-07
3.83146e-05 -4.6776e-05 -3.80022e-09
-1.40311e-07 -3.80022e-09 -6.7066e-05
0.000875503 7.32164e-06 -3.13545e-07
7.32164e-06 6.3911e-06 4.5707e-09
-3.13545e-07 4.5707e-09 -4.25297e-05
0.0012458 3.15329e-06 6.02184e-06
3.15329e-06 -3.97687e-07 -1.20137e-06
6.02184e-06 -1.20137e-06 -7.86876e-05
0.00151043 -8.91106e-06 5.43777e-06
-8.91106e-06 0.000171525 -1.1241e-06
5.43777e-06 -1.1241e-06 0.000101145
0.00179063 2.46391e-06 2.15381e-06
2.46391e-06 0.000229787 -3.36103e-07
2.15381e-06 -3.36103e-07 0.000144994
0.00120412 -3.75593e-05 3.4984e-06
-3.75593e-05 -4.52755e-05 -8.06711e-07
3.4984e-06 -8.06711e-07 -0.000130944
0.00133994 -6.17098e-05 1.64744e-06
-6.17098e-05 0.000101598 -9.51267e-07
1.64744e-06 -9.51267e-07 2.12045e-05
0.00167608 -5.97032e-05 5.70868e-07
-5.97032e-05 0.000183945 -2.37455e-07
5.70868e-07 -2.37455e-07 9.71507e-05
0.000666722 4.16085e-05 3.72225e-06
4.16085e-05 -7.25367e-05 -3.8528e-06
3.72225e-06 -3.8528e-06 -9.65753e-05
0.0012735 -6.83246e-05 7.36949e-07
-6.83246e-05 6.29224e-05 -3.23141e-07
7.36949e-07 -3.23141e-07 -2.03108e-05
0.00080302 -7.32471e-06 2.28185e-06
-7.32471e-06 -9.24607e-06 -1.1801e-06
2.28185e-06 -1.1801e-06 -6.94114e-05
0.000730047 -5.21852e-05 1.66524e-06
-5.21852e-05 -7.63943e-05 -1.32555e-06
1.66524e-06 -1.32555e-06 -0.000153655
0.00157505 -8.80035e-05 8.00903e-07
-8.80035e-05 0.000291506 -5.39125e-07
8.00903e-07 -5.39125e-07 0.000203554
0.00140795 -7.95306e-05 2.18656e-07
-7.95306e-05 0.000143498 7.82057e-07
2.18656e-07 7.82057e-07 5.86191e-05
0.000897677 -3.62513e-06 2.79615e-06
-3.62513e-06 2.35561e-05 -2.0958e-06
2.79615e-06 -2.0958e-06 -3.10802e-05
0.000884128 1.75106e-05 1.30926e-06
1.75106e-05 7.77563e-06 -2.23121e-06
1.30926e-06 -2.23121e-06 -3.47249e-05
0.000956074 -2.69755e-05 1.10655e-06
-2.69755e-05 4.47729e-05 -9.58419e-07
1.10655e-06 -9.58419e-07 -2.55993e-05
0.000654982 3.39921e-05 -7.94308e-06
3.39921e-05 -8.27186e-05 -3.95223e-06
-7.94308e-06 -3.95223e-06 -0.000127358
0.0026529 -5.31832e-05 -2.90102e-05
-5.31832e-05 0.000946081 -3.65567e-06
-2.90102e-05 -3.65567e-06 0.000956162
0.000751808 -3.15249e-05 -3.89277e-06
-3.15249e-05 -4.64408e-05 -3.8736e-06
-3.89277e-06 -3.8736e-06 -6.2374e-05
0.000635082 1.40258e-05 -6.24653e-06
1.40258e-05 -6.65741e-05 -3.81082e-06
-6.24653e-06 -3.81082e-06 -0.00010817
0.00098428 4.96226e-05 -3.84071e-06
4.96226e-05 7.63729e-06 -1.81517e-06
-3.84071e-06 -1.81517e-06 -6.07774e-05
0.000662449 -4.10324e-05 -3.83882e-06
-4.10324e-05 -7.17351e-05 -4.02975e-06
-3.83882e-06 -4.02975e-06 -9.5983e-05
0.000820889 9.52953e-06 -2.32884e-06
9.52953e-06 1.22402e-06 -1.93688e-06
-2.32884e-06 -1.93688e-06 -6.16501e-05
0.000878125 3.85797e-05 -2.93125e-06
3.85797e-05 7.83569e-06 -8.84911e-07
-2.93125e-06 -8.84911e-07 -5.56618e-05
0.000850344 5.58217e-05 -1.92444e-06
5.58217e-05 -2.29797e-05 -2.37242e-07
-1.92444e-06 -2.37242e-07 -9.95836e-05
0.000740175 -3.8112e-05 1.11772e-07
-3.8112e-05 -4.22852e-05 1.18257e-09
1.11772e-07 1.18257e-09 -6.24182e-05
0.00078863 -2.853e-05 1.19804e-07
-2.853e-05 -3.42393e-05 4.11489e-08
1.19804e-07 4.11489e-08 -4.69102e-05
0.00087317 -7.44235e-06 1.27523e-07
-7.44235e-06 6.2841e-06 2.12051e-08
1.27523e-07 2.12051e-08 -4.23347e-05
0.00106499 4.60309e-05 2.49571e-07
4.60309e-05 1.4556e-05 -1.62968e-08
2.49571e-07 -1.62968e-08 -5.61427e-05
0.000943028 4.72614e-05 1.13185e-07
4.72614e-05 1.96848e-05 1.0136e-07
1.13185e-07 1.0136e-07 -4.61075e-05
0.00117417 6.56566e-05 1.47725e-07
6.56566e-05 5.42176e-05 4.76716e-08
1.47725e-07 4.76716e-08 -2.79439e-05
0.000874578 8.90708e-06 -2.43838e-07
8.90708e-06 2.23195e-05 1.15366e-08
-2.43838e-07 1.15366e-08 -3.63469e-05
0.00103889 6.393e-05 -5.64053e-08
6.393e-05 5.39466e-05 -7.9301e-08
-5.64053e-08 -7.9301e-08 -2.13558e-05
0.00102017 5.6498e-05 1.50876e-07
5.6498e-05 8.23394e-05 -2.24731e-07
1.50876e-07 -2.24731e-07 4.57934e-06
0.000975222 6.8427e-05 -5.67761e-07
6.8427e-05 3.48163e-05 2.36427e-07
-5.67761e-07 2.36427e-07 -4.85596e-05
0.000823014 -2.56535e-05 3.15138e-06
-2.56535e-05 -2.32065e-05 3.68192e-06
3.15138e-06 3.68192e-06 -3.27677e-05
0.000872497 3.86073e-06 2.9201e-06
3.86073e-06 9.7355e-06 1.80425e-06
2.9201e-06 1.80425e-06 -4.36765e-05
0.000861186 -1.08807e-05 2.03288e-06
-1.08807e-05 -2.87495e-06 2.35921e-06
2.03288e-06 2.35921e-06 -4.61379e-05
0.000982738 1.9181e-05 1.34711e-06
1.9181e-05 5.85164e-05 7.43262e-07
1.34711e-06 7.43262e-07 -9.86706e-06
0.00124728 5.69714e-05 2.83935e-06
5.69714e-05 5.06405e-05 8.65728e-07
2.83935e-06 8.65728e-07 -3.29323e-05
0.0011257 6.78004e-05 1.79494e-06
6.78004e-05 7.08677e-05 1.04947e-06
1.79494e-06 1.04947e-06 -7.74194e-06
0.0012617 7.19738e-05 1.16405e-06
7.19738e-05 6.75143e-05 9.25478e-07
1.16405e-06 9.25478e-07 -2.09298e-05
0.00105501 4.21465e-05 1.60487e-06
4.21465e-05 0.000101829 8.43932e-07
1.60487e-06 8.43932e-07 2.72718e-05
0.00113708 7.30654e-05 3.1905e-07
7.30654e-05 8.74807e-05 7.08195e-08
3.1905e-07 7.08195e-08 6.44366e-06
0.00105296 7.00511e-05 9.08364e-07
7.00511e-05 9.97751e-05 -5.14664e-07
9.08364e-07 -5.14664e-07 1.10672e-05
0.00087342 6.68009e-05 4.4142e-07
6.68009e-05 -2.88101e-05 -5.58199e-07
4.4142e-07 -5.58199e-07 -0.000115548
0.000896865 -8.85543e-06 9.03273e-07
-8.85543e-06 2.4119e-06 1.83648e-06
9.03273e-07 1.83648e-06 -2.66973e-05
0.000831247 -1.94624e-05 2.2383e-06
-1.94624e-05 -2.9592e-05 3.44747e-06
2.2383e-06 3.44747e-06 -3.4145e-05
0.00232054 -3.36354e-05 2.12773e-05
-3.36354e-05 0.000750104 3.9672e-06
2.12773e-05 3.9672e-06 0.000767774
0.00238637 -3.8308e-05 5.76294e-07
-3.8308e-05 0.000789613 -6.67236e-08
5.76294e-07 -6.67236e-08 0.00080566
0.00246389 -4.312e-05 -2.45787e-05
-4.312e-05 0.000835376 -3.80611e-06
-2.45787e-05 -3.80611e-06 0.000849669
0.000772591 2.79037e-05 3.15865e-06
2.79037e-05 -4.30559e-05 -3.5494e-06
3.15865e-06 -3.5494e-06 -5.48399e-05
0.00256536 4.83922e-05 2.62478e-05
4.83922e-05 0.000892971 -3.64688e-06
2.62478e-05 -3.64688e-06 0.000905362
0.000764512 3.30417e-05 -2.60624e-07
3.30417e-05 -3.97906e-05 8.91441e-09
-2.60624e-07 8.91441e-09 -5.5964e-05
0.0026749 5.31359e-05 -3.50383e-07
5.31359e-05 0.000955651 -9.60112e-08
-3.50383e-07 -9.60112e-08 0.000965728
0.000660403 3.13602e-05 -8.56451e-06
3.13602e-05 -9.54834e-05 -3.48917e-06
-8.56451e-06 -3.48917e-06 -0.000139405
0.000715461 2.07007e-05 -9.54356e-06
2.07007e-05 -9.32215e-05 -2.18047e-06
-9.54356e-06 -2.18047e-06 -0.000137687
0.00115444 3.15289e-05 -5.65475e-06
3.15289e-05 1.18127e-05 -1.75933e-06
-5.65475e-06 -1.75933e-06 -6.19765e-05
0.00121244 1.14502e-05 -5.99833e-06
1.14502e-05 1.93771e-06 -1.28819e-06
-5.99833e-06 -1.28819e-06 -7.43559e-05
0.000745029 4.68905e-06 -1.05391e-05
4.68905e-06 -0.000105211 -9.26081e-07
-1.05391e-05 -9.26081e-07 -0.000154618
0.00475867 1.85393e-05 -7.2411e-05
1.85393e-05 0.00205596 5.27975e-07
-7.2411e-05 5.27975e-07 0.0020478
0.000768652 6.38285e-08 3.42106e-08
6.38285e-08 -9.98138e-05 -3.72965e-07
3.42106e-08 -3.72965e-07 -0.000150479
0.0012579 6.20105e-06 2.35366e-08
6.20105e-06 3.37703e-06 -2.37971e-07
2.35366e-08 -2.37971e-07 -7.57732e-05
0.00118592 1.84311e-05 -2.11851e-10
1.84311e-05 8.03306e-06 -3.08338e-08
-2.11851e-10 -3.08338e-08 -6.63496e-05
0.00146022 7.01132e-06 8.74063e-08
7.01132e-06 5.80182e-05 6.33091e-08
8.74063e-08 6.33091e-08 -3.01643e-05
0.00112248 3.99451e-05 2.14265e-07
3.99451e-05 1.67026e-05 -4.04712e-08
2.14265e-07 -4.04712e-08 -5.58408e-05
0.00138071 3.74598e-05 3.57237e-08
3.74598e-05 5.96796e-05 -6.44414e-08
3.57237e-08 -6.44414e-08 -2.51732e-05
0.0012708 1.0757e-06 6.28348e-06
1.0757e-06 2.25558e-06 -6.58448e-07
6.28348e-06 -6.58448e-07 -7.76944e-05
0.00148916 8.28314e-06 3.05714e-06
8.28314e-06 5.05458e-05 8.26452e-07
3.05714e-06 8.26452e-07 -4.12575e-05
0.00141617 2.16608e-05 2.85467e-06
2.16608e-05 5.54838e-05 6.74342e-07
2.85467e-06 6.74342e-07 -3.01933e-05
0.0015604 2.37582e-06 1.23628e-06
2.37582e-06 7.65116e-05 6.91381e-07
1.23628e-06 6.91381e-07 -1.32846e-05
0.00131094 4.80206e-05 2.40889e-06
4.80206e-05 5.14099e-05 4.81669e-07
2.40889e-06 4.81669e-07 -3.29111e-05
0.00146986 3.92459e-05 9.39901e-07
3.92459e-05 6.61568e-05 1.19044e-07
9.39901e-07 1.19044e-07 -2.05891e-05
0.000779785 9.03422e-06 -1.03512e-05
9.03422e-06 -8.67295e-05 1.12924e-06
-1.03512e-05 1.12924e-06 -0.000136278
0.00153607 8.36818e-06 -3.34195e-05
8.36818e-06 0.000323514 1.77882e-06
-3.34195e-05 1.77882e-06 0.000282939
0.000888519 5.39352e-06 -6.6439e-06
5.39352e-06 -0.000161454 1.31021e-06
-6.6439e-06 1.31021e-06 -0.00023816
0.00186016 -3.70407e-05 -8.8517e-06
-3.70407e-05 0.000362526 1.97015e-06
-8.8517e-06 1.97015e-06 0.000293061
0.00268516 5.79153e-05 -3.05614e-05
5.79153e-05 0.000970286 3.52038e-06
-3.05614e-05 3.52038e-06 0.000977894
0.00159374 4.03044e-05 -1.53535e-05
4.03044e-05 0.000413167 2.92691e-06
-1.53535e-05 2.92691e-06 0.000389932
0.00144873 -3.06127e-05 -3.83208e-06
-3.06127e-05 0.000314333 1.5626e-06
-3.83208e-06 1.5626e-06 0.000254567
0.00136611 -4.89657e-05 -6.47267e-06
-4.89657e-05 0.000168221 2.36744e-06
-6.47267e-06 2.36744e-06 9.97973e-05
0.00115725 -5.06676e-05 -3.64449e-06
-5.06676e-05 -4.09969e-05 1.4331e-06
-3.64449e-06 1.4331e-06 -0.000126822
0.00152793 -6.75426e-05 -2.1403e-06
-6.75426e-05 0.000226937 8.76472e-07
-2.1403e-06 8.76472e-07 0.000148983
0.000829717 -5.73256e-05 -1.68821e-06
-5.73256e-05 -5.43551e-05 8.53929e-07
-1.68821e-06 8.53929e-07 -0.000134488
0.00120154 -7.11984e-05 -6.57223e-07
-7.11984e-05 6.39152e-05 1.94078e-07
-6.57223e-07 1.94078e-07 -2.05516e-05
0.000758728 3.98153e-05 -3.41126e-06
3.98153e-05 -3.27985e-05 3.82276e-06
-3.41126e-06 3.82276e-06 -5.35698e-05
0.000857455 5.96439e-06 -2.54056e-06
5.96439e-06 -3.12386e-06 2.05873e-06
-2.54056e-06 2.05873e-06 -5.20019e-05
0.00109335 6.69035e-06 -2.02271e-07
6.69035e-06 -7.73912e-05 -2.16139e-08
-2.02271e-07 -2.16139e-08 -0.000156486
0.00153839 -1.17873e-05 -1.62857e-06
-1.17873e-05 0.000185403 2.03754e-07
-1.62857e-06 2.03754e-07 0.000114929
0.00168774 4.66008e-06 -1.25899e-06
4.66008e-06 0.000176154 2.57766e-07
-1.25899e-06 2.57766e-07 9.08218e-05
0.00147569 -4.053e-05 5.99616e-07
-4.053e-05 9.42617e-05 -3.73277e-07
5.99616e-07 -3.73277e-07 9.73815e-06
0.000712628 4.29522e-05 -3.06784e-08
4.29522e-05 -4.826e-05 1.62555e-08
-3.06784e-08 1.62555e-08 -7.26602e-05
0.000860392 -1.37575e-05 1.16135e-07
-1.37575e-05 1.78992e-05 -9.22628e-08
1.16135e-07 -9.22628e-08 -4.19991e-05
0.000826569 -5.5148e-05 5.68193e-07
-5.5148e-05 -2.66796e-05 -3.76438e-07
5.68193e-07 -3.76438e-07 -0.000103201
0.00148487 -6.39624e-05 -5.43391e-07
-6.39624e-05 0.000172872 1.01413e-07
-5.43391e-07 1.01413e-07 9.23927e-05
0.00150348 -5.57549e-05 -3.54656e-07
-5.57549e-05 9.56086e-05 5.24396e-07
-3.54656e-07 5.24396e-07 8.949e-06
0.00131437 -8.01159e-05 -7.34701e-07
-8.01159e-05 0.00016141 2.02632e-07
-7.34701e-07 2.02632e-07 7.26689e-05
0.00127936 -6.81659e-05 7.99989e-08
-6.81659e-05 6.54736e-05 2.08845e-07
7.99989e-08 2.08845e-07 -1.76784e-05
0.00127291 -7.56686e-05 3.78833e-07
-7.56686e-05 7.65478e-05 4.28666e-07
3.78833e-07 4.28666e-07 -8.29368e-06
0.000882416 -3.78701e-06 -7.65612e-08
-3.78701e-06 1.43621e-05 -6.9551e-08
-7.65612e-08 -6.9551e-08 -3.99406e-05
0.000930932 -2.26407e-05 -1.88787e-07
-2.26407e-05 3.04088e-05 -2.11608e-07
-1.88787e-07 -2.11608e-07 -3.94528e-05
0.000871235 1.60081e-05 -1.34301e-07
1.60081e-05 1.28439e-06 1.33175e-07
-1.34301e-07 1.33175e-07 -4.12863e-05
0.0018042 1.183e-05 2.22067e-06
1.183e-05 0.000218435 -5.05269e-07
2.22067e-06 -5.05269e-07 0.000130189
0.00158223 -1.49564e-05 2.97815e-06
-1.49564e-05 0.000134301 -3.30135e-07
2.97815e-06 -3.30135e-07 5.05992e-05
0.00172882 7.14862e-06 1.5097e-06
7.14862e-06 0.000161856 4.88895e-08
1.5097e-06 4.88895e-08 7.12987e-05
0.0015185 -3.48115e-05 1.43346e-06
-3.48115e-05 7.24571e-05 -6.62291e-07
1.43346e-06 -6.62291e-07 -1.48431e-05
0.00115042 -6.19977e-05 8.85954e-07
-6.19977e-05 -3.35457e-05 -9.89973e-07
8.85954e-07 -9.89973e-07 -0.000117597
0.00163057 -5.48351e-05 -8.41479e-07
-5.48351e-05 0.000134263 3.19366e-07
-8.41479e-07 3.19366e-07 5.19854e-05
0.000860265 -7.16468e-06 2.78405e-06
-7.16468e-06 1.34972e-05 -1.54652e-06
2.78405e-06 -1.54652e-06 -4.46756e-05
0.00129508 -7.10417e-05 -3.28246e-07
-7.10417e-05 5.14156e-05 -1.26781e-07
-3.28246e-07 -1.26781e-07 -3.04849e-05
0.000967395 -5.45524e-05 1.12807e-06
-5.45524e-05 5.29307e-05 -6.84825e-08
1.12807e-06 -6.84825e-08 -1.98319e-05
0.000814277 -6.54354e-05 1.32552e-06
-6.54354e-05 -4.50772e-05 -1.77033e-06
1.32552e-06 -1.77033e-06 -0.000132594
0.00142589 -8.75098e-05 1.52372e-06
-8.75098e-05 0.000197173 1.59601e-07
1.52372e-06 1.59601e-07 0.000103155
0.00167932 -8.77152e-05 -9.68725e-07
-8.77152e-05 0.000266383 1.83665e-06
-9.68725e-07 1.83665e-06 0.000185101
0.000884006 2.06279e-05 1.12361e-06
2.06279e-05 3.54042e-06 -1.92258e-06
1.12361e-06 -1.92258e-06 -3.32976e-05
0.000975927 -3.80766e-05 1.53082e-06
-3.80766e-05 5.31064e-05 -2.54762e-07
1.53082e-06 -2.54762e-07 -1.73669e-05
0.000826704 -1.38814e-05 1.25481e-06
-1.38814e-05 -2.22605e-05 -1.76769e-06
1.25481e-06 -1.76769e-06 -8.9689e-05
0.00110618 -6.55712e-05 2.7941e-07
-6.55712e-05 0.000126325 6.04039e-07
2.7941e-07 6.04039e-07 4.66243e-05
0.00106671 4.69417e-05 -4.72616e-06
4.69417e-05 1.59794e-05 -1.92696e-06
-4.72616e-06 -1.92696e-06 -5.47112e-05
0.000770103 -2.75869e-05 -3.44439e-06
-2.75869e-05 -4.39799e-05 -3.74334e-06
-3.44439e-06 -3.74334e-06 -5.63666e-05
0.000717592 -3.64083e-05 -4.15268e-06
-3.64083e-05 -5.51786e-05 -3.93993e-06
-4.15268e-06 -3.93993e-06 -7.48521e-05
0.000882901 -1.36677e-05 -2.03544e-06
-1.36677e-05 1.14461e-05 -2.40766e-06
-2.03544e-06 -2.40766e-06 -3.71134e-05
0.000908779 4.6039e-05 -2.96545e-06
4.6039e-05 2.72019e-06 -1.37845e-06
-2.96545e-06 -1.37845e-06 -6.284e-05
0.00115801 6.56078e-05 -2.21996e-06
6.56078e-05 4.67019e-05 -9.38592e-07
-2.21996e-06 -9.38592e-07 -3.55097e-05
0.000858944 6.08934e-06 -2.74398e-06
6.08934e-06 1.68458e-05 -1.87913e-06
-2.74398e-06 -1.87913e-06 -4.20947e-05
0.000998124 5.57882e-05 -1.67901e-06
5.57882e-05 7.14499e-05 -9.26007e-07
-1.67901e-06 -9.26007e-07 -6.32689e-06
0.0011371 6.71227e-05 -1.43695e-06
6.71227e-05 0.000104029 -3.52091e-07
-1.43695e-06 -3.52091e-07 2.89903e-05
0.000878645 6.57577e-05 -1.81084e-06
6.57577e-05 -1.40402e-05 3.8244e-07
-1.81084e-06 3.8244e-07 -9.78167e-05
0.000803576 -2.50304e-05 1.27493e-07
-2.50304e-05 -3.30477e-05 3.81973e-08
1.27493e-07 3.81973e-08 -4.24329e-05
0.000880785 3.71322e-06 -2.85417e-09
3.71322e-06 1.56044e-05 -3.73199e-08
-2.85417e-09 -3.73199e-08 -3.82238e-05
0.000870421 -1.49827e-05 3.28863e-08
-1.49827e-05 1.55689e-06 9.70217e-08
3.28863e-08 9.70217e-08 -4.15781e-05
0.00097503 1.74202e-05 1.8099e-07
1.74202e-05 5.49134e-05 -1.93103e-07
1.8099e-07 -1.93103e-07 -1.35106e-05
0.00125026 5.74996e-05 5.33567e-07
5.74996e-05 5.22879e-05 2.82053e-07
5.33567e-07 2.82053e-07 -3.14176e-05
0.00109761 6.7413e-05 6.22779e-08
6.7413e-05 5.78915e-05 3.26125e-08
6.22779e-08 3.26125e-08 -2.06917e-05
0.00125657 7.19101e-05 2.13531e-08
7.19101e-05 6.50252e-05 2.26212e-07
2.13531e-08 2.26212e-07 -2.33839e-05
0.00101188 4.36576e-05 3.77651e-08
4.36576e-05 8.11009e-05 1.13081e-07
3.77651e-08 1.13081e-07 6.73848e-06
0.00125761 7.66987e-05 -3.61946e-07
7.66987e-05 0.000148939 -5.59465e-07
-3.61946e-07 -5.59465e-07 6.81594e-05
0.00106939 7.0938e-05 2.02396e-07
7.0938e-05 0.000107505 -4.66237e-07
2.02396e-07 -4.66237e-07 1.84716e-05
0.000945105 6.89765e-05 -1.3821e-06
6.89765e-05 1.03121e-05 4.46707e-08
-1.3821e-06 4.46707e-08 -7.51377e-05
0.000834676 -2.24789e-05 2.68525e-06
-2.24789e-05 -2.29525e-05 3.54948e-06
2.68525e-06 3.54948e-06 -2.97079e-05
0.000867728 -1.57686e-05 1.52277e-06
-1.57686e-05 -3.19655e-06 2.29596e-06
1.52277e-06 2.29596e-06 -4.14603e-05
0.00102665 2.83266e-05 1.53614e-06
2.83266e-05 8.11248e-05 5.218e-07
1.53614e-06 5.218e-07 1.04614e-05
0.000963314 8.49526e-06 9.69212e-07
8.49526e-06 4.7344e-05 1.26782e-06
9.69212e-07 1.26782e-06 -1.66911e-05
0.000989353 5.0668e-05 9.9502e-07
5.0668e-05 6.71907e-05 -7.73793e-08
9.9502e-07 -7.73793e-08 -1.25503e-05
0.0013274 5.9763e-05 1.67186e-06
5.9763e-05 5.66179e-05 6.01072e-07
1.67186e-06 6.01072e-07 -3.1856e-05
0.00116819 7.46393e-05 7.2034e-07
7.46393e-05 7.01264e-05 1.07676e-06
7.2034e-07 1.07676e-06 -1.47243e-05
0.00132554 7.66941e-05 4.22395e-08
7.66941e-05 8.48515e-05 7.87794e-07
4.22395e-08 7.87794e-07 -5.90008e-06
0.00108733 6.77152e-05 1.82318e-06
6.77152e-05 0.000124019 1.54954e-06
1.82318e-06 1.54954e-06 3.69219e-05
0.00116565 7.74157e-05 1.48911e-06
7.74157e-05 9.12102e-05 1.74269e-07
1.48911e-06 1.74269e-07 6.47673e-06
0.000682266 6.16141e-05 1.39103e-06
6.16141e-05 -9.92054e-05 -8.40226e-07
1.39103e-06 -8.40226e-07 -0.000196916
0.000888913 -1.21114e-05 1.02354e-06
-1.21114e-05 7.24013e-07 1.98052e-06
1.02354e-06 1.98052e-06 -3.06444e-05
0.000944444 9.64061e-06 3.31145e-07
9.64061e-06 3.4363e-05 1.04703e-06
3.31145e-07 1.04703e-06 -1.27319e-05
0.000905999 -4.81943e-06 7.48567e-07
-4.81943e-06 5.24289e-06 1.78196e-06
7.48567e-07 1.78196e-06 -2.20172e-05
0.000900065 -6.80481e-06 1.20933e-07
-6.80481e-06 4.50477e-06 8.48098e-09
1.20933e-07 8.48098e-09 -2.46792e-05
0.00140866 -2.10007e-05 2.26749e-06
-2.10007e-05 0.00026499 2.0642e-06
2.26749e-06 2.0642e-06 0.000265448
0.00112117 -2.1461e-05 7.35242e-07
-2.1461e-05 0.000120634 -5.2993e-09
7.35242e-07 -5.2993e-09 0.000117724
0.00109926 -2.03674e-05 1.76776e-05
-2.03674e-05 0.000111271 6.59674e-06
1.76776e-05 6.59674e-06 0.000124583
0.00231756 -3.382e-05 6.9264e-07
-3.382e-05 0.000747751 -6.01154e-08
6.9264e-07 -6.01154e-08 0.000765619
0.00238128 -3.84678e-05 -2.21609e-05
-3.84678e-05 0.000786147 -3.83918e-06
-2.21609e-05 -3.83918e-06 0.000802427
0.000790595 2.54573e-05 2.66539e-06
2.54573e-05 -3.99325e-05 -3.35625e-06
2.66539e-06 -3.35625e-06 -4.84259e-05
0.00244026 4.35472e-05 2.35624e-05
4.35472e-05 0.000822702 -3.6547e-06
2.35624e-05 -3.6547e-06 0.000837274
0.000790384 2.87961e-05 -1.27965e-07
2.87961e-05 -3.3773e-05 6.13748e-08
-1.27965e-07 6.13748e-08 -4.58527e-05
0.00257625 4.80837e-05 -4.67448e-07
4.80837e-05 0.00089908 -8.85356e-08
-4.67448e-07 -8.85356e-08 0.000911234
0.000783086 3.48666e-05 -3.38108e-06
3.48666e-05 -2.92347e-05 3.88125e-06
-3.38108e-06 3.88125e-06 -4.58958e-05
0.00266542 5.30649e-05 -2.97795e-05
5.30649e-05 0.000951657 3.64552e-06
-2.97795e-05 3.64552e-06 0.000961507
0.00112941 4.12198e-05 -5.33932e-06
4.12198e-05 2.11194e-05 -1.93816e-06
-5.33932e-06 -1.93816e-06 -5.15061e-05
0.00118336 2.09795e-05 -5.81254e-06
2.09795e-05 7.32338e-06 -1.33196e-06
-5.81254e-06 -1.33196e-06 -6.71519e-05
0.00138514 3.55152e-05 -2.63534e-06
3.55152e-05 6.20303e-05 -5.99195e-07
-2.63534e-06 -5.99195e-07 -2.2827e-05
0.00148392 6.62271e-06 -2.96798e-06
6.62271e-06 6.97801e-05 -8.62561e-07
-2.96798e-06 -8.62561e-07 -1.83973e-05
0.0012525 8.70256e-06 -6.29486e-06
8.70256e-06 8.22114e-07 -1.20343e-06
-6.29486e-06 -1.20343e-06 -7.83079e-05
0.000780718 1.49115e-06 -1.07094e-05
1.49115e-06 -9.38401e-05 3.947e-08
-1.07094e-05 3.947e-08 -0.000144542
0.0012686 2.90644e-06 -1.95915e-08
2.90644e-06 9.11918e-07 -4.1941e-07
-1.95915e-08 -4.1941e-07 -7.91095e-05
0.00150253 9.80742e-06 1.63681e-08
9.80742e-06 5.72828e-05 -1.38575e-07
1.63681e-08 -1.38575e-07 -3.44769e-05
0.00142154 1.82073e-05 9.72679e-08
1.82073e-05 5.84662e-05 3.69968e-08
9.72679e-08 3.69968e-08 -2.71497e-05
0.00155624 1.61428e-06 -3.52319e-08
1.61428e-06 7.22701e-05 1.24112e-07
-3.52319e-08 1.24112e-07 -1.783e-05
0.00132034 4.83192e-05 -4.10385e-08
4.83192e-05 5.59601e-05 -2.59294e-08
-4.10385e-08 -2.59294e-08 -2.84344e-05
0.00148388 3.88304e-05 -9.61436e-09
3.88304e-05 7.34063e-05 6.61756e-08
-9.61436e-09 6.61756e-08 -1.3381e-05
0.00151235 7.65819e-06 3.41449e-06
7.65819e-06 5.40869e-05 -7.31496e-07
3.41449e-06 -7.31496e-07 -3.87394e-05
0.00154017 5.33699e-06 1.08763e-06
5.33699e-06 4.80842e-05 1.33079e-06
1.08763e-06 1.33079e-06 -4.60665e-05
0.00150393 2.10644e-05 1.22229e-06
2.10644e-05 6.06761e-05 3.06077e-07
1.22229e-06 3.06077e-07 -2.6916e-05
0.00171185 -4.54634e-06 1.02767e-06
-4.54634e-06 0.000132119 3.64024e-07
1.02767e-06 3.64024e-07 4.37527e-05
0.00140921 4.78356e-05 6.82225e-07
4.78356e-05 6.47169e-05 -1.72453e-07
6.82225e-07 -1.72453e-07 -2.25724e-05
0.00152711 2.95448e-05 -1.59311e-06
2.95448e-05 6.96907e-05 3.75496e-07
-1.59311e-06 3.75496e-07 -1.04366e-05
0.000946176 8.1456e-06 -6.0816e-06
8.1456e-06 -0.000151667 1.00609e-06
-6.0816e-06 1.00609e-06 -0.000231592
0.00155747 -1.66613e-05 -8.81864e-06
-1.66613e-05 0.000194439 1.42014e-06
-8.81864e-06 1.42014e-06 0.000123981
0.00158651 1.0663e-05 -4.47422e-06
1.0663e-05 0.000123533 8.78085e-07
-4.47422e-06 8.78085e-07 3.76409e-05
0.0017487 -4.3597e-05 -2.97817e-06
-4.3597e-05 0.000234561 2.60359e-07
-2.97817e-06 2.60359e-07 0.000151172
0.000756675 4.43611e-05 -3.2909e-06
4.43611e-05 -2.49345e-05 3.64465e-06
-3.2909e-06 3.64465e-06 -4.96893e-05
0.000910349 -1.58795e-05 -2.6419e-06
-1.58795e-05 4.1825e-05 1.30795e-06
-2.6419e-06 1.30795e-06 -1.81398e-05
0.000939882 -5.87497e-05 -7.89824e-07
-5.87497e-05 3.11869e-05 4.5581e-07
-7.89824e-07 4.5581e-07 -4.46155e-05
0.00163495 -6.62764e-05 -2.92955e-06
-6.62764e-05 0.000246764 1.23446e-06
-2.92955e-06 1.23446e-06 0.000166189
0.00133072 -5.17895e-05 -1.40496e-06
-5.17895e-05 7.15737e-06 1.08088e-06
-1.40496e-06 1.08088e-06 -7.93625e-05
0.00128266 -6.79546e-05 -6.10935e-07
-6.79546e-05 6.67807e-05 7.55534e-07
-6.10935e-07 7.55534e-07 -1.62912e-05
0.0010548 -7.22901e-05 -1.45787e-06
-7.22901e-05 3.1856e-05 9.79632e-07
-1.45787e-06 9.79632e-07 -5.7677e-05
0.0011283 -7.15392e-05 5.31899e-07
-7.15392e-05 4.88384e-06 -3.75738e-07
5.31899e-07 -3.75738e-07 -7.99081e-05
0.000870134 -4.30628e-06 -2.91447e-06
-4.30628e-06 6.72955e-06 1.68597e-06
-2.91447e-06 1.68597e-06 -4.72376e-05
0.000905949 -1.9496e-05 -1.52304e-06
-1.9496e-05 1.63093e-05 5.08824e-07
-1.52304e-06 5.08824e-07 -5.31989e-05
0.000857903 1.48945e-05 -1.65894e-06
1.48945e-05 -5.4323e-06 2.2388e-06
-1.65894e-06 2.2388e-06 -4.80854e-05
0.00166075 1.22636e-05 -1.30358e-06
1.22636e-05 0.000143439 4.08254e-07
-1.30358e-06 4.08254e-07 5.39371e-05
0.00157818 -2.02589e-05 -5.49313e-07
-2.02589e-05 0.000131168 5.59399e-08
-5.49313e-07 5.59399e-08 4.76112e-05
0.00160358 9.59608e-06 -5.54108e-07
9.59608e-06 9.75265e-05 3.11907e-07
-5.54108e-07 3.11907e-07 6.45586e-06
0.00161441 -3.34819e-05 6.02607e-08
-3.34819e-05 0.000120908 -3.79366e-07
6.02607e-08 -3.79366e-07 3.38415e-05
0.00087495 -9.19898e-06 1.4569e-07
-9.19898e-06 1.87765e-05 -1.26033e-07
1.4569e-07 -1.26033e-07 -3.90303e-05
0.00102308 -5.67392e-05 -1.86506e-08
-5.67392e-05 7.92326e-05 1.55575e-07
-1.86506e-08 1.55575e-07 6.36069e-06
0.000903331 -6.76467e-05 3.91929e-07
-6.76467e-05 2.22849e-06 -5.41766e-07
3.91929e-07 -5.41766e-07 -8.44487e-05
0.00135505 -6.5662e-05 5.15076e-09
-6.5662e-05 7.05115e-05 -3.50014e-07
5.15076e-09 -3.50014e-07 -1.34783e-05
0.00152213 -5.31131e-05 3.73897e-07
-5.31131e-05 7.82965e-05 9.80601e-07
3.73897e-07 9.80601e-07 -2.80326e-06
0.00121991 -8.169e-05 3.51849e-08
-8.169e-05 9.6707e-05 1.11325e-07
3.51849e-08 1.11325e-07 1.53977e-06
0.00130692 -7.04528e-05 1.91187e-08
-7.04528e-05 5.68443e-05 3.53598e-07
1.91187e-08 3.53598e-07 -2.4871e-05
0.00150739 -8.29422e-05 6.37805e-07
-8.29422e-05 0.000180158 4.44907e-07
6.37805e-07 4.44907e-07 9.97622e-05
0.00100106 -3.78481e-05 -2.85322e-08
-3.78481e-05 6.56203e-05 -1.37261e-07
-2.85322e-08 -1.37261e-07 -4.79144e-06
0.00105574 -6.30285e-05 -3.17493e-07
-6.30285e-05 9.93476e-05 2.89076e-07
-3.17493e-07 2.89076e-07 1.93001e-05
0.000872449 1.99905e-05 -1.0061e-07
1.99905e-05 -1.85057e-06 9.15535e-08
-1.0061e-07 9.15535e-08 -3.88336e-05
0.000852056 -6.49295e-06 1.25178e-07
-6.49295e-06 -1.10539e-05 -5.49073e-07
1.25178e-07 -5.49073e-07 -7.70128e-05
0.00161509 1.14063e-05 1.97478e-06
1.14063e-05 8.92078e-05 -5.32291e-07
1.97478e-06 -5.32291e-07 -5.3621e-06
0.00168369 -1.26189e-05 1.74142e-06
-1.26189e-05 0.000142574 2.19143e-07
1.74142e-06 2.19143e-07 5.43832e-05
0.00164999 1.20981e-05 1.05254e-06
1.20981e-05 0.000103659 2.91751e-07
1.05254e-06 2.91751e-07 1.10143e-05
0.00153915 -2.78138e-05 -4.08498e-08
-2.78138e-05 5.77011e-05 -1.32132e-06
-4.08498e-08 -1.32132e-06 -2.73273e-05
0.00129233 -6.47447e-05 -8.61893e-07
-6.47447e-05 1.1014e-05 -2.80029e-07
-8.61893e-07 -2.80029e-07 -6.92667e-05
0.00170031 -5.23771e-05 1.15502e-06
-5.23771e-05 0.000141422 -2.45691e-07
1.15502e-06 -2.45691e-07 6.62774e-05
0.000975643 -5.12254e-05 1.35782e-06
-5.12254e-05 5.67669e-05 1.04584e-07
1.35782e-06 1.04584e-07 -1.4356e-05
0.00129619 -7.10263e-05 -1.74086e-06
-7.10263e-05 3.68164e-05 5.97302e-07
-1.74086e-06 5.97302e-07 -3.67841e-05
0.000794514 -6.14231e-05 3.14033e-07
-6.14231e-05 -3.53333e-05 -7.07872e-07
3.14033e-07 -7.07872e-07 -0.000117249
0.00109429 -7.81314e-05 1.51189e-06
-7.81314e-05 8.59347e-05 -1.62216e-06
1.51189e-06 -1.62216e-06 -1.0953e-05
0.00128401 -8.74803e-05 1.73928e-06
-8.74803e-05 0.000112731 1.66249e-06
1.73928e-06 1.66249e-06 1.36213e-05
0.001773 -9.02033e-05 2.45367e-07
-9.02033e-05 0.000299786 1.09199e-06
2.45367e-07 1.09199e-06 0.000219453
0.00088106 1.67076e-05 1.23753e-06
1.67076e-05 -5.07716e-07 -1.76976e-06
1.23753e-06 -1.76976e-06 -3.38827e-05
0.000784367 -3.51578e-06 7.5065e-07
-3.51578e-06 -4.71192e-05 -1.79327e-06
7.5065e-07 -1.79327e-06 -0.000107827
0.00101472 -6.45571e-05 6.38681e-07
-6.45571e-05 7.48622e-05 7.34066e-07
6.38681e-07 7.34066e-07 -3.56973e-06
0.00101446 -5.3966e-05 1.00336e-06
-5.3966e-05 8.1954e-05 -1.61217e-07
1.00336e-06 -1.61217e-07 2.61191e-06
0.0011056 -6.87641e-05 2.07421e-07
-6.87641e-05 0.000123504 1.32532e-06
2.07421e-07 1.32532e-06 4.09563e-05
0.00078491 -2.44629e-05 -2.93484e-06
-2.44629e-05 -4.25048e-05 -3.63138e-06
-2.93484e-06 -3.63138e-06 -5.17174e-05
0.00126057 5.81923e-05 -1.92264e-06
5.81923e-05 5.75594e-05 -3.49027e-07
-1.92264e-06 -3.49027e-07 -2.62865e-05
0.000875828 -1.80781e-05 -1.56389e-06
-1.80781e-05 4.13404e-06 -2.36656e-06
-1.56389e-06 -2.36656e-06 -3.89377e-05
0.000895396 1.65479e-06 -2.65331e-06
1.65479e-06 2.43968e-05 -2.09689e-06
-2.65331e-06 -2.09689e-06 -2.95416e-05
0.000963391 1.71194e-05 -1.05427e-06
1.71194e-05 4.9448e-05 -1.06385e-06
-1.05427e-06 -1.06385e-06 -1.91349e-05
0.00106264 6.68508e-05 -1.80979e-06
6.68508e-05 4.15297e-05 -1.04733e-06
-1.80979e-06 -1.04733e-06 -3.70228e-05
0.00125161 7.18389e-05 -1.04255e-06
7.18389e-05 6.26462e-05 -4.58272e-07
-1.04255e-06 -4.58272e-07 -2.57313e-05
0.000973714 4.91747e-05 -1.46451e-06
4.91747e-05 6.35447e-05 -5.10229e-07
-1.46451e-06 -5.10229e-07 -1.10087e-05
0.00109378 7.20893e-05 -1.4937e-06
7.20893e-05 0.000119216 -9.02266e-07
-1.4937e-06 -9.02266e-07 2.98382e-05
0.00137667 8.0286e-05 -1.41146e-06
8.0286e-05 0.000209634 -9.11498e-07
-1.41146e-06 -9.11498e-07 0.000129119
0.00102403 7.13355e-05 -2.90123e-06
7.13355e-05 5.28815e-05 1.14788e-06
-2.90123e-06 1.14788e-06 -3.12689e-05
0.000815328 -2.20434e-05 1.1617e-07
-2.20434e-05 -3.27192e-05 3.39661e-08
1.1617e-07 3.39661e-08 -3.93465e-05
0.000873784 -1.65832e-05 2.19429e-08
-1.65832e-05 -4.04971e-07 6.68607e-08
2.19429e-08 6.68607e-08 -3.8536e-05
0.000996314 3.02528e-05 9.71777e-08
3.02528e-05 6.65312e-05 -6.35498e-08
9.71777e-08 -6.35498e-08 -4.23977e-06
0.00095805 7.91787e-06 1.50792e-07
7.91787e-06 4.50862e-05 -2.83965e-08
1.50792e-07 -2.83965e-08 -1.89965e-05
0.000962125 4.87705e-05 1.61084e-07
4.87705e-05 5.32864e-05 -2.32853e-07
1.61084e-07 -2.32853e-07 -2.65323e-05
0.00133826 6.04543e-05 6.65266e-07
6.04543e-05 6.173e-05 5.22622e-07
6.65266e-07 5.22622e-07 -2.68652e-05
0.00116526 7.49711e-05 1.03963e-07
7.49711e-05 6.91497e-05 1.921e-08
1.03963e-07 1.921e-08 -1.57461e-05
0.00128947 7.682e-05 7.63204e-07
7.682e-05 6.65841e-05 4.43065e-07
7.63204e-07 4.43065e-07 -2.45302e-05
0.00104607 6.67859e-05 5.53405e-07
6.67859e-05 0.000104624 5.76783e-07
5.53405e-07 5.76783e-07 1.75805e-05
0.00124914 7.94296e-05 1.81913e-07
7.94296e-05 0.000133811 -4.88832e-07
1.81913e-07 -4.88832e-07 4.92998e-05
0.000930848 6.98911e-05 -9.84409e-07
6.98911e-05 2.35002e-05 -5.47649e-07
-9.84409e-07 -5.47649e-07 -7.36478e-05
0.000878209 -1.46238e-05 1.21262e-06
-1.46238e-05 -1.37424e-06 2.15851e-06
1.21262e-06 2.15851e-06 -3.57149e-05
0.000944597 1.45367e-06 6.8203e-07
1.45367e-06 3.45479e-05 1.38302e-06
6.8203e-07 1.38302e-06 -2.36209e-05
0.001054 6.3207e-05 6.90165e-07
6.3207e-05 9.95544e-05 -1.04379e-07
6.90165e-07 -1.04379e-07 1.70321e-05
0.00101694 3.46358e-05 6.66134e-07
3.46358e-05 8.09322e-05 4.54219e-07
6.66134e-07 4.54219e-07 4.81919e-06
0.00103651 5.49502e-05 1.49144e-07
5.49502e-05 9.56025e-05 -7.46685e-07
1.49144e-07 -7.46685e-07 1.00071e-05
0.00135077 5.98278e-05 -1.37792e-06
5.98278e-05 4.89278e-05 -5.87509e-07
-1.37792e-06 -5.87509e-07 -3.96905e-05
0.00119655 8.08974e-05 1.19368e-06
8.08974e-05 6.98396e-05 8.91027e-07
1.19368e-06 8.91027e-07 -1.8179e-05
0.00109344 7.93904e-05 -8.73484e-07
7.93904e-05 -3.10872e-05 -5.99969e-07
-8.73484e-07 -5.99969e-07 -0.000118696
0.00100596 7.02072e-05 8.04403e-07
7.02072e-05 8.76806e-05 1.88172e-06
8.04403e-07 1.88172e-06 -1.0195e-05
0.00119632 8.30231e-05 2.87432e-06
8.30231e-05 0.000119968 -1.93455e-07
2.87432e-06 -1.93455e-07 1.97368e-05
0.00089173 -1.08362e-05 9.08334e-08
-1.08362e-05 2.46513e-06 1.49711e-08
9.08334e-08 1.49711e-08 -2.89019e-05
0.00078505 -5.15633e-06 5.26881e-07
-5.15633e-06 -4.97027e-05 1.69808e-06
5.26881e-07 1.69808e-06 -0.000100282
0.000872872 7.96248e-07 -4.19279e-07
7.96248e-07 -3.23117e-06 1.90522e-08
-4.19279e-07 1.90522e-08 -5.08542e-05
0.00115562 1.45629e-05 4.74935e-07
1.45629e-05 0.00014767 2.96333e-07
4.74935e-07 2.96333e-07 8.87427e-05
0.000923123 6.09998e-06 9.34102e-07
6.09998e-06 2.46038e-05 1.02946e-06
9.34102e-07 1.02946e-06 -2.16233e-05
0.000919235 1.00786e-07 6.08584e-07
1.00786e-07 1.02226e-05 1.73436e-06
6.08584e-07 1.73436e-06 -1.5628e-05
0.000909708 -5.3438e-06 1.19496e-07
-5.3438e-06 7.5256e-06 1.54197e-08
1.19496e-07 1.54197e-08 -1.98262e-05
0.00139678 -1.73215e-05 1.72985e-06
-1.73215e-05 0.000254316 2.00841e-06
1.72985e-06 2.00841e-06 0.000256651
0.000906096 -5.32493e-06 -1.01408e-06
-5.32493e-06 8.03373e-06 -1.84127e-06
-1.01408e-06 -1.84127e-06 -2.12354e-05
0.00142467 -1.9779e-05 -3.05267e-06
-1.9779e-05 0.000272869 -1.2203e-06
-3.05267e-06 -1.2203e-06 0.000273562
0.00109817 -1.76003e-05 1.50229e-05
-1.76003e-05 0.00010469 6.41986e-06
1.50229e-05 6.41986e-06 0.00011979
0.0014169 -2.19129e-05 -8.0202e-06
-2.19129e-05 0.000273845 -3.27697e-06
-8.0202e-06 -3.27697e-06 0.000272706
0.00166199 -2.50662e-05 1.31406e-05
-2.50662e-05 0.000402828 2.26316e-06
1.31406e-05 2.26316e-06 0.000419242
0.0023183 -3.3976e-05 -1.96918e-05
-3.3976e-05 0.000747341 -3.86041e-06
-1.96918e-05 -3.86041e-06 0.000765393
0.000799931 2.325e-05 2.25788e-06
2.325e-05 -4.04096e-05 -3.2413e-06
2.25788e-06 -3.2413e-06 -4.64518e-05
0.00080657 2.58088e-05 -1.47778e-07
2.58088e-05 -3.18846e-05 4.17368e-08
-1.47778e-07 4.17368e-08 -4.05339e-05
0.00235331 3.90981e-05 2.09449e-05
3.90981e-05 0.000771499 -3.67332e-06
2.09449e-05 -3.67332e-06 0.000788026
0.00245857 4.33634e-05 -5.14356e-07
4.33634e-05 0.000832688 -7.10609e-08
-5.14356e-07 -7.10609e-08 0.000846984
0.000806859 2.98979e-05 -3.17878e-06
2.98979e-05 -2.51671e-05 3.73099e-06
-3.17878e-06 3.73099e-06 -3.75528e-05
0.00258729 4.79264e-05 -2.81806e-05
4.79264e-05 0.00090534 3.77264e-06
-2.81806e-05 3.77264e-06 0.00091723
0.0013315 4.87758e-05 -2.55243e-06
4.87758e-05 6.14057e-05 -5.59584e-07
-2.55243e-06 -5.59584e-07 -2.3074e-05
0.00143081 1.84641e-05 -2.80331e-06
1.84641e-05 6.3241e-05 -5.8542e-07
-2.80331e-06 -5.8542e-07 -2.24021e-05
0.0014976 3.95484e-05 -8.7551e-07
3.95484e-05 8.04751e-05 2.20344e-09
-8.7551e-07 2.20344e-09 -6.37715e-06
0.00154682 7.68457e-07 -1.21109e-06
7.68457e-07 6.55181e-05 -5.43527e-07
-1.21109e-06 -5.43527e-07 -2.48979e-05
0.00151976 1.31972e-05 -3.01954e-06
1.31972e-05 6.59102e-05 -1.07672e-06
-3.01954e-06 -1.07672e-06 -2.58383e-05
0.00127662 7.55394e-06 -6.26453e-06
7.55394e-06 4.48562e-06 -2.0804e-07
-6.26453e-06 -2.0804e-07 -7.55398e-05
0.00152458 1.21187e-05 5.69257e-08
1.21187e-05 6.0068e-05 -5.93658e-07
5.69257e-08 -5.93658e-07 -3.28091e-05
0.00154428 -2.57067e-06 1.39781e-07
-2.57067e-06 4.83094e-05 3.50349e-07
1.39781e-07 3.50349e-07 -4.66392e-05
0.00152757 2.01763e-05 4.5602e-08
2.01763e-05 7.26311e-05 -2.45426e-09
4.5602e-08 -2.45426e-09 -1.48775e-05
0.00168221 -5.36869e-06 2.99403e-08
-5.36869e-06 0.000115899 -2.84676e-07
2.99403e-08 -2.84676e-07 2.77251e-05
0.00141583 4.88661e-05 -4.40999e-08
4.88661e-05 6.78453e-05 -1.54733e-08
-4.40999e-08 -1.54733e-08 -1.96604e-05
0.00153405 2.97346e-05 -1.34378e-07
2.97346e-05 7.11381e-05 8.04663e-07
-1.34378e-07 8.04663e-07 -8.76055e-06
0.00158121 1.63328e-06 2.06739e-06
1.63328e-06 5.86058e-05 -4.14141e-07
2.06739e-06 -4.14141e-07 -3.85596e-05
0.00166015 4.79129e-06 6.05295e-07
4.79129e-06 9.39814e-05 6.46678e-07
6.05295e-07 6.46678e-07 -9.0526e-07
0.00145422 1.1698e-05 7.39335e-08
1.1698e-05 8.18921e-06 1.38759e-06
7.39335e-08 1.38759e-06 -7.52595e-05
0.00179532 -1.09486e-05 6.95481e-07
-1.09486e-05 0.000164346 1.44288e-07
6.95481e-07 1.44288e-07 7.6734e-05
0.00137179 4.33785e-05 -1.22119e-06
4.33785e-05 1.94925e-05 -1.06777e-06
-1.22119e-06 -1.06777e-06 -6.40292e-05
0.00179476 2.31857e-05 -1.84356e-07
2.31857e-05 0.000177697 -5.12156e-08
-1.84356e-07 -5.12156e-08 0.000103168
0.00150542 1.1906e-05 -4.33772e-06
1.1906e-05 6.25112e-05 1.24247e-06
-4.33772e-06 1.24247e-06 -2.82372e-05
0.00156967 -2.22297e-05 -4.09353e-06
-2.22297e-05 0.00012604 4.18746e-07
-4.09353e-06 4.18746e-07 4.26023e-05
0.00148909 9.92297e-06 -2.36034e-06
9.92297e-06 3.84691e-05 3.81572e-07
-2.36034e-06 3.81572e-07 -5.31153e-05
0.00170308 -3.26451e-05 -1.7948e-06
-3.26451e-05 0.00016572 -5.98087e-08
-1.7948e-06 -5.98087e-08 7.8896e-05
0.000889838 -1.12945e-05 -2.79619e-06
-1.12945e-05 2.42142e-05 1.33271e-06
-2.79619e-06 1.33271e-06 -3.32418e-05
0.00107493 -5.88538e-05 -1.38376e-06
-5.88538e-05 0.000103743 4.57449e-07
-1.38376e-06 4.57449e-07 3.07472e-05
0.000981934 -6.94177e-05 -4.4971e-07
-6.94177e-05 4.4544e-05 5.70363e-07
-4.4971e-07 5.70363e-07 -4.12886e-05
0.00156329 -6.93393e-05 -8.68914e-07
-6.93393e-05 0.000176362 4.43201e-07
-8.68914e-07 4.43201e-07 9.24333e-05
0.00141197 -5.13784e-05 2.07106e-07
-5.13784e-05 2.1478e-05 9.56479e-07
2.07106e-07 9.56479e-07 -5.84387e-05
0.00131924 -6.9925e-05 7.39039e-07
-6.9925e-05 6.25522e-05 7.44736e-07
7.39039e-07 7.44736e-07 -1.89863e-05
0.00101914 -7.60151e-05 -1.22168e-06
-7.60151e-05 -1.25603e-06 4.79674e-07
-1.22168e-06 4.79674e-07 -9.75733e-05
0.00133519 -7.81517e-05 1.51858e-06
-7.81517e-05 9.36096e-05 -2.26671e-06
1.51858e-06 -2.26671e-06 1.4126e-05
0.00102227 -3.6171e-05 -1.50918e-06
-3.6171e-05 7.58115e-05 7.69944e-08
-1.50918e-06 7.69944e-08 5.65377e-06
0.0010106 -5.96667e-05 -1.28032e-06
-5.96667e-05 7.46914e-05 -2.66679e-07
-1.28032e-06 -2.66679e-07 -5.54592e-06
0.000860063 1.971e-05 -1.27184e-06
1.971e-05 -7.58212e-06 2.06804e-06
-1.27184e-06 2.06804e-06 -4.47571e-05
0.000882475 -2.33815e-06 -5.09898e-07
-2.33815e-06 3.49567e-06 6.99487e-07
-5.09898e-07 6.99487e-07 -6.15011e-05
0.00161446 1.19017e-05 -1.23265e-07
1.19017e-05 8.89779e-05 2.01055e-07
-1.23265e-07 2.01055e-07 -5.59239e-06
0.00169922 -1.01748e-05 -3.79943e-07
-1.01748e-05 0.000150474 1.03113e-07
-3.79943e-07 1.03113e-07 6.25605e-05
0.0016142 1.18573e-05 -7.55059e-07
1.18573e-05 8.67393e-05 3.94659e-07
-7.55059e-07 3.94659e-07 -5.66576e-06
0.0015673 -2.85362e-05 -1.90114e-07
-2.85362e-05 7.16541e-05 -3.83828e-07
-1.90114e-07 -3.83828e-07 -1.32192e-05
0.00101453 -4.9008e-05 -4.2549e-09
-4.9008e-05 7.49785e-05 -2.29788e-09
-4.2549e-09 -2.29788e-09 4.0647e-06
0.000857839 -6.27242e-05 3.60812e-07
-6.27242e-05 -3.15184e-06 -2.36905e-07
3.60812e-07 -2.36905e-07 -8.41546e-05
0.00110166 -7.80936e-05 6.05829e-08
-7.80936e-05 9.0971e-05 -1.86912e-07
6.05829e-08 -1.86912e-07 -6.14839e-06
0.00141754 -6.66019e-05 -6.65323e-07
-6.66019e-05 7.4492e-05 -2.70775e-07
-6.65323e-07 -2.70775e-07 -6.63407e-06
0.00153963 -5.13516e-05 2.2658e-07
-5.13516e-05 6.88079e-05 9.03381e-07
2.2658e-07 9.03381e-07 -3.79071e-06
0.00128731 -8.69494e-05 -1.08978e-07
-8.69494e-05 0.000116144 5.65569e-07
-1.08978e-07 5.65569e-07 1.61555e-05
0.00131728 -7.07629e-05 -1.05108e-09
-7.07629e-05 4.84088e-05 6.8009e-07
-1.05108e-09 6.8009e-07 -2.50882e-05
0.00146742 -8.2461e-05 7.81362e-07
-8.2461e-05 0.000145953 -1.80408e-06
7.81362e-07 -1.80408e-06 6.82803e-05
0.0010475 -6.55552e-05 9.2415e-08
-6.55552e-05 9.08271e-05 -1.65996e-08
9.2415e-08 -1.65996e-08 1.24202e-05
0.00107977 -6.77542e-05 9.26923e-09
-6.77542e-05 0.000109377 1.26012e-07
9.26923e-09 1.26012e-07 2.6942e-05
0.00102307 -4.84286e-05 -3.04198e-07
-4.84286e-05 8.60047e-05 1.16537e-07
-3.04198e-07 1.16537e-07 6.83084e-06
0.000751615 2.15264e-05 -2.37575e-07
2.15264e-05 -6.66904e-05 2.63066e-08
-2.37575e-07 2.63066e-08 -0.000101174
0.000829296 5.98785e-06 1.43979e-07
5.98785e-06 -2.64277e-05 -4.29519e-07
1.43979e-07 -4.29519e-07 -8.56096e-05
0.00166963 1.70874e-05 1.21361e-06
1.70874e-05 9.88344e-05 -2.27989e-07
1.21361e-06 -2.27989e-07 2.44223e-06
0.00161968 5.4371e-06 1.80674e-06
5.4371e-06 7.84727e-05 1.39599e-07
1.80674e-06 1.39599e-07 -1.29349e-05
0.00160344 -3.21624e-05 1.55026e-06
-3.21624e-05 6.71551e-05 -2.16268e-06
1.55026e-06 -2.16268e-06 -1.3264e-05
0.00134213 -5.90926e-05 3.10065e-07
-5.90926e-05 -5.00419e-07 -1.33558e-06
3.10065e-07 -1.33558e-06 -7.09207e-05
0.000999933 -6.53602e-05 2.6232e-07
-6.53602e-05 6.93507e-05 6.55199e-07
2.6232e-07 6.55199e-07 -8.6512e-06
0.0017322 -8.15012e-05 -2.29608e-07
-8.15012e-05 0.000228192 9.91652e-07
-2.29608e-07 9.91652e-07 0.000162595
0.000570079 -5.61221e-05 1.52957e-07
-5.61221e-05 -0.000143779 -1.71243e-06
1.52957e-07 -1.71243e-06 -0.000232257
0.00116811 -8.51242e-05 2.71091e-06
-8.51242e-05 0.000109015 -1.66897e-06
2.71091e-06 -1.66897e-06 -2.88355e-07
0.00144224 -9.33775e-05 2.18036e-06
-9.33775e-05 0.000167987 1.91768e-06
2.18036e-06 1.91768e-06 6.5143e-05
0.000665522 1.59819e-05 1.00358e-06
1.59819e-05 -0.000113488 -2.28675e-06
1.00358e-06 -2.28675e-06 -0.000146294
0.00102798 -9.81139e-07 1.06061e-06
-9.81139e-07 7.61822e-05 -1.03877e-06
1.06061e-06 -1.03877e-06 2.24826e-05
0.00102001 -3.15498e-05 4.47291e-07
-3.15498e-05 8.07371e-05 -5.48054e-07
4.47291e-07 -5.48054e-07 9.26422e-06
0.00104209 -6.66715e-05 7.66162e-08
-6.66715e-05 8.70352e-05 1.1664e-06
7.66162e-08 1.1664e-06 7.18913e-06
0.00111821 -6.3085e-05 6.54259e-07
-6.3085e-05 0.000136796 1.04e-06
6.54259e-07 1.04e-06 4.97026e-05
0.00100965 -6.5956e-05 1.28533e-07
-6.5956e-05 6.87818e-05 1.00619e-06
1.28533e-07 1.00619e-06 -1.47888e-05
0.000797193 -2.16479e-05 -2.45799e-06
-2.16479e-05 -4.186e-05 -3.53412e-06
-2.45799e-06 -3.53412e-06 -4.8363e-05
0.000882341 -1.71582e-05 -1.42884e-06
-1.71582e-05 3.73954e-06 -2.21124e-06
-1.42884e-06 -2.21124e-06 -3.43212e-05
0.00135072 6.12437e-05 -5.917e-07
6.12437e-05 6.75746e-05 3.91973e-07
-5.917e-07 3.91973e-07 -2.11394e-05
0.000957516 5.26734e-06 -7.30812e-07
5.26734e-06 4.49879e-05 -1.39406e-06
-7.30812e-07 -1.39406e-06 -1.89939e-05
0.000957576 2.84336e-05 -1.35394e-06
2.84336e-05 4.70372e-05 -4.7019e-07
-1.35394e-06 -4.7019e-07 -2.34354e-05
0.000936482 4.88996e-05 -5.74552e-07
4.88996e-05 4.04839e-05 -1.81876e-07
-5.74552e-07 -1.81876e-07 -3.96069e-05
0.00116066 7.52224e-05 -8.94128e-07
7.52224e-05 6.73756e-05 -1.13934e-06
-8.94128e-07 -1.13934e-06 -1.75626e-05
0.00125085 7.68129e-05 6.52114e-08
7.68129e-05 4.70545e-05 -1.672e-07
6.52114e-08 -1.672e-07 -4.44101e-05
0.000995569 6.55027e-05 -4.50516e-07
6.55027e-05 8.03829e-05 -2.64534e-07
-4.50516e-07 -2.64534e-07 -6.55212e-06
0.00116661 7.76911e-05 -1.68981e-06
7.76911e-05 0.000139825 3.50225e-08
-1.68981e-06 3.50225e-08 4.32677e-05
0.00132744 8.13048e-05 -2.14563e-06
8.13048e-05 0.000173979 -7.26727e-07
-2.14563e-06 -7.26727e-07 8.96805e-05
0.00088322 -1.44701e-05 9.68498e-08
-1.44701e-05 1.1313e-06 3.58039e-08
9.68498e-08 3.58039e-08 -3.31501e-05
0.000948688 2.62085e-07 1.27985e-08
2.62085e-07 3.66447e-05 5.23857e-08
1.27985e-08 5.23857e-08 -2.1503e-05
0.0010453 6.31008e-05 -2.51157e-07
6.31008e-05 9.63314e-05 -1.96358e-07
-2.51157e-07 -1.96358e-07 1.42198e-05
0.00100946 3.67644e-05 8.45902e-08
3.67644e-05 7.74103e-05 -5.40879e-08
8.45902e-08 -5.40879e-08 1.06312e-06
0.000978525 5.50697e-05 -2.08813e-07
5.50697e-05 6.73135e-05 -2.01802e-07
-2.08813e-07 -2.01802e-07 -1.90123e-05
0.00136747 6.19508e-05 -5.15481e-07
6.19508e-05 5.85409e-05 2.73251e-08
-5.15481e-07 2.73251e-08 -3.06358e-05
0.00121157 8.10591e-05 6.54367e-07
8.10591e-05 7.61187e-05 -5.69862e-08
6.54367e-07 -5.69862e-08 -1.20248e-05
0.00120778 8.10321e-05 3.21408e-07
8.10321e-05 2.25587e-05 5.256e-07
3.21408e-07 5.256e-07 -6.40912e-05
0.000875114 6.59675e-05 4.28578e-07
6.59675e-05 2.21204e-05 9.08322e-07
4.28578e-07 9.08322e-07 -7.61534e-05
0.00120336 8.33305e-05 -1.40069e-07
8.33305e-05 0.000124407 -4.026e-07
-1.40069e-07 -4.026e-07 2.23551e-05
0.00093509 2.26765e-07 6.41757e-07
2.26765e-07 2.82656e-05 1.32681e-06
6.41757e-07 1.32681e-06 -2.49198e-05
0.000905926 2.33839e-05 7.28861e-07
2.33839e-05 1.92028e-05 1.19621e-06
7.28861e-07 1.19621e-06 -5.29802e-05
0.00113295 7.2609e-05 6.92009e-08
7.2609e-05 0.000147269 -1.70297e-07
6.92009e-08 -1.70297e-07 5.60811e-05
0.000939405 4.96249e-05 3.17278e-07
4.96249e-05 4.63384e-05 -9.37717e-08
3.17278e-07 -9.37717e-08 -3.98041e-05
0.000998564 5.89263e-05 -5.21888e-08
5.89263e-05 7.34662e-05 -7.55784e-07
-5.21888e-08 -7.55784e-07 -1.66333e-05
0.00140407 6.18422e-05 -1.18484e-06
6.18422e-05 3.62127e-05 -6.08342e-07
-1.18484e-06 -6.08342e-07 -3.49001e-05
0.00146049 9.52001e-05 1.42927e-06
9.52001e-05 0.000197969 -5.06886e-07
1.42927e-06 -5.06886e-07 9.98076e-05
0.000558782 6.95091e-05 8.9284e-07
6.95091e-05 -0.000323429 -9.61276e-07
8.9284e-07 -9.61276e-07 -0.000407582
0.00148246 8.83584e-05 2.87663e-06
8.83584e-05 0.000314164 2.90498e-06
2.87663e-06 2.90498e-06 0.000208535
0.000288436 5.89595e-05 7.04396e-07
5.89595e-05 -0.000335156 9.81183e-08
7.04396e-07 9.81183e-08 -0.000448953
0.000894129 -8.63334e-06 -1.20136e-06
-8.63334e-06 3.97516e-06 -1.89619e-06
-1.20136e-06 -1.89619e-06 -2.73808e-05
0.000855298 -2.45135e-07 3.03877e-07
-2.45135e-07 -1.30056e-05 5.89066e-07
3.03877e-07 5.89066e-07 -6.33699e-05
0.000871997 6.08724e-06 4.50398e-07
6.08724e-06 -1.35623e-06 1.20302e-06
4.50398e-07 1.20302e-06 -6.45796e-05
0.0008037 -8.5985e-06 -4.88681e-07
-8.5985e-06 -3.96216e-05 -1.00976e-06
-4.88681e-07 -1.00976e-06 -8.77484e-05
0.000937248 8.74444e-06 1.72048e-07
8.74444e-06 3.15755e-05 -1.83356e-08
1.72048e-07 -1.83356e-08 -1.44691e-05
0.00101278 -5.88921e-07 1.24556e-08
-5.88921e-07 7.23218e-05 -4.78927e-07
1.24556e-08 -4.78927e-07 1.32139e-05
0.0011109 1.41697e-05 2.68382e-07
1.41697e-05 0.000127161 2.36362e-07
2.68382e-07 2.36362e-07 5.88564e-05
0.000860921 -1.40063e-05 6.13318e-08
-1.40063e-05 -3.92099e-06 1.00743e-06
6.13318e-08 1.00743e-06 -6.31407e-05
0.000935523 -1.93849e-05 4.47412e-08
-1.93849e-05 2.98767e-05 9.38978e-07
4.47412e-08 9.38978e-07 -1.47045e-05
0.000920979 4.81812e-06 6.59868e-07
4.81812e-06 1.01708e-05 1.64483e-06
6.59868e-07 1.64483e-06 -1.50075e-05
0.000914865 -4.58654e-06 -1.31695e-07
-4.58654e-06 8.21147e-06 3.13012e-08
-1.31695e-07 3.13012e-08 -1.76699e-05
0.00138557 -1.31635e-05 1.30091e-06
-1.31635e-05 0.000244535 1.93652e-06
1.30091e-06 1.93652e-06 0.000248347
0.000912392 -5.59335e-06 -5.22695e-07
-5.59335e-06 9.2742e-06 -1.82159e-06
-5.22695e-07 -1.82159e-06 -1.81495e-05
0.00141115 -1.62787e-05 -2.48581e-06
-1.62787e-05 0.000261555 -1.19283e-06
-2.48581e-06 -1.19283e-06 0.000264055
0.001088 -1.47234e-05 1.20937e-05
-1.47234e-05 9.47334e-05 6.27129e-06
1.20937e-05 6.27129e-06 0.000111342
0.00144017 -1.88927e-05 -7.0829e-06
-1.88927e-05 0.000280492 -4.47302e-06
-7.0829e-06 -4.47302e-06 0.000281377
0.00103932 -1.867e-05 4.93312e-06
-1.867e-05 7.45093e-05 2.43815e-06
4.93312e-06 2.43815e-06 8.9562e-05
0.00221059 -3.27491e-05 -5.80091e-06
-3.27491e-05 0.000687132 -1.62658e-06
-5.80091e-06 -1.62658e-06 0.000706408
0.000809237 2.09082e-05 1.83377e-06
2.09082e-05 -4.05472e-05 -3.21186e-06
1.83377e-06 -3.21186e-06 -4.45754e-05
0.000816193 2.34032e-05 -1.10687e-07
2.34032e-05 -3.23301e-05 3.02331e-08
-1.10687e-07 3.02331e-08 -3.84536e-05
0.00229525 3.46363e-05 1.85307e-05
3.46363e-05 0.000735382 -3.71319e-06
1.85307e-05 -3.71319e-06 0.000753582
0.000822191 2.6206e-05 -2.94944e-06
2.6206e-05 -2.40206e-05 3.44407e-06
-2.94944e-06 3.44407e-06 -3.28247e-05
0.00236004 3.88474e-05 -6.8113e-07
3.88474e-05 0.000775702 -6.34867e-08
-6.8113e-07 -6.34867e-08 0.00079202
0.00247107 4.30324e-05 -2.56809e-05
4.30324e-05 0.000839718 3.81996e-06
-2.56809e-05 3.81996e-06 0.000853766
0.00142224 4.98308e-05 -1.24707e-06
4.98308e-05 7.08691e-05 1.66538e-08
-1.24707e-06 1.66538e-08 -1.68516e-05
0.00155659 1.83777e-05 -8.49451e-07
1.83777e-05 8.7279e-05 -2.54585e-07
-8.49451e-07 -2.54585e-07 -1.24305e-07
0.00154401 2.99557e-05 1.56853e-06
2.99557e-05 7.40365e-05 5.5196e-07
1.56853e-06 5.5196e-07 -5.62857e-06
0.00165301 -6.29535e-06 -7.50242e-07
-6.29535e-06 0.00010003 -7.87396e-07
-7.50242e-07 -7.87396e-07 1.20297e-05
0.00156118 -7.22535e-06 -1.17533e-06
-7.22535e-06 5.46934e-05 -7.45585e-07
-1.17533e-06 -7.45585e-07 -4.10456e-05
0.00153564 1.55909e-05 -3.12437e-06
1.55909e-05 6.54888e-05 -4.17658e-07
-3.12437e-06 -4.17658e-07 -2.7414e-05
0.00160985 5.35148e-06 1.89938e-07
5.35148e-06 7.18712e-05 -3.98458e-07
1.89938e-07 -3.98458e-07 -2.56271e-05
0.00165657 6.37962e-07 1.22765e-07
6.37962e-07 9.41092e-05 -3.581e-07
1.22765e-07 -3.581e-07 -5.73719e-07
0.00150237 1.0119e-05 -7.53307e-08
1.0119e-05 3.04832e-05 2.55712e-07
-7.53307e-08 2.55712e-07 -5.35159e-05
0.00168497 -1.08575e-05 -8.59962e-08
-1.08575e-05 0.000107958 -5.54472e-07
-8.59962e-08 -5.54472e-07 2.04116e-05
0.00143016 4.48068e-05 -3.34992e-07
4.48068e-05 4.98533e-05 -8.18795e-08
-3.34992e-07 -8.18795e-08 -3.39387e-05
0.00162001 2.29726e-05 1.51234e-06
2.29726e-05 9.21256e-05 -5.19922e-07
1.51234e-06 -5.19922e-07 1.98495e-05
0.00166493 1.27826e-05 8.00056e-07
1.27826e-05 8.49198e-05 2.19649e-07
8.00056e-07 2.19649e-07 -1.41196e-05
0.00166775 -6.34159e-06 5.40784e-07
-6.34159e-06 9.56134e-05 5.86202e-07
5.40784e-07 5.86202e-07 3.51843e-06
0.00161754 2.3816e-06 4.30902e-07
2.3816e-06 7.00679e-05 1.14917e-06
4.30902e-07 1.14917e-06 -1.06764e-05
0.00164738 3.97505e-05 -9.86602e-07
3.97505e-05 0.000117881 -6.39727e-07
-9.86602e-07 -6.39727e-07 4.69128e-05
0.00161025 1.23384e-05 -1.75926e-06
1.23384e-05 8.70161e-05 9.51064e-07
-1.75926e-06 9.51064e-07 -7.5586e-06
0.00172058 -9.48437e-06 -2.86248e-06
-9.48437e-06 0.000161133 1.82343e-07
-2.86248e-06 1.82343e-07 7.34971e-05
0.00154915 1.14332e-05 -2.51912e-06
1.14332e-05 5.55381e-05 3.78538e-07
-2.51912e-06 3.78538e-07 -3.66562e-05
0.00160438 -2.88072e-05 -9.10029e-07
-2.88072e-05 9.00402e-05 3.24263e-07
-9.10029e-07 3.24263e-07 5.31705e-06
0.00105267 -4.79747e-05 -1.3653e-06
-4.79747e-05 9.30854e-05 -4.48111e-08
-1.3653e-06 -4.48111e-08 2.22341e-05
0.000938417 -6.46808e-05 1.60297e-07
-6.46808e-05 3.74117e-05 1.745e-08
1.60297e-07 1.745e-08 -4.26982e-05
0.00110958 -7.80577e-05 -9.70851e-07
-7.80577e-05 9.64182e-05 1.70682e-06
-9.70851e-07 1.70682e-06 -9.48044e-07
0.0015426 -6.84179e-05 -1.80916e-07
-6.84179e-05 0.000137849 2.72246e-07
-1.80916e-07 2.72246e-07 5.58855e-05
0.00139357 -5.05535e-05 -7.8466e-08
-5.05535e-05 3.32816e-06 2.25932e-06
-7.8466e-08 2.25932e-06 -6.67351e-05
0.0013273 -7.03075e-05 1.69283e-06
-7.03075e-05 5.46535e-05 7.81047e-07
1.69283e-06 7.81047e-07 -1.87423e-05
0.00128896 -8.63636e-05 -1.61392e-06
-8.63636e-05 0.000118682 -2.49237e-07
-1.61392e-06 -2.49237e-07 1.78232e-05
0.00119459 -7.54418e-05 -1.07552e-06
-7.54418e-05 8.90651e-06 -5.66025e-06
-1.07552e-06 -5.66025e-06 -6.62324e-05
0.00108029 -6.6652e-05 -6.03676e-07
-6.6652e-05 0.00010683 -6.46934e-07
-6.03676e-07 -6.46934e-07 2.84338e-05
0.00105272 -6.66954e-05 -9.0273e-07
-6.66954e-05 9.45946e-05 -1.25672e-06
-9.0273e-07 -1.25672e-06 1.22813e-05
0.00103036 -4.18381e-05 -6.66436e-07
-4.18381e-05 8.94116e-05 5.95709e-07
-6.66436e-07 5.95709e-07 1.04677e-05
0.000625075 2.21342e-05 -8.92476e-07
2.21342e-05 -0.00013164 1.867e-06
-8.92476e-07 1.867e-06 -0.000167077
0.000877677 1.28194e-05 -1.5742e-07
1.28194e-05 -3.51391e-06 7.23573e-07
-1.5742e-07 7.23573e-07 -6.15013e-05
0.00160991 1.59937e-05 -2.0272e-07
1.59937e-05 7.12591e-05 2.15992e-07
-2.0272e-07 2.15992e-07 -2.449e-05
0.00166678 4.45154e-06 -2.15199e-07
4.45154e-06 0.000103571 4.57742e-08
-2.15199e-07 4.57742e-08 1.22822e-05
0.00166818 -3.2814e-05 -1.08127e-06
-3.2814e-05 0.000103476 1.67741e-07
-1.08127e-06 1.67741e-07 2.37711e-05
0.00105311 -6.67017e-05 3.42922e-08
-6.67017e-05 9.46954e-05 1.32765e-07
3.42922e-08 1.32765e-07 1.66586e-05
0.000867163 -6.5599e-05 7.15615e-07
-6.5599e-05 3.10656e-06 -5.993e-07
7.15615e-07 -5.993e-07 -8.45072e-05
0.00114076 -8.38322e-05 -1.4656e-07
-8.38322e-05 9.83612e-05 -3.15493e-07
-1.4656e-07 -3.15493e-07 -1.14448e-05
0.00142185 -5.98368e-05 4.23018e-07
-5.98368e-05 3.77741e-05 -4.8849e-07
4.23018e-07 -4.8849e-07 -3.38817e-05
0.00138962 -8.97806e-05 -2.00035e-07
-8.97806e-05 0.000143376 -3.5127e-07
-2.00035e-07 -3.5127e-07 4.35732e-05
0.00140962 -7.73664e-05 -6.32737e-07
-7.73664e-05 7.01358e-05 -7.99816e-07
-6.32737e-07 -7.99816e-07 4.02559e-06
0.000656531 1.97996e-05 1.04495e-08
1.97996e-05 -0.000118183 -5.93415e-07
1.04495e-08 -5.93415e-07 -0.00015071
0.00106041 -6.72509e-05 3.09839e-08
-6.72509e-05 9.6292e-05 9.37704e-08
3.09839e-08 9.37704e-08 1.62967e-05
0.00099876 -6.53607e-05 -7.24423e-07
-6.53607e-05 6.36357e-05 -3.2642e-08
-7.24423e-07 -3.2642e-08 -1.90853e-05
0.00110785 -6.29182e-05 -3.96166e-07
-6.29182e-05 0.000132107 6.17672e-07
-3.96166e-07 6.17672e-07 4.44288e-05
0.00107755 -3.43185e-05 -2.35431e-08
-3.43185e-05 0.000110209 1.08833e-08
-2.35431e-08 1.08833e-08 3.87317e-05
0.000924686 3.34835e-06 -1.20259e-08
3.34835e-06 2.17855e-05 1.64271e-07
-1.20259e-08 1.64271e-07 -3.19599e-05
0.00176488 1.93818e-05 1.44349e-06
1.93818e-05 0.00014267 -5.47517e-08
1.44349e-06 -5.47517e-08 4.7184e-05
0.00167007 4.53079e-06 1.61132e-06
4.53079e-06 8.34417e-05 -1.57703e-07
1.61132e-06 -1.57703e-07 -7.72156e-06
0.00143017 -3.89809e-05 2.18848e-06
-3.89809e-05 -1.91626e-05 -3.11642e-06
2.18848e-06 -3.11642e-06 -9.40882e-05
0.00163171 -7.12559e-05 7.05034e-07
-7.12559e-05 9.72561e-05 -1.1861e-06
7.05034e-07 -1.1861e-06 4.11091e-05
0.00102295 -6.75618e-05 -5.38339e-08
-6.75618e-05 8.07808e-05 5.26645e-07
-5.38339e-08 5.26645e-07 -6.91494e-07
0.00147402 -8.9973e-05 2.93917e-06
-8.9973e-05 0.000125965 2.99461e-06
2.93917e-06 2.99461e-06 3.79059e-05
0.000826465 -6.82851e-05 -3.31429e-07
-6.82851e-05 -1.95551e-05 -2.49543e-06
-3.31429e-07 -2.49543e-06 -0.000121444
0.0013953 -9.49103e-05 1.82232e-06
-9.49103e-05 0.000211525 -4.98815e-08
1.82232e-06 -4.98815e-08 9.2217e-05
0.000666934 1.55359e-05 7.71734e-07
1.55359e-05 -0.000114717 -2.30997e-06
7.71734e-07 -2.30997e-06 -0.000145135
0.0010488 -3.66378e-07 9.24675e-07
-3.66378e-07 8.61364e-05 -9.36631e-07
9.24675e-07 -9.36631e-07 3.69986e-05
0.0011338 -2.86239e-05 1.22833e-07
-2.86239e-05 0.000136129 3.31485e-07
1.22833e-07 3.31485e-07 6.97048e-05
0.00103142 -4.52758e-05 5.41978e-07
-4.52758e-05 9.26597e-05 -8.62613e-07
5.41978e-07 -8.62613e-07 7.70335e-06
0.00105177 -6.77844e-05 7.79414e-08
-6.77844e-05 8.95268e-05 8.77535e-07
7.79414e-08 8.77535e-07 7.10041e-06
0.0010247 -6.71555e-05 3.92612e-07
-6.71555e-05 8.13907e-05 1.73078e-06
3.92612e-07 1.73078e-06 -7.1391e-06
0.000885608 -1.40136e-05 -1.29683e-06
-1.40136e-05 2.22837e-06 -2.04651e-06
-1.29683e-06 -2.04651e-06 -3.19612e-05
0.000951581 -4.96249e-07 -6.5726e-07
-4.96249e-07 3.8192e-05 -1.42928e-06
-6.5726e-07 -1.42928e-06 -1.99548e-05
0.00138789 6.42048e-05 1.27934e-08
6.42048e-05 6.99926e-05 6.09903e-07
1.27934e-08 6.09903e-07 -1.9753e-05
0.00100299 3.59414e-05 -6.49036e-07
3.59414e-05 7.39862e-05 -6.41389e-07
-6.49036e-07 -6.41389e-07 -2.32204e-06
0.00103799 6.31034e-05 -5.45788e-07
6.31034e-05 9.39876e-05 -7.7857e-08
-5.45788e-07 -7.7857e-08 1.22543e-05
0.000926433 5.43272e-05 -7.24936e-07
5.43272e-05 4.18437e-05 4.08616e-08
-7.24936e-07 4.08616e-08 -4.5065e-05
0.00122765 8.12691e-05 -1.06987e-06
8.12691e-05 8.29138e-05 -1.20501e-06
-1.06987e-06 -1.20501e-06 -5.35757e-06
0.00131569 8.25441e-05 3.4978e-07
8.25441e-05 7.26626e-05 7.39259e-07
3.4978e-07 7.39259e-07 -1.29785e-05
0.000749016 6.19347e-05 -3.88699e-07
6.19347e-05 -4.09148e-05 -1.88804e-07
-3.88699e-07 -1.88804e-07 -0.000139622
0.00122996 8.43361e-05 -1.8652e-06
8.43361e-05 0.000138679 -2.13147e-07
-1.8652e-06 -2.13147e-07 3.47528e-05
0.000941677 -1.05348e-06 -8.50874e-09
-1.05348e-06 3.14203e-05 6.5313e-08
-8.50874e-09 6.5313e-08 -2.17524e-05
0.000948453 2.78341e-05 3.12694e-07
2.78341e-05 4.17742e-05 4.39882e-07
3.12694e-07 4.39882e-07 -3.05774e-05
0.00112609 7.22947e-05 -1.33498e-07
7.22947e-05 0.000145298 -6.21204e-07
-1.33498e-07 -6.21204e-07 5.4832e-05
0.000988461 4.79055e-05 -1.64386e-07
4.79055e-05 7.1811e-05 -5.04195e-08
-1.64386e-07 -5.04195e-08 -1.38811e-05
0.00098235 5.85987e-05 -9.30195e-07
5.85987e-05 6.85532e-05 -4.6011e-07
-9.30195e-07 -4.6011e-07 -2.13688e-05
0.00164106 6.44231e-05 -1.09984e-06
6.44231e-05 0.000150225 -3.98015e-07
-1.09984e-06 -3.98015e-07 7.88921e-05
0.00147268 9.52674e-05 9.6878e-07
9.52674e-05 0.000199689 3.91588e-08
9.6878e-07 3.91588e-08 0.00010252
0.000927612 7.80812e-05 -5.77491e-07
7.80812e-05 -0.000131415 8.36981e-07
-5.77491e-07 8.36981e-07 -0.00021311
0.00123005 8.02231e-05 1.10683e-06
8.02231e-05 0.000189522 1.17189e-06
1.10683e-06 1.17189e-06 8.33356e-05
0.000749501 7.38023e-05 -1.3349e-06
7.38023e-05 -0.000105439 -4.59281e-07
-1.3349e-06 -4.59281e-07 -0.000222165
0.00091372 1.81204e-05 7.42553e-07
1.81204e-05 2.01483e-05 1.27439e-06
7.42553e-07 1.27439e-06 -4.66912e-05
0.000905848 4.63215e-05 5.40285e-07
4.63215e-05 2.60176e-05 2.14981e-07
5.40285e-07 2.14981e-07 -5.85639e-05
0.00112814 7.32545e-05 4.90435e-07
7.32545e-05 0.00014609 2.92041e-07
4.90435e-07 2.92041e-07 4.77444e-05
0.000770688 5.36991e-05 7.17116e-07
5.36991e-05 -3.75679e-05 -3.74166e-08
7.17116e-07 -3.74166e-08 -0.000131752
0.00226626 5.02796e-05 -3.36607e-08
5.02796e-05 0.000373087 7.81663e-07
-3.36607e-08 7.81663e-07 0.000308309
0.00111898 7.57534e-05 2.4428e-06
7.57534e-05 -0.000131411 -1.05953e-06
2.4428e-06 -1.05953e-06 -0.000194539
0.00128348 9.591e-05 1.91305e-06
9.591e-05 0.000100373 -1.43165e-06
1.91305e-06 -1.43165e-06 -1.01605e-05
0.000670305 6.63235e-05 1.01363e-06
6.63235e-05 -9.63694e-05 1.92208e-06
1.01363e-06 1.92208e-06 -0.000222215
0.000929315 8.26656e-06 -2.09519e-07
8.26656e-06 2.61023e-05 -6.53564e-07
-2.09519e-07 -6.53564e-07 -2.43837e-05
0.000951856 1.4906e-05 1.0961e-07
1.4906e-05 4.04831e-05 4.37146e-07
1.0961e-07 4.37146e-07 -2.27586e-05
0.00103093 2.08012e-05 3.49343e-07
2.08012e-05 8.41243e-05 6.38397e-07
3.49343e-07 6.38397e-07 1.17425e-05
0.000944299 6.49952e-06 -5.72227e-07
6.49952e-06 3.46822e-05 -1.00127e-06
-5.72227e-07 -1.00127e-06 -1.105e-05
0.000870149 -4.42672e-06 -8.90353e-08
-4.42672e-06 -1.84544e-06 -1.25996e-06
-8.90353e-08 -1.25996e-06 -6.18784e-05
0.000939042 -6.20812e-06 3.71811e-07
-6.20812e-06 3.14519e-05 1.37571e-08
3.71811e-07 1.37571e-08 -1.30157e-05
0.00103598 2.08103e-05 -6.80022e-08
2.08103e-05 8.9132e-05 -3.98781e-07
-6.80022e-08 -3.98781e-07 1.90273e-05
0.00090051 -2.2867e-06 1.79143e-07
-2.2867e-06 1.75868e-05 3.82353e-07
1.79143e-07 3.82353e-07 -4.18268e-05
0.00108271 2.10475e-05 3.36936e-07
2.10475e-05 0.000114152 3.12706e-07
3.36936e-07 3.12706e-07 3.7588e-05
0.000868654 -1.43072e-05 -1.53029e-07
-1.43072e-05 3.61029e-06 9.45446e-07
-1.53029e-07 9.45446e-07 -6.50989e-05
0.000853751 2.58103e-05 3.57794e-07
2.58103e-05 -4.35952e-06 1.0167e-06
3.57794e-07 1.0167e-06 -6.39815e-05
0.000955194 -1.69237e-05 -3.31405e-07
-1.69237e-05 3.83108e-05 9.12849e-07
-3.31405e-07 9.12849e-07 -5.1907e-06
0.000908508 7.16233e-06 5.12581e-07
7.16233e-06 3.97682e-06 1.58376e-06
5.12581e-07 1.58376e-06 -2.10565e-05
0.000912021 -2.81299e-06 -2.56415e-07
-2.81299e-06 5.56861e-06 2.97851e-08
-2.56415e-07 2.97851e-08 -1.95693e-05
0.00138017 -8.67511e-06 1.02463e-06
-8.67511e-06 0.000239122 1.85378e-06
1.02463e-06 1.85378e-06 0.000243574
0.000908093 -1.01532e-05 -1.07342e-07
-1.01532e-05 4.91279e-06 -1.72218e-06
-1.07342e-07 -1.72218e-06 -2.09789e-05
0.00140286 -1.22906e-05 -1.94e-06
-1.22906e-05 0.000253547 -1.17456e-06
-1.94e-06 -1.17456e-06 0.00025737
0.0010798 -1.15229e-05 9.21233e-06
-1.15229e-05 8.65599e-05 6.15071e-06
9.21233e-06 6.15071e-06 0.000104238
0.00142666 -1.55861e-05 -5.25598e-06
-1.55861e-05 0.00026939 -4.35478e-06
-5.25598e-06 -4.35478e-06 0.000272011
0.00103296 -1.5521e-05 3.60406e-06
-1.5521e-05 6.63043e-05 2.39565e-06
3.60406e-06 2.39565e-06 8.2944e-05
0.000979623 -1.90682e-05 -2.37812e-06
-1.90682e-05 4.38954e-05 -1.61553e-06
-2.37812e-06 -1.61553e-06 5.8992e-05
0.000818635 1.82231e-05 1.44477e-06
1.82231e-05 -4.06014e-05 -3.18764e-06
1.44477e-06 -3.18764e-06 -4.26344e-05
0.000825223 2.09792e-05 -1.2941e-07
2.09792e-05 -3.25876e-05 1.88117e-08
-1.2941e-07 1.88117e-08 -3.6673e-05
0.00224366 3.00056e-05 1.59983e-05
3.00056e-05 0.000702999 -3.74827e-06
1.59983e-05 -3.74827e-06 0.000722726
0.000833648 2.35808e-05 -2.51633e-06
2.35808e-05 -2.36696e-05 3.269e-06
-2.51633e-06 3.269e-06 -2.98741e-05
0.00229651 3.45024e-05 -7.56141e-07
3.45024e-05 0.000736752 -5.71553e-08
-7.56141e-07 -5.71553e-08 0.000754788
0.0023686 3.85558e-05 -2.29066e-05
3.85558e-05 0.000780818 3.78724e-06
-2.29066e-05 3.78724e-06 0.000796928
0.00148572 4.63009e-05 9.92606e-07
4.63009e-05 7.88413e-05 1.03729e-06
9.92606e-07 1.03729e-06 -5.22698e-06
0.00155173 8.44511e-06 -3.48151e-07
8.44511e-06 5.33349e-05 -4.22607e-07
-3.48151e-07 -4.22607e-07 -3.12061e-05
0.00144751 2.27353e-05 2.47605e-06
2.27353e-05 7.63444e-06 -1.72495e-06
2.47605e-06 -1.72495e-06 -6.23851e-05
0.00156525 -1.06228e-05 -7.90533e-07
-1.06228e-05 4.67304e-05 -1.06897e-06
-7.90533e-07 -1.06897e-06 -4.07201e-05
0.00166295 -2.18045e-06 -3.46719e-07
-2.18045e-06 9.90237e-05 -1.40575e-06
-3.46719e-07 -1.40575e-06 4.51494e-06
0.00162575 4.33333e-06 -1.48328e-06
4.33333e-06 7.89906e-05 -4.18092e-07
-1.48328e-06 -4.18092e-07 -1.8843e-05
0.00168195 1.48236e-05 1.8773e-08
1.48236e-05 9.71154e-05 -3.03802e-08
1.8773e-08 -3.03802e-08 -1.02029e-06
0.00163488 -1.0467e-05 2.25981e-08
-1.0467e-05 8.00125e-05 -3.30281e-07
2.25981e-08 -3.30281e-07 -1.21524e-05
0.00161149 2.81167e-06 6.55971e-07
2.81167e-06 6.82535e-05 -9.4955e-08
6.55971e-07 -9.4955e-08 -1.21707e-05
0.00151877 3.62112e-05 -3.33637e-08
3.62112e-05 5.03632e-05 -5.69353e-07
-3.33637e-08 -5.69353e-07 -2.03363e-05
0.00169124 8.51513e-06 3.22007e-07
8.51513e-06 0.000103165 6.56039e-07
3.22007e-07 6.56039e-07 6.9516e-06
0.00179415 -1.74066e-05 7.44621e-07
-1.74066e-05 0.000149417 6.56677e-07
7.44621e-07 6.56677e-07 6.40036e-05
0.00162098 1.90084e-05 5.01551e-07
1.90084e-05 6.47572e-05 1.88868e-06
5.01551e-07 1.88868e-06 -9.9881e-06
0.00157501 1.51521e-05 -1.85214e-06
1.51521e-05 5.572e-05 7.09918e-07
-1.85214e-06 7.09918e-07 -3.9352e-05
0.0017048 3.4807e-06 -1.81483e-06
3.4807e-06 0.000124237 4.86093e-07
-1.81483e-06 4.86093e-07 3.30631e-05
0.0017246 -3.35178e-05 -1.50261e-06
-3.35178e-05 0.000135668 1.60698e-06
-1.50261e-06 1.60698e-06 5.66863e-05
0.00109931 -6.77029e-05 -4.71997e-07
-6.77029e-05 0.000116531 -2.17063e-07
-4.71997e-07 -2.17063e-07 3.84908e-05
0.00117227 -7.53655e-05 3.64787e-08
-7.53655e-05 0.000153826 4.33482e-07
3.64787e-08 4.33482e-07 6.70753e-05
0.00110675 -8.23068e-05 -1.59356e-06
-8.23068e-05 8.46736e-05 2.31351e-06
-1.59356e-06 2.31351e-06 -2.5653e-05
0.00149085 -6.0455e-05 -3.89266e-07
-6.0455e-05 7.08529e-05 8.9104e-07
-3.89266e-07 8.9104e-07 -2.03703e-06
0.00109954 -7.33089e-05 -2.00686e-06
-7.33089e-05 -8.21432e-05 -1.27574e-06
-2.00686e-06 -1.27574e-06 -0.000148738
0.00133948 -8.65145e-05 -2.74276e-06
-8.65145e-05 0.000119957 -2.92946e-06
-2.74276e-06 -2.92946e-06 2.32014e-05
0.00107814 -6.7808e-05 -3.09445e-07
-6.7808e-05 0.000105198 -8.07975e-07
-3.09445e-07 -8.07975e-07 2.50621e-05
0.000975536 -6.43116e-05 -1.82232e-06
-6.43116e-05 5.2595e-05 -1.17322e-06
-1.82232e-06 -1.17322e-06 -2.92797e-05
0.00109285 -6.04023e-05 -5.19685e-07
-6.04023e-05 0.000124407 -4.99983e-08
-5.19685e-07 -4.99983e-08 3.65366e-05
0.000643384 2.15647e-05 -8.04494e-07
2.15647e-05 -0.000124854 1.06582e-06
-8.04494e-07 1.06582e-06 -0.000157143
0.00112344 -3.2426e-05 -3.9608e-07
-3.2426e-05 0.000132899 6.884e-07
-3.9608e-07 6.884e-07 6.20304e-05
0.000810884 1.04656e-05 7.11591e-08
1.04656e-05 -3.75591e-05 1.37423e-06
7.11591e-08 1.37423e-06 -9.15463e-05
0.00168166 1.89901e-05 1.5976e-08
1.89901e-05 0.000100829 -2.076e-07
1.5976e-08 -2.076e-07 4.96172e-06
0.00166888 2.74114e-06 5.8732e-07
2.74114e-06 8.18839e-05 -3.77448e-08
5.8732e-07 -3.77448e-08 -9.29455e-06
0.00150842 -3.93759e-05 -1.01823e-07
-3.93759e-05 1.68715e-05 -3.95614e-07
-1.01823e-07 -3.95614e-07 -5.94077e-05
0.00106768 -6.90284e-05 3.44084e-08
-6.90284e-05 0.000101968 4.00178e-07
3.44084e-08 4.00178e-07 2.02693e-05
0.00087061 -6.93682e-05 -8.4852e-08
-6.93682e-05 5.07061e-06 1.47636e-07
-8.4852e-08 1.47636e-07 -9.48192e-05
0.00146167 -9.65882e-05 -1.42739e-06
-9.65882e-05 0.000244129 1.51282e-06
-1.42739e-06 1.51282e-06 0.000125054
0.00165188 -7.32729e-05 -4.23387e-07
-7.32729e-05 0.000113104 6.53103e-07
-4.23387e-07 6.53103e-07 5.66274e-05
0.00134768 -8.67614e-05 5.20079e-07
-8.67614e-05 5.88806e-05 -8.40029e-07
5.20079e-07 -8.40029e-07 -2.8445e-05
0.000779939 1.57516e-05 1.14e-07
1.57516e-05 -5.67826e-05 -5.73234e-07
1.14e-07 -5.73234e-07 -8.62414e-05
0.0010318 1.06603e-05 -3.06847e-07
1.06603e-05 7.75926e-05 9.74576e-08
-3.06847e-07 9.74576e-08 2.86545e-05
0.000946183 -6.43769e-05 -6.71516e-07
-6.43769e-05 3.7671e-05 1.88847e-07
-6.71516e-07 1.88847e-07 -4.47438e-05
0.00105306 -6.78974e-05 5.85499e-07
-6.78974e-05 9.51357e-05 2.1752e-07
5.85499e-07 2.1752e-07 7.2468e-06
0.0010134 -4.10641e-05 -1.00175e-07
-4.10641e-05 8.29829e-05 -2.56667e-07
-1.00175e-07 -2.56667e-07 -1.27655e-06
0.001067 -3.01977e-05 -5.70207e-07
-3.01977e-05 0.000102368 9.53439e-07
-5.70207e-07 9.53439e-07 3.50813e-05
0.00168355 2.38329e-05 3.43309e-07
2.38329e-05 9.60855e-05 6.50712e-07
3.43309e-07 6.50712e-07 1.84717e-06
0.00168231 -5.82001e-06 1.62077e-06
-5.82001e-06 7.61861e-05 -6.02325e-08
1.62077e-06 -6.02325e-08 -1.20343e-05
0.00158989 -5.36487e-05 1.78957e-06
-5.36487e-05 2.27999e-05 -4.16559e-06
1.78957e-06 -4.16559e-06 -3.21369e-05
0.00226682 -9.94168e-05 1.85364e-06
-9.94168e-05 0.000415087 -3.18886e-07
1.85364e-06 -3.18886e-07 0.000355812
0.000869494 -6.42707e-05 -7.32213e-07
-6.42707e-05 1.28003e-05 2.41541e-07
-7.32213e-07 2.41541e-07 -7.51588e-05
0.00135502 -9.68619e-05 1.61302e-06
-9.68619e-05 0.000159812 3.02688e-06
1.61302e-06 3.02688e-06 3.01633e-05
0.0014367 -9.13622e-05 9.1559e-07
-9.13622e-05 0.000278479 -3.31924e-06
9.1559e-07 -3.31924e-06 0.0001662
0.000903523 1.26171e-05 6.15349e-07
1.26171e-05 4.03139e-06 -1.6976e-06
6.15349e-07 -1.6976e-06 -2.25425e-05
0.000932811 -3.00125e-05 8.3037e-07
-3.00125e-05 2.97125e-05 -1.003e-06
8.3037e-07 -1.003e-06 -1.38794e-05
0.000788732 1.28001e-05 2.0893e-07
1.28001e-05 -4.58047e-05 -1.6309e-06
2.0893e-07 -1.6309e-06 -9.43677e-05
0.00103168 -2.51907e-05 4.91682e-07
-2.51907e-05 8.39116e-05 -2.45706e-07
4.91682e-07 -2.45706e-07 2.04261e-05
0.000972353 -1.80267e-05 -2.77207e-08
-1.80267e-05 5.86487e-05 -6.28829e-07
-2.77207e-08 -6.28829e-07 -1.86216e-05
0.000998938 -6.74357e-05 1.92896e-06
-6.74357e-05 8.30527e-05 1.18266e-06
1.92896e-06 1.18266e-06 -1.24759e-05
0.000816082 -6.12493e-05 -3.19006e-07
-6.12493e-05 -3.70828e-05 1.16554e-06
-3.19006e-07 1.16554e-06 -0.000118367
0.00167608 -9.12961e-05 5.31844e-08
-9.12961e-05 0.000421197 1.75919e-06
5.31844e-08 1.75919e-06 0.000328457
0.000949923 -2.77819e-06 -4.61543e-07
-2.77819e-06 3.54166e-05 -1.3391e-06
-4.61543e-07 -1.3391e-06 -1.77319e-05
0.000990344 3.22973e-05 -3.86419e-07
3.22973e-05 6.3954e-05 -3.86015e-07
-3.86419e-07 -3.86015e-07 -8.53437e-06
0.00187087 6.69061e-05 3.76872e-07
6.69061e-05 0.000260657 4.12385e-07
3.76872e-07 4.12385e-07 0.000189118
0.00104298 4.94063e-05 -6.60209e-07
4.94063e-05 0.000100412 -1.57608e-07
-6.60209e-07 -1.57608e-07 1.47922e-05
0.00112332 7.21363e-05 -7.16346e-07
7.21363e-05 0.000145177 -1.30662e-06
-7.16346e-07 -1.30662e-06 5.54479e-05
0.000945779 5.82849e-05 -1.2225e-06
5.82849e-05 5.35968e-05 3.21154e-08
-1.2225e-06 3.21154e-08 -3.61828e-05
0.00147849 9.51143e-05 -5.50284e-07
9.51143e-05 0.000198043 1.01356e-07
-5.50284e-07 1.01356e-07 0.000101906
0.00132754 8.74617e-05 6.19081e-08
8.74617e-05 7.56134e-05 3.26707e-06
6.19081e-08 3.26707e-06 -3.61222e-06
0.000965331 7.15941e-05 1.67015e-09
7.15941e-05 5.88253e-05 -7.9175e-08
1.67015e-09 -7.9175e-08 -4.78976e-05
0.00115685 8.69184e-05 -3.82514e-06
8.69184e-05 9.72181e-05 -8.07284e-07
-3.82514e-06 -8.07284e-07 -2.23067e-05
0.000897968 2.23938e-05 3.0696e-07
2.23938e-05 1.30614e-05 4.56663e-07
3.0696e-07 4.56663e-07 -5.48355e-05
0.000953159 5.12977e-05 -2.78971e-07
5.12977e-05 5.10913e-05 -5.81484e-07
-2.78971e-07 -5.81484e-07 -3.34672e-05
0.00111284 7.2683e-05 -2.91179e-07
7.2683e-05 0.000139523 -8.46868e-07
-2.91179e-07 -8.46868e-07 4.19209e-05
0.000975999 6.00838e-05 -1.38982e-07
6.00838e-05 6.54878e-05 -2.63425e-07
-1.38982e-07 -2.63425e-07 -2.84352e-05
0.00197584 4.51742e-05 -7.46619e-07
4.51742e-05 0.000226013 -1.70833e-07
-7.46619e-07 -1.70833e-07 0.000160865
0.00125973 7.75686e-05 8.14231e-07
7.75686e-05 -5.08652e-05 -3.86181e-07
8.14231e-07 -3.86181e-07 -0.000116081
0.00155847 0.000103327 -1.04104e-06
0.000103327 0.000234026 -4.91808e-08
-1.04104e-06 -4.91808e-08 0.000125497
0.000805621 7.23114e-05 5.619e-07
7.23114e-05 -3.61499e-05 5.89369e-07
5.619e-07 5.89369e-07 -0.000161095
0.00103455 3.42729e-05 2.71203e-07
3.42729e-05 8.83046e-05 1.9384e-07
2.71203e-07 1.9384e-07 1.12454e-05
0.00167189 1.43116e-05 1.20294e-06
1.43116e-05 6.12365e-05 2.82347e-06
1.20294e-06 2.82347e-06 -1.35026e-05
0.00115025 6.74216e-05 4.97553e-07
6.74216e-05 0.000157285 8.2454e-07
4.97553e-07 8.2454e-07 6.33188e-05
0.00109779 7.30146e-05 5.63791e-07
7.30146e-05 0.000127092 9.52244e-07
5.63791e-07 9.52244e-07 2.10355e-05
0.00212533 7.81932e-05 3.43399e-06
7.81932e-05 0.000243769 4.51716e-07
3.43399e-06 4.51716e-07 0.000191508
0.00133753 9.94997e-05 4.74156e-06
9.94997e-05 3.13626e-05 -1.74356e-06
4.74156e-06 -1.74356e-06 -6.87765e-05
0.00164276 0.000104206 1.05505e-06
0.000104206 0.000354492 1.97002e-06
1.05505e-06 1.97002e-06 0.000220096
0.00102802 2.00546e-05 -7.42885e-07
2.00546e-05 7.99578e-05 -3.73727e-07
-7.42885e-07 -3.73727e-07 1.70289e-05
0.00103202 2.03347e-05 3.18179e-09
2.03347e-05 8.49069e-05 -1.79922e-08
3.18179e-09 -1.79922e-08 1.25473e-05
0.00104459 2.73473e-05 4.3088e-07
2.73473e-05 9.51965e-05 4.20488e-07
4.3088e-07 4.20488e-07 1.45728e-05
0.000942506 4.51035e-06 3.95117e-08
4.51035e-06 3.375e-05 -9.06307e-07
3.95117e-08 -9.06307e-07 -1.10667e-05
0.000947485 6.33454e-06 1.12414e-07
6.33454e-06 4.2453e-05 -2.24008e-07
1.12414e-07 -2.24008e-07 -1.69039e-05
0.000954756 1.85899e-05 -3.49988e-07
1.85899e-05 4.69644e-05 -1.18986e-06
-3.49988e-07 -1.18986e-06 -2.43025e-05
0.000942615 -2.07311e-05 8.09395e-08
-2.07311e-05 3.25652e-05 2.65053e-08
8.09395e-08 2.65053e-08 -1.14108e-05
0.000850424 -1.99645e-06 -2.94777e-07
-1.99645e-06 -7.31433e-06 4.10661e-07
-2.94777e-07 4.10661e-07 -6.62051e-05
0.001037 1.62693e-05 9.81837e-08
1.62693e-05 8.99137e-05 -4.45029e-07
9.81837e-08 -4.45029e-07 1.25324e-05
0.000985951 9.32262e-06 8.55823e-08
9.32262e-06 6.56482e-05 4.51086e-07
8.55823e-08 4.51086e-07 -3.21791e-06
0.00108197 3.41773e-05 1.83681e-07
3.41773e-05 0.000112463 -9.37678e-08
1.83681e-07 -9.37678e-08 2.98049e-05
0.00093532 -3.72466e-06 6.44919e-08
-3.72466e-06 3.74193e-05 6.83248e-07
6.44919e-08 6.83248e-07 -3.87852e-05
0.00103276 1.50551e-05 4.79891e-08
1.50551e-05 8.85354e-05 6.04866e-08
4.79891e-08 6.04866e-08 2.1989e-05
0.000954725 1.4713e-05 5.12979e-07
1.4713e-05 4.82708e-05 6.58102e-07
5.12979e-07 6.58102e-07 -9.40269e-06
0.000957238 -6.54535e-06 -2.4544e-07
-6.54535e-06 3.76337e-05 8.25272e-07
-2.4544e-07 8.25272e-07 -5.10649e-06
0.000900321 1.01081e-05 3.09192e-07
1.01081e-05 3.58666e-07 1.5495e-06
3.09192e-07 1.5495e-06 -2.46965e-05
0.000904941 -5.21404e-07 -1.99017e-07
-5.21404e-07 2.05686e-06 2.13477e-08
-1.99017e-07 2.13477e-08 -2.29338e-05
0.00138246 -4.30576e-06 6.88441e-07
-4.30576e-06 0.000238994 1.80569e-06
6.88441e-07 1.80569e-06 0.000243491
0.000904764 -1.02496e-05 -2.22021e-08
-1.02496e-05 1.8233e-06 -1.60213e-06
-2.22021e-08 -1.60213e-06 -2.3272e-05
0.00140285 -7.95694e-06 -1.39147e-06
-7.95694e-06 0.000251097 -1.17692e-06
-1.39147e-06 -1.17692e-06 0.000255416
0.00108052 -8.05537e-06 6.61276e-06
-8.05537e-06 8.4186e-05 6.1518e-06
6.61276e-06 6.1518e-06 0.000102252
0.00142143 -1.17306e-05 -3.74996e-06
-1.17306e-05 0.000263198 -4.21852e-06
-3.74996e-06 -4.21852e-06 0.000267
0.00103274 -1.20304e-05 2.42994e-06
-1.20304e-05 6.1972e-05 2.35951e-06
2.42994e-06 2.35951e-06 7.97859e-05
0.000977356 -1.56321e-05 -1.76843e-06
-1.56321e-05 3.7575e-05 -1.55464e-06
-1.76843e-06 -1.55464e-06 5.43283e-05
0.000904786 9.69436e-06 3.86788e-07
9.69436e-06 2.2902e-06 -1.66779e-06
3.86788e-07 -1.66779e-06 -2.2266e-05
0.000829126 1.50863e-05 1.11278e-06
1.50863e-05 -3.99091e-05 -3.12371e-06
1.11278e-06 -3.12371e-06 -4.0045e-05
0.000835348 1.83504e-05 -1.11731e-07
1.83504e-05 -3.21047e-05 2.5699e-08
-1.11731e-07 2.5699e-08 -3.42298e-05
0.00219449 2.51444e-05 1.34783e-05
2.51444e-05 0.000672374 -3.7662e-06
1.34783e-05 -3.7662e-06 0.000693549
0.00084153 2.10674e-05 -2.12673e-06
2.10674e-05 -2.44261e-05 3.18048e-06
-2.12673e-06 3.18048e-06 -2.85767e-05
0.00224923 2.99963e-05 -8.91672e-07
2.99963e-05 0.00070659 -5.08307e-08
-8.91672e-07 -5.08307e-08 0.000726136
0.00229796 3.42721e-05 -2.01656e-05
3.42721e-05 0.000738236 3.78981e-06
-2.01656e-05 3.78981e-06 0.000756115
0.0013944 3.27018e-05 7.03336e-07
3.27018e-05 -1.49618e-05 -4.28839e-07
7.03336e-07 -4.28839e-07 -8.54104e-05
0.00159886 3.20991e-06 -1.68961e-07
3.20991e-06 6.31281e-05 -1.21682e-06
-1.68961e-07 -1.21682e-06 -1.69629e-05
0.00161649 -1.06793e-05 -4.65492e-07
-1.06793e-05 7.13478e-05 -1.29568e-06
-4.65492e-07 -1.29568e-06 -2.07958e-05
0.00167691 1.69348e-05 -7.64563e-07
1.69348e-05 9.85391e-05 -4.84544e-07
-7.64563e-07 -4.84544e-07 1.33795e-06
0.00168071 9.0973e-06 4.15712e-08
9.0973e-06 9.82463e-05 2.67979e-07
4.15712e-08 2.67979e-07 2.15034e-06
0.00174263 -1.6291e-05 -5.60877e-08
-1.6291e-05 0.000123266 -1.82544e-07
-5.60877e-08 -1.82544e-07 3.73522e-05
0.0015827 1.92435e-05 -1.66889e-07
1.92435e-05 4.80377e-05 4.11169e-07
-1.66889e-07 4.11169e-07 -2.59552e-05
0.00169722 1.50903e-06 8.8691e-07
1.50903e-06 0.000107041 6.40009e-07
8.8691e-07 6.40009e-07 1.61189e-05
0.00185139 -8.67563e-06 9.67927e-07
-8.67563e-06 0.000168743 1.14675e-06
9.67927e-07 1.14675e-06 8.70839e-05
0.00114194 -8.38009e-06 1.73104e-06
-8.38009e-06 -0.000207541 1.38882e-06
1.73104e-06 1.38882e-06 -0.00028932
0.00162025 1.88492e-05 -7.60479e-07
1.88492e-05 6.96111e-05 8.28184e-08
-7.60479e-07 8.28184e-08 -2.6616e-05
0.00169615 8.39332e-07 -1.50109e-06
8.39332e-07 9.46392e-05 3.90762e-07
-1.50109e-06 3.90762e-07 3.40891e-06
0.00160267 -3.99895e-05 -2.1388e-06
-3.99895e-05 6.04609e-05 1.04016e-06
-2.1388e-06 1.04016e-06 -1.71489e-05
0.00110694 -7.03138e-05 -2.71031e-07
-7.03138e-05 0.000120534 4.16257e-07
-2.71031e-07 4.16257e-07 3.86083e-05
0.0009071 -7.0242e-05 2.26233e-07
-7.0242e-05 2.54785e-05 2.35235e-06
2.26233e-07 2.35235e-06 -7.23571e-05
0.00144505 -9.55474e-05 -2.20655e-06
-9.55474e-05 0.00023374 3.43462e-06
-2.20655e-06 3.43462e-06 0.000115232
0.00164394 -7.48526e-05 2.40055e-06
-7.48526e-05 0.000115531 2.20593e-06
2.40055e-06 2.20593e-06 5.87304e-05
0.0012255 -8.35773e-05 -3.62742e-06
-8.35773e-05 -6.12678e-06 -3.04964e-06
-3.62742e-06 -3.04964e-06 -9.27274e-05
0.000836984 -6.08636e-05 -1.02875e-06
-6.08636e-05 -1.61032e-05 -3.97284e-07
-1.02875e-06 -3.97284e-07 -9.84841e-05
0.00108208 -6.86773e-05 1.02655e-07
-6.86773e-05 0.000109201 -1.85227e-06
1.02655e-07 -1.85227e-06 2.19507e-05
0.00100665 -2.54986e-05 -2.99698e-08
-2.54986e-05 7.75911e-05 -4.12573e-08
-2.99698e-08 -4.12573e-08 -5.0408e-06
0.000892895 1.55689e-05 -7.52973e-07
1.55689e-05 9.93315e-07 1.16258e-06
-7.52973e-07 1.16258e-06 -2.74805e-05
0.00101959 2.51466e-05 -3.22878e-07
2.51466e-05 7.16979e-05 1.09418e-06
-3.22878e-07 1.09418e-06 2.27814e-05
0.00101119 -2.40322e-05 -9.14761e-07
-2.40322e-05 7.36926e-05 1.65927e-06
-9.14761e-07 1.65927e-06 5.81576e-06
0.00169287 2.39023e-05 2.04079e-07
2.39023e-05 0.000101555 2.91987e-07
2.04079e-07 2.91987e-07 8.22881e-06
0.000903599 1.21189e-05 -1.81106e-08
1.21189e-05 3.7844e-06 1.14189e-08
-1.81106e-08 1.14189e-08 -2.27715e-05
0.000842123 -2.23575e-06 -4.81575e-07
-2.23575e-06 -1.7782e-05 3.56835e-08
-4.81575e-07 3.56835e-08 -6.10796e-05
0.00176336 -6.42454e-06 8.46231e-08
-6.42454e-06 0.000113872 -3.0956e-07
8.46231e-08 -3.0956e-07 2.57628e-05
0.0014134 -5.36389e-05 -7.21183e-07
-5.36389e-05 -5.85513e-05 -3.84146e-07
-7.21183e-07 -3.84146e-07 -0.000117742
0.000868145 -6.39211e-05 3.3146e-08
-6.39211e-05 1.31382e-05 1.00793e-06
3.3146e-08 1.00793e-06 -7.36845e-05
0.0013528 -8.90638e-05 -6.22451e-07
-8.90638e-05 0.000235968 3.95946e-07
-6.22451e-07 3.95946e-07 0.000120642
0.00122786 -9.1066e-05 8.86425e-07
-9.1066e-05 9.17806e-05 1.42065e-06
8.86425e-07 1.42065e-06 -3.2622e-05
0.00183473 -9.32787e-05 3.0778e-07
-9.32787e-05 0.000205245 -8.80094e-07
3.0778e-07 -8.80094e-07 0.000146088
0.000981585 -1.9231e-06 7.5587e-07
-1.9231e-06 5.40675e-05 -4.82953e-07
7.5587e-07 -4.82953e-07 6.76356e-06
0.00101086 -1.30893e-05 -5.00381e-07
-1.30893e-05 7.42697e-05 4.80283e-07
-5.00381e-07 4.80283e-07 1.02694e-05
0.000983863 -6.6521e-05 3.64717e-07
-6.6521e-05 4.56071e-05 4.82761e-07
3.64717e-07 4.82761e-07 -3.6731e-05
0.00125766 -7.738e-05 -5.40659e-07
-7.738e-05 0.000208943 -5.72388e-07
-5.40659e-07 -5.72388e-07 0.000120574
0.000916513 -5.12433e-05 2.20558e-07
-5.12433e-05 4.14382e-05 3.27299e-07
2.20558e-07 3.27299e-07 -5.43022e-05
0.000995729 -1.53502e-05 1.8182e-07
-1.53502e-05 6.96271e-05 -2.74373e-07
1.8182e-07 -2.74373e-07 -7.59376e-06
0.00163647 2.57924e-05 5.78337e-07
2.57924e-05 6.67839e-05 2.10786e-07
5.78337e-07 2.10786e-07 -1.81197e-05
0.00193679 -1.8324e-05 2.09144e-06
-1.8324e-05 0.000190015 4.39495e-07
2.09144e-06 4.39495e-07 0.000108143
0.00207879 -8.82203e-05 -1.09815e-06
-8.82203e-05 0.000212162 -4.72398e-06
-1.09815e-06 -4.72398e-06 0.000178372
0.0014042 -0.000101925 3.01255e-06
-0.000101925 7.56739e-05 2.57996e-06
3.01255e-06 2.57996e-06 -2.24213e-05
0.00111918 -7.17542e-05 -1.12077e-06
-7.17542e-05 0.000133999 -7.05431e-07
-1.12077e-06 -7.05431e-07 4.25279e-05
0.00165026 -0.00011017 4.02499e-07
-0.00011017 0.00037146 -2.53766e-06
4.02499e-07 -2.53766e-06 0.000227975
0.000757746 2.21762e-05 -6.08966e-07
2.21762e-05 -6.13026e-05 -1.33487e-06
-6.08966e-07 -1.33487e-06 -0.000103188
0.000921376 -1.25725e-05 7.96066e-07
-1.25725e-05 2.28573e-05 -1.12017e-06
7.96066e-07 -1.12017e-06 -2.17798e-05
0.00115677 -2.47008e-05 2.91399e-07
-2.47008e-05 0.000154995 -5.05945e-07
2.91399e-07 -5.05945e-07 9.87727e-05
0.00085316 1.59072e-05 -5.89393e-07
1.59072e-05 -2.79511e-06 -9.96667e-07
-5.89393e-07 -9.96667e-07 -6.71492e-05
0.0011251 -1.83267e-05 -5.41612e-08
-1.83267e-05 0.000136076 -3.08149e-07
-5.41612e-08 -3.08149e-07 6.31039e-05
0.000821275 -2.33653e-05 1.05212e-08
-2.33653e-05 -8.85004e-06 8.57796e-08
1.05212e-08 8.57796e-08 -9.6588e-05
0.00118432 -5.58417e-05 3.1169e-06
-5.58417e-05 0.000188075 6.95269e-08
3.1169e-06 6.95269e-08 8.47356e-05
0.000940398 -7.17913e-05 -1.54866e-06
-7.17913e-05 4.86818e-05 1.30194e-06
-1.54866e-06 1.30194e-06 -3.85442e-05
0.000881545 2.74506e-05 -2.84503e-07
2.74506e-05 5.7585e-06 -4.21199e-07
-2.84503e-07 -4.21199e-07 -6.32467e-05
0.00099791 5.52492e-05 -1.33068e-06
5.52492e-05 7.48632e-05 -1.13616e-06
-1.33068e-06 -1.13616e-06 -9.61367e-06
0.00167764 3.98997e-05 -1.31951e-06
3.98997e-05 7.58809e-05 -1.74578e-06
-1.31951e-06 -1.74578e-06 1.02698e-05
0.00140438 7.93164e-05 -8.75805e-07
7.93164e-05 3.19489e-05 1.55034e-06
-8.75805e-07 1.55034e-06 -3.54024e-05
0.00119258 6.56555e-05 -1.17136e-06
6.56555e-05 0.000173884 -2.03771e-07
-1.17136e-06 -2.03771e-07 8.03579e-05
0.00111049 7.24741e-05 -1.265e-06
7.24741e-05 0.000139445 -1.88566e-06
-1.265e-06 -1.88566e-06 4.25631e-05
0.00187337 0.000111968 -1.99685e-06
0.000111968 0.000388218 6.48556e-07
-1.99685e-06 6.48556e-07 0.000281542
0.000975721 7.93119e-05 -9.01899e-07
7.93119e-05 4.19144e-05 -1.32051e-06
-9.01899e-07 -1.32051e-06 -8.25857e-05
0.001013 3.979e-05 -1.96986e-07
3.979e-05 7.89611e-05 -4.56606e-07
-1.96986e-07 -4.56606e-07 1.24274e-06
0.00158502 1.26723e-05 6.63259e-07
1.26723e-05 1.571e-05 4.73671e-07
6.63259e-07 4.73671e-07 -5.93484e-05
0.00104703 6.37129e-05 2.94981e-07
6.37129e-05 0.000105578 5.72859e-07
2.94981e-07 5.72859e-07 1.20972e-05
0.000941661 6.75029e-05 1.94578e-07
6.75029e-05 4.65208e-05 -2.43201e-07
1.94578e-07 -2.43201e-07 -6.08173e-05
0.00162718 6.89794e-05 8.43838e-07
6.89794e-05 3.88599e-06 -3.34078e-07
8.43838e-07 -3.34078e-07 -5.03438e-05
0.00169487 0.000110497 1.08898e-06
0.000110497 0.000201798 -4.21146e-07
1.08898e-06 -4.21146e-07 0.000102426
0.00159393 0.000103148 7.70965e-08
0.000103148 0.000334082 4.8748e-07
7.70965e-08 4.8748e-07 0.000200228
0.0010716 4.69169e-05 1.64518e-07
4.69169e-05 0.000115053 5.09151e-07
1.64518e-07 5.09151e-07 2.70242e-05
0.00212594 4.82997e-05 2.21722e-06
4.82997e-05 0.000197417 2.02873e-06
2.21722e-06 2.02873e-06 0.000137763
0.00141716 7.70573e-05 -3.29936e-07
7.70573e-05 0.000278294 -6.12804e-08
-3.29936e-07 -6.12804e-08 0.000179431
0.00167488 9.74985e-05 -1.41734e-06
9.74985e-05 0.000404473 1.63661e-06
-1.41734e-06 1.63661e-06 0.000282303
0.00147612 0.000111218 7.34054e-06
0.000111218 -7.2658e-05 -1.23071e-06
7.34054e-06 -1.23071e-06 -0.000144332
0.00102084 9.22387e-05 1.97778e-07
9.22387e-05 -6.37319e-06 2.36017e-06
1.97778e-07 2.36017e-06 -0.000141769
0.00134914 3.50592e-05 1.42418e-05
3.50592e-05 -2.24773e-05 -1.80907e-06
1.42418e-05 -1.80907e-06 -4.73669e-05
0.00103545 2.08009e-05 -3.76542e-07
2.08009e-05 8.68626e-05 -6.40704e-07
-3.76542e-07 -6.40704e-07 1.44813e-05
0.00102872 2.80865e-05 -2.43864e-08
2.80865e-05 8.79457e-05 -9.64109e-08
-2.43864e-08 -9.64109e-08 7.17822e-06
0.0011202 4.06904e-05 1.56436e-07
4.06904e-05 0.000130841 -8.50424e-08
1.56436e-07 -8.50424e-08 4.47334e-05
0.00093223 -1.6833e-05 3.88068e-07
-1.6833e-05 2.74549e-05 -8.29066e-07
3.88068e-07 -8.29066e-07 -1.66767e-05
0.000848036 -2.31071e-05 -3.59573e-08
-2.31071e-05 -8.68478e-06 -2.114e-07
-3.59573e-08 -2.114e-07 -6.75652e-05
0.0011037 3.28044e-05 -5.77192e-07
3.28044e-05 0.000128232 -1.10048e-07
-5.77192e-07 -1.10048e-07 5.9062e-05
0.000989894 1.30919e-05 -1.99125e-07
1.30919e-05 6.51396e-05 -1.07197e-06
-1.99125e-07 -1.07197e-06 -1.31119e-05
0.000942957 -1.72294e-05 -2.56419e-07
-1.72294e-05 3.19051e-05 2.71735e-08
-2.56419e-07 2.71735e-08 -1.18949e-05
0.000895072 8.52351e-07 1.88172e-07
8.52351e-07 1.55545e-05 6.02628e-08
1.88172e-07 6.02628e-08 -4.15851e-05
0.00102847 2.93633e-05 -1.54872e-07
2.93633e-05 8.48569e-05 -6.2589e-07
-1.54872e-07 -6.2589e-07 2.24044e-06
0.00103054 1.33677e-06 -2.41026e-07
1.33677e-06 8.72092e-05 -1.74634e-07
-2.41026e-07 -1.74634e-07 2.05797e-05
0.00101322 4.39391e-08 2.11277e-07
4.39391e-08 7.83618e-05 -1.35708e-08
2.11277e-07 -1.35708e-08 2.71123e-06
0.00104249 2.38615e-05 -2.18967e-07
2.38615e-05 8.76508e-05 4.61596e-07
-2.18967e-07 4.61596e-07 5.0939e-06
0.00104593 1.95136e-05 1.34962e-07
1.95136e-05 9.89275e-05 -1.06304e-07
1.34962e-07 -1.06304e-07 2.65994e-05
0.00108023 1.77899e-05 1.31331e-07
1.77899e-05 0.000110772 -1.78447e-07
1.31331e-07 -1.78447e-07 4.62994e-05
0.000815356 7.33351e-06 -4.47039e-07
7.33351e-06 -2.60325e-05 6.11863e-07
-4.47039e-07 6.11863e-07 -8.35198e-05
0.000796949 9.8532e-06 3.35812e-07
9.8532e-06 -4.49904e-05 1.19171e-06
3.35812e-07 1.19171e-06 -8.90349e-05
0.00111045 -6.39172e-07 2.46279e-07
-6.39172e-07 0.000127579 5.74652e-08
2.46279e-07 5.74652e-08 7.17324e-05
0.000792409 5.02402e-07 -4.20399e-07
5.02402e-07 -4.72037e-05 1.01994e-06
-4.20399e-07 1.01994e-06 -9.0488e-05
0.00090257 1.18054e-05 2.15858e-07
1.18054e-05 1.64986e-06 1.54911e-06
2.15858e-07 1.54911e-06 -2.33823e-05
0.000899097 1.62583e-06 -2.7593e-07
1.62583e-06 -3.15736e-07 9.90716e-09
-2.7593e-07 9.90716e-09 -2.53309e-05
0.000851282 3.58909e-07 1.59558e-07
3.58909e-07 -3.68403e-05 2.94495e-06
1.59558e-07 2.94495e-06 -3.52345e-05
0.000902095 -8.43651e-06 2.28989e-07
-8.43651e-06 5.27979e-07 -1.56766e-06
2.28989e-07 -1.56766e-06 -2.44263e-05
0.00112915 -3.51683e-06 -8.29831e-07
-3.51683e-06 0.000107732 -1.20602e-06
-8.29831e-07 -1.20602e-06 0.000110724
0.00214567 -5.51839e-06 3.88198e-06
-5.51839e-06 0.000634983 3.86079e-06
3.88198e-06 3.86079e-06 0.000658832
0.00142376 -7.53107e-06 -2.31367e-06
-7.53107e-06 0.000262154 -4.15269e-06
-2.31367e-06 -4.15269e-06 0.000266329
0.00103873 -8.28821e-06 1.29491e-06
-8.28821e-06 6.20561e-05 2.35846e-06
1.29491e-06 2.35846e-06 8.03506e-05
0.000983955 -1.1919e-05 -1.25265e-06
-1.1919e-05 3.65272e-05 -1.49702e-06
-1.25265e-06 -1.49702e-06 5.45355e-05
0.000913084 6.483e-06 3.12602e-07
6.483e-06 4.75791e-06 -1.62491e-06
3.12602e-07 -1.62491e-06 -1.82019e-05
0.000907565 9.28159e-06 -3.3289e-08
9.28159e-06 3.42221e-06 5.88375e-09
-3.3289e-08 5.88375e-09 -2.11157e-05
0.00083819 1.16648e-05 7.02769e-07
1.16648e-05 -3.91939e-05 -3.07763e-06
7.02769e-07 -3.07763e-06 -3.77122e-05
0.00112089 1.6546e-05 -4.49163e-07
1.6546e-05 0.000111289 3.02367e-08
-4.49163e-07 3.02367e-08 0.000112429
0.00215365 2.01357e-05 1.09653e-05
2.01357e-05 0.000646733 -3.79592e-06
1.09653e-05 -3.79592e-06 0.000669155
0.000852064 1.8481e-05 -1.67828e-06
1.8481e-05 -2.35936e-05 3.16265e-06
-1.67828e-06 3.16265e-06 -2.58106e-05
0.0021982 2.52484e-05 -9.67289e-07
2.52484e-05 0.000674979 -4.28523e-08
-9.67289e-07 -4.28523e-08 0.000695967
0.00225068 2.99038e-05 -1.75564e-05
2.99038e-05 0.000708033 3.80593e-06
-1.75564e-05 3.80593e-06 0.000727425
0.00152132 1.9483e-05 -9.12653e-07
1.9483e-05 1.9932e-05 -8.27046e-07
-9.12653e-07 -8.27046e-07 -5.33052e-05
0.0017012 -1.45769e-05 -4.15758e-07
-1.45769e-05 0.000102224 -9.1301e-07
-4.15758e-07 -9.1301e-07 1.57986e-05
0.00165783 5.53338e-06 -6.69187e-07
5.53338e-06 8.75727e-05 -2.97705e-07
-6.69187e-07 -2.97705e-07 -8.51431e-06
0.00168695 3.45302e-06 4.74713e-09
3.45302e-06 0.000101084 -3.5493e-08
4.74713e-09 -3.5493e-08 1.02039e-05
0.00169402 -8.4631e-06 -1.80851e-07
-8.4631e-06 9.56763e-05 2.70729e-07
-1.80851e-07 2.70729e-07 1.42943e-05
0.00148164 -1.29439e-05 5.53852e-07
-1.29439e-05 -3.49601e-05 -2.72353e-07
5.53852e-07 -2.72353e-07 -0.000117738
0.00164241 6.29528e-06 1.63205e-06
6.29528e-06 7.63398e-05 -6.3097e-08
1.63205e-06 -6.3097e-08 -5.35989e-06
0.00219215 -3.8255e-05 -1.62795e-06
-3.8255e-05 0.000262658 -5.89634e-06
-1.62795e-06 -5.89634e-06 0.00023056
0.00169356 -5.08223e-06 2.89949e-06
-5.08223e-06 1.50906e-05 1.87881e-06
2.89949e-06 1.87881e-06 -6.16808e-05
0.000942374 2.86294e-06 3.20313e-07
2.86294e-06 3.16987e-05 -8.3316e-07
3.20313e-07 -8.3316e-07 -7.42992e-06
0.00167881 2.3772e-05 -9.04456e-07
2.3772e-05 9.5398e-05 -3.7543e-07
-9.04456e-07 -3.7543e-07 2.99691e-06
0.00183302 -7.1805e-06 -2.00519e-06
-7.1805e-06 0.000146038 2.94894e-07
-2.00519e-06 2.94894e-07 5.80316e-05
0.00129186 -5.39795e-05 -8.37004e-08
-5.39795e-05 -0.000113475 2.73784e-06
-8.37004e-08 2.73784e-06 -0.000176239
0.000890608 -6.43103e-05 6.40562e-07
-6.43103e-05 2.56583e-05 8.42514e-07
6.40562e-07 8.42514e-07 -6.01113e-05
0.00135132 -8.93949e-05 -6.76135e-07
-8.93949e-05 0.000236439 3.84752e-06
-6.76135e-07 3.84752e-06 0.000117685
0.000985504 -8.21612e-05 -5.73713e-07
-8.21612e-05 -3.36312e-05 1.90828e-07
-5.73713e-07 1.90828e-07 -0.000153999
0.00145753 -8.79072e-05 -2.06146e-06
-8.79072e-05 2.26917e-05 -2.59459e-06
-2.06146e-06 -2.59459e-06 -3.6547e-05
0.00114143 -7.14199e-05 1.34928e-06
-7.14199e-05 0.000123124 -1.40596e-06
1.34928e-06 -1.40596e-06 3.97797e-05
0.00087603 -6.47293e-05 -3.65254e-06
-6.47293e-05 1.54667e-05 -4.47222e-06
-3.65254e-06 -4.47222e-06 -6.86722e-05
0.000829007 -4.80467e-05 1.06095e-07
-4.80467e-05 -1.09368e-06 4.6335e-07
1.06095e-07 4.6335e-07 -9.80772e-05
0.000906186 1.17676e-05 -7.3681e-07
1.17676e-05 4.90269e-06 1.73898e-06
-7.3681e-07 1.73898e-06 -2.1656e-05
0.00101722 -1.95067e-05 5.51994e-08
-1.95067e-05 8.00269e-05 -1.09615e-07
5.51994e-08 -1.09615e-07 2.56498e-06
0.00117925 -2.3246e-05 -3.87508e-07
-2.3246e-05 0.000156875 6.1971e-07
-3.87508e-07 6.1971e-07 0.000110513
0.000993775 -1.33668e-07 -1.6424e-07
-1.33668e-07 6.62941e-05 1.33485e-06
-1.6424e-07 1.33485e-06 1.88686e-06
0.000751539 9.28031e-06 1.2805e-07
9.28031e-06 -6.58762e-05 9.78303e-07
1.2805e-07 9.78303e-07 -0.000108491
0.00169572 2.4608e-05 -1.9667e-07
2.4608e-05 9.53279e-05 2.16272e-07
-1.9667e-07 2.16272e-07 1.06595e-05
0.000855451 5.88199e-06 2.7768e-07
5.88199e-06 -1.1644e-05 -4.5802e-07
2.7768e-07 -4.5802e-07 -5.29543e-05
0.000928256 -1.30974e-05 -3.13085e-07
-1.30974e-05 2.70165e-05 2.28827e-08
-3.13085e-07 2.28827e-08 -1.81087e-05
0.000977274 -9.52492e-06 -6.92675e-07
-9.52492e-06 6.25545e-05 4.72125e-07
-6.92675e-07 4.72125e-07 5.25929e-06
0.00183786 -1.79347e-05 1.08762e-06
-1.79347e-05 0.000131533 4.92052e-07
1.08762e-06 4.92052e-07 5.1833e-05
0.00172516 -8.49972e-05 -1.8281e-06
-8.49972e-05 5.09733e-05 -1.01361e-06
-1.8281e-06 -1.01361e-06 1.35292e-05
0.000978468 -6.78106e-05 -5.01441e-07
-6.78106e-05 5.7344e-05 6.43066e-07
-5.01441e-07 6.43066e-07 -3.22308e-05
0.00109958 -9.08181e-05 6.15547e-07
-9.08181e-05 0.00010666 -6.94492e-07
6.15547e-07 -6.94492e-07 -3.86e-05
0.00136917 -0.000102723 9.59504e-08
-0.000102723 5.92718e-05 9.4171e-07
9.59504e-08 9.4171e-07 -3.81e-05
0.000946209 9.41921e-06 -1.68394e-07
9.41921e-06 4.44327e-05 4.71116e-08
-1.68394e-07 4.71116e-08 -1.85819e-05
0.00107337 -2.45022e-05 -6.87726e-08
-2.45022e-05 0.000111294 -2.24332e-08
-6.87726e-08 -2.24332e-08 3.67766e-05
0.000886639 -6.96141e-05 -2.2979e-06
-6.96141e-05 2.1714e-05 3.61395e-07
-2.2979e-06 3.61395e-07 -6.70506e-05
0.00113575 -4.75791e-05 2.42343e-07
-4.75791e-05 0.00016271 -2.83159e-07
2.42343e-07 -2.83159e-07 6.11797e-05
0.000943697 -3.24566e-05 4.87121e-08
-3.24566e-05 5.33068e-05 6.56053e-07
4.87121e-08 6.56053e-07 -3.40498e-05
0.00164601 1.97752e-05 9.24727e-07
1.97752e-05 4.89236e-05 -3.85366e-08
9.24727e-07 -3.85366e-08 -3.43866e-05
0.00246866 -5.4725e-05 2.89716e-06
-5.4725e-05 0.000369049 -2.66538e-06
2.89716e-06 -2.66538e-06 0.00032275
0.00210685 -0.000123353 6.01386e-06
-0.000123353 0.000264241 -1.6631e-06
6.01386e-06 -1.6631e-06 0.000195491
0.00144725 -0.000111046 -9.35219e-07
-0.000111046 0.000212368 -7.65556e-07
-9.35219e-07 -7.65556e-07 8.07582e-05
0.00103973 -7.9814e-05 3.34508e-07
-7.9814e-05 0.000111328 -1.97473e-06
3.34508e-07 -1.97473e-06 -2.82526e-06
0.000763758 1.30954e-05 9.69271e-08
1.30954e-05 -4.70839e-05 -9.8443e-07
9.69271e-08 -9.8443e-07 -0.000103182
0.000876725 1.84805e-05 2.94513e-07
1.84805e-05 1.15028e-05 -1.08387e-06
2.94513e-07 -1.08387e-06 -5.01961e-05
0.00111569 8.95079e-06 3.31628e-07
8.95079e-06 0.000136747 8.99555e-08
3.31628e-07 8.99555e-08 6.93988e-05
0.00102336 -3.60571e-05 6.75124e-07
-3.60571e-05 9.04055e-05 -6.60375e-07
6.75124e-07 -6.60375e-07 1.68389e-05
0.0010602 -1.91897e-05 4.6111e-08
-1.91897e-05 0.00010736 3.64346e-07
4.6111e-08 3.64346e-07 2.68073e-05
0.00100764 -3.16364e-05 -3.29439e-07
-3.16364e-05 9.57431e-05 -1.21849e-06
-3.29439e-07 -1.21849e-06 1.25037e-06
0.000940189 -5.5947e-05 4.81299e-06
-5.5947e-05 8.61968e-05 6.40391e-07
4.81299e-06 6.40391e-07 -3.40728e-05
0.000989278 4.42511e-05 -6.8582e-07
4.42511e-05 6.84222e-05 -1.18582e-06
-6.8582e-07 -1.18582e-06 -9.87571e-06
0.000939698 5.94851e-05 -1.72747e-08
5.94851e-05 5.18188e-05 9.47514e-08
-1.72747e-08 9.47514e-08 -4.11273e-05
0.00152763 1.03871e-05 -7.24052e-07
1.03871e-05 -1.68523e-05 -1.65311e-06
-7.24052e-07 -1.65311e-06 -9.20052e-05
0.00114159 6.0245e-05 -6.25198e-07
6.0245e-05 -0.000230271 -1.56169e-06
-6.25198e-07 -1.56169e-06 -0.000285879
0.00206195 0.000121877 -2.87367e-06
0.000121877 0.000375889 5.58302e-08
-2.87367e-06 5.58302e-08 0.000277361
0.000806898 6.28522e-05 -1.51387e-07
6.28522e-05 -2.30487e-05 -9.98992e-07
-1.51387e-07 -9.98992e-07 -0.000131435
0.00148529 0.000100293 -5.77279e-07
0.000100293 0.000283288 -4.55139e-07
-5.77279e-07 -4.55139e-07 0.000150574
0.00107714 4.54739e-05 7.53107e-08
4.54739e-05 0.00011822 9.18601e-08
7.53107e-08 9.18601e-08 3.12299e-05
0.00162567 4.39116e-05 -1.60291e-06
4.39116e-05 -5.85655e-05 7.90757e-08
-1.60291e-06 7.90757e-08 -0.000116418
0.00119861 7.12287e-05 -4.6055e-07
7.12287e-05 0.000172581 -2.12528e-07
-4.6055e-07 -2.12528e-07 7.41821e-05
0.00128847 8.32483e-05 -3.78621e-07
8.32483e-05 0.000220455 4.45942e-07
-3.78621e-07 4.45942e-07 9.84695e-05
0.00172792 0.000112229 1.9169e-06
0.000112229 4.62175e-05 -1.23857e-06
1.9169e-06 -1.23857e-06 -2.10652e-05
0.00125459 0.000100209 -1.10701e-06
0.000100209 0.000116251 1.37985e-06
-1.10701e-06 1.37985e-06 -2.56039e-05
0.00186309 1.79259e-05 -1.30149e-06
1.79259e-05 0.000133174 -2.71794e-06
-1.30149e-06 -2.71794e-06 0.000108656
0.00111203 5.51293e-05 -6.19943e-07
5.51293e-05 0.000130244 -6.22723e-07
-6.19943e-07 -6.22723e-07 3.75409e-05
0.00206342 0.000111103 7.87702e-06
0.000111103 0.000122515 -3.29229e-06
7.87702e-06 -3.29229e-06 8.47646e-05
0.00128892 8.02122e-05 -1.60389e-06
8.02122e-05 0.000224856 -5.40243e-07
-1.60389e-06 -5.40243e-07 0.00012169
0.00102021 8.1256e-05 -1.39669e-06
8.1256e-05 0.000110063 1.36709e-06
-1.39669e-06 1.36709e-06 -3.8608e-05
0.000420782 0.000107505 7.23772e-08
0.000107505 -0.000399073 -3.45905e-08
7.23772e-08 -3.45905e-08 -0.000524785
0.0061325 -0.000119739 -2.27005e-05
-0.000119739 0.00209281 -1.69938e-06
-2.27005e-05 -1.69938e-06 0.00156163
0.00247323 -9.91928e-05 5.79673e-05
-9.91928e-05 0.000148159 8.06018e-06
5.79673e-05 8.06018e-06 -0.000118494
0.00114488 0.000123077 1.14526e-05
0.000123077 -0.000216581 5.84641e-06
1.14526e-05 5.84641e-06 -0.000136201
-0.00267423 -0.000178292 -3.73952e-05
-0.000178292 -0.00138391 -2.26129e-05
-3.73952e-05 -2.26129e-05 -0.00130875
0.00143574 -0.000258095 -1.34891e-05
-0.000258095 -0.000133125 -2.40057e-06
-1.34891e-05 -2.40057e-06 0.0004809
0.00101658 2.8322e-05 -3.85427e-07
2.8322e-05 8.24055e-05 -6.71131e-07
-3.85427e-07 -6.71131e-07 1.53425e-06
0.00108994 3.87109e-05 8.87496e-08
3.87109e-05 0.000117093 -1.01485e-07
8.87496e-08 -1.01485e-07 3.1355e-05
0.00109975 4.41021e-05 8.38498e-08
4.41021e-05 0.000113751 1.48635e-07
8.38498e-08 1.48635e-07 2.74435e-05
0.000929925 -2.95684e-05 2.83249e-07
-2.95684e-05 2.68369e-05 -8.20246e-07
2.83249e-07 -8.20246e-07 -1.80288e-05
0.000829906 1.20435e-05 7.34081e-08
1.20435e-05 -1.78893e-05 -6.43951e-07
7.34081e-08 -6.43951e-07 -7.57501e-05
0.00102583 -1.43935e-05 7.56764e-08
-1.43935e-05 8.39477e-05 -4.10379e-07
7.56764e-08 -4.10379e-07 1.76916e-05
0.00108682 6.91785e-06 -1.01735e-07
6.91785e-06 0.000117223 -4.22404e-07
-1.01735e-07 -4.22404e-07 4.21636e-05
0.000993378 2.3604e-05 -2.51407e-07
2.3604e-05 6.6231e-05 -1.20726e-06
-2.51407e-07 -1.20726e-06 -1.63158e-05
0.00100501 2.34226e-05 -3.31863e-07
2.34226e-05 7.27287e-05 -4.14586e-07
-3.31863e-07 -4.14586e-07 6.9925e-06
0.000868598 5.79382e-06 1.43714e-07
5.79382e-06 -6.94868e-06 4.08779e-07
1.43714e-07 4.08779e-07 -5.12268e-05
0.000904195 2.04456e-06 -1.6184e-07
2.04456e-06 1.98868e-05 4.45714e-08
-1.6184e-07 4.45714e-08 -3.73982e-05
0.00102346 2.46276e-05 -3.75952e-08
2.46276e-05 7.97688e-05 1.47037e-07
-3.75952e-08 1.47037e-07 -2.46348e-06
0.00102657 1.75319e-05 6.14212e-08
1.75319e-05 8.76254e-05 -1.47949e-07
6.14212e-08 -1.47949e-07 1.53383e-05
0.000981707 3.4807e-05 8.75117e-08
3.4807e-05 6.58418e-05 -3.30574e-07
8.75117e-08 -3.30574e-07 -5.41031e-06
0.0010763 4.33696e-05 2.13552e-07
4.33696e-05 0.000110605 4.99493e-07
2.13552e-07 4.99493e-07 3.14511e-05
0.00087068 1.49091e-05 6.65864e-08
1.49091e-05 -9.54326e-07 7.25736e-07
6.65864e-08 7.25736e-07 -6.61319e-05
0.000853688 2.26181e-06 3.52104e-07
2.26181e-06 -8.47186e-06 6.42666e-08
3.52104e-07 6.42666e-08 -6.53269e-05
0.000769269 -2.91511e-05 -1.19708e-06
-2.91511e-05 -5.77005e-05 1.15657e-06
-1.19708e-06 1.15657e-06 -0.000102252
0.000999915 8.45935e-06 -9.47837e-08
8.45935e-06 6.74104e-05 3.30098e-07
-9.47837e-08 3.30098e-07 1.21489e-05
0.00110921 4.62519e-05 1.65867e-07
4.62519e-05 0.000125743 1.87002e-07
1.65867e-07 1.87002e-07 6.17269e-05
0.000954118 -3.47693e-07 -3.24483e-07
-3.47693e-07 4.65271e-05 5.67358e-07
-3.24483e-07 5.67358e-07 -1.00726e-05
0.000983427 1.02591e-05 3.3142e-07
1.02591e-05 6.017e-05 -3.98454e-07
3.3142e-07 -3.98454e-07 4.96541e-06
0.000940533 -1.83724e-05 -9.01946e-07
-1.83724e-05 2.98311e-05 6.74686e-07
-9.01946e-07 6.74686e-07 -1.29422e-05
0.000793008 4.06746e-06 1.32418e-07
4.06746e-06 -4.54691e-05 3.69627e-07
1.32418e-07 3.69627e-07 -8.97488e-05
0.000903747 1.11665e-05 -8.26392e-08
1.11665e-05 2.05404e-06 1.55301e-06
-8.26392e-08 1.55301e-06 -2.29387e-05
0.00089768 3.14747e-06 -1.93962e-07
3.14747e-06 -9.36674e-07 1.65007e-09
-1.93962e-07 1.65007e-09 -2.5885e-05
0.000868569 3.78932e-06 -3.44321e-07
3.78932e-06 -2.72397e-05 4.13457e-06
-3.44321e-07 4.13457e-06 -2.58441e-05
0.000896936 -7.12934e-06 3.72952e-07
-7.12934e-06 -1.47582e-06 -1.54272e-06
3.72952e-07 -1.54272e-06 -2.64422e-05
0.000853248 3.23305e-07 9.80559e-08
3.23305e-07 -3.58429e-05 5.64218e-09
9.80559e-08 5.64218e-09 -3.424e-05
0.00214702 -9.41585e-07 2.69368e-08
-9.41585e-07 0.000635107 3.87536e-06
2.69368e-08 3.87536e-06 0.000659022
0.000870921 -3.06579e-06 -4.66805e-07
-3.06579e-06 -2.60015e-05 -4.16187e-06
-4.66805e-07 -4.16187e-06 -2.45308e-05
0.00158947 -4.79589e-06 -1.68542e-07
-4.79589e-06 0.000346226 1.76151e-08
-1.68542e-07 1.76151e-08 0.000367364
0.000996607 -7.92995e-06 -7.80294e-07
-7.92995e-06 3.97654e-05 -1.46887e-06
-7.80294e-07 -1.46887e-06 5.83275e-05
0.000916346 3.23035e-06 1.06111e-07
3.23035e-06 5.10234e-06 -1.66344e-06
1.06111e-07 -1.66344e-06 -1.67848e-05
0.000910849 5.98622e-06 2.20091e-08
5.98622e-06 3.33303e-06 -1.18705e-09
2.20091e-08 -1.18705e-09 -1.95798e-05
0.000846638 7.96068e-06 4.72432e-07
7.96068e-06 -3.77539e-05 -3.03217e-06
4.72432e-07 -3.03217e-06 -3.49523e-05
0.000909363 8.89975e-06 -5.43189e-07
8.89975e-06 4.03739e-06 1.6743e-06
-5.43189e-07 1.6743e-06 -2.04765e-05
0.00111286 1.26862e-05 -1.85109e-07
1.26862e-05 0.000103045 -5.9298e-07
-1.85109e-07 -5.9298e-07 0.000105887
0.00211892 1.51116e-05 8.18144e-06
1.51116e-05 0.000625099 -3.80386e-06
8.18144e-06 -3.80386e-06 0.000648558
0.000851011 1.53774e-05 -1.2904e-06
1.53774e-05 -2.85718e-05 3.13787e-06
-1.2904e-06 3.13787e-06 -2.89844e-05
0.00217858 1.97237e-05 -4.36635e-06
1.97237e-05 0.000660582 1.09837e-06
-4.36635e-06 1.09837e-06 0.00068273
0.00220676 2.53129e-05 -1.4888e-05
2.53129e-05 0.000680078 3.83911e-06
-1.4888e-05 3.83911e-06 0.000700864
0.00150046 -7.41478e-06 -5.65662e-07
-7.41478e-06 5.00128e-06 -3.03577e-07
-5.65662e-07 -3.03577e-07 -7.61267e-05
0.00166884 4.76297e-06 -8.81511e-07
4.76297e-06 9.12967e-05 -7.60619e-07
-8.81511e-07 -7.60619e-07 4.41892e-07
0.00171413 -1.58624e-05 -3.49041e-07
-1.58624e-05 8.63244e-05 -1.42502e-06
-3.49041e-07 -1.42502e-06 2.27681e-06
0.00162624 -3.20374e-05 -1.49794e-06
-3.20374e-05 -6.22686e-06 -4.36976e-07
-1.49794e-06 -4.36976e-07 -4.19303e-05
0.00159492 4.50069e-06 -8.23367e-07
4.50069e-06 4.66267e-05 -1.20005e-07
-8.23367e-07 -1.20005e-07 -3.59167e-05
0.0016533 6.67934e-07 7.55425e-07
6.67934e-07 1.29693e-05 2.92501e-07
7.55425e-07 2.92501e-07 -6.68791e-05
0.00209898 2.40087e-05 2.29939e-06
2.40087e-05 0.000230748 1.92588e-06
2.29939e-06 1.92588e-06 0.000134766
0.00214708 -0.000103593 0.000141427
-0.000103593 0.00026597 3.12905e-05
0.000141427 3.12905e-05 3.18511e-05
0.00117357 -2.64318e-05 -8.27738e-06
-2.64318e-05 -0.000152178 1.36753e-06
-8.27738e-06 1.36753e-06 -0.000213968
0.000939928 7.0523e-06 -4.83591e-07
7.0523e-06 3.13755e-05 -8.95345e-07
-4.83591e-07 -8.95345e-07 -7.85496e-06
0.000942541 -1.46776e-05 4.3306e-07
-1.46776e-05 3.26756e-05 -1.88264e-08
4.3306e-07 -1.88264e-08 -7.1823e-06
0.00094654 -1.04115e-05 -1.31145e-07
-1.04115e-05 4.46888e-05 -2.92403e-07
-1.31145e-07 -2.92403e-07 -6.86542e-06
0.000954673 -1.96252e-05 -4.24686e-07
-1.96252e-05 5.2858e-05 -1.11149e-07
-4.24686e-07 -1.11149e-07 -7.58626e-07
0.00175473 2.33149e-05 -9.77764e-08
2.33149e-05 0.000123474 -6.81173e-07
-9.77764e-08 -6.81173e-07 3.9075e-05
0.00179292 -1.79934e-05 3.34604e-07
-1.79934e-05 0.000102118 1.19718e-06
3.34604e-07 1.19718e-06 2.41374e-05
0.00132268 -8.18796e-05 -4.53626e-06
-8.18796e-05 -0.000134342 1.39543e-06
-4.53626e-06 1.39543e-06 -0.000176687
0.000815548 -6.3316e-05 4.10434e-07
-6.3316e-05 -3.09877e-05 2.39305e-06
4.10434e-07 2.39305e-06 -0.000118582
0.00066452 -7.4872e-05 1.41553e-06
-7.4872e-05 -0.000101835 1.55463e-06
1.41553e-06 1.55463e-06 -0.000246864
0.00140083 -0.000105471 -2.13863e-06
-0.000105471 7.62091e-05 -1.17351e-06
-2.13863e-06 -1.17351e-06 -1.96522e-05
0.000838402 -6.76094e-05 -4.48134e-06
-6.76094e-05 -2.39794e-06 4.3254e-07
-4.48134e-06 4.3254e-07 -9.27548e-05
0.00107509 -3.80187e-05 -8.81118e-07
-3.80187e-05 0.000130846 -3.43632e-07
-8.81118e-07 -3.43632e-07 3.13676e-05
0.00107019 -4.23101e-05 -4.84797e-07
-4.23101e-05 0.000117631 1.22454e-06
-4.84797e-07 1.22454e-06 3.06136e-05
0.00093257 -3.96092e-07 -8.05785e-07
-3.96092e-07 2.92522e-05 1.14208e-06
-8.05785e-07 1.14208e-06 -1.59909e-05
0.00102173 -3.29102e-05 -9.504e-08
-3.29102e-05 8.64288e-05 4.30231e-07
-9.504e-08 4.30231e-07 1.0462e-05
0.00103068 1.17002e-05 -6.19107e-07
1.17002e-05 8.70564e-05 8.88164e-07
-6.19107e-07 8.88164e-07 2.55766e-05
0.000951644 -4.91918e-06 -6.36114e-08
-4.91918e-06 3.7655e-05 4.12388e-07
-6.36114e-08 4.12388e-07 -3.32487e-06
0.00078424 1.56759e-05 6.02201e-08
1.56759e-05 -3.58724e-05 1.34411e-06
6.02201e-08 1.34411e-06 -9.46426e-05
0.00167521 1.8463e-05 -6.71288e-07
1.8463e-05 6.80026e-05 1.0758e-06
-6.71288e-07 1.0758e-06 -1.40581e-05
0.000942719 1.11281e-05 2.57236e-07
1.11281e-05 4.39483e-05 -4.93331e-07
2.57236e-07 -4.93331e-07 -1.04087e-05
0.000913776 5.58475e-06 4.50153e-07
5.58475e-06 3.0346e-05 4.89828e-09
4.50153e-07 4.89828e-09 -3.0268e-05
0.000997794 2.73863e-05 -2.48789e-07
2.73863e-05 7.55399e-05 9.05589e-07
-2.48789e-07 9.05589e-07 8.6477e-06
0.00198573 -5.28514e-05 -3.25928e-06
-5.28514e-05 0.000133826 5.09257e-07
-3.25928e-06 5.09257e-07 8.32047e-05
0.0015001 -0.000108439 -7.58559e-07
-0.000108439 -2.65724e-05 -1.20638e-06
-7.58559e-07 -1.20638e-06 -9.37526e-05
0.00102072 -7.96749e-05 1.1331e-07
-7.96749e-05 9.37245e-05 -2.59474e-07
1.1331e-07 -2.59474e-07 -1.81787e-05
0.00157088 -0.000114794 5.62983e-08
-0.000114794 0.000279678 -5.74076e-07
5.62983e-08 -5.74076e-07 0.000144299
0.0010618 -1.88358e-05 -2.89936e-07
-1.88358e-05 0.000108769 8.85959e-08
-2.89936e-07 8.85959e-08 3.65694e-05
0.00100671 -2.3962e-05 -4.93043e-08
-2.3962e-05 8.10379e-05 7.31287e-07
-4.93043e-08 7.31287e-07 2.11991e-07
0.000965501 -5.66715e-05 2.13962e-06
-5.66715e-05 9.31173e-05 -5.42147e-07
2.13962e-06 -5.42147e-07 -2.21823e-05
0.00112115 -4.29643e-05 1.02841e-07
-4.29643e-05 0.000153857 -5.78979e-07
1.02841e-07 -5.78979e-07 5.66793e-05
0.00141532 1.01845e-05 2.46169e-06
1.01845e-05 -0.000130824 3.55618e-07
2.46169e-06 3.55618e-07 -0.00020338
0.00250795 -0.000121946 1.14022e-05
-0.000121946 0.000312576 -5.14002e-06
1.14022e-05 -5.14002e-06 0.000257372
0.00202706 -0.000131188 3.23362e-06
-0.000131188 0.000393847 -2.82872e-06
3.23362e-06 -2.82872e-06 0.000267006
0.00112883 -9.48826e-05 -5.03668e-07
-9.48826e-05 0.000155973 -7.7534e-07
-5.03668e-07 -7.7534e-07 3.03068e-05
0.000911508 1.76479e-05 -6.44989e-07
1.76479e-05 3.39099e-05 -4.51782e-07
-6.44989e-07 -4.51782e-07 -3.70195e-05
0.000940623 -3.93317e-05 9.70501e-07
-3.93317e-05 5.13239e-05 -1.21035e-06
9.70501e-07 -1.21035e-06 -2.09766e-05
0.00100585 -4.56047e-05 5.33003e-07
-4.56047e-05 8.42697e-05 -7.79103e-07
5.33003e-07 -7.79103e-07 -2.9613e-07
0.00108085 -2.23138e-05 -7.86996e-07
-2.23138e-05 0.000147477 -1.85402e-09
-7.86996e-07 -1.85402e-09 2.35658e-05
0.00026794 -1.15914e-05 -1.14713e-05
-1.15914e-05 -0.000620239 -9.15524e-07
-1.14713e-05 -9.15524e-07 -0.00112846
0.00107528 4.57732e-05 -1.93364e-07
4.57732e-05 0.000118097 -4.92686e-07
-1.93364e-07 -4.92686e-07 3.19355e-05
0.000962113 6.53837e-05 7.20435e-07
6.53837e-05 5.77638e-05 3.07137e-07
7.20435e-07 3.07137e-07 -4.01608e-05
0.00109213 3.93306e-05 -1.77496e-06
3.93306e-05 -0.00033442 -1.07739e-06
-1.77496e-06 -1.07739e-06 -0.000391246
0.00161991 0.000104936 -4.17071e-06
0.000104936 -1.20929e-05 7.81777e-07
-4.17071e-06 7.81777e-07 -7.69255e-05
0.00144214 0.000106961 -2.67215e-06
0.000106961 0.000218048 -9.26896e-08
-2.67215e-06 -9.26896e-08 6.89695e-05
0.000880994 6.82352e-05 1.199e-06
6.82352e-05 2.59601e-05 2.95609e-07
1.199e-06 2.95609e-07 -9.6299e-05
0.0023254 1.16466e-05 -1.09641e-05
1.16466e-05 0.000271806 6.29533e-07
-1.09641e-05 6.29533e-07 0.000246515
0.00109016 5.61034e-05 9.03557e-08
5.61034e-05 0.000122454 -2.39959e-07
9.03557e-08 -2.39959e-07 2.98995e-05
0.00181712 0.000107075 -1.27798e-06
0.000107075 -2.73421e-06 -5.05861e-07
-1.27798e-06 -5.05861e-07 -4.17495e-05
0.00108914 7.30042e-05 6.70793e-07
7.30042e-05 0.000128335 -3.68694e-08
6.70793e-07 -3.68694e-08 2.53921e-05
0.00105465 8.31788e-05 -1.58511e-07
8.31788e-05 0.000128107 -2.17658e-07
-1.58511e-07 -2.17658e-07 -1.87164e-05
0.000795627 0.000115534 -2.92507e-06
0.000115534 -0.000227752 4.15437e-08
-2.92507e-06 4.15437e-08 -0.000348137
0.00177021 -0.000137522 -1.54074e-05
-0.000137522 0.000106489 -5.16051e-06
-1.54074e-05 -5.16051e-06 -0.000405166
0.00278269 -0.000121903 6.16061e-06
-0.000121903 0.000183233 -7.66631e-06
6.16061e-06 -7.66631e-06 -0.000153397
0.000983702 0.000116322 2.99256e-06
0.000116322 -0.000301535 -5.04805e-08
2.99256e-06 -5.04805e-08 -0.000218921
-0.000440044 -0.000197836 -2.83133e-06
-0.000197836 -0.000375786 -2.83522e-06
-2.83133e-06 -2.83522e-06 -0.000424664
0.000421575 -0.00027501 2.46324e-06
-0.00027501 -0.000642311 7.58049e-07
2.46324e-06 7.58049e-07 -2.9721e-05
0.00111224 6.00583e-05 4.55985e-07
6.00583e-05 0.000138349 -4.46244e-07
4.55985e-07 -4.46244e-07 4.65634e-05
-0.000244229 3.32139e-05 -9.60313e-05
3.32139e-05 -0.000317456 -1.42983e-05
-9.60313e-05 -1.42983e-05 -0.0005311
0.00189567 -0.000151318 -1.20866e-05
-0.000151318 0.00062747 -1.05461e-05
-1.20866e-05 -1.05461e-05 0.000928591
0.00121701 0.000128313 2.84251e-06
0.000128313 -0.000220526 1.80936e-06
2.84251e-06 1.80936e-06 -0.000215381
0.000830605 3.25586e-05 -4.10253e-07
3.25586e-05 8.11678e-06 -5.30477e-07
-4.10253e-07 -5.30477e-07 -0.00010517
0.00160718 7.59053e-05 -4.4157e-06
7.59053e-05 0.000442783 2.05853e-06
-4.4157e-06 2.05853e-06 0.00025706
0.00136355 0.000140946 2.45878e-06
0.000140946 8.35587e-05 9.59165e-06
2.45878e-06 9.59165e-06 4.90187e-05
0.0057167 -0.000253271 -6.63802e-05
-0.000253271 0.0017368 -1.93478e-05
-6.63802e-05 -1.93478e-05 0.000935281
0.0019582 -3.64756e-05 2.41818e-05
-3.64756e-05 -0.000318512 2.3541e-05
2.41818e-05 2.3541e-05 -0.000707373
-0.000156552 -0.000277073 -5.3479e-05
-0.000277073 -0.000196703 -2.46861e-05
-5.3479e-05 -2.46861e-05 -8.79884e-05
-0.000210609 -0.00013019 -9.24307e-06
-0.00013019 -0.00123629 3.64361e-07
-9.24307e-06 3.64361e-07 -0.000910417
0.00103716 3.45386e-05 -2.99616e-07
3.45386e-05 9.20913e-05 -5.64503e-07
-2.99616e-07 -5.64503e-07 6.88517e-06
0.00108629 4.55416e-05 -4.4224e-07
4.55416e-05 0.00010861 1.25857e-07
-4.4224e-07 1.25857e-07 2.2174e-05
0.00122078 6.40995e-05 -5.99476e-07
6.40995e-05 0.000170366 -3.50119e-07
-5.99476e-07 -3.50119e-07 8.40302e-05
0.000935262 2.89581e-06 3.4557e-08
2.89581e-06 2.88772e-05 -4.18473e-07
3.4557e-08 -4.18473e-07 -1.58382e-05
0.000985799 -1.22059e-05 1.3637e-07
-1.22059e-05 6.16091e-05 -5.73737e-07
1.3637e-07 -5.73737e-07 4.84735e-06
0.000939417 7.23815e-06 -1.00043e-07
7.23815e-06 3.70677e-05 -8.40593e-07
-1.00043e-07 -8.40593e-07 -2.84609e-05
0.00101263 1.65829e-05 1.84476e-07
1.65829e-05 7.90648e-05 -4.26201e-07
1.84476e-07 -4.26201e-07 6.73383e-06
0.0010026 2.17887e-05 -5.3314e-08
2.17887e-05 7.08566e-05 -3.9383e-07
-5.3314e-08 -3.9383e-07 -1.1037e-05
0.000787929 -5.58343e-06 2.79643e-07
-5.58343e-06 -4.85729e-05 3.77856e-07
2.79643e-07 3.77856e-07 -9.30795e-05
0.000967513 2.62527e-05 -1.78724e-07
2.62527e-05 5.80607e-05 -4.6169e-07
-1.78724e-07 -4.6169e-07 -1.24553e-05
0.00101136 -4.06858e-06 -1.82489e-07
-4.06858e-06 7.236e-05 4.06648e-07
-1.82489e-07 4.06648e-07 7.25626e-06
0.000926098 1.44291e-05 2.63252e-07
1.44291e-05 2.93914e-05 -2.20059e-07
2.63252e-07 -2.20059e-07 -2.74763e-05
0.00101789 4.09579e-05 -1.34119e-08
4.09579e-05 7.96447e-05 1.35703e-07
-1.34119e-08 1.35703e-07 2.296e-09
0.00096163 2.28656e-05 9.18778e-08
2.28656e-05 4.6817e-05 3.60393e-07
9.18778e-08 3.60393e-07 -2.61773e-05
0.00114249 5.13813e-05 -1.78282e-07
5.13813e-05 0.000147308 1.62702e-07
-1.78282e-07 1.62702e-07 6.23046e-05
0.00100256 -4.1431e-05 -3.6827e-07
-4.1431e-05 6.66346e-05 2.05031e-07
-3.6827e-07 2.05031e-07 3.09623e-06
0.00101115 -2.72586e-05 -3.71912e-07
-2.72586e-05 7.16161e-05 -6.11673e-08
-3.71912e-07 -6.11673e-08 1.628e-05
0.00101126 -1.64429e-07 -2.07172e-07
-1.64429e-07 7.219e-05 -2.14468e-09
-2.07172e-07 -2.14468e-09 1.75746e-05
0.00100846 3.00464e-05 -2.32336e-07
3.00464e-05 7.16976e-05 -3.93112e-07
-2.32336e-07 -3.93112e-07 8.00962e-06
0.000997198 2.13334e-05 1.3363e-07
2.13334e-05 6.66638e-05 5.25468e-07
1.3363e-07 5.25468e-07 2.42789e-06
0.000987001 1.88302e-05 4.88794e-08
1.88302e-05 6.13435e-05 6.50166e-07
4.88794e-08 6.50166e-07 -3.31805e-06
0.00107175 2.79403e-05 -5.02682e-08
2.79403e-05 0.000100663 -1.62642e-07
-5.02682e-08 -1.62642e-07 3.14517e-05
0.000953167 -1.09009e-05 2.11908e-07
-1.09009e-05 5.5547e-05 1.21042e-06
2.11908e-07 1.21042e-06 -1.83481e-05
0.000951256 4.82906e-06 -1.15945e-07
4.82906e-06 4.28754e-05 6.76217e-07
-1.15945e-07 6.76217e-07 -1.43802e-05
0.000945715 -1.16389e-06 3.91116e-08
-1.16389e-06 4.16708e-05 -4.10959e-08
3.91116e-08 -4.10959e-08 -1.44658e-05
0.000934598 -1.64002e-06 -7.35951e-07
-1.64002e-06 2.80966e-05 7.07682e-07
-7.35951e-07 7.07682e-07 -1.51634e-05
0.000859508 1.46476e-05 8.80924e-08
1.46476e-05 -5.5894e-06 -7.51142e-07
8.80924e-08 -7.51142e-07 -6.02839e-05
0.000869463 -6.35303e-06 1.6249e-07
-6.35303e-06 -6.58304e-06 2.47661e-09
1.6249e-07 2.47661e-09 -4.97773e-05
0.000906208 9.9444e-06 -3.38402e-07
9.9444e-06 3.63737e-06 1.59305e-06
-3.38402e-07 1.59305e-06 -2.16701e-05
0.000803093 4.22669e-06 2.59893e-07
4.22669e-06 -4.03348e-05 -3.41578e-07
2.59893e-07 -3.41578e-07 -8.47273e-05
0.000902294 3.80616e-06 -1.78747e-07
3.80616e-06 1.21764e-06 -1.14845e-08
-1.78747e-07 -1.14845e-08 -2.37199e-05
0.00142017 8.02156e-06 -2.50533e-06
8.02156e-06 0.000260497 4.08323e-06
-2.50533e-06 4.08323e-06 0.000264477
0.000894216 -5.46263e-06 5.80977e-07
-5.46263e-06 -2.7124e-06 -1.53561e-06
5.80977e-07 -1.53561e-06 -2.762e-05
0.00113777 4.14097e-06 -9.72931e-07
4.14097e-06 0.000112489 5.97991e-07
-9.72931e-07 5.97991e-07 0.000115325
0.00105081 2.34479e-06 -2.12497e-06
2.34479e-06 6.60211e-05 3.75583e-06
-2.12497e-06 3.75583e-06 8.44279e-05
0.000856112 2.83539e-07 2.41448e-08
2.83539e-07 -3.43668e-05 -2.92314e-06
2.41448e-08 -2.92314e-06 -3.27737e-05
0.00214538 -6.56578e-07 1.40542e-06
-6.56578e-07 0.000634254 4.3256e-10
1.40542e-06 4.3256e-10 0.000658177
0.00104569 -3.27212e-06 -1.16268e-06
-3.27212e-06 6.37616e-05 -3.75956e-06
-1.16268e-06 -3.75956e-06 8.22085e-05
0.000934612 2.86286e-05 1.89044e-07
2.86286e-05 3.01829e-05 -3.4758e-07
1.89044e-07 -3.4758e-07 -1.0299e-05
0.000917568 2.58188e-07 4.59544e-08
2.58188e-07 5.56729e-06 -1.66587e-06
4.59544e-08 -1.66587e-06 -1.60146e-05
0.000915056 2.71531e-06 -5.28594e-08
2.71531e-06 4.33461e-06 -5.32985e-09
-5.28594e-08 -5.32985e-09 -1.75349e-05
0.000855092 4.05041e-06 1.75179e-07
4.05041e-06 -3.53132e-05 -3.02405e-06
1.75179e-07 -3.02405e-06 -3.16179e-05
0.000909186 5.5213e-06 -3.38502e-07
5.5213e-06 2.21009e-06 1.61702e-06
-3.38502e-07 1.61702e-06 -2.06601e-05
0.000849381 8.05086e-06 6.301e-08
8.05086e-06 -3.66496e-05 -6.06884e-07
6.301e-08 -6.06884e-07 -3.37716e-05
0.00208614 1.00098e-05 5.41686e-06
1.00098e-05 0.000605481 -3.81936e-06
5.41686e-06 -3.81936e-06 0.000629763
0.00138016 1.44899e-05 -1.27063e-06
1.44899e-05 0.000242056 1.89656e-06
-1.27063e-06 1.89656e-06 0.000246025
0.00159602 1.3276e-05 2.67758e-07
1.3276e-05 0.00035456 1.1825e-06
2.67758e-07 1.1825e-06 0.00037498
0.00108788 1.51619e-05 -1.15705e-05
1.51619e-05 9.49889e-05 6.24887e-06
-1.15705e-05 6.24887e-06 0.000111484
0.000715097 -1.83239e-05 -3.61378e-07
-1.83239e-05 -0.000442607 6.76975e-07
-3.61378e-07 6.76975e-07 -0.000475256
0.00165285 1.57158e-06 -1.43056e-06
1.57158e-06 6.89179e-05 -2.97512e-07
-1.43056e-06 -2.97512e-07 -1.44866e-05
0.00157316 5.22536e-06 -4.73729e-06
5.22536e-06 -9.70479e-06 -3.75194e-06
-4.73729e-06 -3.75194e-06 -9.23435e-05
0.000974281 -7.2907e-05 3.39863e-05
-7.2907e-05 -0.000109962 5.98413e-06
3.39863e-05 5.98413e-06 -0.000314781
0.00147457 -2.76235e-05 -3.24603e-06
-2.76235e-05 2.13534e-05 -3.23681e-07
-3.24603e-06 -3.23681e-07 -4.32222e-05
0.00181948 2.61379e-05 -2.12616e-06
2.61379e-05 8.73525e-05 -1.95571e-06
-2.12616e-06 -1.95571e-06 -8.39136e-06
0.00140682 4.44042e-05 -1.97816e-06
4.44042e-05 2.30603e-05 1.22895e-06
-1.97816e-06 1.22895e-06 -5.2507e-05
0.0011809 -4.87561e-05 0.000108496
-4.87561e-05 -4.328e-05 6.11176e-06
0.000108496 6.11176e-06 -0.000301366
0.00538923 0.00010327 -2.35763e-05
0.00010327 0.00159341 -2.6023e-06
-2.35763e-05 -2.6023e-06 0.000905139
0.00320508 0.000307465 -3.7135e-05
0.000307465 0.00131885 1.54727e-05
-3.7135e-05 1.54727e-05 0.00137312
0.00125188 0.000248603 -1.15911e-05
0.000248603 2.76148e-05 5.52278e-06
-1.15911e-05 5.52278e-06 0.000570182
0.000767537 -1.68636e-05 9.77841e-07
-1.68636e-05 -4.42291e-05 -8.53135e-07
9.77841e-07 -8.53135e-07 -9.75582e-05
0.000944346 -8.77343e-06 3.45258e-08
-8.77343e-06 3.39383e-05 -6.87556e-09
3.45258e-08 -6.87556e-09 -5.5069e-06
0.000947011 -3.17973e-05 -7.32837e-07
-3.17973e-05 3.60252e-05 8.80527e-07
-7.32837e-07 8.80527e-07 -4.6698e-06
0.000888626 2.52475e-06 -2.70651e-07
2.52475e-06 1.61738e-05 1.34788e-08
-2.70651e-07 1.34788e-08 -3.64118e-05
0.00100716 3.80963e-05 9.79049e-08
3.80963e-05 8.39469e-05 4.93684e-07
9.79049e-08 4.93684e-07 2.08235e-05
0.00100591 4.42707e-05 1.79998e-07
4.42707e-05 7.96264e-05 3.92064e-07
1.79998e-07 3.92064e-07 1.90024e-05
0.000989696 -5.05792e-06 5.49044e-07
-5.05792e-06 7.05119e-05 -1.19948e-06
5.49044e-07 -1.19948e-06 1.53848e-05
0.000894229 -3.04607e-05 -4.21739e-07
-3.04607e-05 2.05099e-05 4.71549e-07
-4.21739e-07 4.71549e-07 -3.26886e-05
0.00176097 1.76124e-05 -1.88587e-06
1.76124e-05 0.000115832 2.9792e-07
-1.88587e-06 2.9792e-07 3.48914e-05
0.00157094 -5.13683e-05 -2.8388e-06
-5.13683e-05 -7.34507e-05 1.58669e-06
-2.8388e-06 1.58669e-06 -0.000127686
0.000895961 -9.37761e-05 -8.66989e-06
-9.37761e-05 -0.000317055 1.00563e-06
-8.66989e-06 1.00563e-06 -0.000381995
0.00100792 -7.9517e-05 4.08577e-07
-7.9517e-05 8.03494e-05 1.31313e-06
4.08577e-07 1.31313e-06 -2.9897e-05
0.00159904 -0.000116207 -1.51944e-07
-0.000116207 0.000299102 1.70557e-06
-1.51944e-07 1.70557e-06 0.000158155
0.000985858 -5.75253e-05 -3.481e-07
-5.75253e-05 9.80721e-05 -3.29525e-07
-3.481e-07 -3.29525e-07 -1.28617e-05
0.00122645 -5.44544e-05 2.01953e-07
-5.44544e-05 0.000207883 3.2426e-08
2.01953e-07 3.2426e-08 0.000107905
0.000943225 -2.823e-05 -3.81666e-07
-2.823e-05 4.94731e-05 7.50244e-07
-3.81666e-07 7.50244e-07 -3.15321e-05
0.000954973 -3.07979e-06 7.38346e-08
-3.07979e-06 5.13046e-05 9.14591e-07
7.38346e-08 9.14591e-07 -8.26699e-06
0.00111207 -9.60567e-06 -5.33558e-07
-9.60567e-06 0.000133127 6.49299e-07
-5.33558e-07 6.49299e-07 6.22933e-05
0.00114019 3.69049e-06 8.08982e-09
3.69049e-06 0.000143921 1.48585e-07
8.08982e-09 1.48585e-07 9.15011e-05
0.000903113 4.57601e-05 8.31779e-07
4.57601e-05 2.58434e-05 1.79909e-06
8.31779e-07 1.79909e-06 -4.06034e-05
0.0017342 1.78228e-05 2.14488e-06
1.78228e-05 2.23473e-05 -2.74985e-06
2.14488e-06 -2.74985e-06 -4.98635e-05
0.000935854 1.86521e-05 -3.04403e-07
1.86521e-05 4.69409e-05 3.35106e-07
-3.04403e-07 3.35106e-07 -2.309e-05
0.0009565 -3.266e-05 -8.23415e-08
-3.266e-05 5.82607e-05 -4.16025e-07
-8.23415e-08 -4.16025e-07 -1.33942e-05
0.00220558 -0.00011737 -4.08346e-06
-0.00011737 0.000167408 -8.53509e-07
-4.08346e-06 -8.53509e-07 0.000116502
0.00082618 -9.98287e-05 1.23769e-06
-9.98287e-05 -0.000190008 2.0526e-06
1.23769e-06 2.0526e-06 -0.0003111
0.00120654 -9.9061e-05 1.06222e-06
-9.9061e-05 0.000192191 -7.13367e-07
1.06222e-06 -7.13367e-07 6.10158e-05
0.0010236 -4.12906e-05 9.26932e-08
-4.12906e-05 9.13525e-05 -1.43152e-07
9.26932e-08 -1.43152e-07 5.91495e-06
0.00109561 -3.08015e-05 -2.95086e-08
-3.08015e-05 0.000153856 2.89288e-07
-2.95086e-08 2.89288e-07 2.98565e-05
0.00262893 -5.67655e-05 -4.25572e-06
-5.67655e-05 0.000394828 9.06119e-06
-4.25572e-06 9.06119e-06 0.000363196
0.00281359 -0.000190242 1.00325e-05
-0.000190242 0.00063293 -4.37622e-06
1.00325e-05 -4.37622e-06 0.000506486
0.00034283 -8.96782e-05 -1.63572e-06
-8.96782e-05 -0.000267148 -2.07931e-06
-1.63572e-06 -2.07931e-06 -0.000401225
0.00119487 -6.92775e-05 -2.46427e-07
-6.92775e-05 0.000215366 4.69033e-07
-2.46427e-07 4.69033e-07 5.95036e-05
0.000849823 -4.21669e-05 4.25651e-07
-4.21669e-05 5.50985e-06 -2.49453e-07
4.25651e-07 -2.49453e-07 -7.10542e-05
0.00101517 -3.66052e-05 1.19895e-06
-3.66052e-05 8.53101e-05 -9.40613e-07
1.19895e-06 -9.40613e-07 2.95044e-06
0.00119061 -1.98729e-05 -3.06681e-07
-1.98729e-05 0.000179428 -3.59202e-07
-3.06681e-07 -3.59202e-07 7.84884e-05
-0.00111485 -2.05544e-05 -7.60728e-05
-2.05544e-05 -0.000680356 -2.65398e-08
-7.60728e-05 -2.65398e-08 -0.000690394
0.0059419 -2.04772e-05 -2.33088e-05
-2.04772e-05 0.00201712 -2.33369e-06
-2.33088e-05 -2.33369e-06 0.00149786
0.00108996 5.78474e-05 4.79751e-07
5.78474e-05 0.000125227 9.17315e-08
4.79751e-07 9.17315e-08 3.28054e-05
0.000878758 6.53192e-05 1.30194e-06
6.53192e-05 2.62803e-05 -9.51197e-07
1.30194e-06 -9.51197e-07 -7.63699e-05
0.00172424 0.000106805 -1.01817e-05
0.000106805 -5.7029e-05 2.98394e-06
-1.01817e-05 2.98394e-06 -9.31374e-05
0.00136155 0.000129865 -3.43729e-06
0.000129865 3.16839e-05 -8.21715e-07
-3.43729e-06 -8.21715e-07 -8.23389e-05
0.00106514 8.40718e-05 1.43674e-06
8.40718e-05 0.000133804 -1.82961e-06
1.43674e-06 -1.82961e-06 -1.06133e-05
0.00502203 -4.15612e-05 2.69081e-05
-4.15612e-05 0.00145793 -7.54106e-06
2.69081e-05 -7.54106e-06 0.000808854
0.00238164 -0.000138795 -5.81387e-05
-0.000138795 5.66463e-05 -1.70315e-05
-5.81387e-05 -1.70315e-05 -0.000179592
0.00102201 0.00010224 -7.82784e-06
0.00010224 -0.000285484 -9.55498e-06
-7.82784e-06 -9.55498e-06 -0.000208775
0.00240563 -0.000267197 3.0737e-05
-0.000267197 0.00108069 1.6658e-05
3.0737e-05 1.6658e-05 0.00106881
-0.00075537 -0.000295092 1.48565e-05
-0.000295092 -0.00125637 7.68774e-06
1.48565e-05 7.68774e-06 -0.000633996
0.00105282 6.3124e-05 8.15522e-08
6.3124e-05 0.000106175 -2.72757e-07
8.15522e-08 -2.72757e-07 1.43035e-05
-0.00131295 -7.66191e-05 -1.02148e-05
-7.66191e-05 -0.000744954 -9.72362e-07
-1.02148e-05 -9.72362e-07 -0.000694203
0.000762553 -0.000141176 -3.48916e-06
-0.000141176 7.68291e-05 -5.75909e-08
-3.48916e-06 -5.75909e-08 0.000279636
0.00176805 0.000135888 4.07582e-07
0.000135888 5.26121e-05 4.2229e-07
4.07582e-07 4.2229e-07 4.66928e-05
0.00107095 4.9475e-05 -3.21062e-07
4.9475e-05 0.000135808 -1.1203e-06
-3.21062e-07 -1.1203e-06 2.62034e-05
0.00117098 7.88929e-05 5.36759e-07
7.88929e-05 0.000225155 1.77907e-07
5.36759e-07 1.77907e-07 3.93063e-05
0.00100778 9.85483e-05 -2.19585e-07
9.85483e-05 -0.000100759 4.21998e-07
-2.19585e-07 4.21998e-07 -0.000110422
0.00469513 -0.000165885 6.14525e-06
-0.000165885 0.00116322 5.19746e-06
6.14525e-06 5.19746e-06 0.00029618
0.00238656 2.26483e-06 -1.45791e-05
2.26483e-06 6.44272e-05 -1.35521e-05
-1.45791e-05 -1.35521e-05 -0.000105036
0.00315045 -0.000379284 6.10403e-06
-0.000379284 0.00106105 -1.01766e-06
6.10403e-06 -1.01766e-06 0.00106636
0.00013635 -0.000161074 1.97851e-07
-0.000161074 -0.0011366 6.75203e-06
1.97851e-07 6.75203e-06 -0.000695218
0.00107759 2.67964e-05 -2.10227e-06
2.67964e-05 9.11708e-05 -1.23845e-06
-2.10227e-06 -1.23845e-06 3.4322e-06
-2.74927e-05 -3.26972e-05 -9.7524e-06
-3.26972e-05 -0.000256034 -2.39175e-06
-9.7524e-06 -2.39175e-06 -0.000300387
0.00116697 -1.06127e-05 -3.14575e-06
-1.06127e-05 8.7252e-05 -1.14589e-05
-3.14575e-06 -1.14589e-05 4.48744e-05
-8.77386e-05 0.000115819 1.27634e-06
0.000115819 -0.000496389 -4.30156e-06
1.27634e-06 -4.30156e-06 -0.000652633
0.00194709 6.06672e-05 -7.58406e-06
6.06672e-05 0.000641851 3.98444e-07
-7.58406e-06 3.98444e-07 0.000501159
0.00493123 -5.19953e-05 -1.48213e-05
-5.19953e-05 0.00222777 -8.47049e-07
-1.48213e-05 -8.47049e-07 0.00218309
0.000816793 0.000177673 -5.39574e-05
0.000177673 -0.000344891 1.0418e-05
-5.39574e-05 1.0418e-05 -0.000584438
0.00122898 -0.000253966 9.85025e-06
-0.000253966 -0.000275581 9.9816e-06
9.85025e-06 9.9816e-06 -0.00127416
0.00442897 -0.000398028 -4.33859e-05
-0.000398028 0.00107576 -1.66049e-05
-4.33859e-05 -1.66049e-05 0.00117447
0.000643561 -5.25606e-05 1.06049e-06
-5.25606e-05 -0.000574541 -4.05569e-06
1.06049e-06 -4.05569e-06 -0.000452445
0.00108245 5.10239e-05 1.94085e-07
5.10239e-05 0.000109099 8.02636e-07
1.94085e-07 8.02636e-07 2.20354e-05
0.00110497 5.91249e-05 9.51089e-07
5.91249e-05 0.000111581 5.83024e-07
9.51089e-07 5.83024e-07 2.46896e-05
0.0006559 5.38608e-05 1.6011e-06
5.38608e-05 -9.15258e-05 -3.51483e-07
1.6011e-06 -3.51483e-07 -0.000183348
0.00080391 1.30077e-05 1.92286e-07
1.30077e-05 -4.0197e-05 -4.04583e-07
1.92286e-07 -4.04583e-07 -8.50652e-05
0.00100014 2.32077e-05 -3.54137e-08
2.32077e-05 6.82275e-05 -5.06579e-07
-3.54137e-08 -5.06579e-07 1.1263e-05
0.00116124 -2.51506e-05 2.72453e-07
-2.51506e-05 0.000150196 -1.28376e-08
2.72453e-07 -1.28376e-08 8.51875e-05
0.000941892 2.04214e-05 -3.28668e-07
2.04214e-05 4.49937e-05 -6.04363e-07
-3.28668e-07 -6.04363e-07 -2.49517e-05
0.000955145 3.8644e-05 -1.6291e-07
3.8644e-05 4.65998e-05 -1.97362e-08
-1.6291e-07 -1.97362e-08 -3.3547e-05
0.000994696 7.32438e-06 3.77509e-07
7.32438e-06 6.45523e-05 -3.62983e-07
3.77509e-07 -3.62983e-07 8.54168e-06
0.00100141 1.92214e-05 -1.35831e-07
1.92214e-05 6.9351e-05 -1.58005e-07
-1.35831e-07 -1.58005e-07 -3.18923e-06
0.00097941 -2.29296e-05 8.34881e-08
-2.29296e-05 5.54558e-05 -5.62378e-08
8.34881e-08 -5.62378e-08 -8.24887e-06
0.00108131 4.28112e-05 2.48594e-08
4.28112e-05 0.000118005 4.45433e-07
2.48594e-08 4.45433e-07 3.24576e-05
0.00131994 -6.96991e-06 -1.47481e-07
-6.96991e-06 0.00023592 -4.33787e-07
-1.47481e-07 -4.33787e-07 0.000148037
0.00105923 9.76037e-06 -4.24174e-07
9.76037e-06 9.69681e-05 6.83405e-07
-4.24174e-07 6.83405e-07 2.20371e-05
0.000998447 7.89541e-06 1.50552e-07
7.89541e-06 6.72922e-05 2.42173e-07
1.50552e-07 2.42173e-07 3.0366e-06
0.00100781 -1.48753e-05 1.1782e-07
-1.48753e-05 7.18331e-05 -3.67477e-07
1.1782e-07 -3.67477e-07 1.64494e-05
0.000904523 6.92446e-06 -1.60007e-07
6.92446e-06 1.61576e-05 -1.01535e-06
-1.60007e-07 -1.01535e-06 -4.71368e-05
0.000991726 5.55022e-06 2.86083e-07
5.55022e-06 6.35522e-05 2.52796e-08
2.86083e-07 2.52796e-08 -3.82918e-07
0.000974971 1.69318e-05 4.30193e-08
1.69318e-05 5.55865e-05 3.8145e-08
4.30193e-08 3.8145e-08 -9.07273e-06
0.00103364 1.63028e-05 -3.72105e-07
1.63028e-05 7.86119e-05 -7.35035e-07
-3.72105e-07 -7.35035e-07 9.88271e-06
0.000947724 5.63408e-06 3.31319e-08
5.63408e-06 4.51328e-05 1.15143e-06
3.31319e-08 1.15143e-06 -2.25128e-05
0.00105333 2.221e-05 2.20745e-07
2.221e-05 9.09083e-05 5.21585e-08
2.20745e-07 5.21585e-08 2.09713e-05
0.000926888 7.01818e-08 1.7814e-08
7.01818e-08 2.18044e-05 3.30334e-07
1.7814e-08 3.30334e-07 -5.04788e-05
0.000982916 -2.48943e-05 6.01329e-07
-2.48943e-05 6.80972e-05 -2.39703e-07
6.01329e-07 -2.39703e-07 -1.5267e-05
0.000805785 -4.7334e-05 2.30819e-07
-4.7334e-05 4.42752e-06 -6.37164e-09
2.30819e-07 -6.37164e-09 -8.73098e-05
0.000854195 -2.35186e-05 -5.66817e-07
-2.35186e-05 1.14177e-05 -2.45391e-07
-5.66817e-07 -2.45391e-07 -6.8305e-05
0.00097699 -1.12378e-05 3.52314e-08
-1.12378e-05 6.79502e-05 3.16468e-07
3.52314e-08 3.16468e-07 -6.03144e-06
0.00096472 -6.09428e-06 -1.39637e-07
-6.09428e-06 5.24344e-05 1.29376e-06
-1.39637e-07 1.29376e-06 -9.08588e-06
0.000963468 -1.03413e-06 -7.51523e-08
-1.03413e-06 4.97577e-05 -7.35877e-08
-7.51523e-08 -7.35877e-08 -7.79793e-06
0.000937275 1.2376e-05 -2.93947e-07
1.2376e-05 2.98493e-05 8.21832e-07
-2.93947e-07 8.21832e-07 -1.44678e-05
0.000950335 6.36977e-06 3.2678e-07
6.36977e-06 4.27944e-05 -4.72993e-07
3.2678e-07 -4.72993e-07 -1.24845e-05
0.000935259 3.8622e-06 5.40903e-08
3.8622e-06 2.80085e-05 1.32925e-08
5.40903e-08 1.32925e-08 -1.50771e-05
0.000905674 1.18504e-05 -6.2853e-07
1.18504e-05 5.3552e-06 1.57608e-06
-6.2853e-07 1.57608e-06 -2.08823e-05
0.000791753 1.44384e-05 1.5187e-07
1.44384e-05 -4.70626e-05 -7.01935e-07
1.5187e-07 -7.01935e-07 -9.01702e-05
0.000907375 5.17025e-06 -8.59779e-08
5.17025e-06 4.13699e-06 -1.25695e-08
-8.59779e-08 -1.25695e-08 -2.11503e-05
0.00141636 1.2089e-05 -3.90802e-06
1.2089e-05 0.000260752 4.0882e-06
-3.90802e-06 4.0882e-06 0.000264372
0.000900797 -2.43202e-06 6.42793e-07
-2.43202e-06 3.3408e-07 -1.5269e-06
6.42793e-07 -1.5269e-06 -2.4556e-05
0.00113491 7.99904e-06 -1.5286e-06
7.99904e-06 0.000112384 5.8492e-07
-1.5286e-06 5.8492e-07 0.000115059
0.00100249 7.41084e-06 -7.42402e-07
7.41084e-06 4.23848e-05 1.46336e-06
-7.42402e-07 1.46336e-06 6.07888e-05
0.000853352 3.8226e-06 3.65459e-07
3.8226e-06 -3.5432e-05 -2.91791e-06
3.65459e-07 -2.91791e-06 -3.389e-05
0.00214525 4.39513e-06 1.34667e-06
4.39513e-06 0.000634519 1.01667e-08
1.34667e-06 1.01667e-08 0.00065838
0.00214279 -3.69074e-07 1.0703e-06
-3.69074e-07 0.000632893 -3.85592e-06
1.0703e-06 -3.85592e-06 0.000656828
0.00117704 1.95031e-05 -6.95323e-07
1.95031e-05 0.000153767 -6.33375e-07
-6.95323e-07 -6.33375e-07 0.000114088
0.000916203 -2.15484e-06 -1.43844e-07
-2.15484e-06 5.54375e-06 -1.60747e-06
-1.43844e-07 -1.60747e-06 -1.65996e-05
0.00093703 4.14266e-06 5.56378e-07
4.14266e-06 3.09923e-05 4.75364e-07
5.56378e-07 4.75364e-07 -9.07337e-06
0.000861492 7.53613e-08 -2.46205e-08
7.53613e-08 -3.25264e-05 -3.02532e-06
-2.46205e-08 -3.02532e-06 -2.85846e-05
0.00091657 -1.99845e-07 1.37671e-08
-1.99845e-07 5.04037e-06 -4.76867e-09
1.37671e-08 -4.76867e-09 -1.65394e-05
0.000911466 2.22278e-06 -2.82809e-07
2.22278e-06 2.36187e-06 1.64491e-06
-2.82809e-07 1.64491e-06 -1.94794e-05
0.000858694 4.17102e-06 -1.17771e-07
4.17102e-06 -3.34551e-05 4.12255e-09
-1.17771e-07 4.12255e-09 -2.9791e-05
0.00206409 4.97574e-06 2.3384e-06
4.97574e-06 0.000592478 -3.83208e-06
2.3384e-06 -3.83208e-06 0.000617271
0.00137097 9.90781e-06 -8.36825e-07
9.90781e-06 0.000234146 1.85588e-06
-8.36825e-07 1.85588e-06 0.000239562
0.00155739 9.1183e-06 1.583e-06
9.1183e-06 0.000331263 2.37616e-08
1.583e-06 2.37616e-08 0.000352809
0.00108451 1.13584e-05 -9.44753e-06
1.13584e-05 8.87471e-05 6.19355e-06
-9.44753e-06 6.19355e-06 0.000106564
-0.00280032 7.44944e-05 -5.16263e-05
7.44944e-05 -0.00166732 1.0909e-05
-5.16263e-05 1.0909e-05 -0.00160905
-0.00136259 0.000108141 -7.78429e-06
0.000108141 -0.0012224 7.88001e-06
-7.78429e-06 7.88001e-06 -0.00101946
0.00131106 -7.34754e-05 -6.27378e-05
-7.34754e-05 6.50898e-05 -1.00856e-05
-6.27378e-05 -1.00856e-05 -0.00013607
0.00199757 -3.00924e-05 -1.12429e-06
-3.00924e-05 0.000305732 -1.00669e-06
-1.12429e-06 -1.00669e-06 0.000238241
0.0015526 3.01224e-05 -1.30568e-05
3.01224e-05 -4.92001e-05 -4.26729e-07
-1.30568e-05 -4.26729e-07 -0.000144675
0.000997066 -2.4516e-05 2.30482e-05
-2.4516e-05 4.14153e-05 -1.79599e-06
2.30482e-05 -1.79599e-06 -0.00012387
0.00182839 5.23747e-05 1.86222e-06
5.23747e-05 0.000223514 1.5358e-06
1.86222e-06 1.5358e-06 0.000144066
0.00482672 0.000183609 -2.97505e-05
0.000183609 0.00132737 -1.11656e-06
-2.97505e-05 -1.11656e-06 0.000709786
-0.00257833 0.000152652 9.05837e-08
0.000152652 -0.00119228 -3.68812e-06
9.05837e-08 -3.68812e-06 -0.00116226
0.000341698 0.000266863 3.92225e-06
0.000266863 -0.000580121 -5.41553e-06
3.92225e-06 -5.41553e-06 1.30144e-05
0.00103124 3.80679e-05 3.22874e-05
3.80679e-05 0.000130146 -1.25197e-05
3.22874e-05 -1.25197e-05 -9.28628e-05
0.00594686 0.000314742 -1.06717e-05
0.000314742 0.00181152 6.50416e-06
-1.06717e-05 6.50416e-06 0.00109041
-2.02401e-05 0.000267029 -5.31406e-05
0.000267029 -0.000166743 3.32739e-05
-5.31406e-05 3.32739e-05 -1.28147e-05
0.00223087 0.000161981 -1.51803e-05
0.000161981 0.000103067 1.16043e-05
-1.51803e-05 1.16043e-05 0.000543281
0.000896797 2.80722e-05 -4.28142e-07
2.80722e-05 2.84347e-05 -5.1939e-07
-4.28142e-07 -5.1939e-07 -3.82888e-05
0.000853311 7.18939e-07 6.52119e-08
7.18939e-07 -1.07265e-06 -4.23949e-07
6.52119e-08 -4.23949e-07 -5.37284e-05
0.000940926 -2.82608e-05 -6.9432e-07
-2.82608e-05 3.28075e-05 8.98903e-07
-6.9432e-07 8.98903e-07 -7.07059e-06
0.000823157 1.2477e-05 1.88321e-08
1.2477e-05 -1.66331e-05 4.77046e-07
1.88321e-08 4.77046e-07 -6.99855e-05
0.000983161 4.0904e-05 5.84457e-07
4.0904e-05 7.28569e-05 8.94071e-07
5.84457e-07 8.94071e-07 1.0434e-05
0.00102146 3.16042e-05 -3.64644e-07
3.16042e-05 9.24756e-05 -2.80192e-07
-3.64644e-07 -2.80192e-07 2.61545e-05
0.000963101 2.71449e-05 8.96512e-07
2.71449e-05 5.93965e-05 1.00099e-06
8.96512e-07 1.00099e-06 -2.16981e-06
0.000946676 2.32293e-06 6.28702e-07
2.32293e-06 4.79195e-05 -1.94061e-07
6.28702e-07 -1.94061e-07 -1.20713e-05
0.000915381 -1.29695e-05 2.38719e-07
-1.29695e-05 3.20927e-05 -5.25471e-07
2.38719e-07 -5.25471e-07 -2.36457e-05
0.000824584 -2.59479e-05 -4.06026e-07
-2.59479e-05 -1.50588e-05 9.32986e-07
-4.06026e-07 9.32986e-07 -6.87147e-05
0.00210197 2.65138e-05 -3.46376e-06
2.65138e-05 0.000197547 1.78206e-06
-3.46376e-06 1.78206e-06 0.000125411
0.00166152 -0.000110512 -1.32456e-05
-0.000110512 -9.61597e-05 1.87635e-06
-1.32456e-05 1.87635e-06 -0.000142337
-0.000391628 -6.75976e-05 2.472e-07
-6.75976e-05 -0.000779555 4.24911e-06
2.472e-07 4.24911e-06 -0.000894345
0.00127251 -0.000102672 3.65307e-07
-0.000102672 0.000222652 1.06908e-06
3.65307e-07 1.06908e-06 8.71564e-05
0.00110967 -3.92105e-05 7.81757e-07
-3.92105e-05 0.000158926 6.66125e-09
7.81757e-07 6.66125e-09 3.58318e-05
0.00103964 -3.78364e-05 -2.54508e-07
-3.78364e-05 9.68519e-05 2.42324e-07
-2.54508e-07 2.42324e-07 1.09958e-05
0.000953104 -3.21942e-05 -6.03102e-07
-3.21942e-05 5.58604e-05 4.30919e-07
-6.03102e-07 4.30919e-07 -1.53481e-05
0.000955297 1.96122e-05 -1.7686e-07
1.96122e-05 5.75821e-05 6.68343e-07
-1.7686e-07 6.68343e-07 -1.15566e-05
0.00202938 -4.64193e-05 -4.77575e-06
-4.64193e-05 7.8686e-05 1.16928e-06
-4.77575e-06 1.16928e-06 4.14808e-05
0.000872083 -1.97844e-05 -1.64016e-07
-1.97844e-05 1.65099e-05 1.03784e-08
-1.64016e-07 1.03784e-08 -6.05126e-05
0.000952753 -3.90359e-05 4.79376e-07
-3.90359e-05 5.23457e-05 -5.0969e-07
4.79376e-07 -5.0969e-07 -3.13439e-05
0.00197051 -0.000162143 2.63616e-06
-0.000162143 0.000217891 1.58043e-07
2.63616e-06 1.58043e-07 9.93659e-05
0.000643675 -9.57076e-05 4.994e-07
-9.57076e-05 -0.000101894 2.66117e-06
4.994e-07 2.66117e-06 -0.000230828
0.00116862 -6.65562e-05 8.90414e-07
-6.65562e-05 0.000194069 -1.68309e-07
8.90414e-07 -1.68309e-07 4.52561e-05
0.00116472 -2.53703e-05 -2.41655e-07
-2.53703e-05 0.000166017 -3.56457e-07
-2.41655e-07 -3.56457e-07 6.05691e-05
0.00281635 -0.000134403 4.75453e-06
-0.000134403 0.000543152 -6.93753e-07
4.75453e-06 -6.93753e-07 0.000547925
0.0021388 -0.000168298 -9.06786e-07
-0.000168298 0.000588324 -3.7249e-06
-9.06786e-07 -3.7249e-06 0.000424414
0.000913727 9.03843e-07 -1.50624e-06
9.03843e-07 7.9508e-05 -2.03804e-08
-1.50624e-06 -2.03804e-08 -6.58953e-05
0.000939628 3.45269e-05 2.55788e-07
3.45269e-05 5.21939e-05 4.88046e-07
2.55788e-07 4.88046e-07 -2.64199e-05
0.000965713 -5.68468e-05 8.22275e-07
-5.68468e-05 5.75726e-05 -2.84877e-07
8.22275e-07 -2.84877e-07 -2.83959e-05
0.00110036 -1.12635e-05 3.56229e-07
-1.12635e-05 0.000113089 3.66e-07
3.56229e-07 3.66e-07 2.14777e-05
0.00122241 -8.61475e-06 -1.08122e-05
-8.61475e-06 0.000429679 -2.25776e-08
-1.08122e-05 -2.25776e-08 0.000410386
0.00129701 -1.16974e-05 8.59582e-06
-1.16974e-05 0.000388957 -1.31748e-06
8.59582e-06 -1.31748e-06 0.00024
0.00040892 9.70479e-05 -3.78023e-05
9.70479e-05 -0.000662158 5.03354e-06
-3.78023e-05 5.03354e-06 -0.00117523
0.00100512 6.34303e-05 1.63727e-07
6.34303e-05 7.90449e-05 5.87849e-08
1.63727e-07 5.87849e-08 -1.25036e-05
0.00133205 6.74682e-05 2.07273e-06
6.74682e-05 0.000272062 7.9838e-08
2.07273e-06 7.9838e-08 0.000166505
0.00231427 0.000141364 -2.89353e-06
0.000141364 0.000329242 -1.95957e-07
-2.89353e-06 -1.95957e-07 0.000308628
0.000671402 7.98818e-05 2.16823e-06
7.98818e-05 -2.05948e-05 -3.78454e-06
2.16823e-06 -3.78454e-06 -0.000208473
0.00366629 -0.000201569 4.62649e-05
-0.000201569 0.00149168 7.03473e-06
4.62649e-05 7.03473e-06 0.00148631
0.000570725 -0.000219955 2.96481e-05
-0.000219955 -0.000597078 3.00155e-05
2.96481e-05 3.00155e-05 -0.00120049
0.0036271 1.63239e-05 -6.81058e-05
1.63239e-05 0.000390578 -5.31111e-05
-6.81058e-05 -5.31111e-05 0.000102036
0.000277176 8.30315e-05 4.24201e-06
8.30315e-05 -0.000463337 3.57124e-07
4.24201e-06 3.57124e-07 -0.000439878
-0.00169987 -0.000237959 5.50449e-05
-0.000237959 -0.00106497 2.74809e-05
5.50449e-05 2.74809e-05 -0.000995865
0.00208244 -0.000140542 1.51735e-05
-0.000140542 0.000759781 1.02384e-05
1.51735e-05 1.02384e-05 0.000941101
0.00179267 -0.000198377 1.41113e-05
-0.000198377 -0.000143801 9.16343e-06
1.41113e-05 9.16343e-06 0.000334825
0.00112555 4.00341e-05 -9.75184e-08
4.00341e-05 0.000123083 1.26519e-07
-9.75184e-08 1.26519e-07 3.37259e-05
0.00056418 -4.95287e-05 -5.378e-06
-4.95287e-05 5.3926e-05 -1.52301e-07
-5.378e-06 -1.52301e-07 7.2729e-05
0.00108521 -5.81214e-06 -2.98801e-06
-5.81214e-06 2.95493e-05 -4.89808e-06
-2.98801e-06 -4.89808e-06 -1.10375e-05
0.000804459 0.000114325 -1.83891e-06
0.000114325 -5.54214e-05 1.57182e-07
-1.83891e-06 1.57182e-07 -0.000215791
0.000855191 3.52755e-05 -2.93715e-07
3.52755e-05 0.000112843 -1.17288e-08
-2.93715e-07 -1.17288e-08 -3.42227e-05
0.00259352 6.9543e-06 1.94537e-05
6.9543e-06 0.0010034 -1.15422e-06
1.94537e-05 -1.15422e-06 0.000908259
0.00423645 0.000276142 -3.06324e-05
0.000276142 0.001038 -1.77651e-05
-3.06324e-05 -1.77651e-05 0.000624399
0.00661346 -0.000281097 4.65833e-07
-0.000281097 0.00194341 4.82029e-06
4.65833e-07 4.82029e-06 0.00108727
4.89583e-05 -0.000262218 7.46075e-06
-0.000262218 -0.0007384 1.48665e-05
7.46075e-06 1.48665e-05 -0.000700924
0.00199499 -7.38901e-05 -1.98183e-07
-7.38901e-05 0.000167966 8.31431e-07
-1.98183e-07 8.31431e-07 0.000373002
0.00150332 7.62013e-05 -9.61764e-07
7.62013e-05 0.000368831 -3.40982e-06
-9.61764e-07 -3.40982e-06 0.000290292
0.00182037 1.0138e-05 4.95856e-06
1.0138e-05 0.000607939 2.32672e-06
4.95856e-06 2.32672e-06 0.000541446
0.00110303 1.41551e-05 4.3075e-06
1.41551e-05 0.000112036 -2.97115e-06
4.3075e-06 -2.97115e-06 2.3317e-05
0.000501968 -4.4666e-05 -1.01122e-05
-4.4666e-05 4.46865e-05 2.40417e-06
-1.01122e-05 2.40417e-06 -9.80683e-05
0.00112449 0.000143351 -2.51383e-05
0.000143351 0.000370144 4.34124e-05
-2.51383e-05 4.34124e-05 9.13123e-05
0.00671782 -0.0001645 -1.17065e-05
-0.0001645 0.00162395 -1.87592e-05
-1.17065e-05 -1.87592e-05 0.000612485
-0.000224491 -0.000146594 -3.8654e-05
-0.000146594 -0.0013379 -4.53632e-05
-3.8654e-05 -4.53632e-05 -0.00119378
0.00239084 1.91599e-05 4.34711e-07
1.91599e-05 0.000428269 6.58391e-06
4.34711e-07 6.58391e-06 0.000607486
0.000966749 5.50986e-05 1.56763e-07
5.50986e-05 4.19217e-05 -1.19594e-07
1.56763e-07 -1.19594e-07 -4.56371e-05
0.0010845 6.50182e-05 4.7184e-07
6.50182e-05 0.000118054 -6.38136e-08
4.7184e-07 -6.38136e-08 2.85059e-05
0.000891368 4.77929e-05 -1.00345e-06
4.77929e-05 2.15762e-05 -1.98559e-06
-1.00345e-06 -1.98559e-06 -6.6436e-05
0.000994265 4.28475e-05 -4.16634e-07
4.28475e-05 6.40952e-05 -6.60058e-07
-4.16634e-07 -6.60058e-07 8.21909e-06
0.000965483 -1.28526e-05 3.97966e-07
-1.28526e-05 4.89168e-05 -3.07471e-07
3.97966e-07 -3.07471e-07 -1.51067e-05
0.00103645 1.60544e-05 -2.67294e-07
1.60544e-05 8.93836e-05 -2.17233e-07
-2.67294e-07 -2.17233e-07 1.73833e-05
0.00103193 3.12422e-05 3.12171e-07
3.12422e-05 9.40208e-05 3.84703e-08
3.12171e-07 3.84703e-08 8.40164e-06
0.00100865 1.77672e-05 2.58318e-07
1.77672e-05 7.12309e-05 -5.25061e-09
2.58318e-07 -5.25061e-09 7.70361e-06
0.00105334 1.01817e-05 -1.24215e-07
1.01817e-05 9.3038e-05 4.00557e-07
-1.24215e-07 4.00557e-07 1.91078e-05
0.00109612 2.50712e-06 2.24111e-07
2.50712e-06 0.000128364 -3.0508e-07
2.24111e-07 -3.0508e-07 3.74963e-05
0.00137355 -1.42914e-05 -5.95412e-07
-1.42914e-05 0.000272205 -4.86077e-07
-5.95412e-07 -4.86077e-07 0.00018818
0.00106443 -3.61073e-05 3.22587e-07
-3.61073e-05 9.07243e-05 2.55673e-07
3.22587e-07 2.55673e-07 9.93099e-06
0.00103694 3.37828e-05 6.75828e-07
3.37828e-05 8.37207e-05 5.09228e-07
6.75828e-07 5.09228e-07 1.27043e-05
0.000996959 -3.44356e-06 5.03565e-07
-3.44356e-06 6.49749e-05 -4.43902e-07
5.03565e-07 -4.43902e-07 1.8467e-06
0.000962816 1.67704e-05 1.41896e-07
1.67704e-05 4.98492e-05 -6.14019e-07
1.41896e-07 -6.14019e-07 -1.48973e-05
0.0010017 1.06386e-05 -6.14869e-07
1.06386e-05 5.92401e-05 -1.30651e-06
-6.14869e-07 -1.30651e-06 -8.87048e-06
0.00107261 2.13253e-05 -2.46456e-07
2.13253e-05 9.9336e-05 -4.0898e-07
-2.46456e-07 -4.0898e-07 3.01005e-05
0.00096377 8.98038e-06 9.68519e-08
8.98038e-06 5.45595e-05 3.59826e-07
9.68519e-08 3.59826e-07 -1.35519e-05
0.000976254 1.03934e-05 -1.58206e-09
1.03934e-05 4.55457e-05 -1.65242e-07
-1.58206e-09 -1.65242e-07 -2.61167e-05
0.000979114 -9.5432e-06 3.38912e-07
-9.5432e-06 5.31471e-05 7.13477e-07
3.38912e-07 7.13477e-07 -2.36689e-05
0.00103732 -3.76833e-06 3.08602e-07
-3.76833e-06 7.14847e-05 1.91e-07
3.08602e-07 1.91e-07 -2.03231e-06
0.000953779 -4.82932e-05 3.48577e-07
-4.82932e-05 5.3003e-05 -3.68101e-09
3.48577e-07 -3.68101e-09 -3.49419e-05
0.00106507 -2.9312e-05 -2.22617e-07
-2.9312e-05 0.000109205 -3.4281e-08
-2.22617e-07 -3.4281e-08 2.59253e-05
0.000797346 -4.55336e-05 -5.9286e-08
-4.55336e-05 -1.06307e-07 1.33305e-06
-5.9286e-08 1.33305e-06 -9.15044e-05
0.00107327 -6.94596e-05 -1.10369e-06
-6.94596e-05 0.000122165 1.88894e-06
-1.10369e-06 1.88894e-06 2.34342e-05
0.00111685 -4.78368e-05 4.18592e-07
-4.78368e-05 0.000145806 -1.01715e-06
4.18592e-07 -1.01715e-06 6.33443e-05
0.000837811 -5.02141e-05 2.47825e-07
-5.02141e-05 2.39643e-05 -1.35036e-06
2.47825e-07 -1.35036e-06 -6.51923e-05
0.000981099 -2.6039e-05 3.12805e-08
-2.6039e-05 7.53863e-05 -5.99345e-07
3.12805e-08 -5.99345e-07 -3.43377e-06
0.00085051 -1.20044e-05 -1.84622e-07
-1.20044e-05 -3.76198e-06 9.23903e-07
-1.84622e-07 9.23903e-07 -7.20993e-05
0.000996676 -1.18114e-05 -2.07035e-07
-1.18114e-05 7.82589e-05 -2.60066e-07
-2.07035e-07 -2.60066e-07 4.20354e-06
0.000969415 -7.46705e-06 -3.37369e-09
-7.46705e-06 5.50007e-05 4.3533e-07
-3.37369e-09 4.3533e-07 -6.68947e-06
0.000929205 1.19087e-05 -2.36234e-07
1.19087e-05 2.6707e-05 1.04104e-06
-2.36234e-07 1.04104e-06 -2.05629e-05
0.000958401 -1.30793e-05 1.88407e-07
-1.30793e-05 4.88363e-05 -7.73342e-07
1.88407e-07 -7.73342e-07 -9.62828e-06
0.000926588 3.65235e-06 -2.30586e-07
3.65235e-06 2.50164e-05 -3.08505e-08
-2.30586e-07 -3.08505e-08 -1.95423e-05
0.000899353 1.37049e-05 -7.83932e-07
1.37049e-05 5.15111e-06 1.59578e-06
-7.83932e-07 1.59578e-06 -2.24952e-05
0.000935265 4.05176e-06 6.95998e-07
4.05176e-06 2.80031e-05 -7.9843e-07
6.95998e-07 -7.9843e-07 -1.51843e-05
0.000905766 7.16406e-06 -1.55105e-07
7.16406e-06 5.03348e-06 -5.10365e-09
-1.55105e-07 -5.10365e-09 -2.11224e-05
0.00141352 1.60612e-05 -5.35022e-06
1.60612e-05 0.000262766 4.11426e-06
-5.35022e-06 4.11426e-06 0.000265595
0.000906021 -4.60408e-07 9.13883e-07
-4.60408e-07 3.3233e-06 -1.54691e-06
9.13883e-07 -1.54691e-06 -2.19218e-05
0.0011305 1.18336e-05 -2.03483e-06
1.18336e-05 0.000112576 5.68657e-07
-2.03483e-06 5.68657e-07 0.000114814
0.000997276 1.14629e-05 -1.23736e-06
1.14629e-05 4.28212e-05 1.47321e-06
-1.23736e-06 1.47321e-06 6.06905e-05
0.000850294 7.42425e-06 6.40137e-07
7.42425e-06 -3.56918e-05 -2.94234e-06
6.40137e-07 -2.94234e-06 -3.43126e-05
0.00157392 8.90321e-06 3.10831e-06
8.90321e-06 0.000339101 -1.15715e-06
3.10831e-06 -1.15715e-06 0.00036013
0.00214168 4.87375e-06 4.0025e-06
4.87375e-06 0.000632934 -3.81921e-06
4.0025e-06 -3.81921e-06 0.000656784
0.00100124 -9.67322e-06 3.44716e-07
-9.67322e-06 6.40237e-05 -7.87415e-07
3.44716e-07 -7.87415e-07 2.03447e-05
0.000916478 -4.53153e-06 -2.466e-07
-4.53153e-06 6.91651e-06 -1.52766e-06
-2.466e-07 -1.52766e-06 -1.63658e-05
0.000980876 4.45198e-07 3.3778e-07
4.45198e-07 5.33535e-05 9.3626e-08
3.3778e-07 9.3626e-08 1.25522e-05
0.000865283 -3.76219e-06 -3.45393e-07
-3.76219e-06 -2.97963e-05 -3.02033e-06
-3.45393e-07 -3.02033e-06 -2.63328e-05
0.000915627 -2.63174e-06 -5.6217e-08
-2.63174e-06 5.20545e-06 -8.35551e-09
-5.6217e-08 -8.35551e-09 -1.69304e-05
0.000944641 -1.08279e-05 -5.50047e-07
-1.08279e-05 3.38182e-05 1.2292e-06
-5.50047e-07 1.2292e-06 -5.41661e-06
0.0020599 -2.46335e-08 -7.79894e-07
-2.46335e-08 0.000589913 -3.86043e-06
-7.79894e-07 -3.86043e-06 0.00061482
0.000859872 2.21978e-07 -7.43559e-08
2.21978e-07 -3.33947e-05 -4.77087e-09
-7.43559e-08 -4.77087e-09 -2.94393e-05
0.000914026 -6.79862e-07 -8.55877e-08
-6.79862e-07 3.69772e-06 1.65853e-06
-8.55877e-08 1.65853e-06 -1.78694e-05
0.00086233 4.29049e-06 -3.62471e-07
4.29049e-06 -3.15695e-05 3.00738e-06
-3.62471e-07 3.00738e-06 -2.79392e-05
0.00206672 5.18458e-06 -1.43892e-06
5.18458e-06 0.000594012 -9.33096e-09
-1.43892e-06 -9.33096e-09 0.000618744
0.00208792 9.9727e-06 -7.10766e-06
9.9727e-06 0.000606558 3.80799e-06
-7.10766e-06 3.80799e-06 0.000630808
-0.00108479 2.0529e-05 -4.7149e-06
2.0529e-05 -0.000890155 -7.42899e-07
-4.7149e-06 -7.42899e-07 -0.000927278
-0.000803085 0.000132016 2.32413e-05
0.000132016 -0.0005197 -1.41612e-06
2.32413e-05 -1.41612e-06 -0.000573241
0.000963416 1.45592e-05 -6.74683e-06
1.45592e-05 -0.000109381 7.0657e-06
-6.74683e-06 7.0657e-06 -0.000111272
-0.0012031 0.000121423 4.74719e-06
0.000121423 -0.00102045 -6.09117e-07
4.74719e-06 -6.09117e-07 -0.000815948
0.00209011 3.00749e-05 -7.59352e-05
3.00749e-05 0.000447904 -5.84225e-06
-7.59352e-05 -5.84225e-06 0.000204447
0.00186132 5.29841e-05 9.57927e-06
5.29841e-05 0.000242006 -2.30645e-06
9.57927e-06 -2.30645e-06 0.000159525
0.00100107 -1.23566e-05 -2.70817e-05
-1.23566e-05 -0.000348351 1.99981e-06
-2.70817e-05 1.99981e-06 -0.000821903
0.00434102 0.00023655 9.39384e-05
0.00023655 0.00200717 -2.8824e-05
9.39384e-05 -2.8824e-05 0.00201834
-0.000585617 0.000285112 1.46619e-05
0.000285112 -0.00120593 -8.80586e-06
1.46619e-05 -8.80586e-06 -0.000561361
0.00135976 6.54543e-05 -2.12495e-06
6.54543e-05 0.000107862 3.96741e-06
-2.12495e-06 3.96741e-06 -8.73651e-05
0.00258649 0.000206805 6.41051e-06
0.000206805 0.000339382 -8.36367e-06
6.41051e-06 -8.36367e-06 -0.000563263
0.0029815 0.000380375 1.57412e-06
0.000380375 0.000861114 -9.07462e-07
1.57412e-06 -9.07462e-07 0.000933928
0.0017022 0.00015429 -3.11464e-06
0.00015429 -0.000224675 1.08414e-06
-3.11464e-06 1.08414e-06 0.00023319
0.00192051 6.3834e-05 -4.33732e-06
6.3834e-05 0.000362395 2.31079e-07
-4.33732e-06 2.31079e-07 0.000113017
0.0033992 0.000262937 3.16073e-05
0.000262937 0.000745171 -1.91638e-05
3.16073e-05 -1.91638e-05 -0.000247534
-0.002406 0.000240753 -5.89488e-05
0.000240753 -0.00212817 4.28621e-05
-5.89488e-05 4.28621e-05 -0.00199466
0.000842814 6.47494e-05 -7.00178e-07
6.47494e-05 -0.000547734 5.45854e-06
-7.00178e-07 5.45854e-06 -0.000362936
0.00103966 -3.3401e-06 8.02652e-07
-3.3401e-06 0.000102565 -3.62896e-07
8.02652e-07 -3.62896e-07 2.78521e-05
0.000978455 2.85478e-05 -8.85271e-07
2.85478e-05 6.97166e-05 -3.11105e-07
-8.85271e-07 -3.11105e-07 4.26309e-06
0.000938984 7.52637e-06 4.05399e-07
7.52637e-06 4.17854e-05 4.66961e-08
4.05399e-07 4.66961e-08 -9.99955e-06
0.000951042 4.32944e-05 1.26694e-06
4.32944e-05 5.76578e-05 1.23385e-06
1.26694e-06 1.23385e-06 -4.04443e-06
0.000919694 9.49124e-06 -2.25909e-07
9.49124e-06 3.84305e-05 -3.60899e-08
-2.25909e-07 -3.60899e-08 -3.37681e-05
0.00104647 3.10684e-05 1.91191e-07
3.10684e-05 0.000105287 5.09992e-07
1.91191e-07 5.09992e-07 3.94873e-05
0.000933571 3.84742e-06 -3.15428e-07
3.84742e-06 4.29695e-05 1.54937e-06
-3.15428e-07 1.54937e-06 -1.76129e-05
0.00106785 4.06467e-05 -8.38937e-07
4.06467e-05 0.000109868 -3.57954e-07
-8.38937e-07 -3.57954e-07 4.70464e-05
0.00104274 1.96231e-05 -1.67219e-07
1.96231e-05 9.82523e-05 4.41397e-07
-1.67219e-07 4.41397e-07 3.80682e-05
0.000849777 -1.8273e-05 -7.37703e-07
-1.8273e-05 -9.50192e-07 1.11642e-07
-7.37703e-07 1.11642e-07 -5.80461e-05
0.00130883 -4.26713e-05 -4.79846e-06
-4.26713e-05 -0.000295817 -6.40212e-07
-4.79846e-06 -6.40212e-07 -0.000337388
0.00118153 -0.000133855 -5.68718e-06
-0.000133855 -0.000167724 5.01722e-06
-5.68718e-06 5.01722e-06 -0.000279106
0.000896875 -0.000101322 5.05104e-06
-0.000101322 3.74453e-05 3.71533e-06
5.05104e-06 3.71533e-06 -8.72554e-05
0.0011547 -6.43667e-05 1.14793e-06
-6.43667e-05 0.00018034 5.03062e-07
1.14793e-06 5.03062e-07 3.64476e-05
0.00112723 -2.21891e-05 -1.55124e-07
-2.21891e-05 0.000148016 -1.91526e-07
-1.55124e-07 -1.91526e-07 3.73853e-05
0.000890574 -4.45146e-05 -2.97516e-07
-4.45146e-05 2.09438e-05 2.07543e-07
-2.97516e-07 2.07543e-07 -6.4989e-05
0.000898211 2.48954e-05 4.56066e-08
2.48954e-05 2.93329e-05 -2.89998e-08
4.56066e-08 -2.89998e-08 -4.80391e-05
0.000985259 -8.02645e-06 2.39631e-07
-8.02645e-06 7.48945e-05 6.25688e-07
2.39631e-07 6.25688e-07 -3.74136e-06
0.00188493 -0.000134698 1.53733e-06
-0.000134698 7.96384e-05 6.9373e-08
1.53733e-06 6.9373e-08 8.79626e-05
0.00104555 -5.13919e-06 -1.83849e-07
-5.13919e-06 9.92527e-05 -2.54336e-07
-1.83849e-07 -2.54336e-07 1.42837e-05
0.0011978 -1.99586e-05 -2.17084e-07
-1.99586e-05 0.000164518 -6.20587e-08
-2.17084e-07 -6.20587e-08 7.09393e-05
0.00168059 -0.000150349 -5.64604e-07
-0.000150349 0.000377462 -2.16072e-06
-5.64604e-07 -2.16072e-06 0.000201917
0.00114061 -1.36255e-05 -4.65535e-07
-1.36255e-05 0.000183732 -8.84634e-09
-4.65535e-07 -8.84634e-09 4.12305e-05
-0.000218139 -0.000127005 -6.41096e-06
-0.000127005 -0.000805611 -9.43198e-06
-6.41096e-06 -9.43198e-06 -0.000777757
0.00174889 -5.11785e-05 -2.33557e-06
-5.11785e-05 0.00052577 3.52756e-06
-2.33557e-06 3.52756e-06 0.000310646
0.000837286 3.23462e-05 -1.0428e-06
3.23462e-05 -1.45811e-05 2.18474e-06
-1.0428e-06 2.18474e-06 -0.000115215
0.000997726 2.61871e-05 4.08829e-08
2.61871e-05 6.89694e-05 -3.16957e-07
4.08829e-08 -3.16957e-07 -1.28854e-05
0.00103634 2.34126e-05 -2.7727e-07
2.34126e-05 7.6883e-05 4.58593e-07
-2.7727e-07 4.58593e-07 -1.54754e-05
0.00172473 -5.40108e-06 8.91537e-06
-5.40108e-06 0.000577471 7.06405e-07
8.91537e-06 7.06405e-07 0.000505651
8.64972e-05 -1.06986e-05 6.09453e-06
-1.06986e-05 -0.000204082 -5.16581e-07
6.09453e-06 -5.16581e-07 -0.000244337
-0.00330063 -2.64705e-05 6.8975e-05
-2.64705e-05 -0.00194608 3.02603e-07
6.8975e-05 3.02603e-07 -0.00197645
0.00122705 5.3956e-05 1.48682e-06
5.3956e-05 0.000182729 1.48009e-06
1.48682e-06 1.48009e-06 9.15404e-05
-0.000180138 1.45282e-05 1.92604e-06
1.45282e-05 -0.000387699 -1.39702e-06
1.92604e-06 -1.39702e-06 -0.00054021
0.00159021 0.000111439 1.64101e-06
0.000111439 0.000323766 -5.88948e-06
1.64101e-06 -5.88948e-06 0.000162914
-0.0011865 -2.50187e-05 6.06408e-06
-2.50187e-05 -0.000962339 1.82891e-06
6.06408e-06 1.82891e-06 -0.00100782
0.0022256 -0.000300621 2.51784e-05
-0.000300621 9.79547e-05 2.18145e-05
2.51784e-05 2.18145e-05 -0.0009098
0.0030863 0.000219519 5.80662e-05
0.000219519 0.000644585 -3.76386e-05
5.80662e-05 -3.76386e-05 0.000382246
0.000902278 3.23034e-06 2.77229e-05
3.23034e-06 6.51729e-05 1.22867e-05
2.77229e-05 1.22867e-05 -7.32587e-05
0.00433179 -0.000392321 4.34527e-05
-0.000392321 0.00118583 4.96193e-05
4.34527e-05 4.96193e-05 0.00119288
0.00089421 -1.26436e-06 -6.86391e-08
-1.26436e-06 -0.000100325 1.30938e-06
-6.86391e-08 1.30938e-06 -0.00013884
0.00127908 -5.99135e-05 2.15387e-06
-5.99135e-05 -0.00019576 2.76149e-06
2.15387e-06 2.76149e-06 -2.81355e-05
0.00103361 6.51695e-05 1.47479e-06
6.51695e-05 0.000132144 -7.24843e-07
1.47479e-06 -7.24843e-07 5.63951e-05
0.00124219 1.24014e-05 -1.27422e-06
1.24014e-05 0.00027454 3.66678e-07
-1.27422e-06 3.66678e-07 0.000209716
0.00106626 1.38959e-05 -3.12054e-06
1.38959e-05 8.20115e-05 -4.58484e-06
-3.12054e-06 -4.58484e-06 -4.61219e-06
-9.85711e-05 -9.29437e-06 9.62734e-06
-9.29437e-06 -0.000244681 -4.45991e-07
9.62734e-06 -4.45991e-07 -0.000399473
0.00279374 0.000223072 -3.44956e-05
0.000223072 0.000843835 -2.01386e-05
-3.44956e-05 -2.01386e-05 0.000614565
0.00567874 1.5107e-05 2.29998e-05
1.5107e-05 0.00109396 4.40228e-06
2.29998e-05 4.40228e-06 6.23465e-05
0.00149562 5.31683e-06 2.04577e-06
5.31683e-06 -6.23381e-05 -1.95426e-06
2.04577e-06 -1.95426e-06 6.77319e-05
0.00161114 -0.000225903 -2.48354e-06
-0.000225903 -0.000440099 2.47697e-05
-2.48354e-06 2.47697e-05 -0.000374121
0.000840397 3.25645e-05 -2.48831e-06
3.25645e-05 8.04716e-05 -6.63691e-06
-2.48831e-06 -6.63691e-06 1.73262e-05
0.00096461 1.35882e-05 1.17984e-05
1.35882e-05 5.65294e-05 8.12027e-06
1.17984e-05 8.12027e-06 -5.13981e-05
0.00137513 -4.02458e-06 -9.14999e-06
-4.02458e-06 0.000254087 -1.45061e-06
-9.14999e-06 -1.45061e-06 0.00014102
0.000934577 4.83514e-05 6.21226e-07
4.83514e-05 -0.000410631 -3.57423e-06
6.21226e-07 -3.57423e-06 -0.000281791
-0.00186725 4.82681e-05 -4.17646e-07
4.82681e-05 -0.000986787 -4.92008e-07
-4.17646e-07 -4.92008e-07 -0.00117848
0.00703982 -2.91576e-05 2.469e-05
-2.91576e-05 0.00165141 1.33197e-05
2.469e-05 1.33197e-05 0.000931259
0.000299065 1.09592e-06 1.96872e-06
1.09592e-06 -0.00107572 -6.50214e-05
1.96872e-06 -6.50214e-05 -0.000760293
0.00148268 7.74014e-05 1.52383e-06
7.74014e-05 0.000311316 2.42253e-06
1.52383e-06 2.42253e-06 0.000224172
0.00102473 5.42492e-05 -1.09034e-06
5.42492e-05 7.73805e-05 9.83345e-07
-1.09034e-06 9.83345e-07 -1.37582e-05
0.00141895 5.01074e-05 -1.04299e-06
5.01074e-05 0.000280801 -3.48905e-06
-1.04299e-06 -3.48905e-06 0.000194309
0.000994368 4.53997e-05 -1.43162e-07
4.53997e-05 6.39281e-05 -2.75049e-07
-1.43162e-07 -2.75049e-07 6.8522e-07
0.00104552 2.05502e-05 -1.1173e-07
2.05502e-05 8.83346e-05 -3.27828e-07
-1.1173e-07 -3.27828e-07 1.53622e-05
0.000880286 -5.84253e-06 4.94261e-08
-5.84253e-06 2.28872e-05 1.05696e-06
4.94261e-08 1.05696e-06 -7.13908e-05
0.00108222 3.36841e-05 -2.05098e-08
3.36841e-05 0.00010496 -1.11203e-07
-2.05098e-08 -1.11203e-07 3.50631e-05
0.00100362 -4.0041e-05 -1.08516e-07
-4.0041e-05 6.08527e-05 1.87527e-08
-1.08516e-07 1.87527e-08 -2.14706e-05
0.00112575 -3.59177e-05 1.83203e-06
-3.59177e-05 0.000143796 8.68257e-07
1.83203e-06 8.68257e-07 5.49369e-05
0.000830593 -1.24549e-05 1.63036e-07
-1.24549e-05 9.11522e-06 -3.96292e-07
1.63036e-07 -3.96292e-07 -6.38768e-05
0.0010491 -2.4348e-05 -1.87435e-07
-2.4348e-05 7.36967e-05 1.52172e-07
-1.87435e-07 1.52172e-07 -2.26617e-06
0.00109213 2.17547e-05 -7.84821e-07
2.17547e-05 0.00010779 -7.38998e-07
-7.84821e-07 -7.38998e-07 3.93261e-05
0.000981434 1.24995e-05 -3.66239e-08
1.24995e-05 6.46876e-05 -2.99484e-07
-3.66239e-08 -2.99484e-07 -3.85956e-06
0.0010214 1.42751e-05 -2.84174e-07
1.42751e-05 6.74307e-05 -5.99969e-07
-2.84174e-07 -5.99969e-07 -3.76844e-06
0.00101289 -8.65367e-06 1.44211e-07
-8.65367e-06 5.90691e-05 1.37931e-08
1.44211e-07 1.37931e-08 -1.44741e-05
0.000996208 -8.32176e-06 1.72406e-07
-8.32176e-06 6.0798e-05 4.49237e-07
1.72406e-07 4.49237e-07 -1.54816e-05
0.00100857 -5.24481e-05 2.07562e-07
-5.24481e-05 8.27487e-05 9.83679e-07
2.07562e-07 9.83679e-07 -1.44953e-06
0.000938618 -4.64438e-05 3.03045e-08
-4.64438e-05 4.86558e-05 -7.7318e-07
3.03045e-08 -7.7318e-07 -3.79921e-05
0.00107994 -6.74677e-05 5.51928e-07
-6.74677e-05 0.000137802 1.03329e-06
5.51928e-07 1.03329e-06 3.09728e-05
0.00115609 -3.4226e-05 -1.32045e-07
-3.4226e-05 0.000154982 -4.96847e-07
-1.32045e-07 -4.96847e-07 7.17218e-05
0.00105673 -5.46382e-05 -1.53728e-07
-5.46382e-05 0.000125492 9.39274e-07
-1.53728e-07 9.39274e-07 3.34361e-05
0.000666375 -5.8558e-05 -4.30716e-07
-5.8558e-05 -8.16671e-05 1.82828e-06
-4.30716e-07 1.82828e-06 -0.000188238
0.000978634 -6.75342e-05 -2.09258e-06
-6.75342e-05 7.20084e-05 1.08585e-07
-2.09258e-06 1.08585e-07 -2.56044e-05
0.00104217 -6.34845e-05 -9.97792e-07
-6.34845e-05 0.000111152 3.39236e-07
-9.97792e-07 3.39236e-07 2.44429e-05
0.000963171 -6.53327e-05 -1.8523e-07
-6.53327e-05 6.99118e-05 -6.25078e-08
-1.8523e-07 -6.25078e-08 -2.85102e-05
0.000996343 -3.07561e-05 -3.14862e-07
-3.07561e-05 7.42902e-05 7.92431e-07
-3.14862e-07 7.92431e-07 1.22917e-06
0.00108839 -4.90943e-05 -3.49569e-07
-4.90943e-05 0.000131497 -4.02958e-07
-3.49569e-07 -4.02958e-07 4.82152e-05
0.00085881 -5.21716e-05 -9.10998e-08
-5.21716e-05 3.78525e-05 -1.57873e-06
-9.10998e-08 -1.57873e-06 -4.86491e-05
0.00111083 -2.88541e-05 2.6454e-08
-2.88541e-05 0.000140849 -8.95488e-07
2.6454e-08 -8.95488e-07 6.29046e-05
0.000924015 -1.29644e-05 4.75904e-08
-1.29644e-05 3.38855e-05 -2.64436e-08
4.75904e-08 -2.64436e-08 -3.34461e-05
0.000944125 7.7486e-06 -2.71787e-07
7.7486e-06 3.62012e-05 1.27755e-06
-2.71787e-07 1.27755e-06 -1.58001e-05
0.000979877 -1.00151e-05 1.63883e-07
-1.00151e-05 6.08874e-05 -4.48122e-07
1.63883e-07 -4.48122e-07 -1.20988e-06
0.000932623 8.45259e-06 -1.37646e-07
8.45259e-06 2.89468e-05 -1.10218e-07
-1.37646e-07 -1.10218e-07 -1.84957e-05
0.000888803 1.67905e-05 -9.45077e-07
1.67905e-05 3.24895e-06 1.65867e-06
-9.45077e-07 1.65867e-06 -2.64131e-05
0.000923338 -4.33353e-07 4.83378e-07
-4.33353e-07 2.36371e-05 -9.44652e-07
4.83378e-07 -9.44652e-07 -2.09845e-05
0.000896972 1.27245e-05 -7.30946e-08
1.27245e-05 3.52558e-06 -5.14086e-09
-7.30946e-08 -5.14086e-09 -2.40701e-05
0.00138411 1.98348e-05 -6.04339e-06
1.98348e-05 0.00025287 2.98454e-06
-6.04339e-06 2.98454e-06 0.000254309
0.000904843 3.24635e-06 9.40107e-07
3.24635e-06 4.18971e-06 -1.55238e-06
9.40107e-07 -1.55238e-06 -2.18834e-05
0.00112837 1.55666e-05 -2.53826e-06
1.55666e-05 0.000115187 5.43391e-07
-2.53826e-06 5.43391e-07 0.000116504
0.000987999 1.53373e-05 -1.74248e-06
1.53373e-05 4.23493e-05 1.48264e-06
-1.74248e-06 1.48264e-06 5.93221e-05
0.00085005 1.10674e-05 9.60601e-07
1.10674e-05 -3.32744e-05 -2.97525e-06
9.60601e-07 -2.97525e-06 -3.237e-05
0.00157106 1.34872e-05 4.15965e-06
1.34872e-05 0.000340479 -1.12235e-06
4.15965e-06 -1.12235e-06 0.000361038
0.0021362 1.00499e-05 6.7499e-06
1.00499e-05 0.000631894 -3.77109e-06
6.7499e-06 -3.77109e-06 0.000655489
0.000775225 -4.54949e-07 -3.68668e-07
-4.54949e-07 -5.0482e-05 -1.36977e-06
-3.68668e-07 -1.36977e-06 -9.98936e-05
0.000671347 -7.64724e-06 -2.87637e-07
-7.64724e-06 -0.000116115 -2.08573e-06
-2.87637e-07 -2.08573e-06 -0.000143017
0.00101282 -2.8094e-06 -4.75638e-08
-2.8094e-06 7.04943e-05 3.50664e-08
-4.75638e-08 3.50664e-08 2.63151e-05
0.000865836 -7.45476e-06 -5.79434e-07
-7.45476e-06 -2.7662e-05 -3.02878e-06
-5.79434e-07 -3.02878e-06 -2.53035e-05
0.000791975 -5.06678e-06 3.66035e-08
-5.06678e-06 -5.65374e-05 -7.04898e-09
3.66035e-08 -7.04898e-09 -8.06735e-05
0.000783843 -2.1093e-05 -1.10379e-07
-2.1093e-05 -4.71329e-05 8.27394e-07
-1.10379e-07 8.27394e-07 -8.92913e-05
0.00207473 -4.9538e-06 -4.05664e-06
-4.9538e-06 0.00059835 -3.87678e-06
-4.05664e-06 -3.87678e-06 0.000622956
0.000858824 -3.63862e-06 -1.4297e-07
-3.63862e-06 -3.32413e-05 -1.56747e-08
-1.4297e-07 -1.56747e-08 -2.97087e-05
0.000914981 -3.15974e-06 -4.64772e-08
-3.15974e-06 4.83987e-06 1.62612e-06
-4.64772e-08 1.62612e-06 -1.72882e-05
0.00205882 1.77005e-07 -1.44275e-06
1.77005e-07 0.000589343 2.68298e-10
-1.44275e-06 2.68298e-10 0.00061426
0.000859927 3.65748e-07 -6.67807e-08
3.65748e-07 -3.33892e-05 3.01845e-06
-6.67807e-08 3.01845e-06 -2.94294e-05
0.0020685 5.39028e-06 -3.71859e-06
5.39028e-06 0.000595088 3.83934e-06
-3.71859e-06 3.83934e-06 0.000619763
0.0012508 -1.50682e-05 2.99594e-06
-1.50682e-05 0.000241838 7.69307e-07
2.99594e-06 7.69307e-07 0.000161139
0.00120949 4.60357e-05 1.54826e-06
4.60357e-05 0.000428951 -6.10638e-07
1.54826e-06 -6.10638e-07 0.000465737
0.000683092 8.34027e-06 0.000102864
8.34027e-06 2.67437e-05 -1.67055e-05
0.000102864 -1.67055e-05 -0.000133055
0.000975138 1.85086e-05 -3.32326e-07
1.85086e-05 5.59681e-05 -5.49e-07
-3.32326e-07 -5.49e-07 -8.45168e-06
0.00103165 -1.54645e-06 1.33924e-05
-1.54645e-06 5.8913e-05 3.12795e-06
1.33924e-05 3.12795e-06 -2.44812e-05
0.00109121 8.52595e-06 -7.01499e-06
8.52595e-06 -6.81213e-07 3.31726e-06
-7.01499e-06 3.31726e-06 -2.53007e-05
0.00138248 0.000145711 1.5795e-05
0.000145711 0.000407742 -9.73133e-06
1.5795e-05 -9.73133e-06 0.000689389
0.00213969 8.44183e-05 -3.96408e-05
8.44183e-05 0.00025018 1.42482e-05
-3.96408e-05 1.42482e-05 3.65802e-05
0.00682664 0.000346029 1.58908e-05
0.000346029 0.00239309 -1.11816e-05
1.58908e-05 -1.11816e-05 0.00150883
-0.00156719 0.000263881 5.53328e-05
0.000263881 -0.00119784 -3.18438e-05
5.53328e-05 -3.18438e-05 -0.00107226
0.00233304 0.000156066 7.70483e-06
0.000156066 0.000201551 -1.042e-05
7.70483e-06 -1.042e-05 0.00062488
0.00175971 6.99036e-05 -2.72189e-05
6.99036e-05 -0.000128227 7.05038e-06
-2.72189e-05 7.05038e-06 -0.000429564
0.00516493 0.000248221 2.70915e-05
0.000248221 0.00149529 -1.67946e-05
2.70915e-05 -1.67946e-05 0.000574162
0.00172674 0.000298072 -6.00834e-06
0.000298072 -0.000384708 1.14661e-05
-6.00834e-06 1.14661e-05 -0.000246942
0.00216977 7.34684e-05 -4.8334e-07
7.34684e-05 0.000170212 1.56822e-06
-4.8334e-07 1.56822e-06 0.000405759
0.00379555 -9.68508e-05 1.82406e-05
-9.68508e-05 0.000784994 -3.06634e-05
1.82406e-05 -3.06634e-05 0.000456267
0.00785034 0.000268996 2.67534e-05
0.000268996 0.00230708 -2.67248e-06
2.67534e-05 -2.67248e-06 0.0012091
0.00157148 0.00026481 6.9479e-06
0.00026481 -0.00065706 5.83326e-05
6.9479e-06 5.83326e-05 -0.000641531
0.00261041 3.68112e-05 -1.53637e-07
3.68112e-05 0.000480291 -5.61403e-07
-1.53637e-07 -5.61403e-07 0.000697994
0.000947575 -7.90494e-06 1.87913e-07
-7.90494e-06 4.67341e-05 -4.84286e-07
1.87913e-07 -4.84286e-07 -3.18318e-05
0.00100766 -1.7456e-05 3.33314e-07
-1.7456e-05 8.64738e-05 -3.01004e-08
3.33314e-07 -3.01004e-08 1.11389e-05
0.00106246 3.46187e-05 -5.74954e-07
3.46187e-05 0.000113604 3.90046e-07
-5.74954e-07 3.90046e-07 4.83404e-05
0.00096568 4.28685e-06 -3.0768e-07
4.28685e-06 5.39628e-05 -8.15623e-07
-3.0768e-07 -8.15623e-07 -1.65153e-05
0.00101259 3.18208e-05 -3.74491e-07
3.18208e-05 8.56347e-05 3.57809e-07
-3.74491e-07 3.57809e-07 1.4626e-05
0.00106556 1.52995e-05 3.46815e-07
1.52995e-05 0.000114068 1.30146e-06
3.46815e-07 1.30146e-06 4.94262e-05
0.00111686 4.06117e-05 -3.87882e-07
4.06117e-05 0.000134596 1.01253e-07
-3.87882e-07 1.01253e-07 7.19503e-05
0.00113715 4.15983e-05 7.10609e-07
4.15983e-05 0.000147378 1.19399e-06
7.10609e-07 1.19399e-06 8.72532e-05
0.000944075 -0.000131663 3.8747e-06
-0.000131663 -0.000392122 -4.58078e-06
3.8747e-06 -4.58078e-06 -0.000377734
0.00129737 -0.000133992 -2.26522e-07
-0.000133992 0.000203003 2.38819e-06
-2.26522e-07 2.38819e-06 1.6627e-05
0.000977972 -6.76026e-05 -1.45972e-06
-6.76026e-05 7.30582e-05 6.75679e-07
-1.45972e-06 6.75679e-07 -6.93212e-06
0.00141793 -2.72341e-05 4.73746e-07
-2.72341e-05 0.00031327 -2.06421e-07
4.73746e-07 -2.06421e-07 0.000174627
0.00126029 -3.18547e-05 -9.61093e-07
-3.18547e-05 0.000196276 1.53469e-07
-9.61093e-07 1.53469e-07 0.000101716
0.00111445 1.41485e-06 -5.01844e-07
1.41485e-06 0.000134632 -5.12381e-07
-5.01844e-07 -5.12381e-07 5.12583e-05
0.00104229 2.30336e-05 8.00057e-08
2.30336e-05 9.33301e-05 1.90568e-07
8.00057e-08 1.90568e-07 1.0693e-05
0.00149248 -0.000173699 -2.80267e-06
-0.000173699 4.54224e-05 -6.03147e-07
-2.80267e-06 -6.03147e-07 5.69456e-05
0.00104765 1.08176e-05 6.33388e-09
1.08176e-05 8.72109e-05 -7.06368e-07
6.33388e-09 -7.06368e-07 -4.93041e-06
0.00110258 3.47051e-06 -5.02847e-07
3.47051e-06 0.000125101 1.46947e-07
-5.02847e-07 1.46947e-07 1.79892e-05
0.00108594 -3.9297e-05 -3.88622e-07
-3.9297e-05 0.000210923 3.47457e-07
-3.88622e-07 3.47457e-07 -2.18966e-05
0.00116709 2.19148e-05 6.32468e-08
2.19148e-05 0.000145976 3.78983e-08
6.32468e-08 3.78983e-08 6.67509e-05
-0.000258825 -0.000147595 -2.11159e-05
-0.000147595 -0.000489888 -7.53734e-06
-2.11159e-05 -7.53734e-06 -0.000591478
0.00140355 5.19568e-05 -5.50472e-06
5.19568e-05 0.000409312 7.58505e-06
-5.50472e-06 7.58505e-06 0.000222577
0.000831415 1.71162e-05 -7.5112e-07
1.71162e-05 -3.38813e-05 1.45948e-06
-7.5112e-07 1.45948e-06 -0.000119478
0.00113731 6.09261e-05 -4.0316e-07
6.09261e-05 0.000134995 7.65733e-08
-4.0316e-07 7.65733e-08 4.81836e-05
0.00141769 -2.00274e-06 1.85439e-05
-2.00274e-06 0.000359211 -6.89172e-08
1.85439e-05 -6.89172e-08 0.000244295
0.0015384 -5.68642e-06 6.46185e-07
-5.68642e-06 0.000452088 3.5696e-07
6.46185e-07 3.5696e-07 0.000374374
-0.00109042 -9.00939e-06 1.06024e-05
-9.00939e-06 -0.000866322 8.27053e-07
1.06024e-05 8.27053e-07 -0.000924058
0.000502056 4.9342e-05 3.11679e-06
4.9342e-05 -0.000135508 6.90499e-07
3.11679e-06 6.90499e-07 -0.000207742
-0.000797742 1.45859e-05 -6.69827e-06
1.45859e-05 -0.000569752 1.71419e-06
-6.69827e-06 1.71419e-06 -0.000739916
0.000638735 1.42571e-05 -7.26786e-06
1.42571e-05 -7.63069e-05 -2.02496e-06
-7.26786e-06 -2.02496e-06 -0.000138757
0.00425503 -0.00034914 4.88617e-05
-0.00034914 0.000832961 1.4942e-05
4.88617e-05 1.4942e-05 -0.000257791
0.00423986 0.000271968 -2.36367e-05
0.000271968 0.00116847 -7.32851e-05
-2.36367e-05 -7.32851e-05 0.000687684
0.00260912 -0.000287824 1.2836e-05
-0.000287824 -0.000270743 0.000100931
1.2836e-05 0.000100931 -0.000137053
0.00105382 1.38351e-05 -1.59374e-05
1.38351e-05 7.17296e-05 -5.74576e-06
-1.59374e-05 -5.74576e-06 -1.3324e-05
0.00072737 2.01371e-07 -1.0287e-06
2.01371e-07 -0.00048838 -9.60681e-07
-1.0287e-06 -9.60681e-07 -0.000408637
0.00100554 4.64567e-05 -1.46053e-06
4.64567e-05 0.000158306 -5.68472e-07
-1.46053e-06 -5.68472e-07 8.90748e-05
0.00101883 1.20196e-05 2.02272e-06
1.20196e-05 9.66611e-05 2.95989e-06
2.02272e-06 2.95989e-06 -1.20061e-05
0.00121879 -5.4352e-06 -6.55999e-06
-5.4352e-06 0.000192415 2.21743e-06
-6.55999e-06 2.21743e-06 7.16058e-05
-0.000176739 6.57976e-05 7.6445e-06
6.57976e-05 -8.09755e-05 -2.99387e-06
7.6445e-06 -2.99387e-06 -0.000209094
0.00210682 5.97805e-05 2.37829e-07
5.97805e-05 0.000205754 -2.23519e-06
2.37829e-07 -2.23519e-06 0.000390687
0.00536514 0.000104034 2.6108e-05
0.000104034 0.000523844 -2.98606e-06
2.6108e-05 -2.98606e-06 8.48263e-05
0.00324089 4.44809e-05 -3.25307e-05
4.44809e-05 0.000168719 -5.10712e-06
-3.25307e-05 -5.10712e-06 0.000382288
0.000789004 6.74328e-05 1.26537e-06
6.74328e-05 0.000188879 -8.86882e-06
1.26537e-06 -8.86882e-06 9.2486e-05
0.00140716 -4.3922e-06 1.6915e-06
-4.3922e-06 0.000259894 4.21963e-06
1.6915e-06 4.21963e-06 0.000128768
0.00094718 -1.39658e-05 -1.26427e-05
-1.39658e-05 1.35125e-06 -2.37209e-06
-1.26427e-05 -2.37209e-06 -9.01401e-05
0.00221846 0.000160125 1.31111e-05
0.000160125 0.000162171 -8.92753e-06
1.31111e-05 -8.92753e-06 0.000542916
0.00151079 0.000293872 -6.77531e-06
0.000293872 -0.000647748 -5.9204e-05
-6.77531e-06 -5.9204e-05 -0.0006458
0.00165082 0.00016158 1.19412e-05
0.00016158 0.000619057 -2.21806e-06
1.19412e-05 -2.21806e-06 0.000676758
0.00349828 -0.000162188 5.58938e-05
-0.000162188 0.000107362 1.54953e-05
5.58938e-05 1.54953e-05 -0.000498363
0.00121761 6.16797e-05 -1.0264e-06
6.16797e-05 0.000165307 4.16852e-06
-1.0264e-06 4.16852e-06 7.07603e-05
0.00127227 3.15043e-05 -2.95916e-07
3.15043e-05 0.000202641 1.38118e-06
-2.95916e-07 1.38118e-06 0.000121536
0.000203374 -2.15819e-05 1.39206e-06
-2.15819e-05 -0.000141332 -6.73891e-06
1.39206e-06 -6.73891e-06 -0.00031221
0.00114314 2.10107e-05 -5.0128e-07
2.10107e-05 0.000133828 -5.12694e-07
-5.0128e-07 -5.12694e-07 6.50782e-05
0.000956923 -4.22567e-05 -1.69456e-07
-4.22567e-05 3.76037e-05 4.16873e-07
-1.69456e-07 4.16873e-07 -4.54899e-05
0.000959772 -3.36385e-05 1.06113e-07
-3.36385e-05 5.85606e-05 2.31323e-06
1.06113e-07 2.31323e-06 -3.4548e-05
0.00102404 -3.51191e-05 -1.953e-08
-3.51191e-05 6.32756e-05 7.04225e-08
-1.953e-08 7.04225e-08 -1.3621e-05
0.000816324 -2.38899e-05 -8.36715e-07
-2.38899e-05 -6.92005e-06 1.59144e-06
-8.36715e-07 1.59144e-06 -7.9252e-05
0.000781778 -4.38347e-05 1.45489e-06
-4.38347e-05 2.52072e-05 -1.82287e-07
1.45489e-06 -1.82287e-07 -9.61659e-05
0.000980225 -1.33991e-05 -2.01194e-08
-1.33991e-05 4.29289e-05 -2.673e-07
-2.01194e-08 -2.673e-07 -3.08224e-05
0.0010184 3.79808e-06 -1.21677e-07
3.79808e-06 7.01748e-05 4.62393e-08
-1.21677e-07 4.62393e-08 -5.06756e-06
0.00115683 -5.26824e-05 -2.59279e-08
-5.26824e-05 0.00015342 3.30241e-07
-2.59279e-08 3.30241e-07 6.7071e-05
0.00100209 -6.60434e-05 3.54639e-07
-6.60434e-05 0.000126543 1.1779e-06
3.54639e-07 1.1779e-06 6.48161e-06
0.00093432 -4.44269e-05 -6.72586e-07
-4.44269e-05 4.97655e-05 -8.46725e-07
-6.72586e-07 -8.46725e-07 -3.55762e-05
0.000809137 -5.62594e-05 6.70834e-07
-5.62594e-05 4.30207e-06 -1.31031e-07
6.70834e-07 -1.31031e-07 -9.89844e-05
0.00107484 -7.51183e-05 1.01278e-06
-7.51183e-05 0.000133536 5.25164e-07
1.01278e-06 5.25164e-07 1.18956e-05
0.00115922 -8.03378e-05 -2.43867e-06
-8.03378e-05 0.000128871 1.9358e-06
-2.43867e-06 1.9358e-06 1.98008e-05
0.00130446 -6.33859e-05 -9.62558e-08
-6.33859e-05 0.000245187 -3.66349e-07
-9.62558e-08 -3.66349e-07 0.000152509
0.000846174 -6.48698e-05 -4.17247e-07
-6.48698e-05 5.71111e-06 5.65354e-08
-4.17247e-07 5.65354e-08 -0.000102982
0.00129213 -7.92672e-05 8.43225e-09
-7.92672e-05 0.000222212 -4.21906e-07
8.43225e-09 -4.21906e-07 0.000130372
0.000793409 -5.64548e-05 -1.1581e-06
-5.64548e-05 -8.45266e-06 -9.45976e-08
-1.1581e-06 -9.45976e-08 -9.77193e-05
0.000985423 -6.74857e-05 3.34477e-07
-6.74857e-05 7.46773e-05 2.33288e-08
3.34477e-07 2.33288e-08 -2.12433e-05
0.0010165 -3.88405e-05 -9.01978e-07
-3.88405e-05 8.85253e-05 4.32208e-07
-9.01978e-07 4.32208e-07 1.26955e-05
0.00107532 -6.29195e-05 -1.01563e-06
-6.29195e-05 0.000125842 6.85917e-07
-1.01563e-06 6.85917e-07 3.92421e-05
0.000853064 -6.12362e-05 -1.01511e-07
-6.12362e-05 1.78058e-05 -8.16018e-07
-1.01511e-07 -8.16018e-07 -8.03245e-05
0.000970801 1.82309e-06 -6.62391e-07
1.82309e-06 5.28039e-05 1.31724e-06
-6.62391e-07 1.31724e-06 -4.72322e-06
0.00095315 -2.90844e-05 2.99957e-07
-2.90844e-05 5.13669e-05 1.31597e-07
2.99957e-07 1.31597e-07 -2.16997e-05
0.00106154 -5.02078e-05 1.36427e-06
-5.02078e-05 0.000117924 -8.39317e-07
1.36427e-06 -8.39317e-07 3.38389e-05
0.000994082 -1.38793e-05 2.49113e-07
-1.38793e-05 6.98124e-05 -9.20703e-07
2.49113e-07 -9.20703e-07 3.49066e-06
0.000940424 7.54032e-06 1.06421e-07
7.54032e-06 3.43513e-05 -8.2531e-08
1.06421e-07 -8.2531e-08 -1.76774e-05
0.000886806 1.95164e-05 -1.02219e-06
1.95164e-05 6.81525e-06 1.82977e-06
-1.02219e-06 1.82977e-06 -2.59729e-05
0.000929904 4.70601e-06 2.43576e-07
4.70601e-06 2.80416e-05 -1.14181e-06
2.43576e-07 -1.14181e-06 -1.95454e-05
0.000888585 1.78631e-05 2.88045e-08
1.78631e-05 3.02242e-06 -2.64517e-08
2.88045e-08 -2.64517e-08 -2.67342e-05
0.00080849 2.05603e-05 -1.80959e-06
2.05603e-05 -3.99873e-05 3.15347e-06
-1.80959e-06 3.15347e-06 -4.32324e-05
0.000897888 1.11514e-05 8.25012e-07
1.11514e-05 3.58609e-06 -1.6263e-06
8.25012e-07 -1.6263e-06 -2.39529e-05
0.000830294 1.77567e-05 1.366e-07
1.77567e-05 -3.45232e-05 3.26919e-09
1.366e-07 3.26919e-09 -3.60499e-05
0.00211301 2.70417e-05 -4.47827e-06
2.70417e-05 0.000631394 1.5174e-06
-4.47827e-06 1.5174e-06 0.000652612
0.000849638 1.45902e-05 1.27065e-06
1.45902e-05 -2.9743e-05 -3.01503e-06
1.27065e-06 -3.01503e-06 -2.97947e-05
0.00157145 1.79214e-05 5.1432e-06
1.79214e-05 0.000344673 -1.094e-06
5.1432e-06 -1.094e-06 0.000364444
0.00213538 1.50687e-05 9.47167e-06
1.50687e-05 0.00063443 -3.72666e-06
9.47167e-06 -3.72666e-06 0.000657508
0.000785057 -1.16489e-05 -7.42562e-08
-1.16489e-05 -4.91513e-05 -1.39218e-06
-7.42562e-08 -1.39218e-06 -9.9816e-05
0.000644333 -9.82806e-06 -4.74703e-07
-9.82806e-06 -0.000127306 -2.19377e-06
-4.74703e-07 -2.19377e-06 -0.000157369
0.000908942 -1.7249e-06 -1.6592e-07
-1.7249e-06 1.7569e-05 -5.10571e-07
-1.6592e-07 -5.10571e-07 -3.11443e-05
0.000864675 -1.12088e-05 -7.73871e-07
-1.12088e-05 -2.51661e-05 -3.09908e-06
-7.73871e-07 -3.09908e-06 -2.44972e-05
0.000662731 -7.82886e-06 -5.45475e-08
-7.82886e-06 -0.000120354 -5.92623e-07
-5.45475e-08 -5.92623e-07 -0.000147596
0.00102419 2.64291e-07 1.12888e-08
2.64291e-07 7.70457e-05 8.68388e-07
1.12888e-08 8.68388e-07 3.22189e-05
0.00210126 -9.945e-06 -7.00557e-06
-9.945e-06 0.000613919 -3.8928e-06
-7.00557e-06 -3.8928e-06 0.000637887
0.000855974 -7.35878e-06 -1.0679e-07
-7.35878e-06 -3.27616e-05 -1.76501e-08
-1.0679e-07 -1.76501e-08 -3.03169e-05
0.000665041 -5.4815e-06 9.68333e-08
-5.4815e-06 -0.000121128 1.50303e-06
9.68333e-08 1.50303e-06 -0.000146127
0.00207103 -4.78651e-06 -1.52653e-06
-4.78651e-06 0.000596254 9.41264e-09
-1.52653e-06 9.41264e-09 0.000620941
0.00085336 -3.51836e-06 1.27223e-07
-3.51836e-06 -3.61561e-05 3.02435e-06
1.27223e-07 3.02435e-06 -3.25611e-05
0.0020599 3.85044e-07 -6.07201e-07
3.85044e-07 0.000589891 3.84618e-06
-6.07201e-07 3.84618e-06 0.000614806
0.00120265 -1.42722e-05 1.86395e-05
-1.42722e-05 0.000205685 -2.58338e-06
1.86395e-05 -2.58338e-06 9.41933e-05
0.00125645 -1.55744e-05 -6.44968e-06
-1.55744e-05 0.00024835 7.03648e-07
-6.44968e-06 7.03648e-07 0.000170266
0.00109623 2.48566e-05 1.34658e-05
2.48566e-05 0.000384352 9.47513e-07
1.34658e-05 9.47513e-07 0.000382463
0.00100768 2.44762e-05 5.45673e-08
2.44762e-05 7.22218e-05 7.25417e-08
5.45673e-08 7.25417e-08 8.5688e-06
0.000922951 8.47946e-06 -1.58948e-07
8.47946e-06 2.27412e-05 -4.62165e-07
-1.58948e-07 -4.62165e-07 -4.14554e-05
0.00109573 3.30072e-05 -2.96998e-07
3.30072e-05 0.000120436 1.15841e-07
-2.96998e-07 1.15841e-07 4.9375e-05
0.0011954 1.1566e-05 7.40914e-06
1.1566e-05 0.000145019 1.14874e-06
7.40914e-06 1.14874e-06 3.46617e-05
0.0011224 -5.70234e-06 -7.56396e-07
-5.70234e-06 0.000143795 1.49515e-07
-7.56396e-07 1.49515e-07 5.67495e-05
0.001195 2.11506e-06 -7.482e-06
2.11506e-06 9.72297e-05 -3.23183e-06
-7.482e-06 -3.23183e-06 4.5863e-05
0.000891309 5.84154e-05 -3.72346e-05
5.84154e-05 -0.000520089 1.15513e-05
-3.72346e-05 1.15513e-05 -0.000656884
0.00242844 0.000218804 1.00082e-05
0.000218804 0.000431444 -1.34882e-05
1.00082e-05 -1.34882e-05 -0.000607147
0.00413182 0.000390709 4.39266e-05
0.000390709 0.000956693 -2.81003e-05
4.39266e-05 -2.81003e-05 0.00104245
0.000896018 5.33787e-05 1.15798e-06
5.33787e-05 -0.000593294 -6.6291e-06
1.15798e-06 -6.6291e-06 -0.000375059
0.0013221 -5.88947e-05 -8.13521e-06
-5.88947e-05 -0.000223056 8.0873e-06
-8.13521e-06 8.0873e-06 -0.00027375
0.00496261 0.000107153 3.2694e-05
0.000107153 0.00104306 -4.00831e-05
3.2694e-05 -4.00831e-05 -2.97124e-06
0.000988174 0.000134474 -4.84001e-06
0.000134474 -0.000752308 1.21594e-05
-4.84001e-06 1.21594e-05 -0.000541871
0.00160066 2.40372e-05 4.80489e-07
2.40372e-05 -7.78088e-05 5.70161e-06
4.80489e-07 5.70161e-06 9.44957e-05
0.00350537 -0.00027992 1.31003e-05
-0.00027992 0.000597646 -5.74889e-05
1.31003e-05 -5.74889e-05 0.000500939
0.00841331 0.000155741 2.95824e-05
0.000155741 0.00241329 -2.92437e-05
2.95824e-05 -2.92437e-05 0.00167216
0.0003558 3.58093e-06 4.7752e-06
3.58093e-06 -0.00110998 6.08296e-05
4.7752e-06 6.08296e-05 -0.000820021
0.00051852 -2.99251e-05 -8.27534e-07
-2.99251e-05 -0.000710761 5.22263e-06
-8.27534e-07 5.22263e-06 -0.000511211
0.00104308 3.33431e-06 -7.29849e-08
3.33431e-06 8.78733e-05 7.6043e-08
-7.29849e-08 7.6043e-08 9.84339e-06
0.000958176 -6.06153e-06 -1.11948e-07
-6.06153e-06 5.36599e-05 -1.9869e-07
-1.11948e-07 -1.9869e-07 -2.5522e-05
0.0010072 -2.61542e-05 -2.59602e-07
-2.61542e-05 8.57159e-05 4.73229e-07
-2.59602e-07 4.73229e-07 1.02353e-05
0.000974511 1.67838e-05 -4.11936e-07
1.67838e-05 5.86734e-05 -5.80529e-07
-4.11936e-07 -5.80529e-07 -1.21157e-05
0.0010993 5.90652e-05 1.15452e-06
5.90652e-05 0.000130103 7.6326e-07
1.15452e-06 7.6326e-07 6.00852e-05
0.00116486 4.06719e-05 1.57885e-07
4.06719e-05 0.000158805 6.44992e-07
1.57885e-07 6.44992e-07 9.63309e-05
0.00313053 -0.000216313 4.4236e-06
-0.000216313 0.000860153 1.35807e-07
4.4236e-06 1.35807e-07 0.000853855
0.000419357 -2.0455e-05 1.93617e-06
-2.0455e-05 -0.000108023 2.4752e-06
1.93617e-06 2.4752e-06 -0.000356293
0.00111499 3.24637e-05 5.07313e-07
3.24637e-05 0.000131624 3.32759e-07
5.07313e-07 3.32759e-07 4.84046e-05
0.00126101 -2.99842e-05 8.71314e-07
-2.99842e-05 0.000209465 -1.11267e-06
8.71314e-07 -1.11267e-06 9.61549e-05
0.00113251 7.57515e-07 2.0931e-07
7.57515e-07 0.000133031 -7.28736e-07
2.0931e-07 -7.28736e-07 4.2459e-05
0.00106356 1.0901e-05 4.96497e-07
1.0901e-05 9.16854e-05 3.51109e-08
4.96497e-07 3.51109e-08 1.30999e-05
0.00108384 3.49823e-05 2.87113e-07
3.49823e-05 0.000106019 -2.46196e-07
2.87113e-07 -2.46196e-07 2.02908e-05
0.000811473 -0.000148611 -3.81377e-06
-0.000148611 -9.76558e-07 2.83361e-06
-3.81377e-06 2.83361e-06 -7.32132e-05
0.00116318 -6.85991e-06 6.51713e-07
-6.85991e-06 0.000130784 -1.09987e-06
6.51713e-07 -1.09987e-06 4.63349e-05
0.00112243 4.59605e-05 -1.54822e-06
4.59605e-05 0.000313917 -1.03759e-06
-1.54822e-06 -1.03759e-06 0.000137012
0.000949772 -9.00475e-07 5.39279e-07
-9.00475e-07 3.49186e-05 -8.28857e-07
5.39279e-07 -8.28857e-07 -4.32142e-05
-0.000502816 -3.60337e-05 7.48844e-07
-3.60337e-05 -0.000287095 -8.96169e-06
7.48844e-07 -8.96169e-06 -0.000509989
0.000102072 8.2796e-06 -3.4661e-06
8.2796e-06 -0.000262276 1.58827e-05
-3.4661e-06 1.58827e-05 -0.000302456
0.00104721 -1.06003e-05 1.43579e-08
-1.06003e-05 7.5887e-05 3.6105e-07
1.43579e-08 3.6105e-07 -7.91098e-06
0.00140273 -2.00274e-06 1.71194e-07
-2.00274e-06 0.000264913 5.538e-07
1.71194e-07 5.538e-07 0.000123837
0.00114626 -2.56398e-06 6.89848e-06
-2.56398e-06 0.000176985 5.86559e-07
6.89848e-06 5.86559e-07 5.50652e-05
0.00135718 -5.59791e-06 -9.36661e-06
-5.59791e-06 0.000330344 1.21526e-06
-9.36661e-06 1.21526e-06 0.000246417
0.00113676 6.41443e-05 3.69859e-06
6.41443e-05 0.00021913 3.94691e-06
3.69859e-06 3.94691e-06 0.000143327
0.00033317 9.26649e-05 9.81824e-06
9.26649e-05 4.56221e-05 -1.52716e-05
9.81824e-06 -1.52716e-05 -6.89273e-05
0.00106067 1.04311e-05 -1.48395e-05
1.04311e-05 0.000129226 -1.7229e-06
-1.48395e-05 -1.7229e-06 2.01867e-05
0.00346609 5.68473e-06 -1.81286e-05
5.68473e-06 0.000212046 -8.37676e-06
-1.81286e-05 -8.37676e-06 -0.000179115
-0.000638304 2.93583e-05 -3.82964e-06
2.93583e-05 -0.0016137 7.19378e-05
-3.82964e-06 7.19378e-05 -0.00136635
0.000982576 -6.51691e-06 -5.53179e-06
-6.51691e-06 7.87231e-05 -3.67048e-06
-5.53179e-06 -3.67048e-06 -5.07936e-05
0.000913519 3.94969e-05 -1.01858e-06
3.94969e-05 -0.00050646 4.21972e-06
-1.01858e-06 4.21972e-06 -0.000343818
0.000595489 4.1277e-05 -3.36447e-06
4.1277e-05 7.26417e-05 -1.04563e-06
-3.36447e-06 -1.04563e-06 -1.97342e-05
0.00123902 -4.65901e-06 -1.6391e-06
-4.65901e-06 0.000154841 2.09609e-06
-1.6391e-06 2.09609e-06 2.07435e-05
0.00113678 -1.82417e-05 6.86247e-07
-1.82417e-05 0.000152004 2.31363e-07
6.86247e-07 2.31363e-07 5.70502e-05
0.00134792 0.000200876 3.77706e-05
0.000200876 0.000136243 1.75555e-06
3.77706e-05 1.75555e-06 7.22304e-05
0.00178004 0.00015031 2.30463e-06
0.00015031 -0.000107582 -2.43223e-06
2.30463e-06 -2.43223e-06 0.00028069
0.000782668 0.000157484 4.76167e-06
0.000157484 -0.000810865 -1.31146e-05
4.76167e-06 -1.31146e-05 -0.000621396
0.00693911 2.38995e-05 6.59823e-06
2.38995e-05 0.00175181 -1.75041e-05
6.59823e-06 -1.75041e-05 0.00127093
-0.000201294 1.24428e-05 -2.67548e-05
1.24428e-05 6.61902e-05 -1.28062e-05
-2.67548e-05 -1.28062e-05 -9.06729e-05
0.00122773 -2.01015e-05 -1.80415e-05
-2.01015e-05 0.000223145 2.854e-06
-1.80415e-05 2.854e-06 0.000106064
0.000926221 8.76287e-06 5.14356e-06
8.76287e-06 -0.000119776 -6.84342e-06
5.14356e-06 -6.84342e-06 -0.000144048
0.00143911 0.000259927 1.09643e-05
0.000259927 0.000182856 -3.08135e-06
1.09643e-05 -3.08135e-06 0.000692726
-0.00308096 0.000268848 5.10747e-05
0.000268848 -0.00229211 -3.69352e-05
5.10747e-05 -3.69352e-05 -0.0022475
0.00804697 0.000220723 8.09926e-06
0.000220723 0.00223367 -2.59887e-05
8.09926e-06 -2.59887e-05 0.00125612
0.00117096 -3.11694e-05 -2.74809e-05
-3.11694e-05 5.30238e-05 9.82665e-05
-2.74809e-05 9.82665e-05 -0.000146171
0.00101371 1.29931e-05 2.57902e-06
1.29931e-05 7.23334e-05 6.16945e-06
2.57902e-06 6.16945e-06 -3.75997e-06
0.000257866 -2.08563e-05 1.05589e-06
-2.08563e-05 -0.000114994 -1.10977e-06
1.05589e-06 -1.10977e-06 -0.000296625
0.000395293 -4.64561e-05 3.38668e-06
-4.64561e-05 6.17022e-05 -4.72194e-06
3.38668e-06 -4.72194e-06 -0.000187536
0.000976672 -4.17553e-05 1.77745e-07
-4.17553e-05 4.08759e-05 -5.36442e-07
1.77745e-07 -5.36442e-07 -3.67184e-05
0.000763472 -3.09912e-05 -2.65303e-07
-3.09912e-05 -4.20719e-05 3.75244e-06
-2.65303e-07 3.75244e-06 -0.000113956
0.000744303 -2.40759e-05 -1.11374e-07
-2.40759e-05 9.11662e-06 4.05727e-07
-1.11374e-07 4.05727e-07 -0.000103516
0.000850674 -7.97284e-05 1.66607e-06
-7.97284e-05 0.000111697 -1.11187e-06
1.66607e-06 -1.11187e-06 -8.55825e-05
0.00132249 -5.65773e-05 -4.954e-07
-5.65773e-05 0.000232329 -1.12335e-07
-4.954e-07 -1.12335e-07 0.000144261
0.00127346 -7.91894e-05 2.27647e-07
-7.91894e-05 0.000249362 2.37406e-07
2.27647e-07 2.37406e-07 0.000126695
0.00104782 -7.96194e-05 2.2451e-06
-7.96194e-05 0.000150299 1.48766e-06
2.2451e-06 1.48766e-06 -1.41409e-05
0.000534879 -4.57627e-05 -1.8475e-07
-4.57627e-05 -0.000131211 -1.41258e-06
-1.8475e-07 -1.41258e-06 -0.000230794
0.00106655 -7.45032e-05 -4.09661e-07
-7.45032e-05 0.000128273 1.42832e-08
-4.09661e-07 1.42832e-08 4.14644e-06
0.00169123 -0.000106097 -8.83365e-07
-0.000106097 0.000395792 1.68759e-06
-8.83365e-07 1.68759e-06 0.00026256
0.00138134 -9.42359e-05 -2.49833e-06
-9.42359e-05 0.000214699 2.76613e-06
-2.49833e-06 2.76613e-06 9.55025e-05
0.000804844 -6.64138e-05 -6.71288e-07
-6.64138e-05 -3.74837e-05 1.65683e-06
-6.71288e-07 1.65683e-06 -0.000132862
0.00111523 -7.94214e-05 -8.03726e-07
-7.94214e-05 0.000108204 6.015e-07
-8.03726e-07 6.015e-07 -2.57259e-06
0.00102551 -7.12079e-05 -3.83994e-07
-7.12079e-05 9.26526e-05 -6.41101e-07
-3.83994e-07 -6.41101e-07 -1.81451e-05
0.00121772 -7.4498e-05 4.87089e-07
-7.4498e-05 0.000186477 -9.6085e-07
4.87089e-07 -9.6085e-07 0.000100077
0.00110315 -7.24887e-05 1.39905e-06
-7.24887e-05 0.000129347 -6.068e-07
1.39905e-06 -6.068e-07 3.98284e-05
0.000859926 -4.34717e-05 -5.47973e-07
-4.34717e-05 1.76592e-05 6.8468e-07
-5.47973e-07 6.8468e-07 -6.34342e-05
0.00092916 -5.99694e-05 2.69936e-07
-5.99694e-05 5.84858e-05 -1.13035e-07
2.69936e-07 -1.13035e-07 -2.99374e-05
0.00100444 -6.78286e-05 3.04483e-06
-6.78286e-05 8.33931e-05 -1.27056e-06
3.04483e-06 -1.27056e-06 -1.08534e-05
0.000956159 3.99495e-06 -1.00049e-06
3.99495e-06 4.91797e-05 1.19092e-06
-1.00049e-06 1.19092e-06 -1.35777e-05
0.00103549 -4.15017e-05 -1.79585e-07
-4.15017e-05 9.74715e-05 -1.32191e-08
-1.79585e-07 -1.32191e-08 2.15584e-05
0.00110236 -6.34386e-05 3.39163e-07
-6.34386e-05 0.000137806 -5.3765e-08
3.39163e-07 -5.3765e-08 5.11872e-05
0.000878746 1.88814e-05 -1.28352e-06
1.88814e-05 7.24358e-06 2.03932e-06
-1.28352e-06 2.03932e-06 -2.96683e-05
0.000953338 1.06001e-06 1.41173e-07
1.06001e-06 4.35014e-05 3.62388e-09
1.41173e-07 3.62388e-09 -1.37207e-05
0.000916088 -2.83825e-05 1.00203e-06
-2.83825e-05 3.15973e-05 -5.38898e-07
1.00203e-06 -5.38898e-07 -4.15418e-05
0.000939129 6.81957e-06 5.78885e-07
6.81957e-06 3.37371e-05 -1.29821e-06
5.78885e-07 -1.29821e-06 -1.83032e-05
0.000880871 2.15295e-05 1.49685e-07
2.15295e-05 3.99316e-06 -4.28218e-08
1.49685e-07 -4.28218e-08 -2.89751e-05
0.000793905 2.34224e-05 -2.17547e-06
2.34224e-05 -4.07445e-05 3.23394e-06
-2.17547e-06 3.23394e-06 -4.63617e-05
0.000888051 1.9069e-05 7.55282e-07
1.9069e-05 2.58833e-06 -1.81805e-06
7.55282e-07 -1.81805e-06 -2.7247e-05
0.000826684 2.08302e-05 9.70985e-08
2.08302e-05 -3.08779e-05 -1.8733e-08
9.70985e-08 -1.8733e-08 -3.42008e-05
0.00218844 2.92087e-05 -1.57227e-05
2.92087e-05 0.000675278 3.61743e-06
-1.57227e-05 3.61743e-06 0.000695341
0.000849049 1.79225e-05 1.64703e-06
1.79225e-05 -2.52664e-05 -3.07191e-06
1.64703e-06 -3.07191e-06 -2.67895e-05
0.00157835 2.23401e-05 6.11121e-06
2.23401e-05 0.000353812 -1.054e-06
6.11121e-06 -1.054e-06 0.000372291
0.0021425 1.99408e-05 1.2072e-05
1.99408e-05 0.000642157 -3.70466e-06
1.2072e-05 -3.70466e-06 0.00066441
0.000931795 1.73859e-05 -6.69188e-07
1.73859e-05 2.62952e-05 -9.75606e-07
-6.69188e-07 -9.75606e-07 -2.60946e-05
0.000881953 -1.22003e-05 -7.12969e-07
-1.22003e-05 -4.05213e-06 -1.72562e-06
-7.12969e-07 -1.72562e-06 -3.50523e-05
0.000850602 9.8088e-06 -5.98698e-07
9.8088e-06 -1.31987e-05 -5.30876e-07
-5.98698e-07 -5.30876e-07 -6.43982e-05
0.000858365 -1.47929e-05 -9.6476e-07
-1.47929e-05 -2.40351e-05 -3.2146e-06
-9.6476e-07 -3.2146e-06 -2.55913e-05
0.00077368 -1.00431e-05 -2.04547e-07
-1.00431e-05 -6.0948e-05 -5.99159e-07
-2.04547e-07 -5.99159e-07 -9.04564e-05
0.00104541 -2.75847e-06 1.28717e-07
-2.75847e-06 8.70774e-05 3.92667e-07
1.28717e-07 3.92667e-07 3.90601e-05
0.00214598 -1.50019e-05 -9.75015e-06
-1.50019e-05 0.000639995 -3.92028e-06
-9.75015e-06 -3.92028e-06 0.000662953
0.000849961 -1.10678e-05 -1.01079e-07
-1.10678e-05 -3.26511e-05 -2.1091e-08
-1.01079e-07 -2.1091e-08 -3.18775e-05
0.000656485 -7.96286e-06 7.40459e-08
-7.96286e-06 -0.000123404 9.80332e-07
7.40459e-08 9.80332e-07 -0.000150986
0.00210038 -9.77362e-06 -1.36405e-06
-9.77362e-06 0.000613171 2.12095e-08
-1.36405e-06 2.12095e-08 0.000637239
0.000844861 -7.25973e-06 4.3368e-07
-7.25973e-06 -3.84937e-05 3.03137e-06
4.3368e-07 3.03137e-06 -3.59614e-05
0.00206852 -4.61299e-06 2.51442e-06
-4.61299e-06 0.000594752 3.84033e-06
2.51442e-06 3.84033e-06 0.000619511
0.00125279 1.558e-06 -1.15953e-06
1.558e-06 0.000168849 -3.79423e-06
-1.15953e-06 -3.79423e-06 3.46445e-05
0.00126767 -1.34153e-05 3.70595e-06
-1.34153e-05 0.000248382 -4.61679e-07
3.70595e-06 -4.61679e-07 0.000137771
0.00129729 -1.63896e-05 -1.51638e-05
-1.63896e-05 0.00027573 6.17218e-06
-1.51638e-05 6.17218e-06 0.000201433
0.000915564 -4.95861e-06 -6.31817e-08
-4.95861e-06 1.63988e-05 -6.56557e-07
-6.31817e-08 -6.56557e-07 -4.82716e-05
0.00108379 1.4959e-05 -1.48158e-07
1.4959e-05 0.000106431 -4.20353e-07
-1.48158e-07 -4.20353e-07 3.46969e-05
0.00104079 2.75038e-05 1.164e-06
2.75038e-05 8.88435e-05 5.82403e-07
1.164e-06 5.82403e-07 2.59735e-05
0.000909229 3.70336e-06 4.94237e-09
3.70336e-06 1.5239e-05 2.55282e-08
4.94237e-09 2.55282e-08 -4.85882e-05
0.00102778 1.79752e-05 1.56081e-07
1.79752e-05 8.31527e-05 3.43898e-07
1.56081e-07 3.43898e-07 1.23587e-05
0.0010154 2.04799e-05 -4.60824e-07
2.04799e-05 7.44884e-05 -2.1634e-07
-4.60824e-07 -2.1634e-07 3.41548e-06
0.00101073 6.12767e-05 -1.44439e-07
6.12767e-05 7.86719e-05 3.35933e-07
-1.44439e-07 3.35933e-07 3.83359e-07
0.00106652 2.65684e-05 -1.01161e-05
2.65684e-05 0.00010553 3.31569e-06
-1.01161e-05 3.31569e-06 1.14235e-05
0.00109052 1.05467e-05 4.28846e-06
1.05467e-05 0.000117534 -4.60804e-06
4.28846e-06 -4.60804e-06 -3.70714e-06
0.00115882 -1.00664e-05 -1.42021e-05
-1.00664e-05 0.000191359 3.82989e-06
-1.42021e-05 3.82989e-06 0.00010199
0.000651016 1.54472e-05 6.42224e-06
1.54472e-05 -0.000596167 1.821e-06
6.42224e-06 1.821e-06 -0.000482617
0.000931914 -5.24181e-05 -5.9849e-05
-5.24181e-05 -0.000822601 5.73585e-05
-5.9849e-05 5.73585e-05 -0.000926552
0.00210417 8.42034e-05 5.23506e-05
8.42034e-05 1.47586e-05 -5.37665e-05
5.23506e-05 -5.37665e-05 -0.000940705
0.0051499 0.000262977 2.34639e-05
0.000262977 0.00105688 -2.52437e-05
2.34639e-05 -2.52437e-05 0.00120541
0.00197377 -0.000239332 -2.25953e-05
-0.000239332 -0.000181067 1.66519e-05
-2.25953e-05 1.66519e-05 -0.00042827
0.00294323 -6.76753e-05 2.56441e-05
-6.76753e-05 -0.000189652 -4.74267e-05
2.56441e-05 -4.74267e-05 -0.00103803
0.00347825 -1.26028e-05 -1.10512e-05
-1.26028e-05 0.000205901 3.82829e-06
-1.10512e-05 3.82829e-06 0.000367946
0.00222139 -4.64306e-05 2.67369e-06
-4.64306e-05 0.000222693 -3.49079e-07
2.67369e-06 -3.49079e-07 0.000495609
0.00240453 -0.000183452 2.56044e-05
-0.000183452 0.000446472 -2.16245e-05
2.56044e-05 -2.16245e-05 0.000335099
0.00342281 -0.000303995 -1.18495e-05
-0.000303995 -0.000565307 -0.000103771
-1.18495e-05 -0.000103771 -0.000824787
0.000406981 -0.000120964 3.30072e-05
-0.000120964 -0.0010868 4.21689e-05
3.30072e-05 4.21689e-05 -0.000950645
-0.00027841 -0.000106218 3.55345e-06
-0.000106218 -0.00128049 4.97786e-06
3.55345e-06 4.97786e-06 -0.000927738
0.00112567 -8.67796e-06 -2.71722e-07
-8.67796e-06 0.000122017 3.13368e-07
-2.71722e-07 3.13368e-07 4.55024e-05
0.000981907 6.54768e-06 7.88962e-08
6.54768e-06 5.73523e-05 -1.49334e-07
7.88962e-08 -1.49334e-07 -2.11549e-05
0.000946822 -9.13161e-07 -9.01175e-08
-9.13161e-07 4.96949e-05 -2.032e-07
-9.01175e-08 -2.032e-07 -3.02229e-05
0.000990927 2.21555e-05 5.46937e-08
2.21555e-05 6.70592e-05 -4.74471e-07
5.46937e-08 -4.74471e-07 -3.93491e-06
0.00282124 -0.00016861 1.35604e-05
-0.00016861 0.000966819 4.93098e-06
1.35604e-05 4.93098e-06 0.000921079
0.000741118 3.30014e-05 3.48105e-06
3.30014e-05 0.000182298 -2.3132e-06
3.48105e-06 -2.3132e-06 1.00522e-05
0.000942844 3.45097e-06 5.75166e-08
3.45097e-06 2.84213e-05 -4.68889e-08
5.75166e-08 -4.68889e-08 -4.97132e-05
0.00100439 2.5904e-05 3.43498e-07
2.5904e-05 6.55874e-05 -1.78079e-07
3.43498e-07 -1.78079e-07 -2.01207e-05
0.00152591 -1.8667e-06 2.72102e-07
-1.8667e-06 0.000313764 -2.23456e-06
2.72102e-07 -2.23456e-06 0.000229393
0.000962635 1.4803e-05 -5.27314e-07
1.4803e-05 4.11839e-05 4.00634e-09
-5.27314e-07 4.00634e-09 -3.74614e-05
0.00097787 -2.38968e-06 -1.25072e-06
-2.38968e-06 4.22205e-05 6.34899e-07
-1.25072e-06 6.34899e-07 -4.34423e-05
0.000420452 -5.64375e-05 7.07062e-06
-5.64375e-05 0.000174694 -2.79345e-06
7.07062e-06 -2.79345e-06 -7.8196e-06
0.000812304 1.46094e-06 3.60796e-06
1.46094e-06 8.75721e-05 6.3535e-06
3.60796e-06 6.3535e-06 5.19815e-05
0.00111997 -1.74034e-06 2.50335e-07
-1.74034e-06 0.00012404 -1.77535e-06
2.50335e-07 -1.77535e-06 3.93523e-05
-0.000429203 2.247e-05 3.37493e-06
2.247e-05 0.000103436 -6.32528e-06
3.37493e-06 -6.32528e-06 -0.000298205
0.00164249 -3.82435e-05 8.26653e-06
-3.82435e-05 0.000497973 5.72652e-06
8.26653e-06 5.72652e-06 0.000399273
0.00149154 -1.46089e-06 -1.85459e-05
-1.46089e-06 0.000410656 2.37591e-08
-1.85459e-05 2.37591e-08 0.000285831
0.00124922 -2.75044e-06 3.05637e-07
-2.75044e-06 0.000169639 4.63057e-07
3.05637e-07 4.63057e-07 2.69532e-05
0.000864117 -3.02117e-06 -6.79239e-06
-3.02117e-06 -1.20574e-05 -1.85601e-07
-6.79239e-06 -1.85601e-07 -0.000141035
0.000645294 2.09632e-05 -1.06975e-06
2.09632e-05 6.61329e-05 6.1164e-06
-1.06975e-06 6.1164e-06 -2.09213e-05
0.00139328 0.00011768 -5.4145e-05
0.00011768 0.000472586 4.56995e-06
-5.4145e-05 4.56995e-06 0.00053907
0.00110516 -4.95049e-06 -3.04664e-07
-4.95049e-06 7.1202e-05 1.08265e-06
-3.04664e-07 1.08265e-06 -6.59829e-05
0.00351434 0.000199896 3.1646e-05
0.000199896 0.00012242 -8.12245e-05
3.1646e-05 -8.12245e-05 -0.000509074
0.00524295 0.000290386 -2.35655e-05
0.000290386 0.00114586 2.50139e-05
-2.35655e-05 2.50139e-05 0.0012709
0.00122358 -2.28229e-05 1.34851e-05
-2.28229e-05 0.000233922 -5.07343e-06
1.34851e-05 -5.07343e-06 0.000136431
0.00248781 0.000149438 -7.42557e-06
0.000149438 0.000395932 7.03344e-06
-7.42557e-06 7.03344e-06 0.000723402
-0.000241597 -1.25629e-05 2.2043e-05
-1.25629e-05 -2.27068e-06 -6.56653e-07
2.2043e-05 -6.56653e-07 -0.000149786
0.00125145 -1.85843e-05 -3.84069e-06
-1.85843e-05 0.000240082 2.86299e-07
-3.84069e-06 2.86299e-07 0.000123858
0.00102808 2.89902e-06 6.08401e-06
2.89902e-06 -2.59861e-05 -3.09527e-06
6.08401e-06 -3.09527e-06 -7.24684e-05
0.00199085 -4.83796e-05 -5.86418e-06
-4.83796e-05 0.000561208 1.91717e-05
-5.86418e-06 1.91717e-05 0.000527478
0.000369021 0.000276215 -3.16746e-06
0.000276215 -0.000519933 3.91884e-06
-3.16746e-06 3.91884e-06 4.2915e-05
0.00159918 0.000338166 3.89448e-06
0.000338166 -0.000300996 -9.38359e-06
3.89448e-06 -9.38359e-06 -0.000242856
0.00309205 2.09348e-05 2.46222e-05
2.09348e-05 0.000267981 -1.12262e-05
2.46222e-05 -1.12262e-05 -0.000867146
-8.50501e-05 -5.05142e-05 5.01767e-06
-5.05142e-05 2.01954e-05 -1.29913e-05
5.01767e-06 -1.29913e-05 -0.0001449
0.0012716 -1.7261e-05 -4.88562e-06
-1.7261e-05 0.00026003 -2.48416e-07
-4.88562e-06 -2.48416e-07 0.000167594
-0.0013171 0.00010892 8.16769e-06
0.00010892 -0.00115805 -8.23669e-06
8.16769e-06 -8.23669e-06 -0.00099178
-0.000160461 0.000295477 4.95832e-05
0.000295477 -0.000145353 -2.32694e-05
4.95832e-05 -2.32694e-05 -4.16938e-06
0.00754333 0.000459903 2.95155e-05
0.000459903 0.00231045 -5.05707e-05
2.95155e-05 -5.05707e-05 0.00132139
0.00179187 -0.000180675 -6.13693e-05
-0.000180675 -5.48082e-05 0.000103698
-6.13693e-05 0.000103698 -0.000579633
0.000553581 -2.66875e-05 -1.91538e-06
-2.66875e-05 1.83331e-05 2.88678e-06
-1.91538e-06 2.88678e-06 -0.000168919
0.000545612 -2.77664e-05 4.86732e-07
-2.77664e-05 0.000137247 -1.08047e-06
4.86732e-07 -1.08047e-06 -0.0001102
0.00141503 -0.000126703 4.77536e-06
-0.000126703 0.000393028 -1.52738e-06
4.77536e-06 -1.52738e-06 0.000171222
0.000681842 -1.24968e-05 -1.98668e-06
-1.24968e-05 -1.7196e-05 -1.91943e-07
-1.98668e-06 -1.91943e-07 -0.000122621
0.000423879 -5.44227e-05 -1.05047e-07
-5.44227e-05 -7.77294e-05 1.65676e-07
-1.05047e-07 1.65676e-07 -0.000282535
0.00127151 -0.000102417 2.18357e-06
-0.000102417 0.000263608 2.81187e-06
2.18357e-06 2.81187e-06 8.21773e-05
0.00151946 -9.1043e-05 -1.39274e-06
-9.1043e-05 0.000360056 -1.27262e-07
-1.39274e-06 -1.27262e-07 0.00023357
0.00120468 -8.40051e-05 2.54512e-07
-8.40051e-05 0.000219244 5.21228e-07
2.54512e-07 5.21228e-07 5.56674e-05
0.000998933 -9.46694e-05 4.42521e-07
-9.46694e-05 4.39857e-05 4.02165e-07
4.42521e-07 4.02165e-07 -0.000118008
0.00110239 -7.54229e-05 -8.24866e-07
-7.54229e-05 0.000145432 -5.14579e-07
-8.24866e-07 -5.14579e-07 1.82071e-05
0.00156171 -0.000102722 5.09041e-08
-0.000102722 0.000328446 4.04325e-07
5.09041e-08 4.04325e-07 0.000192726
0.00136827 -0.000101009 -3.16404e-07
-0.000101009 0.000196785 1.81e-07
-3.16404e-07 1.81e-07 5.87072e-05
0.00132391 -9.23032e-05 -1.97409e-06
-9.23032e-05 0.000146541 -4.9744e-08
-1.97409e-06 -4.9744e-08 2.72077e-05
0.00154831 -9.48045e-05 -2.57862e-06
-9.48045e-05 0.000304086 3.07462e-06
-2.57862e-06 3.07462e-06 0.000198248
0.00135642 -9.41368e-05 -4.75265e-07
-9.41368e-05 0.000200701 5.37714e-07
-4.75265e-07 5.37714e-07 7.96536e-05
0.00076645 -6.24841e-05 1.67003e-07
-6.24841e-05 -5.21594e-05 -4.46573e-07
1.67003e-07 -4.46573e-07 -0.000139176
0.000940593 -7.05287e-05 1.07697e-06
-7.05287e-05 3.15167e-05 -3.51082e-07
1.07697e-06 -3.51082e-07 -6.31555e-05
0.00109328 -7.92655e-05 8.24847e-07
-7.92655e-05 9.86491e-05 -1.11966e-06
8.24847e-07 -1.11966e-06 -1.38929e-05
0.00109014 -6.42431e-05 -2.05002e-07
-6.42431e-05 0.00012461 6.45967e-09
-2.05002e-07 6.45967e-09 4.08004e-05
0.00115434 -7.21141e-05 -9.61677e-08
-7.21141e-05 0.000155991 -2.56878e-07
-9.61677e-08 -2.56878e-07 6.93289e-05
0.000899878 -6.52555e-05 2.31942e-06
-6.52555e-05 2.94208e-05 -4.4275e-08
2.31942e-06 -4.4275e-08 -5.77585e-05
0.000900197 3.33204e-06 -5.04285e-07
3.33204e-06 2.57096e-05 1.05619e-06
-5.04285e-07 1.05619e-06 -4.29333e-05
0.000914989 -4.2557e-05 -4.86841e-08
-4.2557e-05 4.37206e-05 2.81427e-07
-4.86841e-08 2.81427e-07 -3.64875e-05
0.00106697 -6.2401e-05 8.86668e-07
-6.2401e-05 0.000126211 -4.30161e-07
8.86668e-07 -4.30161e-07 3.87429e-05
0.000856797 2.39675e-05 -1.72704e-06
2.39675e-05 -4.45923e-07 2.15936e-06
-1.72704e-06 2.15936e-06 -4.23481e-05
0.00094988 9.72099e-08 -1.72332e-07
9.72099e-08 4.58733e-05 3.1648e-09
-1.72332e-07 3.1648e-09 -1.69716e-05
0.00105044 -4.15963e-05 4.71281e-07
-4.15963e-05 0.000103894 -4.08985e-07
4.71281e-07 -4.08985e-07 2.81965e-05
0.000814329 2.61833e-05 -3.63861e-06
2.61833e-05 -2.43616e-05 4.60805e-06
-3.63861e-06 4.60805e-06 -3.2678e-05
0.000869787 2.30757e-05 2.80226e-07
2.30757e-05 3.30471e-06 -5.66731e-08
2.80226e-07 -5.66731e-08 -3.39218e-05
0.000934729 7.60914e-07 9.75431e-07
7.60914e-07 3.36484e-05 -1.1661e-06
9.75431e-07 -1.1661e-06 -2.33052e-05
0.000873732 2.35641e-05 8.99537e-07
2.35641e-05 5.13594e-07 -1.99883e-06
8.99537e-07 -1.99883e-06 -3.26107e-05
0.000816098 2.38479e-05 9.45788e-08
2.38479e-05 -2.96272e-05 -4.40055e-08
9.45788e-08 -4.40055e-08 -3.53654e-05
0.00222857 3.38413e-05 -1.78988e-05
3.38413e-05 0.000702674 3.58775e-06
-1.78988e-05 3.58775e-06 0.000721119
0.000845684 2.1119e-05 2.0023e-06
2.1119e-05 -2.13664e-05 -3.15447e-06
2.0023e-06 -3.15447e-06 -2.47679e-05
0.00219082 2.92774e-05 7.54841e-07
2.92774e-05 0.000677365 4.7208e-08
7.54841e-07 4.7208e-08 0.00069724
0.00216263 2.46798e-05 1.45876e-05
2.46798e-05 0.000657646 -3.69042e-06
1.45876e-05 -3.69042e-06 0.00067875
0.00100424 1.97326e-05 -3.86591e-07
1.97326e-05 6.4017e-05 -7.40152e-07
-3.86591e-07 -7.40152e-07 -3.05645e-06
0.000942236 1.50319e-05 -6.86304e-07
1.50319e-05 3.07382e-05 -1.20561e-06
-6.86304e-07 -1.20561e-06 -2.46172e-05
0.000874994 -1.87072e-05 -7.31146e-07
-1.87072e-05 -5.45313e-06 -1.84981e-06
-7.31146e-07 -1.84981e-06 -3.86701e-05
0.000939989 9.97541e-06 -1.12994e-08
9.97541e-06 2.95921e-05 -4.53661e-08
-1.12994e-08 -4.53661e-08 -2.23005e-05
0.000845303 -1.77876e-05 -1.43952e-06
-1.77876e-05 -2.61336e-05 -3.30004e-06
-1.43952e-06 -3.30004e-06 -2.99107e-05
0.000889492 -1.36603e-05 -5.56341e-08
-1.36603e-05 8.41066e-08 5.13821e-09
-5.56341e-08 5.13821e-09 -3.09925e-05
0.000916122 1.50777e-05 1.49511e-07
1.50777e-05 1.9875e-05 4.69649e-07
1.49511e-07 4.69649e-07 -3.00052e-05
0.00220997 -2.00453e-05 -1.24276e-05
-2.00453e-05 0.000677014 -3.96831e-06
-1.24276e-05 -3.96831e-06 0.000698618
0.000839833 -1.46237e-05 -9.69055e-08
-1.46237e-05 -3.34626e-05 -3.11151e-08
-9.69055e-08 -3.11151e-08 -3.4897e-05
0.0009012 -1.03957e-05 1.7125e-07
-1.03957e-05 4.39761e-06 1.10751e-06
1.7125e-07 1.10751e-06 -2.45446e-05
0.0021422 -1.48476e-05 -1.22817e-06
-1.48476e-05 0.000637632 3.34713e-08
-1.22817e-06 3.34713e-08 0.000660743
0.000834671 -1.0921e-05 6.25379e-07
-1.0921e-05 -4.04209e-05 3.09147e-06
6.25379e-07 3.09147e-06 -3.95422e-05
0.00209566 -9.57815e-06 5.74966e-06
-9.57815e-06 0.000610402 3.8471e-06
5.74966e-06 3.8471e-06 0.000634595
0.000949395 1.58083e-05 -1.21148e-05
1.58083e-05 5.93302e-05 -1.02397e-05
-1.21148e-05 -1.02397e-05 -5.97845e-05
0.00117681 1.23947e-06 2.05271e-06
1.23947e-06 0.000122279 -2.67352e-06
2.05271e-06 -2.67352e-06 -1.52829e-05
0.00131474 -1.24666e-05 -1.0657e-05
-1.24666e-05 0.000280323 2.5878e-06
-1.0657e-05 2.5878e-06 0.000170406
0.000952068 1.16329e-05 -1.14867e-07
1.16329e-05 3.75995e-05 6.35943e-09
-1.14867e-07 6.35943e-09 -2.81821e-05
0.00103846 1.30129e-05 -2.92233e-09
1.30129e-05 8.24424e-05 2.4222e-07
-2.92233e-09 2.4222e-07 1.02973e-05
0.000958808 1.76332e-05 -4.89921e-07
1.76332e-05 4.53554e-05 -1.23422e-06
-4.89921e-07 -1.23422e-06 -3.02548e-05
0.000915182 7.97098e-06 -1.14248e-07
7.97098e-06 2.09054e-05 -8.4428e-07
-1.14248e-07 -8.4428e-07 -5.07648e-05
0.00110107 3.785e-05 -3.71392e-07
3.785e-05 0.000120398 -3.73604e-07
-3.71392e-07 -3.73604e-07 4.24554e-05
0.000890331 4.59987e-06 4.5234e-08
4.59987e-06 5.96779e-06 5.34263e-07
4.5234e-08 5.34263e-07 -5.80826e-05
0.000959422 4.07256e-06 2.35808e-07
4.07256e-06 4.55585e-05 5.06603e-07
2.35808e-07 5.06603e-07 -2.49395e-05
0.000996896 3.13476e-05 -1.5307e-07
3.13476e-05 6.71196e-05 -2.69022e-08
-1.5307e-07 -2.69022e-08 -4.82031e-06
0.00101872 2.64011e-05 4.27834e-07
2.64011e-05 7.75792e-05 4.35068e-07
4.27834e-07 4.35068e-07 1.46795e-06
0.0010639 2.64382e-05 -2.66286e-07
2.64382e-05 0.000104141 -1.50183e-07
-2.66286e-07 -1.50183e-07 2.72584e-05
0.00118212 -2.79616e-06 -1.03369e-07
-2.79616e-06 0.000143397 1.13232e-05
-1.03369e-07 1.13232e-05 7.77597e-05
0.00106129 2.66117e-05 5.76479e-07
2.66117e-05 9.89307e-05 5.27261e-06
5.76479e-07 5.27261e-06 7.03814e-06
0.00108603 9.93967e-06 1.84951e-06
9.93967e-06 0.000159103 -3.56478e-07
1.84951e-06 -3.56478e-07 2.87182e-05
0.00117101 -3.82404e-05 2.81094e-06
-3.82404e-05 -0.00037951 -3.70801e-06
2.81094e-06 -3.70801e-06 -0.0001224
-0.000836749 2.73446e-05 -1.64739e-06
2.73446e-05 -0.00176375 -6.834e-05
-1.64739e-06 -6.834e-05 -0.00153921
0.00138209 -0.000262691 -7.21645e-05
-0.000262691 -0.000562887 8.71764e-05
-7.21645e-05 8.71764e-05 -0.000922386
0.00734956 0.000163171 -1.7614e-05
0.000163171 0.00160171 -4.42878e-05
-1.7614e-05 -4.42878e-05 0.00111625
0.0015734 -0.000224239 -3.4618e-05
-0.000224239 -0.000158358 3.43874e-05
-3.4618e-05 3.43874e-05 -0.00055729
0.00771286 -0.000120635 3.53688e-05
-0.000120635 0.00181522 1.16136e-06
3.53688e-05 1.16136e-06 0.00136883
0.00151332 -0.000199971 9.07991e-06
-0.000199971 -0.000553114 -2.08235e-05
9.07991e-06 -2.08235e-05 -0.000462114
8.23446e-05 -0.000123493 -9.62001e-07
-0.000123493 -0.0011228 -6.73615e-06
-9.62001e-07 -6.73615e-06 -0.000701506
0.00165766 -5.9957e-05 -3.97567e-05
-5.9957e-05 0.000188442 -5.62226e-05
-3.97567e-05 -5.62226e-05 -0.000281309
0.00729407 -0.000331628 -1.91034e-05
-0.000331628 0.00162655 4.70619e-05
-1.91034e-05 4.70619e-05 0.00106243
0.00606223 -0.000404836 2.15644e-05
-0.000404836 0.00179275 2.54413e-05
2.15644e-05 2.54413e-05 0.00197822
0.00136149 -0.000214559 4.26121e-06
-0.000214559 -0.000106933 3.1418e-06
4.26121e-06 3.1418e-06 0.000459494
0.000920904 2.21792e-05 -5.44593e-07
2.21792e-05 3.85606e-05 6.3265e-07
-5.44593e-07 6.3265e-07 -3.38323e-05
0.0010775 -5.50708e-06 -1.09366e-07
-5.50708e-06 0.000101627 1.42434e-07
-1.09366e-07 1.42434e-07 2.41254e-05
0.000956745 6.2885e-06 2.76283e-07
6.2885e-06 4.42076e-05 -1.78681e-07
2.76283e-07 -1.78681e-07 -3.43991e-05
0.000937514 -5.71377e-05 2.12396e-05
-5.71377e-05 0.000409466 -2.244e-06
2.12396e-05 -2.244e-06 0.000274124
0.00142792 -1.46457e-05 -1.40581e-06
-1.46457e-05 0.000387552 -2.95972e-06
-1.40581e-06 -2.95972e-06 0.000356267
0.000976589 6.86204e-06 -1.59139e-07
6.86204e-06 4.69725e-05 8.03848e-07
-1.59139e-07 8.03848e-07 -3.15128e-05
0.000955422 -2.40959e-05 -8.1005e-07
-2.40959e-05 2.9962e-05 1.09103e-06
-8.1005e-07 1.09103e-06 -5.57896e-05
0.00101083 -9.42468e-06 -2.17425e-07
-9.42468e-06 7.15553e-05 5.08336e-08
-2.17425e-07 5.08336e-08 -1.20611e-05
0.000778811 -4.11158e-05 7.2182e-07
-4.11158e-05 8.08504e-05 3.34931e-06
7.2182e-07 3.34931e-06 -2.56154e-05
-0.000185878 1.84228e-05 5.2707e-06
1.84228e-05 0.000123801 -1.22029e-05
5.2707e-06 -1.22029e-05 -0.00025501
0.000287506 5.63433e-06 -7.72021e-07
5.63433e-06 -0.000154413 3.06113e-06
-7.72021e-07 3.06113e-06 -0.000279092
0.00156854 7.58221e-05 1.44897e-05
7.58221e-05 0.000642178 1.63462e-06
1.44897e-05 1.63462e-06 0.00043732
0.00169753 -4.10736e-06 -9.90645e-06
-4.10736e-06 0.000576974 -6.39096e-07
-9.90645e-06 -6.39096e-07 0.000492645
0.00112933 -1.52588e-06 -6.72e-06
-1.52588e-06 0.000171627 -3.20903e-07
-6.72e-06 -3.20903e-07 4.05534e-05
0.0011365 -3.31725e-06 4.33685e-07
-3.31725e-06 0.000100697 -4.77199e-07
4.33685e-07 -4.77199e-07 -4.38304e-05
-0.00102665 -1.72703e-05 -1.3693e-05
-1.72703e-05 -0.000371074 1.52968e-05
-1.3693e-05 1.52968e-05 -0.00052264
0.000670678 2.12402e-05 2.81602e-05
2.12402e-05 -0.000207102 -5.18781e-05
2.81602e-05 -5.18781e-05 -0.000587749
0.00127151 -1.6983e-05 9.90736e-06
-1.6983e-05 0.0002551 -2.2638e-06
9.90736e-06 -2.2638e-06 0.000139557
0.00862374 0.000219972 4.36961e-05
0.000219972 0.00231942 1.87468e-06
4.36961e-05 1.87468e-06 0.00127123
0.00426921 0.000447223 -3.58864e-05
0.000447223 0.00115687 2.24895e-05
-3.58864e-05 2.24895e-05 0.00112889
0.00117867 -3.30081e-06 7.11889e-06
-3.30081e-06 9.97618e-05 2.01445e-06
7.11889e-06 2.01445e-06 3.11848e-05
-0.000616172 0.000292314 -1.19077e-05
0.000292314 -0.001184 7.5734e-06
-1.19077e-05 7.5734e-06 -0.000569604
-0.000105948 -2.50402e-05 1.2355e-06
-2.50402e-05 6.10666e-05 -1.96974e-07
1.2355e-06 -1.96974e-07 -0.000117156
0.00123781 -1.82888e-05 6.01203e-06
-1.82888e-05 0.000241024 -6.16631e-07
6.01203e-06 -6.16631e-07 0.000150979
-0.00121661 0.000124529 -4.32234e-06
0.000124529 -0.000996931 5.11065e-07
-4.32234e-06 5.11065e-07 -0.000818097
0.00211315 -0.000139556 1.38825e-05
-0.000139556 0.000426497 2.94765e-05
1.38825e-05 2.94765e-05 8.66912e-06
0.00301593 0.000419164 -8.14617e-07
0.000419164 0.00090798 1.86557e-07
-8.14617e-07 1.86557e-07 0.000968552
0.00561786 0.000162643 2.55762e-05
0.000162643 0.00137694 -1.32737e-05
2.55762e-05 -1.32737e-05 0.000106931
0.0015737 -8.04849e-05 8.80827e-06
-8.04849e-05 0.000303279 5.91123e-06
8.80827e-06 5.91123e-06 0.000366226
-0.00103192 2.02605e-05 3.26962e-06
2.02605e-05 -0.000857629 4.35487e-07
3.26962e-06 4.35487e-07 -0.000905197
0.0033025 0.000311496 4.03016e-05
0.000311496 0.0013291 -1.41911e-05
4.03016e-05 -1.41911e-05 0.0013887
0.00391923 0.000364028 -2.97854e-05
0.000364028 0.000774465 2.75451e-05
-2.97854e-05 2.75451e-05 -0.000174745
0.00209886 -0.00014344 -1.73454e-06
-0.00014344 0.000284098 3.90826e-05
-1.73454e-06 3.90826e-05 -3.72447e-05
0.000765134 -8.85353e-06 -2.83276e-06
-8.85353e-06 0.000241012 5.1309e-06
-2.83276e-06 5.1309e-06 -2.07377e-06
0.000882968 -0.000115024 1.54369e-06
-0.000115024 0.000159207 -3.01004e-06
1.54369e-06 -3.01004e-06 -8.94063e-05
0.00260677 -0.000191641 1.44083e-06
-0.000191641 0.000709728 -1.70153e-06
1.44083e-06 -1.70153e-06 0.000542083
9.2431e-05 -3.02431e-05 -1.07872e-06
-3.02431e-05 -0.000223233 1.23006e-06
-1.07872e-06 1.23006e-06 -0.000431895
0.000737645 -8.46751e-05 1.30227e-06
-8.46751e-05 5.47096e-06 -3.9357e-07
1.30227e-06 -3.9357e-07 -0.000178
0.00117475 -0.000115604 2.28785e-06
-0.000115604 8.64188e-05 2.33459e-06
2.28785e-06 2.33459e-06 -5.80596e-05
0.00135942 -8.78012e-05 -1.83377e-06
-8.78012e-05 0.000285431 5.76292e-07
-1.83377e-06 5.76292e-07 0.000124742
0.00119292 -9.90868e-05 -1.06374e-06
-9.90868e-05 0.000134005 -3.89672e-07
-1.06374e-06 -3.89672e-07 -2.19994e-05
0.00149292 -0.000113038 -1.27291e-06
-0.000113038 0.000190874 1.17257e-07
-1.27291e-06 1.17257e-07 6.38122e-05
0.00139065 -9.77185e-05 -2.83624e-07
-9.77185e-05 0.000239697 -7.98123e-07
-2.83624e-07 -7.98123e-07 0.000102206
0.0012791 -9.65963e-05 3.61741e-07
-9.65963e-05 0.000148627 -7.87634e-07
3.61741e-07 -7.87634e-07 1.36332e-05
0.0014765 -9.67013e-05 -1.97571e-06
-9.67013e-05 0.00018183 -2.13917e-06
-1.97571e-06 -2.13917e-06 6.49476e-05
0.00132637 -8.65166e-05 -1.72945e-06
-8.65166e-05 9.00632e-05 -1.58264e-06
-1.72945e-06 -1.58264e-06 -1.35638e-05
0.00111514 -8.24967e-05 -1.56391e-06
-8.24967e-05 5.98665e-05 8.4789e-07
-1.56391e-06 8.4789e-07 -4.93753e-05
0.00125412 -8.94952e-05 4.00204e-07
-8.94952e-05 0.000109965 -8.98315e-07
4.00204e-07 -8.98315e-07 -8.2642e-06
0.00126681 -8.1741e-05 -1.13788e-06
-8.1741e-05 0.000176662 1.88162e-06
-1.13788e-06 1.88162e-06 8.20472e-05
0.00125615 -8.60684e-05 -2.74005e-07
-8.60684e-05 0.000159236 6.09223e-07
-2.74005e-07 6.09223e-07 5.1581e-05
0.00132099 -9.35902e-05 1.10541e-06
-9.35902e-05 0.000181271 -1.49442e-06
1.10541e-06 -1.49442e-06 5.84271e-05
0.000994027 -6.60181e-05 -4.30622e-07
-6.60181e-05 6.63494e-05 -7.41063e-07
-4.30622e-07 -7.41063e-07 -1.55444e-05
0.000849161 -6.48093e-05 -1.91819e-07
-6.48093e-05 -9.81696e-06 -8.11148e-07
-1.91819e-07 -8.11148e-07 -9.58245e-05
0.0010871 -7.50147e-05 2.65834e-06
-7.50147e-05 0.000105839 -2.02407e-06
2.65834e-06 -2.02407e-06 1.1854e-05
0.000943084 -2.44902e-05 -5.6274e-07
-2.44902e-05 4.89244e-05 8.54433e-07
-5.6274e-07 8.54433e-07 -2.41482e-05
0.00103591 -6.15165e-05 1.44725e-07
-6.15165e-05 9.81333e-05 3.69898e-07
1.44725e-07 3.69898e-07 1.47473e-05
0.00109029 -6.97281e-05 6.25744e-07
-6.97281e-05 0.000125098 7.88301e-07
6.25744e-07 7.88301e-07 3.81823e-05
0.000855351 3.90314e-05 -1.55734e-06
3.90314e-05 4.12397e-06 2.18542e-06
-1.55734e-06 2.18542e-06 -4.42525e-05
0.000949774 -8.61336e-07 -4.83639e-08
-8.61336e-07 5.07762e-05 7.13399e-09
-4.83639e-08 7.13399e-09 -1.82215e-05
0.000969114 -4.41008e-05 2.15763e-07
-4.41008e-05 6.98402e-05 -1.29434e-07
2.15763e-07 -1.29434e-07 -9.7709e-06
0.00144177 3.35029e-05 -1.12047e-05
3.35029e-05 0.000306783 3.20123e-06
-1.12047e-05 3.20123e-06 0.000298632
0.000858103 2.30175e-05 1.01092e-07
2.30175e-05 2.42958e-07 -6.93622e-08
1.01092e-07 -6.93622e-08 -4.16016e-05
0.00094893 -3.05663e-06 8.10746e-07
-3.05663e-06 4.51414e-05 -1.11699e-06
8.10746e-07 -1.11699e-06 -1.76998e-05
0.000990132 2.42233e-05 -1.67845e-05
2.42233e-05 6.94811e-05 3.67921e-06
-1.67845e-05 3.67921e-06 7.96692e-05
0.00114218 2.90868e-05 -4.25772e-06
2.90868e-05 0.000145575 4.52394e-07
-4.25772e-06 4.52394e-07 0.000138493
0.00086128 2.74336e-05 1.11156e-06
2.74336e-05 -5.43589e-07 -2.07707e-06
1.11156e-06 -2.07707e-06 -3.79988e-05
0.000838316 2.43086e-05 2.33378e-06
2.43086e-05 -1.85075e-05 -3.2774e-06
2.33378e-06 -3.2774e-06 -2.43663e-05
0.00224017 3.3889e-05 6.19323e-07
3.3889e-05 0.000709561 5.03045e-08
6.19323e-07 5.03045e-08 0.000727738
0.00219402 2.92903e-05 1.69526e-05
2.92903e-05 0.000679895 -3.67222e-06
1.69526e-05 -3.67222e-06 0.000699581
0.000949314 1.37886e-05 -5.3701e-07
1.37886e-05 3.80137e-05 -1.22273e-06
-5.3701e-07 -1.22273e-06 -3.22736e-05
0.000952619 -2.17431e-06 -4.76905e-07
-2.17431e-06 3.48893e-05 -1.43844e-06
-4.76905e-07 -1.43844e-06 -2.29132e-05
0.000990796 1.09348e-05 -9.805e-08
1.09348e-05 5.6367e-05 -9.18672e-09
-9.805e-08 -9.18672e-09 -1.07295e-05
0.000867727 -2.55931e-05 -7.26817e-07
-2.55931e-05 -6.20286e-06 -2.05946e-06
-7.26817e-07 -2.05946e-06 -4.16079e-05
0.000949672 4.00168e-06 3.56993e-07
4.00168e-06 3.39712e-05 -8.1092e-08
3.56993e-07 -8.1092e-08 -2.08593e-05
0.000832945 -2.03949e-05 -1.85848e-06
-2.03949e-05 -2.78493e-05 -3.378e-06
-1.85848e-06 -3.378e-06 -3.35199e-05
0.000883211 -1.49197e-05 -2.25527e-07
-1.49197e-05 -1.15228e-06 1.09421e-09
-2.25527e-07 1.09421e-09 -3.43228e-05
0.000951079 1.94069e-05 7.81371e-07
1.94069e-05 3.69711e-05 1.11676e-06
7.81371e-07 1.11676e-06 -1.61161e-05
0.00227008 -2.48637e-05 -1.5252e-05
-2.48637e-05 0.000712607 -3.94859e-06
-1.5252e-05 -3.94859e-06 0.000732815
0.000828404 -1.76146e-05 -1.91161e-07
-1.76146e-05 -3.47026e-05 -7.83846e-09
-1.91161e-07 -7.83846e-09 -3.83832e-05
0.000899914 -1.31157e-05 5.36256e-07
-1.31157e-05 5.64931e-06 1.72484e-06
5.36256e-07 1.72484e-06 -2.5458e-05
0.00220142 -1.99513e-05 -1.07769e-06
-1.99513e-05 0.000672094 4.2234e-08
-1.07769e-06 4.2234e-08 0.000693903
0.000822147 -1.44612e-05 8.24082e-07
-1.44612e-05 -4.24442e-05 3.20962e-06
8.24082e-07 3.20962e-06 -4.37621e-05
0.00213694 -1.46542e-05 8.57111e-06
-1.46542e-05 0.000634498 3.84656e-06
8.57111e-06 3.84656e-06 0.000657772
0.000713707 1.11218e-05 -6.84666e-06
1.11218e-05 6.92818e-07 -3.43201e-06
-6.84666e-06 -3.43201e-06 -7.70989e-05
0.00100898 1.45737e-05 -2.10833e-06
1.45737e-05 0.000103313 -3.70535e-06
-2.10833e-06 -3.70535e-06 -1.65683e-05
0.00118578 8.96907e-07 5.28736e-07
8.96907e-07 0.000128719 -1.75176e-06
5.28736e-07 -1.75176e-06 -1.22093e-05
0.00102521 4.60242e-05 -7.90001e-07
4.60242e-05 8.65933e-05 -1.22619e-07
-7.90001e-07 -1.22619e-07 7.94709e-06
0.00100293 1.10328e-05 2.28119e-07
1.10328e-05 6.4221e-05 6.28888e-07
2.28119e-07 6.28888e-07 -1.4474e-06
0.00100423 1.28026e-05 1.8688e-07
1.28026e-05 6.41043e-05 8.13874e-07
1.8688e-07 8.13874e-07 -8.567e-06
0.00100985 7.44116e-06 8.58793e-08
7.44116e-06 6.94678e-05 -2.07081e-07
8.58793e-08 -2.07081e-07 -1.71625e-06
0.00100991 2.88969e-05 -7.37026e-08
2.88969e-05 7.25012e-05 -2.17359e-07
-7.37026e-08 -2.17359e-07 -3.40108e-06
0.00103088 3.59596e-05 4.07836e-08
3.59596e-05 8.37491e-05 4.21832e-07
4.07836e-08 4.21832e-07 5.92276e-06
0.00103232 4.37544e-05 -7.99824e-07
4.37544e-05 8.71142e-05 -1.13702e-06
-7.99824e-07 -1.13702e-06 6.0671e-06
0.00091234 2.95992e-05 -1.99537e-07
2.95992e-05 2.66625e-05 -5.89912e-07
-1.99537e-07 -5.89912e-07 -5.1639e-05
0.000983581 4.26341e-05 4.89131e-07
4.26341e-05 6.18011e-05 2.52672e-07
4.89131e-07 2.52672e-07 -1.06956e-05
0.000987958 -5.89027e-06 3.44763e-07
-5.89027e-06 5.81332e-05 3.56091e-07
3.44763e-07 3.56091e-07 -1.62736e-05
0.00103757 2.5149e-05 -1.07425e-07
2.5149e-05 9.07318e-05 1.51055e-08
-1.07425e-07 1.51055e-08 1.39244e-05
0.00148851 3.0049e-05 1.61347e-06
3.0049e-05 0.000319997 -2.28831e-07
1.61347e-06 -2.28831e-07 0.000240797
0.00173266 -0.000120641 1.12369e-05
-0.000120641 0.000580346 1.07964e-05
1.12369e-05 1.07964e-05 0.000798613
0.00102849 2.02444e-06 2.66262e-06
2.02444e-06 4.46098e-05 5.1363e-06
2.66262e-06 5.1363e-06 -1.96988e-05
0.0010788 2.60486e-05 1.57739e-05
2.60486e-05 0.000103008 6.74669e-06
1.57739e-05 6.74669e-06 1.20356e-05
0.00185602 -0.000153504 -5.94055e-06
-0.000153504 -5.75976e-05 -1.26475e-05
-5.94055e-06 -1.26475e-05 0.000372642
0.00296879 -0.000271239 -3.14414e-06
-0.000271239 -0.000265826 -8.81278e-05
-3.14414e-06 -8.81278e-05 -0.000145505
0.00334981 4.29434e-05 -4.21357e-05
4.29434e-05 -0.000534668 0.000104507
-4.21357e-05 0.000104507 -0.000786687
0.00127565 -0.000215578 -5.83352e-05
-0.000215578 -8.14414e-06 7.69645e-05
-5.83352e-05 7.69645e-05 -0.000316988
0.0024543 -6.6714e-05 -1.94996e-05
-6.6714e-05 0.000777904 6.69553e-06
-1.94996e-05 6.69553e-06 0.00047539
0.000352796 -0.00022679 -4.83043e-06
-0.00022679 -0.000596164 -3.23892e-06
-4.83043e-06 -3.23892e-06 -4.01151e-05
0.00537355 -0.000102512 1.72187e-05
-0.000102512 0.00072179 5.24007e-05
1.72187e-05 5.24007e-05 -6.01021e-05
-0.000697966 -0.000234688 -5.07775e-06
-0.000234688 -0.00109708 -9.69691e-06
-5.07775e-06 -9.69691e-06 -0.000934294
0.00281137 0.000149921 -5.96593e-05
0.000149921 0.00070552 -4.93525e-05
-5.96593e-05 -4.93525e-05 0.000455535
0.00760326 -0.00029234 1.59952e-06
-0.00029234 0.002284 3.56107e-05
1.59952e-06 3.56107e-05 0.00143998
-3.85e-05 -0.000234179 2.72103e-05
-0.000234179 -7.17063e-05 1.6765e-05
2.72103e-05 1.6765e-05 9.34823e-05
0.000760337 7.73935e-05 -2.95292e-06
7.73935e-05 -1.50443e-05 -1.38602e-06
-2.95292e-06 -1.38602e-06 -8.45212e-05
0.00114464 2.49666e-05 2.0974e-06
2.49666e-05 0.000145273 2.40239e-07
2.0974e-06 2.40239e-07 7.38765e-05
0.00102614 8.892e-06 -3.55932e-07
8.892e-06 8.04458e-05 -2.95381e-07
-3.55932e-07 -2.95381e-07 1.47856e-06
-0.000180602 1.51042e-05 -1.09187e-05
1.51042e-05 3.28838e-05 -1.98526e-05
-1.09187e-05 -1.98526e-05 -0.000330216
0.000176284 -2.86964e-05 -1.37754e-06
-2.86964e-05 -0.00021309 -7.64333e-07
-1.37754e-06 -7.64333e-07 -0.000328547
0.000853621 5.61929e-06 2.02228e-06
5.61929e-06 -2.79859e-06 2.57391e-06
2.02228e-06 2.57391e-06 -8.61145e-05
0.000947894 3.66124e-05 3.65356e-07
3.66124e-05 0.000152511 2.70418e-07
3.65356e-07 2.70418e-07 2.92906e-05
0.000834995 4.13698e-05 2.64748e-07
4.13698e-05 0.000273493 -5.26531e-06
2.64748e-07 -5.26531e-06 9.65182e-05
-0.00101361 5.67794e-05 3.29745e-06
5.67794e-05 -0.000729572 1.4461e-05
3.29745e-06 1.4461e-05 -0.000885951
0.00240702 -1.87778e-05 4.55087e-06
-1.87778e-05 0.00114141 -6.92782e-07
4.55087e-06 -6.92782e-07 0.00111304
0.000911202 -2.6849e-06 -1.43206e-07
-2.6849e-06 0.000105087 -1.139e-06
-1.43206e-07 -1.139e-06 1.52144e-05
0.000741767 -1.52135e-06 7.30286e-06
-1.52135e-06 -8.3318e-05 1.29576e-07
7.30286e-06 1.29576e-07 -0.000220685
0.000683653 -4.02359e-05 -5.71061e-07
-4.02359e-05 0.000457222 1.17895e-05
-5.71061e-07 1.17895e-05 0.000267651
0.00151877 -0.000125971 3.51334e-06
-0.000125971 0.000165617 -4.69284e-05
3.51334e-06 -4.69284e-05 -0.000124786
0.00128212 -1.92582e-05 1.62721e-05
-1.92582e-05 0.000271495 -6.45859e-06
1.62721e-05 -6.45859e-06 0.000184472
0.00195688 0.000176276 -1.91182e-05
0.000176276 -5.80641e-05 2.78429e-05
-1.91182e-05 2.78429e-05 -0.00120268
-0.00195995 0.000287146 -5.34716e-05
0.000287146 -0.00133771 2.36909e-05
-5.34716e-05 2.36909e-05 -0.00120638
0.00122982 0.000152978 -1.38245e-05
0.000152978 0.000330196 8.55534e-06
-1.38245e-05 8.55534e-06 0.000606352
0.00162392 -0.000101803 6.31739e-06
-0.000101803 0.000336752 2.82984e-06
6.31739e-06 2.82984e-06 0.000398702
0.00120837 4.33942e-05 -2.06121e-06
4.33942e-05 0.000422904 5.37916e-07
-2.06121e-06 5.37916e-07 0.000457537
-0.00246062 0.000155699 -8.96806e-07
0.000155699 -0.00113453 2.75547e-06
-8.96806e-07 2.75547e-06 -0.00111434
0.00337037 -0.000197855 -1.16389e-05
-0.000197855 0.000608524 1.97969e-05
-1.16389e-05 1.97969e-05 0.000141482
0.00567153 0.000306083 -1.00363e-05
0.000306083 0.00155397 2.869e-06
-1.00363e-05 2.869e-06 0.000652352
0.000565711 -0.000128563 1.3123e-06
-0.000128563 -0.000368786 7.31456e-06
1.3123e-06 7.31456e-06 -0.000298231
-0.00273308 7.08156e-05 4.97571e-05
7.08156e-05 -0.00167222 -1.62383e-05
4.97571e-05 -1.62383e-05 -0.001619
0.00598239 0.00028987 5.03349e-06
0.00028987 0.00175855 3.10231e-07
5.03349e-06 3.10231e-07 0.001032
0.00376293 -9.72796e-06 -1.09066e-05
-9.72796e-06 0.000513073 2.93558e-05
-1.09066e-05 2.93558e-05 0.000227907
0.000494796 -0.000104209 -2.83985e-06
-0.000104209 -1.92114e-07 -2.15892e-06
-2.83985e-06 -2.15892e-06 -0.000279702
0.00125968 -0.000148284 3.25211e-07
-0.000148284 8.4217e-05 5.54928e-07
3.25211e-07 5.54928e-07 -7.70076e-05
0.00174512 -0.000168923 3.63997e-07
-0.000168923 0.000194499 3.05498e-06
3.63997e-07 3.05498e-06 8.59489e-05
6.01836e-05 -6.24866e-05 -1.23155e-06
-6.24866e-05 -0.000319885 -1.10418e-06
-1.23155e-06 -1.10418e-06 -0.000509068
0.00116094 -0.000113833 -2.91761e-07
-0.000113833 7.3039e-05 -3.68794e-07
-2.91761e-07 -3.68794e-07 -7.14852e-05
0.00182308 -0.000128562 -5.95712e-06
-0.000128562 0.000235638 -2.71719e-07
-5.95712e-06 -2.71719e-07 0.000127634
0.00130965 -0.000101603 -1.07669e-06
-0.000101603 0.000186295 -2.05242e-06
-1.07669e-06 -2.05242e-06 3.48686e-05
0.00131643 -0.000106946 5.6857e-07
-0.000106946 0.000105846 -7.03537e-07
5.6857e-07 -7.03537e-07 -2.0926e-05
0.00178465 -0.000103642 -2.87209e-06
-0.000103642 0.000247554 -3.24242e-06
-2.87209e-06 -3.24242e-06 0.00015328
0.00117674 -9.18332e-05 1.08177e-07
-9.18332e-05 9.46232e-05 -1.2498e-06
1.08177e-07 -1.2498e-06 -3.75819e-05
0.0012842 -9.0024e-05 -3.74241e-07
-9.0024e-05 8.08589e-05 -8.61585e-07
-3.74241e-07 -8.61585e-07 -3.41975e-05
0.00150322 -8.53199e-05 -1.7695e-06
-8.53199e-05 0.000116738 -3.3229e-06
-1.7695e-06 -3.3229e-06 3.25579e-05
0.00144141 -8.00854e-05 -1.6173e-06
-8.00854e-05 0.000104482 -2.24998e-06
-1.6173e-06 -2.24998e-06 2.42962e-05
0.00129055 -8.49594e-05 -2.10478e-06
-8.49594e-05 9.67885e-05 -7.14562e-07
-2.10478e-06 -7.14562e-07 -4.39239e-06
0.00131587 -8.41373e-05 7.02674e-07
-8.41373e-05 8.54852e-05 2.31503e-08
7.02674e-07 2.31503e-08 -1.59802e-05
0.000787959 -6.88105e-05 -1.44141e-06
-6.88105e-05 -8.86713e-05 1.40041e-06
-1.44141e-06 1.40041e-06 -0.000187402
0.0012667 -8.64106e-05 8.0921e-07
-8.64106e-05 0.000135437 -8.20567e-07
8.0921e-07 -8.20567e-07 2.72329e-05
0.00115812 -8.58491e-05 1.7472e-06
-8.58491e-05 6.05279e-05 -1.25266e-06
1.7472e-06 -1.25266e-06 -5.65645e-05
0.001038 -7.08988e-05 -3.88173e-07
-7.08988e-05 7.79141e-05 6.67815e-07
-3.88173e-07 6.67815e-07 -6.77305e-06
0.00103164 -7.41547e-05 3.20631e-07
-7.41547e-05 6.21543e-05 -1.63665e-07
3.20631e-07 -1.63665e-07 -3.24734e-05
0.000960431 -7.72009e-05 1.1188e-06
-7.72009e-05 1.26423e-05 -1.71965e-06
1.1188e-06 -1.71965e-06 -9.68282e-05
0.000988058 -4.95645e-05 -1.38161e-06
-4.95645e-05 6.66537e-05 1.436e-07
-1.38161e-06 1.436e-07 -7.39838e-06
0.00104914 -6.738e-05 -2.08501e-07
-6.738e-05 9.27245e-05 -3.11294e-07
-2.08501e-07 -3.11294e-07 1.07952e-05
0.000940302 -6.74279e-05 1.43901e-07
-6.74279e-05 3.68502e-05 -1.03432e-06
1.43901e-07 -1.03432e-06 -4.81831e-05
0.000895169 1.05581e-05 -1.79975e-06
1.05581e-05 2.9889e-05 2.18161e-06
-1.79975e-06 2.18161e-06 -2.39629e-05
0.000980148 -2.58432e-05 4.64209e-07
-2.58432e-05 6.69323e-05 2.74152e-07
4.64209e-07 2.74152e-07 -6.03976e-06
0.000981471 -5.85833e-05 8.0425e-07
-5.85833e-05 7.1433e-05 6.26397e-07
8.0425e-07 6.26397e-07 -1.15005e-05
0.000750887 3.18487e-05 -3.79288e-06
3.18487e-05 -4.3522e-05 3.54821e-06
-3.79288e-06 3.54821e-06 -5.84881e-05
0.00085776 1.61217e-05 -1.99789e-07
1.61217e-05 3.61814e-06 -9.58955e-08
-1.99789e-07 -9.58955e-08 -4.37858e-05
0.000988138 -6.01851e-06 6.30372e-07
-6.01851e-06 7.02292e-05 -1.10524e-06
6.30372e-07 -1.10524e-06 8.67177e-07
0.00235754 4.75688e-05 -8.47655e-06
4.75688e-05 0.000784976 1.50403e-06
-8.47655e-06 1.50403e-06 0.000798591
0.000779494 2.91081e-05 1.77688e-07
2.91081e-05 -3.51867e-05 2.04004e-08
1.77688e-07 2.04004e-08 -4.72567e-05
0.000857738 2.17634e-05 1.89053e-06
2.17634e-05 4.60481e-07 -2.09402e-06
1.89053e-06 -2.09402e-06 -4.16077e-05
0.00231055 3.83138e-05 5.9297e-07
3.83138e-05 0.000752415 4.61219e-08
5.9297e-07 4.61219e-08 0.000768778
0.000825525 2.7241e-05 2.86942e-06
2.7241e-05 -1.81533e-05 -3.42501e-06
2.86942e-06 -3.42501e-06 -2.71022e-05
0.00225198 3.38502e-05 1.94149e-05
3.38502e-05 0.000716567 -3.6938e-06
1.94149e-05 -3.6938e-06 0.000734484
0.00104852 4.44438e-05 -6.15681e-07
4.44438e-05 9.65996e-05 -2.29946e-07
-6.15681e-07 -2.29946e-07 2.2818e-05
0.000966158 1.55167e-05 -2.95187e-08
1.55167e-05 4.69716e-05 -2.65289e-07
-2.95187e-08 -2.65289e-07 -2.33665e-05
0.000948207 -2.50919e-06 -7.40609e-07
-2.50919e-06 3.80734e-05 -1.5723e-06
-7.40609e-07 -1.5723e-06 -2.41687e-05
0.000861232 -2.57573e-05 -1.22065e-06
-2.57573e-05 -6.74464e-06 -2.3009e-06
-1.22065e-06 -2.3009e-06 -4.44351e-05
0.000943305 -4.0586e-06 2.08679e-07
-4.0586e-06 3.09033e-05 -1.87595e-08
2.08679e-07 -1.87595e-08 -2.69847e-05
0.000961305 1.75419e-05 5.17027e-07
1.75419e-05 4.24787e-05 9.04673e-07
5.17027e-07 9.04673e-07 -2.57941e-05
0.000824528 -2.28487e-05 -2.46629e-06
-2.28487e-05 -2.77653e-05 -3.45947e-06
-2.46629e-06 -3.45947e-06 -3.50536e-05
0.000873728 -2.0005e-05 -2.01511e-07
-2.0005e-05 -3.68648e-06 -7.30063e-09
-2.01511e-07 -7.30063e-09 -3.87921e-05
0.000946994 -3.08153e-06 6.69684e-07
-3.08153e-06 3.23458e-05 1.21188e-06
6.69684e-07 1.21188e-06 -2.21675e-05
0.00231063 -2.94587e-05 -1.78148e-05
-2.94587e-05 0.000738549 -3.91462e-06
-1.78148e-05 -3.91462e-06 0.000757445
0.000817191 -2.01689e-05 -1.28922e-07
-2.01689e-05 -3.57702e-05 -9.48852e-09
-1.28922e-07 -9.48852e-09 -4.13718e-05
0.000890619 -1.38927e-05 8.56832e-07
-1.38927e-05 2.54856e-06 1.77497e-06
8.56832e-07 1.77497e-06 -3.0519e-05
0.00226484 -2.48569e-05 -1.08758e-06
-2.48569e-05 0.000709357 5.30281e-08
-1.08758e-06 5.30281e-08 0.000729733
0.000810766 -1.74372e-05 1.09768e-06
-1.74372e-05 -4.36353e-05 3.33668e-06
1.09768e-06 3.33668e-06 -4.72183e-05
0.00219284 -1.97876e-05 1.11599e-05
-1.97876e-05 0.00066715 3.86182e-06
1.11599e-05 3.86182e-06 0.00068917
1.95495e-05 -3.73437e-05 5.94933e-06
-3.73437e-05 -0.000211613 1.03133e-06
5.94933e-06 1.03133e-06 -0.000257142
0.000666252 1.24463e-05 1.19449e-06
1.24463e-05 -3.42566e-05 -7.828e-07
1.19449e-06 -7.828e-07 -0.000111038
0.00104601 1.33474e-05 1.52202e-05
1.33474e-05 0.000133369 2.21567e-06
1.52202e-05 2.21567e-06 1.31979e-05
0.00101181 4.05349e-05 -1.31918e-07
4.05349e-05 7.89002e-05 3.47358e-07
-1.31918e-07 3.47358e-07 3.63713e-07
0.00112942 6.69557e-05 -5.76591e-07
6.69557e-05 0.000145433 5.86893e-07
-5.76591e-07 5.86893e-07 6.48805e-05
0.00104385 5.1421e-05 -6.52254e-07
5.1421e-05 9.55878e-05 -4.74011e-08
-6.52254e-07 -4.74011e-08 1.39651e-05
0.00109001 3.78397e-06 -2.53442e-08
3.78397e-06 0.000110531 6.40878e-08
-2.53442e-08 6.40878e-08 4.00421e-05
0.00105732 2.74037e-05 3.81325e-07
2.74037e-05 9.61184e-05 6.73195e-07
3.81325e-07 6.73195e-07 2.11185e-05
0.000953045 1.75251e-05 -2.35516e-08
1.75251e-05 4.09651e-05 1.22078e-06
-2.35516e-08 1.22078e-06 -3.52103e-05
0.000946186 2.70468e-05 -2.75931e-07
2.70468e-05 4.34737e-05 3.22695e-08
-2.75931e-07 3.22695e-08 -3.48458e-05
0.0010125 3.50875e-05 1.45478e-07
3.50875e-05 7.61275e-05 3.26354e-08
1.45478e-07 3.26354e-08 -4.21927e-06
0.00106391 4.65343e-05 -5.86184e-07
4.65343e-05 0.000116031 -1.05433e-06
-5.86184e-07 -1.05433e-06 2.96225e-05
0.000843159 4.03819e-05 -1.48843e-07
4.03819e-05 -2.27073e-06 -1.54462e-06
-1.48843e-07 -1.54462e-06 -8.33279e-05
0.00101447 4.02401e-05 1.1036e-07
4.02401e-05 8.11627e-05 8.89873e-09
1.1036e-07 8.89873e-09 2.95346e-06
0.00118908 3.46881e-05 3.45626e-07
3.46881e-05 0.000171595 6.40933e-08
3.45626e-07 6.40933e-08 9.21731e-05
-0.00309421 -0.000145721 3.21999e-05
-0.000145721 -0.00157925 2.84908e-05
3.21999e-05 2.84908e-05 -0.00155351
0.000811449 -0.00011854 2.44105e-06
-0.00011854 0.000100917 5.15064e-07
2.44105e-06 5.15064e-07 0.000281053
0.000758755 7.27311e-06 3.7318e-06
7.27311e-06 -0.000127996 -9.32183e-07
3.7318e-06 -9.32183e-07 -0.000192388
-0.000596909 -0.000236724 -3.9567e-06
-0.000236724 -0.00107642 -6.95006e-06
-3.9567e-06 -6.95006e-06 -0.00051847
0.00413725 -0.000359368 -1.80178e-05
-0.000359368 0.0011052 -5.32606e-05
-1.80178e-05 -5.32606e-05 0.00124158
0.00467305 -8.85328e-05 4.09263e-05
-8.85328e-05 0.000570123 2.79019e-05
4.09263e-05 2.79019e-05 -3.41293e-05
0.00123415 -6.83242e-05 -4.02895e-05
-6.83242e-05 9.84059e-05 7.4344e-05
-4.02895e-05 7.4344e-05 -0.000488429
0.0021926 0.000120019 -4.19762e-05
0.000120019 0.000246426 -2.54026e-05
-4.19762e-05 -2.54026e-05 -0.000171062
0.00273388 -0.000333217 -2.4922e-06
-0.000333217 0.000850556 1.19637e-06
-2.4922e-06 1.19637e-06 0.000932223
0.0031079 -0.000103963 3.03386e-05
-0.000103963 0.000115348 4.21634e-05
3.03386e-05 4.21634e-05 -0.000738635
0.00164549 0.000165521 -7.78858e-05
0.000165521 -2.61313e-05 -8.77759e-05
-7.78858e-05 -8.77759e-05 -0.000504785
0.00337012 3.54916e-06 -5.23753e-05
3.54916e-06 0.000563957 -1.08426e-05
-5.23753e-05 -1.08426e-05 -0.000311114
0.00231844 0.00017408 8.97427e-06
0.00017408 0.000705526 -6.61243e-06
8.97427e-06 -6.61243e-06 0.000572241
0.000902831 8.02122e-05 -5.42715e-07
8.02122e-05 4.47459e-05 -3.94947e-07
-5.42715e-07 -3.94947e-07 -2.27982e-05
0.00131441 3.69304e-05 1.25165e-06
3.69304e-05 0.000227626 -8.4989e-07
1.25165e-06 -8.4989e-07 0.000155488
-0.000514543 -9.7566e-06 -1.48293e-05
-9.7566e-06 -0.000375336 -9.82374e-06
-1.48293e-05 -9.82374e-06 -0.000531217
0.00163484 6.27435e-05 1.07104e-06
6.27435e-05 0.000468624 -2.64127e-06
1.07104e-06 -2.64127e-06 0.000347745
0.00094827 0.000121086 6.97979e-06
0.000121086 0.000157305 8.38937e-07
6.97979e-06 8.38937e-07 2.823e-05
3.44755e-05 0.000125422 2.38147e-05
0.000125422 -0.000467834 2.03236e-05
2.38147e-05 2.03236e-05 -0.000576485
-0.0010577 -2.61688e-05 5.63677e-05
-2.61688e-05 -0.000757326 -9.4484e-06
5.63677e-05 -9.4484e-06 -0.000686876
0.000608139 -1.02081e-05 -4.87422e-06
-1.02081e-05 0.00011308 8.01362e-07
-4.87422e-06 8.01362e-07 6.33261e-05
7.34111e-05 -1.37494e-06 1.1718e-05
-1.37494e-06 -0.000399266 -1.38872e-06
1.1718e-05 -1.38872e-06 -0.000494428
0.00181069 -0.000107826 -3.51571e-05
-0.000107826 0.000501131 -5.40717e-07
-3.51571e-05 -5.40717e-07 0.000493706
0.00182914 -0.00016362 -3.93487e-05
-0.00016362 -4.67857e-05 -6.88632e-06
-3.93487e-05 -6.88632e-06 -0.000266526
0.00105157 2.66362e-05 -1.14993e-05
2.66362e-05 0.000343304 1.68443e-07
-1.14993e-05 1.68443e-07 0.000341556
0.00231453 0.00028297 1.37015e-05
0.00028297 0.000151576 -3.27146e-05
1.37015e-05 -3.27146e-05 -0.000840011
0.00428106 0.000252622 -9.59043e-05
0.000252622 0.0019658 2.3338e-05
-9.59043e-05 2.3338e-05 0.00197622
0.00159076 -0.000161973 1.32744e-05
-0.000161973 9.73508e-05 -1.46819e-06
1.32744e-05 -1.46819e-06 0.000156627
-0.000686713 0.000118047 -2.80326e-05
0.000118047 -0.000528402 1.56188e-06
-2.80326e-05 1.56188e-06 -0.00058276
0.00299489 0.000190953 -5.84445e-06
0.000190953 0.000424799 9.05012e-06
-5.84445e-06 9.05012e-06 -0.000489214
0.00192408 -1.26418e-06 -9.00381e-06
-1.26418e-06 -0.000182009 4.94632e-06
-9.00381e-06 4.94632e-06 -0.000236157
-0.000579555 -8.40726e-05 8.35258e-07
-8.40726e-05 -0.000938033 3.20409e-06
8.35258e-07 3.20409e-06 -0.000903164
0.00524277 9.44651e-05 1.82057e-05
9.44651e-05 0.00151658 4.04434e-06
1.82057e-05 4.04434e-06 0.000807518
0.00142164 8.25964e-05 -3.54766e-07
8.25964e-05 -7.70783e-05 -4.50957e-06
-3.54766e-07 -4.50957e-06 -0.000302758
-0.00054375 -9.58306e-05 1.72217e-06
-9.58306e-05 -0.000758661 -5.27248e-06
1.72217e-06 -5.27248e-06 -0.000919042
0.00165109 -0.000161517 2.68817e-08
-0.000161517 0.000187073 -4.29235e-07
2.68817e-08 -4.29235e-07 6.96425e-05
0.0016538 -0.000150935 -1.51431e-05
-0.000150935 2.99263e-06 8.94176e-06
-1.51431e-05 8.94176e-06 -9.10253e-05
0.00122271 -0.00011409 -3.01551e-06
-0.00011409 9.57681e-05 -2.22959e-06
-3.01551e-06 -2.22959e-06 -4.79609e-05
0.00146919 -0.000120365 -3.30854e-06
-0.000120365 5.65464e-05 3.66495e-07
-3.30854e-06 3.66495e-07 -5.02479e-05
0.00229841 -0.000114791 -9.00779e-06
-0.000114791 0.000344092 2.065e-06
-9.00779e-06 2.065e-06 0.000283987
0.00120133 -0.000102545 1.92983e-06
-0.000102545 5.23865e-05 -1.1967e-06
1.92983e-06 -1.1967e-06 -7.37933e-05
0.00144997 -9.49919e-05 -6.86172e-07
-9.49919e-05 7.70313e-05 -7.78905e-07
-6.86172e-07 -7.78905e-07 -1.53279e-05
0.00174323 -8.56062e-05 -1.92773e-06
-8.56062e-05 0.000134082 -1.49977e-06
-1.92773e-06 -1.49977e-06 8.03935e-05
0.00109715 -8.37895e-05 1.75244e-06
-8.37895e-05 -1.72108e-05 1.45858e-07
1.75244e-06 1.45858e-07 -0.000130474
0.00135365 -8.14766e-05 1.11168e-07
-8.14766e-05 3.96329e-05 8.75127e-08
1.11168e-07 8.75127e-08 -4.35856e-05
0.00140186 -7.44829e-05 -7.72797e-07
-7.44829e-05 2.21525e-05 -1.37062e-06
-7.72797e-07 -1.37062e-06 -3.73008e-05
0.00166473 -7.48643e-05 -5.38926e-07
-7.48643e-05 0.000194625 -1.12085e-06
-5.38926e-07 -1.12085e-06 0.000128229
0.00142641 -7.80025e-05 -7.50376e-07
-7.80025e-05 9.71226e-05 1.41062e-06
-7.50376e-07 1.41062e-06 1.92179e-05
0.00136738 -7.83253e-05 -9.36727e-07
-7.83253e-05 9.51708e-05 -2.84321e-06
-9.36727e-07 -2.84321e-06 1.09824e-05
0.00128934 -8.13617e-05 -1.91464e-06
-8.13617e-05 0.000113111 2.04441e-07
-1.91464e-06 2.04441e-07 1.75533e-05
0.00138404 -8.67503e-05 7.60123e-07
-8.67503e-05 0.000144918 -3.75964e-07
7.60123e-07 -3.75964e-07 4.36208e-05
0.00129061 -8.15769e-05 2.3911e-06
-8.15769e-05 7.3242e-05 1.71903e-06
2.3911e-06 1.71903e-06 -2.59983e-05
0.000842679 -6.7084e-05 -1.64049e-06
-6.7084e-05 -4.70513e-05 1.79873e-06
-1.64049e-06 1.79873e-06 -0.000137005
0.0010559 -7.62334e-05 1.01481e-07
-7.62334e-05 4.61932e-05 -6.69191e-08
1.01481e-07 -6.69191e-08 -5.14762e-05
0.00141223 -9.01181e-05 2.67879e-06
-9.01181e-05 0.000207912 -2.28672e-06
2.67879e-06 -2.28672e-06 0.000100773
0.00097906 -5.61549e-05 -1.08825e-06
-5.61549e-05 5.51574e-05 3.73539e-07
-1.08825e-06 3.73539e-07 -2.0626e-05
0.00107732 -7.16185e-05 7.60338e-08
-7.16185e-05 9.6491e-05 -1.81238e-07
7.60338e-08 -1.81238e-07 1.1689e-05
0.000823943 -6.7492e-05 6.61472e-07
-6.7492e-05 -3.90242e-05 -2.10062e-06
6.61472e-07 -2.10062e-06 -0.00013368
0.000873886 -5.87578e-06 -2.56265e-06
-5.87578e-06 2.2858e-05 1.90767e-06
-2.56265e-06 1.90767e-06 -3.59265e-05
0.00102154 -5.13052e-05 -5.80633e-08
-5.13052e-05 8.22709e-05 8.254e-09
-5.80633e-08 8.254e-09 8.30789e-06
0.00109846 -6.85003e-05 6.28532e-07
-6.85003e-05 0.000116256 -2.04235e-07
6.28532e-07 -2.04235e-07 3.43037e-05
0.000710976 3.67094e-05 -3.73019e-06
3.67094e-05 -5.51588e-05 3.73922e-06
-3.73019e-06 3.73922e-06 -7.44025e-05
0.000876389 7.84853e-06 -2.08137e-08
7.84853e-06 1.95762e-05 2.16155e-08
-2.08137e-08 2.16155e-08 -3.46214e-05
0.00102103 -2.75906e-05 1.38929e-06
-2.75906e-05 8.6887e-05 -2.89017e-07
1.38929e-06 -2.89017e-07 1.39787e-05
0.00248508 4.81072e-05 -2.48896e-05
4.81072e-05 0.000855496 3.50644e-06
-2.48896e-05 3.50644e-06 0.00086785
0.000769164 3.31149e-05 -1.59875e-08
3.31149e-05 -3.35057e-05 -3.05911e-08
-1.59875e-08 -3.05911e-08 -4.88453e-05
0.000861826 5.33976e-06 2.48837e-06
5.33976e-06 5.23704e-06 -2.15903e-06
2.48837e-06 -2.15903e-06 -4.21363e-05
0.0017042 3.78267e-05 9.45015e-06
3.78267e-05 0.000446672 -9.52731e-07
9.45015e-06 -9.52731e-07 0.000457328
0.00080876 3.0104e-05 3.49544e-06
3.0104e-05 -2.03584e-05 -3.53607e-06
3.49544e-06 -3.53607e-06 -3.25395e-05
0.0023376 3.84858e-05 2.19714e-05
3.84858e-05 0.000767647 -3.70842e-06
2.19714e-05 -3.70842e-06 0.000783517
0.00103264 4.97835e-05 -2.73898e-07
4.97835e-05 9.05947e-05 5.74936e-07
-2.73898e-07 5.74936e-07 1.52211e-05
0.00101252 3.24734e-05 8.9834e-08
3.24734e-05 7.61727e-05 4.42063e-07
8.9834e-08 4.42063e-07 2.95428e-06
0.000953155 -6.02311e-06 -9.68758e-07
-6.02311e-06 4.59078e-05 -1.18412e-06
-9.68758e-07 -1.18412e-06 -2.01282e-05
0.000992311 2.59729e-05 4.81129e-07
2.59729e-05 6.14908e-05 7.5189e-07
4.81129e-07 7.5189e-07 -9.52131e-06
0.000954179 -1.30024e-05 -5.90973e-09
-1.30024e-05 4.01491e-05 2.14392e-08
-5.90973e-09 2.14392e-08 -2.14275e-05
0.000853169 -2.03512e-05 -1.74e-06
-2.03512e-05 -5.73071e-06 -2.43266e-06
-1.74e-06 -2.43266e-06 -4.69794e-05
0.000814611 -2.58177e-05 -2.89707e-06
-2.58177e-05 -2.79299e-05 -3.5891e-06
-2.89707e-06 -3.5891e-06 -3.69181e-05
0.000868892 -2.25906e-05 -2.0806e-07
-2.25906e-05 -3.37257e-06 -3.43882e-08
-2.0806e-07 -3.43882e-08 -4.07699e-05
0.000947408 -1.78858e-05 1.9483e-07
-1.78858e-05 3.25837e-05 1.50908e-06
1.9483e-07 1.50908e-06 -2.46176e-05
0.00233329 -3.38651e-05 -2.00597e-05
-3.38651e-05 0.000755798 -3.82499e-06
-2.00597e-05 -3.82499e-06 0.000773422
0.00080911 -2.25819e-05 -1.79876e-07
-2.25819e-05 -3.53686e-05 1.34938e-08
-1.79876e-07 1.34938e-08 -4.26045e-05
0.000883344 -1.31405e-05 1.44469e-06
-1.31405e-05 7.29831e-07 1.95333e-06
1.44469e-06 1.95333e-06 -3.41047e-05
0.00231505 -2.95499e-05 -8.74906e-07
-2.95499e-05 0.000740261 5.74683e-08
-8.74906e-07 5.74683e-08 0.000759258
0.000801895 -1.99727e-05 1.61143e-06
-1.99727e-05 -4.34052e-05 3.40078e-06
1.61143e-06 3.40078e-06 -4.89481e-05
0.00225998 -2.48457e-05 1.36829e-05
-2.48457e-05 0.000706303 3.88255e-06
1.36829e-05 3.88255e-06 0.000726846
0.000197374 5.68912e-05 9.88678e-05
5.68912e-05 -0.000179246 1.35868e-05
9.88678e-05 1.35868e-05 -0.000376598
0.00125675 -4.94383e-05 4.18138e-06
-4.94383e-05 0.000483632 7.4045e-07
4.18138e-06 7.4045e-07 0.000469755
0.00064037 1.38059e-05 9.44487e-06
1.38059e-05 -5.61538e-05 1.50942e-06
9.44487e-06 1.50942e-06 -0.000132036
0.000991798 3.75753e-05 8.71951e-07
3.75753e-05 6.8289e-05 5.6122e-07
8.71951e-07 5.6122e-07 -1.04515e-05
0.000997487 4.14879e-05 4.53798e-07
4.14879e-05 7.2841e-05 1.82857e-07
4.53798e-07 1.82857e-07 -8.71176e-06
0.00104473 6.40126e-05 -7.51267e-08
6.40126e-05 0.000104703 -3.9341e-08
-7.51267e-08 -3.9341e-08 2.46779e-05
0.00112591 7.11335e-05 -4.16823e-08
7.11335e-05 0.000146608 5.82337e-07
-4.16823e-08 5.82337e-07 6.51305e-05
0.00106004 5.9897e-05 -1.42967e-06
5.9897e-05 0.000113848 2.82546e-07
-1.42967e-06 2.82546e-07 3.00284e-05
0.000989872 3.06812e-05 3.05376e-07
3.06812e-05 6.5422e-05 9.74644e-07
3.05376e-07 9.74644e-07 -1.30612e-05
0.000986876 3.938e-05 8.40394e-07
3.938e-05 6.40152e-05 8.73502e-07
8.40394e-07 8.73502e-07 -1.67354e-05
0.000925737 5.21435e-05 -4.15768e-07
5.21435e-05 4.80499e-05 -4.13924e-07
-4.15768e-07 -4.13924e-07 -3.82603e-05
0.00047328 5.05869e-05 -1.12903e-06
5.05869e-05 -0.000173392 9.41642e-07
-1.12903e-06 9.41642e-07 -0.000259235
0.000822521 6.08098e-05 -1.21156e-06
6.08098e-05 -9.47596e-06 -1.10156e-06
-1.21156e-06 -1.10156e-06 -9.74065e-05
0.00184811 0.000119896 1.51253e-06
0.000119896 0.000447567 -3.6845e-06
1.51253e-06 -3.6845e-06 0.000343572
0.00102764 4.69974e-05 -1.55962e-06
4.69974e-05 0.000101322 -1.07519e-07
-1.55962e-06 -1.07519e-07 1.82963e-05
0.00099768 3.05828e-05 4.58159e-07
3.05828e-05 7.53425e-05 4.08115e-07
4.58159e-07 4.08115e-07 -3.53568e-06
0.00793254 -0.000119253 -1.28163e-05
-0.000119253 0.00226949 -1.02137e-05
-1.28163e-05 -1.02137e-05 0.00152378
-0.000313757 -0.000176059 1.50457e-06
-0.000176059 -0.000365439 5.35885e-06
1.50457e-06 5.35885e-06 -0.000429175
0.00202085 -0.000126595 -1.41631e-05
-0.000126595 0.00075476 -8.63123e-06
-1.41631e-05 -8.63123e-06 0.000929171
-0.00226699 -0.000200939 -2.82237e-05
-0.000200939 -0.00144105 -2.67426e-05
-2.82237e-05 -2.67426e-05 -0.00126417
0.00816523 -0.000274136 6.42612e-05
-0.000274136 0.00239001 4.07185e-05
6.42612e-05 4.07185e-05 0.00126113
0.00180733 0.000104392 2.86757e-05
0.000104392 0.000310647 1.42281e-05
2.86757e-05 1.42281e-05 6.17784e-05
0.00174189 0.000160262 -3.18219e-05
0.000160262 7.72014e-05 -2.44162e-05
-3.18219e-05 -2.44162e-05 -0.00028833
0.00549314 -0.000200859 3.08332e-05
-0.000200859 0.0013773 1.70499e-05
3.08332e-05 1.70499e-05 0.000630113
0.00157461 8.39536e-05 -3.65703e-05
8.39536e-05 -0.000101578 -4.70132e-05
-3.65703e-05 -4.70132e-05 -0.000426872
0.00222251 0.000203809 1.80564e-05
0.000203809 0.000447891 8.98962e-06
1.80564e-05 8.98962e-06 0.000295823
0.000891439 0.000115622 -3.24477e-09
0.000115622 5.53325e-05 -4.74581e-06
-3.24477e-09 -4.74581e-06 -9.1165e-05
0.000902664 6.02726e-05 1.14889e-07
6.02726e-05 3.36381e-05 1.9136e-06
1.14889e-07 1.9136e-06 -2.92337e-05
0.00191944 0.000158546 -2.6158e-05
0.000158546 0.000607974 -1.91545e-05
-2.6158e-05 -1.91545e-05 0.000488745
3.45903e-05 0.000141536 -4.77596e-06
0.000141536 -0.000525655 1.18706e-05
-4.77596e-06 1.18706e-05 -0.000625637
0.000268172 1.51071e-05 -8.83916e-07
1.51071e-05 -0.000745535 -6.85665e-06
-8.83916e-07 -6.85665e-06 -0.00122829
0.00148443 5.21833e-06 -1.91361e-06
5.21833e-06 0.000384965 2.87365e-06
-1.91361e-06 2.87365e-06 0.000293278
-0.0011326 -4.44937e-06 -7.27291e-06
-4.44937e-06 -0.000881231 -1.50382e-07
-7.27291e-06 -1.50382e-07 -0.00095252
0.00292462 -0.000197233 -4.21671e-05
-0.000197233 0.000706705 7.47239e-07
-4.21671e-05 7.47239e-07 0.000771218
0.00169268 -1.46889e-05 2.93772e-05
-1.46889e-05 -0.000618761 -2.5244e-05
2.93772e-05 -2.5244e-05 -0.000804567
0.000586224 -9.44055e-07 -0.000110023
-9.44055e-07 -5.84966e-05 2.45141e-05
-0.000110023 2.45141e-05 -0.00024086
0.0061728 0.000327905 -2.33716e-05
0.000327905 0.00200585 9.62432e-06
-2.33716e-05 9.62432e-06 0.00112158
0.00102039 -0.000122852 2.43103e-06
-0.000122852 -0.000183501 -1.36641e-06
2.43103e-06 -1.36641e-06 -0.000141214
0.00476403 0.000184333 2.75109e-05
0.000184333 0.00129824 3.74859e-06
2.75109e-05 3.74859e-06 0.000664543
0.00251148 8.76503e-05 3.23877e-05
8.76503e-05 0.000101757 -6.21358e-06
3.23877e-05 -6.21358e-06 -0.000188396
0.00225044 -5.88831e-05 -8.33014e-06
-5.88831e-05 0.000381313 -2.11578e-06
-8.33014e-06 -2.11578e-06 0.000338911
0.000896731 5.78742e-05 -3.53776e-05
5.78742e-05 7.54986e-05 7.12954e-06
-3.53776e-05 7.12954e-06 -0.000177159
0.00129804 -0.000146454 6.41281e-06
-0.000146454 4.4431e-05 -6.16824e-06
6.41281e-06 -6.16824e-06 -7.30684e-05
0.00150883 -0.000143636 -3.99131e-06
-0.000143636 -5.52557e-05 8.50683e-07
-3.99131e-06 8.50683e-07 -0.000144061
0.00236716 -0.000106959 -1.33508e-05
-0.000106959 0.000214317 2.14552e-06
-1.33508e-05 2.14552e-06 0.000161632
0.000985783 -0.00010932 2.68465e-06
-0.00010932 -0.000183173 -2.8158e-06
2.68465e-06 -2.8158e-06 -0.000288032
0.00156278 -0.000100992 1.89234e-06
-0.000100992 -2.80204e-06 9.61549e-07
1.89234e-06 9.61549e-07 -6.07978e-05
0.00187424 -7.45082e-05 -2.83977e-06
-7.45082e-05 9.72718e-05 3.9477e-06
-2.83977e-06 3.9477e-06 6.59633e-05
0.0010876 -8.62859e-05 2.1411e-06
-8.62859e-05 -0.000108354 1.65446e-06
2.1411e-06 1.65446e-06 -0.000198518
0.00149952 -8.2306e-05 1.00155e-07
-8.2306e-05 1.41967e-05 1.69387e-06
1.00155e-07 1.69387e-06 -3.98769e-05
0.00160171 -6.90813e-05 9.81241e-07
-6.90813e-05 4.96641e-05 2.04544e-06
9.81241e-07 2.04544e-06 7.05795e-06
0.00122222 -7.81142e-05 2.89255e-06
-7.81142e-05 -2.86314e-05 3.05035e-06
2.89255e-06 3.05035e-06 -0.000110899
0.00143266 -7.56979e-05 1.30743e-07
-7.56979e-05 3.91255e-05 1.19609e-06
1.30743e-07 1.19609e-06 -2.14422e-05
0.00150573 -6.76093e-05 2.5363e-07
-6.76093e-05 7.31116e-05 -7.07102e-08
2.5363e-07 -7.07102e-08 1.56693e-05
0.00146547 -7.17642e-05 -1.39895e-06
-7.17642e-05 9.67233e-05 1.19827e-06
-1.39895e-06 1.19827e-06 3.25842e-05
0.00163326 -7.3839e-05 1.14648e-06
-7.3839e-05 0.00019702 -1.95746e-06
1.14648e-06 -1.95746e-06 0.000124177
0.00143379 -7.64482e-05 1.85914e-06
-7.64482e-05 0.000101263 4.13479e-06
1.85914e-06 4.13479e-06 2.55562e-05
0.00138112 -7.79386e-05 1.16669e-07
-7.79386e-05 0.000101703 -5.40041e-07
1.16669e-07 -5.40041e-07 1.71165e-05
0.00135838 -7.57812e-05 -8.9272e-07
-7.57812e-05 0.000106819 -1.13748e-06
-8.9272e-07 -1.13748e-06 2.04324e-05
0.000951304 -6.88626e-05 -2.03723e-06
-6.88626e-05 -3.35807e-05 1.10007e-06
-2.03723e-06 1.10007e-06 -0.000123875
0.00128404 -8.06571e-05 5.28013e-08
-8.06571e-05 0.000111679 -1.21297e-07
5.28013e-08 -1.21297e-07 1.56777e-05
0.00148042 -8.86393e-05 2.48031e-06
-8.86393e-05 0.000194675 -2.68862e-07
2.48031e-06 -2.68862e-07 9.32294e-05
0.0010158 -6.29374e-05 -1.50139e-06
-6.29374e-05 5.78954e-05 1.003e-06
-1.50139e-06 1.003e-06 -2.13481e-05
0.000922197 -6.90992e-05 -4.48315e-07
-6.90992e-05 -4.95265e-06 5.11066e-07
-4.48315e-07 5.11066e-07 -9.42343e-05
0.00129213 -8.25894e-05 1.69799e-06
-8.25894e-05 0.000165547 -1.57087e-06
1.69799e-06 -1.57087e-06 6.89692e-05
0.000816026 -1.0745e-05 -2.33593e-06
-1.0745e-05 -5.78976e-06 1.49418e-06
-2.33593e-06 1.49418e-06 -6.73723e-05
0.00103427 -5.83837e-05 2.04607e-09
-5.83837e-05 8.13929e-05 -1.3197e-07
2.04607e-09 -1.3197e-07 5.46662e-06
0.00112161 -7.25308e-05 7.67954e-07
-7.25308e-05 0.000117593 -1.0757e-06
7.67954e-07 -1.0757e-06 3.26575e-05
0.000665992 4.11004e-05 -3.39197e-06
4.11004e-05 -7.01597e-05 3.92209e-06
-3.39197e-06 3.92209e-06 -9.43357e-05
0.00088281 -8.1093e-06 -1.68468e-08
-8.1093e-06 2.53545e-05 1.46314e-07
-1.68468e-08 1.46314e-07 -3.3078e-05
0.0010548 -5.26576e-05 1.34942e-06
-5.26576e-05 9.7843e-05 -1.80082e-07
1.34942e-06 -1.80082e-07 2.3983e-05
0.00258723 5.37149e-05 -2.63283e-05
5.37149e-05 0.000914577 3.41184e-06
-2.63283e-05 3.41184e-06 0.000924746
0.000741606 3.8386e-05 -1.79623e-08
3.8386e-05 -3.84136e-05 -6.538e-08
-1.79623e-08 -6.538e-08 -5.81547e-05
0.000862306 -6.77274e-06 2.5245e-06
-6.77274e-06 1.03075e-05 -1.8837e-06
2.5245e-06 -1.8837e-06 -4.31624e-05
0.00249356 4.8282e-05 2.61766e-07
4.8282e-05 0.00086057 7.44099e-08
2.61766e-07 7.44099e-08 0.000872667
0.000792012 3.45508e-05 3.45499e-06
3.45508e-05 -2.11222e-05 -3.67045e-06
3.45499e-06 -3.67045e-06 -3.68645e-05
0.00241998 4.32854e-05 2.41213e-05
4.32854e-05 0.000816822 -3.63787e-06
2.41213e-05 -3.63787e-06 0.000830684
0.00105728 6.07935e-05 -4.07344e-07
6.07935e-05 0.000106838 3.19946e-07
-4.07344e-07 3.19946e-07 2.8031e-05
0.000996642 5.12931e-05 2.84231e-07
5.12931e-05 7.34278e-05 1.3775e-07
2.84231e-07 1.3775e-07 -2.16523e-06
0.000897619 -3.55798e-06 -1.32314e-06
-3.55798e-06 2.00175e-05 -5.75204e-07
-1.32314e-06 -5.75204e-07 -4.9516e-05
0.000971297 2.45038e-05 8.59184e-07
2.45038e-05 5.38926e-05 9.7851e-07
8.59184e-07 9.7851e-07 -1.93646e-05
0.000932978 -8.96634e-06 -8.07219e-08
-8.96634e-06 3.53477e-05 1.85402e-07
-8.07219e-08 1.85402e-07 -3.10045e-05
0.000853279 -1.5505e-05 -2.10585e-06
-1.5505e-05 -1.44355e-06 -2.19661e-06
-2.10585e-06 -2.19661e-06 -4.78445e-05
0.000945731 -1.44992e-05 6.07178e-07
-1.44992e-05 3.58725e-05 1.58991e-06
6.07178e-07 1.58991e-06 -2.56383e-05
0.000864992 -2.02174e-05 -7.28328e-08
-2.02174e-05 -4.71437e-07 -8.46471e-08
-7.28328e-08 -8.46471e-08 -4.15645e-05
0.000805149 -2.9845e-05 -3.2454e-06
-2.9845e-05 -2.56613e-05 -3.72409e-06
-3.2454e-06 -3.72409e-06 -3.73027e-05
0.00235127 -3.8251e-05 -2.18977e-05
-3.8251e-05 0.000771386 -3.73577e-06
-2.18977e-05 -3.73577e-06 0.00078762
0.000802587 -2.53057e-05 -6.46244e-08
-2.53057e-05 -3.3806e-05 -7.783e-10
-6.46244e-08 -7.783e-10 -4.27151e-05
0.000873407 -1.99805e-05 1.39728e-06
-1.99805e-05 -1.5713e-06 2.18929e-06
1.39728e-06 2.18929e-06 -3.87298e-05
0.00234768 -3.4004e-05 -7.70642e-07
-3.4004e-05 0.000762506 6.86786e-08
-7.70642e-07 6.86786e-08 0.000780194
0.000794411 -2.23135e-05 2.07479e-06
-2.23135e-05 -4.26492e-05 3.49482e-06
2.07479e-06 3.49482e-06 -4.98288e-05
0.0023168 -2.95818e-05 1.64864e-05
-2.95818e-05 0.000740599 3.8752e-06
1.64864e-05 3.8752e-06 0.000759711
0.00617147 -8.21426e-06 3.19663e-05
-8.21426e-06 0.00182954 6.55864e-07
3.19663e-05 6.55864e-07 0.00124791
-0.00111726 -4.21911e-05 1.08373e-05
-4.21911e-05 -0.000642309 1.31081e-06
1.08373e-05 1.31081e-06 -0.000620185
-2.47914e-05 -3.11499e-05 -4.07386e-06
-3.11499e-05 -0.000280737 -1.66576e-07
-4.07386e-06 -1.66576e-07 -0.00032848
0.000980145 3.21976e-05 1.07918e-06
3.21976e-05 6.48764e-05 4.2719e-07
1.07918e-06 4.2719e-07 -1.67199e-05
0.000962267 6.1991e-05 4.99001e-07
6.1991e-05 6.51656e-05 -2.10637e-07
4.99001e-07 -2.10637e-07 -1.44123e-05
0.00110586 6.28763e-05 2.15896e-07
6.28763e-05 0.000137277 -5.43916e-08
2.15896e-07 -5.43916e-08 5.34489e-05
0.00106952 6.94806e-05 -4.24059e-07
6.94806e-05 0.000118591 -1.82838e-07
-4.24059e-07 -1.82838e-07 3.71342e-05
0.00113107 7.32291e-05 2.94118e-06
7.32291e-05 0.000151345 1.14938e-06
2.94118e-06 1.14938e-06 6.59887e-05
0.000797766 6.10659e-05 -1.42396e-06
6.10659e-05 -1.06871e-05 1.08154e-06
-1.42396e-06 1.08154e-06 -9.38891e-05
0.000767944 5.03356e-05 7.90598e-07
5.03356e-05 -3.09231e-05 3.77174e-07
7.90598e-07 3.77174e-07 -0.000116716
0.000759855 6.01845e-05 5.72188e-07
6.01845e-05 -3.09634e-05 -1.04383e-07
5.72188e-07 -1.04383e-07 -0.000118904
0.000830812 5.71988e-05 7.4506e-07
5.71988e-05 3.13615e-06 9.10642e-08
7.4506e-07 9.10642e-08 -8.61743e-05
0.000419574 6.04569e-05 3.5532e-07
6.04569e-05 -0.000225464 5.62615e-07
3.5532e-07 5.62615e-07 -0.00031337
0.00264152 0.00014031 4.23568e-07
0.00014031 0.000824161 -2.66948e-07
4.23568e-07 -2.66948e-07 0.000726527
0.00183864 0.000135933 1.18319e-06
0.000135933 0.000306359 -2.73087e-06
1.18319e-06 -2.73087e-06 0.000186342
0.00124294 0.000102027 9.30587e-07
0.000102027 0.000154667 -1.38017e-07
9.30587e-07 -1.38017e-07 5.35909e-05
0.00118093 4.75587e-05 -1.60779e-06
4.75587e-05 0.000188546 7.70368e-07
-1.60779e-06 7.70368e-07 0.000104037
0.00134176 -5.97566e-05 -1.66435e-05
-5.97566e-05 -0.00024472 -1.74204e-05
-1.66435e-05 -1.74204e-05 -0.000400773
0.00392012 -0.000110381 -4.24349e-06
-0.000110381 0.000718854 -1.13158e-06
-4.24349e-06 -1.13158e-06 7.88381e-05
0.00288866 -0.000239985 -3.59664e-05
-0.000239985 0.00125497 -1.92741e-05
-3.59664e-05 -1.92741e-05 0.00122336
0.00481022 -0.000112292 0.000120621
-0.000112292 0.00110148 3.66492e-05
0.000120621 3.66492e-05 0.000246552
0.00300977 0.000188047 3.09042e-05
0.000188047 0.000761763 4.69731e-05
3.09042e-05 4.69731e-05 0.000561241
0.00132891 4.86296e-05 -2.27849e-05
4.86296e-05 -4.34238e-05 -8.50891e-06
-2.27849e-05 -8.50891e-06 -0.000201843
0.0012121 9.42401e-05 1.99121e-05
9.42401e-05 -0.000181371 1.30108e-05
1.99121e-05 1.30108e-05 -0.000223562
0.00188301 0.000198269 -1.65503e-07
0.000198269 0.000282326 6.04468e-06
-1.65503e-07 6.04468e-06 0.000150133
0.00024822 8.59723e-05 -2.03251e-06
8.59723e-05 -0.00025028 4.25798e-06
-2.03251e-06 4.25798e-06 -0.000393946
0.00199032 0.000218021 -6.17424e-05
0.000218021 0.00029839 -5.53377e-05
-6.17424e-05 -5.53377e-05 0.000240756
0.00231724 -1.65449e-05 -0.000116506
-1.65449e-05 0.000564931 -4.36505e-06
-0.000116506 -4.36505e-06 0.000263151
0.00586051 4.35461e-05 9.81708e-06
4.35461e-05 0.00192794 -2.05685e-06
9.81708e-06 -2.05685e-06 0.00139023
-0.00315203 -3.38607e-05 -5.26185e-05
-3.38607e-05 -0.00196686 7.78448e-06
-5.26185e-05 7.78448e-06 -0.00191579
0.00274179 -0.000165178 9.04001e-07
-0.000165178 0.000641027 1.61297e-06
9.04001e-07 1.61297e-06 0.00067891
0.00192524 7.73132e-05 4.13936e-05
7.73132e-05 -0.000110173 -4.50162e-06
4.13936e-05 -4.50162e-06 -0.000294559
0.00120469 -1.43226e-05 2.90316e-05
-1.43226e-05 -0.000218564 8.15727e-07
2.90316e-05 8.15727e-07 -0.000731437
0.00168633 -8.73307e-05 -2.44895e-07
-8.73307e-05 6.64063e-05 2.77193e-06
-2.44895e-07 2.77193e-06 6.14659e-05
0.00134027 9.63663e-05 2.23109e-06
9.63663e-05 0.000129758 -5.25254e-06
2.23109e-06 -5.25254e-06 -8.00737e-05
0.00307591 -1.49617e-05 1.88187e-06
-1.49617e-05 0.000664299 -1.44298e-05
1.88187e-06 -1.44298e-05 0.000623095
0.00106442 5.88512e-05 8.33631e-06
5.88512e-05 -0.000153589 -1.72501e-06
8.33631e-06 -1.72501e-06 -0.000232817
0.0025292 -0.000162564 5.39318e-06
-0.000162564 0.000463158 -3.66536e-06
5.39318e-06 -3.66536e-06 0.000374732
0.00215174 -0.000105082 2.49952e-06
-0.000105082 0.000110643 -7.64214e-07
2.49952e-06 -7.64214e-07 6.14518e-05
0.0021616 -2.88195e-05 -1.80635e-06
-2.88195e-05 0.000196261 1.21046e-06
-1.80635e-06 1.21046e-06 0.00015213
0.000871323 -8.89459e-05 1.01371e-05
-8.89459e-05 -0.000331598 -1.10307e-06
1.01371e-05 -1.10307e-06 -0.00038815
0.00181587 -7.43726e-05 3.3125e-06
-7.43726e-05 8.18845e-05 3.19137e-07
3.3125e-06 3.19137e-07 4.80064e-05
0.00180997 -4.3328e-05 -1.29604e-07
-4.3328e-05 0.000108746 2.83567e-06
-1.29604e-07 2.83567e-06 5.77918e-05
0.00129935 -7.96242e-05 4.69088e-06
-7.96242e-05 -8.3344e-05 2.87671e-06
4.69088e-06 2.87671e-06 -0.000138159
0.00157495 -6.93167e-05 1.07784e-06
-6.93167e-05 4.50509e-05 9.86678e-07
1.07784e-06 9.86678e-07 1.00203e-07
0.00168854 -5.63806e-05 -2.87993e-08
-5.63806e-05 0.000113003 1.24863e-06
-2.87993e-08 1.24863e-06 5.37057e-05
0.00147508 -7.69446e-05 1.64393e-06
-7.69446e-05 6.19327e-05 3.02683e-06
1.64393e-06 3.02683e-06 2.01963e-07
0.00143401 -6.85701e-05 -6.37618e-08
-6.85701e-05 4.41571e-05 -2.02365e-08
-6.37618e-08 -2.02365e-08 -1.37933e-05
0.00143121 -6.49864e-05 1.81344e-06
-6.49864e-05 6.47693e-05 1.51431e-08
1.81344e-06 1.51431e-08 -6.18365e-06
0.00127984 -6.88515e-05 -1.95716e-07
-6.88515e-05 5.5705e-06 3.20916e-06
-1.95716e-07 3.20916e-06 -5.63427e-05
0.00148297 -7.04661e-05 -9.55556e-07
-7.04661e-05 0.000121264 -6.97228e-07
-9.55556e-07 -6.97228e-07 4.98386e-05
0.00159114 -7.20949e-05 2.26488e-07
-7.20949e-05 0.000192845 -1.0171e-06
2.26488e-07 -1.0171e-06 0.00011292
0.00139288 -7.75212e-05 1.16483e-06
-7.75212e-05 0.000107119 1.61765e-06
1.16483e-06 1.61765e-06 2.21548e-05
0.00135933 -7.52324e-05 1.77648e-07
-7.52324e-05 0.000107856 -3.53551e-07
1.77648e-07 -3.53551e-07 2.10405e-05
0.00139843 -7.40642e-05 -1.13251e-06
-7.40642e-05 0.000149649 -2.28608e-07
-1.13251e-06 -2.28608e-07 6.44465e-05
0.000810685 -5.83519e-05 -2.55412e-06
-5.83519e-05 -7.61841e-05 1.39032e-06
-2.55412e-06 1.39032e-06 -0.000157992
0.00104077 -7.08024e-05 -3.55687e-07
-7.08024e-05 1.44379e-05 3.59432e-07
-3.55687e-07 3.59432e-07 -7.53315e-05
0.00127934 -7.99727e-05 1.68941e-06
-7.99727e-05 0.000110592 -7.42459e-07
1.68941e-06 -7.42459e-07 1.41402e-05
0.000844139 -2.80647e-05 -2.48225e-06
-2.80647e-05 2.43947e-06 1.52793e-06
-2.48225e-06 1.52793e-06 -6.19409e-05
0.00105133 -6.36051e-05 7.38311e-08
-6.36051e-05 7.48626e-05 1.32239e-09
7.38311e-08 1.32239e-09 -4.40479e-06
0.00102193 -7.17487e-05 5.6211e-07
-7.17487e-05 4.69964e-05 -6.64679e-07
5.6211e-07 -6.64679e-07 -4.16261e-05
0.000658543 4.44994e-05 -3.3108e-06
4.44994e-05 -6.49791e-05 3.80027e-06
-3.3108e-06 3.80027e-06 -9.47752e-05
0.000879369 -1.56748e-05 -5.8821e-08
-1.56748e-05 2.45742e-05 6.0782e-08
-5.8821e-08 6.0782e-08 -3.69732e-05
0.00108743 -6.04006e-05 1.45829e-06
-6.04006e-05 0.000106678 -7.82591e-07
1.45829e-06 -7.82591e-07 3.06101e-05
0.0027198 5.96228e-05 -2.82069e-05
5.96228e-05 0.000988562 3.35177e-06
-2.82069e-05 3.35177e-06 0.000996278
0.000719082 4.26029e-05 1.67382e-07
4.26029e-05 -4.23506e-05 -8.89052e-09
1.67382e-07 -8.89052e-09 -6.69544e-05
0.00089068 -1.02154e-05 2.70694e-06
-1.02154e-05 2.73548e-05 -1.56218e-06
2.70694e-06 -1.56218e-06 -3.07338e-05
0.00260001 5.37747e-05 2.52929e-07
5.37747e-05 0.000921649 8.27171e-08
2.52929e-07 8.27171e-08 0.00093151
0.000774017 3.96813e-05 3.07476e-06
3.96813e-05 -2.10138e-05 -3.80425e-06
3.07476e-06 -3.80425e-06 -4.11954e-05
0.00250227 4.83299e-05 2.5903e-05
4.83299e-05 0.000865718 -3.5542e-06
2.5903e-05 -3.5542e-06 0.000877576
0.00107952 6.66962e-05 -6.45377e-07
6.66962e-05 0.000118342 -4.60934e-07
-6.45377e-07 -4.60934e-07 3.60807e-05
0.00110083 6.25421e-05 1.62949e-07
6.25421e-05 0.000128662 1.09244e-07
1.62949e-07 1.09244e-07 5.01595e-05
0.000967486 2.62198e-05 -1.37558e-06
2.62198e-05 5.9463e-05 -2.65839e-07
-1.37558e-06 -2.65839e-07 -1.27357e-05
0.000966183 5.40765e-05 7.1743e-07
5.40765e-05 5.91877e-05 7.81059e-09
7.1743e-07 7.81059e-09 -1.6698e-05
0.000901467 2.40394e-06 -3.73531e-07
2.40394e-06 2.28303e-05 -2.19046e-08
-3.73531e-07 -2.19046e-08 -4.7192e-05
0.000852577 -3.31113e-06 -2.57437e-06
-3.31113e-06 2.6053e-06 -1.67659e-06
-2.57437e-06 -1.67659e-06 -4.97145e-05
0.000915418 -1.51078e-05 7.3695e-07
-1.51078e-05 2.64306e-05 1.30644e-06
7.3695e-07 1.30644e-06 -4.05664e-05
0.000860056 -1.68495e-05 -2.47328e-08
-1.68495e-05 2.18846e-06 -7.87875e-08
-2.47328e-08 -7.87875e-08 -4.4264e-05
0.000789601 -3.50032e-05 -3.37065e-06
-3.50032e-05 -2.54156e-05 -3.75557e-06
-3.37065e-06 -3.75557e-06 -4.07707e-05
0.00087694 -2.05777e-05 1.59533e-06
-2.05777e-05 4.90591e-06 2.43553e-06
1.59533e-06 2.43553e-06 -3.60498e-05
0.000788386 -2.88437e-05 -5.73216e-08
-2.88437e-05 -3.45402e-05 -2.85733e-08
-5.73216e-08 -2.85733e-08 -4.59211e-05
0.00240746 -4.29511e-05 -2.38091e-05
-4.29511e-05 0.000807299 -3.65581e-06
-2.38091e-05 -3.65581e-06 0.000821699
0.00237158 -3.84396e-05 -4.84201e-07
-3.84396e-05 0.000780886 6.83108e-08
-4.84201e-07 6.83108e-08 0.000797202
0.000790043 -2.48116e-05 2.72358e-06
-2.48116e-05 -4.00318e-05 3.54818e-06
2.72358e-06 3.54818e-06 -4.88496e-05
0.00235854 -3.41712e-05 1.8907e-05
-3.41712e-05 0.000767489 3.81369e-06
1.8907e-05 3.81369e-06 0.000785239
0.00101756 -3.64649e-05 -5.46415e-05
-3.64649e-05 -0.000169219 -6.01137e-06
-5.46415e-05 -6.01137e-06 -0.000350395
0.00153441 -6.63572e-05 -8.32441e-06
-6.63572e-05 -0.00023373 -5.08641e-06
-8.32441e-06 -5.08641e-06 -0.000779042
0.0032048 -0.000198053 -4.02233e-05
-0.000198053 0.0012469 -4.90118e-06
-4.02233e-05 -4.90118e-06 0.00122098
0.00117716 7.80535e-05 3.50393e-06
7.80535e-05 0.000146214 1.07612e-06
3.50393e-06 1.07612e-06 5.77394e-05
0.00113937 6.32558e-05 1.00656e-06
6.32558e-05 0.000154673 -4.29863e-07
1.00656e-06 -4.29863e-07 7.1087e-05
0.00100535 6.74798e-05 1.76408e-07
6.74798e-05 8.66752e-05 -4.27343e-07
1.76408e-07 -4.27343e-07 5.27167e-06
0.000983484 6.75047e-05 3.46283e-08
6.75047e-05 8.25956e-05 1.85461e-07
3.46283e-08 1.85461e-07 -1.28155e-06
0.00105253 7.09975e-05 -1.02959e-07
7.09975e-05 0.000114093 -4.16909e-07
-1.02959e-07 -4.16909e-07 2.82662e-05
0.000726061 6.46345e-05 -1.06596e-06
6.46345e-05 -5.75829e-05 1.26454e-06
-1.06596e-06 1.26454e-06 -0.000136505
0.00112096 7.27213e-05 1.82181e-06
7.27213e-05 0.000149906 -1.44262e-06
1.82181e-06 -1.44262e-06 5.94934e-05
0.00106382 5.90937e-05 3.27182e-07
5.90937e-05 0.000125729 6.24492e-07
3.27182e-07 6.24492e-07 3.48279e-05
0.000999408 7.93739e-05 -8.5472e-08
7.93739e-05 6.07755e-05 -1.48984e-07
-8.5472e-08 -1.48984e-07 -2.65057e-05
0.00196681 0.000119781 3.367e-07
0.000119781 0.000502911 1.38735e-06
3.367e-07 1.38735e-06 0.000407847
0.00153391 0.000114598 7.07082e-07
0.000114598 0.000177924 -1.32682e-06
7.07082e-07 -1.32682e-06 7.13185e-05
0.00195536 0.000115007 -1.71926e-06
0.000115007 0.000168813 1.22335e-06
-1.71926e-06 1.22335e-06 5.5639e-05
0.00137665 0.00012157 2.33901e-06
0.00012157 7.22069e-05 7.12381e-07
2.33901e-06 7.12381e-07 -4.70864e-05
0.000736221 8.49664e-05 -9.52413e-07
8.49664e-05 -9.6407e-05 3.66186e-06
-9.52413e-07 3.66186e-06 -0.000194411
0.00112112 -4.32935e-06 -9.0035e-06
-4.32935e-06 -0.000235336 3.01782e-06
-9.0035e-06 3.01782e-06 -0.000252953
0.00264859 -5.20042e-05 -2.50184e-06
-5.20042e-05 0.000178814 1.16026e-06
-2.50184e-06 1.16026e-06 -2.24843e-05
0.00108063 -0.000130077 -6.14802e-06
-0.000130077 -0.000492121 -3.57657e-06
-6.14802e-06 -3.57657e-06 -0.00104009
0.00267276 0.000127992 2.87489e-05
0.000127992 0.000220917 2.27336e-05
2.87489e-05 2.27336e-05 -4.62698e-05
0.0013947 9.53902e-05 1.06267e-06
9.53902e-05 -0.00010706 1.50738e-06
1.06267e-06 1.50738e-06 -0.000151718
0.000206194 0.000145334 -1.21419e-05
0.000145334 -0.000483448 -6.80935e-06
-1.21419e-05 -6.80935e-06 -0.000617957
0.00247738 -2.82967e-05 1.02542e-05
-2.82967e-05 0.000610487 -5.08049e-06
1.02542e-05 -5.08049e-06 0.000531832
0.000838647 -7.15129e-06 -2.29616e-05
-7.15129e-06 1.86858e-05 1.82325e-06
-2.29616e-05 1.82325e-06 -0.000218982
0.00099773 0.000139048 4.86861e-05
0.000139048 -0.000491751 -1.59237e-06
4.86861e-05 -1.59237e-06 -0.000992523
0.000958914 -9.7219e-05 -5.6846e-07
-9.7219e-05 -0.000333682 1.2435e-05
-5.6846e-07 1.2435e-05 -0.000304162
0.00234909 0.000120798 4.31252e-05
0.000120798 0.000411821 -1.31507e-05
4.31252e-05 -1.31507e-05 0.000177944
0.00202081 -1.15219e-05 6.0089e-06
-1.15219e-05 0.000105678 -1.79052e-06
6.0089e-06 -1.79052e-06 6.9623e-05
0.00158483 6.94516e-05 7.97461e-07
6.94516e-05 0.000117618 -3.94487e-06
7.97461e-07 -3.94487e-06 4.07526e-05
0.00139447 4.20456e-05 -3.35735e-06
4.20456e-05 -0.000171308 -1.50177e-06
-3.35735e-06 -1.50177e-06 -0.000245468
0.00127361 4.34359e-05 -3.79405e-06
4.34359e-05 -0.000149344 -4.18368e-06
-3.79405e-06 -4.18368e-06 -0.000244967
0.0015816 -9.61406e-05 1.16963e-05
-9.61406e-05 -0.000166616 -1.63732e-06
1.16963e-05 -1.63732e-06 -0.00020908
0.00193687 -2.89451e-05 3.64619e-06
-2.89451e-05 8.69103e-05 6.88084e-07
3.64619e-06 6.88084e-07 3.80418e-05
0.00181082 3.05961e-06 -6.1197e-07
3.05961e-06 0.000123317 -2.53944e-07
-6.1197e-07 -2.53944e-07 4.65867e-05
0.00172953 -7.45583e-05 3.38895e-06
-7.45583e-05 5.22279e-05 -2.90425e-07
3.38895e-06 -2.90425e-07 1.53065e-05
0.00182114 -4.4822e-05 1.59846e-07
-4.4822e-05 0.000117143 -5.15101e-07
1.59846e-07 -5.15101e-07 6.44338e-05
0.00182845 -2.82853e-05 -3.7287e-07
-2.82853e-05 0.000159919 1.25463e-06
-3.7287e-07 1.25463e-06 8.60048e-05
0.00154741 -6.94119e-05 4.55096e-07
-6.94119e-05 4.00246e-05 4.56939e-07
4.55096e-07 4.56939e-07 -7.17311e-06
0.00162803 -5.8009e-05 -8.64486e-07
-5.8009e-05 9.41276e-05 -1.20205e-06
-8.64486e-07 -1.20205e-06 3.54837e-05
0.00145968 -5.28365e-05 4.54594e-07
-5.28365e-05 3.58104e-05 1.73095e-06
4.54594e-07 1.73095e-06 -4.08849e-05
0.00135081 -6.93276e-05 -9.06408e-07
-6.93276e-05 9.38338e-06 -5.09555e-07
-9.06408e-07 -5.09555e-07 -4.90255e-05
0.00140693 -6.431e-05 2.14124e-07
-6.431e-05 5.35765e-05 -7.02022e-07
2.14124e-07 -7.02022e-07 -1.73991e-05
0.00139901 -6.45687e-05 4.61321e-07
-6.45687e-05 6.81492e-05 1.8217e-08
4.61321e-07 1.8217e-08 -1.22076e-05
0.00132968 -6.71019e-05 -1.77993e-06
-6.71019e-05 4.40068e-05 1.64914e-06
-1.77993e-06 1.64914e-06 -2.59979e-05
0.00145051 -6.83805e-05 -2.7038e-07
-6.83805e-05 0.000121443 -4.5442e-07
-2.7038e-07 -4.5442e-07 4.23281e-05
0.00136182 -6.55939e-05 -9.19451e-07
-6.55939e-05 0.000100053 -3.30844e-07
-9.19451e-07 -3.30844e-07 1.74084e-05
0.00136006 -7.46824e-05 1.22559e-06
-7.46824e-05 0.000108734 4.09963e-07
1.22559e-06 4.09963e-07 2.14967e-05
0.00123614 -6.99943e-05 2.68656e-07
-6.99943e-05 6.89701e-05 -1.88943e-07
2.68656e-07 -1.88943e-07 -1.68066e-05
0.00123465 -6.52384e-05 -2.2462e-06
-6.52384e-05 0.000100146 7.1699e-07
-2.2462e-06 7.1699e-07 1.93544e-05
0.000910847 -4.02832e-05 -2.97133e-06
-4.02832e-05 1.6375e-05 1.56081e-06
-2.97133e-06 1.56081e-06 -5.06029e-05
0.000914056 -6.08983e-05 -6.08154e-07
-6.08983e-05 -2.21663e-05 4.2881e-07
-6.08154e-07 4.2881e-07 -0.000103345
0.00111191 -7.21335e-05 1.11776e-06
-7.21335e-05 5.35008e-05 -4.80063e-07
1.11776e-06 -4.80063e-07 -3.57267e-05
0.000670382 1.68498e-05 -4.56063e-06
1.68498e-05 -5.38223e-05 3.77244e-06
-4.56063e-06 3.77244e-06 -8.78724e-05
0.000895223 -2.88994e-05 1.15461e-07
-2.88994e-05 2.79274e-05 4.99011e-08
1.15461e-07 4.99011e-08 -3.69019e-05
0.00108767 -6.44131e-05 1.75706e-06
-6.44131e-05 9.21479e-05 -1.04744e-06
1.75706e-06 -1.04744e-06 1.2855e-05
0.0028087 6.47889e-05 -3.03023e-05
6.47889e-05 0.00104282 3.28098e-06
-3.03023e-05 3.28098e-06 0.00104772
0.000718264 3.13237e-05 1.25746e-07
3.13237e-05 -3.77148e-05 -7.81153e-08
1.25746e-07 -7.81153e-08 -6.64232e-05
0.000925998 -1.78834e-05 2.66624e-06
-1.78834e-05 4.68257e-05 -1.63739e-06
2.66624e-06 -1.63739e-06 -1.48527e-05
0.0026999 5.89442e-05 4.45219e-07
5.89442e-05 0.000979627 1.0608e-07
4.45219e-07 1.0608e-07 0.000987043
0.000761599 3.90871e-05 3.75508e-06
3.90871e-05 -2.06289e-05 -3.67496e-06
3.75508e-06 -3.67496e-06 -4.51602e-05
0.00260416 5.35143e-05 2.78714e-05
5.35143e-05 0.000924371 -3.55289e-06
2.78714e-05 -3.55289e-06 0.000933967
0.000917037 6.69255e-05 -5.67498e-07
6.69255e-05 2.15612e-05 -5.42737e-07
-5.67498e-07 -5.42737e-07 -6.44585e-05
0.00102724 6.47283e-05 -2.57591e-08
6.47283e-05 9.18953e-05 -3.28187e-07
-2.57591e-08 -3.28187e-07 9.95245e-06
0.00106927 5.21683e-05 -1.13947e-06
5.21683e-05 0.00010903 -1.98567e-07
-1.13947e-06 -1.98567e-07 3.42699e-05
0.00114398 6.44002e-05 4.40509e-07
6.44002e-05 0.000150247 -4.29759e-07
4.40509e-07 -4.29759e-07 7.20405e-05
0.000974871 2.94179e-05 -4.47913e-07
2.94179e-05 6.36398e-05 -1.68244e-07
-4.47913e-07 -1.68244e-07 -8.14456e-06
0.000870474 5.43085e-06 -2.48661e-06
5.43085e-06 1.82659e-05 -1.38531e-06
-2.48661e-06 -1.38531e-06 -3.93566e-05
0.000902142 1.00806e-05 6.66286e-07
1.00806e-05 2.33884e-05 2.29631e-07
6.66286e-07 2.29631e-07 -4.6593e-05
0.000862622 -1.20086e-05 -4.55532e-08
-1.20086e-05 8.76538e-06 4.06091e-08
-4.55532e-08 4.06091e-08 -4.36081e-05
0.000765393 -4.05681e-05 -3.20084e-06
-4.05681e-05 -2.80048e-05 -3.66032e-06
-3.20084e-06 -3.66032e-06 -4.78004e-05
0.000866522 -1.89083e-05 1.96031e-06
-1.89083e-05 5.77286e-06 2.41885e-06
1.96031e-06 2.41885e-06 -4.07312e-05
0.000769697 -3.34841e-05 -6.20614e-08
-3.34841e-05 -3.63513e-05 -2.49249e-08
-6.20614e-08 -2.49249e-08 -5.12792e-05
0.00248655 -4.80074e-05 -2.56356e-05
-4.80074e-05 0.000855101 -3.53773e-06
-2.56356e-05 -3.53773e-06 0.000867378
0.000777197 -2.80226e-05 3.20315e-06
-2.80226e-05 -4.06405e-05 3.64272e-06
3.20315e-06 3.64272e-06 -5.17707e-05
0.00241132 -4.30475e-05 -3.80968e-07
-4.30475e-05 0.000808176 6.72685e-08
-3.80968e-07 6.72685e-08 0.000822808
0.00238876 -3.85459e-05 2.12114e-05
-3.85459e-05 0.000788936 3.73141e-06
2.12114e-05 3.73141e-06 0.000805329
0.00081499 -4.42725e-05 -4.29191e-06
-4.42725e-05 -0.000306184 8.45657e-07
-4.29191e-06 8.45657e-07 -0.000340357
0.00258315 -1.62834e-05 -3.85931e-06
-1.62834e-05 0.000369811 7.61389e-06
-3.85931e-06 7.61389e-06 0.000101312
0.00504951 4.49519e-05 -6.96751e-05
4.49519e-05 0.00149843 -1.01198e-05
-6.96751e-05 -1.01198e-05 0.000948432
0.000860866 6.71834e-05 1.72649e-06
6.71834e-05 -2.57915e-05 1.07279e-06
1.72649e-06 1.07279e-06 -0.000108161
0.00135454 8.74989e-05 2.56944e-06
8.74989e-05 0.000166281 -8.73473e-07
2.56944e-06 -8.73473e-07 7.3153e-05
0.000856741 6.8679e-05 2.43702e-07
6.8679e-05 -5.89014e-06 -4.06189e-07
2.43702e-07 -4.06189e-07 -9.37256e-05
0.00113952 7.29488e-05 4.88382e-07
7.29488e-05 0.000159858 -1.42776e-06
4.88382e-07 -1.42776e-06 7.55298e-05
0.00100494 6.98491e-05 -2.26903e-07
6.98491e-05 9.20915e-05 -6.09904e-07
-2.26903e-07 -6.09904e-07 5.72728e-06
0.00100116 7.46505e-05 1.21114e-06
7.46505e-05 7.14047e-05 8.24876e-07
1.21114e-06 8.24876e-07 -8.78906e-06
0.00145765 0.000103136 -2.32772e-06
0.000103136 0.0001523 -2.79409e-06
-2.32772e-06 -2.79409e-06 5.47384e-05
0.00145999 9.42869e-05 1.84776e-06
9.42869e-05 0.000289884 -2.44128e-07
1.84776e-06 -2.44128e-07 0.00020321
0.00090212 8.73989e-05 -1.62249e-06
8.73989e-05 -6.40059e-06 3.75538e-06
-1.62249e-06 3.75538e-06 -9.88168e-05
0.00146677 0.000112509 -1.1547e-06
0.000112509 0.000149286 -2.52321e-07
-1.1547e-06 -2.52321e-07 4.39812e-05
0.00130486 9.52135e-05 -2.82553e-06
9.52135e-05 -9.12265e-05 -1.2484e-06
-2.82553e-06 -1.2484e-06 -0.000203605
0.00193874 2.88475e-05 -1.62282e-06
2.88475e-05 6.89303e-05 4.10227e-06
-1.62282e-06 4.10227e-06 -6.51032e-06
0.00196747 0.000114974 1.71534e-06
0.000114974 0.000172604 1.46534e-06
1.71534e-06 1.46534e-06 6.00183e-05
0.00117052 0.000113461 -1.30061e-06
0.000113461 -3.77676e-05 2.84371e-06
-1.30061e-06 2.84371e-06 -0.000155575
0.00141768 -7.34618e-06 4.55096e-07
-7.34618e-06 -8.62274e-05 -7.45763e-08
4.55096e-07 -7.45763e-08 -0.000104419
0.0034751 -8.43075e-05 4.78977e-05
-8.43075e-05 0.000471678 2.5581e-05
4.78977e-05 2.5581e-05 0.000203887
0.0020413 0.0001026 -2.78759e-06
0.0001026 0.000200521 -4.32979e-06
-2.78759e-06 -4.32979e-06 0.000151846
0.00208633 7.52723e-06 -2.46e-06
7.52723e-06 0.000333818 -3.64784e-06
-2.46e-06 -3.64784e-06 0.000268046
0.0015258 -2.31021e-05 4.80409e-07
-2.31021e-05 0.000150005 9.81769e-08
4.80409e-07 9.81769e-08 6.86755e-05
0.000838586 5.53735e-05 5.50546e-05
5.53735e-05 -0.000197189 7.80069e-07
5.50546e-05 7.80069e-07 -0.000495054
0.000872526 -2.37189e-05 4.07167e-06
-2.37189e-05 -0.000493173 3.88711e-06
4.07167e-06 3.88711e-06 -0.000521827
0.00203431 7.81254e-05 -1.22995e-05
7.81254e-05 0.000359734 2.26441e-06
-1.22995e-05 2.26441e-06 0.00028696
0.00157165 4.45309e-05 -1.98664e-06
4.45309e-05 -8.9618e-05 4.30303e-06
-1.98664e-06 4.30303e-06 -0.000160215
0.00166874 5.04514e-05 6.80306e-07
5.04514e-05 4.08084e-05 7.58448e-07
6.80306e-07 7.58448e-07 -5.09385e-05
0.00173311 3.77526e-05 -3.46305e-06
3.77526e-05 9.00012e-05 2.22536e-07
-3.46305e-06 2.22536e-07 5.91576e-06
0.00146511 3.50651e-05 -1.50323e-06
3.50651e-05 -1.43889e-05 -2.05291e-06
-1.50323e-06 -2.05291e-06 -9.01754e-05
0.00157296 -2.826e-05 7.29856e-06
-2.826e-05 -9.51224e-05 -6.7837e-07
7.29856e-06 -6.7837e-07 -0.000147775
0.00178457 2.70741e-06 -1.228e-06
2.70741e-06 0.000101103 -2.86144e-07
-1.228e-06 -2.86144e-07 2.63746e-05
0.00167095 1.40233e-05 -1.99392e-07
1.40233e-05 7.83609e-05 -1.09485e-06
-1.99392e-07 -1.09485e-06 -7.2579e-06
0.00190276 -4.63711e-05 -1.88448e-06
-4.63711e-05 0.000160985 -1.91823e-06
-1.88448e-06 -1.91823e-06 0.000107081
0.0017382 -2.82391e-05 -1.65986e-07
-2.82391e-05 0.000118058 -5.91282e-07
-1.65986e-07 -5.91282e-07 4.54478e-05
0.0015172 -2.1357e-05 -3.41005e-07
-2.1357e-05 2.95256e-05 1.1518e-06
-3.41005e-07 1.1518e-06 -5.40231e-05
0.00156216 -5.94437e-05 -3.35382e-06
-5.94437e-05 7.23688e-05 -2.63125e-06
-3.35382e-06 -2.63125e-06 1.44201e-05
0.00149928 -5.24723e-05 3.31818e-07
-5.24723e-05 5.47989e-05 -4.85882e-08
3.31818e-07 -4.85882e-08 -2.19608e-05
0.00146351 -5.40948e-05 -8.5248e-08
-5.40948e-05 5.88363e-05 1.08771e-06
-8.5248e-08 1.08771e-06 -2.58824e-05
0.00138453 -6.3645e-05 -1.21807e-06
-6.3645e-05 4.32902e-05 -1.43381e-06
-1.21807e-06 -1.43381e-06 -2.77043e-05
0.00140127 -6.38413e-05 6.79004e-08
-6.38413e-05 6.89192e-05 -4.87149e-07
6.79004e-08 -4.87149e-07 -1.1346e-05
0.00135771 -6.27369e-05 -7.51626e-07
-6.27369e-05 7.09594e-05 1.76331e-07
-7.51626e-07 1.76331e-07 -1.30934e-05
0.00130816 -6.46915e-05 -3.32704e-07
-6.46915e-05 4.91843e-05 6.19338e-07
-3.32704e-07 6.19338e-07 -2.91228e-05
0.00124839 -6.30755e-05 -1.95875e-07
-6.30755e-05 4.36269e-05 -1.97887e-07
-1.95875e-07 -1.97887e-07 -3.8815e-05
0.00121351 -5.94909e-05 -2.27537e-06
-5.94909e-05 6.16875e-05 4.3296e-07
-2.27537e-06 4.3296e-07 -1.82975e-05
0.00107545 -6.59843e-05 1.63267e-06
-6.59843e-05 -1.09152e-05 -2.4607e-07
1.63267e-06 -2.4607e-07 -9.72722e-05
0.00106289 -6.05757e-05 1.18931e-07
-6.05757e-05 1.50484e-05 5.48641e-08
1.18931e-07 5.48641e-08 -6.58362e-05
0.000969721 -4.44423e-05 -3.44663e-06
-4.44423e-05 1.78058e-05 1.45238e-06
-3.44663e-06 1.45238e-06 -5.00337e-05
0.000667742 -2.14494e-06 -5.77035e-06
-2.14494e-06 -5.60681e-05 3.80295e-06
-5.77035e-06 3.80295e-06 -9.45682e-05
0.000932735 -4.20805e-05 7.59691e-08
-4.20805e-05 2.76496e-05 6.73818e-08
7.59691e-08 6.73818e-08 -3.94977e-05
0.00102941 -6.38563e-05 1.24077e-06
-6.38563e-05 3.76778e-05 -5.37006e-07
1.24077e-06 -5.37006e-07 -4.28805e-05
0.00289549 7.02942e-05 -3.14452e-05
7.02942e-05 0.00110068 3.19365e-06
-3.14452e-05 3.19365e-06 0.00110186
0.000730337 1.54132e-05 -7.1439e-08
1.54132e-05 -2.68789e-05 -6.9098e-08
-7.1439e-08 -6.9098e-08 -6.10044e-05
0.000947565 -3.22597e-05 2.99219e-06
-3.22597e-05 5.35493e-05 -1.62221e-06
2.99219e-06 -1.62221e-06 -1.14894e-05
0.00278919 6.42922e-05 3.98021e-07
6.42922e-05 0.00103524 1.04408e-07
3.98021e-07 1.04408e-07 0.00103959
0.000778861 2.89398e-05 4.92431e-06
2.89398e-05 -7.97416e-06 -3.57471e-06
4.92431e-06 -3.57471e-06 -3.68606e-05
0.00269439 5.86402e-05 2.96702e-05
5.86402e-05 0.000977999 -3.4828e-06
2.96702e-05 -3.4828e-06 0.000985044
0.000705749 6.54104e-05 -2.46004e-07
6.54104e-05 -0.000118473 -4.92407e-07
-2.46004e-07 -4.92407e-07 -0.000210336
0.000788451 6.30332e-05 -1.43084e-08
6.30332e-05 -4.48454e-05 -1.01343e-07
-1.43084e-08 -1.01343e-07 -0.000131358
0.00110945 6.13813e-05 -1.43074e-06
6.13813e-05 0.000114606 -2.6017e-07
-1.43074e-06 -2.6017e-07 3.6628e-05
0.000974201 6.27213e-05 2.12316e-07
6.27213e-05 6.50331e-05 -3.75427e-07
2.12316e-07 -3.75427e-07 -1.65818e-05
0.00100477 4.93052e-05 -8.69339e-08
4.93052e-05 7.73835e-05 -9.50499e-08
-8.69339e-08 -9.50499e-08 2.85549e-06
0.000907253 1.10672e-05 -2.60084e-06
1.10672e-05 4.19847e-05 -1.19695e-06
-2.60084e-06 -1.19695e-06 -1.96474e-05
0.00098809 3.20079e-05 7.61984e-07
3.20079e-05 7.08227e-05 -2.07793e-07
7.61984e-07 -2.07793e-07 -5.88688e-07
0.000868677 -8.85289e-07 1.04398e-07
-8.85289e-07 1.94702e-05 6.08602e-08
1.04398e-07 6.08602e-08 -3.83872e-05
0.000753184 -4.54659e-05 -3.02141e-06
-4.54659e-05 -2.42298e-05 -3.56956e-06
-3.02141e-06 -3.56956e-06 -4.89976e-05
0.000871568 -1.84925e-05 2.19365e-06
-1.84925e-05 1.45431e-05 2.07038e-06
2.19365e-06 2.07038e-06 -3.79679e-05
0.00074308 -3.92398e-05 -3.20555e-08
-3.92398e-05 -4.05525e-05 -2.35738e-08
-3.20555e-08 -2.35738e-08 -5.98881e-05
0.00257523 -5.34002e-05 -2.73471e-05
-5.34002e-05 0.000908146 -3.41569e-06
-2.73471e-05 -3.41569e-06 0.000918082
0.000751313 -3.20609e-05 3.63545e-06
-3.20609e-05 -4.65525e-05 3.67879e-06
3.63545e-06 3.67879e-06 -6.10602e-05
0.00248828 -4.80738e-05 -3.33186e-07
-4.80738e-05 0.000854892 7.35396e-08
-3.33186e-07 7.35396e-08 0.00086745
0.00242542 -4.31843e-05 2.28896e-05
-4.31843e-05 0.000814359 3.61215e-06
2.28896e-05 3.61215e-06 0.000829177
0.00168329 -3.16006e-05 2.77971e-06
-3.16006e-05 -4.87089e-06 1.46467e-06
2.77971e-06 1.46467e-06 -6.0369e-05
0.00103312 -5.11445e-05 8.64165e-07
-5.11445e-05 -0.000202537 7.13806e-07
8.64165e-07 7.13806e-07 -0.000241036
0.00116626 -5.316e-05 4.70271e-05
-5.316e-05 -0.000158534 1.73475e-05
4.70271e-05 1.73475e-05 -0.000351587
0.00186221 0.000100108 7.52081e-07
0.000100108 0.000361848 -1.98233e-06
7.52081e-07 -1.98233e-06 0.000270449
0.000868798 6.89075e-05 -8.58125e-07
6.89075e-05 -9.10673e-06 4.40164e-07
-8.58125e-07 4.40164e-07 -8.78587e-05
0.000742107 7.31752e-05 -2.94913e-06
7.31752e-05 -0.000213389 2.75624e-07
-2.94913e-06 2.75624e-07 -0.000311594
0.00133631 8.70925e-05 2.2879e-07
8.70925e-05 0.000156127 1.01726e-07
2.2879e-07 1.01726e-07 6.23887e-05
0.000539874 5.92294e-05 -1.64893e-06
5.92294e-05 -0.00015542 5.39378e-07
-1.64893e-06 5.39378e-07 -0.000242707
0.00175105 9.51476e-05 -3.01993e-06
9.51476e-05 0.000162914 -3.66548e-06
-3.01993e-06 -3.66548e-06 5.66634e-05
0.00126896 8.42423e-05 -9.42995e-08
8.42423e-05 0.000196623 -5.6891e-07
-9.42995e-08 -5.6891e-07 0.000115257
0.00143663 0.000101 -6.86011e-08
0.000101 0.000135674 3.4021e-07
-6.86011e-08 3.4021e-07 3.81804e-05
0.0015899 3.89987e-05 5.18558e-07
3.89987e-05 -1.99017e-05 2.99845e-06
5.18558e-07 2.99845e-06 -0.000112371
0.0014556 0.00011208 1.57162e-06
0.00011208 0.000147071 2.65005e-06
1.57162e-06 2.65005e-06 4.31021e-05
0.00155218 0.000101692 -1.08987e-06
0.000101692 2.51229e-05 -8.3995e-07
-1.08987e-06 -8.3995e-07 -8.85327e-05
0.00188925 3.1412e-05 -2.06254e-08
3.1412e-05 5.50976e-05 7.98318e-07
-2.06254e-08 7.98318e-07 -2.26739e-05
0.00176831 0.000108159 1.86591e-06
0.000108159 8.22514e-05 9.85731e-07
1.86591e-06 9.85731e-07 -3.03757e-05
0.00156081 -1.49002e-06 -4.36362e-06
-1.49002e-06 -1.50135e-05 -6.65854e-06
-4.36362e-06 -6.65854e-06 -3.23341e-05
0.00166046 -2.31712e-07 -8.16811e-07
-2.31712e-07 0.000103622 -1.92676e-06
-8.16811e-07 -1.92676e-06 3.91348e-05
0.00164789 5.53754e-06 5.04288e-07
5.53754e-06 0.000105335 1.52854e-07
5.04288e-07 1.52854e-07 3.95862e-05
0.000543736 -1.50337e-05 -8.10252e-07
-1.50337e-05 -0.000324621 2.94368e-06
-8.10252e-07 2.94368e-06 -0.000409243
0.00180483 4.82556e-05 5.41895e-07
4.82556e-05 1.85244e-05 3.8415e-07
5.41895e-07 3.8415e-07 -4.9067e-05
0.00212694 5.7844e-05 1.30306e-05
5.7844e-05 0.000265087 4.13779e-06
1.30306e-05 4.13779e-06 0.000177003
0.00184607 3.9802e-05 -3.18102e-06
3.9802e-05 0.000137889 4.64429e-08
-3.18102e-06 4.64429e-08 5.37114e-05
0.00162642 3.5149e-05 8.60137e-07
3.5149e-05 6.82975e-05 1.88102e-06
8.60137e-07 1.88102e-06 -7.74342e-06
0.00167772 3.3008e-05 -1.54442e-06
3.3008e-05 9.94283e-05 -1.7246e-06
-1.54442e-06 -1.7246e-06 1.85647e-05
0.00182237 1.91252e-06 -2.02688e-06
1.91252e-06 0.000113183 -1.09215e-06
-2.02688e-06 -1.09215e-06 3.99634e-05
0.00172308 1.3612e-05 -4.21185e-08
1.3612e-05 0.000103063 -1.94005e-07
-4.21185e-08 -1.94005e-07 1.79656e-05
0.00160711 1.79788e-05 -1.22379e-06
1.79788e-05 6.17484e-05 -1.1014e-06
-1.22379e-06 -1.1014e-06 -2.61402e-05
0.00165846 -2.84694e-05 -9.11373e-07
-2.84694e-05 8.18085e-05 -1.8158e-06
-9.11373e-07 -1.8158e-06 1.0421e-05
0.00157243 -2.17284e-05 1.91729e-07
-2.17284e-05 5.60407e-05 5.72087e-07
1.91729e-07 5.72087e-07 -2.77971e-05
0.00155039 -2.23327e-05 -9.57318e-07
-2.23327e-05 6.41826e-05 3.54215e-07
-9.57318e-07 3.54215e-07 -2.40741e-05
0.0015364 -5.20245e-05 -1.22075e-07
-5.20245e-05 7.26089e-05 -1.74577e-06
-1.22075e-07 -1.74577e-06 -4.21523e-06
0.00148376 -5.31743e-05 2.21527e-07
-5.31743e-05 6.7911e-05 1.07963e-07
2.21527e-07 1.07963e-07 -1.68443e-05
0.00142739 -5.47297e-05 -1.13543e-06
-5.47297e-05 6.75675e-05 7.2245e-07
-1.13543e-06 7.2245e-07 -1.966e-05
0.00140414 -6.31828e-05 -3.34932e-07
-6.31828e-05 6.99954e-05 -9.76746e-07
-3.34932e-07 -9.76746e-07 -1.01823e-05
0.00136008 -6.22902e-05 1.67579e-08
-6.22902e-05 7.16028e-05 -2.81195e-07
1.67579e-08 -2.81195e-07 -1.23812e-05
0.00125797 -5.6874e-05 -2.17719e-06
-5.6874e-05 5.52129e-05 5.37877e-07
-2.17719e-06 5.37877e-07 -2.65284e-05
0.00113353 -6.04871e-05 7.52564e-07
-6.04871e-05 -1.3526e-05 -2.57197e-09
7.52564e-07 -2.57197e-09 -9.57552e-05
0.00120213 -5.8746e-05 -6.51817e-09
-5.8746e-05 5.60431e-05 -5.33494e-08
-6.51817e-09 -5.33494e-08 -2.38095e-05
0.00102448 -4.39975e-05 -3.91722e-06
-4.39975e-05 1.77867e-05 1.44608e-06
-3.91722e-06 1.44608e-06 -5.05672e-05
0.000884008 -5.56638e-05 1.98678e-06
-5.56638e-05 -7.35403e-05 -5.20492e-07
1.98678e-06 -5.20492e-07 -0.000154508
0.000974961 -4.49825e-05 1.04206e-07
-4.49825e-05 2.10968e-05 2.83687e-08
1.04206e-07 2.83687e-08 -4.68743e-05
0.00165871 6.04485e-06 -7.12492e-06
6.04485e-06 0.000451754 2.23254e-06
-7.12492e-06 2.23254e-06 0.000415155
0.00111242 3.61678e-05 -3.23934e-05
3.61678e-05 0.000193661 6.23714e-06
-3.23934e-05 6.23714e-06 0.000179352
0.00122349 5.42448e-06 -1.31089e-06
5.42448e-06 0.000225836 -2.13759e-08
-1.31089e-06 -2.13759e-08 0.000190075
0.000962242 -4.38071e-05 3.24935e-06
-4.38071e-05 4.27137e-05 -1.42826e-06
3.24935e-06 -1.42826e-06 -2.46137e-05
0.00292309 6.98011e-05 5.36731e-07
6.98011e-05 0.00111752 1.38142e-07
5.36731e-07 1.38142e-07 0.00111792
0.00079583 9.21217e-06 5.79697e-06
9.21217e-06 2.16955e-06 -3.56787e-06
5.79697e-06 -3.56787e-06 -3.13837e-05
0.00277905 6.33622e-05 3.18029e-05
6.33622e-05 0.00103214 -3.41579e-06
3.18029e-05 -3.41579e-06 0.00103602
0.00118076 7.75869e-05 -1.1326e-06
7.75869e-05 -3.32674e-05 3.49835e-07
-1.1326e-06 3.49835e-07 -0.000122964
0.000809212 7.10239e-05 9.33366e-07
7.10239e-05 -0.000108961 5.97638e-07
9.33366e-07 5.97638e-07 -0.000203871
0.000836934 6.98501e-05 -1.51214e-07
6.98501e-05 -5.8268e-05 -9.14083e-08
-1.51214e-07 -9.14083e-08 -0.000150986
0.00112719 6.71794e-05 -1.5059e-06
6.71794e-05 0.000102455 -4.99162e-07
-1.5059e-06 -4.99162e-07 2.15346e-05
0.000650886 5.88446e-05 1.09387e-07
5.88446e-05 -0.000115824 3.62875e-07
1.09387e-07 3.62875e-07 -0.000202797
0.00103395 5.78539e-05 -1.90269e-07
5.78539e-05 7.77694e-05 -5.11636e-08
-1.90269e-07 -5.11636e-08 1.76082e-07
0.000937578 2.37928e-05 -2.80434e-06
2.37928e-05 5.56346e-05 -9.30638e-07
-2.80434e-06 -9.30638e-07 -8.16738e-06
0.000945431 4.65998e-05 1.11948e-06
4.65998e-05 4.83199e-05 1.11637e-07
1.11948e-06 1.11637e-07 -2.59882e-05
0.000860485 7.44422e-06 1.01827e-07
7.44422e-06 2.01358e-05 1.34094e-07
1.01827e-07 1.34094e-07 -4.16292e-05
0.000760881 -3.52672e-05 -4.34605e-06
-3.52672e-05 -1.39373e-05 -3.33483e-06
-4.34605e-06 -3.33483e-06 -4.29381e-05
0.000867217 -8.33875e-06 2.21944e-06
-8.33875e-06 2.08096e-05 1.53174e-06
2.21944e-06 1.53174e-06 -3.72287e-05
0.000711608 -4.40693e-05 -1.6477e-08
-4.40693e-05 -4.61804e-05 -5.1081e-08
-1.6477e-08 -5.1081e-08 -7.05467e-05
0.00265058 -5.87599e-05 -2.89205e-05
-5.87599e-05 0.000955675 -3.34384e-06
-2.89205e-05 -3.34384e-06 0.000962928
0.000717679 -3.74858e-05 3.80143e-06
-3.74858e-05 -5.47089e-05 3.66064e-06
3.80143e-06 3.66064e-06 -7.35408e-05
0.00257954 -5.35226e-05 -2.99438e-07
-5.35226e-05 0.000909209 8.27792e-08
-2.99438e-07 8.27792e-08 0.000919445
0.00249159 -4.81372e-05 2.46187e-05
-4.81372e-05 0.000855425 3.49697e-06
2.46187e-05 3.49697e-06 0.000868268
0.00160103 -1.98631e-05 1.80099e-06
-1.98631e-05 2.11063e-05 2.58106e-06
1.80099e-06 2.58106e-06 -5.23089e-05
0.00179842 -3.05815e-05 4.64358e-07
-3.05815e-05 7.82374e-05 -1.32735e-06
4.64358e-07 -1.32735e-06 2.22574e-05
0.00158611 -6.46977e-05 3.15731e-06
-6.46977e-05 5.90629e-05 -1.79865e-06
3.15731e-06 -1.79865e-06 1.46875e-05
0.00155556 8.5293e-05 -5.10359e-06
8.5293e-05 8.90359e-05 -2.40997e-06
-5.10359e-06 -2.40997e-06 -9.88667e-06
0.00156736 9.21517e-05 -1.02593e-07
9.21517e-05 0.000233316 4.40949e-07
-1.02593e-07 4.40949e-07 0.000144792
0.000805238 6.89687e-05 -4.85893e-06
6.89687e-05 -2.8117e-05 1.39537e-07
-4.85893e-06 1.39537e-07 -0.000103167
0.00135883 8.823e-05 1.20997e-06
8.823e-05 8.90453e-05 1.15086e-06
1.20997e-06 1.15086e-06 -7.44196e-06
0.00135003 8.74923e-05 -1.89622e-06
8.74923e-05 0.000162026 4.98624e-07
-1.89622e-06 4.98624e-07 6.76109e-05
0.00176498 3.97379e-05 4.39032e-07
3.97379e-05 8.85095e-05 1.88074e-06
4.39032e-07 1.88074e-06 -1.23572e-05
0.00164857 9.44609e-05 -2.0628e-06
9.44609e-05 0.00010951 -1.65886e-06
-2.0628e-06 -1.65886e-06 1.08863e-06
0.00143303 9.97345e-05 2.028e-06
9.97345e-05 0.000128598 4.3731e-06
2.028e-06 4.3731e-06 3.0932e-05
0.00176683 3.94129e-05 -3.17902e-07
3.94129e-05 6.89896e-05 5.44356e-07
-3.17902e-07 5.44356e-07 -2.44448e-05
0.00190394 0.00011037 2.68693e-06
0.00011037 0.000189943 4.92371e-07
2.68693e-06 4.92371e-07 7.53186e-05
0.00160334 3.10003e-05 -7.63827e-07
3.10003e-05 -8.09095e-05 -2.48844e-06
-7.63827e-07 -2.48844e-06 -0.000160344
0.00152385 5.34017e-07 -4.26884e-07
5.34017e-07 3.34973e-05 -3.02378e-08
-4.26884e-07 -3.02378e-08 -4.22516e-05
0.00163583 3.7425e-07 -3.49731e-07
3.7425e-07 8.47612e-05 -7.36612e-07
-3.49731e-07 -7.36612e-07 1.88777e-05
0.0011285 2.26035e-06 3.92056e-06
2.26035e-06 -0.000164096 5.37079e-06
3.92056e-06 5.37079e-06 -0.000229597
0.00198817 4.22849e-05 2.06217e-06
4.22849e-05 0.000199613 4.02609e-07
2.06217e-06 4.02609e-07 0.00011544
0.00174907 3.51441e-05 6.49171e-06
3.51441e-05 0.000130591 5.96609e-06
6.49171e-06 5.96609e-06 5.44657e-05
0.00171519 3.32674e-05 -9.90785e-07
3.32674e-05 0.000118705 -4.05922e-07
-9.90785e-07 -4.05922e-07 3.80607e-05
0.00161854 2.8516e-05 1.16312e-07
2.8516e-05 8.58993e-05 -9.31586e-07
1.16312e-07 -9.31586e-07 -1.44972e-06
0.00176943 1.30359e-05 8.32793e-07
1.30359e-05 0.000124396 -1.42248e-07
8.32793e-07 -1.42248e-07 3.99045e-05
0.00163887 1.61556e-05 -5.3997e-07
1.61556e-05 7.6697e-05 -4.45182e-08
-5.3997e-07 -4.45182e-08 -1.11947e-05
0.00158902 9.55832e-06 -1.91549e-06
9.55832e-06 7.03041e-05 -1.13652e-06
-1.91549e-06 -1.13652e-06 -1.90711e-05
0.00162546 -2.22663e-05 5.69465e-07
-2.22663e-05 8.17117e-05 1.78729e-07
5.69465e-07 1.78729e-07 -2.45844e-06
0.00156194 -2.26962e-05 7.82042e-08
-2.26962e-05 6.93755e-05 4.24189e-07
7.82042e-08 4.24189e-07 -1.89741e-05
0.00150743 -3.02019e-05 -1.78432e-06
-3.02019e-05 7.16194e-05 7.93535e-08
-1.78432e-06 7.93535e-08 -1.71487e-05
0.00150529 -5.21924e-05 7.50342e-07
-5.21924e-05 7.76083e-05 -8.54622e-07
7.50342e-07 -8.54622e-07 -7.17808e-06
0.001436 -5.42922e-05 1.22257e-07
-5.42922e-05 7.11237e-05 1.64796e-07
1.22257e-07 1.64796e-07 -1.61305e-05
0.00132792 -5.11083e-05 -2.48806e-06
-5.11083e-05 5.62759e-05 8.01872e-07
-2.48806e-06 8.01872e-07 -2.81712e-05
0.00136189 -6.18774e-05 8.22473e-07
-6.18774e-05 7.19822e-05 -7.25812e-07
8.22473e-07 -7.25812e-07 -1.19376e-05
0.00126237 -5.65088e-05 1.17167e-08
-5.65088e-05 5.69155e-05 -1.4222e-07
1.17167e-08 -1.4222e-07 -2.47592e-05
0.00107285 -4.28596e-05 -4.39887e-06
-4.28596e-05 1.67054e-05 1.6542e-06
-4.39887e-06 1.6542e-06 -5.35673e-05
0.00118959 -5.79881e-05 1.98276e-06
-5.79881e-05 4.98413e-05 -4.54847e-07
1.98276e-06 -4.54847e-07 -2.98808e-05
0.00101999 -4.38747e-05 1.49255e-07
-4.38747e-05 1.57413e-05 -5.773e-08
1.49255e-07 -5.773e-08 -5.26993e-05
0.00172131 6.29379e-07 -7.27832e-06
6.29379e-07 0.00047657 2.37286e-06
-7.27832e-06 2.37286e-06 0.00043811
0.00098393 -4.57794e-05 3.52878e-06
-4.57794e-05 2.62695e-05 -1.28604e-06
3.52878e-06 -1.28604e-06 -4.18503e-05
0.00177023 5.74679e-07 8.04629e-06
5.74679e-07 0.000503197 -9.24744e-07
8.04629e-06 -9.24744e-07 0.000466848
0.00120012 3.01306e-05 -4.01165e-05
3.01306e-05 0.000253482 6.07721e-06
-4.01165e-05 6.07721e-06 0.000234735
0.00209818 5.35147e-05 -2.6752e-05
5.35147e-05 0.000704978 1.58625e-06
-2.6752e-05 1.58625e-06 0.000696044
0.00180748 6.15281e-06 1.97728e-05
6.15281e-06 0.000521235 -2.89698e-06
1.97728e-05 -2.89698e-06 0.000488985
0.00294102 6.78694e-05 3.54598e-05
6.78694e-05 0.00112907 -3.31639e-06
3.54598e-05 -3.31639e-06 0.00112892
0.00153292 7.77687e-05 -3.26702e-06
7.77687e-05 7.30849e-05 -1.778e-06
-3.26702e-06 -1.778e-06 -2.14095e-05
0.00143463 8.40021e-05 2.04499e-06
8.40021e-05 0.000149857 3.37907e-07
2.04499e-06 3.37907e-07 6.00113e-05
0.00118036 7.79573e-05 1.20381e-06
7.79573e-05 -2.1963e-05 7.42303e-07
1.20381e-06 7.42303e-07 -0.000106312
0.00113966 7.2042e-05 -1.59165e-06
7.2042e-05 8.2221e-05 -8.21004e-07
-1.59165e-06 -8.21004e-07 -3.12805e-06
0.0011332 8.1253e-05 -4.44818e-07
8.1253e-05 4.76827e-05 2.27073e-07
-4.44818e-07 2.27073e-07 -4.74843e-05
0.0009994 7.54894e-05 2.67429e-07
7.54894e-05 1.70021e-05 5.26583e-07
2.67429e-07 5.26583e-07 -7.65815e-05
0.00108385 6.56687e-05 -9.42841e-08
6.56687e-05 8.34401e-05 -1.26013e-07
-9.42841e-08 -1.26013e-07 2.384e-06
0.000968174 3.78443e-05 -2.73446e-06
3.78443e-05 6.04305e-05 -9.90155e-07
-2.73446e-06 -9.90155e-07 -5.61158e-06
0.000958502 5.43657e-05 9.40562e-07
5.43657e-05 4.09538e-05 9.89929e-08
9.40562e-07 9.89929e-08 -3.62585e-05
0.00087824 1.96392e-05 -1.13331e-07
1.96392e-05 2.61723e-05 8.76613e-08
-1.13331e-07 8.76613e-08 -3.75248e-05
0.000776131 -2.65515e-05 -5.11407e-06
-2.65515e-05 -1.02843e-06 -3.12131e-06
-5.11407e-06 -3.12131e-06 -3.51544e-05
0.000819277 3.91685e-06 2.20468e-06
3.91685e-06 9.97833e-07 1.23356e-06
2.20468e-06 1.23356e-06 -6.09059e-05
0.000701477 -4.74766e-05 -4.05653e-08
-4.74766e-05 -4.19173e-05 -4.91598e-08
-4.05653e-08 -4.91598e-08 -7.18103e-05
0.00272424 -6.39346e-05 -3.08165e-05
-6.39346e-05 0.0010056 -3.2506e-06
-3.08165e-05 -3.2506e-06 0.00100952
0.000668788 -4.26472e-05 3.49484e-06
-4.26472e-05 -6.87558e-05 3.67553e-06
3.49484e-06 3.67553e-06 -9.27124e-05
0.00267028 -5.91908e-05 -3.1061e-07
-5.91908e-05 0.000964143 9.43287e-08
-3.1061e-07 9.43287e-08 0.000971755
0.00258416 -5.35711e-05 2.63418e-05
-5.35711e-05 0.000910337 3.36811e-06
2.63418e-05 3.36811e-06 0.000920895
0.00167343 -1.39936e-05 -1.12648e-07
-1.39936e-05 5.98822e-05 2.44508e-06
-1.12648e-07 2.44508e-06 -2.58187e-05
0.00165118 -1.9135e-05 4.9657e-07
-1.9135e-05 4.31391e-05 -8.80723e-08
4.9657e-07 -8.80723e-08 -3.00624e-05
0.00200732 -3.06705e-05 -3.53077e-06
-3.06705e-05 0.000208591 -3.90434e-06
-3.53077e-06 -3.90434e-06 0.000151855
0.00155673 4.24901e-05 -8.34434e-07
4.24901e-05 8.44863e-06 1.05385e-06
-8.34434e-07 1.05385e-06 -8.96692e-05
0.00159926 8.67399e-05 4.12647e-07
8.67399e-05 0.000112318 -7.13976e-07
4.12647e-07 -7.13976e-07 1.31805e-05
0.00134032 8.58728e-05 -1.61084e-06
8.58728e-05 0.000137158 1.63623e-06
-1.61084e-06 1.63623e-06 5.16054e-05
0.00189297 0.000101301 2.07735e-06
0.000101301 0.000350066 5.63735e-07
2.07735e-06 5.63735e-07 0.000255447
0.00190567 4.24316e-05 -5.80504e-07
4.24316e-05 0.00015723 -2.35576e-07
-5.80504e-07 -2.35576e-07 5.65849e-05
0.00161913 9.48982e-05 2.28679e-06
9.48982e-05 9.10434e-05 8.6578e-07
2.28679e-06 8.6578e-07 -1.93455e-05
0.0018734 3.96312e-05 9.11512e-08
3.96312e-05 0.000125294 -1.62495e-06
9.11512e-08 -1.62495e-06 3.06507e-05
0.00162235 3.09536e-07 1.40739e-06
3.09536e-07 7.75848e-05 4.4725e-07
1.40739e-06 4.4725e-07 -7.10258e-06
0.00152881 1.70606e-06 1.63444e-08
1.70606e-06 3.1903e-05 -3.85034e-07
1.63444e-08 -3.85034e-07 -4.55891e-05
0.00159128 2.23422e-06 2.89685e-07
2.23422e-06 5.78991e-05 1.18736e-06
2.89685e-07 1.18736e-06 -9.60564e-06
0.00160867 2.89519e-05 3.23534e-07
2.89519e-05 8.63377e-05 -1.20952e-07
3.23534e-07 -1.20952e-07 -5.58641e-06
0.00174249 3.34042e-05 1.07548e-06
3.34042e-05 0.000133428 1.499e-06
1.07548e-06 1.499e-06 5.29399e-05
0.00162604 2.89094e-05 1.7811e-07
2.89094e-05 8.9391e-05 2.41175e-07
1.7811e-07 2.41175e-07 1.92235e-06
0.00161285 2.43843e-05 2.93911e-09
2.43843e-05 9.27171e-05 -7.4159e-07
2.93911e-09 -7.4159e-07 2.56745e-06
0.0016889 1.45363e-05 6.67786e-07
1.45363e-05 0.000100507 1.00961e-06
6.67786e-07 1.00961e-06 1.26325e-05
0.00159251 9.53758e-06 -6.70628e-07
9.53758e-06 7.2603e-05 -3.46189e-08
-6.70628e-07 -3.46189e-08 -1.67812e-05
0.00155073 2.7922e-06 -2.62e-06
2.7922e-06 7.90811e-05 -5.82919e-07
-2.62e-06 -5.82919e-07 -1.03872e-05
0.00157392 -2.24094e-05 1.70123e-06
-2.24094e-05 7.47735e-05 4.73711e-07
1.70123e-06 4.73711e-07 -1.36638e-05
0.00150186 -2.87085e-05 4.96949e-08
-2.87085e-05 6.89958e-05 2.11238e-07
4.96949e-08 2.11238e-07 -1.98565e-05
0.00140091 -3.57746e-05 -3.01105e-06
-3.57746e-05 6.14863e-05 3.20924e-07
-3.01105e-06 3.20924e-07 -2.40183e-05
0.00144672 -5.38296e-05 1.64144e-06
-5.38296e-05 7.57005e-05 -4.03415e-07
1.64144e-06 -4.03415e-07 -1.15749e-05
0.00133205 -5.07264e-05 7.05805e-08
-5.07264e-05 5.79025e-05 1.5172e-07
7.05805e-08 1.5172e-07 -2.6541e-05
0.00113041 -3.94613e-05 -5.09503e-06
-3.94613e-05 1.90334e-05 1.83747e-06
-5.09503e-06 1.83747e-06 -5.38035e-05
0.00126641 -5.60824e-05 2.20728e-06
-5.60824e-05 5.84551e-05 -7.94674e-07
2.20728e-06 -7.94674e-07 -2.31517e-05
0.00107447 -4.23651e-05 2.3561e-07
-4.23651e-05 1.66905e-05 -9.64031e-08
2.3561e-07 -9.64031e-08 -5.36235e-05
0.0017878 -3.50273e-07 -7.14302e-06
-3.50273e-07 0.000500279 2.47457e-06
-7.14302e-06 2.47457e-06 0.000461213
0.00102009 -4.38011e-05 3.85281e-06
-4.38011e-05 1.60708e-05 -1.38419e-06
3.85281e-06 -1.38419e-06 -5.24692e-05
0.00184853 -6.44478e-06 9.51029e-06
-6.44478e-06 0.000535922 -8.25609e-07
9.51029e-06 -8.25609e-07 0.000497992
0.0012483 2.15974e-05 -4.53932e-05
2.15974e-05 0.000285989 5.67932e-06
-4.53932e-05 5.67932e-06 0.000265353
0.00188086 -6.2178e-06 2.47338e-05
-6.2178e-06 0.00055393 -4.39491e-06
2.47338e-05 -4.39491e-06 0.000518039
0.00119467 3.88474e-05 -1.7058e-05
3.88474e-05 0.000254712 2.07236e-06
-1.7058e-05 2.07236e-06 0.0002348
0.00301584 8.44116e-05 1.26656e-05
8.44116e-05 0.0011836 -1.32943e-06
1.26656e-05 -1.32943e-06 0.00117831
0.00184438 5.41817e-05 -1.41798e-06
5.41817e-05 0.00018812 -4.57709e-07
-1.41798e-06 -4.57709e-07 8.98641e-05
0.00155308 7.63448e-05 -1.023e-06
7.63448e-05 0.000125174 -1.70846e-06
-1.023e-06 -1.70846e-06 3.36703e-05
0.00161121 8.08898e-05 -1.84235e-06
8.08898e-05 0.0001218 1.24008e-06
-1.84235e-06 1.24008e-06 2.81606e-05
0.00148991 7.99485e-05 -1.13341e-06
7.99485e-05 0.000213447 -1.09791e-08
-1.13341e-06 -1.09791e-08 0.000128156
0.00129041 8.16151e-05 4.44992e-07
8.16151e-05 7.62799e-05 -1.03016e-06
4.44992e-07 -1.03016e-06 -1.3288e-05
0.00128998 8.06762e-05 3.20641e-06
8.06762e-05 4.43424e-05 1.10716e-06
3.20641e-06 1.10716e-06 -3.48989e-05
0.00100309 5.04671e-05 -3.11793e-06
5.04671e-05 5.50839e-05 -1.46891e-06
-3.11793e-06 -1.46891e-06 -1.53254e-05
0.00113139 7.19948e-05 -8.56558e-08
7.19948e-05 7.80371e-05 -9.11994e-08
-8.56558e-08 -9.11994e-08 -7.39372e-06
0.00142809 9.04461e-05 1.70222e-06
9.04461e-05 0.000190769 8.7385e-07
1.70222e-06 8.7385e-07 9.52819e-05
0.00102293 6.35247e-05 1.15033e-06
6.35247e-05 5.56466e-05 1.55788e-07
1.15033e-06 1.55788e-07 -2.55002e-05
0.000915644 3.59739e-05 -8.49461e-08
3.59739e-05 3.47226e-05 -9.89024e-08
-8.49461e-08 -9.89024e-08 -3.11552e-05
0.000794938 2.14504e-06 -5.96106e-06
2.14504e-06 9.00273e-06 -3.25798e-06
-5.96106e-06 -3.25798e-06 -2.9023e-05
0.000805056 1.56981e-05 2.12716e-06
1.56981e-05 -1.04867e-05 8.64954e-07
2.12716e-06 8.64954e-07 -7.40038e-05
0.00071428 -2.26056e-05 -7.81793e-08
-2.26056e-05 -3.03765e-05 -4.67363e-08
-7.81793e-08 -4.67363e-08 -6.40913e-05
0.00283408 -6.8922e-05 -3.37088e-05
-6.8922e-05 0.00107803 -3.07233e-06
-3.37088e-05 -3.07233e-06 0.00107792
0.000634258 -4.58605e-05 3.16299e-06
-4.58605e-05 -7.55204e-05 3.64011e-06
3.16299e-06 3.64011e-06 -0.000105176
0.00273924 -6.46202e-05 -4.22718e-07
-6.46202e-05 0.00101067 1.0813e-07
-4.22718e-07 1.0813e-07 0.00101514
0.00268511 -5.94532e-05 2.78758e-05
-5.94532e-05 0.000970124 3.23624e-06
2.78758e-05 3.23624e-06 0.000978123
0.00171168 -2.05122e-06 -5.44574e-07
-2.05122e-06 8.04359e-05 6.91053e-07
-5.44574e-07 6.91053e-07 -7.59456e-06
0.00171465 -1.29654e-05 -1.60463e-07
-1.29654e-05 7.31818e-05 7.10575e-07
-1.60463e-07 7.10575e-07 -1.3702e-05
0.00176089 -1.92955e-05 -9.47546e-07
-1.92955e-05 9.27506e-05 -2.74852e-06
-9.47546e-07 -2.74852e-06 1.99746e-05
0.00166549 4.38997e-05 9.16994e-07
4.38997e-05 5.75066e-05 -2.77622e-09
9.16994e-07 -2.77622e-09 -3.98859e-05
0.00168046 8.92143e-05 1.74445e-06
8.92143e-05 0.000154614 3.58323e-07
1.74445e-06 3.58323e-07 5.51378e-05
0.00189675 4.3483e-05 5.72632e-07
4.3483e-05 0.000153511 -1.5693e-06
5.72632e-07 -1.5693e-06 5.29462e-05
0.00162804 2.6676e-06 -4.57577e-08
2.6676e-06 7.80092e-05 5.55884e-07
-4.57577e-08 5.55884e-07 -1.30405e-05
0.00160103 3.65284e-06 5.38422e-07
3.65284e-06 6.84953e-05 -3.55183e-07
5.38422e-07 -3.55183e-07 -1.67092e-05
0.00157755 2.94058e-06 -7.13853e-08
2.94058e-06 5.13954e-05 -1.70414e-07
-7.13853e-08 -1.70414e-07 -2.77845e-05
0.00160385 2.03993e-05 -7.1899e-07
2.03993e-05 8.39759e-05 -2.48433e-07
-7.1899e-07 -2.48433e-07 -7.10209e-06
0.00165649 1.79313e-05 6.07678e-07
1.79313e-05 0.000119143 1.13601e-07
6.07678e-07 1.13601e-07 2.50691e-05
0.00162982 2.93565e-05 3.83473e-07
2.93565e-05 9.10367e-05 7.86495e-07
3.83473e-07 7.86495e-07 3.45193e-06
0.00163356 2.44529e-05 4.1512e-07
2.44529e-05 0.000103588 8.62842e-08
4.1512e-07 8.62842e-08 1.34377e-05
0.00154822 1.89088e-05 -3.66835e-07
1.89088e-05 7.97319e-05 -4.44692e-07
-3.66835e-07 -4.44692e-07 -1.10215e-05
0.00159616 8.86283e-06 9.74702e-07
8.86283e-06 7.49755e-05 1.03588e-06
9.74702e-07 1.03588e-06 -1.4419e-05
0.00153294 1.74945e-06 -7.45071e-07
1.74945e-06 7.08473e-05 1.29071e-07
-7.45071e-07 1.29071e-07 -1.86479e-05
0.00144071 -6.28165e-06 -3.83031e-06
-6.28165e-06 6.62993e-05 3.26746e-08
-3.83031e-06 3.26746e-08 -1.99019e-05
0.00149893 -2.87507e-05 1.88658e-06
-2.87507e-05 6.75646e-05 3.42897e-07
1.88658e-06 3.42897e-07 -2.13675e-05
0.00139432 -3.49215e-05 9.7018e-08
-3.49215e-05 5.81874e-05 1.37882e-07
9.7018e-08 1.37882e-07 -2.73528e-05
0.00116553 -2.83804e-05 -5.72392e-06
-2.83804e-05 1.30825e-05 1.39811e-06
-5.72392e-06 1.39811e-06 -6.06531e-05
0.00133637 -5.02887e-05 2.77035e-06
-5.02887e-05 5.96367e-05 -4.90625e-07
2.77035e-06 -4.90625e-07 -2.48031e-05
0.00113138 -3.85228e-05 2.52e-07
-3.85228e-05 1.83066e-05 1.09168e-07
2.52e-07 1.09168e-07 -5.45109e-05
0.00191882 5.5764e-06 -7.21318e-06
5.5764e-06 0.000551769 2.33917e-06
-7.21318e-06 2.33917e-06 0.00051263
0.00107573 -4.19275e-05 4.44632e-06
-4.19275e-05 1.66227e-05 -1.69662e-06
4.44632e-06 -1.69662e-06 -5.37522e-05
0.00193077 -9.47782e-06 1.08108e-05
-9.47782e-06 0.000567828 -7.40959e-07
1.08108e-05 -7.40959e-07 0.000529378
0.00130215 1.45111e-05 -4.94604e-05
1.45111e-05 0.000315371 5.14995e-06
-4.94604e-05 5.14995e-06 0.000294022
0.00197016 -1.53786e-05 2.745e-05
-1.53786e-05 0.000591968 -4.33812e-06
2.745e-05 -4.33812e-06 0.000554774
0.00124903 3.61825e-05 -1.95588e-05
3.61825e-05 0.000291462 1.82899e-06
-1.95588e-05 1.82899e-06 0.000268941
0.00119114 5.06771e-05 7.48771e-06
5.06771e-05 0.000257268 -1.87627e-06
7.48771e-06 -1.87627e-06 0.000235839
0.00159691 1.18987e-05 -9.08466e-07
1.18987e-05 3.97951e-05 9.62862e-07
-9.08466e-07 9.62862e-07 -4.95318e-05
0.00157963 5.57953e-05 -2.00962e-06
5.57953e-05 9.07268e-05 -1.57628e-07
-2.00962e-06 -1.57628e-07 -4.53153e-06
0.00172116 5.25894e-05 -1.31088e-06
5.25894e-05 0.000123228 -9.90924e-07
-1.31088e-06 -9.90924e-07 2.46419e-05
0.00147877 7.30575e-05 -2.39066e-06
7.30575e-05 0.000144727 -6.43143e-07
-2.39066e-06 -6.43143e-07 5.82911e-05
0.00163879 7.84888e-05 8.3198e-07
7.84888e-05 0.000172633 6.54011e-07
8.3198e-07 6.54011e-07 8.16383e-05
0.00162566 8.25333e-05 3.84616e-06
8.25333e-05 0.000138934 2.33334e-06
3.84616e-06 2.33334e-06 4.62664e-05
0.000966313 5.3933e-05 -3.86713e-06
5.3933e-05 -2.16389e-06 -1.37545e-06
-3.86713e-06 -1.37545e-06 -7.52203e-05
0.00117986 7.31045e-05 1.11851e-06
7.31045e-05 5.54288e-05 6.78868e-07
1.11851e-06 6.78868e-07 -3.09713e-05
0.00112407 7.87538e-05 1.38054e-06
7.87538e-05 -9.16726e-06 9.58555e-07
1.38054e-06 9.58555e-07 -9.83009e-05
0.000803381 2.2624e-05 -7.06322e-06
2.2624e-05 1.00506e-05 -3.86219e-06
-7.06322e-06 -3.86219e-06 -3.30221e-05
0.000959125 4.80197e-05 -2.10534e-07
4.80197e-05 3.28041e-05 -1.65943e-07
-2.10534e-07 -1.65943e-07 -3.72747e-05
0.00113345 7.2313e-05 1.66609e-06
7.2313e-05 7.90261e-05 7.14693e-07
1.66609e-06 7.14693e-07 -6.51305e-06
0.000861777 3.34165e-05 2.44193e-06
3.34165e-05 8.35368e-06 7.5193e-07
2.44193e-06 7.5193e-07 -5.73524e-05
0.000729135 -1.36676e-06 -3.29071e-08
-1.36676e-06 -1.89492e-05 -3.87012e-08
-3.29071e-08 -3.87012e-08 -5.74092e-05
0.00303821 -6.93138e-05 -4.0525e-05
-6.93138e-05 0.00119958 -2.94325e-06
-4.0525e-05 -2.94325e-06 0.00119551
0.000665569 -3.44749e-05 3.38876e-06
-3.44749e-05 -5.07559e-05 3.46948e-06
3.38876e-06 3.46948e-06 -8.54285e-05
0.00282719 -7.01755e-05 -5.87163e-07
-7.01755e-05 0.00107135 1.32043e-07
-5.87163e-07 1.32043e-07 0.00107185
0.00277271 -6.53195e-05 2.94152e-05
-6.53195e-05 0.00102499 3.12885e-06
2.94152e-05 3.12885e-06 0.00102998
0.00171436 -9.71091e-06 -6.71455e-07
-9.71091e-06 9.89174e-05 -5.43632e-07
-6.71455e-07 -5.43632e-07 1.02806e-05
0.00175983 -2.53852e-06 -2.46663e-07
-2.53852e-06 0.000103801 2.58659e-07
-2.46663e-07 2.58659e-07 1.53379e-05
0.00179193 -1.18604e-05 -7.98743e-07
-1.18604e-05 0.000104221 -1.62547e-06
-7.98743e-07 -1.62547e-06 1.61725e-05
0.0017789 4.47847e-05 6.83365e-07
4.47847e-05 0.000108165 -1.09993e-06
6.83365e-07 -1.09993e-06 1.16095e-05
0.00168226 -2.07407e-06 -1.45154e-07
-2.07407e-06 0.000107572 -5.55528e-07
-1.45154e-07 -5.55528e-07 1.32657e-05
0.00169424 2.529e-06 -2.59595e-07
2.529e-06 0.000110951 -2.1082e-07
-2.59595e-07 -2.1082e-07 2.02686e-05
0.00157241 6.7505e-06 -6.12438e-07
6.7505e-06 5.58938e-05 -3.2175e-08
-6.12438e-07 -3.2175e-08 -2.98435e-05
0.00161376 1.53331e-05 -1.63769e-06
1.53331e-05 8.89313e-05 -6.79201e-07
-1.63769e-06 -6.79201e-07 -1.40857e-06
0.00161342 2.27501e-05 7.71889e-09
2.27501e-05 9.58965e-05 -3.98111e-07
7.71889e-09 -3.98111e-07 1.70568e-06
0.00163434 1.91894e-05 -8.94559e-07
1.91894e-05 0.000120797 5.83185e-07
-8.94559e-07 5.83185e-07 2.74324e-05
0.00165923 2.45657e-05 1.02193e-06
2.45657e-05 0.000116942 8.45697e-07
1.02193e-06 8.45697e-07 2.67854e-05
0.00160314 1.9792e-05 5.10606e-07
1.9792e-05 0.00010864 -6.51246e-10
5.10606e-07 -6.51246e-10 1.82754e-05
0.00132562 1.56201e-05 -2.69973e-06
1.56201e-05 2.02947e-06 -2.14533e-08
-2.69973e-06 -2.14533e-08 -8.59506e-05
0.00150769 2.23666e-06 9.78583e-07
2.23666e-06 5.90735e-05 8.45231e-07
9.78583e-07 8.45231e-07 -3.04582e-05
0.00142125 -4.18359e-06 -4.17094e-07
-4.18359e-06 5.67409e-05 1.37103e-07
-4.17094e-07 1.37103e-07 -2.94022e-05
0.00117652 -8.17004e-06 -5.8976e-06
-8.17004e-06 5.23428e-06 8.42722e-07
-5.8976e-06 8.42722e-07 -6.87306e-05
0.00138661 -3.18655e-05 3.05622e-06
-3.18655e-05 5.4388e-05 -1.07463e-08
3.05622e-06 -1.07463e-08 -3.114e-05
0.00117098 -2.9264e-05 1.20857e-07
-2.9264e-05 1.49749e-05 2.08712e-07
1.20857e-07 2.08712e-07 -5.87619e-05
0.000684469 -1.5544e-05 -8.95348e-06
-1.5544e-05 -9.93529e-05 2.93845e-06
-8.95348e-06 2.93845e-06 -0.000142802
0.00113167 -3.77528e-05 5.25637e-06
-3.77528e-05 1.7284e-05 -1.5635e-06
5.25637e-06 -1.5635e-06 -5.5528e-05
0.00136451 -2.26775e-05 1.24462e-05
-2.26775e-05 0.000261269 -4.03462e-07
1.24462e-05 -4.03462e-07 0.000220748
0.00399572 7.05284e-05 -5.32002e-05
7.05284e-05 0.00169886 2.07283e-06
-5.32002e-05 2.07283e-06 0.00168854
0.00206499 -2.02388e-05 3.00938e-05
-2.02388e-05 0.000630312 -4.16496e-06
3.00938e-05 -4.16496e-06 0.000592738
0.0013069 3.44314e-05 -2.19708e-05
3.44314e-05 0.000323457 1.5616e-06
-2.19708e-05 1.5616e-06 0.000299752
0.00126123 5.38569e-05 6.80228e-06
5.38569e-05 0.000303452 -1.97464e-06
6.80228e-06 -1.97464e-06 0.000278643
0.00169074 -6.17629e-07 2.36564e-08
-6.17629e-07 9.54193e-05 -3.09346e-08
2.36564e-08 -3.09346e-08 8.79436e-06
0.00142204 2.14818e-05 -1.17608e-06
2.14818e-05 -2.93668e-06 8.48009e-07
-1.17608e-06 8.48009e-07 -9.39233e-05
0.00166927 1.17763e-05 1.53788e-08
1.17763e-05 7.93853e-05 -5.9222e-09
1.53788e-08 -5.9222e-09 -9.80389e-06
0.00111797 5.23283e-05 -3.02801e-06
5.23283e-05 -8.94421e-05 -8.33479e-07
-3.02801e-06 -8.33479e-07 -0.000179205
0.00158718 5.57606e-05 2.77397e-08
5.57606e-05 9.76156e-05 -1.09177e-07
2.77397e-08 -1.09177e-07 3.11939e-06
0.00160115 5.10108e-05 2.60215e-07
5.10108e-05 6.06941e-05 -1.21569e-06
2.60215e-07 -1.21569e-06 -3.83377e-05
0.000673581 4.49788e-05 -5.90975e-06
4.49788e-05 -0.000198252 -1.98331e-06
-5.90975e-06 -1.98331e-06 -0.000274073
0.00147596 7.38908e-05 6.69498e-07
7.38908e-05 0.00014273 -3.20442e-09
6.69498e-07 -3.20442e-09 5.61734e-05
0.00170308 8.03645e-05 2.72691e-06
8.03645e-05 0.000210556 1.51915e-06
2.72691e-06 1.51915e-06 0.000119914
0.000781126 3.90479e-05 -8.56665e-06
3.90479e-05 -1.42247e-05 -4.08149e-06
-8.56665e-06 -4.08149e-06 -6.05608e-05
0.000794281 4.94076e-05 -1.65637e-07
4.94076e-05 -9.17968e-05 9.07491e-08
-1.65637e-07 9.07491e-08 -0.000165766
0.000870057 6.62753e-05 3.12986e-06
6.62753e-05 -0.000102528 1.50633e-06
3.12986e-06 1.50633e-06 -0.00019003
0.00338993 -6.22647e-05 -4.86998e-05
-6.22647e-05 0.00139058 -3.20506e-06
-4.86998e-05 -3.20506e-06 0.00138315
0.000715172 1.84222e-05 -9.91315e-08
1.84222e-05 -2.90055e-05 -2.86529e-08
-9.91315e-08 -2.86529e-08 -7.22683e-05
0.000926956 4.58472e-05 2.7951e-06
4.58472e-05 1.65069e-05 1.28245e-06
2.7951e-06 1.28245e-06 -5.3271e-05
0.000658294 -3.83543e-06 5.15267e-06
-3.83543e-06 -4.94557e-05 3.38709e-06
5.15267e-06 3.38709e-06 -8.82366e-05
0.00298782 -7.61384e-05 -1.08408e-06
-7.61384e-05 0.00117138 1.75288e-07
-1.08408e-06 1.75288e-07 0.00116743
0.00282854 -7.06666e-05 3.08555e-05
-7.06666e-05 0.00106826 3.02158e-06
3.08555e-05 3.02158e-06 0.00106953
0.00166575 -1.1279e-05 -1.051e-06
-1.1279e-05 8.72325e-05 -4.74724e-07
-1.051e-06 -4.74724e-07 -2.73705e-06
0.0017052 -9.68591e-06 -4.19588e-07
-9.68591e-06 9.35207e-05 -1.79988e-07
-4.19588e-07 -1.79988e-07 5.0443e-06
0.00179405 -2.91906e-06 5.80522e-08
-2.91906e-06 0.000120531 -1.06819e-06
5.80522e-08 -1.06819e-06 3.16053e-05
0.00172289 1.17793e-05 -8.89781e-07
1.17793e-05 0.000136513 8.8277e-09
-8.89781e-07 8.8277e-09 4.00653e-05
0.00165612 1.77267e-06 -4.44677e-07
1.77267e-06 9.37131e-05 -3.8048e-07
-4.44677e-07 -3.8048e-07 -1.17526e-06
0.00175609 -3.69001e-07 -1.35293e-06
-3.69001e-07 0.000141532 4.11661e-09
-1.35293e-06 4.11661e-09 5.1324e-05
0.00155668 2.61e-05 -2.82244e-07
2.61e-05 6.58326e-05 -9.99799e-07
-2.82244e-07 -9.99799e-07 -2.84004e-05
0.00162098 2.13427e-05 4.19628e-07
2.13427e-05 0.000113619 2.72814e-08
4.19628e-07 2.72814e-08 2.03003e-05
0.00162474 1.56476e-05 -2.11327e-06
1.56476e-05 0.000142423 7.3659e-07
-2.11327e-06 7.3659e-07 5.38795e-05
0.0016625 2.07093e-05 1.88017e-06
2.07093e-05 0.000139699 5.25951e-07
1.88017e-06 5.25951e-07 4.97274e-05
0.00151672 1.82584e-05 1.5852e-08
1.82584e-05 0.000101023 6.18683e-08
1.5852e-08 6.18683e-08 1.42924e-05
0.000901519 1.01256e-05 -6.77642e-06
1.01256e-05 -0.000147181 1.02533e-06
-6.77642e-06 1.02533e-06 -0.000224739
0.00139794 -4.52472e-06 2.57987e-06
-4.52472e-06 4.52938e-05 2.68025e-07
2.57987e-06 2.68025e-07 -4.08572e-05
0.00117895 -6.124e-06 -4.09487e-08
-6.124e-06 5.87033e-06 6.16179e-10
-4.09487e-08 6.16179e-10 -6.79812e-05
0.000707161 -5.67127e-06 -9.12282e-06
-5.67127e-06 -9.60108e-05 2.14067e-06
-9.12282e-06 2.14067e-06 -0.00013962
0.00117023 -2.8382e-05 5.9421e-06
-2.8382e-05 1.37939e-05 -1.04248e-06
5.9421e-06 -1.04248e-06 -5.98959e-05
0.000694633 -1.29433e-05 -6.35198e-08
-1.29433e-05 -9.40597e-05 1.52363e-07
-6.35198e-08 1.52363e-07 -0.000137603
0.00405675 6.30969e-05 -5.56148e-05
6.30969e-05 0.00172428 1.43279e-06
-5.56148e-05 1.43279e-06 0.00171511
0.000785776 -2.90682e-05 1.12446e-05
-2.90682e-05 -3.84531e-05 -4.37287e-06
1.12446e-05 -4.37287e-06 -8.30262e-05
0.00274731 6.59193e-05 1.96931e-05
6.59193e-05 0.00105857 8.70406e-07
1.96931e-05 8.70406e-07 0.00104013
0.00132732 5.72942e-05 5.8395e-06
5.72942e-05 0.000340552 -1.98146e-06
5.8395e-06 -1.98146e-06 0.000313996
0.00179767 -9.75859e-06 -3.45372e-07
-9.75859e-06 0.000163511 -3.95639e-08
-3.45372e-07 -3.95639e-08 7.6606e-05
0.00155523 5.23391e-06 -7.38875e-07
5.23391e-06 6.07001e-05 1.29324e-07
-7.38875e-07 1.29324e-07 -2.65809e-05
0.00161856 -1.08022e-06 1.59579e-07
-1.08022e-06 6.02399e-05 1.95947e-07
1.59579e-07 1.95947e-07 -2.60874e-05
0.00138625 3.00841e-05 -2.54848e-06
3.00841e-05 2.87739e-05 5.4135e-08
-2.54848e-06 5.4135e-08 -5.80421e-05
0.0014868 2.14946e-05 3.90847e-07
2.14946e-05 2.83572e-05 -1.46834e-07
3.90847e-07 -1.46834e-07 -6.20375e-05
0.001728 1.15721e-05 8.58316e-07
1.15721e-05 0.000111811 -7.62163e-07
8.58316e-07 -7.62163e-07 2.28181e-05
0.000785248 3.937e-05 -6.51612e-06
3.937e-05 -0.000182842 -1.94033e-06
-6.51612e-06 -1.94033e-06 -0.000259682
0.00149083 5.94317e-05 -9.90619e-07
5.94317e-05 0.000101012 -2.94897e-07
-9.90619e-07 -2.94897e-07 1.25564e-05
0.00165344 5.66038e-05 2.49084e-06
5.66038e-05 0.000132593 -4.2317e-07
2.49084e-06 -4.2317e-07 3.89787e-05
0.000744016 4.37891e-05 -9.67575e-06
4.37891e-05 -5.08024e-05 -3.93174e-06
-9.67575e-06 -3.93174e-06 -9.76216e-05
0.000740285 4.67732e-05 -1.54312e-06
4.67732e-05 -0.000168773 -6.01122e-07
-1.54312e-06 -6.01122e-07 -0.000245045
0.00147849 7.4857e-05 3.54101e-06
7.4857e-05 0.000143447 8.36657e-07
3.54101e-06 8.36657e-07 5.67555e-05
0.00378628 -6.40696e-05 -5.34004e-05
-6.40696e-05 0.00159606 -3.16801e-06
-5.34004e-05 -3.16801e-06 0.00158588
0.000706404 3.42489e-05 -9.5393e-08
3.42489e-05 -4.7729e-05 1.60182e-07
-9.5393e-08 1.60182e-07 -9.41417e-05
0.000622034 4.48645e-05 3.74281e-06
4.48645e-05 -0.000181507 1.78749e-06
3.74281e-06 1.78749e-06 -0.000256391
0.00325383 -7.6099e-05 -2.18609e-06
-7.6099e-05 0.00132115 1.5274e-07
-2.18609e-06 1.5274e-07 0.00131356
0.000633731 1.45951e-05 5.84279e-06
1.45951e-05 -6.49862e-05 3.79067e-06
5.84279e-06 3.79067e-06 -0.000108413
0.00291207 -7.62019e-05 3.22537e-05
-7.62019e-05 0.00112977 2.89587e-06
3.22537e-05 2.89587e-06 0.00112663
0.00170299 1.84737e-06 -7.91825e-07
1.84737e-06 0.000124386 -5.71285e-07
-7.91825e-07 -5.71285e-07 3.22816e-05
0.00168473 -1.02943e-05 1.97376e-07
-1.02943e-05 9.7635e-05 4.27134e-07
1.97376e-07 4.27134e-07 7.6697e-06
0.00169364 -9.55194e-06 -4.96726e-08
-9.55194e-06 8.71176e-05 -1.07909e-07
-4.96726e-08 -1.07909e-07 -1.22288e-06
0.0016699 3.94537e-07 -2.71499e-06
3.94537e-07 0.000140032 7.00951e-08
-2.71499e-06 7.00951e-08 4.85438e-05
0.00170613 1.148e-05 4.4985e-07
1.148e-05 0.000130905 -2.9517e-08
4.4985e-07 -2.9517e-08 3.46515e-05
0.00163245 8.0113e-06 5.64389e-07
8.0113e-06 8.12958e-05 -3.6061e-07
5.64389e-07 -3.6061e-07 -1.43024e-05
0.00161412 2.22418e-05 1.25787e-06
2.22418e-05 0.000109659 -6.17388e-07
1.25787e-06 -6.17388e-07 1.64158e-05
0.00162113 1.59822e-05 6.90324e-07
1.59822e-05 0.000140487 -7.23309e-08
6.90324e-07 -7.23309e-08 5.2047e-05
0.000941347 8.42378e-06 -6.61737e-06
8.42378e-06 -0.000145536 1.21195e-06
-6.61737e-06 1.21195e-06 -0.000225897
0.00171728 2.09073e-05 3.15195e-06
2.09073e-05 0.00020471 -3.17936e-08
3.15195e-06 -3.17936e-08 0.000119234
0.00104354 1.23124e-05 -1.22773e-06
1.23124e-05 -7.27449e-05 2.82668e-07
-1.22773e-06 2.82668e-07 -0.000149077
0.000724417 1.02492e-06 -9.54477e-06
1.02492e-06 -9.50484e-05 1.7156e-06
-9.54477e-06 1.7156e-06 -0.000140958
0.00118419 -6.09131e-06 5.78188e-06
-6.09131e-06 7.75901e-06 -9.33653e-07
5.78188e-06 -9.33653e-07 -6.60001e-05
0.000710271 1.80834e-06 2.20884e-07
1.80834e-06 -9.41572e-05 -8.87802e-09
2.20884e-07 -8.87802e-09 -0.000138051
0.0041635 6.15975e-05 -5.90697e-05
6.15975e-05 0.0017737 8.10868e-07
-5.90697e-05 8.10868e-07 0.00176506
0.00069964 -8.52077e-06 8.86937e-06
-8.52077e-06 -9.15272e-05 -2.64458e-06
8.86937e-06 -2.64458e-06 -0.000134934
0.00411452 6.82718e-05 -5.41993e-07
6.82718e-05 0.00175321 1.60502e-07
-5.41993e-07 1.60502e-07 0.00174369
0.00155296 1.19643e-05 5.2071e-05
1.19643e-05 0.000439751 -2.5391e-06
5.2071e-05 -2.5391e-06 0.000418167
0.0017563 -4.05181e-06 -6.60838e-07
-4.05181e-06 0.000164009 -3.28096e-07
-6.60838e-07 -3.28096e-07 7.66838e-05
0.00167892 -1.0051e-05 4.81051e-07
-1.0051e-05 0.000103981 3.35986e-07
4.81051e-07 3.35986e-07 1.76123e-05
0.00142793 5.57586e-06 -2.3019e-06
5.57586e-06 3.80944e-05 -3.53042e-07
-2.3019e-06 -3.53042e-07 -4.76473e-05
0.00157851 4.71307e-06 3.08006e-07
4.71307e-06 7.15217e-05 -1.37777e-07
3.08006e-07 -1.37777e-07 -1.57919e-05
0.00154412 -1.52897e-06 1.48204e-06
-1.52897e-06 2.3878e-05 1.31411e-08
1.48204e-06 1.31411e-08 -6.2141e-05
0.00118902 2.6772e-05 -5.87177e-06
2.6772e-05 3.05478e-06 -1.29282e-06
-5.87177e-06 -1.29282e-06 -7.18982e-05
0.00142892 3.0582e-05 -4.21696e-08
3.0582e-05 4.80452e-05 1.44816e-07
-4.21696e-08 1.44816e-07 -3.87078e-05
0.00153339 2.13158e-05 1.25834e-06
2.13158e-05 5.10566e-05 -5.27422e-07
1.25834e-06 -5.27422e-07 -3.88031e-05
0.00072672 3.75484e-05 -1.02709e-05
3.75484e-05 -7.76717e-05 -3.52484e-06
-1.02709e-05 -3.52484e-06 -0.000123096
0.000988383 4.33677e-05 -1.86385e-06
4.33677e-05 -7.91409e-05 -4.64684e-07
-1.86385e-06 -4.64684e-07 -0.000155409
0.00185246 6.62505e-05 2.52307e-06
6.62505e-05 0.000285922 1.93775e-07
2.52307e-06 1.93775e-07 0.000198783
0.00410677 -7.00315e-05 -5.60217e-05
-7.00315e-05 0.00175613 -2.85786e-06
-5.60217e-05 -2.85786e-06 0.00174468
0.00070327 4.07552e-05 1.51015e-07
4.07552e-05 -6.95946e-05 1.54792e-07
1.51015e-07 1.54792e-07 -0.000116336
0.000789504 4.83363e-05 3.59105e-06
4.83363e-05 -0.000147833 1.08613e-06
3.59105e-06 1.08613e-06 -0.000224568
0.00362104 -7.19355e-05 -2.02948e-06
-7.19355e-05 0.00151319 2.34962e-07
-2.02948e-06 2.34962e-07 0.00150313
0.000636893 2.95999e-05 7.07899e-06
2.95999e-05 -7.91625e-05 4.26255e-06
7.07899e-06 4.26255e-06 -0.000125588
0.00311252 -8.29917e-05 3.46703e-05
-8.29917e-05 0.00124866 2.78254e-06
3.46703e-05 2.78254e-06 0.00124115
0.00167729 6.72841e-06 -1.99907e-06
6.72841e-06 0.000147869 -7.6819e-07
-1.99907e-06 -7.6819e-07 5.94009e-05
0.00170942 -5.30749e-07 2.88779e-07
-5.30749e-07 0.000129809 2.55903e-07
2.88779e-07 2.55903e-07 3.79293e-05
0.00170515 -9.78325e-06 1.58544e-06
-9.78325e-06 0.000108718 1.25654e-06
1.58544e-06 1.25654e-06 1.87601e-05
0.000965063 -1.13948e-05 -7.24521e-06
-1.13948e-05 -0.000149738 3.56021e-07
-7.24521e-06 3.56021e-07 -0.000232121
0.00168805 7.23384e-06 7.20979e-07
7.23384e-06 0.000150163 1.20804e-07
7.20979e-07 1.20804e-07 5.84783e-05
0.00168562 1.14778e-05 1.77899e-06
1.14778e-05 0.00012339 -4.01842e-07
1.77899e-06 -4.01842e-07 2.73442e-05
0.00161909 1.59992e-05 3.34781e-06
1.59992e-05 0.000139362 -4.88868e-07
3.34781e-06 -4.88868e-07 5.10198e-05
0.00092915 8.08174e-06 -9.20879e-07
8.08174e-06 -0.000149277 2.68415e-07
-9.20879e-07 2.68415e-07 -0.000229183
0.000735078 7.57796e-06 -9.99377e-06
7.57796e-06 -0.000102123 1.15506e-06
-9.99377e-06 1.15506e-06 -0.000150547
0.00117741 1.53056e-05 4.56456e-06
1.53056e-05 -2.46349e-06 -7.00702e-07
4.56456e-06 -7.00702e-07 -7.7569e-05
0.000734555 1.04444e-05 2.95413e-07
1.04444e-05 -9.03239e-05 -2.40718e-09
2.95413e-07 -2.40718e-09 -0.000136388
0.00428747 5.99369e-05 -6.23651e-05
5.99369e-05 0.00183199 2.15145e-07
-6.23651e-05 2.15145e-07 0.0018236
0.000714213 1.0426e-05 8.98602e-06
1.0426e-05 -9.20733e-05 -2.02023e-06
8.98602e-06 -2.02023e-06 -0.000136042
0.00421459 6.43921e-05 3.74173e-07
6.43921e-05 0.0017986 1.77149e-07
3.74173e-07 1.77149e-07 0.00178991
0.00419444 7.05487e-05 5.94934e-05
7.05487e-05 0.00179243 -1.06884e-06
5.94934e-05 -1.06884e-06 0.00178293
0.00150428 -1.55777e-06 -2.47247e-06
-1.55777e-06 7.04e-05 -8.38013e-07
-2.47247e-06 -8.38013e-07 -1.64273e-05
0.00165298 -5.21821e-06 3.01436e-07
-5.21821e-06 0.000110054 9.58162e-08
3.01436e-07 9.58162e-08 2.28051e-05
0.00156415 -1.02327e-05 7.89159e-07
-1.02327e-05 4.64723e-05 7.2856e-07
7.89159e-07 7.2856e-07 -3.93665e-05
0.00120341 3.76599e-06 -5.81054e-06
3.76599e-06 -2.34066e-06 -1.36097e-06
-5.81054e-06 -1.36097e-06 -7.75199e-05
0.00145609 5.47752e-06 1.40168e-07
5.47752e-06 5.14072e-05 -8.00843e-08
1.40168e-07 -8.00843e-08 -3.43743e-05
0.0016017 4.17387e-06 8.85032e-07
4.17387e-06 8.22439e-05 -4.0472e-07
8.85032e-07 -4.0472e-07 -5.095e-06
0.000724445 2.2132e-05 -1.017e-05
2.2132e-05 -9.164e-05 -3.04502e-06
-1.017e-05 -3.04502e-06 -0.000136476
0.00119971 2.70006e-05 -9.842e-08
2.70006e-05 8.53339e-06 1.65116e-07
-9.842e-08 1.65116e-07 -6.65186e-05
0.00147674 3.11184e-05 2.82934e-06
3.11184e-05 6.98433e-05 2.89571e-07
2.82934e-06 2.89571e-07 -1.68486e-05
0.00425913 -5.57002e-05 -6.1399e-05
-5.57002e-05 0.00182443 -2.23072e-06
-6.1399e-05 -2.23072e-06 0.00181507
0.000705873 3.58314e-05 3.67547e-08
3.58314e-05 -8.6569e-05 1.31029e-07
3.67547e-08 1.31029e-07 -0.000132186
0.00120306 4.77722e-05 4.15433e-06
4.77722e-05 3.04689e-05 1.17021e-06
4.15433e-06 1.17021e-06 -4.52763e-05
0.00393284 -6.21656e-05 2.78464e-07
-6.21656e-05 0.00166831 1.68943e-07
2.78464e-07 1.68943e-07 0.00165798
0.000656064 3.75908e-05 8.56673e-06
3.75908e-05 -9.15298e-05 4.0526e-06
8.56673e-06 4.0526e-06 -0.000138247
0.00343903 -8.23241e-05 4.16739e-05
-8.23241e-05 0.00142262 2.82941e-06
4.16739e-05 2.82941e-06 0.00141235
0.0012702 -3.36406e-07 -6.17261e-06
-3.36406e-07 9.30421e-06 -6.87121e-07
-6.17261e-06 -6.87121e-07 -6.98914e-05
0.00153886 1.60819e-06 8.07161e-07
1.60819e-06 7.5652e-05 -1.27154e-07
8.07161e-07 -1.27154e-07 -1.42237e-05
0.00171252 -4.0485e-06 1.58766e-06
-4.0485e-06 0.000133494 1.32178e-06
1.58766e-06 1.32178e-06 4.18366e-05
0.000748664 1.08968e-05 -1.05501e-05
1.08968e-05 -0.000105722 1.12283e-07
-1.05501e-05 1.12283e-07 -0.000155182
0.000958423 -3.9392e-06 -1.13839e-06
-3.9392e-06 -0.000152133 3.323e-07
-1.13839e-06 3.323e-07 -0.000234262
0.00170688 1.37157e-05 4.05409e-06
1.37157e-05 0.000160653 -4.00179e-07
4.05409e-06 -4.00179e-07 6.87668e-05
0.000916674 8.14075e-06 4.44781e-06
8.14075e-06 -0.000153239 -4.58522e-07
4.44781e-06 -4.58522e-07 -0.000232676
0.000748244 1.03439e-05 2.32854e-07
1.03439e-05 -9.59137e-05 2.08485e-07
2.32854e-07 2.08485e-07 -0.000144525
0.00448867 5.95317e-05 -6.54014e-05
5.95317e-05 0.00192761 -3.6535e-07
-6.54014e-05 -3.6535e-07 0.00191911
0.000744437 1.82269e-05 9.43517e-06
1.82269e-05 -8.54643e-05 -1.57008e-06
9.43517e-06 -1.57008e-06 -0.000131837
0.00435617 6.19299e-05 8.0981e-07
6.19299e-05 0.00186497 2.17742e-07
8.0981e-07 2.17742e-07 0.00185652
0.00426034 6.73075e-05 6.38885e-05
6.73075e-05 0.00182071 -4.43768e-07
6.38885e-05 -4.43768e-07 0.00181198
0.00124093 -3.08601e-06 -6.09127e-06
-3.08601e-06 5.22165e-06 -1.43102e-06
-6.09127e-06 -1.43102e-06 -7.17526e-05
0.00143873 -3.01176e-06 -4.90595e-08
-3.01176e-06 3.52274e-05 -1.16384e-07
-4.90595e-08 -1.16384e-07 -5.19765e-05
0.00154891 -6.44291e-06 9.66955e-07
-6.44291e-06 5.58029e-05 4.47604e-07
9.66955e-07 4.47604e-07 -3.13796e-05
0.00223207 -2.07942e-06 -3.6664e-05
-2.07942e-06 0.000671072 -1.82333e-06
-3.6664e-05 -1.82333e-06 0.000633724
0.00121939 3.96542e-06 1.32179e-07
3.96542e-06 5.75794e-06 5.70703e-08
1.32179e-07 5.70703e-08 -6.95928e-05
0.00148886 5.20983e-06 2.66624e-06
5.20983e-06 6.69871e-05 2.47169e-07
2.66624e-06 2.47169e-07 -1.88351e-05
0.00436949 -4.47651e-05 -6.69903e-05
-4.47651e-05 0.00187178 -1.55984e-06
-6.69903e-05 -1.55984e-06 0.00186399
0.000719121 2.27738e-05 -6.96633e-08
2.27738e-05 -9.43085e-05 9.90479e-08
-6.96633e-08 9.90479e-08 -0.00013915
0.00121327 2.6928e-05 6.04462e-06
2.6928e-05 1.54561e-05 1.58402e-06
6.04462e-06 1.58402e-06 -5.97239e-05
0.00416798 -5.26768e-05 1.98574e-06
-5.26768e-05 0.00178006 1.58739e-07
1.98574e-06 1.58739e-07 0.00177063
0.000678067 3.40096e-05 9.36583e-06
3.40096e-05 -9.9011e-05 3.63469e-06
9.36583e-06 3.63469e-06 -0.00014475
0.00380203 -7.26502e-05 4.8931e-05
-7.26502e-05 0.00160437 2.80647e-06
4.8931e-05 2.80647e-06 0.00159355
0.000786773 5.26491e-06 -1.32706e-05
5.26491e-06 -8.84687e-05 -1.38359e-06
-1.32706e-05 -1.38359e-06 -0.000138686
0.00111167 -3.15272e-06 1.90846e-07
-3.15272e-06 -7.23424e-05 2.86702e-07
1.90846e-07 2.86702e-07 -0.000152431
0.00139292 -3.41563e-06 3.58132e-06
-3.41563e-06 -4.73598e-07 7.39827e-07
3.58132e-06 7.39827e-07 -9.16966e-05
0.00466734 -2.64406e-05 -6.56995e-05
-2.64406e-05 0.00201546 -1.05896e-06
-6.56995e-05 -1.05896e-06 0.00200517
0.000762394 7.67908e-06 7.87508e-08
7.67908e-06 -9.88269e-05 2.50457e-07
7.87508e-08 2.50457e-07 -0.000148691
0.000951794 3.1145e-06 4.79886e-06
3.1145e-06 -0.000154497 5.40483e-08
4.79886e-06 5.40483e-08 -0.000236386
0.000762048 1.73683e-05 1.00856e-05
1.73683e-05 -8.90547e-05 -6.72352e-07
1.00856e-05 -6.72352e-07 -0.000138073
0.00455847 6.90924e-05 2.73231e-06
6.90924e-05 0.00196186 3.34745e-07
2.73231e-06 3.34745e-07 0.0019529
0.00442491 6.63571e-05 6.9579e-05
6.63571e-05 0.00189802 1.36643e-07
6.9579e-05 1.36643e-07 0.00188942
0.00231752 -1.90102e-05 -4.09457e-05
-1.90102e-05 0.000703812 -1.80013e-06
-4.09457e-05 -1.80013e-06 0.000664104
0.00124554 -1.6414e-06 -3.78479e-08
-1.6414e-06 7.27387e-06 1.14058e-08
-3.78479e-08 1.14058e-08 -6.96589e-05
0.00137261 -4.29683e-06 2.44734e-06
-4.29683e-06 -2.90122e-07 6.38018e-07
2.44734e-06 6.38018e-07 -8.78583e-05
0.00428466 -5.10825e-05 -1.871e-05
-5.10825e-05 0.00182964 -5.74957e-07
-1.871e-05 -5.74957e-07 0.00181981
0.000749346 6.24153e-06 -1.29774e-07
6.24153e-06 -8.84134e-05 6.68392e-08
-1.29774e-07 6.68392e-08 -0.000134121
0.00123785 5.27976e-06 5.99493e-06
5.27976e-06 1.48701e-05 1.40728e-06
5.99493e-06 1.40728e-06 -6.05898e-05
0.00429585 -4.14642e-05 3.94586e-07
-4.14642e-05 0.00183643 2.25972e-07
3.94586e-07 2.25972e-07 0.00182858
0.000710705 2.43327e-05 1.01405e-05
2.43327e-05 -9.84378e-05 3.21956e-06
1.01405e-05 3.21956e-06 -0.000143258
0.00404471 -4.53622e-05 5.75168e-05
-4.53622e-05 0.00171884 2.41661e-06
5.75168e-05 2.41661e-06 0.00171009
0.00165036 -9.33338e-06 -6.87637e-05
-9.33338e-06 0.000458505 -2.23307e-07
-6.87637e-05 -2.23307e-07 0.000435023
0.0015743 5.98422e-07 -1.59849e-05
5.98422e-07 0.000316932 4.41442e-07
-1.59849e-05 4.41442e-07 0.000271988
0.000965352 -2.31872e-06 6.11176e-06
-2.31872e-06 -0.000147825 1.16381e-06
6.11176e-06 1.16381e-06 -0.000228791
0.00468322 -1.13701e-05 2.9965e-06
-1.13701e-05 0.00202208 -5.66536e-07
2.9965e-06 -5.66536e-07 0.00201249
0.000766173 6.05739e-06 1.07486e-05
6.05739e-06 -9.70872e-05 3.85788e-07
1.07486e-05 3.85788e-07 -0.000147054
0.00462216 6.03769e-05 7.25753e-05
6.03769e-05 0.0019917 7.80124e-07
7.25753e-05 7.80124e-07 0.00198323
0.00143587 -1.86979e-05 -1.02337e-05
-1.86979e-05 0.000358943 -8.91323e-07
-1.02337e-05 -8.91323e-07 0.000334027
0.00156293 -1.02116e-06 -1.51613e-05
-1.02116e-06 0.000318795 1.87806e-07
-1.51613e-05 1.87806e-07 0.000275241
0.00124901 -2.60933e-06 5.81487e-06
-2.60933e-06 8.84376e-06 1.41744e-06
5.81487e-06 1.41744e-06 -6.8101e-05
0.00289988 -3.0146e-05 2.80403e-05
-3.0146e-05 0.0011147 1.33822e-07
2.80403e-05 1.33822e-07 0.00109888
0.000748392 1.23808e-05 1.05407e-05
1.23808e-05 -8.95566e-05 2.7748e-06
1.05407e-05 2.7748e-06 -0.000135304
0.00424307 -3.57839e-05 6.31018e-05
-3.57839e-05 0.00181094 1.94437e-06
6.31018e-05 1.94437e-06 0.00180323
0.00470071 -6.43017e-05 -2.58012e-06
-6.43017e-05 0.0020288 3.50185e-07
-2.58012e-06 3.50185e-07 0.00201986
0.000769881 5.54028e-06 1.08494e-05
5.54028e-06 -9.5199e-05 1.54663e-06
1.08494e-05 1.54663e-06 -0.000144699
0.0047079 2.2714e-05 7.12202e-05
2.2714e-05 0.00203291 -7.25147e-07
7.12202e-05 -7.25147e-07 0.0020237
0.00302265 -3.34298e-05 2.88985e-05
-3.34298e-05 0.00117107 -3.18822e-08
2.88985e-05 -3.18822e-08 0.00115434
0.000775728 5.28748e-06 1.05884e-05
5.28748e-06 -8.42111e-05 2.28699e-06
1.05884e-05 2.28699e-06 -0.000132206
0.00437771 -3.65774e-05 6.59548e-05
-3.65774e-05 0.00187303 1.36813e-06
6.59548e-05 1.36813e-06 0.00186563
0.00465181 -8.93521e-05 6.66338e-05
-8.93521e-05 0.00200798 -5.24055e-08
6.66338e-05 -5.24055e-08 0.00199698
0.00452885 -4.09842e-05 6.78899e-05
-4.09842e-05 0.00194476 6.8889e-07
6.78899e-05 6.8889e-07 0.00193712
