# vtk DataFile Version 2.0
Wound Healing Simulation
ASCII
DATASET UNSTRUCTURED_GRID
POINTS 3012 float
69.9759 18.75 4
67.2507 60.3285 4
69.976 18.75 2
73.0099 25.446 4
71.1327 20.9142 4
68.6801 16.6661 4
67.827 19.9258 3.98569
67.2507 60.3286 2
71.1327 54.0858 4
68.6801 58.3339 4
65.6939 62.2254 4
65.3136 59.0028 3.98675
74.6784 42.3946 4
73.7221 47.2057 4
69.9759 18.75 0
73.0099 25.446 2
68.6801 16.6661 2
71.1327 20.9142 2
67.8275 19.928 2
74.6792 32.6053 4
73.7222 27.7943 4
72.1454 23.1494 4
70.6152 26.2217 3.98508
68.8871 21.9586 3.9855
67.2507 14.6715 4
66.6387 17.9706 3.98629
65.8007 21.0238 3.97878
67.2507 60.3285 0
71.1327 54.0858 2
68.6801 58.3339 2
65.694 62.2255 2
65.3146 59.0012 2
72.1454 51.8506 4
69.9759 56.25 4
68.8375 53.1128 3.98465
64.0165 64.0165 4
66.6121 57.1349 3.98635
63.8871 60.7676 3.9884
63.5037 57.7757 3.98108
60.3285 67.2507 4
74.6792 42.3947 2
73.7222 47.2057 2
74.9194 39.9526 4
74.2788 44.8158 4
72.1687 42.0857 3.98318
73.0099 49.554 4
71.2502 46.5981 3.98428
73.0099 25.446 0
71.1327 20.9142 0
68.6801 16.6661 0
67.827 19.9258 0.0143111
74.6792 32.6053 2
73.7222 27.7943 2
67.2508 14.6715 2
72.1455 23.1494 2
70.6153 26.2223 2
66.6395 17.9725 2
68.8873 21.9605 2
65.8005 21.0236 2
74.9197 35.0474 4
74.2794 30.1841 4
72.1854 32.9433 3.98355
71.2792 28.4317 3.98479
69.8167 24.0606 3.98522
68.3494 26.9514 3.97623
66.7655 22.9329 3.97736
65.694 12.7746 4
65.3253 16.1015 3.98753
64.7177 19.1917 3.98039
63.8914 22.0329 3.97483
71.1327 54.0858 0
65.6939 62.2254 0
68.6801 58.3339 0
65.3136 59.0028 0.0132519
72.1455 51.8506 2
69.9759 56.25 2
68.8378 53.1107 2
64.0165 64.0165 2
66.613 57.1327 2
63.888 60.7668 2
63.5039 57.7766 2
62.2254 65.694 4
58.8951 65.4152 3.99251
69.7699 50.9884 3.98436
67.785 55.1677 3.98539
66.6518 52.2099 3.97633
62.3373 62.4289 3.9903
64.6645 56.0346 3.98055
62.2055 59.4091 3.98216
61.8275 56.6869 3.97775
58.3339 68.6801 4
60.3285 67.2508 2
73.7221 47.2057 0
74.6784 42.3946 0
74.9197 39.9526 2
74.2794 44.8159 2
72.1686 42.0856 2
73.0099 49.554 2
71.2503 46.5977 2
75 37.5 4
72.4058 39.8023 3.98293
71.7833 44.3531 3.9838
69.8055 41.7901 3.97427
70.576 48.8132 3.98433
68.9146 46.0156 3.97541
74.6792 32.6053 0
73.7222 27.7943 0
67.2507 14.6715 0
72.1454 23.1494 0
70.6152 26.2217 0.0149247
68.8871 21.9586 0.0145048
66.6387 17.9706 0.0137133
65.8007 21.0238 0.0212202
74.9197 35.0474 2
74.2794 30.1841 2
72.1852 32.9434 2
71.2792 28.4319 2
65.694 12.7745 2
65.3261 16.1026 2
69.8168 24.0618 2
68.3492 26.9516 2
64.7178 19.191 2
66.7652 22.933 2
63.8913 22.0325 2
72.4136 35.2242 3.98294
71.8046 30.6764 3.98403
69.8415 33.2682 3.97482
68.9687 29.0379 3.97611
67.6137 24.9121 3.97639
66.1976 27.6338 3.97294
64.0165 10.9835 4
64.7599 23.829 3.97359
63.8914 14.3252 3.98891
63.517 17.442 3.98232
62.9121 20.316 3.97621
62.0969 22.9404 3.97262
60.6848 11.0961 3.99105
57.6132 11.4426 3.98548
72.1454 51.8506 0
69.9759 56.25 0
68.8375 53.1128 0.0153493
64.0165 64.0165 0
63.8871 60.7676 0.0116042
66.6121 57.1349 0.0136532
63.5037 57.7757 0.018918
62.2255 65.694 2
58.8955 65.4152 2
69.7701 50.987 2
67.7856 55.1653 2
66.6516 52.2097 2
62.338 62.4284 2
64.6646 56.0352 2
62.2057 59.4101 2
61.8277 56.688 2
60.6697 63.9782 3.99155
57.0258 66.736 3.99312
57.5591 63.6955 3.98686
67.5094 50.1772 3.9753
65.705 54.1749 3.97816
64.54 51.3871 3.97209
60.7749 60.9426 3.98362
62.825 55.0726 3.97739
60.6619 58.166 3.97828
60.3326 55.7922 3.97678
56.25 69.9759 4
58.3339 68.6801 2
60.3285 67.2507 0
58.922 9.65451 3.99182
62.2254 9.30607 4
73.0099 49.554 0
74.2788 44.8158 0
71.2502 46.5981 0.0157247
72.1687 42.0857 0.0168185
74.9194 39.9526 0
75 37.5 2
72.4057 39.8024 2
71.7833 44.3527 2
69.8053 41.79 2
70.5761 48.8124 2
68.9146 46.0153 2
72.4891 37.5121 3.98273
70.0421 39.6576 3.9736
69.4323 43.9082 3.97495
67.599 41.4985 3.97077
68.268 48.1078 3.97526
66.7127 45.4417 3.97197
74.9197 35.0474 0
74.2794 30.1841 0
72.1854 32.9433 0.0164489
71.2792 28.4317 0.0152085
65.694 12.7746 0
65.3253 16.1015 0.0124726
69.8167 24.0606 0.0147774
68.3494 26.9514 0.0237704
66.7655 22.9329 0.0226381
64.7177 19.1917 0.0196148
63.8914 22.0329 0.0251707
72.4136 35.2241 2
71.8047 30.6765 2
69.8414 33.2684 2
68.9688 29.0381 2
64.0165 10.9835 2
63.8921 14.3258 2
63.5172 17.441 2
67.6135 24.9124 2
66.1975 27.6337 2
62.9123 20.3152 2
64.7597 23.8287 2
62.0968 22.94 2
60.6853 11.0966 2
57.6134 11.4418 2
70.0588 35.3919 3.97382
69.4689 31.1493 3.97514
67.6573 33.5904 3.9714
66.7754 29.6217 3.97235
65.5267 25.6987 3.97291
64.1494 28.2541 3.97211
62.3426 12.6533 3.99
62.8597 24.6358 3.9717
62.2018 15.7794 3.98345
61.8188 18.6784 3.9784
61.2225 21.337 3.97359
60.4286 23.7246 3.97206
59.2474 12.774 3.9839
55.8751 10.2293 3.98698
56.4062 13.1066 3.98224
69.7699 50.9884 0.0156371
62.2254 65.694 0
58.8951 65.4152 0.00749455
67.785 55.1677 0.0146069
66.6518 52.2099 0.0236705
62.3373 62.4289 0.00970499
62.2055 59.4091 0.0178406
64.6645 56.0346 0.0194455
61.8275 56.6869 0.0222456
60.6702 63.9779 2
57.0261 66.7361 2
57.5591 63.6965 2
67.5093 50.1768 2
65.705 54.1751 2
64.5398 51.3872 2
60.7751 60.9436 2
62.8251 55.0735 2
60.6621 58.1671 2
60.3329 55.793 2
55.0712 67.933 3.99338
59.2206 62.3704 3.98467
55.8057 64.9132 3.98881
56.3282 62.0959 3.98324
65.3336 49.4097 3.97136
63.7094 53.2951 3.974
62.4429 50.6544 3.97007
59.3358 59.5636 3.98088
61.0817 54.3145 3.97624
59.2928 57.0193 3.97539
59.2466 55.189 3.97796
48.1037 68.5809 3.98993
50.9488 69.9326 3.99373
54.0858 71.1327 4
56.25 69.976 2
58.3339 68.6801 0
57.0592 8.33457 3.99213
60.3285 7.74928 4
58.9225 9.6547 2
62.2255 9.30602 2
70.576 48.8132 0.0156719
71.7833 44.3531 0.0162021
68.9146 46.0156 0.0245929
69.8055 41.7901 0.0257285
72.4058 39.8023 0.0170719
75 37.5 0
72.489 37.5121 2
70.0421 39.6576 2
69.4323 43.908 2
67.5988 41.4985 2
68.268 48.1074 2
66.7126 45.4417 2
70.1301 37.5216 3.97366
67.8355 39.5129 3.97019
67.226 43.4714 3.97128
65.5576 41.211 3.97021
66.0711 47.4197 3.972
64.6553 44.8507 3.97065
72.4136 35.2242 0.0170614
71.8046 30.6764 0.0159662
69.8415 33.2682 0.02518
68.9687 29.0379 0.0238863
64.0165 10.9835 0
63.8914 14.3252 0.0110941
63.517 17.442 0.017675
67.6137 24.9121 0.0236079
66.1976 27.6338 0.0270594
64.7599 23.829 0.0264069
62.9121 20.316 0.0237862
62.0969 22.9404 0.0273832
60.6848 11.0961 0.00895398
57.6132 11.4426 0.0145164
70.0588 35.3921 2
69.469 31.1494 2
67.6572 33.5904 2
66.7754 29.6216 2
62.3432 12.6538 2
62.2018 15.7786 2
61.819 18.6773 2
65.5265 25.6986 2
64.1493 28.2539 2
61.2228 21.3363 2
62.8595 24.6356 2
60.4286 23.7243 2
59.2475 12.7735 2
56.4062 13.1056 2
55.8752 10.2285 2
67.8715 35.5474 3.97042
67.2674 31.6218 3.97139
65.6997 33.9267 3.97057
64.666 30.1907 3.97088
63.5405 26.4131 3.97178
62.2605 28.7759 3.97218
60.777 14.2186 3.9836
61.0465 25.3359 3.97122
60.6165 17.1208 3.98066
60.2274 19.81 3.97568
59.6649 22.2542 3.97179
58.9797 24.3171 3.97291
54.0382 9.1325 3.98771
57.9117 14.3254 3.98194
54.7875 12.0058 3.98363
55.3135 14.6383 3.98076
67.5094 50.1772 0.0247015
57.0258 66.736 0.00688395
60.6697 63.9782 0.00844718
57.5591 63.6955 0.0131398
65.705 54.1749 0.0218381
64.54 51.3871 0.0279061
60.7749 60.9426 0.0163842
60.6619 58.166 0.0217178
62.825 55.0726 0.0226131
60.3326 55.7922 0.0232159
55.0715 67.9331 2
59.2207 62.3714 2
55.8056 64.9141 2
56.3282 62.0971 2
65.3335 49.4097 2
63.7095 53.2957 2
62.4428 50.6545 2
59.336 59.5649 2
61.082 54.3153 2
59.2931 57.0201 2
59.2471 55.1896 2
53.043 69.0008 3.99361
53.968 66.0154 3.98945
57.8823 60.8761 3.98208
54.685 63.2129 3.98515
55.2127 60.6234 3.98147
63.1952 48.6635 3.97003
61.7437 52.5785 3.97171
60.2728 50.0226 3.96894
58.0208 58.268 3.97763
59.331 53.9523 3.97572
58.1298 55.8176 3.97344
50.1104 67.8589 3.98987
47.4643 66.585 3.98758
46.0573 69.1604 3.99003
48.1037 68.5814 2
48.8029 70.7239 3.99382
50.9491 69.9328 2
51.8506 72.1454 4
54.0858 71.1327 2
56.25 69.9759 0
55.1035 7.13909 3.99242
58.3339 6.31992 4
57.0596 8.33455 2
60.3286 7.74926 2
58.922 9.65451 0.00817641
62.2254 9.30607 0
68.268 48.1078 0.0247428
69.4323 43.9082 0.025048
66.7127 45.4417 0.0280293
67.599 41.4985 0.0292263
70.0421 39.6576 0.0263965
72.4891 37.5121 0.0172686
70.1301 37.5217 2
67.8354 39.5129 2
67.2259 43.4714 2
65.5574 41.211 2
66.071 47.4196 2
64.6552 44.8508 2
67.9317 37.5222 3.97024
65.7886 39.371 3.96986
65.1784 43.0271 3.97036
63.7548 40.931 3.9711
63.9679 46.7194 3.97073
62.8105 44.2191 3.97176
70.0588 35.3919 0.0261814
69.4689 31.1493 0.0248598
67.6573 33.5904 0.0285962
66.7754 29.6217 0.0276486
62.3426 12.6533 0.00999512
62.2018 15.7794 0.0165501
61.8188 18.6784 0.0216047
65.5267 25.6987 0.0270886
64.1494 28.2541 0.0278904
62.8597 24.6358 0.0283032
61.2225 21.337 0.0264128
60.4286 23.7246 0.027938
59.2474 12.774 0.0160993
56.4062 13.1066 0.0177604
55.8751 10.2293 0.0130188
67.8715 35.5474 2
67.2675 31.6217 2
65.6996 33.9266 2
64.6661 30.1905 2
60.777 14.218 2
60.6165 17.1198 2
60.2279 19.809 2
63.5403 26.413 2
62.2604 28.7758 2
59.6652 22.2536 2
61.0465 25.3358 2
58.9798 24.317 2
57.9115 14.3247 2
55.3133 14.6374 2
54.0382 9.13183 2
54.7875 12.0048 2
65.8772 35.6667 3.96984
65.1879 32.1534 3.97018
64.285 34.2494 3.97073
62.5981 30.6343 3.97139
61.6531 27.0704 3.97158
60.8533 29.1384 3.97304
59.3128 15.6622 3.9817
59.3308 25.7939 3.97221
59.1273 18.3482 3.9789
58.7436 20.8484 3.97281
58.2867 23.0886 3.97113
57.9682 24.6617 3.9756
52.1128 8.15086 3.98828
53.0585 11.012 3.98449
56.6779 15.7349 3.981
53.8101 13.6731 3.98206
54.3772 15.9903 3.98057
55.0712 67.933 0.00662362
65.3336 49.4097 0.0286404
55.8057 64.9132 0.0111878
59.2206 62.3704 0.0153344
56.3282 62.0959 0.0167574
63.7094 53.2951 0.0260023
62.4429 50.6544 0.0299319
59.3358 59.5636 0.0191234
59.2928 57.0193 0.0246086
61.0817 54.3145 0.0237557
59.2466 55.189 0.0220374
53.0433 69.001 2
53.9679 66.0161 2
57.8824 60.8772 2
54.6849 63.214 2
55.2128 60.6248 2
63.1951 48.6635 2
61.7441 52.579 2
60.2726 50.0226 2
58.0213 58.2694 2
59.3315 53.9528 2
58.1303 55.8178 2
52.0715 67.002 3.98974
52.9543 64.2234 3.98661
56.6501 59.4958 3.98022
53.6822 61.6295 3.98304
54.2616 59.3291 3.97933
60.9927 47.8841 3.96951
59.7099 52.1089 3.97173
58.0217 49.6209 3.96957
56.7792 56.9944 3.9747
57.1228 54.1256 3.9737
50.1103 67.8595 2
49.338 65.9254 3.98756
47.4641 66.5856 2
46.8932 64.7421 3.98626
45.5593 67.1025 3.98736
43.9741 69.5926 3.9899
46.0573 69.1608 2
46.6095 71.3684 3.99389
48.1037 68.5809 0.010074
48.8032 70.7241 2
49.554 73.0099 4
50.9488 69.9326 0.00626963
51.8506 72.1455 2
54.0858 71.1327 0
53.0645 6.07053 3.99269
55.1038 7.13901 2
56.25 5.02411 4
58.3339 6.3199 2
57.0592 8.33457 0.00786824
60.3285 7.74928 0
66.0711 47.4197 0.0279986
67.226 43.4714 0.0287245
64.6553 44.8507 0.0293535
65.5576 41.211 0.029788
67.8355 39.5129 0.0298095
70.1301 37.5216 0.0263409
67.9316 37.5222 2
65.7886 39.371 2
65.1783 43.0271 2
63.7548 40.9311 2
63.9678 46.7194 2
62.8104 44.2191 2
65.8915 37.5021 3.96973
63.8911 39.2677 3.9707
63.3302 42.5522 3.97097
62.423 40.6995 3.97223
61.9704 45.9226 3.97114
61.4517 43.6865 3.97308
67.8715 35.5474 0.0295807
67.2674 31.6218 0.0286115
65.6997 33.9267 0.0294293
64.666 30.1907 0.0291195
60.777 14.2186 0.0163985
60.6165 17.1208 0.0193357
60.2274 19.81 0.0243174
63.5405 26.4131 0.0282248
62.2605 28.7759 0.0278204
61.0465 25.3359 0.0287773
59.6649 22.2542 0.0282096
58.9797 24.3171 0.027088
57.9117 14.3254 0.0180568
55.3135 14.6383 0.0192383
54.0382 9.1325 0.0122891
54.7875 12.0058 0.0163746
65.8772 35.6666 2
65.188 32.1532 2
64.2851 34.2493 2
62.5981 30.6342 2
59.3127 15.6613 2
59.1276 18.3471 2
58.7442 20.8475 2
61.653 27.0704 2
60.8533 29.1384 2
58.287 23.0884 2
59.3309 25.794 2
57.9683 24.6618 2
56.6777 15.7341 2
54.377 15.9894 2
53.8101 13.6721 2
52.1127 8.15029 2
53.0584 11.0112 2
64.0862 35.6322 3.97042
62.9299 33.0455 3.97086
60.618 30.6104 3.97278
59.5709 27.9079 3.97256
57.9416 16.976 3.9807
57.7381 25.7227 3.97289
57.7178 19.4691 3.97695
57.3723 21.8364 3.97032
57.1859 23.945 3.97176
50.1128 7.28275 3.98871
51.2329 10.1202 3.98533
52.1724 12.7905 3.98318
55.5387 16.9643 3.98085
52.9781 15.2551 3.98014
53.7591 16.9722 3.98081
53.043 69.0008 0.00639213
53.968 66.0154 0.0105518
63.1952 48.6635 0.0299651
54.685 63.2129 0.0148506
57.8823 60.8761 0.0179192
55.2127 60.6234 0.0185298
61.7437 52.5785 0.0282886
60.2728 50.0226 0.0310553
58.0208 58.268 0.0223708
58.1298 55.8176 0.0265554
59.331 53.9523 0.0242785
52.0714 67.0025 2
52.9541 64.2242 2
56.6502 59.4971 2
53.6821 61.6307 2
54.2615 59.3308 2
60.9925 47.884 2
59.7104 52.1092 2
58.0215 49.6208 2
56.7795 56.9966 2
57.1234 54.1258 2
51.1689 65.1324 3.9873
52.047 62.5452 3.98472
55.4826 58.2568 3.97923
52.8355 60.1431 3.98098
53.6413 58.4792 3.98007
58.304 46.853 3.97289
57.5574 51.7898 3.97173
56.2407 49.5568 3.9733
55.4735 55.7948 3.9726
55.3555 53.383 3.96977
50.1104 67.8589 0.0101323
49.3378 65.926 2
48.619 64.1286 3.98594
47.4643 66.585 0.0124218
45.5591 67.1029 2
46.893 64.7427 2
46.3826 63.0607 3.98519
45.1335 65.2034 3.98624
43.6322 67.473 3.98735
41.8611 69.8799 3.98969
43.9741 69.5931 2
44.3768 71.8632 3.99377
46.0573 69.1604 0.00997061
46.6098 71.3686 2
47.2057 73.7222 4
48.8029 70.7239 0.00618173
49.554 73.0099 2
51.8506 72.1454 0
50.9542 5.13084 3.99296
53.0648 6.07042 2
54.0858 3.86728 4
55.1035 7.13909 0.00757602
56.25 5.02406 2
58.3339 6.31992 0
63.9679 46.7194 0.0292728
65.1784 43.0271 0.0296352
62.8105 44.2191 0.0282398
63.7548 40.931 0.0288969
65.7886 39.371 0.0301371
67.9317 37.5222 0.0297565
65.8914 37.502 2
63.8912 39.2677 2
63.3301 42.5522 2
62.4233 40.6995 2
61.9702 45.9225 2
61.4515 43.6865 2
63.952 37.4574 3.97051
62.1395 39.3563 3.97178
61.2097 41.9609 3.97279
60.2538 44.7744 3.97362
65.8772 35.6667 0.0301582
65.1879 32.1534 0.0298243
64.285 34.2494 0.0292681
62.5981 30.6343 0.0286065
59.3128 15.6622 0.018304
59.1273 18.3482 0.0210998
58.7436 20.8484 0.0271891
61.6531 27.0704 0.0284234
60.8533 29.1384 0.0269577
59.3308 25.7939 0.0277894
58.2867 23.0886 0.0288662
57.9682 24.6617 0.0244007
56.6779 15.7349 0.0189989
54.3772 15.9903 0.0194277
53.8101 13.6731 0.0179389
52.1128 8.15086 0.0117243
53.0585 11.012 0.0155071
64.0863 35.6322 2
62.9303 33.0454 2
60.618 30.6104 2
57.9416 16.975 2
57.7184 19.468 2
57.373 21.8361 2
59.5712 27.9079 2
57.1862 23.9453 2
57.7383 25.7229 2
50.1128 7.28221 2
55.5386 16.9633 2
53.7588 16.9712 2
52.978 15.254 2
52.1723 12.7896 2
51.2328 10.1195 2
62.1749 35.3595 3.97132
60.2838 32.7448 3.97265
58.6218 30.0741 3.97375
57.2833 27.3791 3.97368
56.6379 18.1487 3.98025
56.2893 25.0992 3.97316
56.3586 20.5162 3.97253
56.1081 22.8683 3.96804
48.0565 6.52584 3.98912
49.3246 9.32799 3.98579
50.4334 11.9884 3.98364
51.378 14.4906 3.98189
54.416 17.9133 3.98113
52.3615 17.0277 3.97951
52.0715 67.002 0.0102594
52.9543 64.2234 0.013392
60.9927 47.8841 0.0304915
53.6822 61.6295 0.0169615
56.6501 59.4958 0.0197751
54.2616 59.3291 0.0206655
59.7099 52.1089 0.0282674
58.0217 49.6209 0.0304257
56.7792 56.9944 0.0253037
57.1228 54.1256 0.0263009
51.1687 65.1331 2
52.0468 62.5462 2
55.4825 58.2585 2
52.8354 60.1444 2
53.6413 58.4807 2
58.3039 46.8529 2
57.5582 51.7899 2
56.2406 49.5565 2
55.4741 55.7957 2
55.3563 53.3835 2
50.3471 63.3869 3.98548
51.245 60.9431 3.98254
54.2207 57.2732 3.9791
52.3136 58.642 3.97904
56.7027 44.1874 3.97632
55.4886 47.8999 3.975
55.0628 51.3878 3.97067
54.0033 54.543 3.9711
49.338 65.9254 0.012438
48.6187 64.1292 2
47.9628 62.4818 3.98476
45.5593 67.1025 0.0126427
46.8932 64.7421 0.0137431
43.632 67.4736 2
46.3824 63.0615 2
45.1332 65.204 2
45.9882 61.5941 3.9845
44.7679 63.4618 3.9857
43.3573 65.513 3.98619
41.664 67.6918 3.98721
39.7026 70.0271 3.98956
41.8612 69.8805 2
42.1112 72.2079 3.99361
43.9741 69.5926 0.0101034
44.3771 71.8634 2
44.8159 74.2794 4
46.6095 71.3684 0.00611062
47.2057 73.7222 2
49.554 73.0099 0
48.7846 4.32184 3.9932
50.9544 5.13068 2
51.8506 2.85458 4
53.0645 6.07053 0.00731293
54.0858 3.86728 2
56.25 5.02411 0
61.9704 45.9226 0.0288562
63.3302 42.5522 0.0290283
61.4517 43.6865 0.0269226
62.423 40.6995 0.0277703
63.8911 39.2677 0.0292987
65.8915 37.5021 0.0302737
63.9517 37.4574 2
62.1395 39.3563 2
61.2098 41.9608 2
60.2536 44.7743 2
61.973 37.4453 3.97157
60.2274 39.8491 3.97345
58.9806 42.9218 3.97397
64.0862 35.6322 0.0295753
62.9299 33.0455 0.029142
60.618 30.6104 0.0272163
57.9416 16.976 0.0193046
57.7178 19.4691 0.0230532
57.3723 21.8364 0.0296751
59.5709 27.9079 0.0274444
57.7381 25.7227 0.0271074
57.1859 23.945 0.0282354
55.5387 16.9643 0.0191488
53.7591 16.9722 0.0191936
52.9781 15.2551 0.0198559
50.1128 7.28275 0.0112914
52.1724 12.7905 0.016815
51.2329 10.1202 0.0146741
62.1747 35.3595 2
60.2846 32.7448 2
58.6211 30.0741 2
56.6381 18.1476 2
56.3594 20.5147 2
56.1088 22.8689 2
57.2845 27.3792 2
56.2894 25.0998 2
48.0565 6.52528 2
49.3245 9.32745 2
54.4159 17.9121 2
52.3612 17.0268 2
51.3779 14.4896 2
50.4332 11.9876 2
59.8683 35.1198 3.97253
57.985 32.2694 3.97508
56.5401 29.3384 3.97496
55.4385 26.5963 3.97483
55.343 19.1829 3.97912
54.9261 24.0567 3.96965
55.0006 21.5596 3.97124
45.9623 5.8808 3.98947
43.3735 7.47115 3.98716
47.3549 8.62167 3.98634
48.6001 11.2898 3.98413
49.714 13.7376 3.98262
50.6335 16.1246 3.98029
53.125 18.6524 3.97786
51.3021 18.0409 3.98486
51.1689 65.1324 0.0126989
52.047 62.5452 0.0152841
58.304 46.853 0.0271109
52.8355 60.1431 0.0190222
55.4826 58.2568 0.0207719
53.6413 58.4792 0.0199273
57.5574 51.7898 0.0282669
56.2407 49.5568 0.0267045
55.4735 55.7948 0.027402
55.3555 53.383 0.0302267
50.3468 63.3875 2
51.2449 60.9441 2
54.2209 57.2749 2
52.3136 58.6432 2
56.7018 44.1874 2
55.488 47.8994 2
55.0637 51.3876 2
54.0041 54.5448 2
49.5926 61.7518 3.98413
55.6008 41.7094 3.9767
50.5677 59.3364 3.97924
52.1855 56.4966 3.97527
54.1627 45.5676 3.977
53.3241 49.3296 3.97385
52.6629 52.8438 3.96818
48.619 64.1286 0.0140649
47.9625 62.4824 2
47.33 61.017 3.98407
43.6322 67.473 0.0126469
45.1335 65.2034 0.0137564
46.3826 63.0607 0.0148057
41.6638 67.6924 2
43.3571 65.5136 2
45.9881 61.5949 2
44.7676 63.4624 2
45.767 60.6388 3.98349
44.4841 61.8439 3.98436
43.1471 63.7341 3.98545
41.5466 65.6506 3.9859
39.6328 67.7716 3.98698
37.5259 70.0522 3.98944
39.7026 70.0277 2
39.8179 72.405 3.99351
41.8611 69.8799 0.0103089
42.1113 72.2082 2
42.3947 74.6792 4
44.3768 71.8632 0.00623285
44.8159 74.2794 2
47.2057 73.7222 0
43.8516 5.35789 3.98963
46.5706 3.64633 3.99345
48.7848 4.32162 2
49.554 1.99015 4
50.9542 5.13084 0.00703929
51.8506 2.85453 2
54.0858 3.86728 0
60.2538 44.7744 0.0263779
61.2097 41.9609 0.0272149
62.1395 39.3563 0.0282214
63.952 37.4574 0.0294919
61.9728 37.4453 2
60.2274 39.8491 2
58.9805 42.9217 2
59.7253 37.5676 3.97253
57.9648 40.6594 3.97406
55.0647 39.7238 3.97637
62.1749 35.3595 0.0286821
60.2838 32.7448 0.0273476
58.6218 30.0741 0.0262522
56.6379 18.1487 0.0197534
56.3586 20.5162 0.0274674
56.1081 22.8683 0.0319563
57.2833 27.3791 0.026322
56.2893 25.0992 0.0268395
54.416 17.9133 0.0188666
52.3615 17.0277 0.0204886
51.378 14.4906 0.0181105
48.0565 6.52584 0.0108797
49.3246 9.32799 0.0142141
50.4334 11.9884 0.0163627
59.8675 35.1198 2
45.9623 5.88031 2
43.3735 7.47071 2
57.9868 32.2694 2
56.5398 29.3385 2
55.3433 19.1816 2
55.0015 21.5583 2
54.9265 24.0576 2
55.4366 26.597 2
47.3549 8.62105 2
48.5999 11.2893 2
53.1251 18.6513 2
51.302 18.0401 2
50.6334 16.1236 2
49.7138 13.7367 2
57.3629 34.7606 3.97576
55.7158 31.5187 3.97616
54.4778 28.4034 3.9767
53.7652 25.4963 3.97488
53.969 20.1319 3.97835
53.5774 22.7114 3.96757
41.3985 7.07654 3.98752
45.3596 7.99295 3.98663
42.8653 9.41311 3.98553
46.6664 10.6504 3.98453
47.7454 13.0978 3.98295
48.9311 15.3955 3.98138
50.0061 17.694 3.9798
51.65 19.3162 3.98742
50.3471 63.3869 0.0145198
51.245 60.9431 0.0174575
56.7027 44.1874 0.0236813
55.4886 47.8999 0.024996
52.3136 58.642 0.0209623
54.2207 57.2732 0.0209028
55.0628 51.3878 0.0293317
54.0033 54.543 0.0288993
49.5923 61.7524 2
55.6008 41.7093 2
50.5676 59.3375 2
52.1859 56.4979 2
54.1659 45.5671 2
53.3256 49.3285 2
52.6641 52.8437 2
48.8497 60.2097 3.9827
52.4866 42.6448 3.97707
49.7899 57.6342 3.97795
50.5903 54.4304 3.97294
51.7788 47.2708 3.97588
51.2018 50.9407 3.96946
48.1122 43.808 3.9928
47.9628 62.4818 0.0152399
47.3298 61.0175 2
46.6195 59.8039 3.98317
41.664 67.6918 0.0127933
43.3573 65.513 0.0138057
44.7679 63.4618 0.014298
45.9882 61.5941 0.0154998
39.6328 67.7722 2
41.5464 65.6511 2
45.7668 60.6396 2
43.1468 63.7346 2
44.484 61.8446 2
44.6242 60.3015 3.98356
42.9511 62.0923 3.98471
41.6005 63.8274 3.98538
39.6479 65.6187 3.9855
37.5632 67.7539 3.98695
31.6964 65.1374 3.98573
33.3917 67.4915 3.9869
35.333 69.9623 3.98942
37.5259 70.0528 2
37.5095 72.4595 3.99338
39.7026 70.0271 0.0104375
39.818 72.4054 2
39.9526 74.9197 4
42.1112 72.2079 0.00639335
42.3947 74.6792 2
44.8159 74.2794 0
41.7361 4.96716 3.98982
43.8516 5.35745 2
44.3258 3.1096 3.99356
46.5708 3.6461 2
47.2057 1.27793 4
48.7846 4.32184 0.00680299
49.554 1.99013 2
51.8506 2.85458 0
58.9806 42.9218 0.0260332
60.2274 39.8491 0.0265518
61.973 37.4453 0.0284335
59.7254 37.5676 2
57.9644 40.6592 2
55.0644 39.7237 2
56.7821 37.8971 3.9763
49.5217 41.3418 3.9878
53.0896 39.3067 3.9779
39.4419 6.80011 3.98756
59.8683 35.1198 0.0274703
57.985 32.2694 0.0249184
56.5401 29.3384 0.0250357
55.343 19.1829 0.020883
55.0006 21.5596 0.0287595
54.9261 24.0567 0.0303535
55.4385 26.5963 0.0251665
53.125 18.6524 0.0221414
51.3021 18.0409 0.0151425
50.6335 16.1246 0.0197064
45.9623 5.8808 0.0105277
49.714 13.7376 0.0173845
47.3549 8.62167 0.0136592
48.6001 11.2898 0.0158697
43.3735 7.47115 0.0128407
57.3621 34.7605 2
41.3986 7.07601 2
45.3596 7.99249 2
42.8653 9.41265 2
55.7142 31.519 2
54.4801 28.4041 2
53.9697 20.1306 2
53.5779 22.708 2
53.7646 25.497 2
46.6662 10.6498 2
47.745 13.0972 2
51.6503 19.3154 2
50.006 17.693 2
48.9309 15.3946 2
54.8493 33.9722 3.97689
53.465 30.4863 3.97554
52.5697 27.1987 3.97526
52.1372 24.0964 3.97245
52.3884 21.0519 3.98081
41.0133 9.04634 3.98541
44.7235 9.99335 3.98476
42.4682 10.8997 3.98412
46.005 12.726 3.98264
47.6814 14.5802 3.98233
48.1135 16.9845 3.97899
49.8174 19.6038 3.97612
49.5926 61.7518 0.0158715
50.5677 59.3364 0.0207618
55.6008 41.7094 0.0233005
54.1627 45.5676 0.0230011
53.3241 49.3296 0.0261504
52.1855 56.4966 0.0247332
52.6629 52.8438 0.031815
48.8495 60.2104 2
52.4873 42.6433 2
49.79 57.6354 2
50.591 54.4322 2
51.7781 47.2692 2
51.2037 50.9393 2
48.1132 43.8165 2
47.9877 58.7514 3.98108
50.05 45.2802 3.97616
48.5969 55.9249 3.97865
49.1214 52.5951 3.97245
49.6477 49.0471 3.97402
45.9252 39.8807 3.8984
46.3562 42.6928 3.94349
46.4523 45.8601 3.9952
43.7745 41.1792 3.88303
41.9933 42.0286 3.82834
47.33 61.017 0.01593
46.6191 59.8045 2
45.4693 58.8008 3.9837
39.6328 67.7716 0.013015
41.5466 65.6506 0.0140997
43.1471 63.7341 0.0145519
44.4841 61.8439 0.0156428
45.767 60.6388 0.0165065
41.6002 63.8279 2
37.5632 67.7546 2
39.6477 65.6193 2
44.6241 60.3023 2
42.951 62.0929 2
41.7541 62.503 3.98477
42.4819 59.9943 3.98523
39.8939 63.5625 3.98489
37.6422 65.5177 3.98506
35.4632 67.6632 3.9869
33.5749 65.3507 3.98532
31.9588 63.3107 3.98488
29.8824 64.7283 3.98598
31.6965 65.138 2
31.3761 67.2013 3.98702
33.3917 67.4921 2
33.1556 69.7556 3.98945
35.333 69.9629 2
35.1948 72.3739 3.99337
37.5259 70.0522 0.0105633
37.5095 72.4599 2
37.5 75 4
39.8179 72.405 0.00648773
39.9526 74.9197 2
42.3947 74.6792 0
39.6236 4.7143 3.98992
41.7362 4.96667 2
42.0621 2.71726 3.99363
43.8516 5.35789 0.0103671
44.326 3.10934 2
44.8158 0.721173 4
46.5706 3.64633 0.0065501
47.2057 1.27779 2
49.554 1.99015 0
57.9648 40.6594 0.0259379
59.7253 37.5676 0.0274709
55.0647 39.7238 0.0236327
49.5335 41.344 2
56.782 37.8969 2
53.0888 39.3067 2
53.9412 36.63 3.9777
47.4487 40.4234 3.9462
50.4625 38.5133 3.9862
37.5157 6.6711 3.98762
39.442 6.79959 2
39.2107 8.68897 3.98572
35.9411 8.48857 3.98596
57.3629 34.7606 0.0242445
55.7158 31.5187 0.0238446
54.4778 28.4034 0.0232983
53.969 20.1319 0.0216531
53.5774 22.7114 0.0324344
53.7652 25.4963 0.0251164
51.65 19.3162 0.0125805
50.0061 17.694 0.0202004
48.9311 15.3955 0.0186243
45.3596 7.99295 0.0133685
47.7454 13.0978 0.0170494
46.6664 10.6504 0.0154733
41.3985 7.07654 0.012482
42.8653 9.41311 0.0144749
54.8504 33.9723 2
41.0133 9.04587 2
44.7233 9.99298 2
42.4679 10.8993 2
53.4616 30.4866 2
52.574 27.1995 2
52.3893 21.0508 2
52.1381 24.0971 2
46.0047 12.7251 2
47.6811 14.5793 2
49.8176 19.6027 2
48.1133 16.9833 2
52.4064 32.8774 3.97928
51.2919 29.1582 3.97703
50.7763 25.726 3.9715
49.9379 22.1866 3.97778
40.5691 11.6037 3.98331
43.8578 11.9153 3.98365
45.8026 15.4169 3.98143
47.5038 19.2199 3.97701
46.2584 37.4995 3.904
48.8497 60.2097 0.017295
49.7899 57.6342 0.0220466
52.4866 42.6448 0.0229301
51.7788 47.2708 0.0241246
51.2018 50.9407 0.0305419
50.5903 54.4304 0.027057
48.1122 43.808 0.00720033
47.9875 58.7523 2
50.054 45.282 2
48.5971 55.9262 2
49.1225 52.5975 2
49.6495 49.046 2
45.945 39.8887 2
46.3711 42.7032 2
46.4522 45.8527 2
43.7923 41.1921 2
41.9995 42.0345 2
46.839 57.3545 3.98334
44.5201 39.4634 3.87479
42.3468 40.8931 3.85082
48.0486 47.2476 3.97619
47.1637 54.2546 3.9786
47.5731 50.7504 3.97184
44.7704 47.4389 3.99552
45.0232 41.9751 3.90233
44.8919 44.5968 3.94956
42.6167 42.7048 3.88282
40.8823 42.3767 3.85759
46.6195 59.8039 0.0168299
45.4688 58.8016 2
43.8773 57.7272 3.9845
37.5632 67.7539 0.0130457
39.6479 65.6187 0.0144956
41.6005 63.8274 0.0146188
42.9511 62.0923 0.0152897
44.6242 60.3015 0.016442
35.4632 67.6639 2
41.7539 62.5035 2
39.8937 63.563 2
37.6422 65.5183 2
42.4818 59.9951 2
40.6235 61.6618 3.98436
40.446 58.2287 3.986
37.837 63.2235 3.98425
35.5727 65.4398 3.98519
33.575 65.3513 2
31.9588 63.3113 2
33.6286 63.3505 3.98448
30.3776 62.8692 3.9851
32.1225 62.0178 3.98496
26.8673 61.5127 3.98458
28.0612 64.1564 3.98598
29.8825 64.729 2
29.4054 66.7649 3.98711
31.6964 65.1374 0.0142685
31.3762 67.2019 2
31.0127 69.4206 3.98951
33.3917 67.4915 0.0130982
33.1556 69.7562 2
32.8917 72.1481 3.99341
35.333 69.9623 0.0105753
35.1947 72.3743 2
35.0474 74.9194 4
37.5095 72.4595 0.00661809
37.5 75 2
39.9526 74.9197 0
35.6203 6.72207 3.98763
37.5227 4.61378 3.99007
39.6237 4.71384 2
39.7885 2.47368 3.99373
41.7361 4.96716 0.0101757
42.0622 2.71696 2
42.3946 0.32156 4
44.3258 3.1096 0.00643551
44.8159 0.72056 2
47.2057 1.27793 0
49.5217 41.3418 0.0122027
56.7821 37.8971 0.023698
53.0896 39.3067 0.0220957
47.4608 40.4325 2
50.4715 38.5127 2
53.9438 36.6306 2
51.2637 35.5844 3.97685
48.1039 37.7577 3.96411
45.9306 35.1428 3.90155
43.7834 33.8322 3.87937
42.0012 32.9874 3.82574
37.4574 8.53066 3.98565
37.5157 6.67043 2
39.4419 6.80011 0.0124375
39.2108 8.68844 2
38.9759 10.1219 3.98521
35.8978 9.76846 3.98464
34.1495 8.81796 3.9858
35.9412 8.4879 2
54.8493 33.9722 0.0231144
53.465 30.4863 0.0244637
52.5697 27.1987 0.0247399
52.3884 21.0519 0.019186
52.1372 24.0964 0.0275475
49.8174 19.6038 0.0238796
48.1135 16.9845 0.0210125
47.6814 14.5802 0.017666
44.7235 9.99335 0.0152433
46.005 12.726 0.0173556
41.0133 9.04634 0.0145948
42.4682 10.8997 0.0158829
52.4061 32.8773 2
40.5687 11.6034 2
43.8574 11.9149 2
51.3044 29.1584 2
50.7772 25.7277 2
49.9389 22.1855 2
45.8022 15.4158 2
47.504 19.2186 2
49.9382 31.4142 3.96948
49.2637 27.4774 3.97584
49.3965 24.3999 3.97852
47.1859 21.9426 3.97558
38.3013 12.7286 3.98372
42.1013 14.2997 3.98273
44.8007 18.4544 3.98012
44.8079 37.5087 3.87302
46.2828 37.5067 2
47.9877 58.7514 0.018924
48.5969 55.9249 0.0213541
50.05 45.2802 0.0238414
49.6477 49.0471 0.0259769
49.1214 52.5951 0.0275541
45.9252 39.8807 0.101597
46.3562 42.6928 0.0565097
46.4523 45.8601 0.00480469
43.7745 41.1792 0.116968
41.9933 42.0286 0.17166
46.8388 57.3557 2
44.5323 39.4713 2
42.3439 40.8936 2
48.0503 47.2489 2
47.1643 54.2571 2
47.5749 50.752 2
44.7744 47.415 2
45.0374 41.9855 2
44.9067 44.6105 2
42.64 42.7225 2
40.8812 42.3763 2
45.3979 55.9422 3.98575
42.6778 39.2778 3.86412
40.805 40.8182 3.91149
46.0701 48.9231 3.98584
45.5348 52.5468 3.98082
43.4314 48.4696 4.01224
43.3449 46.1606 3.95247
43.6329 43.7932 3.9004
41.1314 43.8796 3.87826
39.2971 42.7367 3.87237
45.4693 58.8008 0.0162964
43.8768 57.7277 2
42.1075 56.3557 3.98813
35.4632 67.6632 0.0130958
37.6422 65.5177 0.0149377
39.8939 63.5625 0.0151113
41.7541 62.503 0.0152297
42.4819 59.9943 0.0147744
35.5727 65.4406 2
40.6233 61.6624 2
37.8368 63.224 2
40.4457 58.2296 2
38.926 56.5269 3.99102
38.2505 60.3458 3.98478
35.6068 63.2171 3.98407
33.5749 65.3507 0.0146767
31.9588 63.3107 0.0151169
33.6285 63.351 2
30.3777 62.8697 2
32.1224 62.0183 2
28.68 62.2145 3.98514
33.3453 61.5308 3.98469
31.0655 61.2352 3.98514
27.5664 59.6111 3.983
23.7895 59.0956 3.98106
25.0328 60.885 3.98343
26.8674 61.5132 2
26.2277 63.4887 3.98578
28.0614 64.157 2
27.4618 66.1888 3.98724
29.8824 64.7283 0.0140223
29.4055 66.7656 2
28.9048 68.9461 3.98958
31.3761 67.2013 0.0129802
31.0127 69.4212 2
30.6141 71.7792 3.99348
33.1556 69.7556 0.0105494
32.8916 72.1485 2
32.6054 74.6784 4
35.1948 72.3739 0.00663187
35.0474 74.9197 2
37.5 75 0
33.7228 6.97655 3.98725
35.4341 4.68415 3.98996
35.6202 6.72146 2
37.5139 2.38632 3.99381
37.5228 4.61325 2
39.6236 4.7143 0.0100834
39.7886 2.47339 2
39.9526 0.0806499 4
42.0621 2.71726 0.00637245
42.3947 0.320817 2
44.8158 0.721173 0
44.5389 35.5491 3.87049
42.358 34.1165 3.8479
47.4487 40.4234 0.0537993
50.4625 38.5133 0.0138012
53.9412 36.63 0.0223023
48.1133 37.7621 2
51.2709 35.5834 2
45.9446 35.1287 2
43.8029 33.8182 2
42.0071 32.982 2
48.2861 34.2977 3.98381
45.0275 33.0402 3.89866
42.6238 32.3129 3.88109
40.8899 32.6383 3.85562
37.3099 10.6253 3.98426
37.4575 8.5298 2
37.5157 6.6711 0.0123752
39.2107 8.68897 0.014276
38.9759 10.1212 2
34.7528 10.374 3.98447
35.8978 9.76773 2
32.3761 9.36436 3.9853
34.1495 8.81719 2
35.9411 8.48857 0.0140398
52.4064 32.8774 0.0207221
51.2919 29.1582 0.0229667
50.7763 25.726 0.0285035
49.9379 22.1866 0.0222245
47.5038 19.2199 0.0229856
45.8026 15.4169 0.0185749
43.8578 11.9153 0.0163513
40.5691 11.6037 0.0166872
49.9412 31.4111 2
38.3009 12.7281 2
42.1007 14.2994 2
49.2642 27.479 2
49.3974 24.3989 2
47.187 21.9433 2
44.8008 18.4533 2
47.7626 29.5568 3.99038
47.0945 25.1341 3.98168
44.2897 21.3076 3.9774
36.5809 12.9248 3.98325
38.6808 14.7974 3.98302
41.7499 17.8279 3.98129
42.8247 37.4954 3.86365
44.8293 37.5063 2
46.2584 37.4995 0.0960047
46.839 57.3545 0.0166602
47.1637 54.2546 0.0213976
48.0486 47.2476 0.0238095
47.5731 50.7504 0.0281557
44.5201 39.4634 0.125212
45.0232 41.9751 0.0976668
44.8919 44.5968 0.0504362
44.7704 47.4389 0.00447997
42.6167 42.7048 0.117184
42.3468 40.8931 0.149177
40.8823 42.3767 0.142408
45.398 55.9437 2
42.6792 39.2773 2
40.8016 40.8146 2
46.0713 48.9244 2
45.5364 52.55 2
43.4344 48.4869 2
43.3675 46.1788 2
43.6493 43.8061 2
41.1492 43.8933 2
39.2933 42.7307 2
43.7357 54.4598 3.99521
40.9165 39.1812 3.93883
39.1896 40.9098 3.94189
43.6894 50.5212 3.99642
41.9453 47.7007 3.9817
41.8623 45.207 3.90185
39.39 44.6162 3.89223
37.4903 42.8657 3.88016
43.8773 57.7272 0.0154994
42.1068 56.3563 2
40.4194 54.9677 3.99055
35.5727 65.4398 0.0148141
37.837 63.2235 0.0157477
40.6235 61.6618 0.0156358
40.446 58.2287 0.0139981
35.6067 63.2177 2
38.2502 60.3462 2
38.9257 56.5287 2
37.9999 55.2859 3.98996
36.9346 57.6523 3.98648
35.3633 60.9301 3.98443
33.6286 63.3505 0.0155225
30.3776 62.8692 0.0149043
32.1225 62.0178 0.0150379
33.3452 61.5314 2
28.6801 62.2151 2
31.0655 61.2357 2
29.4016 60.305 3.98433
32.3553 59.7641 3.98556
28.0194 58.3908 3.98469
27.5665 59.6115 2
25.3764 58.6091 3.98044
22.7529 58.2526 3.97639
23.3985 60.3636 3.98118
23.7894 59.0966 2
25.0329 60.8857 2
24.4302 62.7808 3.98515
26.8673 61.5127 0.0154164
26.2279 63.4891 2
25.5457 65.4987 3.98731
28.0612 64.1564 0.0140195
27.4619 66.1893 2
26.8343 68.3344 3.98963
29.4054 66.7649 0.0128949
28.9048 68.9466 2
28.3691 71.2644 3.99354
31.0127 69.4206 0.0104877
30.6139 71.7795 2
30.1842 74.2788 4
32.8917 72.1481 0.00659386
32.6053 74.6792 2
35.0474 74.9194 0
31.7871 7.41624 3.98699
33.3459 4.92327 3.98986
33.7227 6.97591 2
35.2441 2.46248 3.99377
35.4341 4.68364 2
35.6203 6.72207 0.0123725
37.5 0 4
37.514 2.38599 2
37.5227 4.61378 0.00993168
39.7885 2.47368 0.00626748
39.9526 0.0802889 2
42.3946 0.32156 0
42.6915 35.7206 3.86332
44.5526 35.541 2
40.8158 34.1922 3.91032
42.3553 34.1176 2
48.1039 37.7577 0.0358882
51.2637 35.5844 0.0231465
45.9306 35.1428 0.0984541
43.7834 33.8322 0.120626
42.0012 32.9874 0.174261
48.2959 34.2886 2
45.0419 33.0293 2
42.6436 32.298 2
40.8877 32.6381 2
46.2815 31.5611 3.96477
43.6361 31.2301 3.89854
41.1449 31.1419 3.87992
39.3034 32.2743 3.87191
35.691 11.7695 3.9834
37.3099 10.6246 2
37.4574 8.53066 0.014346
38.9759 10.1219 0.0147874
33.0966 11.2103 3.98336
34.7529 10.3732 2
35.8978 9.76846 0.0153579
30.4807 10.0122 3.9848
32.3761 9.3636 2
34.1495 8.81796 0.0142015
49.9382 31.4142 0.0305166
49.2637 27.4774 0.0241593
49.3965 24.3999 0.021481
47.1859 21.9426 0.0244176
44.8007 18.4544 0.0198753
42.1013 14.2997 0.0172674
38.3013 12.7286 0.0162793
36.5805 12.9242 2
47.7637 29.5519 2
38.68 14.7972 2
41.7493 17.8271 2
47.0958 25.1348 2
44.2908 21.3055 2
45.5384 27.6497 3.99807
43.7986 24.0334 3.99718
41.3412 20.7034 3.98165
35.7707 14.7494 3.98299
38.6808 17.5828 3.98161
40.9657 37.4873 3.95017
42.8304 37.4972 2
44.8079 37.5087 0.12698
45.3979 55.9422 0.0142455
45.5348 52.5468 0.0191807
46.0701 48.9231 0.0141649
42.6778 39.2778 0.135875
43.6329 43.7932 0.0996007
43.3449 46.1606 0.0475261
43.4314 48.4696 -0.0122363
41.1314 43.8796 0.121736
40.805 40.8182 0.0885066
39.2971 42.7367 0.127631
43.7361 54.4616 2
40.913 39.1787 2
39.1861 40.9029 2
43.6914 50.5324 2
41.9498 47.7139 2
41.8854 45.2214 2
37.4915 42.8583 2
39.4101 44.6212 2
41.8799 53.0374 3.99558
39.2034 39.182 3.96972
37.4917 40.9603 3.9545
35.6903 42.7349 3.87294
40.9239 49.7556 4.00337
39.8026 46.1099 3.88486
37.4925 44.8577 3.89031
42.1075 56.3557 0.0118711
40.4187 54.9682 2
38.7294 53.9012 3.99333
35.6068 63.2171 0.0159322
38.2505 60.3458 0.015221
38.926 56.5269 0.00898034
35.363 60.9305 2
36.9342 57.6527 2
37.9993 55.2868 2
36.3189 55.4171 3.99267
34.4867 58.5432 3.98572
33.3453 61.5308 0.0153081
28.68 62.2145 0.014863
31.0655 61.2352 0.0148587
32.3552 59.7645 2
29.4017 60.3054 2
30.295 57.8375 3.98607
28.0194 58.3913 2
26.9408 56.8398 3.98021
27.5664 59.6111 0.0170005
25.3763 58.6098 2
23.8344 56.8153 3.97486
21.3292 57.4106 3.97626
21.9909 59.6344 3.98055
22.7528 58.2537 2
22.734 62.0317 3.98366
23.3986 60.3645 2
23.7895 59.0956 0.0189399
25.0328 60.885 0.0165749
24.4304 62.7815 2
23.6796 64.7169 3.98694
26.2277 63.4887 0.0142181
25.5459 65.4992 2
24.8065 67.5954 3.9896
27.4618 66.1888 0.0127594
26.8343 68.3349 2
26.1643 70.6051 3.99359
28.9048 68.9461 0.01042
28.3689 71.2646 2
27.7943 73.7221 4
30.6141 71.7792 0.00652046
30.1841 74.2794 2
32.6054 74.6784 0
29.8095 7.98933 3.98654
31.251 5.33042 3.98956
31.787 7.41553 2
32.9798 2.70061 3.99369
33.3459 4.92271 2
33.7228 6.97655 0.0127487
35.0474 0.080333 4
35.2441 2.46216 2
35.4341 4.68415 0.010035
37.5 0 2
37.5139 2.38632 0.00619022
39.9526 0.0806499 0
40.9241 35.8052 3.9398
42.693 35.7233 2
44.5389 35.5491 0.129513
28.5414 10.6872 3.98487
39.1964 34.1003 3.94177
40.8115 34.1963 2
42.358 34.1165 0.152098
48.2861 34.2977 0.0161896
45.0275 33.0402 0.101345
42.6238 32.3129 0.118915
40.8899 32.6383 0.144381
46.2953 31.5533 2
43.6464 31.2178 2
41.1624 31.1273 2
39.3 32.2786 2
44.3927 29.7425 3.95012
41.8783 29.8128 3.90482
39.4062 30.3922 3.89265
37.4965 32.1429 3.88086
34.0908 12.9272 3.98277
35.6909 11.7687 2
37.3099 10.6253 0.0157429
31.1844 11.9781 3.98391
33.0966 11.2095 2
34.7528 10.374 0.0155327
30.4806 10.0113 2
32.3761 9.36436 0.0147006
47.7626 29.5568 0.00962146
47.0945 25.1341 0.0183155
36.5809 12.9248 0.0167548
44.2897 21.3076 0.0225967
41.7499 17.8279 0.01871
38.6808 14.7974 0.0169786
35.77 14.7489 2
45.5386 27.6478 2
38.6799 17.5822 2
41.3414 20.701 2
43.8003 24.035 2
33.6057 15.865 3.9828
43.0517 26.4708 3.99907
40.9171 23.27 3.99661
38.4209 20.3103 3.98306
35.8468 17.4955 3.9841
39.2175 37.4867 3.97697
40.9592 37.4872 2
42.8247 37.4954 0.136349
43.7357 54.4598 0.00478867
43.6894 50.5212 0.00357674
40.9165 39.1812 0.0611749
41.8623 45.207 0.0981491
41.9453 47.7007 0.0182998
39.39 44.6162 0.107775
39.1896 40.9098 0.0581131
37.4903 42.8657 0.119836
41.8815 53.0397 2
39.2001 39.1809 2
37.4916 40.9543 2
40.9279 49.76 2
35.6931 42.7308 2
39.8255 46.1283 2
37.4911 44.8558 2
39.8208 51.9547 3.99597
37.4902 39.1957 3.98206
35.7939 40.9174 3.9411
34.1022 42.3724 3.8572
35.5758 44.617 3.88972
38.7148 48.766 3.99249
37.4867 46.4398 3.88701
40.4194 54.9677 0.00945121
38.7289 53.901 2
36.7201 53.2575 4.00599
35.3633 60.9301 0.0155676
36.9346 57.6523 0.0135167
37.9999 55.2859 0.0100442
34.4865 58.5435 2
36.3184 55.4173 2
33.2236 55.5299 3.98836
32.3553 59.7641 0.0144352
29.4016 60.305 0.0156715
30.295 57.838 2
28.6847 55.33 3.97964
28.0194 58.3908 0.0153062
26.9404 56.8403 2
25.3042 55.1534 3.97578
21.8024 55.3567 3.97184
25.3764 58.6091 0.019557
23.8341 56.8167 2
20.2135 57.0385 3.97912
20.6416 58.7915 3.97887
21.3289 57.4117 2
21.1643 61.1804 3.98229
21.9909 59.6355 2
22.7529 58.2526 0.0236122
21.893 63.8447 3.98623
22.7342 62.0326 2
23.3985 60.3636 0.0188218
24.4302 62.7808 0.0148538
23.6799 64.7175 2
22.8347 66.739 3.98956
25.5457 65.4987 0.0126928
24.8066 67.5959 2
24.0084 69.8062 3.99356
26.8343 68.3344 0.0103708
26.164 70.6053 2
25.446 73.0099 4
28.3691 71.2644 0.00646015
27.7943 73.7222 2
30.1842 74.2788 0
27.8193 8.64882 3.98632
29.1529 5.87612 3.98924
29.8094 7.98856 2
30.7249 3.09779 3.99351
31.2509 5.32981 2
31.7871 7.41624 0.0130074
32.6053 0.320823 4
32.9797 2.70028 2
33.3459 4.92327 0.0101355
35.0474 0.0802903 2
35.2441 2.46248 0.00622686
37.5 0 0
39.2159 35.8038 3.96922
40.9204 35.8078 2
42.6915 35.7206 0.136678
28.5414 10.6864 2
26.6202 11.3819 3.98492
29.2232 12.6341 3.98438
37.4962 34.0478 3.95481
39.1926 34.1065 2
40.8158 34.1922 0.089681
46.2815 31.5611 0.0352274
43.6361 31.2301 0.101458
41.1449 31.1419 0.120084
39.3034 32.2743 0.128092
44.4093 29.7293 2
41.8997 29.7961 2
39.422 30.3834 2
37.4969 32.1505 2
42.3552 28.3794 3.93757
39.8493 28.8983 3.89938
37.5077 30.1398 3.88925
35.6931 32.266 3.87168
31.912 14.4712 3.98347
34.0907 12.9264 2
35.691 11.7695 0.0166042
31.1844 11.9773 2
33.0966 11.2103 0.0166376
30.4807 10.0122 0.0151972
45.5384 27.6497 0.00192562
43.7986 24.0334 0.00282103
35.7707 14.7494 0.017011
41.3412 20.7034 0.018355
38.6808 17.5828 0.0183866
33.6051 15.8647 2
35.8458 17.4953 2
43.0542 26.4742 2
38.4203 20.3095 2
40.9172 23.2645 2
33.5478 17.3726 3.98451
40.4267 25.6114 4.0091
38.0763 22.8374 3.99335
35.5823 20.0591 3.98718
37.4961 37.495 3.98681
39.2127 37.4866 2
40.9657 37.4873 0.0498279
41.8799 53.0374 0.00442445
40.9239 49.7556 -0.00336507
39.2034 39.182 0.0302833
39.8026 46.1099 0.115138
37.4925 44.8577 0.109694
37.4917 40.9603 0.0454967
35.6903 42.7349 0.127063
39.8242 51.9572 2
37.4915 39.1944 2
35.7977 40.9116 2
38.7145 48.795 2
34.1039 42.3714 2
35.5647 44.6303 2
37.4856 46.4597 2
37.6602 51.055 4.01044
35.7825 39.1966 3.97028
34.1824 40.8235 3.91125
32.9872 42.0237 3.82712
33.8367 43.8722 3.87701
35.155 46.1024 3.89536
36.8485 48.4153 3.97559
38.7294 53.9012 0.00666867
36.7203 53.2576 2
34.36 52.5089 3.99271
34.4867 58.5432 0.0142785
36.3189 55.4171 0.0073273
33.2233 55.5298 2
30.5135 53.4113 3.98244
30.295 57.8375 0.0139292
28.6843 55.3312 2
26.8742 53.4436 3.97507
26.9408 56.8398 0.0197936
25.3039 55.1556 2
23.5651 53.488 3.97041
20.4592 53.2268 3.96667
19.9259 55.8403 3.97539
21.8018 55.3579 2
23.8344 56.8153 0.0251408
19.434 57.9007 3.97811
20.213 57.0393 2
19.7037 60.2131 3.98114
20.6414 58.7926 2
21.3292 57.4106 0.0237388
20.2055 62.8654 3.98461
21.1643 61.1814 2
21.9909 59.6344 0.0194521
20.9362 65.768 3.98935
21.8932 63.8455 2
22.734 62.0317 0.016344
23.6796 64.7169 0.0130624
22.8348 66.7395 2
21.9109 68.8732 3.9935
24.8065 67.5954 0.0103964
24.0082 69.8063 2
23.1494 72.1454 4
26.1643 70.6051 0.00640624
25.446 73.0099 2
27.7943 73.7221 0
25.8583 9.37667 3.98616
27.0676 6.54015 3.98891
27.8191 8.64798 2
28.4871 3.64372 3.99334
29.1527 5.87548 2
29.8095 7.98933 0.013462
30.1841 0.720592 4
30.7248 3.09747 2
31.251 5.33042 0.0104355
32.6053 0.320817 2
32.9798 2.70061 0.00630746
35.0474 0.080333 0
37.4991 35.8002 3.98261
39.2102 35.8047 2
40.9241 35.8052 0.0601997
24.775 12.0646 3.98503
23.7493 14.3487 3.98414
28.5414 10.6872 0.0151331
26.6203 11.3813 2
29.2231 12.6332 2
27.2893 13.3664 3.98439
29.7778 14.1928 3.98373
35.8017 34.0887 3.94195
37.4963 34.0537 2
39.1964 34.1003 0.0582285
37.4965 32.1429 0.119136
44.3927 29.7425 0.0498785
41.8783 29.8128 0.095178
39.4062 30.3922 0.107349
42.3733 28.3633 2
39.8649 28.8775 2
37.5089 30.1404 2
35.6974 32.2708 2
40.0436 27.5233 3.93681
37.5198 28.5638 3.89621
35.595 30.3875 3.89289
34.1109 32.6237 3.85559
30.9233 16.8263 3.98386
31.9118 14.4705 2
34.0908 12.9272 0.0172258
31.1844 11.9781 0.0160866
43.0517 26.4708 0.000933435
40.9171 23.27 0.00338616
33.6057 15.865 0.0171975
35.8468 17.4955 0.015899
38.4209 20.3103 0.0169353
33.5469 17.3727 2
35.5819 20.0582 2
40.4276 25.6066 2
38.0765 22.8369 2
32.8605 19.7767 3.98548
37.7998 25.147 4.01911
35.2008 22.6109 3.99277
35.778 37.4999 3.97808
37.4959 37.4945 2
39.2175 37.4867 0.0230278
39.8208 51.9547 0.00403366
38.7148 48.766 0.00751274
37.4902 39.1957 0.0179367
37.4867 46.4398 0.112993
35.5758 44.617 0.110285
35.7939 40.9174 0.058899
34.1022 42.3724 0.142805
37.6644 51.0651 2
35.7888 39.1949 2
34.186 40.8194 2
36.8489 48.431 2
32.9812 42.0275 2
33.825 43.8817 2
35.1357 46.1165 2
35.4568 50.1869 4.01273
34.0785 39.193 3.93987
32.6294 40.8927 3.84916
32.3592 42.6962 3.88221
33.1243 45.1967 3.90334
34.2641 47.4751 3.94684
36.7201 53.2575 -0.00599456
34.3604 52.5108 2
31.9937 51.2196 3.9965
33.2236 55.5299 0.0116383
30.513 53.4139 2
28.4191 51.6193 3.97859
28.6847 55.33 0.0203597
26.8736 53.4449 2
25.0687 51.7588 3.96762
25.3042 55.1534 0.0242166
23.5645 53.489 2
21.9554 51.8083 3.96601
19.1923 51.6383 3.96888
18.9144 54.3142 3.96928
20.4585 53.2265 2
18.4419 56.7317 3.97784
19.9252 55.8411 2
21.8024 55.3567 0.0281648
18.3658 59.1187 3.97798
19.4337 57.9016 2
20.2135 57.0385 0.020882
18.6166 61.772 3.98287
19.7037 60.2142 2
20.6416 58.7915 0.0211312
19.1252 64.6786 3.98842
20.2057 62.8664 2
21.1643 61.1804 0.0177092
19.8849 67.8098 3.99334
20.9363 65.7686 2
21.893 63.8447 0.0137714
22.8347 66.739 0.0104384
21.9106 68.8734 2
20.9142 71.1327 4
24.0084 69.8062 0.00643894
23.1494 72.1455 2
25.446 73.0099 0
23.0943 12.779 3.98463
23.9708 10.163 3.98608
25.0213 7.3102 3.98873
25.8583 9.376 2
26.2788 4.32793 3.99317
27.0674 6.53944 2
27.8193 8.64882 0.013684
27.7943 1.27781 4
28.4869 3.64342 2
29.1529 5.87612 0.0107578
30.1841 0.720551 2
30.7249 3.09779 0.00649114
32.6053 0.320823 0
35.7857 35.8056 3.97091
37.4985 35.8008 2
39.2159 35.8038 0.0307798
24.7752 12.0641 2
23.7496 14.3484 2
22.478 15.0252 3.9836
25.3554 13.8981 3.98397
24.0224 15.6105 3.98302
26.6202 11.3819 0.0150834
29.2232 12.6341 0.0156154
27.2894 13.366 2
29.7778 14.192 2
28.3537 15.9661 3.98406
34.1945 34.1811 3.91022
35.805 34.0947 2
37.4962 34.0478 0.0451861
35.6931 32.266 0.128317
37.5077 30.1398 0.110753
42.3552 28.3794 0.0624319
39.8493 28.8983 0.100616
40.0552 27.5093 2
37.5222 28.5429 2
35.58 30.3771 2
34.1135 32.6233 2
37.6191 27.2003 3.94491
35.1769 28.8824 3.89771
33.8465 31.1286 3.87936
33.0037 32.9736 3.82714
30.2048 19.3276 3.98645
30.9229 16.8259 2
31.912 14.4712 0.0165263
40.4267 25.6114 -0.00909507
38.0763 22.8374 0.00665327
33.5478 17.3726 0.0154907
35.5823 20.0591 0.0128227
32.8594 19.7772 2
35.1982 22.6063 2
37.7893 25.148 2
32.3077 22.388 3.98995
34.9746 25.1365 4.00845
34.0311 37.5 3.94931
35.7827 37.4993 2
37.4961 37.495 0.0131933
37.6602 51.055 -0.0104379
36.8485 48.4153 0.0244087
35.7825 39.1966 0.0297174
35.155 46.1024 0.104638
33.8367 43.8722 0.122994
34.1824 40.8235 0.0887484
32.9872 42.0237 0.172878
35.4548 50.1966 2
34.086 39.1904 2
32.6309 40.8912 2
34.2589 47.5075 2
32.3411 42.7091 2
33.1042 45.2153 2
33.2308 49.1782 4.00701
32.2994 39.2831 3.86475
31.198 41.1736 3.88092
31.3539 43.7839 3.89947
32.2374 46.3942 3.94599
34.36 52.5089 0.00729325
31.993 51.2254 2
29.8436 49.7328 3.98749
30.5135 53.4113 0.0175597
28.418 51.6172 2
26.4953 50 3.97122
26.8742 53.4436 0.0249295
25.0679 51.7576 2
23.3305 50.2041 3.97452
23.5651 53.488 0.0295895
21.955 51.8077 2
20.4553 50.3218 3.97137
17.9801 50.3346 3.9717
17.827 52.7951 3.96793
19.1919 51.6382 2
17.4311 55.3465 3.97325
18.9138 54.3147 2
20.4592 53.2268 0.03333
17.1311 57.8801 3.97841
18.4415 56.7326 2
19.9259 55.8403 0.0246074
17.1342 60.5543 3.98049
18.3657 59.1198 2
19.434 57.9007 0.0218886
17.4059 63.4707 3.9866
18.6167 61.7731 2
19.7037 60.2131 0.0188627
17.9411 66.6182 3.99307
19.1253 64.6794 2
20.2055 62.8654 0.0153931
18.75 69.9759 4
19.8846 67.8099 2
20.9362 65.768 0.0106495
21.9109 68.8732 0.00649983
20.9142 71.1327 2
23.1494 72.1454 0
21.5852 13.5992 3.98411
22.1888 11.0221 3.98575
23.0947 12.7789 2
23.0392 8.17548 3.98862
23.9708 10.1627 2
24.1164 5.14264 3.99301
25.0211 7.30968 2
25.8583 9.37667 0.0138428
25.446 1.99014 4
26.2785 4.32768 2
27.0676 6.54015 0.0110918
27.7943 1.27778 2
28.4871 3.64372 0.00666271
30.1841 0.720592 0
34.0773 35.8082 3.93846
35.7897 35.8062 2
37.4991 35.8002 0.0173873
21.3031 15.8208 3.98285
24.775 12.0646 0.0149683
23.7493 14.3487 0.0158591
25.3556 13.8978 2
22.4784 15.0251 2
24.0228 15.6104 2
23.2615 16.2421 3.9828
25.3776 16.0785 3.98391
27.2893 13.3664 0.0156145
29.7778 14.1928 0.0162705
28.3539 15.9658 2
27.4366 18.7873 3.98512
32.6528 34.1061 3.84937
34.1995 34.1842 2
35.8017 34.0887 0.0580484
34.1109 32.6237 0.144406
35.595 30.3875 0.10711
37.5198 28.5638 0.103795
40.0436 27.5233 0.0631871
37.6188 27.1691 2
32.997 32.9705 2
35.1614 28.8638 2
33.8298 31.11 2
35.0666 27.3267 3.9508
33.132 29.8061 3.89739
32.3671 32.2939 3.87839
29.5713 21.9203 3.99477
30.2044 19.3283 2
30.9233 16.8263 0.0161418
37.7998 25.147 -0.0191129
35.2008 22.6109 0.00723048
32.8605 19.7767 0.0145197
32.3052 22.389 2
34.983 25.1374 2
31.6837 25.6019 4.00094
32.1636 37.5029 3.86483
34.0388 37.4999 2
35.778 37.4999 0.0219213
35.4568 50.1869 -0.0127343
34.2641 47.4751 0.0531621
34.0785 39.193 0.0601291
33.1243 45.1967 0.0966564
32.3592 42.6962 0.117786
32.6294 40.8927 0.150844
33.2277 49.1669 2
32.2986 39.2801 2
31.1788 41.1832 2
32.2139 46.4136 2
31.34 43.7957 2
31.1307 48.0019 3.99651
30.4478 39.4568 3.87166
29.957 41.9698 3.89622
30.4089 44.9747 3.94877
31.9937 51.2196 0.00350355
29.8424 49.7302 2
27.8573 48.1975 3.97446
28.4191 51.6193 0.0214061
26.4946 49.9983 2
24.636 48.4846 3.97808
25.0687 51.7588 0.0323764
23.3302 50.2032 2
21.6476 48.8016 3.97172
21.9554 51.8083 0.0339885
20.4549 50.3214 2
19.0231 49.1001 3.97356
16.8866 49.3359 3.97322
16.7677 51.4095 3.97005
17.9802 50.3344 2
16.3844 53.8738 3.97033
17.8265 52.7955 2
19.1923 51.6383 0.0311171
15.9724 56.4808 3.97623
17.4305 55.3474 2
18.9144 54.3142 0.0307177
15.7474 59.2146 3.97973
17.1309 57.8812 2
18.4419 56.7317 0.0221559
15.7866 62.1406 3.98405
17.1342 60.5555 2
18.3658 59.1187 0.0220189
16.0878 65.3006 3.99237
17.4059 63.4716 2
18.6166 61.772 0.0171252
16.6661 68.6801 4
17.9407 66.6183 2
19.1252 64.6786 0.0115755
18.75 69.9759 2
19.8849 67.8098 0.00665949
20.9142 71.1327 0
20.2172 14.588 3.98333
21.5855 13.5991 2
20.5281 11.9919 3.98514
21.1421 9.14516 3.98861
22.189 11.0218 2
23.0943 12.779 0.0153748
22.0154 6.08159 3.99295
23.0391 8.17512 2
23.9708 10.163 0.0139231
23.1494 2.85457 4
24.116 5.14251 2
25.0213 7.3102 0.0112706
25.446 1.99012 2
26.2788 4.32793 0.00683337
27.7943 1.27781 0
32.3111 35.7175 3.86388
34.0828 35.8105 2
35.7857 35.8056 0.0290874
21.3033 15.8204 2
20.3005 16.9553 3.9827
22.0947 16.6264 3.98131
25.3554 13.8981 0.0160344
22.478 15.0252 0.0164039
24.0224 15.6105 0.0169804
25.378 16.0783 2
23.2619 16.2421 2
24.201 18.4414 3.98093
27.0088 21.445 3.98743
28.3537 15.9661 0.0159414
27.4366 18.7872 2
31.2252 33.8266 3.88123
32.6531 34.1091 2
34.1945 34.1811 0.0897793
33.0037 32.9736 0.172856
33.8465 31.1286 0.12064
35.1769 28.8824 0.102294
37.6191 27.2003 0.0550929
35.0498 27.3037 2
32.356 32.2896 2
33.1135 29.7817 2
32.535 28.0613 3.96946
31.3491 31.2204 3.89979
28.7928 24.3867 3.98617
29.5688 21.9223 2
30.2048 19.3276 0.0135514
34.9746 25.1365 -0.00844922
32.3077 22.388 0.0100472
31.6892 25.5892 2
29.6374 27.2953 3.96901
30.1714 37.4939 3.87365
32.1642 37.5015 2
34.0311 37.5 0.0506895
33.2308 49.1782 -0.00700503
32.2374 46.3942 0.0540121
32.2994 39.2831 0.135248
31.3539 43.7839 0.100534
31.198 41.1736 0.119078
31.1304 48.0017 2
30.4332 39.4668 2
29.9431 41.9823 2
30.3872 44.9882 2
29.1657 46.5942 3.99963
29.0512 39.8584 3.89841
28.6795 43.185 3.95511
29.8436 49.7328 0.0125114
27.8568 48.1926 2
25.9337 46.6779 3.97695
26.4953 50 0.0287807
24.6357 48.483 2
22.801 47.0932 3.97731
23.3305 50.2041 0.0254751
21.6472 48.801 2
19.9699 47.6284 3.97673
20.4553 50.3218 0.0286309
19.0239 49.0996 2
17.6628 48.1842 3.97462
16.1372 48.6867 3.97428
16.8868 49.3358 2
15.8454 50.1726 3.97273
15.3747 52.4174 3.97072
16.7676 51.4095 2
17.9801 50.3346 0.0283027
14.8652 54.9801 3.97317
16.3839 53.8744 2
17.827 52.7951 0.0320703
14.4565 57.743 3.97852
15.972 56.4818 2
17.4311 55.3465 0.0267461
14.2648 60.6944 3.98265
15.7473 59.2158 2
17.1311 57.8801 0.0215855
14.3323 63.8598 3.99128
15.7865 62.1415 2
17.1342 60.5543 0.0195073
14.6715 67.2507 4
16.0874 65.3005 2
17.4059 63.4707 0.0133998
16.6661 68.6801 2
17.9411 66.6182 0.0069294
18.75 69.9759 0
18.9313 15.7756 3.98229
20.2175 14.5877 2
18.9778 13.1027 3.98429
21.5852 13.5992 0.015888
20.5284 11.9917 2
19.3415 10.2329 3.98837
19.9899 7.14624 3.99294
21.1421 9.14481 2
22.1888 11.0221 0.0142505
20.9142 3.86727 4
22.0149 6.08161 2
23.0392 8.17548 0.0113811
23.1494 2.85451 2
24.1164 5.14264 0.00699395
25.446 1.99014 0
30.4704 35.5483 3.87593
32.312 35.7198 2
34.0773 35.8082 0.06154
21.3031 15.8208 0.0171496
22.095 16.626 2
20.3007 16.9546 2
19.24 18.4027 3.98099
21.7791 17.843 3.98176
25.3776 16.0785 0.0160929
23.2615 16.2421 0.0171961
24.2012 18.4415 2
22.2741 19.8857 3.97777
24.5864 21.3138 3.98237
26.4112 23.7096 3.97853
27.0081 21.4454 2
27.4366 18.7873 0.0148834
29.9747 33.0274 3.89675
31.2009 33.8052 2
32.6528 34.1061 0.150626
32.3671 32.2939 0.121606
33.132 29.8061 0.10261
35.0666 27.3267 0.0491995
32.5268 28.053 2
31.3509 31.2145 2
30.1098 29.5244 3.96337
27.8761 26.5285 3.97276
28.7943 24.3936 2
29.5713 21.9203 0.00522852
31.6837 25.6019 -0.000939954
29.6333 27.2571 2
28.718 37.5083 3.90385
30.1627 37.4957 2
32.1636 37.5029 0.135168
31.1307 48.0019 0.00349494
30.4089 44.9747 0.0512297
30.4478 39.4568 0.12834
29.957 41.9698 0.103781
29.1658 46.6087 2
29.0347 39.8695 2
28.663 43.1966 2
27.2686 44.8688 3.98809
26.8213 40.6041 3.97415
27.8573 48.1975 0.025539
25.9323 46.6799 2
24.0009 45.2303 3.97856
24.636 48.4846 0.0219154
22.801 47.0924 2
20.9287 45.9071 3.97876
21.6476 48.8016 0.0282767
19.9717 47.6279 2
18.3118 46.7438 3.97659
19.0231 49.1001 0.0264417
17.6626 48.184 2
16.3271 47.717 3.97424
16.1374 48.6867 2
15.192 49.0177 3.97348
16.8866 49.3359 0.0267814
15.8456 50.1725 2
14.4889 50.986 3.97179
13.8282 53.4353 3.97219
15.3746 52.4177 2
16.7677 51.4095 0.0299514
13.2522 56.1696 3.97617
14.8648 54.981 2
16.3844 53.8738 0.0296656
12.8472 59.1278 3.98205
14.4563 57.7441 2
15.9724 56.4808 0.0237725
12.6779 62.3021 3.98948
14.2647 60.6953 2
15.7474 59.2146 0.0202667
12.7746 65.6939 4
14.3317 63.8595 2
15.7866 62.1406 0.0159524
14.6714 67.2507 2
16.0878 65.3006 0.007625
16.6661 68.6801 0
17.6655 17.1516 3.98094
18.9313 15.7751 2
17.5096 14.3676 3.98304
20.2172 14.588 0.0166671
18.9781 13.1022 2
17.6372 11.4518 3.98756
20.5281 11.9919 0.0148647
19.3417 10.2326 2
18.0501 8.33911 3.99285
18.75 5.0241 4
19.9895 7.14638 2
21.1421 9.14516 0.0113942
20.9142 3.86727 2
22.0154 6.08159 0.00705432
23.1494 2.85457 0
29.0659 35.1192 3.89838
30.4526 35.5378 2
32.3111 35.7175 0.136117
22.0947 16.6264 0.0186944
20.3005 16.9553 0.0172955
21.7792 17.8424 2
19.2401 18.402 2
17.9768 19.9361 3.97826
20.8725 19.3721 3.98023
24.201 18.4414 0.019072
22.2743 19.8852 2
24.5863 21.3147 2
22.3525 21.7124 3.9801
24.6894 23.1595 3.97609
25.458 25.9375 3.96555
26.4135 23.7098 2
27.0088 21.445 0.0125707
28.3478 32.3081 3.94563
29.9596 33.0216 2
31.2252 33.8266 0.118768
31.3491 31.2204 0.100215
32.535 28.0613 0.0305365
30.0893 29.5103 2
27.0227 29.1217 3.99621
27.8725 26.5261 2
28.7928 24.3867 0.0138261
29.6374 27.2953 0.0309873
26.9466 37.3668 3.95972
28.6986 37.5018 2
30.1714 37.4939 0.126348
29.1657 46.5942 0.000374419
28.6795 43.185 0.0448879
29.0512 39.8584 0.101591
27.2691 44.8771 2
26.8102 40.6173 2
25.2755 43.1839 3.9704
24.0684 39.4275 3.97854
25.9337 46.6779 0.0230535
23.9946 45.2306 2
21.9031 43.9621 3.97837
22.801 47.0932 0.0226942
20.9317 45.9065 2
18.972 44.9762 3.97756
19.9699 47.6284 0.0232722
18.3118 46.7437 2
16.6163 46.216 3.97427
17.6628 48.1842 0.0253844
16.3272 47.717 2
14.9209 47.6725 3.97288
16.1372 48.6867 0.0257177
15.1921 49.0177 2
13.7871 49.5471 3.97229
15.8454 50.1726 0.0272749
14.489 50.9861 2
12.8957 51.8742 3.97229
12.1407 54.5272 3.97471
13.8281 53.4358 2
15.3747 52.4174 0.0292781
11.5321 57.4593 3.98042
13.2519 56.1706 2
14.8652 54.9801 0.026827
11.1325 60.628 3.98807
12.847 59.1286 2
14.4565 57.743 0.0214759
10.9835 64.0165 4
12.6773 62.3016 2
14.2648 60.6944 0.0173528
12.7745 65.694 2
14.3323 63.8598 0.00872473
14.6715 67.2507 0
16.3982 18.6465 3.97947
17.6655 17.1509 2
16.1006 15.777 3.98242
18.9313 15.7756 0.0177085
17.5098 14.3668 2
16.0191 12.8055 3.98555
18.9778 13.1027 0.0157102
17.6375 11.4512 2
16.2012 9.66221 3.99267
19.3415 10.2329 0.0116258
18.0497 8.33935 2
16.6661 6.31991 4
18.75 5.02404 2
19.9899 7.14624 0.00706246
20.9142 3.86727 0
27.458 34.7636 3.94467
29.0451 35.1093 2
30.4704 35.5483 0.124074
16.6788 21.3743 3.97396
21.7791 17.843 0.0182378
19.24 18.4027 0.0190113
20.8726 19.3714 2
17.977 19.9353 2
19.72 21.5681 3.98048
22.2741 19.8857 0.0222348
24.5864 21.3138 0.0176287
22.3528 21.7118 2
24.6903 23.1597 2
22.8408 24.5966 3.971
24.5646 28.5205 3.9689
25.4549 25.9363 2
26.4112 23.7096 0.0214669
26.1889 31.6934 3.99132
28.3319 32.2956 2
29.9747 33.0274 0.103249
30.1098 29.5244 0.0366304
27.0303 29.1216 2
27.8761 26.5285 0.0272435
24.7684 36.8553 3.98438
26.9323 37.3675 2
28.718 37.5083 0.0961519
27.2686 44.8688 0.0119061
26.8213 40.6041 0.0258506
25.2694 43.188 2
24.0595 39.4279 2
22.9784 41.8045 3.97988
21.7848 38.5014 3.97593
24.0009 45.2303 0.0214363
21.9039 43.9618 2
19.7385 42.8925 3.97775
20.9287 45.9071 0.0212438
18.9712 44.9761 2
16.9492 44.3828 3.9741
18.3118 46.7438 0.0234145
16.6162 46.216 2
14.8396 46.0927 3.97227
16.3271 47.717 0.0257648
14.921 47.6726 2
13.2937 48.0098 3.97203
15.192 49.0177 0.0265246
13.7873 49.5472 2
12.1152 50.2527 3.97224
14.4889 50.986 0.0282107
12.8958 51.8744 2
11.1369 52.836 3.97413
10.3232 55.7107 3.97885
12.1406 54.5279 2
13.8282 53.4353 0.0278132
9.69925 58.8501 3.98659
11.5318 57.4602 2
13.2522 56.1696 0.023828
9.30605 62.2254 4
11.1317 60.6273 2
12.8472 59.1278 0.0179545
10.9835 64.0165 2
12.6779 62.3021 0.0105228
12.7746 65.6939 0
15.1445 20.1827 3.97568
16.3983 18.6457 2
14.7463 17.3003 3.98055
17.6655 17.1516 0.0190645
16.1007 15.776 2
14.4818 14.2878 3.98411
17.5096 14.3676 0.0169606
16.0193 12.8048 2
14.4441 11.1134 3.99205
17.6372 11.4518 0.0124439
16.2009 9.66245 2
14.6715 7.74927 4
18.0501 8.33911 0.00714619
16.6661 6.31988 2
18.75 5.0241 0
25.4094 34.2592 3.98779
27.4428 34.7592 2
29.0659 35.1192 0.101622
17.8531 22.3201 3.98239
15.5262 22.919 3.97068
16.6791 21.3735 2
20.8725 19.3721 0.0197746
17.9768 19.9361 0.0217371
19.7202 21.5673 2
19.6615 24.3778 3.97025
22.3525 21.7124 0.0198976
24.6894 23.1595 0.02391
22.8402 24.5955 2
21.9316 27.8168 3.97063
23.7578 31.1806 3.97384
24.5694 28.5202 2
25.458 25.9375 0.0344517
26.1865 31.6864 2
28.3478 32.3081 0.0543702
27.0227 29.1217 0.00378719
22.5193 36.2729 3.97746
24.7553 36.8546 2
26.9466 37.3668 0.0402751
25.2755 43.1839 0.0295956
24.0684 39.4275 0.0214644
22.976 41.8031 2
21.7822 38.5014 2
20.7142 40.6334 3.97698
20.1238 37.7816 3.97659
21.9031 43.9621 0.0216281
19.7393 42.8927 2
17.3673 42.102 3.97435
18.972 44.9762 0.0224429
16.9492 44.3828 2
14.843 44.202 3.97179
16.6163 46.216 0.0257256
14.8396 46.0927 2
12.9644 46.2971 3.97134
14.9209 47.6725 0.027121
13.2938 48.01 2
11.4865 48.55 3.97189
13.7871 49.5471 0.0277116
12.1154 50.2529 2
10.2631 51.0796 3.97362
12.8957 51.8742 0.0277067
11.1372 52.8363 2
9.2325 53.8887 3.97801
8.38301 56.9824 3.98541
10.3231 55.7112 2
12.1407 54.5272 0.0252924
7.74927 60.3285 4
9.69829 58.8488 2
11.5321 57.4593 0.0195767
9.306 62.2255 2
11.1325 60.628 0.0119338
10.9835 64.0165 0
13.9582 21.7508 3.97246
15.1447 20.1818 2
13.4478 18.8985 3.97791
16.3982 18.6465 0.0205305
14.7464 17.2992 2
13.0272 15.8809 3.9832
16.1006 15.777 0.0175832
14.4818 14.2869 2
12.7816 12.6867 3.9908
16.0191 12.8055 0.0144495
14.4437 11.1137 2
12.7746 9.30605 4
16.2012 9.66221 0.00732828
14.6715 7.74924 2
16.6661 6.31991 0
23.089 33.7953 3.97592
25.395 34.2571 2
27.458 34.7636 0.0553288
17.6261 24.04 3.97181
17.8533 22.3193 2
14.3096 24.4498 3.97087
15.5264 22.9183 2
16.6788 21.3743 0.0260417
19.0438 27.1976 3.97029
19.72 21.5681 0.0195214
19.661 24.3776 2
21.1917 30.6573 3.97192
22.8408 24.5966 0.0289973
21.9333 27.8168 2
23.7497 31.1809 2
24.5646 28.5205 0.0310977
26.1889 31.6934 0.00868232
20.2636 35.9197 3.97584
22.5177 36.2732 2
24.7684 36.8553 0.0156151
22.9784 41.8045 0.0201212
21.7848 38.5014 0.0240749
20.7121 40.6336 2
20.1219 37.7816 2
18.0924 39.0009 3.97483
19.7385 42.8925 0.0222479
17.3669 42.102 2
14.808 41.9188 3.97215
16.9492 44.3828 0.0258984
14.8429 44.2021 2
12.7039 44.393 3.9705
14.8396 46.0927 0.0277268
12.9644 46.2972 2
10.9874 46.7344 3.97138
13.2937 48.0098 0.0279701
11.4867 48.5502 2
9.52668 49.2397 3.97304
12.1152 50.2527 0.0277608
10.2634 51.0798 2
8.2658 52.0016 3.9773
11.1369 52.836 0.0258713
9.23274 53.8887 2
7.19214 55.0322 3.98509
6.31991 58.3339 4
8.38215 56.9802 2
10.3232 55.7107 0.0211519
7.74924 60.3285 2
9.69925 58.8501 0.0134115
9.30605 62.2254 0
13.2286 25.3622 3.97277
12.8267 23.281 3.97191
13.9585 21.75 2
12.2342 20.5486 3.9759
15.1445 20.1827 0.0243223
13.4479 18.8973 2
11.6572 17.5624 3.98187
14.7463 17.3003 0.0194481
13.0272 15.8799 2
11.2191 14.3717 3.9891
14.4818 14.2878 0.0158873
12.7812 12.687 2
10.9835 10.9835 4
14.4441 11.1134 0.00795184
12.7745 9.306 2
14.6715 7.74927 0
20.6307 33.3902 3.97423
23.0912 33.7954 2
25.4094 34.2592 0.0122088
15.8997 26.3973 3.97091
17.626 24.0396 2
17.8531 22.3201 0.0176057
14.3094 24.4494 2
15.5262 22.919 0.0293165
18.3975 30.1678 3.97232
19.0432 27.1975 2
19.6615 24.3778 0.0297525
21.195 30.6573 2
21.9316 27.8168 0.029369
23.7578 31.1806 0.0261554
17.7288 35.9617 3.9748
20.2651 35.9197 2
22.5193 36.2729 0.0225379
20.7142 40.6334 0.0230235
20.1238 37.7816 0.0234095
18.0929 39.001 2
14.3383 39.1758 3.97269
17.3673 42.102 0.0256518
14.8076 41.9188 2
12.3963 42.2771 3.97031
14.843 44.202 0.0282127
12.7038 44.3931 2
10.5643 44.8031 3.97059
12.9644 46.2971 0.0286642
10.9874 46.7345 2
8.9088 47.3193 3.97265
11.4865 48.55 0.0281121
9.52686 49.2398 2
7.43306 50.0349 3.97652
10.2631 51.0796 0.0263764
8.2661 52.0014 2
6.13286 53.0066 3.98525
9.2325 53.8887 0.0219865
7.19162 55.0298 2
5.0241 56.25 4
6.31988 58.3339 2
8.38301 56.9824 0.0145892
7.74927 60.3285 0
13.465 26.8133 3.97062
11.9404 24.7882 3.97237
13.2287 25.3619 2
11.1387 22.2343 3.97391
12.8269 23.2802 2
13.9582 21.7508 0.0275419
12.2346 20.5476 2
10.3879 19.3179 3.98021
13.4478 18.8985 0.0220859
11.6572 17.5613 2
9.75999 16.1555 3.98746
13.0272 15.8809 0.0168014
11.2185 14.3722 2
9.30607 12.7746 4
12.7816 12.6867 0.00920437
10.9835 10.9835 2
12.7746 9.30605 0
17.8908 33.1071 3.97396
20.6321 33.3903 2
23.089 33.7953 0.0240766
15.4963 29.6332 3.97182
15.8987 26.397 2
17.6261 24.04 0.028192
14.3096 24.4498 0.0291278
18.3991 30.1679 2
19.0438 27.1976 0.0297069
21.1917 30.6573 0.0280781
14.9452 36.0166 3.97325
17.7293 35.9618 2
20.2636 35.9197 0.0241594
12.6183 37.8288 3.97254
18.0924 39.0009 0.0251666
14.3386 39.1758 2
11.9182 40.1405 3.97083
14.808 41.9188 0.027854
12.3959 42.2771 2
10.1646 42.7783 3.9698
12.7039 44.393 0.0294995
10.5643 44.8033 2
8.38671 45.3215 3.97194
10.9874 46.7344 0.0286232
8.90885 47.3194 2
6.72435 48.0003 3.9761
9.52668 49.2397 0.0269571
7.43325 50.0347 2
5.20982 50.9097 3.98518
8.2658 52.0016 0.0226988
6.13259 53.0047 2
3.86727 54.0858 4
7.19214 55.0322 0.014907
5.02404 56.25 2
6.31991 58.3339 0
12.9193 29.0313 3.97034
11.3701 26.487 3.9711
13.4648 26.813 2
10.1986 23.9681 3.97289
11.9406 24.7878 2
13.2286 25.3622 0.0272254
9.24111 21.1378 3.97813
11.1391 22.2335 2
12.8267 23.281 0.0280942
12.2342 20.5486 0.0240987
10.3882 19.317 2
8.41592 18.0271 3.98625
11.6572 17.5624 0.0181288
9.75923 16.1564 2
7.74928 14.6715 4
11.2191 14.3717 0.0109016
9.30602 12.7745 2
10.9835 10.9835 0
14.5074 32.8601 3.97271
17.8924 33.1071 2
20.6307 33.3902 0.0257745
15.4964 29.6331 2
15.8997 26.3973 0.0290853
18.3975 30.1678 0.0276756
12.9123 36.2083 3.97193
14.9456 36.0166 2
17.7288 35.9617 0.0251965
12.6185 37.8288 2
11.2753 38.3096 3.9714
14.3383 39.1758 0.0273137
11.9183 40.1405 2
9.75148 40.7546 3.96953
12.3963 42.2771 0.0296871
10.1646 42.7784 2
7.93683 43.2702 3.97068
10.5643 44.8031 0.0294076
8.38668 45.3216 2
6.13063 45.9056 3.97561
8.9088 47.3193 0.0273509
6.72441 48.0001 2
4.4215 48.7507 3.98503
7.43306 50.0349 0.0234845
5.20967 50.9085 2
2.85457 51.8506 4
6.13286 53.0066 0.0147504
3.86727 54.0858 2
5.0241 56.25 0
12.0648 31.2549 3.97114
10.7818 28.4142 3.97023
12.9191 29.0311 2
9.41352 25.7982 3.97251
11.37 26.4868 2
13.465 26.8133 0.0293757
8.22889 23.0234 3.97663
10.199 23.9677 2
11.9404 24.7882 0.0276297
7.19831 19.978 3.9852
9.24156 21.1373 2
11.1387 22.2343 0.0260939
10.3879 19.3179 0.01979
8.41525 18.0288 2
6.31992 16.6661 4
9.75999 16.1555 0.0125354
7.74926 14.6714 2
9.30607 12.7746 0
12.0984 34.2937 3.97197
14.5069 32.86 2
17.8908 33.1071 0.0260388
15.4963 29.6332 0.0281779
10.8388 36.6108 3.97123
12.9125 36.2082 2
14.9452 36.0166 0.0267549
12.6183 37.8288 0.0274553
11.2754 38.3096 2
9.34723 38.8237 3.96972
11.9182 40.1405 0.0291741
9.7517 40.7546 2
7.54928 41.2113 3.96988
10.1646 42.7783 0.0302023
7.93682 43.2702 2
5.64319 43.7685 3.97471
8.38671 45.3215 0.0280647
6.13062 45.9054 2
3.76724 46.5368 3.98461
6.72435 48.0003 0.0239033
4.42142 48.7501 2
1.99014 49.554 4
5.20982 50.9097 0.0148156
2.85451 51.8506 2
3.86727 54.0858 0
10.9231 32.9183 3.97155
10.0949 30.3815 3.97002
12.0647 31.2548 2
8.7215 27.7317 3.97187
10.7817 28.4141 2
12.9193 29.0313 0.0296612
7.35459 24.9826 3.97603
9.41363 25.7979 2
11.3701 26.487 0.0288983
6.11545 22.0024 3.98479
8.22937 23.0232 2
10.1986 23.9681 0.0271114
5.02411 18.75 4
7.19796 19.98 2
9.24111 21.1378 0.0218704
8.41592 18.0271 0.0137483
6.3199 16.6661 2
7.74928 14.6715 0
10.4467 34.9996 3.97103
12.0985 34.2937 2
14.5074 32.8601 0.0272853
9.01826 36.9849 3.96987
10.8393 36.6108 2
12.9123 36.2083 0.0280747
11.2753 38.3096 0.0286002
9.34722 38.8236 2
7.23012 39.1821 3.96993
9.75148 40.7546 0.0304664
7.54946 41.2113 2
5.25936 41.6141 3.97348
7.93683 43.2702 0.0293178
5.64318 43.7684 2
3.24521 44.282 3.98383
6.13063 45.9056 0.0243913
3.76724 46.5366 2
1.27781 47.2057 4
4.4215 48.7507 0.0149727
1.99012 49.554 2
2.85457 51.8506 0
10.0896 33.881 3.97115
9.38807 32.1541 3.97062
10.9231 32.9182 2
8.07098 29.6953 3.97125
10.0948 30.3814 2
12.0648 31.2549 0.0288623
6.59839 27.0085 3.97556
8.72148 27.7315 2
10.7818 28.4142 0.0297702
5.17087 24.0956 3.98491
7.35481 24.9825 2
9.41352 25.7982 0.0274913
3.86728 20.9142 4
6.11538 22.004 2
8.22889 23.0234 0.023368
5.02406 18.75 2
7.19831 19.978 0.0147955
6.31992 16.6661 0
8.84401 35.2792 3.97017
10.4467 34.9996 2
12.0984 34.2937 0.0280286
7.01384 37.2058 3.9701
9.01818 36.9849 2
10.8388 36.6108 0.0287747
9.34723 38.8237 0.0302806
7.23018 39.182 2
4.98755 39.4675 3.97309
7.54928 41.2113 0.0301226
5.25953 41.6139 2
2.85602 42.0024 3.98282
5.64319 43.7685 0.0252864
3.24522 44.282 2
0.720592 44.8159 4
3.76724 46.5368 0.0153851
1.27778 47.2057 2
1.99014 49.554 0
8.88461 33.6974 3.971
10.0896 33.8809 2
7.50876 31.609 3.9715
9.388 32.154 2
10.9231 32.9183 0.028446
5.94382 29.0695 3.97508
8.07088 29.6952 2
10.0949 30.3815 0.0299762
4.35865 26.248 3.9847
6.59844 27.0085 2
8.7215 27.7317 0.0281348
2.85458 23.1494 4
5.17082 24.0964 2
7.35459 24.9826 0.0239673
3.86728 20.9142 2
6.11545 22.0024 0.0152085
5.02411 18.75 0
6.96411 35.3059 3.97022
8.84419 35.2791 2
10.4467 34.9996 0.0289651
4.83766 37.3399 3.97347
7.01393 37.2058 2
9.01826 36.9849 0.0301277
7.23012 39.1821 0.0300739
4.9876 39.4674 2
2.60431 39.7141 3.98221
5.25936 41.6141 0.0265241
2.85622 42.0026 2
0.320823 42.3947 4
3.24521 44.282 0.0161729
0.720551 44.8159 2
1.27781 47.2057 0
7.12312 33.4607 3.97135
8.88466 33.6974 2
10.0896 33.881 0.0288462
5.415 31.1335 3.97487
7.50866 31.6089 2
9.38807 32.1541 0.0293831
3.68055 28.4437 3.98417
5.94374 29.0696 2
8.07098 29.6953 0.02875
1.99015 25.446 4
4.35864 26.2483 2
6.59839 27.0085 0.0244399
2.85453 23.1494 2
5.17087 24.0956 0.0150904
3.86728 20.9142 0
4.85198 35.2516 3.97349
6.96428 35.3059 2
8.84401 35.2792 0.029825
2.49569 37.4286 3.98258
4.83774 37.34 2
7.01384 37.2058 0.0299014
4.98755 39.4675 0.0269118
2.6044 39.7144 2
0.080333 39.9526 4
2.85602 42.0024 0.0171823
0.320817 42.3947 2
0.720592 44.8159 0
5.0448 33.1901 3.97443
7.12316 33.4607 2
8.88461 33.6974 0.029002
3.14504 30.6662 3.98353
5.41489 31.1336 2
7.50876 31.609 0.0285019
1.27793 27.7943 4
3.68054 28.4438 2
5.94382 29.0695 0.0249218
1.99013 25.446 2
4.35865 26.248 0.0153019
2.85458 23.1494 0
2.54783 35.1591 3.98265
4.85215 35.2518 2
6.96411 35.3059 0.0297775
0 37.5 4
2.49583 37.4289 2
4.83766 37.3399 0.0265334
2.60431 39.7141 0.0177924
0.0802903 39.9526 2
0.320823 42.3947 0
2.76523 32.9058 3.98314
5.04484 33.1903 2
7.12312 33.4607 0.0286523
0.721173 30.1842 4
3.14505 30.6664 2
5.415 31.1335 0.0251291
1.27779 27.7943 2
3.68055 28.4437 0.0158321
1.99015 25.446 0
0.0806499 35.0474 4
2.54803 35.1594 2
4.85198 35.2516 0.0265145
0 37.5 2
2.49569 37.4286 0.0174204
0.080333 39.9526 0
0.32156 32.6054 4
2.76533 32.9062 2
5.0448 33.1901 0.0255684
0.72056 30.1841 2
3.14504 30.6662 0.0164715
1.27793 27.7943 0
0.0802889 35.0474 2
2.54783 35.1591 0.0173478
0 37.5 0
0.320817 32.6053 2
2.76523 32.9058 0.0168557
0.721173 30.1842 0
0.0806499 35.0474 0
0.32156 32.6054 0
CELLS 1910 17190
8 18 6 25 56 2 0 5 16
8 57 23 6 18 17 4 0 2
8 78 36 9 29 31 11 1 7
8 31 11 1 7 79 37 10 30
8 110 57 18 50 48 17 2 14
8 50 18 56 111 14 2 16 49
8 116 62 22 55 52 20 3 15
8 56 25 67 118 16 5 24 53
8 119 63 23 57 54 21 4 17
8 55 22 63 119 15 3 21 54
8 58 26 68 121 18 6 25 56
8 122 65 26 58 57 23 6 18
8 73 31 7 27 142 79 30 71
8 143 78 29 72 73 31 7 27
8 83 147 76 34 32 74 28 8
8 84 148 78 36 33 75 29 9
8 76 34 8 28 148 84 33 75
8 37 79 150 86 10 30 77 35
8 151 87 36 78 80 38 11 31
8 80 38 11 31 152 88 37 79
8 175 100 42 94 96 44 12 40
8 44 96 176 101 12 40 95 43
8 101 176 98 46 43 95 41 13
8 46 98 178 103 13 41 97 45
8 178 103 45 97 147 83 32 74
8 189 116 55 109 106 52 15 47
8 111 56 118 191 49 16 53 107
8 192 119 57 110 108 54 17 48
8 109 55 119 192 47 15 54 108
8 194 122 58 112 110 57 18 50
8 112 58 121 195 50 18 56 111
8 115 61 19 51 197 124 59 113
8 115 61 125 198 51 19 60 114
8 198 125 62 116 114 60 20 52
8 200 127 64 120 116 62 22 55
8 118 67 132 202 53 24 66 117
8 121 68 133 203 56 25 67 118
8 120 64 128 204 55 22 63 119
8 204 128 65 122 119 63 23 57
8 206 134 68 121 123 69 26 58
8 123 69 26 58 207 131 65 122
8 226 147 74 138 140 76 28 70
8 229 148 75 139 143 78 29 72
8 140 76 28 70 229 148 75 139
8 142 79 30 71 231 150 77 141
8 144 80 31 73 232 152 79 142
8 233 151 78 143 144 80 31 73
8 150 86 35 77 235 154 81 145
8 235 154 81 145 146 82 39 91
8 146 82 39 91 236 155 90 165
8 238 157 83 147 149 85 34 76
8 239 158 84 148 151 87 36 78
8 149 85 34 76 239 158 84 148
8 152 88 37 79 241 160 86 150
8 242 161 87 151 153 89 38 80
8 153 89 38 80 243 162 88 152
8 171 98 41 92 265 178 97 169
8 265 178 97 169 226 147 74 138
8 172 96 40 93 266 176 95 170
8 266 176 95 170 171 98 41 92
8 269 175 94 173 172 96 40 93
8 271 180 99 174 175 100 42 94
8 197 124 59 113 271 180 99 174
8 272 181 100 175 177 102 44 96
8 273 182 101 176 179 104 46 98
8 177 102 44 96 273 182 101 176
8 179 104 46 98 275 184 103 178
8 275 184 103 178 238 157 83 147
8 188 115 51 105 283 197 113 186
8 188 115 198 284 105 51 114 187
8 284 198 116 189 187 114 52 106
8 286 200 120 193 189 116 55 109
8 191 118 202 288 107 53 117 190
8 195 121 203 289 111 56 118 191
8 193 120 204 290 109 55 119 192
8 290 204 122 194 192 119 57 110
8 196 123 58 112 292 207 122 194
8 293 206 121 195 196 123 58 112
8 199 126 61 115 297 211 124 197
8 298 212 127 200 198 125 62 116
8 199 126 212 298 115 61 125 198
8 205 129 64 120 300 214 127 200
8 301 217 130 201 202 132 66 117
8 209 136 168 264 301 217 130 201
8 302 219 132 202 203 133 67 118
8 303 220 133 203 206 134 68 121
8 205 129 215 304 120 64 128 204
8 304 215 131 207 204 128 65 122
8 306 221 134 206 208 135 69 123
8 208 135 69 123 307 218 131 207
8 210 137 167 263 309 223 136 209
8 328 238 147 226 230 149 76 140
8 228 146 91 166 329 236 165 260
8 231 150 77 141 330 235 145 227
8 330 235 145 227 228 146 91 166
8 332 239 148 229 233 151 78 143
8 230 149 76 140 332 239 148 229
8 232 152 79 142 334 241 150 231
8 234 153 80 144 335 243 152 232
8 336 242 151 233 234 153 80 144
8 236 155 90 165 338 245 164 259
8 241 160 86 150 339 246 154 235
8 339 246 154 235 237 156 82 146
8 237 156 82 146 340 247 155 236
8 342 249 157 238 240 159 85 149
8 343 250 158 239 242 161 87 151
8 240 159 85 149 343 250 158 239
8 243 162 88 152 345 252 160 241
8 244 163 253 346 153 89 161 242
8 244 163 89 153 347 254 162 243
8 311 224 261 371 210 137 167 263
8 263 167 262 372 209 136 168 264
8 267 179 98 171 375 275 178 265
8 375 275 178 265 328 238 147 226
8 376 273 176 266 267 179 98 171
8 268 177 96 172 376 273 176 266
8 379 272 175 269 268 177 96 172
8 380 271 174 270 269 175 94 173
8 283 197 113 186 380 271 174 270
8 381 277 180 271 272 181 100 175
8 297 211 124 197 381 277 180 271
8 382 278 181 272 274 183 102 177
8 274 183 102 177 383 279 182 273
8 383 279 182 273 276 185 104 179
8 385 281 184 275 342 249 157 238
8 276 185 104 179 385 281 184 275
8 285 199 115 188 393 297 197 283
8 394 298 200 286 284 198 116 189
8 285 199 298 394 188 115 198 284
8 291 205 120 193 396 300 200 286
8 397 301 201 287 288 202 117 190
8 295 209 264 374 397 301 201 287
8 398 302 202 288 289 203 118 191
8 399 303 203 289 293 206 121 195
8 291 205 304 400 193 120 204 290
8 400 304 207 292 290 204 122 194
8 294 208 123 196 402 307 207 292
8 403 306 206 293 294 208 123 196
8 296 210 263 373 405 309 209 295
8 408 312 213 299 297 211 126 199
8 299 213 313 409 199 126 212 298
8 409 313 214 300 298 212 127 200
8 305 216 129 205 411 315 214 300
8 412 318 217 301 302 219 132 202
8 309 223 136 209 412 318 217 301
8 413 320 219 302 303 220 133 203
8 306 221 321 414 206 134 220 303
8 307 218 131 207 415 316 215 304
8 305 216 316 415 205 129 215 304
8 417 322 221 306 308 222 135 208
8 308 222 135 208 418 319 218 307
8 310 225 137 210 420 325 223 309
8 423 326 224 311 310 225 137 210
8 329 236 165 260 441 338 259 368
8 442 342 238 328 333 240 149 230
8 331 237 146 228 443 340 236 329
8 334 241 150 231 444 339 235 330
8 444 339 235 330 331 237 146 228
8 446 343 239 332 336 242 151 233
8 333 240 149 230 446 343 239 332
8 335 243 152 232 448 345 241 334
8 337 244 153 234 449 347 243 335
8 337 244 346 450 234 153 242 336
8 338 245 164 259 452 349 258 367
8 340 247 155 236 453 350 245 338
8 345 252 160 241 454 351 246 339
8 454 351 246 339 341 248 156 237
8 341 248 156 237 455 352 247 340
8 240 159 251 344 342 249 354 457
8 242 161 253 346 343 250 355 458
8 343 250 355 458 240 159 251 344
8 347 254 162 243 460 357 252 345
8 348 255 358 461 244 163 253 346
8 348 255 163 244 462 359 254 347
8 473 360 257 365 363 256 364 482
8 452 349 258 367 365 257 366 485
8 422 324 369 488 311 224 261 371
8 371 261 370 490 263 167 262 372
8 407 311 371 491 296 210 263 373
8 373 263 372 492 295 209 264 374
8 493 385 275 375 442 342 238 328
8 377 276 179 267 493 385 275 375
8 378 274 177 268 494 383 273 376
8 494 383 273 376 377 276 179 267
8 497 382 272 379 378 274 177 268
8 498 381 271 380 379 272 175 269
8 393 297 197 283 498 381 271 380
8 499 387 277 381 382 278 181 272
8 408 312 211 297 499 387 277 381
8 500 388 278 382 384 280 183 274
8 501 389 279 383 386 282 185 276
8 384 280 183 274 501 389 279 383
8 386 282 185 276 503 391 281 385
8 503 391 281 385 457 354 249 342
8 511 408 299 395 393 297 199 285
8 395 299 409 512 285 199 298 394
8 512 409 300 396 394 298 200 286
8 401 305 205 291 514 411 300 396
8 515 412 301 397 398 302 202 288
8 405 309 209 295 515 412 301 397
8 516 413 302 398 399 303 203 289
8 403 306 414 517 293 206 303 399
8 402 307 207 292 518 415 304 400
8 401 305 415 518 291 205 304 400
8 404 308 208 294 520 418 307 402
8 521 417 306 403 404 308 208 294
8 406 310 210 296 523 420 309 405
8 526 423 311 407 406 310 210 296
8 410 314 213 299 527 424 312 408
8 528 425 315 411 409 313 214 300
8 410 314 425 528 299 213 313 409
8 416 317 216 305 530 427 315 411
8 531 430 318 412 413 320 219 302
8 420 325 223 309 531 430 318 412
8 532 432 320 413 414 321 220 303
8 417 322 433 533 306 221 321 414
8 418 319 218 307 534 428 316 415
8 416 317 428 534 305 216 316 415
8 419 323 434 536 308 222 322 417
8 419 323 222 308 537 431 319 418
8 421 327 225 310 539 438 325 420
8 421 327 439 541 310 225 326 423
8 543 437 324 422 423 326 224 311
8 441 338 259 368 559 452 367 486
8 443 340 236 329 560 453 338 441
8 333 240 344 447 442 342 457 561
8 445 341 237 331 562 455 340 443
8 448 345 241 334 563 454 339 444
8 563 454 339 444 445 341 237 331
8 336 242 346 450 446 343 458 565
8 446 343 458 565 333 240 344 447
8 449 347 243 335 567 460 345 448
8 451 348 244 337 568 462 347 449
8 451 348 461 569 337 244 346 450
8 570 463 349 452 473 360 257 365
8 453 350 245 338 570 463 349 452
8 455 352 247 340 571 464 350 453
8 460 357 252 345 572 465 351 454
8 572 465 351 454 456 353 248 341
8 456 353 248 341 573 466 352 455
8 344 251 356 459 457 354 468 575
8 458 355 469 576 344 251 356 459
8 346 253 358 461 458 355 469 576
8 462 359 254 347 578 471 357 460
8 348 255 359 462 461 358 472 579
8 591 474 360 473 475 361 256 363
8 475 361 256 363 594 477 362 479
8 363 256 364 482 479 362 480 603
8 590 473 365 484 481 363 482 605
8 482 364 257 365 606 483 366 485
8 559 452 367 486 484 365 485 607
8 542 436 487 609 422 324 369 488
8 525 422 488 611 407 311 371 491
8 488 369 489 612 371 261 370 490
8 491 371 490 613 373 263 372 492
8 495 386 276 377 614 503 385 493
8 614 503 385 493 561 457 342 442
8 615 501 383 494 495 386 276 377
8 496 384 274 378 615 501 383 494
8 618 500 382 497 496 384 274 378
8 619 499 381 498 497 382 272 379
8 511 408 297 393 619 499 381 498
8 620 505 387 499 500 388 278 382
8 527 424 312 408 620 505 387 499
8 502 390 506 621 384 280 388 500
8 622 507 389 501 504 392 282 386
8 502 390 280 384 622 507 389 501
8 504 392 282 386 624 509 391 503
8 624 509 391 503 575 468 354 457
8 513 410 299 395 630 527 408 511
8 631 528 411 514 512 409 300 396
8 513 410 528 631 395 299 409 512
8 519 416 305 401 633 530 411 514
8 634 531 412 515 516 413 302 398
8 523 420 309 405 634 531 412 515
8 635 532 413 516 517 414 303 399
8 521 417 533 636 403 306 414 517
8 520 418 307 402 637 534 415 518
8 519 416 534 637 401 305 415 518
8 522 419 308 404 639 537 418 520
8 522 419 536 640 404 308 417 521
8 524 421 310 406 642 539 420 523
8 524 421 541 644 406 310 423 526
8 646 543 422 525 526 423 311 407
8 529 426 314 410 647 544 424 527
8 528 425 545 648 411 315 427 530
8 529 426 545 648 410 314 425 528
8 535 429 317 416 649 546 427 530
8 650 548 430 531 532 432 320 413
8 539 438 325 420 650 548 430 531
8 533 433 550 651 414 321 432 532
8 536 434 551 652 417 322 433 533
8 537 431 319 418 653 547 428 534
8 535 429 547 653 416 317 428 534
8 538 435 552 654 419 323 434 536
8 538 435 323 419 655 549 431 537
8 540 440 327 421 657 556 438 539
8 540 440 557 659 421 327 439 541
8 541 439 555 660 423 326 437 543
8 661 554 436 542 543 437 324 422
8 676 570 452 559 590 473 365 484
8 560 453 338 441 676 570 452 559
8 562 455 340 443 677 571 453 560
8 447 344 459 566 561 457 575 678
8 564 456 341 445 679 573 455 562
8 567 460 345 448 680 572 454 563
8 680 572 454 563 564 456 341 445
8 565 458 576 682 447 344 459 566
8 450 346 461 569 565 458 576 682
8 568 462 347 449 684 578 460 567
8 451 348 462 568 569 461 579 685
8 686 580 463 570 591 474 360 473
8 571 464 350 453 686 580 463 570
8 573 466 352 455 687 581 464 571
8 572 465 582 688 460 357 471 578
8 574 467 582 688 456 353 465 572
8 574 467 353 456 689 583 466 573
8 459 356 470 577 575 468 585 691
8 576 469 586 692 459 356 470 577
8 461 358 472 579 576 469 586 692
8 462 359 471 578 579 472 588 694
8 704 591 473 590 593 475 363 481
8 595 476 592 705 475 361 474 591
8 593 475 363 481 707 594 479 602
8 594 477 362 479 709 598 478 600
8 595 476 361 475 711 597 477 594
8 479 362 480 603 600 478 601 720
8 481 363 482 605 602 479 603 722
8 603 480 364 482 723 604 483 606
8 605 482 365 484 724 606 485 607
8 656 553 608 726 542 436 487 609
8 645 542 609 728 525 422 488 611
8 609 487 610 729 488 369 489 612
8 611 488 612 730 491 371 490 613
8 616 504 386 495 731 624 503 614
8 731 624 503 614 678 575 457 561
8 732 622 501 615 616 504 386 495
8 617 502 384 496 732 622 501 615
8 617 502 621 735 496 384 500 618
8 736 620 499 619 618 500 382 497
8 630 527 408 511 736 620 499 619
8 621 506 626 737 500 388 505 620
8 647 544 424 527 737 626 505 620
8 623 508 627 738 502 390 506 621
8 623 508 390 502 739 628 507 622
8 625 510 628 739 504 392 507 622
8 740 629 509 624 691 585 468 575
8 625 510 392 504 740 629 509 624
8 632 529 410 513 744 647 527 630
8 631 528 648 745 514 411 530 633
8 632 529 648 745 513 410 528 631
8 638 535 416 519 746 649 530 633
8 747 650 531 634 635 532 413 516
8 642 539 420 523 747 650 531 634
8 636 533 651 748 517 414 532 635
8 640 536 652 749 521 417 533 636
8 639 537 418 520 750 653 534 637
8 638 535 653 750 519 416 534 637
8 641 538 419 522 751 655 537 639
8 641 538 654 752 522 419 536 640
8 643 540 421 524 753 657 539 642
8 643 540 659 755 524 421 541 644
8 644 541 660 757 526 423 543 646
8 758 661 542 645 646 543 422 525
8 529 426 544 647 648 545 662 759
8 530 427 545 648 649 546 663 760
8 535 429 546 649 653 547 664 761
8 762 666 548 650 651 550 432 532
8 657 556 438 539 762 666 548 650
8 652 551 668 763 533 433 550 651
8 654 552 669 764 536 434 551 652
8 655 549 431 537 765 665 547 653
8 538 435 549 655 654 552 667 766
8 661 554 671 768 542 436 553 656
8 658 558 440 540 769 674 556 657
8 658 558 675 770 540 440 557 659
8 659 557 673 771 541 439 555 660
8 660 555 672 772 543 437 554 661
8 788 686 570 676 704 591 473 590
8 677 571 453 560 788 686 570 676
8 679 573 455 562 789 687 571 677
8 566 459 577 683 678 575 691 790
8 681 574 456 564 791 689 573 679
8 680 572 688 792 567 460 578 684
8 681 574 688 792 564 456 572 680
8 682 576 692 794 566 459 577 683
8 569 461 579 685 682 576 692 794
8 568 462 578 684 685 579 694 796
8 687 581 464 571 798 696 580 686
8 798 696 580 686 705 592 474 591
8 689 583 466 573 799 697 581 687
8 688 582 698 800 578 471 588 694
8 690 584 698 800 574 467 582 688
8 690 584 467 574 801 699 583 689
8 693 587 701 803 577 470 585 691
8 693 587 470 577 804 702 586 692
8 695 589 702 804 579 472 586 692
8 695 589 472 579 805 703 588 694
8 708 595 705 813 593 475 591 704
8 710 596 706 814 595 476 592 705
8 707 594 479 602 816 709 600 719
8 708 595 475 593 817 711 594 707
8 709 598 478 600 819 715 599 717
8 711 597 477 594 820 714 598 709
8 710 596 476 595 822 713 597 711
8 600 478 601 720 717 599 718 832
8 602 479 603 722 719 600 720 834
8 720 601 480 603 835 721 604 723
8 722 603 482 605 836 723 606 724
8 767 670 725 839 656 553 608 726
8 756 656 726 841 645 542 609 728
8 726 608 727 842 609 487 610 729
8 728 609 729 843 611 488 612 730
8 844 740 624 731 790 691 575 678
8 733 625 504 616 844 740 624 731
8 734 623 502 617 845 739 622 732
8 733 625 739 845 616 504 622 732
8 734 623 738 846 617 502 621 735
8 735 621 737 847 618 500 620 736
8 744 647 527 630 847 737 620 736
8 621 506 627 738 737 626 741 848
8 647 544 626 737 759 662 741 848
8 623 508 628 739 738 627 742 849
8 740 629 585 691 850 743 700 802
8 625 510 629 740 739 628 743 850
8 632 529 647 744 745 648 759 854
8 633 530 648 745 746 649 760 855
8 638 535 649 746 750 653 761 856
8 857 762 650 747 748 651 532 635
8 753 657 539 642 857 762 650 747
8 749 652 763 858 636 533 651 748
8 752 654 764 859 640 536 652 749
8 751 655 537 639 860 765 653 750
8 641 538 655 751 752 654 766 861
8 754 658 540 643 862 769 657 753
8 754 658 770 863 643 540 659 755
8 755 659 771 864 644 541 660 757
8 758 661 768 866 645 542 656 756
8 757 660 772 867 646 543 661 758
8 759 662 773 868 648 545 663 760
8 649 546 663 760 761 664 774 871
8 765 665 547 653 872 775 664 761
8 873 777 666 762 763 668 550 651
8 769 674 556 657 873 777 666 762
8 764 669 779 874 652 551 668 763
8 654 552 667 766 764 669 778 875
8 655 549 665 765 766 667 776 876
8 768 671 782 877 656 553 670 767
8 772 672 783 878 661 554 671 768
8 658 558 674 769 770 675 786 879
8 659 557 675 770 771 673 785 881
8 882 784 672 772 771 673 555 660
8 789 687 571 677 897 798 686 788
8 897 798 686 788 813 705 591 704
8 791 689 573 679 898 799 687 789
8 795 693 803 900 683 577 691 790
8 793 690 574 681 901 801 689 791
8 792 688 800 902 684 578 694 796
8 793 690 800 902 681 574 688 792
8 795 693 577 683 903 804 692 794
8 797 695 804 903 685 579 692 794
8 797 695 579 685 904 805 694 796
8 905 806 697 799 798 696 581 687
8 814 706 806 905 705 592 696 798
8 689 583 697 799 801 699 808 907
8 800 698 809 908 694 588 703 805
8 690 584 699 801 800 698 809 908
8 803 701 810 909 691 585 700 802
8 693 587 702 804 803 701 811 910
8 695 589 703 805 804 702 812 911
8 818 710 814 919 708 595 705 813
8 821 712 815 920 710 596 706 814
8 816 709 600 719 922 819 717 831
8 817 711 594 707 923 820 709 816
8 818 710 595 708 924 822 711 817
8 819 715 599 717 926 827 716 829
8 820 714 598 709 927 826 715 819
8 929 825 713 822 820 714 597 711
8 821 712 596 710 930 824 713 822
8 717 599 718 832 829 716 830 942
8 719 600 720 834 831 717 832 944
8 832 718 601 720 945 833 721 835
8 834 720 603 722 946 835 723 836
8 869 780 838 950 767 670 725 839
8 865 767 839 952 756 656 726 841
8 839 725 840 953 726 608 727 842
8 841 726 842 954 728 609 729 843
8 844 740 691 790 955 850 802 899
8 733 625 740 844 845 739 850 955
8 734 623 739 845 846 738 849 956
8 735 621 738 846 847 737 848 957
8 744 647 737 847 854 759 848 957
8 738 627 742 849 848 741 851 958
8 848 741 851 958 759 662 773 868
8 850 743 700 802 959 852 807 906
8 849 742 628 739 959 852 743 850
8 854 759 868 965 745 648 760 855
8 746 649 760 855 856 761 871 966
8 860 765 653 750 967 872 761 856
8 968 873 762 857 858 763 651 748
8 862 769 657 753 968 873 762 857
8 859 764 874 969 749 652 763 858
8 752 654 766 861 859 764 875 970
8 751 655 765 860 861 766 876 971
8 754 658 769 862 863 770 879 972
8 755 659 770 863 864 771 881 974
8 976 882 772 867 864 771 660 757
8 866 768 877 977 756 656 767 865
8 867 772 878 978 758 661 768 866
8 760 663 773 868 871 774 883 980
8 870 781 837 948 982 890 780 869
8 982 890 780 869 877 782 670 767
8 761 664 774 871 872 775 884 984
8 876 776 665 765 985 885 775 872
8 873 777 668 763 986 887 779 874
8 769 674 777 873 879 786 887 986
8 764 669 778 875 874 779 888 987
8 766 667 776 876 875 778 886 988
8 878 783 892 989 768 671 782 877
8 878 783 672 772 990 893 784 882
8 880 787 675 770 991 896 786 879
8 880 787 895 992 770 675 785 881
8 881 785 894 993 771 673 784 882
8 1006 905 799 898 897 798 687 789
8 919 814 905 1006 813 705 798 897
8 791 689 799 898 901 801 907 1007
8 900 803 909 1009 790 691 802 899
8 795 693 804 903 900 803 910 1010
8 902 800 908 1011 796 694 805 904
8 793 690 801 901 902 800 908 1011
8 797 695 805 904 903 804 911 1012
8 799 697 806 905 907 808 912 1013
8 920 815 912 1013 814 706 806 905
8 802 700 810 909 906 807 913 1014
8 801 699 808 907 908 809 914 1015
8 805 703 809 908 911 812 915 1016
8 803 701 811 910 909 810 916 1017
8 911 812 917 1018 804 702 811 910
8 925 821 920 1030 818 710 814 919
8 928 823 921 1031 821 712 815 920
8 922 819 717 831 1033 926 829 941
8 923 820 709 816 1034 927 819 922
8 1035 929 822 924 923 820 711 817
8 925 821 710 818 1036 930 822 924
8 1038 933 825 929 927 826 714 820
8 926 827 716 829 1039 935 828 939
8 927 826 715 819 1040 934 827 926
8 928 823 712 821 1041 931 824 930
8 1042 932 824 930 929 825 713 822
8 829 716 830 942 939 828 940 1058
8 831 717 832 944 941 829 942 1060
8 942 830 718 832 1061 943 833 945
8 944 832 720 834 1062 945 835 946
8 981 889 947 1064 870 781 837 948
8 948 837 949 1067 869 780 838 950
8 975 869 950 1069 865 767 839 952
8 950 838 951 1070 839 725 840 953
8 952 839 953 1071 841 726 842 954
8 955 850 802 899 1072 959 906 1008
8 956 849 739 845 1072 959 850 955
8 846 738 849 956 957 848 958 1073
8 957 848 958 1073 854 759 868 965
8 849 742 852 959 958 851 961 1076
8 960 853 961 1076 906 807 852 959
8 958 851 961 1076 868 773 883 980
8 960 853 807 906 1077 963 913 1014
8 855 760 868 965 966 871 980 1085
8 856 761 871 966 967 872 984 1086
8 971 876 765 860 1087 985 872 967
8 968 873 763 858 1088 986 874 969
8 862 769 873 968 972 879 986 1088
8 859 764 875 970 969 874 987 1089
8 861 766 876 971 970 875 988 1090
8 973 880 770 863 1091 991 879 972
8 973 880 992 1092 863 770 881 974
8 974 881 993 1093 864 771 882 976
8 979 870 948 1066 1094 982 869 975
8 1094 982 869 975 977 877 767 865
8 978 878 772 867 1095 990 882 976
8 978 878 989 1096 866 768 877 977
8 871 774 883 980 984 884 994 1099
8 983 891 999 1100 870 781 889 981
8 1101 1000 890 982 989 892 782 877
8 983 891 781 870 1101 1000 890 982
8 872 775 884 984 985 885 995 1103
8 876 776 885 985 988 886 996 1104
8 986 887 779 874 1105 998 888 987
8 879 786 887 986 991 896 998 1105
8 875 778 886 988 987 888 997 1106
8 990 893 1002 1107 878 783 892 989
8 1108 1003 893 990 993 894 784 882
8 880 787 896 991 992 895 1005 1109
8 993 894 785 881 1110 1004 895 992
8 898 799 905 1006 1007 907 1013 1120
8 1030 920 1013 1120 919 814 905 1006
8 901 801 907 1007 1011 908 1015 1121
8 899 802 909 1009 1008 906 1014 1122
8 900 803 910 1010 1009 909 1017 1123
8 1012 911 1018 1124 903 804 910 1010
8 904 805 908 1011 1012 911 1016 1125
8 1013 912 1020 1127 907 808 914 1015
8 1031 921 1020 1127 920 815 912 1013
8 1019 918 962 1075 1128 1021 913 1014
8 1128 1021 913 1014 1017 916 810 909
8 1015 914 1022 1129 908 809 915 1016
8 1016 915 1023 1130 911 812 917 1018
8 1018 917 1024 1131 910 811 916 1017
8 1037 928 1031 1148 925 821 920 1030
8 928 823 931 1041 1031 921 1032 1149
8 1033 926 829 941 1151 1039 939 1057
8 1034 927 819 922 1152 1040 926 1033
8 1153 1038 929 1035 1034 927 820 923
8 1154 1042 930 1036 1035 929 822 924
8 1037 928 821 925 1155 1041 930 1036
8 1039 935 828 939 1156 1047 938 1055
8 1157 1043 932 1042 1038 933 825 929
8 1038 933 826 927 1158 1045 934 1040
8 1040 934 827 926 1159 1046 935 1039
8 930 824 932 1042 1041 931 1044 1160
8 1051 936 1048 1165 1175 1052 937 1053
8 1156 1047 938 1055 1053 937 1054 1178
8 939 828 940 1058 1055 938 1056 1181
8 941 829 942 1060 1057 939 1058 1183
8 942 830 943 1061 1058 940 1059 1184
8 1060 942 832 944 1185 1061 945 1062
8 1082 964 1063 1188 981 889 947 1064
8 1097 981 1064 1190 979 870 948 1066
8 1064 947 1065 1191 948 837 949 1067
8 1066 948 1067 1193 975 869 950 1069
8 1067 949 1068 1194 950 838 951 1070
8 1069 950 1070 1195 952 839 953 1071
8 956 849 959 1072 1073 958 1076 1197
8 1074 960 1076 1197 1008 906 959 1072
8 1073 958 1076 1197 965 868 980 1085
8 1074 960 906 1008 1198 1077 1014 1122
8 1133 1026 1079 1199 1019 918 962 1075
8 1077 963 913 1014 1200 1080 962 1075
8 960 853 963 1077 1076 961 1078 1201
8 980 883 961 1076 1099 994 1078 1201
8 1210 1083 964 1082 1100 999 889 981
8 966 871 980 1085 1086 984 1099 1215
8 967 872 984 1086 1087 985 1103 1216
8 971 876 985 1087 1090 988 1104 1217
8 1088 986 874 969 1218 1105 987 1089
8 972 879 986 1088 1091 991 1105 1218
8 970 875 988 1090 1089 987 1106 1219
8 973 880 991 1091 1092 992 1109 1220
8 1093 993 881 974 1221 1110 992 1092
8 1222 1108 990 1095 1093 993 882 976
8 1223 1101 982 1094 1096 989 877 977
8 1098 983 870 979 1223 1101 982 1094
8 1095 990 1107 1224 978 878 989 1096
8 1098 983 1100 1225 979 870 981 1097
8 984 884 994 1099 1103 995 1111 1227
8 1102 1001 1115 1228 983 891 999 1100
8 1101 1000 892 989 1229 1116 1002 1107
8 1102 1001 891 983 1229 1116 1000 1101
8 985 885 995 1103 1104 996 1112 1230
8 988 886 996 1104 1106 997 1113 1231
8 1105 998 888 987 1232 1114 997 1106
8 991 896 998 1105 1109 1005 1114 1232
8 1108 1003 1117 1233 990 893 1002 1107
8 1108 1003 894 993 1233 1117 1004 1110
8 992 895 1005 1109 1110 1004 1118 1234
8 1120 1013 1127 1244 1007 907 1015 1121
8 1148 1031 1127 1244 1030 920 1013 1120
8 1121 1015 1129 1245 1011 908 1016 1125
8 1126 1019 1075 1196 1246 1128 1014 1122
8 1246 1128 1014 1122 1123 1017 909 1009
8 1124 1018 1131 1247 1010 910 1017 1123
8 1125 1016 1130 1248 1012 911 1018 1124
8 1127 1020 1137 1254 1015 914 1022 1129
8 1031 921 1032 1149 1127 1020 1137 1254
8 1134 1027 918 1019 1257 1140 1021 1128
8 1257 1140 1021 1128 1131 1024 916 1017
8 1129 1022 1141 1258 1016 915 1023 1130
8 1130 1023 1142 1259 1018 917 1024 1131
8 1261 1144 1025 1132 1133 1026 1079 1199
8 1255 1138 1025 1132 1135 1028 1144 1261
8 1133 1026 918 1019 1262 1145 1027 1134
8 1136 1029 1139 1256 1263 1146 1028 1135
8 1037 928 1041 1155 1148 1031 1149 1275
8 1041 931 1044 1160 1149 1032 1150 1276
8 1151 1039 939 1057 1278 1156 1055 1180
8 1152 1040 926 1033 1279 1159 1039 1151
8 1153 1038 927 1034 1280 1158 1040 1152
8 1281 1157 1042 1154 1153 1038 929 1035
8 1036 930 1042 1154 1155 1041 1160 1282
8 1283 1164 1046 1159 1156 1047 935 1039
8 1165 1048 1164 1283 1053 937 1047 1156
8 1157 1043 933 1038 1284 1161 1045 1158
8 1157 1043 1161 1284 1042 932 1044 1160
8 1040 934 1046 1159 1158 1045 1163 1285
8 1166 1049 1167 1292 1051 936 1048 1165
8 1166 1049 936 1051 1293 1168 1050 1172
8 1051 936 1052 1175 1172 1050 1173 1306
8 1174 1051 1165 1290 1308 1175 1053 1177
8 1053 937 1054 1178 1175 1052 1176 1309
8 1278 1156 1055 1180 1177 1053 1178 1311
8 1055 938 1056 1181 1178 1054 1179 1312
8 1057 939 1058 1183 1180 1055 1181 1314
8 1058 940 1059 1184 1181 1056 1182 1315
8 1060 942 1061 1185 1183 1058 1184 1316
8 1208 1081 1187 1321 1082 964 1063 1188
8 1209 1082 1188 1322 1097 981 1064 1190
8 1188 1063 1189 1323 1064 947 1065 1191
8 1190 1064 1191 1325 1066 948 1067 1193
8 1191 1065 1192 1326 1067 949 1068 1194
8 1067 1193 1069 950 1194 1327 1195 1070
8 1250 1133 1199 1330 1126 1019 1075 1196
8 1198 1077 1014 1122 1331 1200 1075 1196
8 1074 960 1077 1198 1197 1076 1201 1332
8 1085 980 1076 1197 1215 1099 1201 1332
8 1199 1079 1203 1333 1075 962 1080 1200
8 1132 1025 1119 1243 1199 1079 1203 1333
8 1201 1078 963 1077 1334 1202 1080 1200
8 1099 994 1078 1201 1227 1111 1202 1334
8 1343 1207 1081 1208 1210 1083 964 1082
8 1214 1084 1186 1319 1343 1207 1081 1208
8 1345 1210 1082 1209 1225 1100 981 1097
8 1346 1211 1083 1210 1228 1115 999 1100
8 1086 984 1099 1215 1216 1103 1227 1352
8 1087 985 1103 1216 1217 1104 1230 1353
8 1090 988 1104 1217 1219 1106 1231 1354
8 1218 1105 987 1089 1355 1232 1106 1219
8 1091 991 1105 1218 1220 1109 1232 1355
8 1092 992 1109 1220 1221 1110 1234 1356
8 1222 1108 1233 1357 1095 990 1107 1224
8 1222 1108 993 1093 1357 1233 1110 1221
8 1223 1101 989 1096 1358 1229 1107 1224
8 1226 1102 983 1098 1358 1229 1101 1223
8 1226 1102 1228 1359 1098 983 1100 1225
8 1103 995 1111 1227 1230 1112 1235 1360
8 1107 1002 1117 1233 1229 1116 1240 1362
8 1102 1001 1116 1229 1228 1115 1240 1362
8 1104 996 1112 1230 1231 1113 1236 1363
8 1364 1237 1114 1232 1231 1113 997 1106
8 1109 1005 1114 1232 1234 1118 1238 1365
8 1110 1004 1118 1234 1233 1117 1241 1366
8 1242 1374 1255 1138 1119 1243 1132 1025
8 1244 1127 1254 1376 1121 1015 1129 1245
8 1148 1031 1149 1275 1244 1127 1254 1376
8 1245 1129 1258 1377 1125 1016 1130 1248
8 1251 1134 1019 1126 1378 1257 1128 1246
8 1378 1257 1128 1246 1247 1131 1017 1123
8 1248 1130 1259 1379 1124 1018 1131 1247
8 1261 1381 1250 1133 1132 1249 1330 1199
8 1255 1380 1252 1135 1132 1249 1381 1261
8 1250 1133 1019 1126 1382 1262 1134 1251
8 1253 1136 1256 1385 1384 1263 1135 1252
8 1254 1137 1265 1387 1129 1022 1141 1258
8 1149 1032 1150 1276 1254 1137 1265 1387
8 1028 1135 1255 1138 1139 1256 1388 1266
8 1136 1029 1147 1264 1256 1139 1267 1389
8 1390 1268 1140 1257 1259 1142 1024 1131
8 1260 1143 1027 1134 1390 1268 1140 1257
8 1258 1141 1269 1391 1130 1023 1142 1259
8 1262 1145 1027 1134 1393 1271 1143 1260
8 1261 1144 1026 1133 1394 1272 1145 1262
8 1135 1028 1144 1261 1263 1146 1272 1394
8 1136 1029 1146 1263 1264 1147 1273 1395
8 1155 1041 1160 1282 1275 1149 1276 1405
8 1276 1150 1044 1160 1406 1277 1162 1286
8 1408 1283 1159 1279 1278 1156 1039 1151
8 1290 1165 1283 1408 1177 1053 1156 1278
8 1152 1040 1159 1279 1280 1158 1285 1409
8 1281 1157 1038 1153 1410 1284 1158 1280
8 1281 1157 1284 1410 1154 1042 1160 1282
8 1159 1046 1164 1283 1285 1163 1289 1412
8 1292 1167 1289 1412 1165 1048 1164 1283
8 1158 1045 1163 1285 1284 1161 1288 1413
8 1284 1161 1288 1413 1160 1044 1162 1286
8 1291 1166 1292 1418 1174 1051 1165 1290
8 1291 1166 1051 1174 1419 1293 1172 1305
8 1294 1169 1296 1421 1166 1049 1167 1292
8 1293 1168 1050 1172 1422 1295 1171 1303
8 1294 1169 1049 1166 1423 1297 1168 1293
8 1422 1295 1171 1303 1301 1170 1302 1435
8 1172 1050 1173 1306 1303 1171 1304 1438
8 1174 1051 1175 1308 1305 1172 1306 1440
8 1175 1052 1176 1309 1306 1173 1307 1441
8 1177 1053 1178 1311 1308 1175 1309 1443
8 1178 1054 1179 1312 1309 1176 1310 1444
8 1180 1055 1181 1314 1311 1178 1312 1446
8 1056 1181 1312 1179 1182 1315 1447 1313
8 1183 1058 1184 1316 1314 1181 1315 1448
8 1319 1186 1084 1214 1451 1317 1213 1350
8 1319 1186 1318 1453 1208 1081 1187 1321
8 1321 1187 1320 1456 1188 1063 1189 1323
8 1344 1208 1321 1457 1209 1082 1188 1322
8 1322 1188 1323 1458 1190 1064 1191 1325
8 1323 1189 1324 1459 1191 1065 1192 1326
8 1191 1325 1193 1067 1326 1460 1327 1194
8 1242 1374 1243 1119 1328 1462 1335 1204
8 1330 1199 1333 1465 1196 1075 1200 1331
8 1132 1249 1330 1199 1243 1375 1465 1333
8 1332 1201 1077 1198 1466 1334 1200 1331
8 1215 1099 1201 1332 1352 1227 1334 1466
8 1119 1243 1333 1203 1204 1335 1470 1338
8 1333 1203 1338 1470 1200 1080 1202 1334
8 1227 1111 1202 1334 1360 1235 1338 1470
8 1328 1462 1335 1204 1205 1336 1471 1339
8 1337 1206 1340 1472 1464 1329 1205 1336
8 1346 1211 1342 1479 1210 1083 1207 1343
8 1346 1211 1115 1228 1479 1342 1239 1361
8 1348 1212 1084 1214 1479 1342 1207 1343
8 1480 1343 1208 1344 1345 1210 1082 1209
8 1351 1214 1319 1454 1480 1343 1208 1344
8 1481 1346 1210 1345 1359 1228 1100 1225
8 1348 1212 1347 1483 1214 1084 1213 1350
8 1216 1103 1227 1352 1353 1230 1360 1488
8 1217 1104 1230 1353 1354 1231 1363 1489
8 1490 1364 1232 1355 1354 1231 1106 1219
8 1220 1109 1232 1355 1356 1234 1365 1491
8 1221 1110 1234 1356 1357 1233 1366 1492
8 1224 1107 1233 1357 1358 1229 1362 1493
8 1226 1102 1229 1358 1359 1228 1362 1493
8 1230 1112 1235 1360 1363 1236 1367 1496
8 1361 1239 1115 1228 1497 1371 1240 1362
8 1366 1241 1372 1498 1233 1117 1240 1362
8 1364 1237 1113 1231 1499 1368 1236 1363
8 1364 1237 1368 1499 1232 1114 1238 1365
8 1234 1118 1238 1365 1366 1241 1369 1500
8 1507 1373 1242 1374 1388 1266 1138 1255
8 1508 1374 1243 1375 1380 1255 1132 1249
8 1376 1254 1387 1509 1245 1129 1258 1377
8 1275 1149 1276 1405 1376 1254 1387 1509
8 1377 1258 1391 1510 1248 1130 1259 1379
8 1511 1390 1257 1378 1379 1259 1131 1247
8 1383 1260 1134 1251 1511 1390 1257 1378
8 1252 1135 1256 1385 1380 1255 1388 1512
8 1261 1381 1513 1394 1133 1250 1382 1262
8 1135 1252 1384 1263 1261 1381 1513 1394
8 1382 1262 1134 1251 1514 1393 1260 1383
8 1253 1136 1263 1384 1386 1264 1395 1516
8 1253 1136 1264 1386 1385 1256 1389 1517
8 1387 1265 1397 1519 1258 1141 1269 1391
8 1276 1150 1277 1406 1387 1265 1397 1519
8 1256 1139 1267 1389 1388 1266 1398 1520
8 1264 1147 1274 1396 1389 1267 1399 1521
8 1392 1270 1143 1260 1522 1400 1268 1390
8 1390 1268 1142 1259 1522 1400 1269 1391
8 1392 1270 1401 1523 1260 1143 1271 1393
8 1272 1394 1524 1402 1145 1262 1393 1271
8 1395 1273 1146 1263 1524 1402 1272 1394
8 1273 1395 1264 1147 1403 1526 1396 1274
8 1405 1276 1160 1282 1534 1406 1286 1411
8 1414 1287 1407 1535 1286 1162 1277 1406
8 1279 1159 1283 1408 1409 1285 1412 1537
8 1418 1292 1412 1537 1290 1165 1283 1408
8 1280 1158 1285 1409 1410 1284 1413 1538
8 1410 1284 1413 1538 1282 1160 1286 1411
8 1285 1163 1289 1412 1413 1288 1417 1540
8 1421 1296 1417 1540 1292 1167 1289 1412
8 1414 1287 1162 1286 1541 1416 1288 1413
8 1420 1294 1421 1545 1291 1166 1292 1418
8 1419 1293 1172 1305 1546 1422 1303 1437
8 1420 1294 1166 1291 1547 1423 1293 1419
8 1294 1169 1297 1423 1421 1296 1425 1548
8 1423 1297 1168 1293 1549 1424 1295 1422
8 1301 1170 1298 1427 1422 1295 1424 1549
8 1432 1300 1428 1554 1301 1170 1298 1427
8 1431 1299 1428 1554 1560 1430 1300 1432
8 1563 1433 1300 1432 1435 1302 1170 1301
8 1546 1422 1303 1437 1434 1301 1435 1565
8 1303 1171 1304 1438 1435 1302 1436 1566
8 1305 1172 1306 1440 1437 1303 1438 1568
8 1306 1173 1307 1441 1438 1304 1439 1569
8 1308 1175 1309 1443 1440 1306 1441 1571
8 1309 1176 1310 1444 1441 1307 1442 1572
8 1311 1178 1312 1446 1443 1309 1444 1574
8 1179 1312 1444 1310 1313 1447 1575 1445
8 1314 1181 1315 1448 1446 1312 1447 1576
8 1350 1213 1349 1486 1451 1317 1449 1579
8 1451 1317 1450 1581 1319 1186 1318 1453
8 1454 1319 1214 1351 1582 1451 1350 1487
8 1453 1318 1452 1584 1321 1187 1320 1456
8 1454 1319 1453 1585 1344 1208 1321 1457
8 1456 1320 1455 1586 1323 1189 1324 1459
8 1457 1321 1456 1587 1322 1188 1323 1458
8 1458 1323 1459 1588 1325 1191 1326 1460
8 1205 1336 1464 1329 1328 1462 1590 1461
8 1507 1373 1461 1590 1374 1242 1328 1462
8 1508 1374 1462 1591 1375 1243 1335 1467
8 1337 1206 1329 1464 1473 1341 1463 1594
8 1375 1243 1335 1467 1465 1333 1470 1596
8 1465 1333 1470 1596 1331 1200 1334 1466
8 1352 1227 1334 1466 1488 1360 1470 1596
8 1591 1462 1336 1468 1467 1335 1471 1597
8 1469 1337 1472 1598 1595 1464 1336 1468
8 1471 1339 1474 1600 1335 1204 1338 1470
8 1600 1474 1367 1496 1470 1338 1235 1360
8 1336 1205 1340 1472 1471 1339 1475 1601
8 1337 1206 1341 1473 1472 1340 1476 1602
8 1495 1370 1478 1609 1361 1239 1342 1479
8 1348 1212 1342 1479 1483 1347 1478 1609
8 1481 1346 1479 1610 1345 1210 1343 1480
8 1481 1346 1228 1359 1610 1479 1361 1494
8 1484 1348 1214 1351 1610 1479 1343 1480
8 1483 1347 1482 1612 1350 1213 1349 1486
8 1484 1348 1483 1613 1351 1214 1350 1487
8 1353 1230 1360 1488 1489 1363 1496 1616
8 1490 1364 1231 1354 1617 1499 1363 1489
8 1490 1364 1499 1617 1355 1232 1365 1491
8 1356 1234 1365 1491 1492 1366 1500 1619
8 1492 1366 1498 1620 1357 1233 1362 1493
8 1494 1361 1228 1359 1621 1497 1362 1493
8 1495 1370 1239 1361 1622 1504 1371 1497
8 1363 1236 1367 1496 1499 1368 1501 1623
8 1497 1371 1240 1362 1624 1505 1372 1498
8 1625 1503 1372 1498 1500 1369 1241 1366
8 1365 1238 1368 1499 1500 1369 1502 1626
8 1520 1398 1506 1633 1388 1266 1373 1507
8 1634 1507 1374 1508 1512 1388 1255 1380
8 1509 1387 1519 1635 1377 1258 1391 1510
8 1405 1276 1406 1534 1509 1387 1519 1635
8 1515 1392 1260 1383 1636 1522 1390 1511
8 1511 1390 1259 1379 1636 1522 1391 1510
8 1385 1256 1389 1517 1512 1388 1520 1637
8 1513 1394 1262 1382 1638 1524 1393 1514
8 1395 1516 1638 1524 1263 1384 1513 1394
8 1515 1392 1523 1639 1383 1260 1393 1514
8 1516 1395 1526 1640 1386 1264 1396 1518
8 1386 1264 1396 1518 1517 1389 1521 1641
8 1519 1397 1527 1643 1391 1269 1400 1522
8 1535 1407 1527 1643 1406 1277 1397 1519
8 1389 1267 1399 1521 1520 1398 1528 1644
8 1645 1529 1399 1521 1525 1404 1274 1396
8 1392 1270 1400 1522 1523 1401 1531 1646
8 1524 1402 1271 1393 1648 1532 1401 1523
8 1403 1526 1648 1532 1273 1395 1524 1402
8 1525 1404 1274 1396 1649 1533 1403 1526
8 1539 1414 1535 1657 1411 1286 1406 1534
8 1542 1415 1536 1658 1414 1287 1407 1535
8 1409 1285 1412 1537 1538 1413 1540 1660
8 1545 1421 1540 1660 1418 1292 1412 1537
8 1539 1414 1286 1411 1661 1541 1413 1538
8 1540 1417 1544 1663 1413 1288 1416 1541
8 1421 1296 1425 1548 1540 1417 1544 1663
8 1542 1415 1287 1414 1664 1543 1416 1541
8 1420 1294 1423 1547 1545 1421 1548 1666
8 1547 1423 1293 1419 1667 1549 1422 1546
8 1434 1301 1427 1553 1546 1422 1549 1667
8 1423 1297 1424 1549 1548 1425 1550 1668
8 1551 1426 1550 1668 1427 1298 1424 1549
8 1551 1426 1298 1427 1671 1552 1428 1554
8 1562 1432 1554 1674 1434 1301 1427 1553
8 1431 1299 1429 1558 1554 1428 1555 1675
8 1431 1299 1430 1560 1558 1429 1557 1680
8 1560 1430 1300 1432 1683 1559 1433 1563
8 1561 1431 1554 1674 1684 1560 1432 1562
8 1685 1563 1432 1562 1565 1435 1301 1434
8 1435 1302 1436 1566 1563 1433 1564 1686
8 1437 1303 1438 1568 1565 1435 1566 1688
8 1438 1304 1439 1569 1566 1436 1567 1689
8 1440 1306 1441 1571 1568 1438 1569 1691
8 1441 1307 1442 1572 1569 1439 1570 1692
8 1443 1309 1444 1574 1571 1441 1572 1694
8 1310 1444 1572 1442 1445 1575 1695 1573
8 1446 1312 1447 1576 1574 1444 1575 1696
8 1486 1349 1485 1614 1579 1449 1577 1699
8 1451 1317 1449 1579 1581 1450 1578 1701
8 1487 1350 1486 1615 1582 1451 1579 1702
8 1581 1450 1580 1704 1453 1318 1452 1584
8 1582 1451 1581 1705 1454 1319 1453 1585
8 1584 1452 1583 1706 1456 1320 1455 1586
8 1585 1453 1584 1707 1457 1321 1456 1587
8 1587 1456 1586 1708 1458 1323 1459 1588
8 1633 1506 1589 1710 1507 1373 1461 1590
8 1464 1329 1461 1590 1594 1463 1589 1710
8 1468 1336 1462 1591 1595 1464 1590 1711
8 1634 1507 1590 1711 1508 1374 1462 1591
8 1473 1341 1463 1594 1603 1477 1593 1716
8 1469 1337 1464 1595 1599 1473 1594 1717
8 1471 1597 1467 1335 1600 1718 1596 1470
8 1718 1600 1496 1616 1596 1470 1360 1488
8 1336 1468 1597 1471 1472 1598 1719 1601
8 1469 1337 1473 1599 1598 1472 1602 1720
8 1722 1604 1501 1623 1600 1474 1367 1496
8 1475 1601 1471 1339 1604 1722 1600 1474
8 1602 1476 1605 1723 1472 1340 1475 1601
8 1476 1602 1724 1606 1341 1473 1603 1477
8 1483 1347 1478 1609 1612 1482 1608 1731
8 1495 1370 1504 1622 1609 1478 1608 1731
8 1618 1495 1609 1732 1494 1361 1479 1610
8 1484 1348 1479 1610 1613 1483 1609 1732
8 1486 1349 1482 1612 1614 1485 1611 1733
8 1613 1483 1612 1734 1487 1350 1486 1615
8 1489 1363 1496 1616 1617 1499 1623 1736
8 1491 1365 1499 1617 1619 1500 1626 1737
8 1618 1495 1361 1494 1738 1622 1497 1621
8 1739 1625 1498 1620 1619 1500 1366 1492
8 1621 1497 1362 1493 1740 1624 1498 1620
8 1742 1631 1504 1622 1624 1505 1371 1497
8 1743 1628 1502 1626 1623 1501 1368 1499
8 1744 1630 1505 1624 1625 1503 1372 1498
8 1745 1629 1503 1625 1626 1502 1369 1500
8 1520 1398 1528 1644 1633 1506 1632 1751
8 1637 1520 1633 1752 1512 1388 1507 1634
8 1635 1519 1643 1753 1510 1391 1522 1636
8 1657 1535 1643 1753 1534 1406 1519 1635
8 1515 1392 1522 1636 1639 1523 1646 1754
8 1517 1389 1521 1641 1637 1520 1644 1755
8 1524 1638 1756 1648 1393 1514 1639 1523
8 1640 1526 1395 1516 1756 1648 1524 1638
8 1642 1525 1396 1518 1757 1649 1526 1640
8 1758 1645 1521 1641 1642 1525 1396 1518
8 1646 1531 1400 1522 1760 1650 1527 1643
8 1535 1407 1536 1658 1643 1527 1650 1760
8 1521 1399 1529 1645 1644 1528 1651 1761
8 1647 1530 1652 1762 1525 1404 1529 1645
8 1401 1523 1648 1532 1531 1646 1763 1655
8 1525 1404 1533 1649 1647 1530 1654 1765
8 1533 1649 1766 1656 1403 1526 1648 1532
8 1662 1542 1658 1774 1539 1414 1535 1657
8 1542 1415 1543 1664 1658 1536 1659 1775
8 1660 1540 1663 1777 1538 1413 1541 1661
8 1545 1421 1548 1666 1660 1540 1663 1777
8 1662 1542 1414 1539 1778 1664 1541 1661
8 1664 1543 1416 1541 1779 1665 1544 1663
8 1548 1425 1550 1668 1663 1544 1665 1779
8 1547 1423 1549 1667 1666 1548 1668 1781
8 1670 1551 1668 1781 1553 1427 1549 1667
8 1551 1426 1552 1671 1668 1550 1669 1782
8 1670 1551 1427 1553 1784 1671 1554 1674
8 1675 1555 1672 1785 1554 1428 1552 1671
8 1678 1556 1673 1789 1558 1429 1555 1675
8 1561 1431 1558 1681 1674 1554 1675 1790
8 1794 1677 1556 1678 1680 1557 1429 1558
8 1560 1430 1559 1683 1680 1557 1679 1797
8 1561 1431 1560 1684 1681 1558 1680 1798
8 1563 1433 1564 1686 1683 1559 1682 1800
8 1684 1560 1432 1562 1801 1683 1563 1685
8 1565 1435 1566 1688 1685 1563 1686 1802
8 1566 1436 1567 1689 1686 1564 1687 1803
8 1568 1438 1569 1691 1688 1566 1689 1805
8 1569 1439 1570 1692 1689 1567 1690 1806
8 1571 1441 1572 1694 1691 1569 1692 1808
8 1442 1572 1692 1570 1573 1695 1809 1693
8 1574 1444 1575 1696 1694 1572 1695 1810
8 1614 1485 1592 1712 1699 1577 1697 1813
8 1579 1449 1577 1699 1701 1578 1698 1815
8 1615 1486 1614 1735 1702 1579 1699 1816
8 1701 1578 1700 1818 1581 1450 1580 1704
8 1582 1451 1579 1702 1705 1581 1701 1819
8 1704 1580 1703 1820 1584 1452 1583 1706
8 1705 1581 1704 1821 1585 1453 1584 1707
8 1707 1584 1706 1822 1587 1456 1586 1708
8 1710 1589 1506 1633 1824 1709 1632 1751
8 1594 1463 1589 1710 1716 1593 1709 1824
8 1752 1633 1710 1825 1634 1507 1590 1711
8 1595 1464 1590 1711 1717 1594 1710 1825
8 1830 1714 1592 1712 1733 1611 1485 1614
8 1603 1477 1593 1716 1725 1607 1715 1834
8 1599 1473 1594 1717 1721 1603 1716 1835
8 1837 1722 1623 1736 1718 1600 1496 1616
8 1719 1601 1722 1837 1597 1471 1600 1718
8 1602 1720 1598 1472 1723 1838 1719 1601
8 1720 1602 1473 1599 1839 1724 1603 1721
8 1723 1605 1726 1840 1601 1475 1604 1722
8 1840 1726 1628 1743 1722 1604 1501 1623
8 1724 1606 1727 1841 1602 1476 1605 1723
8 1725 1607 1728 1842 1603 1477 1606 1724
8 1612 1482 1608 1731 1733 1611 1730 1849
8 1741 1627 1730 1849 1622 1504 1608 1731
8 1613 1483 1609 1732 1734 1612 1731 1850
8 1618 1495 1622 1738 1732 1609 1731 1850
8 1615 1486 1612 1734 1735 1614 1733 1851
8 1852 1743 1626 1737 1736 1623 1499 1617
8 1853 1745 1625 1739 1737 1626 1500 1619
8 1855 1742 1622 1738 1740 1624 1497 1621
8 1856 1744 1624 1740 1739 1625 1498 1620
8 1741 1627 1504 1622 1857 1746 1631 1742
8 1742 1631 1505 1624 1858 1749 1630 1744
8 1859 1747 1629 1745 1743 1628 1502 1626
8 1860 1748 1630 1744 1745 1629 1503 1625
8 1644 1528 1651 1761 1751 1632 1750 1865
8 1637 1520 1644 1755 1752 1633 1751 1866
8 1754 1646 1522 1636 1867 1760 1643 1753
8 1657 1535 1658 1774 1753 1643 1760 1867
8 1639 1523 1646 1754 1756 1648 1763 1868
8 1641 1521 1645 1758 1755 1644 1761 1869
8 1757 1649 1526 1640 1870 1766 1648 1756
8 1642 1525 1649 1757 1759 1647 1765 1871
8 1759 1647 1762 1872 1642 1525 1645 1758
8 1760 1650 1767 1874 1646 1531 1655 1763
8 1658 1536 1659 1775 1760 1650 1767 1874
8 1762 1652 1768 1875 1645 1529 1651 1761
8 1764 1653 1769 1876 1647 1530 1652 1762
8 1656 1766 1877 1773 1532 1648 1763 1655
8 1771 1879 1765 1654 1653 1764 1647 1530
8 1533 1649 1765 1654 1656 1766 1880 1772
8 1662 1542 1664 1778 1774 1658 1775 1887
8 1664 1543 1665 1779 1775 1659 1776 1888
8 1778 1664 1541 1661 1890 1779 1663 1777
8 1666 1548 1668 1781 1777 1663 1779 1890
8 1782 1669 1780 1891 1668 1550 1665 1779
8 1670 1551 1671 1784 1781 1668 1782 1893
8 1671 1552 1672 1785 1782 1669 1783 1894
8 1790 1675 1785 1896 1674 1554 1671 1784
8 1675 1555 1673 1789 1785 1672 1786 1897
8 1792 1676 1788 1903 1678 1556 1673 1789
8 1795 1678 1789 1904 1681 1558 1675 1790
8 1792 1676 1556 1678 1906 1791 1677 1794
8 1680 1557 1679 1797 1794 1677 1793 1909
8 1910 1794 1678 1795 1798 1680 1558 1681
8 1683 1559 1682 1800 1797 1679 1796 1912
8 1684 1560 1683 1801 1798 1680 1797 1913
8 1686 1564 1687 1803 1800 1682 1799 1915
8 1685 1563 1686 1802 1801 1683 1800 1916
8 1688 1566 1689 1805 1802 1686 1803 1917
8 1689 1567 1690 1806 1803 1687 1804 1918
8 1691 1569 1692 1808 1805 1689 1806 1920
8 1692 1570 1693 1809 1806 1690 1807 1921
8 1694 1572 1695 1810 1808 1692 1809 1922
8 1829 1713 1811 1926 1712 1592 1697 1813
8 1813 1697 1812 1928 1699 1577 1698 1815
8 1735 1614 1712 1828 1816 1699 1813 1929
8 1815 1698 1814 1931 1701 1578 1700 1818
8 1702 1579 1699 1816 1819 1701 1815 1932
8 1818 1700 1817 1933 1704 1580 1703 1820
8 1819 1701 1818 1934 1705 1581 1704 1821
8 1821 1704 1820 1935 1707 1584 1706 1822
8 1824 1709 1632 1751 1937 1823 1750 1865
8 1716 1593 1709 1824 1834 1715 1823 1937
8 1825 1710 1633 1752 1938 1824 1751 1866
8 1717 1594 1710 1825 1835 1716 1824 1938
8 1945 1830 1712 1828 1851 1733 1614 1735
8 1830 1714 1831 1946 1712 1592 1713 1829
8 1947 1832 1714 1830 1849 1730 1611 1733
8 1843 1729 1607 1725 1950 1833 1715 1834
8 1721 1603 1716 1835 1836 1725 1834 1951
8 1836 1725 1842 1953 1721 1603 1724 1839
8 1723 1838 1719 1601 1840 1954 1837 1722
8 1954 1840 1743 1852 1837 1722 1623 1736
8 1724 1839 1720 1602 1841 1955 1838 1723
8 1841 1727 1844 1956 1723 1605 1726 1840
8 1956 1844 1747 1859 1840 1726 1628 1743
8 1728 1842 1724 1606 1845 1957 1841 1727
8 1725 1607 1729 1843 1842 1728 1846 1958
8 1741 1627 1746 1857 1849 1730 1848 1965
8 1734 1612 1731 1850 1851 1733 1849 1966
8 1854 1741 1849 1966 1738 1622 1731 1850
8 1967 1859 1745 1853 1852 1743 1626 1737
8 1968 1860 1744 1856 1853 1745 1625 1739
8 1854 1741 1622 1738 1969 1857 1742 1855
8 1855 1742 1624 1740 1970 1858 1744 1856
8 1857 1746 1631 1742 1971 1861 1749 1858
8 1858 1749 1630 1744 1972 1863 1748 1860
8 1859 1747 1862 1973 1745 1629 1748 1860
8 1875 1768 1864 1977 1761 1651 1750 1865
8 1755 1644 1761 1869 1866 1751 1865 1978
8 1867 1760 1874 1979 1754 1646 1763 1868
8 1774 1658 1775 1887 1867 1760 1874 1979
8 1870 1766 1648 1756 1980 1877 1763 1868
8 1872 1762 1875 1981 1758 1645 1761 1869
8 1757 1649 1766 1870 1871 1765 1880 1982
8 1983 1879 1764 1873 1871 1765 1647 1759
8 1873 1764 1876 1984 1759 1647 1762 1872
8 1877 1773 1655 1763 1986 1881 1767 1874
8 1775 1659 1776 1888 1874 1767 1881 1986
8 1876 1769 1882 1987 1762 1652 1768 1875
8 1878 1770 1883 1988 1764 1653 1769 1876
8 1880 1772 1656 1766 1989 1886 1773 1877
8 1878 1770 1653 1764 1990 1884 1771 1879
8 1765 1654 1772 1880 1879 1771 1885 1991
8 1778 1664 1779 1890 1887 1775 1888 1997
8 1998 1889 1776 1888 1891 1780 1665 1779
8 1893 1782 1891 2000 1781 1668 1779 1890
8 1894 1783 1892 2001 1782 1669 1780 1891
8 1784 1671 1785 1896 1893 1782 1894 2003
8 1897 1786 1895 2004 1785 1672 1783 1894
8 1790 1675 1789 1904 1896 1785 1897 2006
8 1901 1787 1898 2007 1789 1673 1786 1897
8 1903 1788 1900 2013 1789 1673 1787 1901
8 1792 1676 1791 1906 1903 1788 1902 2016
8 1907 1792 1903 2017 1795 1678 1789 1904
8 1906 1791 1677 1794 2019 1905 1793 1909
8 1907 1792 1678 1795 2020 1906 1794 1910
8 1797 1679 1796 1912 1909 1793 1908 2022
8 1798 1680 1797 1913 1910 1794 1909 2023
8 1800 1682 1799 1915 1912 1796 1911 2025
8 1801 1683 1800 1916 1913 1797 1912 2026
8 1803 1687 1804 1918 1915 1799 1914 2028
8 1802 1686 1803 1917 1916 1800 1915 2029
8 1805 1689 1806 1920 1917 1803 1918 2030
8 1806 1690 1807 1921 1918 1804 1919 2031
8 1808 1692 1809 1922 1920 1806 1921 2032
8 1939 1826 1924 2037 1829 1713 1811 1926
8 1926 1811 1925 2039 1813 1697 1812 1928
8 1944 1829 1926 2040 1828 1712 1813 1929
8 1928 1812 1927 2042 1815 1698 1814 1931
8 1929 1813 1928 2043 1816 1699 1815 1932
8 1931 1814 1930 2044 1818 1700 1817 1933
8 1932 1815 1931 2045 1819 1701 1818 1934
8 1934 1818 1933 2046 1821 1704 1820 1935
8 2048 1936 1823 1937 1977 1864 1750 1865
8 1950 1833 1715 1834 2048 1936 1823 1937
8 1938 1824 1751 1866 2049 1937 1865 1978
8 1835 1716 1824 1938 1951 1834 1937 2049
8 1939 1826 1713 1829 2053 1942 1831 1946
8 1940 1827 1923 2035 2053 1942 1826 1939
8 1945 1830 1946 2058 1828 1712 1829 1944
8 2059 1947 1830 1945 1966 1849 1733 1851
8 1947 1832 1730 1849 2060 1948 1848 1965
8 1947 1832 1948 2060 1830 1714 1831 1946
8 1959 1847 1729 1843 2063 1949 1833 1950
8 1952 1843 1725 1836 2064 1950 1834 1951
8 1836 1725 1843 1952 1953 1842 1958 2066
8 1953 1842 1957 2067 1839 1724 1841 1955
8 1841 1955 1838 1723 1956 2068 1954 1840
8 2068 1956 1859 1967 1954 1840 1743 1852
8 1956 1844 1960 2069 1859 1747 1862 1973
8 1845 1957 1841 1727 1960 2069 1956 1844
8 1728 1842 1957 1845 1846 1958 2071 1961
8 1962 2072 1959 1847 1846 1958 1843 1729
8 1971 1861 1964 2077 1857 1746 1848 1965
8 1854 1741 1857 1969 1966 1849 1965 2078
8 1967 1859 1973 2079 1853 1745 1860 1968
8 1970 1858 1744 1856 2080 1972 1860 1968
8 1969 1857 1742 1855 2081 1971 1858 1970
8 1971 1861 1749 1858 2082 1974 1863 1972
8 1973 1862 1975 2083 1860 1748 1863 1972
8 1987 1882 1976 2086 1875 1768 1864 1977
8 1981 1875 1977 2087 1869 1761 1865 1978
8 1980 1877 1763 1868 2088 1986 1874 1979
8 1887 1775 1888 1997 1979 1874 1986 2088
8 1880 1982 2089 1989 1766 1870 1980 1877
8 1984 1876 1987 2090 1872 1762 1875 1981
8 1765 1871 1983 1879 1880 1982 2091 1991
8 1985 1878 1764 1873 2092 1990 1879 1983
8 1985 1878 1988 2093 1873 1764 1876 1984
8 2094 1992 1881 1986 1998 1889 1776 1888
8 1986 1881 1992 2094 1877 1773 1886 1989
8 1988 1883 1993 2095 1876 1769 1882 1987
8 1878 1770 1884 1990 1988 1883 1994 2096
8 1991 1885 1772 1880 2097 1996 1886 1989
8 1879 1771 1885 1991 1990 1884 1995 2098
8 2103 1998 1888 1997 2000 1891 1779 1890
8 2104 1999 1889 1998 2001 1892 1780 1891
8 2003 1894 2001 2106 1893 1782 1891 2000
8 2004 1895 2002 2107 1894 1783 1892 2001
8 2006 1897 2004 2109 1896 1785 1894 2003
8 2007 1898 2005 2110 1897 1786 1895 2004
8 2014 1901 2007 2112 1904 1789 1897 2006
8 2011 1899 2008 2113 1901 1787 1898 2007
8 2119 2010 1899 2011 2013 1900 1787 1901
8 2016 1902 2012 2122 1903 1788 1900 2013
8 2017 1903 2013 2123 1904 1789 1901 2014
8 1906 1791 1905 2019 2016 1902 2015 2125
8 1907 1792 1906 2020 2017 1903 2016 2126
8 1909 1793 1908 2022 2019 1905 2018 2128
8 2020 1906 1794 1910 2129 2019 1909 2023
8 1912 1796 1911 2025 2022 1908 2021 2131
8 1913 1797 1912 2026 2023 1909 2022 2132
8 1915 1799 1914 2028 2025 1911 2024 2134
8 1916 1800 1915 2029 2026 1912 2025 2135
8 1918 1804 1919 2031 2028 1914 2027 2136
8 1917 1803 1918 2030 2029 1915 2028 2137
8 1920 1806 1921 2032 2030 1918 2031 2138
8 1940 1827 1941 2054 2035 1923 2033 2140
8 2035 1923 2034 2143 1939 1826 1924 2037
8 2037 1924 2036 2146 1926 1811 1925 2039
8 2051 1939 2037 2147 1944 1829 1926 2040
8 2039 1925 2038 2149 1928 1812 1927 2042
8 2040 1926 2039 2150 1929 1813 1928 2043
8 2042 1927 2041 2151 1931 1814 1930 2044
8 2043 1928 2042 2152 1932 1815 1931 2045
8 2045 1931 2044 2153 1934 1818 1933 2046
8 2155 2047 1936 2048 2086 1976 1864 1977
8 2063 1949 1833 1950 2155 2047 1936 2048
8 2156 2048 1937 2049 2087 1977 1865 1978
8 2064 1950 1834 1951 2156 2048 1937 2049
8 2051 1939 1829 1944 2160 2053 1946 2058
8 2052 1940 2035 2144 2160 2053 1939 2051
8 2053 1942 1831 1946 2163 2057 1948 2060
8 2055 1943 1827 1940 2163 2057 1942 2053
8 2055 1943 2056 2164 1940 1827 1941 2054
8 2059 1947 1849 1966 2167 2060 1965 2078
8 2059 1947 2060 2167 1945 1830 1946 2058
8 2077 1964 2061 2168 1965 1848 1948 2060
8 2070 1963 1847 1959 2170 2062 1949 2063
8 2065 1959 1843 1952 2171 2063 1950 2064
8 2173 2072 1958 2066 2065 1959 1843 1952
8 1953 1842 1958 2066 2067 1957 2071 2174
8 2068 1956 2069 2175 1967 1859 1973 2079
8 2067 1957 2069 2175 1955 1841 1956 2068
8 1845 1957 2069 1960 1961 2071 2176 2073
8 2069 1960 2073 2176 1973 1862 1975 2083
8 2070 1963 2075 2177 1959 1847 1962 2072
8 1846 1958 2071 1961 1962 2072 2178 2074
8 2077 1964 1861 1971 2182 2076 1974 2082
8 2081 1971 2077 2183 1969 1857 1965 2078
8 2079 1973 2083 2184 1968 1860 1972 2080
8 2081 1971 1858 1970 2185 2082 1972 2080
8 2083 1975 2084 2186 1972 1863 1974 2082
8 2086 1976 1882 1987 2189 2085 1993 2095
8 2090 1987 2086 2190 1981 1875 1977 2087
8 2191 2094 1986 2088 2103 1998 1888 1997
8 2088 1986 2094 2191 1980 1877 1989 2089
8 1991 2091 2192 2097 1880 1982 2089 1989
8 2093 1988 2095 2193 1984 1876 1987 2090
8 1879 1983 2092 1990 1991 2091 2194 2098
8 1985 1878 1990 2092 2093 1988 2096 2195
8 2097 1996 1886 1989 2196 2099 1992 2094
8 2196 2099 1992 2094 2104 1999 1889 1998
8 1994 2096 1988 1883 2100 2197 2095 1993
8 2096 1994 1884 1990 2198 2101 1995 2098
8 1995 2098 2199 2102 1885 1991 2097 1996
8 2203 2104 1998 2103 2106 2001 1891 2000
8 2107 2002 2105 2204 2001 1892 1999 2104
8 2109 2004 2107 2206 2003 1894 2001 2106
8 2110 2005 2108 2207 2004 1895 2002 2107
8 2112 2007 2110 2209 2006 1897 2004 2109
8 2113 2008 2111 2210 2007 1898 2005 2110
8 2120 2011 2113 2212 2014 1901 2007 2112
8 2117 2009 2114 2213 2011 1899 2008 2113
8 2219 2116 2009 2117 2119 2010 1899 2011
8 2222 2118 2010 2119 2122 2012 1900 2013
8 2223 2119 2011 2120 2123 2013 1901 2014
8 2016 1902 2015 2125 2122 2012 2121 2225
8 2126 2016 2122 2226 2017 1903 2013 2123
8 2019 1905 2018 2128 2125 2015 2124 2228
8 2020 1906 2019 2129 2126 2016 2125 2229
8 2022 1908 2021 2131 2128 2018 2127 2231
8 2023 1909 2022 2132 2129 2019 2128 2232
8 2025 1911 2024 2134 2131 2021 2130 2234
8 2026 1912 2025 2135 2132 2022 2131 2235
8 1914 2028 2134 2024 2027 2136 2236 2133
8 2029 1915 2028 2137 2135 2025 2134 2237
8 2030 1918 2031 2138 2137 2028 2136 2238
8 2157 2050 2139 2240 2054 1941 2033 2140
8 2052 1940 2054 2161 2144 2035 2140 2242
8 2140 2033 2141 2243 2035 1923 2034 2143
8 2143 2034 2142 2246 2037 1924 2036 2146
8 2144 2035 2143 2247 2051 1939 2037 2147
8 2146 2036 2145 2249 2039 1925 2038 2149
8 2147 2037 2146 2250 2040 1926 2039 2150
8 2149 2038 2148 2251 2042 1927 2041 2151
8 2150 2039 2149 2252 2043 1928 2042 2152
8 2152 2042 2151 2253 2045 1931 2044 2153
8 2255 2154 2047 2155 2189 2085 1976 2086
8 2170 2062 1949 2063 2255 2154 2047 2155
8 2256 2155 2048 2156 2190 2086 1977 2087
8 2171 2063 1950 2064 2256 2155 2048 2156
8 2258 2159 2050 2157 2164 2056 1941 2054
8 2160 2053 1946 2058 2262 2163 2060 2167
8 2162 2055 1940 2052 2262 2163 2053 2160
8 2162 2055 2164 2263 2052 1940 2054 2161
8 2163 2057 1948 2060 2264 2165 2061 2168
8 2055 1943 2057 2163 2164 2056 2165 2264
8 2182 2076 2166 2268 2077 1964 2061 2168
8 2183 2077 2168 2269 2078 1965 2060 2167
8 2070 1963 2062 2170 2177 2075 2169 2271
8 2172 2070 1959 2065 2272 2170 2063 2171
8 2172 2070 2177 2273 2065 1959 2072 2173
8 2066 1958 2072 2173 2174 2071 2178 2274
8 2067 1957 2071 2174 2175 2069 2176 2275
8 2175 2069 2176 2275 2079 1973 2083 2184
8 2071 1961 2074 2178 2176 2073 2179 2276
8 2176 2073 2179 2276 2083 1975 2084 2186
8 2072 1962 2075 2177 2178 2074 2180 2277
8 2182 2076 1974 2082 2280 2181 2084 2186
8 2183 2077 1971 2081 2281 2182 2082 2185
8 2184 2083 2186 2282 2080 1972 2082 2185
8 2189 2085 1993 2095 2285 2188 2100 2197
8 2190 2086 1987 2090 2286 2189 2095 2193
8 2192 2097 1989 2089 2287 2196 2094 2191
8 2287 2196 2094 2191 2203 2104 1998 2103
8 2194 2098 1991 2091 2288 2199 2097 2192
8 2195 2096 2197 2289 2093 1988 2095 2193
8 2096 2195 2290 2198 1990 2092 2194 2098
8 2097 1996 2099 2196 2199 2102 2200 2291
8 2196 2099 1999 2104 2291 2200 2105 2204
8 2100 2197 2292 2201 1994 2096 2198 2101
8 1995 2098 2198 2101 2102 2199 2293 2202
8 2206 2107 2204 2296 2106 2001 2104 2203
8 2207 2108 2205 2297 2107 2002 2105 2204
8 2209 2110 2207 2299 2109 2004 2107 2206
8 2210 2111 2208 2300 2110 2005 2108 2207
8 2212 2113 2210 2302 2112 2007 2110 2209
8 2213 2114 2211 2303 2113 2008 2111 2210
8 2220 2117 2213 2305 2120 2011 2113 2212
8 2216 2115 2214 2306 2117 2009 2114 2213
8 2216 2115 2009 2117 2311 2217 2116 2219
8 2219 2116 2010 2119 2314 2218 2118 2222
8 2315 2219 2117 2220 2223 2119 2011 2120
8 2122 2012 2121 2225 2222 2118 2221 2317
8 2318 2222 2119 2223 2226 2122 2013 2123
8 2125 2015 2124 2228 2225 2121 2224 2320
8 2126 2016 2125 2229 2226 2122 2225 2321
8 2128 2018 2127 2231 2228 2124 2227 2323
8 2129 2019 2128 2232 2229 2125 2228 2324
8 2131 2021 2130 2234 2231 2127 2230 2326
8 2132 2022 2131 2235 2232 2128 2231 2327
8 2134 2024 2133 2236 2234 2130 2233 2328
8 2135 2025 2134 2237 2235 2131 2234 2329
8 2137 2028 2136 2238 2237 2134 2236 2330
8 2157 2050 2158 2259 2240 2139 2239 2332
8 2257 2157 2240 2334 2161 2054 2140 2242
8 2240 2139 2241 2335 2140 2033 2141 2243
8 2242 2140 2243 2337 2144 2035 2143 2247
8 2243 2141 2244 2338 2143 2034 2142 2246
8 2246 2142 2245 2341 2146 2036 2145 2249
8 2247 2143 2246 2342 2147 2037 2146 2250
8 2249 2145 2248 2343 2149 2038 2148 2251
8 2250 2146 2249 2344 2150 2039 2149 2252
8 2252 2149 2251 2345 2152 2042 2151 2253
8 2169 2271 2347 2254 2062 2170 2255 2154
8 2189 2085 2188 2285 2255 2154 2254 2347
8 2348 2255 2155 2256 2286 2189 2086 2190
8 2272 2170 2063 2171 2348 2255 2155 2256
8 2349 2258 2157 2257 2263 2164 2054 2161
8 2258 2159 2261 2351 2157 2050 2158 2259
8 2258 2159 2056 2164 2351 2261 2165 2264
8 2262 2163 2060 2167 2355 2264 2168 2269
8 2162 2055 2163 2262 2263 2164 2264 2355
8 2357 2266 2165 2264 2268 2166 2061 2168
8 2268 2166 2076 2182 2361 2267 2181 2280
8 2281 2182 2268 2362 2183 2077 2168 2269
8 2271 2169 2270 2364 2177 2075 2180 2277
8 2172 2070 2170 2272 2273 2177 2271 2365
8 2072 2173 2274 2178 2177 2273 2366 2277
8 2071 2174 2275 2176 2178 2274 2367 2276
8 2275 2176 2276 2367 2184 2083 2186 2282
8 2283 2187 2084 2186 2368 2278 2179 2276
8 2178 2074 2180 2277 2276 2179 2278 2368
8 2283 2187 2279 2370 2186 2084 2181 2280
8 2281 2182 2082 2185 2371 2280 2186 2282
8 2188 2285 2374 2284 2100 2197 2292 2201
8 2286 2189 2095 2193 2375 2285 2197 2289
8 2192 2097 2196 2287 2288 2199 2291 2376
8 2287 2196 2104 2203 2376 2291 2204 2296
8 2194 2098 2199 2288 2290 2198 2293 2377
8 2289 2197 2096 2195 2378 2292 2198 2290
8 2291 2200 2105 2204 2379 2294 2205 2297
8 2199 2102 2200 2291 2293 2202 2294 2379
8 2198 2101 2202 2293 2292 2201 2295 2380
8 2299 2207 2297 2383 2206 2107 2204 2296
8 2300 2208 2298 2384 2207 2108 2205 2297
8 2302 2210 2300 2386 2209 2110 2207 2299
8 2303 2211 2301 2387 2210 2111 2208 2300
8 2305 2213 2303 2389 2212 2113 2210 2302
8 2306 2214 2304 2390 2213 2114 2211 2303
8 2310 2216 2306 2392 2220 2117 2213 2305
8 2308 2215 2307 2393 2216 2115 2214 2306
8 2308 2215 2115 2216 2396 2309 2217 2311
8 2310 2216 2117 2220 2398 2311 2219 2315
8 2311 2217 2116 2219 2399 2312 2218 2314
8 2314 2218 2118 2222 2402 2313 2221 2317
8 2315 2219 2119 2223 2403 2314 2222 2318
8 2225 2121 2224 2320 2317 2221 2316 2405
8 2226 2122 2225 2321 2318 2222 2317 2406
8 2228 2124 2227 2323 2320 2224 2319 2408
8 2229 2125 2228 2324 2321 2225 2320 2409
8 2231 2127 2230 2326 2323 2227 2322 2411
8 2232 2128 2231 2327 2324 2228 2323 2412
8 2234 2130 2233 2328 2326 2230 2325 2413
8 2235 2131 2234 2329 2327 2231 2326 2414
8 2237 2134 2236 2330 2329 2234 2328 2415
8 2259 2158 2260 2352 2332 2239 2331 2417
8 2257 2157 2259 2350 2334 2240 2332 2419
8 2240 2139 2239 2332 2335 2241 2333 2420
8 2334 2240 2335 2422 2242 2140 2243 2337
8 2335 2241 2336 2423 2243 2141 2244 2338
8 2337 2243 2338 2425 2247 2143 2246 2342
8 2338 2244 2339 2426 2246 2142 2245 2341
8 2341 2245 2340 2428 2249 2145 2248 2343
8 2342 2246 2341 2429 2250 2146 2249 2344
8 2344 2249 2343 2430 2252 2149 2251 2345
8 2188 2285 2347 2254 2284 2374 2432 2346
8 2347 2254 2346 2432 2271 2169 2270 2364
8 2365 2271 2170 2272 2433 2347 2255 2348
8 2286 2189 2285 2375 2348 2255 2347 2433
8 2349 2258 2351 2435 2257 2157 2259 2350
8 2349 2258 2164 2263 2435 2351 2264 2355
8 2259 2158 2261 2351 2352 2260 2354 2437
8 2356 2265 2354 2437 2264 2165 2261 2351
8 2441 2357 2264 2355 2362 2268 2168 2269
8 2356 2265 2165 2264 2442 2358 2266 2357
8 2443 2359 2266 2357 2361 2267 2166 2268
8 2370 2279 2360 2446 2280 2181 2267 2361
8 2362 2268 2182 2281 2447 2361 2280 2371
8 2180 2277 2368 2278 2270 2364 2449 2363
8 2271 2365 2273 2177 2364 2450 2366 2277
8 2372 2283 2186 2282 2451 2368 2276 2367
8 2178 2274 2367 2276 2277 2366 2451 2368
8 2283 2187 2278 2368 2370 2279 2369 2452
8 2372 2283 2370 2453 2282 2186 2280 2371
8 2284 2374 2455 2373 2201 2292 2380 2295
8 2375 2285 2197 2289 2456 2374 2292 2378
8 2376 2291 2204 2296 2457 2379 2297 2383
8 2288 2199 2291 2376 2377 2293 2379 2457
8 2198 2290 2378 2292 2293 2377 2458 2380
8 2293 2202 2294 2379 2380 2295 2381 2459
8 2384 2298 2381 2459 2297 2205 2294 2379
8 2386 2300 2384 2463 2299 2207 2297 2383
8 2387 2301 2385 2464 2300 2208 2298 2384
8 2389 2303 2387 2466 2302 2210 2300 2386
8 2390 2304 2388 2467 2303 2211 2301 2387
8 2392 2306 2390 2469 2305 2213 2303 2389
8 2393 2307 2391 2470 2306 2214 2304 2390
8 2395 2308 2393 2472 2310 2216 2306 2392
8 2308 2215 2309 2396 2393 2307 2394 2473
8 2395 2308 2216 2310 2475 2396 2311 2398
8 2396 2309 2217 2311 2476 2397 2312 2399
8 2398 2311 2219 2315 2478 2399 2314 2403
8 2399 2312 2218 2314 2479 2400 2313 2402
8 2317 2221 2316 2405 2402 2313 2401 2482
8 2403 2314 2222 2318 2483 2402 2317 2406
8 2320 2224 2319 2408 2405 2316 2404 2485
8 2321 2225 2320 2409 2406 2317 2405 2486
8 2323 2227 2322 2411 2408 2319 2407 2488
8 2324 2228 2323 2412 2409 2320 2408 2489
8 2326 2230 2325 2413 2411 2322 2410 2490
8 2327 2231 2326 2414 2412 2323 2411 2491
8 2329 2234 2328 2415 2414 2326 2413 2492
8 2417 2331 2260 2352 2494 2416 2353 2438
8 2350 2259 2352 2436 2419 2332 2417 2496
8 2332 2239 2331 2417 2420 2333 2418 2497
8 2334 2240 2332 2419 2422 2335 2420 2499
8 2420 2333 2421 2500 2335 2241 2336 2423
8 2422 2335 2423 2502 2337 2243 2338 2425
8 2423 2336 2424 2503 2338 2244 2339 2426
8 2425 2338 2426 2505 2342 2246 2341 2429
8 2426 2339 2427 2506 2341 2245 2340 2428
8 2429 2341 2428 2507 2344 2249 2343 2430
8 2432 2346 2284 2374 2509 2431 2373 2455
8 2432 2346 2431 2509 2364 2270 2363 2449
8 2375 2285 2374 2456 2433 2347 2432 2510
8 2347 2433 2365 2271 2432 2510 2450 2364
8 2350 2259 2351 2435 2436 2352 2437 2514
8 2440 2356 2437 2514 2355 2264 2351 2435
8 2352 2260 2354 2437 2438 2353 2439 2516
8 2356 2265 2358 2442 2437 2354 2439 2516
8 2440 2356 2264 2355 2518 2442 2357 2441
8 2519 2443 2357 2441 2447 2361 2268 2362
8 2443 2359 2444 2520 2357 2266 2358 2442
8 2443 2359 2267 2361 2520 2444 2360 2446
8 2446 2360 2279 2370 2523 2445 2369 2452
8 2453 2370 2446 2524 2371 2280 2361 2447
8 2449 2363 2448 2525 2368 2278 2369 2452
8 2366 2277 2364 2450 2451 2368 2449 2526
8 2372 2283 2368 2451 2453 2370 2452 2527
8 2455 2373 2295 2380 2529 2454 2382 2460
8 2456 2374 2292 2378 2530 2455 2380 2458
8 2377 2293 2379 2457 2458 2380 2459 2531
8 2463 2384 2459 2531 2383 2297 2379 2457
8 2533 2461 2382 2460 2459 2381 2295 2380
8 2464 2385 2461 2533 2384 2298 2381 2459
8 2466 2387 2464 2537 2386 2300 2384 2463
8 2467 2388 2465 2538 2387 2301 2385 2464
8 2469 2390 2467 2540 2389 2303 2387 2466
8 2470 2391 2468 2541 2390 2304 2388 2467
8 2472 2393 2470 2543 2392 2306 2390 2469
8 2393 2307 2394 2473 2470 2391 2471 2544
8 2395 2308 2396 2475 2472 2393 2473 2546
8 2396 2309 2397 2476 2473 2394 2474 2547
8 2475 2396 2311 2398 2549 2476 2399 2478
8 2476 2397 2312 2399 2550 2477 2400 2479
8 2478 2399 2314 2403 2552 2479 2402 2483
8 2479 2400 2313 2402 2553 2480 2401 2482
8 2405 2316 2404 2485 2482 2401 2481 2556
8 2406 2317 2405 2486 2483 2402 2482 2557
8 2408 2319 2407 2488 2485 2404 2484 2559
8 2409 2320 2408 2489 2486 2405 2485 2560
8 2411 2322 2410 2490 2488 2407 2487 2561
8 2412 2323 2411 2491 2489 2408 2488 2562
8 2414 2326 2413 2492 2491 2411 2490 2563
8 2513 2434 2493 2565 2438 2353 2416 2494
8 2496 2417 2352 2436 2567 2494 2438 2515
8 2494 2416 2495 2568 2417 2331 2418 2497
8 2419 2332 2417 2496 2499 2420 2497 2570
8 2497 2418 2498 2571 2420 2333 2421 2500
8 2499 2420 2500 2573 2422 2335 2423 2502
8 2500 2421 2501 2574 2423 2336 2424 2503
8 2502 2423 2503 2576 2425 2338 2426 2505
8 2503 2424 2504 2577 2426 2339 2427 2506
8 2505 2426 2506 2578 2429 2341 2428 2507
8 2509 2431 2373 2455 2580 2508 2454 2529
8 2509 2431 2508 2580 2449 2363 2448 2525
8 2432 2510 2581 2509 2374 2456 2530 2455
8 2432 2510 2450 2364 2509 2581 2526 2449
8 2583 2511 2434 2513 2516 2439 2353 2438
8 2436 2352 2437 2514 2515 2438 2516 2588
8 2440 2356 2442 2518 2514 2437 2516 2588
8 2442 2358 2444 2520 2516 2439 2517 2589
8 2519 2443 2520 2591 2441 2357 2442 2518
8 2519 2443 2361 2447 2591 2520 2446 2524
8 2446 2360 2445 2523 2520 2444 2521 2592
8 2525 2448 2522 2593 2452 2369 2445 2523
8 2524 2446 2370 2453 2594 2523 2452 2527
8 2526 2449 2525 2595 2451 2368 2452 2527
8 2534 2462 2528 2597 2460 2382 2454 2529
8 2530 2455 2380 2458 2598 2529 2460 2532
8 2599 2533 2460 2532 2531 2459 2380 2458
8 2537 2464 2533 2599 2463 2384 2459 2531
8 2534 2462 2382 2460 2601 2535 2461 2533
8 2538 2465 2535 2601 2464 2385 2461 2533
8 2540 2467 2538 2604 2466 2387 2464 2537
8 2541 2468 2539 2605 2467 2388 2465 2538
8 2543 2470 2541 2607 2469 2390 2467 2540
8 2470 2391 2471 2544 2541 2468 2542 2608
8 2472 2393 2473 2546 2543 2470 2544 2610
8 2473 2394 2474 2547 2544 2471 2545 2611
8 2475 2396 2476 2549 2546 2473 2547 2613
8 2476 2397 2477 2550 2547 2474 2548 2614
8 2549 2476 2399 2478 2616 2550 2479 2552
8 2479 2400 2480 2553 2550 2477 2551 2617
8 2552 2479 2402 2483 2619 2553 2482 2557
8 2482 2401 2481 2556 2553 2480 2554 2620
8 2485 2404 2484 2559 2556 2481 2555 2623
8 2486 2405 2485 2560 2557 2482 2556 2624
8 2488 2407 2487 2561 2559 2484 2558 2625
8 2489 2408 2488 2562 2560 2485 2559 2626
8 2491 2411 2490 2563 2562 2488 2561 2627
8 2513 2434 2512 2585 2565 2493 2564 2630
8 2586 2513 2565 2632 2515 2438 2494 2567
8 2565 2493 2566 2633 2494 2416 2495 2568
8 2567 2494 2568 2635 2496 2417 2497 2570
8 2568 2495 2569 2636 2497 2418 2498 2571
8 2570 2497 2571 2638 2499 2420 2500 2573
8 2571 2498 2572 2639 2500 2421 2501 2574
8 2573 2500 2574 2641 2502 2423 2503 2576
8 2574 2501 2575 2642 2503 2424 2504 2577
8 2576 2503 2577 2643 2505 2426 2506 2578
8 2597 2528 2579 2645 2529 2454 2508 2580
8 2580 2508 2579 2645 2525 2448 2522 2593
8 2581 2509 2455 2530 2646 2580 2529 2598
8 2581 2509 2580 2646 2526 2449 2525 2595
8 2583 2511 2582 2648 2513 2434 2512 2585
8 2583 2511 2439 2516 2648 2582 2517 2589
8 2649 2583 2513 2586 2588 2516 2438 2515
8 2589 2517 2444 2520 2653 2587 2521 2592
8 2518 2442 2520 2591 2588 2516 2589 2654
8 2593 2522 2590 2655 2523 2445 2521 2592
8 2524 2446 2523 2594 2591 2520 2592 2656
8 2595 2525 2593 2657 2527 2452 2523 2594
8 2602 2536 2596 2659 2534 2462 2528 2597
8 2600 2534 2597 2660 2532 2460 2529 2598
8 2600 2534 2460 2532 2661 2601 2533 2599
8 2604 2538 2601 2661 2537 2464 2533 2599
8 2602 2536 2462 2534 2663 2603 2535 2601
8 2601 2535 2465 2538 2663 2603 2539 2605
8 2607 2541 2605 2665 2540 2467 2538 2604
8 2608 2542 2606 2666 2541 2468 2539 2605
8 2543 2470 2544 2610 2607 2541 2608 2668
8 2544 2471 2545 2611 2608 2542 2609 2669
8 2546 2473 2547 2613 2610 2544 2611 2671
8 2547 2474 2548 2614 2611 2545 2612 2672
8 2549 2476 2550 2616 2613 2547 2614 2674
8 2550 2477 2551 2617 2614 2548 2615 2675
8 2552 2479 2553 2619 2616 2550 2617 2677
8 2553 2480 2554 2620 2617 2551 2618 2678
8 2557 2482 2556 2624 2619 2553 2620 2680
8 2556 2481 2555 2623 2620 2554 2621 2681
8 2559 2484 2558 2625 2623 2555 2622 2683
8 2560 2485 2559 2626 2624 2556 2623 2684
8 2562 2488 2561 2627 2626 2559 2625 2685
8 2690 2629 2564 2630 2650 2584 2512 2585
8 2586 2513 2585 2651 2632 2565 2630 2691
8 2630 2564 2631 2692 2565 2493 2566 2633
8 2632 2565 2633 2694 2567 2494 2568 2635
8 2633 2566 2634 2695 2568 2495 2569 2636
8 2635 2568 2636 2697 2570 2497 2571 2638
8 2636 2569 2637 2698 2571 2498 2572 2639
8 2638 2571 2639 2700 2573 2500 2574 2641
8 2639 2572 2640 2701 2574 2501 2575 2642
8 2641 2574 2642 2702 2576 2503 2577 2643
8 2597 2528 2596 2659 2645 2579 2644 2704
8 2645 2579 2644 2704 2593 2522 2590 2655
8 2660 2597 2645 2705 2598 2529 2580 2646
8 2646 2580 2645 2705 2595 2525 2593 2657
8 2650 2584 2512 2585 2707 2647 2582 2648
8 2648 2582 2517 2589 2707 2647 2587 2653
8 2649 2583 2648 2708 2586 2513 2585 2651
8 2649 2583 2516 2588 2708 2648 2589 2654
8 2655 2590 2652 2710 2592 2521 2587 2653
8 2654 2589 2520 2591 2711 2653 2592 2656
8 2657 2593 2655 2712 2594 2523 2592 2656
8 2602 2536 2603 2663 2659 2596 2658 2714
8 2662 2602 2659 2715 2600 2534 2597 2660
8 2662 2602 2534 2600 2717 2663 2601 2661
8 2661 2601 2538 2604 2717 2663 2605 2665
8 2666 2606 2664 2718 2605 2539 2603 2663
8 2668 2608 2666 2720 2607 2541 2605 2665
8 2608 2542 2609 2669 2666 2606 2667 2721
8 2610 2544 2611 2671 2668 2608 2669 2723
8 2611 2545 2612 2672 2669 2609 2670 2724
8 2613 2547 2614 2674 2671 2611 2672 2726
8 2614 2548 2615 2675 2672 2612 2673 2727
8 2616 2550 2617 2677 2674 2614 2675 2729
8 2617 2551 2618 2678 2675 2615 2676 2730
8 2619 2553 2620 2680 2677 2617 2678 2732
8 2620 2554 2621 2681 2678 2618 2679 2733
8 2624 2556 2623 2684 2680 2620 2681 2735
8 2681 2621 2555 2623 2736 2682 2622 2683
8 2626 2559 2625 2685 2684 2623 2683 2737
8 2688 2628 2584 2650 2740 2686 2647 2707
8 2688 2628 2687 2742 2650 2584 2629 2690
8 2690 2629 2689 2745 2630 2564 2631 2692
8 2746 2690 2630 2691 2709 2650 2585 2651
8 2691 2630 2692 2747 2632 2565 2633 2694
8 2692 2631 2693 2748 2633 2566 2634 2695
8 2694 2633 2695 2750 2635 2568 2636 2697
8 2695 2634 2696 2751 2636 2569 2637 2698
8 2697 2636 2698 2753 2638 2571 2639 2700
8 2698 2637 2699 2754 2639 2572 2640 2701
8 2700 2639 2701 2755 2641 2574 2642 2702
8 2659 2596 2658 2714 2704 2644 2703 2757
8 2704 2644 2703 2757 2655 2590 2652 2710
8 2660 2597 2659 2715 2705 2645 2704 2758
8 2705 2645 2704 2758 2657 2593 2655 2712
8 2759 2706 2647 2707 2710 2652 2587 2653
8 2709 2650 2585 2651 2760 2707 2648 2708
8 2708 2648 2589 2654 2760 2707 2653 2711
8 2712 2655 2710 2761 2656 2592 2653 2711
8 2763 2713 2658 2714 2718 2664 2603 2663
8 2662 2602 2663 2717 2715 2659 2714 2764
8 2720 2666 2718 2767 2665 2605 2663 2717
8 2768 2719 2664 2718 2721 2667 2606 2666
8 2668 2608 2669 2723 2720 2666 2721 2770
8 2669 2609 2670 2724 2721 2667 2722 2771
8 2671 2611 2672 2726 2723 2669 2724 2773
8 2672 2612 2673 2727 2724 2670 2725 2774
8 2674 2614 2675 2729 2726 2672 2727 2776
8 2675 2615 2676 2730 2727 2673 2728 2777
8 2677 2617 2678 2732 2729 2675 2730 2779
8 2678 2618 2679 2733 2730 2676 2731 2780
8 2680 2620 2681 2735 2732 2678 2733 2782
8 2733 2679 2621 2681 2783 2734 2682 2736
8 2735 2681 2623 2684 2784 2736 2683 2737
8 2740 2686 2647 2707 2787 2738 2706 2759
8 2688 2628 2686 2740 2742 2687 2739 2789
8 2743 2688 2650 2709 2790 2740 2707 2760
8 2742 2687 2741 2792 2690 2629 2689 2745
8 2743 2688 2742 2793 2709 2650 2690 2746
8 2745 2689 2744 2795 2692 2631 2693 2748
8 2746 2690 2745 2796 2691 2630 2692 2747
8 2747 2692 2748 2797 2694 2633 2695 2750
8 2748 2693 2749 2798 2695 2634 2696 2751
8 2750 2695 2751 2800 2697 2636 2698 2753
8 2751 2696 2752 2801 2698 2637 2699 2754
8 2753 2698 2754 2802 2700 2639 2701 2755
8 2763 2713 2756 2804 2714 2658 2703 2757
8 2759 2706 2652 2710 2804 2756 2703 2757
8 2715 2659 2714 2764 2758 2704 2757 2805
8 2758 2704 2757 2805 2712 2655 2710 2761
8 2806 2759 2707 2760 2761 2710 2653 2711
8 2765 2716 2762 2808 2718 2664 2713 2763
8 2809 2763 2714 2764 2767 2718 2663 2717
8 2765 2716 2664 2718 2811 2766 2719 2768
8 2813 2768 2718 2767 2770 2721 2666 2720
8 2814 2769 2719 2768 2771 2722 2667 2721
8 2723 2669 2724 2773 2770 2721 2771 2816
8 2724 2670 2725 2774 2771 2722 2772 2817
8 2726 2672 2727 2776 2773 2724 2774 2819
8 2727 2673 2728 2777 2774 2725 2775 2820
8 2729 2675 2730 2779 2776 2727 2777 2822
8 2730 2676 2731 2780 2777 2728 2778 2823
8 2732 2678 2733 2782 2779 2730 2780 2825
8 2780 2731 2679 2733 2826 2781 2734 2783
8 2782 2733 2681 2735 2827 2783 2736 2784
8 2830 2785 2738 2787 2804 2756 2706 2759
8 2789 2739 2686 2740 2832 2786 2738 2787
8 2790 2740 2707 2760 2833 2787 2759 2806
8 2742 2687 2739 2789 2792 2741 2788 2835
8 2743 2688 2740 2790 2793 2742 2789 2836
8 2792 2741 2791 2838 2745 2689 2744 2795
8 2793 2742 2792 2839 2746 2690 2745 2796
8 2795 2744 2794 2841 2748 2693 2749 2798
8 2796 2745 2795 2842 2747 2692 2748 2797
8 2797 2748 2798 2843 2750 2695 2751 2800
8 2798 2749 2799 2844 2751 2696 2752 2801
8 2800 2751 2801 2845 2753 2698 2754 2802
8 2808 2762 2803 2847 2763 2713 2756 2804
8 2809 2763 2804 2848 2764 2714 2757 2805
8 2806 2759 2710 2761 2848 2804 2757 2805
8 2765 2716 2766 2811 2808 2762 2807 2850
8 2810 2765 2808 2851 2767 2718 2763 2809
8 2810 2765 2718 2767 2852 2811 2768 2813
8 2811 2766 2719 2768 2853 2812 2769 2814
8 2855 2814 2768 2813 2816 2771 2721 2770
8 2856 2815 2769 2814 2817 2772 2722 2771
8 2773 2724 2774 2819 2816 2771 2817 2858
8 2774 2725 2775 2820 2817 2772 2818 2859
8 2776 2727 2777 2822 2819 2774 2820 2861
8 2777 2728 2778 2823 2820 2775 2821 2862
8 2779 2730 2780 2825 2822 2777 2823 2864
8 2823 2778 2731 2780 2865 2824 2781 2826
8 2825 2780 2733 2782 2866 2826 2783 2827
8 2869 2828 2785 2830 2847 2803 2756 2804
8 2871 2829 2786 2832 2830 2785 2738 2787
8 2872 2830 2787 2833 2848 2804 2759 2806
8 2789 2739 2786 2832 2835 2788 2831 2874
8 2836 2789 2740 2790 2875 2832 2787 2833
8 2792 2741 2788 2835 2838 2791 2834 2877
8 2793 2742 2789 2836 2839 2792 2835 2878
8 2838 2791 2837 2880 2795 2744 2794 2841
8 2839 2792 2838 2881 2796 2745 2795 2842
8 2841 2794 2840 2882 2798 2749 2799 2844
8 2842 2795 2841 2883 2797 2748 2798 2843
8 2843 2798 2844 2884 2800 2751 2801 2845
8 2886 2846 2803 2847 2850 2807 2762 2808
8 2851 2808 2847 2887 2809 2763 2804 2848
8 2850 2807 2766 2811 2889 2849 2812 2853
8 2810 2765 2811 2852 2851 2808 2850 2890
8 2852 2811 2768 2813 2891 2853 2814 2855
8 2853 2812 2769 2814 2892 2854 2815 2856
8 2894 2856 2814 2855 2858 2817 2771 2816
8 2817 2772 2818 2859 2856 2815 2857 2895
8 2819 2774 2820 2861 2858 2817 2859 2897
8 2820 2775 2821 2862 2859 2818 2860 2898
8 2822 2777 2823 2864 2861 2820 2862 2900
8 2823 2778 2824 2865 2862 2821 2863 2901
8 2864 2823 2780 2825 2902 2865 2826 2866
8 2904 2867 2828 2869 2886 2846 2803 2847
8 2869 2828 2868 2906 2830 2785 2829 2871
8 2907 2869 2830 2872 2887 2847 2804 2848
8 2871 2829 2870 2909 2832 2786 2831 2874
8 2910 2871 2832 2875 2872 2830 2787 2833
8 2835 2788 2831 2874 2877 2834 2873 2912
8 2836 2789 2832 2875 2878 2835 2874 2913
8 2877 2834 2876 2915 2838 2791 2837 2880
8 2839 2792 2835 2878 2881 2838 2877 2916
8 2880 2837 2879 2917 2841 2794 2840 2882
8 2881 2838 2880 2918 2842 2795 2841 2883
8 2883 2841 2882 2919 2843 2798 2844 2884
8 2921 2885 2846 2886 2889 2849 2807 2850
8 2922 2886 2847 2887 2890 2850 2808 2851
8 2889 2849 2812 2853 2924 2888 2854 2892
8 2890 2850 2811 2852 2925 2889 2853 2891
8 2891 2853 2814 2855 2926 2892 2856 2894
8 2892 2854 2815 2856 2927 2893 2857 2895
8 2858 2817 2859 2897 2894 2856 2895 2929
8 2859 2818 2860 2898 2895 2857 2896 2930
8 2861 2820 2862 2900 2897 2859 2898 2932
8 2862 2821 2863 2901 2898 2860 2899 2933
8 2864 2823 2865 2902 2900 2862 2901 2934
8 2904 2867 2846 2886 2936 2903 2885 2921
8 2904 2867 2903 2936 2869 2828 2868 2906
8 2937 2904 2869 2907 2922 2886 2847 2887
8 2906 2868 2905 2939 2871 2829 2870 2909
8 2907 2869 2906 2940 2872 2830 2871 2910
8 2909 2870 2908 2942 2874 2831 2873 2912
8 2910 2871 2909 2943 2875 2832 2874 2913
8 2912 2873 2911 2945 2877 2834 2876 2915
8 2878 2835 2874 2913 2916 2877 2912 2946
8 2915 2876 2914 2947 2880 2837 2879 2917
8 2916 2877 2915 2948 2881 2838 2880 2918
8 2918 2880 2917 2949 2883 2841 2882 2919
8 2921 2885 2849 2889 2951 2920 2888 2924
8 2952 2921 2886 2922 2925 2889 2850 2890
8 2924 2888 2854 2892 2954 2923 2893 2927
8 2925 2889 2853 2891 2955 2924 2892 2926
8 2926 2892 2856 2894 2956 2927 2895 2929
8 2895 2857 2896 2930 2927 2893 2928 2957
8 2897 2859 2898 2932 2929 2895 2930 2959
8 2898 2860 2899 2933 2930 2896 2931 2960
8 2900 2862 2901 2934 2932 2898 2933 2961
8 2936 2903 2885 2921 2963 2935 2920 2951
8 2936 2903 2935 2963 2906 2868 2905 2939
8 2937 2904 2886 2922 2964 2936 2921 2952
8 2937 2904 2936 2964 2907 2869 2906 2940
8 2939 2905 2938 2966 2909 2870 2908 2942
8 2940 2906 2939 2967 2910 2871 2909 2943
8 2942 2908 2941 2969 2912 2873 2911 2945
8 2943 2909 2942 2970 2913 2874 2912 2946
8 2945 2911 2944 2971 2915 2876 2914 2947
8 2946 2912 2945 2972 2916 2877 2915 2948
8 2948 2915 2947 2973 2918 2880 2917 2949
8 2951 2920 2888 2924 2975 2950 2923 2954
8 2952 2921 2889 2925 2976 2951 2924 2955
8 2927 2893 2928 2957 2954 2923 2953 2978
8 2955 2924 2892 2926 2979 2954 2927 2956
8 2929 2895 2930 2959 2956 2927 2957 2980
8 2930 2896 2931 2960 2957 2928 2958 2981
8 2932 2898 2933 2961 2959 2930 2960 2982
8 2951 2920 2950 2975 2963 2935 2962 2984
8 2963 2935 2962 2984 2939 2905 2938 2966
8 2964 2936 2921 2952 2985 2963 2951 2976
8 2964 2936 2963 2985 2940 2906 2939 2967
8 2966 2938 2965 2987 2942 2908 2941 2969
8 2967 2939 2966 2988 2943 2909 2942 2970
8 2969 2941 2968 2989 2945 2911 2944 2971
8 2970 2942 2969 2990 2946 2912 2945 2972
8 2972 2945 2971 2991 2948 2915 2947 2973
8 2954 2923 2953 2978 2975 2950 2974 2993
8 2976 2951 2924 2955 2994 2975 2954 2979
8 2957 2928 2958 2981 2978 2953 2977 2995
8 2956 2927 2957 2980 2979 2954 2978 2996
8 2959 2930 2960 2982 2980 2957 2981 2997
8 2984 2962 2983 2999 2966 2938 2965 2987
8 2975 2950 2974 2993 2984 2962 2983 2999
8 2976 2951 2975 2994 2985 2963 2984 3000
8 2985 2963 2984 3000 2967 2939 2966 2988
8 2987 2965 2986 3001 2969 2941 2968 2989
8 2988 2966 2987 3002 2970 2942 2969 2990
8 2990 2969 2989 3003 2972 2945 2971 2991
8 2978 2953 2977 2995 2993 2974 2992 3004
8 2979 2954 2978 2996 2994 2975 2993 3005
8 2980 2957 2981 2997 2996 2978 2995 3006
8 2974 2993 2999 2983 2992 3004 3007 2998
8 2983 2999 2987 2965 2998 3007 3001 2986
8 3000 2984 2999 3008 2988 2966 2987 3002
8 2994 2975 2993 3005 3000 2984 2999 3008
8 3002 2987 3001 3009 2990 2969 2989 3003
8 2996 2978 2995 3006 3005 2993 3004 3010
8 3005 2993 3004 3010 3008 2999 3007 3011
8 3008 2999 3007 3011 3002 2987 3001 3009

CELL_TYPES 1910
12
12
12
12
12
12
12
12
12
12
12
12
12
12
12
12
12
12
12
12
12
12
12
12
12
12
12
12
12
12
12
12
12
12
12
12
12
12
12
12
12
12
12
12
12
12
12
12
12
12
12
12
12
12
12
12
12
12
12
12
12
12
12
12
12
12
12
12
12
12
12
12
12
12
12
12
12
12
12
12
12
12
12
12
12
12
12
12
12
12
12
12
12
12
12
12
12
12
12
12
12
12
12
12
12
12
12
12
12
12
12
12
12
12
12
12
12
12
12
12
12
12
12
12
12
12
12
12
12
12
12
12
12
12
12
12
12
12
12
12
12
12
12
12
12
12
12
12
12
12
12
12
12
12
12
12
12
12
12
12
12
12
12
12
12
12
12
12
12
12
12
12
12
12
12
12
12
12
12
12
12
12
12
12
12
12
12
12
12
12
12
12
12
12
12
12
12
12
12
12
12
12
12
12
12
12
12
12
12
12
12
12
12
12
12
12
12
12
12
12
12
12
12
12
12
12
12
12
12
12
12
12
12
12
12
12
12
12
12
12
12
12
12
12
12
12
12
12
12
12
12
12
12
12
12
12
12
12
12
12
12
12
12
12
12
12
12
12
12
12
12
12
12
12
12
12
12
12
12
12
12
12
12
12
12
12
12
12
12
12
12
12
12
12
12
12
12
12
12
12
12
12
12
12
12
12
12
12
12
12
12
12
12
12
12
12
12
12
12
12
12
12
12
12
12
12
12
12
12
12
12
12
12
12
12
12
12
12
12
12
12
12
12
12
12
12
12
12
12
12
12
12
12
12
12
12
12
12
12
12
12
12
12
12
12
12
12
12
12
12
12
12
12
12
12
12
12
12
12
12
12
12
12
12
12
12
12
12
12
12
12
12
12
12
12
12
12
12
12
12
12
12
12
12
12
12
12
12
12
12
12
12
12
12
12
12
12
12
12
12
12
12
12
12
12
12
12
12
12
12
12
12
12
12
12
12
12
12
12
12
12
12
12
12
12
12
12
12
12
12
12
12
12
12
12
12
12
12
12
12
12
12
12
12
12
12
12
12
12
12
12
12
12
12
12
12
12
12
12
12
12
12
12
12
12
12
12
12
12
12
12
12
12
12
12
12
12
12
12
12
12
12
12
12
12
12
12
12
12
12
12
12
12
12
12
12
12
12
12
12
12
12
12
12
12
12
12
12
12
12
12
12
12
12
12
12
12
12
12
12
12
12
12
12
12
12
12
12
12
12
12
12
12
12
12
12
12
12
12
12
12
12
12
12
12
12
12
12
12
12
12
12
12
12
12
12
12
12
12
12
12
12
12
12
12
12
12
12
12
12
12
12
12
12
12
12
12
12
12
12
12
12
12
12
12
12
12
12
12
12
12
12
12
12
12
12
12
12
12
12
12
12
12
12
12
12
12
12
12
12
12
12
12
12
12
12
12
12
12
12
12
12
12
12
12
12
12
12
12
12
12
12
12
12
12
12
12
12
12
12
12
12
12
12
12
12
12
12
12
12
12
12
12
12
12
12
12
12
12
12
12
12
12
12
12
12
12
12
12
12
12
12
12
12
12
12
12
12
12
12
12
12
12
12
12
12
12
12
12
12
12
12
12
12
12
12
12
12
12
12
12
12
12
12
12
12
12
12
12
12
12
12
12
12
12
12
12
12
12
12
12
12
12
12
12
12
12
12
12
12
12
12
12
12
12
12
12
12
12
12
12
12
12
12
12
12
12
12
12
12
12
12
12
12
12
12
12
12
12
12
12
12
12
12
12
12
12
12
12
12
12
12
12
12
12
12
12
12
12
12
12
12
12
12
12
12
12
12
12
12
12
12
12
12
12
12
12
12
12
12
12
12
12
12
12
12
12
12
12
12
12
12
12
12
12
12
12
12
12
12
12
12
12
12
12
12
12
12
12
12
12
12
12
12
12
12
12
12
12
12
12
12
12
12
12
12
12
12
12
12
12
12
12
12
12
12
12
12
12
12
12
12
12
12
12
12
12
12
12
12
12
12
12
12
12
12
12
12
12
12
12
12
12
12
12
12
12
12
12
12
12
12
12
12
12
12
12
12
12
12
12
12
12
12
12
12
12
12
12
12
12
12
12
12
12
12
12
12
12
12
12
12
12
12
12
12
12
12
12
12
12
12
12
12
12
12
12
12
12
12
12
12
12
12
12
12
12
12
12
12
12
12
12
12
12
12
12
12
12
12
12
12
12
12
12
12
12
12
12
12
12
12
12
12
12
12
12
12
12
12
12
12
12
12
12
12
12
12
12
12
12
12
12
12
12
12
12
12
12
12
12
12
12
12
12
12
12
12
12
12
12
12
12
12
12
12
12
12
12
12
12
12
12
12
12
12
12
12
12
12
12
12
12
12
12
12
12
12
12
12
12
12
12
12
12
12
12
12
12
12
12
12
12
12
12
12
12
12
12
12
12
12
12
12
12
12
12
12
12
12
12
12
12
12
12
12
12
12
12
12
12
12
12
12
12
12
12
12
12
12
12
12
12
12
12
12
12
12
12
12
12
12
12
12
12
12
12
12
12
12
12
12
12
12
12
12
12
12
12
12
12
12
12
12
12
12
12
12
12
12
12
12
12
12
12
12
12
12
12
12
12
12
12
12
12
12
12
12
12
12
12
12
12
12
12
12
12
12
12
12
12
12
12
12
12
12
12
12
12
12
12
12
12
12
12
12
12
12
12
12
12
12
12
12
12
12
12
12
12
12
12
12
12
12
12
12
12
12
12
12
12
12
12
12
12
12
12
12
12
12
12
12
12
12
12
12
12
12
12
12
12
12
12
12
12
12
12
12
12
12
12
12
12
12
12
12
12
12
12
12
12
12
12
12
12
12
12
12
12
12
12
12
12
12
12
12
12
12
12
12
12
12
12
12
12
12
12
12
12
12
12
12
12
12
12
12
12
12
12
12
12
12
12
12
12
12
12
12
12
12
12
12
12
12
12
12
12
12
12
12
12
12
12
12
12
12
12
12
12
12
12
12
12
12
12
12
12
12
12
12
12
12
12
12
12
12
12
12
12
12
12
12
12
12
12
12
12
12
12
12
12
12
12
12
12
12
12
12
12
12
12
12
12
12
12
12
12
12
12
12
12
12
12
12
12
12
12
12
12
12
12
12
12
12
12
12
12
12
12
12
12
12
12
12
12
12
12
12
12
12
12
12
12
12
12
12
12
12
12
12
12
12
12
12
12
12
12
12
12
12
12
12
12
12
12
12
12
12
12
12
12
12
12
12
12
12
12
12
12
12
12
12
12
12
12
12
12
12
12
12
12
12
12
12
12
12
12
12
12
12
12
12
12
12
12
12
12
12
12
12
12
12
12
12
12
12
12
12
12
12
12
12
12
12
12
12
12
12
12
12
12
12
12
12
12
12
12
12
12
12
12
12
12
12
12
12
12
12
12
12
12
12
12
12
12
12
12
12
12
12
12
12
12
12
12
12
12
12
12
12
12
12
12
12
12
12
12
12
12
12
12
12
12
12
12
12
12
12
12
12
12
12
12
12
12
12
12
12
12
12
12
12
12
12
12
12
12
12
12
12
12
12
12
12
12
12
12
12
12
12
12
12
12
12
12
12
12
12
12
12
12
12
12
12
12
12
12
12
12
12
12
12
12
12
12
12
12
12
12
12
12
12
12
12
12
12
12
12
12
12
12
12
12
12
12
12
12
12
12
12
12
12
12
12
12
12
12
12
12
12
12
12
12
12
12
12
12
12
12
12
12
12
12
12
12
12
12
12
12
12
12
12
12
12
12
12
12
12
12
12
12
12
12
12
12
12
12
12
12
12
12
12
12
12
12
12
12
12
12
12
12
12
12
12
12
12
12
12
12
12
12
12
12
12
12
12
12
12
12
12
12
12
12
12
12
12
12
12
12
12
12
12
12
12
12
12
12
12
12
12
12
12
12
12
12
12
12
12
12
12
12
12
12
12
12
12
12
12
12
12
12
12
12
12
12
12
12
12
12
12
12
12
12
12
12
12
12
12
12
12
12
12
12
12
12
12
12
12
12
12
12
12
12
12
12
12
12
12
12
12
12
12
12
12
12
12
12
12
12
12
12
12
12
12
12
12
12
12
12
12
12
12
12
12
12
12
12
12
12
12
12
12
12
12
12
12
12
12
12
12
12
12
12
12
12
12
12
12
12
12
12
12
12
12
12
12
12
12
12
12
12
12
12
12
12
12
12
12
12
12
12
12
12
12
12
12
12
12
12
12
12
12
12
12
12
12
12
12
12
12
12
12
12
12
12
12
12
12
12
12
12
12
12
12
12
12
12
12
12
12

POINT_DATA 3012
SCALARS Jp_lamdaP float 4
LOOKUP_TABLE default
0.999991 1 1 0.999991
1 1 1 1
0.999993 1 1 0.999993
0.99997 1 1 0.99997
0.999986 1 1 0.999986
0.999996 1 1 0.999996
0.999813 1 1 0.999813
1 1 1 1
1 1 1 1
1 1 1 1
1 1 1 1
0.999927 1 1 0.999927
0.999943 1 1 0.999943
0.999969 1 1 0.999969
0.999994 1 1 0.999994
0.999973 1 1 0.999973
0.999997 1 1 0.999997
0.999988 1 1 0.999988
0.999816 1 1 0.999816
1 1 1 1
0.999965 1 1 0.999965
0.999978 1 1 0.999978
0.999707 1 1 0.999707
0.99978 1 1 0.99978
1 1 1 1
0.999852 1 1 0.999852
0.999509 1 1 0.999509
1 1 1 1
0.99999 1 1 0.99999
0.999998 1 1 0.999998
1 1 1 1
0.999933 1 1 0.999933
0.999977 1 1 0.999977
0.999993 1 1 0.999993
0.999841 1 1 0.999841
1 1 1 1
0.999907 1 1 0.999907
0.999953 1 1 0.999953
0.999579 1 1 0.999579
1 1 1 1
1 1 1 1
0.999983 1 1 0.999983
1 1 1 1
0.99996 1 1 0.99996
0.999682 1 1 0.999682
1 1 1 1
0.999781 1 1 0.999781
0.999976 1 1 0.999976
0.99999 1 1 0.99999
0.999998 1 1 0.999998
0.999819 1 1 0.999819
0.999973 1 1 0.999973
0.999968 1 1 0.999968
1 1 1 1
0.999981 1 1 0.999981
0.999709 1 1 0.999709
0.999854 1 1 0.999854
0.999782 1 1 0.999782
0.999498 1 1 0.999498
1 1 1 1
0.999956 1 1 0.999956
0.999733 1 1 0.999733
0.999691 1 1 0.999691
0.999742 1 1 0.999742
0.999261 1 1 0.999261
0.999394 1 1 0.999394
1 1 1 1
0.999903 1 1 0.999903
0.999593 1 1 0.999593
0.999158 1 1 0.999158
1 1 1 1
1 1 1 1
1 1 1 1
0.99994 1 1 0.99994
1 1 1 1
1 1 1 1
0.999838 1 1 0.999838
1 1 1 1
0.99991 1 1 0.99991
0.999962 1 1 0.999962
0.999577 1 1 0.999577
1 1 1 1
1 1 1 1
0.999798 1 1 0.999798
0.999869 1 1 0.999869
0.999331 1 1 0.999331
0.999983 1 1 0.999983
0.999534 1 1 0.999534
0.999623 1 1 0.999623
0.999336 1 1 0.999336
1 1 1 1
1 1 1 1
1 1 1 1
1 1 1 1
1 1 1 1
0.999977 1 1 0.999977
0.999707 1 1 0.999707
0.999986 1 1 0.999986
0.999777 1 1 0.999777
1 1 1 1
0.999651 1 1 0.999651
0.999754 1 1 0.999754
0.999044 1 1 0.999044
0.999799 1 1 0.999799
0.999138 1 1 0.999138
0.999952 1 1 0.999952
0.999971 1 1 0.999971
1 1 1 1
0.999984 1 1 0.999984
0.999711 1 1 0.999711
0.999785 1 1 0.999785
0.999856 1 1 0.999856
0.999486 1 1 0.999486
1 1 1 1
0.999961 1 1 0.999961
0.999671 1 1 0.999671
0.999691 1 1 0.999691
1 1 1 1
0.999925 1 1 0.999925
0.999745 1 1 0.999745
0.99924 1 1 0.99924
0.99958 1 1 0.99958
0.999408 1 1 0.999408
0.999159 1 1 0.999159
0.999666 1 1 0.999666
0.999678 1 1 0.999678
0.999112 1 1 0.999112
0.999192 1 1 0.999192
0.999297 1 1 0.999297
0.998924 1 1 0.998924
1 1 1 1
0.999087 1 1 0.999087
0.999978 1 1 0.999978
0.999624 1 1 0.999624
0.999229 1 1 0.999229
0.999011 1 1 0.999011
0.999999 1 1 0.999999
0.999775 1 1 0.999775
1 1 1 1
1 1 1 1
0.999844 1 1 0.999844
1 1 1 1
0.999972 1 1 0.999972
0.999914 1 1 0.999914
0.999575 1 1 0.999575
1 1 1 1
1 1 1 1
0.999811 1 1 0.999811
0.999879 1 1 0.999879
0.999333 1 1 0.999333
0.999988 1 1 0.999988
0.999535 1 1 0.999535
0.999622 1 1 0.999622
0.999328 1 1 0.999328
0.999998 1 1 0.999998
1 1 1 1
0.99981 1 1 0.99981
0.999238 1 1 0.999238
0.999446 1 1 0.999446
0.999037 1 1 0.999037
0.999683 1 1 0.999683
0.999283 1 1 0.999283
0.999365 1 1 0.999365
0.999233 1 1 0.999233
1 1 1 1
1 1 1 1
1 1 1 1
1 1 1 1
1 1 1 1
1 1 1 1
1 1 1 1
0.999769 1 1 0.999769
0.999697 1 1 0.999697
1 1 1 1
1 1 1 1
0.999653 1 1 0.999653
0.99975 1 1 0.99975
0.999044 1 1 0.999044
0.999787 1 1 0.999787
0.999139 1 1 0.999139
0.99964 1 1 0.99964
0.998988 1 1 0.998988
0.999099 1 1 0.999099
0.998762 1 1 0.998762
0.999179 1 1 0.999179
0.998864 1 1 0.998864
1 1 1 1
0.999966 1 1 0.999966
0.999606 1 1 0.999606
0.999692 1 1 0.999692
1 1 1 1
0.999947 1 1 0.999947
0.999748 1 1 0.999748
0.999219 1 1 0.999219
0.999422 1 1 0.999422
0.999567 1 1 0.999567
0.99916 1 1 0.99916
0.999664 1 1 0.999664
0.999678 1 1 0.999678
0.99907 1 1 0.99907
0.999208 1 1 0.999208
1 1 1 1
0.999972 1 1 0.999972
0.999642 1 1 0.999642
0.999299 1 1 0.999299
0.998899 1 1 0.998899
0.999226 1 1 0.999226
0.999098 1 1 0.999098
0.999014 1 1 0.999014
0.999997 1 1 0.999997
0.999775 1 1 0.999775
0.998999 1 1 0.998999
0.999166 1 1 0.999166
0.998816 1 1 0.998816
0.998835 1 1 0.998835
0.999014 1 1 0.999014
0.998803 1 1 0.998803
0.999992 1 1 0.999992
0.998946 1 1 0.998946
0.999662 1 1 0.999662
0.999325 1 1 0.999325
0.999083 1 1 0.999083
0.998963 1 1 0.998963
0.999713 1 1 0.999713
0.999849 1 1 0.999849
0.999482 1 1 0.999482
0.99981 1 1 0.99981
1 1 1 1
1 1 1 1
0.999885 1 1 0.999885
0.999335 1 1 0.999335
0.999994 1 1 0.999994
0.999622 1 1 0.999622
0.999536 1 1 0.999536
0.999319 1 1 0.999319
0.999999 1 1 0.999999
1 1 1 1
0.999811 1 1 0.999811
0.999239 1 1 0.999239
0.999449 1 1 0.999449
0.999037 1 1 0.999037
0.999683 1 1 0.999683
0.999291 1 1 0.999291
0.999363 1 1 0.999363
0.999223 1 1 0.999223
1 1 1 1
0.999742 1 1 0.999742
0.999879 1 1 0.999879
0.999534 1 1 0.999534
0.998947 1 1 0.998947
0.999178 1 1 0.999178
0.998936 1.00005 1 0.998891
0.999427 1 1 0.999427
0.99918 1 1 0.99918
0.999377 1 1.00018 0.999201
0.999146 1 1 0.999146
0.999975 1 1 0.999975
1 1 1 1
1 1 1 1
1 1 1 1
1 1 1 1
1 1 1 1
1 1 1 1
1 1 1 1
1 1 1 1
0.999788 1 1 0.999788
0.99974 1 1 0.99974
0.999139 1 1 0.999139
0.999044 1 1 0.999044
0.999655 1 1 0.999655
1 1 1 1
0.99964 1 1 0.99964
0.998988 1 1 0.998988
0.999099 1 1 0.999099
0.998761 1 1 0.998761
0.999179 1 1 0.999179
0.998864 1 1 0.998864
0.998974 1 1 0.998974
0.998704 1 1 0.998704
0.998819 1 1 0.998819
0.999552 1.00087 1 0.998684
0.998902 1 1 0.998902
0.998887 1.00012 1 0.998772
0.999661 1 1 0.999661
0.999679 1 1 0.999679
0.999028 1 1 0.999028
0.999224 1 1 0.999224
1 1 1 1
0.999966 1 1 0.999966
0.99966 1 1 0.99966
0.9993 1 1 0.9993
0.998874 1 1 0.998874
0.99911 1 1 0.99911
0.999222 1 1 0.999222
0.999016 1 1 0.999016
0.999996 1 1 0.999996
0.999774 1 1 0.999774
0.998985 1 1 0.998985
0.999166 1 1 0.999166
0.998805 1 1 0.998805
0.998862 1 1 0.998862
0.999989 1 1 0.999989
0.999662 1 1 0.999662
0.999344 1 1 0.999344
0.999013 1 1 0.999013
0.998797 1 1 0.998797
0.999063 1 1 0.999063
0.998947 1 1 0.998947
0.998963 1 1 0.998963
0.999715 1 1 0.999715
0.999479 1 1 0.999479
0.999847 1 1 0.999847
0.998762 1 1 0.998762
0.998842 1 1 0.998842
0.999204 1.00053 1 0.998678
0.998753 1.00001 1 0.998741
0.998872 1 1 0.998872
0.999052 1.00025 1 0.998798
0.999683 1 1 0.999683
0.998991 1.00008 1 0.998914
0.999433 1 1 0.999433
0.999155 1 1 0.999155
0.99896 1 1 0.99896
0.999004 1 1 0.999004
0.999905 1 1 0.999905
0.999472 1 1 0.999472
0.999513 1 1 0.999513
0.999373 1 1 0.999373
0.99924 1 1 0.99924
1 1 1 1
1 1 1 1
0.999811 1 1 0.999811
0.999452 1 1 0.999452
0.999037 1 1 0.999037
0.999683 1 1 0.999683
0.999362 1 1 0.999362
0.9993 1 1 0.9993
0.999213 1 1 0.999213
1 1 1 1
0.999742 1 1 0.999742
0.999882 1 1 0.999882
0.999532 1 1 0.999532
0.998946 1 1 0.998946
0.99918 1 1 0.99918
0.998918 1.00003 1 0.998891
0.999428 1 1 0.999428
0.99919 1 1 0.99919
0.999255 1 1.00006 0.999196
0.999179 1 1 0.999179
1 1 1 1
0.999925 1 1 0.999925
0.999485 1 1 0.999485
0.999597 1 1 0.999597
0.999377 1 1 0.999377
0.998877 1.00006 1 0.99882
0.999045 1 1 0.999045
0.998894 1.00006 1 0.998839
0.999357 1 1.00011 0.999248
0.99912 1 1 0.99912
0.999237 1 1.0002 0.999032
0.999964 1 1 0.999964
0.999777 1 1 0.999777
0.999983 1 1 0.999983
0.999977 1 1 0.999977
1 1 1 1
1 1 1 1
1 1 1 1
1 1 1 1
1 1 1 1
1 1 1 1
1 1 1 1
1 1 1 1
1 1 1 1
1 1 1 1
1 1 1 1
0.999179 1 1 0.999179
0.999099 1 1 0.999099
0.998865 1 1 0.998865
0.998761 1 1 0.998761
0.998988 1 1 0.998988
0.999639 1 1 0.999639
0.998973 1 1 0.998973
0.998706 1 1 0.998705
0.998819 1 1 0.998819
0.99946 1.00078 1 0.998679
0.998901 1 1 0.998901
0.998831 1.00006 1 0.998772
0.998689 1 1 0.998689
1.00103 1.00241 1 0.998628
0.999159 1.00043 1 0.998726
1.00228 1.00361 1 0.998675
0.998815 1.00001 1 0.998801
0.999975 1.00117 1 0.998803
0.998971 1 1 0.998971
0.999165 1 1 0.999165
0.998794 1 1 0.998794
0.998888 1 1 0.998888
0.999985 1 1 0.999985
0.999662 1 1 0.999662
0.999363 1 1 0.999363
0.999013 1 1 0.999013
0.99879 1 1 0.99879
0.998947 1 1 0.998947
0.999043 1 1 0.999043
0.998964 1 1 0.998964
0.999716 1 1 0.999716
0.999477 1 1 0.999477
0.999846 1 1 0.999846
0.998739 1 1 0.998739
0.998842 1 1 0.998842
0.999385 1.00072 1 0.998668
0.998815 1.00007 1 0.998746
0.999685 1 1 0.999685
0.999431 1 1 0.999431
0.999177 1 1 0.999177
0.998882 1 1 0.998882
0.999097 1.00029 1 0.998805
0.998945 1 1 0.998945
0.999065 1.00015 1 0.998915
0.999012 1 1 0.999012
0.999474 1 1 0.999474
0.99936 1 1 0.99936
0.999902 1 1 0.999902
0.999523 1 1 0.999523
0.999831 1.00121 1 0.998623
0.999004 1.00029 1 0.998709
1.00178 1.00315 1 0.998628
0.999244 1.00052 1 0.998727
0.999368 1.00051 1 0.998861
1.0002 1.00138 1 0.998824
0.999467 1 1 0.999467
0.99938 1.00039 1 0.998994
0.999286 1 1 0.999286
0.999014 1 1 0.999014
0.998881 1 1 0.998881
0.999024 1.00002 1 0.999009
0.999934 1 1 0.999934
0.999582 1 1 0.999582
0.999369 1 1 0.999369
0.999379 1 1 0.999379
0.999318 1 1 0.999318
1 1 1 1
0.998944 1 1 0.998944
0.999885 1 1 0.999885
0.999742 1 1 0.999742
0.999531 1 1 0.999531
0.999182 1 1 0.999182
0.998899 1.00001 1 0.998891
0.99943 1 1 0.99943
0.99919 1 1 0.99919
0.999201 1 1 0.999201
0.999212 1 1 0.999212
1 1 1 1
0.999929 1 1 0.999929
0.999485 1 1 0.999485
0.999597 1 1 0.999597
0.999368 1 1 0.999368
0.998913 1.0001 1 0.998817
0.999046 1 1 0.999046
0.998907 1.00007 1 0.998835
0.999338 1 1.00009 0.99925
0.999127 1 1 0.999127
0.999377 1 1.00033 0.999046
0.999949 1 1 0.999949
0.999662 1 1 0.999662
0.999316 1 1 0.999316
0.999424 1 1 0.999424
0.999284 1 1 0.999284
0.999222 1.00043 1 0.998788
0.998985 1 1 0.998985
0.999007 1.00009 1 0.998915
1.00035 1 1.00127 0.999084
0.998955 1 1 0.998955
0.999967 1 1 0.999967
0.999723 1 1 0.999723
0.999763 1 1 0.999763
0.99963 1 1 0.99963
0.999786 1 1 0.999786
0.999987 1 1 0.999987
0.999984 1 1 0.999984
1 1 1 1
0.99998 1 1 0.99998
1 1 1 1
1 1 1 1
1 1 1 1
1 1 1 1
1 1 1 1
1 1 1 1
1 1 1 1
1 1 1 1
1 1 1 1
1 1 1 1
1 1 1 1
0.9989 1 1 0.9989
0.998819 1 1 0.998819
0.998775 1 1 0.998773
0.999358 1.00068 1 0.998674
0.998708 1 1 0.998705
0.998973 1 1 0.998973
0.998691 1 1 0.998689
1.00104 1.00242 1 0.998621
0.999041 1.00032 1 0.998726
1.00223 1.00356 1 0.998675
0.998867 1.00007 1 0.998799
0.999784 1.00098 1 0.998802
1.00076 1.00217 1 0.998598
1.00493 1.00632 1 0.998617
1.0013 1.00257 1 0.998729
1.00433 1.00565 1 0.998678
0.999637 1.00083 1 0.998805
1.00194 1.00311 1 0.998835
0.998716 1 1 0.998716
0.998842 1 1 0.998842
0.999559 1.0009 1 0.998658
0.998869 1.00012 1 0.99875
0.999686 1 1 0.999686
0.999428 1 1 0.999428
0.9992 1 1 0.9992
0.998891 1 1 0.998891
0.999134 1.00032 1 0.998811
0.999149 1.00023 1 0.998915
0.99893 1 1 0.99893
0.99902 1 1 0.99902
0.999476 1 1 0.999476
0.999347 1 1 0.999347
0.9999 1 1 0.9999
0.999533 1 1 0.999533
1.00015 1.00153 1 0.998624
0.999041 1.00033 1 0.998711
1.00138 1.00275 1 0.998631
0.999198 1.00047 1 0.998728
0.999467 1 1 0.999467
0.999304 1 1 0.999304
0.999013 1 1 0.999012
0.999387 1.00053 1 0.998856
1.0002 1.00134 1 0.998853
0.998873 1 1 0.998873
0.999614 1.00062 1 0.998995
0.999042 1.00001 1 0.999037
0.999369 1 1 0.999369
0.999315 1 1 0.999315
0.999377 1 1 0.999377
0.999912 1 1 0.999912
0.999591 1 1 0.999591
1.00403 1.00545 1 0.998592
1.00171 1.00308 1 0.998633
1.00107 1.00232 1 0.998755
1.00076 1.00185 1 0.998908
0.999369 1 1 0.999369
1.00067 1.00162 1 0.999057
0.999183 1 1 0.999183
0.999032 1 1.0002 0.998833
0.998818 1.00001 1 0.998811
0.999916 1 1 0.999916
0.999676 1 1 0.999676
0.999446 1 1 0.999446
0.999337 1 1 0.999337
0.999274 1 1 0.999274
0.999279 1 1 0.999279
1 1 1 1
0.999933 1 1 0.999933
0.998947 1.00013 1 0.998815
0.999597 1 1 0.999597
0.999484 1 1 0.999484
0.999359 1 1 0.999359
0.999047 1 1 0.999047
0.998919 1.00009 1 0.99883
0.999262 1 1.00001 0.999252
0.99937 1 1.00031 0.99906
0.999135 1 1 0.999135
0.999952 1 1 0.999952
0.999662 1 1 0.999662
0.999324 1 1 0.999324
0.999423 1 1 0.999423
0.999272 1 1 0.999272
0.999188 1.0004 1 0.998786
0.998981 1 1 0.998981
0.999026 1.0001 1 0.998927
0.999967 1 1.00089 0.999076
0.998952 1 1.00002 0.998929
0.999712 1 1 0.999712
0.999458 1 1 0.999458
0.999838 1 1.00064 0.999195
0.999278 1 1 0.999278
0.9992 1 1 0.9992
1.00141 1.00246 1 0.998956
0.998887 1 1 0.998887
0.999949 1.00103 1 0.998922
1.00127 1 1.00229 0.998982
0.998751 1 1 0.998751
0.99997 1 1 0.99997
0.999734 1 1 0.999734
0.999553 1 1 0.999553
0.999748 1 1 0.999748
0.999786 1 1 0.999786
0.999609 1 1 0.999609
0.9995 1 1 0.9995
0.999605 1 1 0.999605
0.999795 1 1 0.999795
0.999988 1 1 0.999988
0.999988 1 1 0.999988
1 1 1 1
0.999986 1 1 0.999986
1 1 1 1
1 1 1 1
1 1 1 1
1 1 1 1
1 1 1 1
1 1 1 1
1 1 1 1
1 1 1 1
1 1 1 1
1 1 1 1
1 1 1 1
0.99892 1.00012 1 0.998797
0.998933 1.00021 1 0.998727
0.999602 1.0008 1 0.998802
1.00218 1.0035 1 0.998676
1.00105 1.00244 1 0.998614
0.998693 1 1 0.99869
1.0009 1.0023 1 0.998595
1.00481 1.0062 1 0.998618
1.00137 1.00265 1 0.99872
1.00457 1.0059 1 0.998674
0.999436 1.00063 1 0.998806
1.0017 1.00285 1 0.998853
1.00536 1.00678 1 0.998588
1.00616 1.00752 1 0.998648
1.00476 1.00602 1 0.998745
1.00218 1.00327 1 0.998912
1.00046 1.00183 1 0.998625
0.999087 1.00038 1 0.998712
1.001 1.00237 1 0.998634
0.999158 1.00043 1 0.99873
0.999467 1 1 0.999467
0.999322 1 1 0.999322
0.999102 1 1.00009 0.99901
0.999401 1.00055 1 0.998852
1.00023 1.00135 1 0.998882
0.999871 1.00088 1 0.998996
0.998864 1 1 0.998864
0.999065 1 1 0.999065
0.99937 1 1 0.99937
0.999311 1 1 0.999311
0.999375 1 1 0.999375
0.999891 1 1 0.999891
0.999599 1 1 0.999599
1.00368 1.00509 1 0.998596
1.00184 1.0032 1 0.998639
1.00105 1.00229 1 0.998763
0.999367 1 1 0.999367
0.999204 1 1 0.999204
0.999231 1 1.0004 0.998828
1.00096 1.00207 1 0.998899
0.998851 1.00001 1 0.998846
1.00033 1.00127 1 0.999059
0.999917 1 1 0.999917
0.999336 1 1 0.999336
0.999289 1 1 0.999289
0.999272 1 1 0.999272
0.999453 1 1 0.999453
0.99966 1 1 0.99966
1.00537 1.00678 1 0.998601
1.00384 1.0052 1 0.998648
1.00292 1.00411 1 0.998807
1.00303 1.00405 1 0.998983
0.99931 1 1 0.99931
0.999582 1.00069 1 0.998892
0.999362 1 1.00039 0.998974
0.999624 1 1.00092 0.998701
0.999937 1 1 0.999937
0.999723 1 1 0.999723
0.999508 1 1 0.999508
0.99929 1 1 0.99929
0.999284 1 1 0.999284
0.999225 1 1 0.999225
0.999956 1 1 0.999956
0.999663 1 1 0.999663
0.999156 1.00037 1 0.998784
0.999422 1 1 0.999422
0.999332 1 1 0.999332
0.99926 1 1 0.99926
0.998976 1 1 0.998976
0.99905 1.00011 1 0.99894
0.999651 1 1.00058 0.999069
0.999027 1 1.00012 0.998903
0.999712 1 1 0.999712
0.999465 1 1 0.999465
0.999589 1 1.00038 0.99921
0.999283 1 1 0.999283
0.999206 1 1 0.999206
1.00141 1.00245 1 0.998957
0.99889 1 1 0.99889
0.999603 1.00061 1 0.998996
1.0014 1 1.00243 0.998971
0.998743 1 1.00003 0.998714
0.999517 1 1 0.999517
0.999301 1 1 0.999301
1.00106 1 1.00196 0.999101
0.999145 1 1 0.999145
1.00712 1.00816 1 0.998964
1.00401 1.00512 0.999872 0.999027
0.99933 1.00061 1 0.998717
1.00206 1 1.00333 0.998731
0.999745 1 1 0.999745
0.999563 1 1 0.999563
0.999448 1 1 0.999448
0.999787 1 1 0.999787
0.999588 1 1 0.999588
0.999795 1 1 0.999795
0.999484 1 1 0.999484
0.999612 1 1 0.999612
0.999395 1 1 0.999395
0.999486 1 1 0.999486
0.999614 1 1 0.999614
0.999798 1 1 0.999798
0.999987 1 1 0.999987
0.999988 1 1 0.999988
1 1 1 1
0.999988 1 1 0.999988
1 1 1 1
1 1 1 1
1 1 1 1
1 1 1 1
1 1 1 1
1 1 1 1
1 1 1 1
1 1 1 1
1 1 1 1
1 1 1 1
1 1 1 1
0.999231 1.00042 1 0.998807
1.00143 1.00272 1 0.998711
1.00145 1.00258 1 0.99887
1.00481 1.00615 1 0.99867
1.00468 1.00607 1 0.998619
1.00105 1.00246 1 0.998592
1.00509 1.0065 1 0.998593
1.00603 1.00739 1 0.998647
1.00468 1.00594 1 0.998751
1.00265 1.00375 1 0.998906
1.00706 1.00845 1 0.998621
1.00736 1.00865 1 0.998721
1.00598 1.00716 1 0.998836
1.00332 1.00473 1 0.9986
1.00198 1.00334 1 0.998645
1.00101 1.00224 1 0.998772
0.999365 1 1 0.999365
0.999225 1 1 0.999225
0.999349 1 1.00053 0.998824
1.00111 1.00222 1 0.99889
1.00001 1.00095 1 0.99906
0.998881 1 1 0.998881
0.999334 1 1 0.999334
0.999299 1 1 0.999299
0.999269 1 1 0.999269
0.999918 1 1 0.999918
0.99946 1 1 0.99946
0.999644 1 1 0.999644
1.00588 1.00729 1 0.998603
1.00361 1.00497 1 0.998647
1.00289 1.0041 1 0.998794
0.999305 1 1 0.999305
0.999426 1 1.00041 0.999012
0.999588 1 1.00088 0.998706
1.00342 1.00443 1 0.999002
0.999685 1.0008 1 0.998887
0.999953 1 1 0.999953
0.999724 1 1 0.999724
0.999284 1 1 0.999284
0.999239 1 1 0.999239
0.999293 1 1 0.999293
0.999496 1 1 0.999496
1.00677 1.00813 1 0.998655
1.00539 1.00671 1 0.998695
1.00605 1.00721 0.999905 0.998944
1.00423 1.00519 1 0.999037
0.999369 1 1.00016 0.999209
1.00009 1.00005 1.0014 0.998635
1.00058 1 1.00174 0.998842
0.999985 1 1 0.999985
0.999816 1 1 0.999816
0.999726 1 1 0.999726
0.999527 1 1 0.999527
0.999349 1 1 0.999349
0.999177 1 1 0.999177
0.999291 1 1 0.999291
1.00039 1 1.00114 0.999246
0.999713 1 1 0.999713
0.999471 1 1 0.999471
1.00134 1.00239 1 0.998958
0.999289 1 1 0.999289
0.999373 1 1.00015 0.999225
0.999212 1 1 0.999212
0.998893 1 1 0.998893
0.999207 1.00014 1 0.99907
1.00154 1 1.00258 0.998961
0.998677 1 1 0.998677
0.99951 1 1 0.99951
0.99931 1 1 0.99931
1.00128 1 1.00217 0.999113
0.999157 1 1 0.999157
1.00671 1.00776 1 0.998957
1.00344 1.00447 0.999949 0.999024
0.999578 1.00083 1 0.99875
1.00161 1 1.0029 0.998713
0.999398 1 1 0.999398
1.00738 1.00851 0.999991 0.998891
0.999191 1 1 0.999191
1.00066 1 1.00168 0.998983
1.01036 1.01162 0.999722 0.999033
1.00371 1.00499 1 0.998734
1.0018 1 1.0032 0.998603
0.999573 1 1 0.999573
0.999448 1 1 0.999448
0.999349 1 1 0.999349
0.999795 1 1 0.999795
0.99962 1 1 0.99962
0.999468 1 1 0.999468
0.999798 1 1 0.999798
0.999614 1 1 0.999614
0.999382 1 1 0.999382
0.999502 1 1 0.999502
0.999316 1 1 0.999316
0.999382 1 1 0.999382
0.999517 1 1 0.999517
0.999631 1 1 0.999631
0.999793 1 1 0.999793
0.999984 1 1 0.999984
0.999986 1 1 0.999986
1 1 1 1
0.999988 1 1 0.999988
1 1 1 1
1 1 1 1
1 1 1 1
1 1 1 1
1 1 1 1
0.999993 1 1 0.999993
1 1 1 1
1 1 1 1
1 1 1 1
1 1 1 1
1 1 1 1
1 1 1 1
1.00313 1.00424 1 0.998901
1.0046 1.00585 1 0.998757
1.0059 1.00727 1 0.998646
1.00481 1.00622 1 0.998599
1.00696 1.00834 1 0.998628
1.00777 1.00907 1 0.998711
1.00646 1.00762 1 0.99885
1.00693 1.00824 1 0.998698
1.00861 1.00984 1 0.998783
1.00604 1.0074 0.999727 0.998924
1.00633 1.00774 1 0.998604
1.00336 1.00472 1 0.998646
1.00296 1.00419 1 0.998781
0.999301 1 1 0.999301
0.99948 1 1.00043 0.99905
0.999487 1 1.00078 0.998712
1.00401 1.005 1 0.999021
0.999697 1.00082 1 0.998882
0.999284 1 1 0.999284
0.999253 1 1 0.999253
0.999296 1 1 0.999296
0.999969 1 1 0.999969
0.999724 1 1 0.999724
0.999484 1 1 0.999484
1.00626 1.00761 1 0.998664
0.999982 1 1 0.999982
0.999804 1 1 0.999804
1.00523 1.00654 1 0.998694
1.0071 1.0082 1 0.998917
0.999344 1 1.00011 0.999231
1.00112 1 1.00231 0.998812
0.999606 1.00012 1.00084 0.998643
1.00386 1.00482 1 0.999037
0.999757 1 1 0.999757
0.999527 1 1 0.999527
0.999271 1 1 0.999271
0.999864 1 1.00057 0.999296
0.999158 1 1 0.999158
0.999352 1 1 0.999352
1.00729 1.00855 1 0.998752
1.00826 1.00948 1 0.998791
1.00805 1.00934 0.999601 0.999121
1.00022 1.00139 1 0.998832
1.00062 1 1.00144 0.999177
1.00337 1 1.00474 0.998635
0.999818 1 1 0.999818
0.999784 1 1 0.999784
0.999662 1 1 0.999662
0.999532 1 1 0.999532
0.999401 1 1 0.999401
0.999214 1 1 0.999214
1.00024 1 1.00116 0.99908
0.999307 1 1 0.999307
0.999504 1 1 0.999504
0.999319 1 1 0.999319
1.0065 1.00756 1 0.998949
1.00309 1.00407 1 0.999021
0.999168 1 1 0.999168
1.00144 1 1.00232 0.999124
0.999876 1.00106 1.00004 0.998782
1.00121 1 1.00252 0.998695
0.999397 1 1 0.999397
1.00766 1.00881 0.999959 0.998908
0.999194 1 1 0.999194
1.00081 1 1.00184 0.998966
1.00994 1.01119 0.99974 0.99902
1.00406 1.00532 1 0.998746
1.00199 1 1.00339 0.99861
0.999264 1 1 0.999264
1.0169 1.01926 0.998655 0.999032
0.99909 1 1 0.99909
1.00203 1 1.00323 0.998804
1.00478 1.00877 0.997225 0.998816
1.00187 1.00108 1.00221 0.998583
1.00726 1.00947 0.998749 0.999064
0.999448 1 1 0.999448
0.999349 1 1 0.999349
0.999276 1 1 0.999276
0.999798 1 1 0.999798
0.999613 1 1 0.999613
0.999518 1 1 0.999518
0.999369 1 1 0.999369
0.999793 1 1 0.999793
0.999622 1 1 0.999622
0.999311 1 1 0.999311
0.999516 1 1 0.999516
0.999396 1 1 0.999396
0.9993 1 1 0.9993
0.999436 1 1 0.999436
0.999524 1 1 0.999524
0.999602 1 1 0.999602
0.999761 1 1 0.999761
0.999651 1 1 0.999651
0.999762 1 1 0.999762
0.999983 1 1 0.999983
0.999984 1 1 0.999984
1 1 1 1
0.999985 1 1 0.999985
1 1 1 1
1 1 1 1
1 1 1 1
1 1 1 1
1 1 1 1
0.999996 1 1 0.999996
0.999991 1 1 0.999991
1 1 1 1
1 1 1 1
1 1 1 1
1 1 1 1
1 1 1 1
1 1 1 1
1.0069 1.00804 1 0.998864
1.00818 1.00949 1 0.998701
1.00688 1.00826 1 0.998635
1.00735 1.00867 1 0.998696
1.0079 1.00913 1 0.998787
1.00667 1.00783 0.999917 0.998928
1.00753 1.00879 0.999917 0.998835
1.01046 1.01586 0.995684 0.998997
1.0196 1.022 0.998553 0.999096
0.999858 1 1 0.999858
1.00582 1.00715 1 0.998674
1.00494 1.00625 1 0.998693
1.00786 1.00898 1 0.99889
0.999329 1 1.00008 0.999253
1.00181 1 1.00304 0.998781
0.999331 1.00023 1.00045 0.99865
1.00336 1.00433 1 0.999036
0.999252 1 1 0.999252
0.999346 1 1 0.999346
0.999138 1 1 0.999138
0.999979 1 1 0.999979
0.999355 1 1 0.999355
0.999789 1 1 0.999789
0.999526 1 1 0.999526
0.999793 1 1 0.999793
1.00742 1.00868 1 0.998751
0.999832 1 1 0.999832
0.999784 1 1 0.999784
0.999638 1 1 0.999638
1.0087 1.00992 1 0.998795
1.00658 1.00803 0.999469 0.999087
1.00002 1 1.00083 0.999189
1.00359 1 1.00497 0.998627
1.00044 1.00144 1.00016 0.998837
0.999549 1 1 0.999549
0.999394 1 1 0.999394
0.99961 1 1.00033 0.999277
1.00027 1 1.00117 0.999104
0.999228 1 1 0.999228
1.00948 1.01099 0.999732 0.998779
1.00833 1.01208 0.997374 0.99892
1.00278 1.00413 0.999716 0.998936
1.00233 1.0006 1.00301 0.998724
1.00325 1 1.00416 0.999087
0.99964 1 1 0.99964
0.999579 1 1 0.999579
0.999512 1 1 0.999512
0.999411 1 1 0.999411
0.999294 1 1 0.999294
0.999451 1 1.00032 0.999132
1.00317 1 1.00414 0.999037
0.999395 1 1 0.999395
0.999196 1 1 0.999196
1.00789 1.009 0.999969 0.998925
1.00933 1.01062 0.999712 0.999008
1.0042 1.00544 1 0.998758
1.00093 1 1.00198 0.998949
1.00206 1 1.00345 0.998616
0.999279 1 1 0.999279
1.0167 1.01956 0.998163 0.999037
0.999095 1 1 0.999095
1.00218 1 1.00337 0.998812
1.00597 1.00931 0.99784 0.998854
1.00208 1.00081 1.00269 0.998577
1.0086 1.01083 0.998832 0.998963
0.999186 1 1 0.999186
1.0019 1.01245 0.990589 0.998987
1.00007 1 1.00102 0.999055
1.00487 1 1.00615 0.99873
1.00119 1.00144 1.00107 0.99868
0.959978 0.968022 0.997518 0.994157
0.999802 0.996122 1.00618 0.997526
0.987723 1.00695 0.981703 0.999191
0.918528 0.937841 0.982925 0.996421
0.916578 0.954287 0.963493 0.996877
0.999348 1 1 0.999348
0.999282 1 1 0.999282
0.999265 1 1 0.999265
0.999792 1 1 0.999792
0.999613 1 1 0.999613
0.999515 1 1 0.999515
0.999409 1 1 0.999409
0.999307 1 1 0.999307
0.99951 1 1 0.99951
0.999774 1 1 0.999774
0.999613 1 1 0.999613
0.999306 1 1 0.999306
0.999432 1 1 0.999432
0.999443 1 1 0.999443
0.999358 1 1 0.999358
0.999482 1 1 0.999482
0.999591 1 1 0.999591
0.99976 1 1 0.99976
0.999627 1 1 0.999627
0.999527 1 1 0.999527
0.99962 1 1 0.99962
0.999631 1 1 0.999631
0.999787 1 1 0.999787
0.999762 1 1 0.999762
0.999982 1 1 0.999982
0.999983 1 1 0.999983
1 1 1 1
0.999983 1 1 0.999983
1 1 1 1
1 1 1 1
1 1 1 1
1 1 1 1
1 1 1 1
0.999998 1 1 0.999998
0.999996 1 1 0.999996
1 1 1 1
0.999989 1 1 0.999989
1 1 1 1
1 1 1 1
1 1 1 1
1 1 1 1
1 1 1 1
1.00722 1.00844 1 0.998791
1.00773 1.00905 1 0.998695
1.00706 1.00814 1 0.998933
1.01089 1.01567 0.996279 0.999016
1.00735 1.00858 0.999949 0.998834
1.02033 1.02264 0.998684 0.999054
1.01967 1.02119 0.999745 0.998763
0.977466 0.984914 0.995415 0.997009
1.0167 1.01916 0.998441 0.999146
0.999866 1 1 0.999866
0.999858 1 1 0.999858
0.999689 1 1 0.999689
0.999707 1 1 0.999707
1.0076 1.00886 1 0.99875
1.00919 1.0104 1 0.998799
1.00505 1.00653 0.999481 0.999053
0.99927 1 1.00007 0.9992
1.00343 1 1.00482 0.998619
1.00059 1.00162 1.00013 0.998842
0.999909 1 1.00066 0.999247
1.00029 1 1.00116 0.999128
0.999242 1 1 0.999242
0.999783 1 1 0.999783
0.999386 1 1 0.999386
0.999565 1 1 0.999565
0.999846 1 1 0.999846
0.999614 1 1 0.999614
1.00804 1.00941 0.99985 0.998796
0.999665 1 1 0.999665
0.999593 1 1 0.999593
0.999508 1 1 0.999508
1.00975 1.01255 0.998305 0.99893
1.00142 1.00295 0.999541 0.998933
1.00294 1 1.00386 0.999085
1.00201 1.00065 1.00266 0.998711
0.999415 1 1 0.999415
0.999301 1 1 0.999301
1.00214 1 1.0031 0.999037
0.999851 1 1.00074 0.999114
1.01762 1.01915 0.99967 0.99882
1.00472 1.01015 0.995712 0.998902
1.00108 1.00168 1.00073 0.998673
1.00179 1 1.00282 0.998968
0.999466 1 1 0.999466
0.99945 1 1 0.99945
0.999252 1 1 0.999252
1.00371 1 1.00476 0.998956
0.949383 0.965011 0.989724 0.99402
0.999293 1 1 0.999293
0.999101 1 1 0.999101
1.01619 1.01969 0.997525 0.999042
1.00719 1.00975 0.99857 0.998892
1.00246 1.00059 1.0033 0.99857
1.00242 1 1.0036 0.99882
1.00956 1.01196 0.998766 0.998861
0.999197 1 1 0.999197
1.00125 1.01213 0.990258 0.998976
0.999763 1 1.0007 0.99906
1.00464 1 1.00592 0.998733
1.00092 1.00197 1.00026 0.99869
0.957543 0.96724 0.995562 0.994388
0.994706 0.993837 1.00428 0.996612
0.990636 1.00731 0.9842 0.999236
0.925585 0.940694 0.98785 0.99604
0.907001 0.947602 0.960375 0.996647
0.999332 1 1.00011 0.999224
0.928851 0.942112 0.990226 0.995656
0.935679 0.955903 0.981646 0.997145
0.978231 1.00284 0.976443 0.998992
1.00325 1 1.0042 0.99906
1.00889 1 1.01005 0.998843
0.990312 1.00555 0.985531 0.999308
0.968839 0.971733 1.00317 0.993871
0.997219 0.993668 1.00721 0.996388
0.915285 0.94323 0.973973 0.996304
0.947767 0.980391 0.968882 0.997772
0.999289 1 1 0.999289
0.999265 1 1 0.999265
0.999301 1 1 0.999301
0.999787 1 1 0.999787
0.999624 1 1 0.999624
0.999496 1 1 0.999496
0.999428 1 1 0.999428
0.999312 1 1 0.999312
0.999759 1 1 0.999759
0.999445 1 1 0.999445
0.999497 1 1 0.999497
0.999605 1 1 0.999605
0.999348 1 1 0.999348
0.999398 1 1 0.999398
0.99953 1 1.0002 0.999333
0.999494 1 1 0.999494
0.999617 1 1 0.999617
0.999626 1 1 0.999626
0.999512 1 1 0.999512
0.999507 1 1 0.999507
0.999499 1 1 0.999499
0.999443 1 1 0.999443
0.999415 1 1 0.999415
0.999597 1 1 0.999597
0.99962 1 1 0.99962
0.999782 1 1 0.999782
0.999612 1 1 0.999612
0.999776 1 1 0.999776
0.999981 1 1 0.999981
0.999762 1 1 0.999762
0.999982 1 1 0.999982
1 1 1 1
0.999982 1 1 0.999982
1 1 1 1
1 1 1 1
1 1 1 1
1 1 1 1
1 1 1 1
0.999861 1 1 0.999861
0.999998 1 1 0.999998
0.999997 1 1 0.999997
1 1 1 1
0.999995 1 1 0.999995
1 1 1 1
1 1 1 1
1 1 1 1
1 1 1 1
1 1 1 1
1.01219 1.01591 0.997301 0.999034
1.00726 1.00844 1 0.998832
1.02134 1.0234 0.998973 0.999012
0.97982 0.98446 0.997724 0.997556
1.01648 1.01889 0.998454 0.999175
1.02044 1.02239 0.999343 0.99875
1.02071 1.02174 1.0001 0.998893
0.982865 0.986526 0.998683 0.997603
0.957855 0.967866 0.996348 0.993283
0.908496 0.935434 0.975797 0.995292
0.908574 0.944105 0.965434 0.996822
0.999681 1 1 0.999681
0.999865 1 1 0.999865
0.999857 1 1 0.999857
0.999681 1 1 0.999681
0.999573 1 1 0.999573
0.999599 1 1 0.999599
0.99969 1 1 0.99969
0.999697 1 1 0.999697
1.00644 1.0077 0.999934 0.998813
1.01166 1.01362 0.999126 0.998939
1.0004 1.00216 0.999317 0.99893
1.00291 1 1.00383 0.999082
1.00198 1.00056 1.00272 0.998697
1.00117 1 1.00213 0.999037
1.00026 1 1.00116 0.999096
0.999308 1 1 0.999308
0.999606 1 1 0.999606
0.999419 1 1 0.999419
0.999689 1 1 0.999689
0.999504 1 1 0.999504
1.01801 1.01999 0.999262 0.998796
0.999478 1 1 0.999478
0.999449 1 1 0.999449
1.00449 1.00924 0.996386 0.998896
1.00101 1.00188 1.0004 0.998725
1.00299 1 1.00406 0.998932
0.999246 1 1 0.999246
1.00351 1 1.00456 0.998959
1.01045 1.0196 0.992268 0.99875
0.994705 1.0021 0.993795 0.998823
0.999869 1 1.00103 0.998839
1.00575 1 1.0068 0.998961
0.999392 1 1 0.999392
0.999304 1 1 0.999304
0.999802 1 1.00071 0.999095
0.919748 0.942125 0.980158 0.996011
0.955635 0.966641 0.994213 0.994369
0.999207 1 1 0.999207
0.999528 1 1.00046 0.999064
1.00147 1.01229 0.990337 0.998964
1.00068 1.00258 0.999411 0.998701
1.00431 1 1.00558 0.998736
0.959046 0.968576 0.996964 0.993176
0.994842 0.994812 1.0027 0.997337
0.993835 1.00784 0.986812 0.999282
0.920128 0.941615 0.981525 0.995574
0.896649 0.93998 0.957334 0.996415
0.999307 1 1.00008 0.999223
0.92382 0.945342 0.98104 0.99612
0.937634 0.954284 0.9854 0.99711
0.980697 1.00335 0.978419 0.998983
1.00267 1 1.00361 0.999068
1.00805 1 1.00919 0.99887
0.983984 1.00293 0.981787 0.999312
0.969545 0.972826 1.00316 0.993488
0.994762 0.992077 1.00543 0.997289
0.917268 0.942417 0.977779 0.995434
0.946913 0.980083 0.968479 0.997602
0.999651 1 1.00041 0.999245
0.950382 0.955527 0.996894 0.997715
0.997425 0.998841 0.999852 0.99873
0.986598 1 0.987361 0.999227
1.00823 1 1.00897 0.99927
1.00525 0.999825 1.0058 0.999633
0.987631 0.989553 0.999884 0.998173
0.97307 0.971759 1.00776 0.993639
0.935674 0.964409 0.974668 0.995419
0.969619 0.999435 0.971793 0.998326
0.999266 1 1 0.999266
0.999287 1 1 0.999287
0.999777 1 1.00042 0.999355
0.999759 1 1 0.999759
0.99962 1 1 0.99962
0.999513 1 1 0.999513
0.999446 1 1 0.999446
0.999337 1 1 0.999337
0.999617 1 1 0.999617
0.999408 1 1 0.999408
0.999494 1 1 0.999494
0.999579 1 1.00024 0.999335
0.999915 1 1.00055 0.99936
0.999479 1 1.00009 0.999392
0.999497 1 1 0.999497
0.999626 1 1 0.999626
0.999498 1 1 0.999498
0.999507 1 1 0.999507
0.999498 1 1 0.999498
0.99944 1 1 0.99944
0.999466 1 1 0.999466
0.999431 1 1 0.999431
0.999398 1 1 0.999398
0.999299 1 1 0.999299
0.999496 1 1.00027 0.99923
0.999361 1 1 0.999361
0.999415 1 1 0.999415
0.999561 1 1 0.999561
0.999596 1 1 0.999596
0.99977 1 1 0.99977
0.99962 1 1 0.99962
0.999782 1 1 0.999782
0.999979 1 1 0.999979
0.999765 1 1 0.999765
0.999981 1 1 0.999981
1 1 1 1
0.999981 1 1 0.999981
1 1 1 1
1 1 1 1
1 1 1 1
1 1 1 1
1 1 1 1
0.999875 1 1 0.999875
0.999998 1 1 0.999998
0.999861 1 1 0.999861
1 1 1 1
0.999998 1 1 0.999998
0.999997 1 1 0.999997
1 1 1 1
1 1 1 1
1 1 1 1
1 1 1 1
1 1 1 1
0.921456 0.940603 0.983256 0.996327
0.942252 0.956805 0.987279 0.99748
0.9827 0.98512 0.999583 0.99796
1.01636 1.01858 0.998618 0.999203
1.02117 1.02353 0.998958 0.998737
0.982429 0.985026 0.998841 0.998521
1.02043 1.02153 1.00002 0.998901
0.960191 0.969454 0.996131 0.994292
0.919014 0.938084 0.983348 0.996261
0.901281 0.941548 0.960505 0.996593
0.999428 0.999509 1.00094 0.998983
0.967242 0.971011 1.00194 0.994188
0.909835 0.940136 0.971411 0.996252
0.946895 0.977826 0.970929 0.997361
0.999531 1 1 0.999531
0.999691 1 1 0.999691
0.999865 1 1 0.999865
0.999674 1 1 0.999674
0.999586 1 1 0.999586
0.999552 1 1 0.999552
0.999599 1 1 0.999599
0.999624 1 1 0.999624
0.999676 1 1 0.999676
0.999686 1 1 0.999686
1.01836 1.0207 0.998939 0.998773
1.00329 1.00736 0.997063 0.998889
1.00092 1.00202 1.00013 0.998777
1.00395 1 1.00506 0.998896
1.00316 1 1.00421 0.998963
0.999239 1 1 0.999239
0.999449 1 1 0.999449
0.99949 1 1 0.99949
1.01134 1.01965 0.99312 0.998724
0.999386 1 1 0.999386
0.999289 1 1 0.999289
0.99601 1.0022 0.995028 0.998786
1.00021 1 1.00133 0.998881
1.00458 1 1.00566 0.998928
1.00088 1 1.00179 0.999087
1.00972 1.01078 1.00018 0.998774
0.998166 1 0.999056 0.999109
1.00506 1 1.00605 0.99901
0.999374 1 1 0.999374
0.99928 1 1 0.99928
0.999154 1 1 0.999154
0.951657 0.959126 0.994424 0.997777
0.923623 0.942062 0.984901 0.995457
0.953406 0.967339 0.991557 0.993989
0.999222 1 1 0.999222
1.00213 1 1.00306 0.999075
0.983172 1.00372 0.980537 0.998974
1.00739 1 1.0085 0.998896
0.921409 0.944461 0.9801 0.995401
0.968147 0.972027 1.00124 0.994771
0.995247 0.993749 1.00508 0.996441
0.981222 1.00059 0.981305 0.999324
0.920206 0.941307 0.981166 0.996348
0.938955 0.956113 0.984999 0.99701
0.942449 0.978218 0.965957 0.997388
0.999705 1 1.00046 0.999244
0.948368 0.956942 0.993367 0.997658
0.997249 0.998431 1.00008 0.998733
0.989626 1 0.990377 0.999242
1.00826 1 1.009 0.999269
1.00526 1.00073 1.00528 0.999247
0.988751 0.989321 1.00254 0.996891
0.970717 0.972699 1.00441 0.993577
0.937669 0.966389 0.973641 0.996549
0.963788 0.993724 0.971704 0.998118
1.00038 1 1.00088 0.999503
1.00009 1.0012 0.999791 0.999096
1.01116 1.00772 1.00409 0.999321
1.00832 0.999665 1.00895 0.999715
0.994302 0.989608 1.00567 0.999079
0.974323 0.975413 1.00549 0.993433
0.964167 0.981235 0.98577 0.99679
0.969482 1.00269 0.968755 0.998066
0.999272 1 1 0.999272
0.999724 1 1.00036 0.999369
1.00075 1 1.0013 0.999451
0.999617 1 1 0.999617
0.999493 1 1 0.999493
0.999419 1 1 0.999419
0.999618 1 1.00028 0.999336
0.999497 1 1 0.999497
0.999423 1 1.00003 0.999392
1.0003 1 1.00093 0.99937
1.00031 1 1.00086 0.999456
0.999572 1 1.00021 0.99936
0.99942 1 1 0.99942
0.999507 1 1 0.999507
0.999498 1 1 0.999498
0.999437 1 1 0.999437
0.999433 1 1 0.999433
0.999465 1 1 0.999465
0.999403 1 1 0.999403
0.999361 1 1 0.999361
0.99938 1 1 0.99938
0.999275 1 1 0.999275
0.999306 1 1 0.999306
0.999521 1 1.00029 0.999231
0.999321 1 1.00021 0.999112
0.999357 1 1 0.999357
0.999421 1 1.00015 0.999271
0.999378 1 1 0.999378
0.999495 1 1 0.999495
0.999414 1 1 0.999414
0.999561 1 1 0.999561
0.999747 1 1 0.999747
0.999595 1 1 0.999595
0.999769 1 1 0.999769
0.999976 1 1 0.999976
0.999781 1 1 0.999781
0.999979 1 1 0.999979
1 1 1 1
0.99998 1 1 0.99998
1 1 1 1
1 1 1 1
1 1 1 1
1 1 1 1
1 1 1 1
0.999819 1 1 0.999819
0.999997 1 1 0.999997
0.999849 1 1 0.999849
1 1 1 1
0.999998 1 1 0.999998
0.999861 1 1 0.999861
1 1 1 1
1 1 1 1
0.999998 1 1 0.999998
1 1 1 1
1 1 1 1
1 1 1 1
0.953876 0.958948 0.996758 0.997946
0.922095 0.941444 0.983585 0.995792
0.996737 0.999817 0.998249 0.998669
0.937116 0.953482 0.985445 0.997352
0.97844 0.983685 0.997279 0.997382
1.01968 1.02135 0.999463 0.998908
0.960409 0.969468 0.995317 0.995317
0.916447 0.939449 0.980038 0.995386
0.893983 0.939128 0.955403 0.996363
0.99701 0.99947 0.998996 0.998541
0.967965 0.970108 1.00401 0.99381
0.913566 0.943934 0.97236 0.99534
0.944554 0.976898 0.969508 0.997301
0.99617 0.998814 0.998756 0.998594
0.970297 0.9701 1.00669 0.993558
0.939287 0.967744 0.97402 0.996483
0.968713 0.999925 0.970605 0.998126
0.999443 1 1 0.999443
0.999546 1 1 0.999546
0.999701 1 1 0.999701
0.9996 1 1 0.9996
0.999465 1 1 0.999465
0.999562 1 1 0.999562
0.9996 1 1 0.9996
0.999608 1 1 0.999608
0.999639 1 1 0.999639
0.999663 1 1 0.999663
1.01302 1.02052 0.993942 0.998699
0.997817 1.00276 0.99632 0.998749
1.00051 1 1.00159 0.998924
1.00372 1 1.00483 0.998895
1.00206 1 1.00298 0.999078
0.999274 1 1 0.999274
0.99938 1 1 0.99938
0.999375 1 1 0.999375
1.00505 1.0095 0.996795 0.998794
0.99929 1 1 0.99929
0.999241 1 1.00009 0.999151
0.997083 1 0.998018 0.999063
1.00435 1 1.00535 0.999009
0.995217 1.00483 0.991305 0.999125
1.01158 1 1.01226 0.999334
0.999904 1 1.00078 0.999124
0.999302 1 1 0.999302
0.999165 1 1 0.999165
1.00142 1.0024 0.999768 0.999263
0.953352 0.958865 0.996325 0.997918
0.922794 0.942255 0.982971 0.996312
0.999707 1 1.00046 0.999242
1.00814 1 1.00888 0.999269
0.991076 1 0.991814 0.999256
0.954092 0.959049 0.996926 0.9979
0.972037 0.971008 1.00768 0.993431
0.990908 0.9907 1.00234 0.997872
0.999909 1.00074 1.00034 0.998837
0.937077 0.964066 0.976481 0.995417
0.996396 0.997319 1.00034 0.998737
0.958955 0.989789 0.970638 0.998155
1.00063 1 1.00112 0.999514
0.998448 0.999261 0.999948 0.999238
1.01317 1.00937 1.00444 0.99933
1.00797 0.999618 1.00876 0.999594
0.993544 0.990612 1.00426 0.998701
0.978154 0.977533 1.0074 0.993289
0.971011 1.00625 0.966653 0.998274
0.94884 0.9734 0.978477 0.996211
1.0012 0.999563 1.00193 0.999711
1.01241 1.01228 1.00033 0.999798
1.02029 1.01577 1.00503 0.999418
0.970418 0.999954 0.97228 0.99813
1.00249 0.990322 1.01259 0.999704
0.978813 0.977767 1.00731 0.993805
0.943182 0.961609 0.984136 0.996649
0.99965 1 1.00027 0.999383
1.00051 1 1.00109 0.999414
1.00312 1 1.00355 0.999566
0.999497 1 1 0.999497
0.999391 1 1 0.999391
1.00075 1 1.00138 0.999379
0.999422 1 1 0.999422
0.999685 1 1.00033 0.99936
1.00069 1 1.00126 0.999429
0.999852 1 1.00035 0.999498
0.999361 1 1 0.999361
0.999435 1 1 0.999435
0.999464 1 1 0.999464
0.999407 1 1 0.999407
0.999379 1 1 0.999379
0.999368 1 1 0.999368
0.99935 1 1 0.99935
0.999302 1 1 0.999302
1.0012 1 1.00213 0.999076
0.999312 1 1 0.999312
0.999448 1 1.00022 0.999225
0.999518 1 1.00053 0.998991
0.999352 1 1.00025 0.999107
0.999307 1 1 0.999307
0.999394 1 1.00028 0.999116
0.999465 1 1 0.999465
0.999343 1 1 0.999343
0.999312 1 1 0.999312
0.999396 1 1 0.999396
0.999511 1 1 0.999511
0.999711 1 1 0.999711
0.99956 1 1 0.99956
0.999746 1 1 0.999746
0.99997 1 1 0.99997
0.999769 1 1 0.999769
0.999975 1 1 0.999975
1 1 1 1
0.999978 1 1 0.999978
1 1 1 1
1 1 1 1
1 1 1 1
1 1 1 1
1 1 1 1
0.999743 1 1 0.999743
0.99996 1 1 0.99996
0.999817 1 1 0.999817
1 1 1 1
0.999982 1 1 0.999982
0.999824 1 1 0.999824
1 1 1 1
1 1 1 1
0.999998 1 1 0.999998
1 1 1 1
1 1 1 1
1 1 1 1
0.998903 1.00006 0.999662 0.999185
0.94713 0.958038 0.990943 0.99765
0.92425 0.940764 0.986861 0.995526
0.999557 1 1 0.999557
1.00954 1.00659 1.00349 0.999439
0.998438 0.999945 0.99982 0.998673
0.930929 0.952942 0.979696 0.997146
0.995193 0.999827 0.997299 0.99806
0.970414 0.971984 1.0043 0.994107
0.917675 0.947979 0.971674 0.996252
0.939625 0.974565 0.966887 0.997168
0.998675 1.00157 0.999736 0.997375
0.96773 0.969395 1.00455 0.993763
0.940958 0.967109 0.976791 0.996077
0.967629 0.999347 0.970256 0.997944
0.991162 0.992115 1.00231 0.996737
0.975264 0.970875 1.01207 0.992544
0.949863 0.975222 0.978106 0.9958
0.96924 1.00321 0.96802 0.998054
0.999362 1 1 0.999362
0.999435 1 1 0.999435
0.99956 1 1 0.99956
0.999453 1 1 0.999453
0.999484 1 1 0.999484
0.999573 1 1 0.999573
0.999612 1 1 0.999612
0.999654 1 1 0.999654
1.00014 1.00783 0.993552 0.998813
0.995804 1 0.996783 0.999017
0.999376 1 1 0.999376
1.00352 1 1.00451 0.999008
0.999314 1 1.00017 0.999147
0.999299 1 1 0.999299
0.999304 1 1 0.999304
0.998902 1.00607 0.993739 0.99913
0.999181 1 1 0.999181
1.00072 1 1.0016 0.99912
1.00794 1 1.00862 0.99933
0.999314 1 1 0.999314
0.988723 0.998087 0.991074 0.99954
1.01308 0.999999 1.01363 0.999454
0.999213 1 1 0.999213
0.999253 1 1 0.999253
1.0134 1.01422 0.99935 0.99984
1.00091 1.00191 0.999723 0.999273
0.955186 0.958424 0.998555 0.998062
1.0008 1 1.00127 0.999526
1.0086 0.999579 1.00956 0.999474
0.996896 0.997521 0.999995 0.999379
0.977069 0.974427 1.00922 0.993551
0.995042 0.990074 1.00759 0.997452
0.951138 0.974941 0.979791 0.995708
1.0151 1.01091 1.00481 0.99934
0.974299 1.01101 0.965158 0.998482
1.00137 0.99954 1.00215 0.999678
1.01202 1.01227 0.999948 0.999803
1.01991 1.01552 1.00479 0.999537
1.0063 0.993817 1.01263 0.999931
0.968472 0.999197 0.971249 0.997941
0.978038 0.97705 1.00717 0.993889
0.948259 0.970657 0.981211 0.995632
1.00576 0.996577 1.00945 0.999771
1.01943 1.01844 1.00111 0.999859
1.0094 1.00726 1.00269 0.999442
0.948795 0.978659 0.972033 0.997378
0.948633 0.975676 0.976429 0.995753
0.99608 0.989493 1.00672 0.999938
0.979497 0.972056 1.01438 0.99337
1.00027 1 1.00089 0.999377
1.00223 1 1.00268 0.99955
1.00972 0.997553 1.01262 0.999582
0.999424 1 1 0.999424
0.999725 1 1.00037 0.999359
1.00094 1 1.00154 0.999403
0.999359 1 1 0.999359
0.99993 1 1.00043 0.999497
1.00371 1 1.00432 0.999394
0.999377 1 1 0.999377
0.999374 1 1 0.999374
0.99967 1 1.00034 0.999331
1.00462 1 1.0055 0.999124
0.999329 1 1 0.999329
1.00065 1 1.00154 0.999112
1.00269 1 1.00382 0.998874
1.00032 1 1.00145 0.998875
0.999377 1 1.00016 0.999219
0.999504 1 1.00054 0.998962
0.999449 1 1.00027 0.999175
0.999417 1 1.00016 0.999255
0.999318 1 1.00019 0.99913
0.999435 1 1 0.999435
0.999304 1 1 0.999304
0.999485 1 1.00037 0.99912
0.999665 1 1 0.999665
0.999459 1 1 0.999459
0.99933 1 1 0.99933
0.999526 1 1 0.999526
0.99971 1 1 0.99971
0.999959 1 1 0.999959
0.999745 1 1 0.999745
0.999968 1 1 0.999968
1 1 1 1
0.999973 1 1 0.999973
1 1 1 1
1 1 1 1
1 1 1 1
1 1 1 1
1 1 1 1
0.999711 1 1 0.999711
0.999938 1 1 0.999938
0.999758 1 1 0.999758
1 1 1 1
0.999959 1 1 0.999959
0.999816 1 1 0.999816
1 1 1 1
1 1 1 1
0.999968 1 1 0.999968
1 1 1 1
1 1 1 1
1 1 1 1
1.01235 1.01255 1.00002 0.999786
0.998863 0.999966 0.999705 0.999191
0.948017 0.958257 0.991628 0.997666
0.999563 1 1 0.999563
0.999526 1 1 0.999526
0.999463 1 1 0.999463
1.02048 1.01497 1.00602 0.999414
1.00992 1.00683 1.00362 0.999451
0.999766 1.00009 1.001 0.998676
1.00456 1.00274 1.00344 0.99838
0.969751 0.970114 1.00604 0.993629
0.938681 0.965223 0.976975 0.995421
0.968291 1.00094 0.969296 0.998024
0.986294 0.987346 1.00112 0.997815
0.971582 0.970365 1.0078 0.993503
0.950129 0.97235 0.980393 0.996689
0.97188 1.00682 0.966968 0.998267
0.97968 0.982811 0.999174 0.997639
0.980928 0.974048 1.01351 0.993643
0.943932 0.962066 0.984464 0.996634
0.968969 0.998185 0.972375 0.998309
0.999346 1 1 0.999346
0.99936 1 1 0.99936
0.999427 1 1 0.999427
0.999452 1 1 0.999452
0.999502 1 1 0.999502
0.999617 1 1 0.999617
1.0027 1.00714 0.996461 0.999134
1.00435 1 1.00503 0.999325
0.999307 1 1 0.999307
1.00143 1 1.00231 0.999116
0.999196 1 1 0.999196
0.999306 1 1 0.999306
0.999254 1 1 0.999254
0.997215 1.00033 0.997355 0.999532
0.999243 1 1 0.999243
1.01058 0.998062 1.01307 0.99948
0.999311 1 1 0.999311
1.011 0.992571 1.01882 0.999754
0.996027 0.995961 1.00044 0.99963
0.999281 1 1 0.999281
1.02027 1.02087 0.999502 0.99991
1.01347 1.01432 0.999306 0.99986
1.00043 1.0015 0.99965 0.999284
1.00149 0.99952 1.00232 0.999644
1.00063 0.994243 1.00651 0.999915
1.01173 1.01233 0.99959 0.999809
0.985872 0.980534 1.00959 0.995893
0.955248 0.971959 0.985917 0.996845
1.01935 1.01522 1.00442 0.999656
0.968463 1.00078 0.969622 0.998027
1.00503 0.997692 1.00757 0.999788
1.01967 1.01876 1.00102 0.999874
1.01008 1.00751 1.0031 0.999453
0.9954 0.986542 1.01049 0.998502
0.946902 0.97792 0.970885 0.997317
0.948357 0.973551 0.977414 0.996631
0.989046 0.977679 1.01796 0.99378
1.01944 0.993971 1.02574 0.99989
1.01279 1.01306 0.999943 0.999785
0.997737 1.00087 0.998194 0.998674
0.909704 0.945087 0.96561 0.996842
0.939841 0.967094 0.97522 0.996513
0.985049 0.976854 1.01481 0.993671
0.970091 0.980966 0.990842 0.998055
1.0012 1 1.00167 0.999534
1.01163 0.99838 1.01369 0.999586
1.0195 1 1.01998 0.999529
0.999357 1 1 0.999357
1.00005 1 1.00055 0.999497
1.00297 1 1.00356 0.99941
1.0125 1 1.01331 0.999204
0.99994 1 1.00063 0.999312
1.00458 1 1.0055 0.999084
1.00975 1 1.01097 0.998792
1.00018 1 1.00103 0.999148
1.00343 1 1.00456 0.998867
1.00367 1 1.005 0.998675
1.00011 1 1.00141 0.998701
0.999769 1 1.00071 0.999065
1.00031 1 1.00145 0.998858
0.999524 1 1.00059 0.998932
0.999431 1 1.00017 0.999261
0.999494 1 1.00029 0.999203
0.99936 1 1 0.99936
0.999433 1 1.00016 0.999272
0.99928 1 1.00013 0.999154
0.999612 1 1 0.999612
0.999436 1 1 0.999436
0.999301 1 1 0.999301
0.999939 1 1 0.999939
0.999666 1 1 0.999666
0.999454 1 1 0.999454
0.999709 1 1 0.999709
0.999956 1 1 0.999956
1 1 1 1
0.999965 1 1 0.999965
1 1 1 1
1 1 1 1
1 1 1 1
1 1 1 1
1 1 1 1
0.999708 1 1 0.999708
0.999957 1 1 0.999957
0.999722 1 1 0.999722
1 1 1 1
0.999957 1 1 0.999957
0.999773 1 1 0.999773
1 1 1 1
1 1 1 1
0.999958 1 1 0.999958
1 1 1 1
1 1 1 1
1 1 1 1
1.02024 1.01821 1.00214 0.999857
1.0136 1.01294 1.00086 0.999792
0.999047 0.999787 1.00006 0.999199
0.999509 1 1 0.999509
0.999435 1 1 0.999435
0.999569 1 1 0.999569
0.999523 1 1 0.999523
0.999449 1 1 0.999449
0.999439 1 1 0.999439
0.999383 1 1 0.999383
1.01091 1.00663 1.00495 0.999313
1.01928 1.01438 1.0053 0.999533
1.01062 1.00706 1.00408 0.999463
0.975721 1.01129 0.966298 0.99848
0.985431 0.987438 1.00116 0.996816
0.976932 0.974155 1.00844 0.994452
0.9522 0.968377 0.987656 0.995585
0.979081 0.982984 0.99893 0.997096
0.976648 0.972765 1.01056 0.993503
0.950406 0.97193 0.982051 0.995727
0.964344 0.993985 0.972043 0.998082
0.971042 0.977896 0.99482 0.998161
0.973395 0.974442 1.00558 0.99338
0.968137 0.984327 0.986765 0.996743
0.94675 0.979117 0.969135 0.997739
0.99935 1 1 0.99935
0.999344 1 1 0.999344
0.999359 1 1 0.999359
0.99945 1 1 0.99945
1.00463 1.00247 1.00263 0.999524
1.00876 0.996558 1.01275 0.999505
0.999297 1 1 0.999297
0.999255 1 1 0.999255
0.999273 1 1 0.999273
0.999309 1 1 0.999309
0.99927 1 1 0.99927
1.00622 0.991249 1.01546 0.99965
0.997621 0.997497 1.00044 0.999686
0.999302 1 1 0.999302
1.01133 0.987024 1.02483 0.999801
1.00195 0.998607 1.00396 0.99939
1.01433 1.01475 0.999753 0.999837
1.01938 1.02001 0.999468 0.999917
1.0135 1.0143 0.999332 0.99988
1.00444 0.99875 1.0059 0.999805
0.996455 0.986148 1.01056 0.999894
1.01983 1.01901 1.00091 0.999888
0.978499 0.971627 1.01372 0.993443
0.952453 0.969422 0.986899 0.995538
1.011 1.00776 1.00375 0.999464
0.942293 0.975549 0.968631 0.997191
1.02183 0.993514 1.02863 0.999873
1.01354 1.01327 1.00048 0.99979
0.999378 1.00101 0.999694 0.998678
0.974092 0.983908 0.990552 0.999466
0.903033 0.942776 0.961096 0.996618
0.93971 0.965394 0.977212 0.996095
0.988394 0.977324 1.01744 0.993994
1.00552 0.989903 1.01598 0.999792
1.00014 1.00092 1.00004 0.999184
0.943219 0.957621 0.987422 0.997508
0.912022 0.939854 0.974028 0.996262
0.979364 0.973446 1.01252 0.993642
0.966303 0.979545 0.989171 0.997281
1.01399 0.999534 1.01487 0.99959
1.01938 0.999224 1.02066 0.999523
1.01329 1 1.01389 0.999412
1.00229 1 1.00286 0.999427
1.01298 1 1.01375 0.999236
1.00917 1 1.01033 0.998848
1.00464 1 1.00561 0.999044
1.0097 1 1.01095 0.998761
1.00457 1 1.00601 0.998575
1.0041 1 1.00525 0.99886
1.00361 1 1.00496 0.998649
1.00179 1.00007 1.00315 0.998568
0.998691 1.00002 1 0.998667
0.999324 1 1.00046 0.998866
1.00036 1 1.00169 0.998673
0.999192 1 1 0.999192
0.999465 1 1.00038 0.999083
1.00024 1 1.00141 0.99884
0.999303 1 1 0.999303
0.999539 1 1.00028 0.999255
0.999523 1 1.00029 0.999231
0.999538 1 1 0.999538
0.999375 1 1 0.999375
0.999442 1 1.00015 0.999289
0.999897 1 1 0.999897
0.999612 1 1 0.999612
0.999438 1 1 0.999438
1 1 1 1
0.999935 1 1 0.999935
0.999666 1 1 0.999666
0.999952 1 1 0.999952
1 1 1 1
1 1 1 1
1 1 1 1
1 1 1 1
1 1 1 1
0.999508 1 1 0.999508
0.99968 1 1 0.99968
0.999946 1 1 0.999946
0.999708 1 1 0.999708
1 1 1 1
0.999961 1 1 0.999961
0.999733 1 1 0.999733
1 1 1 1
1 1 1 1
0.999976 1 1 0.999976
1 1 1 1
1 1 1 1
1 1 1 1
1.01301 1.01174 1.00146 0.999797
1.02054 1.01863 1.002 0.999872
1.01445 1.01336 1.00128 0.999797
0.999516 1 1 0.999516
0.999425 1 1 0.999425
0.999389 1 1 0.999389
0.999422 1 1 0.999422
0.999376 1 1 0.999376
0.999521 1 1 0.999521
0.999435 1 1 0.999435
0.99944 1 1 0.99944
0.999378 1 1 0.999378
0.999386 1 1 0.999386
0.996667 0.997324 1.00063 0.998707
1.01267 1.0081 1.00521 0.999323
1.01797 1.01386 1.00441 0.999652
0.960127 0.990531 0.971126 0.998125
0.953624 0.970781 0.985422 0.996858
0.972984 0.978921 0.997378 0.996548
0.978227 0.977214 1.00748 0.993605
0.971947 0.977806 0.997043 0.996956
0.981747 0.977919 1.01042 0.993557
0.954057 0.97652 0.980704 0.99622
0.946295 0.978978 0.968974 0.997565
0.985 0.979781 1.00793 0.997421
0.975788 0.977549 1.00447 0.993759
0.936266 0.964666 0.975049 0.995397
0.914066 0.953214 0.961986 0.996824
0.999482 1 1 0.999482
0.99935 1 1 0.99935
0.999342 1 1 0.999342
1.00177 0.989531 1.01283 0.999544
0.998088 0.997936 1.00041 0.999747
0.999307 1 1 0.999307
0.999259 1 1 0.999259
0.999345 1 1.00003 0.999312
1.00275 0.998929 1.00444 0.999385
1.00977 0.987367 1.02288 0.999811
1.00375 1 1.00435 0.999403
1.00811 0.994595 1.01406 0.999537
1.00064 1.0014 1 0.999238
1.01441 1.01485 0.999712 0.999858
1.01866 1.01934 0.999408 0.999925
1.02394 0.992999 1.03131 0.999855
0.973566 0.983541 0.992137 0.997702
1.01404 1.01349 1.00075 0.999796
0.979288 0.97564 1.01142 0.992409
0.938697 0.964455 0.977713 0.995479
1.00068 1.00119 1.00082 0.998681
0.896427 0.940791 0.956293 0.996393
1.00626 0.990619 1.01598 0.999814
1.00025 1.00107 0.999993 0.99919
0.938206 0.954494 0.985518 0.997379
0.965191 0.980225 0.986666 0.997969
0.914989 0.943903 0.973875 0.995372
0.972657 0.972097 1.00759 0.993041
0.986594 0.990757 0.99634 0.999457
0.953985 0.958804 0.996999 0.99797
0.90987 0.936043 0.97661 0.995319
0.973424 0.971314 1.00867 0.993561
0.984864 0.986805 1 0.998031
1.01871 0.998327 1.02091 0.999516
1.01563 1 1.01623 0.999406
0.993557 1 0.994427 0.999125
1.01325 1 1.01399 0.999269
1.00889 1 1.01002 0.998885
1.00196 1.00057 1.00272 0.998684
1.00949 1 1.01078 0.99873
1.00394 1 1.00537 0.998581
0.998774 1.00009 1.00003 0.99865
1.00342 1 1.0048 0.998624
1.00131 1.00031 1.00242 0.998578
1.00007 1.00136 1 0.998707
0.999018 1.00022 1 0.998797
0.998786 1 1.00002 0.998769
0.998677 1 1 0.998675
0.999037 1 1 0.999037
0.999533 1 1.0007 0.998835
1.00064 1 1.002 0.998644
0.999295 1 1 0.999295
0.999214 1 1 0.999214
0.999198 1 1.0001 0.999101
0.999462 1 1 0.999462
0.999369 1 1.00006 0.999309
0.999635 1 1.00039 0.999248
0.999825 1 1 0.999825
0.999538 1 1 0.999538
0.999389 1 1 0.999389
1 1 1 1
0.999894 1 1 0.999894
0.999613 1 1 0.999613
1 1 1 1
1 1 1 1
0.999931 1 1 0.999931
1 1 1 1
1 1 1 1
1 1 1 1
0.999464 1 1 0.999464
0.999648 1 1 0.999648
0.9995 1 1 0.9995
0.999935 1 1 0.999935
0.99968 1 1 0.99968
1 1 1 1
0.999949 1 1 0.999949
0.999708 1 1 0.999708
1 1 1 1
1 1 1 1
0.999965 1 1 0.999965
1 1 1 1
1 1 1 1
1 1 1 1
1.00043 1.00108 1 0.999352
1.01289 1.01193 1.00115 0.999802
1.02076 1.01896 1.00188 0.999886
0.999386 1 1 0.999386
0.999522 1 1 0.999522
0.999416 1 1 0.999416
0.999432 1 1 0.999432
0.999398 1 1 0.999398
0.999374 1 1 0.999374
0.999336 1 1 0.999336
0.999359 1 1 0.999359
0.999441 1 1 0.999441
0.999373 1 1 0.999373
0.999384 1 1 0.999384
0.999384 1 1 0.999384
0.936154 0.955413 0.982684 0.997108
0.996523 0.99693 1.00088 0.99871
1.01417 1.00931 1.00548 0.999333
0.94267 0.977948 0.966507 0.99733
0.957808 0.979125 0.982361 0.995794
0.972961 0.974247 1.00531 0.993407
0.973752 0.976283 0.999348 0.998059
0.984899 0.979055 1.00739 0.998589
0.905366 0.946306 0.959993 0.996608
0.980895 0.976381 1.01169 0.993017
0.934647 0.963873 0.973142 0.996441
0.984197 0.985738 0.999729 0.998707
0.974919 0.972439 1.00859 0.994015
0.910559 0.939681 0.972698 0.996207
1.00007 1 1.00041 0.999662
0.999484 1 1 0.999484
0.999351 1 1 0.999351
1.01049 0.990116 1.02076 0.999816
1.00444 1 1.00506 0.99938
0.999372 1 1.00005 0.999321
1.00405 1 1.00465 0.999407
1.00713 0.995124 1.01252 0.999557
1.00736 0.998377 1.00939 0.999617
0.952165 0.958808 0.995553 0.997507
1.00126 1.00188 0.999986 0.999396
1.01444 1.01483 0.999735 0.99988
1.00663 0.990981 1.01596 0.999837
0.966286 0.982261 0.98524 0.998474
1.00053 1.00116 1.00017 0.999198
0.976276 0.974355 1.00746 0.994555
0.919413 0.947911 0.973562 0.996275
0.931549 0.953889 0.979345 0.997177
0.985643 0.991166 0.994933 0.999492
0.947276 0.957923 0.99119 0.997674
0.920148 0.937548 0.985081 0.996305
0.983966 0.983779 1.00332 0.996877
0.97177 0.972235 1.00584 0.993722
0.976183 0.997876 0.978791 0.999458
0.922311 0.941726 0.98296 0.996362
0.971053 0.972038 1.00502 0.993994
0.99489 0.995012 1.00319 0.996693
1.01884 1 1.01945 0.999399
0.989989 1 0.990825 0.999156
0.981921 1.00086 0.982047 0.999015
1.00889 1 1.00998 0.998921
1.00195 1.00075 1.00251 0.998684
0.999687 1.00138 0.999428 0.998878
1.00341 1 1.00483 0.998586
0.999134 1.0001 1.00037 0.998664
1.00297 1.00406 1 0.99892
1.00094 1.00054 1.00181 0.998588
0.999927 1.00122 1 0.998712
1.0008 1.00185 1 0.998955
0.999332 1.00034 1 0.998992
0.998828 1 1 0.998828
0.998993 1.00018 1 0.998816
0.998921 1 1 0.998921
0.99879 1 1 0.99879
0.998683 1 1 0.998683
0.99922 1 1 0.99922
0.999038 1 1 0.999038
0.999692 1 1.00089 0.998805
0.999419 1 1 0.999419
0.999293 1 1 0.999293
0.999236 1 1 0.999236
0.999738 1 1 0.999738
0.999464 1 1 0.999464
0.999456 1 1.00014 0.999314
1 1 1 1
0.999823 1 1 0.999823
0.999538 1 1 0.999538
1 1 1 1
1 1 1 1
0.999892 1 1 0.999892
1 1 1 1
1 1 1 1
1 1 1 1
0.999459 1 1 0.999459
0.999467 1 1 0.999467
0.999609 1 1 0.999609
0.99992 1 1 0.99992
0.999648 1 1 0.999648
0.999492 1 1 0.999492
1 1 1 1
0.999937 1 1 0.999937
0.99968 1 1 0.99968
1 1 1 1
1 1 1 1
0.999951 1 1 0.999951
1 1 1 1
1 1 1 1
1 1 1 1
0.952087 0.957237 0.996887 0.997726
0.999419 1.00006 1 0.999362
1.01292 1.01226 1.00084 0.999807
0.999377 1 1 0.999377
0.99937 1 1 0.99937
0.999336 1 1 0.999336
0.999442 1 1 0.999442
0.999408 1 1 0.999408
0.999371 1 1 0.999371
0.999359 1 1 0.999359
0.999336 1 1 0.999336
0.999285 1 1 0.999285
0.999377 1 1 0.999377
0.999381 1 1 0.999381
0.999385 1 1 0.999385
0.917744 0.937707 0.982328 0.996317
0.936592 0.953516 0.985125 0.997082
0.996102 0.996215 1.00117 0.998713
0.896837 0.939547 0.957999 0.996392
0.933773 0.961559 0.9756 0.99539
0.989127 0.981954 1.01256 0.994814
0.989415 0.978406 1.01397 0.997325
0.982718 0.983731 1.00148 0.997497
0.913528 0.940474 0.975885 0.995351
0.976653 0.973758 1.00871 0.994317
0.987139 0.985323 1.00417 0.997682
0.974759 0.974523 1.00647 0.993814
1.00755 1 1.00819 0.999369
0.999916 1 1.00027 0.99965
0.999486 1 1 0.999486
1.00378 0.993378 1.0109 0.999577
1.00435 1 1.00494 0.999411
1.00766 0.998938 1.00918 0.999556
1.00128 1.00067 1.00146 0.99915
0.920241 0.943209 0.979518 0.99605
0.952774 0.957761 0.997005 0.997782
1.00203 1.00255 0.999918 0.999554
0.983562 0.991194 0.992763 0.999533
0.984451 0.983995 1.00266 0.997815
0.948497 0.958218 0.992148 0.997689
0.974806 0.972123 1.0092 0.993615
0.916946 0.938888 0.981135 0.995408
0.979743 0.998453 0.981901 0.999347
0.922746 0.941739 0.983964 0.9958
0.971188 0.971495 1.00601 0.993715
0.994891 0.991151 1.00606 0.997729
0.996343 1.00471 0.992439 0.99923
0.958575 0.968853 0.996187 0.993179
0.995049 0.996478 1.00037 0.9982
0.986423 1 0.987225 0.999187
0.983415 1.00096 0.983458 0.998998
0.9844 1.00209 0.983321 0.999008
1.0016 1.00089 1.00203 0.998685
0.999446 1.00178 0.998797 0.998873
1.00388 1.00703 0.997685 0.999181
0.999513 1.00012 1.00071 0.998678
1.0035 1.00459 1 0.998919
1.00578 1.00664 1 0.999147
0.999778 1.00106 1 0.998718
1.00068 1.00173 1 0.998954
1.00057 1.00146 1 0.999111
0.999173 1.00009 1 0.999083
0.999191 1.00018 1 0.999013
0.998972 1 1 0.998972
0.998911 1 1 0.998911
0.998832 1 1 0.998831
0.998905 1.00007 1 0.998834
0.999077 1 1 0.999077
0.998944 1 1 0.998944
0.998811 1 1 0.998811
0.999368 1 1 0.999368
0.999216 1 1 0.999216
0.999038 1 1 0.999038
0.999671 1 1 0.999671
0.99942 1 1 0.99942
0.999291 1 1 0.999291
0.999999 1 1 0.999999
0.999738 1 1 0.999738
0.999466 1 1 0.999466
1 1 1 1
1 1 1 1
0.999822 1 1 0.999822
1 1 1 1
1 1 1 1
1 1 1 1
0.999422 1 1 0.999422
0.999447 1 1 0.999447
0.99957 1 1 0.99957
0.99947 1 1 0.99947
0.999609 1 1 0.999609
0.99989 1 1 0.99989
1 1 1 1
0.999921 1 1 0.999921
0.999648 1 1 0.999648
1 1 1 1
1 1 1 1
0.999939 1 1 0.999939
1 1 1 1
1 1 1 1
1 1 1 1
0.929135 0.942048 0.990585 0.995667
0.949797 0.95774 0.994162 0.99753
0.998168 0.998795 1 0.999372
0.999369 1 1 0.999369
0.999326 1 1 0.999326
0.999379 1 1 0.999379
0.999343 1 1 0.999343
0.999317 1 1 0.999317
0.999359 1 1 0.999359
0.999335 1 1 0.999335
0.999291 1 1 0.999291
0.999277 1 1 0.999277
0.999287 1 1 0.999287
0.999321 1 1.00026 0.999064
0.999381 1 1 0.999381
0.999387 1 1 0.999387
0.969816 0.97684 0.999805 0.993003
0.923471 0.93961 0.986827 0.995943
0.937285 0.954351 0.985101 0.996972
0.914307 0.940092 0.976225 0.996258
0.976844 0.972336 1.01203 0.992697
0.984521 0.983423 1.00236 0.998763
0.989954 0.988464 1.00318 0.998334
0.974318 0.975868 1.00438 0.994059
0.989917 0.99815 0.994196 0.997541
1.00576 1.00132 1.0057 0.998749
1.00601 1 1.00666 0.999356
0.999637 1 1 0.999637
1.00754 1 1.00804 0.999499
1.00033 1.00101 1.00017 0.999147
0.950953 0.967575 0.988742 0.994011
0.924233 0.943092 0.984405 0.995529
0.954092 0.956904 0.999 0.99806
0.98355 0.999562 0.984736 0.999233
0.995962 0.991502 1.0078 0.996721
0.924639 0.941144 0.98689 0.995515
0.973103 0.972141 1.00707 0.993965
0.993239 1.00539 0.988693 0.999215
0.961338 0.970366 0.996515 0.99416
0.997598 0.998649 1.00182 0.997128
1.00467 1.00797 0.997832 0.998888
0.996677 0.996553 1.00133 0.998796
0.984231 1.00108 0.984168 0.99898
0.987278 1.00189 0.986422 0.998978
1.0042 1.01355 0.991732 0.999036
0.99939 1.00211 0.998416 0.998869
1.00268 1.00573 0.997787 0.999174
1.00901 1.01201 0.997814 0.999221
1.004 1.00509 1 0.998917
1.00597 1.00685 0.999994 0.999134
1.0039 1.00477 0.999987 0.999151
1.00059 1.00164 1 0.998952
1.00052 1.00142 1 0.999101
0.999913 1.00083 1 0.999087
0.999172 1.00006 1 0.999109
0.999021 1 1 0.999021
0.999108 1.00007 1 0.999034
0.998967 1 1 0.998967
0.998956 1 1 0.998956
0.999003 1 1 0.999003
0.998907 1 1 0.998907
0.998834 1 1 0.998834
0.999279 1 1 0.999279
0.999093 1 1 0.999093
0.998968 1 1 0.998968
0.999622 1 1 0.999622
0.999366 1 1 0.999366
0.999213 1 1 0.999213
0.999989 1 1 0.999989
0.999672 1 1 0.999672
0.999421 1 1 0.999421
1 1 1 1
0.999997 1 1 0.999997
0.999738 1 1 0.999738
1 1 1 1
1 1 1 1
1 1 1 1
0.999366 1 1 0.999366
0.999422 1 1 0.999422
0.999507 1 1 0.999507
0.999435 1 1 0.999435
0.999557 1 1 0.999557
0.999834 1 1 0.999834
0.999609 1 1 0.999609
0.999891 1 1 0.999891
1 1 1 1
1 1 1 1
1 1 1 1
0.999923 1 1 0.999923
1 1 1 1
1 1 1 1
1 1 1 1
0.965075 0.972511 0.998286 0.994058
0.924192 0.944916 0.981805 0.996193
0.953782 0.958808 0.997125 0.997626
0.999316 1 1 0.999316
0.999389 1 1 0.999389
0.999323 1 1 0.999323
0.999344 1 1 0.999344
0.999271 1 1 0.999271
0.999321 1 1 0.999321
0.999296 1 1 0.999296
0.99925 1 1 0.99925
0.999276 1 1 0.999276
0.999204 1 1 0.999204
0.999498 1.0004 1 0.999095
0.998895 1.00015 1.00011 0.99863
0.999188 1.00005 1.00006 0.999086
0.999385 1 1 0.999385
0.987726 0.993994 0.995929 0.997757
0.968619 0.974152 1.00052 0.993808
0.917287 0.940218 0.980127 0.995392
0.974279 0.97408 1.00657 0.99368
0.985592 0.988151 0.998472 0.998937
0.992432 0.997044 0.996749 0.998621
0.996734 1.00479 0.993062 0.998914
1.00288 1.00067 1.00337 0.998837
1.00497 1 1.00563 0.999343
0.99819 1.00112 0.997932 0.999139
0.983366 0.986386 0.999494 0.997444
0.958443 0.969124 0.994598 0.994351
0.922557 0.94298 0.981908 0.996368
0.991898 1.00606 0.986716 0.999199
1.00312 0.999909 1.00525 0.997973
0.961441 0.970204 0.995769 0.995179
0.998936 1.00636 0.993706 0.998907
0.994454 0.996595 0.999487 0.998364
1.00825 1.018 0.991597 0.998823
1.01256 1.0137 1.00009 0.998786
0.990415 1.00174 0.989737 0.998949
1.00497 1.01316 0.992874 0.999033
1.01195 1.01599 0.997001 0.999019
1.00158 1.00462 0.997808 0.999167
1.00941 1.01199 0.998238 0.999214
1.00658 1.00817 0.999398 0.999028
1.00616 1.00704 1 0.999121
1.00321 1.00408 1 0.99914
1.00132 1.00235 1 0.998973
1.00044 1.00135 1 0.99909
0.999801 1.0007 1 0.999097
0.999024 1.00006 1 0.998967
0.999143 1.00001 1 0.999136
0.999037 1 1 0.999035
0.998956 1 1 0.998956
0.998963 1 1 0.998963
0.998952 1 1 0.998952
0.999005 1 1 0.999005
0.99917 1 1 0.99917
0.999018 1 1 0.999018
0.998902 1 1 0.998902
0.999555 1 1 0.999555
0.999278 1 1 0.999278
0.999109 1 1 0.999109
0.999967 1 1 0.999967
0.999621 1 1 0.999621
0.999363 1 1 0.999363
1 1 1 1
0.999983 1 1 0.999983
0.999673 1 1 0.999673
1 1 1 1
0.999994 1 1 0.999994
1 1 1 1
0.999304 1 1 0.999304
0.999374 1 1 0.999374
0.999458 1 1 0.999458
0.999423 1 1 0.999423
0.9995 1 1 0.9995
0.999762 1 1 0.999762
0.999544 1 1 0.999544
0.999835 1 1 0.999835
1 1 1 1
0.999892 1 1 0.999892
1 1 1 1
1 1 1 1
1 1 1 1
1 1 1 1
1 1 1 1
0.981012 0.986272 0.996885 0.997775
0.958645 0.96975 0.994579 0.993937
0.922255 0.945178 0.980231 0.995427
0.999162 1 1 0.999162
0.999329 1 1 0.999329
0.999346 1 1 0.999346
0.999317 1 1 0.999317
0.999266 1 1 0.999266
0.999342 1 1 0.999342
0.999224 1 1 0.999224
0.999265 1 1 0.999265
0.999229 1 1 0.999229
0.999337 1.00022 1 0.999122
0.999352 1.00058 1 0.998768
1.00373 1.00538 1 0.998351
0.998919 1.00017 1.00013 0.998625
0.999186 1.00008 1 0.999107
1.00056 1.00583 0.995616 0.999144
0.988953 0.995344 0.996291 0.997278
0.971428 0.975961 1.00064 0.994719
0.99406 0.997628 0.998757 0.997663
1.00159 1.00641 0.996272 0.998937
1.00143 1.0002 1.00231 0.998927
1.00491 1.00591 0.999999 0.999006
0.984087 0.985341 1.00045 0.998282
0.956236 0.969251 0.992479 0.994048
0.992484 1.00453 0.989075 0.998924
0.993237 0.996365 0.998978 0.99788
1.00934 1.01833 0.992346 0.998811
1.01103 1.01194 1.00023 0.998878
1.01953 1.02173 0.999075 0.998762
1.01187 1.01333 0.999883 0.998682
1.00563 1.01256 0.994118 0.99903
1.0133 1.01698 0.997349 0.999027
1.00585 1.00713 0.999852 0.99888
1.00983 1.012 0.998646 0.999206
1.00744 1.00884 0.999588 0.999026
1.00184 1.00302 1 0.998823
1.00256 1.00343 1 0.99913
1.00131 1.00231 1 0.998995
0.999522 1.00069 1 0.998833
0.999708 1.0006 1 0.999107
0.999092 1.00012 1 0.998967
0.998894 1 1 0.998891
0.999061 1.00001 1 0.999049
0.998961 1 1 0.998961
0.99896 1 1 0.99896
0.998948 1 1 0.998948
0.998995 1 1 0.998995
0.999125 1 1 0.999125
0.999477 1 1 0.999477
0.999187 1 1 0.999187
0.999034 1 1 0.999034
0.999935 1 1 0.999935
0.999554 1 1 0.999554
0.999277 1 1 0.999277
1 1 1 1
0.999959 1 1 0.999959
0.999621 1 1 0.999621
1 1 1 1
0.999978 1 1 0.999978
1 1 1 1
0.999202 1 1 0.999202
0.999306 1 1 0.999306
0.999409 1 1 0.999409
0.999383 1 1 0.999383
0.999464 1 1 0.999464
0.999696 1 1 0.999696
0.999494 1 1 0.999494
0.999762 1 1 0.999762
1 1 1 1
0.999835 1 1 0.999835
1 1 1 1
1 1 1 1
1 1 1 1
1 1 1 1
1 1 1 1
1.00528 1.00896 0.997094 0.999253
0.980952 0.987573 0.996435 0.99685
0.962678 0.969877 0.998415 0.994153
0.999202 1 1 0.999202
0.998961 1 1 0.998961
0.999177 1 1 0.999177
0.999313 1 1 0.999313
0.99926 1 1 0.99926
0.999318 1 1 0.999318
1.00049 1.00162 1 0.998873
0.999254 1 1 0.999254
0.999148 1 1 0.999148
0.99961 1.00082 1 0.998792
1.0022 1.00379 1 0.998417
1.0087 1.01057 0.999519 0.998628
1.00255 1.0042 1 0.998364
0.998861 1.00024 1 0.99862
1.00356 1.00855 0.995866 0.999184
0.987314 0.994831 0.995736 0.996694
1.00479 1.00767 0.99819 0.998959
1.00798 1.00892 0.999975 0.999085
1.00412 1.00488 1.0002 0.999051
0.981103 0.98512 0.998714 0.997205
1.01057 1.01904 0.992879 0.9988
1.00892 1.01005 0.99991 0.99897
1.01922 1.02181 0.99868 0.998791
1.0132 1.01455 0.999959 0.998712
1.00866 1.01008 0.999826 0.998764
1.01047 1.0116 1 0.998885
1.01459 1.01805 0.997566 0.999036
1.00562 1.0071 0.999649 0.998886
1.00393 1.00521 1 0.998732
1.00815 1.00936 0.999774 0.999024
1.00174 1.00291 1 0.998833
1.00144 1.00272 1 0.998724
1.00128 1.00227 1 0.999017
0.999571 1.00074 1 0.998831
0.998874 1.00009 1 0.998784
0.999149 1.00018 1 0.998967
0.998899 1.00001 1 0.99889
0.998894 1 1 0.998894
0.998966 1 1 0.998966
0.998961 1 1 0.998961
0.999073 1 1 0.999073
0.998985 1 1 0.998985
0.999119 1 1 0.999119
0.99941 1 1 0.99941
0.999898 1 1 0.999898
0.999476 1 1 0.999476
0.999203 1 1 0.999203
1 1 1 1
0.999927 1 1 0.999927
0.999553 1 1 0.999553
1 1 1 1
0.999952 1 1 0.999952
1 1 1 1
0.999038 1 1 0.999038
0.999185 1 1 0.999185
0.999322 1 1 0.999322
0.999308 1 1 0.999308
0.99941 1 1 0.99941
0.99964 1 1 0.99964
0.999469 1 1 0.999469
0.999696 1 1 0.999696
0.999989 1 1 0.999989
0.999762 1 1 0.999762
1 1 1 1
1 1 1 1
1 1 1 1
1 1 1 1
1 1 1 1
1.00709 1.00876 0.99938 0.99896
1.00439 1.00816 0.997079 0.999184
0.980498 0.986214 0.996649 0.997547
1.00048 1.00157 1 0.998908
0.999287 1 1 0.999287
0.999095 1.00031 1 0.998787
0.99895 1 1 0.99895
0.999192 1 1 0.999192
1.00521 1.00669 1 0.998534
0.999294 1 1 0.999294
1.00041 1.00156 1 0.998853
1.00558 1.00707 1 0.998523
0.999798 1.00098 1 0.998817
1.00302 1.00464 1 0.998392
1.00653 1.00829 0.999635 0.998626
1.00084 1.00247 1 0.998376
1.00585 1.01048 0.996189 0.999224
1.00972 1.01072 1 0.999004
1.0081 1.00904 0.999986 0.999081
1.00381 1.00385 1.00087 0.999095
1.01915 1.02204 0.998353 0.998819
1.01469 1.01597 1 0.998742
1.00908 1.01046 0.999869 0.998766
1.01081 1.01193 1 0.998892
1.00832 1.00951 1 0.998813
1.00547 1.0071 0.999488 0.998891
1.00373 1.005 1 0.998737
1.00473 1.00606 1 0.998686
1.00167 1.00283 1 0.998843
1.00107 1.00236 1 0.998718
0.9996 1.00091 1 0.998692
0.999616 1.00079 1 0.998829
0.998984 1.0002 1 0.998782
0.998805 1 1 0.998805
0.998905 1.00002 1 0.998889
0.998893 1 1 0.998893
0.998996 1 1 0.998996
0.998962 1 1 0.998962
0.999073 1 1 0.999073
0.999345 1 1 0.999345
0.999114 1 1 0.999114
0.999409 1 1 0.999409
0.999873 1 1 0.999873
0.999991 1 1 0.999991
0.999893 1 1 0.999893
0.999476 1 1 0.999476
1 1 1 1
0.999918 1 1 0.999918
1 1 1 1
0.999416 1.00059 1 0.998822
0.998939 1 1 0.998939
0.999021 1 1 0.999021
0.999229 1 1 0.999229
0.999168 1 1 0.999168
0.999325 1 1 0.999325
0.999586 1 1 0.999586
0.999412 1 1 0.999412
0.99964 1 1 0.99964
0.999964 1 1 0.999964
0.999695 1 1 0.999695
0.999993 1 1 0.999993
1 1 1 1
1 1 1 1
1 1 1 1
1 1 1 1
1.00799 1.00919 1 0.998815
1.00945 1.01095 0.999511 0.999009
1.00456 1.00841 0.997069 0.999114
1.0027 1.00408 1 0.998629
0.999909 1.00094 1 0.99897
0.999371 1 1 0.999371
0.999261 1.00045 1 0.998811
0.998939 1 1 0.998939
1.01023 1.01177 1 0.998485
1.00489 1.0064 1 0.998506
1.00037 1.00153 1 0.998833
1.00626 1.00776 1 0.998515
1.00438 1.00602 1 0.998367
1.00594 1.00765 0.999677 0.998624
1.01159 1.0127 1 0.998897
1.00931 1.01032 1 0.998996
1.00835 1.00928 0.999996 0.999078
1.00935 1.01068 0.999914 0.998769
1.01131 1.01243 1 0.998899
1.00902 1.01021 1 0.998821
1.00902 1.0103 1 0.998732
1.00355 1.00481 1 0.998742
1.00411 1.00543 1 0.998682
1.00208 1.00342 1 0.998661
1.00071 1.002 1 0.998713
0.999938 1.00125 1 0.998691
0.998781 1.00005 1 0.99873
0.999092 1.00031 1 0.998779
0.998804 1 1 0.998804
0.998915 1 1 0.998915
0.998893 1 1 0.998893
0.998996 1 1 0.998996
0.99927 1 1 0.99927
0.999074 1 1 0.999074
0.999344 1 1 0.999344
0.999854 1 1 0.999854
0.999408 1 1 0.999408
0.999867 1 1 0.999867
0.999987 1 1 0.999987
0.999995 1 1 0.999995
0.999888 1 1 0.999888
1 1 1 1
1.00066 1.00201 1 0.998653
0.998922 1 1 0.998922
0.999289 1.00038 1 0.99891
0.99912 1 1 0.99912
0.998937 1 1 0.998937
0.999004 1 1 0.999004
0.99923 1 1 0.99923
0.999516 1 1 0.999516
0.999328 1 1 0.999328
0.999587 1 1 0.999587
0.999935 1 1 0.999935
0.999641 1 1 0.999641
0.999972 1 1 0.999972
1 1 1 1
0.999997 1 1 0.999997
1 1 1 1
1 1 1 1
1.01153 1.01285 1 0.998697
1.0077 1.0089 1 0.998813
1.01068 1.01192 0.999722 0.999057
1.00714 1.00863 1 0.998528
1.00247 1.00385 1 0.998632
0.999369 1.00034 1 0.999031
0.999431 1.0006 1 0.998835
1.00998 1.01151 1 0.998483
1.00454 1.00608 1 0.998477
1.00608 1.00758 1 0.998508
1.01093 1.01216 1 0.998781
1.01149 1.01264 1 0.99887
1.00855 1.00957 1 0.998988
1.00999 1.01131 1 0.998696
1.00959 1.01078 1 0.998829
1.00895 1.01023 1 0.998732
1.00552 1.00685 1 0.998681
1.00348 1.00481 1 0.998679
1.00239 1.00374 1 0.998662
0.999299 1.00062 1 0.998684
1.00026 1.00157 1 0.998691
0.998904 1.00017 1 0.99873
0.998851 1 1 0.998851
0.998803 1 1 0.998803
0.998914 1 1 0.998914
0.999195 1 1 0.999195
0.998995 1 1 0.998995
0.999268 1 1 0.999268
0.999835 1 1 0.999835
0.999343 1 1 0.999343
0.999849 1 1 0.999849
0.999984 1 1 0.999984
0.999862 1 1 0.999862
0.999988 1 1 0.999988
1 1 1 1
1.00202 1.00347 1 0.998555
0.998874 1.00013 1 0.998747
1.0002 1.00152 1 0.998683
0.999052 1 1 0.999052
0.998921 1 1 0.998921
0.999157 1.00016 1 0.998997
0.999411 1 1 0.999411
0.999119 1 1 0.999119
0.998935 1 1 0.998935
0.999231 1 1 0.999231
0.999517 1 1 0.999517
0.999901 1 1 0.999901
0.999587 1 1 0.999587
0.999943 1 1 0.999943
1 1 1 1
0.99998 1 1 0.99998
1 1 1 1
1 1 1 1
1.00964 1.01101 1 0.998653
1.01159 1.01293 1 0.998678
1.00802 1.00922 1 0.998811
1.00717 1.00866 1 0.998528
1.0022 1.00357 1 0.998633
1.00976 1.0113 1 0.998481
1.00973 1.01105 1 0.998693
1.01115 1.01238 1 0.998779
1.01157 1.01274 1 0.998842
1.01011 1.01142 1 0.9987
1.00725 1.00861 1 0.998657
1.00888 1.01016 1 0.998732
1.00564 1.00697 1 0.998678
1.00056 1.00189 1 0.998674
1.00272 1.00406 1 0.998664
0.999646 1.00096 1 0.998686
0.998798 1 1 0.998798
0.999039 1.00031 1 0.99873
0.99885 1 1 0.99885
0.999144 1 1 0.999144
0.998914 1 1 0.998914
0.999194 1 1 0.999194
0.999814 1 1 0.999814
0.999266 1 1 0.999266
0.999829 1 1 0.999829
0.999979 1 1 0.999979
0.999845 1 1 0.999845
0.999986 1 1 0.999986
0.999988 1 1 0.999988
1.00435 1.00573 1 0.998635
0.999002 1.00037 1 0.998631
1.00166 1.00311 1 0.99855
0.99891 1 1 0.99891
0.998846 1.00009 1 0.998758
0.999791 1.00108 1 0.998714
0.999303 1 1 0.999303
0.999023 1 1 0.999023
0.99892 1 1 0.99892
0.999858 1 1 0.999858
0.999413 1 1 0.999413
0.999117 1 1 0.999117
0.999519 1 1 0.999519
0.999909 1 1 0.999909
1 1 1 1
0.999951 1 1 0.999951
1 1 1 1
1 1 1 1
1.00829 1.00966 1 0.99864
1.00967 1.01104 1 0.998648
1.01157 1.01293 1 0.99866
1.00724 1.00873 1 0.998528
1.00769 1.00907 1 0.998631
1.01008 1.01139 1 0.998699
1.01137 1.0126 1 0.998777
1.0102 1.01151 1 0.998704
1.00721 1.00856 1 0.998659
1.00177 1.00311 1 0.998665
1.00576 1.00709 1 0.998674
1.00082 1.00214 1 0.998679
0.998809 1.00006 1 0.998752
0.999987 1.0013 1 0.998688
0.998799 1 1 0.998798
0.9991 1 1 0.9991
0.99885 1 1 0.99885
0.999143 1 1 0.999143
0.999781 1 1 0.999781
0.999193 1 1 0.999193
0.999804 1 1 0.999804
1 1 1 1
0.999824 1 1 0.999824
0.999982 1 1 0.999982
0.999987 1 1 0.999987
1.00443 1.00578 1 0.998657
0.999485 1.00083 1 0.998656
1.00439 1.00576 1 0.998639
0.998775 1 1 0.998775
0.998933 1.00029 1 0.998645
1.00125 1.00271 1 0.998544
0.999158 1 1 0.999158
0.998909 1 1 0.998909
0.998817 1.00005 1 0.998769
0.999815 1 1 0.999815
0.999277 1 1 0.999277
0.998994 1 1 0.998994
1 1 1 1
0.999867 1 1 0.999867
0.999415 1 1 0.999415
0.999916 1 1 0.999916
1 1 1 1
1 1 1 1
1.00676 1.00814 1 0.998634
1.00871 1.01007 1 0.998649
1.00968 1.01105 1 0.998644
1.00242 1.00381 1 0.998621
1.0073 1.00868 1 0.998629
1.01044 1.01175 1 0.998705
1.00718 1.00853 1 0.99866
1.00179 1.00313 1 0.998665
0.999039 1.00028 1 0.998758
1.00107 1.00239 1 0.998684
0.998842 1.00007 1 0.998777
0.999008 1 1 0.999008
0.998801 1 1 0.998799
0.9991 1 1 0.9991
0.999752 1 1 0.999752
0.999142 1 1 0.999142
0.999779 1 1 0.999779
1 1 1 1
0.999792 1 1 0.999792
0.999988 1 1 0.999988
0.999984 1 1 0.999984
1.00288 1.00422 1 0.998663
0.999486 1.0008 1 0.998692
1.00443 1.00577 1 0.998658
0.998783 1 1 0.998783
0.999653 1.00099 1 0.99866
1.00445 1.00581 1 0.998642
0.999077 1 1 0.999077
0.998806 1 1 0.998806
0.998865 1.00021 1 0.998659
0.999784 1 1 0.999784
0.999147 1 1 0.999147
0.998908 1 1 0.998908
1 1 1 1
0.999822 1 1 0.999822
0.999252 1 1 0.999252
1 1 1 1
0.999876 1 1 0.999876
1 1 1 1
1.00219 1.00356 1 0.998639
1.0064 1.00778 1 0.998635
1.00915 1.0105 1 0.998657
0.998918 1.0002 1 0.99872
1.00236 1.00374 1 0.998625
1.00694 1.00832 1 0.998627
1.00182 1.00315 1 0.998665
0.999027 1.00027 1 0.998758
0.998958 1 1 0.998958
0.998874 1.00007 1 0.998801
0.999031 1 1 0.999031
0.999702 1 1 0.999702
0.9991 1 1 0.9991
0.999749 1 1 0.999749
1 1 1 1
0.999777 1 1 0.999777
1 1 1 1
0.999979 1 1 0.999979
0.999784 1.00109 1 0.998699
1.00276 1.0041 1 0.998662
0.998783 1 1 0.998783
0.999576 1.00089 1 0.998691
1.0044 1.00575 1 0.998659
0.99908 1 1 0.99908
0.998781 1 1 0.998781
0.999818 1.00116 1 0.998664
0.999763 1 1 0.999763
0.999093 1 1 0.999093
0.998838 1 1 0.998838
1 1 1 1
0.999789 1 1 0.999789
0.999136 1 1 0.999136
1 1 1 1
0.99983 1 1 0.99983
1 1 1 1
0.998807 1.00006 1 0.998744
1.00204 1.0034 1 0.998641
1.00599 1.00736 1 0.998636
0.998934 1 1 0.998934
0.99891 1.00019 1 0.99872
1.00227 1.00364 1 0.998629
0.999015 1.00026 1 0.998758
0.998963 1 1 0.998963
0.999654 1 1 0.999654
0.999055 1 1 0.999055
0.999699 1 1 0.999699
1 1 1 1
0.999747 1 1 0.999747
1 1 1 1
1 1 1 1
0.998769 1 1 0.998769
0.999725 1.00103 1 0.998693
1.00265 1.004 1 0.998661
0.999059 1 1 0.999059
0.998782 1 1 0.998782
0.999668 1.00098 1 0.998691
0.99974 1 1 0.99974
0.999079 1 1 0.999079
0.998779 1 1 0.998779
1 1 1 1
0.999766 1 1 0.999766
0.99911 1 1 0.99911
1 1 1 1
0.999794 1 1 0.999794
1 1 1 1
0.998985 1 1 0.998985
0.998783 1.00006 1 0.99872
1.00191 1.00327 1 0.998643
0.999633 1 1 0.999633
0.998936 1 1 0.998936
0.998902 1.00018 1 0.99872
0.998969 1 1 0.998969
0.999652 1 1 0.999652
1 1 1 1
0.999696 1 1 0.999696
1 1 1 1
1 1 1 1
0.999024 1 1 0.999024
0.998759 1 1 0.998759
0.999667 1.00098 1 0.998687
0.99974 1 1 0.99974
0.999058 1 1 0.999058
0.998781 1 1 0.998781
1 1 1 1
0.999741 1 1 0.999741
0.999078 1 1 0.999078
1 1 1 1
0.999769 1 1 0.999769
1 1 1 1
0.999631 1 1 0.999631
0.998967 1 1 0.998967
0.998759 1.00006 1 0.998696
1 1 1 1
0.999632 1 1 0.999632
0.998938 1 1 0.998938
0.99965 1 1 0.99965
1 1 1 1
1 1 1 1
0.9997 1 1 0.9997
0.999024 1 1 0.999024
0.998749 1 1 0.998749
1 1 1 1
0.999712 1 1 0.999712
0.999056 1 1 0.999056
1 1 1 1
0.999742 1 1 0.999742
1 1 1 1
0.999917 1 1 0.999917
0.999661 1 1 0.999661
0.998949 1 1 0.998949
1 1 1 1
0.999632 1 1 0.999632
1 1 1 1
0.999933 1 1 0.999933
0.999689 1 1 0.999689
0.999024 1 1 0.999024
0.999972 1 1 0.999972
0.99971 1 1 0.99971
1 1 1 1
1 1 1 1
0.999641 1 1 0.999641
1 1 1 1
0.999963 1 1 0.999963
0.999672 1 1 0.999672
1 1 1 1
1 1 1 1
1 1 1 1

VECTORS lamdaE float
0.999207 1.00028 0.996278
0.999287 0.999647 0.998469
0.999082 1.00042 0.996373
0.999632 0.999942 0.996061
0.999348 1.0002 0.996193
0.999196 1.00004 0.996445
1.00014 1.00075 0.993937
0.99929 0.999522 0.998516
0.999253 1.00037 0.998377
0.999009 1.00011 0.998552
0.999391 0.999189 0.997
0.999976 1.00072 0.993958
0.999814 1.00001 0.995649
0.999492 0.999897 0.996086
0.998944 1.00064 0.996454
0.999511 0.999924 0.996172
0.999091 1.00018 0.996524
0.999202 1.00033 0.996295
1.00022 1.00068 0.993923
0.999761 1 0.998051
0.999667 0.999964 0.995958
0.999533 1.00003 0.996115
1.00086 0.99991 0.993558
1.00047 1.0004 0.993733
0.999304 0.999517 0.996749
0.999812 1.00095 0.994255
1.00189 1.00099 0.990637
0.999283 0.999394 0.998572
0.999338 1.00024 0.997206
0.999115 1.00011 0.99748
0.999355 0.999019 0.998666
0.999886 1.00082 0.993967
0.999611 1.00002 0.995951
0.999317 1.00045 0.996209
1.0008 1.00033 0.99391
0.999327 0.99843 0.998963
1.00021 1.00071 0.994506
0.999809 1.00052 0.994422
1.00088 1.00189 0.991161
0.999427 0.997859 0.999135
0.999806 1 0.99801
0.99959 0.999967 0.997103
0.999859 1 0.997965
0.999522 0.999992 0.995997
1.00123 1.00005 0.992226
0.999516 1 0.998323
1.00112 0.999958 0.99367
0.99939 0.99989 0.996282
0.999064 1.00047 0.996386
0.998973 1.00036 0.996619
1.00031 1.00056 0.993916
0.999705 1.00001 0.996951
0.999547 0.999937 0.996087
0.999215 0.999594 0.996828
0.999396 1.00008 0.996221
1.00091 0.999881 0.993513
0.999897 1.00089 0.994253
1.00055 1.00034 0.993709
1.00195 1.00102 0.990555
0.999802 1.00001 0.998009
0.999745 1 0.995774
1.00111 1.00001 0.993573
1.00088 0.999945 0.993462
1.00075 1.00006 0.993594
1.00303 0.999794 0.989773
1.00248 1.00035 0.989928
0.999484 0.998799 0.997145
0.999506 1.00086 0.99483
1.00116 1.00161 0.991267
1.00285 1.00103 0.988346
0.999408 1.00021 0.998248
0.999354 0.998832 0.99877
0.999204 0.99988 0.998442
0.999806 1.00091 0.993973
0.999639 1.00008 0.998175
0.999309 1.00028 0.998299
1.00069 1.00032 0.992901
0.999365 0.998515 0.998199
1.00006 1.00082 0.993622
0.999743 1.00051 0.994929
1.00087 1.00186 0.991154
0.999427 0.998155 0.99901
0.999603 0.999062 0.996281
1.00102 0.999971 0.992683
1.00047 1.0006 0.993149
1.00276 1.00037 0.989122
0.99965 1.00001 0.995933
1.00143 1.0014 0.990624
1.00044 1.00224 0.991648
1.00146 1.00217 0.989703
0.999466 0.997546 0.999222
0.999408 0.997805 0.999167
0.999686 0.999977 0.998151
0.999774 1 0.998043
0.99985 1 0.997977
0.999633 0.999995 0.99702
1.00123 1.00003 0.992837
0.999588 0.999965 0.997129
1.00108 0.999982 0.993164
0.999866 0.999999 0.997967
1.00127 0.999987 0.992177
1.00118 1.00005 0.993513
1.00345 0.999859 0.98836
1.00109 0.999905 0.993745
1.00326 0.999839 0.988757
0.999784 1.00002 0.995715
0.999423 0.999882 0.996217
0.999124 0.999641 0.996923
0.999264 1.00013 0.996321
1.00096 0.99987 0.993468
1.00062 1.00026 0.99369
0.999989 1.00077 0.994244
1.00201 1.00107 0.990472
0.999839 1 0.997987
0.999609 0.999993 0.995915
1.00117 0.999999 0.992649
1.00094 0.999914 0.99342
0.9994 0.998823 0.997946
0.999648 1.00077 0.994951
1.00081 1.00003 0.993558
1.00303 0.999777 0.989656
1.00125 1.00166 0.991161
1.00249 1.00042 0.990008
1.00284 1.00104 0.988354
1.00123 1.00002 0.992227
1.001 0.999984 0.993205
1.00338 0.999805 0.988849
1.00304 0.999807 0.989444
1.00293 0.999907 0.989586
1.00412 0.999448 0.987833
0.999469 0.998303 0.998923
1.00348 1.00028 0.987912
0.999621 1.00044 0.994815
1.00044 1.00204 0.991667
1.00213 1.00195 0.988887
1.00349 1.00083 0.987348
0.999673 0.999511 0.995623
1.00011 1.00128 0.993134
0.999589 1.0001 0.998187
0.999222 1.00017 0.998351
1.00068 1.00031 0.992911
0.999385 0.998376 0.998956
0.999646 1.00063 0.994555
0.999983 1.0009 0.993614
1.00087 1.00185 0.991147
0.9994 0.998101 0.999054
0.999606 0.999002 0.996312
1.00101 0.999991 0.993241
1.0004 1.0006 0.993709
1.00276 1.00036 0.989132
0.99962 0.999991 0.995301
1.00141 1.00138 0.990641
1.00041 1.00224 0.991646
1.00147 1.00217 0.989642
0.999579 0.999555 0.995818
0.999686 0.998585 0.996621
0.999995 1.00091 0.993696
1.00315 0.999974 0.988784
1.0021 1.00093 0.989835
1.00382 1.00026 0.987268
1.00025 1.00196 0.99226
1.00215 1.00151 0.989037
1.00092 1.00297 0.990091
1.00166 1.00245 0.989148
0.99955 0.99724 0.99927
0.999466 0.997486 0.999239
0.999393 0.997742 0.999196
0.999709 0.999107 0.995983
0.999484 0.998033 0.999035
0.999679 1 0.998164
0.999703 0.999984 0.998112
1.00104 0.999979 0.992638
1.00117 1.00004 0.992307
0.999826 1 0.997992
0.999862 1 0.997964
1.00126 0.999997 0.992181
1.00112 1.00005 0.993024
1.00345 0.999858 0.988361
1.00104 0.999887 0.992685
1.00325 0.999847 0.988759
1.00128 0.999983 0.992146
1.00357 0.999811 0.988184
1.00331 0.999882 0.988607
1.00452 0.999499 0.986758
1.00327 0.999814 0.988753
1.00433 0.999514 0.98714
0.999854 0.999999 0.99797
0.999472 0.999981 0.996061
1.00118 0.999991 0.99179
1.00099 0.99991 0.993377
0.999264 0.998795 0.998819
0.999797 1.00069 0.995065
1.00086 1 0.993524
1.00304 0.99975 0.989539
1.00251 1.0005 0.990088
1.00134 1.00174 0.991056
1.00282 1.00105 0.988361
1.00123 1 0.992221
1.00105 0.999984 0.993158
1.00337 0.999782 0.988599
1.00306 0.999836 0.98955
0.999459 0.998367 0.998882
0.999666 1.00036 0.995182
1.00054 1.00207 0.991763
1.00291 0.999953 0.98958
1.00413 0.999362 0.987696
1.00204 1.00194 0.988877
1.00349 1.00032 0.988019
1.00348 1.00083 0.987362
0.999655 0.999579 0.995609
1.00012 1.00124 0.99313
1.00355 0.999796 0.98822
1.00324 0.99983 0.989069
1.00445 0.99949 0.987207
1.00416 0.999409 0.987378
1.00397 0.999659 0.987804
1.00467 0.998906 0.987193
0.999648 0.99997 0.995195
1.00418 0.999834 0.987074
1.00022 1.00204 0.992092
1.00111 1.00254 0.989765
1.00276 1.00206 0.987916
1.00399 1.00032 0.987007
1.00017 1.0017 0.992624
1.00012 1.00073 0.993666
1.00033 1.0023 0.991739
1.00096 0.999983 0.992732
0.999378 0.998055 0.999096
0.999604 0.998949 0.996343
1.00027 1.00071 0.993261
1.00277 1.00034 0.989143
0.9996 0.999995 0.995261
1.00037 1.00224 0.991644
1.00138 1.00138 0.990659
1.00148 1.00216 0.989581
0.999586 0.999484 0.995843
0.999678 0.998559 0.996641
0.999979 1.00093 0.993707
1.00316 0.999983 0.988782
1.00208 1.00092 0.98986
1.00384 1.00027 0.987259
1.0002 1.002 0.992264
1.00219 1.00152 0.989071
1.0009 1.00297 0.99008
1.00165 1.00243 0.989113
0.999775 0.998226 0.996814
1.00012 1.00147 0.992924
0.999977 1.00025 0.994401
1.00018 1.00207 0.992266
1.00424 0.999729 0.987026
1.00301 1.001 0.988086
1.00448 0.999914 0.986397
1.00056 1.00294 0.990824
1.00259 1.00148 0.988442
1.00097 1.0038 0.989045
1.00189 1.00223 0.988706
1.0002 0.999196 0.995073
0.999928 0.997763 0.996981
0.999649 0.996973 0.9993
0.999561 0.997186 0.99928
0.999469 0.997422 0.999255
0.999772 0.998783 0.996213
0.999502 0.997799 0.999109
0.999702 0.999164 0.99596
0.999494 0.998069 0.999
1.00105 0.999889 0.992683
1.00108 1.00004 0.992491
1.00324 0.999853 0.98876
1.00345 0.999859 0.988363
1.00126 1.00001 0.992184
0.999869 1 0.997962
1.00129 0.999986 0.992144
1.00357 0.999815 0.988184
1.00331 0.99989 0.988608
1.00453 0.999502 0.986752
1.00326 0.999827 0.988747
1.00433 0.99951 0.98714
1.0036 0.999795 0.988151
1.00465 0.999414 0.986611
1.00439 0.999565 0.986971
1.00497 0.998946 0.986486
1.00435 0.999472 0.987118
1.00483 0.999091 0.986621
1.00125 0.999986 0.992213
1.0011 0.99998 0.993109
1.00337 0.999753 0.988349
1.00309 0.999851 0.989655
0.999453 0.998432 0.998839
0.999724 1.00034 0.995517
1.00067 1.00208 0.991859
1.00288 0.999994 0.989574
1.00414 0.999273 0.987558
1.00349 1.00036 0.988126
1.00194 1.00194 0.988867
1.00346 1.00083 0.987375
0.999642 0.999642 0.995595
1.00014 1.0012 0.993125
1.00354 0.999774 0.988144
1.00325 0.999833 0.989061
1.00447 0.999443 0.987147
1.00418 0.999469 0.98753
0.999655 0.999993 0.995194
1.00027 1.00205 0.992085
1.00111 1.00252 0.989904
1.00397 0.999711 0.98782
1.00468 0.998823 0.987166
1.00269 1.00205 0.987779
1.00416 0.999832 0.987084
1.00394 1.00028 0.987027
1.00018 1.00164 0.992633
1.00031 1.00228 0.991753
1.00012 1.00073 0.993655
1.0046 0.999476 0.986923
1.00439 0.999468 0.987211
1.00497 0.998977 0.986599
1.00474 0.998985 0.98689
1.00461 0.999011 0.987046
1.00496 0.998317 0.987182
1.00019 1.0019 0.992351
1.00459 0.999137 0.986901
1.00071 1.00252 0.990822
1.00152 1.00306 0.988542
1.00313 1.0019 0.98717
1.00426 0.999673 0.987298
1.00015 1.00034 0.99402
1.00046 1.00227 0.99155
1.00027 1.00196 0.992151
1.00036 1.00279 0.991258
1.00316 0.999989 0.988779
0.999668 0.998536 0.99666
0.9996 0.9994 0.995867
0.99998 1.00094 0.993718
1.00205 1.00092 0.989886
1.00384 1.00027 0.98725
1.00015 1.00205 0.99227
1.00088 1.00298 0.990068
1.00223 1.00154 0.989105
1.00162 1.00241 0.989077
0.999766 0.998217 0.996822
1.00011 1.0015 0.992926
0.999987 1.00022 0.994417
1.00016 1.00212 0.992257
1.00426 0.999732 0.987015
1.00299 1.001 0.988099
1.00447 0.999933 0.986394
1.00052 1.00293 0.99084
1.00262 1.0015 0.988482
1.001 1.00389 0.989002
1.00186 1.00208 0.98898
0.999856 0.997964 0.99692
1.00005 0.999734 0.9948
1.00035 1.00251 0.991578
1.00015 1.00139 0.992992
1.00008 1.00307 0.991479
1.00485 0.999318 0.986344
1.00355 1.00084 0.98723
1.00481 0.999607 0.986155
1.00054 1.00415 0.989621
1.00275 1.00126 0.988286
1.00124 1.00368 0.988149
1.00016 0.999292 0.995041
1.00023 1.00018 0.994043
1.00023 0.999136 0.995073
1.00019 0.999213 0.995068
0.999971 0.997572 0.997471
0.999916 0.997749 0.99721
0.9998 0.996774 0.998418
0.999663 0.996927 0.999307
0.999573 0.997132 0.99929
0.99984 0.998509 0.996367
0.999556 0.997561 0.999153
0.999774 0.998808 0.996196
0.999513 0.997831 0.999087
0.999693 0.999217 0.995937
0.999506 0.998116 0.998963
1.00327 0.999837 0.988741
1.0033 0.999898 0.988609
1.00431 0.999516 0.987141
1.00454 0.999503 0.986746
1.00357 0.999819 0.988184
1.00128 0.99999 0.992143
1.0036 0.999792 0.98815
1.00465 0.999417 0.98661
1.00438 0.999581 0.986966
1.00499 0.998899 0.986503
1.00436 0.999462 0.987115
1.00482 0.999108 0.986616
1.00468 0.999385 0.986582
1.00506 0.99881 0.98645
1.00488 0.999031 0.986551
1.00513 0.998377 0.98678
1.00488 0.999111 0.98655
1.00498 0.998389 0.98698
1.00352 0.999751 0.988069
1.00326 0.999839 0.989052
1.00448 0.999401 0.987087
1.0042 0.999528 0.987683
0.999662 1.00002 0.995193
1.0003 1.00207 0.992079
1.00111 1.0025 0.990044
1.00398 0.999764 0.987835
1.00468 0.998742 0.987139
1.00414 0.999831 0.987095
1.00263 1.00204 0.987643
1.00388 1.00023 0.987047
1.00019 1.00159 0.992641
1.00031 1.00225 0.991766
1.00012 1.00073 0.993644
1.00461 0.999448 0.986788
1.00439 0.999468 0.987202
1.00496 0.998906 0.98659
1.00476 0.999013 0.986911
1.00022 1.00187 0.992356
1.00076 1.00252 0.990796
1.00146 1.00307 0.988725
1.00459 0.999103 0.987088
1.00495 0.998251 0.987216
1.00304 1.00195 0.987086
1.00461 0.999151 0.986904
1.00424 0.999482 0.987376
1.00047 1.00228 0.991562
1.00037 1.00282 0.991201
1.00014 1.00035 0.994014
1.00025 1.00189 0.992223
1.00504 0.998929 0.986409
1.00492 0.99901 0.986696
1.00515 0.998494 0.986658
1.00503 0.998178 0.987128
1.00494 0.998395 0.987031
1.00508 0.997766 0.987437
1.00057 1.00228 0.991341
1.00482 0.998356 0.987257
1.00072 1.00323 0.989856
1.00193 1.00351 0.987594
1.00333 1.00157 0.98694
1.00466 0.998797 0.987466
1.00017 1.00008 0.994237
1.00024 1.00154 0.992598
1.0005 1.00266 0.991102
1.00026 1.00262 0.991626
1.0004 1.00293 0.991041
0.999756 0.99821 0.996829
1.00428 0.999735 0.987003
0.999998 1.00019 0.994434
1.00008 1.00156 0.992927
1.00013 1.00218 0.992249
1.00298 1.001 0.988111
1.00446 0.999954 0.98639
1.00049 1.00291 0.990856
1.00103 1.00396 0.988959
1.00265 1.00153 0.988522
1.00183 1.00196 0.989253
0.99985 0.997958 0.996923
1.00005 0.999722 0.994808
1.00034 1.00249 0.991583
1.00013 1.00142 0.992997
1.00007 1.00316 0.991373
1.00484 0.999314 0.98633
1.00353 1.00084 0.98724
1.00476 0.999626 0.986138
1.00049 1.00417 0.989634
1.00279 1.00127 0.988326
1.00138 1.00367 0.98822
1.00011 0.999461 0.994969
1.00017 1.00076 0.993587
1.00034 1.00361 0.990537
1.00002 1.00254 0.992099
1.00012 1.00374 0.990837
1.00504 0.998973 0.986262
1.00387 1.00042 0.987037
1.00483 0.999041 0.986427
1.00047 1.00492 0.988778
1.00247 1.00234 0.987712
1.00016 0.999307 0.995038
1.0002 1.00024 0.993948
1.00023 1.00019 0.994005
1.00017 1.00086 0.993591
1.00026 1.0002 0.993991
1.00027 0.999128 0.99502
1.00023 0.999143 0.99507
1.00003 0.997432 0.997491
1.00019 0.999227 0.995063
0.999979 0.997567 0.997473
0.999899 0.996552 0.998448
0.999905 0.99774 0.997436
0.999775 0.996729 0.998874
0.999678 0.996883 0.999315
0.999905 0.998257 0.996503
0.999843 0.998525 0.996357
0.999632 0.997315 0.999188
0.999558 0.997603 0.99914
0.999774 0.998838 0.996179
0.999525 0.997862 0.999064
1.00437 0.999451 0.987112
1.00438 0.999589 0.98696
1.00481 0.999121 0.986611
1.00499 0.998852 0.98652
1.00465 0.999419 0.986609
1.0036 0.999791 0.988149
1.00468 0.999385 0.986583
1.00507 0.998816 0.986438
1.00489 0.999042 0.986547
1.00514 0.998305 0.986855
1.00485 0.999107 0.986539
1.005 0.998319 0.987011
1.00508 0.998831 0.986396
1.00516 0.998384 0.986744
1.00506 0.998197 0.987013
1.00515 0.997905 0.987263
1.00501 0.998553 0.986728
1.00507 0.997809 0.987483
1.00463 0.999417 0.986653
1.00439 0.999476 0.987194
1.00496 0.998831 0.986581
1.00477 0.999042 0.986932
1.00025 1.00183 0.992361
1.00082 1.00251 0.99077
1.00139 1.00309 0.988908
1.00457 0.999192 0.987131
1.00494 0.998184 0.98725
1.00462 0.999164 0.986908
1.00295 1.00199 0.987002
1.00423 0.999288 0.987455
1.00046 1.0023 0.991573
1.00037 1.00286 0.991143
1.00014 1.00035 0.994008
1.00024 1.00182 0.992296
1.00503 0.998931 0.986416
1.00493 0.999023 0.986645
1.00514 0.998459 0.986673
1.00501 0.998246 0.987101
1.00059 1.00231 0.991329
1.00071 1.00317 0.990007
1.00188 1.00364 0.987566
1.00495 0.998462 0.987008
1.00507 0.997709 0.987477
1.00333 1.0016 0.986885
1.00482 0.998387 0.987246
1.00446 0.998562 0.987799
1.00053 1.00266 0.991103
1.00041 1.00294 0.991027
1.00023 1.00264 0.991622
1.00017 1.00008 0.994162
1.00024 1.00149 0.992646
1.00517 0.998398 0.986706
1.00514 0.998265 0.986857
1.00512 0.997431 0.987699
1.00508 0.997701 0.987386
1.00056 1.00279 0.990829
1.00505 0.997689 0.987591
1.0006 1.00389 0.989133
1.00231 1.00383 0.986595
1.00405 1.00045 0.986819
1.00018 0.99986 0.994267
1.00024 1.00122 0.993076
1.00019 1.00223 0.992143
1.0005 1.00278 0.990993
1.00027 1.00309 0.991168
1.00051 1.00282 0.990885
0.999843 0.997954 0.996927
1.00006 0.999709 0.994817
1.00483 0.999308 0.986315
1.00012 1.00144 0.993002
1.00031 1.00248 0.991588
1.00005 1.00324 0.991267
1.00352 1.00085 0.98725
1.00472 0.999644 0.98612
1.00046 1.00422 0.989647
1.00151 1.0037 0.988292
1.00282 1.00128 0.988368
1.00011 0.999467 0.99497
1.00017 1.00075 0.993598
1.00031 1.00362 0.990555
1.00002 1.00254 0.992099
1.00009 1.00376 0.990781
1.00504 0.999015 0.986238
1.00386 1.00041 0.987025
1.00481 0.998935 0.986594
1.00047 1.00495 0.988705
1.00249 1.00253 0.987555
1.00018 1.00042 0.993915
1.00005 1.00185 0.992629
1.00034 1.0042 0.989881
0.999988 1.0035 0.991092
1.00026 1.00388 0.990391
1.0051 0.997549 0.987445
1.00404 1.00047 0.986885
1.00476 0.998102 0.987157
1.00119 1.00468 0.988287
1.0024 1.00248 0.986892
1.00015 0.999324 0.995035
1.00021 1.00023 0.993995
1.00014 1.001 0.993345
1.00022 1.0002 0.993967
1.00026 1.0002 0.993991
1.00015 1.00087 0.993528
1.00006 1.00141 0.993218
1.00014 1.00087 0.993488
1.00029 1.00022 0.993935
1.00027 0.999188 0.994941
1.00026 0.999132 0.995021
1.00008 0.997364 0.997463
1.00023 0.999149 0.995067
1.00004 0.997437 0.997488
0.999968 0.996405 0.998461
0.999987 0.997562 0.997477
0.999889 0.996527 0.998451
0.999748 0.996676 0.999336
0.999964 0.998025 0.99663
0.999909 0.998268 0.996495
0.999713 0.997075 0.999222
0.999846 0.998543 0.996346
0.999626 0.997363 0.999177
0.999561 0.997636 0.999126
1.00483 0.999102 0.986529
1.00489 0.999056 0.986542
1.00503 0.998246 0.987041
1.00514 0.998231 0.98693
1.00507 0.998822 0.986427
1.00468 0.999386 0.986585
1.00508 0.998864 0.986369
1.00516 0.99842 0.98671
1.00509 0.998239 0.986938
1.00515 0.997816 0.987311
1.00501 0.998578 0.986731
1.00509 0.997668 0.987527
1.00517 0.998454 0.986668
1.00515 0.997887 0.987232
1.00515 0.997492 0.987617
1.00508 0.997512 0.987726
1.00502 0.998934 0.986422
1.00493 0.999033 0.986594
1.00513 0.998426 0.986689
1.00498 0.998314 0.987074
1.00062 1.00232 0.991317
1.00072 1.00311 0.990159
1.00183 1.00374 0.987539
1.00495 0.998529 0.986985
1.00507 0.997652 0.987517
1.00482 0.998416 0.987234
1.00333 1.00164 0.986829
1.00428 0.998342 0.988129
1.00056 1.00266 0.991104
1.00043 1.00294 0.991013
1.00021 1.00266 0.991617
1.00016 1.00007 0.994087
1.00024 1.00144 0.992695
1.00516 0.998409 0.986708
1.00513 0.998272 0.986902
1.00511 0.997523 0.987628
1.00062 1.00279 0.990811
1.00073 1.00386 0.989297
1.00227 1.00389 0.986556
1.00508 0.997729 0.98741
1.00397 1.00031 0.986985
1.00498 0.997712 0.987608
1.00018 0.999832 0.994296
1.00053 1.00278 0.990982
1.00049 1.00281 0.990945
1.00027 1.00313 0.991123
1.00019 1.00222 0.992169
1.00023 1.0012 0.993011
1.00516 0.998063 0.986973
1.00513 0.997381 0.987761
1.00511 0.997003 0.988023
1.00509 0.997182 0.987964
1.00056 1.00318 0.990475
1.00484 0.99808 0.987369
1.00109 1.00492 0.987537
1.00296 1.00329 0.986121
1.00019 0.999638 0.994482
1.00024 1.00096 0.993327
1.00019 1.00196 0.992461
1.00015 1.00282 0.991588
1.00057 1.00302 0.990675
1.00055 1.00289 0.990794
1.00011 0.999473 0.99497
1.00017 1.00073 0.993609
1.00504 0.999059 0.986215
1.00002 1.00254 0.992098
1.00027 1.00362 0.990573
1.00004 1.00381 0.990724
1.00386 1.0004 0.987014
1.00481 0.998832 0.986762
1.00046 1.00495 0.98863
1.00251 1.00272 0.987399
1.00018 1.0004 0.993921
1.00007 1.00182 0.992669
1.0003 1.00427 0.989939
0.999963 1.00358 0.991089
1.00018 1.00383 0.99051
1.0051 0.997585 0.987611
1.00409 1.00038 0.986816
1.0049 0.997978 0.987226
1.00104 1.00472 0.988214
1.00258 1.00267 0.986724
1.0001 1.00123 0.993159
0.999963 1.00285 0.991709
1.00049 1.00429 0.989552
0.99999 1.00417 0.990122
1.00515 0.996184 0.988849
1.00511 0.996757 0.988311
1.00412 1.00011 0.986741
1.0014 1.0043 0.987064
1.00022 1.00022 0.994042
1.00014 1.00101 0.993374
1.00002 1.0017 0.992977
1.00026 1.0002 0.993991
1.00014 1.00087 0.993465
1.00029 1.0002 0.993935
1.00005 1.00142 0.993169
1.00016 1.00084 0.993509
1 1.00183 0.992859
1.0001 1.0013 0.993176
1.00018 1.00086 0.993423
1.00029 1.00027 0.993862
1.00027 0.999269 0.994869
1.00027 0.999193 0.994941
1.00012 0.997365 0.997409
1.00026 0.999134 0.995021
1.00009 0.997388 0.997454
1.00002 0.99634 0.998433
1.00005 0.997445 0.997486
0.999961 0.99638 0.998465
0.99988 0.996503 0.998452
1.00002 0.997806 0.996749
0.999969 0.99803 0.996623
0.999791 0.996847 0.999253
0.999913 0.998278 0.996487
0.999704 0.99712 0.999212
0.999622 0.99741 0.999165
1.00501 0.998603 0.986734
1.00512 0.998282 0.986864
1.0051 0.99753 0.987571
1.00515 0.997729 0.98736
1.00516 0.998456 0.986676
1.00508 0.998898 0.986342
1.00516 0.998448 0.986676
1.00514 0.997913 0.987206
1.00514 0.997505 0.987598
1.00511 0.997457 0.987725
1.00516 0.99804 0.987071
1.00515 0.997273 0.987883
1.00514 0.996952 0.988093
1.00515 0.998419 0.98671
1.00511 0.998279 0.986947
1.00511 0.997618 0.987557
1.00066 1.00279 0.990793
1.00086 1.00377 0.989462
1.00222 1.004 0.986517
1.00508 0.997758 0.987434
1.0049 0.997732 0.987627
1.00389 1.00016 0.987154
1.00056 1.00278 0.990971
1.00045 1.0028 0.991005
1.00028 1.00317 0.991078
1.00018 0.999804 0.994324
1.00019 1.00221 0.992194
1.00023 1.00119 0.992946
1.00517 0.998103 0.986984
1.00513 0.997357 0.987807
1.00511 0.997046 0.988014
1.0006 1.00319 0.99043
1.00098 1.00477 0.987869
1.00298 1.00313 0.986159
1.00509 0.997174 0.98796
1.00487 0.998159 0.987308
1.00019 0.999612 0.994581
1.00023 1.00096 0.993327
1.00049 1.00291 0.990722
1.00054 1.0028 0.990968
1.00017 1.00281 0.99155
1.00017 1.00199 0.992414
1.00515 0.997402 0.987707
1.00509 0.996488 0.988655
1.00508 0.996485 0.988521
1.00507 0.996937 0.988331
1.00039 1.004 0.989624
1.00388 1.00079 0.986547
1.00175 1.00485 0.986998
1.00021 0.999459 0.994797
1.00018 1.00056 0.993763
1.00021 1.00081 0.993373
1.00015 1.00182 0.992591
1.00007 1.00266 0.991892
1.00004 1.00334 0.991144
1.00084 1.0018 0.99117
1.00042 1.0028 0.991739
1.00019 1.00038 0.993926
1.00009 1.0018 0.992708
1.00509 0.997625 0.987777
0.999969 1.00362 0.991087
1.00025 1.00437 0.989999
1.00009 1.00378 0.990628
1.00413 1.00028 0.986745
1.00505 0.997834 0.987294
1.00088 1.00473 0.988142
1.00277 1.00282 0.986556
1.00012 1.00126 0.993116
0.999987 1.00288 0.991711
1.00043 1.00432 0.989594
1.0001 1.00418 0.99021
1.00513 0.996198 0.988922
1.00511 0.996884 0.988145
1.0042 1.00008 0.9868
1.00168 1.00426 0.986909
0.999997 1.00206 0.992623
1.00516 0.995582 0.98929
0.999993 1.00401 0.990884
1.00061 1.00461 0.98896
1.00514 0.995807 0.989263
1.00497 0.99754 0.987481
1.00296 1.00311 0.986413
1.00015 1.00103 0.993403
1.00001 1.0017 0.992969
0.999918 1.00224 0.992614
1.00029 1.00019 0.993935
1.00017 1.00082 0.99353
1.00003 1.00143 0.993119
1.00029 1.00026 0.993859
1.00018 1.00086 0.993434
1 1.00185 0.992808
1.0001 1.00128 0.993224
1 1.00206 0.992555
1.0001 1.00163 0.992816
1.00014 1.00124 0.993209
1.00026 1.00085 0.993325
1.00029 1.00036 0.993779
1.00025 0.999335 0.994823
1.00026 0.999273 0.99487
1.00013 0.997388 0.997355
1.00027 0.9992 0.99494
1.00012 0.997395 0.9974
1.00005 0.996319 0.998398
1.00009 0.997411 0.997445
1.00002 0.996307 0.99844
0.999954 0.996356 0.998468
1.00021 0.99934 0.994906
1.00007 0.99762 0.996848
1.00002 0.997812 0.996743
0.999863 0.996638 0.999283
0.999975 0.998036 0.996616
0.999782 0.99689 0.999244
0.999696 0.997168 0.999201
1.00514 0.997405 0.987725
1.00514 0.997515 0.987578
1.00514 0.997932 0.987181
1.00516 0.998442 0.986685
1.00516 0.99801 0.987113
1.00515 0.997269 0.987863
1.00515 0.996922 0.988084
1.00516 0.997309 0.987769
1.00513 0.996702 0.98854
1.00512 0.995284 0.989442
1.00517 0.998144 0.986995
1.00513 0.997331 0.987852
1.00512 0.997089 0.988006
1.00064 1.0032 0.990385
1.00088 1.00465 0.988201
1.00299 1.00295 0.986197
1.00509 0.997174 0.987956
1.00489 0.998231 0.987246
1.00042 1.0028 0.990768
1.00055 1.00271 0.991137
1.00014 1.00285 0.991513
1.0002 0.999584 0.994679
1.00023 1.00096 0.993327
1.00015 1.00203 0.992367
1.00515 0.997327 0.98781
1.00021 0.999452 0.994796
1.00016 1.00059 0.993718
1.00509 0.99655 0.988639
1.0051 0.996469 0.988465
1.00032 1.00404 0.989863
1.00169 1.00481 0.98688
1.00383 1.00076 0.986554
1.005 0.996935 0.988287
1.00022 1.00079 0.993508
1.00015 1.00182 0.992585
1.00097 1.00199 0.990864
1.00023 1.00238 0.992103
1.00002 1.00343 0.991084
1.00009 1.00262 0.991905
1.00515 0.996219 0.988893
1.00511 0.996071 0.98911
1.00506 0.995987 0.988875
1.00469 0.997309 0.988086
1.00067 1.00345 0.98996
1.0025 1.00388 0.986528
1.00014 1.0005 0.993778
1.0002 1.00069 0.993613
1.00009 1.00148 0.993138
1.00013 1.00171 0.992599
1.00004 1.00256 0.992158
0.999914 1.00331 0.991273
0.999742 1.00434 0.990919
1.00036 1.00165 0.992241
1.00013 1.00127 0.993073
1.00001 1.00291 0.991713
1.00512 0.996196 0.988995
1.00509 0.997042 0.987979
1.0002 1.00419 0.990298
1.00037 1.00434 0.989634
1.00428 1.00007 0.986861
1.00197 1.00425 0.986754
0.999994 1.00208 0.992597
1.00514 0.995627 0.989304
0.999932 1.0039 0.990934
1.00061 1.00454 0.988869
1.00515 0.995732 0.989168
1.00496 0.9975 0.987651
1.00286 1.00319 0.986484
0.99992 1.00318 0.991753
1.00509 0.995124 0.990575
1.00049 1.00427 0.990134
1.00135 1.00473 0.988025
1.00506 0.996534 0.988706
1.00351 1.00078 0.987169
1 0.999357 0.992641
1.00001 1.0017 0.992962
0.999911 1.00226 0.992605
1.00001 1.00245 0.992248
1.0003 1.00026 0.993856
1.00017 1.00087 0.993445
1.00011 1.00125 0.993272
1 1.00188 0.992757
1.00029 1.00036 0.993775
1.00025 1.00084 0.993321
1.00002 1.00209 0.992522
1.00014 1.00124 0.993204
1.0001 1.00165 0.992862
1.00013 1.00184 0.992592
1.00018 1.00131 0.993019
1.00021 1.00116 0.993144
1.00034 1.00089 0.993149
1.0003 1.00042 0.99362
1.00025 1.00095 0.993341
1.00028 1.00042 0.993643
1.00025 0.999363 0.99481
1.00025 0.999337 0.994824
1.00016 0.997446 0.996846
1.00026 0.999278 0.994871
1.00015 0.997417 0.997117
1.00003 0.996265 0.999313
1.00012 0.997422 0.997393
1.00005 0.996279 0.998403
1.00001 0.996276 0.998445
1.0002 0.999283 0.994983
1.00021 0.999338 0.994902
1.00011 0.99749 0.996913
1.00006 0.997622 0.99708
0.999926 0.996467 0.999306
1.00003 0.997817 0.996737
0.999855 0.996678 0.999274
0.999773 0.996933 0.999234
1.00516 0.996893 0.988074
1.00515 0.997264 0.987843
1.00516 0.997985 0.987156
1.00516 0.997303 0.987754
1.00513 0.996672 0.988499
1.00513 0.995461 0.989389
1.00514 0.995957 0.989024
1.0011 0.999963 0.98849
1.00512 0.994937 0.990755
1.00012 1.00049 0.993947
1.00515 0.997253 0.987914
1.00508 0.996607 0.988624
1.00512 0.996517 0.988409
1.00024 1.00408 0.990103
1.00163 1.00479 0.986761
1.00378 1.00075 0.986559
1.00495 0.996938 0.988244
1.00109 1.00217 0.990564
1.00002 1.00195 0.992478
1.00002 1.00346 0.991025
1.00021 0.999448 0.994796
1.00011 1.00258 0.991919
1.00023 1.00077 0.993644
1.00015 1.00182 0.992578
1.00016 1.00059 0.993674
1.00515 0.99611 0.988986
1.00014 1.0005 0.993847
1.0002 1.00069 0.99361
1.0001 1.00147 0.993044
1.00511 0.995977 0.989102
1.00505 0.996161 0.98879
1.00075 1.00318 0.990036
1.00218 1.00381 0.986609
1.00468 0.997591 0.988077
1.00013 1.00173 0.992655
1.00005 1.00254 0.992115
1.00029 1.00204 0.991914
0.999756 1.00412 0.991084
0.999954 1.00334 0.991334
1.0051 0.995417 0.989729
1.005 0.996456 0.989047
1.00507 0.996377 0.988482
1.00322 1.00082 0.987994
1.00053 1.00339 0.990282
1.00011 1.00135 0.993
1.00009 1.0016 0.992799
1.00007 1.00207 0.992573
1.00003 1.00246 0.992129
0.999954 1.00311 0.991651
0.999769 1.00416 0.990859
0.999702 1.00455 0.99056
0.999998 1.0021 0.992571
0.999862 1.00378 0.990985
1.00512 0.995671 0.989317
1.00516 0.995662 0.989073
1.00496 0.997419 0.98782
1.00061 1.00448 0.98878
1.00276 1.00325 0.986556
0.99989 1.00309 0.991894
1.00509 0.995095 0.99054
1.00026 1.00425 0.990193
1.00105 1.00481 0.988113
1.00506 0.99621 0.988811
1.00352 1.00076 0.987128
0.999939 0.999488 0.991077
1.00003 1.00353 0.991222
1.00475 0.995702 0.991177
1.00019 1.0045 0.990081
1.00145 1.00403 0.987972
1.00404 0.997297 0.988527
1.00152 0.995169 0.960249
0.996078 0.999859 0.978568
0.999104 1.00029 0.993332
0.999459 0.997271 0.941096
0.995021 0.998161 0.934129
0.999911 1.00227 0.992595
0.99996 1.00248 0.992308
1.00001 1.00216 0.99257
1.00029 1.00035 0.993771
1.00025 1.00082 0.993317
1.00015 1.00124 0.993199
1.0001 1.00167 0.992907
1.00005 1.00209 0.992489
1.00022 1.00115 0.993115
1.00029 1.00042 0.993674
1.00034 1.00088 0.993172
1.00012 1.00185 0.992607
1.00018 1.00133 0.993021
1.00022 1.00123 0.992989
1.00017 1.00123 0.993096
1.00032 1.00113 0.992974
1.00039 1.00096 0.992957
1.00029 1.00044 0.993614
1.00033 1.00095 0.993138
1.00028 1.0012 0.993028
1.00016 1.001 0.993353
1.00025 1.00096 0.993282
1.00027 1.00037 0.993789
1.00028 1.00043 0.993636
1.00025 0.999357 0.994823
1.00025 0.999362 0.99481
1.00015 0.997497 0.996829
1.00025 0.999336 0.994825
1.00016 0.99745 0.996845
1.00003 0.996273 0.999306
1.00015 0.997445 0.996879
1.00005 0.996268 0.998845
1.00006 0.99624 0.998407
1.00019 0.99924 0.995043
1.0002 0.999276 0.994982
1.00013 0.997405 0.996955
1.00022 0.999335 0.994899
1.0001 0.997475 0.997145
0.999975 0.996347 0.999319
1.00007 0.99764 0.996834
0.999916 0.996525 0.999296
0.999846 0.996716 0.999265
1.00512 0.99664 0.988459
1.00517 0.997301 0.987739
1.00514 0.995681 0.989337
1.00107 0.999084 0.988612
1.00514 0.99602 0.989051
1.00512 0.995205 0.990657
1.0051 0.995934 0.98999
0.997675 0.999951 0.975335
1.00254 0.996676 0.989683
1.00013 1.00047 0.993968
1.00013 1.00048 0.993947
1.00009 1.00131 0.99319
1.00009 1.00126 0.993247
1.00516 0.996017 0.989079
1.00511 0.995893 0.989094
1.00509 0.996236 0.988705
1.00084 1.00295 0.990111
1.00188 1.0037 0.98669
1.00468 0.99794 0.988069
1.00022 1.00247 0.991577
0.999786 1.0039 0.991249
0.999994 1.00335 0.991395
1.00019 1.0007 0.993607
1.00006 1.0025 0.992072
1.00013 1.00175 0.992712
1.00014 1.00049 0.993915
1.00009 1.00147 0.99295
1.00509 0.995463 0.989711
1.00011 1.00137 0.993104
1.0001 1.0016 0.992841
1.00005 1.00203 0.992567
1.00503 0.99608 0.989096
1.00506 0.996373 0.988465
1.00063 1.00325 0.990259
1.00324 1.00099 0.987932
1.00004 1.00252 0.992127
0.99992 1.00309 0.991707
0.999734 1.00455 0.990559
0.999861 1.00422 0.990797
1.00506 0.995971 0.989449
1.00505 0.995721 0.989356
1.00412 0.998853 0.988126
1.00066 1.00357 0.989989
1.0001 1.00207 0.992366
1.00001 1.00227 0.992357
0.999876 1.00343 0.99144
0.99987 1.00502 0.989869
1.00071 0.995044 0.956624
0.999851 1.003 0.992035
1.00002 1.00422 0.990252
1.00508 0.995053 0.9905
1.00507 0.995874 0.988916
1.00352 1.00072 0.987085
1.00075 1.00489 0.988201
0.999861 0.999598 0.989488
0.999907 1.00357 0.991337
1.00472 0.995495 0.991113
1.00007 1.0045 0.990135
1.00139 1.00406 0.987941
1.00426 0.997371 0.988539
1.00186 0.995439 0.956711
0.995861 0.999674 0.974753
0.999187 1.00024 0.993492
0.998396 0.997617 0.942175
0.994796 0.998146 0.929457
0.999721 1.00355 0.991891
0.999991 0.994969 0.943614
0.994885 0.999716 0.935591
1.00425 0.995942 0.991457
0.999718 1.00486 0.990408
1.00199 1.00152 0.988922
0.998252 1.00036 0.995574
0.998975 0.997773 0.960735
0.994851 0.999713 0.974222
0.997642 0.999704 0.943148
0.994604 0.999883 0.939324
0.999898 1.00253 0.992368
0.999972 1.00224 0.992548
0.999982 1.00126 0.993639
1.00028 1.00041 0.993727
1.00033 1.00087 0.993196
1.00021 1.00115 0.993085
1.00018 1.00135 0.993023
1.00012 1.00189 0.992622
1.00029 1.00044 0.993613
1.00023 1.00126 0.992971
1.00031 1.00114 0.992994
1.00039 1.00095 0.993027
1.00017 1.00121 0.99313
1.00031 1.00112 0.992956
1.00026 1.00045 0.993707
1.00041 1.00114 0.992808
1.00038 1.00095 0.993059
1.00035 1.00094 0.993133
1.00029 1.00118 0.993015
1.0004 1.00109 0.992864
1.00017 1.00129 0.993068
1.00025 1.0012 0.993023
0.999905 1.00201 0.992794
1.00009 1.0011 0.99339
1.00016 1.00101 0.993354
1.00025 1.00036 0.993841
1.00026 1.00097 0.993223
1.00027 1.00038 0.993749
1.00024 0.999336 0.994852
1.00028 1.00045 0.993629
1.00025 0.99935 0.994823
1.00011 0.997522 0.997318
1.00025 0.99936 0.99481
1.00014 0.997489 0.997071
1.00008 0.9963 0.998344
1.00016 0.997455 0.996844
1.00003 0.996279 0.999304
1.00008 0.996273 0.998376
1.00015 1.00045 0.993946
1.00019 0.999204 0.995077
1.00019 0.999234 0.995044
1.00014 0.997342 0.996996
1.00021 0.99927 0.994981
1.00013 0.997393 0.996954
1.00001 0.99626 0.99933
1.00009 0.99748 0.99737
0.999988 0.996388 0.99885
0.999957 0.996563 0.998351
1.00089 0.998211 0.988747
1.00515 0.996057 0.989078
1.00513 0.995444 0.990559
0.997112 0.999088 0.9772
1.00238 0.997117 0.989933
1.0051 0.995483 0.990004
1.00438 0.995814 0.990283
0.998424 0.99675 0.979922
1.00038 0.995679 0.959509
0.998191 0.997298 0.943881
0.994657 0.998249 0.933129
1.00006 1.00133 0.993136
1.00013 1.00047 0.993967
1.00014 1.00046 0.993947
1.00009 1.00132 0.993157
1.00003 1.00185 0.992746
1.00013 1.00167 0.992829
1.00012 1.00126 0.993223
1.00008 1.00129 0.9932
1.00508 0.995502 0.989693
1.00506 0.995707 0.989141
1.00499 0.996385 0.988448
1.00072 1.00306 0.990239
1.00323 1.00105 0.987869
0.999764 1.00452 0.990559
0.999947 1.00428 0.990735
0.99989 1.00308 0.991763
1.0001 1.0016 0.992883
1.00004 1.00258 0.992125
1.00011 1.00139 0.993208
1.00005 1.00198 0.992563
1.00506 0.995897 0.989432
1.00008 1.00206 0.992465
1.00002 1.00228 0.992352
1.00499 0.995774 0.989237
1.00375 0.998502 0.988452
1.00081 1.00348 0.989772
0.999932 1.00343 0.991437
0.99995 1.00493 0.98988
1.00362 1.00006 0.989684
1.00458 0.996293 0.990193
1.00164 1.00047 0.989573
1.0003 1.0038 0.990275
1.0001 1.00203 0.99236
1.00003 1.00268 0.991951
0.999874 1.00413 0.990823
0.999943 0.994977 0.941421
1.00126 0.994944 0.962515
0.999803 1.00361 0.991452
0.999956 1.00447 0.990188
1.00469 0.995284 0.991054
1.00446 0.997485 0.988551
1.00135 1.0041 0.98791
1.00087 0.99497 0.9581
0.996138 1.00006 0.975071
0.999212 1.00007 0.993658
0.997925 0.99735 0.945996
0.994656 0.99814 0.924783
0.999698 1.00343 0.991897
1.00002 0.995144 0.941945
0.994836 0.999718 0.933313
1.00428 0.996161 0.991424
0.999634 1.00485 0.990498
1.00168 1.00145 0.989387
0.998601 0.999596 0.996354
0.999578 0.998218 0.957642
0.995321 0.999463 0.976942
0.997115 0.999773 0.943485
0.994779 0.999894 0.937275
0.999337 1.00327 0.992809
0.994783 0.999831 0.938065
0.994472 1.00362 0.952519
1.00138 0.998051 0.994342
0.999267 1.00424 0.992236
0.997089 1.00204 0.996837
0.995389 0.999795 0.980732
0.996268 1.00025 0.956858
0.995695 0.999928 0.94624
0.994435 0.999951 0.947097
0.999955 1.00227 0.992524
0.999977 1.00142 0.993466
0.999738 0.999898 0.995106
1.00029 1.00044 0.993612
1.00038 1.00094 0.993096
1.0003 1.00114 0.993013
1.00024 1.00128 0.992953
1.00017 1.00119 0.993164
1.00038 1.00096 0.993057
1.00031 1.00117 0.992962
1.00042 1.00114 0.992805
1.00017 1.00043 0.993888
1.00003 0.999608 0.995056
1.00044 1.00069 0.993173
1.00046 1.00112 0.99274
1.00036 1.00094 0.993128
1.00029 1.00116 0.993003
1.0004 1.0011 0.992864
1.00017 1.00128 0.993062
1.00025 1.00119 0.993028
1.00005 1.0015 0.993048
1.00034 1.0011 0.992914
1.00013 1.00128 0.993149
0.999997 1.00252 0.992133
0.999663 1.0045 0.990598
0.999779 1.00268 0.992181
0.999898 1.00207 0.992771
1.00002 1.00131 0.993298
1.00009 1.00112 0.993385
1.00021 1.00037 0.9939
1.00016 1.00103 0.993354
1.00025 1.00036 0.993842
1.00022 0.999334 0.994887
1.00028 1.00039 0.993709
1.00024 0.999328 0.994853
1.00008 0.997553 0.99734
1.00025 0.999344 0.994824
1.00012 0.997513 0.997084
1.00005 0.996303 0.998354
1.00015 0.997477 0.996832
1.00003 0.996301 0.9993
1.00003 0.996285 0.999302
1.00018 1.00049 0.994024
1.0002 0.999212 0.995055
1.00014 1.00046 0.993944
1.00015 0.997313 0.99702
1.00019 0.999207 0.995077
1.0002 0.999228 0.995045
1.00014 0.997343 0.996994
1.00003 0.996202 0.99934
1.00011 0.997386 0.997411
1.00003 0.996274 0.998867
1.00002 0.996393 0.998389
0.999955 0.995199 0.940294
0.995161 0.999235 0.936256
0.997865 0.998327 0.978309
1.00223 0.997569 0.990179
1.00509 0.995078 0.990019
0.99785 0.996859 0.982432
1.00437 0.99612 0.99032
1.00096 0.995183 0.960232
0.998626 0.997057 0.941077
0.994639 0.998202 0.928375
0.99931 0.997254 0.986116
0.998354 0.998006 0.962366
0.997546 0.999613 0.942346
0.99467 0.999928 0.9369
1.00012 1.00185 0.9926
1.00007 1.00132 0.993165
1.00013 1.00046 0.993966
1.00009 1.00132 0.993123
1.00003 1.00179 0.992807
1.00014 1.00177 0.992686
1.00014 1.00164 0.992798
1.00016 1.00137 0.99299
1.00012 1.00127 0.99317
1.00008 1.00131 0.993152
1.00506 0.995753 0.989418
1.00494 0.99587 0.989127
1.00339 0.998135 0.98878
1.00096 1.00345 0.989555
1.00004 1.00483 0.989892
0.999985 1.00344 0.991433
1.00004 1.00229 0.992346
1.00005 1.00204 0.992564
1.00363 0.999063 0.989801
1.00011 1.00207 0.992352
1.00003 1.00264 0.991958
1.00449 0.996097 0.989962
1.00152 1.00102 0.989779
1.00041 1.00394 0.989976
0.999965 1.00408 0.990723
1.00081 1.00155 0.992859
1.00151 0.998991 0.99303
0.999897 1.00355 0.990941
1.0001 1.00221 0.992294
1.00017 1.00208 0.992159
1.00015 1.00274 0.991666
0.994671 0.999502 0.945556
0.99997 0.995339 0.943796
1.00076 0.994937 0.956273
0.99965 1.00337 0.991904
0.999554 1.0048 0.990591
1.00439 0.996321 0.991386
1.00131 1.00149 0.989853
0.999969 0.995286 0.944572
0.998624 0.997872 0.9586
0.994878 0.99928 0.97426
0.99903 0.998286 0.997068
0.997639 0.999688 0.939669
0.994795 0.999708 0.933719
0.994957 0.999898 0.937791
0.999248 1.00329 0.99283
0.994824 0.999909 0.940517
0.994656 1.00373 0.952033
1.00152 0.998044 0.994395
0.99886 1.00444 0.99223
0.996671 0.999689 0.999946
0.99533 0.999511 0.977447
0.996422 1.00021 0.96167
0.997552 0.999928 0.942856
0.994473 0.999962 0.947982
0.998428 1.00242 0.995482
0.994151 1.00283 0.960505
0.993836 1.00407 0.965737
0.996896 1.00185 0.998258
0.995364 1.00034 0.986915
0.995419 1 0.961265
0.995126 0.999992 0.944772
0.994617 0.999878 0.946067
0.999961 1.00158 0.993295
0.999807 0.999883 0.995158
0.999361 0.999277 0.996419
1.00038 1.00096 0.993055
1.00042 1.00114 0.992803
1.00032 1.00121 0.992967
1.00009 1.0004 0.99407
1.00045 1.00113 0.992743
1.00043 1.00075 0.993133
1.00004 0.999364 0.995227
0.999395 0.999032 0.996681
1.0003 0.999766 0.994405
1.00042 1.00097 0.992875
1.0004 1.0011 0.992864
1.00018 1.00128 0.993056
1.00025 1.00118 0.993033
1.00033 1.00112 0.992925
1.00004 1.00154 0.993034
1.00015 1.00127 0.993145
1.00006 1.00164 0.992938
1.00007 1.00113 0.993395
0.99998 1.00236 0.992264
1.00002 1.00246 0.992205
0.999709 1.00392 0.991169
1.0003 1.0048 0.989378
0.999854 1.00361 0.991501
0.999637 1.00446 0.990747
0.9998 1.00271 0.992303
0.999947 1.00176 0.992857
0.999892 1.00214 0.992749
1.00003 1.00134 0.993288
1.00017 1.00044 0.993903
1.0001 1.00113 0.993381
1.00021 1.00037 0.993899
1.00019 0.999381 0.994911
1.00026 1.00036 0.993843
1.00023 0.999325 0.994888
1.00003 0.997607 0.997362
1.00025 0.99932 0.994854
1.00009 0.997547 0.997109
1.00001 0.996368 0.998372
1.00013 0.997495 0.996847
1.00003 0.996319 0.998826
1.00002 0.996309 0.999301
1.0002 1.00056 0.993784
1.0002 0.999265 0.994999
1.00017 1.00049 0.993902
1.00014 0.997339 0.997008
1.0002 0.999216 0.995057
1.00013 1.00048 0.993941
1.00003 0.996186 0.999344
1.00015 0.997314 0.99702
1.00019 0.999205 0.995077
1.00014 0.997345 0.996992
1.00002 0.99621 0.999337
1.00001 0.996273 0.999325
0.994772 0.999204 0.942953
0.999906 0.995209 0.941907
0.994813 1.00395 0.95167
0.995072 0.999544 0.934646
0.998654 0.996992 0.978369
1.00434 0.996618 0.990342
1.00081 0.994993 0.960933
0.999454 0.997897 0.94482
0.994631 0.998112 0.923613
0.998898 0.997561 0.984594
0.999428 0.997325 0.956395
0.997331 0.999608 0.942861
0.994644 0.99988 0.934346
0.995535 1.00004 0.982549
0.997891 1.00008 0.956553
0.995507 0.999805 0.941529
0.99454 0.999878 0.942733
1.00014 1.00209 0.992357
1.00011 1.00185 0.992652
1.00007 1.00135 0.993195
1.00005 1.00174 0.992867
1.00019 1.00187 0.992402
1.00014 1.00175 0.992719
1.00014 1.00164 0.992767
1.00023 1.00132 0.992992
1.00018 1.00135 0.993049
1.00013 1.00126 0.993117
1.00347 0.998101 0.98993
1.00443 0.995909 0.989733
1.00142 1.00157 0.989982
1.00053 1.00403 0.989679
1.00004 1.00403 0.990622
1.00004 1.0026 0.991965
1.00013 1.0021 0.992345
1.00011 1.0022 0.99228
1.00076 1.00074 0.993121
1.00017 1.00217 0.992185
1.00016 1.0028 0.991583
1.00158 0.999152 0.992662
1.00022 1.00338 0.990868
0.998987 0.999888 0.995618
0.999357 0.999678 0.996909
1.00015 1.00191 0.992096
1.00025 1.00197 0.992229
1.00026 1.00229 0.991889
0.993802 1.00213 0.965555
0.994699 0.999961 0.945109
0.999899 0.995863 0.940606
0.999172 1.00337 0.992846
0.998531 1.00456 0.992211
1.0016 0.998099 0.994458
0.994841 0.999801 0.942257
0.997402 1.00024 0.957062
0.994874 0.999268 0.978788
0.996465 0.998577 1.00325
0.995802 0.999931 0.945754
0.994858 1.00386 0.951558
0.994457 0.999952 0.94823
0.998388 1.00228 0.995581
0.994208 1.0024 0.96267
0.99385 1.00417 0.965566
0.996941 1.00244 0.998365
0.995177 1.00021 0.987182
0.996312 1 0.956537
0.994528 0.999862 0.947982
0.995013 0.999964 0.946793
0.99711 1.00234 0.997963
0.993196 1.00349 0.981492
0.993897 1.00379 0.967878
0.994553 0.999871 0.942836
0.995019 1.00146 0.996174
0.996135 0.999041 0.963008
0.994711 1.00005 0.947625
0.999922 0.999841 0.995205
0.999451 0.999425 0.996187
0.998782 0.999131 0.997783
1.00044 1.00113 0.992745
1.00041 1.00081 0.993093
1.00005 0.999092 0.995401
1.00042 1.00102 0.992866
1.00029 0.999704 0.994406
0.999633 0.998952 0.996376
0.999188 0.998744 0.997363
1.00019 1.00061 0.993711
1.00032 1.00113 0.992936
1.00004 1.00158 0.99302
1.00016 1.00125 0.993142
1.0001 1.00113 0.993361
1.00007 1.00157 0.992988
0.99954 1.0022 0.993278
0.999782 1.00252 0.99247
0.99999 1.00393 0.990618
1.00005 1.0024 0.992277
0.999893 1.00387 0.991092
1.00026 1.00487 0.989025
1.00029 1.00491 0.989135
0.999942 1.00401 0.990809
1.00022 1.00472 0.989453
0.999961 1.0025 0.992271
0.999845 1.00366 0.991379
0.999607 1.00443 0.990896
0.999821 1.00273 0.992424
0.999962 1.00172 0.992951
1.00013 1.00064 0.993768
1.00003 1.00135 0.993278
1.00017 1.00046 0.993898
1.00014 0.999467 0.994913
1.00022 1.00037 0.993898
1.00019 0.999366 0.994913
0.999962 0.997705 0.997377
1.00023 0.999314 0.99489
1.00004 0.997609 0.997134
0.999944 0.996463 0.998386
1.0001 0.99753 0.996874
0.999986 0.996379 0.998836
0.999994 0.99635 0.999305
1.00025 1.00064 0.993463
1.0002 0.999377 0.994726
1.00021 1.00056 0.993782
1.00012 0.99742 0.996961
1.0002 0.999276 0.994911
1.00016 1.0005 0.993779
1.00002 0.996222 0.999339
1.00014 0.997337 0.99701
1.0002 0.999219 0.995059
1.00003 0.996187 0.999343
1.00015 0.997314 0.997019
1.00002 0.99622 0.999334
0.993863 1.00248 0.963979
0.994782 0.999031 0.943452
0.999916 0.994978 0.942583
1.00028 1.00124 0.992922
0.993785 1.00394 0.967214
0.994823 1.00397 0.951229
0.995052 0.999781 0.935785
0.998936 0.998118 0.983019
0.998688 0.998725 0.962378
0.997622 0.99957 0.939035
0.994638 0.999889 0.934687
0.995599 0.999852 0.978248
0.996734 0.999981 0.961193
0.997527 0.999933 0.943792
0.99458 0.999905 0.942285
0.995323 0.999976 0.974249
0.99521 1.00029 0.959463
0.99476 0.999965 0.947173
0.99458 0.999854 0.946109
1.00022 1.00206 0.992227
1.00013 1.0021 0.992339
1.0001 1.00183 0.992704
1.00022 1.00173 0.992528
1.00019 1.00187 0.992476
1.00013 1.00173 0.992751
1.00023 1.00134 0.992994
1.00019 1.00135 0.993107
1.00081 0.9999 0.993359
1.00162 0.999331 0.992286
1.00012 1.0022 0.992265
1.00054 1.00333 0.990792
1.00017 1.00284 0.9915
1.00015 1.00224 0.992211
1.00024 1.00202 0.992253
0.999003 0.999845 0.996
1.00022 1.00223 0.992041
1.00035 1.00184 0.992139
0.999422 0.998929 0.996872
1.00027 1.00183 0.992432
0.997589 0.999741 0.997181
0.998054 1.00059 0.998557
1.00022 1.00124 0.992705
1.00024 1.0015 0.992743
0.993044 1.0035 0.984393
0.993699 1.00259 0.966134
0.994743 1.00036 0.944682
0.998293 1.00215 0.995696
0.996926 1.00259 0.998438
0.994246 1.00208 0.964816
0.995463 1.00003 0.962339
0.994863 0.99933 0.983271
0.995323 0.999957 0.946355
0.993829 1.00426 0.965407
0.994455 0.999837 0.949895
0.997294 1.00233 0.997639
0.993082 1.00353 0.981536
0.993779 1.00387 0.971369
0.995249 1.003 0.998907
0.994591 0.999876 0.942316
0.995366 0.99906 0.960246
0.994955 0.999968 0.948001
0.996796 1.00216 0.998884
0.993288 1.0031 0.985847
0.993852 1.00396 0.967213
0.994706 0.99987 0.937009
0.99533 0.999943 0.946351
0.995802 0.998808 0.992715
0.99629 1.00012 0.954988
0.999487 0.999559 0.995954
0.99871 0.999633 0.997528
0.997358 0.998728 1.00147
1.0004 1.00107 0.992857
1.00029 0.999638 0.994407
0.999838 0.998921 0.996071
1.00017 1.00071 0.993663
0.99928 0.998352 0.997437
0.998702 1.00213 0.994681
1.00013 1.00113 0.993328
1.00008 1.00151 0.993037
0.99972 1.00225 0.99313
0.999291 1.00437 0.991423
0.999568 1.00268 0.992673
0.999809 1.00382 0.990914
1.00044 1.00501 0.988879
1.00136 1.00474 0.987405
1.00008 1.0038 0.991014
1.0004 1.00488 0.988884
1.00056 1.00463 0.989287
0.999816 1.0046 0.990162
1.00032 1.00476 0.989277
0.999939 1.00309 0.991734
0.999983 1.004 0.990795
1.00015 1.00464 0.989529
1.00009 1.0011 0.993391
0.999947 1.00247 0.992248
0.999837 1.00371 0.991257
0.999976 1.00168 0.993046
1.00013 1.00067 0.993754
1.00008 0.999617 0.994875
1.00017 1.00047 0.993893
1.00014 0.999459 0.994914
0.999909 0.997853 0.996909
1.0002 0.999351 0.994916
0.999986 0.997707 0.996917
0.99982 0.996583 0.999322
1.00006 0.997593 0.996902
0.999929 0.996468 0.998846
0.999951 0.996415 0.99931
1.0003 1.00062 0.993409
1.00021 0.999511 0.994563
1.00026 1.00063 0.993538
1.00009 0.997546 0.996885
1.0002 0.999387 0.994706
1.00022 1.00056 0.993781
0.999991 0.996305 0.999325
1.00012 0.997415 0.996964
1.0002 0.999287 0.994823
1.00002 0.996212 0.99934
1.00014 0.997336 0.997012
1.00003 0.996185 0.999342
0.992992 1.00313 0.981679
0.99388 1.00291 0.963786
0.994805 0.999161 0.94343
1.00026 1.00126 0.992947
1.00025 1.00125 0.99293
1.00021 1.00163 0.992705
0.99386 1.00361 0.96805
0.993843 1.00386 0.967062
0.994837 1.00422 0.950783
0.99511 1.00044 0.981004
0.996941 1.00017 0.956028
0.995081 0.999948 0.94651
0.99458 0.99993 0.941155
0.995723 0.999912 0.976989
0.996435 1.00007 0.958858
0.995319 1 0.948025
0.99451 0.999848 0.948017
0.995122 0.999978 0.973687
0.995786 1.00006 0.960797
0.994667 1.00005 0.947959
0.99442 0.999925 0.946909
1.00028 1.00182 0.992346
1.00022 1.00206 0.992203
1.00013 1.00211 0.99232
1.00023 1.00173 0.992518
1.00019 1.00186 0.99255
1.00025 1.00135 0.992996
0.999072 0.999868 0.996375
0.999302 0.998366 0.996841
1.00022 1.00209 0.992278
1.00057 1.00163 0.992182
1.00018 1.00223 0.992192
1.00031 1.00177 0.992345
1.0002 1.00152 0.992854
0.997607 0.999901 0.997459
1.00018 1.00124 0.9931
0.99797 1.00015 0.998963
1.00019 1.00144 0.992977
0.995993 0.999257 0.998616
0.997776 1.00124 0.998987
0.999971 1.00041 0.994456
0.993396 1.00361 0.989805
0.992862 1.00347 0.985792
0.993609 1.00307 0.966691
0.997583 1.00236 0.997301
0.996033 1.00256 0.996958
0.993002 1.00353 0.981577
0.995462 0.999129 0.965929
0.994722 1.00003 0.946416
0.993693 1.00394 0.974861
0.994592 0.999885 0.941371
0.996598 1.00257 0.999056
0.993229 1.00308 0.987052
0.993908 1.00387 0.96705
0.995193 0.99942 0.988056
0.994673 0.999825 0.934669
0.995544 0.999932 0.947006
0.995551 1.00014 0.96091
0.995628 1.00134 1.00153
0.992967 1.00304 0.981868
0.994759 1.0039 0.952023
0.994677 0.998188 0.93365
0.995571 0.999856 0.941026
0.995612 1.00002 0.960612
0.995763 0.998847 0.983892
0.998598 1.00027 0.997319
0.997398 0.99846 1.00133
0.997561 1.00049 0.999119
1.00014 1.00081 0.993616
0.999383 0.997959 0.997513
0.998555 1.00222 0.994989
0.998794 1.00371 0.993264
0.999906 1.00233 0.992983
0.999751 1.0043 0.991092
1.00049 1.00505 0.988672
0.999621 1.00371 0.991212
1.00049 1.00496 0.988804
1.0018 1.005 0.986708
1.00261 1.00425 0.985777
1.00096 1.00442 0.988193
1.00135 1.00483 0.98732
1.00053 1.00489 0.988743
1.00042 1.0043 0.989855
1.00039 1.00448 0.989559
0.999868 1.00396 0.990841
0.999896 1.00452 0.990283
1.00035 1.00461 0.98942
1.00005 1.00182 0.992747
0.999969 1.00302 0.99174
1.00002 1.00399 0.990781
1.00001 0.99989 0.994712
1.00009 1.00112 0.993378
0.999933 1.00244 0.992225
1.00013 1.00069 0.993741
1.00008 0.999617 0.994872
0.99982 0.998048 0.996875
1.00015 0.999452 0.994915
0.999912 0.997854 0.996908
0.999755 0.996749 0.999312
0.999993 0.997699 0.996916
0.999849 0.996606 0.998853
0.999892 0.996509 0.999314
1.00032 1.00062 0.993452
1.00023 0.9996 0.9946
1.0003 1.00063 0.993442
1.00005 0.997701 0.996799
1.00022 0.999515 0.99463
1.00027 1.00062 0.993613
0.999951 0.996429 0.999306
1.00009 0.99754 0.99689
1.00021 0.999397 0.994686
0.999995 0.996287 0.999329
1.00012 0.997412 0.996967
1.00002 0.996203 0.999343
0.993315 1.00288 0.985927
0.993098 1.00285 0.981732
0.993905 1.00303 0.963667
1.00021 1.00134 0.992888
1.00008 1.00197 0.992603
1.00024 1.00128 0.992973
1.00024 1.00126 0.99293
1.0002 1.00162 0.992678
1.00015 1.00166 0.992758
1.00019 1.00177 0.992585
0.993878 1.00379 0.965742
0.993722 1.00371 0.971561
0.993899 1.00366 0.966916
0.994453 0.999844 0.949927
0.994892 1.00006 0.974642
0.995423 1.00009 0.959041
0.994746 1 0.948657
0.995673 1 0.973066
0.99546 1.00006 0.957005
0.994808 0.999982 0.949208
0.99448 0.999919 0.947869
0.995964 0.997886 0.977606
0.995132 1.00007 0.956565
0.995353 0.999959 0.945356
0.99461 0.999859 0.938745
1.00012 1.00163 0.992873
1.00027 1.00178 0.992361
1.00022 1.00206 0.992179
1.00024 1.00173 0.992509
0.997707 1.00019 0.997717
0.997905 0.999641 0.999351
1.00035 1.00171 0.992259
1.00017 1.00149 0.992964
1.00006 1.00126 0.993496
1.00017 1.00147 0.992906
0.999832 1.00045 0.994419
0.995813 1.00005 0.996658
0.997361 1.00153 0.999175
0.99964 1.00118 0.994012
0.995758 0.999321 0.996454
0.998121 1.00147 0.998311
0.993011 1.00336 0.984684
0.993359 1.00328 0.990881
0.992728 1.00347 0.987193
0.996506 1.00277 0.999177
0.995598 0.998771 0.993522
0.993195 1.00304 0.988261
0.996482 1.00011 0.955573
0.994917 0.999971 0.947641
0.993961 1.0037 0.966886
0.994653 0.999838 0.934866
0.995685 1.00087 1.00173
0.993063 1.00287 0.981905
0.994798 1.00388 0.951571
0.994965 0.998772 0.987744
0.994663 0.998162 0.928948
0.997692 0.99992 0.943078
0.995438 1.00006 0.957409
0.995976 1.00123 0.998996
0.993889 1.00236 0.9643
0.995068 0.999276 0.936831
0.997583 0.999539 0.942709
0.995288 1.00034 0.961133
0.994864 0.999343 0.978075
0.997552 0.998051 1.00112
0.997372 1.0011 0.999079
0.999497 0.998676 0.997955
0.998386 1.00232 0.995296
0.998318 1.00376 0.993571
1.00106 1.00254 0.990002
1.00023 1.00421 0.990758
1.00072 1.00504 0.988503
1.00214 1.00323 0.9871
1.00056 1.00491 0.98873
1.00182 1.00497 0.986582
1.00328 1.00259 0.985779
1.0039 1.00159 0.985849
1.00228 1.00465 0.986222
1.00267 1.00419 0.985574
1.00082 1.00389 0.988991
1.00094 1.00443 0.98838
1.00135 1.00494 0.987235
1.00039 1.00405 0.989995
1.00036 1.00432 0.989826
1.00022 1.00434 0.98983
1.00007 1.00258 0.991901
0.999896 1.00382 0.990999
0.999986 1.00445 0.990405
0.999958 1.00042 0.994281
1.00006 1.00179 0.992748
1 1.00297 0.991747
0.99974 0.998267 0.996813
1.00001 0.999911 0.994702
1.00009 1.00113 0.993365
1.00008 0.999616 0.994869
0.999827 0.998051 0.996873
0.99966 0.996943 0.999303
0.999916 0.997858 0.996907
0.999743 0.996781 0.999309
0.999818 0.99664 0.999313
1.0002 1.00145 0.992853
1.00033 1.00066 0.993404
1.00022 0.999693 0.994518
1.00032 1.00063 0.993449
1.00001 0.997865 0.996718
1.00022 0.99962 0.994597
1.00029 1.00064 0.993475
0.999899 0.996578 0.999285
1.00005 0.997694 0.996804
1.00022 0.99952 0.994698
0.999956 0.996404 0.999312
1.00009 0.997534 0.996895
0.999999 0.996268 0.999334
0.993189 1.00308 0.98182
0.993241 1.00289 0.987119
0.993188 1.00271 0.981784
1.00023 1.00131 0.992915
1.00007 1.00198 0.99256
1.00005 1.00229 0.992246
1.00007 1.00185 0.992615
1.00003 1.00239 0.992312
1.00024 1.00125 0.992931
1.00019 1.00162 0.992652
1.00014 1.00167 0.992757
1.0002 1.00177 0.99256
1.00005 1.0019 0.992753
0.994533 1.00365 0.952024
0.993864 1.00389 0.965595
0.993608 1.00381 0.975067
0.994496 0.999916 0.948119
0.994659 1.00003 0.947004
0.995007 1 0.971807
0.994976 1.00004 0.960198
0.995679 0.998042 0.973674
0.995815 1.00006 0.960346
0.994815 0.999949 0.947685
0.994805 0.999857 0.936604
0.996187 0.995518 0.978227
0.995374 1.00011 0.961139
0.996024 0.999897 0.945905
0.995065 0.998144 0.933133
0.999536 1.00118 0.99426
1.00009 1.0017 0.992874
1.00027 1.00175 0.992376
0.995676 1.00071 0.99472
0.997199 1.00167 0.999367
1.00018 1.00148 0.992833
0.999772 1.00057 0.994381
0.999638 1.00122 0.99402
0.998062 1.00094 0.998161
0.995393 0.999304 0.99663
0.998301 1.0012 0.99669
0.995871 1.00132 0.995509
0.993926 1.00242 0.964899
0.99285 1.00329 0.986101
0.99313 1.00298 0.991957
0.995569 1.00054 1.00199
0.995237 0.998528 0.981649
0.993145 1.00283 0.981941
0.996403 1.00003 0.957459
0.995266 0.999962 0.945536
0.994803 1.0041 0.951127
0.994665 0.998073 0.924236
0.996009 1.00089 0.999218
0.993918 1.00279 0.9641
0.995008 0.999497 0.935234
0.994933 0.999247 0.979679
0.99731 0.999659 0.943079
0.996191 1.00002 0.957953
0.997567 0.999159 0.995151
0.994806 0.999256 0.94345
0.997904 0.997222 0.944098
0.997841 1.00042 0.956547
0.994849 0.99949 0.979524
0.997264 1.00157 0.99903
0.999313 0.998696 0.998005
1.00225 0.998552 0.992919
0.99788 1.00375 0.993868
1.00054 1.0028 0.990429
1.003 0.999408 0.988769
1.00095 1.00502 0.988333
1.00216 1.00328 0.987166
1.00402 0.999732 0.987365
1.00182 1.005 0.986455
1.00328 1.00262 0.985824
1.00474 0.998906 0.986668
1.00478 0.998958 0.986796
1.00314 1.0033 0.985566
1.00383 1.00154 0.985892
1.00183 1.00405 0.987404
1.00214 1.00468 0.986059
1.00271 1.00413 0.985371
1.00087 1.00342 0.989645
1.0008 1.00382 0.989186
1.00093 1.00443 0.988568
1.00035 1.00296 0.991049
1.00033 1.00401 0.990087
1.0003 1.00435 0.989795
0.999962 1.00117 0.993515
1.00012 1.00255 0.991901
0.99992 1.00366 0.991156
0.999636 0.998613 0.99711
0.999952 1.00044 0.994266
1.00008 1.00176 0.992749
0.999579 0.997203 0.998316
0.999738 0.998301 0.997028
1 0.99993 0.994691
0.999833 0.998056 0.996871
0.999647 0.996987 0.999298
0.999731 0.996817 0.999307
1.00016 1.00178 0.992547
1.0003 1.00084 0.993278
1.00019 1.0015 0.99282
1.00019 0.999807 0.994473
1.00031 1.00069 0.993405
0.999951 0.99803 0.996654
1.00021 0.999717 0.994515
1.00032 1.00064 0.993446
0.999839 0.996744 0.999265
1 0.997865 0.996722
1.00022 0.999645 0.994594
0.999906 0.996551 0.999291
1.00005 0.997688 0.996809
0.999962 0.996378 0.999318
0.994238 1.00219 0.965594
0.993089 1.0031 0.98187
0.993199 1.00288 0.988315
1.00001 1.0026 0.992088
1.00023 1.00134 0.992942
1.00008 1.00199 0.992518
1.00009 1.00187 0.992648
1.00008 1.00224 0.992291
1.00003 1.00237 0.992271
1.00003 1.00268 0.99197
0.999943 1.00237 0.992289
1.00013 1.00167 0.992757
1.0002 1.00177 0.992534
1.00002 1.00194 0.992715
0.999825 1.00233 0.993056
0.994925 0.999755 0.935049
0.994739 1.00377 0.951524
0.993826 1.00399 0.965452
0.995004 0.999874 0.937302
0.995353 0.999934 0.947692
0.995146 1.00008 0.956668
0.996004 0.998143 0.972572
0.996417 0.995288 0.980199
0.99481 0.998132 0.928559
0.995328 1.0001 0.957826
0.997203 0.99993 0.942688
0.995627 0.997718 0.981102
0.996006 1.00006 0.962513
0.997654 0.999619 0.941633
0.999231 1.00049 0.995519
0.999688 1.00112 0.994241
1.00004 1.00178 0.992874
0.995024 0.999121 0.996733
0.997991 1.00025 0.998016
0.999619 1.00123 0.994027
0.998847 1.00102 0.996525
0.99572 1.00127 0.995715
0.997809 1.00083 0.995041
0.994734 0.999874 0.940106
0.993785 1.00232 0.96874
0.992736 1.00321 0.98752
0.99597 1.00093 0.999495
0.994845 0.999282 0.98078
0.993946 1.00296 0.963959
0.995415 1.00007 0.958564
0.997561 0.999608 0.939494
0.995054 0.999588 0.936381
0.997502 0.999364 0.995234
0.994808 0.998961 0.943933
0.998504 0.997066 0.941527
0.995064 0.999512 0.975442
0.996574 1.00031 0.961049
0.998735 0.998987 0.995501
0.999975 0.995147 0.940698
0.998154 0.999367 0.960849
0.995181 0.999868 0.974148
0.999066 0.998789 0.998084
1.00173 0.998243 0.993669
1.00376 0.99707 0.990933
1.00003 1.00312 0.990856
1.00298 0.99983 0.988691
1.00455 0.996777 0.98901
1.00218 1.0034 0.987233
1.00384 0.999895 0.98739
1.00499 0.997392 0.988015
1.00329 1.00259 0.985868
1.00475 0.999009 0.986641
1.00507 0.997356 0.98768
1.00494 0.997929 0.987459
1.00421 1.00067 0.986335
1.00476 0.998994 0.986779
1.00261 1.00308 0.986462
1.0031 1.00318 0.985739
1.00377 1.00149 0.985936
1.00139 1.00331 0.988802
1.00167 1.00408 0.987432
1.00199 1.00472 0.985894
1.00077 1.00281 0.990456
1.00092 1.0034 0.989625
1.00077 1.00375 0.989381
1.00009 1.00187 0.992607
1.00038 1.00294 0.991056
1.00028 1.00395 0.99018
0.999596 0.999034 0.996267
0.999979 1.00115 0.993499
1.00016 1.00251 0.991902
0.999435 0.997477 0.999261
0.99965 0.998662 0.996593
0.999948 1.00046 0.99425
0.999554 0.9972 0.999281
0.999747 0.998314 0.996781
0.999636 0.997029 0.999293
1.00012 1.00214 0.992342
1.00018 1.00177 0.992543
1.00026 1.00114 0.993038
1.00012 0.999963 0.994428
1.00028 1.00084 0.993283
1.00019 1.0015 0.992787
0.999888 0.998184 0.996621
1.00019 0.99981 0.994473
1.0003 1.00068 0.993407
0.999769 0.996913 0.999248
0.999947 0.99803 0.996657
1.00021 0.999734 0.994512
0.999845 0.996718 0.999271
1 0.997863 0.996726
0.999912 0.996522 0.999297
0.99474 0.999824 0.938229
0.99422 1.0022 0.965422
0.993013 1.0031 0.981916
0.999983 1.00267 0.99204
1.00007 1.00308 0.991605
0.999936 1.00301 0.991792
1.00011 1.00188 0.99268
1.00011 1.00219 0.992337
0.999995 1.00237 0.992229
0.999981 1.00238 0.992259
1 1.00271 0.991932
0.999845 1.00344 0.99162
1.00009 1.00156 0.992886
1.00003 1.00194 0.992678
0.999786 1.00215 0.993041
0.99931 0.997276 0.940171
0.994835 0.999792 0.932688
0.994929 1.00388 0.951055
0.994639 0.99806 0.923977
0.995812 0.999805 0.945372
0.996147 1.00004 0.959889
0.99598 0.995275 0.977676
0.995323 0.997789 0.97911
0.997224 0.999239 0.94253
0.996065 1.00005 0.958371
0.99601 0.997596 0.980388
0.997499 1.00058 0.955983
1.00125 0.999971 0.993005
0.999405 1.00038 0.995362
0.9998 1.00104 0.994227
0.995499 1.00139 0.9959
0.999203 1.00092 0.996354
0.998267 1.00118 0.994427
1.00112 0.999872 0.989871
1 0.994921 0.941723
0.994748 1.00024 0.942411
0.993661 1.00226 0.972541
0.997465 0.99937 0.995373
0.994859 0.999475 0.975824
0.99483 0.998995 0.943925
0.996468 1.00043 0.95597
0.999601 0.998753 0.945049
0.998667 0.999244 0.994176
0.999989 0.995293 0.942149
0.999541 0.998335 0.955586
0.995342 0.999548 0.976731
0.999477 0.998014 0.995193
1.00048 0.996785 0.9584
0.995958 1.00111 0.979322
1.00118 0.997881 0.994416
1.00363 0.996761 0.990899
1.00502 0.995058 0.990113
1.00296 1.00019 0.988613
1.00447 0.996742 0.989016
1.00488 0.995721 0.989541
1.00366 0.999982 0.987417
1.00488 0.997346 0.987962
1.00515 0.996256 0.988612
1.00476 0.999104 0.986613
1.00508 0.997363 0.987685
1.0051 0.996935 0.988079
1.00496 0.997634 0.987761
1.00495 0.997835 0.987523
1.0046 0.998876 0.987266
1.00371 1.00123 0.986617
1.00421 1.00064 0.986338
1.00473 0.999014 0.986762
1.0022 1.00276 0.987572
1.00262 1.00312 0.986618
1.00307 1.00304 0.985913
1.00115 1.0027 0.989837
1.00141 1.00331 0.988774
1.00151 1.00411 0.987461
1.00031 1.00212 0.991926
1.00081 1.00278 0.990457
1.00096 1.00339 0.989605
0.999604 0.999564 0.995693
1.00012 1.0018 0.992604
1.00043 1.00291 0.991063
0.999408 0.997754 0.999186
0.999596 0.999099 0.996235
0.999997 1.00113 0.993483
0.999466 0.997513 0.998748
0.99966 0.998679 0.99658
0.999542 0.997277 0.999268
1.00015 1.00258 0.991844
1.00009 1.0022 0.992309
1.00017 1.00162 0.99273
1.0002 1.00178 0.992539
1.00025 1.00115 0.99304
1.00004 1.00023 0.994291
0.999817 0.998344 0.996599
1.00013 0.999956 0.994433
1.00027 1.00087 0.993289
0.999691 0.997076 0.999239
0.999884 0.998181 0.996622
1.00018 0.999814 0.994473
0.999777 0.996891 0.999253
0.999943 0.998033 0.996659
0.999851 0.996688 0.999277
0.999922 0.995168 0.94346
0.994807 1.0002 0.937892
0.99421 1.00222 0.965243
0.999953 1.00275 0.991993
0.999925 1.00313 0.991671
0.99999 1.00305 0.991698
1.00033 1.0033 0.990919
0.99987 1.00363 0.991329
1.00001 1.0024 0.99223
0.999989 1.00272 0.991894
0.999803 1.0033 0.991652
0.999723 1.00392 0.990798
1.0002 1.00243 0.991826
1.00261 1.00062 0.989334
0.99986 1.00181 0.993058
0.999803 1.00196 0.993026
1.00008 0.998007 0.957493
0.998619 0.997395 0.941405
0.994786 0.999747 0.933164
0.99771 0.999732 0.938648
0.99581 1.00055 0.958659
0.995577 0.997893 0.981912
0.995755 0.997706 0.982413
0.996985 0.999747 0.961666
0.997902 1.00001 0.977717
1.00365 0.99823 0.989789
1.00089 0.999797 0.993011
0.999572 1.00027 0.995202
0.998498 1.00143 0.993853
1.00191 1.00076 0.988603
1.00068 0.995623 0.956122
0.999964 0.995301 0.944
0.994771 1.00053 0.944753
0.998554 0.99953 0.992829
0.994888 0.99968 0.974263
0.999941 0.994901 0.942718
0.998683 1.00003 0.96109
0.999369 0.998826 0.995396
1.00162 0.995544 0.958861
0.995832 1.00055 0.975868
1.00093 1.00134 0.992224
1.00018 0.997534 0.983308
1.00351 0.996464 0.990868
1.00498 0.994993 0.989873
1.00504 0.994998 0.990022
1.00436 0.996736 0.98902
1.00477 0.995786 0.98954
1.00515 0.995029 0.98973
1.00477 0.997321 0.987909
1.00516 0.996179 0.988602
1.00512 0.996099 0.988857
1.00507 0.99738 0.98769
1.0051 0.996963 0.98805
1.00507 0.99715 0.988025
1.00494 0.997538 0.987814
1.00482 0.998216 0.987498
1.00495 0.997753 0.987588
1.00462 0.998824 0.987262
1.00425 0.99976 0.987088
1.0032 1.00147 0.987096
1.0037 1.00127 0.986578
1.0042 1.00062 0.98634
1.00174 1.00246 0.988986
1.00217 1.0028 0.987683
1.00263 1.00316 0.986774
1.00056 1.00211 0.991418
1.00119 1.00269 0.989817
1.00144 1.00332 0.988747
0.99968 1.0001 0.995006
1.00034 1.00208 0.991934
1.00083 1.00278 0.990458
0.999409 0.99807 0.999071
0.999601 0.999634 0.995665
1.00016 1.00173 0.992603
0.999426 0.997812 0.999154
0.999592 0.999167 0.996202
0.999472 0.997566 0.999216
1.00046 1.00285 0.991045
1.00015 1.00254 0.991843
1.00017 1.00212 0.992175
1.00007 1.00224 0.992277
1.00015 1.00169 0.992659
0.999991 1.0007 0.993903
1.00024 1.00115 0.993042
1.00006 1.00021 0.9943
0.999734 0.998561 0.996541
0.999604 0.997253 0.99923
0.999811 0.998343 0.996601
1.00013 0.999952 0.994437
0.999701 0.997057 0.999242
0.999881 0.99818 0.996624
0.999784 0.996867 0.999258
1.00173 0.99539 0.959839
0.999942 0.995183 0.942142
0.99485 1.0006 0.93685
0.999911 1.00326 0.99155
0.999916 1.003 0.991792
0.999882 1.00362 0.991375
1.00028 1.00326 0.99096
1.00056 1.00383 0.98992
0.999901 1.00378 0.99091
0.999759 1.00317 0.991683
0.99997 1.00402 0.990487
1.00012 1.00272 0.991634
1.00076 1.00286 0.989796
1.00291 1.00082 0.989477
1.00397 0.999309 0.987412
1.00234 1.00062 0.989587
0.9996 1.00214 0.993229
0.997268 1.00013 0.976441
1.00011 0.997972 0.957509
0.998441 0.997542 0.945017
0.998682 1.00047 0.956011
0.995773 0.997879 0.983979
0.998396 0.999345 0.982045
1.0022 0.99849 0.990901
1.00357 0.998156 0.990182
1.00079 0.999586 0.993013
1.00322 1.00182 0.987296
0.998956 0.997282 0.978409
1.00132 0.995162 0.961837
0.999969 0.995775 0.940933
0.999315 0.999503 0.995556
0.995579 1.00089 0.978257
1.00115 0.995103 0.959461
1.00084 1.00061 0.992357
0.999427 0.997859 0.982018
1.00358 1.00105 0.989292
1.00452 0.99595 0.989686
1.00497 0.994941 0.98963
1.00503 0.994991 0.989959
1.00509 0.995073 0.98997
1.00467 0.995859 0.989544
1.00514 0.995132 0.989694
1.00512 0.995569 0.989422
1.00518 0.996082 0.988591
1.00511 0.996155 0.988827
1.00511 0.996835 0.988322
1.00511 0.996985 0.988022
1.00506 0.997163 0.987998
1.00498 0.997872 0.987473
1.00494 0.997438 0.987868
1.00482 0.998103 0.987554
1.00461 0.999044 0.987179
1.00464 0.998764 0.987259
1.00425 0.999759 0.987066
1.00387 1.00032 0.987294
1.00254 1.00154 0.988186
1.00315 1.00155 0.987188
1.00369 1.00132 0.986539
1.00098 1.002 0.990781
1.00177 1.00244 0.988981
1.00213 1.00284 0.987794
0.999752 1.00061 0.994369
1.00059 1.00214 0.991412
1.00124 1.00268 0.989796
0.999444 0.998418 0.998902
0.999702 1.00012 0.994995
1.00037 1.00204 0.991942
0.999438 0.998133 0.999019
0.999603 0.999698 0.995636
0.999448 0.99787 0.99912
1.00071 1.00331 0.990138
1.00047 1.00283 0.991086
1.00039 1.00243 0.99154
1.00015 1.00252 0.991842
1.00018 1.00217 0.992097
1.00003 1.00125 0.993279
1.00014 1.00176 0.992587
0.999998 1.00069 0.993913
0.999646 0.998888 0.996371
1.00007 1.00018 0.994307
0.999731 0.998545 0.996549
0.999518 0.997466 0.999213
0.999616 0.99723 0.999233
0.999806 0.99834 0.996603
0.99971 0.997039 0.999244
0.998295 0.99859 0.977776
1.00162 0.995861 0.955064
0.999937 0.995335 0.944479
1.00145 1.00338 0.98874
0.9999 1.00362 0.99142
1.00023 1.00324 0.991001
0.999979 1.00385 0.990838
1.0005 1.00392 0.989874
1.00057 1.00302 0.990373
1.00021 1.00414 0.990176
1.0001 1.00298 0.991443
1.00095 1.00276 0.990026
1.00272 1.00091 0.989302
1.00411 0.999749 0.987085
1.00467 0.997974 0.987713
1.00411 0.999372 0.987037
1.00215 1.00053 0.989839
1.00121 0.998633 0.993247
0.997523 1.00026 0.975027
0.999482 0.99791 0.9579
0.998382 0.998711 0.980402
1.00218 0.997532 0.992718
1.0031 0.998028 0.990574
1.00293 0.996866 0.988902
0.998321 0.996243 0.981127
1.00078 0.995412 0.955913
1.00077 0.999964 0.992487
0.999484 0.998047 0.980605
1.00351 0.99931 0.989465
1.00452 0.996121 0.989622
1.00506 0.996145 0.98959
1.00509 0.996203 0.989912
1.005 0.995015 0.989894
1.00509 0.995053 0.99001
1.0051 0.995447 0.989641
1.00513 0.995238 0.989657
1.00512 0.995617 0.989413
1.00513 0.996565 0.988541
1.00511 0.996229 0.988798
1.0051 0.996845 0.988288
1.00508 0.997828 0.987342
1.00505 0.997178 0.987972
1.00498 0.997882 0.987481
1.00483 0.998589 0.987104
1.00482 0.997995 0.987609
1.0046 0.998923 0.987211
1.00424 0.999635 0.987176
1.00426 0.999759 0.987045
1.00385 1.0003 0.987226
1.00325 1.00069 0.987999
1.00163 1.00145 0.990167
1.00251 1.00159 0.988283
1.00309 1.00162 0.98728
0.999881 1.00095 0.993791
1.00101 1.002 0.990772
1.00179 1.00241 0.988975
0.999422 0.998848 0.998716
0.999834 1.00052 0.99436
1.00062 1.00214 0.991407
0.999459 0.998497 0.998839
0.999723 1.00013 0.994983
0.99947 0.998194 0.998962
1.00127 1.00328 0.988944
1.00068 1.00329 0.990155
1.0007 1.0027 0.990809
1.00049 1.0028 0.991127
1.00039 1.00241 0.991559
1.00014 1.00172 0.992656
1.00019 1.00223 0.99202
1.00001 1.00131 0.993279
0.999573 0.999353 0.99602
0.999999 1.00069 0.993922
0.999648 0.998847 0.996392
0.999456 0.997705 0.999169
0.999729 0.998531 0.996557
0.999528 0.997429 0.999219
0.999626 0.997208 0.999236
1.00187 0.998485 0.991205
0.998308 0.99839 0.974378
1.00074 0.996078 0.96029
1.00159 1.00257 0.988881
1.00335 1.00142 0.987042
1.00122 1.0034 0.988869
1.00006 1.00391 0.990766
1.00044 1.00402 0.989823
1.00086 1.00293 0.990122
1.00386 0.999959 0.987665
1.00109 1.00269 0.990256
1.00231 1.00102 0.989127
1.00391 0.99989 0.987344
1.00505 0.998337 0.986844
1.00506 0.996212 0.988746
1.00476 0.997987 0.987581
1.00424 0.999518 0.986663
1.00151 0.998541 0.993407
0.997131 1.00082 0.972961
1.00235 0.996643 0.994528
1.00512 0.995886 0.990149
1.00275 0.997063 0.989082
0.999004 0.996 0.977429
1.00344 0.997735 0.989649
1.0045 0.996629 0.989555
1.00507 0.995715 0.989725
1.00508 0.995877 0.989742
1.0051 0.995469 0.989526
1.00514 0.995622 0.989031
1.00509 0.995002 0.99005
1.0051 0.995457 0.989633
1.00512 0.99653 0.988563
1.00513 0.995672 0.989404
1.00513 0.996661 0.988448
1.00515 0.997629 0.987463
1.00509 0.996855 0.988254
1.00508 0.997838 0.987354
1.00496 0.998538 0.986902
1.00498 0.997893 0.987488
1.00482 0.998591 0.987103
1.0045 0.999247 0.987085
1.00459 0.9988 0.987243
1.00422 0.999601 0.98718
1.00362 1.00014 0.987827
1.00382 1.00029 0.987158
1.0032 1.00068 0.98796
1.00221 1.00076 0.98978
1.00011 1.00089 0.99336
1.00163 1.00146 0.990162
1.00248 1.00165 0.98838
0.999333 0.999373 0.998548
0.999967 1.00085 0.993776
1.00103 1.00203 0.990764
0.999423 0.998959 0.998658
0.999896 1.00047 0.99435
0.999478 0.998577 0.998775
1.00234 1.00245 0.987484
1.00126 1.00327 0.988804
1.00123 1.00272 0.989752
1.00066 1.00327 0.990172
1.00064 1.0027 0.99083
1.00029 1.0021 0.992069
1.00038 1.0024 0.991577
1.0001 1.00178 0.992653
0.999592 0.999854 0.995483
0.999988 1.00136 0.99328
0.999587 0.999282 0.996046
0.999431 0.997981 0.999072
0.999648 0.998807 0.996413
0.999455 0.997664 0.999186
0.999538 0.997399 0.999225
1.00511 0.995647 0.989345
1.00197 0.99819 0.990237
0.99825 0.997568 0.975087
1.00399 1.00018 0.987205
1.00133 1.00232 0.989658
1.00449 0.999266 0.986789
1.00345 1.00137 0.986994
1.00099 1.00341 0.989002
1.0051 0.998146 0.986921
1.00116 1.00281 0.989877
1.00399 0.999988 0.987293
1.00512 0.997337 0.987626
1.00381 0.999995 0.987603
1.00504 0.998223 0.986928
1.00501 0.996307 0.988831
1.00473 0.998038 0.987438
1.00164 0.998446 0.993601
1.00516 0.996029 0.988774
1.00512 0.995988 0.99018
1.00259 0.996939 0.989242
1.00507 0.995203 0.989866
1.00508 0.995595 0.989573
1.00509 0.995435 0.989675
1.00515 0.995677 0.989118
1.00514 0.996472 0.988516
1.00511 0.995455 0.989625
1.00512 0.99656 0.988569
1.00516 0.997478 0.9876
1.00512 0.996749 0.988355
1.00514 0.997704 0.987381
1.00506 0.998588 0.986678
1.00507 0.997849 0.987367
1.00496 0.998541 0.986906
1.00466 0.999125 0.986902
1.00482 0.998594 0.987101
1.00449 0.999247 0.987086
1.00391 0.999772 0.987653
1.00419 0.999565 0.987184
1.00361 1.00014 0.987834
1.0026 1.00031 0.989514
1.00314 1.00067 0.987922
1.0022 1.00078 0.989773
1.00032 1.00066 0.994206
0.999378 0.999833 0.99629
1.00019 1.00082 0.993865
1.00162 1.00148 0.990158
0.999348 0.999505 0.998485
1.00007 1.00074 0.993759
0.999426 0.999056 0.998594
1.00483 0.998836 0.986932
1.00345 1.00069 0.98714
1.00252 1.00241 0.987368
1.00193 1.00231 0.988788
1.00126 1.00327 0.988665
1.00118 1.00273 0.989781
1.00061 1.00219 0.991397
1.00059 1.0027 0.990852
1.00025 1.0021 0.992078
0.999699 1.00034 0.994827
1.00006 1.00185 0.99265
0.999587 0.999812 0.995499
0.999414 0.998337 0.998912
0.999598 0.999211 0.996071
0.999416 0.99793 0.999108
0.999456 0.997621 0.999201
1.00516 0.996565 0.988284
1.00514 0.995854 0.989779
1.00217 0.998042 0.989266
1.00507 0.998253 0.986871
1.00382 1.00018 0.987482
1.00106 1.00207 0.990422
1.00451 0.999377 0.986842
1.00355 1.00133 0.986947
1.00513 0.997497 0.987728
1.0051 0.998158 0.986863
1.00412 1.00004 0.986919
1.00512 0.997329 0.987608
1.00505 0.998121 0.987012
1.005 0.996366 0.988934
1.00517 0.996675 0.988433
1.00517 0.995977 0.988839
1.00513 0.996082 0.990215
1.00508 0.995395 0.989821
1.00516 0.995732 0.989206
1.00515 0.996359 0.988666
1.00517 0.997495 0.987598
1.00512 0.996596 0.988575
1.00516 0.997495 0.987577
1.00514 0.998516 0.986611
1.00513 0.997778 0.9873
1.00505 0.998587 0.986689
1.0048 0.999181 0.986608
1.00495 0.998544 0.98691
1.00466 0.999125 0.9869
1.00409 0.99961 0.987476
1.00449 0.999248 0.987086
1.00391 0.999774 0.987656
1.00285 1.00007 0.989289
1.00359 1.00015 0.987842
1.0026 1.00031 0.989506
1.00055 1.00033 0.994181
1.00219 1.0008 0.989766
1.00045 1.00061 0.994155
0.999383 1.00015 0.996142
0.999296 0.999984 0.997299
1.00032 1.00075 0.9943
0.999359 0.999623 0.998421
1.00508 0.998407 0.986764
1.00427 0.999577 0.987247
1.00482 0.998663 0.987014
1.00279 1.00137 0.988082
1.00355 1.00077 0.987131
1.00268 1.00235 0.987252
1.00193 1.00232 0.988788
1.00114 1.00195 0.990619
1.00112 1.00275 0.989809
1.00057 1.00217 0.991411
0.999847 1.00076 0.994173
1.0002 1.00211 0.992088
0.999648 1.00038 0.994838
0.999348 0.998853 0.998713
0.999585 0.999763 0.995515
0.999401 0.998264 0.998969
0.999408 0.99788 0.999141
1.00514 0.997042 0.988048
1.00515 0.996563 0.988277
1.00515 0.995981 0.990194
1.00515 0.997857 0.987255
1.00508 0.99831 0.986877
1.00366 1.00017 0.987763
1.00454 0.999482 0.986894
1.00513 0.997482 0.987642
1.00509 0.99817 0.986805
1.0051 0.997331 0.987589
1.00515 0.997331 0.987792
1.00517 0.996715 0.98836
1.00517 0.995934 0.988905
1.00515 0.997772 0.987315
1.00515 0.996245 0.988815
1.00517 0.997501 0.987597
1.00517 0.998337 0.986832
1.00516 0.997514 0.987553
1.00513 0.998516 0.986624
1.00497 0.999142 0.98632
1.00504 0.998588 0.986701
1.00478 0.999183 0.986616
1.00424 0.999647 0.987166
1.00466 0.999126 0.986899
1.00409 0.99961 0.987474
1.003 0.99996 0.989114
1.0039 0.999775 0.987658
1.00286 1.00005 0.989285
1.00073 1.00007 0.99415
1.0026 1.00031 0.989498
1.00065 1.00029 0.994129
0.999442 1.00012 0.996138
1.00058 1.00052 0.994109
0.999247 1.00029 0.996227
0.999112 1.00011 0.998468
1.00511 0.99844 0.986723
1.00477 0.998912 0.986892
1.00509 0.998422 0.986791
1.00359 1.00035 0.98792
1.00431 0.999444 0.987208
1.0048 0.998497 0.987095
1.00187 1.00131 0.989858
1.00281 1.00139 0.988057
1.00365 1.00086 0.987123
1.00192 1.00232 0.988787
1.00113 1.00192 0.990632
1.00003 1.00099 0.993611
1.00054 1.00215 0.991425
0.999753 1.00085 0.994189
0.999237 0.999501 0.998526
0.999596 1.00042 0.994848
0.999351 0.99874 0.998786
0.999394 0.99819 0.999022
1.00514 0.997565 0.987502
1.00514 0.996985 0.988067
1.00515 0.99656 0.98827
1.00514 0.997819 0.987285
1.00509 0.998367 0.986882
1.00513 0.997466 0.987556
1.00513 0.997788 0.987393
1.00514 0.997393 0.987751
1.00516 0.996754 0.988286
1.00515 0.997741 0.987379
1.00514 0.998308 0.986848
1.00517 0.997507 0.987596
1.00516 0.998399 0.98673
1.00507 0.998981 0.986291
1.00512 0.998513 0.986638
1.00494 0.999147 0.986336
1.00446 0.999673 0.986731
1.00477 0.999182 0.986623
1.00424 0.999645 0.987166
1.00312 0.999955 0.988877
1.00409 0.999611 0.987472
1.00301 0.999944 0.989111
1.00084 0.999967 0.994062
1.00287 1.00004 0.989281
1.00081 1.00005 0.994092
0.999548 1.00001 0.996108
1.00075 1.00025 0.994085
0.999301 1.00022 0.996235
0.999103 1.0005 0.996302
1.00513 0.998132 0.987032
1.00489 0.998933 0.986592
1.00512 0.998365 0.986781
1.00412 0.999511 0.987602
1.00477 0.998964 0.98691
1.0051 0.998433 0.986819
1.00254 1.00052 0.989365
1.0036 1.00025 0.987773
1.00436 0.999298 0.987169
1.00028 1.00089 0.993186
1.00187 1.0013 0.989869
1.00282 1.00142 0.988032
1.00111 1.0019 0.990645
0.999918 1.00109 0.993633
0.999192 1.0001 0.998375
0.999657 1.00096 0.994204
0.999247 0.999357 0.998594
0.999357 0.99862 0.99885
1.00514 0.997851 0.987273
1.00514 0.997547 0.987532
1.00514 0.99693 0.988086
1.00514 0.997782 0.987315
1.00514 0.99831 0.986844
1.00513 0.997797 0.987402
1.00514 0.997453 0.98771
1.00516 0.997715 0.987444
1.00514 0.998269 0.986883
1.00509 0.998922 0.986405
1.00516 0.99846 0.986628
1.00506 0.999055 0.986258
1.00466 0.999518 0.98641
1.00492 0.999156 0.986353
1.00445 0.999673 0.986739
1.00333 0.999977 0.988476
1.00424 0.999649 0.987165
1.00314 0.999944 0.988872
1.00094 0.999997 0.992789
1.00303 0.999926 0.989108
1.0009 0.999938 0.99347
0.99957 0.999996 0.998245
1.00088 1.00004 0.994037
0.99942 1.00004 0.996208
0.99917 1.00034 0.996315
1.00513 0.998148 0.987053
1.00497 0.998798 0.986623
1.00513 0.998184 0.987005
1.00434 0.999284 0.987101
1.00489 0.99893 0.986663
1.00512 0.99829 0.986839
1.00298 0.999881 0.988896
1.00413 0.999544 0.987594
1.00478 0.999026 0.986927
1.00059 1.00047 0.992971
1.00255 1.00047 0.989246
1.00361 1.00015 0.987626
0.999258 1.00042 0.998277
1.00021 1.00095 0.993205
1.00186 1.00129 0.98988
0.999825 1.00116 0.993654
0.999162 0.999958 0.998429
0.99925 0.999198 0.998662
1.00515 0.998255 0.986893
1.00514 0.997844 0.987283
1.00513 0.997532 0.987562
1.0051 0.998878 0.986402
1.00514 0.998272 0.986885
1.00514 0.997803 0.987411
1.00514 0.998225 0.986917
1.00509 0.998915 0.986403
1.00477 0.999414 0.986574
1.00505 0.999132 0.986225
1.00465 0.999578 0.986531
1.00358 0.999871 0.987851
1.00445 0.999668 0.986746
1.00333 0.999972 0.988474
1.00107 1.00006 0.992479
1.00315 0.999935 0.988867
1.00095 0.999989 0.992779
0.999604 0.999985 0.998208
1.00092 0.999927 0.992932
0.999519 0.999964 0.997225
0.999295 1.00008 0.996303
1.00512 0.998348 0.986891
1.005 0.998726 0.986658
1.00513 0.998131 0.987048
1.00444 0.999307 0.987069
1.00496 0.998825 0.986575
1.00513 0.998236 0.986977
1.00321 0.999646 0.988695
1.00435 0.999353 0.987257
1.0049 0.998925 0.986734
1.00083 1.00005 0.992917
1.00299 0.999884 0.988878
1.00413 0.999573 0.987586
0.999391 1.0004 0.998238
1.00056 1.00048 0.992988
1.00256 1.00042 0.989126
0.999206 1.00032 0.998306
1.00013 1.00098 0.993234
0.999137 0.999813 0.998488
1.00509 0.998747 0.986551
1.00514 0.99827 0.986865
1.00514 0.997834 0.987293
1.00474 0.999316 0.986701
1.0051 0.998839 0.986455
1.00513 0.998242 0.986927
1.00509 0.998908 0.986402
1.00477 0.999418 0.98657
1.00371 0.999758 0.987712
1.00465 0.999641 0.986652
1.00357 0.999905 0.987973
1.00125 1.00006 0.992134
1.00334 0.999963 0.988473
1.00108 1.00006 0.992464
0.999681 0.999992 0.998129
1.00095 0.999985 0.99277
0.999629 0.99998 0.998183
0.999571 0.999893 0.996094
1.005 0.998757 0.986757
1.00513 0.998278 0.986896
1.00449 0.999256 0.987048
1.00498 0.998726 0.986659
1.00513 0.998112 0.987042
1.00333 0.999681 0.988759
1.00445 0.999302 0.987063
1.00496 0.998853 0.986527
1.00098 0.999852 0.992822
1.00321 0.999697 0.988798
1.00436 0.999428 0.987414
0.99955 1.00018 0.998216
1.00083 1.00004 0.992924
1.003 0.999883 0.98886
0.99935 1.00036 0.998244
1.00053 1.00049 0.993001
0.999136 1.00025 0.998347
1.00468 0.999261 0.986878
1.00509 0.998769 0.986531
1.00514 0.998286 0.986837
1.00368 0.999702 0.987822
1.00474 0.99933 0.986699
1.0051 0.998796 0.986509
1.00476 0.999424 0.986566
1.00371 0.999757 0.987707
1.00136 1.00004 0.991962
1.00355 0.999934 0.988095
1.00126 1.00006 0.992124
0.999808 1.00001 0.998021
1.00109 1.00006 0.99245
0.999725 0.999994 0.998091
0.999658 0.999974 0.998153
1.00454 0.999259 0.986998
1.00499 0.998674 0.986765
1.00513 0.998208 0.9869
1.00339 0.999704 0.988619
1.0045 0.999257 0.987036
1.00497 0.998727 0.986659
1.00109 0.99986 0.992632
1.00333 0.999691 0.988754
1.00447 0.999297 0.987057
0.999672 1.00001 0.998166
1.00098 0.99985 0.992829
1.00321 0.99974 0.988901
0.999508 1.0002 0.998222
1.00082 1.00004 0.992931
0.999302 1.00034 0.998253
1.00361 0.999766 0.988156
1.0047 0.999237 0.986743
1.00509 0.99879 0.986511
1.00136 0.999985 0.992007
1.00369 0.999698 0.987808
1.00474 0.999343 0.986698
1.00371 0.999754 0.987704
1.00136 1.00003 0.991965
0.999902 1.00001 0.997934
1.00126 1.00006 0.992114
0.999841 1.00001 0.997982
0.999762 0.999995 0.998051
1.00349 0.999747 0.9884
1.00455 0.999208 0.986951
1.00498 0.998594 0.986774
1.00121 0.999961 0.993532
1.00339 0.999709 0.988611
1.00451 0.999259 0.987025
0.999745 0.999951 0.998094
1.00108 0.999877 0.992638
1.00332 0.9997 0.988748
0.999632 1.00004 0.998187
1.00098 0.999857 0.992836
0.999473 1.00021 0.998224
1.00135 0.999989 0.992046
1.00361 0.999731 0.988058
1.00471 0.999211 0.986608
0.999921 1 0.997925
1.00135 0.999991 0.992008
1.0037 0.999697 0.987793
1.00136 1.00002 0.991964
0.999919 1.00001 0.997924
0.999887 1.00001 0.997952
1.00134 0.999999 0.993312
1.0035 0.999742 0.988403
1.00457 0.999156 0.986905
0.999569 0.999981 0.998248
1.00115 0.999973 0.992443
1.0034 0.999712 0.988604
0.999717 0.999974 0.998124
1.00108 0.999899 0.992644
0.999603 1.00006 0.998204
0.99989 1.00001 0.995538
1.00135 0.999986 0.992663
1.00361 0.999699 0.987961
0.999914 1 0.997927
1.00135 0.999995 0.992012
0.999926 1.00001 0.997914
0.999607 1.00001 0.995859
1.00127 0.999998 0.992805
1.0035 0.99974 0.988407
0.999666 0.99999 0.99699
1.00115 0.999981 0.992438
0.99969 0.999992 0.998151
0.99989 0.999998 0.997943
1.0013 0.999988 0.992121
0.999904 1 0.997933
0.999727 0.999999 0.996909
1.00122 0.999998 0.992265
0.99975 0.999982 0.998082
0.999862 0.999994 0.997971
0.999803 0.999988 0.998021

TENSORS stress float
0.00129043 -3.64045e-05 0.000101719
-3.64045e-05 0.000367694 -1.1599e-05
0.000101719 -1.1599e-05 0.00034731
0.00378996 -8.96807e-05 9.55664e-05
-8.96807e-05 0.00173929 5.41182e-06
9.55664e-05 5.41182e-06 0.00173141
0.00130163 2.70799e-05 5.29624e-05
2.70799e-05 0.000387678 -3.45524e-06
5.29624e-05 -3.45524e-06 0.000358108
0.00167952 -2.9415e-05 0.000113034
-2.9415e-05 0.000550887 -8.2406e-06
0.000113034 -8.2406e-06 0.000530933
0.00145768 -3.70266e-05 0.000105912
-3.70266e-05 0.000450959 -1.13028e-05
0.000105912 -1.13028e-05 0.0004295
0.00116841 -1.31647e-05 9.09641e-05
-1.31647e-05 0.000298693 -1.0219e-05
9.09641e-05 -1.0219e-05 0.000280934
0.00120972 -8.26305e-06 9.64049e-06
-8.26305e-06 0.00027317 -6.52407e-06
9.64049e-06 -6.52407e-06 0.000211115
0.0036838 -0.000112925 4.96792e-06
-0.000112925 0.00168165 -5.48053e-07
4.96792e-06 -5.48053e-07 0.00167232
0.00463658 -0.000130733 1.62242e-05
-0.000130733 0.00220147 1.98189e-06
1.62242e-05 1.98189e-06 0.00218139
0.0038118 -0.000213988 1.18722e-06
-0.000213988 0.00178835 3.07915e-06
1.18722e-06 3.07915e-06 0.00175604
0.00127764 -1.92923e-05 7.89144e-05
-1.92923e-05 0.000343272 5.49816e-06
7.89144e-05 5.49816e-06 0.000332788
0.000753273 6.27945e-05 1.01446e-05
6.27945e-05 2.33553e-05 7.23521e-06
1.01446e-05 7.23521e-06 -2.96818e-05
0.00168897 -1.4102e-05 0.000129583
-1.4102e-05 0.000544171 1.46717e-06
0.000129583 1.46717e-06 0.000523639
0.00126181 1.82718e-05 1.81426e-05
1.82718e-05 0.000329113 1.94252e-06
1.81426e-05 1.94252e-06 0.00030062
0.00135964 8.92753e-05 -1.10089e-06
8.92753e-05 0.000433021 4.28695e-06
-1.10089e-06 4.28695e-06 0.000394695
0.00148013 -1.51904e-05 4.58865e-05
-1.51904e-05 0.000447314 -2.74348e-06
4.58865e-05 -2.74348e-06 0.000424431
0.00119567 3.48588e-05 4.47373e-05
3.48588e-05 0.000326811 -3.36239e-06
4.47373e-05 -3.36239e-06 0.000300358
0.00138363 1.48231e-05 5.206e-05
1.48231e-05 0.000420914 -3.85906e-06
5.206e-05 -3.85906e-06 0.000393359
0.00132098 -3.67895e-05 -2.16245e-05
-3.67895e-05 0.000324303 6.87477e-07
-2.16245e-05 6.87477e-07 0.000268055
0.00503717 -6.06273e-05 0.000135687
-6.06273e-05 0.00238906 -2.15567e-06
0.000135687 -2.15567e-06 0.00238459
0.00165681 -1.82538e-05 0.000115228
-1.82538e-05 0.000535947 -6.45307e-06
0.000115228 -6.45307e-06 0.000515892
0.00161056 -3.50223e-05 0.000110134
-3.50223e-05 0.000520965 -9.98217e-06
0.000110134 -9.98217e-06 0.000500235
0.00146346 -4.66373e-05 2.5779e-05
-4.66373e-05 0.000346338 -3.86969e-06
2.5779e-05 -3.86969e-06 0.000293145
0.00133762 -2.03907e-05 1.49462e-05
-2.03907e-05 0.000314324 -5.92778e-06
1.49462e-05 -5.92778e-06 0.000255287
0.00114071 2.87925e-05 7.22679e-05
2.87925e-05 0.000275928 -8.27654e-06
7.22679e-05 -8.27654e-06 0.000259388
0.00105974 -5.03839e-06 9.4469e-06
-5.03839e-06 0.000210295 -5.67176e-06
9.4469e-06 -5.67176e-06 0.000152215
0.00171204 -0.000132673 6.6704e-06
-0.000132673 0.000430972 -3.15071e-06
6.6704e-06 -3.15071e-06 0.00033493
0.00355671 -0.000131089 -7.26813e-05
-0.000131089 0.00161283 -3.3101e-06
-7.26813e-05 -3.3101e-06 0.00160175
0.00296401 -4.15131e-05 -6.21229e-05
-4.15131e-05 0.00128127 -1.60034e-06
-6.21229e-05 -1.60034e-06 0.00125869
0.00254555 -9.99657e-05 -3.8815e-05
-9.99657e-05 0.0010739 -1.29678e-06
-3.8815e-05 -1.29678e-06 0.00104891
0.00334531 -0.00011328 3.51913e-06
-0.00011328 0.00148648 -2.64493e-07
3.51913e-06 -2.64493e-07 0.00148072
0.000663766 5.26981e-05 -1.30931e-07
5.26981e-05 -2.01274e-05 -2.47971e-07
-1.30931e-07 -2.47971e-07 -7.28945e-05
0.00157427 4.20492e-05 0.000114667
4.20492e-05 0.000496388 7.66637e-06
0.000114667 7.66637e-06 0.000475309
0.00176531 5.28749e-05 0.000109084
5.28749e-05 0.000620618 9.59461e-06
0.000109084 9.59461e-06 0.000600062
0.00242668 0.000116207 6.83731e-05
0.000116207 0.000887412 8.07081e-06
6.83731e-05 8.07081e-06 0.000838781
0.00283938 -0.000121967 1.53297e-05
-0.000121967 0.00120588 1.3778e-06
1.53297e-05 1.3778e-06 0.00120054
0.00219763 8.14152e-05 5.53513e-05
8.14152e-05 0.000804783 7.29778e-06
5.53513e-05 7.29778e-06 0.00075776
0.000672129 1.91273e-05 9.53835e-06
1.91273e-05 -1.40656e-05 8.9843e-06
9.53835e-06 8.9843e-06 -6.02143e-05
0.000941503 9.71777e-05 4.44939e-06
9.71777e-05 8.28415e-05 1.72036e-06
4.44939e-06 1.72036e-06 -1.19343e-05
0.00252466 -8.10427e-05 4.73953e-05
-8.10427e-05 0.0010198 2.78277e-06
4.73953e-05 2.78277e-06 0.0010262
0.00511216 2.30183e-05 2.25773e-07
2.30183e-05 0.00242542 -8.92068e-07
2.25773e-07 -8.92068e-07 0.00242224
0.00312723 2.35924e-05 -5.13878e-05
2.35924e-05 0.00134737 -1.10393e-06
-5.13878e-05 -1.10393e-06 0.00133112
0.005185 6.05656e-05 0.000140714
6.05656e-05 0.00246469 9.32049e-07
0.000140714 9.32049e-07 0.00246045
0.00135206 -2.83283e-05 1.13157e-05
-2.83283e-05 0.000378399 1.17439e-06
1.13157e-05 1.17439e-06 0.00034785
0.000765302 -1.54428e-06 1.54798e-05
-1.54428e-06 -6.73513e-05 2.27079e-06
1.54798e-05 2.27079e-06 -0.000128331
0.00476299 5.75369e-05 4.74129e-05
5.75369e-05 0.00224536 2.59833e-06
4.74129e-05 2.59833e-06 0.00223423
0.00243564 2.22069e-05 7.09449e-05
2.22069e-05 0.000858614 4.39026e-06
7.09449e-05 4.39026e-06 0.000815372
0.00125345 -2.96933e-05 -2.44771e-05
-2.96933e-05 0.000331173 2.59109e-06
-2.44771e-05 2.59109e-06 0.000304193
0.00135201 1.8968e-05 -1.43489e-05
1.8968e-05 0.000406261 3.24208e-06
-1.43489e-05 3.24208e-06 0.000377581
0.00126309 9.99265e-05 -1.44049e-06
9.99265e-05 0.000380442 4.08727e-06
-1.44049e-06 4.08727e-06 0.000342707
0.00138067 -6.31912e-05 -5.54008e-05
-6.31912e-05 0.000347128 7.52755e-06
-5.54008e-05 7.52755e-06 0.000296674
0.00327547 3.97117e-05 -5.44563e-05
3.97117e-05 0.00143251 -1.02726e-06
-5.44563e-05 -1.02726e-06 0.001409
0.00147115 -1.98381e-05 4.64952e-05
-1.98381e-05 0.000441414 -1.74108e-06
4.64952e-05 -1.74108e-06 0.000417645
0.00112345 4.95385e-05 3.46488e-05
4.95385e-05 0.000274838 -2.65042e-06
3.46488e-05 -2.65042e-06 0.000253695
0.00145818 -6.07769e-06 4.8201e-05
-6.07769e-06 0.000443881 -3.66989e-06
4.8201e-05 -3.66989e-06 0.000419825
0.00150045 -5.06109e-05 -1.69859e-05
-5.06109e-05 0.000363832 5.84585e-07
-1.69859e-05 5.84585e-07 0.000312843
0.00119782 -2.10515e-05 -1.94929e-05
-2.10515e-05 0.000278453 3.54016e-07
-1.94929e-05 3.54016e-07 0.000224263
0.00142008 -5.34813e-05 -1.86501e-05
-5.34813e-05 0.000350848 8.61639e-07
-1.86501e-05 8.61639e-07 0.00029724
0.00181874 -0.000136992 -3.33983e-06
-0.000136992 0.000485059 1.03927e-06
-3.33983e-06 1.03927e-06 0.000387845
0.00510089 5.02103e-05 0.000130705
5.02103e-05 0.00241959 8.17228e-08
0.000130705 8.17228e-08 0.00241649
0.00166022 -4.75755e-06 0.000120106
-4.75755e-06 0.000533045 -4.42501e-06
0.000120106 -4.42501e-06 0.000512147
0.00232624 6.34805e-05 1.41863e-05
6.34805e-05 0.000806626 -1.21124e-06
1.41863e-05 -1.21124e-06 0.000751397
0.00144089 -4.77037e-05 2.6256e-05
-4.77037e-05 0.000332186 -3.40796e-06
2.6256e-05 -3.40796e-06 0.00027834
0.00143696 -3.9531e-05 2.20085e-05
-3.9531e-05 0.000342128 -4.8316e-06
2.20085e-05 -4.8316e-06 0.000287203
0.00194733 -9.40023e-05 8.31918e-06
-9.40023e-05 0.000458791 -1.9081e-06
8.31918e-06 -1.9081e-06 0.000368006
0.00140819 -0.000112739 9.366e-06
-0.000112739 0.000216063 -3.80213e-06
9.366e-06 -3.80213e-06 0.000118671
0.00117302 4.76468e-05 5.70458e-05
4.76468e-05 0.00027757 -7.2954e-06
5.70458e-05 -7.2954e-06 0.000265562
0.000908539 2.14191e-05 7.88561e-06
2.14191e-05 0.00014131 -4.34498e-06
7.88561e-06 -4.34498e-06 9.29079e-05
0.00148755 -0.000119219 4.58626e-06
-0.000119219 0.000360903 -2.45067e-06
4.58626e-06 -2.45067e-06 0.000268019
0.0012129 -0.000133286 4.34328e-06
-0.000133286 8.55508e-05 -1.8845e-06
4.34328e-06 -1.8845e-06 -3.77653e-05
0.004652 -2.38731e-05 -0.000113668
-2.38731e-05 0.00219621 -6.32963e-06
-0.000113668 -6.32963e-06 0.00219018
0.00321921 -0.00011947 -6.16762e-05
-0.00011947 0.00141636 -2.77045e-06
-6.16762e-05 -2.77045e-06 0.00141074
0.00385816 -0.000133184 -8.17776e-05
-0.000133184 0.00178984 -4.64152e-06
-8.17776e-05 -4.64152e-06 0.00177455
0.000582597 5.00644e-05 -8.74596e-06
5.00644e-05 -6.00361e-05 -7.68762e-06
-8.74596e-06 -7.68762e-06 -0.000112455
0.0050069 3.38535e-05 -2.72864e-06
3.38535e-05 0.00237328 -7.40118e-07
-2.72864e-06 -7.40118e-07 0.0023694
0.00453346 -8.69643e-05 -3.25794e-06
-8.69643e-05 0.00215166 3.10157e-07
-3.25794e-06 3.10157e-07 0.00213685
0.000615138 9.51767e-05 -6.80944e-07
9.51767e-05 -9.86635e-05 -2.27005e-07
-6.80944e-07 -2.27005e-07 -0.000160202
0.00195977 -8.24566e-05 -2.50454e-05
-8.24566e-05 0.000718313 -3.64342e-07
-2.50454e-05 -3.64342e-07 0.000711538
0.000630817 8.26803e-05 -2.44939e-07
8.26803e-05 -4.7329e-05 -8.42832e-08
-2.44939e-07 -8.42832e-08 -0.000104141
0.00121225 -1.00469e-06 1.51286e-05
-1.00469e-06 0.00028844 3.15754e-07
1.51286e-05 3.15754e-07 0.000246634
0.000873605 9.22215e-05 2.54778e-07
9.22215e-05 4.4833e-05 -1.83453e-07
2.54778e-07 -1.83453e-07 -4.9067e-05
0.00277722 -8.88496e-05 5.7179e-05
-8.88496e-05 0.0011611 2.87657e-06
5.7179e-05 2.87657e-06 0.0011648
0.000665009 -6.69329e-05 -1.02301e-06
-6.69329e-05 -5.57693e-06 5.01252e-06
-1.02301e-06 5.01252e-06 -3.14407e-05
0.000736203 6.99747e-05 1.61118e-05
6.99747e-05 -5.8977e-05 7.50959e-06
1.61118e-05 7.50959e-06 -0.000119618
0.0007863 0.000101266 1.82307e-05
0.000101266 1.17136e-05 1.06192e-05
1.82307e-05 1.06192e-05 -4.97807e-05
0.00106949 0.000104042 8.99972e-06
0.000104042 7.81185e-06 4.06186e-06
8.99972e-06 4.06186e-06 -9.71035e-05
0.0016708 -4.51113e-05 3.05309e-05
-4.51113e-05 0.000545617 4.25577e-06
3.05309e-05 4.25577e-06 0.000514445
0.000994769 0.000108531 5.44637e-06
0.000108531 7.19383e-05 3.31804e-06
5.44637e-06 3.31804e-06 -2.59831e-05
0.000919351 7.51454e-05 4.14018e-06
7.51454e-05 0.000102783 2.24322e-06
4.14018e-06 2.24322e-06 1.07193e-05
0.000864145 0.000119666 1.71115e-06
0.000119666 6.39789e-06 -3.1045e-07
1.71115e-06 -3.1045e-07 -0.000110396
0.00230351 -7.34363e-05 3.79966e-05
-7.34363e-05 0.000892902 2.83224e-06
3.79966e-05 2.83224e-06 0.000901981
0.00244175 -8.23609e-05 1.69388e-06
-8.23609e-05 0.000975192 -1.41147e-07
1.69388e-06 -1.41147e-07 0.000981427
0.00494365 4.63595e-05 -0.000132128
4.63595e-05 0.00233674 -5.00194e-06
-0.000132128 -5.00194e-06 0.0023341
0.00506381 4.3002e-05 -0.000132282
4.3002e-05 0.00240034 -2.24161e-06
-0.000132282 -2.24161e-06 0.00239721
0.00517924 6.43713e-05 3.73074e-06
6.43713e-05 0.00246451 -6.44306e-07
3.73074e-06 -6.44306e-07 0.00245865
0.0031651 -1.67874e-05 -5.7849e-05
-1.67874e-05 0.00136479 -1.03091e-06
-5.7849e-05 -1.03091e-06 0.00134887
0.00164235 1.16476e-05 3.07172e-05
1.16476e-05 0.000414683 2.14833e-07
3.07172e-05 2.14833e-07 0.000361498
0.00315696 3.7336e-05 -5.6803e-05
3.7336e-05 0.00136238 -2.2703e-06
-5.6803e-05 -2.2703e-06 0.00134632
0.00162037 3.71209e-05 2.85379e-05
3.71209e-05 0.000415907 7.22342e-07
2.85379e-05 7.22342e-07 0.000364621
0.00520183 0.00012253 0.000132766
0.00012253 0.00248165 1.90316e-06
0.000132766 1.90316e-06 0.00247197
0.000716584 -4.94752e-06 1.496e-05
-4.94752e-06 -9.82708e-05 6.17534e-07
1.496e-05 6.17534e-07 -0.000159269
0.00250596 -3.77917e-06 7.30829e-05
-3.77917e-06 0.000892642 3.22366e-06
7.30829e-05 3.22366e-06 0.000848115
0.00119763 2.15349e-05 1.01822e-05
2.15349e-05 9.66266e-06 1.56007e-06
1.01822e-05 1.56007e-06 -9.24146e-05
0.00237548 6.6616e-05 7.02633e-05
6.6616e-05 0.000832666 5.10857e-06
7.02633e-05 5.10857e-06 0.000787477
0.00118559 5.59646e-05 9.72691e-06
5.59646e-05 2.22115e-05 2.4171e-06
9.72691e-06 2.4171e-06 -7.71903e-05
0.00170816 2.18059e-05 -0.00012795
2.18059e-05 0.000556774 6.03929e-07
-0.00012795 6.03929e-07 0.000536441
0.00123615 -4.19991e-05 -2.1947e-05
-4.19991e-05 0.000321752 2.16225e-06
-2.1947e-05 2.16225e-06 0.000293099
0.0010811 8.35414e-05 -6.45916e-06
8.35414e-05 0.000261947 2.97341e-06
-6.45916e-06 2.97341e-06 0.000234066
0.00131 -1.18214e-05 -2.12036e-05
-1.18214e-05 0.000369245 2.95629e-06
-2.12036e-05 2.95629e-06 0.000342061
0.0015664 -4.06256e-05 -6.12067e-05
-4.06256e-05 0.000396113 4.78576e-06
-6.12067e-05 4.78576e-06 0.000347785
0.00147427 -6.18608e-05 -5.81093e-05
-6.18608e-05 0.000375567 7.35994e-06
-5.81093e-05 7.35994e-06 0.000324997
0.00127591 -4.47564e-05 -4.86998e-05
-4.47564e-05 0.000311961 6.71672e-06
-4.86998e-05 6.71672e-06 0.000263089
0.00194996 -0.000142682 -1.41479e-05
-0.000142682 0.000552792 5.53644e-06
-1.41479e-05 5.53644e-06 0.000454212
0.00516613 -4.35148e-05 -2.33769e-06
-4.35148e-05 0.00245525 -6.45282e-07
-2.33769e-06 -6.45282e-07 0.00245081
0.00147294 8.6351e-06 5.31203e-05
8.6351e-06 0.000437946 -1.41595e-06
5.31203e-05 -1.41595e-06 0.000413397
0.00115798 5.73977e-06 -3.3043e-05
5.73977e-06 0.000153648 4.14581e-07
-3.3043e-05 4.14581e-07 9.81835e-05
0.00148149 -4.17598e-05 -1.80836e-05
-4.17598e-05 0.00035097 3.46434e-07
-1.80836e-05 3.46434e-07 0.000299646
0.00214105 7.67739e-05 5.15491e-05
7.67739e-05 0.000817216 -7.28963e-07
5.15491e-05 -7.28963e-07 0.00080946
0.00135282 1.33081e-05 -1.22986e-05
1.33081e-05 0.0003771 -1.39682e-07
-1.22986e-05 -1.39682e-07 0.000330692
0.00148923 -5.54276e-05 -1.73897e-05
-5.54276e-05 0.000367307 7.13538e-07
-1.73897e-05 7.13538e-07 0.000315066
0.00177103 -8.71612e-05 -5.71112e-06
-8.71612e-05 0.00036123 9.88988e-07
-5.71112e-06 9.88988e-07 0.00026942
0.00166155 -0.000130292 -2.48293e-06
-0.000130292 0.000451404 9.5265e-07
-2.48293e-06 9.5265e-07 0.000356228
0.00168358 -0.000121844 -1.71575e-06
-0.000121844 0.0003657 2.75738e-07
-1.71575e-06 2.75738e-07 0.000268732
0.00119443 -0.000131495 -8.44001e-08
-0.000131495 7.58985e-05 -8.62205e-08
-8.44001e-08 -8.62205e-08 -4.71153e-05
0.0007354 4.42222e-06 1.51426e-05
4.42222e-06 -8.44697e-05 -1.24385e-06
1.51426e-05 -1.24385e-06 -0.000145207
0.0014486 -1.32616e-05 2.1992e-05
-1.32616e-05 0.000326308 -2.36658e-06
2.1992e-05 -2.36658e-06 0.00027144
0.00162949 -1.52748e-05 9.85147e-06
-1.52748e-05 0.00025157 -1.41589e-06
9.85147e-06 -1.41589e-06 0.000155384
0.00152913 -6.555e-05 9.37459e-06
-6.555e-05 0.00022576 -2.04267e-06
9.37459e-06 -2.04267e-06 0.000132811
0.00154941 -0.000102701 1.00533e-05
-0.000102701 0.000253903 -3.01626e-06
1.00533e-05 -3.01626e-06 0.00015789
0.00177089 -0.000100778 2.94152e-06
-0.000100778 0.000274791 -5.1074e-07
2.94152e-06 -5.1074e-07 0.000163752
0.00299082 0.000103716 5.67037e-05
0.000103716 0.00127724 -2.62171e-06
5.67037e-05 -2.62171e-06 0.00127752
0.0012878 -0.000125714 4.66888e-06
-0.000125714 7.19077e-05 -1.84818e-06
4.66888e-06 -1.84818e-06 -4.89982e-05
0.000597916 3.87896e-05 3.67698e-06
3.87896e-05 -4.15909e-05 -5.75512e-06
3.67698e-06 -5.75512e-06 -8.42677e-05
0.000663409 -7.88761e-05 3.28392e-06
-7.88761e-05 -4.24413e-05 -1.96025e-06
3.28392e-06 -1.96025e-06 -0.000131166
0.00130261 -0.000145433 3.84997e-06
-0.000145433 0.000196205 -2.11274e-06
3.84997e-06 -2.11274e-06 7.03492e-05
0.00136154 -0.000148627 2.30529e-06
-0.000148627 0.000113353 -1.00954e-06
2.30529e-06 -1.00954e-06 -2.15648e-05
0.000555358 6.85026e-05 -1.79757e-07
6.85026e-05 -6.52123e-05 -5.78401e-06
-1.79757e-07 -5.78401e-06 -9.96766e-05
0.000737352 3.64243e-05 2.84213e-07
3.64243e-05 1.06222e-05 -2.81687e-06
2.84213e-07 -2.81687e-06 -5.3126e-05
0.00491355 3.60194e-05 -0.000129888
3.60194e-05 0.00232494 -6.80229e-06
-0.000129888 -6.80229e-06 0.00232124
0.00421046 -0.000111724 -8.94799e-05
-0.000111724 0.00198128 -6.08677e-06
-8.94799e-05 -6.08677e-06 0.00196599
0.000580409 8.46949e-05 -1.36763e-05
8.46949e-05 -0.000116846 -8.10882e-06
-1.36763e-05 -8.10882e-06 -0.000178501
0.00290841 -0.000103912 -5.4469e-05
-0.000103912 0.00123876 -2.58912e-06
-5.4469e-05 -2.58912e-06 0.00123851
0.00056404 -9.15076e-06 -3.89792e-06
-9.15076e-06 -6.37491e-05 -6.91366e-06
-3.89792e-06 -6.91366e-06 -0.000107628
0.000538662 7.48497e-05 -1.09129e-05
7.48497e-05 -9.32646e-05 -7.90254e-06
-1.09129e-05 -7.90254e-06 -0.00015022
0.000828805 8.84964e-05 -4.49944e-06
8.84964e-05 1.94727e-05 -2.28655e-06
-4.49944e-06 -2.28655e-06 -7.37913e-05
0.00268908 -9.08936e-05 1.85992e-06
-9.08936e-05 0.00111432 -1.72372e-07
1.85992e-06 -1.72372e-07 0.00111775
0.000628237 -6.32149e-05 5.10025e-08
-6.32149e-05 -2.70152e-05 1.63628e-07
5.10025e-08 1.63628e-07 -5.17214e-05
0.00155224 8.17989e-05 2.75076e-05
8.17989e-05 0.000390214 7.32838e-07
2.75076e-05 7.32838e-07 0.000335862
0.0013994 9.78622e-05 2.33079e-05
9.78622e-05 0.000352506 5.93867e-07
2.33079e-05 5.93867e-07 0.000298416
0.00107529 0.000105462 3.57396e-07
0.000105462 1.15472e-05 -2.28484e-07
3.57396e-07 -2.28484e-07 -9.34848e-05
0.000646445 -4.12324e-05 -3.95455e-07
-4.12324e-05 -1.63662e-05 1.46561e-07
-3.95455e-07 1.46561e-07 -5.27681e-05
0.000930863 0.000104125 2.5666e-07
0.000104125 3.80766e-05 4.82294e-07
2.5666e-07 4.82294e-07 -5.91876e-05
0.00083215 6.86345e-05 3.32743e-07
6.86345e-05 5.49559e-05 -2.46115e-07
3.32743e-07 -2.46115e-07 -3.56586e-05
0.000809306 0.000116541 -7.4098e-08
0.000116541 -2.46706e-05 -5.12307e-08
-7.4098e-08 -5.12307e-08 -0.000141867
0.000643094 -5.28569e-05 2.39742e-06
-5.28569e-05 -1.56636e-05 5.24864e-06
2.39742e-06 5.24864e-06 -4.64749e-05
0.000699258 -5.55401e-05 7.90605e-07
-5.55401e-05 4.86345e-07 4.01553e-06
7.90605e-07 4.01553e-06 -1.7505e-05
0.000688514 -8.71996e-06 2.06397e-06
-8.71996e-06 -5.53974e-06 2.50256e-06
2.06397e-06 2.50256e-06 -6.59921e-05
0.00110928 8.8821e-05 9.61041e-06
8.8821e-05 -4.48488e-06 3.22573e-06
9.61041e-06 3.22573e-06 -0.000107991
0.00103872 0.000111586 7.47224e-06
0.000111586 4.48647e-05 4.12034e-06
7.47224e-06 4.12034e-06 -5.79289e-05
0.00130406 0.000130599 5.16819e-06
0.000130599 5.6386e-05 2.16513e-06
5.16819e-06 2.16513e-06 -7.20718e-05
0.000861213 5.01037e-05 3.22039e-06
5.01037e-05 8.22433e-05 2.57977e-06
3.22039e-06 2.57977e-06 -1.46264e-06
0.000906322 0.000123662 1.61168e-06
0.000123662 -2.60665e-05 1.225e-06
1.61168e-06 1.225e-06 -0.000145437
0.00109811 0.000129126 2.00655e-06
0.000129126 0.000177419 3.41496e-07
2.00655e-06 3.41496e-07 5.87948e-05
0.00106152 0.000140673 -1.88754e-06
0.000140673 0.00010135 -1.6617e-06
-1.88754e-06 -1.6617e-06 -2.66314e-05
0.002159 -6.52159e-05 3.20267e-05
-6.52159e-05 0.00080509 3.01321e-06
3.20267e-05 3.01321e-06 0.000817001
0.00223893 -7.33546e-05 1.00624e-06
-7.33546e-05 0.000856984 -1.11722e-07
1.00624e-06 -1.11722e-07 0.000866267
0.00234931 -8.21181e-05 -3.71881e-05
-8.21181e-05 0.000924995 -2.67105e-06
-3.71881e-05 -2.67105e-06 0.000931413
0.000592085 5.81973e-05 1.31762e-06
5.81973e-05 -5.36853e-05 -4.79578e-06
1.31762e-06 -4.79578e-06 -8.07166e-05
0.00279754 9.37654e-05 4.94306e-05
9.37654e-05 0.0011675 -2.75895e-06
4.94306e-05 -2.75895e-06 0.00117081
0.00498533 6.66412e-05 -0.000137107
6.66412e-05 0.00236029 -6.60346e-06
-0.000137107 -6.60346e-06 0.00235656
0.00494427 -2.44811e-05 -0.00012564
-2.44811e-05 0.00233776 -3.08933e-06
-0.00012564 -3.08933e-06 0.00233467
0.00073479 4.56955e-05 -1.48726e-05
4.56955e-05 -6.71644e-05 -3.88137e-06
-1.48726e-05 -3.88137e-06 -0.000125357
0.000714582 1.70355e-05 -1.50979e-05
1.70355e-05 -9.03373e-05 -2.32106e-06
-1.50979e-05 -2.32106e-06 -0.000150941
0.00513706 -5.91303e-05 -0.000130898
-5.91303e-05 0.00243971 -4.47456e-07
-0.000130898 -4.47456e-07 0.00243571
0.00519506 2.0288e-06 -1.12924e-06
2.0288e-06 0.00246856 4.7241e-07
-1.12924e-06 4.7241e-07 0.00246522
0.000713559 -3.18467e-06 -1.63343e-07
-3.18467e-06 -9.91097e-05 -2.50568e-07
-1.63343e-07 -2.50568e-07 -0.000160205
0.00161582 1.49738e-05 2.95903e-05
1.49738e-05 0.000409052 5.38085e-07
2.95903e-05 5.38085e-07 0.00035731
0.00120585 2.5573e-05 1.61367e-07
2.5573e-05 1.43466e-05 -1.21054e-07
1.61367e-07 -1.21054e-07 -8.78331e-05
0.000676151 4.91682e-05 2.40622e-07
4.91682e-05 -9.7518e-05 -1.1809e-07
2.40622e-07 -1.1809e-07 -0.000155712
0.00117249 5.79801e-05 -1.26828e-07
5.79801e-05 1.6027e-05 3.31102e-08
-1.26828e-07 3.31102e-08 -8.36727e-05
0.000705215 -1.26889e-05 1.52827e-05
-1.26889e-05 -0.000105494 -3.34686e-07
1.52827e-05 -3.34686e-07 -0.000166871
0.00121888 9.29277e-06 1.02493e-05
9.29277e-06 1.1076e-05 5.13029e-07
1.02493e-05 5.13029e-07 -9.26226e-05
0.00118505 3.88549e-05 9.87537e-06
3.88549e-05 1.55633e-05 2.07873e-06
9.87537e-06 2.07873e-06 -8.46462e-05
0.00146046 2.73412e-05 4.41991e-06
2.73412e-05 6.70953e-05 8.93012e-07
4.41991e-06 8.93012e-07 -5.11446e-05
0.00115212 7.1441e-05 9.74033e-06
7.1441e-05 6.42664e-06 2.56732e-06
9.74033e-06 2.56732e-06 -9.42821e-05
0.00146165 6.67394e-05 4.31212e-06
6.67394e-05 8.73014e-05 1.21512e-06
4.31212e-06 1.21512e-06 -2.8855e-05
0.00517637 -3.84461e-05 -0.000142106
-3.84461e-05 0.00246 -6.2122e-07
-0.000142106 -6.2122e-07 0.00245577
0.00129041 -3.20257e-05 -1.59638e-05
-3.20257e-05 0.000346488 1.37424e-06
-1.59638e-05 1.37424e-06 0.000317428
-9.92335e-05 -5.09542e-07 -1.35251e-05
-5.09542e-07 -0.00053586 2.2762e-06
-1.35251e-05 2.2762e-06 -0.000602514
0.00157187 -2.65131e-05 -6.23252e-05
-2.65131e-05 0.000396205 3.44824e-06
-6.23252e-05 3.44824e-06 0.00034783
0.00298547 0.000136565 -1.65419e-05
0.000136565 0.00129426 1.32968e-06
-1.65419e-05 1.32968e-06 0.00128365
0.00182352 -2.44657e-05 -4.02246e-05
-2.44657e-05 0.00062127 5.53405e-06
-4.02246e-05 5.53405e-06 0.000581159
0.00154578 -5.41709e-05 -6.01403e-05
-5.41709e-05 0.000394768 6.34606e-06
-6.01403e-05 6.34606e-06 0.000345034
0.00158024 -8.01628e-05 -1.836e-05
-8.01628e-05 0.000255661 3.41989e-06
-1.836e-05 3.41989e-06 0.000162922
0.00196434 -0.000131683 -1.41525e-05
-0.000131683 0.000518554 4.75965e-06
-1.41525e-05 4.75965e-06 0.000421936
0.00188045 -0.000142386 -1.1202e-05
-0.000142386 0.000566496 4.95602e-06
-1.1202e-05 4.95602e-06 0.000468873
0.00118054 -0.000129979 -3.90441e-06
-0.000129979 6.8739e-05 1.56533e-06
-3.90441e-06 1.56533e-06 -5.4011e-05
0.000706203 6.94963e-06 3.85111e-08
6.94963e-06 -0.000101029 -2.41985e-07
3.85111e-08 -2.41985e-07 -0.000161628
0.00152703 -2.50501e-05 -2.0792e-05
-2.50501e-05 0.00036672 8.69641e-08
-2.0792e-05 8.69641e-08 0.000313924
0.00120645 -1.33787e-05 -3.90052e-06
-1.33787e-05 2.07368e-05 1.84606e-07
-3.90052e-06 1.84606e-07 -7.84384e-05
0.00179233 -6.83159e-05 -2.69732e-06
-6.83159e-05 0.000367772 3.57349e-07
-2.69732e-06 3.57349e-07 0.000276456
0.00299649 0.000101815 -1.09309e-06
0.000101815 0.00128136 -2.26765e-07
-1.09309e-06 -2.26765e-07 0.00128152
0.00115129 2.0469e-05 2.20265e-06
2.0469e-05 0.000258754 3.45513e-07
2.20265e-06 3.45513e-07 0.000218636
0.00114632 -9.32427e-05 3.96108e-07
-9.32427e-05 0.000216561 -2.28832e-07
3.96108e-07 -2.28832e-07 0.000127546
0.00154832 -0.000101599 -2.98226e-06
-0.000101599 0.000254521 5.48791e-07
-2.98226e-06 5.48791e-07 0.000158363
0.00147888 -9.24681e-05 -2.15923e-06
-9.24681e-05 0.000113395 6.37892e-07
-2.15923e-06 6.37892e-07 1.2264e-06
0.00100955 -0.000129174 -5.5857e-07
-0.000129174 4.01691e-05 -1.73807e-07
-5.5857e-07 -1.73807e-07 -8.44814e-05
0.0015169 -0.000132534 3.04862e-08
-0.000132534 0.000196873 -2.92769e-07
3.04862e-08 -2.92769e-07 7.69821e-05
0.00133484 -0.000146609 4.66168e-08
-0.000146609 9.94832e-05 -4.53732e-08
4.66168e-08 -4.53732e-08 -3.50554e-05
0.000587409 5.74616e-05 -8.93979e-07
5.74616e-05 -4.99649e-05 2.85683e-08
-8.93979e-07 2.85683e-08 -8.28817e-05
0.000710454 2.16905e-05 -1.77247e-07
2.16905e-05 -6.04391e-06 1.93372e-07
-1.77247e-07 1.93372e-07 -6.93709e-05
0.00120085 -7.02735e-06 1.00084e-05
-7.02735e-06 2.65778e-06 -1.43755e-06
1.00084e-05 -1.43755e-06 -0.000100385
0.00158134 -3.58346e-05 9.41468e-06
-3.58346e-05 0.000237151 -1.56652e-06
9.41468e-06 -1.56652e-06 0.000142599
0.00186751 -2.08122e-05 3.18263e-06
-2.08122e-05 0.000294961 -4.29075e-07
3.18263e-06 -4.29075e-07 0.000182959
0.00117379 -6.46693e-05 4.9398e-06
-6.46693e-05 -5.85747e-05 -1.49146e-06
4.9398e-06 -1.49146e-06 -0.000172699
0.00163067 -0.000123181 4.33045e-06
-0.000123181 0.000215596 -8.45761e-07
4.33045e-06 -8.45761e-07 9.9611e-05
0.00170811 -9.80743e-05 7.24981e-07
-9.80743e-05 0.000187109 9.6557e-08
7.24981e-07 9.6557e-08 7.24132e-05
0.000538954 5.00255e-05 2.15258e-06
5.00255e-05 -7.52015e-05 -5.8981e-06
2.15258e-06 -5.8981e-06 -0.00011296
0.0014798 -0.000138484 2.02295e-06
-0.000138484 0.000115282 -8.48005e-07
2.02295e-06 -8.48005e-07 -1.31879e-05
0.000660753 -4.7064e-05 2.23802e-06
-4.7064e-05 -2.89806e-05 -1.49612e-06
2.23802e-06 -1.49612e-06 -0.000112568
0.000535285 -0.000100812 2.5971e-06
-0.000100812 -0.000149752 -2.57668e-06
2.5971e-06 -2.57668e-06 -0.000267262
0.00187083 -0.000186906 1.43479e-06
-0.000186906 0.000461488 -6.6565e-07
1.43479e-06 -6.6565e-07 0.000319901
0.00159937 -0.00016348 -5.20297e-07
-0.00016348 0.000194622 6.53905e-07
-5.20297e-07 6.53905e-07 5.82954e-05
0.000795122 -8.44945e-06 1.4324e-06
-8.44945e-06 4.57666e-05 -2.86444e-06
1.4324e-06 -2.86444e-06 -2.93978e-05
0.000721931 3.52251e-05 1.05886e-06
3.52251e-05 -1.52569e-06 -2.1321e-06
1.05886e-06 -2.1321e-06 -5.63155e-05
0.000831904 -3.78653e-05 2.67249e-07
-3.78653e-05 6.43254e-05 -7.60266e-07
2.67249e-07 -7.60266e-07 -2.85701e-05
0.000646324 7.14048e-05 -1.40826e-05
7.14048e-05 -0.000103297 -6.65779e-06
-1.40826e-05 -6.65779e-06 -0.000163951
0.00262214 -9.26746e-05 -4.53417e-05
-9.26746e-05 0.00107882 -2.55718e-06
-4.53417e-05 -2.55718e-06 0.00108205
0.000593944 -5.72946e-05 -1.42144e-06
-5.72946e-05 -4.75297e-05 -4.23321e-06
-1.42144e-06 -4.23321e-06 -7.07475e-05
0.000523888 8.91278e-05 -1.30064e-05
8.91278e-05 -0.000120441 -8.47486e-06
-1.30064e-05 -8.47486e-06 -0.000179779
0.00107759 0.000107079 -8.96499e-06
0.000107079 1.34262e-05 -4.56347e-06
-8.96499e-06 -4.56347e-06 -9.17645e-05
0.000533067 -5.44822e-05 -1.40374e-06
-5.44822e-05 -7.38556e-05 -6.08552e-06
-1.40374e-06 -6.08552e-06 -0.000112088
0.000728991 6.20795e-05 -2.82667e-06
6.20795e-05 -1.68744e-06 -2.4212e-06
-2.82667e-06 -2.4212e-06 -9.06728e-05
0.000872847 9.98571e-05 -5.05515e-06
9.98571e-05 7.71756e-06 -2.48646e-06
-5.05515e-06 -2.48646e-06 -8.8941e-05
0.000750149 0.00011323 -2.80387e-06
0.00011323 -5.81958e-05 -3.14892e-07
-2.80387e-06 -3.14892e-07 -0.000175758
0.000594817 -6.23665e-05 1.46017e-06
-6.23665e-05 -4.06446e-05 1.04507e-08
1.46017e-06 1.04507e-08 -7.21103e-05
0.000666492 -5.15757e-05 -1.60653e-07
-5.15757e-05 -1.80764e-05 1.2165e-07
-1.60653e-07 1.2165e-07 -3.5244e-05
0.000702276 -3.95116e-05 2.69396e-07
-3.95116e-05 -1.22211e-06 2.78462e-07
2.69396e-07 2.78462e-07 -5.87065e-05
0.00112875 9.10892e-05 2.41551e-07
9.10892e-05 6.46106e-06 -3.29895e-07
2.41551e-07 -3.29895e-07 -9.74262e-05
0.00100355 0.000110157 5.27159e-07
0.000110157 2.76184e-05 -8.83582e-08
5.27159e-07 -8.83582e-08 -7.49268e-05
0.00133251 0.000132904 3.41113e-07
0.000132904 7.16322e-05 7.98008e-08
3.41113e-07 7.98008e-08 -5.72236e-05
0.000802911 4.43684e-05 1.88751e-08
4.43684e-05 5.30238e-05 -2.98922e-08
1.88751e-08 -2.98922e-08 -3.04331e-05
0.00108838 0.000133511 -1.74843e-07
0.000133511 7.2793e-05 -1.34126e-07
-1.74843e-07 -1.34126e-07 -4.71298e-05
0.00102402 0.000124031 3.16268e-07
0.000124031 0.000137744 -4.37656e-07
3.16268e-07 -4.37656e-07 1.95408e-05
0.000960457 0.000136778 -8.12395e-07
0.000136778 4.62227e-05 7.41236e-07
-8.12395e-07 7.41236e-07 -8.19771e-05
0.000709932 -4.61142e-05 2.01901e-06
-4.61142e-05 -5.1254e-06 3.42522e-06
2.01901e-06 3.42522e-06 -1.78107e-05
0.000732213 1.71736e-05 2.36766e-06
1.71736e-05 1.2989e-05 2.24236e-06
2.36766e-06 2.24236e-06 -5.7788e-05
0.000697693 -5.15258e-05 7.09699e-08
-5.15258e-05 -7.07345e-06 2.2058e-06
7.09699e-08 2.2058e-06 -5.4059e-05
0.000828409 2.66872e-05 4.26039e-07
2.66872e-05 7.07055e-05 7.32012e-07
4.26039e-07 7.32012e-07 -1.52293e-05
0.00135177 0.000108555 5.927e-06
0.000108555 4.34265e-05 1.12594e-06
5.927e-06 1.12594e-06 -8.04337e-05
0.00125412 0.000141348 3.91742e-06
0.000141348 9.72107e-05 2.85299e-06
3.91742e-06 2.85299e-06 -2.96763e-05
0.0014848 0.000145159 2.72734e-06
0.000145159 9.70862e-05 1.64181e-06
2.72734e-06 1.64181e-06 -4.06418e-05
0.00109263 9.80932e-05 2.09177e-06
9.80932e-05 0.000196579 1.59912e-06
2.09177e-06 1.59912e-06 8.84983e-05
0.00128446 0.000154099 -7.13572e-07
0.000154099 0.000146705 9.08012e-07
-7.13572e-07 9.08012e-07 1.72643e-05
0.000963662 0.000134236 1.95032e-08
0.000134236 0.000103212 -1.85271e-06
1.95032e-08 -1.85271e-06 -3.53002e-05
0.000804571 0.000131923 -3.70435e-07
0.000131923 -6.34686e-05 -1.06907e-06
-3.70435e-07 -1.06907e-06 -0.000194919
0.000767804 -2.44588e-05 1.26163e-06
-2.44588e-05 4.65126e-06 1.61521e-06
1.26163e-06 1.61521e-06 -2.62691e-05
0.000710014 -3.50608e-05 1.48459e-06
-3.50608e-05 -2.16046e-05 3.32564e-06
1.48459e-06 3.32564e-06 -2.85881e-05
0.00208915 -5.75685e-05 2.76394e-05
-5.75685e-05 0.000757547 3.25661e-06
2.76394e-05 3.25661e-06 0.000771967
0.00212612 -6.48876e-05 1.23189e-06
-6.48876e-05 0.000785876 -1.10924e-07
1.23189e-06 -1.10924e-07 0.000798071
0.00217701 -7.23638e-05 -3.28063e-05
-7.23638e-05 0.000822272 -2.86193e-06
-3.28063e-05 -2.86193e-06 0.000831981
0.000633392 4.74294e-05 2.17636e-06
4.74294e-05 -4.12351e-05 -4.18141e-06
2.17636e-06 -4.18141e-06 -6.25826e-05
0.00261191 8.48264e-05 4.25734e-05
8.48264e-05 0.00106216 -2.96511e-06
4.25734e-05 -2.96511e-06 0.0010679
0.000620738 6.38233e-05 -1.65706e-07
6.38233e-05 -3.57606e-05 8.76927e-08
-1.65706e-07 8.76927e-08 -6.42564e-05
0.00282874 9.1995e-05 -1.2598e-06
9.1995e-05 0.00118404 -1.63584e-07
-1.2598e-06 -1.63584e-07 0.0011875
0.000701488 5.61267e-05 -1.45453e-05
5.61267e-05 -8.344e-05 -5.02836e-06
-1.45453e-05 -5.02836e-06 -0.000142283
0.000712699 2.98268e-05 -1.46711e-05
2.98268e-05 -8.31273e-05 -3.2069e-06
-1.46711e-05 -3.2069e-06 -0.000142517
0.00116085 5.91616e-05 -9.50441e-06
5.91616e-05 1.04329e-05 -2.25727e-06
-9.50441e-06 -2.25727e-06 -8.94781e-05
0.00120423 2.74706e-05 -1.00814e-05
2.74706e-05 1.38497e-05 -1.77554e-06
-1.00814e-05 -1.77554e-06 -8.83842e-05
0.000730797 9.39924e-07 -1.54401e-05
9.39924e-07 -8.98426e-05 -1.20369e-06
-1.54401e-05 -1.20369e-06 -0.000150657
0.00521268 -6.91323e-05 -0.000138945
-6.91323e-05 0.00247922 1.07804e-06
-0.000138945 1.07804e-06 0.00247524
0.000726028 -1.5933e-06 1.04109e-07
-1.5933e-06 -9.49433e-05 -2.91091e-07
1.04109e-07 -2.91091e-07 -0.0001561
0.00122184 1.34974e-05 2.18334e-08
1.34974e-05 1.29297e-05 -2.86428e-07
2.18334e-08 -2.86428e-07 -9.0806e-05
0.0011816 3.96417e-05 1.0474e-08
3.96417e-05 1.43396e-05 -7.41983e-08
1.0474e-08 -7.41983e-08 -8.59958e-05
0.00147408 2.71551e-05 3.32139e-08
2.71551e-05 7.3977e-05 -2.63307e-08
3.32139e-08 -2.63307e-08 -4.42967e-05
0.00115877 7.40785e-05 -2.29368e-08
7.40785e-05 1.05846e-05 -1.44865e-07
-2.29368e-08 -1.44865e-07 -9.05929e-05
0.00144785 6.87246e-05 -2.71194e-08
6.87246e-05 8.03001e-05 1.35136e-07
-2.71194e-08 1.35136e-07 -3.60741e-05
0.00122899 -7.05772e-07 1.02108e-05
-7.05772e-07 1.42273e-05 -3.07293e-07
1.02108e-05 -3.07293e-07 -8.96482e-05
0.00148371 1.7417e-05 4.37718e-06
1.7417e-05 6.88534e-05 2.59202e-07
4.37718e-06 2.59202e-07 -5.05253e-05
0.00146296 4.70988e-05 4.43327e-06
4.70988e-05 8.13519e-05 1.02774e-06
4.43327e-06 1.02774e-06 -3.56951e-05
0.00160259 2.7125e-05 1.01034e-06
2.7125e-05 9.38131e-05 3.10004e-07
1.01034e-06 3.10004e-07 -2.40895e-05
0.00141217 8.73114e-05 4.53351e-06
8.73114e-05 6.25702e-05 8.54959e-07
4.53351e-06 8.54959e-07 -5.56647e-05
0.00158131 7.26176e-05 1.0604e-06
7.26176e-05 0.000104229 3.38232e-07
1.0604e-06 3.38232e-07 -1.54475e-05
0.00071452 1.027e-05 -1.46828e-05
1.027e-05 -9.75885e-05 6.61514e-07
-1.46828e-05 6.61514e-07 -0.000158241
0.0015955 -9.15345e-06 -6.45339e-05
-9.15345e-06 0.000401236 2.49342e-06
-6.45339e-05 2.49342e-06 0.000350923
0.000781037 -9.97674e-06 -1.06059e-05
-9.97674e-06 -0.00021143 1.73276e-06
-1.06059e-05 1.73276e-06 -0.000313643
0.00203001 -6.97401e-05 -1.61095e-05
-6.97401e-05 0.000495638 2.65213e-06
-1.61095e-05 2.65213e-06 0.000406142
0.00301253 9.8895e-05 -6.32903e-05
9.8895e-05 0.00129076 2.83525e-06
-6.32903e-05 2.83525e-06 0.00129102
0.00176491 1.71e-05 -3.35219e-05
1.71e-05 0.000592863 3.95777e-06
-3.35219e-05 3.95777e-06 0.000556776
0.00165593 -0.000115304 -7.50256e-06
-0.000115304 0.000489603 3.11772e-06
-7.50256e-06 3.11772e-06 0.000399671
0.00153999 -0.000100255 -1.55309e-05
-0.000100255 0.000251175 4.01924e-06
-1.55309e-05 4.01924e-06 0.000154951
0.00118116 -8.39177e-05 -6.10127e-06
-8.39177e-05 -5.11129e-05 1.38754e-06
-6.10127e-06 1.38754e-06 -0.000164384
0.0017431 -0.000139316 -5.60206e-06
-0.000139316 0.000320334 1.56328e-06
-5.60206e-06 1.56328e-06 0.000201441
0.000710239 -0.000112407 -3.27701e-06
-0.000112407 -0.000119121 1.48268e-06
-3.27701e-06 1.48268e-06 -0.000242513
0.00130464 -0.000144415 -1.57985e-06
-0.000144415 8.37132e-05 7.53659e-07
-1.57985e-06 7.53659e-07 -5.0426e-05
0.000623616 5.13184e-05 -2.62152e-06
5.13184e-05 -2.99614e-05 5.44705e-06
-2.62152e-06 5.44705e-06 -6.29784e-05
0.000698628 7.00835e-06 -1.70283e-06
7.00835e-06 -1.33065e-05 2.52443e-06
-1.70283e-06 2.52443e-06 -7.71367e-05
0.00101126 -3.04836e-06 -4.66916e-07
-3.04836e-06 -9.9522e-05 -3.16295e-07
-4.66916e-07 -3.16295e-07 -0.000203728
0.00160364 -3.76907e-05 -3.20304e-06
-3.76907e-05 0.000248748 2.29996e-07
-3.20304e-06 2.29996e-07 0.000154102
0.00176985 -1.75541e-05 -2.143e-06
-1.75541e-05 0.000239766 5.32722e-07
-2.143e-06 5.32722e-07 0.000127217
0.00153766 -7.06404e-05 1.07839e-06
-7.06404e-05 0.000138784 -3.52483e-07
1.07839e-06 -3.52483e-07 2.66565e-05
0.000592401 3.95064e-05 1.67512e-07
3.95064e-05 -4.8562e-05 1.46703e-07
1.67512e-07 1.46703e-07 -8.54476e-05
0.000814757 -5.97252e-05 -2.07222e-07
-5.97252e-05 5.40754e-05 4.09251e-08
-2.07222e-07 4.09251e-08 -3.11069e-05
0.000702035 -0.000110132 1.00664e-06
-0.000110132 -5.74604e-05 -9.17911e-07
1.00664e-06 -9.17911e-07 -0.000174062
0.00172983 -0.000124757 -1.13212e-06
-0.000124757 0.00026969 2.91048e-07
-1.13212e-06 2.91048e-07 0.000153799
0.00156429 -9.29396e-05 -6.69068e-07
-9.29396e-05 0.000107099 5.42819e-07
-6.69068e-07 5.42819e-07 -7.34888e-06
0.00148172 -0.00016606 -1.35832e-06
-0.00016606 0.000250764 7.37118e-07
-1.35832e-06 7.37118e-07 0.000109206
0.00143193 -0.000135978 4.49288e-09
-0.000135978 9.04105e-05 -3.60586e-07
4.49288e-09 -3.60586e-07 -3.77745e-05
0.00141743 -0.000154598 3.76745e-07
-0.000154598 9.83732e-05 4.98476e-07
3.76745e-07 4.98476e-07 -3.7034e-05
0.000753118 -1.22221e-05 -2.23444e-07
-1.22221e-05 2.22366e-05 -1.3288e-07
-2.23444e-07 -1.3288e-07 -5.29735e-05
0.000769126 -9.8947e-06 -6.47397e-07
-9.8947e-06 2.50672e-05 -2.89309e-07
-6.47397e-07 -2.89309e-07 -6.36093e-05
0.000719784 2.68242e-05 4.68353e-07
2.68242e-05 -4.26223e-06 2.74706e-07
4.68353e-07 2.74706e-07 -5.8534e-05
0.00188538 -2.32741e-06 3.09317e-06
-2.32741e-06 0.000291783 -6.60141e-07
3.09317e-06 -6.60141e-07 0.000176887
0.00167618 -4.19391e-05 3.84211e-06
-4.19391e-05 0.000196303 -6.19353e-07
3.84211e-06 -6.19353e-07 8.32976e-05
0.00178124 -1.69852e-05 1.00939e-06
-1.69852e-05 0.000195716 1.29821e-07
1.00939e-06 1.29821e-07 7.94876e-05
0.00157564 -6.61061e-05 1.04504e-06
-6.61061e-05 0.000106121 -1.073e-06
1.04504e-06 -1.073e-06 -9.88282e-06
0.00146933 -0.000119865 2.59132e-06
-0.000119865 6.66649e-05 1.4886e-07
2.59132e-06 1.4886e-07 -5.39094e-05
0.00171796 -9.02962e-05 -1.22458e-06
-9.02962e-05 0.000156024 5.98869e-07
-1.22458e-06 5.98869e-07 4.61535e-05
0.000747581 -3.1944e-05 2.21319e-06
-3.1944e-05 2.38796e-05 -1.99466e-06
2.21319e-06 -1.99466e-06 -5.84309e-05
0.00146216 -0.00013954 -6.78425e-07
-0.00013954 6.05182e-05 -2.55706e-07
-6.78425e-07 -2.55706e-07 -6.54283e-05
0.000887058 -0.000112659 1.11396e-06
-0.000112659 7.45148e-05 -3.53801e-07
1.11396e-06 -3.53801e-07 -3.24082e-05
0.00071374 -0.000125488 2.59338e-06
-0.000125488 -7.76845e-05 -3.21064e-06
2.59338e-06 -3.21064e-06 -0.000215575
0.00167914 -0.000185166 1.38307e-06
-0.000185166 0.000318769 5.55073e-07
1.38307e-06 5.55073e-07 0.000169205
0.00193045 -0.000180824 -4.248e-06
-0.000180824 0.000339841 2.43559e-06
-4.248e-06 2.43559e-06 0.000210293
0.000740392 2.39108e-05 1.3512e-06
2.39108e-05 2.97218e-06 -1.90959e-06
1.3512e-06 -1.90959e-06 -4.47429e-05
0.000856395 -5.99666e-05 1.09115e-06
-5.99666e-05 6.73445e-05 5.72006e-08
1.09115e-06 5.72006e-08 -2.56169e-05
0.000741798 3.81484e-06 3.48326e-07
3.81484e-06 1.33816e-05 -1.28522e-06
3.48326e-07 -1.28522e-06 -7.04876e-05
0.000958123 -0.000102655 -4.16495e-07
-0.000102655 0.00013527 1.09705e-06
-4.16495e-07 1.09705e-06 3.18693e-05
0.00114413 9.35861e-05 -9.99761e-06
9.35861e-05 1.51827e-05 -3.9037e-06
-9.99761e-06 -3.9037e-06 -8.91069e-05
0.000634297 -4.86014e-05 -2.19799e-06
-4.86014e-05 -3.59391e-05 -3.54535e-06
-2.19799e-06 -3.54535e-06 -5.24955e-05
0.000541259 -7.04232e-05 1.63282e-07
-7.04232e-05 -6.80397e-05 -5.37742e-06
1.63282e-07 -5.37742e-06 -0.000100549
0.000724527 -5.82047e-05 3.55369e-07
-5.82047e-05 1.32206e-05 -2.61829e-06
3.55369e-07 -2.61829e-06 -4.53999e-05
0.00095872 0.000108223 -6.39855e-06
0.000108223 5.44399e-06 -4.32968e-06
-6.39855e-06 -4.32968e-06 -9.68533e-05
0.00133967 0.000134007 -4.89871e-06
0.000134007 7.5597e-05 -2.12112e-06
-4.89871e-06 -2.12112e-06 -5.35672e-05
0.000730639 3.67905e-05 -2.00036e-06
3.67905e-05 1.62733e-05 -2.24489e-06
-2.00036e-06 -2.24489e-06 -6.67934e-05
0.000969407 0.000120112 -2.408e-06
0.000120112 0.0001087 -1.76219e-06
-2.408e-06 -1.76219e-06 -9.24462e-06
0.00125795 0.000142804 -2.17061e-06
0.000142804 0.000165207 -1.45346e-06
-2.17061e-06 -1.45346e-06 4.47483e-05
0.000818647 0.000130481 -1.61921e-06
0.000130481 -3.07635e-05 1.08821e-06
-1.61921e-06 1.08821e-06 -0.00015892
0.000681612 -4.4476e-05 7.78463e-08
-4.4476e-05 -2.04656e-05 3.15513e-08
7.78463e-08 3.15513e-08 -3.29139e-05
0.000753653 1.24455e-05 1.24216e-07
1.24455e-05 2.90811e-05 -4.49388e-08
1.24216e-07 -4.49388e-08 -4.40221e-05
0.000710135 -5.40635e-05 -2.25658e-07
-5.40635e-05 -3.7521e-07 3.38299e-07
-2.25658e-07 3.38299e-07 -4.73376e-05
0.000833484 9.46432e-06 3.50127e-07
9.46432e-06 7.25272e-05 -2.21041e-07
3.50127e-07 -2.21041e-07 -1.20838e-05
0.0013983 0.000110878 1.0416e-06
0.000110878 6.74701e-05 -4.02858e-08
1.0416e-06 -4.02858e-08 -5.66628e-05
0.00119884 0.000139617 1.05649e-07
0.000139617 6.94198e-05 9.9233e-08
1.05649e-07 9.9233e-08 -5.74522e-05
0.00147705 0.000145016 4.24347e-08
0.000145016 9.40221e-05 5.05408e-07
4.24347e-08 5.05408e-07 -4.39089e-05
0.000988113 9.72252e-05 3.51558e-07
9.72252e-05 0.000140763 3.70491e-07
3.51558e-07 3.70491e-07 3.39329e-05
0.00145959 0.000163453 -6.48402e-07
0.000163453 0.000242399 -1.55591e-06
-6.48402e-07 -1.55591e-06 0.000112513
0.00111017 0.00014364 3.3549e-07
0.00014364 0.000182646 -1.14711e-06
3.3549e-07 -1.14711e-06 4.30787e-05
0.000889336 0.000136733 -1.88643e-06
0.000136733 -1.46141e-05 -1.58081e-07
-1.88643e-06 -1.58081e-07 -0.000142655
0.000711873 -4.04224e-05 1.80115e-06
-4.04224e-05 -1.30439e-05 3.33397e-06
1.80115e-06 3.33397e-06 -2.24339e-05
0.000731646 -4.71601e-05 5.52331e-07
-4.71601e-05 2.8838e-06 1.78217e-06
5.52331e-07 1.78217e-06 -3.64447e-05
0.000973511 5.295e-05 1.52586e-06
5.295e-05 0.000141224 7.29731e-07
1.52586e-06 7.29731e-07 4.56761e-05
0.000793989 1.20435e-05 1.97903e-07
1.20435e-05 4.58682e-05 1.21224e-06
1.97903e-07 1.21224e-06 -2.58527e-05
0.000896558 7.79868e-05 6.15496e-07
7.79868e-05 0.000119147 -1.45748e-07
6.15496e-07 -1.45748e-07 1.74486e-05
0.00158928 0.000116806 3.50537e-06
0.000116806 0.000116263 -1.70327e-09
3.50537e-06 -1.70327e-09 -1.30529e-05
0.00136194 0.000156548 7.26686e-07
0.000156548 0.000109683 3.36133e-06
7.26686e-07 3.36133e-06 -2.80397e-05
0.00169122 0.000159261 -8.80298e-08
0.000159261 0.00017325 1.66853e-06
-8.80298e-08 1.66853e-06 3.34221e-05
0.00110144 0.000135415 2.58087e-06
0.000135415 0.000211179 2.8844e-06
2.58087e-06 2.8844e-06 7.75882e-05
0.00128255 0.000163107 1.07043e-06
0.000163107 0.000123939 1.30323e-06
1.07043e-06 1.30323e-06 -7.82111e-06
0.000288887 0.000101487 1.47258e-06
0.000101487 -0.000291816 -2.33421e-06
1.47258e-06 -2.33421e-06 -0.0004386
0.00076313 -2.8995e-05 1.45974e-06
-2.8995e-05 5.98687e-06 1.51874e-06
1.45974e-06 1.51874e-06 -2.62762e-05
0.000783778 3.55288e-06 4.4403e-07
3.55288e-06 2.64159e-05 5.60482e-07
4.4403e-07 5.60482e-07 -2.51149e-05
0.00077861 -1.80498e-05 9.01881e-07
-1.80498e-05 7.05429e-06 1.73958e-06
9.01881e-07 1.73958e-06 -2.30672e-05
0.000770222 -2.35257e-05 1.35632e-07
-2.35257e-05 6.37259e-06 -5.26724e-09
1.35632e-07 -5.26724e-09 -2.46449e-05
0.00125514 -3.76789e-05 1.68376e-06
-3.76789e-05 0.000273953 2.03094e-06
1.68376e-06 2.03094e-06 0.000271827
0.000983872 -3.85146e-05 7.84032e-07
-3.85146e-05 0.000130189 -2.51227e-08
7.84032e-07 -2.51227e-08 0.000124739
0.000958614 -3.36311e-05 2.27224e-05
-3.36311e-05 0.000121694 6.11339e-06
2.27224e-05 6.11339e-06 0.000132597
0.00207169 -5.72382e-05 1.30591e-06
-5.72382e-05 0.000746682 -1.02021e-07
1.30591e-06 -1.02021e-07 0.000761371
0.002096 -6.43465e-05 -2.90874e-05
-6.43465e-05 0.000768098 -3.0909e-06
-2.90874e-05 -3.0909e-06 0.000780633
0.000652597 4.12928e-05 2.11582e-06
4.12928e-05 -3.92507e-05 -3.93499e-06
2.11582e-06 -3.93499e-06 -5.67486e-05
0.00247771 7.63327e-05 3.72688e-05
7.63327e-05 0.000982476 -3.22475e-06
3.72688e-05 -3.22475e-06 0.000990616
0.000651179 5.079e-05 3.8537e-08
5.079e-05 -3.05506e-05 4.26964e-08
3.8537e-08 4.26964e-08 -5.26009e-05
0.00265956 8.41194e-05 -1.43193e-06
8.41194e-05 0.00108768 -1.43621e-07
-1.43193e-06 -1.43621e-07 0.00109352
0.000641882 5.97529e-05 -1.27226e-07
5.97529e-05 -2.49166e-05 5.28782e-06
-1.27226e-07 5.28782e-06 -5.29933e-05
0.00287679 9.03623e-05 -5.73975e-05
9.03623e-05 0.00120976 2.98261e-06
-5.73975e-05 2.98261e-06 0.00121334
0.00117074 7.68151e-05 -9.96935e-06
7.68151e-05 1.73237e-05 -2.79248e-06
-9.96935e-06 -2.79248e-06 -8.42763e-05
0.00118728 4.32688e-05 -9.60289e-06
4.32688e-05 1.79987e-05 -2.17225e-06
-9.60289e-06 -2.17225e-06 -8.25627e-05
0.00142448 6.68863e-05 -4.43941e-06
6.68863e-05 6.82609e-05 -9.69392e-07
-4.43941e-06 -9.69392e-07 -4.81198e-05
0.00149206 2.7251e-05 -4.61744e-06
2.7251e-05 8.3094e-05 -9.27829e-07
-4.61744e-06 -9.27829e-07 -3.52071e-05
0.00122398 1.63587e-05 -1.03427e-05
1.63587e-05 1.43757e-05 -1.11543e-06
-1.03427e-05 -1.11543e-06 -8.9421e-05
0.000715986 9.52522e-06 -1.52304e-05
9.52522e-06 -9.98492e-05 -2.53956e-07
-1.52304e-05 -2.53956e-07 -0.000161179
0.00122259 1.3231e-06 1.59747e-08
1.3231e-06 1.07477e-05 -1.4361e-07
1.59747e-08 -1.4361e-07 -9.31793e-05
0.00148918 1.92453e-05 -5.30664e-08
1.92453e-05 7.1805e-05 -2.19521e-07
-5.30664e-08 -2.19521e-07 -4.76221e-05
0.00145837 4.44885e-05 9.77187e-08
4.44885e-05 7.91651e-05 -8.73635e-08
9.77187e-08 -8.73635e-08 -3.7886e-05
0.0015926 2.75736e-05 -1.49296e-07
2.75736e-05 8.7331e-05 8.48e-08
-1.49296e-07 8.48e-08 -3.01344e-05
0.00142509 8.80177e-05 -2.14358e-07
8.80177e-05 6.86487e-05 9.54205e-08
-2.14358e-07 9.54205e-08 -4.95873e-05
0.00157159 7.18291e-05 -9.08086e-08
7.18291e-05 0.000100093 1.03117e-07
-9.08086e-08 1.03117e-07 -1.97008e-05
0.001495 6.13594e-06 4.6375e-06
6.13594e-06 7.21292e-05 -1.69215e-07
4.6375e-06 -1.69215e-07 -4.72897e-05
0.00160966 2.18343e-05 4.23629e-07
2.18343e-05 7.72726e-05 3.04369e-07
4.23629e-07 3.04369e-07 -4.05683e-05
0.00156159 4.90957e-05 1.10656e-06
4.90957e-05 8.37705e-05 1.53134e-07
1.10656e-06 1.53134e-07 -3.49855e-05
0.0017193 3.12366e-05 -4.10654e-07
3.12366e-05 0.000112203 1.05852e-07
-4.10654e-07 1.05852e-07 1.07843e-06
0.00164783 9.05849e-05 1.06154e-06
9.05849e-05 0.000140415 -7.1233e-08
1.06154e-06 -7.1233e-08 1.8412e-05
0.00159285 6.67429e-05 -2.33597e-06
6.67429e-05 7.53782e-05 1.36495e-07
-2.33597e-06 1.36495e-07 -3.50676e-05
0.000813664 -9.91435e-07 -9.95453e-06
-9.91435e-07 -0.000205798 7.35562e-07
-9.95453e-06 7.35562e-07 -0.000311217
0.00163678 -4.12845e-05 -1.57777e-05
-4.12845e-05 0.000266095 2.20514e-06
-1.57777e-05 2.20514e-06 0.000171353
0.00166344 -1.08923e-05 -7.10158e-06
-1.08923e-05 0.000180055 1.20278e-06
-7.10158e-06 1.20278e-06 6.70345e-05
0.0019002 -7.6785e-05 -4.58948e-06
-7.6785e-05 0.000335433 1.05569e-06
-4.58948e-06 1.05569e-06 0.000225293
0.000646733 2.95233e-05 -4.79341e-06
2.95233e-05 -1.96083e-05 5.40533e-06
-4.79341e-06 5.40533e-06 -5.67471e-05
0.000900138 -6.61115e-05 -3.70775e-06
-6.61115e-05 0.000100959 2.114e-06
-3.70775e-06 2.114e-06 1.44972e-05
0.000879851 -0.000120397 -7.67174e-07
-0.000120397 4.0646e-05 5.09197e-07
-7.67174e-07 5.09197e-07 -7.5157e-05
0.00183813 -0.000126666 -6.48629e-06
-0.000126666 0.000328654 1.52025e-06
-6.48629e-06 1.52025e-06 0.000212843
0.00142406 -8.78559e-05 -1.73394e-06
-8.78559e-05 2.90167e-05 7.04519e-07
-1.73394e-06 7.04519e-07 -8.51865e-05
0.00138595 -0.000133573 -2.21835e-06
-0.000133573 6.66067e-05 1.88916e-07
-2.21835e-06 1.88916e-07 -6.13103e-05
0.0010897 -0.00014511 -2.5106e-06
-0.00014511 3.84478e-05 1.79947e-06
-2.5106e-06 1.79947e-06 -0.000103072
0.00123311 -0.00014546 1.33428e-06
-0.00014546 5.86333e-07 -9.50765e-08
1.33428e-06 -9.50765e-08 -0.000133825
0.00071321 -1.47629e-05 -2.41022e-06
-1.47629e-05 -1.6374e-06 2.29081e-06
-2.41022e-06 2.29081e-06 -7.58887e-05
0.000738225 -1.61479e-06 -1.09457e-06
-1.61479e-06 7.90336e-06 2.0032e-07
-1.09457e-06 2.0032e-07 -8.02434e-05
0.000715441 1.98375e-05 -9.35108e-07
1.98375e-05 -7.78623e-06 2.28415e-06
-9.35108e-07 2.28415e-06 -6.17958e-05
0.00168451 -1.20003e-06 -2.19465e-06
-1.20003e-06 0.000181236 1.09139e-07
-2.19465e-06 1.09139e-07 6.44955e-05
0.00166964 -4.67714e-05 -1.23658e-06
-4.67714e-05 0.00019286 1.64159e-07
-1.23658e-06 1.64159e-07 7.95632e-05
0.00164558 -1.39007e-05 -7.63331e-07
-1.39007e-05 0.000120152 3.12151e-07
-7.63331e-07 3.12151e-07 3.95635e-06
0.00168884 -6.54325e-05 -1.81624e-07
-6.54325e-05 0.000166207 -2.76417e-07
-1.81624e-07 -2.76417e-07 5.06422e-05
0.000780677 -3.77883e-05 5.24834e-08
-3.77883e-05 4.03751e-05 -2.16914e-07
5.24834e-08 -2.16914e-07 -4.18886e-05
0.000996878 -0.000120023 -2.82234e-07
-0.000120023 0.000131716 4.23748e-07
-2.82234e-07 4.23748e-07 2.38411e-05
0.000823049 -0.000129797 7.61133e-07
-0.000129797 -1.34935e-05 -1.36149e-06
7.61133e-07 -1.36149e-06 -0.000149609
0.00160211 -0.000123654 4.52247e-07
-0.000123654 0.000141701 -7.82614e-08
4.52247e-07 -7.82614e-08 2.10987e-05
0.00164351 -8.73868e-05 1.61831e-07
-8.73868e-05 0.000114716 3.78139e-07
1.61831e-07 3.78139e-07 5.73257e-06
0.00137556 -0.000169604 -2.45067e-07
-0.000169604 0.000158463 5.47608e-07
-2.45067e-07 5.47608e-07 8.45864e-06
0.00152285 -0.000140696 -2.38656e-07
-0.000140696 9.19631e-05 -3.71004e-07
-2.38656e-07 -3.71004e-07 -3.38881e-05
0.00172272 -0.000171264 1.33129e-06
-0.000171264 0.000225765 1.52472e-06
1.33129e-06 1.52472e-06 9.88297e-05
0.000916502 -6.54712e-05 -2.75704e-07
-6.54712e-05 0.000102226 -1.42335e-07
-2.75704e-07 -1.42335e-07 7.69294e-06
0.000934996 -0.000101884 -3.37894e-07
-0.000101884 0.00012342 3.91231e-07
-3.37894e-07 3.91231e-07 1.84722e-05
0.000741128 1.82937e-05 1.51947e-07
1.82937e-05 3.1664e-06 9.53977e-08
1.51947e-07 9.53977e-08 -4.45302e-05
0.000708951 2.30565e-05 -1.0254e-07
2.30565e-05 -8.57615e-06 -5.08478e-07
-1.0254e-07 -5.08478e-07 -8.8262e-05
0.0016393 -3.91441e-06 1.49367e-06
-3.91441e-06 0.000107038 -6.24319e-07
1.49367e-06 -6.24319e-07 -1.15895e-05
0.00184755 -4.15626e-05 7.32265e-07
-4.15626e-05 0.000236924 2.15568e-07
7.32265e-07 2.15568e-07 0.000121059
0.00172537 -2.26966e-05 1.39417e-07
-2.26966e-05 0.000121444 1.64235e-07
1.39417e-07 1.64235e-07 8.22066e-06
0.00163375 -6.32202e-05 -1.47722e-06
-6.32202e-05 9.85042e-05 -5.72733e-07
-1.47722e-06 -5.72733e-07 -9.12905e-06
0.00157381 -0.000117327 -8.80712e-07
-0.000117327 8.04468e-05 1.09185e-06
-8.80712e-07 1.09185e-06 -3.5299e-05
0.00168494 -8.39349e-05 1.61964e-07
-8.39349e-05 0.000107759 2.55966e-07
1.61964e-07 2.55966e-07 5.04242e-06
0.000877348 -0.0001071 1.17164e-06
-0.0001071 7.79083e-05 2.89156e-07
1.17164e-06 2.89156e-07 -2.149e-05
0.00157428 -0.000144896 -4.739e-06
-0.000144896 8.44462e-05 -4.38193e-07
-4.739e-06 -4.38193e-07 -3.18144e-05
0.000567251 -0.000106603 -4.36131e-07
-0.000106603 -9.90498e-05 -2.15608e-06
-4.36131e-07 -2.15608e-06 -0.000221944
0.00120855 -0.000163177 2.50384e-06
-0.000163177 0.000164013 -2.05244e-06
2.50384e-06 -2.05244e-06 8.79099e-06
0.00150519 -0.000184866 7.24551e-07
-0.000184866 0.000197117 3.40269e-06
7.24551e-07 3.40269e-06 4.57761e-05
0.00211973 -0.000193366 -1.22985e-06
-0.000193366 0.000394591 4.10199e-07
-1.22985e-06 4.10199e-07 0.000271882
0.000748778 1.3693e-05 1.79822e-06
1.3693e-05 3.68641e-06 -1.88979e-06
1.79822e-06 -1.88979e-06 -3.99729e-05
0.000697357 9.74843e-06 2.96053e-07
9.74843e-06 -9.31055e-06 -1.20311e-06
2.96053e-07 -1.20311e-06 -8.68681e-05
0.000921902 -0.000119358 4.50234e-08
-0.000119358 0.000111566 1.36184e-06
4.50234e-08 1.36184e-06 4.01652e-06
0.000933092 -7.28104e-05 9.95923e-07
-7.28104e-05 0.000122145 4.75505e-08
9.95923e-07 4.75505e-08 2.67045e-05
0.000931776 -0.000119842 -9.31889e-07
-0.000119842 0.000123833 2.12113e-06
-9.31889e-07 2.12113e-06 1.36255e-05
0.000655573 -4.31159e-05 -2.08431e-06
-4.31159e-05 -3.4475e-05 -3.39686e-06
-2.08431e-06 -3.39686e-06 -4.6732e-05
0.00143716 0.000112975 -3.92292e-06
0.000112975 8.75507e-05 -1.19791e-06
-3.92292e-06 -1.19791e-06 -3.68693e-05
0.000715585 -5.64321e-05 -5.11342e-07
-5.64321e-05 2.63763e-06 -1.76791e-06
-5.11342e-07 -1.76791e-06 -4.43748e-05
0.00078289 -6.00765e-06 -2.59108e-07
-6.00765e-06 4.42729e-05 -2.65148e-06
-2.59108e-07 -2.65148e-06 -2.73835e-05
0.000842728 -7.18491e-06 7.28111e-07
-7.18491e-06 7.63892e-05 -9.27064e-07
7.28111e-07 -9.27064e-07 -6.73874e-06
0.00119311 0.000140314 -3.86768e-06
0.000140314 6.77505e-05 -2.72502e-06
-3.86768e-06 -2.72502e-06 -5.92577e-05
0.00146592 0.000144811 -2.12163e-06
0.000144811 8.93138e-05 -5.26692e-07
-2.12163e-06 -5.26692e-07 -4.88489e-05
0.000889454 0.000106963 -1.42041e-06
0.000106963 9.05933e-05 -8.28201e-07
-1.42041e-06 -8.28201e-07 -1.70176e-05
0.00123717 0.000151905 -1.90224e-06
0.000151905 0.000251545 -1.2204e-06
-1.90224e-06 -1.2204e-06 0.00011066
0.00164558 0.00017332 -1.36403e-06
0.00017332 0.000343844 -3.12902e-06
-1.36403e-06 -3.12902e-06 0.000213478
0.00103795 0.000144933 -3.40643e-06
0.000144933 6.88821e-05 1.69989e-06
-3.40643e-06 1.69989e-06 -5.61527e-05
0.000690354 -3.93461e-05 6.95124e-08
-3.93461e-05 -2.46635e-05 2.26985e-08
6.95124e-08 2.26985e-08 -3.39307e-05
0.00073688 -4.67538e-05 -2.41022e-07
-4.67538e-05 5.52251e-06 1.0501e-07
-2.41022e-07 1.0501e-07 -3.36527e-05
0.000921761 5.78351e-05 5.65988e-07
5.78351e-05 0.000114084 -6.32572e-08
5.65988e-07 -6.32572e-08 1.83414e-05
0.000798685 -1.67794e-05 -2.14875e-07
-1.67794e-05 4.68409e-05 1.60429e-07
-2.14875e-07 1.60429e-07 -2.32137e-05
0.000837897 5.72914e-05 6.27921e-07
5.72914e-05 8.44348e-05 -2.29611e-07
6.27921e-07 -2.29611e-07 -1.62233e-05
0.00152887 0.000115588 1.37114e-06
0.000115588 8.39631e-05 5.67254e-08
1.37114e-06 5.67254e-08 -4.56076e-05
0.00134164 0.000156437 -1.46251e-07
0.000156437 0.000100153 8.12684e-07
-1.46251e-07 8.12684e-07 -3.76604e-05
0.0015738 0.000155526 1.01603e-06
0.000155526 0.000112627 1.09061e-06
1.01603e-06 1.09061e-06 -2.76439e-05
0.00101046 0.000129535 1.11066e-06
0.000129535 0.000164718 1.18935e-06
1.11066e-06 1.18935e-06 3.17764e-05
0.00145402 0.000171273 1.14792e-06
0.000171273 0.00021676 -1.48237e-06
1.14792e-06 -1.48237e-06 8.4867e-05
0.000771605 0.000130653 -1.81228e-06
0.000130653 -3.42527e-05 -9.76818e-07
-1.81228e-06 -9.76818e-07 -0.000183504
0.00075482 -3.59291e-05 1.35137e-06
-3.59291e-05 7.44167e-06 1.5441e-06
1.35137e-06 1.5441e-06 -2.72579e-05
0.000800112 3.10849e-06 4.37932e-07
3.10849e-06 3.94883e-05 1.01399e-06
4.37932e-07 1.01399e-06 -1.91186e-05
0.00103972 0.000123191 -1.27063e-07
0.000123191 0.000188965 -2.09514e-07
-1.27063e-07 -2.09514e-07 7.05309e-05
0.000851778 9.6346e-06 3.88408e-07
9.6346e-06 8.56582e-05 4.9166e-07
3.88408e-07 4.9166e-07 3.37995e-08
0.00107294 5.96837e-05 -7.40865e-07
5.96837e-05 0.000210241 -2.38733e-06
-7.40865e-07 -2.38733e-06 0.000100674
0.00156011 0.000112345 -1.47222e-06
0.000112345 7.26859e-05 -2.06911e-06
-1.47222e-06 -2.06911e-06 -5.50249e-05
0.0014965 0.000174337 3.71536e-07
0.000174337 0.000144347 3.32231e-06
3.71536e-07 3.32231e-06 4.50849e-06
0.00145301 0.000164587 -3.89402e-06
0.000164587 2.27148e-05 -3.29798e-07
-3.89402e-06 -3.29798e-07 -0.000112258
0.000837214 0.000125355 6.88122e-08
0.000125355 7.86365e-05 2.05011e-06
6.88122e-08 2.05011e-06 -7.81114e-05
0.00124969 0.000173861 3.08612e-06
0.000173861 0.000132755 -2.76597e-07
3.08612e-06 -2.76597e-07 -1.58348e-05
0.000762366 -2.81188e-05 1.83812e-08
-2.81188e-05 6.01726e-06 -3.17129e-09
1.83812e-08 -3.17129e-09 -2.62994e-05
0.00066054 -1.59981e-05 9.62556e-07
-1.59981e-05 -4.37333e-05 1.09619e-06
9.62556e-07 1.09619e-06 -9.41429e-05
0.000726701 -2.3684e-05 -6.92232e-07
-2.3684e-05 -6.78414e-06 -4.62819e-08
-6.92232e-07 -4.62819e-08 -5.73497e-05
0.000972978 1.64645e-05 1.17732e-06
1.64645e-05 0.000140197 -2.9923e-07
1.17732e-06 -2.9923e-07 7.68241e-05
0.000811282 1.74801e-05 1.71241e-06
1.74801e-05 3.67434e-05 7.19126e-07
1.71241e-06 7.19126e-07 -1.32617e-05
0.000780584 -8.41545e-06 9.6176e-07
-8.41545e-06 5.33191e-06 1.7192e-06
9.6176e-07 1.7192e-06 -2.4793e-05
0.000777559 -1.84944e-05 -5.74896e-08
-1.84944e-05 6.68927e-06 1.252e-08
-5.74896e-08 1.252e-08 -2.34929e-05
0.00125565 -3.04922e-05 1.14068e-06
-3.04922e-05 0.000268061 2.04963e-06
1.14068e-06 2.04963e-06 0.00026756
0.0007697 -2.29235e-05 -1.17643e-06
-2.29235e-05 6.45656e-06 -1.73627e-06
-1.17643e-06 -1.73627e-06 -2.46577e-05
0.00127472 -3.55652e-05 -4.2477e-06
-3.55652e-05 0.000284152 -1.16791e-06
-4.2477e-06 -1.16791e-06 0.00028234
0.000953883 -2.8313e-05 1.97654e-05
-2.8313e-05 0.000110371 6.24585e-06
1.97654e-05 6.24585e-06 0.000123339
0.00126294 -3.97596e-05 -9.54412e-06
-3.97596e-05 0.000284958 -3.0757e-06
-9.54412e-06 -3.0757e-06 0.000281367
0.00147747 -4.17113e-05 1.80223e-05
-4.17113e-05 0.000409298 1.94658e-06
1.80223e-05 1.94658e-06 0.000423174
0.00205755 -5.6788e-05 -2.5698e-05
-5.6788e-05 0.000737628 -3.31877e-06
-2.5698e-05 -3.31877e-06 0.000752605
0.000666345 3.7128e-05 1.76496e-06
3.7128e-05 -3.91551e-05 -3.80935e-06
1.76496e-06 -3.80935e-06 -5.34073e-05
0.000669422 4.26499e-05 -1.2244e-07
4.26499e-05 -2.97837e-05 3.26252e-08
-1.2244e-07 3.26252e-08 -4.75603e-05
0.00238248 6.81103e-05 3.25382e-05
6.81103e-05 0.000922693 -3.47207e-06
3.25382e-05 -3.47207e-06 0.000933248
0.00252746 7.64847e-05 -1.39935e-06
7.64847e-05 0.00100994 -1.41563e-07
-1.39935e-06 -1.41563e-07 0.00101796
0.000671027 5.46418e-05 -5.02067e-07
5.46418e-05 -1.84886e-05 4.58788e-06
-5.02067e-07 4.58788e-06 -4.14143e-05
0.00270242 8.24897e-05 -5.00924e-05
8.24897e-05 0.00111052 3.03229e-06
-5.00924e-05 3.03229e-06 0.00111663
0.00143904 8.88673e-05 -4.74735e-06
8.88673e-05 7.52587e-05 -5.98612e-07
-4.74735e-06 -5.98612e-07 -4.29887e-05
0.00145747 4.53042e-05 -4.52479e-06
4.53042e-05 7.8983e-05 -1.21872e-06
-4.52479e-06 -1.21872e-06 -3.82781e-05
0.00155746 7.20226e-05 -1.1032e-06
7.20226e-05 9.36902e-05 -1.39798e-07
-1.1032e-06 -1.39798e-07 -2.62873e-05
0.00157902 2.79401e-05 -1.0238e-06
2.79401e-05 7.90767e-05 -1.84292e-07
-1.0238e-06 -1.84292e-07 -3.79538e-05
0.00149626 2.25886e-05 -4.4073e-06
2.25886e-05 7.56379e-05 -6.83596e-07
-4.4073e-06 -6.83596e-07 -4.38741e-05
0.00122844 6.22927e-06 -1.01768e-05
6.22927e-06 1.35772e-05 -5.52382e-08
-1.01768e-05 -5.52382e-08 -9.0327e-05
0.0014953 1.01034e-05 6.75207e-08
1.01034e-05 7.24541e-05 -9.73908e-08
6.75207e-08 -9.73908e-08 -4.70432e-05
0.00161618 1.23483e-05 -2.03689e-07
1.23483e-05 8.0529e-05 1.20215e-08
-2.03689e-07 1.20215e-08 -3.74197e-05
0.0015817 4.85833e-05 -4.17778e-08
4.85833e-05 9.52811e-05 -9.72979e-08
-4.17778e-08 -9.72979e-08 -2.34539e-05
0.00173778 3.29593e-05 2.07932e-07
3.29593e-05 0.000120855 2.44347e-07
2.07932e-07 2.44347e-07 1.10569e-05
0.00155551 8.9184e-05 -1.77757e-07
8.9184e-05 9.16484e-05 2.04253e-07
-1.77757e-07 2.04253e-07 -3.06472e-05
0.00160626 6.74084e-05 -8.13997e-08
6.74084e-05 8.11217e-05 4.89003e-07
-8.13997e-08 4.89003e-07 -2.84313e-05
0.00161978 2.07814e-07 1.31421e-06
2.07814e-07 8.4108e-05 2.63183e-08
1.31421e-06 2.63183e-08 -3.44544e-05
0.00176397 2.95745e-05 -3.23597e-07
2.95745e-05 0.000114294 4.15264e-07
-3.23597e-07 4.15264e-07 2.09141e-06
0.00159337 4.80145e-05 -1.77321e-06
4.80145e-05 5.50113e-05 -7.8605e-08
-1.77321e-06 -7.8605e-08 -5.31537e-05
0.00182233 3.8761e-05 -4.39813e-07
3.8761e-05 0.000140987 8.26905e-08
-4.39813e-07 8.26905e-08 3.8127e-05
0.00154835 8.11027e-05 -1.68938e-06
8.11027e-05 5.57503e-05 -1.17072e-06
-1.68938e-06 -1.17072e-06 -6.00368e-05
0.00181893 6.91141e-05 -7.0817e-07
6.91141e-05 0.00016184 3.35288e-08
-7.0817e-07 3.35288e-08 6.14407e-05
0.00148054 -5.68003e-07 -6.29803e-06
-5.68003e-07 6.90119e-05 8.46555e-07
-6.29803e-06 8.46555e-07 -4.95725e-05
0.00166043 -4.84298e-05 -6.28082e-06
-4.84298e-05 0.000188184 1.10905e-06
-6.28082e-06 1.10905e-06 7.46607e-05
0.00151271 -1.28489e-05 -2.06061e-06
-1.28489e-05 4.60537e-05 4.75015e-07
-2.06061e-06 4.75015e-07 -7.015e-05
0.00180332 -6.53514e-05 -1.52461e-06
-6.53514e-05 0.000227072 5.49422e-07
-1.52461e-06 5.49422e-07 0.000111921
0.000819995 -4.461e-05 -2.90765e-06
-4.461e-05 5.98847e-05 1.94905e-06
-2.90765e-06 1.94905e-06 -2.2248e-05
0.00110756 -0.000127412 -1.7573e-06
-0.000127412 0.000189479 1.24495e-06
-1.7573e-06 1.24495e-06 8.06286e-05
0.000920018 -0.000133135 -7.41141e-07
-0.000133135 4.40989e-05 7.24479e-07
-7.41141e-07 7.24479e-07 -9.01248e-05
0.00173134 -0.000127263 -2.04021e-06
-0.000127263 0.00021479 -6.80608e-08
-2.04021e-06 -6.80608e-08 9.41822e-05
0.00156829 -8.4584e-05 7.94667e-07
-8.4584e-05 7.30621e-05 2.43484e-08
7.94667e-07 2.43484e-08 -3.50445e-05
0.00158048 -0.000141797 3.71975e-07
-0.000141797 0.000121732 -4.6052e-07
3.71975e-07 -4.6052e-07 -4.03034e-06
0.00106408 -0.000153667 -1.54869e-06
-0.000153667 -6.1175e-06 4.24739e-07
-1.54869e-06 4.24739e-07 -0.000156535
0.0015121 -0.000161617 4.35407e-06
-0.000161617 0.000110105 -1.27468e-06
4.35407e-06 -1.27468e-06 -1.41837e-05
0.000936108 -5.63451e-05 -1.26564e-06
-5.63451e-05 0.00011262 -2.89849e-07
-1.26564e-06 -2.89849e-07 1.88012e-05
0.000894434 -7.3595e-05 -6.00993e-07
-7.3595e-05 9.50755e-05 -5.567e-07
-6.00993e-07 -5.567e-07 -6.22876e-06
0.00073749 1.59088e-05 -1.36716e-06
1.59088e-05 1.03499e-06 1.99685e-06
-1.36716e-06 1.99685e-06 -4.66861e-05
0.000692912 3.48899e-05 9.00404e-08
3.48899e-05 -1.95058e-05 2.01975e-07
9.00404e-08 2.01975e-07 -9.65644e-05
0.00162981 -3.40238e-06 -3.21601e-08
-3.40238e-06 0.000100105 -2.24006e-07
-3.21601e-08 -2.24006e-07 -1.85299e-05
0.00179978 -3.88837e-05 -6.90129e-07
-3.88837e-05 0.000210642 3.34791e-07
-6.90129e-07 3.34791e-07 9.41622e-05
0.00167573 -2.19584e-05 -2.76137e-07
-2.19584e-05 9.81342e-05 -2.91248e-08
-2.76137e-07 -2.91248e-08 -1.47396e-05
0.00161249 -6.25671e-05 -9.89243e-08
-6.25671e-05 9.02792e-05 -2.18352e-07
-9.89243e-08 -2.18352e-07 -1.8136e-05
0.000963648 -9.6211e-05 -2.94084e-07
-9.6211e-05 0.000121486 2.49163e-07
-2.94084e-07 2.49163e-07 2.337e-05
0.000682231 -0.00011219 6.08797e-07
-0.00011219 -3.58637e-05 -7.47039e-07
6.08797e-07 -7.47039e-07 -0.000157063
0.00122646 -0.000163023 5.2845e-08
-0.000163023 0.0001768 9.8731e-08
5.2845e-08 9.8731e-08 2.07409e-05
0.00164479 -0.000120197 -3.80532e-07
-0.000120197 0.000119831 2.01876e-07
-3.80532e-07 2.01876e-07 3.30318e-06
0.00163714 -8.29773e-05 6.54313e-07
-8.29773e-05 8.24248e-05 -3.07441e-07
6.54313e-07 -3.07441e-07 -1.92802e-05
0.00147755 -0.000181933 -5.75527e-07
-0.000181933 0.000181747 9.59018e-07
-5.75527e-07 9.59018e-07 2.97694e-05
0.00159856 -0.000145685 -5.36679e-07
-0.000145685 9.60098e-05 -4.15616e-07
-5.36679e-07 -4.15616e-07 -2.06099e-05
0.00169277 -0.000173285 1.9128e-06
-0.000173285 0.000176866 -1.13187e-06
1.9128e-06 -1.13187e-06 6.04838e-05
0.000993197 -0.000123924 8.37747e-08
-0.000123924 0.000149527 5.53281e-08
8.37747e-08 5.53281e-08 4.15426e-05
0.000966383 -0.000113974 1.91931e-07
-0.000113974 0.000139789 2.66759e-07
1.91931e-07 2.66759e-07 3.08474e-05
0.0008971 -4.73633e-05 -2.69646e-07
-4.73633e-05 9.98852e-05 -1.03885e-07
-2.69646e-07 -1.03885e-07 6.87255e-06
0.000627618 2.23001e-05 -3.50541e-07
2.23001e-05 -6.20274e-05 4.2726e-08
-3.50541e-07 4.2726e-08 -0.00010707
0.000691296 2.63736e-05 9.75596e-08
2.63736e-05 -1.70449e-05 -3.804e-07
9.75596e-08 -3.804e-07 -9.0938e-05
0.00175182 -1.31152e-05 4.27559e-07
-1.31152e-05 0.000113658 -1.72851e-07
4.27559e-07 -1.72851e-07 1.16822e-06
0.00168732 -3.43692e-05 -5.77738e-07
-3.43692e-05 9.67737e-05 1.59093e-07
-5.77738e-07 1.59093e-07 -1.31829e-05
0.0016808 -7.21081e-05 -3.32874e-07
-7.21081e-05 8.97838e-05 -2.588e-07
-3.32874e-07 -2.588e-07 -7.07808e-06
0.00156725 -0.000107924 -7.79255e-07
-0.000107924 3.79472e-05 6.44805e-07
-7.79255e-07 6.44805e-07 -6.76229e-05
0.00088952 -0.00011987 -4.75925e-07
-0.00011987 8.97519e-05 9.11151e-07
-4.75925e-07 9.11151e-07 -2.13551e-05
0.00192076 -0.000170511 -2.02535e-06
-0.000170511 0.00021941 -2.28617e-06
-2.02535e-06 -2.28617e-06 0.000109768
0.000175565 -8.70359e-05 2.59501e-07
-8.70359e-05 -0.000306855 -3.81042e-06
2.59501e-07 -3.81042e-06 -0.000440339
0.00139147 -0.000184486 3.40664e-06
-0.000184486 0.000231069 -1.169e-06
3.40664e-06 -1.169e-06 5.81481e-05
0.00187044 -0.000207189 1.57626e-06
-0.000207189 0.000321124 2.19426e-06
1.57626e-06 2.19426e-06 0.000173813
0.000515479 2.33905e-05 1.22358e-06
2.33905e-05 -0.000126466 -2.58617e-06
1.22358e-06 -2.58617e-06 -0.000169367
0.000903885 -3.11243e-06 1.38719e-06
-3.11243e-06 0.000101586 -6.49262e-07
1.38719e-06 -6.49262e-07 3.23223e-05
0.000941259 -3.17423e-05 -1.467e-07
-3.17423e-05 0.000125198 6.70705e-08
-1.467e-07 6.70705e-08 4.01941e-05
0.000934769 -0.000121018 -1.13068e-06
-0.000121018 0.000118269 2.14414e-06
-1.13068e-06 2.14414e-06 8.50827e-06
0.00100389 -7.47821e-05 3.2492e-07
-7.47821e-05 0.000158357 1.40014e-06
3.2492e-07 1.40014e-06 5.62421e-05
0.000874179 -0.00011708 -5.57474e-07
-0.00011708 8.32299e-05 1.86151e-06
-5.57474e-07 1.86151e-06 -2.78421e-05
0.000671052 -3.84159e-05 -1.77085e-06
-3.84159e-05 -3.50255e-05 -3.3687e-06
-1.77085e-06 -3.3687e-06 -4.41924e-05
0.00074045 -4.45064e-05 -1.52777e-06
-4.45064e-05 6.79828e-06 -1.39495e-06
-1.52777e-06 -1.39495e-06 -3.19365e-05
0.00147721 0.00011469 -1.0554e-06
0.00011469 5.61883e-05 2.49164e-08
-1.0554e-06 2.49164e-08 -7.36369e-05
0.000812771 -4.74692e-05 5.07737e-07
-4.74692e-05 5.28815e-05 -1.02354e-06
5.07737e-07 -1.02354e-06 -1.5568e-05
0.000833022 5.11233e-05 -3.30262e-07
5.11233e-05 6.4363e-05 -3.78703e-07
-3.30262e-07 -3.78703e-07 -2.92801e-05
0.000764055 3.72489e-05 8.15145e-07
3.72489e-05 4.09738e-05 1.18182e-07
8.15145e-07 1.18182e-07 -5.83132e-05
0.00131715 0.000156016 -1.5133e-06
0.000156016 8.84008e-05 -1.90301e-06
-1.5133e-06 -1.90301e-06 -4.94708e-05
0.00145007 0.000151361 3.12721e-07
0.000151361 4.8831e-05 1.81181e-07
3.12721e-07 1.81181e-07 -9.18408e-05
0.00100173 0.000128743 -6.2692e-09
0.000128743 0.000162608 -3.60952e-07
-6.2692e-09 -3.60952e-07 3.01248e-05
0.00129382 0.000162105 -6.01857e-07
0.000162105 0.000244387 4.96631e-07
-6.01857e-07 4.96631e-07 9.34553e-05
0.0016017 0.000178422 -2.16532e-06
0.000178422 0.000296947 -3.21785e-06
-2.16532e-06 -3.21785e-06 0.000164998
0.000754943 -3.50605e-05 -6.18069e-08
-3.50605e-05 7.69975e-06 2.2325e-08
-6.18069e-08 2.2325e-08 -2.69627e-05
0.000793831 -2.56813e-05 -4.36635e-07
-2.56813e-05 3.56124e-05 2.6961e-07
-4.36635e-07 2.6961e-07 -2.2435e-05
0.000992186 0.000120361 -4.75134e-07
0.000120361 0.00016494 -5.69637e-08
-4.75134e-07 -5.69637e-08 4.6907e-05
0.000841805 -8.32251e-06 2.92943e-07
-8.32251e-06 7.69678e-05 1.74259e-08
2.92943e-07 1.74259e-08 -6.50226e-06
0.000918108 6.85108e-05 1.22081e-07
6.85108e-05 0.000130209 -6.87017e-07
1.22081e-07 -6.87017e-07 1.84148e-05
0.0015987 0.000115925 -6.35744e-07
0.000115925 9.40869e-05 -8.12019e-07
-6.35744e-07 -8.12019e-07 -3.45306e-05
0.0014376 0.000171171 9.47296e-07
0.000171171 0.000113737 5.89046e-07
9.47296e-07 5.89046e-07 -2.60026e-05
0.00150405 0.000163627 8.43081e-07
0.000163627 4.99924e-05 6.33154e-07
8.43081e-07 6.33154e-07 -8.18831e-05
0.000752732 0.000121125 6.41259e-07
0.000121125 3.06096e-05 1.90545e-06
6.41259e-07 1.90545e-06 -0.00012426
0.00136703 0.000180835 -1.12983e-06
0.000180835 0.000197255 -9.29164e-07
-1.12983e-06 -9.29164e-07 4.48633e-05
0.000798122 -9.33962e-08 8.7613e-07
-9.33962e-08 3.40052e-05 7.20289e-07
8.7613e-07 7.20289e-07 -1.76661e-05
0.000683977 -3.07071e-05 -7.59302e-07
-3.07071e-05 -1.619e-05 1.39039e-06
-7.59302e-07 1.39039e-06 -8.9387e-05
0.000978381 0.000127088 -1.32433e-06
0.000127088 0.000159815 -1.79808e-06
-1.32433e-06 -1.79808e-06 2.47221e-05
0.000718944 2.31829e-05 -4.96954e-07
2.31829e-05 1.81852e-05 -5.43892e-07
-4.96954e-07 -5.43892e-07 -8.36624e-05
0.00103173 9.76239e-05 -6.47945e-07
9.76239e-05 0.000185628 -2.3336e-06
-6.47945e-07 -2.3336e-06 6.55255e-05
0.00153577 0.000119111 -3.04792e-06
0.000119111 7.29147e-06 -2.25529e-06
-3.04792e-06 -2.25529e-06 -9.74916e-05
0.00197198 0.000215052 -1.44525e-06
0.000215052 0.000376138 1.05137e-06
-1.44525e-06 1.05137e-06 0.000228881
0.00104671 0.000144882 -7.52881e-07
0.000144882 -0.000219011 -3.03614e-07
-7.52881e-07 -3.03614e-07 -0.000338768
0.00184961 0.000192043 3.45476e-06
0.000192043 0.000587494 4.02695e-06
3.45476e-06 4.02695e-06 0.000412007
0.000130581 0.000123196 -7.25112e-07
0.000123196 -0.000479837 -6.08746e-07
-7.25112e-07 -6.08746e-07 -0.000638121
0.000763242 -2.66185e-05 -1.60037e-06
-2.66185e-05 6.93242e-06 -1.51666e-06
-1.60037e-06 -1.51666e-06 -2.54156e-05
0.000732492 -1.27629e-05 1.61914e-07
-1.27629e-05 -3.30478e-06 4.79985e-07
1.61914e-07 4.79985e-07 -5.39622e-05
0.000718053 -4.32779e-05 -1.9754e-07
-4.32779e-05 -4.09813e-06 6.65322e-07
-1.9754e-07 6.65322e-07 -6.65552e-05
0.000672655 -4.28362e-05 -8.94627e-07
-4.28362e-05 -3.68903e-05 -4.57558e-07
-8.94627e-07 -4.57558e-07 -8.74154e-05
0.000809168 -4.90275e-06 1.68482e-07
-4.90275e-06 3.52331e-05 -2.01087e-08
1.68482e-07 -2.01087e-08 -1.44445e-05
0.000829201 -1.78499e-05 1.93211e-07
-1.78499e-05 5.63072e-05 -3.42063e-07
1.93211e-07 -3.42063e-07 -3.59653e-06
0.000935593 6.96757e-06 8.62921e-08
6.96757e-06 0.000121726 -6.8575e-07
8.62921e-08 -6.8575e-07 5.42144e-05
0.000742481 -3.65335e-05 4.41528e-07
-3.65335e-05 1.17401e-05 3.39114e-08
4.41528e-07 3.39114e-08 -5.00364e-05
0.000837247 -1.69699e-06 4.35707e-07
-1.69699e-06 4.56002e-05 5.55347e-07
4.35707e-07 5.55347e-07 -2.39175e-06
0.000773088 -6.36225e-07 9.33122e-07
-6.36225e-07 9.71267e-07 1.56538e-06
9.33122e-07 1.56538e-06 -3.00664e-05
0.000778776 -1.21819e-05 -1.56605e-07
-1.21819e-05 4.72105e-06 -3.54966e-09
-1.56605e-07 -3.54966e-09 -2.55104e-05
0.00125999 -2.2554e-05 1.06859e-06
-2.2554e-05 0.000265787 1.99829e-06
1.06859e-06 1.99829e-06 0.000265987
0.000775606 -1.87894e-05 -9.32744e-07
-1.87894e-05 5.83026e-06 -1.78365e-06
-9.32744e-07 -1.78365e-06 -2.44061e-05
0.00127595 -2.85144e-05 -3.60286e-06
-2.85144e-05 0.000278934 -1.19477e-06
-3.60286e-06 -1.19477e-06 0.000278559
0.00095313 -2.33478e-05 1.60475e-05
-2.33478e-05 0.000103841 6.37598e-06
1.60475e-05 6.37598e-06 0.00011811
0.00129266 -3.40153e-05 -8.09985e-06
-3.40153e-05 0.00029354 -4.43208e-06
-8.09985e-06 -4.43208e-06 0.0002919
0.000896637 -2.95289e-05 6.46065e-06
-2.95289e-05 7.89872e-05 2.39735e-06
6.46065e-06 2.39735e-06 9.16703e-05
0.00198439 -5.42098e-05 -6.15928e-06
-5.42098e-05 0.000690182 -1.50963e-06
-6.15928e-06 -1.50963e-06 0.000706359
0.000680574 3.30503e-05 1.29224e-06
3.30503e-05 -3.8167e-05 -3.6631e-06
1.29224e-06 -3.6631e-06 -4.94367e-05
0.000681411 3.78909e-05 -1.43684e-07
3.78909e-05 -3.09098e-05 3.09944e-08
-1.43684e-07 3.09944e-08 -4.53191e-05
0.00230454 5.98816e-05 2.80155e-05
5.98816e-05 0.000872155 -3.67503e-06
2.80155e-05 -3.67503e-06 0.000885084
0.000687136 4.44371e-05 -1.93353e-06
4.44371e-05 -1.96331e-05 4.03146e-06
-1.93353e-06 4.03146e-06 -3.77668e-05
0.00241901 6.83948e-05 -1.53614e-06
6.83948e-05 0.000943509 -1.24473e-07
-1.53614e-06 -1.24473e-07 0.000953836
0.00256389 7.57185e-05 -4.27007e-05
7.57185e-05 0.00102995 3.13349e-06
-4.27007e-05 3.13349e-06 0.00103806
0.00146287 8.77258e-05 -2.08079e-06
8.77258e-05 4.26972e-05 2.92833e-07
-2.08079e-06 2.92833e-07 -7.98902e-05
0.00160552 4.72805e-05 -7.59519e-07
4.72805e-05 0.000108643 -2.65306e-07
-7.59519e-07 -2.65306e-07 -1.00187e-05
0.0016175 6.80865e-05 2.33263e-06
6.80865e-05 8.55851e-05 8.55125e-07
2.33263e-06 8.55125e-07 -2.30738e-05
0.0017559 3.46678e-05 1.19771e-06
3.46678e-05 0.000129219 1.40223e-07
1.19771e-06 1.40223e-07 2.07529e-05
0.00162269 5.90101e-06 -1.05004e-06
5.90101e-06 8.3789e-05 -2.55118e-07
-1.05004e-06 -2.55118e-07 -3.42963e-05
0.0014945 1.33415e-05 -4.29175e-06
1.33415e-05 7.21655e-05 5.1357e-10
-4.29175e-06 5.1357e-10 -4.73713e-05
0.00162778 3.48624e-06 -8.3488e-08
3.48624e-06 8.78285e-05 -3.9252e-08
-8.3488e-08 -3.9252e-08 -3.12809e-05
0.00175666 2.37923e-05 3.31189e-07
2.37923e-05 0.000112323 -5.34678e-08
3.31189e-07 -5.34678e-08 -3.92515e-07
0.00163041 4.57651e-05 -5.41222e-07
4.57651e-05 7.28521e-05 -1.45249e-07
-5.41222e-07 -1.45249e-07 -3.62369e-05
0.00178066 3.92873e-05 8.53334e-07
3.92873e-05 0.000114423 -1.06694e-07
8.53334e-07 -1.06694e-07 1.25158e-05
0.00159552 8.2598e-05 -6.31201e-07
8.2598e-05 8.30279e-05 1.20358e-07
-6.31201e-07 1.20358e-07 -3.28476e-05
0.00172213 7.14271e-05 2.15978e-06
7.14271e-05 0.000108379 1.5659e-07
2.15978e-06 1.5659e-07 9.2484e-06
0.00175897 5.30518e-06 -9.82349e-08
5.30518e-06 0.000110102 1.5478e-07
-9.82349e-08 1.5478e-07 -3.54001e-06
0.00175159 3.22886e-05 -6.34287e-07
3.22886e-05 9.0483e-05 4.49001e-07
-6.34287e-07 4.49001e-07 -1.32638e-05
0.00178219 5.27765e-05 -1.07926e-06
5.27765e-05 0.000107715 5.62333e-08
-1.07926e-06 5.62333e-08 1.10343e-05
0.00180123 9.49377e-05 -1.75511e-06
9.49377e-05 0.000144264 -5.80344e-07
-1.75511e-06 -5.80344e-07 4.68307e-05
0.00162093 -2.91499e-06 -1.33537e-06
-2.91499e-06 9.35358e-05 1.84641e-07
-1.33537e-06 1.84641e-07 -2.51038e-05
0.00175535 -3.79119e-05 -2.30199e-06
-3.79119e-05 0.000185965 3.91927e-07
-2.30199e-06 3.91927e-07 6.88294e-05
0.00162943 -2.13208e-05 -7.84654e-07
-2.13208e-05 7.64864e-05 1.49629e-07
-7.84654e-07 1.49629e-07 -3.60531e-05
0.0015945 -6.12704e-05 5.71924e-07
-6.12704e-05 8.36572e-05 1.03272e-07
5.71924e-07 1.03272e-07 -2.55029e-05
0.00105683 -9.82305e-05 -1.37139e-06
-9.82305e-05 0.000171353 1.53392e-07
-1.37139e-06 1.53392e-07 7.2442e-05
0.000827173 -0.000119931 8.89018e-07
-0.000119931 4.3568e-05 3.36759e-07
8.89018e-07 3.36759e-07 -7.62222e-05
0.00119664 -0.000159877 -1.59441e-06
-0.000159877 0.000163828 2.70034e-06
-1.59441e-06 2.70034e-06 6.56325e-06
0.00171061 -0.000122711 -4.47005e-07
-0.000122711 0.000156582 -5.06895e-07
-4.47005e-07 -5.06895e-07 3.92978e-05
0.00159119 -8.2188e-05 5.08413e-07
-8.2188e-05 5.76743e-05 -5.50882e-07
5.08413e-07 -5.50882e-07 -4.30135e-05
0.00162229 -0.000146423 2.45528e-06
-0.000146423 0.000107063 -2.09988e-07
2.45528e-06 -2.09988e-07 -9.90837e-06
0.00145414 -0.000179241 -9.54581e-07
-0.000179241 0.000168524 -9.54609e-07
-9.54581e-07 -9.54609e-07 1.59044e-05
0.00131347 -0.000155395 1.99653e-06
-0.000155395 -1.6087e-05 -1.68171e-06
1.99653e-06 -1.68171e-06 -0.000126391
0.00106678 -0.000128646 1.76935e-07
-0.000128646 0.000188919 -1.13892e-06
1.76935e-07 -1.13892e-06 8.04452e-05
0.00101512 -0.00011794 3.89457e-07
-0.00011794 0.000165002 -2.10056e-06
3.89457e-07 -2.10056e-06 5.57548e-05
0.000851857 -2.31217e-05 2.99895e-07
-2.31217e-05 7.40411e-05 -5.31204e-08
2.99895e-07 -5.31204e-08 -1.7348e-05
0.000505853 2.26665e-05 -1.58356e-06
2.26665e-05 -0.000128584 1.92647e-06
-1.58356e-06 1.92647e-06 -0.000174683
0.000691487 3.86347e-05 5.44439e-08
3.86347e-05 -2.00083e-05 2.48937e-07
5.44439e-08 2.48937e-07 -9.12455e-05
0.00174398 -1.41462e-05 1.10181e-07
-1.41462e-05 0.000113127 -2.91212e-08
1.10181e-07 -2.91212e-08 6.37604e-07
0.00172139 -3.55485e-05 2.29599e-07
-3.55485e-05 0.000115927 -6.70966e-09
2.29599e-07 -6.70966e-09 6.44615e-06
0.00169936 -7.20274e-05 -7.51917e-07
-7.20274e-05 0.000101585 -1.7365e-07
-7.51917e-07 -1.7365e-07 3.40621e-06
0.00101112 -0.000126995 -6.80767e-08
-0.000126995 0.00015368 4.29656e-07
-6.80767e-08 4.29656e-07 4.17822e-05
0.000737106 -0.000119943 1.81893e-06
-0.000119943 -6.35197e-06 -1.70603e-06
1.81893e-06 -1.70603e-06 -0.000140496
0.00129355 -0.000177184 -4.60921e-07
-0.000177184 0.000181573 2.59293e-07
-4.60921e-07 2.59293e-07 6.60918e-06
0.00163882 -0.000109162 7.19996e-07
-0.000109162 7.56212e-05 -1.26082e-07
7.19996e-07 -1.26082e-07 -2.98705e-05
0.00164878 -0.00019259 9.36364e-07
-0.00019259 0.000207665 -2.23828e-06
9.36364e-07 -2.23828e-06 6.46165e-05
0.00175455 -0.000167324 -1.38758e-06
-0.000167324 0.000139267 -3.53826e-07
-1.38758e-06 -3.53826e-07 2.92747e-05
0.000511961 2.69417e-05 1.99362e-09
2.69417e-05 -0.000128605 -6.56216e-07
1.99362e-09 -6.56216e-07 -0.000171055
0.00100892 -0.000125644 -1.11202e-08
-0.000125644 0.000157361 3.06027e-07
-1.11202e-08 3.06027e-07 4.70287e-05
0.000884371 -0.000117143 -5.65133e-07
-0.000117143 8.97944e-05 4.34525e-07
-5.65133e-07 4.34525e-07 -2.04624e-05
0.00100854 -8.08821e-05 -3.46397e-07
-8.08821e-05 0.000164169 8.22788e-07
-3.46397e-07 8.22788e-07 5.93006e-05
0.000959797 -2.82294e-05 -1.82295e-08
-2.82294e-05 0.000135748 2.8864e-08
-1.82295e-08 2.8864e-08 5.08895e-05
0.000784939 1.39093e-05 -1.9032e-07
1.39093e-05 3.29655e-05 2.87232e-07
-1.9032e-07 2.87232e-07 -3.47983e-05
0.00168253 -2.42265e-05 -4.58051e-07
-2.42265e-05 5.7483e-05 3.28597e-08
-4.58051e-07 3.28597e-08 -5.02778e-05
0.00176602 -5.55532e-05 -1.93466e-06
-5.55532e-05 0.000104604 -1.53599e-07
-1.93466e-06 -1.53599e-07 9.78496e-06
0.00159231 -8.58644e-05 2.08567e-07
-8.58644e-05 1.79839e-05 4.41301e-07
2.08567e-07 4.41301e-07 -7.38382e-05
0.00190777 -0.000140091 -1.14508e-06
-0.000140091 0.000174612 7.4718e-08
-1.14508e-06 7.4718e-08 7.6466e-05
0.000970288 -0.000126864 -1.37807e-06
-0.000126864 0.000134334 6.38425e-07
-1.37807e-06 6.38425e-07 1.61978e-05
0.00159894 -0.000186442 1.15835e-06
-0.000186442 7.18301e-05 -6.25926e-07
1.15835e-06 -6.25926e-07 -4.96546e-05
0.000826685 -0.000136499 -2.67404e-07
-0.000136499 2.11649e-05 -3.61824e-06
-2.67404e-07 -3.61824e-06 -0.000144297
0.00183304 -0.000217767 6.29031e-07
-0.000217767 0.000415954 1.50574e-06
6.29031e-07 1.50574e-06 0.00023166
0.000534018 2.30286e-05 7.56961e-07
2.30286e-05 -0.000119577 -2.47389e-06
7.56961e-07 -2.47389e-06 -0.000158723
0.000902279 -1.27397e-06 1.16694e-06
-1.27397e-06 9.72005e-05 -8.49058e-07
1.16694e-06 -8.49058e-07 3.34912e-05
0.000998198 -4.47947e-05 7.76484e-08
-4.47947e-05 0.000158037 8.12531e-07
7.76484e-08 8.12531e-07 7.67816e-05
0.00090722 -1.70441e-05 2.85311e-07
-1.70441e-05 0.000106801 -4.276e-07
2.85311e-07 -4.276e-07 1.33053e-05
0.00103217 -0.000128316 -7.08093e-07
-0.000128316 0.000167523 1.90326e-06
-7.08093e-07 1.90326e-06 5.21785e-05
0.00095386 -0.000123444 -2.7552e-06
-0.000123444 0.000123784 3.01536e-06
-2.7552e-06 3.01536e-06 1.02572e-05
0.000755546 -3.41176e-05 -1.71929e-06
-3.41176e-05 8.12937e-06 -1.41157e-06
-1.71929e-06 -1.41157e-06 -2.64607e-05
0.000777767 -4.82817e-05 -1.56827e-07
-4.82817e-05 2.72528e-05 -7.31902e-07
-1.56827e-07 -7.31902e-07 -3.08321e-05
0.00163994 0.000119698 1.45015e-07
0.000119698 0.000116852 5.02741e-07
1.45015e-07 5.02741e-07 -1.26958e-05
0.000839632 -2.43761e-05 4.11479e-07
-2.43761e-05 7.26545e-05 -3.84313e-07
4.11479e-07 -3.84313e-07 -8.73568e-06
0.000922433 0.000116146 2.8049e-07
0.000116146 0.000128904 -3.06837e-07
2.8049e-07 -3.06837e-07 1.14293e-05
0.000773394 4.4361e-05 5.08402e-07
4.4361e-05 4.92762e-05 8.42868e-08
5.08402e-07 8.42868e-08 -5.99964e-05
0.00139173 0.000168728 -6.06673e-07
0.000168728 8.97849e-05 -2.53022e-06
-6.06673e-07 -2.53022e-06 -4.99053e-05
0.00159579 0.000164774 2.41399e-06
0.000164774 9.79954e-05 2.18632e-07
2.41399e-06 2.18632e-07 -3.09119e-05
0.000629012 0.000114227 3.19537e-07
0.000114227 -3.83062e-05 8.73829e-07
3.19537e-07 8.73829e-07 -0.000191485
0.00149742 0.000188406 -7.08577e-07
0.000188406 0.000268968 -2.00282e-07
-7.08577e-07 -2.00282e-07 0.000112152
0.000787412 -2.04775e-05 -4.60328e-07
-2.04775e-05 2.86371e-05 1.16986e-07
-4.60328e-07 1.16986e-07 -2.34238e-05
0.000755896 -1.51638e-05 -3.89566e-08
-1.51638e-05 2.24631e-05 7.74922e-07
-3.89566e-08 7.74922e-07 -5.06172e-05
0.00105349 0.000130942 -4.46361e-07
0.000130942 0.000203771 -1.51969e-06
-4.46361e-07 -1.51969e-06 7.03627e-05
0.000765537 -1.16859e-05 -1.76832e-07
-1.16859e-05 3.77082e-05 4.92202e-08
-1.76832e-07 4.92202e-08 -5.93285e-05
0.00089624 8.24493e-05 -9.30867e-07
8.24493e-05 0.000113758 -9.29261e-07
-9.30867e-07 -9.29261e-07 -3.06438e-06
0.00181623 0.000126499 -2.00092e-06
0.000126499 0.000159347 -8.41808e-07
-2.00092e-06 -8.41808e-07 5.61635e-05
0.00188622 0.000209292 1.19273e-06
0.000209292 0.000325817 5.83655e-07
1.19273e-06 5.83655e-07 0.000179016
0.00137773 0.000161754 4.42316e-07
0.000161754 -4.79343e-05 1.24228e-06
4.42316e-07 1.24228e-06 -0.000166309
0.00134845 0.000163121 1.59583e-06
0.000163121 0.000326119 2.27654e-06
1.59583e-06 2.27654e-06 0.000149678
0.000705705 0.00015792 -1.65351e-06
0.00015792 -0.000176871 -7.19355e-07
-1.65351e-06 -7.19355e-07 -0.000341434
0.000693375 -3.42907e-05 -1.07426e-07
-3.42907e-05 -1.62091e-05 9.41042e-07
-1.07426e-07 9.41042e-07 -8.10265e-05
0.000580745 2.57081e-05 -2.89275e-07
2.57081e-05 -5.77523e-05 1.93684e-07
-2.89275e-07 1.93684e-07 -0.000150585
0.00108527 0.000133437 5.42842e-08
0.000133437 0.00021771 -4.3984e-07
5.42842e-08 -4.3984e-07 6.62819e-05
0.000302785 3.84359e-05 3.66259e-07
3.84359e-05 -0.000204438 -1.48129e-07
3.66259e-07 -1.48129e-07 -0.000322148
0.00188507 0.000121663 -2.34171e-06
0.000121663 0.00011317 -6.17773e-07
-2.34171e-06 -6.17773e-07 3.46644e-05
0.00185786 0.000156022 4.17456e-07
0.000156022 0.00013236 -3.44191e-07
4.17456e-07 -3.44191e-07 3.98783e-05
0.00157167 0.000210759 -1.5259e-06
0.000210759 0.000135718 -1.72109e-06
-1.5259e-06 -1.72109e-06 -1.41507e-05
0.000160542 0.000103356 -6.53572e-07
0.000103356 -0.000350734 1.4422e-06
-6.53572e-07 1.4422e-06 -0.000548027
0.000800444 6.5965e-07 -8.47496e-07
6.5965e-07 3.76487e-05 -1.11575e-07
-8.47496e-07 -1.11575e-07 -1.50824e-05
0.0007956 -1.50573e-05 -2.25679e-07
-1.50573e-05 3.97204e-05 4.23929e-07
-2.25679e-07 4.23929e-07 -2.34805e-05
0.000893667 -3.40653e-05 -1.84699e-07
-3.40653e-05 9.90008e-05 -1.105e-08
-1.84699e-07 -1.105e-08 2.95793e-05
0.000797833 -3.24244e-05 -9.50575e-07
-3.24244e-05 2.7421e-05 -6.19784e-07
-9.50575e-07 -6.19784e-07 -2.10884e-05
0.000693266 -4.29095e-05 3.40229e-08
-4.29095e-05 -1.7804e-05 -2.09104e-07
3.40229e-08 -2.09104e-07 -7.81507e-05
0.000816752 -1.28808e-05 2.86975e-08
-1.28808e-05 3.52476e-05 3.3169e-08
2.86975e-08 3.3169e-08 -1.32705e-05
0.00083547 1.59955e-05 -1.94232e-07
1.59955e-05 7.24241e-05 -3.26445e-07
-1.94232e-07 -3.26445e-07 1.34646e-06
0.000763564 -1.65535e-05 2.39603e-07
-1.65535e-05 2.51046e-05 2.31366e-07
2.39603e-07 2.31366e-07 -3.80823e-05
0.000866601 -1.35896e-05 2.36648e-07
-1.35896e-05 8.6457e-05 -3.41868e-07
2.36648e-07 -3.41868e-07 1.35336e-05
0.000809282 -4.29748e-05 -1.04831e-07
-4.29748e-05 5.25606e-05 7.86813e-08
-1.04831e-07 7.86813e-08 -1.64424e-05
0.000724714 5.33693e-06 4.49134e-07
5.33693e-06 -7.93162e-07 1.06835e-07
4.49134e-07 1.06835e-07 -6.24497e-05
0.000820991 1.18406e-05 5.75269e-07
1.18406e-05 3.72029e-05 4.71157e-07
5.75269e-07 4.71157e-07 -1.19025e-05
0.000766886 4.93445e-06 6.7898e-07
4.93445e-06 -1.17772e-06 1.49029e-06
6.7898e-07 1.49029e-06 -3.33604e-05
0.000774779 -6.77736e-06 -2.01351e-07
-6.77736e-06 2.19834e-06 -3.84323e-09
-2.01351e-07 -3.84323e-09 -2.89606e-05
0.0012737 -1.49321e-05 8.80021e-07
-1.49321e-05 0.000270656 1.9484e-06
8.80021e-07 1.9484e-06 0.000270741
0.000774193 -1.65768e-05 -5.84889e-07
-1.65768e-05 2.54922e-06 -1.67437e-06
-5.84889e-07 -1.67437e-06 -2.77885e-05
0.00128819 -2.08261e-05 -2.95173e-06
-2.08261e-05 0.000281401 -1.2593e-06
-2.95173e-06 -1.2593e-06 0.000281486
0.000960191 -1.78177e-05 1.32034e-05
-1.78177e-05 0.000103501 6.58207e-06
1.32034e-05 6.58207e-06 0.0001182
0.00130195 -2.71006e-05 -6.48311e-06
-2.71006e-05 0.000292961 -4.46333e-06
-6.48311e-06 -4.46333e-06 0.000292585
0.000905731 -2.41868e-05 5.09209e-06
-2.41868e-05 7.76642e-05 2.4534e-06
5.09209e-06 2.4534e-06 9.18242e-05
0.000841741 -2.96464e-05 -2.14559e-06
-2.96464e-05 4.87474e-05 -1.6327e-06
-2.14559e-06 -1.6327e-06 6.14203e-05
0.000690545 2.85167e-05 8.76017e-07
2.85167e-05 -3.90867e-05 -3.54649e-06
8.76017e-07 -3.54649e-06 -4.75381e-05
0.000692478 3.35798e-05 -1.66934e-07
3.35798e-05 -3.18315e-05 3.00145e-08
-1.66934e-07 3.00145e-08 -4.31897e-05
0.00223526 5.15038e-05 2.35524e-05
5.15038e-05 0.000826643 -3.83797e-06
2.35524e-05 -3.83797e-06 0.00084183
0.000698087 3.87919e-05 -1.88177e-06
3.87919e-05 -2.1766e-05 3.84689e-06
-1.88177e-06 3.84689e-06 -3.63486e-05
0.0023323 6.02499e-05 -1.65166e-06
6.02499e-05 0.000888325 -1.16175e-07
-1.65166e-06 -1.16175e-07 0.000900988
0.00245971 6.84212e-05 -3.67601e-05
6.84212e-05 0.000966453 3.3959e-06
-3.67601e-05 3.3959e-06 0.000976626
0.00163771 8.40449e-05 1.55544e-06
8.40449e-05 0.000107744 1.75992e-06
1.55544e-06 1.75992e-06 -8.22264e-06
0.00167188 4.35155e-05 5.21991e-07
4.35155e-05 9.30933e-05 -1.53313e-07
5.21991e-07 -1.53313e-07 -1.69126e-05
0.00163476 7.38309e-05 3.95571e-06
7.38309e-05 5.9871e-05 3.73639e-10
3.95571e-06 3.73639e-10 -3.79862e-05
0.00174025 3.97989e-05 2.15289e-06
3.97989e-05 8.86989e-05 -4.02069e-07
2.15289e-06 -4.02069e-07 -1.22685e-05
0.00175009 1.89373e-05 1.16506e-06
1.89373e-05 0.000110944 -3.2302e-07
1.16506e-06 -3.2302e-07 -2.35664e-06
0.00163594 2.23022e-06 -1.29665e-06
2.23022e-06 9.15063e-05 -7.23898e-08
-1.29665e-06 -7.23898e-08 -2.81118e-05
0.00175648 5.8884e-06 -1.31837e-07
5.8884e-06 0.000110986 -3.52123e-09
-1.31837e-07 -3.52123e-09 -2.4651e-06
0.00174006 2.81229e-05 4.34693e-07
2.81229e-05 8.56856e-05 -1.83843e-07
4.34693e-07 -1.83843e-07 -1.84083e-05
0.00176295 5.42293e-05 7.25102e-07
5.42293e-05 9.80008e-05 -7.33866e-08
7.25102e-07 -7.33866e-08 9.28906e-07
0.00180952 9.09212e-05 4.63744e-07
9.09212e-05 0.000142128 1.30988e-07
4.63744e-07 1.30988e-07 4.53776e-05
0.00176354 4.3385e-06 -1.02827e-06
4.3385e-06 9.25374e-05 3.66995e-07
-1.02827e-06 3.66995e-07 -1.41124e-05
0.00188172 3.99804e-05 -4.20785e-07
3.99804e-05 0.000135896 3.45167e-07
-4.20785e-07 3.45167e-07 4.40826e-05
0.0017427 8.69497e-05 -8.03455e-07
8.69497e-05 6.40001e-05 3.76576e-07
-8.03455e-07 3.76576e-07 -2.55682e-05
0.0017374 -1.4897e-05 -1.56785e-07
-1.4897e-05 0.000113258 -9.44849e-08
-1.56785e-07 -9.44849e-08 7.72838e-07
0.00175426 -3.66678e-05 2.38404e-07
-3.66678e-05 0.000134407 -6.68511e-08
2.38404e-07 -6.68511e-08 2.53991e-05
0.00171643 -7.17599e-05 1.76886e-07
-7.17599e-05 0.000112882 -1.68852e-07
1.76886e-07 -1.68852e-07 1.33881e-05
0.00111364 -0.000132798 -2.50402e-08
-0.000132798 0.00020713 2.06255e-07
-2.50402e-08 2.06255e-07 9.46365e-05
0.00121214 -0.000147888 9.32114e-08
-0.000147888 0.000246336 1.22698e-06
9.32114e-08 1.22698e-06 0.000112233
0.00125898 -0.000173547 -2.38731e-06
-0.000173547 0.000167252 2.61794e-06
-2.38731e-06 2.61794e-06 -9.85613e-06
0.00170538 -0.000110174 5.24548e-07
-0.000110174 0.000111188 -5.96484e-07
5.24548e-07 -5.96484e-07 5.76645e-06
0.00160027 -0.000165033 4.59756e-07
-0.000165033 6.4786e-05 -5.78462e-10
4.59756e-07 -5.78462e-10 -4.55908e-05
0.00142859 -0.000178472 -1.73506e-06
-0.000178472 9.53421e-05 -4.04315e-06
-1.73506e-06 -4.04315e-06 -4.35202e-05
0.0010684 -0.000129314 7.98495e-07
-0.000129314 0.000188564 -1.2967e-06
7.98495e-07 -1.2967e-06 7.77707e-05
0.000849201 -0.000114104 -1.61545e-06
-0.000114104 7.25549e-05 -1.97363e-06
-1.61545e-06 -1.97363e-06 -3.66063e-05
0.00101181 -9.55051e-05 6.85907e-07
-9.55051e-05 0.000171269 2.48629e-07
6.85907e-07 2.48629e-07 6.20591e-05
0.000505189 2.49717e-05 -9.4592e-07
2.49717e-05 -0.000132639 1.17272e-06
-9.4592e-07 1.17272e-06 -0.000174513
0.000977014 -1.83494e-05 9.67853e-08
-1.83494e-05 0.000143236 -1.98953e-07
9.67853e-08 -1.98953e-07 6.00737e-05
0.000663511 2.72024e-05 1.88482e-07
2.72024e-05 -3.71193e-05 1.14571e-06
1.88482e-07 1.14571e-06 -0.000103301
0.00176757 -2.22721e-05 -4.66601e-08
-2.22721e-05 0.000100458 5.22616e-08
-4.66601e-08 5.22616e-08 -7.27878e-06
0.00180554 -5.80894e-05 4.3264e-07
-5.80894e-05 0.000127582 -4.50568e-08
4.3264e-07 -4.50568e-08 3.33155e-05
0.00163845 -8.48561e-05 -1.52693e-07
-8.48561e-05 4.37892e-05 9.11546e-08
-1.52693e-07 9.11546e-08 -4.82757e-05
0.00101307 -0.000129093 -7.69197e-08
-0.000129093 0.000154866 8.86809e-07
-7.69197e-08 8.86809e-07 3.6214e-05
0.000776579 -0.000132081 -3.5566e-07
-0.000132081 -2.37739e-07 3.57336e-07
-3.5566e-07 3.57336e-07 -0.000161056
0.00172239 -0.000209857 -2.48387e-06
-0.000209857 0.00035279 1.37851e-06
-2.48387e-06 1.37851e-06 0.000170566
0.00186994 -0.000140402 5.64431e-07
-0.000140402 0.000152501 -3.02934e-07
5.64431e-07 -3.02934e-07 5.4194e-05
0.00170674 -0.000191675 8.62414e-07
-0.000191675 0.000127528 -1.23308e-06
8.62414e-07 -1.23308e-06 4.63915e-06
0.000642856 2.26382e-05 1.8624e-07
2.26382e-05 -6.01651e-05 -6.16493e-07
1.8624e-07 -6.16493e-07 -9.80354e-05
0.000894723 7.59743e-06 -2.72922e-07
7.59743e-06 9.20343e-05 2.02481e-07
-2.72922e-07 2.02481e-07 2.9154e-05
0.000720379 -0.000108582 -1.12533e-06
-0.000108582 -1.77553e-06 8.51112e-07
-1.12533e-06 8.51112e-07 -0.000114007
0.0010516 -0.000124381 1.04051e-06
-0.000124381 0.00017671 8.61412e-07
1.04051e-06 8.61412e-07 6.6089e-05
0.000875761 -2.60561e-05 1.52132e-07
-2.60561e-05 9.14273e-05 -3.69089e-07
1.52132e-07 -3.69089e-07 -4.14551e-06
0.000928289 -3.62935e-05 -6.46508e-07
-3.62935e-05 0.000119965 8.98359e-07
-6.46508e-07 8.98359e-07 3.86185e-05
0.00182125 -3.63662e-05 -1.21393e-06
-3.63662e-05 0.000108484 -8.48257e-08
-1.21393e-06 -8.48257e-08 1.35361e-05
0.0017293 -7.71805e-05 -2.60074e-06
-7.71805e-05 5.9732e-05 -9.52432e-08
-2.60074e-06 -9.52432e-08 -2.04031e-05
0.00165828 -0.000101204 -1.47539e-06
-0.000101204 7.51771e-06 2.23928e-07
-1.47539e-06 2.23928e-07 -7.53696e-05
0.00219657 -0.000201748 -1.74751e-07
-0.000201748 0.000298743 -5.17737e-07
-1.74751e-07 -5.17737e-07 0.000198582
0.000450897 -9.88793e-05 -1.95193e-06
-9.88793e-05 -0.000137262 -7.609e-08
-1.95193e-06 -7.609e-08 -0.000268612
0.00158623 -0.000213119 -2.00753e-06
-0.000213119 0.000177387 5.21638e-06
-2.00753e-06 5.21638e-06 8.67002e-06
0.00187974 -0.000209912 9.62077e-07
-0.000209912 0.000553649 -3.26447e-06
9.62077e-07 -3.26447e-06 0.00036472
0.000780795 1.6465e-05 7.98461e-07
1.6465e-05 1.22621e-05 -1.76565e-06
7.98461e-07 -1.76565e-06 -2.2105e-05
0.000778151 -5.94562e-05 1.14348e-06
-5.94562e-05 3.48425e-05 -1.1639e-06
1.14348e-06 -1.1639e-06 -2.44749e-05
0.000669347 9.10861e-06 6.17943e-07
9.10861e-06 -2.84814e-05 -1.53713e-06
6.17943e-07 -1.53713e-06 -9.18194e-05
0.000866309 -3.33131e-05 1.00379e-06
-3.33131e-05 8.94625e-05 7.26804e-08
1.00379e-06 7.26804e-08 9.43386e-06
0.000881206 6.13717e-06 2.49985e-07
6.13717e-06 9.29988e-05 -6.55791e-08
2.49985e-07 -6.55791e-08 7.19029e-06
0.000709532 -0.000106384 1.11909e-06
-0.000106384 2.22398e-05 2.31729e-06
1.11909e-06 2.31729e-06 -8.96892e-05
0.000735093 -0.000109294 -3.70822e-06
-0.000109294 -2.58312e-05 1.52369e-06
-3.70822e-06 1.52369e-06 -0.000126312
0.00185199 -0.000175591 -4.14534e-06
-0.000175591 0.000631682 3.24183e-06
-4.14534e-06 3.24183e-06 0.000513925
0.000788917 -4.5422e-05 -4.78472e-07
-4.5422e-05 2.95318e-05 -5.95675e-07
-4.78472e-07 -5.95675e-07 -2.26311e-05
0.000835475 -3.28098e-06 -1.93804e-07
-3.28098e-06 6.57246e-05 3.0948e-07
-1.93804e-07 3.0948e-07 -7.45926e-06
0.0021 0.00013333 1.57512e-06
0.00013333 0.00031396 6.59915e-07
1.57512e-06 6.59915e-07 0.000212423
0.000840028 9.04147e-06 -2.0277e-07
9.04147e-06 8.13899e-05 -2.33019e-07
-2.0277e-07 -2.33019e-07 -1.79005e-05
0.00114757 0.000136171 -1.13713e-07
0.000136171 0.000258492 -1.43833e-06
-1.13713e-07 -1.43833e-06 0.000126341
0.000734481 6.63403e-05 -7.52126e-07
6.63403e-05 2.81934e-05 1.52042e-06
-7.52126e-07 1.52042e-06 -8.5215e-05
0.00172461 0.000199594 1.22708e-06
0.000199594 0.000235564 -1.22579e-06
1.22708e-06 -1.22579e-06 8.95729e-05
0.00169299 0.000177959 6.86031e-06
0.000177959 0.000114627 3.42844e-06
6.86031e-06 3.42844e-06 -2.14514e-06
0.000823568 0.000132971 1.02038e-06
0.000132971 5.15912e-05 7.07741e-07
1.02038e-06 7.07741e-07 -0.000125778
0.00121736 0.000188981 -3.29589e-06
0.000188981 9.05856e-05 -8.88811e-07
-3.29589e-06 -8.88811e-07 -7.92848e-05
0.000701836 -1.43061e-05 1.37324e-07
-1.43061e-05 -8.78606e-06 5.56117e-07
1.37324e-07 5.56117e-07 -7.64647e-05
0.000702576 3.99091e-05 -1.20709e-07
3.99091e-05 8.45659e-06 -1.13945e-06
-1.20709e-07 -1.13945e-06 -8.51155e-05
0.00100906 0.000129271 3.35317e-07
0.000129271 0.000182309 -1.28284e-06
3.35317e-07 -1.28284e-06 2.91129e-05
0.000742409 6.61682e-05 -6.0057e-07
6.61682e-05 3.2128e-05 -7.73926e-07
-6.0057e-07 -7.73926e-07 -8.72032e-05
0.00195068 0.000118433 5.40541e-08
0.000118433 0.000154589 -5.28915e-07
5.40541e-08 -5.28915e-07 7.72414e-05
0.0017734 0.000158453 1.68191e-06
0.000158453 9.65518e-05 2.66443e-07
1.68191e-06 2.66443e-07 1.22703e-07
0.00184328 0.000221321 -2.22918e-06
0.000221321 0.0002739 -3.60337e-07
-2.22918e-06 -3.60337e-07 0.000124948
0.00069184 0.000140077 8.77833e-07
0.000140077 -8.57249e-05 4.75567e-07
8.77833e-07 4.75567e-07 -0.00028105
0.0008561 -2.44444e-05 -1.27745e-08
-2.44444e-05 7.95123e-05 6.23733e-08
-1.27745e-08 6.23733e-08 5.38094e-06
0.00168522 8.3818e-05 -1.00933e-06
8.3818e-05 -4.39007e-06 7.55412e-07
-1.00933e-06 7.55412e-07 -7.14561e-05
0.00118782 0.000119127 -4.31138e-07
0.000119127 0.000290726 2.22777e-06
-4.31138e-07 2.22777e-06 0.000172143
0.00103515 0.000134758 4.37561e-07
0.000134758 0.000181031 1.07164e-06
4.37561e-07 1.07164e-06 2.10784e-05
0.00220346 0.000151031 -3.33645e-06
0.000151031 0.000229369 3.55189e-07
-3.33645e-06 3.55189e-07 0.000157436
0.00153312 0.00021695 -4.60524e-07
0.00021695 -3.23091e-05 -1.90613e-06
-4.60524e-07 -1.90613e-06 -0.000156168
0.00204703 0.000232585 -1.5758e-06
0.000232585 0.000542972 1.91943e-06
-1.5758e-06 1.91943e-06 0.000341587
0.000872407 -6.79624e-06 -1.48997e-06
-6.79624e-06 8.06951e-05 1.00374e-07
-1.48997e-06 1.00374e-07 1.83839e-05
0.000866209 -2.28091e-05 -4.96152e-08
-2.28091e-05 8.38568e-05 -3.78392e-08
-4.96152e-08 -3.78392e-08 1.47062e-05
0.000893284 -2.3399e-05 -2.12083e-07
-2.3399e-05 0.000105034 3.97854e-07
-2.12083e-07 3.97854e-07 2.91152e-05
0.000796148 -2.8964e-05 -5.06124e-07
-2.8964e-05 2.51743e-05 -6.37539e-07
-5.06124e-07 -6.37539e-07 -2.40591e-05
0.000799237 -4.42369e-06 2.03784e-08
-4.42369e-06 4.42028e-05 4.14752e-07
2.03784e-08 4.14752e-07 -1.88822e-05
0.000721151 -7.48188e-06 -3.23558e-07
-7.48188e-06 1.21919e-05 -2.93634e-07
-3.23558e-07 -2.93634e-07 -6.0076e-05
0.000807754 -1.75345e-05 -1.13275e-07
-1.75345e-05 3.30161e-05 2.16599e-08
-1.13275e-07 2.16599e-08 -1.81635e-05
0.000746041 -2.58892e-05 -5.33371e-07
-2.58892e-05 1.34168e-05 2.4493e-07
-5.33371e-07 2.4493e-07 -4.98345e-05
0.000828932 -4.19919e-05 3.92914e-07
-4.19919e-05 6.54835e-05 -3.97597e-07
3.92914e-07 -3.97597e-07 -7.80101e-06
0.000862626 5.29427e-06 1.45837e-07
5.29427e-06 8.54345e-05 5.59996e-07
1.45837e-07 5.59996e-07 1.43668e-05
0.000776162 -2.67281e-05 6.18389e-07
-2.67281e-05 3.43672e-05 -9.56048e-07
6.18389e-07 -9.56048e-07 -4.13678e-05
0.000794108 -5.71895e-05 4.58295e-08
-5.71895e-05 4.20063e-05 3.21752e-08
4.58295e-08 3.21752e-08 -3.18961e-05
0.000902652 1.13311e-05 6.30684e-07
1.13311e-05 0.000101538 -1.81846e-07
6.30684e-07 -1.81846e-07 3.28651e-05
0.000813929 1.12859e-05 1.33085e-06
1.12859e-05 4.88195e-05 -8.61972e-08
1.33085e-06 -8.61972e-08 -1.74823e-05
0.000814225 4.46723e-06 6.02214e-07
4.46723e-06 3.42922e-05 4.91206e-07
6.02214e-07 4.91206e-07 -1.59541e-05
0.000760597 9.76862e-06 4.25506e-07
9.76862e-06 -3.03603e-06 1.45131e-06
4.25506e-07 1.45131e-06 -3.61204e-05
0.000769841 -1.12699e-06 -1.62251e-07
-1.12699e-06 5.53768e-07 2.93052e-09
-1.62251e-07 2.93052e-09 -3.16471e-05
0.00128251 -7.26369e-06 6.55559e-07
-7.26369e-06 0.000274195 1.92042e-06
6.55559e-07 1.92042e-06 0.000273898
0.000780183 -1.27015e-05 -3.58169e-07
-1.27015e-05 5.43905e-06 -1.56355e-06
-3.58169e-07 -1.56355e-06 -2.58398e-05
0.00130434 -1.33856e-05 -2.19179e-06
-1.33856e-05 0.000287886 -1.30691e-06
-2.19179e-06 -1.30691e-06 0.000287766
0.000972755 -1.22653e-05 9.92089e-06
-1.22653e-05 0.000107761 6.78536e-06
9.92089e-06 6.78536e-06 0.000122443
0.00132018 -1.96189e-05 -4.88831e-06
-1.96189e-05 0.000299044 -4.50271e-06
-4.88831e-06 -4.50271e-06 0.000298922
0.000920066 -1.84214e-05 3.6542e-06
-1.84214e-05 8.08484e-05 2.53952e-06
3.6542e-06 2.53952e-06 9.56144e-05
0.000856406 -2.4051e-05 -1.56401e-06
-2.4051e-05 5.03858e-05 -1.64141e-06
-1.56401e-06 -1.64141e-06 6.4642e-05
0.000772099 1.0923e-05 4.24376e-07
1.0923e-05 5.6363e-06 -1.73093e-06
4.24376e-07 -1.73093e-06 -2.6775e-05
0.00070515 2.29281e-05 8.11027e-07
2.29281e-05 -3.67797e-05 -3.46479e-06
8.11027e-07 -3.46479e-06 -4.27888e-05
0.00070434 2.89856e-05 -1.51443e-07
2.89856e-05 -3.16952e-05 2.81383e-08
-1.51443e-07 2.81383e-08 -4.02318e-05
0.00217433 4.29042e-05 1.93517e-05
4.29042e-05 0.00078633 -3.96599e-06
1.93517e-05 -3.96599e-06 0.000803616
0.000707609 3.42395e-05 -1.51451e-06
3.42395e-05 -2.37084e-05 3.68801e-06
-1.51451e-06 3.68801e-06 -3.51754e-05
0.00225946 5.1988e-05 -1.86852e-06
5.1988e-05 0.000840873 -1.0756e-07
-1.86852e-06 -1.0756e-07 0.00085578
0.00236434 6.04705e-05 -3.1308e-05
6.04705e-05 0.000906815 3.64291e-06
-3.1308e-05 3.64291e-06 0.000919237
0.00181504 8.68294e-05 1.83208e-06
8.68294e-05 0.000138543 1.01282e-06
1.83208e-06 1.01282e-06 4.24603e-05
0.00174044 5.55454e-05 1.56785e-06
5.55454e-05 8.65281e-05 -3.40736e-07
1.56785e-06 -3.40736e-07 -1.09179e-05
0.00172165 2.75648e-05 1.46843e-06
2.75648e-05 7.69712e-05 -5.98162e-07
1.46843e-06 -5.98162e-07 -2.74701e-05
0.00175365 6.76819e-06 3.93876e-07
6.76819e-06 0.000111678 -1.59951e-07
3.93876e-07 -1.59951e-07 -1.52056e-06
0.00178351 4.45118e-06 -4.14823e-07
4.45118e-06 0.000103519 1.31457e-07
-4.14823e-07 1.31457e-07 -2.22217e-06
0.00186455 3.78902e-05 3.91072e-07
3.78902e-05 0.000123259 -2.92714e-07
3.91072e-07 -2.92714e-07 3.11171e-05
0.00173399 8.85515e-05 -7.03615e-08
8.85515e-05 5.36764e-05 -1.46287e-07
-7.03615e-08 -1.46287e-07 -3.5812e-05
0.00179488 3.45858e-06 -1.11343e-06
3.45858e-06 9.34405e-05 7.7985e-07
-1.11343e-06 7.7985e-07 3.14962e-07
0.00197148 4.98939e-05 -1.30293e-06
4.98939e-05 0.000169273 2.50924e-07
-1.30293e-06 2.50924e-07 8.79921e-05
0.00153391 3.41243e-05 2.4814e-07
3.41243e-05 -8.62244e-05 1.38341e-07
2.4814e-07 1.38341e-07 -0.000144577
0.00185352 -2.05333e-05 1.65623e-07
-2.05333e-05 0.000144262 -7.58696e-08
1.65623e-07 -7.58696e-08 3.65603e-05
0.00184361 -6.11849e-05 3.17863e-06
-6.11849e-05 0.000149806 -1.93082e-08
3.17863e-06 -1.93082e-08 5.60924e-05
0.00169443 -8.53366e-05 -5.78555e-07
-8.53366e-05 7.37638e-05 -4.16921e-07
-5.78555e-07 -4.16921e-07 -1.86352e-05
0.00109019 -0.000133548 -4.60922e-07
-0.000133548 0.000194195 1.79653e-06
-4.60922e-07 1.79653e-06 7.47167e-05
0.000804 -0.000132297 4.46658e-07
-0.000132297 2.03265e-05 3.977e-06
4.46658e-07 3.977e-06 -0.000136148
0.00154173 -0.000197837 -2.19639e-06
-0.000197837 0.000252432 2.31302e-06
-2.19639e-06 2.31302e-06 7.33711e-05
0.00185526 -0.000140336 4.12602e-06
-0.000140336 0.000141377 -7.05957e-07
4.12602e-06 -7.05957e-07 4.29751e-05
0.00177173 -0.000193976 -1.17307e-06
-0.000193976 0.000162149 -2.51247e-06
-1.17307e-06 -2.51247e-06 3.81254e-05
0.000425177 -9.00069e-05 -1.59172e-06
-9.00069e-05 -0.000162267 9.73158e-07
-1.59172e-06 9.73158e-07 -0.000271508
0.0011982 -0.000130871 5.96774e-06
-0.000130871 0.000256678 -3.38013e-06
5.96774e-06 -3.38013e-06 0.000147975
0.000795162 7.20085e-06 4.91388e-08
7.20085e-06 4.1144e-05 -6.15513e-07
4.91388e-08 -6.15513e-07 -4.92155e-05
0.000753359 2.17912e-05 -7.82504e-07
2.17912e-05 -6.88289e-08 1.1124e-06
-7.82504e-07 1.1124e-06 -3.66241e-05
0.000894192 2.49863e-05 -5.48639e-07
2.49863e-05 9.16349e-05 1.18847e-06
-5.48639e-07 1.18847e-06 2.88288e-05
0.000853261 -1.39314e-05 -5.63384e-07
-1.39314e-05 7.95532e-05 8.99979e-07
-5.63384e-07 8.99979e-07 -2.07434e-06
0.00185429 -3.66944e-05 -1.74345e-07
-3.66944e-05 0.000129747 1.02864e-07
-1.74345e-07 1.02864e-07 3.65688e-05
0.000772699 1.49249e-05 1.17256e-07
1.49249e-05 7.65382e-06 1.66724e-08
1.17256e-07 1.66724e-08 -2.66501e-05
0.000713001 -1.25239e-05 -3.70308e-07
-1.25239e-05 -8.5517e-06 8.22393e-08
-3.70308e-07 8.22393e-08 -6.30025e-05
0.00178294 -7.91951e-05 -1.34348e-07
-7.91951e-05 9.05529e-05 -1.47309e-07
-1.34348e-07 -1.47309e-07 9.72546e-06
0.00158879 -9.95264e-05 -8.84662e-07
-9.95264e-05 -3.62302e-05 6.96786e-07
-8.84662e-07 6.96786e-07 -0.000120699
0.000656548 -0.000110199 -1.65081e-07
-0.000110199 -2.04888e-05 2.39251e-06
-1.65081e-07 2.39251e-06 -0.00014987
0.00147316 -0.000183709 -1.40445e-06
-0.000183709 0.000339742 6.25017e-07
-1.40445e-06 6.25017e-07 0.000145698
0.00140926 -0.000200045 1.26141e-06
-0.000200045 8.30569e-05 1.45028e-07
1.26141e-06 1.45028e-07 -8.02079e-05
0.00195586 -0.000197902 1.88494e-06
-0.000197902 0.000176356 -4.57973e-07
1.88494e-06 -4.57973e-07 7.5457e-05
0.00085889 -2.05569e-05 1.16739e-06
-2.05569e-05 7.41676e-05 -5.86415e-07
1.16739e-06 -5.86415e-07 1.30018e-05
0.000846986 -2.08561e-05 -3.71567e-07
-2.08561e-05 8.04008e-05 5.31486e-07
-3.71567e-07 5.31486e-07 -6.6205e-07
0.000913991 -0.000112241 3.41373e-07
-0.000112241 6.55439e-05 -3.36279e-08
3.41373e-07 -3.36279e-08 -3.86256e-05
0.00123318 -0.000139194 4.36156e-06
-0.000139194 0.000295284 -1.65251e-06
4.36156e-06 -1.65251e-06 0.000191588
0.000694529 -7.76736e-05 -6.5404e-07
-7.76736e-05 9.50041e-06 2.90476e-07
-6.5404e-07 2.90476e-07 -9.96133e-05
0.000878116 1.13296e-06 2.16212e-07
1.13296e-06 9.34868e-05 -3.77878e-07
2.16212e-07 -3.77878e-07 5.9154e-06
0.00190408 -4.38317e-05 -2.93648e-06
-4.38317e-05 0.00012744 -1.30722e-07
-2.93648e-06 -1.30722e-07 5.37848e-05
0.0018891 -7.18569e-05 2.18443e-06
-7.18569e-05 0.000117915 3.11164e-07
2.18443e-06 3.11164e-07 4.58215e-05
0.0017501 -0.000172466 -6.8867e-06
-0.000172466 -8.65075e-06 -1.06599e-06
-6.8867e-06 -1.06599e-06 -8.87298e-05
0.00127787 -0.000206004 -2.98192e-07
-0.000206004 -0.000126352 6.27342e-07
-2.98192e-07 6.27342e-07 -0.000240755
0.000931168 -9.95834e-05 -3.72604e-06
-9.95834e-05 0.000105287 -1.77383e-06
-3.72604e-06 -1.77383e-06 -2.64769e-05
0.00207421 -0.000240802 -3.08266e-06
-0.000240802 0.000589692 1.23339e-06
-3.08266e-06 1.23339e-06 0.000374611
0.000600538 4.34378e-05 -1.07941e-06
4.34378e-05 -6.58042e-05 -1.65276e-06
-1.07941e-06 -1.65276e-06 -0.000121234
0.000796619 -3.00353e-05 7.90045e-07
-3.00353e-05 3.58528e-05 -1.09703e-06
7.90045e-07 -1.09703e-06 -2.0218e-05
0.000981354 -3.84114e-05 9.79111e-07
-3.84114e-05 0.000155211 -3.72059e-07
9.79111e-07 -3.72059e-07 8.38138e-05
0.000655069 1.78056e-05 -3.91835e-07
1.78056e-05 -2.16488e-05 -3.69448e-07
-3.91835e-07 -3.69448e-07 -0.00010353
0.00103773 -1.88568e-05 2.6416e-07
-1.88568e-05 0.000183992 2.22933e-07
2.6416e-07 2.22933e-07 9.93285e-05
0.000507267 -2.15954e-05 4.91751e-07
-2.15954e-05 -9.24621e-05 6.77498e-07
4.91751e-07 6.77498e-07 -0.000193797
0.0010346 -8.07621e-05 5.64338e-06
-8.07621e-05 0.000224542 5.7559e-07
5.64338e-06 5.7559e-07 9.61965e-05
0.000749 -0.000119102 -1.24194e-05
-0.000119102 4.6167e-06 3.85266e-06
-1.24194e-05 3.85266e-06 -8.75793e-05
0.000689428 5.04539e-06 -2.29946e-07
5.04539e-06 -1.28324e-05 1.0617e-07
-2.29946e-07 1.0617e-07 -8.32561e-05
0.000822797 5.15404e-05 -1.76617e-06
5.15404e-05 7.35465e-05 -1.98693e-06
-1.76617e-06 -1.98693e-06 -2.06939e-05
0.00199803 0.000115472 1.62083e-07
0.000115472 0.000184189 -2.47065e-07
1.62083e-07 -2.47065e-07 0.000108035
0.00171012 0.000161761 2.40584e-06
0.000161761 7.09082e-05 1.56548e-06
2.40584e-06 1.56548e-06 -2.95492e-05
0.00119897 7.51581e-05 -2.52823e-06
7.51581e-05 0.000274748 -3.07259e-07
-2.52823e-06 -3.07259e-07 0.000155749
0.000928729 0.000124492 -5.83191e-07
0.000124492 0.000143992 -2.82957e-06
-5.83191e-07 -2.82957e-06 -1.03418e-05
0.00215084 0.000233407 1.57815e-06
0.000233407 0.000431562 5.5993e-07
1.57815e-06 5.5993e-07 0.000283058
0.00127849 0.000179758 -8.14118e-07
0.000179758 0.00021038 -9.3357e-07
-8.14118e-07 -9.3357e-07 1.60832e-05
0.000835791 5.42283e-06 5.18853e-07
5.42283e-06 7.2484e-05 -5.97415e-07
5.18853e-07 -5.97415e-07 -4.49078e-06
0.00177527 8.13899e-05 -3.27282e-07
8.13899e-05 4.08444e-05 1.87191e-07
-3.27282e-07 1.87191e-07 -2.58531e-05
0.000924213 8.27151e-05 1.0833e-07
8.27151e-05 0.000143963 1.23027e-06
1.0833e-07 1.23027e-06 3.09689e-05
0.000801074 0.000119828 4.26318e-07
0.000119828 5.55034e-05 -2.3673e-07
4.26318e-07 -2.3673e-07 -0.000106584
0.00199452 0.000144896 2.29151e-06
0.000144896 0.000118569 -1.24495e-07
2.29151e-06 -1.24495e-07 4.61631e-05
0.00174094 0.000222767 -2.29869e-08
0.000222767 7.34875e-05 -1.2611e-06
-2.29869e-08 -1.2611e-06 -4.81805e-05
0.0019855 0.000232316 9.38741e-07
0.000232316 0.000518055 1.2813e-06
9.38741e-07 1.2813e-06 0.000316582
0.00102114 2.51688e-05 -1.39789e-06
2.51688e-05 0.000185499 9.27359e-07
-1.39789e-06 9.27359e-07 9.06434e-05
0.0019861 9.4953e-05 -1.11277e-05
9.4953e-05 0.000124426 -9.30409e-07
-1.11277e-05 -9.30409e-07 8.00089e-05
0.00189582 0.000162336 -2.78e-06
0.000162336 0.000648222 2.78707e-07
-2.78e-06 2.78707e-07 0.000515898
0.00204985 0.000211869 -3.79282e-06
0.000211869 0.000678262 1.21724e-06
-3.79282e-06 1.21724e-06 0.000494307
0.00245674 0.00025248 -8.57856e-07
0.00025248 0.000343601 -1.37174e-06
-8.57856e-07 -1.37174e-06 0.000260725
0.00149139 0.000223098 -3.70865e-06
0.000223098 0.000133249 2.76152e-07
-3.70865e-06 2.76152e-07 -3.97783e-05
0.000284072 0.000102249 1.22211e-05
0.000102249 -0.000462973 4.65982e-07
1.22211e-05 4.65982e-07 -0.000611552
0.000844502 -6.36077e-06 1.0583e-08
-6.36077e-06 7.25935e-05 -1.49702e-07
1.0583e-08 -1.49702e-07 3.19201e-06
0.000877544 -2.20537e-05 -1.15166e-07
-2.20537e-05 9.76035e-05 2.09979e-07
-1.15166e-07 2.09979e-07 2.10969e-05
0.000920603 -1.32425e-05 3.27277e-08
-1.32425e-05 0.000114259 -9.72675e-07
3.27277e-08 -9.72675e-07 3.34278e-05
0.000797759 -4.35263e-05 -2.77246e-07
-4.35263e-05 2.98821e-05 -6.2166e-07
-2.77246e-07 -6.2166e-07 -2.29129e-05
0.000764958 -5.1303e-05 -1.00187e-06
-5.1303e-05 2.35653e-05 3.95911e-07
-1.00187e-06 3.95911e-07 -3.93696e-05
0.000891771 5.57709e-05 -8.70826e-07
5.57709e-05 0.000105157 5.89154e-07
-8.70826e-07 5.89154e-07 3.22289e-05
0.000793132 -4.3969e-05 3.3092e-08
-4.3969e-05 4.69862e-05 2.83325e-08
3.3092e-08 2.83325e-08 -2.75627e-05
0.000797019 -2.48554e-05 -8.85803e-08
-2.48554e-05 3.03551e-05 4.00981e-08
-8.85803e-08 4.00981e-08 -2.34997e-05
0.000769095 5.29532e-06 4.07836e-08
5.29532e-06 1.7857e-05 -7.65089e-08
4.07836e-08 -7.65089e-08 -4.39567e-05
0.000814314 -3.02806e-05 3.97264e-07
-3.02806e-05 5.4549e-05 -5.07158e-07
3.97264e-07 -5.07158e-07 -2.18447e-05
0.000889447 -2.20986e-05 -6.64482e-08
-2.20986e-05 9.21226e-05 4.71261e-08
-6.64482e-08 4.71261e-08 2.48757e-05
0.000887933 -4.41406e-05 3.48109e-07
-4.41406e-05 9.30577e-05 -3.0836e-08
3.48109e-07 -3.0836e-08 1.98273e-05
0.000848134 -3.63539e-05 -7.40792e-08
-3.63539e-05 6.59569e-05 -7.66783e-07
-7.40792e-08 -7.66783e-07 -9.14737e-06
0.000836051 -1.39126e-05 6.05194e-07
-1.39126e-05 5.55371e-05 -1.02736e-06
6.05194e-07 -1.02736e-06 -1.21311e-05
0.000877107 4.74785e-06 7.36194e-07
4.74785e-06 7.76946e-05 -3.98269e-07
7.36194e-07 -3.98269e-07 1.25121e-05
0.000830315 2.31689e-05 1.88189e-07
2.31689e-05 5.43203e-05 3.21056e-08
1.88189e-07 3.21056e-08 -1.4784e-05
0.00070416 -7.85674e-06 6.85269e-08
-7.85674e-06 -2.67781e-05 9.41503e-07
6.85269e-08 9.41503e-07 -7.89634e-05
0.000927134 -4.98955e-06 3.0165e-07
-4.98955e-06 0.000120748 -5.46406e-07
3.0165e-07 -5.46406e-07 4.91198e-05
0.000679253 7.75709e-06 -5.04526e-07
7.75709e-06 -3.61559e-05 9.24707e-07
-5.04526e-07 9.24707e-07 -9.01679e-05
0.000762411 1.25912e-05 1.56206e-07
1.25912e-05 -1.17026e-06 1.39595e-06
1.56206e-07 1.39595e-06 -3.46159e-05
0.000762569 3.06939e-06 -1.56246e-07
3.06939e-06 -1.96668e-06 3.69379e-09
-1.56246e-07 3.69379e-09 -3.49984e-05
0.000711173 8.37649e-07 2.33871e-07
8.37649e-07 -4.21874e-05 3.23204e-06
2.33871e-07 3.23204e-06 -4.62536e-05
0.00077521 -7.39129e-06 -4.36609e-08
-7.39129e-06 3.6217e-06 -1.46846e-06
-4.36609e-08 -1.46846e-06 -2.86019e-05
0.00101529 -5.46886e-06 -1.4184e-06
-5.46886e-06 0.00012645 -1.36663e-06
-1.4184e-06 -1.36663e-06 0.00012439
0.00213366 -8.6637e-06 6.12422e-06
-8.6637e-06 0.000748891 4.27621e-06
6.12422e-06 4.27621e-06 0.000770077
0.00133464 -1.2354e-05 -2.95478e-06
-1.2354e-05 0.000304899 -4.5469e-06
-2.95478e-06 -4.5469e-06 0.00030452
0.000931028 -1.25078e-05 1.97335e-06
-1.25078e-05 8.38768e-05 2.62323e-06
1.97335e-06 2.62323e-06 9.87648e-05
0.000873947 -1.79896e-05 -1.05572e-06
-1.79896e-05 5.50205e-05 -1.64017e-06
-1.05572e-06 -1.64017e-06 7.00242e-05
0.000771754 7.88527e-06 2.86885e-07
7.88527e-06 5.2688e-06 -1.69686e-06
2.86885e-07 -1.69686e-06 -2.60316e-05
0.00077455 9.85338e-06 -3.62862e-08
9.85338e-06 6.7256e-06 3.15453e-09
-3.62862e-08 3.15453e-09 -2.57028e-05
0.000716442 1.70619e-05 4.74471e-07
1.70619e-05 -3.48761e-05 -3.4198e-06
4.74471e-07 -3.4198e-06 -3.91676e-05
0.00101513 2.61647e-05 -4.66793e-07
2.61647e-05 0.000134861 3.25878e-08
-4.66793e-07 3.25878e-08 0.000130313
0.00213096 3.39416e-05 1.60621e-05
3.39416e-05 0.000756684 -4.09932e-06
1.60621e-05 -4.09932e-06 0.00077575
0.000716497 2.94745e-05 -1.05996e-06
2.94745e-05 -2.51674e-05 3.55519e-06
-1.05996e-06 3.55519e-06 -3.37932e-05
0.00219568 4.35102e-05 -1.95456e-06
4.35102e-05 0.00079897 -9.42002e-08
-1.95456e-06 -9.42002e-08 0.00081596
0.00228324 5.23017e-05 -2.63062e-05
5.23017e-05 0.000854865 3.83381e-06
-2.63062e-05 3.83381e-06 0.000869519
0.00172309 9.02954e-05 -1.89945e-07
9.02954e-05 4.2584e-05 -4.98947e-07
-1.89945e-07 -4.98947e-07 -4.6847e-05
0.00184355 3.65643e-05 1.01272e-06
3.65643e-05 0.000108637 -6.06345e-07
1.01272e-06 -6.06345e-07 1.61471e-05
0.00180828 1.13044e-06 1.46448e-07
1.13044e-06 0.000116907 -1.54717e-07
1.46448e-07 -1.54717e-07 1.207e-05
0.00177183 5.49693e-06 3.97455e-07
5.49693e-06 7.77352e-05 2.16538e-07
3.97455e-07 2.16538e-07 -1.56604e-05
0.00184445 4.83064e-05 -8.96811e-07
4.83064e-05 0.000106578 1.04987e-07
-8.96811e-07 1.04987e-07 2.4878e-05
0.00169272 3.28527e-05 2.18248e-06
3.28527e-05 3.67267e-06 1.72904e-07
2.18248e-06 1.72904e-07 -5.78951e-05
0.00160219 6.60621e-06 -1.34935e-06
6.60621e-06 -2.99646e-05 -2.47297e-07
-1.34935e-06 -2.47297e-07 -9.90645e-05
0.00336876 2.32757e-05 1.22178e-05
2.32757e-05 0.00069364 2.87235e-06
1.22178e-05 2.87235e-06 0.000638782
0.00161976 3.3475e-05 -6.61729e-06
3.3475e-05 -5.47291e-05 -3.57438e-07
-6.61729e-06 -3.57438e-07 -8.7823e-05
0.000797541 3.19079e-05 -7.41461e-08
3.19079e-05 3.99021e-05 -9.15502e-07
-7.41461e-08 -9.15502e-07 -1.13347e-05
0.00188709 -3.69652e-05 1.78837e-06
-3.69652e-05 0.000150508 1.0853e-07
1.78837e-06 1.0853e-07 5.9076e-05
0.00182545 -7.9053e-05 1.49765e-06
-7.9053e-05 0.000116835 -2.97971e-07
1.49765e-06 -2.97971e-07 3.54267e-05
0.00160457 -9.91782e-05 1.76029e-06
-9.91782e-05 -3.16272e-05 -9.86067e-09
1.76029e-06 -9.86067e-09 -0.000117214
0.000842716 -0.000120159 1.88898e-06
-0.000120159 8.59493e-05 3.20168e-06
1.88898e-06 3.20168e-06 -4.13954e-05
0.00111653 -0.000160068 1.44238e-06
-0.000160068 0.000153958 4.30411e-06
1.44238e-06 4.30411e-06 -4.71457e-05
0.0012567 -0.000189357 6.65512e-07
-0.000189357 2.29523e-06 -2.97572e-06
6.65512e-07 -2.97572e-06 -0.00015703
0.00174955 -0.000197138 1.10205e-06
-0.000197138 7.145e-05 -1.66627e-06
1.10205e-06 -1.66627e-06 -3.04691e-05
0.00108991 -0.000121672 7.57821e-06
-0.000121672 0.000157072 -3.44643e-06
7.57821e-06 -3.44643e-06 4.81953e-05
0.000549565 -0.000100435 1.338e-06
-0.000100435 -7.47017e-05 -8.854e-06
1.338e-06 -8.854e-06 -0.000164426
0.000665332 -7.34166e-05 -1.87909e-07
-7.34166e-05 -7.64982e-06 -7.41555e-07
-1.87909e-07 -7.41555e-07 -0.000116868
0.000768111 1.35878e-05 -8.55545e-07
1.35878e-05 5.06826e-06 1.81332e-06
-8.55545e-07 1.81332e-06 -2.91966e-05
0.000889246 -8.67757e-06 -1.39182e-08
-8.67757e-06 0.000101799 -6.73388e-07
-1.39182e-08 -6.73388e-07 1.22615e-05
0.00103932 -4.7755e-05 -3.58222e-07
-4.7755e-05 0.000175962 4.16218e-07
-3.58222e-07 4.16218e-07 0.000114239
0.000836859 -1.36707e-05 -8.2419e-07
-1.36707e-05 7.46139e-05 9.0565e-07
-8.2419e-07 9.0565e-07 -6.35393e-06
0.00064264 -8.52547e-06 -3.01992e-07
-8.52547e-06 -5.03036e-05 1.05422e-06
-3.01992e-07 1.05422e-06 -0.000103096
0.00188493 -4.60553e-05 -3.88002e-07
-4.60553e-05 0.000115484 -1.05951e-07
-3.88002e-07 -1.05951e-07 4.35066e-05
0.000695862 1.8015e-05 1.84207e-07
1.8015e-05 -1.24784e-05 -6.25268e-07
1.84207e-07 -6.25268e-07 -6.78283e-05
0.000799808 -4.18619e-05 -3.762e-07
-4.18619e-05 4.20926e-05 5.41023e-08
-3.762e-07 5.41023e-08 -1.71648e-05
0.000842551 -1.54701e-05 -6.1438e-07
-1.54701e-05 8.06086e-05 5.57395e-07
-6.1438e-07 5.57395e-07 6.90192e-06
0.0017599 -7.56278e-05 5.29222e-07
-7.56278e-05 4.0343e-05 -4.56605e-07
5.29222e-07 -4.56605e-07 -3.13555e-05
0.00180942 -0.000174485 2.15012e-07
-0.000174485 3.81633e-05 -2.19641e-07
2.15012e-07 -2.19641e-07 -4.34989e-05
0.000885023 -0.000106954 9.30762e-07
-0.000106954 6.75499e-05 -4.95262e-08
9.30762e-07 -4.95262e-08 -5.74642e-05
0.00114063 -0.000182672 1.03516e-06
-0.000182672 0.000120287 -2.7809e-07
1.03516e-06 -2.7809e-07 -9.76885e-05
0.00165736 -0.000228936 -8.55391e-07
-0.000228936 7.5621e-05 2.11157e-07
-8.55391e-07 2.11157e-07 -4.33521e-05
0.000757199 4.65291e-07 -1.81839e-07
4.65291e-07 3.48614e-05 -2.29428e-08
-1.81839e-07 -2.29428e-08 -4.65106e-05
0.000950565 -3.56639e-05 -3.92833e-08
-3.56639e-05 0.000140399 8.80829e-08
-3.92833e-08 8.80829e-08 5.24319e-05
0.000639785 -0.000114569 -5.64015e-06
-0.000114569 -4.46093e-05 1.2265e-06
-5.64015e-06 1.2265e-06 -0.000145537
0.000982669 -6.9575e-05 8.84585e-07
-6.9575e-05 0.00019079 -3.83864e-07
8.84585e-07 -3.83864e-07 6.82118e-05
0.0007449 -4.5787e-05 -4.63049e-07
-4.5787e-05 3.61055e-05 7.61205e-07
-4.63049e-07 7.61205e-07 -6.57671e-05
0.00192135 -9.53839e-05 -2.95718e-06
-9.53839e-05 8.32003e-05 1.01467e-07
-2.95718e-06 1.01467e-07 2.62e-05
0.00227235 -0.000112267 -1.85824e-06
-0.000112267 0.000276351 3.21415e-07
-1.85824e-06 3.21415e-07 0.000218851
0.00198339 -0.000250898 -3.37043e-06
-0.000250898 0.000137389 -2.65326e-07
-3.37043e-06 -2.65326e-07 3.68644e-05
0.0019154 -0.000247773 -6.9768e-06
-0.000247773 0.000398222 7.70929e-07
-6.9768e-06 7.70929e-07 0.000230582
0.000956329 -0.000109989 -3.93078e-06
-0.000109989 0.000144422 -1.97742e-06
-3.93078e-06 -1.97742e-06 -1.76851e-05
0.000628772 1.44867e-05 4.64786e-07
1.44867e-05 -3.83486e-05 -1.22169e-06
4.64786e-07 -1.22169e-06 -0.000111115
0.00067261 5.34582e-05 -1.22037e-07
5.34582e-05 -1.29563e-05 -8.00655e-07
-1.22037e-07 -8.00655e-07 -8.97567e-05
0.000970364 1.60177e-05 9.74151e-07
1.60177e-05 0.000150529 2.44481e-07
9.74151e-07 2.44481e-07 6.96837e-05
0.000805592 -6.27488e-05 1.5959e-06
-6.27488e-05 6.6012e-05 1.26171e-07
1.5959e-06 1.26171e-07 -2.37267e-05
0.000872528 -2.52991e-06 5.70649e-07
-2.52991e-06 9.46802e-05 1.02825e-06
5.70649e-07 1.02825e-06 4.97651e-06
0.000758784 -9.82949e-06 1.51527e-06
-9.82949e-06 5.69565e-05 -5.9494e-07
1.51527e-06 -5.9494e-07 -5.54649e-05
0.000718685 -8.82716e-05 8.37877e-06
-8.82716e-05 7.42019e-05 8.93579e-07
8.37877e-06 8.93579e-07 -8.77377e-05
0.000828623 3.96441e-05 3.35116e-07
3.96441e-05 7.33029e-05 -1.51261e-06
3.35116e-07 -1.51261e-06 -7.17469e-06
0.000633863 4.60506e-05 2.68855e-07
4.60506e-05 -1.67892e-05 -1.80962e-09
2.68855e-07 -1.80962e-09 -0.000124171
0.00185458 7.85253e-05 6.74981e-07
7.85253e-05 8.16077e-05 -5.84929e-07
6.74981e-07 -5.84929e-07 1.49022e-05
0.001788 0.00013848 3.1009e-06
0.00013848 1.00438e-05 -5.18758e-07
3.1009e-06 -5.18758e-07 -6.24352e-05
0.00189954 0.000226499 1.76264e-06
0.000226499 0.000153951 -5.2161e-07
1.76264e-06 -5.2161e-07 3.48649e-05
0.000564451 0.00010524 1.55889e-06
0.00010524 -7.13665e-05 -4.66566e-07
1.55889e-06 -4.66566e-07 -0.000235457
0.00188512 0.000230204 2.05418e-06
0.000230204 0.000471389 1.69227e-06
2.05418e-06 1.69227e-06 0.000270889
0.00101178 1.61813e-05 -2.44453e-07
1.61813e-05 0.000178362 1.95198e-07
-2.44453e-07 1.95198e-07 8.79299e-05
0.00189236 9.23687e-05 -1.24478e-06
9.23687e-05 6.83179e-05 -2.39376e-07
-1.24478e-06 -2.39376e-07 2.96518e-05
0.00128675 0.000128922 -9.67638e-07
0.000128922 0.000326772 1.79213e-07
-9.67638e-07 1.79213e-07 0.000198919
0.00142398 0.000171014 -6.31943e-07
0.000171014 0.000364472 9.61778e-07
-6.31943e-07 9.61778e-07 0.000178818
0.00214091 0.000233312 1.29535e-06
0.000233312 0.000173912 -6.28366e-07
1.29535e-06 -6.28366e-07 9.31949e-05
0.00144519 0.000221807 -1.48872e-06
0.000221807 0.0001116 1.08316e-06
-1.48872e-06 1.08316e-06 -6.52821e-05
0.0013842 0.000116983 1.21995e-05
0.000116983 -0.0001138 1.77136e-06
1.21995e-05 1.77136e-06 -0.000291345
0.0010814 4.82882e-05 -1.77416e-06
4.82882e-05 0.000214127 -1.21634e-06
-1.77416e-06 -1.21634e-06 0.000110764
0.00267998 0.000160826 -1.48916e-05
0.000160826 0.000487553 -9.94525e-06
-1.48916e-05 -9.94525e-06 0.000485134
0.00134543 0.00015913 -4.97052e-06
0.00015913 0.000365785 -1.1298e-06
-4.97052e-06 -1.1298e-06 0.000223762
0.00134105 0.000182384 -5.8764e-06
0.000182384 0.000268281 -3.02647e-07
-5.8764e-06 -3.02647e-07 6.24611e-05
0.000444166 0.000232753 -7.40546e-06
0.000232753 -0.000561993 -1.41243e-06
-7.40546e-06 -1.41243e-06 -0.000696466
0.00745934 3.14819e-05 -7.22057e-05
3.14819e-05 0.00235512 -2.75668e-05
-7.22057e-05 -2.75668e-05 0.00149747
0.00390455 0.000192409 9.10757e-05
0.000192409 0.0005893 3.97227e-06
9.10757e-05 3.97227e-06 -6.68621e-05
6.74579e-05 0.000199328 8.6341e-06
0.000199328 -0.000627079 1.79004e-05
8.6341e-06 1.79004e-05 -0.000719064
-0.00157291 -0.000335918 3.55382e-05
-0.000335918 -0.000665813 -1.12245e-05
3.55382e-05 -1.12245e-05 -0.000767437
0.00316183 -0.000641322 -2.27176e-05
-0.000641322 0.000397493 -1.07339e-05
-2.27176e-05 -1.07339e-05 0.00155661
0.00088216 -1.75045e-05 2.93048e-07
-1.75045e-05 9.9456e-05 -1.7071e-07
2.93048e-07 -1.7071e-07 2.32213e-05
0.000922171 -2.07814e-05 6.80821e-07
-2.07814e-05 0.000118175 -3.09504e-07
6.80821e-07 -3.09504e-07 3.78237e-05
0.000954156 2.32197e-05 -1.65746e-07
2.32197e-05 0.000137942 -1.97966e-06
-1.65746e-07 -1.97966e-06 5.74375e-05
0.000783835 -4.82981e-05 1.15864e-07
-4.82981e-05 2.68424e-05 -6.81782e-07
1.15864e-07 -6.81782e-07 -2.94436e-05
0.000723778 4.25044e-05 -9.13668e-07
4.25044e-05 -4.93984e-06 6.36222e-08
-9.13668e-07 6.36222e-08 -6.80872e-05
0.000883473 -4.73774e-05 -1.05141e-07
-4.73774e-05 8.95821e-05 2.35276e-07
-1.05141e-07 2.35276e-07 2.16985e-05
0.000974798 -2.86212e-05 -6.13751e-07
-2.86212e-05 0.000139496 3.57807e-07
-6.13751e-07 3.57807e-07 6.75272e-05
0.000842193 -3.51135e-05 2.03978e-07
-3.51135e-05 6.86898e-05 -3.8818e-07
2.03978e-07 -3.8818e-07 -8.39463e-06
0.000823533 3.03692e-05 -6.05515e-07
3.03692e-05 5.26591e-05 -2.2201e-07
-6.05515e-07 -2.2201e-07 -1.59007e-05
0.000741696 -3.79468e-06 -8.18537e-09
-3.79468e-06 -2.24247e-06 5.13347e-07
-8.18537e-09 5.13347e-07 -5.58129e-05
0.000830717 2.31377e-05 -3.03443e-07
2.31377e-05 5.3675e-05 -7.85958e-08
-3.03443e-07 -7.85958e-08 -1.42308e-05
0.000876798 -3.57306e-05 -2.39211e-07
-3.57306e-05 8.16974e-05 4.33911e-07
-2.39211e-07 4.33911e-07 6.93252e-06
0.000859307 -1.70232e-05 -7.47844e-08
-1.70232e-05 6.82847e-05 -2.07099e-07
-7.47844e-08 -2.07099e-07 6.70032e-07
0.000780852 1.16357e-05 5.10548e-07
1.16357e-05 2.11028e-05 -8.26018e-07
5.10548e-07 -8.26018e-07 -4.52814e-05
0.000802846 -1.93856e-05 7.27437e-07
-1.93856e-05 3.39339e-05 -1.65462e-06
7.27437e-07 -1.65462e-06 -3.16337e-05
0.000894557 1.81253e-05 1.39306e-06
1.81253e-05 8.10148e-05 -2.95939e-08
1.39306e-06 -2.95939e-08 1.35199e-05
0.000787148 2.53976e-06 1.01616e-06
2.53976e-06 2.23224e-05 -1.06937e-07
1.01616e-06 -1.06937e-07 -4.51001e-05
0.000685842 -3.59489e-05 -1.24778e-06
-3.59489e-05 -3.19059e-05 9.60933e-07
-1.24778e-06 9.60933e-07 -8.68783e-05
0.000880179 1.25915e-05 -3.90687e-07
1.25915e-05 8.27275e-05 -7.71308e-08
-3.90687e-07 -7.71308e-08 1.35217e-05
0.000943205 6.07167e-05 -1.17507e-08
6.07167e-05 0.000118292 -1.02435e-06
-1.17507e-08 -1.02435e-06 4.66536e-05
0.000780225 7.61952e-06 -6.56913e-07
7.61952e-06 3.75629e-05 -1.67893e-07
-6.56913e-07 -1.67893e-07 -2.94316e-05
0.000884486 1.19038e-05 5.7725e-07
1.19038e-05 9.05306e-05 -3.66048e-07
5.7725e-07 -3.66048e-07 2.21953e-05
0.000796208 -2.68184e-05 -1.39493e-06
-2.68184e-05 2.91052e-05 4.5102e-07
-1.39493e-06 4.5102e-07 -2.35371e-05
0.000690321 8.36342e-06 1.42892e-07
8.36342e-06 -2.6759e-05 4.59164e-07
1.42892e-07 4.59164e-07 -8.30207e-05
0.000771433 1.45532e-05 -2.0765e-07
1.45532e-05 3.81369e-06 1.41956e-06
-2.0765e-07 1.41956e-06 -2.95478e-05
0.00076087 5.64811e-06 -1.2676e-07
5.64811e-06 -2.20226e-06 1.64043e-09
-1.2676e-07 1.64043e-09 -3.55447e-05
0.000730343 6.26168e-06 -3.47672e-07
6.26168e-06 -3.03416e-05 4.59992e-06
-3.47672e-07 4.59992e-06 -3.49519e-05
0.000761563 -3.82442e-06 2.90477e-07
-3.82442e-06 -2.56223e-06 -1.42086e-06
2.90477e-07 -1.42086e-06 -3.55138e-05
0.000715285 1.03442e-06 2.25211e-07
1.03442e-06 -3.9902e-05 -7.56232e-09
2.25211e-07 -7.56232e-09 -4.39998e-05
0.00214973 -9.433e-07 3.06406e-07
-9.433e-07 0.000757355 4.34109e-06
3.06406e-07 4.34109e-06 0.000778411
0.000738571 -4.29166e-06 -5.54652e-07
-4.29166e-06 -2.65875e-05 -4.58917e-06
-5.54652e-07 -4.58917e-06 -3.04434e-05
0.00153441 -7.03494e-06 -3.65207e-07
-7.03494e-06 0.000416602 2.53208e-08
-3.65207e-07 2.53208e-08 0.000434606
0.000885538 -1.16836e-05 -5.49166e-07
-1.16836e-05 5.8008e-05 -1.6344e-06
-5.49166e-07 -1.6344e-06 7.3226e-05
0.00077487 4.54282e-06 -1.02568e-07
4.54282e-06 6.83252e-06 -1.72597e-06
-1.02568e-07 -1.72597e-06 -2.36227e-05
0.000770461 6.59577e-06 4.81407e-08
6.59577e-06 4.22028e-06 1.39194e-09
4.81407e-08 1.39194e-09 -2.70289e-05
0.000720222 1.13158e-05 2.29636e-07
1.13158e-05 -3.55295e-05 -3.41364e-06
2.29636e-07 -3.41364e-06 -3.86913e-05
0.00077501 8.68507e-06 -7.81935e-07
8.68507e-06 6.693e-06 1.82533e-06
-7.81935e-07 1.82533e-06 -2.57336e-05
0.00100694 1.92804e-05 -2.38687e-07
1.92804e-05 0.000125733 -6.88558e-07
-2.38687e-07 -6.88558e-07 0.000123068
0.00211199 2.52316e-05 1.21318e-05
2.52316e-05 0.000741784 -4.24529e-06
1.21318e-05 -4.24529e-06 0.000762078
0.000718102 2.38532e-05 -7.27715e-07
2.38532e-05 -2.93924e-05 3.47101e-06
-7.27715e-07 3.47101e-06 -3.56754e-05
0.00217229 3.38881e-05 -6.85129e-06
3.38881e-05 0.000780894 1.14351e-06
-6.85129e-06 1.14351e-06 0.000799622
0.00221352 4.39561e-05 -2.14271e-05
4.39561e-05 0.00080966 3.97527e-06
-2.14271e-05 3.97527e-06 0.000826391
0.00172016 4.69166e-05 8.81653e-07
4.69166e-05 4.51196e-05 -1.41972e-07
8.81653e-07 -1.41972e-07 -3.69847e-05
0.00175493 6.79939e-06 1.10835e-06
6.79939e-06 6.56278e-05 -1.53439e-07
1.10835e-06 -1.53439e-07 -2.80202e-05
0.00191141 3.23455e-05 3.8923e-06
3.23455e-05 0.000126675 7.55953e-08
3.8923e-06 7.55953e-08 6.26299e-05
0.00201591 2.81751e-05 1.25865e-05
2.81751e-05 2.93185e-05 2.23962e-06
1.25865e-05 2.23962e-06 -3.99849e-05
0.00183163 5.86505e-06 -5.93448e-07
5.86505e-06 9.14678e-05 -1.15595e-07
-5.93448e-07 -1.15595e-07 2.21242e-05
0.00182835 3.23942e-05 1.62178e-06
3.23942e-05 6.9292e-05 4.99439e-07
1.62178e-06 4.99439e-07 3.30126e-05
0.00234675 8.50429e-06 -6.88165e-06
8.50429e-06 0.000341285 4.98125e-07
-6.88165e-06 4.98125e-07 0.000284898
0.00326254 -2.38837e-05 0.000137831
-2.38837e-05 0.000495251 3.15886e-06
0.000137831 3.15886e-06 0.000160579
0.00164827 -2.90916e-05 -7.95008e-06
-2.90916e-05 -0.000123824 -3.3292e-06
-7.95008e-06 -3.3292e-06 -0.000186949
0.000800728 3.8336e-05 -8.47967e-07
3.8336e-05 4.31931e-05 -9.1638e-07
-8.47967e-07 -9.1638e-07 -8.87262e-06
0.000796035 -1.35714e-05 7.00924e-07
-1.35714e-05 4.22829e-05 -6.75677e-08
7.00924e-07 -6.75677e-08 -1.14201e-05
0.000792574 -5.17263e-05 1.41373e-07
-5.17263e-05 4.52107e-05 -2.96997e-07
1.41373e-07 -2.96997e-07 -2.02019e-05
0.000799144 -1.91575e-05 -1.32668e-06
-1.91575e-05 5.83033e-05 4.67357e-10
-1.32668e-06 4.67357e-10 -1.24404e-05
0.0018923 -4.92967e-05 1.69953e-06
-4.92967e-05 0.00011712 -2.28483e-07
1.69953e-06 -2.28483e-07 4.67066e-05
0.0016332 -8.06802e-05 -1.31785e-06
-8.06802e-05 -3.60744e-05 1.65136e-07
-1.31785e-06 1.65136e-07 -0.000107637
0.00186774 -0.000175007 -2.65097e-07
-0.000175007 8.12407e-05 7.7383e-07
-2.65097e-07 7.7383e-07 -2.39782e-06
0.000913242 -0.000130628 3.6388e-06
-0.000130628 7.43517e-05 2.40709e-06
3.6388e-06 2.40709e-06 -4.64877e-05
0.000185419 -0.0001232 3.99463e-06
-0.0001232 -0.000366174 -1.10707e-06
3.99463e-06 -1.10707e-06 -0.000583239
0.00217854 -0.000259163 8.79e-07
-0.000259163 0.000352064 -2.31807e-06
8.79e-07 -2.31807e-06 0.000228872
0.00058314 -0.00010109 -7.18249e-06
-0.00010109 -6.99721e-05 1.08628e-06
-7.18249e-06 1.08628e-06 -0.000177592
0.000994963 -6.0725e-05 -1.40603e-06
-6.0725e-05 0.000191605 -1.03618e-06
-1.40603e-06 -1.03618e-06 7.43863e-05
0.000971305 -7.0133e-05 -1.94406e-06
-7.0133e-05 0.000158836 1.05993e-06
-1.94406e-06 1.05993e-06 5.62463e-05
0.000807289 -1.72905e-05 -1.29645e-06
-1.72905e-05 4.41889e-05 1.17097e-06
-1.29645e-06 1.17097e-06 -1.37195e-05
0.00085055 -4.80722e-05 -5.06949e-07
-4.80722e-05 9.12988e-05 -1.43307e-07
-5.06949e-07 -1.43307e-07 -1.02689e-06
0.000867379 -3.02563e-06 -8.68873e-07
-3.02563e-06 9.33917e-05 6.01741e-07
-8.68873e-07 6.01741e-07 1.40795e-05
0.000802444 -4.27745e-06 -1.04225e-08
-4.27745e-06 4.78056e-05 4.3806e-07
-1.04225e-08 4.3806e-07 -8.07136e-06
0.000700624 1.88394e-05 -1.18177e-07
1.88394e-05 5.11242e-06 1.33347e-06
-1.18177e-07 1.33347e-06 -7.109e-05
0.00194147 -8.05649e-05 -1.09637e-08
-8.05649e-05 0.000114779 3.36394e-07
-1.09637e-08 3.36394e-07 5.63761e-05
0.000805961 9.46987e-06 6.00334e-07
9.46987e-06 5.86638e-05 -4.60869e-07
6.00334e-07 -4.60869e-07 -1.27752e-05
0.000754498 2.1969e-05 5.34495e-07
2.1969e-05 3.32234e-05 -4.73358e-08
5.34495e-07 -4.73358e-08 -4.41569e-05
0.000861212 5.54007e-05 -4.03229e-07
5.54007e-05 9.43431e-05 7.29173e-07
-4.03229e-07 7.29173e-07 1.1949e-05
0.00197309 -0.000106885 -2.86612e-06
-0.000106885 0.000103335 7.62061e-07
-2.86612e-06 7.62061e-07 4.18323e-05
0.00186792 -0.000236796 6.31389e-07
-0.000236796 9.03093e-05 -9.82049e-07
6.31389e-07 -9.82049e-07 -7.80075e-06
0.000997275 -0.000139338 -1.24122e-06
-0.000139338 0.000153768 4.31704e-08
-1.24122e-06 4.31704e-08 -6.82907e-06
0.0021342 -0.000260058 -5.72997e-07
-0.000260058 0.000510405 -1.09734e-07
-5.72997e-07 -1.09734e-07 0.000339025
0.000905252 -1.76267e-05 -3.16766e-07
-1.76267e-05 0.00011682 5.21263e-08
-3.16766e-07 5.21263e-08 2.90252e-05
0.000826796 -1.91445e-05 -2.34919e-08
-1.91445e-05 7.6642e-05 9.15573e-07
-2.34919e-08 9.15573e-07 -1.54015e-05
0.000804709 -9.18956e-05 3.79061e-06
-9.18956e-05 0.000110518 -1.07266e-06
3.79061e-06 -1.07266e-06 -4.30962e-05
0.00101623 -5.79777e-05 9.625e-07
-5.79777e-05 0.000199802 -1.13808e-06
9.625e-07 -1.13808e-06 7.91029e-05
0.00180383 -6.80281e-05 -3.62031e-06
-6.80281e-05 -8.61734e-06 3.05375e-06
-3.62031e-06 3.05375e-06 -7.15554e-05
0.00226295 -0.000211285 -5.48377e-06
-0.000211285 0.00020522 -1.55565e-06
-5.48377e-06 -1.55565e-06 0.000155837
0.00221996 -0.000277186 -3.50455e-06
-0.000277186 0.000395257 -1.76233e-06
-3.50455e-06 -1.76233e-06 0.000255322
0.00129605 -0.000197503 -1.49595e-06
-0.000197503 0.00029342 -1.26611e-06
-1.49595e-06 -1.26611e-06 0.000122646
0.000766752 2.69471e-05 -4.06934e-07
2.69471e-05 4.29298e-05 -4.22977e-07
-4.06934e-07 -4.22977e-07 -4.45924e-05
0.000782645 -3.70449e-05 6.58195e-07
-3.70449e-05 5.68714e-05 -7.30701e-07
6.58195e-07 -7.30701e-07 -3.09839e-05
0.000820463 -2.13104e-05 2.32951e-07
-2.13104e-05 7.69408e-05 3.05541e-07
2.32951e-07 3.05541e-07 -2.0159e-05
0.000863314 -1.92837e-07 -8.71042e-07
-1.92837e-07 0.000143828 3.27059e-07
-8.71042e-07 3.27059e-07 -2.28907e-05
0.000487725 -0.000100423 5.83707e-06
-0.000100423 -0.0012469 -3.13961e-06
5.83707e-06 -3.13961e-06 -0.00171245
0.000986483 9.69554e-06 8.63803e-07
9.69554e-06 0.000162153 -1.02541e-06
8.63803e-07 -1.02541e-06 7.67018e-05
0.000661106 8.56006e-05 1.84332e-06
8.56006e-05 -5.06591e-06 1.09965e-06
1.84332e-06 1.09965e-06 -0.000127161
0.00177545 9.06308e-05 9.86086e-06
9.06308e-05 1.18802e-07 3.8254e-07
9.86086e-06 3.8254e-07 -3.19695e-05
0.00187498 0.000216643 4.9317e-07
0.000216643 3.01162e-05 -1.12855e-06
4.9317e-07 -1.12855e-06 -4.84617e-05
0.00132586 0.000216408 3.50819e-06
0.000216408 5.34845e-05 2.57702e-06
3.50819e-06 2.57702e-06 -0.000128875
0.000766578 0.00012775 3.46582e-06
0.00012775 3.37795e-05 1.1706e-06
3.46582e-06 1.1706e-06 -0.000153684
0.00237193 0.00013964 9.91001e-06
0.00013964 0.000196003 8.1644e-07
9.91001e-06 8.1644e-07 -2.2044e-05
0.000962518 4.24645e-05 8.04616e-07
4.24645e-05 0.000155711 -7.65225e-07
8.04616e-07 -7.65225e-07 5.44395e-05
0.00218212 0.000150264 -6.1877e-06
0.000150264 0.000228683 -2.31426e-06
-6.1877e-06 -2.31426e-06 0.000237678
0.00105775 0.000139537 1.14409e-07
0.000139537 0.000216626 -2.23767e-07
1.14409e-07 -2.23767e-07 7.83953e-05
0.00116049 0.000176882 -2.42311e-07
0.000176882 0.000182838 6.95271e-07
-2.42311e-07 6.95271e-07 -2.52049e-05
0.00122707 0.000270958 -2.1855e-06
0.000270958 -0.000181405 -5.04489e-07
-2.1855e-06 -5.04489e-07 -0.000309687
0.00269094 -0.000154014 -5.02506e-05
-0.000154014 2.9456e-05 -1.62146e-05
-5.02506e-05 -1.62146e-05 -0.000765897
0.00353825 0.000122951 3.89942e-06
0.000122951 0.000272837 -1.4641e-05
3.89942e-06 -1.4641e-05 -0.000483646
0.000306281 0.000171954 6.48002e-06
0.000171954 -0.000502778 5.55656e-06
6.48002e-06 5.55656e-06 -0.000600714
-0.00190675 -0.000197719 4.53974e-05
-0.000197719 -0.000491866 1.16193e-05
4.53974e-05 1.16193e-05 -0.000918636
-0.00010112 -0.000660385 2.62322e-06
-0.000660385 -0.00120449 -9.93109e-06
2.62322e-06 -9.93109e-06 0.000142175
0.00120922 9.37382e-05 -2.23693e-06
9.37382e-05 0.0003104 -2.42509e-06
-2.23693e-06 -2.42509e-06 0.000207695
0.000757933 0.000141071 -5.50846e-05
0.000141071 0.00079852 -2.37891e-05
-5.50846e-05 -2.37891e-05 0.000337276
0.00148769 -0.000339497 -4.66146e-05
-0.000339497 0.00072069 -4.40223e-05
-4.66146e-05 -4.40223e-05 0.000873159
0.0020139 0.000208476 -1.94106e-05
0.000208476 0.000191637 -5.70502e-06
-1.94106e-05 -5.70502e-06 0.000213197
0.00105474 8.58504e-05 -7.42453e-06
8.58504e-05 0.000232925 -1.72482e-06
-7.42453e-06 -1.72482e-06 8.15566e-05
0.00102805 0.00025417 -1.28261e-05
0.00025417 3.65767e-05 -6.57009e-06
-1.28261e-05 -6.57009e-06 -0.000181362
-0.000237024 0.000220397 7.23669e-06
0.000220397 -0.000782307 4.62156e-05
7.23669e-06 4.62156e-05 -0.000761255
0.00713332 -0.000113127 -4.53946e-05
-0.000113127 0.00247012 -1.45049e-05
-4.53946e-05 -1.45049e-05 0.00117005
0.00369383 0.00032178 -7.57198e-06
0.00032178 0.000515248 2.14742e-05
-7.57198e-06 2.14742e-05 -0.000526689
0.000760261 -0.00053652 -7.44583e-07
-0.00053652 -0.000101425 1.49507e-06
-7.44583e-07 1.49507e-06 0.000204767
0.00104737 -0.000365148 -2.96337e-05
-0.000365148 -0.00158301 2.36624e-05
-2.96337e-05 2.36624e-05 -0.000520461
0.000902203 -2.77405e-05 8.71778e-07
-2.77405e-05 0.000111643 -3.77182e-07
8.71778e-07 -3.77182e-07 3.15171e-05
0.000935994 1.0935e-05 -4.11188e-08
1.0935e-05 0.000128472 3.74234e-08
-4.11188e-08 3.74234e-08 4.87458e-05
0.00112227 4.68837e-05 -7.04992e-07
4.68837e-05 0.000227136 -2.72068e-06
-7.04992e-07 -2.72068e-06 0.000161273
0.000780237 2.74814e-06 -1.31605e-07
2.74814e-06 2.84408e-05 -8.94393e-08
-1.31605e-07 -8.94393e-08 -3.02639e-05
0.000837934 1.64238e-05 -6.7898e-07
1.64238e-05 5.65036e-05 -1.12933e-07
-6.7898e-07 -1.12933e-07 -1.01822e-05
0.000773676 -3.32949e-05 -5.62853e-07
-3.32949e-05 1.98979e-05 1.23206e-07
-5.62853e-07 1.23206e-07 -4.52559e-05
0.000897733 -1.9125e-05 6.89308e-08
-1.9125e-05 8.93785e-05 3.3547e-07
6.89308e-08 3.3547e-07 2.15665e-05
0.000934653 -3.87148e-05 -1.85755e-07
-3.87148e-05 0.000114014 1.51103e-06
-1.85755e-07 1.51103e-06 3.90803e-05
0.000690405 -2.93649e-07 4.77444e-07
-2.93649e-07 -2.72246e-05 4.64596e-07
4.77444e-07 4.64596e-07 -8.37216e-05
0.00083531 -1.48142e-05 -1.48377e-07
-1.48142e-05 5.00351e-05 -1.72438e-07
-1.48377e-07 -1.72438e-07 -1.64485e-05
0.000903652 -1.41928e-05 -4.63669e-08
-1.41928e-05 8.81327e-05 2.70406e-07
-4.63669e-08 2.70406e-07 1.99816e-05
0.00085942 2.4209e-05 5.37709e-07
2.4209e-05 6.88684e-05 -2.16175e-07
5.37709e-07 -2.16175e-07 -2.08477e-06
0.000827873 -1.70086e-05 1.89905e-07
-1.70086e-05 4.71607e-05 -9.71332e-08
1.89905e-07 -9.71332e-08 -1.79399e-05
0.000823403 -2.36855e-05 6.02582e-07
-2.36855e-05 3.70961e-05 -8.45962e-07
6.02582e-07 -8.45962e-07 -2.89054e-05
0.000827561 1.32922e-05 -5.53021e-07
1.32922e-05 3.81705e-05 -3.64959e-06
-5.53021e-07 -3.64959e-06 -2.04713e-05
0.00091842 -5.66685e-05 2.14605e-07
-5.66685e-05 9.12031e-05 -4.17936e-07
2.14605e-07 -4.17936e-07 2.06654e-05
0.00089464 -4.29293e-05 -4.84226e-07
-4.29293e-05 9.02475e-05 -4.38151e-07
-4.84226e-07 -4.38151e-07 1.86572e-05
0.00089648 -7.97495e-06 -4.50413e-07
-7.97495e-06 9.19101e-05 -1.37877e-07
-4.50413e-07 -1.37877e-07 2.20496e-05
0.000920206 4.94748e-05 -4.26377e-07
4.94748e-05 0.000102545 -2.80062e-07
-4.26377e-07 -2.80062e-07 3.24722e-05
0.000882081 2.12716e-05 -3.71619e-07
2.12716e-05 8.40176e-05 -9.35318e-07
-3.71619e-07 -9.35318e-07 6.70923e-06
0.000836911 4.90192e-05 1.88952e-07
4.90192e-05 6.33166e-05 -6.40912e-07
1.88952e-07 -6.40912e-07 -6.56254e-06
0.000879467 5.62538e-05 -5.49225e-08
5.62538e-05 7.78694e-05 -1.10009e-06
-5.49225e-08 -1.10009e-06 9.21777e-06
0.000764065 4.13602e-05 1.40679e-06
4.13602e-05 3.70239e-05 1.05914e-06
1.40679e-06 1.05914e-06 -3.69672e-05
0.000784003 2.07036e-05 -2.61088e-07
2.07036e-05 3.50866e-05 -7.73648e-08
-2.61088e-07 -7.73648e-08 -2.64711e-05
0.000804271 2.38677e-06 -6.79861e-08
2.38677e-06 4.86267e-05 1.3443e-08
-6.79861e-08 1.3443e-08 -1.71064e-05
0.000792123 1.05847e-05 -1.04698e-06
1.05847e-05 2.46628e-05 3.60789e-07
-1.04698e-06 3.60789e-07 -2.52649e-05
0.000838745 1.58158e-05 6.92359e-07
1.58158e-05 5.74788e-05 -1.18324e-07
6.92359e-07 -1.18324e-07 -6.7296e-06
0.000763081 -2.18514e-05 -3.45662e-08
-2.18514e-05 1.07019e-05 1.73994e-08
-3.45662e-08 1.73994e-08 -4.24145e-05
0.000775497 1.66073e-05 -5.57974e-07
1.66073e-05 6.15241e-06 1.48362e-06
-5.57974e-07 1.48362e-06 -2.6938e-05
0.00070107 8.39011e-06 4.61429e-07
8.39011e-06 -1.79458e-05 -6.68968e-08
4.61429e-07 -6.68968e-08 -7.61672e-05
0.000765713 8.66813e-06 -1.22139e-07
8.66813e-06 3.1337e-07 1.27947e-09
-1.22139e-07 1.27947e-09 -3.28922e-05
0.00134496 1.39472e-05 -2.96369e-06
1.39472e-05 0.000312103 4.51619e-06
-2.96369e-06 4.51619e-06 0.000310442
0.000758454 -1.19944e-06 5.78374e-07
-1.19944e-06 -3.67228e-06 -1.40496e-06
5.78374e-07 -1.40496e-06 -3.6929e-05
0.00103216 7.39044e-06 -1.40605e-06
7.39044e-06 0.000136863 6.79647e-07
-1.40605e-06 6.79647e-07 0.000133931
0.000943651 3.56722e-06 -3.03768e-06
3.56722e-06 8.94285e-05 4.22783e-06
-3.03768e-06 4.22783e-06 0.000103886
0.000720544 1.22363e-06 9.54298e-09
1.22363e-06 -3.69622e-05 -3.21818e-06
9.54298e-09 -3.21818e-06 -4.11012e-05
0.00215443 -2.37657e-07 2.71715e-06
-2.37657e-07 0.000759993 -6.90368e-10
2.71715e-06 -6.90368e-10 0.000781
0.000953146 -3.84925e-06 -2.52238e-06
-3.84925e-06 9.43914e-05 -4.22103e-06
-2.52238e-06 -4.22103e-06 0.000109285
0.000798739 5.45488e-05 5.62842e-07
5.45488e-05 4.50912e-05 -2.07368e-07
5.62842e-07 -2.07368e-07 -1.01344e-05
0.000772604 6.25051e-07 -8.84062e-08
6.25051e-07 5.15865e-06 -1.67984e-06
-8.84062e-08 -1.67984e-06 -2.47558e-05
0.000772652 3.42994e-06 -1.0207e-07
3.42994e-06 5.41024e-06 -8.3629e-09
-1.0207e-07 -8.3629e-09 -2.49903e-05
0.000724076 5.36549e-06 -6.89976e-08
5.36549e-06 -3.50564e-05 -3.38494e-06
-6.89976e-08 -3.38494e-06 -3.73313e-05
0.000770812 5.39172e-06 -3.66776e-07
5.39172e-06 4.06335e-06 1.70837e-06
-3.66776e-07 1.70837e-06 -2.71429e-05
0.000715341 1.14988e-05 2.59894e-08
1.14988e-05 -3.86077e-05 -7.0508e-07
2.59894e-08 -7.0508e-07 -4.1677e-05
0.00209362 1.64792e-05 8.1177e-06
1.64792e-05 0.000728592 -4.34658e-06
8.1177e-06 -4.34658e-06 0.00074978
0.00129561 2.30711e-05 -1.19549e-06
2.30711e-05 0.000286047 2.06182e-06
-1.19549e-06 2.06182e-06 0.000284752
0.00153684 2.15549e-05 3.62172e-07
2.15549e-05 0.000424075 1.35397e-06
3.62172e-07 1.35397e-06 0.000440949
0.000991428 2.41884e-05 -1.62343e-05
2.41884e-05 0.000126907 6.83514e-06
-1.62343e-05 6.83514e-06 0.000139178
0.000232873 4.02781e-05 1.99572e-05
4.02781e-05 -0.000847894 8.37112e-06
1.99572e-05 8.37112e-06 -0.000940525
0.00202982 4.98598e-06 2.72077e-06
4.98598e-06 0.000195234 1.68992e-07
2.72077e-06 1.68992e-07 0.000125585
0.00200816 3.01587e-05 9.45389e-06
3.01587e-05 0.000177693 -7.31064e-07
9.45389e-06 -7.31064e-07 0.000137382
0.000902529 1.33991e-05 2.29294e-05
1.33991e-05 -0.000470739 -4.1094e-06
2.29294e-05 -4.1094e-06 -0.000823918
0.00178934 -2.27764e-05 1.60547e-07
-2.27764e-05 3.56041e-06 5.94989e-07
1.60547e-07 5.94989e-07 -5.87661e-05
0.00199626 -7.39592e-07 -2.84112e-06
-7.39592e-07 9.81273e-05 -1.0495e-06
-2.84112e-06 -1.0495e-06 4.69745e-05
0.00209826 -1.53337e-05 -2.49958e-05
-1.53337e-05 0.000170897 1.92193e-06
-2.49958e-05 1.92193e-06 0.000116515
0.00170405 -9.71072e-05 0.000133826
-9.71072e-05 -0.000100585 -9.3749e-06
0.000133826 -9.3749e-06 -0.000420078
0.00815627 -3.24562e-05 -2.9475e-05
-3.24562e-05 0.00269692 2.11988e-06
-2.9475e-05 2.11988e-06 0.00181361
0.00341293 0.000659927 3.46637e-05
0.000659927 0.00163494 -9.76011e-06
3.46637e-05 -9.76011e-06 0.00182189
0.00208976 0.000629361 -1.25275e-05
0.000629361 0.000580395 1.20113e-05
-1.25275e-05 1.20113e-05 0.00159514
0.000664881 -5.73846e-05 1.12618e-06
-5.73846e-05 -1.97265e-05 -8.448e-07
1.12618e-06 -8.448e-07 -8.78802e-05
0.000801513 -9.80307e-06 3.50013e-07
-9.80307e-06 4.50657e-05 -4.99431e-08
3.50013e-07 -4.99431e-08 -7.99419e-06
0.000794656 -5.93139e-05 -1.12442e-06
-5.93139e-05 4.53072e-05 1.06631e-06
-1.12442e-06 1.06631e-06 -1.11142e-05
0.000777378 -2.41557e-05 -3.1543e-07
-2.41557e-05 4.1007e-05 5.05348e-08
-3.1543e-07 5.05348e-08 -2.77166e-05
0.00077628 4.06925e-05 1.84167e-07
4.06925e-05 5.23881e-05 6.10839e-07
1.84167e-07 6.10839e-07 -2.87421e-05
0.000923208 8.01221e-05 4.65038e-07
8.01221e-05 0.000122213 8.35008e-07
4.65038e-07 8.35008e-07 4.56932e-05
0.000853013 -2.44047e-05 6.93934e-07
-2.44047e-05 8.15878e-05 -9.07724e-07
6.93934e-07 -9.07724e-07 1.32555e-05
0.000762243 -3.58058e-05 -4.99705e-07
-3.58058e-05 3.40228e-05 6.12534e-07
-4.99705e-07 6.12534e-07 -3.43399e-05
0.00196394 -6.4635e-05 3.16916e-06
-6.4635e-05 0.000148778 -5.09944e-07
3.16916e-06 -5.09944e-07 8.94282e-05
0.00166689 -0.000106171 1.69007e-06
-0.000106171 -8.14455e-05 -1.04756e-07
1.69007e-06 -1.04756e-07 -0.000146617
0.00161333 -0.000220422 5.30798e-07
-0.000220422 -2.95029e-05 1.89881e-07
5.30798e-07 1.89881e-07 -0.00012503
0.000946551 -0.000151154 1.62888e-06
-0.000151154 0.000111113 2.62249e-06
1.62888e-06 2.62249e-06 -4.66317e-05
0.00210218 -0.0002584 1.47569e-06
-0.0002584 0.000493342 2.95297e-07
1.47569e-06 2.95297e-07 0.000316782
0.000850881 -9.30496e-05 -7.21359e-07
-9.30496e-05 0.000126353 -5.40093e-07
-7.21359e-07 -5.40093e-07 -1.93067e-05
0.001261 -0.000103936 -2.86073e-07
-0.000103936 0.000336349 -5.18975e-07
-2.86073e-07 -5.18975e-07 0.000207275
0.000805525 -4.44239e-05 -1.44996e-06
-4.44239e-05 7.16252e-05 6.01896e-07
-1.44996e-06 6.01896e-07 -2.27772e-05
0.000805033 -1.81896e-06 9.96749e-08
-1.81896e-06 6.19306e-05 7.03577e-07
9.96749e-08 7.03577e-07 -1.55127e-05
0.0010081 1.29938e-05 -1.17007e-06
1.29938e-05 0.000169418 -2.22378e-07
-1.17007e-06 -2.22378e-07 8.36287e-05
0.00100976 -3.1418e-06 6.12255e-07
-3.1418e-06 0.000169187 3.60797e-07
6.12255e-07 3.60797e-07 9.93838e-05
0.000765489 9.12626e-05 1.06864e-06
9.12626e-05 4.48875e-05 1.59024e-06
1.06864e-06 1.59024e-06 -3.91527e-05
0.00160629 -6.88182e-05 -1.1369e-06
-6.88182e-05 -0.000120041 -2.18514e-06
-1.1369e-06 -2.18514e-06 -0.000178525
0.000834837 3.18566e-05 -4.3549e-07
3.18566e-05 8.02157e-05 2.5888e-07
-4.3549e-07 2.5888e-07 -5.30583e-06
0.000844515 -2.74604e-05 -4.05098e-07
-2.74604e-05 8.57756e-05 -3.52615e-07
-4.05098e-07 -3.52615e-07 2.57553e-07
0.00207015 -0.000213637 -1.65514e-07
-0.000213637 0.000109361 -9.4623e-07
-1.65514e-07 -9.4623e-07 5.39638e-05
0.00114948 -0.000224467 7.58754e-07
-0.000224467 -0.000148164 1.11272e-06
7.58754e-07 1.11272e-06 -0.00027695
0.00132473 -0.000200573 1.083e-06
-0.000200573 0.000301503 -1.41633e-06
1.083e-06 -1.41633e-06 0.000120004
0.00096598 -2.03632e-05 1.86026e-07
-2.03632e-05 0.000156584 -5.64777e-07
1.86026e-07 -5.64777e-07 5.69416e-05
0.000969482 -3.13198e-05 1.34282e-07
-3.13198e-05 0.000197621 5.23155e-07
1.34282e-07 5.23155e-07 3.11743e-05
0.00377749 -0.000179057 -1.08196e-05
-0.000179057 0.00115045 5.1105e-06
-1.08196e-05 5.1105e-06 0.0010743
0.00295305 -0.000306165 -1.17672e-05
-0.000306165 0.000638428 1.48271e-06
-1.17672e-05 1.48271e-06 0.00058829
-0.000644927 -0.000141567 -3.65653e-06
-0.000141567 -0.000885407 -1.2496e-06
-3.65653e-06 -1.2496e-06 -0.00102458
0.00112731 -0.000125151 -4.52963e-06
-0.000125151 0.000237063 3.29596e-06
-4.52963e-06 3.29596e-06 4.34236e-05
0.000721201 -7.46666e-05 1.08604e-06
-7.46666e-05 1.00787e-05 -1.30738e-07
1.08604e-06 -1.30738e-07 -7.40435e-05
0.000857431 -3.04482e-05 9.9636e-07
-3.04482e-05 8.82096e-05 5.2005e-08
9.9636e-07 5.2005e-08 -1.58696e-06
0.000947235 -6.70806e-06 -2.23157e-06
-6.70806e-06 0.000153307 5.167e-07
-2.23157e-06 5.167e-07 3.90797e-05
-0.00390683 -3.3417e-05 6.68892e-05
-3.3417e-05 -0.00175356 5.80149e-06
6.68892e-05 5.80149e-06 -0.00157594
0.00832087 -5.64585e-05 -3.13176e-05
-5.64585e-05 0.00285445 -5.8814e-07
-3.13176e-05 -5.8814e-07 0.00227083
0.000891247 4.08662e-05 2.26607e-06
4.08662e-05 0.000123493 -3.6594e-07
2.26607e-06 -3.6594e-07 2.33387e-05
0.000773729 0.000120355 3.20105e-06
0.000120355 6.89394e-05 -3.60754e-08
3.20105e-06 -3.60754e-08 -6.59502e-05
0.00169027 0.000132925 4.63758e-06
0.000132925 -3.18092e-05 6.03632e-06
4.63758e-06 6.03632e-06 -8.95524e-06
0.00201463 0.000309377 2.83843e-06
0.000309377 0.000202184 1.10688e-06
2.83843e-06 1.10688e-06 8.06852e-05
0.0010267 0.000173336 5.51087e-06
0.000173336 0.000120665 1.76044e-06
5.51087e-06 1.76044e-06 -8.85719e-05
0.0052754 0.000187641 6.05913e-05
0.000187641 0.00124855 6.98002e-07
6.05913e-05 6.98002e-07 0.000297222
0.00535663 0.00017972 -8.57853e-05
0.00017972 0.00103598 -2.92738e-05
-8.57853e-05 -2.92738e-05 0.000410492
0.000195894 0.0001346 3.63945e-06
0.0001346 -0.000565005 -1.87116e-05
3.63945e-06 -1.87116e-05 -0.000655774
0.00379479 -0.000535612 1.49725e-05
-0.000535612 0.00189013 2.04395e-05
1.49725e-05 2.04395e-05 0.00178847
-0.00335598 -0.000697638 -3.52995e-05
-0.000697638 -0.00274274 -4.61182e-05
-3.52995e-05 -4.61182e-05 -0.00119336
0.000969254 0.000100483 4.06583e-07
0.000100483 0.000184606 -7.04027e-07
4.06583e-07 -7.04027e-07 8.05857e-05
-0.00256385 -0.00016215 2.31841e-05
-0.00016215 -0.00136617 2.92084e-06
2.31841e-05 2.92084e-06 -0.00132685
-0.000418029 -0.00031167 -2.79851e-05
-0.00031167 -5.58985e-05 -1.00699e-05
-2.79851e-05 -1.00699e-05 -0.000137533
0.00246123 0.000216569 -3.94743e-06
0.000216569 0.000400885 -3.24188e-06
-3.94743e-06 -3.24188e-06 0.000436614
0.000891489 9.93943e-05 -7.46408e-07
9.93943e-05 0.000161708 -5.97598e-07
-7.46408e-07 -5.97598e-07 8.4957e-06
0.00059917 0.000190824 1.35756e-06
0.000190824 -0.0001628 1.38947e-06
1.35756e-06 1.38947e-06 -0.000372213
0.000179403 0.000140361 1.54174e-05
0.000140361 -0.000504522 1.06144e-05
1.54174e-05 1.06144e-05 -0.00044134
0.00621634 -6.95428e-05 -6.86511e-06
-6.95428e-05 0.00189638 -4.19388e-06
-6.86511e-06 -4.19388e-06 0.000500238
0.00593186 0.000454756 -2.88269e-05
0.000454756 0.00147981 -1.67783e-05
-2.88269e-05 -1.67783e-05 0.000740067
0.00468457 -0.0007683 1.87064e-05
-0.0007683 0.00194149 -1.41804e-05
1.87064e-05 -1.41804e-05 0.00200381
0.00104393 -0.000424863 2.42807e-05
-0.000424863 -0.00168707 5.56422e-05
2.42807e-05 5.56422e-05 -0.000576091
0.00104146 5.95419e-05 -5.51452e-06
5.95419e-05 0.000240605 -5.22911e-06
-5.51452e-06 -5.22911e-06 0.000152069
-0.00217132 -9.45831e-05 -7.00666e-05
-9.45831e-05 -0.000341242 -2.04181e-05
-7.00666e-05 -2.04181e-05 -0.000914058
0.00190031 -1.77935e-05 -5.81844e-05
-1.77935e-05 0.000191859 -6.05801e-05
-5.81844e-05 -6.05801e-05 -0.000286443
0.000582772 0.000196527 -2.28137e-05
0.000196527 -0.000270151 -8.34133e-07
-2.28137e-05 -8.34133e-07 -0.000257922
0.00158104 0.000215031 -2.4167e-05
0.000215031 0.00058299 -6.85104e-06
-2.4167e-05 -6.85104e-06 0.000409237
0.00230804 0.000128228 -4.09263e-05
0.000128228 0.000888263 -1.93728e-06
-4.09263e-05 -1.93728e-06 0.000784595
0.00475973 0.000610702 -9.85994e-05
0.000610702 0.0010526 7.12196e-06
-9.85994e-05 7.12196e-06 0.000643223
-0.00116655 -6.11285e-05 4.20689e-05
-6.11285e-05 -0.00105288 4.58407e-05
4.20689e-05 4.58407e-05 -0.00287289
0.00660067 -0.000748573 -5.07713e-05
-0.000748573 0.00169687 2.16913e-05
-5.07713e-05 2.16913e-05 0.00184035
0.0016576 -0.000248701 -1.14655e-05
-0.000248701 -0.00181635 -1.57358e-05
-1.14655e-05 -1.57358e-05 -0.000737683
0.000906431 2.3439e-05 9.66487e-07
2.3439e-05 0.000116736 2.37219e-06
9.66487e-07 2.37219e-06 3.43732e-05
0.00108185 5.08978e-05 1.33646e-06
5.08978e-05 0.000207006 1.58108e-06
1.33646e-06 1.58108e-06 0.000138021
0.000567965 4.80559e-05 6.04983e-08
4.80559e-05 -6.44449e-05 -5.58876e-06
6.04983e-08 -5.58876e-06 -0.000114329
0.000689422 3.76337e-05 3.34975e-07
3.76337e-05 -2.78714e-05 -3.84244e-08
3.34975e-07 -3.84244e-08 -8.4309e-05
0.000921698 3.4539e-05 -7.43335e-07
3.4539e-05 0.000107123 -3.0349e-07
-7.43335e-07 -3.0349e-07 3.46748e-05
0.000899945 -2.87106e-05 -4.82633e-07
-2.87106e-05 8.70313e-05 5.64146e-07
-4.82633e-07 5.64146e-07 1.9163e-05
0.000861323 -2.61886e-05 -6.46435e-07
-2.61886e-05 6.47719e-05 3.42918e-08
-6.46435e-07 3.42918e-08 -2.52632e-06
0.000846783 -1.89343e-05 -7.93082e-07
-1.89343e-05 5.69203e-05 1.84815e-06
-7.93082e-07 1.84815e-06 -7.63849e-06
0.000889515 2.72271e-05 3.06659e-07
2.72271e-05 8.79732e-05 -4.52944e-07
3.06659e-07 -4.52944e-07 1.61267e-05
0.000905641 -2.47939e-05 -4.53563e-08
-2.47939e-05 8.24078e-05 3.39459e-07
-4.53563e-08 3.39459e-07 1.62187e-05
0.000916755 -3.60284e-05 1.1434e-07
-3.60284e-05 9.30339e-05 2.64839e-07
1.1434e-07 2.64839e-07 2.06384e-05
0.000789308 -4.40736e-06 4.27968e-08
-4.40736e-06 2.21705e-05 -2.52068e-07
4.27968e-08 -2.52068e-07 -3.41371e-05
0.000911755 -3.39169e-05 2.056e-06
-3.39169e-05 9.78646e-05 -2.87983e-06
2.056e-06 -2.87983e-06 5.12054e-05
0.00088738 -3.23579e-05 2.05371e-07
-3.23579e-05 6.48283e-05 -2.60194e-06
2.05371e-07 -2.60194e-06 1.28532e-07
0.000912582 3.48455e-06 1.21691e-07
3.48455e-06 9.7683e-05 -6.86627e-07
1.21691e-07 -6.86627e-07 1.85202e-05
0.000904907 -3.32041e-05 1.00364e-07
-3.32041e-05 9.9128e-05 -2.74296e-07
1.00364e-07 -2.74296e-07 2.71697e-05
0.000896722 1.80827e-05 -3.65183e-07
1.80827e-05 8.49183e-05 4.86294e-07
-3.65183e-07 4.86294e-07 1.74168e-05
0.000878521 -6.37662e-06 2.35891e-07
-6.37662e-06 7.90585e-05 -2.99672e-07
2.35891e-07 -2.99672e-07 3.80805e-06
0.00083293 4.62186e-05 -1.24519e-07
4.62186e-05 5.97194e-05 -1.77672e-08
-1.24519e-07 -1.77672e-08 -9.46397e-06
0.000871902 2.60721e-05 -3.52139e-07
2.60721e-05 7.0773e-05 1.41341e-07
-3.52139e-07 1.41341e-07 4.23122e-06
0.000782659 5.38975e-05 7.79316e-07
5.38975e-05 3.87733e-05 3.19351e-08
7.79316e-07 3.19351e-08 -3.10825e-05
0.000807566 3.49879e-05 3.5817e-08
3.49879e-05 4.03221e-05 -1.26815e-06
3.5817e-08 -1.26815e-06 -3.39013e-05
0.000848999 3.97823e-05 3.2085e-07
3.97823e-05 6.59269e-05 -9.30478e-07
3.2085e-07 -9.30478e-07 -7.57424e-07
0.000818707 2.8279e-05 1.82069e-06
2.8279e-05 6.03661e-05 -3.8095e-07
1.82069e-06 -3.8095e-07 -2.24467e-05
0.000565007 -3.71333e-05 3.5115e-07
-3.71333e-05 -3.62013e-05 -1.3559e-08
3.5115e-07 -1.3559e-08 -0.000153333
0.000515871 2.62063e-05 4.24733e-07
2.62063e-05 -8.89357e-05 2.75157e-07
4.24733e-07 2.75157e-07 -0.00017178
0.000806156 4.04857e-05 4.26499e-07
4.04857e-05 6.0328e-05 5.30343e-07
4.26499e-07 5.30343e-07 -1.40246e-05
0.000795758 3.98419e-05 3.34454e-07
3.98419e-05 4.58486e-05 5.27892e-07
3.34454e-07 5.27892e-07 -1.81249e-05
0.000811369 1.42353e-05 -2.20512e-07
1.42353e-05 5.25817e-05 -5.66392e-08
-2.20512e-07 -5.66392e-08 -1.0946e-05
0.000789443 2.87151e-05 -6.65499e-07
2.87151e-05 2.70706e-05 3.86729e-07
-6.65499e-07 3.86729e-07 -2.34765e-05
0.000834174 1.39981e-05 5.62366e-07
1.39981e-05 6.27413e-05 2.82523e-07
5.62366e-07 2.82523e-07 -1.5791e-06
0.000809494 -7.9523e-07 -1.08808e-07
-7.9523e-07 3.59836e-05 1.48161e-08
-1.08808e-07 1.48161e-08 -1.53221e-05
0.000771132 2.15798e-05 -9.34628e-07
2.15798e-05 5.34965e-06 1.51413e-06
-9.34628e-07 1.51413e-06 -2.77385e-05
0.000727829 -1.33856e-05 6.73205e-07
-1.33856e-05 -1.06854e-05 -3.14847e-07
6.73205e-07 -3.14847e-07 -6.30946e-05
0.000770061 1.27005e-05 -6.44515e-08
1.27005e-05 2.83402e-06 4.83821e-09
-6.44515e-08 4.83821e-09 -3.01162e-05
0.00133699 2.09871e-05 -4.83788e-06
2.09871e-05 0.000310381 4.46686e-06
-4.83788e-06 4.46686e-06 0.000308443
0.000762889 3.57438e-06 7.53922e-07
3.57438e-06 -1.5725e-06 -1.40999e-06
7.53922e-07 -1.40999e-06 -3.46506e-05
0.00103013 1.38517e-05 -2.2152e-06
1.38517e-05 0.000137535 6.62084e-07
-2.2152e-06 6.62084e-07 0.000134396
0.000887482 1.15875e-05 -5.67318e-07
1.15875e-05 5.97633e-05 1.62102e-06
-5.67318e-07 1.62102e-06 7.4133e-05
0.000714239 6.77567e-06 2.78018e-07
6.77567e-06 -3.96495e-05 -3.20622e-06
2.78018e-07 -3.20622e-06 -4.40922e-05
0.00215978 8.32706e-06 2.4109e-06
8.32706e-06 0.000763606 2.12271e-08
2.4109e-06 2.12271e-08 0.000784402
0.00215921 4.72014e-07 7.51537e-07
4.72014e-07 0.000762653 -4.36143e-06
7.51537e-07 -4.36143e-06 0.000783597
0.00106685 4.10519e-05 -1.15274e-06
4.10519e-05 0.000187348 -6.00923e-07
-1.15274e-06 -6.00923e-07 0.000134649
0.000773994 -3.46753e-06 -3.03075e-07
-3.46753e-06 5.56899e-06 -1.70802e-06
-3.03075e-07 -1.70802e-06 -2.45914e-05
0.000792756 4.01094e-06 7.46274e-07
4.01094e-06 4.12671e-05 5.56073e-07
7.46274e-07 5.56073e-07 -1.32853e-05
0.000726913 -7.79986e-07 -1.24463e-07
-7.79986e-07 -3.39998e-05 -3.36194e-06
-1.24463e-07 -3.36194e-06 -3.58561e-05
0.000778228 -2.76775e-07 7.26552e-08
-2.76775e-07 8.23653e-06 -4.43814e-09
7.26552e-08 -4.43814e-09 -2.16959e-05
0.000771388 2.45644e-06 -2.41329e-07
2.45644e-06 4.52425e-06 1.6702e-06
-2.41329e-07 1.6702e-06 -2.58253e-05
0.000726537 5.65068e-06 -1.68279e-07
5.65068e-06 -3.37556e-05 4.86275e-09
-1.68279e-07 4.86275e-09 -3.6051e-05
0.00207552 7.73461e-06 3.7281e-06
7.73461e-06 0.000716884 -4.38571e-06
3.7281e-06 -4.38571e-06 0.000738672
0.00129263 1.5503e-05 -7.15151e-07
1.5503e-05 0.000281351 2.0467e-06
-7.15151e-07 2.0467e-06 0.000281307
0.00150351 1.44944e-05 2.22061e-06
1.44944e-05 0.000401713 5.35419e-08
2.22061e-06 5.35419e-08 0.000419702
0.00096644 1.74287e-05 -1.40945e-05
1.74287e-05 0.000107556 6.87271e-06
-1.40945e-05 6.87271e-06 0.000121591
-0.00590609 0.000120769 3.83334e-05
0.000120769 -0.00286201 -3.26782e-07
3.83334e-05 -3.26782e-07 -0.00293735
-0.00130683 0.000251869 2.21793e-05
0.000251869 -0.000397253 1.69186e-05
2.21793e-05 1.69186e-05 -0.000471851
0.00252246 1.98648e-05 -0.000131142
1.98648e-05 0.000279721 -3.50766e-06
-0.000131142 -3.50766e-06 -6.84214e-05
0.00198222 -2.01638e-05 1.77195e-05
-2.01638e-05 0.000162681 1.06337e-06
1.77195e-05 1.06337e-06 9.4177e-05
0.00169824 -1.01057e-05 1.33951e-06
-1.01057e-05 -0.000116061 5.14942e-08
1.33951e-06 5.14942e-08 -0.000162373
0.0012655 -9.12542e-07 2.71181e-05
-9.12542e-07 -0.000165003 -8.39132e-07
2.71181e-05 -8.39132e-07 -0.000375015
0.00209457 -2.09902e-05 -1.71326e-06
-2.09902e-05 0.000172444 9.37405e-07
-1.71326e-06 9.37405e-07 0.000113796
0.00558628 0.000217096 -1.43571e-05
0.000217096 0.00138304 -1.49995e-05
-1.43571e-05 -1.49995e-05 0.000626509
-0.00379274 0.000246699 -1.96808e-05
0.000246699 -0.00148604 -5.36496e-08
-1.96808e-05 -5.36496e-08 -0.0016899
-0.000696357 0.000668191 -1.05074e-05
0.000668191 -0.00114706 2.2932e-06
-1.05074e-05 2.2932e-06 0.000182706
0.00201382 -0.00010356 6.77915e-05
-0.00010356 0.000125586 -2.59053e-07
6.77915e-05 -2.59053e-07 -0.000111603
0.00705992 0.000338747 2.36217e-05
0.000338747 0.00239774 -3.96443e-06
2.36217e-05 -3.96443e-06 0.00126051
8.19786e-05 0.000522916 -1.46911e-05
0.000522916 -0.000385508 -2.59755e-05
-1.46911e-05 -2.59755e-05 5.53109e-05
0.00358585 0.000458925 -5.7558e-05
0.000458925 -4.89288e-05 3.86048e-05
-5.7558e-05 3.86048e-05 0.000813098
0.000816276 4.91778e-05 -6.89699e-07
4.91778e-05 7.00835e-05 1.04277e-07
-6.89699e-07 1.04277e-07 -1.4154e-05
0.0007181 3.2928e-06 -1.91017e-07
3.2928e-06 6.81343e-06 -3.12713e-07
-1.91017e-07 -3.12713e-07 -5.94642e-05
0.00079288 -5.67147e-05 -9.16281e-07
-5.67147e-05 4.33535e-05 9.46186e-07
-9.16281e-07 9.46186e-07 -1.18603e-05
0.000718983 9.09308e-07 1.73624e-07
9.09308e-07 1.14692e-05 5.63771e-07
1.73624e-07 5.63771e-07 -5.92718e-05
0.000795274 4.79334e-05 6.97165e-07
4.79334e-05 6.27079e-05 7.70379e-07
6.97165e-07 7.70379e-07 -1.78382e-05
0.00087819 4.09993e-05 -7.7057e-07
4.09993e-05 0.000100963 4.98855e-07
-7.7057e-07 4.98855e-07 1.91991e-05
0.000858743 5.72404e-05 1.42308e-06
5.72404e-05 9.05633e-05 9.97592e-07
1.42308e-06 9.97592e-07 1.10643e-05
0.000796029 -1.75933e-05 6.89239e-07
-1.75933e-05 4.61653e-05 1.8998e-07
6.89239e-07 1.8998e-07 -2.47148e-05
0.000792921 -2.40664e-05 3.91292e-07
-2.40664e-05 5.15109e-05 -5.64922e-07
3.91292e-07 -5.64922e-07 -1.95185e-05
0.000714235 -1.72112e-05 3.08119e-07
-1.72112e-05 3.92977e-06 6.91778e-07
3.08119e-07 6.91778e-07 -6.25314e-05
0.00133455 -6.7647e-05 1.15827e-06
-6.7647e-05 -0.00027552 -2.54943e-06
1.15827e-06 -2.54943e-06 -0.000329956
0.00199886 -0.00021261 6.07426e-06
-0.00021261 8.78221e-05 9.18158e-07
6.07426e-06 9.18158e-07 2.61081e-05
7.45006e-05 -0.000170788 5.61642e-06
-0.000170788 -0.000694086 1.80092e-06
5.61642e-06 1.80092e-06 -0.000811123
0.00141072 -0.000207555 1.66293e-06
-0.000207555 0.000339658 8.09935e-07
1.66293e-06 8.09935e-07 0.000149045
0.00109112 -6.52149e-05 1.94407e-06
-6.52149e-05 0.000257892 -8.75892e-07
1.94407e-06 -8.75892e-07 9.31241e-05
0.00111469 -3.92597e-05 -1.58086e-07
-3.92597e-05 0.000238257 -7.4623e-07
-1.58086e-07 -7.4623e-07 0.000136073
0.000907725 -2.1546e-05 -1.12952e-06
-2.1546e-05 0.000113879 -2.77144e-07
-1.12952e-06 -2.77144e-07 3.17413e-05
0.000874313 3.75201e-05 -1.01574e-06
3.75201e-05 0.00010184 1.90048e-07
-1.01574e-06 1.90048e-07 1.8643e-05
0.0019455 -0.000137057 -3.15004e-06
-0.000137057 0.00018734 1.65815e-06
-3.15004e-06 1.65815e-06 0.000131495
0.000780951 -3.46255e-05 -1.27275e-07
-3.46255e-05 4.5137e-05 3.37017e-08
-1.27275e-07 3.37017e-08 -4.11104e-05
0.000834539 -3.216e-05 4.43667e-07
-3.216e-05 7.53048e-05 -3.43654e-07
4.43667e-07 -3.43654e-07 -1.44851e-05
0.00213894 -0.000275052 3.7195e-06
-0.000275052 0.000220931 -1.62964e-06
3.7195e-06 -1.62964e-06 0.000163786
0.000125072 -0.000179427 1.50851e-06
-0.000179427 -0.00047128 1.59088e-06
1.50851e-06 1.59088e-06 -0.000613151
0.00119934 -0.000122713 2.35006e-06
-0.000122713 0.000268571 -1.47225e-06
2.35006e-06 -1.47225e-06 8.1369e-05
0.000966189 -3.42108e-05 -6.66255e-07
-3.42108e-05 0.000170355 -5.53093e-07
-6.66255e-07 -5.53093e-07 4.39865e-05
0.00292965 -0.000243976 2.86676e-06
-0.000243976 0.000992033 -7.80432e-06
2.86676e-06 -7.80432e-06 0.000805241
0.00177522 -0.000234282 -1.48346e-05
-0.000234282 0.000348047 1.31409e-06
-1.48346e-05 1.31409e-06 0.000268304
0.000426775 -1.15483e-05 -1.02178e-05
-1.15483e-05 -9.44954e-05 9.7661e-06
-1.02178e-05 9.7661e-06 -0.000256772
0.000869438 2.34644e-05 5.79881e-07
2.34644e-05 9.1987e-05 9.20087e-07
5.79881e-07 9.20087e-07 6.04316e-06
0.000691449 -7.25302e-05 1.4498e-06
-7.25302e-05 -1.11263e-05 4.08517e-07
1.4498e-06 4.08517e-07 -9.84835e-05
0.000884871 -1.96062e-05 1.54012e-07
-1.96062e-05 8.73354e-05 1.35906e-06
1.54012e-07 1.35906e-06 -2.36475e-06
0.000877812 6.64899e-06 -8.50677e-05
6.64899e-06 0.00126527 -3.47347e-07
-8.50677e-05 -3.47347e-07 0.000940234
0.00179696 -7.79299e-05 1.37951e-05
-7.79299e-05 0.00117159 4.00016e-06
1.37951e-05 4.00016e-06 0.00105276
-0.00042905 0.000232155 -4.53969e-05
0.000232155 -0.00175526 2.17422e-05
-4.53969e-05 2.17422e-05 -0.00233609
0.000757034 8.47601e-05 3.12209e-06
8.47601e-05 7.03004e-05 1.08489e-06
3.12209e-06 1.08489e-06 -3.15279e-05
0.000700214 0.000112351 5.69104e-06
0.000112351 7.35289e-05 1.62537e-06
5.69104e-06 1.62537e-06 -8.09237e-05
0.00300275 0.000224416 9.91133e-06
0.000224416 0.00066952 2.36478e-06
9.91133e-06 2.36478e-06 0.000706489
0.000150509 0.000121827 9.87493e-06
0.000121827 -0.000367494 5.86537e-06
9.87493e-06 5.86537e-06 -0.000570868
0.00390426 -0.000319629 4.68806e-05
-0.000319629 0.00171357 1.25135e-05
4.68806e-05 1.25135e-05 0.00181219
-0.00022645 -0.000172089 -1.03301e-05
-0.000172089 -0.00125485 6.00841e-06
-1.03301e-05 6.00841e-06 -0.00240846
0.00395079 0.0003908 -6.57593e-05
0.0003908 0.000276452 -5.1583e-05
-6.57593e-05 -5.1583e-05 -0.00057888
-9.38371e-05 7.92142e-05 2.17286e-05
7.92142e-05 -0.000571353 -1.36612e-05
2.17286e-05 -1.36612e-05 -0.000516308
-0.0028752 -0.000362547 2.43557e-05
-0.000362547 -0.00137671 7.86869e-06
2.43557e-05 7.86869e-06 -0.00145171
0.00104576 -0.00032436 2.48405e-05
-0.00032436 0.000526475 2.4082e-05
2.48405e-05 2.4082e-05 0.000427037
0.00413859 -0.000512537 6.58386e-05
-0.000512537 -2.65767e-05 4.82964e-05
6.58386e-05 4.82964e-05 0.00118998
0.000851214 6.98607e-05 1.01247e-06
6.98607e-05 0.000146139 -1.44648e-06
1.01247e-06 -1.44648e-06 5.43234e-05
-0.000167691 -0.000132561 -2.67479e-05
-0.000132561 0.000521929 -8.16416e-06
-2.67479e-05 -8.16416e-06 0.000162902
0.00211713 -1.88959e-05 -1.52983e-06
-1.88959e-05 0.000319945 -1.23967e-05
-1.52983e-06 -1.23967e-05 -0.000174943
0.000935873 0.000159902 -6.14706e-06
0.000159902 -2.65004e-05 1.31586e-06
-6.14706e-06 1.31586e-06 -6.82732e-05
0.00068468 0.000105647 -1.20549e-06
0.000105647 0.000137598 6.71955e-07
-1.20549e-06 6.71955e-07 -4.21187e-05
-0.000181915 0.000105203 2.43995e-05
0.000105203 -0.000346843 -1.65878e-05
2.43995e-05 -1.65878e-05 -0.000406422
0.00571014 0.000725926 -1.88765e-05
0.000725926 0.00153529 -2.21125e-06
-1.88765e-05 -2.21125e-06 0.000812694
0.00790604 -0.00033484 2.78021e-05
-0.00033484 0.00288086 9.90593e-06
2.78021e-05 9.90593e-06 0.00140298
0.00161835 -0.000438915 1.15184e-06
-0.000438915 -0.000948936 -5.82919e-06
1.15184e-06 -5.82919e-06 -0.000630344
0.00498709 -0.000320638 5.05266e-06
-0.000320638 0.000365959 -4.14764e-06
5.05266e-06 -4.14764e-06 0.00138922
0.00119011 0.000117672 -1.33323e-05
0.000117672 0.000377571 -8.53529e-06
-1.33323e-05 -8.53529e-06 0.000305852
0.0015934 -4.14972e-05 -5.16639e-05
-4.14972e-05 8.39948e-05 -2.39142e-05
-5.16639e-05 -2.39142e-05 -0.000271715
0.00151307 -3.06542e-06 -1.60268e-05
-3.06542e-06 0.000146716 -3.42352e-05
-1.60268e-05 -3.42352e-05 -0.000301134
-0.000914006 -1.46798e-05 -2.21124e-05
-1.46798e-05 -0.000549703 -1.75685e-05
-2.21124e-05 -1.75685e-05 -0.000653938
0.00315092 0.000342617 2.48077e-06
0.000342617 0.000912279 5.16472e-05
2.48077e-06 5.16472e-05 0.000495417
0.00820163 -0.000205714 2.10419e-05
-0.000205714 0.0027594 6.45991e-06
2.10419e-05 6.45991e-06 0.00112789
-0.0046466 -0.000324647 -5.58707e-05
-0.000324647 -0.00343961 -4.6756e-06
-5.58707e-05 -4.6756e-06 -0.00401597
0.00471109 4.08e-05 -2.84029e-06
4.08e-05 -0.000146604 -5.00892e-05
-2.84029e-06 -5.00892e-05 0.00101503
0.00102962 5.50078e-05 1.68198e-06
5.50078e-05 0.000180982 4.29623e-06
1.68198e-06 4.29623e-06 0.000109035
0.000820557 6.34119e-05 -1.7013e-06
6.34119e-05 7.09897e-05 -5.56434e-07
-1.7013e-06 -5.56434e-07 2.07091e-05
0.000561332 3.97802e-05 3.77471e-07
3.97802e-05 -4.39062e-05 -3.96296e-06
3.77471e-07 -3.96296e-06 -8.46881e-05
0.000900543 6.11947e-05 -1.27137e-06
6.11947e-05 8.86616e-05 -5.11972e-07
-1.27137e-06 -5.11972e-07 2.01633e-05
0.000927382 -2.83948e-05 -1.15902e-07
-2.83948e-05 0.00010287 1.02855e-06
-1.15902e-07 1.02855e-06 2.75996e-05
0.000993597 -1.74395e-05 -1.01474e-06
-1.74395e-05 0.000130599 1.4072e-06
-1.01474e-06 1.4072e-06 6.42221e-05
0.00077869 -1.91839e-05 -8.70387e-07
-1.91839e-05 2.23412e-05 2.85713e-06
-8.70387e-07 2.85713e-06 -3.27487e-05
0.000908032 1.07928e-05 4.24387e-07
1.07928e-05 8.75224e-05 1.63752e-08
4.24387e-07 1.63752e-08 1.37176e-05
0.000874073 -1.9623e-05 -1.04087e-07
-1.9623e-05 5.85479e-05 -1.88163e-07
-1.04087e-07 -1.88163e-07 -6.45896e-06
0.000825607 -2.62096e-05 2.03612e-07
-2.62096e-05 5.07549e-05 5.81637e-07
2.03612e-07 5.81637e-07 4.31732e-06
0.000730232 -3.4916e-05 -6.05284e-08
-3.4916e-05 3.47338e-05 -2.93231e-06
-6.05284e-08 -2.93231e-06 3.69395e-06
0.000920085 -3.06957e-05 3.12459e-06
-3.06957e-05 8.29192e-05 -3.93575e-06
3.12459e-06 -3.93575e-06 3.46576e-05
0.00079582 3.75585e-05 6.46071e-07
3.75585e-05 2.60721e-05 -1.38555e-06
6.46071e-07 -1.38555e-06 -4.6765e-05
0.000885342 -3.25389e-05 9.87465e-07
-3.25389e-05 7.82626e-05 3.44208e-07
9.87465e-07 3.44208e-07 5.94172e-06
0.00082219 5.09968e-05 -2.72122e-07
5.09968e-05 5.3099e-05 3.72965e-07
-2.72122e-07 3.72965e-07 -1.57642e-05
0.000865572 1.84107e-05 -4.05865e-07
1.84107e-05 6.71188e-05 1.25998e-06
-4.05865e-07 1.25998e-06 9.2886e-07
0.000825573 3.29346e-05 1.19962e-08
3.29346e-05 4.68061e-05 8.22134e-08
1.19962e-08 8.22134e-08 -2.47174e-05
0.00080677 5.39632e-05 3.3335e-07
5.39632e-05 5.28918e-05 3.00396e-07
3.3335e-07 3.00396e-07 -1.7637e-05
0.000856954 5.12842e-05 -1.40326e-07
5.12842e-05 7.10031e-05 -5.99389e-09
-1.40326e-07 -5.99389e-09 3.39004e-06
0.000868721 4.27615e-05 1.73964e-06
4.27615e-05 8.1903e-05 -3.40238e-07
1.73964e-06 -3.40238e-07 1.07826e-05
0.000805426 3.62078e-05 4.10775e-07
3.62078e-05 4.47739e-05 -1.33521e-06
4.10775e-07 -1.33521e-06 -1.85367e-05
0.000734296 -4.90851e-05 9.23063e-07
-4.90851e-05 2.4319e-05 -3.71238e-07
9.23063e-07 -3.71238e-07 -6.39897e-05
0.00090589 1.03472e-05 -4.06495e-07
1.03472e-05 0.000109017 -1.31755e-07
-4.06495e-07 -1.31755e-07 2.52308e-05
0.000680498 -3.86704e-05 1.12739e-06
-3.86704e-05 1.88408e-05 1.60337e-06
1.12739e-06 1.60337e-06 -8.90149e-05
0.00103411 -0.000131529 -1.37477e-06
-0.000131529 0.000190351 3.13827e-06
-1.37477e-06 3.13827e-06 4.91166e-05
0.00110528 -2.18839e-05 1.05372e-06
-2.18839e-05 0.000237875 -5.71876e-07
1.05372e-06 -5.71876e-07 0.000140289
0.000643182 -4.78021e-05 -5.22331e-08
-4.78021e-05 8.42338e-06 -2.50142e-06
-5.22331e-08 -2.50142e-06 -0.000106537
0.000785337 3.01068e-05 -5.60873e-07
3.01068e-05 5.64171e-05 -5.34279e-07
-5.60873e-07 -5.34279e-07 -2.49579e-05
0.000595453 3.35232e-05 9.44766e-07
3.35232e-05 -5.75087e-05 7.26427e-07
9.44766e-07 7.26427e-07 -0.00012845
0.000854932 3.79361e-05 -4.28706e-07
3.79361e-05 8.70644e-05 -1.13776e-07
-4.28706e-07 -1.13776e-07 1.24872e-05
0.000824657 1.25581e-05 -2.53414e-07
1.25581e-05 6.2386e-05 3.19487e-07
-2.53414e-07 3.19487e-07 -2.4522e-06
0.000776471 3.81922e-05 -6.9675e-07
3.81922e-05 2.34285e-05 4.8585e-07
-6.9675e-07 4.8585e-07 -2.82138e-05
0.000841634 -1.28402e-05 4.03138e-07
-1.28402e-05 7.31382e-05 -6.50979e-09
4.03138e-07 -6.50979e-09 6.54199e-06
0.000802227 1.47122e-06 -3.98679e-07
1.47122e-06 3.50618e-05 4.64985e-08
-3.98679e-07 4.64985e-08 -1.64636e-05
0.000765772 2.6828e-05 -1.17501e-06
2.6828e-05 5.96462e-06 1.52843e-06
-1.17501e-06 1.52843e-06 -2.76309e-05
0.000830973 -2.21817e-05 1.22094e-06
-2.21817e-05 4.92152e-05 -3.76645e-07
1.22094e-06 -3.76645e-07 -3.26883e-06
0.000772013 1.74346e-05 -1.45824e-07
1.74346e-05 5.29928e-06 9.0211e-09
-1.45824e-07 9.0211e-09 -2.75818e-05
0.00132473 2.80867e-05 -6.65496e-06
2.80867e-05 0.000307605 4.40272e-06
-6.65496e-06 4.40272e-06 0.000305139
0.000765648 8.01465e-06 1.10491e-06
8.01465e-06 1.16826e-08 -1.45186e-06
1.10491e-06 -1.45186e-06 -3.27659e-05
0.00102365 2.0362e-05 -2.97175e-06
2.0362e-05 0.00013685 6.28233e-07
-2.97175e-06 6.28233e-07 0.000133421
0.000881236 1.78954e-05 -1.06615e-06
1.78954e-05 6.01256e-05 1.62216e-06
-1.06615e-06 1.62216e-06 7.39133e-05
0.000709806 1.25883e-05 4.61352e-07
1.25883e-05 -4.04213e-05 -3.20361e-06
4.61352e-07 -3.20361e-06 -4.50347e-05
0.0015181 1.5296e-05 4.65665e-06
1.5296e-05 0.000409533 -1.29081e-06
4.65665e-06 -1.29081e-06 0.000426944
0.00216184 9.51027e-06 4.87961e-06
9.51027e-06 0.000765089 -4.29881e-06
4.87961e-06 -4.29881e-06 0.000785819
0.000863025 -2.3032e-05 5.35094e-07
-2.3032e-05 7.17468e-05 -4.93384e-07
5.35094e-07 -4.93384e-07 1.78503e-05
0.000779865 -8.3777e-06 -2.82494e-07
-8.3777e-06 9.31216e-06 -1.68574e-06
-2.82494e-07 -1.68574e-06 -2.17617e-05
0.000851947 -4.37085e-06 3.92009e-07
-4.37085e-06 6.8915e-05 1.21661e-07
3.92009e-07 1.21661e-07 1.58048e-05
0.000728867 -6.82929e-06 -3.39353e-07
-6.82929e-06 -3.21234e-05 -3.34601e-06
-3.39353e-07 -3.34601e-06 -3.43014e-05
0.000778888 -4.31604e-06 -5.97225e-08
-4.31604e-06 8.35813e-06 -2.64052e-09
-5.97225e-08 -2.64052e-09 -2.18203e-05
0.000790621 -3.98652e-05 -1.31029e-06
-3.98652e-05 3.66494e-05 1.39955e-06
-1.31029e-06 1.39955e-06 -1.53321e-05
0.00206626 -1.06745e-06 -4.19221e-07
-1.06745e-06 0.000711462 -4.39562e-06
-4.19221e-07 -4.39562e-06 0.000733431
0.000728406 -4.70054e-07 -7.45117e-08
-4.70054e-07 -3.32121e-05 8.04196e-10
-7.45117e-08 8.04196e-10 -3.50718e-05
0.000777976 -1.23706e-06 1.07131e-07
-1.23706e-06 8.03351e-06 1.6734e-06
1.07131e-07 1.6734e-06 -2.189e-05
0.000729914 5.93923e-06 -1.01476e-07
5.93923e-06 -3.19458e-05 3.37462e-06
-1.01476e-07 3.37462e-06 -3.42672e-05
0.00207676 8.38262e-06 -2.5893e-06
8.38262e-06 0.00071776 -2.34119e-08
-2.5893e-06 -2.34119e-08 0.000739491
0.00210123 1.66653e-05 -1.05939e-05
1.66653e-05 0.000732988 4.28995e-06
-1.05939e-05 4.28995e-06 0.000754151
-0.00148535 7.32197e-05 -4.14962e-05
7.32197e-05 -6.5145e-05 7.48508e-06
-4.14962e-05 7.48508e-06 -0.000545382
-0.000859249 0.000256535 -7.66027e-06
0.000256535 -0.000273693 4.5371e-06
-7.66027e-06 4.5371e-06 -0.000369659
0.00221659 5.55063e-05 -7.30794e-05
5.55063e-05 0.000212625 5.28048e-05
-7.30794e-05 5.28048e-05 -0.000202402
-0.00159053 0.00029244 6.37489e-05
0.00029244 -0.000426879 -2.64098e-05
6.37489e-05 -2.64098e-05 -0.000421935
0.00265624 9.04785e-05 -9.68024e-05
9.04785e-05 0.000392518 1.20002e-05
-9.68024e-05 1.20002e-05 8.02637e-05
0.00212361 -2.86558e-05 5.06941e-05
-2.86558e-05 0.000192399 -6.42729e-06
5.06941e-05 -6.42729e-06 0.000138068
0.00112845 -0.000265807 -7.34404e-05
-0.000265807 -0.000760404 -2.61826e-05
-7.34404e-05 -2.61826e-05 -0.00141896
0.00868968 0.000521965 5.97311e-05
0.000521965 0.00424158 -1.64458e-05
5.97311e-05 -1.64458e-05 0.00427365
-0.00351518 0.000720403 -3.68572e-05
0.000720403 -0.00291254 5.28408e-05
-3.68572e-05 5.28408e-05 -0.00124088
0.00144267 7.84952e-06 -6.14136e-06
7.84952e-06 -0.000303364 -2.73733e-06
-6.14136e-06 -2.73733e-06 -0.000516799
0.00194233 0.000161389 1.68637e-05
0.000161389 -4.77707e-06 -1.88043e-05
1.68637e-05 -1.88043e-05 -0.00151103
0.0053616 0.000820361 -1.37592e-05
0.000820361 0.00171026 -1.93865e-05
-1.37592e-05 -1.93865e-05 0.00213703
0.00174064 0.000458303 -1.06381e-05
0.000458303 -0.0011691 2.46944e-05
-1.06381e-05 2.46944e-05 -0.000257639
0.00305914 -0.000140826 -2.34467e-05
-0.000140826 0.000328805 8.21401e-06
-2.34467e-05 8.21401e-06 -1.64612e-05
0.00436759 0.000241588 7.58588e-05
0.000241588 0.0013943 -4.99501e-05
7.58588e-05 -4.99501e-05 -0.000325961
-0.0060417 0.000168508 -7.48181e-05
0.000168508 -0.00444004 -3.25533e-05
-7.48181e-05 -3.25533e-05 -0.00416874
0.00137131 0.000294419 -1.95786e-05
0.000294419 -0.00215918 1.91721e-05
-1.95786e-05 1.91721e-05 -0.0011276
0.00089447 -2.02164e-05 1.03388e-06
-2.02164e-05 0.000110284 5.31722e-07
1.03388e-06 5.31722e-07 2.20841e-05
0.000859857 3.58516e-05 -1.5211e-06
3.58516e-05 9.34361e-05 -3.94056e-07
-1.5211e-06 -3.94056e-07 1.06951e-05
0.000807229 1.62912e-05 7.54996e-07
1.62912e-05 5.69723e-05 -1.36977e-07
7.54996e-07 -1.36977e-07 -9.83571e-06
0.000854072 5.54543e-05 1.80834e-06
5.54543e-05 9.49434e-05 1.11456e-06
1.80834e-06 1.11456e-06 1.46919e-05
0.000774315 1.5553e-05 -3.07272e-07
1.5553e-05 4.4095e-05 7.51416e-07
-3.07272e-07 7.51416e-07 -4.43237e-05
0.000903694 4.31721e-05 1.97958e-07
4.31721e-05 0.000116018 5.69743e-07
1.97958e-07 5.69743e-07 3.39786e-05
0.000803074 1.65755e-06 -3.24515e-08
1.65755e-06 5.73677e-05 1.14869e-06
-3.24515e-08 1.14869e-06 -2.04284e-05
0.000920191 7.23246e-05 -7.26281e-07
7.23246e-05 0.000123818 6.05124e-07
-7.26281e-07 6.05124e-07 4.34735e-05
0.00089645 3.25009e-05 -2.71818e-07
3.25009e-05 0.000111037 3.23979e-07
-2.71818e-07 3.23979e-07 3.38536e-05
0.000739663 -1.78538e-05 -8.31104e-07
-1.78538e-05 2.44262e-05 -2.69121e-07
-8.31104e-07 -2.69121e-07 -4.90902e-05
-0.000409648 -8.02529e-05 1.25468e-05
-8.02529e-05 -0.0010322 -5.42779e-06
1.25468e-05 -5.42779e-06 -0.00106277
0.00142499 -0.00025334 1.04294e-05
-0.00025334 -0.000150965 -7.59968e-07
1.04294e-05 -7.59968e-07 -0.000216835
0.000924046 -0.000219064 8.13631e-06
-0.000219064 -4.15148e-05 1.53145e-06
8.13631e-06 1.53145e-06 -0.000186944
0.00121722 -0.000115915 5.96493e-06
-0.000115915 0.00027257 -2.18468e-06
5.96493e-06 -2.18468e-06 8.88396e-05
0.000940044 -2.56606e-05 1.08478e-06
-2.56606e-05 0.000162978 -1.33148e-06
1.08478e-06 -1.33148e-06 2.4637e-05
0.000800568 -4.1618e-05 -6.37689e-07
-4.1618e-05 6.08645e-05 -3.75099e-07
-6.37689e-07 -3.75099e-07 -3.20369e-05
0.000856691 5.27317e-05 -2.63479e-07
5.27317e-05 8.89089e-05 -3.13035e-07
-2.63479e-07 -3.13035e-07 1.6404e-07
0.000864725 -3.42159e-05 -3.02417e-07
-3.42159e-05 9.21346e-05 3.60216e-07
-3.02417e-07 3.60216e-07 3.90618e-06
0.00133784 -0.000168595 3.62865e-06
-0.000168595 0.0001525 -6.77816e-07
3.62865e-06 -6.77816e-07 3.76634e-05
0.00084511 7.93568e-06 -1.89119e-07
7.93568e-06 7.68962e-05 -2.52945e-07
-1.89119e-07 -2.52945e-07 -1.31084e-05
0.000885023 -2.82316e-05 -4.65782e-08
-2.82316e-05 9.43341e-05 1.22457e-07
-4.65782e-08 1.22457e-07 -1.63846e-06
0.00159221 -0.000226514 -1.05032e-06
-0.000226514 0.000248425 5.25474e-07
-1.05032e-06 5.25474e-07 0.000174935
0.00101826 -3.50841e-05 -3.86332e-06
-3.50841e-05 0.000195644 1.96319e-06
-3.86332e-06 1.96319e-06 3.97231e-05
0.000368087 -0.000230463 -4.22581e-07
-0.000230463 -0.000382158 -1.29489e-05
-4.22581e-07 -1.29489e-05 -0.000415225
0.00158074 -7.95488e-05 -1.262e-05
-7.95488e-05 0.000534066 9.3625e-06
-1.262e-05 9.3625e-06 0.000418247
0.000425432 2.18718e-05 -3.35405e-06
2.18718e-05 -0.000165249 7.88143e-06
-3.35405e-06 7.88143e-06 -0.000256289
0.000851508 -3.88414e-06 5.82678e-07
-3.88414e-06 6.60063e-05 8.67212e-07
5.82678e-07 8.67212e-07 -1.68017e-05
0.000820795 2.67292e-05 -3.17219e-07
2.67292e-05 5.45142e-05 7.45538e-07
-3.17219e-07 7.45538e-07 -3.69288e-05
0.00124745 -9.81402e-07 -2.6067e-05
-9.81402e-07 -9.11719e-05 -3.55936e-06
-2.6067e-05 -3.55936e-06 -0.000378288
-0.0003539 -1.24808e-05 -2.91789e-05
-1.24808e-05 0.000661915 -1.31992e-06
-2.91789e-05 -1.31992e-06 0.000236142
-0.00612896 -0.000102871 -7.97894e-05
-0.000102871 -0.00301325 -1.46833e-06
-7.97894e-05 -1.46833e-06 -0.0029944
0.000768544 8.61323e-05 6.18347e-06
8.61323e-05 0.00010976 2.15289e-06
6.18347e-06 2.15289e-06 1.41791e-05
-0.000119233 9.31195e-06 6.29138e-06
9.31195e-06 -0.000266606 3.11287e-06
6.29138e-06 3.11287e-06 -0.000450462
0.00123859 0.000105411 1.64258e-05
0.000105411 0.000165201 -9.24652e-07
1.64258e-05 -9.24652e-07 9.96338e-05
-0.00143327 -5.72295e-05 1.61026e-05
-5.72295e-05 -5.15031e-05 7.06184e-06
1.61026e-05 7.06184e-06 -0.000557888
0.00413354 -0.000357327 -1.29167e-05
-0.000357327 0.00127558 -2.17035e-05
-1.29167e-05 -2.17035e-05 -0.000516997
0.00389936 0.000610484 4.25246e-05
0.000610484 0.000463463 -2.16627e-05
4.25246e-05 -2.16627e-05 -6.16681e-05
0.000251195 9.9845e-05 -3.73458e-07
9.9845e-05 -7.94594e-05 -7.98282e-07
-3.73458e-07 -7.98282e-07 -3.60614e-05
0.00577954 -0.000640256 3.49156e-05
-0.000640256 0.00155645 1.5995e-05
3.49156e-05 1.5995e-05 0.0016253
0.00234172 -2.64827e-05 5.10146e-05
-2.64827e-05 0.000483851 3.55322e-05
5.10146e-05 3.55322e-05 -2.62884e-05
0.00482663 -0.000291333 2.69554e-05
-0.000291333 0.000467893 1.31223e-05
2.69554e-05 1.31223e-05 0.00152968
0.000990013 0.00010591 2.09414e-06
0.00010591 0.000279022 -1.70956e-06
2.09414e-06 -1.70956e-06 0.000206607
0.00165538 -3.77139e-05 3.32736e-06
-3.77139e-05 0.000206334 -6.10497e-06
3.32736e-06 -6.10497e-06 -0.000110843
0.00165933 3.41397e-06 2.10572e-06
3.41397e-06 0.000146228 6.04345e-06
2.10572e-06 6.04345e-06 -0.000310807
0.000266699 7.38555e-05 -7.108e-06
7.38555e-05 7.01169e-05 7.29156e-07
-7.108e-06 7.29156e-07 -4.38128e-05
0.00315092 0.000421887 -2.02248e-05
0.000421887 0.000636084 -2.91593e-05
-2.02248e-05 -2.91593e-05 0.000327983
0.00331765 0.000304175 4.32228e-05
0.000304175 0.000477845 2.10615e-05
4.32228e-05 2.10615e-05 -0.00141955
0.00334323 1.95373e-05 -1.32792e-07
1.95373e-05 -0.00124702 -2.30269e-05
-1.32792e-07 -2.30269e-05 0.000103377
0.000376004 -0.000220952 -1.17762e-05
-0.000220952 -0.00083889 1.5777e-05
-1.17762e-05 1.5777e-05 -0.0010062
0.000731518 4.76331e-05 -4.05013e-06
4.76331e-05 0.000235589 -9.34094e-06
-4.05013e-06 -9.34094e-06 0.000184917
0.00127735 -1.99115e-05 -1.26676e-05
-1.99115e-05 0.000131914 -1.4561e-05
-1.26676e-05 -1.4561e-05 1.12457e-05
0.00178721 7.37095e-06 3.64266e-06
7.37095e-06 6.0779e-05 -3.24769e-05
3.64266e-06 -3.24769e-05 -0.000357245
0.00137521 0.000277278 1.78014e-05
0.000277278 -0.00206016 -2.14742e-05
1.78014e-05 -2.14742e-05 -0.00112181
-0.00191927 9.40486e-06 6.44151e-06
9.40486e-06 -0.000921755 -1.28572e-05
6.44151e-06 -1.28572e-05 -0.00120177
0.00912607 0.000196361 8.39826e-05
0.000196361 0.00331486 3.30938e-05
8.39826e-05 3.30938e-05 0.00158636
-0.00374309 -0.000103184 2.14163e-05
-0.000103184 -0.000931554 -7.08954e-06
2.14163e-05 -7.08954e-06 -0.00148392
0.00115409 9.10226e-05 6.06559e-06
9.10226e-05 0.000248333 6.04274e-06
6.06559e-06 6.04274e-06 0.000197055
0.00067585 6.23786e-05 -2.59946e-06
6.23786e-05 1.66899e-05 1.34739e-06
-2.59946e-06 1.34739e-06 -2.82369e-05
0.000399823 3.3504e-05 -5.69689e-06
3.3504e-05 -6.82192e-05 -6.83767e-06
-5.69689e-06 -6.83767e-06 -0.000114326
0.000897299 8.58152e-05 -2.06525e-07
8.58152e-05 8.59113e-05 7.08455e-07
-2.06525e-07 7.08455e-07 9.61208e-06
0.000862641 2.14498e-06 -6.33104e-07
2.14498e-06 5.21009e-05 1.5777e-06
-6.33104e-07 1.5777e-06 -1.23731e-05
0.000725097 -3.48482e-05 -2.28963e-06
-3.48482e-05 -3.97117e-06 6.76718e-06
-2.28963e-06 6.76718e-06 -5.08201e-05
0.000833008 4.23068e-05 4.794e-08
4.23068e-05 4.51068e-05 4.45677e-08
4.794e-08 4.45677e-08 -2.67203e-05
0.000803565 -3.84006e-05 2.52928e-07
-3.84006e-05 2.20262e-05 -1.00164e-06
2.52928e-07 -1.00164e-06 -2.75991e-05
0.00083305 -5.90567e-05 3.23143e-06
-5.90567e-05 7.94407e-05 2.49434e-06
3.23143e-06 2.49434e-06 4.03617e-05
0.000828481 -1.29589e-06 5.86354e-07
-1.29589e-06 9.29059e-05 -3.87679e-06
5.86354e-07 -3.87679e-06 7.01612e-05
0.000836154 1.05243e-05 -8.35024e-08
1.05243e-05 4.95432e-05 -3.12028e-06
-8.35024e-08 -3.12028e-06 -7.25454e-06
0.000847121 3.37939e-05 -1.51472e-07
3.37939e-05 5.45697e-05 1.34559e-06
-1.51472e-07 1.34559e-06 -1.3893e-05
0.000823691 5.55081e-05 -1.2157e-07
5.55081e-05 6.32965e-05 2.50461e-07
-1.2157e-07 2.50461e-07 -7.98502e-06
0.000859117 5.66636e-05 -1.05771e-06
5.66636e-05 7.2361e-05 1.07102e-06
-1.05771e-06 1.07102e-06 4.19373e-06
0.000836112 3.49356e-05 3.34937e-07
3.49356e-05 5.93776e-05 1.84913e-07
3.34937e-07 1.84913e-07 -4.11765e-06
0.000881481 4.35105e-05 6.75667e-07
4.35105e-05 8.81997e-05 1.80114e-07
6.75667e-07 1.80114e-07 1.76371e-05
0.000709915 -2.73751e-05 1.22684e-06
-2.73751e-05 3.64711e-05 4.80107e-07
1.22684e-06 4.80107e-07 -3.85863e-05
0.000721308 -2.47955e-05 -5.13761e-07
-2.47955e-05 2.50221e-05 -9.9404e-07
-5.13761e-07 -9.9404e-07 -5.81622e-05
0.000677737 -5.77244e-05 2.9427e-06
-5.77244e-05 1.45097e-05 5.49966e-07
2.9427e-06 5.49966e-07 -0.000117132
0.00100412 -7.18411e-06 -1.49684e-06
-7.18411e-06 0.000162625 -2.03103e-07
-1.49684e-06 -2.03103e-07 7.81836e-05
0.00100708 -6.13005e-05 -7.45891e-07
-6.13005e-05 0.000186996 8.06687e-07
-7.45891e-07 8.06687e-07 7.68683e-05
0.000538485 -0.000105129 -1.46203e-07
-0.000105129 -7.83669e-05 1.95317e-06
-1.46203e-07 1.95317e-06 -0.000226245
0.000820592 -0.000117467 -3.15655e-06
-0.000117467 7.42407e-05 1.23101e-07
-3.15655e-06 1.23101e-07 -6.92479e-05
0.000923438 -8.92422e-05 -1.0767e-06
-8.92422e-05 0.000144408 1.78471e-06
-1.0767e-06 1.78471e-06 3.08676e-05
0.000817608 -0.000116665 -4.92597e-08
-0.000116665 7.57987e-05 6.50723e-07
-4.92597e-08 6.50723e-07 -6.35232e-05
0.000879972 -1.54218e-07 9.96521e-07
-1.54218e-07 0.000101276 9.19987e-07
9.96521e-07 9.19987e-07 2.01267e-05
0.000971158 -2.57095e-05 -7.24068e-07
-2.57095e-05 0.000166121 -6.55946e-07
-7.24068e-07 -6.55946e-07 6.64665e-05
0.000736724 -5.9158e-05 4.41203e-07
-5.9158e-05 6.15299e-05 -4.03029e-06
4.41203e-07 -4.03029e-06 -5.11576e-05
0.00105406 3.37353e-05 -1.89735e-06
3.37353e-05 0.000201315 -1.37097e-06
-1.89735e-06 -1.37097e-06 0.000121439
0.000715048 2.60815e-05 1.177e-07
2.60815e-05 6.98705e-06 -3.04026e-08
1.177e-07 -3.04026e-08 -6.28835e-05
0.000771131 4.90041e-05 -1.54802e-07
4.90041e-05 2.5689e-05 6.34523e-07
-1.54802e-07 6.34523e-07 -2.99493e-05
0.000846157 -6.26748e-06 4.98166e-08
-6.26748e-06 7.61019e-05 2.61124e-08
4.98166e-08 2.61124e-08 9.55257e-06
0.000798657 1.26081e-05 -5.98344e-07
1.26081e-05 3.56633e-05 -6.36051e-08
-5.98344e-07 -6.36051e-08 -1.62349e-05
0.00075953 3.24597e-05 -1.37144e-06
3.24597e-05 7.28617e-06 1.479e-06
-1.37144e-06 1.479e-06 -2.73866e-05
0.000818309 -1.95032e-05 1.24048e-06
-1.95032e-05 4.42988e-05 -4.92535e-07
1.24048e-06 -4.92535e-07 -7.86415e-06
0.000768012 2.5435e-05 -1.20518e-07
2.5435e-05 6.54945e-06 5.6079e-09
-1.20518e-07 5.6079e-09 -2.68714e-05
0.0012888 3.51446e-05 -7.49769e-06
3.51446e-05 0.000294106 3.06388e-06
-7.49769e-06 3.06388e-06 0.000290624
0.000769211 1.38937e-05 1.24142e-06
1.38937e-05 3.21137e-06 -1.46609e-06
1.24142e-06 -1.46609e-06 -2.94652e-05
0.00101751 2.69344e-05 -3.66554e-06
2.69344e-05 0.000137686 5.82118e-07
-3.66554e-06 5.82118e-07 0.000133669
0.000869182 2.3911e-05 -1.60654e-06
2.3911e-05 5.87138e-05 1.61573e-06
-1.60654e-06 1.61573e-06 7.15991e-05
0.000707989 1.8597e-05 6.6943e-07
1.8597e-05 -3.85392e-05 -3.21379e-06
6.6943e-07 -3.21379e-06 -4.34501e-05
0.00150489 2.28136e-05 6.14746e-06
2.28136e-05 0.000405805 -1.20932e-06
6.14746e-06 -1.20932e-06 0.000422646
0.00214926 1.84486e-05 8.73406e-06
1.84486e-05 0.000760517 -4.17577e-06
8.73406e-06 -4.17577e-06 0.000780874
0.000656892 1.59693e-06 -4.04168e-07
1.59693e-06 -3.68618e-05 -1.02014e-06
-4.04168e-07 -1.02014e-06 -9.94366e-05
0.000534346 -1.33181e-05 -2.84102e-07
-1.33181e-05 -0.000123523 -2.19556e-06
-2.84102e-07 -2.19556e-06 -0.000158159
0.000888462 -9.5299e-06 -1.41302e-08
-9.5299e-06 8.76609e-05 7.37918e-08
-1.41302e-08 7.37918e-08 3.21199e-05
0.000727072 -1.28543e-05 -3.3224e-07
-1.28543e-05 -3.08929e-05 -3.34581e-06
-3.3224e-07 -3.34581e-06 -3.41402e-05
0.000654963 -8.7773e-06 9.37323e-08
-8.7773e-06 -5.87777e-05 7.53336e-09
9.37323e-08 7.53336e-09 -9.08481e-05
0.000641753 -4.55757e-05 2.459e-07
-4.55757e-05 -4.44042e-05 8.76524e-07
2.459e-07 8.76524e-07 -9.9621e-05
0.0020774 -9.7505e-06 -4.83649e-06
-9.7505e-06 0.000718702 -4.36252e-06
-4.83649e-06 -4.36252e-06 0.000740341
0.000726393 -6.53831e-06 -1.83179e-07
-6.53831e-06 -3.34927e-05 -2.32333e-09
-1.83179e-07 -2.32333e-09 -3.56438e-05
0.000782901 -5.30124e-06 4.53308e-08
-5.30124e-06 1.06693e-05 1.67442e-06
4.53308e-08 1.67442e-06 -1.95227e-05
0.00206694 -3.92331e-07 -2.48454e-06
-3.92331e-07 0.000711821 -4.36336e-10
-2.48454e-06 -4.36336e-10 0.00073379
0.000729783 -1.64071e-07 1.4793e-07
-1.64071e-07 -3.24799e-05 3.35933e-06
1.4793e-07 3.35933e-06 -3.43481e-05
0.00208196 9.02689e-06 -5.01096e-06
9.02689e-06 0.000720829 4.389e-06
-5.01096e-06 4.389e-06 0.000742467
0.00113161 1.8679e-05 -4.77077e-05
1.8679e-05 -9.56021e-05 1.83613e-05
-4.77077e-05 1.83613e-05 -0.000413344
0.00132459 0.000167171 -1.61341e-06
0.000167171 0.00126176 -4.84214e-06
-1.61341e-06 -4.84214e-06 0.00108371
0.000645562 -0.000108167 1.28442e-06
-0.000108167 0.000657969 -1.24848e-05
1.28442e-06 -1.24848e-05 0.000370118
0.00083266 2.52375e-05 -1.26544e-07
2.52375e-05 6.74625e-05 7.08011e-07
-1.26544e-07 7.08011e-07 -1.03271e-05
0.00211419 2.43591e-05 -2.17715e-05
2.43591e-05 0.00046374 3.70544e-05
-2.17715e-05 3.70544e-05 0.000111217
0.00220959 3.9855e-05 -1.83341e-05
3.9855e-05 0.000261027 2.7986e-06
-1.83341e-05 2.7986e-06 -0.000224432
0.00157972 0.00038146 6.54493e-05
0.00038146 0.000993095 -4.8966e-05
6.54493e-05 -4.8966e-05 0.00129092
0.0029932 -6.42221e-05 -2.58e-05
-6.42221e-05 0.000267553 -3.25441e-06
-2.58e-05 -3.25441e-06 3.44997e-05
0.00962727 0.000473328 2.57011e-05
0.000473328 0.00367466 -2.56981e-05
2.57011e-05 -2.56981e-05 0.00237771
-0.0025863 0.000435687 1.27861e-05
0.000435687 -0.00231351 6.48442e-06
1.27861e-05 6.48442e-06 -0.00175799
0.00309671 0.000497196 3.37294e-05
0.000497196 -0.000410537 -1.6696e-05
3.37294e-05 -1.6696e-05 0.000539773
0.00285934 -0.000224056 -4.73398e-05
-0.000224056 -6.69755e-05 1.86486e-06
-4.73398e-05 1.86486e-06 -0.000647123
0.00720426 0.000298255 2.48546e-05
0.000298255 0.00274041 -1.1062e-05
2.48546e-05 -1.1062e-05 0.00125377
0.00521064 0.000548603 2.33501e-06
0.000548603 0.000704555 -1.55666e-05
2.33501e-06 -1.55666e-05 0.000905135
0.00315109 0.000304958 -9.36295e-06
0.000304958 -0.00115977 1.69108e-06
-9.36295e-06 1.69108e-06 -0.000149154
0.00376217 -0.000446415 1.27618e-07
-0.000446415 0.000389659 -1.70113e-05
1.27618e-07 -1.70113e-05 -0.000417688
0.00759775 5.09766e-05 3.93886e-05
5.09766e-05 0.00330602 3.81677e-06
3.93886e-05 3.81677e-06 0.00113383
0.0012532 0.000116607 8.12042e-07
0.000116607 -0.000743265 7.57359e-06
8.12042e-07 7.57359e-06 -0.000804578
0.00473355 5.31561e-05 -2.82518e-06
5.31561e-05 -0.000206043 2.68947e-05
-2.82518e-06 2.68947e-05 0.000988361
0.000882465 -2.81844e-05 4.50474e-07
-2.81844e-05 9.67421e-05 7.11336e-07
4.50474e-07 7.11336e-07 7.51841e-06
0.000855095 -3.78782e-05 4.645e-07
-3.78782e-05 9.17269e-05 4.35971e-08
4.645e-07 4.35971e-08 1.61279e-06
0.000896881 5.44505e-05 -1.08943e-06
5.44505e-05 0.000115581 -1.60201e-07
-1.08943e-06 -1.60201e-07 3.25539e-05
0.000834952 -1.34642e-05 -4.37968e-07
-1.34642e-05 6.46026e-05 5.02591e-07
-4.37968e-07 5.02591e-07 -1.53524e-05
0.000876128 4.77605e-05 -6.02997e-07
4.77605e-05 9.98508e-05 3.39012e-07
-6.02997e-07 3.39012e-07 1.23493e-05
0.000912701 2.72019e-05 7.00432e-07
2.72019e-05 0.000122086 8.38964e-07
7.00432e-07 8.38964e-07 4.00607e-05
0.000965394 6.57554e-05 -5.95059e-07
6.57554e-05 0.000146818 9.76013e-08
-5.95059e-07 9.76013e-08 6.756e-05
0.00100519 7.34543e-05 9.45805e-07
7.34543e-05 0.000174622 9.22242e-07
9.45805e-07 9.22242e-07 9.51241e-05
-1.74414e-05 -0.000100173 1.87322e-05
-0.000100173 -0.000574212 -6.97646e-06
1.87322e-05 -6.97646e-06 -0.000622756
0.00137298 -0.00021825 7.36322e-06
-0.00021825 0.000128292 -3.83291e-06
7.36322e-06 -3.83291e-06 6.54655e-05
0.0008535 -0.00011371 -1.84318e-06
-0.00011371 9.43431e-05 -3.82617e-07
-1.84318e-06 -3.82617e-07 2.85302e-07
0.00179108 -6.06655e-05 4.30313e-06
-6.06655e-05 0.000583696 -3.94422e-06
4.30313e-06 -3.94422e-06 0.00043516
0.00085503 -4.24318e-05 -2.264e-07
-4.24318e-05 8.17797e-05 -7.33582e-07
-2.264e-07 -7.33582e-07 -1.83648e-05
0.000958399 -2.74761e-05 -1.16993e-06
-2.74761e-05 0.000134262 -1.63297e-07
-1.16993e-06 -1.63297e-07 4.77011e-05
0.000921693 9.78406e-06 4.71663e-08
9.78406e-06 0.00011073 -2.76626e-07
4.71663e-08 -2.76626e-07 2.45e-05
0.00064514 -0.000252237 -5.03807e-06
-0.000252237 -0.000262027 -4.40962e-08
-5.03807e-06 -4.40962e-08 -0.000313484
0.000868052 2.50457e-05 3.97009e-09
2.50457e-05 8.62337e-05 -3.43976e-07
3.97009e-09 -3.43976e-07 -6.66622e-06
0.000987744 -2.37836e-05 3.49586e-07
-2.37836e-05 0.00012916 5.9245e-07
3.49586e-07 5.9245e-07 3.32436e-05
0.000553968 -7.04678e-05 7.14291e-07
-7.04678e-05 -2.41193e-05 3.14348e-06
7.14291e-07 3.14348e-06 -0.000115428
0.00100863 -1.85054e-05 4.58544e-07
-1.85054e-05 0.000143547 1.01941e-06
4.58544e-07 1.01941e-06 6.81673e-05
0.000117943 -0.000262074 4.07378e-05
-0.000262074 -0.000410618 -2.60844e-05
4.07378e-05 -2.60844e-05 -0.000382063
0.00118369 -4.00946e-05 -1.05354e-05
-4.00946e-05 0.000500927 1.47793e-05
-1.05354e-05 1.47793e-05 0.000380288
0.000508287 5.66012e-06 -1.25577e-06
5.66012e-06 -0.000130176 4.20128e-06
-1.25577e-06 4.20128e-06 -0.000204961
0.000877771 9.4162e-05 1.70765e-06
9.4162e-05 8.68321e-05 1.57606e-06
1.70765e-06 1.57606e-06 4.92198e-06
0.00141758 -5.92996e-06 -1.39115e-05
-5.92996e-06 0.000239758 2.61042e-07
-1.39115e-05 2.61042e-07 0.000160072
0.00113552 -1.37712e-05 2.62823e-05
-1.37712e-05 -0.000110361 -2.08973e-06
2.62823e-05 -2.08973e-06 -0.000396815
-0.00162781 -2.93022e-05 1.0263e-05
-2.93022e-05 5.42831e-05 1.07728e-06
1.0263e-05 1.07728e-06 -0.00049016
0.000674717 8.30496e-05 1.05803e-05
8.30496e-05 0.000121884 2.2862e-06
1.05803e-05 2.2862e-06 4.98577e-05
0.000539702 0.000140145 2.11401e-05
0.000140145 0.000223544 1.02717e-05
2.11401e-05 1.02717e-05 9.52771e-05
0.00176431 -3.32059e-05 4.64784e-05
-3.32059e-05 0.000341146 1.08182e-05
4.64784e-05 1.08182e-05 6.7708e-05
0.0073431 -0.00039111 6.49717e-05
-0.00039111 0.00275649 3.051e-05
6.49717e-05 3.051e-05 0.000944081
0.00236763 0.000417887 -6.73122e-05
0.000417887 0.000295617 -7.94127e-05
-6.73122e-05 -7.94127e-05 -0.000411512
0.00347119 -0.000275792 2.41208e-05
-0.000275792 0.000345337 2.44963e-05
2.41208e-05 2.44963e-05 8.04616e-05
0.00178554 8.72165e-06 1.79345e-05
8.72165e-06 0.00013435 4.65213e-05
1.79345e-05 4.65213e-05 -0.000334611
0.00204652 9.20303e-06 2.62158e-06
9.20303e-06 -0.00234033 -1.01921e-05
2.62158e-06 -1.01921e-05 -0.000832442
0.000753634 8.0702e-05 9.77474e-07
8.0702e-05 0.000242337 -1.14785e-07
9.77474e-07 -1.14785e-07 0.000181181
0.00125915 -1.75284e-05 -5.1161e-07
-1.75284e-05 0.000103777 -4.72276e-06
-5.1161e-07 -4.72276e-06 -8.54539e-06
0.00189583 8.80848e-06 7.99282e-06
8.80848e-06 0.000233346 3.27169e-06
7.99282e-06 3.27169e-06 -0.000119423
-0.000658676 7.7165e-05 -1.28094e-05
7.7165e-05 -0.000252149 -3.80342e-06
-1.28094e-05 -3.80342e-06 -0.000449478
0.00312294 0.000294312 6.38781e-06
0.000294312 -0.00111437 -1.7426e-06
6.38781e-06 -1.7426e-06 -0.000155739
0.00535998 0.000547338 4.31738e-05
0.000547338 0.00149629 5.66903e-06
4.31738e-05 5.66903e-06 -0.000274629
0.00278658 0.000132966 -4.9455e-05
0.000132966 0.00104743 -4.38164e-06
-4.9455e-05 -4.38164e-06 0.000651637
0.000125783 7.5214e-05 -1.01696e-05
7.5214e-05 3.45139e-05 -1.14873e-05
-1.01696e-05 -1.14873e-05 -7.38932e-05
0.00125293 1.5437e-06 -7.5481e-07
1.5437e-06 0.000135736 -1.36617e-05
-7.5481e-07 -1.36617e-05 3.26637e-05
0.00215276 1.98336e-05 2.11121e-05
1.98336e-05 0.000455131 -3.67744e-05
2.11121e-05 -3.67744e-05 0.000123577
0.00359111 0.00045374 5.36213e-05
0.00045374 -2.14698e-05 -3.49766e-05
5.36213e-05 -3.49766e-05 0.000781453
0.0024395 0.000183195 -1.32939e-05
0.000183195 -0.000307276 -7.58803e-06
-1.32939e-05 -7.58803e-06 -0.00024838
0.00229888 0.000280783 1.51114e-05
0.000280783 0.000328041 -1.82215e-05
1.51114e-05 -1.82215e-05 0.000417865
0.00226846 -3.44314e-05 9.89992e-05
-3.44314e-05 0.00114889 3.07428e-05
9.89992e-05 3.07428e-05 -0.00128677
0.000615232 7.87769e-05 2.73059e-06
7.87769e-05 -1.54299e-05 6.03933e-06
2.73059e-06 6.03933e-06 -6.3818e-05
0.000639381 1.5561e-05 5.36881e-06
1.5561e-05 5.99151e-05 9.35653e-07
5.36881e-06 9.35653e-07 1.59741e-05
0.000487836 -1.92176e-05 1.07307e-05
-1.92176e-05 0.000160647 -1.09942e-05
1.07307e-05 -1.09942e-05 9.70196e-05
0.000854233 2.19549e-05 -3.22295e-07
2.19549e-05 5.21435e-05 1.45043e-06
-3.22295e-07 1.45043e-06 -1.62737e-05
0.000692148 -3.70067e-05 -1.14397e-06
-3.70067e-05 -3.86254e-05 3.25646e-06
-1.14397e-06 3.25646e-06 -8.79274e-05
0.000914496 -6.48984e-05 -3.63741e-06
-6.48984e-05 0.000111677 6.85336e-06
-3.63741e-06 6.85336e-06 6.75697e-05
0.000843254 -2.79784e-06 -1.7696e-07
-2.79784e-06 5.55902e-05 -3.0788e-07
-1.7696e-07 -3.0788e-07 -2.21301e-06
0.000616758 -9.64356e-06 -2.1492e-06
-9.64356e-06 -3.25706e-05 2.74416e-06
-2.1492e-06 2.74416e-06 -5.14354e-05
0.00035527 -7.09415e-05 3.04353e-06
-7.09415e-05 -5.55405e-05 -3.90238e-06
3.04353e-06 -3.90238e-06 -0.000165086
0.000874468 2.88662e-05 1.15047e-07
2.88662e-05 7.83818e-05 1.47593e-06
1.15047e-07 1.47593e-06 1.46265e-05
0.000886318 5.48577e-05 -4.01314e-07
5.48577e-05 9.16587e-05 1.1246e-06
-4.01314e-07 1.1246e-06 2.09569e-05
0.00108531 -3.59199e-05 7.97103e-07
-3.59199e-05 0.000229986 6.6581e-07
7.97103e-07 6.6581e-07 0.000150259
0.000478279 -4.59842e-05 3.77514e-06
-4.59842e-05 -1.45783e-05 1.22228e-06
3.77514e-06 1.22228e-06 -0.000172994
0.000651128 -6.53402e-07 -4.11669e-06
-6.53402e-07 -3.97973e-06 -4.3113e-07
-4.11669e-06 -4.3113e-07 -8.23226e-05
0.00043861 -5.61815e-05 6.5626e-07
-5.61815e-05 -0.000108459 -3.17844e-07
6.5626e-07 -3.17844e-07 -0.00023196
0.00106459 -0.000147034 3.00293e-06
-0.000147034 0.000213366 -3.79568e-07
3.00293e-06 -3.79568e-07 3.30494e-05
0.00113136 -0.000152369 -2.09722e-06
-0.000152369 0.00017383 3.61507e-06
-2.09722e-06 3.61507e-06 -2.18703e-06
0.00133068 -8.40494e-05 -1.82421e-06
-8.40494e-05 0.000353594 -7.51637e-07
-1.82421e-06 -7.51637e-07 0.000241092
0.000732347 -0.000118217 -3.3887e-07
-0.000118217 1.84763e-05 7.28273e-08
-3.3887e-07 7.28273e-08 -0.000132183
0.00137817 -0.000155663 6.01316e-07
-0.000155663 0.000366231 -7.42624e-07
6.01316e-07 -7.42624e-07 0.00022233
0.000506918 -8.36762e-05 -1.36342e-06
-8.36762e-05 -7.04013e-05 9.71371e-08
-1.36342e-06 9.71371e-08 -0.000195482
0.000887488 -0.000121524 1.62527e-07
-0.000121524 0.000108498 2.60858e-07
1.62527e-07 2.60858e-07 -3.23533e-05
0.000898392 -6.64482e-06 -2.9679e-07
-6.64482e-06 0.000114966 6.49896e-07
-2.9679e-07 6.49896e-07 2.57161e-05
0.00100497 -8.79532e-05 -1.53333e-06
-8.79532e-05 0.000186607 1.32297e-06
-1.53333e-06 1.32297e-06 7.26489e-05
0.000594394 -0.000101395 -5.76966e-07
-0.000101395 -4.23167e-05 -8.12216e-07
-5.76966e-07 -8.12216e-07 -0.000179865
0.000785265 4.91003e-05 2.17157e-07
4.91003e-05 3.87605e-05 8.75454e-07
2.17157e-07 8.75454e-07 -2.36761e-05
0.000755689 5.99872e-07 7.40551e-07
5.99872e-07 3.44217e-05 -2.90143e-08
7.40551e-07 -2.90143e-08 -4.69719e-05
0.000843524 -2.98458e-05 6.84359e-07
-2.98458e-05 9.77627e-05 -2.32199e-06
6.84359e-07 -2.32199e-06 -3.9742e-06
0.000834435 1.72375e-05 -7.70782e-08
1.72375e-05 7.12989e-05 -6.19296e-07
-7.70782e-08 -6.19296e-07 2.60907e-06
0.000795438 2.4377e-05 -4.8471e-07
2.4377e-05 3.74138e-05 -1.59281e-07
-4.8471e-07 -1.59281e-07 -1.7551e-05
0.000751222 4.02202e-05 -1.37765e-06
4.02202e-05 9.29862e-06 1.36846e-06
-1.37765e-06 1.36846e-06 -2.75487e-05
0.00081385 -8.71549e-06 8.86641e-07
-8.71549e-06 4.43182e-05 -6.73546e-07
8.86641e-07 -6.73546e-07 -7.92384e-06
0.000760697 3.31176e-05 -6.98623e-08
3.31176e-05 7.71072e-06 -9.47724e-10
-6.98623e-08 -9.47724e-10 -2.69728e-05
0.000683372 3.51547e-05 -1.24187e-06
3.51547e-05 -3.44154e-05 3.28786e-06
-1.24187e-06 3.28786e-06 -4.26245e-05
0.000768963 2.3587e-05 1.20393e-06
2.3587e-05 6.38674e-06 -1.47826e-06
1.20393e-06 -1.47826e-06 -2.68334e-05
0.000702197 3.02421e-05 1.21975e-07
3.02421e-05 -3.12528e-05 2.19074e-08
1.21975e-07 2.19074e-08 -3.78857e-05
0.00203014 4.6433e-05 -4.75775e-06
4.6433e-05 0.000709074 1.56231e-06
-4.75775e-06 1.56231e-06 0.000726428
0.000706629 2.46344e-05 8.70196e-07
2.46344e-05 -3.50329e-05 -3.22409e-06
8.70196e-07 -3.22409e-06 -4.05385e-05
0.00148809 3.00618e-05 7.47181e-06
3.00618e-05 0.000401493 -1.11329e-06
7.47181e-06 -1.11329e-06 0.000417463
0.0021302 2.71317e-05 1.24048e-05
2.71317e-05 0.000753753 -4.01337e-06
1.24048e-05 -4.01337e-06 0.000773486
0.000685275 -1.86715e-05 -1.82785e-07
-1.86715e-05 -2.93695e-05 -6.25655e-07
-1.82785e-07 -6.25655e-07 -8.93687e-05
0.000512463 -1.68082e-05 -3.2526e-07
-1.68082e-05 -0.000134201 -2.11091e-06
-3.2526e-07 -2.11091e-06 -0.000171435
0.000777223 1.52742e-06 -3.39996e-07
1.52742e-06 2.76989e-05 -5.21765e-07
-3.39996e-07 -5.21765e-07 -3.3381e-05
0.00072153 -1.89129e-05 -3.73328e-07
-1.89129e-05 -3.04057e-05 -3.36838e-06
-3.73328e-07 -3.36838e-06 -3.53584e-05
0.000524364 -1.35292e-05 4.3742e-09
-1.35292e-05 -0.000128998 -6.41292e-07
4.3742e-09 -6.41292e-07 -0.000163913
0.000907367 1.46332e-06 -1.22601e-07
1.46332e-06 0.000101636 7.21846e-07
-1.22601e-07 7.21846e-07 4.34188e-05
0.00210442 -1.8598e-05 -8.6628e-06
-1.8598e-05 0.000736066 -4.30907e-06
-8.6628e-06 -4.30907e-06 0.000756886
0.000721988 -1.2537e-05 -1.08721e-07
-1.2537e-05 -3.3705e-05 -1.06854e-08
-1.08721e-07 -1.06854e-08 -3.6898e-05
0.0005297 -8.96115e-06 1.93982e-07
-8.96115e-06 -0.000127013 1.60579e-06
1.93982e-07 1.60579e-06 -0.000160076
0.00207122 -9.12556e-06 -2.66673e-06
-9.12556e-06 0.000715082 2.40648e-08
-2.66673e-06 2.40648e-08 0.000736813
0.000724907 -6.25308e-06 1.80644e-07
-6.25308e-06 -3.43077e-05 3.34646e-06
1.80644e-07 3.34646e-06 -3.64387e-05
0.00206332 2.84849e-07 -5.91859e-07
2.84849e-07 0.000709809 4.40311e-06
-5.91859e-07 4.40311e-06 0.000731786
0.00124635 2.06333e-05 -1.43069e-05
2.06333e-05 8.42797e-05 1.37135e-05
-1.43069e-05 1.37135e-05 -2.95566e-05
0.00137206 2.57594e-05 6.39619e-06
2.57594e-05 5.21954e-05 -2.08383e-06
6.39619e-06 -2.08383e-06 -0.000264827
0.00126487 0.000132801 4.68354e-05
0.000132801 0.0013157 -1.78281e-05
4.68354e-05 -1.78281e-05 0.00111007
0.000857525 2.34311e-05 1.61786e-07
2.34311e-05 7.81015e-05 5.50102e-08
1.61786e-07 5.50102e-08 3.18701e-06
0.000774539 -9.09027e-06 2.42095e-08
-9.09027e-06 2.89634e-05 4.14147e-07
2.42095e-08 4.14147e-07 -4.3551e-05
0.000917555 3.91609e-05 -3.61681e-07
3.91609e-05 0.000112655 1.19122e-06
-3.61681e-07 1.19122e-06 3.31321e-05
0.00176588 1.63723e-05 2.66764e-06
1.63723e-05 7.82827e-05 5.63261e-05
2.66764e-06 5.63261e-05 -0.000357481
0.00213634 2.99619e-05 -6.53445e-06
2.99619e-05 0.000472874 1.9136e-06
-6.53445e-06 1.9136e-06 0.000116698
0.00233849 3.15824e-05 3.85011e-05
3.15824e-05 0.000375999 -4.26621e-05
3.85011e-05 -4.26621e-05 -0.000160879
0.0042862 -0.000250128 -6.01218e-05
-0.000250128 0.000771719 3.99866e-06
-6.01218e-05 3.99866e-06 0.000228999
-0.000316203 2.27994e-05 -3.6487e-05
2.27994e-05 -0.000633368 1.89931e-05
-3.6487e-05 1.89931e-05 -0.00234834
0.00437787 0.000594575 6.16461e-05
0.000594575 0.000919467 -1.62325e-05
6.16461e-05 -1.62325e-05 0.000928585
0.0014639 0.000220224 1.08563e-05
0.000220224 -0.00222186 -2.85516e-05
1.08563e-05 -2.85516e-05 -0.00115853
0.00458931 -0.000532171 -9.54086e-06
-0.000532171 0.00108651 3.4267e-06
-9.54086e-06 3.4267e-06 0.000541981
0.00618865 1.15011e-05 1.30182e-05
1.15011e-05 0.00230703 -8.00186e-06
1.30182e-05 -8.00186e-06 0.000531961
5.52401e-05 0.000111948 -1.05489e-05
0.000111948 -0.0006895 -9.54079e-06
-1.05489e-05 -9.54079e-06 -0.000881946
0.00338079 2.60946e-05 -5.13151e-06
2.60946e-05 -0.00124364 3.7665e-06
-5.13151e-06 3.7665e-06 7.57952e-05
0.00208425 -0.000457546 -3.00137e-05
-0.000457546 -0.0002866 -3.74523e-05
-3.00137e-05 -3.74523e-05 -0.00080837
0.00903944 -0.000321267 6.5982e-05
-0.000321267 0.003911 7.57756e-06
6.5982e-05 7.57756e-06 0.00173771
-0.00374413 8.28939e-05 2.7996e-05
8.28939e-05 -0.00101914 -9.78818e-06
2.7996e-05 -9.78818e-06 -0.00155766
0.00158724 -0.000240157 5.00268e-06
-0.000240157 -0.00177846 1.82354e-06
5.00268e-06 1.82354e-06 -0.000733014
0.000871484 3.43459e-06 -9.869e-08
3.43459e-06 8.21928e-05 1.31091e-06
-9.869e-08 1.31091e-06 -2.31847e-06
0.000857821 -1.52915e-05 2.08115e-07
-1.52915e-05 8.59533e-05 -4.82272e-08
2.08115e-07 -4.82272e-08 -5.39097e-06
0.000825618 -4.78669e-05 -1.1761e-07
-4.78669e-05 7.68389e-05 -4.76512e-07
-1.1761e-07 -4.76512e-07 -1.41854e-05
0.000851662 1.05937e-05 -3.1684e-07
1.05937e-05 7.39716e-05 -2.37297e-07
-3.1684e-07 -2.37297e-07 -6.70747e-06
0.000977367 8.58264e-05 1.37045e-06
8.58264e-05 0.000154425 -1.03849e-07
1.37045e-06 -1.03849e-07 6.83657e-05
0.00101654 7.56481e-05 -5.51479e-08
7.56481e-05 0.000175509 -2.82744e-08
-5.51479e-08 -2.82744e-08 9.54661e-05
0.0011907 -0.000280208 -2.15887e-06
-0.000280208 7.31072e-06 6.95451e-06
-2.15887e-06 6.95451e-06 -7.22775e-05
-0.00074384 -5.30658e-05 8.10666e-06
-5.30658e-05 -0.000708994 -5.24062e-06
8.10666e-06 -5.24062e-06 -0.0007819
0.00101148 4.58433e-05 -6.33852e-07
4.58433e-05 0.000167065 -8.04002e-07
-6.33852e-07 -8.04002e-07 7.70032e-05
0.00137189 -7.16515e-05 7.76701e-06
-7.16515e-05 0.00032484 -9.39893e-06
7.76701e-06 -9.39893e-06 0.000224902
0.00101398 1.63575e-05 -2.96449e-07
1.63575e-05 0.000166701 -1.71271e-06
-2.96449e-07 -1.71271e-06 7.55724e-05
0.000914076 -6.52418e-06 2.45354e-08
-6.52418e-06 9.1939e-05 -3.80938e-07
2.45354e-08 -3.80938e-07 1.38956e-05
0.000973097 5.14045e-05 4.51328e-07
5.14045e-05 0.000136134 -3.35243e-07
4.51328e-07 -3.35243e-07 5.87471e-05
0.000617227 -0.000251821 -9.3505e-06
-0.000251821 -0.000164932 -1.62244e-06
-9.3505e-06 -1.62244e-06 -0.000181483
0.000940567 -1.96416e-05 8.42147e-07
-1.96416e-05 0.000110794 -1.65123e-06
8.42147e-07 -1.65123e-06 3.85317e-05
0.000656272 -1.69676e-05 6.6825e-06
-1.69676e-05 0.000228864 -1.48974e-06
6.6825e-06 -1.48974e-06 0.000117749
0.000978025 1.60258e-05 2.28997e-06
1.60258e-05 0.000136079 1.30956e-06
2.28997e-06 1.30956e-06 6.45216e-05
-0.00186632 -2.90158e-05 8.93838e-06
-2.90158e-05 -0.00091457 -2.60421e-05
8.93838e-06 -2.60421e-05 -0.00118516
0.00141961 6.53401e-06 1.05102e-05
6.53401e-06 0.000593522 1.88711e-05
1.05102e-05 1.88711e-05 0.000558848
0.00112346 -1.64271e-05 1.02564e-06
-1.64271e-05 0.000219436 4.66574e-06
1.02564e-06 4.66574e-06 0.000164234
0.00139115 -5.09006e-06 -5.22567e-07
-5.09006e-06 0.000306162 2.51849e-07
-5.22567e-07 2.51849e-07 0.000259867
0.00104945 -4.04267e-06 -5.35586e-06
-4.04267e-06 5.16474e-05 -1.30595e-06
-5.35586e-06 -1.30595e-06 -1.7084e-05
0.00103734 -2.46075e-05 8.10057e-05
-2.46075e-05 -0.000123269 -1.19033e-06
8.10057e-05 -1.19033e-06 -0.000409813
0.00111811 0.000120573 1.49161e-05
0.000120573 0.000423857 1.06528e-05
1.49161e-05 1.06528e-05 0.000354016
0.00346172 0.000322538 4.67035e-06
0.000322538 0.00146753 -1.43947e-05
4.67035e-06 -1.43947e-05 0.00135382
0.00125176 -1.61731e-05 8.85829e-06
-1.61731e-05 8.20243e-05 5.12898e-06
8.85829e-06 5.12898e-06 -2.17582e-05
0.000860048 0.000238313 -1.1138e-05
0.000238313 -0.000271437 -4.58809e-07
-1.1138e-05 -4.58809e-07 -0.00199278
-0.00645515 1.984e-05 -2.77534e-05
1.984e-05 -0.00320758 7.1458e-06
-2.77534e-05 7.1458e-06 -0.0038519
0.00202533 1.31474e-05 8.7039e-06
1.31474e-05 0.000419476 3.0372e-05
8.7039e-06 3.0372e-05 0.000141224
0.00152679 0.000218372 -9.34594e-06
0.000218372 -0.00215089 2.83528e-05
-9.34594e-06 2.83528e-05 -0.00110487
0.000341185 5.90107e-05 -2.29509e-06
5.90107e-05 0.000141205 -1.89297e-06
-2.29509e-06 -1.89297e-06 5.19243e-05
0.00110501 -1.54528e-06 1.94645e-06
-1.54528e-06 7.39745e-05 -5.22684e-06
1.94645e-06 -5.22684e-06 -1.45207e-05
0.0021619 2.30455e-05 6.29932e-06
2.30455e-05 0.000461886 -1.77782e-06
6.29932e-06 -1.77782e-06 0.000119829
0.0015874 0.000268584 4.44803e-05
0.000268584 -0.00016391 4.16916e-08
4.44803e-05 4.16916e-08 -0.00025841
0.0018259 0.000447807 8.74562e-06
0.000447807 -0.00107676 -2.14749e-05
8.74562e-06 -2.14749e-05 -0.000245507
8.96636e-05 0.000115774 1.14652e-05
0.000115774 -0.000958491 6.2367e-06
1.14652e-05 6.2367e-06 -0.000942934
0.00670275 0.000136665 4.98474e-05
0.000136665 0.00327116 -1.5814e-05
4.98474e-05 -1.5814e-05 0.000601831
2.78545e-05 5.02519e-06 -1.14732e-05
5.02519e-06 0.000175153 -1.19998e-05
-1.14732e-05 -1.19998e-05 -2.06064e-05
0.00118915 1.6832e-05 1.33244e-05
1.6832e-05 3.90899e-05 -1.28756e-05
1.33244e-05 -1.28756e-05 -7.22076e-05
0.00222955 5.39875e-05 7.22783e-05
5.39875e-05 0.000185729 -5.12354e-05
7.22783e-05 -5.12354e-05 -0.000225805
0.00222016 0.000648239 1.12515e-05
0.000648239 0.000603726 -7.57729e-06
1.12515e-05 -7.57729e-06 0.00161279
-0.00627807 0.000138075 6.14035e-05
0.000138075 -0.00441248 3.63402e-05
6.14035e-05 3.63402e-05 -0.00419745
0.00846532 -6.73313e-05 3.46896e-05
-6.73313e-05 0.00343637 -4.99976e-05
3.46896e-05 -4.99976e-05 0.0011938
0.00437838 -0.000228425 -6.03966e-05
-0.000228425 0.000918175 0.000118575
-6.03966e-05 0.000118575 0.00102961
0.00103479 3.00658e-06 -1.59502e-06
3.00658e-06 0.000279481 6.76706e-06
-1.59502e-06 6.76706e-06 0.000236345
6.92458e-05 -1.41411e-05 2.56142e-06
-1.41411e-05 -5.87359e-05 -9.25804e-07
2.56142e-06 -9.25804e-07 -0.00014026
-0.000113607 -9.43443e-05 6.72542e-06
-9.43443e-05 -9.27951e-05 -9.93547e-06
6.72542e-06 -9.93547e-06 -0.000256689
0.000848536 -1.56358e-05 2.29982e-08
-1.56358e-05 6.3151e-05 1.41919e-06
2.29982e-08 1.41919e-06 2.79062e-06
0.00043832 -1.42749e-05 9.44917e-07
-1.42749e-05 -0.000139935 9.89375e-06
9.44917e-07 9.89375e-06 -0.000155623
0.000553753 -1.93494e-05 9.11002e-09
-1.93494e-05 4.59255e-05 1.51749e-08
9.11002e-09 1.51749e-08 -4.90607e-05
0.000874882 -0.000120737 1.22286e-05
-0.000120737 0.000289726 -7.0419e-06
1.22286e-05 -7.0419e-06 7.87575e-05
0.00152131 -5.05369e-05 -1.49195e-06
-5.05369e-05 0.000455732 1.3932e-06
-1.49195e-06 1.3932e-06 0.000371639
0.00124106 -0.000122222 9.35301e-07
-0.000122222 0.000363383 5.25801e-07
9.35301e-07 5.25801e-07 0.000201215
0.000994829 -0.000151002 5.04481e-06
-0.000151002 0.000227071 2.53508e-06
5.04481e-06 2.53508e-06 -2.58078e-05
0.00017771 -5.10366e-05 -1.71257e-06
-5.10366e-05 -0.0002439 -1.40908e-06
-1.71257e-06 -1.40908e-06 -0.000358604
0.00105357 -0.000143887 -2.74171e-07
-0.000143887 0.000204887 7.48288e-07
-2.74171e-07 7.48288e-07 1.85769e-05
0.00189567 -0.000219323 1.14442e-06
-0.000219323 0.000569045 1.96724e-06
1.14442e-06 1.96724e-06 0.000346438
0.00174875 -0.000211613 -3.10891e-06
-0.000211613 0.000407441 1.54432e-06
-3.10891e-06 1.54432e-06 0.000209708
0.000641258 -0.00011749 -2.97494e-07
-0.00011749 -6.8298e-05 4.25878e-06
-2.97494e-07 4.25878e-06 -0.000224316
0.00113575 -0.00015328 -1.70802e-06
-0.00015328 0.000175665 1.22679e-06
-1.70802e-06 1.22679e-06 -1.87198e-06
0.000918625 -0.000130764 -2.26392e-06
-0.000130764 0.000111768 7.18822e-08
-2.26392e-06 7.18822e-08 -4.18653e-05
0.00132459 -0.000149306 1.94967e-06
-0.000149306 0.00034577 -1.71491e-06
1.94967e-06 -1.71491e-06 0.000211534
0.00107215 -0.000134557 2.09682e-06
-0.000134557 0.000207564 -1.59243e-06
2.09682e-06 -1.59243e-06 6.93206e-05
0.000689947 -3.72285e-05 3.96597e-07
-3.72285e-05 1.42237e-05 1.08647e-06
3.96597e-07 1.08647e-06 -9.22931e-05
0.000795225 -9.48236e-05 9.02772e-07
-9.48236e-05 8.30262e-05 -3.85838e-07
9.02772e-07 -3.85838e-07 -4.1566e-05
0.000949361 -0.000125117 4.08922e-06
-0.000125117 0.000140057 -2.64843e-06
4.08922e-06 -2.64843e-06 1.88561e-06
0.000790994 5.17976e-05 5.00515e-07
5.17976e-05 4.92008e-05 1.28759e-06
5.00515e-07 1.28759e-06 -2.45122e-05
0.000900391 -2.50926e-05 -1.74812e-07
-2.50926e-05 0.000117477 8.69578e-08
-1.74812e-07 8.69578e-08 2.62256e-05
0.00107303 -8.58237e-05 -2.41392e-07
-8.58237e-05 0.000221388 -1.2597e-07
-2.41392e-07 -1.2597e-07 0.000107374
0.000727329 4.96858e-05 -9.84689e-07
4.96858e-05 4.60003e-06 1.46241e-06
-9.84689e-07 1.46241e-06 -3.6728e-05
0.000797033 2.86669e-05 -4.8428e-07
2.86669e-05 4.37462e-05 -2.51172e-07
-4.8428e-07 -2.51172e-07 -1.80753e-05
0.000635822 1.0589e-06 3.3377e-08
1.0589e-06 -3.00042e-05 -8.46919e-07
3.3377e-08 -8.46919e-07 -0.000111685
0.000820447 2.21153e-06 7.45775e-07
2.21153e-06 4.99408e-05 -9.4326e-07
7.45775e-07 -9.4326e-07 -4.65244e-06
0.000752335 4.27854e-05 -1.00857e-07
4.27854e-05 1.03048e-05 -2.90052e-08
-1.00857e-07 -2.90052e-08 -2.68848e-05
0.000667559 4.03864e-05 -1.4858e-06
4.03864e-05 -3.45372e-05 3.27285e-06
-1.4858e-06 3.27285e-06 -4.4947e-05
0.000764749 3.40596e-05 1.16201e-06
3.40596e-05 9.76469e-06 -1.52216e-06
1.16201e-06 -1.52216e-06 -2.49553e-05
0.000694391 3.58514e-05 8.58629e-08
3.58514e-05 -2.84821e-05 8.03314e-09
8.58629e-08 8.03314e-09 -3.67362e-05
0.00207586 5.03487e-05 -2.10289e-05
5.03487e-05 0.000740847 3.50745e-06
-2.10289e-05 3.50745e-06 0.000757076
0.000707357 3.06978e-05 1.04871e-06
3.06978e-05 -2.88355e-05 -3.24187e-06
1.04871e-06 -3.24187e-06 -3.54382e-05
0.00147558 3.74559e-05 8.74037e-06
3.74559e-05 0.00040149 -1.00351e-06
8.74037e-06 -1.00351e-06 0.000416102
0.00210842 3.55184e-05 1.57726e-05
3.55184e-05 0.00074685 -3.81389e-06
1.57726e-05 -3.81389e-06 0.00076566
0.000815802 2.34133e-05 -5.7146e-07
2.34133e-05 4.13332e-05 -3.18471e-07
-5.7146e-07 -3.18471e-07 -1.87058e-05
0.0007437 -2.00725e-05 -7.02511e-07
-2.00725e-05 -7.06204e-06 -1.46069e-06
-7.02511e-07 -1.46069e-06 -4.43874e-05
0.000732385 1.77121e-05 -7.56095e-07
1.77121e-05 8.41302e-07 -4.29213e-07
-7.56095e-07 -4.29213e-07 -6.14649e-05
0.000711551 -2.49491e-05 -3.1843e-07
-2.49491e-05 -3.11446e-05 -3.41774e-06
-3.1843e-07 -3.41774e-06 -3.81735e-05
0.000634229 -1.71485e-05 -1.78761e-07
-1.71485e-05 -6.76957e-05 -6.63024e-07
-1.78761e-07 -6.63024e-07 -0.000104173
0.000898622 -1.65623e-06 4.70417e-08
-1.65623e-06 9.43979e-05 -8.15563e-08
4.70417e-08 -8.15563e-08 3.38156e-05
0.00214595 -2.74445e-05 -1.25027e-05
-2.74445e-05 0.00076266 -4.21255e-06
-1.25027e-05 -4.21255e-06 0.000782246
0.000714547 -1.85444e-05 -1.77017e-07
-1.85444e-05 -3.42853e-05 -7.83442e-09
-1.77017e-07 -7.83442e-09 -3.91556e-05
0.000513647 -1.35832e-05 4.53439e-08
-1.35832e-05 -0.000134885 9.32581e-07
4.53439e-08 9.32581e-07 -0.000170066
0.00209573 -1.79282e-05 -2.41253e-06
-1.79282e-05 0.000730877 4.51282e-08
-2.41253e-06 4.51282e-08 0.000751856
0.00071768 -1.2238e-05 3.65325e-07
-1.2238e-05 -3.60791e-05 3.35519e-06
3.65325e-07 3.35519e-06 -3.92259e-05
0.00206764 -8.49512e-06 3.53626e-06
-8.49512e-06 0.000712897 4.37302e-06
3.53626e-06 4.37302e-06 0.00073469
0.00123002 1.59088e-06 -4.42386e-07
1.59088e-06 0.000141003 1.41535e-05
-4.42386e-07 1.41535e-05 1.96666e-05
0.00123169 1.64983e-05 -4.43575e-06
1.64983e-05 7.96745e-05 1.12273e-06
-4.43575e-06 1.12273e-06 -4.53435e-05
0.00146134 2.58707e-05 6.18835e-05
2.58707e-05 0.000121458 -1.52789e-05
6.18835e-05 -1.52789e-05 -0.000199421
0.000759988 -4.52291e-05 7.72634e-08
-4.52291e-05 1.62631e-05 -1.80958e-07
7.72634e-08 -1.80958e-07 -5.27243e-05
0.000913225 -1.17527e-05 -3.31144e-07
-1.17527e-05 0.000107702 -4.91145e-07
-3.31144e-07 -4.91145e-07 3.34442e-05
0.000879739 2.45293e-05 1.32904e-06
2.45293e-05 8.86611e-05 -4.75264e-07
1.32904e-06 -4.75264e-07 1.57427e-05
0.000783543 -2.26398e-05 8.10031e-08
-2.26398e-05 2.933e-05 1.85353e-08
8.10031e-08 1.85353e-08 -4.01993e-05
0.000848205 8.49496e-06 1.63263e-08
8.49496e-06 7.34112e-05 2.11161e-07
1.63263e-08 2.11161e-07 -5.24801e-06
0.000887427 -8.89492e-06 -8.39707e-07
-8.89492e-06 9.47413e-05 4.8148e-07
-8.39707e-07 4.8148e-07 1.87277e-05
0.000878376 0.000110617 7.47029e-07
0.000110617 0.000100503 1.23292e-06
7.47029e-07 1.23292e-06 1.29992e-05
0.00147297 -5.16378e-07 2.23642e-05
-5.16378e-07 0.000165117 5.38119e-05
2.23642e-05 5.38119e-05 -0.000303519
0.00186712 1.85872e-05 -1.66773e-06
1.85872e-05 0.00024866 1.64676e-05
-1.66773e-06 1.64676e-05 -0.000106102
0.00208351 3.40509e-05 9.62483e-06
3.40509e-05 0.000443103 -3.28661e-05
9.62483e-06 -3.28661e-05 7.60918e-05
0.00205887 3.57729e-07 -5.57064e-06
3.57729e-07 -0.00228095 -7.67545e-06
-5.57064e-06 -7.67545e-06 -0.000846641
0.00279978 -0.000472313 -2.63747e-05
-0.000472313 0.000271429 4.89284e-05
-2.63747e-05 4.89284e-05 -0.000485825
-0.000786071 -0.000178405 4.81348e-05
-0.000178405 -0.000969237 -4.78059e-06
4.81348e-05 -4.78059e-06 -0.00277997
0.00471551 0.00048818 3.91085e-05
0.00048818 0.0020971 -2.53308e-05
3.91085e-05 -2.53308e-05 0.00135673
0.00489589 -0.00063524 -2.00246e-05
-0.00063524 0.00104704 4.36182e-06
-2.00246e-05 4.36182e-06 0.000407726
0.00160356 -0.000195736 4.09581e-05
-0.000195736 0.000314645 -2.00804e-05
4.09581e-05 -2.00804e-05 -0.00168301
0.00345047 -7.73228e-06 -2.23928e-05
-7.73228e-06 0.00122821 2.03641e-06
-2.23928e-05 2.03641e-06 0.000852183
0.00501202 -0.000311271 -1.1029e-05
-0.000311271 0.000383862 -1.68757e-05
-1.1029e-05 -1.68757e-05 0.00139658
0.00216695 -0.000163474 -1.69291e-05
-0.000163474 -0.000224635 9.23129e-06
-1.69291e-05 9.23129e-06 -0.000215745
0.000986492 -0.000145208 3.6962e-05
-0.000145208 -0.000488909 -6.19323e-05
3.6962e-05 -6.19323e-05 -0.00206751
-0.00362756 -0.000343609 4.11517e-05
-0.000343609 -0.00308775 3.00024e-06
4.11517e-05 3.00024e-06 -0.00367329
0.000921336 -0.000355366 2.57503e-05
-0.000355366 -0.00160433 -2.42686e-05
2.57503e-05 -2.42686e-05 -0.000540685
0.000915744 -5.0326e-05 -4.27608e-07
-5.0326e-05 0.000105922 2.12516e-06
-4.27608e-07 2.12516e-06 3.36184e-05
0.000813729 2.90615e-06 1.94181e-07
2.90615e-06 5.02148e-05 1.26262e-08
1.94181e-07 1.26262e-08 -3.3553e-05
0.000814048 -1.23444e-06 -5.06076e-07
-1.23444e-06 6.47643e-05 -1.3555e-06
-5.06076e-07 -1.3555e-06 -2.84813e-05
0.000860166 2.29203e-05 1.30514e-08
2.29203e-05 8.1164e-05 -1.5062e-06
1.30514e-08 -1.5062e-06 -1.65439e-06
0.00150503 -0.000267997 5.1892e-07
-0.000267997 0.000261583 1.71506e-05
5.1892e-07 1.71506e-05 0.000213061
0.00010617 -1.95264e-05 5.10238e-06
-1.95264e-05 -5.01973e-05 -9.87931e-06
5.10238e-06 -9.87931e-06 -0.000150433
0.000791802 -2.7706e-05 -3.43171e-07
-2.7706e-05 1.92463e-05 -2.09512e-06
-3.43171e-07 -2.09512e-06 -5.72209e-05
0.000980066 6.41798e-05 -6.71408e-07
6.41798e-05 0.000149197 -2.41188e-06
-6.71408e-07 -2.41188e-06 6.87534e-05
0.00120964 4.50662e-06 4.90157e-06
4.50662e-06 0.000273295 -9.79404e-06
4.90157e-06 -9.79404e-06 0.00019944
0.000858981 -5.15204e-06 -4.51237e-07
-5.15204e-06 7.06009e-05 -2.49622e-08
-4.51237e-07 -2.49622e-08 -6.86379e-07
0.000741628 -8.03999e-06 2.63964e-07
-8.03999e-06 2.30701e-05 -6.51791e-07
2.63964e-07 -6.51791e-07 -3.54436e-05
-0.000746425 -4.59776e-05 -1.33103e-05
-4.59776e-05 -0.000385801 -9.54051e-06
-1.33103e-05 -9.54051e-06 -0.000687464
0.000909436 -2.09254e-05 -2.31384e-06
-2.09254e-05 0.000347998 1.91479e-06
-2.31384e-06 1.91479e-06 0.000320128
0.000766795 -1.35776e-05 3.12431e-06
-1.35776e-05 4.59168e-05 8.48854e-07
3.12431e-06 8.48854e-07 -1.77678e-05
0.00105791 2.03104e-05 -5.86634e-06
2.03104e-05 0.00101039 -4.7578e-05
-5.86634e-06 -4.7578e-05 0.000184875
0.00176475 -2.82258e-05 -2.08018e-06
-2.82258e-05 0.000768649 1.47528e-05
-2.08018e-06 1.47528e-05 0.000709318
0.00143178 -7.07421e-06 1.38049e-05
-7.07421e-06 0.000244591 4.52982e-07
1.38049e-05 4.52982e-07 0.000160207
0.000934954 -4.55903e-06 -8.82852e-08
-4.55903e-06 7.10319e-05 -4.9068e-08
-8.82852e-08 -4.9068e-08 3.13535e-05
0.000736999 -1.87762e-06 2.70773e-06
-1.87762e-06 -9.81185e-05 -9.41561e-07
2.70773e-06 -9.41561e-07 -0.000156865
0.000529277 4.93731e-05 6.45847e-06
4.93731e-05 0.000217165 7.84216e-06
6.45847e-06 7.84216e-06 0.000148928
0.00182048 0.000201303 -5.91899e-05
0.000201303 0.000209425 1.73719e-05
-5.91899e-05 1.73719e-05 0.000243301
0.000968223 -2.95427e-06 2.94897e-06
-2.95427e-06 2.035e-05 3.28734e-06
2.94897e-06 3.28734e-06 -5.59738e-05
0.00331091 -0.000127369 0.000104846
-0.000127369 0.00152596 -0.000116426
0.000104846 -0.000116426 -0.000789008
0.00483409 0.000522259 -3.49963e-05
0.000522259 0.00196466 2.49645e-05
-3.49963e-05 2.49645e-05 0.00127426
0.00211077 2.19155e-05 -1.11152e-05
2.19155e-05 0.000436758 3.31315e-05
-1.11152e-05 3.31315e-05 7.85416e-05
0.00308437 0.000482482 -3.11448e-05
0.000482482 -0.000354167 1.71829e-05
-3.11448e-05 1.71829e-05 0.000508014
-0.000490176 -1.45012e-05 1.82229e-05
-1.45012e-05 -4.68233e-05 -7.3094e-07
1.82229e-05 -7.3094e-07 -0.000284539
0.00122336 1.25098e-05 4.81107e-06
1.25098e-05 6.47935e-05 -9.90032e-07
4.81107e-06 -9.90032e-07 -5.27379e-05
0.00221374 3.32655e-05 1.85777e-05
3.32655e-05 0.000224322 -2.64407e-06
1.85777e-05 -2.64407e-06 -0.000254231
0.00163194 -7.60829e-05 -1.85763e-05
-7.60829e-05 -0.000436548 2.56574e-05
-1.85763e-05 2.56574e-05 -0.000135411
-0.000512859 0.000680162 1.11374e-05
0.000680162 -0.00108337 -1.39091e-06
1.11374e-05 -1.39091e-06 0.000214734
0.0052123 0.000595416 -8.82706e-07
0.000595416 0.000738131 1.48961e-05
-8.82706e-07 1.48961e-05 0.000917853
0.000799376 -0.000282398 4.48038e-05
-0.000282398 9.45085e-05 -2.54821e-05
4.48038e-05 -2.54821e-05 -0.00249751
0.00117284 -6.23931e-05 4.80999e-05
-6.23931e-05 0.000489918 -9.69085e-06
4.80999e-05 -9.69085e-06 0.000452323
0.00109804 9.75677e-06 4.33199e-05
9.75677e-06 -0.000126067 -1.73375e-05
4.33199e-05 -1.73375e-05 -0.000452258
-0.0012464 0.000256556 -2.1402e-05
0.000256556 -0.00039291 -1.51476e-05
-2.1402e-05 -1.51476e-05 -0.000468615
0.000200285 0.000537142 4.484e-06
0.000537142 -0.000162204 3.01528e-05
4.484e-06 3.01528e-05 0.000132407
0.00715401 0.000288046 2.59634e-05
0.000288046 0.00283313 -3.62312e-05
2.59634e-05 -3.62312e-05 0.000766686
0.00283304 -0.000318553 -6.37065e-05
-0.000318553 0.000190702 7.96334e-05
-6.37065e-05 7.96334e-05 -0.000109473
-0.000361671 -1.51202e-05 8.30098e-07
-1.51202e-05 -0.000287484 8.59129e-06
8.30098e-07 8.59129e-06 -0.000390477
0.0002315 -4.5949e-05 -2.33004e-06
-4.5949e-05 9.9631e-05 -3.43293e-07
-2.33004e-06 -3.43293e-07 -6.08607e-05
0.00106789 -0.00015486 1.70773e-05
-0.00015486 0.000339167 -7.34946e-06
1.70773e-05 -7.34946e-06 0.000208475
0.000690574 2.68589e-05 -4.58283e-06
2.68589e-05 0.000116764 1.79006e-06
-4.58283e-06 1.79006e-06 3.55366e-05
3.12508e-05 -6.17772e-05 1.0955e-06
-6.17772e-05 -0.000126083 -2.15129e-06
1.0955e-06 -2.15129e-06 -0.000342481
0.00120446 -0.000184903 1.20849e-05
-0.000184903 0.000242581 1.27195e-06
1.20849e-05 1.27195e-06 2.66475e-05
0.00199476 -0.000198863 -3.65488e-06
-0.000198863 0.000735383 5.25148e-07
-3.65488e-06 5.25148e-07 0.000568712
0.0014024 -0.000173102 7.91393e-07
-0.000173102 0.000421041 1.21683e-06
7.91393e-07 1.21683e-06 0.000172138
0.0009668 -0.000186911 1.42377e-06
-0.000186911 1.55298e-05 -3.30407e-06
1.42377e-06 -3.30407e-06 -0.000207316
0.00107066 -0.000142932 -2.78535e-06
-0.000142932 0.000209796 -4.81076e-07
-2.78535e-06 -4.81076e-07 1.81614e-05
0.00171731 -0.00020739 1.40391e-06
-0.00020739 0.000466804 -2.5437e-08
1.40391e-06 -2.5437e-08 0.000245083
0.00136877 -0.000205307 1.63447e-06
-0.000205307 0.000133656 -3.7751e-06
1.63447e-06 -3.7751e-06 -7.06989e-05
0.00167365 -0.000209859 -4.72129e-07
-0.000209859 0.000238388 -3.04003e-06
-4.72129e-07 -3.04003e-06 6.965e-05
0.00194402 -0.000213601 -5.0197e-06
-0.000213601 0.000544141 4.76275e-06
-5.0197e-06 4.76275e-06 0.000359105
0.00151964 -0.000199515 -8.68013e-07
-0.000199515 0.000279658 7.01337e-08
-8.68013e-07 7.01337e-08 7.81932e-05
0.000601459 -0.00011317 1.73544e-06
-0.00011317 -8.61667e-05 -5.04138e-08
1.73544e-06 -5.04138e-08 -0.000223042
0.000887071 -0.00013173 1.55009e-06
-0.00013173 6.4475e-05 -5.03319e-07
1.55009e-06 -5.03319e-07 -8.75334e-05
0.00118704 -0.000157234 -4.81082e-07
-0.000157234 0.000201754 -1.58058e-06
-4.81082e-07 -1.58058e-06 2.30566e-05
0.00105296 -0.000126726 7.90616e-07
-0.000126726 0.000194837 4.2191e-07
7.90616e-07 4.2191e-07 6.81479e-05
0.0011412 -0.000136603 -5.92964e-07
-0.000136603 0.000248032 -9.0327e-07
-5.92964e-07 -9.0327e-07 0.00011379
0.000774831 -0.000114131 2.25608e-06
-0.000114131 5.37348e-05 -2.08143e-06
2.25608e-06 -2.08143e-06 -7.88451e-05
0.00076246 1.61791e-05 9.98139e-07
1.61791e-05 4.12726e-05 1.24941e-06
9.98139e-07 1.24941e-06 -4.93427e-05
0.000783047 -4.40396e-05 -4.48958e-08
-4.40396e-05 6.56826e-05 7.18724e-07
-4.48958e-08 7.18724e-07 -4.04812e-05
0.00111199 -0.000108091 1.30522e-06
-0.000108091 0.00025204 -1.28675e-06
1.30522e-06 -1.28675e-06 0.000127548
0.000716712 6.36572e-05 -1.05765e-07
6.36572e-05 9.40614e-06 2.01227e-06
-1.05765e-07 2.01227e-06 -4.15676e-05
0.000791405 2.33243e-05 -2.67625e-07
2.33243e-05 5.04659e-05 -1.39321e-07
-2.67625e-07 -1.39321e-07 -2.45495e-05
0.000906493 -3.93763e-05 3.64803e-07
-3.93763e-05 0.000122273 -6.73088e-07
3.64803e-07 -6.73088e-07 2.89793e-05
0.000667935 4.53967e-05 -2.57373e-06
4.53967e-05 -2.57705e-05 4.54002e-06
-2.57373e-06 4.54002e-06 -3.87638e-05
0.000732607 5.5204e-05 -6.65644e-08
5.5204e-05 9.15213e-06 -1.44989e-07
-6.65644e-08 -1.44989e-07 -3.32923e-05
0.000808853 8.56044e-06 2.22772e-07
8.56044e-06 4.88715e-05 -1.18701e-06
2.22772e-07 -1.18701e-06 -1.24231e-05
0.000752662 4.57357e-05 7.15079e-07
4.57357e-05 1.09649e-05 -1.5962e-06
7.15079e-07 -1.5962e-06 -2.6624e-05
0.000687974 4.14152e-05 2.74045e-08
4.14152e-05 -2.35257e-05 -1.41142e-08
2.74045e-08 -1.41142e-08 -3.4033e-05
0.00207928 5.80765e-05 -2.38553e-05
5.80765e-05 0.00075114 3.27397e-06
-2.38553e-05 3.27397e-06 0.000765408
0.000709073 3.66724e-05 1.27239e-06
3.66724e-05 -2.0513e-05 -3.24031e-06
1.27239e-06 -3.24031e-06 -2.88343e-05
0.00208468 5.10022e-05 1.41605e-06
5.10022e-05 0.00074679 9.2426e-08
1.41605e-06 9.2426e-08 0.000762794
0.00209365 4.36603e-05 1.89002e-05
4.36603e-05 0.000745161 -3.6135e-06
1.89002e-05 -3.6135e-06 0.000762664
0.000845349 6.94282e-06 -6.41775e-08
6.94282e-06 6.97325e-05 -5.43301e-07
-6.41775e-08 -5.43301e-07 -3.86082e-06
0.000818481 3.66858e-05 -1.13884e-06
3.66858e-05 4.87287e-05 -9.4596e-07
-1.13884e-06 -9.4596e-07 -1.62158e-05
0.000743305 -2.84945e-05 -7.58595e-07
-2.84945e-05 -5.1161e-06 -1.63128e-06
-7.58595e-07 -1.63128e-06 -4.43456e-05
0.000813637 2.56085e-05 -5.02356e-08
2.56085e-05 4.03919e-05 -2.68594e-08
-5.02356e-08 -2.68594e-08 -1.97438e-05
0.000697137 -3.03476e-05 -5.33704e-07
-3.03476e-05 -3.3564e-05 -3.4903e-06
-5.33704e-07 -3.4903e-06 -4.27495e-05
0.000755859 -2.16259e-05 -1.37761e-07
-2.16259e-05 1.94659e-07 4.4577e-09
-1.37761e-07 4.4577e-09 -3.73345e-05
0.000780116 1.65331e-05 -2.92649e-08
1.65331e-05 1.97442e-05 -1.25689e-07
-2.92649e-08 -1.25689e-07 -3.70582e-05
0.00219095 -3.61929e-05 -1.61698e-05
-3.61929e-05 0.000792223 -4.08068e-06
-1.61698e-05 -4.08068e-06 0.00081031
0.000704917 -2.4424e-05 -1.54765e-07
-2.4424e-05 -3.49062e-05 -5.25357e-09
-1.54765e-07 -5.25357e-09 -4.18343e-05
0.000754645 -1.80289e-05 5.18333e-08
-1.80289e-05 -1.93047e-06 9.10228e-07
5.18333e-08 9.10228e-07 -3.76622e-05
0.00213305 -2.68243e-05 -2.41662e-06
-2.68243e-05 0.000755024 6.84354e-08
-2.41662e-06 6.84354e-08 0.000774819
0.000708085 -1.82042e-05 3.07027e-07
-1.82042e-05 -3.78554e-05 3.371e-06
3.07027e-07 3.371e-06 -4.26513e-05
0.00208563 -1.72162e-05 7.85392e-06
-1.72162e-05 0.000724905 4.32009e-06
7.85392e-06 4.32009e-06 0.000746043
0.00123904 -2.46572e-05 1.27299e-05
-2.46572e-05 0.000138056 1.60871e-05
1.27299e-05 1.60871e-05 -2.38103e-06
0.00107527 2.13059e-07 -2.04575e-06
2.13059e-07 7.02072e-05 5.40394e-06
-2.04575e-06 5.40394e-06 -3.40167e-05
0.00128684 1.35569e-05 5.8877e-06
1.35569e-05 0.000110787 -9.3481e-06
5.8877e-06 -9.3481e-06 -1.62981e-05
0.000806639 -4.52317e-06 -2.74653e-07
-4.52317e-06 4.70304e-05 -6.52505e-08
-2.74653e-07 -6.52505e-08 -2.57013e-05
0.000841164 -2.39628e-05 -1.66737e-07
-2.39628e-05 6.87451e-05 2.34785e-07
-1.66737e-07 2.34785e-07 -6.0299e-06
0.000778246 -3.13013e-05 3.69653e-07
-3.13013e-05 3.67376e-05 -1.70437e-06
3.69653e-07 -1.70437e-06 -4.29092e-05
0.000732972 -3.67992e-05 -2.16674e-08
-3.67992e-05 9.71506e-06 -6.61443e-07
-2.16674e-08 -6.61443e-07 -6.43571e-05
0.00096937 3.85668e-05 -6.30287e-07
3.85668e-05 0.000150302 -2.57679e-07
-6.30287e-07 -2.57679e-07 6.54535e-05
0.000772647 -3.6466e-05 3.50442e-08
-3.6466e-05 2.05567e-05 -1.99713e-07
3.50442e-08 -1.99713e-07 -4.71032e-05
0.00077292 -1.69163e-05 4.56999e-07
-1.69163e-05 2.9648e-05 -1.03719e-06
4.56999e-07 -1.03719e-06 -4.72665e-05
0.000849094 7.83257e-06 -1.35925e-07
7.83257e-06 7.43122e-05 -5.14031e-08
-1.35925e-07 -5.14031e-08 -1.39814e-06
0.000892819 2.94174e-05 -9.88917e-08
2.94174e-05 9.85361e-05 2.25815e-07
-9.88917e-08 2.25815e-07 1.66506e-05
0.000956496 1.19881e-05 5.92536e-08
1.19881e-05 0.00014244 8.55418e-07
5.92536e-08 8.55418e-07 6.19833e-05
0.00177537 -3.07638e-05 5.62222e-05
-3.07638e-05 0.000213367 6.20917e-05
5.62222e-05 6.20917e-05 -0.000309263
0.00160371 5.95815e-06 3.09054e-06
5.95815e-06 0.000159315 1.43752e-05
3.09054e-06 1.43752e-05 -0.00031491
0.00199309 2.41087e-05 -3.91208e-06
2.41087e-05 0.000426303 -1.40094e-05
-3.91208e-06 -1.40094e-05 0.000156837
0.00488064 -0.000286294 -2.71182e-05
-0.000286294 0.000482506 -4.19202e-05
-2.71182e-05 -4.19202e-05 0.00152558
-0.00634863 0.000200009 -2.36166e-05
0.000200009 -0.00317452 1.39254e-05
-2.36166e-05 1.39254e-05 -0.0037722
0.00388809 -0.000580151 -5.51307e-05
-0.000580151 0.000728867 5.51801e-05
-5.51307e-05 5.51801e-05 4.79204e-05
0.00631396 -6.52311e-05 -6.57539e-06
-6.52311e-05 0.00190227 -4.7165e-05
-6.57539e-06 -4.7165e-05 0.000283353
0.00354795 -0.00028884 -4.0674e-05
-0.00028884 0.00043417 4.10859e-05
-4.0674e-05 4.10859e-05 0.00012417
0.00935653 -0.000212985 5.80936e-05
-0.000212985 0.00375983 -1.05491e-05
5.80936e-05 -1.05491e-05 0.00173665
0.000170851 -0.000225733 2.13173e-05
-0.000225733 -0.000930345 -1.72211e-06
2.13173e-05 -1.72211e-06 -0.00118999
0.000907757 -0.000403577 -2.38229e-05
-0.000403577 -0.001704 -5.70566e-05
-2.38229e-05 -5.70566e-05 -0.000603889
0.00434914 -2.28523e-05 -0.000109275
-2.28523e-05 0.000849381 -2.12319e-05
-0.000109275 -2.12319e-05 0.00059253
0.00804421 -0.000318236 -1.87596e-05
-0.000318236 0.00258819 4.70508e-05
-1.87596e-05 4.70508e-05 0.00115271
0.00773348 -0.000853221 1.45252e-05
-0.000853221 0.00217039 -1.4106e-05
1.45252e-05 -1.4106e-05 0.00231019
0.00299904 -0.000632177 1.53329e-05
-0.000632177 0.000304538 1.0769e-06
1.53329e-05 1.0769e-06 0.00155873
0.000665475 1.21362e-05 2.12213e-06
1.21362e-05 9.99072e-06 1.70199e-06
2.12213e-06 1.70199e-06 -5.24217e-05
0.000924162 -4.10675e-05 -8.77413e-08
-4.10675e-05 0.000114117 5.83855e-07
-8.77413e-08 5.83855e-07 4.04943e-05
0.000804841 3.30774e-06 -6.04733e-08
3.30774e-06 4.28881e-05 -1.41714e-06
-6.04733e-08 -1.41714e-06 -3.92813e-05
0.000224827 5.2935e-07 -1.25511e-05
5.2935e-07 6.19092e-05 1.54964e-05
-1.25511e-05 1.54964e-05 -0.000254894
0.000897994 -6.81604e-05 -1.16321e-05
-6.81604e-05 0.000357057 -7.09847e-06
-1.16321e-05 -7.09847e-06 0.000337026
0.000792253 -1.98182e-05 -1.36646e-06
-1.98182e-05 3.567e-05 -9.73219e-07
-1.36646e-06 -9.73219e-07 -3.77763e-05
0.000722496 -5.25016e-05 -3.75483e-07
-5.25016e-05 1.13331e-05 -6.05787e-06
-3.75483e-07 -6.05787e-06 -4.50287e-05
0.000824629 -7.00832e-06 -5.29494e-07
-7.00832e-06 7.97665e-05 -1.26551e-06
-5.29494e-07 -1.26551e-06 1.4984e-05
0.000587637 -2.78888e-05 -3.1038e-07
-2.78888e-05 0.00014183 3.88998e-06
-3.1038e-07 3.88998e-06 8.27209e-05
9.2113e-05 -1.94546e-05 3.14781e-05
-1.94546e-05 0.000488397 -3.30738e-05
3.14781e-05 -3.30738e-05 -0.000310268
-0.00040714 -1.57794e-05 -3.90926e-06
-1.57794e-05 -0.000408721 7.99978e-06
-3.90926e-06 7.99978e-06 -0.000484557
0.0010185 0.00010902 1.05966e-06
0.00010902 0.000477765 -2.90178e-05
1.05966e-06 -2.90178e-05 1.69803e-05
0.0012743 -4.14056e-06 4.35081e-05
-4.14056e-06 -2.76708e-05 6.21983e-06
4.35081e-05 6.21983e-06 -0.000333493
0.00107555 -5.08868e-06 5.94978e-06
-5.08868e-06 6.54785e-05 1.28772e-06
5.94978e-06 1.28772e-06 -7.94402e-06
0.000330907 -3.85852e-06 7.59841e-08
-3.85852e-06 -0.000260957 -3.66938e-07
7.59841e-08 -3.66938e-07 -0.000294138
-0.001465 -3.32326e-05 -3.58341e-05
-3.32326e-05 -0.000457708 1.20364e-05
-3.58341e-05 1.20364e-05 -0.000758154
0.00200378 5.73818e-05 1.34051e-05
5.73818e-05 -0.000369378 -4.27578e-05
1.34051e-05 -4.27578e-05 -0.000420507
0.00131222 9.03489e-06 -4.16348e-06
9.03489e-06 0.00012007 8.7415e-06
-4.16348e-06 8.7415e-06 2.23785e-06
0.011424 -0.000179335 8.33929e-05
-0.000179335 0.00470544 -7.03133e-06
8.33929e-05 -7.03133e-06 0.00252818
0.00438777 0.000629626 -4.94007e-05
0.000629626 0.000896078 1.19331e-05
-4.94007e-05 1.19331e-05 0.000877951
0.00232197 2.26853e-05 -3.83839e-05
2.26853e-05 0.000322367 4.13479e-05
-3.83839e-05 4.13479e-05 -0.00020509
-0.003268 0.000726598 3.74107e-05
0.000726598 -0.00282348 -5.58407e-05
3.74107e-05 -5.58407e-05 -0.00120706
0.000445144 -3.33657e-05 -1.20746e-05
-3.33657e-05 0.000154283 -1.32576e-06
-1.20746e-05 -1.32576e-06 8.02324e-05
0.001355 1.3269e-05 -6.83069e-06
1.3269e-05 2.28029e-05 2.05029e-06
-6.83069e-06 2.05029e-06 -0.00030144
-0.00152334 0.000297326 -6.31015e-05
0.000297326 -0.00044076 2.60354e-05
-6.31015e-05 2.60354e-05 -0.000433028
0.00198599 -0.000296157 -2.05549e-05
-0.000296157 -0.000204807 2.93531e-05
-2.05549e-05 2.93531e-05 -0.000381051
0.00541962 0.000848848 1.20825e-05
0.000848848 0.00178746 2.02273e-05
1.20825e-05 2.02273e-05 0.00211623
0.00710178 -4.41107e-05 5.01262e-05
-4.41107e-05 0.00240963 -2.77869e-05
5.01262e-05 -2.77869e-05 0.000521707
0.00184999 -0.000202277 2.15451e-05
-0.000202277 0.000349014 1.56483e-05
2.15451e-05 1.56483e-05 0.000496737
-0.00140847 6.37237e-05 3.68944e-05
6.37237e-05 7.58774e-06 -6.86139e-06
3.68944e-05 -6.86139e-06 -0.000474667
0.00209235 0.000568583 -3.11663e-05
0.000568583 0.00105162 1.22207e-05
-3.11663e-05 1.22207e-05 0.00117555
0.00524684 0.000318858 -6.41778e-05
0.000318858 0.00172277 5.4549e-05
-6.41778e-05 5.4549e-05 -0.000143148
0.00248013 -0.000532498 1.72208e-05
-0.000532498 9.57802e-05 1.09743e-05
1.72208e-05 1.09743e-05 -0.000500088
0.000561401 5.69629e-06 9.87803e-06
5.69629e-06 0.000285278 9.27402e-06
9.87803e-06 9.27402e-06 0.000130052
0.000676907 -0.000138191 -2.70574e-07
-0.000138191 0.000154683 -4.12761e-07
-2.70574e-07 -4.12761e-07 5.7596e-06
0.00242834 -0.000239862 1.54146e-05
-0.000239862 0.000666081 2.43634e-06
1.54146e-05 2.43634e-06 0.000635353
-0.000790685 -6.4795e-06 -3.90593e-06
-6.4795e-06 -0.000534225 4.35215e-06
-3.90593e-06 4.35215e-06 -0.000754312
0.000638312 -0.000144647 3.81654e-06
-0.000144647 -1.98575e-05 -5.50014e-07
3.81654e-06 -5.50014e-07 -0.000237451
0.000764677 -0.000207319 9.02368e-07
-0.000207319 -0.000256115 -6.15161e-07
9.02368e-07 -6.15161e-07 -0.000413494
0.00178222 -0.000192454 -4.22782e-06
-0.000192454 0.000599667 1.705e-07
-4.22782e-06 1.705e-07 0.000355985
0.00121643 -0.000198288 -2.49689e-06
-0.000198288 0.000141173 -2.12192e-06
-2.49689e-06 -2.12192e-06 -7.44364e-05
0.00177715 -0.000248405 4.08516e-06
-0.000248405 0.000226936 -5.81737e-07
4.08516e-06 -5.81737e-07 7.93583e-05
0.00158558 -0.000197449 -1.44943e-06
-0.000197449 0.000390469 -1.13235e-06
-1.44943e-06 -1.13235e-06 0.000170047
0.0014546 -0.00020666 -2.72161e-07
-0.00020666 0.000175601 -1.84101e-06
-2.72161e-07 -1.84101e-06 -2.24569e-05
0.00149172 -0.000203561 -1.27513e-07
-0.000203561 3.09099e-05 -2.86263e-06
-1.27513e-07 -2.86263e-06 -0.000110381
0.0017477 -0.000188492 -2.47316e-07
-0.000188492 0.000186749 -2.07536e-06
-2.47316e-07 -2.07536e-06 5.23183e-05
0.00149042 -0.000190541 -1.39629e-06
-0.000190541 0.000217058 -1.17825e-06
-1.39629e-06 -1.17825e-06 3.78048e-05
0.0014551 -0.000195902 8.46977e-07
-0.000195902 0.000125546 -6.16434e-07
8.46977e-07 -6.16434e-07 -4.11781e-05
0.00143431 -0.00017293 -2.20279e-06
-0.00017293 0.000298524 3.71855e-06
-2.20279e-06 3.71855e-06 0.000138218
0.00135163 -0.000179052 -1.50979e-07
-0.000179052 0.000231488 7.50653e-07
-1.50979e-07 7.50653e-07 4.40488e-05
0.00124887 -0.000184657 -1.51212e-07
-0.000184657 0.000131403 -1.78355e-06
-1.51212e-07 -1.78355e-06 -7.41486e-05
0.000951067 -0.000128499 3.93695e-07
-0.000128499 0.000104813 -1.1589e-06
3.93695e-07 -1.1589e-06 -2.27038e-05
0.000703562 -0.000118206 -1.84038e-07
-0.000118206 -2.8771e-05 -1.47124e-06
-1.84038e-07 -1.47124e-06 -0.000163436
0.00113008 -0.000145805 4.06365e-06
-0.000145805 0.000195731 -4.164e-06
4.06365e-06 -4.164e-06 4.74125e-05
0.000858237 -6.71872e-05 2.31826e-07
-6.71872e-05 8.23084e-05 1.22008e-06
2.31826e-07 1.22008e-06 -2.29047e-05
0.000964001 -0.00011119 4.77274e-07
-0.00011119 0.000147255 5.26465e-07
4.77274e-07 5.26465e-07 2.31852e-05
0.000975647 -0.000125003 -4.1373e-07
-0.000125003 0.000160271 5.78938e-07
-4.1373e-07 5.78938e-07 2.59166e-05
0.000717618 8.06795e-05 8.7703e-07
8.06795e-05 1.88911e-05 2.82766e-06
8.7703e-07 2.82766e-06 -4.72657e-05
0.000828324 -4.59537e-06 1.66062e-08
-4.59537e-06 7.81527e-05 -1.11375e-07
1.66062e-08 -1.11375e-07 -1.47842e-05
0.000852983 -5.56908e-05 -8.96206e-07
-5.56908e-05 0.000104395 -8.53779e-08
-8.96206e-07 -8.53779e-08 -1.11868e-06
0.00130246 6.14794e-05 -1.35336e-05
6.14794e-05 0.000335678 2.95315e-06
-1.35336e-05 2.95315e-06 0.000321538
0.000712693 5.38177e-05 -6.62944e-08
5.38177e-05 5.61334e-06 -2.75554e-07
-6.62944e-08 -2.75554e-07 -4.44579e-05
0.00079796 -4.86664e-06 2.79286e-07
-4.86664e-06 5.51108e-05 -1.3016e-06
2.79286e-07 -1.3016e-06 -2.13075e-05
0.000819511 3.72476e-05 -2.26659e-05
3.72476e-05 6.39786e-05 3.25576e-06
-2.26659e-05 3.25576e-06 7.04843e-05
0.00102169 5.25524e-05 -6.18212e-06
5.25524e-05 0.000169942 3.02506e-07
-6.18212e-06 3.02506e-07 0.00015807
0.000734399 6.01048e-05 -2.10078e-07
6.01048e-05 1.15092e-05 -1.95598e-06
-2.10078e-07 -1.95598e-06 -3.1862e-05
0.00070984 4.25998e-05 1.34252e-06
4.25998e-05 -1.16969e-05 -3.24724e-06
1.34252e-06 -3.24724e-06 -2.2325e-05
0.00210167 5.88334e-05 1.15786e-06
5.88334e-05 0.000764604 9.52146e-08
1.15786e-06 9.52146e-08 0.000778559
0.00209847 5.16151e-05 2.2098e-05
5.16151e-05 0.000755481 -3.39312e-06
2.2098e-05 -3.39312e-06 0.000771251
0.000766664 -1.91371e-05 2.62721e-07
-1.91371e-05 2.58449e-05 -1.08701e-06
2.62721e-07 -1.08701e-06 -4.99246e-05
0.00081676 1.4633e-05 -5.61109e-07
1.4633e-05 4.85105e-05 -1.38918e-06
-5.61109e-07 -1.38918e-06 -1.78016e-05
0.000826896 -1.84237e-05 9.3008e-08
-1.84237e-05 5.82066e-05 -3.85804e-08
9.3008e-08 -3.85804e-08 -1.44458e-05
0.000744774 -4.11082e-05 -7.67078e-07
-4.11082e-05 8.84766e-07 -1.93285e-06
-7.67078e-07 -1.93285e-06 -4.06706e-05
0.000821627 2.83942e-06 6.67831e-07
2.83942e-06 4.717e-05 -7.62719e-08
6.67831e-07 -7.62719e-08 -1.50855e-05
0.000686071 -3.55156e-05 -7.50219e-07
-3.55156e-05 -3.35282e-05 -3.63352e-06
-7.50219e-07 -3.63352e-06 -4.48193e-05
0.000753098 -2.51906e-05 -1.63187e-07
-2.51906e-05 8.06761e-07 1.53372e-08
-1.63187e-07 1.53372e-08 -3.84609e-05
0.00083306 4.26064e-05 1.123e-06
4.26064e-05 5.75595e-05 5.45784e-07
1.123e-06 5.45784e-07 -6.91514e-06
0.002234 -4.44883e-05 -2.04143e-05
-4.44883e-05 0.000821523 -3.92181e-06
-2.04143e-05 -3.92181e-06 0.000837985
0.000694521 -2.98725e-05 -2.80591e-07
-2.98725e-05 -3.49373e-05 6.63231e-09
-2.80591e-07 6.63231e-09 -4.40754e-05
0.000773269 -2.20063e-05 3.25264e-07
-2.20063e-05 1.02788e-05 1.54683e-06
3.25264e-07 1.54683e-06 -2.74238e-05
0.00217659 -3.56473e-05 -2.20628e-06
-3.56473e-05 0.000783706 8.63941e-08
-2.20628e-06 8.63941e-08 0.000802005
0.000699523 -2.39773e-05 3.4881e-07
-2.39773e-05 -3.79424e-05 3.4094e-06
3.4881e-07 3.4094e-06 -4.47868e-05
0.00212038 -2.61549e-05 1.14627e-05
-2.61549e-05 0.000747484 4.23194e-06
1.14627e-05 4.23194e-06 0.000767486
0.00188991 -4.32907e-05 4.48769e-05
-4.32907e-05 0.000335327 2.48306e-05
4.48769e-05 2.48306e-05 6.08412e-05
0.0012223 -2.09949e-05 7.25041e-07
-2.09949e-05 0.000109036 5.04367e-06
7.25041e-07 5.04367e-06 -2.46583e-05
0.00094548 -1.96804e-06 -2.22562e-06
-1.96804e-06 1.79932e-05 -3.94151e-06
-2.22562e-06 -3.94151e-06 -7.26011e-05
0.000905234 4.23131e-05 -8.44893e-07
4.23131e-05 0.000117969 -3.25998e-07
-8.44893e-07 -3.25998e-07 2.96765e-05
0.000881282 -6.62712e-06 1.85901e-07
-6.62712e-06 8.71189e-05 1.7557e-07
1.85901e-07 1.7557e-07 1.52151e-05
0.000818775 -3.52856e-05 2.53845e-08
-3.52856e-05 5.68557e-05 4.49594e-07
2.53845e-08 4.49594e-07 -1.88611e-05
0.000859915 -3.25984e-05 1.01649e-07
-3.25984e-05 7.72847e-05 -1.36722e-07
1.01649e-07 -1.36722e-07 4.01569e-06
0.000872118 -4.39273e-06 1.94316e-07
-4.39273e-06 8.83691e-05 -4.33724e-07
1.94316e-07 -4.33724e-07 7.75977e-06
0.00087392 2.27336e-05 1.00049e-07
2.27336e-05 9.61534e-05 6.23238e-07
1.00049e-07 6.23238e-07 1.24665e-05
0.000894796 1.83755e-05 -1.06537e-07
1.83755e-05 0.000108092 -1.72911e-06
-1.06537e-07 -1.72911e-06 1.98088e-05
0.000669961 -2.44711e-05 4.32304e-07
-2.44711e-05 -1.6229e-05 -1.62235e-07
4.32304e-07 -1.62235e-07 -9.61525e-05
0.000830239 4.7411e-05 3.25777e-07
4.7411e-05 6.75134e-05 -4.90993e-07
3.25777e-07 -4.90993e-07 -1.01746e-05
0.000856033 -5.60379e-05 6.19665e-07
-5.60379e-05 7.04675e-05 -1.01679e-06
6.19665e-07 -1.01679e-06 -6.29761e-06
0.000878744 -7.45309e-07 -1.57848e-07
-7.45309e-07 9.88953e-05 1.48994e-07
-1.57848e-07 1.48994e-07 1.99312e-05
0.00140403 8.56587e-06 3.45274e-06
8.56587e-06 0.000401161 1.49763e-06
3.45274e-06 1.49763e-06 0.000321906
0.00140662 -0.000339652 5.23756e-05
-0.000339652 0.000772872 4.4728e-05
5.23756e-05 4.4728e-05 0.000865842
0.00202137 -2.69867e-05 2.54786e-06
-2.69867e-05 0.000353731 1.24333e-05
2.54786e-06 1.24333e-05 -0.000186336
0.00170585 1.16759e-05 -1.28946e-05
1.16759e-05 0.000145904 -2.49944e-05
-1.28946e-05 -2.49944e-05 -0.000333315
0.00414253 -0.000501786 -6.04502e-05
-0.000501786 1.89071e-05 -4.95608e-05
-6.04502e-05 -4.95608e-05 0.00122288
0.00417334 -0.000229043 -1.43463e-05
-0.000229043 0.000549987 -7.66766e-06
-1.43463e-05 -7.66766e-06 0.00023396
0.00110843 -0.000288905 -9.70849e-05
-0.000288905 -0.000468193 6.06646e-05
-9.70849e-05 6.06646e-05 -0.00201254
0.00289833 -0.00023301 -4.3811e-05
-0.00023301 0.000320793 8.91272e-05
-4.3811e-05 8.91272e-05 -0.000107699
0.00395532 -0.000211112 -6.62285e-06
-0.000211112 0.000726719 3.11964e-05
-6.62285e-06 3.11964e-05 0.000591385
-0.000258036 -0.000640253 -1.19981e-06
-0.000640253 -0.00122216 9.13497e-06
-1.19981e-06 9.13497e-06 0.00016108
0.00490392 3.56909e-05 6.34566e-06
3.56909e-05 0.00179263 2.52962e-05
6.34566e-06 2.52962e-05 -0.000304386
0.000952856 -0.000416975 -2.81164e-06
-0.000416975 -0.00112237 9.85749e-06
-2.81164e-06 9.85749e-06 -0.000781534
0.00255652 0.000158056 -5.12999e-05
0.000158056 0.000129682 -2.24417e-05
-5.12999e-05 -2.24417e-05 -3.17164e-05
0.00947902 -0.000498247 -3.15909e-05
-0.000498247 0.00386089 3.63766e-05
-3.15909e-05 3.63766e-05 0.00211574
-0.000116546 -0.000494201 -3.51359e-05
-0.000494201 -0.000333911 -3.15e-05
-3.51359e-05 -3.15e-05 3.38166e-05
0.000612468 0.00013542 4.93418e-07
0.00013542 -2.62728e-05 -1.74155e-06
4.93418e-07 -1.74155e-06 -8.75425e-05
0.000962316 2.14694e-05 3.67656e-06
2.14694e-05 0.000162127 -6.02686e-08
3.67656e-06 -6.02686e-08 0.000101526
0.000934624 -2.41579e-05 -8.26297e-07
-2.41579e-05 0.00012327 -7.33187e-07
-8.26297e-07 -7.33187e-07 4.86534e-05
-0.00109598 -9.54824e-06 -3.4844e-05
-9.54824e-06 -0.000236205 -1.41393e-05
-3.4844e-05 -1.41393e-05 -0.000986955
-0.000893923 2.45509e-05 4.06167e-06
2.45509e-05 -0.000650851 -7.04795e-06
4.06167e-06 -7.04795e-06 -0.000714684
0.000788844 2.37447e-05 -3.54314e-07
2.37447e-05 6.32015e-05 -2.02893e-06
-3.54314e-07 -2.02893e-06 -2.451e-06
0.000790216 6.91256e-05 2.73721e-06
6.91256e-05 0.000181573 1.63228e-06
2.73721e-06 1.63228e-06 9.96127e-05
0.000616232 0.000138497 4.9462e-06
0.000138497 0.000178568 -1.96996e-05
4.9462e-06 -1.96996e-05 -0.000178156
0.000182099 0.000176407 1.69821e-05
0.000176407 -0.000248537 5.44294e-06
1.69821e-05 5.44294e-06 -0.000393351
0.000251937 -1.12526e-05 8.15461e-05
-1.12526e-05 0.000903441 4.03539e-07
8.15461e-05 4.03539e-07 0.000428821
0.00136767 -1.38252e-05 -4.61666e-06
-1.38252e-05 8.70406e-05 5.25486e-06
-4.61666e-06 5.25486e-06 -0.000162767
0.000756686 -3.03597e-06 -2.36421e-06
-3.03597e-06 -8.82038e-05 3.47274e-07
-2.36421e-06 3.47274e-07 -0.000151584
0.000415384 -3.33715e-05 -4.05197e-06
-3.33715e-05 0.000149371 5.12883e-06
-4.05197e-06 5.12883e-06 6.81372e-05
0.00117585 -0.000237442 6.97409e-06
-0.000237442 -0.000720182 -2.51562e-05
6.97409e-06 -2.51562e-05 -0.000746671
0.00147644 1.10665e-05 -5.7262e-05
1.10665e-05 0.000105112 1.44577e-05
-5.7262e-05 1.44577e-05 -0.000220768
0.000167196 -0.000176482 1.98052e-05
-0.000176482 -0.000765283 -3.08821e-05
1.98052e-05 -3.08821e-05 -0.00253555
-0.00254323 0.000443255 -9.38554e-06
0.000443255 -0.00216398 -1.36841e-05
-9.38554e-06 -1.36841e-05 -0.00172156
0.00164052 0.000382833 -6.57789e-05
0.000382833 0.000946444 4.47378e-05
-6.57789e-05 4.47378e-05 0.0012682
0.00175798 -0.000145689 -5.35323e-06
-0.000145689 0.000205993 3.49063e-06
-5.35323e-06 3.49063e-06 0.000457908
0.00130786 0.000152012 9.49778e-07
0.000152012 0.00128223 4.82661e-06
9.49778e-07 4.82661e-06 0.00110024
-0.00417294 0.000225234 1.7859e-05
0.000225234 -0.00150837 4.92816e-07
1.7859e-05 4.92816e-07 -0.00182263
0.00414478 -0.00057354 -1.63347e-06
-0.00057354 0.00106678 4.7676e-06
-1.63347e-06 4.7676e-06 0.000148218
0.00777021 0.000302263 5.42965e-06
0.000302263 0.00284582 -1.71497e-06
5.42965e-06 -1.71497e-06 0.00126689
0.000263346 -0.000176835 -6.07149e-07
-0.000176835 -0.000456076 1.41035e-05
-6.07149e-07 1.41035e-05 -0.000382621
-0.00582201 0.000135243 -4.21743e-05
0.000135243 -0.00292612 6.00087e-07
-4.21743e-05 6.00087e-07 -0.00298603
0.00633974 0.00027291 9.26468e-07
0.00027291 0.00224385 4.10823e-06
9.26468e-07 4.10823e-06 0.000823503
0.0051174 -0.000456971 -1.69984e-06
-0.000456971 0.000823019 2.24858e-05
-1.69984e-06 2.24858e-05 -1.8479e-05
0.000246928 -0.000110374 -1.44703e-05
-0.000110374 -3.52342e-05 7.75966e-06
-1.44703e-05 7.75966e-06 -0.000214295
0.00119266 -0.000176197 -1.02709e-06
-0.000176197 3.62989e-05 4.09157e-07
-1.02709e-06 4.09157e-07 4.62127e-05
0.00204798 -0.000214731 9.81477e-06
-0.000214731 0.00020361 -1.57916e-06
9.81477e-06 -1.57916e-06 0.000252161
0.000169024 -0.000109855 -3.96282e-06
-0.000109855 -0.000231314 -1.77413e-06
-3.96282e-06 -1.77413e-06 -0.000453063
0.00123938 -0.000232382 -3.83617e-06
-0.000232382 -1.09324e-05 -1.47025e-06
-3.83617e-06 -1.47025e-06 -0.000169666
0.00194393 -0.000272804 2.83503e-07
-0.000272804 0.000170542 6.36749e-07
2.83503e-07 6.36749e-07 6.6961e-05
0.00151916 -0.000213091 -3.18309e-06
-0.000213091 0.00029724 -2.37984e-06
-3.18309e-06 -2.37984e-06 8.73433e-05
0.00152616 -0.000233468 2.84607e-06
-0.000233468 0.000108876 6.55385e-07
2.84607e-06 6.55385e-07 -4.11377e-05
0.00215386 -0.000227973 -8.73869e-07
-0.000227973 0.000299498 -3.46036e-06
-8.73869e-07 -3.46036e-06 0.00018586
0.00149366 -0.000205878 -2.99304e-06
-0.000205878 0.000192008 1.30405e-07
-2.99304e-06 1.30405e-07 -5.0027e-07
0.00162889 -0.00020811 -4.75603e-07
-0.00020811 0.000105931 7.61095e-07
-4.75603e-07 7.61095e-07 -3.61694e-05
0.00164812 -0.000169891 4.44044e-08
-0.000169891 6.36643e-05 -2.4478e-06
4.44044e-08 -2.4478e-06 -4.53658e-05
0.00166462 -0.000155357 -9.17344e-07
-0.000155357 0.000114613 -1.62031e-06
-9.17344e-07 -1.62031e-06 2.05073e-06
0.00186811 -0.000194164 -1.19286e-06
-0.000194164 0.000320895 -1.97705e-06
-1.19286e-06 -1.97705e-06 0.000169985
0.00168432 -0.000183072 8.87871e-08
-0.000183072 0.000156611 1.13393e-06
8.87871e-08 1.13393e-06 2.25441e-05
0.000883163 -0.000147808 -2.7634e-06
-0.000147808 -6.91591e-05 1.23038e-06
-2.7634e-06 1.23038e-06 -0.00023257
0.00144436 -0.000185198 2.02024e-06
-0.000185198 0.000194154 -1.26895e-06
2.02024e-06 -1.26895e-06 1.85102e-05
0.00126029 -0.000183212 1.82727e-06
-0.000183212 2.46414e-05 1.65497e-06
1.82727e-06 1.65497e-06 -0.000140147
0.00105783 -0.000142438 -3.52353e-07
-0.000142438 0.000125463 1.38907e-06
-3.52353e-07 1.38907e-06 -1.20758e-05
0.0010576 -0.000150021 1.01092e-06
-0.000150021 0.00010167 -5.20033e-07
1.01092e-06 -5.20033e-07 -5.66315e-05
0.000759385 -0.000144353 5.35447e-07
-0.000144353 -8.10413e-05 -2.67608e-06
5.35447e-07 -2.67608e-06 -0.000270408
0.000945662 -0.000112419 -1.70061e-06
-0.000112419 0.00010317 2.59247e-07
-1.70061e-06 2.59247e-07 -8.19989e-06
0.00104776 -0.000133853 -1.24147e-07
-0.000133853 0.000154273 -5.74424e-07
-1.24147e-07 -5.74424e-07 2.63019e-05
0.000807779 -0.000123345 -2.8115e-07
-0.000123345 2.98357e-05 -2.69502e-06
-2.8115e-07 -2.69502e-06 -0.00010263
0.000782913 8.91451e-06 2.95934e-07
8.91451e-06 4.55629e-05 3.15861e-06
2.95934e-07 3.15861e-06 -3.09325e-05
0.000927557 -6.55941e-05 9.76396e-07
-6.55941e-05 0.000118441 4.47796e-07
9.76396e-07 4.47796e-07 1.32507e-05
0.000860325 -9.2554e-05 1.13611e-07
-9.2554e-05 9.14831e-05 9.39382e-07
1.13611e-07 9.39382e-07 -3.00457e-05
0.000586183 5.87441e-05 -1.06551e-06
5.87441e-05 -5.0344e-05 4.31087e-06
-1.06551e-06 4.31087e-06 -7.49448e-05
0.000718332 2.65607e-05 -6.96837e-07
2.65607e-05 1.14558e-05 -3.78853e-07
-6.96837e-07 -3.78853e-07 -5.07546e-05
0.000888612 -2.55883e-05 -5.0073e-08
-2.55883e-05 0.000111706 -1.69117e-06
-5.0073e-08 -1.69117e-06 1.67034e-05
0.00217576 8.12691e-05 -9.59033e-06
8.12691e-05 0.000824171 1.24713e-06
-9.59033e-06 1.24713e-06 0.000831541
0.000670471 5.33986e-05 -3.97405e-09
5.33986e-05 -1.3004e-05 -8.7163e-08
-3.97405e-09 -8.7163e-08 -3.14646e-05
0.000706324 4.23707e-05 1.0915e-06
4.23707e-05 1.3604e-06 -2.25396e-06
1.0915e-06 -2.25396e-06 -4.8396e-05
0.00212678 6.57943e-05 1.20916e-06
6.57943e-05 0.000786786 9.52289e-08
1.20916e-06 9.52289e-08 0.00079866
0.000713259 4.89509e-05 1.35812e-06
4.89509e-05 -3.92689e-07 -3.43285e-06
1.35812e-06 -3.43285e-06 -1.42673e-05
0.00212278 5.9357e-05 2.54246e-05
5.9357e-05 0.000777342 -3.17107e-06
2.54246e-05 -3.17107e-06 0.000791035
0.00090754 3.25407e-05 -3.12497e-07
3.25407e-05 0.000110246 -1.47293e-07
-3.12497e-07 -1.47293e-07 2.79785e-05
0.000800846 -1.11865e-05 8.77627e-08
-1.11865e-05 4.50213e-05 -2.70045e-07
8.77627e-08 -2.70045e-07 -3.17871e-05
0.000804778 1.52934e-06 -3.27326e-07
1.52934e-06 4.67874e-05 -1.61699e-06
-3.27326e-07 -1.61699e-06 -2.48708e-05
0.000732361 -4.58855e-05 -6.52587e-07
-4.58855e-05 6.58248e-08 -2.23739e-06
-6.52587e-07 -2.23739e-06 -4.35669e-05
0.000788069 -1.23693e-05 8.3557e-07
-1.23693e-05 3.35144e-05 -8.32469e-08
8.3557e-07 -8.32469e-08 -3.25909e-05
0.000769646 -6.57782e-06 4.668e-07
-6.57782e-06 3.06827e-05 7.14509e-07
4.668e-07 7.14509e-07 -4.47323e-05
0.000685245 -4.02749e-05 -1.29047e-06
-4.02749e-05 -2.75402e-05 -3.74911e-06
-1.29047e-06 -3.74911e-06 -4.06571e-05
0.000745777 -3.32986e-05 -1.99756e-07
-3.32986e-05 5.51682e-07 2.0096e-08
-1.99756e-07 2.0096e-08 -4.03592e-05
0.000790429 -8.85004e-06 1.17226e-06
-8.85004e-06 3.06244e-05 8.65743e-07
1.17226e-06 8.65743e-07 -3.15523e-05
0.00226428 -5.24065e-05 -2.42884e-05
-5.24065e-05 0.000844504 -3.72029e-06
-2.42884e-05 -3.72029e-06 0.000859295
0.000680638 -3.47461e-05 -2.13631e-07
-3.47461e-05 -3.6435e-05 2.51353e-08
-2.13631e-07 2.51353e-08 -4.76647e-05
0.000760301 -2.35452e-05 8.69726e-07
-2.35452e-05 5.00074e-06 1.65796e-06
8.69726e-07 1.65796e-06 -3.4229e-05
0.00222347 -4.41555e-05 -2.31757e-06
-4.41555e-05 0.000815132 1.09381e-07
-2.31757e-06 1.09381e-07 0.000831748
0.000686915 -2.93277e-05 3.59691e-07
-2.93277e-05 -3.90221e-05 3.50536e-06
3.59691e-07 3.50536e-06 -4.8103e-05
0.00216257 -3.5002e-05 1.50808e-05
-3.5002e-05 0.000775332 4.12436e-06
1.50808e-05 4.12436e-06 0.000793855
-0.00222041 -0.00012217 3.68917e-05
-0.00012217 -0.000451657 1.79356e-05
3.68917e-05 1.79356e-05 -0.00102061
0.00185021 -5.04199e-05 2.09641e-06
-5.04199e-05 0.000331593 6.82376e-06
2.09641e-06 6.82376e-06 5.92557e-05
0.00122041 -1.73919e-05 -8.69466e-06
-1.73919e-05 8.72985e-05 -5.91658e-06
-8.69466e-06 -5.91658e-06 -3.9146e-05
0.000856786 8.79996e-06 -9.32443e-07
8.79996e-06 8.83225e-05 7.04256e-07
-9.32443e-07 7.04256e-07 2.66076e-06
0.00106827 0.0001158 2.02224e-07
0.0001158 0.000217285 8.92678e-07
2.02224e-07 8.92678e-07 0.000113421
0.00086544 2.78566e-05 -3.63339e-07
2.78566e-05 0.000101625 1.19968e-07
-3.63339e-07 1.19968e-07 8.65739e-06
0.000961463 -4.09573e-05 3.1704e-07
-4.09573e-05 0.000132499 -3.58987e-07
3.1704e-07 -3.58987e-07 5.91217e-05
0.000923035 2.57228e-05 6.10787e-07
2.57228e-05 0.000113382 4.51769e-07
6.10787e-07 4.51769e-07 3.44067e-05
0.000722111 -2.29176e-05 -8.34755e-07
-2.29176e-05 8.71505e-06 1.60092e-06
-8.34755e-07 1.60092e-06 -7.10389e-05
0.000743929 2.1589e-06 -7.01752e-07
2.1589e-06 2.79972e-05 1.20693e-09
-7.01752e-07 1.20693e-09 -5.63093e-05
0.000802314 6.12979e-06 2.13627e-07
6.12979e-06 5.72508e-05 -1.37306e-07
2.13627e-07 -1.37306e-07 -3.00343e-05
0.00100029 5.2871e-05 1.43525e-06
5.2871e-05 0.000187313 -1.85587e-06
1.43525e-06 -1.85587e-06 8.50165e-05
0.000859571 6.49753e-05 4.058e-06
6.49753e-05 7.34032e-05 -3.58505e-06
4.058e-06 -3.58505e-06 -9.18573e-06
0.000854378 2.92129e-05 -2.47591e-07
2.92129e-05 8.71827e-05 -9.38061e-07
-2.47591e-07 -9.38061e-07 6.37981e-06
0.00100105 3.53758e-05 7.33235e-07
3.53758e-05 0.0001842 7.88048e-07
7.33235e-07 7.88048e-07 0.00010483
-0.00248306 -0.000347998 -3.73246e-05
-0.000347998 -0.00109345 1.714e-05
-3.73246e-05 1.714e-05 -0.00119902
-0.000524807 -0.000327944 2.91181e-05
-0.000327944 -6.44603e-05 1.05914e-05
2.91181e-05 1.05914e-05 -0.000138108
0.00222817 -3.50032e-05 -4.83358e-05
-3.50032e-05 0.000493109 -3.74812e-05
-4.83358e-05 -3.74812e-05 -6.37033e-05
-0.00350239 -0.000653672 3.03813e-05
-0.000653672 -0.00274664 5.0987e-05
3.03813e-05 5.0987e-05 -0.00122798
0.00540459 -0.000665055 -1.14115e-05
-0.000665055 0.00153928 -1.38086e-05
-1.14115e-05 -1.38086e-05 0.00164698
0.00324858 0.000320791 5.22888e-05
0.000320791 0.000860048 -3.4267e-06
5.22888e-05 -3.4267e-06 -0.00121396
0.00294107 -0.000256435 -0.000131791
-0.000256435 0.000337342 8.12318e-05
-0.000131791 8.12318e-05 -0.000224594
0.00326501 0.00012577 -2.85914e-05
0.00012577 0.000432185 4.20604e-06
-2.85914e-05 4.20604e-06 0.000158616
0.00420988 -0.000737862 -1.62127e-05
-0.000737862 0.00173027 2.10854e-05
-1.62127e-05 2.10854e-05 0.00188843
0.00168639 8.60437e-05 9.83829e-06
8.60437e-05 0.000194696 1.72158e-05
9.83829e-06 1.72158e-05 -0.00164211
0.00233849 0.000362965 -0.000107209
0.000362965 0.000496623 -8.1951e-05
-0.000107209 -8.1951e-05 -0.00025319
0.00206152 0.000391518 -0.000141791
0.000391518 0.000327566 -5.2418e-05
-0.000141791 -5.2418e-05 -0.00144962
0.00225172 0.00032068 1.24543e-05
0.00032068 0.000629139 -1.14385e-05
1.24543e-05 -1.14385e-05 0.000490054
0.000780746 0.00013001 -2.38035e-06
0.00013001 5.71877e-05 3.47997e-07
-2.38035e-06 3.47997e-07 -1.84238e-06
0.00112726 2.20069e-05 -1.19839e-06
2.20069e-05 0.00024451 -2.68761e-06
-1.19839e-06 -2.68761e-06 0.000185149
0.000246915 0.000125254 -3.27596e-05
0.000125254 -2.74993e-05 -1.42101e-05
-3.27596e-05 -1.42101e-05 -0.000291242
0.00156712 0.000115628 -5.83422e-06
0.000115628 0.000559066 -6.34254e-06
-5.83422e-06 -6.34254e-06 0.000471852
0.00123266 0.000243307 9.95114e-06
0.000243307 0.000208236 -6.3995e-07
9.95114e-06 -6.3995e-07 7.58703e-05
0.00165366 0.000336973 5.49674e-05
0.000336973 -3.26907e-05 3.03611e-05
5.49674e-05 3.03611e-05 -7.38306e-05
-0.0035535 -4.39115e-05 -8.60128e-05
-4.39115e-05 -0.00171269 -5.07372e-06
-8.60128e-05 -5.07372e-06 -0.00149169
-0.000574137 -1.28157e-05 2.57054e-05
-1.28157e-05 0.000574145 5.71167e-07
2.57054e-05 5.71167e-07 6.96224e-05
0.00148644 -2.16415e-05 -4.02451e-05
-2.16415e-05 0.000205747 3.88384e-06
-4.02451e-05 3.88384e-06 1.3492e-05
0.00161306 -0.00017681 -3.59439e-05
-0.00017681 0.000124679 -1.78406e-05
-3.59439e-05 -1.78406e-05 0.000369252
0.00358484 -0.000603396 -6.71933e-05
-0.000603396 0.0005676 -2.13598e-06
-6.71933e-05 -2.13598e-06 -0.000137622
0.00123552 0.000119355 -4.1382e-05
0.000119355 0.00132136 1.73794e-05
-4.1382e-05 1.73794e-05 0.00109567
-0.00135938 -4.2518e-05 4.96698e-05
-4.2518e-05 -0.00102209 -5.33822e-05
4.96698e-05 -5.33822e-05 -0.00298528
0.0100374 0.000529797 -8.03469e-05
0.000529797 0.00496739 1.08632e-05
-8.03469e-05 1.08632e-05 0.0049461
0.00163373 -0.000293185 5.58772e-06
-0.000293185 0.000153539 1.38286e-06
5.58772e-06 1.38286e-06 0.000136839
-0.000729866 0.000260696 -2.22404e-06
0.000260696 -0.000214391 -4.41232e-06
-2.22404e-06 -4.41232e-06 -0.000337627
0.00229248 0.000154864 -1.53087e-05
0.000154864 0.000240993 1.82548e-05
-1.53087e-05 1.82548e-05 -0.00143536
0.00506475 -0.000472115 -2.1228e-05
-0.000472115 0.00125464 8.55291e-06
-2.1228e-05 8.55291e-06 0.00046658
-0.000506683 -0.000129652 3.07269e-06
-0.000129652 -0.000744362 -3.29321e-06
3.07269e-06 -3.29321e-06 -0.000934841
0.0080585 -6.69785e-05 5.86784e-05
-6.69785e-05 0.00261235 -3.46213e-06
5.86784e-05 -3.46213e-06 0.00169282
0.00414648 -9.66972e-05 9.92094e-06
-9.66972e-05 0.000874258 -1.08916e-05
9.92094e-06 -1.08916e-05 0.000375023
-0.000182817 -0.000109401 -1.41086e-05
-0.000109401 -0.000664124 3.04365e-06
-1.41086e-05 3.04365e-06 -0.000614092
0.00112232 -0.000186871 -9.84151e-07
-0.000186871 -0.000270832 -6.79708e-07
-9.84151e-07 -6.79708e-07 -0.000216473
0.00207328 -0.000248313 5.63826e-06
-0.000248313 6.04818e-05 -1.04171e-05
5.63826e-06 -1.04171e-05 0.000109796
0.00162038 -0.000251266 -6.2619e-06
-0.000251266 0.000185699 -3.25695e-06
-6.2619e-06 -3.25695e-06 2.86222e-05
0.00164731 -0.000257271 -1.07533e-08
-0.000257271 1.37943e-05 1.2923e-06
-1.07533e-08 1.2923e-06 -8.25933e-05
0.00205988 -0.000234804 -4.61569e-06
-0.000234804 0.000141893 -4.33708e-07
-4.61569e-06 -4.33708e-07 7.97236e-05
0.00116471 -0.000212921 7.81229e-07
-0.000212921 -6.76392e-05 2.32241e-06
7.81229e-07 2.32241e-06 -0.000219525
0.0016919 -0.000208769 -2.41925e-06
-0.000208769 5.40386e-05 -8.80113e-07
-2.41925e-06 -8.80113e-07 -5.86553e-05
0.00188824 -0.000174226 -1.63679e-06
-0.000174226 0.000103169 -1.87491e-06
-1.63679e-06 -1.87491e-06 1.5504e-05
0.00176633 -0.000212306 2.02763e-06
-0.000212306 0.000180753 2.75124e-06
2.02763e-06 2.75124e-06 3.79583e-05
0.00169429 -0.000170789 2.71972e-07
-0.000170789 8.88549e-05 1.88473e-08
2.71972e-07 1.88473e-08 -2.00295e-05
0.00170239 -0.000140995 1.12707e-07
-0.000140995 8.41499e-05 -1.06169e-06
1.12707e-07 -1.06169e-06 -1.08937e-05
0.00169567 -0.000135307 5.80151e-08
-0.000135307 0.000127604 -5.18351e-07
5.80151e-08 -5.18351e-07 2.46568e-05
0.00161994 -0.000151044 -1.54756e-06
-0.000151044 9.13386e-05 1.3613e-06
-1.54756e-06 1.3613e-06 -1.91872e-05
0.0016876 -0.000159708 8.70988e-08
-0.000159708 0.000175997 -2.67338e-06
8.70988e-08 -2.67338e-06 5.38385e-05
0.00156834 -0.000175044 -2.94408e-06
-0.000175044 0.000210156 -1.20614e-06
-2.94408e-06 -1.20614e-06 6.05869e-05
0.00179664 -0.000189636 1.29496e-06
-0.000189636 0.000283497 1.05883e-07
1.29496e-06 1.05883e-07 0.000133119
0.00159695 -0.000176404 1.0073e-06
-0.000176404 0.000113759 4.39465e-06
1.0073e-06 4.39465e-06 -1.97622e-05
0.000822123 -0.000136092 -3.44593e-06
-0.000136092 -6.85869e-05 2.90372e-06
-3.44593e-06 2.90372e-06 -0.000215901
0.00121256 -0.000163578 4.42552e-07
-0.000163578 0.000110228 -1.77648e-07
4.42552e-07 -1.77648e-07 -5.23094e-05
0.00140108 -0.000180143 3.70112e-06
-0.000180143 0.000172251 -1.16001e-06
3.70112e-06 -1.16001e-06 1.32e-07
0.000953428 -0.000121591 -1.55185e-06
-0.000121591 8.19097e-05 7.41265e-07
-1.55185e-06 7.41265e-07 -3.67873e-05
0.00110621 -0.000144196 1.69934e-07
-0.000144196 0.000149201 -2.83594e-07
1.69934e-07 -2.83594e-07 1.14948e-05
0.000704011 -0.000128507 9.19758e-07
-0.000128507 -8.33265e-05 -4.16597e-06
9.19758e-07 -4.16597e-06 -0.000239714
0.000777408 -4.63529e-05 -2.69089e-06
-4.63529e-05 3.05681e-05 2.57535e-06
-2.69089e-06 2.57535e-06 -5.51357e-05
0.00102429 -0.000118096 7.46409e-08
-0.000118096 0.000144301 -1.00461e-07
7.46409e-08 -1.00461e-07 3.24279e-05
0.0011387 -0.000138861 8.02644e-07
-0.000138861 0.000200689 -7.35251e-07
8.02644e-07 -7.35251e-07 7.22935e-05
0.000543126 6.7673e-05 7.15978e-07
6.7673e-05 -6.7531e-05 5.51239e-06
7.15978e-07 5.51239e-06 -0.000101798
0.000763999 -8.0159e-06 6.79266e-08
-8.0159e-06 3.65227e-05 9.01627e-08
6.79266e-08 9.01627e-08 -4.22295e-05
0.00101435 -7.23204e-05 1.4433e-06
-7.23204e-05 0.000165044 -4.00642e-07
1.4433e-06 -4.00642e-07 5.87135e-05
0.00239419 8.41833e-05 -3.53653e-05
8.41833e-05 0.000948858 2.63537e-06
-3.53653e-05 2.63537e-06 0.000954832
0.000631746 6.41429e-05 -1.259e-07
6.41429e-05 -2.37304e-05 -2.0233e-07
-1.259e-07 -2.0233e-07 -4.97877e-05
0.0007139 -8.20139e-06 2.20844e-06
-8.20139e-06 6.48763e-06 -2.99193e-06
2.20844e-06 -2.99193e-06 -5.51542e-05
0.00157505 6.33302e-05 1.40305e-05
6.33302e-05 0.000490845 -5.63183e-07
1.40305e-05 -5.63183e-07 0.000496195
0.000704614 5.69904e-05 5.69387e-07
5.69904e-05 5.99723e-06 -4.0191e-06
5.69387e-07 -4.0191e-06 -1.30985e-05
0.00218881 6.70457e-05 2.97639e-05
6.70457e-05 0.000822273 -2.9367e-06
2.97639e-05 -2.9367e-06 0.000833593
0.000897912 4.92286e-05 5.07312e-07
4.92286e-05 0.000106381 4.85067e-07
5.07312e-07 4.85067e-07 1.57479e-05
0.000865376 -2.20107e-06 -2.74892e-07
-2.20107e-06 8.36325e-05 4.93805e-07
-2.74892e-07 4.93805e-07 4.42305e-06
0.00081147 -3.16058e-05 2.28258e-07
-3.16058e-05 5.53064e-05 -1.47564e-06
2.28258e-07 -1.47564e-06 -2.04963e-05
0.000871936 7.04602e-06 1.11437e-07
7.04602e-06 8.38838e-05 5.28849e-07
1.11437e-07 5.28849e-07 6.0595e-06
0.00079505 -3.01915e-05 4.19105e-07
-3.01915e-05 3.82636e-05 -8.39812e-08
4.19105e-07 -8.39812e-08 -3.07771e-05
0.000702796 -4.60346e-05 -6.26106e-07
-4.60346e-05 -9.66976e-06 -2.45551e-06
-6.26106e-07 -2.45551e-06 -5.65931e-05
0.00068739 -4.5344e-05 -1.68148e-06
-4.5344e-05 -1.92568e-05 -3.8683e-06
-1.68148e-06 -3.8683e-06 -3.42659e-05
0.000732257 -4.20182e-05 8.98843e-08
-4.20182e-05 -5.05815e-07 -3.48622e-08
8.98843e-08 -3.48622e-08 -4.37367e-05
0.000781566 -5.25338e-05 -2.2112e-07
-5.25338e-05 2.66804e-05 1.28718e-06
-2.2112e-07 1.28718e-06 -3.64921e-05
0.00226935 -5.971e-05 -2.80233e-05
-5.971e-05 0.000854267 -3.45118e-06
-2.80233e-05 -3.45118e-06 0.000867467
0.000672124 -3.92957e-05 -2.41608e-07
-3.92957e-05 -3.47036e-05 3.96937e-08
-2.41608e-07 3.96937e-08 -4.77211e-05
0.000748329 -2.49047e-05 1.5927e-06
-2.49047e-05 1.23333e-06 1.86547e-06
1.5927e-06 1.86547e-06 -3.91299e-05
0.00225982 -5.21832e-05 -1.9469e-06
-5.21832e-05 0.000841391 1.24725e-07
-1.9469e-06 1.24725e-07 0.000856284
0.000675229 -3.406e-05 6.82093e-07
-3.406e-05 -3.92472e-05 3.66465e-06
6.82093e-07 3.66465e-06 -5.0439e-05
0.00220516 -4.36758e-05 1.85065e-05
-4.36758e-05 0.000804414 3.97641e-06
1.85065e-05 3.97641e-06 0.000821232
0.000833119 0.000141436 6.35722e-05
0.000141436 0.00082015 3.40365e-05
6.35722e-05 3.40365e-05 0.000322895
-0.000397756 -0.00016085 2.29566e-06
-0.00016085 0.000357207 6.07938e-06
2.29566e-06 6.07938e-06 -9.07879e-05
0.00181542 -5.64243e-05 -4.33331e-05
-5.64243e-05 0.000340242 -1.16795e-05
-4.33331e-05 -1.16795e-05 7.01794e-05
0.00082603 -2.28649e-05 -7.5509e-08
-2.28649e-05 6.98645e-05 7.17137e-07
-7.5509e-08 7.17137e-07 -1.42006e-05
0.000838613 8.23669e-07 -8.70319e-08
8.23669e-07 8.38395e-05 7.0488e-07
-8.70319e-08 7.0488e-07 -8.25295e-06
0.000928516 0.000101997 -9.43978e-08
0.000101997 0.000145394 2.72298e-07
-9.43978e-08 2.72298e-07 4.31724e-05
0.00111427 0.000135952 1.05681e-06
0.000135952 0.000230502 3.26224e-07
1.05681e-06 3.26224e-07 0.000114794
0.000914471 8.3278e-05 -1.19829e-06
8.3278e-05 0.000145344 -4.75843e-07
-1.19829e-06 -4.75843e-07 3.72956e-05
0.000807869 3.2711e-05 4.20307e-07
3.2711e-05 6.18796e-05 1.1767e-06
4.20307e-07 1.1767e-06 -2.31269e-05
0.000743504 1.09876e-05 1.43456e-07
1.09876e-05 2.48012e-05 1.19717e-06
1.43456e-07 1.19717e-06 -6.21658e-05
0.000717564 5.4896e-05 -1.05199e-06
5.4896e-05 3.3244e-05 -1.06311e-06
-1.05199e-06 -1.06311e-06 -6.60585e-05
0.000171118 7.51271e-05 -1.11872e-07
7.51271e-05 -0.000251373 4.49726e-07
-1.11872e-07 4.49726e-07 -0.000366183
0.000912777 0.000115174 1.16627e-06
0.000115174 9.50839e-05 -3.5432e-06
1.16627e-06 -3.5432e-06 -6.30122e-06
0.00186086 0.000243363 6.41783e-06
0.000243363 0.0003973 -9.24672e-06
6.41783e-06 -9.24672e-06 0.000264298
0.00079087 6.5156e-05 -1.39924e-06
6.5156e-05 5.53236e-05 -3.42781e-07
-1.39924e-06 -3.42781e-07 -2.74353e-05
0.000739087 4.16146e-06 -5.4386e-07
4.16146e-06 3.3607e-05 -9.24615e-07
-5.4386e-07 -9.24615e-07 -4.09744e-05
0.00955189 -2.21637e-05 -4.36731e-05
-2.21637e-05 0.00307934 -5.54254e-06
-4.36731e-05 -5.54254e-06 0.00183332
-0.00194006 -0.000275215 -4.56647e-05
-0.000275215 -0.000545142 -6.91884e-06
-4.56647e-05 -6.91884e-06 -0.000921668
0.000927525 -0.000353949 -2.70183e-05
-0.000353949 0.000580044 -2.57898e-05
-2.70183e-05 -2.57898e-05 0.000470772
-0.00294848 -0.000366313 1.62835e-06
-0.000366313 -0.00159466 1.93959e-05
1.62835e-06 1.93959e-05 -0.00139919
0.00953279 -0.000377415 8.05038e-05
-0.000377415 0.00398659 6.15558e-06
8.05038e-05 6.15558e-06 0.00173297
0.00312692 0.000151677 -8.23123e-06
0.000151677 0.000481978 1.3828e-05
-8.23123e-06 1.3828e-05 0.000372918
0.0013744 0.000331115 -4.45031e-05
0.000331115 -0.000138772 -2.10868e-05
-4.45031e-05 -2.10868e-05 -0.000739833
0.00704494 -0.000296859 5.31667e-05
-0.000296859 0.00233692 1.73609e-05
5.31667e-05 1.73609e-05 0.000887008
0.00339181 0.00040267 4.97198e-06
0.00040267 0.000330391 -3.22074e-05
4.97198e-06 -3.22074e-05 -0.000213694
0.00207513 0.000368069 8.46867e-06
0.000368069 0.000323016 1.30526e-05
8.46867e-06 1.30526e-05 0.0001634
0.000884174 0.000219456 2.30087e-06
0.000219456 7.46174e-06 -5.27019e-06
2.30087e-06 -5.27019e-06 -0.000139515
0.000931182 0.000120862 -8.29497e-06
0.000120862 0.000135027 4.37207e-06
-8.29497e-06 4.37207e-06 7.95216e-05
0.00130303 0.0002609 -3.1943e-05
0.0002609 0.000183489 -1.53078e-05
-3.1943e-05 -1.53078e-05 6.47169e-05
0.000989732 0.000312927 -1.72884e-05
0.000312927 -0.000325097 1.45791e-05
-1.72884e-05 1.45791e-05 -0.000388062
0.000532808 -0.00011636 -9.40873e-06
-0.00011636 -0.0014621 -1.49334e-06
-9.40873e-06 -1.49334e-06 -0.00186824
0.00187637 -5.18142e-05 -3.7954e-06
-5.18142e-05 0.00110508 -3.52719e-06
-3.7954e-06 -3.52719e-06 0.00102353
-0.00145077 -1.90553e-05 6.67205e-07
-1.90553e-05 0.00024131 -2.16132e-07
6.67205e-07 -2.16132e-07 -0.000322554
0.00275375 -0.000378944 -5.20644e-05
-0.000378944 0.000639226 3.99287e-06
-5.20644e-05 3.99287e-06 0.000571998
0.00365946 -0.000437369 -1.79913e-05
-0.000437369 0.000660089 -1.66796e-05
-1.79913e-05 -1.66796e-05 -0.000437643
0.000222922 -8.62131e-05 -1.24308e-05
-8.62131e-05 0.000404781 1.543e-05
-1.24308e-05 1.543e-05 0.000124051
0.00963195 0.00034205 -4.23213e-05
0.00034205 0.00394542 2.83195e-05
-4.23213e-05 2.83195e-05 0.00242296
0.000576785 -0.000179409 -1.49846e-06
-0.000179409 -0.000255427 -5.13294e-07
-1.49846e-06 -5.13294e-07 -0.000386976
0.0060346 0.000144722 1.83529e-05
0.000144722 0.0015549 1.55923e-05
1.83529e-05 1.55923e-05 0.000731222
0.00353493 -0.000175428 4.079e-05
-0.000175428 0.000298557 -1.491e-06
4.079e-05 -1.491e-06 -0.000438332
0.00314482 -0.000218705 -4.52992e-06
-0.000218705 0.00107562 2.49434e-06
-4.52992e-06 2.49434e-06 0.000846893
0.00314378 -5.27963e-05 -8.71265e-05
-5.27963e-05 0.00065774 -7.25631e-06
-8.71265e-05 -7.25631e-06 0.000358526
0.000313684 -0.000161284 -8.82912e-06
-0.000161284 -0.000697991 3.09868e-06
-8.82912e-06 3.09868e-06 -0.000630715
0.00153606 -0.000238666 -5.56436e-09
-0.000238666 -0.000192578 6.07491e-07
-5.56436e-09 6.07491e-07 -0.000166818
0.00194182 -0.000165753 -4.17095e-07
-0.000165753 -1.83812e-05 -7.69189e-07
-4.17095e-07 -7.69189e-07 -1.59675e-05
0.00133538 -0.000241696 3.60622e-06
-0.000241696 -0.000146309 1.36146e-06
3.60622e-06 1.36146e-06 -0.00023769
0.0017699 -0.000214164 -4.91059e-07
-0.000214164 1.66585e-05 -4.3715e-07
-4.91059e-07 -4.3715e-07 -4.51318e-05
0.00185231 -0.000141615 -2.73948e-06
-0.000141615 -2.45145e-06 5.19106e-07
-2.73948e-06 5.19106e-07 -4.62689e-05
0.00128458 -0.000191861 -3.30526e-06
-0.000191861 -0.000163059 2.41755e-06
-3.30526e-06 2.41755e-06 -0.000275046
0.0017865 -0.000169095 2.67138e-07
-0.000169095 4.73474e-05 1.27556e-06
2.67138e-07 1.27556e-06 -3.97345e-05
0.00177923 -0.000134474 1.73221e-06
-0.000134474 7.37498e-05 6.53962e-08
1.73221e-06 6.53962e-08 -5.0028e-06
0.00172286 -0.000170927 1.09911e-06
-0.000170927 0.000105361 3.07885e-06
1.09911e-06 3.07885e-06 -3.42273e-06
0.00171087 -0.000142601 -2.86515e-07
-0.000142601 9.01127e-05 6.80402e-07
-2.86515e-07 6.80402e-07 -5.74981e-06
0.00175625 -0.000124643 1.4337e-06
-0.000124643 0.000131078 1.16034e-07
1.4337e-06 1.16034e-07 3.63171e-05
0.0016006 -0.000132741 -2.2655e-06
-0.000132741 7.60996e-05 8.53921e-07
-2.2655e-06 8.53921e-07 -2.5408e-05
0.00168212 -0.000136409 2.20375e-06
-0.000136409 0.000147538 -1.11492e-06
2.20375e-06 -1.11492e-06 3.69759e-05
0.00158175 -0.000147365 5.3818e-08
-0.000147365 7.15728e-05 2.92265e-06
5.3818e-08 2.92265e-06 -3.70742e-05
0.00166197 -0.000158142 2.95696e-07
-0.000158142 0.00016019 -1.40148e-07
2.95696e-07 -1.40148e-07 3.8447e-05
0.00163228 -0.000157082 -3.11837e-07
-0.000157082 0.000189454 -1.62608e-06
-3.11837e-07 -1.62608e-06 5.93182e-05
0.00108366 -0.000146033 -4.0937e-06
-0.000146033 -8.7878e-06 9.62125e-07
-4.0937e-06 9.62125e-07 -0.000152303
0.00154253 -0.000172724 2.0379e-07
-0.000172724 0.000196921 -5.53409e-07
2.0379e-07 -5.53409e-07 4.68048e-05
0.00172255 -0.000185037 2.90097e-06
-0.000185037 0.000245222 2.55187e-06
2.90097e-06 2.55187e-06 9.53131e-05
0.00106022 -0.000134878 -2.69012e-06
-0.000134878 9.70069e-05 1.8929e-06
-2.69012e-06 1.8929e-06 -3.07009e-05
0.000936298 -0.000140951 -1.04998e-06
-0.000140951 -3.59272e-06 1.17272e-06
-1.04998e-06 1.17272e-06 -0.000149971
0.00151097 -0.000177466 3.47077e-06
-0.000177466 0.000273442 -1.91894e-06
3.47077e-06 -1.91894e-06 0.000111923
0.00073689 -6.63302e-05 -3.2143e-06
-6.63302e-05 -1.00814e-05 2.04964e-06
-3.2143e-06 2.04964e-06 -0.000100306
0.00105143 -0.000128111 1.36959e-07
-0.000128111 0.000132894 -3.26121e-07
1.36959e-07 -3.26121e-07 1.34013e-05
0.00116287 -0.000146547 1.42078e-06
-0.000146547 0.000177491 -2.14953e-06
1.42078e-06 -2.14953e-06 3.9534e-05
0.000548906 3.46604e-05 -2.2121e-06
3.46604e-05 -7.4084e-05 6.1815e-06
-2.2121e-06 6.1815e-06 -0.000112285
0.000819135 -5.09231e-05 1.97979e-07
-5.09231e-05 5.22232e-05 2.89571e-07
1.97979e-07 2.89571e-07 -3.38988e-05
0.00108338 -0.000115468 1.73131e-06
-0.000115468 0.000174018 -3.9807e-07
1.73131e-06 -3.9807e-07 6.27913e-05
0.00269528 9.65953e-05 -4.22935e-05
9.65953e-05 0.00111721 2.58067e-06
-4.22935e-05 2.58067e-06 0.00111957
0.000600958 5.28176e-05 7.89708e-07
5.28176e-05 -4.00267e-05 -1.90644e-07
7.89708e-07 -1.90644e-07 -7.22674e-05
0.000764872 -4.14187e-05 2.43353e-06
-4.14187e-05 3.27662e-05 -2.70024e-06
2.43353e-06 -2.70024e-06 -4.47652e-05
0.00248476 8.49173e-05 1.30862e-06
8.49173e-05 0.000997798 1.35829e-07
1.30862e-06 1.35829e-07 0.00100347
0.000675354 6.1765e-05 -3.31291e-07
6.1765e-05 -4.15679e-07 -4.92598e-06
-3.31291e-07 -4.92598e-06 -2.64419e-05
0.00233974 7.55202e-05 3.59221e-05
7.55202e-05 0.000912637 -2.78495e-06
3.59221e-05 -2.78495e-06 0.0009212
0.0010029 0.000121501 6.71574e-07
0.000121501 0.000157186 -2.03621e-07
6.71574e-07 -2.03621e-07 4.82648e-05
0.000844078 8.09388e-05 3.47823e-07
8.09388e-05 8.13902e-05 7.78212e-08
3.47823e-07 7.78212e-08 -1.21313e-05
0.000748842 -2.33522e-05 -3.79848e-07
-2.33522e-05 2.53031e-05 -9.05172e-07
-3.79848e-07 -9.05172e-07 -6.07535e-05
0.000805171 -3.25463e-05 -4.82453e-07
-3.25463e-05 5.06515e-05 9.02417e-07
-4.82453e-07 9.02417e-07 -2.80717e-05
0.000775037 -4.42414e-05 2.14644e-07
-4.42414e-05 3.44412e-05 5.41848e-08
2.14644e-07 5.41848e-08 -4.11243e-05
0.00068139 -4.49365e-05 -7.02649e-07
-4.49365e-05 -1.59328e-05 -2.63089e-06
-7.02649e-07 -2.63089e-06 -6.96189e-05
0.000768289 -5.15657e-05 -2.35111e-07
-5.15657e-05 2.28616e-05 1.56421e-06
-2.35111e-07 1.56421e-06 -4.51466e-05
0.000714387 -5.02157e-05 2.79529e-07
-5.02157e-05 -3.13985e-06 -1.52492e-07
2.79529e-07 -1.52492e-07 -5.03758e-05
0.000683077 -5.34877e-05 -1.35849e-06
-5.34877e-05 -1.22286e-05 -4.09543e-06
-1.35849e-06 -4.09543e-06 -3.03524e-05
0.00227084 -6.69023e-05 -3.12766e-05
-6.69023e-05 0.000862815 -3.15135e-06
-3.12766e-05 -3.15135e-06 0.000874244
0.000671063 -4.40847e-05 -4.76189e-08
-4.40847e-05 -2.80342e-05 1.99128e-08
-4.76189e-08 1.99128e-08 -4.29094e-05
0.000733567 -3.90477e-05 1.66762e-06
-3.90477e-05 -1.84163e-07 2.01477e-06
1.66762e-06 2.01477e-06 -4.30562e-05
0.00227296 -5.95744e-05 -1.71182e-06
-5.95744e-05 0.000855458 1.29714e-07
-1.71182e-06 1.29714e-07 0.000868706
0.000664692 -3.84181e-05 1.04194e-06
-3.84181e-05 -3.87441e-05 3.8036e-06
1.04194e-06 3.8036e-06 -5.16858e-05
0.00225136 -5.18481e-05 2.26022e-05
-5.18481e-05 0.000836113 3.80253e-06
2.26022e-05 3.80253e-06 0.000851131
0.00829471 0.000148287 8.36344e-05
0.000148287 0.00252251 2.75698e-05
8.36344e-05 2.75698e-05 0.00160711
-0.00246488 -0.000165763 -2.00664e-05
-0.000165763 -0.00125344 -2.36708e-06
-2.00664e-05 -2.36708e-06 -0.00126575
-0.00171876 -8.95689e-05 -4.45267e-05
-8.95689e-05 -0.000259601 -7.96537e-06
-4.45267e-05 -7.96537e-06 -0.000872803
0.000808874 -2.69338e-05 2.5697e-07
-2.69338e-05 6.50509e-05 1.39805e-06
2.5697e-07 1.39805e-06 -2.6448e-05
0.000791708 0.000101481 -6.95403e-07
0.000101481 7.44503e-05 3.24709e-07
-6.95403e-07 3.24709e-07 -2.59479e-05
0.00100396 8.74373e-05 4.75457e-07
8.74373e-05 0.000193896 -9.06829e-08
4.75457e-07 -9.06829e-08 8.59384e-05
0.00100307 0.000128759 -1.1136e-06
0.000128759 0.000171825 1.17985e-07
-1.1136e-06 1.17985e-07 5.73954e-05
0.00111341 0.000140709 8.31049e-06
0.000140709 0.000213434 8.4234e-07
8.31049e-06 8.4234e-07 8.41578e-05
0.000614566 0.000104011 -7.69388e-07
0.000104011 -1.741e-05 7.80185e-08
-7.69388e-07 7.80185e-08 -0.000133044
0.000443246 5.47025e-05 -9.26967e-07
5.47025e-05 -0.000112947 -4.13763e-08
-9.26967e-07 -4.13763e-08 -0.00021145
0.000566244 0.000102137 4.82543e-07
0.000102137 -4.84192e-05 6.23304e-07
4.82543e-07 6.23304e-07 -0.000169823
0.000815633 9.62194e-05 -5.96858e-07
9.62194e-05 4.86824e-05 -1.47221e-07
-5.96858e-07 -1.47221e-07 -5.51243e-05
0.000194997 0.000103376 1.72112e-06
0.000103376 -0.000323705 -1.24209e-06
1.72112e-06 -1.24209e-06 -0.000447243
0.00313435 0.000292321 2.57998e-07
0.000292321 0.00106184 -2.77855e-06
2.57998e-07 -2.77855e-06 0.000930163
0.00118347 0.000239726 3.95508e-06
0.000239726 -0.000111234 -2.08235e-06
3.95508e-06 -2.08235e-06 -0.000257482
0.00140469 0.000216803 2.16006e-06
0.000216803 0.000173563 -1.79228e-06
2.16006e-06 -1.79228e-06 4.60934e-05
0.000785231 7.11006e-05 -4.91494e-06
7.11006e-05 6.64956e-05 2.47253e-06
-4.91494e-06 2.47253e-06 -1.59155e-05
0.00290533 9.1308e-05 -5.86839e-06
9.1308e-05 -5.54009e-05 -1.97082e-06
-5.86839e-06 -1.97082e-06 -0.000345833
0.00583328 -8.33083e-06 1.6393e-05
-8.33083e-06 0.00151131 6.59155e-06
1.6393e-05 6.59155e-06 0.000302936
0.00494166 -0.000616173 -3.14995e-05
-0.000616173 0.00246351 -3.12799e-05
-3.14995e-05 -3.12799e-05 0.00242932
0.00734151 -4.69794e-05 0.000247086
-4.69794e-05 0.00250483 7.04288e-05
0.000247086 7.04288e-05 0.000725485
0.00204893 0.000342139 3.07335e-05
0.000342139 5.27673e-05 3.83223e-05
3.07335e-05 3.83223e-05 -0.000147835
0.00231181 0.000295901 -6.43175e-05
0.000295901 3.72073e-05 -1.98544e-05
-6.43175e-05 -1.98544e-05 -0.000325277
0.00257316 0.000339035 4.12548e-05
0.000339035 0.000377653 2.051e-05
4.12548e-05 2.051e-05 0.000376134
0.00212014 0.000364333 -8.21711e-07
0.000364333 0.000339315 5.402e-06
-8.21711e-07 5.402e-06 0.000201597
0.000320327 0.000173594 -2.88524e-06
0.000173594 -0.000261671 5.76118e-06
-2.88524e-06 5.76118e-06 -0.000401919
0.00224715 0.00039887 -7.56112e-05
0.00039887 0.000295508 -4.59482e-05
-7.56112e-05 -4.59482e-05 0.000213713
0.00302177 -0.000128395 -0.000142222
-0.000128395 0.000546137 -4.47689e-08
-0.000142222 -4.47689e-08 0.000154695
0.00807987 -6.06446e-05 1.59531e-05
-6.06446e-05 0.00261462 -7.7416e-07
1.59531e-05 -7.7416e-07 0.001994
-0.00573053 -0.000127796 8.9475e-05
-0.000127796 -0.00296506 6.11477e-07
8.9475e-05 6.11477e-07 -0.00287986
0.00152647 -0.000212778 -3.42281e-06
-0.000212778 0.000198044 5.98081e-06
-3.42281e-06 5.98081e-06 8.77944e-05
0.00544648 -0.000227449 9.42142e-05
-0.000227449 0.00131085 1.52704e-07
9.42142e-05 1.52704e-07 0.000630383
0.000329582 -0.000272326 7.13084e-05
-0.000272326 -0.00120604 2.95311e-05
7.13084e-05 2.95311e-05 -0.00194606
0.00127646 -0.000137061 5.47154e-06
-0.000137061 0.000118556 -1.42616e-06
5.47154e-06 -1.42616e-06 -3.46504e-05
0.00170416 2.69156e-05 -4.51544e-06
2.69156e-05 -0.000194279 2.33238e-06
-4.51544e-06 2.33238e-06 -0.000478886
0.00489984 -0.000141732 4.47431e-06
-0.000141732 0.0017613 -2.54244e-06
4.47431e-06 -2.54244e-06 0.0016654
0.00196984 1.21051e-05 3.62085e-05
1.21051e-05 0.00012635 -3.54434e-06
3.62085e-05 -3.54434e-06 5.92789e-05
0.00104237 -0.000234693 -2.80988e-06
-0.000234693 -0.000422003 2.9508e-06
-2.80988e-06 2.9508e-06 -0.000421485
0.00189675 -0.000172356 -4.8305e-07
-0.000172356 -3.49318e-05 1.04734e-06
-4.8305e-07 1.04734e-06 -4.20658e-05
0.0018281 -6.58089e-05 3.23262e-06
-6.58089e-05 -1.76122e-05 2.68541e-07
3.23262e-06 2.68541e-07 -4.59358e-05
0.00154253 -0.000197148 4.18179e-06
-0.000197148 -8.05734e-05 -2.92373e-07
4.18179e-06 -2.92373e-07 -0.000141879
0.00188859 -0.000143436 1.73705e-06
-0.000143436 2.71043e-05 4.40358e-07
1.73705e-06 4.40358e-07 -2.17166e-05
0.00174635 -8.1858e-05 2.11966e-06
-8.1858e-05 2.93287e-05 9.27076e-07
2.11966e-06 9.27076e-07 -3.02517e-05
0.00165933 -0.000162992 5.12097e-06
-0.000162992 -2.22692e-05 2.79651e-06
5.12097e-06 2.79651e-06 -0.000108716
0.00177994 -0.000131677 1.01109e-06
-0.000131677 8.39282e-05 4.61645e-07
1.01109e-06 4.61645e-07 4.5077e-06
0.00183874 -0.00010102 1.50523e-06
-0.00010102 0.000156112 3.82927e-07
1.50523e-06 3.82927e-07 6.89897e-05
0.0017108 -0.000143532 -5.1441e-07
-0.000143532 9.16264e-05 2.18948e-06
-5.1441e-07 2.18948e-06 -4.96378e-06
0.00170803 -0.000125896 -2.29167e-07
-0.000125896 0.000107843 2.86447e-07
-2.29167e-07 2.86447e-07 1.23871e-05
0.00162058 -0.00011683 2.9034e-06
-0.00011683 9.42999e-05 3.18206e-07
2.9034e-06 3.18206e-07 -1.18562e-05
0.00151378 -0.000130321 -1.82226e-06
-0.000130321 2.88672e-05 1.95001e-06
-1.82226e-06 1.95001e-06 -7.11578e-05
0.00160586 -0.000133142 -1.05677e-06
-0.000133142 0.000104163 -4.13071e-07
-1.05677e-06 -4.13071e-07 -4.76799e-06
0.001736 -0.000139347 8.21079e-07
-0.000139347 0.000210385 -8.12699e-07
8.21079e-07 -8.12699e-07 9.00087e-05
0.001625 -0.000156242 3.41178e-07
-0.000156242 0.000138224 2.17205e-06
3.41178e-07 2.17205e-06 1.69541e-05
0.0016133 -0.000155524 6.11269e-07
-0.000155524 0.000178649 -6.90909e-07
6.11269e-07 -6.90909e-07 4.83933e-05
0.00159606 -0.000152746 -2.23354e-06
-0.000152746 0.000211147 -2.25852e-07
-2.23354e-06 -2.25852e-07 8.00596e-05
0.000819248 -0.000123062 -5.40871e-06
-0.000123062 -0.000100642 2.18367e-06
-5.40871e-06 2.18367e-06 -0.000229812
0.00117148 -0.000148729 -8.31532e-07
-0.000148729 4.37248e-05 3.84873e-07
-8.31532e-07 3.84873e-07 -9.92462e-05
0.00151787 -0.000170446 3.0451e-06
-0.000170446 0.000184289 8.84889e-08
3.0451e-06 8.84889e-08 3.36248e-05
0.000840253 -9.20593e-05 -4.23072e-06
-9.20593e-05 1.89336e-05 2.83215e-06
-4.23072e-06 2.83215e-06 -7.91946e-05
0.00109402 -0.000136199 2.99619e-07
-0.000136199 0.000113101 1.72517e-07
2.99619e-07 1.72517e-07 -1.44329e-05
0.00106308 -0.000146515 1.01575e-06
-0.000146515 6.78353e-05 -5.11817e-07
1.01575e-06 -5.11817e-07 -7.76385e-05
0.000565702 1.12958e-05 -5.27445e-06
1.12958e-05 -6.99616e-05 6.4484e-06
-5.27445e-06 6.4484e-06 -0.00011497
0.000862236 -7.42352e-05 8.99114e-08
-7.42352e-05 5.80517e-05 -1.02824e-07
8.99114e-08 -1.02824e-07 -3.34977e-05
0.00114458 -0.000134251 2.33784e-06
-0.000134251 0.000181281 -1.56606e-06
2.33784e-06 -1.56606e-06 6.10357e-05
0.0030585 0.000109878 -5.23832e-05
0.000109878 0.0013176 2.59548e-06
-5.23832e-05 2.59548e-06 0.00131597
0.000617187 2.69542e-05 3.09609e-07
2.69542e-05 -3.84946e-05 -1.66804e-07
3.09609e-07 -1.66804e-07 -7.70597e-05
0.000864051 -5.68236e-05 3.66907e-06
-5.68236e-05 7.47229e-05 -2.17512e-06
3.66907e-06 -2.17512e-06 -1.13836e-05
0.0027917 9.57635e-05 1.60086e-06
9.57635e-05 0.00116857 1.56109e-07
1.60086e-06 1.56109e-07 0.00117085
0.00065833 5.00206e-05 2.27789e-06
5.00206e-05 -8.62623e-06 -5.44546e-06
2.27789e-06 -5.44546e-06 -4.15772e-05
0.0025816 8.43961e-05 4.44447e-05
8.43961e-05 0.00104986 -2.76302e-06
4.44447e-05 -2.76302e-06 0.00105551
0.00108134 0.000133801 -2.59523e-07
0.000133801 0.000184443 -2.34536e-06
-2.59523e-07 -2.34536e-06 6.20035e-05
0.00106371 0.00012537 3.47608e-07
0.00012537 0.000190355 2.00535e-07
3.47608e-07 2.00535e-07 8.15763e-05
0.000914791 6.13197e-05 -1.23767e-06
6.13197e-05 0.000106655 -9.68e-07
-1.23767e-06 -9.68e-07 9.51569e-06
0.000799545 0.000101754 -4.93622e-08
0.000101754 6.19119e-05 1.81452e-07
-4.93622e-08 1.81452e-07 -3.45678e-05
0.000741285 -2.89608e-06 -4.74306e-07
-2.89608e-06 2.14459e-05 -1.5286e-07
-4.74306e-07 -1.5286e-07 -6.61472e-05
0.000701956 5.80797e-06 -1.95713e-06
5.80797e-06 -9.86604e-07 -2.27985e-06
-1.95713e-06 -2.27985e-06 -6.65509e-05
0.000749188 -6.11555e-05 -2.04114e-07
-6.11555e-05 2.20348e-05 1.34955e-06
-2.04114e-07 1.34955e-06 -5.52721e-05
0.000700048 -4.6555e-05 3.18167e-07
-4.6555e-05 -4.65454e-06 -3.54929e-07
3.18167e-07 -3.54929e-07 -5.90045e-05
0.000664519 -6.50433e-05 2.67425e-07
-6.50433e-05 -1.05654e-05 -4.73836e-06
2.67425e-07 -4.73836e-06 -3.42632e-05
0.000721628 -5.39305e-05 8.23777e-07
-5.39305e-05 9.2424e-07 2.29089e-06
8.23777e-07 2.29089e-06 -4.65395e-05
0.000661101 -5.06599e-05 1.67808e-07
-5.06599e-05 -2.48569e-05 -1.47677e-08
1.67808e-07 -1.47677e-08 -4.24482e-05
0.00231915 -7.46369e-05 -3.4951e-05
-7.46369e-05 0.000897296 -2.80227e-06
-3.4951e-05 -2.80227e-06 0.00090658
0.00227696 -6.68077e-05 -1.05563e-06
-6.68077e-05 0.000865201 1.21251e-07
-1.05563e-06 1.21251e-07 0.000876702
0.000655664 -4.28833e-05 1.68914e-06
-4.28833e-05 -3.63812e-05 3.88723e-06
1.68914e-06 3.88723e-06 -5.11237e-05
0.00227643 -5.9497e-05 2.63997e-05
-5.9497e-05 0.000856647 3.5906e-06
2.63997e-05 3.5906e-06 0.000869928
0.00226587 -1.42529e-05 -5.82398e-05
-1.42529e-05 2.59476e-05 9.30361e-06
-5.82398e-05 9.30361e-06 -0.000227634
0.00212265 -0.000163544 1.497e-05
-0.000163544 -0.000493717 5.24925e-06
1.497e-05 5.24925e-06 -0.00131491
0.00381484 -0.00035563 -4.69696e-05
-0.00035563 0.00164221 -2.06133e-05
-4.69696e-05 -2.06133e-05 0.00174222
0.0013179 0.000159462 8.16559e-06
0.000159462 0.00025714 1.63229e-06
8.16559e-06 1.63229e-06 0.00011674
0.00111608 9.11465e-05 3.09844e-07
9.11465e-05 0.000254454 2.35997e-07
3.09844e-07 2.35997e-07 0.00014648
0.000889042 0.000121339 -1.11608e-06
0.000121339 0.000111939 7.90156e-07
-1.11608e-06 7.90156e-07 -1.22688e-06
0.000840133 0.000118971 3.74515e-07
0.000118971 0.000102797 6.9013e-07
3.74515e-07 6.9013e-07 -1.55925e-05
0.00101468 0.000135579 -2.88463e-07
0.000135579 0.00016389 -1.55056e-06
-2.88463e-07 -1.55056e-06 3.3794e-05
0.000681437 0.000121216 -3.60389e-07
0.000121216 -4.22689e-05 -2.74198e-09
-3.60389e-07 -2.74198e-09 -0.000160314
0.000952524 0.000129319 -9.36062e-07
0.000129319 0.000150537 -3.58535e-07
-9.36062e-07 -3.58535e-07 2.23357e-05
0.000885129 8.73751e-05 -2.88848e-06
8.73751e-05 8.63478e-05 3.43745e-06
-2.88848e-06 3.43745e-06 -2.05352e-05
0.000932945 0.00014687 4.39472e-07
0.00014687 6.28657e-05 1.09633e-08
4.39472e-07 1.09633e-08 -6.13868e-05
0.00240083 0.000251981 7.12838e-07
0.000251981 0.00068855 4.06422e-06
7.12838e-07 4.06422e-06 0.000558128
0.00170113 0.000239319 -9.51445e-07
0.000239319 0.000173488 -2.30822e-06
-9.51445e-07 -2.30822e-06 2.62101e-05
0.00160978 0.000216969 1.09957e-05
0.000216969 1.73907e-05 9.9667e-06
1.09957e-05 9.9667e-06 -0.000108696
0.00122439 0.000243523 -1.09957e-06
0.000243523 -9.9458e-05 -2.00299e-06
-1.09957e-06 -2.00299e-06 -0.000251321
0.00107617 0.000194093 -1.03624e-06
0.000194093 8.35817e-06 7.15308e-06
-1.03624e-06 7.15308e-06 -0.000113338
0.000334421 0.000125345 2.70233e-06
0.000125345 -0.000410101 1.34787e-06
2.70233e-06 1.34787e-06 -0.000413397
0.00475156 0.000164488 -1.93272e-05
0.000164488 0.000688805 9.53465e-07
-1.93272e-05 9.53465e-07 0.000306829
0.000462827 -8.60325e-05 3.30657e-05
-8.60325e-05 -0.00111392 1.12852e-05
3.30657e-05 1.12852e-05 -0.00224056
0.00251318 0.000357314 6.16173e-05
0.000357314 4.96905e-05 1.59918e-05
6.16173e-05 1.59918e-05 -0.000479599
0.00153821 0.000265418 -1.63689e-05
0.000265418 3.35313e-05 -1.83963e-06
-1.63689e-05 -1.83963e-06 9.9714e-06
0.000789946 0.000271631 -2.60921e-05
0.000271631 -0.000254977 -1.69569e-05
-2.60921e-05 -1.69569e-05 -0.000396613
0.00229996 -9.48196e-05 1.45272e-05
-9.48196e-05 0.000280367 -2.02889e-07
1.45272e-05 -2.02889e-07 0.000182151
0.00120354 1.42662e-06 -1.98653e-05
1.42662e-06 -0.00024166 6.84712e-07
-1.98653e-05 6.84712e-07 -0.00053735
0.000138 0.000233965 5.8921e-05
0.000233965 -0.00160328 -1.90616e-05
5.8921e-05 -1.90616e-05 -0.00224525
-0.000356908 -7.54358e-05 2.43448e-06
-7.54358e-05 -0.000744229 1.07304e-05
2.43448e-06 1.07304e-05 -0.000808964
0.00262973 2.63425e-05 1.9229e-05
2.63425e-05 0.000137597 9.35249e-06
1.9229e-05 9.35249e-06 -0.00021949
0.00172065 -8.07922e-05 -3.69963e-07
-8.07922e-05 6.48625e-05 -1.11565e-06
-3.69963e-07 -1.11565e-06 1.11904e-05
0.00212111 6.16463e-06 -3.48498e-07
6.16463e-06 0.000204479 -5.58039e-07
-3.48498e-07 -5.58039e-07 0.000132225
0.00176446 -1.52135e-05 1.08156e-05
-1.52135e-05 -7.8256e-06 -1.74033e-06
1.08156e-05 -1.74033e-06 -6.69518e-05
0.00260258 -1.05822e-05 6.77401e-06
-1.05822e-05 0.000503271 -4.86205e-07
6.77401e-06 -4.86205e-07 0.000443442
0.00183368 -0.000175227 -1.36381e-06
-0.000175227 -5.33278e-05 -4.59552e-07
-1.36381e-06 -4.59552e-07 -7.03699e-05
0.00196603 -7.4019e-05 3.00453e-06
-7.4019e-05 4.41186e-05 -4.63365e-07
3.00453e-06 -4.63365e-07 1.23408e-05
0.00177476 -7.66897e-05 9.70657e-07
-7.66897e-05 5.35881e-05 3.71646e-07
9.70657e-07 3.71646e-07 -5.29509e-06
0.00191122 -0.000145419 3.61775e-06
-0.000145419 4.94353e-05 1.40723e-06
3.61775e-06 1.40723e-06 -4.20378e-06
0.00182137 -9.49789e-05 6.88475e-07
-9.49789e-05 6.47371e-05 6.32668e-08
6.88475e-07 6.32668e-08 2.26104e-06
0.00177227 -8.81036e-05 2.81147e-06
-8.81036e-05 0.000113265 4.5839e-07
2.81147e-06 4.5839e-07 3.12863e-05
0.00179845 -0.00012995 -1.46874e-06
-0.00012995 0.000103624 1.3416e-06
-1.46874e-06 1.3416e-06 2.34603e-05
0.00177462 -0.000105563 -1.25125e-06
-0.000105563 0.000123426 -6.00808e-08
-1.25125e-06 -6.00808e-08 3.53732e-05
0.00163631 -9.48686e-05 1.43026e-06
-9.48686e-05 8.88253e-05 5.648e-07
1.43026e-06 5.648e-07 -1.64915e-05
0.0016625 -0.000127343 -2.16366e-06
-0.000127343 8.59798e-05 4.8019e-07
-2.16366e-06 4.8019e-07 -1.02014e-05
0.00164275 -0.000117367 5.95033e-07
-0.000117367 0.000106104 -9.83979e-08
5.95033e-07 -9.83979e-08 -3.67686e-08
0.00159664 -0.000118424 8.49052e-07
-0.000118424 0.000110704 -6.07922e-09
8.49052e-07 -6.07922e-09 -5.26209e-06
0.00153218 -0.000129981 -3.77664e-06
-0.000129981 6.21433e-05 8.83769e-07
-3.77664e-06 8.83769e-07 -4.51892e-05
0.00157715 -0.000132751 -1.05171e-07
-0.000132751 0.000122975 -2.99864e-07
-1.05171e-07 -2.99864e-07 4.03857e-06
0.00148364 -0.000129397 -1.97683e-06
-0.000129397 0.000112389 1.5841e-07
-1.97683e-06 1.5841e-07 -1.18543e-05
0.00159251 -0.000153901 1.77391e-06
-0.000153901 0.000166926 7.60014e-07
1.77391e-06 7.60014e-07 3.65484e-05
0.00140825 -0.000144562 6.24223e-07
-0.000144562 0.000109409 -4.31956e-07
6.24223e-07 -4.31956e-07 -2.20433e-05
0.00134261 -0.000134867 -5.08014e-06
-0.000134867 0.000125945 1.48472e-06
-5.08014e-06 1.48472e-06 1.95367e-06
0.000951619 -0.000105269 -5.923e-06
-0.000105269 3.41037e-05 3.38568e-06
-5.923e-06 3.38568e-06 -6.83833e-05
0.00095002 -0.00012847 -1.28577e-06
-0.00012847 -2.64913e-05 7.62263e-07
-1.28577e-06 7.62263e-07 -0.000155042
0.00124656 -0.000150591 2.33589e-06
-0.000150591 8.95242e-05 -7.37209e-08
2.33589e-06 -7.37209e-08 -5.28232e-05
0.000579836 -5.1993e-05 -8.35404e-06
-5.1993e-05 -6.6833e-05 7.45177e-06
-8.35404e-06 7.45177e-06 -0.000120584
0.000900323 -9.69023e-05 2.83622e-07
-9.69023e-05 5.12344e-05 -1.25316e-08
2.83622e-07 -1.25316e-08 -4.769e-05
0.00112878 -0.000137746 3.23281e-06
-0.000137746 0.00012966 -1.51323e-06
3.23281e-06 -1.51323e-06 2.27153e-06
0.00335531 0.00012207 -6.32284e-05
0.00012207 0.00148629 2.68724e-06
-6.32284e-05 2.68724e-06 0.00148015
0.000648623 -1.9719e-05 -1.13765e-07
-1.9719e-05 -2.91373e-05 -1.50038e-07
-1.13765e-07 -1.50038e-07 -7.48352e-05
0.00094992 -8.19597e-05 4.35992e-06
-8.19597e-05 0.000105655 -2.58263e-06
4.35992e-06 -2.58263e-06 1.29741e-05
0.00312248 0.000105703 1.93246e-06
0.000105703 0.00135198 2.37862e-07
1.93246e-06 2.37862e-07 0.00135068
0.000676654 1.03577e-05 6.07483e-06
1.03577e-05 -8.30171e-06 -5.75499e-06
6.07483e-06 -5.75499e-06 -4.67027e-05
0.00288618 9.1998e-05 5.63112e-05
9.1998e-05 0.00121843 -2.99391e-06
5.63112e-05 -2.99391e-06 0.00122116
0.000899936 0.000131607 -6.77184e-07
0.000131607 4.19712e-05 -1.99285e-06
-6.77184e-07 -1.99285e-06 -9.28384e-05
0.00100519 0.000128689 -6.86258e-08
0.000128689 0.000144035 -1.03573e-06
-6.86258e-08 -1.03573e-06 2.23913e-05
0.00110898 0.000120726 -8.9895e-07
0.000120726 0.000195475 -1.09473e-06
-8.9895e-07 -1.09473e-06 8.72822e-05
0.00112984 0.000129676 -5.58905e-07
0.000129676 0.000226154 -5.84438e-08
-5.58905e-07 -5.84438e-08 0.000117487
0.000897312 6.54298e-05 -9.8569e-07
6.54298e-05 9.62319e-05 -5.61951e-07
-9.8569e-07 -5.61951e-07 2.31421e-07
0.000772655 2.57598e-05 -2.11215e-06
2.57598e-05 3.69971e-05 -1.88508e-06
-2.11215e-06 -1.88508e-06 -4.00297e-05
0.000734009 1.85648e-05 -1.64297e-07
1.85648e-05 1.67796e-05 2.51672e-07
-1.64297e-07 2.51672e-07 -7.17081e-05
0.0007141 -3.14152e-05 -4.02584e-07
-3.14152e-05 6.24854e-06 -4.92557e-08
-4.02584e-07 -4.92557e-08 -5.85495e-05
0.000627585 -7.09202e-05 3.90479e-07
-7.09202e-05 -2.11896e-05 -5.14764e-06
3.90479e-07 -5.14764e-06 -5.17994e-05
0.000712033 -6.14093e-05 3.65087e-07
-6.14093e-05 4.36208e-06 2.60325e-06
3.65087e-07 2.60325e-06 -5.13135e-05
0.000638597 -6.14624e-05 2.18256e-07
-6.14624e-05 -2.60748e-05 -1.15791e-07
2.18256e-07 -1.15791e-07 -4.87606e-05
0.00243226 -8.27672e-05 -4.02614e-05
-8.27672e-05 0.000966013 -2.52205e-06
-4.02614e-05 -2.52205e-06 0.000972886
0.00064732 -4.85975e-05 2.0828e-06
-4.85975e-05 -3.28926e-05 3.95554e-06
2.0828e-06 3.95554e-06 -5.00803e-05
0.00230105 -7.44141e-05 -6.1981e-07
-7.44141e-05 0.000886441 1.11156e-07
-6.1981e-07 1.11156e-07 0.000895875
0.00227825 -6.64855e-05 3.01783e-05
-6.64855e-05 0.000865065 3.30411e-06
3.01783e-05 3.30411e-06 0.000876668
0.000381209 1.26476e-05 5.3883e-06
1.26476e-05 -0.000499839 1.84795e-06
5.3883e-06 1.84795e-06 -0.000531578
0.0036061 8.81734e-06 8.4092e-07
8.81734e-06 0.000446488 1.07753e-05
8.4092e-07 1.07753e-05 7.03328e-05
0.00634417 0.000220503 -8.99592e-05
0.000220503 0.00186968 -2.14504e-05
-8.99592e-05 -2.14504e-05 0.000939103
0.000749848 0.000124442 2.5334e-06
0.000124442 -7.85439e-05 4.37687e-07
2.5334e-06 4.37687e-07 -0.000208523
0.0014595 0.000172257 3.17207e-06
0.000172257 0.000175749 -2.92683e-06
3.17207e-06 -2.92683e-06 2.8878e-05
0.000879783 0.000136337 -6.9857e-08
0.000136337 3.14707e-05 -1.11204e-06
-6.9857e-08 -1.11204e-06 -0.000106171
0.00104442 0.000132495 -1.33889e-06
0.000132495 0.000211204 -5.44774e-07
-1.33889e-06 -5.44774e-07 9.03046e-05
0.0009362 0.000131497 -1.10488e-06
0.000131497 0.000124632 -7.53435e-07
-1.10488e-06 -7.53435e-07 -6.34081e-06
0.00103133 0.000145308 3.76359e-06
0.000145308 0.000128685 1.58741e-06
3.76359e-06 1.58741e-06 6.07025e-06
0.00195673 0.000229338 -5.05821e-06
0.000229338 0.000346204 -5.14438e-06
-5.05821e-06 -5.14438e-06 0.000207518
0.00156576 0.000184243 -6.6022e-08
0.000184243 0.000396765 1.79098e-06
-6.6022e-08 1.79098e-06 0.000272098
0.00106664 0.00017952 -9.40075e-07
0.00017952 9.46528e-06 1.03079e-05
-9.40075e-07 1.03079e-05 -0.000117777
0.00169737 0.000236588 -1.28636e-06
0.000236588 0.00018733 6.70169e-07
-1.28636e-06 6.70169e-07 4.20009e-05
0.00217265 0.000241488 -6.69368e-06
0.000241488 0.000302213 1.81908e-06
-6.69368e-06 1.81908e-06 0.000163719
0.00128194 9.02948e-05 1.34374e-05
9.02948e-05 -0.000219116 4.19619e-06
1.34374e-05 4.19619e-06 -0.00029704
0.00172837 0.000215825 8.04619e-06
0.000215825 8.17723e-05 2.84358e-06
8.04619e-06 2.84358e-06 -4.49801e-05
0.00130953 0.000244819 -6.32573e-06
0.000244819 -6.34078e-05 -5.52897e-07
-6.32573e-06 -5.52897e-07 -0.000219393
0.00090394 0.000114687 -3.33887e-06
0.000114687 -0.000127039 5.46288e-07
-3.33887e-06 5.46288e-07 -0.000137563
0.00460452 3.63896e-05 4.80267e-05
3.63896e-05 0.000494828 1.06573e-05
4.80267e-05 1.06573e-05 8.65996e-05
0.00116877 0.000221378 3.77381e-06
0.000221378 -8.98347e-06 -8.37076e-06
3.77381e-06 -8.37076e-06 -3.99326e-05
0.00163982 -2.5864e-05 1.02427e-05
-2.5864e-05 6.20502e-05 5.22206e-07
1.02427e-05 5.22206e-07 7.14396e-06
0.00203649 -4.95177e-05 -3.38211e-06
-4.95177e-05 0.000183763 -1.27246e-07
-3.38211e-06 -1.27246e-07 8.47491e-05
0.00170489 0.000111871 5.80415e-05
0.000111871 -0.000227018 -3.62707e-06
5.80415e-05 -3.62707e-06 -0.000572359
-0.0012858 -3.07297e-05 -1.0957e-05
-3.07297e-05 -0.00152391 6.90351e-06
-1.0957e-05 6.90351e-06 -0.00153765
0.00258709 -2.62866e-06 -4.66382e-05
-2.62866e-06 0.000450484 5.76971e-06
-4.66382e-05 5.76971e-06 0.000383374
0.00142131 -4.30372e-05 6.98984e-07
-4.30372e-05 -0.000221478 2.2578e-06
6.98984e-07 2.2578e-06 -0.000269814
0.00221712 -2.51151e-05 -1.63191e-07
-2.51151e-05 0.000257852 2.53948e-07
-1.63191e-07 2.53948e-07 0.000197027
0.00191012 -8.36958e-05 2.82031e-06
-8.36958e-05 7.24249e-05 1.10321e-06
2.82031e-06 1.10321e-06 1.33705e-05
0.00155935 -3.21206e-05 1.28852e-06
-3.21206e-05 -0.000113967 -1.77332e-07
1.28852e-06 -1.77332e-07 -0.000181304
0.00207741 -8.22566e-05 2.75923e-06
-8.22566e-05 8.75745e-05 -7.57114e-09
2.75923e-06 -7.57114e-09 5.38933e-05
0.00180841 -7.6023e-05 -1.65004e-06
-7.6023e-05 6.75995e-05 -2.35565e-08
-1.65004e-06 -2.35565e-08 1.04543e-05
0.00178625 -8.09509e-05 3.16437e-06
-8.09509e-05 8.7903e-05 3.20502e-07
3.16437e-06 3.20502e-07 8.19099e-06
0.00191417 -0.00010634 -2.33435e-06
-0.00010634 0.000111008 6.19655e-09
-2.33435e-06 6.19655e-09 4.57373e-05
0.00176166 -8.77161e-05 -4.2206e-07
-8.77161e-05 0.000109427 -2.06905e-07
-4.2206e-07 -2.06905e-07 2.58224e-05
0.00170949 -7.6988e-05 1.69701e-06
-7.6988e-05 0.000100699 3.96441e-07
1.69701e-06 3.96441e-07 -1.21421e-07
0.00171051 -0.000109649 -5.46162e-06
-0.000109649 9.06922e-05 -8.32079e-08
-5.46162e-06 -8.32079e-08 1.75483e-06
0.00165441 -9.45118e-05 1.01344e-07
-9.45118e-05 9.85707e-05 1.84765e-08
1.01344e-07 1.84765e-08 -6.6037e-06
0.00161722 -9.41146e-05 9.96164e-08
-9.41146e-05 0.000107183 5.13524e-07
9.96164e-08 5.13524e-07 -8.06339e-06
0.00167231 -0.000118133 -1.87481e-06
-0.000118133 0.000121782 -4.94281e-07
-1.87481e-06 -4.94281e-07 1.56584e-05
0.00158675 -0.000117383 1.67514e-07
-0.000117383 0.000105584 -1.52666e-07
1.67514e-07 -1.52666e-07 -1.03193e-05
0.00151857 -0.000117022 -1.69811e-06
-0.000117022 0.000106456 3.70398e-07
-1.69811e-06 3.70398e-07 -1.44053e-05
0.00142004 -0.00012629 -4.57685e-07
-0.00012629 3.63998e-05 4.08945e-07
-4.57685e-07 4.08945e-07 -8.10934e-05
0.0013658 -0.000125162 -1.842e-07
-0.000125162 4.94552e-05 -1.07921e-07
-1.842e-07 -1.07921e-07 -7.44689e-05
0.00133925 -0.000121202 -5.04828e-06
-0.000121202 8.9325e-05 1.44605e-06
-5.04828e-06 1.44605e-06 -3.03783e-05
0.00122395 -0.000136598 3.28519e-06
-0.000136598 9.63095e-06 -3.9986e-07
3.28519e-06 -3.9986e-07 -0.000122223
0.00111194 -0.00012419 2.49247e-07
-0.00012419 2.63414e-06 -3.15564e-08
2.49247e-07 -3.15564e-08 -0.000121176
0.00102444 -0.000104684 -7.68783e-06
-0.000104684 2.7688e-05 3.55647e-06
-7.68783e-06 3.55647e-06 -7.36224e-05
0.000498218 -8.14349e-05 -1.11614e-05
-8.14349e-05 -0.000124422 8.21087e-06
-1.11614e-05 8.21087e-06 -0.000182911
0.000963294 -0.000107073 3.3742e-07
-0.000107073 4.0575e-05 1.46501e-07
3.3742e-07 1.46501e-07 -6.22176e-05
0.00108957 -0.000134483 2.53402e-06
-0.000134483 5.23791e-05 -4.54562e-07
2.53402e-06 -4.54562e-07 -7.56241e-05
0.00363008 0.000137669 -6.91451e-05
0.000137669 0.00164965 2.96256e-06
-6.91451e-05 2.96256e-06 0.00163758
0.000665076 -4.68309e-05 -1.81807e-07
-4.68309e-05 -2.48622e-05 3.73901e-08
-1.81807e-07 3.73901e-08 -7.92207e-05
0.000984952 -0.000101354 5.0139e-06
-0.000101354 9.73188e-05 -2.80323e-06
5.0139e-06 -2.80323e-06 -2.61696e-06
0.00343657 0.000118117 2.8865e-06
0.000118117 0.00153142 3.41271e-07
2.8865e-06 3.41271e-07 0.00152537
0.000742658 -2.20909e-05 8.04128e-06
-2.20909e-05 1.81132e-05 -6.47443e-06
8.04128e-06 -6.47443e-06 -2.78714e-05
0.00320171 0.00010072 6.73526e-05
0.00010072 0.00139423 -3.07752e-06
6.73526e-05 -3.07752e-06 0.00139336
0.000665708 0.000127408 -1.65043e-06
0.000127408 -0.0001731 -1.42197e-06
-1.65043e-06 -1.42197e-06 -0.000318812
0.000680747 0.000119577 -1.53177e-07
0.000119577 -7.79892e-05 -1.22478e-07
-1.53177e-07 -1.22478e-07 -0.000213483
0.00112978 0.00013143 -2.36006e-06
0.00013143 0.000169689 -1.46842e-06
-2.36006e-06 -1.46842e-06 4.91848e-05
0.000920397 0.000123041 -4.89251e-07
0.000123041 9.89197e-05 4.43831e-08
-4.89251e-07 4.43831e-08 -2.18491e-05
0.000985078 0.000112388 -2.76955e-07
0.000112388 0.000130246 -3.8391e-07
-2.76955e-07 -3.8391e-07 2.31753e-05
0.000909191 5.76602e-05 -3.26236e-06
5.76602e-05 0.000104915 -1.86764e-06
-3.26236e-06 -1.86764e-06 1.86383e-05
0.000874344 6.82139e-05 -9.11498e-08
6.82139e-05 8.32026e-05 -4.75873e-07
-9.11498e-08 -4.75873e-07 -1.18084e-05
0.000758074 1.07351e-05 -3.9426e-08
1.07351e-05 3.1998e-05 1.0511e-07
-3.9426e-08 1.0511e-07 -4.5503e-05
0.000634733 -4.81243e-05 -3.2749e-06
-4.81243e-05 -1.93851e-05 -5.1274e-06
-3.2749e-06 -5.1274e-06 -5.54341e-05
0.000729832 -5.59892e-05 3.22279e-07
-5.59892e-05 1.70838e-05 2.79323e-06
3.22279e-07 2.79323e-06 -4.83398e-05
0.0005975 -7.32727e-05 -6.40489e-08
-7.32727e-05 -3.75343e-05 -1.75718e-07
-6.40489e-08 -1.75718e-07 -6.82607e-05
0.00262648 -9.17978e-05 -4.74769e-05
-9.17978e-05 0.00107702 -2.42497e-06
-4.74769e-05 -2.42497e-06 0.001081
0.000613444 -5.70445e-05 1.8796e-06
-5.70445e-05 -4.13895e-05 4.13489e-06
1.8796e-06 4.13489e-06 -6.29505e-05
0.00239276 -8.29299e-05 -6.55647e-07
-8.29299e-05 0.000944111 1.04595e-07
-6.55647e-07 1.04595e-07 0.000951059
0.00229419 -7.39888e-05 3.30642e-05
-7.39888e-05 0.000881772 2.97779e-06
3.30642e-05 2.97779e-06 0.000891383
0.00135114 2.88125e-05 1.11027e-05
2.88125e-05 -0.000174711 1.83683e-06
1.11027e-05 1.83683e-06 -0.000233439
0.00127443 -1.98298e-05 -2.83029e-06
-1.98298e-05 -0.000127862 3.7454e-06
-2.83029e-06 3.7454e-06 -0.000184914
0.00274854 -3.12684e-05 7.03736e-05
-3.12684e-05 1.78342e-05 5.87246e-06
7.03736e-05 5.87246e-06 -0.000279032
0.00177127 0.000187348 1.6803e-07
0.000187348 0.000266665 -4.18927e-06
1.6803e-07 -4.18927e-06 0.000129288
0.00076517 0.000129206 -1.13437e-06
0.000129206 -5.25899e-05 1.42199e-06
-1.13437e-06 1.42199e-06 -0.00017414
0.00128487 0.000155682 -1.95015e-06
0.000155682 -3.43226e-05 1.13322e-06
-1.95015e-06 1.13322e-06 -0.000168122
0.0015948 0.000179939 6.58892e-07
0.000179939 0.000243598 2.01295e-07
6.58892e-07 2.01295e-07 9.59894e-05
0.000436935 0.000112842 -3.5305e-06
0.000112842 -0.000196459 2.20164e-06
-3.5305e-06 2.20164e-06 -0.000331326
0.00179964 0.000192786 -4.64366e-06
0.000192786 0.000113045 6.26619e-07
-4.64366e-06 6.26619e-07 -1.632e-05
0.00134755 0.000167549 -7.21459e-07
0.000167549 0.000282261 9.33152e-07
-7.21459e-07 9.33152e-07 0.000155317
0.00182502 0.000221305 3.19653e-07
0.000221305 0.000269026 -2.29878e-06
3.19653e-07 -2.29878e-06 0.000127203
0.00180935 0.000128976 -2.55765e-06
0.000128976 8.53414e-05 1.69181e-06
-2.55765e-06 1.69181e-06 -1.95426e-05
0.00193857 0.000248199 2.7847e-06
0.000248199 0.00032501 4.06661e-06
2.7847e-06 4.06661e-06 0.000180758
0.0020697 0.000237582 -2.09237e-06
0.000237582 0.000242191 -8.53904e-08
-2.09237e-06 -8.53904e-08 0.00010529
0.00140773 0.000101639 -3.44267e-07
0.000101639 -0.000129028 -5.15489e-07
-3.44267e-07 -5.15489e-07 -0.000207744
0.00149987 0.000199417 -2.35745e-06
0.000199417 -2.00035e-05 -2.99825e-06
-2.35745e-06 -2.99825e-06 -0.000147565
0.00103703 0.000103873 -1.09681e-05
0.000103873 -5.80858e-05 -3.01836e-06
-1.09681e-05 -3.01836e-06 -7.45961e-05
0.00170095 -5.33547e-06 -7.30883e-07
-5.33547e-06 -1.99451e-05 4.3923e-07
-7.30883e-07 4.3923e-07 -9.1461e-05
0.00189615 -7.96353e-06 -1.72483e-06
-7.96353e-06 0.000201305 -3.64437e-07
-1.72483e-06 -3.64437e-07 0.000146807
0.00130166 3.99417e-06 -2.75862e-05
3.99417e-06 -0.000162358 1.01191e-06
-2.75862e-05 1.01191e-06 -0.000275403
0.00102948 -6.84577e-05 -5.89125e-06
-6.84577e-05 -0.000472455 8.86467e-07
-5.89125e-06 8.86467e-07 -0.000510513
0.0018895 -3.79946e-05 -2.38955e-06
-3.79946e-05 4.11024e-05 -5.25542e-07
-2.38955e-06 -5.25542e-07 -2.06578e-05
0.00199009 -7.97878e-05 -1.3365e-06
-7.97878e-05 0.000117405 3.58736e-07
-1.3365e-06 3.58736e-07 5.97467e-05
0.00173694 -3.35738e-05 1.18587e-06
-3.35738e-05 -1.62636e-05 1.20628e-07
1.18587e-06 1.20628e-07 -8.28246e-05
0.00172807 -4.61086e-05 1.10442e-06
-4.61086e-05 2.22316e-05 -2.19265e-07
1.10442e-06 -2.19265e-07 -5.64256e-05
0.00181366 -7.55974e-05 -2.875e-06
-7.55974e-05 6.68605e-05 -7.54026e-07
-2.875e-06 -7.54026e-07 1.11333e-05
0.00182872 -7.84451e-05 3.75278e-07
-7.84451e-05 0.000114622 -8.24462e-08
3.75278e-07 -8.24462e-08 3.47974e-05
0.0018054 -6.17134e-05 1.16195e-06
-6.17134e-05 0.000109979 -4.41948e-07
1.16195e-06 -4.41948e-07 1.3599e-05
0.00173654 -8.80631e-05 -4.64926e-06
-8.80631e-05 9.74695e-05 -3.66961e-07
-4.64926e-06 -3.66961e-07 1.22231e-05
0.00167705 -7.63634e-05 -1.52344e-07
-7.63634e-05 8.74223e-05 1.73682e-07
-1.52344e-07 1.73682e-07 -1.48001e-05
0.00165555 -6.31612e-05 6.1315e-08
-6.31612e-05 0.000109419 5.09876e-07
6.1315e-08 5.09876e-07 -5.90414e-06
0.0016762 -9.41869e-05 -1.4266e-06
-9.41869e-05 0.000110241 -5.11326e-07
-1.4266e-06 -5.11326e-07 5.21917e-06
0.00161343 -9.2966e-05 6.47339e-08
-9.2966e-05 0.00010444 -3.42364e-08
6.47339e-08 -3.42364e-08 -1.07115e-05
0.00154939 -9.5503e-05 -1.78512e-06
-9.5503e-05 0.000105796 5.3468e-07
-1.78512e-06 5.3468e-07 -1.37019e-05
0.00157575 -0.000116349 -1.09977e-07
-0.000116349 9.98938e-05 -3.67084e-07
-1.09977e-07 -3.67084e-07 -1.59538e-05
0.00151061 -0.000116077 2.05857e-08
-0.000116077 0.000102262 -2.87585e-08
2.05857e-08 -2.87585e-08 -1.84968e-05
0.00137992 -0.000108779 -4.68637e-06
-0.000108779 8.43248e-05 1.31826e-06
-4.68637e-06 1.31826e-06 -3.29457e-05
0.00124713 -0.000120846 1.89164e-06
-0.000120846 -1.40121e-05 -2.52647e-07
1.89164e-06 -2.52647e-07 -0.000137594
0.00131282 -0.000119297 -7.15459e-09
-0.000119297 7.57075e-05 4.35513e-08
-7.15459e-09 4.35513e-08 -4.37503e-05
0.00107717 -9.6945e-05 -8.86108e-06
-9.6945e-05 2.35859e-05 3.65478e-06
-8.86108e-06 3.65478e-06 -7.59456e-05
0.000881371 -0.000113406 4.46818e-06
-0.000113406 -0.00012063 -1.10305e-06
4.46818e-06 -1.10305e-06 -0.000244242
0.00102279 -0.000104413 3.12255e-07
-0.000104413 2.69838e-05 5.04073e-08
3.12255e-07 5.04073e-08 -7.44059e-05
0.00199077 -2.3947e-05 -8.34421e-06
-2.3947e-05 0.000688606 5.95904e-06
-8.34421e-06 5.95904e-06 0.000630351
0.00113964 9.45441e-06 -8.57788e-05
9.45441e-06 0.000269919 8.94264e-06
-8.57788e-05 8.94264e-06 0.000250606
0.00137086 -5.12635e-05 3.70641e-07
-5.12635e-05 0.00035341 -1.31942e-08
3.70641e-07 -1.31942e-08 0.000294927
0.000985903 -0.000109342 6.2928e-06
-0.000109342 5.33127e-05 -2.89144e-06
6.2928e-06 -2.89144e-06 -4.98856e-05
0.00377465 0.000122941 5.85766e-06
0.000122941 0.00172777 4.31726e-07
5.85766e-06 4.31726e-07 0.00171715
0.000775931 -6.45821e-05 1.04062e-05
-6.45821e-05 2.88789e-05 -7.50592e-06
1.04062e-05 -7.50592e-06 -2.56933e-05
0.0034945 0.000101212 8.12918e-05
0.000101212 0.0015621 -3.5144e-06
8.12918e-05 -3.5144e-06 0.00155795
0.00182357 0.000155522 -6.71496e-08
0.000155522 0.000224468 4.85325e-07
-6.71496e-08 4.85325e-07 9.90595e-05
0.000789422 0.000133757 7.39508e-08
0.000133757 -0.000200708 1.22548e-06
7.39508e-08 1.22548e-06 -0.000339122
0.000937656 0.000143234 -2.5207e-07
0.000143234 -3.55525e-05 -1.34268e-07
-2.5207e-07 -1.34268e-07 -0.000183484
0.00113434 0.000137293 -3.28968e-06
0.000137293 0.000118383 -1.43497e-06
-3.28968e-06 -1.43497e-06 -1.02172e-05
0.00047102 0.000108144 3.40256e-07
0.000108144 -0.000192748 2.15445e-06
3.40256e-07 2.15445e-06 -0.000329017
0.00103643 0.000124738 -4.7636e-07
0.000124738 0.000121994 -5.35334e-08
-4.7636e-07 -5.35334e-08 2.3782e-06
0.000982217 8.68804e-05 -4.15492e-06
8.68804e-05 0.000122775 -2.0957e-06
-4.15492e-06 -2.0957e-06 2.93146e-05
0.000870762 0.000104542 8.7928e-07
0.000104542 7.01719e-05 6.05493e-07
8.7928e-07 6.05493e-07 -3.5827e-05
0.000806133 4.92692e-05 -2.47998e-07
4.92692e-05 5.07401e-05 5.89624e-08
-2.47998e-07 5.89624e-08 -3.48845e-05
0.000702207 -2.58166e-06 -6.26385e-06
-2.58166e-06 8.28006e-06 -5.54762e-06
-6.26385e-06 -5.54762e-06 -3.34676e-05
0.000751703 -3.87498e-06 1.04484e-06
-3.87498e-06 2.85817e-05 1.96085e-06
1.04484e-06 1.96085e-06 -4.7499e-05
0.000580276 -5.71367e-05 -7.36818e-07
-5.71367e-05 -4.82906e-05 -1.39118e-07
-7.36818e-07 -1.39118e-07 -8.4084e-05
0.00286706 -0.000101416 -5.63966e-05
-0.000101416 0.00121365 -2.43778e-06
-5.63966e-05 -2.43778e-06 0.00121396
0.000559378 -6.97037e-05 5.35337e-07
-6.97037e-05 -6.01221e-05 4.78965e-06
5.35337e-07 4.78965e-06 -8.96005e-05
0.00256159 -9.26425e-05 -9.41239e-07
-9.26425e-05 0.00104209 1.27141e-07
-9.41239e-07 1.27141e-07 0.00104608
0.00235467 -8.23799e-05 3.59271e-05
-8.23799e-05 0.000922799 2.63076e-06
3.59271e-05 2.63076e-06 0.000929987
0.00180513 6.13612e-05 -9.28963e-07
6.13612e-05 4.84631e-05 1.36767e-06
-9.28963e-07 1.36767e-06 -3.47127e-05
0.00189253 2.3195e-05 1.46399e-07
2.3195e-05 0.000133592 -7.1528e-07
1.46399e-07 -7.1528e-07 7.71364e-05
0.00273059 -5.81463e-05 -1.85059e-05
-5.81463e-05 0.000528854 -2.39362e-06
-1.85059e-05 -2.39362e-06 0.000444148
0.00166064 0.000158043 -3.21337e-06
0.000158043 7.58492e-05 3.89003e-07
-3.21337e-06 3.89003e-07 -4.86473e-05
0.0016698 0.000181593 -2.03961e-06
0.000181593 0.000231503 1.38294e-07
-2.03961e-06 1.38294e-07 9.76393e-05
0.000745219 0.000132461 -9.3659e-06
0.000132461 -4.61588e-05 3.32777e-06
-9.3659e-06 3.32777e-06 -0.000159135
0.00157788 0.000165126 1.50798e-06
0.000165126 0.000123365 2.01795e-07
1.50798e-06 2.01795e-07 -1.01655e-05
0.00174563 0.000188572 -1.46428e-06
0.000188572 0.000320306 4.62278e-07
-1.46428e-06 4.62278e-07 0.000171823
0.00204785 0.000130295 -3.75489e-06
0.000130295 0.000198292 1.14325e-06
-3.75489e-06 1.14325e-06 9.3699e-05
0.00174645 0.000193789 -1.86099e-06
0.000193789 8.52108e-05 2.26316e-07
-1.86099e-06 2.26316e-07 -4.5535e-05
0.00173427 0.000215631 2.75507e-06
0.000215631 0.000212943 1.26517e-06
2.75507e-06 1.26517e-06 6.76342e-05
0.00178862 0.000129548 -5.1063e-07
0.000129548 6.87009e-05 9.36781e-08
-5.1063e-07 9.36781e-08 -3.66769e-05
0.00202155 0.000234844 5.75019e-06
0.000234844 0.000207121 -3.4415e-07
5.75019e-06 -3.4415e-07 7.193e-05
0.00161683 0.000112718 -1.68239e-05
0.000112718 -1.17039e-05 -6.18879e-06
-1.68239e-05 -6.18879e-06 -9.01984e-05
0.00194222 4.82878e-06 -2.70425e-08
4.82878e-06 0.000123313 1.58989e-07
-2.70425e-08 1.58989e-07 4.30277e-05
0.00177236 -1.02116e-06 3.72394e-07
-1.02116e-06 2.07095e-05 -4.47263e-07
3.72394e-07 -4.47263e-07 -4.97348e-05
0.00217046 9.74708e-06 -1.40251e-05
9.74708e-06 0.000348081 -6.21787e-07
-1.40251e-05 -6.21787e-07 0.000294028
0.00206379 -7.74659e-05 -7.31675e-06
-7.74659e-05 0.000159432 -1.0283e-06
-7.31675e-06 -1.0283e-06 0.000103148
0.00193814 -3.41801e-05 -5.74371e-07
-3.41801e-05 9.2445e-05 2.29201e-07
-5.74371e-07 2.29201e-07 2.67107e-05
0.0018133 -4.51791e-05 1.76432e-07
-4.51791e-05 6.06488e-05 -7.19163e-08
1.76432e-07 -7.19163e-08 -1.55509e-05
0.00185025 -2.73322e-05 2.56987e-07
-2.73322e-05 0.000107733 -3.03425e-07
2.56987e-07 -3.03425e-07 1.17132e-05
0.00188384 -7.6375e-05 -1.56104e-06
-7.6375e-05 0.00014764 -2.12931e-07
-1.56104e-06 -2.12931e-07 6.76756e-05
0.00178995 -6.28095e-05 -4.60932e-07
-6.28095e-05 0.000107719 -1.00007e-07
-4.60932e-07 -1.00007e-07 1.07585e-05
0.00172652 -4.31976e-05 6.70902e-07
-4.31976e-05 0.000114889 -5.37912e-07
6.70902e-07 -5.37912e-07 7.67655e-07
0.00164337 -7.5769e-05 -1.7291e-06
-7.5769e-05 7.34101e-05 1.46537e-07
-1.7291e-06 1.46537e-07 -3.02181e-05
0.00164685 -6.32401e-05 -6.88669e-08
-6.32401e-05 0.000102669 2.11052e-07
-6.88669e-08 2.11052e-07 -1.2584e-05
0.00159342 -6.52657e-05 -1.81611e-06
-6.52657e-05 0.000114741 7.32902e-07
-1.81611e-06 7.32902e-07 -5.38111e-06
0.00161141 -9.17637e-05 1.62689e-07
-9.17637e-05 0.000102633 -5.79146e-07
1.62689e-07 -5.79146e-07 -1.24114e-05
0.00154335 -9.46969e-05 -3.86886e-08
-9.46969e-05 0.000102452 -5.74704e-08
-3.86886e-08 -5.74704e-08 -1.70052e-05
0.00140006 -9.05087e-05 -4.56638e-06
-9.05087e-05 7.69661e-05 1.09516e-06
-4.56638e-06 1.09516e-06 -3.8953e-05
0.00150155 -0.000115126 1.95096e-06
-0.000115126 9.74981e-05 -4.52409e-07
1.95096e-06 -4.52409e-07 -2.31622e-05
0.00136819 -0.000107529 2.64695e-09
-0.000107529 7.81507e-05 1.08576e-07
2.64695e-09 1.08576e-07 -3.89554e-05
0.0011143 -8.75168e-05 -9.36521e-06
-8.75168e-05 2.137e-05 3.35365e-06
-9.36521e-06 3.35365e-06 -7.75342e-05
0.0012862 -0.000117399 4.6706e-06
-0.000117399 6.1991e-05 -1.28083e-06
4.6706e-06 -1.28083e-06 -5.72241e-05
0.0010696 -9.57709e-05 3.29419e-07
-9.57709e-05 1.88727e-05 3.24441e-08
3.29419e-07 3.24441e-08 -8.05339e-05
0.00210066 -3.29542e-05 -1.23462e-05
-3.29542e-05 0.000728436 5.1981e-06
-1.23462e-05 5.1981e-06 0.000674294
0.00101227 -0.00010397 7.70397e-06
-0.00010397 2.17354e-05 -3.31445e-06
7.70397e-06 -3.31445e-06 -7.977e-05
0.00219552 -6.13404e-05 2.55879e-05
-6.13404e-05 0.000789289 -1.64085e-06
2.55879e-05 -1.64085e-06 0.00073572
0.00140255 -3.2985e-05 -0.000105593
-3.2985e-05 0.000416275 1.15241e-05
-0.000105593 1.15241e-05 0.000396006
0.00260644 3.85575e-05 -8.78602e-05
3.85575e-05 0.00108663 2.36704e-06
-8.78602e-05 2.36704e-06 0.0010718
0.00226664 -8.18006e-05 5.66718e-05
-8.18006e-05 0.000835225 -7.08392e-06
5.66718e-05 -7.08392e-06 0.000786276
0.00388824 9.08106e-05 9.6501e-05
9.08106e-05 0.00178773 -5.30327e-06
9.6501e-05 -5.30327e-06 0.00177967
0.00166488 0.00012652 -3.12208e-06
0.00012652 0.000100934 -8.50621e-07
-3.12208e-06 -8.50621e-07 -2.02322e-05
0.0016546 0.000155567 2.07003e-06
0.000155567 0.00020015 5.33919e-07
2.07003e-06 5.33919e-07 7.24415e-05
0.00165747 0.000149776 9.67797e-07
0.000149776 0.00013547 5.00936e-07
9.67797e-07 5.00936e-07 1.30387e-05
0.00118421 0.00014191 -3.95247e-06
0.00014191 7.49483e-05 -8.36121e-07
-3.95247e-06 -8.36121e-07 -5.55696e-05
0.00117769 0.000153627 -2.01079e-07
0.000153627 5.0106e-06 4.65936e-07
-2.01079e-07 4.65936e-07 -0.000135144
0.00114688 0.000155993 1.8769e-06
0.000155993 6.86007e-05 1.12896e-06
1.8769e-06 1.12896e-06 -8.12969e-05
0.00111094 0.000136316 -3.52769e-07
0.000136316 0.000106639 -1.06027e-08
-3.52769e-07 -1.06027e-08 -2.2054e-05
0.000994144 0.000105107 -5.27529e-06
0.000105107 9.13297e-05 -2.78196e-06
-5.27529e-06 -2.78196e-06 -9.5146e-06
0.000938168 0.000117764 1.32129e-06
0.000117764 7.15373e-05 1.26239e-06
1.32129e-06 1.26239e-06 -4.7146e-05
0.000855863 8.02031e-05 -3.26548e-07
8.02031e-05 5.47112e-05 -7.05282e-08
-3.26548e-07 -7.05282e-08 -3.74087e-05
0.00076956 3.59688e-05 -8.32418e-06
3.59688e-05 3.81569e-05 -6.35305e-06
-8.32418e-06 -6.35305e-06 -1.2e-05
0.00068737 4.09323e-05 1.49285e-06
4.09323e-05 -1.22534e-05 1.50937e-06
1.49285e-06 1.50937e-06 -9.69254e-05
0.000615346 -2.32672e-05 2.68315e-07
-2.32672e-05 -3.39755e-05 -2.33518e-07
2.68315e-07 -2.33518e-07 -7.6467e-05
0.00314954 -0.000103983 -7.09801e-05
-0.000103983 0.00137729 -2.67858e-06
-7.09801e-05 -2.67858e-06 0.00137399
0.000519343 -7.98587e-05 -1.13679e-06
-7.98587e-05 -7.39762e-05 5.70342e-06
-1.13679e-06 5.70342e-06 -0.000113866
0.00280851 -0.000104423 -1.47534e-06
-0.000104423 0.00118207 1.95008e-07
-1.47534e-06 1.95008e-07 0.0011822
0.002513 -9.26995e-05 4.00479e-05
-9.26995e-05 0.00101563 2.32663e-06
4.00479e-05 2.32663e-06 0.00101984
0.00188482 6.40462e-05 -2.04309e-06
6.40462e-05 8.90721e-05 9.27358e-07
-2.04309e-06 9.27358e-07 -9.24666e-07
0.00175225 6.08333e-05 8.00285e-07
6.08333e-05 2.51121e-05 -1.10547e-07
8.00285e-07 -1.10547e-07 -5.81656e-05
0.00224618 1.79042e-05 -2.70025e-05
1.79042e-05 0.000355802 -3.87293e-06
-2.70025e-05 -3.87293e-06 0.000301518
0.00187252 0.000117158 -1.39303e-07
0.000117158 0.000137663 1.05429e-06
-1.39303e-07 1.05429e-06 2.65768e-05
0.0017762 0.000160482 -8.31277e-07
0.000160482 0.000141056 -4.05402e-07
-8.31277e-07 -4.05402e-07 1.64951e-05
0.00160011 0.000177029 -1.80111e-06
0.000177029 0.000212503 1.6674e-06
-1.80111e-06 1.6674e-06 8.21418e-05
0.00188132 0.00017483 8.80631e-07
0.00017483 0.000285961 -9.70264e-07
8.80631e-07 -9.70264e-07 0.000152726
0.00189646 0.000125415 2.29575e-07
0.000125415 0.000117185 -3.54497e-08
2.29575e-07 -3.54497e-08 1.1715e-05
0.00167337 0.000193978 9.25934e-07
0.000193978 4.74013e-05 -5.5804e-07
9.25934e-07 -5.5804e-07 -8.46681e-05
0.00173071 0.000128953 4.02416e-06
0.000128953 4.09157e-05 -1.25533e-06
4.02416e-06 -1.25533e-06 -6.49988e-05
0.0018403 1.30753e-05 1.14194e-06
1.30753e-05 8.84287e-05 2.95991e-07
1.14194e-06 2.95991e-07 -4.44466e-06
0.00188265 5.6048e-06 -3.46895e-07
5.6048e-06 9.18545e-05 -5.21471e-08
-3.46895e-07 -5.21471e-08 1.01105e-05
0.00182656 3.0673e-06 -2.21904e-06
3.0673e-06 5.55663e-05 -7.3588e-07
-2.21904e-06 -7.3588e-07 -1.38439e-05
0.00171602 -3.10714e-06 -1.22485e-07
-3.10714e-06 4.10583e-05 -2.79145e-08
-1.22485e-07 -2.79145e-08 -6.06491e-05
0.00188438 -4.35785e-05 -1.04736e-06
-4.35785e-05 9.29197e-05 1.81098e-07
-1.04736e-06 1.81098e-07 1.91877e-05
0.00185307 -2.74802e-05 -1.90624e-07
-2.74802e-05 0.000109494 3.56619e-07
-1.90624e-07 3.56619e-07 1.34392e-05
0.00186999 -2.26027e-05 8.62228e-07
-2.26027e-05 0.000163386 -7.30766e-07
8.62228e-07 -7.30766e-07 5.34744e-05
0.00177431 -6.39208e-05 -2.02852e-06
-6.39208e-05 0.000105405 3.30641e-07
-2.02852e-06 3.30641e-07 7.87308e-06
0.00171254 -4.31958e-05 3.08501e-08
-4.31958e-05 0.000105844 -1.43139e-07
3.08501e-08 -1.43139e-07 -8.18176e-06
0.00161561 -3.31394e-05 -2.25574e-06
-3.31394e-05 0.000105472 7.06685e-07
-2.25574e-06 7.06685e-07 -1.56158e-05
0.00163938 -6.273e-05 3.04608e-08
-6.273e-05 9.67076e-05 -9.83747e-08
3.04608e-08 -9.83747e-08 -1.84451e-05
0.00156124 -6.31632e-05 -4.25452e-08
-6.31632e-05 9.73694e-05 3.84115e-08
-4.25452e-08 3.84115e-08 -2.26925e-05
0.00142771 -6.76023e-05 -4.49486e-06
-6.76023e-05 7.73515e-05 1.30472e-06
-4.49486e-06 1.30472e-06 -3.97124e-05
0.00153582 -9.37885e-05 1.98427e-06
-9.37885e-05 9.83276e-05 -6.74033e-07
1.98427e-06 -6.74033e-07 -2.10818e-05
0.00140511 -8.98056e-05 -8.41637e-08
-8.98056e-05 7.93509e-05 -2.81885e-08
-8.41637e-08 -2.81885e-08 -3.64791e-05
0.00113338 -7.41983e-05 -9.50417e-06
-7.41983e-05 1.70379e-05 2.68572e-06
-9.50417e-06 2.68572e-06 -8.14912e-05
0.00135506 -0.000106188 4.77034e-06
-0.000106188 7.12184e-05 -1.12125e-06
4.77034e-06 -1.12125e-06 -4.57135e-05
0.00110939 -8.56182e-05 2.64204e-07
-8.56182e-05 1.75433e-05 1.69626e-07
2.64204e-07 1.69626e-07 -8.10193e-05
0.00220498 -5.50113e-05 -1.95385e-05
-5.50113e-05 0.000765275 4.19308e-06
-1.95385e-05 4.19308e-06 0.000716422
0.00105563 -9.44385e-05 8.74071e-06
-9.44385e-05 1.07019e-05 -3.5276e-06
8.74071e-06 -3.5276e-06 -8.85673e-05
0.00226457 -7.47735e-05 2.28356e-05
-7.47735e-05 0.000807915 -1.96398e-06
2.28356e-05 -1.96398e-06 0.000758703
0.00151486 -3.12667e-05 -0.000106544
-3.12667e-05 0.000475076 1.08447e-05
-0.000106544 1.08447e-05 0.000453945
0.00237907 -9.66359e-05 6.48986e-05
-9.66359e-05 0.00087852 -9.47706e-06
6.48986e-05 -9.47706e-06 0.000829338
0.00136294 3.0921e-05 -5.42478e-05
3.0921e-05 0.000409758 3.39081e-06
-5.42478e-05 3.39081e-06 0.000379801
0.00398362 0.000220192 1.93044e-06
0.000220192 0.00187598 -3.04467e-06
1.93044e-06 -3.04467e-06 0.00184276
0.00172032 9.90696e-05 -7.24409e-07
9.90696e-05 0.000115033 3.60186e-07
-7.24409e-07 3.60186e-07 -3.78197e-06
0.00161518 0.000123215 -1.58513e-06
0.000123215 0.000126532 -1.00794e-06
-1.58513e-06 -1.00794e-06 4.16951e-06
0.00174994 0.000131582 -2.24713e-06
0.000131582 0.000151436 2.41571e-07
-2.24713e-06 2.41571e-07 3.0384e-05
0.00174121 0.000154494 -2.76999e-06
0.000154494 0.000311579 -9.25781e-08
-2.76999e-06 -9.25781e-08 0.000187128
0.00152673 0.000153008 4.11778e-07
0.000153008 0.000125432 -4.7154e-07
4.11778e-07 -4.7154e-07 -2.07433e-06
0.00147742 0.000143096 4.74872e-06
0.000143096 3.97024e-05 5.08734e-07
4.74872e-06 5.08734e-07 -7.96654e-05
0.00100684 0.000112452 -7.23265e-06
0.000112452 4.31827e-05 -3.17457e-06
-7.23265e-06 -3.17457e-06 -6.25311e-05
0.00121949 0.000144667 -3.37801e-07
0.000144667 9.44227e-05 2.50214e-07
-3.37801e-07 2.50214e-07 -3.69301e-05
0.00159491 0.000174888 3.17564e-06
0.000174888 0.000226367 3.89032e-08
3.17564e-06 3.89032e-08 8.43318e-05
0.00109063 0.000135666 2.85426e-06
0.000135666 9.66588e-05 1.54841e-06
2.85426e-06 1.54841e-06 -3.21836e-05
0.000923326 0.000100194 -4.08569e-07
0.000100194 5.31183e-05 -1.80775e-07
-4.08569e-07 -1.80775e-07 -4.69789e-05
0.00079029 8.37238e-05 -1.20421e-05
8.37238e-05 4.25675e-05 -7.44108e-06
-1.20421e-05 -7.44108e-06 -1.5894e-05
0.000741453 7.36771e-05 2.95712e-06
7.36771e-05 -6.8525e-06 1.82063e-06
2.95712e-06 1.82063e-06 -9.77592e-05
0.000661048 3.12126e-05 2.60524e-08
3.12126e-05 -1.41527e-05 -3.07206e-08
2.60524e-08 -3.07206e-08 -6.46071e-05
0.0035181 -9.07101e-05 -8.70132e-05
-9.07101e-05 0.00159181 -4.36422e-06
-8.70132e-05 -4.36422e-06 0.00158465
0.000548025 -3.53211e-05 2.42433e-06
-3.53211e-05 -6.78834e-05 5.80588e-06
2.42433e-06 5.80588e-06 -0.000109678
0.00310003 -0.000118469 -2.54693e-06
-0.000118469 0.00135048 3.21188e-07
-2.54693e-06 3.21188e-07 0.00134541
0.00275691 -0.000105444 4.5793e-05
-0.000105444 0.00115373 2.17231e-06
4.5793e-05 2.17231e-06 0.00115412
0.00178802 6.08906e-05 9.26565e-07
6.08906e-05 6.50756e-05 8.91882e-07
9.26565e-07 8.91882e-07 -3.49171e-05
0.00183506 6.59518e-05 -5.44194e-07
6.59518e-05 6.04741e-05 1.75616e-07
-5.44194e-07 1.75616e-07 -2.93191e-05
0.00174029 6.07396e-05 1.05604e-06
6.07396e-05 1.72146e-05 -1.64142e-06
1.05604e-06 -1.64142e-06 -6.61143e-05
0.0018627 0.000115647 5.98458e-07
0.000115647 0.000130163 -8.35025e-08
5.98458e-07 -8.35025e-08 1.99129e-05
0.0018839 0.000162804 1.46707e-07
0.000162804 0.000202603 -1.03063e-06
1.46707e-07 -1.03063e-06 7.79541e-05
0.00176508 0.000120587 2.62599e-06
0.000120587 4.63368e-05 -1.23768e-06
2.62599e-06 -1.23768e-06 -5.99372e-05
0.00184151 1.57459e-05 2.97231e-07
1.57459e-05 0.000108221 2.8761e-07
2.97231e-07 2.8761e-07 7.34206e-06
0.00186715 1.46159e-05 3.62951e-07
1.46159e-05 0.000102722 -1.6979e-07
3.62951e-07 -1.6979e-07 8.97423e-06
0.00183344 6.96187e-06 8.07915e-07
6.96187e-06 6.42749e-05 -1.85978e-07
8.07915e-07 -1.85978e-07 -1.89272e-05
0.00178329 -1.03966e-05 -1.0066e-06
-1.03966e-05 7.68115e-05 1.49244e-07
-1.0066e-06 1.49244e-07 -2.39056e-05
0.00175354 -9.59794e-06 1.22036e-06
-9.59794e-06 9.27881e-05 -4.9134e-07
1.22036e-06 -4.9134e-07 -1.74844e-05
0.00185589 -2.75715e-05 -8.44817e-07
-2.75715e-05 0.000111297 6.15174e-07
-8.44817e-07 6.15174e-07 1.51989e-05
0.00179232 -2.25295e-05 -6.38126e-08
-2.25295e-05 0.000121163 1.86708e-07
-6.38126e-08 1.86708e-07 9.54082e-06
0.00164963 -1.30092e-05 -1.07099e-07
-1.30092e-05 0.000103906 -3.82601e-07
-1.07099e-07 -3.82601e-07 -1.59563e-05
0.00169471 -4.37609e-05 -5.17483e-08
-4.37609e-05 9.4689e-05 1.90091e-07
-5.17483e-08 1.90091e-07 -1.9276e-05
0.00158978 -3.42655e-05 -6.02673e-07
-3.42655e-05 9.04022e-05 3.10727e-07
-6.02673e-07 3.10727e-07 -3.07288e-05
0.00146462 -3.76495e-05 -5.49422e-06
-3.76495e-05 7.79986e-05 1.76854e-06
-5.49422e-06 1.76854e-06 -4.19557e-05
0.00153488 -6.26416e-05 1.54813e-06
-6.26416e-05 8.28723e-05 -6.63554e-07
1.54813e-06 -6.63554e-07 -3.71789e-05
0.00143256 -6.65093e-05 7.81455e-08
-6.65093e-05 7.95601e-05 -1.05314e-07
7.81455e-08 -1.05314e-07 -3.73943e-05
0.00113675 -5.61955e-05 -9.40119e-06
-5.61955e-05 6.5934e-06 2.38158e-06
-9.40119e-06 2.38158e-06 -9.25631e-05
0.00140836 -8.89994e-05 4.5821e-06
-8.89994e-05 8.07789e-05 -1.17803e-06
4.5821e-06 -1.17803e-06 -3.4957e-05
0.0011396 -7.21269e-05 2.48646e-08
-7.21269e-05 1.91304e-05 9.54983e-08
2.48646e-08 9.54983e-08 -7.90266e-05
0.0022442 -5.89329e-05 -2.30296e-05
-5.89329e-05 0.000775776 3.28374e-06
-2.30296e-05 3.28374e-06 0.000728233
0.00110216 -8.38267e-05 9.40309e-06
-8.38267e-05 1.23947e-05 -3.05827e-06
9.40309e-06 -3.05827e-06 -8.58239e-05
0.00230534 -7.5292e-05 2.18519e-05
-7.5292e-05 0.000815982 -1.69677e-06
2.18519e-05 -1.69677e-06 0.000769086
0.00161057 -2.90304e-05 -0.000108278
-2.90304e-05 0.000519304 9.3964e-06
-0.000108278 9.3964e-06 0.000498694
0.00241233 -9.1661e-05 6.65218e-05
-9.1661e-05 0.000883262 -8.6868e-06
6.65218e-05 -8.6868e-06 0.000835986
0.0014122 2.0969e-05 -5.24629e-05
2.0969e-05 0.000430062 3.58303e-06
-5.24629e-05 3.58303e-06 0.000402216
0.00137529 9.09033e-05 1.54371e-06
9.09033e-05 0.000430873 -4.46614e-06
1.54371e-06 -4.46614e-06 0.000391997
0.00181065 5.878e-05 6.38709e-07
5.878e-05 0.000133824 1.07544e-06
6.38709e-07 1.07544e-06 2.53218e-05
0.00155591 9.1355e-05 -2.36426e-06
9.1355e-05 7.80473e-05 -4.59412e-07
-2.36426e-06 -4.59412e-07 -4.44418e-05
0.00172763 0.000100331 -1.21241e-06
0.000100331 0.000119184 -1.56459e-07
-1.21241e-06 -1.56459e-07 1.38082e-06
0.00158953 0.000124709 -3.96724e-06
0.000124709 0.000176142 -1.0673e-06
-3.96724e-06 -1.0673e-06 5.76849e-05
0.00171876 0.000127353 1.12298e-06
0.000127353 0.000184237 3.85498e-07
1.12298e-06 3.85498e-07 6.1717e-05
0.00182056 0.000136308 3.39314e-06
0.000136308 0.000194266 6.78223e-07
3.39314e-06 6.78223e-07 7.32738e-05
0.00102768 0.000109343 -8.80943e-06
0.000109343 4.57859e-07 -2.90966e-06
-8.80943e-06 -2.90966e-06 -0.000104728
0.00141312 0.000143211 2.48526e-06
0.000143211 0.00013054 7.74889e-07
2.48526e-06 7.74889e-07 5.09201e-06
0.00141487 0.000151302 2.41688e-06
0.000151302 5.81219e-05 -1.72664e-08
2.41688e-06 -1.72664e-08 -6.91586e-05
0.000735118 0.000109184 -1.5712e-05
0.000109184 -2.58834e-06 -7.78313e-06
-1.5712e-05 -7.78313e-06 -6.55494e-05
0.00100163 0.000111303 -6.42257e-07
0.000111303 4.08672e-05 5.5826e-08
-6.42257e-07 5.5826e-08 -6.45841e-05
0.00125332 0.000147257 4.41915e-06
0.000147257 0.000113121 1.78949e-06
4.41915e-06 1.78949e-06 -1.90456e-05
0.000870777 9.62171e-05 4.69555e-06
9.62171e-05 2.5161e-05 2.63824e-06
4.69555e-06 2.63824e-06 -7.43362e-05
0.000663387 7.44496e-05 -1.54116e-07
7.44496e-05 -2.04046e-05 7.0886e-08
-1.54116e-07 7.0886e-08 -7.84466e-05
0.00405166 -7.7701e-05 -9.8756e-05
-7.7701e-05 0.00189552 -7.13974e-06
-9.8756e-05 -7.13974e-06 0.00188175
0.000569008 2.29173e-05 5.80674e-06
2.29173e-05 -6.0056e-05 6.35605e-06
5.80674e-06 6.35605e-06 -0.00010933
0.00343302 -0.000124365 -5.26969e-06
-0.000124365 0.00154639 3.64855e-07
-5.26969e-06 3.64855e-07 0.00153639
0.00303522 -0.000120591 5.27791e-05
-0.000120591 0.00131358 2.13432e-06
5.27791e-05 2.13432e-06 0.00130877
0.00179597 4.11617e-05 6.07848e-07
4.11617e-05 9.00739e-05 7.34277e-08
6.07848e-07 7.34277e-08 -1.33343e-05
0.00179253 6.0131e-05 -1.3415e-07
6.0131e-05 6.76514e-05 2.59884e-07
-1.3415e-07 2.59884e-07 -3.19e-05
0.00177025 6.73283e-05 3.39725e-06
6.73283e-05 2.476e-05 -6.39344e-07
3.39725e-06 -6.39344e-07 -6.48449e-05
0.00185071 0.000113995 9.9395e-07
0.000113995 0.000121227 -1.01018e-06
9.9395e-07 -1.01018e-06 1.18255e-05
0.00176767 -3.29462e-06 9.31699e-07
-3.29462e-06 9.53986e-05 -3.99523e-09
9.31699e-07 -3.99523e-09 -1.53305e-05
0.00187727 1.26679e-05 -1.07672e-07
1.26679e-05 0.000125624 -7.34438e-08
-1.07672e-07 -7.34438e-08 2.48117e-05
0.00189053 1.56112e-05 -7.04666e-07
1.56112e-05 0.000115286 -1.53611e-08
-7.04666e-07 -1.53611e-08 2.06726e-05
0.00185925 -1.43799e-05 -2.27071e-06
-1.43799e-05 0.000117491 -4.23835e-08
-2.27071e-06 -4.23835e-08 1.77438e-05
0.00175001 -3.8925e-06 -6.41531e-07
-3.8925e-06 9.0484e-05 -9.47557e-08
-6.41531e-07 -9.47557e-08 -1.91136e-05
0.0017994 7.68122e-07 4.95416e-07
7.68122e-07 0.000174588 -3.36955e-07
4.95416e-07 -3.36955e-07 5.65267e-05
0.00171402 -2.25055e-05 -5.96054e-07
-2.25055e-05 7.85542e-05 8.61236e-07
-5.96054e-07 8.61236e-07 -3.47762e-05
0.00167175 -1.24789e-05 6.61923e-07
-1.24789e-05 0.000115714 -1.12667e-07
6.61923e-07 -1.12667e-07 -4.91636e-06
0.00136279 -1.08736e-05 -4.30495e-06
-1.08736e-05 3.86478e-06 7.06181e-07
-4.30495e-06 7.06181e-07 -0.000117996
0.00155221 -3.37839e-05 7.08544e-07
-3.37839e-05 6.93795e-05 -6.50686e-08
7.08544e-07 -6.50686e-08 -5.17615e-05
0.00145131 -3.48818e-05 -5.33712e-07
-3.48818e-05 7.11044e-05 3.59739e-07
-5.33712e-07 3.59739e-07 -4.86196e-05
0.00117359 -3.42192e-05 -9.6406e-06
-3.42192e-05 9.25851e-06 2.3803e-06
-9.6406e-06 2.3803e-06 -9.26749e-05
0.00143244 -6.33507e-05 4.28647e-06
-6.33507e-05 7.91666e-05 -1.45803e-06
4.28647e-06 -1.45803e-06 -3.75598e-05
0.00115822 -5.59841e-05 -2.89728e-08
-5.59841e-05 1.70102e-05 -2.63846e-09
-2.89728e-08 -2.63846e-09 -8.20284e-05
0.000687446 -3.9729e-05 -1.44107e-05
-3.9729e-05 -8.61004e-05 3.52147e-06
-1.44107e-05 3.52147e-06 -0.000142589
0.00114725 -7.02411e-05 9.53905e-06
-7.02411e-05 2.18657e-05 -2.60033e-06
9.53905e-06 -2.60033e-06 -7.59123e-05
0.00150257 -5.67378e-05 2.73182e-05
-5.67378e-05 0.000366267 -1.34752e-06
2.73182e-05 -1.34752e-06 0.000316418
0.00478682 -5.23846e-05 -0.000130107
-5.23846e-05 0.00225735 5.8534e-06
-0.000130107 5.8534e-06 0.00225429
0.00241257 -7.75225e-05 6.74773e-05
-7.75225e-05 0.000870509 -7.23244e-06
6.74773e-05 -7.23244e-06 0.000825373
0.00145656 -2.17512e-06 -4.69203e-05
-2.17512e-06 0.000441133 3.37069e-06
-4.69203e-05 3.37069e-06 0.000417135
0.00135044 2.35745e-05 1.42768e-05
2.35745e-05 0.000397896 -3.21543e-06
1.42768e-05 -3.21543e-06 0.00036939
0.0018358 3.90267e-05 8.96602e-07
3.90267e-05 0.00015021 3.55446e-07
8.96602e-07 3.55446e-07 4.31386e-05
0.00161698 5.59281e-05 -1.10735e-06
5.59281e-05 9.6693e-05 6.80806e-07
-1.10735e-06 6.80806e-07 -2.06943e-05
0.00183602 5.65419e-05 -5.0602e-08
5.65419e-05 0.00014935 -9.28012e-08
-5.0602e-08 -9.28012e-08 4.03622e-05
0.00117112 8.67075e-05 -5.292e-06
8.67075e-05 -7.63599e-05 -1.55312e-06
-5.292e-06 -1.55312e-06 -0.000195713
0.00165598 9.41006e-05 -3.5607e-08
9.41006e-05 0.000133293 -1.50159e-08
-3.5607e-08 -1.50159e-08 1.17968e-05
0.00173613 0.000101853 -5.20852e-07
0.000101853 0.00012431 -7.6834e-07
-5.20852e-07 -7.6834e-07 7.4937e-06
0.000665147 8.12151e-05 -1.12052e-05
8.12151e-05 -0.000238449 -3.14137e-06
-1.12052e-05 -3.14137e-06 -0.000342095
0.00163979 0.000128389 1.17435e-06
0.000128389 0.000203897 1.98177e-07
1.17435e-06 1.98177e-07 8.48292e-05
0.00183907 0.000132193 3.61724e-06
0.000132193 0.00025129 1.00774e-06
3.61724e-06 1.00774e-06 0.000128525
0.00067505 0.00010685 -1.60813e-05
0.00010685 -5.9608e-05 -6.73654e-06
-1.60813e-05 -6.73654e-06 -0.000121379
0.000813267 0.000100854 8.57795e-08
0.000100854 -0.000118044 3.33134e-07
8.57795e-08 3.33134e-07 -0.000224084
0.00108059 0.000131726 6.64995e-06
0.000131726 -5.28699e-05 1.77412e-06
6.64995e-06 1.77412e-06 -0.000179299
0.00457243 -8.2793e-05 -0.000102133
-8.2793e-05 0.00218464 -9.03785e-06
-0.000102133 -9.03785e-06 0.00216393
0.00065062 9.89985e-05 8.43762e-07
9.89985e-05 -4.56656e-05 1.67968e-07
8.43762e-07 1.67968e-07 -0.000107831
0.000982052 0.000109426 6.73321e-06
0.000109426 3.11784e-05 3.52418e-06
6.73321e-06 3.52418e-06 -7.39985e-05
0.000542582 6.58133e-05 9.18105e-06
6.58133e-05 -8.11744e-05 7.19957e-06
9.18105e-06 7.19957e-06 -0.000138746
0.00383562 -0.000114502 -7.32616e-06
-0.000114502 0.00177957 4.0424e-07
-7.32616e-06 4.0424e-07 0.00176483
0.00330637 -0.000137689 5.97108e-05
-0.000137689 0.00147661 2.22101e-06
5.97108e-05 2.22101e-06 0.0014652
0.00180463 2.08683e-05 -3.78376e-07
2.08683e-05 0.000116315 -1.68957e-07
-3.78376e-07 -1.68957e-07 6.77244e-06
0.00180814 4.04671e-05 -2.23571e-07
4.04671e-05 9.31242e-05 1.46213e-07
-2.23571e-07 1.46213e-07 -1.00641e-05
0.0018025 5.98772e-05 9.14419e-09
5.98772e-05 7.31785e-05 -4.80786e-07
9.14419e-09 -4.80786e-07 -2.59452e-05
0.001752 8.07168e-06 4.86713e-07
8.07168e-06 0.000141479 -2.7727e-07
4.86713e-07 -2.7727e-07 2.29799e-05
0.00175777 1.7259e-07 -1.55302e-07
1.7259e-07 9.26221e-05 3.79688e-08
-1.55302e-07 3.79688e-08 -1.73217e-05
0.00190959 7.0029e-06 -1.22998e-06
7.0029e-06 0.000141074 1.65721e-08
-1.22998e-06 1.65721e-08 4.03431e-05
0.00173747 4.85516e-07 -1.56848e-06
4.85516e-07 8.30808e-05 5.71515e-07
-1.56848e-06 5.71515e-07 -2.5816e-05
0.00178666 3.35542e-06 1.01164e-06
3.35542e-06 0.000167356 -2.13521e-07
1.01164e-06 -2.13521e-07 4.92677e-05
0.00176897 1.38113e-06 -2.9151e-06
1.38113e-06 0.000213424 8.4017e-08
-2.9151e-06 8.4017e-08 9.49339e-05
0.0017038 -1.18827e-05 1.74002e-06
-1.18827e-05 0.000132777 -3.25718e-08
1.74002e-06 -3.25718e-08 1.13853e-05
0.00161273 -9.07972e-06 9.3493e-09
-9.07972e-06 0.000140651 6.13905e-08
9.3493e-09 6.13905e-08 2.04863e-05
0.000834013 -1.13457e-05 -1.17262e-05
-1.13457e-05 -0.000196853 2.12271e-06
-1.17262e-05 2.12271e-06 -0.000304981
0.0014522 -3.44099e-05 3.79223e-06
-3.44099e-05 7.15937e-05 -9.82823e-07
3.79223e-06 -9.82823e-07 -4.80074e-05
0.00117537 -3.16333e-05 4.56541e-08
-3.16333e-05 9.44181e-06 4.24411e-08
4.56541e-08 4.24411e-08 -9.23076e-05
0.000690509 -1.91522e-05 -1.43313e-05
-1.91522e-05 -9.47513e-05 2.74983e-06
-1.43313e-05 2.74983e-06 -0.000153701
0.00117998 -5.45458e-05 9.72682e-06
-5.45458e-05 2.74739e-05 -2.48226e-06
9.72682e-06 -2.48226e-06 -7.13393e-05
0.000690641 -2.77241e-05 -2.10428e-07
-2.77241e-05 -8.5336e-05 9.69166e-08
-2.10428e-07 9.69166e-08 -0.000141744
0.00481011 -4.43418e-05 -0.000127762
-4.43418e-05 0.00226839 4.45834e-06
-0.000127762 4.45834e-06 0.00226552
0.000733336 -4.91984e-05 1.52972e-05
-4.91984e-05 -5.73313e-05 -5.2223e-06
1.52972e-05 -5.2223e-06 -0.000113375
0.00310446 -2.89903e-05 5.33191e-05
-2.89903e-05 0.00133698 2.37196e-08
5.33191e-05 2.37196e-08 0.00132208
0.00129602 -1.07836e-05 2.101e-05
-1.07836e-05 0.000359228 -2.89026e-06
2.101e-05 -2.89026e-06 0.000332285
0.00183622 2.69085e-05 8.8568e-08
2.69085e-05 0.000168172 -2.26436e-08
8.8568e-08 -2.26436e-08 5.86966e-05
0.00162601 3.08759e-05 -7.63452e-07
3.08759e-05 9.9395e-05 5.40285e-07
-7.63452e-07 5.40285e-07 -1.53186e-05
0.00180055 3.70094e-05 -3.47407e-07
3.70094e-05 0.000131115 -1.79846e-07
-3.47407e-07 -1.79846e-07 2.40703e-05
0.00142032 6.07823e-05 -4.26293e-06
6.07823e-05 4.89856e-05 -4.32394e-07
-4.26293e-06 -4.32394e-07 -6.70742e-05
0.00157328 5.42963e-05 3.86078e-07
5.42963e-05 7.23402e-05 1.60704e-07
3.86078e-07 1.60704e-07 -4.57049e-05
0.00186141 5.40498e-05 -1.00311e-06
5.40498e-05 0.000164718 -9.38327e-07
-1.00311e-06 -9.38327e-07 5.52616e-05
0.000705063 6.55014e-05 -1.13779e-05
6.55014e-05 -0.000238912 -2.99044e-06
-1.13779e-05 -2.99044e-06 -0.000341102
0.00152223 9.72815e-05 -1.4365e-06
9.72815e-05 0.000115329 -3.7169e-07
-1.4365e-06 -3.7169e-07 -2.48802e-06
0.00175434 9.66408e-05 2.575e-06
9.66408e-05 0.00018747 1.08134e-07
2.575e-06 1.08134e-07 6.70015e-05
0.000641933 7.9997e-05 -1.51411e-05
7.9997e-05 -9.75691e-05 -5.40655e-06
-1.51411e-05 -5.40655e-06 -0.000157057
0.000676709 8.24389e-05 -2.55243e-06
8.24389e-05 -0.000232503 -5.99827e-07
-2.55243e-06 -5.99827e-07 -0.000336616
0.00168376 0.000131886 6.47836e-06
0.000131886 0.000228201 1.38987e-06
6.47836e-06 1.38987e-06 0.000108552
0.00486737 -3.43685e-05 -0.000114372
-3.43685e-05 0.00232246 -7.86661e-06
-0.000114372 -7.86661e-06 0.00231084
0.000628082 9.65827e-05 8.93629e-07
9.65827e-05 -8.25593e-05 3.5017e-07
8.93629e-07 3.5017e-07 -0.000145007
0.000594523 9.22355e-05 8.61012e-06
9.22355e-05 -0.000238859 3.38247e-06
8.61012e-06 3.38247e-06 -0.000345764
0.00432225 -7.0352e-05 -2.02526e-08
-7.0352e-05 0.002041 -7.49079e-08
-2.02526e-08 -7.49079e-08 0.00202703
0.000528875 8.98678e-05 1.25536e-05
8.98678e-05 -0.000108081 7.56818e-06
1.25536e-05 7.56818e-06 -0.000169742
0.00363681 -0.000144256 6.99914e-05
-0.000144256 0.0016732 3.27317e-06
6.99914e-05 3.27317e-06 0.00165645
0.00178471 1.74993e-05 -4.49012e-07
1.74993e-05 0.000157576 -3.33578e-07
-4.49012e-07 -3.33578e-07 4.17302e-05
0.00177311 2.00038e-05 -7.13665e-08
2.00038e-05 0.000102909 6.22084e-08
-7.13665e-08 6.22084e-08 -7.07854e-06
0.00181925 3.97446e-05 -8.31738e-07
3.97446e-05 9.54209e-05 -6.86127e-08
-8.31738e-07 -6.86127e-08 -7.54626e-06
0.00174323 -1.71702e-06 -3.21095e-06
-1.71702e-06 0.000199945 -1.53948e-07
-3.21095e-06 -1.53948e-07 8.29251e-05
0.0017764 7.43937e-06 7.35614e-07
7.43937e-06 0.000154944 -1.38019e-08
7.35614e-07 -1.38019e-08 3.73571e-05
0.00176094 5.86565e-06 1.40627e-07
5.86565e-06 9.68473e-05 4.40871e-08
1.40627e-07 4.40871e-08 -1.23566e-05
0.00177429 4.76516e-06 1.10054e-06
4.76516e-06 0.000160332 2.09181e-07
1.10054e-06 2.09181e-07 4.22222e-05
0.00176598 1.8137e-06 1.50153e-06
1.8137e-06 0.000211918 -1.78905e-07
1.50153e-06 -1.78905e-07 9.33764e-05
0.000846664 -2.77428e-06 -1.12429e-05
-2.77428e-06 -0.000201452 8.46366e-07
-1.12429e-05 8.46366e-07 -0.0003106
0.00185881 -7.47135e-06 5.36127e-06
-7.47135e-06 0.000275547 -7.92331e-07
5.36127e-06 -7.92331e-07 0.000157066
0.00102473 -9.7103e-06 -2.3748e-06
-9.7103e-06 -9.20149e-05 5.4174e-07
-2.3748e-06 5.4174e-07 -0.000198426
0.000709561 -7.28166e-06 -1.4892e-05
-7.28166e-06 -9.80031e-05 2.07495e-06
-1.4892e-05 2.07495e-06 -0.000160118
0.00118722 -3.0534e-05 9.67631e-06
-3.0534e-05 1.4918e-05 -2.33138e-06
9.67631e-06 -2.33138e-06 -8.67201e-05
0.00070354 -1.38316e-05 2.64422e-07
-1.38316e-05 -8.88241e-05 -3.85378e-08
2.64422e-07 -3.85378e-08 -0.000147673
0.00491861 -2.61002e-05 -0.000127416
-2.61002e-05 0.00232341 2.91996e-06
-0.000127416 2.91996e-06 0.00232091
0.000684907 -2.1137e-05 1.3571e-05
-2.1137e-05 -8.95991e-05 -3.12303e-06
1.3571e-05 -3.12303e-06 -0.000145586
0.00483503 -7.32297e-06 6.60573e-06
-7.32297e-06 0.00228076 1.74345e-07
6.60573e-06 1.74345e-07 0.0022781
0.00148773 -1.58116e-05 0.000111408
-1.58116e-05 0.000450264 -4.90918e-06
0.000111408 -4.90918e-06 0.000431365
0.00180516 2.07718e-05 -5.1594e-07
2.07718e-05 0.000195933 -2.92441e-07
-5.1594e-07 -2.92441e-07 8.29522e-05
0.00175225 2.96115e-05 -2.23961e-07
2.96115e-05 0.000121564 2.40064e-07
-2.23961e-07 2.40064e-07 1.23907e-05
0.00144776 3.00231e-05 -3.74701e-06
3.00231e-05 5.7989e-05 -3.63064e-07
-3.74701e-06 -3.63064e-07 -5.56585e-05
0.00159303 3.01736e-05 3.89756e-07
3.01736e-05 8.16734e-05 -2.45666e-08
3.89756e-07 -2.45666e-08 -3.30995e-05
0.00176323 3.50288e-05 -2.58591e-07
3.50288e-05 0.000111001 -6.47126e-07
-2.58591e-07 -6.47126e-07 3.98699e-06
0.0011793 5.33345e-05 -9.73912e-06
5.33345e-05 8.78345e-06 -1.90879e-06
-9.73912e-06 -1.90879e-06 -9.0013e-05
0.00144658 6.13337e-05 -5.27287e-08
6.13337e-05 6.1913e-05 2.69128e-07
-5.27287e-08 2.69128e-07 -5.41399e-05
0.00152975 5.26841e-05 8.70634e-07
5.26841e-05 4.81368e-05 -1.69751e-07
8.70634e-07 -1.69751e-07 -7.0577e-05
0.000656197 5.54875e-05 -1.48258e-05
5.54875e-05 -0.000105174 -4.15186e-06
-1.48258e-05 -4.15186e-06 -0.000162562
0.000925573 7.28004e-05 -2.91909e-06
7.28004e-05 -0.000117718 -5.27146e-07
-2.91909e-06 -5.27146e-07 -0.000219117
0.00188396 0.000108134 4.69198e-06
0.000108134 0.00031278 9.75317e-07
4.69198e-06 9.75317e-07 0.000196471
0.0049591 3.35484e-05 -0.000131712
3.35484e-05 0.00235233 -6.74848e-06
-0.000131712 -6.74848e-06 0.00234853
0.000630751 7.5367e-05 1.26311e-07
7.5367e-05 -0.00010314 1.75677e-07
1.26311e-07 1.75677e-07 -0.000162926
0.000689225 8.39288e-05 6.66506e-06
8.39288e-05 -0.000226135 2.12197e-06
6.66506e-06 2.12197e-06 -0.000330733
0.00469135 -1.67566e-05 8.76939e-06
-1.67566e-05 0.00222897 1.26039e-07
8.76939e-06 1.26039e-07 0.00221775
0.000571264 8.57073e-05 1.37265e-05
8.57073e-05 -0.000111283 6.95884e-06
1.37265e-05 6.95884e-06 -0.000174075
0.00407554 -0.000112156 8.37008e-05
-0.000112156 0.00191301 5.49032e-06
8.37008e-05 5.49032e-06 0.00189687
0.0017478 1.55014e-05 -2.87331e-06
1.55014e-05 0.000207096 -6.86888e-07
-2.87331e-06 -6.86888e-07 9.24911e-05
0.001783 1.40261e-05 1.14759e-07
1.40261e-05 0.000158806 9.44657e-08
1.14759e-07 9.44657e-08 4.26619e-05
0.00174237 1.88329e-05 -4.92322e-08
1.88329e-05 9.03416e-05 4.41079e-07
-4.92322e-08 4.41079e-07 -2.00807e-05
0.000841397 -1.09127e-05 -1.17501e-05
-1.09127e-05 -0.000202913 -9.89869e-08
-1.17501e-05 -9.89869e-08 -0.000310996
0.00176537 5.04542e-06 1.54415e-06
5.04542e-06 0.00021216 -3.50293e-08
1.54415e-06 -3.50293e-08 9.50731e-05
0.00179415 6.99108e-06 1.6017e-06
6.99108e-06 0.000165007 1.02e-07
1.6017e-06 1.02e-07 4.83479e-05
0.00176508 2.02174e-06 5.74409e-06
2.02174e-06 0.000211575 -1.81846e-07
5.74409e-06 -1.81846e-07 9.29724e-05
0.000840486 -3.07091e-06 -1.81284e-06
-3.07091e-06 -0.000204826 2.31134e-07
-1.81284e-06 2.31134e-07 -0.00031398
0.000747424 -5.62729e-06 -1.53685e-05
-5.62729e-06 -8.6921e-05 8.1915e-07
-1.53685e-05 8.1915e-07 -0.000150396
0.00120306 -7.25692e-06 7.80531e-06
-7.25692e-06 6.15396e-06 -1.2754e-06
7.80531e-06 -1.2754e-06 -9.85316e-05
0.000718864 2.09567e-06 2.08241e-07
2.09567e-06 -9.40124e-05 1.66062e-07
2.08241e-07 1.66062e-07 -0.000155998
0.00513453 -4.98051e-05 -0.000133581
-4.98051e-05 0.00243787 1.82687e-06
-0.000133581 1.82687e-06 0.00243341
0.000725915 -1.26834e-06 1.41362e-05
-1.26834e-06 -7.80555e-05 -2.38e-06
1.41362e-05 -2.38e-06 -0.000136776
0.00498885 2.09345e-05 6.77256e-06
2.09345e-05 0.00236239 1.95294e-07
6.77256e-06 1.95294e-07 0.00235824
0.00486265 -3.65758e-05 0.000137201
-3.65758e-05 0.00229437 -3.41922e-06
0.000137201 -3.41922e-06 0.00229221
0.00150773 1.8205e-05 -3.80766e-06
1.8205e-05 8.7529e-05 -1.09768e-06
-3.80766e-06 -1.09768e-06 -2.61661e-05
0.00168444 2.17142e-05 5.07196e-07
2.17142e-05 0.000129587 5.51321e-08
5.07196e-07 5.51321e-08 1.69131e-05
0.00166727 3.24748e-05 -2.73903e-07
3.24748e-05 7.4366e-05 3.9305e-07
-2.73903e-07 3.9305e-07 -3.45051e-05
0.00118383 2.50684e-05 -9.43493e-06
2.50684e-05 4.67213e-06 -1.5942e-06
-9.43493e-06 -1.5942e-06 -9.38892e-05
0.00146361 3.02891e-05 2.33208e-07
3.02891e-05 6.5668e-05 -3.13279e-08
2.33208e-07 -3.13279e-08 -4.80843e-05
0.0015549 2.94389e-05 6.79897e-07
2.94389e-05 6.12856e-05 -7.51473e-07
6.79897e-07 -7.51473e-07 -5.35595e-05
0.000683411 3.34972e-05 -1.4361e-05
3.34972e-05 -0.00010075 -3.15715e-06
-1.4361e-05 -3.15715e-06 -0.000158119
0.00117475 5.468e-05 3.01959e-08
5.468e-05 6.73717e-06 2.18308e-07
3.01959e-08 2.18308e-07 -9.23523e-05
0.00147098 6.18098e-05 4.52271e-06
6.18098e-05 7.38362e-05 1.02872e-06
4.52271e-06 1.02872e-06 -4.22107e-05
0.00497231 5.83428e-05 -0.000142797
5.83428e-05 0.00235253 -5.79157e-06
-0.000142797 -5.79157e-06 0.0023501
0.000662448 5.55429e-05 6.1359e-08
5.55429e-05 -0.000101588 9.9701e-08
6.1359e-08 9.9701e-08 -0.000159112
0.00113493 7.99585e-05 7.11737e-06
7.99585e-05 -2.55607e-06 2.03361e-06
7.11737e-06 2.03361e-06 -0.00010314
0.0048753 4.33762e-05 5.13058e-06
4.33762e-05 0.00231137 8.59545e-07
5.13058e-06 8.59545e-07 0.00230615
0.000623595 7.12682e-05 1.40437e-05
7.12682e-05 -0.000106691 5.48846e-06
1.40437e-05 5.48846e-06 -0.00016651
0.00454466 -4.80572e-06 0.000111924
-4.80572e-06 0.00214433 6.59095e-06
0.000111924 6.59095e-06 0.00213793
0.00124017 7.57249e-06 -1.03801e-05
7.57249e-06 1.87362e-05 -6.56103e-07
-1.03801e-05 -6.56103e-07 -8.49821e-05
0.00156757 1.06545e-05 1.66699e-06
1.06545e-05 0.000107637 1.86795e-08
1.66699e-06 1.86795e-08 -8.79585e-06
0.00177915 9.43949e-06 1.19016e-06
9.43949e-06 0.000158596 7.41961e-07
1.19016e-06 7.41961e-07 4.21494e-05
0.000731166 1.88659e-05 -1.57192e-05
1.88659e-05 -0.000100858 -2.85806e-07
-1.57192e-05 -2.85806e-07 -0.000161096
0.000839229 -4.54987e-06 -1.98327e-06
-4.54987e-06 -0.000204773 4.55861e-08
-1.98327e-06 4.55861e-08 -0.00031295
0.00178731 1.1596e-05 6.28599e-06
1.1596e-05 0.000224234 2.10417e-08
6.28599e-06 2.10417e-08 0.000107078
0.000832749 -2.89782e-06 7.48838e-06
-2.89782e-06 -0.000209074 -3.21493e-07
7.48838e-06 -3.21493e-07 -0.000318224
0.000717573 3.11232e-06 6.60006e-08
3.11232e-06 -0.000103212 3.1738e-07
6.60006e-08 3.1738e-07 -0.000166541
0.0052779 5.31572e-05 -0.00013928
5.31572e-05 0.00251017 -5.30519e-07
-0.00013928 -5.30519e-07 0.00250661
0.000708369 1.11709e-05 1.45022e-05
1.11709e-05 -0.000100286 -1.33533e-06
1.45022e-05 -1.33533e-06 -0.000162235
0.00517552 -2.80338e-05 -1.44168e-06
-2.80338e-05 0.00245667 8.26684e-07
-1.44168e-06 8.26684e-07 0.00245343
0.00503684 3.75051e-05 0.000134288
3.75051e-05 0.00238417 -1.39262e-06
0.000134288 -1.39262e-06 0.00238157
0.00121379 1.21108e-05 -1.00333e-05
1.21108e-05 1.32692e-05 -1.71702e-06
-1.00333e-05 -1.71702e-06 -8.74801e-05
0.00141033 1.64705e-05 2.60188e-08
1.64705e-05 3.28637e-05 -2.25198e-07
2.60188e-08 -2.25198e-07 -8.12812e-05
0.00156719 2.25836e-05 9.47795e-07
2.25836e-05 6.51265e-05 2.18287e-08
9.47795e-07 2.18287e-08 -4.72472e-05
0.00250425 1.46136e-05 -7.43461e-05
1.46136e-05 0.00088824 -2.10129e-06
-7.43461e-05 -2.10129e-06 0.000844068
0.00119118 2.69616e-05 1.52046e-07
2.69616e-05 8.43576e-06 7.51077e-08
1.52046e-07 7.51077e-08 -9.03449e-05
0.00148111 3.04413e-05 4.24103e-06
3.04413e-05 7.42227e-05 3.20901e-07
4.24103e-06 3.20901e-07 -3.96348e-05
0.00498501 6.01314e-05 -0.000147845
6.01314e-05 0.00235735 -4.40466e-06
-0.000147845 -4.40466e-06 0.0023545
0.000704489 3.55809e-05 1.45527e-07
3.55809e-05 -8.86915e-05 1.21841e-07
1.45527e-07 1.21841e-07 -0.000146247
0.0011757 5.61307e-05 9.78262e-06
5.61307e-05 7.4803e-06 2.30799e-06
9.78262e-06 2.30799e-06 -9.18823e-05
0.00493931 6.9279e-05 1.03545e-06
6.9279e-05 0.00233843 8.8212e-07
1.03545e-06 8.8212e-07 0.00233479
0.000671274 5.55229e-05 1.43495e-05
5.55229e-05 -9.62898e-05 4.38339e-06
1.43495e-05 4.38339e-06 -0.00015396
0.00479246 5.78005e-05 0.000129223
5.78005e-05 0.00226764 7.36767e-06
0.000129223 7.36767e-06 0.0022628
0.000767271 7.92515e-06 -1.57498e-05
7.92515e-06 -7.6019e-05 -1.62779e-06
-1.57498e-05 -1.62779e-06 -0.000138547
0.00104599 4.80137e-06 4.55278e-07
4.80137e-06 -8.70334e-05 4.46171e-07
4.55278e-07 4.46171e-07 -0.00019209
0.00138086 5.71082e-06 5.61414e-06
5.71082e-06 4.6129e-06 7.13645e-07
5.61414e-06 7.13645e-07 -0.000113609
0.00529748 -7.58864e-05 -0.000130782
-7.58864e-05 0.00253043 -1.97218e-06
-0.000130782 -1.97218e-06 0.00252029
0.000727798 9.5344e-06 -1.74485e-07
9.5344e-06 -9.98712e-05 2.1888e-07
-1.74485e-07 2.1888e-07 -0.000161753
0.000846362 1.4527e-06 7.70667e-06
1.4527e-06 -0.000201706 1.14209e-07
7.70667e-06 1.14209e-07 -0.000309969
0.000706975 1.53356e-05 1.48578e-05
1.53356e-05 -0.000109136 3.46183e-09
1.48578e-05 3.46183e-09 -0.000172491
0.00530726 3.61352e-05 4.93674e-06
3.61352e-05 0.00252927 4.40444e-07
4.93674e-06 4.40444e-07 0.00252291
0.00525603 8.21778e-05 0.000135547
8.21778e-05 0.00250145 -2.57126e-08
0.000135547 -2.57126e-08 0.00249561
0.00258979 -5.61342e-06 -7.6592e-05
-5.61342e-06 0.000926095 -1.89219e-06
-7.6592e-05 -1.89219e-06 0.00087998
0.00122374 1.43267e-05 -7.43608e-08
1.43267e-05 1.84451e-05 -4.02e-08
-7.43608e-08 -4.02e-08 -8.22967e-05
0.00131309 1.48787e-05 3.97488e-06
1.48787e-05 -2.17684e-05 6.14599e-07
3.97488e-06 6.14599e-07 -0.000136356
0.00476878 6.19259e-06 -3.08765e-05
6.19259e-06 0.00224837 -1.11379e-06
-3.08765e-05 -1.11379e-06 0.00223703
0.000739056 2.01845e-05 -6.04012e-08
2.01845e-05 -7.51013e-05 1.95857e-07
-6.04012e-08 1.95857e-07 -0.000134226
0.00121433 2.95224e-05 9.68861e-06
2.95224e-05 2.03363e-05 1.79948e-06
9.68861e-06 1.79948e-06 -7.8616e-05
0.00498675 5.40355e-05 -5.46247e-06
5.40355e-05 0.00235891 3.71254e-07
-5.46247e-06 3.71254e-07 0.00235645
0.000728021 4.34972e-05 1.51093e-05
4.34972e-05 -7.45079e-05 3.66118e-06
1.51093e-05 3.66118e-06 -0.000132645
0.00491134 8.29222e-05 0.000138373
8.29222e-05 0.00232618 7.24462e-06
0.000138373 7.24462e-06 0.00232151
0.00172599 -2.35261e-05 -0.000131245
-2.35261e-05 0.000560034 2.54184e-07
-0.000131245 2.54184e-07 0.000537887
0.00166926 1.33877e-05 -3.12858e-05
1.33877e-05 0.000417049 4.17497e-07
-3.12858e-05 4.17497e-07 0.000364045
0.000852775 5.00696e-06 1.00701e-05
5.00696e-06 -0.000192197 1.38585e-06
1.00701e-05 1.38585e-06 -0.000298616
0.00528483 -3.03637e-05 6.55078e-06
-3.03637e-05 0.00251952 -1.00832e-06
6.55078e-06 -1.00832e-06 0.00251252
0.000713637 1.74577e-06 1.55487e-05
1.74577e-06 -0.000105377 7.7468e-07
1.55487e-05 7.7468e-07 -0.000168254
0.00530945 -3.31606e-05 0.000147122
-3.31606e-05 0.00252741 5.5771e-07
0.000147122 5.5771e-07 0.00252315
0.00141515 -7.15997e-05 -8.16251e-06
-7.15997e-05 0.000413675 -8.18313e-07
-8.16251e-06 -8.18313e-07 0.000378206
0.00166029 8.91891e-06 -3.06146e-05
8.91891e-06 0.000420612 -2.74686e-08
-3.06146e-05 -2.74686e-08 0.000367466
0.00122654 1.47033e-05 9.69798e-06
1.47033e-05 2.00197e-05 1.67914e-06
9.69798e-06 1.67914e-06 -8.07429e-05
0.00320814 3.44575e-05 5.34045e-05
3.44575e-05 0.00138803 4.83071e-07
5.34045e-05 4.83071e-07 0.00137074
0.000753957 2.87645e-05 1.53683e-05
2.87645e-05 -6.68236e-05 3.08434e-06
1.53683e-05 3.08434e-06 -0.000126277
0.00497504 8.72465e-05 0.000140642
8.72465e-05 0.00235748 6.14765e-06
0.000140642 6.14765e-06 0.00235273
0.00523648 -3.69304e-05 -8.62427e-06
-3.69304e-05 0.00249458 3.76607e-07
-8.62427e-06 3.76607e-07 0.00248752
0.000724921 2.27036e-05 1.58691e-05
2.27036e-05 -9.85362e-05 1.73268e-06
1.58691e-05 1.73268e-06 -0.000158395
0.00526342 6.61079e-05 0.000134442
6.61079e-05 0.00251009 -1.42512e-06
0.000134442 -1.42512e-06 0.00250196
0.00327116 2.13449e-05 6.4367e-05
2.13449e-05 0.00141929 6.91447e-07
6.4367e-05 6.91447e-07 0.00140164
0.000733326 9.75766e-06 1.51134e-05
9.75766e-06 -8.44248e-05 2.42819e-06
1.51134e-05 2.42819e-06 -0.000145114
0.00502884 -5.25409e-06 0.000132875
-5.25409e-06 0.00237946 3.24018e-06
0.000132875 3.24018e-06 0.00237747
0.00518966 -0.000121032 0.000127692
-0.000121032 0.00247553 -6.29951e-08
0.000127692 -6.29951e-08 0.00246476
0.00509435 -7.52935e-05 0.000128597
-7.52935e-05 0.0024187 1.3397e-06
0.000128597 1.3397e-06 0.00241274
