# vtk DataFile Version 2.0
Wound Healing Simulation
ASCII
DATASET UNSTRUCTURED_GRID
POINTS 3012 float
69.9759 18.75 4
67.2507 60.3285 4
69.976 18.75 2
73.0099 25.446 4
71.1327 20.9142 4
68.6801 16.6661 4
67.8215 19.9261 3.97375
67.2507 60.3286 2
71.1327 54.0858 4
68.6801 58.3339 4
65.6939 62.2254 4
65.3083 58.9988 3.97249
74.6784 42.3946 4
73.7221 47.2057 4
69.9759 18.75 0
73.0099 25.446 2
68.6801 16.6661 2
71.1327 20.9142 2
67.8222 19.9299 2
74.6792 32.6053 4
73.7222 27.7943 4
72.1454 23.1494 4
70.6114 26.2216 3.9737
68.8819 21.9577 3.974
67.2507 14.6715 4
66.6328 17.9731 3.97261
65.7609 21.0376 3.96253
67.2507 60.3285 0
71.1327 54.0858 2
68.6801 58.3339 2
65.694 62.2255 2
65.3097 58.9944 2
72.1454 51.8506 4
69.9759 56.25 4
68.8324 53.1142 3.9738
64.0165 64.0165 4
66.6066 57.1329 3.97362
63.8815 60.762 3.9702
63.4884 57.7624 3.96253
60.3285 67.2507 4
74.6792 42.3947 2
73.7222 47.2057 2
74.9194 39.9526 4
74.2788 44.8158 4
72.166 42.0857 3.97513
73.0099 49.554 4
71.2466 46.5984 3.97367
73.0099 25.446 0
71.1327 20.9142 0
68.6801 16.6661 0
67.8215 19.9261 0.0262459
74.6792 32.6053 2
73.7222 27.7943 2
67.2508 14.6715 2
72.1455 23.1494 2
70.6107 26.2224 2
66.634 17.9775 2
68.8821 21.9605 2
65.7589 21.0396 2
74.9197 35.0474 4
74.2794 30.1841 4
72.1828 32.9448 3.97565
71.2758 28.4326 3.97382
69.8122 24.0596 3.9738
68.3285 26.9584 3.96405
66.7307 22.9437 3.96305
65.694 12.7746 4
65.3192 16.1063 3.97139
64.6795 19.2087 3.96179
63.7517 22.0881 3.96424
71.1327 54.0858 0
65.6939 62.2254 0
68.6801 58.3339 0
65.3083 58.9988 0.0275127
72.1455 51.8506 2
69.9759 56.25 2
68.8326 53.1112 2
64.0165 64.0165 2
66.6078 57.1283 2
63.8825 60.7573 2
63.4817 57.7608 2
62.2254 65.694 4
58.8911 65.4123 3.98094
69.7652 50.9901 3.97347
67.7795 55.1678 3.97391
66.6098 52.1998 3.96311
62.332 62.4243 3.97525
64.6333 56.0223 3.96285
62.193 59.3888 3.9635
61.7289 56.6362 3.96064
58.3339 68.6801 4
60.3285 67.2508 2
73.7221 47.2057 0
74.6784 42.3946 0
74.9197 39.9526 2
74.2794 44.8159 2
72.1651 42.0854 2
73.0099 49.554 2
71.2458 46.5976 2
75 37.5 4
72.4034 39.8026 3.97637
71.78 44.353 3.97457
69.7976 41.7893 3.96609
70.572 48.8144 3.97342
68.8951 46.0113 3.96539
74.6792 32.6053 0
73.7222 27.7943 0
67.2507 14.6715 0
72.1454 23.1494 0
70.6114 26.2216 0.0263013
68.8819 21.9577 0.0259955
66.6328 17.9731 0.0273918
65.7609 21.0376 0.0374715
74.9197 35.0474 2
74.2794 30.1841 2
72.1819 32.9447 2
71.2749 28.4329 2
65.694 12.7745 2
65.3204 16.1111 2
69.8119 24.0613 2
68.332 26.9592 2
64.6736 19.2112 2
66.7313 22.9453 2
63.7505 22.0889 2
72.4113 35.2253 3.97649
71.8016 30.6779 3.97488
69.834 33.2723 3.96625
68.9562 29.0436 3.96481
67.5853 24.9207 3.96348
66.0453 27.6749 3.96986
64.0165 10.9835 4
64.6141 23.8795 3.96639
63.8848 14.332 3.96872
63.4948 17.4608 3.96061
62.7764 20.3771 3.96215
61.8475 23.0384 3.96963
60.6803 11.1024 3.97605
57.6047 11.4788 3.96782
72.1454 51.8506 0
69.9759 56.25 0
68.8324 53.1142 0.026196
64.0165 64.0165 0
63.8815 60.762 0.0298014
66.6066 57.1329 0.0263775
63.4884 57.7624 0.0374683
62.2255 65.694 2
58.8933 65.4075 2
69.7651 50.988 2
67.7803 55.1638 2
66.61 52.1984 2
62.3339 62.4187 2
64.6264 56.0201 2
62.1895 59.3888 2
61.7253 56.6361 2
60.6652 63.9728 3.97794
57.0215 66.733 3.98345
57.5502 63.6676 3.97169
67.4706 50.1685 3.9637
65.6664 54.1639 3.96278
64.3728 51.3363 3.96635
60.7666 60.9153 3.96684
62.6983 55.0209 3.96336
60.5874 58.1142 3.95855
60.1559 55.7075 3.96523
56.25 69.9759 4
58.3339 68.6801 2
60.3285 67.2507 0
58.9176 9.66004 3.97808
62.2254 9.30607 4
73.0099 49.554 0
74.2788 44.8158 0
71.2466 46.5984 0.0263322
72.166 42.0857 0.0248681
74.9194 39.9526 0
75 37.5 2
72.4031 39.8025 2
71.7796 44.3524 2
69.7966 41.789 2
70.5714 48.8131 2
68.8992 46.0109 2
72.4868 37.5128 3.97604
70.0352 39.6581 3.96669
69.4228 43.906 3.96598
67.4746 41.4858 3.97476
68.236 48.101 3.96445
66.5492 45.4095 3.97255
74.9197 35.0474 0
74.2794 30.1841 0
72.1828 32.9448 0.0243506
71.2758 28.4326 0.0261826
65.694 12.7746 0
65.3192 16.1063 0.0286108
69.8122 24.0596 0.0262037
68.3285 26.9584 0.0359485
66.7307 22.9437 0.0369508
64.6795 19.2087 0.0382078
63.7517 22.0881 0.0357625
72.411 35.2251 2
71.8012 30.6779 2
69.8332 33.2728 2
68.9588 29.0442 2
64.0165 10.9835 2
63.8863 14.3376 2
63.4893 17.4625 2
67.5874 24.9219 2
66.0429 27.676 2
62.7765 20.3774 2
64.6119 23.8807 2
61.8459 23.0391 2
60.6827 11.1075 2
57.6047 11.4716 2
70.0522 35.395 3.96686
69.4605 31.1541 3.9653
67.5395 33.6071 3.97419
66.6325 29.6552 3.9718
65.3761 25.7448 3.96819
63.8575 28.3311 3.97602
62.337 12.6593 3.97409
62.5928 24.7273 3.97229
62.1868 15.804 3.96343
61.6984 18.744 3.95958
60.9842 21.443 3.96594
60.0784 23.8625 3.97324
59.2378 12.8135 3.96349
55.8674 10.265 3.97339
56.3921 13.1785 3.96718
69.7652 50.9901 0.0265301
62.2254 65.694 0
58.8911 65.4123 0.0190588
67.7795 55.1678 0.0260912
66.6098 52.1998 0.0368895
62.332 62.4243 0.0247472
62.193 59.3888 0.0365031
64.6333 56.0223 0.0371484
61.7289 56.6362 0.0393576
60.6676 63.9695 2
57.0245 66.7294 2
57.551 63.6717 2
67.4721 50.1674 2
65.6639 54.1621 2
64.3713 51.3355 2
60.7637 60.9162 2
62.6982 55.0211 2
60.5851 58.1151 2
60.1544 55.7073 2
55.0675 67.9303 3.98595
59.2121 62.3328 3.96707
55.7977 64.8904 3.97293
56.3148 62.0387 3.97522
65.1573 49.3624 3.96838
63.5567 53.2427 3.96476
62.1387 50.5627 3.97101
59.2983 59.5152 3.95939
60.8568 54.2252 3.96787
59.1224 56.9277 3.96066
59.0039 55.0814 3.96832
48.0993 68.5723 3.98202
50.9453 69.9307 3.98838
54.0858 71.1327 4
56.25 69.976 2
58.3339 68.6801 0
57.0549 8.3392 3.97949
60.3285 7.74928 4
58.9206 9.66435 2
62.2255 9.30602 2
70.572 48.8144 0.0265785
71.78 44.353 0.0254308
68.8951 46.0113 0.034606
69.7976 41.7893 0.0339149
72.4034 39.8026 0.0236332
75 37.5 0
72.486 37.5126 2
70.035 39.658 2
69.4231 43.9056 2
67.4717 41.4854 2
68.2382 48.1001 2
66.5463 45.4085 2
70.1234 37.5234 3.96688
67.7196 39.5083 3.97469
67.0832 43.4494 3.97427
65.2688 41.1842 3.97649
65.8953 47.3786 3.9705
64.3336 44.7869 3.97619
72.4113 35.2253 0.0235128
71.8016 30.6779 0.0251201
69.834 33.2723 0.0337505
68.9562 29.0436 0.0351896
64.0165 10.9835 0
63.8848 14.332 0.0312795
63.4948 17.4608 0.0393876
67.5853 24.9207 0.0365198
66.0453 27.6749 0.0301371
64.6141 23.8795 0.0336075
62.7764 20.3771 0.0378504
61.8475 23.0384 0.0303669
60.6803 11.1024 0.0239508
57.6047 11.4788 0.032179
70.0519 35.3952 2
69.4602 31.1545 2
67.5373 33.6076 2
66.6311 29.656 2
62.3393 12.6648 2
62.1844 15.8049 2
61.6976 18.744 2
65.3737 25.7461 2
63.8546 28.3324 2
60.9839 21.443 2
62.5907 24.7283 2
60.0777 23.8635 2
59.2371 12.8134 2
56.3923 13.1754 2
55.8688 10.2664 2
67.7586 35.5568 3.97438
67.1438 31.6462 3.97364
65.4279 33.9577 3.97637
64.3691 30.2572 3.97591
63.262 26.4977 3.97465
61.8448 28.886 3.97569
60.7664 14.2499 3.96449
60.6695 25.4691 3.97492
60.5397 17.183 3.95786
59.9951 19.9251 3.96199
59.3246 22.4013 3.96878
58.5493 24.4912 3.97415
54.0321 9.15668 3.97076
57.8897 14.387 3.96127
54.7745 12.0742 3.97051
55.2834 14.7305 3.96015
67.4706 50.1685 0.036297
57.0215 66.733 0.016554
60.6652 63.9728 0.0220575
57.5502 63.6676 0.0283104
65.6664 54.1639 0.0372214
64.3728 51.3363 0.0336497
60.7666 60.9153 0.0331622
60.5874 58.1142 0.0414481
62.6983 55.0209 0.0366351
60.1559 55.7075 0.0347696
55.0708 67.9277 2
59.2113 62.3365 2
55.7992 64.89 2
56.3131 62.0387 2
65.1551 49.3614 2
63.556 53.2425 2
62.1375 50.5621 2
59.3056 59.521 2
60.8576 54.2254 2
59.1302 56.9299 2
59.0102 55.0828 2
53.0395 68.9988 3.98706
53.9623 66.0019 3.97499
57.8614 60.826 3.96609
54.6678 63.1574 3.96947
55.1884 60.5582 3.97511
62.8755 48.5779 3.97351
61.4768 52.4867 3.96938
59.8435 49.8905 3.97299
57.9085 58.1904 3.95932
59.0346 53.8349 3.97038
57.8498 55.6937 3.96299
50.1053 67.8487 3.98005
47.4593 66.5665 3.97624
46.0534 69.152 3.98399
48.1008 68.5716 2
48.7994 70.7224 3.98946
50.9479 69.9296 2
51.8506 72.1454 4
54.0858 71.1327 2
56.25 69.9759 0
55.0996 7.14341 3.98366
58.3339 6.31992 4
57.0581 8.34402 2
60.3286 7.74926 2
58.9176 9.66004 0.0219159
62.2254 9.30607 0
68.236 48.101 0.0355495
69.4228 43.906 0.0340208
66.5492 45.4095 0.027445
67.4746 41.4858 0.0252375
70.0352 39.6581 0.0333057
72.4868 37.5128 0.0239632
70.1227 37.5235 2
67.7163 39.5081 2
67.0819 43.4486 2
65.2662 41.184 2
65.893 47.3776 2
64.3314 44.786 2
67.8204 37.5248 3.97451
65.5102 39.3596 3.97658
64.8769 42.9805 3.97617
63.3484 40.8929 3.97665
63.6387 46.6427 3.97541
62.3579 44.1349 3.97592
70.0522 35.395 0.0331422
69.4605 31.1541 0.0346953
67.5395 33.6071 0.02581
66.6325 29.6552 0.0281964
62.337 12.6593 0.0259073
62.1868 15.804 0.0365654
61.6984 18.744 0.0404162
65.3761 25.7448 0.0318061
63.8575 28.3311 0.0239819
62.5928 24.7273 0.0277138
60.9842 21.443 0.0340602
60.0784 23.8625 0.0267599
59.2378 12.8135 0.0365074
56.3921 13.1785 0.0328169
55.8674 10.265 0.0266067
67.756 35.5572 2
67.1424 31.6469 2
65.4242 33.9581 2
64.3668 30.2581 2
60.765 14.2503 2
60.531 17.1844 2
59.9927 19.9251 2
63.2599 26.4988 2
61.8431 28.8863 2
59.3276 22.4014 2
60.6681 25.4704 2
58.5464 24.4937 2
57.8892 14.3871 2
55.2836 14.727 2
54.0348 9.15394 2
54.7729 12.075 2
65.6091 35.6841 3.97636
64.8968 32.2005 3.97578
63.9229 34.2867 3.97628
62.1637 30.7207 3.97571
61.2537 27.1947 3.97534
60.3493 29.2686 3.97584
59.2686 15.7229 3.95767
58.8591 25.9696 3.97555
58.9546 18.458 3.95922
58.4232 21.0029 3.96353
57.872 23.2699 3.97016
57.4991 24.8591 3.97557
52.1087 8.16501 3.97362
53.0445 11.0737 3.96762
56.6268 15.8251 3.95739
53.7908 13.759 3.9757
54.3134 16.1037 3.95974
55.0675 67.9303 0.0140462
65.1573 49.3624 0.0316168
55.7977 64.8904 0.0270682
59.2121 62.3328 0.032934
56.3148 62.0387 0.0247798
63.5567 53.2427 0.035237
62.1387 50.5627 0.0289858
59.2983 59.5152 0.0406092
59.1224 56.9277 0.0393393
60.8568 54.2252 0.0321306
59.0039 55.0814 0.031676
53.0425 68.9969 2
53.9639 66.0005 2
57.8622 60.8283 2
54.6672 63.1587 2
55.1859 60.5577 2
62.874 48.5771 2
61.4768 52.4865 2
59.8448 49.8902 2
57.9109 58.1927 2
59.0396 53.8357 2
57.8464 55.6923 2
52.0662 66.9901 3.97809
52.9426 64.1883 3.97403
56.6009 59.4309 3.96082
53.6521 61.552 3.9725
54.2118 59.2542 3.96722
60.5177 47.7542 3.97431
59.3384 51.9809 3.97117
57.4936 49.4498 3.9744
56.6055 56.8877 3.96171
56.746 53.9753 3.96641
50.1071 67.8486 2
49.3316 65.904 3.97527
47.4603 66.5652 2
46.8861 64.7081 3.97653
45.556 67.0849 3.97919
43.9712 69.5844 3.98505
46.0551 69.1525 2
46.6061 71.3666 3.99044
48.0993 68.5723 0.0179796
48.8017 70.7215 2
49.554 73.0099 4
50.9453 69.9307 0.0116225
51.8506 72.1455 2
54.0858 71.1327 0
53.0622 6.0742 3.98749
55.1033 7.14552 2
56.25 5.02411 4
58.3339 6.3199 2
57.0549 8.3392 0.0205096
60.3285 7.74928 0
65.8953 47.3786 0.0295
67.0832 43.4494 0.0257304
64.3336 44.7869 0.0238113
65.2688 41.1842 0.0235123
67.7196 39.5083 0.0253105
70.1234 37.5234 0.0331181
67.8175 37.5249 2
65.5073 39.3594 2
64.874 42.9799 2
63.3485 40.8925 2
63.6368 46.6417 2
62.3572 44.1347 2
65.6196 37.5054 3.97646
63.4999 39.2515 3.97663
62.8988 42.4971 3.97618
61.9305 40.6545 3.97655
61.4998 45.8106 3.97566
60.8961 43.5927 3.97587
67.7586 35.5568 0.0256217
67.1438 31.6462 0.0263609
65.4279 33.9577 0.0236259
64.3691 30.2572 0.0240901
60.7664 14.2499 0.0355108
60.5397 17.183 0.0421446
59.9951 19.9251 0.0380094
63.262 26.4977 0.0253524
61.8448 28.886 0.0243089
60.6695 25.4691 0.0250836
59.3246 22.4013 0.0312222
58.5493 24.4912 0.0258484
57.8897 14.387 0.0387288
55.2834 14.7305 0.0398484
54.0321 9.15668 0.0292427
54.7745 12.0742 0.0294885
65.6059 35.6841 2
64.8936 32.201 2
63.9222 34.287 2
62.1628 30.7207 2
59.2714 15.7198 2
58.9604 18.4556 2
58.4233 21.0038 2
61.252 27.1954 2
60.3493 29.2688 2
57.863 23.2739 2
58.8576 25.9702 2
57.5 24.8611 2
56.6142 15.8271 2
54.3142 16.0968 2
53.7861 13.7545 2
52.1111 8.16591 2
53.0463 11.0694 2
63.7105 35.6552 3.97638
62.4883 33.1072 3.97609
60.0605 30.7318 3.97565
59.0376 28.0702 3.9756
57.8324 17.0762 3.95736
57.1991 25.9369 3.97559
57.4531 19.6203 3.95876
56.9634 22.0293 3.96412
56.6943 24.1577 3.97195
50.1093 7.29407 3.98013
51.2226 10.1563 3.97101
52.1487 12.8831 3.96471
55.4377 17.0823 3.95658
52.935 15.3606 3.95991
53.6636 17.1037 3.959
53.0395 68.9988 0.0129396
53.9623 66.0019 0.0250056
62.8755 48.5779 0.0264931
54.6678 63.1574 0.0305328
57.8614 60.826 0.0339053
55.1884 60.5582 0.0248929
61.4768 52.4867 0.0306213
59.8435 49.8905 0.0270137
57.9085 58.1904 0.0406767
57.8498 55.6937 0.0370102
59.0346 53.8349 0.0296226
52.0679 66.9893 2
52.9426 64.1916 2
56.5993 59.4314 2
53.6504 61.5524 2
54.2062 59.2558 2
60.5174 47.7535 2
59.3405 51.9809 2
57.4946 49.4494 2
56.6014 56.891 2
56.7433 53.9742 2
51.1613 65.1104 3.97581
52.0236 62.4888 3.97085
55.3808 58.1709 3.96067
52.7845 60.0476 3.9683
53.5638 58.391 3.96258
57.6552 46.6688 3.97571
57.1037 51.6274 3.97122
55.629 49.3553 3.97333
55.2408 55.6689 3.96196
54.9241 53.2155 3.96214
50.1053 67.8487 0.0199472
49.3325 65.9044 2
48.6088 64.0979 3.97828
47.4593 66.5665 0.0237607
45.5566 67.0871 2
46.8861 64.7089 2
46.3708 63.0162 3.98177
45.1284 65.1768 3.97828
43.6302 67.4579 3.98086
41.8591 69.8713 3.98479
43.9723 69.5846 2
44.3737 71.8612 3.99079
46.0534 69.152 0.0160126
46.608 71.3664 2
47.2057 73.7222 4
48.7994 70.7224 0.0105385
49.554 73.0099 2
51.8506 72.1454 0
50.9535 5.13427 3.98972
53.0651 6.07537 2
54.0858 3.86728 4
55.0996 7.14341 0.0163362
56.25 5.02406 2
58.3339 6.31992 0
63.6387 46.6427 0.0245898
64.8769 42.9805 0.0238336
62.3579 44.1349 0.0240769
63.3484 40.8929 0.0233465
65.5102 39.3596 0.0234191
67.8204 37.5248 0.0254906
65.6164 37.5054 2
63.5001 39.2515 2
62.8992 42.4966 2
61.9321 40.6544 2
61.4991 45.8101 2
60.8967 43.593 2
63.5644 37.4606 3.97651
61.6361 39.3306 3.97684
60.6398 41.8852 3.97671
59.6398 44.6399 3.97575
65.6091 35.6841 0.0236357
64.8968 32.2005 0.024219
63.9229 34.2867 0.0237185
62.1637 30.7207 0.0242856
59.2686 15.7229 0.0423252
58.9546 18.458 0.0407796
58.4232 21.0029 0.0364741
61.2537 27.1947 0.0246555
60.3493 29.2686 0.0241592
58.8591 25.9696 0.0244485
57.872 23.2699 0.0298416
57.4991 24.8591 0.0244347
56.6268 15.8251 0.0426072
54.3134 16.1037 0.0402632
53.7908 13.759 0.0242961
52.1087 8.16501 0.0263848
53.0445 11.0737 0.0323839
63.7106 35.6554 2
62.4893 33.1075 2
60.0612 30.7316 2
57.8386 17.0734 2
57.466 19.617 2
56.9608 22.0323 2
59.0374 28.0701 2
56.7013 24.1594 2
57.2018 25.9378 2
50.112 7.29164 2
55.4369 17.0866 2
53.6698 17.0979 2
52.9269 15.3591 2
52.1503 12.8849 2
51.2245 10.1532 2
61.6795 35.3925 3.97656
59.6731 32.8355 3.97598
57.958 30.2332 3.97551
56.6674 27.5931 3.97595
56.4717 18.2822 3.95859
55.7183 25.3428 3.97496
56.0341 20.701 3.95954
55.6298 23.0933 3.96466
48.0553 6.5335 3.98478
49.3186 9.35118 3.97516
50.4148 12.0587 3.96928
51.3303 14.599 3.96261
54.2749 18.0626 3.96003
52.2833 17.1764 3.95558
52.0662 66.9901 0.0219073
52.9426 64.1883 0.0259666
60.5177 47.7542 0.025687
53.6521 61.552 0.0274992
56.6009 59.4309 0.0391768
54.2118 59.2542 0.0327844
59.3384 51.9809 0.0288261
57.4936 49.4498 0.0256002
56.6055 56.8877 0.0382908
56.746 53.9753 0.0335871
51.1615 65.1093 2
52.023 62.4907 2
55.3773 58.1713 2
52.7827 60.0495 2
53.5602 58.3935 2
57.6555 46.6681 2
57.1016 51.6265 2
55.6266 49.3543 2
55.2385 55.669 2
54.9232 53.2155 2
50.3318 63.3558 3.97556
51.1999 60.8596 3.97297
54.0844 57.1723 3.96577
52.2007 58.5363 3.96445
55.8583 44.0026 3.97603
54.7626 47.6734 3.97541
54.4913 51.1895 3.96537
53.6977 54.3985 3.96432
49.3316 65.904 0.0247274
48.6077 64.0977 2
47.9436 62.4446 3.98404
45.556 67.0849 0.0208122
46.8861 64.7081 0.0234742
43.6304 67.4582 2
46.3707 63.0191 2
45.1295 65.1735 2
45.9685 61.5442 3.99145
44.7601 63.417 3.97654
43.3559 65.4894 3.97827
41.6628 67.6762 3.98027
39.7015 70.0176 3.98415
41.86 69.8719 2
42.1086 72.2053 3.99117
43.9712 69.5844 0.0149451
44.3752 71.8609 2
44.8159 74.2794 4
46.6061 71.3666 0.00955936
47.2057 73.7222 2
49.554 73.0099 0
48.7849 4.32452 3.99055
50.9554 5.134 2
51.8506 2.85458 4
53.0622 6.0742 0.0125082
54.0858 3.86728 2
56.25 5.02411 0
61.4998 45.8106 0.0243434
62.8988 42.4971 0.0238204
60.8961 43.5927 0.024131
61.9305 40.6545 0.0234456
63.4999 39.2515 0.0233731
65.6196 37.5054 0.0235361
63.5645 37.4607 2
61.6377 39.3305 2
60.6421 41.8853 2
59.6409 44.64 2
61.4629 37.4473 3.97689
59.5817 39.8028 3.97675
58.2502 42.8052 3.97586
63.7105 35.6552 0.0236178
62.4883 33.1072 0.0239098
60.0605 30.7318 0.0243494
57.8324 17.0762 0.0426429
57.4531 19.6203 0.0412381
56.9634 22.0293 0.0358822
59.0376 28.0702 0.0243954
57.1991 25.9369 0.0244094
56.6943 24.1577 0.0280489
55.4377 17.0823 0.0434239
53.6636 17.1037 0.0410014
52.935 15.3606 0.0400869
50.1093 7.29407 0.0198736
52.1487 12.8831 0.0352874
51.2226 10.1563 0.0289937
61.6812 35.3927 2
59.6737 32.8347 2
57.9591 30.2324 2
56.4723 18.282 2
56.0579 20.6955 2
55.6384 23.0962 2
56.6688 27.5947 2
55.7273 25.3472 2
48.0563 6.5335 2
49.32 9.34974 2
54.2841 18.0657 2
52.2731 17.1759 2
51.3284 14.601 2
50.4167 12.0583 2
59.2131 35.1654 3.97653
57.2184 32.3945 3.97544
55.7999 29.5458 3.97565
54.7601 26.8749 3.97509
55.1369 19.3447 3.96198
54.4063 24.3103 3.97258
54.6182 21.7771 3.96075
45.962 5.88733 3.98684
43.3741 7.48227 3.9823
47.3526 8.63611 3.97907
48.5871 11.3337 3.97157
49.6743 13.8143 3.96786
50.56 16.2551 3.96097
52.9709 18.8409 3.96552
51.2019 18.2515 3.95833
51.1613 65.1104 0.0241916
52.0236 62.4888 0.0291547
57.6552 46.6688 0.0242918
52.7845 60.0476 0.0316996
55.3808 58.1709 0.0393262
53.5638 58.391 0.0374192
57.1037 51.6274 0.0287787
55.629 49.3553 0.0266706
55.2408 55.6689 0.0380392
54.9241 53.2155 0.0378591
50.3308 63.3553 2
51.1987 60.8595 2
54.0826 57.1735 2
52.1941 58.5378 2
55.8603 44.0039 2
54.7617 47.6724 2
54.4875 51.1884 2
53.6925 54.3993 2
49.5618 61.7138 3.9744
54.568 41.6063 3.97382
50.4835 59.2444 3.96619
51.9809 56.3729 3.96322
53.2465 45.3043 3.97407
52.6043 49.0931 3.96987
52.2045 52.6713 3.95922
48.6088 64.0979 0.0217187
47.9436 62.4422 2
47.299 60.9733 3.99343
43.6302 67.4579 0.0191383
45.1284 65.1768 0.0217246
46.3708 63.0162 0.0182282
41.6636 67.6756 2
43.358 65.4898 2
45.9687 61.5477 2
44.7602 63.4152 2
45.7342 60.5899 3.99296
44.4706 61.7894 3.97857
43.1426 63.695 3.97842
41.5464 65.6277 3.97524
39.6326 67.7537 3.97924
37.526 70.0418 3.98362
39.7022 70.0177 2
39.8162 72.4022 3.99136
41.8591 69.8713 0.0152081
42.1097 72.2057 2
42.3947 74.6792 4
44.3737 71.8612 0.00920693
44.8159 74.2794 2
47.2057 73.7222 0
43.8515 5.36362 3.98629
46.5712 3.64907 3.99123
48.7858 4.32475 2
49.554 1.99015 4
50.9535 5.13427 0.0102831
51.8506 2.85453 2
54.0858 3.86728 0
59.6398 44.6399 0.0242531
60.6398 41.8852 0.0232913
61.6361 39.3306 0.0231626
63.5644 37.4606 0.0234893
61.4637 37.4474 2
59.5844 39.802 2
58.2523 42.8061 2
59.0696 37.5668 3.9774
57.167 40.5793 3.97735
53.9673 39.6289 3.97548
61.6795 35.3925 0.0234373
59.6731 32.8355 0.0240246
57.958 30.2332 0.0244939
56.4717 18.2822 0.0414066
56.0341 20.701 0.0404562
55.6298 23.0933 0.0353434
56.6674 27.5931 0.0240458
55.7183 25.3428 0.0250414
54.2749 18.0626 0.0399657
52.2833 17.1764 0.0444241
51.3303 14.599 0.0373876
48.0553 6.5335 0.0152158
49.3186 9.35118 0.0248403
50.4148 12.0587 0.0307197
59.215 35.1652 2
45.9627 5.88633 2
43.3744 7.48034 2
57.2185 32.3947 2
55.7989 29.5447 2
55.1256 19.3498 2
54.6555 21.775 2
54.4082 24.3174 2
54.762 26.8745 2
47.3534 8.6347 2
48.5888 11.3299 2
52.9698 18.8064 2
51.1988 18.2439 2
50.5624 16.2583 2
49.6737 13.8193 2
56.5305 34.8293 3.977
54.8418 31.6935 3.97528
53.7058 28.6612 3.97664
53.1393 25.7921 3.97418
53.7252 20.3261 3.96335
53.1502 22.9681 3.96189
41.4002 7.08533 3.98288
45.3593 8.00187 3.98652
42.8664 9.43088 3.97308
46.6607 10.6765 3.97744
47.7131 13.1467 3.97098
48.8696 15.4861 3.96731
49.9044 17.821 3.95776
51.4872 19.5389 3.98297
50.3318 63.3558 0.0244384
51.1999 60.8596 0.0270294
55.8583 44.0026 0.0239711
54.7626 47.6734 0.0245883
52.2007 58.5363 0.0355497
54.0844 57.1723 0.0342301
54.4913 51.1895 0.0346318
53.6977 54.3985 0.0356798
49.5614 61.7118 2
54.5647 41.603 2
50.4801 59.2481 2
51.9866 56.3775 2
53.2415 45.3013 2
52.6016 49.0911 2
52.2077 52.6717 2
48.7926 60.1629 3.98542
51.2892 42.4749 3.98338
49.6505 57.5379 3.96416
50.2748 54.2878 3.9607
50.9149 46.9987 3.97596
50.6267 50.7385 3.95393
46.9999 43.485 3.96977
47.9436 62.4446 0.015964
47.2996 60.9723 2
46.5725 59.7604 3.99331
41.6628 67.6762 0.0197265
43.3559 65.4894 0.021734
44.7601 63.417 0.0234613
45.9685 61.5442 0.00854827
39.6336 67.7542 2
41.5478 65.6253 2
45.7341 60.5934 2
43.1417 63.6933 2
44.4692 61.7907 2
44.5912 60.2442 3.99431
42.9401 62.0458 3.97543
41.5981 63.7957 3.97777
39.6472 65.5926 3.97474
37.5638 67.7347 3.97762
31.699 65.1108 3.97379
33.3938 67.4735 3.97794
35.3344 69.9528 3.98403
37.526 70.0437 2
37.5092 72.4563 3.99187
39.7015 70.0176 0.0158512
39.8169 72.4022 2
39.9526 74.9197 4
42.1086 72.2053 0.00882989
42.3947 74.6792 2
44.8159 74.2794 0
41.7364 4.97144 3.98767
43.8519 5.36209 2
44.3269 3.11188 3.99207
46.5718 3.64881 2
47.2057 1.27793 4
48.7849 4.32452 0.00944933
49.554 1.99013 2
51.8506 2.85458 0
58.2502 42.8052 0.0241407
59.5817 39.8028 0.0232534
61.4629 37.4473 0.0231139
59.0709 37.5669 2
57.1716 40.5809 2
53.9636 39.6374 2
55.8842 37.8729 3.97701
48.313 41.1894 3.96841
51.8688 39.2533 3.98002
39.4438 6.80862 3.98268
59.2131 35.1654 0.0234747
57.2184 32.3945 0.0245594
55.7999 29.5458 0.0243478
55.1369 19.3447 0.03802
54.6182 21.7771 0.0392507
54.4063 24.3103 0.0274222
54.7601 26.8749 0.0249067
52.9709 18.8409 0.0344788
51.2019 18.2515 0.0416706
50.56 16.2551 0.039027
45.962 5.88733 0.0131606
49.6743 13.8143 0.0321432
47.3526 8.63611 0.0209298
48.5871 11.3337 0.0284277
43.3741 7.48227 0.0177014
56.5334 34.8267 2
41.4005 7.08548 2
45.3597 8.00061 2
42.8661 9.4298 2
54.8436 31.6937 2
53.7043 28.6646 2
53.7272 20.3346 2
53.1335 22.9742 2
53.1385 25.7911 2
46.6615 10.6714 2
47.7147 13.1442 2
51.4953 19.5344 2
49.9008 17.826 2
48.8668 15.5077 2
53.7868 34.037 3.97494
52.5245 30.7612 3.97503
51.8213 27.5265 3.97479
51.6452 24.4188 3.97611
52.1124 21.2911 3.98009
41.0133 9.05934 3.97641
44.727 10.0041 3.98633
42.4555 10.9159 4.00724
45.9754 12.7497 3.96573
47.6325 14.6681 3.96632
48.0135 17.0716 3.96467
49.7068 19.9339 3.98426
49.5618 61.7138 0.0256007
50.4835 59.2444 0.0338072
54.568 41.6063 0.0261781
53.2465 45.3043 0.0259348
52.6043 49.0931 0.0301305
51.9809 56.3729 0.0367811
52.2045 52.6713 0.0407841
48.7903 60.1595 2
51.3015 42.4919 2
49.6485 57.5367 2
50.2772 54.2914 2
50.917 46.9988 2
50.6316 50.7383 2
47.0091 43.5239 2
47.9006 58.6704 3.99051
48.9968 45.0325 3.98174
48.3893 55.8152 3.95559
48.7143 52.4327 3.97716
48.9694 48.8086 3.96986
44.7089 39.7428 3.8375
45.2304 42.4165 3.88099
45.5317 45.4668 3.98268
42.5667 40.9719 3.63126
41.4216 41.675 3.42933
47.299 60.9733 0.00657368
46.57 59.7615 2
45.4085 58.7545 3.99544
39.6326 67.7537 0.0207637
41.5464 65.6277 0.0247638
43.1426 63.695 0.0215775
44.4706 61.7894 0.0214286
45.7342 60.5899 0.00704327
41.5986 63.7918 2
37.5645 67.7372 2
39.6492 65.5931 2
44.5926 60.2462 2
42.938 62.0469 2
41.7446 62.4526 3.97707
42.4548 59.9406 3.98532
39.8938 63.5285 3.97679
37.6419 65.4887 3.97406
35.4643 67.6449 3.97761
33.5769 65.3214 3.97421
31.9621 63.2657 3.97758
29.8874 64.6988 3.979
31.6983 65.1102 2
31.3792 67.1841 3.97827
33.3931 67.4751 2
33.1582 69.7464 3.98401
35.3337 69.9544 2
35.1962 72.3712 3.992
37.526 70.0418 0.0163796
37.5095 72.457 2
37.5 75 4
39.8162 72.4022 0.00864401
39.9526 74.9197 2
42.3947 74.6792 0
39.6247 4.71896 3.98869
41.7366 4.97122 2
42.0635 2.71887 3.9925
43.8515 5.36362 0.0137134
44.3271 3.11111 2
44.8158 0.721173 4
46.5712 3.64907 0.00877475
47.2057 1.27779 2
49.554 1.99015 0
57.167 40.5793 0.0226451
59.0696 37.5668 0.022605
53.9673 39.6289 0.0245212
48.3365 41.2025 2
55.889 37.872 2
51.863 39.2256 2
52.7227 36.6158 3.97709
46.2436 40.2681 3.88956
49.2427 38.495 3.9802
37.5177 6.67734 3.98493
39.4445 6.80752 2
39.2113 8.70234 3.98061
35.9438 8.49891 3.98254
56.5305 34.8293 0.022996
54.8418 31.6935 0.0247188
53.7058 28.6612 0.0233561
53.7252 20.3261 0.0366541
53.1502 22.9681 0.0381091
53.1393 25.7921 0.0258201
51.4872 19.5389 0.0170311
49.9044 17.821 0.042243
48.8696 15.4861 0.0326923
45.3593 8.00187 0.01348
47.7131 13.1467 0.0290214
46.6607 10.6765 0.0225621
41.4002 7.08533 0.0171191
42.8664 9.43088 0.0269203
53.7824 34.0277 2
41.0141 9.06137 2
44.7255 10.0025 2
42.4572 10.9192 2
52.5148 30.7589 2
51.8343 27.5269 2
52.114 21.2979 2
51.6261 24.4199 2
45.9775 12.7444 2
47.6254 14.64 2
49.7232 19.9498 2
48.0095 17.0782 2
51.2612 32.9801 3.98075
50.3573 29.4904 3.97629
50.1313 26.0166 3.97046
49.6757 22.5433 3.98368
40.5596 11.6206 3.9852
43.8301 11.9153 3.97061
45.7521 15.5282 3.9909
47.4124 19.5574 3.98193
45.1534 37.4856 3.83876
48.7926 60.1629 0.0145773
49.6505 57.5379 0.0358417
51.2892 42.4749 0.0166155
50.9149 46.9987 0.0240423
50.6267 50.7385 0.0460667
50.2748 54.2878 0.0393048
46.9999 43.485 0.0302299
47.8961 58.6752 2
49.012 45.0449 2
48.3857 55.8173 2
48.7166 52.4384 2
48.9745 48.8115 2
44.8231 39.7698 2
45.26 42.4365 2
45.5413 45.4871 2
42.6313 41.0294 2
41.4636 41.7003 2
46.715 57.2743 3.98273
43.2568 39.3483 3.62562
41.8054 40.6367 3.42318
47.2161 47.0506 3.98337
46.8912 54.1118 3.95879
47.0747 50.5699 3.97719
44.122 47.0968 3.9875
43.8848 41.7648 3.8377
44.0386 44.2045 3.87076
41.6885 42.325 3.68162
40.4937 41.9599 3.38408
46.5725 59.7604 0.00669029
45.4075 58.7536 2
43.8157 57.6269 3.98279
37.5638 67.7347 0.0223815
39.6472 65.5926 0.025261
41.5981 63.7957 0.0222271
42.9401 62.0458 0.0245676
44.5912 60.2442 0.00569268
35.4642 67.6473 2
41.7424 62.4556 2
39.8929 63.5292 2
37.6432 65.4918 2
42.4572 59.9403 2
40.6148 61.5931 3.98445
40.4187 58.1126 3.98581
37.8373 63.1849 3.97244
35.5732 65.4122 3.97631
33.5767 65.3214 2
31.9646 63.2686 2
33.6304 63.3127 3.97682
30.3827 62.8295 3.9816
32.1334 61.9687 3.98807
26.8887 61.4381 3.98476
28.0699 64.1278 3.98137
29.8873 64.6985 2
29.4094 66.7474 3.97761
31.699 65.1108 0.0262124
31.3785 67.1842 2
31.0162 69.4118 3.9836
33.3938 67.4735 0.022064
33.1571 69.7477 2
32.8945 72.1456 3.99135
35.3344 69.9528 0.0159672
35.1957 72.372 2
35.0474 74.9194 4
37.5092 72.4563 0.00812624
37.5 75 2
39.9526 74.9197 0
35.6221 6.72916 3.98356
37.5246 4.61788 3.98927
39.6247 4.71784 2
39.79 2.47541 3.9927
41.7364 4.97144 0.0123282
42.0633 2.71864 2
42.3946 0.32156 4
44.3269 3.11188 0.00792554
44.8159 0.72056 2
47.2057 1.27793 0
48.313 41.1894 0.0315926
55.8842 37.8729 0.0229933
51.8688 39.2533 0.0199772
46.2655 40.2754 2
49.2422 38.4832 2
52.7481 36.6379 2
50.0535 35.5509 3.97555
46.8887 37.7396 3.88878
44.7384 35.2146 3.83803
42.6173 33.9713 3.63093
41.4604 33.2665 3.4283
37.4592 8.53765 3.98415
37.5184 6.6773 2
39.4438 6.80862 0.0173237
39.2128 8.70102 2
38.9742 10.1388 3.98804
35.8996 9.78198 3.98035
34.1539 8.83127 3.98033
35.945 8.4973 2
53.7868 34.037 0.0250585
52.5245 30.7612 0.0249741
51.8213 27.5265 0.0252091
52.1124 21.2911 0.019907
51.6452 24.4188 0.0238887
49.7068 19.9339 0.0157423
48.0135 17.0716 0.0353314
47.6325 14.6681 0.033675
44.727 10.0041 0.0136685
45.9754 12.7497 0.0342711
41.0133 9.05934 0.023591
42.4555 10.9159 -0.00724026
51.2737 32.97 2
40.5641 11.6265 2
43.8304 11.9087 2
50.3702 29.4927 2
50.1301 26.0288 2
49.6581 22.5074 2
45.7369 15.4611 2
47.4214 19.5939 2
48.8548 31.5737 3.98392
48.4822 27.7879 3.97467
48.9128 24.6524 3.98021
47.0172 22.3369 3.99212
38.2977 12.7589 3.97789
42.0755 14.3498 3.98311
44.7315 18.6535 3.97472
43.6614 37.4797 3.64106
45.2549 37.4827 2
47.9006 58.6704 0.00949272
48.3893 55.8152 0.0444113
48.9968 45.0325 0.0182605
48.9694 48.8086 0.0301433
48.7143 52.4327 0.0228355
44.7089 39.7428 0.162502
45.2304 42.4165 0.119008
45.5317 45.4668 0.0173152
42.5667 40.9719 0.368739
41.4216 41.675 0.570666
46.7117 57.2801 2
43.3386 39.3728 2
41.8192 40.6491 2
47.224 47.052 2
46.886 54.1161 2
47.0768 50.5815 2
44.1615 47.1007 2
43.9546 41.8068 2
44.0956 44.2352 2
41.7392 42.3976 2
40.5328 41.9796 2
45.2391 55.8424 4.00106
42.1457 39.1544 3.43357
40.3804 40.5278 3.52565
45.4721 48.6957 4.00188
45.1556 52.3654 3.98765
42.9063 48.0831 3.9912
42.7735 45.7228 3.87006
42.8569 43.526 3.82578
40.6623 43.2793 3.64855
39.1524 42.2223 3.45142
45.4085 58.7545 0.00456466
43.8128 57.6378 2
42.0364 56.1958 3.991
35.4643 67.6449 0.0223861
37.6419 65.4887 0.0259358
39.8938 63.5285 0.0232136
41.7446 62.4526 0.0229339
42.4548 59.9406 0.014675
35.5742 65.4161 2
40.6141 61.5913 2
37.8378 63.1831 2
40.418 58.1189 2
38.8999 56.3319 3.99485
38.2437 60.2748 3.98374
35.6075 63.1794 3.97204
33.5769 65.3214 0.0257907
31.9621 63.2657 0.0224154
33.6331 63.3151 2
30.3844 62.8325 2
32.136 61.971 2
28.6905 62.1695 3.98049
33.3519 61.475 3.98102
31.0861 61.1979 3.99085
27.6114 59.5347 3.97747
23.8493 59.0031 3.98896
25.0629 60.8031 3.97756
26.8897 61.4404 2
26.2407 63.458 3.97421
28.069 64.1256 2
27.4668 66.1677 3.97688
29.8874 64.6988 0.020997
29.4083 66.7449 2
28.9087 68.9373 3.98241
31.3792 67.1841 0.0217334
31.0148 69.4117 2
30.6176 71.7772 3.99054
33.1582 69.7464 0.0159864
32.8933 72.1461 2
32.6054 74.6784 4
35.1962 72.3712 0.00799921
35.0474 74.9197 2
37.5 75 0
33.7252 6.98551 3.98216
35.4368 4.68793 3.98866
35.6229 6.72837 2
37.5159 2.38784 3.99286
37.5246 4.61741 2
39.6247 4.71896 0.0113087
39.7896 2.47481 2
39.9526 0.0806499 4
42.0635 2.71887 0.00750265
42.3947 0.320817 2
44.8158 0.721173 0
43.2822 35.6048 3.6319
41.8338 34.2998 3.40726
46.2436 40.2681 0.110442
49.2427 38.495 0.0197955
52.7227 36.6158 0.0229078
46.8863 37.722 2
50.067 35.5548 2
44.8325 35.1962 2
42.6694 33.9126 2
41.4884 33.2418 2
47.117 34.3927 3.93626
43.9405 33.1857 3.83206
41.7446 32.6195 3.6785
40.5215 32.9916 3.38334
37.3109 10.6351 3.98132
37.4608 8.53854 2
37.5177 6.67734 0.0150687
39.2113 8.70234 0.0193941
38.9787 10.1382 2
34.757 10.3928 3.97816
35.9034 9.77798 2
32.3813 9.37872 3.97594
34.1534 8.82746 2
35.9438 8.49891 0.0174647
51.2612 32.9801 0.0192494
50.3573 29.4904 0.0237137
50.1313 26.0166 0.0295423
49.6757 22.5433 0.0163163
47.4124 19.5574 0.0180666
45.7521 15.5282 0.00910311
43.8301 11.9153 0.0293933
40.5596 11.6206 0.0147969
48.8722 31.5557 2
38.3005 12.7549 2
42.0825 14.3638 2
48.4788 27.7874 2
48.9092 24.6578 2
47.0064 22.3414 2
44.743 18.7259 2
46.8043 29.7915 3.98196
46.5977 25.3657 3.97655
44.1815 21.6658 3.98333
36.587 12.9745 3.9755
38.6741 14.8783 3.97689
41.7064 17.9824 3.97848
42.3192 37.4559 3.46783
43.731 37.4811 2
45.1534 37.4856 0.16124
46.715 57.2743 0.0172741
46.8912 54.1118 0.0412139
47.2161 47.0506 0.0166349
47.0747 50.5699 0.0228087
43.2568 39.3483 0.37438
43.8848 41.7648 0.162297
44.0386 44.2045 0.129238
44.122 47.0968 0.0125041
41.6885 42.325 0.318384
41.8054 40.6367 0.576817
40.4937 41.9599 0.61592
45.2351 55.8465 2
42.1562 39.1624 2
40.4344 40.5171 2
45.4736 48.7173 2
45.1507 52.3682 2
42.9424 48.1009 2
42.838 45.7831 2
42.8972 43.5595 2
40.7157 43.3563 2
39.1419 42.2462 2
43.5573 54.2907 4.00033
40.4712 38.9983 3.5512
39.0479 40.6106 3.49764
43.2239 50.1786 4.00306
41.5654 47.2207 3.92041
41.4747 44.8175 3.83087
39.3589 43.9294 3.61925
37.5092 42.3556 3.50417
43.8157 57.6269 0.0172118
42.0432 56.1842 2
40.3481 54.7527 3.9944
35.5732 65.4122 0.0236882
37.8373 63.1849 0.0275569
40.6148 61.5931 0.0155475
40.4187 58.1126 0.0141902
35.6094 63.1756 2
38.2406 60.2734 2
38.9026 56.3134 2
37.9736 55.0116 3.99506
36.9228 57.5335 3.99205
35.3657 60.8744 3.98292
33.6304 63.3127 0.023179
30.3827 62.8295 0.0183972
32.1334 61.9687 0.0119301
33.3538 61.4744 2
28.6917 62.1744 2
31.0885 61.2035 2
29.4346 60.2585 3.98014
32.3699 59.6723 3.99573
28.0889 58.324 4.01687
27.6122 59.5333 2
25.4391 58.5259 3.97794
22.8428 58.1585 3.97016
23.4353 60.2696 3.97558
23.8508 59.0035 2
25.0645 60.8032 2
24.4484 62.7314 3.97613
26.8887 61.4381 0.0152366
26.2408 63.456 2
25.5518 65.4775 3.97624
28.0699 64.1278 0.018629
27.4664 66.1687 2
26.8388 68.3234 3.98143
29.4094 66.7474 0.0223886
28.9077 68.9359 2
28.3728 71.2627 3.98966
31.0162 69.4118 0.0163973
30.616 71.7768 2
30.1842 74.2788 4
32.8945 72.1456 0.00865306
32.6053 74.6792 2
35.0474 74.9194 0
31.7897 7.42556 3.98019
33.3493 4.9278 3.9875
33.7252 6.98336 2
35.2464 2.46364 3.99291
35.4366 4.68758 2
35.6221 6.72916 0.0164438
37.5 0 4
37.5151 2.38755 2
37.5246 4.61788 0.0107291
39.79 2.47541 0.00730384
39.9526 0.0802889 2
42.3946 0.32156 0
42.1411 35.755 3.40792
43.3729 35.5788 2
40.4319 34.4056 3.52829
41.8376 34.2824 2
46.8887 37.7396 0.111217
50.0535 35.5509 0.0244461
44.7384 35.2146 0.161975
42.6173 33.9713 0.36907
41.4604 33.2665 0.571703
47.1498 34.4039 2
43.9958 33.1398 2
41.7954 32.5491 2
40.556 32.9726 2
45.2609 31.8326 3.89216
42.9152 31.4225 3.81791
40.71 31.6681 3.64968
39.1654 32.7475 3.44767
35.6975 11.7916 3.97511
37.3169 10.6359 2
37.4592 8.53765 0.0158519
38.9742 10.1388 0.0119582
33.1029 11.2328 3.97208
34.7579 10.3852 2
35.8996 9.78198 0.0196542
30.4874 10.0309 3.9763
32.3806 9.37757 2
34.1539 8.83127 0.0196674
48.8548 31.5737 0.0160801
48.4822 27.7879 0.0253277
48.9128 24.6524 0.0197906
47.0172 22.3369 0.00788185
44.7315 18.6535 0.0252785
42.0755 14.3498 0.0168856
38.2977 12.7589 0.022108
36.5843 12.9533 2
46.7975 29.7339 2
38.6734 14.8606 2
41.7019 17.9844 2
46.599 25.3525 2
44.1608 21.6418 2
44.8192 27.9305 3.99285
43.4888 24.3022 4.02331
41.2625 21.0078 3.99348
35.7707 14.8154 3.98187
38.6499 17.7129 3.98556
40.5269 37.4299 3.57225
42.3356 37.461 2
43.6614 37.4797 0.358939
45.2391 55.8424 -0.00105876
45.1556 52.3654 0.012345
45.4721 48.6957 -0.00188328
42.1457 39.1544 0.566426
42.8569 43.526 0.174223
42.7735 45.7228 0.129944
42.9063 48.0831 0.0088025
40.6623 43.2793 0.35145
40.3804 40.5278 0.474348
39.1524 42.2223 0.548581
43.5533 54.284 2
40.4948 39.0001 2
39.0416 40.6108 2
43.2155 50.1962 2
41.5606 47.2507 2
41.5044 44.8614 2
37.5046 42.3793 2
39.3781 44.0056 2
41.709 52.742 4.00021
39.0574 39.0496 3.49686
37.5084 40.6612 3.54427
35.87 42.2322 3.44747
40.7311 49.3142 3.99254
39.6676 45.5136 3.79325
37.5037 44.2054 3.6625
42.0364 56.1958 0.00899842
40.3496 54.761 2
38.7109 53.5229 3.99686
35.6075 63.1794 0.0279571
38.2437 60.2748 0.0162574
38.8999 56.3319 0.00514889
35.3644 60.8596 2
36.9242 57.5436 2
37.9695 55.0046 2
36.3113 55.1021 3.99811
34.4947 58.4576 3.99403
33.3519 61.475 0.0189764
28.6905 62.1695 0.0195133
31.0861 61.1979 0.00915204
32.3684 59.6757 2
29.4359 60.2595 2
30.3532 57.7612 3.99071
28.0909 58.3217 2
27.0717 56.7647 3.96955
27.6114 59.5347 0.0225263
25.4407 58.5257 2
23.9881 56.7103 3.96002
21.4831 57.293 3.95777
22.0384 59.5459 3.97789
22.8446 58.1594 2
22.7573 61.964 3.97271
23.4366 60.2699 2
23.8493 59.0031 0.0110404
25.0629 60.8031 0.0224395
24.4489 62.7317 2
23.6884 64.6901 3.97359
26.2407 63.458 0.0257863
25.552 65.479 2
24.8111 67.5851 3.98046
27.4668 66.1677 0.0231244
26.8375 68.3254 2
26.1683 70.6028 3.98896
28.9087 68.9373 0.0175884
28.3713 71.2618 2
27.7943 73.7221 4
30.6176 71.7772 0.00945961
30.1841 74.2794 2
32.6054 74.6784 0
29.8127 8.00236 3.97823
31.2547 5.33484 3.98628
31.7893 7.42422 2
32.9824 2.70187 3.99239
33.3487 4.92666 2
33.7252 6.98551 0.0178372
35.0474 0.080333 4
35.2454 2.4636 2
35.4368 4.68793 0.0113403
37.5 0 2
37.5159 2.38784 0.00714171
39.9526 0.0806499 0
40.5461 35.8971 3.5636
42.1579 35.7543 2
43.2822 35.6048 0.368096
28.5479 10.7052 3.97663
39.0602 34.3605 3.49122
40.4456 34.4076 2
41.8338 34.2998 0.592742
47.117 34.3927 0.0637424
43.9405 33.1857 0.167936
41.7446 32.6195 0.321496
40.5215 32.9916 0.616659
45.2918 31.8159 2
42.9584 31.384 2
40.7591 31.5909 2
39.163 32.7197 2
43.6891 30.0838 3.87855
41.5035 30.1222 3.83094
39.382 31.0273 3.61999
37.5312 32.6252 3.50179
34.1023 12.9566 3.97509
35.6984 11.7793 2
37.3109 10.6351 0.0186752
31.1934 12.0036 3.97745
33.1046 11.2306 2
34.757 10.3928 0.0218433
30.4848 10.0258 2
32.3813 9.37872 0.0240587
46.8043 29.7915 0.0180381
46.5977 25.3657 0.023446
36.587 12.9745 0.0244987
44.1815 21.6658 0.0166727
41.7064 17.9824 0.0215212
38.6741 14.8783 0.0231077
35.7738 14.8193 2
44.8153 27.9342 2
38.6525 17.7112 2
41.2465 20.9884 2
43.4781 24.2809 2
33.6209 15.9153 3.99017
42.6284 26.7579 3.9779
40.7686 23.6307 3.99382
38.3746 20.5032 3.9936
35.844 17.5897 3.98702
39.079 37.4843 3.50197
40.5405 37.4364 2
42.3192 37.4559 0.532175
43.5573 54.2907 -0.0003296
43.2239 50.1786 -0.00306337
40.4712 38.9983 0.448799
41.4747 44.8175 0.169134
41.5654 47.2207 0.0795865
39.3589 43.9294 0.380746
39.0479 40.6106 0.502355
37.5092 42.3556 0.495827
41.6951 52.7387 2
39.0458 39.0389 2
37.5018 40.6568 2
40.7125 49.3235 2
35.8761 42.2546 2
39.6904 45.5799 2
37.5007 44.2827 2
39.7015 51.5166 4.00109
37.5132 39.0483 3.54329
35.9793 40.6274 3.49862
34.5219 41.9803 3.38559
35.65 43.9473 3.6159
38.6386 48.1723 3.92851
37.5299 45.8101 3.82798
40.3481 54.7527 0.00559973
38.7087 53.5334 2
36.7772 52.8681 3.99698
35.3657 60.8744 0.0170827
36.9228 57.5335 0.00795097
37.9736 55.0116 0.0049444
34.4929 58.4644 2
36.314 55.092 2
33.2841 55.2974 3.9931
32.3699 59.6723 0.00427328
29.4346 60.2585 0.0198613
30.3547 57.7572 2
28.8763 55.2709 3.99221
28.0889 58.324 -0.0168675
27.074 56.7623 2
25.5405 55.0394 3.95429
22.0689 55.2134 3.96064
25.4391 58.5259 0.0220553
23.9906 56.7113 2
20.3637 56.9229 3.96246
20.7081 58.6974 3.9625
21.4857 57.2946 2
21.1937 61.0959 3.9728
22.0397 59.5464 2
22.8428 58.1585 0.0298374
21.9058 63.803 3.97333
22.7584 61.9653 2
23.4353 60.2696 0.0244187
24.4484 62.7314 0.0238736
23.6886 64.6919 2
22.8398 66.7273 3.97743
25.5518 65.4775 0.023761
24.8098 67.5854 2
24.0127 69.8047 3.98877
26.8388 68.3234 0.018569
26.166 70.6031 2
25.446 73.0099 4
28.3728 71.2627 0.0103431
27.7943 73.7222 2
30.1842 74.2788 0
27.8226 8.66222 3.97897
29.157 5.88205 3.98411
29.8111 7.99855 2
30.728 3.09876 3.99198
31.2539 5.33353 2
31.7897 7.42556 0.0198067
32.6053 0.320823 4
32.9811 2.70157 2
33.3493 4.9278 0.0124983
35.0474 0.0802903 2
35.2464 2.46364 0.00708688
37.5 0 0
39.0222 35.9246 3.50949
40.5271 35.8943 2
42.1411 35.755 0.592082
28.5452 10.7021 2
26.6281 11.4045 3.97633
29.2345 12.6541 3.98099
37.5331 34.3245 3.54448
39.0837 34.3747 2
40.4319 34.4056 0.471709
45.2609 31.8326 0.107841
42.9152 31.4225 0.182094
40.71 31.6681 0.350321
39.1654 32.7475 0.552329
43.7162 30.0543 2
41.5393 30.0803 2
39.3952 30.9521 2
37.536 32.5966 2
41.9202 28.7944 3.85923
39.6698 29.4296 3.8139
37.5268 30.7698 3.66573
35.8852 32.7508 3.45406
31.9341 14.5009 3.98235
34.1029 12.9616 2
35.6975 11.7916 0.024888
31.1927 11.9945 2
33.1029 11.2328 0.0279185
30.4874 10.0309 0.0236995
44.8192 27.9305 0.00714771
43.4888 24.3022 -0.0233053
35.7707 14.8154 0.0181253
41.2625 21.0078 0.00652402
38.6499 17.7129 0.0144395
33.6119 15.8991 2
35.8384 17.5758 2
42.6933 26.7315 2
38.3615 20.5478 2
40.7561 23.6222 2
33.5563 17.4595 3.98734
40.2103 26.1061 3.96597
38.0229 23.3719 3.99706
35.5399 20.2814 3.99643
37.5237 37.4803 3.55962
39.0581 37.4744 2
40.5269 37.4299 0.427747
41.709 52.742 -0.000209954
40.7311 49.3142 0.0074558
39.0574 39.0496 0.503137
39.6676 45.5136 0.206748
37.5037 44.2054 0.337495
37.5084 40.6612 0.455726
35.87 42.2322 0.552526
39.684 51.5133 2
37.5124 39.0478 2
35.9742 40.6134 2
38.6585 48.2352 2
34.4892 41.9994 2
35.6352 44.0162 2
37.5163 45.8695 2
37.6834 50.4887 3.99146
36.0033 39.0605 3.51041
34.632 40.5573 3.5311
33.5865 41.6995 3.43185
34.366 43.2985 3.6408
35.2977 45.5524 3.817
36.9186 47.7862 3.89103
38.7109 53.5229 0.00314037
36.7713 52.8219 2
34.4878 52.1842 4.00052
34.4947 58.4576 0.00596559
36.3113 55.1021 0.00189219
33.2871 55.3045 2
30.7241 53.2273 3.99985
30.3532 57.7612 0.00929445
28.8775 55.2666 2
27.1935 53.3161 3.95637
27.0717 56.7647 0.0304537
25.5432 55.0399 2
23.9385 53.3173 3.95397
20.9157 53.0433 3.95857
20.1695 55.7034 3.96117
22.0684 55.2154 2
23.9881 56.7103 0.0399781
19.5354 57.7981 3.96118
20.3604 56.9255 2
19.7342 60.1296 3.97219
20.7049 58.7002 2
21.4831 57.293 0.0422268
20.2228 62.8033 3.97195
21.1952 61.0977 2
22.0384 59.5459 0.0221098
20.942 65.7529 3.97435
21.9061 63.8071 2
22.7573 61.964 0.0272922
23.6884 64.6901 0.0264138
22.8387 66.7268 2
21.9153 68.872 3.98783
24.8111 67.5851 0.0195415
24.0097 69.8035 2
23.1494 72.1454 4
26.1683 70.6028 0.0110386
25.446 73.0099 2
27.7943 73.7221 0
25.8624 9.3925 3.97703
27.0717 6.54661 3.9826
27.82 8.66006 2
28.4905 3.64474 3.99096
29.1554 5.88001 2
29.8127 8.00236 0.0217703
30.1841 0.720592 4
30.726 3.09859 2
31.2547 5.33484 0.0137235
32.6053 0.320817 2
32.9824 2.70187 0.00760717
35.0474 0.080333 0
37.5182 35.9181 3.53565
39.0036 35.9079 2
40.5461 35.8971 0.436401
24.7869 12.087 3.97585
23.7744 14.4232 3.9793
28.5479 10.7052 0.0233715
26.624 11.3999 2
29.2333 12.6521 2
27.3019 13.3935 3.97507
29.8018 14.2117 3.9857
35.9837 34.3607 3.50181
37.5428 34.3251 2
39.0602 34.3605 0.508776
37.5312 32.6252 0.498215
43.6891 30.0838 0.121448
41.5035 30.1222 0.169059
39.382 31.0273 0.380009
41.9583 28.7223 2
39.6943 29.367 2
37.5283 30.6951 2
35.8932 32.7284 2
39.8365 28.0561 3.86327
37.4964 29.1576 3.81901
35.6791 31.0471 3.62241
34.5349 33.0075 3.38799
30.956 16.8552 3.99715
31.9269 14.4874 2
34.1023 12.9566 0.0249099
31.1934 12.0036 0.0225534
42.6284 26.7579 0.0221026
40.7686 23.6307 0.00618015
33.6209 15.9153 0.00983038
35.844 17.5897 0.0129773
38.3746 20.5032 0.00640008
33.5467 17.4673 2
35.5449 20.2953 2
40.264 26.0716 2
38.0193 23.3508 2
32.9179 19.8911 3.9963
37.6869 25.7351 3.96221
35.295 23.0306 4.00714
35.9786 37.4752 3.50522
37.5107 37.4795 2
39.079 37.4843 0.498034
39.7015 51.5166 -0.00108752
38.6386 48.1723 0.071493
37.5132 39.0483 0.456714
37.5299 45.8101 0.172017
35.65 43.9473 0.384102
35.9793 40.6274 0.501378
34.5219 41.9803 0.61441
37.661 50.5305 2
36.0327 39.0476 2
34.583 40.5604 2
36.9173 47.8496 2
33.5452 41.7269 2
34.3076 43.3718 2
35.2775 45.6097 2
35.5694 49.6914 3.98271
34.5259 39.0497 3.55957
33.2085 40.669 3.41324
33.3182 42.347 3.6858
33.5786 44.8286 3.81924
34.5594 46.9476 3.86417
36.7772 52.8681 0.00301623
34.47 52.2024 2
32.2969 51.0085 3.99986
33.2841 55.2974 0.0068963
30.7291 53.2288 2
28.8112 51.4075 3.9803
28.8763 55.2709 0.00778612
27.1958 53.3145 2
25.5347 51.5504 3.95331
25.5405 55.0394 0.0457142
23.9414 53.3246 2
22.4944 51.6014 3.95395
19.8012 51.4273 3.96278
19.2901 54.1512 3.96173
20.9209 53.041 2
18.6302 56.6122 3.96251
20.1682 55.7049 2
22.0689 55.2134 0.0393598
18.412 59.0385 3.96159
19.534 57.8001 2
20.3637 56.9229 0.0375399
18.6367 61.7012 3.97207
19.7345 60.133 2
20.7081 58.6974 0.0374962
19.133 64.6573 3.97316
20.2235 62.8072 2
21.1937 61.0959 0.0271989
19.8896 67.8076 3.98506
20.941 65.7516 2
21.9058 63.803 0.0266688
22.8398 66.7273 0.0225734
21.9119 68.87 2
20.9142 71.1327 4
24.0127 69.8047 0.0112291
23.1494 72.1455 2
25.446 73.0099 0
23.1096 12.8358 3.97709
23.9751 10.1806 3.97475
25.0253 7.31802 3.98056
25.8587 9.39047 2
26.2824 4.32895 3.98994
27.0694 6.54579 2
27.8226 8.66222 0.0210314
27.7943 1.27781 4
28.4876 3.6449 2
29.157 5.88205 0.0158891
30.1841 0.720551 2
30.728 3.09876 0.0080157
32.6053 0.320823 0
35.9767 35.9072 3.49893
37.5468 35.9274 2
39.0222 35.9246 0.490506
24.7813 12.1024 2
23.774 14.4289 2
22.513 15.1155 3.97702
25.3735 13.9665 3.97231
24.069 15.6809 3.98945
26.6281 11.4045 0.0236664
29.2345 12.6541 0.0190128
27.3054 13.3862 2
29.7935 14.2114 2
28.3949 15.9769 3.98894
34.6524 34.4346 3.52483
35.9879 34.3604 2
37.5331 34.3245 0.455524
35.8852 32.7508 0.545935
37.5268 30.7698 0.334275
41.9202 28.7944 0.140768
39.6698 29.4296 0.186096
39.8741 28.0073 2
37.496 29.101 2
35.6626 30.968 2
34.4963 32.9902 2
37.6225 27.7905 3.86704
35.3616 29.4496 3.81295
34.3616 31.6886 3.64723
33.5995 33.2881 3.42968
30.2602 19.498 3.97817
30.9436 16.845 2
31.9341 14.5009 0.0176516
40.2103 26.1061 0.0340272
38.0229 23.3719 0.00293617
33.5563 17.4595 0.0126619
35.5399 20.2814 0.00357496
32.9218 19.9137 2
35.2728 23.0159 2
37.7146 25.7182 2
32.5023 22.6358 3.9984
35.1695 25.6288 3.98591
34.4946 37.5043 3.57976
35.976 37.4901 2
37.5237 37.4803 0.440384
37.6834 50.4887 0.00854223
36.9186 47.7862 0.10897
36.0033 39.0605 0.489585
35.2977 45.5524 0.183
34.366 43.2985 0.359197
34.632 40.5573 0.468905
33.5865 41.6995 0.568154
35.5548 49.7036 2
34.5128 39.0513 2
33.1967 40.6803 2
34.5118 47.0119 2
33.2719 42.4195 2
33.5373 44.8748 2
33.4761 48.808 3.97305
32.8842 39.2021 3.41347
32.4245 40.9977 3.63202
32.1453 43.5472 3.82432
32.786 45.9445 3.86305
34.4878 52.1842 -0.000520772
32.3206 51.0109 2
30.3748 49.5422 4.00368
30.7241 53.2273 0.000148139
28.8157 51.4099 2
27.0741 49.7709 3.97413
27.1935 53.3161 0.0436322
25.5373 51.5529 2
23.9613 49.9549 3.96657
23.9385 53.3173 0.0460314
22.5002 51.5981 2
21.1431 50.0828 3.96546
18.5644 50.1366 3.97164
18.3295 52.6131 3.96508
19.7947 51.4272 2
17.7393 55.2051 3.96253
19.2901 54.1508 2
20.9157 53.0433 0.0414318
17.2515 57.7876 3.96096
18.6283 56.6134 2
20.1695 55.7034 0.0388284
17.1499 60.4954 3.96433
18.412 59.0398 2
19.5354 57.7981 0.0388153
17.4172 63.4303 3.96796
18.6379 61.7037 2
19.7342 60.1296 0.0278128
17.9456 66.6155 3.98267
19.1324 64.6575 2
20.2228 62.8033 0.0280525
18.75 69.9759 4
19.886 67.8045 2
20.942 65.7529 0.0256458
21.9153 68.872 0.0121706
20.9142 71.1327 2
23.1494 72.1454 0
21.6071 13.6731 3.97186
22.1963 11.0537 3.97126
23.1081 12.8364 2
23.0423 8.18521 3.97709
23.9736 10.185 2
24.1202 5.14378 3.98959
25.0219 7.31695 2
25.8624 9.3925 0.0229733
25.446 1.99014 4
26.2787 4.32998 2
27.0717 6.54661 0.0174014
27.7943 1.27778 2
28.4905 3.64474 0.00903527
30.1841 0.720592 0
34.5675 35.9479 3.55111
35.9927 35.9218 2
37.5182 35.9181 0.464347
21.3506 15.9175 3.96878
24.7869 12.087 0.0241534
23.7744 14.4232 0.0206959
25.3725 13.9412 2
22.5128 15.1067 2
24.0732 15.6877 2
23.3241 16.3234 3.96466
25.4268 16.1522 3.98755
27.3019 13.3935 0.0249349
29.8018 14.2117 0.0142974
28.3857 15.9968 2
27.4985 18.9324 3.9826
33.2189 34.3261 3.4263
34.5984 34.4452 2
35.9837 34.3607 0.49819
34.5349 33.0075 0.612011
35.6791 31.0471 0.377589
37.4964 29.1576 0.180992
39.8365 28.0561 0.136728
37.5944 27.7514 2
33.5642 33.2627 2
35.3553 29.3844 2
34.3156 31.6133 2
35.2455 27.878 3.87856
33.5623 30.1463 3.82367
33.3292 32.6373 3.68403
29.8204 22.1068 4.00805
30.2628 19.508 2
30.956 16.8552 0.00285111
37.6869 25.7351 0.0377858
35.295 23.0306 -0.00713879
32.9179 19.8911 0.00369783
32.4981 22.6149 2
35.1961 25.6205 2
32.1072 25.9196 4.00942
32.7048 37.4995 3.46432
34.4994 37.4969 2
35.9786 37.4752 0.494776
35.5694 49.6914 0.01729
34.5594 46.9476 0.13583
34.5259 39.0497 0.44043
33.5786 44.8286 0.180762
33.3182 42.347 0.314199
33.2085 40.669 0.586759
33.4683 48.802 2
32.8887 39.2114 2
32.3692 41.0531 2
32.7657 45.9998 2
32.0987 43.5821 2
31.7358 47.643 3.98576
31.7556 39.3688 3.63216
31.1074 41.7915 3.83319
31.2445 44.5834 3.87128
32.2969 51.0085 0.000140155
30.3793 49.5772 2
28.5739 47.9423 3.97281
28.8112 51.4075 0.0197045
27.0723 49.7727 2
25.4007 48.2084 3.96855
25.5347 51.5504 0.0466866
23.9675 49.9527 2
22.4479 48.5238 3.97163
22.4944 51.6014 0.0460519
21.1453 50.0813 2
19.6995 48.8735 3.97424
17.4346 49.155 3.97575
17.2618 51.239 3.97058
18.5659 50.135 2
16.7612 53.7264 3.96623
18.3249 52.6134 2
19.8012 51.4273 0.0372196
16.1738 56.3755 3.96196
17.7391 55.2055 2
19.2901 54.1512 0.0382748
15.7807 59.1601 3.96033
17.2458 57.7898 2
18.6302 56.6122 0.0374859
15.7933 62.0983 3.97035
17.1525 60.4966 2
18.412 59.0385 0.0384068
16.0921 65.296 3.97925
17.4162 63.4343 2
18.6367 61.7012 0.0279305
16.6661 68.6801 4
17.9424 66.6115 2
19.133 64.6573 0.0268392
18.75 69.9759 2
19.8896 67.8076 0.0149435
20.9142 71.1327 0
20.2441 14.6733 3.97047
21.6059 13.6788 2
20.5403 12.0494 3.97325
21.1454 9.15865 3.97545
22.1934 11.0571 2
23.1096 12.8358 0.0229067
22.0195 6.08225 3.98846
23.0396 8.18718 2
23.9751 10.1806 0.025254
23.1494 2.85457 4
24.1156 5.14517 2
25.0253 7.31802 0.019439
25.446 1.99012 2
26.2824 4.32895 0.0100606
27.7943 1.27781 0
32.8727 35.805 3.43431
34.538 35.9475 2
35.9767 35.9072 0.501074
21.3548 15.9103 2
20.376 17.0456 3.96407
22.1582 16.7187 3.96129
25.3735 13.9665 0.0276887
22.513 15.1155 0.0229821
24.069 15.6809 0.0105516
25.4288 16.1527 2
23.3296 16.3192 2
24.2843 18.6077 3.97523
27.2566 21.7288 3.99353
28.3949 15.9769 0.0110622
27.4976 18.9666 2
32.4573 33.9871 3.62692
33.2087 34.3115 2
34.6524 34.4346 0.475174
33.5995 33.2881 0.570321
34.3616 31.6886 0.352767
35.3616 29.4496 0.187046
37.6225 27.7905 0.132956
35.2428 27.8322 2
33.2593 32.5665 2
33.526 30.1014 2
33.0218 28.5179 3.8863
32.1458 31.4356 3.81504
29.2485 24.5907 4.01279
29.7987 22.1276 2
30.2602 19.498 0.0218314
35.1695 25.6288 0.0140948
32.5023 22.6358 0.00160378
32.0939 25.8921 2
30.2971 27.5896 3.97631
31.3671 37.4867 3.63755
32.7043 37.4993 2
34.4946 37.5043 0.420241
33.4761 48.808 0.0269547
32.786 45.9445 0.136951
32.8842 39.2021 0.586529
32.1453 43.5472 0.175678
32.4245 40.9977 0.367975
31.6778 47.676 2
31.6692 39.3863 2
31.0469 41.8399 2
31.196 44.6238 2
30.0179 46.2547 3.98823
30.2934 39.7649 3.84055
29.7882 42.891 3.88722
30.3748 49.5422 -0.00368355
28.5714 47.9454 2
26.837 46.372 3.98096
27.0741 49.7709 0.0258743
25.4008 48.2059 2
23.7188 46.7861 3.97353
23.9613 49.9549 0.0334285
22.4489 48.5244 2
20.7279 47.3763 3.97617
21.1431 50.0828 0.0345385
19.6995 48.8719 2
18.2893 47.982 3.9766
16.669 48.5173 3.97655
17.4335 49.1542 2
16.3188 50.0158 3.97457
15.7624 52.2786 3.97053
17.2629 51.238 2
18.5644 50.1366 0.0283587
15.134 54.8686 3.96442
16.7611 53.7263 2
18.3295 52.6131 0.0349215
14.541 57.6838 3.95969
16.1738 56.3759 2
17.7393 55.2051 0.0374707
14.2742 60.6644 3.96545
15.7836 59.1605 2
17.2515 57.7876 0.0390359
14.337 63.8537 3.97667
15.7948 62.0996 2
17.1499 60.4954 0.0356738
14.6715 67.2507 4
16.0894 65.2919 2
17.4172 63.4303 0.0320412
16.6661 68.6801 2
17.9456 66.6155 0.0173293
18.75 69.9759 0
18.9701 15.8549 3.97036
20.2466 14.6689 2
18.9944 13.1717 3.97118
21.6071 13.6731 0.028136
20.5383 12.0482 2
19.3469 10.2521 3.97278
19.9944 7.14787 3.98632
21.1426 9.16026 2
22.1963 11.0537 0.0287388
20.9142 3.86727 4
22.0144 6.08557 2
23.0423 8.18521 0.0229081
23.1494 2.85451 2
24.1202 5.14378 0.0104056
25.446 1.99014 0
31.7824 35.6199 3.62531
32.8719 35.7959 2
34.5675 35.9479 0.448894
21.3506 15.9175 0.0312236
22.1619 16.7119 2
20.3788 17.0421 2
19.4118 18.5256 3.95848
21.8616 17.979 3.97853
25.4268 16.1522 0.0124473
23.3241 16.3234 0.0353358
24.2738 18.6271 2
22.502 20.0587 3.97673
24.8409 21.5798 3.98831
26.8777 23.8764 3.98492
27.2564 21.6365 2
27.4985 18.9324 0.0173969
31.1545 33.1984 3.83337
32.4058 33.9309 2
33.2189 34.3261 0.573697
33.3292 32.6373 0.315968
33.5623 30.1463 0.176334
35.2455 27.878 0.12144
32.9851 28.4837 2
32.093 31.3869 2
30.9305 29.8921 3.91027
28.5699 26.7664 4.00007
29.2367 24.5891 2
29.8204 22.1068 -0.00805301
32.1072 25.9196 -0.00941996
30.2884 27.5658 2
29.8663 37.4816 3.83952
31.29 37.4845 2
32.7048 37.4995 0.53568
31.7358 47.643 0.0142391
31.2445 44.5834 0.128722
31.7556 39.3688 0.367843
31.1074 41.7915 0.166809
30.0192 46.2628 2
30.2055 39.7802 2
29.7572 42.9154 2
28.3294 44.5853 3.96682
28.0441 40.4717 3.92709
28.5739 47.9423 0.0271905
26.8355 46.3725 2
25.0442 44.8994 3.98026
25.4007 48.2084 0.0314532
23.717 46.7847 2
21.773 45.6738 3.97776
22.4479 48.5238 0.0283732
20.7281 47.3753 2
19.0416 46.5407 3.97613
19.6995 48.8735 0.0257621
18.2895 47.9809 2
16.9208 47.5442 3.97594
16.6698 48.5164 2
15.6715 48.8676 3.97548
17.4346 49.155 0.0242537
16.3205 50.0149 2
14.8718 50.8587 3.97382
14.0992 53.3336 3.96776
15.7636 52.278 2
17.2618 51.239 0.029418
13.3958 56.1045 3.96114
15.1338 54.8685 2
16.7612 53.7264 0.0337658
12.8639 59.1046 3.96292
14.5431 57.6837 2
16.1738 56.3755 0.0380394
12.6831 62.296 3.97379
14.2761 60.6649 2
15.7807 59.1601 0.0396732
12.7746 65.6939 4
14.3346 63.8493 2
15.7933 62.0983 0.029646
14.6714 67.2507 2
16.0921 65.296 0.0207517
16.6661 68.6801 0
17.7682 17.2454 3.96105
18.971 15.8518 2
17.5315 14.434 3.96864
20.2441 14.6733 0.0295258
18.9947 13.1739 2
17.6464 11.4851 3.97289
20.5403 12.0494 0.0267468
19.3435 10.2535 2
18.0543 8.34104 3.98366
18.75 5.0241 4
19.9888 7.1516 2
21.1454 9.15865 0.0245468
20.9142 3.86727 2
22.0195 6.08225 0.0115434
23.1494 2.85457 0
30.317 35.2277 3.83832
31.6966 35.5968 2
32.8727 35.805 0.565694
22.1582 16.7187 0.0387145
20.376 17.0456 0.0359303
21.8616 17.9752 2
19.4056 18.5193 2
18.2757 20.0864 3.96208
21.0801 19.5289 3.9673
24.2843 18.6077 0.0247658
22.4948 20.0614 2
24.8514 21.5596 2
22.7096 21.9109 3.98014
25.1663 23.2907 3.9759
26.1824 26.1426 3.9797
26.8783 23.8693 2
27.2566 21.7288 0.00646509
29.5524 32.5512 3.88702
31.0759 33.1608 2
32.4573 33.9871 0.373081
32.1458 31.4356 0.184959
33.0218 28.5179 0.113697
30.9092 29.8805 2
27.9665 29.3592 4.01228
28.557 26.7705 2
29.2485 24.5907 -0.0127915
30.2971 27.5896 0.023694
28.2172 37.3809 3.88415
29.7875 37.4812 2
31.3671 37.4867 0.36245
30.0179 46.2547 0.011773
29.7882 42.891 0.11278
30.2934 39.7649 0.159446
28.3262 44.6379 2
28.01 40.4749 2
26.4391 43.0005 3.98174
25.3342 39.4338 3.97448
26.837 46.372 0.0190418
25.0341 44.9009 2
22.9712 43.709 3.97518
23.7188 46.7861 0.0264693
21.7697 45.6749 2
19.8375 44.7802 3.97569
20.7279 47.3763 0.0238273
19.0411 46.5412 2
17.2895 46.0455 3.97574
18.2893 47.982 0.0233987
16.9214 47.5437 2
15.4452 47.5259 3.97561
16.669 48.5173 0.0234498
15.673 48.8668 2
14.1855 49.4264 3.97512
16.3188 50.0158 0.0254278
14.8731 50.8579 2
13.1676 51.782 3.97062
12.2973 54.4673 3.96329
14.0999 53.333 2
15.7624 52.2786 0.0294725
11.5617 57.4409 3.96156
13.3961 56.1044 2
15.134 54.8686 0.0355839
11.1391 60.6212 3.96849
12.8663 59.104 2
14.541 57.6838 0.0403078
10.9835 64.0165 4
12.6813 62.2911 2
14.2742 60.6644 0.0345524
12.7745 65.694 2
14.337 63.8537 0.023331
14.6715 67.2507 0
16.588 18.7561 3.96126
17.7616 17.2404 2
16.1319 15.8367 3.96127
18.9701 15.8549 0.0296406
17.5323 14.4302 2
16.0296 12.8506 3.96753
18.9944 13.1717 0.0288159
17.6436 11.4934 2
16.2054 9.66606 3.98047
19.3469 10.2521 0.0272194
18.0493 8.3475 2
16.6661 6.31991 4
18.75 5.02404 2
19.9944 7.14787 0.0136831
20.9142 3.86727 0
28.7131 34.8682 3.89203
30.2178 35.188 2
31.7824 35.6199 0.37469
17.0231 21.5225 3.96857
21.8616 17.979 0.0214693
19.4118 18.5256 0.0415232
21.0711 19.5241 2
18.2762 20.0837 2
20.1249 21.757 3.97224
22.502 20.0587 0.0232719
24.8409 21.5798 0.0116912
22.7101 21.9129 2
25.153 23.3188 2
23.4934 24.8061 3.9718
25.526 28.7348 3.98403
26.174 26.1502 2
26.8777 23.8764 0.0150844
27.4128 31.9093 3.98119
29.5122 32.5277 2
31.1545 33.1984 0.166635
30.9305 29.8921 0.0897332
27.98 29.3319 2
28.5699 26.7664 -6.64665e-05
26.0388 36.8545 3.9719
28.1929 37.3819 2
29.8663 37.4816 0.160482
28.3294 44.5853 0.0331771
28.0441 40.4717 0.0729073
26.4173 43.0252 2
25.3045 39.4368 2
24.1993 41.7218 3.98038
23.0477 38.5153 3.97701
25.0442 44.8994 0.0197433
22.9697 43.7101 2
20.7301 42.7385 3.97518
21.773 45.6738 0.022241
19.8386 44.7804 2
17.7078 44.2316 3.97534
19.0416 46.5407 0.0238693
17.2896 46.0459 2
15.4127 45.957 3.97538
16.9208 47.5442 0.0240605
15.4461 47.5254 2
13.7182 47.8933 3.97559
15.6715 48.8676 0.0245217
14.1869 49.4256 2
12.4027 50.1668 3.97287
14.8718 50.8587 0.0261811
13.1687 51.7812 2
11.2912 52.7832 3.96522
10.3706 55.6943 3.96243
12.2973 54.4668 2
14.0992 53.3336 0.0322406
9.70496 58.8454 3.97161
11.566 57.4392 2
13.3958 56.1045 0.0388626
9.30605 62.2254 4
11.1378 60.6163 2
12.8639 59.1046 0.0370799
10.9835 64.0165 2
12.6831 62.296 0.0262105
12.7746 65.6939 0
15.3926 20.2964 3.96431
16.5945 18.7554 2
14.8262 17.3654 3.96059
17.7682 17.2454 0.0389516
16.1341 15.8342 2
14.4905 14.3277 3.96797
17.5315 14.434 0.0313576
16.03 12.8469 2
14.4483 11.119 3.97768
17.6464 11.4851 0.0271097
16.2009 9.67257 2
14.6715 7.74927 4
18.0543 8.34104 0.0163443
16.6661 6.31988 2
18.75 5.0241 0
26.6703 34.3886 3.97311
28.6941 34.8752 2
30.317 35.2277 0.161681
18.3001 22.4981 3.97526
15.9269 23.0642 3.97222
17.0251 21.5216 2
21.0801 19.5289 0.0326991
18.2757 20.0864 0.0379177
20.122 21.7541 2
20.2654 24.6026 3.97195
22.7096 21.9109 0.0198625
25.1663 23.2907 0.0240996
23.487 24.806 2
22.8879 28.0863 3.97115
24.9784 31.4275 3.98228
25.5324 28.7182 2
26.1824 26.1426 0.020295
27.3823 31.8703 2
29.5524 32.5512 0.112981
27.9665 29.3592 -0.0122752
23.7839 36.3182 3.97765
26.015 36.8486 2
28.2172 37.3809 0.115847
26.4391 43.0005 0.0182568
25.3342 39.4338 0.0255206
24.177 41.721 2
23.0364 38.5157 2
21.8631 40.5649 3.97491
21.1912 37.797 3.97721
22.9712 43.709 0.0248166
20.7312 42.7378 2
18.1906 41.9928 3.97569
19.8375 44.7802 0.0243112
17.7082 44.232 2
15.4624 44.0836 3.9753
17.2895 46.0455 0.0242562
15.4126 45.957 2
13.4174 46.1909 3.97538
15.4452 47.5259 0.0243902
13.7194 47.8927 2
11.7926 48.4696 3.97469
14.1855 49.4264 0.0248756
12.4044 50.1658 2
10.4226 51.0316 3.96705
13.1676 51.782 0.0293768
11.292 52.7823 2
9.27999 53.8757 3.96298
8.38882 56.9802 3.97303
10.3731 55.6925 2
12.2973 54.4673 0.0367116
7.74927 60.3285 4
9.70372 58.8409 2
11.5617 57.4409 0.0384394
9.306 62.2255 2
11.1391 60.6212 0.0315109
10.9835 64.0165 0
14.231 21.8576 3.96814
15.3919 20.2947 2
13.5647 18.9639 3.96132
16.588 18.7561 0.0387429
14.8273 17.3635 2
13.0389 15.9123 3.96698
16.1319 15.8367 0.0387297
14.4945 14.3255 2
12.786 12.6935 3.97517
16.0296 12.8506 0.0324697
14.4451 11.1264 2
12.7746 9.30605 4
16.2054 9.66606 0.0195341
14.6715 7.74924 2
16.6661 6.31991 0
24.3436 33.8975 3.98089
26.6488 34.3885 2
28.7131 34.8682 0.10797
18.1776 24.2332 3.97322
18.3083 22.4984 2
14.7535 24.5896 3.97426
15.9275 23.0634 2
17.0231 21.5225 0.0314307
19.8234 27.434 3.9736
20.1249 21.757 0.0277627
20.2613 24.5998 2
22.2746 30.8793 3.97422
23.4934 24.8061 0.0281952
22.8883 28.0885 2
24.9381 31.4332 2
25.526 28.7348 0.0159716
27.4128 31.9093 0.0188098
21.298 35.9676 3.97683
23.7789 36.3131 2
26.0388 36.8545 0.0281032
24.1993 41.7218 0.019619
23.0477 38.5153 0.0229934
21.8677 40.5676 2
21.1942 37.7971 2
18.9603 38.9742 3.97709
20.7301 42.7385 0.0248206
18.1904 41.9929 2
15.4472 41.8443 3.97595
17.7078 44.2316 0.024664
15.4618 44.0837 2
13.1789 44.3071 3.97538
15.4127 45.957 0.0246225
13.4181 46.1907 2
11.3073 46.6605 3.97576
13.7182 47.8933 0.0244086
11.7947 48.4685 2
9.69414 49.1957 3.96891
12.4027 50.1668 0.0271253
10.4239 51.0305 2
8.30786 51.9917 3.96353
11.2912 52.7832 0.0347778
9.2803 53.874 2
7.19785 55.0325 3.97401
6.31991 58.3339 4
8.38758 56.9759 2
10.3706 55.6943 0.037572
7.74924 60.3285 2
9.70496 58.8454 0.0283887
9.30605 62.2254 0
13.6104 25.4783 3.97636
13.1311 23.381 3.97174
14.2304 21.8564 2
12.3903 20.6131 3.96371
15.3926 20.2964 0.0356875
13.5643 18.9624 2
11.6741 17.5838 3.96245
14.8262 17.3654 0.0394123
13.0436 15.9102 2
11.2243 14.3806 3.96962
14.4905 14.3277 0.0320325
12.7843 12.7005 2
10.9835 10.9835 4
14.4483 11.119 0.0223162
12.7745 9.306 2
14.6715 7.74927 0
21.6531 33.5273 3.97625
24.3471 33.8774 2
26.6703 34.3886 0.0268931
16.5011 26.5761 3.97437
18.1815 24.2328 2
18.3001 22.4981 0.024735
14.7525 24.5891 2
15.9269 23.0642 0.0277755
19.2258 30.3596 3.97449
19.8236 27.4354 2
20.2654 24.6026 0.0280538
22.297 30.8789 2
22.8879 28.0863 0.0288494
24.9784 31.4275 0.0177233
18.5491 36.0084 3.9779
21.2995 35.9693 2
23.7839 36.3182 0.022352
21.8631 40.5649 0.0250888
21.1912 37.797 0.022787
18.9602 38.9727 2
14.9359 39.1529 3.97698
18.1906 41.9928 0.024312
15.4464 41.8439 2
12.8724 42.2206 3.97604
15.4624 44.0836 0.0247038
13.1791 44.3069 2
10.893 44.7402 3.97579
13.4174 46.1909 0.0246207
11.3099 46.6593 2
9.07931 47.2806 3.97076
11.7926 48.4696 0.0253065
9.69601 49.1945 2
7.46868 50.0274 3.96388
10.4226 51.0316 0.0329513
8.30659 51.9903 2
6.13841 53.0084 3.97407
9.27999 53.8757 0.0370231
7.19707 55.0287 2
5.0241 56.25 4
6.31988 58.3339 2
8.38882 56.9802 0.0269675
7.74927 60.3285 0
13.9021 26.9352 3.97535
12.2375 24.8763 3.97467
13.6095 25.4778 2
11.3163 22.2942 3.96601
13.1318 23.3805 2
14.231 21.8576 0.031865
12.3901 20.6121 2
10.4295 19.3374 3.96287
13.5647 18.9639 0.0386793
11.682 17.5841 2
9.76545 16.1629 3.97115
13.0389 15.9123 0.0330171
11.2239 14.3862 2
9.30607 12.7746 4
12.786 12.6935 0.0248341
10.9835 10.9835 2
12.7746 9.30605 0
18.7141 33.206 3.97584
21.6492 33.5306 2
24.3436 33.8975 0.019114
16.1292 29.7797 3.97514
16.5003 26.5757 2
18.1776 24.2332 0.0267819
14.7535 24.5896 0.0257407
19.2241 30.3596 2
19.8234 27.434 0.0263972
22.2746 30.8793 0.0257843
15.5742 36.0436 3.97748
18.5485 36.0093 2
21.298 35.9676 0.0231654
13.102 37.8286 3.9771
18.9603 38.9742 0.0229062
14.9358 39.1529 2
12.3665 40.111 3.97655
15.4472 41.8443 0.0240494
12.872 42.2201 2
10.4897 42.7346 3.97576
13.1789 44.3071 0.0246226
10.8952 44.7392 2
8.54659 45.291 3.97281
11.3073 46.6605 0.0242417
9.08129 47.2795 2
6.75085 47.9949 3.96433
9.69414 49.1957 0.0310903
7.46644 50.0263 2
5.21485 50.9119 3.97372
8.30786 51.9917 0.0364707
6.1381 53.0055 2
3.86727 54.0858 4
7.19785 55.0325 0.0259927
5.02404 56.25 2
6.31991 58.3339 0
13.38 29.1315 3.9747
11.6863 26.57 3.97541
13.9015 26.9351 2
10.3663 24.0184 3.96853
12.2403 24.8765 2
13.6104 25.4783 0.0236376
9.2949 21.154 3.96355
11.316 22.2937 2
13.1311 23.381 0.0282619
12.3903 20.6131 0.0362897
10.4416 19.3395 2
8.42133 18.0318 3.97272
11.6741 17.5838 0.0375542
9.76482 16.1671 2
7.74928 14.6715 4
11.2243 14.3806 0.0303842
9.30602 12.7745 2
10.9835 10.9835 0
15.1098 32.9339 3.97623
18.7133 33.2053 2
21.6531 33.5273 0.0237461
16.1291 29.7794 2
16.5011 26.5761 0.0256312
19.2258 30.3596 0.0255119
13.4083 36.2245 3.97674
15.5737 36.0436 2
18.5491 36.0084 0.0221028
13.1014 37.8286 2
11.6843 38.3039 3.97671
14.9359 39.1529 0.0230191
12.3664 40.1108 2
10.0622 40.7303 3.97632
12.8724 42.2206 0.0239649
10.4924 42.7342 2
8.07953 43.249 3.97426
10.893 44.7402 0.0242089
8.5489 45.29 2
6.14676 45.9019 3.96487
9.07931 47.2806 0.029244
6.74808 47.994 2
4.42581 48.7522 3.97349
7.46868 50.0274 0.0361197
5.21494 50.9098 2
2.85457 51.8506 4
6.13841 53.0084 0.0259292
3.86727 54.0858 2
5.0241 56.25 0
12.5067 31.3218 3.9758
11.0952 28.4856 3.97547
13.38 29.1312 2
9.5815 25.8421 3.96997
11.6887 26.5702 2
13.9021 26.9352 0.0246494
8.27352 23.0344 3.96411
10.3686 24.0187 2
12.2375 24.8763 0.0253334
7.20369 19.9794 3.97393
9.30087 21.1557 2
11.3163 22.2942 0.0339945
10.4295 19.3374 0.0371254
8.42053 18.0357 2
6.31992 16.6661 4
9.76545 16.1629 0.0288482
7.74926 14.6714 2
9.30607 12.7746 0
12.5418 34.3329 3.97656
15.1094 32.9345 2
18.7141 33.206 0.0241555
16.1292 29.7797 0.0248556
11.215 36.6228 3.97653
13.4076 36.2246 2
15.5742 36.0436 0.0225151
13.102 37.8286 0.0229041
11.6846 38.3036 2
9.638 38.8157 3.97648
12.3665 40.111 0.0234539
10.0647 40.7299 2
7.68115 41.1991 3.97431
10.4897 42.7346 0.0242427
8.08058 43.2483 2
5.65394 43.7659 3.96505
8.54659 45.291 0.0271885
6.14375 45.9013 2
3.77104 46.5372 3.97346
6.75085 47.9949 0.0356698
4.42634 48.7508 2
1.99014 49.554 4
5.21485 50.9119 0.0262764
2.85451 51.8506 2
3.86727 54.0858 0
11.301 32.9653 3.97639
10.3968 30.4344 3.97553
12.5065 31.3224 2
8.88122 27.768 3.97108
11.0975 28.4861 2
13.38 29.1315 0.0252992
7.38897 24.99 3.96445
9.58406 25.8427 2
11.6863 26.57 0.0245921
6.12055 22.0014 3.97445
8.27524 23.0357 2
10.3663 24.0184 0.0314685
5.02411 18.75 4
7.2032 19.9828 2
9.2949 21.154 0.0364463
8.42133 18.0318 0.027277
6.3199 16.6661 2
7.74928 14.6715 0
10.7944 35.0226 3.97635
12.5408 34.3328 2
15.1098 32.9339 0.0237717
9.29158 36.9901 3.97652
11.2154 36.6229 2
13.4083 36.2245 0.0232552
11.6843 38.3039 0.0232895
9.64066 38.8153 2
7.35466 39.1774 3.97401
10.0622 40.7303 0.0236775
7.68387 41.1987 2
5.26707 41.6123 3.96534
8.07953 43.249 0.0257448
5.65292 43.7655 2
3.2485 44.2816 3.97412
6.14676 45.9019 0.0351262
3.7718 46.5364 2
1.27781 47.2057 4
4.42581 48.7522 0.0265088
1.99012 49.554 2
2.85457 51.8506 0
10.4227 33.9115 3.97606
9.66501 32.1911 3.97614
11.3017 32.9657 2
8.21196 29.7229 3.9724
10.3992 30.4355 2
12.5067 31.3218 0.0242025
6.62087 27.0134 3.96477
8.8842 27.7687 2
11.0952 28.4856 0.0245284
5.17548 24.0938 3.97425
7.38745 24.9908 2
9.5815 25.8421 0.0300299
3.86728 20.9142 4
6.12041 22.0038 2
8.27352 23.0344 0.0358901
5.02406 18.75 2
7.20369 19.9794 0.0260662
6.31992 16.6661 0
9.10287 35.2951 3.97663
10.7952 35.0226 2
12.5418 34.3329 0.023439
7.13195 37.2075 3.97365
9.29454 36.9898 2
11.215 36.6228 0.0234684
9.638 38.8157 0.0235218
7.35754 39.1772 2
4.99403 39.4666 3.96628
7.68115 41.1991 0.025693
5.26774 41.6121 2
2.85876 42.0017 3.97473
5.65394 43.7659 0.0349483
3.24907 44.2812 2
0.720592 44.8159 4
3.77104 46.5372 0.0265358
1.27778 47.2057 2
1.99014 49.554 0
9.14074 33.7223 3.97665
10.4244 33.9118 2
7.63793 31.6287 3.97286
9.668 32.1919 2
11.301 32.9653 0.0236066
5.95792 29.0729 3.965
8.21376 29.7234 2
10.3968 30.4344 0.0244713
4.36261 26.2467 3.97388
6.6178 27.0138 2
8.88122 27.768 0.0289186
2.85458 23.1494 4
5.17575 24.0953 2
7.38897 24.99 0.035547
3.86728 20.9142 2
6.12055 22.0014 0.0255538
5.02411 18.75 0
7.08105 35.3132 3.97325
9.10645 35.295 2
10.7944 35.0226 0.0236468
4.84399 37.34 3.96683
7.13507 37.2075 2
9.29158 36.9901 0.023478
7.35466 39.1774 0.0259898
4.99479 39.4665 2
2.60656 39.7134 3.97538
5.26707 41.6123 0.0346587
2.85946 42.0017 2
0.320823 42.3947 4
3.2485 44.2816 0.0258805
0.720551 44.8159 2
1.27781 47.2057 0
7.24441 33.4738 3.97312
9.14416 33.7227 2
10.4227 33.9115 0.0239384
5.42324 31.136 3.9654
7.64006 31.629 2
9.66501 32.1911 0.0238552
3.68383 28.4433 3.97394
5.95475 29.0732 2
8.21196 29.7229 0.0276014
1.99015 25.446 4
4.36316 26.2476 2
6.62087 27.0134 0.0352305
2.85453 23.1494 2
5.17548 24.0938 0.0257546
3.86728 20.9142 0
4.85815 35.2527 3.96671
7.08333 35.3133 2
9.10287 35.2951 0.0233707
2.49793 37.4282 3.9764
4.84421 37.3402 2
7.13195 37.2075 0.026345
4.99403 39.4666 0.0337165
2.60732 39.7138 2
0.080333 39.9526 4
2.85876 42.0017 0.0252721
0.320817 42.3947 2
0.720592 44.8159 0
5.05174 33.192 3.96621
7.24664 33.474 2
9.14074 33.7223 0.0233492
3.14788 30.6665 3.97465
5.42327 31.1362 2
7.63793 31.6287 0.0271371
1.27793 27.7943 4
3.68468 28.4438 2
5.95792 29.0729 0.035
1.99013 25.446 2
4.36261 26.2467 0.0261214
2.85458 23.1494 0
2.54996 35.159 3.97619
4.85901 35.253 2
7.08105 35.3132 0.0267496
0 37.5 4
2.49819 37.4287 2
4.84399 37.34 0.0331743
2.60656 39.7134 0.0246238
0.0802903 39.9526 2
0.320823 42.3947 0
2.76772 32.906 3.97597
5.05216 33.1924 2
7.24441 33.4738 0.026885
0.721173 30.1842 4
3.14858 30.6668 2
5.42324 31.136 0.0345952
1.27779 27.7943 2
3.68383 28.4433 0.026058
1.99015 25.446 0
0.0806499 35.0474 4
2.55083 35.1595 2
4.85815 35.2527 0.0332859
0 37.5 2
2.49793 37.4282 0.0235987
0.080333 39.9526 0
0.32156 32.6054 4
2.76805 32.9065 2
5.05174 33.192 0.033791
0.72056 30.1841 2
3.14788 30.6665 0.0253524
1.27793 27.7943 0
0.0802889 35.0474 2
2.54996 35.159 0.0238109
0 37.5 0
0.320817 32.6053 2
2.76772 32.906 0.0240251
0.721173 30.1842 0
0.0806499 35.0474 0
0.32156 32.6054 0
CELLS 1910 17190
8 18 6 25 56 2 0 5 16
8 57 23 6 18 17 4 0 2
8 78 36 9 29 31 11 1 7
8 31 11 1 7 79 37 10 30
8 110 57 18 50 48 17 2 14
8 50 18 56 111 14 2 16 49
8 116 62 22 55 52 20 3 15
8 56 25 67 118 16 5 24 53
8 119 63 23 57 54 21 4 17
8 55 22 63 119 15 3 21 54
8 58 26 68 121 18 6 25 56
8 122 65 26 58 57 23 6 18
8 73 31 7 27 142 79 30 71
8 143 78 29 72 73 31 7 27
8 83 147 76 34 32 74 28 8
8 84 148 78 36 33 75 29 9
8 76 34 8 28 148 84 33 75
8 37 79 150 86 10 30 77 35
8 151 87 36 78 80 38 11 31
8 80 38 11 31 152 88 37 79
8 175 100 42 94 96 44 12 40
8 44 96 176 101 12 40 95 43
8 101 176 98 46 43 95 41 13
8 46 98 178 103 13 41 97 45
8 178 103 45 97 147 83 32 74
8 189 116 55 109 106 52 15 47
8 111 56 118 191 49 16 53 107
8 192 119 57 110 108 54 17 48
8 109 55 119 192 47 15 54 108
8 194 122 58 112 110 57 18 50
8 112 58 121 195 50 18 56 111
8 115 61 19 51 197 124 59 113
8 115 61 125 198 51 19 60 114
8 198 125 62 116 114 60 20 52
8 200 127 64 120 116 62 22 55
8 118 67 132 202 53 24 66 117
8 121 68 133 203 56 25 67 118
8 120 64 128 204 55 22 63 119
8 204 128 65 122 119 63 23 57
8 206 134 68 121 123 69 26 58
8 123 69 26 58 207 131 65 122
8 226 147 74 138 140 76 28 70
8 229 148 75 139 143 78 29 72
8 140 76 28 70 229 148 75 139
8 142 79 30 71 231 150 77 141
8 144 80 31 73 232 152 79 142
8 233 151 78 143 144 80 31 73
8 150 86 35 77 235 154 81 145
8 235 154 81 145 146 82 39 91
8 146 82 39 91 236 155 90 165
8 238 157 83 147 149 85 34 76
8 239 158 84 148 151 87 36 78
8 149 85 34 76 239 158 84 148
8 152 88 37 79 241 160 86 150
8 242 161 87 151 153 89 38 80
8 153 89 38 80 243 162 88 152
8 171 98 41 92 265 178 97 169
8 265 178 97 169 226 147 74 138
8 172 96 40 93 266 176 95 170
8 266 176 95 170 171 98 41 92
8 269 175 94 173 172 96 40 93
8 271 180 99 174 175 100 42 94
8 197 124 59 113 271 180 99 174
8 272 181 100 175 177 102 44 96
8 273 182 101 176 179 104 46 98
8 177 102 44 96 273 182 101 176
8 179 104 46 98 275 184 103 178
8 275 184 103 178 238 157 83 147
8 188 115 51 105 283 197 113 186
8 188 115 198 284 105 51 114 187
8 284 198 116 189 187 114 52 106
8 286 200 120 193 189 116 55 109
8 191 118 202 288 107 53 117 190
8 195 121 203 289 111 56 118 191
8 193 120 204 290 109 55 119 192
8 290 204 122 194 192 119 57 110
8 196 123 58 112 292 207 122 194
8 293 206 121 195 196 123 58 112
8 199 126 61 115 297 211 124 197
8 298 212 127 200 198 125 62 116
8 199 126 212 298 115 61 125 198
8 205 129 64 120 300 214 127 200
8 301 217 130 201 202 132 66 117
8 209 136 168 264 301 217 130 201
8 302 219 132 202 203 133 67 118
8 303 220 133 203 206 134 68 121
8 205 129 215 304 120 64 128 204
8 304 215 131 207 204 128 65 122
8 306 221 134 206 208 135 69 123
8 208 135 69 123 307 218 131 207
8 210 137 167 263 309 223 136 209
8 328 238 147 226 230 149 76 140
8 228 146 91 166 329 236 165 260
8 231 150 77 141 330 235 145 227
8 330 235 145 227 228 146 91 166
8 332 239 148 229 233 151 78 143
8 230 149 76 140 332 239 148 229
8 232 152 79 142 334 241 150 231
8 234 153 80 144 335 243 152 232
8 336 242 151 233 234 153 80 144
8 236 155 90 165 338 245 164 259
8 241 160 86 150 339 246 154 235
8 339 246 154 235 237 156 82 146
8 237 156 82 146 340 247 155 236
8 342 249 157 238 240 159 85 149
8 343 250 158 239 242 161 87 151
8 240 159 85 149 343 250 158 239
8 243 162 88 152 345 252 160 241
8 244 163 253 346 153 89 161 242
8 244 163 89 153 347 254 162 243
8 311 224 261 371 210 137 167 263
8 263 167 262 372 209 136 168 264
8 267 179 98 171 375 275 178 265
8 375 275 178 265 328 238 147 226
8 376 273 176 266 267 179 98 171
8 268 177 96 172 376 273 176 266
8 379 272 175 269 268 177 96 172
8 380 271 174 270 269 175 94 173
8 283 197 113 186 380 271 174 270
8 381 277 180 271 272 181 100 175
8 297 211 124 197 381 277 180 271
8 382 278 181 272 274 183 102 177
8 274 183 102 177 383 279 182 273
8 383 279 182 273 276 185 104 179
8 385 281 184 275 342 249 157 238
8 276 185 104 179 385 281 184 275
8 285 199 115 188 393 297 197 283
8 394 298 200 286 284 198 116 189
8 285 199 298 394 188 115 198 284
8 291 205 120 193 396 300 200 286
8 397 301 201 287 288 202 117 190
8 295 209 264 374 397 301 201 287
8 398 302 202 288 289 203 118 191
8 399 303 203 289 293 206 121 195
8 291 205 304 400 193 120 204 290
8 400 304 207 292 290 204 122 194
8 294 208 123 196 402 307 207 292
8 403 306 206 293 294 208 123 196
8 296 210 263 373 405 309 209 295
8 408 312 213 299 297 211 126 199
8 299 213 313 409 199 126 212 298
8 409 313 214 300 298 212 127 200
8 305 216 129 205 411 315 214 300
8 412 318 217 301 302 219 132 202
8 309 223 136 209 412 318 217 301
8 413 320 219 302 303 220 133 203
8 306 221 321 414 206 134 220 303
8 307 218 131 207 415 316 215 304
8 305 216 316 415 205 129 215 304
8 417 322 221 306 308 222 135 208
8 308 222 135 208 418 319 218 307
8 310 225 137 210 420 325 223 309
8 423 326 224 311 310 225 137 210
8 329 236 165 260 441 338 259 368
8 442 342 238 328 333 240 149 230
8 331 237 146 228 443 340 236 329
8 334 241 150 231 444 339 235 330
8 444 339 235 330 331 237 146 228
8 446 343 239 332 336 242 151 233
8 333 240 149 230 446 343 239 332
8 335 243 152 232 448 345 241 334
8 337 244 153 234 449 347 243 335
8 337 244 346 450 234 153 242 336
8 338 245 164 259 452 349 258 367
8 340 247 155 236 453 350 245 338
8 345 252 160 241 454 351 246 339
8 454 351 246 339 341 248 156 237
8 341 248 156 237 455 352 247 340
8 240 159 251 344 342 249 354 457
8 242 161 253 346 343 250 355 458
8 343 250 355 458 240 159 251 344
8 347 254 162 243 460 357 252 345
8 348 255 358 461 244 163 253 346
8 348 255 163 244 462 359 254 347
8 473 360 257 365 363 256 364 482
8 452 349 258 367 365 257 366 485
8 422 324 369 488 311 224 261 371
8 371 261 370 490 263 167 262 372
8 407 311 371 491 296 210 263 373
8 373 263 372 492 295 209 264 374
8 493 385 275 375 442 342 238 328
8 377 276 179 267 493 385 275 375
8 378 274 177 268 494 383 273 376
8 494 383 273 376 377 276 179 267
8 497 382 272 379 378 274 177 268
8 498 381 271 380 379 272 175 269
8 393 297 197 283 498 381 271 380
8 499 387 277 381 382 278 181 272
8 408 312 211 297 499 387 277 381
8 500 388 278 382 384 280 183 274
8 501 389 279 383 386 282 185 276
8 384 280 183 274 501 389 279 383
8 386 282 185 276 503 391 281 385
8 503 391 281 385 457 354 249 342
8 511 408 299 395 393 297 199 285
8 395 299 409 512 285 199 298 394
8 512 409 300 396 394 298 200 286
8 401 305 205 291 514 411 300 396
8 515 412 301 397 398 302 202 288
8 405 309 209 295 515 412 301 397
8 516 413 302 398 399 303 203 289
8 403 306 414 517 293 206 303 399
8 402 307 207 292 518 415 304 400
8 401 305 415 518 291 205 304 400
8 404 308 208 294 520 418 307 402
8 521 417 306 403 404 308 208 294
8 406 310 210 296 523 420 309 405
8 526 423 311 407 406 310 210 296
8 410 314 213 299 527 424 312 408
8 528 425 315 411 409 313 214 300
8 410 314 425 528 299 213 313 409
8 416 317 216 305 530 427 315 411
8 531 430 318 412 413 320 219 302
8 420 325 223 309 531 430 318 412
8 532 432 320 413 414 321 220 303
8 417 322 433 533 306 221 321 414
8 418 319 218 307 534 428 316 415
8 416 317 428 534 305 216 316 415
8 419 323 434 536 308 222 322 417
8 419 323 222 308 537 431 319 418
8 421 327 225 310 539 438 325 420
8 421 327 439 541 310 225 326 423
8 543 437 324 422 423 326 224 311
8 441 338 259 368 559 452 367 486
8 443 340 236 329 560 453 338 441
8 333 240 344 447 442 342 457 561
8 445 341 237 331 562 455 340 443
8 448 345 241 334 563 454 339 444
8 563 454 339 444 445 341 237 331
8 336 242 346 450 446 343 458 565
8 446 343 458 565 333 240 344 447
8 449 347 243 335 567 460 345 448
8 451 348 244 337 568 462 347 449
8 451 348 461 569 337 244 346 450
8 570 463 349 452 473 360 257 365
8 453 350 245 338 570 463 349 452
8 455 352 247 340 571 464 350 453
8 460 357 252 345 572 465 351 454
8 572 465 351 454 456 353 248 341
8 456 353 248 341 573 466 352 455
8 344 251 356 459 457 354 468 575
8 458 355 469 576 344 251 356 459
8 346 253 358 461 458 355 469 576
8 462 359 254 347 578 471 357 460
8 348 255 359 462 461 358 472 579
8 591 474 360 473 475 361 256 363
8 475 361 256 363 594 477 362 479
8 363 256 364 482 479 362 480 603
8 590 473 365 484 481 363 482 605
8 482 364 257 365 606 483 366 485
8 559 452 367 486 484 365 485 607
8 542 436 487 609 422 324 369 488
8 525 422 488 611 407 311 371 491
8 488 369 489 612 371 261 370 490
8 491 371 490 613 373 263 372 492
8 495 386 276 377 614 503 385 493
8 614 503 385 493 561 457 342 442
8 615 501 383 494 495 386 276 377
8 496 384 274 378 615 501 383 494
8 618 500 382 497 496 384 274 378
8 619 499 381 498 497 382 272 379
8 511 408 297 393 619 499 381 498
8 620 505 387 499 500 388 278 382
8 527 424 312 408 620 505 387 499
8 502 390 506 621 384 280 388 500
8 622 507 389 501 504 392 282 386
8 502 390 280 384 622 507 389 501
8 504 392 282 386 624 509 391 503
8 624 509 391 503 575 468 354 457
8 513 410 299 395 630 527 408 511
8 631 528 411 514 512 409 300 396
8 513 410 528 631 395 299 409 512
8 519 416 305 401 633 530 411 514
8 634 531 412 515 516 413 302 398
8 523 420 309 405 634 531 412 515
8 635 532 413 516 517 414 303 399
8 521 417 533 636 403 306 414 517
8 520 418 307 402 637 534 415 518
8 519 416 534 637 401 305 415 518
8 522 419 308 404 639 537 418 520
8 522 419 536 640 404 308 417 521
8 524 421 310 406 642 539 420 523
8 524 421 541 644 406 310 423 526
8 646 543 422 525 526 423 311 407
8 529 426 314 410 647 544 424 527
8 528 425 545 648 411 315 427 530
8 529 426 545 648 410 314 425 528
8 535 429 317 416 649 546 427 530
8 650 548 430 531 532 432 320 413
8 539 438 325 420 650 548 430 531
8 533 433 550 651 414 321 432 532
8 536 434 551 652 417 322 433 533
8 537 431 319 418 653 547 428 534
8 535 429 547 653 416 317 428 534
8 538 435 552 654 419 323 434 536
8 538 435 323 419 655 549 431 537
8 540 440 327 421 657 556 438 539
8 540 440 557 659 421 327 439 541
8 541 439 555 660 423 326 437 543
8 661 554 436 542 543 437 324 422
8 676 570 452 559 590 473 365 484
8 560 453 338 441 676 570 452 559
8 562 455 340 443 677 571 453 560
8 447 344 459 566 561 457 575 678
8 564 456 341 445 679 573 455 562
8 567 460 345 448 680 572 454 563
8 680 572 454 563 564 456 341 445
8 565 458 576 682 447 344 459 566
8 450 346 461 569 565 458 576 682
8 568 462 347 449 684 578 460 567
8 451 348 462 568 569 461 579 685
8 686 580 463 570 591 474 360 473
8 571 464 350 453 686 580 463 570
8 573 466 352 455 687 581 464 571
8 572 465 582 688 460 357 471 578
8 574 467 582 688 456 353 465 572
8 574 467 353 456 689 583 466 573
8 459 356 470 577 575 468 585 691
8 576 469 586 692 459 356 470 577
8 461 358 472 579 576 469 586 692
8 462 359 471 578 579 472 588 694
8 704 591 473 590 593 475 363 481
8 595 476 592 705 475 361 474 591
8 593 475 363 481 707 594 479 602
8 594 477 362 479 709 598 478 600
8 595 476 361 475 711 597 477 594
8 479 362 480 603 600 478 601 720
8 481 363 482 605 602 479 603 722
8 603 480 364 482 723 604 483 606
8 605 482 365 484 724 606 485 607
8 656 553 608 726 542 436 487 609
8 645 542 609 728 525 422 488 611
8 609 487 610 729 488 369 489 612
8 611 488 612 730 491 371 490 613
8 616 504 386 495 731 624 503 614
8 731 624 503 614 678 575 457 561
8 732 622 501 615 616 504 386 495
8 617 502 384 496 732 622 501 615
8 617 502 621 735 496 384 500 618
8 736 620 499 619 618 500 382 497
8 630 527 408 511 736 620 499 619
8 621 506 626 737 500 388 505 620
8 647 544 424 527 737 626 505 620
8 623 508 627 738 502 390 506 621
8 623 508 390 502 739 628 507 622
8 625 510 628 739 504 392 507 622
8 740 629 509 624 691 585 468 575
8 625 510 392 504 740 629 509 624
8 632 529 410 513 744 647 527 630
8 631 528 648 745 514 411 530 633
8 632 529 648 745 513 410 528 631
8 638 535 416 519 746 649 530 633
8 747 650 531 634 635 532 413 516
8 642 539 420 523 747 650 531 634
8 636 533 651 748 517 414 532 635
8 640 536 652 749 521 417 533 636
8 639 537 418 520 750 653 534 637
8 638 535 653 750 519 416 534 637
8 641 538 419 522 751 655 537 639
8 641 538 654 752 522 419 536 640
8 643 540 421 524 753 657 539 642
8 643 540 659 755 524 421 541 644
8 644 541 660 757 526 423 543 646
8 758 661 542 645 646 543 422 525
8 529 426 544 647 648 545 662 759
8 530 427 545 648 649 546 663 760
8 535 429 546 649 653 547 664 761
8 762 666 548 650 651 550 432 532
8 657 556 438 539 762 666 548 650
8 652 551 668 763 533 433 550 651
8 654 552 669 764 536 434 551 652
8 655 549 431 537 765 665 547 653
8 538 435 549 655 654 552 667 766
8 661 554 671 768 542 436 553 656
8 658 558 440 540 769 674 556 657
8 658 558 675 770 540 440 557 659
8 659 557 673 771 541 439 555 660
8 660 555 672 772 543 437 554 661
8 788 686 570 676 704 591 473 590
8 677 571 453 560 788 686 570 676
8 679 573 455 562 789 687 571 677
8 566 459 577 683 678 575 691 790
8 681 574 456 564 791 689 573 679
8 680 572 688 792 567 460 578 684
8 681 574 688 792 564 456 572 680
8 682 576 692 794 566 459 577 683
8 569 461 579 685 682 576 692 794
8 568 462 578 684 685 579 694 796
8 687 581 464 571 798 696 580 686
8 798 696 580 686 705 592 474 591
8 689 583 466 573 799 697 581 687
8 688 582 698 800 578 471 588 694
8 690 584 698 800 574 467 582 688
8 690 584 467 574 801 699 583 689
8 693 587 701 803 577 470 585 691
8 693 587 470 577 804 702 586 692
8 695 589 702 804 579 472 586 692
8 695 589 472 579 805 703 588 694
8 708 595 705 813 593 475 591 704
8 710 596 706 814 595 476 592 705
8 707 594 479 602 816 709 600 719
8 708 595 475 593 817 711 594 707
8 709 598 478 600 819 715 599 717
8 711 597 477 594 820 714 598 709
8 710 596 476 595 822 713 597 711
8 600 478 601 720 717 599 718 832
8 602 479 603 722 719 600 720 834
8 720 601 480 603 835 721 604 723
8 722 603 482 605 836 723 606 724
8 767 670 725 839 656 553 608 726
8 756 656 726 841 645 542 609 728
8 726 608 727 842 609 487 610 729
8 728 609 729 843 611 488 612 730
8 844 740 624 731 790 691 575 678
8 733 625 504 616 844 740 624 731
8 734 623 502 617 845 739 622 732
8 733 625 739 845 616 504 622 732
8 734 623 738 846 617 502 621 735
8 735 621 737 847 618 500 620 736
8 744 647 527 630 847 737 620 736
8 621 506 627 738 737 626 741 848
8 647 544 626 737 759 662 741 848
8 623 508 628 739 738 627 742 849
8 740 629 585 691 850 743 700 802
8 625 510 629 740 739 628 743 850
8 632 529 647 744 745 648 759 854
8 633 530 648 745 746 649 760 855
8 638 535 649 746 750 653 761 856
8 857 762 650 747 748 651 532 635
8 753 657 539 642 857 762 650 747
8 749 652 763 858 636 533 651 748
8 752 654 764 859 640 536 652 749
8 751 655 537 639 860 765 653 750
8 641 538 655 751 752 654 766 861
8 754 658 540 643 862 769 657 753
8 754 658 770 863 643 540 659 755
8 755 659 771 864 644 541 660 757
8 758 661 768 866 645 542 656 756
8 757 660 772 867 646 543 661 758
8 759 662 773 868 648 545 663 760
8 649 546 663 760 761 664 774 871
8 765 665 547 653 872 775 664 761
8 873 777 666 762 763 668 550 651
8 769 674 556 657 873 777 666 762
8 764 669 779 874 652 551 668 763
8 654 552 667 766 764 669 778 875
8 655 549 665 765 766 667 776 876
8 768 671 782 877 656 553 670 767
8 772 672 783 878 661 554 671 768
8 658 558 674 769 770 675 786 879
8 659 557 675 770 771 673 785 881
8 882 784 672 772 771 673 555 660
8 789 687 571 677 897 798 686 788
8 897 798 686 788 813 705 591 704
8 791 689 573 679 898 799 687 789
8 795 693 803 900 683 577 691 790
8 793 690 574 681 901 801 689 791
8 792 688 800 902 684 578 694 796
8 793 690 800 902 681 574 688 792
8 795 693 577 683 903 804 692 794
8 797 695 804 903 685 579 692 794
8 797 695 579 685 904 805 694 796
8 905 806 697 799 798 696 581 687
8 814 706 806 905 705 592 696 798
8 689 583 697 799 801 699 808 907
8 800 698 809 908 694 588 703 805
8 690 584 699 801 800 698 809 908
8 803 701 810 909 691 585 700 802
8 693 587 702 804 803 701 811 910
8 695 589 703 805 804 702 812 911
8 818 710 814 919 708 595 705 813
8 821 712 815 920 710 596 706 814
8 816 709 600 719 922 819 717 831
8 817 711 594 707 923 820 709 816
8 818 710 595 708 924 822 711 817
8 819 715 599 717 926 827 716 829
8 820 714 598 709 927 826 715 819
8 929 825 713 822 820 714 597 711
8 821 712 596 710 930 824 713 822
8 717 599 718 832 829 716 830 942
8 719 600 720 834 831 717 832 944
8 832 718 601 720 945 833 721 835
8 834 720 603 722 946 835 723 836
8 869 780 838 950 767 670 725 839
8 865 767 839 952 756 656 726 841
8 839 725 840 953 726 608 727 842
8 841 726 842 954 728 609 729 843
8 844 740 691 790 955 850 802 899
8 733 625 740 844 845 739 850 955
8 734 623 739 845 846 738 849 956
8 735 621 738 846 847 737 848 957
8 744 647 737 847 854 759 848 957
8 738 627 742 849 848 741 851 958
8 848 741 851 958 759 662 773 868
8 850 743 700 802 959 852 807 906
8 849 742 628 739 959 852 743 850
8 854 759 868 965 745 648 760 855
8 746 649 760 855 856 761 871 966
8 860 765 653 750 967 872 761 856
8 968 873 762 857 858 763 651 748
8 862 769 657 753 968 873 762 857
8 859 764 874 969 749 652 763 858
8 752 654 766 861 859 764 875 970
8 751 655 765 860 861 766 876 971
8 754 658 769 862 863 770 879 972
8 755 659 770 863 864 771 881 974
8 976 882 772 867 864 771 660 757
8 866 768 877 977 756 656 767 865
8 867 772 878 978 758 661 768 866
8 760 663 773 868 871 774 883 980
8 870 781 837 948 982 890 780 869
8 982 890 780 869 877 782 670 767
8 761 664 774 871 872 775 884 984
8 876 776 665 765 985 885 775 872
8 873 777 668 763 986 887 779 874
8 769 674 777 873 879 786 887 986
8 764 669 778 875 874 779 888 987
8 766 667 776 876 875 778 886 988
8 878 783 892 989 768 671 782 877
8 878 783 672 772 990 893 784 882
8 880 787 675 770 991 896 786 879
8 880 787 895 992 770 675 785 881
8 881 785 894 993 771 673 784 882
8 1006 905 799 898 897 798 687 789
8 919 814 905 1006 813 705 798 897
8 791 689 799 898 901 801 907 1007
8 900 803 909 1009 790 691 802 899
8 795 693 804 903 900 803 910 1010
8 902 800 908 1011 796 694 805 904
8 793 690 801 901 902 800 908 1011
8 797 695 805 904 903 804 911 1012
8 799 697 806 905 907 808 912 1013
8 920 815 912 1013 814 706 806 905
8 802 700 810 909 906 807 913 1014
8 801 699 808 907 908 809 914 1015
8 805 703 809 908 911 812 915 1016
8 803 701 811 910 909 810 916 1017
8 911 812 917 1018 804 702 811 910
8 925 821 920 1030 818 710 814 919
8 928 823 921 1031 821 712 815 920
8 922 819 717 831 1033 926 829 941
8 923 820 709 816 1034 927 819 922
8 1035 929 822 924 923 820 711 817
8 925 821 710 818 1036 930 822 924
8 1038 933 825 929 927 826 714 820
8 926 827 716 829 1039 935 828 939
8 927 826 715 819 1040 934 827 926
8 928 823 712 821 1041 931 824 930
8 1042 932 824 930 929 825 713 822
8 829 716 830 942 939 828 940 1058
8 831 717 832 944 941 829 942 1060
8 942 830 718 832 1061 943 833 945
8 944 832 720 834 1062 945 835 946
8 981 889 947 1064 870 781 837 948
8 948 837 949 1067 869 780 838 950
8 975 869 950 1069 865 767 839 952
8 950 838 951 1070 839 725 840 953
8 952 839 953 1071 841 726 842 954
8 955 850 802 899 1072 959 906 1008
8 956 849 739 845 1072 959 850 955
8 846 738 849 956 957 848 958 1073
8 957 848 958 1073 854 759 868 965
8 849 742 852 959 958 851 961 1076
8 960 853 961 1076 906 807 852 959
8 958 851 961 1076 868 773 883 980
8 960 853 807 906 1077 963 913 1014
8 855 760 868 965 966 871 980 1085
8 856 761 871 966 967 872 984 1086
8 971 876 765 860 1087 985 872 967
8 968 873 763 858 1088 986 874 969
8 862 769 873 968 972 879 986 1088
8 859 764 875 970 969 874 987 1089
8 861 766 876 971 970 875 988 1090
8 973 880 770 863 1091 991 879 972
8 973 880 992 1092 863 770 881 974
8 974 881 993 1093 864 771 882 976
8 979 870 948 1066 1094 982 869 975
8 1094 982 869 975 977 877 767 865
8 978 878 772 867 1095 990 882 976
8 978 878 989 1096 866 768 877 977
8 871 774 883 980 984 884 994 1099
8 983 891 999 1100 870 781 889 981
8 1101 1000 890 982 989 892 782 877
8 983 891 781 870 1101 1000 890 982
8 872 775 884 984 985 885 995 1103
8 876 776 885 985 988 886 996 1104
8 986 887 779 874 1105 998 888 987
8 879 786 887 986 991 896 998 1105
8 875 778 886 988 987 888 997 1106
8 990 893 1002 1107 878 783 892 989
8 1108 1003 893 990 993 894 784 882
8 880 787 896 991 992 895 1005 1109
8 993 894 785 881 1110 1004 895 992
8 898 799 905 1006 1007 907 1013 1120
8 1030 920 1013 1120 919 814 905 1006
8 901 801 907 1007 1011 908 1015 1121
8 899 802 909 1009 1008 906 1014 1122
8 900 803 910 1010 1009 909 1017 1123
8 1012 911 1018 1124 903 804 910 1010
8 904 805 908 1011 1012 911 1016 1125
8 1013 912 1020 1127 907 808 914 1015
8 1031 921 1020 1127 920 815 912 1013
8 1019 918 962 1075 1128 1021 913 1014
8 1128 1021 913 1014 1017 916 810 909
8 1015 914 1022 1129 908 809 915 1016
8 1016 915 1023 1130 911 812 917 1018
8 1018 917 1024 1131 910 811 916 1017
8 1037 928 1031 1148 925 821 920 1030
8 928 823 931 1041 1031 921 1032 1149
8 1033 926 829 941 1151 1039 939 1057
8 1034 927 819 922 1152 1040 926 1033
8 1153 1038 929 1035 1034 927 820 923
8 1154 1042 930 1036 1035 929 822 924
8 1037 928 821 925 1155 1041 930 1036
8 1039 935 828 939 1156 1047 938 1055
8 1157 1043 932 1042 1038 933 825 929
8 1038 933 826 927 1158 1045 934 1040
8 1040 934 827 926 1159 1046 935 1039
8 930 824 932 1042 1041 931 1044 1160
8 1051 936 1048 1165 1175 1052 937 1053
8 1156 1047 938 1055 1053 937 1054 1178
8 939 828 940 1058 1055 938 1056 1181
8 941 829 942 1060 1057 939 1058 1183
8 942 830 943 1061 1058 940 1059 1184
8 1060 942 832 944 1185 1061 945 1062
8 1082 964 1063 1188 981 889 947 1064
8 1097 981 1064 1190 979 870 948 1066
8 1064 947 1065 1191 948 837 949 1067
8 1066 948 1067 1193 975 869 950 1069
8 1067 949 1068 1194 950 838 951 1070
8 1069 950 1070 1195 952 839 953 1071
8 956 849 959 1072 1073 958 1076 1197
8 1074 960 1076 1197 1008 906 959 1072
8 1073 958 1076 1197 965 868 980 1085
8 1074 960 906 1008 1198 1077 1014 1122
8 1133 1026 1079 1199 1019 918 962 1075
8 1077 963 913 1014 1200 1080 962 1075
8 960 853 963 1077 1076 961 1078 1201
8 980 883 961 1076 1099 994 1078 1201
8 1210 1083 964 1082 1100 999 889 981
8 966 871 980 1085 1086 984 1099 1215
8 967 872 984 1086 1087 985 1103 1216
8 971 876 985 1087 1090 988 1104 1217
8 1088 986 874 969 1218 1105 987 1089
8 972 879 986 1088 1091 991 1105 1218
8 970 875 988 1090 1089 987 1106 1219
8 973 880 991 1091 1092 992 1109 1220
8 1093 993 881 974 1221 1110 992 1092
8 1222 1108 990 1095 1093 993 882 976
8 1223 1101 982 1094 1096 989 877 977
8 1098 983 870 979 1223 1101 982 1094
8 1095 990 1107 1224 978 878 989 1096
8 1098 983 1100 1225 979 870 981 1097
8 984 884 994 1099 1103 995 1111 1227
8 1102 1001 1115 1228 983 891 999 1100
8 1101 1000 892 989 1229 1116 1002 1107
8 1102 1001 891 983 1229 1116 1000 1101
8 985 885 995 1103 1104 996 1112 1230
8 988 886 996 1104 1106 997 1113 1231
8 1105 998 888 987 1232 1114 997 1106
8 991 896 998 1105 1109 1005 1114 1232
8 1108 1003 1117 1233 990 893 1002 1107
8 1108 1003 894 993 1233 1117 1004 1110
8 992 895 1005 1109 1110 1004 1118 1234
8 1120 1013 1127 1244 1007 907 1015 1121
8 1148 1031 1127 1244 1030 920 1013 1120
8 1121 1015 1129 1245 1011 908 1016 1125
8 1126 1019 1075 1196 1246 1128 1014 1122
8 1246 1128 1014 1122 1123 1017 909 1009
8 1124 1018 1131 1247 1010 910 1017 1123
8 1125 1016 1130 1248 1012 911 1018 1124
8 1127 1020 1137 1254 1015 914 1022 1129
8 1031 921 1032 1149 1127 1020 1137 1254
8 1134 1027 918 1019 1257 1140 1021 1128
8 1257 1140 1021 1128 1131 1024 916 1017
8 1129 1022 1141 1258 1016 915 1023 1130
8 1130 1023 1142 1259 1018 917 1024 1131
8 1261 1144 1025 1132 1133 1026 1079 1199
8 1255 1138 1025 1132 1135 1028 1144 1261
8 1133 1026 918 1019 1262 1145 1027 1134
8 1136 1029 1139 1256 1263 1146 1028 1135
8 1037 928 1041 1155 1148 1031 1149 1275
8 1041 931 1044 1160 1149 1032 1150 1276
8 1151 1039 939 1057 1278 1156 1055 1180
8 1152 1040 926 1033 1279 1159 1039 1151
8 1153 1038 927 1034 1280 1158 1040 1152
8 1281 1157 1042 1154 1153 1038 929 1035
8 1036 930 1042 1154 1155 1041 1160 1282
8 1283 1164 1046 1159 1156 1047 935 1039
8 1165 1048 1164 1283 1053 937 1047 1156
8 1157 1043 933 1038 1284 1161 1045 1158
8 1157 1043 1161 1284 1042 932 1044 1160
8 1040 934 1046 1159 1158 1045 1163 1285
8 1166 1049 1167 1292 1051 936 1048 1165
8 1166 1049 936 1051 1293 1168 1050 1172
8 1051 936 1052 1175 1172 1050 1173 1306
8 1174 1051 1165 1290 1308 1175 1053 1177
8 1053 937 1054 1178 1175 1052 1176 1309
8 1278 1156 1055 1180 1177 1053 1178 1311
8 1055 938 1056 1181 1178 1054 1179 1312
8 1057 939 1058 1183 1180 1055 1181 1314
8 1058 940 1059 1184 1181 1056 1182 1315
8 1060 942 1061 1185 1183 1058 1184 1316
8 1208 1081 1187 1321 1082 964 1063 1188
8 1209 1082 1188 1322 1097 981 1064 1190
8 1188 1063 1189 1323 1064 947 1065 1191
8 1190 1064 1191 1325 1066 948 1067 1193
8 1191 1065 1192 1326 1067 949 1068 1194
8 1067 1193 1069 950 1194 1327 1195 1070
8 1250 1133 1199 1330 1126 1019 1075 1196
8 1198 1077 1014 1122 1331 1200 1075 1196
8 1074 960 1077 1198 1197 1076 1201 1332
8 1085 980 1076 1197 1215 1099 1201 1332
8 1199 1079 1203 1333 1075 962 1080 1200
8 1132 1025 1119 1243 1199 1079 1203 1333
8 1201 1078 963 1077 1334 1202 1080 1200
8 1099 994 1078 1201 1227 1111 1202 1334
8 1343 1207 1081 1208 1210 1083 964 1082
8 1214 1084 1186 1319 1343 1207 1081 1208
8 1345 1210 1082 1209 1225 1100 981 1097
8 1346 1211 1083 1210 1228 1115 999 1100
8 1086 984 1099 1215 1216 1103 1227 1352
8 1087 985 1103 1216 1217 1104 1230 1353
8 1090 988 1104 1217 1219 1106 1231 1354
8 1218 1105 987 1089 1355 1232 1106 1219
8 1091 991 1105 1218 1220 1109 1232 1355
8 1092 992 1109 1220 1221 1110 1234 1356
8 1222 1108 1233 1357 1095 990 1107 1224
8 1222 1108 993 1093 1357 1233 1110 1221
8 1223 1101 989 1096 1358 1229 1107 1224
8 1226 1102 983 1098 1358 1229 1101 1223
8 1226 1102 1228 1359 1098 983 1100 1225
8 1103 995 1111 1227 1230 1112 1235 1360
8 1107 1002 1117 1233 1229 1116 1240 1362
8 1102 1001 1116 1229 1228 1115 1240 1362
8 1104 996 1112 1230 1231 1113 1236 1363
8 1364 1237 1114 1232 1231 1113 997 1106
8 1109 1005 1114 1232 1234 1118 1238 1365
8 1110 1004 1118 1234 1233 1117 1241 1366
8 1242 1374 1255 1138 1119 1243 1132 1025
8 1244 1127 1254 1376 1121 1015 1129 1245
8 1148 1031 1149 1275 1244 1127 1254 1376
8 1245 1129 1258 1377 1125 1016 1130 1248
8 1251 1134 1019 1126 1378 1257 1128 1246
8 1378 1257 1128 1246 1247 1131 1017 1123
8 1248 1130 1259 1379 1124 1018 1131 1247
8 1261 1381 1250 1133 1132 1249 1330 1199
8 1255 1380 1252 1135 1132 1249 1381 1261
8 1250 1133 1019 1126 1382 1262 1134 1251
8 1253 1136 1256 1385 1384 1263 1135 1252
8 1254 1137 1265 1387 1129 1022 1141 1258
8 1149 1032 1150 1276 1254 1137 1265 1387
8 1028 1135 1255 1138 1139 1256 1388 1266
8 1136 1029 1147 1264 1256 1139 1267 1389
8 1390 1268 1140 1257 1259 1142 1024 1131
8 1260 1143 1027 1134 1390 1268 1140 1257
8 1258 1141 1269 1391 1130 1023 1142 1259
8 1262 1145 1027 1134 1393 1271 1143 1260
8 1261 1144 1026 1133 1394 1272 1145 1262
8 1135 1028 1144 1261 1263 1146 1272 1394
8 1136 1029 1146 1263 1264 1147 1273 1395
8 1155 1041 1160 1282 1275 1149 1276 1405
8 1276 1150 1044 1160 1406 1277 1162 1286
8 1408 1283 1159 1279 1278 1156 1039 1151
8 1290 1165 1283 1408 1177 1053 1156 1278
8 1152 1040 1159 1279 1280 1158 1285 1409
8 1281 1157 1038 1153 1410 1284 1158 1280
8 1281 1157 1284 1410 1154 1042 1160 1282
8 1159 1046 1164 1283 1285 1163 1289 1412
8 1292 1167 1289 1412 1165 1048 1164 1283
8 1158 1045 1163 1285 1284 1161 1288 1413
8 1284 1161 1288 1413 1160 1044 1162 1286
8 1291 1166 1292 1418 1174 1051 1165 1290
8 1291 1166 1051 1174 1419 1293 1172 1305
8 1294 1169 1296 1421 1166 1049 1167 1292
8 1293 1168 1050 1172 1422 1295 1171 1303
8 1294 1169 1049 1166 1423 1297 1168 1293
8 1422 1295 1171 1303 1301 1170 1302 1435
8 1172 1050 1173 1306 1303 1171 1304 1438
8 1174 1051 1175 1308 1305 1172 1306 1440
8 1175 1052 1176 1309 1306 1173 1307 1441
8 1177 1053 1178 1311 1308 1175 1309 1443
8 1178 1054 1179 1312 1309 1176 1310 1444
8 1180 1055 1181 1314 1311 1178 1312 1446
8 1056 1181 1312 1179 1182 1315 1447 1313
8 1183 1058 1184 1316 1314 1181 1315 1448
8 1319 1186 1084 1214 1451 1317 1213 1350
8 1319 1186 1318 1453 1208 1081 1187 1321
8 1321 1187 1320 1456 1188 1063 1189 1323
8 1344 1208 1321 1457 1209 1082 1188 1322
8 1322 1188 1323 1458 1190 1064 1191 1325
8 1323 1189 1324 1459 1191 1065 1192 1326
8 1191 1325 1193 1067 1326 1460 1327 1194
8 1242 1374 1243 1119 1328 1462 1335 1204
8 1330 1199 1333 1465 1196 1075 1200 1331
8 1132 1249 1330 1199 1243 1375 1465 1333
8 1332 1201 1077 1198 1466 1334 1200 1331
8 1215 1099 1201 1332 1352 1227 1334 1466
8 1119 1243 1333 1203 1204 1335 1470 1338
8 1333 1203 1338 1470 1200 1080 1202 1334
8 1227 1111 1202 1334 1360 1235 1338 1470
8 1328 1462 1335 1204 1205 1336 1471 1339
8 1337 1206 1340 1472 1464 1329 1205 1336
8 1346 1211 1342 1479 1210 1083 1207 1343
8 1346 1211 1115 1228 1479 1342 1239 1361
8 1348 1212 1084 1214 1479 1342 1207 1343
8 1480 1343 1208 1344 1345 1210 1082 1209
8 1351 1214 1319 1454 1480 1343 1208 1344
8 1481 1346 1210 1345 1359 1228 1100 1225
8 1348 1212 1347 1483 1214 1084 1213 1350
8 1216 1103 1227 1352 1353 1230 1360 1488
8 1217 1104 1230 1353 1354 1231 1363 1489
8 1490 1364 1232 1355 1354 1231 1106 1219
8 1220 1109 1232 1355 1356 1234 1365 1491
8 1221 1110 1234 1356 1357 1233 1366 1492
8 1224 1107 1233 1357 1358 1229 1362 1493
8 1226 1102 1229 1358 1359 1228 1362 1493
8 1230 1112 1235 1360 1363 1236 1367 1496
8 1361 1239 1115 1228 1497 1371 1240 1362
8 1366 1241 1372 1498 1233 1117 1240 1362
8 1364 1237 1113 1231 1499 1368 1236 1363
8 1364 1237 1368 1499 1232 1114 1238 1365
8 1234 1118 1238 1365 1366 1241 1369 1500
8 1507 1373 1242 1374 1388 1266 1138 1255
8 1508 1374 1243 1375 1380 1255 1132 1249
8 1376 1254 1387 1509 1245 1129 1258 1377
8 1275 1149 1276 1405 1376 1254 1387 1509
8 1377 1258 1391 1510 1248 1130 1259 1379
8 1511 1390 1257 1378 1379 1259 1131 1247
8 1383 1260 1134 1251 1511 1390 1257 1378
8 1252 1135 1256 1385 1380 1255 1388 1512
8 1261 1381 1513 1394 1133 1250 1382 1262
8 1135 1252 1384 1263 1261 1381 1513 1394
8 1382 1262 1134 1251 1514 1393 1260 1383
8 1253 1136 1263 1384 1386 1264 1395 1516
8 1253 1136 1264 1386 1385 1256 1389 1517
8 1387 1265 1397 1519 1258 1141 1269 1391
8 1276 1150 1277 1406 1387 1265 1397 1519
8 1256 1139 1267 1389 1388 1266 1398 1520
8 1264 1147 1274 1396 1389 1267 1399 1521
8 1392 1270 1143 1260 1522 1400 1268 1390
8 1390 1268 1142 1259 1522 1400 1269 1391
8 1392 1270 1401 1523 1260 1143 1271 1393
8 1272 1394 1524 1402 1145 1262 1393 1271
8 1395 1273 1146 1263 1524 1402 1272 1394
8 1273 1395 1264 1147 1403 1526 1396 1274
8 1405 1276 1160 1282 1534 1406 1286 1411
8 1414 1287 1407 1535 1286 1162 1277 1406
8 1279 1159 1283 1408 1409 1285 1412 1537
8 1418 1292 1412 1537 1290 1165 1283 1408
8 1280 1158 1285 1409 1410 1284 1413 1538
8 1410 1284 1413 1538 1282 1160 1286 1411
8 1285 1163 1289 1412 1413 1288 1417 1540
8 1421 1296 1417 1540 1292 1167 1289 1412
8 1414 1287 1162 1286 1541 1416 1288 1413
8 1420 1294 1421 1545 1291 1166 1292 1418
8 1419 1293 1172 1305 1546 1422 1303 1437
8 1420 1294 1166 1291 1547 1423 1293 1419
8 1294 1169 1297 1423 1421 1296 1425 1548
8 1423 1297 1168 1293 1549 1424 1295 1422
8 1301 1170 1298 1427 1422 1295 1424 1549
8 1432 1300 1428 1554 1301 1170 1298 1427
8 1431 1299 1428 1554 1560 1430 1300 1432
8 1563 1433 1300 1432 1435 1302 1170 1301
8 1546 1422 1303 1437 1434 1301 1435 1565
8 1303 1171 1304 1438 1435 1302 1436 1566
8 1305 1172 1306 1440 1437 1303 1438 1568
8 1306 1173 1307 1441 1438 1304 1439 1569
8 1308 1175 1309 1443 1440 1306 1441 1571
8 1309 1176 1310 1444 1441 1307 1442 1572
8 1311 1178 1312 1446 1443 1309 1444 1574
8 1179 1312 1444 1310 1313 1447 1575 1445
8 1314 1181 1315 1448 1446 1312 1447 1576
8 1350 1213 1349 1486 1451 1317 1449 1579
8 1451 1317 1450 1581 1319 1186 1318 1453
8 1454 1319 1214 1351 1582 1451 1350 1487
8 1453 1318 1452 1584 1321 1187 1320 1456
8 1454 1319 1453 1585 1344 1208 1321 1457
8 1456 1320 1455 1586 1323 1189 1324 1459
8 1457 1321 1456 1587 1322 1188 1323 1458
8 1458 1323 1459 1588 1325 1191 1326 1460
8 1205 1336 1464 1329 1328 1462 1590 1461
8 1507 1373 1461 1590 1374 1242 1328 1462
8 1508 1374 1462 1591 1375 1243 1335 1467
8 1337 1206 1329 1464 1473 1341 1463 1594
8 1375 1243 1335 1467 1465 1333 1470 1596
8 1465 1333 1470 1596 1331 1200 1334 1466
8 1352 1227 1334 1466 1488 1360 1470 1596
8 1591 1462 1336 1468 1467 1335 1471 1597
8 1469 1337 1472 1598 1595 1464 1336 1468
8 1471 1339 1474 1600 1335 1204 1338 1470
8 1600 1474 1367 1496 1470 1338 1235 1360
8 1336 1205 1340 1472 1471 1339 1475 1601
8 1337 1206 1341 1473 1472 1340 1476 1602
8 1495 1370 1478 1609 1361 1239 1342 1479
8 1348 1212 1342 1479 1483 1347 1478 1609
8 1481 1346 1479 1610 1345 1210 1343 1480
8 1481 1346 1228 1359 1610 1479 1361 1494
8 1484 1348 1214 1351 1610 1479 1343 1480
8 1483 1347 1482 1612 1350 1213 1349 1486
8 1484 1348 1483 1613 1351 1214 1350 1487
8 1353 1230 1360 1488 1489 1363 1496 1616
8 1490 1364 1231 1354 1617 1499 1363 1489
8 1490 1364 1499 1617 1355 1232 1365 1491
8 1356 1234 1365 1491 1492 1366 1500 1619
8 1492 1366 1498 1620 1357 1233 1362 1493
8 1494 1361 1228 1359 1621 1497 1362 1493
8 1495 1370 1239 1361 1622 1504 1371 1497
8 1363 1236 1367 1496 1499 1368 1501 1623
8 1497 1371 1240 1362 1624 1505 1372 1498
8 1625 1503 1372 1498 1500 1369 1241 1366
8 1365 1238 1368 1499 1500 1369 1502 1626
8 1520 1398 1506 1633 1388 1266 1373 1507
8 1634 1507 1374 1508 1512 1388 1255 1380
8 1509 1387 1519 1635 1377 1258 1391 1510
8 1405 1276 1406 1534 1509 1387 1519 1635
8 1515 1392 1260 1383 1636 1522 1390 1511
8 1511 1390 1259 1379 1636 1522 1391 1510
8 1385 1256 1389 1517 1512 1388 1520 1637
8 1513 1394 1262 1382 1638 1524 1393 1514
8 1395 1516 1638 1524 1263 1384 1513 1394
8 1515 1392 1523 1639 1383 1260 1393 1514
8 1516 1395 1526 1640 1386 1264 1396 1518
8 1386 1264 1396 1518 1517 1389 1521 1641
8 1519 1397 1527 1643 1391 1269 1400 1522
8 1535 1407 1527 1643 1406 1277 1397 1519
8 1389 1267 1399 1521 1520 1398 1528 1644
8 1645 1529 1399 1521 1525 1404 1274 1396
8 1392 1270 1400 1522 1523 1401 1531 1646
8 1524 1402 1271 1393 1648 1532 1401 1523
8 1403 1526 1648 1532 1273 1395 1524 1402
8 1525 1404 1274 1396 1649 1533 1403 1526
8 1539 1414 1535 1657 1411 1286 1406 1534
8 1542 1415 1536 1658 1414 1287 1407 1535
8 1409 1285 1412 1537 1538 1413 1540 1660
8 1545 1421 1540 1660 1418 1292 1412 1537
8 1539 1414 1286 1411 1661 1541 1413 1538
8 1540 1417 1544 1663 1413 1288 1416 1541
8 1421 1296 1425 1548 1540 1417 1544 1663
8 1542 1415 1287 1414 1664 1543 1416 1541
8 1420 1294 1423 1547 1545 1421 1548 1666
8 1547 1423 1293 1419 1667 1549 1422 1546
8 1434 1301 1427 1553 1546 1422 1549 1667
8 1423 1297 1424 1549 1548 1425 1550 1668
8 1551 1426 1550 1668 1427 1298 1424 1549
8 1551 1426 1298 1427 1671 1552 1428 1554
8 1562 1432 1554 1674 1434 1301 1427 1553
8 1431 1299 1429 1558 1554 1428 1555 1675
8 1431 1299 1430 1560 1558 1429 1557 1680
8 1560 1430 1300 1432 1683 1559 1433 1563
8 1561 1431 1554 1674 1684 1560 1432 1562
8 1685 1563 1432 1562 1565 1435 1301 1434
8 1435 1302 1436 1566 1563 1433 1564 1686
8 1437 1303 1438 1568 1565 1435 1566 1688
8 1438 1304 1439 1569 1566 1436 1567 1689
8 1440 1306 1441 1571 1568 1438 1569 1691
8 1441 1307 1442 1572 1569 1439 1570 1692
8 1443 1309 1444 1574 1571 1441 1572 1694
8 1310 1444 1572 1442 1445 1575 1695 1573
8 1446 1312 1447 1576 1574 1444 1575 1696
8 1486 1349 1485 1614 1579 1449 1577 1699
8 1451 1317 1449 1579 1581 1450 1578 1701
8 1487 1350 1486 1615 1582 1451 1579 1702
8 1581 1450 1580 1704 1453 1318 1452 1584
8 1582 1451 1581 1705 1454 1319 1453 1585
8 1584 1452 1583 1706 1456 1320 1455 1586
8 1585 1453 1584 1707 1457 1321 1456 1587
8 1587 1456 1586 1708 1458 1323 1459 1588
8 1633 1506 1589 1710 1507 1373 1461 1590
8 1464 1329 1461 1590 1594 1463 1589 1710
8 1468 1336 1462 1591 1595 1464 1590 1711
8 1634 1507 1590 1711 1508 1374 1462 1591
8 1473 1341 1463 1594 1603 1477 1593 1716
8 1469 1337 1464 1595 1599 1473 1594 1717
8 1471 1597 1467 1335 1600 1718 1596 1470
8 1718 1600 1496 1616 1596 1470 1360 1488
8 1336 1468 1597 1471 1472 1598 1719 1601
8 1469 1337 1473 1599 1598 1472 1602 1720
8 1722 1604 1501 1623 1600 1474 1367 1496
8 1475 1601 1471 1339 1604 1722 1600 1474
8 1602 1476 1605 1723 1472 1340 1475 1601
8 1476 1602 1724 1606 1341 1473 1603 1477
8 1483 1347 1478 1609 1612 1482 1608 1731
8 1495 1370 1504 1622 1609 1478 1608 1731
8 1618 1495 1609 1732 1494 1361 1479 1610
8 1484 1348 1479 1610 1613 1483 1609 1732
8 1486 1349 1482 1612 1614 1485 1611 1733
8 1613 1483 1612 1734 1487 1350 1486 1615
8 1489 1363 1496 1616 1617 1499 1623 1736
8 1491 1365 1499 1617 1619 1500 1626 1737
8 1618 1495 1361 1494 1738 1622 1497 1621
8 1739 1625 1498 1620 1619 1500 1366 1492
8 1621 1497 1362 1493 1740 1624 1498 1620
8 1742 1631 1504 1622 1624 1505 1371 1497
8 1743 1628 1502 1626 1623 1501 1368 1499
8 1744 1630 1505 1624 1625 1503 1372 1498
8 1745 1629 1503 1625 1626 1502 1369 1500
8 1520 1398 1528 1644 1633 1506 1632 1751
8 1637 1520 1633 1752 1512 1388 1507 1634
8 1635 1519 1643 1753 1510 1391 1522 1636
8 1657 1535 1643 1753 1534 1406 1519 1635
8 1515 1392 1522 1636 1639 1523 1646 1754
8 1517 1389 1521 1641 1637 1520 1644 1755
8 1524 1638 1756 1648 1393 1514 1639 1523
8 1640 1526 1395 1516 1756 1648 1524 1638
8 1642 1525 1396 1518 1757 1649 1526 1640
8 1758 1645 1521 1641 1642 1525 1396 1518
8 1646 1531 1400 1522 1760 1650 1527 1643
8 1535 1407 1536 1658 1643 1527 1650 1760
8 1521 1399 1529 1645 1644 1528 1651 1761
8 1647 1530 1652 1762 1525 1404 1529 1645
8 1401 1523 1648 1532 1531 1646 1763 1655
8 1525 1404 1533 1649 1647 1530 1654 1765
8 1533 1649 1766 1656 1403 1526 1648 1532
8 1662 1542 1658 1774 1539 1414 1535 1657
8 1542 1415 1543 1664 1658 1536 1659 1775
8 1660 1540 1663 1777 1538 1413 1541 1661
8 1545 1421 1548 1666 1660 1540 1663 1777
8 1662 1542 1414 1539 1778 1664 1541 1661
8 1664 1543 1416 1541 1779 1665 1544 1663
8 1548 1425 1550 1668 1663 1544 1665 1779
8 1547 1423 1549 1667 1666 1548 1668 1781
8 1670 1551 1668 1781 1553 1427 1549 1667
8 1551 1426 1552 1671 1668 1550 1669 1782
8 1670 1551 1427 1553 1784 1671 1554 1674
8 1675 1555 1672 1785 1554 1428 1552 1671
8 1678 1556 1673 1789 1558 1429 1555 1675
8 1561 1431 1558 1681 1674 1554 1675 1790
8 1794 1677 1556 1678 1680 1557 1429 1558
8 1560 1430 1559 1683 1680 1557 1679 1797
8 1561 1431 1560 1684 1681 1558 1680 1798
8 1563 1433 1564 1686 1683 1559 1682 1800
8 1684 1560 1432 1562 1801 1683 1563 1685
8 1565 1435 1566 1688 1685 1563 1686 1802
8 1566 1436 1567 1689 1686 1564 1687 1803
8 1568 1438 1569 1691 1688 1566 1689 1805
8 1569 1439 1570 1692 1689 1567 1690 1806
8 1571 1441 1572 1694 1691 1569 1692 1808
8 1442 1572 1692 1570 1573 1695 1809 1693
8 1574 1444 1575 1696 1694 1572 1695 1810
8 1614 1485 1592 1712 1699 1577 1697 1813
8 1579 1449 1577 1699 1701 1578 1698 1815
8 1615 1486 1614 1735 1702 1579 1699 1816
8 1701 1578 1700 1818 1581 1450 1580 1704
8 1582 1451 1579 1702 1705 1581 1701 1819
8 1704 1580 1703 1820 1584 1452 1583 1706
8 1705 1581 1704 1821 1585 1453 1584 1707
8 1707 1584 1706 1822 1587 1456 1586 1708
8 1710 1589 1506 1633 1824 1709 1632 1751
8 1594 1463 1589 1710 1716 1593 1709 1824
8 1752 1633 1710 1825 1634 1507 1590 1711
8 1595 1464 1590 1711 1717 1594 1710 1825
8 1830 1714 1592 1712 1733 1611 1485 1614
8 1603 1477 1593 1716 1725 1607 1715 1834
8 1599 1473 1594 1717 1721 1603 1716 1835
8 1837 1722 1623 1736 1718 1600 1496 1616
8 1719 1601 1722 1837 1597 1471 1600 1718
8 1602 1720 1598 1472 1723 1838 1719 1601
8 1720 1602 1473 1599 1839 1724 1603 1721
8 1723 1605 1726 1840 1601 1475 1604 1722
8 1840 1726 1628 1743 1722 1604 1501 1623
8 1724 1606 1727 1841 1602 1476 1605 1723
8 1725 1607 1728 1842 1603 1477 1606 1724
8 1612 1482 1608 1731 1733 1611 1730 1849
8 1741 1627 1730 1849 1622 1504 1608 1731
8 1613 1483 1609 1732 1734 1612 1731 1850
8 1618 1495 1622 1738 1732 1609 1731 1850
8 1615 1486 1612 1734 1735 1614 1733 1851
8 1852 1743 1626 1737 1736 1623 1499 1617
8 1853 1745 1625 1739 1737 1626 1500 1619
8 1855 1742 1622 1738 1740 1624 1497 1621
8 1856 1744 1624 1740 1739 1625 1498 1620
8 1741 1627 1504 1622 1857 1746 1631 1742
8 1742 1631 1505 1624 1858 1749 1630 1744
8 1859 1747 1629 1745 1743 1628 1502 1626
8 1860 1748 1630 1744 1745 1629 1503 1625
8 1644 1528 1651 1761 1751 1632 1750 1865
8 1637 1520 1644 1755 1752 1633 1751 1866
8 1754 1646 1522 1636 1867 1760 1643 1753
8 1657 1535 1658 1774 1753 1643 1760 1867
8 1639 1523 1646 1754 1756 1648 1763 1868
8 1641 1521 1645 1758 1755 1644 1761 1869
8 1757 1649 1526 1640 1870 1766 1648 1756
8 1642 1525 1649 1757 1759 1647 1765 1871
8 1759 1647 1762 1872 1642 1525 1645 1758
8 1760 1650 1767 1874 1646 1531 1655 1763
8 1658 1536 1659 1775 1760 1650 1767 1874
8 1762 1652 1768 1875 1645 1529 1651 1761
8 1764 1653 1769 1876 1647 1530 1652 1762
8 1656 1766 1877 1773 1532 1648 1763 1655
8 1771 1879 1765 1654 1653 1764 1647 1530
8 1533 1649 1765 1654 1656 1766 1880 1772
8 1662 1542 1664 1778 1774 1658 1775 1887
8 1664 1543 1665 1779 1775 1659 1776 1888
8 1778 1664 1541 1661 1890 1779 1663 1777
8 1666 1548 1668 1781 1777 1663 1779 1890
8 1782 1669 1780 1891 1668 1550 1665 1779
8 1670 1551 1671 1784 1781 1668 1782 1893
8 1671 1552 1672 1785 1782 1669 1783 1894
8 1790 1675 1785 1896 1674 1554 1671 1784
8 1675 1555 1673 1789 1785 1672 1786 1897
8 1792 1676 1788 1903 1678 1556 1673 1789
8 1795 1678 1789 1904 1681 1558 1675 1790
8 1792 1676 1556 1678 1906 1791 1677 1794
8 1680 1557 1679 1797 1794 1677 1793 1909
8 1910 1794 1678 1795 1798 1680 1558 1681
8 1683 1559 1682 1800 1797 1679 1796 1912
8 1684 1560 1683 1801 1798 1680 1797 1913
8 1686 1564 1687 1803 1800 1682 1799 1915
8 1685 1563 1686 1802 1801 1683 1800 1916
8 1688 1566 1689 1805 1802 1686 1803 1917
8 1689 1567 1690 1806 1803 1687 1804 1918
8 1691 1569 1692 1808 1805 1689 1806 1920
8 1692 1570 1693 1809 1806 1690 1807 1921
8 1694 1572 1695 1810 1808 1692 1809 1922
8 1829 1713 1811 1926 1712 1592 1697 1813
8 1813 1697 1812 1928 1699 1577 1698 1815
8 1735 1614 1712 1828 1816 1699 1813 1929
8 1815 1698 1814 1931 1701 1578 1700 1818
8 1702 1579 1699 1816 1819 1701 1815 1932
8 1818 1700 1817 1933 1704 1580 1703 1820
8 1819 1701 1818 1934 1705 1581 1704 1821
8 1821 1704 1820 1935 1707 1584 1706 1822
8 1824 1709 1632 1751 1937 1823 1750 1865
8 1716 1593 1709 1824 1834 1715 1823 1937
8 1825 1710 1633 1752 1938 1824 1751 1866
8 1717 1594 1710 1825 1835 1716 1824 1938
8 1945 1830 1712 1828 1851 1733 1614 1735
8 1830 1714 1831 1946 1712 1592 1713 1829
8 1947 1832 1714 1830 1849 1730 1611 1733
8 1843 1729 1607 1725 1950 1833 1715 1834
8 1721 1603 1716 1835 1836 1725 1834 1951
8 1836 1725 1842 1953 1721 1603 1724 1839
8 1723 1838 1719 1601 1840 1954 1837 1722
8 1954 1840 1743 1852 1837 1722 1623 1736
8 1724 1839 1720 1602 1841 1955 1838 1723
8 1841 1727 1844 1956 1723 1605 1726 1840
8 1956 1844 1747 1859 1840 1726 1628 1743
8 1728 1842 1724 1606 1845 1957 1841 1727
8 1725 1607 1729 1843 1842 1728 1846 1958
8 1741 1627 1746 1857 1849 1730 1848 1965
8 1734 1612 1731 1850 1851 1733 1849 1966
8 1854 1741 1849 1966 1738 1622 1731 1850
8 1967 1859 1745 1853 1852 1743 1626 1737
8 1968 1860 1744 1856 1853 1745 1625 1739
8 1854 1741 1622 1738 1969 1857 1742 1855
8 1855 1742 1624 1740 1970 1858 1744 1856
8 1857 1746 1631 1742 1971 1861 1749 1858
8 1858 1749 1630 1744 1972 1863 1748 1860
8 1859 1747 1862 1973 1745 1629 1748 1860
8 1875 1768 1864 1977 1761 1651 1750 1865
8 1755 1644 1761 1869 1866 1751 1865 1978
8 1867 1760 1874 1979 1754 1646 1763 1868
8 1774 1658 1775 1887 1867 1760 1874 1979
8 1870 1766 1648 1756 1980 1877 1763 1868
8 1872 1762 1875 1981 1758 1645 1761 1869
8 1757 1649 1766 1870 1871 1765 1880 1982
8 1983 1879 1764 1873 1871 1765 1647 1759
8 1873 1764 1876 1984 1759 1647 1762 1872
8 1877 1773 1655 1763 1986 1881 1767 1874
8 1775 1659 1776 1888 1874 1767 1881 1986
8 1876 1769 1882 1987 1762 1652 1768 1875
8 1878 1770 1883 1988 1764 1653 1769 1876
8 1880 1772 1656 1766 1989 1886 1773 1877
8 1878 1770 1653 1764 1990 1884 1771 1879
8 1765 1654 1772 1880 1879 1771 1885 1991
8 1778 1664 1779 1890 1887 1775 1888 1997
8 1998 1889 1776 1888 1891 1780 1665 1779
8 1893 1782 1891 2000 1781 1668 1779 1890
8 1894 1783 1892 2001 1782 1669 1780 1891
8 1784 1671 1785 1896 1893 1782 1894 2003
8 1897 1786 1895 2004 1785 1672 1783 1894
8 1790 1675 1789 1904 1896 1785 1897 2006
8 1901 1787 1898 2007 1789 1673 1786 1897
8 1903 1788 1900 2013 1789 1673 1787 1901
8 1792 1676 1791 1906 1903 1788 1902 2016
8 1907 1792 1903 2017 1795 1678 1789 1904
8 1906 1791 1677 1794 2019 1905 1793 1909
8 1907 1792 1678 1795 2020 1906 1794 1910
8 1797 1679 1796 1912 1909 1793 1908 2022
8 1798 1680 1797 1913 1910 1794 1909 2023
8 1800 1682 1799 1915 1912 1796 1911 2025
8 1801 1683 1800 1916 1913 1797 1912 2026
8 1803 1687 1804 1918 1915 1799 1914 2028
8 1802 1686 1803 1917 1916 1800 1915 2029
8 1805 1689 1806 1920 1917 1803 1918 2030
8 1806 1690 1807 1921 1918 1804 1919 2031
8 1808 1692 1809 1922 1920 1806 1921 2032
8 1939 1826 1924 2037 1829 1713 1811 1926
8 1926 1811 1925 2039 1813 1697 1812 1928
8 1944 1829 1926 2040 1828 1712 1813 1929
8 1928 1812 1927 2042 1815 1698 1814 1931
8 1929 1813 1928 2043 1816 1699 1815 1932
8 1931 1814 1930 2044 1818 1700 1817 1933
8 1932 1815 1931 2045 1819 1701 1818 1934
8 1934 1818 1933 2046 1821 1704 1820 1935
8 2048 1936 1823 1937 1977 1864 1750 1865
8 1950 1833 1715 1834 2048 1936 1823 1937
8 1938 1824 1751 1866 2049 1937 1865 1978
8 1835 1716 1824 1938 1951 1834 1937 2049
8 1939 1826 1713 1829 2053 1942 1831 1946
8 1940 1827 1923 2035 2053 1942 1826 1939
8 1945 1830 1946 2058 1828 1712 1829 1944
8 2059 1947 1830 1945 1966 1849 1733 1851
8 1947 1832 1730 1849 2060 1948 1848 1965
8 1947 1832 1948 2060 1830 1714 1831 1946
8 1959 1847 1729 1843 2063 1949 1833 1950
8 1952 1843 1725 1836 2064 1950 1834 1951
8 1836 1725 1843 1952 1953 1842 1958 2066
8 1953 1842 1957 2067 1839 1724 1841 1955
8 1841 1955 1838 1723 1956 2068 1954 1840
8 2068 1956 1859 1967 1954 1840 1743 1852
8 1956 1844 1960 2069 1859 1747 1862 1973
8 1845 1957 1841 1727 1960 2069 1956 1844
8 1728 1842 1957 1845 1846 1958 2071 1961
8 1962 2072 1959 1847 1846 1958 1843 1729
8 1971 1861 1964 2077 1857 1746 1848 1965
8 1854 1741 1857 1969 1966 1849 1965 2078
8 1967 1859 1973 2079 1853 1745 1860 1968
8 1970 1858 1744 1856 2080 1972 1860 1968
8 1969 1857 1742 1855 2081 1971 1858 1970
8 1971 1861 1749 1858 2082 1974 1863 1972
8 1973 1862 1975 2083 1860 1748 1863 1972
8 1987 1882 1976 2086 1875 1768 1864 1977
8 1981 1875 1977 2087 1869 1761 1865 1978
8 1980 1877 1763 1868 2088 1986 1874 1979
8 1887 1775 1888 1997 1979 1874 1986 2088
8 1880 1982 2089 1989 1766 1870 1980 1877
8 1984 1876 1987 2090 1872 1762 1875 1981
8 1765 1871 1983 1879 1880 1982 2091 1991
8 1985 1878 1764 1873 2092 1990 1879 1983
8 1985 1878 1988 2093 1873 1764 1876 1984
8 2094 1992 1881 1986 1998 1889 1776 1888
8 1986 1881 1992 2094 1877 1773 1886 1989
8 1988 1883 1993 2095 1876 1769 1882 1987
8 1878 1770 1884 1990 1988 1883 1994 2096
8 1991 1885 1772 1880 2097 1996 1886 1989
8 1879 1771 1885 1991 1990 1884 1995 2098
8 2103 1998 1888 1997 2000 1891 1779 1890
8 2104 1999 1889 1998 2001 1892 1780 1891
8 2003 1894 2001 2106 1893 1782 1891 2000
8 2004 1895 2002 2107 1894 1783 1892 2001
8 2006 1897 2004 2109 1896 1785 1894 2003
8 2007 1898 2005 2110 1897 1786 1895 2004
8 2014 1901 2007 2112 1904 1789 1897 2006
8 2011 1899 2008 2113 1901 1787 1898 2007
8 2119 2010 1899 2011 2013 1900 1787 1901
8 2016 1902 2012 2122 1903 1788 1900 2013
8 2017 1903 2013 2123 1904 1789 1901 2014
8 1906 1791 1905 2019 2016 1902 2015 2125
8 1907 1792 1906 2020 2017 1903 2016 2126
8 1909 1793 1908 2022 2019 1905 2018 2128
8 2020 1906 1794 1910 2129 2019 1909 2023
8 1912 1796 1911 2025 2022 1908 2021 2131
8 1913 1797 1912 2026 2023 1909 2022 2132
8 1915 1799 1914 2028 2025 1911 2024 2134
8 1916 1800 1915 2029 2026 1912 2025 2135
8 1918 1804 1919 2031 2028 1914 2027 2136
8 1917 1803 1918 2030 2029 1915 2028 2137
8 1920 1806 1921 2032 2030 1918 2031 2138
8 1940 1827 1941 2054 2035 1923 2033 2140
8 2035 1923 2034 2143 1939 1826 1924 2037
8 2037 1924 2036 2146 1926 1811 1925 2039
8 2051 1939 2037 2147 1944 1829 1926 2040
8 2039 1925 2038 2149 1928 1812 1927 2042
8 2040 1926 2039 2150 1929 1813 1928 2043
8 2042 1927 2041 2151 1931 1814 1930 2044
8 2043 1928 2042 2152 1932 1815 1931 2045
8 2045 1931 2044 2153 1934 1818 1933 2046
8 2155 2047 1936 2048 2086 1976 1864 1977
8 2063 1949 1833 1950 2155 2047 1936 2048
8 2156 2048 1937 2049 2087 1977 1865 1978
8 2064 1950 1834 1951 2156 2048 1937 2049
8 2051 1939 1829 1944 2160 2053 1946 2058
8 2052 1940 2035 2144 2160 2053 1939 2051
8 2053 1942 1831 1946 2163 2057 1948 2060
8 2055 1943 1827 1940 2163 2057 1942 2053
8 2055 1943 2056 2164 1940 1827 1941 2054
8 2059 1947 1849 1966 2167 2060 1965 2078
8 2059 1947 2060 2167 1945 1830 1946 2058
8 2077 1964 2061 2168 1965 1848 1948 2060
8 2070 1963 1847 1959 2170 2062 1949 2063
8 2065 1959 1843 1952 2171 2063 1950 2064
8 2173 2072 1958 2066 2065 1959 1843 1952
8 1953 1842 1958 2066 2067 1957 2071 2174
8 2068 1956 2069 2175 1967 1859 1973 2079
8 2067 1957 2069 2175 1955 1841 1956 2068
8 1845 1957 2069 1960 1961 2071 2176 2073
8 2069 1960 2073 2176 1973 1862 1975 2083
8 2070 1963 2075 2177 1959 1847 1962 2072
8 1846 1958 2071 1961 1962 2072 2178 2074
8 2077 1964 1861 1971 2182 2076 1974 2082
8 2081 1971 2077 2183 1969 1857 1965 2078
8 2079 1973 2083 2184 1968 1860 1972 2080
8 2081 1971 1858 1970 2185 2082 1972 2080
8 2083 1975 2084 2186 1972 1863 1974 2082
8 2086 1976 1882 1987 2189 2085 1993 2095
8 2090 1987 2086 2190 1981 1875 1977 2087
8 2191 2094 1986 2088 2103 1998 1888 1997
8 2088 1986 2094 2191 1980 1877 1989 2089
8 1991 2091 2192 2097 1880 1982 2089 1989
8 2093 1988 2095 2193 1984 1876 1987 2090
8 1879 1983 2092 1990 1991 2091 2194 2098
8 1985 1878 1990 2092 2093 1988 2096 2195
8 2097 1996 1886 1989 2196 2099 1992 2094
8 2196 2099 1992 2094 2104 1999 1889 1998
8 1994 2096 1988 1883 2100 2197 2095 1993
8 2096 1994 1884 1990 2198 2101 1995 2098
8 1995 2098 2199 2102 1885 1991 2097 1996
8 2203 2104 1998 2103 2106 2001 1891 2000
8 2107 2002 2105 2204 2001 1892 1999 2104
8 2109 2004 2107 2206 2003 1894 2001 2106
8 2110 2005 2108 2207 2004 1895 2002 2107
8 2112 2007 2110 2209 2006 1897 2004 2109
8 2113 2008 2111 2210 2007 1898 2005 2110
8 2120 2011 2113 2212 2014 1901 2007 2112
8 2117 2009 2114 2213 2011 1899 2008 2113
8 2219 2116 2009 2117 2119 2010 1899 2011
8 2222 2118 2010 2119 2122 2012 1900 2013
8 2223 2119 2011 2120 2123 2013 1901 2014
8 2016 1902 2015 2125 2122 2012 2121 2225
8 2126 2016 2122 2226 2017 1903 2013 2123
8 2019 1905 2018 2128 2125 2015 2124 2228
8 2020 1906 2019 2129 2126 2016 2125 2229
8 2022 1908 2021 2131 2128 2018 2127 2231
8 2023 1909 2022 2132 2129 2019 2128 2232
8 2025 1911 2024 2134 2131 2021 2130 2234
8 2026 1912 2025 2135 2132 2022 2131 2235
8 1914 2028 2134 2024 2027 2136 2236 2133
8 2029 1915 2028 2137 2135 2025 2134 2237
8 2030 1918 2031 2138 2137 2028 2136 2238
8 2157 2050 2139 2240 2054 1941 2033 2140
8 2052 1940 2054 2161 2144 2035 2140 2242
8 2140 2033 2141 2243 2035 1923 2034 2143
8 2143 2034 2142 2246 2037 1924 2036 2146
8 2144 2035 2143 2247 2051 1939 2037 2147
8 2146 2036 2145 2249 2039 1925 2038 2149
8 2147 2037 2146 2250 2040 1926 2039 2150
8 2149 2038 2148 2251 2042 1927 2041 2151
8 2150 2039 2149 2252 2043 1928 2042 2152
8 2152 2042 2151 2253 2045 1931 2044 2153
8 2255 2154 2047 2155 2189 2085 1976 2086
8 2170 2062 1949 2063 2255 2154 2047 2155
8 2256 2155 2048 2156 2190 2086 1977 2087
8 2171 2063 1950 2064 2256 2155 2048 2156
8 2258 2159 2050 2157 2164 2056 1941 2054
8 2160 2053 1946 2058 2262 2163 2060 2167
8 2162 2055 1940 2052 2262 2163 2053 2160
8 2162 2055 2164 2263 2052 1940 2054 2161
8 2163 2057 1948 2060 2264 2165 2061 2168
8 2055 1943 2057 2163 2164 2056 2165 2264
8 2182 2076 2166 2268 2077 1964 2061 2168
8 2183 2077 2168 2269 2078 1965 2060 2167
8 2070 1963 2062 2170 2177 2075 2169 2271
8 2172 2070 1959 2065 2272 2170 2063 2171
8 2172 2070 2177 2273 2065 1959 2072 2173
8 2066 1958 2072 2173 2174 2071 2178 2274
8 2067 1957 2071 2174 2175 2069 2176 2275
8 2175 2069 2176 2275 2079 1973 2083 2184
8 2071 1961 2074 2178 2176 2073 2179 2276
8 2176 2073 2179 2276 2083 1975 2084 2186
8 2072 1962 2075 2177 2178 2074 2180 2277
8 2182 2076 1974 2082 2280 2181 2084 2186
8 2183 2077 1971 2081 2281 2182 2082 2185
8 2184 2083 2186 2282 2080 1972 2082 2185
8 2189 2085 1993 2095 2285 2188 2100 2197
8 2190 2086 1987 2090 2286 2189 2095 2193
8 2192 2097 1989 2089 2287 2196 2094 2191
8 2287 2196 2094 2191 2203 2104 1998 2103
8 2194 2098 1991 2091 2288 2199 2097 2192
8 2195 2096 2197 2289 2093 1988 2095 2193
8 2096 2195 2290 2198 1990 2092 2194 2098
8 2097 1996 2099 2196 2199 2102 2200 2291
8 2196 2099 1999 2104 2291 2200 2105 2204
8 2100 2197 2292 2201 1994 2096 2198 2101
8 1995 2098 2198 2101 2102 2199 2293 2202
8 2206 2107 2204 2296 2106 2001 2104 2203
8 2207 2108 2205 2297 2107 2002 2105 2204
8 2209 2110 2207 2299 2109 2004 2107 2206
8 2210 2111 2208 2300 2110 2005 2108 2207
8 2212 2113 2210 2302 2112 2007 2110 2209
8 2213 2114 2211 2303 2113 2008 2111 2210
8 2220 2117 2213 2305 2120 2011 2113 2212
8 2216 2115 2214 2306 2117 2009 2114 2213
8 2216 2115 2009 2117 2311 2217 2116 2219
8 2219 2116 2010 2119 2314 2218 2118 2222
8 2315 2219 2117 2220 2223 2119 2011 2120
8 2122 2012 2121 2225 2222 2118 2221 2317
8 2318 2222 2119 2223 2226 2122 2013 2123
8 2125 2015 2124 2228 2225 2121 2224 2320
8 2126 2016 2125 2229 2226 2122 2225 2321
8 2128 2018 2127 2231 2228 2124 2227 2323
8 2129 2019 2128 2232 2229 2125 2228 2324
8 2131 2021 2130 2234 2231 2127 2230 2326
8 2132 2022 2131 2235 2232 2128 2231 2327
8 2134 2024 2133 2236 2234 2130 2233 2328
8 2135 2025 2134 2237 2235 2131 2234 2329
8 2137 2028 2136 2238 2237 2134 2236 2330
8 2157 2050 2158 2259 2240 2139 2239 2332
8 2257 2157 2240 2334 2161 2054 2140 2242
8 2240 2139 2241 2335 2140 2033 2141 2243
8 2242 2140 2243 2337 2144 2035 2143 2247
8 2243 2141 2244 2338 2143 2034 2142 2246
8 2246 2142 2245 2341 2146 2036 2145 2249
8 2247 2143 2246 2342 2147 2037 2146 2250
8 2249 2145 2248 2343 2149 2038 2148 2251
8 2250 2146 2249 2344 2150 2039 2149 2252
8 2252 2149 2251 2345 2152 2042 2151 2253
8 2169 2271 2347 2254 2062 2170 2255 2154
8 2189 2085 2188 2285 2255 2154 2254 2347
8 2348 2255 2155 2256 2286 2189 2086 2190
8 2272 2170 2063 2171 2348 2255 2155 2256
8 2349 2258 2157 2257 2263 2164 2054 2161
8 2258 2159 2261 2351 2157 2050 2158 2259
8 2258 2159 2056 2164 2351 2261 2165 2264
8 2262 2163 2060 2167 2355 2264 2168 2269
8 2162 2055 2163 2262 2263 2164 2264 2355
8 2357 2266 2165 2264 2268 2166 2061 2168
8 2268 2166 2076 2182 2361 2267 2181 2280
8 2281 2182 2268 2362 2183 2077 2168 2269
8 2271 2169 2270 2364 2177 2075 2180 2277
8 2172 2070 2170 2272 2273 2177 2271 2365
8 2072 2173 2274 2178 2177 2273 2366 2277
8 2071 2174 2275 2176 2178 2274 2367 2276
8 2275 2176 2276 2367 2184 2083 2186 2282
8 2283 2187 2084 2186 2368 2278 2179 2276
8 2178 2074 2180 2277 2276 2179 2278 2368
8 2283 2187 2279 2370 2186 2084 2181 2280
8 2281 2182 2082 2185 2371 2280 2186 2282
8 2188 2285 2374 2284 2100 2197 2292 2201
8 2286 2189 2095 2193 2375 2285 2197 2289
8 2192 2097 2196 2287 2288 2199 2291 2376
8 2287 2196 2104 2203 2376 2291 2204 2296
8 2194 2098 2199 2288 2290 2198 2293 2377
8 2289 2197 2096 2195 2378 2292 2198 2290
8 2291 2200 2105 2204 2379 2294 2205 2297
8 2199 2102 2200 2291 2293 2202 2294 2379
8 2198 2101 2202 2293 2292 2201 2295 2380
8 2299 2207 2297 2383 2206 2107 2204 2296
8 2300 2208 2298 2384 2207 2108 2205 2297
8 2302 2210 2300 2386 2209 2110 2207 2299
8 2303 2211 2301 2387 2210 2111 2208 2300
8 2305 2213 2303 2389 2212 2113 2210 2302
8 2306 2214 2304 2390 2213 2114 2211 2303
8 2310 2216 2306 2392 2220 2117 2213 2305
8 2308 2215 2307 2393 2216 2115 2214 2306
8 2308 2215 2115 2216 2396 2309 2217 2311
8 2310 2216 2117 2220 2398 2311 2219 2315
8 2311 2217 2116 2219 2399 2312 2218 2314
8 2314 2218 2118 2222 2402 2313 2221 2317
8 2315 2219 2119 2223 2403 2314 2222 2318
8 2225 2121 2224 2320 2317 2221 2316 2405
8 2226 2122 2225 2321 2318 2222 2317 2406
8 2228 2124 2227 2323 2320 2224 2319 2408
8 2229 2125 2228 2324 2321 2225 2320 2409
8 2231 2127 2230 2326 2323 2227 2322 2411
8 2232 2128 2231 2327 2324 2228 2323 2412
8 2234 2130 2233 2328 2326 2230 2325 2413
8 2235 2131 2234 2329 2327 2231 2326 2414
8 2237 2134 2236 2330 2329 2234 2328 2415
8 2259 2158 2260 2352 2332 2239 2331 2417
8 2257 2157 2259 2350 2334 2240 2332 2419
8 2240 2139 2239 2332 2335 2241 2333 2420
8 2334 2240 2335 2422 2242 2140 2243 2337
8 2335 2241 2336 2423 2243 2141 2244 2338
8 2337 2243 2338 2425 2247 2143 2246 2342
8 2338 2244 2339 2426 2246 2142 2245 2341
8 2341 2245 2340 2428 2249 2145 2248 2343
8 2342 2246 2341 2429 2250 2146 2249 2344
8 2344 2249 2343 2430 2252 2149 2251 2345
8 2188 2285 2347 2254 2284 2374 2432 2346
8 2347 2254 2346 2432 2271 2169 2270 2364
8 2365 2271 2170 2272 2433 2347 2255 2348
8 2286 2189 2285 2375 2348 2255 2347 2433
8 2349 2258 2351 2435 2257 2157 2259 2350
8 2349 2258 2164 2263 2435 2351 2264 2355
8 2259 2158 2261 2351 2352 2260 2354 2437
8 2356 2265 2354 2437 2264 2165 2261 2351
8 2441 2357 2264 2355 2362 2268 2168 2269
8 2356 2265 2165 2264 2442 2358 2266 2357
8 2443 2359 2266 2357 2361 2267 2166 2268
8 2370 2279 2360 2446 2280 2181 2267 2361
8 2362 2268 2182 2281 2447 2361 2280 2371
8 2180 2277 2368 2278 2270 2364 2449 2363
8 2271 2365 2273 2177 2364 2450 2366 2277
8 2372 2283 2186 2282 2451 2368 2276 2367
8 2178 2274 2367 2276 2277 2366 2451 2368
8 2283 2187 2278 2368 2370 2279 2369 2452
8 2372 2283 2370 2453 2282 2186 2280 2371
8 2284 2374 2455 2373 2201 2292 2380 2295
8 2375 2285 2197 2289 2456 2374 2292 2378
8 2376 2291 2204 2296 2457 2379 2297 2383
8 2288 2199 2291 2376 2377 2293 2379 2457
8 2198 2290 2378 2292 2293 2377 2458 2380
8 2293 2202 2294 2379 2380 2295 2381 2459
8 2384 2298 2381 2459 2297 2205 2294 2379
8 2386 2300 2384 2463 2299 2207 2297 2383
8 2387 2301 2385 2464 2300 2208 2298 2384
8 2389 2303 2387 2466 2302 2210 2300 2386
8 2390 2304 2388 2467 2303 2211 2301 2387
8 2392 2306 2390 2469 2305 2213 2303 2389
8 2393 2307 2391 2470 2306 2214 2304 2390
8 2395 2308 2393 2472 2310 2216 2306 2392
8 2308 2215 2309 2396 2393 2307 2394 2473
8 2395 2308 2216 2310 2475 2396 2311 2398
8 2396 2309 2217 2311 2476 2397 2312 2399
8 2398 2311 2219 2315 2478 2399 2314 2403
8 2399 2312 2218 2314 2479 2400 2313 2402
8 2317 2221 2316 2405 2402 2313 2401 2482
8 2403 2314 2222 2318 2483 2402 2317 2406
8 2320 2224 2319 2408 2405 2316 2404 2485
8 2321 2225 2320 2409 2406 2317 2405 2486
8 2323 2227 2322 2411 2408 2319 2407 2488
8 2324 2228 2323 2412 2409 2320 2408 2489
8 2326 2230 2325 2413 2411 2322 2410 2490
8 2327 2231 2326 2414 2412 2323 2411 2491
8 2329 2234 2328 2415 2414 2326 2413 2492
8 2417 2331 2260 2352 2494 2416 2353 2438
8 2350 2259 2352 2436 2419 2332 2417 2496
8 2332 2239 2331 2417 2420 2333 2418 2497
8 2334 2240 2332 2419 2422 2335 2420 2499
8 2420 2333 2421 2500 2335 2241 2336 2423
8 2422 2335 2423 2502 2337 2243 2338 2425
8 2423 2336 2424 2503 2338 2244 2339 2426
8 2425 2338 2426 2505 2342 2246 2341 2429
8 2426 2339 2427 2506 2341 2245 2340 2428
8 2429 2341 2428 2507 2344 2249 2343 2430
8 2432 2346 2284 2374 2509 2431 2373 2455
8 2432 2346 2431 2509 2364 2270 2363 2449
8 2375 2285 2374 2456 2433 2347 2432 2510
8 2347 2433 2365 2271 2432 2510 2450 2364
8 2350 2259 2351 2435 2436 2352 2437 2514
8 2440 2356 2437 2514 2355 2264 2351 2435
8 2352 2260 2354 2437 2438 2353 2439 2516
8 2356 2265 2358 2442 2437 2354 2439 2516
8 2440 2356 2264 2355 2518 2442 2357 2441
8 2519 2443 2357 2441 2447 2361 2268 2362
8 2443 2359 2444 2520 2357 2266 2358 2442
8 2443 2359 2267 2361 2520 2444 2360 2446
8 2446 2360 2279 2370 2523 2445 2369 2452
8 2453 2370 2446 2524 2371 2280 2361 2447
8 2449 2363 2448 2525 2368 2278 2369 2452
8 2366 2277 2364 2450 2451 2368 2449 2526
8 2372 2283 2368 2451 2453 2370 2452 2527
8 2455 2373 2295 2380 2529 2454 2382 2460
8 2456 2374 2292 2378 2530 2455 2380 2458
8 2377 2293 2379 2457 2458 2380 2459 2531
8 2463 2384 2459 2531 2383 2297 2379 2457
8 2533 2461 2382 2460 2459 2381 2295 2380
8 2464 2385 2461 2533 2384 2298 2381 2459
8 2466 2387 2464 2537 2386 2300 2384 2463
8 2467 2388 2465 2538 2387 2301 2385 2464
8 2469 2390 2467 2540 2389 2303 2387 2466
8 2470 2391 2468 2541 2390 2304 2388 2467
8 2472 2393 2470 2543 2392 2306 2390 2469
8 2393 2307 2394 2473 2470 2391 2471 2544
8 2395 2308 2396 2475 2472 2393 2473 2546
8 2396 2309 2397 2476 2473 2394 2474 2547
8 2475 2396 2311 2398 2549 2476 2399 2478
8 2476 2397 2312 2399 2550 2477 2400 2479
8 2478 2399 2314 2403 2552 2479 2402 2483
8 2479 2400 2313 2402 2553 2480 2401 2482
8 2405 2316 2404 2485 2482 2401 2481 2556
8 2406 2317 2405 2486 2483 2402 2482 2557
8 2408 2319 2407 2488 2485 2404 2484 2559
8 2409 2320 2408 2489 2486 2405 2485 2560
8 2411 2322 2410 2490 2488 2407 2487 2561
8 2412 2323 2411 2491 2489 2408 2488 2562
8 2414 2326 2413 2492 2491 2411 2490 2563
8 2513 2434 2493 2565 2438 2353 2416 2494
8 2496 2417 2352 2436 2567 2494 2438 2515
8 2494 2416 2495 2568 2417 2331 2418 2497
8 2419 2332 2417 2496 2499 2420 2497 2570
8 2497 2418 2498 2571 2420 2333 2421 2500
8 2499 2420 2500 2573 2422 2335 2423 2502
8 2500 2421 2501 2574 2423 2336 2424 2503
8 2502 2423 2503 2576 2425 2338 2426 2505
8 2503 2424 2504 2577 2426 2339 2427 2506
8 2505 2426 2506 2578 2429 2341 2428 2507
8 2509 2431 2373 2455 2580 2508 2454 2529
8 2509 2431 2508 2580 2449 2363 2448 2525
8 2432 2510 2581 2509 2374 2456 2530 2455
8 2432 2510 2450 2364 2509 2581 2526 2449
8 2583 2511 2434 2513 2516 2439 2353 2438
8 2436 2352 2437 2514 2515 2438 2516 2588
8 2440 2356 2442 2518 2514 2437 2516 2588
8 2442 2358 2444 2520 2516 2439 2517 2589
8 2519 2443 2520 2591 2441 2357 2442 2518
8 2519 2443 2361 2447 2591 2520 2446 2524
8 2446 2360 2445 2523 2520 2444 2521 2592
8 2525 2448 2522 2593 2452 2369 2445 2523
8 2524 2446 2370 2453 2594 2523 2452 2527
8 2526 2449 2525 2595 2451 2368 2452 2527
8 2534 2462 2528 2597 2460 2382 2454 2529
8 2530 2455 2380 2458 2598 2529 2460 2532
8 2599 2533 2460 2532 2531 2459 2380 2458
8 2537 2464 2533 2599 2463 2384 2459 2531
8 2534 2462 2382 2460 2601 2535 2461 2533
8 2538 2465 2535 2601 2464 2385 2461 2533
8 2540 2467 2538 2604 2466 2387 2464 2537
8 2541 2468 2539 2605 2467 2388 2465 2538
8 2543 2470 2541 2607 2469 2390 2467 2540
8 2470 2391 2471 2544 2541 2468 2542 2608
8 2472 2393 2473 2546 2543 2470 2544 2610
8 2473 2394 2474 2547 2544 2471 2545 2611
8 2475 2396 2476 2549 2546 2473 2547 2613
8 2476 2397 2477 2550 2547 2474 2548 2614
8 2549 2476 2399 2478 2616 2550 2479 2552
8 2479 2400 2480 2553 2550 2477 2551 2617
8 2552 2479 2402 2483 2619 2553 2482 2557
8 2482 2401 2481 2556 2553 2480 2554 2620
8 2485 2404 2484 2559 2556 2481 2555 2623
8 2486 2405 2485 2560 2557 2482 2556 2624
8 2488 2407 2487 2561 2559 2484 2558 2625
8 2489 2408 2488 2562 2560 2485 2559 2626
8 2491 2411 2490 2563 2562 2488 2561 2627
8 2513 2434 2512 2585 2565 2493 2564 2630
8 2586 2513 2565 2632 2515 2438 2494 2567
8 2565 2493 2566 2633 2494 2416 2495 2568
8 2567 2494 2568 2635 2496 2417 2497 2570
8 2568 2495 2569 2636 2497 2418 2498 2571
8 2570 2497 2571 2638 2499 2420 2500 2573
8 2571 2498 2572 2639 2500 2421 2501 2574
8 2573 2500 2574 2641 2502 2423 2503 2576
8 2574 2501 2575 2642 2503 2424 2504 2577
8 2576 2503 2577 2643 2505 2426 2506 2578
8 2597 2528 2579 2645 2529 2454 2508 2580
8 2580 2508 2579 2645 2525 2448 2522 2593
8 2581 2509 2455 2530 2646 2580 2529 2598
8 2581 2509 2580 2646 2526 2449 2525 2595
8 2583 2511 2582 2648 2513 2434 2512 2585
8 2583 2511 2439 2516 2648 2582 2517 2589
8 2649 2583 2513 2586 2588 2516 2438 2515
8 2589 2517 2444 2520 2653 2587 2521 2592
8 2518 2442 2520 2591 2588 2516 2589 2654
8 2593 2522 2590 2655 2523 2445 2521 2592
8 2524 2446 2523 2594 2591 2520 2592 2656
8 2595 2525 2593 2657 2527 2452 2523 2594
8 2602 2536 2596 2659 2534 2462 2528 2597
8 2600 2534 2597 2660 2532 2460 2529 2598
8 2600 2534 2460 2532 2661 2601 2533 2599
8 2604 2538 2601 2661 2537 2464 2533 2599
8 2602 2536 2462 2534 2663 2603 2535 2601
8 2601 2535 2465 2538 2663 2603 2539 2605
8 2607 2541 2605 2665 2540 2467 2538 2604
8 2608 2542 2606 2666 2541 2468 2539 2605
8 2543 2470 2544 2610 2607 2541 2608 2668
8 2544 2471 2545 2611 2608 2542 2609 2669
8 2546 2473 2547 2613 2610 2544 2611 2671
8 2547 2474 2548 2614 2611 2545 2612 2672
8 2549 2476 2550 2616 2613 2547 2614 2674
8 2550 2477 2551 2617 2614 2548 2615 2675
8 2552 2479 2553 2619 2616 2550 2617 2677
8 2553 2480 2554 2620 2617 2551 2618 2678
8 2557 2482 2556 2624 2619 2553 2620 2680
8 2556 2481 2555 2623 2620 2554 2621 2681
8 2559 2484 2558 2625 2623 2555 2622 2683
8 2560 2485 2559 2626 2624 2556 2623 2684
8 2562 2488 2561 2627 2626 2559 2625 2685
8 2690 2629 2564 2630 2650 2584 2512 2585
8 2586 2513 2585 2651 2632 2565 2630 2691
8 2630 2564 2631 2692 2565 2493 2566 2633
8 2632 2565 2633 2694 2567 2494 2568 2635
8 2633 2566 2634 2695 2568 2495 2569 2636
8 2635 2568 2636 2697 2570 2497 2571 2638
8 2636 2569 2637 2698 2571 2498 2572 2639
8 2638 2571 2639 2700 2573 2500 2574 2641
8 2639 2572 2640 2701 2574 2501 2575 2642
8 2641 2574 2642 2702 2576 2503 2577 2643
8 2597 2528 2596 2659 2645 2579 2644 2704
8 2645 2579 2644 2704 2593 2522 2590 2655
8 2660 2597 2645 2705 2598 2529 2580 2646
8 2646 2580 2645 2705 2595 2525 2593 2657
8 2650 2584 2512 2585 2707 2647 2582 2648
8 2648 2582 2517 2589 2707 2647 2587 2653
8 2649 2583 2648 2708 2586 2513 2585 2651
8 2649 2583 2516 2588 2708 2648 2589 2654
8 2655 2590 2652 2710 2592 2521 2587 2653
8 2654 2589 2520 2591 2711 2653 2592 2656
8 2657 2593 2655 2712 2594 2523 2592 2656
8 2602 2536 2603 2663 2659 2596 2658 2714
8 2662 2602 2659 2715 2600 2534 2597 2660
8 2662 2602 2534 2600 2717 2663 2601 2661
8 2661 2601 2538 2604 2717 2663 2605 2665
8 2666 2606 2664 2718 2605 2539 2603 2663
8 2668 2608 2666 2720 2607 2541 2605 2665
8 2608 2542 2609 2669 2666 2606 2667 2721
8 2610 2544 2611 2671 2668 2608 2669 2723
8 2611 2545 2612 2672 2669 2609 2670 2724
8 2613 2547 2614 2674 2671 2611 2672 2726
8 2614 2548 2615 2675 2672 2612 2673 2727
8 2616 2550 2617 2677 2674 2614 2675 2729
8 2617 2551 2618 2678 2675 2615 2676 2730
8 2619 2553 2620 2680 2677 2617 2678 2732
8 2620 2554 2621 2681 2678 2618 2679 2733
8 2624 2556 2623 2684 2680 2620 2681 2735
8 2681 2621 2555 2623 2736 2682 2622 2683
8 2626 2559 2625 2685 2684 2623 2683 2737
8 2688 2628 2584 2650 2740 2686 2647 2707
8 2688 2628 2687 2742 2650 2584 2629 2690
8 2690 2629 2689 2745 2630 2564 2631 2692
8 2746 2690 2630 2691 2709 2650 2585 2651
8 2691 2630 2692 2747 2632 2565 2633 2694
8 2692 2631 2693 2748 2633 2566 2634 2695
8 2694 2633 2695 2750 2635 2568 2636 2697
8 2695 2634 2696 2751 2636 2569 2637 2698
8 2697 2636 2698 2753 2638 2571 2639 2700
8 2698 2637 2699 2754 2639 2572 2640 2701
8 2700 2639 2701 2755 2641 2574 2642 2702
8 2659 2596 2658 2714 2704 2644 2703 2757
8 2704 2644 2703 2757 2655 2590 2652 2710
8 2660 2597 2659 2715 2705 2645 2704 2758
8 2705 2645 2704 2758 2657 2593 2655 2712
8 2759 2706 2647 2707 2710 2652 2587 2653
8 2709 2650 2585 2651 2760 2707 2648 2708
8 2708 2648 2589 2654 2760 2707 2653 2711
8 2712 2655 2710 2761 2656 2592 2653 2711
8 2763 2713 2658 2714 2718 2664 2603 2663
8 2662 2602 2663 2717 2715 2659 2714 2764
8 2720 2666 2718 2767 2665 2605 2663 2717
8 2768 2719 2664 2718 2721 2667 2606 2666
8 2668 2608 2669 2723 2720 2666 2721 2770
8 2669 2609 2670 2724 2721 2667 2722 2771
8 2671 2611 2672 2726 2723 2669 2724 2773
8 2672 2612 2673 2727 2724 2670 2725 2774
8 2674 2614 2675 2729 2726 2672 2727 2776
8 2675 2615 2676 2730 2727 2673 2728 2777
8 2677 2617 2678 2732 2729 2675 2730 2779
8 2678 2618 2679 2733 2730 2676 2731 2780
8 2680 2620 2681 2735 2732 2678 2733 2782
8 2733 2679 2621 2681 2783 2734 2682 2736
8 2735 2681 2623 2684 2784 2736 2683 2737
8 2740 2686 2647 2707 2787 2738 2706 2759
8 2688 2628 2686 2740 2742 2687 2739 2789
8 2743 2688 2650 2709 2790 2740 2707 2760
8 2742 2687 2741 2792 2690 2629 2689 2745
8 2743 2688 2742 2793 2709 2650 2690 2746
8 2745 2689 2744 2795 2692 2631 2693 2748
8 2746 2690 2745 2796 2691 2630 2692 2747
8 2747 2692 2748 2797 2694 2633 2695 2750
8 2748 2693 2749 2798 2695 2634 2696 2751
8 2750 2695 2751 2800 2697 2636 2698 2753
8 2751 2696 2752 2801 2698 2637 2699 2754
8 2753 2698 2754 2802 2700 2639 2701 2755
8 2763 2713 2756 2804 2714 2658 2703 2757
8 2759 2706 2652 2710 2804 2756 2703 2757
8 2715 2659 2714 2764 2758 2704 2757 2805
8 2758 2704 2757 2805 2712 2655 2710 2761
8 2806 2759 2707 2760 2761 2710 2653 2711
8 2765 2716 2762 2808 2718 2664 2713 2763
8 2809 2763 2714 2764 2767 2718 2663 2717
8 2765 2716 2664 2718 2811 2766 2719 2768
8 2813 2768 2718 2767 2770 2721 2666 2720
8 2814 2769 2719 2768 2771 2722 2667 2721
8 2723 2669 2724 2773 2770 2721 2771 2816
8 2724 2670 2725 2774 2771 2722 2772 2817
8 2726 2672 2727 2776 2773 2724 2774 2819
8 2727 2673 2728 2777 2774 2725 2775 2820
8 2729 2675 2730 2779 2776 2727 2777 2822
8 2730 2676 2731 2780 2777 2728 2778 2823
8 2732 2678 2733 2782 2779 2730 2780 2825
8 2780 2731 2679 2733 2826 2781 2734 2783
8 2782 2733 2681 2735 2827 2783 2736 2784
8 2830 2785 2738 2787 2804 2756 2706 2759
8 2789 2739 2686 2740 2832 2786 2738 2787
8 2790 2740 2707 2760 2833 2787 2759 2806
8 2742 2687 2739 2789 2792 2741 2788 2835
8 2743 2688 2740 2790 2793 2742 2789 2836
8 2792 2741 2791 2838 2745 2689 2744 2795
8 2793 2742 2792 2839 2746 2690 2745 2796
8 2795 2744 2794 2841 2748 2693 2749 2798
8 2796 2745 2795 2842 2747 2692 2748 2797
8 2797 2748 2798 2843 2750 2695 2751 2800
8 2798 2749 2799 2844 2751 2696 2752 2801
8 2800 2751 2801 2845 2753 2698 2754 2802
8 2808 2762 2803 2847 2763 2713 2756 2804
8 2809 2763 2804 2848 2764 2714 2757 2805
8 2806 2759 2710 2761 2848 2804 2757 2805
8 2765 2716 2766 2811 2808 2762 2807 2850
8 2810 2765 2808 2851 2767 2718 2763 2809
8 2810 2765 2718 2767 2852 2811 2768 2813
8 2811 2766 2719 2768 2853 2812 2769 2814
8 2855 2814 2768 2813 2816 2771 2721 2770
8 2856 2815 2769 2814 2817 2772 2722 2771
8 2773 2724 2774 2819 2816 2771 2817 2858
8 2774 2725 2775 2820 2817 2772 2818 2859
8 2776 2727 2777 2822 2819 2774 2820 2861
8 2777 2728 2778 2823 2820 2775 2821 2862
8 2779 2730 2780 2825 2822 2777 2823 2864
8 2823 2778 2731 2780 2865 2824 2781 2826
8 2825 2780 2733 2782 2866 2826 2783 2827
8 2869 2828 2785 2830 2847 2803 2756 2804
8 2871 2829 2786 2832 2830 2785 2738 2787
8 2872 2830 2787 2833 2848 2804 2759 2806
8 2789 2739 2786 2832 2835 2788 2831 2874
8 2836 2789 2740 2790 2875 2832 2787 2833
8 2792 2741 2788 2835 2838 2791 2834 2877
8 2793 2742 2789 2836 2839 2792 2835 2878
8 2838 2791 2837 2880 2795 2744 2794 2841
8 2839 2792 2838 2881 2796 2745 2795 2842
8 2841 2794 2840 2882 2798 2749 2799 2844
8 2842 2795 2841 2883 2797 2748 2798 2843
8 2843 2798 2844 2884 2800 2751 2801 2845
8 2886 2846 2803 2847 2850 2807 2762 2808
8 2851 2808 2847 2887 2809 2763 2804 2848
8 2850 2807 2766 2811 2889 2849 2812 2853
8 2810 2765 2811 2852 2851 2808 2850 2890
8 2852 2811 2768 2813 2891 2853 2814 2855
8 2853 2812 2769 2814 2892 2854 2815 2856
8 2894 2856 2814 2855 2858 2817 2771 2816
8 2817 2772 2818 2859 2856 2815 2857 2895
8 2819 2774 2820 2861 2858 2817 2859 2897
8 2820 2775 2821 2862 2859 2818 2860 2898
8 2822 2777 2823 2864 2861 2820 2862 2900
8 2823 2778 2824 2865 2862 2821 2863 2901
8 2864 2823 2780 2825 2902 2865 2826 2866
8 2904 2867 2828 2869 2886 2846 2803 2847
8 2869 2828 2868 2906 2830 2785 2829 2871
8 2907 2869 2830 2872 2887 2847 2804 2848
8 2871 2829 2870 2909 2832 2786 2831 2874
8 2910 2871 2832 2875 2872 2830 2787 2833
8 2835 2788 2831 2874 2877 2834 2873 2912
8 2836 2789 2832 2875 2878 2835 2874 2913
8 2877 2834 2876 2915 2838 2791 2837 2880
8 2839 2792 2835 2878 2881 2838 2877 2916
8 2880 2837 2879 2917 2841 2794 2840 2882
8 2881 2838 2880 2918 2842 2795 2841 2883
8 2883 2841 2882 2919 2843 2798 2844 2884
8 2921 2885 2846 2886 2889 2849 2807 2850
8 2922 2886 2847 2887 2890 2850 2808 2851
8 2889 2849 2812 2853 2924 2888 2854 2892
8 2890 2850 2811 2852 2925 2889 2853 2891
8 2891 2853 2814 2855 2926 2892 2856 2894
8 2892 2854 2815 2856 2927 2893 2857 2895
8 2858 2817 2859 2897 2894 2856 2895 2929
8 2859 2818 2860 2898 2895 2857 2896 2930
8 2861 2820 2862 2900 2897 2859 2898 2932
8 2862 2821 2863 2901 2898 2860 2899 2933
8 2864 2823 2865 2902 2900 2862 2901 2934
8 2904 2867 2846 2886 2936 2903 2885 2921
8 2904 2867 2903 2936 2869 2828 2868 2906
8 2937 2904 2869 2907 2922 2886 2847 2887
8 2906 2868 2905 2939 2871 2829 2870 2909
8 2907 2869 2906 2940 2872 2830 2871 2910
8 2909 2870 2908 2942 2874 2831 2873 2912
8 2910 2871 2909 2943 2875 2832 2874 2913
8 2912 2873 2911 2945 2877 2834 2876 2915
8 2878 2835 2874 2913 2916 2877 2912 2946
8 2915 2876 2914 2947 2880 2837 2879 2917
8 2916 2877 2915 2948 2881 2838 2880 2918
8 2918 2880 2917 2949 2883 2841 2882 2919
8 2921 2885 2849 2889 2951 2920 2888 2924
8 2952 2921 2886 2922 2925 2889 2850 2890
8 2924 2888 2854 2892 2954 2923 2893 2927
8 2925 2889 2853 2891 2955 2924 2892 2926
8 2926 2892 2856 2894 2956 2927 2895 2929
8 2895 2857 2896 2930 2927 2893 2928 2957
8 2897 2859 2898 2932 2929 2895 2930 2959
8 2898 2860 2899 2933 2930 2896 2931 2960
8 2900 2862 2901 2934 2932 2898 2933 2961
8 2936 2903 2885 2921 2963 2935 2920 2951
8 2936 2903 2935 2963 2906 2868 2905 2939
8 2937 2904 2886 2922 2964 2936 2921 2952
8 2937 2904 2936 2964 2907 2869 2906 2940
8 2939 2905 2938 2966 2909 2870 2908 2942
8 2940 2906 2939 2967 2910 2871 2909 2943
8 2942 2908 2941 2969 2912 2873 2911 2945
8 2943 2909 2942 2970 2913 2874 2912 2946
8 2945 2911 2944 2971 2915 2876 2914 2947
8 2946 2912 2945 2972 2916 2877 2915 2948
8 2948 2915 2947 2973 2918 2880 2917 2949
8 2951 2920 2888 2924 2975 2950 2923 2954
8 2952 2921 2889 2925 2976 2951 2924 2955
8 2927 2893 2928 2957 2954 2923 2953 2978
8 2955 2924 2892 2926 2979 2954 2927 2956
8 2929 2895 2930 2959 2956 2927 2957 2980
8 2930 2896 2931 2960 2957 2928 2958 2981
8 2932 2898 2933 2961 2959 2930 2960 2982
8 2951 2920 2950 2975 2963 2935 2962 2984
8 2963 2935 2962 2984 2939 2905 2938 2966
8 2964 2936 2921 2952 2985 2963 2951 2976
8 2964 2936 2963 2985 2940 2906 2939 2967
8 2966 2938 2965 2987 2942 2908 2941 2969
8 2967 2939 2966 2988 2943 2909 2942 2970
8 2969 2941 2968 2989 2945 2911 2944 2971
8 2970 2942 2969 2990 2946 2912 2945 2972
8 2972 2945 2971 2991 2948 2915 2947 2973
8 2954 2923 2953 2978 2975 2950 2974 2993
8 2976 2951 2924 2955 2994 2975 2954 2979
8 2957 2928 2958 2981 2978 2953 2977 2995
8 2956 2927 2957 2980 2979 2954 2978 2996
8 2959 2930 2960 2982 2980 2957 2981 2997
8 2984 2962 2983 2999 2966 2938 2965 2987
8 2975 2950 2974 2993 2984 2962 2983 2999
8 2976 2951 2975 2994 2985 2963 2984 3000
8 2985 2963 2984 3000 2967 2939 2966 2988
8 2987 2965 2986 3001 2969 2941 2968 2989
8 2988 2966 2987 3002 2970 2942 2969 2990
8 2990 2969 2989 3003 2972 2945 2971 2991
8 2978 2953 2977 2995 2993 2974 2992 3004
8 2979 2954 2978 2996 2994 2975 2993 3005
8 2980 2957 2981 2997 2996 2978 2995 3006
8 2974 2993 2999 2983 2992 3004 3007 2998
8 2983 2999 2987 2965 2998 3007 3001 2986
8 3000 2984 2999 3008 2988 2966 2987 3002
8 2994 2975 2993 3005 3000 2984 2999 3008
8 3002 2987 3001 3009 2990 2969 2989 3003
8 2996 2978 2995 3006 3005 2993 3004 3010
8 3005 2993 3004 3010 3008 2999 3007 3011
8 3008 2999 3007 3011 3002 2987 3001 3009

CELL_TYPES 1910
12
12
12
12
12
12
12
12
12
12
12
12
12
12
12
12
12
12
12
12
12
12
12
12
12
12
12
12
12
12
12
12
12
12
12
12
12
12
12
12
12
12
12
12
12
12
12
12
12
12
12
12
12
12
12
12
12
12
12
12
12
12
12
12
12
12
12
12
12
12
12
12
12
12
12
12
12
12
12
12
12
12
12
12
12
12
12
12
12
12
12
12
12
12
12
12
12
12
12
12
12
12
12
12
12
12
12
12
12
12
12
12
12
12
12
12
12
12
12
12
12
12
12
12
12
12
12
12
12
12
12
12
12
12
12
12
12
12
12
12
12
12
12
12
12
12
12
12
12
12
12
12
12
12
12
12
12
12
12
12
12
12
12
12
12
12
12
12
12
12
12
12
12
12
12
12
12
12
12
12
12
12
12
12
12
12
12
12
12
12
12
12
12
12
12
12
12
12
12
12
12
12
12
12
12
12
12
12
12
12
12
12
12
12
12
12
12
12
12
12
12
12
12
12
12
12
12
12
12
12
12
12
12
12
12
12
12
12
12
12
12
12
12
12
12
12
12
12
12
12
12
12
12
12
12
12
12
12
12
12
12
12
12
12
12
12
12
12
12
12
12
12
12
12
12
12
12
12
12
12
12
12
12
12
12
12
12
12
12
12
12
12
12
12
12
12
12
12
12
12
12
12
12
12
12
12
12
12
12
12
12
12
12
12
12
12
12
12
12
12
12
12
12
12
12
12
12
12
12
12
12
12
12
12
12
12
12
12
12
12
12
12
12
12
12
12
12
12
12
12
12
12
12
12
12
12
12
12
12
12
12
12
12
12
12
12
12
12
12
12
12
12
12
12
12
12
12
12
12
12
12
12
12
12
12
12
12
12
12
12
12
12
12
12
12
12
12
12
12
12
12
12
12
12
12
12
12
12
12
12
12
12
12
12
12
12
12
12
12
12
12
12
12
12
12
12
12
12
12
12
12
12
12
12
12
12
12
12
12
12
12
12
12
12
12
12
12
12
12
12
12
12
12
12
12
12
12
12
12
12
12
12
12
12
12
12
12
12
12
12
12
12
12
12
12
12
12
12
12
12
12
12
12
12
12
12
12
12
12
12
12
12
12
12
12
12
12
12
12
12
12
12
12
12
12
12
12
12
12
12
12
12
12
12
12
12
12
12
12
12
12
12
12
12
12
12
12
12
12
12
12
12
12
12
12
12
12
12
12
12
12
12
12
12
12
12
12
12
12
12
12
12
12
12
12
12
12
12
12
12
12
12
12
12
12
12
12
12
12
12
12
12
12
12
12
12
12
12
12
12
12
12
12
12
12
12
12
12
12
12
12
12
12
12
12
12
12
12
12
12
12
12
12
12
12
12
12
12
12
12
12
12
12
12
12
12
12
12
12
12
12
12
12
12
12
12
12
12
12
12
12
12
12
12
12
12
12
12
12
12
12
12
12
12
12
12
12
12
12
12
12
12
12
12
12
12
12
12
12
12
12
12
12
12
12
12
12
12
12
12
12
12
12
12
12
12
12
12
12
12
12
12
12
12
12
12
12
12
12
12
12
12
12
12
12
12
12
12
12
12
12
12
12
12
12
12
12
12
12
12
12
12
12
12
12
12
12
12
12
12
12
12
12
12
12
12
12
12
12
12
12
12
12
12
12
12
12
12
12
12
12
12
12
12
12
12
12
12
12
12
12
12
12
12
12
12
12
12
12
12
12
12
12
12
12
12
12
12
12
12
12
12
12
12
12
12
12
12
12
12
12
12
12
12
12
12
12
12
12
12
12
12
12
12
12
12
12
12
12
12
12
12
12
12
12
12
12
12
12
12
12
12
12
12
12
12
12
12
12
12
12
12
12
12
12
12
12
12
12
12
12
12
12
12
12
12
12
12
12
12
12
12
12
12
12
12
12
12
12
12
12
12
12
12
12
12
12
12
12
12
12
12
12
12
12
12
12
12
12
12
12
12
12
12
12
12
12
12
12
12
12
12
12
12
12
12
12
12
12
12
12
12
12
12
12
12
12
12
12
12
12
12
12
12
12
12
12
12
12
12
12
12
12
12
12
12
12
12
12
12
12
12
12
12
12
12
12
12
12
12
12
12
12
12
12
12
12
12
12
12
12
12
12
12
12
12
12
12
12
12
12
12
12
12
12
12
12
12
12
12
12
12
12
12
12
12
12
12
12
12
12
12
12
12
12
12
12
12
12
12
12
12
12
12
12
12
12
12
12
12
12
12
12
12
12
12
12
12
12
12
12
12
12
12
12
12
12
12
12
12
12
12
12
12
12
12
12
12
12
12
12
12
12
12
12
12
12
12
12
12
12
12
12
12
12
12
12
12
12
12
12
12
12
12
12
12
12
12
12
12
12
12
12
12
12
12
12
12
12
12
12
12
12
12
12
12
12
12
12
12
12
12
12
12
12
12
12
12
12
12
12
12
12
12
12
12
12
12
12
12
12
12
12
12
12
12
12
12
12
12
12
12
12
12
12
12
12
12
12
12
12
12
12
12
12
12
12
12
12
12
12
12
12
12
12
12
12
12
12
12
12
12
12
12
12
12
12
12
12
12
12
12
12
12
12
12
12
12
12
12
12
12
12
12
12
12
12
12
12
12
12
12
12
12
12
12
12
12
12
12
12
12
12
12
12
12
12
12
12
12
12
12
12
12
12
12
12
12
12
12
12
12
12
12
12
12
12
12
12
12
12
12
12
12
12
12
12
12
12
12
12
12
12
12
12
12
12
12
12
12
12
12
12
12
12
12
12
12
12
12
12
12
12
12
12
12
12
12
12
12
12
12
12
12
12
12
12
12
12
12
12
12
12
12
12
12
12
12
12
12
12
12
12
12
12
12
12
12
12
12
12
12
12
12
12
12
12
12
12
12
12
12
12
12
12
12
12
12
12
12
12
12
12
12
12
12
12
12
12
12
12
12
12
12
12
12
12
12
12
12
12
12
12
12
12
12
12
12
12
12
12
12
12
12
12
12
12
12
12
12
12
12
12
12
12
12
12
12
12
12
12
12
12
12
12
12
12
12
12
12
12
12
12
12
12
12
12
12
12
12
12
12
12
12
12
12
12
12
12
12
12
12
12
12
12
12
12
12
12
12
12
12
12
12
12
12
12
12
12
12
12
12
12
12
12
12
12
12
12
12
12
12
12
12
12
12
12
12
12
12
12
12
12
12
12
12
12
12
12
12
12
12
12
12
12
12
12
12
12
12
12
12
12
12
12
12
12
12
12
12
12
12
12
12
12
12
12
12
12
12
12
12
12
12
12
12
12
12
12
12
12
12
12
12
12
12
12
12
12
12
12
12
12
12
12
12
12
12
12
12
12
12
12
12
12
12
12
12
12
12
12
12
12
12
12
12
12
12
12
12
12
12
12
12
12
12
12
12
12
12
12
12
12
12
12
12
12
12
12
12
12
12
12
12
12
12
12
12
12
12
12
12
12
12
12
12
12
12
12
12
12
12
12
12
12
12
12
12
12
12
12
12
12
12
12
12
12
12
12
12
12
12
12
12
12
12
12
12
12
12
12
12
12
12
12
12
12
12
12
12
12
12
12
12
12
12
12
12
12
12
12
12
12
12
12
12
12
12
12
12
12
12
12
12
12
12
12
12
12
12
12
12
12
12
12
12
12
12
12
12
12
12
12
12
12
12
12
12
12
12
12
12
12
12
12
12
12
12
12
12
12
12
12
12
12
12
12
12
12
12
12
12
12
12
12
12
12
12
12
12
12
12
12
12
12
12
12
12
12
12
12
12
12
12
12
12
12
12
12
12
12
12
12
12
12
12
12
12
12
12
12
12
12
12
12
12
12
12
12
12
12
12
12
12
12
12
12
12
12
12
12
12
12
12
12
12
12
12
12
12
12
12
12
12
12
12
12
12
12
12
12
12
12
12
12
12
12
12
12
12
12
12
12
12
12
12
12
12
12
12
12
12
12
12
12
12
12
12
12
12
12
12
12
12
12
12
12
12
12
12
12
12
12
12
12
12
12
12
12
12
12
12
12
12
12
12
12
12
12
12
12
12
12
12
12
12
12
12
12
12
12
12
12
12
12
12
12
12
12
12
12
12
12
12
12
12
12
12
12
12
12
12
12
12
12
12
12
12
12
12
12
12
12
12
12
12
12
12
12
12
12
12
12
12
12
12
12
12
12
12
12
12
12
12
12
12
12
12
12
12
12
12
12
12
12
12
12
12
12
12
12
12
12
12
12
12
12
12
12
12
12
12
12
12
12
12
12
12
12
12
12
12
12
12
12
12
12
12
12
12
12
12
12
12
12
12
12
12
12
12

POINT_DATA 3012
SCALARS Jp_lamdaP float 4
LOOKUP_TABLE default
0.999561 1 1 0.999561
1 1 1 1
0.999574 1 1 0.999574
0.999504 1 1 0.999504
0.999563 1 1 0.999563
0.999536 1 1 0.999536
1.00435 1.00577 1 0.998589
1 1 1 1
1 1 1 1
1 1 1 1
0.99963 1 1 0.99963
1.0007 1.00205 1 0.998653
0.999524 1 1 0.999524
0.999519 1 1 0.999519
0.999579 1 1 0.999579
0.999536 1 1 0.999536
0.999544 1 1 0.999544
0.999585 1 1 0.999585
1.0044 1.00582 1 0.998589
1 1 1 1
0.999489 1 1 0.999489
0.999538 1 1 0.999538
1.00076 1.00228 1 0.998477
1.00356 1.00499 1 0.998574
0.99953 1 1 0.99953
1.00343 1.00485 1 0.998591
1.02571 1.02866 1 0.997133
1 1 1 1
0.999776 1 1 0.999776
0.999789 1 1 0.999789
1 1 1 1
1.00007 1.00141 1 0.998663
0.999543 1 1 0.999543
0.999572 1 1 0.999572
1.00479 1.00602 1 0.998771
1 1 1 1
1.00331 1.00447 1 0.998844
0.998982 1.00024 1 0.998747
1.0154 1.01837 1 0.99709
1 1 1 1
1 1 1 1
0.999761 1 1 0.999761
1 1 1 1
0.999533 1 1 0.999533
0.99841 1 1 0.99841
1 1 1 1
0.999884 1.00121 1 0.998677
0.999563 1 1 0.999563
0.999601 1 1 0.999601
0.999546 1 1 0.999546
1.00448 1.00589 1 0.998594
0.999746 1 1 0.999746
0.999518 1 1 0.999518
0.999545 1 1 0.999545
0.999567 1 1 0.999567
1.0005 1.00203 1 0.998471
1.00357 1.00499 1 0.998592
1.0035 1.00493 1 0.998573
1.02583 1.0288 1 0.997121
1 1 1 1
0.999499 1 1 0.999499
0.998738 1 1 0.998738
0.99914 1.00068 1 0.998456
1.00231 1.00379 1 0.998527
1.02798 1.03117 1 0.996908
1.02631 1.02939 1 0.997008
0.999589 1 1 0.999589
0.999419 1.00074 1 0.998676
1.02343 1.0263 1 0.997204
1.04602 1.04996 1 0.996249
1 1 1 1
1 1 1 1
1 1 1 1
0.999603 1.00093 1 0.998671
1 1 1 1
1 1 1 1
1.00454 1.00601 1 0.998538
0.999857 1 1 0.999857
1.0023 1.00367 1 0.998632
0.999248 1.00026 1.00008 0.998902
1.01501 1.01797 1 0.997086
1 1 1 1
1.0018 1 1.0022 0.999609
1.00367 1.00522 1 0.998454
1.00439 1.00583 1 0.998568
1.03087 1.0343 1 0.996687
0.999677 1 1.00046 0.999213
1.02107 1.02415 1 0.996992
1.01061 1.01338 1.00002 0.997251
1.03103 1.03483 1 0.996327
1 1 1 1
1 1 1 1
1 1 1 1
1 1 1 1
1 1 1 1
0.999766 1 1 0.999766
0.998566 1 1 0.998564
0.99976 1 1 0.99976
1.00053 1.00197 1 0.998557
1 1 1 1
0.99844 1 1 0.99844
0.998823 1.00014 1 0.998683
1.02217 1.02567 1 0.996584
1.00215 1.00345 1 0.998709
1.03053 1.03406 1 0.996585
0.999548 1 1 0.999548
0.999544 1 1 0.999544
0.999555 1 1 0.999555
0.999592 1 1 0.999592
1.00026 1.0018 1 0.998468
1.00345 1.00488 1 0.998575
1.00363 1.00504 1 0.998598
1.026 1.02897 1 0.997108
1 1 1 1
0.999526 1 1 0.999526
0.998474 1 1 0.998474
0.998953 1.00051 1 0.998448
0.999797 1 1 0.999797
1.00012 1.00136 1 0.998763
1.00214 1.00362 1 0.998525
1.02804 1.03125 1 0.996881
1.023 1.02589 1 0.997189
1.02686 1.02992 1 0.997029
1.04591 1.04983 1 0.996258
0.998464 1 1 0.998464
0.998525 1.00006 1 0.998467
1.02137 1.02457 1 0.996869
1.0258 1.02903 1 0.996853
1.02775 1.03092 1 0.996925
1.0586 1.06255 1 0.996283
1 1 1 1
1.04982 1.05376 1 0.996261
0.99928 1.00001 1.00042 0.998848
1.01498 1.01789 1 0.997149
1.04253 1.04647 1 0.996235
1.05075 1.05473 1 0.996226
1.00151 1 1.00226 0.999254
1.00646 1 1.00846 0.998018
1 1 1 1
1 1 1 1
1.00449 1.00595 1 0.998543
1 1 1 1
0.999272 1.00011 1.00033 0.998829
1.00169 1.00306 1 0.998639
1.01451 1.01748 1 0.997082
1 1 1 1
1.00158 1 1.00195 0.999634
1.00411 1.00552 1 0.998597
1.00419 1.0055 1 0.9987
1.0302 1.03362 1 0.996686
0.999982 1 1.00087 0.999113
1.02109 1.02417 1 0.996994
1.00854 1.01125 1.00007 0.997248
1.03232 1.03613 1 0.996324
1.00121 1 1.00185 0.999364
1.00101 1 1.00123 0.999786
1.00476 1.00018 1.00624 0.998353
1.03284 1.03636 1 0.9966
1.02738 1.03064 1 0.996836
1.05344 1.05751 1 0.996144
1.00478 1.00639 1.00084 0.99756
1.04 1.04382 1 0.996335
1.02172 1.02482 1.00057 0.996398
1.03931 1.04326 1 0.996213
1 1 1 1
1 1 1 1
1 1 1 1
1.00175 1 1.00232 0.99943
1 1 1 1
1 1 1 1
1 1 1 1
1.00095 1.00251 1 0.998439
0.998494 1.00005 1 0.998446
1 1 1 1
1 1 1 1
0.998441 1 1 0.998441
0.99897 1.00041 1 0.998564
1.02296 1.02647 1 0.996584
1.00243 1.00399 1 0.998446
1.02997 1.0335 1 0.996583
0.998442 1 1 0.998442
1.02075 1.02428 1 0.996562
1.0255 1.029 1 0.996598
1.06264 1.06685 0.999734 0.99632
1.03294 1.03649 1 0.996574
1.06534 1.06932 1 0.996277
1 1 1 1
0.999553 1 1 0.999553
0.998181 1 1 0.998181
0.998784 1.00034 1 0.998441
1 1 1 1
1.00111 1.00226 1 0.998853
1.00198 1.00346 1 0.998525
1.02813 1.03138 1 0.996853
1.02755 1.03059 1 0.99705
1.02242 1.02532 1 0.997175
1.04576 1.04967 1 0.996267
0.998461 1 1 0.998461
0.998497 1.00004 1 0.998458
1.0213 1.02465 1 0.99673
1.02614 1.02937 1 0.996865
1 1 1 1
0.999611 1.00047 1.00022 0.998926
1.01643 1.01924 1 0.997241
1.02815 1.03133 1 0.996918
1.05869 1.06263 1 0.996288
1.04255 1.0465 1 0.996231
1.04999 1.05389 1 0.996294
1.05032 1.05429 1 0.996236
1.00134 1 1.0021 0.999241
1.00535 1.00004 1.00731 0.998019
1.02057 1.02407 1 0.996583
1.02237 1.02558 1 0.99687
1.05979 1.06367 0.999999 0.996351
1.05911 1.06383 0.999257 0.996303
1.05446 1.05834 1 0.996339
1.06042 1.06539 0.998844 0.996485
1.00045 1 1.0014 0.999052
1.05368 1.05752 1 0.996364
1.00813 1.0107 1.00011 0.99735
1.03704 1.04093 1 0.996267
1.04834 1.05245 1 0.9961
1.05006 1.05374 1 0.996505
1.00348 1.00098 1.00477 0.997742
1.00641 1 1.00808 0.998347
1.00451 1.00162 1.0056 0.997304
1.00427 1.0058 1 0.998487
1 1 1 1
1.00113 1 1.00147 0.999658
1.00368 1.00509 1 0.998604
1.02963 1.03306 1 0.996685
1.00019 1 1.00108 0.999112
1.00699 1.00973 1.00004 0.997246
1.0206 1.02368 1 0.996995
1.03386 1.03768 1 0.99632
1.00133 1 1.00194 0.999386
1.00062 1 1.00082 0.999805
1.00554 1 1.0072 0.998353
1.03199 1.03552 1 0.996597
1.0267 1.02996 1 0.996839
1.05357 1.05765 1 0.996138
1.0031 1.00494 1.00061 0.997565
1.04062 1.04444 1 0.996335
1.02409 1.02732 1.00047 0.99639
1.04058 1.04454 1 0.996217
1.00036 1 1.00047 0.999885
1.00332 1.0018 1.0036 0.997925
1.00476 1 1.00598 0.998793
1.00641 1.00195 1.0068 0.997667
1.05787 1.06196 1 0.996149
1.04747 1.05144 1 0.996229
1.05536 1.05942 1 0.996175
1.01342 1.01623 1.00049 0.996751
1.0427 1.04655 1 0.99632
1.03638 1.03878 1.00158 0.996112
1.04926 1.05328 1 0.996184
0.999536 1 1 0.999536
0.999962 1 1 0.999962
1 1 1 1
1 1 1 1
1 1 1 1
1.0014 1 1.0018 0.999604
1 1 1 1
1.00194 1 1.00253 0.999414
1 1 1 1
1.00303 1.00459 1 0.998447
0.999218 1.00077 1 0.998446
1.02991 1.03344 1 0.996582
1.0237 1.02721 1 0.996585
0.998442 1 1 0.998442
1 1 1 1
0.998441 1 1 0.998441
1.02107 1.0246 1 0.996562
1.02637 1.02988 1 0.996597
1.06186 1.066 0.9998 0.996319
1.03219 1.03575 1 0.99657
1.06479 1.06877 1 0.996274
1.02033 1.02385 1 0.996562
1.06027 1.06436 0.999852 0.996301
1.06544 1.06954 0.999855 0.996315
1.06391 1.0724 0.995399 0.996665
1.06248 1.06652 1 0.996212
1.06403 1.07054 0.997357 0.996554
0.998459 1 1 0.998459
0.99845 1 1 0.998449
1.02125 1.02474 1 0.996592
1.02638 1.0296 1 0.996878
1 1 1 1
0.999695 1.00065 1.00004 0.999005
1.01754 1.02027 1 0.997332
1.02856 1.03174 1 0.996911
1.0587 1.06264 1 0.996292
1.04999 1.05386 1 0.996326
1.04283 1.04677 1 0.996228
1.04997 1.05393 1 0.996245
1.00133 1 1.0021 0.999228
1.00506 1.0003 1.00675 0.998021
1.02047 1.02398 1 0.996575
1.02253 1.02575 1 0.996864
1.05933 1.06354 0.999663 0.996379
1.06003 1.06438 0.999612 0.996295
1.00008 1 1.00104 0.999041
1.00974 1.01228 1.00014 0.997349
1.03646 1.04032 1 0.996293
1.05429 1.05819 1 0.996315
1.05971 1.06497 0.998514 0.996536
1.04807 1.05218 1 0.996091
1.05368 1.05752 1 0.996368
1.05011 1.0538 1 0.996497
1.00402 1.00173 1.00456 0.997742
1.00529 1.00206 1.00594 0.9973
1.00686 1 1.00853 0.998347
1.05903 1.06294 0.999991 0.996331
1.06023 1.06467 0.99945 0.99638
1.0636 1.07052 0.996929 0.996594
1.06112 1.06799 0.997007 0.996553
1.05587 1.06048 0.999158 0.996489
1.05207 1.06247 0.993354 0.996842
1.00232 1.00411 1.00067 0.997555
1.05139 1.05643 0.998554 0.99667
1.02387 1.02743 1 0.996535
1.04025 1.04452 1 0.995914
1.04587 1.04993 1 0.996132
1.04323 1.04731 0.999326 0.996776
1.00614 1 1.00751 0.998648
1.00303 1.00524 1.00067 0.997129
1.00853 1.00009 1.01098 0.997487
1.00468 1.00505 1.00266 0.996984
1.03122 1.03474 1 0.996593
1.00022 1 1.00039 0.999823
1.00156 1 1.00215 0.999409
1.00708 1 1.00874 0.998352
1.02614 1.02939 1 0.996841
1.05362 1.05771 1 0.996133
1.00077 1.00278 1.00043 0.99757
1.02503 1.02842 1.00033 0.996382
1.0416 1.04543 1 0.996335
1.04053 1.04448 1 0.996222
1.00006 1 1.00016 0.999898
1.00342 1.00109 1.0044 0.997928
1.00484 1 1.00605 0.998801
1.006 1.00132 1.00703 0.997662
1.05794 1.06203 1 0.996142
1.04768 1.05165 1 0.996226
1.05485 1.0589 1 0.996173
1.01113 1.01396 1.00045 0.996757
1.04228 1.04614 1 0.99631
1.03426 1.03652 1.00173 0.996099
1.04869 1.05261 1 0.996273
0.999937 1 1 0.999937
1.00233 1 1.0032 0.999131
1.00637 1.00722 1.00191 0.997251
1.00834 1.00059 1.00972 0.998048
1.00412 1.00349 1.00322 0.997413
1.06036 1.06436 0.999971 0.996271
1.04856 1.05255 1 0.996211
1.04987 1.05372 1 0.996345
1.01549 1.01717 1.00199 0.996362
1.04225 1.04606 1 0.996355
1.02911 1.03243 1.00086 0.995931
0.999467 1 1 0.999467
0.999752 1 1.00086 0.99889
0.999596 1 1 0.999596
0.999538 1 1 0.999538
0.999976 1 1 0.999976
0.999966 1 1 0.999966
1 1 1 1
1 1 1 1
1 1 1 1
1.00043 1 1.00065 0.99978
1 1 1 1
1.00168 1 1.0021 0.999587
1 1 1 1
1.00172 1 1.00233 0.999397
1 1 1 1
1.03134 1.03489 1 0.996566
1.02694 1.03045 1 0.996596
1.06382 1.06781 1 0.996272
1.06103 1.0651 0.999867 0.996318
1.02146 1.02499 1 0.996563
0.99844 1 1 0.99844
1.02041 1.02393 1 0.996562
1.06011 1.06418 0.999878 0.996301
1.06394 1.06801 0.999883 0.996313
1.06373 1.0727 0.994937 0.996682
1.06204 1.06608 1 0.996207
1.06446 1.07083 0.997483 0.996553
1.05908 1.06309 0.99994 0.996291
1.06354 1.07211 0.995295 0.996689
1.06363 1.07206 0.995494 0.996632
1.05786 1.06876 0.992881 0.996898
1.06228 1.06688 0.999267 0.996425
1.05681 1.07064 0.990152 0.996898
1.02039 1.02391 1 0.996567
1.02273 1.02595 1 0.996858
1.05892 1.06343 0.999347 0.996406
1.06108 1.06504 1 0.996286
0.999721 1 1.00069 0.999031
1.01208 1.01462 1.00014 0.997349
1.03689 1.04072 1 0.996319
1.05412 1.05804 1 0.996291
1.05899 1.06458 0.998161 0.996587
1.0537 1.05754 1 0.996373
1.04768 1.0518 1 0.996082
1.05028 1.05398 1 0.99649
1.00421 1.0024 1.00407 0.997741
1.00579 1.00222 1.00629 0.997295
1.00693 1 1.0086 0.998347
1.05903 1.06295 0.999994 0.996317
1.0601 1.06471 0.999288 0.996378
1.06301 1.0705 0.996349 0.99664
1.06099 1.06753 0.997336 0.996528
1.00446 1.00606 1.00087 0.997553
1.02396 1.02753 1 0.996533
1.03908 1.04328 1.00003 0.995947
1.0563 1.06066 0.999449 0.996446
1.05177 1.06285 0.992658 0.996891
1.04698 1.05109 1 0.996093
1.05164 1.05663 0.998601 0.996671
1.04439 1.0483 0.99946 0.996813
1.00447 1.0061 1.00126 0.997129
1.0045 1.00465 1.00292 0.996941
1.00571 1 1.00707 0.998645
1.00813 1.00001 1.01061 0.997527
1.06294 1.07044 0.996347 0.99664
1.06424 1.07161 0.996529 0.996577
1.05279 1.06418 0.992456 0.996815
1.0505 1.06472 0.989697 0.996919
1.05195 1.05978 0.995782 0.996818
1.05054 1.06403 0.990222 0.997067
1.01034 1.01352 1 0.996853
1.04358 1.052 0.994941 0.99704
1.0265 1.0305 1 0.996114
1.03643 1.04067 1.00018 0.995752
1.04629 1.05034 1 0.996139
1.04663 1.05044 0.999529 0.996841
1.00171 1 1.0028 0.998918
1.01118 1.00004 1.01339 0.997779
1.00647 1.00972 1 0.996778
1.00651 1.00289 1.00645 0.997176
1.0071 1.00586 1.00446 0.99679
0.999912 1 1 0.999912
1.05795 1.06206 1 0.996136
1.00467 1 1.00587 0.998809
1.00361 1.00056 1.00513 0.997931
1.00533 1.00066 1.00703 0.997657
1.04783 1.0518 1 0.996223
1.05439 1.05845 1 0.99617
1.01073 1.01349 1.00051 0.996763
1.03439 1.03645 1.00193 0.996086
1.04195 1.04582 1 0.996299
1.04898 1.05281 1 0.996361
0.999945 1 1 0.999945
1.00209 1 1.00296 0.999141
1.00419 1.00561 1.00134 0.997257
1.00949 1.00046 1.011 0.998044
1.00381 1.00281 1.00363 0.997375
1.06011 1.06411 0.999979 0.996266
1.04834 1.05233 1 0.996209
1.04976 1.05366 0.999967 0.996334
1.01672 1.01827 1.00213 0.996361
1.0453 1.04914 1 0.996341
1.02936 1.03254 1.00096 0.995961
1.00014 1 1.00079 0.999348
1.00514 1 1.00672 0.998435
1.00241 1.00507 1.00048 0.996882
1.01028 1.00266 1.00993 0.99769
1.00503 1.00571 1.00203 0.997299
1.05703 1.06222 0.998605 0.996502
1.04384 1.0477 1 0.996317
1.04849 1.05259 0.999539 0.996562
1.00569 1.00571 1.00379 0.996207
1.02649 1.03068 1 0.995936
0.999469 1 1 0.999469
0.998821 1 1.00002 0.998803
0.999857 1 1.00099 0.998865
0.999783 1 1.00118 0.998609
0.999719 1 1.00078 0.99894
0.999633 1 1 0.999633
0.999598 1 1 0.999598
0.999988 1 1 0.999988
0.99954 1 1 0.99954
0.99998 1 1 0.99998
1 1 1 1
0.99997 1 1 0.99997
1 1 1 1
1 1 1 1
0.999916 1 1 0.999916
1.00102 1 1.00126 0.99976
1 1 1 1
1 1 1 1
1.00222 1 1.00265 0.99957
1 1 1 1
1.06169 1.06573 1 0.996202
1.06284 1.06687 0.999909 0.996311
1.06503 1.0713 0.997589 0.996551
1.06363 1.0731 0.994462 0.9967
1.05987 1.0639 0.999905 0.996301
1.02044 1.02396 1 0.996562
1.05911 1.0631 0.999956 0.996292
1.06329 1.07176 0.995398 0.996683
1.06429 1.07273 0.995489 0.996632
1.05732 1.06876 0.992344 0.996928
1.06319 1.0677 0.99935 0.996419
1.0571 1.07073 0.990316 0.99692
1.06323 1.07127 0.995829 0.996659
1.05542 1.06762 0.991667 0.996877
1.05794 1.07014 0.991615 0.996966
1.05774 1.07284 0.988845 0.997048
1.05836 1.06812 0.994116 0.996732
1.05775 1.07471 0.987062 0.997122
1.05897 1.06291 0.999985 0.996304
1.05992 1.06471 0.999117 0.996376
1.06236 1.07043 0.995759 0.996687
1.06073 1.06697 0.997635 0.996503
1.00606 1.00744 1.00108 0.997552
1.02215 1.02571 1 0.996531
1.03727 1.04127 1.00018 0.995979
1.05676 1.06083 0.999763 0.996403
1.05151 1.06321 0.992027 0.996939
1.05181 1.05676 0.99864 0.996673
1.04789 1.05204 1 0.996054
1.04511 1.04884 0.999587 0.996851
1.00643 1.00741 1.00191 0.997129
1.00431 1.00452 1.0029 0.996898
1.00561 1 1.00698 0.998643
1.00761 1.00012 1.00995 0.997568
1.06299 1.07049 0.99635 0.996639
1.06385 1.07116 0.996607 0.996558
1.05291 1.06446 0.992281 0.996846
1.05148 1.06487 0.990499 0.996901
1.01095 1.01409 1.00006 0.996845
1.02502 1.02895 1.00003 0.996151
1.03634 1.04037 1.00039 0.995741
1.05254 1.0598 0.996378 0.996767
1.04915 1.06306 0.989766 0.997123
1.04308 1.04714 1 0.996124
1.04466 1.05317 0.994867 0.99704
1.04722 1.05106 0.999435 0.996907
1.0057 1.00895 1 0.99678
1.00558 1.00592 1.00289 0.996779
1.00683 1.0023 1.00737 0.997171
1.00246 1 1.00358 0.998885
1.01077 1.00003 1.01295 0.997823
1.05412 1.0664 0.991601 0.996861
1.05418 1.06743 0.990671 0.996883
1.04982 1.06842 0.985441 0.997106
1.04482 1.05955 0.988939 0.997128
1.01313 1.01669 1 0.996495
1.04873 1.05764 0.99435 0.997213
1.01518 1.01908 1.00029 0.995881
1.03044 1.03449 1.00051 0.995576
1.0398 1.04384 1 0.996134
0.999865 1 1.0007 0.99917
1.00881 1 1.01063 0.998199
1.00756 1 1.01007 0.997508
1.00529 1.00823 1.00046 0.996637
1.00741 1.00397 1.00663 0.996824
1.00821 1.00683 1.00476 0.996621
0.999953 1 1 0.999953
1.00148 1 1.00233 0.999151
1.05984 1.06382 0.999991 0.99626
1.0107 1.0003 1.01238 0.998039
1.00124 1.00324 1.00074 0.997264
1.00352 1.00228 1.0039 0.997338
1.04801 1.052 1 0.996207
1.04972 1.05367 0.999933 0.996322
1.0168 1.01819 1.00229 0.996361
1.02835 1.03169 1.00077 0.995992
1.04845 1.05232 1 0.996327
0.999724 1 1.00037 0.999354
1.00583 1 1.00741 0.998439
1.00475 1.00749 1.00041 0.996865
1.01057 1.00211 1.01078 0.997684
1.00538 1.00636 1.00174 0.997291
1.05623 1.06132 0.998704 0.996496
1.04522 1.04909 1 0.996304
1.04911 1.0532 0.999531 0.996586
1.00716 1.00776 1.00324 0.996173
1.02485 1.02901 1.00006 0.995905
1.00093 1 1.00222 0.998715
1.01038 1 1.0124 0.998
1.00492 1.00623 1.002 0.996714
1.01119 1.0065 1.00726 0.997423
1.01607 1.01799 1.001 0.997118
1.04931 1.06064 0.992296 0.996994
1.04627 1.05026 1 0.996192
1.04959 1.0536 0.999639 0.996552
1.00853 1.00811 1.00433 0.996098
1.01263 1.017 1 0.995707
0.999472 1 1 0.999472
0.998835 1 1.00002 0.998819
0.998645 1 1.00008 0.998561
0.999469 1 1.00063 0.998839
0.99942 1 1.00048 0.998938
1.00025 1 1.00167 0.998586
0.999379 1 1.00083 0.998555
1.00085 1 1.00232 0.998528
0.9991 1 1.00012 0.998982
0.999628 1 1 0.999628
0.999633 1 1 0.999633
0.999996 1 1 0.999996
0.999601 1 1 0.999601
0.99999 1 1 0.99999
1 1 1 1
0.999983 1 1 0.999983
1 1 1 1
1 1 1 1
0.999979 1 1 0.999979
0.999977 1 1.00008 0.999894
1 1 1 1
1.00136 1 1.00162 0.99974
1 1 1 1
1 1 1 1
1.06409 1.06853 0.999432 0.996413
1.0647 1.07313 0.995498 0.996633
1.05734 1.07076 0.99049 0.996942
1.05677 1.06872 0.99184 0.996957
1.06307 1.07142 0.995516 0.996678
1.0592 1.06317 0.999968 0.996293
1.06323 1.07104 0.996049 0.99664
1.05601 1.0678 0.992062 0.99687
1.05731 1.06957 0.991562 0.996951
1.05637 1.07223 0.988115 0.997059
1.05796 1.06745 0.994362 0.996734
1.05543 1.07317 0.986272 0.997159
1.05622 1.06753 0.992524 0.996851
1.05736 1.07391 0.987503 0.997048
1.05833 1.07535 0.986999 0.997141
1.05065 1.07056 0.984182 0.997178
1.06309 1.07058 0.996352 0.996638
1.06356 1.0708 0.996692 0.99654
1.05307 1.06477 0.992108 0.996877
1.05253 1.06513 0.99126 0.996884
1.01232 1.01549 1.00004 0.996838
1.02414 1.02806 1 0.996188
1.03629 1.04013 1.00058 0.995729
1.05302 1.05975 0.996928 0.996716
1.04774 1.06211 0.989261 0.997178
1.04573 1.05432 0.994798 0.997041
1.04056 1.04463 1 0.996109
1.0485 1.05225 0.999462 0.996972
1.0033 1.0064 1.00014 0.996782
1.00489 1.0064 1.00174 0.996767
1.0075 1.00165 1.00871 0.997167
1.00284 1 1.00399 0.998853
1.01061 1 1.01277 0.997867
1.05429 1.06651 0.991657 0.996863
1.05471 1.06802 0.990629 0.996878
1.05005 1.06767 0.986361 0.997099
1.0132 1.01677 1 0.996493
1.01543 1.01933 1.00026 0.995918
1.0288 1.0326 1.00076 0.995564
1.04514 1.05945 0.989348 0.997114
1.04292 1.04691 0.999936 0.996252
1.04499 1.05419 0.994081 0.997179
1.00004 1 1.00082 0.999216
1.0054 1.00719 1.0016 0.996631
1.00772 1.00536 1.00562 0.996733
1.01008 1.00529 1.00798 0.996819
1.0088 1.00077 1.01052 0.99753
1.00898 1 1.01084 0.998164
1.05607 1.072 0.988163 0.996936
1.05404 1.0755 0.982949 0.997041
1.04341 1.06617 0.981419 0.997185
1.04073 1.06144 0.983124 0.997325
1.00925 1.01275 1.00024 0.996311
1.04003 1.04606 0.997452 0.996775
1.00646 1.00935 1.00165 0.995505
1.01791 1.02152 1.00104 0.995422
0.99953 1 1 0.99953
1.0028 1 1.00423 0.998576
1.00833 1 1.01051 0.997843
1.00923 1.00154 1.01069 0.997022
1.00589 1.00491 1.00449 0.996503
1.01225 1.00476 1.01104 0.996452
0.999476 1 1.00012 0.99936
1.00685 1 1.00842 0.998443
1.05557 1.06056 0.998804 0.996491
1.01069 1.0014 1.01163 0.997678
1.00704 1.00995 1.00027 0.996849
1.00484 1.00604 1.00152 0.997282
1.04672 1.05062 1 0.996291
1.04966 1.05374 0.999525 0.99661
1.00902 1.01017 1.00273 0.996139
1.02312 1.02708 1.00027 0.995874
1.00088 1 1.00217 0.998719
1.01086 1 1.01291 0.997979
1.0053 1.00661 1.00198 0.996721
1.01098 1.0069 1.00664 0.997429
1.01748 1.01988 1.00048 0.99718
1.0515 1.06263 0.992464 0.997041
1.04566 1.04963 1 0.996225
1.05041 1.05442 0.99956 0.99663
1.00905 1.00842 1.00458 0.996064
1.0123 1.01671 1.00003 0.995626
1.00214 1 1.00375 0.998404
1.01132 1.00191 1.01181 0.997618
1.01181 1.01138 1.00378 0.996652
1.01473 1.01615 1.00161 0.996998
1.04874 1.08046 0.973276 0.997291
1.04778 1.05541 0.995703 0.997054
1.03221 1.03653 1 0.995837
1.01508 1.01515 1.00426 0.995688
0.998835 1 1 0.998835
0.998716 1 1.00015 0.998569
0.998598 1 1 0.998598
0.999641 1 1.00071 0.998936
1.00109 1 1.00253 0.998563
0.999178 1 1.0002 0.998979
0.99923 1 1.00066 0.998573
1.00129 1 1.00276 0.998536
0.998686 1 1 0.998686
1.00132 1 1.00292 0.998401
1.00058 1 1.00209 0.998495
0.998961 1 1 0.998961
0.99959 1 1 0.99959
0.999626 1 1 0.999626
0.999999 1 1 0.999999
0.999634 1 1 0.999634
0.999997 1 1 0.999997
1 1 1 1
0.999993 1 1 0.999993
1 1 1 1
1 1 1 1
0.999998 1 1 0.999998
0.999966 1 1 0.999966
1 1 1 1
1.00025 1 1.00037 0.999872
1 1 1 1
1 1 1 1
1.05748 1.0667 0.994603 0.996736
1.05678 1.06912 0.991501 0.996936
1.0532 1.0717 0.985501 0.997196
1.05498 1.07164 0.987338 0.99707
1.0566 1.06801 0.992424 0.996863
1.06321 1.07081 0.996268 0.996622
1.05598 1.06742 0.992414 0.996852
1.05715 1.07355 0.987642 0.997039
1.05681 1.0745 0.986362 0.997138
1.05157 1.07129 0.984361 0.997189
1.05834 1.07384 0.988543 0.996994
1.05846 1.08037 0.982473 0.997198
1.05797 1.08241 0.980116 0.99725
1.05445 1.06661 0.991714 0.996864
1.05517 1.06852 0.990607 0.996874
1.05035 1.06689 0.987374 0.997091
1.01464 1.01821 1 0.99649
1.01521 1.01915 1.00018 0.995955
1.02691 1.03063 1.00085 0.995552
1.04553 1.05944 0.989741 0.9971
1.04097 1.05087 0.993418 0.997145
1.04571 1.04975 0.999776 0.996371
1.00481 1.00589 1.00231 0.996625
1.00325 1.00202 1.0044 0.996846
1.0119 1.00624 1.00884 0.996813
1.00012 1 1.00086 0.999262
1.00887 1.00151 1.00981 0.997552
1.00936 1 1.01125 0.998129
1.05679 1.07242 0.988451 0.996944
1.05326 1.0752 0.982489 0.997046
1.04371 1.06605 0.981818 0.997177
1.00679 1.01044 1.00008 0.996305
1.00626 1.00932 1.0014 0.995579
1.01802 1.02168 1.0009 0.995516
1.04116 1.06119 0.983753 0.997327
1.03607 1.04285 0.996732 0.996753
0.999602 1 1 0.999602
1.00268 1 1.00411 0.998573
1.00289 1.00348 1.00288 0.996544
1.01463 1.00394 1.01408 0.996613
1.00958 1.0026 1.00992 0.997073
1.00831 1.0001 1.01044 0.9978
1.0562 1.0787 0.98198 0.997117
1.04404 1.07755 0.97168 0.99714
1.04037 1.06603 0.978503 0.99737
1.03014 1.04749 0.98608 0.997324
1.00221 1.00485 1.00133 0.996052
1.0195 1.02252 1.00119 0.99586
1.00713 1.00921 1.00264 0.995308
0.999792 1 1 0.999792
0.999244 1 1 0.999244
0.999527 1 1.0006 0.998932
1.00319 1 1.00513 0.99807
1.0092 1 1.0118 0.997433
1.0131 1.00251 1.01383 0.996784
1.00328 1.00192 1.00468 0.996697
1.03871 1.0022 1.03963 0.996929
1.00064 1 1.00192 0.998723
1.01131 1 1.01338 0.997959
1.05381 1.06468 0.992685 0.997089
1.01268 1.00893 1.0063 0.997436
1.00581 1.00694 1.00215 0.99673
1.01855 1.02133 1.00004 0.997242
1.04495 1.04888 1 0.996257
1.05117 1.05519 0.999479 0.996708
1.00942 1.00858 1.00482 0.996031
1.01173 1.01626 1 0.995545
1.00248 1 1.00412 0.998362
1.00981 1.00093 1.01128 0.997616
1.01495 1.01413 1.00415 0.996673
1.01483 1.01641 1.00142 0.997038
1.05019 1.08288 0.972432 0.99731
1.05015 1.05698 0.996528 0.997
1.03103 1.03528 1 0.995891
1.01696 1.01758 1.00377 0.995637
1.00338 1 1.00521 0.998186
1.05594 1.0886 0.972607 0.997316
1.00511 1.00191 1.00596 0.997242
1.01491 1.01583 1.00268 0.996433
1.03733 1.06693 0.974771 0.997427
1.02693 1.0315 0.999588 0.995979
1.01222 1.0136 1.00323 0.995417
0.998584 1 1.00001 0.998577
0.998402 0.999715 1.0001 0.998588
0.999084 0.999624 1.00073 0.998731
0.999061 1 1.00008 0.998977
1.00129 1 1.00275 0.998544
0.999325 1 1.00073 0.998591
0.998957 1 1 0.998957
1.0007 1 1.0022 0.998501
0.998763 1 1.00005 0.998712
1.00072 1 1.00231 0.998413
0.998815 1 1 0.998815
0.998966 1 1.00041 0.998556
1.00126 1 1.003 0.998263
0.998825 1 1.00041 0.998413
0.998877 1 1 0.998877
0.999544 1 1 0.999544
0.999586 1 1 0.999586
1 1 1 1
0.999624 1 1 0.999624
0.999999 1 1 0.999999
1 1 1 1
0.999998 1 1 0.999998
1 1 1 1
1 1 1 1
0.999822 1 1 0.999822
1 1 1 1
0.999994 1 1 0.999994
1 1 1 1
0.999953 1 1 0.999953
1 1 1 1
1 1 1 1
1.05249 1.07201 0.984546 0.997199
1.05531 1.07363 0.985764 0.997136
1.05697 1.0732 0.987812 0.99703
1.05571 1.06726 0.992305 0.996852
1.05795 1.0738 0.988193 0.997013
1.05837 1.07996 0.982771 0.997189
1.05524 1.07964 0.98009 0.997256
1.05798 1.08051 0.98192 0.99718
1.06977 1.09459 0.979981 0.997283
1.06928 1.09701 0.97712 0.997549
1.05753 1.07283 0.988747 0.996953
1.05227 1.0749 0.981842 0.997051
1.04406 1.06596 0.982232 0.997169
1.00566 1.00934 1.00006 0.996298
1.00704 1.01015 1.00126 0.995656
1.01997 1.02367 1.00078 0.995609
1.04178 1.06066 0.984829 0.99733
1.03173 1.03889 0.996362 0.996731
1.00408 1.00369 1.00381 0.996586
1.01895 1.00441 1.01777 0.996771
1.01107 1.00348 1.01047 0.997123
0.999673 1 1 0.999673
1.00253 1 1.00397 0.998571
1.00838 1.00006 1.01059 0.997756
1.05598 1.07903 0.981451 0.997127
0.999787 1 1 0.999787
0.999204 1 1 0.999204
1.04521 1.07658 0.973649 0.997142
1.03845 1.06448 0.978156 0.99734
1.00309 1.00506 1.00192 0.996134
1.00687 1.00827 1.00332 0.995311
1.01867 1.02288 1.00004 0.995848
1.02914 1.04732 0.985306 0.997297
0.999683 1 1.00066 0.999019
1.0034 1 1.00535 0.998059
1.00357 1.00185 1.00514 0.996588
1.03309 1.00203 1.03403 0.997061
1.01026 1.00179 1.01169 0.9968
1.00831 1 1.01089 0.997448
1.0668 1.09507 0.976881 0.997233
1.02548 1.07521 0.956363 0.997273
1.02573 1.05543 0.974278 0.997518
1.01159 1.02746 0.987497 0.997016
1.00552 1.0028 1.00646 0.996283
1.007 1.00615 1.0055 0.995362
0.999154 1 1 0.999154
0.999215 1 1 0.999215
0.998906 1.00001 1 0.998896
0.998976 1 1.00068 0.998301
1.00785 1 1.01008 0.997789
1.00643 1.00036 1.00901 0.997083
1.05486 1.00014 1.05804 0.996847
0.997621 1.00049 0.999711 0.997417
1.00326 1 1.00494 0.99832
1.00775 1 1.01016 0.997614
1.05108 1.08437 0.971894 0.997329
1.05212 1.05817 0.997324 0.996946
1.01508 1.01688 1.00115 0.997078
1.01866 1.01755 1.00441 0.996693
1.03021 1.03437 1.00004 0.995944
1.01946 1.02056 1.00335 0.995585
1.00346 1 1.00531 0.998164
1.05891 1.09228 0.971993 0.99738
1.00525 1.00108 1.0069 0.997281
1.01302 1.01398 1.00269 0.996369
1.03696 1.06636 0.974958 0.997402
1.02573 1.03023 0.999566 0.996068
1.01343 1.01455 1.00348 0.995432
1.00664 0.999639 1.00913 0.997894
1.01095 1.05316 0.962032 0.997802
1.0045 1.00281 1.00472 0.996981
1.00506 1.00539 1.00379 0.995894
1.01747 1.03294 0.988036 0.996947
1.00283 1.00497 1.00221 0.995662
0.966469 1.00308 0.966459 0.99694
0.997998 0.999156 1.00026 0.998579
0.998986 0.998679 1.00158 0.998733
1.0002 0.99985 1.00169 0.998668
0.998954 1 1 0.998954
1.00144 1 1.00293 0.998507
0.999789 1 1.00137 0.998426
0.998859 1 1.00012 0.998739
0.998876 1 1 0.998876
0.998949 1 1.00054 0.99841
0.998781 1 1 0.998781
1.00113 1 1.00287 0.998264
0.998885 1 1.00036 0.99853
0.999446 1 1.00068 0.99877
0.998753 1 1.00067 0.998085
1.00199 1 1.00376 0.99823
0.998493 1 1.00021 0.998284
0.998718 1 1 0.998718
0.999915 1 1.00144 0.998473
0.999026 1 1.00034 0.998683
0.999523 1 1 0.999523
0.99954 1 1 0.99954
1 1 1 1
0.999582 1 1 0.999582
1 1 1 1
1 1 1 1
0.999999 1 1 0.999999
1 1 1 1
1 1 1 1
0.999857 1 1 0.999857
0.999824 1 1 0.999824
1 1 1 1
1 1 1 1
1 1 1 1
0.99999 1 1 0.99999
1 1 1 1
1 1 1 1
1.05264 1.07712 0.979949 0.997263
1.05808 1.07945 0.982974 0.99718
1.05759 1.07379 0.987844 0.997032
1.05784 1.08031 0.981972 0.997178
1.06687 1.09186 0.979777 0.997279
1.06805 1.09525 0.977638 0.997468
1.07349 1.10335 0.975524 0.997348
0.96508 1.01605 0.954616 0.994987
1.02076 1.05626 0.968071 0.998266
0.999319 1 1 0.999319
1.05579 1.07932 0.981008 0.997137
1.0465 1.07579 0.97556 0.997143
1.03628 1.06315 0.977354 0.997309
1.00005 1.00303 1.00082 0.996214
1.00537 1.00606 1.00402 0.995313
1.01722 1.02207 0.999414 0.995836
1.02772 1.0471 0.984185 0.99727
0.998818 1.00199 1.00035 0.996483
1.02697 1.00097 1.02886 0.997199
1.00705 1.00076 1.00949 0.996817
0.999781 1 1 0.999781
1.00887 1 1.01143 0.997464
0.999645 1 1.00054 0.999106
1.00365 1 1.00562 0.998049
0.999165 1 1 0.999165
1.06325 1.09528 0.97344 0.997241
0.999204 1 1 0.999204
0.999221 1 1.00001 0.999216
0.99867 1.00031 0.999498 0.998859
1.02998 1.07573 0.960087 0.99727
1.02534 1.05521 0.974163 0.99747
1.00189 1.00217 1.00342 0.996315
1.01161 1.01072 1.0054 0.995498
1.01026 1.02515 0.988445 0.996998
0.999067 1 1.0007 0.998363
1.00755 1 1.00984 0.997736
1.00814 1.00031 1.01058 0.997276
1.04417 1.00034 1.04709 0.996864
1.00643 1.00059 1.00873 0.997137
1.04002 1.08382 0.962138 0.99735
1.00495 1.06244 0.948325 0.997431
1.01738 1.03681 0.984055 0.997159
0.992667 1.01144 0.984623 0.996762
1.00372 1 1.0067 0.997037
0.998725 1 1 0.998725
0.998761 1.00011 1 0.998649
0.999858 1 1.00124 0.998625
1.00843 1 1.01036 0.998091
1.00995 1 1.01232 0.997659
1.04044 0.999899 1.04343 0.997229
1.03219 1.00173 1.03309 0.997406
1.00343 1 1.0053 0.998141
1.00491 1 1.00761 0.997319
1.06073 1.09663 0.969742 0.997443
1.03711 1.06659 0.974918 0.997376
1.02482 1.02931 0.999482 0.996157
1.01008 1.01111 1.00268 0.996305
1.01408 1.01506 1.0036 0.995448
1.00675 0.999887 1.00894 0.997945
1.01162 1.05404 0.96183 0.997847
1.00152 1.00179 1.00275 0.996989
1.004 1.00405 1.00408 0.995894
1.01607 1.03248 0.986988 0.997073
1.00348 1.00512 1.00273 0.995657
0.96725 1.00296 0.96842 0.995849
1.00691 0.999815 1.00929 0.997822
0.998114 1.02511 0.975818 0.997794
1.00076 1.00137 1.00261 0.996791
1.00422 1.00159 1.00644 0.996213
0.991869 1.00624 0.988849 0.996833
0.905121 0.975132 0.954518 0.972431
0.897244 0.964885 0.943395 0.985692
0.963926 0.98264 0.983756 0.997153
0.70513 0.826096 0.905027 0.943142
0.61944 0.778184 0.860382 0.925178
0.999007 0.997892 1.00238 0.998736
1.00104 0.998592 1.00374 0.998721
1.00138 1 1.00268 0.998703
0.998876 1 1 0.998876
0.998851 1 1.00045 0.998406
1.00049 1 1.00223 0.998265
0.998846 1 1.00034 0.998503
0.998747 1 1 0.998747
1.00268 1 1.00448 0.998209
0.998755 1 1 0.998755
0.998477 1 1.00017 0.998304
0.999231 1 1.00052 0.998716
0.99918 1 1.00104 0.99814
1.00378 1 1.00564 0.998157
1.0049 1 1.00658 0.998333
1.00329 1 1.00514 0.998155
0.999005 1 1.00081 0.998195
0.998684 1 1 0.998684
0.999215 1 1.00092 0.998298
0.999647 1 1.0013 0.998344
0.999558 1 1.00104 0.998523
0.999875 1 1.00144 0.998434
0.998901 1 1.00009 0.998807
0.999127 1 1.00045 0.99868
0.999517 1 1 0.999517
0.999523 1 1 0.999523
1 1 1 1
0.999537 1 1 0.999537
1 1 1 1
1 1 1 1
1 1 1 1
1 1 1 1
1 1 1 1
0.999898 1 1 0.999898
0.999853 1 1 0.999853
1 1 1 1
0.999825 1 1 0.999825
1 1 1 1
1 1 1 1
1 1 1 1
1 1 1 1
1 1 1 1
1.06371 1.08892 0.979523 0.997274
1.05786 1.08022 0.982068 0.997176
1.06699 1.09298 0.978774 0.997388
0.966267 1.01583 0.955925 0.995071
1.07062 1.10081 0.975157 0.997348
1.03181 1.05932 0.975848 0.998134
1.05181 1.07429 0.981551 0.99748
0.920046 0.977978 0.955264 0.98482
0.987176 1.0194 0.972331 0.995948
0.999351 1 1 0.999351
0.999314 1 1 0.999314
0.998835 1 1 0.998835
0.998948 1 1 0.998948
1.06042 1.09516 0.970948 0.997248
1.0343 1.07547 0.964352 0.997268
1.02567 1.05502 0.974695 0.997421
1.00058 1.00118 1.00306 0.996347
1.01644 1.01616 1.00466 0.995635
1.00921 1.0231 0.989408 0.996979
1.01913 1 1.02207 0.997133
1.03459 1.00086 1.03694 0.996881
1.00496 1.00037 1.00742 0.99719
0.999396 1 1.00018 0.999217
1.00559 1 1.00792 0.997684
0.999088 1 1.00066 0.998425
0.999254 1 1 0.999254
0.998755 1.00064 0.999292 0.998821
1.03866 1.08364 0.96102 0.997365
0.998754 1 1 0.998754
0.998728 1.00033 0.999681 0.998721
0.999452 0.999693 1.00095 0.998813
1.01141 1.06563 0.951569 0.99742
1.0179 1.03681 0.984567 0.997158
1.00229 1.00079 1.0045 0.99702
0.99595 1.01097 0.988266 0.99684
1.00656 1 1.00857 0.99801
1.00951 1 1.01201 0.997522
1.03742 1.00214 1.03791 0.997385
1.04021 1.00038 1.04281 0.997132
0.995397 1.05104 0.949378 0.997557
0.996449 1.04002 0.960576 0.997425
1.00723 1.01477 0.995735 0.996817
0.978809 1.00095 0.98001 0.997826
1.00201 1 1.00351 0.998507
1.00255 1 1.00426 0.998296
1.01626 0.999516 1.0186 0.99819
1.06208 1.00067 1.06413 0.997413
0.884654 0.968022 0.943509 0.968595
1.00738 1 1.00941 0.997996
0.999442 1.00091 1.00154 0.996996
1.01316 1.05472 0.96262 0.997896
1.01447 1.03153 0.986225 0.997199
1.00406 1.00513 1.0033 0.99565
1.00353 1.00319 1.00447 0.995893
0.96763 1.00407 0.968819 0.994724
1.00524 0.999384 1.008 0.997878
0.996442 1.02599 0.973369 0.997775
1.0006 1.00148 1.00233 0.996806
1.00469 1.00238 1.00611 0.996221
0.995253 1.00738 0.991115 0.996821
0.900447 0.980484 0.948093 0.968649
0.890913 0.960593 0.943792 0.982697
0.968284 0.983316 0.987486 0.997191
0.700289 0.820538 0.903597 0.944503
0.60604 0.769031 0.856511 0.920077
1.00221 0.999188 1.00502 0.998014
0.731392 0.839304 0.919804 0.947406
0.654526 0.787024 0.898185 0.925919
0.987008 1.00591 0.983347 0.99783
1.00842 1.00153 1.00951 0.997396
1.01413 1.00533 1.01154 0.997249
0.956384 0.973032 0.985318 0.997537
0.878649 0.952811 0.950194 0.970502
0.859792 0.931895 0.940696 0.980792
0.690363 0.814695 0.893387 0.948512
0.674092 0.834819 0.875361 0.922443
1.00198 0.997544 1.00568 0.998773
1.00139 0.999045 1.00368 0.998676
1.00839 1 1.00957 0.998837
0.998792 1 1 0.998792
0.998325 1 1 0.998325
1.0033 1 1.00512 0.998188
1.00004 1 1.00184 0.998194
0.998662 1 1 0.998662
0.998691 1 1.00001 0.998685
1.00423 1 1.0061 0.998137
1.00359 1 1.00545 0.998157
0.998543 1 1.00031 0.998238
1.00544 0.999989 1.00709 0.998369
1.00627 1 1.00801 0.998275
1.01796 1 1.01949 0.998503
1.00185 1 1.0038 0.998061
0.999032 1 1.00077 0.998264
0.998813 1 1.00052 0.998293
1.00019 1 1.00183 0.998365
1.00032 1 1.00218 0.998145
0.999432 1 1.00101 0.998421
1.00306 1 1.00462 0.998446
1.00726 1 1.00907 0.9982
0.999988 1 1.0015 0.998492
0.999211 1 1.00069 0.998525
0.998888 1 1.00004 0.998844
0.99962 1 1.00123 0.998395
0.998833 1 1.00006 0.998776
0.999499 1 1 0.999499
0.999215 1 1.00054 0.998677
0.999518 1 1 0.999518
0.999998 1 1 0.999998
0.999523 1 1 0.999523
1 1 1 1
1 1 1 1
1 1 1 1
1 1 1 1
1 1 1 1
0.999298 1 1 0.999298
0.999909 1 1 0.999909
0.999894 1 1 0.999894
1 1 1 1
0.99985 1 1 0.99985
1 1 1 1
1 1 1 1
1 1 1 1
1 1 1 1
1 1 1 1
0.968415 1.01548 0.958289 0.995159
1.06893 1.09877 0.975426 0.997347
1.0404 1.06302 0.980686 0.997999
0.91129 0.973092 0.949783 0.986003
0.987355 1.01962 0.972102 0.996147
1.04952 1.0778 0.976265 0.997435
0.995444 1.02938 0.97051 0.996421
0.926962 0.975191 0.962551 0.987526
0.903544 0.976662 0.953603 0.970147
0.705043 0.824042 0.901968 0.948582
0.580178 0.732553 0.856931 0.924222
0.998896 1 1 0.998896
0.999348 1 1 0.999348
0.999308 1 1 0.999308
0.998836 1 1 0.998836
0.998763 1 1.00013 0.998629
0.998615 1 1 0.998615
0.998794 1 1 0.998794
0.998903 1 1 0.998903
1.03669 1.0847 0.958244 0.997379
1.01799 1.06997 0.953898 0.997409
1.01711 1.03648 0.98411 0.997158
1.00265 1.00189 1.00377 0.997004
0.998783 1.01031 0.991651 0.996918
1.04602 1.00234 1.04634 0.997361
1.04125 1.00126 1.04303 0.997037
1.00992 1 1.01256 0.997386
0.998303 1.00051 0.998996 0.998793
1.00671 1 1.00881 0.997925
0.998786 1 1 0.998786
0.998653 0.999651 1 0.999002
0.993721 1.05195 0.946933 0.997585
1.00151 0.999895 1.00311 0.998506
1.00372 1 1.00536 0.99837
0.993701 1.03796 0.959857 0.997399
1.00426 1.0154 0.992036 0.996969
0.982431 1.00131 0.983413 0.99769
1.02636 0.999991 1.02851 0.997921
1.05784 1.00203 1.05839 0.997454
0.973672 1.02894 0.948676 0.997479
0.989765 1.01244 0.980145 0.997411
0.974178 1.00166 0.975021 0.997481
0.982225 1.00062 0.983583 0.998004
1.00632 1 1.00832 0.998024
1.01429 1 1.01618 0.998141
1.05372 1 1.05607 0.997768
0.740739 0.84884 0.918846 0.949723
0.901844 0.976185 0.949008 0.973486
1.00289 0.999097 1.00587 0.997936
1.00027 1.00132 1.00214 0.996822
0.996348 1.02715 0.972194 0.997756
0.998331 1.00881 0.992781 0.996811
1.0053 1.00337 1.00571 0.996233
0.899901 0.974031 0.951946 0.970531
0.895093 0.968841 0.939562 0.98331
0.969997 0.982413 0.990106 0.997227
0.709234 0.822512 0.908251 0.949383
0.593804 0.760787 0.853202 0.914804
1.00189 0.999486 1.0044 0.998017
0.735793 0.847976 0.915005 0.948307
0.636776 0.770727 0.895256 0.922866
0.987083 1.00698 0.982381 0.997823
1.00831 1.00208 1.00883 0.997409
1.01227 1.00355 1.01132 0.9974
0.949878 0.966987 0.984526 0.997746
0.890417 0.965556 0.953188 0.967469
0.855733 0.927599 0.938132 0.983363
0.698122 0.814397 0.905711 0.946467
0.674484 0.842314 0.869093 0.921363
1.00398 0.99984 1.00557 0.998576
0.682387 0.799412 0.921544 0.926284
0.752418 0.875248 0.920305 0.934106
0.985618 0.992827 0.994082 0.998649
1.01554 1.00258 1.01438 0.998567
0.959318 0.958994 1.00313 0.997213
0.870632 0.918169 0.962911 0.98475
0.836777 0.913545 0.948538 0.965662
0.704522 0.808019 0.920194 0.94753
0.730724 0.892713 0.883846 0.926115
1.00206 0.99882 1.0046 0.99865
1.00671 1 1.00792 0.998791
1.00821 0.999062 1.01009 0.999074
0.998686 1 1 0.998686
0.998282 1 1 0.998282
1.00441 1 1.00627 0.998158
1.00506 1 1.00696 0.998118
1.00551 0.999905 1.00721 0.998406
0.998869 1 1.00061 0.998261
1.00493 1 1.0067 0.998239
1.00185 1 1.0038 0.998064
1.017 0.999638 1.01883 0.998565
1.03592 0.998185 1.03874 0.999094
1.01049 1 1.01223 0.998287
1.00099 1 1.00298 0.998018
0.998605 1 1.00032 0.998288
1.00073 1 1.00235 0.998384
1.0009 1 1.00277 0.998135
0.999912 1 1.00151 0.998405
1.00111 1 1.00256 0.998552
1.00403 1 1.00568 0.998353
1.00514 1 1.00684 0.998313
1.00343 0.999079 1.00578 0.998583
0.99959 1 1.00131 0.998282
0.999437 1.0009 1.00093 0.997616
1.00548 1 1.00741 0.998086
1.00607 1 1.00788 0.998202
1.00625 1 1.00791 0.998352
1.00116 1 1.00268 0.99849
0.999047 1 1.00023 0.998821
0.999246 1 1.00072 0.998527
0.999062 1 1.00021 0.998848
0.999479 1 1 0.999479
0.998855 1 1.00011 0.998745
0.999502 1 1 0.999502
0.99999 1 1 0.99999
0.99952 1 1 0.99952
0.999997 1 1 0.999997
1 1 1 1
1 1 1 1
1 1 1 1
1 1 1 1
0.999298 1 1 0.999298
0.99988 1 1 0.99988
0.9993 1 1 0.9993
1 1 1 1
0.999909 1 1 0.999909
0.99989 1 1 0.99989
1 1 1 1
1 1 1 1
1 1 1 1
1 1 1 1
1 1 1 1
0.727728 0.839068 0.918646 0.944113
0.642096 0.780335 0.89025 0.924288
0.910716 0.974071 0.947685 0.986572
0.989102 1.0197 0.973543 0.996356
1.0486 1.07997 0.973494 0.99739
0.911073 0.957985 0.961705 0.9889
0.996713 1.02898 0.971942 0.996605
0.915794 0.988668 0.953958 0.970998
0.698938 0.824715 0.897342 0.944445
0.585952 0.747126 0.853307 0.9191
0.938957 0.995687 0.950884 0.991735
0.897722 0.965858 0.957181 0.971035
0.693175 0.818258 0.893784 0.947808
0.664645 0.829641 0.868837 0.922064
1.0006 1 1.00216 0.998444
0.998935 1 1 0.998935
0.999346 1 1 0.999346
0.998837 1 1 0.998837
0.998863 1 1.00016 0.998703
0.999445 1 1.00109 0.99836
0.998589 1 1 0.998589
0.998532 1 1.00011 0.998426
0.998749 1 1 0.998749
0.998858 1 1 0.998858
0.992 1.05171 0.945487 0.997612
0.990465 1.03526 0.959244 0.997376
1.00322 1.01671 0.989586 0.997121
0.984171 1.00177 0.984837 0.997554
1.04898 1.00335 1.0481 0.997494
1.03696 1.00036 1.03902 0.997655
1.00342 1 1.00499 0.998444
1.00099 0.999631 1.00286 0.998503
0.973686 1.02929 0.948284 0.997571
1.00753 1 1.00957 0.997978
1.0142 1 1.01614 0.998092
0.984681 1.01058 0.976962 0.997352
0.972369 1.00159 0.973179 0.997583
0.980874 1.00127 0.981644 0.997945
1.04661 0.999871 1.04915 0.997709
0.970175 1.00334 0.969138 0.997739
0.964316 0.998603 0.96731 0.9983
1.01309 0.999884 1.01507 0.998171
1.00948 1 1.01159 0.997912
1.01179 1 1.01398 0.997848
1.02887 1 1.03106 0.99788
0.710863 0.815167 0.931306 0.936368
0.744838 0.84741 0.925133 0.950089
0.890181 0.972929 0.94447 0.968744
1.00114 0.999038 1.0041 0.998017
1.00814 1.00223 1.0085 0.997419
0.98945 1.00815 0.983598 0.997817
1.01085 1.00225 1.01107 0.997546
0.735154 0.843248 0.917076 0.950644
0.884847 0.961823 0.949739 0.968654
0.854274 0.924395 0.942138 0.980901
0.948362 0.963197 0.986628 0.997944
0.694251 0.81803 0.9004 0.942567
0.634178 0.76897 0.892342 0.924209
0.672352 0.838266 0.866885 0.925239
1.00404 0.999553 1.00595 0.998553
0.684446 0.800578 0.919418 0.929871
0.765797 0.888144 0.923384 0.933788
0.984918 0.990741 0.995369 0.998748
1.01594 1.00187 1.01555 0.998518
0.956424 0.956991 1.00161 0.997797
0.861524 0.923097 0.950149 0.982264
0.86547 0.927653 0.96233 0.969489
0.718177 0.82497 0.922588 0.943594
0.721918 0.883892 0.879008 0.929171
1.00759 0.998345 1.00984 0.999431
0.787285 0.895213 0.934333 0.941247
0.75908 0.889473 0.909841 0.937971
0.981302 0.965787 1.01635 0.999715
0.899643 0.920915 0.987299 0.989469
0.866655 0.909327 0.984684 0.967897
0.781837 0.878951 0.945371 0.940913
0.766694 0.927701 0.889163 0.929463
1.00628 1 1.00754 0.998745
1.00948 0.998586 1.01186 0.999062
1.02461 0.992802 1.03271 0.999354
0.999063 1 1.00081 0.998259
1.00188 1 1.00382 0.998067
1.00304 1 1.00485 0.998202
1.0164 0.999392 1.01842 0.998628
1.00163 1 1.00362 0.998018
1.00981 1 1.01155 0.998276
1.04127 0.999301 1.04286 0.999173
1.04475 0.99464 1.05096 0.999446
1.03979 0.998897 1.04191 0.999068
1.00414 1 1.00595 0.998198
1.00112 1 1.003 0.998125
1.00018 1 1.00179 0.99839
0.999252 1 1.0006 0.998656
1.00468 1 1.00636 0.998334
1.00292 1 1.00457 0.998353
1.00524 0.99961 1.00703 0.998608
1.00352 0.999798 1.00535 0.99839
1.01098 0.998195 1.01386 0.998962
0.996584 1.00082 0.997339 0.998427
1.00012 1.00066 1.00117 0.998294
0.998598 1.00005 1.00069 0.997855
1.00336 1.00519 1.00153 0.996666
1.00332 1.00063 1.00475 0.997957
0.999133 1.00043 1.00079 0.997912
1.0055 1 1.00742 0.998091
1.01066 1 1.01251 0.998169
1.00448 1 1.00629 0.998204
1.00559 1 1.00726 0.998351
0.999672 1 1.00098 0.998698
1.00184 1 1.00336 0.998488
0.998817 1 1 0.998817
0.999451 1 1 0.999451
0.99892 1 1.00007 0.998851
0.99948 1 1 0.99948
0.999976 1 1 0.999976
0.999505 1 1 0.999505
0.999986 1 1 0.999986
1 1 1 1
0.999995 1 1 0.999995
1 1 1 1
1 1 1 1
0.999026 1 1 0.999026
0.999828 1 1 0.999828
0.999218 1 1 0.999218
1 1 1 1
0.999885 1 1 0.999885
0.999301 1 1 0.999301
1 1 1 1
1 1 1 1
0.99991 1 1 0.99991
1 1 1 1
1 1 1 1
1 1 1 1
0.673307 0.795484 0.910715 0.929392
0.734958 0.845987 0.917435 0.946941
0.758606 0.886108 0.917403 0.933188
0.638949 0.778702 0.88915 0.922826
0.910907 0.966789 0.955304 0.986282
0.996122 1.02928 0.970896 0.9968
0.918295 0.985926 0.958668 0.97156
0.712197 0.827571 0.907155 0.948666
0.594504 0.764771 0.850612 0.913886
0.939732 0.989897 0.958154 0.990784
0.887766 0.963458 0.954242 0.965623
0.706893 0.825767 0.905079 0.945822
0.659999 0.828057 0.867139 0.919168
0.908113 0.971137 0.946678 0.987774
0.848727 0.91364 0.962753 0.96489
0.73609 0.851751 0.91842 0.940973
0.726042 0.889628 0.883966 0.923246
1.00258 1 1.00448 0.99811
0.999719 1 1.00123 0.998494
0.998974 1 1 0.998974
0.998777 1 1 0.998777
0.998429 1 1.00046 0.997971
0.998763 1 1.00035 0.998413
0.998564 1 1 0.998564
0.998397 1 1 0.998397
0.998497 1 1.00003 0.998467
0.998703 1 1 0.998703
0.974116 1.03033 0.947659 0.997663
0.981715 1.00905 0.975552 0.997297
0.968416 1.00129 0.969414 0.997685
0.98285 1.00236 0.982608 0.997889
1.03836 1 1.04081 0.997648
1.01418 1 1.01617 0.998045
1.00815 1 1.01024 0.997932
1.00904 1 1.0112 0.997861
0.968515 1.00357 0.967221 0.99778
1.0109 1 1.0131 0.997825
1.02887 1 1.03108 0.997858
0.96378 0.999123 0.966269 0.998299
1.00824 1.00125 1.00887 0.998129
0.949356 0.978913 0.971651 0.998102
0.973232 0.979933 0.993923 0.999234
1.04216 0.999401 1.04448 0.998381
1.005 1 1.00714 0.997876
1.02218 1 1.02421 0.998014
0.799467 0.904444 0.934949 0.945434
0.709529 0.813871 0.93204 0.935364
0.735302 0.842968 0.921794 0.946282
1.00343 0.999463 1.00544 0.998532
1.01656 1.00082 1.01729 0.998469
0.980881 0.988439 0.993497 0.998849
0.683744 0.800054 0.918436 0.930519
0.850945 0.917223 0.961108 0.965283
0.866691 0.920416 0.957144 0.98379
0.946503 0.951415 0.996442 0.99839
0.724923 0.834027 0.916898 0.947961
0.773469 0.894355 0.926321 0.933623
0.725117 0.885155 0.881369 0.92946
1.00593 0.998459 1.00811 0.999376
0.785631 0.895121 0.930753 0.94298
0.758333 0.888282 0.910025 0.938114
0.983095 0.969507 1.01449 0.999533
0.912948 0.932371 0.989756 0.989302
0.835437 0.901397 0.961748 0.963688
0.764559 0.926046 0.888003 0.929745
0.797942 0.885445 0.955783 0.942866
0.999187 0.973617 1.02656 0.999711
0.771385 0.88298 0.920851 0.948706
0.790647 0.91832 0.915397 0.940545
0.724253 0.887889 0.88328 0.923493
0.950561 0.940341 1.01367 0.997233
0.902999 0.928806 1.003 0.969303
0.850489 0.931821 0.965362 0.945467
1.01108 0.998036 1.01404 0.999049
1.02479 0.9942 1.03152 0.99927
1.02742 0.983175 1.04545 0.999566
1.00176 1 1.00374 0.998019
1.0081 1 1.00985 0.998265
1.04566 0.999394 1.04708 0.999251
1.00449 1 1.0063 0.998204
1.03985 0.99898 1.04187 0.999079
1.04733 0.994655 1.05357 0.999421
1.03801 0.989519 1.04954 0.999489
1.02491 0.997856 1.02808 0.999058
1.00383 1 1.00548 0.998358
1.00212 1 1.00378 0.998353
1.007 1 1.00837 0.998635
1.01019 0.998774 1.01251 0.998933
1.00329 0.999896 1.005 0.998394
1.00335 0.999834 1.00469 0.99883
0.997478 1.00018 0.998567 0.998728
1.00308 1.00031 1.00541 0.997367
1.00056 1.00135 1.00091 0.998311
0.999642 1.0013 1.00059 0.997752
0.999874 1.00215 1.00138 0.996361
1.01526 1.01777 1.00129 0.996246
1.00388 1.00356 1.00276 0.997569
1.00165 1.00355 1.00138 0.996731
1.0104 1 1.01249 0.997935
1.00465 1.00126 1.00543 0.997964
0.998849 1 1.00065 0.998205
1.00584 1 1.00775 0.998097
1.00967 1 1.01149 0.998204
1.00323 1 1.0047 0.998537
1.00518 1 1.00684 0.99835
0.999868 1 1.00117 0.998699
0.99937 1 1 0.99937
0.998814 1 1 0.998814
0.999448 1 1 0.999448
0.999966 1 1 0.999966
0.999481 1 1 0.999481
0.999973 1 1 0.999973
1 1 1 1
0.999982 1 1 0.999982
1 1 1 1
1 1 1 1
0.998748 1 1 0.998748
0.99961 1 1 0.99961
0.999024 1 1 0.999024
1 1 1 1
0.999772 1 1 0.999772
0.999139 1 1 0.999139
1 1 1 1
1 1 1 1
0.99989 1 1 0.99989
1 1 1 1
1 1 1 1
1 1 1 1
0.787727 0.903328 0.926118 0.941594
0.676037 0.795943 0.91067 0.932668
0.727847 0.840795 0.914805 0.946284
0.998279 1 1 0.998279
0.76537 0.887541 0.916472 0.940945
0.757651 0.885824 0.916703 0.933024
0.647356 0.789367 0.885553 0.926083
0.94902 0.993495 0.965262 0.989611
0.880215 0.951947 0.952936 0.970314
0.709404 0.83945 0.897374 0.941727
0.652749 0.812909 0.871488 0.921388
0.905216 0.966311 0.951401 0.984627
0.861711 0.922562 0.963848 0.969075
0.7354 0.841987 0.927572 0.941608
0.723274 0.885743 0.88349 0.924259
0.854433 0.9184 0.948262 0.98111
0.845618 0.899219 0.973421 0.966068
0.810099 0.894743 0.959575 0.943541
0.767511 0.926372 0.891429 0.929422
1.00138 1 1.00348 0.997907
1.00374 1 1.00568 0.998065
0.999157 1 1.00061 0.998545
0.998213 1 1.00012 0.998091
0.998717 1 1.00067 0.998048
0.998465 1 1 0.998465
0.998401 1 1 0.998401
0.998533 1 1.00003 0.998508
0.966899 1.00417 0.965003 0.997808
0.963536 1.00076 0.964437 0.998308
1.00894 1 1.01116 0.997811
1.00272 1.0025 1.00215 0.998084
1.03029 1 1.03253 0.997835
1.01069 1 1.01292 0.997803
1.00579 1 1.00792 0.997886
0.952189 0.978197 0.975136 0.998234
1.01998 1 1.022 0.99803
1.0316 1.00012 1.0331 0.998424
0.971946 0.982795 0.98967 0.999283
1.00729 1 1.00923 0.998077
0.938345 0.956196 0.983508 0.997787
1.00119 0.979511 1.02267 0.999477
1.05673 0.997004 1.06146 0.998536
1.02383 0.999418 1.02625 0.998217
0.779156 0.884402 0.925334 0.952086
0.799201 0.904762 0.934618 0.945121
0.709617 0.812125 0.935186 0.934336
1.00365 0.998564 1.00578 0.999324
0.986075 0.972732 1.01437 0.999355
0.7869 0.897753 0.92787 0.94466
0.860024 0.89948 0.986917 0.96881
0.901918 0.930908 0.982879 0.985734
0.792914 0.880644 0.956581 0.941248
0.759369 0.88947 0.90995 0.938218
0.764093 0.926021 0.887215 0.930029
1.00415 0.98144 1.02347 0.999669
0.772953 0.884611 0.921045 0.94868
0.791454 0.91631 0.916172 0.942771
0.961729 0.947564 1.01572 0.999237
0.721138 0.883955 0.882526 0.924401
0.875743 0.910337 0.995365 0.966479
0.852187 0.933544 0.965958 0.945023
0.995958 0.967701 1.02949 0.999723
0.801241 0.909591 0.925593 0.951692
0.762579 0.883446 0.917005 0.941311
0.661549 0.827495 0.866847 0.922262
0.808382 0.89386 0.959099 0.942939
0.941759 0.942057 1.00608 0.993643
0.910673 0.927235 1.0207 0.962225
1.02318 0.996028 1.0281 0.999188
1.028 0.981848 1.0475 0.999534
1.01649 0.96925 1.04918 0.999582
1.00582 1 1.00762 0.99821
1.04351 0.999023 1.04548 0.999091
1.05342 0.995555 1.05876 0.999396
1.02064 0.998172 1.02348 0.999045
1.03644 0.991338 1.04603 0.999488
1.00949 0.986886 1.02369 0.999235
1.01007 0.99945 1.01174 0.998903
1.00324 1 1.00484 0.998399
1.00678 0.999919 1.00807 0.998808
1.01216 0.999078 1.01503 0.998093
0.998577 0.999549 1 0.999028
0.999984 1.00023 1.00218 0.997582
1.00399 1.00146 1.00665 0.99591
1.00523 1.0075 1.00217 0.995581
1.00062 1.00258 1.0004 0.997643
1.00038 1.0028 1.00144 0.996154
1.01674 1.01996 1.00053 0.996323
1.01061 1.01108 1.00261 0.996935
1.01401 1.01645 1.00125 0.996349
1.00789 1.00054 1.00962 0.997739
1.00658 1.0057 1.00335 0.997535
0.999488 1.00142 1.00128 0.996797
1.00915 1 1.01084 0.998324
1.00972 1 1.01179 0.99796
1.00598 1.00188 1.00613 0.997972
1.00858 1 1.01036 0.998239
1.0033 1 1.00477 0.998537
0.999791 1 1.00057 0.999218
1.00002 1 1.00132 0.998699
0.999429 1 1.00006 0.999365
0.999956 1 1 0.999956
0.999445 1 1 0.999445
0.999964 1 1 0.999964
1 1 1 1
0.99997 1 1 0.99997
1 1 1 1
1 1 1 1
0.998659 1 1 0.998659
0.999436 1 1 0.999436
0.9988 1 1 0.9988
1 1 1 1
0.999591 1 1 0.999591
0.999021 1 1 0.999021
1 1 1 1
1 1 1 1
0.999717 1 1 0.999717
1 1 1 1
1 1 1 1
1 1 1 1
0.778387 0.886464 0.923919 0.950388
0.789761 0.902472 0.929386 0.941598
0.677058 0.795318 0.912608 0.932826
0.998319 1 1 0.998319
0.998618 1 1.00038 0.998236
0.998226 1 1 0.998226
0.791508 0.920593 0.91445 0.940217
0.762079 0.887113 0.912841 0.941079
0.755985 0.885247 0.915424 0.932882
0.911831 0.973328 0.94945 0.986696
0.833995 0.910471 0.94944 0.964783
0.733096 0.82924 0.933013 0.947529
0.731459 0.893535 0.887497 0.922384
0.858092 0.923953 0.943793 0.984027
0.859506 0.907361 0.980418 0.966179
0.79378 0.877334 0.958122 0.94431
0.765007 0.926301 0.888404 0.929613
0.866866 0.917058 0.963037 0.981549
0.880418 0.913977 0.995663 0.967478
0.850202 0.92898 0.9676 0.945845
0.735176 0.896227 0.885676 0.926187
0.99869 1 1.00064 0.998049
1.00174 1 1.00388 0.997869
1.00349 1 1.00548 0.998021
0.998098 1 1.00002 0.998078
0.998465 1 1.00034 0.998125
0.998405 1 1 0.998405
0.951244 0.973506 0.978739 0.998358
0.969573 0.982271 0.987753 0.999311
1.00643 1 1.00855 0.997895
1.02328 1.00047 1.02438 0.998466
1.02031 1 1.0223 0.998046
1.00941 1 1.01135 0.998088
1.02 0.99734 1.02452 0.998253
0.945809 0.956042 0.991396 0.997883
1.05318 0.995661 1.05917 0.998678
1.00491 0.974512 1.03188 0.999332
1.01286 0.996071 1.01846 0.998418
0.970475 0.953985 1.01981 0.997529
1.01255 0.973805 1.04052 0.99929
1.03621 0.98075 1.05782 0.998792
0.815206 0.916504 0.932266 0.954098
0.782078 0.885664 0.927026 0.952553
0.798496 0.904967 0.933888 0.944811
1.0098 0.989141 1.02126 0.999627
0.950984 0.945292 1.00828 0.997765
0.773906 0.885258 0.92153 0.948656
0.87253 0.898301 1.00069 0.97064
0.848685 0.933326 0.965298 0.942001
0.792303 0.91515 0.916159 0.944992
0.73162 0.892393 0.888557 0.922665
0.99129 0.964005 1.02854 0.999768
0.801387 0.908145 0.926407 0.952544
0.764646 0.887749 0.914894 0.941454
0.937158 0.9378 1.00986 0.989555
0.657218 0.825148 0.866196 0.919521
0.790204 0.875604 0.956645 0.943367
0.91813 0.9332 1.01637 0.968006
1.00409 0.954621 1.05334 0.998555
0.779166 0.884913 0.926265 0.950592
0.768597 0.893121 0.921693 0.933689
0.580432 0.730582 0.858962 0.92493
0.724905 0.841405 0.915742 0.940812
0.884369 0.91269 1.00235 0.966701
0.914139 0.931516 0.994836 0.98644
1.02589 0.981124 1.04615 0.999501
1.02216 0.977633 1.04598 0.999586
1.00943 0.979813 1.03075 0.999494
1.01467 0.998572 1.0171 0.999032
1.03198 0.992713 1.04009 0.999487
1.01285 0.983424 1.03062 0.999319
1.00555 0.997294 1.00951 0.998778
1.01014 1 1.01137 0.998784
1.00947 0.999562 1.01207 0.997863
1.02215 1.00092 1.02506 0.996238
0.99674 1.00005 0.998886 0.9978
1.0051 1.00155 1.00763 0.995943
1.00529 1.00253 1.00775 0.995039
1.00802 1.01097 1.00191 0.995182
1.00944 1.01245 1.00108 0.995951
1.00526 1.00736 1.0024 0.995525
1.00065 1.00336 1.00135 0.995949
1.01118 1.01346 1.0011 0.99665
1.01761 1.02078 1.00048 0.996413
1.00424 1.00233 1.00464 0.997277
1.01285 1.01311 1.00274 0.997015
1.01366 1.01608 1.00117 0.996452
1.01113 1 1.01315 0.998004
1.00801 1.00131 1.00898 0.997734
1.00943 1.0081 1.00383 0.9975
1.00182 1 1.0028 0.99903
1.00792 1 1.00961 0.998322
1.00898 1 1.01101 0.997985
1.0032 1 1.00467 0.998537
1.00018 1 1.00096 0.999213
0.999926 1 1 0.999926
0.999543 1 1.00018 0.99936
0.99995 1 1 0.99995
1 1 1 1
0.999962 1 1 0.999962
1 1 1 1
1 1 1 1
0.998607 1 1 0.998607
0.999405 1 1 0.999405
0.998688 1 1 0.998688
0.999994 1 1 0.999994
0.999482 1 1 0.999482
0.998852 1 1 0.998852
1 1 1 1
1 1 1 1
0.999573 1 1 0.999573
1 1 1 1
1 1 1 1
1 1 1 1
0.799788 0.909007 0.924791 0.951401
0.782085 0.887473 0.927268 0.950372
0.791777 0.901243 0.932988 0.94164
1.00531 1 1.00721 0.998107
1.00228 1 1.00428 0.998001
0.998361 1 1 0.998361
0.999073 1 1.00085 0.99822
0.998229 1 1 0.998229
1.00006 1 1.00186 0.998202
0.998252 1 1 0.998252
0.762224 0.894304 0.908831 0.937808
0.794661 0.919072 0.917406 0.942477
0.762525 0.885138 0.915278 0.941218
0.763702 0.92651 0.88649 0.929823
0.858096 0.925084 0.945109 0.98146
0.85996 0.9034 0.985281 0.966136
0.80337 0.891333 0.952109 0.94665
0.85264 0.917886 0.947347 0.980547
0.88212 0.908194 1.00852 0.963081
0.849981 0.930925 0.965429 0.945745
0.723982 0.886271 0.879099 0.929231
0.893201 0.927274 0.97944 0.983474
0.896392 0.918118 1.01403 0.962824
0.785953 0.881782 0.946836 0.941371
0.675831 0.838062 0.874389 0.922268
1.02413 1 1.02579 0.998386
1.00028 1 1.00221 0.998075
1.00268 1 1.00486 0.997832
0.998065 1 1 0.998065
0.956117 0.958572 0.999427 0.998011
1.00651 0.972347 1.03599 0.99918
1.00881 1 1.01073 0.998101
1.01543 0.996819 1.02042 0.998289
1.04309 0.991251 1.05354 0.998821
1.01253 0.998587 1.01557 0.99842
1.0385 0.980539 1.0604 0.998779
0.969451 0.953426 1.02088 0.996014
1.01105 0.964771 1.04855 0.999447
1.01222 0.983572 1.03026 0.998906
0.953947 0.927299 1.03349 0.995405
1.00558 0.956632 1.05192 0.999287
0.78105 0.884011 0.927822 0.952262
0.812837 0.914804 0.929811 0.955609
0.785499 0.886912 0.92932 0.953015
0.986922 0.958746 1.02959 0.999805
0.943069 0.941802 1.00735 0.994043
0.799576 0.905973 0.925691 0.953407
0.919417 0.937506 1.01838 0.963009
0.794474 0.884233 0.949968 0.94581
0.767968 0.890291 0.91612 0.941584
0.651627 0.810524 0.872266 0.921688
1.005 0.957024 1.05143 0.998764
0.781748 0.88907 0.924999 0.950582
0.761895 0.887305 0.919797 0.933535
0.916284 0.931816 0.994196 0.989072
0.58706 0.746784 0.854594 0.919873
0.724208 0.83247 0.924372 0.941126
0.881444 0.909565 1.00584 0.963456
0.993214 0.961505 1.03633 0.996766
0.790054 0.906316 0.925493 0.941898
0.641774 0.777913 0.891847 0.925041
0.696353 0.821112 0.894117 0.948489
0.836855 0.884473 0.978031 0.967414
0.872649 0.907596 0.978889 0.98223
1.02988 0.982347 1.04882 0.99959
1.01261 0.977622 1.0363 0.999498
0.980363 0.975205 1.00602 0.999276
1.01757 0.980633 1.03828 0.999402
1.00336 0.989423 1.01522 0.998881
1.00296 1.0008 1.00449 0.997684
1.00697 1.00003 1.00933 0.997634
1.02038 1.00091 1.02345 0.996101
1.01047 1.00087 1.01445 0.99521
1.00664 1.00186 1.00883 0.995976
1.00608 1.00235 1.00882 0.994947
1.00174 1.00251 1.00448 0.994773
1.02992 1.03468 1 0.995403
1.01777 1.02159 1.00077 0.995501
1.0084 1.01114 1.00218 0.995124
1.00933 1.01299 1.00013 0.996255
1.00813 1.01142 1.00074 0.996015
1.0054 1.00717 1.00279 0.995468
1.00905 1.01124 1.00112 0.996723
1.0106 1.01292 1.00108 0.996622
1.01809 1.02123 1.00043 0.996502
1.00643 1.00087 1.00798 0.997588
1.00525 1.00326 1.00463 0.997361
1.01451 1.01455 1.00288 0.997095
1.00694 1 1.00822 0.998732
1.01 1 1.01201 0.998011
1.0082 1.00215 1.00833 0.997729
0.999871 1 1 0.999871
1.0026 1 1.00358 0.999024
1.00699 1 1.00868 0.998321
1.00061 1 1.0014 0.999209
0.999916 1 1 0.999916
1 1 1 1
0.999944 1 1 0.999944
1 1 1 1
1 1 1 1
1.00715 1 1.00906 0.998105
1.00109 1 1.00266 0.998429
0.999256 1 1 0.999256
0.998828 1 1.00023 0.998603
0.999975 1 1 0.999975
0.999407 1 1 0.999407
0.998717 1 1 0.998717
1 1 1 1
0.999996 1 1 0.999996
0.999527 1 1 0.999527
1 1 1 1
1 1 1 1
1 1 1 1
0.772363 0.883901 0.921134 0.948626
0.796848 0.905749 0.92386 0.952273
0.78277 0.890464 0.924985 0.95035
1.00667 1 1.00857 0.998118
1.00455 1 1.00655 0.998012
1.00041 1 1.00243 0.997981
1.00774 1 1.00974 0.998021
1.00772 1 1.00975 0.997986
1.00039 1 1.00219 0.998203
0.998231 1 1 0.998231
0.999719 1 1.00152 0.998205
0.998264 1 1 0.998264
1.01499 1 1.01669 0.998325
0.753316 0.877861 0.918929 0.933834
0.761578 0.891789 0.910445 0.93799
0.795812 0.918604 0.917016 0.944724
0.725521 0.887481 0.879489 0.929524
0.849191 0.931364 0.967458 0.94244
0.847835 0.913633 0.947832 0.979058
0.888239 0.912693 1.0064 0.967015
0.884137 0.928325 0.971762 0.980075
0.903398 0.928674 1.0058 0.967171
0.801228 0.885477 0.958672 0.943862
0.676842 0.84591 0.868673 0.921099
0.899549 0.917883 0.997379 0.982601
0.888024 0.908493 1.00994 0.96785
0.711507 0.812842 0.924115 0.947211
0.619407 0.777781 0.86143 0.924483
1.02278 0.999679 1.02418 0.998958
1.02508 0.999816 1.02691 0.9984
1.00309 1 1.005 0.998103
0.969648 0.95374 1.02238 0.994428
1.01235 0.958425 1.05668 0.999608
1.01333 1 1.01493 0.998422
1.04357 0.980165 1.066 0.998767
1.0151 0.987672 1.02889 0.998912
1.01176 0.964525 1.04973 0.999279
0.95707 0.934911 1.02849 0.995348
1.0145 0.989525 1.02592 0.999345
0.967707 0.952979 1.01941 0.996119
0.79955 0.904993 0.934941 0.944966
0.786171 0.887374 0.92992 0.95272
0.809947 0.912715 0.92715 0.957131
1.00615 0.964401 1.04439 0.998941
0.910997 0.928272 0.996771 0.984569
0.787091 0.893294 0.926936 0.950563
0.88388 0.914178 1.00265 0.964304
0.720246 0.817624 0.930273 0.946927
0.753482 0.881769 0.91546 0.933424
0.594113 0.763099 0.851145 0.914712
0.990461 0.960022 1.03478 0.997027
0.789878 0.902098 0.929628 0.941883
0.639659 0.777979 0.89021 0.923609
0.884553 0.919247 0.978099 0.983804
0.707971 0.827022 0.904568 0.946362
0.835682 0.894933 0.967928 0.964734
0.946811 0.946003 1.00574 0.995139
0.674601 0.796571 0.910662 0.929961
0.706326 0.824295 0.902701 0.949245
0.84708 0.915065 0.959284 0.964996
0.8504 0.908188 0.950914 0.984705
1.01208 0.975206 1.03833 0.999504
0.982664 0.971383 1.01237 0.999251
0.993399 0.989731 1.00529 0.998421
0.999936 0.979642 1.02176 0.998979
1.0022 1.00047 1.00396 0.997777
0.998243 1.00246 0.999119 0.996671
1.01839 1.00072 1.02179 0.995962
1.00923 1.00121 1.01285 0.995211
0.999388 1.0025 1.00137 0.995536
1.00618 1.002 1.00937 0.994855
1.00206 1.00357 1.0037 0.99481
1.02649 1.03099 1 0.99564
1.05469 1.05883 1 0.996084
1.0407 1.04539 1.00002 0.995499
1.03017 1.03489 1 0.995434
1.02191 1.02623 1 0.995793
1.01652 1.02008 1.00107 0.995445
1.00942 1.01196 1.00244 0.995066
1.01508 1.01875 1 0.996403
1.00764 1.01133 1.00002 0.996329
1.00656 1.0102 1.00032 0.996079
1.00331 1.00411 1.00208 0.997133
1.00675 1.00871 1.0013 0.996767
1.01045 1.0128 1.0011 0.996593
1.0097 1 1.01146 0.998258
1.00781 1.00162 1.00861 0.99759
1.00625 1.00402 1.0048 0.997443
1.00047 1 1.00068 0.999784
1.0065 1 1.00779 0.998725
1.00919 1 1.01119 0.998019
0.999983 1 1 0.999983
0.999924 1 1.00007 0.999856
1.00314 1 1.00412 0.999018
0.999905 1 1 0.999905
1 1 1 1
1 1 1 1
1.00685 1.00054 1.00836 0.997966
1.0052 1 1.00696 0.998252
1.00807 1 1.01001 0.998082
0.999804 1 1.00071 0.999094
1.00077 1 1.00235 0.998426
0.999944 1 1 0.999944
0.999261 1 1 0.999261
0.998609 1 1.00001 0.998598
1 1 1 1
0.999981 1 1 0.999981
0.99941 1 1 0.99941
1 1 1 1
0.999999 1 1 0.999999
1 1 1 1
0.784412 0.896602 0.925649 0.945145
0.776185 0.886973 0.922501 0.94861
0.797441 0.902154 0.927384 0.953145
0.999548 1.00121 1.00039 0.997951
1.00553 1 1.00742 0.998129
1.00333 1 1.00532 0.998024
1.00393 1 1.00594 0.998
1.00042 1 1.00241 0.998008
1.00446 1 1.00635 0.998125
1.0127 1.00022 1.01497 0.997546
1.01748 1 1.01941 0.998109
0.999629 1 1.00142 0.998208
0.998275 1 1 0.998275
1.01609 1 1.01781 0.998307
1.03107 1.00035 1.03224 0.998519
0.654523 0.786353 0.899415 0.925437
0.7658 0.89018 0.921533 0.933526
0.762398 0.891323 0.911766 0.938131
0.674743 0.842088 0.866322 0.924913
0.798523 0.884615 0.957519 0.942726
0.89855 0.920763 1.01347 0.962909
0.884086 0.922116 0.977521 0.980805
0.899261 0.918935 0.993839 0.984657
0.607696 0.770983 0.85725 0.919463
0.879643 0.908899 1.00385 0.964095
0.724207 0.829353 0.925871 0.943132
0.899194 0.927694 0.982837 0.986205
0.864466 0.906203 0.984181 0.969276
0.695526 0.819307 0.896354 0.947082
0.992268 1 0.992734 0.999531
1.02239 1 1.02345 0.998963
1.02529 1 1.02692 0.998411
0.957801 0.937699 1.02619 0.995374
1.01875 0.97323 1.04753 0.999273
1.01731 0.992736 1.02586 0.998919
1.01337 0.989237 1.02507 0.999344
0.964013 0.951856 1.01667 0.996164
0.988836 0.983251 1.00824 0.997463
0.710355 0.813983 0.935629 0.932731
0.796239 0.903895 0.930229 0.94697
0.787489 0.889383 0.928946 0.953159
0.991746 0.959724 1.03627 0.997196
0.875044 0.915784 0.970369 0.98469
0.787883 0.898015 0.931452 0.941928
0.847826 0.890328 0.986349 0.965442
0.712909 0.842903 0.89746 0.942413
0.64986 0.789846 0.887762 0.926789
0.946542 0.941151 1.01057 0.995205
0.677524 0.796777 0.911225 0.933174
0.70119 0.825303 0.898943 0.945127
0.846945 0.909825 0.948824 0.981096
0.862732 0.926736 0.960563 0.969158
0.942179 0.957672 0.986087 0.997702
0.725753 0.835934 0.919214 0.944496
0.899498 0.968167 0.956828 0.970993
0.852108 0.921452 0.942826 0.980823
0.986258 0.969197 1.01839 0.999231
0.984674 0.989973 0.996135 0.998506
0.99525 1.00092 0.996868 0.997463
1.00236 1.00051 1.00399 0.997869
1.00093 1.00259 1.0017 0.996641
1.00107 1.00507 0.999428 0.996586
1.0082 1.00168 1.01136 0.995212
0.999244 1.00205 1.00167 0.995541
1.02878 1.03471 0.99772 0.996542
1.00236 1.00436 1.00319 0.994847
1.02501 1.02948 1 0.99565
1.05459 1.05962 0.998531 0.996721
1.05538 1.05947 0.999332 0.996802
1.05604 1.06028 1 0.995999
1.05543 1.05955 0.999977 0.996132
1.04256 1.04703 1 0.995728
1.0388 1.04342 1 0.995566
1.02931 1.034 1 0.995466
1.03077 1.0348 1 0.996106
1.02254 1.02669 1.00014 0.995817
1.01531 1.01851 1.00148 0.995388
1.01037 1.01367 1 0.996739
1.01391 1.01757 1 0.996399
1.00579 1.00942 1 0.996403
1.00378 1.00077 1.00523 0.997792
1.0057 1.00624 1.00234 0.997126
1.00401 1.00577 1.00145 0.996812
1.00208 1 1.00249 0.999595
1.00798 1.0004 1.00935 0.998256
1.00846 1.00242 1.00845 0.997591
1 1 1 1
1.00111 1 1.00136 0.999747
1.00585 1 1.00714 0.998718
1 1 1 1
1.00016 1 1.00032 0.99984
1 1 1 1
1.00132 1.00168 1.00185 0.997801
1.00566 1.00033 1.0074 0.997945
1.00789 1 1.00981 0.998094
1.00227 1 1.00335 0.998924
1.00624 1 1.00801 0.998249
1.01012 1 1.01208 0.99806
0.999898 1 1 0.999898
0.999554 1 1.00046 0.999099
1.00109 1 1.00267 0.998423
1 1 1 1
0.999953 1 1 0.999953
0.999265 1 1 0.999265
1 1 1 1
0.999988 1 1 0.999988
1 1 1 1
0.682482 0.799625 0.920687 0.927028
0.787333 0.899487 0.926075 0.945185
0.780201 0.890383 0.923733 0.9486
1.00219 1.0006 1.00367 0.997925
1.00703 1.00383 1.00566 0.997542
1.01081 1.00079 1.0123 0.997743
1.00488 1 1.00691 0.997979
1.00105 1.00074 1.00228 0.998035
1.00532 1 1.00707 0.998262
1.01681 1 1.01879 0.998052
1.01294 1.00058 1.01475 0.997643
1.01747 1.00158 1.0183 0.997604
0.982664 1.00143 0.982274 0.998966
1.01486 1 1.0166 0.998289
1.02655 1.00013 1.02797 0.998499
0.703668 0.822383 0.908098 0.942239
0.636302 0.769758 0.89616 0.922409
0.773822 0.897007 0.924247 0.933377
0.596468 0.763682 0.854264 0.914287
0.731189 0.836737 0.922315 0.947461
0.866123 0.901821 0.994405 0.965819
0.90433 0.92352 0.997292 0.98188
0.886694 0.919471 0.980296 0.983735
0.699898 0.814952 0.908375 0.945448
0.844468 0.896432 0.975637 0.965557
0.869542 0.92432 0.95476 0.985311
0.838804 0.921121 0.9431 0.965575
0.999679 1 1.00066 0.999023
0.993497 1.00002 0.993993 0.999478
1.02243 1 1.02349 0.998968
0.958022 0.948579 1.01379 0.996217
1.01174 0.987761 1.02495 0.999344
0.990115 0.985105 1.00769 0.997412
0.975409 0.989423 0.989402 0.996396
0.742859 0.850966 0.919311 0.949581
0.707941 0.811551 0.934825 0.933149
0.798241 0.90598 0.928509 0.948919
0.949869 0.947942 1.00668 0.995388
0.849907 0.907876 0.953755 0.981541
0.678737 0.796885 0.912622 0.933285
0.832957 0.912094 0.946151 0.965211
0.716174 0.830622 0.908193 0.949374
0.944482 0.960866 0.986443 0.996458
0.736253 0.845911 0.918755 0.947334
0.890263 0.965491 0.9546 0.965936
0.853525 0.923039 0.940186 0.983518
0.954376 0.981663 0.974609 0.997532
0.908014 0.97795 0.956928 0.970279
0.903291 0.969121 0.945018 0.986301
0.975507 0.989027 0.987738 0.998574
0.990509 1.00102 0.992042 0.997434
0.982337 1.00845 0.976759 0.997288
1.00254 1.00291 1.00303 0.996613
1.00046 1.00526 0.998648 0.996579
1.02462 1.04227 0.985763 0.997265
0.99913 1.00173 1.00186 0.995547
1.02707 1.03415 0.996624 0.99652
1.04309 1.05995 0.98673 0.99733
1.02432 1.02878 1 0.99566
1.05312 1.05904 0.997687 0.996713
1.04935 1.06031 0.992339 0.997312
1.05024 1.0569 0.996497 0.997192
1.05615 1.06066 0.998869 0.996877
1.05366 1.05723 0.999974 0.996651
1.05715 1.06133 1 0.996062
1.05613 1.06035 1 0.996021
1.05685 1.06098 0.999929 0.996181
1.04499 1.04924 1 0.995954
1.04433 1.04878 1 0.995756
1.03699 1.04154 1 0.995633
1.02656 1.03024 1 0.996429
1.03057 1.0346 1 0.996103
1.02306 1.02715 1.00017 0.995841
1.0005 1.00278 1.00027 0.997465
1.01193 1.01524 1 0.996736
1.0137 1.01737 1 0.996395
1.00215 1 1.00284 0.999312
1.00416 1.00128 1.0051 0.997792
1.00872 1.0086 1.003 0.99712
1 1 1 1
1.00257 1 1.00301 0.99957
1.0069 1.00058 1.00808 0.998253
0.999984 1 1 0.999984
1.0017 1 1.00197 0.999734
1 1 1 1
1.00035 1.00269 1 0.997669
1.00158 1.00087 1.00289 0.997819
1.00547 1 1.00755 0.997937
1.00359 1 1.00567 0.997923
1.00831 1 1.01023 0.998096
1.00532 1 1.00659 0.998731
0.999974 1 1.00014 0.999832
1.00151 1 1.00258 0.998925
1.0067 1 1.00847 0.998246
1 1 1 1
0.999912 1 1 0.999912
0.999321 1 1.00022 0.999104
1 1 1 1
0.999963 1 1 0.999963
1 1 1 1
0.731004 0.839365 0.919511 0.947135
0.684745 0.800334 0.921821 0.928135
0.788075 0.900754 0.925608 0.945223
1.00458 1 1.00669 0.997899
1.01332 1.00026 1.01554 0.997555
1.00435 1.00275 1.00399 0.997614
1.0053 1.00736 1.00133 0.996631
1.01358 1.00199 1.01398 0.997623
1.01519 1 1.01723 0.998
1.01086 1.00018 1.01297 0.997739
1.01897 1.00128 1.02 0.997708
0.999686 1.0036 0.998719 0.997374
0.974089 1.00128 0.974313 0.998492
0.971655 1.00035 0.973567 0.997686
0.98377 1.00085 0.98392 0.998998
1.02143 1.00019 1.0228 0.998479
0.879872 0.955004 0.950994 0.968805
0.697248 0.816763 0.904448 0.94386
0.632943 0.767479 0.892825 0.923702
0.697746 0.821146 0.902514 0.941505
0.853707 0.906463 0.974729 0.966216
0.891773 0.916176 0.986925 0.98626
0.869653 0.922737 0.954742 0.987148
0.87057 0.931241 0.963525 0.970239
0.893925 0.96209 0.94209 0.986264
0.993366 1.00132 0.993829 0.998218
0.998702 1 0.999702 0.999
0.9943 1 0.994871 0.999427
0.993028 0.988768 1.00692 0.99741
0.981029 0.991908 0.992257 0.99675
0.886654 0.965982 0.947627 0.968607
0.746909 0.849426 0.925493 0.9501
0.704264 0.807212 0.934505 0.933612
0.94781 0.96655 0.985404 0.995137
0.861192 0.932983 0.940899 0.981032
0.730818 0.841841 0.917008 0.946686
0.881522 0.953075 0.953206 0.970329
0.961371 0.981613 0.981711 0.997624
0.91755 0.988383 0.956186 0.970873
0.900958 0.965411 0.948797 0.983601
0.966019 1.00321 0.965833 0.996992
0.935533 0.992099 0.952018 0.99051
0.98998 1.003 0.989557 0.997431
0.980051 1.0082 0.974771 0.997242
0.993357 1.03882 0.958539 0.997598
0.999499 1.00482 0.998123 0.996572
1.02687 1.04359 0.986705 0.997234
1.0392 1.06748 0.975825 0.997625
1.02504 1.03341 0.995391 0.996499
1.04301 1.06012 0.98652 0.997305
1.03622 1.05912 0.980774 0.997554
1.05104 1.05788 0.996812 0.996705
1.04915 1.06032 0.992154 0.99729
1.04599 1.06035 0.989035 0.997393
1.04962 1.05696 0.995798 0.997249
1.04902 1.05491 0.997405 0.997003
1.05655 1.06148 0.998402 0.996953
1.0535 1.05707 0.999984 0.996643
1.05476 1.05854 1 0.996427
1.05434 1.0585 1 0.996066
1.05689 1.06108 1 0.99605
1.05612 1.06032 1 0.996044
1.04118 1.04511 1 0.996234
1.04516 1.0494 1 0.995957
1.04636 1.05079 1 0.995785
1.00714 1.00995 1 0.997212
1.02508 1.02876 1 0.99643
1.02998 1.03401 1 0.996101
1.00031 1 1.00131 0.998996
1.00265 1.00463 1.00056 0.997467
1.01291 1.01623 1 0.996734
1 1 1 1
1.00177 1 1.00248 0.999287
1.00433 1.002 1.00454 0.997791
1 1 1 1
1.00285 1 1.00331 0.999544
1 1 1 1
1.01115 1.01417 1.00025 0.996778
1.00092 1.00328 1 0.997654
1.00117 1.00123 1.00226 0.99769
1.00244 1 1.00461 0.997839
1.00476 1 1.00687 0.9979
1.00665 1 1.00819 0.998468
1.00981 1 1.01174 0.998097
1.00551 1 1.00679 0.99873
1.00109 1 1.00135 0.99974
1 1 1 1
0.999847 1 1 0.999847
1.00066 1 1.00173 0.998927
1 1 1 1
0.999924 1 1 0.999924
1 1 1 1
0.908138 0.977721 0.955274 0.97232
0.73568 0.847495 0.915553 0.948132
0.685998 0.801362 0.924174 0.926275
1.01569 1 1.01837 0.997367
1.00225 1.00241 1.00216 0.997687
1.01139 1.00208 1.01178 0.997549
1.00639 1.00823 1.00146 0.996728
1.02113 1.02475 1.00016 0.996306
1.00064 1.0035 1 0.997157
1.02168 1.00133 1.02256 0.99781
1.00054 1.00436 0.999003 0.997187
0.980942 1.00226 0.980221 0.998474
0.995699 1.00266 0.995609 0.997438
0.970468 1.00345 0.969364 0.997697
0.993321 1.00152 0.994575 0.997228
0.973542 1.00082 0.974895 0.997795
0.987879 1.00031 0.988528 0.999031
0.905241 0.97186 0.94448 0.986207
0.88942 0.964339 0.952205 0.968606
0.706776 0.817625 0.911324 0.948538
0.857622 0.926131 0.959598 0.965015
0.88012 0.924442 0.96345 0.988174
0.894952 0.954267 0.947224 0.990095
0.975035 1.00377 0.974207 0.997094
0.991108 1.00052 0.992425 0.998153
0.997312 0.999704 0.998628 0.998978
0.982556 0.993271 0.992103 0.997086
0.925162 0.973175 0.963488 0.986688
0.901584 0.973332 0.951582 0.973417
0.736264 0.844421 0.921461 0.946233
0.959528 0.977115 0.984247 0.997718
0.90645 0.971819 0.946629 0.985323
0.918593 0.986046 0.959086 0.971334
0.960112 1.00132 0.96167 0.997068
0.936489 0.988313 0.957468 0.989656
0.961977 1.02479 0.941375 0.997169
0.981101 1.01856 0.967275 0.995814
0.976409 1.00796 0.971433 0.997188
0.990402 1.03652 0.957811 0.997594
1.00675 1.0672 0.945645 0.997583
1.02979 1.04556 0.98768 0.997203
1.0386 1.06709 0.975637 0.997603
1.03887 1.06523 0.977697 0.997504
1.04343 1.06056 0.986539 0.997279
1.03692 1.0587 0.981849 0.997534
1.04876 1.06704 0.985475 0.997357
1.04925 1.06055 0.992056 0.997268
1.04435 1.05805 0.989637 0.997386
1.04885 1.05974 0.992593 0.997115
1.04927 1.05724 0.995146 0.997305
1.04921 1.055 0.997454 0.99705
1.05369 1.05779 0.999456 0.996669
1.0535 1.05706 1 0.996634
1.05497 1.05876 1 0.996416
1.05547 1.0594 1 0.996291
1.0477 1.05171 1 0.996188
1.05455 1.05873 1 0.996058
1.05657 1.06078 1 0.996037
1.01853 1.02159 1 0.997004
1.03973 1.04365 1 0.996239
1.04533 1.04957 1 0.99596
0.999353 1.00034 1.00027 0.99874
1.00959 1.0124 1.00001 0.997211
1.02371 1.02738 1 0.99643
1 1 1 1
0.999913 1 1.00094 0.998979
1.00479 1.00654 1.0008 0.997467
1 1 1 1
1.00152 1 1.00226 0.999263
1 1 1 1
1.02426 1.02798 1 0.996383
1.01292 1.01606 1.0001 0.996811
1.00901 1.01125 1.00066 0.997126
1.00061 1.00298 1 0.997639
1.00078 1.00095 1.0022 0.997637
1.00436 1.0013 1.00495 0.998125
1.00388 1 1.00603 0.997862
1.0072 1 1.00874 0.99847
1.00299 1 1.00338 0.999612
1.00616 1 1.00744 0.998729
1.00085 1 1.0011 0.999751
1 1 1 1
1 1 1 1
0.999861 1 1 0.999861
1 1 1 1
0.915766 0.97241 0.95407 0.987086
0.897513 0.976267 0.949759 0.967963
0.732367 0.840505 0.916818 0.950397
1.04032 1.04422 1.00007 0.996199
1.00905 1.0018 1.00978 0.997478
1.00759 1.00929 1.00149 0.996826
1.001 1.00386 1 0.997159
1.01986 1.02323 1.00042 0.996286
1.00691 1.01003 0.999771 0.997135
1.00091 1.00409 0.999826 0.997001
0.983656 1.00234 0.982876 0.998456
0.993607 1.00307 0.993099 0.997451
0.964023 1.00246 0.964019 0.99755
1.00911 1.01567 0.996784 0.996747
0.994938 1.00722 0.990489 0.997287
0.993453 1.00212 0.994131 0.997201
0.97563 1.00134 0.976375 0.997904
0.97103 1.00613 0.96743 0.99761
0.898605 0.967272 0.943371 0.984777
0.887137 0.965653 0.948287 0.96879
0.891243 0.947493 0.952305 0.987743
0.977907 1.00492 0.975096 0.997969
0.991015 1.0002 0.992724 0.998078
0.977579 1.00741 0.975082 0.995189
0.910493 0.957035 0.962798 0.988129
0.88912 0.970618 0.945588 0.968746
0.958714 0.999062 0.962364 0.997143
0.944528 0.9904 0.96471 0.98857
0.965808 1.02646 0.943453 0.997309
0.985101 1.01863 0.97084 0.996129
0.991585 1.04559 0.950822 0.997403
1.05068 1.07478 0.980261 0.997269
0.986915 1.03359 0.957153 0.99759
1.01229 1.06869 0.94954 0.997565
1.02996 1.07924 0.956869 0.997356
1.03733 1.06624 0.975242 0.997581
1.03568 1.0633 0.976466 0.9975
1.04909 1.07475 0.978828 0.997239
1.03729 1.05808 0.982789 0.997515
1.04661 1.06541 0.984947 0.997371
1.05154 1.06593 0.989405 0.997064
1.04257 1.05568 0.99018 0.997379
1.04926 1.06013 0.992616 0.997113
1.05482 1.06148 0.996923 0.996793
1.04931 1.055 0.997498 0.997096
1.05414 1.05819 0.999458 0.996715
1.05763 1.06146 1 0.9964
1.05516 1.05897 1 0.996405
1.05517 1.05911 1 0.996278
1.04989 1.05385 1 0.996245
1.02623 1.02943 1 0.996887
1.04748 1.05148 1 0.996196
1.05471 1.0589 1 0.996049
1.00106 1.00247 1 0.998592
1.01908 1.02214 1 0.997003
1.03849 1.04241 1 0.996245
1 1 1 1
0.999719 1.00089 1.0001 0.998725
1.0122 1.01503 1 0.99721
1 1 1 1
0.999415 1 1.00045 0.998961
1 1 1 1
1.03894 1.04298 1 0.996131
1.02588 1.0296 1 0.996378
1.02245 1.02583 1 0.996709
1.01517 1.01837 1.00001 0.996843
1.00975 1.01211 1.00056 0.997115
1.00586 1.00574 1.00235 0.997776
1.00023 1.00069 1.00196 0.997583
1.00456 1.0007 1.00573 0.998127
1.00223 1 1.0028 0.999433
1.00702 1 1.00856 0.998471
1.00209 1 1.00247 0.999624
1 1 1 1
1.00028 1 1.00051 0.999762
1 1 1 1
1 1 1 1
0.972878 1.01057 0.96537 0.997241
0.910278 0.970402 0.953015 0.98429
0.896752 0.969035 0.951405 0.972674
1.03079 1.0342 1.00001 0.996699
1.05005 1.05398 0.999906 0.996359
1.03832 1.04207 1.00013 0.996279
1.00178 1.00464 1 0.99716
1.01839 1.02146 1.00073 0.996265
1.00904 1.01308 0.998889 0.99712
1.03057 1.03768 0.99644 0.996688
0.992986 1.00426 0.991291 0.997464
0.960894 1.00189 0.961581 0.997401
1.01023 1.01785 0.995646 0.996856
1.02454 1.0405 0.988014 0.996611
0.997616 1.02694 0.973906 0.997478
0.999762 1.00942 0.993178 0.997234
0.994402 1.00266 0.99458 0.997171
0.974956 1.00767 0.969561 0.997906
0.903609 0.971123 0.946312 0.983268
0.978173 1.00485 0.974546 0.998873
1.03018 1.05819 0.975626 0.997858
0.975689 1.00616 0.974267 0.995329
0.913666 0.967378 0.958094 0.985787
0.968684 1.02852 0.944243 0.997441
0.989184 1.01911 0.974081 0.996462
0.987134 1.0461 0.945932 0.997571
1.04932 1.07512 0.978652 0.997291
1.04561 1.0874 0.964195 0.997281
1.08507 1.11035 0.979752 0.997426
1.01773 1.07101 0.952585 0.997547
1.03614 1.08131 0.960762 0.997356
1.05231 1.08454 0.973054 0.997148
1.0327 1.06151 0.975298 0.997497
1.04891 1.07388 0.979452 0.997239
1.05217 1.07178 0.98463 0.99703
1.04454 1.06382 0.984457 0.997384
1.0522 1.06657 0.989438 0.99706
1.05511 1.06555 0.993376 0.996803
1.04967 1.06051 0.99264 0.99711
1.05542 1.06206 0.996943 0.996791
1.06073 1.06478 0.999738 0.996457
1.05458 1.05857 0.999459 0.996761
1.05721 1.06102 1 0.996415
1.0537 1.05766 1 0.996257
1.05487 1.05882 1 0.996265
1.04983 1.05379 1 0.996248
1.02794 1.03121 1 0.996833
1.00405 1.0055 1 0.998552
1.02561 1.02881 1 0.996887
1.04736 1.05135 1 0.996204
1 1 1 1
1.00182 1.00324 1 0.99858
1.0193 1.02236 1 0.997003
1 1 1 1
0.999925 1.00122 1 0.998711
1 1 1 1
1.04759 1.05164 1 0.996152
1.03848 1.04252 1 0.996131
1.03416 1.03788 1 0.99642
1.02665 1.03039 1 0.996372
1.02245 1.02582 1 0.996714
1.01094 1.01312 1.00037 0.997476
1.00987 1.01234 1.00046 0.997105
1.0044 1.00398 1.00265 0.997778
1.0005 1 1.00133 0.999173
1.0054 1.00014 1.00714 0.998129
1.00242 1 1.00297 0.999451
1 1 1 1
1.00172 1 1.00208 0.999636
1 1 1 1
1 1 1 1
1.00185 1.04549 0.960284 0.997891
0.970007 1.00952 0.964424 0.996304
0.912239 0.972374 0.952421 0.985023
1.0452 1.0497 0.999124 0.996581
1.03191 1.03513 0.999977 0.996908
1.06336 1.06815 0.999036 0.996478
1.05038 1.05451 0.999738 0.996341
1.03645 1.04009 1.00015 0.996361
1.05426 1.06764 0.990955 0.996477
1.01115 1.01619 0.997929 0.997105
1.03046 1.03705 0.997004 0.996626
1.04543 1.07587 0.974851 0.996772
1.0089 1.01982 0.992302 0.996966
1.0255 1.04124 0.988305 0.996539
0.998543 1.03013 0.97175 0.997517
1.00171 1.00973 0.994867 0.997178
0.979616 1.0093 0.972362 0.998174
1.07173 1.10125 0.975675 0.99746
1.03446 1.05875 0.979125 0.997883
0.974464 1.00498 0.974045 0.995469
0.983575 1.04589 0.942556 0.997738
1.04633 1.07443 0.976467 0.997314
1.04039 1.08532 0.961193 0.997305
1.08841 1.11387 0.979674 0.997418
1.07022 1.09937 0.976118 0.997304
1.04202 1.08299 0.964721 0.997356
1.053 1.08375 0.974401 0.997158
1.05289 1.07649 0.980964 0.997064
1.0487 1.07297 0.980082 0.997239
1.05239 1.07172 0.9849 0.99701
1.05456 1.06809 0.990514 0.996792
1.05287 1.06721 0.989475 0.997057
1.05558 1.06602 0.993382 0.996799
1.06338 1.06851 0.998698 0.996497
1.056 1.06263 0.996963 0.996789
1.06066 1.06472 0.999731 0.996459
1.05872 1.06271 1 0.996248
1.05682 1.06061 1 0.996429
1.05351 1.05746 1 0.996263
1.02865 1.03198 1 0.996773
1.04974 1.0537 1 0.996251
1.02837 1.03164 1 0.996832
1.00584 1.00703 1 0.998818
0.999522 1 1 0.999522
1.00469 1.00603 1 0.998664
1.02489 1.0281 1 0.996887
1 1 1 1
1.00285 1.00429 1 0.998568
1 1 1 1
1.06772 1.07245 0.999006 0.996582
1.05582 1.0597 1 0.996333
1.04828 1.05231 1 0.996166
1.04151 1.04537 1 0.996307
1.03859 1.04263 1 0.996131
1.03508 1.03881 1 0.996416
1.01549 1.01832 1 0.997213
1.02306 1.02643 1 0.99672
1.00861 1.01062 1.00053 0.997477
0.99921 1.00022 1.00012 0.998867
1.00284 1.00224 1.00282 0.99778
1.00089 1 1.0017 0.999192
1 1 1 1
1.00221 1 1.00274 0.999469
1 1 1 1
1 1 1 1
1.0603 1.09764 0.96869 0.997206
1.0081 1.05397 0.958466 0.997925
0.966992 1.00962 0.962222 0.995384
1.05891 1.06836 0.994614 0.996517
1.04112 1.04574 0.998954 0.996628
1.03276 1.03577 0.999983 0.997115
1.06189 1.06653 0.999155 0.996493
1.0507 1.05503 0.999564 0.996323
1.0609 1.08796 0.978305 0.996752
1.05061 1.06436 0.990609 0.996437
1.0304 1.03633 0.997704 0.996563
1.04277 1.07296 0.97501 0.99677
1.02991 1.04469 0.98935 0.996467
1.00375 1.03824 0.969134 0.997565
1.0688 1.0934 0.980038 0.997408
1.07426 1.10369 0.975783 0.997498
1.03856 1.05974 0.98207 0.997909
1.03647 1.08446 0.958314 0.997326
1.09301 1.11814 0.980059 0.99741
1.07067 1.10068 0.975359 0.997309
1.05948 1.07796 0.98564 0.997173
1.05372 1.0829 0.97582 0.997169
1.05338 1.07631 0.98159 0.99705
1.05643 1.07027 0.990199 0.996832
1.05264 1.07172 0.985164 0.996991
1.05518 1.0687 0.990523 0.996791
1.06456 1.07207 0.996464 0.996519
1.05607 1.06651 0.993391 0.996795
1.06309 1.06823 0.998682 0.996497
1.06218 1.0662 1 0.996231
1.06063 1.06468 0.999726 0.996461
1.05847 1.06245 1 0.996253
1.02989 1.03331 1 0.996689
1.05329 1.05724 1 0.996269
1.0297 1.03304 1 0.996773
1.00521 1.00638 1 0.998833
1.02886 1.03213 1 0.996831
1.0057 1.0069 1 0.998812
0.999549 1 1 0.999549
0.999772 1 1 0.999772
1.00538 1.0066 1 0.998786
1 1 1 1
1.06037 1.06904 0.995274 0.996596
1.06042 1.0644 0.999844 0.996418
1.0663 1.07126 0.99866 0.996711
1.05167 1.05559 1 0.996286
1.05786 1.06176 1 0.996321
1.04896 1.05298 1 0.99618
1.04211 1.04598 1 0.996298
1.02208 1.02514 1 0.997007
1.03581 1.03955 1 0.996411
1.01477 1.01761 1 0.997214
1.00128 1.00264 1 0.99865
1.0063 1.00832 1.00052 0.997479
0.999585 1.00021 1.00048 0.998886
1 1 1 1
1.00139 1 1.00218 0.999212
1 1 1 1
1 1 1 1
1.06003 1.08773 0.977373 0.997094
1.0547 1.09153 0.968971 0.997205
1.01231 1.05905 0.957826 0.997951
1.05889 1.07716 0.986312 0.996677
1.05613 1.06571 0.99448 0.996515
1.03726 1.04194 0.998821 0.996676
1.06026 1.06476 0.999266 0.996507
1.05929 1.08587 0.978726 0.996727
1.04661 1.06073 0.990259 0.996396
1.03494 1.06437 0.975497 0.996768
1.06331 1.08062 0.986704 0.997237
1.06718 1.09148 0.98031 0.997367
1.07602 1.10554 0.975703 0.997535
1.0582 1.07207 0.989958 0.997076
1.07064 1.10164 0.974483 0.997315
1.05931 1.07789 0.985557 0.997159
1.05818 1.07094 0.991122 0.99694
1.0539 1.07611 0.982276 0.997035
1.0564 1.07029 0.990163 0.996835
1.06516 1.0739 0.995303 0.996542
1.05575 1.06926 0.990538 0.996789
1.06388 1.07134 0.996501 0.99652
1.06338 1.0674 1 0.996227
1.0627 1.06786 0.998666 0.996497
1.06256 1.06658 1 0.996234
1.03019 1.03369 1 0.996611
1.05816 1.06213 1 0.996258
1.03098 1.0344 1 0.996691
1.00392 1.00512 1 0.998806
1.0308 1.03413 1 0.996773
1.00486 1.00605 1 0.99882
0.999553 1 1 0.999553
1.00554 1.00674 1 0.998809
0.999561 1 1 0.999561
1 1 1 1
1.05775 1.06942 0.992558 0.996504
1.06199 1.06711 0.998787 0.996409
1.062 1.07049 0.995459 0.996594
1.05818 1.06207 1 0.996337
1.0615 1.06571 0.999589 0.996463
1.06507 1.07026 0.998309 0.996838
1.03095 1.0342 1 0.996861
1.0515 1.05543 1 0.996274
1.06001 1.06394 1 0.996309
1.04302 1.0469 1 0.996288
1.02281 1.02588 1 0.997007
1.00521 1.00666 1 0.998567
1.01414 1.01697 1 0.997215
1.00051 1.00184 1 0.998666
1 1 1 1
0.999719 1 1.00082 0.998905
1 1 1 1
1 1 1 1
1.05835 1.07663 0.986011 0.996974
1.06033 1.08838 0.97708 0.997074
1.05228 1.08904 0.968961 0.997203
1.05861 1.07686 0.986315 0.996694
1.05303 1.06272 0.994349 0.996513
1.05911 1.08523 0.97916 0.996703
1.06012 1.07366 0.990281 0.997074
1.0633 1.08063 0.986702 0.997231
1.06559 1.08966 0.980525 0.997326
1.05869 1.07226 0.990223 0.997096
1.05698 1.06801 0.992751 0.996896
1.05912 1.07785 0.985436 0.997144
1.05854 1.07093 0.991507 0.996901
1.06521 1.07389 0.995273 0.996632
1.05642 1.07035 0.990124 0.996837
1.06473 1.07349 0.995272 0.996544
1.06329 1.06735 0.999961 0.996229
1.06332 1.07075 0.996525 0.99652
1.06481 1.06885 0.99999 0.996228
1.02869 1.03224 1 0.996567
1.06299 1.06701 1 0.996237
1.0309 1.0344 1 0.996613
1.00223 1.00348 1 0.99875
1.03211 1.03554 1 0.996692
1.00345 1.00467 1 0.998787
0.999528 1 1 0.999528
1.00449 1.00569 1 0.998811
0.999575 1 1 0.999575
0.999566 1 1 0.999566
1.05866 1.07105 0.991645 0.996764
1.063 1.06951 0.997551 0.996351
1.05757 1.07033 0.991518 0.996531
1.06258 1.06651 1 0.996314
1.06167 1.06655 0.999025 0.996395
1.06362 1.07192 0.995652 0.996591
1.03334 1.03669 1 0.996767
1.05811 1.06201 1 0.996323
1.06245 1.06687 0.999352 0.996507
1.00655 1.008 1 0.998561
1.0304 1.03365 1 0.996862
1.05144 1.05539 1 0.996263
1.02279 1.02586 1 0.997008
1.00396 1.00539 1 0.998578
1 1 1 1
0.99976 1.00108 1 0.998682
1 1 1 1
1 1 1 1
1.05725 1.07082 0.990331 0.996966
1.05875 1.07683 0.986208 0.996964
1.0598 1.08812 0.976845 0.997055
1.05831 1.07658 0.986279 0.996711
1.0576 1.0666 0.994693 0.996854
1.06015 1.07376 0.990215 0.997085
1.06338 1.08064 0.986768 0.997225
1.05919 1.07243 0.990504 0.997117
1.05715 1.06839 0.992551 0.996905
1.06523 1.07248 0.996616 0.996614
1.0589 1.07091 0.991901 0.996862
1.06582 1.07387 0.995914 0.996578
1.06209 1.06679 0.999289 0.996301
1.06429 1.07307 0.995249 0.996547
1.06421 1.06833 0.999912 0.996231
1.02576 1.02933 1 0.996538
1.06602 1.07006 0.999995 0.996229
1.02844 1.03199 1 0.996568
1.00011 1.00165 1 0.998459
1.03163 1.03513 1 0.996615
1.00154 1.00293 1 0.998619
1 1 1 1
1.00298 1.00421 1 0.99877
0.999556 1 1 0.999556
0.99959 1 1 0.99959
1.05756 1.06771 0.993618 0.99686
1.0628 1.07041 0.996394 0.996487
1.05906 1.07063 0.992417 0.996755
1.0639 1.06805 0.999895 0.996217
1.06229 1.06916 0.997209 0.996356
1.05743 1.07127 0.990492 0.996558
1.03276 1.03626 1 0.996623
1.06241 1.06637 0.999968 0.996314
1.06133 1.06601 0.99923 0.996381
1.00511 1.00655 1 0.998572
1.03237 1.03575 1 0.996734
1.05781 1.06173 1 0.99631
1 1 1 1
1.00643 1.00787 1 0.998571
1.02988 1.03312 1 0.996863
1.00308 1.0045 1 0.998591
1 1 1 1
1 1 1 1
1.05591 1.06461 0.994953 0.996863
1.05766 1.07092 0.990618 0.996973
1.05909 1.07702 0.986356 0.996955
1.06469 1.07087 0.99766 0.996554
1.05703 1.06643 0.9943 0.996866
1.06019 1.07387 0.990137 0.997096
1.0573 1.06878 0.992322 0.996915
1.06489 1.0723 0.996466 0.996614
1.06071 1.06518 0.999456 0.996344
1.06635 1.07376 0.996557 0.996525
1.06244 1.06684 0.999593 0.996281
1.02339 1.027 1 0.99649
1.06525 1.06944 0.999851 0.996233
1.02527 1.02883 1 0.996539
0.998934 1.0005 1 0.998433
1.02841 1.03195 1 0.996569
0.99972 1.00127 1 0.998457
1 1 1 1
1.00083 1.00236 1 0.998466
0.999754 1 1 0.999754
0.999581 1 1 0.999581
1.05494 1.06364 0.994984 0.996821
1.06414 1.07038 0.997604 0.996564
1.05727 1.06724 0.993772 0.996868
1.06387 1.06792 1 0.996207
1.06376 1.07118 0.996588 0.996472
1.05941 1.07016 0.993182 0.996747
1.03005 1.03362 1 0.996545
1.06337 1.06745 0.999955 0.996219
1.06163 1.06884 0.996879 0.99636
1.00276 1.00422 1 0.998548
1.0322 1.03571 1 0.996612
1.06223 1.06621 0.999949 0.996315
1 1 1 1
1.00567 1.0071 1 0.998581
1.03164 1.03506 1 0.996701
1 1 1 1
1.00625 1.00768 1 0.998583
1 1 1 1
1.06375 1.06976 0.997781 0.996596
1.05555 1.06429 0.994921 0.996848
1.05803 1.07095 0.990929 0.996979
1.06002 1.0644 0.999552 0.99634
1.064 1.07055 0.997294 0.996574
1.05646 1.06625 0.993917 0.996877
1.06454 1.07212 0.996308 0.996615
1.06045 1.06503 0.999352 0.996344
1.02222 1.02582 1 0.99649
1.06285 1.06695 0.999895 0.996261
1.02331 1.0269 1 0.9965
0.998522 1.00012 1 0.998399
1.02464 1.0282 1 0.99654
0.998738 1.00031 1 0.998431
1 1 1 1
0.999245 1.00079 1 0.998455
1 1 1 1
0.999553 1 1 0.999553
1.06445 1.0703 0.997959 0.996571
1.05427 1.06358 0.994384 0.996841
1.06237 1.06636 1 0.996259
1.06448 1.07075 0.997573 0.996563
1.05701 1.06682 0.99391 0.996876
1.02688 1.03043 1 0.996563
1.06306 1.06711 1 0.996204
1.0647 1.07193 0.996784 0.996458
1.00055 1.00206 1 0.998494
1.03006 1.03361 1 0.996559
1.06272 1.06675 1 0.996222
1 1 1 1
1.00343 1.00488 1 0.998554
1.03172 1.03524 1 0.9966
1 1 1 1
1.00619 1.00761 1 0.998589
1 1 1 1
1.06017 1.06441 0.999646 0.996361
1.06361 1.06952 0.997886 0.996584
1.0552 1.06398 0.994895 0.996834
1.02185 1.02543 1 0.996507
1.05977 1.06422 0.999477 0.99634
1.06327 1.07021 0.996911 0.996595
1.06022 1.06489 0.99927 0.996345
1.02236 1.02596 1 0.996488
0.998388 1 1 0.998386
1.02318 1.02676 1 0.996511
0.99843 1.00003 1 0.998397
1 1 1 1
0.998558 1.00013 1 0.998429
1 1 1 1
1 1 1 1
1.06144 1.0654 1 0.996288
1.06395 1.07014 0.997595 0.99662
1.05361 1.06355 0.993777 0.99686
1.02439 1.02791 1 0.996575
1.06205 1.06605 1 0.996256
1.06482 1.07113 0.997543 0.996562
0.999022 1.00057 1 0.998451
1.0269 1.03044 1 0.996561
1.06223 1.06629 1 0.9962
1 1 1 1
1.00115 1.00265 1 0.998498
1.03017 1.03371 1 0.996572
1 1 1 1
1.00404 1.00549 1 0.99856
1 1 1 1
1.02249 1.02603 1 0.996553
1.05986 1.06422 0.999555 0.996345
1.06347 1.06931 0.997967 0.996573
0.998413 1 1 0.998413
1.02203 1.02562 1 0.996504
1.05953 1.06405 0.999407 0.996341
1.0225 1.0261 1 0.996485
0.998387 1 1 0.998387
1 1 1 1
0.998395 1 1 0.998395
1 1 1 1
1 1 1 1
1.02319 1.0267 1 0.996575
1.06098 1.0651 0.999818 0.996316
1.06348 1.06995 0.997274 0.996668
0.998738 1.00003 1 0.998707
1.02475 1.02827 1 0.996574
1.06181 1.06581 1 0.996252
1 1 1 1
0.999473 1.00102 1 0.998452
1.02709 1.03064 1 0.996558
1 1 1 1
1.0017 1.0032 1 0.998501
1 1 1 1
0.998398 1 1 0.998398
1.02265 1.0262 1 0.99654
1.05959 1.06404 0.99948 0.996328
1 1 1 1
0.998412 1 1 0.998412
1.02221 1.0258 1 0.996501
0.998386 1 1 0.998386
1 1 1 1
1 1 1 1
0.998678 1 1 0.998678
1.0235 1.02702 1 0.996575
1.0605 1.06481 0.999603 0.996345
1 1 1 1
0.998612 1.00017 1 0.998439
1.02492 1.02844 1 0.996573
1 1 1 1
0.999797 1.00135 1 0.998453
1 1 1 1
0.999525 1 1 0.999525
0.998553 1 1 0.998553
1.02279 1.02635 1 0.996526
1 1 1 1
0.998413 1 1 0.998413
1 1 1 1
0.999537 1 1 0.999537
0.998561 1 1 0.998561
1.02381 1.02733 1 0.996576
0.999763 1 1 0.999763
0.998853 1.00041 1 0.99844
1 1 1 1
1 1 1 1
0.998435 1 1 0.998435
1 1 1 1
0.999768 1 1 0.999768
0.998462 1.00002 1 0.998444
1 1 1 1
1 1 1 1
1 1 1 1

VECTORS lamdaE float
1.00197 1 0.993067
1.00152 1.00077 0.996522
1.00145 1.00021 0.993426
1.00192 1.0001 0.992985
1.00203 0.999915 0.993073
1.00193 1.00024 0.99289
1.00314 1.00056 0.990056
1.00158 1.00079 0.99646
1.00133 1.00006 0.997129
1.00083 1.00087 0.997147
1.00132 1.00123 0.992646
1.00312 1.0012 0.988292
1.00141 0.999988 0.993651
1.00118 1.00001 0.993822
1.00097 1.00043 0.993758
1.00156 1.00007 0.993378
1.00134 1.0006 0.993219
1.00159 0.999968 0.993448
1.00338 1.00043 0.989878
1.00141 1.00002 0.996748
1.00182 1.00015 0.993039
1.00202 0.999979 0.993009
1.00317 1.00021 0.990381
1.00323 1.00029 0.99021
1.00194 1.00053 0.992626
1.00305 1.00104 0.9897
1.00528 1.00119 0.98548
1.00159 1.00079 0.996394
1.00159 0.999943 0.995202
1.00121 1.00057 0.995179
1.00149 1.00101 0.996396
1.00306 1.00133 0.988301
1.00185 0.999754 0.993198
1.00168 1.00004 0.993295
1.00354 1.00014 0.990497
1.00028 1.00138 0.997346
1.00338 1.00072 0.990271
1.00286 1.00206 0.987882
1.00507 1.00166 0.984646
1.00046 1.00007 0.99759
1.00146 0.999987 0.996718
1.00142 1.00001 0.995212
1.00134 0.999965 0.996805
1.00101 1.00005 0.994008
1.00313 0.999922 0.989743
1.00136 0.999939 0.997064
1.00352 1.00013 0.990574
1.0012 0.999993 0.99377
1.00117 1.00002 0.993811
1.0008 1.00097 0.993528
1.00359 1.0003 0.989714
1.00121 1.00004 0.995403
1.00145 1.00016 0.993437
1.00135 1.00098 0.992903
1.00163 0.999949 0.993393
1.00336 1.00017 0.990177
1.00333 1.00085 0.989526
1.00343 1.00021 0.990025
1.00529 1.00116 0.985543
1.0013 1 0.996806
1.00169 1.00009 0.993291
1.0028 0.999988 0.991621
1.00309 1.00019 0.990541
1.00325 1.0002 0.990276
1.00527 1.0001 0.986616
1.00528 1.0004 0.986217
1.00173 1.00069 0.992384
1.00295 1.00194 0.98907
1.0053 1.00174 0.984875
1.00529 0.999968 0.985964
1.00192 0.999955 0.996597
1.00135 1.00088 0.996623
1.00162 1.0005 0.996556
1.00303 1.00144 0.98831
1.00193 0.999868 0.996537
1.0018 1.00012 0.99662
1.0034 1.00008 0.989003
1.00056 1.00113 0.995399
1.00316 1.00069 0.988773
1.00273 1.00225 0.989018
1.00518 1.0015 0.984641
1.00076 1.00042 0.9972
1.00071 1.00245 0.991251
1.00355 1.00006 0.98887
1.00346 1.00015 0.988915
1.00532 1.00044 0.985601
1.00199 1.00284 0.990603
1.00529 1.00114 0.984896
1.00417 1.00284 0.984922
1.00537 1.00153 0.984193
1.00023 0.999337 0.997987
1.0003 0.999822 0.997756
1.00177 0.999968 0.996541
1.00152 0.999985 0.996678
1.00138 0.999972 0.996795
1.00129 1.00001 0.995346
1.00318 0.999916 0.990457
1.00158 0.99994 0.995146
1.0034 1.00016 0.989866
1.00133 0.999981 0.996827
1.00293 0.999798 0.990124
1.00341 1.00006 0.990825
1.00517 0.999037 0.987373
1.00352 1.0001 0.990536
1.00523 0.999416 0.986872
1.00136 1 0.993735
1.00106 1.00015 0.993838
1.00076 1.00142 0.993167
1.00125 0.999907 0.993774
1.00354 1.00016 0.989974
1.00362 1.00014 0.989848
1.00358 1.00067 0.989363
1.0053 1.00113 0.985603
1.00135 0.999981 0.996818
1.0013 1.0001 0.993676
1.003 0.999935 0.990454
1.00326 1.00016 0.990334
1.00152 1.00122 0.994303
1.00325 1.00171 0.989244
1.00343 1.00015 0.990082
1.00526 0.999898 0.986856
1.00529 1.00173 0.984962
1.00529 1.00059 0.986071
1.00528 0.999969 0.985994
1.00289 0.99984 0.99017
1.00296 1.00006 0.99083
1.005 0.998845 0.988416
1.0052 0.999445 0.987471
1.00529 0.999956 0.986692
1.00536 0.997797 0.988348
1.0009 1.00105 0.996903
1.00529 0.999086 0.986842
1.00249 1.003 0.987485
1.00524 1.00214 0.983888
1.00529 1.00093 0.985071
1.00526 0.997452 0.988299
1.0013 1.00314 0.989466
1.00248 1.00423 0.986501
1.00195 0.999882 0.996557
1.00178 1.00017 0.996607
1.00342 1.00006 0.988981
1.00082 1.00076 0.997079
1.00229 1.00258 0.988233
1.00318 1.00062 0.988777
1.0053 1.00135 0.984633
1.0006 1.00045 0.997348
1.00065 1.00258 0.991269
1.00356 1.0001 0.989679
1.00349 1.00021 0.989663
1.00532 1.00046 0.985569
1.00153 1.00298 0.989219
1.0053 1.00113 0.984872
1.00442 1.00246 0.984894
1.00536 1.00139 0.984399
1.0011 1.00273 0.990223
1.00038 1.00213 0.992244
1.00216 1.00417 0.987632
1.00531 1.00008 0.986015
1.00532 1.00078 0.985229
1.00531 0.998853 0.987142
1.00337 1.00346 0.985601
1.00533 1.00027 0.98571
1.0053 1.00237 0.983626
1.00532 1.00001 0.98555
1.00012 0.998821 0.998325
1.00014 0.999264 0.99813
1.00021 0.999698 0.997916
1.00097 1.003 0.990261
1.00052 1.00084 0.99723
1.00191 0.999908 0.996523
1.00162 0.999992 0.996593
1.00323 1.0002 0.9892
1.00303 0.999923 0.989817
1.00138 0.999971 0.996774
1.00131 0.999971 0.996822
1.00292 0.999814 0.990114
1.00328 1.00006 0.990122
1.00514 0.999043 0.987385
1.00337 1.00015 0.989023
1.00523 0.999431 0.98685
1.00285 0.999798 0.990229
1.0051 0.998929 0.987584
1.0052 0.999174 0.987166
1.00531 0.995792 0.990608
1.00529 0.999732 0.98645
1.00533 0.996538 0.989724
1.00132 0.99998 0.996817
1.00089 1.00015 0.99406
1.00303 0.999915 0.989446
1.00344 1.00015 0.990125
1.0007 1.00193 0.996758
1.00356 1.00128 0.989427
1.00362 1.00012 0.989891
1.00526 0.999689 0.987098
1.00529 1.00077 0.98592
1.00528 1.0017 0.985049
1.00528 0.99997 0.986024
1.00287 0.999836 0.990174
1.00313 1.00007 0.990629
1.00503 0.998796 0.988171
1.0052 0.999654 0.987213
1.00106 1.00112 0.996747
1.0026 1.00275 0.988552
1.00505 1.00242 0.984239
1.0053 1.00002 0.98665
1.00536 0.997396 0.988767
1.0053 1.00083 0.985141
1.00528 0.999256 0.986764
1.00526 0.997507 0.988304
1.00135 1.00308 0.989439
1.00261 1.00416 0.986452
1.005 0.999023 0.987652
1.00509 0.999141 0.98798
1.00531 0.996448 0.989805
1.00535 0.996658 0.989562
1.00531 0.998179 0.9878
1.00526 0.995469 0.990662
1.00172 1.00327 0.988452
1.00525 0.996319 0.989533
1.00458 1.00304 0.984211
1.0053 1.00188 0.98392
1.00529 0.99915 0.98674
1.00526 0.995966 0.989938
1.00332 1.00408 0.985113
1.00211 1.00411 0.987608
1.00393 1.00313 0.98548
1.00342 1.00009 0.988967
1.00037 1.00029 0.997511
1.00054 1.0026 0.991289
1.00334 1.00019 0.988957
1.00531 1.00048 0.985538
1.00149 1.0031 0.989099
1.00462 1.00218 0.984873
1.00532 1.00113 0.984845
1.00537 1.00124 0.984604
1.00104 1.00282 0.990254
1.00022 1.00218 0.99225
1.00192 1.00417 0.987618
1.0053 1.00011 0.985983
1.00532 1.00079 0.985203
1.00531 0.998854 0.987123
1.00356 1.00323 0.985597
1.00532 1.00038 0.985614
1.00536 1.00235 0.983562
1.00533 0.999697 0.985794
1.00017 1.00147 0.993091
1.00303 1.00371 0.986487
1.00132 1.00464 0.9883
1.0031 1.00148 0.987945
1.00529 0.998048 0.988048
1.0053 0.999664 0.98629
1.00528 0.996582 0.989229
1.00487 1.00269 0.983888
1.00526 0.998254 0.98769
1.00534 1.00134 0.984622
1.00537 0.99862 0.986941
1.00014 1.00313 0.991573
1.00029 1.00012 0.994288
1.00012 0.998268 0.998546
1.00007 0.998728 0.998412
1.00006 0.999184 0.99825
1.00061 1.00271 0.991094
1.00034 1.00045 0.997484
1.00106 1.00288 0.990195
1.00067 1.00086 0.997119
1.00335 1.00018 0.989019
1.00314 1.00008 0.989481
1.00522 0.999444 0.986835
1.00512 0.999054 0.987395
1.00293 0.999833 0.990111
1.00137 0.999957 0.996819
1.00288 0.99979 0.990231
1.00508 0.998944 0.987592
1.00518 0.9992 0.987163
1.00532 0.995758 0.990611
1.00528 0.999749 0.986423
1.00532 0.996523 0.989732
1.00502 0.998934 0.98769
1.00532 0.995754 0.990665
1.00532 0.996002 0.990324
1.00527 0.994958 0.991426
1.00531 0.997276 0.988927
1.00526 0.994929 0.991196
1.00288 0.999838 0.990184
1.00331 1.00004 0.990426
1.00506 0.998724 0.987928
1.00521 0.999841 0.986955
1.00126 1.00119 0.996547
1.00297 1.0026 0.989364
1.00485 1.00259 0.984583
1.0053 1.00007 0.986608
1.00536 0.996994 0.989184
1.00528 0.999428 0.986689
1.00531 1.00074 0.985212
1.00526 0.997557 0.988309
1.00142 1.00299 0.989414
1.00259 1.00402 0.986407
1.00501 0.998779 0.987916
1.00511 0.99911 0.98796
1.00531 0.996428 0.98987
1.00536 0.996972 0.989167
1.00181 1.00324 0.988463
1.00434 1.00318 0.984239
1.00531 1.00203 0.983758
1.0053 0.998415 0.987645
1.00526 0.99525 0.990817
1.00529 0.998921 0.986987
1.00526 0.996345 0.989515
1.00526 0.995937 0.989818
1.00329 1.00419 0.985068
1.00363 1.00335 0.985473
1.00187 1.00414 0.987647
1.00531 0.996344 0.989973
1.00534 0.996627 0.989603
1.0053 0.994959 0.99126
1.0053 0.994925 0.991152
1.00525 0.995522 0.990349
1.00526 0.994931 0.990984
1.00381 1.00379 0.98456
1.00528 0.995134 0.990535
1.0053 1.00314 0.982768
1.00529 1.00047 0.985162
1.00525 0.997557 0.988308
1.00527 0.995613 0.990188
1.00121 1.00497 0.987794
1.00472 1.00373 0.983704
1.00276 1.00198 0.987622
1.00485 1.00347 0.983973
1.0053 1.00012 0.985952
1.00013 1.00231 0.992252
1.00087 1.00306 0.990291
1.0016 1.00418 0.987602
1.00532 1.00079 0.985175
1.00531 0.998856 0.987104
1.00373 1.00283 0.985594
1.00539 1.00232 0.983495
1.00531 1.00049 0.985519
1.00533 0.999404 0.986038
1.00012 1.00153 0.993116
1.00282 1.00356 0.98657
1.00115 1.00472 0.988244
1.00331 1.00141 0.987996
1.0053 0.998043 0.988031
1.0053 0.999655 0.98627
1.00527 0.996559 0.989235
1.00508 1.00266 0.983858
1.00526 0.998457 0.987446
1.00532 1.0012 0.984598
1.00536 0.998488 0.987133
1.00028 1.00066 0.99377
1.00103 1.00466 0.988911
1.00379 1.0025 0.985922
1.00266 1.00289 0.98811
1.00392 0.999754 0.988651
1.00527 0.995736 0.99015
1.00526 0.997436 0.988312
1.00527 0.995539 0.990023
1.00523 1.00235 0.983816
1.0053 0.997151 0.988518
1.00524 0.999873 0.985854
1.00045 1.00338 0.990777
1.00025 1.00475 0.989837
1.00009 1.00245 0.992348
1.00014 1.00307 0.991585
1.00018 0.99969 0.995601
1.00025 1.00006 0.994756
1.00028 0.99772 0.997051
1.00011 0.998165 0.998595
1.00003 0.998599 0.998481
1.00001 1.00245 0.99227
1.00014 1.00003 0.997867
1.00068 1.00265 0.991087
1.00044 1.00058 0.997391
1.00114 1.0028 0.990128
1.0008 1.00093 0.997013
1.00527 0.999769 0.986396
1.00516 0.999222 0.987158
1.00531 0.996528 0.989741
1.00533 0.995721 0.990614
1.00506 0.99896 0.987601
1.00287 0.999774 0.990228
1.00502 0.998935 0.987693
1.00531 0.995732 0.990671
1.00532 0.995996 0.990329
1.00526 0.994956 0.991416
1.0053 0.997254 0.988925
1.00528 0.994927 0.991222
1.00532 0.995793 0.990631
1.00525 0.994963 0.991467
1.00529 0.994939 0.991332
1.00524 0.994956 0.991326
1.00525 0.995133 0.990856
1.00527 0.994912 0.991019
1.00501 0.998534 0.988181
1.00514 0.999102 0.98794
1.00531 0.996417 0.989935
1.00537 0.997278 0.988773
1.00188 1.0032 0.988482
1.0041 1.00352 0.984281
1.00533 1.00216 0.983599
1.00529 0.998648 0.987492
1.00527 0.995025 0.990973
1.00527 0.996378 0.989497
1.00528 0.998674 0.987234
1.00526 0.99591 0.989696
1.00337 1.00447 0.985019
1.00342 1.00337 0.985465
1.00171 1.00418 0.987682
1.00531 0.996094 0.99027
1.00534 0.996633 0.989615
1.00531 0.994957 0.991292
1.0053 0.995002 0.991026
1.00374 1.00394 0.98459
1.00528 1.00319 0.982837
1.00529 1.00065 0.984915
1.00525 0.995744 0.990132
1.00525 0.994925 0.990938
1.00525 0.99742 0.988279
1.00527 0.99515 0.990506
1.00527 0.995504 0.990227
1.00432 1.00387 0.983707
1.00458 1.00353 0.983742
1.00141 1.00479 0.987855
1.00286 1.00214 0.987656
1.00529 0.994965 0.99142
1.00534 0.99498 0.991041
1.00527 0.994947 0.991294
1.00527 0.994924 0.990951
1.00529 0.994915 0.990787
1.00533 0.99491 0.990736
1.00518 1.0037 0.982628
1.00529 0.99492 0.990547
1.00527 1.00218 0.983491
1.00526 0.999644 0.98591
1.00518 0.996866 0.988845
1.00533 0.995295 0.990188
1.00097 1.0048 0.988397
1.00293 1.00356 0.986508
1.00514 1.00394 0.98233
1.00361 1.00142 0.987249
1.00451 1.00447 0.982984
1.00005 1.00152 0.993142
1.0053 0.998038 0.988014
1.00109 1.00471 0.988187
1.00258 1.00357 0.986654
1.00341 1.0012 0.988048
1.0053 0.999648 0.986251
1.00527 0.996535 0.989242
1.00526 1.00239 0.983827
1.00531 1.00112 0.984573
1.00525 0.998637 0.987203
1.00535 0.998364 0.987323
1.00025 1.00064 0.993802
1.00077 1.00475 0.988922
1.00401 1.00217 0.985995
1.00234 1.0029 0.988053
1.00405 0.99975 0.988035
1.00526 0.995714 0.990166
1.00526 0.99741 0.988317
1.00526 0.995532 0.990032
1.00522 1.00244 0.983735
1.00531 0.99725 0.988328
1.00523 0.999923 0.98607
1.00074 1.00392 0.989916
1.00154 1.00506 0.988282
1.00445 1.00226 0.985095
1.00348 1.00083 0.988376
1.00503 1.00117 0.986634
1.00532 0.99499 0.990607
1.00526 0.996217 0.989257
1.00522 0.995257 0.990151
1.00496 1.00151 0.984512
1.00522 0.998544 0.986914
1.00037 1.00355 0.99076
1.00054 1.00448 0.989521
0.999909 1.00483 0.989855
1.00053 1.00451 0.990124
1.0001 1.00432 0.990704
0.999961 1.00216 0.992814
0.999986 1.00254 0.992371
1.00015 0.999263 0.995986
1.00012 1.00308 0.991599
1.00021 0.999542 0.995665
1.00028 0.997295 0.997372
1.00023 1 0.995213
1.00019 0.99779 0.997899
1.0001 0.998072 0.998642
0.999755 1.00141 0.993709
1.00014 1.00227 0.992292
0.999885 0.999311 0.998358
1.00028 1.00003 0.997702
1.00076 1.00252 0.991082
1.00054 1.00062 0.997291
1.0053 0.99723 0.988922
1.00533 0.995971 0.990333
1.00529 0.994926 0.991248
1.00526 0.994953 0.991406
1.00531 0.995708 0.990676
1.00502 0.998937 0.987696
1.00531 0.995786 0.990633
1.00525 0.994964 0.991468
1.00528 0.994937 0.991342
1.00524 0.994954 0.991304
1.00525 0.995119 0.990882
1.00528 0.994904 0.991012
1.00527 0.994964 0.991449
1.00524 0.994949 0.991413
1.00525 0.994963 0.991169
1.00527 0.994942 0.991261
1.0053 0.99485 0.990919
1.00533 0.994937 0.990875
1.0053 0.995855 0.990567
1.00534 0.996629 0.989626
1.00531 0.994949 0.991325
1.00531 0.995097 0.990901
1.00365 1.00401 0.984618
1.00523 1.00319 0.982899
1.0053 1.00078 0.984666
1.00526 0.995964 0.989915
1.00525 0.994921 0.990891
1.00527 0.995153 0.990477
1.00526 0.9973 0.988252
1.00528 0.995369 0.990271
1.00395 1.00438 0.983714
1.00442 1.0038 0.983513
1.00154 1.00456 0.987916
1.00285 1.00191 0.987682
1.00529 0.994965 0.99142
1.00534 0.994983 0.991066
1.00528 0.994946 0.991265
1.00527 0.994929 0.99096
1.00501 1.00391 0.982648
1.00528 1.0023 0.983358
1.00526 0.999596 0.985892
1.00529 0.99492 0.990794
1.00533 0.994908 0.990707
1.00523 0.99676 0.988852
1.00531 0.994916 0.990533
1.00531 0.99523 0.990324
1.00512 1.00399 0.982394
1.00443 1.00471 0.982835
1.00387 1.00126 0.98728
1.00086 1.00469 0.988517
1.00252 1.00392 0.986427
1.00526 0.994949 0.991338
1.00529 0.994934 0.991133
1.00533 0.994893 0.990695
1.00531 0.994903 0.990645
1.00517 1.00371 0.982376
1.0053 0.994918 0.990486
1.00518 1.00158 0.983835
1.00521 0.998994 0.986519
1.00527 0.996202 0.989126
1.00007 1.00411 0.990311
1.00181 1.00509 0.987214
1.00385 1.00406 0.985728
1.00495 1.00465 0.982328
1.00483 1.00217 0.984618
1.00434 1.00474 0.982777
1.00023 1.00061 0.993833
1.00053 1.00484 0.988933
1.00525 0.995692 0.990183
1.00196 1.00301 0.987994
1.00441 1.00216 0.98607
1.00429 0.999907 0.987424
1.00527 0.997385 0.988321
1.00526 0.995529 0.990041
1.00521 1.00243 0.98366
1.0052 0.999991 0.986288
1.00533 0.997339 0.988136
1.00062 1.00402 0.989901
1.00098 1.00509 0.988262
1.0047 1.0023 0.984645
1.00341 1.00072 0.988438
1.00471 1.00068 0.986359
1.0053 0.994984 0.990636
1.00528 0.996241 0.989232
1.00525 0.995262 0.990094
1.005 1.00152 0.984646
1.00519 0.998682 0.98685
1.00101 1.00476 0.988994
1.00107 1.00409 0.988336
1.00471 1.00256 0.984421
1.00402 1.00065 0.986702
1.00503 1.00187 0.985338
1.00529 0.994835 0.990612
1.0053 0.996562 0.988644
1.00534 0.995528 0.989453
1.00503 1.00058 0.985619
1.00511 0.99918 0.986548
1.0003 1.00368 0.990744
1.0006 1.00457 0.989379
0.999771 1.00411 0.990875
0.999786 1.00479 0.989865
0.999882 1.0044 0.990693
0.999792 1.00477 0.99031
0.999984 1.00318 0.991728
0.999619 1.00493 0.99042
0.999847 1.00395 0.991276
0.999973 1.00211 0.992836
0.999984 1.00208 0.992814
1.00005 0.999175 0.996213
0.999956 1.00245 0.992389
1.00015 0.999246 0.996032
1.00022 0.997161 0.997601
1.00024 0.99945 0.995735
1.00023 0.997386 0.997355
1.00005 0.997802 0.998769
0.999827 1.0002 0.994834
0.999829 1.00142 0.993666
0.999761 0.998606 0.998729
1.00031 1.00216 0.992314
1.00004 0.999473 0.998173
1.00038 1.00023 0.997564
1.00526 0.995105 0.990907
1.00528 0.994936 0.991353
1.00529 0.994894 0.991006
1.00524 0.994954 0.991283
1.00525 0.994966 0.99147
1.0053 0.995784 0.990635
1.00527 0.994967 0.991461
1.00524 0.99495 0.991417
1.00525 0.994967 0.991181
1.00527 0.994941 0.991236
1.0053 0.994845 0.990937
1.00533 0.994937 0.990816
1.00525 0.994948 0.991392
1.00527 0.994932 0.991335
1.00529 0.994941 0.991107
1.00535 0.994866 0.990663
1.00529 0.994966 0.991419
1.00534 0.994987 0.99109
1.00528 0.994945 0.991236
1.00526 0.994932 0.990969
1.00486 1.00391 0.982667
1.00527 1.00249 0.983227
1.00526 0.9996 0.985874
1.00528 0.994924 0.9908
1.00532 0.994905 0.990678
1.0053 0.994913 0.990519
1.00526 0.996636 0.988856
1.00526 0.995246 0.99046
1.0048 1.00429 0.982454
1.00426 1.00483 0.982687
1.0044 1.0011 0.987303
1.00081 1.0045 0.988651
1.00214 1.00442 0.986353
1.00526 0.994949 0.991324
1.00529 0.994934 0.991137
1.00533 0.994899 0.990713
1.00518 1.00377 0.982423
1.00515 1.00179 0.983732
1.00522 0.99889 0.986523
1.00531 0.994901 0.990653
1.00526 0.996093 0.989337
1.0053 0.994912 0.990475
1.00002 1.0038 0.990578
1.00458 1.00474 0.982381
1.00408 1.0052 0.982654
1.00456 1.00288 0.984615
1.00394 1.00333 0.985658
1.0015 1.00509 0.98725
1.00528 0.994934 0.991261
1.00531 0.99491 0.99094
1.00533 0.994889 0.990589
1.00529 0.994882 0.990525
1.00481 1.00397 0.982837
1.00524 0.995127 0.990375
1.00502 1.00105 0.984692
1.0052 0.998356 0.986911
0.999928 1.0022 0.992315
1.00056 1.0051 0.989203
1.00256 1.00492 0.986834
1.00366 1.00415 0.984459
1.0043 1.00453 0.984043
1.0048 1.00467 0.982361
1.0005 1.00418 0.989885
1.00048 1.00508 0.988243
1.00528 0.994975 0.990664
1.00336 1.00052 0.988494
1.00507 1.00227 0.984187
1.00404 1.00103 0.986081
1.0053 0.996266 0.989207
1.00527 0.995265 0.990037
1.00508 1.00161 0.984777
1.00518 0.998827 0.986787
1.00076 1.00482 0.989009
1.00149 1.00406 0.988156
1.00466 1.00262 0.984383
1.00441 1.00107 0.986766
1.00495 1.00217 0.984962
1.00531 0.994838 0.990615
1.0053 0.996437 0.988908
1.00533 0.995624 0.989543
1.00506 1.00048 0.985576
1.00508 0.999473 0.986294
0.999588 1.0047 0.989433
1.0011 1.00328 0.988149
1.0048 1.00153 0.985343
1.00512 1.00119 0.985255
1.00538 0.994812 0.990429
1.00533 0.995014 0.990269
1.00526 0.998027 0.98713
1.0051 0.999955 0.985638
1.00088 1.00459 0.98924
0.999922 1.00427 0.990657
0.998779 1.00393 0.99338
0.999648 1.00465 0.990686
0.999046 1.00504 0.990496
0.999868 1.00394 0.991247
0.999612 1.00341 0.992141
0.999683 1.00501 0.990386
0.999763 1.00067 0.994632
0.999639 1.0046 0.990962
0.999554 1.00472 0.990482
1.00005 1.00377 0.991143
0.999944 1.0023 0.992637
0.99994 1.00211 0.992821
0.999946 0.999188 0.996332
0.999962 1.00207 0.992816
1.00007 0.999143 0.996229
1.00013 0.997183 0.997701
1.00016 0.999189 0.996077
1.00021 0.997182 0.997589
1.00019 0.997468 0.997329
0.999982 0.999352 0.995472
0.999833 1.00034 0.994761
0.999753 0.99801 0.998921
0.999858 1.00148 0.99362
0.999828 0.998727 0.99862
1.0002 0.999491 0.997967
1.00531 0.99484 0.990954
1.00525 0.994971 0.991192
1.00532 0.994938 0.990757
1.00527 0.994938 0.991211
1.00524 0.994951 0.991421
1.00527 0.994969 0.991473
1.00525 0.994948 0.9914
1.00527 0.994932 0.991325
1.00529 0.994942 0.991064
1.00534 0.994864 0.990673
1.00527 0.994928 0.991349
1.00527 0.994918 0.991249
1.00534 0.994906 0.990821
1.00526 0.994949 0.991311
1.00529 0.994934 0.991141
1.00533 0.994905 0.990731
1.00525 1.00367 0.982475
1.00517 1.00198 0.983627
1.00523 0.998739 0.986526
1.00531 0.994897 0.990662
1.00531 0.994896 0.990464
1.00527 0.995955 0.989548
1.00431 1.00492 0.982431
1.00455 1.00492 0.982547
1.00446 1.00364 0.984621
1.00011 1.00364 0.990852
1.00417 1.00302 0.985593
1.00116 1.00509 0.987274
1.00528 0.994932 0.991282
1.00531 0.994909 0.990907
1.00533 0.994886 0.990591
1.00497 1.00375 0.982832
1.005 1.00102 0.984656
1.00519 0.998199 0.987242
1.00529 0.994889 0.990495
1.00516 0.995121 0.990325
0.99993 1.00225 0.992534
1.00044 1.00508 0.98918
1.00404 1.00388 0.983896
1.00455 1.00458 0.982917
1.00402 1.00377 0.984609
1.00231 1.00498 0.986659
1.0053 0.994913 0.991205
1.00536 0.994841 0.990635
1.00533 0.99489 0.990501
1.00524 0.994897 0.990308
1.00407 1.00272 0.984538
1.00519 0.995895 0.98942
1.00496 1.00058 0.985435
1.00012 1.00129 0.993446
1.00022 1.00258 0.992174
0.999513 1.00407 0.991364
1.00123 1.00505 0.988128
1.00182 1.00503 0.986194
1.00421 1.00471 0.983278
1.00263 1.00455 0.986071
1.00347 1.00426 0.985551
1.00044 1.00481 0.989024
1.00204 1.00409 0.987975
1.00532 0.994843 0.990617
1.00472 1 0.986833
1.00458 1.00272 0.984347
1.00498 1.00244 0.984595
1.0053 0.996297 0.989172
1.00533 0.995706 0.989634
1.00507 1.00033 0.985531
1.00502 0.99973 0.986042
1.00039 1.00448 0.989222
1.00203 1.00338 0.987869
1.00482 1.00152 0.985133
1.00519 1.00126 0.985359
1.00538 0.994804 0.990417
1.00536 0.995027 0.990213
1.0052 0.99793 0.987271
1.00511 1.00011 0.985703
0.99917 1.00471 0.990719
1.00543 0.994878 0.990443
1.00346 1.00268 0.98738
1.00502 1.00102 0.985206
1.00532 0.994703 0.990816
1.00513 0.997136 0.987235
1.00507 1.0008 0.985469
0.999954 1.00453 0.99044
0.998746 1.00354 0.993361
0.99761 1.00246 0.996289
0.999848 1.0038 0.991219
0.999648 1.00507 0.990349
0.998264 1.00441 0.992556
1.00007 1.00364 0.991127
0.999606 1.0048 0.990521
0.998549 1.00184 0.995048
0.99979 1.00449 0.990849
0.999215 0.999702 0.997365
0.998606 1.00319 0.993596
0.999535 1.00505 0.990506
1.00035 1.00464 0.989644
1.00023 1.0038 0.990694
0.999954 1.00243 0.992508
0.999892 1.00241 0.992615
0.999821 0.999341 0.996425
0.999888 1.00222 0.992806
0.99996 0.999223 0.996335
1 0.997337 0.997792
1.00009 0.999112 0.996249
1.00014 0.997211 0.997697
1.00019 0.997217 0.997572
1.00009 1.00118 0.993627
1.00001 0.998933 0.995839
0.999956 0.999465 0.995424
0.999829 0.997686 0.999016
0.999837 1.00039 0.994691
0.999789 0.998179 0.998879
0.999938 0.998865 0.998486
1.00533 0.994864 0.990683
1.00529 0.994942 0.99102
1.00527 0.994932 0.991315
1.00525 0.994948 0.991409
1.00528 0.994925 0.991353
1.00527 0.994917 0.991253
1.00533 0.994899 0.990772
1.00528 0.994909 0.991295
1.00537 0.994881 0.991107
1.00557 0.995046 0.990982
1.00528 0.994931 0.991303
1.00531 0.994905 0.990875
1.00533 0.994887 0.990594
1.0048 1.00354 0.982831
1.00499 1.00118 0.984642
1.00512 0.998054 0.987561
1.00529 0.994899 0.990464
1.0052 0.99514 0.990277
1.00349 1.00473 0.983748
1.00404 1.00476 0.983427
1.00383 1.00312 0.984751
0.999962 1.00215 0.992753
1.00025 1.00507 0.989153
1.00219 1.005 0.986482
1.0053 0.994907 0.991183
1.00013 1.00123 0.993436
1.00013 1.00257 0.992021
1.00535 0.994861 0.990645
1.00532 0.994896 0.990515
1.00439 1.00292 0.984499
1.00491 1.00022 0.98579
1.00516 0.996022 0.989345
1.00524 0.994895 0.990259
0.999658 1.00396 0.991508
1.00115 1.00507 0.988058
1.00271 1.00447 0.985926
1.00379 1.00395 0.984453
1.0042 1.00461 0.983345
1.00195 1.00488 0.986265
1.00539 0.994857 0.99094
1.00537 0.994862 0.99047
1.00528 0.994897 0.990415
1.0052 0.995066 0.99018
1.00317 1.00212 0.986846
1.00491 0.998712 0.987917
1.00013 1.00284 0.991645
0.999837 1.00258 0.992513
1.0019 1.00082 0.99174
1.00076 1.00403 0.989391
1.00154 1.0051 0.987485
1.00288 1.00432 0.986017
1.00217 1.0048 0.984439
1.00128 1.00094 0.991836
1.00083 1.0043 0.989014
1.00305 1.00366 0.987583
1.00539 0.994798 0.990406
1.00539 0.995049 0.990158
1.0052 1.0017 0.985458
1.00486 1.00157 0.984919
1.00516 0.997843 0.987411
1.00512 1.00029 0.985771
0.999838 1.00426 0.990593
1.00543 0.994872 0.990668
1.00267 1.00297 0.987897
1.005 1.00104 0.985204
1.00533 0.994722 0.990837
1.00516 0.997269 0.987453
1.00493 1.00068 0.985414
0.999066 1.00507 0.992206
1.00496 0.994828 0.990619
1.00232 1.00262 0.987991
1.00446 1.00229 0.9844
1.0051 0.995585 0.990198
1.00367 1.00098 0.986428
0.998955 0.994735 0.985005
0.998678 1.00348 0.993342
0.997595 1.00249 0.996315
0.997557 1.00177 0.997415
1 1.00368 0.991109
0.999523 1.00491 0.990562
1.00031 1.00426 0.990738
0.997944 1.00207 0.995481
1.00016 1.0039 0.990695
1.00022 1.00461 0.989814
0.998967 0.999303 0.997515
0.999542 1.00498 0.990493
0.999087 1.00327 0.993128
0.99767 1.00201 0.997193
1.00026 1.00394 0.990659
0.999969 1.0049 0.990289
1.00077 1.0044 0.989457
1.00021 1.00412 0.990182
1.00044 1.00503 0.989688
1.00006 1.00432 0.990136
0.999909 1.00245 0.992517
0.999915 1.00248 0.992494
0.9997 0.999374 0.995905
0.999886 1.00239 0.992593
0.999803 0.99937 0.996107
0.999982 0.997422 0.999088
0.999969 0.999262 0.996341
1.00003 0.997307 0.997787
1.00016 0.997231 0.997687
0.999994 1.00093 0.993929
1.00012 1.00105 0.993663
1.00007 0.998607 0.99614
1.00002 0.998949 0.996137
0.999867 0.997406 0.999099
0.999919 0.999637 0.995375
0.999826 0.997734 0.998996
0.999827 0.998232 0.998828
1.00531 0.994894 0.990724
1.00528 0.994918 0.991257
1.00528 0.994923 0.991356
1.00527 0.994907 0.991297
1.00534 0.994884 0.991067
1.00559 0.995097 0.990819
1.00544 0.994874 0.991104
1.00113 0.994844 0.980787
1.00502 0.995241 0.991227
1.00018 1.0021 0.992493
1.00529 0.994903 0.991161
1.00535 0.994874 0.990656
1.00531 0.994894 0.990529
1.00454 1.00254 0.984438
1.00498 0.999797 0.986128
1.00501 0.995899 0.989257
1.00524 0.994893 0.990212
1.00318 1.00361 0.985838
1.00475 1.00391 0.98344
1.00451 1.00424 0.983409
1.00012 1.00123 0.993427
1.00244 1.00497 0.986333
0.999749 1.00397 0.991636
1.00103 1.00508 0.98799
1.00002 1.00258 0.991873
1.0054 0.994864 0.990934
1.00012 1.00273 0.991857
0.999853 1.00265 0.992561
1.00107 1.00126 0.992204
1.00537 0.994848 0.990452
1.00527 0.994879 0.990379
1.00267 1.00289 0.986959
1.00485 0.997895 0.988282
1.0052 0.99501 0.990151
1.00067 1.00395 0.9896
1.0017 1.00506 0.987438
1.00201 1.00149 0.990643
1.00341 1.00484 0.984206
1.00319 1.00371 0.986206
1.00542 0.99471 0.990971
1.0053 0.994851 0.990579
1.00522 0.994914 0.990001
1.00511 0.996543 0.99048
1.00185 0.999762 0.990821
0.999571 1.00342 0.99176
1.00202 1.00095 0.990966
1.00028 1.00069 0.992565
1.00127 1.00425 0.989408
1.00095 1.00465 0.988924
1.00098 1.00387 0.988055
1.00132 0.999444 0.993156
1.00097 1.00366 0.990434
1.00169 1.00325 0.988427
1.00542 0.994987 0.990885
1.00534 0.994743 0.990849
1.00518 0.997369 0.987672
1.00499 1.00103 0.985202
1.00479 1.00055 0.985367
0.999241 1.00474 0.992628
1.00464 0.99484 0.990831
1.00247 1.00264 0.987979
1.00463 1.00221 0.984366
1.00497 0.995477 0.990508
1.00393 1.00092 0.986506
0.998737 0.995148 0.983155
0.997892 1.00459 0.993699
1.00344 0.994749 0.991044
1.0029 1.00302 0.98592
1.00304 1.00112 0.987137
1.00355 0.997499 0.990679
0.999963 0.994892 0.940634
0.994979 0.994787 0.962488
0.995944 0.998507 0.987528
0.998045 0.994776 0.852008
0.994706 0.994876 0.812127
0.997827 1.0023 0.996341
0.997392 1.00199 0.997543
0.996972 1.00324 0.997223
1.00014 1.00394 0.990696
1.00016 1.00453 0.989983
0.999653 1.00501 0.990481
0.99943 1.0035 0.992633
0.998764 0.999052 0.997655
0.999804 1.00496 0.990401
1.00027 1.00408 0.990255
1.00067 1.00447 0.989422
0.998109 1.00109 0.996783
0.999768 1.00427 0.991072
1.00042 1.00402 0.991338
0.998205 1.00413 0.993525
0.999685 1.00474 0.990883
1.00061 1.00465 0.988917
1.00015 1.00421 0.990256
1.00013 1.00491 0.98961
1.00043 1.0037 0.990994
0.999717 1.00494 0.990647
1.00019 1.00499 0.989736
1.00019 1.00432 0.990291
1.00011 1.0043 0.990148
0.999899 1.00254 0.992498
0.999922 1.00247 0.992524
0.999678 0.999397 0.995955
0.999864 1.00259 0.99248
0.999683 0.999417 0.995905
0.999935 0.997412 0.999122
0.999775 0.999419 0.995791
0.999941 0.997423 0.998472
1.00006 0.997284 0.997778
0.999885 1.00066 0.994342
0.999978 1.00099 0.993934
1.00009 0.998369 0.996381
1.00016 1.00092 0.993698
1.00007 0.99856 0.996441
0.999919 0.997069 0.99917
1.00004 0.99902 0.995768
0.999873 0.99754 0.999063
0.999835 0.997853 0.998978
1.00533 0.994888 0.991027
1.00527 0.994906 0.9913
1.00558 0.9949 0.990658
1.00035 0.994867 0.98096
1.00545 0.994876 0.991071
1.00498 0.994963 0.991185
1.00548 0.99489 0.991118
0.99589 0.994896 0.962991
1.00224 0.994864 0.981907
1.00024 1.00169 0.992872
1.00015 1.00225 0.992455
0.999428 1.00398 0.991656
0.999885 1.00262 0.99233
1.00538 0.994868 0.990929
1.00536 0.994854 0.990433
1.00526 0.994874 0.990343
1.00368 1.00312 0.987072
1.00475 0.996525 0.988686
1.0052 0.994961 0.990137
1.00189 1.00143 0.98939
1.00473 1.00468 0.983965
1.00308 1.00282 0.986387
0.999845 1.00265 0.992611
1.00156 1.00486 0.987414
1.0006 1.00408 0.989811
1.00004 1.00279 0.992065
1.00035 1.00169 0.992659
1.00542 0.994753 0.990965
0.999913 1.00352 0.991436
1.00184 1.00061 0.991441
0.998059 1.00129 0.995714
1.00531 0.994871 0.990515
1.00522 0.994943 0.990011
1.00295 0.99915 0.990861
1.00478 0.995979 0.990505
1.00148 1.00451 0.988625
1.00098 1.00427 0.988156
1.00126 1.0002 0.993127
1.00264 1.00367 0.987468
1.0042 0.995596 0.99112
1.0052 0.995184 0.990657
1.00506 0.995836 0.98976
1.00357 0.995823 0.9935
0.99728 1.00488 0.994116
1.00196 1.00186 0.989732
0.998008 1.00443 0.993702
0.999161 1.00378 0.992493
1.00001 0.994911 0.926223
0.999115 1.00455 0.993071
1.00229 1.00295 0.987951
1.00423 0.994781 0.991075
1.00487 0.995387 0.990813
1.00417 1.00085 0.986559
1.00463 1.00222 0.984318
0.998659 0.995809 0.981129
0.998339 1.00432 0.993732
1.0032 0.995275 0.990918
1.00288 1.00363 0.985869
1.00366 1.00087 0.987275
1.0038 0.997736 0.990463
0.999879 0.994872 0.92674
0.995448 0.994825 0.959152
0.995996 0.998072 0.987883
0.997451 0.994758 0.856603
0.994726 0.994941 0.804834
0.99871 1.00442 0.992205
0.999511 0.994802 0.862246
0.994739 0.994827 0.802933
1.0008 0.998313 0.992641
1.00149 1.00189 0.989715
1.00154 0.999713 0.992672
0.994881 0.997143 0.99108
0.997432 0.994781 0.940084
0.994888 0.994788 0.955246
0.995667 0.994795 0.877322
0.994737 0.994836 0.791404
0.997064 1.00218 0.99768
0.996909 1.00291 0.997115
0.996779 1.00491 0.996254
1.00038 1.00399 0.990324
1.00063 1.0045 0.989389
0.999284 1.00503 0.990514
0.999438 1.00449 0.991483
0.998615 1.00024 0.996389
1.00026 1.00408 0.990244
1.0001 1.00422 0.991077
0.999591 1.00488 0.990592
1.0008 1.00468 0.989063
0.998169 1.00379 0.993796
0.999099 1.00382 0.99325
0.996831 1.00505 0.994643
0.999816 1.00502 0.989874
1.00049 1.00471 0.989488
1.00034 1.00493 0.989578
1.00018 1.0032 0.991417
0.9999 1.00489 0.990541
1.00038 1.00237 0.992117
0.99908 1.00172 0.99367
0.998452 1.0047 0.99223
0.999242 1.00487 0.990995
0.999759 1.00479 0.990678
1.00011 1.00447 0.990161
1.00002 1.00493 0.989785
1.00025 1.00427 0.990208
0.999968 1.00264 0.992284
1.00018 1.00427 0.99016
0.999917 1.00247 0.992512
0.999889 0.999349 0.99639
0.999862 1.00252 0.99253
0.999738 0.999352 0.996214
0.999894 0.99737 0.997967
0.999672 0.999414 0.995903
0.999927 0.997431 0.999131
0.999926 0.997464 0.997853
1.00032 1.00176 0.992658
0.999912 1.00046 0.994525
0.999885 1.00071 0.994333
1.00004 0.998266 0.996525
0.999954 1.00106 0.99394
1.00009 0.998344 0.996375
0.999966 0.996921 0.999211
1.00006 0.998574 0.996688
0.999917 0.997246 0.998561
0.999887 0.997571 0.997813
0.99983 0.994834 0.981099
1.0055 0.994862 0.991033
1.00492 0.994892 0.991135
0.996199 0.994833 0.963467
1.00229 0.994895 0.982305
1.00546 0.995292 0.99111
1.00354 0.99568 0.986111
0.997717 0.994827 0.965505
0.999871 0.994863 0.939874
0.996987 0.994791 0.87839
0.99467 0.994834 0.810459
0.999616 1.00272 0.992469
1.00024 1.00168 0.992856
1.00024 1.00217 0.992413
0.999741 1.00337 0.991939
0.998643 1.0047 0.992785
1.00051 1.0025 0.991623
1.00021 1.00342 0.991388
1.00018 1.00237 0.992222
1.00544 0.994789 0.990952
1.00532 0.994874 0.990457
1.00521 0.995137 0.990018
1.00287 0.999992 0.990906
1.00455 0.996111 0.990511
1.00124 0.999862 0.993091
1.00401 1.00355 0.986896
1.00221 1.00452 0.987394
1.00156 1.00033 0.991906
1.00171 1.00463 0.98779
1.00036 1.00345 0.991129
0.996385 1.00212 0.998721
1.00425 0.995026 0.991419
0.997697 1.00456 0.993987
1.0014 1.00197 0.991175
1.00495 0.99498 0.990629
1.00465 0.99623 0.990062
1.00305 0.995775 0.993304
0.999527 1.00473 0.991689
1.00011 1.00247 0.992713
1.00329 0.995302 0.990309
1.00345 0.998659 0.990597
1.0042 0.9963 0.991594
1.00093 0.997342 0.99512
0.998888 1.00499 0.991733
0.998244 1.00498 0.992714
0.998832 1.00492 0.992691
0.999803 0.994931 0.863926
1.00012 0.994874 0.941343
0.999309 1.00379 0.993775
1.00308 1.00412 0.985836
1.00295 0.995572 0.990781
1.0041 0.997983 0.990263
1.0041 1.0008 0.987448
0.999993 0.994856 0.938721
0.995797 0.994797 0.958716
0.996051 0.998182 0.988311
0.997038 0.994804 0.875879
0.994747 0.994858 0.797094
0.999043 1.00442 0.992174
0.999822 0.994851 0.860466
0.994708 0.99481 0.796269
1.00083 0.998466 0.992527
1.00148 1.00223 0.989744
1.00139 0.999864 0.993105
0.994883 0.998397 0.991901
0.997667 0.994788 0.933321
0.994937 0.994804 0.95574
0.995048 0.994805 0.877023
0.994755 0.99484 0.78949
0.997829 1.00467 0.994804
0.994732 0.994785 0.791387
0.994742 0.994774 0.79625
0.996876 1.00146 0.997156
0.999719 1.00188 0.995628
0.994905 0.99922 0.988496
0.994972 0.994821 0.958425
0.99496 0.994756 0.928853
0.994752 0.994887 0.880772
0.994843 0.994865 0.799527
0.99707 1.00236 0.997013
0.997432 1.00448 0.995846
0.996339 1.00387 0.996806
1.00033 1.00398 0.990231
1.00086 1.00465 0.98921
0.999721 1.00503 0.990298
0.999642 1.00446 0.99082
0.997852 1.00349 0.994069
1.0005 1.00475 0.989464
0.999169 1.00358 0.992748
1.00013 1.00498 0.989892
0.996419 1.00494 0.994931
0.996029 1.00511 0.997018
0.998303 1.00477 0.993073
1.00043 1.00499 0.989926
1.00056 1.00463 0.989547
0.999987 1.00276 0.991829
0.9998 1.00475 0.990496
1.00054 1.00211 0.992012
0.998722 1.00231 0.99409
0.998734 1.00387 0.992484
0.998011 1.00508 0.992748
0.998655 1.00129 0.995716
1.00023 1.00236 0.992448
1.0033 0.999467 0.990612
0.998775 1.00476 0.991501
0.998746 1.00467 0.992252
0.999333 1.00499 0.990117
0.999373 1.00491 0.991031
1.00019 1.00448 0.98999
0.999551 1.00493 0.990708
1.00013 1.00446 0.990232
1.00003 1.00284 0.991874
1.00031 1.0043 0.990126
0.999977 1.00262 0.992291
1.00003 0.999376 0.996126
0.999936 1.00244 0.992527
0.999871 0.999335 0.996026
1.00002 0.997271 0.99781
0.999732 0.999343 0.995925
0.999952 0.997347 0.999144
0.999922 0.997417 0.999141
1.00039 1.00221 0.992422
0.999957 1.00064 0.994326
1.00022 1.0019 0.992672
1.00004 0.998196 0.99659
0.999893 1.00049 0.994519
0.999861 1.00079 0.994324
1.00005 0.998268 0.996513
0.999992 0.996826 0.999233
1.00007 0.998372 0.996893
0.999973 0.996935 0.998654
0.999933 0.997232 0.998025
0.999587 0.994844 0.847715
0.994721 0.994802 0.790493
0.996264 0.994852 0.963955
1.00184 0.994935 0.982831
1.00536 0.994787 0.991121
0.99754 0.994872 0.964444
1.00345 0.994776 0.986664
1 0.994864 0.935575
0.997207 0.994745 0.857447
0.994714 0.994849 0.803517
0.997682 0.994766 0.97206
0.997233 0.994813 0.941106
0.996065 0.994802 0.876989
0.994788 0.994857 0.800132
0.99989 1.00365 0.991834
0.999825 1.00246 0.992571
1.00016 1.00183 0.992846
0.999893 1.00298 0.992225
0.998338 1.00433 0.993439
1.00035 1.00395 0.990352
1.00006 1.00327 0.991632
1.00071 1.0037 0.989928
1.00018 1.0034 0.99126
0.999883 1.00289 0.992107
1.00405 0.99476 0.991702
1.00482 0.994914 0.990595
1.00399 0.996434 0.990366
1.00242 0.995987 0.993103
1.00053 1.0024 0.99291
0.999559 1.0049 0.989727
1.00046 1.00185 0.992775
0.997995 1.00422 0.99382
1.0023 0.995192 0.990843
0.998969 1.00508 0.991473
0.997966 1.00503 0.992819
1.0032 0.998365 0.990573
1.00388 0.996081 0.991732
1.00075 0.997636 0.995416
0.998835 1.00487 0.992343
0.999836 0.995552 0.989154
1.00086 0.99916 0.994622
0.9972 1.00254 0.996439
0.998536 1.00476 0.990939
0.997805 1.00508 0.992244
0.998333 1.0049 0.993015
0.994716 0.994815 0.814157
0.999799 0.994874 0.869809
1.00006 0.994871 0.92658
0.999062 1.0046 0.992122
1.00175 1.00241 0.989733
1.00083 0.998056 0.992404
1.0011 0.999788 0.993543
0.999827 0.994903 0.874673
0.997379 0.994809 0.927125
0.994876 0.994821 0.95527
0.99489 0.99916 0.992582
0.995651 0.9948 0.861218
0.994684 0.994799 0.802599
0.994805 0.994955 0.805155
0.9978 1.00407 0.994495
0.994718 0.994796 0.801297
0.994764 0.994778 0.795593
0.997023 0.999871 0.997799
0.999145 1.00164 0.995521
0.994899 0.997876 0.990451
0.995181 0.994797 0.957089
0.995601 0.994796 0.940468
0.994704 0.996423 0.861743
0.99512 0.994865 0.809605
0.99672 1.0036 0.998087
0.994766 0.994817 0.804332
0.994811 0.994812 0.794065
0.994825 1.00254 0.999896
0.995032 0.996722 0.966516
0.994797 0.995046 0.938213
0.994895 0.994907 0.855628
0.995757 0.9949 0.822449
0.998024 1.00339 0.995403
0.996747 1.00411 0.996926
0.995539 1.00399 0.998451
1.00034 1.00481 0.989437
1.00029 1.00502 0.989913
0.999257 1.00327 0.992246
0.996245 1.00476 0.995224
0.999916 1.005 0.989945
0.998129 1.00489 0.993051
0.995591 1.00489 0.99728
0.994937 1.00442 0.998553
0.995728 1.00507 0.997217
0.998866 1.00512 0.992476
0.99985 1.00492 0.990445
1.00064 1.00157 0.991911
0.998249 1.00283 0.994499
0.99807 1.00505 0.992839
0.999222 1.00366 0.99242
0.998089 1.002 0.995757
0.998258 1.00359 0.993932
0.995696 1.00512 0.997349
1.00143 0.998816 0.994662
0.99977 1.00176 0.993427
1.00195 1.0004 0.991066
1.00476 1.00008 0.987605
1.00244 1.00138 0.990348
1.00231 0.99901 0.992036
0.999354 1.00456 0.991305
0.999558 1.00509 0.989565
0.999104 1.00459 0.992276
0.999862 1.00505 0.990118
1.00041 1.00458 0.989427
0.999857 1.00472 0.991063
1.00041 1.00436 0.989972
1.00011 1.00326 0.991432
1.00029 1.00429 0.990304
1.00012 1.00285 0.991876
1.00017 0.999475 0.995822
1.00007 1.00248 0.992299
1.00002 0.999393 0.995723
1.0001 0.997367 0.997606
0.999878 0.999302 0.995727
1.00001 0.99728 0.998478
0.999966 0.997306 0.999126
1.00033 1.00297 0.991344
1.0001 1.00081 0.993968
1.00028 1.00225 0.992224
1.00005 0.998245 0.996528
0.999975 1.00058 0.994338
1.00022 1.00181 0.992685
1.00002 0.996769 0.999246
1.00003 0.998201 0.99659
0.999895 1.00054 0.994514
1.00006 0.998261 0.9965
0.999993 0.996862 0.999228
0.999961 0.996934 0.999204
0.994704 0.994762 0.79217
0.999661 0.994842 0.860769
0.994762 0.994773 0.793822
0.994734 0.994796 0.790636
0.997716 0.994883 0.962995
1.00328 0.994781 0.987212
0.999715 0.994826 0.930515
0.998483 0.994794 0.878128
0.994758 0.994841 0.796463
0.998311 0.994805 0.970992
0.997527 0.994789 0.926711
0.995176 0.994804 0.875961
0.994729 0.994851 0.792535
0.994897 0.994782 0.963224
0.99594 0.994729 0.927333
0.994828 0.997014 0.854151
0.994832 0.994876 0.800914
1.00066 1.00474 0.990281
0.999399 1.00367 0.991973
1.00003 1.0022 0.992668
0.99781 1.00389 0.994103
1.00104 1.00371 0.989371
1.00024 1.00388 0.990576
0.999537 1.00366 0.991645
1.00123 1.00301 0.990118
1.00077 1.00393 0.989967
1.0003 1.0031 0.991132
1.00197 0.994776 0.991342
1.0029 0.997915 0.990563
1.00382 0.995824 0.991872
1.00033 0.997313 0.995716
1.00021 1.00485 0.991969
0.998247 1.00504 0.992933
0.999035 1.00511 0.991212
0.999686 1.0047 0.990691
0.999544 0.99645 0.989781
0.998733 1.0051 0.991964
0.999011 1.00488 0.992856
1.00054 0.999072 0.994979
0.998556 1.00124 0.996264
0.996156 1.00083 0.988676
0.996647 0.999964 1.00047
0.99523 1.00511 0.996867
0.998309 1.00471 0.992886
0.997014 1.0051 0.994563
0.994793 0.994805 0.810881
0.994712 0.994794 0.809652
0.99982 0.99491 0.851115
0.997917 1.00412 0.99425
0.998974 1.00102 0.995414
0.997253 0.999433 0.99844
0.994691 0.994781 0.79915
0.995746 0.994751 0.928586
0.99531 0.994807 0.956515
0.994877 0.996098 0.992794
0.994764 0.995749 0.881438
0.994773 0.994782 0.795822
0.995521 0.994865 0.811273
0.996909 1.00354 0.998165
0.994777 0.99482 0.806907
0.994799 0.994814 0.795188
0.99505 1.00197 0.998916
0.995131 0.995884 0.968305
0.994802 0.995452 0.926101
0.995433 0.994885 0.817709
0.99524 0.998332 0.864336
0.99485 1.00488 1.00024
0.99479 0.994833 0.795057
0.994866 0.994832 0.806356
0.99483 0.994866 0.800939
0.994774 0.999016 0.989149
0.994897 0.996909 0.941411
0.997703 0.995337 0.875338
0.997142 1.00476 0.997069
0.995705 1.00471 0.998176
0.995036 1.00523 0.999049
0.999818 1.00498 0.989967
0.998039 1.00507 0.993025
0.995304 1.00505 0.997537
0.998346 1.00511 0.992477
0.995853 1.00508 0.997207
0.99496 1.005 0.998453
0.994932 1.00501 0.998723
0.995513 1.00511 0.997359
0.997853 1.00503 0.992956
0.99963 1.00366 0.992354
0.997725 1.00279 0.995801
0.995764 1.00484 0.997251
0.998057 1.00386 0.993983
0.998351 1.0014 0.996655
0.998584 0.998755 0.998472
1.00208 0.999963 0.990231
0.999347 1.00123 0.99434
1.00234 1.00028 0.990732
1.00445 1.00154 0.986147
1.00477 1.00263 0.984466
1.00424 0.999136 0.989244
1.00384 1.00014 0.987776
1.0014 1.00412 0.988729
1.0016 1.00174 0.990678
1.00133 0.998584 0.99343
0.999944 1.00438 0.99111
0.999945 1.00509 0.989532
1.0004 1.00507 0.988709
1.00038 1.00505 0.990124
1.00057 1.00462 0.989417
1.00022 1.00359 0.990845
1.00057 1.00417 0.989954
1.00018 1.00311 0.99143
1.0002 0.999714 0.995545
1.00008 1.00292 0.991876
1.00013 0.999538 0.995392
1.00022 0.997444 0.997394
1.00003 0.999404 0.995394
1.0001 0.997331 0.998337
1.00005 0.997274 0.999057
1.0007 1.00304 0.990507
1.00014 1.00125 0.993111
1.00047 1.00283 0.991345
1.00012 0.99833 0.996331
1.00009 1.00082 0.993792
1.00022 1.0023 0.992028
1.00005 0.99678 0.999228
1.00006 0.998213 0.996541
0.999995 1.00049 0.994349
1.00002 0.996799 0.999243
1.00002 0.998222 0.99659
0.999994 0.99685 0.999223
0.994817 0.994813 0.800958
0.994711 0.994807 0.806313
0.999566 0.994807 0.859454
1.00111 1.00286 0.990274
0.994802 0.994802 0.800149
0.994763 0.994776 0.79377
0.994768 0.994807 0.804855
0.998724 0.994819 0.970376
0.997085 0.994778 0.940749
0.995934 0.994814 0.858729
0.994696 0.994842 0.802907
0.995893 0.994806 0.96096
0.995724 0.99492 0.939308
0.994738 0.995366 0.857659
0.994851 0.994873 0.803966
0.99483 0.99479 0.955308
0.994767 0.994801 0.936106
0.995966 0.998981 0.867942
0.995336 0.994895 0.822661
0.999328 1.00458 0.991205
0.999959 1.00464 0.990342
0.999618 1.00347 0.992115
1.00112 1.00234 0.990659
1.00092 1.00402 0.989544
1.00015 1.00421 0.990798
1.0013 1.00313 0.990042
1.00079 1.00399 0.990001
0.998503 0.997355 0.990259
0.999831 0.999003 0.995254
0.999929 1.00465 0.990436
0.999934 0.999901 0.996099
0.999268 1.00476 0.992705
0.999343 1.00511 0.991685
0.998399 1.00439 0.992787
0.995743 1.00007 0.989086
0.997663 1.00502 0.994529
0.996436 1.00374 0.997154
0.995953 1.00047 1.00052
0.997754 1.00414 0.994578
0.994798 1.00081 0.986768
0.995229 1.00277 0.998896
0.995691 1.00502 0.997484
0.996994 1.00522 0.995719
0.994769 0.994812 0.799968
0.994793 0.994807 0.807871
0.994705 0.994772 0.804986
0.996956 1.00373 0.998219
0.995276 1.00089 0.99791
0.994793 0.994825 0.80928
0.99475 0.995033 0.939591
0.995351 0.995935 0.965381
0.995368 0.997007 0.862619
0.994794 0.994816 0.796068
0.994893 0.994867 0.812945
0.995137 1.00493 1.00003
0.994791 0.994829 0.795281
0.994868 0.994849 0.806234
0.994819 0.999605 0.992895
0.994852 0.994865 0.804012
0.994855 0.996627 0.933589
0.996369 0.997435 0.877132
0.994958 1.00353 0.997815
0.994841 0.99484 0.804417
0.994803 0.994807 0.801779
0.994788 0.994855 0.799868
0.996107 0.998955 0.867384
0.994878 1.00113 0.972575
0.995303 0.997461 0.926506
0.996107 1.00505 0.997916
0.995207 1.00518 0.999052
0.994842 1.0053 0.998268
0.997717 1.00512 0.992476
0.995305 1.00503 0.997201
0.99493 1.00508 0.998383
0.995396 1.00492 0.997329
0.99493 1.00495 0.998724
0.997485 1.0022 0.99854
0.995609 1.00467 0.997144
0.997604 1.00416 0.994069
0.997901 1.00165 0.997077
0.998243 1.00068 0.994593
0.996032 0.998728 1.00201
1.00172 0.999716 0.991522
1.0044 1.00447 0.982487
1.00436 1.00296 0.984358
1.00275 1.00013 0.990327
1.00428 1.00187 0.985632
1.00506 1.00243 0.983993
1.00507 1.0008 0.985978
1.00436 1.00245 0.984755
1.00302 1.00133 0.988667
1.00367 0.99976 0.989047
1.00306 1.00018 0.987975
1.00058 1.00512 0.988297
1.00089 1.00426 0.988924
1.00072 1.00208 0.990998
1.00035 1.00508 0.989498
1.0007 1.00507 0.988742
1.00032 1.00441 0.989829
1.00072 1.00481 0.989406
1.00031 1.00357 0.990834
1.00018 0.999983 0.994508
1.00037 1.003 0.991429
1.00022 0.999752 0.994733
1.00014 0.997472 0.998839
1.00011 0.999671 0.995029
1.00017 0.997412 0.998181
1.00013 0.997303 0.998965
1.0006 1.00326 0.990472
1.00033 1.00176 0.992344
1.00064 1.00311 0.990692
1.0002 0.998535 0.996016
1.00025 1.00123 0.993017
1.00051 1.00281 0.991341
1.00008 0.996797 0.999183
1.00013 0.998294 0.996349
1.0001 1.00081 0.993618
1.00005 0.996767 0.999236
1.00007 0.998178 0.996555
1.00001 0.996833 0.99924
0.994794 0.994826 0.803724
0.994812 0.994811 0.801338
0.994703 0.99482 0.805854
1.00117 1.00284 0.990367
1.00035 1.00416 0.989928
1.00157 1.00145 0.991424
0.994874 0.99485 0.805357
0.994807 0.9948 0.801132
0.994765 0.994766 0.793855
0.996927 0.994796 0.961058
0.994902 0.994754 0.927278
0.994767 0.996606 0.879879
0.994835 0.994859 0.798217
0.994988 0.994781 0.956658
0.994787 0.996371 0.931989
0.995939 0.997426 0.864893
0.995214 0.99489 0.817718
0.994908 0.995351 0.954542
0.994839 0.996729 0.935855
0.996993 0.994937 0.875976
0.994839 0.994869 0.801004
0.999354 1.00238 0.993149
1 1.00396 0.990987
0.999919 1.00437 0.990401
1.00118 1.0024 0.990589
1.00057 1.00443 0.989716
1.00132 1.00326 0.989966
0.995613 0.999994 0.989765
0.995759 1.00109 1.00069
0.999006 1.00357 0.99269
0.998132 1.00255 0.997341
0.99821 1.0046 0.994492
0.997196 1.00378 0.995187
0.996375 1.00491 0.995893
0.994784 1.00234 0.986696
0.995437 1.00514 0.997807
0.994999 1.00336 0.99825
0.996254 1.00476 0.99674
0.99563 0.999537 0.985198
0.995211 1.00522 0.994875
0.994795 1.00371 0.999184
0.994862 0.994841 0.799053
0.994775 0.99482 0.799007
0.994794 0.994806 0.80491
0.995313 1.00475 0.999776
0.994845 0.999775 0.988554
0.994785 0.994824 0.795515
0.994838 0.99726 0.933127
0.996412 0.995344 0.862104
0.994877 0.994847 0.806085
0.994832 0.994854 0.79845
0.994895 1.00336 0.998321
0.994827 0.994838 0.804115
0.994818 0.994801 0.802851
0.9949 1.00053 0.969931
0.994715 0.994851 0.792687
0.995794 0.998223 0.863937
0.994849 0.995864 0.94042
0.994942 1.00519 0.989258
0.994787 0.994832 0.804556
0.994773 0.994789 0.795274
0.994664 0.994847 0.811918
0.994818 0.996874 0.853039
0.994887 0.997192 0.936335
0.994848 1.00131 0.964143
0.995198 1.00516 0.999003
0.994927 1.00525 0.99819
0.995788 1.00458 0.997371
0.995715 1.00461 0.997303
0.994933 1.00498 0.99875
0.996121 1.00379 0.998423
0.998874 1.00003 0.998244
0.997489 1.00191 0.997476
1.00088 1.00034 0.993528
1.00217 1.00483 0.986246
1.00107 0.999532 0.993174
1.00422 1.00427 0.983442
1.00431 1.00399 0.982762
1.00498 1.00104 0.984887
1.00507 1.00169 0.98458
1.00429 1.00304 0.984231
1.00428 1.00218 0.985129
1.00517 1.00186 0.984346
1.00508 1.00226 0.984123
1.00461 1.00057 0.986872
1.00463 1.00087 0.986219
1.00383 1.00228 0.98505
1.00134 1.00423 0.988098
1.00271 1.00192 0.988581
1.00297 1.00045 0.988835
1.00058 1.00497 0.988794
1.00097 1.0051 0.988306
1.00047 1.00437 0.989121
1.001 1.00507 0.988778
1.00056 1.0042 0.989841
1.00013 1.00062 0.993942
1.00049 1.00339 0.990823
1.00022 1.00001 0.994487
1.00018 0.997651 0.998787
1.00024 0.999739 0.994741
1.00022 0.997512 0.998048
1.00018 0.997456 0.998874
1.00101 1.00341 0.990029
1.00049 1.00209 0.992009
1.00079 1.00302 0.990516
1.00028 0.998827 0.995585
1.00033 1.00177 0.99243
1.00061 1.00312 0.990881
1.00012 0.996888 0.999111
1.00021 0.998472 0.996038
1.00031 1.0012 0.992924
1.00008 0.996801 0.999197
1.00014 0.99826 0.996366
1.00005 0.996789 0.999243
0.994831 0.994838 0.803011
0.994795 0.994842 0.803982
0.994811 0.994817 0.801711
0.999678 1.0052 0.989697
1.00115 1.00375 0.990856
1.00101 1.00283 0.990468
1.00041 1.00408 0.989834
1.00074 1.00166 0.991756
1.00038 1.00275 0.991211
0.999594 1.0013 0.993833
0.994827 0.994816 0.795332
0.994873 0.994852 0.805288
0.994806 0.994828 0.802124
0.994892 0.994887 0.812786
0.995531 0.994928 0.955354
0.9948 0.996975 0.926516
0.995911 0.994906 0.878773
0.994878 0.995416 0.954039
0.99487 0.998429 0.922529
0.996181 0.99741 0.877008
0.994972 0.994864 0.810943
0.995485 0.996204 0.958186
0.99487 0.998257 0.924993
0.994899 0.99491 0.856326
0.994746 0.994836 0.792692
0.996882 1.00444 0.995527
0.999036 1.00294 0.993655
1.00001 1.00422 0.99077
1.00112 1.00275 0.990528
0.994848 1.0018 0.98656
0.99478 1.00382 0.997534
0.996769 1.00459 0.995797
0.996585 1.00496 0.996079
0.995222 1.00515 0.998252
0.995818 1.00492 0.99679
0.995463 1.00389 0.999246
0.995538 1.00037 0.982008
0.99522 1.00524 0.994994
0.995687 1.00378 0.998369
0.995279 1.0025 0.978644
0.994694 1.00326 0.999306
0.994769 0.994823 0.801169
0.994848 0.99484 0.802882
0.994784 0.994836 0.798025
0.994817 1.00349 0.998814
0.99488 1.00067 0.973355
0.994816 0.994838 0.803853
0.994864 0.997894 0.927711
0.996162 0.994902 0.878057
0.994819 0.994833 0.803781
0.994685 0.994849 0.802801
0.994907 1.00496 0.99021
0.994801 0.994837 0.804847
0.994762 0.99479 0.795284
0.99484 1.00003 0.964282
0.99472 0.994863 0.805008
0.994721 0.99628 0.856029
0.994875 0.997571 0.923717
0.994861 1.00441 0.984341
0.994831 0.994813 0.801168
0.994709 0.994813 0.792089
0.99545 0.994812 0.878855
0.994749 0.995373 0.936063
0.994821 0.999966 0.958281
0.994953 1.00526 0.998527
0.995371 1.00465 0.997449
0.996856 1.00193 0.997592
0.995075 1.00504 0.998304
0.996955 1.0022 0.998586
1.00147 1.0012 0.992513
1.00344 0.999831 0.992472
1.003 1.00489 0.985403
1.00433 1.00248 0.984213
1.00387 1.00407 0.984397
1.00443 1.00406 0.982708
1.00459 1.00272 0.984024
1.00525 0.998755 0.986552
1.00511 1.00042 0.985658
1.005 1.00117 0.984853
1.00513 1.00153 0.984626
1.005 1.00155 0.984576
1.00419 1.00316 0.984101
1.00519 1.00178 0.984503
1.00517 1.00201 0.984285
1.00509 1.00208 0.984258
1.00342 1.0021 0.987464
1.00395 1.00096 0.987315
1.00433 1.00083 0.986464
1.00091 1.00512 0.98785
1.00168 1.00409 0.988135
1.00226 1.00259 0.988496
1.00023 1.00128 0.993117
1.00077 1.00485 0.988829
1.00129 1.00509 0.988314
1.0007 1.00408 0.989851
1.00016 1.00067 0.993911
1.00014 0.997893 0.998694
1.00025 1.00003 0.994466
1.00019 0.997615 0.99877
1.00021 0.997453 0.998813
1.00026 1.00515 0.989934
1.00091 1.005 0.989081
1.00073 1.00259 0.991128
1.00072 1.0038 0.989998
1.00027 0.999237 0.995169
1.00048 1.00211 0.992004
1.00086 1.00299 0.990562
1.00013 0.997098 0.999005
1.00027 0.998823 0.995607
1.00036 1.00179 0.992512
1.00011 0.996881 0.999133
1.00022 0.99844 0.996063
1.00008 0.996781 0.999213
0.9948 0.994842 0.79615
0.994825 0.994832 0.802738
0.994801 0.99483 0.804235
1.00004 1.00517 0.989686
1.0002 1.00308 0.991122
1.00135 1.00248 0.9884
0.998855 1.00419 0.991056
1.00164 1.00215 0.991422
1.0007 1.00415 0.989737
1.00033 1.00207 0.992088
1.00028 1.00355 0.991231
1.00004 1.00111 0.994023
0.998939 1.00377 0.994033
0.994755 0.994769 0.796995
0.99481 0.994822 0.796559
0.994877 0.994836 0.80517
0.995156 0.994862 0.812525
0.995825 0.994937 0.862486
0.994846 0.994893 0.953135
0.994799 0.99692 0.93506
0.995494 0.9961 0.954245
0.994859 0.996567 0.937336
0.995038 0.998435 0.865393
0.994762 0.994836 0.790791
0.9949 0.99802 0.957237
0.994848 0.998471 0.936956
0.99476 0.994887 0.881174
0.994708 0.994876 0.813773
0.998982 1.00064 0.996339
0.99651 1.00432 0.996074
0.999045 1.00274 0.99418
0.995228 1.00259 0.978506
0.995058 1.00522 0.994877
0.995538 1.00489 0.996821
0.994757 1.00437 0.99932
0.995793 1.00371 0.998273
0.994779 1.00248 0.999757
0.994869 1.00195 0.978506
0.996098 1.00129 1.00058
0.995009 1.00059 0.985015
0.994805 0.994818 0.810352
0.99479 0.994833 0.800192
0.994834 0.994834 0.806805
0.994946 1.00488 0.990498
0.994861 0.99995 0.961947
0.994819 0.994841 0.805141
0.994849 0.997744 0.935866
0.994751 0.996421 0.877129
0.994758 0.994767 0.795548
0.994763 0.994843 0.797907
0.995275 1.0048 0.984963
0.994816 0.994817 0.80139
0.994728 0.994806 0.792253
0.994994 0.998518 0.959366
0.99503 0.994799 0.876842
0.994796 0.996663 0.929834
0.995318 1.00252 0.981808
0.994705 0.994775 0.793023
0.997224 0.994803 0.879235
0.995634 0.99473 0.927682
0.994865 0.995447 0.959905
0.995578 1.00514 0.997562
0.995704 1.00368 0.997471
0.998359 1.00171 0.996652
0.994884 1.00491 0.998983
1.00002 1.00176 0.993744
1.00413 0.997995 0.990229
1.00388 1.005 0.984543
1.00414 1.00271 0.984119
1.00462 0.999528 0.986709
1.00469 1.00417 0.982653
1.0047 1.00223 0.984104
1.00505 0.998716 0.987035
1.00535 0.996114 0.988895
1.00527 0.998316 0.986785
1.00525 0.998685 0.986608
1.00515 1.00041 0.985766
1.00512 1.00045 0.98559
1.00498 1.00125 0.984819
1.00518 1.00205 0.984212
1.00514 1.00143 0.984586
1.00495 1.00146 0.98457
1.00489 1.0015 0.985637
1.00479 1.00214 0.984772
1.00518 1.00223 0.984224
1.00193 1.00408 0.987182
1.00317 1.00215 0.987399
1.00355 1.00122 0.987753
1.00032 1.00238 0.993022
1.00118 1.00509 0.98789
1.00202 1.00388 0.988174
1.00017 0.998536 0.996249
1.00025 1.00151 0.993499
1.00096 1.00473 0.988863
1.0002 1.00072 0.993877
1.00016 0.997993 0.99863
1.0002 0.997615 0.998748
1.00128 1.00396 0.988781
1.00138 1.00515 0.988332
0.999483 1.00515 0.989839
1.00069 1.0038 0.99005
1.00071 1.00479 0.989046
1.00021 0.999708 0.994789
1.0006 1.0028 0.991146
1.00056 1.00414 0.98996
1.00012 0.997395 0.998919
1.00028 0.99919 0.99519
1.00047 1.00212 0.992
1.00012 0.997082 0.999038
1.00025 0.998787 0.995626
1.00011 0.996861 0.999155
0.99478 0.99482 0.810807
0.994803 0.994841 0.796421
0.994811 0.994852 0.802447
1.0032 1.00163 0.987051
0.999853 1.00504 0.989673
0.999669 1.00325 0.991433
0.999983 1.00502 0.990641
1.00254 1.00223 0.988501
1.00052 1.0025 0.99277
1.00352 1.00238 0.986934
0.996944 1.00488 0.993573
0.999801 1.00381 0.991247
0.99996 1.00011 0.994215
0.997936 1.00349 0.993984
0.998186 1.00351 0.994454
0.994742 0.994832 0.803637
0.994773 0.994775 0.796389
0.994801 0.994826 0.797539
0.994805 0.99523 0.806157
0.99506 0.997142 0.86383
0.994844 0.998405 0.925082
0.995677 0.995168 0.953457
0.995085 0.997679 0.957634
0.99473 0.995128 0.806232
0.99487 0.996707 0.928311
0.994714 0.996955 0.862268
0.994873 0.996539 0.962259
0.994783 0.996105 0.938992
0.995249 0.994816 0.8789
1.00015 0.99494 1.00071
0.998642 1.00109 0.996214
0.996041 1.00423 0.996588
0.994912 1.00173 0.978421
0.995342 1.00135 1.00014
0.996273 1.00356 0.998214
0.996786 1.00041 1.00092
0.994944 0.999634 0.985144
0.995822 0.998863 0.992336
0.994711 0.994815 0.808919
0.994801 0.994815 0.811131
0.994805 0.994835 0.799077
0.994951 1.00445 0.985168
0.994871 0.999916 0.958712
0.994799 0.994827 0.801844
0.994836 0.996854 0.924314
0.995624 0.994813 0.860259
0.994764 0.994815 0.806056
0.995028 1.00491 0.981602
0.994712 0.994816 0.806863
0.997071 0.994764 0.8583
0.994871 0.995558 0.955564
0.995432 0.994843 0.939653
0.994872 1.00103 0.990039
0.999689 0.994855 0.847752
0.997257 0.994825 0.941251
0.994866 0.99481 0.954338
0.994869 1.00483 0.997298
0.997592 1.00185 0.996527
1.00067 1.00015 0.993359
0.999042 1.00155 0.994961
1.00372 0.998247 0.989989
1.00469 0.997802 0.989101
1.00396 1.00289 0.984024
1.00458 0.999502 0.986608
1.00509 0.996234 0.988999
1.00471 1.00167 0.984192
1.00494 0.998669 0.986996
1.00536 0.995431 0.989638
1.00528 0.995095 0.990499
1.00532 0.996328 0.988849
1.00537 0.99607 0.988967
1.00528 0.9983 0.986891
1.00527 0.998295 0.98698
1.00523 0.998652 0.986663
1.00523 1.00099 0.984926
1.00517 1.00029 0.985707
1.00512 1.00043 0.98552
1.00515 1.00239 0.983998
1.00511 1.00209 0.984261
1.00515 1.00132 0.984545
1.00303 1.00304 0.986761
1.00436 1.00207 0.985571
1.0042 1.00254 0.985042
1.00069 1.0029 0.990739
1.00219 1.00412 0.987181
1.00296 1.00252 0.987329
0.999892 0.999638 0.998159
1.00045 1.00229 0.991781
1.00146 1.00509 0.987931
1.00017 0.998508 0.9984
1.00029 1.00153 0.992943
1.00018 0.998083 0.998556
1.00393 1.00193 0.98756
1.00163 1.00364 0.988556
1.00158 1.00472 0.988063
1.00086 1.00462 0.989129
1.00095 1.00515 0.988332
0.999749 1.00518 0.989749
1.00007 1.00057 0.994225
1.00063 1.00382 0.990064
1.00065 1.00447 0.989007
1.0001 0.997594 0.998832
1.0002 0.999695 0.994809
1.00043 1.00299 0.991161
1.00011 0.997334 0.998942
1.00029 0.999164 0.995207
1.00011 0.997032 0.999071
0.994735 0.994786 0.793673
0.994798 0.994822 0.811178
0.994812 0.994837 0.796736
1.0032 1.00234 0.986892
1.00469 1.00273 0.985918
1.00251 1.00336 0.986897
0.999675 1.00503 0.990221
1.00367 1.00186 0.98861
0.998641 1.00167 0.994052
0.998312 1.00417 0.993049
1.00208 1.00285 0.988186
1.00177 1.001 0.990986
0.998722 0.999666 0.996485
0.998708 1.0036 0.99391
0.998757 1.00372 0.994234
0.997997 0.994794 0.851969
0.994711 0.994813 0.797258
0.99478 0.99478 0.796613
0.994756 0.994855 0.798193
0.994767 0.996445 0.881751
0.994843 0.996616 0.924292
0.994859 0.996832 0.955955
0.994895 0.996759 0.959807
0.995428 0.995243 0.87697
0.994794 0.995814 0.926173
0.994844 0.997423 0.963631
0.995436 0.994732 0.927988
0.999304 0.995436 1.00344
0.999812 0.995434 1.00069
0.998273 1.00081 0.99621
0.994839 0.999339 0.98543
0.997196 0.999579 1.00127
0.996308 0.998999 0.991901
0.995887 0.996613 0.990033
0.999801 0.995004 0.862751
0.994704 0.994795 0.805839
0.994805 0.994818 0.811675
0.994848 1.00453 0.982044
0.994823 0.994874 0.953602
0.994705 0.994825 0.80622
0.994991 0.994748 0.928438
0.997879 0.994811 0.879162
0.994899 0.998957 0.986556
0.99969 0.994852 0.860894
0.997398 0.994803 0.927178
0.994845 0.994781 0.955376
0.996146 0.998203 0.987225
0.999862 0.994846 0.940046
0.995039 0.994825 0.961695
0.99632 1.00145 0.996424
0.999886 0.999898 0.993316
1.00339 0.998946 0.991536
1.00279 0.999181 0.989772
1.00436 0.997753 0.989025
1.00515 0.995873 0.989706
1.00461 0.999533 0.986511
1.00496 0.996688 0.988936
1.00531 0.994839 0.990159
1.00486 0.998647 0.986954
1.00535 0.995449 0.989583
1.0053 0.994862 0.990587
1.00531 0.994944 0.990701
1.00529 0.99508 0.990579
1.00524 0.995351 0.990508
1.00529 0.996784 0.98879
1.00532 0.996358 0.988998
1.00539 0.996025 0.989043
1.00529 0.999296 0.98634
1.00528 0.998357 0.986828
1.00526 0.99825 0.987174
1.00529 1.00211 0.983828
1.00524 1.00103 0.98495
1.00518 1.0002 0.985648
1.00381 1.00294 0.985605
1.00504 1.00236 0.984061
1.00498 1.00214 0.984313
1.00109 1.00316 0.989829
1.003 1.00309 0.9867
1.00399 1.00214 0.985512
1.00017 0.999941 0.997785
1.00085 1.00273 0.990745
1.00243 1.00404 0.987173
1.00008 0.999549 0.996872
1.00064 1.00218 0.991812
1.00021 0.998738 0.99825
1.00479 1.00149 0.986166
1.00317 1.00202 0.987483
1.0019 1.00373 0.987755
1.00168 1.00374 0.988328
1.00127 1.0049 0.988098
1.00105 1.005 0.988501
1.00015 1.00135 0.993381
1.00071 1.00466 0.989102
1.0003 1.00512 0.988337
1.00008 0.998062 0.998655
1.00008 1.00042 0.994252
1.00063 1.00386 0.990078
1.00008 0.99764 0.99886
1.00017 0.999653 0.994845
1.00011 0.997309 0.998966
0.999463 0.994814 0.861594
0.99472 0.994794 0.799705
0.994807 0.994821 0.811627
1.00308 1.00253 0.986742
1.00301 1.00358 0.985961
1.00438 1.00312 0.98574
1.00472 1.00344 0.983966
1.00197 1.0028 0.988843
0.999406 1.00446 0.992575
1.002 1.00333 0.989426
1.00136 1.00121 0.991507
1.00458 0.995807 0.990387
1.00207 0.998493 0.993977
1.00176 0.997021 0.995356
1.00029 0.998808 0.996141
0.999922 1.00192 0.994004
0.997419 0.994824 0.937826
0.998043 0.994764 0.856396
0.994688 0.994802 0.803337
0.995627 0.99482 0.862164
0.994785 0.996055 0.93704
0.99504 0.996162 0.961342
0.994829 0.996757 0.965279
0.996182 0.994801 0.940633
0.995741 0.994783 0.963756
0.998479 0.996779 1.00122
0.998357 0.996112 1.00352
0.999464 0.996663 1.00057
0.996603 0.998348 0.99158
0.997049 0.997083 0.990235
1.00002 0.994912 0.925949
0.999802 0.994891 0.868969
0.994692 0.994778 0.802874
0.995049 0.998499 0.9827
0.995004 0.994768 0.954787
0.999675 0.994827 0.859812
0.997273 0.994814 0.940942
0.996007 0.997715 0.987462
0.999982 0.994861 0.935462
0.995668 0.99482 0.959526
1.00022 0.995015 0.986086
0.997744 0.994737 0.970522
0.999363 0.999073 0.993291
1.00246 0.997535 0.991549
1.00508 0.994901 0.991511
1.00437 0.997464 0.988937
1.00512 0.99571 0.98962
1.00528 0.994807 0.990471
1.00473 0.997074 0.988874
1.00531 0.994875 0.990118
1.00531 0.994805 0.99047
1.00533 0.995453 0.989528
1.00529 0.99487 0.990569
1.00533 0.994827 0.990607
1.00529 0.994911 0.990744
1.00531 0.995029 0.990685
1.00529 0.995045 0.990658
1.00525 0.995326 0.990513
1.00522 0.995823 0.990039
1.00529 0.997939 0.987856
1.00529 0.99684 0.988777
1.00532 0.996389 0.989146
1.00532 1.00127 0.984533
1.00531 0.999406 0.986168
1.00529 0.998419 0.986766
1.00468 1.00246 0.984545
1.00527 1.00212 0.983885
1.00524 1.00107 0.984974
1.00157 1.00326 0.988666
1.00353 1.00319 0.98563
1.00475 1.00255 0.984122
1.00041 1.00066 0.99736
1.00119 1.00302 0.989815
1.00297 1.00319 0.986646
1.0003 1.00016 0.997618
1.00096 1.00257 0.990754
1.00027 0.99954 0.997873
1.00511 1.00326 0.983886
1.0044 1.00129 0.986176
1.00322 1.00274 0.986726
1.00278 1.00187 0.987404
1.00187 1.00383 0.987682
1.00154 1.00481 0.987728
1.0009 1.0049 0.988128
1.00085 1.00512 0.988455
1.00033 1.00213 0.992346
1.00008 0.998583 0.99837
1.00003 1.00138 0.993395
1.00049 1.00485 0.989077
1.00005 0.997948 0.998722
1.00009 1.00033 0.994256
1.00005 0.997584 0.998884
0.999968 0.994888 0.940495
0.999827 0.994861 0.860087
0.994697 0.994777 0.793549
1.00289 1.00463 0.985015
1.00376 1.00328 0.98556
1.00317 1.00276 0.987914
1.00427 1.00331 0.984199
1.00519 1.00024 0.985505
1.00364 0.999412 0.987952
1.00067 1.0019 0.991994
1.00449 0.995521 0.990681
1.00202 0.998104 0.993997
1.00424 0.995538 0.990839
1.00306 0.99826 0.992884
1.00193 0.998206 0.993971
1.0013 0.99749 0.995264
1.00002 0.999404 0.995811
0.995402 0.994794 0.962249
0.998056 0.995237 0.933003
0.996988 0.994822 0.874841
0.995303 0.994715 0.927772
0.994843 0.996743 0.965564
0.995594 0.995698 0.969381
0.999158 0.994809 0.99142
0.999583 0.996087 1.00041
0.9978 0.996651 1.00362
0.998607 0.998879 0.990497
0.997431 0.994868 0.964348
1.00003 0.994882 0.940959
0.999819 0.99498 0.85021
0.995659 0.997894 0.987854
0.996188 0.994809 0.959637
0.999652 0.994824 0.930382
0.999497 0.996209 0.986566
0.997986 0.994789 0.969549
1.00285 0.996175 0.988385
1.00339 0.995065 0.985066
1.00148 0.99682 0.991549
1.00452 0.994903 0.991551
1.00525 0.994801 0.990801
1.00506 0.99566 0.989535
1.00528 0.994807 0.990419
1.00534 0.99486 0.990478
1.00531 0.994923 0.990074
1.00531 0.99482 0.990458
1.00536 0.994867 0.990486
1.00528 0.994876 0.990551
1.00533 0.994834 0.990628
1.00535 0.994859 0.990649
1.00528 0.994882 0.990786
1.0053 0.995008 0.990686
1.00526 0.995327 0.990598
1.00525 0.995304 0.990519
1.00522 0.995807 0.990052
1.00526 0.997119 0.988822
1.0053 1 0.985863
1.00529 0.99815 0.987573
1.00529 0.996897 0.988764
1.00529 1.00155 0.984424
1.00532 1.0013 0.984576
1.00533 0.999518 0.985998
1.00252 1.00271 0.987693
1.00444 1.00271 0.984564
1.00526 1.00212 0.983942
1.00087 1.00103 0.996936
1.00176 1.00315 0.988615
1.00327 1.00348 0.985653
1.00061 1.00074 0.997207
1.00125 1.00289 0.989803
1.00047 1.00033 0.997447
1.00527 1.00144 0.984609
1.00503 1.00282 0.983933
1.00461 1.00269 0.984521
1.00437 1.00167 0.986189
1.00336 1.00269 0.986462
1.00275 1.00363 0.986688
1.0018 1.00414 0.987613
1.00145 1.00481 0.987733
1.00073 1.00261 0.991186
1.00056 1.00512 0.988418
1.00019 1.0022 0.992355
1.00008 0.999479 0.998007
1.00004 0.998567 0.998479
0.999965 1.00138 0.993418
1.00002 0.997932 0.99878
0.996271 0.994923 0.965092
0.99983 0.994894 0.925436
0.999832 0.994912 0.874108
1.00527 0.998067 0.987309
1.00457 1.00275 0.987004
1.00383 1.00318 0.98443
1.00425 0.999317 0.988391
1.00518 1.00044 0.985487
1.00512 0.996765 0.988935
1.00484 0.996047 0.990975
1.00171 0.997523 0.994037
1.00472 0.995801 0.990888
1.0027 0.998402 0.992307
1.00421 0.997224 0.989983
1.00324 0.994842 0.994342
1.00183 0.997306 0.99414
1.00117 0.997725 0.995166
0.998542 0.994737 0.99017
0.995714 0.994793 0.960742
0.997868 0.994793 0.926881
0.995353 0.996146 0.969787
0.998855 0.994825 0.994129
0.999829 0.995567 0.999544
1.00226 0.994913 0.980717
0.997509 0.994881 0.96368
1.00006 0.994884 0.926073
0.998414 0.996654 0.987038
0.99819 0.994809 0.968955
1.00199 0.995415 0.988976
1.00314 0.994956 0.985688
1.00375 0.996116 0.99042
1.0055 0.995298 0.990713
1.004 0.99483 0.991589
1.00523 0.994831 0.990755
1.00539 0.994877 0.9904
1.00527 0.994808 0.99037
1.00533 0.994848 0.990488
1.00538 0.99486 0.990467
1.00532 0.994834 0.990446
1.00535 0.994862 0.990495
1.00535 0.994884 0.990635
1.00533 0.994842 0.99065
1.00534 0.994859 0.990643
1.00528 0.994899 0.990869
1.00529 0.99499 0.990689
1.00526 0.995234 0.990645
1.00527 0.996112 0.989922
1.00523 0.995787 0.990064
1.00526 0.996982 0.98895
1.00529 0.999464 0.986589
1.00533 1.00113 0.984803
1.00531 1.00021 0.985645
1.00529 0.998361 0.98729
1.00317 1.00145 0.987952
1.00518 1.0017 0.98442
1.00531 1.00132 0.98462
1.00142 1.00116 0.99647
1.00271 1.00249 0.987668
1.00425 1.0029 0.98459
1.00105 1.00111 0.996744
1.002 1.00307 0.988573
1.00076 1.00086 0.997057
1.00527 0.999762 0.985879
1.00525 1.00147 0.984543
1.00529 1.00188 0.984101
1.00496 1.00235 0.983983
1.00497 1.00247 0.984308
1.00334 1.00327 0.9861
1.00372 1.00228 0.986198
1.0026 1.00383 0.986715
1.00099 1.00301 0.990121
1.00136 1.00486 0.987714
1.00053 1.00275 0.991218
1.00015 1.00031 0.997612
1.00002 1.00224 0.992365
1.00003 0.999233 0.998145
0.999998 0.998401 0.998575
0.999859 0.9953 0.986102
0.996342 0.994905 0.960916
0.999996 0.994852 0.940239
1.0053 0.996307 0.989048
1.00529 0.995973 0.989389
1.00527 0.997743 0.987581
1.00485 0.998825 0.988827
1.00517 1.00067 0.985474
1.00515 0.996747 0.98913
1.00532 0.995172 0.989699
1.0049 0.995576 0.99094
1.00245 0.998352 0.991745
1.00412 0.997351 0.990482
1.0052 0.99481 0.990877
1.00369 0.994806 0.993014
1.00285 0.994885 0.994065
1.00212 0.996741 0.99432
0.999162 0.994713 0.990173
0.995997 0.994803 0.959548
0.998944 0.994808 0.996984
1.00497 0.994944 0.990333
1.0023 0.994961 0.980867
0.997701 0.994894 0.962633
1.00167 0.994755 0.989501
1.00277 0.994693 0.986322
1.00386 0.995468 0.990969
1.00542 0.994952 0.990774
1.00547 0.99476 0.990829
1.00556 0.994811 0.991038
1.00524 0.994856 0.990706
1.00541 0.994861 0.990393
1.00536 0.994864 0.990656
1.00532 0.994835 0.990497
1.00538 0.994861 0.990487
1.00534 0.994886 0.990692
1.00534 0.994856 0.990503
1.00535 0.994885 0.990635
1.0053 0.994898 0.990897
1.00534 0.994859 0.990636
1.00529 0.994899 0.990848
1.00527 0.995434 0.990541
1.00526 0.995137 0.990691
1.00527 0.996068 0.989907
1.00531 0.998723 0.987316
1.00526 0.996844 0.989077
1.00529 0.999339 0.986728
1.0053 1.00077 0.985257
1.00325 1.00067 0.988596
1.00532 1.00113 0.984819
1.00532 1.00042 0.985428
1.00177 1.00091 0.996291
1.00319 1.00144 0.98795
1.00499 1.00192 0.98441
1.00157 1.00116 0.996341
1.0029 1.00236 0.987627
1.00128 1.0012 0.996531
1.0053 0.997616 0.987876
1.00528 0.999565 0.986114
1.00537 1.0012 0.984725
1.00522 1.00147 0.984469
1.00532 1.00196 0.984027
1.00399 1.00263 0.985559
1.00525 1.0023 0.984097
1.00346 1.00291 0.986102
1.0014 1.00341 0.989014
1.00257 1.00382 0.986755
1.00093 1.00315 0.99014
1.00034 1.00106 0.997236
1.00035 1.00292 0.991245
1.00006 1.00014 0.997763
0.999993 0.999138 0.998276
1.00412 0.995357 0.991829
0.999729 0.995168 0.983803
0.996423 0.994913 0.960967
1.00532 0.995277 0.99004
1.00528 0.995898 0.989368
1.00525 0.995191 0.99051
1.00529 0.996104 0.989343
1.00528 0.997401 0.987847
1.0054 0.994845 0.990226
1.00517 0.996902 0.989316
1.00531 0.995438 0.989693
1.00535 0.994785 0.9906
1.00408 0.997412 0.990977
1.00518 0.994914 0.99053
1.00324 0.994958 0.993273
1.00214 0.995282 0.993798
0.999437 0.994688 0.989914
1.00556 0.994843 0.990959
1.00509 0.995057 0.990295
1.0021 0.994977 0.981126
1.00384 0.994726 0.99151
1.00546 0.994768 0.990844
1.00545 0.994769 0.99084
1.0056 0.994839 0.991082
1.00538 0.994869 0.991154
1.00543 0.994849 0.990389
1.00536 0.994869 0.990664
1.00531 0.994903 0.990949
1.00538 0.994866 0.990507
1.00534 0.994889 0.990686
1.0053 0.994925 0.990955
1.00536 0.994885 0.990635
1.0053 0.994897 0.990891
1.0053 0.995035 0.991001
1.0053 0.994899 0.990827
1.00527 0.995457 0.990513
1.00533 0.997908 0.988179
1.00527 0.996026 0.989893
1.0053 0.998733 0.987334
1.00529 1.00044 0.985624
1.00529 0.999214 0.986868
1.00531 1.00075 0.985281
1.00323 1.00039 0.990707
1.00201 1.0001 0.992975
1.00326 1.00071 0.989478
1.00532 1.00113 0.984834
1.0017 1.00088 0.99638
1.00322 1.00129 0.987953
1.00159 1.00125 0.996294
1.0052 0.995139 0.990823
1.00525 0.996377 0.989468
1.0053 0.9976 0.988097
1.00534 1.00016 0.985724
1.00529 0.999369 0.986349
1.00536 1.00122 0.984644
1.00478 1.00176 0.984838
1.00534 1.002 0.983953
1.0042 1.00214 0.985522
1.00231 1.00293 0.987955
1.00359 1.00254 0.986105
1.00135 1.00347 0.988998
1.00078 1.00164 0.99671
1.00084 1.00325 0.990172
1.00022 1.00086 0.997381
0.999972 0.999894 0.997908
1.00549 0.99483 0.990888
1.004 0.995137 0.991437
0.999984 0.994911 0.981578
1.00532 0.994879 0.990624
1.00532 0.995332 0.989955
1.00528 0.995494 0.989694
1.00525 0.995306 0.99046
1.00529 0.996248 0.989297
1.0054 0.994848 0.990606
1.00539 0.994844 0.990204
1.00531 0.995605 0.989688
1.00532 0.994787 0.990649
1.00518 0.995027 0.990184
1.00301 0.994745 0.993525
1.0053 0.994883 0.99127
1.00554 0.99483 0.990988
1.00523 0.995179 0.99025
1.00541 0.994769 0.990834
1.00561 0.994862 0.991127
1.00539 0.994867 0.991106
1.00529 0.994911 0.99126
1.00536 0.99487 0.990673
1.00531 0.994901 0.990906
1.00528 0.994925 0.991128
1.00535 0.994892 0.990679
1.0053 0.994926 0.990961
1.00532 0.994919 0.991182
1.0053 0.994895 0.990884
1.00529 0.995037 0.99097
1.00533 0.99711 0.989041
1.00527 0.995477 0.990484
1.00532 0.997926 0.98819
1.00529 1.00014 0.985965
1.00529 0.998742 0.987351
1.0053 1.00042 0.985655
1.0033 1.00021 0.990791
1.00531 1.00072 0.985303
1.00346 1.00027 0.990562
1.00208 0.999753 0.99317
1.00168 1.00043 0.994845
1.00345 1.00072 0.990171
1.00165 1.00083 0.996454
1.00524 0.994902 0.99099
1.00523 0.996083 0.989894
1.00519 0.995117 0.990907
1.00528 0.999068 0.986895
1.00524 0.996392 0.989498
1.00529 0.997587 0.988318
1.00532 1.00015 0.985685
1.00526 1.00109 0.984932
1.00536 1.00125 0.984565
1.00503 1.00154 0.984843
1.00296 1.00174 0.987928
1.00445 1.00187 0.985494
1.00211 1.00309 0.988007
1.00122 1.00176 0.996367
1.00124 1.00353 0.988992
1.00057 1.00143 0.996932
1.00006 1.00073 0.997524
1.00534 0.994891 0.990913
1.00541 0.994836 0.990954
1.00368 0.99505 0.991049
1.00531 0.994885 0.990799
1.00532 0.994879 0.990569
1.00529 0.99537 0.989876
1.00524 0.995424 0.990409
1.00539 0.994853 0.990599
1.00537 0.994845 0.990182
1.00526 0.994792 0.990696
1.00527 0.994918 0.991312
1.00531 0.994886 0.991232
1.00553 0.994816 0.991013
1.00528 0.994927 0.991332
1.00542 0.994871 0.991059
1.00529 0.994913 0.991251
1.00526 0.994933 0.991281
1.00532 0.994901 0.990863
1.00528 0.994925 0.991134
1.00531 0.994933 0.991283
1.00529 0.994926 0.990966
1.00532 0.994918 0.99116
1.00533 0.996439 0.989821
1.00528 0.99504 0.990939
1.00535 0.997136 0.989039
1.00527 0.99989 0.986314
1.00532 0.997946 0.988201
1.00531 1.00012 0.985997
1.0033 1.00021 0.990762
1.00531 1.0004 0.985685
1.0035 1.00012 0.990616
1.00215 0.999701 0.993124
1.00367 1.00014 0.990425
1.00159 0.999932 0.993512
1.00099 1.0008 0.997086
1.00524 0.994907 0.991029
1.00525 0.995402 0.990582
1.00523 0.994908 0.991004
1.0053 0.998596 0.987427
1.00523 0.995801 0.990117
1.00518 0.995092 0.990993
1.00533 1.00045 0.985514
1.00529 0.999051 0.986865
1.00524 0.9964 0.98953
1.0053 1.00015 0.985646
1.00527 1.00108 0.984917
1.00308 1.00097 0.988571
1.00522 1.00128 0.984845
1.00288 1.00191 0.987959
1.0014 1.00134 0.996435
1.00208 1.00317 0.988037
1.0011 1.00164 0.99647
1.00041 1.00128 0.997121
1.0053 0.994927 0.991084
1.00535 0.994889 0.990854
1.00535 0.99484 0.991026
1.00531 0.994886 0.990799
1.00533 0.994878 0.990515
1.0054 0.994856 0.990591
1.00527 0.994937 0.991322
1.00527 0.994917 0.991331
1.0053 0.994888 0.991194
1.00528 0.994929 0.991343
1.00525 0.994951 0.991406
1.00528 0.994915 0.991242
1.00526 0.994936 0.9913
1.00528 0.994952 0.99136
1.00528 0.994926 0.99114
1.00531 0.994935 0.991278
1.00534 0.995972 0.99033
1.00531 0.994917 0.991138
1.00534 0.996445 0.989814
1.00521 0.999679 0.98664
1.00536 0.997161 0.989036
1.00527 0.999869 0.986343
1.00322 1.00029 0.990763
1.00532 1.0001 0.986028
1.00349 1.00015 0.990578
1.00212 0.999818 0.993026
1.00369 1.00004 0.990448
1.0017 0.999759 0.993494
1.00111 1.00014 0.993839
1.00525 0.994938 0.991124
1.00528 0.994933 0.991089
1.00524 0.994906 0.990993
1.00534 0.997434 0.988601
1.00526 0.995413 0.990575
1.00522 0.994914 0.991017
1.00532 1.00009 0.985939
1.0053 0.99816 0.987809
1.00523 0.995522 0.99034
1.00318 1.00036 0.989025
1.00532 1.00047 0.985486
1.00529 0.999038 0.986837
1.00531 1.00105 0.984897
1.00308 1.00098 0.988554
1.00148 1.00088 0.996575
1.00273 1.00214 0.987993
1.0014 1.00138 0.996388
1.00094 1.00155 0.996639
1.00528 0.994944 0.99125
1.0053 0.994927 0.991049
1.00535 0.994887 0.990796
1.00532 0.994888 0.990798
1.00525 0.994959 0.991399
1.00527 0.994935 0.99133
1.00526 0.994918 0.99135
1.00527 0.994929 0.991354
1.00525 0.99495 0.991405
1.00528 0.994967 0.991313
1.00527 0.994939 0.99132
1.00529 0.994957 0.991333
1.00533 0.995869 0.990581
1.00531 0.994937 0.991272
1.00533 0.995993 0.990328
1.00517 0.999492 0.98689
1.00535 0.996449 0.989808
1.00522 0.999657 0.986659
1.00322 1.00034 0.989083
1.00527 0.999848 0.986374
1.00339 1.00026 0.989741
1.00181 0.999921 0.99654
1.00367 1.00008 0.990395
1.00173 0.999807 0.993401
1.00129 0.999813 0.993848
1.00525 0.994949 0.991236
1.00529 0.994951 0.991136
1.00525 0.994938 0.99115
1.00534 0.99649 0.989602
1.00528 0.995105 0.990913
1.00523 0.994905 0.990957
1.00529 0.999402 0.986722
1.00534 0.99743 0.988605
1.00526 0.995425 0.990568
1.0033 1 0.989214
1.0053 0.999879 0.986133
1.0053 0.997718 0.98819
1.00162 1.0004 0.996661
1.00323 1.0003 0.989011
1.00531 1.00049 0.985456
1.00307 1.00098 0.988545
1.00151 1.00091 0.996526
1.00138 1.0014 0.996353
1.00525 0.994961 0.99132
1.00528 0.994945 0.991245
1.0053 0.994926 0.991014
1.00528 0.995005 0.991327
1.00525 0.994958 0.99138
1.00527 0.994933 0.991339
1.00525 0.994949 0.991404
1.00528 0.99501 0.991308
1.00532 0.996399 0.98995
1.00529 0.994975 0.991305
1.00532 0.996147 0.990211
1.00512 0.998836 0.987793
1.00531 0.996018 0.990326
1.00518 0.999468 0.98689
1.00316 1.00021 0.989309
1.00521 0.999635 0.986681
1.00324 1.00031 0.989089
1.00174 1 0.996535
1.00344 1.00024 0.988879
1.00164 0.999951 0.995022
1.00134 0.999787 0.993775
1.00523 0.994953 0.991347
1.00528 0.994961 0.991289
1.00525 0.994949 0.991243
1.00531 0.996548 0.989656
1.00529 0.994948 0.991159
1.00525 0.994939 0.991176
1.00522 0.99917 0.987074
1.00533 0.996917 0.989212
1.00528 0.995273 0.990737
1.00333 0.999974 0.989212
1.00529 0.999349 0.986758
1.00533 0.997427 0.988608
1.00176 1.00003 0.996658
1.00333 0.999967 0.989205
1.00529 0.999665 0.986325
1.00164 1.00043 0.996633
1.00327 1.00023 0.988997
1.00149 1.00096 0.996485
1.00527 0.995062 0.991228
1.00525 0.994959 0.991334
1.00528 0.994947 0.991241
1.00531 0.99642 0.989945
1.00528 0.995052 0.991304
1.00525 0.994956 0.991361
1.00528 0.995061 0.991302
1.00532 0.99642 0.989961
1.00504 0.998674 0.988056
1.00532 0.996405 0.989842
1.00516 0.999049 0.987429
1.00308 1.00005 0.989603
1.0052 0.999441 0.986889
1.00315 1.00021 0.989312
1.00163 1.00003 0.996559
1.00326 1.00028 0.98909
1.0017 1.00002 0.996536
1.00174 0.999932 0.99318
1.00527 0.995116 0.9912
1.00523 0.994951 0.991283
1.00531 0.996381 0.989899
1.00528 0.994961 0.991294
1.00524 0.99495 0.99125
1.0052 0.999519 0.986772
1.00532 0.996571 0.989659
1.0053 0.994944 0.991182
1.00331 1.00008 0.989178
1.00523 0.999396 0.986832
1.00532 0.997352 0.988824
1.00181 0.99991 0.996595
1.00334 0.999978 0.989206
1.00528 0.999293 0.986797
1.00177 1.00007 0.996663
1.00335 0.999939 0.989195
1.00167 1.00045 0.9966
1.00531 0.996522 0.989825
1.00527 0.995096 0.991249
1.00525 0.994959 0.991349
1.00499 0.998633 0.988157
1.00531 0.996463 0.989948
1.00528 0.995102 0.991281
1.00531 0.996442 0.989971
1.00507 0.998642 0.988017
1.00295 0.999938 0.989936
1.00519 0.999269 0.987063
1.00308 1.00005 0.989612
1.00155 1.00002 0.996628
1.00317 1.00021 0.989317
1.0016 1.00005 0.996588
1.00167 1.00004 0.996547
1.00531 0.996345 0.990021
1.00526 0.995045 0.991265
1.00523 0.994949 0.991219
1.00518 0.999377 0.986984
1.00532 0.996398 0.989903
1.00528 0.994961 0.991298
1.00324 1.00012 0.98927
1.00519 0.999543 0.986766
1.00532 0.996603 0.989662
1.00176 0.99994 0.99654
1.0033 1.0001 0.989176
1.00522 0.999614 0.98659
1.00182 0.999933 0.996621
1.00335 0.99999 0.989198
1.00181 1.00008 0.996659
1.00501 0.999128 0.987538
1.00531 0.996328 0.990084
1.00527 0.995131 0.99127
1.00286 0.999854 0.990197
1.005 0.998607 0.988148
1.00531 0.996501 0.989951
1.0051 0.998599 0.987979
1.00296 0.999916 0.989949
1.00145 1.00001 0.996696
1.00307 1.00004 0.989622
1.00152 1.00003 0.996647
1.00155 1.00007 0.996613
1.00506 0.999286 0.987291
1.00531 0.996265 0.99013
1.00526 0.994962 0.991331
1.00327 1.00005 0.990978
1.00513 0.999425 0.986998
1.00532 0.996412 0.989907
1.00167 0.999992 0.996557
1.00323 1.00015 0.989273
1.00518 0.999569 0.986763
1.00179 0.999941 0.99656
1.00329 1.00013 0.989173
1.00184 0.999941 0.996642
1.00297 0.999845 0.990102
1.005 0.998907 0.987796
1.00531 0.996133 0.990343
1.00133 0.99998 0.996789
1.00285 0.999845 0.990193
1.00502 0.998585 0.98814
1.00295 0.999896 0.989958
1.00141 1 0.99673
1.00148 1.00004 0.996674
1.00318 0.999963 0.991248
1.00506 0.999279 0.9873
1.00531 0.996197 0.990237
1.00102 1.00002 0.997214
1.0031 1.00008 0.989545
1.00509 0.999471 0.987009
1.00169 0.999988 0.996553
1.00321 1.00018 0.989272
1.00182 0.999938 0.996582
1.0013 0.999933 0.993882
1.00299 0.99986 0.990795
1.005 0.998684 0.988053
1.00135 0.999981 0.996803
1.00286 0.999841 0.990197
1.00141 0.999993 0.996758
1.00079 1.00002 0.994332
1.00308 0.999938 0.990568
1.00503 0.999275 0.987309
1.00126 1.00002 0.995372
1.00306 1.00012 0.989576
1.00174 0.999979 0.996556
1.00133 0.999969 0.996802
1.00285 0.999856 0.990195
1.0013 0.999979 0.996805
1.00109 0.99997 0.995568
1.00296 0.999928 0.989958
1.00158 1.00001 0.996599
1.00136 0.999975 0.996797
1.00142 0.999986 0.996709

TENSORS stress float
0.00243008 -0.000170711 0.000283021
-0.000170711 0.0012187 -5.0383e-05
0.000283021 -5.0383e-05 0.00119164
0.00750048 0.00011067 0.000337106
0.00011067 0.00445783 4.04791e-05
0.000337106 4.04791e-05 0.00446907
0.00203755 -0.000100881 0.000115785
-0.000100881 0.000964729 -1.95574e-05
0.000115785 -1.95574e-05 0.000924614
0.0023301 -9.54599e-05 0.000269372
-9.54599e-05 0.00113358 -2.86639e-05
0.000269372 -2.86639e-05 0.00111686
0.00244207 -0.000149635 0.000276604
-0.000149635 0.00121598 -4.43318e-05
0.000276604 -4.43318e-05 0.00119259
0.00243045 -0.00017615 0.000294252
-0.00017615 0.0012206 -5.23601e-05
0.000294252 -5.23601e-05 0.00119362
0.00197997 -0.000176927 5.66495e-05
-0.000176927 0.000809458 -1.5189e-05
5.66495e-05 -1.5189e-05 0.000680511
0.00756253 0.000104132 -8.48324e-06
0.000104132 0.00448835 -2.37217e-06
-8.48324e-06 -2.37217e-06 0.00450429
0.00688285 0.000247025 0.000166801
0.000247025 0.00406921 1.79223e-05
0.000166801 1.79223e-05 0.00403922
0.00695597 2.78941e-05 0.000103062
2.78941e-05 0.00408706 6.11781e-06
0.000103062 6.11781e-06 0.00406771
0.00207306 0.000231907 0.000312538
0.000231907 0.00100474 4.4226e-05
0.000312538 4.4226e-05 0.000988623
0.000258703 0.000268291 2.70985e-05
0.000268291 -0.000234521 2.1164e-05
2.70985e-05 2.1164e-05 -0.000392171
0.00189454 -3.25824e-05 0.000263515
-3.25824e-05 0.000853309 4.46457e-06
0.000263515 4.46457e-06 0.000856522
0.00162877 4.60309e-06 7.22999e-05
4.60309e-06 0.000706775 2.49318e-06
7.22999e-05 2.49318e-06 0.000657114
0.00172902 -9.97654e-05 -6.63907e-05
-9.97654e-05 0.000780555 1.21922e-05
-6.63907e-05 1.21922e-05 0.000719901
0.00197099 -9.40543e-05 8.6931e-05
-9.40543e-05 0.000922734 -5.60876e-06
8.6931e-05 -5.60876e-06 0.000885846
0.00205788 -9.05915e-05 0.000126022
-9.05915e-05 0.000982518 -2.15236e-05
0.000126022 -2.15236e-05 0.000939048
0.0020345 -0.000105624 0.000103631
-0.000105624 0.000958244 -1.48665e-05
0.000103631 -1.48665e-05 0.000920511
0.00208741 -0.000213842 -4.41462e-05
-0.000213842 0.000877712 7.01553e-06
-4.41462e-05 7.01553e-06 0.000757965
0.00642871 -0.000157573 0.000345688
-0.000157573 0.00378811 -1.62466e-05
0.000345688 -1.62466e-05 0.0038108
0.00223749 -7.1429e-05 0.000266078
-7.1429e-05 0.00107456 -2.11627e-05
0.000266078 -2.11627e-05 0.00106104
0.00242778 -0.000123547 0.000273965
-0.000123547 0.00119845 -3.6732e-05
0.000273965 -3.6732e-05 0.0011789
0.0019271 -0.000151765 7.38571e-05
-0.000151765 0.00079088 -1.16545e-05
7.38571e-05 -1.16545e-05 0.000685042
0.00198489 -0.00017635 6.4749e-05
-0.00017635 0.000809933 -1.48328e-05
6.4749e-05 -1.48328e-05 0.000691294
0.00247957 -0.000158731 0.000303641
-0.000158731 0.00124338 -4.94805e-05
0.000303641 -4.94805e-05 0.00122003
0.00198811 -0.000178862 5.14702e-05
-0.000178862 0.000832835 -1.57135e-05
5.14702e-05 -1.57135e-05 0.000689189
0.00208153 -0.000384804 1.94856e-05
-0.000384804 0.000601039 -7.95623e-06
1.94856e-05 -7.95623e-06 0.00035286
0.00751463 9.20128e-05 -0.000348036
9.20128e-05 0.00444694 -3.17715e-05
-0.000348036 -3.17715e-05 0.004468
0.00452296 0.000181012 -0.000157296
0.000181012 0.00255262 -1.87122e-05
-0.000157296 -1.87122e-05 0.00252907
0.00455383 0.00010658 -0.000160908
0.00010658 0.00257635 -1.78559e-05
-0.000160908 -1.78559e-05 0.00255512
0.00758204 3.28467e-05 -3.46879e-06
3.28467e-05 0.00450803 -1.17483e-06
-3.46879e-06 -1.17483e-06 0.00452133
0.000321943 0.000255917 -6.83816e-07
0.000255917 -0.000191665 -1.38831e-06
-6.83816e-07 -1.38831e-06 -0.000349546
0.00197129 7.43229e-05 0.000272878
7.43229e-05 0.000900965 2.70436e-05
0.000272878 2.70436e-05 0.000890113
0.00212096 0.000166888 0.000282897
0.000166888 0.00102973 4.20494e-05
0.000282897 4.20494e-05 0.00100602
0.00291427 0.00023495 0.000167531
0.00023495 0.00139569 2.57391e-05
0.000167531 2.57391e-05 0.0013031
0.00663886 -0.000252836 3.34973e-05
-0.000252836 0.00396532 3.84092e-06
3.34973e-05 3.84092e-06 0.00391784
0.00302889 0.000318914 0.000177533
0.000318914 0.00151861 3.2399e-05
0.000177533 3.2399e-05 0.00140515
0.000294582 0.000246529 2.55806e-05
0.000246529 -0.000201972 2.94608e-05
2.55806e-05 2.94608e-05 -0.000363825
0.000965618 0.000338034 2.28857e-05
0.000338034 8.13238e-06 7.35329e-06
2.28857e-05 7.35329e-06 -0.000261717
0.00543032 -0.000120368 0.000202923
-0.000120368 0.00322721 2.41691e-05
0.000202923 2.41691e-05 0.00321815
0.00644787 8.76757e-05 3.2554e-06
8.76757e-05 0.00378387 -2.06259e-06
3.2554e-06 -2.06259e-06 0.00381523
0.0042181 9.83686e-05 -0.000131637
9.83686e-05 0.00235603 -6.26788e-06
-0.000131637 -6.26788e-06 0.00234519
0.00625943 5.73755e-05 0.000335932
5.73755e-05 0.00366748 4.76585e-06
0.000335932 4.76585e-06 0.0036996
0.00154386 9.20262e-05 7.44851e-05
9.20262e-05 0.000656461 5.13202e-06
7.44851e-05 5.13202e-06 0.00061106
0.000450178 1.28819e-05 1.43067e-05
1.28819e-05 -0.000170101 1.66038e-06
1.43067e-05 1.66038e-06 -0.000262743
0.00662561 0.000243787 0.000194443
0.000243787 0.00392788 1.94402e-05
0.000194443 1.94402e-05 0.00390201
0.00290283 8.42687e-05 0.000155633
8.42687e-05 0.00138002 1.07218e-05
0.000155633 1.07218e-05 0.00131779
0.0015852 -9.4386e-05 -8.68163e-05
-9.4386e-05 0.000695635 1.1433e-05
-8.68163e-05 1.1433e-05 0.000638048
0.00163766 -0.000123936 -7.96243e-05
-0.000123936 0.000731211 1.45986e-05
-7.96243e-05 1.45986e-05 0.000667955
0.00179077 -6.02556e-05 -5.41635e-05
-6.02556e-05 0.000813246 1.0043e-05
-5.41635e-05 1.0043e-05 0.000753424
0.00215586 -0.000216395 -0.000152575
-0.000216395 0.000911975 2.92553e-05
-0.000152575 2.92553e-05 0.000805116
0.00403632 -3.13558e-05 -0.000134098
-3.13558e-05 0.00225203 -1.17781e-06
-0.000134098 -1.17781e-06 0.00224164
0.00194227 -7.45352e-05 9.18136e-05
-7.45352e-05 0.000901081 -4.56041e-06
9.18136e-05 -4.56041e-06 0.00086859
0.00218325 -6.70979e-05 0.000132853
-6.70979e-05 0.00106041 -2.02599e-05
0.000132853 -2.02599e-05 0.0010149
0.00201625 -0.000100403 9.38255e-05
-0.000100403 0.000946957 -9.65866e-06
9.38255e-05 -9.65866e-06 0.000909965
0.00200867 -0.000129616 -3.57185e-05
-0.000129616 0.000831064 2.8364e-06
-3.57185e-05 2.8364e-06 0.000738483
0.00209143 -0.000224287 -5.101e-05
-0.000224287 0.000896018 8.08478e-06
-5.101e-05 8.08478e-06 0.000764283
0.00207608 -0.000192321 -3.87628e-05
-0.000192321 0.000866397 5.11105e-06
-3.87628e-05 5.11105e-06 0.000757112
0.00216216 -0.000391244 -1.03931e-05
-0.000391244 0.000650906 2.77062e-06
-1.03931e-05 2.77062e-06 0.000403176
0.00623338 -6.71469e-06 0.000331543
-6.71469e-06 0.00364895 -3.523e-06
0.000331543 -3.523e-06 0.00368222
0.00219834 -4.63519e-05 0.000262909
-4.63519e-05 0.00105223 -1.44428e-05
0.000262909 -1.44428e-05 0.00104385
0.00246326 -1.80002e-05 5.65154e-05
-1.80002e-05 0.0011339 -6.95719e-07
5.65154e-05 -6.95719e-07 0.00106178
0.00190031 -0.000122687 6.72612e-05
-0.000122687 0.000778136 -7.54858e-06
6.72612e-05 -7.54858e-06 0.000682271
0.00196844 -0.00016612 7.09997e-05
-0.00016612 0.000805044 -1.38187e-05
7.09997e-05 -1.38187e-05 0.000693046
0.00199709 -0.000247048 5.33275e-06
-0.000247048 0.000464867 -2.32584e-06
5.33275e-06 -2.32584e-06 0.000285583
0.00199998 -0.000340337 1.58533e-05
-0.000340337 0.000508926 -5.46256e-06
1.58533e-05 -5.46256e-06 0.00029097
0.00186439 -0.000119837 0.000275891
-0.000119837 0.00085301 -4.16933e-05
0.000275891 -4.16933e-05 0.000828109
0.00217709 -0.000153277 4.51317e-05
-0.000153277 0.000977589 -1.42028e-05
4.51317e-05 -1.42028e-05 0.000827387
0.00206495 -0.000429913 2.36727e-05
-0.000429913 0.000634532 -8.81914e-06
2.36727e-05 -8.81914e-06 0.000354447
0.00190515 -0.000514081 6.98918e-06
-0.000514081 0.000244694 3.23129e-07
6.98918e-06 3.23129e-07 -4.80004e-05
0.00733115 0.000302506 -0.000382144
0.000302506 0.00435155 -4.60589e-05
-0.000382144 -4.60589e-05 0.0043594
0.00737122 -1.87696e-06 -0.000306635
-1.87696e-06 0.00437662 -2.53031e-05
-0.000306635 -2.53031e-05 0.00439097
0.00739346 0.000166082 -0.000356418
0.000166082 0.00437018 -3.66952e-05
-0.000356418 -3.66952e-05 0.00439129
0.000428738 0.00025247 -2.68217e-05
0.00025247 -0.000118304 -2.10949e-05
-2.68217e-05 -2.10949e-05 -0.000279394
0.00713172 0.000260957 -1.81838e-06
0.000260957 0.00421855 -2.54874e-06
-1.81838e-06 -2.54874e-06 0.00423269
0.00733915 0.000260884 -8.43124e-06
0.000260884 0.00434716 -3.45137e-06
-8.43124e-06 -3.45137e-06 0.00435809
0.000346804 0.000149725 3.13783e-07
0.000149725 -0.000246969 -2.46818e-07
3.13783e-07 -2.46818e-07 -0.000375478
0.00410636 -6.23293e-05 -0.00013408
-6.23293e-05 0.00233639 -7.40878e-06
-0.00013408 -7.40878e-06 0.00230499
0.000300451 0.000225338 8.19094e-07
0.000225338 -0.000220788 -4.24994e-07
8.19094e-07 -4.24994e-07 -0.000371432
0.00188479 0.000266606 6.97462e-05
0.000266606 0.000815344 4.41496e-06
6.97462e-05 4.41496e-06 0.000681126
0.000968791 0.000338477 1.6267e-06
0.000338477 9.66788e-06 9.92953e-08
1.6267e-06 9.92953e-08 -0.000259307
0.00610248 -0.000112339 0.000235594
-0.000112339 0.00364584 2.91752e-05
0.000235594 2.91752e-05 0.00363497
0.000543827 0.000110655 2.35879e-05
0.000110655 8.78985e-06 1.50294e-05
2.35879e-05 1.50294e-05 -7.90512e-05
0.000449487 0.000116908 1.44343e-05
0.000116908 -0.000196892 1.16781e-05
1.44343e-05 1.16781e-05 -0.000317076
0.000456628 0.000180313 1.9059e-05
0.000180313 -0.000164018 1.97239e-05
1.9059e-05 1.97239e-05 -0.000301675
0.00133183 0.000313322 1.49337e-05
0.000313322 3.78204e-05 5.97687e-06
1.49337e-05 5.97687e-06 -0.000189545
0.00327484 0.000268695 0.000165199
0.000268695 0.00171461 2.52512e-05
0.000165199 2.52512e-05 0.00162029
0.00118515 0.00036093 2.45132e-05
0.00036093 7.59366e-05 8.55504e-06
2.45132e-05 8.55504e-06 -0.000189581
0.00079741 0.000312794 1.68324e-05
0.000312794 2.11265e-06 6.58359e-06
1.68324e-05 6.58359e-06 -0.000266729
0.00155708 0.00055631 9.35527e-06
0.00055631 0.00022482 -2.66717e-06
9.35527e-06 -2.66717e-06 -0.000141365
0.00441293 -0.000136905 0.000136256
-0.000136905 0.00255705 1.1833e-05
0.000136256 1.1833e-05 0.00255023
0.00493281 -0.000167255 2.01381e-05
-0.000167255 0.00290538 7.39463e-07
2.01381e-05 7.39463e-07 0.00288897
0.00690689 7.29152e-05 -0.00035588
7.29152e-05 0.00405901 -1.89986e-05
-0.00035588 -1.89986e-05 0.00408843
0.0065477 7.92999e-05 -0.000349734
7.92999e-05 0.00384272 -1.16278e-05
-0.000349734 -1.16278e-05 0.00387524
0.00635738 8.36263e-05 -8.05225e-08
8.36263e-05 0.00373423 -4.18597e-06
-8.05225e-08 -4.18597e-06 0.00376351
0.00409262 3.98132e-05 -0.000143856
3.98132e-05 0.00227588 -8.1683e-06
-0.000143856 -8.1683e-06 0.00227074
0.00157759 4.11787e-05 6.87928e-05
4.11787e-05 0.000550079 2.05846e-06
6.87928e-05 2.05846e-06 0.00047722
0.00439828 0.00016042 -0.000134836
0.00016042 0.00247638 -8.325e-06
-0.000134836 -8.325e-06 0.00245717
0.00164127 9.92773e-05 6.89511e-05
9.92773e-05 0.000577851 3.74639e-06
6.89511e-05 3.74639e-06 0.000491995
0.00628725 0.000114335 0.00033808
0.000114335 0.00369851 7.39044e-06
0.00033808 7.39044e-06 0.00372313
0.000339798 1.03179e-05 1.76904e-05
1.03179e-05 -0.000234477 9.21763e-07
1.76904e-05 9.21763e-07 -0.000322592
0.00288646 4.59023e-05 0.000155102
4.59023e-05 0.00137627 7.08231e-06
0.000155102 7.08231e-06 0.00132084
0.00115386 7.87694e-05 1.03756e-05
7.87694e-05 -5.5391e-05 4.8707e-07
1.03756e-05 4.8707e-07 -0.000191513
0.00282515 0.000134308 0.000160671
0.000134308 0.00132528 1.44206e-05
0.000160671 1.44206e-05 0.00125454
0.00127517 0.000163577 5.40763e-06
0.000163577 -3.93516e-05 1.38476e-06
5.40763e-06 1.38476e-06 -0.000199359
0.00192305 3.97995e-05 -0.000261961
3.97995e-05 0.000869849 3.54855e-06
-0.000261961 3.54855e-06 0.000875946
0.0015826 -2.52315e-05 -7.35631e-05
-2.52315e-05 0.000684312 3.52105e-06
-7.35631e-05 3.52105e-06 0.000633583
0.00183214 -2.79935e-05 -4.81532e-05
-2.79935e-05 0.000836646 8.87083e-06
-4.81532e-05 8.87083e-06 0.000775102
0.00158923 -0.000112347 -8.81306e-05
-0.000112347 0.000699949 1.41717e-05
-8.81306e-05 1.41717e-05 0.000639583
0.00212058 -0.000107377 -0.000140361
-0.000107377 0.00089072 1.39046e-05
-0.000140361 1.39046e-05 0.000811478
0.00217574 -0.000177977 -0.000147337
-0.000177977 0.000916334 2.45832e-05
-0.000147337 2.45832e-05 0.000821724
0.00217072 -0.000244873 -0.000159028
-0.000244873 0.000943516 3.15258e-05
-0.000159028 3.15258e-05 0.000822976
0.00224225 -0.000398093 -3.65882e-05
-0.000398093 0.000701152 1.2358e-05
-3.65882e-05 1.2358e-05 0.000453816
0.0063281 -0.000115076 2.53222e-06
-0.000115076 0.00372313 -2.04194e-06
2.53222e-06 -2.04194e-06 0.00374799
0.00184899 2.14859e-05 9.94554e-05
2.14859e-05 0.000833131 -5.30994e-06
9.94554e-05 -5.30994e-06 0.000811224
0.00118209 -1.56231e-05 -7.11345e-05
-1.56231e-05 0.000305578 2.53735e-06
-7.11345e-05 2.53735e-06 0.000232985
0.00196518 -8.62993e-05 -3.86673e-05
-8.62993e-05 0.000810369 3.46302e-06
-3.86673e-05 3.46302e-06 0.000726135
0.00493694 -8.82197e-05 0.000291335
-8.82197e-05 0.00282134 -2.46334e-05
0.000291335 -2.46334e-05 0.00281541
0.0027579 -0.000230144 -4.96974e-05
-0.000230144 0.00133799 5.33749e-06
-4.96974e-05 5.33749e-06 0.00120497
0.00205752 -0.000162283 -3.59897e-05
-0.000162283 0.000854981 3.69585e-06
-3.59897e-05 3.69585e-06 0.000754663
0.00205307 -0.000247695 -9.149e-06
-0.000247695 0.000497195 1.79292e-06
-9.149e-06 1.79292e-06 0.000322656
0.00217426 -0.000441668 -9.21132e-06
-0.000441668 0.000709984 2.71209e-06
-9.21132e-06 2.71209e-06 0.000428644
0.00208034 -0.00034405 -9.89487e-06
-0.00034405 0.00056028 2.67321e-06
-9.89487e-06 2.67321e-06 0.000340175
0.00193345 -0.00051594 9.30112e-07
-0.00051594 0.000264385 -2.48395e-07
9.30112e-07 -2.48395e-07 -2.80486e-05
0.000368682 7.54303e-06 1.85248e-05
7.54303e-06 -0.000218604 -1.72657e-07
1.85248e-05 -1.72657e-07 -0.000302858
0.00182042 -1.39257e-05 5.90729e-05
-1.39257e-05 0.000717853 -2.35527e-06
5.90729e-05 -2.35527e-06 0.00063708
0.00195201 -8.55414e-05 7.66538e-06
-8.55414e-05 0.000465118 1.14569e-07
7.66538e-06 1.14569e-07 0.000346642
0.00203598 -0.000196157 5.80356e-06
-0.000196157 0.00049745 -4.88967e-07
5.80356e-06 -4.88967e-07 0.000345407
0.00202879 -0.000297116 1.05544e-05
-0.000297116 0.000496026 -3.39906e-06
1.05544e-05 -3.39906e-06 0.000302839
0.0020788 -0.000353776 -3.2491e-07
-0.000353776 0.000198633 -9.05048e-08
-3.2491e-07 -9.05048e-08 2.00408e-05
0.00695876 5.37401e-05 0.000262263
5.37401e-05 0.00413918 -2.26339e-05
0.000262263 -2.26339e-05 0.00414284
0.00185355 -0.000469576 5.95088e-06
-0.000469576 0.000152452 2.37274e-07
5.95088e-06 2.37274e-07 -0.00010214
0.000268399 -0.000216285 2.08925e-05
-0.000216285 -0.000244737 -2.4655e-05
2.08925e-05 -2.4655e-05 -0.000392056
0.00104486 -0.000364659 2.30789e-05
-0.000364659 6.12003e-05 -1.07588e-05
2.30789e-05 -1.07588e-05 -0.00023043
0.00203605 -0.000579357 8.89569e-06
-0.000579357 0.000395572 5.23325e-07
8.89569e-06 5.23325e-07 5.33584e-05
0.00202799 -0.000582809 2.40937e-06
-0.000582809 0.000218579 3.96149e-06
2.40937e-06 3.96149e-06 -5.30969e-05
0.000424129 -0.000176449 2.31107e-05
-0.000176449 -9.57448e-05 -2.00139e-05
2.31107e-05 -2.00139e-05 -0.000216232
0.000680158 -0.000155752 -9.96615e-07
-0.000155752 0.000118423 -2.35138e-06
-9.96615e-07 -2.35138e-06 -0.000141209
0.0072439 0.000287272 -0.000386844
0.000287272 0.00429594 -4.25058e-05
-0.000386844 -4.25058e-05 0.0043067
0.00736153 0.000251952 -0.000369797
0.000251952 0.00435973 -4.31545e-05
-0.000369797 -4.31545e-05 0.00437425
0.000316978 0.000148034 -1.78567e-05
0.000148034 -0.000267305 -1.43834e-05
-1.78567e-05 -1.43834e-05 -0.000396446
0.00659627 -8.1187e-05 -0.000248756
-8.1187e-05 0.00392126 -1.96998e-05
-0.000248756 -1.96998e-05 0.00392504
0.000210472 0.000216417 -2.20788e-05
0.000216417 -0.000253006 -2.30508e-05
-2.20788e-05 -2.30508e-05 -0.000398065
0.000277304 0.000211782 -2.11823e-05
0.000211782 -0.000234473 -1.99466e-05
-2.11823e-05 -1.99466e-05 -0.000385177
0.00102234 0.000340921 -2.48095e-05
0.000340921 4.12764e-05 -9.22147e-06
-2.48095e-05 -9.22147e-06 -0.00022666
0.00597942 -0.000106402 -1.11306e-05
-0.000106402 0.00355964 2.10731e-06
-1.11306e-05 2.10731e-06 0.00355434
0.000589068 9.03164e-05 7.93345e-07
9.03164e-05 4.1013e-05 5.20038e-07
7.93345e-07 5.20038e-07 -4.3883e-05
0.00170898 0.00016293 7.22866e-05
0.00016293 0.000610698 6.65499e-06
7.22866e-05 6.65499e-06 0.000507489
0.00169441 0.00023043 7.50374e-05
0.00023043 0.000635113 8.04089e-06
7.50374e-05 8.04089e-06 0.00051303
0.00130045 0.000311873 -7.0596e-08
0.000311873 2.32703e-05 -3.55258e-07
-7.0596e-08 -3.55258e-07 -0.000205153
0.000382351 0.000196106 -9.06666e-07
0.000196106 -0.000124912 -2.124e-07
-9.06666e-07 -2.124e-07 -0.000251437
0.00113989 0.000356734 9.20994e-07
0.000356734 4.6782e-05 1.83883e-07
9.20994e-07 1.83883e-07 -0.000218458
0.000785967 0.00030083 1.02311e-06
0.00030083 -3.27311e-06 -7.90923e-07
1.02311e-06 -7.90923e-07 -0.000266024
0.0016799 0.000575811 -1.56886e-06
0.000575811 0.000291029 -5.83616e-07
-1.56886e-06 -5.83616e-07 -7.73731e-05
0.00042526 0.000163915 2.08826e-05
0.000163915 -8.13629e-05 1.85562e-05
2.08826e-05 1.85562e-05 -0.000192416
0.000687244 5.28712e-05 1.44321e-05
5.28712e-05 0.000122344 1.40081e-05
1.44321e-05 1.40081e-05 5.11277e-05
0.00139423 0.00028287 3.28201e-06
0.00028287 0.000595776 3.03605e-06
3.28201e-06 3.03605e-06 0.000358238
0.00135274 0.000270213 1.07391e-05
0.000270213 1.47583e-05 4.1744e-06
1.07391e-05 4.1744e-06 -0.000189165
0.0012932 0.000346752 2.03887e-05
0.000346752 6.6706e-05 7.7329e-06
2.03887e-05 7.7329e-06 -0.000182383
0.00207269 0.00050144 4.74105e-06
0.00050144 0.000267652 -4.19254e-07
4.74105e-06 -4.19254e-07 7.98139e-06
0.000573866 0.000255262 1.11357e-05
0.000255262 -3.65172e-05 6.00399e-06
1.11357e-05 6.00399e-06 -0.000289396
0.00206961 0.000606452 5.51711e-06
0.000606452 0.000429889 -1.85493e-06
5.51711e-06 -1.85493e-06 8.94774e-05
0.00152373 0.00055587 4.46744e-06
0.00055587 0.000343393 -4.02272e-06
4.46744e-06 -4.02272e-06 -5.27353e-05
0.00166793 0.000631719 -6.24411e-06
0.000631719 0.000185649 -6.19427e-06
-6.24411e-06 -6.19427e-06 -0.000185887
0.00390374 -0.000141136 9.35414e-05
-0.000141136 0.00222149 6.67347e-06
9.35414e-05 6.67347e-06 0.0022142
0.00430523 -0.000179879 1.99067e-05
-0.000179879 0.00249691 -1.43297e-06
1.99067e-05 -1.43297e-06 0.00247864
0.00477725 -0.000226313 -0.000105877
-0.000226313 0.00281991 -1.07825e-05
-0.000105877 -1.07825e-05 0.00278781
0.000534166 -0.00016423 2.29424e-05
-0.00016423 -3.0847e-06 -1.69065e-05
2.29424e-05 -1.69065e-05 -0.000108275
0.00621367 0.000103912 0.000217829
0.000103912 0.00370118 -2.17472e-05
0.000217829 -2.17472e-05 0.00369398
0.00711716 0.000235975 -0.000383192
0.000235975 0.00420843 -3.46959e-05
-0.000383192 -3.46959e-05 0.00422699
0.00665996 0.00010565 -0.000351023
0.00010565 0.0039104 -1.63894e-05
-0.000351023 -1.63894e-05 0.00394048
0.000337933 0.000103752 -1.77568e-05
0.000103752 -0.000253287 -6.41089e-06
-1.77568e-05 -6.41089e-06 -0.000358799
0.000318899 4.44519e-05 -1.79731e-05
4.44519e-05 -0.000248448 -2.67885e-06
-1.79731e-05 -2.67885e-06 -0.000341928
0.00631557 -3.44305e-06 -0.000335447
-3.44305e-06 0.00369853 -3.18542e-06
-0.000335447 -3.18542e-06 0.00373218
0.00623133 4.33226e-07 3.96573e-08
4.33226e-07 0.00364709 -1.20993e-06
3.96573e-08 -1.20993e-06 0.00368076
0.00032324 1.00696e-06 -3.49654e-08
1.00696e-06 -0.000247823 2.43147e-07
-3.49654e-08 2.43147e-07 -0.000334223
0.00156341 4.43428e-05 6.89719e-05
4.43428e-05 0.000534271 3.28883e-06
6.89719e-05 3.28883e-06 0.000457728
0.00111446 8.17046e-05 -4.26562e-08
8.17046e-05 -8.57263e-05 -1.7521e-07
-4.26562e-08 -1.7521e-07 -0.000222831
0.000369177 9.5192e-05 -6.88652e-07
9.5192e-05 -0.000240778 -3.44085e-07
-6.88652e-07 -3.44085e-07 -0.000353858
0.0012511 0.000165695 -1.87795e-07
0.000165695 -4.79823e-05 -6.91076e-08
-1.87795e-07 -6.91076e-08 -0.00020947
0.000312152 -3.29287e-05 1.82947e-05
-3.29287e-05 -0.000255146 -6.56915e-07
1.82947e-05 -6.56915e-07 -0.000338426
0.0010845 3.47437e-05 1.04484e-05
3.47437e-05 -8.77346e-05 1.77246e-07
1.04484e-05 1.77246e-07 -0.00021738
0.00119275 0.000121953 7.76949e-06
0.000121953 -5.54294e-05 1.1903e-06
7.76949e-06 1.1903e-06 -0.000201554
0.00201681 0.000129918 1.80813e-06
0.000129918 7.68126e-05 2.51947e-07
1.80813e-06 2.51947e-07 -8.77422e-06
0.00133969 0.00021726 7.02437e-06
0.00021726 -8.71636e-06 2.45895e-06
7.02437e-06 2.45895e-06 -0.000189088
0.00213096 0.000287715 1.64717e-06
0.000287715 0.00015611 -5.69874e-07
1.64717e-06 -5.69874e-07 2.15215e-05
0.00625173 -7.70351e-05 -0.000337435
-7.70351e-05 0.00366853 4.38785e-06
-0.000337435 4.38785e-06 0.00369746
0.00146716 -0.000164481 -7.32523e-05
-0.000164481 0.000632009 8.94395e-06
-7.32523e-05 8.94395e-06 0.000574605
-0.000227469 -9.28069e-06 -1.12314e-05
-9.28069e-06 -0.000588932 1.04997e-06
-1.12314e-05 1.04997e-06 -0.000689473
0.00208307 -7.68036e-05 -0.000139012
-7.68036e-05 0.000877855 9.57083e-06
-0.000139012 9.57083e-06 0.000804769
0.00762973 0.000215911 -5.55514e-05
0.000215911 0.00454807 3.37812e-06
-5.55514e-05 3.37812e-06 0.00450352
0.00306593 -0.000295762 -0.000164694
-0.000295762 0.00154116 3.17824e-05
-0.000164694 3.17824e-05 0.00141669
0.00216553 -0.000141954 -0.000143795
-0.000141954 0.000910243 1.91475e-05
-0.000143795 1.91475e-05 0.000824278
0.00209282 -0.000247977 -2.64441e-05
-0.000247977 0.000518547 5.02063e-06
-2.64441e-05 5.02063e-06 0.000348801
0.00213681 -0.000346328 -3.23074e-05
-0.000346328 0.000594764 1.06747e-05
-3.23074e-05 1.06747e-05 0.000372851
0.00225085 -0.000449634 -3.96418e-05
-0.000449634 0.00076548 1.34986e-05
-3.96418e-05 1.34986e-05 0.000483859
0.00195417 -0.000517004 -5.60745e-06
-0.000517004 0.000279588 -6.33898e-07
-5.60745e-06 -6.33898e-07 -1.24462e-05
0.000316038 2.83182e-06 7.67364e-11
2.83182e-06 -0.000250172 3.95667e-07
7.67364e-11 3.95667e-07 -0.000335419
0.00193027 -9.58391e-05 -3.77898e-05
-9.58391e-05 0.000795985 6.31336e-07
-3.77898e-05 6.31336e-07 0.000716768
0.00161655 -8.16117e-05 -1.24186e-05
-8.16117e-05 0.000250012 7.59121e-07
-1.24186e-05 7.59121e-07 0.000127685
0.00199316 -0.000193188 -1.10087e-05
-0.000193188 0.000464234 1.88004e-06
-1.10087e-05 1.88004e-06 0.000308869
0.00721691 5.14422e-05 3.21943e-06
5.14422e-05 0.00430463 3.6297e-07
3.21943e-06 3.6297e-07 0.00430653
0.00170776 -0.000214553 7.44314e-06
-0.000214553 0.000693908 4.08995e-07
7.44314e-06 4.08995e-07 0.000539145
0.00150439 -0.000392302 -1.21787e-06
-0.000392302 0.000351961 -1.11648e-06
-1.21787e-06 -1.11648e-06 6.15839e-05
0.00207925 -0.000301705 -9.96533e-06
-0.000301705 0.000524888 2.67078e-06
-9.96533e-06 2.67078e-06 0.000330577
0.00213466 -0.000361594 1.05749e-06
-0.000361594 0.000228857 -6.47625e-07
1.05749e-06 -6.47625e-07 5.62205e-05
0.00202109 -0.000577728 1.50205e-06
-0.000577728 0.000384254 -2.30128e-08
1.50205e-06 -2.30128e-08 4.37292e-05
0.00195221 -0.000472169 2.28166e-07
-0.000472169 0.000220201 -1.54111e-07
2.28166e-07 -1.54111e-07 -3.5296e-05
0.00209798 -0.000587426 8.98229e-07
-0.000587426 0.000268718 2.44454e-07
8.98229e-07 2.44454e-07 -3.88345e-06
0.000434878 -0.000190827 1.7411e-06
-0.000190827 -9.4952e-05 2.19859e-07
1.7411e-06 2.19859e-07 -0.000214825
0.000827571 -0.000225351 8.57705e-07
-0.000225351 0.000204191 7.8035e-07
8.57705e-07 7.8035e-07 -5.45003e-05
0.00109008 -4.02165e-05 1.05852e-05
-4.02165e-05 -7.72903e-05 -2.3925e-07
1.05852e-05 -2.3925e-07 -0.000206734
0.00201226 -0.000137035 6.35881e-06
-0.000137035 0.000497815 7.79363e-08
6.35881e-06 7.79363e-08 0.000366094
0.00182218 -0.000140167 2.63874e-06
-0.000140167 -2.35128e-05 -2.96265e-07
2.63874e-06 -2.96265e-07 -0.000126522
0.0021148 -0.000291547 -7.02889e-07
-0.000291547 0.000181094 1.16955e-06
-7.02889e-07 1.16955e-06 5.03938e-05
0.00187998 -0.000419315 3.01515e-07
-0.000419315 0.000112616 5.16069e-07
3.01515e-07 5.16069e-07 -0.000101046
0.00221047 -0.000403422 5.29274e-06
-0.000403422 0.000191881 -1.35543e-06
5.29274e-06 -1.35543e-06 5.51852e-05
0.000209703 -0.000191544 2.05644e-05
-0.000191544 -0.000248506 -2.35389e-05
2.05644e-05 -2.35389e-05 -0.000387313
0.0020768 -0.000534084 2.00658e-06
-0.000534084 0.000198345 2.21952e-06
2.00658e-06 2.21952e-06 -2.38139e-05
0.00105239 -0.000318785 1.55902e-05
-0.000318785 0.000162163 -9.09044e-06
1.55902e-05 -9.09044e-06 -0.000113569
0.00172056 -0.000622541 1.61329e-05
-0.000622541 0.000282034 7.4953e-08
1.61329e-05 7.4953e-08 -0.000118696
0.00233779 -0.000657825 2.19676e-06
-0.000657825 0.000485859 3.23314e-06
2.19676e-06 3.23314e-06 0.000148508
0.00236418 -0.000626296 -7.73951e-07
-0.000626296 0.000403022 3.93673e-06
-7.73951e-07 3.93673e-06 0.000155323
0.000584899 -0.0002178 2.4701e-06
-0.0002178 2.29476e-05 -4.63233e-06
2.4701e-06 -4.63233e-06 -0.000252375
0.00114836 -0.000179648 2.60478e-06
-0.000179648 0.000424622 -1.78838e-06
2.60478e-06 -1.78838e-06 0.000194059
0.00125491 -0.00032664 -2.43847e-06
-0.00032664 0.000480436 -8.83999e-07
-2.43847e-06 -8.83999e-07 0.000152434
0.000336491 0.000124112 -1.67695e-05
0.000124112 -0.000264644 -1.12406e-05
-1.67695e-05 -1.12406e-05 -0.00038682
0.00544126 -0.000144593 -0.000178459
-0.000144593 0.00321814 -1.4186e-05
-0.000178459 -1.4186e-05 0.00320833
0.000374723 8.00288e-05 -1.78631e-05
8.00288e-05 -9.40865e-05 -1.44561e-05
-1.78631e-05 -1.44561e-05 -0.00017249
0.000298179 0.000180022 -1.96617e-05
0.000180022 -0.000254953 -1.77372e-05
-1.96617e-05 -1.77372e-05 -0.000393931
0.00126731 0.000310763 -1.62894e-05
0.000310763 6.75229e-06 -6.57592e-06
-1.62894e-05 -6.57592e-06 -0.000222824
0.000291826 0.000191942 -2.31067e-05
0.000191942 -0.000189181 -2.15429e-05
-2.31067e-05 -2.15429e-05 -0.000313844
0.000796111 0.000294175 -1.61033e-05
0.000294175 5.71159e-06 -8.70331e-06
-1.61033e-05 -8.70331e-06 -0.000252758
0.00114054 0.000354566 -2.53453e-05
0.000354566 5.08487e-05 -8.92893e-06
-2.53453e-05 -8.92893e-06 -0.000214109
0.00182524 0.00059902 -9.82684e-06
0.00059902 0.000369194 1.56379e-06
-9.82684e-06 1.56379e-06 -2.35572e-06
0.000457261 0.00016488 -3.52729e-06
0.00016488 -6.98054e-05 1.66142e-06
-3.52729e-06 1.66142e-06 -0.000172426
0.000380678 2.87681e-05 1.40873e-06
2.87681e-05 -6.22402e-05 3.68897e-07
1.40873e-06 3.68897e-07 -0.000132933
0.00080852 0.000196009 1.31079e-06
0.000196009 0.000198246 2.81716e-07
1.31079e-06 2.81716e-07 -1.58515e-05
0.00131743 0.000268948 -2.33818e-07
0.000268948 -8.91425e-07 -3.21447e-07
-2.33818e-07 -3.21447e-07 -0.000205955
0.00125514 0.000343407 2.08004e-07
0.000343407 4.77973e-05 -2.9991e-07
2.08004e-07 -2.9991e-07 -0.000201568
0.00205322 0.000499802 -3.68752e-07
0.000499802 0.000254034 -1.56149e-07
-3.68752e-07 -1.56149e-07 -5.62067e-06
0.000668431 0.000248833 -5.04244e-07
0.000248833 1.99061e-05 2.25167e-08
-5.04244e-07 2.25167e-08 -0.000225462
0.00205403 0.00060084 -9.41609e-07
0.00060084 0.000420298 -4.70447e-07
-9.41609e-07 -4.70447e-07 8.00127e-05
0.00156907 0.000570297 -4.427e-07
0.000570297 0.00035315 -1.52631e-06
-4.427e-07 -1.52631e-06 -4.83914e-05
0.00165862 0.000641668 -1.26671e-06
0.000641668 0.00015762 2.44788e-06
-1.26671e-06 2.44788e-06 -0.000212786
0.000445021 1.05228e-05 4.99116e-06
1.05228e-05 -1.66664e-05 1.2814e-05
4.99116e-06 1.2814e-05 -7.65667e-05
0.00123567 0.000240519 5.46297e-06
0.000240519 0.000442499 2.14279e-06
5.46297e-06 2.14279e-06 0.000198086
0.000990822 0.00013259 3.85401e-06
0.00013259 0.000327668 3.15728e-06
3.85401e-06 3.15728e-06 0.000144361
0.000277833 0.000193199 -2.13607e-06
0.000193199 -0.000118921 3.08335e-06
-2.13607e-06 3.08335e-06 -0.000391249
0.00210307 0.00044036 2.18583e-06
0.00044036 0.000224759 -1.87953e-06
2.18583e-06 -1.87953e-06 9.16398e-06
0.00202778 0.000555358 5.04437e-06
0.000555358 0.000317908 -5.50823e-07
5.04437e-06 -5.50823e-07 1.43291e-05
0.00219531 0.00056653 6.75415e-07
0.00056653 0.000261048 -1.38461e-06
6.75415e-07 -1.38461e-06 1.93539e-05
0.00102932 0.000437169 -8.25754e-07
0.000437169 0.000119096 -2.70835e-06
-8.25754e-07 -2.70835e-06 -0.000233981
0.00242157 0.000707943 -5.72656e-06
0.000707943 0.000555159 -3.42106e-06
-5.72656e-06 -3.42106e-06 0.000216951
0.0020834 0.000735134 -9.35656e-06
0.000735134 0.000566478 -1.0728e-05
-9.35656e-06 -1.0728e-05 0.00010625
0.00209113 0.000685409 -3.01358e-06
0.000685409 0.000328768 -3.11798e-06
-3.01358e-06 -3.11798e-06 -2.36093e-05
0.000596634 6.96278e-05 8.51189e-07
6.96278e-05 0.000110218 6.37079e-06
8.51189e-07 6.37079e-06 1.2977e-05
0.000469017 3.67911e-06 2.46024e-06
3.67911e-06 -1.00703e-05 9.46122e-06
2.46024e-06 9.46122e-06 -5.07167e-05
0.00340806 -0.000127972 6.50422e-05
-0.000127972 0.00189413 5.29588e-06
6.50422e-05 5.29588e-06 0.00188998
0.00376646 -0.000162088 1.07765e-05
-0.000162088 0.00213886 -1.04315e-06
1.07765e-05 -1.04315e-06 0.0021254
0.00416252 -0.000204259 -7.29816e-05
-0.000204259 0.00241084 -6.74705e-06
-7.29816e-05 -6.74705e-06 0.00238511
0.000434001 -0.000163871 2.48437e-05
-0.000163871 -4.81401e-05 -1.62209e-05
2.48437e-05 -1.62209e-05 -0.000138273
0.00557033 0.000133822 0.000178708
0.000133822 0.00330775 -1.99232e-05
0.000178708 -1.99232e-05 0.00329402
0.00048712 -0.000172715 2.33663e-06
-0.000172715 -3.97427e-05 7.80125e-07
2.33663e-06 7.80125e-07 -0.000147052
0.00643498 8.06271e-05 6.20451e-06
8.06271e-05 0.003835 3.1747e-07
6.20451e-06 3.1747e-07 0.0038309
0.000353731 0.000120488 -1.76623e-05
0.000120488 -0.000250119 -8.81648e-06
-1.76623e-05 -8.81648e-06 -0.000365983
0.000330574 3.65731e-05 -1.65376e-05
3.65731e-05 -0.000250219 -3.57136e-06
-1.65376e-05 -3.57136e-06 -0.000347424
0.00122981 0.00016754 -6.18302e-06
0.00016754 -5.97798e-05 -1.49286e-06
-6.18302e-06 -1.49286e-06 -0.000222715
0.00108837 8.40086e-05 -1.02428e-05
8.40086e-05 -0.000107265 -7.90829e-07
-1.02428e-05 -7.90829e-07 -0.000245139
0.000370785 -7.40593e-06 -1.83985e-05
-7.40593e-06 -0.000220285 -7.23457e-07
-1.83985e-05 -7.23457e-07 -0.000305084
0.00632592 -0.000102899 -0.000344486
-0.000102899 0.00371994 6.19492e-06
-0.000344486 6.19492e-06 0.00374722
0.000361865 -3.20521e-06 8.64584e-08
-3.20521e-06 -0.000224719 -7.2579e-07
8.64584e-08 -7.2579e-07 -0.000307802
0.00107529 4.0068e-05 -6.04336e-08
4.0068e-05 -9.47453e-05 1.10294e-07
-6.04336e-08 1.10294e-07 -0.000224888
0.00118153 0.000123825 -1.2402e-07
0.000123825 -6.82795e-05 8.51648e-08
-1.2402e-07 8.51648e-08 -0.000215562
0.00199533 0.000127708 -8.66257e-08
0.000127708 6.85851e-05 2.11247e-07
-8.66257e-08 2.11247e-07 -1.72947e-05
0.00130859 0.000217289 -3.70439e-07
0.000217289 -2.17367e-05 -2.83527e-07
-3.70439e-07 -2.83527e-07 -0.000203462
0.00207555 0.000283577 -3.76069e-07
0.000283577 0.000124167 6.39408e-08
-3.76069e-07 6.39408e-08 -9.99644e-06
0.00105624 -4.6173e-06 1.04128e-05
-4.6173e-06 -9.9302e-05 -2.63796e-07
1.04128e-05 -2.63796e-07 -0.000227145
0.00201793 6.41781e-05 3.10512e-06
6.41781e-05 9.31388e-05 2.14963e-07
3.10512e-06 2.14963e-07 1.36748e-05
0.00202612 0.000200549 7.33804e-07
0.000200549 7.18631e-05 -3.23677e-09
7.33804e-07 -3.23677e-09 -3.13964e-05
0.00220182 0.000156247 5.70879e-06
0.000156247 8.45661e-05 6.37629e-07
5.70879e-06 6.37629e-07 5.32548e-05
0.00215265 0.000371621 2.42997e-06
0.000371621 0.000206171 -7.92181e-07
2.42997e-06 -7.92181e-07 3.25641e-05
0.00208858 0.000307913 3.96344e-06
0.000307913 4.25575e-05 1.09418e-06
3.96344e-06 1.09418e-06 -4.31843e-05
0.000352229 -4.27625e-06 -1.7545e-05
-4.27625e-06 -0.00022383 4.54005e-07
-1.7545e-05 4.54005e-07 -0.000311331
0.00203781 -5.15512e-05 -0.000138165
-5.15512e-05 0.000853646 6.15487e-06
-0.000138165 6.15487e-06 0.000786846
0.00124419 -7.70107e-05 -1.91404e-05
-7.70107e-05 1.11876e-05 1.28242e-06
-1.91404e-05 1.28242e-06 -0.000115396
0.00192455 -0.000189897 -2.43845e-05
-0.000189897 0.000414216 3.60116e-06
-2.43845e-05 3.60116e-06 0.00025559
0.00750647 1.94145e-05 -0.000310976
1.94145e-05 0.00448101 3.26852e-05
-0.000310976 3.26852e-05 0.00448626
0.00352095 -0.000298087 -0.000181205
-0.000298087 0.00184607 2.91207e-05
-0.000181205 2.91207e-05 0.00172619
0.00177385 -0.000427934 -3.1958e-05
-0.000427934 0.000534645 1.15334e-05
-3.1958e-05 1.15334e-05 0.000239473
0.00211927 -0.000305427 -3.00685e-05
-0.000305427 0.00054673 8.12845e-06
-3.00685e-05 8.12845e-06 0.000351521
0.00219238 -0.000369319 -2.21064e-06
-0.000369319 0.000260786 -9.46779e-07
-2.21064e-06 -9.46779e-07 9.41185e-05
0.00205972 -0.000475254 -3.97288e-06
-0.000475254 0.000295348 3.10335e-07
-3.97288e-06 3.10335e-07 3.88941e-05
0.00202676 -0.000578458 -7.06527e-06
-0.000578458 0.000384053 -1.22095e-06
-7.06527e-06 -1.22095e-06 4.47268e-05
0.002161 -0.00059183 -8.49162e-07
-0.00059183 0.00031333 -3.28233e-06
-8.49162e-07 -3.28233e-06 3.98116e-05
0.000438474 -0.000202682 -2.29752e-05
-0.000202682 -9.0705e-05 2.08313e-05
-2.29752e-05 2.08313e-05 -0.000215735
0.000540728 -0.000223562 1.97752e-08
-0.000223562 3.30034e-05 2.36495e-06
1.97752e-08 2.36495e-06 -0.000231076
0.00114587 -3.57084e-05 5.07235e-07
-3.57084e-05 -4.21736e-05 2.61242e-08
5.07235e-07 2.61242e-08 -0.000166681
0.00199928 -0.000137146 -1.10978e-05
-0.000137146 0.000486933 1.48792e-06
-1.10978e-05 1.48792e-06 0.000355561
0.0018984 -0.000137993 1.55102e-06
-0.000137993 2.48433e-05 -2.19808e-07
1.55102e-06 -2.19808e-07 -7.30356e-05
0.00200297 -0.000288779 -2.39422e-06
-0.000288779 0.000109294 8.69871e-07
-2.39422e-06 8.69871e-07 -3.16617e-05
0.000376827 -0.000215219 5.41791e-07
-0.000215219 -0.000142761 6.18303e-07
5.41791e-07 6.18303e-07 -0.000283094
0.000741437 -0.000314699 -1.81451e-06
-0.000314699 -3.10869e-05 2.7228e-07
-1.81451e-06 2.7228e-07 -0.000312072
0.00171418 -0.000619307 2.10159e-06
-0.000619307 0.000283772 -1.46019e-07
2.10159e-06 -1.46019e-07 -0.000118205
0.0019615 -0.000421457 -2.56751e-06
-0.000421457 0.00017246 7.78305e-07
-2.56751e-06 7.78305e-07 -4.43433e-05
0.00215986 -0.000402505 2.03224e-06
-0.000402505 0.000150472 -6.30369e-07
2.03224e-06 -6.30369e-07 2.04942e-05
0.00237643 -0.000664727 -4.322e-07
-0.000664727 0.000506224 -1.06171e-06
-4.322e-07 -1.06171e-06 0.000171024
0.00210603 -0.000536926 5.07012e-07
-0.000536926 0.000216591 1.2943e-07
5.07012e-07 1.2943e-07 -6.48862e-06
0.00217987 -0.000617384 6.53887e-07
-0.000617384 0.000278793 9.54061e-07
6.53887e-07 9.54061e-07 2.99872e-05
0.000585064 -0.000220233 -1.65393e-07
-0.000220233 2.88026e-05 -9.41909e-07
-1.65393e-07 -9.41909e-07 -0.000249754
0.000839675 -0.000242383 -8.55604e-07
-0.000242383 0.000186124 -8.82582e-07
-8.55604e-07 -8.82582e-07 -0.000113496
0.000691439 -0.00017216 2.19966e-06
-0.00017216 0.000155554 7.84287e-07
2.19966e-06 7.84287e-07 -8.46109e-05
0.00184408 -6.60216e-05 2.99084e-06
-6.60216e-05 -4.43455e-06 -3.25184e-07
2.99084e-06 -3.25184e-07 -9.72338e-05
0.00198135 -0.000208377 3.12849e-07
-0.000208377 7.37606e-05 5.2254e-07
3.12849e-07 5.2254e-07 -3.77899e-05
0.00203069 -0.000146557 8.05174e-06
-0.000146557 -8.65803e-06 -5.30699e-07
8.05174e-06 -5.30699e-07 -5.57424e-05
0.00217266 -0.000330262 2.97976e-06
-0.000330262 0.000108234 -1.20786e-06
2.97976e-06 -1.20786e-06 2.10644e-05
0.00203161 -0.000478632 1.16871e-06
-0.000478632 0.000114827 1.55484e-06
1.16871e-06 1.55484e-06 -5.90064e-05
0.00224367 -0.000421485 4.09574e-06
-0.000421485 0.000134975 -7.38575e-07
4.09574e-06 -7.38575e-07 5.55962e-05
0.000636723 -0.000255661 9.33125e-06
-0.000255661 -1.31379e-06 -6.65844e-06
9.33125e-06 -6.65844e-06 -0.000265448
0.00213816 -0.000573476 8.46193e-07
-0.000573476 0.000184313 3.75229e-07
8.46193e-07 3.75229e-07 -1.30227e-05
0.00153878 -0.000594187 1.42713e-05
-0.000594187 0.000334024 -2.11438e-06
1.42713e-05 -2.11438e-06 -9.01447e-05
0.00206814 -0.0007583 8.53065e-06
-0.0007583 0.000398422 4.88179e-06
8.53065e-06 4.88179e-06 -3.50231e-05
0.0024333 -0.00068879 4.62397e-06
-0.00068879 0.000509479 4.07401e-06
4.62397e-06 4.07401e-06 0.000192826
0.00243957 -0.000655202 3.07776e-07
-0.000655202 0.000451197 1.0246e-06
3.07776e-07 1.0246e-06 0.00020924
0.000425476 -0.000139327 8.36209e-08
-0.000139327 2.57262e-05 -4.74021e-06
8.36209e-08 -4.74021e-06 -0.000200799
0.00165681 -0.000392413 4.60142e-07
-0.000392413 0.000614957 -3.9469e-06
4.60142e-07 -3.9469e-06 0.000294655
-0.000365272 -0.000147983 1.44771e-07
-0.000147983 -0.000462208 2.73314e-06
1.44771e-07 2.73314e-06 -0.000776444
0.00198952 -0.000484576 -1.99721e-06
-0.000484576 0.000895128 -5.91238e-07
-1.99721e-06 -5.91238e-07 0.000515707
0.00127841 0.000267836 -1.21992e-05
0.000267836 -1.94996e-05 -4.73671e-06
-1.21992e-05 -4.73671e-06 -0.000225741
0.000349295 1.72334e-07 -2.51564e-06
1.72334e-07 -6.82077e-05 -1.54042e-05
-2.51564e-06 -1.54042e-05 -0.000142527
0.000433931 0.000129006 -2.34392e-05
0.000129006 -7.58361e-05 -1.58546e-05
-2.34392e-05 -1.58546e-05 -0.000176523
-1.91202e-05 0.000140518 -4.93255e-06
0.000140518 -0.000311718 2.70392e-07
-4.93255e-06 2.70392e-07 -0.00052961
0.00120214 0.000339565 -2.10916e-05
0.000339565 1.834e-05 -8.30885e-06
-2.10916e-05 -8.30885e-06 -0.000231343
0.00203281 0.000497822 -4.55928e-06
0.000497822 0.000240341 4.96304e-07
-4.55928e-06 4.96304e-07 -1.91919e-05
0.000461956 0.000216832 -8.12893e-06
0.000216832 -0.000114457 -3.44906e-06
-8.12893e-06 -3.44906e-06 -0.000345994
0.00151588 0.000567671 -7.45902e-06
0.000567671 0.000308388 4.95702e-07
-7.45902e-06 4.95702e-07 -9.27564e-05
0.00204501 0.000596626 -5.32774e-06
0.000596626 0.000412566 1.58028e-06
-5.32774e-06 1.58028e-06 7.19725e-05
0.00164322 0.000646254 5.74668e-06
0.000646254 0.000135915 1.01645e-05
5.74668e-06 1.01645e-05 -0.000231429
0.000426762 -7.25951e-06 -3.88922e-06
-7.25951e-06 -2.02657e-05 8.63511e-07
-3.88922e-06 8.63511e-07 -8.15946e-05
0.000611818 0.000221042 -5.37698e-07
0.000221042 7.02609e-05 -1.03927e-06
-5.37698e-07 -1.03927e-06 -0.000179977
0.000577926 0.000119017 1.928e-06
0.000119017 6.75372e-05 -1.09574e-06
1.928e-06 -1.09574e-06 -0.000111922
0.000744004 0.00020909 -2.04646e-06
0.00020909 0.00015372 1.95958e-06
-2.04646e-06 1.95958e-06 -0.000111077
0.00208436 0.000438626 -1.72666e-06
0.000438626 0.000211876 -1.29739e-06
-1.72666e-06 -1.29739e-06 -3.64552e-06
0.0019897 0.000553221 -5.96618e-07
0.000553221 0.000292338 -2.66659e-07
-5.96618e-07 -2.66659e-07 -1.15077e-05
0.00216362 0.000562094 1.4252e-07
0.000562094 0.000245205 2.17858e-07
1.4252e-07 2.17858e-07 4.72825e-06
0.00139378 0.00046165 3.28622e-06
0.00046165 0.000368478 4.18633e-08
3.28622e-06 4.18633e-08 1.34696e-05
0.00231251 0.000690959 9.04386e-07
0.000690959 0.000496571 7.30841e-07
9.04386e-07 7.30841e-07 0.000158716
0.0018428 0.000705287 -9.60332e-07
0.000705287 0.000422609 -2.10863e-06
-9.60332e-07 -2.10863e-06 -3.18749e-05
0.00210788 0.000671376 -5.85489e-06
0.000671376 0.000347776 2.46529e-06
-5.85489e-06 2.46529e-06 6.50876e-06
0.000497713 -3.08262e-07 3.12434e-06
-3.08262e-07 1.05653e-05 1.11185e-05
3.12434e-06 1.11185e-05 -3.73936e-05
0.00112391 9.32921e-05 7.16394e-07
9.32921e-05 0.000432803 7.83218e-06
7.16394e-07 7.83218e-06 0.000274535
0.000708966 0.000294044 -4.55997e-06
0.000294044 3.53875e-05 8.75114e-07
-4.55997e-06 8.75114e-07 -0.000243369
0.00140683 0.000187229 3.10924e-06
0.000187229 0.000646735 -3.10501e-06
3.10924e-06 -3.10501e-06 0.000360799
0.000894065 0.000227425 -1.49546e-06
0.000227425 0.000176328 9.11889e-06
-1.49546e-06 9.11889e-06 -6.74874e-05
0.00221321 0.000495872 5.55913e-07
0.000495872 0.000202064 -2.9629e-06
5.55913e-07 -2.9629e-06 1.14421e-05
0.00217199 0.000636061 -1.62224e-06
0.000636061 0.000321573 -2.08126e-06
-1.62224e-06 -2.08126e-06 2.72448e-05
0.00215078 0.000612709 -3.40481e-06
0.000612709 0.000219546 -1.4573e-06
-3.40481e-06 -1.4573e-06 -2.15118e-05
0.00176357 0.000690415 3.51355e-08
0.000690415 0.000579973 -4.08007e-06
3.51355e-08 -4.08007e-06 9.9367e-05
0.00249411 0.000750719 -5.37971e-06
0.000750719 0.000541632 -3.15407e-06
-5.37971e-06 -3.15407e-06 0.000207074
0.00181111 0.000748288 5.99699e-06
0.000748288 0.000326982 -5.82395e-06
5.99699e-06 -5.82395e-06 -0.000113645
0.000533971 6.65652e-05 4.62629e-07
6.65652e-05 5.99158e-05 6.30934e-06
4.62629e-07 6.30934e-06 -4.66173e-05
0.000684494 0.000134575 -2.19193e-06
0.000134575 0.000224274 2.58259e-06
-2.19193e-06 2.58259e-06 5.66716e-05
0.000603307 6.84941e-05 6.50623e-07
6.84941e-05 0.000114075 5.26981e-06
6.50623e-07 5.26981e-06 2.6984e-05
0.00051692 2.18826e-05 -8.46935e-07
2.18826e-05 5.77359e-05 -2.12074e-09
-8.46935e-07 -2.12074e-09 -3.82547e-05
0.00148225 -2.1534e-05 1.88038e-06
-2.1534e-05 0.000641727 5.61884e-06
1.88038e-06 5.61884e-06 0.000610947
0.000954628 -1.04291e-05 1.87877e-07
-1.04291e-05 0.000303241 -2.72753e-08
1.87877e-07 -2.72753e-08 0.000265145
0.00088207 -4.09394e-05 4.66829e-05
-4.09394e-05 0.000255692 1.14069e-05
4.66829e-05 1.14069e-05 0.000250582
0.00331063 -0.000135276 1.02922e-05
-0.000135276 0.00183287 -9.80986e-07
1.02922e-05 -9.80986e-07 0.00182661
0.00359414 -0.000165941 -5.9551e-05
-0.000165941 0.00202999 -5.61055e-06
-5.9551e-05 -5.61055e-06 0.00201506
0.000298464 -9.76884e-05 1.44713e-05
-9.76884e-05 -0.000101599 -1.4007e-05
1.44713e-05 -1.4007e-05 -0.000175571
0.0050203 0.000186897 0.000122
0.000186897 0.00297699 -1.61358e-05
0.000122 -1.61358e-05 0.002949
0.00049494 -0.000144066 4.87968e-07
-0.000144066 -3.36176e-06 9.20946e-07
4.87968e-07 9.20946e-07 -0.000100964
0.0058471 0.000127897 -4.82036e-07
0.000127897 0.00348955 1.09766e-06
-4.82036e-07 1.09766e-06 0.00347382
0.000481217 -0.000172197 -2.27853e-05
-0.000172197 -4.60752e-05 1.85662e-05
-2.27853e-05 1.85662e-05 -0.00015619
0.00669559 8.62448e-05 -0.00025189
8.62448e-05 0.00400434 2.91962e-05
-0.00025189 2.91962e-05 0.00399758
0.0012702 0.000216609 -8.16018e-06
0.000216609 -3.83784e-05 -2.94705e-06
-8.16018e-06 -2.94705e-06 -0.000221311
0.00115212 0.000126747 -8.24554e-06
0.000126747 -8.90016e-05 -1.0126e-06
-8.24554e-06 -1.0126e-06 -0.000237719
0.00205828 0.000277047 -1.73815e-06
0.000277047 0.000119302 1.09272e-06
-1.73815e-06 1.09272e-06 -1.36168e-05
0.00196605 0.000125432 -2.02196e-06
0.000125432 5.55082e-05 2.37716e-07
-2.02196e-06 2.37716e-07 -3.07056e-05
0.00107669 4.53153e-05 -1.04022e-05
4.53153e-05 -9.58181e-05 -9.56029e-10
-1.04022e-05 -9.56029e-10 -0.000226434
0.00032875 2.85982e-05 -1.83686e-05
2.85982e-05 -0.000248394 -9.24417e-07
-1.83686e-05 -9.24417e-07 -0.000329814
0.00105609 -5.15135e-07 -4.96036e-08
-5.15135e-07 -9.91622e-05 -8.32918e-09
-4.96036e-08 -8.32918e-09 -0.000227011
0.00197689 6.3819e-05 5.98329e-09
6.3819e-05 6.73967e-05 1.39131e-07
5.98329e-09 1.39131e-07 -1.23668e-05
0.00203822 0.000197421 -1.77439e-07
0.000197421 9.01899e-05 3.3511e-07
-1.77439e-07 3.3511e-07 -1.26101e-05
0.00218245 0.000151103 -4.09291e-07
0.000151103 6.26432e-05 1.6928e-07
-4.09291e-07 1.6928e-07 3.64653e-05
0.00210085 0.000366901 -7.17661e-07
0.000366901 0.000174229 -1.20902e-07
-7.17661e-07 -1.20902e-07 1.37189e-06
0.00215745 0.000313279 5.87909e-08
0.000313279 8.78239e-05 3.37732e-07
5.87909e-08 3.37732e-07 5.59866e-07
0.00199777 -1.60378e-06 3.16222e-06
-1.60378e-06 8.95194e-05 -2.92697e-08
3.16222e-06 -2.92697e-08 1.06135e-05
0.00214114 7.23629e-05 4.671e-06
7.23629e-05 4.42654e-05 4.88407e-07
4.671e-06 4.88407e-07 2.37625e-05
0.00217548 0.000226801 5.31136e-06
0.000226801 7.39263e-05 8.61692e-07
5.31136e-06 8.61692e-07 2.81479e-05
0.00210722 0.000132922 4.21001e-06
0.000132922 6.64148e-06 8.46177e-07
4.21001e-06 8.46177e-07 3.5103e-06
0.0021413 0.000410539 2.37207e-06
0.000410539 0.000113869 1.15298e-07
2.37207e-06 1.15298e-07 -2.58248e-05
0.00220898 0.00033041 2.19118e-06
0.00033041 1.3557e-05 3.64579e-07
2.19118e-06 3.64579e-07 -7.2282e-06
0.00118661 -3.19464e-05 -1.12811e-05
-3.19464e-05 -1.62286e-05 5.65311e-07
-1.12811e-05 5.65311e-07 -0.000135952
0.0020163 -0.000137298 -2.78178e-05
-0.000137298 0.000496146 2.43948e-06
-2.78178e-05 2.43948e-06 0.000365123
0.00199732 -0.000134552 -1.37418e-06
-0.000134552 8.65739e-05 -4.13635e-07
-1.37418e-06 -4.13635e-07 -5.9585e-06
0.00187759 -0.000284789 -1.04252e-06
-0.000284789 2.76105e-05 4.23266e-07
-1.04252e-06 4.23266e-07 -0.000123677
0.000538395 -0.000249947 -2.66638e-05
-0.000249947 -4.0336e-05 2.37354e-05
-2.66638e-05 2.37354e-05 -0.000182108
0.000753617 -0.000323994 -1.44802e-05
-0.000323994 -3.00225e-05 8.47972e-06
-1.44802e-05 8.47972e-06 -0.000316124
0.00171111 -0.000621051 -1.1787e-05
-0.000621051 0.000279677 7.06289e-07
-1.1787e-05 7.06289e-07 -0.000125497
0.00203355 -0.000422723 -4.54575e-06
-0.000422723 0.000225908 7.1539e-07
-4.54575e-06 7.1539e-07 6.15276e-06
0.0021054 -0.000401 -1.06327e-06
-0.000401 0.000106001 -9.38829e-09
-1.06327e-06 -9.38829e-09 -1.68768e-05
0.00214331 -0.000540536 -2.32173e-06
-0.000540536 0.000240062 -1.56596e-06
-2.32173e-06 -1.56596e-06 1.58626e-05
0.00237714 -0.000667331 -1.11054e-06
-0.000667331 0.000503643 -6.48793e-06
-1.11054e-06 -6.48793e-06 0.000171642
0.00198431 -0.000604496 1.33288e-06
-0.000604496 0.000147528 -1.58452e-06
1.33288e-06 -1.58452e-06 -0.000101041
0.00110297 -0.000275823 -7.82319e-06
-0.000275823 0.000353926 4.73377e-06
-7.82319e-06 4.73377e-06 7.16032e-05
0.000318315 -0.000177001 1.51769e-06
-0.000177001 -0.000146812 2.8154e-06
1.51769e-06 2.8154e-06 -0.000435794
0.000430896 -0.000207382 1.35165e-07
-0.000207382 -2.75324e-06 2.74928e-06
1.35165e-07 2.74928e-06 -0.000245646
0.00190207 -6.25162e-05 1.79218e-06
-6.25162e-05 3.07257e-05 -1.67352e-07
1.79218e-06 -1.67352e-07 -5.67822e-05
0.00200074 -0.000216922 -4.3989e-07
-0.000216922 8.87589e-05 -2.22605e-07
-4.3989e-07 -2.22605e-07 -2.2918e-05
0.0021127 -0.000145331 1.46814e-06
-0.000145331 3.84773e-05 -1.62458e-07
1.46814e-06 -1.62458e-07 -1.45401e-06
0.00208173 -0.00031692 -1.42641e-06
-0.00031692 5.45279e-05 3.13863e-07
-1.42641e-06 3.13863e-07 -3.55002e-05
0.000756507 -0.000278616 1.13447e-06
-0.000278616 7.25985e-05 -5.3374e-07
1.13447e-06 -5.3374e-07 -0.000201181
0.00163643 -0.000610226 -5.16395e-07
-0.000610226 0.000396624 -6.68219e-07
-5.16395e-07 -6.68219e-07 -3.13927e-05
0.00195696 -0.000744976 1.19953e-06
-0.000744976 0.000340028 1.10974e-06
1.19953e-06 1.10974e-06 -9.55984e-05
0.00201387 -0.000474287 -5.61918e-07
-0.000474287 0.000110138 8.17193e-07
-5.61918e-07 8.17193e-07 -7.00054e-05
0.00219728 -0.000424196 2.21246e-07
-0.000424196 9.15052e-05 -7.93658e-08
2.21246e-07 -7.93658e-08 1.80193e-05
0.00226029 -0.000680551 -6.2905e-07
-0.000680551 0.000384118 4.33545e-07
-6.2905e-07 4.33545e-07 6.72702e-05
0.00210302 -0.000569824 -6.13984e-07
-0.000569824 0.000159745 7.74983e-07
-6.13984e-07 7.74983e-07 -3.75056e-05
0.00231249 -0.000635915 1.04146e-06
-0.000635915 0.000363655 -5.30821e-07
1.04146e-06 -5.30821e-07 0.000127924
0.00090238 -0.000352594 -2.00937e-06
-0.000352594 0.000166326 4.75341e-07
-2.00937e-06 4.75341e-07 -0.000165128
0.00108536 -0.000383199 -1.64706e-07
-0.000383199 0.000318386 1.90647e-06
-1.64706e-07 1.90647e-06 -4.53664e-05
0.000743854 -0.000161926 -1.17562e-06
-0.000161926 0.000215706 -1.56428e-06
-1.17562e-06 -1.56428e-06 -6.92586e-06
0.000168764 -0.000157902 2.63576e-06
-0.000157902 -0.000177055 1.27357e-06
2.63576e-06 1.27357e-06 -0.000457644
0.00216089 -7.89646e-05 7.37937e-06
-7.89646e-05 7.94538e-05 -2.07317e-07
7.37937e-06 -2.07317e-07 4.76097e-05
0.00202764 -0.000229524 4.70367e-06
-0.000229524 -3.02746e-05 -7.9501e-07
4.70367e-06 -7.9501e-07 -9.05798e-05
0.00209087 -0.000134917 5.69355e-06
-0.000134917 2.85879e-05 -6.81305e-07
5.69355e-06 -6.81305e-07 2.82489e-05
0.00219904 -0.000343435 6.7708e-07
-0.000343435 3.92941e-05 -8.23885e-08
6.7708e-07 -8.23885e-08 1.80727e-05
0.00215021 -0.000510785 4.6396e-07
-0.000510785 0.000122401 -9.82909e-08
4.6396e-07 -9.82909e-08 -1.47553e-05
0.00226022 -0.000449195 3.2107e-06
-0.000449195 7.39828e-05 -4.33279e-07
3.2107e-06 -4.33279e-07 1.77217e-05
0.00143141 -0.000507991 7.09475e-06
-0.000507991 0.000420057 -3.45381e-06
7.09475e-06 -3.45381e-06 2.44678e-05
0.00213795 -0.000610265 -1.69196e-06
-0.000610265 0.000140966 2.53738e-07
-1.69196e-06 2.53738e-07 -2.87171e-05
0.00177702 -0.000778542 -4.28612e-06
-0.000778542 0.000405238 6.81317e-06
-4.28612e-06 6.81317e-06 -9.44919e-05
0.00225877 -0.000812341 5.28134e-06
-0.000812341 0.000477305 4.09848e-06
5.28134e-06 4.09848e-06 3.88163e-05
0.00223817 -0.000687822 4.76262e-06
-0.000687822 0.00034402 3.13522e-06
4.76262e-06 3.13522e-06 3.64954e-05
0.00220789 -0.000668048 -4.90625e-06
-0.000668048 0.000247833 -2.25825e-06
-4.90625e-06 -2.25825e-06 3.22856e-06
0.00043198 -0.000157737 -8.63992e-07
-0.000157737 1.15478e-05 -7.55545e-06
-8.63992e-07 -7.55545e-06 -0.00016563
0.00068106 -0.00015269 1.3766e-06
-0.00015269 0.000209523 1.16608e-06
1.3766e-06 1.16608e-06 -0.000129846
0.00132867 -0.000519869 6.13031e-06
-0.000519869 0.000398587 -1.97017e-06
6.13031e-06 -1.97017e-06 -2.0002e-05
0.000502192 -0.000247901 1.07679e-05
-0.000247901 -4.25241e-06 -3.32965e-06
1.07679e-05 -3.32965e-06 -0.000299889
0.00137679 -0.000482198 -6.13603e-06
-0.000482198 0.000521309 5.89207e-06
-6.13603e-06 5.89207e-06 8.22037e-05
0.000293038 -1.57542e-05 -3.43599e-06
-1.57542e-05 -0.000102514 -1.24472e-05
-3.43599e-06 -1.24472e-05 -0.000162094
0.00206491 0.000436574 -4.9616e-06
0.000436574 0.00019902 -3.69961e-07
-4.9616e-06 -3.69961e-07 -1.63409e-05
0.000328109 6.19755e-05 -2.8893e-07
6.19755e-05 -7.4119e-05 -4.88269e-06
-2.8893e-07 -4.88269e-06 -0.000259914
0.000175252 0.000224907 -7.01496e-06
0.000224907 -0.000237766 9.03225e-07
-7.01496e-06 9.03225e-07 -0.000461881
0.000734207 0.000214664 -9.62911e-07
0.000214664 0.000137014 4.88002e-06
-9.62911e-07 4.88002e-06 -0.00012086
0.0019553 0.000551248 -4.725e-06
0.000551248 0.000269751 5.22707e-07
-4.725e-06 5.22707e-07 -3.43826e-05
0.00212884 0.000557544 5.26863e-07
0.000557544 0.000226981 2.02678e-06
5.26863e-07 2.02678e-06 -1.22865e-05
0.00134686 0.000482673 1.50165e-06
0.000482673 0.000362428 -1.12617e-06
1.50165e-06 -1.12617e-06 -6.34556e-06
0.00172485 0.000699972 3.89612e-06
0.000699972 0.000343779 6.2351e-06
3.89612e-06 6.2351e-06 -0.000113314
0.00217372 0.000670212 3.71641e-06
0.000670212 0.000417955 4.89209e-06
3.71641e-06 4.89209e-06 8.1508e-05
0.00216408 0.000667441 8.39274e-06
0.000667441 0.000388102 1.31506e-05
8.39274e-06 1.31506e-05 5.42341e-05
0.000442563 2.68043e-06 -6.24551e-07
2.68043e-06 -2.25714e-05 1.4392e-07
-6.24551e-07 1.4392e-07 -7.01329e-05
0.000628935 7.74466e-05 -5.96707e-07
7.74466e-05 0.000125203 5.27646e-08
-5.96707e-07 5.27646e-08 -2.99592e-05
0.000842379 0.000328069 3.15317e-06
0.000328069 0.000141009 1.00064e-06
3.15317e-06 1.00064e-06 -0.000142878
0.000536141 0.000138559 6.52689e-07
0.000138559 8.80034e-05 -2.43347e-06
6.52689e-07 -2.43347e-06 -0.00018883
0.00033889 0.000165587 -2.15795e-07
0.000165587 -0.000192017 3.22001e-06
-2.15795e-07 3.22001e-06 -0.000426581
0.00219251 0.000494099 -1.9687e-06
0.000494099 0.000190735 -1.92942e-06
-1.9687e-06 -1.92942e-06 5.76956e-07
0.00214432 0.000632462 4.56063e-07
0.000632462 0.000307175 1.32984e-07
4.56063e-07 1.32984e-07 1.39206e-05
0.00213061 0.000611852 1.56173e-06
0.000611852 0.000210599 1.62264e-07
1.56173e-06 1.62264e-07 -3.0588e-05
0.00173226 0.000688846 1.40462e-06
0.000688846 0.000565724 -1.06474e-06
1.40462e-06 -1.06474e-06 8.08809e-05
0.00238476 0.000739162 2.91733e-06
0.000739162 0.000454537 4.92447e-07
2.91733e-06 4.92447e-07 0.000120042
0.00214354 0.00078121 -4.38301e-06
0.00078121 0.000548966 1.53521e-07
-4.38301e-06 1.53521e-07 0.000104948
0.000763316 8.63769e-05 8.08329e-07
8.63769e-05 0.000199762 6.71814e-06
8.08329e-07 6.71814e-06 7.62756e-05
0.00206877 0.00028426 -6.34006e-07
0.00028426 0.00110991 2.63082e-07
-6.34006e-07 2.63082e-07 0.000849238
0.00107654 0.0004768 -2.11687e-07
0.0004768 0.00028457 4.49902e-06
-2.11687e-07 4.49902e-06 -8.40019e-05
0.000933086 0.00014736 5.24247e-06
0.00014736 0.000220917 -8.92863e-09
5.24247e-06 -8.92863e-09 -2.86808e-05
0.00306299 0.000505837 -8.99061e-07
0.000505837 0.00144522 6.42331e-07
-8.99061e-07 6.42331e-07 0.00113006
0.00216389 0.000521576 -3.84747e-06
0.000521576 0.000124821 -1.85241e-06
-3.84747e-06 -1.85241e-06 -4.81666e-05
0.00215477 0.000686728 -4.16921e-06
0.000686728 0.000279696 -1.47512e-06
-4.16921e-06 -1.47512e-06 -1.43364e-05
0.00212317 0.000671922 1.40344e-06
0.000671922 0.000165526 -8.10047e-07
1.40344e-06 -8.10047e-07 -8.78965e-05
0.00122516 0.000706605 1.04694e-05
0.000706605 0.000280781 -5.4386e-06
1.04694e-05 -5.4386e-06 -0.000231833
0.00186485 0.00077113 1.31339e-05
0.00077113 0.000258757 -2.82724e-06
1.31339e-05 -2.82724e-06 -0.00014413
0.000576092 6.14704e-05 -1.67794e-07
6.14704e-05 8.7476e-05 1.27834e-07
-1.67794e-07 1.27834e-07 -1.80179e-05
0.000540575 0.00012196 1.50542e-06
0.00012196 8.68446e-05 1.81914e-06
1.50542e-06 1.81914e-06 -6.05627e-05
4.22291e-05 8.34638e-05 2.59861e-07
8.34638e-05 -0.000203661 -8.50741e-07
2.59861e-07 -8.50741e-07 -0.000352253
0.00143696 0.000228424 -2.44336e-06
0.000228424 0.000720603 -2.43817e-06
-2.44336e-06 -2.43817e-06 0.000526155
0.00095974 0.000160915 -6.30097e-07
0.000160915 0.000403494 2.32921e-06
-6.30097e-07 2.32921e-06 0.00024635
0.000536195 7.66975e-05 1.65496e-06
7.66975e-05 7.89559e-05 4.13363e-06
1.65496e-06 4.13363e-06 -4.62509e-06
0.000512834 2.45276e-05 -1.01175e-06
2.45276e-05 5.97069e-05 4.65215e-08
-1.01175e-06 4.65215e-08 -2.68846e-05
0.00133732 -5.86335e-06 1.71869e-06
-5.86335e-06 0.00054701 4.60716e-06
1.71869e-06 4.60716e-06 0.000522541
0.000505521 4.4936e-05 5.05457e-07
4.4936e-05 4.33967e-05 -6.06493e-06
5.05457e-07 -6.06493e-06 -4.77122e-05
0.0014189 -1.68923e-05 -1.06017e-05
-1.68923e-05 0.000599444 -1.77405e-06
-1.06017e-05 -1.77405e-06 0.000571731
0.00073544 -2.83474e-05 4.09385e-05
-2.83474e-05 0.000155742 1.06126e-05
4.09385e-05 1.06126e-05 0.000156861
0.00146886 -1.63113e-05 -2.07384e-05
-1.63113e-05 0.000635804 -7.39625e-06
-2.07384e-05 -7.39625e-06 0.00060235
0.00197244 -7.65617e-05 4.52163e-05
-7.65617e-05 0.00096128 1.33733e-06
4.52163e-05 1.33733e-06 0.000958012
0.00323063 -0.000133913 -4.96214e-05
-0.000133913 0.00178092 -5.47843e-06
-4.96214e-05 -5.47843e-06 0.00177476
0.000241938 5.31261e-05 -3.55261e-06
5.31261e-05 -0.000111617 -1.05919e-05
-3.55261e-06 -1.05919e-05 -0.00017379
0.000373812 -8.07203e-05 -1.17359e-06
-8.07203e-05 -5.16317e-05 4.55392e-07
-1.17359e-06 4.55392e-07 -0.000132575
0.00411516 0.000203312 2.56676e-05
0.000203312 0.00238154 -8.66655e-06
2.56676e-05 -8.66655e-06 0.00235101
0.00511536 0.000135106 -1.45267e-05
0.000135106 0.00302623 -1.39169e-06
-1.45267e-05 -1.39169e-06 0.00301042
0.000494895 -0.000147845 -2.105e-05
-0.000147845 -6.89874e-06 1.60626e-05
-2.105e-05 1.60626e-05 -0.000108102
0.006 0.000125099 -0.000210977
0.000125099 0.00359529 2.97569e-05
-0.000210977 2.97569e-05 0.00357612
0.00204835 0.00036253 -2.78569e-06
0.00036253 0.000141177 9.97904e-07
-2.78569e-06 9.97904e-07 -3.10353e-05
0.00201758 0.000196546 -1.13873e-06
0.000196546 8.50431e-05 8.5887e-07
-1.13873e-06 8.5887e-07 -1.8022e-05
0.00221796 0.000319171 -3.92705e-06
0.000319171 0.000126723 -5.06268e-07
-3.92705e-06 -5.06268e-07 3.79231e-05
0.00216863 0.000146141 -5.04983e-06
0.000146141 4.35832e-05 -3.33967e-07
-5.04983e-06 -3.33967e-07 2.26299e-05
0.0019339 6.46069e-05 -3.10461e-06
6.46069e-05 4.11385e-05 1.16527e-07
-3.10461e-06 1.16527e-07 -3.89599e-05
0.00106848 4.05415e-06 -1.01098e-05
4.05415e-06 -9.10957e-05 1.17743e-07
-1.01098e-05 1.17743e-07 -0.000218829
0.00196686 8.75238e-07 1.07943e-07
8.75238e-07 6.93115e-05 9.16602e-08
1.07943e-07 9.16602e-08 -9.90543e-06
0.00214269 6.38104e-05 -6.4307e-07
6.38104e-05 4.91365e-05 -2.10379e-09
-6.4307e-07 -2.10379e-09 2.81022e-05
0.00219166 0.000226298 8.99642e-08
0.000226298 7.87566e-05 1.213e-08
8.99642e-08 1.213e-08 3.34226e-05
0.00208753 0.000133408 -1.03355e-07
0.000133408 -1.37981e-05 9.8799e-08
-1.03355e-07 9.8799e-08 -1.17737e-05
0.00217901 0.000416086 -2.44381e-07
0.000416086 0.000133811 3.38747e-07
-2.44381e-07 3.38747e-07 -7.35569e-06
0.00218219 0.000320568 -5.37875e-08
0.000320568 -5.16825e-06 -6.06128e-08
-5.37875e-08 -6.06128e-08 -2.46345e-05
0.00212626 -6.97273e-06 5.62659e-06
-6.97273e-06 4.58046e-05 2.35688e-07
5.62659e-06 2.35688e-07 2.22641e-05
0.0021063 5.69822e-05 3.76518e-06
5.69822e-05 1.05359e-05 2.12598e-07
3.76518e-06 2.12598e-07 2.63141e-05
0.00213763 0.000209342 5.38648e-07
0.000209342 -7.61445e-06 -4.06039e-08
5.38648e-07 -4.06039e-08 -1.28659e-05
0.0021985 0.000138277 -7.68289e-07
0.000138277 -1.49242e-05 4.60661e-07
-7.68289e-07 4.60661e-07 1.94545e-05
0.00217637 0.000418694 8.1477e-07
0.000418694 4.62093e-05 3.18555e-07
8.1477e-07 3.18555e-07 -3.92851e-05
0.00235453 0.000323083 3.11832e-07
0.000323083 2.42754e-05 -1.78588e-07
3.11832e-07 -1.78588e-07 3.46182e-05
0.00197476 -5.9234e-05 -1.7462e-06
-5.9234e-05 7.6609e-05 7.69861e-08
-1.7462e-06 7.69861e-08 -5.47535e-06
0.00201368 -0.000223969 -1.2966e-06
-0.000223969 9.70312e-05 -6.93448e-07
-1.2966e-06 -6.93448e-07 -1.43691e-05
0.00218046 -0.000144367 -4.16353e-06
-0.000144367 7.67336e-05 6.25845e-08
-4.16353e-06 6.25845e-08 4.38605e-05
0.00201057 -0.000304984 -4.5212e-06
-0.000304984 1.56816e-05 8.84125e-07
-4.5212e-06 8.84125e-07 -7.72157e-05
0.000686814 -0.000281699 -1.19016e-05
-0.000281699 2.56088e-05 8.38867e-06
-1.19016e-05 8.38867e-06 -0.000252642
0.00160204 -0.000604197 -1.49007e-05
-0.000604197 0.000387631 1.12243e-06
-1.49007e-05 1.12243e-06 -3.74808e-05
0.00176718 -0.000721006 1.26784e-07
-0.000721006 0.00023848 -3.86846e-06
1.26784e-07 -3.86846e-06 -0.000197121
0.00200066 -0.000470417 -3.38469e-06
-0.000470417 0.000108488 2.04775e-07
-3.38469e-06 2.04775e-07 -7.82038e-05
0.00215019 -0.000426621 -2.0966e-06
-0.000426621 4.84351e-05 2.65267e-07
-2.0966e-06 2.65267e-07 -1.97161e-05
0.00206305 -0.000565076 -8.93239e-07
-0.000565076 0.000132266 5.04559e-07
-8.93239e-07 5.04559e-07 -6.45029e-05
0.00213496 -0.000682703 -2.37388e-06
-0.000682703 0.000289267 -4.28791e-06
-2.37388e-06 -4.28791e-06 -3.11714e-05
0.00220751 -0.000624619 3.52517e-06
-0.000624619 0.000290365 -2.44232e-06
3.52517e-06 -2.44232e-06 5.83954e-05
0.000756514 -0.000343435 -2.77135e-07
-0.000343435 8.49064e-05 1.1697e-06
-2.77135e-07 1.1697e-06 -0.00025431
0.000786885 -0.000329411 -1.78246e-06
-0.000329411 0.000102277 4.3679e-06
-1.78246e-06 4.3679e-06 -0.000243327
0.00080559 -0.000165763 -2.56314e-06
-0.000165763 0.000246555 3.78785e-06
-2.56314e-06 3.78785e-06 2.58557e-05
-0.000110061 -0.000155555 6.12128e-07
-0.000155555 -0.000394117 -2.68203e-06
6.12128e-07 -2.68203e-06 -0.000646299
0.00216544 -7.91104e-05 -1.42953e-07
-7.91104e-05 8.21946e-05 3.41054e-08
-1.42953e-07 3.41054e-08 5.02882e-05
0.00207041 -0.000233524 2.32773e-06
-0.000233524 3.3825e-06 -5.51499e-07
2.32773e-06 -5.51499e-07 -5.81322e-05
0.00206673 -0.000133969 7.03722e-07
-0.000133969 6.48648e-06 -2.70602e-07
7.03722e-07 -2.70602e-07 8.09792e-06
0.00217014 -0.000341493 -4.56572e-07
-0.000341493 2.95413e-05 7.46702e-08
-4.56572e-07 7.46702e-08 1.21316e-06
0.00138218 -0.000480973 -3.22535e-06
-0.000480973 0.000367831 2.25779e-07
-3.22535e-06 2.25779e-07 -1.33627e-05
0.00173844 -0.000768871 2.18984e-06
-0.000768871 0.000392877 2.99183e-08
2.18984e-06 2.99183e-08 -0.000105601
0.00218293 -0.000820421 -7.31653e-07
-0.000820421 0.000426171 5.55087e-07
-7.31653e-07 5.55087e-07 -1.98643e-05
0.00214623 -0.000506211 -1.15811e-06
-0.000506211 0.000128298 3.71431e-07
-1.15811e-06 3.71431e-07 -1.38198e-05
0.00221517 -0.000446893 9.91214e-07
-0.000446893 4.66572e-05 -4.00131e-07
9.91214e-07 -4.00131e-07 -4.64493e-06
0.00224201 -0.000693386 -7.43714e-07
-0.000693386 0.000361221 7.23032e-07
-7.43714e-07 7.23032e-07 5.17284e-05
0.00215105 -0.000614014 -1.05368e-06
-0.000614014 0.000138834 7.8443e-07
-1.05368e-06 7.8443e-07 -3.10358e-05
0.00221928 -0.000670415 4.90169e-06
-0.000670415 0.00024842 -3.99796e-06
4.90169e-06 -3.99796e-06 7.93884e-06
0.00143746 -0.000537679 -5.07281e-07
-0.000537679 0.000475877 -1.55523e-06
-5.07281e-07 -1.55523e-06 5.18669e-05
0.00133375 -0.000482742 3.06138e-06
-0.000482742 0.000480468 2.65419e-06
3.06138e-06 2.65419e-06 5.36853e-05
0.000955373 -0.000247443 4.67945e-07
-0.000247443 0.000274775 -4.52351e-06
4.67945e-07 -4.52351e-06 -2.5701e-05
0.00017997 -0.000112848 -2.76965e-06
-0.000112848 -0.000145597 1.04184e-06
-2.76965e-06 1.04184e-06 -0.000324661
0.000136596 -0.000159951 -1.54312e-06
-0.000159951 -0.000139508 -1.13115e-06
-1.54312e-06 -1.13115e-06 -0.000467317
0.00206539 -7.91722e-05 2.65909e-06
-7.91722e-05 -1.12369e-05 -3.07581e-07
2.65909e-06 -3.07581e-07 3.10837e-06
0.00212476 -0.000205729 1.46671e-06
-0.000205729 -8.82981e-06 -2.95033e-07
1.46671e-06 -2.95033e-07 -4.55118e-06
0.00226325 -0.000409929 -2.05347e-07
-0.000409929 -1.78212e-05 4.28528e-07
-2.05347e-07 4.28528e-07 -1.58196e-05
0.00222417 -0.000532051 1.16279e-06
-0.000532051 7.29988e-05 -3.33971e-07
1.16279e-06 -3.33971e-07 -1.89915e-06
0.00149284 -0.000658744 -1.13845e-06
-0.000658744 0.000418934 2.24837e-06
-1.13845e-06 2.24837e-06 -6.22753e-05
0.00242845 -0.000738901 -8.49882e-06
-0.000738901 0.000212306 -3.51615e-06
-8.49882e-06 -3.51615e-06 1.1402e-05
0.00152533 -0.000835448 -1.76853e-05
-0.000835448 0.000259362 7.49832e-06
-1.76853e-05 7.49832e-06 -0.000271913
0.00239709 -0.000891855 -8.72717e-08
-0.000891855 0.000526051 2.51353e-06
-8.72717e-08 2.51353e-06 6.63724e-05
0.00202102 -0.000667109 -7.84741e-06
-0.000667109 0.00021186 -2.58221e-07
-7.84741e-06 -2.58221e-07 -8.05548e-05
3.55864e-05 -4.80557e-05 -2.0854e-06
-4.80557e-05 -0.000224031 -6.94964e-06
-2.0854e-06 -6.94964e-06 -0.000357093
0.00118068 -0.000228286 -3.61249e-06
-0.000228286 0.000601 -8.17404e-07
-3.61249e-06 -8.17404e-07 0.000271173
0.00261742 -0.000242796 -8.35145e-07
-0.000242796 0.00137694 -2.80678e-06
-8.35145e-07 -2.80678e-06 0.00104567
0.00213473 -0.000687347 -8.84816e-06
-0.000687347 0.000905948 -2.56237e-08
-8.84816e-06 -2.56237e-08 0.000418383
0.00104284 -0.000366365 1.0489e-05
-0.000366365 0.000268156 1.11052e-07
1.0489e-05 1.11052e-07 -0.000101838
0.00132104 -0.000536558 -5.9999e-06
-0.000536558 0.00046075 1.14383e-05
-5.9999e-06 1.14383e-05 -7.65811e-06
0.000389967 5.38825e-06 -3.39959e-06
5.38825e-06 -5.50137e-05 -1.06818e-05
-3.39959e-06 -1.06818e-05 -0.000102001
0.000195438 6.5833e-05 -6.95851e-07
6.5833e-05 -0.000146532 -7.69191e-06
-6.95851e-07 -7.69191e-06 -0.000295911
0.00217159 0.000492267 -3.63033e-06
0.000492267 0.000179687 -6.8878e-07
-3.63033e-06 -6.8878e-07 -1.00284e-05
-0.000300343 4.66895e-05 -6.23325e-07
4.66895e-05 -0.000443298 9.7223e-07
-6.23325e-07 9.7223e-07 -0.000713347
0.00185873 0.000394722 6.59803e-06
0.000394722 0.000786195 -2.05561e-06
6.59803e-06 -2.05561e-06 0.00050347
0.000290346 0.000153358 -5.4974e-06
0.000153358 -0.000238794 -2.1201e-06
-5.4974e-06 -2.1201e-06 -0.000478055
0.00212056 0.000628815 2.53803e-06
0.000628815 0.000296089 2.2976e-06
2.53803e-06 2.2976e-06 4.00241e-06
0.00212292 0.000612019 3.37868e-06
0.000612019 0.000208861 1.08882e-06
3.37868e-06 1.08882e-06 -3.25974e-05
0.00156359 0.000666409 3.66512e-06
0.000666409 0.00046727 3.19769e-06
3.66512e-06 3.19769e-06 -1.55766e-05
0.00243994 0.000802709 -4.93181e-06
0.000802709 0.000751528 5.74183e-06
-4.93181e-06 5.74183e-06 0.000310059
0.00227347 0.000729284 3.83281e-06
0.000729284 0.00036428 3.80061e-06
3.83281e-06 3.80061e-06 2.91715e-05
0.000624295 7.94946e-05 3.93274e-07
7.94946e-05 0.000112476 4.63464e-07
3.93274e-07 4.63464e-07 -7.83389e-06
0.00071964 0.000131669 -1.13738e-06
0.000131669 0.00024741 -7.79502e-10
-1.13738e-06 -7.79502e-10 4.76985e-06
0.0010818 0.000485752 5.59771e-07
0.000485752 0.00026613 1.31252e-06
5.59771e-07 1.31252e-06 -0.000110709
0.000664803 8.94683e-05 -6.66735e-08
8.94683e-05 5.36219e-05 -4.60834e-07
-6.66735e-08 -4.60834e-07 -0.000193154
0.00118798 0.000325086 3.63674e-06
0.000325086 0.000230108 -4.52562e-06
3.63674e-06 -4.52562e-06 -4.72555e-05
0.00215239 0.000522682 -2.24925e-06
0.000522682 0.000129189 -1.24847e-06
-2.24925e-06 -1.24847e-06 -4.56718e-05
0.00221442 0.000692921 2.36846e-06
0.000692921 0.000307788 6.81781e-07
2.36846e-06 6.81781e-07 1.24432e-05
0.00213872 0.000671312 1.25161e-06
0.000671312 0.000165156 1.60134e-07
1.25161e-06 1.60134e-07 -8.7193e-05
0.00158384 0.000764902 2.18367e-06
0.000764902 0.000477753 1.02689e-06
2.18367e-06 1.02689e-06 -4.36666e-05
0.00190465 0.000779131 -1.95295e-06
0.000779131 0.000308603 -2.22989e-06
-1.95295e-06 -2.22989e-06 -0.00010139
0.00132158 0.000195747 1.23011e-06
0.000195747 0.00060728 2.71299e-06
1.23011e-06 2.71299e-06 0.000415619
-0.000359313 3.20458e-05 2.74156e-07
3.20458e-05 -0.000413358 2.05561e-07
2.74156e-07 2.05561e-07 -0.000703366
0.00146635 0.000600878 1.65767e-06
0.000600878 0.000510977 -4.53208e-06
1.65767e-06 -4.53208e-06 6.70349e-05
-0.000138515 0.000171967 7.2009e-06
0.000171967 -0.000613058 3.61849e-06
7.2009e-06 3.61849e-06 -0.000854878
0.00254345 0.000646974 2.59705e-06
0.000646974 0.00102838 -3.84091e-06
2.59705e-06 -3.84091e-06 0.000645045
0.00227796 0.000592377 -2.47746e-06
0.000592377 9.64097e-05 -5.53294e-07
-2.47746e-06 -5.53294e-07 -3.09535e-05
0.00224967 0.000752697 8.95347e-06
0.000752697 0.000284737 -3.26774e-06
8.95347e-06 -3.26774e-06 -4.58289e-05
0.00218655 0.000702263 7.54167e-06
0.000702263 0.000138607 8.94977e-07
7.54167e-06 8.94977e-07 -0.000133381
0.00187417 0.000822071 1.51293e-05
0.000822071 0.000597282 4.03424e-07
1.51293e-05 4.03424e-07 7.53365e-05
0.00217807 0.000902119 7.08174e-06
0.000902119 0.000503108 -5.1946e-07
7.08174e-06 -5.1946e-07 3.804e-05
0.000563174 5.01727e-05 -3.61737e-08
5.01727e-05 7.95021e-05 -6.93691e-06
-3.61737e-08 -6.93691e-06 -2.4815e-05
0.000609514 0.000121847 9.03579e-07
0.000121847 0.000134115 -9.72435e-07
9.03579e-07 -9.72435e-07 -1.79821e-05
0.000177814 9.32665e-05 -1.73594e-06
9.32665e-05 -0.000139618 -3.18621e-06
-1.73594e-06 -3.18621e-06 -0.00026601
-0.000291108 -2.234e-05 3.03571e-06
-2.234e-05 -0.000422849 -3.03335e-06
3.03571e-06 -3.03335e-06 -0.000562976
0.000557309 8.35185e-05 -1.1975e-06
8.35185e-05 0.000137289 3.89208e-07
-1.1975e-06 3.89208e-07 -7.61881e-06
0.000365611 0.000104577 1.24351e-06
0.000104577 1.58176e-05 -2.55304e-07
1.24351e-06 -2.55304e-07 -0.000143628
0.000565756 0.000159935 -1.64794e-06
0.000159935 0.00014127 -8.44449e-06
-1.64794e-06 -8.44449e-06 -9.8424e-06
0.000340335 4.15174e-05 -3.70192e-06
4.15174e-05 2.07676e-05 1.32204e-06
-3.70192e-06 1.32204e-06 -0.000150207
0.00066916 0.000111338 1.40416e-08
0.000111338 0.000191214 2.38997e-06
1.40416e-08 2.38997e-06 6.57526e-05
0.000521932 8.21418e-05 2.68848e-06
8.21418e-05 7.09067e-05 4.27586e-06
2.68848e-06 4.27586e-06 -1.36535e-05
0.000483078 3.0155e-05 -2.78576e-06
3.0155e-05 4.02057e-05 9.18355e-08
-2.78576e-06 9.18355e-08 -4.0769e-05
0.00131187 7.08821e-06 2.45416e-06
7.08821e-06 0.000534168 3.96235e-06
2.45416e-06 3.96235e-06 0.000512031
0.000340539 -7.44126e-05 4.70566e-06
-7.44126e-05 -4.13018e-05 -4.69998e-06
4.70566e-06 -4.69998e-06 -0.000132138
0.00138377 -2.75801e-06 -9.01512e-06
-2.75801e-06 0.000576433 -1.74713e-06
-9.01512e-06 -1.74713e-06 0.000553649
0.000734636 -2.05872e-05 3.4944e-05
-2.05872e-05 0.000154518 9.76713e-06
3.4944e-05 9.76713e-06 0.000158352
0.00144289 -7.10882e-06 -1.67969e-05
-7.10882e-06 0.000613198 -8.89762e-06
-1.67969e-05 -8.89762e-06 0.000587329
0.000739693 -3.69306e-05 1.51689e-05
-3.69306e-05 0.000159049 3.83863e-06
1.51689e-05 3.83863e-06 0.00015634
0.00290272 -0.000127314 7.08497e-07
-0.000127314 0.00156247 -3.6622e-06
7.08497e-07 -3.6622e-06 0.00155689
0.000280488 7.24431e-05 -4.88247e-06
7.24431e-05 -8.74159e-05 -7.34619e-06
-4.88247e-06 -7.34619e-06 -0.000138299
0.000390412 -1.45192e-05 -3.79559e-06
-1.45192e-05 -2.88735e-05 5.10871e-07
-3.79559e-06 5.10871e-07 -8.84418e-05
0.00333389 0.000184562 -1.51064e-05
0.000184562 0.00187672 -9.31352e-06
-1.51064e-05 -9.31352e-06 0.00185469
0.000663469 -0.000115382 -1.54514e-05
-0.000115382 0.000125687 1.3444e-05
-1.54514e-05 1.3444e-05 4.24302e-05
0.00443588 0.000150746 -4.09924e-05
0.000150746 0.00258029 -4.48487e-08
-4.09924e-05 -4.48487e-08 0.00256341
0.00546097 0.000120486 -0.000181405
0.000120486 0.00324699 2.54164e-05
-0.000181405 2.54164e-05 0.00323281
0.00221812 0.000421624 -3.39426e-06
0.000421624 0.000154719 4.18954e-07
-3.39426e-06 4.18954e-07 1.20927e-05
0.00220743 0.000224854 -5.04825e-06
0.000224854 8.49047e-05 -8.13832e-07
-5.04825e-06 -8.13832e-07 4.01276e-05
0.00215931 0.000310756 -1.94764e-07
0.000310756 -2.07781e-05 -2.97629e-08
-1.94764e-07 -2.97629e-08 -3.9088e-05
0.00206868 0.000134126 -3.0055e-07
0.000134126 -3.30264e-05 -2.54955e-07
-3.0055e-07 -2.54955e-07 -2.62206e-05
0.00214422 5.658e-05 -6.27932e-06
5.658e-05 5.41702e-05 -2.30261e-07
-6.27932e-06 -2.30261e-07 3.24152e-05
0.0019405 2.73769e-06 -3.01961e-06
2.73769e-06 5.15778e-05 2.54589e-07
-3.01961e-06 2.54589e-07 -2.7869e-05
0.00214348 -8.56336e-06 9.85474e-08
-8.56336e-06 6.23874e-05 6.56423e-08
9.85474e-08 6.56423e-08 3.67175e-05
0.00209838 5.84556e-05 1.15866e-06
5.84556e-05 8.61078e-06 3.21445e-09
1.15866e-06 3.21445e-09 2.0615e-05
0.00215518 0.000209509 -3.214e-07
0.000209509 8.07584e-06 -1.10504e-07
-3.214e-07 -1.10504e-07 3.21142e-06
0.00217405 0.000138945 5.62361e-07
0.000138945 -3.57156e-05 1.21303e-07
5.62361e-07 1.21303e-07 5.64177e-06
0.00218926 0.000418486 -4.38081e-07
0.000418486 6.31726e-05 2.97239e-07
-4.38081e-07 2.97239e-07 -2.41662e-05
0.00229763 0.000324945 2.42142e-06
0.000324945 -1.30585e-05 4.97115e-07
2.42142e-06 4.97115e-07 3.86302e-06
0.00205914 -1.42935e-05 2.79256e-06
-1.42935e-05 -1.04154e-05 4.88976e-08
2.79256e-06 4.88976e-08 -1.57632e-06
0.00218142 6.68256e-05 -1.67979e-06
6.68256e-05 -3.99347e-05 1.21145e-07
-1.67979e-06 1.21145e-07 1.45847e-05
0.00226578 0.000213608 -3.58528e-06
0.000213608 -2.38378e-05 -5.99473e-07
-3.58528e-06 -5.99473e-07 1.5576e-05
0.00238361 0.000455807 -2.53353e-06
0.000455807 2.93495e-05 -5.87863e-07
-2.53353e-06 -5.87863e-07 2.80392e-05
0.00217044 -7.94289e-05 -7.56689e-06
-7.94289e-05 8.48524e-05 2.76268e-07
-7.56689e-06 2.76268e-07 5.28646e-05
0.00210861 -0.000238172 -3.24669e-06
-0.000238172 3.46069e-05 2.94788e-07
-3.24669e-06 2.94788e-07 -2.83207e-05
0.00204056 -0.000133589 -3.44583e-06
-0.000133589 -1.70148e-05 2.99708e-07
-3.44583e-06 2.99708e-07 -1.35344e-05
0.00214339 -0.000339618 -4.37618e-06
-0.000339618 1.9383e-05 4.83089e-07
-4.37618e-06 4.83089e-07 -1.56686e-05
0.0010598 -0.000453996 -6.77273e-06
-0.000453996 0.000152713 7.30378e-07
-6.77273e-06 7.30378e-07 -0.000223466
0.00173391 -0.000762824 1.03276e-05
-0.000762824 0.000399317 -6.92272e-06
1.03276e-05 -6.92272e-06 -9.83106e-05
0.0021688 -0.000836901 -2.34105e-06
-0.000836901 0.000412059 -3.77277e-06
-2.34105e-06 -3.77277e-06 -4.3982e-05
0.00212955 -0.000500967 -4.2999e-06
-0.000500967 0.000126158 1.11358e-06
-4.2999e-06 1.11358e-06 -2.0398e-05
0.00216887 -0.000445058 1.7926e-07
-0.000445058 1.81485e-05 2.24603e-07
1.7926e-07 2.24603e-07 -2.78661e-05
0.00213229 -0.000615886 -7.0177e-07
-0.000615886 0.00011729 1.36822e-06
-7.0177e-07 1.36822e-06 -5.25998e-05
0.0021696 -0.000681091 -5.81916e-06
-0.000681091 0.000329429 -1.95949e-06
-5.81916e-06 -1.95949e-06 2.37784e-05
0.00227767 -0.000672817 1.02153e-05
-0.000672817 0.000281669 -3.96976e-06
1.02153e-05 -3.96976e-06 4.43526e-05
0.00114556 -0.000496939 -8.44161e-06
-0.000496939 0.000316353 8.5683e-07
-8.44161e-06 8.5683e-07 -9.89683e-05
0.000929814 -0.000444385 8.79303e-06
-0.000444385 0.000206611 -4.19616e-06
8.79303e-06 -4.19616e-06 -0.000205501
0.00198061 -0.000280948 -2.98753e-06
-0.000280948 0.0008862 -5.47721e-06
-2.98753e-06 -5.47721e-06 0.000595653
-2.87596e-06 -8.66959e-05 1.53805e-06
-8.66959e-05 -0.000261516 5.29989e-06
1.53805e-06 5.29989e-06 -0.000441048
-0.000178451 -0.000167655 2.04868e-06
-0.000167655 -0.000336378 -3.40937e-06
2.04868e-06 -3.40937e-06 -0.0006561
0.0020512 -8.71543e-05 1.47544e-07
-8.71543e-05 -2.16027e-05 -1.14949e-07
1.47544e-07 -1.14949e-07 -8.55828e-06
0.0021351 -0.000206326 1.62224e-06
-0.000206326 -6.1131e-06 4.98148e-09
1.62224e-06 4.98148e-09 -2.1555e-06
0.00224946 -0.000402533 -6.76017e-07
-0.000402533 -8.77298e-06 1.02311e-07
-6.76017e-07 1.02311e-07 -1.38012e-05
0.0016907 -0.000674914 -1.60177e-06
-0.000674914 0.000538845 -4.25834e-07
-1.60177e-06 -4.25834e-07 5.67702e-05
0.0015455 -0.0008174 4.10679e-06
-0.0008174 0.000274492 -5.55884e-07
4.10679e-06 -5.55884e-07 -0.000248669
0.00227902 -0.000892798 -1.06682e-06
-0.000892798 0.000458563 -1.02336e-07
-1.06682e-06 -1.02336e-07 -6.55386e-06
0.00222132 -0.000528142 5.05614e-07
-0.000528142 7.6079e-05 -5.60448e-08
5.05614e-07 -5.60448e-08 -1.38109e-06
0.00217345 -0.000701097 2.99725e-06
-0.000701097 0.000277408 -4.3075e-06
2.99725e-06 -4.3075e-06 -1.85447e-05
0.00234508 -0.000716245 -9.82921e-07
-0.000716245 0.000194287 -3.71866e-07
-9.82921e-07 -3.71866e-07 7.73005e-07
-0.000133195 3.25643e-05 -2.11187e-06
3.25643e-05 -0.000346517 -6.54563e-07
-2.11187e-06 -6.54563e-07 -0.000465592
0.00135166 -0.000579513 -2.44327e-07
-0.000579513 0.000442115 -1.75434e-06
-2.44327e-07 -1.75434e-06 -2.69401e-05
0.00117671 -0.000525464 -4.77888e-06
-0.000525464 0.000386594 -1.28338e-06
-4.77888e-06 -1.28338e-06 -9.92955e-05
0.0013304 -0.000353856 -4.16082e-06
-0.000353856 0.000476015 4.22058e-06
-4.16082e-06 4.22058e-06 9.51974e-05
0.00163287 -0.000381442 1.65525e-06
-0.000381442 0.000769858 -1.7809e-06
1.65525e-06 -1.7809e-06 0.000418132
0.000487944 -0.000114496 -4.69596e-07
-0.000114496 0.000147255 1.04756e-06
-4.69596e-07 1.04756e-06 -0.000166135
0.00214076 -0.000109403 -9.46437e-07
-0.000109403 -4.84868e-05 6.37707e-09
-9.46437e-07 6.37707e-09 -5.23532e-06
0.00230514 -0.000278307 -1.19271e-06
-0.000278307 -5.50377e-05 1.09911e-06
-1.19271e-06 1.09911e-06 7.0808e-06
0.00232736 -0.000496532 4.24827e-07
-0.000496532 -1.09063e-05 4.30658e-07
4.24827e-07 4.30658e-07 1.86243e-06
0.00236162 -0.000636327 -5.90688e-07
-0.000636327 5.53828e-05 -1.82405e-06
-5.90688e-07 -1.82405e-06 1.82473e-06
0.0019416 -0.000784028 -9.98864e-06
-0.000784028 0.000688575 3.28059e-06
-9.98864e-06 3.28059e-06 0.000160958
0.00250607 -0.000839793 -1.08235e-05
-0.000839793 0.00035666 -6.37742e-06
-1.08235e-05 -6.37742e-06 7.45024e-05
0.00189764 -0.000945516 -5.11377e-05
-0.000945516 0.000475523 8.606e-06
-5.11377e-05 8.606e-06 -9.26224e-05
0.00219098 -0.00093172 -2.78146e-05
-0.00093172 0.00042369 3.45807e-06
-2.78146e-05 3.45807e-06 -5.44319e-05
-0.00020942 4.56626e-05 -6.04897e-06
4.56626e-05 -0.000396478 -4.18136e-06
-6.04897e-06 -4.18136e-06 -0.00048456
0.00107347 -4.847e-06 -3.05677e-06
-4.847e-06 0.000498144 -9.24827e-07
-3.05677e-06 -9.24827e-07 0.000275995
0.0022186 -0.000411387 -7.72082e-06
-0.000411387 0.00126418 8.1155e-07
-7.72082e-06 8.1155e-07 0.000899543
0.000491248 -0.000226312 -4.93927e-07
-0.000226312 1.90945e-05 -9.20136e-06
-4.93927e-07 -9.20136e-06 -0.000337295
0.00303412 -0.000818138 -1.33077e-05
-0.000818138 0.001457 1.38241e-05
-1.33077e-05 1.38241e-05 0.000929115
0.00174229 -0.000591094 4.92607e-06
-0.000591094 0.00074421 1.42014e-05
4.92607e-06 1.42014e-05 0.000197756
0.000549532 6.66982e-05 -5.15149e-07
6.66982e-05 6.58625e-05 -7.51693e-06
-5.15149e-07 -7.51693e-06 -5.15592e-05
-0.000526541 4.33476e-05 1.36365e-06
4.33476e-05 -0.000543154 3.1418e-07
1.36365e-06 3.1418e-07 -0.000775419
0.0021352 0.000523837 -1.31146e-06
0.000523837 0.000128738 -8.29718e-07
-1.31146e-06 -8.29718e-07 -4.80793e-05
0.000307577 7.40377e-05 -4.38918e-06
7.40377e-05 -0.000171369 2.43317e-06
-4.38918e-06 2.43317e-06 -0.000414723
0.00129579 0.000520398 2.55448e-06
0.000520398 0.00037991 -4.93749e-06
2.55448e-06 -4.93749e-06 -1.08966e-05
-0.000344135 0.000134916 -7.79457e-06
0.000134916 -0.00074426 -7.08039e-06
-7.79457e-06 -7.08039e-06 -0.000967124
0.00226767 0.000698778 4.68152e-06
0.000698778 0.000330942 1.94921e-06
4.68152e-06 1.94921e-06 3.42983e-05
0.00213866 0.000668603 -3.86693e-06
0.000668603 0.000155935 6.22621e-07
-3.86693e-06 6.22621e-07 -9.49449e-05
0.00209789 0.0008416 -5.83799e-06
0.0008416 0.000772082 4.80472e-06
-5.83799e-06 4.80472e-06 0.000236832
0.00198347 0.000790642 -8.26649e-06
0.000790642 0.000386732 2.14994e-06
-8.26649e-06 2.14994e-06 -3.22948e-05
0.000845616 0.000152748 -9.49518e-07
0.000152748 0.000296199 -1.75126e-07
-9.49518e-07 -1.75126e-07 0.000116698
0.000378052 0.000145574 2.30433e-06
0.000145574 4.51981e-05 -9.14767e-07
2.30433e-06 -9.14767e-07 -0.00025707
0.00133342 0.000575464 -3.41298e-06
0.000575464 0.000426214 -1.11898e-06
-3.41298e-06 -1.11898e-06 -8.96713e-06
0.00149331 0.000245596 -1.55913e-06
0.000245596 0.000405894 1.05246e-06
-1.55913e-06 1.05246e-06 0.000163299
0.00223939 0.000565296 4.53008e-07
0.000565296 0.000818607 -2.63544e-06
4.53008e-07 -2.63544e-06 0.000459618
0.00234108 0.000603849 -2.45276e-06
0.000603849 0.000118398 -7.99698e-07
-2.45276e-06 -7.99698e-07 -1.22638e-05
0.00241651 0.000751566 2.93215e-06
0.000751566 0.00039471 -7.71006e-07
2.93215e-06 -7.71006e-07 7.29818e-05
0.00244123 0.000730611 1.1159e-06
0.000730611 0.000290968 2.72259e-06
1.1159e-06 2.72259e-06 1.45473e-05
0.00177798 0.00081992 4.76156e-06
0.00081992 0.000536245 1.29434e-06
4.76156e-06 1.29434e-06 9.50808e-06
0.00214509 0.000931963 -4.96707e-06
0.000931963 0.000486096 8.58465e-07
-4.96707e-06 8.58465e-07 9.82422e-07
-0.00147691 2.14347e-05 -6.26594e-06
2.14347e-05 -0.00115479 4.11563e-06
-6.26594e-06 4.11563e-06 -0.00132699
-0.00169735 0.000101785 -2.15869e-07
0.000101785 -0.00121346 5.09632e-07
-2.15869e-07 5.09632e-07 -0.00155284
0.00171608 0.000662147 6.97239e-06
0.000662147 0.000601863 -3.32711e-06
6.97239e-06 -3.32711e-06 0.000143004
0.00164533 0.000444237 6.73967e-06
0.000444237 0.000412717 5.52596e-07
6.73967e-06 5.52596e-07 0.000105652
0.00257671 0.000599878 1.38137e-06
0.000599878 -6.29214e-05 6.98217e-07
1.38137e-06 6.98217e-07 -7.32518e-06
0.0026123 0.000730065 6.786e-06
0.000730065 0.000302017 8.66524e-07
6.786e-06 8.66524e-07 9.53485e-05
0.00242591 0.000890579 8.50765e-06
0.000890579 0.000409734 -4.34905e-06
8.50765e-06 -4.34905e-06 -7.90586e-06
0.00166792 0.000905648 5.14872e-06
0.000905648 0.000318037 -1.25016e-06
5.14872e-06 -1.25016e-06 -0.000235103
0.00108805 0.000169454 5.91206e-07
0.000169454 0.000454788 -1.9624e-06
5.91206e-07 -1.9624e-06 0.000285485
0.000440299 0.000167162 -2.75516e-06
0.000167162 4.82619e-05 -3.15285e-07
-2.75516e-06 -3.15285e-07 -9.6776e-05
0.0011771 0.000135869 -9.63125e-06
0.000135869 0.000525161 -5.54395e-06
-9.63125e-06 -5.54395e-06 0.000416886
0.000384071 5.26999e-05 3.12647e-07
5.26999e-05 1.75495e-06 -2.57244e-06
3.12647e-07 -2.57244e-06 -0.000123155
-0.000756599 5.35713e-05 3.0032e-07
5.35713e-05 -0.000679506 5.16877e-07
3.0032e-07 5.16877e-07 -0.000832863
0.000661869 6.57559e-05 -7.98868e-07
6.57559e-05 0.000188715 4.86587e-08
-7.98868e-07 4.86587e-08 6.11359e-05
0.000590064 0.000177763 1.47035e-06
0.000177763 0.000188281 1.15781e-06
1.47035e-06 1.15781e-06 3.13432e-05
0.000544373 8.82276e-05 6.87441e-07
8.82276e-05 0.000170703 1.06608e-06
6.87441e-07 1.06608e-06 -1.72406e-05
0.000629926 0.000143508 3.11641e-06
0.000143508 0.000129772 -7.94902e-06
3.11641e-06 -7.94902e-06 4.1691e-05
0.000704024 4.63172e-05 1.13612e-06
4.63172e-05 0.0002601 -5.36269e-06
1.13612e-06 -5.36269e-06 7.93089e-05
-3.18605e-05 7.55104e-05 -3.95976e-07
7.55104e-05 -0.000222279 3.08607e-06
-3.95976e-07 3.08607e-06 -0.000385236
0.000681448 0.000124527 2.31058e-06
0.000124527 0.000198188 4.09951e-06
2.31058e-06 4.09951e-06 6.79903e-05
0.000445984 8.69166e-05 2.75855e-06
8.69166e-05 2.88076e-05 4.11567e-06
2.75855e-06 4.11567e-06 -6.17894e-05
0.000434993 2.04076e-05 -1.55136e-06
2.04076e-05 1.2265e-05 -4.10159e-07
-1.55136e-06 -4.10159e-07 -6.97086e-05
0.00125059 1.29355e-05 1.08294e-06
1.29355e-05 0.000500418 3.36368e-06
1.08294e-06 3.36368e-06 0.000478654
0.000421911 -4.09094e-05 1.07964e-06
-4.09094e-05 -2.58413e-06 -3.62619e-06
1.07964e-06 -3.62619e-06 -8.05915e-05
0.00132936 -9.31887e-07 -8.75118e-06
-9.31887e-07 0.000544775 -1.74395e-06
-8.75118e-06 -1.74395e-06 0.000523806
0.000691022 -1.06908e-05 3.20455e-05
-1.06908e-05 0.000129518 9.83242e-06
3.20455e-05 9.83242e-06 0.000134184
0.00136877 -2.32354e-05 -1.15118e-05
-2.32354e-05 0.000567328 -7.66558e-06
-1.15118e-05 -7.66558e-06 0.000545403
0.000733954 -2.6332e-05 1.31809e-05
-2.6332e-05 0.000152235 3.70185e-06
1.31809e-05 3.70185e-06 0.000153825
0.000739104 -4.07617e-05 1.53944e-06
-4.07617e-05 0.000158385 -4.03757e-06
1.53944e-06 -4.03757e-06 0.000153853
0.000344184 4.93114e-05 -2.2849e-06
4.93114e-05 -7.23383e-05 -5.43262e-06
-2.2849e-06 -5.43262e-06 -0.000105358
0.000397241 6.71578e-05 -1.20393e-06
6.71578e-05 -1.80795e-05 1.51456e-07
-1.20393e-06 1.51456e-07 -6.75572e-05
0.00272527 0.000136413 -2.82299e-06
0.000136413 0.001471 -6.80513e-06
-2.82299e-06 -6.80513e-06 0.00146239
0.000485205 -1.90854e-05 -9.79119e-06
-1.90854e-05 3.11517e-05 1.15712e-05
-9.79119e-06 1.15712e-05 -3.13994e-05
0.00351039 0.00016505 -2.40189e-05
0.00016505 0.00198165 -2.18873e-06
-2.40189e-05 -2.18873e-06 0.00196347
0.00454942 8.20335e-05 -0.000156972
8.20335e-05 0.00264565 1.91477e-05
-0.000156972 1.91477e-05 0.00264486
0.00220115 0.000417969 -5.63726e-07
0.000417969 8.01722e-05 3.69556e-07
-5.63726e-07 3.69556e-07 -8.88809e-06
0.00217063 0.000209859 -2.17126e-06
0.000209859 2.13486e-05 -7.7836e-07
-2.17126e-06 -7.7836e-07 1.6954e-05
0.00223848 0.000326396 2.49646e-06
0.000326396 -5.23718e-05 1.59541e-06
2.49646e-06 1.59541e-06 -2.8863e-05
0.00214896 0.000139846 2.63011e-06
0.000139846 -5.74808e-05 -5.73984e-08
2.63011e-06 -5.73984e-08 -8.67886e-06
0.00209 5.99525e-05 -2.84653e-06
5.99525e-05 5.81114e-06 -3.6931e-07
-2.84653e-06 -3.6931e-07 1.4385e-05
0.00216355 -1.18626e-05 -8.04998e-06
-1.18626e-05 8.06755e-05 -7.77449e-08
-8.04998e-06 -7.77449e-08 5.2941e-05
0.0020691 -1.29223e-05 2.47145e-07
-1.29223e-05 -3.0544e-06 1.12762e-08
2.47145e-07 1.12762e-08 6.6593e-06
0.00216302 6.96824e-05 1.025e-06
6.96824e-05 -4.78308e-05 6.08128e-08
1.025e-06 6.08128e-08 5.07266e-06
0.00224525 0.000219767 1.0277e-06
0.000219767 -4.02328e-05 2.04153e-07
1.0277e-06 2.04153e-07 3.28367e-06
0.00235619 0.000442446 5.32518e-07
0.000442446 5.32529e-06 1.78468e-07
5.32518e-07 1.78468e-07 7.16307e-06
0.00212959 -1.68813e-05 -2.10066e-06
-1.68813e-05 -5.94699e-05 -1.86995e-08
-2.10066e-06 -1.86995e-08 -1.25343e-05
0.00228908 0.000120036 -5.87533e-06
0.000120036 -8.43061e-05 -2.94168e-07
-5.87533e-06 -2.94168e-07 1.24269e-05
0.00251318 0.000333696 -2.74613e-06
0.000333696 -1.39832e-05 -1.45585e-06
-2.74613e-06 -1.45585e-06 5.69826e-05
0.00203754 -9.50387e-05 -2.19898e-06
-9.50387e-05 -3.15396e-05 2.38796e-07
-2.19898e-06 2.38796e-07 -1.9801e-05
0.00214356 -0.000206347 -2.06955e-06
-0.000206347 -3.73049e-06 -1.47275e-07
-2.06955e-06 -1.47275e-07 -1.77987e-07
0.00223489 -0.000394814 -1.19788e-06
-0.000394814 7.31334e-07 -2.76833e-07
-1.19788e-06 -2.76833e-07 -1.20825e-05
0.00184068 -0.000693286 2.56744e-07
-0.000693286 0.000612376 -3.39849e-06
2.56744e-07 -3.39849e-06 0.000128485
0.00167318 -0.000807484 2.07433e-05
-0.000807484 0.000356464 -7.8495e-06
2.07433e-05 -7.8495e-06 -0.00015883
0.00211847 -0.000886944 2.28844e-06
-0.000886944 0.000372381 -1.46114e-06
2.28844e-06 -1.46114e-06 -9.51094e-05
0.00222414 -0.000524938 -1.44599e-06
-0.000524938 8.17194e-05 4.28852e-07
-1.44599e-06 4.28852e-07 1.71353e-06
0.0022844 -0.000696011 8.29458e-06
-0.000696011 0.000184247 2.09832e-06
8.29458e-06 2.09832e-06 1.13146e-06
0.00233043 -0.000741862 7.17515e-06
-0.000741862 0.000343139 -6.72464e-06
7.17515e-06 -6.72464e-06 4.21761e-05
0.000988887 -0.000520386 2.05537e-07
-0.000520386 0.00023077 -1.09288e-06
2.05537e-07 -1.09288e-06 -0.000227824
0.00186264 -0.000629834 5.36971e-06
-0.000629834 0.000802895 -1.22742e-05
5.36971e-06 -1.22742e-05 0.000305554
0.00216659 -0.000406372 -9.80201e-06
-0.000406372 0.00105307 9.23909e-06
-9.80201e-06 9.23909e-06 0.000630488
0.000239939 3.81892e-05 4.95078e-06
3.81892e-05 -0.000110433 3.26244e-06
4.95078e-06 3.26244e-06 -0.000227391
0.00166673 -0.000447253 -9.16018e-07
-0.000447253 0.000781405 1.4606e-06
-9.16018e-07 1.4606e-06 0.000426968
-0.000278411 4.85512e-06 7.19322e-06
4.85512e-06 -0.000355221 -4.93176e-07
7.19322e-06 -4.93176e-07 -0.000650835
0.00215079 -0.000105716 -5.5823e-07
-0.000105716 -4.13249e-05 8.25954e-08
-5.5823e-07 8.25954e-08 -1.63353e-07
0.00228413 -0.000288161 3.47251e-07
-0.000288161 -7.19809e-05 1.20079e-08
3.47251e-07 1.20079e-08 -7.95944e-06
0.00232839 -0.00048859 -7.13275e-07
-0.00048859 -6.46035e-06 3.36229e-07
-7.13275e-07 3.36229e-07 4.88894e-06
0.0020174 -0.000795663 -1.26724e-06
-0.000795663 0.00073182 1.17633e-06
-1.26724e-06 1.17633e-06 0.000204056
0.00171376 -0.000912277 7.964e-06
-0.000912277 0.000372742 -1.94129e-06
7.964e-06 -1.94129e-06 -0.000183702
0.00239098 -0.00092863 -1.87155e-06
-0.00092863 0.000547232 -1.49621e-06
-1.87155e-06 -1.49621e-06 8.37895e-05
0.00236416 -0.000647541 5.71108e-08
-0.000647541 5.98963e-05 -1.50582e-07
5.71108e-08 -1.50582e-07 -3.89807e-06
0.00218688 -0.000791817 2.17428e-06
-0.000791817 0.000189707 -1.2684e-06
2.17428e-06 -1.2684e-06 -7.52541e-05
0.000196493 6.27178e-05 -2.39736e-06
6.27178e-05 -0.000136622 -1.58956e-06
-2.39736e-06 -1.58956e-06 -0.000222878
0.000726212 -5.06077e-05 -1.24808e-06
-5.06077e-05 0.000263129 6.11488e-07
-1.24808e-06 6.11488e-07 5.4164e-05
0.00119897 -0.000594883 -3.17798e-06
-0.000594883 0.000350158 9.64731e-07
-3.17798e-06 9.64731e-07 -0.000119756
0.00168036 -0.000548803 -4.69761e-06
-0.000548803 0.000740324 1.99018e-06
-4.69761e-06 1.99018e-06 0.000201773
0.00109688 -0.000205853 3.46353e-07
-0.000205853 0.000380636 -1.76061e-06
3.46353e-07 -1.76061e-06 2.24446e-05
0.00146827 -0.000304869 -4.04596e-07
-0.000304869 0.000780662 1.90532e-06
-4.04596e-07 1.90532e-06 0.000424886
0.00227649 -0.000142204 -4.44008e-06
-0.000142204 -8.13842e-05 1.43302e-06
-4.44008e-06 1.43302e-06 1.64366e-05
0.00244541 -0.000419395 -1.76725e-06
-0.000419395 -0.000120735 2.23795e-06
-1.76725e-06 2.23795e-06 9.92982e-06
0.00240592 -0.000609494 3.01294e-06
-0.000609494 -1.80471e-05 -1.27863e-06
3.01294e-06 -1.27863e-06 -8.43969e-06
0.00250705 -0.00082388 2.05636e-06
-0.00082388 0.000171602 -2.42772e-06
2.05636e-06 -2.42772e-06 1.45996e-05
0.00096935 -0.000695147 -8.43749e-06
-0.000695147 0.000111922 -4.04068e-06
-8.43749e-06 -4.04068e-06 -0.000384967
0.00243867 -0.000995826 -4.83092e-06
-0.000995826 0.00048051 -2.83927e-06
-4.83092e-06 -2.83927e-06 4.94589e-05
0.00240814 -0.00109736 -5.91274e-05
-0.00109736 0.000698201 3.19048e-06
-5.91274e-05 3.19048e-06 8.45703e-05
0.000552414 4.51389e-05 -2.87007e-07
4.51389e-05 7.21467e-05 -1.32932e-06
-2.87007e-07 -1.32932e-06 6.63327e-06
0.000791775 -0.000167141 3.93417e-06
-0.000167141 0.000300259 -3.38652e-06
3.93417e-06 -3.38652e-06 0.000164695
0.00017906 8.55136e-05 -8.205e-06
8.55136e-05 -9.68278e-05 -1.54364e-06
-8.205e-06 -1.54364e-06 -0.000233099
0.0010811 -9.2817e-05 -4.56211e-06
-9.2817e-05 0.000516414 2.90848e-06
-4.56211e-06 2.90848e-06 0.000242995
-0.000230063 -0.000183575 -3.34238e-07
-0.000183575 -0.000364413 -1.12385e-05
-3.34238e-07 -1.12385e-05 -0.000679769
0.00106178 -0.000283231 3.31151e-06
-0.000283231 0.000447116 -1.02871e-05
3.31151e-06 -1.02871e-05 -1.00867e-05
0.00153628 -0.00066409 -2.49852e-05
-0.00066409 0.00055719 3.62867e-05
-2.49852e-05 3.62867e-05 8.07677e-05
0.00244987 -0.000588578 -1.83586e-05
-0.000588578 0.00139112 1.7203e-05
-1.83586e-05 1.7203e-05 0.000640905
9.22597e-05 7.20676e-05 3.16958e-07
7.20676e-05 -0.00020593 -2.834e-07
3.16958e-07 -2.834e-07 -0.00036101
0.0014942 0.000274068 -1.22561e-07
0.000274068 0.000730494 1.18654e-06
-1.22561e-07 1.18654e-06 0.000419235
0.00240636 0.000616365 -5.61802e-07
0.000616365 0.000141427 -8.23492e-07
-5.61802e-07 -8.23492e-07 6.80021e-06
0.000814851 0.000197792 -6.06976e-06
0.000197792 -3.30632e-05 -3.0274e-06
-6.06976e-06 -3.0274e-06 -0.00028222
0.00119715 0.000549631 -2.81487e-06
0.000549631 0.000343443 -1.01533e-06
-2.81487e-06 -1.01533e-06 -8.5183e-05
0.00219197 0.000519852 -7.26522e-06
0.000519852 0.000768393 1.35271e-06
-7.26522e-06 1.35271e-06 0.000423812
0.00256809 0.000747043 -5.67005e-06
0.000747043 0.000496709 3.07671e-07
-5.67005e-06 3.07671e-07 0.000185073
0.00267697 0.000757754 -7.54964e-06
0.000757754 0.000432394 6.5444e-06
-7.54964e-06 6.5444e-06 0.000151944
0.00159927 0.000809794 -5.42022e-06
0.000809794 0.00042008 1.81122e-06
-5.42022e-06 1.81122e-06 -0.000108936
0.0020078 0.000952086 -1.18656e-05
0.000952086 0.000406957 1.10795e-07
-1.18656e-05 1.10795e-07 -9.5568e-05
-0.000184069 8.01001e-05 1.50902e-06
8.01001e-05 -0.000316224 1.58653e-06
1.50902e-06 1.58653e-06 -0.00052727
0.000287836 0.000306787 4.02536e-06
0.000306787 4.16993e-05 -2.36688e-06
4.02536e-06 -2.36688e-06 -0.000320562
0.0015096 0.000650865 1.40637e-06
0.000650865 0.000446552 -1.32286e-07
1.40637e-06 -1.32286e-07 -1.78248e-05
0.00201331 0.000488162 -5.27542e-06
0.000488162 0.00067683 1.18431e-06
-5.27542e-06 1.18431e-06 0.000353562
0.00252063 0.000576228 2.8896e-07
0.000576228 -0.000128441 -9.84713e-07
2.8896e-07 -9.84713e-07 -5.22308e-05
0.00265657 0.000743505 3.23489e-06
0.000743505 0.000325217 -2.45083e-07
3.23489e-06 -2.45083e-07 0.000104612
0.00227297 0.000856282 -3.10011e-06
0.000856282 0.000348066 -2.61315e-08
-3.10011e-06 -2.61315e-08 -5.71638e-05
0.00203021 0.000938628 2.0094e-06
0.000938628 0.000514738 3.4884e-07
2.0094e-06 3.4884e-07 -3.56724e-05
-0.000633585 3.47281e-05 -5.07919e-06
3.47281e-05 -0.000579329 6.94603e-07
-5.07919e-06 6.94603e-07 -0.000764789
0.00243464 0.000419522 4.2698e-06
0.000419522 -0.000206949 -1.43267e-07
4.2698e-06 -1.43267e-07 -9.4076e-05
0.00228012 0.000579892 -1.6857e-07
0.000579892 0.00123938 9.76471e-06
-1.6857e-07 9.76471e-06 0.00082652
0.00168666 0.000667419 1.67301e-06
0.000667419 0.000478266 -3.99794e-06
1.67301e-06 -3.99794e-06 2.92898e-05
0.00261159 0.00072757 -1.41428e-05
0.00072757 7.99578e-05 -9.3013e-06
-1.41428e-05 -9.3013e-06 5.99604e-05
0.00133954 0.000796513 4.07101e-06
0.000796513 -0.000296988 -1.02361e-05
4.07101e-06 -1.02361e-05 -0.000673275
0.00298935 0.0010807 2.69927e-06
0.0010807 0.00100438 3.11481e-06
2.69927e-06 3.11481e-06 0.00042527
0.000577795 0.000145083 -2.67052e-07
0.000145083 0.000147403 -2.20579e-07
-2.67052e-07 -2.20579e-07 -4.77995e-06
0.000479713 0.000129351 -2.89257e-06
0.000129351 0.000105775 -1.35883e-06
-2.89257e-06 -1.35883e-06 -8.26831e-06
0.000389084 9.6447e-05 -3.44405e-06
9.6447e-05 7.38387e-05 -1.80077e-07
-3.44405e-06 -1.80077e-07 -5.7193e-06
0.000372142 9.05369e-06 1.32626e-06
9.05369e-06 6.84237e-07 -3.55868e-06
1.32626e-06 -3.55868e-06 -0.000123264
0.000498806 8.94127e-05 2.69405e-06
8.94127e-05 0.000139422 -3.48616e-06
2.69405e-06 -3.48616e-06 -4.63161e-05
-0.000594476 0.000131944 -4.32082e-06
0.000131944 -0.000514994 9.88427e-06
-4.32082e-06 9.88427e-06 -0.000660668
0.00050854 2.68382e-05 -1.68246e-06
2.68382e-05 9.08792e-05 -4.63365e-08
-1.68246e-06 -4.63365e-08 -4.10037e-05
0.000248725 -6.71881e-07 -6.68465e-07
-6.71881e-07 -2.41376e-05 -3.16732e-07
-6.68465e-07 -3.16732e-07 -0.000201164
4.26265e-06 8.02082e-05 -4.00093e-06
8.02082e-05 -0.000229657 2.7871e-06
-4.00093e-06 2.7871e-06 -0.000303191
0.000725357 0.000134878 1.47356e-06
0.000134878 0.000285113 -1.36093e-06
1.47356e-06 -1.36093e-06 9.53457e-05
0.00185793 0.000188159 -1.47612e-06
0.000188159 0.000896387 -6.50854e-06
-1.47612e-06 -6.50854e-06 0.000841724
6.1633e-06 2.52905e-05 1.18145e-05
2.52905e-05 -0.000219683 -1.06794e-05
1.18145e-05 -1.06794e-05 -0.000315178
0.000439577 0.000125583 7.56441e-07
0.000125583 0.000114155 3.25277e-06
7.56441e-07 3.25277e-06 -8.11941e-05
0.000510266 6.83299e-05 8.37223e-07
6.83299e-05 0.000121201 4.0411e-06
8.37223e-07 4.0411e-06 -6.24999e-05
0.000527543 2.43568e-05 2.26885e-06
2.43568e-05 8.90274e-05 3.42566e-06
2.26885e-06 3.42566e-06 -4.38537e-05
0.000487176 -7.06406e-05 -1.47054e-06
-7.06406e-05 4.77989e-05 3.08478e-06
-1.47054e-06 3.08478e-06 -4.11815e-05
0.00046595 1.59121e-05 7.21108e-07
1.59121e-05 2.8974e-05 -4.6922e-07
7.21108e-07 -4.6922e-07 -5.35826e-05
0.00131693 2.89612e-05 3.66792e-06
2.89612e-05 0.000549142 3.61449e-06
3.66792e-06 3.61449e-06 0.000526435
0.000465846 1.47871e-05 6.22093e-07
1.47871e-05 1.84649e-05 -3.88003e-06
6.22093e-07 -3.88003e-06 -5.47576e-05
0.0013357 1.89354e-05 -8.81581e-06
1.89354e-05 0.000556025 -1.88764e-06
-8.81581e-06 -1.88764e-06 0.000533755
0.000750839 -4.24293e-06 2.74494e-05
-4.24293e-06 0.000173319 9.35316e-06
2.74494e-05 9.35316e-06 0.000177243
0.00134099 -1.2828e-05 -9.5567e-06
-1.2828e-05 0.000551592 -7.39266e-06
-9.5567e-06 -7.39266e-06 0.000531579
0.000755393 -1.67077e-05 1.0798e-05
-1.67077e-05 0.000167725 3.69077e-06
1.0798e-05 3.69077e-06 0.000170494
0.000736432 -2.96632e-05 1.13714e-06
-2.96632e-05 0.000151889 -3.20619e-06
1.13714e-06 -3.20619e-06 0.00015236
0.00059128 -2.07472e-05 1.05965e-06
-2.07472e-05 9.09999e-05 -2.3775e-06
1.05965e-06 -2.3775e-06 3.14765e-05
0.000346455 3.0465e-05 -6.24427e-07
3.0465e-05 -8.224e-05 -4.71888e-06
-6.24427e-07 -4.71888e-06 -0.000106292
0.000378035 4.59953e-05 6.34237e-07
4.59953e-05 -4.97781e-05 3.71077e-07
6.34237e-07 3.71077e-07 -8.34144e-05
0.0025747 0.000107799 5.82597e-06
0.000107799 0.00136188 -5.60724e-06
5.82597e-06 -5.60724e-06 0.00136127
0.00037954 4.28215e-05 2.87405e-06
4.28215e-05 -4.12026e-05 8.70446e-06
2.87405e-06 8.70446e-06 -8.54692e-05
0.00299683 0.000151724 -4.73646e-06
0.000151724 0.00164859 -5.53055e-07
-4.73646e-06 -5.53055e-07 0.00163652
0.00378066 0.000116909 -6.71313e-05
0.000116909 0.00214202 8.04986e-06
-6.71313e-05 8.04986e-06 0.00213426
0.00233232 0.00042976 2.7331e-06
0.00042976 -1.64018e-05 1.048e-06
2.7331e-06 1.048e-06 -1.16967e-05
0.00222756 0.00022637 2.60803e-06
0.00022637 -5.40983e-05 6.08242e-07
2.60803e-06 6.08242e-07 -7.01294e-06
0.00214779 7.34469e-05 1.82771e-06
7.34469e-05 -5.2954e-05 -1.77773e-07
1.82771e-06 -1.77773e-07 -2.02701e-06
0.00207711 -1.13439e-05 -3.19374e-06
-1.13439e-05 3.42253e-06 -1.36654e-07
-3.19374e-06 -1.36654e-07 1.40311e-05
0.00214337 -1.17493e-05 -8.00352e-07
-1.17493e-05 -5.28281e-05 -1.50939e-08
-8.00352e-07 -1.50939e-08 -2.52613e-06
0.002282 0.000114314 3.65374e-07
0.000114314 -8.03996e-05 6.53439e-07
3.65374e-07 6.53439e-07 1.39169e-05
0.00241427 0.000342071 -9.58888e-07
0.000342071 -6.01821e-05 -3.08603e-07
-9.58888e-07 -3.08603e-07 1.02292e-05
0.00225241 -1.22167e-05 -4.89072e-06
-1.22167e-05 -0.000108767 4.91298e-07
-4.89072e-06 4.91298e-07 4.15999e-07
0.00256949 0.000168718 -4.29849e-06
0.000168718 -5.4967e-05 -2.96311e-06
-4.29849e-06 -2.96311e-06 5.98047e-05
0.00249712 0.000136408 4.8644e-06
0.000136408 -6.40656e-05 7.32554e-06
4.8644e-06 7.32554e-06 5.48559e-05
0.00216694 -0.000102327 8.73845e-07
-0.000102327 -2.98858e-05 1.01146e-07
8.73845e-07 1.01146e-07 9.02797e-06
0.00226231 -0.000298491 3.3516e-07
-0.000298491 -9.16718e-05 -1.38122e-06
3.3516e-07 -1.38122e-06 -2.40394e-05
0.00232853 -0.000479388 1.11834e-07
-0.000479388 -1.55414e-06 -8.96947e-07
1.11834e-07 -8.96947e-07 8.41719e-06
0.00130797 -0.000715574 5.25301e-06
-0.000715574 0.000290744 -4.44803e-07
5.25301e-06 -4.44803e-07 -0.000217681
0.00186341 -0.000931107 3.59435e-05
-0.000931107 0.000453102 -4.22837e-06
3.59435e-05 -4.22837e-06 -0.000107068
0.00239603 -0.000904981 1.40649e-05
-0.000904981 0.000551742 -3.994e-06
1.40649e-05 -3.994e-06 0.000105926
0.00234796 -0.000653998 3.34419e-06
-0.000653998 5.92476e-05 1.45143e-06
3.34419e-06 1.45143e-06 -1.72492e-05
0.00223715 -0.000778083 1.39932e-05
-0.000778083 0.000242582 2.80948e-06
1.39932e-05 2.80948e-06 -1.39006e-05
0.000730981 -0.000526115 6.74682e-06
-0.000526115 9.11439e-05 -2.0204e-05
6.74682e-06 -2.0204e-05 -0.000380231
0.00122892 -0.000457193 5.14585e-06
-0.000457193 0.000527623 -1.97594e-05
5.14585e-06 -1.97594e-05 -1.22947e-05
-0.000108213 -0.000137651 -5.3767e-06
-0.000137651 -0.000410998 6.10922e-06
-5.3767e-06 6.10922e-06 -0.000748256
0.000436467 1.42265e-05 2.46587e-06
1.42265e-05 1.4592e-05 2.58501e-06
2.46587e-06 2.58501e-06 -6.78947e-05
0.000233554 4.12976e-06 7.44017e-06
4.12976e-06 -6.45953e-05 8.8302e-07
7.44017e-06 8.8302e-07 -0.000258675
0.000975704 -0.000244101 -3.82175e-07
-0.000244101 0.000459896 6.87521e-06
-3.82175e-07 6.87521e-06 0.000107621
0.00227505 -0.000145037 4.31306e-07
-0.000145037 -9.34858e-05 3.08405e-07
4.31306e-07 3.08405e-07 8.08925e-06
0.000461533 2.64957e-06 1.90102e-06
2.64957e-06 1.33018e-05 3.69882e-07
1.90102e-06 3.69882e-07 -5.20217e-05
0.000358705 -8.54232e-05 -3.53195e-06
-8.54232e-05 -1.74967e-05 -9.79493e-07
-3.53195e-06 -9.79493e-07 -0.000127358
0.00241606 -0.000406622 -3.31907e-07
-0.000406622 -0.000110845 -1.70228e-07
-3.31907e-07 -1.70228e-07 4.22291e-06
0.00237933 -0.000593378 -1.91905e-06
-0.000593378 -1.78442e-05 6.57609e-07
-1.91905e-06 6.57609e-07 -1.5604e-06
0.00201503 -0.000848488 1.13587e-06
-0.000848488 0.000728965 1.88002e-06
1.13587e-06 1.88002e-06 0.000186997
0.00220593 -0.00107119 1.00211e-05
-0.00107119 0.000592946 -9.50557e-07
1.00211e-05 -9.50557e-07 -1.56444e-05
0.0024257 -0.000992958 2.05369e-06
-0.000992958 0.000461016 -4.16047e-06
2.05369e-06 -4.16047e-06 3.98842e-05
0.002452 -0.000821616 2.46579e-06
-0.000821616 0.000136436 -4.95465e-07
2.46579e-06 -4.95465e-07 -1.41968e-05
0.000562343 9.51982e-06 -1.42127e-06
9.51982e-06 0.000156176 -1.35334e-06
-1.42127e-06 -1.35334e-06 1.39883e-05
0.000799844 -7.78795e-05 1.58514e-06
-7.78795e-05 0.000332443 2.16969e-06
1.58514e-06 2.16969e-06 6.4678e-05
0.0014446 -0.000638963 1.04367e-05
-0.000638963 0.000545027 1.07096e-05
1.04367e-05 1.07096e-05 7.10519e-05
0.00120793 -0.00046203 1.89803e-05
-0.00046203 0.000599574 -1.04651e-05
1.89803e-05 -1.04651e-05 -6.09986e-05
0.000929537 -0.000209716 -2.27334e-06
-0.000209716 0.000312363 -5.09817e-07
-2.27334e-06 -5.09817e-07 -8.88872e-05
-5.8626e-05 -0.000171366 1.81137e-06
-0.000171366 -0.000241534 -2.46495e-06
1.81137e-06 -2.46495e-06 -0.000565664
0.00228888 -0.000169957 -3.97722e-06
-0.000169957 -0.000272942 4.86933e-06
-3.97722e-06 4.86933e-06 -0.00012724
0.00245891 -0.000530729 1.41985e-06
-0.000530729 -0.000245305 3.53179e-06
1.41985e-06 3.53179e-06 1.44098e-06
0.00273434 -0.00084304 -6.20537e-06
-0.00084304 0.000125594 -3.84483e-06
-6.20537e-06 -3.84483e-06 8.50711e-05
0.00272758 -0.00106929 1.14499e-05
-0.00106929 0.000391084 -1.97102e-06
1.14499e-05 -1.97102e-06 0.000107089
0.000871004 -0.000770946 -2.3671e-06
-0.000770946 0.000134311 -1.14729e-05
-2.3671e-06 -1.14729e-05 -0.000415377
0.00356616 -0.0013388 -1.2091e-05
-0.0013388 0.00122457 3.23734e-06
-1.2091e-05 3.23734e-06 0.000579653
0.000215039 6.49851e-05 -3.47647e-06
6.49851e-05 -0.000109273 -6.18385e-06
-3.47647e-06 -6.18385e-06 -0.000223769
0.000416394 -5.40804e-05 5.96583e-06
-5.40804e-05 2.25636e-05 -8.95764e-07
5.96583e-06 -8.95764e-07 -7.80049e-05
0.00169659 -0.000221914 -6.40423e-06
-0.000221914 0.000793059 1.73291e-05
-6.40423e-06 1.73291e-05 0.000650025
0.000288741 2.22869e-05 -4.15258e-06
2.22869e-05 -4.25942e-05 3.00242e-06
-4.15258e-06 3.00242e-06 -0.000229963
0.00100193 -0.000173456 -6.95475e-06
-0.000173456 0.000453135 9.61889e-06
-6.95475e-06 9.61889e-06 0.000149238
0.000989874 -9.10457e-05 9.73448e-06
-9.10457e-05 0.000323125 -2.08439e-05
9.73448e-06 -2.08439e-05 4.19795e-05
-0.00211193 -0.000260461 -1.77953e-06
-0.000260461 -0.00102468 -3.36452e-06
-1.77953e-06 -3.36452e-06 -0.00196091
0.000970794 -0.000799048 -4.91018e-05
-0.000799048 0.000127056 3.0231e-05
-4.91018e-05 3.0231e-05 -0.000259105
0.000267961 0.000168883 -1.53049e-07
0.000168883 1.03876e-05 -1.47814e-06
-1.53049e-07 -1.47814e-06 -0.000245966
0.00280442 0.000484393 -1.58048e-05
0.000484393 0.00158782 -8.1963e-06
-1.58048e-05 -8.1963e-06 0.00123185
0.00248814 0.000551093 -4.73252e-06
0.000551093 -0.00016873 -5.68618e-07
-4.73252e-06 -5.68618e-07 -7.59682e-05
0.00271835 0.000757511 -6.24224e-06
0.000757511 0.000362297 -9.59518e-07
-6.24224e-06 -9.59518e-07 0.000127761
0.00278073 0.000522208 -7.01771e-06
0.000522208 0.00116708 1.41776e-06
-7.01771e-06 1.41776e-06 0.000848666
0.00141859 0.000653587 -9.16619e-06
0.000653587 0.000365725 -1.72192e-06
-9.16619e-06 -1.72192e-06 -0.00010723
0.002179 0.000828297 -5.91129e-06
0.000828297 0.000319104 2.71742e-06
-5.91129e-06 2.71742e-06 -7.53667e-05
0.0024594 0.000975017 -9.15746e-06
0.000975017 0.000752008 -3.31641e-07
-9.15746e-06 -3.31641e-07 0.00020375
0.000121526 0.000155084 1.87933e-06
0.000155084 -6.12638e-05 -5.58745e-07
1.87933e-06 -5.58745e-07 -0.000299667
0.0024888 0.000402942 -1.27904e-06
0.000402942 -0.000172827 -2.58683e-06
-1.27904e-06 -2.58683e-06 -4.98805e-05
0.00148778 0.000432056 2.96544e-06
0.000432056 0.000745161 4.7994e-06
2.96544e-06 4.7994e-06 0.000386302
0.00157677 0.000642846 2.86315e-06
0.000642846 0.000435214 1.96321e-06
2.86315e-06 1.96321e-06 -6.45684e-06
0.00271033 0.000713701 9.25476e-07
0.000713701 0.000166816 -2.07626e-07
9.25476e-07 -2.07626e-07 0.000142371
0.00190394 0.000859962 -2.18404e-06
0.000859962 3.51958e-05 -5.47105e-06
-2.18404e-06 -5.47105e-06 -0.000351129
0.00237174 0.000979479 -6.63566e-07
0.000979479 0.000672309 -2.59891e-07
-6.63566e-07 -2.59891e-07 0.000116307
0.00178952 0.00039832 -4.26712e-06
0.00039832 0.00109405 -1.9555e-06
-4.26712e-06 -1.9555e-06 0.000772345
0.0038792 0.000658138 -9.02512e-05
0.000658138 0.000610091 -2.99759e-05
-9.02512e-05 -2.99759e-05 0.000838319
0.000586956 0.000506456 -1.08643e-05
0.000506456 0.000143991 7.6938e-06
-1.08643e-05 7.6938e-06 -0.000262534
0.00144061 0.000715969 -6.17338e-06
0.000715969 0.000307563 -1.04648e-05
-6.17338e-06 -1.04648e-05 -0.000192482
0.00292675 0.000980751 -3.78444e-05
0.000980751 0.000455659 -2.29481e-05
-3.78444e-05 -2.29481e-05 0.000199204
0.00120506 0.000846904 -2.82516e-05
0.000846904 -1.74004e-05 -4.49827e-06
-2.82516e-05 -4.49827e-06 -0.000516363
0.00109449 0.0011835 2.5829e-05
0.0011835 -0.00197901 -4.79424e-05
2.5829e-05 -4.79424e-05 -0.00124822
0.000154851 0.000164519 6.74055e-06
0.000164519 -5.60958e-05 2.6081e-06
6.74055e-06 2.6081e-06 -0.000187101
0.000410571 0.000129111 3.17406e-06
0.000129111 0.000124685 1.9601e-06
3.17406e-06 1.9601e-06 2.8528e-05
0.00083766 0.00014383 1.8149e-06
0.00014383 0.000362575 -2.34781e-06
1.8149e-06 -2.34781e-06 0.000277928
0.000376965 -6.59735e-05 1.33801e-06
-6.59735e-05 1.38007e-05 -4.79007e-06
1.33801e-06 -4.79007e-06 -0.000121007
0.000284186 -2.01661e-05 -4.10637e-07
-2.01661e-05 -3.42778e-06 -2.83935e-06
-4.10637e-07 -2.83935e-06 -0.000179256
0.00146625 0.00024964 -2.25716e-07
0.00024964 0.000758265 -3.23217e-07
-2.25716e-07 -3.23217e-07 0.000555631
-0.000498082 4.9518e-05 -7.48844e-06
4.9518e-05 -0.000517206 1.96647e-05
-7.48844e-06 1.96647e-05 -0.000586464
0.00049129 -1.73615e-05 -1.52e-07
-1.73615e-05 8.45875e-05 -2.46822e-07
-1.52e-07 -2.46822e-07 -5.82386e-05
0.000409061 8.39528e-05 1.79653e-07
8.39528e-05 3.15756e-05 -6.78434e-07
1.79653e-07 -6.78434e-07 -0.000131097
0.000882601 0.000143978 3.91348e-06
0.000143978 0.000289038 3.96324e-06
3.91348e-06 3.96324e-06 0.000242793
0.000352446 8.03185e-05 1.3711e-06
8.03185e-05 3.21755e-05 8.27683e-07
1.3711e-06 8.27683e-07 -0.000146116
0.000608424 7.98272e-05 -1.77327e-07
7.98272e-05 0.000151259 -2.08444e-06
-1.77327e-07 -2.08444e-06 4.19406e-05
0.0011746 0.000150016 -3.55488e-06
0.000150016 0.000531984 -1.52322e-05
-3.55488e-06 -1.52322e-05 0.000462213
0.000835119 0.000158742 -2.93372e-06
0.000158742 0.000266521 -4.8643e-06
-2.93372e-06 -4.8643e-06 0.000116113
0.000965374 0.000146685 1.85735e-06
0.000146685 0.00041061 3.13717e-06
1.85735e-06 3.13717e-06 0.00022076
0.000886889 0.000124621 -7.86697e-07
0.000124621 0.000352197 9.86311e-07
-7.86697e-07 9.86311e-07 0.000161672
0.000209724 -2.53634e-05 -1.83979e-06
-2.53634e-05 -0.00012042 1.42681e-06
-1.83979e-06 1.42681e-06 -0.000255307
0.00133796 -0.000122325 1.21391e-06
-0.000122325 0.000708021 -2.02934e-06
1.21391e-06 -2.02934e-06 0.000478646
7.84415e-05 -5.1996e-05 -3.80385e-07
-5.1996e-05 -0.000195497 3.41111e-06
-3.80385e-07 3.41111e-06 -0.000335293
0.000408798 2.44577e-06 -2.03694e-06
2.44577e-06 4.53085e-06 2.90179e-06
-2.03694e-06 2.90179e-06 -8.7923e-05
0.000433786 4.1939e-05 2.49687e-06
4.1939e-05 1.896e-05 -1.0641e-07
2.49687e-06 -1.0641e-07 -7.25325e-05
0.000345175 2.08945e-05 -1.2732e-06
2.08945e-05 -6.56388e-05 4.84303e-06
-1.2732e-06 4.84303e-06 -9.28436e-05
0.000375627 1.86007e-06 -1.6323e-06
1.86007e-06 -1.68949e-05 -4.20107e-06
-1.6323e-06 -4.20107e-06 -0.000106721
0.000864686 1.7027e-05 -4.14706e-06
1.7027e-05 0.000261466 -1.51327e-06
-4.14706e-06 -1.51327e-06 0.000237029
0.00266126 9.6813e-07 2.55698e-05
9.6813e-07 0.00139529 5.82957e-06
2.55698e-05 5.82957e-06 0.00140755
0.00141592 4.08054e-05 -1.44831e-05
4.08054e-05 0.000609167 -7.5938e-06
-1.44831e-05 -7.5938e-06 0.000586073
0.000764952 -7.34285e-06 1.00916e-05
-7.34285e-06 0.000178633 3.6396e-06
1.00916e-05 3.6396e-06 0.000181703
0.000832514 -2.00214e-05 1.11849e-06
-2.00214e-05 0.000212881 -3.02819e-06
1.11849e-06 -3.02819e-06 0.000214994
0.000437502 1.21427e-05 -2.44275e-06
1.21427e-05 9.6747e-07 -3.35554e-06
-2.44275e-06 -3.35554e-06 -5.80011e-05
0.000533339 -3.6348e-05 6.10995e-07
-3.6348e-05 5.82239e-05 -3.39503e-07
6.10995e-07 -3.39503e-07 -3.7066e-06
0.000456601 2.33546e-05 1.36557e-07
2.33546e-05 -1.97617e-05 -4.0673e-06
1.36557e-07 -4.0673e-06 -3.83423e-05
0.000791974 4.52886e-05 1.77546e-08
4.52886e-05 0.000205018 1.59392e-07
1.77546e-08 1.59392e-07 0.00018167
0.00237708 8.29142e-05 4.83236e-06
8.29142e-05 0.00122661 -5.1846e-06
4.83236e-06 -5.1846e-06 0.00123205
0.000467321 6.61054e-05 6.03164e-06
6.61054e-05 1.77495e-05 7.22654e-06
6.03164e-06 7.22654e-06 -2.21876e-05
0.00260504 0.000113596 -2.57924e-06
0.000113596 0.00138339 -2.58273e-07
-2.57924e-06 -2.58273e-07 0.00138132
0.00309093 0.000143486 5.06906e-06
0.000143486 0.00170467 8.09571e-06
5.06906e-06 8.09571e-06 0.00169402
0.00230346 0.000349769 2.37893e-06
0.000349769 -0.000117603 1.69212e-06
2.37893e-06 1.69212e-06 -4.63119e-05
0.00227153 0.000109765 6.49565e-06
0.000109765 -7.88634e-05 -2.21297e-07
6.49565e-06 -2.21297e-07 1.39863e-05
0.00215143 -7.39779e-06 1.60328e-06
-7.39779e-06 -5.0577e-05 -1.82509e-07
1.60328e-06 -1.82509e-07 3.19929e-06
0.00224165 -6.69217e-06 1.43139e-08
-6.69217e-06 -0.000113552 -4.41628e-07
1.43139e-08 -4.41628e-07 -4.5369e-06
0.00248514 0.000176153 7.33106e-07
0.000176153 -9.45577e-05 3.46798e-07
7.33106e-07 3.46798e-07 1.9481e-05
0.00260992 0.000117385 7.37328e-06
0.000117385 7.16364e-06 -5.77993e-06
7.37328e-06 -5.77993e-06 0.000113171
0.00260769 1.30465e-05 -1.10963e-05
1.30465e-05 -0.000118726 -3.06402e-06
-1.10963e-05 -3.06402e-06 4.65006e-05
0.00500852 0.00120117 7.94173e-05
0.00120117 -0.000845532 9.76843e-06
7.94173e-05 9.76843e-06 0.000233801
0.00302918 0.000104787 -2.58141e-05
0.000104787 0.000400969 2.59676e-05
-2.58141e-05 2.59676e-05 0.000665667
0.000486289 0.00012041 -3.56014e-06
0.00012041 7.07874e-05 -2.42751e-06
-3.56014e-06 -2.42751e-06 -3.79942e-05
0.00227215 -0.000147608 4.05139e-06
-0.000147608 -0.000105044 -2.21101e-06
4.05139e-06 -2.21101e-06 -6.56363e-07
0.00239398 -0.000395465 2.04765e-06
-0.000395465 -9.87595e-05 -1.44593e-06
2.04765e-06 -1.44593e-06 1.14477e-06
0.0023629 -0.000582181 -3.91379e-07
-0.000582181 -1.84731e-05 6.00575e-07
-3.91379e-07 6.00575e-07 7.4478e-06
0.00171827 -0.000832433 -2.47352e-06
-0.000832433 0.000559545 8.15478e-06
-2.47352e-06 8.15478e-06 2.24235e-05
0.00229683 -0.0010586 3.57567e-05
-0.0010586 0.000660283 6.14624e-06
3.57567e-05 6.14624e-06 6.37933e-05
0.001709 -0.000907144 1.73074e-06
-0.000907144 5.64766e-05 7.77261e-07
1.73074e-06 7.77261e-07 -0.000340387
0.00240505 -0.000820634 1.19539e-06
-0.000820634 0.000104917 -6.88162e-07
1.19539e-06 -6.88162e-07 -3.7219e-05
0.00135961 -0.000601084 2.93833e-05
-0.000601084 0.000404107 -4.66647e-05
2.93833e-05 -4.66647e-05 -5.2558e-07
0.00220607 -0.000617078 1.11071e-05
-0.000617078 0.00111383 -5.35275e-05
1.11071e-05 -5.35275e-05 0.00048723
0.00118844 -0.000188277 4.50122e-06
-0.000188277 0.000439565 1.29502e-05
4.50122e-06 1.29502e-05 7.11019e-05
0.000450783 8.65451e-06 3.14266e-06
8.65451e-06 8.26828e-06 2.22398e-06
3.14266e-06 2.22398e-06 -5.84399e-05
0.00138934 -0.000209827 1.85461e-06
-0.000209827 0.000680045 1.12512e-05
1.85461e-06 1.12512e-05 0.000335336
0.000968131 -4.05666e-05 7.81065e-06
-4.05666e-05 0.000437768 -7.45822e-08
7.81065e-06 -7.45822e-08 0.000283147
0.000450832 -6.03472e-05 2.92649e-06
-6.03472e-05 9.33625e-05 -2.03225e-06
2.92649e-06 -2.03225e-06 -0.000162012
-7.9122e-05 -3.84256e-05 -4.47659e-06
-3.84256e-05 -0.00031055 5.05172e-07
-4.47659e-06 5.05172e-07 -0.000411067
0.00239915 -0.000193414 1.08081e-07
-0.000193414 -0.00023055 9.86814e-07
1.08081e-07 9.86814e-07 -5.88506e-05
0.000335835 3.96644e-05 6.39854e-07
3.96644e-05 -1.94866e-05 -2.86717e-06
6.39854e-07 -2.86717e-06 -0.000139152
0.000618633 -8.02126e-05 3.2335e-06
-8.02126e-05 0.000178543 1.40607e-06
3.2335e-06 1.40607e-06 6.0833e-05
0.00106911 -0.000155124 6.84874e-06
-0.000155124 0.000394403 -9.0047e-07
6.84874e-06 -9.0047e-07 0.00027261
0.0024491 -0.000546075 2.15464e-06
-0.000546075 -0.000236433 -9.26571e-07
2.15464e-06 -9.26571e-07 -2.82897e-05
0.00261531 -0.000829901 -5.54169e-08
-0.000829901 6.13445e-05 5.17229e-07
-5.54169e-08 5.17229e-07 2.70847e-05
0.000790787 -0.000664874 6.46644e-06
-0.000664874 5.27219e-05 2.76507e-07
6.46644e-06 2.76507e-07 -0.000412179
0.00265323 -0.00122386 1.79016e-05
-0.00122386 0.000707205 1.49243e-06
1.79016e-05 1.49243e-06 9.80997e-05
0.00259174 -0.00106589 -8.87558e-08
-0.00106589 0.000326231 1.71429e-06
-8.87558e-08 1.71429e-06 3.4208e-05
0.00023106 -2.05696e-05 -3.39315e-07
-2.05696e-05 -8.12822e-05 3.39004e-07
-3.39315e-07 3.39004e-07 -0.000261132
0.00125618 -0.000179812 1.71036e-06
-0.000179812 0.000636452 3.82687e-06
1.71036e-06 3.82687e-06 0.000309434
0.00204971 -0.000942175 -1.20903e-06
-0.000942175 0.000767839 3.11699e-06
-1.20903e-06 3.11699e-06 0.00026197
0.00088491 -0.000351139 -3.7471e-07
-0.000351139 0.000494076 6.25772e-06
-3.7471e-07 6.25772e-06 -0.00021108
0.00114864 -0.000162689 1.99819e-06
-0.000162689 0.000432044 8.76863e-06
1.99819e-06 8.76863e-06 0.000140664
0.00281449 -0.00038109 -1.08065e-05
-0.00038109 -1.7782e-05 1.25731e-05
-1.08065e-05 1.25731e-05 0.000188929
0.0021925 -0.000612364 -1.11317e-05
-0.000612364 -0.000365233 6.73183e-06
-1.11317e-05 6.73183e-06 -7.90633e-05
0.00242395 -0.000972712 -1.36049e-05
-0.000972712 9.82714e-05 -5.6309e-06
-1.36049e-05 -5.6309e-06 -0.000106544
0.00463209 -0.0014427 3.91196e-06
-0.0014427 0.00162068 5.49615e-06
3.91196e-06 5.49615e-06 0.00117854
-0.000350447 -0.000744096 -1.34212e-05
-0.000744096 -0.000689061 1.09969e-05
-1.34212e-05 1.09969e-05 -0.00116352
-6.43527e-05 -2.66468e-05 4.2547e-07
-2.66468e-05 -0.000272738 2.65781e-06
4.2547e-07 2.65781e-06 -0.000391635
0.00105382 -9.96218e-06 -4.38309e-06
-9.96218e-06 0.000334262 1.59457e-05
-4.38309e-06 1.59457e-05 0.000210748
-0.00111936 -0.000191139 -8.48591e-06
-0.000191139 -0.000976675 -2.45793e-07
-8.48591e-06 -2.45793e-07 -0.00107964
0.001923 -0.000318294 -3.71089e-05
-0.000318294 0.00100201 3.18789e-05
-3.71089e-05 3.18789e-05 0.000735125
0.000981769 -0.000157689 -5.09655e-06
-0.000157689 0.000438307 2.84116e-05
-5.09655e-06 2.84116e-05 0.000148264
-0.00190307 -0.000104364 8.76489e-06
-0.000104364 -0.00075871 5.53213e-07
8.76489e-06 5.53213e-07 -0.00156664
0.00089639 -0.000988379 -1.23017e-05
-0.000988379 0.000440826 -7.52499e-06
-1.23017e-05 -7.52499e-06 -0.000303493
0.00176557 0.000420726 -1.11851e-06
0.000420726 0.000975252 -3.82683e-06
-1.11851e-06 -3.82683e-06 0.00069431
0.000201507 0.000244879 -3.50243e-06
0.000244879 -3.34983e-05 -1.81586e-06
-3.50243e-06 -1.81586e-06 -0.000335831
0.002644 0.000381653 8.16719e-06
0.000381653 -7.8641e-05 5.40293e-06
8.16719e-06 5.40293e-06 6.05715e-05
0.00279998 0.00070044 1.38885e-05
0.00070044 0.000238866 8.74929e-06
1.38885e-05 8.74929e-06 0.000215282
0.00236622 0.000911962 6.40198e-06
0.000911962 0.000309004 4.20887e-06
6.40198e-06 4.20887e-06 -8.42434e-05
0.00148544 0.000619667 -2.58867e-06
0.000619667 0.000413845 3.27053e-06
-2.58867e-06 3.27053e-06 -2.1089e-05
0.00174242 0.000880794 1.93782e-06
0.000880794 0.0003339 4.69611e-06
1.93782e-06 4.69611e-06 -0.000199567
0.00236301 0.000442851 2.8452e-07
0.000442851 0.00138217 -1.31289e-07
2.8452e-07 -1.31289e-07 0.00110159
0.00298004 0.000526103 9.96844e-06
0.000526103 0.000126134 4.41773e-06
9.96844e-06 4.41773e-06 0.000405952
0.000938362 0.000469289 -5.62181e-06
0.000469289 0.000327875 5.33806e-06
-5.62181e-06 5.33806e-06 -3.60583e-05
0.00171715 0.000761181 3.18717e-06
0.000761181 0.00051129 -1.92263e-06
3.18717e-06 -1.92263e-06 -1.27278e-05
0.00265572 0.000936595 -2.64791e-06
0.000936595 0.000333709 -4.1422e-06
-2.64791e-06 -4.1422e-06 0.000108186
0.00197188 0.000949903 -5.14334e-06
0.000949903 0.000412499 6.20829e-06
-5.14334e-06 6.20829e-06 -0.000112331
0.00292593 0.00150347 4.14436e-05
0.00150347 -0.00131271 9.73823e-06
4.14436e-05 9.73823e-06 -0.000761126
0.000342437 0.000328503 1.99687e-06
0.000328503 0.000254695 1.21695e-06
1.99687e-06 1.21695e-06 -6.90245e-05
0.00320672 0.000995074 -9.50179e-05
0.000995074 0.000359587 -4.41965e-05
-9.50179e-05 -4.41965e-05 0.000344859
0.000262143 0.000455758 -1.42267e-05
0.000455758 -0.00028312 5.03859e-06
-1.42267e-05 5.03859e-06 -0.000666783
0.000122675 0.000620136 -5.72082e-06
0.000620136 -0.000445961 -2.0575e-05
-5.72082e-06 -2.0575e-05 -0.000925217
0.00184267 0.00106844 -4.59431e-05
0.00106844 8.65868e-05 -2.05447e-05
-4.59431e-05 -2.05447e-05 -0.000270557
0.0156131 0.000651842 -0.000673261
0.000651842 0.00166849 -0.000103575
-0.000673261 -0.000103575 0.00170042
0.0028976 0.00229268 -9.12141e-05
0.00229268 -0.00330465 -8.44259e-05
-9.12141e-05 -8.44259e-05 -0.000997879
0.00138313 0.0018308 2.10353e-05
0.0018308 -0.000640846 -2.73881e-06
2.10353e-05 -2.73881e-06 -0.000860772
0.00474417 -0.0034191 0.00226505
-0.0034191 0.00273675 0.000330555
0.00226505 0.000330555 -0.00208226
0.0276215 -0.0119633 -4.55798e-05
-0.0119633 0.0132151 7.22561e-05
-4.55798e-05 7.22561e-05 0.00707757
0.000716554 0.000165272 6.88053e-06
0.000165272 0.000332505 6.6211e-06
6.88053e-06 6.6211e-06 0.00022265
0.000946598 0.000146391 -2.51297e-06
0.000146391 0.000468799 -2.12889e-06
-2.51297e-06 -2.12889e-06 0.000367245
0.00113836 0.000244649 6.13107e-06
0.000244649 0.000605086 -2.33148e-06
6.13107e-06 -2.33148e-06 0.000461586
0.000505655 -6.1131e-05 4.65264e-07
-6.1131e-05 0.000104704 -2.91486e-06
4.65264e-07 -2.91486e-06 -4.45417e-05
0.000389918 7.17714e-05 -2.81677e-07
7.17714e-05 2.52611e-05 -3.8822e-06
-2.81677e-07 -3.8822e-06 -0.000137099
0.000637649 -1.19724e-05 -5.74239e-07
-1.19724e-05 0.000211496 -1.91812e-06
-5.74239e-07 -1.91812e-06 3.33633e-05
0.00107063 0.000108463 -3.0653e-07
0.000108463 0.000427644 1.18742e-05
-3.0653e-07 1.18742e-05 0.000312172
0.00022429 0.000109087 3.60478e-06
0.000109087 -0.000120742 1.19885e-05
3.60478e-06 1.19885e-05 -0.000159255
0.000796761 0.000170056 -1.26858e-06
0.000170056 0.000346423 5.32786e-08
-1.26858e-06 5.32786e-08 0.000131966
0.000394791 -2.1138e-05 2.79027e-07
-2.1138e-05 8.09516e-06 1.13444e-06
2.79027e-07 1.13444e-06 -0.000133907
0.000697889 6.91061e-05 -8.60051e-07
6.91061e-05 0.000225845 1.41859e-07
-8.60051e-07 1.41859e-07 4.24334e-05
0.000304277 0.000110398 -2.31781e-06
0.000110398 -2.7389e-05 -3.53615e-06
-2.31781e-06 -3.53615e-06 -9.05405e-05
0.000732597 0.000137835 -1.47716e-06
0.000137835 0.000224422 -4.17007e-07
-1.47716e-06 -4.17007e-07 7.52857e-05
0.0023004 0.000286673 -1.25366e-06
0.000286673 0.0012602 -1.13178e-06
-1.25366e-06 -1.13178e-06 0.00104453
0.000171495 0.000105423 -1.03092e-06
0.000105423 -2.48022e-06 -7.28485e-06
-1.03092e-06 -7.28485e-06 -0.000190721
0.000898947 0.000105821 3.46987e-06
0.000105821 0.000392998 -4.9865e-07
3.46987e-06 -4.9865e-07 0.00019783
0.000122462 7.20912e-06 -3.87731e-07
7.20912e-06 -0.000167658 -7.77388e-07
-3.87731e-07 -7.77388e-07 -0.000341312
0.000295172 -7.39417e-05 -4.85449e-07
-7.39417e-05 -5.26252e-05 -2.07052e-07
-4.85449e-07 -2.07052e-07 -0.000194448
0.000356416 -2.1916e-05 -2.42988e-07
-2.1916e-05 5.24791e-06 -2.82126e-06
-2.42988e-07 -2.82126e-06 -0.000165586
0.0013562 -6.84341e-05 2.02373e-06
-6.84341e-05 0.00062863 -1.18128e-05
2.02373e-06 -1.18128e-05 0.000460709
0.000913389 -6.21378e-05 -2.08466e-06
-6.21378e-05 0.000415213 -1.6643e-06
-2.08466e-06 -1.6643e-06 0.000227762
0.000774586 -9.84381e-05 2.06041e-06
-9.84381e-05 0.000302315 -8.69956e-07
2.06041e-06 -8.69956e-07 0.000109645
0.000583044 -0.00012896 -1.31272e-06
-0.00012896 0.00014251 5.10872e-06
-1.31272e-06 5.10872e-06 -6.93143e-06
0.000175293 -2.80855e-05 1.6421e-07
-2.80855e-05 -0.000126394 1.02126e-06
1.6421e-07 1.02126e-06 -0.000272102
0.000496289 -6.79597e-05 -1.39104e-06
-6.79597e-05 5.0573e-05 3.87766e-06
-1.39104e-06 3.87766e-06 -3.62032e-05
0.000488442 -4.61441e-05 2.09341e-06
-4.61441e-05 5.30295e-05 1.22395e-07
2.09341e-06 1.22395e-07 -3.84292e-05
0.000391943 8.68866e-07 3.80756e-06
8.68866e-07 -3.17161e-05 6.67957e-06
3.80756e-06 6.67957e-06 -6.0766e-05
0.000467559 6.07402e-05 -1.50777e-06
6.07402e-05 3.32737e-05 -3.40349e-06
-1.50777e-06 -3.40349e-06 -5.31814e-05
0.000368788 3.1338e-05 4.8036e-07
3.1338e-05 -4.92496e-05 1.04232e-07
4.8036e-07 1.04232e-07 -7.70191e-05
0.00258721 9.43625e-06 1.14879e-05
9.43625e-06 0.00134967 5.53942e-06
1.14879e-05 5.53942e-06 0.00136133
0.000414819 5.49625e-05 -4.59257e-06
5.49625e-05 -2.04541e-05 -7.9838e-06
-4.59257e-06 -7.9838e-06 -5.09965e-05
0.00170112 -2.22556e-06 -7.17084e-06
-2.22556e-06 0.000780754 1.66615e-07
-7.17084e-06 1.66615e-07 0.000787678
0.000807107 -9.34245e-06 7.11749e-07
-9.34245e-06 0.000200562 -2.46093e-06
7.11749e-07 -2.46093e-06 0.000203479
0.000387129 1.67551e-05 -7.19116e-07
1.67551e-05 -4.02877e-05 -2.53044e-06
-7.19116e-07 -2.53044e-06 -8.71144e-05
0.000495968 -4.3289e-05 2.35969e-07
-4.3289e-05 4.22128e-05 1.19474e-07
2.35969e-07 1.19474e-07 -1.91393e-05
0.000490606 9.89582e-06 1.42881e-06
9.89582e-06 -2.15581e-06 -3.76159e-06
1.42881e-06 -3.76159e-06 -1.6322e-05
0.000471782 -4.96017e-05 -8.77916e-07
-4.96017e-05 2.03306e-05 8.13586e-07
-8.77916e-07 8.13586e-07 -4.26695e-05
0.00079705 2.93055e-05 -8.65846e-09
2.93055e-05 0.000199078 -8.00567e-07
-8.65846e-09 -8.00567e-07 0.000182674
0.00211216 5.98283e-05 2.94842e-06
5.98283e-05 0.00104907 -5.02769e-06
2.94842e-06 -5.02769e-06 0.00105997
0.000435036 3.49199e-05 1.32143e-06
3.49199e-05 -2.5605e-05 4.94903e-06
1.32143e-06 4.94903e-06 -5.10949e-05
0.00253077 9.12659e-05 -3.95801e-06
9.12659e-05 0.00132908 1.37436e-06
-3.95801e-06 1.37436e-06 0.00133245
0.00277463 0.000125237 1.21781e-05
0.000125237 0.00149592 7.77572e-06
1.21781e-05 7.77572e-06 0.00149133
0.00241658 0.000186744 4.86515e-06
0.000186744 -0.000119993 6.59832e-07
4.86515e-06 6.59832e-07 -6.88041e-06
0.00223502 -3.07642e-06 5.13209e-06
-3.07642e-06 -0.000116024 -8.8893e-07
5.13209e-06 -8.8893e-07 -7.5202e-06
0.00232421 8.41458e-05 -3.9181e-07
8.41458e-05 -0.000200335 7.69205e-06
-3.9181e-07 7.69205e-06 -9.30116e-05
0.00269079 0.000921608 0.000117336
0.000921608 -0.00204626 2.92316e-05
0.000117336 2.92316e-05 -0.000862677
0.002549 -2.23045e-05 -6.84591e-07
-2.23045e-05 -0.00013309 -1.75086e-06
-6.84591e-07 -1.75086e-06 3.00535e-05
0.00252426 8.92565e-05 -4.84601e-06
8.92565e-05 8.19295e-05 -7.65325e-06
-4.84601e-06 -7.65325e-06 0.000285585
0.00245471 -5.18773e-05 -3.58738e-05
-5.18773e-05 0.000109833 -2.70323e-06
-3.58738e-05 -2.70323e-06 0.000203145
0.00331473 0.000476659 -6.0572e-05
0.000476659 -0.00240743 -4.862e-05
-6.0572e-05 -4.862e-05 -0.00081244
0.00273405 0.00030232 0.000153644
0.00030232 -0.00110401 6.28775e-05
0.000153644 6.28775e-05 -0.00040735
0.00057313 9.40894e-05 3.23155e-07
9.40894e-05 0.000128277 -2.13151e-06
3.23155e-07 -2.13151e-06 2.19088e-05
0.000566772 -3.7119e-06 -1.96762e-07
-3.7119e-06 0.000136543 -1.49064e-07
-1.96762e-07 -1.49064e-07 1.8777e-05
0.000278061 -9.5133e-05 -6.77157e-06
-9.5133e-05 -4.19567e-05 2.23498e-06
-6.77157e-06 2.23498e-06 -0.000167594
0.000320919 -5.45128e-05 -3.72683e-06
-5.45128e-05 -6.64182e-06 1.12107e-06
-3.72683e-06 1.12107e-06 -0.000134841
0.00245813 -0.00021257 5.183e-07
-0.00021257 -0.000214881 -7.37065e-06
5.183e-07 -7.37065e-06 -2.4869e-05
0.00242389 -0.000553409 -1.9567e-06
-0.000553409 -0.000222888 -2.28392e-06
-1.9567e-06 -2.28392e-06 -5.71386e-05
0.00251423 -0.000818623 3.48648e-07
-0.000818623 1.0283e-05 1.83705e-06
3.48648e-07 1.83705e-06 -2.3959e-05
0.00411935 -0.00105625 2.51174e-05
-0.00105625 0.00195335 5.60006e-06
2.51174e-05 5.60006e-06 0.00141112
0.000914956 -0.0010393 -7.70665e-06
-0.0010393 -0.000289438 3.64062e-06
-7.70665e-06 3.64062e-06 -0.000852971
0.00248262 -0.00106808 -2.29804e-06
-0.00106808 0.000276254 -4.15517e-06
-2.29804e-06 -4.15517e-06 -2.62181e-05
-0.000120954 -0.000706789 4.93017e-06
-0.000706789 -0.000443424 -2.30634e-05
4.93017e-06 -2.30634e-05 -0.00101184
0.00390061 -0.000467397 1.14826e-05
-0.000467397 0.00196328 -4.67797e-06
1.14826e-05 -4.67797e-06 0.00151543
-9.53761e-05 -0.000101704 -5.18897e-06
-0.000101704 -0.000341547 1.03003e-05
-5.18897e-06 1.03003e-05 -0.000620634
0.00066771 -7.38096e-05 4.19551e-06
-7.38096e-05 0.000206455 3.78864e-07
4.19551e-06 3.78864e-07 8.95358e-05
0.000586443 -0.000134972 -8.86674e-06
-0.000134972 0.000236368 -1.24648e-05
-8.86674e-06 -1.24648e-05 -9.59665e-05
0.000569833 -3.7677e-05 5.1398e-06
-3.7677e-05 0.000137076 1.30314e-07
5.1398e-06 1.30314e-07 -4.17008e-05
0.000528791 -2.53452e-06 7.96201e-07
-2.53452e-06 0.000127878 2.83013e-06
7.96201e-07 2.83013e-06 -3.28975e-06
0.000637774 -8.09489e-05 -1.09227e-05
-8.09489e-05 0.000116872 3.21901e-06
-1.09227e-05 3.21901e-06 1.43673e-05
0.00273137 -0.000357741 2.26632e-06
-0.000357741 -5.1672e-05 1.13239e-06
2.26632e-06 1.13239e-06 0.000167571
0.000412941 -3.59445e-05 -8.91364e-07
-3.59445e-05 5.10293e-05 3.36984e-06
-8.91364e-07 3.36984e-06 -9.08488e-05
0.000857179 -7.20587e-05 9.04201e-06
-7.20587e-05 0.000227338 -1.22903e-06
9.04201e-06 -1.22903e-06 9.98686e-05
-0.00105084 -6.65622e-05 9.9999e-06
-6.65622e-05 -0.000856798 -7.89068e-07
9.9999e-06 -7.89068e-07 -0.000927381
0.00220977 -0.000631303 4.18116e-07
-0.000631303 -0.000368224 -1.11743e-06
4.18116e-07 -1.11743e-06 -0.000112859
0.0024368 -0.000982122 2.65096e-06
-0.000982122 0.000101022 -1.29428e-06
2.65096e-06 -1.29428e-06 -0.000106509
0.00191284 -0.00107353 -1.2021e-05
-0.00107353 0.000571547 4.33434e-07
-1.2021e-05 4.33434e-07 2.20378e-05
0.00299052 -0.00127012 -3.72735e-06
-0.00127012 0.000721138 4.65377e-07
-3.72735e-06 4.65377e-07 0.000301842
0.00162987 -0.000193619 9.45672e-06
-0.000193619 0.000829909 -5.43871e-06
9.45672e-06 -5.43871e-06 0.000552812
-0.000585805 -4.29098e-05 7.61349e-06
-4.29098e-05 -0.000549168 8.61006e-06
7.61349e-06 8.61006e-06 -0.00084928
0.00173944 -0.00121818 -3.70571e-07
-0.00121818 0.000994004 -1.42126e-06
-3.70571e-07 -1.42126e-06 0.000152991
0.00189342 -0.000552195 -1.06484e-05
-0.000552195 0.0010199 -1.8126e-06
-1.06484e-05 -1.8126e-06 0.000435767
0.00373887 -0.00053023 -5.06499e-05
-0.00053023 0.000509461 1.87713e-05
-5.06499e-05 1.87713e-05 0.000817973
0.00282462 -0.000825022 -3.54742e-05
-0.000825022 0.000211703 1.32869e-05
-3.54742e-05 1.32869e-05 0.000283846
0.00275175 -0.00113172 -1.72739e-06
-0.00113172 0.000513969 -1.79747e-05
-1.72739e-06 -1.79747e-05 0.000115909
0.0028774 -0.00126559 1.74622e-05
-0.00126559 0.000884445 3.50968e-05
1.74622e-05 3.50968e-05 0.000475109
-1.46104e-05 -0.000119156 -5.77893e-06
-0.000119156 -8.51673e-05 -9.77925e-06
-5.77893e-06 -9.77925e-06 -0.000246085
0.00049914 -0.000191768 -1.62441e-05
-0.000191768 9.58735e-05 -5.09064e-06
-1.62441e-05 -5.09064e-06 -0.000151982
0.000185955 -0.00022859 -9.0367e-06
-0.00022859 0.000235163 6.81474e-05
-9.0367e-06 6.81474e-05 -0.000137486
0.000125919 -0.00100897 -5.32044e-06
-0.00100897 0.000772454 -4.50169e-05
-5.32044e-06 -4.50169e-05 -0.000425658
0.00432532 -0.000455164 7.79147e-05
-0.000455164 -0.00602096 -7.14758e-06
7.79147e-05 -7.14758e-06 -0.00616282
0.00240636 0.00035707 8.98058e-06
0.00035707 0.00139286 -3.46057e-06
8.98058e-06 -3.46057e-06 0.00112031
0.000861122 0.000399262 1.73447e-07
0.000399262 0.000269632 -2.52388e-06
1.73447e-07 -2.52388e-06 -6.10593e-05
0.00183676 0.000414612 5.46572e-05
0.000414612 -0.000540272 2.35181e-05
5.46572e-05 2.35181e-05 -0.000205791
0.00248713 0.000905502 2.59375e-05
0.000905502 0.000265393 1.27424e-05
2.59375e-05 1.27424e-05 6.60727e-05
0.00263555 0.00103685 1.30431e-05
0.00103685 0.000787938 1.4448e-05
1.30431e-05 1.4448e-05 0.000240177
0.00166325 0.000763442 1.27481e-05
0.000763442 0.000510411 1.17342e-05
1.27481e-05 1.17342e-05 -2.68073e-05
0.0053979 0.00192866 0.000106094
0.00192866 -0.000381836 3.6014e-05
0.000106094 3.6014e-05 -4.91649e-05
0.00112551 0.000349533 3.9677e-06
0.000349533 0.000682249 -2.55157e-06
3.9677e-06 -2.55157e-06 0.000385062
0.00294349 0.000938435 -1.95696e-05
0.000938435 0.000189397 1.81106e-06
-1.95696e-05 1.81106e-06 0.000241734
0.000977737 0.000547217 -7.21475e-06
0.000547217 0.000200851 5.44374e-06
-7.21475e-06 5.44374e-06 -0.000217109
0.00166564 0.000846935 1.01516e-06
0.000846935 0.000432919 -7.95153e-06
1.01516e-06 -7.95153e-06 -9.64909e-05
0.00263951 0.00112916 -1.22611e-05
0.00112916 0.000531037 -1.33038e-07
-1.22611e-05 -1.33038e-07 0.000147082
0.00536402 -0.000509077 -0.000199595
-0.000509077 -0.00580835 -0.000129114
-0.000199595 -0.000129114 -0.00627695
0.00681311 0.00247996 -0.000177952
0.00247996 -0.00111486 -7.43534e-05
-0.000177952 -7.43534e-05 0.000775487
0.00123278 0.00173306 -3.97259e-06
0.00173306 -0.000655956 1.58932e-06
-3.97259e-06 1.58932e-06 -0.000975269
0.00415259 -0.00308325 0.000741358
-0.00308325 0.00395132 0.000258846
0.000741358 0.000258846 0.000208875
0.0208861 -0.0126477 -0.000589957
-0.0126477 0.011793 -0.000523256
-0.000589957 -0.000523256 0.00541658
0.00024175 0.000267398 -1.19439e-05
0.000267398 -3.15677e-05 -2.59909e-06
-1.19439e-05 -2.59909e-06 -0.000287489
0.00229744 0.000395039 0.00113845
0.000395039 0.00483698 8.62393e-05
0.00113845 8.62393e-05 0.00262492
0.00651478 -0.00520073 -0.000122334
-0.00520073 0.00807971 -0.000211568
-0.000122334 -0.000211568 0.000686643
0.00361287 0.00152164 -7.78715e-05
0.00152164 0.000716589 -2.71836e-05
-7.78715e-05 -2.71836e-05 0.000434863
0.000524059 0.000458483 -3.26898e-05
0.000458483 -0.000109835 -7.6206e-06
-3.26898e-05 -7.6206e-06 -0.000477586
0.00141208 0.000870074 -4.50917e-05
0.000870074 0.00031923 -3.72365e-05
-4.50917e-05 -3.72365e-05 -0.000132645
-0.000196545 0.00163978 0.000111584
0.00163978 -0.00105944 0.000114652
0.000111584 0.000114652 -0.00141089
0.0139672 0.00342274 0.000130334
0.00342274 0.000710073 -6.63504e-06
0.000130334 -6.63504e-06 0.00084817
0.00612083 0.00374282 -7.58219e-05
0.00374282 -0.000527395 -8.11247e-05
-7.58219e-05 -8.11247e-05 0.000943669
0.0211364 -0.00778629 0.00131301
-0.00778629 0.00809042 0.000478831
0.00131301 0.000478831 0.00190233
0.0161507 -0.00331325 -0.000214981
-0.00331325 0.00636686 0.000713835
-0.000214981 0.000713835 0.00319864
0.000623644 0.00011689 1.70837e-06
0.00011689 0.00030859 1.57797e-06
1.70837e-06 1.57797e-06 0.000192353
0.000339839 0.000177758 6.25158e-06
0.000177758 0.0001365 9.48313e-07
6.25158e-06 9.48313e-07 -6.2799e-06
0.00144389 0.000302823 3.6971e-06
0.000302823 0.000841553 -3.95998e-06
3.6971e-06 -3.95998e-06 0.000611222
0.000597962 -2.48876e-06 1.93279e-06
-2.48876e-06 0.000166106 9.06517e-07
1.93279e-06 9.06517e-07 5.00815e-06
0.000624425 7.6589e-05 6.46971e-07
7.6589e-05 0.000169359 -1.8224e-06
6.46971e-07 -1.8224e-06 -6.67304e-06
-0.000160173 3.67792e-05 -1.49693e-06
3.67792e-05 -0.000289639 1.62694e-06
-1.49693e-06 1.62694e-06 -0.000472349
0.000843124 0.000140159 -5.68873e-06
0.000140159 0.000318985 3.77103e-06
-5.68873e-06 3.77103e-06 0.000162859
-0.000256882 8.07293e-05 -3.20783e-06
8.07293e-05 -0.000400688 4.62851e-06
-3.20783e-06 4.62851e-06 -0.00045583
0.000337952 -1.29168e-05 -4.4817e-07
-1.29168e-05 -2.0417e-05 6.74341e-07
-4.4817e-07 6.74341e-07 -0.000167675
0.00147824 0.000182016 3.05364e-06
0.000182016 0.000717935 1.1677e-06
3.05364e-06 1.1677e-06 0.000520185
0.000441278 6.40716e-05 -5.95285e-07
6.40716e-05 0.000114271 -7.52552e-07
-5.95285e-07 -7.52552e-07 -9.0686e-05
0.000790619 4.29362e-05 1.61879e-06
4.29362e-05 0.000298545 -5.37267e-08
1.61879e-06 -5.37267e-08 9.7708e-05
-1.54834e-05 8.86948e-05 -8.61466e-07
8.86948e-05 -0.000115015 -3.46944e-06
-8.61466e-07 -3.46944e-06 -0.000304666
0.00162556 0.00016818 -1.89642e-06
0.00016818 0.000841549 -5.12536e-06
-1.89642e-06 -5.12536e-06 0.000659806
-0.000352665 7.93669e-05 -7.11177e-06
7.93669e-05 -0.000130124 -5.6561e-06
-7.11177e-06 -5.6561e-06 -0.000442965
0.000153342 -4.77791e-05 2.63833e-07
-4.77791e-05 -9.59204e-05 1.63505e-06
2.63833e-07 1.63505e-06 -0.000289458
0.000733666 -8.56384e-05 -3.08247e-06
-8.56384e-05 0.000270958 -1.68598e-06
-3.08247e-06 -1.68598e-06 7.51032e-05
0.000815163 -6.54804e-05 -4.47108e-07
-6.54804e-05 0.000326042 -1.19131e-06
-4.47108e-07 -1.19131e-06 0.000132603
0.000626257 -6.29277e-05 -4.74931e-06
-6.29277e-05 0.000155782 1.36778e-06
-4.74931e-06 1.36778e-06 6.14431e-06
0.00109594 1.35856e-05 -8.2583e-06
1.35856e-05 0.000555573 -6.52802e-06
-8.2583e-06 -6.52802e-06 0.000337993
0.000938779 -0.000136702 4.25715e-06
-0.000136702 0.000326678 -1.42869e-05
4.25715e-06 -1.42869e-05 0.000198205
-0.000923369 -1.69009e-05 -5.35389e-06
-1.69009e-05 -0.000776801 -9.20491e-06
-5.35389e-06 -9.20491e-06 -0.000908948
-0.000183616 -3.18373e-05 2.28557e-06
-3.18373e-05 -0.00022698 -4.14157e-06
2.28557e-06 -4.14157e-06 -0.000449336
0.000199929 -7.72717e-05 7.14875e-07
-7.72717e-05 -8.25801e-05 -4.36814e-07
7.14875e-07 -4.36814e-07 -0.00022919
0.000846642 -0.000139683 -1.03757e-06
-0.000139683 0.000348188 9.75058e-07
-1.03757e-06 9.75058e-07 0.000175763
0.000470969 -9.54896e-05 -1.66673e-07
-9.54896e-05 4.89851e-05 4.58405e-06
-1.66673e-07 4.58405e-06 -8.63559e-05
0.000374315 -9.75152e-05 3.72652e-06
-9.75152e-05 5.63977e-06 1.87875e-07
3.72652e-06 1.87875e-07 -0.000154887
0.000544213 -0.00012876 -2.53158e-08
-0.00012876 0.000115387 7.85659e-08
-2.53158e-08 7.85659e-08 -3.50923e-05
0.000500401 -6.68602e-05 -1.58932e-06
-6.68602e-05 5.18773e-05 5.69277e-06
-1.58932e-06 5.69277e-06 -3.77455e-05
0.000312932 -1.21165e-06 1.34605e-07
-1.21165e-06 -2.03178e-05 -4.68333e-07
1.34605e-07 -4.68333e-07 -0.000179399
0.000455087 -8.92019e-08 2.50648e-06
-8.92019e-08 3.30337e-05 1.31013e-07
2.50648e-06 1.31013e-07 -5.91346e-05
0.00142831 -4.10167e-05 -1.272e-05
-4.10167e-05 0.000620687 7.16177e-06
-1.272e-05 7.16177e-06 0.000597017
0.000433381 7.61302e-05 -2.43584e-06
7.61302e-05 1.86337e-05 -3.00708e-06
-2.43584e-06 -3.00708e-06 -7.18257e-05
0.000833867 -2.44342e-05 -5.05882e-06
-2.44342e-05 0.000249479 7.48238e-07
-5.05882e-06 7.48238e-07 0.000222667
0.000814343 2.13107e-06 -4.88357e-06
2.13107e-06 0.00021754 4.75511e-06
-4.88357e-06 4.75511e-06 0.000221415
0.00033519 -3.28796e-05 4.84754e-06
-3.28796e-05 -7.09099e-05 -5.27121e-06
4.84754e-06 -5.27121e-06 -9.80966e-05
0.00260791 4.60141e-06 1.0064e-05
4.60141e-06 0.00136335 1.60863e-08
1.0064e-05 1.60863e-08 0.00137487
0.000858885 5.57721e-06 -1.27606e-05
5.57721e-06 0.000245386 -5.56854e-06
-1.27606e-05 -5.56854e-06 0.000247931
0.000532105 7.69529e-05 2.53808e-06
7.69529e-05 0.000107147 -2.18018e-07
2.53808e-06 -2.18018e-07 -6.72055e-06
0.000426774 6.09324e-05 -2.46976e-06
6.09324e-05 -1.7289e-06 -3.18617e-06
-2.46976e-06 -3.18617e-06 -5.52833e-05
0.00044919 1.6823e-06 1.45565e-06
1.6823e-06 1.34679e-05 2.50582e-07
1.45565e-06 2.50582e-07 -4.22321e-05
0.000443086 1.02674e-05 1.32571e-06
1.02674e-05 -3.16527e-05 -3.51839e-06
1.32571e-06 -3.51839e-06 -4.39557e-05
0.000544508 -7.371e-05 -1.7542e-06
-7.371e-05 8.35108e-05 2.95347e-06
-1.7542e-06 2.95347e-06 1.62394e-05
0.000458176 1.17713e-05 1.73711e-07
1.17713e-05 -2.32089e-05 -7.5001e-07
1.73711e-07 -7.5001e-07 -3.73204e-05
0.00206521 4.16884e-05 1.78092e-06
4.16884e-05 0.0010139 -4.99177e-06
1.78092e-06 -4.99177e-06 0.00102783
0.00115221 4.04946e-05 6.2251e-07
4.04946e-05 0.000428174 2.21611e-06
6.2251e-07 2.21611e-06 0.000412458
0.00150535 5.09837e-05 -7.33982e-07
5.09837e-05 0.000661449 1.54122e-06
-7.33982e-07 1.54122e-06 0.000667181
0.00084675 5.43419e-05 1.38724e-08
5.43419e-05 0.000246495 9.76635e-06
1.38724e-08 9.76635e-06 0.000243046
0.000953341 0.000674428 7.9694e-05
0.000674428 -0.00286323 2.61271e-05
7.9694e-05 2.61271e-05 -0.00165364
0.00252744 -5.16616e-05 8.96819e-06
-5.16616e-05 -0.000117305 5.62273e-06
8.96819e-06 5.62273e-06 3.81359e-05
0.0022 8.27822e-05 4.06332e-05
8.27822e-05 -9.97142e-05 -1.17859e-05
4.06332e-05 -1.17859e-05 5.91546e-05
0.00340286 0.000630332 -7.87171e-05
0.000630332 -0.00249295 -4.49867e-05
-7.87171e-05 -4.49867e-05 -0.000345101
0.00310776 0.000117861 7.14028e-05
0.000117861 -0.00075698 -2.99206e-06
7.14028e-05 -2.99206e-06 -8.2028e-05
0.00295522 -5.59089e-05 -4.56919e-06
-5.59089e-05 0.000374443 -7.77837e-06
-4.56919e-06 -7.77837e-06 0.000504858
0.00523601 -0.000533033 -7.14974e-05
-0.000533033 0.000899845 -1.98047e-05
-7.14974e-05 -1.98047e-05 0.00136714
0.00442593 -0.000598521 4.3695e-05
-0.000598521 -0.000829048 -5.45484e-08
4.3695e-05 -5.45484e-08 0.000557022
0.0199913 -0.00110317 9.97329e-05
-0.00110317 0.003126 -6.61548e-05
9.97329e-05 -6.61548e-05 0.00259294
0.017757 0.00788981 0.00196706
0.00788981 0.00708903 -0.000455358
0.00196706 -0.000455358 0.00226348
0.0266853 0.00911291 0.000122252
0.00911291 0.017189 4.71364e-05
0.000122252 4.71364e-05 0.0115413
3.54006e-05 -0.000105452 1.04655e-06
-0.000105452 -0.000187351 -1.70726e-06
1.04655e-06 -1.70726e-06 -0.000309923
0.000523856 -5.9226e-06 1.99371e-06
-5.9226e-06 9.61922e-05 2.51645e-08
1.99371e-06 2.51645e-08 -9.75458e-06
0.000604011 -9.45938e-05 -9.30223e-07
-9.45938e-05 0.000168185 4.64482e-06
-9.30223e-07 4.64482e-06 4.32785e-05
0.000535105 -3.76175e-05 1.86581e-06
-3.76175e-05 0.000110607 9.69096e-08
1.86581e-06 9.69096e-08 -1.22169e-05
0.00109394 0.000152215 -6.08246e-06
0.000152215 0.000549226 -7.42717e-07
-6.08246e-06 -7.42717e-07 0.000396084
0.000606764 0.000152286 -2.22088e-07
0.000152286 0.00015055 5.8746e-06
-2.22088e-07 5.8746e-06 1.19141e-05
0.000904751 1.40155e-05 2.49863e-06
1.40155e-05 0.000371347 2.6351e-06
2.49863e-06 2.6351e-06 0.000216669
0.000525182 -2.45279e-05 -1.516e-06
-2.45279e-05 0.00010686 1.28219e-06
-1.516e-06 1.28219e-06 -2.04936e-05
0.002737 -0.000348262 1.45118e-05
-0.000348262 -5.27617e-05 -1.29006e-05
1.45118e-05 -1.29006e-05 0.0001928
0.00224362 -0.000659705 1.00389e-05
-0.000659705 -0.000378082 -5.9392e-06
1.00389e-05 -5.9392e-06 -0.000148273
0.00267122 -0.00100461 5.9476e-06
-0.00100461 0.00022919 7.21861e-06
5.9476e-06 7.21861e-06 2.39169e-05
0.00302263 -0.00117983 1.18274e-05
-0.00117983 0.00115031 -2.62694e-06
1.18274e-05 -2.62694e-06 0.000607937
0.00254481 -0.00122413 -3.28396e-05
-0.00122413 0.00049387 -2.99728e-06
-3.28396e-05 -2.99728e-06 5.76704e-05
0.00111527 -0.00119379 2.86257e-05
-0.00119379 0.00065208 8.00167e-06
2.86257e-05 8.00167e-06 -0.000236582
0.00480571 -0.000876545 7.9771e-06
-0.000876545 0.0024418 8.04616e-06
7.9771e-06 8.04616e-06 0.00195809
0.00166821 -0.000375067 1.96603e-05
-0.000375067 0.000948596 -5.35235e-05
1.96603e-05 -5.35235e-05 0.000535224
0.000450726 -0.000124539 -1.39522e-08
-0.000124539 -4.8716e-05 3.83547e-06
-1.39522e-08 3.83547e-06 -0.000151808
0.00116355 -9.47807e-05 1.40097e-05
-9.47807e-05 0.00049963 -2.35157e-05
1.40097e-05 -2.35157e-05 0.000237225
0.000945525 -6.13598e-05 4.63254e-06
-6.13598e-05 0.000383827 2.70595e-06
4.63254e-06 2.70595e-06 0.000230101
0.000538046 -3.57887e-06 8.54507e-06
-3.57887e-06 0.000168015 -5.89617e-06
8.54507e-06 -5.89617e-06 0.000141148
0.00257953 -0.000467652 -8.42475e-07
-0.000467652 -0.00015926 3.13479e-06
-8.42475e-07 3.13479e-06 0.000219668
0.000338754 -0.000110008 -5.46166e-06
-0.000110008 0.000107693 -9.75967e-07
-5.46166e-06 -9.75967e-07 -4.74663e-05
0.00142152 -0.000251086 -8.54272e-06
-0.000251086 0.000663906 5.62348e-06
-8.54272e-06 5.62348e-06 0.000451053
0.00172735 -0.000741331 8.68965e-06
-0.000741331 -0.000425349 -4.52282e-06
8.68965e-06 -4.52282e-06 -0.000286538
0.00233937 -0.00104009 1.98913e-06
-0.00104009 0.000296417 4.92775e-06
1.98913e-06 4.92775e-06 -3.16915e-05
0.00115408 -0.00104097 -4.05007e-06
-0.00104097 -0.000128084 -1.60959e-05
-4.05007e-06 -1.60959e-05 -0.000470372
0.00168924 -0.000421848 -2.49205e-06
-0.000421848 0.00104344 -3.2889e-05
-2.49205e-06 -3.2889e-05 0.000571496
0.00122502 -0.000752852 1.19563e-05
-0.000752852 0.00117487 3.15705e-06
1.19563e-05 3.15705e-06 0.000214276
0.00605126 -0.00108202 -5.23893e-05
-0.00108202 0.00155449 3.55015e-05
-5.23893e-05 3.55015e-05 0.00181949
0.003407 -0.00110113 -3.98619e-05
-0.00110113 0.000878774 1.33261e-05
-3.98619e-05 1.33261e-05 0.000637518
0.00260486 -0.00123602 1.277e-05
-0.00123602 0.000562916 1.47726e-05
1.277e-05 1.47726e-05 0.00021322
-0.000279681 -0.000665095 -7.38496e-06
-0.000665095 -0.000585426 2.34125e-05
-7.38496e-06 2.34125e-05 -0.00074095
0.000534607 -0.000174825 9.8946e-07
-0.000174825 0.000284416 5.21039e-06
9.8946e-07 5.21039e-06 1.45796e-05
0.000295737 -0.000192025 4.16918e-06
-0.000192025 0.000216896 1.77903e-06
4.16918e-06 1.77903e-06 -0.000117845
0.00137859 -0.000321026 -1.68732e-05
-0.000321026 0.00124713 -2.25384e-05
-1.68732e-05 -2.25384e-05 0.00044698
-0.00762577 -0.000562863 0.00080385
-0.000562863 -0.00354819 -4.43763e-05
0.00080385 -4.43763e-05 -0.00466408
0.0120956 -0.000456909 8.16352e-05
-0.000456909 -0.000123794 4.28374e-05
8.16352e-05 4.28374e-05 0.000647598
0.00285824 0.000443043 1.06013e-05
0.000443043 0.00165303 -1.06524e-05
1.06013e-05 -1.06524e-05 0.00139372
0.00205087 0.000684682 -3.41918e-07
0.000684682 0.000902758 7.749e-06
-3.41918e-07 7.749e-06 0.000438313
0.00224869 0.00080783 0.000109156
0.00080783 -0.000179149 5.12937e-05
0.000109156 5.12937e-05 -7.12297e-05
0.00357563 0.0012138 3.16001e-05
0.0012138 0.00104673 1.72072e-05
3.16001e-05 1.72072e-05 0.000630424
0.00301153 0.00103979 2.44257e-05
0.00103979 0.00119553 8.68124e-06
2.44257e-05 8.68124e-06 0.000626782
0.0177423 0.000842392 0.000107055
0.000842392 0.002303 -8.87021e-05
0.000107055 -8.87021e-05 0.00215534
0.00858923 0.00306946 -0.000273591
0.00306946 -0.00155972 -3.79233e-05
-0.000273591 -3.79233e-05 0.000811518
0.00187277 0.00172219 9.90745e-06
0.00172219 -0.000179442 -3.31641e-05
9.90745e-06 -3.31641e-05 -0.000631412
0.0162869 -0.00614407 -0.000737005
-0.00614407 0.00717884 4.10711e-05
-0.000737005 4.10711e-05 0.00268598
0.0122614 -0.0137028 -0.0030632
-0.0137028 0.0103282 -0.00174934
-0.0030632 -0.00174934 0.00353154
0.000845641 0.000368913 5.07139e-06
0.000368913 0.000407588 -2.71239e-06
5.07139e-06 -2.71239e-06 0.000106348
-0.00035799 -0.00360375 0.000722883
-0.00360375 -0.00209107 9.46952e-05
0.000722883 9.46952e-05 -0.00532097
-0.000148915 -0.00409214 -0.000756305
-0.00409214 0.00841391 -0.00019471
-0.000756305 -0.00019471 0.0012211
0.00393281 0.00144352 -1.92914e-05
0.00144352 0.000840986 2.0544e-06
-1.92914e-05 2.0544e-06 0.000614327
0.000894876 0.000563774 -1.09032e-05
0.000563774 0.000170283 8.92763e-06
-1.09032e-05 8.92763e-06 -0.000251115
0.0018161 0.00100582 5.39705e-06
0.00100582 0.000540502 1.86099e-06
5.39705e-06 1.86099e-06 2.78937e-05
0.00174938 0.00165357 6.69804e-05
0.00165357 0.000297909 4.79509e-05
6.69804e-05 4.79509e-05 -3.01583e-05
0.0142178 0.00376501 -0.00016177
0.00376501 -0.000185269 -0.000115821
-0.00016177 -0.000115821 -0.0012263
0.00348271 0.00361769 -1.55037e-05
0.00361769 -0.0011993 -4.14096e-05
-1.55037e-05 -4.14096e-05 0.000416099
0.021345 -0.00652936 0.000723039
-0.00652936 0.00936259 -3.20208e-05
0.000723039 -3.20208e-05 0.00321114
0.0214139 -0.00540686 1.52233e-05
-0.00540686 0.00607293 0.000855976
1.52233e-05 0.000855976 0.00180194
0.00162376 0.000445009 -1.80139e-05
0.000445009 0.000820074 -1.78166e-05
-1.80139e-05 -1.78166e-05 0.000546361
-0.00921938 0.00131894 -9.96838e-05
0.00131894 0.00502355 -0.000155079
-9.96838e-05 -0.000155079 -0.0029987
0.00639859 0.00144422 -0.000518789
0.00144422 0.00520066 -0.000587128
-0.000518789 -0.000587128 -6.64868e-05
0.00266173 0.00106829 -4.19923e-05
0.00106829 0.000611292 -1.95143e-05
-4.19923e-05 -1.95143e-05 0.000510807
0.00320018 0.00108329 -9.03208e-05
0.00108329 0.00144791 -3.33713e-05
-9.03208e-05 -3.33713e-05 0.0009605
0.00218595 0.00127878 -9.98309e-05
0.00127878 0.00135574 -3.14956e-05
-9.98309e-05 -3.14956e-05 0.000565213
-0.00310012 0.00237608 4.10988e-05
0.00237608 -0.00111187 -3.29615e-05
4.10988e-05 -3.29615e-05 -0.00122044
0.00355334 0.00514021 0.000651989
0.00514021 -0.00191654 0.000120155
0.000651989 0.000120155 -0.00340574
0.0230106 -0.0082592 -3.53101e-05
-0.0082592 0.0127487 0.000874157
-3.53101e-05 0.000874157 0.0058659
0.00929037 4.26222e-06 -0.000206554
4.26222e-06 -0.00185523 -0.000199333
-0.000206554 -0.000199333 -0.00135526
-0.00025639 0.000170663 -7.29239e-07
0.000170663 -0.000194491 -3.22901e-06
-7.29239e-07 -3.22901e-06 -0.000360469
0.00188279 0.000375972 9.41918e-06
0.000375972 0.00109261 2.57731e-06
9.41918e-06 2.57731e-06 0.000848921
-0.000629136 0.000110562 -5.39563e-06
0.000110562 -0.000376299 2.48079e-06
-5.39563e-06 2.48079e-06 -0.000572779
0.000340955 5.35443e-05 2.26533e-06
5.35443e-05 -2.06885e-05 2.15111e-06
2.26533e-06 2.15111e-06 -0.000168119
0.00109856 8.74531e-05 3.40844e-07
8.74531e-05 0.000509011 -6.96207e-07
3.40844e-07 -6.96207e-07 0.000300629
0.000548949 3.67512e-05 -2.52894e-06
3.67512e-05 0.000187994 2.23627e-06
-2.52894e-06 2.23627e-06 -2.94416e-05
0.000331729 0.000111485 7.36199e-06
0.000111485 2.16491e-05 7.68799e-06
7.36199e-06 7.68799e-06 -0.000185797
-0.000867999 2.49434e-05 -5.05816e-06
2.49434e-05 -0.000626361 2.91007e-06
-5.05816e-06 2.91007e-06 -0.000810424
0.000771271 3.48681e-05 3.9379e-07
3.48681e-05 0.000298947 -6.66346e-07
3.9379e-07 -6.66346e-07 0.000100061
0.000692704 9.98881e-05 5.13404e-07
9.98881e-05 0.000251078 -1.12978e-07
5.13404e-07 -1.12978e-07 7.61162e-05
0.000854012 -4.08473e-05 -1.27476e-06
-4.08473e-05 0.00036938 2.33528e-06
-1.27476e-06 2.33528e-06 0.000154943
-0.00112863 4.57254e-05 1.65041e-06
4.57254e-05 -0.000585461 9.40309e-07
1.65041e-06 9.40309e-07 -0.000895318
0.00107811 9.26779e-05 -1.12357e-06
9.26779e-05 0.000858759 6.46127e-06
-1.12357e-06 6.46127e-06 0.000471455
0.000751877 -1.62897e-05 5.09493e-08
-1.62897e-05 0.000423066 -6.44821e-06
5.09493e-08 -6.44821e-06 0.000177267
0.00162119 -1.59514e-05 -2.61567e-06
-1.59514e-05 0.000909753 3.56433e-06
-2.61567e-06 3.56433e-06 0.00065681
0.000863666 -9.37772e-05 -7.10979e-07
-9.37772e-05 0.000358733 -8.44155e-07
-7.10979e-07 -8.44155e-07 0.000159616
0.000134234 -0.000117701 4.02834e-06
-0.000117701 -0.000163758 1.40085e-05
4.02834e-06 1.40085e-05 -0.000302284
0.000606554 -9.40359e-05 5.54477e-07
-9.40359e-05 0.000218192 -5.46539e-07
5.54477e-07 -5.46539e-07 1.75947e-05
0.000788479 -0.00012199 -2.80728e-06
-0.00012199 0.000222186 -1.1814e-06
-2.80728e-06 -1.1814e-06 9.20386e-05
-0.000320277 -7.25926e-05 1.36266e-06
-7.25926e-05 -0.000391128 6.23118e-06
1.36266e-06 6.23118e-06 -0.000512017
-0.000343709 -5.25271e-05 2.6667e-07
-5.25271e-05 -0.000374714 -8.08088e-06
2.6667e-07 -8.08088e-06 -0.000546558
3.0928e-05 -5.0887e-05 -8.38855e-06
-5.0887e-05 -4.96031e-05 -2.02928e-06
-8.38855e-06 -2.02928e-06 -0.000262202
0.000297072 -0.000132595 2.21196e-06
-0.000132595 8.84955e-06 -1.15584e-05
2.21196e-06 -1.15584e-05 -0.000119809
0.0011832 -0.000143595 2.38587e-05
-0.000143595 0.000441089 -1.7017e-05
2.38587e-05 -1.7017e-05 0.000318391
0.00211834 -0.000400796 -1.34693e-06
-0.000400796 0.000958896 3.51983e-06
-1.34693e-06 3.51983e-06 0.000726208
-0.000340494 -8.6841e-05 -4.87328e-06
-8.6841e-05 -0.000368816 -2.21667e-06
-4.87328e-06 -2.21667e-06 -0.000571987
0.000534701 -4.61549e-05 2.37708e-06
-4.61549e-05 0.000204152 -7.24341e-07
2.37708e-06 -7.24341e-07 -7.66727e-06
-0.000697289 -1.38691e-05 4.6062e-06
-1.38691e-05 -0.000597423 -7.52454e-07
4.6062e-06 -7.52454e-07 -0.000815156
0.000629284 -0.000158019 -1.54575e-06
-0.000158019 0.00021261 -8.88542e-07
-1.54575e-06 -8.88542e-07 3.93361e-05
0.00042657 -4.60106e-05 1.02016e-06
-4.60106e-05 2.00697e-05 9.10389e-07
1.02016e-06 9.10389e-07 -0.000120412
0.000607641 -0.000158073 1.01777e-06
-0.000158073 0.000178994 4.80485e-07
1.01777e-06 4.80485e-07 2.11815e-05
0.000580889 -9.61307e-05 -3.96885e-07
-9.61307e-05 0.000137147 1.89743e-07
-3.96885e-07 1.89743e-07 -9.85096e-06
0.000352678 3.27061e-05 8.28822e-07
3.27061e-05 -4.44436e-05 5.61522e-06
8.28822e-07 5.61522e-06 -0.000138082
0.000609703 -0.000129378 -8.59106e-08
-0.000129378 0.000150267 -3.13011e-06
-8.59106e-08 -3.13011e-06 1.07964e-06
0.000505383 -5.14759e-05 -6.01903e-07
-5.14759e-05 4.92567e-05 1.65175e-07
-6.01903e-07 1.65175e-07 -3.67789e-05
0.0014086 2.37042e-05 -8.25719e-06
2.37042e-05 0.000599236 7.8656e-06
-8.25719e-06 7.8656e-06 0.00057587
0.000479522 -7.40638e-05 8.19388e-07
-7.40638e-05 4.19914e-05 -3.49399e-06
8.19388e-07 -3.49399e-06 -4.63691e-05
0.000853178 -2.56568e-05 -9.6412e-06
-2.56568e-05 0.000253748 8.75814e-07
-9.6412e-06 8.75814e-07 0.000227497
0.000736765 1.08659e-05 1.63371e-06
1.08659e-05 0.000157694 2.22058e-06
1.63371e-06 2.22058e-06 0.000160864
0.000405993 -3.12097e-05 3.55683e-06
-3.12097e-05 -3.00904e-05 -4.82465e-06
3.55683e-06 -4.82465e-06 -5.61031e-05
0.00256201 9.18108e-06 7.12226e-06
9.18108e-06 0.00133247 4.74276e-09
7.12226e-06 4.74276e-09 0.00134476
0.00259251 -1.06394e-06 5.74834e-06
-1.06394e-06 0.0013533 -5.06555e-06
5.74834e-06 -5.06555e-06 0.0013649
0.00104621 8.2529e-05 -5.86425e-07
8.2529e-05 0.000435219 -1.12004e-07
-5.86425e-07 -1.12004e-07 0.000315332
0.000496669 7.07441e-05 -1.70921e-06
7.07441e-05 4.70808e-05 -3.51246e-06
-1.70921e-06 -3.51246e-06 -1.2799e-05
0.000528291 -1.72259e-05 -6.80463e-07
-1.72259e-05 0.000107545 8.21437e-07
-6.80463e-07 8.21437e-07 -6.21341e-06
0.000437856 9.94259e-06 1.45439e-06
9.94259e-06 -3.55209e-05 -3.79489e-06
1.45439e-06 -3.79489e-06 -4.68004e-05
0.000416555 -9.48427e-06 1.54221e-06
-9.48427e-06 -1.02278e-05 -2.29925e-07
1.54221e-06 -2.29925e-07 -6.22994e-05
0.000487288 -6.55497e-05 -2.10088e-06
-6.55497e-05 4.36226e-05 3.08126e-06
-2.10088e-06 3.08126e-06 -1.54625e-05
0.00045035 6.81677e-06 -6.05825e-07
6.81677e-06 -2.74403e-05 1.55867e-08
-6.05825e-07 1.55867e-08 -3.97228e-05
0.0020226 2.67471e-05 -3.5784e-06
2.67471e-05 0.000983584 -5.03283e-06
-3.5784e-06 -5.03283e-06 0.000999371
0.00116763 2.45612e-05 -7.61749e-07
2.45612e-05 0.000433546 2.48697e-06
-7.61749e-07 2.48697e-06 0.00042227
0.00132314 3.25221e-05 -3.02653e-06
3.25221e-05 0.000536536 -3.42104e-09
-3.02653e-06 -3.42104e-09 0.000546876
0.000772663 3.86634e-05 -4.93104e-06
3.86634e-05 0.000190317 8.16351e-06
-4.93104e-06 8.16351e-06 0.000193149
-0.00732988 0.00205696 0.000809644
0.00205696 -0.00230362 -9.96052e-05
0.000809644 -9.96052e-05 -0.00626773
0.00129437 0.00133377 0.00180598
0.00133377 0.0086485 -0.000374766
0.00180598 -0.000374766 0.0033574
0.00225529 0.000627247 -0.000164345
0.000627247 -0.00299217 -3.5502e-05
-0.000164345 -3.5502e-05 -0.000592131
0.00232524 -4.19376e-05 1.58403e-05
-4.19376e-05 -0.00116841 -3.33976e-05
1.58403e-05 -3.33976e-05 -0.000414374
0.00204816 -8.12991e-05 3.95308e-05
-8.12991e-05 -0.000275 1.89297e-05
3.95308e-05 1.89297e-05 -0.000120676
-0.00156753 -5.82704e-05 -0.000125614
-5.82704e-05 -0.0025791 -3.48218e-05
-0.000125614 -3.48218e-05 -0.00084371
0.00394335 -0.000581332 2.10039e-06
-0.000581332 3.16356e-05 4.37905e-06
2.10039e-06 4.37905e-06 0.000427169
0.0123173 -0.00028044 0.000248337
-0.00028044 -0.00221479 -0.000109841
0.000248337 -0.000109841 -0.00249094
0.00431584 0.0052163 -4.19103e-06
0.0052163 0.00169596 -8.10129e-05
-4.19103e-06 -8.10129e-05 -0.00275664
0.0213449 0.010964 -0.00073073
0.010964 0.014113 0.000303946
-0.00073073 0.000303946 0.00813382
0.00195968 -0.00119781 1.62879e-05
-0.00119781 -0.00320197 -3.23589e-05
1.62879e-05 -3.23589e-05 -0.00123407
0.0156224 -0.0035349 0.000269934
-0.0035349 0.000785551 -7.15454e-05
0.000269934 -7.15454e-05 -0.000191799
0.0236533 0.00742036 0.000461537
0.00742036 0.00843398 -0.000529575
0.000461537 -0.000529575 0.0022081
0.0259816 0.00553062 -0.000354169
0.00553062 0.0092411 0.000342879
-0.000354169 0.000342879 0.00530246
0.00113656 0.000182516 -4.65381e-06
0.000182516 0.000579224 1.1032e-06
-4.65381e-06 1.1032e-06 0.000375225
0.000310008 4.09025e-05 7.73567e-07
4.09025e-05 -3.47937e-05 -8.73176e-07
7.73567e-07 -8.73176e-07 -0.000147568
0.000526111 -0.00010105 2.70309e-06
-0.00010105 0.000110905 2.60394e-06
2.70309e-06 2.60394e-06 -1.77455e-06
0.0007262 5.12943e-07 7.0059e-06
5.12943e-07 0.000243118 -7.29506e-07
7.0059e-06 -7.29506e-07 0.000113483
0.000776065 8.43397e-05 3.46114e-06
8.43397e-05 0.000344144 4.29701e-07
3.46114e-06 4.29701e-07 0.000208934
0.000555717 5.83696e-05 -2.65102e-07
5.83696e-05 0.000152485 7.57858e-06
-2.65102e-07 7.57858e-06 -3.03244e-05
0.000686235 8.94948e-05 -3.85672e-07
8.94948e-05 0.000227449 3.10736e-06
-3.85672e-07 3.10736e-06 8.03991e-05
0.000421695 9.15384e-05 4.88038e-06
9.15384e-05 1.47247e-05 3.17241e-06
4.88038e-06 3.17241e-06 -0.000139011
0.000628649 -1.03164e-05 2.15816e-06
-1.03164e-05 0.000192866 -1.19566e-06
2.15816e-06 -1.19566e-06 4.01968e-05
0.000414824 -2.51101e-05 2.53926e-06
-2.51101e-05 2.80576e-05 -1.481e-06
2.53926e-06 -1.481e-06 -8.88735e-05
0.00118031 -0.000378832 3.87079e-05
-0.000378832 -0.000963426 -1.88914e-05
3.87079e-05 -1.88914e-05 -0.000506793
0.00107279 -0.000682281 2.17484e-05
-0.000682281 -0.000776477 -8.58039e-06
2.17484e-05 -8.58039e-06 -0.000599697
0.000963696 -0.000848445 5.69334e-06
-0.000848445 -0.000462904 6.0453e-06
5.69334e-06 6.0453e-06 -0.000693431
-0.00052976 -0.000800317 -1.87396e-05
-0.000800317 -0.00105736 -8.80706e-06
-1.87396e-05 -8.80706e-06 -0.00134332
0.00269366 -0.000619724 9.92059e-06
-0.000619724 0.00181592 5.32631e-05
9.92059e-06 5.32631e-05 0.0010524
-0.000673913 -0.000671067 -8.94227e-06
-0.000671067 -0.000364359 -1.16634e-05
-8.94227e-06 -1.16634e-05 -0.00102079
0.00128758 -0.000315581 9.54797e-06
-0.000315581 0.000600528 -4.78826e-06
9.54797e-06 -4.78826e-06 0.000419349
0.000307964 -6.17325e-05 2.49481e-06
-6.17325e-05 5.96713e-05 4.31595e-06
2.49481e-06 4.31595e-06 -8.31197e-05
0.00268476 -0.00076945 1.53648e-05
-0.00076945 -0.000333731 -1.01964e-05
1.53648e-05 -1.01964e-05 9.77382e-05
0.00049416 -9.74503e-05 4.47546e-07
-9.74503e-05 0.000250157 2.32943e-06
4.47546e-07 2.32943e-06 -2.47834e-05
-0.000140197 -0.000236452 -4.3401e-06
-0.000236452 -4.50551e-05 -5.42791e-06
-4.3401e-06 -5.42791e-06 -0.000379577
0.00194788 -0.000927353 1.95764e-05
-0.000927353 5.51566e-05 -1.42743e-06
1.95764e-05 -1.42743e-06 -6.42963e-05
0.00184366 -0.00112607 -2.3356e-06
-0.00112607 7.90882e-05 -2.86775e-06
-2.3356e-06 -2.86775e-06 -0.00016244
6.56859e-05 -0.000798916 1.52687e-05
-0.000798916 -0.000351502 -2.07406e-05
1.52687e-05 -2.07406e-05 -0.000605976
0.000884753 -0.000413517 1.55675e-05
-0.000413517 0.000940803 -2.41298e-05
1.55675e-05 -2.41298e-05 0.000162143
0.00172938 -0.00115605 -5.65946e-05
-0.00115605 -0.000351067 4.64377e-05
-5.65946e-05 4.64377e-05 -0.000518894
0.00186408 -0.000984902 -3.47718e-05
-0.000984902 0.000242298 2.06296e-05
-3.47718e-05 2.06296e-05 0.000184978
-0.000824194 -0.000582239 -4.62977e-05
-0.000582239 -0.000371996 3.67687e-05
-4.62977e-05 3.67687e-05 -0.000797379
-0.00180528 -0.000166931 -9.93292e-06
-0.000166931 -0.00121753 1.20548e-05
-9.93292e-06 1.20548e-05 -0.00147606
-0.00124976 -7.64599e-06 -1.2824e-06
-7.64599e-06 -0.000750367 1.22087e-05
-1.2824e-06 1.22087e-05 -0.00106458
0.000890698 -7.69668e-05 3.11597e-06
-7.69668e-05 0.000610364 -1.34446e-05
3.11597e-06 -1.34446e-05 0.000210087
-0.00287735 0.00150409 -0.000561208
0.00150409 0.00792131 2.52423e-05
-0.000561208 2.52423e-05 0.00175757
-0.000216834 -0.00205184 -2.26925e-05
-0.00205184 0.00330288 -1.81871e-05
-2.26925e-05 -1.81871e-05 0.00164519
0.00449283 0.000915124 -0.00016894
0.000915124 -0.00625948 -3.40696e-05
-0.00016894 -3.40696e-05 -0.00634824
0.000948716 0.000396777 1.62357e-05
0.000396777 0.000526556 -5.58657e-06
1.62357e-05 -5.58657e-06 0.000204528
0.00179482 0.00074768 1.76418e-05
0.00074768 0.000752675 2.61849e-05
1.76418e-05 2.61849e-05 0.00025627
0.00335703 0.00125609 8.26121e-05
0.00125609 0.000505328 3.58435e-05
8.26121e-05 3.58435e-05 0.000348579
0.00143395 0.00104588 1.96395e-05
0.00104588 0.0003755 2.84413e-05
1.96395e-05 2.84413e-05 -0.000187812
0.0147314 -0.00425948 0.000320978
-0.00425948 0.00641167 9.63968e-05
0.000320978 9.63968e-05 0.00348088
0.00367637 0.00244404 -0.000471759
0.00244404 -0.00589266 -0.000117621
-0.000471759 -0.000117621 -0.00682558
0.00582691 0.00362415 4.91974e-05
0.00362415 0.000482155 3.11337e-05
4.91974e-05 3.11337e-05 0.00147282
0.00292619 0.00155899 7.90735e-05
0.00155899 0.00122393 3.61676e-06
7.90735e-05 3.61676e-06 0.000920553
0.0134184 -0.00378335 -0.000635904
-0.00378335 0.00567664 -0.000323988
-0.000635904 -0.000323988 0.000212083
0.00163819 -0.00540047 -0.00111313
-0.00540047 0.0092793 -0.000278335
-0.00111313 -0.000278335 0.00203952
0.0314428 -0.00753599 0.00105734
-0.00753599 0.00998399 0.00046426
0.00105734 0.00046426 0.00501749
0.000181613 0.000317347 1.60762e-05
0.000317347 -1.68585e-05 -5.41457e-06
1.60762e-05 -5.41457e-06 -0.000284239
-0.00339038 0.000347183 -0.000197439
0.000347183 0.00723236 -2.92763e-05
-0.000197439 -2.92763e-05 0.000271715
0.00705227 0.00193332 -0.000211753
0.00193332 0.00403514 -0.000197834
-0.000211753 -0.000197834 -0.00192923
0.00183884 0.00109632 9.2468e-06
0.00109632 0.000286575 3.07896e-06
9.2468e-06 3.07896e-06 0.000105966
0.000793118 0.000805616 1.86778e-05
0.000805616 0.00026059 7.40578e-06
1.86778e-05 7.40578e-06 -0.000231122
0.00111958 0.0013306 -9.01284e-05
0.0013306 0.000700086 -7.71833e-05
-9.01284e-05 -7.71833e-05 5.31286e-05
0.00378526 0.00413985 5.51216e-05
0.00413985 0.00094 4.7305e-05
5.51216e-05 4.7305e-05 0.00103319
0.0144441 0.00616174 -3.88033e-06
0.00616174 0.00182914 1.87646e-06
-3.88033e-06 1.87646e-06 -0.000383066
0.0108086 -0.0045171 0.000101083
-0.0045171 0.00690961 -0.000131686
0.000101083 -0.000131686 -0.000285249
0.0175064 -0.00217852 -3.20525e-05
-0.00217852 0.00257309 -6.89056e-05
-3.20525e-05 -6.89056e-05 0.00322626
0.00102227 0.000675569 -1.73037e-05
0.000675569 0.000452611 -8.00351e-06
-1.73037e-05 -8.00351e-06 7.26899e-05
0.00154266 0.000339794 -0.000472234
0.000339794 0.00293253 -0.000127208
-0.000472234 -0.000127208 -0.00309265
0.0018136 0.00130533 -0.000172439
0.00130533 9.85204e-05 -0.00019643
-0.000172439 -0.00019643 -0.00184095
-0.000816251 0.000426043 -5.69312e-06
0.000426043 -0.000143616 -2.39856e-05
-5.69312e-06 -2.39856e-05 -0.000486676
-0.00172966 0.000918361 -0.00018368
0.000918361 0.000759582 -3.82534e-06
-0.00018368 -3.82534e-06 -2.50068e-06
0.00999515 0.00625832 0.000154906
0.00625832 0.00354881 -2.54594e-05
0.000154906 -2.54594e-05 -0.00143988
0.00177594 -0.00658025 -2.81863e-05
-0.00658025 0.000797072 0.000232201
-2.81863e-05 0.000232201 -0.00551219
0.0141749 -0.000213658 7.12344e-05
-0.000213658 -0.00129869 -0.000345478
7.12344e-05 -0.000345478 0.000747742
0.00119154 0.000274693 3.66834e-07
0.000274693 0.000616285 2.11555e-05
3.66834e-07 2.11555e-05 0.000417395
0.00097309 0.000287295 -8.96657e-06
0.000287295 0.000616549 -6.11512e-06
-8.96657e-06 -6.11512e-06 0.000365487
-0.000568961 0.000142084 1.79995e-06
0.000142084 -0.00010125 -1.338e-06
1.79995e-06 -1.338e-06 -0.000481618
0.000451994 8.50054e-05 -7.85829e-08
8.50054e-05 7.05973e-05 -4.64297e-07
-7.85829e-08 -4.64297e-07 -0.000109189
0.00132396 -2.90443e-05 -3.53853e-06
-2.90443e-05 0.000689704 4.35156e-06
-3.53853e-06 4.35156e-06 0.000457544
-0.000278154 7.83331e-05 2.88329e-06
7.83331e-05 -0.000364701 3.94227e-06
2.88329e-06 3.94227e-06 -0.00053478
-0.00143392 6.17557e-05 2.00114e-06
6.17557e-05 -0.000752699 1.61756e-06
2.00114e-06 1.61756e-06 -0.00106908
0.000453878 -2.12655e-05 1.57192e-06
-2.12655e-05 0.000118033 5.61904e-07
1.57192e-06 5.61904e-07 -9.19822e-05
0.000477446 8.31251e-05 8.66219e-07
8.31251e-05 0.000245918 -2.2793e-06
8.66219e-07 -2.2793e-06 6.57587e-06
-2.9783e-05 5.17116e-05 3.75591e-06
5.17116e-05 0.000301479 2.82666e-06
3.75591e-06 2.82666e-06 -0.000173842
-0.00128669 1.08049e-05 -9.10989e-07
1.08049e-05 -0.000289218 1.075e-05
-9.10989e-07 1.075e-05 -0.000854908
0.000767146 2.12092e-05 -1.41342e-06
2.12092e-05 0.000722803 -5.83447e-06
-1.41342e-06 -5.83447e-06 0.000303246
0.00175636 5.16511e-05 -1.55126e-06
5.16511e-05 0.00103766 1.86775e-06
-1.55126e-06 1.86775e-06 0.000807056
0.000898876 -0.000177795 4.16536e-06
-0.000177795 0.000408355 2.90428e-06
4.16536e-06 2.90428e-06 0.000202595
0.000123271 -8.23382e-05 1.20668e-06
-8.23382e-05 -0.000217732 8.16232e-06
1.20668e-06 8.16232e-06 -0.000337507
-0.000103312 -8.62131e-05 1.05391e-05
-8.62131e-05 -0.000255986 1.87983e-05
1.05391e-05 1.87983e-05 -0.000355125
0.000268459 -3.12188e-05 9.22295e-07
-3.12188e-05 8.47754e-05 1.31839e-06
9.22295e-07 1.31839e-06 -0.000115019
0.00044884 -4.05505e-05 -4.35595e-07
-4.05505e-05 9.74098e-05 1.92254e-06
-4.35595e-07 1.92254e-06 -6.7062e-05
4.8477e-05 -6.78361e-05 -3.41704e-06
-6.78361e-05 -0.00011442 -1.36242e-06
-3.41704e-06 -1.36242e-06 -0.000251333
0.00020234 -8.47275e-05 -3.93052e-06
-8.47275e-05 -3.053e-05 -5.44255e-06
-3.93052e-06 -5.44255e-06 -0.00017827
0.00104403 -0.000115474 9.2594e-06
-0.000115474 0.000693484 -1.05054e-05
9.2594e-06 -1.05054e-05 0.000493549
0.00232326 -0.000370753 6.31648e-06
-0.000370753 0.00108651 4.24947e-06
6.31648e-06 4.24947e-06 0.000969374
0.000654809 -0.000138883 -1.75286e-05
-0.000138883 0.000125922 1.99114e-08
-1.75286e-05 1.99114e-08 7.08923e-06
0.000784879 -0.000302833 8.18583e-06
-0.000302833 0.00015027 5.11837e-06
8.18583e-06 5.11837e-06 -5.1918e-05
0.00259441 -0.000716152 -5.5748e-06
-0.000716152 0.00120525 2.15299e-05
-5.5748e-06 2.15299e-05 0.000792396
0.00214868 -0.000299645 7.77994e-06
-0.000299645 0.00102598 -9.02463e-06
7.77994e-06 -9.02463e-06 0.000811195
0.000999375 -0.000294204 -3.89451e-06
-0.000294204 0.000286968 -6.51009e-06
-3.89451e-06 -6.51009e-06 0.000100365
0.000497012 -0.000114855 -6.06776e-07
-0.000114855 0.000130917 -1.23044e-06
-6.06776e-07 -1.23044e-06 -7.37137e-05
-0.000807217 -5.46527e-05 -1.46602e-08
-5.46527e-05 -0.000635925 -2.24134e-06
-1.46602e-08 -2.24134e-06 -0.000905995
0.00132582 -4.55964e-05 1.99301e-06
-4.55964e-05 0.000684989 2.26744e-06
1.99301e-06 2.26744e-06 0.000480747
0.000692616 -0.000162721 1.42897e-06
-0.000162721 0.000265894 -8.11929e-07
1.42897e-06 -8.11929e-07 4.23281e-05
0.000279271 -6.83754e-05 5.9805e-07
-6.83754e-05 -9.21401e-05 -4.85034e-07
5.9805e-07 -4.85034e-07 -0.000236918
0.00156234 -0.000268575 -4.85814e-06
-0.000268575 0.000819455 8.96497e-07
-4.85814e-06 8.96497e-07 0.000618383
0.00073813 -0.000136584 -3.28297e-07
-0.000136584 0.000223924 1.76064e-07
-3.28297e-07 1.76064e-07 7.44411e-05
0.000498559 -5.35692e-06 -7.29013e-07
-5.35692e-06 3.94377e-05 4.15898e-06
-7.29013e-07 4.15898e-06 -5.54483e-05
0.000796915 -0.000149603 -3.15855e-07
-0.000149603 0.000280667 -2.78714e-06
-3.15855e-07 -2.78714e-06 0.000127794
0.000578289 -6.8121e-05 -1.69736e-07
-6.8121e-05 9.68023e-05 6.95354e-08
-1.69736e-07 6.95354e-08 2.58554e-06
0.00145557 5.88392e-06 -1.36956e-05
5.88392e-06 0.000625078 8.66959e-06
-1.36956e-05 8.66959e-06 0.00059854
0.000529461 -7.69218e-05 1.06066e-06
-7.69218e-05 7.2531e-05 -5.55612e-06
1.06066e-06 -5.55612e-06 -2.01278e-05
0.000846037 -1.7694e-05 -1.12031e-05
-1.7694e-05 0.000241471 8.17918e-07
-1.12031e-05 8.17918e-07 0.00021416
0.000789634 1.96204e-05 1.63463e-06
1.96204e-05 0.000189339 3.14625e-06
1.63463e-06 3.14625e-06 0.000189861
0.00040467 -4.34232e-05 3.02804e-06
-4.34232e-05 -3.51755e-05 -5.41959e-06
3.02804e-06 -5.41959e-06 -6.36354e-05
0.00166501 1.7738e-05 1.37853e-05
1.7738e-05 0.00075498 -1.55491e-06
1.37853e-05 -1.55491e-06 0.000763072
0.00250973 6.82157e-06 1.6571e-05
6.82157e-06 0.00129818 -5.20058e-06
1.6571e-05 -5.20058e-06 0.00131086
0.000465927 7.06703e-05 1.64566e-06
7.06703e-05 3.61913e-05 -1.41145e-06
1.64566e-06 -1.41145e-06 -7.90645e-05
0.000573862 7.29486e-05 -9.8055e-07
7.29486e-05 9.08527e-05 -3.02782e-06
-9.8055e-07 -3.02782e-06 2.7016e-05
0.000552715 1.15295e-05 5.72671e-07
1.15295e-05 0.000109669 8.57279e-07
5.72671e-07 8.57279e-07 -3.35283e-06
0.000436701 8.59551e-06 2.31078e-06
8.59551e-06 -3.5903e-05 -4.20522e-06
2.31078e-06 -4.20522e-06 -4.78945e-05
0.000467069 6.16492e-05 -7.73319e-08
6.16492e-05 2.25233e-05 -2.24638e-07
-7.73319e-08 -2.24638e-07 -3.37993e-05
0.000438165 -0.000115495 -2.95028e-06
-0.000115495 3.46877e-05 2.09371e-06
-2.95028e-06 2.09371e-06 -6.96061e-05
0.00202564 1.23593e-05 -8.64685e-06
1.23593e-05 0.000983204 -5.05355e-06
-8.64685e-06 -5.05355e-06 0.00100019
0.000423568 7.63773e-06 -2.67741e-07
7.63773e-06 -4.43255e-05 3.14482e-08
-2.67741e-07 3.14482e-08 -5.55732e-05
0.000481943 7.02956e-07 -1.06745e-06
7.02956e-07 2.38082e-05 2.96319e-06
-1.06745e-06 2.96319e-06 -2.36624e-05
0.000445028 3.61418e-06 -2.12757e-06
3.61418e-06 -3.15897e-05 3.79517e-06
-2.12757e-06 3.79517e-06 -4.38746e-05
0.00206826 2.82059e-05 -5.74624e-06
2.82059e-05 0.00101318 -1.35788e-07
-5.74624e-06 -1.35788e-07 0.00102859
0.00206398 4.3146e-05 -2.33879e-06
4.3146e-05 0.00101354 5.06502e-06
-2.33879e-06 5.06502e-06 0.00102722
-0.00480309 -0.00214668 -0.00027938
-0.00214668 0.00748071 6.99315e-05
-0.00027938 6.99315e-05 0.00266928
0.00402279 0.00223824 -0.000372469
0.00223824 0.00186317 0.000120906
-0.000372469 0.000120906 -0.0014932
0.00295939 -0.00115944 -0.000678463
-0.00115944 0.00137996 0.000296606
-0.000678463 0.000296606 -0.00359224
0.00307647 0.00202612 0.00140959
0.00202612 0.00844247 -0.00032362
0.00140959 -0.00032362 0.00257366
0.00447389 0.000849242 -5.61636e-05
0.000849242 -0.000649149 6.17088e-06
-5.61636e-05 6.17088e-06 0.00068012
0.00359633 -0.000643891 0.000104645
-0.000643891 -0.000140123 5.32546e-06
0.000104645 5.32546e-06 0.000168693
0.0016189 -0.000465997 0.000382271
-0.000465997 -0.00647903 -5.28154e-05
0.000382271 -5.28154e-05 -0.00728019
0.0271913 0.0045318 -0.00134777
0.0045318 0.0121927 5.15786e-05
-0.00134777 5.15786e-05 0.0075222
0.0139053 0.0131002 -0.00291006
0.0131002 0.00997976 0.0017549
-0.00291006 0.0017549 0.00343828
0.00543837 -0.000981664 5.00909e-05
-0.000981664 -0.000876041 4.26191e-06
5.00909e-05 4.26191e-06 0.000431976
0.00789023 -0.00341086 0.000216168
-0.00341086 -0.00367099 -0.000179577
0.000216168 -0.000179577 -0.00532899
0.022866 0.00717688 -0.00042196
0.00717688 0.00840261 -0.000146257
-0.00042196 -0.000146257 0.00211786
0.0191648 0.00531441 0.000131142
0.00531441 0.0060655 0.000472678
0.000131142 0.000472678 0.00206367
0.001541 -0.00231733 -0.000105977
-0.00231733 -0.00413169 4.66092e-05
-0.000105977 4.66092e-05 -0.00203036
0.00739835 -0.00546339 0.000629356
-0.00546339 -0.00028627 -0.000265022
0.000629356 -0.000265022 -0.00346638
0.0132238 0.00394803 -3.1407e-05
0.00394803 0.00426594 -0.00101492
-3.1407e-05 -0.00101492 -0.00210273
0.00969764 7.79827e-05 -0.000385292
7.79827e-05 -0.00124132 4.63935e-05
-0.000385292 4.63935e-05 -0.00121936
0.00236874 -5.80073e-05 1.02686e-06
-5.80073e-05 0.00140353 1.70033e-05
1.02686e-06 1.70033e-05 0.00110925
0.000218486 8.3915e-05 -1.69265e-06
8.3915e-05 -4.57284e-05 -2.22585e-06
-1.69265e-06 -2.22585e-06 -0.000200188
0.000555131 0.000115578 3.57206e-06
0.000115578 0.000110615 8.51321e-07
3.57206e-06 8.51321e-07 1.28803e-06
-0.000135819 -4.63562e-05 4.62659e-06
-4.63562e-05 -0.000277568 -3.16281e-06
4.62659e-06 -3.16281e-06 -0.00036037
0.000467039 0.000132896 2.54002e-06
0.000132896 6.52021e-05 8.04395e-06
2.54002e-06 8.04395e-06 -0.00013005
0.000491279 6.97339e-05 -1.10748e-07
6.97339e-05 0.00010492 1.49877e-06
-1.10748e-07 1.49877e-06 -6.54751e-05
5.94515e-05 1.73921e-05 2.09474e-06
1.73921e-05 -0.000174982 -1.61071e-06
2.09474e-06 -1.61071e-06 -0.00030875
0.000895916 0.000187845 6.11841e-06
0.000187845 0.000358458 9.99964e-06
6.11841e-06 9.99964e-06 0.000168199
0.000927556 0.000158446 -4.86512e-08
0.000158446 0.000391953 -5.86475e-07
-4.86512e-08 -5.86475e-07 0.000200282
0.000297623 5.56635e-06 -3.33268e-06
5.56635e-06 -3.48817e-05 -5.88939e-06
-3.33268e-06 -5.88939e-06 -0.000180708
0.000621423 -0.000613332 9.55001e-05
-0.000613332 -0.00148034 -6.01384e-05
9.55001e-05 -6.01384e-05 -0.000968944
0.000184818 -0.00075059 1.45627e-06
-0.00075059 -0.000962743 -9.37129e-06
1.45627e-06 -9.37129e-06 -0.0009645
0.00161239 -0.00109982 -5.2251e-06
-0.00109982 -0.000108838 1.15134e-05
-5.2251e-06 1.15134e-05 -0.000253176
-0.00114835 -0.000797119 4.78513e-06
-0.000797119 -0.00102807 -2.84477e-06
4.78513e-06 -2.84477e-06 -0.00133938
0.00399612 -0.000585797 -3.87164e-05
-0.000585797 0.00254045 8.10345e-05
-3.87164e-05 8.10345e-05 0.00197792
0.000717067 -0.00025376 -2.39348e-06
-0.00025376 0.000503781 7.25787e-06
-2.39348e-06 7.25787e-06 0.000146488
0.000333506 0.000105499 -1.41616e-06
0.000105499 0.000123093 -1.47847e-05
-1.41616e-06 -1.47847e-05 -0.000140305
0.00058577 -1.91619e-05 -4.38195e-06
-1.91619e-05 0.000276169 8.36862e-06
-4.38195e-06 8.36862e-06 -1.85727e-05
0.00249612 -0.0011438 -2.18576e-05
-0.0011438 -1.24203e-05 6.25386e-07
-2.18576e-05 6.25386e-07 4.4509e-06
0.00067262 -5.14955e-05 1.99462e-06
-5.14955e-05 0.000390305 3.52767e-06
1.99462e-06 3.52767e-06 8.88585e-05
0.00233365 -0.000385858 6.03711e-06
-0.000385858 0.00147284 -3.45991e-06
6.03711e-06 -3.45991e-06 0.00105287
0.00148044 -0.00094551 1.50036e-05
-0.00094551 3.06698e-05 -4.47171e-06
1.50036e-05 -4.47171e-06 -3.4759e-05
0.000557042 -0.000720721 -3.7928e-05
-0.000720721 0.000348242 1.13494e-05
-3.7928e-05 1.13494e-05 -4.98021e-05
0.00235271 -0.0019349 5.75857e-05
-0.0019349 0.00017786 -3.25389e-05
5.75857e-05 -3.25389e-05 -0.000146805
0.000598008 -0.000712107 -1.25503e-05
-0.000712107 0.000168459 3.31159e-05
-1.25503e-05 3.31159e-05 2.20809e-05
-0.00175396 -0.000138496 1.29743e-05
-0.000138496 -0.000699844 4.94179e-06
1.29743e-05 4.94179e-06 -0.00122539
0.000415936 6.01753e-05 -4.00552e-06
6.01753e-05 0.000165087 8.23797e-06
-4.00552e-06 8.23797e-06 -4.77048e-05
0.000180926 -9.79751e-05 1.04882e-06
-9.79751e-05 0.000203665 2.99135e-06
1.04882e-06 2.99135e-06 -0.000150272
0.0015254 0.000244463 -8.37224e-05
0.000244463 0.0021975 -3.08587e-05
-8.37224e-05 -3.08587e-05 -0.00260043
-0.0076325 0.000442719 -0.000529011
0.000442719 0.00733786 -2.19112e-05
-0.000529011 -2.19112e-05 0.00142015
-0.0138968 -0.00347453 -0.00101646
-0.00347453 -0.00449629 -6.8118e-06
-0.00101646 -6.8118e-06 -0.00658422
0.000126702 0.000361434 1.60234e-05
0.000361434 3.11941e-05 -2.8178e-06
1.60234e-05 -2.8178e-06 -0.000283994
-0.000914726 0.000626902 -1.56151e-06
0.000626902 -0.00059402 9.97086e-06
-1.56151e-06 9.97086e-06 -0.00109144
0.00295112 0.00133212 4.83006e-05
0.00133212 0.000895173 4.17704e-05
4.83006e-05 4.17704e-05 0.000626704
-0.00467303 0.0023947 0.000135651
0.0023947 0.00813235 6.73107e-05
0.000135651 6.73107e-05 0.00274316
0.00701508 0.0054029 -0.000501226
0.0054029 -0.000701302 -0.000207894
-0.000501226 -0.000207894 -0.00349762
0.000611408 0.00267252 0.000493264
0.00267252 -0.000195224 0.000200836
0.000493264 0.000200836 -0.00010735
-0.000186647 0.00118044 -9.66489e-06
0.00118044 -2.80828e-05 -4.65437e-05
-9.66489e-06 -4.65437e-05 -0.000334409
0.0302904 -0.00436841 -9.1794e-05
-0.00436841 0.0110047 -0.000480661
-9.1794e-05 -0.000480661 0.00553271
0.00766451 0.00250168 0.000801329
0.00250168 0.00380088 0.000281875
0.000801329 0.000281875 -0.00273942
0.0140545 -0.00143111 0.000182569
-0.00143111 0.00265924 5.83754e-05
0.000182569 5.83754e-05 0.0038745
0.00146287 0.000714594 8.54559e-06
0.000714594 0.000789082 -1.03822e-06
8.54559e-06 -1.03822e-06 0.000403794
0.00388983 0.000999163 -4.11716e-05
0.000999163 0.00394433 5.82641e-06
-4.11716e-05 5.82641e-06 -0.000706882
0.00210996 0.00111485 0.000102959
0.00111485 0.00042861 -8.90015e-06
0.000102959 -8.90015e-06 -0.00148163
-0.00030377 0.000670727 -4.06438e-06
0.000670727 2.57707e-05 -5.85905e-06
-4.06438e-06 -5.85905e-06 -0.000401967
-0.000355299 0.00179535 -0.000145009
0.00179535 0.000610435 -7.89575e-05
-0.000145009 -7.89575e-05 -0.000733612
0.00257579 0.00631689 0.000315356
0.00631689 0.0013973 0.000127531
0.000315356 0.000127531 -0.00314405
0.0115446 -0.000394661 1.2665e-05
-0.000394661 -0.00325943 -0.000230617
1.2665e-05 -0.000230617 -0.000852153
0.00828308 -0.00284871 -0.000107311
-0.00284871 0.0046728 -0.000204468
-0.000107311 -0.000204468 -0.00150268
0.000961792 0.000573474 -2.59725e-06
0.000573474 0.00085291 -1.24102e-05
-2.59725e-06 -1.24102e-05 0.000393229
-0.00388528 0.00053394 3.45581e-05
0.00053394 0.000575081 5.39447e-05
3.45581e-05 5.39447e-05 -0.000678848
0.00660586 -0.000619811 0.000201943
-0.000619811 -2.39531e-05 -0.000139438
0.000201943 -0.000139438 -0.00160369
0.00945684 0.000232817 0.000348693
0.000232817 -0.00115696 -1.49287e-05
0.000348693 -1.49287e-05 -0.00102563
-0.00289469 0.000262377 5.79792e-05
0.000262377 7.19168e-05 -1.69479e-05
5.79792e-05 -1.69479e-05 -0.000904133
0.0108621 0.00408948 0.000398432
0.00408948 0.00612391 0.000143309
0.000398432 0.000143309 -0.000126362
0.00485076 -0.000729085 -3.35056e-05
-0.000729085 0.00320217 0.000392327
-3.35056e-05 0.000392327 -0.00117209
0.0031572 0.000527352 2.72291e-05
0.000527352 0.00198177 1.05163e-05
2.72291e-05 1.05163e-05 0.00166251
0.000381022 0.00027631 -8.81881e-06
0.00027631 0.000478703 -2.30893e-06
-8.81881e-06 -2.30893e-06 5.32487e-05
0.000197308 0.000255809 2.06897e-06
0.000255809 0.000538968 -1.13224e-05
2.06897e-06 -1.13224e-05 -2.44786e-05
0.000214181 0.000118102 1.76114e-06
0.000118102 -2.56779e-05 -4.0157e-06
1.76114e-06 -4.0157e-06 -0.000238366
0.000485596 0.000122936 -5.20129e-09
0.000122936 0.000230902 9.76482e-08
-5.20129e-09 9.76482e-08 1.14056e-05
-5.84572e-05 9.14669e-06 5.55677e-06
9.14669e-06 0.000308853 -4.21743e-06
5.55677e-06 -4.21743e-06 -0.000178117
0.000514032 3.89906e-05 5.19528e-07
3.89906e-05 0.000230885 -6.42758e-07
5.19528e-07 -6.42758e-07 2.68995e-05
0.00101196 -4.03953e-05 -7.20027e-07
-4.03953e-05 0.000897562 -2.84361e-06
-7.20027e-07 -2.84361e-06 0.000461067
-0.000191607 2.49505e-05 1.81377e-06
2.49505e-05 0.00034559 6.8953e-07
1.81377e-06 6.8953e-07 -0.000195934
-5.63537e-05 -5.4161e-05 2.58206e-06
-5.4161e-05 0.000395096 1.63265e-05
2.58206e-06 1.63265e-05 -8.51357e-05
0.000565883 -4.37449e-05 1.01794e-06
-4.37449e-05 0.000564433 -1.1866e-05
1.01794e-06 -1.1866e-05 0.000222844
-9.40806e-05 -4.61737e-05 5.29159e-06
-4.61737e-05 -0.000178538 8.64471e-06
5.29159e-06 8.64471e-06 -0.000347615
0.00136545 -3.50475e-05 1.29061e-06
-3.50475e-05 0.000652785 5.72874e-06
1.29061e-06 5.72874e-06 0.000492906
0.000407851 -6.87243e-05 -1.09774e-05
-6.87243e-05 0.000132509 1.27002e-05
-1.09774e-05 1.27002e-05 -1.40287e-05
0.000675596 -9.39828e-05 1.77562e-06
-9.39828e-05 0.00045243 5.48329e-07
1.77562e-06 5.48329e-07 0.000262439
0.000157373 -4.63155e-05 -2.03449e-06
-4.63155e-05 -4.59707e-05 -1.91933e-06
-2.03449e-06 -1.91933e-06 -0.000192982
0.00108732 -0.00028158 2.31384e-06
-0.00028158 0.000513554 3.20698e-06
2.31384e-06 3.20698e-06 0.000363987
0.000593541 -0.00021964 -2.05712e-05
-0.00021964 0.000135717 2.35594e-07
-2.05712e-05 2.35594e-07 7.15866e-05
-0.000751199 -0.000310751 1.53018e-05
-0.000310751 -0.000638877 2.24195e-05
1.53018e-05 2.24195e-05 -0.000967107
0.000200955 -0.000120262 1.55295e-06
-0.000120262 -0.000132263 5.36879e-07
1.55295e-06 5.36879e-07 -0.000248333
0.0011281 -0.000340496 -5.91755e-06
-0.000340496 0.000347157 1.07123e-05
-5.91755e-06 1.07123e-05 0.000131902
0.00214165 -0.000689408 -6.8343e-06
-0.000689408 0.00091441 1.3194e-05
-6.8343e-06 1.3194e-05 0.000475489
0.00197545 -0.000707592 -6.25163e-06
-0.000707592 0.000719618 -1.50482e-06
-6.25163e-06 -1.50482e-06 0.000243749
0.00182784 -0.000460674 1.24545e-06
-0.000460674 0.000785146 1.65826e-06
1.24545e-06 1.65826e-06 0.000497971
0.00061551 -0.000448543 1.07003e-05
-0.000448543 -2.04921e-05 -4.08569e-06
1.07003e-05 -4.08569e-06 -0.000358112
0.00109885 -0.000205 3.26865e-06
-0.000205 0.000498798 -3.80271e-06
3.26865e-06 -3.80271e-06 0.000199074
0.00107525 -0.000240638 -8.11474e-06
-0.000240638 0.000403792 1.80157e-06
-8.11474e-06 1.80157e-06 0.000177137
-8.52206e-05 -0.000190978 2.1333e-05
-0.000190978 -0.000373358 -1.64357e-05
2.1333e-05 -1.64357e-05 -0.000514159
0.00140986 -0.000145085 -4.80475e-06
-0.000145085 0.000677782 2.90325e-06
-4.80475e-06 2.90325e-06 0.000469256
9.34011e-05 -0.000108351 6.98836e-07
-0.000108351 -8.68117e-05 1.19825e-06
6.98836e-07 1.19825e-06 -0.000352717
-4.84774e-05 -4.70912e-05 1.12239e-06
-4.70912e-05 -0.000268122 -1.05317e-06
1.12239e-06 -1.05317e-06 -0.000458802
0.0019786 -0.000314521 -2.99927e-06
-0.000314521 0.00107165 -4.18235e-07
-2.99927e-06 -4.18235e-07 0.000834576
0.000700882 -0.000134061 -5.29416e-07
-0.000134061 0.000197756 -4.68633e-08
-5.29416e-07 -4.68633e-08 3.25291e-05
0.000402159 1.61945e-07 3.01463e-06
1.61945e-07 -8.49254e-06 4.76778e-06
3.01463e-06 4.76778e-06 -0.000121855
0.000806463 -0.000168799 -1.21616e-07
-0.000168799 0.000279566 -2.2596e-06
-1.21616e-07 -2.2596e-06 0.000118077
0.000439867 2.71531e-06 -2.14917e-06
2.71531e-06 1.71049e-05 -2.04545e-07
-2.14917e-06 -2.04545e-07 -8.83792e-05
0.00147839 -8.1297e-06 -2.13026e-05
-8.1297e-06 0.000640027 6.22958e-06
-2.13026e-05 6.22958e-06 0.00061045
0.000587226 -7.90005e-05 1.44737e-06
-7.90005e-05 0.000111401 -5.84015e-06
1.44737e-06 -5.84015e-06 1.27317e-05
0.000848053 -1.68465e-05 -1.04886e-05
-1.68465e-05 0.000237728 5.15851e-07
-1.04886e-05 5.15851e-07 0.000208052
0.000860723 3.04451e-05 8.67151e-07
3.04451e-05 0.000231626 3.6024e-06
8.67151e-07 3.6024e-06 0.000229184
0.000435929 -3.7277e-05 3.26434e-06
-3.7277e-05 -2.27798e-05 -6.83155e-06
3.26434e-06 -6.83155e-06 -5.33248e-05
0.00175378 2.99578e-05 1.70222e-05
2.99578e-05 0.000809144 -1.28304e-06
1.70222e-05 -1.28304e-06 0.000815534
0.00255222 2.00466e-05 2.18733e-05
2.00466e-05 0.00132225 -5.60099e-06
2.18733e-05 -5.60099e-06 0.00133477
0.000227505 2.6584e-05 1.81453e-06
2.6584e-05 -0.000100084 2.52439e-06
1.81453e-06 2.52439e-06 -0.000245323
6.84133e-05 2.49943e-05 4.32612e-07
2.49943e-05 -0.000238262 -4.80346e-06
4.32612e-07 -4.80346e-06 -0.000310201
0.000586451 6.83488e-05 -5.80598e-08
6.83488e-05 0.000126205 4.00386e-07
-5.80598e-08 4.00386e-07 -4.0379e-07
0.000441941 9.68496e-06 2.14314e-06
9.68496e-06 -3.44475e-05 -4.47251e-06
2.14314e-06 -4.47251e-06 -4.85384e-05
0.000301869 9.01131e-06 1.75382e-06
9.01131e-06 -9.13395e-05 4.62993e-08
1.75382e-06 4.62993e-08 -0.000151587
0.000201834 -9.85483e-05 -6.83161e-07
-9.85483e-05 -0.000116658 5.29855e-07
-6.83161e-07 5.29855e-07 -0.000229371
0.0020755 -1.91109e-06 -1.32235e-05
-1.91109e-06 0.00101408 -5.12561e-06
-1.32235e-05 -5.12561e-06 0.00103117
0.000431683 6.60911e-06 5.58571e-08
6.60911e-06 -3.99745e-05 -7.53611e-08
5.58571e-08 -7.53611e-08 -5.16209e-05
0.000401168 -1.14472e-05 -3.42187e-06
-1.14472e-05 -2.58959e-05 3.2345e-06
-3.42187e-06 3.2345e-06 -7.8141e-05
0.00205424 1.37058e-05 -4.89956e-06
1.37058e-05 0.00100206 -2.44534e-09
-4.89956e-06 -2.44534e-09 0.00101871
0.000430119 6.49366e-06 -1.90802e-06
6.49366e-06 -3.95884e-05 3.69905e-06
-1.90802e-06 3.69905e-06 -5.09257e-05
0.00204534 2.92269e-05 3.71009e-06
2.92269e-05 0.000998529 5.21244e-06
3.71009e-06 5.21244e-06 0.00101385
-0.000698413 -0.00123251 -0.000315663
-0.00123251 -0.000122932 0.000134987
-0.000315663 0.000134987 -0.00408292
0.00303907 0.00126783 -0.000182863
0.00126783 0.00952236 4.58761e-05
-0.000182863 4.58761e-05 0.00393955
0.00377321 0.000430493 -0.00124819
0.000430493 0.00448562 0.000282875
-0.00124819 0.000282875 0.00231154
0.000615115 0.000127393 8.35198e-06
0.000127393 0.00015107 7.74342e-06
8.35198e-06 7.74342e-06 -1.61654e-05
0.00601324 -0.00127999 -0.000170066
-0.00127999 0.00371801 0.000304678
-0.000170066 0.000304678 0.00111626
0.00442168 -0.00154024 -0.000317912
-0.00154024 0.00204692 3.54441e-05
-0.000317912 3.54441e-05 -0.00298725
0.0162473 0.00572885 0.000330458
0.00572885 0.0101317 -0.000456148
0.000330458 -0.000456148 0.00377562
0.00785147 -0.00152366 0.000145667
-0.00152366 0.000266051 -2.9871e-05
0.000145667 -2.9871e-05 0.00109235
0.0147174 -0.00324064 0.000336277
-0.00324064 0.000818884 -0.000199781
0.000336277 -0.000199781 0.000589646
0.0158711 0.00559965 -0.000928037
0.00559965 0.00379458 0.000443585
-0.000928037 0.000443585 -0.00213586
0.0155936 0.00475644 0.000213586
0.00475644 0.0077269 0.000272088
0.000213586 0.000272088 0.00411212
0.00774544 -0.00306072 -0.000104321
-0.00306072 -0.000460792 -5.38601e-06
-0.000104321 -5.38601e-06 0.000626787
0.0145914 -0.00584041 6.40754e-06
-0.00584041 0.0021328 -4.22118e-05
6.40754e-06 -4.22118e-05 -0.000334299
0.0104091 0.00303355 0.00012927
0.00303355 0.00552339 -0.000421171
0.00012927 -0.000421171 -0.000615948
0.0143885 0.00133812 -3.56303e-06
0.00133812 0.000813863 5.8426e-05
-3.56303e-06 5.8426e-05 -5.44932e-05
0.00342621 -0.00316798 -6.10683e-05
-0.00316798 0.000324384 7.40101e-05
-6.10683e-05 7.40101e-05 0.000912952
0.0107346 -0.00579045 0.000246343
-0.00579045 0.00447446 -0.000150341
0.000246343 -0.000150341 0.000447079
0.0099784 -0.000266245 8.18374e-05
-0.000266245 0.00599475 -0.000496701
8.18374e-05 -0.000496701 0.00191229
0.0138616 -9.875e-05 -0.00018991
-9.875e-05 -0.000962138 0.00031399
-0.00018991 0.00031399 0.00061013
0.00026387 0.000137149 8.43943e-06
0.000137149 3.52063e-05 1.59494e-05
8.43943e-06 1.59494e-05 -0.000184604
0.000599994 -0.000116584 3.70912e-07
-0.000116584 0.000269193 1.17831e-07
3.70912e-07 1.17831e-07 9.4717e-06
0.000642405 8.93741e-05 4.04488e-06
8.93741e-05 0.000231735 -2.67147e-06
4.04488e-06 -2.67147e-06 7.21805e-05
0.00051976 0.000176517 3.59841e-06
0.000176517 4.77863e-05 1.64674e-05
3.59841e-06 1.64674e-05 -0.000100617
0.000857653 0.000237504 3.27262e-07
0.000237504 0.000343897 -3.28347e-07
3.27262e-07 -3.28347e-07 0.000131735
0.0010878 0.000132331 -2.83537e-06
0.000132331 0.000507448 -4.3637e-06
-2.83537e-06 -4.3637e-06 0.000327269
0.00110613 0.00019907 -1.80233e-06
0.00019907 0.000497893 -8.11403e-08
-1.80233e-06 -8.11403e-08 0.00030126
0.00111266 0.000218653 1.8946e-06
0.000218653 0.000530753 1.62448e-06
1.8946e-06 1.62448e-06 0.000325335
0.000866977 -0.000890174 0.000129509
-0.000890174 -0.00100817 -8.20698e-05
0.000129509 -8.20698e-05 -0.000709482
-9.71793e-05 -0.000778095 -3.28533e-05
-0.000778095 -0.000893347 -9.46187e-06
-3.28533e-05 -9.46187e-06 -0.000863007
0.000720562 -0.000203721 5.60587e-06
-0.000203721 0.0003755 -3.28965e-05
5.60587e-06 -3.28965e-05 6.43486e-05
0.00192249 -0.000816875 2.59531e-05
-0.000816875 0.00107384 -2.47893e-05
2.59531e-05 -2.47893e-05 0.000696158
0.00268163 -0.000557886 -2.20406e-05
-0.000557886 0.00161642 2.28375e-05
-2.20406e-05 2.28375e-05 0.00120234
0.00177379 -0.000188471 9.07021e-06
-0.000188471 0.00106902 -2.06641e-05
9.07021e-06 -2.06641e-05 0.000741571
3.50711e-05 2.67139e-05 3.83609e-06
2.67139e-05 -8.44452e-05 6.86126e-06
3.83609e-06 6.86126e-06 -0.000299787
0.000443734 -0.00161388 -9.92092e-06
-0.00161388 -0.000704664 -7.19191e-06
-9.92092e-06 -7.19191e-06 -0.00094723
0.00154072 -5.04078e-05 -1.33418e-06
-5.04078e-05 0.00104605 -1.33302e-06
-1.33418e-06 -1.33302e-06 0.000679168
-0.000184605 -0.000255855 -9.77798e-06
-0.000255855 0.000121001 8.57365e-06
-9.77798e-06 8.57365e-06 -0.000356133
-0.000569796 -0.000522476 2.95733e-05
-0.000522476 -0.000567833 -2.66967e-06
2.95733e-05 -2.66967e-06 -0.00056276
0.000710482 0.000119392 3.62867e-06
0.000119392 0.00035289 8.25046e-06
3.62867e-06 8.25046e-06 0.000164706
-0.000783228 -0.00158562 -0.000110411
-0.00158562 -0.000399068 -2.49556e-05
-0.000110411 -2.49556e-05 -0.000912244
-0.00102389 -0.000479417 -1.56265e-05
-0.000479417 -0.000354807 2.61093e-05
-1.56265e-05 2.61093e-05 -0.000763131
0.000334128 0.000141826 5.85631e-06
0.000141826 0.000582341 -1.57643e-05
5.85631e-06 -1.57643e-05 4.84716e-05
0.00185686 0.000296316 -3.35104e-06
0.000296316 0.0013374 1.62187e-06
-3.35104e-06 1.62187e-06 0.00093816
-0.00107196 0.000117218 0.000197877
0.000117218 0.00257274 4.79919e-05
0.000197877 4.79919e-05 0.000989155
0.000128421 1.66241e-05 0.00019654
1.66241e-05 0.00129642 -3.71457e-05
0.00019654 -3.71457e-05 -0.00363986
-0.0134842 -0.000482589 -0.00039496
-0.000482589 0.00675503 2.91476e-05
-0.00039496 2.91476e-05 0.000806422
0.00177568 0.000717566 2.17347e-05
0.000717566 0.00107587 -6.2621e-07
2.17347e-05 -6.2621e-07 0.000692444
-0.000638686 0.00089786 1.3087e-05
0.00089786 -0.00017799 1.08396e-05
1.3087e-05 1.08396e-05 -0.000744765
0.00587809 0.00136375 0.000465677
0.00136375 0.00442287 0.000108194
0.000465677 0.000108194 0.00100579
0.00709669 0.00477549 0.000266868
0.00477549 0.00297489 0.000217924
0.000266868 0.000217924 -0.00110817
0.00370409 0.0032191 -0.000154493
0.0032191 0.00213854 -0.000137947
-0.000154493 -0.000137947 0.000539666
0.00448547 -0.00235795 -0.000175884
-0.00235795 0.00509614 -0.000505737
-0.000175884 -0.000505737 0.00036029
0.00324613 0.000754056 0.000142974
0.000754056 0.000711957 0.000174215
0.000142974 0.000174215 -0.00117251
0.00914557 -0.000433255 -4.96944e-05
-0.000433255 -0.00550096 -0.000265788
-4.96944e-05 -0.000265788 -0.00258701
0.00102999 0.000681832 3.3539e-06
0.000681832 0.000839998 -2.20224e-07
3.3539e-06 -2.20224e-07 0.000332234
-0.00305152 0.000278193 -1.96994e-06
0.000278193 0.000743728 6.78135e-06
-1.96994e-06 6.78135e-06 -0.000676359
0.00554503 -0.000329995 0.000160305
-0.000329995 -7.82933e-05 1.65062e-05
0.000160305 1.65062e-05 -0.00120126
-0.00191056 0.000633084 -1.92392e-05
0.000633084 -9.16585e-05 -1.22955e-05
-1.92392e-05 -1.22955e-05 -0.000990608
0.0144609 0.00157275 4.7401e-06
0.00157275 0.000785569 -6.22313e-05
4.7401e-06 -6.22313e-05 -5.28092e-05
0.00361532 0.00246752 0.000295668
0.00246752 0.00478025 0.000177687
0.000295668 0.000177687 -0.00145031
0.0102345 0.000702636 -0.000196638
0.000702636 0.00400533 1.11847e-05
-0.000196638 1.11847e-05 -0.000350379
0.000443726 0.000602001 4.04431e-06
0.000602001 0.000701392 -2.22969e-05
4.04431e-06 -2.22969e-05 3.54892e-05
0.00227559 -3.51344e-05 1.35852e-06
-3.51344e-05 0.00104391 3.9572e-06
1.35852e-06 3.9572e-06 -6.08506e-05
0.00409474 -0.00189708 0.000167366
-0.00189708 0.00363267 -0.000275875
0.000167366 -0.000275875 0.00143859
0.0261052 0.00621976 0.000366076
0.00621976 0.00913846 -0.000337049
0.000366076 -0.000337049 0.00504051
0.0102307 -0.000402097 -0.000142418
-0.000402097 0.00645778 0.000555415
-0.000142418 0.000555415 0.00214139
-0.000917204 0.000613661 -8.35611e-05
0.000613661 0.000735417 -0.000136396
-8.35611e-05 -0.000136396 -0.000193605
0.00392648 0.00132109 0.000273701
0.00132109 0.00665354 2.40575e-05
0.000273701 2.40575e-05 -0.00255299
0.00145894 0.000451326 1.10787e-05
0.000451326 0.00108593 1.16696e-05
1.10787e-05 1.16696e-05 0.000632811
0.000819266 0.000315681 4.69127e-06
0.000315681 0.000911937 6.17621e-06
4.69127e-06 6.17621e-06 0.000378306
0.000597862 -7.13081e-05 -6.42935e-06
-7.13081e-05 0.00100985 1.31885e-05
-6.42935e-06 1.31885e-05 0.000519394
-0.000982947 -1.19846e-05 2.11076e-06
-1.19846e-05 -0.000716364 -3.36034e-06
2.11076e-06 -3.36034e-06 -0.000909928
-0.000519527 -2.83744e-05 1.84679e-06
-2.83744e-05 6.91247e-05 3.64514e-06
1.84679e-06 3.64514e-06 -0.00045139
-6.63408e-05 3.57774e-05 -1.21465e-06
3.57774e-05 0.000447884 -8.80364e-06
-1.21465e-06 -8.80364e-06 -0.00011552
-3.88531e-05 -1.78396e-05 3.27907e-07
-1.78396e-05 0.000145247 3.4891e-07
3.27907e-07 3.4891e-07 -0.000151102
-0.000183607 -6.69232e-05 2.53107e-06
-6.69232e-05 0.000307468 1.71653e-06
2.53107e-06 1.71653e-06 -0.000170967
0.00207911 -0.000481599 9.48469e-06
-0.000481599 0.00137068 -1.23113e-05
9.48469e-06 -1.23113e-05 0.00101458
-8.77136e-05 -5.37807e-05 -4.22217e-06
-5.37807e-05 -1.74982e-05 8.20251e-06
-4.22217e-06 8.20251e-06 -0.000204903
-0.00039922 2.42366e-05 6.15285e-07
2.42366e-05 -0.000373358 4.10217e-06
6.15285e-07 4.10217e-06 -0.000516236
0.000998848 -0.000320249 -6.52241e-07
-0.000320249 0.000468431 5.92293e-06
-6.52241e-07 5.92293e-06 0.000266969
-0.00398786 1.55079e-05 2.46028e-05
1.55079e-05 -0.00232419 2.33788e-05
2.46028e-05 2.33788e-05 -0.00267991
-0.000734709 -9.83521e-05 1.27727e-05
-9.83521e-05 -0.000594051 -4.55111e-07
1.27727e-05 -4.55111e-07 -0.000612053
-4.14137e-05 -0.000370496 -4.03061e-06
-0.000370496 -0.000264656 -5.81229e-06
-4.03061e-06 -5.81229e-06 -0.000554775
0.00160299 -0.000694812 5.47978e-07
-0.000694812 0.000554527 8.90555e-07
5.47978e-07 8.90555e-07 -1.04964e-05
0.00190847 -0.000823204 -1.03531e-05
-0.000823204 0.000617866 5.8196e-07
-1.03531e-05 5.8196e-07 8.39642e-05
0.00140231 -0.000378759 5.2398e-06
-0.000378759 0.00049791 -6.24404e-06
5.2398e-06 -6.24404e-06 0.000269433
0.00149388 -0.000609425 8.2207e-07
-0.000609425 0.000507648 1.0998e-06
8.2207e-07 1.0998e-06 7.91349e-05
0.00175876 -0.000717226 3.83208e-06
-0.000717226 0.000531239 -5.47464e-06
3.83208e-06 -5.47464e-06 5.60322e-05
0.0018194 -0.000550472 -8.79792e-07
-0.000550472 0.000707185 6.11448e-06
-8.79792e-07 6.11448e-06 0.000325123
0.0010547 -0.000585837 2.51002e-06
-0.000585837 0.000158528 -5.0875e-06
2.51002e-06 -5.0875e-06 -0.000280699
0.000922872 -0.000221024 6.66181e-07
-0.000221024 0.000282955 -5.74307e-06
6.66181e-07 -5.74307e-06 1.21978e-05
0.0010836 -0.00039772 -4.3023e-06
-0.00039772 0.000322203 2.1327e-06
-4.3023e-06 2.1327e-06 3.19485e-05
-0.00102817 -0.000220543 1.60372e-06
-0.000220543 -0.00103083 -9.66389e-06
1.60372e-06 -9.66389e-06 -0.00130186
-0.000139346 -8.08507e-05 5.0554e-07
-8.08507e-05 -0.000280068 -4.9686e-06
5.0554e-07 -4.9686e-06 -0.000538503
0.000336396 -0.000179665 5.96487e-07
-0.000179665 5.26234e-05 2.91061e-07
5.96487e-07 2.91061e-07 -0.000248654
-0.000124683 -0.000177148 9.66361e-06
-0.000177148 -0.000293692 7.92264e-07
9.66361e-06 7.92264e-07 -0.000532511
0.00102754 -0.000170453 -8.56602e-07
-0.000170453 0.000473505 1.32807e-06
-8.56602e-07 1.32807e-06 0.000219358
0.000721007 -0.000140126 3.09748e-07
-0.000140126 0.000226524 4.20385e-07
3.09748e-07 4.20385e-07 2.22593e-05
0.000395878 -2.77613e-05 1.34467e-06
-2.77613e-05 -2.79456e-05 6.77319e-06
1.34467e-06 6.77319e-06 -0.000150084
0.00131944 -0.000206213 -1.42082e-06
-0.000206213 0.00061301 1.37538e-07
-1.42082e-06 1.37538e-07 0.000426658
0.000581625 -3.05462e-05 -1.28365e-06
-3.05462e-05 8.84374e-05 -3.3308e-07
-1.28365e-06 -3.3308e-07 -1.7094e-05
0.000338791 4.84686e-05 3.20517e-06
4.84686e-05 -7.9347e-05 8.3451e-06
3.20517e-06 8.3451e-06 -0.000124053
0.000737437 -8.47856e-05 1.22103e-06
-8.47856e-05 0.000194326 -3.98264e-06
1.22103e-06 -3.98264e-06 9.17552e-05
0.000435753 -1.30445e-05 -1.60739e-06
-1.30445e-05 -2.92207e-05 -9.88228e-08
-1.60739e-06 -9.88228e-08 -6.57528e-05
0.0027492 9.45569e-05 -1.1179e-06
9.45569e-05 0.00145006 2.87963e-06
-1.1179e-06 2.87963e-06 0.00145234
0.000475849 -3.13149e-05 3.27789e-06
-3.13149e-05 -1.72585e-07 -7.28314e-06
3.27789e-06 -7.28314e-06 -3.41696e-05
0.00181001 4.38813e-05 2.01638e-05
4.38813e-05 0.000844705 -9.84589e-07
2.01638e-05 -9.84589e-07 0.000848671
0.00264538 3.59709e-05 2.88302e-05
3.59709e-05 0.00138 -5.98931e-06
2.88302e-05 -5.98931e-06 0.00139153
0.000253059 3.44394e-05 3.77302e-06
3.44394e-05 -0.000100277 1.76244e-06
3.77302e-06 1.76244e-06 -0.000234327
0.000152154 1.30941e-05 2.39769e-06
1.30941e-05 -0.000185754 -3.4534e-06
2.39769e-06 -3.4534e-06 -0.000271081
0.000458649 4.45448e-05 -4.02961e-07
4.45448e-05 4.53723e-05 -1.13986e-06
-4.02961e-07 -1.13986e-06 -9.4726e-05
0.000468256 1.27877e-05 1.75201e-06
1.27877e-05 -1.78884e-05 -5.14414e-06
1.75201e-06 -5.14414e-06 -3.60066e-05
0.000139559 2.25619e-05 -7.66101e-07
2.25619e-05 -0.000193087 -2.02378e-06
-7.66101e-07 -2.02378e-06 -0.000267875
0.000633836 7.14142e-05 -1.08071e-07
7.14142e-05 0.000172462 2.15029e-06
-1.08071e-07 2.15029e-06 3.51094e-05
0.00212078 -1.58778e-05 -1.85972e-05
-1.58778e-05 0.00104192 -5.10157e-06
-1.85972e-05 -5.10157e-06 0.00105868
0.000443367 6.90236e-06 -8.32622e-07
6.90236e-06 -3.43551e-05 -1.13938e-07
-8.32622e-07 -1.13938e-07 -4.79428e-05
5.50565e-05 1.80284e-05 1.49625e-06
1.80284e-05 -0.000245822 2.83897e-06
1.49625e-06 2.83897e-06 -0.000310323
0.00206441 -9.56627e-07 -4.10165e-06
-9.56627e-07 0.00100693 6.06818e-08
-4.10165e-06 6.06818e-08 0.00102409
0.000421902 5.91862e-06 -2.30823e-06
5.91862e-06 -4.67742e-05 3.94946e-06
-2.30823e-06 3.94946e-06 -5.80278e-05
0.00209059 1.51151e-05 9.2009e-06
1.51151e-05 0.00102586 5.22327e-06
9.2009e-06 5.22327e-06 0.00104209
0.000637518 -8.71843e-05 0.000199801
-8.71843e-05 0.00338452 0.000104112
0.000199801 0.000104112 0.00209121
-0.000482389 -0.000519691 -6.96549e-05
-0.000519691 0.000513595 -3.04477e-06
-6.96549e-05 -3.04477e-06 -0.00415389
0.00049498 0.00127187 -0.000155738
0.00127187 0.00905174 -7.37919e-05
-0.000155738 -7.37919e-05 0.00312125
0.000865343 0.000155418 1.07993e-06
0.000155418 0.000295367 1.22329e-07
1.07993e-06 1.22329e-07 0.000136833
0.000235949 0.00011322 8.16941e-06
0.00011322 -9.00688e-05 4.93868e-06
8.16941e-06 4.93868e-06 -0.000246418
0.00134395 0.000236614 1.30275e-05
0.000236614 0.000597305 1.17665e-05
1.30275e-05 1.17665e-05 0.000435398
0.00772158 -0.000789096 -0.000198093
-0.000789096 -0.000128328 0.00020362
-0.000198093 0.00020362 -0.00175846
0.00614596 -0.0017367 0.000133064
-0.0017367 0.00330629 2.36694e-05
0.000133064 2.36694e-05 0.00153868
0.00466329 -0.00265473 0.000286785
-0.00265473 0.0019577 -0.000318088
0.000286785 -0.000318088 -0.00301851
0.00991619 -0.0037253 -2.26924e-05
-0.0037253 -7.45769e-05 -4.45003e-05
-2.26924e-05 -4.45003e-05 0.00118303
0.0022027 -0.00495225 -0.000642203
-0.00495225 -0.0022582 7.48511e-05
-0.000642203 7.48511e-05 -0.00402429
0.0288084 0.00544511 0.000421347
0.00544511 0.0130176 0.000246116
0.000421347 0.000246116 0.00581435
0.0081798 -0.000614119 0.000393618
-0.000614119 -0.00207971 -0.0003067
0.000393618 -0.0003067 -0.00299433
0.00280676 -0.0033361 -2.47062e-05
-0.0033361 -0.000790929 1.82357e-05
-2.47062e-05 1.82357e-05 0.000358237
0.00714641 -0.0058428 -0.000186708
-0.0058428 0.00262468 1.68104e-05
-0.000186708 1.68104e-05 -0.00232903
0.00244439 0.00433872 -0.000110298
0.00433872 0.00586727 -0.000363107
-0.000110298 -0.000363107 -7.47031e-05
0.0117692 -0.000194408 -0.000116256
-0.000194408 -0.00322467 0.000167975
-0.000116256 0.000167975 -0.000916173
-0.000948352 -0.00218975 -0.000160899
-0.00218975 0.00025851 7.78176e-05
-0.000160899 7.78176e-05 -0.000205805
0.00962855 -0.0035351 -0.000412802
-0.0035351 0.00601266 0.000233375
-0.000412802 0.000233375 0.000323263
0.00219433 -0.000206551 6.12404e-05
-0.000206551 0.0028699 -0.000340033
6.12404e-05 -0.000340033 -0.0016426
0.00970828 -6.32907e-05 0.00011921
-6.32907e-05 -0.00171539 0.000124985
0.00011921 0.000124985 -0.00149633
-6.178e-05 0.000106034 1.13695e-05
0.000106034 -0.000236207 2.36253e-05
1.13695e-05 2.36253e-05 -0.000374479
0.000681118 1.74109e-05 2.09918e-06
1.74109e-05 0.000277742 -2.78526e-06
2.09918e-06 -2.78526e-06 4.85313e-05
0.000251589 -0.000182668 5.10907e-06
-0.000182668 -2.69372e-05 -1.1788e-05
5.10907e-06 -1.1788e-05 -0.000246619
0.000655653 0.000158798 -2.10918e-06
0.000158798 0.000146603 2.32703e-06
-2.10918e-06 2.32703e-06 -1.10953e-05
0.000879954 0.000175995 3.141e-06
0.000175995 0.000367709 -8.42552e-06
3.141e-06 -8.42552e-06 0.000162466
0.00123221 0.000225192 -5.77203e-06
0.000225192 0.000577959 -6.33437e-06
-5.77203e-06 -6.33437e-06 0.000379442
0.000815442 -0.00147449 6.25629e-05
-0.00147449 -0.000305497 -1.75233e-05
6.25629e-05 -1.75233e-05 -0.000541101
0.00017258 -0.000458178 1.39439e-05
-0.000458178 -0.000190061 -2.77196e-05
1.39439e-05 -2.77196e-05 -0.000143378
0.000183362 0.00012624 -2.87023e-06
0.00012624 2.41871e-05 -2.04939e-05
-2.87023e-06 -2.04939e-05 -0.000216098
0.00285361 -0.000564781 8.11967e-05
-0.000564781 0.00179789 -3.96327e-05
8.11967e-05 -3.96327e-05 0.00135623
0.00222459 -0.000165964 5.94702e-06
-0.000165964 0.00139745 -2.45833e-06
5.94702e-06 -2.45833e-06 0.00106929
-0.000348044 0.000100139 6.93102e-06
0.000100139 -0.000237823 3.05333e-06
6.93102e-06 3.05333e-06 -0.000453426
0.000167376 6.08127e-05 2.96271e-06
6.08127e-05 0.000278084 7.87943e-07
2.96271e-06 7.87943e-07 -7.18479e-05
0.00169749 -0.00170874 -5.30552e-05
-0.00170874 0.000797415 1.6848e-06
-5.30552e-05 1.6848e-06 0.000183052
0.000152031 -4.07914e-05 -6.09105e-06
-4.07914e-05 0.000548083 2.00272e-06
-6.09105e-06 2.00272e-06 -3.81797e-05
0.000212432 -0.000420145 -1.46613e-05
-0.000420145 0.000496783 -3.31786e-06
-1.46613e-05 -3.31786e-06 -4.21385e-05
0.000837028 0.000206751 4.5662e-06
0.000206751 0.000663352 -1.01246e-05
4.5662e-06 -1.01246e-05 0.000363712
-0.00239132 -0.00046028 -1.41228e-05
-0.00046028 -0.00012302 -2.33911e-05
-1.41228e-05 -2.33911e-05 -0.00113133
0.000432382 -0.000211459 -1.79669e-05
-0.000211459 0.000983334 -3.88759e-06
-1.79669e-05 -3.88759e-06 0.000353543
-0.00175305 -3.76318e-05 -1.85734e-05
-3.76318e-05 -0.000366917 -1.11097e-06
-1.85734e-05 -1.11097e-06 -0.000961482
0.000170052 0.000363837 -1.16466e-05
0.000363837 -0.000454316 2.49843e-06
-1.16466e-05 2.49843e-06 -0.00264606
-0.0020556 0.000433025 0.000109305
0.000433025 0.00230684 -6.80056e-06
0.000109305 -6.80056e-06 0.000660442
-0.000958449 -0.000121262 0.000407414
-0.000121262 0.000545035 4.27415e-05
0.000407414 4.27415e-05 -0.00435558
0.000368543 0.000685831 8.44252e-06
0.000685831 0.000422056 1.89311e-05
8.44252e-06 1.89311e-05 -0.000116641
0.000115481 0.00103172 -2.08953e-05
0.00103172 0.000553289 -2.37877e-05
-2.08953e-05 -2.37877e-05 -0.000286851
-0.00268432 0.000236743 -0.000103984
0.000236743 0.000925386 -3.95764e-05
-0.000103984 -3.95764e-05 -0.000642495
-0.00453442 0.000828267 0.000120633
0.000828267 0.00334626 0.000219836
0.000120633 0.000219836 -0.00255682
0.00105812 0.000799956 -0.000155759
0.000799956 -0.00165141 -0.000499451
-0.000155759 -0.000499451 -0.00721898
0.00475241 -5.62096e-05 0.000105755
-5.62096e-05 -0.000236184 6.73655e-05
0.000105755 6.73655e-05 -0.000794193
0.00737266 -0.000384876 -0.000372615
-0.000384876 -0.00205042 0.000286859
-0.000372615 0.000286859 -0.00308812
0.000229925 0.000484183 -3.32177e-06
0.000484183 0.000634252 -4.36684e-07
-3.32177e-06 -4.36684e-07 5.25277e-05
0.00137789 0.000137518 4.3609e-05
0.000137518 0.000958164 9.18137e-06
4.3609e-05 9.18137e-06 -0.000113166
0.00507533 -0.00130174 -0.000124334
-0.00130174 0.0032498 -9.92427e-06
-0.000124334 -9.92427e-06 0.00148418
-0.000416081 0.000831485 -0.000151245
0.000831485 0.00172998 -1.29378e-05
-0.000151245 -1.29378e-05 -5.13102e-05
0.0184514 0.00607039 -0.000110889
0.00607039 0.00615727 -0.000464204
-0.000110889 -0.000464204 0.00206072
0.0039184 0.00376487 9.73576e-05
0.00376487 0.00610465 0.000386424
9.73576e-05 0.000386424 -0.000297266
0.00540135 0.00125761 7.47264e-05
0.00125761 0.00643315 -1.28445e-05
7.47264e-05 -1.28445e-05 -0.00127086
0.000214488 2.69247e-05 3.0174e-05
2.69247e-05 0.0014627 -2.21396e-05
3.0174e-05 -2.21396e-05 0.000172223
0.000111382 -0.000139392 -0.000186393
-0.000139392 0.0037533 1.35251e-06
-0.000186393 1.35251e-06 0.00221355
0.00131193 -0.00096279 0.000835635
-0.00096279 0.000545933 -0.000277304
0.000835635 -0.000277304 -0.00485089
0.0255508 0.00988198 -0.000105038
0.00988198 0.0174608 -3.88224e-05
-0.000105038 -3.88224e-05 0.0114244
0.0118824 0.00454131 7.20396e-05
0.00454131 0.00448948 0.000988678
7.20396e-05 0.000988678 -0.00181864
0.0121921 -0.00454049 0.000395019
-0.00454049 0.00685156 -0.000291709
0.000395019 -0.000291709 8.8775e-05
0.00238231 -0.000817112 -7.68507e-05
-0.000817112 0.00333691 4.18876e-05
-7.68507e-05 4.18876e-05 0.00214206
0.000957172 0.000285485 -5.02008e-06
0.000285485 0.0010004 3.48889e-06
-5.02008e-06 3.48889e-06 0.000509727
8.67582e-06 -7.83914e-05 -2.35991e-06
-7.83914e-05 0.000568995 -5.27697e-06
-2.35991e-06 -5.27697e-06 2.06537e-05
0.00113042 -0.000594467 4.97744e-05
-0.000594467 0.000951748 -1.35371e-05
4.97744e-05 -1.35371e-05 0.000323854
0.000223051 -7.29431e-05 -3.90009e-06
-7.29431e-05 0.000256548 1.04058e-05
-3.90009e-06 1.04058e-05 8.5828e-06
-9.41261e-05 -9.2374e-05 -5.20292e-06
-9.2374e-05 0.000305985 -1.94874e-05
-5.20292e-06 -1.94874e-05 -0.000134349
0.000708616 -0.000330933 -5.16682e-06
-0.000330933 0.000702478 1.1749e-06
-5.16682e-06 1.1749e-06 0.000329906
0.00134034 -0.000754809 3.00389e-05
-0.000754809 0.000657132 -1.9195e-05
3.00389e-05 -1.9195e-05 0.000250138
0.000986866 -0.000379216 2.41891e-06
-0.000379216 0.000492853 7.31146e-07
2.41891e-06 7.31146e-07 0.000212612
0.001421 -0.000684584 1.74353e-05
-0.000684584 0.000642432 -3.3294e-06
1.74353e-05 -3.3294e-06 0.000192715
0.00142116 -0.000736441 1.11151e-05
-0.000736441 0.000620578 4.35119e-07
1.11151e-05 4.35119e-07 -0.000116564
0.000541188 -0.000391463 -8.81752e-06
-0.000391463 4.77094e-05 -7.31238e-06
-8.81752e-06 -7.31238e-06 -0.000188797
0.00228458 -0.000783638 -3.76185e-06
-0.000783638 0.000915262 -2.31229e-06
-3.76185e-06 -2.31229e-06 0.000354462
0.00179737 -0.000913932 -1.44901e-05
-0.000913932 0.000488592 -1.82608e-06
-1.44901e-05 -1.82608e-06 -0.000171209
0.00230802 -0.00105186 -1.45733e-05
-0.00105186 0.000615184 1.31086e-06
-1.45733e-05 1.31086e-06 2.61948e-05
0.00210303 -0.000912684 -4.95334e-06
-0.000912684 0.000677729 -5.82648e-07
-4.95334e-06 -5.82648e-07 0.000132084
0.0016978 -0.000794424 -5.21516e-06
-0.000794424 0.000489975 9.19897e-07
-5.21516e-06 9.19897e-07 -4.14875e-05
0.0012673 -0.000588092 1.35543e-06
-0.000588092 0.000342209 -7.97174e-06
1.35543e-06 -7.97174e-06 -8.7619e-05
0.00153816 -0.000660525 8.17807e-06
-0.000660525 0.000455225 -4.73341e-06
8.17807e-06 -4.73341e-06 4.47262e-06
0.00173525 -0.000726296 7.44825e-06
-0.000726296 0.00051893 -1.45944e-06
7.44825e-06 -1.45944e-06 4.20512e-05
0.00131908 -0.000334575 2.15108e-06
-0.000334575 0.000435157 4.3891e-07
2.15108e-06 4.3891e-07 0.000146106
0.00118419 -0.00049366 6.28905e-06
-0.00049366 0.000300046 -4.22808e-06
6.28905e-06 -4.22808e-06 -7.01464e-05
-0.000146279 -0.000430281 -8.5369e-06
-0.000430281 -0.000580953 -5.2776e-06
-8.5369e-06 -5.2776e-06 -0.000976211
0.000135417 -0.000118433 -3.34981e-08
-0.000118433 -0.000136681 -5.62791e-06
-3.34981e-08 -5.62791e-06 -0.000413742
0.000913145 -0.000261483 -9.70897e-07
-0.000261483 0.000299846 -3.75946e-07
-9.70897e-07 -3.75946e-07 1.97865e-05
0.000107609 -0.000317094 -5.07028e-06
-0.000317094 -0.000285838 -2.06662e-06
-5.07028e-06 -2.06662e-06 -0.000577072
0.000337406 -7.93806e-05 -4.98233e-07
-7.93806e-05 -5.85634e-05 6.84236e-06
-4.98233e-07 6.84236e-06 -0.000213732
0.000796882 -0.000146156 -3.44976e-08
-0.000146156 0.000298808 3.97525e-07
-3.44976e-08 3.97525e-07 4.26173e-05
-0.000277721 -0.000181125 -1.22731e-07
-0.000181125 -0.000317043 4.41524e-06
-1.22731e-07 4.41524e-06 -0.000610015
0.00149137 -0.000202415 2.56127e-07
-0.000202415 0.000723353 1.58144e-06
2.56127e-07 1.58144e-06 0.000506895
0.00065904 -8.11917e-05 -3.70466e-07
-8.11917e-05 0.000140081 -3.07368e-07
-3.70466e-07 -3.07368e-07 1.08228e-05
0.000333858 1.73399e-05 2.81439e-06
1.73399e-05 -7.91318e-05 1.12584e-05
2.81439e-06 1.12584e-05 -0.000131235
0.000717424 -8.26801e-05 5.52511e-07
-8.26801e-05 0.000175439 -4.73443e-06
5.52511e-07 -4.73443e-06 6.49815e-05
0.00044749 2.65295e-06 -4.10051e-06
2.65295e-06 -1.78402e-05 -3.24347e-07
-4.10051e-06 -3.24347e-07 -5.96081e-05
0.00302364 9.98787e-05 -4.53953e-05
9.98787e-05 0.00163324 5.26165e-06
-4.53953e-05 5.26165e-06 0.00163568
0.000474599 -2.34774e-05 3.03013e-06
-2.34774e-05 -7.16496e-06 -7.2295e-06
3.03013e-06 -7.2295e-06 -4.30066e-05
0.00186813 6.24263e-05 2.49331e-05
6.24263e-05 0.000884373 -7.38134e-07
2.49331e-05 -7.38134e-07 0.00088486
0.00285337 5.71112e-05 3.65374e-05
5.71112e-05 0.00151439 -5.69639e-06
3.65374e-05 -5.69639e-06 0.00152337
0.000815316 0.000113677 6.29979e-06
0.000113677 0.000267972 -1.63579e-06
6.29979e-06 -1.63579e-06 0.000111268
0.00049956 5.74376e-05 3.90427e-06
5.74376e-05 3.81438e-05 -3.07468e-06
3.90427e-06 -3.07468e-06 -5.55681e-05
0.000403393 5.67937e-05 -4.87082e-07
5.67937e-05 1.07373e-05 -1.31288e-06
-4.87082e-07 -1.31288e-06 -0.000135834
0.000456384 1.33965e-05 1.48966e-06
1.33965e-05 -2.47617e-05 -6.42109e-06
1.48966e-06 -6.42109e-06 -4.85901e-05
0.000283252 4.45742e-05 -2.46251e-06
4.45742e-05 -9.9722e-05 -2.1476e-06
-2.46251e-06 -2.1476e-06 -0.000185081
0.000667352 9.30242e-05 -2.1889e-06
9.30242e-05 0.000185157 -3.19227e-06
-2.1889e-06 -3.19227e-06 4.39674e-05
0.00222562 -3.20776e-05 -2.20234e-05
-3.20776e-05 0.00110935 -5.28255e-06
-2.20234e-05 -5.28255e-06 0.00112452
0.000435379 -7.5512e-07 4.89609e-07
-7.5512e-07 -4.0063e-05 -1.90731e-07
4.89609e-07 -1.90731e-07 -5.72929e-05
0.000105603 1.93117e-05 -2.18452e-06
1.93117e-05 -0.000214962 8.3408e-07
-2.18452e-06 8.3408e-07 -0.000291716
0.00214245 -1.5392e-05 -5.82331e-06
-1.5392e-05 0.001056 1.30584e-07
-5.82331e-06 1.30584e-07 0.00107271
0.00043591 2.06059e-06 -3.56454e-06
2.06059e-06 -3.97739e-05 4.24028e-06
-3.56454e-06 4.24028e-06 -5.29139e-05
0.00210988 5.27419e-07 1.40836e-05
5.27419e-07 0.00103629 5.18008e-06
1.40836e-05 5.18008e-06 0.00105322
0.00205476 -0.000349052 -0.000100675
-0.000349052 0.000829711 3.09446e-05
-0.000100675 3.09446e-05 -0.00029646
-0.00130607 -0.000170793 0.000101286
-0.000170793 0.00290745 -5.10193e-06
0.000101286 -5.10193e-06 0.00120665
-0.000968097 -0.000389806 0.000170098
-0.000389806 0.0010513 -0.000216361
0.000170098 -0.000216361 -0.00430357
-0.000169066 2.21159e-05 5.11563e-06
2.21159e-05 -0.000295661 1.86697e-06
5.11563e-06 1.86697e-06 -0.000503392
0.00296893 0.000167665 4.98781e-06
0.000167665 0.00164938 6.59282e-06
4.98781e-06 6.59282e-06 0.00144192
0.00062156 0.000158547 -5.32528e-06
0.000158547 0.000144723 -7.35575e-06
-5.32528e-06 -7.35575e-06 -1.14214e-05
0.000123101 7.68092e-05 1.32191e-06
7.68092e-05 -0.0001781 -3.24501e-07
1.32191e-06 -3.24501e-07 -0.00032923
0.000193537 9.01666e-05 2.13034e-07
9.01666e-05 -0.000159814 -1.61601e-06
2.13034e-07 -1.61601e-06 -0.000281121
0.000128901 9.47064e-05 7.4097e-06
9.47064e-05 -0.000164675 4.25779e-06
7.4097e-06 4.25779e-06 -0.000313922
-6.69802e-05 9.45862e-05 1.72805e-05
9.45862e-05 -0.000268303 5.48869e-06
1.72805e-05 5.48869e-06 -0.000376719
0.00295276 0.00159837 0.000277045
0.00159837 -0.000254674 0.00026313
0.000277045 0.00026313 -0.00194582
0.0063458 -0.000447183 -7.99916e-05
-0.000447183 2.1242e-05 5.05364e-05
-7.99916e-05 5.05364e-05 -0.00157574
0.00467985 -0.000931675 0.000339373
-0.000931675 0.00352673 -0.000129783
0.000339373 -0.000129783 0.00156881
0.0095316 -0.000169128 -5.40781e-06
-0.000169128 -0.0055953 0.000186385
-5.40781e-06 0.000186385 -0.00255197
0.0070088 -0.00424323 -0.000152927
-0.00424323 0.00114366 3.30732e-05
-0.000152927 3.30732e-05 0.00169639
0.00118416 -0.00515979 -0.000366295
-0.00515979 0.00174654 0.000134162
-0.000366295 0.000134162 -0.00446999
0.0195809 0.00483348 0.000190461
0.00483348 0.00825654 -0.000219631
0.000190461 -0.000219631 0.00253869
0.00239506 -0.00318683 -6.4279e-05
-0.00318683 0.000197053 3.34653e-05
-6.4279e-05 3.34653e-05 0.000728232
-0.00138213 -0.00113812 -7.68264e-05
-0.00113812 0.00475443 5.38247e-05
-7.68264e-05 5.38247e-05 -0.00318109
0.0116645 0.000458224 0.000270591
0.000458224 0.0044777 -3.71269e-05
0.000270591 -3.71269e-05 0.000223625
0.0174656 -0.00195714 -8.50511e-05
-0.00195714 0.00234517 -1.04935e-05
-8.50511e-05 -1.04935e-05 0.00316813
-0.00328549 -0.000565572 -0.00018489
-0.000565572 -0.000133087 0.000186803
-0.00018489 0.000186803 -0.000550363
0.00212057 0.00205558 -0.000249818
0.00205558 0.00559111 -0.000142303
-0.000249818 -0.000142303 -0.0024304
0.0017358 -0.00628078 7.23957e-06
-0.00628078 0.000739107 -0.000247996
7.23957e-06 -0.000247996 -0.00553121
0.0166303 -0.00308419 0.000235438
-0.00308419 0.00611242 -0.000718263
0.000235438 -0.000718263 0.0032362
0.000330134 1.60711e-06 2.27751e-05
1.60711e-06 0.000278513 -1.16302e-06
2.27751e-05 -1.16302e-06 -3.22451e-05
0.000732173 0.00019779 -2.39006e-06
0.00019779 0.000292965 -4.11092e-06
-2.39006e-06 -4.11092e-06 0.000136256
0.000780504 -2.98532e-06 -7.71797e-07
-2.98532e-06 0.000357184 -6.88852e-06
-7.71797e-07 -6.88852e-06 0.000105332
0.000928823 0.000174846 -4.42387e-06
0.000174846 0.000345368 -1.27756e-05
-4.42387e-06 -1.27756e-05 0.000169946
0.00107313 -0.00140068 8.929e-05
-0.00140068 0.000442092 3.01862e-05
8.929e-05 3.01862e-05 -0.000171117
0.00109234 -0.00040215 5.91873e-06
-0.00040215 0.00110791 -2.62339e-05
5.91873e-06 -2.62339e-05 0.000453543
0.000699402 0.000109534 -2.03051e-05
0.000109534 0.000403833 -2.39627e-05
-2.03051e-05 -2.39627e-05 0.000209751
0.00101128 2.58931e-06 2.54078e-08
2.58931e-06 0.00074446 -1.08666e-05
2.54078e-08 -1.08666e-05 0.000444414
0.000230557 -4.38614e-05 -2.38734e-07
-4.38614e-05 0.000604962 1.01965e-05
-2.38734e-07 1.01965e-05 9.23961e-05
0.000155492 8.94061e-05 2.2677e-06
8.94061e-05 0.000177053 3.75965e-06
2.2677e-06 3.75965e-06 -7.41381e-05
0.000397288 -2.73948e-05 5.27722e-07
-2.73948e-05 0.000794039 1.56987e-06
5.27722e-07 1.56987e-06 0.000251826
0.000373502 -0.000825204 -2.70898e-06
-0.000825204 0.00120812 -8.98834e-07
-2.70898e-06 -8.98834e-07 -0.000162354
0.000467133 -0.000138608 -3.70958e-06
-0.000138608 0.00115027 -9.29733e-06
-3.70958e-06 -9.29733e-06 0.000543285
-0.000207178 0.00011775 2.98704e-06
0.00011775 0.000121457 -8.48261e-06
2.98704e-06 -8.48261e-06 -0.000182895
-0.000187523 0.000311072 -0.000174589
0.000311072 0.00286273 -1.83689e-05
-0.000174589 -1.83689e-05 0.000725946
0.000388228 0.000343691 -1.85773e-05
0.000343691 0.00101441 5.02395e-06
-1.85773e-05 5.02395e-06 0.000404364
-0.00263802 7.07248e-06 -9.64907e-05
7.07248e-06 0.00252176 -5.52159e-05
-9.64907e-05 -5.52159e-05 0.000909355
0.00138524 0.000138258 2.54173e-05
0.000138258 0.000331007 1.1966e-05
2.54173e-05 1.1966e-05 -0.000877798
-0.00370065 0.000658963 -5.23302e-05
0.000658963 0.00175363 -8.31976e-05
-5.23302e-05 -8.31976e-05 -8.92016e-05
0.000371193 0.000391947 -2.18804e-05
0.000391947 0.000815096 3.53448e-06
-2.18804e-05 3.53448e-06 0.000322977
-0.00136298 0.00100203 0.000195085
0.00100203 0.000509059 0.00011632
0.000195085 0.00011632 -0.000474472
0.000933242 6.37352e-05 8.8468e-05
6.37352e-05 0.000970266 -9.2922e-06
8.8468e-05 -9.2922e-06 0.00017993
0.00659168 -0.00241954 0.000328944
-0.00241954 0.00651507 -0.000198989
0.000328944 -0.000198989 -0.00249481
0.0210926 0.00431 -0.000222009
0.00431 0.0086934 0.000201154
-0.000222009 0.000201154 0.00283033
0.00321394 -0.000836416 -0.000302317
-0.000836416 0.00243094 0.000106999
-0.000302317 0.000106999 0.000669551
0.0145486 0.00523309 -0.000166831
0.00523309 0.00796655 -0.000269407
-0.000166831 -0.000269407 0.0039999
0.000458371 0.000260885 -5.52363e-05
0.000260885 0.0014237 1.12928e-05
-5.52363e-05 1.12928e-05 0.000195449
-0.000154243 -0.000354876 -0.000107358
-0.000354876 0.00288734 1.3547e-06
-0.000107358 1.3547e-06 0.00165702
0.00283616 -0.00181869 0.000304645
-0.00181869 0.00176679 -5.31412e-05
0.000304645 -5.31412e-05 -0.00347316
-0.00349339 -6.45173e-05 5.89042e-05
-6.45173e-05 -0.000230332 3.54998e-05
5.89042e-05 3.54998e-05 -0.000868318
0.0203264 0.0115998 0.000801981
0.0115998 0.0142409 -0.000299831
0.000801981 -0.000299831 0.00794468
0.0104618 0.00336069 -0.000170125
0.00336069 0.00590107 0.000423642
-0.000170125 0.000423642 -0.000244813
-0.00263077 -0.00145125 0.000221553
-0.00145125 0.00338707 -0.000169836
0.000221553 -0.000169836 -0.00490249
-0.00160526 -0.000493583 -1.56052e-05
-0.000493583 0.000446884 -3.04852e-05
-1.56052e-05 -3.04852e-05 -0.000812399
0.000809802 -0.00105591 0.000366994
-0.00105591 -5.06323e-05 -9.54233e-05
0.000366994 -9.54233e-05 -0.00398569
0.000943591 0.00163936 -0.00170104
0.00163936 0.00909643 0.000382672
-0.00170104 0.000382672 0.00368119
0.0227509 0.00816798 -0.000657032
0.00816798 0.00802764 0.00050474
-0.000657032 0.00050474 0.00168711
0.00641706 -0.00425759 -0.000215757
-0.00425759 0.00335542 9.47382e-05
-0.000215757 9.47382e-05 -0.000184549
0.00336207 -0.00213265 5.06061e-05
-0.00213265 0.00362938 1.19237e-05
5.06061e-05 1.19237e-05 0.00240042
8.65966e-05 -5.99336e-05 1.99471e-06
-5.99336e-05 0.000568765 -1.53713e-05
1.99471e-06 -1.53713e-05 -3.20163e-05
2.46605e-05 -0.000431316 4.84971e-06
-0.000431316 0.000436883 -2.31897e-06
4.84971e-06 -2.31897e-06 -0.000224786
0.00101154 -0.00101879 -5.54578e-06
-0.00101879 0.000664963 -2.74221e-06
-5.54578e-06 -2.74221e-06 0.000168164
-0.000309648 -0.000203835 -3.032e-06
-0.000203835 0.000227374 7.80159e-06
-3.032e-06 7.80159e-06 -0.000154108
-0.000122693 -0.000514413 -6.56063e-07
-0.000514413 -5.79331e-06 5.70245e-06
-6.56063e-07 5.70245e-06 -0.000358742
0.00277423 -0.00101631 4.19975e-05
-0.00101631 0.00115161 -2.45613e-05
4.19975e-05 -2.45613e-05 0.000659638
0.00636641 -0.00133979 -1.42726e-05
-0.00133979 0.00334297 -9.46259e-07
-1.42726e-05 -9.46259e-07 0.00279933
0.00280022 -0.00093522 1.04166e-05
-0.00093522 0.0012928 -3.32473e-06
1.04166e-05 -3.32473e-06 0.000561561
0.00220696 -0.00107238 2.99656e-06
-0.00107238 0.00063297 -1.88736e-05
2.99656e-06 -1.88736e-05 -9.32941e-05
0.00247477 -0.000803818 -1.2488e-05
-0.000803818 0.000994446 -7.72512e-06
-1.2488e-05 -7.72512e-06 0.000449257
0.00217432 -0.00096792 5.20048e-07
-0.00096792 0.000693099 -2.34088e-06
5.20048e-07 -2.34088e-06 1.62308e-05
0.0027677 -0.00114028 -8.95767e-06
-0.00114028 0.000889853 -1.09455e-05
-8.95767e-06 -1.09455e-05 0.000227918
0.0023634 -0.000874298 -3.05009e-06
-0.000874298 0.000436009 -5.38186e-06
-3.05009e-06 -5.38186e-06 -2.15225e-06
0.00273624 -0.00108949 -1.09804e-05
-0.00108949 0.00082293 8.99967e-07
-1.09804e-05 8.99967e-07 0.00025606
0.0025695 -0.00108707 -3.85861e-06
-0.00108707 0.000753554 9.19744e-08
-3.85861e-06 9.19744e-08 0.000153501
0.00188315 -0.000870422 6.43359e-06
-0.000870422 0.000562891 -5.33357e-06
6.43359e-06 -5.33357e-06 4.24201e-05
0.00166158 -0.000840319 3.23201e-06
-0.000840319 0.000424224 -1.34067e-06
3.23201e-06 -1.34067e-06 -9.61244e-05
0.00144558 -0.000758798 7.84454e-06
-0.000758798 0.000330776 -7.85576e-07
7.84454e-06 -7.85576e-07 -0.000196319
0.00150397 -0.00056868 8.22053e-06
-0.00056868 0.000475642 3.74522e-06
8.22053e-06 3.74522e-06 6.88005e-05
0.00167797 -0.000675732 -1.13973e-06
-0.000675732 0.000551304 -2.14933e-06
-1.13973e-06 -2.14933e-06 9.53178e-05
0.00169583 -0.000733594 4.95177e-06
-0.000733594 0.000495418 5.02545e-06
4.95177e-06 5.02545e-06 1.77296e-05
0.00129222 -0.000224759 8.286e-07
-0.000224759 0.000463468 -5.08615e-06
8.286e-07 -5.08615e-06 0.000208781
0.000875076 -0.000298642 -3.03495e-06
-0.000298642 0.000178816 2.51274e-06
-3.03495e-06 2.51274e-06 -9.97099e-05
0.000752507 -0.000449352 -2.9206e-06
-0.000449352 1.64185e-05 -9.96441e-06
-2.9206e-06 -9.96441e-06 -0.000341524
5.32343e-06 -9.11803e-05 -1.97129e-06
-9.11803e-05 -0.000245077 3.16042e-06
-1.97129e-06 3.16042e-06 -0.000462635
0.000825972 -0.000219144 2.64627e-08
-0.000219144 0.000306724 7.51248e-07
2.64627e-08 7.51248e-07 1.76709e-05
0.000660332 -0.000284456 1.67041e-06
-0.000284456 0.000182274 1.14188e-06
1.67041e-06 1.14188e-06 -0.000116304
0.000327253 -3.35536e-05 -8.09534e-06
-3.35536e-05 -9.93558e-05 1.65369e-05
-8.09534e-06 1.65369e-05 -0.000154554
0.000679312 -0.000100105 7.23091e-07
-0.000100105 0.000149136 3.64898e-07
7.23091e-07 3.64898e-07 -7.41646e-06
0.0015866 -0.000234032 -5.20077e-07
-0.000234032 0.000785809 4.36665e-06
-5.20077e-07 4.36665e-06 0.000530671
0.000846226 -9.4249e-05 3.17737e-07
-9.4249e-05 0.000255724 -6.08484e-06
3.17737e-07 -6.08484e-06 0.000123575
0.000426574 7.03959e-08 -8.69382e-07
7.03959e-08 -2.80071e-05 -5.45109e-07
-8.69382e-07 -5.45109e-07 -7.71375e-05
0.00314542 0.000128194 -4.48339e-05
0.000128194 0.00172135 5.39915e-06
-4.48339e-05 5.39915e-06 0.00171722
0.000520775 -1.44199e-05 2.90828e-06
-1.44199e-05 2.21545e-05 -8.86321e-06
2.90828e-06 -8.86321e-06 -1.68258e-05
0.00295819 0.000101229 5.65744e-06
0.000101229 0.00159088 7.18258e-07
5.65744e-06 7.18258e-07 0.0015933
0.00282973 7.74376e-05 3.96797e-05
7.74376e-05 0.00150154 -5.22887e-06
3.96797e-05 -5.22887e-06 0.00150839
0.00145935 0.000106409 6.08375e-06
0.000106409 0.000821055 -6.77969e-06
6.08375e-06 -6.77969e-06 0.000536886
0.0015243 0.000191858 7.79208e-06
0.000191858 0.000813026 -6.46069e-06
7.79208e-06 -6.46069e-06 0.000574893
0.000545095 4.5472e-05 6.00868e-06
4.5472e-05 6.05088e-05 -5.81848e-06
6.00868e-06 -5.81848e-06 -4.56713e-05
0.000664716 0.000128992 -9.70604e-08
0.000128992 0.000189553 3.78106e-07
-9.70604e-08 3.78106e-07 2.73986e-05
0.000429269 -5.94065e-06 3.72111e-06
-5.94065e-06 -3.87817e-05 -7.73044e-06
3.72111e-06 -7.73044e-06 -6.78399e-05
0.000524589 6.09324e-05 2.00136e-07
6.09324e-05 5.46184e-05 -2.79552e-07
2.00136e-07 -2.79552e-07 -3.92271e-05
0.000609097 6.13651e-05 -6.49583e-06
6.13651e-05 0.000129979 -2.6303e-06
-6.49583e-06 -2.6303e-06 -1.00743e-05
0.00241843 -4.95072e-05 -2.85152e-05
-4.95072e-05 0.00123533 -5.58101e-06
-2.85152e-05 -5.58101e-06 0.00124773
0.000447925 6.13962e-06 -9.74011e-07
6.13962e-06 -2.93902e-05 -1.6391e-07
-9.74011e-07 -1.6391e-07 -5.26616e-05
0.000485481 6.52637e-05 -4.98786e-06
6.52637e-05 3.20725e-05 7.16406e-07
-4.98786e-06 7.16406e-07 -5.37116e-05
0.00223555 -3.18862e-05 -5.0914e-06
-3.18862e-05 0.00111576 2.74762e-07
-5.0914e-06 2.74762e-07 0.00113097
0.000447669 2.69886e-06 -3.64382e-06
2.69886e-06 -3.30439e-05 4.71509e-06
-3.64382e-06 4.71509e-06 -4.97705e-05
0.00213581 -1.50765e-05 1.75786e-05
-1.50765e-05 0.00105155 5.06455e-06
1.75786e-05 5.06455e-06 0.00106829
-0.00269751 0.000529383 -1.712e-05
0.000529383 0.00109863 -8.64968e-05
-1.712e-05 -8.64968e-05 -0.000182983
0.0023867 -0.000289382 -1.82645e-05
-0.000289382 0.00131492 -2.54085e-05
-1.82645e-05 -2.54085e-05 0.000397408
-1.6371e-05 -0.000304095 1.96392e-05
-0.000304095 0.00271351 -5.14827e-05
1.96392e-05 -5.14827e-05 0.00134431
0.000611217 8.61256e-05 1.94e-06
8.61256e-05 0.000266346 -4.68343e-06
1.94e-06 -4.68343e-06 8.86597e-07
0.000107041 0.000136176 6.84845e-06
0.000136176 -0.000139883 -3.1064e-06
6.84845e-06 -3.1064e-06 -0.000342678
-0.00193507 -8.34685e-07 9.0926e-06
-8.34685e-07 -0.0015161 -1.00931e-05
9.0926e-06 -1.00931e-05 -0.00169233
-0.00169192 -6.54195e-06 -3.44066e-06
-6.54195e-06 -0.00118393 1.83352e-05
-3.44066e-06 1.83352e-05 -0.00142321
0.00282839 0.00039898 3.17542e-06
0.00039898 0.00155742 -1.488e-06
3.17542e-06 -1.488e-06 0.00126799
0.000788474 4.64658e-05 -6.63945e-06
4.64658e-05 0.000238166 -2.60489e-06
-6.63945e-06 -2.60489e-06 7.56117e-05
0.000289487 0.000120839 -1.13554e-05
0.000120839 -7.77069e-05 -1.15922e-05
-1.13554e-05 -1.15922e-05 -0.000200529
0.00109729 2.82239e-05 2.89238e-06
2.82239e-05 0.000436467 2.76983e-07
2.89238e-06 2.76983e-07 0.00029649
0.00100379 0.00018838 -1.70586e-06
0.00018838 0.000406557 -4.65472e-06
-1.70586e-06 -4.65472e-06 0.000285478
0.00218444 0.000176061 3.02042e-06
0.000176061 0.0013343 -1.84104e-05
3.02042e-06 -1.84104e-05 0.00105413
0.00708172 0.00159189 0.000552159
0.00159189 0.00495707 0.000570449
0.000552159 0.000570449 -9.93581e-05
0.00308975 0.00124081 2.42458e-05
0.00124081 0.000462576 8.99713e-05
2.42458e-05 8.99713e-05 -0.00146742
0.00573279 -0.000321887 9.59867e-05
-0.000321887 -0.000212167 -1.83918e-05
9.59867e-05 -1.83918e-05 -0.00117644
0.0144152 -0.00122823 -0.000303552
-0.00122823 0.00210239 -0.000145557
-0.000303552 -0.000145557 0.00384733
-0.00181165 0.00101934 0.000101978
0.00101934 -0.00230983 0.000423401
0.000101978 0.000423401 -0.00783503
0.00265316 -0.0033225 -4.04261e-05
-0.0033225 0.000758647 -2.95586e-05
-4.04261e-05 -2.95586e-05 0.00103785
0.00582316 -0.00211745 -0.000238587
-0.00211745 0.00544408 6.01355e-05
-0.000238587 6.01355e-05 -0.000536858
0.000903883 -0.00143665 -0.000144357
-0.00143665 0.00129489 0.000138388
-0.000144357 0.000138388 0.000761312
0.0107079 -0.000119897 -0.000245881
-0.000119897 0.00778 -2.61552e-06
-0.000245881 -2.61552e-06 0.000563642
0.00785587 -0.00284005 0.000112805
-0.00284005 0.00477243 0.000223715
0.000112805 0.000223715 -0.00120806
0.0217034 -0.00513045 -1.55552e-05
-0.00513045 0.00580256 -0.000849798
-1.55552e-05 -0.000849798 0.00175165
0.00078705 0.000349799 -0.000144397
0.000349799 0.00299034 0.000103443
-0.000144397 0.000103443 0.0014582
0.00990871 0.0027324 -0.000289002
0.0027324 0.00697622 -4.78867e-05
-0.000289002 -4.78867e-05 0.00095148
0.0226328 -0.00852623 9.28996e-05
-0.00852623 0.0124266 -0.000876117
9.28996e-05 -0.000876117 0.00538262
0.0281263 -0.0114293 0.000105631
-0.0114293 0.0134115 -7.64518e-05
0.000105631 -7.64518e-05 0.0074064
0.00103387 0.000333485 2.64318e-05
0.000333485 0.000669162 -3.4484e-06
2.64318e-05 -3.4484e-06 0.000264149
-4.16365e-05 4.6983e-05 6.04199e-06
4.6983e-05 0.000133689 1.70531e-06
6.04199e-06 1.70531e-06 -0.000232043
0.00120667 0.000212923 -2.28204e-05
0.000212923 0.000613947 -1.92365e-05
-2.28204e-05 -1.92365e-05 0.000439166
0.00433897 -0.00135896 0.000117725
-0.00135896 0.00293494 -1.15978e-05
0.000117725 -1.15978e-05 0.00122888
-0.000493386 -0.000149084 7.10958e-05
-0.000149084 0.000819211 -1.08502e-05
7.10958e-05 -1.08502e-05 0.000138411
-0.000441724 6.54437e-05 -5.84944e-06
6.54437e-05 -0.000201501 -2.41706e-06
-5.84944e-06 -2.41706e-06 -0.000443112
-0.000458252 -0.000137615 2.14577e-05
-0.000137615 0.000352424 -6.51099e-06
2.14577e-05 -6.51099e-06 -0.000261414
-0.000193108 0.000133956 -2.73334e-06
0.000133956 0.000103622 -6.02587e-07
-2.73334e-06 -6.02587e-07 -0.000205505
-2.65889e-06 0.000319467 1.79108e-05
0.000319467 0.000611698 4.75672e-06
1.79108e-05 4.75672e-06 -2.9199e-05
-0.00236882 8.94493e-05 0.000198887
8.94493e-05 0.00123228 -3.88167e-05
0.000198887 -3.88167e-05 -0.000871095
0.00037861 0.000633956 2.02785e-05
0.000633956 0.000239611 2.86319e-05
2.02785e-05 2.86319e-05 -0.000206178
0.00149733 0.000946999 -0.0001364
0.000946999 0.00180502 -0.000103854
-0.0001364 -0.000103854 0.000142816
0.000792414 6.13993e-05 0.000243162
6.13993e-05 0.001794 8.72591e-05
0.000243162 8.72591e-05 -0.00312823
-0.00282188 0.000348858 -0.00011937
0.000348858 0.00227462 7.88957e-06
-0.00011937 7.88957e-06 0.000332654
0.00330296 -0.000334599 -6.2861e-05
-0.000334599 0.00151693 -2.72485e-06
-6.2861e-05 -2.72485e-06 0.0011993
0.000147379 0.000603726 9.86214e-05
0.000603726 0.00100095 1.83401e-05
9.86214e-05 1.83401e-05 -0.00028267
0.00115552 0.000311393 -0.000112975
0.000311393 0.00305284 0.000110401
-0.000112975 0.000110401 0.00134006
-0.000739944 -0.000276154 -8.11308e-06
-0.000276154 0.00231153 -3.5363e-05
-8.11308e-06 -3.5363e-05 0.000793223
0.0159734 -0.00513365 0.000301781
-0.00513365 0.00906312 -0.000167843
0.000301781 -0.000167843 0.0018473
0.025531 0.00622134 -0.000397232
0.00622134 0.0127428 -0.000236852
-0.000397232 -0.000236852 0.00548612
0.0056306 -0.00219609 -0.000407629
-0.00219609 0.00303854 0.000310994
-0.000407629 0.000310994 -0.00164057
0.0129384 0.0136558 0.00300772
0.0136558 0.010062 -0.00178855
0.00300772 -0.00178855 0.00343
0.000895888 -0.000666813 4.48325e-05
-0.000666813 0.00165951 -1.36316e-05
4.48325e-05 -1.36316e-05 0.000328545
-0.000334913 -0.000724716 6.58922e-05
-0.000724716 0.00071785 9.78017e-06
6.58922e-05 9.78017e-06 -0.00391564
0.00286591 0.00219499 -0.00145356
0.00219499 0.00859834 0.000318937
-0.00145356 0.000318937 0.0027316
-2.43591e-06 -0.00110728 3.63676e-05
-0.00110728 0.00153316 2.65119e-05
3.63676e-05 2.65119e-05 0.000503389
0.0229445 0.00782932 0.000432778
0.00782932 0.00835401 0.000129413
0.000432778 0.000129413 0.00202142
0.0078713 -0.006615 0.000291374
-0.006615 0.00286025 -8.8754e-05
0.000291374 -8.8754e-05 -0.00136253
0.000318357 -0.00166422 -6.88274e-06
-0.00166422 0.000587589 3.80471e-05
-6.88274e-06 3.80471e-05 -0.000570193
-0.00469587 -0.00203196 0.000192035
-0.00203196 0.00733714 -0.000103117
0.000192035 -0.000103117 0.00266217
0.0187093 0.00807907 -0.00196985
0.00807907 0.00758175 0.000514997
-0.00196985 0.000514997 0.00265314
0.00703002 -0.00516404 -0.000571913
-0.00516404 -0.000741428 0.000222204
-0.000571913 0.000222204 -0.00345609
-0.000294931 -0.00228424 0.000197391
-0.00228424 -0.00025515 -0.000141967
0.000197391 -0.000141967 0.000706491
0.0014042 -0.000646986 -0.000116621
-0.000646986 0.00104815 3.79383e-05
-0.000116621 3.79383e-05 0.000437146
0.00045592 -0.000764363 -1.8914e-05
-0.000764363 0.000439043 1.2731e-05
-1.8914e-05 1.2731e-05 -8.09297e-05
0.00271053 -0.00107021 2.29373e-05
-0.00107021 0.00126191 -3.20835e-05
2.29373e-05 -3.20835e-05 0.000759308
-0.00109254 -0.000235289 1.48488e-05
-0.000235289 -0.000392994 5.84601e-06
1.48488e-05 5.84601e-06 -0.00069507
0.00110859 -0.000788297 -2.19665e-06
-0.000788297 0.000300813 -3.82831e-06
-2.19665e-06 -3.82831e-06 -0.000149472
0.00325549 -0.00122993 1.09211e-05
-0.00122993 0.00100921 -9.48592e-06
1.09211e-05 -9.48592e-06 0.000512785
0.00435464 -0.00115885 -3.24569e-05
-0.00115885 0.0020658 2.49675e-06
-3.24569e-05 2.49675e-06 0.00134097
0.00179895 -0.000982943 -2.46722e-06
-0.000982943 0.000410142 -1.39077e-06
-2.46722e-06 -1.39077e-06 -0.000289163
0.00253708 -0.00119986 -2.52486e-06
-0.00119986 0.000550525 -1.10726e-05
-2.52486e-06 -1.10726e-05 -2.14175e-05
0.0030286 -0.00108735 7.39101e-06
-0.00108735 0.00115259 7.7486e-06
7.39101e-06 7.7486e-06 0.000453366
0.00248603 -0.00110508 2.45665e-06
-0.00110508 0.000707507 -3.94113e-06
2.45665e-06 -3.94113e-06 6.75603e-05
0.00273124 -0.000942262 -5.26189e-06
-0.000942262 0.000598086 -7.97479e-06
-5.26189e-06 -7.97479e-06 0.000158982
0.00189687 -0.000583873 -1.81578e-06
-0.000583873 2.64052e-06 -2.14054e-06
-1.81578e-06 -2.14054e-06 -0.000254954
0.00201003 -0.000857169 1.49823e-06
-0.000857169 0.000174004 -2.73307e-06
1.49823e-06 -2.73307e-06 -0.000260247
0.00234524 -0.000881419 3.39576e-06
-0.000881419 0.000413187 -2.54543e-06
3.39576e-06 -2.54543e-06 -2.60713e-05
0.0025772 -0.000964999 -5.00001e-06
-0.000964999 0.000794222 -1.49753e-06
-5.00001e-06 -1.49753e-06 0.000283006
0.00272561 -0.00108667 -3.52209e-06
-0.00108667 0.000824604 -1.13488e-07
-3.52209e-06 -1.13488e-07 0.000253174
0.00262145 -0.001097 1.11991e-05
-0.001097 0.000771796 -5.13547e-06
1.11991e-05 -5.13547e-06 0.000165413
0.00181586 -0.000756791 6.9465e-06
-0.000756791 0.000571302 -3.39302e-06
6.9465e-06 -3.39302e-06 9.11591e-05
0.00168132 -0.000836751 2.27761e-06
-0.000836751 0.000455097 -8.27535e-07
2.27761e-06 -8.27535e-07 -5.45138e-05
0.00133934 -0.000785531 3.92257e-06
-0.000785531 0.000242163 2.8327e-06
3.92257e-06 2.8327e-06 -0.000257231
0.00156493 -0.000349064 7.79755e-07
-0.000349064 0.000555229 3.01199e-06
7.79755e-07 3.01199e-06 0.00026461
0.00138015 -0.000535867 1.63373e-06
-0.000535867 0.000425754 9.14892e-07
1.63373e-06 9.14892e-07 3.18849e-05
0.00194717 -0.000703135 -4.6512e-06
-0.000703135 0.000731355 3.73989e-06
-4.6512e-06 3.73989e-06 0.000267405
5.09876e-05 -0.000141217 -3.14622e-06
-0.000141217 -0.00027157 2.09816e-07
-3.14622e-06 2.09816e-07 -0.000512003
0.000646229 -0.00025636 -2.3561e-06
-0.00025636 8.94554e-05 -1.89117e-06
-2.3561e-06 -1.89117e-06 -0.000187793
0.000889796 -0.000301585 -4.20192e-06
-0.000301585 0.000206944 8.10327e-07
-4.20192e-06 8.10327e-07 -7.05311e-05
0.00200217 -1.04095e-05 -5.79037e-05
-1.04095e-05 0.00097707 1.09687e-05
-5.79037e-05 1.09687e-05 0.000915739
0.000714064 -0.000158873 5.97298e-07
-0.000158873 0.000174782 -1.10003e-08
5.97298e-07 -1.10003e-08 -3.24605e-05
0.00141904 -0.000315103 1.20657e-06
-0.000315103 0.000686493 5.86289e-06
1.20657e-06 5.86289e-06 0.000385309
0.000638701 1.67317e-05 -6.4013e-05
1.67317e-05 0.000110212 7.20898e-06
-6.4013e-05 7.20898e-06 9.83174e-05
0.00126833 -1.51521e-05 -2.08456e-05
-1.51521e-05 0.000504684 -7.32817e-07
-2.08456e-05 -7.32817e-07 0.000451707
0.0010216 -0.000119772 3.36269e-06
-0.000119772 0.000357601 -5.50395e-06
3.36269e-06 -5.50395e-06 0.000200032
0.000555887 -1.55217e-05 3.93901e-06
-1.55217e-05 4.78859e-05 -1.14457e-05
3.93901e-06 -1.14457e-05 5.07933e-07
0.00323555 0.000127373 1.0407e-05
0.000127373 0.00177923 8.66311e-07
1.0407e-05 8.66311e-07 0.00177549
0.00294254 9.97923e-05 4.39715e-05
9.97923e-05 0.00158043 -5.30123e-06
4.39715e-05 -5.30123e-06 0.00158346
0.000573489 0.000174049 1.00094e-05
0.000174049 0.000166467 2.08179e-06
1.00094e-05 2.08179e-06 -0.000100761
0.00179199 0.000191459 5.38139e-06
0.000191459 0.000999713 -6.51541e-06
5.38139e-06 -6.51541e-06 0.000708914
-0.000518991 3.58031e-05 2.44486e-06
3.58031e-05 -0.00046003 -2.85126e-07
2.44486e-06 -2.85126e-07 -0.000711927
0.000663759 7.23268e-05 2.28461e-06
7.23268e-05 0.000144161 -9.15045e-06
2.28461e-06 -9.15045e-06 1.54707e-05
0.000702121 0.000131823 1.0551e-06
0.000131823 0.00024378 -4.97437e-08
1.0551e-06 -4.97437e-08 3.84663e-05
0.000423923 1.17259e-05 -7.70908e-07
1.17259e-05 -3.39732e-05 -1.06098e-05
-7.70908e-07 -1.06098e-05 -7.09057e-05
0.000557832 6.04709e-05 -7.56495e-08
6.04709e-05 7.78424e-05 -5.14319e-07
-7.56495e-08 -5.14319e-07 -3.09664e-05
0.00070145 6.16525e-05 -6.13647e-06
6.16525e-05 0.000238466 1.86343e-06
-6.13647e-06 1.86343e-06 6.48639e-05
0.002697 -6.96048e-05 -3.7553e-05
-6.96048e-05 0.00141907 -5.44389e-06
-3.7553e-05 -5.44389e-06 0.00142799
0.000415619 5.04374e-06 -2.34312e-07
5.04374e-06 -4.61409e-05 -2.29115e-08
-2.34312e-07 -2.29115e-08 -7.56298e-05
0.000490424 6.65208e-05 -2.71438e-06
6.65208e-05 3.3852e-05 3.47508e-06
-2.71438e-06 3.47508e-06 -6.03454e-05
0.00242166 -5.05727e-05 -6.80323e-06
-5.05727e-05 0.00123755 4.41522e-07
-6.80323e-06 4.41522e-07 0.00124978
0.000396212 -1.41103e-05 -6.90124e-06
-1.41103e-05 -6.21372e-05 5.97895e-06
-6.90124e-06 5.97895e-06 -8.4834e-05
0.00223835 -3.04674e-05 2.30306e-05
-3.04674e-05 0.0011175 5.12476e-06
2.30306e-05 5.12476e-06 0.00113298
0.00685469 0.00104313 0.000465401
0.00104313 0.00460322 0.000112621
0.000465401 0.000112621 0.00164348
-0.00236306 0.000398353 -8.53412e-06
0.000398353 0.000975186 -1.17943e-05
-8.53412e-06 -1.17943e-05 -0.000634431
0.000461452 0.000473135 -8.6899e-06
0.000473135 0.00142879 -1.69573e-05
-8.6899e-06 -1.69573e-05 0.00019378
-0.000536801 0.000168738 -9.35101e-06
0.000168738 -0.000696412 7.71823e-06
-9.35101e-06 7.71823e-06 -0.000909337
-2.11769e-05 3.9322e-05 -7.77035e-06
3.9322e-05 -0.000203889 1.12695e-05
-7.77035e-06 1.12695e-05 -0.00041553
-0.000471206 5.41063e-05 -8.81151e-06
5.41063e-05 -0.000496472 -1.01441e-05
-8.81151e-06 -1.01441e-05 -0.000678813
0.00170376 9.70558e-05 5.34105e-06
9.70558e-05 0.00087643 3.52828e-07
5.34105e-06 3.52828e-07 0.000673659
0.000756429 0.000181363 -3.65338e-06
0.000181363 0.000152854 -6.82086e-06
-3.65338e-06 -6.82086e-06 -4.01686e-05
0.00249695 0.000383278 -1.42153e-05
0.000383278 0.0013599 -5.36645e-06
-1.42153e-05 -5.36645e-06 0.0011355
0.00124944 0.00030911 9.33891e-07
0.00030911 0.000486297 -1.28466e-05
9.33891e-07 -1.28466e-05 0.000144649
-0.0018325 0.000160361 -3.3509e-06
0.000160361 -0.000968505 -1.61728e-07
-3.3509e-06 -1.61728e-07 -0.00137289
0.000337133 9.4512e-05 -7.14906e-06
9.4512e-05 -4.88401e-06 -6.94127e-06
-7.14906e-06 -6.94127e-06 -0.00015642
-0.000330363 5.64802e-05 -1.46573e-05
5.64802e-05 -0.000503392 -8.77293e-06
-1.46573e-05 -8.77293e-06 -0.000575165
-0.000756175 1.43846e-05 -2.81392e-06
1.43846e-05 -0.000465335 2.15548e-06
-2.81392e-06 2.15548e-06 -0.000756766
0.000559854 0.000342345 1.69851e-05
0.000342345 0.000494292 4.34069e-06
1.69851e-05 4.34069e-06 -3.86606e-05
0.00625355 -0.00509513 3.81427e-05
-0.00509513 0.00815672 0.000235677
3.81427e-05 0.000235677 0.000613491
0.00778211 0.00212067 0.000212071
0.00212067 0.00382371 0.000194059
0.000212071 0.000194059 -0.0018508
0.00389812 0.000654069 -1.32923e-05
0.000654069 0.00113331 -8.44207e-05
-1.32923e-05 -8.44207e-05 -0.00107649
0.0317476 -0.00713757 -0.00104357
-0.00713757 0.00973757 -0.000456815
-0.00104357 -0.000456815 0.00501261
0.005291 -0.0016681 0.000314368
-0.0016681 0.00453483 0.000564974
0.000314368 0.000564974 0.000139874
0.00243418 -0.00165057 -0.000271453
-0.00165057 0.00558828 0.000134164
-0.000271453 0.000134164 -0.0023969
-0.000662584 -0.00127733 8.82278e-05
-0.00127733 0.00150327 5.137e-05
8.82278e-05 5.137e-05 0.000304839
-0.0014622 -3.84778e-05 0.000170431
-3.84778e-05 0.00141643 5.27834e-05
0.000170431 5.27834e-05 0.000400636
0.0219481 -0.0124219 0.000537469
-0.0124219 0.0119199 0.000513127
0.000537469 0.000513127 0.0055055
0.00294533 0.00203801 -0.000145822
0.00203801 0.00511419 -0.000105741
-0.000145822 -0.000105741 -0.00202907
0.0113458 -0.00453077 -0.000152172
-0.00453077 0.00698872 0.000147273
-0.000152172 0.000147273 -0.000391322
-0.000157285 0.000870023 -1.3826e-05
0.000870023 0.00135853 3.79604e-05
-1.3826e-05 3.79604e-05 0.000652973
0.00883341 0.00516149 -0.000153629
0.00516149 0.0032057 -3.25756e-06
-0.000153629 -3.25756e-06 -0.000903921
0.0213927 -0.00786889 -0.000995642
-0.00786889 0.00776808 -0.000479137
-0.000995642 -0.000479137 0.00118022
0.0011379 0.000749388 1.22245e-05
0.000749388 0.000295948 -1.97629e-06
1.22245e-05 -1.97629e-06 9.30734e-05
0.000619024 0.000266826 7.90948e-06
0.000266826 0.000436702 6.5102e-06
7.90948e-06 6.5102e-06 4.45975e-05
-0.000637967 1.45237e-05 -2.17868e-05
1.45237e-05 -0.000216813 -2.04744e-06
-2.17868e-05 -2.04744e-06 -0.000595222
-0.00303004 -0.000273984 -0.000125899
-0.000273984 0.000661344 -5.40858e-05
-0.000125899 -5.40858e-05 -0.0013396
0.0002809 0.000283096 -2.6272e-06
0.000283096 0.000436732 -1.66779e-05
-2.6272e-06 -1.66779e-05 -0.000135831
0.000651295 0.000241332 -5.54168e-06
0.000241332 0.00057071 7.16657e-06
-5.54168e-06 7.16657e-06 0.000227746
0.00116457 0.000767423 1.45255e-05
0.000767423 0.000627936 3.53645e-06
1.45255e-05 3.53645e-06 0.000165671
-0.000314278 0.000715065 2.13258e-05
0.000715065 0.000951269 -3.95956e-05
2.13258e-05 -3.95956e-05 -0.000490278
0.00137543 0.00182321 8.84546e-05
0.00182321 0.000401618 6.80644e-06
8.84546e-05 6.80644e-06 -0.000702236
-0.00677628 0.00126064 0.000473006
0.00126064 0.00606772 -1.3887e-05
0.000473006 -1.3887e-05 -0.00228029
0.00223135 -0.000402407 -1.72411e-05
-0.000402407 0.00226442 8.43294e-05
-1.72411e-05 8.43294e-05 -0.00103959
-0.00312469 -1.75651e-05 -2.46621e-05
-1.75651e-05 0.00163442 8.14457e-05
-2.46621e-05 8.14457e-05 -7.24814e-05
-0.000924336 -0.000372315 -5.34593e-05
-0.000372315 0.000776211 1.30402e-05
-5.34593e-05 1.30402e-05 -0.000611384
-0.00164522 -0.000750251 -6.47674e-05
-0.000750251 5.38734e-05 5.13042e-05
-6.47674e-05 5.13042e-05 0.000119886
-0.000868308 -0.000732981 -0.000242195
-0.000732981 0.00124085 0.000161651
-0.000242195 0.000161651 -0.00380468
-0.00131997 -0.00498276 0.000250922
-0.00498276 0.00221467 -0.000138721
0.000250922 -0.000138721 -0.00440625
0.0165298 0.00622734 0.000884872
0.00622734 0.00371293 -0.000470897
0.000884872 -0.000470897 -0.00225244
0.0152978 0.0056398 -0.000461309
0.0056398 0.0100667 0.000433656
-0.000461309 0.000433656 0.0034528
0.00103153 -0.0011818 -3.30507e-05
-0.0011818 0.00156238 5.99044e-06
-3.30507e-05 5.99044e-06 0.000466551
0.00321722 0.00108842 0.00021215
0.00108842 0.00936354 -4.43929e-05
0.00021215 -4.43929e-05 0.0037623
0.00390039 0.0055784 1.69217e-05
0.0055784 0.00178941 9.11587e-05
1.69217e-05 9.11587e-05 -0.00289488
0.00253816 -0.00357982 9.02312e-05
-0.00357982 0.000882674 -5.67101e-05
9.02312e-05 -5.67101e-05 0.00112981
0.0144541 -0.00565656 7.40261e-07
-0.00565656 0.00141134 9.63323e-06
7.40261e-07 9.63323e-06 -0.000475753
0.0033115 -0.00216183 7.8541e-06
-0.00216183 0.00142693 1.40502e-05
7.8541e-06 1.40502e-05 0.000845202
-0.00679076 0.00187398 -0.00084631
0.00187398 -0.00143656 0.000147374
-0.00084631 0.000147374 -0.00546056
0.0158732 -0.00364554 -0.000235692
-0.00364554 0.000949236 6.62413e-05
-0.000235692 6.62413e-05 -4.34824e-07
0.00434697 -0.00341178 0.000134595
-0.00341178 5.13018e-05 -7.84342e-05
0.000134595 -7.84342e-05 0.00111602
-0.000279115 -0.00056813 1.02058e-05
-0.00056813 0.000165886 3.68964e-06
1.02058e-05 3.68964e-06 -0.000381251
0.00201529 -0.00113748 1.24449e-05
-0.00113748 0.000724322 -8.24082e-06
1.24449e-05 -8.24082e-06 0.000329759
0.00316294 -0.00110693 2.30084e-05
-0.00110693 0.000985898 -2.05356e-05
2.30084e-05 -2.05356e-05 0.000597175
-0.000270997 -0.000618144 -8.18221e-06
-0.000618144 -0.000417829 1.42117e-05
-8.18221e-06 1.42117e-05 -0.000846555
0.00199966 -0.00109042 -4.41505e-06
-0.00109042 0.000349863 1.62021e-06
-4.41505e-06 1.62021e-06 -0.000148427
0.00349949 -0.00129216 6.71293e-06
-0.00129216 0.00092851 -5.9788e-06
6.71293e-06 -5.9788e-06 0.000440827
0.00138616 -0.000894189 -8.38022e-06
-0.000894189 0.000173519 1.08623e-05
-8.38022e-06 1.08623e-05 -0.000499738
0.00227297 -0.00115866 -8.4806e-07
-0.00115866 0.000414048 2.61837e-06
-8.4806e-07 2.61837e-06 -0.000155171
0.00223271 -0.000909831 -4.40771e-06
-0.000909831 0.000145892 -4.91352e-06
-4.40771e-06 -4.91352e-06 -0.00019684
0.00181805 -0.00101744 9.19377e-06
-0.00101744 0.000326083 4.10802e-06
9.19377e-06 4.10802e-06 -0.000285185
0.00223668 -0.000870316 -1.77038e-06
-0.000870316 0.000332026 1.82171e-06
-1.77038e-06 1.82171e-06 -8.93279e-05
0.00226032 -0.000632533 -1.84095e-06
-0.000632533 0.000144499 -2.29194e-06
-1.84095e-06 -2.29194e-06 -8.30011e-05
0.00205575 -0.000543594 -2.69577e-06
-0.000543594 0.00010276 6.04863e-07
-2.69577e-06 6.04863e-07 -8.82221e-05
0.00186044 -0.000598867 -3.16058e-06
-0.000598867 8.30973e-06 -1.90133e-06
-3.16058e-06 -1.90133e-06 -0.000262526
0.001938 -0.000582396 1.64184e-06
-0.000582396 2.44512e-05 2.88688e-06
1.64184e-06 2.88688e-06 -0.000229524
0.00182981 -0.000743699 -4.02989e-06
-0.000743699 0.000136857 -3.94818e-06
-4.02989e-06 -3.94818e-06 -0.000251625
0.00220233 -0.000868872 2.75712e-06
-0.000868872 0.000313687 1.98778e-08
2.75712e-06 1.98778e-08 -0.000118099
0.0023226 -0.00088242 3.70168e-06
-0.00088242 0.000396792 2.19417e-06
3.70168e-06 2.19417e-06 -4.15552e-05
0.00197847 -0.000827355 2.74015e-07
-0.000827355 0.000468652 -2.90576e-06
2.74015e-07 -2.90576e-06 -1.22119e-05
0.00237752 -0.000948873 2.0125e-06
-0.000948873 0.00066616 -6.25559e-07
2.0125e-06 -6.25559e-07 0.000155224
0.0026291 -0.00107145 4.02862e-06
-0.00107145 0.0007774 -2.22296e-06
4.02862e-06 -2.22296e-06 0.000204116
0.00149733 -0.000516908 -7.66633e-06
-0.000516908 0.000429158 4.15984e-06
-7.66633e-06 4.15984e-06 5.93021e-05
0.00176781 -0.000738249 8.45086e-07
-0.000738249 0.000544615 5.98693e-07
8.45086e-07 5.98693e-07 7.33395e-05
0.00143145 -0.000795182 -1.51151e-06
-0.000795182 0.000320818 3.0033e-06
-1.51151e-06 3.0033e-06 -0.000176013
0.000709413 -0.000241765 -6.67829e-06
-0.000241765 8.25118e-05 -8.1118e-07
-6.67829e-06 -8.1118e-07 -0.000149424
0.00103397 -0.000325528 2.62749e-06
-0.000325528 0.000223331 -6.48537e-07
2.62749e-06 -6.48537e-07 -6.86186e-05
0.000872961 -0.000470726 -6.28653e-06
-0.000470726 0.000142981 2.90624e-06
-6.28653e-06 2.90624e-06 -0.000233124
0.000405237 -9.68732e-05 -1.70314e-05
-9.68732e-05 -7.83056e-05 1.50679e-05
-1.70314e-05 1.50679e-05 -0.000169515
0.000731036 -0.000198102 1.48073e-06
-0.000198102 0.000177476 1.90248e-06
1.48073e-06 1.90248e-06 -7.86468e-05
0.00057137 -0.000294609 -2.83568e-06
-0.000294609 7.5581e-05 1.16533e-06
-2.83568e-06 1.16533e-06 -0.000223593
0.00431707 0.000275376 1.50977e-05
0.000275376 0.00252946 7.90964e-06
1.50977e-05 7.90964e-06 0.00247861
0.000398513 -6.3163e-05 1.77422e-07
-6.3163e-05 -6.03741e-05 -2.83672e-07
1.77422e-07 -2.83672e-07 -0.000138397
0.00145341 -0.000169405 7.88525e-07
-0.000169405 0.000637046 -4.06341e-06
7.88525e-07 -4.06341e-06 0.000428937
0.00368123 0.000144282 9.83762e-06
0.000144282 0.00207373 6.42106e-07
9.83762e-06 6.42106e-07 0.00206557
0.000600595 -3.49495e-05 7.4792e-06
-3.49495e-05 7.4184e-05 -1.32334e-05
7.4792e-06 -1.32334e-05 1.35076e-05
0.00331709 0.000115203 6.77708e-05
0.000115203 0.00182916 -5.91576e-06
6.77708e-05 -5.91576e-06 0.00182864
0.00236116 0.00041045 2.86017e-06
0.00041045 0.00117814 2.3767e-06
2.86017e-06 2.3767e-06 0.000905854
0.000597676 0.000201556 -1.76849e-07
0.000201556 0.000184608 -2.34776e-06
-1.76849e-07 -2.34776e-06 -9.29253e-05
0.00132359 0.0003343 -3.12348e-06
0.0003343 0.00067278 -3.20804e-06
-3.12348e-06 -3.20804e-06 0.000368451
0.000975752 0.000113756 1.35427e-06
0.000113756 0.000346964 -8.91638e-06
1.35427e-06 -8.91638e-06 0.000186512
0.000794877 0.000131331 2.32286e-07
0.000131331 0.00035824 1.13212e-06
2.32286e-07 1.13212e-06 7.70917e-05
1.54293e-05 0.000112529 -3.63978e-06
0.000112529 -7.82452e-05 6.24323e-06
-3.63978e-06 6.24323e-06 -0.000369818
0.000512651 1.63847e-06 -1.42717e-06
1.63847e-06 3.33399e-05 -1.31208e-05
-1.42717e-06 -1.31208e-05 -1.43332e-05
0.000559721 5.71345e-05 -4.62517e-07
5.71345e-05 8.28305e-05 1.0467e-08
-4.62517e-07 1.0467e-08 -4.60637e-05
5.25868e-05 8.70766e-05 -5.1423e-06
8.70766e-05 -0.000196681 7.53982e-06
-5.1423e-06 7.53982e-06 -0.000384106
0.00280135 -8.58641e-05 -4.67026e-05
-8.58641e-05 0.00149195 -5.76957e-06
-4.67026e-05 -5.76957e-06 0.00149824
0.000394085 -2.59939e-05 2.58762e-06
-2.59939e-05 -4.95849e-05 -3.29946e-07
2.58762e-06 -3.29946e-07 -8.72221e-05
0.000466955 5.25666e-05 -4.4957e-06
5.25666e-05 2.79241e-05 5.65336e-06
-4.4957e-06 5.65336e-06 -8.20571e-05
0.0026183 -6.9665e-05 -7.58888e-06
-6.9665e-05 0.00136855 5.83769e-07
-7.58888e-06 5.83769e-07 0.00137727
0.000419658 7.33031e-06 -2.50726e-06
7.33031e-06 -4.41462e-05 7.47334e-06
-2.50726e-06 7.47334e-06 -7.28231e-05
0.00237622 -4.99713e-05 2.43608e-05
-4.99713e-05 0.00120835 5.26457e-06
2.43608e-05 5.26457e-06 0.00122083
-0.00850282 0.00105205 -0.000223176
0.00105205 0.00488235 7.62883e-05
-0.000223176 7.62883e-05 -0.00278725
0.00646068 0.000844288 2.97657e-05
0.000844288 0.00412275 -8.8243e-08
2.97657e-05 -8.8243e-08 0.00129421
-0.00173181 0.000368256 0.00010677
0.000368256 0.000991621 5.60531e-05
0.00010677 5.60531e-05 -0.000876345
0.000242094 0.000203664 -2.53735e-06
0.000203664 -0.000169248 6.82342e-06
-2.53735e-06 6.82342e-06 -0.000429145
0.00349474 0.000835139 1.95919e-05
0.000835139 0.00184524 1.89186e-05
1.95919e-05 1.89186e-05 0.00139003
-8.96064e-05 0.000187399 -9.42549e-06
0.000187399 -0.000172854 7.49244e-06
-9.42549e-06 7.49244e-06 -0.00057643
0.000342276 8.44811e-05 -8.39753e-06
8.44811e-05 4.01516e-05 -1.85014e-05
-8.39753e-06 -1.85014e-05 -0.000172746
0.00315588 0.000388764 4.46349e-07
0.000388764 0.00162855 -4.04864e-06
4.46349e-07 -4.04864e-06 0.00141227
-0.00155733 6.62301e-07 -1.45253e-05
6.62301e-07 -0.00114445 1.51779e-05
-1.45253e-05 1.51779e-05 -0.00129665
-0.000183218 0.000208426 -3.90392e-07
0.000208426 -0.000104055 7.75332e-06
-3.90392e-07 7.75332e-06 -0.000431117
6.70141e-05 0.000138163 -4.7789e-06
0.000138163 -0.000156799 -5.62556e-06
-4.7789e-06 -5.62556e-06 -0.00049634
0.00117741 0.000700683 2.873e-06
0.000700683 0.000571455 -1.98916e-05
2.873e-06 -1.98916e-05 3.39049e-05
-0.000969171 0.000549516 -2.58547e-05
0.000549516 -0.000902322 6.57404e-05
-2.58547e-05 6.57404e-05 -0.00106982
0.00121426 5.6984e-05 -1.68579e-05
5.6984e-05 0.000672475 1.73361e-05
-1.68579e-05 1.73361e-05 0.000431822
0.00183163 0.000415556 9.62427e-06
0.000415556 0.001209 -8.64602e-06
9.62427e-06 -8.64602e-06 0.000756778
0.00367656 -0.00342505 -0.00227178
-0.00342505 0.00288538 -0.000273572
-0.00227178 -0.000273572 -0.00244377
8.35441e-05 -0.0039589 0.000750811
-0.0039589 0.00852773 0.000189418
0.000750811 0.000189418 0.00120463
0.00852361 0.00266569 -0.00081618
0.00266569 0.0034853 -0.000272026
-0.00081618 -0.000272026 -0.00271835
0.0130794 -0.0134989 0.00297348
-0.0134989 0.010298 0.00171305
0.00297348 0.00171305 0.00332018
0.0303095 -0.0045152 -1.43542e-06
-0.0045152 0.0111839 0.000463435
-1.43542e-06 0.000463435 0.00562395
-0.00319133 0.00148724 -6.40989e-05
0.00148724 0.00316856 -0.000207877
-6.40989e-05 -0.000207877 -0.00311888
-0.00247642 0.000257192 -0.000259517
0.000257192 0.00164936 -5.09307e-05
-0.000259517 -5.09307e-05 -0.000305934
0.000193293 0.000910446 7.37126e-05
0.000910446 0.00173504 5.84237e-05
7.37126e-05 5.84237e-05 0.00114866
0.0229561 -0.00632652 -0.000832642
-0.00632652 0.00993268 3.44929e-05
-0.000832642 3.44929e-05 0.00354138
-0.00183809 0.00433387 -0.000192068
0.00433387 0.000671992 -4.88136e-05
-0.000192068 -4.88136e-05 -0.00420094
0.00354599 0.00296586 4.58398e-05
0.00296586 0.00121066 -8.30142e-05
4.58398e-05 -8.30142e-05 0.00199599
0.00583514 0.00712293 -0.000644052
0.00712293 -0.00170927 -0.000111096
-0.000644052 -0.000111096 -0.0039441
0.00369518 0.00147146 2.96705e-05
0.00147146 0.00147512 -6.44571e-06
2.96705e-05 -6.44571e-06 0.00103144
0.00105945 0.000700717 -5.8907e-06
0.000700717 0.000259847 -3.59803e-06
-5.8907e-06 -3.59803e-06 8.39495e-05
-0.000718187 0.00016825 -2.07037e-05
0.00016825 -0.000380363 7.17749e-06
-2.07037e-05 7.17749e-06 -0.00075453
-0.00115655 0.000606063 -0.000116151
0.000606063 0.000601659 -7.44005e-05
-0.000116151 -7.44005e-05 -0.000650446
0.00134934 0.000841059 -5.4256e-05
0.000841059 0.000649279 -3.653e-05
-5.4256e-05 -3.653e-05 0.000187531
0.00247004 0.00198748 6.25831e-06
0.00198748 0.000831474 -1.11007e-05
6.25831e-06 -1.11007e-05 -0.000256388
-0.00139018 0.00195978 0.000107806
0.00195978 -0.00204392 5.71972e-05
0.000107806 5.71972e-05 -0.00251797
-0.00693821 -0.000666697 -0.000816164
-0.000666697 -0.00344664 6.41415e-05
-0.000816164 6.41415e-05 -0.00483719
-0.0100233 0.000517157 0.000561522
0.000517157 0.00652014 1.78809e-05
0.000561522 1.78809e-05 -0.000752857
0.00276762 1.30768e-05 -0.000172333
1.30768e-05 0.00218861 3.52059e-05
-0.000172333 3.52059e-05 9.67907e-05
0.000836494 -0.00120991 -5.58898e-05
-0.00120991 0.00100281 -5.06586e-05
-5.58898e-05 -5.06586e-05 -4.48307e-05
-0.0012291 -0.00245707 0.000145454
-0.00245707 -0.000450307 2.41359e-05
0.000145454 2.41359e-05 -0.000222609
0.00122487 0.00123798 0.000191464
0.00123798 0.0089746 7.35556e-05
0.000191464 7.35556e-05 0.00310503
0.00465206 -0.00515238 0.000687572
-0.00515238 -0.00177521 -7.83749e-05
0.000687572 -7.83749e-05 -0.00312445
0.0255507 0.00491721 0.00129378
0.00491721 0.0115854 -8.05465e-05
0.00129378 -8.05465e-05 0.00681655
0.00179857 -0.00233371 -2.11632e-05
-0.00233371 0.000449778 3.86975e-06
-2.11632e-05 3.86975e-06 -0.00038537
0.0040077 0.00229329 0.000380134
0.00229329 0.00191482 -0.000112015
0.000380134 -0.000112015 -0.00160879
0.00757323 -0.00324553 -0.000207962
-0.00324553 -0.00378423 0.000182484
-0.000207962 0.000182484 -0.0053916
0.0026713 -0.00320619 -4.64984e-06
-0.00320619 -0.00114841 2.64534e-05
-4.64984e-06 2.64534e-05 0.000467408
0.00272165 -0.00189297 7.61736e-05
-0.00189297 0.000200982 -1.76453e-05
7.61736e-05 -1.76453e-05 -3.13265e-05
0.0193326 -0.00113019 -0.000114507
-0.00113019 0.00323901 7.46705e-05
-0.000114507 7.46705e-05 0.00245885
0.00276697 -0.00236982 0.000134415
-0.00236982 -0.00377989 -9.18375e-05
0.000134415 -9.18375e-05 -0.00149668
-0.000845718 -0.000891277 -3.15855e-05
-0.000891277 -0.000915261 4.69654e-05
-3.15855e-05 4.69654e-05 -0.00110223
0.000361456 -0.000795869 -3.76852e-05
-0.000795869 -0.000546038 4.62546e-06
-3.76852e-05 4.62546e-06 -0.000749464
0.00632198 -0.00138783 6.41454e-05
-0.00138783 0.00233607 -2.42457e-05
6.41454e-05 -2.42457e-05 0.00204919
0.000157159 -0.000849824 -1.35516e-05
-0.000849824 -0.00057921 8.08816e-06
-1.35516e-05 8.08816e-06 -0.00105318
0.00226419 -0.00112742 -1.98285e-06
-0.00112742 0.000297282 -2.00199e-06
-1.98285e-06 -2.00199e-06 -0.000148547
0.00297155 -0.000988794 2.6848e-06
-0.000988794 0.000361166 -3.49363e-06
2.6848e-06 -3.49363e-06 0.000145306
0.00226621 -0.00115247 1.0466e-05
-0.00115247 0.000409125 1.06819e-05
1.0466e-05 1.06819e-05 -0.000164045
0.00242422 -0.000921239 -2.38226e-06
-0.000921239 0.000254395 7.90859e-07
-2.38226e-06 7.90859e-07 -8.55068e-05
0.00229546 -0.000656936 -7.46573e-08
-0.000656936 5.57824e-06 -1.01064e-06
-7.46573e-08 -1.01064e-06 -9.641e-05
0.00187692 -0.000817645 1.0102e-05
-0.000817645 0.00013402 6.55165e-06
1.0102e-05 6.55165e-06 -0.000274197
0.00216592 -0.000618061 -2.08434e-07
-0.000618061 8.44785e-05 2.5503e-06
-2.08434e-07 2.5503e-06 -0.000132377
0.00227384 -0.000612842 -1.82284e-06
-0.000612842 0.000101827 2.30149e-06
-1.82284e-06 2.30149e-06 -3.0445e-05
0.00221786 -0.000584865 -3.1109e-06
-0.000584865 0.000169216 1.69586e-06
-3.1109e-06 1.69586e-06 6.27903e-06
0.00215299 -0.000552488 -3.13826e-06
-0.000552488 0.000152467 2.82987e-06
-3.13826e-06 2.82987e-06 -3.31468e-05
0.00220246 -0.000551094 -1.44316e-06
-0.000551094 0.000254655 -2.33534e-06
-1.44316e-06 -2.33534e-06 4.98385e-05
0.00218569 -0.000636084 -6.40424e-06
-0.000636084 0.000244162 -2.90923e-06
-6.40424e-06 -2.90923e-06 -3.97692e-05
0.00209207 -0.000615989 1.24266e-06
-0.000615989 0.00015994 1.26157e-06
1.24266e-06 1.26157e-06 -0.000111281
0.00201284 -0.00058586 2.80169e-06
-0.00058586 6.11458e-05 7.59835e-06
2.80169e-06 7.59835e-06 -0.000190159
0.00208991 -0.000748368 -6.3212e-06
-0.000748368 0.000358015 -4.06081e-06
-6.3212e-06 -4.06081e-06 -4.09192e-05
0.00182183 -0.000753138 -7.3523e-07
-0.000753138 0.000115891 1.84821e-07
-7.3523e-07 1.84821e-07 -0.000277394
0.00236809 -0.000879854 6.78904e-06
-0.000879854 0.000434271 2.67347e-06
6.78904e-06 2.67347e-06 4.82491e-06
0.00157551 -0.000641518 -1.00939e-05
-0.000641518 0.000306138 2.17468e-06
-1.00939e-05 2.17468e-06 -0.000114185
0.00208451 -0.000841325 -3.30023e-07
-0.000841325 0.000530398 8.69016e-07
-3.30023e-07 8.69016e-07 4.63689e-05
0.0022313 -0.000940283 4.9612e-06
-0.000940283 0.000568788 1.52948e-06
4.9612e-06 1.52948e-06 5.64825e-05
0.00091061 -0.000274407 -8.77829e-06
-0.000274407 0.000167651 8.09896e-06
-8.77829e-06 8.09896e-06 -7.75456e-05
0.0012982 -0.000504449 1.58482e-06
-0.000504449 0.000291432 6.82795e-07
1.58482e-06 6.82795e-07 -7.69533e-05
0.00158554 -0.000708886 -3.34386e-06
-0.000708886 0.000426845 3.5277e-06
-3.34386e-06 3.5277e-06 -3.41146e-05
0.000460882 -0.000169742 -2.86023e-05
-0.000169742 -7.5419e-05 1.59495e-05
-2.86023e-05 1.59495e-05 -0.000184467
0.000627152 -0.00023076 -2.65228e-06
-0.00023076 4.94295e-05 -5.59567e-07
-2.65228e-06 -5.59567e-07 -0.000195485
0.000159204 -0.000319273 2.40833e-06
-0.000319273 -0.000329342 -1.97764e-06
2.40833e-06 -1.97764e-06 -0.000628331
0.00486506 0.000228101 -0.00010333
0.000228101 0.00287565 1.10094e-05
-0.00010333 1.10094e-05 0.00284082
0.000553026 -0.00012062 2.49433e-06
-0.00012062 8.45671e-06 1.32513e-07
2.49433e-06 1.32513e-07 -8.73476e-05
0.00121621 -0.000268541 6.60944e-06
-0.000268541 0.00047628 -1.57989e-06
6.60944e-06 -1.57989e-06 0.00021901
0.0027845 0.00014204 6.54742e-05
0.00014204 0.0015195 1.6072e-06
6.54742e-05 1.6072e-06 0.00148755
0.000765403 -6.94581e-05 1.41161e-05
-6.94581e-05 0.00016588 -1.5231e-05
1.41161e-05 -1.5231e-05 8.39704e-05
0.00387991 0.000132223 9.54662e-05
0.000132223 0.00219963 -7.52656e-06
9.54662e-05 -7.52656e-06 0.00219425
0.00201967 0.000428715 7.22279e-07
0.000428715 0.000846606 -3.28729e-07
7.22279e-07 -3.28729e-07 0.000569948
0.000543546 0.000203839 -4.56785e-06
0.000203839 -7.01994e-06 2.70549e-07
-4.56785e-06 2.70549e-07 -0.000225579
0.000287582 0.000202704 8.1682e-08
0.000202704 -5.23134e-05 -3.72977e-06
8.1682e-08 -3.72977e-06 -0.000322231
0.000550584 0.000194149 -1.05215e-06
0.000194149 0.000139284 3.84171e-06
-1.05215e-06 3.84171e-06 -0.00012159
0.000885884 0.000122483 -1.32203e-07
0.000122483 0.000387844 1.50572e-07
-1.32203e-07 1.50572e-07 9.85868e-05
0.00112377 0.000155115 -1.6188e-06
0.000155115 0.000442293 -9.99269e-06
-1.6188e-06 -9.99269e-06 0.00024862
0.000640278 5.84066e-05 -8.6629e-06
5.84066e-05 0.000110214 -1.5709e-05
-8.6629e-06 -1.5709e-05 5.11093e-05
0.000644766 0.000107433 -1.37017e-08
0.000107433 0.000139994 7.68001e-08
-1.37017e-08 7.68001e-08 -1.65642e-05
-0.000793786 1.16933e-05 -6.92558e-06
1.16933e-05 -0.000689374 6.41858e-06
-6.92558e-06 6.41858e-06 -0.000933343
0.00317379 -0.000100257 -6.97651e-05
-0.000100257 0.00174007 -6.78655e-06
-6.97651e-05 -6.78655e-06 0.00174353
0.000369041 2.71175e-05 1.44046e-06
2.71175e-05 -5.73428e-05 -3.05609e-07
1.44046e-06 -3.05609e-07 -0.000104605
0.000662208 7.42146e-05 -3.81852e-06
7.42146e-05 0.000153696 9.4047e-06
-3.81852e-06 9.4047e-06 2.23569e-05
0.00286304 -9.05467e-05 -8.37661e-06
-9.05467e-05 0.00153296 7.53687e-07
-8.37661e-06 7.53687e-07 0.00153761
0.000320078 -1.21269e-05 -1.43657e-06
-1.21269e-05 -9.40251e-05 9.39411e-06
-1.43657e-06 9.39411e-06 -0.000131801
0.00260815 -7.01835e-05 3.03642e-05
-7.01835e-05 0.00136181 5.60455e-06
3.03642e-05 5.60455e-06 0.00137021
0.00229286 -0.000234828 -0.00126646
-0.000234828 0.00443913 -7.61756e-05
-0.00126646 -7.61756e-05 0.00200013
-0.00539663 -6.3024e-05 1.39534e-05
-6.3024e-05 0.00616062 -2.27956e-05
1.39534e-05 -2.27956e-05 -0.00185423
0.00637262 0.00043145 -0.000392576
0.00043145 0.00390918 -0.000106245
-0.000392576 -0.000106245 0.00125354
1.47345e-05 0.000107151 6.52237e-06
0.000107151 -0.000315761 -2.33208e-06
6.52237e-06 -2.33208e-06 -0.000571925
0.000169566 0.000138592 6.95384e-06
0.000138592 -0.000117982 4.25084e-06
6.95384e-06 4.25084e-06 -0.00048641
0.0029684 0.000741829 -3.43971e-06
0.000741829 0.00154153 2.95677e-06
-3.43971e-06 2.95677e-06 0.00109954
0.0023613 0.000877295 1.84836e-05
0.000877295 0.00101138 1.18646e-05
1.84836e-05 1.18646e-05 0.000453986
0.00098147 0.000610958 1.05435e-05
0.000610958 0.000502274 1.36935e-05
1.05435e-05 1.36935e-05 9.85193e-06
0.00224541 0.000309576 -6.93477e-06
0.000309576 0.00134691 6.50641e-06
-6.93477e-06 6.50641e-06 0.00104105
0.00230903 0.000323429 1.17799e-05
0.000323429 0.0012797 8.46393e-06
1.17799e-05 8.46393e-06 0.000948021
0.00107711 0.000631966 -4.83906e-06
0.000631966 0.000549728 1.07175e-06
-4.83906e-06 1.07175e-06 3.10374e-05
0.000288689 0.000822892 1.57871e-05
0.000822892 -0.00035689 -4.80798e-06
1.57871e-05 -4.80798e-06 -0.000777477
0.00297549 0.00108016 -7.47637e-06
0.00108016 0.00120491 3.34217e-05
-7.47637e-06 3.34217e-05 0.000889522
0.00164755 0.00110897 3.41102e-05
0.00110897 0.00014132 1.20821e-05
3.41102e-05 1.20821e-05 -5.28079e-05
0.00153853 0.000807065 3.29449e-07
0.000807065 0.000586336 -1.07603e-06
3.29449e-07 -1.07603e-06 0.000290299
0.00203882 0.000557922 -2.6886e-06
0.000557922 0.00123154 2.7553e-05
-2.6886e-06 2.7553e-05 0.000745798
0.0148851 0.00366372 -0.000151282
0.00366372 0.00137599 5.52417e-05
-0.000151282 5.52417e-05 0.000549179
0.00568698 -0.00297027 -0.00075015
-0.00297027 0.00480215 -0.000245137
-0.00075015 -0.000245137 0.000825739
0.0019515 -0.00541972 0.00119372
-0.00541972 0.00945911 0.000257831
0.00119372 0.000257831 0.0020496
0.0145299 -0.00344997 0.000482639
-0.00344997 0.00575299 0.0002894
0.000482639 0.0002894 5.84263e-05
0.0130452 0.00658028 -0.000128224
0.00658028 0.00450544 -5.82998e-05
-0.000128224 -5.82998e-05 0.000289623
-0.00249837 0.000542167 -6.5094e-06
0.000542167 0.000798421 -1.66939e-05
-6.5094e-06 -1.66939e-05 6.4338e-05
0.00203706 0.00251418 -9.06556e-05
0.00251418 0.00053203 -3.66092e-05
-9.06556e-05 -3.66092e-05 0.00153575
0.0151251 0.00658678 1.78807e-05
0.00658678 0.001954 4.16833e-05
1.78807e-05 4.16833e-05 -0.000683695
0.00711375 0.004743 -0.000149253
0.004743 -0.000531392 -0.000134975
-0.000149253 -0.000134975 0.000405745
0.0016982 0.00146932 6.24492e-06
0.00146932 0.000145416 2.68739e-06
6.24492e-06 2.68739e-06 -0.000208473
0.00154687 0.00112488 1.30983e-05
0.00112488 0.000431647 -3.84062e-06
1.30983e-05 -3.84062e-06 7.7359e-05
0.00171793 0.00070025 -3.51723e-05
0.00070025 0.000760819 -4.09164e-06
-3.51723e-05 -4.09164e-06 0.000586025
0.00218476 0.00203982 -8.04226e-05
0.00203982 0.000514047 -3.00721e-05
-8.04226e-05 -3.00721e-05 -0.000537327
0.0016968 0.00234733 0.000101169
0.00234733 -0.000681642 5.36675e-05
0.000101169 5.36675e-05 -0.00131393
0.00403553 -0.000304282 -0.000148021
-0.000304282 -0.00560973 4.51378e-05
-0.000148021 4.51378e-05 -0.00594146
0.000228973 -0.00224402 1.58318e-05
-0.00224402 0.0031094 3.99399e-05
1.58318e-05 3.99399e-05 0.00125589
-0.0136478 -0.000415494 0.00046247
-0.000415494 0.00736407 -1.79247e-05
0.00046247 -1.79247e-05 0.00129414
0.00200123 -0.00282245 -9.67777e-05
-0.00282245 0.000175944 4.84939e-05
-9.67777e-05 4.84939e-05 -0.000931125
0.00656008 -0.00432203 2.55165e-05
-0.00432203 2.79521e-05 5.69551e-05
2.55165e-05 5.69551e-05 0.00107817
0.00410725 0.0004504 0.00133287
0.0004504 0.00473938 -0.000315361
0.00133287 -0.000315361 0.00238011
0.0154705 -0.0034088 -0.00038475
-0.0034088 0.00116309 0.000216029
-0.00038475 0.000216029 0.000947618
0.0018323 -0.00185511 -3.00117e-05
-0.00185511 -0.000220187 5.51358e-06
-3.00117e-05 5.51358e-06 -0.000572014
0.0122051 -0.00027411 -0.00025626
-0.00027411 -0.00207485 9.04386e-05
-0.00025626 9.04386e-05 -0.00252451
0.0072795 -0.00273774 9.87648e-05
-0.00273774 -0.00099388 1.09492e-05
9.87648e-05 1.09492e-05 0.000488648
0.00371899 -0.00157389 6.32437e-05
-0.00157389 5.60815e-05 -4.05415e-05
6.32437e-05 -4.05415e-05 2.36586e-05
0.00258263 -0.00106214 2.22302e-05
-0.00106214 -0.00290417 -5.05539e-07
2.22302e-05 -5.05539e-07 -0.000920579
-0.00249372 -0.00052033 -3.73742e-06
-0.00052033 -0.00211839 2.18078e-05
-3.73742e-06 2.18078e-05 -0.00217314
0.0013837 -0.00090867 -2.22084e-05
-0.00090867 -0.000418689 4.32192e-06
-2.22084e-05 4.32192e-06 -0.000423576
0.00393223 -0.000939873 4.23011e-05
-0.000939873 0.000751143 -1.32762e-05
4.23011e-05 -1.32762e-05 0.000809956
0.00170347 -0.00105774 -1.39848e-05
-0.00105774 6.73287e-06 7.25953e-06
-1.39848e-05 7.25953e-06 -0.000418719
0.00246784 -0.000945062 -4.52496e-06
-0.000945062 8.40963e-05 2.85265e-06
-4.52496e-06 2.85265e-06 -0.0001289
0.00262516 -0.000751691 6.23271e-06
-0.000751691 -6.3088e-06 -2.52561e-07
6.23271e-06 -2.52561e-07 -1.07954e-05
0.00224761 -0.000883049 -1.99966e-06
-0.000883049 0.000170667 9.36638e-06
-1.99966e-06 9.36638e-06 -0.000153757
0.00225824 -0.000653735 2.49087e-07
-0.000653735 -1.82444e-05 1.31819e-06
2.49087e-07 1.31819e-06 -0.000118518
0.00242904 -0.000655612 3.96591e-08
-0.000655612 5.18852e-05 4.13876e-07
3.96591e-08 4.13876e-07 1.83628e-05
0.0020147 -0.000595138 4.22199e-06
-0.000595138 -4.62404e-06 5.44717e-06
4.22199e-06 5.44717e-06 -0.000208563
0.00222355 -0.000607008 -5.90868e-08
-0.000607008 7.31611e-05 1.04409e-06
-5.90868e-08 1.04409e-06 -5.73512e-05
0.00236882 -0.000642133 -1.5194e-06
-0.000642133 0.000117261 1.78298e-06
-1.5194e-06 1.78298e-06 1.05724e-05
0.00220692 -0.00059147 -4.73575e-06
-0.00059147 0.000152716 1.47136e-06
-4.73575e-06 1.47136e-06 -4.93276e-06
0.00224766 -0.000572232 -6.80155e-07
-0.000572232 0.000233915 1.45685e-07
-6.80155e-07 1.45685e-07 6.04972e-05
0.00221487 -0.000559165 7.05217e-07
-0.000559165 0.000182332 3.45558e-06
7.05217e-07 3.45558e-06 2.37691e-06
0.0021982 -0.000549775 7.51717e-07
-0.000549775 0.00025056 -4.71111e-07
7.51717e-07 -4.71111e-07 4.62467e-05
0.00212809 -0.000567327 -2.95063e-06
-0.000567327 0.000216198 -1.58264e-06
-2.95063e-06 -1.58264e-06 -8.87175e-06
0.00222522 -0.00062555 -3.31132e-06
-0.00062555 0.000342976 -4.94958e-06
-3.31132e-06 -4.94958e-06 4.26531e-05
0.00225194 -0.000645336 -6.02429e-07
-0.000645336 0.000289285 7.26504e-08
-6.02429e-07 7.26504e-08 2.05688e-06
0.00231981 -0.000631926 7.27422e-06
-0.000631926 0.000311957 4.62398e-06
7.27422e-06 4.62398e-06 4.0668e-05
0.00182807 -0.000655361 -9.87817e-06
-0.000655361 0.000296107 7.41345e-07
-9.87817e-06 7.41345e-07 -0.000100426
0.0020313 -0.000743495 -1.86228e-06
-0.000743495 0.000318444 -6.06059e-07
-1.86228e-06 -6.06059e-07 -8.29019e-05
0.00183159 -0.000764231 4.69239e-06
-0.000764231 0.000104274 3.25492e-06
4.69239e-06 3.25492e-06 -0.000294151
0.000947753 -0.000322987 -1.36412e-05
-0.000322987 8.79889e-05 8.44116e-06
-1.36412e-05 8.44116e-06 -0.000182631
0.00162046 -0.000641235 5.67217e-07
-0.000641235 0.000345634 7.55392e-07
5.67217e-07 7.55392e-07 -7.28002e-05
0.00218744 -0.00085262 1.26799e-06
-0.00085262 0.000593596 3.75697e-06
1.26799e-06 3.75697e-06 0.000107504
9.84044e-05 -0.000202696 -1.89395e-05
-0.000202696 -0.00030211 2.13822e-05
-1.89395e-05 2.13822e-05 -0.0004441
0.000640886 -0.000267628 6.32124e-07
-0.000267628 6.85404e-07 5.14297e-07
6.32124e-07 5.14297e-07 -0.000250354
0.000956936 -0.000470265 8.23172e-06
-0.000470265 7.16117e-05 -1.75057e-06
8.23172e-06 -1.75057e-06 -0.000288788
0.00586323 0.000136463 -0.000184897
0.000136463 0.00347645 1.2433e-05
-0.000184897 1.2433e-05 0.00346706
0.000487549 -0.000192576 -7.17973e-06
-0.000192576 -5.51313e-05 -1.2102e-06
-7.17973e-06 -1.2102e-06 -0.000170307
0.000608637 -0.00026206 4.86739e-06
-0.00026206 6.32349e-05 -4.71389e-06
4.86739e-06 -4.71389e-06 -0.000199203
0.00524946 0.000171749 1.64011e-05
0.000171749 0.00310418 -8.45508e-07
1.64011e-05 -8.45508e-07 0.00308574
0.00059394 -0.000149761 2.80745e-05
-0.000149761 3.13742e-05 -1.4857e-05
2.80745e-05 -1.4857e-05 -6.93063e-05
0.00464339 0.00014186 0.000141438
0.00014186 0.00270193 -1.10227e-05
0.000141438 -1.10227e-05 0.00269346
0.00266524 0.000795465 3.93946e-06
0.000795465 0.00120183 4.14757e-06
3.93946e-06 4.14757e-06 0.000708649
0.000775582 0.000343674 -2.68602e-06
0.000343674 8.10093e-05 -1.73251e-06
-2.68602e-06 -1.73251e-06 -0.000193944
0.000685976 0.000212589 6.17825e-06
0.000212589 5.75452e-05 6.92599e-07
6.17825e-06 6.92599e-07 -0.000168155
-0.000736858 8.20043e-05 -1.09052e-06
8.20043e-05 -0.000810951 -4.25792e-06
-1.09052e-06 -4.25792e-06 -0.00102623
0.000289279 0.00019426 2.35082e-06
0.00019426 -9.71613e-05 1.18408e-06
2.35082e-06 1.18408e-06 -0.000335536
0.00095026 0.000192864 -3.82642e-06
0.000192864 0.000311441 -1.04123e-05
-3.82642e-06 -1.04123e-05 9.26418e-05
6.06265e-05 7.68731e-05 -2.88469e-06
7.68731e-05 -0.000141476 1.57831e-06
-2.88469e-06 1.57831e-06 -0.000424328
0.000737862 0.00011451 2.6796e-07
0.00011451 0.000217349 7.70333e-07
2.6796e-07 7.70333e-07 1.58195e-05
0.000708556 7.841e-05 -1.36518e-05
7.841e-05 0.000148046 -1.81392e-05
-1.36518e-05 -1.81392e-05 7.08693e-05
0.0035186 -0.000108192 -9.64496e-05
-0.000108192 0.00197121 -9.73045e-06
-9.64496e-05 -9.73045e-06 0.00197209
0.000414934 3.1401e-05 1.96536e-06
3.1401e-05 -2.4492e-05 -5.55533e-07
1.96536e-06 -5.55533e-07 -8.41292e-05
0.000331838 7.11294e-05 -2.60261e-06
7.11294e-05 -4.926e-05 1.01981e-05
-2.60261e-06 1.01981e-05 -0.000203338
0.00303477 -0.000110976 -1.01241e-05
-0.000110976 0.00165213 9.91361e-07
-1.01241e-05 9.91361e-07 0.00165211
0.000260841 -6.01891e-05 -9.28791e-06
-6.01891e-05 -0.000115802 1.27594e-05
-9.28791e-06 1.27594e-05 -0.000168015
0.00276368 -8.96274e-05 3.80922e-05
-8.96274e-05 0.00146955 5.74715e-06
3.80922e-05 5.74715e-06 0.0014739
0.0159077 0.000780733 0.000611853
0.000780733 0.00142265 0.000145363
0.000611853 0.000145363 0.00154166
0.000299685 -0.00399493 -0.000753603
-0.00399493 -0.00173157 -9.48369e-05
-0.000753603 -9.48369e-05 -0.00529906
-0.00916927 0.00173358 -0.000266286
0.00173358 0.00578406 -0.000128997
-0.000266286 -0.000128997 -0.00218973
4.24617e-05 7.51971e-05 1.15861e-05
7.51971e-05 -0.000203437 -2.07466e-05
1.15861e-05 -2.07466e-05 -0.00059067
0.0013329 0.000537623 -8.04536e-06
0.000537623 0.000541285 -4.77803e-06
-8.04536e-06 -4.77803e-06 0.000132423
0.00271156 0.00078544 -1.16198e-05
0.00078544 0.0014774 -4.23606e-06
-1.16198e-05 -4.23606e-06 0.000944113
0.00133605 0.000740838 1.15258e-06
0.000740838 0.000389821 -6.4665e-07
1.15258e-06 -6.4665e-07 -0.000132832
0.00168099 0.000826893 1.35315e-05
0.000826893 0.000352199 2.20579e-05
1.35315e-05 2.20579e-05 -0.000139083
-0.000442585 0.00063302 3.41771e-05
0.00063302 -0.00072629 1.2085e-05
3.41771e-05 1.2085e-05 -0.00115678
0.00086881 0.00052851 -1.24741e-05
0.00052851 0.000480354 5.19964e-06
-1.24741e-05 5.19964e-06 -3.14894e-05
9.47475e-05 0.000772564 7.2739e-06
0.000772564 -0.000470542 5.47216e-08
7.2739e-06 5.47216e-08 -0.000869936
0.00227829 0.000997599 1.6621e-05
0.000997599 0.000858729 5.21986e-06
1.6621e-05 5.21986e-06 0.000500694
0.000301634 0.000785285 7.43789e-06
0.000785285 -0.00048591 -3.37901e-06
7.43789e-06 -3.37901e-06 -0.000818427
0.00391566 0.00126408 7.94654e-06
0.00126408 0.00138837 1.14726e-05
7.94654e-06 1.14726e-05 0.00113009
0.00209535 0.00115849 2.29663e-05
0.00115849 0.000406723 6.59729e-06
2.29663e-05 6.59729e-06 1.69674e-05
0.000818184 0.000998425 7.65275e-06
0.000998425 -0.000337995 -1.11022e-06
7.65275e-06 -1.11022e-06 -0.00045348
0.00124894 0.000708668 -1.23498e-05
0.000708668 0.00041796 -7.31494e-05
-1.23498e-05 -7.31494e-05 0.000147451
0.00420402 0.0022961 2.701e-05
0.0022961 -0.00289105 4.15214e-05
2.701e-05 4.15214e-05 -0.000538282
0.0138353 0.00442603 0.000349849
0.00442603 -0.000283256 0.000200593
0.000349849 0.000200593 -0.00152307
0.0140074 -0.00596065 0.000808839
-0.00596065 0.00690558 -7.7381e-05
0.000808839 -7.7381e-05 0.00198181
0.0059436 0.00697913 0.000766572
0.00697913 -0.00137298 0.00039941
0.000766572 0.00039941 -0.00533911
-0.000593086 0.00167456 -4.80111e-05
0.00167456 -2.53729e-05 1.97267e-05
-4.80111e-05 1.97267e-05 0.000666567
0.00357819 0.00299787 -9.36513e-05
0.00299787 -0.00110579 -5.60007e-05
-9.36513e-05 -5.60007e-05 0.000333926
0.00668739 0.00271435 5.59502e-05
0.00271435 0.00109167 3.33814e-05
5.59502e-05 3.33814e-05 0.000883357
0.00528137 0.0020457 2.41113e-05
0.0020457 0.00175618 1.01575e-05
2.41113e-05 1.01575e-05 0.00126477
0.000666689 0.00097148 -3.39125e-05
0.00097148 -4.86753e-05 2.89237e-06
-3.39125e-05 2.89237e-06 -0.000330268
0.00836944 0.00325248 -0.000205977
0.00325248 0.00241904 -1.32564e-05
-0.000205977 -1.32564e-05 0.00150904
0.00391451 -0.000767691 -3.51269e-06
-0.000767691 -0.00132341 2.44104e-05
-3.51269e-06 2.44104e-05 8.65095e-05
0.0118594 -0.000623517 -6.01028e-05
-0.000623517 0.000123746 -3.36268e-05
-6.01028e-05 -3.36268e-05 0.000650712
-0.013191 -0.00372835 0.00105888
-0.00372835 -0.00432891 -6.03945e-06
0.00105888 -6.03945e-06 -0.00670074
0.00140394 -0.00165874 -0.000140581
-0.00165874 -0.000321955 4.34381e-05
-0.000140581 4.34381e-05 -0.00060025
0.00829792 -0.00329955 -4.30611e-05
-0.00329955 -0.00124211 9.29199e-05
-4.30611e-05 9.29199e-05 0.00046995
0.00163264 -0.000376191 -0.00038022
-0.000376191 -0.006367 3.87497e-05
-0.00038022 3.87497e-05 -0.00727164
0.00339584 -0.00139131 3.7809e-05
-0.00139131 -0.000114565 1.59486e-06
3.7809e-05 1.59486e-06 0.00014896
0.00528569 -0.00103404 -6.66088e-05
-0.00103404 -0.00117819 1.53091e-06
-6.66088e-05 1.53091e-06 0.000257334
0.00683534 -0.0011497 6.10251e-05
-0.0011497 0.00164133 -3.80146e-05
6.10251e-05 -3.80146e-05 0.00208822
0.00588974 -0.000657873 0.000123283
-0.000657873 0.000885054 -1.46425e-06
0.000123283 -1.46425e-06 0.00149929
-0.00261951 -0.000541916 1.09465e-05
-0.000541916 -0.00274152 1.1147e-05
1.09465e-05 1.1147e-05 -0.00244394
0.00221927 -0.000792906 -9.34062e-06
-0.000792906 -0.000251794 2.66266e-06
-9.34062e-06 2.66266e-06 -4.62646e-05
0.00249802 -0.000597692 2.60194e-05
-0.000597692 -0.000276533 -5.98691e-06
2.60194e-05 -5.98691e-06 4.16851e-05
0.00206705 -0.000917654 -2.20829e-06
-0.000917654 -0.000143214 4.22354e-06
-2.20829e-06 4.22354e-06 -0.000358598
0.00255054 -0.00074442 1.12386e-06
-0.00074442 -4.24578e-05 1.64817e-06
1.12386e-06 1.64817e-06 -4.61296e-05
0.0025883 -0.000649387 1.13672e-06
-0.000649387 6.60501e-06 -2.05919e-07
1.13672e-06 -2.05919e-07 2.42321e-05
0.00224776 -0.00065537 2.34363e-06
-0.00065537 -2.74232e-05 4.81812e-06
2.34363e-06 4.81812e-06 -0.000129191
0.00239638 -0.000651236 1.5486e-07
-0.000651236 4.66694e-05 4.14427e-07
1.5486e-07 4.14427e-07 5.14147e-06
0.00238375 -0.000570267 -1.57727e-06
-0.000570267 3.26101e-05 -6.80663e-09
-1.57727e-06 -6.80663e-09 -1.38225e-05
0.0021804 -0.000603238 2.44044e-06
-0.000603238 4.64852e-05 3.66414e-07
2.44044e-06 3.66414e-07 -8.33695e-05
0.00237109 -0.000639133 4.33924e-08
-0.000639133 0.000147053 -2.69229e-09
4.33924e-08 -2.69229e-09 3.49835e-05
0.00225608 -0.000559644 8.30499e-07
-0.000559644 0.000127426 5.76015e-07
8.30499e-07 5.76015e-07 8.17938e-06
0.00220395 -0.000598443 -3.04278e-06
-0.000598443 0.000140094 -2.69858e-07
-3.04278e-06 -2.69858e-07 -1.26764e-05
0.00219103 -0.000564482 -1.59777e-06
-0.000564482 0.000195999 1.51574e-07
-1.59777e-06 1.51574e-07 2.53011e-05
0.00228664 -0.000554932 -2.28707e-06
-0.000554932 0.000291475 3.31313e-07
-2.28707e-06 3.31313e-07 9.67126e-05
0.00219737 -0.00054699 3.50256e-06
-0.00054699 0.000248224 1.59585e-06
3.50256e-06 1.59585e-06 4.49246e-05
0.0021499 -0.000567572 -3.42342e-07
-0.000567572 0.000227369 1.83651e-09
-3.42342e-07 1.83651e-09 2.64312e-06
0.00218857 -0.000566778 -9.32903e-07
-0.000566778 0.000286865 -2.32772e-06
-9.32903e-07 -2.32772e-06 3.73478e-05
0.00190707 -0.000563222 -7.15957e-06
-0.000563222 0.000249904 -1.6862e-06
-7.15957e-06 -1.6862e-06 -6.98113e-05
0.00213021 -0.000623824 -4.45573e-07
-0.000623824 0.000280388 -1.45164e-06
-4.45573e-07 -1.45164e-06 -2.65822e-05
0.00231803 -0.000654964 4.47523e-06
-0.000654964 0.000334735 3.27975e-06
4.47523e-06 3.27975e-06 4.40429e-05
0.00113169 -0.000382209 -2.02236e-05
-0.000382209 6.92264e-05 9.179e-06
-2.02236e-05 9.179e-06 -0.000216505
0.0018968 -0.000654077 -7.90715e-07
-0.000654077 0.00035114 7.21833e-07
-7.90715e-07 7.21833e-07 -4.24024e-05
0.00198122 -0.000739395 1.59592e-06
-0.000739395 0.000284299 2.85338e-06
1.59592e-06 2.85338e-06 -0.000119588
0.000199565 -0.000214728 -1.73301e-05
-0.000214728 -0.000273536 2.33687e-05
-1.73301e-05 2.33687e-05 -0.000427367
0.000800614 -0.000324163 2.39865e-06
-0.000324163 -1.23343e-05 6.99796e-08
2.39865e-06 6.99796e-08 -0.000287844
0.00168588 -0.000643474 1.0914e-05
-0.000643474 0.000397158 -8.02414e-07
1.0914e-05 -8.02414e-07 -2.0004e-05
0.00690114 4.86582e-05 -0.000262432
4.86582e-05 0.00410198 1.86816e-05
-0.000262432 1.86816e-05 0.00410781
0.000348012 -0.000223825 -2.7485e-06
-0.000223825 -0.000149067 -4.75508e-07
-2.7485e-06 -4.75508e-07 -0.000293105
0.000499478 -0.000264644 9.21515e-06
-0.000264644 -8.91429e-05 -7.01387e-06
9.21515e-06 -7.01387e-06 -0.000345178
0.00623623 9.97523e-05 -1.21368e-05
9.97523e-05 0.00371656 -2.59029e-06
-1.21368e-05 -2.59029e-06 0.00370889
0.000449712 -0.00019856 2.28712e-05
-0.00019856 -7.37771e-05 -1.88574e-05
2.28712e-05 -1.88574e-05 -0.000194465
0.00563801 0.000127235 0.000199468
0.000127235 0.0033561 -2.28297e-05
0.000199468 -2.28297e-05 0.00334259
0.00199633 0.000779806 -7.64869e-06
0.000779806 0.000584357 7.54586e-06
-7.64869e-06 7.54586e-06 0.000110251
0.00187831 0.000695323 -1.41573e-06
0.000695323 0.000682966 -1.01151e-06
-1.41573e-06 -1.01151e-06 0.00022212
0.00112324 0.000446876 -3.61748e-06
0.000446876 0.00024816 -1.28225e-07
-3.61748e-06 -1.28225e-07 -9.85607e-05
0.00124882 0.000435499 -5.54082e-06
0.000435499 0.000422743 -3.79177e-06
-5.54082e-06 -3.79177e-06 0.000108061
0.000544075 0.000226539 3.82307e-07
0.000226539 -1.19592e-05 -1.22512e-06
3.82307e-07 -1.22512e-06 -0.000252219
0.000687069 0.000240705 -4.03588e-06
0.000240705 0.000120953 -5.83278e-06
-4.03588e-06 -5.83278e-06 -0.000130812
0.000469028 0.000125927 8.78095e-07
0.000125927 8.68566e-06 7.97796e-07
8.78095e-07 7.97796e-07 -0.000216491
0.000713709 0.000166476 1.408e-06
0.000166476 0.000196566 -9.11373e-07
1.408e-06 -9.11373e-07 -4.59807e-05
0.00070954 0.000119344 -2.14527e-05
0.000119344 0.000123999 -1.95604e-05
-2.14527e-05 -1.95604e-05 2.74308e-05
-3.50307e-05 9.57599e-05 -1.11363e-06
9.57599e-05 -0.000248932 1.12579e-05
-1.11363e-06 1.12579e-05 -0.000461559
0.000501069 7.88548e-05 2.3746e-07
7.88548e-05 2.1089e-05 -2.19675e-07
2.3746e-07 -2.19675e-07 -5.44883e-05
0.00430441 -0.000136168 -0.000124153
-0.000136168 0.00249202 -1.35391e-05
-0.000124153 -1.35391e-05 0.00248355
0.00357122 -0.000136268 -1.30281e-05
-0.000136268 0.00200991 1.18571e-06
-1.30281e-05 1.18571e-06 0.00200349
0.000292034 6.25012e-05 8.50146e-06
6.25012e-05 -0.000101097 1.58764e-05
8.50146e-06 1.58764e-05 -0.000159288
0.00304479 -0.000114443 4.60567e-05
-0.000114443 0.00165933 6.11798e-06
4.60567e-05 6.11798e-06 0.00165812
0.0034006 0.000292954 0.000101439
0.000292954 -0.00179207 3.57382e-05
0.000101439 3.57382e-05 0.000104783
0.00591375 -0.000824841 0.000233858
-0.000824841 -0.00522821 0.000117528
0.000233858 0.000117528 -0.00594037
0.014835 -0.00439721 -0.000288636
-0.00439721 0.00688171 -0.000124178
-0.000288636 -0.000124178 0.00381327
0.00167929 0.000763867 7.05432e-06
0.000763867 0.000131949 1.07275e-05
7.05432e-06 1.07275e-05 -0.000268848
0.00501462 0.00102231 -1.46267e-05
0.00102231 0.00276318 -7.92134e-06
-1.46267e-05 -7.92134e-06 0.00220511
0.000298804 0.000600777 -9.58989e-06
0.000600777 -0.000237092 -1.05536e-05
-9.58989e-06 -1.05536e-05 -0.000723064
0.00164004 0.000896716 1.86193e-06
0.000896716 0.000524744 -2.58835e-06
1.86193e-06 -2.58835e-06 3.09599e-05
0.00191249 0.00085434 -1.38748e-06
0.00085434 0.000518554 4.10723e-06
-1.38748e-06 4.10723e-06 1.43881e-05
0.00186916 0.000934764 2.56421e-05
0.000934764 0.000421191 1.62377e-05
2.56421e-05 1.62377e-05 -2.14334e-05
0.00225923 0.00101042 -4.24614e-05
0.00101042 0.000829433 -5.44006e-06
-4.24614e-05 -5.44006e-06 0.000358412
0.00060664 0.000782793 1.13597e-05
0.000782793 -5.66698e-05 -3.8294e-05
1.13597e-05 -3.8294e-05 -0.000395046
0.0020131 0.00105882 -9.76168e-07
0.00105882 0.000470231 -1.26339e-06
-9.76168e-07 -1.26339e-06 7.77214e-05
0.0022762 0.00108497 1.30768e-05
0.00108497 0.000409096 -1.58241e-05
1.30768e-05 -1.58241e-05 0.000299016
0.00235221 0.00108106 2.13652e-05
0.00108106 0.000396226 -4.28861e-06
2.13652e-05 -4.28861e-06 -5.99577e-06
0.0020125 0.00090036 2.99522e-05
0.00090036 0.000262694 2.57138e-05
2.99522e-05 2.57138e-05 5.53823e-05
0.000700316 0.000980046 -8.68804e-06
0.000980046 -0.000340955 -6.73453e-06
-8.68804e-06 -6.73453e-06 -0.000660073
0.000591316 0.000949107 -2.84528e-05
0.000949107 -0.00041018 -2.20649e-05
-2.84528e-05 -2.20649e-05 -0.000529824
0.00209584 0.0010609 5.55049e-05
0.0010609 -0.00114113 4.02218e-05
5.55049e-05 4.02218e-05 -0.000468619
0.00624844 0.00246313 -0.000104807
0.00246313 -0.00188879 -3.43517e-05
-0.000104807 -3.43517e-05 0.000294493
0.00447033 0.00311002 0.000695679
0.00311002 -0.00589661 0.000182928
0.000695679 0.000182928 -0.00702526
0.0031832 0.00259343 -0.000245044
0.00259343 -0.000308088 -0.000103823
-0.000245044 -0.000103823 0.000782569
0.00522694 0.00223197 -3.19891e-05
0.00223197 0.000808665 -9.69681e-06
-3.19891e-05 -9.69681e-06 0.000711245
0.00622182 0.00221284 -0.000181772
0.00221284 0.00210761 -5.26711e-05
-0.000181772 -5.26711e-05 0.00158079
0.00319123 -0.000237363 -5.15595e-05
-0.000237363 -0.000619214 -2.04287e-05
-5.15595e-05 -2.04287e-05 -0.00010119
-0.000655962 -0.00044003 0.000113089
-0.00044003 -0.00197073 2.70404e-05
0.000113089 2.70404e-05 -0.00043354
0.00527821 0.000583204 0.000290502
0.000583204 -0.00567305 -1.7635e-05
0.000290502 -1.7635e-05 -0.0058644
0.000944548 -0.00107265 -6.50588e-05
-0.00107265 -0.0013203 8.12635e-05
-6.50588e-05 8.12635e-05 -0.000841784
0.0069061 -0.00115113 -0.000198697
-0.00115113 -0.000327727 5.76554e-05
-0.000198697 5.76554e-05 0.000636268
0.00300591 -0.000865977 -2.76867e-05
-0.000865977 -0.000551122 1.1571e-05
-2.76867e-05 1.1571e-05 6.37715e-05
0.00466703 -0.000628983 -1.49366e-05
-0.000628983 0.000312004 -1.82879e-06
-1.49366e-05 -1.82879e-06 0.000782603
0.00386418 -0.000473161 8.12513e-05
-0.000473161 0.000458255 -1.38457e-05
8.12513e-05 -1.38457e-05 0.000819724
0.0033409 -0.000118994 5.2049e-05
-0.000118994 0.000621384 -2.72385e-06
5.2049e-05 -2.72385e-06 0.000707308
0.000476545 -0.000623547 -2.08617e-05
-0.000623547 -0.00122188 1.08612e-05
-2.08617e-05 1.08612e-05 -0.00088336
0.00244344 -0.000623867 -3.12948e-06
-0.000623867 -0.000312424 6.65095e-07
-3.12948e-06 6.65095e-07 -2.09847e-05
0.00258111 -0.000495692 3.39309e-06
-0.000495692 -0.000216306 -8.2306e-07
3.39309e-06 -8.2306e-07 2.94575e-05
0.00246945 -0.00073169 -2.45879e-06
-0.00073169 -7.60683e-05 2.59574e-06
-2.45879e-06 2.59574e-06 -7.62366e-05
0.00257599 -0.000628717 -7.95666e-08
-0.000628717 2.64532e-05 -5.74648e-07
-7.95666e-08 -5.74648e-07 5.42785e-05
0.00243173 -0.000483791 -1.2539e-06
-0.000483791 -5.74823e-05 -3.34977e-07
-1.2539e-06 -3.34977e-07 -1.40632e-05
0.00235595 -0.00064453 -9.30317e-07
-0.00064453 3.88654e-05 5.51985e-07
-9.30317e-07 5.51985e-07 -9.08663e-06
0.00237527 -0.000573814 -7.42126e-07
-0.000573814 3.96946e-05 7.45196e-08
-7.42126e-07 7.45196e-08 -4.53928e-06
0.00226841 -0.000479319 -5.52521e-07
-0.000479319 5.35654e-05 5.87197e-07
-5.52521e-07 5.87197e-07 -7.20087e-06
0.00237374 -0.000635445 -3.07792e-07
-0.000635445 0.000177745 -1.57397e-06
-3.07792e-07 -1.57397e-06 6.08965e-05
0.00223966 -0.000559708 9.76927e-07
-0.000559708 0.000114668 -3.63475e-07
9.76927e-07 -3.63475e-07 -4.87241e-06
0.00216641 -0.000505748 -1.22762e-06
-0.000505748 0.000139654 3.84085e-07
-1.22762e-06 3.84085e-07 -5.94504e-06
0.00213511 -0.000557483 -2.08917e-06
-0.000557483 0.000159141 2.65359e-07
-2.08917e-06 2.65359e-07 -9.02162e-06
0.00222701 -0.000549091 -1.36134e-06
-0.000549091 0.000245969 7.44937e-07
-1.36134e-06 7.44937e-07 5.45743e-05
0.00229496 -0.000540765 -1.34726e-06
-0.000540765 0.000311554 -1.72475e-06
-1.34726e-06 -1.72475e-06 9.98333e-05
0.00216881 -0.000567977 2.80333e-06
-0.000567977 0.000236299 2.40737e-06
2.80333e-06 2.40737e-06 1.18352e-05
0.00218901 -0.000568347 4.66678e-08
-0.000568347 0.000287208 -2.11718e-07
4.66678e-08 -2.11718e-07 3.91261e-05
0.00203179 -0.00050589 -5.29925e-06
-0.00050589 0.00029114 -2.48815e-07
-5.29925e-06 -2.48815e-07 1.77125e-05
0.0012154 -0.000374077 -1.98885e-05
-0.000374077 3.70689e-05 8.1668e-06
-1.98885e-05 8.1668e-06 -0.000233333
0.00190664 -0.000562565 -7.22739e-07
-0.000562565 0.00025484 -8.73833e-07
-7.22739e-07 -8.73833e-07 -6.86257e-05
0.00203912 -0.000622573 1.78193e-06
-0.000622573 0.000220382 1.94368e-06
1.78193e-06 1.94368e-06 -9.33834e-05
0.000288008 -0.000244148 -2.25126e-05
-0.000244148 -0.00022633 1.95995e-05
-2.25126e-05 1.95995e-05 -0.00039108
0.00108289 -0.00037971 2.00282e-06
-0.00037971 3.79331e-05 -8.44525e-08
2.00282e-06 -8.44525e-08 -0.000248604
0.00196928 -0.000653934 8.18628e-06
-0.000653934 0.000407235 5.09813e-07
8.18628e-06 5.09813e-07 1.62908e-05
0.00773506 2.40743e-06 -0.000309053
2.40743e-06 0.00460135 2.47807e-05
-0.000309053 2.47807e-05 0.0046118
0.000291591 -0.000266697 -1.31784e-06
-0.000266697 -0.00020402 2.19377e-06
-1.31784e-06 2.19377e-06 -0.000370233
0.000687172 -0.000328623 1.41357e-05
-0.000328623 -9.49547e-05 -6.9625e-06
1.41357e-05 -6.9625e-06 -0.000375572
0.00717483 3.2891e-05 -5.96794e-06
3.2891e-05 0.00427681 8.48065e-08
-5.96794e-06 8.48065e-08 0.00428095
0.000751956 -0.00028107 2.62955e-05
-0.00028107 0.000103483 -2.3553e-05
2.62955e-05 -2.3553e-05 -4.60512e-05
0.00653695 9.91991e-05 0.000244406
9.91991e-05 0.00391733 -2.97208e-05
0.000244406 -2.97208e-05 0.00390506
0.0017392 0.000706655 -3.37403e-06
0.000706655 0.000240313 8.48367e-06
-3.37403e-06 8.48367e-06 -0.000165282
0.00187652 0.000768392 -1.62272e-06
0.000768392 0.000502437 9.29723e-07
-1.62272e-06 9.29723e-07 2.94083e-05
0.00143217 0.000569345 -9.06535e-06
0.000569345 0.000280032 2.2756e-06
-9.06535e-06 2.2756e-06 -0.000108594
0.00107963 0.0005962 -4.58672e-06
0.0005962 0.000145696 -4.2163e-06
-4.58672e-06 -4.2163e-06 -0.000282914
0.0013794 0.000440597 -4.18373e-06
0.000440597 0.000374764 -2.21139e-06
-4.18373e-06 -2.21139e-06 3.76241e-05
0.000840921 0.00026111 -1.17764e-05
0.00026111 0.000155116 -2.39387e-06
-1.17764e-05 -2.39387e-06 -9.84721e-05
0.000463826 0.000197747 -1.72983e-06
0.000197747 -8.46231e-05 -3.72991e-06
-1.72983e-06 -3.72991e-06 -0.000320041
0.00065452 0.000200058 1.14685e-06
0.000200058 7.43087e-05 -2.75254e-07
1.14685e-06 -2.75254e-07 -0.00015444
0.00042573 0.000170936 -2.93319e-05
0.000170936 -8.83592e-05 -1.88967e-05
-2.93319e-05 -1.88967e-05 -0.00019181
0.000554834 0.000134925 1.3207e-06
0.000134925 8.33376e-05 1.02079e-05
1.3207e-06 1.02079e-05 -0.000147442
0.000485416 0.000111554 -1.0427e-06
0.000111554 -1.11073e-05 -3.04885e-07
-1.0427e-06 -3.04885e-07 -0.000102103
0.005114 -0.000160205 -0.000160313
-0.000160205 0.00302836 -1.78162e-05
-0.000160313 -1.78162e-05 0.00300986
0.000164279 8.36708e-05 1.34778e-05
8.36708e-05 -0.000188007 1.82862e-05
1.34778e-05 1.82862e-05 -0.000259327
0.00402193 -0.000156509 -1.28951e-05
-0.000156509 0.00231595 1.42517e-06
-1.28951e-05 1.42517e-06 0.00230195
0.00336664 -0.00014398 5.61687e-05
-0.00014398 0.00187891 7.09599e-06
5.61687e-05 7.09599e-06 0.0018696
0.00100498 0.000267996 1.68452e-07
0.000267996 -0.00190535 1.14601e-05
1.68452e-07 1.14601e-05 -0.000935433
0.00488462 0.000185269 7.11052e-05
0.000185269 -0.00128303 2.72782e-05
7.11052e-05 2.72782e-05 0.000566043
0.0158901 0.00086252 1.68536e-05
0.00086252 0.00163642 4.87404e-05
1.68536e-05 4.87404e-05 0.00196645
0.00211821 0.000880893 1.00715e-06
0.000880893 0.000355576 6.74644e-06
1.00715e-06 6.74644e-06 -3.89801e-05
0.00223179 0.000815491 9.16959e-07
0.000815491 0.000268653 5.33339e-06
9.16959e-07 5.33339e-06 -7.29253e-05
0.00167245 0.000764811 -6.01838e-07
0.000764811 0.000137653 -4.49872e-06
-6.01838e-07 -4.49872e-06 -0.000258694
0.00317478 0.00109499 -1.60982e-05
0.00109499 0.001434 -2.01729e-06
-1.60982e-05 -2.01729e-06 0.000897995
0.00218275 0.000884221 -6.39426e-06
0.000884221 0.00071071 -1.15959e-05
-6.39426e-06 -1.15959e-05 0.000193023
0.00220461 0.0010053 7.76235e-06
0.0010053 0.000571122 3.75643e-06
7.76235e-06 3.75643e-06 0.0001207
0.00229259 0.000994129 -2.01648e-06
0.000994129 0.000220304 -1.96747e-06
-2.01648e-06 -1.96747e-06 -0.000136969
0.0022071 0.00112301 -1.51402e-05
0.00112301 0.000521269 8.52739e-07
-1.51402e-05 8.52739e-07 0.000123208
0.000644611 0.000914542 -2.52383e-05
0.000914542 -0.000570329 4.79321e-05
-2.52383e-05 4.79321e-05 -0.000541904
0.00285658 0.00114965 -9.33804e-08
0.00114965 0.000680061 1.26144e-06
-9.33804e-08 1.26144e-06 0.000263516
0.00289185 0.000971659 -4.89154e-06
0.000971659 0.000425642 6.4938e-06
-4.89154e-06 6.4938e-06 0.000187509
0.0015539 0.000458671 4.99691e-05
0.000458671 -0.000214918 1.57484e-05
4.99691e-05 1.57484e-05 -9.28096e-05
0.000381642 0.000740102 7.88015e-06
0.000740102 -0.000591706 -6.18736e-06
7.88015e-06 -6.18736e-06 -0.000779843
0.000874367 0.000994103 -3.90321e-05
0.000994103 -0.000244485 -4.03338e-06
-3.90321e-05 -4.03338e-06 -0.000565168
0.00359848 0.00120618 1.86304e-05
0.00120618 -0.000287207 1.09694e-05
1.86304e-05 1.09694e-05 0.000222167
0.00850087 0.00225804 -5.67297e-05
0.00225804 -0.000752637 -4.8357e-05
-5.67297e-05 -4.8357e-05 0.000979429
0.00506563 0.00188249 -6.14601e-05
0.00188249 0.00119926 -7.33281e-05
-6.14601e-05 -7.33281e-05 0.00118172
0.00288196 -8.70329e-05 5.67025e-05
-8.70329e-05 0.000210707 8.3781e-06
5.67025e-05 8.3781e-06 0.000458025
0.0031896 -0.000242424 -8.03154e-05
-0.000242424 -0.000667028 6.27281e-06
-8.03154e-05 6.27281e-06 -8.20317e-07
0.00502569 0.000485645 1.85222e-05
0.000485645 -0.000134337 -2.16749e-05
1.85222e-05 -2.16749e-05 0.00096255
0.000660799 -0.000726385 -7.88238e-05
-0.000726385 -0.00189688 5.85028e-05
-7.88238e-05 5.85028e-05 -0.00119099
0.00289597 -0.000651305 -0.000102716
-0.000651305 -0.000587596 5.73679e-06
-0.000102716 5.73679e-06 -0.000254436
0.00296865 -0.000441559 4.83654e-06
-0.000441559 -6.16082e-05 -2.87138e-06
4.83654e-06 -2.87138e-06 0.000384133
0.00237719 -0.000106447 -1.56193e-05
-0.000106447 -6.07044e-06 7.06794e-08
-1.56193e-05 7.06794e-08 0.000108613
0.00255932 -0.000284015 1.30168e-05
-0.000284015 -0.000151669 -2.81886e-06
1.30168e-05 -2.81886e-06 6.11035e-05
0.0023154 4.45679e-05 8.61596e-06
4.45679e-05 -0.000284437 -3.09536e-07
8.61596e-06 -3.09536e-07 -0.000157657
0.00247922 -0.000658446 -1.95959e-05
-0.000658446 -0.000303087 4.51274e-06
-1.95959e-05 4.51274e-06 -4.00724e-05
0.00261261 -0.000518738 -2.75373e-06
-0.000518738 -0.000203477 7.89085e-07
-2.75373e-06 7.89085e-07 3.16501e-06
0.00249677 -0.000355174 -5.00653e-07
-0.000355174 -0.000132182 -4.75358e-07
-5.00653e-07 -4.75358e-07 3.45423e-06
0.0025589 -0.000609014 -3.52745e-06
-0.000609014 3.90449e-05 4.95595e-07
-3.52745e-06 4.95595e-07 7.73634e-05
0.00244308 -0.000483376 2.21899e-07
-0.000483376 -3.78676e-05 -1.54377e-07
2.21899e-07 -1.54377e-07 -4.05707e-07
0.00232928 -0.00039648 1.24275e-07
-0.00039648 -1.38853e-05 1.02404e-07
1.24275e-07 1.02404e-07 -2.07313e-06
0.00236813 -0.000577742 -1.00746e-06
-0.000577742 4.67397e-05 -3.27421e-07
-1.00746e-06 -3.27421e-07 4.41354e-06
0.00227667 -0.000478354 3.84322e-07
-0.000478354 5.39268e-05 -3.72639e-08
3.84322e-07 -3.72639e-08 -6.58767e-06
0.00220591 -0.000429469 -2.15609e-06
-0.000429469 9.00208e-05 9.43259e-07
-2.15609e-06 9.43259e-07 5.71456e-06
0.00222454 -0.000559843 1.74994e-06
-0.000559843 0.000102608 -1.27521e-06
1.74994e-06 -1.27521e-06 -1.72169e-05
0.00216263 -0.00050542 7.54159e-07
-0.00050542 0.00013203 -4.77812e-07
7.54159e-07 -4.77812e-07 -1.37546e-05
0.00216554 -0.000478359 -1.98316e-06
-0.000478359 0.00018422 -6.38684e-07
-1.98316e-06 -6.38684e-07 9.88754e-06
0.00216246 -0.000543011 -3.85891e-07
-0.000543011 0.000197053 9.25017e-07
-3.85891e-07 9.25017e-07 9.07253e-06
0.00222084 -0.000537089 -2.22759e-07
-0.000537089 0.000263978 -1.56608e-07
-2.22759e-07 -1.56608e-07 5.25978e-05
0.0020086 -0.000470006 -4.31056e-06
-0.000470006 0.000221317 -2.39014e-07
-4.31056e-06 -2.39014e-07 -2.06464e-05
0.00218558 -0.000569593 1.79892e-06
-0.000569593 0.000285221 2.72774e-06
1.79892e-06 2.72774e-06 3.86282e-05
0.00205352 -0.000510194 -7.23579e-07
-0.000510194 0.000304363 -3.18315e-08
-7.23579e-07 -3.18315e-08 3.20154e-05
0.00124532 -0.000324666 -1.65301e-05
-0.000324666 2.0169e-05 7.47276e-06
-1.65301e-05 7.47276e-06 -0.000219825
0.00028707 -0.00022132 -1.93862e-05
-0.00022132 -0.000250102 1.92244e-05
-1.93862e-05 1.92244e-05 -0.000404103
0.00121533 -0.000371595 2.81076e-07
-0.000371595 4.10378e-05 1.25267e-08
2.81076e-07 1.25267e-08 -0.000227954
0.00189174 -0.00056098 5.29847e-06
-0.00056098 0.000249734 -4.36498e-07
5.29847e-06 -4.36498e-07 -7.73873e-05
0.00796353 -9.37752e-05 -0.000359498
-9.37752e-05 0.00472247 3.06142e-05
-0.000359498 3.06142e-05 0.00474268
0.000324556 -0.000248674 -1.11097e-06
-0.000248674 -0.000213772 1.25216e-06
-1.11097e-06 1.25216e-06 -0.000374789
0.00094262 -0.000370301 1.88624e-05
-0.000370301 -4.58947e-05 -7.41298e-06
1.88624e-05 -7.41298e-06 -0.000332377
0.00790229 -3.8859e-05 9.73687e-07
-3.8859e-05 0.00470451 1.19292e-06
9.73687e-07 1.19292e-06 0.00471781
0.000505467 -0.000278785 2.60096e-05
-0.000278785 -7.65386e-05 -2.23139e-05
2.60096e-05 -2.23139e-05 -0.000243577
0.00753833 -1.35109e-05 0.000322302
-1.35109e-05 0.00449662 -3.22262e-05
0.000322302 -3.22262e-05 0.00450583
0.00195483 0.000737858 1.17446e-06
0.000737858 0.000218352 8.64137e-06
1.17446e-06 8.64137e-06 -0.000140586
0.00181544 0.000721165 5.44701e-07
0.000721165 0.000292686 4.60854e-07
5.44701e-07 4.60854e-07 -0.000113595
0.00186376 0.000636416 -7.38268e-06
0.000636416 0.000407705 4.1813e-06
-7.38268e-06 4.1813e-06 2.0344e-05
0.00170164 0.000746954 4.20402e-06
0.000746954 0.000393316 -5.69876e-06
4.20402e-06 -5.69876e-06 -7.55866e-05
0.00147833 0.000571308 -6.48124e-07
0.000571308 0.000311661 5.36667e-07
-6.48124e-07 5.36667e-07 -7.79633e-05
0.000953048 0.000300236 -1.46146e-05
0.000300236 0.000102949 -3.7878e-06
-1.46146e-05 -3.7878e-06 -0.000153293
0.00149366 0.000429918 2.49848e-06
0.000429918 0.000427296 -1.7393e-06
2.49848e-06 -1.7393e-06 9.80162e-05
0.000589426 0.000223375 1.07062e-06
0.000223375 -1.23108e-05 6.55148e-07
1.07062e-06 6.55148e-07 -0.000254474
0.000447279 0.000232248 -3.08416e-05
0.000232248 -8.962e-05 -2.14228e-05
-3.08416e-05 -2.14228e-05 -0.000213138
0.000608774 0.000151893 2.66458e-06
0.000151893 5.57502e-05 6.26813e-06
2.66458e-06 6.26813e-06 -0.000180059
0.000502792 0.000154828 9.01174e-07
0.000154828 -3.5613e-05 -9.16959e-07
9.01174e-07 -9.16959e-07 -0.000137959
0.0060968 -0.000186286 -0.00019636
-0.000186286 0.00367506 -2.48218e-05
-0.00019636 -2.48218e-05 0.00364248
0.000346352 0.000104734 1.83144e-05
0.000104734 -9.06148e-05 1.98808e-05
1.83144e-05 1.98808e-05 -0.000180403
0.00484992 -0.000194187 -1.31476e-05
-0.000194187 0.00286877 1.5816e-06
-1.31476e-05 1.5816e-06 0.00284114
0.00398686 -0.000178823 8.00684e-05
-0.000178823 0.00229702 9.58874e-06
8.00684e-05 9.58874e-06 0.0022774
0.00165267 0.000252765 4.02355e-05
0.000252765 -0.000383467 2.2352e-05
4.02355e-05 2.2352e-05 -6.2937e-05
0.00236241 0.000333085 -2.72592e-05
0.000333085 -0.00152072 -3.30452e-06
-2.72592e-05 -3.30452e-06 -0.000484886
0.00484247 0.000544365 0.000255644
0.000544365 -0.00167657 7.83113e-05
0.000255644 7.83113e-05 0.000558689
0.00258768 0.000871155 -8.6609e-06
0.000871155 0.000420643 4.89505e-07
-8.6609e-06 4.89505e-07 9.47765e-05
0.0020244 0.000895156 -8.00029e-06
0.000895156 0.000279904 -5.53047e-06
-8.00029e-06 -5.53047e-06 -0.00011241
0.00235512 0.000664968 2.21622e-06
0.000664968 0.0002319 5.32117e-06
2.21622e-06 5.32117e-06 -9.4822e-06
0.00232558 0.000813989 1.54607e-06
0.000813989 0.000331476 5.07352e-07
1.54607e-06 5.07352e-07 -7.83177e-06
0.0016437 0.000763601 2.17569e-06
0.000763601 0.0001287 -1.37876e-05
2.17569e-06 -1.37876e-05 -0.000262659
0.00251658 0.000769828 -4.0862e-06
0.000769828 0.000143781 1.04977e-06
-4.0862e-06 1.04977e-06 -5.14643e-05
0.00273624 0.00109954 -9.02889e-06
0.00109954 0.000839847 -6.95338e-06
-9.02889e-06 -6.95338e-06 0.00037355
0.00261905 0.00100009 2.32262e-07
0.00100009 0.000428599 9.29886e-08
2.32262e-07 9.29886e-08 6.65003e-05
0.00217347 0.000482116 -1.76063e-05
0.000482116 -0.000243132 3.79182e-07
-1.76063e-05 3.79182e-07 -0.000180631
0.00342289 0.00124025 -8.03824e-06
0.00124025 0.00097011 1.21123e-05
-8.03824e-06 1.21123e-05 0.000559119
0.00262218 0.000944411 -1.55003e-07
0.000944411 0.00027753 -9.43121e-07
-1.55003e-07 -9.43121e-07 3.90378e-05
0.000651024 0.000447796 -6.64566e-06
0.000447796 -0.000762911 1.58912e-06
-6.64566e-06 1.58912e-06 -0.000598105
-0.0016395 0.000537909 -2.68452e-05
0.000537909 -0.00164308 -1.1096e-05
-2.68452e-05 -1.1096e-05 -0.00178988
0.00380393 0.00129783 -0.000144154
0.00129783 -0.000175557 -5.16255e-05
-0.000144154 -5.16255e-05 0.000209587
0.00248977 0.000152838 9.62214e-09
0.000152838 -0.000152266 -1.91012e-06
9.62214e-09 -1.91012e-06 -5.34457e-06
0.00286348 -6.43901e-05 -2.46973e-06
-6.43901e-05 0.000296852 5.30326e-07
-2.46973e-06 5.30326e-07 0.000464264
0.00276171 -0.0002814 -0.000108035
-0.0002814 -0.000972768 -1.88354e-06
-0.000108035 -1.88354e-06 -0.000167959
0.00168373 -0.000394107 -7.82655e-05
-0.000394107 -0.000814932 1.18301e-05
-7.82655e-05 1.18301e-05 -0.000287411
0.00199825 -0.000113098 -2.01852e-05
-0.000113098 -0.000265741 3.4229e-06
-2.01852e-05 3.4229e-06 -0.000125585
0.00253063 -0.000288244 2.97514e-06
-0.000288244 -0.000183136 -1.15405e-06
2.97514e-06 -1.15405e-06 5.84274e-05
0.00257167 5.39142e-05 -3.42968e-06
5.39142e-05 -0.000134549 2.92034e-07
-3.42968e-06 2.92034e-07 -1.16371e-05
0.00253502 -7.16168e-05 -1.22301e-06
-7.16168e-05 -0.000135166 -6.4434e-07
-1.22301e-06 -6.4434e-07 2.37462e-05
0.00263848 -0.00053815 -3.73402e-06
-0.00053815 -0.000186424 2.27007e-07
-3.73402e-06 2.27007e-07 -1.90759e-05
0.0024479 -0.000341289 3.31629e-07
-0.000341289 -0.000143593 -2.27743e-07
3.31629e-07 -2.27743e-07 -1.70412e-05
0.00237261 -0.000259924 7.97889e-07
-0.000259924 -4.70095e-05 -1.31673e-07
7.97889e-07 -1.31673e-07 3.6117e-05
0.00245936 -0.000483504 -4.24713e-08
-0.000483504 -1.39913e-05 3.09408e-07
-4.24713e-08 3.09408e-07 1.69949e-05
0.00232654 -0.000393731 1.51394e-07
-0.000393731 -1.23455e-05 1.38092e-07
1.51394e-07 1.38092e-07 -2.34907e-06
0.00222072 -0.000332846 -1.92379e-06
-0.000332846 4.08759e-05 7.01511e-07
-1.92379e-06 7.01511e-07 1.38516e-05
0.00228376 -0.000477208 1.25974e-06
-0.000477208 5.34245e-05 -5.53741e-07
1.25974e-06 -5.53741e-07 -6.81356e-06
0.00220154 -0.000430355 5.23239e-07
-0.000430355 8.2883e-05 -8.28298e-08
5.23239e-07 -8.28298e-08 -1.56381e-06
0.00220273 -0.000406205 -3.19313e-06
-0.000406205 0.00015682 6.3693e-07
-3.19313e-06 6.3693e-07 2.70327e-05
0.00215843 -0.000505092 2.10086e-06
-0.000505092 0.000124241 -1.11585e-06
2.10086e-06 -1.11585e-06 -2.17253e-05
0.00215266 -0.000477208 -8.1982e-08
-0.000477208 0.000175079 -3.54116e-07
-8.1982e-08 -3.54116e-07 5.0997e-07
0.00203738 -0.000422362 -2.84946e-06
-0.000422362 0.000184932 -4.11532e-07
-2.84946e-06 -4.11532e-07 -2.14325e-05
0.00215085 -0.000533598 1.08248e-06
-0.000533598 0.00021882 1.15493e-06
1.08248e-06 1.15493e-06 7.79851e-06
0.00202836 -0.000471094 -6.67717e-07
-0.000471094 0.000236445 1.16633e-07
-6.67717e-07 1.16633e-07 -5.37845e-06
0.00123042 -0.000284117 -1.31191e-05
-0.000284117 -1.179e-05 6.1538e-06
-1.31191e-05 6.1538e-06 -0.000229396
0.00207897 -0.000514606 4.31149e-06
-0.000514606 0.000320021 5.02586e-07
4.31149e-06 5.02586e-07 4.87887e-05
0.00126908 -0.00032609 1.08968e-07
-0.00032609 3.08724e-05 1.74361e-07
1.08968e-07 1.74361e-07 -0.000208354
0.0028582 -0.000220586 -5.48664e-05
-0.000220586 0.00136526 1.40952e-05
-5.48664e-05 1.40952e-05 0.00124485
0.00253589 -0.000125525 -0.000288883
-0.000125525 0.00126605 4.23881e-05
-0.000288883 4.23881e-05 0.00124803
0.00163174 -0.000239565 -1.60145e-05
-0.000239565 0.00060137 1.40231e-07
-1.60145e-05 1.40231e-07 0.000458039
0.00123891 -0.000370628 1.86933e-05
-0.000370628 6.1307e-05 -7.68366e-06
1.86933e-05 -7.68366e-06 -0.000206466
0.00787442 -0.000100841 -1.08439e-05
-0.000100841 0.00467661 2.27549e-06
-1.08439e-05 2.27549e-06 0.00469098
0.000155266 -0.000270894 2.43267e-05
-0.000270894 -0.000318347 -2.06758e-05
2.43267e-05 -2.06758e-05 -0.000483038
0.00800898 -5.25382e-05 0.000339266
-5.25382e-05 0.00477842 -3.53669e-05
0.000339266 -3.53669e-05 0.0047866
0.00215018 0.000510614 2.5515e-08
0.000510614 0.000106281 1.38383e-06
2.5515e-08 1.38383e-06 -6.80446e-05
0.00227055 0.000668081 3.86986e-06
0.000668081 0.000323438 7.23282e-06
3.86986e-06 7.23282e-06 3.98357e-05
0.00227002 0.000762646 5.77384e-07
0.000762646 0.000414752 1.14689e-07
5.77384e-07 1.14689e-07 5.56915e-05
0.0020232 0.000642692 -5.5097e-06
0.000642692 0.000388941 4.45411e-06
-5.5097e-06 4.45411e-06 3.08211e-05
0.00192228 0.000741586 6.43954e-06
0.000741586 0.000359382 -6.7895e-06
6.43954e-06 -6.7895e-06 -4.94653e-05
0.00176426 0.000631562 -1.85594e-07
0.000631562 0.00033436 9.69583e-07
-1.85594e-07 9.69583e-07 -5.41992e-05
0.000723429 0.000339609 -2.42429e-05
0.000339609 -0.000138014 -4.74586e-06
-2.42429e-05 -4.74586e-06 -0.0004107
0.00147852 0.000571698 9.58795e-06
0.000571698 0.000307484 -1.06501e-06
9.58795e-06 -1.06501e-06 -8.32405e-05
0.000639448 0.000285996 -3.18555e-07
0.000285996 -8.03599e-05 -4.01832e-07
-3.18555e-07 -4.01832e-07 -0.000332585
0.000407547 0.000290756 -3.01413e-05
0.000290756 -0.000122405 -2.21901e-05
-3.01413e-05 -2.21901e-05 -0.000277223
0.000361705 0.000197499 8.0684e-06
0.000197499 -0.00015996 -1.03767e-07
8.0684e-06 -1.03767e-07 -0.000392756
0.000390958 0.000205501 3.79801e-06
0.000205501 -0.0001252 -1.52246e-06
3.79801e-06 -1.52246e-06 -0.000247051
0.00725592 -8.54345e-05 -0.000277417
-8.54345e-05 0.00436073 -2.9488e-05
-0.000277417 -2.9488e-05 0.00434976
0.000474489 0.000140422 2.57128e-05
0.000140422 -4.852e-05 1.93397e-05
2.57128e-05 1.93397e-05 -0.00014731
0.00573735 -0.000173274 2.23987e-06
-0.000173274 0.00342275 -1.85776e-06
2.23987e-06 -1.85776e-06 0.00340066
0.00449606 -0.000208503 0.000103505
-0.000208503 0.00264676 1.33947e-05
0.000103505 1.33947e-05 0.00261504
0.00245833 0.0002373 -7.25419e-06
0.0002373 -0.000222912 -3.59054e-07
-7.25419e-06 -3.59054e-07 -2.49784e-05
0.0018474 0.000201303 1.41467e-05
0.000201303 -0.000479012 -3.60276e-06
1.41467e-05 -3.60276e-06 -6.28352e-05
0.0046168 0.000455996 -0.000132068
0.000455996 -0.000602543 -5.28654e-06
-0.000132068 -5.28654e-06 0.000484644
0.00239677 0.000617265 -2.48337e-06
0.000617265 0.000164355 1.37951e-06
-2.48337e-06 1.37951e-06 -5.13242e-06
0.00243335 0.000842246 -4.41542e-06
0.000842246 0.000371921 -4.93304e-07
-4.41542e-06 -4.93304e-07 5.27191e-05
0.00197627 0.000911569 -2.93963e-06
0.000911569 0.000232418 -1.09515e-05
-2.93963e-06 -1.09515e-05 -0.000157157
0.00238372 0.000653306 2.45249e-06
0.000653306 0.000266299 1.53713e-06
2.45249e-06 1.53713e-06 2.79602e-05
0.00242975 0.000814175 -8.33066e-07
0.000814175 0.000401042 -6.50159e-06
-8.33066e-07 -6.50159e-06 6.34567e-05
0.0026021 0.000488628 -5.7546e-07
0.000488628 -7.07801e-06 6.4672e-07
-5.7546e-07 6.4672e-07 3.2138e-05
0.00249206 0.000771711 -6.23384e-07
0.000771711 0.000145978 -1.5991e-07
-6.23384e-07 -1.5991e-07 -4.82532e-05
0.00286301 0.000998611 -5.41149e-06
0.000998611 0.000588358 -3.88982e-06
-5.41149e-06 -3.88982e-06 0.000222555
0.0021702 0.000463677 1.03218e-07
0.000463677 -0.000206463 -3.25309e-07
1.03218e-07 -3.25309e-07 -0.000141692
0.0024181 0.000914724 1.64903e-05
0.000914724 0.000156799 9.67662e-07
1.64903e-05 9.67662e-07 -8.17961e-05
-0.000211322 0.000402156 -4.37261e-05
0.000402156 -0.00128974 -1.78383e-05
-4.37261e-05 -1.78383e-05 -0.00107846
0.00247297 0.000102816 3.04055e-07
0.000102816 -9.36003e-05 -8.738e-08
3.04055e-07 -8.738e-08 2.95389e-05
0.00237123 0.00015522 -8.3155e-07
0.00015522 -0.000237766 1.43653e-06
-8.3155e-07 1.43653e-06 -8.84683e-05
0.00293338 -4.90039e-05 -5.69271e-05
-4.90039e-05 0.000425818 -6.33258e-06
-5.69271e-05 -6.33258e-06 0.00052258
0.00241484 -0.000286978 -2.41498e-05
-0.000286978 -0.000279425 5.17334e-06
-2.41498e-05 5.17334e-06 -5.37395e-06
0.00276552 6.79606e-05 -1.46803e-06
6.79606e-05 -3.23577e-05 7.11795e-07
-1.46803e-06 7.11795e-07 8.55305e-05
0.00250467 -8.12965e-05 -5.25515e-07
-8.12965e-05 -0.000169722 -6.87998e-07
-5.25515e-07 -6.87998e-07 -5.68345e-06
0.00222782 -7.53962e-05 2.13734e-07
-7.53962e-05 -7.07725e-05 -8.4577e-08
2.13734e-07 -8.4577e-08 2.49571e-07
0.00238866 -0.000326442 6.71436e-07
-0.000326442 -0.000160901 -3.96683e-07
6.71436e-07 -3.96683e-07 -4.35068e-05
0.00232362 -0.000266525 -4.93947e-08
-0.000266525 -7.31173e-05 -1.06188e-08
-4.93947e-08 -1.06188e-08 2.65106e-06
0.00216335 -0.000222924 -4.42833e-07
-0.000222924 -1.26081e-05 -1.11293e-07
-4.42833e-07 -1.11293e-07 -8.19229e-06
0.0023244 -0.000390996 -1.22635e-07
-0.000390996 -1.06687e-05 3.73879e-07
-1.22635e-07 3.73879e-07 -2.42759e-06
0.00221101 -0.000332983 5.14647e-08
-0.000332983 3.04963e-05 1.96993e-07
5.14647e-08 1.96993e-07 3.4829e-06
0.00225017 -0.000322301 -4.55068e-06
-0.000322301 0.000124678 1.31294e-06
-4.55068e-06 1.31294e-06 4.49513e-05
0.00219888 -0.000431369 2.77548e-06
-0.000431369 7.65801e-05 -1.00159e-06
2.77548e-06 -1.00159e-06 -8.03208e-06
0.00214429 -0.000401456 1.87995e-07
-0.000401456 0.0001187 -3.76569e-07
1.87995e-07 -3.76569e-07 -1.06478e-05
0.00201748 -0.000350189 -1.83931e-06
-0.000350189 0.000127497 -5.41241e-07
-1.83931e-06 -5.41241e-07 -3.93451e-05
0.00213414 -0.000475828 2.46778e-06
-0.000475828 0.000162007 -2.08511e-07
2.46778e-06 -2.08511e-07 -1.27971e-05
0.0020706 -0.000424351 -6.31635e-07
-0.000424351 0.000209549 6.7667e-08
-6.31635e-07 6.7667e-08 3.09707e-06
0.00123181 -0.000247804 -1.00523e-05
-0.000247804 -3.27901e-05 4.72004e-06
-1.00523e-05 4.72004e-06 -0.000232095
0.00204653 -0.000471986 3.35757e-06
-0.000471986 0.000250753 2.0332e-07
3.35757e-06 2.0332e-07 9.11275e-06
0.00127424 -0.000287428 -1.08075e-07
-0.000287428 7.23037e-06 2.06351e-07
-1.08075e-07 2.06351e-07 -0.000209825
0.00285492 -0.000207876 -6.25841e-05
-0.000207876 0.00135835 1.37091e-05
-6.25841e-05 1.37091e-05 0.0012484
0.00128394 -0.000327402 1.56182e-05
-0.000327402 3.55351e-05 -7.00804e-06
1.56182e-05 -7.00804e-06 -0.000203027
0.00299723 -0.000256542 5.34759e-05
-0.000256542 0.00145614 -8.88739e-06
5.34759e-05 -8.88739e-06 0.00134487
0.00248472 -0.000155794 -0.000283658
-0.000155794 0.00124081 4.68881e-05
-0.000283658 4.68881e-05 0.00122026
0.0049348 -0.000153026 -0.000278542
-0.000153026 0.0028141 3.21769e-05
-0.000278542 3.21769e-05 0.00281105
0.00307477 -0.000318273 0.000176908
-0.000318273 0.00152673 -3.05132e-05
0.000176908 -3.05132e-05 0.00141224
0.00778566 -0.000114338 0.00034125
-0.000114338 0.0046299 -3.91302e-05
0.00034125 -3.91302e-05 0.00464061
0.00230745 0.000496898 -1.77077e-06
0.000496898 0.000163206 -3.48622e-07
-1.77077e-06 -3.48622e-07 3.6936e-05
0.0021117 0.000527738 -6.05023e-08
0.000527738 0.000187999 2.35068e-06
-6.05023e-08 2.35068e-06 -2.45503e-05
0.00219106 0.00050419 3.18822e-07
0.00050419 0.00014043 -9.87935e-07
3.18822e-07 -9.87935e-07 -2.55404e-05
0.00202868 0.000569072 -4.12118e-06
0.000569072 0.000280031 4.0524e-06
-4.12118e-06 4.0524e-06 -1.79866e-05
0.00232955 0.000675401 5.72117e-07
0.000675401 0.000346157 2.08477e-07
5.72117e-07 2.08477e-07 6.21279e-05
0.00257586 0.000787459 -1.11602e-06
0.000787459 0.00060563 -7.69622e-06
-1.11602e-06 -7.69622e-06 0.000246275
0.00192477 0.000635803 7.68602e-07
0.000635803 0.000321293 3.45088e-07
7.68602e-07 3.45088e-07 -3.68791e-05
0.00121469 0.000399697 -3.02588e-05
0.000399697 8.13959e-05 -6.66785e-06
-3.02588e-05 -6.66785e-06 -0.000198388
0.00170874 0.00063001 9.54644e-06
0.00063001 0.000291374 -1.97439e-06
9.54644e-06 -1.97439e-06 -9.89217e-05
0.00100158 0.000356886 -3.02071e-06
0.000356886 3.4628e-05 1.99502e-07
-3.02071e-06 1.99502e-07 -0.000238054
0.000186634 0.0002798 -2.79692e-05
0.0002798 -0.000281454 -2.03204e-05
-2.79692e-05 -2.03204e-05 -0.000444481
0.000753329 0.000283291 1.48483e-05
0.000283291 -5.06976e-08 3.39987e-06
1.48483e-05 3.39987e-06 -0.000247609
0.000240063 0.000243783 2.21003e-06
0.000243783 -0.000231742 1.16596e-06
2.21003e-06 1.16596e-06 -0.000379214
0.0079945 7.73023e-06 -0.000321683
7.73023e-06 0.00479346 -3.56074e-05
-0.000321683 -3.56074e-05 0.00479105
0.000185186 0.000166189 2.60669e-05
0.000166189 -0.000255937 2.04356e-05
2.60669e-05 2.04356e-05 -0.000372934
0.00678233 -0.000125654 6.50394e-06
-0.000125654 0.00406134 -2.63438e-06
6.50394e-06 -2.63438e-06 0.00404763
0.00538843 -0.000209878 0.000143067
-0.000209878 0.00321243 1.4099e-05
0.000143067 1.4099e-05 0.00318109
0.00250849 0.000282537 6.30762e-07
0.000282537 -7.85922e-05 7.39134e-07
6.30762e-07 7.39134e-07 3.27509e-05
0.00232913 0.000240247 2.15925e-06
0.000240247 -0.000253535 -6.5565e-07
2.15925e-06 -6.5565e-07 -5.62685e-05
0.00172621 0.000149923 -6.80769e-05
0.000149923 -0.000753052 -1.22584e-05
-6.80769e-05 -1.22584e-05 -0.000235957
0.00234172 0.000434484 1.42684e-06
0.000434484 2.71135e-06 7.73872e-07
1.42684e-06 7.73872e-07 -1.72606e-05
0.00233051 0.000609609 -9.80946e-07
0.000609609 0.000141747 6.81061e-08
-9.80946e-07 6.81061e-08 -2.54824e-05
0.00222115 0.000807102 6.87242e-06
0.000807102 0.000288151 -3.11561e-06
6.87242e-06 -3.11561e-06 -2.32394e-05
0.0024239 0.000642013 -1.08329e-06
0.000642013 0.000307953 -3.37757e-06
-1.08329e-06 -3.37757e-06 7.28161e-05
0.00253561 0.00046987 -1.08986e-06
0.00046987 -3.10405e-05 -2.0944e-07
-1.08986e-06 -2.0944e-07 9.69964e-06
0.00241587 0.000769435 -2.07387e-06
0.000769435 0.000119245 -5.33462e-08
-2.07387e-06 -5.33462e-08 -7.27381e-05
0.0020338 0.00044333 1.6089e-05
0.00044333 -0.000209932 -1.04423e-06
1.6089e-05 -1.04423e-06 -0.000143597
0.00227371 7.75014e-05 2.2813e-06
7.75014e-05 -5.10995e-05 2.21113e-07
2.2813e-06 2.21113e-07 1.06039e-05
0.00242437 9.85255e-05 2.41794e-07
9.85255e-05 -0.000108521 1.17293e-07
2.41794e-07 1.17293e-07 1.12028e-05
0.00227136 0.00016327 -8.0584e-06
0.00016327 -0.000306463 -1.74865e-06
-8.0584e-06 -1.74865e-06 -0.000154717
0.0021267 -1.29794e-05 -1.48771e-06
-1.29794e-05 -3.82475e-05 9.13586e-08
-1.48771e-06 9.13586e-08 -3.66094e-06
0.00250886 -9.73158e-05 1.83477e-06
-9.73158e-05 -0.000177946 4.8761e-07
1.83477e-06 4.8761e-07 -8.91863e-06
0.00223629 -7.91285e-05 -3.85254e-07
-7.91285e-05 -6.76312e-05 4.17166e-07
-3.85254e-07 4.17166e-07 2.6814e-06
0.00209992 -0.000118231 -1.98041e-06
-0.000118231 -3.85559e-05 3.51095e-07
-1.98041e-06 3.51095e-07 -2.38045e-05
0.00227427 -0.000272984 -4.39185e-07
-0.000272984 -9.87777e-05 1.68578e-07
-4.39185e-07 1.68578e-07 -3.09435e-05
0.00216662 -0.000219644 9.35317e-07
-0.000219644 -9.98929e-06 -4.10196e-07
9.35317e-07 -4.10196e-07 -4.70723e-06
0.00225252 -0.000226675 -3.70779e-06
-0.000226675 9.55901e-05 3.22512e-07
-3.70779e-06 3.22512e-07 5.09708e-05
0.00220314 -0.000332839 2.1941e-06
-0.000332839 2.13804e-05 -5.09654e-07
2.1941e-06 -5.09654e-07 -5.57857e-06
0.00221106 -0.00031755 3.90268e-07
-0.00031755 0.000103619 -1.15683e-07
3.90268e-07 -1.15683e-07 2.41566e-05
0.00202783 -0.000268668 -9.61708e-07
-0.000268668 0.000106873 -6.85027e-07
-9.61708e-07 -6.85027e-07 -2.29158e-05
0.00209006 -0.000396626 3.59662e-06
-0.000396626 8.40431e-05 -1.37219e-06
3.59662e-06 -1.37219e-06 -4.4791e-05
0.00208236 -0.000354057 -5.71605e-07
-0.000354057 0.000168891 9.46525e-08
-5.71605e-07 9.46525e-08 1.68715e-06
0.0012554 -0.000206631 -7.58426e-06
-0.000206631 -3.02108e-05 3.20608e-06
-7.58426e-06 3.20608e-06 -0.000211465
0.00210543 -0.000426219 2.33171e-06
-0.000426219 0.0002357 1.71209e-07
2.33171e-06 1.71209e-07 2.92178e-05
0.00128173 -0.000250035 -3.11271e-07
-0.000250035 -1.06634e-05 2.61727e-07
-3.11271e-07 2.61727e-07 -0.000208989
0.00279291 -0.000191859 -6.90035e-05
-0.000191859 0.00132319 1.29961e-05
-6.90035e-05 1.29961e-05 0.00121969
0.00131183 -0.000290598 1.22556e-05
-0.000290598 2.18422e-05 -5.82371e-06
1.22556e-05 -5.82371e-06 -0.000194637
0.00294009 -0.000227059 4.90652e-05
-0.000227059 0.001413 -6.97379e-06
4.90652e-05 -6.97379e-06 0.00131247
0.00248377 -0.000132069 -0.000277015
-0.000132069 0.00123073 4.094e-05
-0.000277015 4.094e-05 0.00121292
0.00311563 -0.000262168 0.000168443
-0.000262168 0.00152639 -3.10146e-05
0.000168443 -3.10146e-05 0.00142745
0.00208063 -9.21394e-05 -0.000112338
-9.21394e-05 0.000983977 1.73761e-05
-0.000112338 1.73761e-05 0.000948552
0.00714916 -5.13158e-05 0.000113853
-5.13158e-05 0.00420821 -6.93015e-06
0.000113853 -6.93015e-06 0.00418896
0.00229226 0.000421344 -1.23285e-06
0.000421344 0.000111633 -1.69385e-07
-1.23285e-06 -1.69385e-07 3.65437e-05
0.00222552 0.000472525 -3.6798e-06
0.000472525 0.000187642 -5.60928e-07
-3.6798e-06 -5.60928e-07 2.41336e-05
0.00229472 0.000496324 -3.20237e-06
0.000496324 0.000150239 -1.29679e-08
-3.20237e-06 -1.29679e-08 2.23915e-05
0.0020164 0.000485819 -2.83013e-06
0.000485819 0.000206254 1.40319e-06
-2.83013e-06 1.40319e-06 -4.16584e-05
0.00207355 0.000533619 -1.30935e-06
0.000533619 0.000142792 -2.4646e-06
-1.30935e-06 -2.4646e-06 -6.48795e-05
0.00221949 0.000496754 -3.41876e-06
0.000496754 0.000166389 -3.55152e-06
-3.41876e-06 -3.55152e-06 9.07819e-06
0.00134023 0.000368707 -2.56979e-05
0.000368707 5.80158e-05 -6.55861e-06
-2.56979e-05 -6.55861e-06 -0.000192978
0.0019882 0.000566295 1.43687e-06
0.000566295 0.000254523 4.45832e-07
1.43687e-06 4.45832e-07 -4.3627e-05
0.00238298 0.000682019 1.3864e-06
0.000682019 0.000364873 -6.46282e-06
1.3864e-06 -6.46282e-06 8.05978e-05
0.00182442 0.000629961 7.19342e-06
0.000629961 0.000250153 -3.74099e-06
7.19342e-06 -3.74099e-06 -0.000108531
0.00117158 0.000395634 -1.16479e-06
0.000395634 4.7898e-05 -1.04982e-07
-1.16479e-06 -1.04982e-07 -0.000231326
0.000297695 0.000262915 -2.55632e-05
0.000262915 -0.000230119 -1.86136e-05
-2.55632e-05 -1.86136e-05 -0.000390874
0.00105763 0.000361127 2.48656e-05
0.000361127 6.84757e-05 7.79432e-06
2.48656e-05 7.79432e-06 -0.000202836
0.000298402 0.000271894 1.43909e-06
0.000271894 -0.000207106 1.54665e-06
1.43909e-06 1.54665e-06 -0.000370431
0.00791459 9.84255e-05 -0.000329848
9.84255e-05 0.00472744 -4.19597e-05
-0.000329848 -4.19597e-05 0.00472602
0.000330559 0.000222477 2.42281e-05
0.000222477 -0.000180701 2.2188e-05
2.42281e-05 2.2188e-05 -0.000324561
0.00768064 -3.67003e-05 6.49203e-06
-3.67003e-05 0.00459077 -8.22032e-08
6.49203e-06 -8.22032e-08 0.0045906
0.00645216 -0.000156354 0.000203117
-0.000156354 0.00385012 1.39102e-05
0.000203117 1.39102e-05 0.0038354
0.0022726 0.000227852 7.53147e-07
0.000227852 -3.82484e-05 1.29445e-07
7.53147e-07 1.29445e-07 3.65238e-06
0.00247437 0.000288464 -5.60279e-07
0.000288464 -0.000112462 7.65569e-07
-5.60279e-07 7.65569e-07 1.67099e-06
0.00227873 0.000240461 2.73269e-06
0.000240461 -0.000266115 4.71521e-08
2.73269e-06 4.71521e-08 -6.78044e-05
0.00234069 0.000429021 4.9083e-08
0.000429021 3.37531e-06 1.88798e-07
4.9083e-08 1.88798e-07 -1.41127e-05
0.00227494 0.00060217 9.92338e-08
0.00060217 0.000128277 -1.16616e-06
9.92338e-08 -1.16616e-06 -3.68374e-05
0.00250713 0.000453705 2.62632e-06
0.000453705 -3.91597e-05 -3.72993e-07
2.62632e-06 -3.72993e-07 2.04138e-06
0.00217074 7.10771e-05 7.43201e-07
7.10771e-05 -2.17667e-05 1.43566e-07
7.43201e-07 1.43566e-07 6.35636e-06
0.00225943 7.49436e-05 3.99863e-07
7.49436e-05 -5.7352e-05 -2.19025e-07
3.99863e-07 -2.19025e-07 5.2566e-06
0.0023529 9.41985e-05 -9.11462e-07
9.41985e-05 -0.000141132 -1.17641e-07
-9.11462e-07 -1.17641e-07 -2.34709e-05
0.00213712 -1.05439e-05 -7.97251e-07
-1.05439e-05 -3.078e-05 1.40799e-08
-7.97251e-07 1.40799e-08 1.66389e-06
0.00209745 -3.58532e-05 -4.47471e-06
-3.58532e-05 1.05708e-05 4.65329e-07
-4.47471e-06 4.65329e-07 1.73232e-05
0.00224306 -8.24897e-05 -6.27637e-07
-8.24897e-05 -6.62953e-05 1.21593e-07
-6.27637e-07 1.21593e-07 3.7105e-06
0.00211845 -0.000118551 -1.46591e-06
-0.000118551 -2.017e-05 2.64204e-07
-1.46591e-06 2.64204e-07 -9.22019e-06
0.00215981 -0.000144217 -6.21273e-06
-0.000144217 3.58866e-05 6.81183e-07
-6.21273e-06 6.81183e-07 6.98224e-06
0.00216843 -0.0002166 2.59966e-06
-0.0002166 -8.18768e-06 -7.99413e-07
2.59966e-06 -7.99413e-07 -2.1013e-06
0.0022338 -0.000227264 2.15799e-06
-0.000227264 8.75424e-05 -4.65435e-07
2.15799e-06 -4.65435e-07 4.27568e-05
0.00204009 -0.000200441 3.29771e-07
-0.000200441 9.55486e-05 -5.81996e-07
3.29771e-07 -5.81996e-07 -8.79217e-06
0.00215632 -0.000313348 4.48244e-06
-0.000313348 7.2069e-05 -1.43833e-06
4.48244e-06 -1.43833e-06 -7.26533e-06
0.00206192 -0.000272578 -4.07038e-07
-0.000272578 0.000117855 -1.1934e-07
-4.07038e-07 -1.1934e-07 -1.24247e-05
0.0012276 -0.000164128 -6.81043e-06
-0.000164128 -4.5543e-05 2.00851e-06
-6.81043e-06 2.00851e-06 -0.000210734
0.00214685 -0.000357999 1.84792e-06
-0.000357999 0.000209667 2.87735e-07
1.84792e-06 2.87735e-07 4.20741e-05
0.0012773 -0.00020571 -3.70227e-07
-0.00020571 -2.38441e-05 2.40395e-07
-3.70227e-07 2.40395e-07 -0.000203726
0.00268524 -0.000183194 -7.05103e-05
-0.000183194 0.00126316 1.09652e-05
-7.05103e-05 1.09652e-05 0.00116502
0.00133207 -0.000252438 9.27836e-06
-0.000252438 1.13351e-05 -4.30304e-06
9.27836e-06 -4.30304e-06 -0.000186006
0.00286795 -0.00019034 4.67622e-05
-0.00019034 0.00136591 -5.35484e-06
4.67622e-05 -5.35484e-06 0.00127372
0.00245485 -0.000108482 -0.000273142
-0.000108482 0.00120664 3.40924e-05
-0.000273142 3.40924e-05 0.00119036
0.00302584 -0.000217579 0.00016412
-0.000217579 0.0014589 -2.63663e-05
0.00016412 -2.63663e-05 0.00137185
0.00206495 -9.08759e-05 -0.000102277
-9.08759e-05 0.000969428 1.37289e-05
-0.000102277 1.37289e-05 0.000936089
0.00173664 -8.79757e-05 7.04406e-05
-8.79757e-05 0.000779372 -1.18284e-05
7.04406e-05 -1.18284e-05 0.000723274
0.00217955 0.000263595 -7.89048e-07
0.000263595 5.90482e-06 -5.06315e-07
-7.89048e-07 -5.06315e-07 -1.35342e-05
0.00220903 0.000384925 -4.39082e-06
0.000384925 0.000127843 -4.69674e-07
-4.39082e-06 -4.69674e-07 1.58096e-05
0.00225964 0.000421337 -3.82307e-07
0.000421337 7.11571e-05 -1.78131e-07
-3.82307e-07 -1.78131e-07 5.71993e-06
0.00213408 0.000443644 -3.20493e-07
0.000443644 0.000207267 1.22379e-06
-3.20493e-07 1.22379e-06 3.03766e-06
0.00221984 0.000470526 -1.74453e-06
0.000470526 0.000191607 -6.22506e-07
-1.74453e-06 -6.22506e-07 2.62696e-05
0.00228568 0.00049692 2.2626e-06
0.00049692 0.000139472 3.30886e-08
2.2626e-06 3.30886e-08 9.59939e-06
0.00134142 0.000313973 -1.8874e-05
0.000313973 1.99003e-05 -5.57729e-06
-1.8874e-05 -5.57729e-06 -0.000201127
0.00197974 0.000489777 1.45467e-06
0.000489777 0.000174063 -5.85512e-07
1.45467e-06 -5.85512e-07 -6.86927e-05
0.00205691 0.000541696 -2.12927e-06
0.000541696 0.00011147 -5.93673e-06
-2.12927e-06 -5.93673e-06 -9.19544e-05
0.000305083 0.00021081 -2.23828e-05
0.00021081 -0.000253207 -1.58816e-05
-2.23828e-05 -1.58816e-05 -0.000397312
0.00128938 0.000363638 -3.40333e-07
0.000363638 3.04266e-05 1.08429e-07
-3.40333e-07 1.08429e-07 -0.00022043
0.00194204 0.000563167 5.8919e-06
0.000563167 0.000224951 -3.39343e-06
5.8919e-06 -3.39343e-06 -7.33168e-05
0.00117604 0.000393394 3.12622e-05
0.000393394 4.99522e-05 7.36537e-06
3.12622e-05 7.36537e-06 -0.000228567
0.000276536 0.000249454 4.89529e-07
0.000249454 -0.000238683 9.75429e-07
4.89529e-07 9.75429e-07 -0.000399261
0.00764886 0.000196873 -0.000333381
0.000196873 0.00454946 -4.63612e-05
-0.000333381 -4.63612e-05 0.00454838
0.000327403 0.000252113 2.44237e-05
0.000252113 -0.000184623 1.88691e-05
2.44237e-05 1.88691e-05 -0.000345792
0.00791985 7.49833e-05 8.12255e-06
7.49833e-05 0.00471858 9.75426e-07
8.12255e-06 9.75426e-07 0.00472589
0.00741411 -7.16663e-05 0.000268453
-7.16663e-05 0.00441829 1.86225e-05
0.000268453 1.86225e-05 0.00441841
0.00218977 0.00013788 -1.1321e-06
0.00013788 7.44005e-06 -2.85673e-07
-1.1321e-06 -2.85673e-07 2.74132e-05
0.00225306 0.000232337 6.62169e-07
0.000232337 -5.47887e-05 4.29787e-07
6.62169e-07 4.29787e-07 -1.55233e-05
0.0024275 0.000294458 3.0736e-08
0.000294458 -0.000148168 -9.0401e-07
3.0736e-08 -9.0401e-07 -3.17645e-05
0.00233743 0.000422601 8.3851e-07
0.000422601 2.24235e-06 -8.52543e-07
8.3851e-07 -8.52543e-07 -1.20917e-05
0.00206493 2.70385e-05 -4.47725e-06
2.70385e-05 1.9158e-05 3.78318e-07
-4.47725e-06 3.78318e-07 7.49742e-06
0.00216848 6.22498e-05 -1.42591e-08
6.22498e-05 -2.36319e-05 -7.94253e-08
-1.42591e-08 -7.94253e-08 6.00465e-06
0.00225107 7.22519e-05 -1.57584e-06
7.22519e-05 -5.88518e-05 4.42456e-08
-1.57584e-06 4.42456e-08 3.88459e-06
0.00214223 -7.47202e-06 -1.47465e-06
-7.47202e-06 -2.63907e-05 -7.14222e-08
-1.47465e-06 -7.14222e-08 3.7804e-06
0.0021043 -3.02187e-05 -7.43812e-07
-3.02187e-05 9.77775e-06 -1.97585e-07
-7.43812e-07 -1.97585e-07 1.85978e-05
0.00197537 -6.22942e-05 -5.45264e-06
-6.22942e-05 -6.22008e-05 6.48561e-07
-5.45264e-06 6.48561e-07 -9.74127e-05
0.00213628 -0.000119037 2.28856e-06
-0.000119037 -2.18138e-06 -1.19358e-07
2.28856e-06 -1.19358e-07 4.90223e-06
0.00212349 -0.000145636 -1.80922e-06
-0.000145636 1.84583e-05 3.5645e-07
-1.80922e-06 3.5645e-07 -1.79251e-05
0.00221177 -0.000141419 -1.89502e-06
-0.000141419 0.000199049 1.2232e-07
-1.89502e-06 1.2232e-07 0.000116494
0.00222656 -0.000227209 7.65839e-06
-0.000227209 8.61775e-05 -1.23757e-06
7.65839e-06 -1.23757e-06 4.13844e-05
0.00204919 -0.00019908 9.83691e-07
-0.00019908 9.24875e-05 -4.88728e-07
9.83691e-07 -4.88728e-07 -1.10153e-05
0.00117304 -0.000123317 -8.1557e-06
-0.000123317 -6.70518e-05 1.337e-06
-8.1557e-06 1.337e-06 -0.000219645
0.00210828 -0.000274812 1.46748e-06
-0.000274812 0.000137415 8.4004e-08
1.46748e-06 8.4004e-08 7.06664e-06
0.00121815 -0.000161575 -1.48096e-07
-0.000161575 -5.1192e-05 2.81371e-08
-1.48096e-07 2.81371e-08 -0.000215177
0.00032116 -9.43155e-05 -1.84119e-05
-9.43155e-05 -0.000255995 6.34775e-06
-1.84119e-05 6.34775e-06 -0.00036253
0.00129308 -0.000204487 6.75872e-06
-0.000204487 -2.15808e-05 -2.80748e-06
6.75872e-06 -2.80748e-06 -0.000200055
0.00157476 -0.000122197 6.87536e-05
-0.000122197 0.000540217 -5.6057e-06
6.87536e-05 -5.6057e-06 0.000446847
0.00693286 -0.000178808 -0.000361115
-0.000178808 0.00408462 2.85667e-05
-0.000361115 2.85667e-05 0.00410782
0.00294841 -0.000171895 0.000159908
-0.000171895 0.00140647 -2.06806e-05
0.000159908 -2.06806e-05 0.00132799
0.0020408 -8.48698e-05 -9.25368e-05
-8.48698e-05 0.000954457 8.91074e-06
-9.25368e-05 8.91074e-06 0.00092096
0.00165632 -0.000107306 8.24685e-05
-0.000107306 0.000733073 -1.36763e-05
8.24685e-05 -1.36763e-05 0.000675877
0.00212217 0.000174908 -2.37271e-06
0.000174908 1.86776e-05 -9.61385e-07
-2.37271e-06 -9.61385e-07 1.23155e-06
0.00219394 0.000296927 -2.90248e-06
0.000296927 8.63267e-05 -3.37596e-07
-2.90248e-06 -3.37596e-07 1.28367e-05
0.00218205 0.000256414 -2.40063e-07
0.000256414 1.93682e-05 -9.88574e-08
-2.40063e-07 -9.88574e-08 -5.75224e-06
0.00207324 0.000351826 -8.61584e-07
0.000351826 0.00012718 1.33124e-06
-8.61584e-07 1.33124e-06 -2.74812e-05
0.00220762 0.000384904 6.77622e-07
0.000384904 0.00012823 9.03947e-08
6.77622e-07 9.03947e-08 1.65073e-05
0.00222477 0.000421229 4.2066e-07
0.000421229 2.93285e-05 -4.69711e-07
4.2066e-07 -4.69711e-07 -2.66213e-05
0.0013864 0.000274382 -1.33937e-05
0.000274382 2.97427e-05 -3.17565e-06
-1.33937e-05 -3.17565e-06 -0.000163156
0.00211576 0.000438721 1.79586e-06
0.000438721 0.00019642 2.58911e-07
1.79586e-06 2.58911e-07 -6.03461e-06
0.00220534 0.000467249 1.38934e-06
0.000467249 0.000190367 -1.43997e-06
1.38934e-06 -1.43997e-06 2.37722e-05
0.000332688 0.000150509 -1.92893e-05
0.000150509 -0.000255879 -1.22566e-05
-1.92893e-05 -1.22566e-05 -0.000381602
0.00128658 0.000310447 5.30174e-07
0.000310447 -1.10639e-05 5.23666e-07
5.30174e-07 5.23666e-07 -0.000228881
0.00192649 0.000491069 5.81695e-06
0.000491069 0.000132121 -3.48211e-06
5.81695e-06 -3.48211e-06 -0.000104744
0.00740892 0.000263487 -0.000339355
0.000263487 0.00439036 -4.58045e-05
-0.000339355 -4.58045e-05 0.00439194
0.000300303 0.000204706 -8.02763e-08
0.000204706 -0.000258678 7.04681e-07
-8.02763e-08 7.04681e-07 -0.000403416
0.00123376 0.000358506 2.6975e-05
0.000358506 -1.42624e-07 7.09363e-06
2.6975e-05 7.09363e-06 -0.000250895
0.000240114 0.000233915 2.24723e-05
0.000233915 -0.000259053 1.81755e-05
2.24723e-05 1.81755e-05 -0.000419389
0.00769618 0.000189462 1.12112e-05
0.000189462 0.00457395 2.23497e-06
1.12112e-05 2.23497e-06 0.00457899
0.00783449 3.82452e-05 0.000325041
3.82452e-05 0.00465147 2.59129e-05
0.000325041 2.59129e-05 0.00466402
0.00205089 8.30603e-05 -6.03827e-06
8.30603e-05 1.70451e-05 -4.85143e-08
-6.03827e-06 -4.85143e-08 -6.94824e-07
0.00217907 0.000133232 1.24117e-08
0.000133232 1.92344e-06 -2.45892e-08
1.24117e-08 -2.45892e-08 1.99153e-05
0.00223255 0.000236702 -2.62843e-07
0.000236702 -7.25948e-05 -1.26145e-07
-2.62843e-07 -1.26145e-07 -3.54828e-05
0.00198441 7.18008e-06 -7.12711e-06
7.18008e-06 -2.97827e-05 3.48647e-07
-7.12711e-06 3.48647e-07 -7.36338e-05
0.00205189 3.25274e-05 7.01284e-07
3.25274e-05 6.54283e-06 -3.40862e-09
7.01284e-07 -3.40862e-09 -1.74191e-06
0.00216865 5.24335e-05 -1.22779e-06
5.24335e-05 -2.4346e-05 1.39695e-08
-1.22779e-06 1.39695e-08 6.95763e-06
0.0021149 -2.48889e-05 2.49277e-06
-2.48889e-05 1.10037e-05 -3.0599e-07
2.49277e-06 -3.0599e-07 2.21501e-05
0.00203103 -6.13212e-05 -8.7517e-07
-6.13212e-05 -2.25944e-05 3.99636e-08
-8.7517e-07 3.99636e-08 -5.64117e-05
0.0019439 -6.95039e-05 -2.01284e-06
-6.95039e-05 3.85447e-05 5.29663e-08
-2.01284e-06 5.29663e-08 -4.93435e-05
0.00210607 -0.000147381 4.17805e-06
-0.000147381 1.52351e-05 -2.65851e-07
4.17805e-06 -2.65851e-07 -2.8618e-05
0.00204725 -0.000141448 7.76039e-07
-0.000141448 9.36366e-05 -4.58158e-08
7.76039e-07 -4.58158e-08 1.38091e-06
0.00137589 -7.94873e-05 -9.65784e-06
-7.94873e-05 7.81715e-05 3.01361e-07
-9.65784e-06 3.01361e-07 -5.22182e-05
0.00203879 -0.000199382 1.93322e-06
-0.000199382 7.70379e-05 -5.44641e-07
1.93322e-06 -5.44641e-07 -2.61047e-05
0.00115689 -0.000118104 -2.28005e-09
-0.000118104 -7.52481e-05 7.18907e-08
-2.28005e-09 7.18907e-08 -0.000226621
0.000308495 -2.56895e-05 -1.70949e-05
-2.56895e-05 -0.000263651 3.13614e-06
-1.70949e-05 3.13614e-06 -0.000362033
0.00121051 -0.000157839 5.85147e-06
-0.000157839 -5.83868e-05 -1.91097e-06
5.85147e-06 -1.91097e-06 -0.000220956
0.000334566 -7.86338e-05 -4.42146e-07
-7.86338e-05 -0.000245319 5.0422e-07
-4.42146e-07 5.0422e-07 -0.000351853
0.00687809 -6.92265e-05 -0.000351222
-6.92265e-05 0.00404294 1.80168e-05
-0.000351222 1.80168e-05 0.004072
0.000414194 -8.34826e-05 1.32129e-05
-8.34826e-05 -0.00020269 -8.69246e-06
1.32129e-05 -8.69246e-06 -0.000315288
0.00438993 -0.000116861 0.000152007
-0.000116861 0.00246363 -8.58393e-06
0.000152007 -8.58393e-06 0.00244795
0.00161501 -9.54493e-05 8.79591e-05
-9.54493e-05 0.000706335 -1.30076e-05
8.79591e-05 -1.30076e-05 0.000650515
0.00211003 0.000140965 -7.43354e-06
0.000140965 6.30283e-05 -7.47603e-07
-7.43354e-06 -7.47603e-07 3.83299e-05
0.00220353 0.000216876 -4.58966e-06
0.000216876 0.000106718 -4.86933e-07
-4.58966e-06 -4.86933e-07 4.30887e-05
0.00211113 0.000168921 -7.20814e-07
0.000168921 1.64629e-05 -2.02675e-07
-7.20814e-07 -2.02675e-07 -1.14457e-06
0.00203152 0.000277265 -6.72148e-07
0.000277265 8.92791e-05 7.15825e-07
-6.72148e-07 7.15825e-07 -4.40514e-05
0.00222088 0.000296211 -1.33896e-07
0.000296211 0.000100028 -1.55735e-07
-1.33896e-07 -1.55735e-07 2.54681e-05
0.00218537 0.00024942 2.26937e-06
0.00024942 3.36589e-05 6.95243e-07
2.26937e-06 6.95243e-07 2.93119e-06
0.00130169 0.000214188 -8.68776e-06
0.000214188 -1.80973e-05 -1.72684e-06
-8.68776e-06 -1.72684e-06 -0.000187843
0.00207156 0.00034895 2.57214e-06
0.00034895 0.000138928 8.63695e-07
2.57214e-06 8.63695e-07 -2.29362e-05
0.00220161 0.000384872 3.24443e-06
0.000384872 0.000125063 -2.52771e-07
3.24443e-06 -2.52771e-07 1.35675e-05
0.000332155 0.000106225 -1.74521e-05
0.000106225 -0.000260939 -9.03348e-06
-1.74521e-05 -9.03348e-06 -0.000375006
0.00133884 0.000267697 3.11535e-07
0.000267697 3.88913e-06 7.87461e-07
3.11535e-07 7.87461e-07 -0.00018707
0.00209889 0.000434416 4.45075e-06
0.000434416 0.00018672 -4.05101e-07
4.45075e-06 -4.05101e-07 -1.42845e-05
0.00717809 0.000304662 -0.000352953
0.000304662 0.00425053 -4.3612e-05
-0.000352953 -4.3612e-05 0.00425271
0.000326575 0.000151363 2.39845e-07
0.000151363 -0.000263896 4.27697e-07
2.39845e-07 4.27697e-07 -0.000390818
0.00123015 0.00030843 1.87309e-05
0.00030843 -4.46573e-05 5.22619e-06
1.87309e-05 5.22619e-06 -0.000259762
0.00743661 0.000283399 1.30654e-05
0.000283399 0.0044178 4.56582e-06
1.30654e-05 4.56582e-06 0.00441652
0.000300173 0.000198703 2.03844e-05
0.000198703 -0.000261439 1.6012e-05
2.03844e-05 1.6012e-05 -0.000406748
0.00766813 0.000161338 0.000348034
0.000161338 0.00454187 3.53441e-05
0.000348034 3.53441e-05 0.0045569
0.0019723 6.42869e-05 -7.2528e-06
6.42869e-05 -3.33396e-05 2.02093e-07
-7.2528e-06 2.02093e-07 -8.09232e-05
0.00206043 8.95619e-05 -1.02271e-06
8.95619e-05 2.80063e-05 -1.93862e-07
-1.02271e-06 -1.93862e-07 9.92462e-06
0.00216889 0.000129025 1.02011e-06
0.000129025 -2.23139e-06 2.35347e-07
1.02011e-06 2.35347e-07 1.34863e-05
0.00190671 -1.00947e-05 -1.41661e-06
-1.00947e-05 2.20415e-05 -6.44141e-08
-1.41661e-06 -6.44141e-08 -6.46649e-05
0.00202532 8.78105e-06 -1.10458e-06
8.78105e-06 -1.98451e-06 1.31048e-08
-1.10458e-06 1.31048e-08 -4.24761e-05
0.00203697 3.89517e-05 4.70004e-06
3.89517e-05 -7.12329e-06 -5.41955e-08
4.70004e-06 -5.41955e-08 -1.21597e-05
0.00209625 -6.06035e-05 3.50296e-06
-6.06035e-05 2.39704e-05 -4.67173e-07
3.50296e-06 -4.67173e-07 -8.38457e-06
0.00197743 -6.95941e-05 5.09309e-07
-6.95941e-05 6.31822e-05 1.88171e-07
5.09309e-07 1.88171e-07 -2.35342e-05
0.0013003 -3.61176e-05 -1.03601e-05
-3.61176e-05 3.99196e-05 -5.54114e-07
-1.03601e-05 -5.54114e-07 -8.27482e-05
0.00186186 -0.000141261 8.62091e-07
-0.000141261 -2.72462e-05 5.69087e-08
8.62091e-07 5.69087e-08 -0.000129191
0.00124341 -7.85522e-05 1.88859e-06
-7.85522e-05 -9.33267e-06 -2.72073e-07
1.88859e-06 -2.72073e-07 -0.000145354
0.000311748 -9.65974e-06 -1.76885e-05
-9.65974e-06 -0.00025891 1.51124e-06
-1.76885e-05 1.51124e-06 -0.000352705
0.00115572 -0.000114884 7.51424e-06
-0.000114884 -7.19367e-05 -1.14942e-06
7.51424e-06 -1.14942e-06 -0.000222236
0.000303499 -3.85096e-05 6.08011e-07
-3.85096e-05 -0.000266262 -2.72969e-07
6.08011e-07 -2.72969e-07 -0.000364091
0.00669316 -0.000165512 -0.000353416
-0.000165512 0.00394436 1.96677e-05
-0.000353416 1.96677e-05 0.00396643
0.000326537 -6.22179e-05 1.67981e-05
-6.22179e-05 -0.000249173 -4.81947e-06
1.67981e-05 -4.81947e-06 -0.000354717
0.00681158 -0.000106161 7.49533e-06
-0.000106161 0.00400495 5.82254e-08
7.49533e-06 5.82254e-08 0.004033
0.00193345 -4.25746e-05 0.00026996
-4.25746e-05 0.000877418 -1.9555e-05
0.00026996 -1.9555e-05 0.000868978
0.0020824 0.000146183 -7.50666e-06
0.000146183 3.89062e-05 -6.17359e-07
-7.50666e-06 -6.17359e-07 -1.94356e-05
0.00205995 0.000141984 -1.58535e-06
0.000141984 1.97044e-05 -1.49942e-07
-1.58535e-06 -1.49942e-07 1.19397e-07
0.00203634 0.00020737 1.2199e-07
0.00020737 9.10529e-05 7.26618e-07
1.2199e-07 7.26618e-07 -2.12363e-05
0.00220778 0.000216275 8.028e-07
0.000216275 0.000105938 -7.72315e-10
8.028e-07 -7.72315e-10 4.29538e-05
0.00209714 0.000162684 3.18907e-06
0.000162684 1.16832e-05 3.92141e-07
3.18907e-06 3.92141e-07 -5.91434e-06
0.00122651 0.000160581 -6.80623e-06
0.000160581 -4.51019e-05 -1.22535e-06
-6.80623e-06 -1.22535e-06 -0.000206437
0.00209025 0.000277942 3.28764e-07
0.000277942 0.000135926 -9.06098e-08
3.28764e-07 -9.06098e-08 2.74144e-06
0.00225395 0.000295425 4.21604e-06
0.000295425 0.000118133 9.68813e-07
4.21604e-06 9.68813e-07 4.25375e-05
0.000341852 7.64147e-05 -1.6785e-05
7.64147e-05 -0.000250233 -6.46331e-06
-1.6785e-05 -6.46331e-06 -0.000357851
0.00127484 0.000212591 1.39086e-06
0.000212591 -3.03297e-05 7.20067e-07
1.39086e-06 7.20067e-07 -0.000204203
0.00209365 0.000347169 2.00591e-06
0.000347169 0.000167706 -2.94921e-08
2.00591e-06 -2.94921e-08 -1.29587e-06
0.00699527 0.000303077 -0.000367523
0.000303077 0.00414614 -3.9832e-05
-0.000367523 -3.9832e-05 0.00414929
0.000352369 0.000111455 4.6266e-07
0.000111455 -0.000251562 2.03385e-07
4.6266e-07 2.03385e-07 -0.000367147
0.00128826 0.000260558 1.09555e-05
0.000260558 -2.45999e-05 4.03727e-06
1.09555e-05 4.03727e-06 -0.000213407
0.00725766 0.000331008 9.6278e-06
0.000331008 0.00431339 5.32474e-06
9.6278e-06 5.32474e-06 0.00430986
0.000338367 0.000151921 1.79807e-05
0.000151921 -0.00026092 1.27962e-05
1.79807e-05 1.27962e-05 -0.000388866
0.00750444 0.000290098 0.00036104
0.000290098 0.00445401 4.56506e-05
0.00036104 4.56506e-05 0.00445772
0.0018992 6.09e-05 1.74601e-07
6.09e-05 1.9629e-05 -1.67773e-08
1.74601e-07 -1.67773e-08 -7.16453e-05
0.00203028 6.57709e-05 -3.10149e-06
6.57709e-05 1.29863e-05 -1.01748e-07
-3.10149e-06 -1.01748e-07 -3.55793e-05
0.00206994 9.56104e-05 6.10191e-06
9.56104e-05 3.89535e-05 1.29071e-07
6.10191e-06 1.29071e-07 2.05307e-05
0.00124281 -1.2481e-05 -1.07896e-05
-1.2481e-05 9.00728e-06 -4.7067e-07
-1.07896e-05 -4.7067e-07 -0.000111416
0.00196207 -6.74326e-06 1.04467e-06
-6.74326e-06 6.26387e-05 7.15515e-08
1.04467e-06 7.15515e-08 -2.33321e-05
0.00207104 9.83581e-06 3.61835e-06
9.83581e-06 2.93467e-05 -1.8008e-07
3.61835e-06 -1.8008e-07 -7.63998e-06
0.00201116 -7.00716e-05 2.64303e-06
-7.00716e-05 8.79558e-05 2.34667e-07
2.64303e-06 2.34667e-07 2.20551e-06
0.00126751 -3.78314e-05 1.46978e-06
-3.78314e-05 1.47821e-05 -1.26206e-07
1.46978e-06 -1.26206e-07 -0.000108268
0.000335684 -3.2594e-05 -1.84792e-05
-3.2594e-05 -0.000241112 4.96772e-07
-1.84792e-05 4.96772e-07 -0.000330143
0.0011075 -7.66877e-05 1.14973e-05
-7.66877e-05 -9.84198e-05 -6.15733e-07
1.14973e-05 -6.15733e-07 -0.000240056
0.000312167 1.65051e-06 3.15948e-07
1.65051e-06 -0.000260611 1.04867e-07
3.15948e-07 1.04867e-07 -0.000352853
0.00658135 -0.000133595 -0.000353697
-0.000133595 0.00387249 1.47866e-05
-0.000353697 1.47866e-05 0.00389833
0.000338277 -4.67717e-05 1.79587e-05
-4.67717e-05 -0.000241751 -2.87419e-06
1.79587e-05 -2.87419e-06 -0.000340606
0.00669031 -5.99459e-05 -2.71985e-06
-5.99459e-05 0.00392856 3.28206e-06
-2.71985e-06 3.28206e-06 0.00395939
0.00679037 -0.000120486 0.000352949
-0.000120486 0.00399326 -1.76956e-05
0.000352949 -1.76956e-05 0.00402138
0.00201404 0.000133046 -3.61666e-07
0.000133046 8.82914e-05 2.37444e-07
-3.61666e-07 2.37444e-07 -1.02799e-05
0.00210516 0.000144903 -2.54769e-06
0.000144903 4.7606e-05 -3.11496e-07
-2.54769e-06 -3.11496e-07 -5.09133e-06
0.00201095 0.0001434 5.40935e-06
0.0001434 -2.31547e-05 5.85766e-07
5.40935e-06 5.85766e-07 -3.76234e-05
0.00119937 0.000112494 -9.3329e-06
0.000112494 -4.63167e-05 -4.07612e-07
-9.3329e-06 -4.07612e-07 -0.000194181
0.00207111 0.00020655 1.88631e-07
0.00020655 0.000118157 -1.38272e-07
1.88631e-07 -1.38272e-07 5.98689e-06
0.00220789 0.000215437 4.64198e-06
0.000215437 0.000102365 2.0722e-07
4.64198e-06 2.0722e-07 4.00203e-05
0.00033355 5.15822e-05 -1.64036e-05
5.15822e-05 -0.000248772 -4.24301e-06
-1.64036e-05 -4.24301e-06 -0.000351105
0.00121104 0.000162846 2.28194e-07
0.000162846 -5.16165e-05 2.09724e-07
2.28194e-07 2.09724e-07 -0.000214364
0.00213045 0.000278017 1.13817e-06
0.000278017 0.000170563 -1.19973e-06
1.13817e-06 -1.19973e-06 3.73871e-05
0.00684019 0.000249513 -0.0003758
0.000249513 0.00404571 -3.22886e-05
-0.0003758 -3.22886e-05 0.00405848
0.000351293 8.38629e-05 8.15145e-07
8.38629e-05 -0.000245836 2.05881e-07
8.15145e-07 2.05881e-07 -0.000355363
0.00122312 0.000209533 6.69056e-06
0.000209533 -6.02785e-05 2.89743e-06
6.69056e-06 2.89743e-06 -0.000238104
0.00708526 0.000321628 5.02994e-06
0.000321628 0.00420808 3.49272e-06
5.02994e-06 3.49272e-06 0.00420899
0.000372503 0.000118425 1.69273e-05
0.000118425 -0.000240877 9.91665e-06
1.69273e-05 9.91665e-06 -0.000358562
0.00735076 0.000369321 0.000374308
0.000369321 0.00438379 5.21427e-05
0.000374308 5.21427e-05 0.0043746
0.00110297 3.2439e-05 -1.14242e-05
3.2439e-05 -8.31147e-05 -5.16761e-07
-1.14242e-05 -5.16761e-07 -0.00021477
0.0019985 5.8505e-05 1.07858e-06
5.8505e-05 8.51075e-05 -8.27485e-09
1.07858e-06 -8.27485e-09 -7.22809e-07
0.00209111 6.77631e-05 3.22111e-06
6.77631e-05 6.06036e-05 -6.35066e-08
3.22111e-06 -6.35066e-08 1.12377e-05
0.000377224 3.21206e-05 -1.89603e-05
3.21206e-05 -0.000221056 -1.16381e-06
-1.89603e-05 -1.16381e-06 -0.000300792
0.00122557 -7.54896e-06 1.14328e-06
-7.54896e-06 -5.49996e-06 -1.6946e-08
1.14328e-06 -1.6946e-08 -0.000125955
0.00201008 -1.85691e-06 3.27898e-06
-1.85691e-06 9.79321e-05 2.97157e-08
3.27898e-06 2.97157e-08 1.26359e-05
0.00121684 -3.89109e-05 1.30829e-05
-3.89109e-05 -2.23368e-05 -1.05568e-07
1.30829e-05 -1.05568e-07 -0.000145776
0.000330583 -6.07696e-06 4.96954e-07
-6.07696e-06 -0.000244388 4.00246e-07
4.96954e-07 4.00246e-07 -0.000333241
0.0064382 4.96909e-06 -0.000354158
4.96909e-06 0.00377354 2.71665e-06
-0.000354158 2.71665e-06 0.00380777
0.000296808 1.305e-05 1.74923e-05
1.305e-05 -0.000272562 -4.21917e-07
1.74923e-05 -4.21917e-07 -0.000363187
0.00654416 -0.000131252 -7.47066e-06
-0.000131252 0.00385095 2.19362e-06
-7.47066e-06 2.19362e-06 0.0038763
0.00663764 -4.23304e-05 0.000340048
-4.23304e-05 0.00389511 -9.80732e-06
0.000340048 -9.80732e-06 0.00392626
0.00114883 6.91553e-05 -1.1061e-05
6.91553e-05 -6.05189e-05 -5.71953e-07
-1.1061e-05 -5.71953e-07 -0.000198229
0.00206149 0.000129931 -3.33621e-07
0.000129931 0.000119034 -3.36731e-07
-3.33621e-07 -3.36731e-07 2.46441e-05
0.00210985 0.000143016 1.44864e-06
0.000143016 4.40935e-05 -3.21584e-07
1.44864e-06 -3.21584e-07 -3.31198e-06
0.0027427 7.04757e-05 -0.000159828
7.04757e-05 0.00129057 -5.73734e-06
-0.000159828 -5.73734e-06 0.00123516
0.00117035 0.000113403 1.96923e-07
0.000113403 -6.41905e-05 2.16473e-07
1.96923e-07 2.16473e-07 -0.000213161
0.00211485 0.000206129 1.16008e-06
0.000206129 0.000150558 -8.58547e-07
1.16008e-06 -8.58547e-07 3.85104e-05
0.00671887 0.00018217 -0.000374946
0.00018217 0.00396176 -2.30959e-05
-0.000374946 -2.30959e-05 0.00398496
0.000360023 7.16849e-05 1.15565e-06
7.16849e-05 -0.00023116 5.26369e-07
1.15565e-06 5.26369e-07 -0.000335878
0.00123005 0.000165876 7.25573e-06
0.000165876 -3.80454e-05 1.56609e-06
7.25573e-06 1.56609e-06 -0.000202061
0.00694742 0.000266623 1.29224e-06
0.000266623 0.00411493 1.65385e-06
1.29224e-06 1.65385e-06 0.00412605
0.000372987 9.39316e-05 1.68414e-05
9.39316e-05 -0.000232447 7.66518e-06
1.68414e-05 7.66518e-06 -0.000344508
0.00717934 0.000358132 0.000380992
0.000358132 0.00428153 5.00108e-05
0.000380992 5.00108e-05 0.00427555
0.000469075 1.35807e-05 -1.47824e-05
1.35807e-05 -0.000151686 -1.96401e-06
-1.47824e-05 -1.96401e-06 -0.000240559
0.00115154 3.19319e-05 -1.25757e-07
3.19319e-05 -5.5513e-05 1.02582e-07
-1.25757e-07 1.02582e-07 -0.000183048
0.00208962 5.4644e-05 3.49778e-06
5.4644e-05 0.000145115 -1.92199e-07
3.49778e-06 -1.92199e-07 6.45993e-05
0.00623417 -0.000104878 -0.000334512
-0.000104878 0.00366398 5.14664e-06
-0.000334512 5.14664e-06 0.00368674
0.000331212 1.05184e-05 -5.64927e-07
1.05184e-05 -0.000246044 -2.06122e-07
-5.64927e-07 -2.06122e-07 -0.000328409
0.00122448 -3.92579e-06 1.30658e-05
-3.92579e-06 -9.79886e-06 1.71779e-07
1.30658e-05 1.71779e-07 -0.000130227
0.000296008 2.05103e-05 1.76647e-05
2.05103e-05 -0.000268174 8.51373e-07
1.76647e-05 8.51373e-07 -0.000355607
0.00636814 -3.01134e-05 1.87826e-06
-3.01134e-05 0.00373642 -1.81317e-06
1.87826e-06 -1.81317e-06 0.00376533
0.00651113 -5.48373e-05 0.000342747
-5.48373e-05 0.00381722 -7.12119e-06
0.000342747 -7.12119e-06 0.003849
0.00280319 2.11721e-05 -0.000152632
2.11721e-05 0.00133119 -3.01284e-06
-0.000152632 -3.01284e-06 0.00128065
0.00115221 7.25677e-05 7.22562e-08
7.25677e-05 -6.25154e-05 -7.84682e-08
7.22562e-08 -7.84682e-08 -0.000200841
0.00213637 0.000127481 1.9653e-06
0.000127481 0.000168458 -6.32244e-07
1.9653e-06 -6.32244e-07 7.85685e-05
0.00616769 -2.37563e-05 -0.000154598
-2.37563e-05 0.00362473 -1.06866e-08
-0.000154598 -1.06866e-08 0.00361457
0.000336963 6.17266e-05 4.99459e-07
6.17266e-05 -0.000240614 3.2827e-07
4.99459e-07 3.2827e-07 -0.00033793
0.00116398 0.000114815 9.32905e-06
0.000114815 -6.68328e-05 7.55168e-07
9.32905e-06 7.55168e-07 -0.000216811
0.00676507 0.00015837 -1.02332e-05
0.00015837 0.00398506 -1.88113e-06
-1.02332e-05 -1.88113e-06 0.00400935
0.000349336 9.43387e-05 1.80792e-05
9.43387e-05 -0.000237475 6.08175e-06
1.80792e-05 6.08175e-06 -0.000343711
0.00702897 0.000290003 0.00038481
0.000290003 0.00417201 4.14558e-05
0.00038481 4.14558e-05 0.00418107
0.00189877 -5.33287e-05 -0.000260505
-5.33287e-05 0.000862322 1.72053e-06
-0.000260505 1.72053e-06 0.000865138
0.00155372 3.38501e-05 -6.63071e-05
3.38501e-05 0.000533111 -7.93032e-08
-6.63071e-05 -7.93032e-08 0.000468921
0.00120556 3.41505e-05 1.21559e-05
3.41505e-05 -2.40945e-05 4.36721e-07
1.21559e-05 4.36721e-07 -0.000147514
0.00629933 -5.15009e-05 6.57941e-06
-5.15009e-05 0.00369874 3.08399e-06
6.57941e-06 3.08399e-06 0.00372729
0.000345398 -1.01838e-05 1.82611e-05
-1.01838e-05 -0.000230387 1.00593e-06
1.82611e-05 1.00593e-06 -0.000316701
0.00638814 -9.13223e-05 0.000352447
-9.13223e-05 0.00375454 -6.33997e-06
0.000352447 -6.33997e-06 0.00378262
0.00144583 2.52257e-05 -7.1514e-05
2.52257e-05 0.000603204 -1.18912e-06
-7.1514e-05 -1.18912e-06 0.000561152
0.0015367 2.25847e-05 -6.76222e-05
2.25847e-05 0.000524124 -1.78396e-06
-6.76222e-05 -1.78396e-06 0.000454348
0.00110127 7.3692e-05 1.1083e-05
7.3692e-05 -9.79137e-05 3.70601e-07
1.1083e-05 3.70601e-07 -0.000237066
0.00407985 7.60469e-05 0.000132141
7.60469e-05 0.00227157 4.5104e-06
0.000132141 4.5104e-06 0.00226545
0.000337298 7.14128e-05 1.87904e-05
7.14128e-05 -0.000239585 4.18335e-06
1.87904e-05 4.18335e-06 -0.000337122
0.00686872 0.000145905 0.000367678
0.000145905 0.00404198 2.50567e-05
0.000367678 2.50567e-05 0.00407013
0.00623633 -1.85865e-05 -8.50018e-06
-1.85865e-05 0.00366294 -3.59454e-06
-8.50018e-06 -3.59454e-06 0.00368987
0.000336511 5.25087e-05 1.9947e-05
5.25087e-05 -0.000246633 2.50982e-06
1.9947e-05 2.50982e-06 -0.000325917
0.00620136 3.2114e-05 0.000339146
3.2114e-05 0.00363193 1.67886e-07
0.000339146 1.67886e-07 0.00366422
0.00389782 3.63037e-05 0.0001431
3.63037e-05 0.00216193 6.06733e-06
0.0001431 6.06733e-06 0.00215882
0.00036536 1.22066e-05 1.82375e-05
1.22066e-05 -0.000220524 2.21608e-06
1.82375e-05 2.21608e-06 -0.000309895
0.00660981 1.33417e-05 0.00035331
1.33417e-05 0.00387889 1.14438e-05
0.00035331 1.14438e-05 0.00390986
0.00629788 -0.000112898 0.000338761
-0.000112898 0.00370518 -4.51915e-06
0.000338761 -4.51915e-06 0.00372819
0.00635679 1.84107e-05 0.000343929
1.84107e-05 0.00372042 6.79506e-06
0.000343929 6.79506e-06 0.00375451
