# vtk DataFile Version 2.0
Wound Healing Simulation
ASCII
DATASET UNSTRUCTURED_GRID
POINTS 3012 float
69.9759 18.75 4
67.2507 60.3285 4
69.976 18.75 2
73.0099 25.446 4
71.1327 20.9142 4
68.6801 16.6661 4
67.8276 19.9248 3.98752
67.2507 60.3286 2
71.1327 54.0858 4
68.6801 58.3339 4
65.6939 62.2254 4
65.3141 59.004 3.98865
74.6784 42.3946 4
73.7221 47.2057 4
69.9759 18.75 0
73.0099 25.446 2
68.6801 16.6661 2
71.1327 20.9142 2
67.8282 19.9261 2
74.6792 32.6053 4
73.7222 27.7943 4
72.1454 23.1494 4
70.6157 26.2225 3.98607
68.8878 21.9582 3.98715
67.2507 14.6715 4
66.6391 17.9694 3.98811
65.8031 21.0216 3.98229
67.2507 60.3285 0
71.1327 54.0858 2
68.6801 58.3339 2
65.694 62.2255 2
65.3145 59.0035 2
72.1454 51.8506 4
69.9759 56.25 4
68.8386 53.1129 3.98686
64.0165 64.0165 4
66.6128 57.1359 3.98833
63.8874 60.7688 3.98999
63.5054 57.7786 3.98401
60.3285 67.2507 4
74.6792 42.3947 2
73.7222 47.2057 2
74.9194 39.9526 4
74.2788 44.8158 4
72.1691 42.0854 3.98445
73.0099 49.554 4
71.2508 46.5972 3.98592
73.0099 25.446 0
71.1327 20.9142 0
68.6801 16.6661 0
67.8276 19.9248 0.0124779
74.6792 32.6053 2
73.7222 27.7943 2
67.2508 14.6715 2
72.1455 23.1494 2
70.6158 26.2233 2
66.6397 17.97 2
68.8882 21.9597 2
65.8033 21.021 2
74.9197 35.0474 4
74.2794 30.1841 4
72.1858 32.9434 3.98503
71.2795 28.4324 3.98592
69.8175 24.0609 3.98667
68.3507 26.952 3.97811
66.7681 22.9316 3.98091
65.694 12.7746 4
65.3255 16.1002 3.98915
64.7196 19.1888 3.98355
63.8962 22.0288 3.97923
71.1327 54.0858 0
65.6939 62.2254 0
68.6801 58.3339 0
65.3141 59.004 0.0113517
72.1455 51.8506 2
69.9759 56.25 2
68.8389 53.1114 2
64.0165 64.0165 2
66.6133 57.135 2
63.8877 60.7686 2
63.5055 57.7794 2
62.2254 65.694 4
58.8947 65.416 3.99266
69.771 50.9878 3.98642
67.786 55.1684 3.98776
66.6553 52.211 3.98057
62.3374 62.4299 3.99135
64.6669 56.0372 3.98398
62.2065 59.4121 3.98447
61.831 56.6918 3.98153
58.3339 68.6801 4
60.3285 67.2508 2
73.7221 47.2057 0
74.6784 42.3946 0
74.9197 39.9526 2
74.2794 44.8159 2
72.169 42.0857 2
73.0099 49.554 2
71.2508 46.5971 2
75 37.5 4
72.4059 39.8021 3.98354
71.7837 44.3525 3.98538
69.8068 41.7895 3.97683
70.5769 48.8123 3.98622
68.9163 46.0147 3.97785
74.6792 32.6053 0
73.7222 27.7943 0
67.2507 14.6715 0
72.1454 23.1494 0
70.6157 26.2225 0.0139327
68.8878 21.9582 0.0128474
66.6391 17.9694 0.011885
65.8031 21.0216 0.0177068
74.9197 35.0474 2
74.2794 30.1841 2
72.1857 32.9433 2
71.2796 28.4327 2
65.694 12.7745 2
65.326 16.1003 2
69.8177 24.0621 2
68.3507 26.952 2
64.72 19.1879 2
66.7681 22.9313 2
63.8964 22.028 2
72.4138 35.2242 3.98388
71.8051 30.6767 3.98579
69.843 33.2687 3.97738
68.9699 29.0387 3.97798
67.616 24.9118 3.97937
66.2 27.6337 3.97503
64.0165 10.9835 4
64.7648 23.826 3.97774
63.8915 14.324 3.99027
63.5182 17.4389 3.98484
62.9161 20.3111 3.98036
62.1042 22.9341 3.97758
60.6848 11.0953 3.99185
57.6132 11.4401 3.98693
72.1454 51.8506 0
69.9759 56.25 0
68.8386 53.1129 0.0131422
64.0165 64.0165 0
63.8874 60.7688 0.0100112
66.6128 57.1359 0.0116693
63.5054 57.7786 0.0159928
62.2255 65.694 2
58.895 65.416 2
69.7711 50.9866 2
67.7865 55.1671 2
66.6552 52.2114 2
62.3377 62.4297 2
64.667 56.038 2
62.2065 59.4127 2
61.831 56.6926 2
60.6695 63.979 3.99207
57.0253 66.7367 3.99318
57.5588 63.6971 3.98743
67.5126 50.1774 3.97914
65.7084 54.177 3.98263
64.5462 51.3898 3.97698
60.7755 60.9451 3.98539
62.8297 55.0771 3.98166
60.6643 58.1706 3.9816
60.3379 55.7989 3.98048
56.25 69.9759 4
58.3339 68.6801 2
60.3285 67.2507 0
58.9218 9.6536 3.99242
62.2254 9.30607 4
73.0099 49.554 0
74.2788 44.8158 0
71.2508 46.5972 0.0140789
72.1691 42.0854 0.0155452
74.9194 39.9526 0
75 37.5 2
72.4059 39.8024 2
71.7837 44.3527 2
69.8068 41.7896 2
70.5769 48.8117 2
68.9163 46.0146 2
72.4892 37.512 3.98336
70.0428 39.6573 3.97537
69.4339 43.9073 3.97764
67.6015 41.4984 3.97362
68.2704 48.1072 3.97833
66.7158 45.4414 3.97494
74.9197 35.0474 0
74.2794 30.1841 0
72.1858 32.9434 0.0149747
71.2795 28.4324 0.014077
65.694 12.7746 0
65.3255 16.1002 0.0108537
69.8175 24.0609 0.0133316
68.3507 26.952 0.0218944
66.7681 22.9316 0.0190855
64.7196 19.1888 0.0164544
63.8962 22.0288 0.0207676
72.4139 35.2241 2
71.8052 30.6767 2
69.8431 33.2689 2
68.97 29.0388 2
64.0165 10.9835 2
63.8917 14.324 2
63.5185 17.438 2
67.6159 24.9117 2
66.2 27.6335 2
62.9165 20.3101 2
64.7649 23.8254 2
62.1046 22.9335 2
60.685 11.0953 2
57.6132 11.4394 2
70.0598 35.3923 3.97606
69.4708 31.1498 3.97805
67.6601 33.5906 3.97415
66.7777 29.622 3.97486
65.5308 25.6972 3.97615
64.1528 28.2529 3.97406
62.3426 12.6523 3.99116
62.8668 24.631 3.97623
62.2023 15.7764 3.98525
61.8215 18.6733 3.98186
61.229 21.3299 3.9783
60.4385 23.7162 3.97704
59.2475 12.7714 3.98556
55.875 10.2267 3.98838
56.4065 13.1026 3.98375
69.771 50.9878 0.0135827
62.2254 65.694 0
58.8947 65.416 0.00734459
67.786 55.1684 0.0122447
66.6553 52.211 0.0194312
62.3374 62.4299 0.00864835
62.2065 59.4121 0.0155332
64.6669 56.0372 0.0160155
61.831 56.6918 0.0184706
60.6698 63.979 2
57.0255 66.7368 2
57.5587 63.6977 2
67.5124 50.1775 2
65.7085 54.1777 2
64.5462 51.3905 2
60.7755 60.946 2
62.8298 55.0781 2
60.6643 58.1713 2
60.338 55.7996 2
55.0707 67.9336 3.99346
59.2208 62.3725 3.98605
55.8051 64.9145 3.98886
56.3285 62.0982 3.98431
65.3392 49.4111 3.97576
63.7159 53.2994 3.97956
62.4521 50.6589 3.97517
59.3372 59.5675 3.9832
61.0889 54.321 3.98069
59.2966 57.026 3.97959
59.2532 55.1974 3.98117
48.1031 68.5817 3.99024
50.9484 69.9331 3.99387
54.0858 71.1327 4
56.25 69.976 2
58.3339 68.6801 0
57.0589 8.33346 3.99291
60.3285 7.74928 4
58.9221 9.65354 2
62.2255 9.30602 2
70.5769 48.8123 0.0137805
71.7837 44.3525 0.0146186
68.9163 46.0147 0.0221452
69.8068 41.7895 0.0231693
72.4059 39.8021 0.0164625
75 37.5 0
72.4892 37.5122 2
70.0428 39.6574 2
69.434 43.9074 2
67.6016 41.4986 2
68.2703 48.1072 2
66.7157 45.4416 2
70.1307 37.5217 3.97531
67.8368 39.5128 3.97213
67.229 43.4711 3.97456
65.5612 41.2119 3.97268
66.0753 47.42 3.97536
64.6596 44.8517 3.97403
72.4138 35.2242 0.0161247
71.8051 30.6767 0.0142058
69.843 33.2687 0.0226223
68.9699 29.0387 0.0220159
64.0165 10.9835 0
63.8915 14.324 0.00973079
63.5182 17.4389 0.0151636
67.616 24.9118 0.0206343
66.2 27.6337 0.0249697
64.7648 23.826 0.0222551
62.9161 20.3111 0.0196385
62.1042 22.9341 0.0224166
60.6848 11.0953 0.00815458
57.6132 11.4401 0.0130718
70.06 35.3924 2
69.4709 31.15 2
67.6602 33.5905 2
66.7778 29.6218 2
62.3429 12.6524 2
62.2024 15.7758 2
61.8219 18.6724 2
65.5308 25.6968 2
64.1529 28.2527 2
61.2295 21.3291 2
62.867 24.6305 2
60.4389 23.7157 2
59.2475 12.7707 2
56.4065 13.1017 2
55.875 10.226 2
67.8735 35.5477 3.973
67.271 31.6216 3.97501
65.7036 33.9262 3.97296
64.6697 30.1897 3.97372
63.546 26.4102 3.97468
62.2647 28.7735 3.97467
60.7772 14.2158 3.98514
61.056 25.3295 3.97552
60.618 17.1163 3.98313
60.2322 19.8028 3.97995
59.6738 22.2448 3.97689
58.9919 24.3072 3.97746
54.038 9.13034 3.98898
57.9122 14.3213 3.98347
54.7876 12.0017 3.98498
55.3141 14.6331 3.98242
67.5126 50.1774 0.0208608
57.0253 66.7367 0.00681513
60.6695 63.979 0.00793163
57.5588 63.6971 0.0125746
65.7084 54.177 0.0173739
64.5462 51.3898 0.0230153
60.7755 60.9451 0.0146116
60.6643 58.1706 0.0184028
62.8297 55.0771 0.0183389
60.3379 55.7989 0.0195215
55.0709 67.9337 2
59.2207 62.3734 2
55.805 64.915 2
56.3284 62.0988 2
65.3391 49.4116 2
63.716 53.3003 2
62.4522 50.6596 2
59.3372 59.5684 2
61.089 54.3218 2
59.2967 57.0267 2
59.2534 55.1981 2
53.0425 69.0014 3.99369
53.9672 66.0164 3.98948
57.8831 60.8793 3.98373
54.6847 63.2143 3.98553
55.2135 60.6262 3.9827
63.2032 48.6662 3.97426
61.7537 52.5848 3.97804
60.2851 50.0287 3.97417
58.0232 58.2736 3.98107
59.34 53.961 3.97982
58.1356 55.8274 3.97763
50.1097 67.8597 3.99006
47.4637 66.5861 3.98797
46.0569 69.1612 3.99046
48.1032 68.5821 2
48.8026 70.7243 3.99403
50.9487 69.9331 2
51.8506 72.1454 4
54.0858 71.1327 2
56.25 69.9759 0
55.1031 7.13807 3.99312
58.3339 6.31992 4
57.0591 8.33333 2
60.3286 7.74926 2
58.9218 9.6536 0.00758347
62.2254 9.30607 0
68.2704 48.1072 0.0216669
69.4339 43.9073 0.0223591
66.7158 45.4414 0.0250621
67.6015 41.4984 0.0263771
70.0428 39.6573 0.0246335
72.4892 37.512 0.0166416
70.1308 37.5218 2
67.8369 39.5129 2
67.2291 43.4713 2
65.5613 41.2121 2
66.0753 47.4203 2
64.6597 44.852 2
67.933 37.5223 3.972
65.7905 39.3715 3.97115
65.1827 43.0281 3.97359
63.7619 40.9327 3.97238
63.9737 46.7207 3.97426
62.8158 44.2216 3.97456
70.0598 35.3923 0.0239352
69.4708 31.1498 0.0219497
67.6601 33.5906 0.025854
66.7777 29.622 0.0251444
62.3426 12.6523 0.00884389
62.2023 15.7764 0.0147521
61.8215 18.6733 0.0181432
65.5308 25.6972 0.0238483
64.1528 28.2529 0.0259431
62.8668 24.631 0.0237692
61.229 21.3299 0.0216991
60.4385 23.7162 0.0229601
59.2475 12.7714 0.0144352
56.4065 13.1026 0.016248
55.875 10.2267 0.0116182
67.8738 35.5476 2
67.271 31.6215 2
65.7038 33.9259 2
64.6698 30.1895 2
60.7772 14.2152 2
60.6181 17.1154 2
60.2327 19.8019 2
63.5461 26.4098 2
62.2649 28.7733 2
59.6744 22.2441 2
61.0563 25.3291 2
58.9924 24.3068 2
57.9121 14.3206 2
55.314 14.6322 2
54.038 9.12971 2
54.7876 12.0008 2
65.8803 35.6666 3.97187
65.1934 32.1519 3.97377
64.2909 34.2488 3.97289
62.6029 30.632 3.97343
61.6599 27.0667 3.97381
60.8586 29.1341 3.97561
59.3136 15.6581 3.98352
59.3428 25.7858 3.97776
59.1301 18.3419 3.98201
58.7508 20.8388 3.97794
58.298 23.0773 3.97562
57.9819 24.651 3.97788
52.1126 8.14906 3.98932
53.0584 11.0083 3.98601
56.6788 15.7296 3.98265
53.8106 13.6679 3.9833
54.3783 15.984 3.98218
55.0707 67.9336 0.00654234
65.3392 49.4111 0.0242385
55.8051 64.9145 0.0111383
59.2208 62.3725 0.0139507
56.3285 62.0982 0.0156932
63.7159 53.2994 0.0204426
62.4521 50.6589 0.0248334
59.3372 59.5675 0.0167999
59.2966 57.026 0.0204071
61.0889 54.321 0.0193107
59.2532 55.1974 0.0188349
53.0428 69.0014 2
53.9671 66.0169 2
57.8831 60.88 2
54.6845 63.215 2
55.2134 60.627 2
63.2032 48.6667 2
61.7539 52.5856 2
60.2852 50.0294 2
58.0233 58.2745 2
59.3402 53.9618 2
58.1357 55.828 2
52.0708 67.0028 3.98984
52.9537 64.2243 3.98662
56.6516 59.5 3.98245
53.6823 61.6313 3.98377
54.2629 59.3326 3.98139
61.0038 47.888 3.97332
59.7235 52.1173 3.9777
58.0378 49.63 3.97597
56.783 57.002 3.97795
57.1326 54.1374 3.97761
50.1097 67.86 2
49.3374 65.9263 3.98777
47.4636 66.5866 2
46.8926 64.7434 3.9864
45.5589 67.1037 3.98786
43.9739 69.5937 3.9905
46.0569 69.1616 2
46.6093 71.3688 3.99421
48.1031 68.5817 0.00975668
48.8028 70.7244 2
49.554 73.0099 4
50.9484 69.9331 0.00612865
51.8506 72.1455 2
54.0858 71.1327 0
53.0641 6.06967 3.99332
55.1033 7.13794 2
56.25 5.02411 4
58.3339 6.3199 2
57.0589 8.33346 0.00708807
60.3285 7.74928 0
66.0753 47.42 0.0246405
67.229 43.4711 0.0254443
64.6596 44.8517 0.0259674
65.5612 41.2119 0.0273208
67.8368 39.5128 0.027869
70.1307 37.5217 0.0246922
67.9331 37.5224 2
65.7907 39.3716 2
65.1828 43.0285 2
63.7621 40.9329 2
63.9737 46.7211 2
62.8159 44.2219 2
65.8933 37.5024 3.9706
63.9037 39.2685 3.97101
63.3369 42.5545 3.97332
62.4389 40.7008 3.97253
61.9771 45.9254 3.97452
61.4618 43.6897 3.97471
67.8735 35.5477 0.0269999
67.271 31.6216 0.0249886
65.7036 33.9262 0.0270401
64.6697 30.1897 0.0262775
60.7772 14.2158 0.0148607
60.618 17.1163 0.0168691
60.2322 19.8028 0.0200532
63.546 26.4102 0.0253197
62.2647 28.7735 0.0253292
61.056 25.3295 0.024476
59.6738 22.2448 0.023108
58.9919 24.3072 0.0225351
57.9122 14.3213 0.0165339
55.3141 14.6331 0.0175833
54.038 9.13034 0.0110207
54.7876 12.0017 0.0150211
65.8807 35.6665 2
65.1934 32.1518 2
64.2912 34.2485 2
62.6031 30.6317 2
59.3135 15.6572 2
59.1304 18.3409 2
58.7514 20.838 2
61.6601 27.0664 2
60.8588 29.1338 2
58.2987 23.0767 2
59.3432 25.7855 2
57.9824 24.6506 2
56.6787 15.7288 2
54.3781 15.9831 2
53.8106 13.6669 2
52.1125 8.14848 2
53.0584 11.0076 2
64.0957 35.6323 3.97177
62.9397 33.0437 3.97289
60.6243 30.6064 3.97281
59.5811 27.9019 3.97413
57.9431 16.9704 3.98272
57.7531 25.7134 3.97931
57.7223 19.4608 3.98053
57.3819 21.8242 3.97551
57.1994 23.9321 3.97519
50.1126 7.2812 3.98952
51.2327 10.117 3.98671
52.1726 12.7853 3.98457
55.5401 16.9579 3.98263
52.979 15.2489 3.98165
53.7605 16.9654 3.98232
53.0425 69.0014 0.00630674
53.9672 66.0164 0.0105225
63.2032 48.6662 0.0257423
54.6847 63.2143 0.0144663
57.8831 60.8793 0.0162746
55.2135 60.6262 0.0172984
61.7537 52.5848 0.0219591
60.2851 50.0287 0.0258299
58.0232 58.2736 0.0189335
58.1356 55.8274 0.0223723
59.34 53.961 0.020179
52.0707 67.0032 2
52.9535 64.2249 2
56.6515 59.5008 2
53.6821 61.632 2
54.2627 59.3336 2
61.0039 47.8885 2
59.7237 52.118 2
58.0379 49.6305 2
56.7831 57.0029 2
57.1328 54.1378 2
51.1682 65.1332 3.98733
52.0467 62.5463 3.98481
55.4846 58.2624 3.98188
52.8363 60.1456 3.98226
53.6434 58.4829 3.98045
58.3182 46.8601 3.97565
57.5744 51.8011 3.97702
56.2607 49.5665 3.98113
55.4791 55.8081 3.97663
55.3687 53.3966 3.97253
50.1097 67.8597 0.00994452
49.3372 65.9267 2
48.6183 64.1296 3.98599
47.4637 66.5861 0.012029
45.5587 67.1041 2
46.8924 64.7439 2
46.382 63.0621 3.98519
45.1329 65.205 3.98653
43.632 67.4746 3.98803
41.861 69.8812 3.99045
43.9739 69.5941 2
44.3767 71.8636 3.99419
46.0569 69.1612 0.00954089
46.6095 71.369 2
47.2057 73.7222 4
48.8026 70.7243 0.00596821
49.554 73.0099 2
51.8506 72.1454 0
50.9538 5.13011 3.99351
53.0643 6.0695 2
54.0858 3.86728 4
55.1031 7.13807 0.0068821
56.25 5.02406 2
58.3339 6.31992 0
63.9737 46.7207 0.0257428
65.1827 43.0281 0.026414
62.8158 44.2216 0.0254413
63.7619 40.9327 0.027616
65.7905 39.3715 0.0288487
67.933 37.5223 0.0280047
65.8934 37.5024 2
63.9039 39.2686 2
63.3371 42.5548 2
62.4392 40.701 2
61.9772 45.9258 2
61.4619 43.69 2
63.9637 37.4576 3.97065
62.1646 39.3567 3.97161
61.2292 41.9633 3.97333
60.2617 44.7787 3.97509
65.8803 35.6666 0.0281286
65.1934 32.1519 0.0262309
64.2909 34.2488 0.0271078
62.6029 30.632 0.0265747
59.3136 15.6581 0.0164791
59.1301 18.3419 0.0179936
58.7508 20.8388 0.0220571
61.6599 27.0667 0.0261874
60.8586 29.1341 0.02439
59.3428 25.7858 0.0222417
58.298 23.0773 0.0243839
57.9819 24.651 0.0221159
56.6788 15.7296 0.0173543
54.3783 15.984 0.0178219
53.8106 13.6679 0.0167019
52.1126 8.14906 0.0106833
53.0584 11.0083 0.0139915
64.0963 35.6321 2
62.9398 33.0434 2
60.6245 30.6062 2
57.9431 16.9695 2
57.7229 19.4596 2
57.3826 21.8235 2
59.5814 27.9016 2
57.2 23.9318 2
57.7536 25.713 2
50.1125 7.28076 2
55.5401 16.9569 2
53.7604 16.9643 2
52.9789 15.2478 2
52.1725 12.7846 2
51.2326 10.1164 2
62.1983 35.3586 3.97157
60.3042 32.7429 3.97245
58.6339 30.0687 3.97272
57.3035 27.3693 3.97452
56.6403 18.1416 3.98257
56.3066 25.0886 3.97471
56.365 20.5057 3.97774
56.1204 22.8533 3.97247
48.0562 6.52444 3.9898
49.3244 9.32528 3.98703
50.4333 11.9839 3.98495
51.3787 14.4843 3.98313
54.418 17.906 3.98267
52.3631 17.0206 3.98137
52.0708 67.0028 0.0101612
52.9537 64.2243 0.0133803
61.0038 47.888 0.0266812
53.6823 61.6313 0.0162331
56.6516 59.5 0.0175454
54.2629 59.3326 0.0186138
59.7235 52.1173 0.0223049
58.0378 49.63 0.0240309
56.783 57.002 0.0220549
57.1326 54.1374 0.0223914
51.168 65.1337 2
52.0464 62.5469 2
55.4846 58.2634 2
52.8361 60.1463 2
53.6433 58.4839 2
58.3183 46.8606 2
57.5746 51.8016 2
56.2608 49.567 2
55.4794 55.8091 2
55.3689 53.3974 2
50.3465 63.3878 3.98553
51.2451 60.9444 3.98302
54.2245 57.277 3.98031
52.3152 58.6455 3.98068
56.7369 44.1943 3.97326
55.5075 47.9094 3.97705
55.0832 51.3997 3.9733
54.0131 54.5589 3.97503
49.3374 65.9263 0.0122329
48.6181 64.13 2
47.9622 62.483 3.98482
45.5589 67.1037 0.0121352
46.8926 64.7434 0.0135969
43.6318 67.4751 2
46.3817 63.0626 2
45.1327 65.2055 2
45.9873 61.5957 3.98423
44.7673 63.4635 3.98574
43.3568 65.515 3.9867
41.6639 67.6938 3.988
39.7026 70.0284 3.99032
41.8611 69.8816 2
42.1111 72.2084 3.99411
43.9739 69.5937 0.00950225
44.3769 71.8638 2
44.8159 74.2794 4
46.6093 71.3688 0.00578543
47.2057 73.7222 2
49.554 73.0099 0
48.7842 4.32119 3.99373
50.954 5.12994 2
51.8506 2.85458 4
53.0641 6.06967 0.00667866
54.0858 3.86728 2
56.25 5.02411 0
61.9771 45.9254 0.0254786
63.3369 42.5545 0.0266819
61.4618 43.6897 0.025285
62.4389 40.7008 0.0274653
63.9037 39.2685 0.028985
65.8933 37.5024 0.0294017
63.9638 37.4577 2
62.1649 39.3568 2
61.2294 41.9635 2
60.2618 44.779 2
62.0001 37.445 3.9713
60.2611 39.851 3.9726
59.0112 42.9255 3.97381
64.0957 35.6323 0.028231
62.9397 33.0437 0.0271078
60.6243 30.6064 0.0271877
57.9431 16.9704 0.0172813
57.7223 19.4608 0.0194708
57.3819 21.8242 0.0244919
59.5811 27.9019 0.0258722
57.7531 25.7134 0.0206868
57.1994 23.9321 0.0248079
55.5401 16.9579 0.017374
53.7605 16.9654 0.0176768
52.979 15.2489 0.0183548
50.1126 7.2812 0.0104788
52.1726 12.7853 0.0154252
51.2327 10.117 0.0132872
62.1989 35.3586 2
60.3042 32.7425 2
58.6342 30.0687 2
56.6405 18.1405 2
56.3659 20.5045 2
56.1213 22.853 2
57.3038 27.3688 2
56.3073 25.0887 2
48.0563 6.52396 2
49.3243 9.32486 2
54.4181 17.9049 2
52.3629 17.0196 2
51.3786 14.4834 2
50.4332 11.9832 2
59.9084 35.1194 3.97229
58.0134 32.2662 3.9732
56.5602 29.3302 3.97186
55.4622 26.5877 3.97683
55.3468 19.1748 3.98225
54.9428 24.0418 3.97162
55.01 21.5473 3.97532
45.9621 5.87954 3.9901
43.3733 7.46886 3.98816
47.3547 8.61933 3.98728
48.5998 11.2857 3.98553
49.7143 13.7319 3.98388
50.6348 16.1177 3.98119
53.1279 18.6448 3.98068
51.3048 18.0333 3.9852
51.1682 65.1332 0.0126715
52.0467 62.5463 0.0151857
58.3182 46.8601 0.024347
52.8363 60.1456 0.0177362
55.4846 58.2624 0.0181187
53.6434 58.4829 0.0195545
57.5744 51.8011 0.0229775
56.2607 49.5665 0.0188693
55.4791 55.8081 0.0233688
55.3687 53.3966 0.0274726
50.3462 63.3882 2
51.2448 60.9451 2
54.2246 57.2781 2
52.315 58.6462 2
56.7372 44.1946 2
55.5076 47.9101 2
55.0834 51.4003 2
54.0134 54.5606 2
49.5922 61.7528 3.98423
55.6692 41.7146 3.9755
50.5685 59.3384 3.98072
52.1905 56.5017 3.97749
54.2076 45.5792 3.97665
53.3569 49.3377 3.97481
52.6796 52.8609 3.97201
48.6183 64.1296 0.014013
47.9619 62.4833 2
47.3294 61.0185 3.98372
43.632 67.4746 0.0119747
45.1329 65.205 0.0134731
46.382 63.0621 0.0148111
41.6638 67.6943 2
43.3566 65.5155 2
45.9871 61.5961 2
44.767 63.464 2
45.7664 60.6403 3.98339
44.4832 61.8457 3.98446
43.1465 63.7363 3.9856
41.5463 65.6531 3.98669
39.6329 67.7736 3.98784
37.5261 70.0536 3.99024
39.7027 70.0289 2
39.8179 72.4055 3.99404
41.861 69.8812 0.00954711
42.1112 72.2087 2
42.3947 74.6792 4
44.3767 71.8636 0.00580999
44.8159 74.2794 2
47.2057 73.7222 0
43.8514 5.35665 3.99034
46.5703 3.64578 3.99395
48.7844 4.32098 2
49.554 1.99015 4
50.9538 5.13011 0.00649342
51.8506 2.85453 2
54.0858 3.86728 0
60.2617 44.7787 0.0249141
61.2292 41.9633 0.0266707
62.1646 39.3567 0.0283871
63.9637 37.4576 0.0293533
62.0007 37.4451 2
60.2614 39.8511 2
59.0115 42.9257 2
59.7725 37.5685 3.97218
58.0228 40.6633 3.97332
55.1449 39.7281 3.97679
62.1983 35.3586 0.0284296
60.3042 32.7429 0.0275484
58.6339 30.0687 0.0272847
56.6403 18.1416 0.0174339
56.365 20.5057 0.0222565
56.1204 22.8533 0.0275277
57.3035 27.3693 0.0254768
56.3066 25.0886 0.0252853
54.418 17.906 0.0173283
52.3631 17.0206 0.0186276
51.3787 14.4843 0.0168697
48.0562 6.52444 0.0102027
49.3244 9.32528 0.0129671
50.4333 11.9839 0.015052
59.9093 35.1195 2
45.9621 5.87906 2
43.3733 7.46836 2
58.0132 32.266 2
56.5609 29.33 2
55.3473 19.1735 2
55.0111 21.5457 2
54.9437 24.0424 2
55.4626 26.5879 2
47.3547 8.61883 2
48.5997 11.2854 2
53.1281 18.6436 2
51.3049 18.0324 2
50.6346 16.1167 2
49.7142 13.7311 2
57.4221 34.7598 3.9744
55.7506 31.5131 3.97231
54.524 28.392 3.97663
53.7872 25.4845 3.97455
53.9744 20.1221 3.982
53.5907 22.6948 3.97218
41.3983 7.07403 3.98838
45.3594 7.99084 3.98751
42.8649 9.40956 3.98667
46.666 10.647 3.9856
47.7453 13.0925 3.98412
48.9321 15.3887 3.98305
50.0079 17.6869 3.9791
51.6548 19.3097 3.98696
50.3465 63.3878 0.0144667
51.2451 60.9444 0.0169818
56.7369 44.1943 0.0267432
55.5075 47.9094 0.0229502
52.3152 58.6455 0.0193189
54.2245 57.277 0.0196904
55.0832 51.3997 0.0267036
54.0131 54.5589 0.024971
49.5919 61.7532 2
55.6703 41.7144 2
50.5683 59.3391 2
52.1906 56.5023 2
54.2084 45.5799 2
53.357 49.3377 2
52.68 52.8611 2
48.8497 60.2113 3.98275
52.579 42.6579 3.97608
49.7922 57.6378 3.97957
50.6017 54.4374 3.97586
51.8369 47.2818 3.97837
51.2299 50.9527 3.97112
48.2173 43.813 3.98898
47.9622 62.483 0.0151849
47.3291 61.0188 2
46.6193 59.8054 3.98277
41.6639 67.6938 0.012
43.3568 65.515 0.0132959
44.7673 63.4635 0.0142583
45.9873 61.5957 0.0157677
39.6328 67.7741 2
41.5461 65.6535 2
45.7661 60.6407 2
43.1463 63.7367 2
44.4829 61.8461 2
44.6238 60.3031 3.9837
42.9504 62.0947 3.985
41.5999 63.8301 3.98554
39.6478 65.6215 3.98651
37.5634 67.7562 3.98782
31.6971 65.1402 3.98656
33.392 67.4937 3.98772
35.3333 69.9637 3.9902
37.526 70.0541 2
37.5096 72.46 3.99394
39.7026 70.0284 0.00967646
39.8179 72.4058 2
39.9526 74.9197 4
42.1111 72.2084 0.0058904
42.3947 74.6792 2
44.8159 74.2794 0
41.7359 4.96575 3.9906
43.8514 5.35619 2
44.3256 3.10911 3.99407
46.5705 3.64555 2
47.2057 1.27793 4
48.7842 4.32119 0.00627127
49.554 1.99013 2
51.8506 2.85458 0
59.0112 42.9255 0.026192
60.2611 39.851 0.0273983
62.0001 37.445 0.028702
59.7733 37.5685 2
58.0235 40.6634 2
55.1455 39.728 2
56.8475 37.8994 3.97457
49.6594 41.3423 3.98204
53.1854 39.3139 3.97675
39.4416 6.79743 3.9886
59.9084 35.1194 0.027709
58.0134 32.2662 0.0267965
56.5602 29.3302 0.0281402
55.3468 19.1748 0.0177539
55.01 21.5473 0.024675
54.9428 24.0418 0.0283833
55.4622 26.5877 0.0231653
53.1279 18.6448 0.0193248
51.3048 18.0333 0.0148042
50.6348 16.1177 0.0188053
45.9621 5.87954 0.00990193
49.7143 13.7319 0.0161157
47.3547 8.61933 0.0127195
48.5998 11.2857 0.0144651
43.3733 7.46886 0.0118385
57.4233 34.76 2
41.3984 7.07348 2
45.3594 7.99037 2
42.8649 9.40902 2
55.7504 31.513 2
54.5242 28.3925 2
53.975 20.1205 2
53.5916 22.6906 2
53.7878 25.4852 2
46.6659 10.6465 2
47.745 13.0921 2
51.6553 19.3089 2
50.0079 17.6859 2
48.9318 15.3878 2
54.9264 33.9696 3.97482
53.5159 30.4754 3.97284
52.6068 27.1856 3.97612
52.1563 24.0792 3.97361
52.3973 21.0472 3.98112
41.0129 9.04271 3.98668
44.723 9.99007 3.98592
42.4675 10.8953 3.98498
46.0047 12.721 3.98427
47.6818 14.5738 3.98372
48.1149 16.9759 3.98112
49.8198 19.5872 3.97717
49.5922 61.7528 0.0157737
50.5685 59.3384 0.019283
55.6692 41.7146 0.0244963
54.2076 45.5792 0.0233525
53.3569 49.3377 0.0251943
52.1905 56.5017 0.0225064
52.6796 52.8609 0.0279866
48.8493 60.2116 2
52.5804 42.6575 2
49.7921 57.6386 2
50.6019 54.4385 2
51.8369 47.2813 2
51.2303 50.9521 2
48.2149 43.8168 2
47.9884 58.7536 3.98196
50.1414 45.2953 3.97496
48.6029 55.929 3.981
49.1401 52.6067 3.97551
49.6897 49.0566 3.97363
46.0756 39.8913 3.90789
46.4696 42.7056 3.95561
46.5333 45.8568 3.98956
43.9179 41.1943 3.91797
42.0838 42.0205 3.89217
47.3294 61.0185 0.0162838
46.6188 59.8056 2
45.4691 58.8022 3.98288
39.6329 67.7736 0.0121595
41.5463 65.6531 0.0133105
43.1465 63.7363 0.0143963
44.4832 61.8457 0.0155421
45.7664 60.6403 0.0166101
41.5997 63.8304 2
37.5634 67.7567 2
39.6477 65.6219 2
44.6234 60.3035 2
42.9501 62.095 2
41.7535 62.5056 3.98537
42.4817 59.9959 3.98454
39.8934 63.5656 3.98543
37.6424 65.5207 3.98604
35.4634 67.6655 3.9878
33.5754 65.3537 3.98634
31.9596 63.3139 3.98559
29.8832 64.731 3.98657
31.6972 65.1406 2
31.3765 67.2034 3.98781
33.3921 67.4942 2
33.156 69.757 3.99021
35.3332 69.9642 2
35.1949 72.3744 3.99391
37.5261 70.0536 0.00976184
37.5095 72.4604 2
37.5 75 4
39.8179 72.4055 0.00596154
39.9526 74.9197 2
42.3947 74.6792 0
39.6234 4.71285 3.99075
41.736 4.96527 2
42.0619 2.71674 3.99423
43.8514 5.35665 0.00965717
44.3257 3.10885 2
44.8158 0.721173 4
46.5703 3.64578 0.00604544
47.2057 1.27779 2
49.554 1.99015 0
58.0228 40.6633 0.0266841
59.7725 37.5685 0.0278168
55.1449 39.7281 0.0232108
49.6629 41.3447 2
56.8482 37.8995 2
53.186 39.3136 2
54.0272 36.6289 3.97593
47.5923 40.4413 3.96478
50.6256 38.5133 3.98037
37.5153 6.66846 3.98858
39.4416 6.79689 2
39.2103 8.68507 3.98696
35.9407 8.48477 3.98726
57.4221 34.7598 0.0255965
55.7506 31.5131 0.0276868
54.524 28.392 0.0233678
53.9744 20.1221 0.0179979
53.5907 22.6948 0.0278177
53.7872 25.4845 0.0254547
51.6548 19.3097 0.0130415
50.0079 17.6869 0.0208967
48.9321 15.3887 0.0169461
45.3594 7.99084 0.012486
47.7453 13.0925 0.0158787
46.666 10.647 0.0144033
41.3983 7.07403 0.0116189
42.8649 9.40956 0.0133265
54.9278 33.9699 2
41.0129 9.04211 2
44.723 9.98966 2
42.4674 10.8947 2
53.5159 30.4743 2
52.6073 27.1876 2
52.3983 21.0462 2
52.1579 24.0789 2
46.0044 12.7206 2
47.6815 14.5732 2
49.8202 19.5857 2
48.1148 16.9748 2
52.4726 32.8688 3.97669
51.3527 29.1429 3.97196
50.8072 25.7109 3.97293
49.9463 22.1664 3.9793
40.5682 11.5984 3.98473
43.8573 11.9105 3.98504
45.8031 15.4092 3.98352
47.5059 19.2081 3.97908
46.4162 37.5059 3.9122
48.8497 60.2113 0.0172477
49.7922 57.6378 0.0204305
52.579 42.6579 0.0239151
51.8369 47.2818 0.0216256
51.2299 50.9527 0.0288757
50.6017 54.4374 0.024137
48.2173 43.813 0.0110152
47.988 58.7539 2
50.1429 45.2975 2
48.6028 55.9299 2
49.1403 52.6099 2
49.6899 49.0561 2
46.0866 39.8965 2
46.4795 42.7158 2
46.5309 45.8473 2
43.9302 41.2006 2
42.0891 42.0222 2
46.8409 57.3571 3.98277
44.6816 39.475 3.90904
42.461 40.8892 3.90693
48.1161 47.2553 3.9777
47.1747 54.2653 3.98159
47.6024 50.7624 3.97595
44.8302 47.43 3.99881
45.1461 41.9865 3.91291
44.9516 44.6158 3.95669
42.7293 42.716 3.9203
40.9431 42.3557 3.91776
46.6193 59.8054 0.0172269
45.4686 58.8025 2
43.8774 57.7274 3.98366
37.5634 67.7562 0.0121782
39.6478 65.6215 0.0134939
41.5999 63.8301 0.0144584
42.9504 62.0947 0.0149992
44.6238 60.3031 0.0163045
35.4634 67.666 2
41.7532 62.5058 2
39.8933 63.5659 2
37.6423 65.5211 2
42.4814 59.9963 2
40.6233 61.6646 3.98464
40.4459 58.23 3.98419
37.8369 63.2271 3.98548
35.573 65.443 3.9862
33.5755 65.354 2
31.9597 63.3142 2
33.6292 63.3539 3.98536
30.3786 62.8723 3.98566
32.1233 62.0212 3.98503
26.8681 61.5155 3.98465
28.062 64.1588 3.98639
29.8833 64.7314 2
29.4059 66.7669 3.98782
31.6971 65.1402 0.01344
31.3766 67.2038 2
31.0132 69.4219 3.99018
33.392 67.4937 0.0122777
33.1559 69.7574 2
32.892 72.1487 3.99394
35.3333 69.9637 0.00980425
35.1949 72.3747 2
35.0474 74.9194 4
37.5096 72.46 0.00605695
37.5 75 2
39.9526 74.9197 0
35.6197 6.71944 3.98865
37.5225 4.61233 3.99088
39.6235 4.7124 2
39.7884 2.47319 3.99435
41.7359 4.96575 0.00940381
42.0621 2.71645 2
42.3946 0.32156 4
44.3256 3.10911 0.00593253
44.8159 0.72056 2
47.2057 1.27793 0
49.6594 41.3423 0.0179594
56.8475 37.8994 0.0254291
53.1854 39.3139 0.0232525
47.5964 40.4429 2
50.627 38.514 2
54.0274 36.6291 2
51.4105 35.583 3.96644
48.2629 37.7737 3.97503
46.0744 35.135 3.91393
43.9171 33.8154 3.91492
42.077 32.9911 3.89071
37.457 8.52674 3.98713
37.5153 6.66792 2
39.4416 6.79743 0.0114046
39.2104 8.68444 2
38.9754 10.117 3.98656
35.8972 9.76391 3.98609
34.1491 8.8142 3.9871
35.9406 8.48408 2
54.9264 33.9696 0.0251827
53.5159 30.4754 0.0271555
52.6068 27.1856 0.0238771
52.3973 21.0472 0.0188823
52.1563 24.0792 0.0263861
49.8198 19.5872 0.0228284
48.1149 16.9759 0.0188805
47.6818 14.5738 0.0162842
44.723 9.99007 0.0140788
46.0047 12.721 0.0157348
41.0129 9.04271 0.013316
42.4675 10.8953 0.0150152
52.474 32.8681 2
40.5681 11.5978 2
43.8571 11.9101 2
51.3551 29.1445 2
50.8091 25.712 2
49.9474 22.1648 2
45.8026 15.4086 2
47.5062 19.207 2
50.04 31.402 3.96532
49.3086 27.4562 3.97816
49.4179 24.3778 3.98047
47.1904 21.9101 3.97815
38.3006 12.7224 3.98457
42.1007 14.2932 3.98352
44.8018 18.4419 3.98318
44.9671 37.513 3.91079
46.4336 37.5104 2
47.9884 58.7536 0.0180438
48.6029 55.929 0.0189984
50.1414 45.2953 0.0250424
49.6897 49.0566 0.0263663
49.1401 52.6067 0.0244938
46.0756 39.8913 0.0921125
46.4696 42.7056 0.0443868
46.5333 45.8568 0.0104352
43.9179 41.1943 0.0820311
42.0838 42.0205 0.107829
46.8405 57.3575 2
44.6956 39.479 2
42.4624 40.8882 2
48.1162 47.2548 2
47.1747 54.2662 2
47.6029 50.7637 2
44.8319 47.418 2
45.1547 41.9946 2
44.9628 44.6282 2
42.7475 42.7248 2
40.949 42.3543 2
45.4007 55.9446 3.98328
42.8087 39.2739 3.92179
40.9113 40.8062 3.96098
46.1147 48.9306 3.98104
45.5552 52.5614 3.98342
43.4767 48.4799 3.99643
43.3682 46.1872 3.96321
43.7129 43.804 3.9081
41.2143 43.8809 3.92146
39.3158 42.6849 3.92902
45.4691 58.8022 0.0171175
43.8769 57.7277 2
42.1083 56.3545 3.98477
35.4634 67.6655 0.012201
37.6424 65.5207 0.0139625
39.8934 63.5656 0.0145745
41.7535 62.5056 0.0146341
42.4817 59.9959 0.015465
35.573 65.4433 2
40.6229 61.6648 2
37.8367 63.2273 2
40.4454 58.2303 2
38.9269 56.5255 3.98688
38.2507 60.3498 3.98508
35.6072 63.2208 3.98521
33.5754 65.3537 0.0136594
31.9596 63.3139 0.0144063
33.6292 63.3542 2
30.3787 62.8726 2
32.1233 62.0214 2
28.681 62.2175 3.98545
33.3461 61.5343 3.98509
31.0663 61.2385 3.98496
27.5665 59.614 3.98289
23.7883 59.1009 3.98289
25.0332 60.8881 3.98383
26.8683 61.5157 2
26.2285 63.4909 3.98603
28.0622 64.1591 2
27.4625 66.1905 3.9878
29.8832 64.731 0.0134278
29.406 66.7673 2
28.9054 68.9473 3.99017
31.3765 67.2034 0.0121896
31.0131 69.4223 2
30.6144 71.7797 3.99396
33.156 69.757 0.00979284
32.8918 72.149 2
32.6054 74.6784 4
35.1949 72.3744 0.00608819
35.0474 74.9197 2
37.5 75 0
33.7222 6.97406 3.98838
35.4338 4.6827 3.99087
35.6197 6.71882 2
37.5139 2.38582 3.99443
37.5226 4.61187 2
39.6234 4.71285 0.009245
39.7885 2.47289 2
39.9526 0.0806499 4
42.0619 2.71674 0.0057697
42.3947 0.320817 2
44.8158 0.721173 0
44.6884 35.5373 3.90878
42.4597 34.1173 3.90576
47.5923 40.4413 0.0352174
50.6256 38.5133 0.0196253
54.0272 36.6289 0.0240659
48.2655 37.7723 2
51.4121 35.5819 2
46.083 35.1281 2
43.9334 33.8049 2
42.0811 32.9911 2
48.4236 34.2752 3.99568
45.141 33.0302 3.90617
42.7268 32.2985 3.92067
40.9351 32.6554 3.92077
37.3093 10.6199 3.98575
37.457 8.52607 2
37.5153 6.66846 0.0114152
39.2103 8.68507 0.0130392
38.9754 10.1163 2
34.7523 10.3693 3.98571
35.8972 9.76315 2
32.3758 9.36077 3.98644
34.149 8.81345 2
35.9407 8.48477 0.0127383
52.4726 32.8688 0.0233143
51.3527 29.1429 0.0280449
50.8072 25.7109 0.0270703
49.9463 22.1664 0.0207023
47.5059 19.2081 0.0209158
45.8031 15.4092 0.0164813
43.8573 11.9105 0.0149631
40.5682 11.5984 0.0152738
50.0416 31.4015 2
38.3003 12.7216 2
42.1001 14.2925 2
49.3105 27.4566 2
49.4195 24.3762 2
47.1916 21.9108 2
44.8019 18.4411 2
47.8299 29.5669 3.97211
47.1187 25.0984 3.98359
44.2915 21.2906 3.98218
36.5803 12.9189 3.98411
38.6801 14.7911 3.98312
41.7501 17.8202 3.98145
42.9501 37.4941 3.91483
44.9873 37.5124 2
46.4162 37.5059 0.087801
46.8409 57.3571 0.0172297
47.1747 54.2653 0.0184065
48.1161 47.2553 0.0222978
47.6024 50.7624 0.0240523
44.6816 39.475 0.0909601
45.1461 41.9865 0.087086
44.9516 44.6158 0.0433071
44.8302 47.43 0.00119038
42.7293 42.716 0.0797
42.461 40.8892 0.0930677
40.9431 42.3557 0.0822366
45.4004 55.9449 2
42.8122 39.2723 2
40.9109 40.8033 2
46.115 48.9298 2
45.5557 52.562 2
43.4768 48.4967 2
43.3936 46.1997 2
43.7266 43.8127 2
41.227 43.8833 2
39.3188 42.6837 2
43.7404 54.4564 3.98834
41.0028 39.1738 3.97312
39.2416 40.8897 3.97408
43.7243 50.5397 3.99202
41.9806 47.7212 3.98908
41.8926 45.2033 3.90319
39.448 44.6274 3.92737
37.4955 42.819 3.92839
43.8774 57.7274 0.0163378
42.1076 56.3549 2
40.4215 54.9632 3.98597
35.573 65.443 0.0138016
37.8369 63.2271 0.0145163
40.6233 61.6646 0.0153605
40.4459 58.23 0.0158067
35.6071 63.2209 2
38.2503 60.3496 2
38.9261 56.5265 2
38.0005 55.2842 3.98684
36.9356 57.6556 3.98492
35.3638 60.934 3.98507
33.6292 63.3539 0.0146397
30.3786 62.8723 0.0143398
32.1233 62.0212 0.0149724
33.346 61.5345 2
28.6811 62.2178 2
31.0663 61.2386 2
29.4021 60.3082 3.9843
32.3556 59.7672 3.98427
28.0181 58.3935 3.98366
27.5667 59.6141 2
25.3752 58.6135 3.9818
22.7506 58.2594 3.97959
23.3983 60.3675 3.98245
23.7884 59.1013 2
25.0333 60.8884 2
24.4309 62.7832 3.98545
26.8681 61.5155 0.0153468
26.2287 63.4912 2
25.5465 65.5004 3.98768
28.062 64.1588 0.0136066
27.4626 66.1909 2
26.8351 68.3356 3.99012
29.4059 66.7669 0.0121828
28.9054 68.9477 2
28.3695 71.2649 3.99396
31.0132 69.4219 0.00981523
30.6142 71.78 2
30.1842 74.2788 4
32.892 72.1487 0.0060636
32.6053 74.6792 2
35.0474 74.9194 0
31.7865 7.41389 3.98816
33.3457 4.92186 3.99072
33.7221 6.97339 2
35.2441 2.46196 3.9944
35.4339 4.68218 2
35.6197 6.71944 0.0113462
37.5 0 4
37.514 2.38552 2
37.5225 4.61233 0.0091179
39.7884 2.47319 0.00565007
39.9526 0.0802889 2
42.3946 0.32156 0
42.8159 35.7221 3.91885
44.6996 35.5347 2
40.9108 34.2001 3.96111
42.4614 34.1182 2
48.2629 37.7737 0.0249703
51.4105 35.583 0.0335553
46.0744 35.135 0.0860698
43.9171 33.8154 0.0850772
42.077 32.9911 0.109294
48.4281 34.272 2
45.1516 33.0234 2
42.7425 32.2917 2
40.9374 32.6557 2
46.3705 31.5505 3.97906
43.7049 31.2165 3.91052
41.2162 31.1217 3.91432
39.3058 32.323 3.92833
35.6906 11.764 3.98431
37.3093 10.6191 2
37.457 8.52674 0.0128665
38.9754 10.117 0.013442
33.0962 11.2058 3.98448
34.7523 10.3684 2
35.8972 9.76391 0.0139134
30.4804 10.0089 3.98577
32.3757 9.35996 2
34.1491 8.8142 0.012897
50.04 31.402 0.0346786
49.3086 27.4562 0.0218367
49.4179 24.3778 0.019532
47.1904 21.9101 0.0218548
44.8018 18.4419 0.016819
42.1007 14.2932 0.0164848
38.3006 12.7224 0.0154334
36.58 12.9181 2
47.8302 29.5646 2
38.6795 14.7904 2
41.7498 17.8193 2
47.1208 25.0992 2
44.2923 21.2892 2
45.5867 27.7116 3.98954
43.8131 24.0167 3.99078
41.3428 20.6964 3.98137
35.7701 14.7433 3.98337
38.6805 17.5768 3.98146
41.0517 37.4852 3.9704
42.9551 37.4949 2
44.9671 37.513 0.0892128
45.4007 55.9446 0.016719
45.5552 52.5614 0.0165807
46.1147 48.9306 0.0189625
42.8087 39.2739 0.0782107
43.7129 43.804 0.0918973
43.3682 46.1872 0.0367946
43.4767 48.4799 0.0035662
41.2143 43.8809 0.0785374
40.9113 40.8062 0.0390205
39.3158 42.6849 0.0709755
43.74 54.4574 2
41.0037 39.1723 2
39.2406 40.8885 2
43.7242 50.5463 2
41.9831 47.7308 2
41.9111 45.2105 2
37.4976 42.8182 2
39.4627 44.6242 2
41.8868 53.0322 3.99426
39.2396 39.1752 3.96545
37.4967 40.9348 3.96588
35.6814 42.6869 3.92969
40.9614 49.7707 4.00207
39.8041 46.0929 3.90019
37.4987 44.8803 3.9288
42.1083 56.3545 0.0152337
40.4204 54.9635 2
38.7301 53.8975 3.98768
35.6072 63.2208 0.014785
38.2507 60.3498 0.0149242
38.9269 56.5255 0.0131241
35.3635 60.9338 2
36.9349 57.6548 2
37.9994 55.2835 2
36.3193 55.4193 3.98828
34.4874 58.5468 3.98481
33.3461 61.5343 0.0149096
28.681 62.2175 0.0145472
31.0663 61.2385 0.0150391
32.3556 59.7671 2
29.4022 60.3082 2
30.2937 57.8399 3.98464
28.0183 58.3934 2
26.9362 56.8435 3.98085
27.5665 59.614 0.0171127
25.3754 58.6136 2
23.8296 56.825 3.97666
21.3255 57.4183 3.97922
21.9897 59.6396 3.9822
22.7506 58.2598 2
22.7343 62.0344 3.98446
23.3984 60.3679 2
23.7883 59.1009 0.017106
25.0332 60.8881 0.0161748
24.431 62.7835 2
23.6803 64.7186 3.98725
26.2285 63.4909 0.0139721
25.5467 65.5007 2
24.8073 67.5967 3.99002
27.4625 66.1905 0.0122031
26.835 68.336 2
26.1647 70.6057 3.99394
28.9054 68.9473 0.00983052
28.3692 71.2651 2
27.7943 73.7221 4
30.6144 71.7797 0.00604276
30.1841 74.2794 2
32.6054 74.6784 0
29.809 7.98711 3.98767
31.2507 5.32907 3.99041
31.7864 7.41309 2
32.9799 2.70007 3.99431
33.3457 4.92129 2
33.7222 6.97406 0.0116248
35.0474 0.080333 4
35.2441 2.46164 2
35.4338 4.6827 0.00913489
37.5 0 2
37.5139 2.38582 0.00557461
39.9526 0.0806499 0
41.01 35.8081 3.97228
42.818 35.724 2
44.6884 35.5373 0.0912167
28.5412 10.6843 3.98563
39.2385 34.1175 3.97376
40.9098 34.2036 2
42.4597 34.1173 0.09424
48.4236 34.2752 0.00432015
45.141 33.0302 0.0938334
42.7268 32.2985 0.0793293
40.9351 32.6554 0.0792299
46.3843 31.5481 2
43.7117 31.2083 2
41.2298 31.1164 2
39.3082 32.3234 2
44.4142 29.7289 3.96834
41.8963 29.8056 3.90463
39.448 30.3791 3.92775
37.4839 32.1841 3.92995
34.0904 12.9218 3.9837
35.6905 11.7631 2
37.3093 10.6199 0.0142511
31.1841 11.974 3.98473
33.0961 11.2049 2
34.7523 10.3693 0.0142942
30.4803 10.0081 2
32.3758 9.36077 0.0135593
47.8299 29.5669 0.0278947
47.1187 25.0984 0.0164064
36.5803 12.9189 0.0158884
44.2915 21.2906 0.0178165
41.7501 17.8202 0.018554
38.6801 14.7911 0.0168797
35.7696 14.7425 2
45.5879 27.7039 2
38.6801 17.5758 2
41.3428 20.6942 2
43.8155 24.0192 2
33.6054 15.8598 3.98326
43.0799 26.4977 3.99704
40.9228 23.2686 3.98396
38.4221 20.3043 3.98331
35.8465 17.4903 3.98303
39.2461 37.4849 3.96112
41.0523 37.4854 2
42.9501 37.4941 0.0851669
43.7404 54.4564 0.0116641
43.7243 50.5397 0.00797926
41.0028 39.1738 0.0268825
41.8926 45.2033 0.0968098
41.9806 47.7212 0.0109208
39.448 44.6274 0.0726289
39.2416 40.8897 0.0259243
37.4955 42.819 0.0716083
41.8857 53.0341 2
39.2402 39.1745 2
37.4964 40.9334 2
40.9611 49.7723 2
35.6795 42.6857 2
39.8253 46.1096 2
37.496 44.877 2
39.8293 51.9556 4.00094
37.4947 39.1837 3.94813
35.7537 40.8968 3.97406
34.0521 42.3526 3.919
35.5334 44.628 3.9249
38.751 48.7653 4.00857
37.4996 46.4113 3.90021
40.4215 54.9632 0.0140318
38.7289 53.8959 2
36.7173 53.2551 3.99669
35.3638 60.934 0.0149291
36.9356 57.6556 0.0150838
38.0005 55.2842 0.0131638
34.4871 58.5463 2
36.3186 55.4173 2
33.222 55.5337 3.98614
32.3556 59.7672 0.0157313
29.4021 60.3082 0.0157014
30.2938 57.8397 2
28.6756 55.3324 3.98104
28.0181 58.3935 0.0163415
26.9363 56.8435 2
25.295 55.1628 3.97763
21.7932 55.3657 3.97573
25.3752 58.6135 0.0181988
23.8297 56.8253 2
20.2088 57.0483 3.98147
20.6395 58.7975 3.98122
21.3255 57.4187 2
21.1639 61.1842 3.9838
21.9898 59.6401 2
22.7506 58.2594 0.0204107
21.8936 63.8466 3.9866
22.7344 62.0348 2
23.3983 60.3675 0.0175497
24.4309 62.7832 0.014547
23.6805 64.719 2
22.8356 66.7404 3.98988
25.5465 65.5004 0.0123241
24.8073 67.597 2
24.009 69.8069 3.99385
26.8351 68.3356 0.00987981
26.1645 70.6058 2
25.446 73.0099 4
28.3695 71.2649 0.00603998
27.7943 73.7222 2
30.1842 74.2788 0
27.8189 8.64683 3.98733
29.1527 5.87481 3.99005
29.8089 7.98636 2
30.7251 3.09724 3.9941
31.2507 5.32841 2
31.7865 7.41389 0.0118435
32.6053 0.320823 4
32.9798 2.69975 2
33.3457 4.92186 0.00928121
35.0474 0.0802903 2
35.2441 2.46196 0.00559511
37.5 0 0
39.2448 35.8071 3.96553
41.0103 35.81 2
42.8159 35.7221 0.0811466
28.5412 10.6836 2
26.6201 11.3796 3.98532
29.223 12.6307 3.9848
37.4912 34.0689 3.9646
39.2374 34.1179 2
40.9108 34.2001 0.0388891
46.3705 31.5505 0.0209356
43.7049 31.2165 0.0894792
41.2162 31.1217 0.0856791
39.3058 32.323 0.0716684
44.4279 29.7203 2
41.9143 29.7962 2
39.4601 30.3816 2
37.4844 32.1832 2
42.3405 28.3491 3.95097
39.8205 28.913 3.90774
37.4886 30.118 3.9293
35.6681 32.3125 3.92886
31.9118 14.4666 3.98383
34.0902 12.9209 2
35.6906 11.764 0.0156897
31.1841 11.9732 2
33.0962 11.2058 0.0155174
30.4804 10.0089 0.0142254
45.5867 27.7116 0.0104635
43.8131 24.0167 0.00922067
35.7701 14.7433 0.0166262
41.3428 20.6964 0.0186256
38.6805 17.5768 0.0185365
33.605 15.8595 2
35.8461 17.4896 2
43.0821 26.4962 2
38.4217 20.3033 2
40.9236 23.2633 2
33.5475 17.3674 3.98464
40.4586 25.6152 4.01121
38.0797 22.83 3.99201
35.5825 20.0564 3.98378
37.4956 37.4927 3.93503
39.2464 37.4848 2
41.0517 37.4852 0.0295979
41.8868 53.0322 0.00573762
40.9614 49.7707 -0.00206728
39.2396 39.1752 0.0345484
39.8041 46.0929 0.0998069
37.4987 44.8803 0.0711967
37.4967 40.9348 0.034116
35.6814 42.6869 0.0703077
39.8286 51.9555 2
37.495 39.1829 2
35.7538 40.8964 2
38.747 48.7911 2
34.0486 42.3527 2
35.5243 44.63 2
37.4959 46.4314 2
37.6727 51.0566 4.0102
35.7547 39.1879 3.96599
34.0883 40.811 3.95804
32.9088 42.0139 3.89156
33.7663 43.874 3.91949
35.1775 46.0908 3.90588
36.8799 48.4133 3.99306
38.7301 53.8975 0.0123165
36.7168 53.2518 2
34.3525 52.5133 3.98978
34.4874 58.5468 0.015187
36.3193 55.4193 0.0117216
33.222 55.5323 2
30.5019 53.4337 3.98429
30.2937 57.8399 0.0153607
28.6759 55.3323 2
26.8604 53.4626 3.97703
26.9362 56.8435 0.0191499
25.2952 55.1628 2
23.5502 53.5044 3.97429
20.445 53.2463 3.97293
19.9186 55.8518 3.98033
21.7933 55.366 2
23.8296 56.825 0.0233395
19.4306 57.9092 3.98085
20.2088 57.0486 2
19.7026 60.2181 3.9827
20.6396 58.798 2
21.3255 57.4183 0.0207835
20.2057 62.8679 3.98562
21.164 61.1847 2
21.9897 59.6396 0.0177973
20.937 65.7695 3.98956
21.8937 63.8471 2
22.7343 62.0344 0.0155383
23.6803 64.7186 0.0127542
22.8357 66.7407 2
21.9115 68.874 3.99374
24.8073 67.5967 0.00997655
24.0087 69.8069 2
23.1494 72.1454 4
26.1647 70.6057 0.00606206
25.446 73.0099 2
27.7943 73.7221 0
25.8582 9.37491 3.98691
27.0674 6.53896 3.98966
27.8189 8.64611 2
28.4873 3.64315 3.99389
29.1526 5.8742 2
29.809 7.98711 0.0123299
30.1841 0.720592 4
30.725 3.09692 2
31.2507 5.32907 0.00959332
32.6053 0.320817 2
32.9799 2.70007 0.00569177
35.0474 0.080333 0
37.4961 35.8073 3.94731
39.2447 35.8076 2
41.01 35.8081 0.027718
24.7749 12.0626 3.98532
23.7489 14.3466 3.98432
28.5412 10.6843 0.0143739
26.6202 11.3791 2
29.223 12.6299 2
27.2891 13.3638 3.98462
29.7776 14.1891 3.98378
35.7493 34.1026 3.97396
37.4907 34.0693 2
39.2385 34.1175 0.0262421
37.4839 32.1841 0.0700457
44.4142 29.7289 0.0316575
41.8963 29.8056 0.0953691
39.448 30.3791 0.0722455
42.3529 28.3377 2
39.8386 28.8995 2
37.4886 30.1225 2
35.6665 32.3119 2
40.0244 27.5222 3.96989
37.4962 28.581 3.90339
35.5211 30.3686 3.92652
34.0453 32.6378 3.91901
30.923 16.8222 3.98359
31.9117 14.4658 2
34.0904 12.9218 0.0162965
31.1841 11.974 0.0152696
43.0799 26.4977 0.00296469
40.9228 23.2686 0.0160436
33.6054 15.8598 0.0167356
35.8465 17.4903 0.0169749
38.4221 20.3043 0.0166948
33.5471 17.3674 2
35.5821 20.0552 2
40.4581 25.6128 2
38.0794 22.83 2
32.8605 19.7715 3.98499
37.7981 25.1292 4.0269
35.2022 22.6134 3.98356
35.7482 37.4964 3.96132
37.496 37.4927 2
39.2461 37.4849 0.0388833
39.8293 51.9556 -0.000940403
38.751 48.7653 -0.00856923
37.4947 39.1837 0.0518667
37.4996 46.4113 0.0997938
35.5334 44.628 0.0750992
35.7537 40.8968 0.025944
34.0521 42.3526 0.0810026
37.6719 51.0624 2
35.755 39.1874 2
34.0882 40.8073 2
36.8768 48.4253 2
32.9039 42.0135 2
33.7562 43.8815 2
35.1548 46.1042 2
35.4324 50.1949 4.00933
33.9966 39.1852 3.96952
32.5282 40.8855 3.90672
32.2571 42.7042 3.9196
33.1131 45.1878 3.91081
34.2776 47.476 3.96756
36.7173 53.2551 0.00330842
34.3526 52.5118 2
31.9735 51.2404 3.9901
33.222 55.5337 0.013859
30.5024 53.4342 2
28.399 51.6461 3.97979
28.6756 55.3324 0.0189592
26.8608 53.4625 2
25.0478 51.7851 3.97191
25.295 55.1628 0.0223678
23.5505 53.5045 2
21.9347 51.83 3.97201
19.1748 51.6555 3.97266
18.9037 54.3281 3.97607
20.4452 53.2466 2
18.4365 56.7414 3.98155
19.9186 55.8522 2
21.7932 55.3657 0.0242729
18.3635 59.1253 3.98107
19.4307 57.9096 2
20.2088 57.0483 0.0185252
18.6161 61.7756 3.98445
19.7027 60.2187 2
20.6395 58.7975 0.0187817
19.1258 64.6804 3.98885
20.2058 62.8685 2
21.1639 61.1842 0.016201
19.8855 67.8107 3.99354
20.9371 65.7699 2
21.8936 63.8466 0.013395
22.8356 66.7404 0.0101191
21.9112 68.874 2
20.9142 71.1327 4
24.009 69.8069 0.00614944
23.1494 72.1455 2
25.446 73.0099 0
23.0942 12.7773 3.98494
23.9708 10.1614 3.98671
25.0213 7.30905 3.98945
25.8582 9.37423 2
26.279 4.32737 3.99363
27.0673 6.53834 2
27.8189 8.64683 0.0126718
27.7943 1.27781 4
28.487 3.64287 2
29.1527 5.87481 0.00995202
30.1841 0.720551 2
30.7251 3.09724 0.00590154
32.6053 0.320823 0
35.7503 35.8069 3.96583
37.4962 35.8079 2
39.2448 35.8071 0.0344698
24.7751 12.062 2
23.7491 14.3464 2
22.4773 15.023 3.98379
25.3552 13.8958 3.98419
24.0217 15.6082 3.98338
26.6201 11.3796 0.0146848
29.223 12.6307 0.0152023
27.2892 13.3634 2
29.7776 14.1884 2
28.3534 15.963 3.98413
34.0911 34.1876 3.96024
35.75 34.1031 2
37.4912 34.0689 0.0353984
35.6681 32.3125 0.0711401
37.4886 30.118 0.0707016
42.3405 28.3491 0.049034
39.8205 28.913 0.09226
40.032 27.5108 2
37.4959 28.5641 2
35.5084 30.3717 2
34.0455 32.6374 2
37.617 27.2019 3.97185
35.1491 28.8969 3.90644
33.7502 31.1148 3.91764
32.908 32.9773 3.89214
30.2041 19.3245 3.98499
30.9229 16.8216 2
31.9118 14.4666 0.0161673
40.4586 25.6152 -0.0112067
38.0797 22.83 0.00799072
33.5475 17.3674 0.0153563
35.5825 20.0564 0.016215
32.8596 19.7718 2
35.2017 22.6105 2
37.7994 25.1326 2
32.306 22.3832 3.98477
34.9544 25.1405 4.00618
33.9478 37.4967 3.96868
35.7486 37.4965 2
37.4956 37.4927 0.0649723
37.6727 51.0566 -0.0102017
36.8799 48.4133 0.00694386
35.7547 39.1879 0.0340121
35.1775 46.0908 0.0941235
33.7663 43.874 0.0805146
34.0883 40.811 0.0419552
32.9088 42.0139 0.108438
35.4317 50.1976 2
33.9968 39.183 2
32.5257 40.883 2
34.2702 47.5052 2
32.2425 42.7072 2
33.094 45.2044 2
33.1969 49.1842 4.00807
32.1783 39.2762 3.92035
31.0682 41.1813 3.91688
31.283 43.7862 3.90773
32.232 46.4023 3.9653
34.3525 52.5133 0.0102211
31.9739 51.2416 2
29.81 49.7548 3.98338
30.5019 53.4337 0.0157072
28.3997 51.6435 2
26.4634 50.0248 3.97226
26.8604 53.4626 0.0229696
25.0484 51.7847 2
23.3017 50.2237 3.97253
23.5502 53.5044 0.0257113
21.9352 51.8303 2
20.4329 50.3369 3.97256
17.9629 50.3468 3.97449
17.8129 52.8099 3.97442
19.1753 51.6556 2
17.4231 55.3573 3.97864
18.9037 54.3285 2
20.445 53.2463 0.0270663
17.1275 57.8877 3.982
18.4365 56.7418 2
19.9186 55.8518 0.0196734
17.1329 60.5591 3.98296
18.3636 59.1258 2
19.4306 57.9092 0.019152
17.406 63.4731 3.98761
18.6162 61.7762 2
19.7026 60.2181 0.0173011
17.9416 66.6191 3.99321
19.1259 64.6808 2
20.2057 62.8679 0.0143787
18.75 69.9759 4
19.8853 67.8107 2
20.937 65.7695 0.0104387
21.9115 68.874 0.00625608
20.9142 71.1327 2
23.1494 72.1454 0
21.5849 13.5973 3.98452
22.1889 11.0206 3.98622
23.0944 12.7771 2
23.0393 8.1744 3.98929
23.9709 10.161 2
24.1166 5.14206 3.99346
25.0211 7.30853 2
25.8582 9.37491 0.0130865
25.446 1.99014 4
26.2787 4.32714 2
27.0674 6.53896 0.0103437
27.7943 1.27778 2
28.4873 3.64315 0.00611495
30.1841 0.720592 0
33.9896 35.8097 3.97121
35.7505 35.8076 2
37.4961 35.8073 0.0526858
21.3021 15.8188 3.98307
24.7749 12.0626 0.0146816
23.7489 14.3466 0.01568
25.3553 13.8954 2
22.4776 15.023 2
24.022 15.608 2
23.2605 16.2396 3.98319
25.3769 16.0758 3.98416
27.2891 13.3638 0.0153842
29.7776 14.1891 0.0162201
28.3536 15.9627 2
27.4356 18.784 3.98466
32.5414 34.1065 3.90771
34.0928 34.1894 2
35.7493 34.1026 0.0260436
34.0453 32.6378 0.0809904
35.5211 30.3686 0.0734755
37.4962 28.581 0.0966132
40.0244 27.5222 0.0301148
37.6136 27.1681 2
32.9075 32.9779 2
35.1291 28.881 2
33.7357 31.1017 2
35.0643 27.3259 3.97582
33.0812 29.8006 3.90745
32.2442 32.2757 3.91685
29.5672 21.9186 3.99149
30.2037 19.3244 2
30.923 16.8222 0.01641
37.7981 25.1292 -0.0268963
35.2022 22.6134 0.0164444
32.8605 19.7715 0.0150142
32.3053 22.3839 2
34.9583 25.1448 2
31.6562 25.5993 3.99401
32.0445 37.4977 3.91654
33.9487 37.4962 2
35.7482 37.4964 0.0386752
35.4324 50.1949 -0.00932793
34.2776 47.476 0.0324365
33.9966 39.1852 0.0304837
33.1131 45.1878 0.0891852
32.2571 42.7042 0.080404
32.5282 40.8855 0.0932815
33.1969 49.1683 2
32.1757 39.2734 2
31.0518 41.1881 2
32.2143 46.4187 2
31.273 43.7949 2
31.084 48.0052 4.00046
30.3 39.4568 3.90921
29.8456 41.9751 3.90718
30.3722 44.9814 3.96469
31.9735 51.2404 0.00990449
29.8107 49.7496 2
27.8104 48.2225 3.97729
28.399 51.6461 0.0202128
26.4643 50.0232 2
24.5979 48.5019 3.97474
25.0478 51.7851 0.0280897
23.3024 50.2237 2
21.6105 48.8145 3.97492
21.9347 51.83 0.0279938
20.4337 50.3369 2
19.0028 49.1098 3.97616
16.8716 49.3445 3.97727
16.7533 51.422 3.97505
17.9635 50.3471 2
16.3737 53.8855 3.97679
17.8131 52.8101 2
19.1748 51.6555 0.0273432
15.9671 56.4891 3.98062
17.4231 55.3577 2
18.9037 54.3281 0.0239346
15.7453 59.22 3.98275
17.1276 57.8882 2
18.4365 56.7414 0.0184474
15.7863 62.1436 3.98595
17.133 60.5597 2
18.3635 59.1253 0.0189286
16.0882 65.3017 3.99283
17.4061 63.4737 2
18.6161 61.7756 0.0155544
16.6661 68.6801 4
17.9414 66.6191 2
19.1258 64.6804 0.0111543
18.75 69.9759 2
19.8855 67.8107 0.00646234
20.9142 71.1327 0
20.2166 14.586 3.98382
21.5851 13.5972 2
20.528 11.9902 3.98565
21.1424 9.14405 3.98915
22.1891 11.0203 2
23.0942 12.7773 0.0150586
22.0157 6.08103 3.99332
23.0392 8.17404 2
23.9708 10.1614 0.0132942
23.1494 2.85457 4
24.1163 5.14192 2
25.0213 7.30905 0.0105537
25.446 1.99012 2
26.279 4.32737 0.00636558
27.7943 1.27781 0
32.1826 35.7164 3.92086
33.9907 35.8107 2
35.7503 35.8069 0.0341668
21.3023 15.8183 2
20.2989 16.9528 3.98336
22.0936 16.6241 3.98216
25.3552 13.8958 0.0158112
22.4773 15.023 0.0162082
24.0217 15.6082 0.0166239
25.3773 16.0756 2
23.2609 16.2396 2
24.1997 18.4379 3.98191
27.004 21.4418 3.98476
28.3534 15.963 0.0158653
27.4354 18.784 2
31.0743 33.8049 3.91408
32.5395 34.1097 2
34.0911 34.1876 0.0397637
32.908 32.9773 0.107856
33.7502 31.1148 0.0823634
35.1491 28.8969 0.0935551
37.617 27.2019 0.0281496
35.0516 27.308 2
32.2399 32.2803 2
33.0625 29.7823 2
32.4933 28.0517 3.98547
31.2553 31.2026 3.90902
28.7703 24.384 3.98667
29.5662 21.9194 2
30.2041 19.3245 0.0150083
34.9544 25.1405 -0.0061837
32.306 22.3832 0.0152297
31.6579 25.5869 2
29.5917 27.289 3.97629
30.0171 37.4853 3.91038
32.0426 37.4973 2
33.9478 37.4967 0.0313158
33.1969 49.1842 -0.00806851
32.232 46.4023 0.0347002
32.1783 39.2762 0.0796503
31.283 43.7862 0.092274
31.0682 41.1813 0.0831151
31.0857 48.0055 2
30.2862 39.4652 2
29.8349 41.9826 2
30.3585 44.994 2
29.1051 46.5642 3.99454
28.9116 39.8661 3.90884
28.5837 43.1894 3.96746
29.81 49.7548 0.0166173
27.8113 48.2181 2
25.8766 46.6916 3.98104
26.4634 50.0248 0.0277384
24.5989 48.5017 2
22.7508 47.1102 3.97947
23.3017 50.2237 0.0274681
21.6116 48.8143 2
19.9503 47.6383 3.97831
20.4329 50.3369 0.0274393
19.0036 49.1101 2
17.6473 48.1919 3.97898
16.124 48.6942 3.97939
16.8722 49.3449 2
15.8321 50.1818 3.97643
15.363 52.4278 3.97622
16.7538 51.4223 2
17.9629 50.3468 0.025515
14.8576 54.9889 3.9787
16.3738 53.8859 2
17.8129 52.8099 0.0255754
14.4533 57.7488 3.98216
15.9671 56.4896 2
17.4231 55.3573 0.0213597
14.2639 60.6979 3.98491
15.7454 59.2206 2
17.1275 57.8877 0.0180012
14.3324 63.8609 3.99207
15.7863 62.1441 2
17.1329 60.5591 0.0170433
14.6715 67.2507 4
16.0879 65.3016 2
17.406 63.4731 0.0123911
16.6661 68.6801 2
17.9416 66.6191 0.00678939
18.75 69.9759 0
18.9302 15.7732 3.98312
20.2168 14.5858 2
18.9776 13.101 3.98491
21.5849 13.5973 0.0154796
20.5284 11.99 2
19.3418 10.2316 3.98886
19.9902 7.14568 3.99325
21.1424 9.14374 2
22.1889 11.0206 0.013778
20.9142 3.86727 4
22.0153 6.08102 2
23.0393 8.1744 0.0107119
23.1494 2.85451 2
24.1166 5.14206 0.00653617
25.446 1.99014 0
30.3067 35.5324 3.91205
32.1803 35.7179 2
33.9896 35.8097 0.0287938
21.3021 15.8188 0.0169273
22.0938 16.6237 2
20.299 16.9521 2
19.2372 18.3994 3.98254
21.7774 17.84 3.98237
25.3769 16.0758 0.0158353
23.2605 16.2396 0.0168138
24.1998 18.4379 2
22.2701 19.8806 3.98092
24.5806 21.3082 3.9829
26.3935 23.707 3.98049
27.0041 21.4423 2
27.4356 18.784 0.0153438
29.8431 33.0052 3.9065
31.0593 33.7878 2
32.5414 34.1065 0.0922877
32.2442 32.2757 0.0831527
33.0812 29.8006 0.0925527
35.0643 27.3259 0.0241815
32.4802 28.047 2
31.2588 31.2026 2
30.0453 29.507 3.97603
27.833 26.5254 3.97281
28.7705 24.3887 2
29.5672 21.9186 0.0085056
31.6562 25.5993 0.00599015
29.5845 27.2522 2
28.5664 37.492 3.91421
30.0044 37.4884 2
32.0445 37.4977 0.0834572
31.084 48.0052 -0.000458567
30.3722 44.9814 0.0353063
30.3 39.4568 0.0907914
29.8456 41.9751 0.0928235
29.1077 46.5845 2
28.8994 39.871 2
28.5698 43.1989 2
27.1879 44.8421 3.98043
26.6905 40.6282 3.99453
27.8104 48.2225 0.022708
25.8771 46.6903 2
23.9231 45.2399 3.97332
24.5979 48.5019 0.0252602
22.7519 47.1097 2
20.8858 45.9197 3.97795
21.6105 48.8145 0.0250845
19.9511 47.6387 2
18.2949 46.7523 3.97702
19.0028 49.1098 0.0238433
17.6479 48.1925 2
16.3152 47.7242 3.97896
16.1246 48.6947 2
15.1799 49.0246 3.97762
16.8716 49.3445 0.0227329
15.8326 50.1822 2
14.4776 50.9938 3.97641
13.8195 53.4432 3.97767
15.3633 52.4282 2
16.7533 51.422 0.0249536
13.2475 56.1757 3.98083
14.8576 54.9894 2
16.3737 53.8855 0.0232149
12.8457 59.1315 3.98476
14.4534 57.7493 2
15.9671 56.4891 0.0193755
12.6777 62.3035 3.99097
14.264 60.6982 2
15.7453 59.22 0.0172454
12.7746 65.6939 4
14.3321 63.8607 2
15.7863 62.1436 0.0140546
14.6714 67.2507 2
16.0882 65.3017 0.00717421
16.6661 68.6801 0
17.6637 17.1487 3.98251
18.9302 15.7727 2
17.509 14.3655 3.98404
20.2166 14.586 0.0161771
18.9779 13.1006 2
17.6374 11.4505 3.98803
20.528 11.9902 0.0143492
19.342 10.2313 2
18.0504 8.3385 3.99318
18.75 5.0241 4
19.9899 7.14575 2
21.1424 9.14405 0.0108508
20.9142 3.86727 2
22.0157 6.08103 0.00668323
23.1494 2.85457 0
28.9091 35.1036 3.90788
30.2923 35.5285 2
32.1826 35.7164 0.07914
22.0936 16.6241 0.0178368
20.2989 16.9528 0.0166367
21.7774 17.8394 2
19.2372 18.3987 2
17.9717 19.9315 3.98153
20.8689 19.3678 3.98237
24.1997 18.4379 0.0180917
22.2702 19.8798 2
24.5809 21.3087 2
22.3448 21.7051 3.98243
24.6754 23.153 3.98054
25.4197 25.9345 3.97192
26.3944 23.7064 2
27.004 21.4418 0.0152437
28.226 32.2798 3.95601
29.8347 33.0042 2
31.0743 33.8049 0.0859193
31.2553 31.2026 0.0909843
32.4933 28.0517 0.0145328
30.0208 29.4961 2
26.9486 29.1167 3.98552
27.8287 26.5226 2
28.7703 24.384 0.013332
29.5917 27.289 0.0237101
26.7935 37.3513 3.96943
28.5559 37.4892 2
30.0171 37.4853 0.0896174
29.1051 46.5642 0.00545703
28.5837 43.1894 0.0325388
28.9116 39.8661 0.0911613
27.1909 44.8449 2
26.6848 40.635 2
25.1704 43.1919 3.96905
23.9317 39.4274 3.96876
25.8766 46.6916 0.0189565
23.9209 45.2411 2
21.853 43.9699 3.9766
22.7508 47.1102 0.0205347
20.8867 45.9202 2
18.9536 44.9835 3.97443
19.9503 47.6383 0.0216876
18.2953 46.7532 2
16.6067 46.2231 3.975
17.6473 48.1919 0.0210225
16.3157 47.7248 2
14.911 47.6778 3.97668
16.124 48.6942 0.0206086
15.1804 49.0251 2
13.7768 49.5527 3.97662
15.8321 50.1818 0.0235652
14.4781 50.9943 2
12.8869 51.8801 3.97714
12.1349 54.5326 3.97969
13.8196 53.4437 2
15.363 52.4278 0.0237844
11.5298 57.463 3.98394
13.2475 56.1763 2
14.8576 54.9889 0.0212963
11.1322 60.6296 3.98996
12.8457 59.1318 2
14.4533 57.7488 0.0178369
10.9835 64.0165 4
12.6775 62.3032 2
14.2639 60.6979 0.0150925
12.7745 65.694 2
14.3324 63.8609 0.0079281
14.6715 67.2507 0
16.3953 18.6425 3.98217
17.6637 17.148 2
16.0997 15.7745 3.98376
18.9302 15.7732 0.0168794
17.5091 14.3648 2
16.0191 12.8041 3.98645
18.9776 13.101 0.0150887
17.6377 11.45 2
16.2015 9.66163 3.99288
19.3418 10.2316 0.0111395
18.0501 8.33862 2
16.6661 6.31991 4
18.75 5.02404 2
19.9902 7.14568 0.00675048
20.9142 3.86727 0
27.3033 34.7397 3.95697
28.8959 35.0999 2
30.3067 35.5324 0.0879499
16.6707 21.3672 3.97886
21.7774 17.84 0.0176311
19.2372 18.3994 0.0174622
20.869 19.367 2
17.9718 19.9308 2
19.7121 21.5605 3.9845
22.2701 19.8806 0.0190777
24.5806 21.3082 0.0171024
22.3451 21.7038 2
24.6753 23.1529 2
22.8208 24.5876 3.97598
24.492 28.5112 3.96807
25.417 25.9325 2
26.3935 23.707 0.0195142
26.0683 31.6883 3.99073
28.2158 32.2712 2
29.8431 33.0052 0.0935014
30.0453 29.507 0.0239674
26.9534 29.1167 2
27.833 26.5254 0.0271908
24.6098 36.8514 3.97998
26.7879 37.3556 2
28.5664 37.492 0.0857937
27.1879 44.8421 0.0195665
26.6905 40.6282 0.0054736
25.1674 43.1948 2
23.9291 39.4298 2
22.9014 41.8096 3.97861
21.6653 38.498 3.97314
23.9231 45.2399 0.0266809
21.8535 43.9715 2
19.699 42.8962 3.97427
20.8858 45.9197 0.0220512
18.9534 44.9843 2
16.9331 44.3879 3.97195
18.2949 46.7523 0.022979
16.607 46.2238 2
14.8326 46.0969 3.97397
16.3152 47.7242 0.0210404
14.9114 47.6784 2
13.2853 48.0135 3.97553
15.1799 49.0246 0.0223763
13.7773 49.5532 2
12.107 50.2567 3.97672
14.4776 50.9938 0.0235908
12.8872 51.8806 2
11.131 52.8398 3.9788
10.3202 55.7138 3.98284
12.1349 54.5333 2
13.8195 53.4432 0.0223321
9.69864 58.8516 3.98878
11.5297 57.4636 2
13.2475 56.1757 0.0191745
9.30605 62.2254 4
11.1319 60.6294 2
12.8457 59.1315 0.0152352
10.9835 64.0165 2
12.6777 62.3035 0.00903063
12.7746 65.6939 0
15.1393 20.1768 3.98022
16.3953 18.6419 2
14.7448 17.2971 3.98276
17.6637 17.1487 0.0174879
16.0997 15.7736 2
14.4815 14.286 3.9854
17.509 14.3655 0.015964
16.0193 12.8033 2
14.4442 11.1128 3.99237
17.6374 11.4505 0.0119724
16.2013 9.66169 2
14.6715 7.74927 4
18.0504 8.3385 0.00682091
16.6661 6.31988 2
18.75 5.0241 0
25.2539 34.2522 3.98758
27.2961 34.7389 2
28.9091 35.1036 0.0921219
17.8426 22.3117 3.98514
15.5155 22.9112 3.9763
16.6706 21.3664 2
20.8689 19.3678 0.0176265
17.9717 19.9315 0.0184725
19.7122 21.5596 2
19.6439 24.3647 3.97896
22.3448 21.7051 0.0175652
24.6754 23.153 0.0194606
22.8188 24.5857 2
21.8712 27.8055 3.96915
23.6573 31.1708 3.9713
24.494 28.5107 2
25.4197 25.9345 0.0280755
26.0717 31.6835 2
28.226 32.2798 0.0439914
26.9486 29.1167 0.0144768
22.3868 36.2674 3.97608
24.6064 36.8511 2
26.7935 37.3513 0.0305672
25.1704 43.1919 0.0309542
23.9317 39.4274 0.0312407
22.8998 41.8111 2
21.6657 38.4987 2
20.628 40.6332 3.97422
20.021 37.7786 3.97499
21.853 43.9699 0.0234044
19.6992 42.897 2
17.3263 42.1045 3.97418
18.9536 44.9835 0.0255734
16.9331 44.3885 2
14.8318 44.2056 3.97278
16.6067 46.2231 0.0249992
14.8328 46.0975 2
12.9585 46.2993 3.97361
14.911 47.6778 0.0233176
13.2857 48.014 2
11.4799 48.5521 3.97548
13.7768 49.5527 0.0233791
12.1074 50.2572 2
10.2575 51.0819 3.97796
12.8869 51.8801 0.0228636
11.1312 52.8405 2
9.22925 53.8906 3.98196
8.38215 56.9836 3.98778
10.3201 55.7144 2
12.1349 54.5326 0.0203063
7.74927 60.3285 4
9.69823 58.8513 2
11.5298 57.463 0.0160636
9.306 62.2255 2
11.1322 60.6296 0.010039
10.9835 64.0165 0
13.9512 21.7437 3.97833
15.1393 20.1759 2
13.4449 18.8941 3.98154
16.3953 18.6425 0.0178299
14.7449 17.2964 2
13.0266 15.8787 3.98474
16.0997 15.7745 0.0162406
14.4815 14.2852 2
12.7816 12.686 3.99147
16.0191 12.8041 0.0135547
14.444 11.1128 2
12.7746 9.30605 4
16.2015 9.66163 0.00711524
14.6715 7.74924 2
16.6661 6.31991 0
22.9724 33.7877 3.97371
25.2479 34.2507 2
27.3033 34.7397 0.0430349
17.611 24.0303 3.97863
17.8423 22.3107 2
14.2986 24.4437 3.97472
15.5149 22.91 2
16.6707 21.3672 0.0211372
19.0049 27.1847 3.96781
19.7121 21.5605 0.0154973
19.6423 24.3641 2
21.1045 30.6466 3.97121
22.8208 24.5876 0.0240236
21.872 27.805 2
23.6527 31.1709 2
24.492 28.5112 0.0319297
26.0683 31.6883 0.00926841
20.1504 35.9147 3.97499
22.3835 36.2684 2
24.6098 36.8514 0.020022
22.9014 41.8096 0.0213891
21.6653 38.498 0.0268607
20.626 40.6334 2
20.0197 37.7789 2
18.0072 39.0009 3.97357
19.699 42.8962 0.0257307
17.3265 42.1051 2
14.7789 41.9211 3.97308
16.9331 44.3879 0.0280535
14.8318 44.2061 2
12.6971 44.395 3.97331
14.8326 46.0969 0.026033
12.9587 46.2998 2
10.9827 46.735 3.97397
13.2853 48.0135 0.0244701
11.4802 48.5527 2
9.52192 49.2404 3.97665
12.107 50.2567 0.0232753
10.2578 51.0824 2
8.26264 52.0024 3.98105
11.131 52.8398 0.0211995
9.22934 53.8911 2
7.19115 55.0329 3.98728
6.31991 58.3339 4
8.38164 56.9827 2
10.3202 55.7138 0.0171615
7.74924 60.3285 2
9.69864 58.8516 0.0112217
9.30605 62.2254 0
13.2203 25.3569 3.98035
12.8188 23.2737 3.97688
13.9508 21.7425 2
12.2299 20.5436 3.98047
15.1393 20.1768 0.0197828
13.4449 18.8932 2
11.656 17.5596 3.98441
14.7448 17.2971 0.0172385
13.0267 15.878 2
11.219 14.3707 3.99027
14.4815 14.286 0.0146005
12.7814 12.6861 2
10.9835 10.9835 4
14.4442 11.1128 0.00763309
12.7745 9.306 2
14.6715 7.74927 0
20.5299 33.3818 3.97292
22.9711 33.7887 2
25.2539 34.2522 0.0124246
15.8856 26.3918 3.97166
17.6099 24.0294 2
17.8426 22.3117 0.0148615
14.2982 24.4432 2
15.5155 22.9112 0.0237002
18.3404 30.1582 3.96986
19.0052 27.1844 2
19.6439 24.3647 0.0210368
21.1012 30.646 2
21.8712 27.8055 0.0308484
23.6573 31.1708 0.0287029
17.6494 35.9589 3.97287
20.1478 35.9149 2
22.3868 36.2674 0.0239247
20.628 40.6332 0.0257811
20.021 37.7786 0.0250105
18.0062 39.0011 2
14.2903 39.1758 3.97196
17.3263 42.1045 0.0258248
14.779 41.9215 2
12.3842 42.2788 3.97246
14.8318 44.2056 0.0272197
12.6971 44.3956 2
10.5591 44.8037 3.97395
12.9585 46.2993 0.0263876
10.9829 46.7355 2
8.90541 47.3188 3.97529
11.4799 48.5521 0.0245212
9.52226 49.2409 2
7.43033 50.0347 3.97972
10.2575 51.0819 0.0220392
8.26292 52.0026 2
6.13184 53.0066 3.98708
9.22925 53.8906 0.0180424
7.19072 55.0315 2
5.0241 56.25 4
6.31988 58.3339 2
8.38215 56.9836 0.0122164
7.74927 60.3285 0
13.4582 26.8075 3.97314
11.9337 24.7839 3.97578
13.22 25.3565 2
11.1333 22.2295 3.97891
12.8186 23.2729 2
13.9512 21.7437 0.0216727
12.2297 20.5424 2
10.3859 19.3149 3.98373
13.4449 18.8941 0.0184559
11.6559 17.5588 2
9.75972 16.1543 3.9891
13.0266 15.8787 0.0152603
11.2187 14.3708 2
9.30607 12.7746 4
12.7816 12.686 0.00852588
10.9835 10.9835 2
12.7746 9.30605 0
17.8156 33.1014 3.97183
20.5285 33.3819 2
22.9724 33.7877 0.0262903
15.4714 29.6282 3.97183
15.8854 26.3916 2
17.611 24.0303 0.0213724
14.2986 24.4437 0.0252817
18.3398 30.1582 2
19.0049 27.1847 0.0321892
21.1045 30.6466 0.0287948
14.8952 36.0146 3.97195
17.6476 35.959 2
20.1504 35.9147 0.0250115
12.589 37.8282 3.97185
18.0072 39.0009 0.0264339
14.2898 39.1761 2
11.9009 40.1409 3.97128
14.7789 41.9211 0.0269193
12.3843 42.2792 2
10.1582 42.779 3.97314
12.6971 44.395 0.0266933
10.5591 44.8042 2
8.38317 45.3208 3.97519
10.9827 46.735 0.0260298
8.90562 47.3193 2
6.72239 47.9993 3.97844
9.52192 49.2404 0.0233478
7.43063 50.0348 2
5.20885 50.909 3.9868
8.26264 52.0024 0.0189536
6.13163 53.0052 2
3.86727 54.0858 4
7.19115 55.0329 0.0127208
5.02404 56.25 2
6.31991 58.3339 0
12.9128 29.0271 3.97036
11.3647 26.4846 3.97425
13.4581 26.8071 2
10.1938 23.9651 3.97689
11.9335 24.7833 2
13.2203 25.3569 0.0196505
9.23834 21.135 3.98226
11.1332 22.2286 2
12.8188 23.2737 0.0231175
12.2299 20.5436 0.0195269
10.3858 19.3138 2
8.41545 18.0258 3.98828
11.656 17.5596 0.0155859
9.75937 16.1544 2
7.74928 14.6715 4
11.219 14.3707 0.00972793
9.30602 12.7745 2
10.9835 10.9835 0
14.4655 32.8566 3.97208
17.8172 33.1013 2
20.5299 33.3818 0.0270776
15.4713 29.6281 2
15.8856 26.3918 0.0283375
18.3404 30.1582 0.0301434
12.8808 36.207 3.97133
14.8947 36.0147 2
17.6494 35.9589 0.0271339
12.5888 37.8282 2
11.261 38.3091 3.97133
14.2903 39.1758 0.0280401
11.9007 40.1411 2
9.74623 40.7545 3.97176
12.3842 42.2788 0.0275351
10.1583 42.7794 2
7.93241 43.2698 3.97456
10.5591 44.8037 0.0260511
8.38324 45.3212 2
6.12873 45.9044 3.97819
8.90541 47.3188 0.0247079
6.7226 47.9994 2
4.42078 48.7496 3.98636
7.43033 50.0347 0.0202771
5.2088 50.908 2
2.85457 51.8506 4
6.13184 53.0066 0.0129211
3.86727 54.0858 2
5.0241 56.25 0
12.0545 31.2523 3.97142
10.7773 28.4123 3.97284
12.9127 29.0269 2
9.40976 25.7967 3.97558
11.3646 26.4842 2
13.4582 26.8075 0.0268624
8.22629 23.0218 3.98016
10.1938 23.9644 2
11.9337 24.7839 0.0242216
7.19758 19.9767 3.98751
9.23831 21.1342 2
11.1333 22.2295 0.0210902
10.3859 19.3149 0.0162682
8.41495 18.0263 2
6.31992 16.6661 4
9.75972 16.1543 0.0109006
7.74926 14.6714 2
9.30607 12.7746 0
12.0755 34.2921 3.9715
14.4655 32.8566 2
17.8156 33.1014 0.028166
15.4714 29.6282 0.0281713
10.8241 36.6099 3.97119
12.8809 36.207 2
14.8952 36.0146 0.0280476
12.589 37.8282 0.0281456
11.261 38.3092 2
9.34379 38.823 3.97088
11.9009 40.1409 0.0287194
9.74613 40.7548 2
7.54551 41.2107 3.97309
10.1582 42.779 0.0268584
7.93249 43.2702 2
5.64081 43.7676 3.97809
8.38317 45.3208 0.024809
6.12883 45.9045 2
3.76664 46.5359 3.98622
6.72239 47.9993 0.0215588
4.42079 48.749 2
1.99014 49.554 4
5.20885 50.909 0.0132031
2.85451 51.8506 2
3.86727 54.0858 0
10.9178 32.9166 3.97203
10.0911 30.38 3.97249
12.0544 31.2522 2
8.71821 27.7309 3.9748
10.7772 28.4121 2
12.9128 29.0271 0.0296448
7.3525 24.982 3.97883
9.40976 25.7963 2
11.3647 26.4846 0.0257522
6.11473 22.0017 3.98662
8.22641 23.0214 2
10.1938 23.9651 0.0231072
5.02411 18.75 4
7.19713 19.9778 2
9.23834 21.135 0.0177441
8.41545 18.0258 0.0117201
6.3199 16.6661 2
7.74928 14.6715 0
10.4337 34.9986 3.97151
12.0754 34.2921 2
14.4655 32.8566 0.0279155
9.01588 36.9843 3.97087
10.8244 36.61 2
12.8808 36.207 0.02867
11.261 38.3091 0.0286677
9.3438 38.8231 2
7.22849 39.181 3.97184
9.74623 40.7545 0.0282425
7.54549 41.211 2
5.25725 41.6133 3.97673
7.93241 43.2698 0.0254391
5.64087 43.7676 2
3.24451 44.2814 3.98593
6.12873 45.9044 0.0218075
3.76669 46.5358 2
1.27781 47.2057 4
4.42078 48.7496 0.0136359
1.99012 49.554 2
2.85457 51.8506 0
10.0854 33.8799 3.97218
9.38525 32.1527 3.97293
10.9177 32.9165 2
8.06818 29.6948 3.97403
10.091 30.3799 2
12.0545 31.2523 0.0285796
6.59655 27.0085 3.97812
8.71818 27.7307 2
10.7773 28.4123 0.0271584
5.17022 24.0956 3.98623
7.35261 24.9819 2
9.40976 25.7967 0.0244215
3.86728 20.9142 4
6.1145 22.003 2
8.22629 23.0218 0.0198402
5.02406 18.75 2
7.19758 19.9767 0.0124898
6.31992 16.6661 0
8.84218 35.2785 3.97127
10.4337 34.9986 2
12.0755 34.2921 0.0285046
7.01274 37.2052 3.97197
9.0159 36.9843 2
10.8241 36.6099 0.0288129
9.34379 38.823 0.0291168
7.22853 39.1811 2
4.98666 39.4666 3.97493
7.54551 41.2107 0.0269138
5.25727 41.6133 2
2.85542 42.002 3.9848
5.64081 43.7676 0.0219081
3.24455 44.2817 2
0.720592 44.8159 4
3.76664 46.5359 0.0137757
1.27778 47.2057 2
1.99014 49.554 0
8.88276 33.6964 3.97239
10.0854 33.8798 2
7.50666 31.6087 3.97387
9.38514 32.1525 2
10.9178 32.9166 0.0279681
5.94223 29.0698 3.97746
8.06812 29.6947 2
10.0911 30.38 0.0275138
4.35806 26.2484 3.98608
6.59659 27.0085 2
8.71821 27.7309 0.0252032
2.85458 23.1494 4
5.1701 24.0966 2
7.3525 24.982 0.0211672
3.86728 20.9142 2
6.11473 22.0017 0.0133785
5.02411 18.75 0
6.96304 35.3056 3.97207
8.84221 35.2784 2
10.4337 34.9986 0.02849
4.83715 37.3394 3.97506
7.01276 37.2052 2
9.01588 36.9843 0.0291345
7.22849 39.181 0.0281587
4.98669 39.4667 2
2.60409 39.7138 3.9831
5.25725 41.6133 0.0232664
2.8555 42.0025 2
0.320823 42.3947 4
3.24451 44.2814 0.0140671
0.720551 44.8159 2
1.27781 47.2057 0
7.1218 33.4605 3.97327
8.88268 33.6963 2
10.0854 33.8799 0.0278172
5.41383 31.1338 3.97698
7.50653 31.6086 2
9.38525 32.1527 0.0270653
3.68006 28.4441 3.98568
5.94221 29.0699 2
8.06818 29.6948 0.0259698
1.99015 25.446 4
4.35799 26.249 2
6.59655 27.0085 0.021882
2.85453 23.1494 2
5.17022 24.0956 0.0137696
3.86728 20.9142 0
4.85152 35.2515 3.97515
6.96308 35.3056 2
8.84218 35.2785 0.0287275
2.49562 37.4284 3.98311
4.83717 37.3395 2
7.01274 37.2052 0.0280324
4.98666 39.4666 0.0250707
2.60416 39.7144 2
0.080333 39.9526 4
2.85542 42.002 0.0151969
0.320817 42.3947 2
0.720592 44.8159 0
5.04417 33.1904 3.97618
7.12173 33.4605 2
8.88276 33.6964 0.0276138
3.14474 30.6665 3.98483
5.41371 31.134 2
7.50666 31.6087 0.0261259
1.27793 27.7943 4
3.68004 28.4444 2
5.94223 29.0698 0.0225401
1.99013 25.446 2
4.35806 26.2484 0.013922
2.85458 23.1494 0
2.54778 35.159 3.98314
4.85155 35.2517 2
6.96304 35.3056 0.0279309
0 37.5 4
2.4957 37.429 2
4.83715 37.3394 0.0249424
2.60409 39.7138 0.0169014
0.0802903 39.9526 2
0.320823 42.3947 0
2.76513 32.9058 3.98385
5.04409 33.1906 2
7.1218 33.4605 0.0267299
0.721173 30.1842 4
3.1447 30.6665 2
5.41383 31.1338 0.0230228
1.27779 27.7943 2
3.68006 28.4441 0.0143224
1.99015 25.446 0
0.0806499 35.0474 4
2.54786 35.1595 2
4.85152 35.2515 0.0248464
0 37.5 2
2.49562 37.4284 0.0168852
0.080333 39.9526 0
0.32156 32.6054 4
2.76513 32.9061 2
5.04417 33.1904 0.0238173
0.72056 30.1841 2
3.14474 30.6665 0.0151725
1.27793 27.7943 0
0.0802889 35.0474 2
2.54778 35.159 0.0168604
0 37.5 0
0.320817 32.6053 2
2.76513 32.9058 0.0161463
0.721173 30.1842 0
0.0806499 35.0474 0
0.32156 32.6054 0
CELLS 1910 17190
8 18 6 25 56 2 0 5 16
8 57 23 6 18 17 4 0 2
8 78 36 9 29 31 11 1 7
8 31 11 1 7 79 37 10 30
8 110 57 18 50 48 17 2 14
8 50 18 56 111 14 2 16 49
8 116 62 22 55 52 20 3 15
8 56 25 67 118 16 5 24 53
8 119 63 23 57 54 21 4 17
8 55 22 63 119 15 3 21 54
8 58 26 68 121 18 6 25 56
8 122 65 26 58 57 23 6 18
8 73 31 7 27 142 79 30 71
8 143 78 29 72 73 31 7 27
8 83 147 76 34 32 74 28 8
8 84 148 78 36 33 75 29 9
8 76 34 8 28 148 84 33 75
8 37 79 150 86 10 30 77 35
8 151 87 36 78 80 38 11 31
8 80 38 11 31 152 88 37 79
8 175 100 42 94 96 44 12 40
8 44 96 176 101 12 40 95 43
8 101 176 98 46 43 95 41 13
8 46 98 178 103 13 41 97 45
8 178 103 45 97 147 83 32 74
8 189 116 55 109 106 52 15 47
8 111 56 118 191 49 16 53 107
8 192 119 57 110 108 54 17 48
8 109 55 119 192 47 15 54 108
8 194 122 58 112 110 57 18 50
8 112 58 121 195 50 18 56 111
8 115 61 19 51 197 124 59 113
8 115 61 125 198 51 19 60 114
8 198 125 62 116 114 60 20 52
8 200 127 64 120 116 62 22 55
8 118 67 132 202 53 24 66 117
8 121 68 133 203 56 25 67 118
8 120 64 128 204 55 22 63 119
8 204 128 65 122 119 63 23 57
8 206 134 68 121 123 69 26 58
8 123 69 26 58 207 131 65 122
8 226 147 74 138 140 76 28 70
8 229 148 75 139 143 78 29 72
8 140 76 28 70 229 148 75 139
8 142 79 30 71 231 150 77 141
8 144 80 31 73 232 152 79 142
8 233 151 78 143 144 80 31 73
8 150 86 35 77 235 154 81 145
8 235 154 81 145 146 82 39 91
8 146 82 39 91 236 155 90 165
8 238 157 83 147 149 85 34 76
8 239 158 84 148 151 87 36 78
8 149 85 34 76 239 158 84 148
8 152 88 37 79 241 160 86 150
8 242 161 87 151 153 89 38 80
8 153 89 38 80 243 162 88 152
8 171 98 41 92 265 178 97 169
8 265 178 97 169 226 147 74 138
8 172 96 40 93 266 176 95 170
8 266 176 95 170 171 98 41 92
8 269 175 94 173 172 96 40 93
8 271 180 99 174 175 100 42 94
8 197 124 59 113 271 180 99 174
8 272 181 100 175 177 102 44 96
8 273 182 101 176 179 104 46 98
8 177 102 44 96 273 182 101 176
8 179 104 46 98 275 184 103 178
8 275 184 103 178 238 157 83 147
8 188 115 51 105 283 197 113 186
8 188 115 198 284 105 51 114 187
8 284 198 116 189 187 114 52 106
8 286 200 120 193 189 116 55 109
8 191 118 202 288 107 53 117 190
8 195 121 203 289 111 56 118 191
8 193 120 204 290 109 55 119 192
8 290 204 122 194 192 119 57 110
8 196 123 58 112 292 207 122 194
8 293 206 121 195 196 123 58 112
8 199 126 61 115 297 211 124 197
8 298 212 127 200 198 125 62 116
8 199 126 212 298 115 61 125 198
8 205 129 64 120 300 214 127 200
8 301 217 130 201 202 132 66 117
8 209 136 168 264 301 217 130 201
8 302 219 132 202 203 133 67 118
8 303 220 133 203 206 134 68 121
8 205 129 215 304 120 64 128 204
8 304 215 131 207 204 128 65 122
8 306 221 134 206 208 135 69 123
8 208 135 69 123 307 218 131 207
8 210 137 167 263 309 223 136 209
8 328 238 147 226 230 149 76 140
8 228 146 91 166 329 236 165 260
8 231 150 77 141 330 235 145 227
8 330 235 145 227 228 146 91 166
8 332 239 148 229 233 151 78 143
8 230 149 76 140 332 239 148 229
8 232 152 79 142 334 241 150 231
8 234 153 80 144 335 243 152 232
8 336 242 151 233 234 153 80 144
8 236 155 90 165 338 245 164 259
8 241 160 86 150 339 246 154 235
8 339 246 154 235 237 156 82 146
8 237 156 82 146 340 247 155 236
8 342 249 157 238 240 159 85 149
8 343 250 158 239 242 161 87 151
8 240 159 85 149 343 250 158 239
8 243 162 88 152 345 252 160 241
8 244 163 253 346 153 89 161 242
8 244 163 89 153 347 254 162 243
8 311 224 261 371 210 137 167 263
8 263 167 262 372 209 136 168 264
8 267 179 98 171 375 275 178 265
8 375 275 178 265 328 238 147 226
8 376 273 176 266 267 179 98 171
8 268 177 96 172 376 273 176 266
8 379 272 175 269 268 177 96 172
8 380 271 174 270 269 175 94 173
8 283 197 113 186 380 271 174 270
8 381 277 180 271 272 181 100 175
8 297 211 124 197 381 277 180 271
8 382 278 181 272 274 183 102 177
8 274 183 102 177 383 279 182 273
8 383 279 182 273 276 185 104 179
8 385 281 184 275 342 249 157 238
8 276 185 104 179 385 281 184 275
8 285 199 115 188 393 297 197 283
8 394 298 200 286 284 198 116 189
8 285 199 298 394 188 115 198 284
8 291 205 120 193 396 300 200 286
8 397 301 201 287 288 202 117 190
8 295 209 264 374 397 301 201 287
8 398 302 202 288 289 203 118 191
8 399 303 203 289 293 206 121 195
8 291 205 304 400 193 120 204 290
8 400 304 207 292 290 204 122 194
8 294 208 123 196 402 307 207 292
8 403 306 206 293 294 208 123 196
8 296 210 263 373 405 309 209 295
8 408 312 213 299 297 211 126 199
8 299 213 313 409 199 126 212 298
8 409 313 214 300 298 212 127 200
8 305 216 129 205 411 315 214 300
8 412 318 217 301 302 219 132 202
8 309 223 136 209 412 318 217 301
8 413 320 219 302 303 220 133 203
8 306 221 321 414 206 134 220 303
8 307 218 131 207 415 316 215 304
8 305 216 316 415 205 129 215 304
8 417 322 221 306 308 222 135 208
8 308 222 135 208 418 319 218 307
8 310 225 137 210 420 325 223 309
8 423 326 224 311 310 225 137 210
8 329 236 165 260 441 338 259 368
8 442 342 238 328 333 240 149 230
8 331 237 146 228 443 340 236 329
8 334 241 150 231 444 339 235 330
8 444 339 235 330 331 237 146 228
8 446 343 239 332 336 242 151 233
8 333 240 149 230 446 343 239 332
8 335 243 152 232 448 345 241 334
8 337 244 153 234 449 347 243 335
8 337 244 346 450 234 153 242 336
8 338 245 164 259 452 349 258 367
8 340 247 155 236 453 350 245 338
8 345 252 160 241 454 351 246 339
8 454 351 246 339 341 248 156 237
8 341 248 156 237 455 352 247 340
8 240 159 251 344 342 249 354 457
8 242 161 253 346 343 250 355 458
8 343 250 355 458 240 159 251 344
8 347 254 162 243 460 357 252 345
8 348 255 358 461 244 163 253 346
8 348 255 163 244 462 359 254 347
8 473 360 257 365 363 256 364 482
8 452 349 258 367 365 257 366 485
8 422 324 369 488 311 224 261 371
8 371 261 370 490 263 167 262 372
8 407 311 371 491 296 210 263 373
8 373 263 372 492 295 209 264 374
8 493 385 275 375 442 342 238 328
8 377 276 179 267 493 385 275 375
8 378 274 177 268 494 383 273 376
8 494 383 273 376 377 276 179 267
8 497 382 272 379 378 274 177 268
8 498 381 271 380 379 272 175 269
8 393 297 197 283 498 381 271 380
8 499 387 277 381 382 278 181 272
8 408 312 211 297 499 387 277 381
8 500 388 278 382 384 280 183 274
8 501 389 279 383 386 282 185 276
8 384 280 183 274 501 389 279 383
8 386 282 185 276 503 391 281 385
8 503 391 281 385 457 354 249 342
8 511 408 299 395 393 297 199 285
8 395 299 409 512 285 199 298 394
8 512 409 300 396 394 298 200 286
8 401 305 205 291 514 411 300 396
8 515 412 301 397 398 302 202 288
8 405 309 209 295 515 412 301 397
8 516 413 302 398 399 303 203 289
8 403 306 414 517 293 206 303 399
8 402 307 207 292 518 415 304 400
8 401 305 415 518 291 205 304 400
8 404 308 208 294 520 418 307 402
8 521 417 306 403 404 308 208 294
8 406 310 210 296 523 420 309 405
8 526 423 311 407 406 310 210 296
8 410 314 213 299 527 424 312 408
8 528 425 315 411 409 313 214 300
8 410 314 425 528 299 213 313 409
8 416 317 216 305 530 427 315 411
8 531 430 318 412 413 320 219 302
8 420 325 223 309 531 430 318 412
8 532 432 320 413 414 321 220 303
8 417 322 433 533 306 221 321 414
8 418 319 218 307 534 428 316 415
8 416 317 428 534 305 216 316 415
8 419 323 434 536 308 222 322 417
8 419 323 222 308 537 431 319 418
8 421 327 225 310 539 438 325 420
8 421 327 439 541 310 225 326 423
8 543 437 324 422 423 326 224 311
8 441 338 259 368 559 452 367 486
8 443 340 236 329 560 453 338 441
8 333 240 344 447 442 342 457 561
8 445 341 237 331 562 455 340 443
8 448 345 241 334 563 454 339 444
8 563 454 339 444 445 341 237 331
8 336 242 346 450 446 343 458 565
8 446 343 458 565 333 240 344 447
8 449 347 243 335 567 460 345 448
8 451 348 244 337 568 462 347 449
8 451 348 461 569 337 244 346 450
8 570 463 349 452 473 360 257 365
8 453 350 245 338 570 463 349 452
8 455 352 247 340 571 464 350 453
8 460 357 252 345 572 465 351 454
8 572 465 351 454 456 353 248 341
8 456 353 248 341 573 466 352 455
8 344 251 356 459 457 354 468 575
8 458 355 469 576 344 251 356 459
8 346 253 358 461 458 355 469 576
8 462 359 254 347 578 471 357 460
8 348 255 359 462 461 358 472 579
8 591 474 360 473 475 361 256 363
8 475 361 256 363 594 477 362 479
8 363 256 364 482 479 362 480 603
8 590 473 365 484 481 363 482 605
8 482 364 257 365 606 483 366 485
8 559 452 367 486 484 365 485 607
8 542 436 487 609 422 324 369 488
8 525 422 488 611 407 311 371 491
8 488 369 489 612 371 261 370 490
8 491 371 490 613 373 263 372 492
8 495 386 276 377 614 503 385 493
8 614 503 385 493 561 457 342 442
8 615 501 383 494 495 386 276 377
8 496 384 274 378 615 501 383 494
8 618 500 382 497 496 384 274 378
8 619 499 381 498 497 382 272 379
8 511 408 297 393 619 499 381 498
8 620 505 387 499 500 388 278 382
8 527 424 312 408 620 505 387 499
8 502 390 506 621 384 280 388 500
8 622 507 389 501 504 392 282 386
8 502 390 280 384 622 507 389 501
8 504 392 282 386 624 509 391 503
8 624 509 391 503 575 468 354 457
8 513 410 299 395 630 527 408 511
8 631 528 411 514 512 409 300 396
8 513 410 528 631 395 299 409 512
8 519 416 305 401 633 530 411 514
8 634 531 412 515 516 413 302 398
8 523 420 309 405 634 531 412 515
8 635 532 413 516 517 414 303 399
8 521 417 533 636 403 306 414 517
8 520 418 307 402 637 534 415 518
8 519 416 534 637 401 305 415 518
8 522 419 308 404 639 537 418 520
8 522 419 536 640 404 308 417 521
8 524 421 310 406 642 539 420 523
8 524 421 541 644 406 310 423 526
8 646 543 422 525 526 423 311 407
8 529 426 314 410 647 544 424 527
8 528 425 545 648 411 315 427 530
8 529 426 545 648 410 314 425 528
8 535 429 317 416 649 546 427 530
8 650 548 430 531 532 432 320 413
8 539 438 325 420 650 548 430 531
8 533 433 550 651 414 321 432 532
8 536 434 551 652 417 322 433 533
8 537 431 319 418 653 547 428 534
8 535 429 547 653 416 317 428 534
8 538 435 552 654 419 323 434 536
8 538 435 323 419 655 549 431 537
8 540 440 327 421 657 556 438 539
8 540 440 557 659 421 327 439 541
8 541 439 555 660 423 326 437 543
8 661 554 436 542 543 437 324 422
8 676 570 452 559 590 473 365 484
8 560 453 338 441 676 570 452 559
8 562 455 340 443 677 571 453 560
8 447 344 459 566 561 457 575 678
8 564 456 341 445 679 573 455 562
8 567 460 345 448 680 572 454 563
8 680 572 454 563 564 456 341 445
8 565 458 576 682 447 344 459 566
8 450 346 461 569 565 458 576 682
8 568 462 347 449 684 578 460 567
8 451 348 462 568 569 461 579 685
8 686 580 463 570 591 474 360 473
8 571 464 350 453 686 580 463 570
8 573 466 352 455 687 581 464 571
8 572 465 582 688 460 357 471 578
8 574 467 582 688 456 353 465 572
8 574 467 353 456 689 583 466 573
8 459 356 470 577 575 468 585 691
8 576 469 586 692 459 356 470 577
8 461 358 472 579 576 469 586 692
8 462 359 471 578 579 472 588 694
8 704 591 473 590 593 475 363 481
8 595 476 592 705 475 361 474 591
8 593 475 363 481 707 594 479 602
8 594 477 362 479 709 598 478 600
8 595 476 361 475 711 597 477 594
8 479 362 480 603 600 478 601 720
8 481 363 482 605 602 479 603 722
8 603 480 364 482 723 604 483 606
8 605 482 365 484 724 606 485 607
8 656 553 608 726 542 436 487 609
8 645 542 609 728 525 422 488 611
8 609 487 610 729 488 369 489 612
8 611 488 612 730 491 371 490 613
8 616 504 386 495 731 624 503 614
8 731 624 503 614 678 575 457 561
8 732 622 501 615 616 504 386 495
8 617 502 384 496 732 622 501 615
8 617 502 621 735 496 384 500 618
8 736 620 499 619 618 500 382 497
8 630 527 408 511 736 620 499 619
8 621 506 626 737 500 388 505 620
8 647 544 424 527 737 626 505 620
8 623 508 627 738 502 390 506 621
8 623 508 390 502 739 628 507 622
8 625 510 628 739 504 392 507 622
8 740 629 509 624 691 585 468 575
8 625 510 392 504 740 629 509 624
8 632 529 410 513 744 647 527 630
8 631 528 648 745 514 411 530 633
8 632 529 648 745 513 410 528 631
8 638 535 416 519 746 649 530 633
8 747 650 531 634 635 532 413 516
8 642 539 420 523 747 650 531 634
8 636 533 651 748 517 414 532 635
8 640 536 652 749 521 417 533 636
8 639 537 418 520 750 653 534 637
8 638 535 653 750 519 416 534 637
8 641 538 419 522 751 655 537 639
8 641 538 654 752 522 419 536 640
8 643 540 421 524 753 657 539 642
8 643 540 659 755 524 421 541 644
8 644 541 660 757 526 423 543 646
8 758 661 542 645 646 543 422 525
8 529 426 544 647 648 545 662 759
8 530 427 545 648 649 546 663 760
8 535 429 546 649 653 547 664 761
8 762 666 548 650 651 550 432 532
8 657 556 438 539 762 666 548 650
8 652 551 668 763 533 433 550 651
8 654 552 669 764 536 434 551 652
8 655 549 431 537 765 665 547 653
8 538 435 549 655 654 552 667 766
8 661 554 671 768 542 436 553 656
8 658 558 440 540 769 674 556 657
8 658 558 675 770 540 440 557 659
8 659 557 673 771 541 439 555 660
8 660 555 672 772 543 437 554 661
8 788 686 570 676 704 591 473 590
8 677 571 453 560 788 686 570 676
8 679 573 455 562 789 687 571 677
8 566 459 577 683 678 575 691 790
8 681 574 456 564 791 689 573 679
8 680 572 688 792 567 460 578 684
8 681 574 688 792 564 456 572 680
8 682 576 692 794 566 459 577 683
8 569 461 579 685 682 576 692 794
8 568 462 578 684 685 579 694 796
8 687 581 464 571 798 696 580 686
8 798 696 580 686 705 592 474 591
8 689 583 466 573 799 697 581 687
8 688 582 698 800 578 471 588 694
8 690 584 698 800 574 467 582 688
8 690 584 467 574 801 699 583 689
8 693 587 701 803 577 470 585 691
8 693 587 470 577 804 702 586 692
8 695 589 702 804 579 472 586 692
8 695 589 472 579 805 703 588 694
8 708 595 705 813 593 475 591 704
8 710 596 706 814 595 476 592 705
8 707 594 479 602 816 709 600 719
8 708 595 475 593 817 711 594 707
8 709 598 478 600 819 715 599 717
8 711 597 477 594 820 714 598 709
8 710 596 476 595 822 713 597 711
8 600 478 601 720 717 599 718 832
8 602 479 603 722 719 600 720 834
8 720 601 480 603 835 721 604 723
8 722 603 482 605 836 723 606 724
8 767 670 725 839 656 553 608 726
8 756 656 726 841 645 542 609 728
8 726 608 727 842 609 487 610 729
8 728 609 729 843 611 488 612 730
8 844 740 624 731 790 691 575 678
8 733 625 504 616 844 740 624 731
8 734 623 502 617 845 739 622 732
8 733 625 739 845 616 504 622 732
8 734 623 738 846 617 502 621 735
8 735 621 737 847 618 500 620 736
8 744 647 527 630 847 737 620 736
8 621 506 627 738 737 626 741 848
8 647 544 626 737 759 662 741 848
8 623 508 628 739 738 627 742 849
8 740 629 585 691 850 743 700 802
8 625 510 629 740 739 628 743 850
8 632 529 647 744 745 648 759 854
8 633 530 648 745 746 649 760 855
8 638 535 649 746 750 653 761 856
8 857 762 650 747 748 651 532 635
8 753 657 539 642 857 762 650 747
8 749 652 763 858 636 533 651 748
8 752 654 764 859 640 536 652 749
8 751 655 537 639 860 765 653 750
8 641 538 655 751 752 654 766 861
8 754 658 540 643 862 769 657 753
8 754 658 770 863 643 540 659 755
8 755 659 771 864 644 541 660 757
8 758 661 768 866 645 542 656 756
8 757 660 772 867 646 543 661 758
8 759 662 773 868 648 545 663 760
8 649 546 663 760 761 664 774 871
8 765 665 547 653 872 775 664 761
8 873 777 666 762 763 668 550 651
8 769 674 556 657 873 777 666 762
8 764 669 779 874 652 551 668 763
8 654 552 667 766 764 669 778 875
8 655 549 665 765 766 667 776 876
8 768 671 782 877 656 553 670 767
8 772 672 783 878 661 554 671 768
8 658 558 674 769 770 675 786 879
8 659 557 675 770 771 673 785 881
8 882 784 672 772 771 673 555 660
8 789 687 571 677 897 798 686 788
8 897 798 686 788 813 705 591 704
8 791 689 573 679 898 799 687 789
8 795 693 803 900 683 577 691 790
8 793 690 574 681 901 801 689 791
8 792 688 800 902 684 578 694 796
8 793 690 800 902 681 574 688 792
8 795 693 577 683 903 804 692 794
8 797 695 804 903 685 579 692 794
8 797 695 579 685 904 805 694 796
8 905 806 697 799 798 696 581 687
8 814 706 806 905 705 592 696 798
8 689 583 697 799 801 699 808 907
8 800 698 809 908 694 588 703 805
8 690 584 699 801 800 698 809 908
8 803 701 810 909 691 585 700 802
8 693 587 702 804 803 701 811 910
8 695 589 703 805 804 702 812 911
8 818 710 814 919 708 595 705 813
8 821 712 815 920 710 596 706 814
8 816 709 600 719 922 819 717 831
8 817 711 594 707 923 820 709 816
8 818 710 595 708 924 822 711 817
8 819 715 599 717 926 827 716 829
8 820 714 598 709 927 826 715 819
8 929 825 713 822 820 714 597 711
8 821 712 596 710 930 824 713 822
8 717 599 718 832 829 716 830 942
8 719 600 720 834 831 717 832 944
8 832 718 601 720 945 833 721 835
8 834 720 603 722 946 835 723 836
8 869 780 838 950 767 670 725 839
8 865 767 839 952 756 656 726 841
8 839 725 840 953 726 608 727 842
8 841 726 842 954 728 609 729 843
8 844 740 691 790 955 850 802 899
8 733 625 740 844 845 739 850 955
8 734 623 739 845 846 738 849 956
8 735 621 738 846 847 737 848 957
8 744 647 737 847 854 759 848 957
8 738 627 742 849 848 741 851 958
8 848 741 851 958 759 662 773 868
8 850 743 700 802 959 852 807 906
8 849 742 628 739 959 852 743 850
8 854 759 868 965 745 648 760 855
8 746 649 760 855 856 761 871 966
8 860 765 653 750 967 872 761 856
8 968 873 762 857 858 763 651 748
8 862 769 657 753 968 873 762 857
8 859 764 874 969 749 652 763 858
8 752 654 766 861 859 764 875 970
8 751 655 765 860 861 766 876 971
8 754 658 769 862 863 770 879 972
8 755 659 770 863 864 771 881 974
8 976 882 772 867 864 771 660 757
8 866 768 877 977 756 656 767 865
8 867 772 878 978 758 661 768 866
8 760 663 773 868 871 774 883 980
8 870 781 837 948 982 890 780 869
8 982 890 780 869 877 782 670 767
8 761 664 774 871 872 775 884 984
8 876 776 665 765 985 885 775 872
8 873 777 668 763 986 887 779 874
8 769 674 777 873 879 786 887 986
8 764 669 778 875 874 779 888 987
8 766 667 776 876 875 778 886 988
8 878 783 892 989 768 671 782 877
8 878 783 672 772 990 893 784 882
8 880 787 675 770 991 896 786 879
8 880 787 895 992 770 675 785 881
8 881 785 894 993 771 673 784 882
8 1006 905 799 898 897 798 687 789
8 919 814 905 1006 813 705 798 897
8 791 689 799 898 901 801 907 1007
8 900 803 909 1009 790 691 802 899
8 795 693 804 903 900 803 910 1010
8 902 800 908 1011 796 694 805 904
8 793 690 801 901 902 800 908 1011
8 797 695 805 904 903 804 911 1012
8 799 697 806 905 907 808 912 1013
8 920 815 912 1013 814 706 806 905
8 802 700 810 909 906 807 913 1014
8 801 699 808 907 908 809 914 1015
8 805 703 809 908 911 812 915 1016
8 803 701 811 910 909 810 916 1017
8 911 812 917 1018 804 702 811 910
8 925 821 920 1030 818 710 814 919
8 928 823 921 1031 821 712 815 920
8 922 819 717 831 1033 926 829 941
8 923 820 709 816 1034 927 819 922
8 1035 929 822 924 923 820 711 817
8 925 821 710 818 1036 930 822 924
8 1038 933 825 929 927 826 714 820
8 926 827 716 829 1039 935 828 939
8 927 826 715 819 1040 934 827 926
8 928 823 712 821 1041 931 824 930
8 1042 932 824 930 929 825 713 822
8 829 716 830 942 939 828 940 1058
8 831 717 832 944 941 829 942 1060
8 942 830 718 832 1061 943 833 945
8 944 832 720 834 1062 945 835 946
8 981 889 947 1064 870 781 837 948
8 948 837 949 1067 869 780 838 950
8 975 869 950 1069 865 767 839 952
8 950 838 951 1070 839 725 840 953
8 952 839 953 1071 841 726 842 954
8 955 850 802 899 1072 959 906 1008
8 956 849 739 845 1072 959 850 955
8 846 738 849 956 957 848 958 1073
8 957 848 958 1073 854 759 868 965
8 849 742 852 959 958 851 961 1076
8 960 853 961 1076 906 807 852 959
8 958 851 961 1076 868 773 883 980
8 960 853 807 906 1077 963 913 1014
8 855 760 868 965 966 871 980 1085
8 856 761 871 966 967 872 984 1086
8 971 876 765 860 1087 985 872 967
8 968 873 763 858 1088 986 874 969
8 862 769 873 968 972 879 986 1088
8 859 764 875 970 969 874 987 1089
8 861 766 876 971 970 875 988 1090
8 973 880 770 863 1091 991 879 972
8 973 880 992 1092 863 770 881 974
8 974 881 993 1093 864 771 882 976
8 979 870 948 1066 1094 982 869 975
8 1094 982 869 975 977 877 767 865
8 978 878 772 867 1095 990 882 976
8 978 878 989 1096 866 768 877 977
8 871 774 883 980 984 884 994 1099
8 983 891 999 1100 870 781 889 981
8 1101 1000 890 982 989 892 782 877
8 983 891 781 870 1101 1000 890 982
8 872 775 884 984 985 885 995 1103
8 876 776 885 985 988 886 996 1104
8 986 887 779 874 1105 998 888 987
8 879 786 887 986 991 896 998 1105
8 875 778 886 988 987 888 997 1106
8 990 893 1002 1107 878 783 892 989
8 1108 1003 893 990 993 894 784 882
8 880 787 896 991 992 895 1005 1109
8 993 894 785 881 1110 1004 895 992
8 898 799 905 1006 1007 907 1013 1120
8 1030 920 1013 1120 919 814 905 1006
8 901 801 907 1007 1011 908 1015 1121
8 899 802 909 1009 1008 906 1014 1122
8 900 803 910 1010 1009 909 1017 1123
8 1012 911 1018 1124 903 804 910 1010
8 904 805 908 1011 1012 911 1016 1125
8 1013 912 1020 1127 907 808 914 1015
8 1031 921 1020 1127 920 815 912 1013
8 1019 918 962 1075 1128 1021 913 1014
8 1128 1021 913 1014 1017 916 810 909
8 1015 914 1022 1129 908 809 915 1016
8 1016 915 1023 1130 911 812 917 1018
8 1018 917 1024 1131 910 811 916 1017
8 1037 928 1031 1148 925 821 920 1030
8 928 823 931 1041 1031 921 1032 1149
8 1033 926 829 941 1151 1039 939 1057
8 1034 927 819 922 1152 1040 926 1033
8 1153 1038 929 1035 1034 927 820 923
8 1154 1042 930 1036 1035 929 822 924
8 1037 928 821 925 1155 1041 930 1036
8 1039 935 828 939 1156 1047 938 1055
8 1157 1043 932 1042 1038 933 825 929
8 1038 933 826 927 1158 1045 934 1040
8 1040 934 827 926 1159 1046 935 1039
8 930 824 932 1042 1041 931 1044 1160
8 1051 936 1048 1165 1175 1052 937 1053
8 1156 1047 938 1055 1053 937 1054 1178
8 939 828 940 1058 1055 938 1056 1181
8 941 829 942 1060 1057 939 1058 1183
8 942 830 943 1061 1058 940 1059 1184
8 1060 942 832 944 1185 1061 945 1062
8 1082 964 1063 1188 981 889 947 1064
8 1097 981 1064 1190 979 870 948 1066
8 1064 947 1065 1191 948 837 949 1067
8 1066 948 1067 1193 975 869 950 1069
8 1067 949 1068 1194 950 838 951 1070
8 1069 950 1070 1195 952 839 953 1071
8 956 849 959 1072 1073 958 1076 1197
8 1074 960 1076 1197 1008 906 959 1072
8 1073 958 1076 1197 965 868 980 1085
8 1074 960 906 1008 1198 1077 1014 1122
8 1133 1026 1079 1199 1019 918 962 1075
8 1077 963 913 1014 1200 1080 962 1075
8 960 853 963 1077 1076 961 1078 1201
8 980 883 961 1076 1099 994 1078 1201
8 1210 1083 964 1082 1100 999 889 981
8 966 871 980 1085 1086 984 1099 1215
8 967 872 984 1086 1087 985 1103 1216
8 971 876 985 1087 1090 988 1104 1217
8 1088 986 874 969 1218 1105 987 1089
8 972 879 986 1088 1091 991 1105 1218
8 970 875 988 1090 1089 987 1106 1219
8 973 880 991 1091 1092 992 1109 1220
8 1093 993 881 974 1221 1110 992 1092
8 1222 1108 990 1095 1093 993 882 976
8 1223 1101 982 1094 1096 989 877 977
8 1098 983 870 979 1223 1101 982 1094
8 1095 990 1107 1224 978 878 989 1096
8 1098 983 1100 1225 979 870 981 1097
8 984 884 994 1099 1103 995 1111 1227
8 1102 1001 1115 1228 983 891 999 1100
8 1101 1000 892 989 1229 1116 1002 1107
8 1102 1001 891 983 1229 1116 1000 1101
8 985 885 995 1103 1104 996 1112 1230
8 988 886 996 1104 1106 997 1113 1231
8 1105 998 888 987 1232 1114 997 1106
8 991 896 998 1105 1109 1005 1114 1232
8 1108 1003 1117 1233 990 893 1002 1107
8 1108 1003 894 993 1233 1117 1004 1110
8 992 895 1005 1109 1110 1004 1118 1234
8 1120 1013 1127 1244 1007 907 1015 1121
8 1148 1031 1127 1244 1030 920 1013 1120
8 1121 1015 1129 1245 1011 908 1016 1125
8 1126 1019 1075 1196 1246 1128 1014 1122
8 1246 1128 1014 1122 1123 1017 909 1009
8 1124 1018 1131 1247 1010 910 1017 1123
8 1125 1016 1130 1248 1012 911 1018 1124
8 1127 1020 1137 1254 1015 914 1022 1129
8 1031 921 1032 1149 1127 1020 1137 1254
8 1134 1027 918 1019 1257 1140 1021 1128
8 1257 1140 1021 1128 1131 1024 916 1017
8 1129 1022 1141 1258 1016 915 1023 1130
8 1130 1023 1142 1259 1018 917 1024 1131
8 1261 1144 1025 1132 1133 1026 1079 1199
8 1255 1138 1025 1132 1135 1028 1144 1261
8 1133 1026 918 1019 1262 1145 1027 1134
8 1136 1029 1139 1256 1263 1146 1028 1135
8 1037 928 1041 1155 1148 1031 1149 1275
8 1041 931 1044 1160 1149 1032 1150 1276
8 1151 1039 939 1057 1278 1156 1055 1180
8 1152 1040 926 1033 1279 1159 1039 1151
8 1153 1038 927 1034 1280 1158 1040 1152
8 1281 1157 1042 1154 1153 1038 929 1035
8 1036 930 1042 1154 1155 1041 1160 1282
8 1283 1164 1046 1159 1156 1047 935 1039
8 1165 1048 1164 1283 1053 937 1047 1156
8 1157 1043 933 1038 1284 1161 1045 1158
8 1157 1043 1161 1284 1042 932 1044 1160
8 1040 934 1046 1159 1158 1045 1163 1285
8 1166 1049 1167 1292 1051 936 1048 1165
8 1166 1049 936 1051 1293 1168 1050 1172
8 1051 936 1052 1175 1172 1050 1173 1306
8 1174 1051 1165 1290 1308 1175 1053 1177
8 1053 937 1054 1178 1175 1052 1176 1309
8 1278 1156 1055 1180 1177 1053 1178 1311
8 1055 938 1056 1181 1178 1054 1179 1312
8 1057 939 1058 1183 1180 1055 1181 1314
8 1058 940 1059 1184 1181 1056 1182 1315
8 1060 942 1061 1185 1183 1058 1184 1316
8 1208 1081 1187 1321 1082 964 1063 1188
8 1209 1082 1188 1322 1097 981 1064 1190
8 1188 1063 1189 1323 1064 947 1065 1191
8 1190 1064 1191 1325 1066 948 1067 1193
8 1191 1065 1192 1326 1067 949 1068 1194
8 1067 1193 1069 950 1194 1327 1195 1070
8 1250 1133 1199 1330 1126 1019 1075 1196
8 1198 1077 1014 1122 1331 1200 1075 1196
8 1074 960 1077 1198 1197 1076 1201 1332
8 1085 980 1076 1197 1215 1099 1201 1332
8 1199 1079 1203 1333 1075 962 1080 1200
8 1132 1025 1119 1243 1199 1079 1203 1333
8 1201 1078 963 1077 1334 1202 1080 1200
8 1099 994 1078 1201 1227 1111 1202 1334
8 1343 1207 1081 1208 1210 1083 964 1082
8 1214 1084 1186 1319 1343 1207 1081 1208
8 1345 1210 1082 1209 1225 1100 981 1097
8 1346 1211 1083 1210 1228 1115 999 1100
8 1086 984 1099 1215 1216 1103 1227 1352
8 1087 985 1103 1216 1217 1104 1230 1353
8 1090 988 1104 1217 1219 1106 1231 1354
8 1218 1105 987 1089 1355 1232 1106 1219
8 1091 991 1105 1218 1220 1109 1232 1355
8 1092 992 1109 1220 1221 1110 1234 1356
8 1222 1108 1233 1357 1095 990 1107 1224
8 1222 1108 993 1093 1357 1233 1110 1221
8 1223 1101 989 1096 1358 1229 1107 1224
8 1226 1102 983 1098 1358 1229 1101 1223
8 1226 1102 1228 1359 1098 983 1100 1225
8 1103 995 1111 1227 1230 1112 1235 1360
8 1107 1002 1117 1233 1229 1116 1240 1362
8 1102 1001 1116 1229 1228 1115 1240 1362
8 1104 996 1112 1230 1231 1113 1236 1363
8 1364 1237 1114 1232 1231 1113 997 1106
8 1109 1005 1114 1232 1234 1118 1238 1365
8 1110 1004 1118 1234 1233 1117 1241 1366
8 1242 1374 1255 1138 1119 1243 1132 1025
8 1244 1127 1254 1376 1121 1015 1129 1245
8 1148 1031 1149 1275 1244 1127 1254 1376
8 1245 1129 1258 1377 1125 1016 1130 1248
8 1251 1134 1019 1126 1378 1257 1128 1246
8 1378 1257 1128 1246 1247 1131 1017 1123
8 1248 1130 1259 1379 1124 1018 1131 1247
8 1261 1381 1250 1133 1132 1249 1330 1199
8 1255 1380 1252 1135 1132 1249 1381 1261
8 1250 1133 1019 1126 1382 1262 1134 1251
8 1253 1136 1256 1385 1384 1263 1135 1252
8 1254 1137 1265 1387 1129 1022 1141 1258
8 1149 1032 1150 1276 1254 1137 1265 1387
8 1028 1135 1255 1138 1139 1256 1388 1266
8 1136 1029 1147 1264 1256 1139 1267 1389
8 1390 1268 1140 1257 1259 1142 1024 1131
8 1260 1143 1027 1134 1390 1268 1140 1257
8 1258 1141 1269 1391 1130 1023 1142 1259
8 1262 1145 1027 1134 1393 1271 1143 1260
8 1261 1144 1026 1133 1394 1272 1145 1262
8 1135 1028 1144 1261 1263 1146 1272 1394
8 1136 1029 1146 1263 1264 1147 1273 1395
8 1155 1041 1160 1282 1275 1149 1276 1405
8 1276 1150 1044 1160 1406 1277 1162 1286
8 1408 1283 1159 1279 1278 1156 1039 1151
8 1290 1165 1283 1408 1177 1053 1156 1278
8 1152 1040 1159 1279 1280 1158 1285 1409
8 1281 1157 1038 1153 1410 1284 1158 1280
8 1281 1157 1284 1410 1154 1042 1160 1282
8 1159 1046 1164 1283 1285 1163 1289 1412
8 1292 1167 1289 1412 1165 1048 1164 1283
8 1158 1045 1163 1285 1284 1161 1288 1413
8 1284 1161 1288 1413 1160 1044 1162 1286
8 1291 1166 1292 1418 1174 1051 1165 1290
8 1291 1166 1051 1174 1419 1293 1172 1305
8 1294 1169 1296 1421 1166 1049 1167 1292
8 1293 1168 1050 1172 1422 1295 1171 1303
8 1294 1169 1049 1166 1423 1297 1168 1293
8 1422 1295 1171 1303 1301 1170 1302 1435
8 1172 1050 1173 1306 1303 1171 1304 1438
8 1174 1051 1175 1308 1305 1172 1306 1440
8 1175 1052 1176 1309 1306 1173 1307 1441
8 1177 1053 1178 1311 1308 1175 1309 1443
8 1178 1054 1179 1312 1309 1176 1310 1444
8 1180 1055 1181 1314 1311 1178 1312 1446
8 1056 1181 1312 1179 1182 1315 1447 1313
8 1183 1058 1184 1316 1314 1181 1315 1448
8 1319 1186 1084 1214 1451 1317 1213 1350
8 1319 1186 1318 1453 1208 1081 1187 1321
8 1321 1187 1320 1456 1188 1063 1189 1323
8 1344 1208 1321 1457 1209 1082 1188 1322
8 1322 1188 1323 1458 1190 1064 1191 1325
8 1323 1189 1324 1459 1191 1065 1192 1326
8 1191 1325 1193 1067 1326 1460 1327 1194
8 1242 1374 1243 1119 1328 1462 1335 1204
8 1330 1199 1333 1465 1196 1075 1200 1331
8 1132 1249 1330 1199 1243 1375 1465 1333
8 1332 1201 1077 1198 1466 1334 1200 1331
8 1215 1099 1201 1332 1352 1227 1334 1466
8 1119 1243 1333 1203 1204 1335 1470 1338
8 1333 1203 1338 1470 1200 1080 1202 1334
8 1227 1111 1202 1334 1360 1235 1338 1470
8 1328 1462 1335 1204 1205 1336 1471 1339
8 1337 1206 1340 1472 1464 1329 1205 1336
8 1346 1211 1342 1479 1210 1083 1207 1343
8 1346 1211 1115 1228 1479 1342 1239 1361
8 1348 1212 1084 1214 1479 1342 1207 1343
8 1480 1343 1208 1344 1345 1210 1082 1209
8 1351 1214 1319 1454 1480 1343 1208 1344
8 1481 1346 1210 1345 1359 1228 1100 1225
8 1348 1212 1347 1483 1214 1084 1213 1350
8 1216 1103 1227 1352 1353 1230 1360 1488
8 1217 1104 1230 1353 1354 1231 1363 1489
8 1490 1364 1232 1355 1354 1231 1106 1219
8 1220 1109 1232 1355 1356 1234 1365 1491
8 1221 1110 1234 1356 1357 1233 1366 1492
8 1224 1107 1233 1357 1358 1229 1362 1493
8 1226 1102 1229 1358 1359 1228 1362 1493
8 1230 1112 1235 1360 1363 1236 1367 1496
8 1361 1239 1115 1228 1497 1371 1240 1362
8 1366 1241 1372 1498 1233 1117 1240 1362
8 1364 1237 1113 1231 1499 1368 1236 1363
8 1364 1237 1368 1499 1232 1114 1238 1365
8 1234 1118 1238 1365 1366 1241 1369 1500
8 1507 1373 1242 1374 1388 1266 1138 1255
8 1508 1374 1243 1375 1380 1255 1132 1249
8 1376 1254 1387 1509 1245 1129 1258 1377
8 1275 1149 1276 1405 1376 1254 1387 1509
8 1377 1258 1391 1510 1248 1130 1259 1379
8 1511 1390 1257 1378 1379 1259 1131 1247
8 1383 1260 1134 1251 1511 1390 1257 1378
8 1252 1135 1256 1385 1380 1255 1388 1512
8 1261 1381 1513 1394 1133 1250 1382 1262
8 1135 1252 1384 1263 1261 1381 1513 1394
8 1382 1262 1134 1251 1514 1393 1260 1383
8 1253 1136 1263 1384 1386 1264 1395 1516
8 1253 1136 1264 1386 1385 1256 1389 1517
8 1387 1265 1397 1519 1258 1141 1269 1391
8 1276 1150 1277 1406 1387 1265 1397 1519
8 1256 1139 1267 1389 1388 1266 1398 1520
8 1264 1147 1274 1396 1389 1267 1399 1521
8 1392 1270 1143 1260 1522 1400 1268 1390
8 1390 1268 1142 1259 1522 1400 1269 1391
8 1392 1270 1401 1523 1260 1143 1271 1393
8 1272 1394 1524 1402 1145 1262 1393 1271
8 1395 1273 1146 1263 1524 1402 1272 1394
8 1273 1395 1264 1147 1403 1526 1396 1274
8 1405 1276 1160 1282 1534 1406 1286 1411
8 1414 1287 1407 1535 1286 1162 1277 1406
8 1279 1159 1283 1408 1409 1285 1412 1537
8 1418 1292 1412 1537 1290 1165 1283 1408
8 1280 1158 1285 1409 1410 1284 1413 1538
8 1410 1284 1413 1538 1282 1160 1286 1411
8 1285 1163 1289 1412 1413 1288 1417 1540
8 1421 1296 1417 1540 1292 1167 1289 1412
8 1414 1287 1162 1286 1541 1416 1288 1413
8 1420 1294 1421 1545 1291 1166 1292 1418
8 1419 1293 1172 1305 1546 1422 1303 1437
8 1420 1294 1166 1291 1547 1423 1293 1419
8 1294 1169 1297 1423 1421 1296 1425 1548
8 1423 1297 1168 1293 1549 1424 1295 1422
8 1301 1170 1298 1427 1422 1295 1424 1549
8 1432 1300 1428 1554 1301 1170 1298 1427
8 1431 1299 1428 1554 1560 1430 1300 1432
8 1563 1433 1300 1432 1435 1302 1170 1301
8 1546 1422 1303 1437 1434 1301 1435 1565
8 1303 1171 1304 1438 1435 1302 1436 1566
8 1305 1172 1306 1440 1437 1303 1438 1568
8 1306 1173 1307 1441 1438 1304 1439 1569
8 1308 1175 1309 1443 1440 1306 1441 1571
8 1309 1176 1310 1444 1441 1307 1442 1572
8 1311 1178 1312 1446 1443 1309 1444 1574
8 1179 1312 1444 1310 1313 1447 1575 1445
8 1314 1181 1315 1448 1446 1312 1447 1576
8 1350 1213 1349 1486 1451 1317 1449 1579
8 1451 1317 1450 1581 1319 1186 1318 1453
8 1454 1319 1214 1351 1582 1451 1350 1487
8 1453 1318 1452 1584 1321 1187 1320 1456
8 1454 1319 1453 1585 1344 1208 1321 1457
8 1456 1320 1455 1586 1323 1189 1324 1459
8 1457 1321 1456 1587 1322 1188 1323 1458
8 1458 1323 1459 1588 1325 1191 1326 1460
8 1205 1336 1464 1329 1328 1462 1590 1461
8 1507 1373 1461 1590 1374 1242 1328 1462
8 1508 1374 1462 1591 1375 1243 1335 1467
8 1337 1206 1329 1464 1473 1341 1463 1594
8 1375 1243 1335 1467 1465 1333 1470 1596
8 1465 1333 1470 1596 1331 1200 1334 1466
8 1352 1227 1334 1466 1488 1360 1470 1596
8 1591 1462 1336 1468 1467 1335 1471 1597
8 1469 1337 1472 1598 1595 1464 1336 1468
8 1471 1339 1474 1600 1335 1204 1338 1470
8 1600 1474 1367 1496 1470 1338 1235 1360
8 1336 1205 1340 1472 1471 1339 1475 1601
8 1337 1206 1341 1473 1472 1340 1476 1602
8 1495 1370 1478 1609 1361 1239 1342 1479
8 1348 1212 1342 1479 1483 1347 1478 1609
8 1481 1346 1479 1610 1345 1210 1343 1480
8 1481 1346 1228 1359 1610 1479 1361 1494
8 1484 1348 1214 1351 1610 1479 1343 1480
8 1483 1347 1482 1612 1350 1213 1349 1486
8 1484 1348 1483 1613 1351 1214 1350 1487
8 1353 1230 1360 1488 1489 1363 1496 1616
8 1490 1364 1231 1354 1617 1499 1363 1489
8 1490 1364 1499 1617 1355 1232 1365 1491
8 1356 1234 1365 1491 1492 1366 1500 1619
8 1492 1366 1498 1620 1357 1233 1362 1493
8 1494 1361 1228 1359 1621 1497 1362 1493
8 1495 1370 1239 1361 1622 1504 1371 1497
8 1363 1236 1367 1496 1499 1368 1501 1623
8 1497 1371 1240 1362 1624 1505 1372 1498
8 1625 1503 1372 1498 1500 1369 1241 1366
8 1365 1238 1368 1499 1500 1369 1502 1626
8 1520 1398 1506 1633 1388 1266 1373 1507
8 1634 1507 1374 1508 1512 1388 1255 1380
8 1509 1387 1519 1635 1377 1258 1391 1510
8 1405 1276 1406 1534 1509 1387 1519 1635
8 1515 1392 1260 1383 1636 1522 1390 1511
8 1511 1390 1259 1379 1636 1522 1391 1510
8 1385 1256 1389 1517 1512 1388 1520 1637
8 1513 1394 1262 1382 1638 1524 1393 1514
8 1395 1516 1638 1524 1263 1384 1513 1394
8 1515 1392 1523 1639 1383 1260 1393 1514
8 1516 1395 1526 1640 1386 1264 1396 1518
8 1386 1264 1396 1518 1517 1389 1521 1641
8 1519 1397 1527 1643 1391 1269 1400 1522
8 1535 1407 1527 1643 1406 1277 1397 1519
8 1389 1267 1399 1521 1520 1398 1528 1644
8 1645 1529 1399 1521 1525 1404 1274 1396
8 1392 1270 1400 1522 1523 1401 1531 1646
8 1524 1402 1271 1393 1648 1532 1401 1523
8 1403 1526 1648 1532 1273 1395 1524 1402
8 1525 1404 1274 1396 1649 1533 1403 1526
8 1539 1414 1535 1657 1411 1286 1406 1534
8 1542 1415 1536 1658 1414 1287 1407 1535
8 1409 1285 1412 1537 1538 1413 1540 1660
8 1545 1421 1540 1660 1418 1292 1412 1537
8 1539 1414 1286 1411 1661 1541 1413 1538
8 1540 1417 1544 1663 1413 1288 1416 1541
8 1421 1296 1425 1548 1540 1417 1544 1663
8 1542 1415 1287 1414 1664 1543 1416 1541
8 1420 1294 1423 1547 1545 1421 1548 1666
8 1547 1423 1293 1419 1667 1549 1422 1546
8 1434 1301 1427 1553 1546 1422 1549 1667
8 1423 1297 1424 1549 1548 1425 1550 1668
8 1551 1426 1550 1668 1427 1298 1424 1549
8 1551 1426 1298 1427 1671 1552 1428 1554
8 1562 1432 1554 1674 1434 1301 1427 1553
8 1431 1299 1429 1558 1554 1428 1555 1675
8 1431 1299 1430 1560 1558 1429 1557 1680
8 1560 1430 1300 1432 1683 1559 1433 1563
8 1561 1431 1554 1674 1684 1560 1432 1562
8 1685 1563 1432 1562 1565 1435 1301 1434
8 1435 1302 1436 1566 1563 1433 1564 1686
8 1437 1303 1438 1568 1565 1435 1566 1688
8 1438 1304 1439 1569 1566 1436 1567 1689
8 1440 1306 1441 1571 1568 1438 1569 1691
8 1441 1307 1442 1572 1569 1439 1570 1692
8 1443 1309 1444 1574 1571 1441 1572 1694
8 1310 1444 1572 1442 1445 1575 1695 1573
8 1446 1312 1447 1576 1574 1444 1575 1696
8 1486 1349 1485 1614 1579 1449 1577 1699
8 1451 1317 1449 1579 1581 1450 1578 1701
8 1487 1350 1486 1615 1582 1451 1579 1702
8 1581 1450 1580 1704 1453 1318 1452 1584
8 1582 1451 1581 1705 1454 1319 1453 1585
8 1584 1452 1583 1706 1456 1320 1455 1586
8 1585 1453 1584 1707 1457 1321 1456 1587
8 1587 1456 1586 1708 1458 1323 1459 1588
8 1633 1506 1589 1710 1507 1373 1461 1590
8 1464 1329 1461 1590 1594 1463 1589 1710
8 1468 1336 1462 1591 1595 1464 1590 1711
8 1634 1507 1590 1711 1508 1374 1462 1591
8 1473 1341 1463 1594 1603 1477 1593 1716
8 1469 1337 1464 1595 1599 1473 1594 1717
8 1471 1597 1467 1335 1600 1718 1596 1470
8 1718 1600 1496 1616 1596 1470 1360 1488
8 1336 1468 1597 1471 1472 1598 1719 1601
8 1469 1337 1473 1599 1598 1472 1602 1720
8 1722 1604 1501 1623 1600 1474 1367 1496
8 1475 1601 1471 1339 1604 1722 1600 1474
8 1602 1476 1605 1723 1472 1340 1475 1601
8 1476 1602 1724 1606 1341 1473 1603 1477
8 1483 1347 1478 1609 1612 1482 1608 1731
8 1495 1370 1504 1622 1609 1478 1608 1731
8 1618 1495 1609 1732 1494 1361 1479 1610
8 1484 1348 1479 1610 1613 1483 1609 1732
8 1486 1349 1482 1612 1614 1485 1611 1733
8 1613 1483 1612 1734 1487 1350 1486 1615
8 1489 1363 1496 1616 1617 1499 1623 1736
8 1491 1365 1499 1617 1619 1500 1626 1737
8 1618 1495 1361 1494 1738 1622 1497 1621
8 1739 1625 1498 1620 1619 1500 1366 1492
8 1621 1497 1362 1493 1740 1624 1498 1620
8 1742 1631 1504 1622 1624 1505 1371 1497
8 1743 1628 1502 1626 1623 1501 1368 1499
8 1744 1630 1505 1624 1625 1503 1372 1498
8 1745 1629 1503 1625 1626 1502 1369 1500
8 1520 1398 1528 1644 1633 1506 1632 1751
8 1637 1520 1633 1752 1512 1388 1507 1634
8 1635 1519 1643 1753 1510 1391 1522 1636
8 1657 1535 1643 1753 1534 1406 1519 1635
8 1515 1392 1522 1636 1639 1523 1646 1754
8 1517 1389 1521 1641 1637 1520 1644 1755
8 1524 1638 1756 1648 1393 1514 1639 1523
8 1640 1526 1395 1516 1756 1648 1524 1638
8 1642 1525 1396 1518 1757 1649 1526 1640
8 1758 1645 1521 1641 1642 1525 1396 1518
8 1646 1531 1400 1522 1760 1650 1527 1643
8 1535 1407 1536 1658 1643 1527 1650 1760
8 1521 1399 1529 1645 1644 1528 1651 1761
8 1647 1530 1652 1762 1525 1404 1529 1645
8 1401 1523 1648 1532 1531 1646 1763 1655
8 1525 1404 1533 1649 1647 1530 1654 1765
8 1533 1649 1766 1656 1403 1526 1648 1532
8 1662 1542 1658 1774 1539 1414 1535 1657
8 1542 1415 1543 1664 1658 1536 1659 1775
8 1660 1540 1663 1777 1538 1413 1541 1661
8 1545 1421 1548 1666 1660 1540 1663 1777
8 1662 1542 1414 1539 1778 1664 1541 1661
8 1664 1543 1416 1541 1779 1665 1544 1663
8 1548 1425 1550 1668 1663 1544 1665 1779
8 1547 1423 1549 1667 1666 1548 1668 1781
8 1670 1551 1668 1781 1553 1427 1549 1667
8 1551 1426 1552 1671 1668 1550 1669 1782
8 1670 1551 1427 1553 1784 1671 1554 1674
8 1675 1555 1672 1785 1554 1428 1552 1671
8 1678 1556 1673 1789 1558 1429 1555 1675
8 1561 1431 1558 1681 1674 1554 1675 1790
8 1794 1677 1556 1678 1680 1557 1429 1558
8 1560 1430 1559 1683 1680 1557 1679 1797
8 1561 1431 1560 1684 1681 1558 1680 1798
8 1563 1433 1564 1686 1683 1559 1682 1800
8 1684 1560 1432 1562 1801 1683 1563 1685
8 1565 1435 1566 1688 1685 1563 1686 1802
8 1566 1436 1567 1689 1686 1564 1687 1803
8 1568 1438 1569 1691 1688 1566 1689 1805
8 1569 1439 1570 1692 1689 1567 1690 1806
8 1571 1441 1572 1694 1691 1569 1692 1808
8 1442 1572 1692 1570 1573 1695 1809 1693
8 1574 1444 1575 1696 1694 1572 1695 1810
8 1614 1485 1592 1712 1699 1577 1697 1813
8 1579 1449 1577 1699 1701 1578 1698 1815
8 1615 1486 1614 1735 1702 1579 1699 1816
8 1701 1578 1700 1818 1581 1450 1580 1704
8 1582 1451 1579 1702 1705 1581 1701 1819
8 1704 1580 1703 1820 1584 1452 1583 1706
8 1705 1581 1704 1821 1585 1453 1584 1707
8 1707 1584 1706 1822 1587 1456 1586 1708
8 1710 1589 1506 1633 1824 1709 1632 1751
8 1594 1463 1589 1710 1716 1593 1709 1824
8 1752 1633 1710 1825 1634 1507 1590 1711
8 1595 1464 1590 1711 1717 1594 1710 1825
8 1830 1714 1592 1712 1733 1611 1485 1614
8 1603 1477 1593 1716 1725 1607 1715 1834
8 1599 1473 1594 1717 1721 1603 1716 1835
8 1837 1722 1623 1736 1718 1600 1496 1616
8 1719 1601 1722 1837 1597 1471 1600 1718
8 1602 1720 1598 1472 1723 1838 1719 1601
8 1720 1602 1473 1599 1839 1724 1603 1721
8 1723 1605 1726 1840 1601 1475 1604 1722
8 1840 1726 1628 1743 1722 1604 1501 1623
8 1724 1606 1727 1841 1602 1476 1605 1723
8 1725 1607 1728 1842 1603 1477 1606 1724
8 1612 1482 1608 1731 1733 1611 1730 1849
8 1741 1627 1730 1849 1622 1504 1608 1731
8 1613 1483 1609 1732 1734 1612 1731 1850
8 1618 1495 1622 1738 1732 1609 1731 1850
8 1615 1486 1612 1734 1735 1614 1733 1851
8 1852 1743 1626 1737 1736 1623 1499 1617
8 1853 1745 1625 1739 1737 1626 1500 1619
8 1855 1742 1622 1738 1740 1624 1497 1621
8 1856 1744 1624 1740 1739 1625 1498 1620
8 1741 1627 1504 1622 1857 1746 1631 1742
8 1742 1631 1505 1624 1858 1749 1630 1744
8 1859 1747 1629 1745 1743 1628 1502 1626
8 1860 1748 1630 1744 1745 1629 1503 1625
8 1644 1528 1651 1761 1751 1632 1750 1865
8 1637 1520 1644 1755 1752 1633 1751 1866
8 1754 1646 1522 1636 1867 1760 1643 1753
8 1657 1535 1658 1774 1753 1643 1760 1867
8 1639 1523 1646 1754 1756 1648 1763 1868
8 1641 1521 1645 1758 1755 1644 1761 1869
8 1757 1649 1526 1640 1870 1766 1648 1756
8 1642 1525 1649 1757 1759 1647 1765 1871
8 1759 1647 1762 1872 1642 1525 1645 1758
8 1760 1650 1767 1874 1646 1531 1655 1763
8 1658 1536 1659 1775 1760 1650 1767 1874
8 1762 1652 1768 1875 1645 1529 1651 1761
8 1764 1653 1769 1876 1647 1530 1652 1762
8 1656 1766 1877 1773 1532 1648 1763 1655
8 1771 1879 1765 1654 1653 1764 1647 1530
8 1533 1649 1765 1654 1656 1766 1880 1772
8 1662 1542 1664 1778 1774 1658 1775 1887
8 1664 1543 1665 1779 1775 1659 1776 1888
8 1778 1664 1541 1661 1890 1779 1663 1777
8 1666 1548 1668 1781 1777 1663 1779 1890
8 1782 1669 1780 1891 1668 1550 1665 1779
8 1670 1551 1671 1784 1781 1668 1782 1893
8 1671 1552 1672 1785 1782 1669 1783 1894
8 1790 1675 1785 1896 1674 1554 1671 1784
8 1675 1555 1673 1789 1785 1672 1786 1897
8 1792 1676 1788 1903 1678 1556 1673 1789
8 1795 1678 1789 1904 1681 1558 1675 1790
8 1792 1676 1556 1678 1906 1791 1677 1794
8 1680 1557 1679 1797 1794 1677 1793 1909
8 1910 1794 1678 1795 1798 1680 1558 1681
8 1683 1559 1682 1800 1797 1679 1796 1912
8 1684 1560 1683 1801 1798 1680 1797 1913
8 1686 1564 1687 1803 1800 1682 1799 1915
8 1685 1563 1686 1802 1801 1683 1800 1916
8 1688 1566 1689 1805 1802 1686 1803 1917
8 1689 1567 1690 1806 1803 1687 1804 1918
8 1691 1569 1692 1808 1805 1689 1806 1920
8 1692 1570 1693 1809 1806 1690 1807 1921
8 1694 1572 1695 1810 1808 1692 1809 1922
8 1829 1713 1811 1926 1712 1592 1697 1813
8 1813 1697 1812 1928 1699 1577 1698 1815
8 1735 1614 1712 1828 1816 1699 1813 1929
8 1815 1698 1814 1931 1701 1578 1700 1818
8 1702 1579 1699 1816 1819 1701 1815 1932
8 1818 1700 1817 1933 1704 1580 1703 1820
8 1819 1701 1818 1934 1705 1581 1704 1821
8 1821 1704 1820 1935 1707 1584 1706 1822
8 1824 1709 1632 1751 1937 1823 1750 1865
8 1716 1593 1709 1824 1834 1715 1823 1937
8 1825 1710 1633 1752 1938 1824 1751 1866
8 1717 1594 1710 1825 1835 1716 1824 1938
8 1945 1830 1712 1828 1851 1733 1614 1735
8 1830 1714 1831 1946 1712 1592 1713 1829
8 1947 1832 1714 1830 1849 1730 1611 1733
8 1843 1729 1607 1725 1950 1833 1715 1834
8 1721 1603 1716 1835 1836 1725 1834 1951
8 1836 1725 1842 1953 1721 1603 1724 1839
8 1723 1838 1719 1601 1840 1954 1837 1722
8 1954 1840 1743 1852 1837 1722 1623 1736
8 1724 1839 1720 1602 1841 1955 1838 1723
8 1841 1727 1844 1956 1723 1605 1726 1840
8 1956 1844 1747 1859 1840 1726 1628 1743
8 1728 1842 1724 1606 1845 1957 1841 1727
8 1725 1607 1729 1843 1842 1728 1846 1958
8 1741 1627 1746 1857 1849 1730 1848 1965
8 1734 1612 1731 1850 1851 1733 1849 1966
8 1854 1741 1849 1966 1738 1622 1731 1850
8 1967 1859 1745 1853 1852 1743 1626 1737
8 1968 1860 1744 1856 1853 1745 1625 1739
8 1854 1741 1622 1738 1969 1857 1742 1855
8 1855 1742 1624 1740 1970 1858 1744 1856
8 1857 1746 1631 1742 1971 1861 1749 1858
8 1858 1749 1630 1744 1972 1863 1748 1860
8 1859 1747 1862 1973 1745 1629 1748 1860
8 1875 1768 1864 1977 1761 1651 1750 1865
8 1755 1644 1761 1869 1866 1751 1865 1978
8 1867 1760 1874 1979 1754 1646 1763 1868
8 1774 1658 1775 1887 1867 1760 1874 1979
8 1870 1766 1648 1756 1980 1877 1763 1868
8 1872 1762 1875 1981 1758 1645 1761 1869
8 1757 1649 1766 1870 1871 1765 1880 1982
8 1983 1879 1764 1873 1871 1765 1647 1759
8 1873 1764 1876 1984 1759 1647 1762 1872
8 1877 1773 1655 1763 1986 1881 1767 1874
8 1775 1659 1776 1888 1874 1767 1881 1986
8 1876 1769 1882 1987 1762 1652 1768 1875
8 1878 1770 1883 1988 1764 1653 1769 1876
8 1880 1772 1656 1766 1989 1886 1773 1877
8 1878 1770 1653 1764 1990 1884 1771 1879
8 1765 1654 1772 1880 1879 1771 1885 1991
8 1778 1664 1779 1890 1887 1775 1888 1997
8 1998 1889 1776 1888 1891 1780 1665 1779
8 1893 1782 1891 2000 1781 1668 1779 1890
8 1894 1783 1892 2001 1782 1669 1780 1891
8 1784 1671 1785 1896 1893 1782 1894 2003
8 1897 1786 1895 2004 1785 1672 1783 1894
8 1790 1675 1789 1904 1896 1785 1897 2006
8 1901 1787 1898 2007 1789 1673 1786 1897
8 1903 1788 1900 2013 1789 1673 1787 1901
8 1792 1676 1791 1906 1903 1788 1902 2016
8 1907 1792 1903 2017 1795 1678 1789 1904
8 1906 1791 1677 1794 2019 1905 1793 1909
8 1907 1792 1678 1795 2020 1906 1794 1910
8 1797 1679 1796 1912 1909 1793 1908 2022
8 1798 1680 1797 1913 1910 1794 1909 2023
8 1800 1682 1799 1915 1912 1796 1911 2025
8 1801 1683 1800 1916 1913 1797 1912 2026
8 1803 1687 1804 1918 1915 1799 1914 2028
8 1802 1686 1803 1917 1916 1800 1915 2029
8 1805 1689 1806 1920 1917 1803 1918 2030
8 1806 1690 1807 1921 1918 1804 1919 2031
8 1808 1692 1809 1922 1920 1806 1921 2032
8 1939 1826 1924 2037 1829 1713 1811 1926
8 1926 1811 1925 2039 1813 1697 1812 1928
8 1944 1829 1926 2040 1828 1712 1813 1929
8 1928 1812 1927 2042 1815 1698 1814 1931
8 1929 1813 1928 2043 1816 1699 1815 1932
8 1931 1814 1930 2044 1818 1700 1817 1933
8 1932 1815 1931 2045 1819 1701 1818 1934
8 1934 1818 1933 2046 1821 1704 1820 1935
8 2048 1936 1823 1937 1977 1864 1750 1865
8 1950 1833 1715 1834 2048 1936 1823 1937
8 1938 1824 1751 1866 2049 1937 1865 1978
8 1835 1716 1824 1938 1951 1834 1937 2049
8 1939 1826 1713 1829 2053 1942 1831 1946
8 1940 1827 1923 2035 2053 1942 1826 1939
8 1945 1830 1946 2058 1828 1712 1829 1944
8 2059 1947 1830 1945 1966 1849 1733 1851
8 1947 1832 1730 1849 2060 1948 1848 1965
8 1947 1832 1948 2060 1830 1714 1831 1946
8 1959 1847 1729 1843 2063 1949 1833 1950
8 1952 1843 1725 1836 2064 1950 1834 1951
8 1836 1725 1843 1952 1953 1842 1958 2066
8 1953 1842 1957 2067 1839 1724 1841 1955
8 1841 1955 1838 1723 1956 2068 1954 1840
8 2068 1956 1859 1967 1954 1840 1743 1852
8 1956 1844 1960 2069 1859 1747 1862 1973
8 1845 1957 1841 1727 1960 2069 1956 1844
8 1728 1842 1957 1845 1846 1958 2071 1961
8 1962 2072 1959 1847 1846 1958 1843 1729
8 1971 1861 1964 2077 1857 1746 1848 1965
8 1854 1741 1857 1969 1966 1849 1965 2078
8 1967 1859 1973 2079 1853 1745 1860 1968
8 1970 1858 1744 1856 2080 1972 1860 1968
8 1969 1857 1742 1855 2081 1971 1858 1970
8 1971 1861 1749 1858 2082 1974 1863 1972
8 1973 1862 1975 2083 1860 1748 1863 1972
8 1987 1882 1976 2086 1875 1768 1864 1977
8 1981 1875 1977 2087 1869 1761 1865 1978
8 1980 1877 1763 1868 2088 1986 1874 1979
8 1887 1775 1888 1997 1979 1874 1986 2088
8 1880 1982 2089 1989 1766 1870 1980 1877
8 1984 1876 1987 2090 1872 1762 1875 1981
8 1765 1871 1983 1879 1880 1982 2091 1991
8 1985 1878 1764 1873 2092 1990 1879 1983
8 1985 1878 1988 2093 1873 1764 1876 1984
8 2094 1992 1881 1986 1998 1889 1776 1888
8 1986 1881 1992 2094 1877 1773 1886 1989
8 1988 1883 1993 2095 1876 1769 1882 1987
8 1878 1770 1884 1990 1988 1883 1994 2096
8 1991 1885 1772 1880 2097 1996 1886 1989
8 1879 1771 1885 1991 1990 1884 1995 2098
8 2103 1998 1888 1997 2000 1891 1779 1890
8 2104 1999 1889 1998 2001 1892 1780 1891
8 2003 1894 2001 2106 1893 1782 1891 2000
8 2004 1895 2002 2107 1894 1783 1892 2001
8 2006 1897 2004 2109 1896 1785 1894 2003
8 2007 1898 2005 2110 1897 1786 1895 2004
8 2014 1901 2007 2112 1904 1789 1897 2006
8 2011 1899 2008 2113 1901 1787 1898 2007
8 2119 2010 1899 2011 2013 1900 1787 1901
8 2016 1902 2012 2122 1903 1788 1900 2013
8 2017 1903 2013 2123 1904 1789 1901 2014
8 1906 1791 1905 2019 2016 1902 2015 2125
8 1907 1792 1906 2020 2017 1903 2016 2126
8 1909 1793 1908 2022 2019 1905 2018 2128
8 2020 1906 1794 1910 2129 2019 1909 2023
8 1912 1796 1911 2025 2022 1908 2021 2131
8 1913 1797 1912 2026 2023 1909 2022 2132
8 1915 1799 1914 2028 2025 1911 2024 2134
8 1916 1800 1915 2029 2026 1912 2025 2135
8 1918 1804 1919 2031 2028 1914 2027 2136
8 1917 1803 1918 2030 2029 1915 2028 2137
8 1920 1806 1921 2032 2030 1918 2031 2138
8 1940 1827 1941 2054 2035 1923 2033 2140
8 2035 1923 2034 2143 1939 1826 1924 2037
8 2037 1924 2036 2146 1926 1811 1925 2039
8 2051 1939 2037 2147 1944 1829 1926 2040
8 2039 1925 2038 2149 1928 1812 1927 2042
8 2040 1926 2039 2150 1929 1813 1928 2043
8 2042 1927 2041 2151 1931 1814 1930 2044
8 2043 1928 2042 2152 1932 1815 1931 2045
8 2045 1931 2044 2153 1934 1818 1933 2046
8 2155 2047 1936 2048 2086 1976 1864 1977
8 2063 1949 1833 1950 2155 2047 1936 2048
8 2156 2048 1937 2049 2087 1977 1865 1978
8 2064 1950 1834 1951 2156 2048 1937 2049
8 2051 1939 1829 1944 2160 2053 1946 2058
8 2052 1940 2035 2144 2160 2053 1939 2051
8 2053 1942 1831 1946 2163 2057 1948 2060
8 2055 1943 1827 1940 2163 2057 1942 2053
8 2055 1943 2056 2164 1940 1827 1941 2054
8 2059 1947 1849 1966 2167 2060 1965 2078
8 2059 1947 2060 2167 1945 1830 1946 2058
8 2077 1964 2061 2168 1965 1848 1948 2060
8 2070 1963 1847 1959 2170 2062 1949 2063
8 2065 1959 1843 1952 2171 2063 1950 2064
8 2173 2072 1958 2066 2065 1959 1843 1952
8 1953 1842 1958 2066 2067 1957 2071 2174
8 2068 1956 2069 2175 1967 1859 1973 2079
8 2067 1957 2069 2175 1955 1841 1956 2068
8 1845 1957 2069 1960 1961 2071 2176 2073
8 2069 1960 2073 2176 1973 1862 1975 2083
8 2070 1963 2075 2177 1959 1847 1962 2072
8 1846 1958 2071 1961 1962 2072 2178 2074
8 2077 1964 1861 1971 2182 2076 1974 2082
8 2081 1971 2077 2183 1969 1857 1965 2078
8 2079 1973 2083 2184 1968 1860 1972 2080
8 2081 1971 1858 1970 2185 2082 1972 2080
8 2083 1975 2084 2186 1972 1863 1974 2082
8 2086 1976 1882 1987 2189 2085 1993 2095
8 2090 1987 2086 2190 1981 1875 1977 2087
8 2191 2094 1986 2088 2103 1998 1888 1997
8 2088 1986 2094 2191 1980 1877 1989 2089
8 1991 2091 2192 2097 1880 1982 2089 1989
8 2093 1988 2095 2193 1984 1876 1987 2090
8 1879 1983 2092 1990 1991 2091 2194 2098
8 1985 1878 1990 2092 2093 1988 2096 2195
8 2097 1996 1886 1989 2196 2099 1992 2094
8 2196 2099 1992 2094 2104 1999 1889 1998
8 1994 2096 1988 1883 2100 2197 2095 1993
8 2096 1994 1884 1990 2198 2101 1995 2098
8 1995 2098 2199 2102 1885 1991 2097 1996
8 2203 2104 1998 2103 2106 2001 1891 2000
8 2107 2002 2105 2204 2001 1892 1999 2104
8 2109 2004 2107 2206 2003 1894 2001 2106
8 2110 2005 2108 2207 2004 1895 2002 2107
8 2112 2007 2110 2209 2006 1897 2004 2109
8 2113 2008 2111 2210 2007 1898 2005 2110
8 2120 2011 2113 2212 2014 1901 2007 2112
8 2117 2009 2114 2213 2011 1899 2008 2113
8 2219 2116 2009 2117 2119 2010 1899 2011
8 2222 2118 2010 2119 2122 2012 1900 2013
8 2223 2119 2011 2120 2123 2013 1901 2014
8 2016 1902 2015 2125 2122 2012 2121 2225
8 2126 2016 2122 2226 2017 1903 2013 2123
8 2019 1905 2018 2128 2125 2015 2124 2228
8 2020 1906 2019 2129 2126 2016 2125 2229
8 2022 1908 2021 2131 2128 2018 2127 2231
8 2023 1909 2022 2132 2129 2019 2128 2232
8 2025 1911 2024 2134 2131 2021 2130 2234
8 2026 1912 2025 2135 2132 2022 2131 2235
8 1914 2028 2134 2024 2027 2136 2236 2133
8 2029 1915 2028 2137 2135 2025 2134 2237
8 2030 1918 2031 2138 2137 2028 2136 2238
8 2157 2050 2139 2240 2054 1941 2033 2140
8 2052 1940 2054 2161 2144 2035 2140 2242
8 2140 2033 2141 2243 2035 1923 2034 2143
8 2143 2034 2142 2246 2037 1924 2036 2146
8 2144 2035 2143 2247 2051 1939 2037 2147
8 2146 2036 2145 2249 2039 1925 2038 2149
8 2147 2037 2146 2250 2040 1926 2039 2150
8 2149 2038 2148 2251 2042 1927 2041 2151
8 2150 2039 2149 2252 2043 1928 2042 2152
8 2152 2042 2151 2253 2045 1931 2044 2153
8 2255 2154 2047 2155 2189 2085 1976 2086
8 2170 2062 1949 2063 2255 2154 2047 2155
8 2256 2155 2048 2156 2190 2086 1977 2087
8 2171 2063 1950 2064 2256 2155 2048 2156
8 2258 2159 2050 2157 2164 2056 1941 2054
8 2160 2053 1946 2058 2262 2163 2060 2167
8 2162 2055 1940 2052 2262 2163 2053 2160
8 2162 2055 2164 2263 2052 1940 2054 2161
8 2163 2057 1948 2060 2264 2165 2061 2168
8 2055 1943 2057 2163 2164 2056 2165 2264
8 2182 2076 2166 2268 2077 1964 2061 2168
8 2183 2077 2168 2269 2078 1965 2060 2167
8 2070 1963 2062 2170 2177 2075 2169 2271
8 2172 2070 1959 2065 2272 2170 2063 2171
8 2172 2070 2177 2273 2065 1959 2072 2173
8 2066 1958 2072 2173 2174 2071 2178 2274
8 2067 1957 2071 2174 2175 2069 2176 2275
8 2175 2069 2176 2275 2079 1973 2083 2184
8 2071 1961 2074 2178 2176 2073 2179 2276
8 2176 2073 2179 2276 2083 1975 2084 2186
8 2072 1962 2075 2177 2178 2074 2180 2277
8 2182 2076 1974 2082 2280 2181 2084 2186
8 2183 2077 1971 2081 2281 2182 2082 2185
8 2184 2083 2186 2282 2080 1972 2082 2185
8 2189 2085 1993 2095 2285 2188 2100 2197
8 2190 2086 1987 2090 2286 2189 2095 2193
8 2192 2097 1989 2089 2287 2196 2094 2191
8 2287 2196 2094 2191 2203 2104 1998 2103
8 2194 2098 1991 2091 2288 2199 2097 2192
8 2195 2096 2197 2289 2093 1988 2095 2193
8 2096 2195 2290 2198 1990 2092 2194 2098
8 2097 1996 2099 2196 2199 2102 2200 2291
8 2196 2099 1999 2104 2291 2200 2105 2204
8 2100 2197 2292 2201 1994 2096 2198 2101
8 1995 2098 2198 2101 2102 2199 2293 2202
8 2206 2107 2204 2296 2106 2001 2104 2203
8 2207 2108 2205 2297 2107 2002 2105 2204
8 2209 2110 2207 2299 2109 2004 2107 2206
8 2210 2111 2208 2300 2110 2005 2108 2207
8 2212 2113 2210 2302 2112 2007 2110 2209
8 2213 2114 2211 2303 2113 2008 2111 2210
8 2220 2117 2213 2305 2120 2011 2113 2212
8 2216 2115 2214 2306 2117 2009 2114 2213
8 2216 2115 2009 2117 2311 2217 2116 2219
8 2219 2116 2010 2119 2314 2218 2118 2222
8 2315 2219 2117 2220 2223 2119 2011 2120
8 2122 2012 2121 2225 2222 2118 2221 2317
8 2318 2222 2119 2223 2226 2122 2013 2123
8 2125 2015 2124 2228 2225 2121 2224 2320
8 2126 2016 2125 2229 2226 2122 2225 2321
8 2128 2018 2127 2231 2228 2124 2227 2323
8 2129 2019 2128 2232 2229 2125 2228 2324
8 2131 2021 2130 2234 2231 2127 2230 2326
8 2132 2022 2131 2235 2232 2128 2231 2327
8 2134 2024 2133 2236 2234 2130 2233 2328
8 2135 2025 2134 2237 2235 2131 2234 2329
8 2137 2028 2136 2238 2237 2134 2236 2330
8 2157 2050 2158 2259 2240 2139 2239 2332
8 2257 2157 2240 2334 2161 2054 2140 2242
8 2240 2139 2241 2335 2140 2033 2141 2243
8 2242 2140 2243 2337 2144 2035 2143 2247
8 2243 2141 2244 2338 2143 2034 2142 2246
8 2246 2142 2245 2341 2146 2036 2145 2249
8 2247 2143 2246 2342 2147 2037 2146 2250
8 2249 2145 2248 2343 2149 2038 2148 2251
8 2250 2146 2249 2344 2150 2039 2149 2252
8 2252 2149 2251 2345 2152 2042 2151 2253
8 2169 2271 2347 2254 2062 2170 2255 2154
8 2189 2085 2188 2285 2255 2154 2254 2347
8 2348 2255 2155 2256 2286 2189 2086 2190
8 2272 2170 2063 2171 2348 2255 2155 2256
8 2349 2258 2157 2257 2263 2164 2054 2161
8 2258 2159 2261 2351 2157 2050 2158 2259
8 2258 2159 2056 2164 2351 2261 2165 2264
8 2262 2163 2060 2167 2355 2264 2168 2269
8 2162 2055 2163 2262 2263 2164 2264 2355
8 2357 2266 2165 2264 2268 2166 2061 2168
8 2268 2166 2076 2182 2361 2267 2181 2280
8 2281 2182 2268 2362 2183 2077 2168 2269
8 2271 2169 2270 2364 2177 2075 2180 2277
8 2172 2070 2170 2272 2273 2177 2271 2365
8 2072 2173 2274 2178 2177 2273 2366 2277
8 2071 2174 2275 2176 2178 2274 2367 2276
8 2275 2176 2276 2367 2184 2083 2186 2282
8 2283 2187 2084 2186 2368 2278 2179 2276
8 2178 2074 2180 2277 2276 2179 2278 2368
8 2283 2187 2279 2370 2186 2084 2181 2280
8 2281 2182 2082 2185 2371 2280 2186 2282
8 2188 2285 2374 2284 2100 2197 2292 2201
8 2286 2189 2095 2193 2375 2285 2197 2289
8 2192 2097 2196 2287 2288 2199 2291 2376
8 2287 2196 2104 2203 2376 2291 2204 2296
8 2194 2098 2199 2288 2290 2198 2293 2377
8 2289 2197 2096 2195 2378 2292 2198 2290
8 2291 2200 2105 2204 2379 2294 2205 2297
8 2199 2102 2200 2291 2293 2202 2294 2379
8 2198 2101 2202 2293 2292 2201 2295 2380
8 2299 2207 2297 2383 2206 2107 2204 2296
8 2300 2208 2298 2384 2207 2108 2205 2297
8 2302 2210 2300 2386 2209 2110 2207 2299
8 2303 2211 2301 2387 2210 2111 2208 2300
8 2305 2213 2303 2389 2212 2113 2210 2302
8 2306 2214 2304 2390 2213 2114 2211 2303
8 2310 2216 2306 2392 2220 2117 2213 2305
8 2308 2215 2307 2393 2216 2115 2214 2306
8 2308 2215 2115 2216 2396 2309 2217 2311
8 2310 2216 2117 2220 2398 2311 2219 2315
8 2311 2217 2116 2219 2399 2312 2218 2314
8 2314 2218 2118 2222 2402 2313 2221 2317
8 2315 2219 2119 2223 2403 2314 2222 2318
8 2225 2121 2224 2320 2317 2221 2316 2405
8 2226 2122 2225 2321 2318 2222 2317 2406
8 2228 2124 2227 2323 2320 2224 2319 2408
8 2229 2125 2228 2324 2321 2225 2320 2409
8 2231 2127 2230 2326 2323 2227 2322 2411
8 2232 2128 2231 2327 2324 2228 2323 2412
8 2234 2130 2233 2328 2326 2230 2325 2413
8 2235 2131 2234 2329 2327 2231 2326 2414
8 2237 2134 2236 2330 2329 2234 2328 2415
8 2259 2158 2260 2352 2332 2239 2331 2417
8 2257 2157 2259 2350 2334 2240 2332 2419
8 2240 2139 2239 2332 2335 2241 2333 2420
8 2334 2240 2335 2422 2242 2140 2243 2337
8 2335 2241 2336 2423 2243 2141 2244 2338
8 2337 2243 2338 2425 2247 2143 2246 2342
8 2338 2244 2339 2426 2246 2142 2245 2341
8 2341 2245 2340 2428 2249 2145 2248 2343
8 2342 2246 2341 2429 2250 2146 2249 2344
8 2344 2249 2343 2430 2252 2149 2251 2345
8 2188 2285 2347 2254 2284 2374 2432 2346
8 2347 2254 2346 2432 2271 2169 2270 2364
8 2365 2271 2170 2272 2433 2347 2255 2348
8 2286 2189 2285 2375 2348 2255 2347 2433
8 2349 2258 2351 2435 2257 2157 2259 2350
8 2349 2258 2164 2263 2435 2351 2264 2355
8 2259 2158 2261 2351 2352 2260 2354 2437
8 2356 2265 2354 2437 2264 2165 2261 2351
8 2441 2357 2264 2355 2362 2268 2168 2269
8 2356 2265 2165 2264 2442 2358 2266 2357
8 2443 2359 2266 2357 2361 2267 2166 2268
8 2370 2279 2360 2446 2280 2181 2267 2361
8 2362 2268 2182 2281 2447 2361 2280 2371
8 2180 2277 2368 2278 2270 2364 2449 2363
8 2271 2365 2273 2177 2364 2450 2366 2277
8 2372 2283 2186 2282 2451 2368 2276 2367
8 2178 2274 2367 2276 2277 2366 2451 2368
8 2283 2187 2278 2368 2370 2279 2369 2452
8 2372 2283 2370 2453 2282 2186 2280 2371
8 2284 2374 2455 2373 2201 2292 2380 2295
8 2375 2285 2197 2289 2456 2374 2292 2378
8 2376 2291 2204 2296 2457 2379 2297 2383
8 2288 2199 2291 2376 2377 2293 2379 2457
8 2198 2290 2378 2292 2293 2377 2458 2380
8 2293 2202 2294 2379 2380 2295 2381 2459
8 2384 2298 2381 2459 2297 2205 2294 2379
8 2386 2300 2384 2463 2299 2207 2297 2383
8 2387 2301 2385 2464 2300 2208 2298 2384
8 2389 2303 2387 2466 2302 2210 2300 2386
8 2390 2304 2388 2467 2303 2211 2301 2387
8 2392 2306 2390 2469 2305 2213 2303 2389
8 2393 2307 2391 2470 2306 2214 2304 2390
8 2395 2308 2393 2472 2310 2216 2306 2392
8 2308 2215 2309 2396 2393 2307 2394 2473
8 2395 2308 2216 2310 2475 2396 2311 2398
8 2396 2309 2217 2311 2476 2397 2312 2399
8 2398 2311 2219 2315 2478 2399 2314 2403
8 2399 2312 2218 2314 2479 2400 2313 2402
8 2317 2221 2316 2405 2402 2313 2401 2482
8 2403 2314 2222 2318 2483 2402 2317 2406
8 2320 2224 2319 2408 2405 2316 2404 2485
8 2321 2225 2320 2409 2406 2317 2405 2486
8 2323 2227 2322 2411 2408 2319 2407 2488
8 2324 2228 2323 2412 2409 2320 2408 2489
8 2326 2230 2325 2413 2411 2322 2410 2490
8 2327 2231 2326 2414 2412 2323 2411 2491
8 2329 2234 2328 2415 2414 2326 2413 2492
8 2417 2331 2260 2352 2494 2416 2353 2438
8 2350 2259 2352 2436 2419 2332 2417 2496
8 2332 2239 2331 2417 2420 2333 2418 2497
8 2334 2240 2332 2419 2422 2335 2420 2499
8 2420 2333 2421 2500 2335 2241 2336 2423
8 2422 2335 2423 2502 2337 2243 2338 2425
8 2423 2336 2424 2503 2338 2244 2339 2426
8 2425 2338 2426 2505 2342 2246 2341 2429
8 2426 2339 2427 2506 2341 2245 2340 2428
8 2429 2341 2428 2507 2344 2249 2343 2430
8 2432 2346 2284 2374 2509 2431 2373 2455
8 2432 2346 2431 2509 2364 2270 2363 2449
8 2375 2285 2374 2456 2433 2347 2432 2510
8 2347 2433 2365 2271 2432 2510 2450 2364
8 2350 2259 2351 2435 2436 2352 2437 2514
8 2440 2356 2437 2514 2355 2264 2351 2435
8 2352 2260 2354 2437 2438 2353 2439 2516
8 2356 2265 2358 2442 2437 2354 2439 2516
8 2440 2356 2264 2355 2518 2442 2357 2441
8 2519 2443 2357 2441 2447 2361 2268 2362
8 2443 2359 2444 2520 2357 2266 2358 2442
8 2443 2359 2267 2361 2520 2444 2360 2446
8 2446 2360 2279 2370 2523 2445 2369 2452
8 2453 2370 2446 2524 2371 2280 2361 2447
8 2449 2363 2448 2525 2368 2278 2369 2452
8 2366 2277 2364 2450 2451 2368 2449 2526
8 2372 2283 2368 2451 2453 2370 2452 2527
8 2455 2373 2295 2380 2529 2454 2382 2460
8 2456 2374 2292 2378 2530 2455 2380 2458
8 2377 2293 2379 2457 2458 2380 2459 2531
8 2463 2384 2459 2531 2383 2297 2379 2457
8 2533 2461 2382 2460 2459 2381 2295 2380
8 2464 2385 2461 2533 2384 2298 2381 2459
8 2466 2387 2464 2537 2386 2300 2384 2463
8 2467 2388 2465 2538 2387 2301 2385 2464
8 2469 2390 2467 2540 2389 2303 2387 2466
8 2470 2391 2468 2541 2390 2304 2388 2467
8 2472 2393 2470 2543 2392 2306 2390 2469
8 2393 2307 2394 2473 2470 2391 2471 2544
8 2395 2308 2396 2475 2472 2393 2473 2546
8 2396 2309 2397 2476 2473 2394 2474 2547
8 2475 2396 2311 2398 2549 2476 2399 2478
8 2476 2397 2312 2399 2550 2477 2400 2479
8 2478 2399 2314 2403 2552 2479 2402 2483
8 2479 2400 2313 2402 2553 2480 2401 2482
8 2405 2316 2404 2485 2482 2401 2481 2556
8 2406 2317 2405 2486 2483 2402 2482 2557
8 2408 2319 2407 2488 2485 2404 2484 2559
8 2409 2320 2408 2489 2486 2405 2485 2560
8 2411 2322 2410 2490 2488 2407 2487 2561
8 2412 2323 2411 2491 2489 2408 2488 2562
8 2414 2326 2413 2492 2491 2411 2490 2563
8 2513 2434 2493 2565 2438 2353 2416 2494
8 2496 2417 2352 2436 2567 2494 2438 2515
8 2494 2416 2495 2568 2417 2331 2418 2497
8 2419 2332 2417 2496 2499 2420 2497 2570
8 2497 2418 2498 2571 2420 2333 2421 2500
8 2499 2420 2500 2573 2422 2335 2423 2502
8 2500 2421 2501 2574 2423 2336 2424 2503
8 2502 2423 2503 2576 2425 2338 2426 2505
8 2503 2424 2504 2577 2426 2339 2427 2506
8 2505 2426 2506 2578 2429 2341 2428 2507
8 2509 2431 2373 2455 2580 2508 2454 2529
8 2509 2431 2508 2580 2449 2363 2448 2525
8 2432 2510 2581 2509 2374 2456 2530 2455
8 2432 2510 2450 2364 2509 2581 2526 2449
8 2583 2511 2434 2513 2516 2439 2353 2438
8 2436 2352 2437 2514 2515 2438 2516 2588
8 2440 2356 2442 2518 2514 2437 2516 2588
8 2442 2358 2444 2520 2516 2439 2517 2589
8 2519 2443 2520 2591 2441 2357 2442 2518
8 2519 2443 2361 2447 2591 2520 2446 2524
8 2446 2360 2445 2523 2520 2444 2521 2592
8 2525 2448 2522 2593 2452 2369 2445 2523
8 2524 2446 2370 2453 2594 2523 2452 2527
8 2526 2449 2525 2595 2451 2368 2452 2527
8 2534 2462 2528 2597 2460 2382 2454 2529
8 2530 2455 2380 2458 2598 2529 2460 2532
8 2599 2533 2460 2532 2531 2459 2380 2458
8 2537 2464 2533 2599 2463 2384 2459 2531
8 2534 2462 2382 2460 2601 2535 2461 2533
8 2538 2465 2535 2601 2464 2385 2461 2533
8 2540 2467 2538 2604 2466 2387 2464 2537
8 2541 2468 2539 2605 2467 2388 2465 2538
8 2543 2470 2541 2607 2469 2390 2467 2540
8 2470 2391 2471 2544 2541 2468 2542 2608
8 2472 2393 2473 2546 2543 2470 2544 2610
8 2473 2394 2474 2547 2544 2471 2545 2611
8 2475 2396 2476 2549 2546 2473 2547 2613
8 2476 2397 2477 2550 2547 2474 2548 2614
8 2549 2476 2399 2478 2616 2550 2479 2552
8 2479 2400 2480 2553 2550 2477 2551 2617
8 2552 2479 2402 2483 2619 2553 2482 2557
8 2482 2401 2481 2556 2553 2480 2554 2620
8 2485 2404 2484 2559 2556 2481 2555 2623
8 2486 2405 2485 2560 2557 2482 2556 2624
8 2488 2407 2487 2561 2559 2484 2558 2625
8 2489 2408 2488 2562 2560 2485 2559 2626
8 2491 2411 2490 2563 2562 2488 2561 2627
8 2513 2434 2512 2585 2565 2493 2564 2630
8 2586 2513 2565 2632 2515 2438 2494 2567
8 2565 2493 2566 2633 2494 2416 2495 2568
8 2567 2494 2568 2635 2496 2417 2497 2570
8 2568 2495 2569 2636 2497 2418 2498 2571
8 2570 2497 2571 2638 2499 2420 2500 2573
8 2571 2498 2572 2639 2500 2421 2501 2574
8 2573 2500 2574 2641 2502 2423 2503 2576
8 2574 2501 2575 2642 2503 2424 2504 2577
8 2576 2503 2577 2643 2505 2426 2506 2578
8 2597 2528 2579 2645 2529 2454 2508 2580
8 2580 2508 2579 2645 2525 2448 2522 2593
8 2581 2509 2455 2530 2646 2580 2529 2598
8 2581 2509 2580 2646 2526 2449 2525 2595
8 2583 2511 2582 2648 2513 2434 2512 2585
8 2583 2511 2439 2516 2648 2582 2517 2589
8 2649 2583 2513 2586 2588 2516 2438 2515
8 2589 2517 2444 2520 2653 2587 2521 2592
8 2518 2442 2520 2591 2588 2516 2589 2654
8 2593 2522 2590 2655 2523 2445 2521 2592
8 2524 2446 2523 2594 2591 2520 2592 2656
8 2595 2525 2593 2657 2527 2452 2523 2594
8 2602 2536 2596 2659 2534 2462 2528 2597
8 2600 2534 2597 2660 2532 2460 2529 2598
8 2600 2534 2460 2532 2661 2601 2533 2599
8 2604 2538 2601 2661 2537 2464 2533 2599
8 2602 2536 2462 2534 2663 2603 2535 2601
8 2601 2535 2465 2538 2663 2603 2539 2605
8 2607 2541 2605 2665 2540 2467 2538 2604
8 2608 2542 2606 2666 2541 2468 2539 2605
8 2543 2470 2544 2610 2607 2541 2608 2668
8 2544 2471 2545 2611 2608 2542 2609 2669
8 2546 2473 2547 2613 2610 2544 2611 2671
8 2547 2474 2548 2614 2611 2545 2612 2672
8 2549 2476 2550 2616 2613 2547 2614 2674
8 2550 2477 2551 2617 2614 2548 2615 2675
8 2552 2479 2553 2619 2616 2550 2617 2677
8 2553 2480 2554 2620 2617 2551 2618 2678
8 2557 2482 2556 2624 2619 2553 2620 2680
8 2556 2481 2555 2623 2620 2554 2621 2681
8 2559 2484 2558 2625 2623 2555 2622 2683
8 2560 2485 2559 2626 2624 2556 2623 2684
8 2562 2488 2561 2627 2626 2559 2625 2685
8 2690 2629 2564 2630 2650 2584 2512 2585
8 2586 2513 2585 2651 2632 2565 2630 2691
8 2630 2564 2631 2692 2565 2493 2566 2633
8 2632 2565 2633 2694 2567 2494 2568 2635
8 2633 2566 2634 2695 2568 2495 2569 2636
8 2635 2568 2636 2697 2570 2497 2571 2638
8 2636 2569 2637 2698 2571 2498 2572 2639
8 2638 2571 2639 2700 2573 2500 2574 2641
8 2639 2572 2640 2701 2574 2501 2575 2642
8 2641 2574 2642 2702 2576 2503 2577 2643
8 2597 2528 2596 2659 2645 2579 2644 2704
8 2645 2579 2644 2704 2593 2522 2590 2655
8 2660 2597 2645 2705 2598 2529 2580 2646
8 2646 2580 2645 2705 2595 2525 2593 2657
8 2650 2584 2512 2585 2707 2647 2582 2648
8 2648 2582 2517 2589 2707 2647 2587 2653
8 2649 2583 2648 2708 2586 2513 2585 2651
8 2649 2583 2516 2588 2708 2648 2589 2654
8 2655 2590 2652 2710 2592 2521 2587 2653
8 2654 2589 2520 2591 2711 2653 2592 2656
8 2657 2593 2655 2712 2594 2523 2592 2656
8 2602 2536 2603 2663 2659 2596 2658 2714
8 2662 2602 2659 2715 2600 2534 2597 2660
8 2662 2602 2534 2600 2717 2663 2601 2661
8 2661 2601 2538 2604 2717 2663 2605 2665
8 2666 2606 2664 2718 2605 2539 2603 2663
8 2668 2608 2666 2720 2607 2541 2605 2665
8 2608 2542 2609 2669 2666 2606 2667 2721
8 2610 2544 2611 2671 2668 2608 2669 2723
8 2611 2545 2612 2672 2669 2609 2670 2724
8 2613 2547 2614 2674 2671 2611 2672 2726
8 2614 2548 2615 2675 2672 2612 2673 2727
8 2616 2550 2617 2677 2674 2614 2675 2729
8 2617 2551 2618 2678 2675 2615 2676 2730
8 2619 2553 2620 2680 2677 2617 2678 2732
8 2620 2554 2621 2681 2678 2618 2679 2733
8 2624 2556 2623 2684 2680 2620 2681 2735
8 2681 2621 2555 2623 2736 2682 2622 2683
8 2626 2559 2625 2685 2684 2623 2683 2737
8 2688 2628 2584 2650 2740 2686 2647 2707
8 2688 2628 2687 2742 2650 2584 2629 2690
8 2690 2629 2689 2745 2630 2564 2631 2692
8 2746 2690 2630 2691 2709 2650 2585 2651
8 2691 2630 2692 2747 2632 2565 2633 2694
8 2692 2631 2693 2748 2633 2566 2634 2695
8 2694 2633 2695 2750 2635 2568 2636 2697
8 2695 2634 2696 2751 2636 2569 2637 2698
8 2697 2636 2698 2753 2638 2571 2639 2700
8 2698 2637 2699 2754 2639 2572 2640 2701
8 2700 2639 2701 2755 2641 2574 2642 2702
8 2659 2596 2658 2714 2704 2644 2703 2757
8 2704 2644 2703 2757 2655 2590 2652 2710
8 2660 2597 2659 2715 2705 2645 2704 2758
8 2705 2645 2704 2758 2657 2593 2655 2712
8 2759 2706 2647 2707 2710 2652 2587 2653
8 2709 2650 2585 2651 2760 2707 2648 2708
8 2708 2648 2589 2654 2760 2707 2653 2711
8 2712 2655 2710 2761 2656 2592 2653 2711
8 2763 2713 2658 2714 2718 2664 2603 2663
8 2662 2602 2663 2717 2715 2659 2714 2764
8 2720 2666 2718 2767 2665 2605 2663 2717
8 2768 2719 2664 2718 2721 2667 2606 2666
8 2668 2608 2669 2723 2720 2666 2721 2770
8 2669 2609 2670 2724 2721 2667 2722 2771
8 2671 2611 2672 2726 2723 2669 2724 2773
8 2672 2612 2673 2727 2724 2670 2725 2774
8 2674 2614 2675 2729 2726 2672 2727 2776
8 2675 2615 2676 2730 2727 2673 2728 2777
8 2677 2617 2678 2732 2729 2675 2730 2779
8 2678 2618 2679 2733 2730 2676 2731 2780
8 2680 2620 2681 2735 2732 2678 2733 2782
8 2733 2679 2621 2681 2783 2734 2682 2736
8 2735 2681 2623 2684 2784 2736 2683 2737
8 2740 2686 2647 2707 2787 2738 2706 2759
8 2688 2628 2686 2740 2742 2687 2739 2789
8 2743 2688 2650 2709 2790 2740 2707 2760
8 2742 2687 2741 2792 2690 2629 2689 2745
8 2743 2688 2742 2793 2709 2650 2690 2746
8 2745 2689 2744 2795 2692 2631 2693 2748
8 2746 2690 2745 2796 2691 2630 2692 2747
8 2747 2692 2748 2797 2694 2633 2695 2750
8 2748 2693 2749 2798 2695 2634 2696 2751
8 2750 2695 2751 2800 2697 2636 2698 2753
8 2751 2696 2752 2801 2698 2637 2699 2754
8 2753 2698 2754 2802 2700 2639 2701 2755
8 2763 2713 2756 2804 2714 2658 2703 2757
8 2759 2706 2652 2710 2804 2756 2703 2757
8 2715 2659 2714 2764 2758 2704 2757 2805
8 2758 2704 2757 2805 2712 2655 2710 2761
8 2806 2759 2707 2760 2761 2710 2653 2711
8 2765 2716 2762 2808 2718 2664 2713 2763
8 2809 2763 2714 2764 2767 2718 2663 2717
8 2765 2716 2664 2718 2811 2766 2719 2768
8 2813 2768 2718 2767 2770 2721 2666 2720
8 2814 2769 2719 2768 2771 2722 2667 2721
8 2723 2669 2724 2773 2770 2721 2771 2816
8 2724 2670 2725 2774 2771 2722 2772 2817
8 2726 2672 2727 2776 2773 2724 2774 2819
8 2727 2673 2728 2777 2774 2725 2775 2820
8 2729 2675 2730 2779 2776 2727 2777 2822
8 2730 2676 2731 2780 2777 2728 2778 2823
8 2732 2678 2733 2782 2779 2730 2780 2825
8 2780 2731 2679 2733 2826 2781 2734 2783
8 2782 2733 2681 2735 2827 2783 2736 2784
8 2830 2785 2738 2787 2804 2756 2706 2759
8 2789 2739 2686 2740 2832 2786 2738 2787
8 2790 2740 2707 2760 2833 2787 2759 2806
8 2742 2687 2739 2789 2792 2741 2788 2835
8 2743 2688 2740 2790 2793 2742 2789 2836
8 2792 2741 2791 2838 2745 2689 2744 2795
8 2793 2742 2792 2839 2746 2690 2745 2796
8 2795 2744 2794 2841 2748 2693 2749 2798
8 2796 2745 2795 2842 2747 2692 2748 2797
8 2797 2748 2798 2843 2750 2695 2751 2800
8 2798 2749 2799 2844 2751 2696 2752 2801
8 2800 2751 2801 2845 2753 2698 2754 2802
8 2808 2762 2803 2847 2763 2713 2756 2804
8 2809 2763 2804 2848 2764 2714 2757 2805
8 2806 2759 2710 2761 2848 2804 2757 2805
8 2765 2716 2766 2811 2808 2762 2807 2850
8 2810 2765 2808 2851 2767 2718 2763 2809
8 2810 2765 2718 2767 2852 2811 2768 2813
8 2811 2766 2719 2768 2853 2812 2769 2814
8 2855 2814 2768 2813 2816 2771 2721 2770
8 2856 2815 2769 2814 2817 2772 2722 2771
8 2773 2724 2774 2819 2816 2771 2817 2858
8 2774 2725 2775 2820 2817 2772 2818 2859
8 2776 2727 2777 2822 2819 2774 2820 2861
8 2777 2728 2778 2823 2820 2775 2821 2862
8 2779 2730 2780 2825 2822 2777 2823 2864
8 2823 2778 2731 2780 2865 2824 2781 2826
8 2825 2780 2733 2782 2866 2826 2783 2827
8 2869 2828 2785 2830 2847 2803 2756 2804
8 2871 2829 2786 2832 2830 2785 2738 2787
8 2872 2830 2787 2833 2848 2804 2759 2806
8 2789 2739 2786 2832 2835 2788 2831 2874
8 2836 2789 2740 2790 2875 2832 2787 2833
8 2792 2741 2788 2835 2838 2791 2834 2877
8 2793 2742 2789 2836 2839 2792 2835 2878
8 2838 2791 2837 2880 2795 2744 2794 2841
8 2839 2792 2838 2881 2796 2745 2795 2842
8 2841 2794 2840 2882 2798 2749 2799 2844
8 2842 2795 2841 2883 2797 2748 2798 2843
8 2843 2798 2844 2884 2800 2751 2801 2845
8 2886 2846 2803 2847 2850 2807 2762 2808
8 2851 2808 2847 2887 2809 2763 2804 2848
8 2850 2807 2766 2811 2889 2849 2812 2853
8 2810 2765 2811 2852 2851 2808 2850 2890
8 2852 2811 2768 2813 2891 2853 2814 2855
8 2853 2812 2769 2814 2892 2854 2815 2856
8 2894 2856 2814 2855 2858 2817 2771 2816
8 2817 2772 2818 2859 2856 2815 2857 2895
8 2819 2774 2820 2861 2858 2817 2859 2897
8 2820 2775 2821 2862 2859 2818 2860 2898
8 2822 2777 2823 2864 2861 2820 2862 2900
8 2823 2778 2824 2865 2862 2821 2863 2901
8 2864 2823 2780 2825 2902 2865 2826 2866
8 2904 2867 2828 2869 2886 2846 2803 2847
8 2869 2828 2868 2906 2830 2785 2829 2871
8 2907 2869 2830 2872 2887 2847 2804 2848
8 2871 2829 2870 2909 2832 2786 2831 2874
8 2910 2871 2832 2875 2872 2830 2787 2833
8 2835 2788 2831 2874 2877 2834 2873 2912
8 2836 2789 2832 2875 2878 2835 2874 2913
8 2877 2834 2876 2915 2838 2791 2837 2880
8 2839 2792 2835 2878 2881 2838 2877 2916
8 2880 2837 2879 2917 2841 2794 2840 2882
8 2881 2838 2880 2918 2842 2795 2841 2883
8 2883 2841 2882 2919 2843 2798 2844 2884
8 2921 2885 2846 2886 2889 2849 2807 2850
8 2922 2886 2847 2887 2890 2850 2808 2851
8 2889 2849 2812 2853 2924 2888 2854 2892
8 2890 2850 2811 2852 2925 2889 2853 2891
8 2891 2853 2814 2855 2926 2892 2856 2894
8 2892 2854 2815 2856 2927 2893 2857 2895
8 2858 2817 2859 2897 2894 2856 2895 2929
8 2859 2818 2860 2898 2895 2857 2896 2930
8 2861 2820 2862 2900 2897 2859 2898 2932
8 2862 2821 2863 2901 2898 2860 2899 2933
8 2864 2823 2865 2902 2900 2862 2901 2934
8 2904 2867 2846 2886 2936 2903 2885 2921
8 2904 2867 2903 2936 2869 2828 2868 2906
8 2937 2904 2869 2907 2922 2886 2847 2887
8 2906 2868 2905 2939 2871 2829 2870 2909
8 2907 2869 2906 2940 2872 2830 2871 2910
8 2909 2870 2908 2942 2874 2831 2873 2912
8 2910 2871 2909 2943 2875 2832 2874 2913
8 2912 2873 2911 2945 2877 2834 2876 2915
8 2878 2835 2874 2913 2916 2877 2912 2946
8 2915 2876 2914 2947 2880 2837 2879 2917
8 2916 2877 2915 2948 2881 2838 2880 2918
8 2918 2880 2917 2949 2883 2841 2882 2919
8 2921 2885 2849 2889 2951 2920 2888 2924
8 2952 2921 2886 2922 2925 2889 2850 2890
8 2924 2888 2854 2892 2954 2923 2893 2927
8 2925 2889 2853 2891 2955 2924 2892 2926
8 2926 2892 2856 2894 2956 2927 2895 2929
8 2895 2857 2896 2930 2927 2893 2928 2957
8 2897 2859 2898 2932 2929 2895 2930 2959
8 2898 2860 2899 2933 2930 2896 2931 2960
8 2900 2862 2901 2934 2932 2898 2933 2961
8 2936 2903 2885 2921 2963 2935 2920 2951
8 2936 2903 2935 2963 2906 2868 2905 2939
8 2937 2904 2886 2922 2964 2936 2921 2952
8 2937 2904 2936 2964 2907 2869 2906 2940
8 2939 2905 2938 2966 2909 2870 2908 2942
8 2940 2906 2939 2967 2910 2871 2909 2943
8 2942 2908 2941 2969 2912 2873 2911 2945
8 2943 2909 2942 2970 2913 2874 2912 2946
8 2945 2911 2944 2971 2915 2876 2914 2947
8 2946 2912 2945 2972 2916 2877 2915 2948
8 2948 2915 2947 2973 2918 2880 2917 2949
8 2951 2920 2888 2924 2975 2950 2923 2954
8 2952 2921 2889 2925 2976 2951 2924 2955
8 2927 2893 2928 2957 2954 2923 2953 2978
8 2955 2924 2892 2926 2979 2954 2927 2956
8 2929 2895 2930 2959 2956 2927 2957 2980
8 2930 2896 2931 2960 2957 2928 2958 2981
8 2932 2898 2933 2961 2959 2930 2960 2982
8 2951 2920 2950 2975 2963 2935 2962 2984
8 2963 2935 2962 2984 2939 2905 2938 2966
8 2964 2936 2921 2952 2985 2963 2951 2976
8 2964 2936 2963 2985 2940 2906 2939 2967
8 2966 2938 2965 2987 2942 2908 2941 2969
8 2967 2939 2966 2988 2943 2909 2942 2970
8 2969 2941 2968 2989 2945 2911 2944 2971
8 2970 2942 2969 2990 2946 2912 2945 2972
8 2972 2945 2971 2991 2948 2915 2947 2973
8 2954 2923 2953 2978 2975 2950 2974 2993
8 2976 2951 2924 2955 2994 2975 2954 2979
8 2957 2928 2958 2981 2978 2953 2977 2995
8 2956 2927 2957 2980 2979 2954 2978 2996
8 2959 2930 2960 2982 2980 2957 2981 2997
8 2984 2962 2983 2999 2966 2938 2965 2987
8 2975 2950 2974 2993 2984 2962 2983 2999
8 2976 2951 2975 2994 2985 2963 2984 3000
8 2985 2963 2984 3000 2967 2939 2966 2988
8 2987 2965 2986 3001 2969 2941 2968 2989
8 2988 2966 2987 3002 2970 2942 2969 2990
8 2990 2969 2989 3003 2972 2945 2971 2991
8 2978 2953 2977 2995 2993 2974 2992 3004
8 2979 2954 2978 2996 2994 2975 2993 3005
8 2980 2957 2981 2997 2996 2978 2995 3006
8 2974 2993 2999 2983 2992 3004 3007 2998
8 2983 2999 2987 2965 2998 3007 3001 2986
8 3000 2984 2999 3008 2988 2966 2987 3002
8 2994 2975 2993 3005 3000 2984 2999 3008
8 3002 2987 3001 3009 2990 2969 2989 3003
8 2996 2978 2995 3006 3005 2993 3004 3010
8 3005 2993 3004 3010 3008 2999 3007 3011
8 3008 2999 3007 3011 3002 2987 3001 3009

CELL_TYPES 1910
12
12
12
12
12
12
12
12
12
12
12
12
12
12
12
12
12
12
12
12
12
12
12
12
12
12
12
12
12
12
12
12
12
12
12
12
12
12
12
12
12
12
12
12
12
12
12
12
12
12
12
12
12
12
12
12
12
12
12
12
12
12
12
12
12
12
12
12
12
12
12
12
12
12
12
12
12
12
12
12
12
12
12
12
12
12
12
12
12
12
12
12
12
12
12
12
12
12
12
12
12
12
12
12
12
12
12
12
12
12
12
12
12
12
12
12
12
12
12
12
12
12
12
12
12
12
12
12
12
12
12
12
12
12
12
12
12
12
12
12
12
12
12
12
12
12
12
12
12
12
12
12
12
12
12
12
12
12
12
12
12
12
12
12
12
12
12
12
12
12
12
12
12
12
12
12
12
12
12
12
12
12
12
12
12
12
12
12
12
12
12
12
12
12
12
12
12
12
12
12
12
12
12
12
12
12
12
12
12
12
12
12
12
12
12
12
12
12
12
12
12
12
12
12
12
12
12
12
12
12
12
12
12
12
12
12
12
12
12
12
12
12
12
12
12
12
12
12
12
12
12
12
12
12
12
12
12
12
12
12
12
12
12
12
12
12
12
12
12
12
12
12
12
12
12
12
12
12
12
12
12
12
12
12
12
12
12
12
12
12
12
12
12
12
12
12
12
12
12
12
12
12
12
12
12
12
12
12
12
12
12
12
12
12
12
12
12
12
12
12
12
12
12
12
12
12
12
12
12
12
12
12
12
12
12
12
12
12
12
12
12
12
12
12
12
12
12
12
12
12
12
12
12
12
12
12
12
12
12
12
12
12
12
12
12
12
12
12
12
12
12
12
12
12
12
12
12
12
12
12
12
12
12
12
12
12
12
12
12
12
12
12
12
12
12
12
12
12
12
12
12
12
12
12
12
12
12
12
12
12
12
12
12
12
12
12
12
12
12
12
12
12
12
12
12
12
12
12
12
12
12
12
12
12
12
12
12
12
12
12
12
12
12
12
12
12
12
12
12
12
12
12
12
12
12
12
12
12
12
12
12
12
12
12
12
12
12
12
12
12
12
12
12
12
12
12
12
12
12
12
12
12
12
12
12
12
12
12
12
12
12
12
12
12
12
12
12
12
12
12
12
12
12
12
12
12
12
12
12
12
12
12
12
12
12
12
12
12
12
12
12
12
12
12
12
12
12
12
12
12
12
12
12
12
12
12
12
12
12
12
12
12
12
12
12
12
12
12
12
12
12
12
12
12
12
12
12
12
12
12
12
12
12
12
12
12
12
12
12
12
12
12
12
12
12
12
12
12
12
12
12
12
12
12
12
12
12
12
12
12
12
12
12
12
12
12
12
12
12
12
12
12
12
12
12
12
12
12
12
12
12
12
12
12
12
12
12
12
12
12
12
12
12
12
12
12
12
12
12
12
12
12
12
12
12
12
12
12
12
12
12
12
12
12
12
12
12
12
12
12
12
12
12
12
12
12
12
12
12
12
12
12
12
12
12
12
12
12
12
12
12
12
12
12
12
12
12
12
12
12
12
12
12
12
12
12
12
12
12
12
12
12
12
12
12
12
12
12
12
12
12
12
12
12
12
12
12
12
12
12
12
12
12
12
12
12
12
12
12
12
12
12
12
12
12
12
12
12
12
12
12
12
12
12
12
12
12
12
12
12
12
12
12
12
12
12
12
12
12
12
12
12
12
12
12
12
12
12
12
12
12
12
12
12
12
12
12
12
12
12
12
12
12
12
12
12
12
12
12
12
12
12
12
12
12
12
12
12
12
12
12
12
12
12
12
12
12
12
12
12
12
12
12
12
12
12
12
12
12
12
12
12
12
12
12
12
12
12
12
12
12
12
12
12
12
12
12
12
12
12
12
12
12
12
12
12
12
12
12
12
12
12
12
12
12
12
12
12
12
12
12
12
12
12
12
12
12
12
12
12
12
12
12
12
12
12
12
12
12
12
12
12
12
12
12
12
12
12
12
12
12
12
12
12
12
12
12
12
12
12
12
12
12
12
12
12
12
12
12
12
12
12
12
12
12
12
12
12
12
12
12
12
12
12
12
12
12
12
12
12
12
12
12
12
12
12
12
12
12
12
12
12
12
12
12
12
12
12
12
12
12
12
12
12
12
12
12
12
12
12
12
12
12
12
12
12
12
12
12
12
12
12
12
12
12
12
12
12
12
12
12
12
12
12
12
12
12
12
12
12
12
12
12
12
12
12
12
12
12
12
12
12
12
12
12
12
12
12
12
12
12
12
12
12
12
12
12
12
12
12
12
12
12
12
12
12
12
12
12
12
12
12
12
12
12
12
12
12
12
12
12
12
12
12
12
12
12
12
12
12
12
12
12
12
12
12
12
12
12
12
12
12
12
12
12
12
12
12
12
12
12
12
12
12
12
12
12
12
12
12
12
12
12
12
12
12
12
12
12
12
12
12
12
12
12
12
12
12
12
12
12
12
12
12
12
12
12
12
12
12
12
12
12
12
12
12
12
12
12
12
12
12
12
12
12
12
12
12
12
12
12
12
12
12
12
12
12
12
12
12
12
12
12
12
12
12
12
12
12
12
12
12
12
12
12
12
12
12
12
12
12
12
12
12
12
12
12
12
12
12
12
12
12
12
12
12
12
12
12
12
12
12
12
12
12
12
12
12
12
12
12
12
12
12
12
12
12
12
12
12
12
12
12
12
12
12
12
12
12
12
12
12
12
12
12
12
12
12
12
12
12
12
12
12
12
12
12
12
12
12
12
12
12
12
12
12
12
12
12
12
12
12
12
12
12
12
12
12
12
12
12
12
12
12
12
12
12
12
12
12
12
12
12
12
12
12
12
12
12
12
12
12
12
12
12
12
12
12
12
12
12
12
12
12
12
12
12
12
12
12
12
12
12
12
12
12
12
12
12
12
12
12
12
12
12
12
12
12
12
12
12
12
12
12
12
12
12
12
12
12
12
12
12
12
12
12
12
12
12
12
12
12
12
12
12
12
12
12
12
12
12
12
12
12
12
12
12
12
12
12
12
12
12
12
12
12
12
12
12
12
12
12
12
12
12
12
12
12
12
12
12
12
12
12
12
12
12
12
12
12
12
12
12
12
12
12
12
12
12
12
12
12
12
12
12
12
12
12
12
12
12
12
12
12
12
12
12
12
12
12
12
12
12
12
12
12
12
12
12
12
12
12
12
12
12
12
12
12
12
12
12
12
12
12
12
12
12
12
12
12
12
12
12
12
12
12
12
12
12
12
12
12
12
12
12
12
12
12
12
12
12
12
12
12
12
12
12
12
12
12
12
12
12
12
12
12
12
12
12
12
12
12
12
12
12
12
12
12
12
12
12
12
12
12
12
12
12
12
12
12
12
12
12
12
12
12
12
12
12
12
12
12
12
12
12
12
12
12
12
12
12
12
12
12
12
12
12
12
12
12
12
12
12
12
12
12
12
12
12
12
12
12
12
12
12
12
12
12
12
12
12
12
12
12
12
12
12
12
12
12
12
12
12
12
12
12
12
12
12
12
12
12
12
12
12
12
12
12
12
12
12
12
12
12
12
12
12
12
12
12
12
12
12
12
12
12
12
12
12
12
12
12
12
12
12
12
12
12
12
12
12
12
12
12
12
12
12
12
12
12
12
12
12
12
12
12
12
12
12
12
12
12
12
12
12
12
12
12
12
12
12
12
12
12
12
12
12
12
12
12
12
12
12
12
12
12
12
12
12
12
12
12
12
12
12
12
12
12
12
12
12
12
12
12
12
12
12
12
12
12
12
12
12
12
12
12
12
12
12
12
12
12
12
12
12
12
12
12
12
12
12
12
12
12
12
12
12
12
12
12
12
12
12
12
12
12
12
12
12
12
12
12
12
12
12
12
12
12
12
12
12
12
12
12
12
12
12
12
12
12
12
12
12
12
12
12
12
12
12
12
12
12
12
12
12
12
12
12
12
12
12
12
12
12
12
12
12
12
12
12
12
12
12
12
12
12
12
12
12
12
12
12
12
12
12
12
12
12
12
12
12
12
12
12
12
12
12
12
12
12
12
12
12
12
12
12
12
12
12
12
12
12
12
12
12
12
12
12
12
12
12
12
12
12
12
12
12
12
12
12
12
12
12
12
12
12
12
12
12
12
12
12
12
12
12
12
12
12
12
12
12
12
12
12
12
12
12
12
12
12
12
12
12
12
12
12
12
12
12
12
12
12
12
12
12
12
12
12
12
12
12
12
12
12
12
12
12
12
12
12
12
12
12
12
12
12
12
12
12
12
12
12
12
12
12
12
12
12
12
12
12
12
12
12
12
12
12
12
12
12

POINT_DATA 3012
SCALARS Jp_lamdaP float 4
LOOKUP_TABLE default
1 1 1 1
1 1 1 1
1 1 1 1
0.999994 1 1 0.999994
1 1 1 1
1 1 1 1
0.999907 1 1 0.999907
1 1 1 1
1 1 1 1
1 1 1 1
1 1 1 1
0.999976 1 1 0.999976
0.999982 1 1 0.999982
0.999995 1 1 0.999995
1 1 1 1
0.999995 1 1 0.999995
1 1 1 1
1 1 1 1
0.999908 1 1 0.999908
1 1 1 1
0.999991 1 1 0.999991
0.999998 1 1 0.999998
0.999838 1 1 0.999838
0.999888 1 1 0.999888
1 1 1 1
0.999928 1 1 0.999928
0.99973 1 1 0.99973
1 1 1 1
1 1 1 1
1 1 1 1
1 1 1 1
0.999979 1 1 0.999979
0.999998 1 1 0.999998
1 1 1 1
0.999928 1 1 0.999928
1 1 1 1
0.999965 1 1 0.999965
0.999987 1 1 0.999987
0.999771 1 1 0.999771
1 1 1 1
1 1 1 1
0.999997 1 1 0.999997
1 1 1 1
0.999991 1 1 0.999991
0.999838 1 1 0.999838
1 1 1 1
0.999892 1 1 0.999892
0.999996 1 1 0.999996
1 1 1 1
1 1 1 1
0.999909 1 1 0.999909
0.999992 1 1 0.999992
0.999992 1 1 0.999992
1 1 1 1
0.999998 1 1 0.999998
0.999839 1 1 0.999839
0.999929 1 1 0.999929
0.999889 1 1 0.999889
0.999724 1 1 0.999724
1 1 1 1
0.999988 1 1 0.999988
0.999858 1 1 0.999858
0.999823 1 1 0.999823
0.999864 1 1 0.999864
0.999563 1 1 0.999563
0.999662 1 1 0.999662
1 1 1 1
0.999954 1 1 0.999954
0.999778 1 1 0.999778
0.999505 1 1 0.999505
1 1 1 1
1 1 1 1
1 1 1 1
0.999982 1 1 0.999982
1 1 1 1
1 1 1 1
0.999933 1 1 0.999933
1 1 1 1
0.999968 1 1 0.999968
0.999991 1 1 0.999991
0.99977 1 1 0.99977
1 1 1 1
1 1 1 1
0.999911 1 1 0.999911
0.999948 1 1 0.999948
0.999633 1 1 0.999633
0.999997 1 1 0.999997
0.99975 1 1 0.99975
0.999794 1 1 0.999794
0.999608 1 1 0.999608
1 1 1 1
1 1 1 1
1 1 1 1
1 1 1 1
1 1 1 1
0.999994 1 1 0.999994
0.99985 1 1 0.99985
0.999998 1 1 0.999998
0.999893 1 1 0.999893
1 1 1 1
0.999815 1 1 0.999815
0.999875 1 1 0.999875
0.999426 1 1 0.999426
0.999903 1 1 0.999903
0.99949 1 1 0.99949
0.999985 1 1 0.999985
0.999993 1 1 0.999993
1 1 1 1
0.999999 1 1 0.999999
0.999841 1 1 0.999841
0.999891 1 1 0.999891
0.99993 1 1 0.99993
0.999718 1 1 0.999718
1 1 1 1
0.99999 1 1 0.99999
0.999822 1 1 0.999822
0.999823 1 1 0.999823
1 1 1 1
0.999969 1 1 0.999969
0.999866 1 1 0.999866
0.999549 1 1 0.999549
0.999771 1 1 0.999771
0.999672 1 1 0.999672
0.999506 1 1 0.999506
0.999824 1 1 0.999824
0.999817 1 1 0.999817
0.999465 1 1 0.999465
0.999509 1 1 0.999509
0.999599 1 1 0.999599
0.999341 1 1 0.999341
1 1 1 1
0.999468 1 1 0.999468
0.999997 1 1 0.999997
0.99979 1 1 0.99979
0.999543 1 1 0.999543
0.999415 1 1 0.999415
1 1 1 1
0.999866 1 1 0.999866
1 1 1 1
1 1 1 1
0.999939 1 1 0.999939
1 1 1 1
0.999995 1 1 0.999995
0.999971 1 1 0.999971
0.999769 1 1 0.999769
1 1 1 1
1 1 1 1
0.999916 1 1 0.999916
0.999953 1 1 0.999953
0.999635 1 1 0.999635
0.999999 1 1 0.999999
0.99975 1 1 0.99975
0.999794 1 1 0.999794
0.999603 1 1 0.999603
1 1 1 1
1 1 1 1
0.99988 1 1 0.99988
0.999571 1 1 0.999571
0.999702 1 1 0.999702
0.999444 1 1 0.999444
0.999825 1 1 0.999825
0.999583 1 1 0.999583
0.99962 1 1 0.99962
0.999537 1 1 0.999537
1 1 1 1
1 1 1 1
1 1 1 1
1 1 1 1
1 1 1 1
1 1 1 1
1 1 1 1
0.999893 1 1 0.999893
0.999848 1 1 0.999848
1 1 1 1
1 1 1 1
0.999816 1 1 0.999816
0.999877 1 1 0.999877
0.999426 1 1 0.999426
0.999903 1 1 0.999903
0.99949 1 1 0.99949
0.999806 1 1 0.999806
0.999386 1 1 0.999386
0.999462 1 1 0.999462
0.99924 1 1 0.99924
0.999524 1 1 0.999524
0.99931 1 1 0.99931
1 1 1 1
0.999991 1 1 0.999991
0.999784 1 1 0.999784
0.999824 1 1 0.999824
1 1 1 1
0.999984 1 1 0.999984
0.999868 1 1 0.999868
0.999535 1 1 0.999535
0.999681 1 1 0.999681
0.999764 1 1 0.999764
0.999507 1 1 0.999507
0.999822 1 1 0.999822
0.999817 1 1 0.999817
0.999436 1 1 0.999436
0.999519 1 1 0.999519
1 1 1 1
0.999994 1 1 0.999994
0.999803 1 1 0.999803
0.999601 1 1 0.999601
0.999324 1 1 0.999324
0.99954 1 1 0.99954
0.999475 1 1 0.999475
0.999416 1 1 0.999416
1 1 1 1
0.999866 1 1 0.999866
0.999394 1 1 0.999394
0.999493 1 1 0.999493
0.999267 1 1 0.999267
0.999271 1 1 0.999271
0.999419 1 1 0.999419
0.999259 1 1 0.999259
1 1 1 1
0.999381 1 1 0.999381
0.99981 1 1 0.99981
0.999592 1 1 0.999592
0.99945 1 1 0.99945
0.999389 1 1 0.999389
0.999836 1 1 0.999836
0.999908 1 1 0.999908
0.999659 1 1 0.999659
0.999919 1 1 0.999919
1 1 1 1
1 1 1 1
0.999958 1 1 0.999958
0.999636 1 1 0.999636
1 1 1 1
0.999794 1 1 0.999794
0.999751 1 1 0.999751
0.999597 1 1 0.999597
1 1 1 1
1 1 1 1
0.99988 1 1 0.99988
0.999572 1 1 0.999572
0.999704 1 1 0.999704
0.999444 1 1 0.999444
0.999825 1 1 0.999825
0.999589 1 1 0.999589
0.999619 1 1 0.999619
0.99953 1 1 0.99953
1 1 1 1
0.999852 1 1 0.999852
0.999914 1 1 0.999914
0.999687 1 1 0.999687
0.999382 1 1 0.999382
0.999528 1 1 0.999528
0.999349 1 1 0.999349
0.999649 1 1 0.999649
0.999513 1 1 0.999513
0.999514 1 1 0.999514
0.999477 1 1 0.999477
0.999978 1 1 0.999978
1 1 1 1
1 1 1 1
1 1 1 1
1 1 1 1
1 1 1 1
1 1 1 1
1 1 1 1
1 1 1 1
0.999905 1 1 0.999905
0.999875 1 1 0.999875
0.999491 1 1 0.999491
0.999426 1 1 0.999426
0.999818 1 1 0.999818
1 1 1 1
0.999806 1 1 0.999806
0.999387 1 1 0.999387
0.999462 1 1 0.999462
0.999239 1 1 0.999239
0.999525 1 1 0.999525
0.99931 1 1 0.99931
0.999375 1 1 0.999375
0.999199 1 1 0.999199
0.999277 1 1 0.999277
0.999185 1 1 0.999185
0.999343 1 1 0.999343
0.999248 1 1 0.999248
0.99982 1 1 0.99982
0.999818 1 1 0.999818
0.999408 1 1 0.999408
0.999528 1 1 0.999528
1 1 1 1
0.999992 1 1 0.999992
0.999815 1 1 0.999815
0.999602 1 1 0.999602
0.999307 1 1 0.999307
0.999482 1 1 0.999482
0.999537 1 1 0.999537
0.999418 1 1 0.999418
1 1 1 1
0.999866 1 1 0.999866
0.999384 1 1 0.999384
0.999493 1 1 0.999493
0.99926 1 1 0.99926
0.999289 1 1 0.999289
0.999999 1 1 0.999999
0.99981 1 1 0.99981
0.999604 1 1 0.999604
0.999419 1 1 0.999419
0.999255 1 1 0.999255
0.999437 1 1 0.999437
0.999381 1 1 0.999381
0.999388 1 1 0.999388
0.999836 1 1 0.999836
0.999655 1 1 0.999655
0.999907 1 1 0.999907
0.999235 1 1 0.999235
0.999277 1 1 0.999277
0.999172 1 1 0.999172
0.999206 1 1 0.999206
0.99933 1 1 0.99933
0.999261 1 1 0.999261
0.999822 1 1 0.999822
0.999365 1 1 0.999365
0.99965 1 1 0.99965
0.999484 1 1 0.999484
0.999372 1 1 0.999372
0.999413 1 1 0.999413
0.999945 1 1 0.999945
0.999659 1 1 0.999659
0.999665 1 1 0.999665
0.999578 1 1 0.999578
0.999572 1 1 0.999572
1 1 1 1
1 1 1 1
0.999881 1 1 0.999881
0.999705 1 1 0.999705
0.999444 1 1 0.999444
0.999825 1 1 0.999825
0.999619 1 1 0.999619
0.999595 1 1 0.999595
0.999522 1 1 0.999522
1 1 1 1
0.999851 1 1 0.999851
0.999915 1 1 0.999915
0.999686 1 1 0.999686
0.999381 1 1 0.999381
0.999529 1 1 0.999529
0.999349 1 1 0.999349
0.99965 1 1 0.99965
0.999521 1 1 0.999521
0.999511 1 1 0.999511
0.999495 1 1 0.999495
1 1 1 1
0.999941 1 1 0.999941
0.999671 1 1 0.999671
0.999713 1 1 0.999713
0.999576 1 1 0.999576
0.999298 1 1 0.999298
0.999441 1 1 0.999441
0.999315 1 1 0.999315
0.999533 1 1 0.999533
0.999468 1 1 0.999468
0.9994 1 1 0.9994
0.999969 1 1 0.999969
0.999827 1 1 0.999827
0.999985 1 1 0.999985
0.999981 1 1 0.999981
1 1 1 1
1 1 1 1
1 1 1 1
1 1 1 1
1 1 1 1
1 1 1 1
1 1 1 1
1 1 1 1
1 1 1 1
1 1 1 1
1 1 1 1
0.999525 1 1 0.999525
0.999462 1 1 0.999462
0.99931 1 1 0.99931
0.999239 1 1 0.999239
0.999387 1 1 0.999387
0.999805 1 1 0.999805
0.999375 1 1 0.999375
0.999199 1 1 0.999199
0.999278 1 1 0.999278
0.999181 1 1 0.999181
0.999342 1 1 0.999342
0.999249 1 1 0.999249
0.999186 1 1 0.999186
0.999146 1 1 0.999146
0.999214 1 1 0.999214
0.999173 1 1 0.999173
0.999275 1 1 0.999275
0.999272 1 1 0.999272
0.999374 1 1 0.999374
0.999493 1 1 0.999493
0.999254 1 1 0.999254
0.999307 1 1 0.999307
0.999999 1 1 0.999999
0.99981 1 1 0.99981
0.999615 1 1 0.999615
0.999418 1 1 0.999418
0.999251 1 1 0.999251
0.999382 1 1 0.999382
0.999425 1 1 0.999425
0.999387 1 1 0.999387
0.999837 1 1 0.999837
0.999652 1 1 0.999652
0.999907 1 1 0.999907
0.99922 1 1 0.99922
0.999277 1 1 0.999277
0.999164 1 1 0.999164
0.99921 1 1 0.99921
0.999822 1 1 0.999822
0.999649 1 1 0.999649
0.999497 1 1 0.999497
0.999336 1 1 0.999336
0.999267 1 1 0.999267
0.999361 1 1 0.999361
0.999365 1 1 0.999365
0.999418 1 1 0.999418
0.999661 1 1 0.999661
0.999569 1 1 0.999569
0.999943 1 1 0.999943
0.99967 1 1 0.99967
0.999137 1 1 0.999137
0.999183 1 1 0.999183
0.999127 1 1 0.999127
0.999196 1 1 0.999196
0.99933 1 1 0.99933
0.999289 1 1 0.999289
0.999663 1 1 0.999663
0.999419 1 1 0.999419
0.999552 1 1 0.999552
0.999396 1 1 0.999396
0.999318 1 1 0.999318
0.999417 1 1 0.999417
0.999963 1 1 0.999963
0.999706 1 1 0.999706
0.999583 1 1 0.999583
0.999563 1 1 0.999563
0.999537 1 1 0.999537
1 1 1 1
0.99938 1 1 0.99938
0.999916 1 1 0.999916
0.999851 1 1 0.999851
0.999685 1 1 0.999685
0.999531 1 1 0.999531
0.999349 1 1 0.999349
0.99965 1 1 0.99965
0.999507 1 1 0.999507
0.999528 1 1 0.999528
0.999513 1 1 0.999513
1 1 1 1
0.999943 1 1 0.999943
0.999671 1 1 0.999671
0.999713 1 1 0.999713
0.999572 1 1 0.999572
0.999297 1 1 0.999297
0.999441 1 1 0.999441
0.999312 1 1 0.999312
0.999535 1 1 0.999535
0.999473 1 1 0.999473
0.999409 1 1 0.999409
0.999958 1 1 0.999958
0.999745 1 1 0.999745
0.999558 1 1 0.999558
0.999592 1 1 0.999592
0.99952 1 1 0.99952
0.999278 1 1 0.999278
0.999399 1 1 0.999399
0.999358 1 1 0.999358
0.999429 1 1 0.999429
0.999345 1 1 0.999345
0.999972 1 1 0.999972
0.999782 1 1 0.999782
0.999815 1 1 0.999815
0.99971 1 1 0.99971
0.999837 1 1 0.999837
0.99999 1 1 0.99999
0.999987 1 1 0.999987
1 1 1 1
0.999983 1 1 0.999983
1 1 1 1
1 1 1 1
1 1 1 1
1 1 1 1
1 1 1 1
1 1 1 1
1 1 1 1
1 1 1 1
1 1 1 1
1 1 1 1
1 1 1 1
0.999341 1 1 0.999341
0.999278 1 1 0.999278
0.999249 1 1 0.999249
0.999178 1 1 0.999178
0.999199 1 1 0.999199
0.999375 1 1 0.999375
0.999186 1 1 0.999186
0.999141 1 1 0.999141
0.999214 1 1 0.999214
0.999171 1 1 0.999171
0.999274 1 1 0.999274
0.999271 1 1 0.999271
0.999122 1 1 0.999121
0.999344 1.00021 1 0.99913
0.99921 1 1 0.99921
0.999163 1 1 0.999163
0.99928 1 1 0.99928
0.999292 1 1 0.999292
0.999206 1 1 0.999206
0.999277 1 1 0.999277
0.999156 1 1 0.999156
0.999213 1 1 0.999213
0.999823 1 1 0.999823
0.999648 1 1 0.999648
0.99951 1 1 0.99951
0.999341 1 1 0.999341
0.999273 1 1 0.999273
0.999366 1 1 0.999366
0.999351 1 1 0.999351
0.999423 1 1 0.999423
0.999662 1 1 0.999662
0.999559 1 1 0.999559
0.99994 1 1 0.99994
0.999676 1 1 0.999676
0.999138 1 1 0.999138
0.999185 1 1 0.999185
0.999127 1 1 0.999127
0.999198 1 1 0.999198
0.999663 1 1 0.999663
0.999562 1 1 0.999562
0.999395 1 1 0.999395
0.999326 1 1 0.999326
0.999314 1 1 0.999314
0.999312 1 1 0.999312
0.999421 1 1 0.999421
0.999433 1 1 0.999433
0.999583 1 1 0.999583
0.999534 1 1 0.999534
0.999561 1 1 0.999561
0.999947 1 1 0.999947
0.999712 1 1 0.999712
0.999111 1.00001 1 0.999103
0.999119 1 1 0.999119
0.999216 1 1 0.999216
0.999368 1 1 0.999368
0.999591 1 1 0.999591
0.99947 1 1 0.99947
0.999484 1 1 0.999484
0.99928 1 1 0.99928
0.999271 1 1 0.999271
0.999947 1 1 0.999947
0.999773 1 1 0.999773
0.999598 1 1 0.999598
0.999555 1 1 0.999555
0.999485 1 1 0.999485
0.999506 1 1 0.999506
1 1 1 1
0.999944 1 1 0.999944
0.999295 1 1 0.999295
0.999712 1 1 0.999712
0.999671 1 1 0.999671
0.999568 1 1 0.999568
0.999442 1 1 0.999442
0.999308 1 1 0.999308
0.999536 1 1 0.999536
0.999418 1 1 0.999418
0.999478 1 1 0.999478
0.99996 1 1 0.99996
0.999745 1 1 0.999745
0.999565 1 1 0.999565
0.999591 1 1 0.999591
0.999513 1 1 0.999513
0.999277 1 1 0.999277
0.999395 1 1 0.999395
0.999363 1 1 0.999363
0.999422 1 1 0.999422
0.99933 1 1 0.99933
0.999775 1 1 0.999775
0.999598 1 1 0.999598
0.999482 1 1 0.999482
0.999502 1 1 0.999502
0.999467 1 1 0.999467
0.999392 1 1 0.999392
0.999319 1 1 0.999319
0.999347 1 1 0.999347
0.99942 1 1.00007 0.999351
0.999206 1 1 0.999206
0.999975 1 1 0.999975
0.999791 1 1 0.999791
0.999652 1 1 0.999652
0.999804 1 1 0.999804
0.999837 1 1 0.999837
0.999694 1 1 0.999694
0.999607 1 1 0.999607
0.99969 1 1 0.99969
0.999847 1 1 0.999847
0.999992 1 1 0.999992
0.999991 1 1 0.999991
1 1 1 1
0.999988 1 1 0.999988
1 1 1 1
1 1 1 1
1 1 1 1
1 1 1 1
1 1 1 1
1 1 1 1
1 1 1 1
1 1 1 1
1 1 1 1
1 1 1 1
1 1 1 1
0.999272 1 1 0.999272
0.999215 1 1 0.999215
0.999271 1 1 0.999271
0.999169 1 1 0.999169
0.999135 1 1 0.999135
0.999186 1 1 0.999186
0.99912 1 1 0.999118
0.999272 1.00014 1 0.999132
0.999205 1 1 0.999205
0.999157 1 1 0.999157
0.999281 1 1 0.999281
0.999307 1 1 0.999307
0.999547 1.00044 1 0.999106
0.999479 1.00034 1 0.999141
0.999208 1 1 0.999208
0.999356 1 1 0.999356
0.999139 1 1 0.999139
0.999188 1 1 0.999188
0.999127 1 1 0.999127
0.999199 1 1 0.999199
0.999664 1 1 0.999664
0.999572 1 1 0.999572
0.999394 1 1 0.999394
0.999321 1 1 0.999321
0.99934 1 1 0.99934
0.999422 1 1 0.999422
0.999307 1 1 0.999307
0.99945 1 1 0.99945
0.999583 1 1 0.999583
0.999531 1 1 0.999531
0.999559 1 1 0.999559
0.99993 1 1 0.99993
0.999718 1 1 0.999718
0.999115 1.00001 1 0.999105
0.999124 1 1 0.999124
0.99923 1 1 0.999226
0.99959 1 1 0.99959
0.999497 1 1 0.999497
0.999277 1 1 0.999277
0.999358 1 1 0.999358
0.999296 1 1 0.999296
0.999468 1 1 0.999468
0.999948 1 1 0.999948
0.999554 1 1 0.999554
0.999513 1 1 0.999513
0.999485 1 1 0.999485
0.999604 1 1 0.999604
0.999761 1 1 0.999761
0.999178 1.00008 1 0.999099
0.999108 1 1 0.999108
0.99931 1.00005 1 0.999265
0.99948 1.00005 1 0.999432
0.999548 1 1 0.999548
0.999338 1 1 0.999338
0.999359 1 1 0.999359
0.999252 1 1.00006 0.999189
0.999961 1 1 0.999961
0.999808 1 1 0.999808
0.999643 1 1 0.999643
0.999478 1 1 0.999478
0.999516 1 1 0.999516
0.999455 1 1 0.999455
0.999963 1 1 0.999963
0.999745 1 1 0.999745
0.999275 1 1 0.999275
0.99959 1 1 0.99959
0.999571 1 1 0.999571
0.999505 1 1 0.999505
0.999392 1 1 0.999392
0.999368 1 1 0.999368
0.999416 1 1 0.999416
0.999315 1 1 0.999315
0.999775 1 1 0.999775
0.999603 1 1 0.999603
0.999493 1 1 0.999493
0.999507 1 1 0.999507
0.999471 1 1 0.999471
0.999391 1 1 0.999391
0.999323 1 1 0.999323
0.999387 1 1 0.999387
0.999369 1 1.00003 0.999342
0.999187 1 1 0.999187
0.999628 1 1 0.999628
0.999493 1 1 0.999493
0.99945 1 1.00004 0.99941
0.999425 1 1 0.999425
0.999552 1.00019 1 0.999364
0.999894 1.0006 0.999872 0.999422
0.999191 1 1 0.999191
1.00069 1 1.00152 0.999174
0.999799 1 1 0.999799
0.99966 1 1 0.99966
0.999572 1 1 0.999572
0.999837 1 1 0.999837
0.999677 1 1 0.999677
0.999847 1 1 0.999847
0.999594 1 1 0.999594
0.999696 1 1 0.999696
0.999525 1 1 0.999525
0.999593 1 1 0.999593
0.999699 1 1 0.999699
0.999852 1 1 0.999852
0.999992 1 1 0.999992
0.999992 1 1 0.999992
1 1 1 1
0.999991 1 1 0.999991
1 1 1 1
1 1 1 1
1 1 1 1
1 1 1 1
1 1 1 1
1 1 1 1
1 1 1 1
1 1 1 1
1 1 1 1
1 1 1 1
1 1 1 1
0.999281 1 1 0.999281
0.999199 1 1 0.999199
0.999322 1 1 0.999322
0.999152 1 1 0.999152
0.999183 1.00005 1 0.999134
0.999117 1 1 0.999116
0.999454 1.00034 1 0.99911
0.999452 1.00031 1 0.999141
0.999219 1 1 0.999214
0.999351 1 1 0.999351
0.999755 1.00063 1 0.999122
0.99969 1.00051 1 0.99918
0.999283 1.00001 1 0.999276
0.999108 1 1 0.999107
0.999128 1 1 0.999128
0.999254 1.00002 1 0.999235
0.999589 1 1 0.999589
0.99951 1 1 0.99951
0.999274 1 1 0.999274
0.999348 1 1 0.999348
0.999465 1 1 0.999465
0.99932 1 1 0.99932
0.999553 1 1 0.999553
0.999521 1 1 0.999521
0.999485 1 1 0.999485
0.999948 1 1 0.999948
0.999609 1 1 0.999609
0.999749 1 1 0.999749
0.999249 1.00015 1 0.999102
0.999106 1 1 0.999106
0.999283 1.00003 1 0.999253
0.999546 1 1 0.999546
0.999379 1 1 0.999379
0.999276 1 1.00008 0.999194
0.999805 1.00036 1 0.999442
0.999336 1 1 0.999336
0.999973 1 1 0.999973
0.999808 1 1 0.999808
0.999515 1 1 0.999515
0.999461 1 1 0.999461
0.999483 1 1 0.999483
0.999634 1 1 0.999634
0.999428 1.0003 1 0.999123
0.999407 1.00028 1 0.999123
1.00026 1.00097 0.999905 0.999383
1.00047 1.00102 1 0.999451
0.999481 1 1 0.999481
1.00041 1 1.00127 0.999139
0.99941 1 1.00014 0.999267
0.999995 1 1 0.999995
0.999876 1 1 0.999876
0.999811 1 1 0.999811
0.999656 1 1 0.999656
0.999519 1 1 0.999519
0.9994 1 1 0.9994
0.999497 1 1 0.999497
0.999435 1 1 0.999435
0.999775 1 1 0.999775
0.999608 1 1 0.999608
0.999391 1 1 0.999391
0.999512 1 1 0.999512
0.999503 1 1 0.999503
0.999475 1 1 0.999475
0.999327 1 1 0.999327
0.999427 1 1 0.999427
0.999347 1 1.00001 0.999334
0.999168 1 1 0.999168
0.999624 1 1 0.999624
0.999501 1 1 0.999501
0.99946 1 1.00004 0.999419
0.999433 1 1 0.999433
0.999464 1.00011 1 0.999357
0.99969 1.00032 0.999949 0.99942
0.99921 1 1 0.99921
1.00031 1 1.00114 0.999165
0.999542 1 1 0.999542
0.999411 1.00013 1 0.999279
0.999428 1 1 0.999428
0.999547 1 1.00022 0.999326
1.00129 1.00217 0.999722 0.999404
0.999689 1.00051 1 0.999175
1.00142 1 1.00233 0.999092
0.999667 1 1 0.999667
0.999572 1 1 0.999572
0.999498 1 1 0.999498
0.999847 1 1 0.999847
0.999702 1 1 0.999702
0.999582 1 1 0.999582
0.999852 1 1 0.999852
0.999698 1 1 0.999698
0.999515 1 1 0.999515
0.999606 1 1 0.999606
0.999466 1 1 0.999466
0.999512 1 1 0.999512
0.999617 1 1 0.999617
0.999717 1 1 0.999717
0.999851 1 1 0.999851
0.999991 1 1 0.999991
0.999992 1 1 0.999992
1 1 1 1
0.999992 1 1 0.999992
1 1 1 1
1 1 1 1
1 1 1 1
1 1 1 1
1 1 1 1
0.999999 1 1 0.999999
1 1 1 1
1 1 1 1
1 1 1 1
1 1 1 1
1 1 1 1
1 1 1 1
0.999346 1 1 0.999346
0.999238 1.00002 1 0.999221
0.999442 1.0003 1 0.999141
0.999381 1.00027 1 0.999114
0.999802 1.00068 1 0.999127
0.999725 1.00055 1 0.999172
0.999319 1.00003 1 0.99929
0.99991 1.00075 1 0.999164
0.999633 1.00042 1 0.999208
0.999495 1.0002 1 0.9993
0.999331 1.00023 1 0.999104
0.999103 1 1 0.999103
0.99925 1.00001 1 0.99924
0.999543 1 1 0.999543
0.9994 1 1 0.9994
0.999206 1 1.00001 0.9992
1.0001 1.00065 1 0.999452
0.999334 1 1 0.999334
0.999514 1 1 0.999514
0.999467 1 1 0.999467
0.999488 1 1 0.999488
0.999985 1 1 0.999985
0.999809 1 1 0.999809
0.999624 1 1 0.999624
0.999378 1.00025 1 0.999127
0.999993 1 1 0.999993
0.999867 1 1 0.999867
0.99948 1.00036 1 0.999124
1.00053 1.00117 1 0.999361
0.999492 1 1 0.999492
0.999819 1 1.00057 0.999246
0.999745 1 1.0006 0.999145
1.00011 1.00066 1 0.999449
0.999835 1 1 0.999835
0.999655 1 1 0.999655
0.999492 1 1 0.999492
0.99946 1 1 0.99946
0.999386 1 1 0.999386
0.999521 1 1 0.999521
0.999917 1.00076 1 0.99916
1.00077 1.00156 1 0.999205
1.00171 1.0026 0.999601 0.999516
0.999257 1 1 0.999257
0.999841 1 1.0004 0.999439
1.00218 1 1.00307 0.999114
0.999876 1 1 0.999876
0.999855 1 1 0.999855
0.999759 1 1 0.999759
0.999662 1 1 0.999662
0.999556 1 1 0.999556
0.99942 1 1 0.99942
0.999326 1 1 0.999326
0.999464 1 1 0.999464
0.999619 1 1 0.999619
0.999509 1 1 0.999509
0.999396 1.00005 1 0.999349
0.999477 1.00006 1 0.999418
0.99944 1 1 0.99944
0.999442 1 1.00001 0.999428
0.999229 1 1 0.999229
0.999969 1 1.00081 0.999157
0.999542 1 1 0.999542
0.999371 1.00008 1 0.999294
0.999428 1 1 0.999428
0.999744 1 1.00043 0.999312
1.0006 1.00147 0.999741 0.999396
0.999953 1.00077 1 0.99918
1.00131 1 1.00222 0.999093
0.999455 1 1 0.999455
1.00781 1.00908 0.999406 0.99934
0.999368 1 1 0.999368
1.00102 1 1.00182 0.999197
0.998629 1.00221 0.997225 0.999203
1.00103 1 1.00199 0.999047
1.00623 1.00908 0.997937 0.999238
0.999572 1 1 0.999572
0.999498 1 1 0.999498
0.999446 1 1 0.999446
0.999852 1 1 0.999852
0.999697 1 1 0.999697
0.999619 1 1 0.999619
0.999506 1 1 0.999506
0.999851 1 1 0.999851
0.999709 1 1 0.999709
0.999463 1 1 0.999463
0.999617 1 1 0.999617
0.999523 1 1 0.999523
0.999445 1 1 0.999445
0.999549 1 1 0.999549
0.999626 1 1 0.999626
0.999698 1 1 0.999698
0.999828 1 1 0.999828
0.999735 1 1 0.999735
0.999828 1 1 0.999828
0.999991 1 1 0.999991
0.999991 1 1 0.999991
1 1 1 1
0.999992 1 1 0.999992
1 1 1 1
1 1 1 1
1 1 1 1
1 1 1 1
1 1 1 1
1 1 1 1
0.999998 1 1 0.999998
1 1 1 1
1 1 1 1
1 1 1 1
1 1 1 1
1 1 1 1
1 1 1 1
0.999342 1.00004 1 0.999304
0.999783 1.00062 1 0.999165
0.999829 1.0007 1 0.999132
0.999933 1.00077 1 0.999163
0.999719 1.0005 1 0.999215
0.999402 1.00009 1 0.999309
1.00042 1.00119 1 0.999235
1.00506 1.01042 0.995272 0.999415
1.00714 1.00805 0.99969 0.999407
0.999906 1 1 0.999906
0.999341 1.00021 1 0.99913
0.999551 1.00043 1 0.999124
1.00072 1.00138 1 0.999338
0.999503 1 1 0.999503
1.00043 1 1.00121 0.999225
0.99927 1 1.00012 0.999152
0.999769 1.00032 1 0.999448
0.999488 1 1 0.999488
0.999486 1 1 0.999486
0.999372 1 1 0.999372
0.999991 1 1 0.999991
0.999523 1 1 0.999523
0.999859 1 1 0.999859
0.999655 1 1 0.999655
0.999858 1 1 0.999858
0.999798 1.00064 1 0.999156
0.999886 1 1 0.999886
0.999855 1 1 0.999855
0.99974 1 1 0.99974
1.00102 1.00181 1 0.999209
1.00083 1.00188 0.999469 0.999487
0.999728 1 1.00028 0.999446
1.00239 1 1.00329 0.999105
0.999424 1 1.00016 0.999262
0.999675 1 1 0.999675
0.999551 1 1 0.999551
0.999452 1 1 0.999452
0.999415 1 1.00008 0.99934
0.99943 1 1 0.99943
1.00206 1.00287 1.00004 0.999152
1.00116 1.00445 0.997374 0.999351
1.00011 1.00106 0.999716 0.999336
1.00123 1 1.00209 0.999141
1.00196 1 1.00261 0.99935
0.999742 1 1 0.999742
0.999696 1 1 0.999696
0.999641 1 1 0.999641
0.999565 1 1 0.999565
0.999475 1 1 0.999475
0.999362 1 1 0.999362
1.00099 1 1.00169 0.9993
0.999541 1 1 0.999541
0.999429 1 1 0.999429
0.999318 1.00001 1 0.999309
0.999878 1.00078 0.999713 0.999388
1.0002 1.00101 1 0.999185
0.999927 1 1.00063 0.999298
1.00107 1 1.00198 0.999093
0.999464 1 1 0.999464
1.00749 1.00919 0.99897 0.999346
0.999371 1 1 0.999371
1.00093 1 1.00173 0.999198
0.999761 1.0027 0.99784 0.999232
1.00153 1 1.00249 0.999043
1.00806 1.0113 0.997568 0.999228
0.999405 1 1 0.999405
0.998378 1.00745 0.991739 0.999246
0.999708 1 1.00038 0.999333
1.00443 1 1.0053 0.999131
1.00055 1.00039 1.00109 0.999068
0.959001 0.963823 0.998602 0.996389
1.00374 1.001 1.00413 0.998615
0.990362 1.00982 0.981407 0.999306
0.929853 0.944589 0.985796 0.998584
0.93756 0.969935 0.967573 0.999017
0.999498 1 1 0.999498
0.999449 1 1 0.999449
0.999418 1 1 0.999418
0.999851 1 1 0.999851
0.999701 1 1 0.999701
0.999617 1 1 0.999617
0.999534 1 1 0.999534
0.99946 1 1 0.99946
0.999614 1 1 0.999614
0.999838 1 1 0.999838
0.999707 1 1 0.999707
0.999451 1 1 0.999451
0.999546 1 1 0.999546
0.999557 1 1 0.999557
0.999476 1 1 0.999476
0.999593 1 1 0.999593
0.999695 1 1 0.999695
0.999827 1 1 0.999827
0.999722 1 1 0.999722
0.999632 1 1 0.999632
0.999707 1 1 0.999707
0.999719 1 1 0.999719
0.999845 1 1 0.999845
0.999828 1 1 0.999828
0.99999 1 1 0.99999
0.99999 1 1 0.99999
1 1 1 1
0.999991 1 1 0.999991
1 1 1 1
1 1 1 1
1 1 1 1
1 1 1 1
1 1 1 1
1 1 1 1
1 1 1 1
1 1 1 1
0.999997 1 1 0.999997
1 1 1 1
1 1 1 1
1 1 1 1
1 1 1 1
1 1 1 1
0.999784 1.00056 1 0.999221
0.999916 1.00075 1 0.999163
0.999318 1 1 0.999318
1.00648 1.0104 0.996695 0.999424
1.00051 1.00128 1 0.999232
1.0072 1.00801 0.99982 0.999373
1.0063 1.00713 1.00004 0.999138
0.978803 0.984914 0.995495 0.998293
1.007 1.00816 0.999337 0.999508
0.999912 1 1 0.999912
0.999906 1 1 0.999906
0.999779 1 1 0.999779
0.999793 1 1 0.999793
0.999642 1.00049 1 0.999151
1.00129 1.00208 1 0.999213
1.00001 1.00108 0.999481 0.999457
0.999452 1 1 0.999452
1.00215 1 1.00305 0.999096
0.999399 1 1.00013 0.999268
0.99944 1 1 0.99944
0.999532 1 1.00018 0.999354
0.999439 1 1 0.999439
0.999854 1 1 0.999854
0.999545 1 1 0.999545
0.999688 1 1 0.999688
0.999896 1 1 0.999896
0.999722 1 1 0.999722
1.00161 1.00241 1.00003 0.999168
0.99976 1 1 0.99976
0.999707 1 1 0.999707
0.99964 1 1 0.99964
1.00224 1.00459 0.998305 0.999356
0.999557 1.00068 0.999541 0.999336
1.00166 1 1.00232 0.999349
1.00118 1 1.00205 0.999133
0.999569 1 1 0.999569
0.999479 1 1 0.999479
1.00035 1 1.00105 0.9993
0.999439 1 1.00009 0.999351
1.00759 1.00843 0.999954 0.999211
1.00121 1.00421 0.997704 0.99931
1.00009 1.00028 1.00073 0.999082
1.00123 1 1.00197 0.999261
0.999605 1 1 0.999605
0.99959 1 1 0.99959
0.999439 1 1 0.999439
1.00145 1 1.00221 0.999242
0.953983 0.963719 0.993602 0.996273
0.999472 1 1 0.999472
0.999373 1 1 0.999373
1.00715 1.00923 0.998583 0.999352
1.00096 1.00314 0.99857 0.999262
1.00218 1 1.00314 0.999039
1.00105 1 1.00185 0.999199
1.01011 1.0134 0.997538 0.999218
0.999411 1 1 0.999411
0.998501 1.00767 0.991655 0.999238
0.999572 1 1.00024 0.999335
1.00428 1 1.00515 0.999135
0.999922 1.00052 1.00033 0.999079
0.957837 0.964303 0.996667 0.996617
0.99812 0.99738 1.00278 0.997969
0.993655 1.01161 0.982902 0.999334
0.935938 0.94717 0.989867 0.998257
0.93077 0.965254 0.965277 0.998961
0.999412 1 1 0.999412
0.938002 0.946761 0.99283 0.997904
0.95312 0.970614 0.982831 0.99913
0.979935 1.00199 0.978743 0.999228
1.00238 1 1.00307 0.999321
1.00895 1 1.00978 0.999178
0.994692 1.01017 0.985323 0.999348
0.970024 0.97084 1.00303 0.996138
1.00639 1.00382 1.00477 0.997812
0.930272 0.952305 0.978339 0.998492
0.97726 1.00213 0.975796 0.999367
0.999451 1 1 0.999451
0.999419 1 1 0.999419
0.999407 1 1 0.999407
0.999848 1 1 0.999848
0.999716 1 1 0.999716
0.999602 1 1 0.999602
0.999542 1 1 0.999542
0.999457 1 1 0.999457
0.999827 1 1 0.999827
0.999558 1 1 0.999558
0.999607 1 1 0.999607
0.999706 1 1 0.999706
0.999465 1 1 0.999465
0.999517 1 1 0.999517
0.999625 1 1.0002 0.999428
0.999608 1 1 0.999608
0.999716 1 1 0.999716
0.999722 1 1 0.999722
0.999619 1 1 0.999619
0.99962 1 1 0.99962
0.999604 1 1 0.999604
0.999554 1 1 0.999554
0.999545 1 1 0.999545
0.999686 1 1 0.999686
0.999707 1 1 0.999707
0.999839 1 1 0.999839
0.999703 1 1 0.999703
0.999836 1 1 0.999836
0.999988 1 1 0.999988
0.999828 1 1 0.999828
0.999989 1 1 0.999989
1 1 1 1
0.99999 1 1 0.99999
1 1 1 1
1 1 1 1
1 1 1 1
1 1 1 1
1 1 1 1
0.999909 1 1 0.999909
1 1 1 1
1 1 1 1
1 1 1 1
1 1 1 1
1 1 1 1
1 1 1 1
1 1 1 1
1 1 1 1
1 1 1 1
1.00799 1.01073 0.997857 0.999433
1.00061 1.00138 1 0.999228
1.0072 1.00795 0.999922 0.999339
0.980458 0.98446 0.997236 0.998695
1.00721 1.00799 0.999705 0.999519
1.00666 1.00751 1.00003 0.999123
1.00941 1.00858 1.00159 0.999235
0.986454 0.986526 1.00136 0.998565
0.961694 0.967083 0.9988 0.995622
0.92334 0.944622 0.979714 0.99771
0.932655 0.961821 0.970637 0.999009
0.999773 1 1 0.999773
0.999912 1 1 0.999912
0.999906 1 1 0.999906
0.999773 1 1 0.999773
0.999688 1 1 0.999688
0.999708 1 1 0.999708
0.999777 1 1 0.999777
0.999785 1 1 0.999785
1.00118 1.00197 1.00003 0.999184
1.00327 1.00479 0.999126 0.999361
0.999087 1.00044 0.999317 0.999335
1.00169 1 1.00234 0.999348
1.00159 1 1.00246 0.999126
0.999746 1 1.00045 0.999301
0.99949 1 1.00015 0.999339
0.999483 1 1 0.999483
0.999718 1 1 0.999718
0.999573 1 1 0.999573
0.999779 1 1 0.999779
0.999639 1 1 0.999639
1.00783 1.00919 0.999465 0.999192
0.999612 1 1 0.999612
0.999591 1 1 0.999591
1.00027 1.00369 0.997283 0.999307
0.999846 1.00033 1.0004 0.999114
1.0018 1 1.00256 0.99924
0.999434 1 1 0.999434
1.00137 1 1.00213 0.999246
1.00093 1.0116 0.990287 0.999157
1.00049 1.00084 1.00052 0.999137
1.00019 1 1.00103 0.999159
1.00432 1 1.0051 0.999223
0.999533 1 1 0.999533
0.999471 1 1 0.999471
0.999859 1 1.00054 0.999315
0.933252 0.949248 0.98481 0.998313
0.960225 0.965575 0.998003 0.996449
0.999416 1 1 0.999416
0.999337 1 1 0.999337
0.998953 1.00809 0.991698 0.999229
0.999203 1.00067 0.999438 0.999091
1.00389 1 1.00476 0.99914
0.958988 0.964993 0.998175 0.995595
0.998366 0.997982 1.00176 0.998627
0.997197 1.01381 0.984238 0.99936
0.930469 0.947176 0.984476 0.997853
0.923405 0.960108 0.962826 0.998906
0.999411 1 1 0.999411
0.932153 0.948799 0.984037 0.998393
0.955193 0.968785 0.986813 0.999145
0.982091 1.00219 0.980711 0.999218
1.00186 1 1.00254 0.999325
1.00821 1 1.00902 0.999192
0.990304 1.0076 0.983485 0.999337
0.971492 0.972676 1.00295 0.995844
1.0011 0.999101 1.00352 0.998493
0.932138 0.952439 0.980846 0.997797
0.971262 0.999663 0.972255 0.999315
0.999392 1 1 0.999392
0.970611 0.973545 0.997611 0.999375
1.0151 1.01756 0.997914 0.999664
0.990872 1 0.991521 0.999345
1.00714 1 1.0077 0.999447
1.00874 1.00361 1.00549 0.999633
0.995934 0.995972 1.0009 0.999067
0.975557 0.9733 1.00636 0.995989
0.949903 0.973328 0.978121 0.997763
0.995667 1.01789 0.978638 0.999515
0.99942 1 1 0.99942
0.9994 1 1 0.9994
0.999825 1 1.00042 0.999404
0.999827 1 1 0.999827
0.999716 1 1 0.999716
0.99962 1 1 0.99962
0.999558 1 1 0.999558
0.999454 1 1 0.999454
0.999715 1 1 0.999715
0.999526 1 1 0.999526
0.999608 1 1 0.999608
0.999668 1 1.00024 0.999423
0.99996 1 1.00055 0.999405
0.999586 1 1.00009 0.999499
0.999613 1 1 0.999613
0.999721 1 1 0.999721
0.999605 1 1 0.999605
0.99962 1 1 0.99962
0.999604 1 1 0.999604
0.999551 1 1 0.999551
0.999576 1 1 0.999576
0.999546 1 1 0.999546
0.999508 1 1 0.999508
0.999473 1 1 0.999473
0.999475 1 1 0.999475
0.999526 1 1 0.999526
0.999545 1 1 0.999545
0.999659 1 1 0.999659
0.999685 1 1 0.999685
0.999825 1 1 0.999825
0.999707 1 1 0.999707
0.999838 1 1 0.999838
0.999986 1 1 0.999986
0.999827 1 1 0.999827
0.999988 1 1 0.999988
1 1 1 1
0.999989 1 1 0.999989
1 1 1 1
1 1 1 1
1 1 1 1
1 1 1 1
1 1 1 1
0.999916 1 1 0.999916
1 1 1 1
0.999909 1 1 0.999909
1 1 1 1
1 1 1 1
1 1 1 1
1 1 1 1
1 1 1 1
1 1 1 1
1 1 1 1
1 1 1 1
0.932544 0.946536 0.986674 0.998524
0.957471 0.969792 0.987995 0.999291
0.983538 0.98512 0.999383 0.999011
1.00727 1.00784 0.999903 0.999529
1.00706 1.00793 1.00003 0.999107
0.985993 0.985026 1.00169 0.999289
1.00843 1.00839 1.0008 0.999243
0.964689 0.969158 0.998978 0.996406
0.930829 0.945664 0.985784 0.998507
0.928502 0.961717 0.966468 0.99896
1.00045 0.997453 1.00353 0.999469
0.971363 0.972669 1.00237 0.996299
0.928416 0.951342 0.977388 0.998479
0.971953 0.996441 0.976199 0.999207
0.999655 1 1 0.999655
0.999781 1 1 0.999781
0.999912 1 1 0.999912
0.999768 1 1 0.999768
0.999698 1 1 0.999698
0.999671 1 1 0.999671
0.999711 1 1 0.999711
0.999727 1 1 0.999727
0.999767 1 1 0.999767
0.999777 1 1 0.999777
1.00807 1.00989 0.999025 0.999173
0.999471 1.00311 0.997063 0.999304
0.999607 1.00033 1.00013 0.999146
1.00212 1 1.0029 0.999218
1.00122 1 1.00198 0.999249
0.999429 1 1 0.999429
0.999592 1 1 0.999592
0.99962 1 1 0.99962
1.00241 1.01137 0.992008 0.999128
0.999528 1 1 0.999528
0.999457 1 1 0.999457
0.999662 1.00054 1.00002 0.999109
1.00052 1 1.00133 0.999192
1.00337 1 1.00416 0.999208
1.00043 1 1.00112 0.999308
1.00322 1.01275 0.991575 0.99901
1.00624 1 1.00698 0.999262
1.00398 1 1.00476 0.999221
0.999521 1 1 0.999521
0.999439 1 1 0.999439
0.999344 1 1 0.999344
0.969828 0.974681 0.995724 0.999294
0.93544 0.948379 0.988551 0.99778
0.957364 0.965399 0.995402 0.996257
0.999409 1 1 0.999409
1.00144 1 1.00211 0.99933
0.984073 1.00231 0.982582 0.999208
1.00767 1 1.00847 0.999205
0.929938 0.948283 0.982858 0.997758
0.969878 0.971912 1.00102 0.996891
1.00219 1.00004 1.0043 0.99786
0.988087 1.00518 0.983652 0.999332
0.935751 0.952277 0.98405 0.998573
0.955877 0.969519 0.986826 0.999092
0.963412 0.993911 0.97007 0.999221
0.99939 1 1 0.99939
0.967203 0.97324 0.99448 0.999313
1.01455 1.01711 0.997815 0.999667
0.992739 1 0.993381 0.999354
1.00732 1 1.00787 0.99945
1.00824 1.00315 1.00583 0.999247
0.996532 0.996078 1.00235 0.998112
0.974158 0.974748 1.00352 0.995886
0.955759 0.976307 0.980258 0.998669
0.988792 1.0117 0.977914 0.999429
0.99976 1 1.00021 0.999552
1.02021 1.02067 0.999791 0.999759
1.0238 1.02667 0.997399 0.999809
1.00796 1 1.00825 0.999718
0.997573 0.991784 1.00626 0.999577
0.981336 0.97946 1.00603 0.995907
0.977296 0.99186 0.986551 0.99875
0.990066 1.01369 0.977284 0.999401
0.999392 1 1 0.999392
0.999774 1 1.00036 0.999418
1.00077 1 1.0013 0.999469
0.999715 1 1 0.999715
0.999608 1 1 0.999608
0.999535 1 1 0.999535
0.9997 1 1.00028 0.999419
0.999613 1 1 0.999613
0.999531 1 1.00003 0.9995
1.00034 1 1.00093 0.999407
1.00032 1 1.00086 0.999465
0.999634 1 1.00021 0.999422
0.999534 1 1 0.999534
0.99962 1 1 0.99962
0.999603 1 1 0.999603
0.999548 1 1 0.999548
0.999547 1 1 0.999547
0.999576 1 1 0.999576
0.999513 1 1 0.999513
0.999484 1 1 0.999484
0.999483 1 1 0.999483
0.999442 1 1 0.999442
0.999476 1 1 0.999476
0.999456 1 1 0.999456
0.999418 1 1 0.999418
0.999554 1 1 0.999554
0.999505 1 1 0.999505
0.999536 1 1 0.999536
0.99962 1 1 0.99962
0.999546 1 1 0.999546
0.999659 1 1 0.999659
0.999804 1 1 0.999804
0.999685 1 1 0.999685
0.999825 1 1 0.999825
0.999983 1 1 0.999983
0.999838 1 1 0.999838
0.999985 1 1 0.999985
1 1 1 1
0.999987 1 1 0.999987
1 1 1 1
1 1 1 1
1 1 1 1
1 1 1 1
1 1 1 1
0.999874 1 1 0.999874
1 1 1 1
0.999898 1 1 0.999898
1 1 1 1
1 1 1 1
0.999909 1 1 0.999909
1 1 1 1
1 1 1 1
1 1 1 1
1 1 1 1
1 1 1 1
1 1 1 1
0.97082 0.973721 0.997591 0.999429
0.933388 0.946623 0.987884 0.998111
1.01304 1.01768 0.995786 0.99965
0.954562 0.967847 0.987017 0.999247
0.982115 0.983685 0.99994 0.998464
1.00754 1.00825 1.00004 0.999252
0.96573 0.969032 0.999375 0.997215
0.928476 0.946671 0.982987 0.997755
0.92445 0.961738 0.962277 0.99891
0.997914 0.998512 1.00025 0.999155
0.970803 0.970836 1.00386 0.996121
0.930571 0.954781 0.976836 0.997755
0.972344 0.996872 0.976168 0.999207
1.00024 1.00416 0.996805 0.999282
0.971335 0.970952 1.00445 0.995959
0.959261 0.978941 0.981247 0.998624
0.993375 1.01609 0.978173 0.999458
0.999584 1 1 0.999584
0.999666 1 1 0.999666
0.999789 1 1 0.999789
0.999708 1 1 0.999708
0.999604 1 1 0.999604
0.999679 1 1 0.999679
0.999713 1 1 0.999713
0.999713 1 1 0.999713
0.999738 1 1 0.999738
0.999756 1 1 0.999756
1.00404 1.01147 0.993554 0.999099
0.998445 1.00022 0.999148 0.999081
1.00082 1 1.00159 0.999225
1.00268 1 1.00349 0.999193
1.00106 1 1.00176 0.9993
0.999443 1 1 0.999443
0.999522 1 1 0.999522
0.999522 1 1 0.999522
1.00141 1.01039 0.992084 0.999026
0.999447 1 1 0.999447
0.999432 1 1.00009 0.999342
1.00489 1 1.00567 0.999227
1.00384 1 1.00462 0.999222
0.998315 1.01062 0.988646 0.99917
1.01614 1 1.01677 0.999373
1.00007 1 1.00078 0.99929
0.999459 1 1 0.999459
0.999345 1 1 0.999345
1.02119 1.02164 0.999768 0.999786
0.970735 0.974174 0.997094 0.999375
0.934959 0.949095 0.986597 0.998489
0.999388 1 1 0.999388
1.00729 1 1.00784 0.999452
0.993813 1 0.994448 0.999362
0.971482 0.974343 0.99765 0.999413
0.973954 0.972421 1.00576 0.995839
0.997865 0.995982 1.00299 0.998902
1.00506 1.002 1.00422 0.998837
0.951661 0.972876 0.980384 0.997765
1.01428 1.01695 0.997703 0.99967
0.987345 1.00984 0.97827 0.999437
0.9997 1 1.00014 0.999564
1.02039 1.02068 0.999921 0.999795
1.0247 1.02788 0.997088 0.999811
1.00807 0.999985 1.00847 0.999611
0.998587 0.993883 1.00545 0.999288
0.984796 0.981496 1.00758 0.995818
0.993311 1.0177 0.976544 0.999475
0.969082 0.985911 0.98458 0.998325
0.999975 1 1.00026 0.999711
1.02505 1.02682 0.998346 0.99993
1.02713 1.02994 0.997446 0.99983
0.994443 1.01516 0.980117 0.99946
1.00548 0.993856 1.01186 0.999835
0.982622 0.980149 1.00634 0.99621
0.963647 0.980114 0.984551 0.998626
0.9997 1 1.00027 0.999433
1.00052 1 1.00109 0.999433
1.00312 1 1.00355 0.999569
0.999613 1 1 0.999613
0.999501 1 1 0.999501
1.00078 1 1.00138 0.999408
0.999537 1 1 0.999537
0.999745 1 1.00033 0.99942
1.0007 1 1.00126 0.999441
0.999864 1 1.00035 0.99951
0.99945 1 1 0.99945
0.999549 1 1 0.999549
0.999577 1 1 0.999577
0.999517 1 1 0.999517
0.999483 1 1 0.999483
0.999487 1 1 0.999487
0.999455 1 1 0.999455
0.999464 1 1 0.999464
1.00011 1 1.00077 0.999333
0.999478 1 1 0.999478
0.999453 1 1 0.999453
0.999328 1 1 0.999328
0.99943 1 1 0.99943
0.999539 1 1 0.999539
0.99942 1 1 0.99942
0.999619 1 1 0.999619
0.999547 1 1 0.999547
0.999534 1 1 0.999534
0.999547 1 1 0.999547
0.999629 1 1 0.999629
0.999779 1 1 0.999779
0.999659 1 1 0.999659
0.999804 1 1 0.999804
0.999977 1 1 0.999977
0.999824 1 1 0.999824
0.999981 1 1 0.999981
1 1 1 1
0.999984 1 1 0.999984
1 1 1 1
1 1 1 1
1 1 1 1
1 1 1 1
1 1 1 1
0.999819 1 1 0.999819
0.999975 1 1 0.999975
0.999873 1 1 0.999873
1 1 1 1
0.99999 1 1 0.99999
0.99988 1 1 0.99988
1 1 1 1
1 1 1 1
1 1 1 1
1 1 1 1
1 1 1 1
1 1 1 1
1.02011 1.02069 0.999662 0.999772
0.965569 0.972948 0.993141 0.999269
0.936134 0.946769 0.990901 0.997847
0.99967 1 1 0.99967
1.02624 1.02905 0.997425 0.999848
1.0143 1.0181 0.99661 0.999653
0.950249 0.968135 0.982381 0.999128
0.995906 0.999309 0.997787 0.998805
0.971616 0.971501 1.00389 0.996243
0.934294 0.957734 0.976966 0.998526
0.97016 0.994555 0.97631 0.999141
1.00131 1.00728 0.995656 0.99841
0.972158 0.971429 1.00472 0.99605
0.959668 0.978851 0.982118 0.998254
0.99057 1.01445 0.977056 0.999391
0.993331 0.998541 0.996678 0.998098
0.97728 0.974587 1.00763 0.995171
0.96951 0.988494 0.982839 0.997921
0.990911 1.01587 0.976029 0.999387
0.999515 1 1 0.999515
0.999577 1 1 0.999577
0.999678 1 1 0.999678
0.999589 1 1 0.999589
0.999618 1 1 0.999618
0.999688 1 1 0.999688
0.999717 1 1 0.999717
0.999749 1 1 0.999749
0.99953 1.00784 0.992704 0.999042
1.00355 1 1.00436 0.999193
0.999523 1 1 0.999523
1.0036 1 1.00438 0.999223
0.999506 1 1.00017 0.999339
0.999454 1 1 0.999454
0.99946 1 1 0.99946
1.00154 1.00979 0.992652 0.999179
0.999355 1 1 0.999355
1.00089 1 1.0016 0.999284
1.01477 1 1.01543 0.999356
0.999461 1 1 0.999461
0.999827 1.00289 0.9974 0.999546
1.01309 1 1.01363 0.999462
0.999358 1 1 0.999358
0.999398 1 1 0.999398
1.02509 1.02586 0.999312 0.999936
1.02061 1.02111 0.999723 0.99979
0.971603 0.973537 0.998555 0.999457
0.999577 1 1 0.999577
1.00854 0.999979 1.00906 0.999506
1.02052 1.0207 0.999995 0.999831
0.980582 0.976471 1.00834 0.995901
1.00169 0.995951 1.00735 0.998423
0.968363 0.986707 0.98343 0.997945
1.02533 1.02881 0.996807 0.999814
0.997017 1.02222 0.975781 0.99955
1.00015 1 1.00047 0.999678
1.02575 1.02759 0.998278 0.99993
1.02726 1.02984 0.997638 0.999859
1.00673 0.995067 1.01179 0.999931
0.990896 1.01327 0.978512 0.999392
0.98114 0.981064 1.00372 0.996375
0.964936 0.983334 0.98341 0.997844
1.0064 0.99805 1.0086 0.999771
1.0222 1.02415 0.998144 0.999949
1.02712 1.0293 0.998035 0.999845
0.971679 0.996221 0.976127 0.999219
0.968158 0.987047 0.9829 0.997928
1.00229 0.991983 1.01024 1.00014
0.977964 0.975454 1.00652 0.996084
1.00029 1 1.00089 0.999397
1.00223 1 1.00268 0.999555
1.0122 1 1.01262 0.999581
0.999539 1 1 0.999539
0.999785 1 1.00037 0.999419
1.00096 1 1.00154 0.999417
0.99945 1 1 0.99945
0.99994 1 1.00043 0.999507
1.00282 1 1.00337 0.99945
0.999483 1 1 0.999483
0.999489 1 1 0.999489
0.999625 1 1.00018 0.999446
1.00176 1 1.00243 0.999332
0.999486 1 1 0.999486
0.999837 1 1.00048 0.999353
1.00055 1 1.00132 0.999226
0.999289 1 1 0.999289
0.99945 1 1 0.99945
0.999309 1 1 0.999309
0.999484 1 1 0.999484
0.999521 1 1 0.999521
0.999445 1 1 0.999445
0.999617 1 1 0.999617
0.999537 1 1 0.999537
0.999422 1 1 0.999422
0.999755 1 1 0.999755
0.999615 1 1 0.999615
0.999539 1 1 0.999539
0.999639 1 1 0.999639
0.999779 1 1 0.999779
0.999968 1 1 0.999968
0.999804 1 1 0.999804
0.999975 1 1 0.999975
1 1 1 1
0.99998 1 1 0.99998
1 1 1 1
1 1 1 1
1 1 1 1
1 1 1 1
1 1 1 1
0.999792 1 1 0.999792
0.999959 1 1 0.999959
0.999829 1 1 0.999829
1 1 1 1
0.999974 1 1 0.999974
0.999871 1 1 0.999871
1 1 1 1
1 1 1 1
0.99998 1 1 0.99998
1 1 1 1
1 1 1 1
1 1 1 1
1.02607 1.02706 0.999119 0.999926
1.01997 1.02073 0.999473 0.999775
0.966723 0.972998 0.994272 0.999274
0.999674 1 1 0.999674
0.999643 1 1 0.999643
0.999592 1 1 0.999592
1.02619 1.02913 0.997318 0.99983
1.02699 1.02943 0.997777 0.99985
1.01612 1.01853 0.997973 0.999657
1.00772 1.01087 0.997713 0.999163
0.972409 0.970994 1.00547 0.996012
0.95581 0.975515 0.981997 0.997763
0.991857 1.01656 0.976253 0.999433
0.989753 0.996674 0.994151 0.998898
0.977371 0.974582 1.00691 0.995978
0.971637 0.988143 0.984626 0.998649
0.993504 1.01919 0.975322 0.999467
0.981894 0.989809 0.99302 0.998976
0.981777 0.976878 1.00893 0.996122
0.968987 0.984131 0.986025 0.998567
0.99407 1.01644 0.978471 0.99951
0.999497 1 1 0.999497
0.999514 1 1 0.999514
0.999569 1 1 0.999569
0.999588 1 1 0.999588
0.999631 1 1 0.999631
0.999721 1 1 0.999721
1.00512 1.00883 0.997133 0.999187
1.01331 1 1.01398 0.999338
0.999462 1 1 0.999462
1.00159 1 1.00231 0.999278
0.999364 1 1 0.999364
0.999457 1 1 0.999457
0.999395 1 1 0.999395
1.00205 1.0039 0.998621 0.999537
0.999374 1 1 0.999374
1.01277 0.999186 1.01412 0.999486
0.99943 1 1 0.99943
1.01762 0.996678 1.02127 0.999754
0.998219 0.998159 1.00044 0.999624
0.999373 1 1 0.999373
1.01964 1.02065 0.99904 0.999963
1.02433 1.0252 0.99921 0.999942
1.02001 1.02057 0.99965 0.999794
1.00035 1 1.00071 0.999645
1.00252 0.994721 1.00786 0.999986
1.02641 1.0283 0.998226 0.99993
0.988278 0.984623 1.00599 0.997739
0.972798 0.987789 0.986087 0.998719
1.02765 1.02981 0.998015 0.999889
0.99278 1.0155 0.978185 0.999435
1.00531 0.998668 1.00687 0.999788
1.02172 1.02331 0.998493 0.999953
1.02804 1.02969 0.998548 0.999847
1.00348 0.990813 1.01359 0.999199
0.971713 0.996791 0.975607 0.999215
0.969691 0.986692 0.984099 0.998649
0.981723 0.978091 1.00746 0.996277
1.02501 0.9994 1.02574 0.999889
1.02608 1.02685 0.999325 0.999924
1.01459 1.01821 0.996799 0.999645
0.931661 0.960685 0.970745 0.999015
0.956862 0.977266 0.980439 0.998656
0.987295 0.980601 1.01069 0.996177
0.982886 0.988906 0.99498 0.998927
1.00121 1 1.00167 0.99954
1.01327 1 1.01369 0.999586
1.0195 1 1.01998 0.999533
0.999449 1 1 0.999449
1.00006 1 1.00055 0.999505
1.00226 1 1.00281 0.999459
1.01038 1 1.01105 0.999332
0.999757 1 1.00032 0.999438
1.00201 1 1.0027 0.99931
1.00542 1 1.00627 0.999153
0.999571 1 1.0002 0.999373
1.001 1 1.00178 0.999222
1.00149 1 1.00236 0.999132
0.999196 1 1 0.999196
0.99942 1 1 0.99942
0.99936 1 1.00009 0.999275
0.999291 1 1 0.999291
0.999539 1 1 0.999539
0.9995 1 1 0.9995
0.999587 1 1 0.999587
0.999531 1 1 0.999531
0.999459 1 1 0.999459
0.999735 1 1 0.999735
0.999617 1 1 0.999617
0.999536 1 1 0.999536
0.999954 1 1 0.999954
0.999756 1 1 0.999756
0.999611 1 1 0.999611
0.999778 1 1 0.999778
0.999965 1 1 0.999965
1 1 1 1
0.999973 1 1 0.999973
1 1 1 1
1 1 1 1
1 1 1 1
1 1 1 1
1 1 1 1
0.999788 1 1 0.999788
0.999973 1 1 0.999973
0.999801 1 1 0.999801
1 1 1 1
0.999973 1 1 0.999973
0.99984 1 1 0.99984
1 1 1 1
1 1 1 1
0.999973 1 1 0.999973
1 1 1 1
1 1 1 1
1 1 1 1
1.02252 1.02414 0.998468 0.999948
1.02642 1.02748 0.999037 0.999926
1.01971 1.02078 0.999175 0.999778
0.999632 1 1 0.999632
0.999577 1 1 0.999577
0.999679 1 1 0.999679
0.999641 1 1 0.999641
0.999581 1 1 0.999581
0.999572 1 1 0.999572
0.999525 1 1 0.999525
1.02255 1.02503 0.997775 0.999808
1.02654 1.02935 0.997419 0.999859
1.02738 1.02982 0.997777 0.999852
0.996963 1.02316 0.97484 0.999547
0.99159 1.00031 0.99315 0.998123
0.979901 0.975838 1.00745 0.996736
0.971364 0.98473 0.988594 0.997807
0.984298 0.989988 0.995725 0.998521
0.982183 0.978858 1.00738 0.996041
0.970205 0.987491 0.984624 0.997837
0.989223 1.01211 0.97797 0.999405
0.978225 0.983325 0.995513 0.999297
0.976115 0.980306 0.999752 0.995971
0.983326 0.996166 0.988417 0.998678
0.978079 1.00096 0.977765 0.999357
0.99948 1 1 0.99948
0.999495 1 1 0.999495
0.999514 1 1 0.999514
0.999587 1 1 0.999587
1.00369 1.00489 0.99928 0.999528
1.01274 0.99829 1.01497 0.99951
0.999454 1 1 0.999454
0.999392 1 1 0.999392
0.999389 1 1 0.999389
0.999433 1 1 0.999433
0.999365 1 1 0.999365
1.00866 0.994565 1.01442 0.999757
0.999155 0.99905 1.00044 0.999668
0.999386 1 1 0.999386
1.01849 0.990163 1.02867 0.999944
1.00336 1 1.00395 0.999415
1.0256 1.02603 0.999645 0.999934
1.01727 1.01813 0.999185 0.999969
1.02366 1.02453 0.999198 0.999948
1.00415 0.999243 1.00511 0.999805
1.00483 0.990782 1.01408 1.0001
1.02122 1.0225 0.998792 0.999957
0.977896 0.975389 1.00651 0.996091
0.968249 0.982585 0.987562 0.997821
1.0285 1.03007 0.998619 0.999849
0.969985 0.99431 0.976361 0.999154
1.02699 0.998533 1.02863 0.999873
1.02632 1.02723 0.999189 0.999925
1.01576 1.01859 0.997571 0.999649
0.987407 0.991583 0.995853 0.999936
0.927412 0.960629 0.966421 0.998966
0.955894 0.975913 0.98117 0.998285
0.989235 0.980791 1.01221 0.996446
1.01386 0.998075 1.01598 0.999835
1.02058 1.02078 1.00004 0.999768
0.957554 0.969328 0.988549 0.999296
0.926889 0.949607 0.977558 0.998484
0.980336 0.976005 1.00842 0.996049
0.982078 0.990685 0.992799 0.998502
1.01446 1 1.01487 0.99959
1.02018 1 1.02066 0.99953
1.01533 1 1.0159 0.999435
1.00176 1 1.0023 0.999467
1.01082 1 1.01148 0.999352
1.00816 1 1.00902 0.999151
1.00238 1 1.0031 0.999289
1.00543 1 1.0063 0.999134
1.00306 1 1.00403 0.999034
1.00146 1 1.00225 0.999219
1.00134 1 1.00223 0.999114
1.00082 1 1.00174 0.999083
0.999176 1 1 0.999176
0.999315 1 1 0.999315
0.999284 1 1.0001 0.999179
0.999504 1 1 0.999504
0.999431 1 1 0.999431
0.999428 1 1.00017 0.999261
0.999568 1 1 0.999568
0.999535 1 1 0.999535
0.999516 1 1 0.999516
0.999704 1 1 0.999704
0.999594 1 1 0.999594
0.999542 1 1 0.999542
0.999932 1 1 0.999932
0.999736 1 1 0.999736
0.999618 1 1 0.999618
1 1 1 1
0.999952 1 1 0.999952
0.999757 1 1 0.999757
0.999963 1 1 0.999963
1 1 1 1
1 1 1 1
1 1 1 1
1 1 1 1
1 1 1 1
0.999632 1 1 0.999632
0.999765 1 1 0.999765
0.999964 1 1 0.999964
0.999788 1 1 0.999788
1 1 1 1
0.999976 1 1 0.999976
0.99981 1 1 0.99981
1 1 1 1
1 1 1 1
0.999987 1 1 0.999987
1 1 1 1
1 1 1 1
1 1 1 1
1.02553 1.02629 0.999336 0.999928
1.02212 1.02334 0.998852 0.999952
1.02678 1.02791 0.998978 0.999926
0.999636 1 1 0.999636
0.99957 1 1 0.99957
0.999553 1 1 0.999553
0.999564 1 1 0.999564
0.999536 1 1 0.999536
0.999639 1 1 0.999639
0.999569 1 1 0.999569
0.999572 1 1 0.999572
0.999523 1 1 0.999523
0.999523 1 1 0.999523
1.01451 1.0157 0.999178 0.999656
1.02341 1.02618 0.997493 0.99981
1.02659 1.02931 0.997465 0.999888
0.987292 1.00996 0.97813 0.999416
0.97609 0.989927 0.987321 0.998684
0.983262 0.988476 0.996602 0.998117
0.979198 0.980104 1.00295 0.996137
0.982207 0.983558 1.00021 0.998417
0.980137 0.979217 1.00487 0.996092
0.973898 0.990061 0.985378 0.998272
0.973055 0.99868 0.975018 0.999306
0.998039 0.982218 1.01748 0.998647
0.978987 0.981255 1.00148 0.996216
0.95139 0.974222 0.978732 0.997785
0.938636 0.97053 0.968091 0.999014
0.999558 1 1 0.999558
0.999481 1 1 0.999481
0.999493 1 1 0.999493
1.00049 0.992938 1.00785 0.999759
1.00012 1 1.00041 0.999713
0.999435 1 1 0.999435
0.999356 1 1 0.999356
0.999427 1 1.00003 0.999394
1.00385 1 1.00444 0.999415
1.01816 0.991711 1.02673 0.999945
1.00379 1 1.00435 0.999435
1.01129 0.997597 1.01406 0.999679
1.0206 1.02082 1 0.999779
1.02476 1.02524 0.999593 0.999941
1.01486 1.01562 0.999277 0.999974
1.0288 0.99771 1.03131 0.999855
0.986157 0.990661 0.9967 0.99875
1.02661 1.02761 0.999098 0.999925
0.9811 0.978892 1.00703 0.995254
0.953499 0.973822 0.98127 0.99782
1.01755 1.01898 0.998948 0.999652
0.923785 0.960867 0.962451 0.998916
1.01423 0.998441 1.01598 0.999838
1.02053 1.02087 0.999899 0.99977
0.954318 0.967087 0.987535 0.999252
0.979111 0.989879 0.990109 0.999003
0.929707 0.953631 0.977086 0.997776
0.980167 0.97704 1.00765 0.995583
0.995536 0.997874 0.99801 0.999647
0.970682 0.973573 0.997597 0.999433
0.923807 0.944014 0.980828 0.997723
0.974884 0.973091 1.00588 0.995981
0.998044 0.996739 1.00231 0.999004
1.02042 1 1.02091 0.999526
1.0179 1 1.01847 0.999434
0.99778 1 0.998504 0.999275
1.01109 1 1.01172 0.999372
1.00769 1 1.00853 0.999166
1.00162 1 1.00256 0.999069
1.00532 1 1.00621 0.999115
1.0027 1 1.00367 0.999037
0.999141 1 1.00003 0.999107
1.00119 1 1.00209 0.999095
1.00039 1 1.0013 0.999091
0.999191 1 1 0.999191
0.999261 1 1 0.999261
0.999258 1 1 0.999258
0.999181 1 1 0.999181
0.999422 1 1 0.999422
0.999295 1 1 0.999295
0.999375 1 1.00021 0.999162
0.999571 1 1 0.999571
0.999517 1 1 0.999517
0.999442 1 1 0.999442
0.99967 1 1 0.99967
0.999569 1 1 0.999569
0.99953 1 1 0.99953
0.9999 1 1 0.9999
0.999704 1 1 0.999704
0.999601 1 1 0.999601
1 1 1 1
0.999931 1 1 0.999931
0.999737 1 1 0.999737
1 1 1 1
1 1 1 1
0.99995 1 1 0.99995
1 1 1 1
1 1 1 1
1 1 1 1
0.999608 1 1 0.999608
0.999743 1 1 0.999743
0.999627 1 1 0.999627
0.999955 1 1 0.999955
0.999765 1 1 0.999765
1 1 1 1
0.999966 1 1 0.999966
0.999788 1 1 0.999788
1 1 1 1
1 1 1 1
0.999979 1 1 0.999979
1 1 1 1
1 1 1 1
1 1 1 1
1.01934 1.01953 1 0.999815
1.02649 1.02727 0.999312 0.999928
1.02171 1.02259 0.999182 0.999956
0.99956 1 1 0.99956
0.999641 1 1 0.999641
0.999563 1 1 0.999563
0.999572 1 1 0.999572
0.99956 1 1 0.99956
0.999536 1 1 0.999536
0.999516 1 1 0.999516
0.99952 1 1 0.99952
0.999573 1 1 0.999573
0.999521 1 1 0.999521
0.999522 1 1 0.999522
0.999512 1 1 0.999512
0.955659 0.971218 0.984847 0.999119
1.01361 1.0149 0.99907 0.999659
1.0246 1.02757 0.997295 0.999813
0.966334 0.994282 0.972673 0.999196
0.975409 0.992232 0.985101 0.997914
0.974978 0.979493 0.999405 0.995984
0.984712 0.980679 1.00473 0.999381
0.997309 0.980667 1.0174 0.999573
0.932617 0.965798 0.966641 0.998969
0.981831 0.980126 1.0061 0.995666
0.952758 0.974315 0.979235 0.998611
0.992957 0.989103 1.00435 0.999545
0.977067 0.975622 1.00516 0.996337
0.928077 0.949987 0.978405 0.998499
1.00009 1 1.00041 0.99968
0.999559 1 1 0.999559
0.999482 1 1 0.999482
1.01767 0.99325 1.02464 0.999944
1.00447 1 1.00506 0.999414
0.999453 1 1.00005 0.999402
1.00408 1 1.00465 0.999438
1.01086 0.998677 1.01251 0.999689
1.00907 1 1.00939 0.999687
0.969534 0.974232 0.995945 0.99923
1.02033 1.02053 0.999986 0.999816
1.02402 1.02447 0.999616 0.999947
1.01463 0.998852 1.01596 0.999843
0.980559 0.992008 0.989089 0.999362
1.02039 1.02097 0.999666 0.999773
0.982669 0.978221 1.00775 0.996824
0.933513 0.956466 0.977434 0.998535
0.949413 0.967331 0.982328 0.999133
0.995196 0.998493 0.997034 0.999663
0.964966 0.972646 0.992827 0.999272
0.931583 0.944704 0.98757 0.998523
0.998045 0.995014 1.00486 0.998191
0.97633 0.975546 1.00477 0.996048
0.99092 1.00585 0.985687 0.999465
0.932308 0.946597 0.986348 0.998537
0.973387 0.973137 1.00405 0.996222
1.00223 1.00341 1.00074 0.998079
1.02128 1 1.02186 0.999432
0.995313 1 0.996023 0.999287
0.990565 1.0002 0.991102 0.999255
1.0074 1 1.00822 0.999182
1.0016 1 1.00253 0.999072
0.999558 1.00032 1 0.99924
1.00238 1 1.00334 0.99904
0.999416 1 1.0003 0.999118
0.999329 1 1 0.999328
0.999971 1 1.00087 0.999098
0.999196 1 1 0.999196
0.999372 1 1 0.999372
0.999399 1 1 0.999399
0.999292 1 1 0.999292
0.999276 1 1 0.999276
0.999355 1 1 0.999355
0.999271 1 1 0.999271
0.999187 1 1 0.999187
0.999534 1 1 0.999534
0.999422 1 1 0.999422
0.999275 1 1 0.999275
0.999653 1 1 0.999653
0.99957 1 1 0.99957
0.99953 1 1 0.99953
0.999859 1 1 0.999859
0.999671 1 1 0.999671
0.999571 1 1 0.999571
1 1 1 1
0.999899 1 1 0.999899
0.999704 1 1 0.999704
1 1 1 1
1 1 1 1
0.99993 1 1 0.99993
1 1 1 1
1 1 1 1
1 1 1 1
0.999613 1 1 0.999613
0.99961 1 1 0.99961
0.999719 1 1 0.999719
0.999943 1 1 0.999943
0.999743 1 1 0.999743
0.999621 1 1 0.999621
1 1 1 1
0.999957 1 1 0.999957
0.999765 1 1 0.999765
1 1 1 1
1 1 1 1
0.999969 1 1 0.999969
1 1 1 1
1 1 1 1
1 1 1 1
0.970152 0.973217 0.997473 0.999376
1.01934 1.01953 1 0.999818
1.0274 1.02819 0.999304 0.999928
0.999555 1 1 0.999555
0.999567 1 1 0.999567
0.999528 1 1 0.999528
0.99958 1 1 0.99958
0.999567 1 1 0.999567
0.999535 1 1 0.999535
0.999521 1 1 0.999521
0.999518 1 1 0.999518
0.999484 1 1 0.999484
0.999515 1 1 0.999515
0.999522 1 1 0.999522
0.999513 1 1 0.999513
0.931661 0.946454 0.9858 0.99855
0.955863 0.969538 0.986742 0.999142
1.01296 1.01425 0.99907 0.999661
0.92691 0.961524 0.96504 0.998924
0.950113 0.971052 0.980603 0.997792
0.989319 0.98502 1.00736 0.997022
1.00319 0.980755 1.02431 0.998603
0.993586 0.989254 1.00577 0.99862
0.931008 0.951782 0.980318 0.997813
0.981361 0.978863 1.00593 0.996639
0.994592 0.990858 1.00512 0.998659
0.976985 0.975688 1.0051 0.996245
1.00769 1 1.00819 0.999505
0.999942 1 1.00027 0.999675
0.99956 1 1 0.99956
1.00975 0.999166 1.0109 0.9997
1.00438 1 1.00494 0.99944
1.00883 0.999999 1.00918 0.99966
1.00159 1.00067 1.00146 0.999455
0.932288 0.950143 0.982836 0.998344
0.970437 0.973751 0.997253 0.999342
1.01994 1.02018 0.999918 0.999854
0.993823 0.998751 0.995383 0.999681
0.999173 0.994436 1.00578 0.998991
0.966185 0.97291 0.993808 0.999276
0.97691 0.9739 1.0071 0.996022
0.928211 0.945531 0.983882 0.997765
0.992818 1.00572 0.987709 0.999454
0.933254 0.946852 0.987512 0.998104
0.973472 0.972148 1.00529 0.99609
1.00258 1.0005 1.00321 0.998875
1.00955 1.01148 0.99883 0.999254
0.96265 0.967187 0.999722 0.995586
0.998528 1.00177 0.997638 0.999128
0.992864 1 0.99356 0.999299
0.992236 1.00027 0.992727 0.999241
0.993663 1.00094 0.993424 0.999305
1.00151 1 1.00244 0.999075
0.999586 1.00044 0.999906 0.999237
1.00044 1.00153 0.999403 0.999509
0.999707 1 1.00058 0.999128
0.999344 1.00001 1 0.99933
0.999856 1.00033 1 0.999521
0.999202 1 1 0.999202
0.999372 1 1 0.999372
0.999495 1 1 0.999495
0.999471 1 1 0.999471
0.999414 1 1 0.999414
0.999387 1 1 0.999387
0.99935 1 1 0.99935
0.999294 1 1 0.999294
0.99929 1 1 0.99929
0.999453 1 1 0.999453
0.99937 1 1 0.99937
0.999283 1 1 0.999283
0.99963 1 1 0.99963
0.999532 1 1 0.999532
0.999421 1 1 0.999421
0.999826 1 1 0.999826
0.999654 1 1 0.999654
0.999569 1 1 0.999569
1 1 1 1
0.999859 1 1 0.999859
0.999673 1 1 0.999673
1 1 1 1
1 1 1 1
0.999898 1 1 0.999898
1 1 1 1
1 1 1 1
1 1 1 1
0.999604 1 1 0.999604
0.999605 1 1 0.999605
0.999698 1 1 0.999698
0.999613 1 1 0.999613
0.999719 1 1 0.999719
0.999922 1 1 0.999922
1 1 1 1
0.999944 1 1 0.999944
0.999742 1 1 0.999742
1 1 1 1
1 1 1 1
0.999959 1 1 0.999959
1 1 1 1
1 1 1 1
1 1 1 1
0.939426 0.948586 0.992399 0.997929
0.968036 0.973352 0.995251 0.999285
1.01937 1.01956 1 0.999821
0.999549 1 1 0.999549
0.999524 1 1 0.999524
0.999572 1 1 0.999572
0.999567 1 1 0.999567
0.99953 1 1 0.99953
0.999523 1 1 0.999523
0.999519 1 1 0.999519
0.999487 1 1 0.999487
0.99951 1 1 0.99951
0.999478 1 1 0.999478
0.999625 1 1.00026 0.999368
0.999512 1 1 0.999512
0.999514 1 1 0.999514
0.972582 0.97684 1.00008 0.995557
0.936805 0.948716 0.989204 0.998222
0.955504 0.969152 0.986823 0.999082
0.932816 0.952473 0.980768 0.998567
0.978365 0.975353 1.00775 0.995377
0.996785 0.990534 1.00675 0.999565
0.996707 0.993283 1.00431 0.999137
0.977294 0.977165 1.00378 0.996366
0.99182 0.99894 0.994196 0.998668
1.00608 1.00132 1.0057 0.999069
1.00615 1 1.00666 0.999494
0.99967 1 1 0.99967
1.00767 1 1.00804 0.999635
1.00062 1.00096 1.00017 0.999497
0.955778 0.965271 0.993845 0.996298
0.935594 0.949418 0.987577 0.997836
0.971771 0.973363 0.998909 0.999455
0.994588 1.0059 0.989304 0.999441
1.00684 1.00412 1.00462 0.998094
0.93663 0.94692 0.991285 0.997829
0.973993 0.971796 1.00608 0.996204
1.00351 1.01058 0.993754 0.999247
0.965019 0.968784 0.999754 0.996358
0.999522 1.00384 0.997366 0.998329
1.00303 1.01035 0.993682 0.999067
0.998221 0.994903 1.00392 0.999421
0.992731 1.0003 0.993206 0.999227
0.994347 1.00083 0.994225 0.99929
1.00089 1.00626 0.995282 0.999374
0.999471 1.0005 0.999738 0.999234
0.999609 1.00096 0.999144 0.999504
1.00059 1.00195 0.99908 0.999565
0.999365 1.00003 1 0.999332
0.999699 1.00019 0.999994 0.999511
0.999876 1.00035 0.999987 0.999534
0.999372 1 1 0.999372
0.999488 1 1 0.999488
0.999485 1 1 0.999485
0.999488 1 1 0.999488
0.999429 1 1 0.999429
0.99943 1 1 0.99943
0.999384 1 1 0.999384
0.999379 1 1 0.999379
0.99941 1 1 0.99941
0.999347 1 1 0.999347
0.999297 1 1 0.999297
0.999582 1 1 0.999582
0.999463 1 1 0.999463
0.999385 1 1 0.999385
0.9998 1 1 0.9998
0.999629 1 1 0.999629
0.99953 1 1 0.99953
0.999999 1 1 0.999999
0.999827 1 1 0.999827
0.999655 1 1 0.999655
1 1 1 1
1 1 1 1
0.999859 1 1 0.999859
1 1 1 1
1 1 1 1
1 1 1 1
0.999584 1 1 0.999584
0.999605 1 1 0.999605
0.999667 1 1 0.999667
0.999596 1 1 0.999596
0.99969 1 1 0.99969
0.99989 1 1 0.99989
0.999718 1 1 0.999718
0.999922 1 1 0.999922
1 1 1 1
1 1 1 1
1 1 1 1
0.999945 1 1 0.999945
1 1 1 1
1 1 1 1
1 1 1 1
0.966753 0.970669 0.999621 0.996342
0.935299 0.951079 0.984938 0.998447
0.970857 0.974075 0.997347 0.999348
0.99952 1 1 0.99952
0.999578 1 1 0.999578
0.999533 1 1 0.999533
0.999567 1 1 0.999567
0.99954 1 1 0.99954
0.999546 1 1 0.999546
0.999491 1 1 0.999491
0.999498 1 1 0.999498
0.999475 1 1 0.999475
0.999482 1 1 0.999482
0.999398 1 1 0.999398
0.999181 1 1.00011 0.999067
0.999434 1 1.00006 0.999377
0.999509 1 1 0.999509
0.989939 0.994079 0.996886 0.998946
0.97112 0.973864 1.00097 0.996212
0.930689 0.948435 0.983477 0.997775
0.975595 0.975067 1.0044 0.996162
0.992324 0.991668 1.00106 0.999604
0.992767 0.997044 0.996317 0.999391
0.997221 1.00474 0.993324 0.999183
1.00316 1.00065 1.00337 0.999134
1.00511 1 1.00563 0.999483
0.998547 1.00108 0.997932 0.999535
0.987164 0.986386 1.00229 0.998501
0.962446 0.966874 0.998942 0.996474
0.934027 0.949723 0.984923 0.998527
1.00001 1.00962 0.991231 0.999241
1.00599 1.00731 0.99969 0.998998
0.966296 0.96849 1.00058 0.997159
0.999463 1.00819 0.992249 0.999086
0.995003 0.995437 1.00046 0.9991
0.998048 1.01099 0.988021 0.999165
1.0079 1.00626 1.00249 0.999143
0.995813 1.00073 0.99581 0.999276
1.00087 1.00586 0.995661 0.999374
1.00203 1.00536 0.997308 0.999371
0.999121 1.00059 0.999038 0.999498
1.00044 1.00167 0.999214 0.999558
1.0002 1.00099 0.999799 0.99941
0.999517 1.00002 1 0.999501
0.999686 1.00016 1 0.999526
0.999398 1 1 0.999398
0.999481 1 1 0.999481
0.99949 1 1 0.99949
0.999395 1 1 0.999395
0.999505 1 1 0.999505
0.999438 1 1 0.999438
0.999386 1 1 0.999386
0.999381 1 1 0.999381
0.999377 1 1 0.999377
0.999413 1 1 0.999413
0.999517 1 1 0.999517
0.99942 1 1 0.99942
0.999344 1 1 0.999344
0.999762 1 1 0.999762
0.999581 1 1 0.999581
0.999473 1 1 0.999473
0.999995 1 1 0.999995
0.999799 1 1 0.999799
0.999628 1 1 0.999628
1 1 1 1
0.999998 1 1 0.999998
0.999827 1 1 0.999827
1 1 1 1
1 1 1 1
1 1 1 1
0.999562 1 1 0.999562
0.99959 1 1 0.99959
0.999649 1 1 0.999649
0.999606 1 1 0.999606
0.999664 1 1 0.999664
0.999854 1 1 0.999854
0.999681 1 1 0.999681
0.99989 1 1 0.99989
1 1 1 1
0.999923 1 1 0.999923
1 1 1 1
1 1 1 1
1 1 1 1
1 1 1 1
1 1 1 1
0.98359 0.986272 0.998393 0.998887
0.9607 0.967849 0.996303 0.996297
0.933236 0.950895 0.983598 0.997795
0.999488 1 1 0.999488
0.999536 1 1 0.999536
0.999567 1 1 0.999567
0.999545 1 1 0.999545
0.999537 1 1 0.999537
0.99958 1 1 0.99958
0.999486 1 1 0.999486
0.999472 1 1 0.999472
0.999495 1 1 0.999495
0.999424 1 1 0.999424
0.999207 1 1 0.999207
1.00182 1.00299 1 0.998836
0.999199 1 1.00013 0.99907
0.999386 1 1 0.999386
0.999324 1.00402 0.996046 0.999275
0.990755 0.995444 0.996697 0.998588
0.972805 0.974818 1.00101 0.99693
0.995372 0.998453 0.998278 0.998634
1.00164 1.00586 0.99668 0.999121
1.00163 1.00012 1.00231 0.999201
0.999977 1.00052 1.00002 0.999432
0.988311 0.985341 1.00386 0.999158
0.959289 0.966694 0.99599 0.996335
0.994477 1.00592 0.98951 0.999105
0.992543 0.995529 0.998257 0.998741
0.99981 1.01099 0.989789 0.999146
1.00608 1.0055 1.00136 0.999227
1.00894 1.01034 0.999492 0.999128
1.00366 1.00459 1 0.999073
1.00065 1.00541 0.995882 0.999375
1.00327 1.00577 0.998138 0.999377
0.999678 1.00043 1 0.999251
1.00023 1.0013 0.999384 0.999551
1.00053 1.00116 0.999957 0.999408
0.999304 1.00005 1 0.999254
0.999517 1 1 0.999517
0.999417 1 1 0.999417
0.99929 1 1 0.99929
0.999496 1 1 0.999496
0.999396 1 1 0.999396
0.999339 1 1 0.999339
0.999447 1 1 0.999447
0.999389 1 1 0.999389
0.999387 1 1 0.999387
0.999374 1 1 0.999374
0.999406 1 1 0.999406
0.999489 1 1 0.999489
0.999717 1 1 0.999717
0.999528 1 1 0.999528
0.99943 1 1 0.99943
0.999983 1 1 0.999983
0.999762 1 1 0.999762
0.999581 1 1 0.999581
1 1 1 1
0.999992 1 1 0.999992
0.999799 1 1 0.999799
1 1 1 1
0.999998 1 1 0.999998
1 1 1 1
0.999515 1 1 0.999515
0.999563 1 1 0.999563
0.999632 1 1 0.999632
0.999596 1 1 0.999596
0.999653 1 1 0.999653
0.999821 1 1 0.999821
0.999662 1 1 0.999662
0.999853 1 1 0.999853
1 1 1 1
0.99989 1 1 0.99989
1 1 1 1
1 1 1 1
1 1 1 1
1 1 1 1
1 1 1 1
1.00085 1.00428 0.997094 0.999491
0.983263 0.987573 0.997423 0.998209
0.964092 0.968098 0.99947 0.99639
0.999516 1 1 0.999516
0.999378 1 1 0.999378
0.999497 1 1 0.999497
0.999544 1 1 0.999544
0.999533 1 1 0.999533
0.999568 1 1 0.999568
0.99928 1 1 0.99928
0.999509 1 1 0.999509
0.999451 1 1 0.999451
0.999216 1 1 0.999216
0.999612 1.00068 1 0.998931
1.00355 1.00498 0.999519 0.999058
1.00117 1.00232 1 0.998849
0.999074 1 1 0.999074
1.00146 1.00595 0.996235 0.999303
0.988774 0.994916 0.995656 0.998163
1.00441 1.0067 0.998664 0.99906
1.00035 1.0009 1 0.999443
1.00082 1.0002 1.00116 0.999461
0.986436 0.98512 1.00298 0.998361
1.002 1.01132 0.991647 0.999127
1.00421 1.00464 1.00027 0.999314
1.00913 1.01082 0.999187 0.999146
1.00436 1.00526 1 0.999108
1.00161 1.00246 1 0.999154
1.00148 1.00219 1 0.999299
1.00456 1.00624 0.998947 0.999383
0.99982 1.00056 1 0.999258
0.999237 1.00008 1 0.999157
1.00071 1.0013 1 0.999406
0.999359 1.00009 1 0.999265
0.99919 1 1 0.99919
0.999436 1 1 0.999436
0.999289 1 1 0.999289
0.999251 1 1 0.999251
0.999396 1 1 0.999396
0.999339 1 1 0.999339
0.999339 1 1 0.999339
0.999392 1 1 0.999392
0.999387 1 1 0.999387
0.999457 1 1 0.999457
0.999399 1 1 0.999399
0.999486 1 1 0.999486
0.999675 1 1 0.999675
0.999965 1 1 0.999965
0.999716 1 1 0.999716
0.999538 1 1 0.999538
1 1 1 1
0.999978 1 1 0.999978
0.999762 1 1 0.999762
1 1 1 1
0.999989 1 1 0.999989
1 1 1 1
0.999425 1 1 0.999425
0.999505 1 1 0.999505
0.999593 1 1 0.999593
0.999564 1 1 0.999564
0.999632 1 1 0.999632
0.999794 1 1 0.999794
0.999657 1 1 0.999657
0.999821 1 1 0.999821
0.999999 1 1 0.999999
0.999853 1 1 0.999853
1 1 1 1
1 1 1 1
1 1 1 1
1 1 1 1
1 1 1 1
1.00086 1.00213 0.999381 0.999353
0.999784 1.00324 0.997079 0.999478
0.982939 0.986214 0.997862 0.998813
0.99933 1 1 0.99933
0.999564 1 1 0.999564
0.999235 1 1 0.999235
0.99937 1 1 0.99937
0.999505 1 1 0.999505
0.999873 1.00084 1 0.99903
0.999556 1 1 0.999556
0.999273 1 1 0.999273
1.00024 1.00123 1 0.999011
0.999226 1 1 0.999226
0.999735 1.00083 1 0.998908
1.00295 1.00423 0.999671 0.999052
1.00027 1.00141 1 0.998862
1.0032 1.00732 0.996573 0.99933
1.00059 1.00116 1 0.999427
1.0001 1.00066 1 0.99944
1.00174 1.00001 1.00224 0.999489
1.00942 1.01136 0.998911 0.999163
1.00529 1.00615 1 0.999143
1.00211 1.00297 1 0.999149
1.00197 1.00268 1 0.999299
1.00022 1.00097 1 0.999247
0.999969 1.00071 1 0.999264
0.999212 1.00005 1 0.999162
0.999154 1 1 0.999154
0.999418 1.00014 1 0.999277
0.999186 1 1 0.999186
0.999176 1 1 0.999176
0.999287 1 1 0.999287
0.999249 1 1 0.999249
0.999265 1 1 0.999265
0.999339 1 1 0.999339
0.999338 1 1 0.999338
0.999404 1 1 0.999404
0.999388 1 1 0.999388
0.999458 1 1 0.999458
0.999634 1 1 0.999634
0.999483 1 1 0.999483
0.999675 1 1 0.999675
0.999948 1 1 0.999948
1 1 1 1
0.99996 1 1 0.99996
0.999716 1 1 0.999716
1 1 1 1
0.999973 1 1 0.999973
1 1 1 1
0.999263 1 1 0.999263
0.999352 1 1 0.999352
0.999414 1 1 0.999414
0.999546 1 1 0.999546
0.999496 1 1 0.999496
0.999594 1 1 0.999594
0.999769 1 1 0.999769
0.999633 1 1 0.999633
0.999794 1 1 0.999794
0.999991 1 1 0.999991
0.999821 1 1 0.999821
0.999999 1 1 0.999999
1 1 1 1
1 1 1 1
1 1 1 1
1 1 1 1
1.00043 1.00117 1 0.999264
1.00213 1.00319 0.999567 0.999373
0.999464 1.00294 0.997069 0.999465
0.999355 1.00025 1 0.999109
0.999372 1 1 0.999372
0.999612 1 1 0.999612
0.999253 1 1 0.999253
0.999363 1 1 0.999363
1.00084 1.00186 1 0.998977
0.999765 1.00076 1 0.999009
0.999266 1 1 0.999266
1.00042 1.00141 1 0.999004
0.999846 1.00096 1 0.998885
1.003 1.00417 0.99979 0.999046
1.00088 1.00154 1 0.999339
1.00042 1.00101 1 0.999416
0.999731 1.00029 1 0.999437
1.00245 1.00331 1 0.999144
1.0023 1.003 1 0.999297
1.0002 1.00095 1 0.999248
0.999568 1.00036 1 0.999211
0.999199 1.00003 1 0.999167
0.99915 1 1 0.99915
0.999165 1 1 0.999165
0.999183 1 1 0.999183
0.999174 1 1 0.999174
0.999207 1 1 0.999207
0.999247 1 1 0.999247
0.999264 1 1 0.999264
0.999339 1 1 0.999339
0.999338 1 1 0.999338
0.999404 1 1 0.999404
0.999582 1 1 0.999582
0.999459 1 1 0.999459
0.999633 1 1 0.999633
0.999935 1 1 0.999935
0.999674 1 1 0.999674
0.999944 1 1 0.999944
1 1 1 1
1 1 1 1
0.999955 1 1 0.999955
1 1 1 1
0.999138 1 1 0.999138
0.999338 1 1 0.999338
0.999324 1 1 0.999324
0.999478 1 1 0.999478
0.99935 1 1 0.99935
0.999403 1 1 0.999403
0.999547 1 1 0.999547
0.999735 1 1 0.999735
0.999596 1 1 0.999596
0.999769 1 1 0.999769
0.999978 1 1 0.999978
0.999794 1 1 0.999794
0.999994 1 1 0.999994
1 1 1 1
1 1 1 1
1 1 1 1
1 1 1 1
1.00123 1.00207 1 0.999164
1.00039 1.00113 1 0.999263
1.00302 1.00384 0.999796 0.999393
1.00004 1.00102 1 0.999024
0.999356 1.00024 1 0.999111
0.999414 1 1 0.999414
0.99927 1 1 0.99927
1.00087 1.00189 1 0.998978
0.999754 1.00077 1 0.998988
1.00055 1.00155 1 0.998998
1.00134 1.00208 1 0.999254
1.0009 1.00158 1 0.999316
1.00022 1.00082 1 0.999405
1.00051 1.00132 1 0.999189
1.00026 1.00101 1 0.999249
0.999672 1.00046 1 0.99921
0.999207 1.00002 1 0.999191
0.999146 1 1 0.999146
0.999166 1 1 0.999166
0.999189 1 1 0.999189
0.999173 1 1 0.999173
0.999206 1 1 0.999206
0.99929 1 1 0.99929
0.999263 1 1 0.999263
0.999339 1 1 0.999339
0.999524 1 1 0.999524
0.999404 1 1 0.999404
0.999581 1 1 0.999581
0.999922 1 1 0.999922
0.999633 1 1 0.999633
0.999931 1 1 0.999931
0.999999 1 1 0.999999
0.99994 1 1 0.99994
1 1 1 1
1 1 1 1
0.99908 1.00002 1 0.99906
0.999213 1 1 0.999213
0.99916 1 1 0.99916
0.99943 1 1 0.99943
0.999336 1 1 0.999336
0.999385 1 1 0.999385
0.999671 1 1 0.999671
0.999477 1 1 0.999477
0.999349 1 1 0.999349
0.999548 1 1 0.999548
0.999735 1 1 0.999735
0.999962 1 1 0.999962
0.999769 1 1 0.999769
0.999982 1 1 0.999982
1 1 1 1
0.999996 1 1 0.999996
1 1 1 1
1 1 1 1
1.00075 1.00162 1 0.999135
1.00152 1.00237 1 0.999146
1.00046 1.0012 1 0.999261
0.999847 1.00083 1 0.999019
0.999352 1.00024 1 0.999113
1.00075 1.00178 1 0.998978
1.0015 1.00232 1 0.999182
1.0015 1.00224 1 0.999253
1.00093 1.00164 1 0.999292
1.0003 1.00111 1 0.99919
0.999823 1.00066 1 0.999167
0.99976 1.00055 1 0.999209
0.999214 1.00002 1 0.999191
0.999198 1 1 0.999198
0.999166 1 1 0.999166
0.99919 1 1 0.99919
0.999266 1 1 0.999266
0.999206 1 1 0.999206
0.99929 1 1 0.99929
0.999484 1 1 0.999484
0.999338 1 1 0.999338
0.999523 1 1 0.999523
0.999907 1 1 0.999907
0.99958 1 1 0.99958
0.999918 1 1 0.999918
0.999998 1 1 0.999998
0.999928 1 1 0.999928
1 1 1 1
1 1 1 1
0.999211 1.00008 1 0.999136
0.999121 1 1 0.999121
0.999073 1.00002 1 0.999053
0.999332 1 1 0.999332
0.999224 1 1 0.999224
0.999182 1 1 0.999182
0.999598 1 1 0.999598
0.99941 1 1 0.99941
0.999335 1 1 0.999335
0.999938 1 1 0.999938
0.999672 1 1 0.999672
0.999477 1 1 0.999477
0.999736 1 1 0.999736
0.999967 1 1 0.999967
1 1 1 1
0.999986 1 1 0.999986
1 1 1 1
1 1 1 1
1.0002 1.00107 1 0.999131
1.00066 1.00153 1 0.99913
1.0018 1.00268 1 0.999127
0.999711 1.0007 1 0.999015
1.00056 1.00142 1 0.99914
1.00155 1.00237 1 0.999188
1.00169 1.00244 1 0.999253
1.00009 1.0009 1 0.999191
0.999919 1.00075 1 0.999167
0.9993 1.00011 1 0.999186
0.999214 1.00002 1 0.999191
0.999202 1 1 0.999202
0.999252 1 1 0.999252
0.999191 1 1 0.999191
0.999266 1 1 0.999266
0.999462 1 1 0.999462
0.999289 1 1 0.999289
0.999483 1 1 0.999483
0.999893 1 1 0.999893
0.999522 1 1 0.999522
0.999903 1 1 0.999903
1 1 1 1
0.999914 1 1 0.999914
0.999999 1 1 0.999999
1 1 1 1
0.999274 1.00012 1 0.999154
0.999155 1 1 0.999155
0.999205 1.00007 1 0.999138
0.999228 1 1 0.999228
0.999134 1 1 0.999134
0.999069 1.00002 1 0.999046
0.999498 1 1 0.999498
0.999331 1 1 0.999331
0.999234 1 1 0.999234
0.999912 1 1 0.999912
0.999581 1 1 0.999581
0.99939 1 1 0.99939
1 1 1 1
0.999945 1 1 0.999945
0.999673 1 1 0.999673
0.999972 1 1 0.999972
1 1 1 1
1 1 1 1
0.999985 1.00085 1 0.999139
1.00045 1.00131 1 0.999139
1.00052 1.00139 1 0.999125
0.999503 1.00036 1 0.999141
1.00051 1.00137 1 0.999136
1.0016 1.00241 1 0.999193
1.00001 1.00085 1 0.999168
0.999305 1.00012 1 0.999187
0.999256 1 1 0.999256
0.999207 1 1 0.999207
0.999268 1 1 0.999268
0.999417 1 1 0.999417
0.999267 1 1 0.999267
0.999462 1 1 0.999462
0.999881 1 1 0.999881
0.999483 1 1 0.999483
0.999891 1 1 0.999891
1 1 1 1
0.999899 1 1 0.999899
0.999998 1 1 0.999998
0.999999 1 1 0.999999
0.999259 1.0001 1 0.999162
0.999187 1 1 0.999187
0.999306 1.00015 1 0.999154
0.999241 1 1 0.999241
0.99916 1 1 0.99916
0.999197 1.00006 1 0.99914
0.999434 1 1 0.999434
0.99925 1 1 0.99925
0.999147 1 1 0.999147
0.999892 1 1 0.999892
0.999489 1 1 0.999489
0.99933 1 1 0.99933
1 1 1 1
0.999918 1 1 0.999918
0.999564 1 1 0.999564
1 1 1 1
0.999952 1 1 0.999952
1 1 1 1
0.999355 1.0002 1 0.999153
0.999845 1.0007 1 0.99914
1.00072 1.00157 1 0.999147
0.999213 1 1 0.999213
0.999433 1.00029 1 0.999143
1.00049 1.00136 1 0.999133
0.999315 1.00013 1 0.999187
0.999257 1 1 0.999257
0.999386 1 1 0.999386
0.999284 1 1 0.999284
0.999431 1 1 0.999431
0.999858 1 1 0.999858
0.999463 1 1 0.999463
0.999879 1 1 0.999879
1 1 1 1
0.99989 1 1 0.99989
1 1 1 1
0.999997 1 1 0.999997
0.999192 1 1 0.999192
0.999212 1.00005 1 0.999161
0.999247 1 1 0.999247
0.999187 1 1 0.999187
0.999341 1.00019 1 0.999155
0.999437 1 1 0.999437
0.999239 1 1 0.999239
0.999165 1 1 0.999165
0.999878 1 1 0.999878
0.999445 1 1 0.999445
0.999271 1 1 0.999271
1 1 1 1
0.999896 1 1 0.999896
0.999481 1 1 0.999481
1 1 1 1
0.999925 1 1 0.999925
1 1 1 1
0.999229 1 1 0.999229
0.999258 1.0001 1 0.999156
0.999684 1.00054 1 0.999142
0.999358 1 1 0.999358
0.999213 1 1 0.999213
0.999344 1.0002 1 0.999146
0.999257 1 1 0.999257
0.999391 1 1 0.999391
0.999828 1 1 0.999828
0.999446 1 1 0.999446
0.999856 1 1 0.999856
1 1 1 1
0.999878 1 1 0.999878
1 1 1 1
1 1 1 1
0.99924 1 1 0.99924
0.999188 1 1 0.999188
0.999159 1 1 0.999159
0.999428 1 1 0.999428
0.999246 1 1 0.999246
0.999187 1 1 0.999187
0.999867 1 1 0.999867
0.999436 1 1 0.999436
0.999237 1 1 0.999237
1 1 1 1
0.99988 1 1 0.99988
0.999455 1 1 0.999455
1 1 1 1
0.9999 1 1 0.9999
1 1 1 1
0.999388 1 1 0.999388
0.999213 1 1 0.999213
0.999175 1.00002 1 0.999159
0.999809 1 1 0.999809
0.99936 1 1 0.99936
0.999213 1 1 0.999213
0.999396 1 1 0.999396
0.999827 1 1 0.999827
1 1 1 1
0.999854 1 1 0.999854
1 1 1 1
1 1 1 1
0.99941 1 1 0.99941
0.999234 1 1 0.999234
0.999183 1 1 0.999183
0.999862 1 1 0.999862
0.999427 1 1 0.999427
0.999245 1 1 0.999245
1 1 1 1
0.999868 1 1 0.999868
0.999436 1 1 0.999436
1 1 1 1
0.999883 1 1 0.999883
1 1 1 1
0.999805 1 1 0.999805
0.999376 1 1 0.999376
0.999198 1 1 0.999198
1 1 1 1
0.999808 1 1 0.999808
0.999363 1 1 0.999363
0.999825 1 1 0.999825
1 1 1 1
1 1 1 1
0.999839 1 1 0.999839
0.99941 1 1 0.99941
0.999228 1 1 0.999228
1 1 1 1
0.999853 1 1 0.999853
0.999426 1 1 0.999426
1 1 1 1
0.999868 1 1 0.999868
1 1 1 1
0.999965 1 1 0.999965
0.999819 1 1 0.999819
0.999364 1 1 0.999364
1 1 1 1
0.999807 1 1 0.999807
1 1 1 1
0.999974 1 1 0.999974
0.999837 1 1 0.999837
0.99941 1 1 0.99941
0.99999 1 1 0.99999
0.999852 1 1 0.999852
1 1 1 1
1 1 1 1
0.999811 1 1 0.999811
1 1 1 1
0.999985 1 1 0.999985
0.99983 1 1 0.99983
1 1 1 1
1 1 1 1
1 1 1 1

VECTORS lamdaE float
0.998964 1.00013 0.996783
0.999157 0.999197 0.998725
0.99889 1.00023 0.996839
0.999344 1.00004 0.996378
0.998989 1.00026 0.996666
0.999066 0.999734 0.996939
0.999663 1.00071 0.994739
0.999187 0.999072 0.998761
0.998891 1.00031 0.998617
0.99891 0.999642 0.99876
0.999333 0.9987 0.997438
0.999664 1.0004 0.994798
0.99963 0.999996 0.995976
0.999269 0.999904 0.996484
0.998807 1.00036 0.996901
0.999248 1.00007 0.996459
0.999004 0.999797 0.996996
0.998904 1.00036 0.996736
0.999721 1.00067 0.994739
0.999516 0.999991 0.998273
0.99944 0.999956 0.996327
0.999147 1.00019 0.996523
1.00051 1.00005 0.993944
0.999909 1.00055 0.99448
0.999246 0.999127 0.997197
0.999494 1.00069 0.995032
1.00094 1.00117 0.991978
0.999215 0.99894 0.998799
0.998944 1.00026 0.99762
0.99898 0.999719 0.99787
0.999315 0.998559 0.998872
0.999603 1.00048 0.9948
0.999181 1.00026 0.996507
0.998988 1.00031 0.99683
1.00012 1.00048 0.994789
0.999378 0.998058 0.999075
0.999731 1.0005 0.995342
0.999606 1.00011 0.995154
1.00029 1.00163 0.992415
0.999497 0.997595 0.999176
0.999608 1 0.998197
0.999344 0.999967 0.997416
0.99973 0.999999 0.9981
0.999335 0.99992 0.99636
1.00094 1.00001 0.992678
0.999189 1.00011 0.998533
1.00069 0.999957 0.994284
0.999151 1.0001 0.996537
0.998812 1.0005 0.996798
0.998943 0.999855 0.997063
0.999782 1.0006 0.994735
0.999492 0.999979 0.997239
0.99935 0.999944 0.996406
0.999205 0.999118 0.997254
0.99905 1.00027 0.996603
1.00054 1.00004 0.993923
0.999546 1.00065 0.995034
0.999965 1.00051 0.994477
1.00101 1.00119 0.9919
0.999608 1 0.998193
0.999464 0.999964 0.996261
1.00077 0.999996 0.994017
1.00062 0.999913 0.993892
1.00022 1.00031 0.994192
1.00248 1 0.990361
1.00145 1.0007 0.991251
0.999464 0.998433 0.99751
0.999391 1.00042 0.995483
1.00043 1.00156 0.992494
1.00167 1.00129 0.99013
0.99897 1.00017 0.998553
0.999344 0.998413 0.998942
0.999043 0.999481 0.998704
0.999541 1.00056 0.994801
0.999194 1.00021 0.998456
0.99895 1.00008 0.9986
1 1.00053 0.993916
0.9994 0.998118 0.998404
0.999642 1.00063 0.994551
0.999574 1.00007 0.995583
1.00029 1.00162 0.992404
0.99946 0.997831 0.999102
0.999665 0.998771 0.996411
1.00037 1.00022 0.993593
0.999857 1.00065 0.994201
1.00159 1.0007 0.990853
0.999574 0.999573 0.996366
1.00058 1.00133 0.992173
1.00009 1.00178 0.992651
1.00075 1.00186 0.991246
0.999549 0.997316 0.999238
0.999493 0.997547 0.999197
0.99937 1.00002 0.9984
0.999547 1 0.99825
0.999703 1 0.998121
0.999418 0.999983 0.997305
1.00092 1.00001 0.993278
0.999233 1.00005 0.997484
1.00065 0.999946 0.993832
0.999724 0.999997 0.99811
1.00107 0.99997 0.992439
1.0008 0.999983 0.994071
1.00297 0.99976 0.989135
1.00055 1.00003 0.994438
1.00261 0.99988 0.989722
0.999567 0.999965 0.996104
0.999259 0.99992 0.996484
0.999158 0.999076 0.997319
0.998954 1.00035 0.996678
1.00057 1.00004 0.993902
1.00002 1.00044 0.994478
0.999599 1.00061 0.99503
1.00109 1.00122 0.991822
0.999659 1 0.998157
0.999376 0.999937 0.996353
1.00082 0.999975 0.993187
1.00065 0.999902 0.993859
0.999404 0.998393 0.998218
0.99947 1.00037 0.995592
1.00026 1.00028 0.994184
1.00247 1 0.990258
1.00051 1.00159 0.992414
1.00149 1.00074 0.991319
1.00167 1.00129 0.990134
1.00096 1 0.992606
1.00063 0.999924 0.993841
1.00282 0.999793 0.989649
1.00261 0.999754 0.990098
1.00206 1.00029 0.990588
1.00346 0.999756 0.988537
0.999486 0.997956 0.99905
1.00222 1.00076 0.989585
0.999564 0.999934 0.995419
1.00003 1.00172 0.992702
1.00116 1.00188 0.99063
1.00214 1.00122 0.98933
0.999687 0.999046 0.996033
1.00008 1.00068 0.993744
0.999123 1.00019 0.998477
0.998924 0.999919 0.998639
0.999966 1.00055 0.99393
0.999418 0.998037 0.999066
0.999528 1.00013 0.995253
0.999567 1.00074 0.994542
1.00029 1.00161 0.992392
0.999455 0.997804 0.999126
0.999672 0.99872 0.996432
1.00034 1.0002 0.994103
0.999776 1.00065 0.994671
1.00158 1.00069 0.990871
0.999581 0.99954 0.995788
1.00057 1.00132 0.992181
1.00008 1.00179 0.992644
1.00076 1.00186 0.991207
0.999609 0.999158 0.996114
0.999743 0.998377 0.99667
1.00001 1.00056 0.993951
1.00211 1.00028 0.990263
1.001 1.00109 0.991611
1.00238 1.00076 0.9893
1.00007 1.00143 0.993019
1.00111 1.00145 0.99096
1.00046 1.00239 0.991415
1.00091 1.00214 0.990761
0.999626 0.997041 0.999282
0.999555 0.997264 0.999253
0.999491 0.997495 0.999217
0.999732 0.998688 0.996332
0.999518 0.997715 0.999126
0.999267 1.0001 0.998436
0.999445 1 0.998341
1.00062 0.999918 0.993346
1.00087 1.00001 0.992779
0.999669 1 0.998148
0.999732 0.999999 0.998098
1.00105 0.999978 0.99245
1.00074 0.99999 0.993623
1.00297 0.999762 0.989139
1.00049 0.999992 0.993499
1.0026 0.999891 0.989721
1.00109 0.999961 0.992379
1.00322 0.999703 0.988707
1.00275 0.9998 0.989523
1.00396 0.999443 0.987608
1.00243 1.00001 0.989919
1.00357 0.999547 0.988261
0.999695 0.999996 0.998125
0.999286 0.999897 0.996447
1.00083 0.999957 0.992404
1.00068 0.999905 0.993826
0.999316 0.998326 0.998965
0.999547 1.00034 0.9957
1.00031 1.00024 0.994179
1.00246 0.999997 0.990156
1.00153 1.0008 0.991387
1.00059 1.00164 0.992334
1.00167 1.00129 0.990137
1.00098 0.99999 0.992593
1.00067 0.999911 0.99381
1.00281 0.999778 0.989443
1.00262 0.999798 0.990189
0.999468 0.997995 0.999022
0.999567 0.999903 0.995745
1.00011 1.00174 0.992798
1.00204 1.00033 0.990596
1.00345 0.999695 0.9884
1.00109 1.00188 0.990616
1.00227 1.00077 0.989636
1.00213 1.00121 0.989338
0.999668 0.99911 0.99602
1.00008 1.00067 0.99374
1.00313 0.99973 0.988853
1.00261 0.999764 0.990073
1.00377 0.999558 0.988118
1.00365 0.999331 0.988201
1.00288 1.00021 0.989016
1.00399 0.999248 0.987907
0.999627 0.999446 0.995715
1.0028 1.00052 0.988747
1.00001 1.00158 0.992898
1.00052 1.00217 0.991236
1.00162 1.00202 0.989865
1.00249 1.00099 0.988987
1.0001 1.00115 0.993254
1.00009 1.00013 0.994263
1.00026 1.00177 0.992321
1.00028 1.00022 0.993659
0.99945 0.997769 0.99915
0.999675 0.998677 0.996454
0.99968 1.00077 0.994277
1.00157 1.00068 0.990889
0.999578 0.999499 0.99576
1.00005 1.00178 0.992638
1.00055 1.00131 0.992189
1.00076 1.00186 0.991168
0.99962 0.9991 0.996129
0.999737 0.998356 0.996686
1.00001 1.00057 0.993957
1.00211 1.00028 0.99027
1.00098 1.00108 0.991634
1.00238 1.00076 0.989302
1.00004 1.00148 0.993019
1.00113 1.00146 0.991002
1.00045 1.00238 0.99141
1.00089 1.00214 0.990716
0.999815 0.998064 0.996848
1.00007 1.00098 0.993438
1.00001 1.00005 0.994471
1.00019 1.00161 0.992631
1.003 1.00016 0.988701
1.00164 1.00125 0.990253
1.00285 1.00064 0.988512
1.00033 1.00224 0.99183
1.0014 1.0015 0.990474
1.00048 1.00311 0.990621
1.00105 1.00206 0.990326
1.00014 0.99908 0.995224
0.999931 0.997643 0.997043
0.999709 0.996805 0.999312
0.999637 0.996999 0.999292
0.999562 0.997213 0.999268
0.999789 0.99836 0.996565
0.999553 0.99746 0.999191
0.999728 0.998731 0.99631
0.99952 0.997746 0.999103
1.0005 0.999975 0.9935
1.00072 0.999973 0.993113
1.00259 0.9999 0.989721
1.00296 0.999765 0.989144
1.00104 0.999985 0.992461
0.99974 1 0.998093
1.0011 0.999966 0.992374
1.00322 0.999701 0.988711
1.00274 0.999813 0.989522
1.00396 0.999449 0.987609
1.00242 1.00003 0.989922
1.00358 0.999543 0.988261
1.00328 0.999675 0.988625
1.00425 0.999368 0.987135
1.00374 0.999453 0.988032
1.00439 0.999059 0.987213
1.00335 0.999772 0.988435
1.00409 0.999035 0.987793
1.00099 0.999979 0.992577
1.00071 0.99991 0.993777
1.00279 0.999756 0.989238
1.00262 0.999834 0.990281
0.999453 0.998047 0.998993
0.999583 0.999898 0.996054
1.0002 1.00174 0.992892
1.00202 1.00037 0.990604
1.00344 0.999632 0.988264
1.00233 1.00078 0.989686
1.00103 1.00187 0.990602
1.00212 1.00121 0.989346
0.999653 0.999173 0.996006
1.00008 1.00065 0.993736
1.00311 0.999718 0.988793
1.00263 0.999758 0.990067
1.0038 0.999531 0.98804
1.00364 0.999403 0.988335
0.999617 0.999507 0.995712
1.00004 1.00159 0.9929
1.00052 1.00214 0.991335
1.00292 1.00025 0.989007
1.00399 0.99916 0.987874
1.00156 1.00203 0.989759
1.0028 1.00052 0.988746
1.00243 1.00097 0.989004
1.00011 1.00109 0.993261
1.00026 1.00173 0.992332
1.00009 1.00014 0.994252
1.00408 0.999484 0.987603
1.00362 0.999444 0.988395
1.00426 0.999292 0.987344
1.0042 0.998871 0.987749
1.00344 0.999738 0.988164
1.00431 0.998569 0.987875
1.00006 1.00143 0.993014
1.00309 1.0002 0.988475
1.00038 1.00201 0.991872
1.00076 1.0026 0.990369
1.00187 1.00205 0.989181
1.00268 1.00061 0.98922
1.00013 0.99973 0.994586
1.00033 1.0018 0.992167
1.00025 1.00135 0.992695
1.00024 1.00234 0.991846
1.0021 1.00029 0.990277
0.999731 0.998334 0.996702
0.999633 0.999041 0.996144
1.00002 1.00057 0.993962
1.00095 1.00108 0.991657
1.00237 1.00077 0.989304
1.00001 1.00152 0.993019
1.00044 1.00238 0.991405
1.00115 1.00146 0.991046
1.00086 1.00215 0.990671
0.999807 0.998057 0.996856
1.00006 1.00102 0.993437
1.00002 1.00004 0.994482
1.00019 1.00164 0.99262
1.00301 1.00017 0.988692
1.00162 1.00126 0.990268
1.00285 1.00064 0.988517
1.0003 1.00225 0.99184
1.00142 1.00152 0.990522
1.0005 1.00312 0.990587
1.00102 1.00203 0.99052
0.999876 0.997833 0.996963
1.00005 0.999643 0.994817
1.00028 1.00187 0.992247
1.00018 1.00115 0.993109
1.00015 1.00244 0.991912
1.00353 0.999867 0.987994
1.00198 1.00125 0.989581
1.0031 1.00047 0.988227
1.00029 1.00321 0.990952
1.00156 1.00145 0.990184
1.00063 1.00333 0.989711
1.00012 0.999223 0.99513
1.00018 1.00008 0.994178
1.00017 0.998972 0.995289
1.00014 0.999099 0.99522
0.999965 0.997443 0.997553
0.99992 0.997623 0.99727
0.99983 0.996618 0.998456
0.999721 0.996768 0.99932
0.999648 0.996957 0.999302
0.999854 0.998099 0.996706
0.999617 0.997201 0.999236
0.999795 0.998379 0.996549
0.999555 0.997502 0.999171
0.999722 0.998778 0.996289
0.99952 0.997776 0.99908
1.00242 1.00005 0.989923
1.00274 0.999821 0.989521
1.00357 0.999547 0.98826
1.00397 0.999454 0.987611
1.00322 0.9997 0.988714
1.0011 0.999972 0.992369
1.00328 0.999675 0.988621
1.00425 0.999368 0.987139
1.00373 0.999466 0.988034
1.00441 0.999038 0.987152
1.00336 0.999771 0.988427
1.00408 0.999041 0.987796
1.00431 0.999329 0.987049
1.0047 0.999011 0.986614
1.00425 0.99896 0.987551
1.00462 0.998795 0.987096
1.00386 0.99935 0.987895
1.00435 0.998421 0.98792
1.00308 0.999706 0.988734
1.00265 0.999743 0.990062
1.00381 0.999507 0.987962
1.00364 0.999476 0.98847
0.99961 0.999553 0.995709
1.00006 1.00159 0.992902
1.00054 1.0021 0.991433
1.00296 1.00029 0.988998
1.00399 0.999071 0.987842
1.0028 1.00053 0.988745
1.0015 1.00204 0.989652
1.00237 1.00094 0.989021
1.00012 1.00104 0.993268
1.00027 1.0017 0.992343
1.00008 1.00015 0.994241
1.00411 0.999461 0.987459
1.00364 0.999404 0.988396
1.00426 0.999252 0.9873
1.0042 0.99891 0.987776
1.00009 1.00138 0.993023
1.00042 1.002 0.991854
1.00073 1.0026 0.990494
1.00344 0.999838 0.988227
1.00433 0.99846 0.98789
1.00178 1.00211 0.989116
1.00311 1.00019 0.988471
1.00262 1.00052 0.989248
1.00034 1.00181 0.992181
1.00025 1.00236 0.991791
1.00012 0.999749 0.994578
1.00025 1.00128 0.992768
1.00453 0.999169 0.986826
1.00414 0.999105 0.987715
1.00449 0.999005 0.98715
1.00449 0.99844 0.987577
1.00389 0.999177 0.987956
1.00456 0.998183 0.987737
1.00036 1.00184 0.992093
1.00319 0.999438 0.988947
1.00038 1.00252 0.991186
1.00105 1.00301 0.989604
1.00202 1.00207 0.988699
1.00277 1.00052 0.989177
1.00015 0.99955 0.994738
1.00026 1.00083 0.993182
1.00034 1.00222 0.991757
1.00021 1.00212 0.99213
1.00025 1.00252 0.991635
0.999799 0.998049 0.996863
1.00302 1.00018 0.988683
1.00003 1.00003 0.994493
1.00004 1.00108 0.993436
1.00018 1.00166 0.99261
1.0016 1.00126 0.990282
1.00285 1.00063 0.988521
1.00027 1.00226 0.991849
1.00052 1.00313 0.990553
1.00144 1.00154 0.99057
1.00099 1.00199 0.990713
0.99987 0.997824 0.996967
1.00006 0.999636 0.994825
1.00027 1.00187 0.992245
1.00017 1.00116 0.99311
1.00015 1.00247 0.99186
1.00353 0.999882 0.987981
1.00198 1.00124 0.989588
1.00309 1.00048 0.988212
1.00026 1.00321 0.990967
1.00158 1.00148 0.990221
1.00073 1.00331 0.989789
1.00009 0.999402 0.995008
1.00019 1.00067 0.993568
1.00027 1.0027 0.991461
1.00011 1.00212 0.992303
1.00009 1.0031 0.991401
1.00385 0.99947 0.987756
1.0022 1.00108 0.989308
1.00292 0.999943 0.988889
1.00019 1.00418 0.990056
1.00139 1.00268 0.989308
1.00011 0.999232 0.99513
1.00017 1.0002 0.993974
1.00018 1.0001 0.994123
1.00014 1.00085 0.993617
1.00019 1.00005 0.994184
1.0002 0.998897 0.99531
1.00017 0.998976 0.995287
1.00002 0.997276 0.997611
1.00013 0.999117 0.995216
0.999971 0.997434 0.997562
0.999908 0.996415 0.998507
0.999911 0.997611 0.997495
0.999809 0.996586 0.998901
0.999732 0.996732 0.999328
0.999906 0.997902 0.996802
0.999859 0.998109 0.996699
0.999695 0.996978 0.999265
0.999612 0.997244 0.999223
0.9998 0.998397 0.996534
0.999558 0.997543 0.999151
1.00337 0.99977 0.98842
1.00373 0.999472 0.988037
1.00408 0.999044 0.987799
1.00444 0.999019 0.987091
1.00425 0.999368 0.987143
1.00329 0.999676 0.988617
1.00432 0.999333 0.987049
1.00472 0.999017 0.98655
1.00425 0.998968 0.987557
1.00462 0.998745 0.987096
1.00387 0.999353 0.98788
1.00437 0.998386 0.987888
1.00478 0.999007 0.986457
1.00493 0.998781 0.986472
1.00451 0.998497 0.987482
1.00473 0.9986 0.987044
1.00418 0.998692 0.987867
1.00456 0.998141 0.987857
1.00413 0.999435 0.987316
1.00365 0.999372 0.988396
1.00426 0.999214 0.987256
1.0042 0.998948 0.987804
1.00012 1.00132 0.993032
1.00046 1.00199 0.991836
1.00069 1.0026 0.990618
1.00344 0.999939 0.988289
1.00434 0.99835 0.987905
1.00312 1.00017 0.988467
1.0017 1.00216 0.98905
1.00256 1.00043 0.989277
1.00034 1.0018 0.992196
1.00027 1.00238 0.991735
1.00012 0.999767 0.994571
1.00026 1.00121 0.992842
1.00453 0.999168 0.986824
1.00415 0.999087 0.987736
1.00445 0.998988 0.987194
1.0045 0.99844 0.987593
1.00038 1.00183 0.99209
1.00038 1.00248 0.991288
1.00102 1.00308 0.989594
1.00389 0.999272 0.987949
1.00449 0.998059 0.987926
1.00201 1.00212 0.988656
1.00322 0.999458 0.988944
1.00272 1.00029 0.989264
1.00037 1.00221 0.991761
1.00026 1.00253 0.991622
1.0002 1.00214 0.992122
1.00015 0.999544 0.994665
1.00027 1.00078 0.993233
1.00481 0.998772 0.986685
1.00453 0.998678 0.987301
1.00474 0.998154 0.98733
1.00413 0.998477 0.988054
1.00037 1.00221 0.991703
1.00358 0.999022 0.989034
1.00028 1.00299 0.990678
1.00132 1.00353 0.988573
1.00239 1.00204 0.988199
1.00017 0.999408 0.994699
1.00026 1.00053 0.993629
1.0002 1.0016 0.992676
1.00033 1.0023 0.991698
1.00019 1.00266 0.991681
1.00032 1.00248 0.991513
0.999865 0.997816 0.996972
1.00006 0.999629 0.994832
1.00354 0.999895 0.987967
1.00017 1.00118 0.993111
1.00026 1.00186 0.992242
1.00014 1.0025 0.991807
1.00198 1.00124 0.989595
1.00307 1.00049 0.988197
1.00023 1.0032 0.990982
1.00083 1.00328 0.989866
1.00159 1.0015 0.990259
1.00008 0.999404 0.995011
1.00019 1.00067 0.993574
1.00025 1.00269 0.991496
1.00011 1.00211 0.992299
1.00008 1.00315 0.991321
1.00383 0.999513 0.987758
1.00222 1.00107 0.989281
1.00301 0.999807 0.98894
1.00016 1.00416 0.990021
1.00139 1.00285 0.989152
1.00017 1.00039 0.993889
1.00014 1.00162 0.992652
1.00014 1.00365 0.990806
1.00007 1.00293 0.991496
1.00019 1.00343 0.990875
1.00415 0.998196 0.988468
1.00232 1.00149 0.98887
1.00315 0.998818 0.988871
1.00047 1.00458 0.989518
1.00115 1.00348 0.988201
1.00011 0.999242 0.99513
1.00017 1.0002 0.994023
1.00015 1.00098 0.993282
1.00018 1.00012 0.994068
1.00019 1.00006 0.994185
1.00013 1.00084 0.993537
1.00008 1.00141 0.993123
1.00012 1.00079 0.993536
1.00022 1 0.994202
1.00021 0.998891 0.995288
1.0002 0.998896 0.995311
1.00006 0.997172 0.997624
1.00017 0.998981 0.995285
1.00002 0.997272 0.997616
0.999965 0.996255 0.998546
0.999977 0.997419 0.997571
0.9999 0.996393 0.998506
0.999786 0.996547 0.999352
0.999958 0.997716 0.996893
0.999911 0.99791 0.996797
0.999767 0.996778 0.999289
0.999864 0.99812 0.996691
0.999685 0.997009 0.999257
0.999608 0.997284 0.99921
1.00388 0.999357 0.987866
1.00425 0.998978 0.987563
1.00439 0.99835 0.987855
1.00462 0.998693 0.987096
1.00474 0.999021 0.986487
1.00432 0.999337 0.987048
1.00478 0.999035 0.986442
1.00493 0.998799 0.986468
1.00452 0.998505 0.987447
1.00474 0.998519 0.987064
1.0042 0.998694 0.987872
1.00453 0.998082 0.9879
1.00504 0.998707 0.986312
1.00498 0.998439 0.986683
1.00474 0.998092 0.987459
1.00452 0.998082 0.987982
1.00454 0.999168 0.986823
1.00416 0.999064 0.987756
1.0044 0.998971 0.987239
1.00451 0.998435 0.987608
1.0004 1.00183 0.992088
1.00039 1.00242 0.991391
1.00099 1.00314 0.989583
1.00389 0.999366 0.987941
1.00443 0.997942 0.988114
1.00325 0.999478 0.988942
1.002 1.00217 0.988613
1.00267 1.00007 0.989351
1.00038 1.0022 0.991766
1.00028 1.00253 0.991608
1.00018 1.00216 0.992115
1.00015 0.999541 0.994592
1.00028 1.00073 0.993283
1.00475 0.99877 0.98676
1.00453 0.998729 0.987284
1.00473 0.998196 0.987413
1.00041 1.00221 0.99169
1.00038 1.00295 0.990792
1.00127 1.00362 0.988549
1.00421 0.998497 0.988018
1.00236 1.00185 0.988361
1.0034 0.998993 0.98912
1.00017 0.999389 0.994716
1.00035 1.00231 0.991696
1.00031 1.00246 0.991547
1.00018 1.00271 0.991638
1.00021 1.00158 0.992707
1.00026 1.00052 0.99357
1.00487 0.998513 0.986856
1.00481 0.998186 0.987257
1.00474 0.99809 0.98724
1.00465 0.997824 0.987839
1.00034 1.00246 0.991496
1.00312 1.00041 0.988277
1.0005 1.00396 0.989456
1.00156 1.00398 0.987799
1.00017 0.999266 0.994834
1.00025 1.00037 0.993822
1.00022 1.0013 0.992993
1.00016 1.00231 0.992033
1.00036 1.00246 0.991542
1.0003 1.00266 0.991398
1.00008 0.999405 0.995014
1.00019 1.00066 0.99358
1.00381 0.999558 0.987759
1.00011 1.0021 0.992294
1.00022 1.00269 0.991531
1.00007 1.00319 0.991242
1.00225 1.00106 0.989255
1.00309 0.999664 0.988991
1.00012 1.00415 0.989987
1.00138 1.00304 0.988995
1.00017 1.00037 0.993894
1.00014 1.00162 0.99268
1.0001 1.00363 0.990892
1.00006 1.00294 0.991517
1.00013 1.00351 0.990839
1.00422 0.998234 0.988378
1.00239 1.00133 0.988892
1.00308 0.998763 0.989467
1.00038 1.00458 0.98947
1.0013 1.00385 0.987904
1.00015 1.00117 0.993086
1.00011 1.00246 0.99186
1.00009 1.00425 0.990258
1.00009 1.00357 0.990645
1.00485 0.997346 0.988152
1.00435 0.997068 0.988957
1.00252 1.00188 0.987861
1.00053 1.00481 0.988309
1.00018 1.0002 0.994072
1.00015 1.001 0.99332
1.00011 1.00161 0.992834
1.00019 1.00005 0.994185
1.00013 1.00082 0.993457
1.00022 0.999993 0.994204
1.00009 1.00141 0.993057
1.00012 1.00078 0.99356
1.00006 1.00186 0.992673
1.00008 1.00129 0.993105
1.00012 1.00073 0.993573
1.00023 0.999987 0.994191
1.00021 0.998933 0.995241
1.00021 0.998891 0.995288
1.00009 0.997139 0.997602
1.0002 0.998891 0.995312
1.00006 0.997185 0.997621
1.00001 0.996173 0.998542
1.00003 0.99727 0.99762
0.999959 0.996235 0.998547
0.999891 0.996374 0.998503
1 0.997531 0.996993
0.999961 0.997724 0.99689
0.999832 0.996591 0.999314
0.999916 0.997917 0.996793
0.999758 0.99681 0.999282
0.999676 0.997044 0.999249
1.00421 0.998696 0.987877
1.00453 0.998514 0.987412
1.0045 0.998021 0.987944
1.00476 0.998437 0.987084
1.00492 0.998818 0.986463
1.00479 0.999065 0.986426
1.00501 0.998702 0.98638
1.00497 0.998451 0.986697
1.00474 0.998079 0.98746
1.0045 0.998023 0.987978
1.00507 0.998394 0.98657
1.00503 0.99783 0.987221
1.00486 0.997661 0.987689
1.00471 0.998761 0.986835
1.00452 0.998782 0.987268
1.00472 0.998237 0.987496
1.00044 1.0022 0.991678
1.00049 1.0029 0.990905
1.00122 1.00375 0.988526
1.0043 0.998511 0.987983
1.00323 0.998965 0.989204
1.00235 1.00167 0.988523
1.00036 1.00231 0.991694
1.00029 1.00246 0.99158
1.00017 1.00276 0.991595
1.00016 0.999367 0.994733
1.00021 1.00156 0.992739
1.00026 1.0005 0.993512
1.00489 0.998527 0.986801
1.00479 0.998224 0.987241
1.00481 0.998115 0.987206
1.00038 1.00247 0.991466
1.00043 1.00393 0.989698
1.00162 1.00396 0.987794
1.00451 0.997947 0.988033
1.00313 1.00034 0.988237
1.00018 0.999244 0.994922
1.00025 1.00037 0.993823
1.00031 1.00243 0.991537
1.0003 1.00256 0.991505
1.00016 1.0023 0.992003
1.00021 1.00132 0.992944
1.00495 0.998091 0.987077
1.00496 0.997794 0.987337
1.00503 0.997519 0.987391
1.0043 0.99789 0.988373
1.0001 1.00318 0.991078
1.00217 1.00318 0.987286
1.00079 1.00474 0.988711
1.00019 0.999098 0.995124
1.00018 1.00008 0.994178
1.00022 1.00032 0.993772
1.0002 1.00116 0.993105
1.00013 1.00199 0.992385
1.00005 1.00308 0.99136
1.00048 1.0018 0.991794
1.00023 1.00293 0.991792
1.00018 1.00036 0.993898
1.00015 1.00162 0.992708
1.00428 0.998273 0.988287
1.00007 1.00295 0.991539
1.00006 1.00361 0.990978
1.00008 1.00361 0.990803
1.00246 1.00115 0.988913
1.00303 0.998703 0.990059
1.00028 1.00457 0.989421
1.00145 1.00415 0.987607
1.00015 1.00121 0.993044
1.0001 1.00248 0.991883
1.00006 1.00425 0.990318
1.00013 1.00361 0.990694
1.00493 0.997345 0.987975
1.00426 0.997216 0.989034
1.00262 1.00176 0.988087
1.0007 1.00483 0.988174
1.00011 1.0019 0.992527
1.00494 0.996774 0.988236
1.00007 1.00339 0.991229
1.00034 1.00431 0.989708
1.00504 0.99622 0.988722
1.00398 0.998868 0.988015
1.00158 1.00428 0.987564
1.00015 1.00101 0.993358
1.0001 1.00161 0.992829
1.00006 1.00216 0.992362
1.00022 0.999989 0.994205
1.00013 1.00078 0.993583
1.00009 1.00142 0.992991
1.00023 0.999981 0.994191
1.00013 1.00074 0.993571
1.00007 1.00188 0.992614
1.00009 1.0013 0.993165
1.00007 1.00218 0.992309
1.00008 1.00173 0.992685
1.00009 1.00123 0.993247
1.00017 1.00068 0.993613
1.00023 1.00003 0.994143
1.0002 0.998984 0.9952
1.00021 0.998936 0.995241
1.00011 0.997144 0.997567
1.00021 0.998893 0.995288
1.00009 0.997161 0.997597
1.00004 0.996137 0.998524
1.00007 0.997198 0.997619
1.00001 0.996145 0.998545
0.999953 0.996215 0.998546
1.0002 0.998946 0.995254
1.00005 0.997356 0.997085
1.00001 0.997539 0.996988
0.99989 0.996414 0.99934
0.999963 0.997734 0.996886
0.999824 0.996621 0.999306
0.999748 0.996839 0.999274
1.00448 0.997967 0.987973
1.00474 0.998068 0.987461
1.00497 0.998459 0.986711
1.00497 0.998704 0.986447
1.00508 0.998383 0.986574
1.00504 0.997856 0.987165
1.00484 0.99765 0.987699
1.00508 0.997893 0.987047
1.00508 0.997333 0.987678
1.00495 0.996351 0.988553
1.0049 0.998551 0.986746
1.00478 0.998255 0.987224
1.00488 0.998161 0.987172
1.00042 1.00248 0.991435
1.00036 1.00389 0.989941
1.00167 1.00388 0.987789
1.00437 0.998065 0.988227
1.00314 1.00024 0.988197
1.00027 1.00238 0.991531
1.00033 1.00247 0.991611
1.00016 1.00231 0.991974
1.00018 0.999222 0.99501
1.00025 1.00036 0.993824
1.0002 1.00135 0.992896
1.00496 0.998011 0.987157
1.00019 0.999092 0.995122
1.00017 1.00008 0.994136
1.00497 0.997823 0.98731
1.00497 0.997658 0.987314
1.00007 1.00314 0.991227
1.00078 1.00472 0.988572
1.00217 1.00306 0.987305
1.00429 0.997896 0.988411
1.00022 1.00031 0.993899
1.00019 1.00115 0.993104
1.00056 1.00189 0.991615
1.00013 1.00243 0.992159
1.00004 1.00316 0.991275
1.00015 1.00195 0.992393
1.00504 0.997205 0.987812
1.0051 0.997731 0.987271
1.00502 0.996405 0.988308
1.00338 0.999778 0.988074
1.00021 1.0032 0.991097
1.00131 1.0047 0.987733
1.00016 0.999959 0.994223
1.00019 1.00022 0.994003
1.00011 1.00094 0.993589
1.00017 1.00114 0.99307
1.00012 1.00184 0.992644
0.999978 1.00264 0.991852
0.999883 1.00407 0.990934
1.00019 1.00188 0.992289
1.00016 1.00124 0.993001
1.0001 1.0025 0.991905
1.00501 0.997346 0.987798
1.00418 0.997392 0.989112
1.00018 1.00363 0.990744
1.00005 1.00425 0.990378
1.00272 1.00168 0.988315
1.00086 1.00487 0.988039
1.0001 1.00192 0.992513
1.00495 0.996802 0.988284
1.00005 1.00331 0.991247
1.00031 1.00427 0.989673
1.00502 0.996152 0.98865
1.00406 0.998809 0.988094
1.00148 1.00442 0.98766
1.00004 1.0028 0.991802
1.00515 0.996029 0.989372
1.00035 1.00369 0.990637
1.00073 1.00469 0.989032
1.00486 0.996326 0.988695
1.0023 1.00231 0.987678
1.00126 0.999995 0.991656
1.00011 1.00162 0.992825
1.00005 1.00217 0.992359
1.00011 1.00242 0.992003
1.00023 0.999974 0.994191
1.00013 1.00075 0.993569
1.00008 1.0013 0.993225
1.00009 1.0019 0.992555
1.00023 1.00002 0.994139
1.00016 1.00067 0.993581
1.00008 1.00218 0.992288
1.0001 1.00122 0.993242
1.00008 1.00174 0.992739
1.00009 1.00207 0.992365
1.00006 1.00153 0.992998
1.00014 1.00114 0.993257
1.00022 1.00067 0.993472
1.00024 1.00006 0.993999
1.00019 1.0007 0.993641
1.00023 1.00008 0.994004
1.0002 0.999009 0.995183
1.0002 0.998984 0.995201
1.00013 0.997189 0.997104
1.00021 0.998939 0.995241
1.00012 0.997168 0.997349
1.00002 0.996085 0.999369
1.00009 0.997181 0.997593
1.00004 0.996104 0.998527
1.00001 0.996118 0.998548
1.0002 0.998834 0.995364
1.0002 0.998946 0.995251
1.00008 0.997216 0.997159
1.00004 0.997363 0.997298
0.99994 0.996265 0.999361
1.00001 0.997546 0.996984
0.999883 0.996443 0.999332
0.999815 0.996653 0.999299
1.00482 0.997626 0.987709
1.00504 0.997876 0.987109
1.00508 0.998369 0.986578
1.00508 0.997893 0.987038
1.00507 0.997335 0.987632
1.0049 0.996473 0.988693
1.00508 0.996934 0.987978
1.00237 1.00004 0.988714
1.00507 0.99569 0.989303
1.00017 0.999886 0.994396
1.00495 0.997937 0.987238
1.00498 0.997848 0.987283
1.00491 0.997825 0.987236
1.00003 1.00312 0.991377
1.00077 1.00473 0.988432
1.00217 1.003 0.987324
1.00429 0.997947 0.988449
1.00064 1.00199 0.991437
1.00002 1.0019 0.992528
1.00002 1.00323 0.99119
1.00019 0.999088 0.99512
1.00016 1.00191 0.992401
1.00022 1.00031 0.994025
1.00019 1.00115 0.993103
1.00017 1.00008 0.994094
1.005 0.997189 0.987861
1.00017 0.99995 0.99428
1.0002 1.00023 0.993999
1.00011 1.00092 0.993495
1.00511 0.997552 0.987279
1.00499 0.996705 0.988213
1.0003 1.00283 0.991166
1.00108 1.00478 0.987701
1.00341 0.99985 0.988077
1.00017 1.00114 0.993132
1.00012 1.00182 0.992618
1.00014 1.00217 0.992052
0.999879 1.00388 0.991053
1 1.00266 0.991915
1.00508 0.996879 0.988133
1.00515 0.997956 0.986977
1.00461 0.997166 0.988327
1.00201 1.00259 0.988356
1.00019 1.00346 0.990812
1.00012 1.00077 0.993514
1.00012 1.00107 0.993265
1.00011 1.00147 0.993046
1.00009 1.00173 0.992709
1.00007 1.00228 0.992276
0.999876 1.00329 0.991521
0.999756 1.0042 0.990767
1.00009 1.00194 0.9925
1.00003 1.00323 0.991265
1.00497 0.996827 0.988332
1.005 0.996087 0.988577
1.00414 0.998724 0.988173
1.00028 1.00423 0.989638
1.00137 1.00454 0.987756
1.00002 1.00275 0.991891
1.00511 0.995824 0.98935
1.00023 1.00366 0.990673
1.00051 1.0047 0.989135
1.00488 0.996011 0.988892
1.00229 1.0025 0.987643
1.00128 1.00001 0.990571
1.0001 1.0031 0.991409
1.00512 0.995202 0.990423
1.00007 1.00395 0.990705
1.0005 1.00474 0.988902
1.00298 0.998965 0.988671
1.00078 0.995181 0.965113
0.996627 1.00124 0.981015
1.00085 1.0001 0.992554
0.998024 0.997512 0.958121
0.994485 0.998275 0.958089
1.00005 1.00218 0.992355
1.00009 1.00243 0.992048
1.00018 1.00221 0.992128
1.00023 1.00002 0.994136
1.00016 1.00066 0.993549
1.00011 1.00121 0.993236
1.00007 1.00176 0.992792
1.00008 1.00217 0.992267
1.00014 1.00114 0.993214
1.00023 1.00007 0.99405
1.00022 1.00066 0.993511
1.00009 1.00207 0.992375
1.00007 1.00152 0.992985
1.00008 1.00142 0.993006
1.00009 1.00169 0.992777
1.00021 1.00107 0.993111
1.00026 1.0007 0.993364
1.00023 1.00007 0.993995
1.00024 1.00068 0.993505
1.0002 1.00106 0.99325
1.00014 1.00076 0.993573
1.00019 1.0007 0.993576
1.00022 1.00006 0.994114
1.00023 1.00009 0.994001
1.0002 0.999016 0.995179
1.0002 0.999007 0.995183
1.00012 0.997233 0.997086
1.0002 0.998982 0.995202
1.00013 0.997192 0.997103
1.00003 0.99609 0.999364
1.00012 0.997191 0.99713
1.00004 0.996087 0.998939
1.00004 0.996071 0.99853
1.0002 0.998748 0.995447
1.0002 0.998829 0.995363
1.00011 0.997108 0.997226
1.0002 0.998945 0.995247
1.00008 0.997211 0.997371
0.99998 0.996149 0.999377
1.00005 0.99738 0.99707
0.999932 0.99631 0.999352
0.999875 0.996472 0.999324
1.00506 0.997346 0.987585
1.00508 0.997895 0.98703
1.00482 0.996587 0.988834
1.00221 0.99888 0.988841
1.00505 0.996927 0.988056
1.00513 0.996016 0.989177
1.00516 0.997097 0.98789
0.998562 0.99952 0.978753
1.00355 0.996922 0.989109
1.00018 0.999848 0.994431
1.00018 0.999882 0.994395
1.00011 1.00068 0.993726
1.00009 1.00064 0.993822
1.005 0.997159 0.98791
1.00511 0.997427 0.987288
1.00499 0.996913 0.988118
1.00038 1.0025 0.991236
1.00085 1.00482 0.987669
1.00345 0.999954 0.98808
1.0001 1.00247 0.991813
0.999889 1.00369 0.991172
1.00002 1.00267 0.991979
1.0002 1.00023 0.993996
1.00011 1.0018 0.992593
1.00017 1.00115 0.993193
1.00017 0.999943 0.994336
1.00011 1.00091 0.9934
1.00495 0.996903 0.988176
1.00012 1.00077 0.993611
1.00012 1.00105 0.993306
1.00012 1.00144 0.992994
1.00515 0.99755 0.987076
1.00462 0.997268 0.988262
1.00026 1.00331 0.990798
1.00197 1.00289 0.988201
1.00009 1.00176 0.992711
1.00003 1.00228 0.992304
0.999778 1.00422 0.99076
0.999919 1.00346 0.991375
1.00524 0.996995 0.987718
1.00505 0.997159 0.987427
1.00302 1.00053 0.988365
1.00015 1.00402 0.990376
1.00011 1.00151 0.992862
1.00006 1.00163 0.992867
1.00003 1.00233 0.992234
0.99994 1.00405 0.990628
0.9998 0.995039 0.962748
0.999999 1.00269 0.99198
1.00011 1.00362 0.99071
1.00508 0.995587 0.989328
1.00491 0.995702 0.98909
1.00227 1.00268 0.987609
1.00029 1.00466 0.989237
1.00125 1.00001 0.98948
1.00003 1.00313 0.991456
1.00511 0.995097 0.99035
1.00002 1.00392 0.990729
1.00044 1.00483 0.988904
1.00326 0.998918 0.988658
1.00062 0.99565 0.963084
0.996496 1.00104 0.977641
1.00077 1.00011 0.992846
0.997357 0.997964 0.958131
0.994458 0.998239 0.954975
1.00003 1.0029 0.99176
0.998902 0.995057 0.958551
0.994686 0.999662 0.959006
1.00424 0.99584 0.990914
0.999779 1.0042 0.990981
1.00064 1.00354 0.989815
1.0003 0.999747 0.995097
0.998255 0.99875 0.964908
0.995172 1.00155 0.976695
0.9965 0.999475 0.959665
0.994993 0.998082 0.965043
1.00006 1.00244 0.992094
1.00015 1.00224 0.992126
1.00014 1.00189 0.992631
1.00022 1.00007 0.994102
1.00022 1.00065 0.993551
1.00014 1.00114 0.993171
1.00008 1.00151 0.992973
1.00008 1.00209 0.992386
1.00023 1.00008 0.993995
1.00008 1.00141 0.993036
1.00021 1.00108 0.993154
1.00027 1.00068 0.99343
1.00009 1.0017 0.99275
1.00019 1.00134 0.992866
1.00015 1.00148 0.992919
1.00027 1.00099 0.993149
1.00027 1.00068 0.993463
1.00025 1.00068 0.993502
1.0002 1.00105 0.993209
1.00027 1.00097 0.993146
1.00014 1.00115 0.993201
1.00023 1.00123 0.993025
1.00001 1.0018 0.992768
1.00011 1.00087 0.993512
1.00014 1.00076 0.993572
1.00021 1.00008 0.994123
1.0002 1.0007 0.993512
1.00022 1.00007 0.994075
1.0002 0.999027 0.995177
1.00023 1.0001 0.993998
1.0002 0.999012 0.995179
1.00009 0.997259 0.997527
1.0002 0.999005 0.995182
1.00011 0.997226 0.997307
1.00006 0.996114 0.99848
1.00013 0.997195 0.997102
1.00003 0.996095 0.999362
1.00006 0.996091 0.998509
1.00018 0.999848 0.994422
1.0002 0.998709 0.995493
1.0002 0.998747 0.995447
1.00012 0.997031 0.997281
1.00021 0.998825 0.995362
1.00011 0.997101 0.997227
1.00001 0.996056 0.999393
1.00007 0.997223 0.997572
0.99999 0.996191 0.998941
0.999966 0.996341 0.998479
1.00193 0.99782 0.988964
1.00503 0.996929 0.988135
1.00519 0.996346 0.989052
0.998087 0.998831 0.980786
1.00344 0.99758 0.989338
1.00522 0.996578 0.987893
1.00481 0.997624 0.988783
0.999077 0.997248 0.982361
0.999199 0.995614 0.963804
0.99759 0.997779 0.957977
0.994563 0.997238 0.957936
1.00008 1.00065 0.993719
1.00018 0.99985 0.99443
1.00018 0.999879 0.994394
1.00011 1.00069 0.993702
1.00005 1.00122 0.993304
1.00009 1.00107 0.993392
1.0001 1.0007 0.993755
1.00009 1.00064 0.993777
1.00479 0.996933 0.988219
1.00516 0.997108 0.987176
1.00459 0.997416 0.988197
1.00032 1.00312 0.990785
1.00193 1.00307 0.988044
0.999798 1.00423 0.990754
0.999961 1.00363 0.991229
0.99999 1.00228 0.992332
1.00012 1.00103 0.993346
1.0001 1.00178 0.992714
1.00013 1.00078 0.993709
1.00012 1.00141 0.992942
1.00511 0.997214 0.987581
1.00009 1.0015 0.992923
1.00007 1.00163 0.992838
1.00494 0.997387 0.987439
1.00268 1.00033 0.988707
1.00024 1.00403 0.990199
1.00006 1.00234 0.99218
0.999964 1.00409 0.990636
1.00437 1.00059 0.986764
1.00419 0.99741 0.989356
1.00043 1.00281 0.990129
1.00003 1.00354 0.991135
1.00005 1.00178 0.992642
1.0001 1.00212 0.992333
1.00009 1.00286 0.991621
0.998714 0.994823 0.957113
1.00039 0.995083 0.966939
0.999965 1.00316 0.991502
0.999964 1.00392 0.990753
1.0051 0.995007 0.990276
1.00355 0.998929 0.988646
1.00038 1.00495 0.988906
1.00054 0.995258 0.961965
0.99655 1.00113 0.978947
1.00049 1.00013 0.993142
0.997265 0.997562 0.959397
0.994424 0.998221 0.951853
1 1.00293 0.991752
0.998954 0.995116 0.957009
0.99464 0.999771 0.957811
1.00441 0.99616 0.990828
0.999684 1.00422 0.991018
1.00051 1.00329 0.989918
1.00027 0.998577 0.99562
0.99834 0.998719 0.962689
0.995407 1.00289 0.979395
0.996248 0.999703 0.958773
0.995194 0.998166 0.963397
0.999991 1.00256 0.992224
0.994649 0.999715 0.962586
0.996666 1.00038 0.974931
1.00161 0.998389 0.993599
0.999465 1.00397 0.992143
0.998879 1.0016 0.996341
0.996463 1.00142 0.983466
0.995905 1.00111 0.962356
0.995781 0.999617 0.960483
0.997235 0.997245 0.969772
1.00012 1.00226 0.992123
1.00013 1.00192 0.992549
0.999888 1.0014 0.993269
1.00023 1.00008 0.993995
1.00027 1.00066 0.993495
1.00021 1.0011 0.993197
1.00007 1.00139 0.993066
1.0001 1.00171 0.992723
1.00027 1.00067 0.993463
1.00018 1.00138 0.992908
1.00027 1.00098 0.993144
1.0001 1.00145 0.992992
1.00019 1.00092 0.993517
1.00028 1.00107 0.993018
1.00029 1.00098 0.993106
1.00025 1.00067 0.9935
1.0002 1.00104 0.993168
1.00026 1.00098 0.993149
1.00013 1.00116 0.993198
1.00024 1.00119 0.99301
1.00007 1.00137 0.993077
1.00026 1.00115 0.992996
1.00018 1.00139 0.992874
1.00005 1.00245 0.992029
0.999855 1.00355 0.991263
0.999967 1.00226 0.992305
0.999999 1.00185 0.992756
1.00009 1.00107 0.99335
1.00011 1.00089 0.993506
1.00018 1.00014 0.994111
1.00014 1.00077 0.993571
1.00021 1.00008 0.994122
1.00018 0.999066 0.99517
1.00022 1.00007 0.994035
1.0002 0.999023 0.995178
1.00006 0.9973 0.997533
1.0002 0.999008 0.995179
1.0001 0.997254 0.99731
1.00004 0.996123 0.998485
1.00012 0.997216 0.997087
1.00002 0.996115 0.999358
1.00003 0.996098 0.99936
1.00018 0.99992 0.994512
1.00019 0.998732 0.995484
1.00017 0.999861 0.994421
1.00012 0.997002 0.99731
1.0002 0.998709 0.995492
1.0002 0.998743 0.995447
1.00012 0.997034 0.997279
1.00002 0.995996 0.999405
1.00009 0.997101 0.997638
1.00002 0.996072 0.99897
1.00001 0.9962 0.99852
0.998606 0.995843 0.957641
0.994692 0.998928 0.961336
0.998309 0.997767 0.9822
1.00333 0.998377 0.989563
1.00529 0.996117 0.987892
0.998936 0.99718 0.985159
1.00481 0.997879 0.988736
0.999911 0.995013 0.966113
0.997403 0.997555 0.957756
0.994482 0.997672 0.954688
1.00025 0.996979 0.989133
0.997772 0.997882 0.967135
0.996216 0.999861 0.959396
0.99549 0.998246 0.962119
1.00008 1.0013 0.993144
1.00009 1.00064 0.993756
1.00018 0.999846 0.994429
1.0001 1.00069 0.993678
1.00004 1.00118 0.99337
1.00008 1.0013 0.993177
1.0001 1.00106 0.993374
1.00012 1.00092 0.993445
1.0001 1.0007 0.993704
1.00009 1.00065 0.993732
1.00498 0.997406 0.987448
1.00478 0.997505 0.987453
1.00234 1.0001 0.989052
1.00033 1.00408 0.990023
0.999995 1.00409 0.990644
1.0001 1.00236 0.992126
1.00008 1.00164 0.992809
1.00007 1.0015 0.992984
1.00451 0.999933 0.986743
1.00007 1.0018 0.992615
1.00012 1.00211 0.992271
1.00387 0.997663 0.989194
1.00031 1.0031 0.990369
1.00014 1.00347 0.990944
1.00014 1.00277 0.991646
1.00209 1.00367 0.988541
1.00134 0.999416 0.992858
0.999996 1.00296 0.991614
1.00005 1.00197 0.992529
1.00016 1.00211 0.992145
1.00026 1.00243 0.991739
0.996103 0.998511 0.965199
0.998772 0.995332 0.957818
1.00007 0.995143 0.962179
0.99997 1.00295 0.991745
0.999606 1.00422 0.991057
1.00467 0.996407 0.990741
1.00037 1.00309 0.990017
0.999079 0.995074 0.95795
0.998047 0.998741 0.964883
0.995615 1.0025 0.976604
1.00044 0.997451 0.996098
0.996403 0.999812 0.958273
0.994534 0.999854 0.957828
0.995564 0.998226 0.96271
0.999915 1.00261 0.992223
0.994837 0.999473 0.963198
0.99662 1.00064 0.974872
1.00176 0.998572 0.99344
0.999251 1.00383 0.992185
0.999475 0.999816 0.997435
0.996588 1.0018 0.979453
0.996048 1.00228 0.964765
0.996457 0.999111 0.960937
0.997096 0.9974 0.969473
0.999471 1.00189 0.994085
0.998254 1.00025 0.978038
1.00087 1.00007 0.979399
0.998006 1.00199 0.996318
0.997258 1.00177 0.98913
0.995699 1.00147 0.964265
0.995302 0.999962 0.963001
0.998349 0.998692 0.966933
1.00012 1.00192 0.992469
0.999977 1.00133 0.99335
0.999776 1.0002 0.994622
1.00027 1.00066 0.993464
1.00027 1.00096 0.993138
1.00016 1.00141 0.99295
1.00007 1.0014 0.993066
1.00029 1.00098 0.993108
1.00027 1.0011 0.993
1.00016 1.00074 0.993618
0.999964 1.00041 0.994406
1.00036 1.0006 0.993355
1.00028 1.00105 0.993009
1.00026 1.00098 0.993152
1.00013 1.00116 0.993194
1.00024 1.00116 0.992995
1.00026 1.00115 0.992997
1.00006 1.00142 0.993065
1.00019 1.00135 0.992889
1.00008 1.00179 0.992637
1.00026 1.00126 0.992861
0.999964 1.00267 0.991988
1.00007 1.00243 0.992082
0.999833 1.00339 0.991457
1.00016 1.00389 0.99046
1.00003 1.00273 0.991937
0.999833 1.00343 0.99143
0.999973 1.00225 0.992406
1.00009 1.00141 0.992947
0.999988 1.0019 0.992743
1.00009 1.00109 0.993342
1.00017 1.00024 0.994041
1.00011 1.0009 0.9935
1.00019 1.00014 0.994108
1.00015 0.999149 0.99515
1.00021 1.00009 0.994122
1.00018 0.999061 0.995171
1.00003 0.997369 0.997532
1.0002 0.999018 0.995179
1.00007 0.9973 0.997315
1 0.996188 0.998489
1.00011 0.997242 0.997091
1.00002 0.996134 0.99892
1.00002 0.99612 0.999358
1.00017 1.00005 0.994268
1.00018 0.998814 0.995428
1.00017 0.999924 0.994397
1.00012 0.99703 0.997301
1.00019 0.998732 0.995484
1.00017 0.999877 0.99442
1.00002 0.995978 0.999409
1.00012 0.997 0.997309
1.0002 0.998708 0.995492
1.00012 0.997038 0.997277
1.00002 0.996005 0.999402
1.00001 0.996068 0.999389
0.995233 0.998887 0.965406
0.998504 0.995302 0.957665
0.996462 1.00147 0.974108
0.994678 0.998992 0.960159
0.999376 0.997193 0.981017
1.00481 0.998077 0.988641
0.99941 0.995323 0.968225
0.997774 0.998053 0.958667
0.994414 0.998204 0.951437
0.999676 0.997871 0.987221
0.998629 0.997478 0.962537
0.996372 0.999631 0.958091
0.995407 0.998504 0.960952
0.996882 0.998434 0.987225
0.997022 0.999973 0.962471
0.995598 0.999622 0.959453
0.997394 0.9983 0.96658
1.0001 1.00173 0.992747
1.00007 1.0013 0.993194
1.0001 1.00063 0.993793
1.00003 1.00115 0.993435
1.00012 1.00156 0.992778
1.00008 1.00128 0.993224
1.0001 1.00106 0.993356
1.00016 1.00101 0.993365
1.00013 1.00091 0.993513
1.00011 1.0007 0.993653
1.00466 0.99938 0.986725
1.00355 0.998103 0.989029
1.00021 1.00336 0.990608
1.00024 1.00338 0.990752
1.00017 1.0027 0.991671
1.00013 1.0021 0.992209
1.00009 1.00183 0.99259
1.00006 1.00198 0.992528
1.00254 1.00212 0.988813
1.00015 1.00216 0.992186
1.00027 1.0024 0.991772
1.0013 0.999627 0.992405
1.0002 1.00267 0.991629
1.00011 1.00137 0.992816
0.99991 1.00059 0.994674
1.0002 1.00189 0.992043
1.00018 1.00201 0.992245
1.00029 1.0024 0.991626
1.00018 0.999656 0.978305
0.99611 0.999107 0.96514
0.998653 0.995816 0.957336
0.999836 1.0027 0.99222
0.99906 1.00374 0.992228
1.00176 0.998729 0.993296
0.994872 0.999217 0.964932
0.996576 1.00123 0.96184
0.996652 1.00152 0.981572
1.0001 0.998049 0.998611
0.995756 0.999418 0.960452
0.996404 1.00092 0.974813
0.996753 0.997544 0.969849
0.999414 1.00195 0.993994
0.997925 0.999744 0.980185
1.00059 1.00045 0.979667
0.998046 1.00208 0.996493
0.997043 1.00106 0.989019
0.995985 1.00178 0.961433
0.99854 0.998248 0.968364
0.995068 0.999663 0.962762
0.998342 1.00128 0.996792
1.00452 1.00057 0.982265
1.00198 1.00151 0.978741
0.997667 0.997965 0.96662
0.995158 1.00285 0.996973
0.995508 0.999161 0.967738
0.994568 1.00011 0.964017
1.00008 1.00124 0.993429
0.999917 1.00036 0.994296
0.999479 0.999257 0.996214
1.00029 1.00098 0.99311
1.00025 1.00114 0.992982
1.00015 1.00053 0.993718
1.00029 1.00107 0.993001
1.00035 1.00057 0.993344
1.0001 1.00018 0.994293
0.999652 1.00004 0.995077
1.00041 1.0008 0.99303
1.00026 1.00114 0.992999
1.00005 1.00147 0.993053
1.0002 1.00131 0.992905
1.00026 1.00126 0.992847
1.0001 1.00174 0.99269
0.999844 1.00216 0.992704
0.999904 1.00267 0.992077
0.999821 1.00399 0.990845
1.00008 1.00241 0.992135
0.99995 1.00338 0.991397
1.00007 1.00431 0.989893
1.00014 1.00406 0.990272
1.00004 1.00309 0.991479
1.0001 1.00392 0.990462
1.0001 1.00185 0.992581
1.00003 1.00275 0.991851
0.999811 1.00331 0.991596
0.999979 1.00225 0.992508
1.00009 1.00138 0.993029
1.00016 1.00043 0.993867
1.00009 1.00111 0.993334
1.00017 1.00025 0.994036
1.00011 0.99926 0.995107
1.00019 1.00014 0.994106
1.00015 0.999138 0.995151
0.999967 0.997481 0.997517
1.00019 0.999054 0.995172
1.00003 0.997376 0.997313
0.999955 0.99628 0.998489
1.00008 0.997291 0.997096
0.999989 0.996194 0.998923
0.999996 0.996158 0.999359
1.00019 1.00024 0.993915
1.00016 0.998976 0.995158
1.00018 1.00006 0.994264
1.0001 0.997123 0.997248
1.00017 0.998825 0.995345
1.00016 0.99993 0.994282
1.00001 0.996006 0.999405
1.00012 0.997024 0.997302
1.00019 0.998731 0.995485
1.00002 0.995978 0.999408
1.00012 0.997001 0.997308
1.00002 0.996014 0.999399
0.9989 1.00032 0.978153
0.995322 0.99842 0.964703
0.998496 0.995237 0.958164
1.00021 1.00103 0.993179
0.999749 1.00057 0.981557
0.99624 1.00112 0.974047
0.99457 0.998972 0.960084
0.999476 0.999055 0.985361
0.998522 0.997856 0.967046
0.996282 0.999709 0.957629
0.995468 0.998621 0.96011
0.996519 0.999474 0.982456
0.996117 1.00086 0.965927
0.996725 0.999857 0.96001
0.997489 0.998201 0.96603
0.995621 1.00237 0.978417
0.995599 1.00053 0.961688
0.995101 0.999847 0.962239
0.998055 0.998608 0.967144
1.00016 1.00187 0.992437
1.00009 1.00175 0.992721
1.00007 1.00129 0.993245
1.00017 1.00152 0.992775
1.00011 1.00155 0.992864
1.00008 1.00125 0.993271
1.00016 1.00101 0.993382
1.00013 1.0009 0.993581
1.00297 1.00064 0.989086
1.0013 0.999838 0.991953
1.00006 1.00199 0.992526
1.0004 1.0025 0.991645
1.0003 1.00232 0.991804
1.00014 1.00221 0.992225
1.00017 1.00206 0.992261
1.0008 1.00084 0.993112
1.00027 1.00236 0.991769
1.0003 1.00205 0.992027
1.00003 0.999928 0.99455
1.00023 1.00185 0.992411
0.998576 0.998679 0.997157
0.998882 1.00251 0.994865
1.0003 1.00145 0.992282
1.00026 1.00202 0.99215
1.00639 1.00036 0.981184
1.00025 1.0001 0.978106
0.99611 0.999686 0.965089
0.999335 1.002 0.993907
0.998082 1.00199 0.996642
0.997632 0.999257 0.98232
0.995838 1.00028 0.9649
0.997043 1.00138 0.984564
0.99489 0.999883 0.962239
1.00042 1.0008 0.979935
0.998827 0.997977 0.969796
0.998426 1.00148 0.996265
1.00433 1.00066 0.982572
1.0025 1.00138 0.979679
0.995469 1.00357 0.999493
0.997821 0.9979 0.965872
0.995029 0.999366 0.965719
0.994959 0.999981 0.962619
0.997099 1.00095 0.999339
1.00922 1.00004 0.978493
1.00011 1.0001 0.981447
0.995644 0.997835 0.962281
0.994833 0.999747 0.962341
0.995359 0.999317 0.998086
0.995176 1.00016 0.962387
1.00003 1.00056 0.993974
0.999568 0.999479 0.996051
0.998453 0.998704 0.998874
1.0003 1.00111 0.992993
1.00034 1.00055 0.993333
1.00021 1.00005 0.99418
1.00036 1.00093 0.993002
0.999803 0.999714 0.995095
0.999562 1.00157 0.993715
1.00026 1.00127 0.992833
1.00013 1.00168 0.992743
0.999964 1.00213 0.992624
0.999409 1.0041 0.991518
0.999846 1.00268 0.992166
0.999729 1.00392 0.991056
1.00011 1.0049 0.989512
1.0007 1.00431 0.988997
1.00007 1.00337 0.991337
1.00019 1.00445 0.989661
1.00031 1.00364 0.990636
0.999921 1.00356 0.991051
1.00014 1.00392 0.99041
1.00009 1.00222 0.992229
1.00007 1.00307 0.991466
1.00005 1.00394 0.990465
1.00015 1.00076 0.993559
1.0001 1.00183 0.992554
1.00004 1.00278 0.991766
1.00009 1.00135 0.993111
1.00015 1.00045 0.993859
1.00007 0.999421 0.995022
1.00016 1.00026 0.994031
1.00011 0.999254 0.995106
0.999924 0.997632 0.997047
1.00016 0.999128 0.995152
0.999986 0.997488 0.997079
0.999855 0.996396 0.999358
1.00004 0.997369 0.997095
0.999943 0.996281 0.998923
0.999962 0.996222 0.999359
1.00022 1.00032 0.993772
1.00014 0.999176 0.994968
1.0002 1.00023 0.993977
1.00007 0.997269 0.99716
1.00015 0.99899 0.995136
1.00018 1.00007 0.99426
0.99999 0.996088 0.99939
1.0001 0.997113 0.997252
1.00017 0.998834 0.995262
1.00002 0.995999 0.999406
1.00012 0.997019 0.997303
1.00002 0.995979 0.999408
1.00562 0.999669 0.981102
0.998812 1.00047 0.978307
0.995295 0.998187 0.964907
1.0002 1.00105 0.9932
1.00023 1.00109 0.993044
1.00015 1.00154 0.992841
1.00181 1.00198 0.97852
0.999492 1.00032 0.981813
0.996024 1.00069 0.973979
0.995891 1.0002 0.985967
0.996709 0.999985 0.962527
0.995723 0.999846 0.959203
0.997369 0.998201 0.966141
0.995423 1.00098 0.98249
0.996027 1.00146 0.962507
0.995133 1.00003 0.963666
0.998301 0.998594 0.968514
0.995748 1.00218 0.980041
0.995064 1.00063 0.965615
0.994571 1.00013 0.964545
0.997073 0.997414 0.969731
1.00023 1.00178 0.992414
1.00016 1.00188 0.992424
1.00009 1.00177 0.992694
1.00016 1.00153 0.992769
1.00011 1.00155 0.992951
1.00017 1.00101 0.993399
1.00153 1.00014 0.993402
0.999999 0.999288 0.994429
1.00016 1.00212 0.992277
1.00041 1.00201 0.992011
1.00024 1.00238 0.991912
1.00025 1.00179 0.992351
1.00023 1.00202 0.992189
0.998924 0.999955 0.997177
1.00026 1.00151 0.992509
0.998601 1.0019 0.996017
1.0002 1.00152 0.992749
0.997017 0.998741 0.999488
0.998418 1.00039 0.998289
1.00008 1.00177 0.992618
1.01199 0.999775 0.976586
1.00745 1.00025 0.980061
1.00034 1.00058 0.977908
0.998562 1.00164 0.995732
0.995957 1.00145 0.998707
1.00415 1.00074 0.98288
0.995308 1.00018 0.972752
0.995112 1.00004 0.963727
1.00297 1.00117 0.980617
0.997717 0.99792 0.965973
0.997355 1.00101 0.999274
1.00991 1.00009 0.977651
0.999848 0.999912 0.981677
0.995025 1.00056 0.992197
0.995581 0.998265 0.96096
0.995315 0.999961 0.962992
0.995059 1.00011 0.966965
0.996327 1.00099 1.00239
1.00591 0.999431 0.98095
0.997057 1.00113 0.97356
0.994669 0.996928 0.957902
0.995203 0.999525 0.960171
0.995135 1.00008 0.966018
0.995207 0.999494 0.988641
0.99967 0.999748 0.995891
0.99858 0.998444 0.998794
0.998599 1.00015 0.997537
1.00032 1.00102 0.992975
0.999957 0.999357 0.995112
0.999433 1.0017 0.993873
0.999285 1.00307 0.992858
1.00009 1.00211 0.992544
0.999705 1.00406 0.991286
1.00005 1.00508 0.989453
0.999624 1.00385 0.991268
1.00014 1.00492 0.989479
1.00097 1.00489 0.988181
1.00127 1.00449 0.987913
1.00044 1.00349 0.990104
1.0007 1.00432 0.988937
1.0003 1.00458 0.989429
1.00027 1.00318 0.991056
1.00022 1.00348 0.990792
1.00001 1.00287 0.991628
0.999969 1.00351 0.991142
1.00014 1.00379 0.990548
1.00015 1.0012 0.993115
1.0001 1.00221 0.992236
1.00011 1.00306 0.991454
1.00003 0.999672 0.994843
1.00015 1.00076 0.993553
1.00009 1.00181 0.992527
1.00015 1.00046 0.993851
1.00007 0.999421 0.995018
0.999855 0.997819 0.996989
1.00012 0.999248 0.995105
0.999928 0.997636 0.997045
0.999806 0.996545 0.999346
0.999992 0.997486 0.997079
0.999879 0.996411 0.998917
0.999915 0.996313 0.999357
1.00024 1.00041 0.993742
1.00015 0.999328 0.994958
1.00021 1.00033 0.993814
1.00002 0.997456 0.997053
1.00015 0.999187 0.995028
1.00021 1.00024 0.994039
0.999953 0.996212 0.999367
1.00006 0.997259 0.997165
1.00015 0.999007 0.995115
0.999993 0.99607 0.999395
1.00009 0.997103 0.997255
1.00002 0.995991 0.999408
1.00908 1.00041 0.978182
1.00526 1 0.981398
0.998711 1.00052 0.978477
1.00023 1.0012 0.992933
1.00015 1.00179 0.992583
1.00019 1.00107 0.993221
1.00023 1.00111 0.99303
1.00016 1.00153 0.99279
1.00016 1.00158 0.992748
1.00015 1.00177 0.992565
1.00069 1.0003 0.979349
1.00227 1.00189 0.979419
0.999236 1.00009 0.98207
0.998514 0.998395 0.969885
0.994883 1.00024 0.979254
0.995874 1.00245 0.963568
0.994787 1.00005 0.96227
0.995592 1.00001 0.978355
0.995268 1.00009 0.962727
0.99492 1.00002 0.963391
0.996889 0.997572 0.969389
0.995598 0.997895 0.985734
0.99502 1.0002 0.962786
0.995582 0.999996 0.962924
0.994931 0.997898 0.965078
1.00023 1.00165 0.992604
1.00023 1.00174 0.992407
1.00015 1.00189 0.992412
1.00016 1.00154 0.992763
0.999332 1.00155 0.997176
0.998434 1.00139 0.997156
1.00028 1.00173 0.992292
1.00021 1.002 0.992228
1.00022 1.00166 0.992737
1.00022 1.00152 0.99269
1.00005 1.00183 0.992547
0.996584 1.00048 0.998738
0.998284 1.00032 0.998679
0.999927 1.00164 0.992983
0.9958 0.997585 1.00103
0.998866 1.00223 0.995864
1.00653 1.0004 0.981036
1.01416 0.998949 0.974026
1.00852 1.00011 0.978937
0.997607 1.00106 0.999217
0.995352 0.999431 0.99842
1.01062 1.00017 0.976809
0.995245 1.00015 0.962736
0.994686 0.999995 0.962136
0.999587 0.999736 0.981909
0.99568 0.998551 0.960342
0.996382 1.00073 1.00253
1.00555 0.999749 0.981265
0.99686 1.00079 0.973504
0.99501 0.999508 0.993282
0.994549 0.997572 0.954764
0.99626 0.99981 0.960786
0.99525 1.0001 0.964415
0.996482 1.00166 1
0.999345 1.00018 0.977716
0.995046 0.998698 0.961367
0.996438 0.999675 0.959298
0.995636 1.00062 0.96602
0.994842 0.999884 0.98325
0.998768 0.998184 0.998708
0.998477 1.00038 0.997527
1.00008 0.998934 0.996807
0.999289 1.00184 0.994032
0.998977 1.00312 0.993079
1.00027 1.00392 0.990146
1.00001 1.00399 0.991054
1.00021 1.00509 0.989276
1.00117 1.00459 0.987761
1.00019 1.00493 0.989447
1.00101 1.00488 0.988058
1.00158 1.00426 0.987275
1.002 1.00339 0.987469
1.00123 1.00376 0.988852
1.00131 1.00452 0.987726
1.00041 1.00287 0.990727
1.00045 1.00348 0.99018
1.0007 1.00433 0.988876
1.00026 1.00295 0.991222
1.00025 1.00322 0.991029
1.00014 1.00331 0.990947
1.00015 1.00174 0.992547
1.00003 1.0028 0.991723
1.00002 1.00347 0.991234
1.00001 1.00003 0.994507
1.00015 1.00119 0.993116
1.00011 1.00219 0.992242
0.999797 0.998027 0.996907
1.00003 0.999679 0.994837
1.00015 1.00077 0.993548
1.00007 0.99942 0.995015
0.999861 0.997825 0.996985
0.999729 0.996723 0.999332
0.999932 0.99764 0.997043
0.999796 0.99657 0.999342
0.999856 0.996436 0.99935
1.00021 1.00132 0.992894
1.00025 1.00051 0.993617
1.00014 0.999462 0.994843
1.00024 1.0004 0.993742
0.999975 0.997649 0.996949
1.00014 0.999341 0.994957
1.0002 1.00033 0.993857
0.999906 0.99637 0.999341
1.00002 0.997444 0.997059
1.00015 0.999195 0.995088
0.999958 0.99619 0.999374
1.00006 0.997248 0.99717
0.999997 0.996053 0.9994
1.00452 1.00059 0.982246
1.00977 1.00056 0.97737
1.0049 1.00035 0.981695
1.00022 1.00121 0.99296
1.00015 1.00179 0.992539
1.00012 1.00214 0.992226
1.00014 1.00171 0.992589
1.00013 1.00214 0.992313
1.00023 1.00111 0.993016
1.00017 1.00151 0.992739
1.00014 1.00159 0.992753
1.00019 1.00175 0.992511
1.00011 1.00187 0.992604
0.996781 1.00022 0.974751
1.00046 1.00067 0.979613
1.00277 1.00194 0.980319
0.996676 0.997746 0.969783
0.995082 1.00007 0.964393
0.995185 1.0003 0.976487
0.995072 1.0001 0.965618
0.995446 0.99685 0.980641
0.994989 1.00012 0.965842
0.994894 0.999935 0.962922
0.99511 0.998002 0.963438
0.995132 0.994805 0.985506
0.995096 1.00007 0.966466
0.995978 0.999899 0.960099
0.994496 0.998236 0.957687
0.999877 1.0014 0.993403
1.00019 1.00172 0.992574
1.00023 1.00171 0.992401
0.996062 1.00196 0.998006
0.998152 1.00007 0.999097
1.00023 1.00152 0.99263
1.00003 1.00193 0.992476
0.999923 1.0016 0.993031
0.998706 1.00216 0.995591
0.995788 0.997258 1.00109
0.998691 1.00257 0.994475
0.997037 1.00109 0.997038
0.999848 1.0001 0.978135
1.00754 1.00018 0.979983
1.0163 0.998159 0.971465
0.996384 1.00056 1.00266
0.994921 0.999617 0.986501
1.00519 1.00007 0.981581
0.995397 1.00007 0.962011
0.995393 0.999746 0.960799
0.996666 1.00028 0.97345
0.994472 0.998163 0.951626
0.996529 1.00155 1.00023
0.999263 1.0003 0.977878
0.995049 0.998612 0.960171
0.994883 0.999782 0.985446
0.996198 0.999774 0.958337
0.995634 0.999925 0.963019
0.997884 1.00027 0.997
0.99544 0.998605 0.965572
0.997227 0.997821 0.95816
0.997175 1.00062 0.96248
0.994902 1.00005 0.985106
0.998424 1.00057 0.99751
0.999899 0.998674 0.996827
1.00192 0.998996 0.992383
0.998682 1.00315 0.993299
0.999957 1.00398 0.990428
1.00185 1.00223 0.988474
1.00035 1.00509 0.989098
1.00122 1.00446 0.987763
1.00244 1.00271 0.987409
1.00104 1.00488 0.987934
1.00158 1.00424 0.987314
1.00261 1.00211 0.987518
1.00272 1.00144 0.987971
1.00167 1.00318 0.988187
1.002 1.00327 0.987502
1.00098 1.00313 0.989781
1.00115 1.00384 0.988677
1.00134 1.00454 0.987539
1.00047 1.00255 0.991172
1.0004 1.00285 0.990847
1.00046 1.00347 0.990256
1.00024 1.00212 0.992018
1.00024 1.00293 0.991267
1.00022 1.00327 0.991002
1.00001 1.00057 0.993974
1.00017 1.00174 0.992548
1.00005 1.00273 0.991819
0.999715 0.998312 0.997213
1.00001 1.00005 0.994497
1.00015 1.00118 0.993116
0.999665 0.996962 0.998368
0.999792 0.998057 0.997114
1.00003 0.999685 0.994831
0.999866 0.997832 0.996982
0.999718 0.996757 0.999326
0.999786 0.996597 0.999338
1.00017 1.00165 0.992589
1.00025 1.00068 0.99344
1.00021 1.00136 0.992855
1.0001 0.999609 0.994761
1.00025 1.00052 0.993617
0.999922 0.99783 0.996864
1.00013 0.999482 0.994843
1.00024 1.00041 0.993741
0.999849 0.996544 0.999316
0.999971 0.997642 0.996953
1.00014 0.999359 0.994957
0.999911 0.996342 0.999349
1.00002 0.997433 0.997064
0.999963 0.996164 0.999381
0.998743 0.999461 0.981148
1.00431 1.00068 0.982536
1.01046 1.00076 0.976557
1.00006 1.00241 0.992104
1.00022 1.00124 0.992987
1.00017 1.0018 0.992494
1.00015 1.00172 0.992626
1.00014 1.0021 0.992272
1.00013 1.00212 0.992273
1.00012 1.00241 0.992017
1.00006 1.00213 0.992312
1.00012 1.00161 0.992758
1.00023 1.00173 0.992456
1.00009 1.00188 0.992582
1.00006 1.00221 0.992639
0.994831 0.999508 0.958706
0.996667 1.00054 0.974674
1.0002 1.00096 0.979875
0.995364 0.998171 0.962435
0.995237 0.999909 0.962735
0.995031 1.00021 0.962858
0.995254 0.995681 0.983696
0.995018 0.994821 0.989199
0.994447 0.998184 0.954692
0.994939 1.00013 0.962843
0.996153 0.999813 0.960131
0.995501 0.997327 0.988341
0.995778 0.99964 0.967458
0.996538 0.999877 0.958274
0.999415 1.00119 0.994405
0.999978 1.00137 0.993405
1.00015 1.0018 0.992545
0.995766 0.996947 1.0011
0.998703 1.00198 0.995332
0.999891 1.00155 0.993078
0.999069 1.00247 0.99432
0.996595 1.00124 0.997194
0.998314 1.00124 0.994845
0.995877 0.999404 0.961554
1.00025 0.999966 0.979726
1.00855 0.999953 0.978931
0.996497 1.00144 1.00052
0.994904 0.999742 0.986986
0.999158 1.00044 0.978055
0.995714 0.999389 0.965997
0.996312 0.999851 0.95771
0.994978 0.998592 0.960116
0.997707 1.00009 0.9971
0.995523 0.998286 0.964794
0.997115 0.997856 0.95822
0.99486 1.00019 0.980669
0.99622 1.00052 0.965537
0.998978 0.999733 0.996418
0.998516 0.995811 0.957929
0.997365 1.00009 0.965828
0.995148 1.00081 0.978677
0.999648 0.998484 0.996853
1.00155 0.998804 0.993157
1.0032 0.997119 0.991136
0.99964 1.00404 0.99071
1.00192 1.00218 0.988488
1.00367 0.998811 0.988484
1.00127 1.00432 0.987765
1.00238 1.0025 0.987467
1.00367 0.999294 0.988302
1.00159 1.00421 0.987353
1.00263 1.00197 0.987544
1.0035 0.999341 0.988618
1.00316 0.999663 0.98899
1.00236 1.0018 0.988316
1.00271 1.00134 0.98809
1.00132 1.00275 0.989056
1.00169 1.00314 0.988294
1.00199 1.00315 0.987536
1.00068 1.00261 0.990722
1.00086 1.00314 0.989795
1.00108 1.00393 0.988502
1.00042 1.00211 0.991732
1.0005 1.00255 0.991162
1.0004 1.00283 0.990966
1.00003 1.0012 0.993352
1.00026 1.00211 0.992032
1.00022 1.00291 0.991312
0.999667 0.998656 0.996494
1.00001 1.00057 0.993963
1.00018 1.00173 0.992549
0.999539 0.997218 0.99928
0.999726 0.998353 0.99671
1 1.00006 0.994487
0.999642 0.996957 0.999305
0.999799 0.998072 0.996874
0.999708 0.996792 0.99932
1.00012 1.00199 0.992444
1.00019 1.00164 0.992595
1.00022 1.00099 0.993187
1.00007 0.999764 0.99467
1.00025 1.00068 0.993443
1.0002 1.00138 0.992816
0.999866 0.997998 0.996803
1.0001 0.99961 0.994762
1.00025 1.00051 0.993618
0.999786 0.996718 0.999296
0.999917 0.997827 0.996867
1.00013 0.999495 0.994843
0.999855 0.996517 0.999324
0.999967 0.997633 0.996958
0.999917 0.996315 0.999357
0.995384 0.99946 0.962138
0.998561 0.999464 0.981317
1.00413 1.00075 0.982826
1.00005 1.00247 0.992059
1.00006 1.00274 0.991867
1.00006 1.00267 0.991859
1.00016 1.00172 0.992663
1.00014 1.00206 0.992318
1.00012 1.0021 0.992233
1.00008 1.00214 0.992288
1.0001 1.00242 0.991993
0.999964 1.00293 0.991816
1.00013 1.00183 0.992432
1.00009 1.00189 0.99256
1.00001 1.00208 0.99265
0.998036 0.998018 0.957142
0.994702 0.999723 0.9576
0.996521 1.00074 0.974609
0.994402 0.998184 0.951686
0.995273 0.999842 0.959881
0.995489 1.00014 0.967332
0.995091 0.994802 0.985193
0.995289 0.997424 0.984762
0.9963 0.999187 0.957753
0.995553 0.999995 0.965154
0.996628 0.996769 0.984318
0.997047 1.00083 0.962082
1.00081 1.00111 0.992616
0.999595 1.00103 0.994309
1.00007 1.00133 0.993409
0.996106 1.00149 0.997335
0.999387 1.00239 0.99416
0.99892 1.00154 0.994377
1.00162 0.999497 0.99097
0.998685 0.994851 0.957263
0.99575 0.999563 0.963563
1.00067 0.999806 0.981312
0.997598 0.999803 0.997234
0.99494 1.00001 0.982739
0.995508 0.998039 0.964976
0.996399 1.00079 0.96216
0.997708 0.999028 0.958907
0.998918 0.999788 0.99579
0.998476 0.995666 0.957708
0.998452 0.998697 0.961915
0.995033 1.00106 0.982104
0.999913 1.00022 0.994875
0.999209 0.996937 0.96295
0.99671 0.99918 0.984514
1.0012 0.998618 0.99393
1.00304 0.997353 0.99104
1.00464 0.995296 0.990037
1.00197 1.00214 0.9885
1.00372 0.998779 0.988432
1.00463 0.996147 0.989273
1.00233 1.0023 0.987524
1.00364 0.999198 0.988293
1.00455 0.996565 0.989085
1.00264 1.00183 0.987571
1.00347 0.999277 0.988599
1.00388 0.997579 0.989559
1.00347 0.998656 0.98957
1.00315 0.999527 0.989118
1.00282 1.00031 0.988945
1.0021 1.00181 0.98885
1.00237 1.00184 0.988337
1.0027 1.00123 0.988209
1.00108 1.00248 0.989878
1.00136 1.00276 0.989185
1.00172 1.0031 0.988401
1.00056 1.00211 0.991432
1.0007 1.00261 0.990702
1.00075 1.00315 0.989808
1.0001 1.00147 0.992908
1.00044 1.00208 0.991737
1.00053 1.00255 0.991152
0.999628 0.999064 0.996123
1.00005 1.00113 0.993353
1.00027 1.00209 0.992045
0.999501 0.997449 0.99923
0.999666 0.998696 0.996472
1.00001 1.00056 0.993952
0.999562 0.997236 0.998786
0.999735 0.998362 0.996704
0.999629 0.997022 0.99929
1.00012 1.00233 0.992088
1.00011 1.00203 0.992396
1.00015 1.00142 0.992908
1.0002 1.00164 0.992601
1.00022 1.00099 0.993188
1.00001 1.00004 0.994501
0.999811 0.998151 0.996757
1.00007 0.999756 0.994676
1.00024 1.0007 0.993446
0.999715 0.99689 0.99928
0.999861 0.997993 0.996806
1.0001 0.999611 0.994764
0.999793 0.996696 0.999302
0.999911 0.997825 0.99687
0.999861 0.996488 0.999331
0.998697 0.996013 0.958307
0.995099 0.999866 0.961215
0.998359 0.99947 0.981479
1.00004 1.00253 0.992014
1.00004 1.00277 0.991777
1.00001 1.00271 0.991927
1.00016 1.00275 0.991669
0.999982 1.00305 0.991651
1.00009 1.00215 0.992264
1.0001 1.00244 0.991969
0.999936 1.00283 0.991856
0.999838 1.00291 0.991581
1.00012 1.00239 0.991901
1.00157 1.00178 0.990259
0.999958 1.00217 0.992518
0.999986 1.00195 0.992661
0.999183 0.999108 0.961198
0.9974 0.998194 0.957293
0.994539 0.999975 0.95753
0.996694 0.999416 0.957169
0.995581 1.00065 0.962747
0.994944 0.997456 0.989193
0.996898 0.99692 0.986636
0.99707 0.99889 0.966146
0.999749 0.998107 0.981313
1.00312 0.999251 0.989609
1.00041 1.00093 0.992596
0.999732 1.00088 0.994211
0.999467 1.00178 0.993923
1.00235 0.999819 0.990246
0.999724 0.995531 0.962327
0.998778 0.995299 0.958188
0.995607 0.999783 0.965579
0.998809 0.999861 0.995141
0.994856 1.0014 0.978976
0.998537 0.995334 0.957997
0.997873 0.999619 0.965887
1.00018 1.00005 0.994923
1.00008 0.995812 0.965022
0.996563 1.00013 0.980744
1.0019 1.00211 0.990695
1.00032 0.996633 0.988026
1.00289 0.997602 0.99094
1.00442 0.995818 0.989798
1.00514 0.995916 0.988694
1.00378 0.998753 0.988382
1.0046 0.996402 0.989201
1.00505 0.99571 0.989026
1.00363 0.999081 0.988284
1.00454 0.996729 0.989008
1.00474 0.996459 0.988909
1.00345 0.999217 0.98858
1.00383 0.997697 0.989503
1.00399 0.997564 0.989458
1.00338 0.99848 0.989735
1.0033 0.999336 0.989179
1.00313 0.999402 0.989246
1.00282 1.00033 0.988914
1.00262 1.00072 0.988939
1.0017 1.00182 0.98938
1.00209 1.00184 0.988825
1.00238 1.00188 0.988357
1.00082 1.00212 0.990915
1.00107 1.00248 0.989969
1.00139 1.00277 0.989315
1.00015 1.00159 0.992637
1.0006 1.0021 0.991416
1.00073 1.00262 0.990682
0.999626 0.999498 0.99567
1.00012 1.00143 0.992917
1.00046 1.00207 0.991742
0.999468 0.997724 0.999157
0.999619 0.999129 0.996103
1.00006 1.00108 0.993354
0.999505 0.997495 0.99921
0.999663 0.998741 0.996451
0.999558 0.997273 0.99925
1.00023 1.00251 0.991713
1.00011 1.00231 0.992092
1.00014 1.00183 0.992461
1.00011 1.00205 0.992347
1.00014 1.00148 0.99284
0.999964 1.00048 0.994131
1.00022 1.00098 0.993188
1.00002 1.00002 0.994507
0.999739 0.998366 0.996682
0.999636 0.997063 0.999268
0.999804 0.998149 0.996761
1.00007 0.999744 0.994682
0.999724 0.996869 0.999285
0.999856 0.997989 0.996808
0.999799 0.996672 0.999308
1.00069 0.996406 0.964066
0.99839 0.99606 0.957596
0.994689 1.00025 0.961266
1.00002 1.00287 0.991696
0.99996 1.00268 0.991986
0.999985 1.00305 0.991689
1.00013 1.00275 0.991671
1.00028 1.00297 0.991242
0.999938 1.00288 0.991683
0.99991 1.00271 0.991895
0.999973 1.00306 0.991411
1.00002 1.00265 0.991805
1.00041 1.00209 0.991231
1.00183 1.00166 0.990546
1.00319 1.00022 0.988257
1.00133 1.00167 0.990467
0.999777 1.00251 0.992605
0.999551 0.99824 0.979998
0.998889 0.998997 0.96227
0.997536 0.99837 0.957935
0.997846 1.00053 0.962114
0.997071 0.996999 0.988902
0.999981 0.997932 0.985541
1.00349 0.997375 0.990577
1.00317 0.998929 0.989975
1.00026 1.00077 0.992572
1.00353 1.00028 0.989508
0.999154 0.998597 0.981378
1.00031 0.99556 0.966427
0.99863 0.99571 0.957767
1.00037 0.999961 0.994958
0.996338 1.00087 0.983056
0.99961 0.995758 0.967106
1.00201 1.00114 0.990918
0.999761 0.997722 0.986201
1.00419 1.00001 0.988385
1.0047 0.997394 0.988698
1.00421 0.996274 0.98956
1.00504 0.995913 0.988659
1.00514 0.996681 0.988256
1.00451 0.996626 0.989126
1.00499 0.995886 0.989024
1.00502 0.996949 0.988041
1.00456 0.996904 0.98893
1.00472 0.996667 0.98885
1.00468 0.997564 0.988151
1.00378 0.997817 0.989448
1.00385 0.997632 0.989573
1.00372 0.998688 0.988776
1.00329 0.998303 0.989898
1.00326 0.999211 0.98926
1.00313 1 0.988841
1.00283 1.00035 0.988883
1.00262 1.00075 0.988915
1.00236 1.001 0.98925
1.00126 1.00172 0.990272
1.00168 1.00184 0.98947
1.00208 1.00187 0.988801
1.00029 1.00172 0.992275
1.00085 1.00211 0.990908
1.00106 1.00248 0.990059
0.999592 1.00004 0.995218
1.00017 1.00161 0.992638
1.00063 1.0021 0.991399
0.999461 0.998004 0.99905
0.999623 0.999554 0.995661
1.00014 1.00139 0.992927
0.999479 0.997767 0.999125
0.999612 0.999187 0.996083
0.99951 0.997537 0.999189
1.00035 1.0027 0.991322
1.00024 1.00249 0.991746
1.00022 1.00211 0.992107
1.00011 1.00229 0.992097
1.00014 1.00188 0.99241
0.999978 1.00097 0.993612
1.00014 1.00153 0.992773
0.999969 1.00047 0.994137
0.999661 0.998683 0.996509
1.00003 0.999993 0.994514
0.999736 0.99835 0.99669
0.999556 0.997275 0.999248
0.999648 0.997043 0.999272
0.999799 0.998146 0.996764
0.999732 0.996851 0.999289
0.999438 0.998028 0.980731
1.00044 0.996352 0.960973
0.998489 0.995922 0.957886
1.0008 1.00259 0.990591
0.999988 1.00306 0.991726
1.00011 1.00274 0.991673
0.999981 1.00297 0.991681
1.00021 1.00305 0.99121
1.00026 1.00192 0.991954
1.00011 1.00324 0.991242
0.99999 1.00293 0.99171
1.00057 1.00211 0.991357
1.00155 1.00164 0.990608
1.00283 1.00031 0.988894
1.00483 0.998341 0.986725
1.00313 1.0001 0.988215
1.00114 1.00148 0.990674
1.00297 0.99702 0.992466
0.99944 0.998744 0.978446
0.999024 0.998846 0.963696
0.999801 0.997746 0.982895
1.00356 0.996812 0.991413
1.00287 0.9985 0.990351
1.00349 0.998622 0.988466
0.998974 0.997623 0.983807
1.00007 0.995493 0.96206
1.0022 1.00004 0.991133
0.999736 0.99886 0.984369
1.00419 0.99903 0.988445
1.00465 0.99767 0.989021
1.00523 0.996448 0.98808
1.00518 0.997555 0.987652
1.00489 0.995948 0.988625
1.00512 0.996358 0.988327
1.00497 0.99714 0.988156
1.00498 0.996019 0.989023
1.00504 0.996887 0.988049
1.00488 0.998023 0.98727
1.00469 0.996868 0.988792
1.00456 0.997584 0.988342
1.00427 0.998433 0.987941
1.0037 0.997696 0.989689
1.00373 0.99869 0.988765
1.00357 0.999425 0.988374
1.00322 0.999085 0.989341
1.00311 0.999918 0.988861
1.00282 1.00041 0.988893
1.00262 1.00077 0.988891
1.00231 1.00101 0.989202
1.00188 1.00117 0.989925
1.00065 1.0015 0.991829
1.00125 1.00172 0.990365
1.00165 1.00186 0.98956
0.999565 1.00055 0.994767
1.00031 1.00172 0.992273
1.00088 1.0021 0.9909
0.99939 0.998359 0.998928
0.99963 0.999998 0.995213
1.00019 1.00161 0.99264
0.999451 0.998053 0.999012
0.999621 0.999597 0.995651
0.999487 0.997808 0.999091
1.00063 1.00259 0.990721
1.00034 1.00267 0.991332
1.00038 1.00222 0.99177
1.00025 1.00247 0.99178
1.00021 1.0021 0.992127
1.00001 1.00139 0.993143
1.00014 1.00194 0.992358
0.999963 1.00101 0.99361
0.999589 0.999093 0.996222
0.999973 1.00047 0.994143
0.999663 0.998645 0.996527
0.99949 0.997518 0.999206
0.999734 0.998335 0.996699
0.999566 0.99724 0.999256
0.999659 0.997024 0.999276
1.00308 0.997581 0.991123
0.999435 0.998284 0.977356
1.00008 0.99672 0.964556
1.0009 1.00171 0.991039
1.00197 1.00155 0.989412
1.0006 1.00262 0.990706
1.00003 1.00302 0.991679
1.00016 1.00313 0.991175
1.00046 1.00189 0.991831
1.00288 0.99997 0.989254
1.00067 1.00213 0.991483
1.00113 1.00163 0.99067
1.00281 1.00028 0.988961
1.00452 0.999025 0.986587
1.0051 0.997017 0.987395
1.00485 0.9984 0.986767
1.00314 1.00006 0.988172
1.00324 0.996959 0.992633
0.999269 0.999478 0.976242
1.00387 0.996396 0.992235
1.00507 0.996951 0.988721
1.00329 0.998459 0.988727
0.999423 0.996788 0.979965
1.00422 0.998136 0.988517
1.0046 0.997938 0.9893
1.00512 0.996418 0.988272
1.00519 0.99717 0.987671
1.00503 0.996945 0.987967
1.00513 0.99661 0.987773
1.0051 0.995991 0.988398
1.00493 0.996981 0.988157
1.00481 0.997666 0.987708
1.00505 0.996907 0.988058
1.00484 0.997998 0.987385
1.00461 0.998367 0.987349
1.00444 0.997608 0.988534
1.00432 0.99843 0.987906
1.00413 0.99891 0.987801
1.00374 0.998693 0.988755
1.00358 0.999419 0.988368
1.00327 0.999958 0.988423
1.00308 0.999833 0.98888
1.00278 1.00039 0.988904
1.00229 1.0007 0.989547
1.00227 1.00102 0.989153
1.00183 1.00116 0.989901
1.00109 1.00107 0.991422
0.999633 1.00073 0.9944
1.00066 1.00151 0.991824
1.00125 1.00173 0.990458
0.999239 0.998871 0.998805
0.999635 1.00046 0.994758
1.00033 1.00173 0.992271
0.999363 0.998459 0.998889
0.999661 0.999985 0.995208
0.999446 0.998119 0.998973
1.0012 1.00224 0.989748
1.00064 1.00257 0.990626
1.0007 1.00212 0.991246
1.00033 1.00263 0.991342
1.00035 1.0022 0.99178
1.00006 1.00169 0.992794
1.00019 1.0021 0.992147
0.999986 1.00145 0.993137
0.999552 0.999547 0.995826
0.99995 1.00105 0.993608
0.999598 0.999037 0.996242
0.999448 0.997779 0.999132
0.999665 0.998607 0.996546
0.999494 0.997476 0.999221
0.999578 0.997211 0.999263
1.00504 0.996538 0.987996
1.0031 0.9974 0.990606
0.999503 0.997586 0.978928
1.00295 1.00026 0.989174
1.00071 1.00157 0.991551
1.00291 1.00028 0.988279
1.002 1.00157 0.989342
1.00039 1.00267 0.990823
1.00455 0.999027 0.986915
1.00066 1.00186 0.991709
1.00295 0.99989 0.989154
1.00504 0.998368 0.98648
1.00282 1.00022 0.989027
1.00472 0.999019 0.986383
1.00505 0.997164 0.987408
1.00471 0.998506 0.986804
1.00337 0.996778 0.992807
1.005 0.997159 0.987755
1.00496 0.997043 0.988687
1.00299 0.998291 0.98898
1.00501 0.996326 0.988466
1.00523 0.996885 0.987689
1.005 0.996895 0.988047
1.00514 0.996732 0.987884
1.0051 0.997458 0.98742
1.00489 0.996859 0.988158
1.00479 0.997752 0.987698
1.00472 0.998215 0.98733
1.00481 0.997978 0.987499
1.00463 0.998387 0.987346
1.00443 0.998719 0.98743
1.00437 0.998428 0.987871
1.00415 0.99891 0.987784
1.0038 0.999417 0.987952
1.00359 0.999413 0.988361
1.00328 0.999953 0.98842
1.00278 1.00032 0.989008
1.00274 1.00036 0.988914
1.00229 1.0007 0.989551
1.00151 1.0007 0.991003
1.00178 1.00115 0.989877
1.00109 1.00109 0.991414
0.999725 1.00069 0.995044
0.999156 0.999549 0.9969
0.999703 1.00064 0.994819
1.00066 1.00153 0.99182
0.999216 0.999008 0.998762
0.999705 1.00038 0.994747
0.999341 0.998547 0.998848
1.00346 0.999353 0.988461
1.00194 1.00151 0.989101
1.00133 1.00222 0.989637
1.00109 1.00191 0.990683
1.00064 1.00255 0.990531
1.00066 1.00212 0.991266
1.0002 1.00175 0.9925
1.00032 1.0022 0.99179
1.00004 1.0017 0.992793
0.999572 0.999992 0.995361
0.999956 1.00153 0.993131
0.999557 0.999498 0.99584
0.999404 0.998085 0.999021
0.999606 0.998982 0.996261
0.999444 0.997738 0.999157
0.9995 0.997434 0.999235
1.00496 0.997756 0.987206
1.00506 0.996752 0.988522
1.00318 0.997426 0.990093
1.00437 0.998919 0.987275
1.0026 1.00031 0.989571
1.00051 1.00141 0.992058
1.00312 1.00021 0.988417
1.00204 1.00159 0.989272
1.00513 0.998677 0.986247
1.00452 0.999126 0.986735
1.00302 0.999839 0.989052
1.00504 0.998385 0.986474
1.00497 0.999009 0.986178
1.00502 0.997283 0.987431
1.00513 0.997715 0.987165
1.00504 0.997083 0.987778
1.00494 0.997071 0.988656
1.00495 0.996847 0.988128
1.00513 0.996824 0.987995
1.00509 0.997392 0.987503
1.005 0.998226 0.986834
1.00478 0.997822 0.987688
1.00467 0.998286 0.987354
1.00453 0.998909 0.987055
1.00465 0.998405 0.987342
1.00444 0.998717 0.987431
1.00409 0.999126 0.987701
1.00417 0.99891 0.987768
1.00381 0.999415 0.987947
1.00325 0.999872 0.988552
1.00328 0.999948 0.988418
1.00278 1.00031 0.989007
1.00191 1.00043 0.990498
1.00228 1.0007 0.989555
1.00151 1.0007 0.99099
0.999909 1.00053 0.994915
1.00109 1.0011 0.991407
0.999828 1.00066 0.994997
0.999024 1.00008 0.996728
0.999087 0.999611 0.997764
0.999794 1.00055 0.995204
0.999193 0.999134 0.998713
1.00443 0.998664 0.987446
1.00279 1.00047 0.988934
1.00332 0.999062 0.989067
1.00158 1.00162 0.99
1.00206 1.00154 0.989069
1.00146 1.0022 0.989527
1.00105 1.00195 0.990691
1.00045 1.00167 0.992104
1.00061 1.00212 0.991286
1.00018 1.00174 0.992503
0.999612 1.00038 0.994916
1.00001 1.0017 0.992792
0.999549 0.999986 0.995367
0.999312 0.998504 0.998888
0.999562 0.999438 0.995852
0.999406 0.998029 0.999058
0.999443 0.997693 0.999181
1.00514 0.998038 0.986747
1.005 0.99773 0.987194
1.00504 0.996887 0.989039
1.00497 0.998554 0.986533
1.00435 0.998997 0.98733
1.00228 1.00036 0.98997
1.00332 1.00013 0.988556
1.00512 0.998631 0.986247
1.00449 0.999224 0.986556
1.00503 0.99841 0.986468
1.00515 0.998032 0.986758
1.00513 0.997717 0.987119
1.00507 0.997019 0.987802
1.00514 0.99831 0.986591
1.00508 0.997344 0.987587
1.005 0.998204 0.986882
1.00473 0.998875 0.986691
1.00463 0.998362 0.987378
1.00453 0.998915 0.987064
1.0042 0.999278 0.987338
1.00444 0.998716 0.987432
1.00409 0.999129 0.987698
1.00352 0.999582 0.988332
1.00381 0.999414 0.987943
1.00325 0.99987 0.988553
1.00228 1.00016 0.990067
1.00278 1.00031 0.989006
1.00193 1.00042 0.990484
1.00014 1.0003 0.994773
1.00152 1.00071 0.990978
1 1.00052 0.994864
0.999003 1.00024 0.996656
0.999938 1.00061 0.994947
0.998955 1.00017 0.99678
0.998973 0.999624 0.998711
1.00474 0.998876 0.986819
1.00389 0.999265 0.987936
1.00431 0.998771 0.987635
1.00228 1.00095 0.989537
1.00279 1.00034 0.988958
1.00318 0.998781 0.989666
1.00089 1.00145 0.991469
1.00157 1.00163 0.989993
1.00217 1.00159 0.989036
1.001 1.00199 0.990699
1.00043 1.00166 0.992111
0.999667 1.00068 0.99453
1.00015 1.00171 0.992505
0.999555 1.00045 0.994921
0.999157 0.999065 0.998761
0.999528 0.999986 0.995374
0.99933 0.998416 0.998932
0.999409 0.997977 0.999094
1.00511 0.998089 0.986757
1.00514 0.99804 0.986709
1.00507 0.997706 0.987183
1.005 0.998407 0.986631
1.00431 0.999081 0.987383
1.00511 0.99857 0.986247
1.00515 0.998219 0.986588
1.00516 0.998062 0.986725
1.00512 0.997717 0.987073
1.00513 0.998241 0.986628
1.00504 0.998642 0.986467
1.00499 0.998178 0.986929
1.00474 0.99892 0.986679
1.0044 0.999323 0.986821
1.00453 0.99892 0.987074
1.0042 0.999287 0.987337
1.00365 0.999648 0.988014
1.00409 0.999129 0.987695
1.00352 0.999581 0.988329
1.00249 0.99994 0.989875
1.00325 0.999868 0.988553
1.0023 1.00014 0.990061
1.0004 1.00006 0.9946
1.00194 1.0004 0.990471
1.00023 1.0003 0.994711
0.999105 1.00021 0.996564
1.0001 1.00048 0.994817
0.998935 1.00032 0.99672
0.99888 1.0003 0.996838
1.0049 0.99849 0.986696
1.00432 0.999043 0.987326
1.00472 0.998843 0.986781
1.00315 1 0.988721
1.00388 0.999342 0.987976
1.00417 0.998874 0.987831
1.00147 1.00092 0.990814
1.00227 1.00089 0.989389
1.00278 1.00021 0.988982
0.999791 1.00082 0.994149
1.00087 1.00143 0.991483
1.00157 1.00165 0.989986
1.0004 1.00167 0.992119
0.999578 1.00079 0.994542
0.999004 0.999677 0.998653
0.999492 1.00054 0.994925
0.999186 0.998944 0.998806
0.999354 0.998328 0.998974
1.00509 0.998236 0.98669
1.00511 0.998103 0.986749
1.00514 0.998048 0.986671
1.00503 0.998264 0.986728
1.00509 0.998472 0.986474
1.00515 0.998232 0.986588
1.00517 0.998093 0.986692
1.00512 0.998183 0.986664
1.00504 0.998592 0.986473
1.00482 0.999091 0.986466
1.00477 0.998966 0.986668
1.0044 0.999384 0.986874
1.00385 0.999694 0.987428
1.00419 0.999299 0.987336
1.00365 0.999653 0.988008
1.00262 0.999913 0.989659
1.00352 0.999585 0.988326
1.00251 0.999925 0.989873
1.00053 0.999933 0.993489
1.00231 1.00012 0.990055
1.00045 1.00006 0.994058
0.999247 1.00014 0.998452
1.00031 1.0003 0.994652
0.999029 1.00027 0.996636
0.998859 1.00044 0.996775
1.00491 0.998453 0.986787
1.00444 0.998916 0.987105
1.00489 0.998534 0.986748
1.00362 0.999429 0.988058
1.00431 0.999071 0.987345
1.0047 0.998813 0.986744
1.0021 1.00023 0.990002
1.00316 0.999994 0.988714
1.00388 0.999422 0.988017
1.00004 1.00065 0.993785
1.00148 1.00089 0.990682
1.00226 1.00082 0.989241
0.998977 1.00015 0.998553
0.999704 1.0009 0.99417
1.00086 1.00143 0.991497
0.999492 1.00089 0.994553
0.99902 0.99954 0.998692
0.999218 0.998813 0.998844
1.00503 0.998428 0.986591
1.0051 0.998226 0.986687
1.00511 0.99812 0.986741
1.00492 0.998882 0.986453
1.00509 0.998456 0.98648
1.00516 0.998241 0.986587
1.00503 0.998535 0.986479
1.00481 0.999074 0.986458
1.00437 0.999442 0.987
1.00441 0.999449 0.986928
1.00386 0.999736 0.987585
1.00288 0.999926 0.988867
1.00366 0.999653 0.988002
1.00262 0.999911 0.989654
1.00061 0.999972 0.993301
1.00252 0.999911 0.989871
1.00053 0.999938 0.993487
0.999308 1.00005 0.998432
1.00046 1.00007 0.993556
0.99921 1.00013 0.997513
0.998953 1.00034 0.996704
1.00484 0.998598 0.986826
1.00453 0.998797 0.987173
1.0049 0.998443 0.986797
1.00382 0.999337 0.987946
1.00446 0.998893 0.987127
1.00487 0.998577 0.986801
1.00255 0.999794 0.989613
1.00364 0.999496 0.98822
1.0043 0.999097 0.987364
1.00034 1.00027 0.993554
1.00215 1.00022 0.989949
1.00318 0.999986 0.988708
0.999076 1.00034 0.998473
0.999992 1.00068 0.993808
1.00149 1.00086 0.990549
0.998943 1.00003 0.998589
0.999628 1.00096 0.99419
0.999031 0.999392 0.998732
1.00486 0.998817 0.986608
1.00502 0.99845 0.986606
1.0051 0.998214 0.986683
1.00447 0.999208 0.987014
1.00492 0.998856 0.986476
1.00509 0.998445 0.986486
1.0048 0.999055 0.98645
1.00435 0.999461 0.986993
1.00333 0.999726 0.988216
1.00387 0.999778 0.987741
1.00285 0.999942 0.989042
1.0008 1.00004 0.992854
1.00264 0.999903 0.989648
1.00062 0.999971 0.993291
0.999372 1.00001 0.998393
1.00052 0.999949 0.993485
0.999328 1.00004 0.998422
0.999245 1.00009 0.996494
1.00462 0.998871 0.987098
1.00484 0.998529 0.986853
1.00398 0.999247 0.987742
1.00454 0.998786 0.987161
1.0049 0.998432 0.986807
1.00277 0.99972 0.989555
1.00384 0.999332 0.987938
1.00449 0.99887 0.98715
1.00056 0.999962 0.993413
1.00256 0.999841 0.989704
1.00365 0.999568 0.988382
0.999227 1.00027 0.998426
1.00032 1.00027 0.993569
1.00219 1.00022 0.989896
0.999021 1.00027 0.998496
0.999934 1.0007 0.993835
0.99891 0.999921 0.998628
1.00437 0.999194 0.98722
1.00485 0.998838 0.986612
1.00501 0.998474 0.98662
1.00343 0.99956 0.988201
1.00447 0.999213 0.987012
1.00492 0.998828 0.986499
1.00434 0.999484 0.986986
1.00329 0.999752 0.988268
1.00107 1.00003 0.99236
1.00283 0.999954 0.989217
1.00083 1.00004 0.992832
0.999487 1.00001 0.998294
1.00063 0.999974 0.993282
0.999407 1 0.998366
0.999353 1.00003 0.99841
1.00414 0.999215 0.987509
1.00462 0.998803 0.987061
1.00484 0.998459 0.98688
1.00294 0.999678 0.98927
1.004 0.999252 0.987734
1.00456 0.998776 0.98715
1.00073 0.999847 0.993211
1.00277 0.999734 0.989554
1.00386 0.999326 0.987931
0.999375 1.00009 0.998385
1.00056 0.999953 0.993423
1.00257 0.999884 0.989795
0.999178 1.00025 0.998438
1.00029 1.00027 0.993583
0.998955 1.00022 0.998526
1.00336 0.999611 0.988553
1.00439 0.999171 0.987079
1.00485 0.998858 0.986617
1.0012 0.999965 0.992184
1.00343 0.999555 0.988192
1.00447 0.999215 0.98701
1.00325 0.999776 0.988321
1.00108 1.00002 0.99235
0.999677 1.00001 0.998142
1.00085 1.00004 0.992809
0.999554 1.00001 0.998238
0.999444 0.999994 0.998333
1.00316 0.999649 0.988891
1.00416 0.999187 0.98744
1.00461 0.998735 0.987025
1.00093 0.999895 0.993943
1.00294 0.99969 0.989262
1.00401 0.999257 0.987725
0.999502 0.999981 0.998313
1.00072 0.999846 0.99322
1.00276 0.999748 0.989551
0.999331 1.00011 0.998399
1.00055 0.999948 0.993434
0.999126 1.00024 0.99845
1.0012 0.999958 0.992206
1.00336 0.999576 0.988454
1.00441 0.999145 0.986938
0.999794 1 0.998058
1.0012 0.999966 0.992184
1.00343 0.999553 0.988184
1.0011 1.00001 0.992336
0.999729 1.00001 0.998102
0.999627 1 0.998182
1.00113 0.999951 0.993554
1.00316 0.999645 0.988893
1.00418 0.99916 0.98737
0.999429 0.999971 0.998383
1.00086 0.999901 0.992926
1.00295 0.999697 0.989254
0.999457 1 0.998341
1.00071 0.99985 0.99323
0.999292 1.00013 0.998411
0.999782 1.00001 0.995685
1.00119 0.99996 0.992831
1.00336 0.999545 0.988355
0.999797 0.999999 0.998054
1.00119 0.999964 0.992188
0.99977 1 0.99807
0.999527 0.99998 0.996017
1.00106 0.999963 0.993085
1.00316 0.999643 0.988894
0.999496 0.999972 0.997218
1.00086 0.999916 0.992908
0.999421 1.00002 0.998367
0.999786 0.999994 0.998061
1.00115 0.999959 0.992283
0.9998 0.999996 0.998052
0.999623 0.999995 0.997045
1.00102 0.999968 0.992546
0.99953 0.999985 0.998286
0.999752 0.99999 0.998094
0.999649 0.999985 0.998183

TENSORS stress float
0.00118917 -6.21501e-07 6.74811e-05
-6.21501e-07 0.00028792 -7.75501e-06
6.74811e-05 -7.75501e-06 0.00026819
0.00322079 -8.14834e-05 6.18404e-05
-8.14834e-05 0.00135069 3.41309e-06
6.18404e-05 3.41309e-06 0.00134654
0.00120186 3.4228e-05 3.18691e-05
3.4228e-05 0.000303672 -2.44378e-06
3.18691e-05 -2.44378e-06 0.000278986
0.00158166 -1.21217e-05 8.45102e-05
-1.21217e-05 0.000467911 -6.11315e-06
8.45102e-05 -6.11315e-06 0.000446349
0.00129032 -1.05352e-05 7.35565e-05
-1.05352e-05 0.000340758 -7.83262e-06
7.35565e-05 -7.83262e-06 0.000319576
0.00113383 2.59124e-05 5.6823e-05
2.59124e-05 0.00025042 -7.11487e-06
5.6823e-05 -7.11487e-06 0.000232163
0.00110648 -1.86981e-06 8.78343e-06
-1.86981e-06 0.000200157 -4.08103e-06
8.78343e-06 -4.08103e-06 0.00015148
0.00317819 -9.32981e-05 2.22366e-06
-9.32981e-05 0.00132594 -2.83434e-07
2.22366e-06 -2.83434e-07 0.00132129
0.00392774 -0.000170199 1.61648e-06
-0.000170199 0.00176125 2.17163e-06
1.61648e-06 2.17163e-06 0.00173722
0.00320726 -0.000132115 1.15376e-05
-0.000132115 0.00136912 1.56834e-06
1.15376e-05 1.56834e-06 0.00135407
0.0011303 -3.68967e-05 4.7189e-05
-3.68967e-05 0.000222595 4.16669e-06
4.7189e-05 4.16669e-06 0.000213982
0.000748557 1.97474e-05 7.43091e-06
1.97474e-05 2.46231e-06 4.57817e-06
7.43091e-06 4.57817e-06 -3.89395e-05
0.00175324 -8.76327e-06 0.000101283
-8.76327e-06 0.00053959 8.18708e-07
0.000101283 8.18708e-07 0.000516896
0.00131904 7.50133e-06 1.56569e-05
7.50133e-06 0.00033192 1.30955e-06
1.56569e-05 1.30955e-06 0.000307183
0.00124982 7.6659e-05 -3.51283e-06
7.6659e-05 0.000339922 2.87924e-06
-3.51283e-06 2.87924e-06 0.000309135
0.00146656 7.32929e-06 3.6841e-05
7.32929e-06 0.000413282 -2.18507e-06
3.6841e-05 -2.18507e-06 0.000389563
0.00113326 4.2451e-05 2.64689e-05
4.2451e-05 0.000256228 -2.40932e-06
2.64689e-05 -2.40932e-06 0.000235087
0.00128787 3.09935e-05 3.6686e-05
3.09935e-05 0.000349368 -2.30256e-06
3.6686e-05 -2.30256e-06 0.000322986
0.00121672 -1.23104e-05 -1.36307e-05
-1.23104e-05 0.000252973 3.78226e-07
-1.36307e-05 3.78226e-07 0.000206587
0.00478461 -3.68298e-06 0.000100746
-3.68298e-06 0.00215424 -1.0445e-06
0.000100746 -1.0445e-06 0.00214911
0.00165665 -6.81412e-06 8.82922e-05
-6.81412e-06 0.000500101 -4.60267e-06
8.82922e-05 -4.60267e-06 0.000479138
0.00143433 -1.24718e-05 7.88006e-05
-1.24718e-05 0.000405311 -7.31675e-06
7.88006e-05 -7.31675e-06 0.000383573
0.00144489 -2.15474e-05 1.72874e-05
-2.15474e-05 0.000308744 -3.39209e-06
1.72874e-05 -3.39209e-06 0.000259635
0.00121584 -1.35935e-06 9.04341e-06
-1.35935e-06 0.000240446 -4.60313e-06
9.04341e-06 -4.60313e-06 0.00018966
0.00114714 4.285e-05 4.53442e-05
4.285e-05 0.000241014 -6.7982e-06
4.53442e-05 -6.7982e-06 0.000226566
0.00102195 4.7044e-06 8.36073e-06
4.7044e-06 0.000165512 -3.36917e-06
8.36073e-06 -3.36917e-06 0.000120681
0.00149818 -8.55307e-05 3.77263e-06
-8.55307e-05 0.000316499 -1.46812e-06
3.77263e-06 -1.46812e-06 0.000240003
0.00311933 -9.84409e-05 -4.90372e-05
-9.84409e-05 0.00129206 -3.12634e-06
-4.90372e-05 -3.12634e-06 0.00128751
0.00254965 -5.96658e-05 -3.46298e-05
-5.96658e-05 0.00101592 -7.40191e-07
-3.46298e-05 -7.40191e-07 0.000995658
0.00222284 -7.89654e-05 -2.44745e-05
-7.89654e-05 0.000838554 -5.78563e-07
-2.44745e-05 -5.78563e-07 0.000821949
0.00295637 -8.75986e-05 1.27004e-06
-8.75986e-05 0.00119482 -1.58814e-07
1.27004e-06 -1.58814e-07 0.00119424
0.000692462 1.16245e-05 -1.02173e-07
1.16245e-05 -2.20734e-05 -1.56286e-07
-1.02173e-07 -1.56286e-07 -6.3995e-05
0.00161883 2.33914e-05 8.06055e-05
2.33914e-05 0.000500383 4.88868e-06
8.06055e-05 4.88868e-06 0.000479034
0.00159572 5.66115e-06 6.97273e-05
5.66115e-06 0.000503227 5.55026e-06
6.97273e-05 5.55026e-06 0.000482788
0.00217714 6.64862e-05 4.3868e-05
6.64862e-05 0.000732462 5.13788e-06
4.3868e-05 5.13788e-06 0.00069021
0.00270352 -9.00105e-05 1.43357e-05
-9.00105e-05 0.00105225 1.37243e-06
1.43357e-05 1.37243e-06 0.00105435
0.00188402 2.71338e-05 3.37161e-05
2.71338e-05 0.00060327 3.9635e-06
3.37161e-05 3.9635e-06 0.00056572
0.000681499 -1.61896e-05 7.47497e-06
-1.61896e-05 -2.9308e-05 6.62715e-06
7.47497e-06 6.62715e-06 -6.67875e-05
0.000912455 5.71751e-05 3.64418e-06
5.71751e-05 5.71575e-05 8.02134e-07
3.64418e-06 8.02134e-07 -1.76656e-05
0.00251485 -6.3114e-05 3.76994e-05
-6.3114e-05 0.000939043 3.32562e-06
3.76994e-05 3.32562e-06 0.000948522
0.0049579 -1.29606e-05 1.51232e-06
-1.29606e-05 0.00224024 -4.99193e-07
1.51232e-06 -4.99193e-07 0.00223468
0.00299501 6.66223e-06 -4.00778e-05
6.66223e-06 0.00121561 -9.18547e-07
-4.00778e-05 -9.18547e-07 0.00120042
0.00516536 1.07141e-05 0.000109883
1.07141e-05 0.00234203 3.64605e-07
0.000109883 3.64605e-07 0.00233674
0.00135013 8.61581e-06 1.369e-05
8.61581e-06 0.000344255 8.67459e-07
1.369e-05 8.67459e-07 0.000318279
0.000797077 -4.66779e-06 1.43446e-05
-4.66779e-06 -7.12344e-05 2.06147e-06
1.43446e-05 2.06147e-06 -0.000127355
0.00439707 -3.07058e-05 2.54299e-05
-3.07058e-05 0.00196806 1.09874e-06
2.54299e-05 1.09874e-06 0.00195788
0.0023386 8.3045e-06 5.26432e-05
8.3045e-06 0.0007663 3.08998e-06
5.26432e-05 3.08998e-06 0.000726614
0.00134668 4.20798e-06 -1.56592e-05
4.20798e-06 0.0003557 1.99494e-06
-1.56592e-05 1.99494e-06 0.000330253
0.00132013 6.69627e-05 -3.76787e-06
6.69627e-05 0.000375368 2.91771e-06
-3.76787e-06 2.91771e-06 0.000344533
0.00114029 6.92139e-05 -6.32562e-06
6.92139e-05 0.000267063 2.33323e-06
-6.32562e-06 2.33323e-06 0.000241817
0.0012807 -2.60675e-05 -3.59129e-05
-2.60675e-05 0.000280447 4.78877e-06
-3.59129e-05 4.78877e-06 0.000237001
0.00317708 4.10867e-05 -4.09498e-05
4.10867e-05 0.00130631 -1.03611e-06
-4.09498e-05 -1.03611e-06 0.00128787
0.00149383 2.72691e-06 3.66504e-05
2.72691e-06 0.000419452 -1.51932e-06
3.66504e-05 -1.51932e-06 0.000396579
0.00110087 5.10959e-05 1.97337e-05
5.10959e-05 0.000219815 -2.32527e-06
1.97337e-05 -2.32527e-06 0.000204208
0.0013811 2.011e-05 3.74419e-05
2.011e-05 0.000385327 -2.39164e-06
3.74419e-05 -2.39164e-06 0.000360123
0.00149685 -3.02056e-05 -1.33496e-05
-3.02056e-05 0.000333693 2.34318e-07
-1.33496e-05 2.34318e-07 0.00028626
0.00111932 5.79445e-07 -1.06487e-05
5.79445e-07 0.000212593 3.45028e-07
-1.06487e-05 3.45028e-07 0.000169399
0.00131372 -1.96377e-05 -1.46119e-05
-1.96377e-05 0.000285499 3.43435e-07
-1.46119e-05 3.43435e-07 0.000238079
0.001625 -9.07628e-05 -2.183e-06
-9.07628e-05 0.000378717 7.77268e-07
-2.183e-06 7.77268e-07 0.00030116
0.00495428 3.29291e-05 9.98395e-05
3.29291e-05 0.00223868 1.3321e-07
9.98395e-05 1.3321e-07 0.0022329
0.00163954 2.44898e-06 9.05823e-05
2.44898e-06 0.000489759 -3.30087e-06
9.05823e-05 -3.30087e-06 0.000468516
0.00224812 4.13272e-05 1.22995e-05
4.13272e-05 0.000714465 -1.04231e-06
1.22995e-05 -1.04231e-06 0.000667123
0.00148536 -2.22887e-05 1.92987e-05
-2.22887e-05 0.000319872 -2.41388e-06
1.92987e-05 -2.41388e-06 0.000272027
0.00133332 -1.0461e-05 1.27683e-05
-1.0461e-05 0.000275659 -4.32608e-06
1.27683e-05 -4.32608e-06 0.000225525
0.00193645 -7.55536e-05 6.21939e-06
-7.55536e-05 0.000420783 -1.95292e-06
6.21939e-06 -1.95292e-06 0.000338401
0.00123134 -7.70217e-05 5.66739e-06
-7.70217e-05 0.000133389 -2.71648e-06
5.66739e-06 -2.71648e-06 5.30553e-05
0.00122524 4.53017e-05 4.14843e-05
4.53017e-05 0.000261028 -6.58253e-06
4.14843e-05 -6.58253e-06 0.000253322
0.000980831 2.99862e-05 6.67709e-06
2.99862e-05 0.000147401 -2.91299e-06
6.67709e-06 -2.91299e-06 0.000109488
0.00132011 -7.24878e-05 2.74725e-06
-7.24878e-05 0.000261126 -9.43054e-07
2.74725e-06 -9.43054e-07 0.000187933
0.00112386 -9.33703e-05 2.48294e-06
-9.33703e-05 6.31594e-05 -7.73248e-07
2.48294e-06 -7.73248e-07 -3.47869e-05
0.00385321 -8.72687e-05 -6.42988e-05
-8.72687e-05 0.00170719 -3.91963e-06
-6.42988e-05 -3.91963e-06 0.00169468
0.00292973 -8.88635e-05 -4.44261e-05
-8.88635e-05 0.00117752 -3.13347e-06
-4.44261e-05 -3.13347e-06 0.001178
0.00327336 -0.000103409 -5.46775e-05
-0.000103409 0.0013911 -3.05621e-06
-5.46775e-05 -3.05621e-06 0.00138228
0.000642607 1.16166e-05 -6.34812e-06
1.16166e-05 -4.44169e-05 -5.19257e-06
-6.34812e-06 -5.19257e-06 -8.61886e-05
0.00443789 -3.43243e-05 -2.82601e-06
-3.43243e-05 0.00199458 -2.18089e-07
-2.82601e-06 -2.18089e-07 0.00198606
0.00372974 -9.19657e-05 2.37106e-06
-9.19657e-05 0.00164442 -2.1524e-07
2.37106e-06 -2.1524e-07 0.00163186
0.000637824 6.55332e-05 -5.1613e-07
6.55332e-05 -7.66892e-05 -1.53035e-07
-5.1613e-07 -1.53035e-07 -0.000127499
0.0018811 -6.44448e-05 -1.72912e-05
-6.44448e-05 0.000613004 -7.17571e-07
-1.72912e-05 -7.17571e-07 0.000612096
0.000663963 3.5328e-05 -2.57199e-07
3.5328e-05 -3.79171e-05 -8.51166e-08
-2.57199e-07 -8.51166e-08 -8.33234e-05
0.00115921 -2.58523e-05 9.54236e-06
-2.58523e-05 0.000226019 4.67121e-07
9.54236e-06 4.67121e-07 0.000192695
0.000866047 5.61833e-05 1.62707e-07
5.61833e-05 3.17396e-05 -2.19922e-07
1.62707e-07 -2.19922e-07 -4.24311e-05
0.00264524 -6.99205e-05 4.14448e-05
-6.99205e-05 0.00101291 3.30588e-06
4.14448e-05 3.30588e-06 0.00101997
0.000725578 -5.00839e-05 1.8329e-06
-5.00839e-05 -1.72415e-05 4.22091e-06
1.8329e-06 4.22091e-06 -3.69829e-05
0.000782177 5.77429e-05 1.41092e-05
5.77429e-05 -2.86205e-05 6.11283e-06
1.41092e-05 6.11283e-06 -8.05966e-05
0.000800109 5.78498e-05 1.2475e-05
5.78498e-05 2.05727e-05 7.35932e-06
1.2475e-05 7.35932e-06 -2.88598e-05
0.00104802 7.62219e-05 6.15376e-06
7.62219e-05 2.513e-05 2.55467e-06
6.15376e-06 2.55467e-06 -5.89754e-05
0.00156629 -5.30801e-05 2.054e-05
-5.30801e-05 0.000440934 3.67883e-06
2.054e-05 3.67883e-06 0.000416064
0.000960885 7.19536e-05 3.93277e-06
7.19536e-05 6.00918e-05 1.37636e-06
3.93277e-06 1.37636e-06 -1.55376e-05
0.000889569 4.03871e-05 3.52824e-06
4.03871e-05 6.05268e-05 1.64156e-06
3.52824e-06 1.64156e-06 -1.27862e-05
0.000885836 8.51446e-05 1.96849e-06
8.51446e-05 1.30047e-05 -5.72685e-07
1.96849e-06 -5.72685e-07 -7.7675e-05
0.0023475 -5.64338e-05 3.27924e-05
-5.64338e-05 0.000844158 3.39963e-06
3.27924e-05 3.39963e-06 0.000856206
0.00246185 -6.3313e-05 7.66502e-07
-6.3313e-05 0.000910927 -9.76913e-08
7.66502e-07 -9.76913e-08 0.000920651
0.00459601 1.12786e-05 -9.42615e-05
1.12786e-05 0.00206264 -2.88321e-06
-9.42615e-05 -2.88321e-06 0.00205731
0.00485854 -1.41486e-05 -9.81694e-05
-1.41486e-05 0.00219115 -1.08489e-06
-9.81694e-05 -1.08489e-06 0.00218573
0.00512139 1.23185e-05 3.4689e-06
1.23185e-05 0.002322 -5.54208e-07
3.4689e-06 -5.54208e-07 0.00231576
0.00307006 -9.33245e-06 -4.03881e-05
-9.33245e-06 0.00125129 -5.2863e-07
-4.03881e-05 -5.2863e-07 0.00123508
0.00162579 7.86101e-06 2.30168e-05
7.86101e-06 0.000370313 1.61547e-07
2.30168e-05 1.61547e-07 0.000320515
0.00289702 -1.17788e-05 -4.09767e-05
-1.17788e-05 0.00117228 -1.04035e-06
-4.09767e-05 -1.04035e-06 0.00115635
0.00153454 2.48344e-05 2.04443e-05
2.48344e-05 0.000344363 3.69673e-07
2.04443e-05 3.69673e-07 0.000298936
0.00515639 7.87303e-05 0.000102472
7.87303e-05 0.00234141 1.38698e-06
0.000102472 1.38698e-06 0.00233349
0.000769814 -1.28224e-06 1.29883e-05
-1.28224e-06 -9.64091e-05 3.07328e-07
1.29883e-05 3.07328e-07 -0.000154428
0.00238509 -1.49239e-05 5.4896e-05
-1.49239e-05 0.000782689 2.16596e-06
5.4896e-05 2.16596e-06 0.000741182
0.00125012 1.5668e-05 7.94067e-06
1.5668e-05 1.03147e-05 1.65364e-06
7.94067e-06 1.65364e-06 -8.04127e-05
0.00225643 5.0209e-05 4.98061e-05
5.0209e-05 0.000736876 3.56399e-06
4.98061e-05 3.56399e-06 0.000696313
0.00119858 4.5068e-05 7.79354e-06
4.5068e-05 1.60993e-05 1.58381e-06
7.79354e-06 1.58381e-06 -7.06348e-05
0.0017128 1.78627e-05 -9.79141e-05
1.78627e-05 0.00052252 3.79113e-07
-9.79141e-05 3.79113e-07 0.000500623
0.00131225 -8.0668e-06 -1.68813e-05
-8.0668e-06 0.00032915 1.49079e-06
-1.68813e-05 1.49079e-06 0.000304334
0.000999715 6.09949e-05 -7.92263e-06
6.09949e-05 0.000170162 1.88243e-06
-7.92263e-06 1.88243e-06 0.000153084
0.00134889 2.59293e-05 -1.10797e-05
2.59293e-05 0.000373167 2.39856e-06
-1.10797e-05 2.39856e-06 0.000346618
0.00155621 -2.75373e-05 -4.61547e-05
-2.75373e-05 0.000362814 4.00091e-06
-4.61547e-05 4.00091e-06 0.000316792
0.00137318 -3.408e-05 -3.99409e-05
-3.408e-05 0.000310546 5.01972e-06
-3.99409e-05 5.01972e-06 0.000266254
0.00120155 -9.07812e-06 -3.10817e-05
-9.07812e-06 0.000251064 4.13665e-06
-3.10817e-05 4.13665e-06 0.000210137
0.00178442 -9.66476e-05 -8.83969e-06
-9.66476e-05 0.000458013 3.3242e-06
-8.83969e-06 3.3242e-06 0.00037931
0.00504364 9.712e-06 -2.93138e-06
9.712e-06 0.00228248 -4.97583e-07
-2.93138e-06 -4.97583e-07 0.00227693
0.00147956 2.02076e-06 3.80405e-05
2.02076e-06 0.000410537 -8.80262e-07
3.80405e-05 -8.80262e-07 0.000387374
0.00115643 7.90126e-06 -2.4659e-05
7.90126e-06 0.000129162 3.0499e-07
-2.4659e-05 3.0499e-07 7.80007e-05
0.00151665 -2.4285e-05 -1.37688e-05
-2.4285e-05 0.000334211 2.38934e-07
-1.37688e-05 2.38934e-07 0.000287681
0.00202467 6.49151e-05 3.30147e-05
6.49151e-05 0.000690809 -1.50063e-06
3.30147e-05 -1.50063e-06 0.000687579
0.00129412 2.93512e-05 -6.64145e-06
2.93512e-05 0.000309382 2.90244e-07
-6.64145e-06 2.90244e-07 0.000272251
0.00141353 -2.90293e-05 -1.35466e-05
-2.90293e-05 0.000312823 3.04523e-07
-1.35466e-05 3.04523e-07 0.000265603
0.00175347 -7.01366e-05 -4.3736e-06
-7.01366e-05 0.000324062 6.73613e-07
-4.3736e-06 6.73613e-07 0.000240611
0.00149278 -8.16076e-05 -1.74999e-06
-8.16076e-05 0.000347739 7.489e-07
-1.74999e-06 7.489e-07 0.000273048
0.00150548 -8.44711e-05 -1.02363e-06
-8.44711e-05 0.000276204 1.04056e-07
-1.02363e-06 1.04056e-07 0.000196353
0.00113298 -9.30899e-05 -3.69467e-08
-9.30899e-05 6.74945e-05 7.39567e-08
-3.69467e-08 7.39567e-08 -3.02849e-05
0.000750209 2.65621e-06 1.27816e-05
2.65621e-06 -9.77803e-05 -1.55964e-06
1.27816e-05 -1.55964e-06 -0.000154565
0.00146271 -1.59569e-05 1.85749e-05
-1.59569e-05 0.000306153 -1.97008e-06
1.85749e-05 -1.97008e-06 0.000258322
0.0016144 -4.75971e-06 7.3539e-06
-4.75971e-06 0.000215557 -1.50972e-06
7.3539e-06 -1.50972e-06 0.000129936
0.00157243 -5.15747e-05 7.4556e-06
-5.15747e-05 0.000213361 -1.26492e-06
7.4556e-06 -1.26492e-06 0.00013076
0.00145565 -7.72919e-05 6.90829e-06
-7.72919e-05 0.000202305 -2.88254e-06
6.90829e-06 -2.88254e-06 0.000118751
0.001824 -8.44384e-05 2.14522e-06
-8.44384e-05 0.000279728 -6.29011e-07
2.14522e-06 -6.29011e-07 0.000178974
0.00283059 7.92728e-05 4.25813e-05
7.92728e-05 0.00111041 -3.06187e-06
4.25813e-05 -3.06187e-06 0.00111546
0.00116014 -8.9782e-05 2.55312e-06
-8.9782e-05 3.50969e-05 -1.19562e-06
2.55312e-06 -1.19562e-06 -6.39839e-05
0.000685824 6.2261e-05 2.21712e-06
6.2261e-05 -2.07794e-05 -4.48288e-06
2.21712e-06 -4.48288e-06 -5.77331e-05
0.000702744 -4.83351e-05 2.57694e-06
-4.83351e-05 -3.6815e-05 -9.93759e-07
2.57694e-06 -9.93759e-07 -0.000108084
0.0012224 -0.000101106 2.36747e-06
-0.000101106 0.000159924 -8.6395e-07
2.36747e-06 -8.6395e-07 6.21905e-05
0.00125125 -0.000104481 9.96159e-07
-0.000104481 9.13595e-05 -1.99734e-07
9.96159e-07 -1.99734e-07 -1.54508e-05
0.000637276 5.29043e-05 2.6174e-06
5.29043e-05 -6.22076e-05 -4.43212e-06
2.6174e-06 -4.43212e-06 -8.7211e-05
0.000816809 3.18843e-05 9.1117e-07
3.18843e-05 1.27442e-05 -2.43138e-06
9.1117e-07 -2.43138e-06 -4.03165e-05
0.00422987 -3.35022e-05 -7.96068e-05
-3.35022e-05 0.00188819 -3.67791e-06
-7.96068e-05 -3.67791e-06 0.00188044
0.00347758 -0.000102512 -5.80715e-05
-0.000102512 0.00151198 -3.4574e-06
-5.80715e-05 -3.4574e-06 0.00149993
0.000580863 5.76846e-05 -1.00717e-05
5.76846e-05 -0.000104582 -5.80122e-06
-1.00717e-05 -5.80122e-06 -0.000155252
0.00277408 -7.91379e-05 -4.17364e-05
-7.91379e-05 0.00108629 -3.0849e-06
-4.17364e-05 -3.0849e-06 0.00109083
0.00061911 -4.34299e-05 -1.79244e-06
-4.34299e-05 -5.50946e-05 -5.31864e-06
-1.79244e-06 -5.31864e-06 -9.25855e-05
0.000599596 3.1206e-05 -7.55959e-06
3.1206e-05 -6.63033e-05 -5.01149e-06
-7.55959e-06 -5.01149e-06 -0.00011226
0.000833561 5.51054e-05 -3.57224e-06
5.51054e-05 1.37337e-05 -1.24403e-06
-3.57224e-06 -1.24403e-06 -6.00557e-05
0.00262983 -7.04354e-05 6.9749e-07
-7.04354e-05 0.00100491 -1.25705e-07
6.9749e-07 -1.25705e-07 0.0010121
0.000699231 -4.71246e-05 1.27651e-07
-4.71246e-05 -3.24822e-05 7.6387e-08
1.27651e-07 7.6387e-08 -5.14178e-05
0.00141507 5.98174e-05 1.79593e-05
5.98174e-05 0.000309092 2.30554e-07
1.79593e-05 2.30554e-07 0.000262471
0.00124896 4.90262e-05 1.4901e-05
4.90262e-05 0.00026428 2.72201e-07
1.4901e-05 2.72201e-07 0.000219882
0.00103042 7.6308e-05 3.88203e-07
7.6308e-05 1.68706e-05 -1.19408e-07
3.88203e-07 -1.19408e-07 -6.71221e-05
0.000695065 -5.84409e-05 5.70059e-08
-5.84409e-05 -2.0393e-05 8.22157e-08
5.70059e-08 8.22157e-08 -5.1217e-05
0.000905254 6.87781e-05 9.60659e-08
6.87781e-05 3.12908e-05 2.98557e-07
9.60659e-08 2.98557e-07 -4.3927e-05
0.000841201 3.42896e-05 2.6433e-07
3.42896e-05 3.56149e-05 -2.82349e-07
2.6433e-07 -2.82349e-07 -3.7517e-05
0.000841831 8.31499e-05 -7.51591e-08
8.31499e-05 -1.08673e-05 -1.63189e-07
-7.51591e-08 -1.63189e-07 -0.000101817
0.000693668 -5.70634e-05 1.53804e-06
-5.70634e-05 -2.58368e-05 4.46124e-06
1.53804e-06 4.46124e-06 -5.1415e-05
0.000754833 -4.1834e-05 2.49179e-06
-4.1834e-05 -1.21687e-05 3.84445e-06
2.49179e-06 3.84445e-06 -2.62614e-05
0.000761456 -6.46734e-06 2.46657e-06
-6.46734e-06 -1.09823e-05 2.29727e-06
2.46657e-06 2.29727e-06 -6.28539e-05
0.00109468 6.81483e-05 7.01517e-06
6.81483e-05 5.82754e-06 2.32499e-06
7.01517e-06 2.32499e-06 -8.0212e-05
0.00101006 7.78362e-05 4.91197e-06
7.78362e-05 5.30616e-05 2.36447e-06
4.91197e-06 2.36447e-06 -2.6753e-05
0.00123988 9.64519e-05 3.37899e-06
9.64519e-05 6.49703e-05 1.37783e-06
3.37899e-06 1.37783e-06 -3.7766e-05
0.0008573 2.37313e-05 2.86373e-06
2.37313e-05 4.31823e-05 2.04218e-06
2.86373e-06 2.04218e-06 -2.45496e-05
0.000927602 8.83431e-05 1.55784e-06
8.83431e-05 4.33659e-06 -5.37303e-08
1.55784e-06 -5.37303e-08 -8.67187e-05
0.00105553 8.84868e-05 2.15826e-06
8.84868e-05 0.00012768 1.04533e-07
2.15826e-06 1.04533e-07 3.54933e-05
0.00106466 0.000101278 -4.7043e-07
0.000101278 9.72074e-05 -1.51579e-06
-4.7043e-07 -1.51579e-06 -2.06394e-06
0.00222956 -5.02323e-05 2.86526e-05
-5.02323e-05 0.000773757 3.4717e-06
2.86526e-05 3.4717e-06 0.000788265
0.00230994 -5.66181e-05 6.38326e-07
-5.66181e-05 0.000823441 -8.0116e-08
6.38326e-07 -8.0116e-08 0.000835779
0.00241218 -6.3377e-05 -3.2914e-05
-6.3377e-05 0.000884317 -3.208e-06
-3.2914e-05 -3.208e-06 0.000894341
0.000681439 4.32505e-05 2.92361e-06
4.32505e-05 -4.70166e-05 -3.95064e-06
2.92361e-06 -3.95064e-06 -6.60586e-05
0.00268011 7.13672e-05 3.86458e-05
7.13672e-05 0.00102623 -3.16658e-06
3.86458e-05 -3.16658e-06 0.00103386
0.00446419 -1.33894e-06 -8.9411e-05
-1.33894e-06 0.00200003 -3.42618e-06
-8.9411e-05 -3.42618e-06 0.00199403
0.00469268 1.0281e-05 -9.611e-05
1.0281e-05 0.00210939 -2.06337e-06
-9.611e-05 -2.06337e-06 0.00210415
0.000708469 3.095e-05 -1.20995e-05
3.095e-05 -9.19234e-05 -2.93067e-06
-1.20995e-05 -2.93067e-06 -0.0001424
0.000734206 1.81537e-05 -1.26454e-05
1.81537e-05 -9.84169e-05 -1.74545e-06
-1.26454e-05 -1.74545e-06 -0.00015399
0.00506527 -2.88479e-05 -0.000101237
-2.88479e-05 0.00229344 -1.93592e-07
-0.000101237 -1.93592e-07 0.00228769
0.00516884 8.95845e-06 -1.23905e-06
8.95845e-06 0.00234428 4.86003e-07
-1.23905e-06 4.86003e-07 0.00233865
0.000761234 5.48092e-07 -8.55479e-08
5.48092e-07 -9.98178e-05 -3.62605e-07
-8.55479e-08 -3.62605e-07 -0.000157832
0.00158413 7.71298e-06 2.17043e-05
7.71298e-06 0.000362031 3.6028e-07
2.17043e-05 3.6028e-07 0.00031522
0.00124399 1.93565e-05 1.56494e-07
1.93565e-05 7.73647e-06 7.15062e-08
1.56494e-07 7.15062e-08 -8.30231e-05
0.000667672 4.20822e-05 7.03291e-08
4.20822e-05 -0.000101928 -7.26468e-08
7.03291e-08 -7.26468e-08 -0.000152127
0.00119541 4.68e-05 9.35767e-09
4.68e-05 1.51954e-05 -1.57927e-07
9.35767e-09 -1.57927e-07 -7.17737e-05
0.000744573 -6.91412e-06 1.31472e-05
-6.91412e-06 -0.000111731 -7.27226e-07
1.31472e-05 -7.27226e-07 -0.000170322
0.00128812 7.21399e-06 8.25264e-06
7.21399e-06 9.58655e-06 4.3951e-07
8.25264e-06 4.3951e-07 -8.51103e-05
0.0012251 3.01397e-05 7.77468e-06
3.01397e-05 1.62143e-05 1.51032e-06
7.77468e-06 1.51032e-06 -7.12613e-05
0.00150513 1.86996e-05 3.44546e-06
1.86996e-05 6.25755e-05 1.37616e-06
3.44546e-06 1.37616e-06 -4.25603e-05
0.00115229 5.70293e-05 7.51721e-06
5.70293e-05 8.28016e-06 2.03025e-06
7.51721e-06 2.03025e-06 -7.82892e-05
0.00144151 5.19239e-05 3.31248e-06
5.19239e-05 6.41834e-05 4.09073e-07
3.31248e-06 4.09073e-07 -3.62523e-05
0.00509564 1.29835e-05 -0.000110726
1.29835e-05 0.00230778 -7.90086e-07
-0.000110726 -7.90086e-07 0.00230232
0.00129968 -1.41777e-05 -1.47048e-05
-1.41777e-05 0.000321012 1.06768e-06
-1.47048e-05 1.06768e-06 0.000295821
9.96269e-06 1.32321e-07 -1.28517e-05
1.32321e-07 -0.000480211 2.4587e-06
-1.28517e-05 2.4587e-06 -0.000539784
0.00157266 -1.68592e-05 -4.76501e-05
-1.68592e-05 0.00036155 2.75787e-06
-4.76501e-05 2.75787e-06 0.000316245
0.00275377 9.78952e-05 -1.50823e-05
9.78952e-05 0.00108573 1.26831e-06
-1.50823e-05 1.26831e-06 0.00108445
0.00164454 1.3408e-05 -2.48203e-05
1.3408e-05 0.000486267 3.82073e-06
-2.48203e-05 3.82073e-06 0.000453208
0.00147784 -3.38287e-05 -4.32433e-05
-3.38287e-05 0.00034314 4.80213e-06
-4.32433e-05 4.80213e-06 0.0002978
0.0015653 -6.4913e-05 -1.37702e-05
-6.4913e-05 0.000224584 3.13768e-06
-1.37702e-05 3.13768e-06 0.000140096
0.00179653 -9.28021e-05 -8.90909e-06
-9.28021e-05 0.000428207 3.1724e-06
-8.90909e-06 3.1724e-06 0.000348719
0.00168056 -9.0401e-05 -7.17234e-06
-9.0401e-05 0.000442454 2.69488e-06
-7.17234e-06 2.69488e-06 0.000366231
0.00114415 -9.29345e-05 -2.01299e-06
-9.29345e-05 7.29147e-05 7.82805e-07
-2.01299e-06 7.82805e-07 -2.47148e-05
0.000755679 4.53597e-06 -3.88714e-08
4.53597e-06 -9.63408e-05 -2.71795e-07
-3.88714e-08 -2.71795e-07 -0.00015312
0.00151329 -1.27463e-05 -1.49491e-05
-1.27463e-05 0.000330314 9.52775e-08
-1.49491e-05 9.52775e-08 0.000283792
0.00123288 -4.74347e-06 -2.7881e-06
-4.74347e-06 1.48094e-05 4.75624e-08
-2.7881e-06 4.75624e-08 -7.30957e-05
0.00178756 -5.34815e-05 -2.20861e-06
-5.34815e-05 0.000326941 2.87308e-07
-2.20861e-06 2.87308e-07 0.000245396
0.002794 7.82183e-05 -6.38028e-07
7.82183e-05 0.00109255 -1.43086e-07
-6.38028e-07 -1.43086e-07 0.00109732
0.00112373 3.96997e-05 1.73414e-06
3.96997e-05 0.000207055 1.93675e-07
1.73414e-06 1.93675e-07 0.000175229
0.00109649 -5.06669e-05 1.3735e-07
-5.06669e-05 0.000167439 -8.75752e-08
1.3735e-07 -8.75752e-08 9.61292e-05
0.00146049 -7.65596e-05 -1.96229e-06
-7.65596e-05 0.000206328 2.51515e-07
-1.96229e-06 2.51515e-07 0.000122758
0.00151175 -7.74033e-05 -1.76055e-06
-7.74033e-05 0.000114229 4.39047e-07
-1.76055e-06 4.39047e-07 1.21942e-05
0.00100519 -9.17786e-05 -3.27893e-07
-9.17786e-05 4.85909e-05 -1.36952e-07
-3.27893e-07 -1.36952e-07 -4.87644e-05
0.00141437 -9.61693e-05 3.91593e-08
-9.61693e-05 0.000165754 -5.05381e-08
3.91593e-08 -5.05381e-08 6.72141e-05
0.00123939 -0.000103489 1.11916e-07
-0.000103489 8.52085e-05 1.51008e-07
1.11916e-07 1.51008e-07 -2.13761e-05
0.000657102 5.54854e-05 -2.1285e-07
5.54854e-05 -4.96854e-05 4.2757e-08
-2.1285e-07 4.2757e-08 -7.55282e-05
0.000790472 2.9211e-05 -2.94528e-07
2.9211e-05 -1.66097e-06 1.25393e-07
-2.94528e-07 1.25393e-07 -5.45705e-05
0.00126527 -2.95933e-06 7.80842e-06
-2.95933e-06 5.25383e-06 -1.72919e-06
7.80842e-06 -1.72919e-06 -8.80136e-05
0.0015496 -2.21754e-05 7.14363e-06
-2.21754e-05 0.000198698 -1.26308e-06
7.14363e-06 -1.26308e-06 0.000117198
0.00186198 -9.18969e-06 2.3332e-06
-9.18969e-06 0.000266959 -7.56122e-07
2.3332e-06 -7.56122e-07 0.000167159
0.00127063 -5.21462e-05 4.1184e-06
-5.21462e-05 -3.42014e-05 -4.71567e-07
4.1184e-06 -4.71567e-07 -0.000134645
0.00147388 -9.2951e-05 2.60842e-06
-9.2951e-05 0.000145388 -1.12477e-06
2.60842e-06 -1.12477e-06 4.47734e-05
0.00176971 -8.27019e-05 7.97965e-08
-8.27019e-05 0.000200236 1.39237e-07
7.97965e-08 1.39237e-07 9.59726e-05
0.000583084 6.0143e-05 1.67225e-06
6.0143e-05 -8.21859e-05 -4.71668e-06
1.67225e-06 -4.71668e-06 -0.000113509
0.00133398 -0.000100749 6.13032e-07
-0.000100749 7.68783e-05 -8.44581e-07
6.13032e-07 -8.44581e-07 -3.02027e-05
0.000713216 -1.80909e-05 1.98241e-06
-1.80909e-05 -2.83347e-05 -1.00937e-06
1.98241e-06 -1.00937e-06 -9.78841e-05
0.00064187 -7.40255e-05 1.83101e-06
-7.40255e-05 -9.84343e-05 -1.26927e-06
1.83101e-06 -1.26927e-06 -0.000190694
0.0016749 -0.000128444 5.5542e-07
-0.000128444 0.000364516 4.47732e-08
5.5542e-07 4.47732e-08 0.000255899
0.00149478 -0.000116324 -8.37024e-07
-0.000116324 0.000186316 8.63879e-07
-8.37024e-07 8.63879e-07 7.69336e-05
0.00085857 3.58571e-06 1.72037e-06
3.58571e-06 3.87288e-05 -2.31553e-06
1.72037e-06 -2.31553e-06 -2.34324e-05
0.000805395 3.76202e-05 8.13437e-07
3.76202e-05 3.00267e-06 -1.89289e-06
8.13437e-07 -1.89289e-06 -4.21392e-05
0.00087658 -2.81992e-05 5.58701e-07
-2.81992e-05 4.28876e-05 -7.56041e-07
5.58701e-07 -7.56041e-07 -3.48358e-05
0.000625414 5.56269e-05 -1.10468e-05
5.56269e-05 -0.000105608 -5.10738e-06
-1.10468e-05 -5.10738e-06 -0.000156909
0.00259608 -7.0813e-05 -3.761e-05
-7.0813e-05 0.00098721 -3.12346e-06
-3.761e-05 -3.12346e-06 0.000994576
0.000678781 -4.3839e-05 -3.00642e-06
-4.3839e-05 -4.44246e-05 -3.90214e-06
-3.00642e-06 -3.90214e-06 -6.25852e-05
0.000568585 4.51491e-05 -8.29709e-06
4.51491e-05 -8.99695e-05 -5.52986e-06
-8.29709e-06 -5.52986e-06 -0.000138585
0.00100761 7.63285e-05 -5.90353e-06
7.63285e-05 6.10433e-06 -2.91181e-06
-5.90353e-06 -2.91181e-06 -7.7804e-05
0.000581091 -5.94719e-05 -1.5994e-06
-5.94719e-05 -7.94423e-05 -4.87081e-06
-1.5994e-06 -4.87081e-06 -0.000110738
0.000755712 2.89161e-05 -2.27789e-06
2.89161e-05 -9.09229e-06 -1.91652e-06
-2.27789e-06 -1.91652e-06 -8.16513e-05
0.000862182 6.5688e-05 -3.69581e-06
6.5688e-05 9.10486e-06 -8.63073e-07
-3.69581e-06 -8.63073e-07 -6.57229e-05
0.00079251 8.09529e-05 -2.47003e-06
8.09529e-05 -3.76036e-05 2.25897e-07
-2.47003e-06 2.25897e-07 -0.000128791
0.000660383 -5.51047e-05 1.91923e-07
-5.51047e-05 -4.46786e-05 7.0991e-08
1.91923e-07 7.0991e-08 -6.9601e-05
0.000730663 -3.96141e-05 -6.03086e-09
-3.96141e-05 -2.50754e-05 8.27543e-08
-6.03086e-09 8.27543e-08 -3.8738e-05
0.000790326 -2.92105e-05 1.25721e-07
-2.92105e-05 2.28136e-06 1.4238e-07
1.25721e-07 1.4238e-07 -4.81633e-05
0.00110464 6.94439e-05 3.38164e-07
6.94439e-05 1.17309e-05 -1.63581e-07
3.38164e-07 -1.63581e-07 -7.443e-05
0.000955675 7.55453e-05 2.70329e-07
7.55453e-05 2.60663e-05 2.12183e-07
2.70329e-07 2.12183e-07 -5.3393e-05
0.0012287 9.6718e-05 2.19964e-07
9.6718e-05 5.98571e-05 7.17523e-08
2.19964e-07 7.17523e-08 -4.29876e-05
0.00082397 2.04449e-05 -2.9774e-07
2.04449e-05 2.81999e-05 3.8381e-10
-2.9774e-07 3.8381e-10 -3.96942e-05
0.00105307 9.38326e-05 -9.18092e-08
9.38326e-05 7.03711e-05 -9.57671e-08
-9.18092e-08 -9.57671e-08 -2.06362e-05
0.00101525 8.66254e-05 2.39002e-07
8.66254e-05 0.000106744 -3.29347e-07
2.39002e-07 -3.29347e-07 1.46845e-05
0.000942769 9.66215e-05 -6.77202e-07
9.66215e-05 3.38824e-05 4.11144e-07
-6.77202e-07 4.11144e-07 -6.56979e-05
0.000768585 -3.54303e-05 2.71232e-06
-3.54303e-05 -1.38363e-05 3.52075e-06
2.71232e-06 3.52075e-06 -2.3808e-05
0.000785882 -5.81632e-07 2.76849e-06
-5.81632e-07 4.14666e-07 1.83707e-06
2.76849e-06 1.83707e-06 -5.86704e-05
0.000773587 -3.16704e-05 1.10522e-06
-3.16704e-05 -9.70588e-06 2.34322e-06
1.10522e-06 2.34322e-06 -5.22599e-05
0.00089106 2.02845e-05 1.0256e-06
2.02845e-05 5.37763e-05 8.67625e-07
1.0256e-06 8.67625e-07 -1.9458e-05
0.00131188 8.37288e-05 4.25959e-06
8.37288e-05 4.87629e-05 8.73047e-07
4.25959e-06 8.73047e-07 -5.42678e-05
0.00116488 9.96594e-05 2.44599e-06
9.96594e-05 8.7566e-05 1.36931e-06
2.44599e-06 1.36931e-06 -9.71678e-06
0.00133619 0.000105694 1.4506e-06
0.000105694 7.44379e-05 1.39642e-06
1.4506e-06 1.39642e-06 -3.68017e-05
0.00106072 6.0446e-05 1.98292e-06
6.0446e-05 0.000138782 9.73712e-07
1.98292e-06 9.73712e-07 5.2576e-05
0.00115124 0.000104855 1.49756e-07
0.000104855 9.95857e-05 -3.08248e-07
1.49756e-07 -3.08248e-07 1.57657e-06
0.00104655 0.000100332 9.29229e-07
0.000100332 0.000124749 -1.20656e-06
9.29229e-07 -1.20656e-06 1.81503e-05
0.000761744 9.05182e-05 5.10997e-07
9.05182e-05 -7.83826e-05 -1.35695e-06
5.10997e-07 -1.35695e-06 -0.00018134
0.00083415 -1.71123e-05 9.88682e-07
-1.71123e-05 4.39692e-06 1.73837e-06
9.88682e-07 1.73837e-06 -2.41232e-05
0.00077608 -2.70471e-05 1.87989e-06
-2.70471e-05 -2.30936e-05 3.41685e-06
1.87989e-06 3.41685e-06 -2.80174e-05
0.00216845 -4.44808e-05 2.52178e-05
-4.44808e-05 0.00073329 3.59412e-06
2.52178e-05 3.59412e-06 0.000749896
0.00221604 -5.0398e-05 8.11312e-07
-5.0398e-05 0.00076546 -7.94026e-08
8.11312e-07 -7.94026e-08 0.000780206
0.00227765 -5.64741e-05 -2.94475e-05
-5.64741e-05 0.000805437 -3.3217e-06
-2.94475e-05 -3.3217e-06 0.000818116
0.000710371 3.72381e-05 2.95698e-06
3.72381e-05 -3.98992e-05 -3.54085e-06
2.95698e-06 -3.54085e-06 -5.4286e-05
0.00250173 6.43137e-05 3.37152e-05
6.43137e-05 0.000926981 -3.25725e-06
3.37152e-05 -3.25725e-06 0.000937077
0.000701036 4.71736e-05 -2.17547e-07
4.71736e-05 -3.53622e-05 4.95857e-08
-2.17547e-07 4.95857e-08 -5.52583e-05
0.00269784 7.08215e-05 -5.88674e-07
7.08215e-05 0.00103564 -1.20875e-07
-5.88674e-07 -1.20875e-07 0.00104312
0.000665067 4.57842e-05 -1.167e-05
4.57842e-05 -0.000103382 -3.98459e-06
-1.167e-05 -3.98459e-06 -0.000153881
0.000742975 2.79116e-05 -1.2382e-05
2.79116e-05 -8.17841e-05 -2.19031e-06
-1.2382e-05 -2.19031e-06 -0.000134452
0.00117823 4.73293e-05 -7.65535e-06
4.73293e-05 7.0564e-06 -1.77571e-06
-7.65535e-06 -1.77571e-06 -8.00889e-05
0.00123796 2.09947e-05 -7.71927e-06
2.09947e-05 5.2514e-06 -1.49494e-06
-7.71927e-06 -1.49494e-06 -8.55129e-05
0.000754677 4.65146e-06 -1.3169e-05
4.65146e-06 -0.0001024 -1.08754e-06
-1.3169e-05 -1.08754e-06 -0.0001603
0.00518965 -2.29748e-05 -0.00010829
-2.29748e-05 0.00235454 7.72178e-07
-0.00010829 7.72178e-07 0.00234916
0.000765193 -8.69567e-07 8.86889e-08
-8.69567e-07 -0.000101515 -3.45654e-07
8.86889e-08 -3.45654e-07 -0.00016006
0.00128833 1.11042e-05 6.68514e-08
1.11042e-05 9.86874e-06 -4.46902e-07
6.68514e-08 -4.46902e-07 -8.47671e-05
0.00120895 3.02719e-05 -4.01735e-08
3.02719e-05 8.71295e-06 3.45925e-08
-4.01735e-08 3.45925e-08 -7.89037e-05
0.00151979 1.83145e-05 9.69309e-08
1.83145e-05 7.0221e-05 1.33704e-07
9.69309e-08 1.33704e-07 -3.48918e-05
0.00115701 5.8989e-05 1.75401e-07
5.8989e-05 1.18049e-05 -1.30495e-07
1.75401e-07 -1.30495e-07 -7.50522e-05
0.00144933 5.43312e-05 1.56277e-08
5.43312e-05 6.81952e-05 -4.01424e-08
1.56277e-08 -4.01424e-08 -3.23832e-05
0.00129494 -3.80323e-08 8.17854e-06
-3.80323e-08 8.48288e-06 -8.43024e-07
8.17854e-06 -8.43024e-07 -8.68003e-05
0.00155413 1.43751e-05 3.77321e-06
1.43751e-05 6.4758e-05 4.03215e-07
3.77321e-06 4.03215e-07 -4.49404e-05
0.00148129 3.46077e-05 3.35992e-06
3.46077e-05 6.90541e-05 8.21315e-07
3.35992e-06 8.21315e-07 -3.221e-05
0.00164633 1.49443e-05 1.04447e-06
1.49443e-05 9.72026e-05 1.14645e-06
1.04447e-06 1.14645e-06 -9.58618e-06
0.00138212 6.95479e-05 3.30607e-06
6.95479e-05 5.37434e-05 3.84535e-07
3.30607e-06 3.84535e-07 -4.7799e-05
0.00156681 5.63326e-05 8.41391e-07
5.63326e-05 8.16696e-05 -6.52891e-08
8.41391e-07 -6.52891e-08 -2.06089e-05
0.000772022 8.34228e-06 -1.26578e-05
8.34228e-06 -8.9158e-05 9.53798e-07
-1.26578e-05 9.53798e-07 -0.000146107
0.00158315 -8.4457e-07 -4.86507e-05
-8.4457e-07 0.000364739 1.80833e-06
-4.86507e-05 1.80833e-06 0.000319499
0.000841722 -3.19465e-06 -8.33372e-06
-3.19465e-06 -0.00019094 1.82935e-06
-8.33372e-06 1.82935e-06 -0.000281184
0.00198824 -5.4369e-05 -1.2567e-05
-5.4369e-05 0.000432743 1.98486e-06
-1.2567e-05 1.98486e-06 0.000352383
0.00278528 7.76205e-05 -4.40928e-05
7.76205e-05 0.00108934 3.23076e-06
-4.40928e-05 3.23076e-06 0.00109374
0.00161593 4.27761e-05 -2.20645e-05
4.27761e-05 0.000469262 3.12058e-06
-2.20645e-05 3.12058e-06 0.000439188
0.00149461 -6.24324e-05 -5.04236e-06
-6.24324e-05 0.000373325 1.67122e-06
-5.04236e-06 1.67122e-06 0.00030206
0.00146895 -7.61617e-05 -1.06087e-05
-7.61617e-05 0.000212324 3.37753e-06
-1.06087e-05 3.37753e-06 0.000128723
0.00119448 -7.02168e-05 -4.71249e-06
-7.02168e-05 -5.38634e-05 1.1677e-06
-4.71249e-06 1.1677e-06 -0.000157169
0.00166736 -0.000102564 -3.31481e-06
-0.000102564 0.000295793 1.31265e-06
-3.31481e-06 1.31265e-06 0.000197784
0.000783605 -8.21268e-05 -1.90721e-06
-8.21268e-05 -6.48877e-05 5.71261e-07
-1.90721e-06 5.71261e-07 -0.000161842
0.0012256 -0.000102423 -3.38824e-07
-0.000102423 7.80837e-05 4.27082e-07
-3.38824e-07 4.27082e-07 -2.82722e-05
0.000684588 5.56879e-05 -1.74606e-06
5.56879e-05 -3.39415e-05 4.47839e-06
-1.74606e-06 4.47839e-06 -6.01875e-05
0.000759857 1.89707e-05 -1.91012e-06
1.89707e-05 -1.80085e-05 2.0899e-06
-1.91012e-06 2.0899e-06 -7.10433e-05
0.00108599 6.82324e-07 -3.77217e-07
6.82324e-07 -8.77027e-05 -1.88825e-07
-3.77217e-07 -1.88825e-07 -0.000181872
0.00158641 -2.44735e-05 -2.38995e-06
-2.44735e-05 0.000216847 2.77307e-07
-2.38995e-06 2.77307e-07 0.000135322
0.00176954 -6.59325e-06 -1.75524e-06
-6.59325e-06 0.000216154 4.02668e-07
-1.75524e-06 4.02668e-07 0.000115564
0.00156046 -5.60083e-05 8.97806e-07
-5.60083e-05 0.000119973 -2.16923e-07
8.97806e-07 -2.16923e-07 2.09248e-05
0.000643307 5.82032e-05 -2.77719e-07
5.82032e-05 -5.0391e-05 4.51481e-08
-2.77719e-07 4.51481e-08 -8.16493e-05
0.000831451 -2.87812e-05 -7.22225e-08
-2.87812e-05 3.24762e-05 -1.03281e-07
-7.22225e-08 -1.03281e-07 -3.73249e-05
0.000760018 -7.91757e-05 7.43884e-07
-7.91757e-05 -3.60021e-05 -5.87004e-07
7.43884e-07 -5.87004e-07 -0.000127349
0.00163715 -9.62174e-05 -7.40698e-07
-9.62174e-05 0.000228925 1.23845e-07
-7.40698e-07 1.23845e-07 0.000128168
0.00159059 -7.76496e-05 -5.3589e-07
-7.76496e-05 0.000104569 5.12236e-07
-5.3589e-07 5.12236e-07 4.75339e-07
0.00137534 -0.000115845 -9.78476e-07
-0.000115845 0.000209074 4.65279e-07
-9.78476e-07 4.65279e-07 9.98633e-05
0.00133423 -0.000100257 -4.02222e-08
-0.000100257 7.68311e-05 4.18954e-08
-4.02222e-08 4.18954e-08 -3.01952e-05
0.00131268 -0.00010918 3.63662e-07
-0.00010918 9.37889e-05 6.57771e-07
3.63662e-07 6.57771e-07 -1.50285e-05
0.000810438 -9.64483e-07 -2.65924e-07
-9.64483e-07 1.19878e-05 -6.92177e-08
-2.65924e-07 -6.92177e-08 -4.97917e-05
0.000844909 -8.7103e-06 -4.27192e-07
-8.7103e-06 2.22549e-05 -2.42746e-07
-4.27192e-07 -2.42746e-07 -5.29398e-05
0.000790504 3.57195e-05 -4.82845e-09
3.57195e-05 -4.99125e-06 2.17773e-07
-4.82845e-09 2.17773e-07 -5.01388e-05
0.00189812 3.92298e-06 2.38025e-06
3.92298e-06 0.000261015 -9.16355e-07
2.38025e-06 -9.16355e-07 0.000156398
0.00162887 -2.70051e-05 3.16401e-06
-2.70051e-05 0.000156301 -6.27606e-07
3.16401e-06 -6.27606e-07 5.91848e-05
0.00180024 -5.31953e-06 8.13885e-07
-5.31953e-06 0.000190864 -3.63848e-07
8.13885e-07 -3.63848e-07 8.41646e-05
0.00161555 -4.97014e-05 1.05708e-06
-4.97014e-05 9.60845e-05 -9.1885e-08
1.05708e-06 -9.1885e-08 -5.567e-06
0.00122275 -9.0789e-05 1.39604e-06
-9.0789e-05 -3.9361e-05 -7.97826e-07
1.39604e-06 -7.97826e-07 -0.000146449
0.00169993 -7.41296e-05 -1.46261e-06
-7.41296e-05 0.000127681 8.59134e-07
-1.46261e-06 8.59134e-07 2.82951e-05
0.000818966 -1.48179e-05 2.46411e-06
-1.48179e-05 2.42637e-05 -1.61534e-06
2.46411e-06 -1.61534e-06 -4.3732e-05
0.00137918 -0.00010459 -1.45013e-06
-0.00010459 7.0118e-05 -5.92593e-07
-1.45013e-06 -5.92593e-07 -3.79621e-05
0.000926799 -8.10376e-05 1.06089e-06
-8.10376e-05 6.36663e-05 2.55555e-07
1.06089e-06 2.55555e-07 -2.13551e-05
0.000748514 -9.00113e-05 1.4835e-06
-9.00113e-05 -5.7932e-05 -1.76881e-06
1.4835e-06 -1.76881e-06 -0.000163839
0.00150117 -0.000126821 1.10161e-06
-0.000126821 0.00024762 7.19131e-07
1.10161e-06 7.19131e-07 0.000131395
0.00185451 -0.000130623 -2.56015e-06
-0.000130623 0.00035335 2.37819e-06
-2.56015e-06 2.37819e-06 0.000248536
0.000808031 3.18535e-05 1.37978e-06
3.18535e-05 -1.5951e-06 -1.57981e-06
1.37978e-06 -1.57981e-06 -4.07501e-05
0.000910703 -3.77397e-05 1.23936e-06
-3.77397e-05 5.4613e-05 8.51093e-08
1.23936e-06 8.51093e-08 -2.38776e-05
0.000782493 -4.05872e-06 7.06921e-07
-4.05872e-06 -1.15029e-05 -1.40366e-06
7.06921e-07 -1.40366e-06 -8.1669e-05
0.000993691 -7.40198e-05 -9.44642e-08
-7.40198e-05 0.000109392 1.03516e-06
-9.44642e-08 1.03516e-06 2.21715e-05
0.00110905 7.08896e-05 -7.27084e-06
7.08896e-05 1.4825e-05 -2.73002e-06
-7.27084e-06 -2.73002e-06 -7.14831e-05
0.000704496 -3.78138e-05 -2.98985e-06
-3.78138e-05 -3.89362e-05 -3.58416e-06
-2.98985e-06 -3.58416e-06 -5.22194e-05
0.000634088 -5.24825e-05 -2.65643e-06
-5.24825e-05 -6.02038e-05 -4.33867e-06
-2.65643e-06 -4.33867e-06 -8.43289e-05
0.000803964 -3.64424e-05 -9.72867e-07
-3.64424e-05 9.99036e-06 -2.50263e-06
-9.72867e-07 -2.50263e-06 -4.07308e-05
0.000904423 7.33477e-05 -4.24695e-06
7.33477e-05 9.60917e-07 -2.02648e-06
-4.24695e-06 -2.02648e-06 -7.81894e-05
0.00122368 9.7137e-05 -3.299e-06
9.7137e-05 5.78849e-05 -1.32505e-06
-3.299e-06 -1.32505e-06 -4.50713e-05
0.000799519 1.57202e-05 -2.46402e-06
1.57202e-05 1.78107e-05 -1.88503e-06
-2.46402e-06 -1.88503e-06 -5.02697e-05
0.000981869 8.49337e-05 -2.17834e-06
8.49337e-05 8.94938e-05 -1.01707e-06
-2.17834e-06 -1.01707e-06 -2.47381e-06
0.00116875 9.89207e-05 -1.78461e-06
9.89207e-05 0.00013141 -8.66789e-08
-1.78461e-06 -8.66789e-08 4.04758e-05
0.000814633 9.16683e-05 -2.16416e-06
9.16683e-05 -3.26441e-05 9.98433e-07
-2.16416e-06 9.98433e-07 -0.000132511
0.00074576 -3.44257e-05 9.81584e-08
-3.44257e-05 -2.55509e-05 2.95811e-08
9.81584e-08 2.95811e-08 -3.5375e-05
0.000807514 5.45209e-06 2.78992e-08
5.45209e-06 1.45637e-05 -3.15289e-08
2.78992e-08 -3.15289e-08 -4.57301e-05
0.000790356 -3.52977e-05 -9.33048e-08
-3.52977e-05 -9.19549e-07 2.10304e-07
-9.33048e-08 2.10304e-07 -4.34888e-05
0.000905323 1.16827e-05 2.36052e-07
1.16827e-05 6.04954e-05 -2.19179e-07
2.36052e-07 -2.19179e-07 -1.21237e-05
0.00133006 8.48965e-05 8.3585e-07
8.48965e-05 5.81598e-05 2.34773e-07
8.3585e-07 2.34773e-07 -4.51173e-05
0.00112066 9.85523e-05 9.21923e-08
9.85523e-05 6.63315e-05 4.77892e-08
9.21923e-08 4.77892e-08 -3.09021e-05
0.00133639 0.000105812 -3.9828e-08
0.000105812 7.47477e-05 5.25018e-07
-3.9828e-08 5.25018e-07 -3.64647e-05
0.000991859 6.13965e-05 2.75235e-07
6.13965e-05 0.00010358 2.37356e-07
2.75235e-07 2.37356e-07 1.8118e-05
0.0013146 0.000111682 -5.12658e-07
0.000111682 0.000185405 -8.82676e-07
-5.12658e-07 -8.82676e-07 8.74113e-05
0.00106582 0.000101649 2.43402e-07
0.000101649 0.000133905 -6.82071e-07
2.43402e-07 -6.82071e-07 2.6758e-05
0.000889749 9.61688e-05 -1.69819e-06
9.61688e-05 -7.50742e-06 -9.30142e-09
-1.69819e-06 -9.30142e-09 -0.000108616
0.00077698 -3.10749e-05 2.32181e-06
-3.10749e-05 -1.64843e-05 3.44427e-06
2.32181e-06 3.44427e-06 -2.36157e-05
0.000796523 -3.2299e-05 1.04976e-06
-3.2299e-05 -3.14544e-06 2.07948e-06
1.04976e-06 2.07948e-06 -3.98872e-05
0.000989442 3.13208e-05 1.49364e-06
3.13208e-05 0.000101233 5.53756e-07
1.49364e-06 5.53756e-07 2.25038e-05
0.000867887 3.40493e-06 7.69813e-07
3.40493e-06 3.74329e-05 1.41137e-06
7.69813e-07 1.41137e-06 -2.68837e-05
0.000963568 6.3347e-05 1.12934e-06
6.3347e-05 9.95297e-05 -5.36145e-08
1.12934e-06 -5.36145e-08 1.29616e-05
0.00143287 8.85903e-05 2.40454e-06
8.85903e-05 6.49678e-05 1.44141e-07
2.40454e-06 1.44141e-07 -4.39667e-05
0.00120209 0.000108198 7.74752e-07
0.000108198 7.7521e-05 1.32509e-06
7.74752e-07 1.32509e-06 -2.79004e-05
0.00145784 0.000113341 -6.69356e-07
0.000113341 0.000111787 1.07696e-06
-6.69356e-07 1.07696e-06 -2.02942e-06
0.0011004 9.86586e-05 2.65832e-06
9.86586e-05 0.000168734 2.27502e-06
2.65832e-06 2.27502e-06 6.52935e-05
0.00117557 0.000110843 1.65951e-06
0.000110843 9.50304e-05 -1.77826e-07
1.65951e-06 -1.77826e-07 -6.49164e-06
0.000491355 7.93881e-05 1.9578e-06
7.93881e-05 -0.000183361 -1.82388e-06
1.9578e-06 -1.82388e-06 -0.000299964
0.000827951 -2.10921e-05 1.16116e-06
-2.10921e-05 4.64811e-06 1.82329e-06
1.16116e-06 1.82329e-06 -2.58402e-05
0.000855198 5.25563e-06 3.76419e-07
5.25563e-06 2.44671e-05 8.12492e-07
3.76419e-07 8.12492e-07 -2.24815e-05
0.000845875 -1.20881e-05 7.59701e-07
-1.20881e-05 7.59109e-06 1.77047e-06
7.59701e-07 1.77047e-06 -1.94643e-05
0.000835295 -1.56152e-05 1.30271e-07
-1.56152e-05 5.6504e-06 3.54717e-09
1.30271e-07 3.54717e-09 -2.29889e-05
0.00132122 -2.89906e-05 1.98838e-06
-2.89906e-05 0.000262925 2.05561e-06
1.98838e-06 2.05561e-06 0.000262964
0.00104559 -2.96135e-05 7.9559e-07
-2.96135e-05 0.000121206 -3.03737e-08
7.9559e-07 -3.03737e-08 0.000117874
0.00101662 -2.64744e-05 2.07497e-05
-2.64744e-05 0.000108906 6.31708e-06
2.07497e-05 6.31708e-06 0.000121651
0.00216052 -4.4567e-05 9.65408e-07
-4.4567e-05 0.000727962 -7.3196e-08
9.65408e-07 -7.3196e-08 0.000744788
0.00220084 -5.03882e-05 -2.63345e-05
-5.03882e-05 0.00075627 -3.45072e-06
-2.63345e-05 -3.45072e-06 0.000771287
0.000725978 3.318e-05 2.59732e-06
3.318e-05 -3.93602e-05 -3.4218e-06
2.59732e-06 -3.4218e-06 -5.04941e-05
0.0023748 5.77157e-05 3.01585e-05
5.77157e-05 0.000852861 -3.38311e-06
3.01585e-05 -3.38311e-06 0.000865384
0.000732203 3.89358e-05 -1.92771e-09
3.89358e-05 -2.82879e-05 7.1104e-08
-1.92771e-09 7.1104e-08 -4.30327e-05
0.00254253 6.3938e-05 -7.96995e-07
6.3938e-05 0.000948702 -1.03473e-07
-7.96995e-07 -1.03473e-07 0.000958591
0.000721686 5.02554e-05 -1.5992e-06
5.02554e-05 -2.31971e-05 4.30029e-06
-1.5992e-06 4.30029e-06 -4.38952e-05
0.00271033 7.04354e-05 -4.18249e-05
7.04354e-05 0.00104237 3.31516e-06
-4.18249e-05 3.31516e-06 0.00104967
0.00116669 6.1059e-05 -7.73182e-06
6.1059e-05 1.77161e-05 -2.2586e-06
-7.73182e-06 -2.2586e-06 -6.9405e-05
0.00120477 3.34283e-05 -7.54246e-06
3.34283e-05 7.16352e-06 -1.34427e-06
-7.54246e-06 -1.34427e-06 -8.06309e-05
0.00145004 5.27124e-05 -3.33736e-06
5.27124e-05 6.86435e-05 -4.90715e-07
-3.33736e-06 -4.90715e-07 -3.19187e-05
0.00153523 1.81976e-05 -3.43754e-06
1.81976e-05 7.82321e-05 -1.07866e-06
-3.43754e-06 -1.07866e-06 -2.6856e-05
0.00128371 1.36532e-05 -8.20007e-06
1.36532e-05 7.7609e-06 -1.36822e-06
-8.20007e-06 -1.36822e-06 -8.68527e-05
0.000777875 4.65909e-06 -1.31968e-05
4.65909e-06 -9.50151e-05 3.83085e-08
-1.31968e-05 3.83085e-08 -0.00015367
0.00129389 1.78863e-06 -1.53523e-08
1.78863e-06 7.79286e-06 -3.1959e-07
-1.53523e-08 -3.1959e-07 -8.75707e-05
0.00156376 1.61007e-05 1.09528e-08
1.61007e-05 6.97888e-05 -4.3276e-07
1.09528e-08 -4.3276e-07 -3.98669e-05
0.00148077 3.15986e-05 8.69909e-08
3.15986e-05 6.92665e-05 1.22917e-07
8.69909e-08 1.22917e-07 -3.19251e-05
0.00160973 1.41473e-05 -1.38783e-08
1.41473e-05 7.54034e-05 1.95487e-07
-1.38783e-08 1.95487e-07 -3.19737e-05
0.00139902 7.02623e-05 -8.35883e-08
7.02623e-05 6.19509e-05 -3.87722e-08
-8.35883e-08 -3.87722e-08 -3.9686e-05
0.00157572 5.59905e-05 -4.1291e-08
5.59905e-05 8.64171e-05 9.11211e-08
-4.1291e-08 9.11211e-08 -1.58356e-05
0.0015677 6.57623e-06 4.02005e-06
6.57623e-06 6.62617e-05 -9.14301e-07
4.02005e-06 -9.14301e-07 -4.40436e-05
0.0016205 1.30284e-05 1.07543e-06
1.30284e-05 5.89241e-05 1.04746e-06
1.07543e-06 1.04746e-06 -5.41838e-05
0.00159413 3.46158e-05 1.03259e-06
3.46158e-05 8.07053e-05 4.48193e-07
1.03259e-06 4.48193e-07 -2.26126e-05
0.00182138 9.82354e-06 1.80899e-07
9.82354e-06 0.000165191 5.59705e-07
1.80899e-07 5.59705e-07 5.92409e-05
0.00151129 7.01891e-05 6.67642e-07
7.01891e-05 7.39712e-05 -5.30495e-07
6.67642e-07 -5.30495e-07 -3.04403e-05
0.00166355 4.64899e-05 -1.66175e-06
4.64899e-05 0.000100908 2.62454e-07
-1.66175e-06 2.62454e-07 5.01798e-06
0.000906859 2.29805e-06 -7.84576e-06
2.29805e-06 -0.000180473 1.1829e-06
-7.84576e-06 1.1829e-06 -0.000275579
0.00161546 -2.86314e-05 -1.20756e-05
-2.86314e-05 0.00023064 1.59542e-06
-1.20756e-05 1.59542e-06 0.000149167
0.00167876 -2.46946e-07 -5.53015e-06
-2.46946e-07 0.000166225 1.64843e-06
-5.53015e-06 1.64843e-06 6.48995e-05
0.0018536 -6.00394e-05 -3.53105e-06
-6.00394e-05 0.000275842 2.45929e-07
-3.53105e-06 2.45929e-07 0.000178182
0.00068491 4.38207e-05 -3.81451e-06
4.38207e-05 -3.02394e-05 4.23462e-06
-3.81451e-06 4.23462e-06 -6.02368e-05
0.000891058 -3.25336e-05 -2.91227e-06
-3.25336e-05 6.32643e-05 1.34895e-06
-2.91227e-06 1.34895e-06 -6.84746e-06
0.000886855 -8.49525e-05 -6.45455e-07
-8.49525e-05 3.05825e-05 4.96197e-08
-6.45455e-07 4.96197e-08 -5.98752e-05
0.00180623 -9.96765e-05 -4.40138e-06
-9.96765e-05 0.000315498 1.66954e-06
-4.40138e-06 1.66954e-06 0.000214584
0.00140954 -7.25323e-05 -1.41437e-06
-7.25323e-05 7.89898e-06 3.3437e-07
-1.41437e-06 3.3437e-07 -9.60203e-05
0.00133475 -9.97914e-05 -7.6571e-07
-9.97914e-05 7.69385e-05 9.57244e-07
-7.6571e-07 9.57244e-07 -3.00373e-05
0.00107241 -0.000103135 -1.32947e-06
-0.000103135 5.18512e-05 8.02485e-07
-1.32947e-06 8.02485e-07 -5.79415e-05
0.00112449 -0.000101748 2.12714e-06
-0.000101748 -1.85434e-06 -3.10214e-07
2.12714e-06 -3.10214e-07 -0.000110084
0.000778235 2.0351e-06 -2.59484e-06
2.0351e-06 -6.62154e-06 1.7328e-06
-2.59484e-06 1.7328e-06 -6.78213e-05
0.000826325 -5.64351e-06 -1.15307e-06
-5.64351e-06 1.18374e-05 2.48878e-07
-1.15307e-06 2.48878e-07 -6.30277e-05
0.00077538 3.49989e-05 -8.65517e-07
3.49989e-05 -1.28109e-05 2.0825e-06
-8.65517e-07 2.0825e-06 -5.81048e-05
0.00174369 4.59048e-06 -1.81391e-06
4.59048e-06 0.000176803 3.5514e-07
-1.81391e-06 3.5514e-07 7.0512e-05
0.00162845 -3.19026e-05 -8.52617e-07
-3.19026e-05 0.000154404 9.50753e-08
-8.52617e-07 9.50753e-08 5.74599e-05
0.00167034 -2.73468e-06 -7.02873e-07
-2.73468e-06 0.00012205 5.40621e-07
-7.02873e-07 5.40621e-07 1.49061e-05
0.00170451 -4.84108e-05 2.72719e-07
-4.84108e-05 0.000143437 -1.80488e-07
2.72719e-07 -1.80488e-07 4.20693e-05
0.000822158 -1.81278e-05 1.73385e-07
-1.81278e-05 2.38358e-05 -2.0795e-07
1.73385e-07 -2.0795e-07 -4.37113e-05
0.00101102 -8.53807e-05 -1.38081e-07
-8.53807e-05 0.000105576 2.7806e-07
-1.38081e-07 2.7806e-07 2.01343e-05
0.000837012 -9.28911e-05 5.61271e-07
-9.28911e-05 -8.65114e-06 -8.36273e-07
5.61271e-07 -8.36273e-07 -0.000113327
0.00146406 -9.65051e-05 2.53659e-07
-9.65051e-05 8.89901e-05 -5.40305e-07
2.53659e-07 -5.40305e-07 -1.7927e-05
0.00161716 -7.21702e-05 2.7635e-07
-7.21702e-05 8.12356e-05 8.90148e-07
2.7635e-07 8.90148e-07 -1.72474e-05
0.00124026 -0.000116264 -9.99776e-09
-0.000116264 0.000115718 2.0483e-07
-9.99776e-09 2.0483e-07 -1.20431e-06
0.00139138 -0.000103666 -1.7492e-07
-0.000103666 7.50865e-05 2.09654e-07
-1.7492e-07 2.09654e-07 -3.27405e-05
0.00159848 -0.000121561 8.94279e-07
-0.000121561 0.000221752 4.8293e-07
8.94279e-07 4.8293e-07 0.00011804
0.000951039 -4.44376e-05 -1.67141e-07
-4.44376e-05 7.71358e-05 -2.10353e-07
-1.67141e-07 -2.10353e-07 -2.05985e-06
0.000966755 -7.79842e-05 -2.84164e-07
-7.79842e-05 9.53858e-05 3.61164e-07
-2.84164e-07 3.61164e-07 6.92178e-06
0.000804131 3.33103e-05 1.21788e-07
3.33103e-05 -3.03343e-06 8.68687e-08
1.21788e-07 8.68687e-08 -4.24729e-05
0.000793586 1.22478e-05 -9.45966e-08
1.22478e-05 -8.76915e-06 -5.1479e-07
-9.45966e-08 -5.1479e-07 -7.60878e-05
0.00165679 2.04339e-06 1.36183e-06
2.04339e-06 9.28625e-05 -1.17616e-06
1.36183e-06 -1.17616e-06 -1.89243e-05
0.00170417 -2.50699e-05 1.21094e-06
-2.50699e-05 0.000148448 -3.83521e-08
1.21094e-06 -3.83521e-08 4.62548e-05
0.00178609 -8.54494e-07 2.47334e-07
-8.54494e-07 0.000160921 -4.08675e-08
2.47334e-07 -4.08675e-08 5.37745e-05
0.0016173 -4.03685e-05 -4.64561e-07
-4.03685e-05 6.65649e-05 -8.10783e-07
-4.64561e-07 -8.10783e-07 -3.34986e-05
0.00147114 -9.51375e-05 -1.62821e-06
-9.51375e-05 4.60333e-05 4.5964e-08
-1.62821e-06 4.5964e-08 -5.89749e-05
0.00171236 -6.95587e-05 4.95218e-07
-6.95587e-05 0.000104747 8.57833e-08
4.95218e-07 8.57833e-08 7.2836e-06
0.000927683 -7.76022e-05 1.22076e-06
-7.76022e-05 6.50871e-05 5.83725e-07
1.22076e-06 5.83725e-07 -1.63069e-05
0.00128705 -0.000102599 -3.54122e-06
-0.000102599 1.66455e-06 6.0735e-07
-3.54122e-06 6.0735e-07 -9.6181e-05
0.000692825 -8.23109e-05 -9.23993e-08
-8.23109e-05 -5.74812e-05 -5.99604e-07
-9.23993e-08 -5.99604e-07 -0.00015409
0.00110493 -0.000111358 1.70112e-06
-0.000111358 0.00010955 -1.2628e-06
1.70112e-06 -1.2628e-06 -8.40853e-06
0.00131863 -0.000125645 9.61246e-07
-0.000125645 0.00013372 2.28382e-06
9.61246e-07 2.28382e-06 1.18105e-05
0.0020014 -0.000136711 -1.05451e-06
-0.000136711 0.000415878 1.80693e-06
-1.05451e-06 1.80693e-06 0.000311023
0.000820413 2.14971e-05 1.61332e-06
2.14971e-05 1.31877e-06 -1.55622e-06
1.61332e-06 -1.55622e-06 -3.46219e-05
0.00074962 3.56877e-06 5.28821e-07
3.56877e-06 -3.16483e-05 -1.28118e-06
5.28821e-07 -1.28118e-06 -9.43238e-05
0.000970044 -9.01048e-05 2.66618e-07
-9.01048e-05 9.24836e-05 1.34074e-06
2.66618e-07 1.34074e-06 3.16303e-06
0.000974644 -5.9582e-05 8.36718e-07
-5.9582e-05 9.73778e-05 9.08932e-08
8.36718e-07 9.08932e-08 1.57088e-05
0.00096839 -9.01146e-05 -4.3807e-07
-9.01146e-05 9.89477e-05 1.99691e-06
-4.3807e-07 1.99691e-06 6.32767e-06
0.000723181 -3.35272e-05 -2.60974e-06
-3.35272e-05 -3.71456e-05 -3.48926e-06
-2.60974e-06 -3.48926e-06 -4.68297e-05
0.00135017 8.61248e-05 -2.80583e-06
8.61248e-05 6.85737e-05 -4.38144e-07
-2.80583e-06 -4.38144e-07 -3.49611e-05
0.000803692 -3.83328e-05 -1.01721e-06
-3.83328e-05 6.12416e-06 -2.137e-06
-1.01721e-06 -2.137e-06 -3.65063e-05
0.000853567 -5.17324e-06 -1.58793e-06
-5.17324e-06 3.93611e-05 -2.23049e-06
-1.58793e-06 -2.23049e-06 -2.05447e-05
0.000916106 4.11682e-06 -3.54565e-07
4.11682e-06 6.53464e-05 -1.15012e-06
-3.54565e-07 -1.15012e-06 -6.63978e-06
0.00108247 9.77678e-05 -2.51744e-06
9.77678e-05 4.82033e-05 -1.37792e-06
-2.51744e-06 -1.37792e-06 -4.90073e-05
0.00133478 0.000105863 -1.438e-06
0.000105863 7.41741e-05 -3.39548e-07
-1.438e-06 -3.39548e-07 -3.70157e-05
0.000934381 7.65229e-05 -1.62005e-06
7.65229e-05 7.61878e-05 -4.60976e-07
-1.62005e-06 -4.60976e-07 -9.73669e-06
0.00109907 0.000103662 -2.14789e-06
0.000103662 0.000150343 -9.92458e-07
-2.14789e-06 -9.92458e-07 4.25771e-05
0.00147985 0.000118595 -1.68554e-06
0.000118595 0.000272186 -9.62943e-07
-1.68554e-06 -9.62943e-07 0.000174202
0.00102544 0.000102098 -3.53154e-06
0.000102098 6.72711e-05 2.07192e-06
-3.53154e-06 2.07192e-06 -3.20008e-05
0.000754912 -3.03684e-05 1.01504e-07
-3.03684e-05 -2.79219e-05 2.50864e-08
1.01504e-07 2.50864e-08 -3.49464e-05
0.000804507 -3.26583e-05 -7.80166e-08
-3.26583e-05 1.05138e-06 7.43091e-08
-7.80166e-08 7.43091e-08 -3.5621e-05
0.000951486 3.86488e-05 3.04693e-07
3.86488e-05 8.22337e-05 -8.74536e-08
3.04693e-07 -8.74536e-08 3.32986e-06
0.000876433 -8.00639e-06 2.22373e-08
-8.00639e-06 4.10345e-05 5.98317e-08
2.22373e-08 5.98317e-08 -2.24695e-05
0.000912543 5.27574e-05 4.00921e-07
5.27574e-05 7.12186e-05 -2.92149e-07
4.00921e-07 -2.92149e-07 -1.47692e-05
0.00144478 8.93307e-05 1.06664e-06
8.93307e-05 7.11246e-05 4.67607e-07
1.06664e-06 4.67607e-07 -3.80913e-05
0.00120873 0.000109155 1.57342e-07
0.000109155 8.12599e-05 -1.78843e-08
1.57342e-07 -1.78843e-08 -2.42093e-05
0.00140631 0.00011295 8.70025e-07
0.00011295 8.60212e-05 7.66423e-07
8.70025e-07 7.66423e-07 -2.8214e-05
0.00102961 9.55742e-05 7.99661e-07
9.55742e-05 0.00013361 9.00246e-07
7.99661e-07 9.00246e-07 3.04293e-05
0.00130482 0.000115611 5.14983e-07
0.000115611 0.000163322 -8.02225e-07
5.14983e-07 -8.02225e-07 6.18568e-05
0.000876036 9.74898e-05 -1.43981e-06
9.74898e-05 1.36751e-05 -7.94877e-07
-1.43981e-06 -7.94877e-07 -0.00010299
0.000815953 -2.63956e-05 1.15832e-06
-2.63956e-05 2.56274e-06 1.9314e-06
1.15832e-06 1.9314e-06 -3.04885e-05
0.000862489 -9.27897e-06 5.23983e-07
-9.27897e-06 2.85525e-05 1.29113e-06
5.23983e-07 1.29113e-06 -2.66254e-05
0.00104527 9.12473e-05 6.84638e-07
9.12473e-05 0.000138586 -1.60796e-07
6.84638e-07 -1.60796e-07 4.38435e-05
0.000930163 1.85649e-05 6.34713e-07
1.85649e-05 7.74533e-05 6.40617e-07
6.34713e-07 6.40617e-07 3.85342e-07
0.00102424 5.29035e-05 7.4314e-07
5.29035e-05 0.000136322 -7.32054e-07
7.4314e-07 -7.32054e-07 4.22873e-05
0.0015022 8.84851e-05 -1.40933e-06
8.84851e-05 6.76562e-05 -1.27271e-06
-1.40933e-06 -1.27271e-06 -4.09373e-05
0.00125474 0.000117665 9.33409e-07
0.000117665 8.04051e-05 9.96504e-07
9.33409e-07 9.96504e-07 -2.80101e-05
0.00117267 0.000116359 -3.26129e-06
0.000116359 -3.59841e-05 -3.89807e-07
-3.26129e-06 -3.89807e-07 -0.000140955
0.000972861 9.75415e-05 9.28578e-07
9.75415e-05 0.000110812 2.3874e-06
9.28578e-07 2.3874e-06 -7.82596e-06
0.00122007 0.000121382 3.93576e-06
0.000121382 0.000138767 -9.1396e-07
3.93576e-06 -9.1396e-07 1.90321e-05
0.000826035 -1.98427e-05 6.74261e-08
-1.98427e-05 4.00382e-06 1.08638e-09
6.74261e-08 1.08638e-09 -2.64973e-05
0.000708195 -1.85658e-05 5.14598e-07
-1.85658e-05 -5.47703e-05 1.52793e-06
5.14598e-07 1.52793e-06 -0.000102977
0.000795756 -1.08455e-05 -6.50757e-07
-1.08455e-05 -7.89686e-06 -6.12327e-09
-6.50757e-07 -6.12327e-09 -5.4839e-05
0.00106688 1.31407e-05 9.47224e-07
1.31407e-05 0.000143754 8.65946e-08
9.47224e-07 8.65946e-08 8.5638e-05
0.00086416 1.14477e-05 1.52195e-06
1.14477e-05 2.77769e-05 9.48767e-07
1.52195e-06 9.48767e-07 -1.86697e-05
0.000852694 -4.97453e-06 7.33307e-07
-4.97453e-06 8.16692e-06 1.76361e-06
7.33307e-07 1.76361e-06 -1.80564e-05
0.000843907 -1.26145e-05 3.9442e-08
-1.26145e-05 6.70692e-06 2.05247e-08
3.9442e-08 2.05247e-08 -2.03995e-05
0.00131536 -2.36622e-05 1.44012e-06
-2.36622e-05 0.000254213 2.01496e-06
1.44012e-06 2.01496e-06 0.000256116
0.000835195 -1.46168e-05 -1.01447e-06
-1.46168e-05 6.19555e-06 -1.8323e-06
-1.01447e-06 -1.8323e-06 -2.25671e-05
0.00133713 -2.73313e-05 -3.69911e-06
-2.73313e-05 0.000270952 -1.17861e-06
-3.69911e-06 -1.17861e-06 0.000271278
0.0010192 -2.27117e-05 1.76692e-05
-2.27117e-05 0.000102801 6.23946e-06
1.76692e-05 6.23946e-06 0.000117467
0.00132525 -3.02997e-05 -8.97714e-06
-3.02997e-05 0.000270942 -3.19314e-06
-8.97714e-06 -3.19314e-06 0.000269406
0.0015514 -3.2836e-05 1.59421e-05
-3.2836e-05 0.000395217 2.07437e-06
1.59421e-05 2.07437e-06 0.000410893
0.00215502 -4.45739e-05 -2.32626e-05
-4.45739e-05 0.000723928 -3.57245e-06
-2.32626e-05 -3.57245e-06 0.000740977
0.000732635 3.00002e-05 2.1885e-06
3.00002e-05 -4.18779e-05 -3.39909e-06
2.1885e-06 -3.39909e-06 -5.06608e-05
0.000743763 3.38469e-05 -1.36938e-07
3.38469e-05 -3.00683e-05 1.76392e-08
-1.36938e-07 1.76392e-08 -4.1346e-05
0.00231582 5.19259e-05 2.69075e-05
5.19259e-05 0.00081401 -3.5245e-06
2.69075e-05 -3.5245e-06 0.000828565
0.00240496 5.76913e-05 -7.34914e-07
5.76913e-05 0.000869517 -8.54966e-08
-7.34914e-07 -8.54966e-08 0.000881773
0.000750592 4.12199e-05 -2.35766e-06
4.12199e-05 -1.83997e-05 3.82784e-06
-2.35766e-06 3.82784e-06 -3.35701e-05
0.00257995 6.3493e-05 -3.82417e-05
6.3493e-05 0.000968607 3.37736e-06
-3.82417e-05 3.37736e-06 0.000978308
0.00141659 7.11247e-05 -3.55801e-06
7.11247e-05 7.05017e-05 -4.7621e-07
-3.55801e-06 -4.7621e-07 -3.12417e-05
0.00148323 3.22552e-05 -3.3051e-06
3.22552e-05 7.09722e-05 -5.48571e-07
-3.3051e-06 -5.48571e-07 -3.02998e-05
0.00158394 5.67785e-05 -6.26654e-07
5.67785e-05 9.08156e-05 2.93971e-07
-6.26654e-07 2.93971e-07 -1.14545e-05
0.00157292 1.32869e-05 -9.88364e-07
1.32869e-05 5.35994e-05 -8.04412e-07
-9.88364e-07 -8.04412e-07 -5.43771e-05
0.00157866 1.95266e-05 -3.60392e-06
1.95266e-05 7.75139e-05 -1.24441e-06
-3.60392e-06 -1.24441e-06 -3.21325e-05
0.00130593 6.57552e-06 -8.20257e-06
6.57552e-06 1.36071e-05 1.36036e-07
-8.20257e-06 1.36036e-07 -8.17623e-05
0.00157925 1.08276e-05 4.60964e-08
1.08276e-05 7.22988e-05 -4.21202e-07
4.60964e-08 -4.21202e-07 -3.81057e-05
0.00160833 4.85438e-06 2.4401e-07
4.85438e-06 5.05559e-05 1.66653e-07
2.4401e-07 1.66653e-07 -6.32652e-05
0.00160862 3.38743e-05 2.56015e-08
3.38743e-05 8.84438e-05 1.17301e-07
2.56015e-08 1.17301e-07 -1.47658e-05
0.00174858 9.20377e-06 -7.40653e-08
9.20377e-06 0.00012619 -3.4872e-07
-7.40653e-08 -3.4872e-07 2.04389e-05
0.00152349 7.15626e-05 -1.43049e-07
7.15626e-05 7.97785e-05 5.2813e-08
-1.43049e-07 5.2813e-08 -2.48925e-05
0.00163106 4.59347e-05 -1.27663e-08
4.59347e-05 8.14452e-05 4.83746e-07
-1.27663e-08 4.83746e-07 -1.45441e-05
0.00164548 1.30838e-07 1.82552e-06
1.30838e-07 6.52028e-05 -9.26473e-07
1.82552e-06 -9.26473e-07 -4.9629e-05
0.00179492 1.3788e-05 -1.17746e-07
1.3788e-05 0.000127086 6.80407e-07
-1.17746e-07 6.80407e-07 1.4098e-05
0.00161596 2.57656e-05 -4.33833e-07
2.57656e-05 6.27731e-05 1.06228e-06
-4.33833e-07 1.06228e-06 -3.77539e-05
0.00178661 4.77328e-06 -1.63647e-07
4.77328e-06 0.000134997 1.42607e-07
-1.63647e-07 1.42607e-07 2.97318e-05
0.00150769 6.40701e-05 -1.25732e-06
6.40701e-05 3.52252e-05 -1.09905e-06
-1.25732e-06 -1.09905e-06 -6.45461e-05
0.00184096 3.86358e-05 -6.06612e-07
3.86358e-05 0.00016895 -2.06339e-07
-6.06612e-07 -2.06339e-07 7.53236e-05
0.00157161 4.60122e-06 -5.22429e-06
4.60122e-06 8.36544e-05 1.59326e-06
-5.22429e-06 1.59326e-06 -2.43286e-05
0.00162297 -3.35983e-05 -4.89506e-06
-3.35983e-05 0.00015022 7.20955e-07
-4.89506e-06 7.20955e-07 5.34536e-05
0.00156135 -2.20858e-06 -1.94511e-06
-2.20858e-06 6.38268e-05 1.18452e-06
-1.94511e-06 1.18452e-06 -4.37722e-05
0.00179841 -4.77525e-05 -1.46167e-06
-4.77525e-05 0.000193214 -1.81565e-07
-1.46167e-06 -1.81565e-07 9.2136e-05
0.000839534 -2.13022e-05 -2.69117e-06
-2.13022e-05 3.07471e-05 1.37013e-06
-2.69117e-06 1.37013e-06 -3.64037e-05
0.00108948 -8.93591e-05 -1.45793e-06
-8.93591e-05 0.000144749 3.33923e-07
-1.45793e-06 3.33923e-07 5.88841e-05
0.000916816 -9.51685e-05 -2.76929e-07
-9.51685e-05 3.63994e-05 8.1475e-08
-2.76929e-07 8.1475e-08 -6.70163e-05
0.00170777 -0.000102212 -1.07118e-06
-0.000102212 0.000218566 2.86085e-07
-1.07118e-06 2.86085e-07 0.000111823
0.00153377 -7.02099e-05 6.60851e-07
-7.02099e-05 3.44459e-05 8.66409e-08
6.60851e-07 8.66409e-08 -6.31266e-05
0.00140292 -0.000102782 1.56954e-06
-0.000102782 7.97694e-05 9.1597e-07
1.56954e-06 9.1597e-07 -2.78124e-05
0.000988149 -0.000106087 -6.94971e-07
-0.000106087 -1.1683e-05 -6.90188e-08
-6.94971e-07 -6.90188e-08 -0.000129333
0.00133489 -0.000112263 3.4617e-06
-0.000112263 8.59776e-05 -2.64767e-06
3.4617e-06 -2.64767e-06 -1.6576e-05
0.00096987 -3.59999e-05 -1.29794e-06
-3.59999e-05 8.63804e-05 -3.95019e-07
-1.29794e-06 -3.95019e-07 7.77787e-06
0.000949909 -6.45685e-05 -7.76391e-07
-6.45685e-05 8.27363e-05 -6.30027e-07
-7.76391e-07 -6.30027e-07 -4.58564e-06
0.000795575 3.36316e-05 -8.78872e-07
3.36316e-05 -7.04348e-06 1.7975e-06
-8.78872e-07 1.7975e-06 -4.66594e-05
0.000812336 2.26728e-05 -1.89262e-07
2.26728e-05 -4.83622e-07 3.34219e-07
-1.89262e-07 3.34219e-07 -6.61296e-05
0.00167873 2.95941e-06 -1.57377e-07
2.95941e-06 0.00010378 1.2056e-09
-1.57377e-07 1.2056e-09 -7.97329e-06
0.00174103 -2.24311e-05 -5.57834e-07
-2.24311e-05 0.00016682 4.49206e-08
-5.57834e-07 4.49206e-08 6.51228e-05
0.00171343 -1.67149e-06 -7.50409e-07
-1.67149e-06 0.000125459 7.33804e-07
-7.50409e-07 7.33804e-07 1.87555e-05
0.00166892 -4.15114e-05 -1.11932e-07
-4.15114e-05 9.30251e-05 -4.43126e-07
-1.11932e-07 -4.43126e-07 -6.82263e-06
0.000985752 -6.32019e-05 -2.10509e-07
-6.32019e-05 9.29075e-05 8.20975e-08
-2.10509e-07 8.20975e-08 1.23114e-05
0.000775383 -8.5139e-05 4.99419e-07
-8.5139e-05 -1.40696e-05 -4.31536e-07
4.99419e-07 -4.31536e-07 -0.000109395
0.00110583 -0.000110762 1.16184e-07
-0.000110762 0.000111766 -1.59941e-07
1.16184e-07 -1.59941e-07 -6.5221e-06
0.00160616 -9.79921e-05 -5.82048e-07
-9.79921e-05 0.000118189 -5.10826e-07
-5.82048e-07 -5.10826e-07 1.25583e-05
0.00162253 -6.84958e-05 -4.74857e-07
-6.84958e-05 6.18001e-05 4.62644e-07
-4.74857e-07 4.62644e-07 -3.27842e-05
0.0013113 -0.000124082 -2.53562e-07
-0.000124082 0.000130523 6.02611e-07
-2.53562e-07 6.02611e-07 7.94787e-06
0.0014024 -0.000104635 -1.96443e-07
-0.000104635 5.97891e-05 1.19063e-06
-1.96443e-07 1.19063e-06 -3.80767e-05
0.0016245 -0.000123576 1.03188e-06
-0.000123576 0.000220076 -1.40072e-06
1.03188e-06 -1.40072e-06 0.000118135
0.00101914 -9.24299e-05 5.61061e-08
-9.24299e-05 0.000117105 -3.59725e-08
5.61061e-08 -3.59725e-08 2.7756e-05
0.000993648 -8.77398e-05 5.35833e-08
-8.77398e-05 0.000110554 1.76908e-07
5.35833e-08 1.76908e-07 1.83197e-05
0.000961596 -4.22445e-05 -3.33916e-07
-4.22445e-05 8.9087e-05 -1.24738e-08
-3.33916e-07 -1.24738e-08 8.55831e-06
0.000701576 2.67404e-05 -2.20974e-07
2.67404e-05 -6.13017e-05 -1.35884e-09
-2.20974e-07 -1.35884e-09 -9.83358e-05
0.000776319 2.00443e-05 5.18445e-08
2.00443e-05 -2.07293e-05 -3.44838e-07
5.18445e-08 -3.44838e-07 -8.10298e-05
0.00173277 5.41161e-06 9.10525e-08
5.41161e-06 0.000104727 -8.30039e-07
9.10525e-08 -8.30039e-07 -6.05818e-06
0.00166272 -7.73341e-06 1.31281e-06
-7.73341e-06 8.83441e-05 -2.06056e-07
1.31281e-06 -2.06056e-07 -1.54399e-05
0.00161014 -4.5216e-05 1.16569e-06
-4.5216e-05 3.54806e-05 -1.40306e-06
1.16569e-06 -1.40306e-06 -6.51253e-05
0.0013722 -8.24032e-05 -5.40271e-08
-8.24032e-05 -3.91499e-05 -1.88014e-06
-5.40271e-08 -1.88014e-06 -0.00013698
0.000941037 -9.03945e-05 -1.31513e-07
-9.03945e-05 7.52724e-05 1.31486e-06
-1.31513e-07 1.31486e-06 -1.46062e-05
0.0020304 -0.00012791 -1.39206e-06
-0.00012791 0.000346403 1.34319e-06
-1.39206e-06 1.34319e-06 0.000252246
0.000369696 -6.98412e-05 -2.07952e-07
-6.98412e-05 -0.000221812 -1.88012e-06
-2.07952e-07 -1.88012e-06 -0.000326023
0.00121165 -0.000123436 2.87156e-06
-0.000123436 0.000142977 -9.89396e-07
2.87156e-06 -9.89396e-07 9.89713e-06
0.00166042 -0.000141563 1.44314e-06
-0.000141563 0.000278259 2.29935e-06
1.44314e-06 2.29935e-06 0.000150782
0.000608815 1.96778e-05 1.27244e-06
1.96778e-05 -0.000113571 -2.29554e-06
1.27244e-06 -2.29554e-06 -0.000149224
0.000970848 7.08789e-07 1.32152e-06
7.08789e-07 8.40413e-05 -6.35683e-07
1.32152e-06 -6.35683e-07 2.79713e-05
0.000985886 -2.79376e-05 7.61011e-08
-2.79376e-05 9.75764e-05 -1.46269e-07
7.61011e-08 -1.46269e-07 2.64559e-05
0.000973494 -9.07614e-05 -4.7273e-07
-9.07614e-05 9.48157e-05 2.1759e-06
-4.7273e-07 2.1759e-06 4.14211e-06
0.00107403 -6.34387e-05 3.72845e-07
-6.34387e-05 0.000151721 1.4012e-06
3.72845e-07 1.4012e-06 6.25886e-05
0.000933188 -8.83539e-05 -2.26162e-07
-8.83539e-05 7.40555e-05 1.97093e-06
-2.26162e-07 1.97093e-06 -1.9505e-05
0.000734527 -2.97375e-05 -2.1541e-06
-2.97375e-05 -3.84676e-05 -3.46829e-06
-2.1541e-06 -3.46829e-06 -4.53929e-05
0.000812672 -3.2206e-05 -1.41358e-06
-3.2206e-05 5.29287e-06 -1.85663e-06
-1.41358e-06 -1.85663e-06 -3.12767e-05
0.00146064 9.02462e-05 -6.40604e-07
9.02462e-05 7.92372e-05 7.10755e-07
-6.40604e-07 7.10755e-07 -3.02614e-05
0.000895532 -2.14583e-05 -2.02247e-07
-2.14583e-05 5.00565e-05 -1.36196e-06
-2.02247e-07 -1.36196e-06 -1.26046e-05
0.000891855 3.22184e-05 -1.105e-06
3.22184e-05 4.99915e-05 -4.48874e-07
-1.105e-06 -4.48874e-07 -2.78292e-05
0.000864014 4.42029e-05 -1.61508e-07
4.42029e-05 4.41931e-05 -2.21991e-07
-1.61508e-07 -2.21991e-07 -4.12489e-05
0.00121371 0.000109997 -1.07688e-06
0.000109997 8.41517e-05 -1.52423e-06
-1.07688e-06 -1.52423e-06 -2.13534e-05
0.00134909 0.000112318 7.09263e-07
0.000112318 5.73932e-05 1.61789e-07
7.09263e-07 1.61789e-07 -5.72469e-05
0.000951223 9.2059e-05 -6.07562e-07
9.2059e-05 9.41028e-05 -2.74962e-07
-6.07562e-07 -2.74962e-07 -8.71326e-06
0.00124702 0.000114776 -2.0681e-06
0.000114776 0.000203603 8.47297e-07
-2.0681e-06 8.47297e-07 8.69577e-05
0.00143147 0.000120314 -2.62637e-06
0.000120314 0.000230392 -7.67674e-07
-2.62637e-06 -7.67674e-07 0.000128976
0.000817698 -2.55371e-05 2.56241e-08
-2.55371e-05 3.65013e-06 2.39307e-08
2.56241e-08 2.39307e-08 -2.93617e-05
0.000865611 -1.81174e-05 -1.64802e-07
-1.81174e-05 3.01267e-05 1.52012e-07
-1.64802e-07 1.52012e-07 -2.49409e-05
0.00100785 8.95779e-05 -4.32748e-07
8.95779e-05 0.000120645 -2.82664e-07
-4.32748e-07 -2.82664e-07 2.6384e-05
0.000916981 1.31438e-05 1.39383e-07
1.31438e-05 6.84379e-05 6.42498e-09
1.39383e-07 6.42498e-09 -7.56705e-06
0.000940857 5.92486e-05 1.41232e-07
5.92486e-05 9.43914e-05 -6.121e-07
1.41232e-07 -6.121e-07 -1.58733e-06
0.00150719 9.06608e-05 -7.00641e-07
9.06608e-05 7.22553e-05 -2.09026e-07
-7.00641e-07 -2.09026e-07 -3.68789e-05
0.00128099 0.000118562 1.00886e-06
0.000118562 9.26809e-05 -9.89903e-08
1.00886e-06 -9.89903e-08 -1.59847e-05
0.00130088 0.000119554 5.86117e-07
0.000119554 2.34135e-05 1.37422e-06
5.86117e-07 1.37422e-06 -7.99855e-05
0.000784706 8.88421e-05 6.10059e-07
8.88421e-05 1.35328e-05 1.5533e-06
6.10059e-07 1.5533e-06 -0.000104979
0.00122827 0.000121559 -3.99734e-07
0.000121559 0.000144518 -8.70132e-07
-3.99734e-07 -8.70132e-07 2.20358e-05
0.000858174 -9.8756e-06 7.00432e-07
-9.8756e-06 2.56045e-05 1.16229e-06
7.00432e-07 1.16229e-06 -2.43348e-05
0.000798543 -4.94874e-06 1.68166e-07
-4.94874e-06 1.18246e-07 1.42981e-06
1.68166e-07 1.42981e-06 -6.89836e-05
0.00112611 0.000101087 3.27694e-07
0.000101087 0.000195222 -6.33831e-07
3.27694e-07 -6.33831e-07 8.71459e-05
0.000830135 3.27936e-05 4.34231e-07
3.27936e-05 3.10145e-05 5.43989e-07
4.34231e-07 5.43989e-07 -5.92026e-05
0.00101964 7.0411e-05 2.06003e-07
7.0411e-05 0.000130886 -1.06327e-06
2.06003e-07 -1.06327e-06 2.78406e-05
0.00165086 9.08724e-05 -2.47488e-06
9.08724e-05 9.98164e-05 5.69232e-07
-2.47488e-06 5.69232e-07 8.08387e-06
0.00164197 0.000145434 5.20589e-07
0.000145434 0.000271016 -1.3676e-06
5.20589e-07 -1.3676e-06 0.000152901
0.00021488 9.17399e-05 1.94825e-07
9.17399e-05 -0.000570642 -1.58709e-06
1.94825e-07 -1.58709e-06 -0.00066833
0.00159637 0.000129993 4.08014e-06
0.000129993 0.000421627 3.01739e-06
4.08014e-06 3.01739e-06 0.000292641
8.05793e-05 7.78491e-05 5.35913e-07
7.78491e-05 -0.000444636 -1.01948e-06
5.35913e-07 -1.01948e-06 -0.000580242
0.000825238 -1.77963e-05 -1.32356e-06
-1.77963e-05 3.92975e-06 -1.78419e-06
-1.32356e-06 -1.78419e-06 -2.6563e-05
0.000792671 -1.22646e-05 1.34962e-07
-1.22646e-05 -9.86828e-06 5.40682e-07
1.34962e-07 5.40682e-07 -5.77977e-05
0.000790326 -2.0551e-05 2.09389e-07
-2.0551e-05 -6.91869e-06 1.14066e-06
2.09389e-07 1.14066e-06 -6.67944e-05
0.000750272 -2.68462e-05 -6.69211e-07
-2.68462e-05 -3.28472e-05 -7.69689e-07
-6.69211e-07 -7.69689e-07 -7.98261e-05
0.000876733 -2.27485e-06 2.18882e-07
-2.27485e-06 3.30605e-05 -3.5733e-08
2.18882e-07 -3.5733e-08 -1.2497e-05
0.000916958 -1.6981e-05 1.74787e-07
-1.6981e-05 6.16663e-05 -3.87991e-07
1.74787e-07 -3.87991e-07 4.66291e-06
0.00102122 5.66696e-06 2.6963e-07
5.66696e-06 0.000121187 1.64221e-08
2.6963e-07 1.64221e-08 5.6754e-05
0.000809091 -3.1949e-05 1.00955e-07
-3.1949e-05 6.13151e-06 6.29152e-07
1.00955e-07 6.29152e-07 -5.12921e-05
0.000892411 -1.71377e-05 9.10865e-08
-1.71377e-05 3.77828e-05 8.39572e-07
9.10865e-08 8.39572e-07 -6.15589e-06
0.000844847 1.50088e-06 7.75302e-07
1.50088e-06 3.03655e-06 1.62186e-06
7.75302e-07 1.62186e-06 -2.32742e-05
0.000846991 -9.21646e-06 -1.43392e-07
-9.21646e-06 5.39251e-06 1.80953e-08
-1.43392e-07 1.80953e-08 -2.08832e-05
0.00131105 -1.76703e-05 1.20481e-06
-1.76703e-05 0.000247417 1.94834e-06
1.20481e-06 1.94834e-06 0.00025038
0.000842621 -1.29122e-05 -6.51488e-07
-1.29122e-05 6.18752e-06 -1.82097e-06
-6.51488e-07 -1.82097e-06 -2.09604e-05
0.00132788 -2.21585e-05 -3.06178e-06
-2.21585e-05 0.000260604 -1.16149e-06
-3.06178e-06 -1.16149e-06 0.000262673
0.00100942 -1.88325e-05 1.41956e-05
-1.88325e-05 9.19943e-05 6.18823e-06
1.41956e-05 6.18823e-06 0.000108171
0.00134743 -2.60768e-05 -7.69541e-06
-2.60768e-05 0.000275988 -4.40097e-06
-7.69541e-06 -4.40097e-06 0.000276543
0.000964642 -2.39785e-05 5.80541e-06
-2.39785e-05 7.39482e-05 2.37251e-06
5.80541e-06 2.37251e-06 8.84213e-05
0.00207463 -4.29537e-05 -6.18454e-06
-4.29537e-05 0.000675326 -1.56064e-06
-6.18454e-06 -1.56064e-06 0.000693496
0.000746216 2.68597e-05 1.67161e-06
2.68597e-05 -4.05191e-05 -3.38677e-06
1.67161e-06 -3.38677e-06 -4.70727e-05
0.000749882 3.03649e-05 -1.17263e-07
3.03649e-05 -3.29291e-05 2.291e-08
-1.17263e-07 2.291e-08 -4.17899e-05
0.00226708 4.59697e-05 2.36704e-05
4.59697e-05 0.000781189 -3.65397e-06
2.36704e-05 -3.65397e-06 0.000797579
0.000763028 3.46531e-05 -2.80427e-06
3.46531e-05 -1.99892e-05 3.45765e-06
-2.80427e-06 3.45765e-06 -3.14214e-05
0.00232104 5.16871e-05 -9.81858e-07
5.16871e-05 0.000817731 -8.48701e-08
-9.81858e-07 -8.48701e-08 0.000832122
0.00242883 5.71399e-05 -3.35063e-05
5.71399e-05 0.000882771 3.44438e-06
-3.35063e-05 3.44438e-06 0.000894863
0.00153536 7.28543e-05 -1.49442e-06
7.28543e-05 8.54099e-05 5.20087e-07
-1.49442e-06 5.20087e-07 -1.95176e-05
0.0016267 3.22313e-05 -5.19966e-07
3.22313e-05 9.80052e-05 -1.32018e-07
-5.19966e-07 -1.32018e-07 -5.05765e-06
0.00160066 4.54325e-05 1.80328e-06
4.54325e-05 6.29706e-05 5.56879e-07
1.80328e-06 5.56879e-07 -3.31108e-05
0.00167548 8.47415e-06 -1.83332e-07
8.47415e-06 8.69653e-05 -1.25403e-06
-1.83332e-07 -1.25403e-06 -1.85781e-05
0.0015971 1.73181e-08 -1.04715e-06
1.73181e-08 4.25621e-05 -7.64796e-07
-1.04715e-06 -7.64796e-07 -7.19836e-05
0.00159104 1.4218e-05 -3.73095e-06
1.4218e-05 7.84204e-05 1.10671e-07
-3.73095e-06 1.10671e-07 -3.20436e-05
0.00166936 3.85287e-06 2.10511e-07
3.85287e-06 7.78815e-05 -3.91539e-07
2.10511e-07 -3.91539e-07 -3.72866e-05
0.0018022 9.79661e-06 1.10532e-07
9.79661e-06 0.000132028 -1.67535e-07
1.10532e-07 -1.67535e-07 1.8978e-05
0.00161566 2.40177e-05 2.07165e-08
2.40177e-05 6.16168e-05 3.8753e-07
2.07165e-08 3.8753e-07 -3.93035e-05
0.00173871 4.67381e-06 1.06819e-07
4.67381e-06 0.000107861 -8.22579e-07
1.06819e-07 -8.22579e-07 3.22215e-06
0.00156228 6.58201e-05 -5.52291e-07
6.58201e-05 6.28512e-05 1.36806e-07
-5.52291e-07 1.36806e-07 -3.68709e-05
0.00171884 3.80978e-05 1.26165e-06
3.80978e-05 0.000106715 -5.2264e-07
1.26165e-06 -5.2264e-07 1.38939e-05
0.00176823 1.15502e-05 -1.23445e-07
1.15502e-05 0.000102381 -5.17001e-07
-1.23445e-07 -5.17001e-07 -1.2126e-05
0.00174505 5.35857e-06 -6.65594e-07
5.35857e-06 9.20346e-05 5.64112e-07
-6.65594e-07 5.64112e-07 -1.63554e-05
0.0017051 1.75316e-05 -2.86068e-07
1.75316e-05 8.34362e-05 5.93494e-07
-2.86068e-07 5.93494e-07 -1.40888e-05
0.00184186 5.92009e-05 -1.37747e-06
5.92009e-05 0.000169754 -5.45692e-07
-1.37747e-06 -5.45692e-07 7.70553e-05
0.00169395 3.83191e-06 -1.33805e-06
3.83191e-06 0.000111355 1.20447e-06
-1.33805e-06 1.20447e-06 -3.78028e-07
0.00176924 -2.14953e-05 -2.75431e-06
-2.14953e-05 0.000180672 3.92007e-07
-2.75431e-06 3.92007e-07 7.94417e-05
0.00159536 -2.66536e-06 -1.66455e-06
-2.66536e-06 6.73409e-05 1.21466e-06
-1.66455e-06 1.21466e-06 -3.90108e-05
0.00170895 -4.20562e-05 -3.6432e-07
-4.20562e-05 0.000113465 2.7562e-08
-3.6432e-07 2.7562e-08 1.38501e-05
0.00104526 -6.3499e-05 -1.37104e-06
-6.3499e-05 0.000123405 -4.28992e-07
-1.37104e-06 -4.28992e-07 4.24206e-05
0.000880716 -8.92718e-05 5.79004e-07
-8.92718e-05 4.08888e-05 -3.63403e-07
5.79004e-07 -3.63403e-07 -5.32537e-05
0.00109807 -0.000109786 -8.9683e-07
-0.000109786 0.00010956 1.41014e-06
-8.9683e-07 1.41014e-06 -9.03046e-06
0.00174097 -0.00010081 1.58641e-07
-0.00010081 0.000190212 -2.0449e-07
1.58641e-07 -2.0449e-07 8.39637e-05
0.00154405 -6.77041e-05 -7.543e-07
-6.77041e-05 2.48511e-05 1.28112e-06
-7.543e-07 1.28112e-06 -6.69021e-05
0.00151094 -0.000106533 2.76835e-06
-0.000106533 0.000114598 1.7607e-06
2.76835e-06 1.7607e-06 1.67067e-05
0.00127579 -0.000121365 -8.97568e-07
-0.000121365 0.000113049 -9.00301e-07
-8.97568e-07 -9.00301e-07 -1.01414e-05
0.00127608 -0.000111334 1.95181e-07
-0.000111334 3.94169e-05 -6.07075e-06
1.95181e-07 -6.07075e-06 -5.97648e-05
0.00106517 -9.46644e-05 -2.10523e-07
-9.46644e-05 0.000140337 -1.33393e-06
-2.10523e-07 -1.33393e-06 5.09358e-05
0.00102888 -8.76809e-05 -2.59862e-07
-8.76809e-05 0.000127398 -2.00601e-06
-2.59862e-07 -2.00601e-06 3.52768e-05
0.000938888 -2.63188e-05 5.15335e-08
-2.63188e-05 7.65765e-05 9.78671e-08
5.15335e-08 9.78671e-08 -3.14056e-06
0.000589734 2.84247e-05 -1.06526e-06
2.84247e-05 -0.000120542 1.67515e-06
-1.06526e-06 1.67515e-06 -0.000158503
0.000807289 3.34619e-05 -1.16015e-07
3.34619e-05 -6.48226e-06 3.39576e-07
-1.16015e-07 3.39576e-07 -6.51585e-05
0.00165727 4.69546e-06 -3.12593e-07
4.69546e-06 6.99276e-05 2.72615e-07
-3.12593e-07 2.72615e-07 -4.01947e-05
0.00171389 -8.62152e-06 -3.58943e-07
-8.62152e-06 0.00011586 -1.70981e-07
-3.58943e-07 -1.70981e-07 1.16717e-05
0.00177376 -4.74618e-05 -1.13144e-06
-4.74618e-05 0.00012237 -1.0188e-07
-1.13144e-06 -1.0188e-07 2.25763e-05
0.00103114 -9.42775e-05 -9.98586e-09
-9.42775e-05 0.000120305 2.18749e-07
-9.98586e-09 2.18749e-07 3.01537e-05
0.000773407 -8.80492e-05 1.11891e-06
-8.80492e-05 -1.50439e-05 -1.02196e-06
1.11891e-06 -1.02196e-06 -0.000118759
0.0011453 -0.000119631 -1.24732e-07
-0.000119631 0.000112196 -1.1978e-07
-1.24732e-07 -1.1978e-07 -2.13956e-05
0.00158561 -8.68588e-05 5.45184e-07
-8.68588e-05 6.69803e-05 -1.19562e-06
5.45184e-07 -1.19562e-06 -3.12562e-05
0.00153756 -0.000134027 -1.71297e-07
-0.000134027 0.000215275 -2.03573e-07
-1.71297e-07 -2.03573e-07 9.12429e-05
0.00158082 -0.000117818 -1.27006e-06
-0.000117818 0.000125216 -7.33457e-08
-1.27006e-06 -7.33457e-08 3.18504e-05
0.000604171 2.28493e-05 7.01062e-08
2.28493e-05 -0.000116122 -5.86672e-07
7.01062e-08 -5.86672e-07 -0.000151543
0.00102275 -9.31225e-05 2.08607e-08
-9.31225e-05 0.000119875 1.19721e-07
2.08607e-08 1.19721e-07 2.90059e-05
0.000942885 -8.85245e-05 -5.60568e-07
-8.85245e-05 7.94536e-05 1.55691e-07
-5.60568e-07 1.55691e-07 -1.36162e-05
0.00105892 -6.5233e-05 -3.01724e-07
-6.5233e-05 0.000146344 8.03253e-07
-3.01724e-07 8.03253e-07 5.54982e-05
0.00101231 -2.45968e-05 1.55728e-08
-2.45968e-05 0.000112135 1.28728e-08
1.55728e-08 1.28728e-08 4.08853e-05
0.000865907 1.32203e-05 -2.20806e-07
1.32203e-05 2.61224e-05 1.88111e-07
-2.20806e-07 1.88111e-07 -2.91161e-05
0.00180393 3.65371e-06 7.57655e-08
3.65371e-06 0.000132762 -8.22588e-07
7.57655e-08 -8.22588e-07 2.56505e-05
0.00174405 -9.99856e-06 4.15866e-07
-9.99856e-06 0.000101204 5.6488e-08
4.15866e-07 5.6488e-08 2.84084e-07
0.00142265 -5.53711e-05 1.96299e-06
-5.53711e-05 -6.84281e-05 -1.29104e-06
1.96299e-06 -1.29104e-06 -0.000170102
0.00179038 -0.000107148 1.91029e-07
-0.000107148 0.000116611 -2.49241e-06
1.91029e-07 -2.49241e-06 2.07349e-05
0.00095858 -9.22959e-05 -7.93019e-07
-9.22959e-05 8.59057e-05 1.37681e-06
-7.93019e-07 1.37681e-06 -7.93031e-06
0.00161433 -0.000135124 2.63944e-06
-0.000135124 0.000173216 2.80081e-06
2.63944e-06 2.80081e-06 5.86368e-05
0.000676323 -9.05606e-05 -6.1417e-07
-9.05606e-05 -7.2755e-05 -2.43417e-06
-6.1417e-07 -2.43417e-06 -0.000196863
0.00149305 -0.000140659 8.10719e-07
-0.000140659 0.000270512 1.27271e-06
8.10719e-07 1.27271e-06 0.000124963
0.000620249 1.90349e-05 8.49472e-07
1.90349e-05 -0.000109712 -2.32209e-06
8.49472e-07 -2.32209e-06 -0.000143035
0.000984501 -7.66755e-07 1.10229e-06
-7.66755e-07 8.98927e-05 -7.70981e-07
1.10229e-06 -7.70981e-07 3.75974e-05
0.00105165 -2.58028e-05 2.43733e-07
-2.58028e-05 0.000132207 6.47779e-07
2.43733e-07 6.47779e-07 6.47448e-05
0.000981832 -2.96415e-05 4.1092e-07
-2.96415e-05 0.000100577 -7.5125e-07
4.1092e-07 -7.5125e-07 1.82063e-05
0.00106306 -9.50341e-05 -2.84654e-07
-9.50341e-05 0.000140029 2.25987e-06
-2.84654e-07 2.25987e-06 4.64402e-05
0.000967915 -9.12516e-05 -9.41077e-07
-9.12516e-05 9.38981e-05 3.00444e-06
-9.41077e-07 3.00444e-06 -2.48769e-06
0.000818111 -2.44295e-05 -1.4582e-06
-2.44295e-05 3.94978e-06 -1.80113e-06
-1.4582e-06 -1.80113e-06 -2.89724e-05
0.00086445 -2.51167e-05 -3.80797e-07
-2.51167e-05 2.9588e-05 -1.20185e-06
-3.80797e-07 -1.20185e-06 -2.54444e-05
0.00152089 9.31118e-05 4.88011e-07
9.31118e-05 8.1231e-05 1.1635e-06
4.88011e-07 1.1635e-06 -2.84513e-05
0.000914263 5.16115e-06 -3.19913e-07
5.16115e-06 6.49237e-05 -6.88778e-07
-3.19913e-07 -6.88778e-07 -1.00058e-05
0.000962151 8.75819e-05 -4.66351e-07
8.75819e-05 9.87411e-05 -1.91492e-07
-4.66351e-07 -1.91492e-07 4.94085e-06
0.000865707 4.89287e-05 -7.03741e-07
4.89287e-05 5.31673e-05 -2.59566e-07
-7.03741e-07 -2.59566e-07 -4.24447e-05
0.00130682 0.000119455 -8.49725e-07
0.000119455 0.00010472 -1.53994e-06
-8.49725e-07 -1.53994e-06 -4.19493e-06
0.00141903 0.000122418 1.58709e-06
0.000122418 7.74457e-05 5.71101e-07
1.58709e-06 5.71101e-07 -2.43187e-05
0.000605959 8.07318e-05 -4.06524e-07
8.07318e-05 -7.87483e-05 3.37109e-07
-4.06524e-07 3.37109e-07 -0.00019721
0.00127298 0.000123499 -1.89128e-06
0.000123499 0.000169583 5.66625e-07
-1.89128e-06 5.66625e-07 4.41475e-05
0.000857568 -1.75135e-05 -1.75619e-07
-1.75135e-05 2.50034e-05 9.94278e-08
-1.75619e-07 9.94278e-08 -2.49479e-05
0.00084942 9.9291e-07 8.38306e-08
9.9291e-07 2.6824e-05 5.67622e-07
8.38306e-08 5.67622e-07 -4.21273e-05
0.00108644 9.90365e-05 -1.28481e-08
9.90365e-05 0.000177575 -8.72042e-07
-1.28481e-08 -8.72042e-07 7.05565e-05
0.000883012 1.53498e-05 -1.69042e-07
1.53498e-05 5.53782e-05 -9.13639e-09
-1.69042e-07 -9.13639e-09 -3.22281e-05
0.000935376 6.48855e-05 -1.04638e-06
6.48855e-05 8.95927e-05 -9.24295e-07
-1.04638e-06 -9.24295e-07 -1.36432e-05
0.00178567 9.25218e-05 -1.54403e-06
9.25218e-05 0.000164635 -8.90493e-08
-1.54403e-06 -8.90493e-08 7.19612e-05
0.00162879 0.000144123 1.48712e-06
0.000144123 0.000257861 1.43182e-07
1.48712e-06 1.43182e-07 0.000141145
0.000812705 0.000110953 -7.09839e-07
0.000110953 -0.000251754 5.80563e-07
-7.09839e-07 5.80563e-07 -0.000343352
0.00125513 0.000114516 1.26343e-06
0.000114516 0.000247197 1.34855e-06
1.26343e-06 1.34855e-06 0.000118663
0.000644031 0.000103839 -1.38899e-06
0.000103839 -0.000155731 -7.06098e-07
-1.38899e-06 -7.06098e-07 -0.000297759
0.000798292 -9.72827e-06 3.77874e-07
-9.72827e-06 -2.81339e-06 1.30595e-06
3.77874e-07 1.30595e-06 -6.53298e-05
0.000789172 3.27692e-05 4.18178e-07
3.27692e-05 3.84938e-06 3.18477e-07
4.18178e-07 3.18477e-07 -8.06805e-05
0.00105376 9.827e-05 9.20391e-07
9.827e-05 0.00016276 -4.1268e-07
9.20391e-07 -4.1268e-07 4.55114e-05
0.000626766 4.69733e-05 3.69905e-07
4.69733e-05 -7.36835e-05 6.95609e-07
3.69905e-07 6.95609e-07 -0.000177842
0.00204592 6.4312e-05 -1.36146e-06
6.4312e-05 0.000232677 3.75007e-07
-1.36146e-06 3.75007e-07 0.000146917
0.00139195 0.000109892 2.22188e-06
0.000109892 -7.78466e-05 -6.43711e-08
2.22188e-06 -6.43711e-08 -0.000157957
0.00137415 0.000145456 1.53817e-06
0.000145456 0.000110848 -3.48535e-06
1.53817e-06 -3.48535e-06 -2.1803e-05
0.000368907 8.04035e-05 5.67091e-07
8.04035e-05 -0.000225013 1.31755e-06
5.67091e-07 1.31755e-06 -0.00038067
0.000867841 3.57927e-06 -5.79867e-07
3.57927e-06 3.23785e-05 -5.61464e-07
-5.79867e-07 -5.61464e-07 -1.67164e-05
0.000876599 -5.30872e-06 -9.62802e-08
-5.30872e-06 4.00027e-05 3.83569e-07
-9.62802e-08 3.83569e-07 -2.03492e-05
0.000959027 -9.56699e-06 2.28515e-07
-9.56699e-06 8.60444e-05 7.47056e-07
2.28515e-07 7.47056e-07 1.85333e-05
0.000870318 -1.45225e-05 -6.42436e-07
-1.45225e-05 2.81039e-05 -8.44205e-07
-6.42436e-07 -8.44205e-07 -1.64061e-05
0.000765769 -2.98347e-05 1.33736e-07
-2.98347e-05 -1.84917e-05 -8.31081e-07
1.33736e-07 -8.31081e-07 -7.62033e-05
0.000879831 -1.1542e-05 8.44337e-08
-1.1542e-05 3.09497e-05 3.6361e-08
8.44337e-08 3.6361e-08 -1.28465e-05
0.000943424 1.54535e-05 -1.45864e-07
1.54535e-05 8.27265e-05 -3.28342e-07
-1.45864e-07 -3.28342e-07 1.55346e-05
0.000830946 -1.46791e-05 1.53468e-07
-1.46791e-05 1.9637e-05 2.9906e-07
1.53468e-07 2.9906e-07 -3.88837e-05
0.000976866 1.30646e-06 3.80555e-07
1.30646e-06 9.95194e-05 2.78201e-07
3.80555e-07 2.78201e-07 2.83342e-05
0.000817157 -3.30485e-05 -2.15613e-07
-3.30485e-05 1.47034e-05 7.2524e-07
-2.15613e-07 7.2524e-07 -5.07001e-05
0.000777733 1.66084e-05 3.80279e-07
1.66084e-05 -9.44367e-06 7.93667e-07
3.80279e-07 7.93667e-07 -6.71071e-05
0.000890851 2.88539e-07 2.16046e-07
2.88539e-07 3.55402e-05 7.42615e-07
2.16046e-07 7.42615e-07 -8.07773e-06
0.000836487 5.47572e-06 6.70844e-07
5.47572e-06 -1.03153e-06 1.55656e-06
6.70844e-07 1.55656e-06 -2.80186e-05
0.000843323 -5.33288e-06 -2.60198e-07
-5.33288e-06 2.34671e-06 7.52146e-09
-2.60198e-07 7.52146e-09 -2.40307e-05
0.00131644 -1.16503e-05 9.95982e-07
-1.16503e-05 0.000247597 1.87569e-06
9.95982e-07 1.87569e-06 0.000250795
0.000838046 -1.41846e-05 -2.9672e-07
-1.41846e-05 8.37917e-07 -1.72589e-06
-2.9672e-07 -1.72589e-06 -2.54769e-05
0.0013309 -1.63966e-05 -2.43606e-06
-1.63966e-05 0.00025805 -1.19147e-06
-2.43606e-06 -1.19147e-06 0.000260963
0.00101128 -1.45497e-05 1.12304e-05
-1.45497e-05 8.89552e-05 6.24228e-06
1.12304e-05 6.24228e-06 0.000105766
0.00134511 -2.11174e-05 -5.89063e-06
-2.11174e-05 0.000269528 -4.32972e-06
-5.89063e-06 -4.32972e-06 0.000271674
0.000964053 -1.9767e-05 4.36225e-06
-1.9767e-05 6.78681e-05 2.36481e-06
4.36225e-06 2.36481e-06 8.39676e-05
0.0009082 -2.43291e-05 -2.30728e-06
-2.43291e-05 4.41593e-05 -1.61555e-06
-2.30728e-06 -1.61555e-06 5.86026e-05
0.000756704 2.3285e-05 1.21801e-06
2.3285e-05 -4.03739e-05 -3.32417e-06
1.21801e-06 -3.32417e-06 -4.46616e-05
0.000758964 2.70823e-05 -1.61452e-07
2.70823e-05 -3.38403e-05 1.92536e-08
-1.61452e-07 1.92536e-08 -4.04651e-05
0.00221832 3.97851e-05 2.01859e-05
3.97851e-05 0.000748897 -3.74933e-06
2.01859e-05 -3.74933e-06 0.000767021
0.000768516 3.07668e-05 -2.41968e-06
3.07668e-05 -2.32689e-05 3.37265e-06
-2.41968e-06 3.37265e-06 -3.22118e-05
0.00227553 4.59456e-05 -1.09841e-06
4.59456e-05 0.000786576 -7.73503e-08
-1.09841e-06 -7.73503e-08 0.000802775
0.00233245 5.13897e-05 -2.94013e-05
5.13897e-05 0.000824685 3.52223e-06
-2.94013e-05 3.52223e-06 0.000838915
0.00161136 6.75767e-05 1.41137e-06
6.75767e-05 8.7741e-05 1.80695e-06
1.41137e-06 1.80695e-06 -1.19474e-05
0.0016142 2.2206e-05 2.06236e-07
2.2206e-05 5.99132e-05 -2.74265e-07
2.06236e-07 -2.74265e-07 -4.14029e-05
0.00160765 3.75994e-05 2.0264e-06
3.75994e-05 4.98992e-05 -1.10568e-06
2.0264e-06 -1.10568e-06 -4.20938e-05
0.00168604 4.63113e-06 2.77326e-07
4.63113e-06 7.83503e-05 -1.58839e-06
2.77326e-07 -1.58839e-06 -2.56681e-05
0.00180916 6.97513e-06 2.249e-07
6.97513e-06 0.000137091 -9.54255e-07
2.249e-07 -9.54255e-07 2.3896e-05
0.00169335 2.63636e-06 -1.28804e-06
2.63636e-06 9.06229e-05 5.43283e-08
-1.28804e-06 5.43283e-08 -2.48463e-05
0.00176058 1.27656e-05 -1.39242e-07
1.27656e-05 0.000101768 -1.55415e-09
-1.39242e-07 -1.55415e-09 -1.19417e-05
0.00177327 1.40391e-06 2.55392e-07
1.40391e-06 0.000107406 -1.859e-07
2.55392e-07 -1.859e-07 -8.08496e-07
0.00170297 1.79685e-05 5.53426e-07
1.79685e-05 8.17651e-05 -9.71292e-08
5.53426e-07 -9.71292e-08 -1.56485e-05
0.00168897 5.43033e-05 -1.91704e-08
5.43033e-05 9.05968e-05 -1.07619e-07
-1.91704e-08 -1.07619e-07 -1.75508e-06
0.00179055 7.01968e-06 -1.38147e-06
7.01968e-06 0.000106372 -2.87901e-07
-1.38147e-06 -2.87901e-07 -3.0566e-06
0.00184522 -8.96641e-07 -8.64653e-07
-8.96641e-07 0.00012765 3.19845e-07
-8.64653e-07 3.19845e-07 2.96344e-05
0.00182019 3.60893e-05 5.11265e-08
3.60893e-05 0.000125272 8.50211e-07
5.11265e-08 8.50211e-07 3.32042e-05
0.00163533 4.37746e-06 -7.77854e-07
4.37746e-06 6.1581e-05 1.3043e-06
-7.77854e-07 1.3043e-06 -4.7719e-05
0.00175363 -9.66105e-06 -1.09429e-06
-9.66105e-06 0.000137803 3.13454e-07
-1.09429e-06 3.13454e-07 3.31765e-05
0.00191557 -4.94697e-05 -9.86556e-07
-4.94697e-05 0.000198305 6.73411e-07
-9.86556e-07 6.73411e-07 9.9309e-05
0.00110858 -9.74251e-05 -2.61797e-07
-9.74251e-05 0.000158691 -6.20998e-07
-2.61797e-07 -6.20998e-07 6.83566e-05
0.00119085 -0.000106973 3.16061e-07
-0.000106973 0.000198785 1.39742e-07
3.16061e-07 1.39742e-07 9.55013e-05
0.00114605 -0.000118581 -1.62832e-06
-0.000118581 0.000116462 1.70675e-06
-1.62832e-06 1.70675e-06 -1.78831e-05
0.00181995 -9.16284e-05 -2.2605e-07
-9.16284e-05 0.000183258 2.57938e-07
-2.2605e-07 2.57938e-07 8.46772e-05
0.0011585 -0.000108285 -3.21368e-06
-0.000108285 -8.27497e-05 1.18893e-06
-3.21368e-06 1.18893e-06 -0.000175324
0.00148055 -0.000129493 -1.90527e-06
-0.000129493 0.00018566 -3.15317e-06
-1.90527e-06 -3.15317e-06 6.49265e-05
0.00106846 -9.5301e-05 2.86635e-07
-9.5301e-05 0.000143133 -1.80837e-06
2.86635e-07 -1.80837e-06 5.20805e-05
0.000905516 -8.62746e-05 -1.50609e-06
-8.62746e-05 6.11227e-05 -2.20493e-06
-1.50609e-06 -2.20493e-06 -3.13218e-05
0.00103327 -7.42624e-05 3.43215e-07
-7.42624e-05 0.000136527 -7.68349e-08
3.43215e-07 -7.68349e-08 4.3326e-05
0.000588748 2.41091e-05 -9.80475e-07
2.41091e-05 -0.000124213 1.10908e-06
-9.80475e-07 1.10908e-06 -0.000159404
0.00103941 -1.51411e-05 1.65565e-08
-1.51411e-05 0.000125265 1.21998e-07
1.65565e-08 1.21998e-07 5.50023e-05
0.000751485 2.68546e-05 -1.50673e-07
2.68546e-05 -3.62895e-05 9.69701e-07
-1.50673e-07 9.69701e-07 -9.0937e-05
0.001777 4.52875e-06 -6.92291e-08
4.52875e-06 0.000117413 -3.11783e-07
-6.92291e-08 -3.11783e-07 9.57781e-06
0.00172527 -1.1931e-05 8.7201e-07
-1.1931e-05 9.27322e-05 -6.93215e-08
8.7201e-07 -6.93215e-08 -8.70932e-06
0.00162721 -5.75195e-05 3.2575e-07
-5.75195e-05 3.3462e-05 -5.07688e-07
3.2575e-07 -5.07688e-07 -6.85026e-05
0.00103811 -9.59379e-05 -1.2296e-08
-9.59379e-05 0.000125276 6.54048e-07
-1.2296e-08 6.54048e-07 3.09243e-05
0.000796782 -9.49698e-05 -1.99769e-07
-9.49698e-05 -4.46523e-06 2.7389e-07
-1.99769e-07 2.7389e-07 -0.000126013
0.00163536 -0.00014644 -1.81824e-06
-0.00014644 0.000340477 1.20374e-06
-1.81824e-06 1.20374e-06 0.000194842
0.00183149 -0.000109794 -8.55114e-07
-0.000109794 0.000147219 6.59866e-07
-8.55114e-07 6.59866e-07 5.21715e-05
0.00149642 -0.000131297 1.84999e-06
-0.000131297 0.000109938 -1.10846e-06
1.84999e-06 -1.10846e-06 -4.40883e-06
0.00072164 1.90285e-05 1.63379e-07
1.90285e-05 -5.62034e-05 -5.65845e-07
1.63379e-07 -5.65845e-07 -8.8465e-05
0.000969456 1.0817e-05 -3.15624e-07
1.0817e-05 8.17178e-05 1.73127e-07
-3.15624e-07 1.73127e-07 2.98288e-05
0.000871049 -8.60407e-05 -8.39325e-07
-8.60407e-05 4.04633e-05 2.30779e-07
-8.39325e-07 2.30779e-07 -5.24001e-05
0.00100925 -8.95021e-05 1.11245e-06
-8.95021e-05 0.000113958 7.12988e-07
1.11245e-06 7.12988e-07 1.96776e-05
0.000933744 -3.04536e-05 -5.04162e-08
-3.04536e-05 7.60422e-05 -3.21433e-07
-5.04162e-08 -3.21433e-07 -7.19187e-06
0.000988799 -2.21736e-05 -5.30663e-07
-2.21736e-05 9.89198e-05 8.50193e-07
-5.30663e-07 8.50193e-07 3.13714e-05
0.00176266 4.85412e-06 -2.47982e-06
4.85412e-06 9.69517e-05 -3.07136e-07
-2.47982e-06 -3.07136e-07 -4.85533e-06
0.00176168 -2.19488e-05 3.09858e-07
-2.19488e-05 8.92055e-05 7.29345e-07
3.09858e-07 7.29345e-07 -8.31884e-06
0.00181533 -8.00286e-05 7.69088e-07
-8.00286e-05 8.51918e-05 -1.91393e-06
7.69088e-07 -1.91393e-06 -1.01551e-05
0.00172329 -0.000133692 3.07106e-07
-0.000133692 8.80306e-05 -1.9037e-06
3.07106e-07 -1.9037e-06 -6.09684e-06
0.000707549 -8.20389e-05 -1.58606e-06
-8.20389e-05 -2.79916e-05 1.07718e-06
-1.58606e-06 1.07718e-06 -0.000129937
0.00142497 -0.000143594 -9.96128e-07
-0.000143594 0.000179238 3.49922e-06
-9.96128e-07 3.49922e-06 2.2908e-05
0.00164926 -0.00014049 5.30871e-07
-0.00014049 0.00042116 -2.18049e-06
5.30871e-07 -2.18049e-06 0.000280898
0.00084296 1.52539e-05 6.0797e-07
1.52539e-05 5.43982e-06 -1.64479e-06
6.0797e-07 -1.64479e-06 -2.37866e-05
0.000852151 -4.24205e-05 8.87945e-07
-4.24205e-05 2.61231e-05 -8.34297e-07
8.87945e-07 -8.34297e-07 -2.23143e-05
0.000743855 1.06041e-05 4.67627e-07
1.06041e-05 -3.48777e-05 -1.36382e-06
4.67627e-07 -1.36382e-06 -8.78785e-05
0.000947339 -2.73817e-05 8.80674e-07
-2.73817e-05 7.84029e-05 -1.14696e-07
8.80674e-07 -1.14696e-07 1.26197e-05
0.000947809 9.74873e-06 -1.34266e-07
9.74873e-06 7.93522e-05 -1.8333e-07
-1.34266e-07 -1.8333e-07 5.04791e-06
0.000830247 -8.64899e-05 2.18416e-06
-8.64899e-05 3.97347e-05 1.77953e-06
2.18416e-06 1.77953e-06 -5.99968e-05
0.000809209 -8.27237e-05 -2.10389e-06
-8.27237e-05 -1.01692e-05 2.32279e-06
-2.10389e-06 2.32279e-06 -9.65409e-05
0.00176005 -0.000130733 -1.53928e-06
-0.000130733 0.000519903 2.89442e-06
-1.53928e-06 2.89442e-06 0.000422614
0.000865655 -2.50638e-05 -4.41244e-07
-2.50638e-05 2.90078e-05 -1.11315e-06
-4.41244e-07 -1.11315e-06 -2.09754e-05
0.000900487 8.08894e-06 -4.23119e-07
8.08894e-06 5.37529e-05 -2.14316e-07
-4.23119e-07 -2.14316e-07 -1.51e-05
0.00190394 9.36941e-05 7.3676e-07
9.36941e-05 0.000221312 4.52837e-07
7.3676e-07 4.52837e-07 0.000127693
0.00092947 2.08573e-05 -5.9336e-07
2.08573e-05 8.04513e-05 -5.39741e-07
-5.9336e-07 -5.39741e-07 -7.32641e-06
0.0010532 9.73007e-05 -7.84897e-07
9.73007e-05 0.000163283 -2.10373e-06
-7.84897e-07 -2.10373e-06 5.72887e-05
0.000853445 5.98036e-05 -1.60118e-06
5.98036e-05 5.01176e-05 -5.11771e-07
-1.60118e-06 -5.11771e-07 -5.34028e-05
0.00160199 0.0001422 2.01351e-07
0.0001422 0.000237356 4.38361e-07
2.01351e-07 4.38361e-07 0.000122129
0.00143353 0.000131151 1.97079e-06
0.000131151 7.82726e-05 3.43271e-06
1.97079e-06 3.43271e-06 -7.24845e-06
0.000889043 9.77688e-05 -2.27386e-09
9.77688e-05 5.98853e-05 8.25655e-07
-2.27386e-09 8.25655e-07 -6.82706e-05
0.00111493 0.000125811 -4.11916e-06
0.000125811 8.3684e-05 -1.16413e-06
-4.11916e-06 -1.16413e-06 -6.42722e-05
0.000802608 2.05348e-06 2.10773e-07
2.05348e-06 1.25869e-06 4.724e-07
2.10773e-07 4.724e-07 -6.3163e-05
0.000845079 4.0278e-05 -1.3514e-07
4.0278e-05 3.44021e-05 -7.97185e-07
-1.3514e-07 -7.97185e-07 -5.0338e-05
0.00107778 9.96165e-05 -5.87826e-07
9.96165e-05 0.000177401 -1.03426e-06
-5.87826e-07 -1.03426e-06 6.06138e-05
0.000864891 5.6419e-05 -2.97151e-07
5.6419e-05 5.01118e-05 -2.02305e-07
-2.97151e-07 -2.02305e-07 -5.41231e-05
0.00202573 6.13939e-05 -8.62242e-08
6.13939e-05 0.000216443 9.24061e-07
-8.62242e-08 9.24061e-07 0.000129054
0.00146102 0.000111739 1.95445e-06
0.000111739 -2.90938e-05 -1.37242e-06
1.95445e-06 -1.37242e-06 -0.000110168
0.00184726 0.000162329 -2.57367e-06
0.000162329 0.000348895 -2.48352e-07
-2.57367e-06 -2.48352e-07 0.000219169
0.000698409 9.87414e-05 1.00855e-06
9.87414e-05 -6.67621e-05 3.85702e-07
1.00855e-06 3.85702e-07 -0.000220969
0.000948506 3.14011e-06 3.62804e-07
3.14011e-06 8.08607e-05 4.94807e-07
3.62804e-07 4.94807e-07 8.87549e-06
0.00156349 2.9732e-05 -2.75989e-06
2.9732e-05 -2.661e-05 -9.21796e-07
-2.75989e-06 -9.21796e-07 -0.000106966
0.00113908 8.58983e-05 3.43382e-07
8.58983e-05 0.000202765 1.61533e-06
3.43382e-07 1.61533e-06 0.000101464
0.00108314 0.000102658 6.23185e-07
0.000102658 0.000159229 1.1938e-06
6.23185e-07 1.1938e-06 3.37464e-05
0.00213963 8.90411e-05 4.11173e-07
8.90411e-05 0.00021123 -3.25074e-07
4.11173e-07 -3.25074e-07 0.000139854
0.00163337 0.000159899 3.65911e-06
0.000159899 8.93585e-05 -3.86852e-06
3.65911e-06 -3.86852e-06 -2.21488e-05
0.00168281 0.000152543 9.78445e-08
0.000152543 0.000383871 1.88274e-06
9.78445e-08 1.88274e-06 0.000214311
0.00096375 -1.43406e-06 -1.10489e-06
-1.43406e-06 8.5071e-05 -3.71823e-07
-1.10489e-06 -3.71823e-07 2.57247e-05
0.000955789 -9.93518e-06 -5.41632e-08
-9.93518e-06 8.42891e-05 4.39059e-08
-5.41632e-08 4.39059e-08 1.67541e-05
0.000953048 -3.81369e-06 3.64807e-07
-3.81369e-06 8.74797e-05 9.12542e-07
3.64807e-07 9.12542e-07 1.2191e-05
0.000873973 -1.50925e-05 -1.69552e-07
-1.50925e-05 2.85918e-05 -8.29536e-07
-1.69552e-07 -8.29536e-07 -1.5643e-05
0.000870446 -6.98425e-06 4.48697e-08
-6.98425e-06 4.11942e-05 -1.22596e-08
4.48697e-08 -1.22596e-08 -1.7619e-05
0.000859112 4.93051e-06 -3.30447e-07
4.93051e-06 3.86484e-05 -9.51423e-07
-3.30447e-07 -9.51423e-07 -2.97146e-05
0.000882494 -1.78081e-05 -1.32014e-07
-1.78081e-05 3.26706e-05 2.15236e-08
-1.32014e-07 2.15236e-08 -1.19755e-05
0.00079759 -1.62143e-05 -4.68152e-07
-1.62143e-05 2.5002e-07 3.48001e-07
-4.68152e-07 3.48001e-07 -5.70276e-05
0.000946805 -1.39403e-05 2.52692e-07
-1.39403e-05 8.27546e-05 -3.81935e-07
2.52692e-07 -3.81935e-07 1.09543e-05
0.00091395 3.61533e-06 9.27967e-08
3.61533e-06 6.81922e-05 4.7834e-07
9.27967e-08 4.7834e-07 1.8586e-06
0.00093762 1.29206e-06 4.81199e-07
1.29206e-06 7.81365e-05 -1.77136e-07
4.81199e-07 -1.77136e-07 2.02939e-06
0.000842267 -3.05361e-05 6.21429e-08
-3.05361e-05 2.77203e-05 5.97331e-07
6.21429e-08 5.97331e-07 -4.35771e-05
0.000951203 1.09342e-05 3.57083e-07
1.09342e-05 8.50145e-05 1.59357e-07
3.57083e-07 1.59357e-07 2.15202e-05
0.000889611 7.68769e-06 1.03826e-06
7.68769e-06 4.85495e-05 4.94117e-07
1.03826e-06 4.94117e-07 -9.52239e-06
0.000888363 2.31963e-06 3.03661e-07
2.31963e-06 3.43825e-05 6.9065e-07
3.03661e-07 6.9065e-07 -9.86847e-06
0.000833536 9.26804e-06 4.12412e-07
9.26804e-06 -1.58007e-06 1.52437e-06
4.12412e-07 1.52437e-06 -2.92977e-05
0.000839692 -1.41859e-06 -1.60929e-07
-1.41859e-06 7.34846e-07 1.28476e-09
-1.60929e-07 1.28476e-09 -2.62755e-05
0.00132124 -5.70168e-06 7.55842e-07
-5.70168e-06 0.00024878 1.83333e-06
7.55842e-07 1.83333e-06 0.000251791
0.000845498 -1.19695e-05 -2.40651e-07
-1.19695e-05 3.61871e-06 -1.6068e-06
-2.40651e-07 -1.6068e-06 -2.28272e-05
0.00133905 -1.05522e-05 -1.7915e-06
-1.05522e-05 0.000259938 -1.21409e-06
-1.7915e-06 -1.21409e-06 0.000262982
0.00101785 -1.00726e-05 8.28432e-06
-1.00726e-05 8.98689e-05 6.33381e-06
8.28432e-06 6.33381e-06 0.000106861
0.00135292 -1.55252e-05 -4.36943e-06
-1.55252e-05 0.000269788 -4.27835e-06
-4.36943e-06 -4.27835e-06 0.000272599
0.000973961 -1.51578e-05 3.07206e-06
-1.51578e-05 6.86445e-05 2.39176e-06
3.07206e-06 2.39176e-06 8.55421e-05
0.000918222 -1.98702e-05 -1.70244e-06
-1.98702e-05 4.34345e-05 -1.58177e-06
-1.70244e-06 -1.58177e-06 5.95973e-05
0.00083741 1.13696e-05 3.14209e-07
1.13696e-05 1.61489e-07 -1.59292e-06
3.14209e-07 -1.59292e-06 -2.68475e-05
0.000768481 1.89625e-05 9.78536e-07
1.89625e-05 -3.93916e-05 -3.22326e-06
9.78536e-07 -3.22326e-06 -4.15274e-05
0.000772036 2.35804e-05 -1.29935e-07
2.35804e-05 -3.24002e-05 2.44472e-08
-1.29935e-07 2.44472e-08 -3.67679e-05
0.00216247 3.32262e-05 1.67563e-05
3.32262e-05 0.000713492 -3.80705e-06
1.67563e-05 -3.80705e-06 0.000733297
0.000775237 2.73791e-05 -1.99066e-06
2.73791e-05 -2.5256e-05 3.34282e-06
-1.99066e-06 3.34282e-06 -3.19693e-05
0.00222495 3.98469e-05 -1.32546e-06
3.98469e-05 0.000753277 -7.13624e-08
-1.32546e-06 -7.13624e-08 0.000771211
0.00227919 4.57459e-05 -2.58154e-05
4.57459e-05 0.000789409 3.66711e-06
-2.58154e-05 3.66711e-06 0.000805459
0.00152722 4.93286e-05 8.21009e-07
4.93286e-05 7.14104e-06 -1.95186e-07
8.21009e-07 -1.95186e-07 -8.48882e-05
0.00168757 1.83314e-05 6.97115e-07
1.83314e-05 7.35879e-05 -7.68506e-07
6.97115e-07 -7.68506e-07 -2.37602e-05
0.00180194 1.3356e-06 9.13964e-07
1.3356e-06 0.000122626 -8.53756e-07
9.13964e-07 -8.53756e-07 1.46453e-05
0.00174528 1.42519e-05 3.03755e-07
1.42519e-05 9.74573e-05 1.4253e-07
3.03755e-07 1.4253e-07 -1.54521e-05
0.00179907 7.20686e-06 -1.42326e-07
7.20686e-06 0.000109778 1.12425e-07
-1.42326e-07 1.12425e-07 6.21807e-07
0.00182263 -6.26772e-08 1.81428e-07
-6.26772e-08 0.000115233 -5.25518e-08
1.81428e-07 -5.25518e-08 1.63655e-05
0.00174321 3.64117e-05 2.67542e-07
3.64117e-05 8.66862e-05 3.49968e-07
2.67542e-07 3.49968e-07 -5.23328e-06
0.00180542 -1.53007e-06 -1.78518e-06
-1.53007e-06 0.00010402 1.76589e-07
-1.78518e-06 1.76589e-07 3.63412e-06
0.00191045 1.20227e-05 -2.84625e-06
1.20227e-05 0.000153187 2.7911e-07
-2.84625e-06 2.7911e-07 6.36911e-05
0.00171885 1.00484e-05 -1.36729e-06
1.00484e-05 3.67373e-05 3.12272e-07
-1.36729e-06 3.12272e-07 -3.67335e-05
0.0017742 5.5146e-06 7.75131e-07
5.5146e-06 0.000114462 6.66575e-07
7.75131e-07 6.66575e-07 5.8854e-06
0.00171716 -1.3873e-05 -2.36763e-07
-1.3873e-05 8.92795e-05 -4.82888e-07
-2.36763e-07 -4.82888e-07 -1.26188e-05
0.00185296 -5.99788e-05 -1.30463e-06
-5.99788e-05 0.000146838 -1.35897e-07
-1.30463e-06 -1.35897e-07 4.44657e-05
0.0011114 -9.9291e-05 -4.69911e-08
-9.9291e-05 0.000161391 2.50942e-07
-4.69911e-08 2.50942e-07 6.65512e-05
0.000874279 -9.75738e-05 5.36553e-07
-9.75738e-05 4.1214e-05 2.76925e-06
5.36553e-07 2.76925e-06 -7.75902e-05
0.0016373 -0.000145888 -2.30184e-06
-0.000145888 0.000337466 2.40323e-06
-2.30184e-06 2.40323e-06 0.000192941
0.00185534 -0.000111975 3.51445e-06
-0.000111975 0.0001697 2.32974e-06
3.51445e-06 2.32974e-06 7.55333e-05
0.00129624 -0.00012433 -1.82261e-06
-0.00012433 4.86722e-06 -2.16193e-06
-1.82261e-06 -2.16193e-06 -0.000109027
0.000674366 -7.69279e-05 -1.25333e-06
-7.69279e-05 -6.17686e-05 -9.90463e-07
-1.25333e-06 -9.90463e-07 -0.000153866
0.00109706 -9.30768e-05 2.51929e-06
-9.30768e-05 0.000158698 -2.97635e-06
2.51929e-06 -2.97635e-06 6.57771e-05
0.000883057 4.52949e-06 -3.43561e-08
4.52949e-06 4.47384e-05 -4.38e-07
-3.43561e-08 -4.38e-07 -3.54483e-05
0.000827559 1.8658e-05 -7.81049e-07
1.8658e-05 -4.79495e-07 1.10362e-06
-7.81049e-07 1.10362e-06 -3.16633e-05
0.000959326 2.53543e-05 -6.68684e-07
2.53543e-05 7.64226e-05 1.04341e-06
-6.68684e-07 1.04341e-06 2.46558e-05
0.00092634 -9.27528e-06 -5.68624e-07
-9.27528e-06 6.64426e-05 1.07716e-06
-5.68624e-07 1.07716e-06 -1.58532e-06
0.00178254 5.2725e-06 2.92391e-07
5.2725e-06 0.000106762 1.3958e-07
2.92391e-07 1.3958e-07 6.38306e-06
0.000841203 1.44065e-05 8.99377e-09
1.44065e-05 4.17276e-06 1.21732e-08
8.99377e-09 1.21732e-08 -2.5013e-05
0.000786468 -3.87039e-06 -3.15819e-07
-3.87039e-06 -1.24999e-05 7.37087e-08
-3.15819e-07 7.37087e-08 -5.88215e-05
0.00179455 -2.31657e-05 -2.3293e-07
-2.31657e-05 0.00010477 -3.92965e-07
-2.3293e-07 -3.92965e-07 6.76743e-06
0.00172487 -7.83543e-05 -1.84189e-07
-7.83543e-05 4.45957e-05 -7.31219e-08
-1.84189e-07 -7.31219e-08 -5.36362e-05
0.000762379 -8.39452e-05 8.6624e-08
-8.39452e-05 3.39434e-06 1.74325e-06
8.6624e-08 1.74325e-06 -9.69239e-05
0.00136392 -0.000127089 -7.68262e-07
-0.000127089 0.000274099 3.63526e-07
-7.68262e-07 3.63526e-07 0.000129184
0.00126232 -0.000134701 8.79114e-07
-0.000134701 8.94119e-05 9.05745e-07
8.79114e-07 9.05745e-07 -6.01322e-05
0.00174864 -0.000135835 5.35356e-07
-0.000135835 0.000105846 -2.11397e-07
5.35356e-07 -2.11397e-07 1.20196e-05
0.000923656 -1.30561e-05 9.91867e-07
-1.30561e-05 5.98411e-05 -4.89763e-07
9.91867e-07 -4.89763e-07 8.58785e-06
0.000928804 -1.48664e-05 -4.41381e-07
-1.48664e-05 6.99069e-05 4.31299e-07
-4.41381e-07 4.31299e-07 3.43904e-06
0.00092247 -8.73404e-05 4.33572e-07
-8.73404e-05 4.49038e-05 4.69354e-07
4.33572e-07 4.69354e-07 -4.39381e-05
0.00127154 -0.000107808 9.28758e-07
-0.000107808 0.000264271 -1.14044e-06
9.28758e-07 -1.14044e-06 0.000174768
0.000793823 -6.15689e-05 -8.55667e-08
-6.15689e-05 1.83362e-05 3.06244e-07
-8.55667e-08 3.06244e-07 -8.04582e-05
0.000940961 5.3109e-06 4.99143e-08
5.3109e-06 7.67572e-05 -2.51612e-07
4.99143e-08 -2.51612e-07 1.31304e-06
0.00181421 1.28896e-06 -2.72072e-06
1.28896e-06 0.000100952 -1.98907e-07
-2.72072e-06 -1.98907e-07 1.34696e-05
0.0020643 -2.79846e-05 8.13247e-07
-2.79846e-05 0.000219732 1.86929e-06
8.13247e-07 1.86929e-06 0.000122645
0.00171927 -0.000118785 -3.15754e-06
-0.000118785 -1.35675e-05 -4.21713e-06
-3.15754e-06 -4.21713e-06 -9.153e-05
0.00126829 -0.000143263 -4.64194e-07
-0.000143263 -4.75512e-05 1.72666e-06
-4.64194e-07 1.72666e-06 -0.000163239
0.00109401 -8.67618e-05 -2.47263e-06
-8.67618e-05 0.000167185 -4.78476e-07
-2.47263e-06 -4.78476e-07 6.34136e-05
0.00175579 -0.000160984 -2.17328e-06
-0.000160984 0.000442447 -1.28129e-07
-2.17328e-06 -1.28129e-07 0.000267336
0.000703972 3.52098e-05 -1.00408e-06
3.52098e-05 -5.49674e-05 -1.24579e-06
-1.00408e-06 -1.24579e-06 -0.00010063
0.000854675 -1.76832e-05 5.27366e-07
-1.76832e-05 2.23179e-05 -9.3264e-07
5.27366e-07 -9.3264e-07 -2.54624e-05
0.0010591 -3.0051e-05 4.89494e-07
-3.0051e-05 0.000145363 -2.80635e-07
4.89494e-07 -2.80635e-07 8.54067e-05
0.000780825 1.74619e-05 -6.18103e-07
1.74619e-05 -4.33531e-06 -5.72025e-07
-6.18103e-07 -5.72025e-07 -7.24535e-05
0.00107022 -4.33042e-06 1.89906e-07
-4.33042e-06 0.000146808 -4.17258e-09
1.89906e-07 -4.17258e-09 7.44416e-05
0.000683799 -1.17459e-05 1.84342e-07
-1.17459e-05 -4.28282e-05 6.27295e-07
1.84342e-07 6.27295e-07 -0.000129469
0.00118757 -7.10112e-05 4.77487e-06
-7.10112e-05 0.000240491 3.57813e-07
4.77487e-06 3.57813e-07 0.00013189
0.000825101 -9.12099e-05 -6.22883e-06
-9.12099e-05 1.64535e-05 2.7741e-06
-6.22883e-06 2.7741e-06 -6.79029e-05
0.000799656 1.48011e-05 -3.87329e-07
1.48011e-05 1.37575e-06 -3.61815e-07
-3.87329e-07 -3.61815e-07 -6.49298e-05
0.00089727 4.3933e-05 -1.44954e-06
4.3933e-05 6.2614e-05 -1.66162e-06
-1.44954e-06 -1.66162e-06 -2.20746e-05
0.00200442 5.86768e-05 1.51832e-06
5.86768e-05 0.00019972 4.55336e-07
1.51832e-06 4.55336e-07 0.000110659
0.00158061 0.000114669 6.50492e-08
0.000114669 4.56676e-05 8.39939e-07
6.50492e-08 8.39939e-07 -3.63605e-05
0.00110398 6.0793e-05 -1.8054e-06
6.0793e-05 0.000173531 -9.98421e-07
-1.8054e-06 -9.98421e-07 6.96791e-05
0.00110618 0.000100977 -1.96749e-06
0.000100977 0.000193733 -1.94804e-06
-1.96749e-06 -1.94804e-06 7.76751e-05
0.00235576 0.000180552 -1.65276e-06
0.000180552 0.000606336 1.90178e-06
-1.65276e-06 1.90178e-06 0.000479306
0.00105625 0.000118086 -1.58088e-06
0.000118086 0.000107088 -7.15609e-07
-1.58088e-06 -7.15609e-07 -4.61227e-05
0.000932578 1.69945e-05 9.08617e-08
1.69945e-05 7.52464e-05 -5.03834e-07
9.08617e-08 -5.03834e-07 1.68138e-06
0.00176929 2.90951e-05 -6.73065e-07
2.90951e-05 7.71844e-05 4.15282e-08
-6.73065e-07 4.15282e-08 -2.57614e-06
0.000987408 7.03356e-05 1.15174e-07
7.03356e-05 0.000121016 7.85475e-07
1.15174e-07 7.85475e-07 2.19838e-05
0.000894936 9.27372e-05 4.44754e-08
9.27372e-05 6.36277e-05 -1.96687e-07
4.44754e-08 -1.96687e-07 -6.37447e-05
0.00189125 8.52407e-05 1.28458e-06
8.52407e-05 8.92752e-05 -2.00884e-07
1.28458e-06 -2.00884e-07 1.74166e-05
0.00191294 0.000169346 6.91871e-07
0.000169346 0.000222965 -4.84436e-07
6.91871e-07 -4.84436e-07 0.00011249
0.00170563 0.000154959 5.13391e-07
0.000154959 0.000403905 1.00986e-06
5.13391e-07 1.00986e-06 0.000235605
0.00102406 3.14921e-05 -6.52254e-08
3.14921e-05 0.000132833 8.83554e-07
-6.52254e-08 8.83554e-07 4.58142e-05
0.00220206 4.92965e-05 -3.98403e-06
4.92965e-05 0.000251139 -9.34901e-07
-3.98403e-06 -9.34901e-07 0.000189776
0.00156726 0.000106044 -1.37617e-06
0.000106044 0.000409583 3.1338e-07
-1.37617e-06 3.1338e-07 0.000299367
0.00183996 0.000147626 -2.04426e-06
0.000147626 0.000535553 1.0415e-06
-2.04426e-06 1.0415e-06 0.00038724
0.00194579 0.0001621 3.34136e-06
0.0001621 8.34329e-05 -1.33693e-06
3.34136e-06 -1.33693e-06 2.14663e-05
0.00114303 0.000140336 -1.10374e-06
0.000140336 1.33838e-05 -2.23265e-07
-1.10374e-06 -2.23265e-07 -0.000142514
0.000701189 6.40732e-05 1.23307e-05
6.40732e-05 -0.000264662 1.33376e-06
1.23307e-05 1.33376e-06 -0.000354452
0.000957818 -5.9642e-06 -2.49917e-07
-5.9642e-06 8.53119e-05 -6.99729e-07
-2.49917e-07 -6.99729e-07 1.77128e-05
0.000952955 -1.16934e-06 6.85263e-08
-1.16934e-06 8.76501e-05 -1.6639e-09
6.85263e-08 -1.6639e-09 1.22608e-05
0.000971228 1.32588e-05 2.56252e-07
1.32588e-05 9.45611e-05 5.40857e-08
2.56252e-07 5.40857e-08 1.36171e-05
0.000872652 -2.8716e-05 -2.60431e-08
-2.8716e-05 2.85198e-05 -7.77739e-07
-2.60431e-08 -7.77739e-07 -1.68249e-05
0.000808928 -4.1434e-05 -5.03947e-07
-4.1434e-05 6.59104e-06 -8.88019e-08
-5.03947e-07 -8.88019e-08 -5.09753e-05
0.000998741 4.22728e-05 -8.02416e-07
4.22728e-05 0.000115878 2.00294e-08
-8.02416e-07 2.00294e-08 4.83812e-05
0.000924499 -1.63917e-05 3.33944e-08
-1.63917e-05 7.06012e-05 -8.35475e-07
3.33944e-08 -8.35475e-07 -2.21934e-06
0.000872119 -1.7306e-05 -1.88842e-07
-1.7306e-05 2.8927e-05 3.62719e-08
-1.88842e-07 3.62719e-08 -1.73719e-05
0.000826258 -1.73821e-06 1.53586e-07
-1.73821e-06 1.1232e-05 -1.15443e-08
1.53586e-07 -1.15443e-08 -4.46827e-05
0.000927013 -2.15432e-06 2.81183e-07
-2.15432e-06 7.23213e-05 -5.79349e-07
2.81183e-07 -5.79349e-07 -4.04064e-06
0.000952019 -1.33702e-05 -1.84655e-07
-1.33702e-05 8.4594e-05 -1.18094e-07
-1.84655e-07 -1.18094e-07 2.12342e-05
0.00093187 -2.28803e-05 1.84515e-07
-2.28803e-05 7.52498e-05 -1.77124e-08
1.84515e-07 -1.77124e-08 4.60519e-06
0.000917403 -7.37657e-06 -8.21574e-08
-7.37657e-06 6.60033e-05 1.38473e-07
-8.21574e-08 1.38473e-07 -9.53178e-06
0.000934347 -1.20634e-07 4.64339e-07
-1.20634e-07 7.59963e-05 -1.65024e-07
4.64339e-07 -1.65024e-07 9.75822e-06
0.000989641 5.66458e-06 5.94841e-07
5.66458e-06 9.92077e-05 -1.67341e-07
5.94841e-07 -1.67341e-07 3.75863e-05
0.000830209 9.13525e-06 -9.28811e-08
9.13525e-06 1.3074e-05 4.94915e-07
-9.28811e-08 4.94915e-07 -4.63618e-05
0.000753432 4.01815e-06 2.72891e-07
4.01815e-06 -3.74879e-05 1.14094e-06
2.72891e-07 1.14094e-06 -8.3499e-05
0.00102053 -4.55493e-06 2.97906e-07
-4.55493e-06 0.000121736 -1.24434e-09
2.97906e-07 -1.24434e-09 6.05752e-05
0.000740747 5.41353e-06 -4.07112e-07
5.41353e-06 -4.19574e-05 1.1577e-06
-4.07112e-07 1.1577e-06 -8.88503e-05
0.000834668 1.19036e-05 2.51572e-07
1.19036e-05 -4.31611e-07 1.52881e-06
2.51572e-07 1.52881e-06 -2.85056e-05
0.0008336 1.67514e-06 -2.25681e-07
1.67514e-06 -1.57688e-06 4.51565e-09
-2.25681e-07 4.51565e-09 -2.92555e-05
0.000782691 5.19e-07 2.58596e-07
5.19e-07 -3.95811e-05 3.05131e-06
2.58596e-07 3.05131e-06 -3.99389e-05
0.000843266 -8.5357e-06 5.46861e-08
-8.5357e-06 2.70747e-06 -1.52853e-06
5.46861e-08 -1.52853e-06 -2.43293e-05
0.0010669 -4.50361e-06 -1.12457e-06
-4.50361e-06 0.000112826 -1.2579e-06
-1.12457e-06 -1.2579e-06 0.000114239
0.00210571 -6.9685e-06 5.07181e-06
-6.9685e-06 0.000670578 3.97343e-06
5.07181e-06 3.97343e-06 0.000693524
0.00136258 -9.84793e-06 -2.7338e-06
-9.84793e-06 0.000272742 -4.2747e-06
-2.7338e-06 -4.2747e-06 0.000275595
0.000983221 -1.03576e-05 1.67003e-06
-1.03576e-05 7.06498e-05 2.43133e-06
1.67003e-06 2.43133e-06 8.78351e-05
0.000932661 -1.49694e-05 -1.21318e-06
-1.49694e-05 4.63139e-05 -1.55014e-06
-1.21318e-06 -1.55014e-06 6.34013e-05
0.000844813 7.68813e-06 2.20163e-07
7.68813e-06 2.61439e-06 -1.57006e-06
2.20163e-07 -1.57006e-06 -2.26803e-05
0.000843518 1.07437e-05 -3.67901e-08
1.07437e-05 3.11287e-06 1.2442e-08
-3.67901e-08 1.2442e-08 -2.39136e-05
0.000776561 1.43741e-05 5.4873e-07
1.43741e-05 -3.9223e-05 -3.17067e-06
5.4873e-07 -3.17067e-06 -3.9634e-05
0.00106458 2.11957e-05 -4.85638e-07
2.11957e-05 0.000119053 3.17432e-08
-4.85638e-07 3.17432e-08 0.000118246
0.00212074 2.64302e-05 1.37454e-05
2.64302e-05 0.000686353 -3.8776e-06
1.37454e-05 -3.8776e-06 0.00070759
0.000786092 2.38718e-05 -1.45579e-06
2.38718e-05 -2.50909e-05 3.30756e-06
-1.45579e-06 3.30756e-06 -2.95361e-05
0.0021726 3.34814e-05 -1.39975e-06
3.34814e-05 0.000719625 -6.394e-08
-1.39975e-06 -6.394e-08 0.000739212
0.00223689 3.9876e-05 -2.23506e-05
3.9876e-05 0.000760472 3.77567e-06
-2.23506e-05 3.77567e-06 0.000778203
0.00167065 3.68442e-05 -3.19533e-07
3.68442e-05 4.97741e-05 1.06152e-07
-3.19533e-07 1.06152e-07 -4.19051e-05
0.00178866 1.48798e-06 1.34196e-06
1.48798e-06 9.6712e-05 -5.55111e-07
1.34196e-06 -5.55111e-07 -2.98905e-06
0.00179788 3.46523e-06 1.01925e-06
3.46523e-06 0.000108348 2.68751e-07
1.01925e-06 2.68751e-07 -5.65078e-07
0.00179987 1.54289e-06 1.55368e-07
1.54289e-06 0.000100913 1.71498e-07
1.55368e-07 1.71498e-07 4.07577e-07
0.00182043 1.20168e-05 -1.20282e-07
1.20168e-05 0.000106456 9.17776e-08
-1.20282e-07 9.17776e-08 1.63196e-05
0.00177469 6.98386e-06 1.81893e-06
6.98386e-06 8.1743e-05 2.3865e-10
1.81893e-06 2.3865e-10 9.18497e-06
0.00173782 8.29607e-06 -2.35971e-06
8.29607e-06 5.57472e-05 8.99452e-08
-2.35971e-06 8.99452e-08 -2.77002e-05
0.00376668 -7.35183e-05 4.77923e-06
-7.35183e-05 0.000988232 -7.43389e-07
4.77923e-06 -7.43389e-07 0.000941874
0.00140575 8.95646e-06 -2.03734e-06
8.95646e-06 -0.000153964 7.85036e-08
-2.03734e-06 7.85036e-08 -0.000212932
0.000876497 1.89076e-05 8.40653e-08
1.89076e-05 3.30181e-05 -6.93518e-07
8.40653e-08 -6.93518e-07 -8.711e-06
0.00177641 5.42034e-06 1.72294e-06
5.42034e-06 0.000103694 -3.03812e-08
1.72294e-06 -3.03812e-08 4.66106e-06
0.00183391 -2.43156e-05 -1.191e-06
-2.43156e-05 0.000123391 -1.15063e-06
-1.191e-06 -1.15063e-06 2.4958e-05
0.00166627 -7.67482e-05 1.86858e-06
-7.67482e-05 1.99512e-05 8.63255e-07
1.86858e-06 8.63255e-07 -8.05291e-05
0.00084615 -8.71496e-05 1.62883e-06
-8.71496e-05 4.97757e-05 9.4095e-07
1.62883e-06 9.4095e-07 -4.90267e-05
0.00115566 -0.00011697 7.36516e-07
-0.00011697 0.000168808 2.83113e-06
7.36516e-07 2.83113e-06 1.70341e-05
0.00119533 -0.000130504 1.6128e-06
-0.000130504 5.11572e-05 -1.36992e-06
1.6128e-06 -1.36992e-06 -9.36013e-05
0.00186308 -0.000140613 9.6798e-07
-0.000140613 0.000169041 -7.00948e-07
9.6798e-07 -7.00948e-07 7.51644e-05
0.00105187 -9.03923e-05 3.77761e-06
-9.03923e-05 0.000108331 -3.23789e-06
3.77761e-06 -3.23789e-06 1.72969e-05
0.000690751 -8.1114e-05 -2.29982e-06
-8.1114e-05 -3.91626e-05 -7.33399e-06
-2.29982e-06 -7.33399e-06 -0.000120574
0.000711218 -5.6301e-05 2.47322e-07
-5.6301e-05 -2.44915e-05 3.85347e-07
2.47322e-07 3.85347e-07 -0.00012391
0.000842155 1.3768e-05 -7.49163e-07
1.3768e-05 4.43065e-06 1.69294e-06
-7.49163e-07 1.69294e-06 -2.47404e-05
0.000943046 -5.2287e-06 -5.69833e-08
-5.2287e-06 7.83737e-05 -5.27667e-07
-5.69833e-08 -5.27667e-07 1.92e-06
0.00110228 -3.61691e-05 -4.546e-07
-3.61691e-05 0.000156704 4.28226e-07
-4.546e-07 4.28226e-07 0.000105402
0.000918906 -5.87191e-06 -5.66926e-07
-5.87191e-06 6.50606e-05 1.02184e-06
-5.66926e-07 1.02184e-06 -1.56686e-06
0.000715186 3.38542e-06 1.66002e-07
3.38542e-06 -5.27748e-05 7.80829e-07
1.66002e-07 7.80829e-07 -9.78482e-05
0.00176475 7.70538e-07 -5.605e-07
7.70538e-07 7.86886e-05 -1.78965e-07
-5.605e-07 -1.78965e-07 -8.33714e-06
0.000788652 1.30105e-05 2.03623e-07
1.30105e-05 -1.02791e-05 -5.03273e-07
2.03623e-07 -5.03273e-07 -5.53858e-05
0.000862347 -2.57264e-05 -4.33997e-07
-2.57264e-05 2.87449e-05 2.38616e-08
-4.33997e-07 2.38616e-08 -2.0837e-05
0.000902448 -1.09705e-05 -7.19085e-07
-1.09705e-05 6.29854e-05 4.76311e-07
-7.19085e-07 4.76311e-07 1.4312e-06
0.00183813 -2.85311e-05 1.3507e-06
-2.85311e-05 9.6159e-05 -1.58938e-07
1.3507e-06 -1.58938e-07 9.58318e-08
0.00188379 -0.000122302 -1.66463e-06
-0.000122302 8.3684e-05 2.00851e-07
-1.66463e-06 2.00851e-07 3.22303e-06
0.000896506 -8.37044e-05 -4.92148e-07
-8.37044e-05 5.3556e-05 3.02603e-07
-4.92148e-07 3.02603e-07 -4.67015e-05
0.00112164 -0.00012898 2.09399e-07
-0.00012898 0.000134586 -6.36866e-07
2.09399e-07 -6.36866e-07 -4.48759e-05
0.00149603 -0.000153659 3.3941e-07
-0.000153659 6.83177e-05 4.25335e-07
3.3941e-07 4.25335e-07 -4.9056e-05
0.000882494 8.59935e-06 -1.70895e-07
8.59935e-06 4.98912e-05 2.27443e-08
-1.70895e-07 2.27443e-08 -1.77853e-05
0.000989706 -2.10811e-05 -1.40089e-07
-2.10811e-05 0.000107539 3.58522e-08
-1.40089e-07 3.58522e-08 3.30217e-05
0.000769335 -8.96273e-05 -3.9851e-06
-8.96273e-05 -8.14317e-06 8.66972e-07
-3.9851e-06 8.66972e-07 -9.64777e-05
0.00106159 -5.30087e-05 5.08451e-07
-5.30087e-05 0.000172167 -5.24606e-07
5.08451e-07 -5.24606e-07 6.67168e-05
0.000865317 -2.63096e-05 1.34782e-07
-2.63096e-05 5.28085e-05 8.1434e-07
1.34782e-07 8.1434e-07 -3.40901e-05
0.00206107 -1.75026e-05 -2.21199e-06
-1.75026e-05 0.000194341 4.25173e-07
-2.21199e-06 4.25173e-07 0.000112718
0.0024116 -6.5615e-05 -7.51437e-07
-6.5615e-05 0.000329696 4.003e-07
-7.51437e-07 4.003e-07 0.000247985
0.00167724 -0.000162315 1.84455e-06
-0.000162315 8.88963e-06 -3.20105e-06
1.84455e-06 -3.20105e-06 -8.2184e-05
0.00169912 -0.0001654 -5.45353e-06
-0.0001654 0.000328276 5.95111e-07
-5.45353e-06 5.95111e-07 0.000179331
0.00101147 -9.63076e-05 -9.68547e-07
-9.63076e-05 0.000143896 -1.31246e-06
-9.68547e-07 -1.31246e-06 1.02714e-05
0.000724686 1.1081e-05 5.95915e-08
1.1081e-05 -3.22491e-05 -7.02437e-07
5.95915e-08 -7.02437e-07 -9.26905e-05
0.000824587 3.82377e-05 -9.58733e-08
3.82377e-05 2.22378e-05 -7.67574e-07
-9.58733e-08 -7.67574e-07 -4.33729e-05
0.00107674 1.3858e-05 5.25038e-07
1.3858e-05 0.000154513 4.99436e-07
5.25038e-07 4.99436e-07 8.57958e-05
0.000896487 -4.0718e-05 1.05839e-06
-4.0718e-05 6.27907e-05 -5.85148e-08
1.05839e-06 -5.85148e-08 -1.2068e-05
0.00103894 4.63952e-06 5.63269e-07
4.63952e-06 0.000132061 7.5841e-07
5.63269e-07 7.5841e-07 5.50389e-05
0.000868401 -1.50269e-05 -4.6349e-07
-1.50269e-05 6.26791e-05 -1.08621e-06
-4.6349e-07 -1.08621e-06 -3.07833e-05
0.00077575 -6.51152e-05 6.44945e-06
-6.51152e-05 4.18944e-05 1.4533e-06
6.44945e-06 1.4533e-06 -8.36205e-05
0.000915648 3.4244e-05 -5.11166e-07
3.4244e-05 6.95317e-05 -1.61419e-06
-5.11166e-07 -1.61419e-06 -5.81512e-06
0.000843998 5.59897e-05 -2.08939e-07
5.59897e-05 4.38579e-05 -2.40302e-07
-2.08939e-07 -2.40302e-07 -5.3046e-05
0.00201082 2.79395e-05 2.63788e-06
2.79395e-05 0.000198701 2.03989e-07
2.63788e-06 2.03989e-07 0.000119609
0.00160609 8.11167e-05 1.62475e-06
8.11167e-05 -5.08403e-05 -5.13826e-07
1.62475e-06 -5.13826e-07 -0.000122857
0.00217166 0.000177914 -6.98804e-07
0.000177914 0.000345076 1.11366e-06
-6.98804e-07 1.11366e-06 0.000235814
0.000704585 8.30374e-05 1.81034e-07
8.30374e-05 -3.30521e-05 -5.12598e-07
1.81034e-07 -5.12598e-07 -0.000162264
0.00170429 0.000156397 -2.21227e-07
0.000156397 0.000410511 1.00378e-06
-2.21227e-07 1.00378e-06 0.000244505
0.00102362 2.42561e-05 -8.05509e-08
2.42561e-05 0.00013182 5.71132e-08
-8.05509e-08 5.71132e-08 4.72357e-05
0.001809 4.51898e-05 -1.6823e-06
4.51898e-05 3.59696e-05 -4.1646e-07
-1.6823e-06 -4.1646e-07 -1.94715e-05
0.00120628 9.14994e-05 -7.02748e-07
9.14994e-05 0.000226834 2.39658e-07
-7.02748e-07 2.39658e-07 0.000118091
0.00135194 0.000122083 -6.82134e-07
0.000122083 0.000295912 7.03079e-07
-6.82134e-07 7.03079e-07 0.000148824
0.0018445 0.00015092 1.28093e-06
0.00015092 2.81398e-05 -6.96053e-07
1.28093e-06 -6.96053e-07 -3.3167e-05
0.00132942 0.000150747 -1.02579e-06
0.000150747 0.000114005 1.27068e-06
-1.02579e-06 1.27068e-06 -4.6895e-05
0.00180304 5.48047e-05 3.34586e-06
5.48047e-05 0.000104544 4.80923e-07
3.34586e-06 4.80923e-07 1.33329e-05
0.00106936 4.41609e-05 -4.54125e-07
4.41609e-05 0.00015471 -4.85785e-07
-4.54125e-07 -4.85785e-07 6.13445e-05
0.00232191 0.000107764 -3.20327e-06
0.000107764 0.000249238 -7.08419e-06
-3.20327e-06 -7.08419e-06 0.000247443
0.00122406 0.000109469 -2.21408e-06
0.000109469 0.000250833 -9.83247e-07
-2.21408e-06 -9.83247e-07 0.000135637
0.00108473 0.000115846 -3.17918e-06
0.000115846 0.0001626 -4.68298e-07
-3.17918e-06 -4.68298e-07 -1.38208e-05
0.000152648 0.000148737 -2.48706e-06
0.000148737 -0.000625833 -1.75221e-06
-2.48706e-06 -1.75221e-06 -0.000748665
0.00658146 -7.68165e-05 -3.76266e-05
-7.68165e-05 0.00214541 -1.04206e-05
-3.76266e-05 -1.04206e-05 0.00150342
0.00271901 -4.64972e-06 7.27616e-05
-4.64972e-06 1.19558e-05 3.19607e-06
7.27616e-05 3.19607e-06 -0.000422921
0.000883138 0.000151617 1.11132e-05
0.000151617 -0.000290252 1.5441e-05
1.11132e-05 1.5441e-05 -0.000294965
-0.0021313 -0.000290826 -1.5051e-05
-0.000290826 -0.00100792 -1.33797e-05
-1.5051e-05 -1.33797e-05 -0.000958384
0.00250754 -0.000436226 -2.47379e-05
-0.000436226 0.000160152 -4.3306e-06
-2.47379e-05 -4.3306e-06 0.00114072
0.000959166 -2.60033e-06 -2.42008e-07
-2.60033e-06 9.09833e-05 -9.03708e-07
-2.42008e-07 -9.03708e-07 1.55318e-05
0.00097617 7.13533e-06 1.82158e-07
7.13533e-06 9.83301e-05 -3.05881e-07
1.82158e-07 -3.05881e-07 1.81891e-05
0.00104313 3.49092e-05 -9.04097e-09
3.49092e-05 0.000130387 -2.43412e-07
-9.04097e-09 -2.43412e-07 4.93246e-05
0.000858097 -3.9065e-05 2.6046e-07
-3.9065e-05 2.44682e-05 -8.48295e-07
2.6046e-07 -8.48295e-07 -2.37742e-05
0.000758132 1.98924e-05 -5.46317e-07
1.98924e-05 -2.37147e-05 -4.57239e-07
-5.46317e-07 -4.57239e-07 -8.06813e-05
0.000953598 -3.57294e-05 -3.16677e-08
-3.57294e-05 8.43963e-05 -3.98828e-07
-3.16677e-08 -3.98828e-07 2.12954e-05
0.00101605 -1.38484e-05 -3.43858e-07
-1.38484e-05 0.000119665 -2.76998e-07
-3.43858e-07 -2.76998e-07 4.99436e-05
0.000899111 -6.81342e-06 3.28139e-07
-6.81342e-06 5.73662e-05 -1.26178e-06
3.28139e-07 -1.26178e-06 -1.92585e-05
0.000918075 1.78458e-05 -4.98962e-07
1.78458e-05 6.34771e-05 -3.17415e-07
-4.98962e-07 -3.17415e-07 4.60765e-08
0.000806312 1.89501e-06 7.61734e-08
1.89501e-06 -5.88225e-06 4.66488e-07
7.61734e-08 4.66488e-07 -5.32253e-05
0.000869788 9.89506e-06 -2.54382e-07
9.89506e-06 3.39169e-05 -4.19267e-08
-2.54382e-07 -4.19267e-08 -2.4981e-05
0.000921608 -6.33261e-06 -5.12376e-08
-6.33261e-06 6.85947e-05 2.22665e-07
-5.12376e-08 2.22665e-07 -6.69207e-06
0.000933849 -4.14204e-06 7.12184e-08
-4.14204e-06 7.48866e-05 -1.18956e-07
7.12184e-08 -1.18956e-07 8.61911e-06
0.000863927 1.40341e-05 5.53904e-07
1.40341e-05 3.61043e-05 -2.84367e-07
5.53904e-07 -2.84367e-07 -2.91526e-05
0.000968368 9.78037e-06 6.17728e-07
9.78037e-06 9.07955e-05 -8.07198e-08
6.17728e-07 -8.07198e-08 2.12732e-05
0.00085805 5.72421e-06 8.11157e-07
5.72421e-06 2.45359e-05 4.52738e-07
8.11157e-07 4.52738e-07 -3.83668e-05
0.000827614 1.12784e-06 8.27251e-07
1.12784e-06 7.39774e-06 2.06098e-07
8.27251e-07 2.06098e-07 -5.20934e-05
0.000722369 -3.43726e-05 -1.27499e-06
-3.43726e-05 -4.97881e-05 1.24614e-06
-1.27499e-06 1.24614e-06 -9.80572e-05
0.000943729 7.35971e-06 -2.27801e-07
7.35971e-06 7.36165e-05 3.62352e-07
-2.27801e-07 3.62352e-07 1.37154e-05
0.00101523 6.50207e-05 8.15647e-08
6.50207e-05 0.000115355 -1.74801e-08
8.15647e-08 -1.74801e-08 4.97443e-05
0.000870289 3.11713e-06 -4.62904e-07
3.11713e-06 4.12859e-05 3.84622e-07
-4.62904e-07 3.84622e-07 -1.83533e-05
0.000940069 9.53929e-06 4.5923e-07
9.53929e-06 7.45165e-05 -3.43123e-07
4.5923e-07 -3.43123e-07 1.5417e-05
0.000870924 -2.3732e-05 -1.2161e-06
-2.3732e-05 2.83929e-05 7.39378e-07
-1.2161e-06 7.39378e-07 -1.8031e-05
0.000749865 4.79187e-06 1.34063e-07
4.79187e-06 -3.44716e-05 3.83209e-07
1.34063e-07 3.83209e-07 -8.30959e-05
0.000839575 1.27567e-05 -7.94101e-08
1.27567e-05 2.18025e-06 1.59903e-06
-7.94101e-08 1.59903e-06 -2.59835e-05
0.000831915 4.12217e-06 -1.65311e-07
4.12217e-06 -2.06791e-06 7.78998e-10
-1.65311e-07 7.78998e-10 -3.00542e-05
0.000797345 4.89474e-06 -2.72379e-07
4.89474e-06 -3.07278e-05 4.33104e-06
-2.72379e-07 4.33104e-06 -3.15603e-05
0.000832388 -6.14495e-06 2.68401e-07
-6.14495e-06 -2.26493e-06 -1.49276e-06
2.68401e-07 -1.49276e-06 -2.98879e-05
0.000785723 5.64566e-07 1.53066e-07
5.64566e-07 -3.79782e-05 -5.44032e-09
1.53066e-07 -5.44032e-09 -3.83581e-05
0.00211962 -9.68995e-07 1.78081e-07
-9.68995e-07 0.000677597 4.01662e-06
1.78081e-07 4.01662e-06 0.000700452
0.000803325 -3.76017e-06 -5.54164e-07
-3.76017e-06 -2.79868e-05 -4.2945e-06
-5.54164e-07 -4.2945e-06 -2.81883e-05
0.00154516 -5.89791e-06 -2.6912e-07
-5.89791e-06 0.000370169 2.11693e-08
-2.6912e-07 2.11693e-08 0.000390238
0.000945583 -9.84607e-06 -7.3058e-07
-9.84607e-06 4.9906e-05 -1.5331e-06
-7.3058e-07 -1.5331e-06 6.73588e-05
0.000847766 3.48347e-06 -9.62098e-09
3.48347e-06 3.05004e-06 -1.62484e-06
-9.62098e-09 -1.62484e-06 -2.09457e-05
0.000844369 7.01246e-06 3.13737e-08
7.01246e-06 2.11164e-06 4.39475e-09
3.13737e-08 4.39475e-09 -2.31436e-05
0.000782663 9.62728e-06 3.20558e-07
9.62728e-06 -3.88226e-05 -3.12513e-06
3.20558e-07 -3.12513e-06 -3.78392e-05
0.000847194 1.01293e-05 -5.44527e-07
1.01293e-05 4.75136e-06 1.65664e-06
-5.44527e-07 1.65664e-06 -2.22792e-05
0.00105558 1.59242e-05 -2.4355e-07
1.59242e-05 0.00010994 -6.21541e-07
-2.4355e-07 -6.21541e-07 0.00011096
0.00209091 1.97485e-05 1.01905e-05
1.97485e-05 0.000666601 -3.93017e-06
1.01905e-05 -3.93017e-06 0.000688942
0.000786096 1.95359e-05 -1.05444e-06
1.95359e-05 -2.98303e-05 3.24199e-06
-1.05444e-06 3.24199e-06 -3.22484e-05
0.00215117 2.60679e-05 -5.65487e-06
2.60679e-05 0.000703688 1.10664e-06
-5.65487e-06 1.10664e-06 0.000724648
0.00218121 3.36312e-05 -1.85935e-05
3.36312e-05 0.000724965 3.86145e-06
-1.85935e-05 3.86145e-06 0.000744349
0.00174476 1.23719e-05 1.44871e-06
1.23719e-05 6.74595e-05 1.72876e-07
1.44871e-06 1.72876e-07 -2.33514e-05
0.00179883 3.92493e-06 1.80575e-06
3.92493e-06 0.000100453 2.22746e-07
1.80575e-06 2.22746e-07 -1.77952e-07
0.00177213 5.17707e-06 5.60278e-06
5.17707e-06 9.71755e-05 -3.60155e-07
5.60278e-06 -3.60155e-07 2.54817e-05
0.00168541 -3.16136e-05 3.90853e-06
-3.16136e-05 -5.7068e-05 1.3055e-06
3.90853e-06 1.3055e-06 -0.000113761
0.00183341 7.34533e-06 -3.01554e-07
7.34533e-06 0.000103392 2.30779e-07
-3.01554e-07 2.30779e-07 2.08185e-05
0.00178564 1.36457e-05 1.13323e-06
1.36457e-05 5.13806e-05 -4.47194e-07
1.13323e-06 -4.47194e-07 -1.11916e-05
0.00214048 1.90643e-05 -3.84478e-07
1.90643e-05 0.000215191 1.80361e-06
-3.84478e-07 1.80361e-06 0.000129287
0.00323754 -0.000138864 0.000139129
-0.000138864 0.000597397 2.15476e-05
0.000139129 2.15476e-05 0.000347479
0.00115637 -4.45619e-05 -4.46248e-06
-4.45619e-05 -0.000305444 8.82105e-07
-4.46248e-06 8.82105e-07 -0.000372587
0.000879825 2.13691e-05 -6.8917e-07
2.13691e-05 3.53795e-05 -7.43758e-07
-6.8917e-07 -7.43758e-07 -6.44177e-06
0.000874063 -1.37275e-05 6.17065e-07
-1.37275e-05 3.39364e-05 -3.68466e-08
6.17065e-07 -3.68466e-08 -9.355e-06
0.00087654 -3.4256e-05 -2.0622e-07
-3.4256e-05 4.32253e-05 5.60203e-09
-2.0622e-07 5.60203e-09 -1.0912e-05
0.000880855 -2.77999e-05 -9.32527e-07
-2.77999e-05 5.53982e-05 1.24669e-07
-9.32527e-07 1.24669e-07 -2.98841e-06
0.00178659 2.83474e-07 2.81005e-06
2.83474e-07 9.15233e-05 -5.03397e-07
2.81005e-06 -5.03397e-07 5.17008e-06
0.00169137 -2.9929e-05 1.54485e-06
-2.9929e-05 1.45227e-05 -3.91687e-07
1.54485e-06 -3.91687e-07 -8.08237e-05
0.00204236 -0.000126105 -2.27028e-06
-0.000126105 0.000175076 2.03298e-06
-2.27028e-06 2.03298e-06 9.1463e-05
0.000741355 -8.22426e-05 2.47165e-06
-8.22426e-05 -3.82279e-05 2.1577e-06
2.47165e-06 2.1577e-06 -0.000134066
0.000443796 -9.50968e-05 3.50171e-06
-9.50968e-05 -0.000201264 -1.35143e-06
3.50171e-06 -1.35143e-06 -0.000380569
0.00176661 -0.000165961 1.16802e-06
-0.000165961 0.000206427 -1.31254e-06
1.16802e-06 -1.31254e-06 8.85896e-05
0.000757153 -8.77704e-05 -5.75765e-06
-8.77704e-05 -1.10594e-05 6.204e-08
-5.75765e-06 6.204e-08 -0.000103156
0.000995977 -3.83897e-05 -8.43836e-07
-3.83897e-05 0.000135452 -6.60389e-07
-8.43836e-07 -6.60389e-07 3.26404e-05
0.00104838 -4.27037e-05 -8.94095e-07
-4.27037e-05 0.000149245 1.10074e-06
-8.94095e-07 1.10074e-06 6.21109e-05
0.000874223 -4.76522e-06 -1.03622e-06
-4.76522e-06 3.46578e-05 9.58779e-07
-1.03622e-06 9.58779e-07 -1.49225e-05
0.000905436 -3.43977e-05 -3.21537e-07
-3.43977e-05 6.68964e-05 4.49287e-08
-3.21537e-07 4.49287e-08 -1.01643e-05
0.000980381 6.6974e-06 -7.00078e-07
6.6974e-06 0.000100113 5.64094e-07
-7.00078e-07 5.64094e-07 3.4255e-05
0.000875281 -3.80601e-06 6.56982e-09
-3.80601e-06 3.63186e-05 2.73146e-07
6.56982e-09 2.73146e-07 -8.80052e-06
0.000740123 1.78271e-05 2.10746e-07
1.78271e-05 -2.20384e-05 9.45096e-07
2.10746e-07 9.45096e-07 -8.52781e-05
0.0017929 -1.31324e-05 -5.39271e-07
-1.31324e-05 6.87178e-05 1.04224e-06
-5.39271e-07 1.04224e-06 -1.30435e-05
0.000885578 9.88934e-06 4.63749e-07
9.88934e-06 5.14032e-05 -4.62484e-07
4.63749e-07 -4.62484e-07 -7.13865e-06
0.000846505 1.988e-05 5.24669e-07
1.988e-05 3.36676e-05 2.39762e-09
5.24669e-07 2.39762e-09 -3.11414e-05
0.000959072 4.26058e-05 -2.9301e-07
4.26058e-05 9.33413e-05 7.12086e-07
-2.9301e-07 7.12086e-07 2.35675e-05
0.00200617 -6.14385e-05 -3.48159e-06
-6.14385e-05 0.000116492 4.91111e-07
-3.48159e-06 4.91111e-07 3.13478e-05
0.00171573 -0.000157186 1.00909e-06
-0.000157186 3.38642e-05 -1.08446e-06
1.00909e-06 -1.08446e-06 -5.68722e-05
0.000972319 -9.9785e-05 -5.77411e-07
-9.9785e-05 0.0001101 -2.78711e-07
-5.77411e-07 -2.78711e-07 -1.86872e-05
0.00178731 -0.00016926 -5.84767e-07
-0.00016926 0.00037955 -8.23577e-07
-5.84767e-07 -8.23577e-07 0.000225212
0.000958296 -1.2489e-05 -3.78584e-07
-1.2489e-05 9.23742e-05 9.07526e-08
-3.78584e-07 9.07526e-08 1.92249e-05
0.000956812 -5.46586e-06 1.1197e-07
-5.46586e-06 9.45632e-05 6.72809e-07
1.1197e-07 6.72809e-07 1.60052e-05
0.000862217 -6.85726e-05 3.34043e-06
-6.85726e-05 8.07753e-05 -8.69703e-07
3.34043e-06 -8.69703e-07 -3.98072e-05
0.00103421 -4.09924e-05 2.35633e-07
-4.09924e-05 0.000151785 -8.87e-07
2.35633e-07 -8.87e-07 5.2957e-05
0.0017384 -6.19626e-06 -1.70183e-06
-6.19626e-06 -1.502e-05 1.83669e-06
-1.70183e-06 1.83669e-06 -0.000101137
0.00213366 -0.000145168 5.21209e-06
-0.000145168 0.000136143 -4.33076e-06
5.21209e-06 -4.33076e-06 5.40896e-05
0.0018067 -0.000172107 -3.34464e-06
-0.000172107 0.00025379 -1.61019e-06
-3.34464e-06 -1.61019e-06 0.000127667
0.00113113 -0.000126727 -2.13337e-06
-0.000126727 0.000195345 -5.96102e-08
-2.13337e-06 -5.96102e-08 5.52807e-05
0.00085511 2.2029e-05 -8.09565e-07
2.2029e-05 4.19897e-05 5.82082e-08
-8.09565e-07 5.82082e-08 -3.21656e-05
0.000891557 -3.61543e-05 7.28424e-07
-3.61543e-05 6.3886e-05 -4.75199e-07
7.28424e-07 -4.75199e-07 -9.89565e-06
0.00094663 -2.63679e-05 4.05857e-07
-2.63679e-05 8.79375e-05 6.66943e-08
4.05857e-07 6.66943e-08 7.96802e-06
0.000880542 -9.54089e-06 -1.83673e-06
-9.54089e-06 8.29912e-05 6.52374e-07
-1.83673e-06 6.52374e-07 -4.26183e-05
0.000455474 -3.72228e-05 -3.02652e-06
-3.72228e-05 -0.000886053 -8.34493e-06
-3.02652e-06 -8.34493e-06 -0.00131283
0.00100157 1.40077e-05 9.92063e-08
1.40077e-05 0.00011952 -1.01622e-06
9.92063e-08 -1.01622e-06 3.7516e-05
0.000845838 7.4489e-05 9.94789e-07
7.4489e-05 4.37935e-05 6.03722e-07
9.94789e-07 6.03722e-07 -6.31565e-05
0.00143405 4.14616e-05 3.48317e-06
4.14616e-05 -0.000172997 8.90227e-07
3.48317e-06 8.90227e-07 -0.000222678
0.00174886 0.000139158 -1.58144e-06
0.000139158 -2.29051e-05 7.21997e-07
-1.58144e-06 7.21997e-07 -8.42844e-05
0.00149628 0.000160747 -4.91886e-07
0.000160747 0.000206582 2.7474e-06
-4.91886e-07 2.7474e-06 3.91884e-05
0.00080814 9.40136e-05 1.87144e-06
9.40136e-05 2.73363e-05 3.46767e-07
1.87144e-06 3.46767e-07 -0.000119574
0.00277898 4.88573e-05 -2.47909e-06
4.88573e-05 0.000426906 1.81243e-07
-2.47909e-06 1.81243e-07 0.000322569
0.000982098 4.16423e-05 5.49388e-07
4.16423e-05 0.00011346 -3.59882e-07
5.49388e-07 -3.59882e-07 2.05855e-05
0.00204311 0.000103186 -3.98758e-06
0.000103186 0.000103685 -2.34339e-06
-3.98758e-06 -2.34339e-06 0.000107727
0.00105146 0.000101008 5.2408e-07
0.000101008 0.000162947 -3.54019e-07
5.2408e-07 -3.54019e-07 4.93879e-05
0.00105175 0.000116926 -2.27123e-07
0.000116926 0.000153072 3.39357e-07
-2.27123e-07 3.39357e-07 -2.49452e-05
0.000926453 0.000177428 -2.85049e-06
0.000177428 -0.000264236 2.88547e-07
-2.85049e-06 2.88547e-07 -0.000379873
0.00199066 -0.000174624 -2.93963e-05
-0.000174624 -4.97914e-05 -1.02109e-05
-2.93963e-05 -1.02109e-05 -0.00061931
0.00331857 -7.64236e-05 6.28548e-06
-7.64236e-05 0.000222513 -1.16901e-05
6.28548e-06 -1.16901e-05 -0.000308396
0.000900698 0.000145556 5.21101e-06
0.000145556 -0.000283057 1.52673e-06
5.21101e-06 1.52673e-06 -0.000289946
-0.00166934 -0.000262641 1.81662e-05
-0.000262641 -0.000609099 3.99862e-06
1.81662e-05 3.99862e-06 -0.000796091
0.000404542 -0.000468857 1.12202e-05
-0.000468857 -0.00100871 3.21681e-07
1.12202e-05 3.21681e-07 0.000107601
0.00109794 6.62498e-05 -1.61297e-07
6.62498e-05 0.000175698 -8.93086e-07
-1.61297e-07 -8.93086e-07 8.44803e-05
0.000621419 6.04947e-05 -8.72638e-05
6.04947e-05 0.000468261 -2.08743e-05
-8.72638e-05 -2.08743e-05 0.000210657
0.0015471 -0.000271237 -3.63129e-05
-0.000271237 0.000443664 -2.22641e-05
-3.63129e-05 -2.22641e-05 0.000794195
0.00124888 0.00012593 -5.86807e-06
0.00012593 -0.00022914 -9.98202e-08
-5.86807e-06 -9.98202e-08 -0.000197743
0.0011444 5.7589e-05 -2.24473e-06
5.7589e-05 0.000233895 -1.54964e-06
-2.24473e-06 -1.54964e-06 0.000107884
0.00127587 0.000139473 -6.32175e-06
0.000139473 0.000252596 -1.48624e-06
-6.32175e-06 -1.48624e-06 5.43055e-05
0.00144714 0.000186067 5.91907e-06
0.000186067 4.57201e-05 2.59056e-05
5.91907e-06 2.59056e-05 8.86337e-05
0.00646253 -0.000269987 -5.52014e-05
-0.000269987 0.00209646 -1.54374e-05
-5.52014e-05 -1.54374e-05 0.00111604
0.00152387 6.74834e-05 1.30984e-05
6.74834e-05 -0.000689015 2.14356e-05
1.30984e-05 2.14356e-05 -0.00144912
2.29106e-05 -0.000426308 -4.19808e-05
-0.000426308 -0.00030886 -1.4312e-05
-4.19808e-05 -1.4312e-05 4.47232e-06
0.000385041 -0.00021762 -3.14109e-05
-0.00021762 -0.00161157 1.65621e-06
-3.14109e-05 1.65621e-06 -0.000904364
0.00097873 2.31889e-06 -2.40914e-07
2.31889e-06 0.000101446 -7.87442e-07
-2.40914e-07 -7.87442e-07 2.18701e-05
0.000990425 2.58653e-05 -2.66198e-07
2.58653e-05 0.000102975 1.53604e-07
-2.66198e-07 1.53604e-07 2.28459e-05
0.0011696 5.90519e-05 -1.25351e-07
5.90519e-05 0.000200876 -8.86469e-07
-1.25351e-07 -8.86469e-07 0.000124676
0.000861156 1.93389e-06 -7.60351e-08
1.93389e-06 2.7756e-05 -3.51939e-07
-7.60351e-08 -3.51939e-07 -2.16308e-05
0.000912451 5.23479e-07 -5.10274e-07
5.23479e-07 5.57769e-05 -4.35049e-07
-5.10274e-07 -4.35049e-07 -2.24436e-06
0.000861901 -1.97605e-05 -2.50383e-07
-1.97605e-05 3.08423e-05 -6.58537e-07
-2.50383e-07 -6.58537e-07 -3.13041e-05
0.000943778 -7.39494e-06 -7.07566e-08
-7.39494e-06 7.91799e-05 -3.36661e-07
-7.07566e-08 -3.36661e-07 1.2786e-05
0.000936167 -8.67796e-06 -3.49808e-08
-8.67796e-06 7.69463e-05 9.28252e-09
-3.49808e-08 9.28252e-09 1.67118e-06
0.000743669 -4.84025e-06 3.88203e-07
-4.84025e-06 -3.81688e-05 3.96768e-07
3.88203e-07 3.96768e-07 -8.68185e-05
0.000880481 -2.1841e-06 -1.26928e-07
-2.1841e-06 4.50225e-05 -3.0816e-07
-1.26928e-07 -3.0816e-07 -1.98598e-05
0.000951262 -1.7981e-05 -1.83939e-07
-1.7981e-05 7.54589e-05 3.40189e-07
-1.83939e-07 3.40189e-07 1.18705e-05
0.000905215 2.01978e-05 3.9601e-07
2.01978e-05 5.13871e-05 -2.08338e-07
3.9601e-07 -2.08338e-07 -9.36427e-06
0.000944007 1.15653e-05 3.79569e-08
1.15653e-05 7.79574e-05 4.18019e-08
3.79569e-08 4.18019e-08 7.97173e-06
0.000858559 -6.12086e-06 5.78098e-07
-6.12086e-06 2.44413e-05 1.13604e-07
5.78098e-07 1.13604e-07 -4.19492e-05
0.00102206 3.15523e-05 -1.00556e-07
3.15523e-05 0.000116386 -9.47413e-07
-1.00556e-07 -9.47413e-07 4.54521e-05
0.000962913 -5.33762e-05 1.39205e-07
-5.33762e-05 7.91891e-05 1.82206e-07
1.39205e-07 1.82206e-07 1.49488e-05
0.000960473 -3.64656e-05 -4.06643e-07
-3.64656e-05 8.1521e-05 7.5332e-08
-4.06643e-07 7.5332e-08 2.05585e-05
0.000957249 -4.20257e-06 -3.77774e-07
-4.20257e-06 8.00698e-05 -6.37895e-08
-3.77774e-07 -6.37895e-08 2.03109e-05
0.000948226 4.53765e-05 -2.88015e-07
4.53765e-05 7.62624e-05 -2.78015e-07
-2.88015e-07 -2.78015e-07 1.23937e-05
0.000940875 2.28831e-05 -2.46305e-08
2.28831e-05 7.20693e-05 -2.29076e-08
-2.46305e-08 -2.29076e-08 4.85563e-06
0.000907711 3.9858e-05 1.66771e-07
3.9858e-05 5.82664e-05 3.45337e-07
1.66771e-07 3.45337e-07 -5.51861e-06
0.00104481 5.53094e-05 -2.11826e-08
5.53094e-05 0.000125067 -8.96545e-08
-2.11826e-08 -8.96545e-08 5.78959e-05
0.000859748 1.54052e-05 7.15778e-07
1.54052e-05 4.07431e-05 1.54267e-06
7.15778e-07 1.54267e-06 -2.89821e-05
0.00086924 1.23709e-05 -1.16147e-07
1.23709e-05 3.72757e-05 4.62969e-07
-1.16147e-07 4.62969e-07 -2.00047e-05
0.000879466 3.58362e-07 -3.72096e-08
3.58362e-07 4.43185e-05 -1.55068e-08
-3.72096e-08 -1.55068e-08 -1.4171e-05
0.000866346 2.56866e-06 -8.81026e-07
2.56866e-06 2.55335e-05 6.92676e-07
-8.81026e-07 6.92676e-07 -1.9883e-05
0.000857937 1.08039e-05 3.369e-07
1.08039e-05 2.58417e-05 -6.30089e-07
3.369e-07 -6.30089e-07 -3.08039e-05
0.000819104 -1.35764e-05 5.04796e-08
-1.35764e-05 4.32158e-07 2.05316e-08
5.04796e-08 2.05316e-08 -4.61097e-05
0.000842658 1.33201e-05 -3.91589e-07
1.33201e-05 4.1792e-06 1.6805e-06
-3.91589e-07 1.6805e-06 -2.41097e-05
0.000762011 5.90941e-06 3.67349e-07
5.90941e-06 -2.65795e-05 -4.28579e-07
3.67349e-07 -4.28579e-07 -7.62039e-05
0.000836312 6.16561e-06 -1.49882e-07
6.16561e-06 2.25569e-07 -4.55539e-09
-1.49882e-07 -4.55539e-09 -2.78394e-05
0.00137301 1.06695e-05 -2.76187e-06
1.06695e-05 0.000279121 4.29783e-06
-2.76187e-06 4.29783e-06 0.000280937
0.000830191 -3.61425e-06 5.05479e-07
-3.61425e-06 -3.09862e-06 -1.54206e-06
5.05479e-07 -1.54206e-06 -3.1031e-05
0.00108021 5.56268e-06 -1.2186e-06
5.56268e-06 0.000120694 6.23825e-07
-1.2186e-06 6.23825e-07 0.000121376
0.000994922 2.94449e-06 -2.56362e-06
2.94449e-06 7.53307e-05 3.93305e-06
-2.56362e-06 3.93305e-06 9.21887e-05
0.000789442 6.03647e-07 -3.71166e-08
6.03647e-07 -3.59869e-05 -3.04145e-06
-3.71166e-08 -3.04145e-06 -3.63963e-05
0.00212357 -5.34283e-07 2.00097e-06
-5.34283e-07 0.000679726 3.35808e-10
2.00097e-06 3.35808e-10 0.000702539
0.00100154 -3.71442e-06 -1.75107e-06
-3.71442e-06 7.86807e-05 -3.91049e-06
-1.75107e-06 -3.91049e-06 9.59144e-05
0.00086784 3.92613e-05 3.5474e-07
3.92613e-05 3.17343e-05 -1.55824e-07
3.5474e-07 -1.55824e-07 -1.20277e-05
0.000848906 -7.37754e-07 -6.94812e-08
-7.37754e-07 3.52697e-06 -1.59849e-06
-6.94812e-08 -1.59849e-06 -1.98317e-05
0.00084889 2.82654e-06 -4.94094e-08
2.82654e-06 3.54826e-06 1.52093e-09
-4.94094e-08 1.52093e-09 -2.04332e-05
0.000790738 4.61044e-06 4.37454e-08
4.61044e-06 -3.63455e-05 -3.0926e-06
4.37454e-08 -3.0926e-06 -3.43146e-05
0.000845019 6.38395e-06 -2.53755e-07
6.38395e-06 2.19027e-06 1.55754e-06
-2.53755e-07 1.55754e-06 -2.30312e-05
0.000783857 9.79053e-06 5.22234e-08
9.79053e-06 -3.84897e-05 -6.33073e-07
5.22234e-08 -6.33073e-07 -3.74346e-05
0.00205707 1.29486e-05 6.7452e-06
1.29486e-05 0.000645859 -3.96003e-06
6.7452e-06 -3.96003e-06 0.0006691
0.00132651 1.85855e-05 -1.269e-06
1.85855e-05 0.000255471 1.94035e-06
-1.269e-06 1.94035e-06 0.000257673
0.00155431 1.70825e-05 3.47008e-07
1.70825e-05 0.000380066 1.23706e-06
3.47008e-07 1.23706e-06 0.000399226
0.00103777 1.93e-05 -1.42109e-05
1.93e-05 0.0001077 6.41599e-06
-1.42109e-05 6.41599e-06 0.000122737
-0.000648789 2.02079e-05 5.47212e-06
2.02079e-05 -0.00122896 3.72809e-06
5.47212e-06 3.72809e-06 -0.00129154
0.00195249 5.83637e-06 2.65554e-06
5.83637e-06 0.00016311 -2.473e-08
2.65554e-06 -2.473e-08 8.13754e-05
0.00217615 1.81037e-05 -5.3109e-07
1.81037e-05 0.000263206 -2.49461e-06
-5.3109e-07 -2.49461e-06 0.000197039
0.00111847 -6.5619e-05 2.74656e-05
-6.5619e-05 -0.000268483 -1.20303e-07
2.74656e-05 -1.20303e-07 -0.000502821
0.00173977 -3.92105e-05 -1.64989e-06
-3.92105e-05 5.2294e-05 -3.04822e-08
-1.64989e-06 -3.04822e-08 -2.87916e-05
0.00175521 1.54848e-05 -3.63805e-06
1.54848e-05 -1.54634e-05 -1.79595e-06
-3.63805e-06 -1.79595e-06 -9.91581e-05
0.00200471 2.9505e-05 -1.17319e-05
2.9505e-05 0.000228185 1.61241e-06
-1.17319e-05 1.61241e-06 0.000139313
0.00156361 -7.68809e-05 0.000127739
-7.68809e-05 -4.33838e-07 -2.13451e-06
0.000127739 -2.13451e-06 -0.000329366
0.00611103 9.38278e-05 -1.68577e-05
9.38278e-05 0.00184261 -1.90047e-08
-1.68577e-05 -1.90047e-08 0.00108121
0.00418745 0.000550519 -1.58469e-05
0.000550519 0.00182746 3.83749e-06
-1.58469e-05 3.83749e-06 0.00204027
0.0017706 0.000464914 -1.8128e-05
0.000464914 0.000175214 6.7474e-06
-1.8128e-05 6.7474e-06 0.00105599
0.000736371 -4.02996e-05 1.12842e-06
-4.02996e-05 -2.63451e-05 -6.0339e-07
1.12842e-06 -6.0339e-07 -8.23843e-05
0.000879521 -9.50879e-06 1.9516e-07
-9.50879e-06 3.60385e-05 -3.28065e-08
1.9516e-07 -3.28065e-08 -6.34174e-06
0.000872737 -4.50899e-05 -8.26731e-07
-4.50899e-05 3.55752e-05 8.22956e-07
-8.26731e-07 8.22956e-07 -9.35769e-06
0.000843616 -1.21469e-05 -3.17819e-07
-1.21469e-05 2.80985e-05 4.0584e-08
-3.17819e-07 4.0584e-08 -2.78356e-05
0.000878845 4.00163e-05 3.7023e-08
4.00163e-05 5.68791e-05 7.69918e-07
3.7023e-08 7.69918e-07 -9.55221e-06
0.000930307 5.07768e-05 1.79784e-07
5.07768e-05 7.7404e-05 7.86662e-07
1.79784e-07 7.86662e-07 1.49792e-05
0.000916403 -2.83547e-05 7.18842e-07
-2.83547e-05 6.87649e-05 -7.53233e-07
7.18842e-07 -7.53233e-07 1.24198e-05
0.000831645 -4.35385e-05 -5.71017e-07
-4.35385e-05 2.55925e-05 4.8078e-07
-5.71017e-07 4.8078e-07 -3.09339e-05
0.00141829 -8.09217e-06 2.40372e-06
-8.09217e-06 -0.000109418 -8.77429e-07
2.40372e-06 -8.77429e-07 -0.000191531
0.0015604 -5.74118e-05 -1.37843e-06
-5.74118e-05 -0.000120176 3.0985e-07
-1.37843e-06 3.0985e-07 -0.000208032
0.00171606 -0.000152492 -4.09905e-06
-0.000152492 4.09614e-05 2.7108e-06
-4.09905e-06 2.7108e-06 -4.936e-05
0.000874773 -0.000100653 1.45351e-06
-0.000100653 4.75028e-05 1.07424e-06
1.45351e-06 1.07424e-06 -7.8592e-05
0.00170924 -0.000166311 2.00646e-06
-0.000166311 0.00034616 -3.6988e-07
2.00646e-06 -3.6988e-07 0.000183701
0.000926752 -6.99322e-05 1.82001e-07
-6.99322e-05 0.000108455 -1.08305e-06
1.82001e-07 -1.08305e-06 -7.28096e-06
0.00120049 -6.63148e-05 2.12556e-07
-6.63148e-05 0.000241039 -4.23004e-07
2.12556e-07 -4.23004e-07 0.000137058
0.000872108 -1.8822e-05 -7.83657e-07
-1.8822e-05 5.55336e-05 2.42569e-07
-7.83657e-07 2.42569e-07 -2.43987e-05
0.000862931 6.27021e-06 4.07972e-07
6.27021e-06 4.25338e-05 4.3843e-07
4.07972e-07 4.3843e-07 -2.16221e-05
0.00102523 4.78154e-06 -7.94052e-07
4.78154e-06 0.000124812 7.22588e-08
-7.94052e-07 7.22588e-08 5.31741e-05
0.00105964 1.35995e-06 3.89057e-07
1.35995e-06 0.000141265 -2.37524e-08
3.89057e-07 -2.37524e-08 8.49347e-05
0.000837809 6.97718e-05 1.17054e-06
6.97718e-05 3.02349e-05 1.19384e-06
1.17054e-06 1.19384e-06 -4.0582e-05
0.00158055 -2.00648e-06 -1.71183e-07
-2.00648e-06 -9.85065e-05 -3.30177e-06
-1.71183e-07 -3.30177e-06 -0.000183408
0.000870955 2.23687e-05 -3.70187e-07
2.23687e-05 5.10311e-05 3.55408e-07
-3.70187e-07 3.55408e-07 -2.17789e-05
0.000883006 -2.45196e-05 -3.1297e-07
-2.45196e-05 5.64459e-05 -3.17409e-07
-3.1297e-07 -3.17409e-07 -1.61593e-05
0.00220904 -0.000146643 -6.27399e-07
-0.000146643 0.000184076 1.84257e-06
-6.27399e-07 1.84257e-06 0.000104097
0.00110449 -0.000144758 8.35625e-07
-0.000144758 -9.11593e-05 3.31451e-07
8.35625e-07 3.31451e-07 -0.000209563
0.00118134 -0.000130326 8.36966e-07
-0.000130326 0.000216692 -9.88438e-07
8.36966e-07 -9.88438e-07 7.09655e-05
0.000974654 -2.86776e-05 1.22673e-07
-2.86776e-05 0.000103175 -2.44589e-07
1.22673e-07 -2.44589e-07 2.09591e-05
0.00102308 -2.46868e-05 1.58265e-07
-2.46868e-05 0.000157854 3.93765e-07
1.58265e-07 3.93765e-07 3.16462e-05
0.00253749 -8.79511e-05 -7.96066e-06
-8.79511e-05 0.000442918 1.0891e-05
-7.96066e-06 1.0891e-05 0.000367033
0.00271725 -0.000232037 -2.40672e-06
-0.000232037 0.000534161 -6.00796e-06
-2.40672e-06 -6.00796e-06 0.000437868
0.000143235 -0.000108999 -4.37222e-06
-0.000108999 -0.000382245 -2.43047e-07
-4.37222e-06 -2.43047e-07 -0.000511121
0.00131724 -8.80739e-05 -4.02946e-06
-8.80739e-05 0.000307301 2.44538e-06
-4.02946e-06 2.44538e-06 0.000156195
0.000755368 -6.32338e-05 8.0133e-07
-6.32338e-05 -9.19667e-06 -2.50514e-08
8.0133e-07 -2.50514e-08 -8.55493e-05
0.000954917 -4.47042e-05 1.51809e-06
-4.47042e-05 9.18578e-05 1.1256e-07
1.51809e-06 1.1256e-07 1.14615e-05
0.000995925 -1.80767e-05 -1.69538e-06
-1.80767e-05 0.0001161 5.00538e-07
-1.69538e-06 5.00538e-07 2.0976e-05
-0.00290321 -1.64822e-05 -1.38116e-05
-1.64822e-05 -0.00138041 -1.42635e-06
-1.38116e-05 -1.42635e-06 -0.00119544
0.00693202 -2.78096e-05 -2.28011e-05
-2.78096e-05 0.00234422 -1.51476e-06
-2.28011e-05 -1.51476e-06 0.0017826
0.000906894 3.96188e-05 1.11958e-06
3.96188e-05 7.8351e-05 -6.38678e-07
1.11958e-06 -6.38678e-07 -1.40799e-05
0.000937961 9.51039e-05 1.90186e-06
9.51039e-05 0.000106134 -4.85679e-07
1.90186e-06 -4.85679e-07 -5.4453e-06
0.00176426 9.71644e-05 -3.66996e-06
9.71644e-05 -4.38232e-05 3.48388e-06
-3.66996e-06 3.48388e-06 -3.26496e-05
0.00180371 0.00021011 -4.86786e-07
0.00021011 0.000148292 1.4395e-06
-4.86786e-07 1.4395e-06 4.05964e-05
0.00103384 0.000117669 2.67831e-06
0.000117669 0.000150288 7.78178e-07
2.67831e-06 7.78178e-07 -2.72314e-05
0.00551457 2.25171e-05 3.44995e-05
2.25171e-05 0.00155382 -8.21054e-06
3.44995e-05 -8.21054e-06 0.000814438
0.00375504 -6.4732e-05 -6.96148e-05
-6.4732e-05 0.000406935 -1.73355e-05
-6.96148e-05 -1.73355e-05 -1.5073e-05
0.000357536 0.000113649 -4.01082e-06
0.000113649 -0.000570542 -1.68072e-05
-4.01082e-06 -1.68072e-05 -0.000560706
0.00324956 -0.000423748 2.90312e-05
-0.000423748 0.00159825 1.5739e-05
2.90312e-05 1.5739e-05 0.00160068
-0.00173085 -0.000510714 1.41574e-05
-0.000510714 -0.00218097 -1.40224e-05
1.41574e-05 -1.40224e-05 -0.000915221
0.00102265 7.92073e-05 2.62156e-08
7.92073e-05 0.000142168 -2.60121e-07
2.62156e-08 -2.60121e-07 4.87065e-05
-0.00243085 -0.00010736 1.83655e-06
-0.00010736 -0.00119926 -1.31768e-06
1.83655e-06 -1.31768e-06 -0.00103734
0.000203503 -0.000255089 -1.12253e-05
-0.000255089 -0.000137984 -2.33779e-06
-1.12253e-05 -2.33779e-06 3.7878e-05
0.00215033 0.000153345 -1.53846e-06
0.000153345 0.000210882 -1.87625e-06
-1.53846e-06 -1.87625e-06 0.000242917
0.000943621 6.63113e-05 -4.75253e-08
6.63113e-05 0.000139922 -9.16098e-07
-4.75253e-08 -9.16098e-07 1.39026e-05
0.000683503 0.000111891 9.95953e-08
0.000111891 -4.79384e-05 2.89564e-07
9.95953e-08 2.89564e-07 -0.000244725
-0.000225325 0.000111011 1.57124e-05
0.000111011 -0.000751504 7.99414e-06
1.57124e-05 7.99414e-06 -0.000686123
0.00488095 -0.000197429 -4.81903e-08
-0.000197429 0.00121101 -4.19195e-08
-4.81903e-08 -4.19195e-08 0.000168275
0.00423052 0.0001368 -2.49987e-05
0.0001368 0.000752454 -1.64557e-05
-2.49987e-05 -1.64557e-05 0.000248039
0.00374419 -0.000589816 1.26556e-05
-0.000589816 0.00130963 -2.68781e-06
1.26556e-05 -2.68781e-06 0.00143678
0.000750139 -0.000274767 8.97749e-06
-0.000274767 -0.00156188 2.51921e-05
8.97749e-06 2.51921e-05 -0.000671927
0.00113524 4.53646e-05 -2.3522e-06
4.53646e-05 0.000197821 -1.97147e-06
-2.3522e-06 -1.97147e-06 0.000114148
-0.000913285 -7.97099e-05 -4.84247e-05
-7.97099e-05 -0.000409892 -6.73981e-06
-4.84247e-05 -6.73981e-06 -0.000607887
0.00171132 -2.42106e-05 -3.4494e-05
-2.42106e-05 3.75671e-05 -3.23382e-05
-3.4494e-05 -3.23382e-05 -6.58985e-05
0.000814711 0.000121168 -9.89046e-06
0.000121168 -0.000145518 -7.33356e-06
-9.89046e-06 -7.33356e-06 -0.00016929
0.00161772 0.000113775 -1.02394e-05
0.000113775 0.000539246 -2.59239e-06
-1.02394e-05 -2.59239e-06 0.000387479
0.000925101 4.41489e-05 -1.11493e-05
4.41489e-05 0.000180604 -4.27461e-06
-1.11493e-05 -4.27461e-06 0.000123647
0.00290703 0.000364316 -9.48326e-05
0.000364316 0.000413364 1.36072e-05
-9.48326e-05 1.36072e-05 -2.3579e-05
2.20592e-05 -0.000260976 2.17689e-05
-0.000260976 -0.000721499 2.31425e-05
2.17689e-05 2.31425e-05 -0.00205716
0.00627615 -0.000582484 -5.26893e-05
-0.000582484 0.00167223 -2.42135e-06
-5.26893e-05 -2.42135e-06 0.00187806
0.000587161 -0.000124763 -7.69764e-06
-0.000124763 -0.0016142 -1.27512e-05
-7.69764e-06 -1.27512e-05 -0.00103233
0.000934026 3.21804e-05 2.2049e-07
3.21804e-05 7.67361e-05 7.74397e-07
2.2049e-07 7.74397e-07 -4.53048e-06
0.00107938 5.67487e-05 1.01968e-06
5.67487e-05 0.000153224 6.73341e-07
1.01968e-06 6.73341e-07 7.62004e-05
0.00065629 5.59918e-05 9.24756e-07
5.59918e-05 -5.19554e-05 -2.89281e-06
9.24756e-07 -2.89281e-06 -0.000124845
0.0007587 2.40556e-05 1.94429e-07
2.40556e-05 -3.02689e-05 -3.96373e-07
1.94429e-07 -3.96373e-07 -7.89581e-05
0.000974013 2.98406e-05 -5.40675e-07
2.98406e-05 9.05327e-05 -4.96749e-07
-5.40675e-07 -4.96749e-07 2.88089e-05
0.00104099 -3.26924e-05 -1.3292e-07
-3.26924e-05 0.000123177 5.80425e-08
-1.3292e-07 5.80425e-08 5.994e-05
0.000872953 -7.39736e-06 -7.19166e-07
-7.39736e-06 4.20639e-05 -4.68403e-07
-7.19166e-07 -4.68403e-07 -2.2714e-05
0.00093647 8.31803e-06 -6.27427e-07
8.31803e-06 7.31249e-05 4.64893e-07
-6.27427e-07 4.64893e-07 3.12709e-06
0.000943367 1.53317e-05 4.03866e-07
1.53317e-05 7.31255e-05 -3.97303e-07
4.03866e-07 -3.97303e-07 1.18157e-05
0.000929658 -9.3454e-06 -4.50112e-08
-9.3454e-06 6.40379e-05 -3.17687e-08
-4.50112e-08 -3.17687e-08 -2.42469e-06
0.000945796 -3.74688e-05 1.68062e-07
-3.74688e-05 7.0607e-05 6.85023e-08
1.68062e-07 6.85023e-08 5.87485e-06
0.000964097 1.59764e-05 5.25797e-08
1.59764e-05 8.74656e-05 1.05759e-07
5.25797e-08 1.05759e-07 1.79176e-05
0.00120644 -2.48442e-05 1.11625e-06
-2.48442e-05 0.000209985 -7.42625e-07
1.11625e-06 -7.42625e-07 0.000143261
0.000945407 -1.91387e-05 5.6232e-08
-1.91387e-05 6.56209e-05 -1.31433e-07
5.6232e-08 -1.31433e-07 -9.00065e-07
0.00095285 3.54226e-06 1.93461e-07
3.54226e-06 7.7727e-05 2.03565e-07
1.93461e-07 2.03565e-07 9.52526e-06
0.000960997 -2.68815e-05 9.45946e-08
-2.68815e-05 8.40725e-05 -5.63381e-07
9.45946e-08 -5.63381e-07 2.27398e-05
0.000873442 2.14356e-05 -2.37818e-07
2.14356e-05 3.29758e-05 -5.6988e-07
-2.37818e-07 -5.6988e-07 -2.89611e-05
0.000931875 -1.39853e-06 2.56484e-07
-1.39853e-06 6.74229e-05 -1.74739e-07
2.56484e-07 -1.74739e-07 5.00854e-07
0.000893809 3.89508e-05 -8.46442e-08
3.89508e-05 5.08171e-05 -7.46056e-09
-8.46442e-08 -7.46056e-09 -1.28014e-05
0.000975575 3.74109e-05 -5.15976e-07
3.74109e-05 8.6004e-05 -4.24242e-07
-5.15976e-07 -4.24242e-07 2.02788e-05
0.000860947 3.13609e-05 6.82815e-07
3.13609e-05 3.67254e-05 9.52216e-07
6.82815e-07 9.52216e-07 -2.84035e-05
0.000975863 3.59086e-05 4.14083e-07
3.59086e-05 8.92158e-05 1.15227e-07
4.14083e-07 1.15227e-07 2.00116e-05
0.00092019 2.84936e-05 1.20007e-07
2.84936e-05 5.91554e-05 3.38966e-07
1.20007e-07 3.38966e-07 -8.19419e-06
0.000881461 3.3924e-06 1.00794e-06
3.3924e-06 5.15281e-05 5.55218e-07
1.00794e-06 5.55218e-07 -2.91271e-05
0.000798316 -5.08237e-05 -1.044e-07
-5.08237e-05 3.40413e-05 6.75271e-07
-1.044e-07 6.75271e-07 -6.44485e-05
0.000739443 2.97975e-06 -2.02472e-07
2.97975e-06 -1.79586e-05 5.96639e-07
-2.02472e-07 5.96639e-07 -9.43728e-05
0.000885744 1.53311e-05 1.53228e-07
1.53311e-05 5.54523e-05 3.89466e-07
1.53228e-07 3.89466e-07 -1.46516e-05
0.000879885 1.74321e-05 1.91695e-07
1.74321e-05 4.40076e-05 1.08463e-06
1.91695e-07 1.08463e-06 -1.55745e-05
0.000886119 1.05818e-05 -1.76241e-07
1.05818e-05 4.71105e-05 -6.03609e-08
-1.76241e-07 -6.03609e-08 -1.08895e-05
0.000865518 1.89314e-05 -4.56592e-07
1.89314e-05 2.71625e-05 7.48036e-07
-4.56592e-07 7.48036e-07 -1.89799e-05
0.000894794 1.20417e-05 3.26083e-07
1.20417e-05 5.05628e-05 -2.94759e-07
3.26083e-07 -2.94759e-07 -6.71827e-06
0.000875687 2.83112e-06 -6.5655e-08
2.83112e-06 3.06775e-05 7.78971e-09
-6.5655e-08 7.78971e-09 -1.50208e-05
0.00083825 1.67912e-05 -7.20931e-07
1.67912e-05 3.69639e-06 1.68441e-06
-7.20931e-07 1.68441e-06 -2.50679e-05
0.000766104 1.98082e-06 4.51143e-07
1.98082e-06 -2.91529e-05 -7.03457e-07
4.51143e-07 -7.03457e-07 -7.51386e-05
0.000840311 8.97354e-06 -7.72701e-08
8.97354e-06 2.75336e-06 -3.85066e-09
-7.72701e-08 -3.85066e-09 -2.54549e-05
0.00136839 1.61102e-05 -4.45362e-06
1.61102e-05 0.000279012 4.30059e-06
-4.45362e-06 4.30059e-06 0.000280463
0.000834505 5.23895e-07 6.31362e-07
5.23895e-07 -9.48653e-07 -1.5944e-06
6.31362e-07 -1.5944e-06 -2.89334e-05
0.00107737 1.06307e-05 -1.91889e-06
1.06307e-05 0.000120726 6.10178e-07
-1.91889e-06 6.10178e-07 0.000121159
0.000949744 9.42723e-06 -6.43809e-07
9.42723e-06 5.25736e-05 1.55399e-06
-6.43809e-07 1.55399e-06 6.93204e-05
0.000785152 5.11643e-06 2.61564e-07
5.11643e-06 -3.76882e-05 -3.06272e-06
2.61564e-07 -3.06272e-06 -3.83845e-05
0.00213177 6.1154e-06 1.84385e-06
6.1154e-06 0.000684599 1.43201e-08
1.84385e-06 1.43201e-08 0.000707231
0.00212666 -9.70344e-08 1.00687e-06
-9.70344e-08 0.000681381 -4.03538e-06
1.00687e-06 -4.03538e-06 0.000704151
0.00111014 2.51783e-05 -9.02793e-07
2.51783e-05 0.000158732 -3.40087e-07
-9.02793e-07 -3.40087e-07 0.00011657
0.000849221 -4.39691e-06 -2.15198e-07
-4.39691e-06 4.48755e-06 -1.53176e-06
-2.15198e-07 -1.53176e-06 -1.91103e-05
0.000873401 2.71883e-06 6.65101e-07
2.71883e-06 3.44599e-05 4.48693e-07
6.65101e-07 4.48693e-07 -8.96354e-06
0.000796501 -5.24961e-07 -1.01323e-07
-5.24961e-07 -3.37101e-05 -3.05539e-06
-1.01323e-07 -3.05539e-06 -3.12369e-05
0.000850487 -1.20125e-06 3.02988e-08
-1.20125e-06 4.30611e-06 2.29768e-09
3.02988e-08 2.29768e-09 -1.90528e-05
0.000847541 2.20284e-06 -1.77432e-07
2.20284e-06 2.71463e-06 1.58185e-06
-1.77432e-07 1.58185e-06 -2.12404e-05
0.000793587 4.81146e-06 -1.30913e-07
4.81146e-06 -3.482e-05 9.92446e-09
-1.30913e-07 9.92446e-09 -3.28275e-05
0.00202941 6.21748e-06 2.97162e-06
6.21748e-06 0.000629568 -3.9721e-06
2.97162e-06 -3.9721e-06 0.000653401
0.00131883 1.25699e-05 -7.65333e-07
1.25699e-05 0.000248239 1.89769e-06
-7.65333e-07 1.89769e-06 0.000251961
0.00151327 1.15999e-05 1.9573e-06
1.15999e-05 0.000354742 3.09454e-08
1.9573e-06 3.09454e-08 0.000375078
0.00102956 1.42405e-05 -1.18778e-05
1.42405e-05 9.85899e-05 6.39756e-06
-1.18778e-05 6.39756e-06 0.00011507
-0.00441325 0.000122226 -1.29228e-05
0.000122226 -0.00217951 4.8945e-06
-1.29228e-05 4.8945e-06 -0.00211229
-0.00111336 0.000227563 -8.78007e-06
0.000227563 -0.000782075 1.32803e-05
-8.78007e-06 1.32803e-05 -0.000601368
0.000615372 -2.33168e-05 -9.47623e-05
-2.33168e-05 -0.000556476 -9.77175e-06
-9.47623e-05 -9.77175e-06 -0.000777869
0.0025539 -4.14256e-05 3.04282e-06
-4.14256e-05 0.000526977 -2.70395e-07
3.04282e-06 -2.70395e-07 0.000433971
0.00144316 1.22558e-05 -8.84499e-06
1.22558e-05 -0.000206625 -7.86923e-07
-8.84499e-06 -7.86923e-07 -0.000288244
0.0011933 -2.16006e-05 2.28944e-05
-2.16006e-05 -1.41446e-05 -2.41568e-06
2.28944e-05 -2.41568e-06 -0.000261308
0.00210655 3.51113e-05 8.77234e-09
3.51113e-05 0.000287639 1.67601e-06
8.77234e-09 1.67601e-06 0.000200013
0.00523137 0.00026106 -2.09498e-05
0.00026106 0.00134757 -6.50293e-06
-2.09498e-05 -6.50293e-06 0.000695538
-0.00328984 0.000263962 -1.12924e-05
0.000263962 -0.00137835 -1.98008e-06
-1.12924e-05 -1.98008e-06 -0.00136275
5.44062e-05 0.000493648 3.75072e-06
0.000493648 -0.00103485 -6.48751e-06
3.75072e-06 -6.48751e-06 5.06661e-05
0.00163054 -8.98976e-06 5.07216e-05
-8.98976e-06 0.000181338 -1.0918e-05
5.07216e-05 -1.0918e-05 -5.23498e-05
0.00633015 0.000425272 1.54871e-06
0.000425272 0.00189443 -8.35703e-06
1.54871e-06 -8.35703e-06 0.00101928
-8.03479e-05 0.000448211 -3.96655e-05
0.000448211 -0.000321442 1.23612e-05
-3.96655e-05 1.23612e-05 4.10902e-05
0.00299733 0.000265585 -4.3008e-05
0.000265585 -2.19727e-05 2.28064e-05
-4.3008e-05 2.28064e-05 0.00063448
0.000862468 3.35622e-05 -6.72281e-07
3.35622e-05 4.70725e-05 -7.71642e-08
-6.72281e-07 -7.71642e-08 -2.23892e-05
0.000796072 -1.18213e-05 1.03203e-07
-1.18213e-05 4.3144e-06 -3.45791e-07
1.03203e-07 -3.45791e-07 -5.09661e-05
0.000871056 -4.25982e-05 -8.04276e-07
-4.25982e-05 3.35036e-05 7.91775e-07
-8.04276e-07 7.91775e-07 -1.01571e-05
0.000792043 6.74542e-06 2.10151e-07
6.74542e-06 2.13808e-06 2.50493e-07
2.10151e-07 2.50493e-07 -5.4751e-05
0.000890325 4.55592e-05 7.55636e-07
4.55592e-05 6.41428e-05 7.58866e-07
7.55636e-07 7.58866e-07 -1.70992e-06
0.000928871 2.97083e-05 -6.73439e-07
2.97083e-05 8.14769e-05 3.61116e-07
-6.73439e-07 3.61116e-07 1.30034e-05
0.000898314 3.51404e-05 1.12618e-06
3.51404e-05 6.53209e-05 1.00132e-06
1.12618e-06 1.00132e-06 -6.21935e-07
0.000858069 -1.8493e-05 6.37129e-07
-1.8493e-05 3.68824e-05 2.28003e-07
6.37129e-07 2.28003e-07 -2.41219e-05
0.000854178 -2.68523e-05 3.86366e-07
-2.68523e-05 3.75925e-05 -5.55274e-07
3.86366e-07 -5.55274e-07 -2.08309e-05
0.000777067 -3.8582e-05 -2.37098e-07
-3.8582e-05 -2.42067e-06 5.12959e-07
-2.37098e-07 5.12959e-07 -6.01547e-05
0.00144448 2.62034e-06 -5.97662e-07
2.62034e-06 -0.00017261 -1.08582e-06
-5.97662e-07 -1.08582e-06 -0.000256625
0.00199102 -0.000140215 -2.57022e-06
-0.000140215 8.47486e-05 4.37642e-06
-2.57022e-06 4.37642e-06 7.93938e-06
0.000332282 -0.000113661 4.24535e-06
-0.000113661 -0.000470698 1.47292e-06
4.24535e-06 1.47292e-06 -0.000581201
0.0012577 -0.000135489 2.33187e-06
-0.000135489 0.000251045 -3.20296e-07
2.33187e-06 -3.20296e-07 0.000101498
0.00112429 -4.15459e-05 2.72427e-06
-4.15459e-05 0.00020988 -8.96125e-07
2.72427e-06 -8.96125e-07 8.37968e-05
0.00102187 -4.12099e-05 -2.09255e-07
-4.12099e-05 0.000126959 -5.68237e-07
-2.09255e-07 -5.68237e-07 4.33128e-05
0.000874826 -2.08982e-05 -9.38538e-07
-2.08982e-05 4.92701e-05 -1.99347e-07
-9.38538e-07 -1.99347e-07 -2.21711e-05
0.000888431 2.31584e-05 -5.70797e-07
2.31584e-05 6.10051e-05 1.05443e-07
-5.70797e-07 1.05443e-07 -1.0531e-05
0.00175404 -6.84348e-05 -6.12733e-06
-6.84348e-05 4.41948e-05 1.94645e-06
-6.12733e-06 1.94645e-06 -3.24025e-05
0.000806069 -2.96138e-05 -1.79578e-07
-2.96138e-05 1.65947e-05 1.01968e-07
-1.79578e-07 1.01968e-07 -6.03577e-05
0.000906194 -4.73265e-05 5.94223e-07
-4.73265e-05 6.50109e-05 -3.2689e-07
5.94223e-07 -3.2689e-07 -1.63348e-05
0.00202921 -0.00020341 8.69305e-07
-0.00020341 0.000205546 -9.52543e-07
8.69305e-07 -9.52543e-07 0.000110532
0.0004618 -0.000118079 1.28061e-06
-0.000118079 -0.000202512 1.47671e-06
1.28061e-06 1.47671e-06 -0.000330651
0.00118007 -8.38899e-05 1.7757e-06
-8.38899e-05 0.000227035 -4.93764e-07
1.7757e-06 -4.93764e-07 8.24956e-05
0.00103894 -3.17426e-05 -7.48009e-07
-3.17426e-05 0.000140134 -3.64193e-07
-7.48009e-07 -3.64193e-07 4.04633e-05
0.00275223 -0.000200283 -1.77421e-07
-0.000200283 0.000689392 -2.66491e-06
-1.77421e-07 -2.66491e-06 0.000601291
0.00215771 -0.000213392 -8.02998e-06
-0.000213392 0.000535877 -2.09734e-07
-8.02998e-06 -2.09734e-07 0.000420684
0.000877075 -9.98747e-06 -4.55825e-06
-9.98747e-06 9.02038e-05 4.25657e-06
-4.55825e-06 4.25657e-06 -4.20407e-05
0.000881811 2.66492e-05 4.51687e-07
2.66492e-05 5.66414e-05 1.07948e-06
4.51687e-07 1.07948e-06 -2.0725e-05
0.000859552 -7.88891e-05 1.22482e-06
-7.88891e-05 4.03341e-05 1.65025e-07
1.22482e-06 1.65025e-07 -4.48008e-05
0.00101376 -3.80452e-05 2.38578e-07
-3.80452e-05 0.000107145 1.58439e-06
2.38578e-07 1.58439e-06 2.13378e-05
0.00111423 2.74514e-06 -4.85799e-05
2.74514e-06 0.000799402 1.0031e-06
-4.85799e-05 1.0031e-06 0.00070868
0.00129957 -1.14574e-05 1.33444e-05
-1.14574e-05 0.000672922 2.52313e-06
1.33444e-05 2.52313e-06 0.000634489
0.000178004 0.000163677 -4.4398e-05
0.000163677 -0.00105145 1.73008e-05
-4.4398e-05 1.73008e-05 -0.00159226
0.000963071 7.78296e-05 7.52574e-07
7.78296e-05 0.000113557 6.8765e-07
7.52574e-07 6.8765e-07 1.98806e-05
0.000759427 7.47988e-05 3.1617e-06
7.47988e-05 5.31518e-05 3.78599e-07
3.1617e-06 3.78599e-07 -7.33254e-05
0.00319238 0.000183545 2.22416e-06
0.000183545 0.000731189 -1.47613e-06
2.22416e-06 -1.47613e-06 0.000750354
0.000134186 8.57404e-05 5.45247e-06
8.57404e-05 -0.000324728 1.23792e-06
5.45247e-06 1.23792e-06 -0.000523003
0.00310601 -0.000276242 4.82936e-05
-0.000276242 0.00132912 9.33514e-06
4.82936e-05 9.33514e-06 0.00150065
0.00101076 -0.000274638 6.60213e-06
-0.000274638 -0.00059843 1.69726e-05
6.60213e-06 1.69726e-05 -0.00139578
0.00462016 0.000176973 -7.68904e-05
0.000176973 0.000729702 -5.52886e-05
-7.68904e-05 -5.52886e-05 7.71668e-05
-0.00133466 8.2859e-05 6.76382e-06
8.2859e-05 -0.00124756 -4.33786e-07
6.76382e-06 -4.33786e-07 -0.00120418
-0.00226716 -0.000347018 5.35148e-05
-0.000347018 -0.0013113 2.39974e-05
5.35148e-05 2.39974e-05 -0.00122923
0.00152458 -0.000254707 3.56829e-05
-0.000254707 0.000514113 1.78371e-05
3.56829e-05 1.78371e-05 0.000678003
0.00340244 -0.00033445 4.25753e-05
-0.00033445 2.06938e-05 2.52653e-05
4.25753e-05 2.52653e-05 0.00101137
0.000991581 5.62028e-05 2.74976e-07
5.62028e-05 0.00012811 -2.51488e-07
2.74976e-07 -2.51488e-07 4.30322e-05
6.86439e-05 -0.000101329 -1.67671e-05
-0.000101329 6.75167e-05 -3.35039e-06
-1.67671e-05 -3.35039e-06 1.56849e-06
0.00195641 -2.31885e-05 -3.12993e-06
-2.31885e-05 0.000170667 -9.11631e-06
-3.12993e-06 -9.11631e-06 6.97543e-05
0.00130776 0.000108477 -3.39859e-06
0.000108477 0.00014183 -3.82276e-07
-3.39859e-06 -3.82276e-07 6.86816e-05
0.000810958 6.17972e-05 -1.61845e-06
6.17972e-05 0.000141545 -5.61168e-07
-1.61845e-06 -5.61168e-07 -1.71194e-05
0.00020171 6.1091e-05 9.73807e-06
6.1091e-05 -0.000181471 -1.21435e-05
9.73807e-06 -1.21435e-05 -0.000218375
0.00557233 0.000494549 -3.35698e-05
0.000494549 0.00155624 -1.33281e-05
-3.35698e-05 -1.33281e-05 0.000908258
0.00781171 -0.000376105 4.76974e-06
-0.000376105 0.00257032 4.34365e-06
4.76974e-06 4.34365e-06 0.00145479
0.000359186 -0.000330095 5.61239e-06
-0.000330095 -0.00106692 7.26476e-06
5.61239e-06 7.26476e-06 -0.00084849
0.00338335 -0.000169834 2.38493e-06
-0.000169834 0.000167821 1.2609e-06
2.38493e-06 1.2609e-06 0.000783328
0.00139444 0.00010354 -4.7499e-06
0.00010354 0.000367409 -5.95592e-06
-4.7499e-06 -5.95592e-06 0.000297557
0.00182944 -3.19062e-06 -2.33325e-05
-3.19062e-06 0.000266394 -5.32449e-06
-2.33325e-05 -5.32449e-06 0.000143932
0.00138251 -6.52488e-06 -6.39732e-06
-6.52488e-06 -1.8913e-06 -1.55267e-05
-6.39732e-06 -1.55267e-05 -6.3e-05
-0.000132575 -3.12298e-05 -1.43053e-05
-3.12298e-05 -0.00022798 -1.06673e-05
-1.43053e-05 -1.06673e-05 -0.00034147
0.00314945 0.000273898 -1.08393e-05
0.000273898 0.00113099 4.82017e-05
-1.08393e-05 4.82017e-05 0.000743888
0.00838045 -0.000234658 1.62446e-05
-0.000234658 0.00252395 -8.47182e-06
1.62446e-05 -8.47182e-06 0.00117525
-0.00226852 -0.000180116 -4.48057e-05
-0.000180116 -0.00240876 -3.18557e-05
-4.48057e-05 -3.18557e-05 -0.00254141
0.00397306 3.06905e-05 -6.46303e-07
3.06905e-05 0.000519884 -2.07756e-05
-6.46303e-07 -2.07756e-05 0.00111605
0.000933613 5.53465e-05 9.17282e-08
5.53465e-05 7.69948e-05 1.11022e-06
9.17282e-08 1.11022e-06 -8.40582e-07
0.000927528 6.83987e-05 -3.52351e-07
6.83987e-05 8.52998e-05 -7.59615e-07
-3.52351e-07 -7.59615e-07 1.35199e-05
0.000579795 4.13807e-05 1.32588e-06
4.13807e-05 -8.83177e-05 -2.26352e-06
1.32588e-06 -2.26352e-06 -0.000148511
0.000941636 5.05423e-05 -9.39861e-07
5.05423e-05 6.97973e-05 -8.97563e-07
-9.39861e-07 -8.97563e-07 9.97523e-06
0.000933082 -2.4258e-05 8.05934e-08
-2.4258e-05 6.58063e-05 2.48519e-08
8.05934e-08 2.48519e-08 -4.82675e-07
0.000999157 -1.21315e-05 -8.06446e-07
-1.21315e-05 0.00010243 2.08213e-07
-8.06446e-07 2.08213e-07 3.60279e-05
0.000887445 1.02366e-06 -5.37746e-07
1.02366e-06 4.89118e-05 6.37546e-07
-5.37746e-07 6.37546e-07 -1.95618e-05
0.000957458 8.52598e-06 3.46488e-07
8.52598e-06 7.64523e-05 8.43806e-10
3.46488e-07 8.43806e-10 1.08281e-05
0.000941491 -1.12407e-05 -1.94581e-07
-1.12407e-05 6.42881e-05 1.16365e-07
-1.94581e-07 1.16365e-07 -2.29932e-06
0.000990102 -1.75186e-05 2.97008e-07
-1.75186e-05 9.90198e-05 4.42215e-07
2.97008e-07 4.42215e-07 3.16249e-05
0.00114214 -3.6581e-05 2.10545e-07
-3.6581e-05 0.000185805 6.72574e-07
2.10545e-07 6.72574e-07 0.000128892
0.00100292 -4.18657e-05 1.54443e-06
-4.18657e-05 8.52794e-05 -2.9985e-07
1.54443e-06 -2.9985e-07 2.31392e-05
0.000885107 3.47015e-05 1.06297e-06
3.47015e-05 3.97891e-05 3.38492e-07
1.06297e-06 3.38492e-07 -2.91574e-05
0.00093177 -1.80684e-05 8.01161e-07
-1.80684e-05 6.59404e-05 -3.25543e-07
8.01161e-07 -3.25543e-07 2.20933e-07
0.000877638 3.94334e-05 -2.47563e-07
3.94334e-05 4.24828e-05 -4.50572e-07
-2.47563e-07 -4.50572e-07 -2.11752e-05
0.000922882 2.96381e-05 -6.97394e-07
2.96381e-05 5.63376e-05 -5.78579e-07
-6.97394e-07 -5.78579e-07 -8.49354e-06
0.000962992 3.46923e-05 -2.18127e-07
3.46923e-05 8.0808e-05 -1.53654e-07
-2.18127e-07 -1.53654e-07 1.29071e-05
0.000878196 3.44099e-05 2.75704e-07
3.44099e-05 4.75285e-05 3.52825e-07
2.75704e-07 3.52825e-07 -1.84061e-05
0.000914934 3.73919e-05 4.7412e-08
3.73919e-05 5.65207e-05 -1.73382e-07
4.7412e-08 -1.73382e-07 -1.09887e-05
0.000876016 1.88473e-05 1.24413e-06
1.88473e-05 4.37043e-05 1.09567e-06
1.24413e-06 1.09567e-06 -2.79091e-05
0.000938425 2.52795e-05 2.97222e-07
2.52795e-05 6.14932e-05 5.65866e-07
2.97222e-07 5.65866e-07 -5.05472e-06
0.000890257 -4.55369e-05 1.93697e-07
-4.55369e-05 6.86522e-05 5.39896e-07
1.93697e-07 5.39896e-07 -1.78778e-05
0.000969453 -4.5521e-06 -2.65462e-07
-4.5521e-06 9.77323e-05 -5.00805e-08
-2.65462e-07 -5.00805e-08 1.70679e-05
0.000786051 -4.0251e-05 5.51368e-08
-4.0251e-05 2.56613e-05 2.49839e-06
5.51368e-08 2.49839e-06 -6.8835e-05
0.00102124 -9.52716e-05 -1.80394e-06
-9.52716e-05 0.000136191 3.42992e-06
-1.80394e-06 3.42992e-06 2.35976e-05
0.00107111 -3.21455e-05 5.1881e-07
-3.21455e-05 0.000159622 -1.72306e-07
5.1881e-07 -1.72306e-07 7.5204e-05
0.000802471 -5.38376e-05 3.622e-07
-5.38376e-05 3.75964e-05 -1.92128e-06
3.622e-07 -1.92128e-06 -5.86275e-05
0.000903245 2.3687e-06 -2.38809e-07
2.3687e-06 6.79374e-05 -5.80464e-07
-2.38809e-07 -5.80464e-07 -7.22861e-06
0.000763348 9.84354e-06 3.50235e-07
9.84354e-06 -1.60839e-05 1.13757e-06
3.50235e-07 1.13757e-06 -8.13165e-05
0.000909846 1.50009e-05 -3.04725e-07
1.50009e-05 6.91913e-05 -6.87643e-07
-3.04725e-07 -6.87643e-07 -1.27442e-06
0.000893255 7.16169e-06 -9.25513e-09
7.16169e-06 5.13266e-05 3.46501e-07
-9.25513e-09 3.46501e-07 -8.50442e-06
0.000860243 2.09383e-05 -5.30052e-07
2.09383e-05 2.58771e-05 9.0931e-07
-5.30052e-07 9.0931e-07 -2.16259e-05
0.00089702 -6.1762e-06 1.78808e-07
-6.1762e-06 5.46029e-05 -5.70151e-07
1.78808e-07 -5.70151e-07 -4.63846e-06
0.000868067 3.07242e-06 -2.93257e-07
3.07242e-06 2.86794e-05 1.07087e-08
-2.93257e-07 1.07087e-08 -1.77162e-05
0.000832924 2.00792e-05 -9.26178e-07
2.00792e-05 4.24245e-06 1.71238e-06
-9.26178e-07 1.71238e-06 -2.54331e-05
0.000886387 -6.20544e-06 9.65227e-07
-6.20544e-06 3.65135e-05 -7.31916e-07
9.65227e-07 -7.31916e-07 -9.45118e-06
0.000840084 1.23554e-05 -1.45859e-07
1.23554e-05 4.2816e-06 1.01236e-09
-1.45859e-07 1.01236e-09 -2.43543e-05
0.00136235 2.15552e-05 -6.12885e-06
2.15552e-05 0.000279339 4.2943e-06
-6.12885e-06 4.2943e-06 0.000280136
0.000837049 3.82958e-06 9.44798e-07
3.82958e-06 7.98728e-07 -1.63865e-06
9.44798e-07 -1.63865e-06 -2.73024e-05
0.00107317 1.57213e-05 -2.56724e-06
1.57213e-05 0.000121104 5.85671e-07
-2.56724e-06 5.85671e-07 0.000121118
0.000944853 1.45598e-05 -1.17323e-06
1.45598e-05 5.33233e-05 1.56906e-06
-1.17323e-06 1.56906e-06 6.94813e-05
0.000782161 9.78525e-06 4.94594e-07
9.78525e-06 -3.77691e-05 -3.10167e-06
4.94594e-07 -3.10167e-06 -3.87115e-05
0.00154032 1.18308e-05 3.9533e-06
1.18308e-05 0.000369053 -1.19664e-06
3.9533e-06 -1.19664e-06 0.00038861
0.0021307 6.85565e-06 4.60146e-06
6.85565e-06 0.000684306 -4.00146e-06
4.60146e-06 -4.00146e-06 0.000706903
0.000927515 -2.61266e-05 7.23247e-07
-2.61266e-05 6.22318e-05 -3.38739e-07
7.23247e-07 -3.38739e-07 1.72766e-05
0.000846396 -8.16779e-06 -2.63787e-07
-8.16779e-06 4.93729e-06 -1.45089e-06
-2.63787e-07 -1.45089e-06 -1.97228e-05
0.000914672 -7.65985e-06 4.39437e-07
-7.65985e-06 5.56535e-05 1.54051e-07
4.39437e-07 1.54051e-07 1.24729e-05
0.000800303 -5.52207e-06 -3.44246e-07
-5.52207e-06 -3.07735e-05 -3.02316e-06
-3.44246e-07 -3.02316e-06 -2.85963e-05
0.000850649 -4.95141e-06 -2.85675e-08
-4.95141e-06 5.23304e-06 -3.37452e-09
-2.85675e-08 -3.37452e-09 -1.83693e-05
0.000883494 -2.78485e-05 -9.16815e-07
-2.78485e-05 3.76816e-05 1.03612e-06
-9.16815e-07 1.03612e-06 -4.16206e-06
0.00201597 -4.94866e-07 -7.09585e-07
-4.94866e-07 0.000622124 -3.97065e-06
-7.09585e-07 -3.97065e-06 0.00064615
0.000795392 -2.85645e-07 -7.60558e-08
-2.85645e-07 -3.43539e-05 2.07336e-09
-7.60558e-08 2.07336e-09 -3.18776e-05
0.000851293 -1.70264e-06 4.4193e-08
-1.70264e-06 4.65475e-06 1.57684e-06
4.4193e-08 1.57684e-06 -1.86958e-05
0.000797327 5.01435e-06 -2.17269e-07
5.01435e-06 -3.28102e-05 3.08847e-06
-2.17269e-07 3.08847e-06 -3.08625e-05
0.00203243 6.59487e-06 -1.96035e-06
6.59487e-06 0.000631363 -1.45648e-08
-1.96035e-06 -1.45648e-08 0.000655125
0.00206248 1.29901e-05 -8.85246e-06
1.29901e-05 0.000648929 3.94639e-06
-8.85246e-06 3.94639e-06 0.000672121
-0.00107375 8.54446e-05 -2.58646e-05
8.54446e-05 -0.000434124 1.53162e-06
-2.58646e-05 1.53162e-06 -0.000598837
-0.0010973 0.000237939 8.32036e-06
0.000237939 -0.000398665 1.85388e-06
8.32036e-06 1.85388e-06 -0.000414021
0.00178064 4.78467e-05 -4.60512e-05
4.78467e-05 5.49682e-06 2.43933e-05
-4.60512e-05 2.43933e-05 -4.97407e-05
-0.00123619 0.000261396 2.98141e-05
0.000261396 -0.000810794 -1.05018e-05
2.98141e-05 -1.05018e-05 -0.000592785
0.0019975 3.89515e-05 -8.01736e-05
3.89515e-05 0.000245958 9.16498e-07
-8.01736e-05 9.16498e-07 -6.67159e-05
0.00183221 3.26666e-05 2.75794e-05
3.26666e-05 0.000159526 -4.04554e-06
2.75794e-05 -4.04554e-06 7.46423e-05
0.00126368 -9.92792e-05 -4.92239e-05
-9.92792e-05 -0.000407876 -6.66016e-06
-4.92239e-05 -6.66016e-06 -0.000962227
0.00542401 0.000425502 7.89072e-05
0.000425502 0.00263052 -2.46389e-05
7.89072e-05 -2.46389e-05 0.00273117
-0.00159183 0.000526613 1.55426e-05
0.000526613 -0.00221492 1.70481e-05
1.55426e-05 1.70481e-05 -0.000918825
0.0013102 6.32976e-05 -2.85774e-06
6.32976e-05 -0.000100904 2.39962e-06
-2.85774e-06 2.39962e-06 -0.000314576
0.00242243 0.000285175 1.00681e-05
0.000285175 0.000114956 -1.55906e-05
1.00681e-05 -1.55906e-05 -0.000993574
0.00409387 0.00063652 -5.53122e-06
0.00063652 0.00113624 -5.39017e-06
-5.53122e-06 -5.39017e-06 0.00147577
0.00203224 0.000269514 -3.04952e-06
0.000269514 -0.000617236 4.5998e-06
-3.04952e-06 4.5998e-06 2.52952e-05
0.00168186 5.36738e-06 -1.574e-05
5.36738e-06 -0.00028348 -1.30331e-06
-1.574e-05 -1.30331e-06 -0.00047363
0.00322312 0.000405839 5.8434e-05
0.000405839 0.000625544 -3.88721e-05
5.8434e-05 -3.88721e-05 -0.000586791
-0.00357382 0.000245717 -8.05498e-05
0.000245717 -0.00298222 2.20395e-05
-8.05498e-05 2.20395e-05 -0.00280502
0.00108119 0.000144615 -1.16527e-05
0.000144615 -0.00137475 1.74326e-05
-1.16527e-05 1.74326e-05 -0.000814469
0.000978897 -1.53405e-05 1.09792e-06
-1.53405e-05 0.000109097 3.64445e-07
1.09792e-06 3.64445e-07 3.26522e-05
0.000919933 3.16505e-05 -1.2592e-06
3.16505e-05 7.71788e-05 -3.58348e-07
-1.2592e-06 -3.58348e-07 8.86614e-06
0.00087081 4.85424e-06 7.50108e-07
4.85424e-06 4.37503e-05 -2.1289e-07
7.50108e-07 -2.1289e-07 -1.14072e-05
0.000919833 5.09036e-05 1.8025e-06
5.09036e-05 8.07831e-05 7.59173e-07
1.8025e-06 7.59173e-07 1.54513e-05
0.000843122 1.12343e-05 -1.85172e-07
1.12343e-05 3.61839e-05 6.67168e-07
-1.85172e-07 6.67168e-07 -3.95227e-05
0.000962501 2.9767e-05 1.60201e-07
2.9767e-05 0.000100129 5.29237e-07
1.60201e-07 5.29237e-07 3.17376e-05
0.000868253 -5.53011e-06 -3.00085e-07
-5.53011e-06 4.65718e-05 1.05964e-06
-3.00085e-07 1.05964e-06 -1.7613e-05
0.000975743 5.49942e-05 -7.28707e-07
5.49942e-05 0.000104459 2.40739e-07
-7.28707e-07 2.40739e-07 3.72355e-05
0.000958301 2.0752e-05 -3.56584e-07
2.0752e-05 9.48672e-05 3.4074e-07
-3.56584e-07 3.4074e-07 3.11292e-05
0.000798645 -2.24631e-05 -8.47829e-07
-2.24631e-05 9.32424e-06 -3.37774e-07
-8.47829e-07 -3.37774e-07 -5.08757e-05
0.00109545 -5.56861e-05 5.58888e-06
-5.56861e-05 -0.000286709 -4.63141e-07
5.58888e-06 -4.63141e-07 -0.000366186
0.00162343 -0.00018145 1.24903e-06
-0.00018145 2.27514e-05 3.99029e-06
1.24903e-06 3.99029e-06 -7.1319e-05
0.000789398 -0.000128203 9.11719e-06
-0.000128203 -1.87782e-05 3.35897e-07
9.11719e-06 3.35897e-07 -0.000146486
0.0010123 -7.58121e-05 4.8892e-06
-7.58121e-05 0.000132975 -1.40346e-06
4.8892e-06 -1.40346e-06 -7.64885e-06
0.00107115 -2.13504e-05 5.34555e-07
-2.13504e-05 0.000160776 -1.18249e-06
5.34555e-07 -1.18249e-06 5.57315e-05
0.000833698 -4.91046e-05 -6.09536e-07
-4.91046e-05 2.82979e-05 -5.97673e-07
-6.09536e-07 -5.97673e-07 -5.54303e-05
0.000863754 3.9005e-05 -8.27651e-08
3.9005e-05 4.61127e-05 -2.18542e-07
-8.27651e-08 -2.18542e-07 -3.15442e-05
0.000916306 -2.28912e-05 -1.35741e-08
-2.28912e-05 7.64095e-05 5.58232e-07
-1.35741e-08 5.58232e-07 -2.29201e-06
0.00167579 -0.00016201 -4.54994e-07
-0.00016201 0.000154892 -3.23754e-07
-4.54994e-07 -3.23754e-07 8.36547e-05
0.000971216 -1.86164e-06 -2.10272e-07
-1.86164e-06 9.9319e-05 -3.84417e-07
-2.10272e-07 -3.84417e-07 1.49767e-05
0.00105419 -3.6542e-05 -4.0025e-07
-3.6542e-05 0.000130799 -8.31438e-08
-4.0025e-07 -8.31438e-08 4.27287e-05
0.00155111 -0.000183349 4.62978e-08
-0.000183349 0.000245801 -1.45662e-06
4.62978e-08 -1.45662e-06 0.000125726
0.00109264 -2.74932e-05 -1.26071e-06
-2.74932e-05 0.000185031 9.71142e-07
-1.26071e-06 9.71142e-07 5.56886e-05
-0.000114289 -0.000194706 -8.92809e-07
-0.000194706 -0.00079428 -8.42655e-06
-8.92809e-07 -8.42655e-06 -0.0007093
0.00181054 -7.42729e-05 -4.27942e-06
-7.42729e-05 0.000577172 9.71708e-06
-4.27942e-06 9.71708e-06 0.000416263
0.000566013 1.93116e-05 -2.04666e-06
1.93116e-05 -0.000126207 5.39848e-06
-2.04666e-06 5.39848e-06 -0.000213038
0.000921543 7.54032e-06 3.83402e-07
7.54032e-06 6.43885e-05 8.50793e-07
3.83402e-07 8.50793e-07 -1.43289e-05
0.000902908 2.12907e-05 -5.19396e-07
2.12907e-05 5.10756e-05 1.14639e-06
-5.19396e-07 1.14639e-06 -3.81214e-05
0.00159031 -2.14736e-06 -8.25869e-06
-2.14736e-06 0.000170873 2.88795e-07
-8.25869e-06 2.88795e-07 5.77346e-05
2.75658e-05 -2.01194e-06 -5.97049e-06
-2.01194e-06 0.000225847 -1.0061e-06
-5.97049e-06 -1.0061e-06 7.94887e-05
-0.0049494 -4.97545e-05 7.06404e-06
-4.97545e-05 -0.00257205 4.55784e-06
7.06404e-06 4.55784e-06 -0.00245911
0.000892602 6.94223e-05 1.93497e-06
6.94223e-05 8.24586e-05 1.32024e-06
1.93497e-06 1.32024e-06 -4.3751e-06
0.00015492 2.01365e-05 3.79346e-06
2.01365e-05 -0.00018025 1.24719e-06
3.79346e-06 1.24719e-06 -0.000344196
0.00134286 8.25977e-05 8.33945e-06
8.25977e-05 0.000178018 -2.06332e-06
8.33945e-06 -2.06332e-06 8.45771e-05
-0.001259 -5.29276e-05 1.76085e-05
-5.29276e-05 -0.000592246 2.63876e-06
1.76085e-05 2.63876e-06 -0.000769039
0.00301177 -0.000398207 1.15285e-05
-0.000398207 0.000515085 4.82671e-06
1.15285e-05 4.82671e-06 -0.000803996
0.00539935 0.000458432 8.48097e-05
0.000458432 0.00149096 -3.13549e-05
8.48097e-05 -3.13549e-05 0.00101268
-1.76152e-05 5.75505e-05 -1.32777e-05
5.75505e-05 -0.000307621 1.17149e-05
-1.32777e-05 1.17149e-05 -0.000295843
0.00522452 -0.000539973 4.34076e-05
-0.000539973 0.00142017 3.99372e-05
4.34076e-05 3.99372e-05 0.0015095
0.0020546 -2.16408e-05 2.69195e-05
-2.16408e-05 0.000205567 1.33109e-05
2.69195e-05 1.33109e-05 0.000106679
0.00310086 -0.000149316 1.63488e-05
-0.000149316 0.00011726 1.33501e-05
1.63488e-05 1.33501e-05 0.000716932
0.0011655 9.38365e-05 8.40408e-07
9.38365e-05 0.000253934 -7.71231e-07
8.40408e-07 -7.71231e-07 0.000184185
0.00155877 -1.53892e-06 4.4678e-07
-1.53892e-06 0.000134005 -3.30506e-06
4.4678e-07 -3.30506e-06 2.94986e-05
0.00153109 -7.7164e-06 -2.25177e-06
-7.7164e-06 7.17658e-05 -1.67395e-06
-2.25177e-06 -1.67395e-06 1.39705e-05
2.70232e-05 1.679e-05 1.54149e-06
1.679e-05 -0.000142707 3.52004e-07
1.54149e-06 3.52004e-07 -0.000257293
0.00316587 0.000336209 -2.55956e-05
0.000336209 0.000845731 -2.33168e-05
-2.55956e-05 -2.33168e-05 0.000538509
0.00445384 9.20513e-05 3.54794e-05
9.20513e-05 0.000804433 9.91477e-06
3.54794e-05 9.91477e-06 -0.000701798
0.00241584 1.57386e-05 1.15804e-06
1.57386e-05 -0.000495207 -7.63299e-06
1.15804e-06 -7.63299e-06 0.000128452
0.000925328 -0.000215882 -8.8998e-06
-0.000215882 -0.000671483 1.98252e-05
-8.8998e-06 1.98252e-05 -0.000751829
0.00112066 4.49855e-05 -2.58357e-06
4.49855e-05 0.000302016 -9.33864e-06
-2.58357e-06 -9.33864e-06 0.000263557
0.000934293 2.88076e-06 2.91063e-06
2.88076e-06 5.37182e-05 4.56768e-06
2.91063e-06 4.56768e-06 -2.53733e-06
0.00165443 1.86735e-06 -3.58787e-06
1.86735e-06 0.000206691 -8.73037e-06
-3.58787e-06 -8.73037e-06 0.00012893
0.0010993 0.000132706 1.09869e-05
0.000132706 -0.00127323 -1.81939e-05
1.09869e-05 -1.81939e-05 -0.000780067
-0.00128561 6.82192e-05 9.44364e-06
6.82192e-05 -0.000653321 -6.41316e-06
9.44364e-06 -6.41316e-06 -0.000871827
0.00743189 -8.51213e-06 4.73434e-05
-8.51213e-06 0.00216472 1.17128e-05
4.73434e-05 1.17128e-05 0.00092297
-0.00101238 -3.26238e-05 1.34838e-05
-3.26238e-05 -0.000945417 -5.34585e-05
1.34838e-05 -5.34585e-05 -0.000986413
0.0012045 8.82104e-05 2.0124e-06
8.82104e-05 0.000225691 3.23327e-06
2.0124e-06 3.23327e-06 0.000154543
0.000727781 5.80043e-05 -8.95736e-07
5.80043e-05 -1.8331e-05 1.69766e-06
-8.95736e-07 1.69766e-06 -8.18464e-05
0.000561938 2.09077e-05 -5.06075e-07
2.09077e-05 -6.49179e-05 -3.02843e-06
-5.06075e-07 -3.02843e-06 -0.000124116
0.000961491 6.36425e-05 -3.45906e-07
6.36425e-05 7.96966e-05 -2.36308e-07
-3.45906e-07 -2.36308e-07 1.33373e-05
0.000931302 2.09808e-06 -5.61658e-07
2.09808e-06 5.83942e-05 -1.7425e-07
-5.61658e-07 -1.7425e-07 -7.22547e-06
0.000799802 -2.90548e-05 -1.54793e-06
-2.90548e-05 1.17768e-06 2.22851e-06
-1.54793e-06 2.22851e-06 -6.76555e-05
0.000946957 3.89159e-05 1.58079e-07
3.89159e-05 6.91331e-05 2.53719e-08
1.58079e-07 2.53719e-08 1.78079e-06
0.000890636 -4.9329e-05 1.03223e-08
-4.9329e-05 2.95427e-05 -3.61078e-07
1.03223e-08 -3.61078e-07 -3.44878e-05
0.00103071 -5.5788e-05 2.08477e-06
-5.5788e-05 0.000121055 1.41446e-06
2.08477e-06 1.41446e-06 5.97384e-05
0.000766578 -1.37183e-05 8.40029e-07
-1.37183e-05 2.34448e-06 1.22964e-06
8.40029e-07 1.22964e-06 -4.40186e-05
0.000935457 -7.23873e-06 5.76346e-07
-7.23873e-06 4.70788e-05 -7.01927e-08
5.76346e-07 -7.01927e-08 -1.62413e-05
0.000947198 3.41282e-05 -6.58129e-07
3.41282e-05 7.05645e-05 -2.21187e-07
-6.58129e-07 -2.21187e-07 4.1503e-06
0.000896336 3.75683e-05 -1.88586e-07
3.75683e-05 5.86647e-05 -3.80016e-07
-1.88586e-07 -3.80016e-07 -8.04153e-06
0.000899936 4.04715e-05 -6.76903e-07
4.04715e-05 4.84498e-05 -8.1033e-07
-6.76903e-07 -8.1033e-07 -1.89692e-05
0.000924104 2.03473e-05 7.10133e-08
2.03473e-05 5.35771e-05 2.47059e-07
7.10133e-08 2.47059e-07 -1.29414e-05
0.000936977 2.02983e-05 5.78286e-07
2.02983e-05 7.43533e-05 3.28892e-07
5.78286e-07 3.28892e-07 3.41722e-06
0.000831337 -3.74716e-05 3.56858e-07
-3.74716e-05 4.22615e-05 1.21866e-06
3.56858e-07 1.21866e-06 -3.41517e-05
0.000852071 -2.83387e-05 -1.42484e-07
-2.83387e-05 4.98829e-05 -7.55598e-07
-1.42484e-07 -7.55598e-07 -3.35798e-05
0.000760852 -4.8796e-05 1.13296e-06
-4.8796e-05 2.12936e-05 1.7927e-06
1.13296e-06 1.7927e-06 -9.01754e-05
0.00105925 -1.15449e-05 -7.27136e-07
-1.15449e-05 0.000144606 -1.071e-06
-7.27136e-07 -1.071e-06 6.40929e-05
0.00103 -5.25816e-05 -3.13453e-07
-5.25816e-05 0.000146815 7.83874e-07
-3.13453e-07 7.83874e-07 5.09799e-05
0.000580053 -7.74555e-05 -1.53763e-06
-7.74555e-05 -9.08223e-05 3.25081e-06
-1.53763e-06 3.25081e-06 -0.000211478
0.000932887 -9.17894e-05 -3.14911e-06
-9.17894e-05 9.25843e-05 8.33305e-07
-3.14911e-06 8.33305e-07 -2.24981e-05
0.000972634 -6.70285e-05 -9.39168e-07
-6.70285e-05 0.00011319 1.49563e-06
-9.39168e-07 1.49563e-06 1.91505e-05
0.000902117 -8.90933e-05 7.27765e-08
-8.90933e-05 7.71484e-05 2.19888e-07
7.27765e-08 2.19888e-07 -3.5173e-05
0.000916855 -6.97287e-06 1.92852e-07
-6.97287e-06 6.68181e-05 1.21213e-06
1.92852e-07 1.21213e-06 -4.30733e-06
0.000999404 -3.40701e-05 -5.41019e-07
-3.40701e-05 0.000121597 -5.21707e-07
-5.41019e-07 -5.21707e-07 3.59729e-05
0.000802189 -5.61413e-05 7.24299e-07
-5.61413e-05 3.88044e-05 -3.25744e-06
7.24299e-07 -3.25744e-06 -5.51132e-05
0.00106974 1.55643e-06 -6.65239e-07
1.55643e-06 0.000155315 -1.57443e-06
-6.65239e-07 -1.57443e-06 8.13843e-05
0.000841359 9.56915e-06 6.37514e-08
9.56915e-06 2.50113e-05 -2.42864e-08
6.37514e-08 -2.42864e-08 -3.91523e-05
0.000861334 2.81256e-05 -2.49782e-07
2.81256e-05 2.85938e-05 1.10711e-06
-2.49782e-07 1.10711e-06 -2.21523e-05
0.000909354 1.39853e-06 1.44472e-07
1.39853e-06 6.0774e-05 -4.55352e-07
1.44472e-07 -4.55352e-07 1.79354e-07
0.000868176 1.37777e-05 -3.32142e-07
1.37777e-05 3.02685e-05 -6.11259e-08
-3.32142e-07 -6.11259e-08 -1.7397e-05
0.000825223 2.4368e-05 -1.11954e-06
2.4368e-05 4.1741e-06 1.74566e-06
-1.11954e-06 1.74566e-06 -2.68804e-05
0.000876237 -4.09842e-06 8.29004e-07
-4.09842e-06 3.28393e-05 -8.44277e-07
8.29004e-07 -8.44277e-07 -1.36384e-05
0.000834038 1.8971e-05 -8.83659e-08
1.8971e-05 4.32719e-06 9.27501e-10
-8.83659e-08 9.27501e-10 -2.52475e-05
0.00133243 2.68988e-05 -6.92118e-06
2.68988e-05 0.000269051 3.08863e-06
-6.92118e-06 3.08863e-06 0.000268715
0.000839384 8.61367e-06 1.03706e-06
8.61367e-06 3.5067e-06 -1.65301e-06
1.03706e-06 -1.65301e-06 -2.50017e-05
0.00106924 2.07971e-05 -3.17822e-06
2.07971e-05 0.000122797 5.54738e-07
-3.17822e-06 5.54738e-07 0.000122077
0.000935994 1.94785e-05 -1.72334e-06
1.94785e-05 5.31585e-05 1.58183e-06
-1.72334e-06 1.58183e-06 6.84428e-05
0.000780999 1.45542e-05 7.69153e-07
1.45542e-05 -3.57196e-05 -3.14143e-06
7.69153e-07 -3.14143e-06 -3.71066e-05
0.00153506 1.77965e-05 5.26275e-06
1.77965e-05 0.000369331 -1.14324e-06
5.26275e-06 -1.14324e-06 0.000388354
0.00212594 1.37409e-05 8.00743e-06
1.37409e-05 0.000683749 -3.93548e-06
8.00743e-06 -3.93548e-06 0.000706023
0.000724585 -1.40966e-06 -2.5696e-07
-1.40966e-06 -4.11938e-05 -1.02438e-06
-2.5696e-07 -1.02438e-06 -9.3487e-05
0.000619903 -1.24093e-05 -2.10316e-07
-1.24093e-05 -0.00011171 -1.82961e-06
-2.10316e-07 -1.82961e-06 -0.000140043
0.0009487 -1.18372e-05 -4.3424e-09
-1.18372e-05 7.48236e-05 3.12669e-08
-4.3424e-09 3.12669e-08 2.87303e-05
0.000801567 -1.04635e-05 -4.46187e-07
-1.04635e-05 -2.76773e-05 -3.01827e-06
-4.46187e-07 -3.01827e-06 -2.66353e-05
0.000728424 -8.59903e-06 4.07059e-08
-8.59903e-06 -5.72296e-05 1.57612e-08
4.07059e-08 1.57612e-08 -8.2783e-05
0.000723455 -3.59727e-05 6.83692e-08
-3.59727e-05 -4.42848e-05 6.51042e-07
6.83692e-08 6.51042e-07 -8.91188e-05
0.00201935 -7.10026e-06 -4.56078e-06
-7.10026e-06 0.000624934 -3.9565e-06
-4.56078e-06 -3.9565e-06 0.000648711
0.000794858 -5.32461e-06 -1.48384e-07
-5.32461e-06 -3.37454e-05 -6.73299e-09
-1.48384e-07 -6.73299e-09 -3.15202e-05
0.000850523 -5.57866e-06 5.90787e-08
-5.57866e-06 5.14746e-06 1.5324e-06
5.90787e-08 1.5324e-06 -1.84532e-05
0.00201565 -1.06307e-07 -1.91543e-06
-1.06307e-07 0.000621936 -9.17153e-10
-1.91543e-06 -9.17153e-10 0.000645959
0.000795873 -5.19685e-08 4.55341e-08
-5.19685e-08 -3.41429e-05 3.06646e-06
4.55341e-08 3.06646e-06 -3.16732e-05
0.0020364 6.96608e-06 -4.43858e-06
6.96608e-06 0.000633662 3.99356e-06
-4.43858e-06 3.99356e-06 0.000657341
0.00103825 9.41079e-06 -2.38389e-05
9.41079e-06 -0.000167003 6.98241e-06
-2.38389e-05 6.98241e-06 -0.000287817
0.00113337 0.000127824 1.21627e-06
0.000127824 0.000719506 -2.82319e-06
1.21627e-06 -2.82319e-06 0.000727483
0.000537879 7.93311e-06 5.8345e-05
7.93311e-06 0.00037419 -1.29344e-05
5.8345e-05 -1.29344e-05 0.000217948
0.000900654 1.78983e-05 -5.20558e-08
1.78983e-05 5.79626e-05 9.65883e-08
-5.20558e-08 9.65883e-08 -9.78897e-06
0.00156032 2.66997e-05 -4.34052e-06
2.66997e-05 0.000109692 1.33652e-05
-4.34052e-06 1.33652e-05 5.95015e-05
0.00148349 3.97534e-05 -1.41937e-05
3.97534e-05 -0.000171617 4.81786e-06
-1.41937e-05 4.81786e-06 -0.000256308
0.00121286 0.000304084 4.90259e-05
0.000304084 0.000374535 -2.6272e-05
4.90259e-05 -2.6272e-05 0.000781602
0.00321373 6.07282e-05 -3.49532e-05
6.07282e-05 0.000648981 7.07157e-06
-3.49532e-05 7.07157e-06 0.000413992
0.00872674 0.000531938 1.7716e-05
0.000531938 0.00306713 -1.15199e-05
1.7716e-05 -1.15199e-05 0.00211201
-0.00237747 0.000403435 4.62838e-05
0.000403435 -0.0019468 -1.15333e-05
4.62838e-05 -1.15333e-05 -0.00150242
0.00291814 0.000282895 2.95888e-05
0.000282895 -2.77643e-05 -2.32528e-05
2.95888e-05 -2.32528e-05 0.000581542
0.00219758 2.9153e-06 -4.33844e-05
2.9153e-06 -0.000317225 4.02943e-06
-4.33844e-05 4.02943e-06 -0.000660985
0.00690074 0.000387175 3.47999e-05
0.000387175 0.00240544 -1.30554e-05
3.47999e-05 -1.30554e-05 0.00126078
0.00356797 0.000427064 -4.71567e-06
0.000427064 0.000157686 3.77384e-06
-4.71567e-06 3.77384e-06 0.000275467
0.00293894 0.000160809 -3.87128e-06
0.000160809 -0.000305841 2.06684e-06
-3.87128e-06 2.06684e-06 0.000287846
0.00446239 -0.000191076 5.57277e-05
-0.000191076 0.00076661 -2.88609e-05
5.57277e-05 -2.88609e-05 0.00030329
0.00681172 0.000408795 2.62602e-05
0.000408795 0.00224288 -8.35797e-06
2.62602e-05 -8.35797e-06 0.000657341
0.00234467 0.000289419 1.10786e-05
0.000289419 -0.000348934 4.50426e-05
1.10786e-05 4.50426e-05 -0.000393001
0.00387962 4.75969e-05 -3.16783e-07
4.75969e-05 0.00033735 1.23605e-05
-3.16783e-07 1.23605e-05 0.000980695
0.000916321 -1.81137e-05 4.76358e-07
-1.81137e-05 7.0255e-05 4.73114e-07
4.76358e-07 4.73114e-07 -9.38195e-06
0.000943756 -2.94316e-05 4.66166e-07
-2.94316e-05 9.22809e-05 8.95368e-09
4.66166e-07 8.95368e-09 1.45357e-05
0.000973836 3.91157e-05 -8.97671e-07
3.91157e-05 0.000107161 -1.84696e-08
-8.97671e-07 -1.84696e-08 3.87054e-05
0.000912677 -1.01652e-05 -2.16579e-07
-1.01652e-05 6.39034e-05 -3.3111e-08
-2.16579e-07 -3.3111e-08 -7.89234e-06
0.000936942 3.84642e-05 -5.15925e-07
3.84642e-05 8.61733e-05 3.40653e-07
-5.15925e-07 3.40653e-07 1.16555e-05
0.000989913 1.58893e-05 5.60806e-07
1.58893e-05 0.000115944 8.60534e-07
5.60806e-07 8.60534e-07 4.73521e-05
0.00102984 5.06874e-05 -4.79161e-07
5.06874e-05 0.000131752 1.17471e-07
-4.79161e-07 1.17471e-07 6.52551e-05
0.00106621 5.61906e-05 6.87591e-07
5.61906e-05 0.000154132 8.07621e-07
6.87591e-07 8.07621e-07 8.95126e-05
0.000672679 -0.000128304 1.90348e-05
-0.000128304 -0.000353341 -7.5105e-06
1.90348e-05 -7.5105e-06 -0.000403917
0.00105274 -0.000158983 5.11844e-06
-0.000158983 5.06679e-06 -1.56477e-06
5.11844e-06 -1.56477e-06 -0.00011721
0.000930538 -9.18128e-05 -1.98241e-06
-9.18128e-05 8.94569e-05 -1.35462e-07
-1.98241e-06 -1.35462e-07 6.95366e-06
0.00146108 -4.91306e-05 2.39564e-06
-4.91306e-05 0.000359764 -2.34192e-06
2.39564e-06 -2.34192e-06 0.000234489
0.00107671 -4.51701e-05 -1.08394e-06
-4.51701e-05 0.000141889 -1.1212e-06
-1.08394e-06 -1.1212e-06 5.30283e-05
0.00106198 -1.29604e-05 -9.49899e-07
-1.29604e-05 0.000143339 -5.5978e-07
-9.49899e-07 -5.5978e-07 6.24426e-05
0.000986071 1.1758e-05 2.5777e-08
1.1758e-05 0.00010233 -8.37311e-08
2.5777e-08 -8.37311e-08 2.16326e-05
0.00133972 -0.000253051 -5.28227e-06
-0.000253051 -6.77661e-05 2.34541e-07
-5.28227e-06 2.34541e-07 -2.5091e-05
0.000995245 1.07515e-05 1.21735e-07
1.07515e-05 0.000105013 -5.888e-07
1.21735e-07 -5.888e-07 1.47959e-05
0.00106108 -2.28024e-05 -9.57476e-07
-2.28024e-05 0.000133019 1.23569e-07
-9.57476e-07 1.23569e-07 3.9507e-05
0.000992699 -6.33958e-05 -3.66908e-07
-6.33958e-05 0.000152244 1.60736e-06
-3.66908e-07 1.60736e-06 -4.98719e-06
0.00107471 -2.22463e-06 1.30739e-07
-2.22463e-06 0.000138735 1.0377e-06
1.30739e-07 1.0377e-06 6.41303e-05
-0.00192734 -0.000221355 5.69148e-06
-0.000221355 -0.00143605 -9.23227e-06
5.69148e-06 -9.23227e-06 -0.00138939
0.00157192 2.37727e-05 -7.54399e-06
2.37727e-05 0.000587491 1.42703e-05
-7.54399e-06 1.42703e-05 0.000434396
0.000542394 3.78e-06 -8.48312e-07
3.78e-06 -0.000150777 3.73284e-06
-8.48312e-07 3.73284e-06 -0.000227038
0.000998758 7.6782e-05 4.48654e-07
7.6782e-05 0.000106033 1.43091e-06
4.48654e-07 1.43091e-06 2.22592e-05
0.00128551 -2.43348e-07 9.50202e-06
-2.43348e-07 0.000312276 1.32254e-06
9.50202e-06 1.32254e-06 0.000243295
0.00137856 -6.28301e-06 1.19317e-05
-6.28301e-06 6.80464e-05 5.57947e-07
1.19317e-05 5.57947e-07 -4.80772e-05
-0.00108827 -3.63871e-06 1.75219e-05
-3.63871e-06 -0.000363857 -4.03936e-07
1.75219e-05 -4.03936e-07 -0.000570321
0.000852421 7.69883e-05 5.11735e-06
7.69883e-05 9.7021e-05 2.79452e-06
5.11735e-06 2.79452e-06 2.85835e-05
-0.000189194 2.92694e-05 -1.24788e-06
2.92694e-05 -0.000236152 6.5552e-06
-1.24788e-06 6.5552e-06 -0.00035512
0.00132553 -1.27577e-06 1.76597e-05
-1.27577e-06 2.0779e-05 -1.21609e-06
1.76597e-05 -1.21609e-06 -6.38939e-05
0.00570604 -0.000475319 6.05688e-05
-0.000475319 0.00161628 2.08346e-05
6.05688e-05 2.08346e-05 0.000193803
0.0055759 0.000455744 -2.66834e-05
0.000455744 0.00178232 -6.88698e-05
-2.66834e-05 -6.88698e-05 0.00116612
0.00314781 -0.000324738 1.04172e-05
-0.000324738 7.06547e-05 7.10979e-05
1.04172e-05 7.10979e-05 2.71453e-06
0.00175852 -9.7864e-06 -1.6905e-06
-9.7864e-06 0.000204915 1.17654e-05
-1.6905e-06 1.17654e-05 0.000148815
0.00107433 1.41225e-05 5.59068e-07
1.41225e-05 -0.00139133 4.26236e-06
5.59068e-07 4.26236e-06 -0.000745298
0.000904705 6.12594e-05 5.41281e-07
6.12594e-05 0.000185013 1.72832e-07
5.41281e-07 1.72832e-07 0.000137397
0.000972863 2.91756e-06 -1.12688e-06
2.91756e-06 8.02346e-05 3.17594e-07
-1.12688e-06 3.17594e-07 2.50882e-05
0.00134718 1.27614e-06 -1.92585e-06
1.27614e-06 8.86899e-05 7.18969e-07
-1.92585e-06 7.18969e-07 1.75205e-05
-0.000502109 7.53994e-05 1.10842e-06
7.53994e-05 -0.000185461 -1.26118e-06
1.10842e-06 -1.26118e-06 -0.000330134
0.00292543 0.000154434 3.4941e-06
0.000154434 -0.000241958 -2.44543e-06
3.4941e-06 -2.44543e-06 0.000306852
0.00520478 0.000251255 3.83294e-05
0.000251255 0.000896882 1.25409e-06
3.83294e-05 1.25409e-06 -0.000186583
0.00321742 0.000119354 -4.69316e-05
0.000119354 0.000666283 -3.8084e-06
-4.69316e-05 -3.8084e-06 0.000545146
-0.000504317 3.8627e-05 2.05686e-06
3.8627e-05 -0.000342016 -1.18538e-05
2.05686e-06 -1.18538e-05 -0.000421413
0.00114287 9.88531e-07 -4.22618e-06
9.88531e-07 0.000249617 9.36229e-06
-4.22618e-06 9.36229e-06 0.000177499
0.00155467 1.94152e-05 7.24972e-06
1.94152e-05 0.000107652 -1.27584e-05
7.24972e-06 -1.27584e-05 4.64985e-05
0.00293443 0.000278274 3.96027e-05
0.000278274 -7.1167e-05 -2.23308e-05
3.96027e-05 -2.23308e-05 0.000600254
0.0020015 0.000333362 -1.01598e-05
0.000333362 -0.000452413 -5.20638e-05
-1.01598e-05 -5.20638e-05 -0.000482215
0.00142514 0.000222596 1.76351e-05
0.000222596 0.000285541 -1.14935e-05
1.76351e-05 -1.14935e-05 0.000326321
0.00273328 -0.000186205 9.25923e-05
-0.000186205 0.000398387 7.72776e-06
9.25923e-05 7.72776e-06 -0.000933876
0.000875368 7.64127e-05 -9.2504e-07
7.64127e-05 5.33891e-05 6.17904e-06
-9.2504e-07 6.17904e-06 -1.36901e-05
0.000954614 1.50875e-05 1.24332e-06
1.50875e-05 0.000129099 2.54618e-06
1.24332e-06 2.54618e-06 7.48194e-05
0.000252444 -3.46587e-05 6.55504e-06
-3.46587e-05 -7.63618e-05 -4.99734e-06
6.55504e-06 -4.99734e-06 -0.000175862
0.00100815 1.76641e-05 -6.61647e-07
1.76641e-05 9.78057e-05 -2.38991e-07
-6.61647e-07 -2.38991e-07 3.24926e-05
0.00082684 -5.24575e-05 -1.10809e-06
-5.24575e-05 -2.1664e-06 2.58987e-07
-1.10809e-06 2.58987e-07 -6.70303e-05
0.000964342 -5.39545e-05 -1.18584e-06
-5.39545e-05 8.00359e-05 1.26192e-06
-1.18584e-06 1.26192e-06 1.61352e-05
0.000962103 -2.01376e-05 -4.01705e-08
-2.01376e-05 6.5328e-05 -2.57741e-07
-4.01705e-08 -2.57741e-07 7.56221e-07
0.000755395 -2.05563e-05 -8.52601e-07
-2.05563e-05 -1.74145e-05 1.71567e-06
-8.52601e-07 1.71567e-06 -6.16359e-05
0.000715842 -4.31247e-05 1.56616e-06
-4.31247e-05 2.49963e-05 -2.54017e-07
1.56616e-06 -2.54017e-07 -7.39084e-05
0.000915048 1.17643e-05 -3.31159e-07
1.17643e-05 4.93053e-05 -1.46653e-07
-3.31159e-07 -1.46653e-07 -1.75468e-05
0.00100693 3.24404e-05 -2.53035e-07
3.24404e-05 0.000109784 -1.74443e-07
-2.53035e-07 -1.74443e-07 3.93057e-05
0.00100946 -3.42614e-05 3.47727e-07
-3.42614e-05 0.000127981 3.74018e-07
3.47727e-07 3.74018e-07 4.99201e-05
0.000669412 -4.96028e-05 2.19618e-06
-4.96028e-05 1.82121e-05 2.06073e-06
2.19618e-06 2.06073e-06 -0.00010294
0.000813389 -1.31345e-05 -2.36675e-06
-1.31345e-05 3.11353e-05 -1.27472e-06
-2.36675e-06 -1.27472e-06 -4.95575e-05
0.000690654 -5.42229e-05 2.51209e-07
-5.42229e-05 -1.01755e-05 -1.64675e-07
2.51209e-07 -1.64675e-07 -0.000117748
0.00103181 -0.000105775 8.75944e-07
-0.000105775 0.000153678 1.72509e-06
8.75944e-07 1.72509e-06 1.31557e-05
0.00113764 -0.000109789 -4.11154e-06
-0.000109789 0.00015575 2.92263e-06
-4.11154e-06 2.92263e-06 2.42583e-05
0.00128029 -6.61638e-05 -4.33048e-07
-6.61638e-05 0.000271288 -1.38678e-06
-4.33048e-07 -1.38678e-06 0.000173986
0.00078012 -8.73583e-05 -6.64901e-07
-8.73583e-05 6.88037e-06 4.29174e-07
-6.64901e-07 4.29174e-07 -0.000117275
0.00135913 -0.000113913 -5.63861e-07
-0.000113913 0.000306604 -2.71999e-07
-5.63861e-07 -2.71999e-07 0.000196036
0.000692499 -6.83591e-05 -1.51017e-06
-6.83591e-05 -2.27438e-05 5.85906e-07
-1.51017e-06 5.85906e-07 -0.000124506
0.00094378 -9.19571e-05 2.54248e-07
-9.19571e-05 9.7744e-05 -3.77365e-07
2.54248e-07 -3.77365e-07 -1.51716e-05
0.000942366 -1.3647e-05 -5.40619e-07
-1.3647e-05 8.27378e-05 9.85001e-07
-5.40619e-07 9.85001e-07 6.28917e-06
0.00103277 -6.79169e-05 -1.0861e-06
-6.79169e-05 0.000142609 8.98608e-07
-1.0861e-06 8.98608e-07 4.83692e-05
0.00078034 -8.28124e-05 3.23876e-07
-8.28124e-05 1.66725e-05 -1.97649e-06
3.23876e-07 -1.97649e-06 -9.53661e-05
0.000878935 2.54266e-05 -2.43352e-07
2.54266e-05 4.0488e-05 1.25419e-06
-2.43352e-07 1.25419e-06 -1.53716e-05
0.000840665 -5.31087e-06 4.11913e-07
-5.31087e-06 2.67535e-05 5.97135e-08
4.11913e-07 5.97135e-08 -4.46049e-05
0.000930452 -3.59212e-05 9.6243e-07
-3.59212e-05 8.498e-05 -2.00394e-06
9.6243e-07 -2.00394e-06 -1.86084e-06
0.000916996 7.89275e-06 -4.78446e-09
7.89275e-06 6.48498e-05 -1.05303e-06
-4.78446e-09 -1.05303e-06 1.75403e-06
0.000865645 2.12468e-05 -1.55393e-07
2.12468e-05 3.0636e-05 -1.03319e-07
-1.55393e-07 -1.03319e-07 -1.99846e-05
0.00081998 2.98719e-05 -1.16122e-06
2.98719e-05 6.15516e-06 1.77718e-06
-1.16122e-06 1.77718e-06 -2.70972e-05
0.00086991 6.15591e-06 5.16032e-07
6.15591e-06 3.12986e-05 -1.03977e-06
5.16032e-07 -1.03977e-06 -1.64325e-05
0.00082665 2.53182e-05 -7.92696e-09
2.53182e-05 4.69535e-06 -5.74559e-09
-7.92696e-09 -5.74559e-09 -2.63924e-05
0.000748896 2.7474e-05 -1.51626e-06
2.7474e-05 -3.72718e-05 3.31015e-06
-1.51626e-06 3.31015e-06 -4.21559e-05
0.000836413 1.73391e-05 9.66642e-07
1.73391e-05 5.05905e-06 -1.69666e-06
9.66642e-07 -1.69666e-06 -2.44002e-05
0.00076788 2.36194e-05 1.34785e-07
2.36194e-05 -3.34014e-05 1.35934e-08
1.34785e-07 1.35934e-08 -3.67513e-05
0.00206453 3.60722e-05 -4.83337e-06
3.60722e-05 0.000663385 1.54184e-06
-4.83337e-06 1.54184e-06 0.000683082
0.00078014 1.92841e-05 1.03756e-06
1.92841e-05 -3.23379e-05 -3.17839e-06
1.03756e-06 -3.17839e-06 -3.44877e-05
0.00152843 2.35715e-05 6.45074e-06
2.35715e-05 0.000370054 -1.08265e-06
6.45074e-06 -1.08265e-06 0.000388276
0.00211914 2.04419e-05 1.13004e-05
2.04419e-05 0.000683298 -3.84902e-06
1.13004e-05 -3.84902e-06 0.00070502
0.000746315 -2.16228e-05 1.00053e-07
-2.16228e-05 -3.52175e-05 -8.93649e-07
1.00053e-07 -8.93649e-07 -8.7306e-05
0.00059096 -1.56392e-05 -2.62689e-07
-1.56392e-05 -0.000123842 -1.88724e-06
-2.62689e-07 -1.88724e-06 -0.00015532
0.000844789 -3.22984e-06 -2.28601e-07
-3.22984e-06 2.17099e-05 -5.49591e-07
-2.28601e-07 -5.49591e-07 -2.98519e-05
0.000797563 -1.54124e-05 -5.31058e-07
-1.54124e-05 -2.60551e-05 -3.06322e-06
-5.31058e-07 -3.06322e-06 -2.6847e-05
0.000604663 -1.24767e-05 2.58056e-08
-1.24767e-05 -0.000119581 -5.72777e-07
2.58056e-08 -5.72777e-07 -0.00014822
0.000963583 -9.26778e-07 -1.65008e-07
-9.26778e-07 8.45674e-05 4.64348e-07
-1.65008e-07 4.64348e-07 3.70259e-05
0.00204754 -1.38143e-05 -8.01952e-06
-1.38143e-05 0.000642313 -3.95137e-06
-8.01952e-06 -3.95137e-06 0.000665331
0.000791093 -1.02563e-05 -1.09951e-07
-1.02563e-05 -3.33136e-05 -1.93863e-08
-1.09951e-07 -1.93863e-08 -3.21793e-05
0.000605389 -8.85655e-06 1.2775e-07
-8.85655e-06 -0.000121983 1.3941e-06
1.2775e-07 1.3941e-06 -0.000148422
0.00201754 -6.75853e-06 -2.03655e-06
-6.75853e-06 0.000623773 1.44404e-08
-2.03655e-06 1.44404e-08 0.000647611
0.000790017 -5.13247e-06 1.68232e-07
-5.13247e-06 -3.63787e-05 3.03523e-06
1.68232e-07 3.03523e-06 -3.41121e-05
0.0020169 2.86328e-07 -6.28937e-07
2.86328e-07 0.00062259 3.98627e-06
-6.28937e-07 3.98627e-06 0.000646596
0.00106251 2.83721e-06 4.49685e-06
2.83721e-06 9.8222e-05 -1.18788e-06
4.49685e-06 -1.18788e-06 2.97044e-05
0.00115391 5.59997e-06 -1.30961e-06
5.59997e-06 -9.49953e-05 7.05463e-07
-1.30961e-06 7.05463e-07 -0.000212006
0.000990246 9.89554e-05 3.5463e-05
9.89554e-05 0.000716889 -6.46706e-06
3.5463e-05 -6.46706e-06 0.000682146
0.000928601 1.78756e-05 1.28785e-07
1.78756e-05 7.08379e-05 6.44306e-08
1.28785e-07 6.44306e-08 5.06713e-06
0.000852033 -4.1493e-06 5.7029e-08
-4.1493e-06 2.55451e-05 1.84321e-08
5.7029e-08 1.84321e-08 -4.03287e-05
0.000988913 2.95436e-05 -3.55582e-07
2.95436e-05 0.000107121 7.23093e-07
-3.55582e-07 7.23093e-07 3.46758e-05
0.00165094 1.47717e-05 4.08807e-06
1.47717e-05 0.000210616 1.74405e-05
4.08807e-06 1.74405e-05 0.000137833
0.00135172 2.33485e-05 -3.86195e-06
2.33485e-05 -2.42795e-05 2.70744e-06
-3.86195e-06 2.70744e-06 -7.97215e-05
0.00113703 3.27489e-05 1.85528e-05
3.27489e-05 -0.000372347 -1.8592e-05
1.85528e-05 -1.8592e-05 -0.00049652
0.00331611 -2.23637e-05 -4.44212e-05
-2.23637e-05 0.000305758 1.45608e-05
-4.44212e-05 1.45608e-05 5.05554e-05
0.00118763 0.000316473 -7.90031e-06
0.000316473 -0.000130952 7.51412e-06
-7.90031e-06 7.51412e-06 -0.00138907
0.0047141 0.000516895 5.68048e-05
0.000516895 0.00104414 -2.4483e-05
5.68048e-05 -2.4483e-05 0.001092
0.00172657 0.000123935 6.85212e-06
0.000123935 -0.00108107 -1.66535e-05
6.85212e-06 -1.66535e-05 -0.000468029
0.00277077 -0.000148764 -7.83734e-06
-0.000148764 0.000104266 5.37933e-06
-7.83734e-06 5.37933e-06 -5.4435e-05
0.00546908 0.000202603 3.41279e-05
0.000202603 0.00157158 -3.1195e-05
3.41279e-05 -3.1195e-05 0.000167329
0.00084579 8.38962e-05 -9.26361e-06
8.38962e-05 -0.000661403 7.60253e-06
-9.26361e-06 7.60253e-06 -0.000656474
0.00256317 3.31092e-05 -1.03258e-06
3.31092e-05 -0.000484503 1.14397e-06
-1.03258e-06 1.14397e-06 0.000172746
0.00559464 -0.000464675 9.91257e-06
-0.000464675 0.0014367 -6.2461e-05
9.91257e-06 -6.2461e-05 0.00116975
0.0078929 0.000204999 4.83348e-05
0.000204999 0.00286584 -2.15169e-05
4.83348e-05 -2.15169e-05 0.00135747
-0.000587268 5.62105e-05 1.57383e-05
5.62105e-05 -0.000834091 4.39291e-05
1.57383e-05 4.39291e-05 -0.000958017
0.000592417 -0.000100565 6.07361e-06
-0.000100565 -0.00157565 7.40325e-06
6.07361e-06 7.40325e-06 -0.000992155
0.000969704 -1.15494e-06 6.62189e-08
-1.15494e-06 9.00004e-05 9.08949e-07
6.62189e-08 9.08949e-07 1.21076e-05
0.000909555 -1.13131e-05 5.50802e-09
-1.13131e-05 6.85914e-05 -1.47076e-07
5.50802e-09 -1.47076e-07 -1.24142e-05
0.000921809 -3.74365e-05 -3.14906e-07
-3.74365e-05 8.10923e-05 -2.78988e-07
-3.14906e-07 -2.78988e-07 2.83494e-06
0.000916571 9.52574e-06 -3.06359e-07
9.52574e-06 6.63731e-05 -4.15416e-07
-3.06359e-07 -4.15416e-07 -5.77986e-06
0.00103527 7.16716e-05 1.18228e-06
7.16716e-05 0.000138335 6.0159e-08
1.18228e-06 6.0159e-08 6.51221e-05
0.00107866 5.44543e-05 -3.73158e-08
5.44543e-05 0.000158385 1.88135e-07
-3.73158e-08 1.88135e-07 9.11939e-05
0.00264975 -0.00030132 9.00925e-06
-0.00030132 0.000609766 -4.46585e-06
9.00925e-06 -4.46585e-06 0.000591453
-0.000254996 -4.20126e-05 6.20534e-06
-4.20126e-05 -0.000472332 -3.26612e-06
6.20534e-06 -3.26612e-06 -0.00063814
0.00107152 3.72554e-05 1.91551e-07
3.72554e-05 0.000151973 -6.55728e-07
1.91551e-07 -6.55728e-07 6.89715e-05
0.00130754 -6.38881e-05 1.96198e-06
-6.38881e-05 0.000260598 -5.317e-06
1.96198e-06 -5.317e-06 0.000160574
0.00114959 1.95773e-06 -3.17538e-07
1.95773e-06 0.000187211 -2.00231e-06
-3.17538e-07 -2.00231e-06 9.92767e-05
0.000969724 -6.95178e-06 3.83474e-07
-6.95178e-06 8.24847e-05 -1.67362e-07
3.83474e-07 -1.67362e-07 6.9555e-06
0.000967288 3.9532e-05 1.66994e-07
3.9532e-05 8.86317e-05 -4.45468e-08
1.66994e-07 -4.45468e-08 7.43582e-06
0.000838129 -0.000272417 -9.05515e-06
-0.000272417 -3.60081e-05 1.94816e-06
-9.05515e-06 1.94816e-06 -3.09509e-05
0.000920677 -1.80903e-05 8.65644e-07
-1.80903e-05 4.99205e-05 -1.32741e-06
8.65644e-07 -1.32741e-06 -2.51564e-05
0.00100393 2.19307e-05 -5.83894e-07
2.19307e-05 0.000337527 -1.90528e-06
-5.83894e-07 -1.90528e-06 0.000194306
0.000963678 1.34383e-06 1.00032e-06
1.34383e-06 8.40184e-05 9.61461e-07
1.00032e-06 9.61461e-07 1.2801e-05
-0.00202044 -0.000114361 2.50809e-06
-0.000114361 -0.00100268 -1.11471e-05
2.50809e-06 -1.11471e-05 -0.00124463
0.00081522 3.02054e-07 5.22721e-07
3.02054e-07 0.000189337 1.98792e-05
5.22721e-07 1.98792e-05 0.000158067
0.00100105 -1.79243e-05 5.40356e-07
-1.79243e-05 0.000103378 2.7157e-06
5.40356e-07 2.7157e-06 2.78366e-05
0.00118422 1.41606e-06 -5.00884e-07
1.41606e-06 0.00034418 2.31101e-07
-5.00884e-07 2.31101e-07 0.000259611
0.000925028 7.15476e-07 8.4703e-07
7.15476e-07 0.000106089 7.45593e-07
8.4703e-07 7.45593e-07 3.30194e-05
0.00119389 -8.93341e-06 3.26665e-05
-8.93341e-06 -1.64378e-05 -3.95581e-08
3.26665e-05 -3.95581e-08 -0.00013613
0.000757182 7.54827e-05 5.80183e-06
7.54827e-05 9.92137e-05 7.60847e-06
5.80183e-06 7.60847e-06 4.26709e-05
0.000951879 0.000157425 1.03482e-05
0.000157425 0.000345205 -1.51568e-05
1.03482e-05 -1.51568e-05 0.000226044
0.00100722 2.99632e-06 -6.22565e-06
2.99632e-06 0.000104465 -3.73147e-06
-6.22565e-06 -3.73147e-06 5.04428e-05
0.0029344 9.85044e-05 -2.98306e-05
9.85044e-05 0.000349263 -2.7244e-06
-2.98306e-05 -2.7244e-06 -0.000717981
-0.00339492 2.53971e-05 -1.86603e-05
2.53971e-05 -0.00258245 5.6635e-05
-1.86603e-05 5.6635e-05 -0.00271039
0.000954184 1.40682e-06 -3.533e-06
1.40682e-06 -8.58561e-05 6.74185e-06
-3.533e-06 6.74185e-06 -0.000152874
0.00173282 0.000114453 -5.64375e-06
0.000114453 -0.000994816 1.63061e-05
-5.64375e-06 1.63061e-05 -0.000444317
0.000408078 3.88919e-05 -3.99908e-06
3.88919e-05 9.46911e-05 -3.33642e-06
-3.99908e-06 -3.33642e-06 2.94855e-05
0.000919625 2.71048e-07 -2.59792e-06
2.71048e-07 0.000128525 1.97337e-06
-2.59792e-06 1.97337e-06 5.00182e-05
0.00135997 1.51828e-05 4.4603e-06
1.51828e-05 -1.57025e-05 -2.68174e-06
4.4603e-06 -2.68174e-06 -8.3892e-05
0.00185033 0.000274378 4.88423e-05
0.000274378 0.000213105 1.50146e-06
4.88423e-05 1.50146e-06 0.000125866
0.00201292 0.0002756 2.34401e-06
0.0002756 -0.000664519 -6.22763e-06
2.34401e-06 -6.22763e-06 1.19556e-05
0.000865927 0.000111195 9.7021e-06
0.000111195 -0.000669776 -8.93114e-06
9.7021e-06 -8.93114e-06 -0.000621067
0.00727972 0.000160978 1.2838e-05
0.000160978 0.00265023 -1.86478e-05
1.2838e-05 -1.86478e-05 0.00126546
-0.000481208 2.1033e-06 -2.49357e-05
2.1033e-06 -7.91512e-05 -1.39413e-05
-2.49357e-05 -1.39413e-05 -0.000220318
0.00106386 2.30873e-07 -3.28879e-06
2.30873e-07 9.9824e-05 1.2098e-06
-3.28879e-06 1.2098e-06 2.95149e-05
0.00177273 4.18802e-05 4.44376e-05
4.18802e-05 2.91362e-06 -2.28927e-05
4.44376e-05 -2.28927e-05 -7.95066e-05
0.00148873 0.000481136 1.8441e-05
0.000481136 4.52008e-05 -3.23511e-06
1.8441e-05 -3.23511e-06 0.000927115
-0.00432014 0.000275941 6.85394e-05
0.000275941 -0.00319404 -2.18114e-05
6.85394e-05 -2.18114e-05 -0.00298505
0.00793667 0.000248785 1.96513e-05
0.000248785 0.00269961 -4.57623e-05
1.96513e-05 -4.57623e-05 0.00111782
0.00264646 -7.20453e-05 -6.72467e-07
-7.20453e-05 0.000423988 9.90723e-05
-6.72467e-07 9.90723e-05 0.000334106
0.00145887 1.08309e-05 -4.11221e-06
1.08309e-05 0.00038051 8.78135e-06
-4.11221e-06 8.78135e-06 0.000332216
0.000195805 -3.14175e-05 8.8992e-07
-3.14175e-05 -0.000103127 1.23426e-06
8.8992e-07 1.23426e-06 -0.000217764
0.000397926 -5.7753e-05 3.48365e-06
-5.7753e-05 6.90548e-05 -4.47778e-06
3.48365e-06 -4.47778e-06 -0.000100928
0.000938995 -2.88988e-05 -2.28158e-07
-2.88988e-05 5.76821e-05 -7.40848e-07
-2.28158e-07 -7.40848e-07 -8.44997e-06
0.000699386 -2.34215e-05 -4.27406e-07
-2.34215e-05 -6.03873e-05 2.77553e-06
-4.27406e-07 2.77553e-06 -0.000102597
0.000759331 -1.13804e-05 2.19764e-07
-1.13804e-05 4.8853e-05 1.25546e-07
2.19764e-07 1.25546e-07 -4.05716e-05
0.000913527 -9.54314e-05 5.47211e-06
-9.54314e-05 0.000210823 -6.01599e-07
5.47211e-06 -6.01599e-07 2.83882e-05
0.00122747 -3.62752e-05 -8.24638e-07
-3.62752e-05 0.000233619 -3.80139e-07
-8.24638e-07 -3.80139e-07 0.000154446
0.00115772 -8.73418e-05 5.40773e-07
-8.73418e-05 0.000253308 4.19312e-07
5.40773e-07 4.19312e-07 0.000127287
0.00103566 -0.000109111 1.91136e-06
-0.000109111 0.00019639 3.31316e-06
1.91136e-06 3.31316e-06 9.72872e-06
0.000590241 -5.33101e-05 -4.55937e-07
-5.33101e-05 -5.81503e-05 -1.86627e-06
-4.55937e-07 -1.86627e-06 -0.000160785
0.00110645 -0.00010782 -4.74629e-07
-0.00010782 0.000192139 3.89755e-08
-4.74629e-07 3.89755e-08 4.78827e-05
0.00165156 -0.000145896 -1.47038e-06
-0.000145896 0.000418566 2.17083e-06
-1.47038e-06 2.17083e-06 0.000252497
0.00154776 -0.000140458 -4.127e-06
-0.000140458 0.000325208 2.81384e-06
-4.127e-06 2.81384e-06 0.000178663
0.000737817 -8.93828e-05 -1.69614e-06
-8.93828e-05 -3.60506e-05 2.42819e-06
-1.69614e-06 2.42819e-06 -0.000150357
0.00105197 -0.000107 -1.20599e-06
-0.000107 0.000110764 8.38112e-07
-1.20599e-06 8.38112e-07 -2.21882e-05
0.000969159 -9.6724e-05 -6.33756e-07
-9.6724e-05 9.90417e-05 -1.40693e-06
-6.33756e-07 -1.40693e-06 -2.85982e-05
0.00116864 -0.000102662 4.18688e-07
-0.000102662 0.000206472 -8.98735e-07
4.18688e-07 -8.98735e-07 0.000103787
0.00107942 -9.97417e-05 1.79538e-06
-9.97417e-05 0.000163156 -8.20914e-07
1.79538e-06 -8.20914e-07 5.60599e-05
0.000766527 -3.76378e-05 -2.64708e-07
-3.76378e-05 2.58378e-06 1.43936e-06
-2.64708e-07 1.43936e-06 -8.59179e-05
0.000901284 -7.41874e-05 4.55936e-07
-7.41874e-05 8.4534e-05 -1.49267e-07
4.55936e-07 -1.49267e-07 -1.63844e-05
0.000951643 -9.19291e-05 3.67551e-06
-9.19291e-05 0.000101327 -2.45235e-06
3.67551e-06 -2.45235e-06 -9.39776e-06
0.000887659 2.82246e-05 -3.36439e-07
2.82246e-05 4.86498e-05 1.3995e-06
-3.36439e-07 1.3995e-06 -1.47012e-05
0.000953667 -2.31409e-05 -1.55805e-07
-2.31409e-05 8.99442e-05 -3.01486e-08
-1.55805e-07 -3.01486e-08 1.24227e-05
0.00109561 -6.81216e-05 2.53167e-07
-6.81216e-05 0.000173223 -6.80551e-07
2.53167e-07 -6.80551e-07 7.89584e-05
0.000810627 3.434e-05 -1.06978e-06
3.434e-05 6.49688e-06 1.89311e-06
-1.06978e-06 1.89311e-06 -3.03065e-05
0.000868193 2.30501e-05 -2.01661e-08
2.30501e-05 3.4554e-05 -1.08893e-07
-2.01661e-08 -1.08893e-07 -2.10818e-05
0.000767901 -4.50067e-06 4.85524e-07
-4.50067e-06 -1.14986e-05 -1.12931e-06
4.85524e-07 -1.12931e-06 -8.31067e-05
0.000870584 1.72948e-05 4.28355e-07
1.72948e-05 3.31606e-05 -1.27311e-06
4.28355e-07 -1.27311e-06 -1.74249e-05
0.00081872 3.2257e-05 2.12512e-08
3.2257e-05 5.64903e-06 -2.84644e-08
2.12512e-08 -2.84644e-08 -2.78246e-05
0.000735833 3.15699e-05 -1.84925e-06
3.15699e-05 -3.70622e-05 3.34716e-06
-1.84925e-06 3.34716e-06 -4.40067e-05
0.000828761 2.64134e-05 9.06455e-07
2.64134e-05 5.55043e-06 -1.81052e-06
9.06455e-07 -1.81052e-06 -2.55661e-05
0.000763246 2.79154e-05 9.48328e-08
2.79154e-05 -2.9877e-05 -1.72815e-09
9.48328e-08 -1.72815e-09 -3.48062e-05
0.00212058 3.89782e-05 -1.88956e-05
3.89782e-05 0.000698547 3.56348e-06
-1.88956e-05 3.56348e-06 0.00071723
0.000780432 2.39148e-05 1.33711e-06
2.39148e-05 -2.71548e-05 -3.2271e-06
1.33711e-06 -3.2271e-06 -3.04894e-05
0.00152373 2.93776e-05 7.61242e-06
2.93776e-05 0.000373491 -1.00913e-06
7.61242e-06 -1.00913e-06 0.000390496
0.00211205 2.694e-05 1.43625e-05
2.694e-05 0.000683843 -3.74648e-06
1.43625e-05 -3.74648e-06 0.00070476
0.000868951 1.33708e-05 -5.16467e-07
1.33708e-05 3.03126e-05 -5.16871e-07
-5.16467e-07 -5.16871e-07 -2.3111e-05
0.000812219 -1.78245e-05 -6.67349e-07
-1.78245e-05 -5.17323e-06 -1.42352e-06
-6.67349e-07 -1.42352e-06 -3.7563e-05
0.000793839 9.42225e-06 -6.52451e-07
9.42225e-06 -6.5231e-06 -4.99869e-07
-6.52451e-07 -4.99869e-07 -5.99352e-05
0.000790752 -2.02736e-05 -5.94978e-07
-2.02736e-05 -2.45737e-05 -3.16423e-06
-5.94978e-07 -3.16423e-06 -2.76745e-05
0.000711838 -1.59175e-05 -1.1147e-07
-1.59175e-05 -6.00485e-05 -6.0378e-07
-1.1147e-07 -6.0378e-07 -9.0941e-05
0.000971006 -4.60687e-06 -7.46008e-09
-4.60687e-06 8.78156e-05 -3.60583e-08
-7.46008e-09 -3.60583e-08 3.69778e-05
0.00209076 -2.05732e-05 -1.12852e-05
-2.05732e-05 0.000668922 -3.93404e-06
-1.12852e-05 -3.93404e-06 0.000690776
0.000784351 -1.51656e-05 -1.2911e-07
-1.51656e-05 -3.3037e-05 -1.93883e-08
-1.2911e-07 -1.93883e-08 -3.3726e-05
0.000595078 -1.24985e-05 5.97775e-08
-1.24985e-05 -0.000124458 7.22424e-07
5.97775e-08 7.22424e-07 -0.000153422
0.00203904 -1.3445e-05 -1.85381e-06
-1.3445e-05 0.000637402 2.90869e-08
-1.85381e-06 2.90869e-08 0.000660574
0.000781132 -1.00582e-05 3.74087e-07
-1.00582e-05 -3.86679e-05 3.02506e-06
3.74087e-07 3.02506e-06 -3.74456e-05
0.00201414 -6.40314e-06 3.03569e-06
-6.40314e-06 0.000621743 3.95635e-06
3.03569e-06 3.95635e-06 0.000645645
0.00105262 1.86706e-06 3.96833e-06
1.86706e-06 0.000195841 -8.90965e-06
3.96833e-06 -8.90965e-06 0.000118869
0.00106174 1.93604e-06 -1.85793e-06
1.93604e-06 0.000104519 8.04e-07
-1.85793e-06 8.04e-07 3.77259e-05
0.00121362 1.30423e-06 2.15802e-05
1.30423e-06 -5.97203e-05 2.32638e-06
2.15802e-05 2.32638e-06 -0.000170506
0.000844421 -3.17327e-05 6.88912e-08
-3.17327e-05 1.8284e-05 -3.06189e-07
6.88912e-08 -3.06189e-07 -4.65763e-05
0.000982424 -1.00066e-05 -1.27113e-07
-1.00066e-05 9.74294e-05 -3.44441e-07
-1.27113e-07 -3.44441e-07 2.65322e-05
0.000959003 1.75977e-05 1.06614e-06
1.75977e-05 8.5561e-05 -5.35553e-08
1.06614e-06 -5.35553e-08 2.14332e-05
0.000854389 -1.64764e-05 2.58529e-08
-1.64764e-05 2.45816e-05 2.41618e-08
2.58529e-08 2.41618e-08 -3.99257e-05
0.000931646 9.68992e-06 2.8603e-08
9.68992e-06 7.3931e-05 3.27765e-07
2.8603e-08 3.27765e-07 2.29916e-06
0.000962001 4.32042e-06 -6.36008e-07
4.32042e-06 8.7791e-05 2.84128e-07
-6.36008e-07 2.84128e-07 1.70528e-05
0.000929242 8.45082e-05 2.40644e-07
8.45082e-05 7.9753e-05 9.38547e-07
2.40644e-07 9.38547e-07 3.44502e-07
0.00134066 -4.89348e-07 4.08861e-06
-4.89348e-07 -2.84189e-06 2.44837e-05
4.08861e-06 2.44837e-05 -6.53542e-05
0.00128532 1.22191e-05 1.3651e-06
1.22191e-05 5.21069e-05 6.18246e-06
1.3651e-06 6.18246e-06 -1.61454e-05
0.00115362 2.00366e-05 -2.79482e-06
2.00366e-05 -0.000156498 -9.20625e-06
-2.79482e-06 -9.20625e-06 -0.000211354
0.00112479 2.12337e-05 2.39067e-06
2.12337e-05 -0.00140547 -1.23954e-05
2.39067e-06 -1.23954e-05 -0.000737578
0.000445453 -0.000143814 -4.52234e-05
-0.000143814 -0.00124194 6.11914e-05
-4.52234e-05 6.11914e-05 -0.00155658
0.00231587 9.07763e-05 3.91924e-05
9.07763e-05 0.000265186 -2.89306e-05
3.91924e-05 -2.89306e-05 -0.00107466
0.00510112 0.000394392 2.76381e-05
0.000394392 0.0015234 -2.2757e-05
2.76381e-05 -2.2757e-05 0.00119809
0.00191279 -0.000304549 -2.52091e-05
-0.000304549 -0.000335409 9.28792e-06
-2.52091e-05 9.28792e-06 -0.000789303
0.00233775 -9.98328e-05 3.75126e-05
-9.98328e-05 4.17388e-05 -4.02837e-05
3.75126e-05 -4.02837e-05 -0.00135804
0.00361051 1.59106e-05 -1.76288e-05
1.59106e-05 0.000709927 1.64566e-06
-1.76288e-05 1.64566e-06 0.00052017
0.00339174 -0.00013974 -2.2435e-06
-0.00013974 0.00015554 -9.86896e-06
-2.2435e-06 -9.86896e-06 0.000766038
0.00358683 -0.000273691 -1.86305e-06
-0.000273691 0.000783611 -1.10406e-05
-1.86305e-06 -1.10406e-05 0.000724113
0.00295366 -0.000365648 8.75689e-06
-0.000365648 -0.000397699 -8.67781e-05
8.75689e-06 -8.67781e-05 -0.00116982
-0.00126868 -0.000157735 3.97178e-05
-0.000157735 -0.00207913 2.93868e-05
3.97178e-05 2.93868e-05 -0.00228142
0.000349188 -0.000191527 2.62806e-05
-0.000191527 -0.00154394 4.03387e-06
2.62806e-05 4.03387e-06 -0.000899776
0.00106692 -3.88955e-05 -2.65363e-08
-3.88955e-05 0.000134697 1.63645e-06
-2.65363e-08 1.63645e-06 6.27982e-05
0.000877771 4.67057e-07 7.60102e-08
4.67057e-07 4.23102e-05 -6.29971e-08
7.60102e-08 -6.29971e-08 -3.58249e-05
0.000867247 -2.00047e-06 -4.54528e-07
-2.00047e-06 4.83167e-05 -1.20432e-06
-4.54528e-07 -1.20432e-06 -3.37748e-05
0.000917721 2.16037e-05 -7.33606e-08
2.16037e-05 6.78887e-05 -1.23234e-06
-7.33606e-08 -1.23234e-06 -4.90636e-06
0.00423104 -0.000327106 1.00691e-05
-0.000327106 0.00167587 2.77703e-06
1.00691e-05 2.77703e-06 0.00165015
0.000902574 9.10408e-06 5.04785e-06
9.10408e-06 0.000316188 -8.42266e-06
5.04785e-06 -8.42266e-06 0.000193218
0.000854038 -2.32124e-05 9.6436e-08
-2.32124e-05 1.7976e-05 -1.62599e-06
9.6436e-08 -1.62599e-06 -5.69229e-05
0.000920683 3.74752e-05 6.21038e-07
3.74752e-05 6.8699e-05 -1.49715e-06
6.21038e-07 -1.49715e-06 -1.401e-05
0.00141205 -3.57297e-06 1.13935e-06
-3.57297e-06 0.000314418 -5.96825e-06
1.13935e-06 -5.96825e-06 0.000238105
0.000920684 1.26757e-06 -3.56362e-08
1.26757e-06 5.91049e-05 6.14613e-08
-3.56362e-08 6.14613e-08 -1.20029e-05
0.00090938 -9.42006e-06 -1.46263e-06
-9.42006e-06 5.93783e-05 -4.87602e-08
-1.46263e-06 -4.87602e-08 -1.88819e-05
0.000360718 -0.000131065 -4.25479e-06
-0.000131065 0.000201454 -4.53521e-06
-4.25479e-06 -4.53521e-06 -2.37962e-05
0.000985499 -1.01829e-05 2.93482e-06
-1.01829e-05 0.000286751 5.60419e-06
2.93482e-06 5.60419e-06 0.000262113
0.000901549 -1.19213e-05 9.97935e-07
-1.19213e-05 6.12931e-05 -9.66657e-09
9.97935e-07 -9.66657e-09 -1.05978e-05
3.33333e-05 2.82942e-05 -9.57016e-06
2.82942e-05 0.0004971 -2.22786e-05
-9.57016e-06 -2.22786e-05 -0.000145645
0.0015287 -4.07313e-05 2.42275e-06
-4.07313e-05 0.000554383 1.24894e-05
2.42275e-06 1.24894e-05 0.000474187
0.00132228 -1.8496e-07 -9.43828e-06
-1.8496e-07 0.000336964 -1.40649e-06
-9.43828e-06 -1.40649e-06 0.000265084
0.000902862 9.56391e-07 -5.5612e-08
9.56391e-07 0.000151949 1.28385e-07
-5.5612e-08 1.28385e-07 5.63812e-05
0.000557225 1.7953e-06 -6.91261e-06
1.7953e-06 -0.000105146 2.01011e-06
-6.91261e-06 2.01011e-06 -0.000182853
0.00135791 4.43034e-05 1.88765e-06
4.43034e-05 0.000545448 4.84115e-06
1.88765e-06 4.84115e-06 0.000494911
0.00160366 0.000175252 -6.17608e-05
0.000175252 0.000407934 1.13333e-05
-6.17608e-05 1.13333e-05 0.000446074
0.000732733 -4.36654e-07 -3.99412e-06
-4.36654e-07 3.05528e-05 -5.35265e-06
-3.99412e-06 -5.35265e-06 -5.40578e-05
0.00315868 0.000213249 5.14918e-05
0.000213249 0.000527522 -7.83346e-05
5.14918e-05 -7.83346e-05 -0.000781028
0.00492174 0.00040181 -3.33152e-05
0.00040181 0.0014363 2.98128e-05
-3.33152e-05 2.98128e-05 0.00117283
0.00117462 1.09702e-05 1.38637e-06
1.09702e-05 -0.000139976 9.31851e-06
1.38637e-06 9.31851e-06 -0.000207445
0.00314253 0.000283804 -3.0708e-05
0.000283804 0.000116772 2.02476e-05
-3.0708e-05 2.02476e-05 0.000724607
-0.000343797 -2.10394e-05 2.19241e-05
-2.10394e-05 -1.93213e-05 -2.8893e-06
2.19241e-05 -2.8893e-06 -0.000166475
0.00106317 -1.93732e-07 2.29971e-06
-1.93732e-07 0.000106465 -9.36251e-07
2.29971e-06 -9.36251e-07 3.81645e-05
0.00150438 3.21163e-05 1.24249e-05
3.21163e-05 -0.0001554 -4.66724e-06
1.24249e-05 -4.66724e-06 -0.000266673
0.00178725 -2.69804e-05 -1.27203e-05
-2.69804e-05 0.000123844 2.17814e-05
-1.27203e-05 2.17814e-05 0.000176339
-6.72645e-05 0.000507669 -3.78847e-06
0.000507669 -0.00106975 5.03311e-06
-3.78847e-06 5.03311e-06 1.95299e-05
0.00309855 0.000459039 2.3151e-06
0.000459039 5.96125e-05 2.15486e-07
2.3151e-06 2.15486e-07 0.000232542
0.00248103 -5.58398e-05 3.71733e-05
-5.58398e-05 0.000263125 -1.71141e-05
3.71733e-05 -1.71141e-05 -0.00140832
0.000707945 -6.98514e-05 2.77739e-05
-6.98514e-05 0.000296862 -7.18646e-06
2.77739e-05 -7.18646e-06 0.000220272
0.00102358 3.16097e-06 2.18803e-05
3.16097e-06 -0.000174685 -6.35288e-06
2.18803e-05 -6.35288e-06 -0.000304371
-0.00105226 0.000230324 9.29517e-06
0.000230324 -0.000707089 -1.17363e-05
9.29517e-06 -1.17363e-05 -0.000544656
-5.49295e-05 0.000463808 4.31961e-05
0.000463808 -0.000259043 -2.75204e-06
4.31961e-05 -2.75204e-06 9.62584e-05
0.00886241 0.000532137 2.53244e-05
0.000532137 0.00305811 -4.98331e-05
2.53244e-05 -4.98331e-05 0.00167368
0.00289944 -0.00028179 -6.08095e-05
-0.00028179 0.000312557 8.74056e-05
-6.08095e-05 8.74056e-05 -0.000129499
0.000316491 -3.71793e-05 -4.58639e-06
-3.71793e-05 -4.74415e-05 7.68935e-06
-4.58639e-06 7.68935e-06 -0.000173595
0.000408064 -2.87837e-05 2.94112e-07
-2.87837e-05 8.28222e-05 -6.22578e-07
2.94112e-07 -6.22578e-07 -9.00848e-05
0.0016168 -0.000160072 1.22978e-05
-0.000160072 0.0005435 -3.60234e-06
1.22978e-05 -3.60234e-06 0.000409419
0.000771866 1.33107e-05 -2.45271e-06
1.33107e-05 5.9053e-05 -1.3253e-06
-2.45271e-06 -1.3253e-06 -2.19688e-05
0.000386414 -5.58275e-05 9.48438e-07
-5.58275e-05 -3.50724e-05 -6.57913e-07
9.48438e-07 -6.57913e-07 -0.000222659
0.00114864 -0.000125484 4.55125e-06
-0.000125484 0.000229171 5.27141e-06
4.55125e-06 5.27141e-06 3.46305e-05
0.00163744 -0.000128422 -1.48077e-06
-0.000128422 0.000484005 -8.3387e-07
-1.48077e-06 -8.3387e-07 0.000351873
0.00125496 -0.000118729 2.06962e-07
-0.000118729 0.000294393 1.09972e-06
2.06962e-07 1.09972e-06 0.000108552
0.00121874 -0.000140102 -1.02027e-06
-0.000140102 0.000171542 8.34272e-07
-1.02027e-06 8.34272e-07 -1.42878e-05
0.00120521 -0.000110994 -7.74242e-07
-0.000110994 0.000242425 -1.98452e-06
-7.74242e-07 -1.98452e-06 9.44064e-05
0.00158826 -0.0001431 1.89175e-07
-0.0001431 0.000377982 4.13027e-07
1.89175e-07 4.13027e-07 0.000212851
0.00124036 -0.000136482 -1.25461e-06
-0.000136482 0.000140737 -3.34637e-07
-1.25461e-06 -3.34637e-07 -2.66245e-05
0.00144137 -0.000137795 -3.0093e-06
-0.000137795 0.000203256 -1.1108e-06
-3.0093e-06 -1.1108e-06 5.8718e-05
0.00166736 -0.000139378 -4.56686e-06
-0.000139378 0.000394051 4.00302e-06
-4.56686e-06 4.00302e-06 0.000262463
0.00141846 -0.000135941 -8.22498e-07
-0.000135941 0.0002544 6.11013e-07
-8.22498e-07 6.11013e-07 0.000104984
0.000643672 -8.19702e-05 -1.4956e-07
-8.19702e-05 -8.59139e-05 -3.38951e-07
-1.4956e-07 -3.38951e-07 -0.000189292
0.000872321 -9.50302e-05 1.53519e-06
-9.50302e-05 3.38683e-05 -4.39449e-07
1.53519e-06 -4.39449e-07 -7.97496e-05
0.000984032 -0.000104999 1.68153e-06
-0.000104999 7.47227e-05 -1.97753e-06
1.68153e-06 -1.97753e-06 -5.96888e-05
0.00102881 -9.07993e-05 -2.89978e-07
-9.07993e-05 0.000131362 5.46001e-07
-2.89978e-07 5.46001e-07 3.31347e-05
0.00112333 -0.000100009 -1.63007e-07
-0.000100009 0.000184088 -3.86433e-07
-1.63007e-07 -3.86433e-07 8.10872e-05
0.000812937 -8.62536e-05 3.45954e-06
-8.62536e-05 2.6695e-05 -2.38582e-07
3.45954e-06 -2.38582e-07 -7.70097e-05
0.000854152 1.16434e-05 1.51527e-07
1.16434e-05 3.72948e-05 1.43125e-06
1.51527e-07 1.43125e-06 -3.71909e-05
0.000865748 -4.10593e-05 5.00863e-08
-4.10593e-05 5.43037e-05 4.90999e-07
5.00863e-08 4.90999e-07 -3.35853e-05
0.00110715 -8.07418e-05 1.23344e-06
-8.07418e-05 0.000190534 -1.30574e-06
1.23344e-06 -1.30574e-06 9.02815e-05
0.000794786 4.3755e-05 -9.76476e-07
4.3755e-05 3.4817e-06 2.17098e-06
-9.76476e-07 2.17098e-06 -3.96576e-05
0.000867906 1.68807e-05 -1.41708e-07
1.68807e-05 3.9393e-05 -8.47695e-08
-1.41708e-07 -8.47695e-08 -2.47695e-05
0.000960349 -2.99411e-05 4.21263e-07
-2.99411e-05 9.44859e-05 -1.02642e-06
4.21263e-07 -1.02642e-06 1.60571e-05
0.000747748 3.56318e-05 -3.15988e-06
3.56318e-05 -2.40043e-05 4.6212e-06
-3.15988e-06 4.6212e-06 -3.33294e-05
0.000805626 3.91867e-05 1.43839e-07
3.91867e-05 4.71461e-06 -7.74986e-08
1.43839e-07 -7.74986e-08 -3.27006e-05
0.000856813 2.05073e-05 4.58655e-07
2.05073e-05 2.83388e-05 -1.33633e-06
4.58655e-07 -1.33633e-06 -2.71133e-05
0.000816498 3.46746e-05 7.3471e-07
3.46746e-05 4.61138e-06 -1.93893e-06
7.3471e-07 -1.93893e-06 -2.90641e-05
0.000755377 3.22273e-05 5.1926e-08
3.22273e-05 -2.69528e-05 -2.0975e-08
5.1926e-08 -2.0975e-08 -3.39838e-05
0.00213847 4.50799e-05 -2.14773e-05
4.50799e-05 0.000715262 3.44164e-06
-2.14773e-05 3.44164e-06 0.000732296
0.000779446 2.84015e-05 1.65472e-06
2.84015e-05 -2.15085e-05 -3.28028e-06
1.65472e-06 -3.28028e-06 -2.64887e-05
0.00212198 3.92104e-05 1.06186e-06
3.92104e-05 0.000700212 6.6091e-08
1.06186e-06 6.6091e-08 0.000718731
0.00211161 3.32392e-05 1.73029e-05
3.32392e-05 0.00068908 -3.64805e-06
1.73029e-05 -3.64805e-06 0.000708882
0.000914823 9.29504e-06 -1.4665e-07
9.29504e-06 6.00778e-05 -5.61317e-07
-1.4665e-07 -5.61317e-07 -7.68924e-06
0.000866567 2.39828e-05 -8.91254e-07
2.39828e-05 3.18297e-05 -9.67132e-07
-8.91254e-07 -9.67132e-07 -2.5533e-05
0.000806965 -2.47454e-05 -6.92872e-07
-2.47454e-05 -5.35239e-06 -1.59175e-06
-6.92872e-07 -1.59175e-06 -3.99691e-05
0.000870329 1.14621e-05 -1.41876e-07
1.14621e-05 3.03124e-05 -4.61626e-08
-1.41876e-07 -4.61626e-08 -2.2739e-05
0.000776993 -2.43198e-05 -1.00382e-06
-2.43198e-05 -2.61812e-05 -3.25862e-06
-1.00382e-06 -3.25862e-06 -3.16298e-05
0.00082034 -1.93404e-05 -1.11719e-07
-1.93404e-05 -4.53163e-07 3.77636e-09
-1.11719e-07 3.77636e-09 -3.297e-05
0.000839163 3.92747e-06 1.44976e-07
3.92747e-06 1.3508e-05 2.00524e-08
1.44976e-07 2.00524e-08 -3.63244e-05
0.00214711 -2.72826e-05 -1.45286e-05
-2.72826e-05 0.00070363 -3.91478e-06
-1.45286e-05 -3.91478e-06 0.000724007
0.00077385 -1.99027e-05 -1.19885e-07
-1.99027e-05 -3.35074e-05 -2.13066e-08
-1.19885e-07 -2.13066e-08 -3.64862e-05
0.000828646 -1.64185e-05 8.71701e-08
-1.64185e-05 1.52608e-06 8.29836e-07
8.71701e-08 8.29836e-07 -2.87672e-05
0.00208226 -2.02453e-05 -1.73363e-06
-2.02453e-05 0.000663902 4.54154e-08
-1.73363e-06 4.54154e-08 0.000685943
0.000769601 -1.49159e-05 4.29557e-07
-1.49159e-05 -4.0817e-05 3.06427e-06
4.29557e-07 3.06427e-06 -4.14023e-05
0.00203222 -1.30509e-05 6.81268e-06
-1.30509e-05 0.000633365 3.92221e-06
6.81268e-06 3.92221e-06 0.000656683
0.000935102 5.87576e-07 -3.28464e-06
5.87576e-07 6.84376e-05 -4.18722e-06
-3.28464e-06 -4.18722e-06 3.35364e-06
0.000904217 1.16012e-06 2.57663e-06
1.16012e-06 0.000123875 -1.96042e-06
2.57663e-06 -1.96042e-06 4.03906e-05
0.00106286 9.93793e-07 -7.9327e-06
9.93793e-07 0.000112534 5.7778e-06
-7.9327e-06 5.7778e-06 4.71042e-05
0.000877016 -1.45758e-06 -2.4868e-07
-1.45758e-06 3.95055e-05 -1.1323e-08
-2.4868e-07 -1.1323e-08 -2.75345e-05
0.000935278 -1.33242e-05 -1.04408e-07
-1.33242e-05 7.21616e-05 2.59508e-07
-1.04408e-07 2.59508e-07 7.85283e-07
0.000882429 -1.14475e-05 1.21658e-07
-1.14475e-05 4.79933e-05 -1.37352e-06
1.21658e-07 -1.37352e-06 -2.81111e-05
0.00084159 -2.00205e-05 -3.95016e-08
-2.00205e-05 2.33291e-05 -5.52335e-07
-3.95016e-08 -5.52335e-07 -4.74594e-05
0.00102869 2.96751e-05 -4.24977e-07
2.96751e-05 0.000129244 -6.44143e-08
-4.24977e-07 -6.44143e-08 5.05895e-05
0.000837069 -2.29717e-05 -1.06468e-07
-2.29717e-05 1.38808e-05 1.23625e-07
-1.06468e-07 1.23625e-07 -4.97326e-05
0.000863893 -9.42266e-06 1.70892e-07
-9.42266e-06 3.51522e-05 -3.7576e-07
1.70892e-07 -3.7576e-07 -3.55543e-05
0.000926197 1.58932e-05 -1.82382e-07
1.58932e-05 7.09688e-05 -4.86533e-08
-1.82382e-07 -4.86533e-08 -2.22203e-07
0.000947566 2.49698e-05 2.17141e-07
2.49698e-05 8.06245e-05 3.85006e-07
2.17141e-07 3.85006e-07 4.60716e-06
0.0010071 1.81768e-05 -1.1265e-07
1.81768e-05 0.000118165 5.60199e-07
-1.1265e-07 5.60199e-07 4.26873e-05
0.00160101 -2.87711e-05 3.08691e-05
-2.87711e-05 4.69869e-05 3.20232e-05
3.08691e-05 3.20232e-05 -9.24272e-05
0.00152764 -1.63459e-06 1.8117e-06
-1.63459e-06 9.99372e-05 1.02426e-05
1.8117e-06 1.02426e-05 4.0443e-05
0.00103496 1.05774e-05 2.47537e-06
1.05774e-05 -2.89005e-05 -4.14441e-07
2.47537e-06 -4.14441e-07 -9.09804e-05
0.00323792 -0.000125567 -1.27361e-05
-0.000125567 0.000182479 -2.49478e-05
-1.27361e-05 -2.49478e-05 0.00078263
-0.00296904 0.000102771 -1.03205e-05
0.000102771 -0.00240778 -4.56045e-05
-1.03205e-05 -4.56045e-05 -0.00261206
0.00185244 -0.000324718 -0.000102097
-0.000324718 -0.000443246 8.3949e-05
-0.000102097 8.3949e-05 -0.000981409
0.00789809 0.000192788 -3.49001e-05
0.000192788 0.00229463 -4.13144e-05
-3.49001e-05 -4.13144e-05 0.00126477
0.00217321 -0.000271402 -3.9606e-05
-0.000271402 -5.54135e-05 4.09884e-05
-3.9606e-05 4.09884e-05 -0.000464751
0.00803662 -0.000151535 3.94649e-05
-0.000151535 0.00264563 -7.15119e-07
3.94649e-05 -7.15119e-07 0.00140602
0.000772136 -0.000188159 1.6313e-05
-0.000188159 -0.000848109 -1.46783e-05
1.6313e-05 -1.46783e-05 -0.000958376
0.000721615 -0.000232259 -8.63155e-06
-0.000232259 -0.00145275 -2.40763e-05
-8.63155e-06 -2.40763e-05 -0.00066323
0.00237099 -9.18714e-05 -7.47327e-05
-9.18714e-05 0.0003406 -4.37717e-05
-7.47327e-05 -4.37717e-05 -0.000112826
0.00815335 -0.000408424 -2.32346e-05
-0.000408424 0.00224942 4.90611e-05
-2.32346e-05 4.90611e-05 0.0013321
0.00771926 -0.000617934 3.19324e-05
-0.000617934 0.00226619 1.27494e-05
3.19324e-05 1.27494e-05 0.00248561
0.00254127 -0.000395948 1.39495e-05
-0.000395948 0.000206163 3.97347e-07
1.39495e-05 3.97347e-07 0.00117219
0.00082864 1.60948e-05 7.97096e-07
1.60948e-05 3.65318e-05 1.73711e-06
7.97096e-07 1.73711e-06 -2.96184e-05
0.00100653 -2.85625e-05 -1.07123e-07
-2.85625e-05 0.000107097 2.60924e-07
-1.07123e-07 2.60924e-07 3.37276e-05
0.000831732 8.53825e-07 1.62308e-07
8.53825e-07 1.75909e-05 -1.03839e-06
1.62308e-07 -1.03839e-06 -6.04293e-05
0.00221607 -0.000136666 1.74289e-05
-0.000136666 0.00112078 -1.25012e-06
1.74289e-05 -1.25012e-06 0.000928997
0.000930349 -2.94266e-05 -7.57026e-06
-2.94266e-05 0.000270036 -6.25908e-06
-7.57026e-06 -6.25908e-06 0.000249897
0.000871635 -8.33996e-06 -5.20114e-07
-8.33996e-06 3.21704e-05 -6.13278e-07
-5.20114e-07 -6.13278e-07 -3.95261e-05
0.00088512 -4.30311e-05 -1.3857e-06
-4.30311e-05 4.57727e-05 -2.63972e-06
-1.3857e-06 -2.63972e-06 -3.16926e-05
0.000866596 -1.33416e-05 -4.73593e-07
-1.33416e-05 4.41121e-05 -2.83777e-07
-4.73593e-07 -2.83777e-07 -2.70805e-05
0.000568093 -3.79742e-05 1.22484e-06
-3.79742e-05 6.68262e-05 4.52419e-06
1.22484e-06 4.52419e-06 -1.63549e-05
-0.000341695 -6.44982e-06 2.1462e-05
-6.44982e-06 0.000212364 -2.19593e-05
2.1462e-05 -2.19593e-05 -0.00039416
-0.000106065 -1.01588e-05 -1.573e-06
-1.01588e-05 -0.000294644 6.14226e-06
-1.573e-06 6.14226e-06 -0.000395114
0.00166041 0.000128832 2.14275e-05
0.000128832 0.000738386 -8.75455e-06
2.14275e-05 -8.75455e-06 0.000437046
0.00153082 -2.1378e-06 1.61163e-05
-2.1378e-06 0.000159674 -6.42617e-07
1.61163e-05 -6.42617e-07 3.73742e-05
0.000901275 8.39963e-07 -5.75983e-07
8.39963e-07 9.24879e-05 -7.64118e-07
-5.75983e-07 -7.64118e-07 1.66688e-05
0.000616478 4.63499e-07 3.4213e-07
4.63499e-07 -4.19674e-05 -1.05791e-07
3.4213e-07 -1.05791e-07 -0.000148389
-0.000737407 -2.7861e-05 -2.25979e-05
-2.7861e-05 -0.000179245 1.09092e-05
-2.25979e-05 1.09092e-05 -0.000341159
0.00133464 3.90243e-05 2.84547e-05
3.90243e-05 -0.000272545 -4.3494e-05
2.84547e-05 -4.3494e-05 -0.000507951
0.00106444 -6.09332e-07 7.71393e-06
-6.09332e-07 0.000114998 -5.96669e-06
7.71393e-06 -5.96669e-06 4.8191e-05
0.00936877 0.000195183 6.04062e-05
0.000195183 0.00312081 8.20671e-06
6.04062e-05 8.20671e-06 0.00158646
0.00535207 0.000624862 -4.95997e-05
0.000624862 0.00139627 3.07797e-05
-4.95997e-05 3.07797e-05 0.00148176
0.00114196 2.48024e-05 -2.09872e-05
2.48024e-05 -0.000366413 1.73985e-05
-2.09872e-05 1.73985e-05 -0.000516532
-0.0016154 0.000537871 -1.39203e-05
0.000537871 -0.00218173 -1.84079e-05
-1.39203e-05 -1.84079e-05 -0.000893084
0.000223825 -4.08244e-05 -7.69861e-06
-4.08244e-05 0.000100364 -7.81405e-07
-7.69861e-06 -7.81405e-07 9.75986e-07
0.00113506 2.03853e-07 6.67654e-07
2.03853e-07 -0.000105095 -6.00793e-07
6.67654e-07 -6.00793e-07 -0.000231791
-0.00126348 0.000264185 -2.81651e-05
0.000264185 -0.000780217 9.69893e-06
-2.81651e-05 9.69893e-06 -0.000576514
0.00213352 -0.000248565 -7.42015e-06
-0.000248565 6.65373e-05 2.87586e-05
-7.42015e-06 2.87586e-05 -0.000224291
0.003799 0.000652276 7.57813e-06
0.000652276 0.00105038 5.92888e-06
7.57813e-06 5.92888e-06 0.00137147
0.00543461 0.000145122 3.53651e-05
0.000145122 0.00134295 -1.96786e-05
3.53651e-05 -1.96786e-05 -0.000185633
0.00256862 -0.00019669 2.60492e-05
-0.00019669 0.000753796 1.07524e-05
2.60492e-05 1.07524e-05 0.000845148
-0.00109552 7.94078e-05 2.49334e-05
7.94078e-05 -0.000444679 -1.61096e-06
2.49334e-05 -1.61096e-06 -0.000603355
0.002869 0.000484292 2.00109e-05
0.000484292 0.00133013 -5.32187e-06
2.00109e-05 -5.32187e-06 0.00147929
0.00513318 0.000482473 -4.16283e-05
0.000482473 0.00132886 3.72342e-05
-4.16283e-05 3.72342e-05 2.88661e-05
0.0021604 -0.000362351 -1.44247e-05
-0.000362351 0.000116171 2.57051e-05
-1.44247e-05 2.57051e-05 -0.000425881
0.000596283 -3.02645e-06 -2.97625e-06
-3.02645e-06 0.000176265 5.02293e-06
-2.97625e-06 5.02293e-06 8.05552e-06
0.000779233 -0.000125084 1.3696e-06
-0.000125084 0.000143325 -2.58872e-06
1.3696e-06 -2.58872e-06 -1.8195e-05
0.00205996 -0.000171473 8.59765e-06
-0.000171473 0.0004405 1.14607e-06
8.59765e-06 1.14607e-06 0.000381018
-0.000123294 -1.56607e-05 -1.39268e-06
-1.56607e-05 -0.000274338 8.72041e-08
-1.39268e-06 8.72041e-08 -0.000465226
0.000748447 -0.000104761 2.84421e-06
-0.000104761 4.25577e-05 7.63693e-08
2.84421e-06 7.63693e-08 -0.00015015
0.00108314 -0.000156371 -1.3011e-07
-0.000156371 -9.12829e-06 6.62267e-07
-1.3011e-07 6.62267e-07 -0.000164264
0.00143154 -0.000125947 -1.5095e-06
-0.000125947 0.000371328 -1.44381e-06
-1.5095e-06 -1.44381e-06 0.000186906
0.00118578 -0.00013732 -9.18766e-07
-0.00013732 0.000146742 -8.70029e-07
-9.18766e-07 -8.70029e-07 -3.47e-05
0.00179124 -0.000170333 -2.02789e-06
-0.000170333 0.00032204 -2.20436e-06
-2.02789e-06 -2.20436e-06 0.000177208
0.00150015 -0.000139252 9.92003e-07
-0.000139252 0.000325578 -1.59925e-06
9.92003e-07 -1.59925e-06 0.000161214
0.00127768 -0.000135139 5.38559e-07
-0.000135139 0.000157373 -9.48487e-07
5.38559e-07 -9.48487e-07 -5.50506e-06
0.0014845 -0.000140517 -2.49502e-06
-0.000140517 0.000160624 -3.38896e-06
-2.49502e-06 -3.38896e-06 2.46054e-05
0.00143661 -0.000127359 -2.41821e-06
-0.000127359 0.000129638 -2.53718e-06
-2.41821e-06 -2.53718e-06 4.69138e-06
0.00114607 -0.000118895 -2.83054e-06
-0.000118895 7.8122e-05 3.36529e-07
-2.83054e-06 3.36529e-07 -5.6128e-05
0.00129971 -0.000130499 4.53554e-07
-0.000130499 0.000128396 -8.0574e-07
4.53554e-07 -8.0574e-07 -1.46631e-05
0.00132244 -0.000117867 -2.22108e-06
-0.000117867 0.00023144 2.53901e-06
-2.22108e-06 2.53901e-06 0.000114799
0.0013203 -0.000124524 -1.90021e-07
-0.000124524 0.000215544 7.07936e-07
-1.90021e-07 7.07936e-07 8.22346e-05
0.00127338 -0.000130674 1.87063e-06
-0.000130674 0.000175853 -1.05819e-06
1.87063e-06 -1.05819e-06 2.35468e-05
0.000961796 -9.28367e-05 -6.76064e-07
-9.28367e-05 7.95387e-05 -6.71086e-07
-6.76064e-07 -6.71086e-07 -1.74955e-05
0.000760859 -8.67155e-05 -2.65969e-07
-8.67155e-05 -2.31033e-05 -1.16702e-06
-2.65969e-07 -1.16702e-06 -0.000125344
0.00100259 -0.000100526 4.80479e-06
-0.000100526 0.000101471 -3.25175e-06
4.80479e-06 -3.25175e-06 -1.14356e-05
0.000909599 -4.29669e-05 -3.81585e-07
-4.29669e-05 6.39014e-05 1.33659e-06
-3.81585e-07 1.33659e-06 -1.94375e-05
0.00100951 -8.36123e-05 2.8466e-07
-8.36123e-05 0.000121346 5.02723e-07
2.8466e-07 5.02723e-07 2.44578e-05
0.00107154 -9.70672e-05 9.43998e-07
-9.70672e-05 0.000158312 6.58536e-07
9.43998e-07 6.58536e-07 5.5024e-05
0.000807558 6.11962e-05 -4.4877e-07
6.11962e-05 1.68438e-05 2.61295e-06
-4.4877e-07 2.61295e-06 -3.66685e-05
0.000884719 1.53658e-06 -4.40223e-09
1.53658e-06 5.43574e-05 -3.11064e-08
-4.40223e-09 -3.11064e-08 -2.13062e-05
0.000970432 -4.82601e-05 5.90964e-09
-4.82601e-05 0.000109232 -4.99277e-07
5.90964e-09 -4.99277e-07 2.17409e-05
0.00136355 4.65455e-05 -1.27301e-05
4.65455e-05 0.00031319 3.12989e-06
-1.27301e-05 3.12989e-06 0.000303649
0.00078615 4.27424e-05 1.19149e-08
4.27424e-05 -1.26264e-06 -1.69586e-07
1.19149e-08 -1.69586e-07 -4.4318e-05
0.000851848 6.70246e-06 5.95717e-07
6.70246e-06 3.2052e-05 -1.46822e-06
5.95717e-07 -1.46822e-06 -3.28984e-05
0.00091276 3.08062e-05 -2.01447e-05
3.08062e-05 6.87606e-05 3.52372e-06
-2.01447e-05 3.52372e-06 7.79394e-05
0.00107557 4.01344e-05 -5.33506e-06
4.01344e-05 0.000151368 3.68708e-07
-5.33506e-06 3.68708e-07 0.000143245
0.000798942 4.37406e-05 5.06483e-07
4.37406e-05 1.85808e-06 -2.1128e-06
5.06483e-07 -2.1128e-06 -3.60394e-05
0.00077624 3.29742e-05 1.86999e-06
3.29742e-05 -1.61561e-05 -3.34378e-06
1.86999e-06 -3.34378e-06 -2.32814e-05
0.00214762 4.52968e-05 8.39219e-07
4.52968e-05 0.000721159 6.77861e-08
8.39219e-07 6.77861e-08 0.00073796
0.00212559 3.93781e-05 2.01607e-05
3.93781e-05 0.000703085 -3.539e-06
2.01607e-05 -3.539e-06 0.000721436
0.000854246 -8.06547e-06 -1.76837e-08
-8.06547e-06 2.87094e-05 -1.20577e-06
-1.76837e-08 -1.20577e-06 -4.17314e-05
0.000873942 3.02448e-06 -4.3231e-07
3.02448e-06 3.49455e-05 -1.33081e-06
-4.3231e-07 -1.33081e-06 -2.43482e-05
0.000908468 -8.56839e-06 -8.15001e-09
-8.56839e-06 5.53151e-05 -2.16798e-08
-8.15001e-09 -2.16798e-08 -1.19278e-05
0.000801232 -3.61502e-05 -5.28068e-07
-3.61502e-05 -3.40459e-06 -1.90341e-06
-5.28068e-07 -1.90341e-06 -4.05865e-05
0.000884747 -1.54538e-06 4.75854e-07
-1.54538e-06 3.95605e-05 -9.01704e-08
4.75854e-07 -9.01704e-08 -1.6465e-05
0.000763481 -2.7964e-05 -1.35345e-06
-2.7964e-05 -2.74488e-05 -3.3799e-06
-1.35345e-06 -3.3799e-06 -3.50379e-05
0.000816688 -2.1104e-05 -1.9755e-07
-2.1104e-05 2.56908e-07 1.28439e-08
-1.9755e-07 1.28439e-08 -3.43614e-05
0.000891524 3.03618e-05 9.60572e-07
3.03618e-05 4.57953e-05 7.10218e-07
9.60572e-07 7.10218e-07 -1.01393e-05
0.00220234 -3.36363e-05 -1.82334e-05
-3.36363e-05 0.000738495 -3.84923e-06
-1.82334e-05 -3.84923e-06 0.000757293
0.000762981 -2.39737e-05 -2.43952e-07
-2.39737e-05 -3.34723e-05 -5.53868e-09
-2.43952e-07 -5.53868e-09 -3.88414e-05
0.000835231 -1.92025e-05 3.34583e-07
-1.92025e-05 7.84574e-06 1.44257e-06
3.34583e-07 1.44257e-06 -2.47687e-05
0.00213355 -2.70208e-05 -1.56018e-06
-2.70208e-05 0.000695813 5.84474e-08
-1.56018e-06 5.84474e-08 0.000716412
0.000758447 -1.95697e-05 5.22637e-07
-1.95697e-05 -4.16196e-05 3.15166e-06
5.22637e-07 3.15166e-06 -4.44876e-05
0.0020687 -1.98479e-05 1.00676e-05
-1.98479e-05 0.00065615 3.89012e-06
1.00676e-05 3.89012e-06 0.00067841
0.00148924 -4.00733e-06 1.98186e-05
-4.00733e-06 0.00017876 5.6272e-06
1.98186e-05 5.6272e-06 8.58983e-05
0.000941984 1.24837e-06 1.05821e-06
1.24837e-06 7.21272e-05 -2.90858e-07
1.05821e-06 -2.90858e-07 7.89601e-06
0.000790564 4.41886e-07 4.37787e-06
4.41886e-07 7.40332e-05 4.96489e-06
4.37787e-06 4.96489e-06 -1.55263e-05
0.000953108 3.47841e-05 -6.60162e-07
3.47841e-05 9.55172e-05 -1.74957e-08
-6.60162e-07 -1.74957e-08 1.37419e-05
0.00094735 -5.14962e-06 1.10069e-07
-5.14962e-06 7.68619e-05 3.07935e-07
1.10069e-07 3.07935e-07 1.0176e-05
0.000922685 -1.69372e-05 6.91828e-08
-1.69372e-05 6.46376e-05 4.20017e-07
6.91828e-08 4.20017e-07 -7.31426e-06
0.000936021 -2.19273e-05 1.13946e-07
-2.19273e-05 7.28017e-05 -1.75674e-07
1.13946e-07 -1.75674e-07 2.3706e-06
0.000944617 5.99826e-06 1.18209e-07
5.99826e-06 8.12959e-05 -3.69463e-07
1.18209e-07 -3.69463e-07 4.73251e-06
0.000960765 1.89579e-05 -5.66507e-08
1.89579e-05 9.13656e-05 4.77955e-07
-5.66507e-08 4.77955e-07 1.34163e-05
0.000969767 2.71087e-05 -2.79707e-07
2.71087e-05 9.87336e-05 -1.12789e-06
-2.79707e-07 -1.12789e-06 1.65104e-05
0.00081982 -8.86939e-07 2.59721e-07
-8.86939e-07 1.84834e-05 4.78628e-08
2.59721e-07 4.78628e-08 -5.72928e-05
0.000894989 3.71388e-05 3.50306e-07
3.71388e-05 5.82302e-05 -2.59308e-07
3.50306e-07 -2.59308e-07 -1.44566e-05
0.000938989 -3.47743e-05 3.15039e-07
-3.47743e-05 6.87452e-05 -4.59345e-07
3.15039e-07 -4.59345e-07 -4.43502e-06
0.000960947 9.76779e-06 -8.0142e-08
9.76779e-06 9.3259e-05 1.00695e-07
-8.0142e-08 1.00695e-07 1.84277e-05
0.00142394 1.30691e-05 2.61795e-06
1.30691e-05 0.000342155 7.38854e-07
2.61795e-06 7.38854e-07 0.000265873
0.00150772 -0.000256772 3.62016e-05
-0.000256772 0.000480504 2.55277e-05
3.62016e-05 2.55277e-05 0.000748066
0.00180216 -2.52871e-05 2.9243e-06
-2.52871e-05 0.000158011 8.85703e-06
2.9243e-06 8.85703e-06 2.12318e-05
0.0016441 -2.48508e-06 1.65736e-06
-2.48508e-06 0.00015331 -3.33946e-06
1.65736e-06 -3.33946e-06 9.53291e-05
0.00322015 -0.000289622 -3.47813e-05
-0.000289622 -1.28919e-05 -2.80761e-05
-3.47813e-05 -2.80761e-05 0.000890639
0.00419508 -0.000304632 1.72183e-06
-0.000304632 0.000375146 -5.83549e-05
1.72183e-06 -5.83549e-05 0.000246394
0.00293852 -4.60064e-06 -9.44338e-05
-4.60064e-06 -0.000371789 8.822e-05
-9.44338e-05 8.822e-05 -0.00111601
0.00217385 -0.000292862 -5.64385e-05
-0.000292862 0.000176277 8.82066e-05
-5.64385e-05 8.82066e-05 -0.000205453
0.00265255 -0.000149779 -7.81353e-06
-0.000149779 0.000635171 1.71358e-05
-7.81353e-06 1.71358e-05 0.000348642
0.000464868 -0.000423761 -1.33274e-05
-0.000423761 -0.000916785 -3.00517e-06
-1.33274e-05 -3.00517e-06 0.000145397
0.00483012 -0.000128519 1.23766e-05
-0.000128519 0.00104714 4.50759e-05
1.23766e-05 4.50759e-05 -0.000265192
4.18255e-05 -0.000317291 -2.85768e-06
-0.000317291 -0.00115637 -9.02144e-07
-2.85768e-06 -9.02144e-07 -0.000882075
0.00309069 0.000152254 -6.92023e-05
0.000152254 0.000626345 -4.13174e-05
-6.92023e-05 -4.13174e-05 0.000435044
0.00868151 -0.000416773 2.01489e-06
-0.000416773 0.00293726 3.7462e-05
2.01489e-06 3.7462e-05 0.00179928
-4.85166e-05 -0.000392372 1.00513e-05
-0.000392372 -0.000215415 -1.02499e-05
1.00513e-05 -1.02499e-05 0.000101889
0.000669967 0.000102293 -1.16853e-06
0.000102293 -3.28913e-05 -3.94031e-07
-1.16853e-06 -3.94031e-07 -9.76462e-05
0.00106513 1.72264e-05 2.31388e-06
1.72264e-05 0.000154657 8.68976e-08
2.31388e-06 8.68976e-08 8.98757e-05
0.000943448 -1.00144e-05 -5.84198e-07
-1.00144e-05 7.83666e-05 -8.49304e-07
-5.84198e-07 -8.49304e-07 3.46521e-06
-0.000766997 -2.48427e-05 -1.95524e-05
-2.48427e-05 -0.000103696 -2.12882e-05
-1.95524e-05 -2.12882e-05 -0.000669116
-5.952e-05 -1.69334e-05 -7.45174e-07
-1.69334e-05 -0.000259728 -5.03276e-06
-7.45174e-07 -5.03276e-06 -0.0003467
0.000756256 7.33756e-06 9.08638e-07
7.33756e-06 -1.03971e-05 2.88294e-07
9.08638e-07 2.88294e-07 -8.12448e-05
0.000769603 4.48805e-05 1.57941e-06
4.48805e-05 0.000120728 6.73024e-07
1.57941e-06 6.73024e-07 1.83543e-05
0.000646883 7.83937e-05 1.57966e-06
7.83937e-05 0.00017045 -1.27941e-05
1.57966e-06 -1.27941e-05 -6.79679e-05
-0.000606076 8.78486e-05 1.24668e-05
8.78486e-05 -0.000607211 1.16063e-05
1.24668e-05 1.16063e-05 -0.000745669
0.00129431 -1.01345e-05 4.50156e-05
-1.01345e-05 0.000851215 -2.08062e-06
4.50156e-05 -2.08062e-06 0.000717492
0.0011818 -2.29026e-06 -2.15037e-06
-2.29026e-06 1.4799e-05 -5.74718e-07
-2.15037e-06 -5.74718e-07 -8.93284e-05
0.000476237 1.98228e-06 7.49359e-06
1.98228e-06 -0.000154971 -2.2126e-06
7.49359e-06 -2.2126e-06 -0.000235254
4.89396e-05 -3.44665e-05 3.30114e-06
-3.44665e-05 3.39945e-05 4.43373e-06
3.30114e-06 4.43373e-06 -7.65472e-05
0.00163326 -0.000237292 2.27755e-05
-0.000237292 -0.00019258 -3.48203e-05
2.27755e-05 -3.48203e-05 -0.000384546
0.00124306 -3.23384e-06 -2.04312e-05
-3.23384e-06 -3.66149e-05 -2.45472e-06
-2.04312e-05 -2.45472e-06 -0.000158798
0.0019354 0.000145102 1.02548e-06
0.000145102 -0.00016877 1.33065e-05
1.02548e-06 1.33065e-05 -0.00148089
-0.00237602 0.000419848 -4.5334e-05
0.000419848 -0.00186879 7.94111e-06
-4.5334e-05 7.94111e-06 -0.00145143
0.00123241 0.000309176 -4.74489e-05
0.000309176 0.000404895 2.3262e-05
-4.74489e-05 2.3262e-05 0.000818376
0.00165153 -0.000159256 -4.52517e-06
-0.000159256 0.000251375 4.45967e-06
-4.52517e-06 4.45967e-06 0.000398617
0.00113878 0.000122778 -2.02606e-06
0.000122778 0.000720577 2.98024e-06
-2.02606e-06 2.98024e-06 0.000747035
-0.00358118 0.00024095 9.8181e-06
0.00024095 -0.00135465 2.50373e-07
9.8181e-06 2.50373e-07 -0.00143051
0.00307911 -0.000373922 -7.30993e-06
-0.000373922 0.000510528 1.45216e-05
-7.30993e-06 1.45216e-05 -0.000305045
0.00689446 0.000412088 -1.63073e-05
0.000412088 0.00209342 1.5815e-06
-1.63073e-05 1.5815e-06 0.00092473
0.000219667 -0.000161574 -2.93637e-06
-0.000161574 -0.000457331 5.51851e-06
-2.93637e-06 5.51851e-06 -0.000408042
-0.0047069 0.000119378 1.27406e-05
0.000119378 -0.00232962 -1.01289e-05
1.27406e-05 -1.01289e-05 -0.0022547
0.00663823 0.00037915 -2.15598e-06
0.00037915 0.00219525 3.31012e-06
-2.15598e-06 3.31012e-06 0.00116727
0.00324291 -0.000178728 -2.01786e-05
-0.000178728 -3.66846e-05 2.82698e-05
-2.01786e-05 2.82698e-05 -0.000615963
-0.00018539 -8.36276e-05 -8.27411e-06
-8.36276e-05 -0.000301942 -1.06555e-06
-8.27411e-06 -1.06555e-06 -0.000502979
0.00125981 -0.000139905 -8.99224e-07
-0.000139905 7.50864e-05 -1.17001e-07
-8.99224e-07 -1.17001e-07 3.25402e-05
0.00168632 -0.000161012 4.40975e-06
-0.000161012 4.91588e-05 -3.57267e-06
4.40975e-06 -3.57267e-06 4.08e-05
0.000340515 -8.37391e-05 -1.31804e-06
-8.37391e-05 -0.000146139 -4.1208e-06
-1.31804e-06 -4.1208e-06 -0.000338882
0.00125251 -0.000160396 -1.17229e-06
-0.000160396 7.01781e-05 -1.79229e-06
-1.17229e-06 -1.79229e-06 -8.4244e-05
0.00158151 -0.000177691 -3.61053e-06
-0.000177691 4.52816e-05 -2.89335e-06
-3.61053e-06 -2.89335e-06 -6.28077e-05
0.00115139 -0.000134623 -4.48977e-08
-0.000134623 0.000121217 -2.55994e-06
-4.48977e-08 -2.55994e-06 -5.57946e-05
0.00138551 -0.000152309 7.44924e-07
-0.000152309 0.000117466 -8.87577e-07
7.44924e-07 -8.87577e-07 -2.72256e-05
0.00174896 -0.000150539 -2.49258e-06
-0.000150539 0.000175293 -3.98315e-06
-2.49258e-06 -3.98315e-06 6.75283e-05
0.0013063 -0.000133469 1.04089e-06
-0.000133469 0.000169123 -7.42045e-07
1.04089e-06 -7.42045e-07 1.09143e-05
0.0013695 -0.000134474 -3.33701e-07
-0.000134474 9.80333e-05 -7.89673e-07
-3.33701e-07 -7.89673e-07 -3.6398e-05
0.00167257 -0.00012884 -2.51215e-06
-0.00012884 0.000164159 -3.97686e-06
-2.51215e-06 -3.97686e-06 6.17045e-05
0.0016147 -0.000118858 -2.19015e-06
-0.000118858 0.000173877 -3.17738e-06
-2.19015e-06 -3.17738e-06 7.39856e-05
0.00135589 -0.000123122 -2.96619e-06
-0.000123122 0.00012478 -1.37573e-06
-2.96619e-06 -1.37573e-06 1.31929e-06
0.00142879 -0.000124397 8.41395e-07
-0.000124397 0.000126278 9.97204e-08
8.41395e-07 9.97204e-08 3.62614e-06
0.00071722 -9.49825e-05 -2.61176e-06
-9.49825e-05 -0.000119975 1.34056e-06
-2.61176e-06 1.34056e-06 -0.000240988
0.00132251 -0.000125069 1.17095e-06
-0.000125069 0.000169193 -1.077e-06
1.17095e-06 -1.077e-06 3.62657e-05
0.00114627 -0.000122727 2.90702e-06
-0.000122727 4.75738e-05 -3.46436e-07
2.90702e-06 -3.46436e-07 -9.39743e-05
0.00102083 -9.95942e-05 -8.57412e-07
-9.95942e-05 9.46663e-05 1.10847e-06
-8.57412e-07 1.10847e-06 -7.92446e-06
0.00101083 -0.000103501 4.62426e-07
-0.000103501 7.41718e-05 -2.12938e-07
4.62426e-07 -2.12938e-07 -4.16307e-05
0.000968422 -0.000109389 2.42093e-06
-0.000109389 3.4577e-05 -2.09438e-06
2.42093e-06 -2.09438e-06 -0.000100437
0.000976922 -7.83319e-05 -1.80968e-06
-7.83319e-05 8.70589e-05 4.50853e-07
-1.80968e-06 4.50853e-07 9.58667e-07
0.00104394 -9.61364e-05 -2.31328e-07
-9.61364e-05 0.000120785 -4.61591e-07
-2.31328e-07 -4.61591e-07 2.35302e-05
0.000882045 -9.16522e-05 5.35892e-07
-9.16522e-05 4.17462e-05 -1.78899e-06
5.35892e-07 -1.78899e-06 -5.93671e-05
0.000871314 1.65916e-05 -6.338e-07
1.65916e-05 5.08126e-05 2.88406e-06
-6.338e-07 2.88406e-06 -1.09886e-05
0.00095221 -3.81791e-05 7.22151e-07
-3.81791e-05 8.54392e-05 3.71874e-07
7.22151e-07 3.71874e-07 2.36958e-06
0.000985172 -7.5032e-05 1.04565e-06
-7.5032e-05 0.000108637 4.94374e-07
1.04565e-06 4.94374e-07 1.31556e-05
0.000683382 4.44186e-05 -2.87279e-06
4.44186e-05 -4.16914e-05 3.87543e-06
-2.87279e-06 3.87543e-06 -5.9447e-05
0.000787058 2.94228e-05 -2.52804e-07
2.94228e-05 2.75662e-06 -2.23397e-07
-2.52804e-07 -2.23397e-07 -4.88575e-05
0.000912106 -9.44397e-06 3.12441e-07
-9.44397e-06 6.96589e-05 -1.62033e-06
3.12441e-07 -1.62033e-06 -7.11935e-06
0.00223464 6.32135e-05 -9.51585e-06
6.32135e-05 0.000784278 1.37685e-06
-9.51585e-06 1.37685e-06 0.000795732
0.000730333 4.04991e-05 1.46242e-07
4.04991e-05 -2.45495e-05 -1.14087e-08
1.46242e-07 -1.14087e-08 -3.80875e-05
0.000776663 4.17936e-05 8.96283e-07
4.17936e-05 -6.02074e-06 -2.30565e-06
8.96283e-07 -2.30565e-06 -4.92823e-05
0.00218848 5.09277e-05 8.64833e-07
5.09277e-05 0.000750177 6.185e-08
8.64833e-07 6.185e-08 0.00076516
0.000771792 3.75417e-05 2.20713e-06
3.75417e-05 -1.08457e-05 -3.47888e-06
2.20713e-06 -3.47888e-06 -2.08454e-05
0.00215819 4.5374e-05 2.30522e-05
4.5374e-05 0.000727809 -3.43657e-06
2.30522e-05 -3.43657e-06 0.000744394
0.000978773 3.0918e-05 -3.9249e-07
3.0918e-05 0.000103484 -1.64579e-07
-3.9249e-07 -1.64579e-07 2.78713e-05
0.000878335 -7.28265e-08 6.46693e-08
-7.28265e-08 4.18248e-05 -3.08053e-07
6.46693e-08 -3.08053e-07 -2.92886e-05
0.000871212 -7.46523e-06 -3.98069e-07
-7.46523e-06 3.77913e-05 -1.53604e-06
-3.98069e-07 -1.53604e-06 -2.63623e-05
0.0007919 -4.15327e-05 -7.01167e-07
-4.15327e-05 -4.04196e-06 -2.18456e-06
-7.01167e-07 -2.18456e-06 -4.35867e-05
0.000859507 -1.14967e-05 5.17707e-07
-1.14967e-05 2.80845e-05 -5.60463e-08
5.17707e-07 -5.60463e-08 -3.13777e-05
0.000865441 3.97205e-06 4.83483e-07
3.97205e-06 3.52123e-05 7.22985e-07
4.83483e-07 7.22985e-07 -3.39929e-05
0.000758369 -3.1291e-05 -1.98923e-06
-3.1291e-05 -2.42535e-05 -3.49527e-06
-1.98923e-06 -3.49527e-06 -3.37245e-05
0.000807119 -2.86285e-05 -2.19671e-07
-2.86285e-05 -1.08056e-06 1.0511e-08
-2.19671e-07 1.0511e-08 -3.77397e-05
0.000869176 -8.8869e-06 9.51115e-07
-8.8869e-06 3.13626e-05 9.5113e-07
9.51115e-07 9.5113e-07 -2.45975e-05
0.0022426 -3.97334e-05 -2.15212e-05
-3.97334e-05 0.000765993 -3.76143e-06
-2.15212e-05 -3.76143e-06 0.000783216
0.00074949 -2.74759e-05 -1.58867e-07
-2.74759e-05 -3.46003e-05 2.40716e-09
-1.58867e-07 2.40716e-09 -4.21419e-05
0.000825384 -1.98489e-05 8.15033e-07
-1.98489e-05 5.05071e-06 1.5538e-06
8.15033e-07 1.5538e-06 -2.95224e-05
0.00219079 -3.35128e-05 -1.63082e-06
-3.35128e-05 0.000731737 7.23951e-08
-1.63082e-06 7.23951e-08 0.000750719
0.000746404 -2.36024e-05 6.86661e-07
-2.36024e-05 -4.21028e-05 3.28452e-06
6.86661e-07 3.28452e-06 -4.73868e-05
0.00212166 -2.66759e-05 1.31576e-05
-2.66759e-05 0.000688867 3.86599e-06
1.31576e-05 3.86599e-06 0.000709691
-0.000860248 -0.000101438 3.0582e-05
-0.000101438 -0.000374989 7.81975e-06
3.0582e-05 7.81975e-06 -0.000567957
0.001455 -8.12674e-06 1.87964e-06
-8.12674e-06 0.000142256 3.02193e-06
1.87964e-06 3.02193e-06 5.11525e-05
0.000957285 1.88303e-06 6.50732e-06
1.88303e-06 8.11847e-05 3.4761e-06
6.50732e-06 3.4761e-06 1.78409e-05
0.000937342 1.82391e-05 -5.3719e-07
1.82391e-05 8.56165e-05 5.67498e-07
-5.3719e-07 5.67498e-07 4.78095e-06
0.00107236 8.31382e-05 -7.5163e-08
8.31382e-05 0.000167392 1.00749e-06
-7.5163e-08 1.00749e-06 7.71082e-05
0.000963878 3.71777e-05 -2.99837e-07
3.71777e-05 0.000102581 3.14662e-07
-2.99837e-07 3.14662e-07 1.68733e-05
0.00102145 -2.65531e-05 1.15404e-07
-2.65531e-05 0.000117493 -4.1546e-07
1.15404e-07 -4.1546e-07 4.74439e-05
0.00097001 1.57806e-05 3.61705e-07
1.57806e-05 9.28751e-05 4.77333e-07
3.61705e-07 4.77333e-07 1.78428e-05
0.000843939 -1.14008e-05 -6.55816e-07
-1.14008e-05 2.69179e-05 1.13572e-06
-6.55816e-07 1.13572e-06 -4.90876e-05
0.000847421 1.09636e-05 -4.27539e-07
1.09636e-05 3.52726e-05 -2.02931e-08
-4.27539e-07 -2.02931e-08 -4.29844e-05
0.000914934 1.48926e-05 2.14899e-07
1.48926e-05 6.92551e-05 -1.3343e-08
2.14899e-07 -1.3343e-08 -1.21444e-05
0.00101104 4.67227e-05 7.64325e-07
4.67227e-05 0.000136404 -8.20973e-07
7.64325e-07 -8.20973e-07 4.63517e-05
0.000823328 4.55991e-05 2.04987e-06
4.55991e-05 1.57943e-05 -1.76117e-06
2.04987e-06 -1.76117e-06 -6.39661e-05
0.000929661 3.28221e-05 -1.53398e-07
3.28221e-05 7.92801e-05 -6.52615e-07
-1.53398e-07 -6.52615e-07 2.78852e-06
0.00109276 2.90183e-05 5.00989e-07
2.90183e-05 0.000171474 2.92797e-07
5.00989e-07 2.92797e-07 9.50419e-05
-0.00199631 -0.00027423 1.52937e-05
-0.00027423 -0.00102621 2.45537e-05
1.52937e-05 2.45537e-05 -0.000998067
0.000243436 -0.000254115 9.75563e-06
-0.000254115 -0.00014052 2.80137e-06
9.75563e-06 2.80137e-06 3.87055e-05
0.00191078 -2.3546e-05 -2.29915e-05
-2.3546e-05 0.000209683 -1.38189e-05
-2.29915e-05 -1.38189e-05 7.38532e-05
-0.00157209 -0.000446394 -1.04343e-05
-0.000446394 -0.00203232 1.30611e-05
-1.04343e-05 1.30611e-05 -0.000869505
0.00434805 -0.00048801 -2.53428e-05
-0.00048801 0.00116224 -4.13802e-05
-2.53428e-05 -4.13802e-05 0.00126909
0.00403392 7.43741e-06 4.61826e-05
7.43741e-06 0.000713343 2.20785e-05
4.61826e-05 2.20785e-05 -0.000516011
0.0019754 -0.000142466 -7.83456e-05
-0.000142466 0.000280301 7.82837e-05
-7.83456e-05 7.82837e-05 -0.000364637
0.00285144 0.000114022 -3.99482e-05
0.000114022 0.000376396 -1.38669e-05
-3.99482e-05 -1.38669e-05 5.09139e-05
0.00302559 -0.000524354 -7.80032e-06
-0.000524354 0.00098564 9.30427e-06
-7.80032e-06 9.30427e-06 0.00114675
0.00231134 -7.75938e-05 1.89128e-05
-7.75938e-05 1.4549e-07 3.41223e-05
1.89128e-05 3.41223e-05 -0.00122892
0.00140322 0.000219271 -8.93065e-05
0.000219271 -0.000126603 -8.90388e-05
-8.93065e-05 -8.90388e-05 -0.000719302
0.00304756 0.000115679 -9.46142e-05
0.000115679 0.000564772 -3.37291e-05
-9.46142e-05 -3.37291e-05 -0.000689422
0.00237901 0.000240245 1.14107e-05
0.000240245 0.000701583 -6.42228e-06
1.14107e-05 -6.42228e-06 0.000573519
0.000878123 0.000102151 -1.05852e-06
0.000102151 6.52054e-05 -6.81627e-08
-1.05852e-06 -6.81627e-08 2.35432e-06
0.00125068 2.22903e-05 -2.45196e-07
2.22903e-05 0.000248509 -2.23374e-06
-2.45196e-07 -2.23374e-06 0.000183489
-0.000301918 3.78899e-05 -2.43853e-05
3.78899e-05 -0.000355615 -1.43572e-05
-2.43853e-05 -1.43572e-05 -0.000534824
0.00153322 8.48107e-05 -2.10467e-06
8.48107e-05 0.000477638 -5.41312e-06
-2.10467e-06 -5.41312e-06 0.000374009
0.000978624 0.000160992 1.22308e-05
0.000160992 0.000115974 1.97475e-07
1.22308e-05 1.97475e-07 -1.58859e-06
0.00070914 0.000193027 3.66624e-05
0.000193027 -0.000328986 2.482e-05
3.66624e-05 2.482e-05 -0.000387814
-0.00284588 -1.36932e-05 -2.30074e-06
-1.36932e-05 -0.00149673 -8.44179e-06
-2.30074e-06 -8.44179e-06 -0.00121105
5.4871e-05 1.223e-07 5.47759e-06
1.223e-07 0.000213079 1.0765e-06
5.47759e-06 1.0765e-06 4.66348e-05
0.000829239 -2.92148e-06 -1.45411e-05
-2.92148e-06 -0.000133206 -6.92932e-07
-1.45411e-05 -6.92932e-07 -0.000218375
0.000680667 -0.000140828 -3.25652e-05
-0.000140828 -0.000228104 -8.0971e-06
-3.25652e-05 -8.0971e-06 -9.51495e-05
0.00357984 -0.000427606 -5.29401e-05
-0.000427606 0.000709976 -3.13273e-06
-5.29401e-05 -3.13273e-06 9.52239e-05
0.00101213 9.89063e-05 -3.45031e-05
9.89063e-05 0.000704189 8.03882e-06
-3.45031e-05 8.03882e-06 0.000693605
0.00109464 0.000274679 2.47738e-05
0.000274679 -0.000260873 -4.23529e-05
2.47738e-05 -4.23529e-05 -0.00164308
0.00644048 0.000452313 -9.20084e-05
0.000452313 0.00320431 1.54406e-05
-9.20084e-05 1.54406e-05 0.00325777
0.00122148 -0.000224985 9.39952e-06
-0.000224985 -2.32624e-05 4.26656e-07
9.39952e-06 4.26656e-07 -1.55575e-05
-0.000968022 0.000210823 -1.6675e-05
0.000210823 -0.000364461 -2.07608e-06
-1.6675e-05 -2.07608e-06 -0.00037631
0.00244832 0.000250192 -7.65977e-06
0.000250192 0.000186093 1.34765e-05
-7.65977e-06 1.34765e-05 -0.00103427
0.00375539 -0.000142131 2.98406e-06
-0.000142131 0.00061653 6.25441e-06
2.98406e-06 6.25441e-06 0.000140241
0.000328523 -0.000126717 -3.4204e-06
-0.000126717 -0.000354945 -8.1957e-06
-3.4204e-06 -8.1957e-06 -0.000440161
0.00646735 7.88003e-05 3.06514e-05
7.88003e-05 0.00209434 3.38987e-06
3.06514e-05 3.38987e-06 0.0012431
0.00129855 5.47542e-05 1.61644e-06
5.47542e-05 -0.000583862 -7.39381e-06
1.61644e-06 -7.39381e-06 -0.000852478
0.00056781 -0.000118071 -6.0336e-06
-0.000118071 -0.000235681 -1.80547e-07
-6.0336e-06 -1.80547e-07 -0.000264948
0.00138713 -0.00015919 -4.55979e-07
-0.00015919 -8.09627e-05 -4.01184e-07
-4.55979e-07 -4.01184e-07 -0.000100724
0.00200674 -0.000192323 -4.37411e-06
-0.000192323 6.76156e-05 3.21163e-07
-4.37411e-06 3.21163e-07 4.76806e-05
0.00138559 -0.000163079 -2.81968e-06
-0.000163079 0.000131775 -3.11361e-06
-2.81968e-06 -3.11361e-06 -2.1288e-05
0.00161104 -0.000175965 -2.75464e-06
-0.000175965 5.54904e-05 1.00277e-06
-2.75464e-06 1.00277e-06 -5.14891e-05
0.001692 -0.000151681 -6.48714e-06
-0.000151681 -6.24114e-06 1.02059e-06
-6.48714e-06 1.02059e-06 -7.4526e-05
0.00099484 -0.000134988 2.61727e-06
-0.000134988 -7.89835e-05 6.48148e-07
2.61727e-06 6.48148e-07 -0.000223903
0.00152319 -0.000140096 -8.00458e-07
-0.000140096 5.83439e-05 1.32191e-07
-8.00458e-07 1.32191e-07 -4.83155e-05
0.00155879 -0.000121358 -1.86642e-06
-0.000121358 -2.56182e-05 -3.25582e-07
-1.86642e-06 -3.25582e-07 -0.00010107
0.00125873 -0.000128897 2.15778e-06
-0.000128897 3.79204e-05 1.64485e-06
2.15778e-06 1.64485e-06 -9.49717e-05
0.00147821 -0.000122041 -4.86303e-07
-0.000122041 6.40012e-05 7.17102e-07
-4.86303e-07 7.17102e-07 -3.80116e-05
0.00160899 -0.000111912 -1.97356e-06
-0.000111912 8.42013e-05 -5.86858e-07
-1.97356e-06 -5.86858e-07 6.37963e-06
0.00187924 -0.000111865 -5.38396e-07
-0.000111865 0.000280664 -1.82919e-06
-5.38396e-07 -1.82919e-06 0.000195629
0.00155358 -0.000114729 -1.14565e-06
-0.000114729 0.000142186 1.51094e-06
-1.14565e-06 1.51094e-06 4.48755e-05
0.00143736 -0.000113347 -1.17198e-06
-0.000113347 0.000119836 -3.57883e-06
-1.17198e-06 -3.57883e-06 1.49913e-05
0.0013374 -0.000117177 -2.88355e-06
-0.000117177 0.000141184 -2.29102e-07
-2.88355e-06 -2.29102e-07 2.39597e-05
0.00146583 -0.000125986 1.02775e-06
-0.000125986 0.00018257 -3.62493e-07
1.02775e-06 -3.62493e-07 5.91407e-05
0.00141275 -0.000121317 3.15219e-06
-0.000121317 0.000118493 2.6775e-06
3.15219e-06 2.6775e-06 -1.82701e-06
0.000793531 -9.31139e-05 -2.7554e-06
-9.31139e-05 -5.93352e-05 2.14058e-06
-2.7554e-06 2.14058e-06 -0.000169488
0.00104322 -0.000107474 1.63023e-07
-0.000107474 4.96979e-05 -5.57754e-08
1.63023e-07 -5.57754e-08 -7.03334e-05
0.00149578 -0.000131098 4.37203e-06
-0.000131098 0.000258667 -2.27611e-06
4.37203e-06 -2.27611e-06 0.000127082
0.000950807 -8.39999e-05 -1.62522e-06
-8.39999e-05 6.359e-05 6.69305e-07
-1.62522e-06 6.69305e-07 -2.63943e-05
0.00107671 -0.000101414 1.48657e-07
-0.000101414 0.000121943 -1.95706e-07
1.48657e-07 -1.95706e-07 1.91752e-05
0.000735051 -9.08031e-05 1.38051e-06
-9.08031e-05 -6.48951e-05 -2.87356e-06
1.38051e-06 -2.87356e-06 -0.000179966
0.000825274 -1.6194e-05 -2.49976e-06
-1.6194e-05 2.41344e-05 2.52525e-06
-2.49976e-06 2.52525e-06 -4.44066e-05
0.00101825 -8.07175e-05 -1.52146e-08
-8.07175e-05 0.000107388 -4.85881e-08
-1.52146e-08 -4.85881e-08 2.12575e-05
0.00111936 -9.90891e-05 1.11706e-06
-9.90891e-05 0.000158516 -6.80746e-07
1.11706e-06 -6.80746e-07 6.10795e-05
0.000624987 5.30167e-05 -2.05571e-06
5.30167e-05 -6.46431e-05 4.54484e-06
-2.05571e-06 4.54484e-06 -8.91666e-05
0.000815348 5.27593e-06 -3.10731e-08
5.27593e-06 2.11137e-05 3.92218e-08
-3.10731e-08 3.92218e-08 -4.13552e-05
0.000994203 -4.32892e-05 1.59593e-06
-4.32892e-05 0.00010743 -5.60306e-07
1.59593e-06 -5.60306e-07 2.39697e-05
0.00239018 6.41383e-05 -3.09168e-05
6.41383e-05 0.000871669 3.09221e-06
-3.09168e-05 3.09221e-06 0.000881928
0.000706062 4.73417e-05 -1.18415e-07
4.73417e-05 -2.88095e-05 -1.14042e-07
-1.18415e-07 -1.14042e-07 -4.72818e-05
0.000760582 1.01019e-05 2.24572e-06
1.01019e-05 -1.1843e-05 -2.67756e-06
2.24572e-06 -2.67756e-06 -6.3352e-05
0.00161559 4.95902e-05 1.19466e-05
4.95902e-05 0.000452877 -7.53043e-07
1.19466e-05 -7.53043e-07 0.000461863
0.000760201 4.24248e-05 2.50918e-06
4.24248e-05 -9.00683e-06 -3.75109e-06
2.50918e-06 -3.75109e-06 -2.27735e-05
0.00222316 5.13028e-05 2.65099e-05
5.13028e-05 0.000770028 -3.34775e-06
2.65099e-05 -3.34775e-06 0.000784532
0.000963567 4.72709e-05 1.52585e-07
4.72709e-05 9.80312e-05 7.85076e-07
1.52585e-07 7.85076e-07 1.63147e-05
0.00094534 8.07085e-06 -1.34343e-07
8.07085e-06 8.31015e-05 5.15998e-07
-1.34343e-07 5.15998e-07 8.9597e-06
0.000886935 -2.35441e-05 -3.67678e-07
-2.35441e-05 5.19896e-05 -1.28147e-06
-3.67678e-07 -1.28147e-06 -1.634e-05
0.00092489 1.15858e-05 2.52372e-07
1.15858e-05 6.70377e-05 5.89825e-07
2.52372e-07 5.89825e-07 -5.04846e-06
0.000869301 -2.75121e-05 1.69161e-07
-2.75121e-05 3.45895e-05 -4.31181e-08
1.69161e-07 -4.31181e-08 -2.79935e-05
0.00077168 -4.00559e-05 -1.06336e-06
-4.00559e-05 -9.28127e-06 -2.33786e-06
-1.06336e-06 -2.33786e-06 -5.20652e-05
0.000752831 -3.5085e-05 -2.47394e-06
-3.5085e-05 -2.12862e-05 -3.5844e-06
-2.47394e-06 -3.5844e-06 -3.24995e-05
0.000794796 -3.73202e-05 -1.47661e-07
-3.73202e-05 -3.17782e-06 -1.63228e-08
-1.47661e-07 -1.63228e-08 -4.22647e-05
0.00086735 -4.17507e-05 -8.88365e-08
-4.17507e-05 3.05093e-05 1.34228e-06
-8.88365e-08 1.34228e-06 -2.74157e-05
0.00226541 -4.55122e-05 -2.45872e-05
-4.55122e-05 0.000784772 -3.61473e-06
-2.45872e-05 -3.61473e-06 0.00080046
0.000739394 -3.07008e-05 -2.1621e-07
-3.07008e-05 -3.40068e-05 2.02058e-08
-2.1621e-07 2.02058e-08 -4.34173e-05
0.000813852 -2.03977e-05 1.47804e-06
-2.03977e-05 1.76963e-06 1.78943e-06
1.47804e-06 1.78943e-06 -3.44008e-05
0.0022399 -3.97182e-05 -1.28002e-06
-3.97182e-05 0.000763893 8.19057e-08
-1.28002e-06 8.19057e-08 0.000781241
0.000735035 -2.70287e-05 1.17348e-06
-2.70287e-05 -4.19444e-05 3.41174e-06
1.17348e-06 3.41174e-06 -4.94499e-05
0.00217613 -3.3339e-05 1.62194e-05
-3.3339e-05 0.000723294 3.82421e-06
1.62194e-05 3.82421e-06 0.000742483
0.0012432 8.48717e-05 9.77869e-05
8.48717e-05 0.000651842 2.59878e-05
9.77869e-05 2.59878e-05 0.00039196
0.000308265 -0.000114167 5.5096e-06
-0.000114167 0.000191994 3.45096e-06
5.5096e-06 3.45096e-06 7.28997e-05
0.0014011 -1.11386e-05 -1.54307e-05
-1.11386e-05 9.31995e-05 1.94081e-07
-1.54307e-05 1.94081e-07 3.65243e-06
0.000933087 6.27516e-06 3.14043e-07
6.27516e-06 8.24973e-05 5.7354e-07
3.14043e-07 5.7354e-07 2.13613e-06
0.000935587 1.91654e-05 6.38247e-08
1.91654e-05 8.68565e-05 4.44343e-07
6.38247e-08 4.44343e-07 1.42907e-06
0.000968676 8.08359e-05 -9.9991e-08
8.08359e-05 0.00011636 4.75135e-08
-9.9991e-08 4.75135e-08 2.65196e-05
0.00109019 9.97175e-05 7.59159e-07
9.97175e-05 0.000172179 9.87547e-07
7.59159e-07 9.87547e-07 7.75699e-05
0.000996346 6.97502e-05 -7.2937e-07
6.97502e-05 0.000132481 5.87644e-07
-7.2937e-07 5.87644e-07 3.88061e-05
0.000878614 2.03154e-05 1.0087e-07
2.03154e-05 5.1206e-05 7.13101e-07
1.0087e-07 7.13101e-07 -2.76651e-05
0.000893713 1.36941e-05 8.23382e-08
1.36941e-05 5.77022e-05 7.5779e-07
8.23382e-08 7.5779e-07 -2.35091e-05
0.000833076 4.93988e-05 -5.05527e-07
4.93988e-05 4.35227e-05 -5.96771e-07
-5.05527e-07 -5.96771e-07 -4.5155e-05
0.000266787 5.99152e-05 -2.69054e-07
5.99152e-05 -0.000244798 1.35886e-06
-2.69054e-07 1.35886e-06 -0.000338948
0.000839028 8.27812e-05 1.62188e-07
8.27812e-05 2.37705e-05 -1.42941e-06
1.62188e-07 -1.42941e-06 -6.6654e-05
0.0019278 0.000173971 3.39844e-06
0.000173971 0.000467956 -4.49808e-06
3.39844e-06 -4.49808e-06 0.000356319
0.000914145 5.27131e-05 -1.67712e-06
5.27131e-05 7.88682e-05 -2.65554e-07
-1.67712e-06 -2.65554e-07 -2.63955e-06
0.000866529 1.06909e-05 -2.75343e-07
1.06909e-05 5.00211e-05 -4.12708e-07
-2.75343e-07 -4.12708e-07 -2.39556e-05
0.00897918 -0.000131244 -3.15749e-05
-0.000131244 0.00272802 -1.45664e-05
-3.15749e-05 -1.45664e-05 0.00177402
-0.00172244 -0.000275337 -1.77511e-05
-0.000275337 -0.000768083 1.4162e-06
-1.77511e-05 1.4162e-06 -0.000934683
0.00151598 -0.000259269 -3.38379e-05
-0.000259269 0.000547887 -1.99751e-05
-3.38379e-05 -1.99751e-05 0.000712091
-0.0023241 -0.000324086 -2.58553e-05
-0.000324086 -0.00151774 -7.45065e-06
-2.58553e-05 -7.45065e-06 -0.00127855
0.00907936 -0.000368144 5.34575e-05
-0.000368144 0.00311854 2.6047e-05
5.34575e-05 2.6047e-05 0.00157186
0.00201923 6.57088e-05 1.38838e-05
6.57088e-05 0.000126537 1.4906e-05
1.38838e-05 1.4906e-05 -3.27476e-05
0.00196211 0.000243704 -3.52422e-05
0.000243704 5.48947e-05 -2.32535e-05
-3.52422e-05 -2.32535e-05 -0.000416756
0.00634248 -0.000292328 4.11803e-05
-0.000292328 0.00172188 1.7572e-05
4.11803e-05 1.7572e-05 0.000683631
0.00228851 0.000176234 -7.27826e-06
0.000176234 -4.26528e-05 -4.32958e-05
-7.27826e-06 -4.32958e-05 -0.000460019
0.00220779 0.000271449 1.60329e-05
0.000271449 0.00040081 1.13233e-05
1.60329e-05 1.13233e-05 0.000256307
0.000893064 0.000157676 4.61496e-07
0.000157676 2.22592e-05 -4.66634e-06
4.61496e-07 -4.66634e-06 -0.000118991
0.00095208 8.37955e-05 -2.93519e-06
8.37955e-05 9.68276e-05 1.83106e-06
-2.93519e-06 1.83106e-06 3.83272e-05
0.00201678 0.000213302 -3.66692e-05
0.000213302 0.000602679 -1.87702e-05
-3.66692e-05 -1.87702e-05 0.000494273
0.000474502 0.0001948 -1.24469e-05
0.0001948 -0.000425908 1.35505e-05
-1.24469e-05 1.35505e-05 -0.000497368
0.000318381 -2.9838e-05 9.0265e-07
-2.9838e-05 -0.00103308 -4.84329e-06
9.0265e-07 -4.84329e-06 -0.00148573
0.00159146 1.53862e-05 -5.61268e-06
1.53862e-05 0.000710042 -1.19466e-07
-5.61268e-06 -1.19466e-07 0.000723259
-0.0011802 8.06386e-06 -1.42451e-05
8.06386e-06 -0.000411863 8.99317e-07
-1.42451e-05 8.99317e-07 -0.000626102
0.00211978 -0.0002686 -3.74626e-05
-0.0002686 0.000359478 1.01896e-05
-3.74626e-05 1.01896e-05 0.000352583
0.00367516 -0.000173768 1.54187e-06
-0.000173768 0.00041452 -1.97802e-05
1.54187e-06 -1.97802e-05 -0.00031213
0.000123252 -5.73687e-06 -7.26517e-05
-5.73687e-06 0.000179068 2.2585e-05
-7.26517e-05 2.2585e-05 -1.08022e-05
0.00777299 0.000446405 -2.76952e-05
0.000446405 0.00282452 1.75388e-05
-2.76952e-05 1.75388e-05 0.00168618
0.000806714 -0.000137517 8.15358e-07
-0.000137517 -0.000150333 -1.692e-06
8.15358e-07 -1.692e-06 -0.00019605
0.0052059 0.000204353 2.12746e-05
0.000204353 0.00140253 9.17768e-06
2.12746e-05 9.17768e-06 0.000675727
0.00317824 5.63177e-05 3.91921e-05
5.63177e-05 0.000139888 -2.57823e-06
3.91921e-05 -2.57823e-06 -0.00030413
0.00296354 -0.000147646 -4.84166e-06
-0.000147646 0.000872764 5.01841e-07
-4.84166e-06 5.01841e-07 0.000781597
0.00155756 2.91586e-05 -5.62703e-05
2.91586e-05 0.000135178 -1.16313e-07
-5.62703e-05 -1.16313e-07 -0.000135929
0.00116951 -0.000154057 3.85581e-06
-0.000154057 -0.000181129 -1.92834e-06
3.85581e-06 -1.92834e-06 -0.000202693
0.00178132 -0.000186985 -1.19807e-06
-0.000186985 -1.92176e-05 2.5171e-06
-1.19807e-06 2.5171e-06 -5.02189e-05
0.00233198 -0.000135588 -8.46651e-06
-0.000135588 0.000189585 7.90053e-08
-8.46651e-06 7.90053e-08 0.000151649
0.00169031 -0.000175714 4.32904e-06
-0.000175714 9.11927e-05 1.88845e-06
4.32904e-06 1.88845e-06 -1.40908e-05
0.00182239 -0.000150185 1.82179e-07
-0.000150185 7.29738e-05 1.28243e-06
1.82179e-07 1.28243e-06 4.47413e-06
0.00183745 -0.000102114 -1.31401e-06
-0.000102114 4.04861e-05 1.74811e-06
-1.31401e-06 1.74811e-06 -1.88105e-05
0.00129748 -0.00013007 2.82773e-06
-0.00013007 -5.96591e-05 3.25989e-06
2.82773e-06 3.25989e-06 -0.000165084
0.00167151 -0.000123657 -8.81208e-08
-0.000123657 3.69397e-05 1.5304e-06
-8.81208e-08 1.5304e-06 -4.0462e-05
0.00165948 -0.000100105 -1.56653e-07
-0.000100105 1.80598e-05 2.38306e-06
-1.56653e-07 2.38306e-06 -5.56008e-05
0.00130389 -0.000115936 3.61246e-06
-0.000115936 -2.60489e-05 3.66627e-06
3.61246e-06 3.66627e-06 -0.000127656
0.00154356 -0.000111077 -1.28868e-07
-0.000111077 5.58413e-05 1.4551e-06
-1.28868e-07 1.4551e-06 -2.35063e-05
0.00171076 -0.000100712 5.49182e-07
-0.000100712 0.000134806 1.15308e-07
5.49182e-07 1.15308e-07 5.74688e-05
0.0015973 -0.000105549 -2.30063e-06
-0.000105549 0.000138036 1.15957e-06
-2.30063e-06 1.15957e-06 5.58208e-05
0.00175701 -0.000108381 1.81709e-06
-0.000108381 0.000242005 -2.47339e-06
1.81709e-06 -2.47339e-06 0.000148173
0.00151206 -0.000111289 1.99169e-06
-0.000111289 0.000120789 4.90534e-06
1.99169e-06 4.90534e-06 2.59736e-05
0.00143786 -0.000112269 2.5354e-07
-0.000112269 0.000119582 -5.80652e-07
2.5354e-07 -5.80652e-07 1.43715e-05
0.00141497 -0.00010956 -1.36881e-06
-0.00010956 0.000132004 -1.48963e-06
-1.36881e-06 -1.48963e-06 2.46246e-05
0.000932408 -9.73341e-05 -3.20646e-06
-9.73341e-05 -3.8943e-05 1.00378e-06
-3.20646e-06 1.00378e-06 -0.000149679
0.00132426 -0.000115697 8.35007e-08
-0.000115697 0.00013482 -2.27276e-07
8.35007e-08 -2.27276e-07 1.72599e-05
0.0015817 -0.000129154 3.78269e-06
-0.000129154 0.000243501 4.56957e-07
3.78269e-06 4.56957e-07 0.000120064
0.00100029 -9.17413e-05 -2.30442e-06
-9.17413e-05 6.97535e-05 1.22518e-06
-2.30442e-06 1.22518e-06 -2.6263e-05
0.000892657 -9.66541e-05 -6.56757e-07
-9.66541e-05 -6.11234e-06 7.4514e-07
-6.56757e-07 7.4514e-07 -0.00011538
0.00133265 -0.000118284 3.1196e-06
-0.000118284 0.000200834 -1.71394e-06
3.1196e-06 -1.71394e-06 8.18782e-05
0.000750427 -2.99334e-05 -2.49713e-06
-2.99334e-05 -1.96923e-05 1.81761e-06
-2.49713e-06 1.81761e-06 -9.0896e-05
0.00103595 -8.83013e-05 7.35306e-08
-8.83013e-05 0.000106205 -1.99381e-07
7.35306e-08 -1.99381e-07 1.57903e-05
0.00114119 -0.000103686 1.55134e-06
-0.000103686 0.000153754 -1.55989e-06
1.55134e-06 -1.55989e-06 5.07568e-05
0.00059177 5.97866e-05 -1.13314e-06
5.97866e-05 -7.7436e-05 5.07378e-06
-1.13314e-06 5.07378e-06 -0.000109376
0.000838934 -1.96146e-05 -2.60885e-08
-1.96146e-05 2.9903e-05 2.42759e-07
-2.60885e-08 2.42759e-07 -3.83564e-05
0.00106397 -7.38432e-05 1.81447e-06
-7.38432e-05 0.00012937 -5.06955e-07
1.81447e-06 -5.06955e-07 4.38216e-05
0.00259427 7.28605e-05 -3.43562e-05
7.28605e-05 0.000984678 3.04198e-06
-3.43562e-05 3.04198e-06 0.000992054
0.000663803 5.57427e-05 5.22832e-08
5.57427e-05 -4.27261e-05 -1.38802e-07
5.22832e-08 -1.38802e-07 -6.81037e-05
0.000782235 -1.81348e-05 2.35988e-06
-1.81348e-05 8.09235e-07 -2.46661e-06
2.35988e-06 -2.46661e-06 -6.0494e-05
0.0024411 6.46645e-05 4.92551e-07
6.46645e-05 0.00089872 8.87303e-08
4.92551e-07 8.87303e-08 0.000908621
0.000734478 5.00604e-05 1.5188e-06
5.00604e-05 -1.28739e-05 -4.28153e-06
1.5188e-06 -4.28153e-06 -3.20782e-05
0.00232803 5.75781e-05 3.03757e-05
5.75781e-05 0.000832926 -3.23699e-06
3.03757e-05 -3.23699e-06 0.000845128
0.00101354 8.87742e-05 1.67559e-07
8.87742e-05 0.000123345 4.55869e-07
1.67559e-07 4.55869e-07 3.23962e-05
0.000916729 6.11231e-05 3.52145e-07
6.11231e-05 7.55821e-05 1.33396e-07
3.52145e-07 1.33396e-07 -7.28111e-06
0.00081793 -1.46008e-05 -8.18433e-07
-1.46008e-05 1.91228e-05 -6.02707e-07
-8.18433e-07 -6.02707e-07 -5.67836e-05
0.000898367 -5.3294e-06 1.05998e-07
-5.3294e-06 5.77163e-05 9.2727e-07
1.05998e-07 9.2727e-07 -1.65629e-05
0.000857502 -3.22737e-05 1.47822e-08
-3.22737e-05 3.60881e-05 1.12158e-07
1.47822e-08 1.12158e-07 -3.26297e-05
0.00076301 -3.60619e-05 -1.24651e-06
-3.60619e-05 -9.03575e-06 -2.28387e-06
-1.24651e-06 -2.28387e-06 -5.76674e-05
0.000851825 -3.90381e-05 1.32355e-07
-3.90381e-05 2.52217e-05 1.52027e-06
1.32355e-07 1.52027e-06 -3.71257e-05
0.000785219 -3.98638e-05 -1.97166e-08
-3.98638e-05 -3.04036e-06 -1.06396e-07
-1.97166e-08 -1.06396e-07 -4.55723e-05
0.000745245 -4.10398e-05 -2.52536e-06
-4.10398e-05 -1.72627e-05 -3.72049e-06
-2.52536e-06 -3.72049e-06 -3.11201e-05
0.00227289 -5.11507e-05 -2.70228e-05
-5.11507e-05 0.000796053 -3.411e-06
-2.70228e-05 -3.411e-06 0.000810168
0.000736236 -3.42397e-05 -6.55916e-08
-3.42397e-05 -2.97035e-05 2.1307e-08
-6.55916e-08 2.1307e-08 -4.08386e-05
0.000795092 -3.29542e-05 1.47174e-06
-3.29542e-05 -3.6958e-06 1.999e-06
1.47174e-06 1.999e-06 -4.23256e-05
0.0022684 -4.55265e-05 -1.14247e-06
-4.55265e-05 0.000785546 8.94435e-08
-1.14247e-06 8.94435e-08 0.000801336
0.000723681 -3.01345e-05 1.61519e-06
-3.01345e-05 -4.20817e-05 3.54468e-06
1.61519e-06 3.54468e-06 -5.14334e-05
0.00223097 -3.95772e-05 1.98381e-05
-3.95772e-05 0.000758527 3.75776e-06
1.98381e-05 3.75776e-06 0.000776031
0.00716142 2.82303e-05 4.82267e-05
2.82303e-05 0.00213383 7.21771e-06
4.82267e-05 7.21771e-06 0.00139169
-0.00212094 -8.29089e-05 -5.87548e-08
-8.29089e-05 -0.0010728 1.3492e-06
-5.87548e-08 1.3492e-06 -0.000960259
-0.00092902 -7.45896e-05 -2.90467e-05
-7.45896e-05 -0.000482746 -1.56213e-06
-2.90467e-05 -1.56213e-06 -0.000688776
0.000904452 1.44837e-06 2.44797e-07
1.44837e-06 7.01729e-05 7.01471e-07
2.44797e-07 7.01471e-07 -1.51177e-05
0.000860668 7.75805e-05 -1.80295e-07
7.75805e-05 6.18229e-05 -3.52986e-07
-1.80295e-07 -3.52986e-07 -2.67595e-05
0.00105565 7.39838e-05 4.38049e-07
7.39838e-05 0.000164113 5.58087e-10
4.38049e-07 5.58087e-10 7.04859e-05
0.0010197 9.64954e-05 -7.78664e-07
9.64954e-05 0.000136276 -2.05624e-07
-7.78664e-07 -2.05624e-07 4.18997e-05
0.00114057 0.000104954 5.64172e-06
0.000104954 0.000189403 1.90896e-06
5.64172e-06 1.90896e-06 8.89592e-05
0.000665335 7.95631e-05 -8.26601e-07
7.95631e-05 -3.88504e-05 1.55155e-06
-8.26601e-07 1.55155e-06 -0.00013299
0.000636052 5.04405e-05 -2.64309e-07
5.04405e-05 -5.7761e-05 -1.78108e-07
-2.64309e-07 -1.78108e-07 -0.000146157
0.00062939 7.79195e-05 5.08527e-07
7.79195e-05 -6.05354e-05 -8.22982e-08
5.08527e-07 -8.22982e-08 -0.000158385
0.000801156 7.23607e-05 2.76449e-07
7.23607e-05 1.20173e-05 3.30642e-08
2.76449e-07 3.30642e-08 -8.02001e-05
0.000304025 7.95722e-05 1.43978e-06
7.95722e-05 -0.000278232 6.64395e-07
1.43978e-06 6.64395e-07 -0.000373616
0.00290568 0.000205465 1.34219e-06
0.000205465 0.000960416 -4.61505e-07
1.34219e-06 -4.61505e-07 0.000853547
0.00173426 0.000182811 3.30852e-06
0.000182811 0.000200233 -1.0398e-06
3.30852e-06 -1.0398e-06 7.66512e-05
0.00134259 0.000148879 1.23511e-06
0.000148879 0.000182821 -7.36374e-07
1.23511e-06 -7.36374e-07 7.56212e-05
0.00101388 5.43498e-05 -3.30253e-06
5.43498e-05 0.000143185 1.14281e-06
-3.30253e-06 1.14281e-06 6.10982e-05
0.00227028 -6.47482e-05 -2.22463e-05
-6.47482e-05 -0.000167469 -1.22191e-05
-2.22463e-05 -1.22191e-05 -0.000391462
0.00448703 -0.000138318 5.10648e-06
-0.000138318 0.000914834 3.7056e-07
5.10648e-06 3.7056e-07 4.83586e-06
0.00431029 -0.000440073 -3.6805e-05
-0.000440073 0.00198547 -2.66588e-05
-3.6805e-05 -2.66588e-05 0.00203477
0.00675754 -0.00014382 0.000172664
-0.00014382 0.00197891 5.56152e-05
0.000172664 5.56152e-05 0.000769031
0.00342659 0.000272959 4.69355e-05
0.000272959 0.000791164 4.95936e-05
4.69355e-05 4.95936e-05 0.000593882
0.00194705 0.000123828 -4.21731e-05
0.000123828 3.15715e-05 -1.38181e-05
-4.21731e-05 -1.38181e-05 -0.000210979
0.00174568 0.000187951 2.87049e-05
0.000187951 3.75109e-05 1.63214e-05
2.87049e-05 1.63214e-05 1.93816e-05
0.00194759 0.000260676 -1.83622e-06
0.000260676 0.000274061 5.18173e-06
-1.83622e-06 5.18173e-06 0.000148562
0.000236834 0.000117679 -2.85606e-06
0.000117679 -0.000293342 3.02179e-06
-2.85606e-06 3.02179e-06 -0.000430716
0.00191441 0.000270874 -6.77618e-05
0.000270874 0.000250065 -4.85386e-05
-6.77618e-05 -4.85386e-05 0.000189939
0.00324972 -7.53357e-05 -0.000139864
-7.53357e-05 0.000857415 -1.23123e-06
-0.000139864 -1.23123e-06 0.000475856
0.00684947 4.32515e-05 1.22144e-05
4.32515e-05 0.00229776 -3.06425e-06
1.22144e-05 -3.06425e-06 0.00167648
-0.00479581 -5.31864e-05 5.90651e-06
-5.31864e-05 -0.00261694 4.73783e-06
5.90651e-06 4.73783e-06 -0.00241454
0.00109974 -0.000148482 -5.06334e-07
-0.000148482 -1.95038e-05 1.12647e-05
-5.06334e-07 1.12647e-05 -5.29255e-05
0.00458965 3.60183e-05 6.3671e-05
3.60183e-05 0.00086721 7.8682e-07
6.3671e-05 7.8682e-07 0.000485432
0.000931867 -0.000115424 5.17367e-05
-0.000115424 -0.000484169 1.07848e-05
5.17367e-05 1.07848e-05 -0.00113237
0.00152746 -0.000109286 4.06008e-06
-0.000109286 0.000161492 6.84493e-07
4.06008e-06 6.84493e-07 9.99702e-05
0.00148644 8.81744e-05 -1.47917e-06
8.81744e-05 -1.09946e-05 -2.78683e-06
-1.47917e-06 -2.78683e-06 -0.000258949
0.00341097 -5.37104e-05 3.29804e-06
-5.37104e-05 0.000916131 -9.58826e-06
3.29804e-06 -9.58826e-06 0.000859617
0.00129047 5.63947e-05 1.84021e-05
5.63947e-05 -0.00012037 -2.59746e-06
1.84021e-05 -2.59746e-06 -0.00022383
0.00151454 -0.000183568 3.76252e-06
-0.000183568 -0.000121602 9.39917e-10
3.76252e-06 9.39917e-10 -0.00017022
0.00204624 -0.000129099 -2.23998e-07
-0.000129099 5.52137e-05 -1.7047e-06
-2.23998e-07 -1.7047e-06 1.37305e-05
0.00235234 -3.45641e-05 1.83605e-06
-3.45641e-05 0.000283781 -2.23079e-06
1.83605e-06 -2.23079e-06 0.000227662
0.00171445 -0.000145508 8.84461e-06
-0.000145508 3.16488e-05 8.26477e-07
8.84461e-06 8.26477e-07 -3.77519e-05
0.00185972 -0.000100631 2.64796e-06
-0.000100631 6.51292e-05 -4.01768e-07
2.64796e-06 -4.01768e-07 3.68243e-06
0.00191449 -5.78082e-05 8.42981e-07
-5.78082e-05 0.000130006 6.32367e-07
8.42981e-07 6.32367e-07 4.81054e-05
0.00185289 -0.000126794 4.12917e-06
-0.000126794 0.000133997 2.88287e-06
4.12917e-06 2.88287e-06 5.44785e-05
0.0018257 -0.000103477 7.17395e-07
-0.000103477 0.000110505 4.84309e-07
7.17395e-07 4.84309e-07 3.44991e-05
0.00187238 -8.18379e-05 -4.33934e-07
-8.18379e-05 0.000160612 1.87053e-06
-4.33934e-07 1.87053e-06 7.19956e-05
0.00148238 -0.000110111 2.99495e-06
-0.000110111 2.95813e-05 2.36425e-06
2.99495e-06 2.36425e-06 -5.12995e-05
0.00155656 -9.99061e-05 5.2251e-07
-9.99061e-05 6.63705e-05 -9.68279e-07
5.2251e-07 -9.68279e-07 -1.06629e-05
0.00149623 -9.29402e-05 2.72064e-06
-9.29402e-05 6.33317e-05 2.58065e-07
2.72064e-06 2.58065e-07 -2.92614e-05
0.00131874 -9.92144e-05 -8.5356e-07
-9.92144e-05 -3.04559e-06 3.9331e-06
-8.5356e-07 3.9331e-06 -8.24374e-05
0.00158483 -0.000103208 -1.24956e-06
-0.000103208 0.000152622 -1.09987e-06
-1.24956e-06 -1.09987e-06 6.05597e-05
0.00172523 -0.000106522 1.16236e-07
-0.000106522 0.000249613 -1.21331e-06
1.16236e-07 -1.21331e-06 0.000147753
0.00143781 -0.000111175 1.5188e-06
-0.000111175 0.000118918 2.11152e-06
1.5188e-06 2.11152e-06 1.33622e-05
0.00141386 -0.000108562 3.21383e-07
-0.000108562 0.000131568 -4.01388e-07
3.21383e-07 -4.01388e-07 2.38515e-05
0.00146548 -0.000108117 -1.95641e-06
-0.000108117 0.000186492 -3.58996e-07
-1.95641e-06 -3.58996e-07 8.08095e-05
0.000756238 -8.30348e-05 -3.81597e-06
-8.30348e-05 -9.66299e-05 1.52299e-06
-3.81597e-06 1.52299e-06 -0.000196145
0.00102728 -9.99535e-05 -5.16529e-07
-9.99535e-05 1.31492e-05 4.70575e-07
-5.16529e-07 4.70575e-07 -9.6787e-05
0.00131164 -0.00011425 2.75034e-06
-0.00011425 0.000128732 -3.79154e-07
2.75034e-06 -3.79154e-07 1.08339e-05
0.000825691 -5.54898e-05 -3.26629e-06
-5.54898e-05 9.87265e-06 1.82262e-06
-3.26629e-06 1.82262e-06 -6.56325e-05
0.0010504 -9.34569e-05 1.24154e-07
-9.34569e-05 9.42879e-05 3.54833e-08
1.24154e-07 3.54833e-08 -1.74224e-06
0.00100493 -0.000100731 1.19846e-06
-0.000100731 5.36824e-05 -6.06407e-07
1.19846e-06 -6.06407e-07 -5.47177e-05
0.000631663 4.67787e-05 -3.27656e-06
4.67787e-05 -5.33849e-05 4.81e-06
-3.27656e-06 4.81e-06 -9.06907e-05
0.000857408 -3.33117e-05 1.41586e-07
-3.33117e-05 3.64955e-05 3.95562e-08
1.41586e-07 3.95562e-08 -3.55736e-05
0.00111249 -9.20482e-05 2.21027e-06
-9.20482e-05 0.000144434 -1.22401e-06
2.21027e-06 -1.22401e-06 5.3629e-05
0.0028285 8.20342e-05 -3.92208e-05
8.20342e-05 0.0011118 3.05234e-06
-3.92208e-05 3.05234e-06 0.00111608
0.000654569 4.76949e-05 7.05258e-07
4.76949e-05 -4.67609e-05 -2.23923e-08
7.05258e-07 -2.23923e-08 -7.73526e-05
0.000850941 -2.23308e-05 2.901e-06
-2.23308e-05 3.47113e-05 -2.1174e-06
2.901e-06 -2.1174e-06 -3.33112e-05
0.00264136 7.27256e-05 5.80707e-07
7.27256e-05 0.00100917 1.1033e-07
5.80707e-07 1.1033e-07 0.00101623
0.000699993 5.4428e-05 1.36585e-06
5.4428e-05 -2.33792e-05 -4.70395e-06
1.36585e-06 -4.70395e-06 -4.89412e-05
0.0024885 6.46331e-05 3.46272e-05
6.46331e-05 0.000923785 -3.21921e-06
3.46272e-05 -3.21921e-06 0.000933431
0.0010849 9.79526e-05 -3.89141e-07
9.79526e-05 0.000153014 -6.61909e-07
-3.89141e-07 -6.61909e-07 5.60756e-05
0.00106069 9.12428e-05 2.34356e-07
9.12428e-05 0.000147979 1.37168e-07
2.34356e-07 1.37168e-07 5.72955e-05
0.000949929 4.26717e-05 -1.23139e-06
4.26717e-05 8.59577e-05 -2.66481e-07
-1.23139e-06 -2.66481e-07 3.84932e-06
0.000884506 7.79178e-05 2.55672e-07
7.79178e-05 6.20567e-05 -1.19747e-07
2.55672e-07 -1.19747e-07 -2.28066e-05
0.000821306 -2.00024e-06 -4.13279e-07
-2.00024e-06 2.17643e-05 -7.38809e-08
-4.13279e-07 -7.38809e-08 -5.53455e-05
0.000761437 -8.53371e-06 -2.23774e-06
-8.53371e-06 -6.33492e-06 -1.77761e-06
-2.23774e-06 -1.77761e-06 -6.39242e-05
0.000833171 -3.94994e-05 2.05856e-07
-3.94994e-05 2.39366e-05 1.23488e-06
2.05856e-07 1.23488e-06 -4.60338e-05
0.000777576 -3.78221e-05 1.09275e-07
-3.78221e-05 -1.30884e-06 -2.29374e-07
1.09275e-07 -2.29374e-07 -5.00116e-05
0.000729854 -4.94373e-05 -1.95147e-06
-4.94373e-05 -1.56109e-05 -3.9845e-06
-1.95147e-06 -3.9845e-06 -3.39409e-05
0.000799531 -4.02603e-05 1.11063e-06
-4.02603e-05 3.72138e-06 2.22289e-06
1.11063e-06 2.22289e-06 -3.86198e-05
0.000725099 -3.92332e-05 6.57123e-08
-3.92332e-05 -2.81233e-05 -2.64607e-08
6.57123e-08 -2.64607e-08 -4.1664e-05
0.00232126 -5.71685e-05 -2.97708e-05
-5.71685e-05 0.0008294 -3.21308e-06
-2.97708e-05 -3.21308e-06 0.000841573
0.00228393 -5.12266e-05 -6.62206e-07
-5.12266e-05 0.000800868 8.63758e-08
-6.62206e-07 8.63758e-08 0.000815079
0.000719609 -3.342e-05 2.33197e-06
-3.342e-05 -3.8214e-05 3.59348e-06
2.33197e-06 3.59348e-06 -4.92641e-05
0.00227244 -4.56179e-05 2.29889e-05
-4.56179e-05 0.00078699 3.65108e-06
2.29889e-05 3.65108e-06 0.000802853
0.00108396 -7.08982e-05 -5.75356e-05
-7.08982e-05 -0.000392134 -1.52646e-06
-5.75356e-05 -1.52646e-06 -0.000631499
0.00170177 -0.000134119 3.23768e-06
-0.000134119 -0.000443601 -8.8736e-07
3.23768e-06 -8.8736e-07 -0.00107787
0.00257346 -0.000296241 -4.31666e-05
-0.000296241 0.00104218 -9.79172e-06
-4.31666e-05 -9.79172e-06 0.00118173
0.00120002 0.000111762 6.03541e-06
0.000111762 0.000176895 1.72889e-06
6.03541e-06 1.72889e-06 7.17881e-05
0.00112822 7.67306e-05 3.09015e-07
7.67306e-05 0.000202577 -7.1752e-07
3.09015e-07 -7.1752e-07 0.000109054
0.000942157 9.28526e-05 -6.37488e-07
9.28526e-05 9.69033e-05 -6.18383e-07
-6.37488e-07 -6.18383e-07 2.78499e-06
0.000910673 9.15447e-05 2.23718e-07
9.15447e-05 8.92745e-05 2.49878e-07
2.23718e-07 2.49878e-07 -6.2121e-06
0.00102994 0.00010023 -1.54482e-07
0.00010023 0.00013581 -6.20138e-07
-1.54482e-07 -6.20138e-07 3.47466e-05
0.000637524 8.75543e-05 -1.40089e-07
8.75543e-05 -8.94305e-05 1.86775e-06
-1.40089e-07 1.86775e-06 -0.000176093
0.00105482 9.95542e-05 2.16174e-07
9.95542e-05 0.000157331 -1.76153e-06
2.16174e-07 -1.76153e-06 5.5255e-05
0.00098197 7.02383e-05 -1.39446e-06
7.02383e-05 0.000110097 1.33986e-06
-1.39446e-06 1.33986e-06 1.54816e-05
0.000961747 0.000109387 1.45902e-07
0.000109387 5.66536e-05 -1.70976e-07
1.45902e-07 -1.70976e-07 -3.92143e-05
0.00214472 0.000174202 7.21863e-07
0.000174202 0.000585528 2.13517e-06
7.21863e-07 2.13517e-06 0.000480851
0.00160071 0.000162217 1.53677e-06
0.000162217 0.000178098 -1.50125e-06
1.53677e-06 -1.50125e-06 6.41995e-05
0.00185159 0.00014834 7.99423e-06
0.00014834 8.57413e-05 6.33155e-06
7.99423e-06 6.33155e-06 -3.71433e-05
0.00131703 0.000165938 5.23486e-07
0.000165938 -8.93902e-06 2.60858e-07
5.23486e-07 2.60858e-07 -0.000132101
0.000832113 0.000124507 -1.46885e-06
0.000124507 -7.12607e-05 3.43104e-06
-1.46885e-06 3.43104e-06 -0.000173727
0.000437545 3.95719e-05 -7.57386e-06
3.95719e-05 -0.00041667 2.02361e-06
-7.57386e-06 2.02361e-06 -0.000424295
0.00374574 -5.36311e-05 -1.04768e-05
-5.36311e-05 0.00037582 1.35089e-06
-1.04768e-05 1.35089e-06 8.62266e-05
0.00150873 -0.000177187 7.41669e-06
-0.000177187 -0.000483346 5.23039e-06
7.41669e-06 5.23039e-06 -0.00130124
0.00284068 0.000206106 4.48e-05
0.000206106 0.000235349 2.40901e-05
4.48e-05 2.40901e-05 -0.000142485
0.00126104 0.000158975 -7.31702e-06
0.000158975 -0.000126351 4.27033e-07
-7.31702e-06 4.27033e-07 -0.000157175
0.00042207 0.000186608 -1.7662e-05
0.000186608 -0.00041538 -1.23939e-05
-1.7662e-05 -1.23939e-05 -0.000549109
0.00260233 -7.94754e-05 1.25928e-05
-7.94754e-05 0.000528121 -4.9246e-06
1.25928e-05 -4.9246e-06 0.000431089
0.00119393 -1.19731e-05 -2.21141e-05
-1.19731e-05 -3.35688e-07 2.94436e-06
-2.21141e-05 2.94436e-06 -0.000340751
0.000741651 0.000201602 4.74119e-05
0.000201602 -0.000862751 -9.19251e-06
4.74119e-05 -9.19251e-06 -0.00144013
0.000151421 -6.52594e-05 -6.52364e-06
-6.52594e-05 -0.000544216 1.29925e-05
-6.52364e-06 1.29925e-05 -0.000557702
0.00360349 0.000152861 3.78078e-05
0.000152861 0.000892761 -4.25985e-06
3.78078e-05 -4.25985e-06 0.000599934
0.00171543 -3.07992e-05 4.99105e-06
-3.07992e-05 3.6314e-05 -1.81695e-06
4.99105e-06 -1.81695e-06 -2.99399e-06
0.00209361 7.28805e-05 1.44499e-06
7.28805e-05 0.000299309 -2.9189e-06
1.44499e-06 -2.9189e-06 0.000205959
0.00113127 3.20796e-05 3.42399e-06
3.20796e-05 -0.000336363 -3.20365e-06
3.42399e-06 -3.20365e-06 -0.000414872
0.00240727 4.33843e-05 -1.92639e-06
4.33843e-05 0.000376107 -3.41012e-06
-1.92639e-06 -3.41012e-06 0.000284373
0.00167695 -0.000119389 2.10817e-06
-0.000119389 -0.00011865 -1.20898e-06
2.10817e-06 -1.20898e-06 -0.000161484
0.00195725 -3.40245e-05 3.74858e-06
-3.40245e-05 7.56285e-05 3.73375e-07
3.74858e-06 3.73375e-07 1.53487e-05
0.00211215 -8.89498e-06 3.1538e-07
-8.89498e-06 0.000257496 -2.34315e-06
3.1538e-07 -2.34315e-06 0.00017459
0.00200292 -0.00010236 1.76606e-06
-0.00010236 0.000147847 7.32822e-07
1.76606e-06 7.32822e-07 8.38187e-05
0.00188529 -6.08301e-05 -6.31603e-08
-6.08301e-05 0.000112959 -5.79962e-07
-6.31603e-08 -5.79962e-07 3.01642e-05
0.00179882 -4.43098e-05 -5.94119e-07
-4.43098e-05 0.000114837 -4.83838e-07
-5.94119e-07 -4.83838e-07 1.52911e-05
0.00193162 -0.000105884 -2.10246e-07
-0.000105884 0.000172951 -7.52073e-08
-2.10246e-07 -7.52073e-08 9.47299e-05
0.00182749 -8.40922e-05 9.40379e-10
-8.40922e-05 0.000147537 -9.50493e-07
9.40379e-10 -9.50493e-07 6.05151e-05
0.00151473 -7.16079e-05 6.55309e-07
-7.16079e-05 2.6939e-05 1.9095e-06
6.55309e-07 1.9095e-06 -7.09854e-05
0.00138687 -9.87445e-05 -5.51485e-07
-9.87445e-05 -9.9548e-06 -2.05699e-06
-5.51485e-07 -2.05699e-06 -8.66519e-05
0.00151297 -9.29558e-05 5.33283e-07
-9.29558e-05 7.14341e-05 -7.83369e-07
5.33283e-07 -7.83369e-07 -2.12345e-05
0.00148626 -9.32633e-05 4.44633e-07
-9.32633e-05 8.32261e-05 1.68434e-07
4.44633e-07 1.68434e-07 -1.89337e-05
0.00140999 -9.80315e-05 -2.85535e-06
-9.80315e-05 6.19148e-05 1.71181e-06
-2.85535e-06 1.71181e-06 -2.83875e-05
0.00154627 -0.000100564 -2.59589e-07
-0.000100564 0.000156099 -6.98945e-07
-2.59589e-07 -6.98945e-07 5.5137e-05
0.0014397 -9.65591e-05 -1.74055e-06
-9.65591e-05 0.000130826 -1.97361e-07
-1.74055e-06 -1.97361e-07 2.69489e-05
0.00141341 -0.000107583 1.96354e-06
-0.000107583 0.000131434 6.64559e-07
1.96354e-06 6.64559e-07 2.33865e-05
0.00127386 -0.000101313 4.17079e-07
-0.000101313 8.79911e-05 -2.41414e-07
4.17079e-07 -2.41414e-07 -1.80944e-05
0.00127792 -9.59768e-05 -3.63649e-06
-9.59768e-05 0.000127942 7.72891e-07
-3.63649e-06 7.72891e-07 2.90517e-05
0.000902475 -6.77413e-05 -4.08924e-06
-6.77413e-05 2.39358e-05 1.90282e-06
-4.08924e-06 1.90282e-06 -5.55487e-05
0.000882325 -8.74561e-05 -8.32597e-07
-8.74561e-05 -2.9253e-05 5.75316e-07
-8.32597e-07 5.75316e-07 -0.000127931
0.0011068 -0.000101886 1.94741e-06
-0.000101886 5.74265e-05 -1.74693e-07
1.94741e-06 -1.74693e-07 -5.1664e-05
0.000638963 -1.00665e-05 -5.93686e-06
-1.00665e-05 -4.82915e-05 4.92102e-06
-5.93686e-06 4.92102e-06 -9.00893e-05
0.000880951 -5.76975e-05 1.65013e-07
-5.76975e-05 3.86458e-05 -8.38724e-09
1.65013e-07 -8.38724e-09 -3.74151e-05
0.00110081 -9.53452e-05 2.65722e-06
-9.53452e-05 0.000118777 -1.20324e-06
2.65722e-06 -1.20324e-06 2.27386e-05
0.00296611 9.00903e-05 -4.36454e-05
9.00903e-05 0.00119289 3.02304e-06
-4.36454e-05 3.02304e-06 0.0011935
0.000673625 1.72591e-05 -2.33624e-07
1.72591e-05 -3.66763e-05 -1.45294e-07
-2.33624e-07 -1.45294e-07 -7.23314e-05
0.000919514 -3.95777e-05 3.48498e-06
-3.95777e-05 6.83016e-05 -2.12091e-06
3.48498e-06 -2.12091e-06 -3.93281e-06
0.00281627 8.03666e-05 8.97765e-07
8.03666e-05 0.00110631 1.45025e-07
8.97765e-07 1.45025e-07 0.00111034
0.000697036 3.66688e-05 4.46855e-06
3.66688e-05 -2.47276e-05 -4.57476e-06
4.46855e-06 -4.57476e-06 -5.52487e-05
0.0026766 7.19387e-05 3.93042e-05
7.19387e-05 0.00102751 -3.33856e-06
3.93042e-05 -3.33856e-06 0.00103435
0.000879224 9.4746e-05 -3.08553e-07
9.4746e-05 2.0291e-05 -6.75366e-07
-3.08553e-07 -6.75366e-07 -8.22006e-05
0.00100684 9.39149e-05 -4.83596e-08
9.39149e-05 0.000112371 -4.95819e-07
-4.83596e-08 -4.95819e-07 1.60081e-05
0.00108206 8.37463e-05 -9.50846e-07
8.37463e-05 0.000145569 -1.57932e-07
-9.50846e-07 -1.57932e-07 5.86037e-05
0.00110218 9.35605e-05 -1.04323e-07
9.35605e-05 0.000169539 -6.06086e-07
-1.04323e-07 -6.06086e-07 7.91428e-05
0.000932619 4.49989e-05 -6.99744e-07
4.49989e-05 7.71166e-05 -3.04744e-07
-6.99744e-07 -3.04744e-07 -4.36405e-06
0.000803643 9.46915e-06 -2.24744e-06
9.46915e-06 1.6738e-05 -1.45831e-06
-2.24744e-06 -1.45831e-06 -4.85094e-05
0.000822432 1.18752e-05 1.995e-07
1.18752e-05 2.24276e-05 5.83311e-08
1.995e-07 5.83311e-08 -5.53017e-05
0.00078345 -2.95759e-05 -1.65139e-07
-2.95759e-05 5.64414e-06 -7.64001e-09
-1.65139e-07 -7.64001e-09 -5.14783e-05
0.000699333 -5.76e-05 -1.35615e-06
-5.76e-05 -2.17938e-05 -4.19277e-06
-1.35615e-06 -4.19277e-06 -4.62232e-05
0.000790215 -4.02407e-05 1.19347e-06
-4.02407e-05 5.62413e-06 2.33659e-06
1.19347e-06 2.33659e-06 -4.32017e-05
0.000705494 -4.66436e-05 5.5185e-08
-4.66436e-05 -2.93985e-05 -7.05219e-08
5.5185e-08 -7.05219e-08 -4.70413e-05
0.00242642 -6.38066e-05 -3.32073e-05
-6.38066e-05 0.000892008 -3.03922e-06
-3.32073e-05 -3.03922e-06 0.000901863
0.000712411 -3.7841e-05 2.8313e-06
-3.7841e-05 -3.50646e-05 3.60597e-06
2.8313e-06 3.60597e-06 -4.83355e-05
0.00231158 -5.71612e-05 -3.98665e-07
-5.71612e-05 0.00082322 7.69073e-08
-3.98665e-07 7.69073e-08 0.000835597
0.00229182 -5.11898e-05 2.61059e-05
-5.11898e-05 0.000804173 3.4942e-06
2.61059e-05 3.4942e-06 0.000818481
0.000536847 -3.35281e-05 -6.56538e-07
-3.35281e-05 -0.00040551 -1.19905e-07
-6.56538e-07 -1.19905e-07 -0.000439782
0.00314799 -5.64717e-05 1.84343e-06
-5.64717e-05 0.000361236 1.05978e-05
1.84343e-06 1.05978e-05 4.17154e-05
0.00578168 0.000118533 -7.36737e-05
0.000118533 0.00173411 -9.67583e-06
-7.36737e-05 -9.67583e-06 0.00100936
0.000844513 9.29774e-05 3.23215e-06
9.29774e-05 -2.84808e-05 1.31841e-06
3.23215e-06 1.31841e-06 -0.000122383
0.0014205 0.000125372 4.1009e-06
0.000125372 0.000192066 -1.35353e-06
4.1009e-06 -1.35353e-06 8.08167e-05
0.000809148 9.57297e-05 7.80119e-08
9.57297e-05 -1.56611e-05 -7.19363e-07
7.80119e-08 -7.19363e-07 -0.00011912
0.00112901 0.000102206 -1.03086e-06
0.000102206 0.000202408 -2.0804e-06
-1.03086e-06 -2.0804e-06 0.000105842
0.000951475 9.69656e-05 -9.31213e-07
9.69656e-05 9.83841e-05 -1.10383e-06
-9.31213e-07 -1.10383e-06 -3.39641e-06
0.00100902 0.00010567 2.1887e-06
0.00010567 9.22412e-05 1.27953e-06
2.1887e-06 1.27953e-06 3.27941e-06
0.00171183 0.000154236 -2.16349e-06
0.000154236 0.000240623 -3.30512e-06
-2.16349e-06 -3.30512e-06 0.000134101
0.00149831 0.000133522 9.28698e-07
0.000133522 0.00033156 -4.34932e-07
9.28698e-07 -4.34932e-07 0.000235419
0.000959532 0.000124865 -1.55982e-06
0.000124865 -1.33303e-07 5.28385e-06
-1.55982e-06 5.28385e-06 -0.000101874
0.00159315 0.00016163 -1.13528e-06
0.00016163 0.000176843 2.91439e-08
-1.13528e-06 2.91439e-08 6.35159e-05
0.00153248 0.000133665 -8.09968e-07
0.000133665 -1.55066e-05 -7.62983e-07
-8.09968e-07 -7.62983e-07 -0.000142653
0.00155871 4.03323e-05 9.19955e-06
4.03323e-05 -0.000109453 4.10178e-06
9.19955e-06 4.10178e-06 -0.000200703
0.00204958 0.000151168 4.16499e-06
0.000151168 0.000191716 2.06368e-06
4.16499e-06 2.06368e-06 6.95123e-05
0.00125662 0.000160996 -4.41683e-06
0.000160996 -3.95808e-05 1.71242e-06
-4.41683e-06 1.71242e-06 -0.000162001
0.0010923 3.2936e-05 1.86226e-07
3.2936e-05 -9.42665e-05 -5.16262e-07
1.86226e-07 -5.16262e-07 -0.00010664
0.004678 -0.00014154 4.80626e-05
-0.00014154 0.000717818 2.18223e-05
4.80626e-05 2.18223e-05 0.000397312
0.00169175 0.000152246 -1.46818e-07
0.000152246 0.00015183 -7.5096e-06
-1.46818e-07 -7.5096e-06 0.000112033
0.00179142 -1.28086e-05 5.88924e-06
-1.28086e-05 0.000130931 -1.69651e-06
5.88924e-06 -1.69651e-06 5.70612e-05
0.00186727 -4.96458e-05 -1.06493e-06
-4.96458e-05 0.000199638 5.91433e-07
-1.06493e-06 5.91433e-07 8.39337e-05
0.000674082 5.95504e-05 5.43021e-05
5.95504e-05 -0.000453201 4.41443e-07
5.43021e-05 4.41443e-07 -0.000866501
0.000196256 -1.92679e-05 -7.4287e-06
-1.92679e-05 -0.000739281 3.74809e-06
-7.4287e-06 3.74809e-06 -0.000767809
0.00255763 7.57296e-05 -2.88583e-05
7.57296e-05 0.000553364 4.00995e-06
-2.88583e-05 4.00995e-06 0.00047288
0.00121538 2.61801e-05 9.52142e-08
2.61801e-05 -0.000300453 4.28754e-06
9.52142e-08 4.28754e-06 -0.000372182
0.00214436 3.46481e-05 1.43697e-06
3.46481e-05 0.000216203 9.6169e-07
1.43697e-06 9.6169e-07 0.000126523
0.00191209 5.44574e-06 -1.56811e-07
5.44574e-06 0.000118386 1.46583e-07
-1.56811e-07 1.46583e-07 3.41062e-05
0.00147552 1.02042e-05 1.84168e-06
1.02042e-05 -0.000119576 -1.34076e-06
1.84168e-06 -1.34076e-06 -0.00020313
0.0015322 -3.42818e-05 5.69148e-06
-3.42818e-05 -0.000150523 1.85802e-06
5.69148e-06 1.85802e-06 -0.000214749
0.00175442 -9.61337e-06 -1.90469e-06
-9.61337e-06 7.07102e-05 1.88177e-09
-1.90469e-06 1.88177e-09 -1.13761e-05
0.00166853 -7.67142e-06 4.97725e-07
-7.67142e-06 5.17884e-05 -1.30212e-06
4.97725e-07 -1.30212e-06 -4.04648e-05
0.00197557 -6.44851e-05 -3.15484e-06
-6.44851e-05 0.000158383 -2.31935e-07
-3.15484e-06 -2.31935e-07 7.50659e-05
0.00181176 -4.46385e-05 -5.1177e-07
-4.46385e-05 0.000124378 -2.38466e-07
-5.1177e-07 -2.38466e-07 2.626e-05
0.00154536 -3.47374e-05 -6.55417e-07
-3.47374e-05 1.54528e-05 -2.01696e-07
-6.55417e-07 -2.01696e-07 -8.63788e-05
0.00177118 -8.60406e-05 -2.22459e-06
-8.60406e-05 0.000128872 -3.25373e-06
-2.22459e-06 -3.25373e-06 4.34073e-05
0.00161541 -7.26813e-05 4.59688e-07
-7.26813e-05 7.55669e-05 5.89769e-07
4.59688e-07 5.89769e-07 -2.25346e-05
0.0015535 -7.48097e-05 -2.43284e-07
-7.48097e-05 6.87756e-05 6.70141e-07
-2.43284e-07 6.70141e-07 -3.43268e-05
0.00153516 -9.30765e-05 -1.16547e-06
-9.30765e-05 8.22609e-05 -1.80069e-06
-1.16547e-06 -1.80069e-06 -1.04766e-05
0.00149352 -9.25221e-05 2.03882e-07
-9.25221e-05 8.62407e-05 -3.23182e-07
2.03882e-07 -3.23182e-07 -1.58332e-05
0.00143117 -9.09816e-05 -1.43752e-06
-9.09816e-05 8.64044e-05 4.4243e-07
-1.43752e-06 4.4243e-07 -1.87836e-05
0.00136713 -9.46569e-05 -1.72359e-07
-9.46569e-05 6.2493e-05 3.85609e-07
-1.72359e-07 3.85609e-07 -3.75799e-05
0.00128879 -9.19574e-05 -1.76946e-07
-9.19574e-05 5.38261e-05 -2.73825e-07
-1.76946e-07 -2.73825e-07 -4.9744e-05
0.00124022 -8.74254e-05 -3.72225e-06
-8.74254e-05 7.17955e-05 7.5429e-07
-3.72225e-06 7.5429e-07 -2.67463e-05
0.00107671 -9.43704e-05 2.62949e-06
-9.43704e-05 -1.32252e-05 -1.33526e-07
2.62949e-06 -1.33526e-07 -0.000119729
0.00106848 -8.81792e-05 2.12906e-07
-8.81792e-05 2.0357e-05 9.95562e-09
2.12906e-07 9.95562e-09 -7.84578e-05
0.000965564 -7.07367e-05 -5.14037e-06
-7.07367e-05 2.20386e-05 2.01274e-06
-5.14037e-06 2.01274e-06 -5.8709e-05
0.0005712 -3.23577e-05 -7.25644e-06
-3.23577e-05 -8.64591e-05 5.24571e-06
-7.25644e-06 5.24571e-06 -0.0001333
0.000929448 -7.01123e-05 1.81866e-07
-7.01123e-05 3.81124e-05 2.93358e-08
1.81866e-07 2.93358e-08 -4.1689e-05
0.00101462 -9.2202e-05 1.89191e-06
-9.2202e-05 4.13171e-05 -2.91638e-07
1.89191e-06 -2.91638e-07 -5.65558e-05
0.00309806 0.000100194 -4.56199e-05
0.000100194 0.00127845 2.94397e-06
-4.56199e-05 2.94397e-06 0.00127397
0.00069978 -2.60751e-06 -3.18323e-07
-2.60751e-06 -1.96612e-05 -5.14096e-08
-3.18323e-07 -5.14096e-08 -6.24397e-05
0.000958173 -5.74215e-05 3.81022e-06
-5.74215e-05 7.94872e-05 -1.90286e-06
3.81022e-06 -1.90286e-06 2.37412e-06
0.00297686 8.95507e-05 9.48409e-07
8.95507e-05 0.00120135 1.73876e-07
9.48409e-07 1.73876e-07 0.00120123
0.000737997 1.46688e-05 5.99912e-06
1.46688e-05 -5.31056e-06 -4.53348e-06
5.99912e-06 -4.53348e-06 -4.08861e-05
0.00284184 7.9699e-05 4.35485e-05
7.9699e-05 0.00112066 -3.30821e-06
4.35485e-05 -3.30821e-06 0.00112424
0.000626242 9.01141e-05 -8.62273e-08
9.01141e-05 -0.000161801 -6.2231e-07
-8.62273e-08 -6.2231e-07 -0.00027229
0.000717307 8.7761e-05 3.50278e-08
8.7761e-05 -6.57227e-05 -1.51719e-07
3.50278e-08 -1.51719e-07 -0.000168765
0.00112716 9.38241e-05 -1.49158e-06
9.38241e-05 0.000145231 -2.85574e-07
-1.49158e-06 -2.85574e-07 5.2581e-05
0.000930178 8.99212e-05 -2.51876e-07
8.99212e-05 7.23636e-05 -5.75444e-07
-2.51876e-07 -5.75444e-07 -2.34087e-05
0.000991388 7.89078e-05 -1.98941e-07
7.89078e-05 9.90933e-05 -1.66907e-07
-1.98941e-07 -1.66907e-07 1.26869e-05
0.000888737 2.79906e-05 -2.71725e-06
2.79906e-05 6.11568e-05 -1.2175e-06
-2.71725e-06 -1.2175e-06 -1.02574e-05
0.000917809 4.68111e-05 2.75035e-07
4.68111e-05 6.97217e-05 -5.34576e-07
2.75035e-07 -5.34576e-07 -1.12042e-05
0.000806157 1.36013e-06 3.7155e-08
1.36013e-06 2.12031e-05 9.55607e-08
3.7155e-08 9.55607e-08 -4.48796e-05
0.000680702 -5.19483e-05 -2.65042e-06
-5.19483e-05 -2.73484e-05 -4.1612e-06
-2.65042e-06 -4.1612e-06 -5.71551e-05
0.00080366 -4.10794e-05 1.30735e-06
-4.10794e-05 1.78691e-05 2.25982e-06
1.30735e-06 2.25982e-06 -3.96365e-05
0.000669922 -5.55649e-05 -1.96274e-08
-5.55649e-05 -3.85369e-05 -1.04597e-07
-1.96274e-08 -1.04597e-07 -6.22577e-05
0.00257648 -7.12463e-05 -3.71667e-05
-7.12463e-05 0.000976987 -2.97202e-06
-3.71667e-05 -2.97202e-06 0.000984177
0.000682014 -4.3868e-05 2.98324e-06
-4.3868e-05 -4.27261e-05 3.68734e-06
2.98324e-06 3.68734e-06 -5.96995e-05
0.00239811 -6.37675e-05 -4.14886e-07
-6.37675e-05 0.000876417 7.93551e-08
-4.14886e-07 7.93551e-08 0.000886532
0.00231252 -5.70591e-05 2.83437e-05
-5.70591e-05 0.000822693 3.27705e-06
2.83437e-05 3.27705e-06 0.000835262
0.00151351 -2.13219e-05 1.04251e-05
-2.13219e-05 -0.00011057 8.50156e-07
1.04251e-05 8.50156e-07 -0.000186556
0.00105821 -5.62007e-05 5.57792e-07
-5.62007e-05 -0.000202531 1.72717e-06
5.57792e-07 1.72717e-06 -0.000248402
0.0022539 -0.000106795 6.88234e-05
-0.000106795 -9.45083e-06 1.59127e-05
6.88234e-05 1.59127e-05 -0.000261834
0.00211227 0.000147253 2.2476e-06
0.000147253 0.000465385 -2.81391e-06
2.2476e-06 -2.81391e-06 0.000359801
0.000833746 9.55405e-05 -1.52807e-06
9.55405e-05 -2.0836e-05 5.22303e-07
-1.52807e-06 5.22303e-07 -0.0001094
0.000716614 0.000101398 -2.76641e-06
0.000101398 -0.000269162 1.21839e-06
-2.76641e-06 1.21839e-06 -0.000383594
0.0014335 0.000126174 4.47447e-07
0.000126174 0.000197545 1.66334e-07
4.47447e-07 1.66334e-07 8.5401e-05
0.0004248 7.9756e-05 -2.95379e-06
7.9756e-05 -0.000204028 5.96664e-07
-2.95379e-06 5.96664e-07 -0.000305937
0.00187106 0.00012895 -2.01368e-06
0.00012895 0.000177152 -4.52221e-06
-2.01368e-06 -4.52221e-06 5.65826e-05
0.00136515 0.000122926 -1.46432e-06
0.000122926 0.000266445 -8.42885e-07
-1.46432e-06 -8.42885e-07 0.000175297
0.00165037 0.00014978 -2.84586e-07
0.00014978 0.000205168 6.8595e-07
-2.84586e-07 6.8595e-07 9.85798e-05
0.00174328 6.41484e-05 4.34184e-06
6.41484e-05 5.54922e-05 2.18007e-06
4.34184e-06 2.18007e-06 -5.84831e-05
0.00162253 0.000163015 1.23666e-06
0.000163015 0.000193001 3.01682e-06
1.23666e-06 3.01682e-06 8.02665e-05
0.00177943 0.000142339 -1.11654e-06
0.000142339 9.7413e-05 -1.11571e-06
-1.11654e-06 -1.11571e-06 -3.19414e-05
0.00167501 4.83519e-05 -2.60841e-07
4.83519e-05 -3.74047e-05 -4.54156e-07
-2.60841e-07 -4.54156e-07 -0.000130675
0.00182413 0.000138166 -1.84732e-06
0.000138166 9.63537e-05 -1.0242e-06
-1.84732e-06 -1.0242e-06 -2.54307e-05
0.00116397 3.14731e-05 -4.52395e-06
3.14731e-05 -6.1742e-05 -6.79122e-06
-4.52395e-06 -6.79122e-06 -7.60747e-05
0.00161971 -6.00999e-06 5.03491e-06
-6.00999e-06 -7.60108e-06 -2.68236e-07
5.03491e-06 -2.68236e-07 -9.35796e-05
0.00177177 -4.97812e-06 -8.9572e-07
-4.97812e-06 0.00012129 5.99188e-08
-8.9572e-07 5.99188e-08 4.63981e-05
0.000813098 -1.10917e-05 -9.24717e-06
-1.10917e-05 -0.000291695 2.78897e-06
-9.24717e-06 2.78897e-06 -0.000424835
0.00131714 2.17334e-05 -2.02848e-06
2.17334e-05 -0.00026301 3.15385e-06
-2.02848e-06 3.15385e-06 -0.000327773
0.00205368 2.79657e-05 8.29653e-06
2.79657e-05 0.000145258 2.89657e-06
8.29653e-06 2.89657e-06 5.74655e-05
0.00185871 6.69513e-06 -3.05907e-06
6.69513e-06 8.83914e-05 -2.92651e-07
-3.05907e-06 -2.92651e-07 5.03035e-06
0.00172181 8.13304e-06 4.93931e-07
8.13304e-06 1.34574e-05 7.10419e-07
4.93931e-07 7.10419e-07 -6.9252e-05
0.0018202 3.50033e-06 1.54284e-06
3.50033e-06 9.77198e-05 -3.08749e-07
1.54284e-06 -3.08749e-07 5.22833e-06
0.00144119 -9.93639e-06 -3.11957e-06
-9.93639e-06 -9.22612e-05 6.71106e-07
-3.11957e-06 6.71106e-07 -0.000173776
0.00173773 -6.55114e-06 -4.16301e-08
-6.55114e-06 8.99296e-05 1.50262e-07
-4.16301e-08 1.50262e-07 -2.91269e-06
0.00162583 -1.60472e-06 -3.45129e-07
-1.60472e-06 4.58475e-05 -6.6663e-07
-3.45129e-07 -6.6663e-07 -5.42148e-05
0.00184889 -4.54339e-05 -1.64011e-06
-4.54339e-05 0.000146167 1.1792e-07
-1.64011e-06 1.1792e-07 4.9464e-05
0.00163804 -3.58872e-05 -1.05153e-07
-3.58872e-05 6.24354e-05 7.33907e-07
-1.05153e-07 7.33907e-07 -3.9441e-05
0.00162852 -3.73248e-05 -1.19091e-06
-3.73248e-05 8.03415e-05 -5.39168e-07
-1.19091e-06 -5.39168e-07 -2.31298e-05
0.0017221 -7.37539e-05 6.76339e-07
-7.37539e-05 0.000127211 -6.54814e-07
6.76339e-07 -6.54814e-07 2.8944e-05
0.00159008 -7.44164e-05 2.45321e-07
-7.44164e-05 8.62933e-05 5.24195e-07
2.45321e-07 5.24195e-07 -1.68579e-05
0.00151381 -7.66746e-05 -1.73471e-06
-7.66746e-05 8.24541e-05 3.74939e-07
-1.73471e-06 3.74939e-07 -2.26503e-05
0.00150401 -9.1915e-05 1.72505e-07
-9.1915e-05 9.08879e-05 -8.43052e-07
1.72505e-07 -8.43052e-07 -1.11034e-05
0.00143287 -9.03541e-05 1.10583e-07
-9.03541e-05 8.67663e-05 -8.96042e-08
1.10583e-07 -8.96042e-08 -1.83236e-05
0.00131004 -8.3416e-05 -3.56541e-06
-8.3416e-05 6.73944e-05 1.0279e-06
-3.56541e-06 1.0279e-06 -3.33991e-05
0.00114508 -8.75385e-05 1.49828e-06
-8.75385e-05 -1.95881e-05 -2.11721e-07
1.49828e-06 -2.11721e-07 -0.000122839
0.00123202 -8.65295e-05 2.71518e-08
-8.65295e-05 6.75214e-05 -1.04422e-07
2.71518e-08 -1.04422e-07 -3.08641e-05
0.00102306 -6.85391e-05 -6.16973e-06
-6.85391e-05 1.78268e-05 2.30084e-06
-6.16973e-06 2.30084e-06 -6.40146e-05
0.000860021 -8.03523e-05 3.18689e-06
-8.03523e-05 -8.6735e-05 -5.65595e-07
3.18689e-06 -5.65595e-07 -0.000185464
0.000979156 -7.15946e-05 2.25161e-07
-7.15946e-05 2.90858e-05 -2.27827e-08
2.25161e-07 -2.27827e-08 -5.18403e-05
0.00170475 -8.33975e-06 -7.86582e-06
-8.33975e-06 0.000512392 3.54799e-06
-7.86582e-06 3.54799e-06 0.000467322
0.00106848 3.64719e-05 -4.99365e-05
3.64719e-05 0.000208516 6.87473e-06
-4.99365e-05 6.87473e-06 0.000189681
0.00124542 -1.74803e-05 -1.28503e-06
-1.74803e-05 0.000267177 -7.62407e-08
-1.28503e-06 -7.62407e-08 0.000222515
0.000972741 -7.28139e-05 4.40288e-06
-7.28139e-05 6.08876e-05 -1.68446e-06
4.40288e-06 -1.68446e-06 -1.92816e-05
0.00316956 9.79186e-05 2.31532e-06
9.79186e-05 0.00131896 2.49478e-07
2.31532e-06 2.49478e-07 0.00131397
0.000767729 -1.83204e-05 7.2716e-06
-1.83204e-05 9.35555e-06 -4.75405e-06
7.2716e-06 -4.75405e-06 -3.22555e-05
0.00298124 8.61392e-05 4.89004e-05
8.61392e-05 0.00120575 -3.17273e-06
4.89004e-05 -3.17273e-06 0.00120542
0.00126463 0.000107134 -2.15844e-07
0.000107134 -3.14533e-05 2.49572e-07
-2.15844e-07 2.49572e-07 -0.000135893
0.000791497 9.91138e-05 2.43786e-06
9.91138e-05 -0.000137894 1.28305e-06
2.43786e-06 1.28305e-06 -0.000250975
0.000810331 9.85483e-05 -1.97154e-07
9.85483e-05 -7.33958e-05 -1.08389e-07
-1.97154e-07 -1.08389e-07 -0.000185354
0.00114477 9.93015e-05 -1.77899e-06
9.93015e-05 0.000123165 -5.21286e-07
-1.77899e-06 -5.21286e-07 2.56708e-05
0.000550821 8.05963e-05 -1.35839e-07
8.05963e-05 -0.000154079 4.82249e-07
-1.35839e-07 4.82249e-07 -0.000257665
0.00102859 8.82823e-05 -2.9622e-07
8.82823e-05 9.59109e-05 -8.71762e-08
-2.9622e-07 -8.71762e-08 3.87224e-06
0.000950153 4.7769e-05 -3.16689e-06
4.7769e-05 8.37623e-05 -9.53075e-07
-3.16689e-06 -9.53075e-07 9.1324e-06
0.000908519 7.43423e-05 9.16973e-07
7.43423e-05 5.67399e-05 3.08652e-08
9.16973e-07 3.08652e-08 -2.91414e-05
0.000829313 2.31062e-05 -7.36769e-08
2.31062e-05 3.12537e-05 1.96172e-07
-7.36769e-08 1.96172e-07 -4.00152e-05
0.000712435 -3.2693e-05 -4.81829e-06
-3.2693e-05 -1.01768e-05 -4.05209e-06
-4.81829e-06 -4.05209e-06 -4.618e-05
0.000823247 -1.56319e-05 1.41975e-06
-1.56319e-05 3.2132e-05 1.64003e-06
1.41975e-06 1.64003e-06 -3.39561e-05
0.000639283 -6.22272e-05 -8.30555e-08
-6.22272e-05 -4.72443e-05 -1.3062e-07
-8.30555e-08 -1.3062e-07 -7.81989e-05
0.00273674 -7.93385e-05 -4.1122e-05
-7.93385e-05 0.00106787 -2.9929e-06
-4.1122e-05 -2.9929e-06 0.0010718
0.000640504 -5.26391e-05 2.60137e-06
-5.26391e-05 -5.54553e-05 3.94506e-06
2.60137e-06 3.94506e-06 -7.83238e-05
0.00254535 -7.14814e-05 -4.59238e-07
-7.14814e-05 0.000960417 9.41724e-08
-4.59238e-07 9.41724e-08 0.000967859
0.00237479 -6.35777e-05 3.05784e-05
-6.35777e-05 0.000863304 3.04569e-06
3.05784e-05 3.04569e-06 0.000873717
0.00165706 9.22018e-06 6.30214e-06
9.22018e-06 1.13924e-05 1.57456e-06
6.30214e-06 1.57456e-06 -8.6132e-05
0.00207181 -2.37987e-05 -1.81711e-06
-2.37987e-05 0.00020625 -8.30436e-07
-1.81711e-06 -8.30436e-07 0.000133194
0.00216305 -9.47154e-05 -9.07591e-07
-9.47154e-05 0.000292781 6.55234e-08
-9.07591e-07 6.55234e-08 0.000231796
0.00163884 0.000116328 -5.52281e-06
0.000116328 8.24762e-05 -2.95789e-06
-5.52281e-06 -2.95789e-06 -3.19471e-05
0.00171899 0.000133432 -3.23804e-07
0.000133432 0.000288125 5.98694e-07
-3.23804e-07 5.98694e-07 0.0001865
0.000754687 9.58208e-05 -8.11252e-06
9.58208e-05 -4.90531e-05 4.63123e-07
-8.11252e-06 4.63123e-07 -0.000132072
0.0014501 0.000125528 2.11482e-06
0.000125528 0.000100765 1.60002e-06
2.11482e-06 1.60002e-06 -1.18805e-05
0.00146782 0.000127775 -3.13676e-06
0.000127775 0.000214017 6.99576e-07
-3.13676e-06 6.99576e-07 0.000100926
0.00203503 6.52833e-05 -4.88487e-07
6.52833e-05 0.000209147 1.3852e-06
-4.88487e-07 1.3852e-06 9.07286e-05
0.00167072 0.000124418 -2.43126e-06
0.000124418 7.54432e-05 -1.93117e-06
-2.43126e-06 -1.93117e-06 -4.8235e-05
0.00160115 0.00014629 1.36404e-06
0.00014629 0.000176121 5.80168e-06
1.36404e-06 5.80168e-06 6.92137e-05
0.00176295 6.5381e-05 -4.48452e-07
6.5381e-05 6.44288e-05 -3.20295e-08
-4.48452e-07 -3.20295e-08 -4.98669e-05
0.00212973 0.000154195 6.39211e-07
0.000154195 0.000260756 -5.68952e-07
6.39211e-07 -5.68952e-07 0.000129282
0.00182025 5.43035e-05 -1.06662e-05
5.43035e-05 4.1552e-05 -4.91153e-06
-1.06662e-05 -4.91153e-06 -5.30239e-05
0.00189872 -4.04706e-06 3.03568e-06
-4.04706e-06 0.000135691 1.4792e-07
3.03568e-06 1.4792e-07 3.96371e-05
0.00178244 -3.9277e-06 -5.43538e-07
-3.9277e-06 6.9547e-05 -6.07764e-07
-5.43538e-07 -6.07764e-07 -1.58007e-05
0.00192332 4.3382e-06 -6.45895e-06
4.3382e-06 0.000193855 2.7442e-06
-6.45895e-06 2.7442e-06 0.000118372
0.00175716 6.86743e-06 -2.56672e-06
6.86743e-06 3.60098e-05 1.20053e-06
-2.56672e-06 1.20053e-06 -4.64965e-05
0.00188183 5.56921e-06 2.04286e-06
5.56921e-06 0.000102937 2.27175e-06
2.04286e-06 2.27175e-06 2.11669e-05
0.00180843 4.28999e-06 -5.369e-07
4.28999e-06 9.25316e-05 -2.33759e-07
-5.369e-07 -2.33759e-07 1.29973e-06
0.00175037 7.6718e-06 1.30755e-06
7.6718e-06 8.8198e-05 -2.64122e-07
1.30755e-06 -2.64122e-07 -1.63571e-05
0.00178888 -5.68721e-06 4.42812e-07
-5.68721e-06 0.000118246 1.3558e-06
4.42812e-07 1.3558e-06 2.49036e-05
0.00163142 -3.4224e-06 -6.16343e-07
-3.4224e-06 5.2743e-05 1.64958e-08
-6.16343e-07 1.64958e-08 -4.75937e-05
0.00164407 -7.78116e-06 -1.56006e-06
-7.78116e-06 7.99556e-05 6.16089e-07
-1.56006e-06 6.16089e-07 -2.75424e-05
0.00172578 -3.70805e-05 8.40326e-07
-3.70805e-05 0.000106867 1.12238e-06
8.40326e-07 1.12238e-06 4.94851e-06
0.00163957 -3.74941e-05 -2.79631e-08
-3.74941e-05 8.57025e-05 -8.77892e-08
-2.79631e-08 -8.77892e-08 -1.77251e-05
0.00156373 -4.57173e-05 -2.18356e-06
-4.57173e-05 8.09464e-05 -5.8461e-07
-2.18356e-06 -5.8461e-07 -2.26878e-05
0.00162275 -7.38436e-05 1.28824e-06
-7.38436e-05 0.000101849 3.31091e-07
1.28824e-06 3.31091e-07 -1.3458e-06
0.00152047 -7.61821e-05 1.11012e-07
-7.61821e-05 8.53825e-05 4.59068e-07
1.11012e-07 4.59068e-07 -1.96942e-05
0.0013923 -7.28055e-05 -3.77302e-06
-7.28055e-05 6.8932e-05 8.12063e-07
-3.77302e-06 8.12063e-07 -3.25106e-05
0.00143462 -8.97738e-05 1.72728e-06
-8.97738e-05 8.71728e-05 -6.22022e-07
1.72728e-06 -6.22022e-07 -1.78246e-05
0.00131076 -8.27834e-05 9.59505e-08
-8.27834e-05 6.73345e-05 5.02736e-09
9.59505e-08 5.02736e-09 -3.33533e-05
0.00108228 -6.56932e-05 -6.91787e-06
-6.56932e-05 1.55956e-05 2.56122e-06
-6.91787e-06 2.56122e-06 -6.89348e-05
0.00122355 -8.56327e-05 3.34015e-06
-8.56327e-05 6.31437e-05 -8.5569e-07
3.34015e-06 -8.5569e-07 -3.50915e-05
0.00103243 -6.86584e-05 2.86576e-07
-6.86584e-05 2.20962e-05 -1.01259e-07
2.86576e-07 -1.01259e-07 -5.98412e-05
0.00181437 -9.72122e-06 -7.69534e-06
-9.72122e-06 0.000557461 3.72036e-06
-7.69534e-06 3.72036e-06 0.000511602
0.000995207 -7.26699e-05 5.21554e-06
-7.26699e-05 3.76654e-05 -1.87459e-06
5.21554e-06 -1.87459e-06 -4.34957e-05
0.0018962 -2.52053e-05 1.54066e-05
-2.52053e-05 0.000605661 -1.04665e-06
1.54066e-05 -1.04665e-06 0.000562004
0.00121031 1.84046e-06 -6.71735e-05
1.84046e-06 0.000294437 7.70424e-06
-6.71735e-05 7.70424e-06 0.000274421
0.00222271 5.38259e-05 -5.0159e-05
5.38259e-05 0.000827431 1.31611e-06
-5.0159e-05 1.31611e-06 0.000814734
0.001948 -2.66549e-05 3.39839e-05
-2.66549e-05 0.000632822 -4.03875e-06
3.39839e-05 -4.03875e-06 0.000593705
0.00321613 8.25658e-05 6.01377e-05
8.25658e-05 0.00134503 -3.34622e-06
6.01377e-05 -3.34622e-06 0.00134098
0.00164094 0.000104308 -3.95115e-06
0.000104308 8.33031e-05 -3.63044e-06
-3.95115e-06 -3.63044e-06 -2.54956e-05
0.00155582 0.000118136 4.23786e-06
0.000118136 0.000192002 3.65438e-07
4.23786e-06 3.65438e-07 8.48193e-05
0.00127637 0.000108899 1.48416e-06
0.000108899 -1.50034e-05 1.01155e-06
1.48416e-06 1.01155e-06 -0.00011121
0.00116036 0.000103788 -1.96508e-06
0.000103788 9.04822e-05 -1.02535e-06
-1.96508e-06 -1.02535e-06 -1.25412e-05
0.0011545 0.000114622 -5.29387e-07
0.000114622 4.54779e-05 2.33869e-07
-5.29387e-07 2.33869e-07 -6.87953e-05
0.000992962 0.000107252 1.50401e-07
0.000107252 1.41276e-05 5.23641e-07
1.50401e-07 5.23641e-07 -9.93142e-05
0.00109086 9.70137e-05 -1.83532e-07
9.70137e-05 9.81739e-05 -1.39412e-07
-1.83532e-07 -1.39412e-07 5.57059e-07
0.00098386 6.84629e-05 -3.37539e-06
6.84629e-05 8.16969e-05 -1.23568e-06
-3.37539e-06 -1.23568e-06 3.79962e-06
0.000926853 8.26646e-05 8.71178e-07
8.26646e-05 4.48136e-05 6.56481e-08
8.71178e-07 6.56481e-08 -4.65938e-05
0.000857414 4.42695e-05 -2.57105e-07
4.42695e-05 3.52138e-05 3.17566e-08
-2.57105e-07 3.17566e-08 -3.85465e-05
0.000748585 -1.52558e-06 -6.11234e-06
-1.52558e-06 5.66983e-06 -4.01906e-06
-6.11234e-06 -4.01906e-06 -3.46787e-05
0.000746342 1.75724e-05 1.77531e-06
1.75724e-05 -1.11039e-05 1.20103e-06
1.77531e-06 1.20103e-06 -8.2114e-05
0.000646191 -4.09498e-05 -1.28016e-07
-4.09498e-05 -4.42478e-05 -9.79561e-08
-1.28016e-07 -9.79561e-08 -7.95288e-05
0.0028912 -8.75559e-05 -4.58277e-05
-8.75559e-05 0.00116019 -2.89114e-06
-4.58277e-05 -2.89114e-06 0.00116
0.00058233 -6.0256e-05 1.62829e-06
-6.0256e-05 -7.79201e-05 4.3918e-06
1.62829e-06 4.3918e-06 -0.000108268
0.00271562 -8.00256e-05 -6.59106e-07
-8.00256e-05 0.00105613 1.2514e-07
-6.59106e-07 1.2514e-07 0.00106043
0.00250994 -7.12603e-05 3.35924e-05
-7.12603e-05 0.000941395 2.85422e-06
3.35924e-05 2.85422e-06 0.000949189
0.00182315 1.31069e-05 9.86406e-08
1.31069e-05 9.00263e-05 9.57796e-07
9.86406e-08 9.57796e-07 -1.46487e-05
0.00170273 8.31283e-06 5.73554e-07
8.31283e-06 3.33274e-05 9.11963e-08
5.73554e-07 9.11963e-08 -6.41182e-05
0.00239902 -2.52941e-05 -1.9373e-05
-2.52941e-05 0.000409028 -2.40071e-06
-1.9373e-05 -2.40071e-06 0.000338828
0.00177975 6.27726e-05 -7.69334e-07
6.27726e-05 9.72167e-05 6.04411e-07
-7.69334e-07 6.04411e-07 -1.74513e-05
0.00175157 0.000118944 1.66266e-07
0.000118944 0.000145194 -1.19044e-06
1.66266e-07 -1.19044e-06 3.0804e-05
0.00141518 0.000122688 -3.66578e-06
0.000122688 0.000155309 2.30161e-06
-3.66578e-06 2.30161e-06 5.76357e-05
0.00212912 0.000147682 1.75293e-06
0.000147682 0.000442669 4.15343e-07
1.75293e-06 4.15343e-07 0.000331951
0.00195326 6.52762e-05 -5.44806e-07
6.52762e-05 0.000165557 -1.16344e-07
-5.44806e-07 -1.16344e-07 4.72189e-05
0.00148205 0.000119921 8.9481e-07
0.000119921 -2.05289e-05 5.41416e-07
8.9481e-07 5.41416e-07 -0.000147275
0.00175577 6.69675e-05 -3.53172e-06
6.69675e-05 6.10533e-05 -2.27394e-06
-3.53172e-06 -2.27394e-06 -5.37225e-05
0.00181847 2.73526e-06 2.34205e-06
2.73526e-06 9.42671e-05 2.77888e-08
2.34205e-06 2.77888e-08 -9.36838e-06
0.00182715 -2.47064e-06 -5.61143e-07
-2.47064e-06 9.8009e-05 -1.66799e-07
-5.61143e-07 -1.66799e-07 1.1583e-06
0.00190535 -8.9561e-07 -5.28366e-06
-8.9561e-07 0.000128091 3.20709e-07
-5.28366e-06 3.20709e-07 4.32995e-05
0.00188875 1.44532e-05 5.91493e-07
1.44532e-05 0.000147893 -1.50298e-07
5.91493e-07 -1.50298e-07 4.00423e-05
0.00183527 5.88032e-06 -2.13658e-06
5.88032e-06 0.00010694 6.09009e-07
-2.13658e-06 6.09009e-07 1.68631e-05
0.00178113 8.66724e-06 -2.02185e-07
8.66724e-06 0.000103659 -3.68378e-08
-2.02185e-07 -3.68378e-08 -2.34462e-07
0.00165871 5.6267e-06 5.01047e-07
5.6267e-06 7.21918e-05 -4.96287e-07
5.01047e-07 -4.96287e-07 -3.85546e-05
0.00166122 -4.98505e-06 -1.4963e-09
-4.98505e-06 7.19262e-05 1.30305e-06
-1.4963e-09 1.30305e-06 -2.86796e-05
0.00167459 -7.16187e-06 -4.13914e-07
-7.16187e-06 9.60107e-05 5.22537e-07
-4.13914e-07 5.22537e-07 -1.13816e-05
0.00158397 -1.32043e-05 -2.96103e-06
-1.32043e-05 8.14475e-05 1.11314e-06
-2.96103e-06 1.11314e-06 -2.55631e-05
0.00165457 -3.71576e-05 1.39974e-06
-3.71576e-05 9.31007e-05 3.80464e-07
1.39974e-06 3.80464e-07 -1.0273e-05
0.00157153 -4.40443e-05 -7.08736e-08
-4.40443e-05 8.4766e-05 -1.90298e-07
-7.08736e-08 -1.90298e-07 -1.88721e-05
0.00143835 -5.13771e-05 -4.03141e-06
-5.13771e-05 6.73677e-05 -1.89746e-08
-4.03141e-06 -1.89746e-08 -3.27528e-05
0.00152841 -7.56439e-05 2.33064e-06
-7.56439e-05 8.89499e-05 5.00189e-07
2.33064e-06 5.00189e-07 -1.60915e-05
0.00138963 -7.21208e-05 7.93511e-08
-7.21208e-05 6.73324e-05 3.85563e-07
7.93511e-08 3.85563e-07 -3.40199e-05
0.00114867 -5.89366e-05 -7.57583e-06
-5.89366e-05 1.90646e-05 2.23616e-06
-7.57583e-06 2.23616e-06 -6.72921e-05
0.00131113 -8.20971e-05 3.7076e-06
-8.20971e-05 6.71139e-05 -1.0018e-06
3.7076e-06 -1.0018e-06 -3.34656e-05
0.00109184 -6.50179e-05 3.67704e-07
-6.50179e-05 1.90697e-05 1.62448e-08
3.67704e-07 1.62448e-08 -6.5393e-05
0.00194607 -1.80779e-05 -1.04758e-05
-1.80779e-05 0.000606643 3.28908e-06
-1.04758e-05 3.28908e-06 0.000562536
0.00103671 -6.8604e-05 6.08174e-06
-6.8604e-05 2.38875e-05 -2.35776e-06
6.08174e-06 -2.35776e-06 -5.81557e-05
0.00200378 -3.11949e-05 1.68089e-05
-3.11949e-05 0.000649614 -1.11723e-06
1.68089e-05 -1.11723e-06 0.00060568
0.00128532 -6.81396e-06 -7.17429e-05
-6.81396e-06 0.000336731 7.45728e-06
-7.17429e-05 7.45728e-06 0.000315405
0.00207 -4.55238e-05 4.06119e-05
-4.55238e-05 0.000688427 -6.21035e-06
4.06119e-05 -6.21035e-06 0.000646776
0.00122569 3.60084e-05 -3.12386e-05
3.60084e-05 0.000311093 2.42754e-06
-3.12386e-05 2.42754e-06 0.000286216
0.00329291 0.000133467 1.19697e-05
0.000133467 0.00140944 -1.56719e-06
1.19697e-05 -1.56719e-06 0.00139422
0.00193905 7.45533e-05 -2.08885e-06
7.45533e-05 0.000215384 -1.45313e-06
-2.08885e-06 -1.45313e-06 0.000101663
0.00156658 0.000100083 -6.05019e-07
0.000100083 9.91057e-05 -3.25385e-06
-6.05019e-07 -3.25385e-06 -8.10451e-06
0.0017018 0.000107401 -2.97355e-06
0.000107401 0.000126879 1.46385e-06
-2.97355e-06 1.46385e-06 1.91896e-05
0.00159904 0.000114467 -1.39744e-06
0.000114467 0.000262576 -3.32608e-07
-1.39744e-06 -3.32608e-07 0.000159495
0.00138131 0.000114799 5.63328e-07
0.000114799 9.8785e-05 -1.58103e-06
5.63328e-07 -1.58103e-06 -7.55226e-06
0.00133877 0.000112086 2.60738e-06
0.000112086 2.68035e-05 1.81985e-06
2.60738e-06 1.81985e-06 -6.12526e-05
0.00101255 7.96566e-05 -4.33945e-06
7.96566e-05 6.30169e-05 -2.17156e-06
-4.33945e-06 -2.17156e-06 -2.07743e-05
0.00116293 0.000104344 -1.31272e-07
0.000104344 9.26048e-05 -1.04163e-07
-1.31272e-07 -1.04163e-07 -1.07288e-05
0.00151806 0.000129906 1.75637e-06
0.000129906 0.000229349 7.8037e-07
1.75637e-06 7.8037e-07 0.000113865
0.00102614 9.42431e-05 1.31085e-06
9.42431e-05 6.76201e-05 1.91414e-07
1.31085e-06 1.91414e-07 -3.00782e-05
0.000913185 6.50378e-05 -2.17631e-07
6.50378e-05 4.56308e-05 -1.88189e-07
-2.17631e-07 -1.88189e-07 -3.18826e-05
0.000785235 3.36462e-05 -7.63895e-06
3.36462e-05 2.4085e-05 -4.61652e-06
-7.63895e-06 -4.61652e-06 -2.18939e-05
0.000767306 4.17512e-05 2.26486e-06
4.17512e-05 -1.22462e-05 7.57033e-07
2.26486e-06 7.57033e-07 -8.51126e-05
0.000687284 -6.18927e-06 1.03951e-07
-6.18927e-06 -2.11161e-05 -4.04967e-08
1.03951e-07 -4.04967e-08 -6.23682e-05
0.00307838 -8.80129e-05 -5.54863e-05
-8.80129e-05 0.00127509 -2.8004e-06
-5.54863e-05 -2.8004e-06 0.001271
0.000589197 -6.16957e-05 1.32884e-06
-6.16957e-05 -6.83142e-05 4.58339e-06
1.32884e-06 4.58339e-06 -0.000106227
0.00287789 -8.94176e-05 -9.74139e-07
-8.94176e-05 0.00115119 1.7231e-07
-9.74139e-07 1.7231e-07 0.00115142
0.0027021 -8.0538e-05 3.70631e-05
-8.0538e-05 0.00104832 2.74899e-06
3.70631e-05 2.74899e-06 0.00105301
0.00179793 1.80687e-05 -3.46307e-07
1.80687e-05 8.75054e-05 4.13932e-07
-3.46307e-07 4.13932e-07 -1.77888e-05
0.00177611 1.5012e-05 -8.17811e-07
1.5012e-05 6.24163e-05 2.38592e-07
-8.17811e-07 2.38592e-07 -4.2972e-05
0.00185068 6.85836e-06 -5.61408e-06
6.85836e-06 0.000104847 -1.45317e-06
-5.61408e-06 -1.45317e-06 7.63553e-06
0.00180135 6.34075e-05 9.8994e-07
6.34075e-05 0.000105518 -1.76842e-07
9.8994e-07 -1.76842e-07 -7.10394e-06
0.00184487 0.000121298 1.06109e-06
0.000121298 0.000198584 6.45167e-08
1.06109e-06 6.45167e-08 8.41463e-05
0.00184786 6.46374e-05 7.35739e-07
6.46374e-05 0.000110759 -1.56118e-06
7.35739e-07 -1.56118e-06 -7.42322e-06
0.0018163 7.85202e-06 2.03575e-07
7.85202e-06 9.60197e-05 1.3934e-07
2.03575e-07 1.3934e-07 -1.14267e-05
0.00184717 5.25253e-06 2.48314e-07
5.25253e-06 0.000107939 -1.65712e-07
2.48314e-07 -1.65712e-07 3.79294e-06
0.00173448 -2.65846e-07 -2.21038e-06
-2.65846e-07 4.96276e-05 -3.01511e-07
-2.21038e-06 -3.01511e-07 -4.80285e-05
0.00181532 5.20852e-06 -6.19218e-07
5.20852e-06 0.000110819 -4.24754e-08
-6.19218e-07 -4.24754e-08 3.78762e-06
0.00188691 8.12762e-06 7.86184e-07
8.12762e-06 0.000164559 -2.39116e-07
7.86184e-07 -2.39116e-07 5.30172e-05
0.00177366 9.42754e-06 -1.11991e-06
9.42754e-06 9.99383e-05 6.7035e-08
-1.11991e-06 6.7035e-08 -3.32633e-06
0.0017465 6.57888e-06 3.46592e-07
6.57888e-06 0.00011798 -3.66365e-07
3.46592e-07 -3.66365e-07 6.95882e-06
0.00150461 9.77544e-07 -4.9875e-07
9.77544e-07 2.35494e-05 -1.31223e-07
-4.9875e-07 -1.31223e-07 -8.89871e-05
0.00169034 -7.22684e-06 6.37842e-07
-7.22684e-06 0.000104688 4.45609e-07
6.37842e-07 4.45609e-07 -2.63483e-06
0.00159761 -1.39218e-05 -8.8241e-07
-1.39218e-05 8.87279e-05 7.11005e-07
-8.8241e-07 7.11005e-07 -1.83802e-05
0.00145825 -2.10167e-05 -4.78081e-06
-2.10167e-05 6.5665e-05 1.04192e-06
-4.78081e-06 1.04192e-06 -3.67665e-05
0.00158194 -4.39161e-05 2.10126e-06
-4.39161e-05 8.98334e-05 1.78702e-07
2.10126e-06 1.78702e-07 -1.38288e-05
0.00144229 -5.03256e-05 1.79796e-08
-5.03256e-05 6.90495e-05 -1.07841e-07
1.79796e-08 -1.07841e-07 -3.1026e-05
0.00116697 -4.33302e-05 -7.89319e-06
-4.33302e-05 8.79735e-06 1.29424e-06
-7.89319e-06 1.29424e-06 -7.6923e-05
0.00138523 -7.13388e-05 4.03859e-06
-7.13388e-05 6.48414e-05 -5.37842e-08
4.03859e-06 -5.37842e-08 -3.64178e-05
0.001147 -5.73449e-05 2.67806e-07
-5.73449e-05 1.68503e-05 3.19883e-07
2.67806e-07 3.19883e-07 -6.92697e-05
0.00210126 -2.65769e-05 -1.43033e-05
-2.65769e-05 0.000665263 2.45745e-06
-1.43033e-05 2.45745e-06 0.000622908
0.0010958 -6.43418e-05 7.02779e-06
-6.43418e-05 1.96753e-05 -2.48015e-06
7.02779e-06 -2.48015e-06 -6.4725e-05
0.00211155 -4.17382e-05 1.59317e-05
-4.17382e-05 0.000686725 -1.16523e-06
1.59317e-05 -1.16523e-06 0.00064447
0.00139615 -8.22803e-06 -7.5558e-05
-8.22803e-06 0.000387919 6.67172e-06
-7.5558e-05 6.67172e-06 0.000366174
0.00218253 -5.40844e-05 4.43786e-05
-5.40844e-05 0.000735323 -6.06484e-06
4.43786e-05 -6.06484e-06 0.000693586
0.00129747 3.27506e-05 -3.50813e-05
3.27506e-05 0.000351505 2.21477e-06
-3.50813e-05 2.21477e-06 0.000325259
0.00127791 7.70469e-05 4.2758e-06
7.70469e-05 0.000348962 -2.92627e-06
4.2758e-06 -2.92627e-06 0.00031815
0.00166949 2.58641e-05 -1.36734e-06
2.58641e-05 5.39976e-05 3.9576e-07
-1.36734e-06 3.9576e-07 -5.50892e-05
0.00163599 7.44308e-05 -3.12211e-06
7.44308e-05 9.57548e-05 -1.14345e-06
-3.12211e-06 -1.14345e-06 -1.39751e-05
0.00178627 7.21463e-05 -1.89307e-06
7.21463e-05 0.000135568 -9.52348e-07
-1.89307e-06 -9.52348e-07 2.13088e-05
0.00156096 0.000100468 -2.90843e-06
0.000100468 0.000165784 -1.1719e-06
-2.90843e-06 -1.1719e-06 6.21857e-05
0.00171396 0.000104517 1.31595e-06
0.000104517 0.00017873 6.7816e-07
1.31595e-06 6.7816e-07 7.14976e-05
0.00172565 0.000109407 4.45863e-06
0.000109407 0.000152284 3.14415e-06
4.45863e-06 3.14415e-06 4.57242e-05
0.000981954 8.01569e-05 -5.57968e-06
8.01569e-05 -8.36886e-07 -2.37499e-06
-5.57968e-06 -2.37499e-06 -8.78401e-05
0.00124531 0.00010424 1.67372e-06
0.00010424 7.57079e-05 9.06175e-07
1.67372e-06 9.06175e-07 -2.8554e-05
0.00120324 0.000111391 6.73247e-07
0.000111391 3.47808e-06 1.41165e-06
6.73247e-07 1.41165e-06 -0.000101967
0.000788081 6.07015e-05 -1.03248e-05
6.07015e-05 1.92031e-05 -5.52167e-06
-1.03248e-05 -5.52167e-06 -3.17088e-05
0.000971466 7.68763e-05 -3.71796e-07
7.68763e-05 4.2095e-05 -2.20634e-07
-3.71796e-07 -2.20634e-07 -4.12744e-05
0.00116951 0.000105068 2.19063e-06
0.000105068 9.68485e-05 9.74639e-07
2.19063e-06 9.74639e-07 -6.81647e-06
0.000857186 6.16032e-05 2.96466e-06
6.16032e-05 1.72997e-05 9.64296e-07
2.96466e-06 9.64296e-07 -5.98551e-05
0.000699031 2.85717e-05 5.98208e-09
2.85717e-05 -1.48526e-05 -2.05133e-09
5.98208e-09 -2.05133e-09 -6.10423e-05
0.00337567 -7.12875e-05 -6.64125e-05
-7.12875e-05 0.00144774 -3.85939e-06
-6.64125e-05 -3.85939e-06 0.00144019
0.000641668 -1.25666e-05 4.05234e-06
-1.25666e-05 -4.15168e-05 4.35804e-06
4.05234e-06 4.35804e-06 -8.22779e-05
0.00305041 -9.94644e-05 -1.88638e-06
-9.94644e-05 0.00125812 2.54103e-07
-1.88638e-06 2.54103e-07 0.00125333
0.00288035 -9.03474e-05 4.08593e-05
-9.03474e-05 0.00115006 2.70624e-06
4.08593e-05 2.70624e-06 0.0011509
0.00182811 7.81525e-06 -2.459e-07
7.81525e-06 0.000113842 -3.38133e-07
-2.459e-07 -3.38133e-07 7.04463e-06
0.00180876 1.76284e-05 -2.85578e-07
1.76284e-05 9.36266e-05 1.00012e-07
-2.85578e-07 1.00012e-07 -1.18579e-05
0.00174268 1.64915e-05 2.08949e-07
1.64915e-05 4.18432e-05 -9.73331e-07
2.08949e-07 -9.73331e-07 -6.42789e-05
0.00183596 6.39476e-05 1.79479e-06
6.39476e-05 0.000120083 -3.06506e-07
1.79479e-06 -3.06506e-07 9.52646e-06
0.00183124 -3.66092e-07 -2.52955e-07
-3.66092e-07 0.00012089 -3.48803e-07
-2.52955e-07 -3.48803e-07 1.01231e-05
0.0018494 5.94366e-06 -9.30741e-08
5.94366e-06 0.000112927 -3.5538e-08
-9.30741e-08 -3.5538e-08 5.44797e-06
0.00187967 7.42318e-06 -1.67944e-06
7.42318e-06 0.000123316 6.80979e-08
-1.67944e-06 6.80979e-08 1.86422e-05
0.00176542 -1.16229e-07 -1.96871e-06
-1.16229e-07 8.62103e-05 -1.73339e-07
-1.96871e-06 -1.73339e-07 -2.0106e-05
0.00181468 1.28631e-05 -1.27067e-07
1.28631e-05 0.000125465 -2.19451e-07
-1.27067e-07 -2.19451e-07 1.4116e-05
0.00187464 9.73273e-06 -6.66161e-07
9.73273e-06 0.000184539 1.66593e-07
-6.66161e-07 1.66593e-07 7.0273e-05
0.00186713 7.80563e-06 4.397e-07
7.80563e-06 0.000180265 -4.96777e-07
4.397e-07 -4.96777e-07 6.90196e-05
0.00167601 2.48005e-06 6.67059e-07
2.48005e-06 0.000114338 -4.64957e-07
6.67059e-07 -4.64957e-07 2.30646e-06
0.00128291 -3.00889e-07 -3.6013e-06
-3.00889e-07 -4.40176e-05 1.07096e-06
-3.6013e-06 1.07096e-06 -0.000152615
0.00160475 -1.30879e-05 9.5916e-07
-1.30879e-05 9.28663e-05 3.17321e-07
9.5916e-07 3.17321e-07 -1.43309e-05
0.00146968 -1.85939e-05 -5.74649e-07
-1.85939e-05 7.11889e-05 2.42209e-07
-5.74649e-07 2.42209e-07 -3.12081e-05
0.00117454 -2.13026e-05 -7.77646e-06
-2.13026e-05 1.14645e-06 1.18449e-06
-7.77646e-06 1.18449e-06 -8.55532e-05
0.00144128 -4.7114e-05 3.9086e-06
-4.7114e-05 6.82733e-05 -1.81617e-07
3.9086e-06 -1.81617e-07 -3.16795e-05
0.0011806 -4.34771e-05 8.02677e-09
-4.34771e-05 1.48827e-05 1.18867e-07
8.02677e-09 1.18867e-07 -7.07175e-05
0.000686358 -2.54866e-05 -1.18727e-05
-2.54866e-05 -9.73307e-05 2.60133e-06
-1.18727e-05 2.60133e-06 -0.000146404
0.00114566 -5.5949e-05 7.70969e-06
-5.5949e-05 1.47259e-05 -1.64547e-06
7.70969e-06 -1.64547e-06 -7.11608e-05
0.00144465 -4.29871e-05 1.944e-05
-4.29871e-05 0.00031402 -7.24278e-07
1.944e-05 -7.24278e-07 0.000269108
0.00448116 1.28702e-05 -8.92788e-05
1.28702e-05 0.00201069 3.13863e-06
-8.92788e-05 3.13863e-06 0.00200435
0.00227418 -5.16739e-05 4.74105e-05
-5.16739e-05 0.000766903 -5.42554e-06
4.74105e-05 -5.42554e-06 0.000725405
0.00136927 2.34633e-05 -3.53498e-05
2.34633e-05 0.000380516 2.19351e-06
-3.53498e-05 2.19351e-06 0.000355346
0.00133822 7.44404e-05 3.37398e-06
7.44404e-05 0.000382669 -2.90982e-06
3.37398e-06 -2.90982e-06 0.000350967
0.00174102 1.28145e-05 -1.95002e-07
1.28145e-05 9.25971e-05 -1.56117e-07
-1.95002e-07 -1.56117e-07 -1.46985e-05
0.0014648 3.69395e-05 -2.03507e-06
3.69395e-05 -7.04423e-06 1.58736e-07
-2.03507e-06 1.58736e-07 -0.000115535
0.00176218 2.61618e-05 -3.84288e-07
2.61618e-05 0.000104955 -2.56908e-07
-3.84288e-07 -2.56908e-07 -3.69618e-06
0.00116487 7.05307e-05 -4.38128e-06
7.05307e-05 -8.90868e-05 -1.71846e-06
-4.38128e-06 -1.71846e-06 -0.000194007
0.00166967 7.5266e-05 1.86706e-07
7.5266e-05 0.000115155 -6.78699e-10
1.86706e-07 -6.78699e-10 5.52266e-06
0.00163635 7.00699e-05 3.72192e-07
7.00699e-05 5.73315e-05 -1.52564e-07
3.72192e-07 -1.52564e-07 -5.75096e-05
0.000655611 6.33334e-05 -8.2722e-06
6.33334e-05 -0.000228967 -2.95354e-06
-8.2722e-06 -2.95354e-06 -0.00031875
0.00158294 0.000102599 8.97784e-07
0.000102599 0.000176504 9.84688e-08
8.97784e-07 9.84688e-08 7.2712e-05
0.00187309 0.000109376 3.06659e-06
0.000109376 0.000264485 1.86427e-06
3.06659e-06 1.86427e-06 0.000157195
0.000741736 7.28031e-05 -1.19015e-05
7.28031e-05 -2.34884e-05 -5.60375e-06
-1.19015e-05 -5.60375e-06 -7.69367e-05
0.000777574 7.33519e-05 -1.09629e-07
7.33519e-05 -0.00011037 1.30745e-07
-1.09629e-07 1.30745e-07 -0.000198455
0.000890244 9.40211e-05 4.01723e-06
9.40211e-05 -0.000111892 2.25072e-06
4.01723e-06 2.25072e-06 -0.00021733
0.00384529 -6.71734e-05 -7.35927e-05
-6.71734e-05 0.00170329 -4.85008e-06
-7.35927e-05 -4.85008e-06 0.00169127
0.000677819 5.2631e-05 -3.37262e-08
5.2631e-05 -3.30199e-05 2.56071e-08
-3.37262e-08 2.56071e-08 -8.38552e-05
0.000933323 7.42342e-05 3.96879e-06
7.42342e-05 2.3089e-05 1.95501e-06
3.96879e-06 1.95501e-06 -5.9924e-05
0.00061258 2.36557e-05 6.24673e-06
2.36557e-05 -5.43993e-05 4.58437e-06
6.24673e-06 4.58437e-06 -0.00010074
0.00327766 -9.86507e-05 -4.09737e-06
-9.86507e-05 0.0013955 1.79098e-07
-4.09737e-06 1.79098e-07 0.00138671
0.00300579 -0.000100299 4.38563e-05
-0.000100299 0.00123102 2.64359e-06
4.38563e-05 2.64359e-06 0.00122694
0.00178241 -1.59547e-06 -1.06048e-06
-1.59547e-06 0.000100558 -5.80856e-07
-1.06048e-06 -5.80856e-07 -8.64664e-06
0.00184012 7.58654e-06 -3.76324e-07
7.58654e-06 0.000117201 5.7258e-09
-3.76324e-07 5.7258e-09 1.04877e-05
0.00182386 1.7478e-05 4.24869e-07
1.7478e-05 0.000102425 -3.65142e-07
4.24869e-07 -3.65142e-07 -3.24853e-06
0.00187427 1.08031e-05 -8.21548e-07
1.08031e-05 0.000170962 -3.37483e-07
-8.21548e-07 -3.37483e-07 5.74488e-05
0.0018092 3.67052e-06 -4.57191e-07
3.67052e-06 0.000109546 -7.15894e-08
-4.57191e-07 -7.15894e-08 -1.1038e-06
0.00187431 7.92152e-07 -1.422e-06
7.92152e-07 0.000125524 1.07766e-07
-1.422e-06 1.07766e-07 1.80838e-05
0.00173093 1.59092e-05 -4.69662e-07
1.59092e-05 8.01687e-05 1.28798e-07
-4.69662e-07 1.28798e-07 -3.08925e-05
0.0018143 1.16393e-05 7.28292e-07
1.16393e-05 0.00015319 -2.57202e-07
7.28292e-07 -2.57202e-07 3.87961e-05
0.00181123 6.23354e-06 -2.99181e-06
6.23354e-06 0.000192741 5.62682e-07
-2.99181e-06 5.62682e-07 8.21678e-05
0.00185902 4.05668e-06 2.20924e-06
4.05668e-06 0.000211112 -1.12991e-06
2.20924e-06 -1.12991e-06 9.95809e-05
0.00158931 2.63758e-06 -1.47501e-08
2.63758e-06 0.000117741 3.35256e-08
-1.47501e-08 3.35256e-08 1.11276e-05
0.000822407 -3.14232e-06 -9.16006e-06
-3.14232e-06 -0.000206891 2.25571e-06
-9.16006e-06 2.25571e-06 -0.000301844
0.00147178 -1.85841e-05 3.1805e-06
-1.85841e-05 7.20331e-05 -5.29148e-07
3.1805e-06 -5.29148e-07 -3.04446e-05
0.00119264 -1.90051e-05 -6.35436e-08
-1.90051e-05 9.69167e-06 -1.93305e-07
-6.35436e-08 -1.93305e-07 -7.69217e-05
0.000706275 -1.45986e-05 -1.1894e-05
-1.45986e-05 -9.406e-05 1.73774e-06
-1.1894e-05 1.73774e-06 -0.000144392
0.00118764 -4.20661e-05 8.06318e-06
-4.20661e-05 1.75621e-05 -1.19408e-06
8.06318e-06 -1.19408e-06 -6.78376e-05
0.000688811 -2.22553e-05 -5.12368e-08
-2.22553e-05 -9.61247e-05 1.38529e-07
-5.12368e-08 1.38529e-07 -0.000145129
0.00449983 6.9237e-06 -9.11032e-05
6.9237e-06 0.00201579 2.3122e-06
-9.11032e-05 2.3122e-06 0.00201025
0.000765083 -4.23332e-05 1.37748e-05
-4.23332e-05 -4.75629e-05 -4.48624e-06
1.37748e-05 -4.48624e-06 -9.76625e-05
0.00298295 2.09093e-05 3.46647e-05
2.09093e-05 0.00121919 6.63019e-07
3.46647e-05 6.63019e-07 0.00120315
0.00135524 2.81733e-05 1.1285e-05
2.81733e-05 0.000376506 -2.19375e-06
1.1285e-05 -2.19375e-06 0.000350175
0.00179612 2.61347e-06 -3.01112e-07
2.61347e-06 0.00013049 -2.75113e-07
-3.01112e-07 -2.75113e-07 2.29338e-05
0.0016602 1.88724e-05 -1.07497e-06
1.88724e-05 8.75866e-05 -4.50482e-07
-1.07497e-06 -4.50482e-07 -1.79632e-05
0.00172427 1.18467e-05 2.0615e-07
1.18467e-05 8.39404e-05 9.6593e-08
2.0615e-07 9.6593e-08 -2.32003e-05
0.00145219 4.65078e-05 -3.51414e-06
4.65078e-05 4.3929e-05 -6.83801e-07
-3.51414e-06 -6.83801e-07 -5.86528e-05
0.00154199 3.7015e-05 3.83738e-07
3.7015e-05 3.13633e-05 9.03255e-08
3.83738e-07 9.03255e-08 -7.64991e-05
0.00185044 2.63548e-05 4.52601e-07
2.63548e-05 0.000153603 -5.30156e-07
4.52601e-07 -5.30156e-07 4.53944e-05
0.000749122 5.34015e-05 -9.05345e-06
5.34015e-05 -0.000218485 -2.78467e-06
-9.05345e-06 -2.78467e-06 -0.000308153
0.00154393 7.99941e-05 -1.26676e-06
7.99941e-05 0.000110957 -4.21395e-07
-1.26676e-06 -4.21395e-07 7.56314e-06
0.00169909 7.58958e-05 3.32918e-06
7.58958e-05 0.000132326 5.00175e-07
3.32918e-06 5.00175e-07 2.28056e-05
0.000704076 6.79349e-05 -1.27611e-05
6.79349e-05 -6.84329e-05 -4.85094e-06
-1.27611e-05 -4.85094e-06 -0.00012078
0.000699451 6.5238e-05 -2.19913e-06
6.5238e-05 -0.000208835 -6.39586e-07
-2.19913e-06 -6.39586e-07 -0.000299259
0.00160454 0.000104728 4.70238e-06
0.000104728 0.000186996 1.44333e-06
4.70238e-06 1.44333e-06 8.30173e-05
0.00430182 -7.64065e-05 -7.6913e-05
-7.64065e-05 0.00194136 -5.16509e-06
-7.6913e-05 -5.16509e-06 0.00192617
0.000671815 6.6744e-05 5.4494e-07
6.6744e-05 -5.76017e-05 1.89355e-07
5.4494e-07 1.89355e-07 -0.000110587
0.000567066 6.62496e-05 5.40816e-06
6.62496e-05 -0.000222922 2.81016e-06
5.40816e-06 2.81016e-06 -0.000312092
0.00362918 -8.64112e-05 -4.37315e-06
-8.64112e-05 0.0015914 2.92384e-07
-4.37315e-06 2.92384e-07 0.00157926
0.00057433 4.53768e-05 7.76769e-06
4.53768e-05 -8.26604e-05 5.24407e-06
7.76769e-06 5.24407e-06 -0.000133314
0.00314932 -0.000110722 4.65753e-05
-0.000110722 0.00132659 2.56595e-06
4.65753e-05 2.56595e-06 0.0013171
0.00181604 7.38458e-06 -9.12972e-07
7.38458e-06 0.000144825 -7.43096e-07
-9.12972e-07 -7.43096e-07 3.33705e-05
0.00180517 -5.98439e-07 1.1654e-07
-5.98439e-07 0.000114793 2.28478e-07
1.1654e-07 2.28478e-07 5.66531e-06
0.00184518 7.58594e-06 -2.23233e-07
7.58594e-06 0.000116862 1.79289e-07
-2.23233e-07 1.79289e-07 1.02354e-05
0.00180726 -2.07461e-06 -3.44779e-06
-2.07461e-06 0.000179354 -2.6228e-07
-3.44779e-06 -2.6228e-07 6.99894e-05
0.00186033 1.06597e-05 6.31081e-07
1.06597e-05 0.000164398 3.01588e-09
6.31081e-07 3.01588e-09 5.12844e-05
0.00179689 1.03819e-05 7.30103e-07
1.03819e-05 0.00010329 1.14835e-07
7.30103e-07 1.14835e-07 -7.35991e-06
0.00174815 1.22037e-05 1.66364e-06
1.22037e-05 0.000118783 -2.1968e-07
1.66364e-06 -2.1968e-07 4.28378e-06
0.00179292 6.14333e-06 1.05401e-06
6.14333e-06 0.00018402 -1.64023e-07
1.05401e-06 -1.64023e-07 7.32632e-05
0.000913292 3.19445e-07 -9.28537e-06
3.19445e-07 -0.000195772 1.51533e-06
-9.28537e-06 1.51533e-06 -0.000296105
0.00191244 5.4708e-06 4.42387e-06
5.4708e-06 0.000287905 -1.28038e-06
4.42387e-06 -1.28038e-06 0.000183316
0.00102494 -7.7259e-07 -1.79416e-06
-7.7259e-07 -9.77673e-05 5.49646e-07
-1.79416e-06 5.49646e-07 -0.00019062
0.00070588 -5.61915e-06 -1.22569e-05
-5.61915e-06 -0.000108256 1.59107e-06
-1.22569e-05 1.59107e-06 -0.000163157
0.0012214 -1.84323e-05 7.7801e-06
-1.84323e-05 2.34883e-05 -1.68674e-06
7.7801e-06 -1.68674e-06 -6.30762e-05
0.00071306 -5.44724e-06 2.05189e-07
-5.44724e-06 -9.09696e-05 -1.35521e-07
2.05189e-07 -1.35521e-07 -0.000141483
0.00456917 8.46324e-06 -9.25285e-05
8.46324e-06 0.00204856 1.44991e-06
-9.25285e-05 1.44991e-06 0.00204331
0.000679628 -1.69625e-05 1.1389e-05
-1.69625e-05 -0.000100876 -2.24645e-06
1.1389e-05 -2.24645e-06 -0.000149603
0.00452881 1.51583e-05 8.78414e-07
1.51583e-05 0.00203014 3.60946e-07
8.78414e-07 3.60946e-07 0.00202471
0.00154094 -8.32309e-06 8.07008e-05
-8.32309e-06 0.000454081 -3.26562e-06
8.07008e-05 -3.26562e-06 0.000433291
0.00191304 7.6264e-06 -6.98866e-07
7.6264e-06 0.000215864 -7.25802e-07
-6.98866e-07 -7.25802e-07 0.000109781
0.00173855 1.99191e-06 6.56724e-07
1.99191e-06 9.97532e-05 6.06998e-07
6.56724e-07 6.06998e-07 -7.16453e-06
0.0014881 1.85301e-05 -3.14269e-06
1.85301e-05 4.86088e-05 -8.88447e-07
-3.14269e-06 -8.88447e-07 -5.38549e-05
0.00166927 1.83036e-05 3.49701e-07
1.83036e-05 9.10891e-05 -2.47711e-07
3.49701e-07 -2.47711e-07 -1.44708e-05
0.00171138 1.08528e-05 1.40664e-06
1.08528e-05 7.71759e-05 1.18497e-07
1.40664e-06 1.18497e-07 -2.98024e-05
0.00121587 4.12641e-05 -7.92877e-06
4.12641e-05 8.78416e-06 -2.01103e-06
-7.92877e-06 -2.01103e-06 -7.87769e-05
0.00148591 4.70268e-05 -8.91573e-08
4.70268e-05 6.01498e-05 1.89262e-07
-8.91573e-08 1.89262e-07 -4.24311e-05
0.00161607 3.70524e-05 1.87302e-06
3.70524e-05 6.81639e-05 2.97504e-07
1.87302e-06 2.97504e-07 -3.90717e-05
0.000697893 4.92537e-05 -1.28074e-05
4.92537e-05 -9.15778e-05 -3.98338e-06
-1.28074e-05 -3.98338e-06 -0.000142648
0.000976666 5.95002e-05 -2.45482e-06
5.95002e-05 -9.80349e-05 -5.33959e-07
-2.45482e-06 -5.33959e-07 -0.000187001
0.00192714 8.94779e-05 3.7255e-06
8.94779e-05 0.00031323 9.30499e-07
3.7255e-06 9.30499e-07 0.000211351
0.00457126 -3.28002e-05 -8.91276e-05
-3.28002e-05 0.00206339 -4.16938e-06
-8.91276e-05 -4.16938e-06 0.00205468
0.000665056 6.19166e-05 1.80929e-07
6.19166e-05 -8.70757e-05 2.15239e-07
1.80929e-07 2.15239e-07 -0.000139754
0.000743467 6.73325e-05 4.94314e-06
6.73325e-05 -0.000188604 1.96686e-06
4.94314e-06 1.96686e-06 -0.000279696
0.00407238 -5.60798e-05 1.49041e-06
-5.60798e-05 0.00181817 1.0631e-07
1.49041e-06 1.0631e-07 0.00180683
0.000574547 5.95297e-05 1.00575e-05
5.95297e-05 -0.000105175 5.60695e-06
1.00575e-05 5.60695e-06 -0.000157982
0.00342201 -0.000107986 5.43969e-05
-0.000107986 0.00148452 3.14747e-06
5.43969e-05 3.14747e-06 0.00147164
0.00179816 1.13929e-05 -2.82098e-06
1.13929e-05 0.000181834 -9.12888e-07
-2.82098e-06 -9.12888e-07 7.48353e-05
0.00184102 5.2961e-06 4.1289e-07
5.2961e-06 0.000159397 1.07589e-07
4.1289e-07 1.07589e-07 4.79828e-05
0.00182655 -1.61252e-08 1.4047e-06
-1.61252e-08 0.00012854 9.39522e-07
1.4047e-06 9.39522e-07 1.94883e-05
0.000947926 -1.27532e-05 -9.75617e-06
-1.27532e-05 -0.000186763 -1.72994e-07
-9.75617e-06 -1.72994e-07 -0.000286602
0.00181525 5.23941e-06 1.01654e-06
5.23941e-06 0.000183645 -9.22134e-09
1.01654e-06 -9.22134e-09 7.42186e-05
0.00184226 1.07779e-05 2.27669e-06
1.07779e-05 0.000155759 1.17395e-07
2.27669e-06 1.17395e-07 4.30633e-05
0.00178163 5.78214e-06 4.88303e-06
5.78214e-06 0.000179042 -5.95117e-07
4.88303e-06 -5.95117e-07 6.80776e-05
0.000911399 -3.86154e-07 -1.37131e-06
-3.86154e-07 -0.000193613 5.51883e-07
-1.37131e-06 5.51883e-07 -0.000293536
0.000760321 3.67746e-06 -1.3025e-05
3.67746e-06 -0.000100954 9.80886e-07
-1.3025e-05 9.80886e-07 -0.000160015
0.00122073 2.42756e-06 6.05295e-06
2.42756e-06 7.80979e-06 -1.3508e-06
6.05295e-06 -1.3508e-06 -8.29298e-05
0.000748058 3.86743e-06 2.91516e-07
3.86743e-06 -8.82489e-05 -5.69846e-08
2.91516e-07 -5.69846e-08 -0.000143207
0.00476004 9.42538e-06 -9.54484e-05
9.42538e-06 0.00214265 6.18727e-07
-9.54484e-05 6.18727e-07 0.00213703
0.000731704 3.87043e-06 1.16123e-05
3.87043e-06 -8.21145e-05 -1.73187e-06
1.16123e-05 -1.73187e-06 -0.000132554
0.00461942 4.11568e-05 4.06425e-06
4.11568e-05 0.00207508 1.96091e-07
4.06425e-06 1.96091e-07 0.00206867
0.00456431 2.01672e-05 9.59795e-05
2.01672e-05 0.0020474 -1.55923e-06
9.59795e-05 -1.55923e-06 0.00204225
0.00156412 8.56508e-06 -3.30931e-06
8.56508e-06 7.65725e-05 -1.34566e-06
-3.30931e-06 -1.34566e-06 -2.77563e-05
0.00175148 6.35005e-06 4.74667e-07
6.35005e-06 0.000130124 2.67023e-07
4.74667e-07 2.67023e-07 2.37848e-05
0.00167951 1.49332e-06 1.23636e-06
1.49332e-06 6.82964e-05 1.12438e-06
1.23636e-06 1.12438e-06 -3.79782e-05
0.00123582 1.56206e-05 -7.68837e-06
1.56206e-05 4.39631e-06 -1.89232e-06
-7.68837e-06 -1.89232e-06 -8.44409e-05
0.00152255 1.87491e-05 1.69054e-07
1.87491e-05 6.5685e-05 -9.52572e-08
1.69054e-07 -9.52572e-08 -3.6845e-05
0.00167274 1.77212e-05 1.44282e-06
1.77212e-05 9.18345e-05 -3.78283e-08
1.44282e-06 -3.78283e-08 -1.37512e-05
0.000718713 2.95158e-05 -1.25502e-05
2.95158e-05 -9.57762e-05 -3.21809e-06
-1.25502e-05 -3.21809e-06 -0.000146857
0.00121696 4.21173e-05 -4.76358e-08
4.21173e-05 9.96662e-06 1.54928e-07
-4.76358e-08 1.54928e-07 -7.77993e-05
0.00152047 4.75127e-05 3.8261e-06
4.75127e-05 7.67624e-05 1.1537e-06
3.8261e-06 1.1537e-06 -2.58158e-05
0.00469388 -1.43586e-06 -9.99002e-05
-1.43586e-06 0.00211392 -3.34624e-06
-9.99002e-05 -3.34624e-06 0.00210856
0.000682623 4.78918e-05 1.98924e-08
4.78918e-05 -9.91098e-05 1.06269e-07
1.98924e-08 1.06269e-07 -0.000150258
0.00119658 6.56441e-05 5.77084e-06
6.56441e-05 1.84469e-05 1.89882e-06
5.77084e-06 1.89882e-06 -6.98171e-05
0.00442021 -2.52199e-05 4.64863e-06
-2.52199e-05 0.00198743 2.47677e-07
4.64863e-06 2.47677e-07 0.00197843
0.000624492 5.65458e-05 1.11652e-05
5.65458e-05 -0.00010701 5.01735e-06
1.11652e-05 5.01735e-06 -0.000159694
0.00385434 -7.26879e-05 6.62335e-05
-7.26879e-05 0.00170737 3.97558e-06
6.62335e-05 3.97558e-06 0.00169594
0.00131792 3.89593e-06 -8.36284e-06
3.89593e-06 1.45369e-05 -8.12233e-07
-8.36284e-06 -8.12233e-07 -8.10987e-05
0.00162039 6.11877e-06 1.09751e-06
6.11877e-06 8.61795e-05 8.22182e-10
1.09751e-06 8.22182e-10 -2.25274e-05
0.00186567 2.07526e-06 2.01912e-06
2.07526e-06 0.000173632 1.01249e-06
2.01912e-06 1.01249e-06 6.22503e-05
0.000770312 1.40898e-05 -1.37351e-05
1.40898e-05 -0.000108228 -5.17332e-07
-1.37351e-05 -5.17332e-07 -0.000167087
0.000932343 -5.58888e-06 -1.64184e-06
-5.58888e-06 -0.000195218 6.40752e-08
-1.64184e-06 6.40752e-08 -0.000295062
0.00181918 1.21777e-05 5.40159e-06
1.21777e-05 0.000185781 1.67351e-07
5.40159e-06 1.67351e-07 7.62976e-05
0.000901204 -5.82838e-07 6.12131e-06
-5.82838e-07 -0.000195729 -3.06594e-07
6.12131e-06 -3.06594e-07 -0.000295241
0.000760166 6.90181e-06 1.35295e-07
6.90181e-06 -0.000101941 4.73774e-07
1.35295e-07 4.73774e-07 -0.000161064
0.00509421 1.54694e-05 -0.000100265
1.54694e-05 0.00230767 -3.30479e-07
-0.000100265 -3.30479e-07 0.00230149
0.000776779 1.27972e-05 1.22941e-05
1.27972e-05 -7.47387e-05 -1.42056e-06
1.22941e-05 -1.42056e-06 -0.00012994
0.00486907 1.40279e-05 1.76811e-06
1.40279e-05 0.00219618 3.67127e-07
1.76811e-06 3.67127e-07 0.00219062
0.00466701 2.00249e-05 0.00010085
2.00249e-05 0.00209617 -7.70935e-07
0.00010085 -7.70935e-07 0.00209124
0.0012829 5.37906e-06 -8.11992e-06
5.37906e-06 1.16723e-05 -1.8538e-06
-8.11992e-06 -1.8538e-06 -8.05229e-05
0.00148238 7.01417e-06 -4.98148e-08
7.01417e-06 3.14595e-05 -1.27331e-07
-4.98148e-08 -1.27331e-07 -7.36013e-05
0.00159397 5.02271e-06 1.59092e-06
5.02271e-06 4.64337e-05 1.2798e-06
1.59092e-06 1.2798e-06 -6.01578e-05
0.00245616 7.73192e-06 -5.6129e-05
7.73192e-06 0.000809693 -1.96563e-06
-5.6129e-05 -1.96563e-06 0.000767613
0.00124203 1.67111e-05 1.22445e-07
1.67111e-05 7.77403e-06 3.41149e-08
1.22445e-07 3.41149e-08 -8.12762e-05
0.00155889 1.88045e-05 3.54368e-06
1.88045e-05 8.37188e-05 7.17384e-07
3.54368e-06 7.17384e-07 -1.88776e-05
0.00478971 4.97481e-06 -0.000107084
4.97481e-06 0.00215562 -2.4449e-06
-0.000107084 -2.4449e-06 0.00215105
0.000717166 3.09756e-05 -4.63928e-09
3.09756e-05 -9.60767e-05 4.61437e-08
-4.63928e-09 4.61437e-08 -0.000147219
0.0012158 4.28084e-05 8.04587e-06
4.28084e-05 9.97766e-06 2.25585e-06
8.04587e-06 2.25585e-06 -7.7997e-05
0.00461288 4.74071e-06 1.92534e-06
4.74071e-06 0.00207472 4.36733e-07
1.92534e-06 4.36733e-07 0.00206881
0.000671717 4.71356e-05 1.2032e-05
4.71356e-05 -0.00010426 4.11053e-06
1.2032e-05 4.11053e-06 -0.000155459
0.0042763 -1.45238e-05 8.39755e-05
-1.45238e-05 0.00191225 4.05989e-06
8.39755e-05 4.05989e-06 0.00190489
0.00079676 6.83832e-06 -1.51302e-05
6.83832e-06 -9.24185e-05 -1.85559e-06
-1.51302e-05 -1.85559e-06 -0.000152331
0.00112321 8.37886e-07 3.13692e-07
8.37886e-07 -8.85738e-05 4.30023e-07
3.13692e-07 4.30023e-07 -0.000185365
0.00143686 8.32573e-07 4.73574e-06
8.32573e-07 -1.26105e-05 8.62733e-07
4.73574e-06 8.62733e-07 -0.000122969
0.00529219 -3.88152e-05 -0.00010258
-3.88152e-05 0.00241032 -1.67645e-06
-0.00010258 -1.67645e-06 0.00240074
0.000775563 1.0084e-05 -4.58248e-08
1.0084e-05 -0.000104131 2.40646e-07
-4.58248e-08 2.40646e-07 -0.000163939
0.00092571 1.23774e-06 6.37695e-06
1.23774e-06 -0.000199063 3.44434e-07
6.37695e-06 3.44434e-07 -0.000298919
0.000773523 1.43148e-05 1.29307e-05
1.43148e-05 -9.58306e-05 1.03288e-07
1.29307e-05 1.03288e-07 -0.000155215
0.00518179 5.23484e-05 4.15412e-06
5.23484e-05 0.00235255 4.83607e-07
4.15412e-06 4.83607e-07 0.00234524
0.00498944 7.47602e-05 0.00010524
7.47602e-05 0.00225857 2.37576e-07
0.00010524 2.37576e-07 0.00225071
0.00256939 -1.29716e-05 -6.04553e-05
-1.29716e-05 0.000854134 -2.03434e-06
-6.04553e-05 -2.03434e-06 0.000808606
0.00128435 7.15958e-06 -9.13352e-08
7.15958e-06 1.23165e-05 2.57358e-08
-9.13352e-08 2.57358e-08 -7.98658e-05
0.00140157 5.61981e-06 3.23786e-06
5.61981e-06 -1.31759e-05 1.10352e-06
3.23786e-06 1.10352e-06 -0.000118968
0.00466835 3.00123e-05 -3.02985e-05
3.00123e-05 0.00209644 -1.20559e-06
-3.02985e-05 -1.20559e-06 0.00208639
0.000767058 1.13236e-05 -1.36938e-07
1.13236e-05 -8.09127e-05 1.1098e-07
-1.36938e-07 1.1098e-07 -0.000134334
0.00125795 1.86755e-05 7.90065e-06
1.86755e-05 1.5811e-05 1.95658e-06
7.90065e-06 1.95658e-06 -7.33937e-05
0.00473422 1.21711e-05 -9.91088e-07
1.21711e-05 0.00212959 4.33489e-07
-9.91088e-07 4.33489e-07 0.00212468
0.000711539 3.28824e-05 1.27205e-05
3.28824e-05 -9.81072e-05 3.43123e-06
1.27205e-05 3.43123e-06 -0.000149356
0.00453547 1.40182e-05 9.4797e-05
1.40182e-05 0.00203627 3.90353e-06
9.4797e-05 3.90353e-06 0.0020303
0.00178967 -1.45078e-05 -0.00010398
-1.45078e-05 0.000548393 -1.05412e-07
-0.00010398 -1.05412e-07 0.000522909
0.00170099 7.01125e-06 -2.44903e-05
7.01125e-06 0.00038715 5.2085e-07
-2.44903e-05 5.2085e-07 0.000334775
0.000933734 1.18616e-06 8.18435e-06
1.18616e-06 -0.000188903 1.54305e-06
8.18435e-06 1.54305e-06 -0.000286853
0.00528978 -5.02118e-05 4.21534e-06
-5.02118e-05 0.00240956 -9.92296e-07
4.21534e-06 -9.92296e-07 0.00239969
0.000768011 8.00559e-06 1.36849e-05
8.00559e-06 -0.000107172 1.02152e-06
1.36849e-05 1.02152e-06 -0.000167403
0.00524883 1.67936e-05 0.000111607
1.67936e-05 0.00238343 1.03969e-06
0.000111607 1.03969e-06 0.00237742
0.00149231 -6.21596e-05 -8.8693e-06
-6.21596e-05 0.000410597 -8.12134e-07
-8.8693e-06 -8.12134e-07 0.000378663
0.00168841 4.8049e-06 -2.34634e-05
4.8049e-06 0.000392084 1.79231e-07
-2.34634e-05 1.79231e-07 0.000341132
0.0012851 6.72869e-06 7.78634e-06
6.72869e-06 1.27602e-05 1.94952e-06
7.78634e-06 1.94952e-06 -7.94456e-05
0.00315432 5.09548e-06 4.18428e-05
5.09548e-06 0.00128955 4.48871e-07
4.18428e-05 4.48871e-07 0.00127317
0.000765815 1.84608e-05 1.30808e-05
1.84608e-05 -8.14038e-05 3.00346e-06
1.30808e-05 3.00346e-06 -0.000135126
0.00469259 2.19116e-05 0.00010067
2.19116e-05 0.00211022 3.33199e-06
0.00010067 3.33199e-06 0.00210498
0.00526362 -4.72491e-05 -4.76807e-06
-4.72491e-05 0.00239259 4.55405e-07
-4.76807e-06 4.55405e-07 0.00238514
0.000769976 1.41487e-05 1.37248e-05
1.41487e-05 -0.000103969 1.97179e-06
1.37248e-05 1.97179e-06 -0.000162386
0.00529243 3.55079e-05 0.000106884
3.55079e-05 0.00240876 -1.09138e-06
0.000106884 -1.09138e-06 0.00240015
0.00330238 1.63335e-06 4.61605e-05
1.63335e-06 0.00136004 1.24741e-07
4.61605e-05 1.24741e-07 0.00134225
0.000774866 9.55143e-06 1.31558e-05
9.55143e-06 -8.89747e-05 2.62435e-06
1.31558e-05 2.62435e-06 -0.000146076
0.00483834 1.77815e-05 0.00010218
1.77815e-05 0.00218023 2.37795e-06
0.00010218 2.37795e-06 0.00217498
0.0051998 -0.000123947 9.9655e-05
-0.000123947 0.00237009 -7.25526e-08
9.9655e-05 -7.25526e-08 0.00235626
0.00502964 -6.97444e-05 9.93085e-05
-6.97444e-05 0.00227782 8.73529e-07
9.93085e-05 8.73529e-07 0.00226969
