# vtk DataFile Version 2.0
Wound Healing Simulation
ASCII
DATASET UNSTRUCTURED_GRID
POINTS 3012 float
69.9759 18.75 4
67.2507 60.3285 4
69.976 18.75 2
73.0099 25.446 4
71.1327 20.9142 4
68.6801 16.6661 4
67.825 19.9262 3.98149
67.2507 60.3286 2
71.1327 54.0858 4
68.6801 58.3339 4
65.6939 62.2254 4
65.3115 59.0007 3.98026
74.6784 42.3946 4
73.7221 47.2057 4
69.9759 18.75 0
73.0099 25.446 2
68.6801 16.6661 2
71.1327 20.9142 2
67.8256 19.9293 2
74.6792 32.6053 4
73.7222 27.7943 4
72.1454 23.1494 4
70.6137 26.2208 3.98094
68.8852 21.958 3.9818
67.2507 14.6715 4
66.6365 17.9723 3.9806
65.7951 21.0265 3.97123
67.2507 60.3285 0
71.1327 54.0858 2
68.6801 58.3339 2
65.694 62.2255 2
65.3126 58.997 2
72.1454 51.8506 4
69.9759 56.25 4
68.8359 53.1129 3.98082
64.0165 64.0165 4
66.6102 57.1335 3.9811
63.8848 60.7653 3.98121
63.498 57.7686 3.9718
60.3285 67.2507 4
74.6792 42.3947 2
73.7222 47.2057 2
74.9194 39.9526 4
74.2788 44.8158 4
72.1679 42.0854 3.98033
73.0099 49.554 4
71.2489 46.5979 3.98009
73.0099 25.446 0
71.1327 20.9142 0
68.6801 16.6661 0
67.825 19.9262 0.018511
74.6792 32.6053 2
73.7222 27.7943 2
67.2508 14.6715 2
72.1455 23.1494 2
70.6137 26.2213 2
66.6374 17.9762 2
68.8855 21.9601 2
65.7945 21.0273 2
74.9197 35.0474 4
74.2794 30.1841 4
72.1846 32.9433 3.98068
71.2778 28.4313 3.98043
69.8151 24.0595 3.98156
68.345 26.9519 3.97
66.7605 22.934 3.97062
65.694 12.7746 4
65.3227 16.1042 3.9801
64.7114 19.1971 3.97201
63.8821 22.0391 3.96743
71.1327 54.0858 0
65.6939 62.2254 0
68.6801 58.3339 0
65.3115 59.0007 0.019744
72.1455 51.8506 2
69.9759 56.25 2
68.836 53.111 2
64.0165 64.0165 2
66.6111 57.1299 2
63.8864 60.762 2
63.4974 57.7684 2
62.2254 65.694 4
58.8943 65.414 3.99014
69.7685 50.9888 3.98075
67.7832 55.1671 3.98091
66.6474 52.208 3.96963
62.3355 62.4272 3.98523
64.6588 56.0299 3.97179
62.1999 59.3993 3.97077
61.8173 56.6745 3.96739
58.3339 68.6801 4
60.3285 67.2508 2
73.7221 47.2057 0
74.6784 42.3946 0
74.9197 39.9526 2
74.2794 44.8159 2
72.1674 42.0854 2
73.0099 49.554 2
71.2488 46.5977 2
75 37.5 4
72.4052 39.8021 3.98087
71.7822 44.3527 3.98038
69.8025 41.7892 3.96989
70.5747 48.8134 3.98028
68.9105 46.0139 3.96951
74.6792 32.6053 0
73.7222 27.7943 0
67.2507 14.6715 0
72.1454 23.1494 0
70.6137 26.2208 0.0190584
68.8852 21.958 0.018198
66.6365 17.9723 0.0193952
65.7951 21.0265 0.0287728
74.9197 35.0474 2
74.2794 30.1841 2
72.1841 32.9436 2
71.2777 28.4317 2
65.694 12.7745 2
65.3241 16.1083 2
69.8152 24.0606 2
68.3449 26.9524 2
64.7109 19.1978 2
66.7601 22.9348 2
63.8815 22.0395 2
72.413 35.2241 3.98096
71.8036 30.6762 3.98073
69.8385 33.2684 3.97022
68.9643 29.0385 3.96995
67.6094 24.9126 3.97018
66.1884 27.6366 3.9673
64.0165 10.9835 4
64.7519 23.8328 3.96744
63.8893 14.3281 3.98248
63.5103 17.4513 3.97165
62.9014 20.3258 3.96732
62.0693 22.954 3.96704
60.6834 11.0984 3.98642
57.6115 11.452 3.97798
72.1454 51.8506 0
69.9759 56.25 0
68.8359 53.1129 0.0191786
64.0165 64.0165 0
63.8848 60.7653 0.0187899
66.6102 57.1335 0.0188978
63.498 57.7686 0.0282035
62.2255 65.694 2
58.8955 65.4133 2
69.7684 50.9879 2
67.7836 55.1642 2
66.6469 52.2073 2
62.3374 62.4249 2
64.6583 56.0294 2
62.1993 59.3997 2
61.8167 56.6745 2
60.6682 63.9766 3.98758
57.0254 66.7347 3.99135
57.5572 63.6893 3.98064
67.5056 50.1756 3.9693
65.6998 54.1718 3.97028
64.532 51.3814 3.96635
60.7715 60.934 3.97554
62.8151 55.0628 3.96712
60.651 58.1489 3.96499
60.3192 55.7746 3.96717
56.25 69.9759 4
58.3339 68.6801 2
60.3285 67.2507 0
58.9208 9.65659 3.98779
62.2254 9.30607 4
73.0099 49.554 0
74.2788 44.8158 0
71.2489 46.5979 0.0199139
72.1679 42.0854 0.0196673
74.9194 39.9526 0
75 37.5 2
72.4051 39.8023 2
71.7821 44.3525 2
69.8021 41.7889 2
70.5746 48.8132 2
68.9105 46.0134 2
72.4886 37.512 3.98056
70.0398 39.657 3.96998
69.4288 43.9068 3.96978
67.5901 41.4959 3.96814
68.264 48.1061 3.96926
66.6992 45.4368 3.96738
74.9197 35.0474 0
74.2794 30.1841 0
72.1846 32.9433 0.0193208
71.2778 28.4313 0.0195656
65.694 12.7746 0
65.3227 16.1042 0.0199024
69.8151 24.0595 0.0184384
68.345 26.9519 0.0299957
66.7605 22.934 0.0293751
64.7114 19.1971 0.0279865
63.8821 22.0391 0.0325681
72.413 35.2242 2
71.8036 30.6767 2
69.8381 33.2688 2
68.9643 29.039 2
64.0165 10.9835 2
63.8913 14.3314 2
63.5097 17.4521 2
67.6091 24.9133 2
66.1884 27.6369 2
62.9007 20.326 2
64.7515 23.8332 2
62.0684 22.9543 2
60.6856 11.1007 2
57.6123 11.4508 2
70.0566 35.3919 3.97022
69.4655 31.1497 3.97
67.6506 33.5916 3.96805
66.7654 29.6245 3.96747
65.5186 25.7015 3.96731
64.1016 28.265 3.96962
62.3412 12.6556 3.98512
62.8268 24.6476 3.96791
62.1964 15.7904 3.97295
61.8061 18.6934 3.967
61.1975 21.3537 3.9656
60.3688 23.7475 3.96873
59.2451 12.7838 3.97637
55.8739 10.237 3.9806
56.4037 13.1251 3.97449
69.7685 50.9888 0.0192511
62.2254 65.694 0
58.8943 65.414 0.0098622
67.7832 55.1671 0.0190884
66.6474 52.208 0.0303705
62.3355 62.4272 0.0147705
62.1999 59.3993 0.0292345
64.6588 56.0299 0.0282129
61.8173 56.6745 0.0326112
60.6699 63.9752 2
57.0263 66.7344 2
57.5573 63.6908 2
67.5053 50.1749 2
65.6992 54.1712 2
64.5317 51.3811 2
60.7713 60.9351 2
62.8145 55.0627 2
60.6506 58.1491 2
60.3187 55.7744 2
55.0712 67.9316 3.99191
59.2179 62.3624 3.97692
55.8044 64.9085 3.98453
56.3251 62.0829 3.97524
65.3234 49.4044 3.96654
63.701 53.288 3.96662
62.4033 50.6384 3.96693
59.329 59.5488 3.97007
61.066 54.2985 3.96582
59.2737 56.9953 3.96337
59.2298 55.1677 3.96547
48.1022 68.5775 3.98742
50.949 69.9312 3.99207
54.0858 71.1327 4
56.25 69.976 2
58.3339 68.6801 0
57.0583 8.33635 3.98918
60.3285 7.74928 4
58.9228 9.65799 2
62.2255 9.30602 2
70.5747 48.8134 0.0197179
71.7822 44.3527 0.0196218
68.9105 46.0139 0.0304941
69.8025 41.7892 0.030109
72.4052 39.8021 0.0191297
75 37.5 0
72.4881 37.5121 2
70.0398 39.6569 2
69.4287 43.9064 2
67.59 41.4957 2
68.2639 48.1055 2
66.6989 45.4365 2
70.1279 37.5213 3.97013
67.8296 39.5114 3.96824
67.2137 43.4675 3.96777
65.5002 41.2039 3.97157
66.0586 47.4144 3.96699
64.5936 44.8378 3.96993
72.413 35.2241 0.0190377
71.8036 30.6762 0.0192713
69.8385 33.2684 0.0297812
68.9643 29.0385 0.0300505
64.0165 10.9835 0
63.8893 14.3281 0.0175186
63.5103 17.4513 0.0283549
67.6094 24.9126 0.0298165
66.1884 27.6366 0.0327029
64.7519 23.8328 0.0325621
62.9014 20.3258 0.0326834
62.0693 22.954 0.0329633
60.6834 11.0984 0.0135836
57.6115 11.452 0.022024
70.0566 35.3921 2
69.4655 31.1501 2
67.6506 33.5917 2
66.7655 29.6247 2
62.3432 12.6587 2
62.1962 15.7902 2
61.8052 18.6937 2
65.5184 25.7018 2
64.1007 28.2653 2
61.1966 21.354 2
62.8263 24.648 2
60.3687 23.748 2
59.2458 12.7836 2
56.4042 13.1236 2
55.8746 10.2357 2
67.8667 35.5477 3.96828
67.2592 31.6236 3.96778
65.6532 33.9306 3.97158
64.6144 30.2001 3.97022
63.5018 26.4242 3.96891
62.1685 28.7946 3.97336
60.7741 14.2281 3.97609
60.9783 25.3572 3.97059
60.6052 17.1397 3.96732
60.204 19.8307 3.96419
59.6051 22.2804 3.96593
58.8929 24.348 3.97127
54.0372 9.1384 3.9825
57.9077 14.3425 3.97532
54.7856 12.0201 3.97559
55.3088 14.6638 3.97315
67.5056 50.1756 0.0307034
57.0254 66.7347 0.00865062
60.6682 63.9766 0.0124246
57.5572 63.6893 0.0193638
65.6998 54.1718 0.0297154
64.532 51.3814 0.0336525
60.7715 60.934 0.0244629
60.651 58.1489 0.0350142
62.8151 55.0628 0.0328752
60.3192 55.7746 0.0328288
55.0718 67.9315 2
59.218 62.3637 2
55.8043 64.9095 2
56.3247 62.0849 2
65.3232 49.4041 2
63.7004 53.2877 2
62.4035 50.6382 2
59.3285 59.5503 2
61.0659 54.2984 2
59.2736 56.9951 2
59.2296 55.1673 2
53.0432 68.9993 3.99198
53.9668 66.0119 3.98604
57.8777 60.8619 3.97499
54.6832 63.2036 3.97988
55.2081 60.602 3.97481
63.1458 48.6475 3.9681
61.7169 52.5629 3.96626
60.191 49.9951 3.96883
58.0076 58.2488 3.96827
59.3032 53.9296 3.9671
58.0985 55.7915 3.96372
50.1089 67.8558 3.98718
47.463 66.5782 3.98404
46.0558 69.1566 3.98759
48.1021 68.5782 2
48.803 70.7225 3.99217
50.9494 69.9312 2
51.8506 72.1454 4
54.0858 71.1327 2
56.25 69.9759 0
55.103 7.14074 3.99058
58.3339 6.31992 4
57.0599 8.33706 2
60.3286 7.74926 2
58.9208 9.65659 0.0122102
62.2254 9.30607 0
68.264 48.1061 0.0307372
69.4288 43.9068 0.0302205
66.6992 45.4368 0.0326234
67.5901 41.4959 0.0318585
70.0398 39.657 0.030022
72.4886 37.512 0.0194357
70.1275 37.5213 2
67.8295 39.5113 2
67.2143 43.4673 2
65.4993 41.2037 2
66.0587 47.4141 2
64.5924 44.8374 2
67.9276 37.5216 3.96834
65.7372 39.3668 3.97199
65.1198 43.0171 3.97093
63.6481 40.9198 3.97577
63.9083 46.7041 3.96901
62.6987 44.1988 3.97379
70.0566 35.3919 0.0297849
69.4655 31.1497 0.0299987
67.6506 33.5916 0.0319492
66.7654 29.6245 0.0325275
62.3412 12.6556 0.0148781
62.1964 15.7904 0.0270532
61.8061 18.6934 0.0329957
65.5186 25.7015 0.0326851
64.1016 28.265 0.0303826
62.8268 24.6476 0.0320857
61.1975 21.3537 0.0344024
60.3688 23.7475 0.0312738
59.2451 12.7838 0.023634
56.4037 13.1251 0.0255122
55.8739 10.237 0.0193986
67.8665 35.5478 2
67.2595 31.6238 2
65.6527 33.9308 2
64.6137 30.2003 2
60.774 14.2284 2
60.6051 17.1389 2
60.2039 19.8307 2
63.5011 26.4246 2
62.1671 28.7951 2
59.607 22.2806 2
60.978 25.3577 2
58.8921 24.3489 2
57.9076 14.3417 2
55.309 14.6635 2
54.0377 9.13705 2
54.7861 12.0181 2
65.8278 35.6681 3.97172
65.1348 32.1603 3.97081
64.2001 34.2547 3.97586
62.483 30.651 3.97408
61.5708 27.091 3.97176
60.7265 29.1623 3.97696
59.3068 15.6784 3.97224
59.2235 25.8248 3.97425
59.108 18.3733 3.96537
58.7022 20.8762 3.96333
58.1998 23.1226 3.96656
57.863 24.6984 3.97316
52.112 8.15544 3.98458
53.0574 11.0238 3.97797
56.6711 15.7581 3.97439
53.8068 13.6957 3.97515
54.3687 16.0196 3.97468
55.0712 67.9316 0.0080919
65.3234 49.4044 0.0334588
55.8044 64.9085 0.0154746
59.2179 62.3624 0.0230808
56.3251 62.0829 0.0247586
63.701 53.288 0.0333752
62.4033 50.6384 0.0330708
59.329 59.5488 0.0299322
59.2737 56.9953 0.0366313
61.066 54.2985 0.0341816
59.2298 55.1677 0.0345261
53.0436 68.9994 2
53.9667 66.0126 2
57.877 60.8634 2
54.6828 63.2046 2
55.208 60.6037 2
63.1454 48.6472 2
61.7177 52.5628 2
60.1907 49.9946 2
58.007 58.2503 2
59.3048 53.9294 2
58.0975 55.7909 2
52.0701 66.9987 3.9869
52.9533 64.2157 3.98254
56.6423 59.477 3.97455
53.6791 61.6155 3.97663
54.2526 59.3041 3.97426
60.8858 47.8561 3.96951
59.6472 52.0823 3.96771
57.9044 49.5832 3.97037
56.7578 56.9656 3.96709
57.0755 54.0973 3.96522
50.1088 67.8562 2
49.3369 65.9187 3.98391
47.463 66.5788 2
46.8923 64.7316 3.98234
45.558 67.0951 3.98415
43.9729 69.5888 3.98775
46.0558 69.1572 2
46.6096 71.3669 3.9922
48.1022 68.5775 0.012581
48.8035 70.7227 2
49.554 73.0099 4
50.949 69.9312 0.00792839
51.8506 72.1455 2
54.0858 71.1327 0
53.0646 6.07207 3.99141
55.1042 7.14084 2
56.25 5.02411 4
58.3339 6.3199 2
57.0583 8.33635 0.0108158
60.3285 7.74928 0
66.0586 47.4144 0.0330062
67.2137 43.4675 0.0322324
64.5936 44.8378 0.0300658
65.5002 41.2039 0.0284308
67.8296 39.5114 0.0317579
70.1279 37.5213 0.0298729
67.9274 37.5216 2
65.7361 39.3667 2
65.1189 43.0168 2
63.6463 40.9195 2
63.9073 46.7038 2
62.6966 44.1982 2
65.8422 37.5007 3.97184
63.7957 39.2609 3.97583
63.2122 42.5358 3.97469
62.2818 40.6836 3.97698
61.8593 45.898 3.97165
61.3011 43.661 3.97726
67.8667 35.5477 0.0317211
67.2592 31.6236 0.032219
65.6532 33.9306 0.0284249
64.6144 30.2001 0.0297756
60.7741 14.2281 0.0239085
60.6052 17.1397 0.0326763
60.204 19.8307 0.0358099
63.5018 26.4242 0.0310918
62.1685 28.7946 0.0266352
60.9783 25.3572 0.0294136
59.6051 22.2804 0.0340727
58.8929 24.348 0.0287333
57.9077 14.3425 0.0246802
55.3088 14.6638 0.0268493
54.0372 9.1384 0.0174967
54.7856 12.0201 0.0244065
65.8267 35.6681 2
65.1343 32.1605 2
64.1994 34.2548 2
62.4816 30.6514 2
59.3059 15.6786 2
59.1086 18.3724 2
58.7055 20.8762 2
61.57 27.0915 2
60.7258 29.1628 2
58.1989 23.1236 2
59.2231 25.8256 2
57.8627 24.6995 2
56.6708 15.7572 2
54.3685 16.0201 2
53.807 13.6924 2
52.1123 8.15441 2
53.0578 11.0222 2
63.996 35.6343 3.97528
62.8144 33.0567 3.97526
60.4646 30.6336 3.97695
59.4404 27.9379 3.97524
57.9301 16.999 3.96978
57.6176 25.7617 3.97589
57.6877 19.4992 3.96274
57.2971 21.873 3.96327
57.0687 23.9857 3.96806
50.1124 7.28615 3.98677
51.2324 10.1294 3.98028
52.1701 12.8071 3.97666
55.5268 16.9919 3.97329
52.9728 15.2858 3.97257
53.747 17.0047 3.97834
53.0432 68.9993 0.00801661
53.9668 66.0119 0.0139632
63.1458 48.6475 0.0319044
54.6832 63.2036 0.0201169
57.8777 60.8619 0.025011
55.2081 60.602 0.0251915
61.7169 52.5629 0.0337361
60.191 49.9951 0.0311702
58.0076 58.2488 0.0317287
58.0985 55.7915 0.0362792
59.3032 53.9296 0.0328951
52.0701 66.9994 2
52.9529 64.2164 2
56.6419 59.4781 2
53.6786 61.6161 2
54.2524 59.3059 2
60.8846 47.8554 2
59.6472 52.0819 2
57.9014 49.5821 2
56.7566 56.97 2
57.0741 54.0966 2
51.1681 65.1256 3.98395
52.0452 62.5337 3.97951
55.4691 58.2349 3.97471
52.8289 60.1208 3.97727
53.6278 58.4541 3.97926
58.1432 46.8124 3.97395
57.4773 51.7564 3.96707
56.0959 49.5142 3.97071
55.4397 55.7653 3.96217
55.2892 53.3509 3.96324
50.1089 67.8558 0.0128197
49.3368 65.9191 2
48.6181 64.1187 3.9828
47.463 66.5782 0.0159631
45.558 67.0958 2
46.8924 64.7321 2
46.3819 63.047 3.98205
45.1326 65.1924 3.9823
43.6312 67.4657 3.98426
41.8602 69.876 3.98759
43.9728 69.5893 2
44.3769 71.8618 3.99216
46.0558 69.1566 0.0124097
46.6099 71.3672 2
47.2057 73.7222 4
48.803 70.7225 0.00782537
49.554 73.0099 2
51.8506 72.1454 0
50.9546 5.13238 3.99206
53.0654 6.07206 2
54.0858 3.86728 4
55.103 7.14074 0.00941692
56.25 5.02406 2
58.3339 6.31992 0
63.9083 46.7041 0.0309931
65.1198 43.0171 0.0290704
62.6987 44.1988 0.0262053
63.6481 40.9198 0.0242276
65.7372 39.3668 0.0280089
67.9276 37.5216 0.0316587
65.8412 37.5007 2
63.7941 39.2607 2
63.2103 42.5354 2
62.2796 40.6831 2
61.8575 45.8974 2
61.2991 43.6603 2
63.8562 37.4551 3.97508
62.0017 39.3462 3.97686
61.0466 41.9375 3.97685
60.0948 44.7425 3.97616
65.8278 35.6681 0.0282776
65.1348 32.1603 0.0291897
64.2001 34.2547 0.0241402
62.483 30.651 0.0259208
59.3068 15.6784 0.027757
59.108 18.3733 0.0346315
58.7022 20.8762 0.0366672
61.5708 27.091 0.0282372
60.7265 29.1623 0.0230371
59.2235 25.8248 0.0257512
58.1998 23.1226 0.033436
57.863 24.6984 0.0268397
56.6711 15.7581 0.0256118
54.3687 16.0196 0.0253178
53.8068 13.6957 0.0248506
52.112 8.15544 0.0154152
53.0574 11.0238 0.0220266
63.9948 35.6343 2
62.8131 33.057 2
60.4632 30.6342 2
57.9292 16.9991 2
57.6896 19.4977 2
57.2992 21.8735 2
59.4395 27.9386 2
57.0677 23.9871 2
57.6177 25.7628 2
50.1126 7.28477 2
55.5266 16.9915 2
53.7465 17.0044 2
52.9728 15.285 2
52.1706 12.806 2
51.2327 10.1282 2
62.04 35.3669 3.97671
60.1049 32.7651 3.97695
58.4399 30.109 3.97708
57.1287 27.4219 3.97651
56.6187 18.1776 3.96807
56.1552 25.147 3.9735
56.3131 20.5515 3.96089
56.0017 22.9116 3.96338
48.0566 6.52803 3.98849
49.3247 9.33473 3.98212
50.4322 12.0022 3.97779
51.3731 14.5123 3.97345
54.3977 17.9443 3.97434
52.3504 17.0662 3.9703
52.0701 66.9987 0.0131024
52.9533 64.2157 0.0174568
60.8858 47.8561 0.0304934
53.6791 61.6155 0.0233667
56.6423 59.477 0.0254538
54.2526 59.3041 0.0257426
59.6472 52.0823 0.0322878
57.9044 49.5832 0.0296261
56.7578 56.9656 0.0329133
57.0755 54.0973 0.0347783
51.1679 65.1262 2
52.0448 62.5341 2
55.4686 58.2361 2
52.8288 60.1242 2
53.6274 58.4552 2
58.1418 46.8114 2
57.4756 51.7556 2
56.0924 49.5131 2
55.4395 55.7656 2
55.2915 53.3514 2
50.3461 63.3773 3.98236
51.241 60.9271 3.97657
54.1991 57.2509 3.97457
52.3018 58.6133 3.97488
56.4696 44.1355 3.97741
55.2965 47.8488 3.97325
54.9585 51.3518 3.96622
53.9536 54.5118 3.96529
49.3369 65.9187 0.0160872
48.6181 64.119 2
47.9618 62.4689 3.98168
45.558 67.0951 0.015849
46.8923 64.7316 0.0176633
43.6312 67.4663 2
46.3821 63.0474 2
45.1326 65.193 2
45.9872 61.578 3.98303
44.7673 63.4468 3.98093
43.3568 65.5015 3.98202
41.6634 67.6843 3.98413
39.7022 70.0228 3.98779
41.8602 69.8766 2
42.1112 72.2066 3.99216
43.9729 69.5888 0.0122529
44.3772 71.862 2
44.8159 74.2794 4
46.6096 71.3669 0.00780081
47.2057 73.7222 2
49.554 73.0099 0
48.7853 4.32296 3.99262
50.9552 5.13191 2
51.8506 2.85458 4
53.0646 6.07207 0.00859286
54.0858 3.86728 2
56.25 5.02411 0
61.8593 45.898 0.0283537
63.2122 42.5358 0.0253071
61.3011 43.661 0.0227352
62.2818 40.6836 0.0230164
63.7957 39.2609 0.0241703
65.8422 37.5007 0.0281579
63.8548 37.4551 2
61.9996 39.3461 2
61.0447 41.9368 2
60.0935 44.7417 2
61.8393 37.4445 3.97745
60.0378 39.8281 3.97724
58.7681 42.8829 3.9773
63.996 35.6343 0.0247189
62.8144 33.0567 0.0247416
60.4646 30.6336 0.0230478
57.9301 16.999 0.0302233
57.6877 19.4992 0.037262
57.2971 21.873 0.0367253
59.4404 27.9379 0.0247649
57.6176 25.7617 0.0241079
57.0687 23.9857 0.0319441
55.5268 16.9919 0.0267138
53.747 17.0047 0.0216577
52.9728 15.2858 0.0274343
50.1124 7.28615 0.0132306
52.1701 12.8071 0.0233392
51.2324 10.1294 0.019718
62.0383 35.3673 2
60.1027 32.7655 2
58.4393 30.1099 2
56.6178 18.1779 2
56.3161 20.5487 2
56.0035 22.9128 2
57.1295 27.4229 2
56.1565 25.1485 2
48.0567 6.52685 2
49.325 9.33318 2
54.3977 17.9442 2
52.3499 17.0662 2
51.3729 14.5093 2
50.4326 12.0008 2
59.6832 35.1331 3.97719
57.749 32.3045 3.97693
56.343 29.3862 3.97739
55.2509 26.6552 3.97725
55.3131 19.215 3.96559
54.7936 24.1104 3.96396
54.9316 21.6022 3.95991
45.9627 5.88282 3.98899
43.3742 7.47407 3.98599
47.3555 8.62581 3.98436
48.5997 11.3 3.97918
49.71 13.7541 3.97728
50.6255 16.1564 3.97645
53.1021 18.691 3.96944
51.2846 18.0852 3.97886
51.1681 65.1256 0.0160535
52.0452 62.5337 0.0204884
58.1432 46.8124 0.0260462
52.8289 60.1208 0.0227275
55.4691 58.2349 0.0252937
53.6278 58.4541 0.0207387
57.4773 51.7564 0.0329307
56.0959 49.5142 0.0292867
55.4397 55.7653 0.0378255
55.2892 53.3509 0.0367624
50.3459 63.3774 2
51.2406 60.9271 2
54.199 57.2522 2
52.3014 58.6141 2
56.4686 44.1346 2
55.2958 47.8479 2
54.9597 51.3517 2
53.9542 54.5129 2
49.5911 61.7395 3.98109
55.2971 41.6728 3.9761
50.5589 59.3147 3.97435
52.1577 56.4673 3.96775
53.9129 45.5047 3.97469
53.1584 49.2803 3.96965
52.5824 52.816 3.96273
48.6181 64.1187 0.0172038
47.9619 62.4689 2
47.3276 61.0016 3.9842
43.6312 67.4657 0.0157411
45.1326 65.1924 0.0176965
46.3819 63.047 0.0179507
41.6636 67.6845 2
43.3568 65.5024 2
45.9875 61.5786 2
44.7674 63.4476 2
45.7642 60.6216 3.98221
44.4835 61.8258 3.98101
43.1466 63.7186 3.98031
41.5463 65.6392 3.98134
39.6327 67.7637 3.98382
37.5261 70.0476 3.98737
39.7022 70.0234 2
39.8179 72.4036 3.99198
41.8602 69.876 0.0124051
42.1114 72.2069 2
42.3947 74.6792 4
44.3769 71.8618 0.00784382
44.8159 74.2794 2
47.2057 73.7222 0
43.8519 5.35971 3.989
46.5712 3.64739 3.99277
48.7856 4.32249 2
49.554 1.99015 4
50.9546 5.13238 0.00794043
51.8506 2.85453 2
54.0858 3.86728 0
60.0948 44.7425 0.0238392
61.0466 41.9375 0.02315
62.0017 39.3462 0.0231393
63.8562 37.4551 0.0249169
61.8378 37.4447 2
60.0367 39.8281 2
58.7668 42.882 2
59.5396 37.5647 3.97742
57.7234 40.6296 3.97744
54.7288 39.6868 3.97574
62.04 35.3669 0.0232853
60.1049 32.7651 0.0230492
58.4399 30.109 0.0229194
56.6187 18.1776 0.0319298
56.3131 20.5515 0.0391118
56.0017 22.9116 0.0366154
57.1287 27.4219 0.0234945
56.1552 25.147 0.0265021
54.3977 17.9443 0.0256611
52.3504 17.0662 0.0297012
51.3731 14.5123 0.0265538
48.0566 6.52803 0.0115057
49.3247 9.33473 0.0178758
50.4322 12.0022 0.0222124
59.6824 35.133 2
45.9625 5.88219 2
43.374 7.47342 2
57.7485 32.3054 2
56.3426 29.3872 2
55.3124 19.2158 2
54.9365 21.6016 2
54.7924 24.1126 2
55.2471 26.6573 2
47.3557 8.62383 2
48.6001 11.2983 2
53.1025 18.6906 2
51.2846 18.0866 2
50.6256 16.1563 2
49.71 13.7531 2
57.1124 34.7754 3.97734
55.4709 31.5616 3.97726
54.2647 28.4724 3.97778
53.6076 25.5647 3.9761
53.9279 20.1714 3.96562
53.4826 22.7646 3.95606
41.3993 7.07981 3.98628
45.3604 7.99551 3.98649
42.8663 9.41735 3.98297
46.6669 10.6572 3.98148
47.7428 13.1108 3.97926
48.9253 15.4166 3.9746
49.9915 17.7221 3.97563
51.6207 19.3629 3.97796
50.3461 63.3773 0.0176367
51.241 60.9271 0.0234296
56.4696 44.1355 0.0225856
55.2965 47.8488 0.0267471
52.3018 58.6133 0.0251159
54.1991 57.2509 0.0254328
54.9585 51.3518 0.033781
53.9536 54.5118 0.0347109
49.5907 61.7392 2
55.2958 41.6721 2
50.5587 59.3161 2
52.1576 56.4683 2
53.9172 45.5044 2
53.1632 49.2803 2
52.5832 52.815 2
48.8445 60.1959 3.97885
52.1532 42.5759 3.9814
49.7721 57.607 3.97258
50.5356 54.4014 3.96574
51.5726 47.2123 3.97665
51.0825 50.9049 3.9583
47.8094 43.7141 3.98895
47.9618 62.4689 0.0183202
47.3279 61.0018 2
46.6148 59.7879 3.98418
41.6634 67.6843 0.0158711
43.3568 65.5015 0.0179794
44.7673 63.4468 0.0190722
45.9872 61.578 0.0169708
39.633 67.7644 2
41.5462 65.639 2
45.7643 60.6225 2
43.1467 63.7194 2
44.4837 61.8266 2
44.6212 60.2824 3.98293
42.9505 62.0729 3.97883
41.6001 63.8119 3.98055
39.6477 65.6064 3.98038
37.5635 67.7452 3.98309
31.6972 65.1255 3.98133
33.3925 67.4831 3.9828
35.3339 69.9577 3.9875
37.526 70.0484 2
37.5095 72.4581 3.99193
39.7022 70.0228 0.0122062
39.8181 72.4039 2
39.9526 74.9197 4
42.1112 72.2066 0.00784096
42.3947 74.6792 2
44.8159 74.2794 0
41.7365 4.96894 3.98919
43.8519 5.359 2
44.3264 3.11053 3.99309
46.5714 3.64707 2
47.2057 1.27793 4
48.7853 4.32296 0.00737811
49.554 1.99013 2
51.8506 2.85458 0
58.7681 42.8829 0.0227029
60.0378 39.8281 0.0227618
61.8393 37.4445 0.0225547
59.5393 37.565 2
57.7235 40.63 2
54.729 39.686 2
56.5066 37.8853 3.9772
49.186 41.2839 3.98833
52.7496 39.3047 3.98317
39.4428 6.80366 3.98611
59.6832 35.1331 0.0228104
57.749 32.3045 0.0230717
56.343 29.3862 0.0226123
55.3131 19.215 0.0344126
54.9316 21.6022 0.040086
54.7936 24.1104 0.0360409
55.2509 26.6552 0.0227535
53.1021 18.691 0.0305579
51.2846 18.0852 0.0211427
50.6255 16.1564 0.0235465
45.9627 5.88282 0.0110096
49.71 13.7541 0.0227228
47.3555 8.62581 0.015645
48.5997 11.3 0.0208224
43.3742 7.47407 0.0140053
57.1114 34.775 2
41.3993 7.07881 2
45.3601 7.99494 2
42.8661 9.41685 2
55.474 31.561 2
54.2642 28.4731 2
53.9282 20.1733 2
53.4814 22.7631 2
53.6049 25.5663 2
46.6672 10.654 2
47.7432 13.1084 2
51.6213 19.3635 2
49.9907 17.7203 2
48.9247 15.4162 2
54.5272 33.9748 3.97611
53.2136 30.5607 3.97753
52.3602 27.2816 3.97587
52.0171 24.172 3.97708
52.3328 21.1004 3.97509
41.0138 9.05101 3.98287
44.7253 9.99577 3.98453
42.4683 10.9041 3.98554
46.0038 12.7359 3.97754
47.6758 14.5956 3.9739
48.0986 17.0016 3.97385
49.7993 19.6991 3.9744
49.5911 61.7395 0.01891
50.5589 59.3147 0.0256497
55.2971 41.6728 0.0239033
53.9129 45.5047 0.0253138
53.1584 49.2803 0.0303501
52.1577 56.4673 0.0322506
52.5824 52.816 0.0372661
48.8442 60.1944 2
52.1647 42.5789 2
49.7718 57.6079 2
50.5357 54.4028 2
51.576 47.2133 2
51.0833 50.9033 2
47.8194 43.7369 2
47.9765 58.7293 3.97888
49.7629 45.2164 3.97959
48.563 55.8992 3.97594
49.0427 52.563 3.97538
49.4955 48.9974 3.97177
45.5866 39.8456 3.88226
46.0439 42.5889 3.91545
46.2063 45.7538 3.98609
43.3994 41.102 3.78446
41.8355 41.9844 3.63399
47.3276 61.0016 0.0158029
46.6147 59.7883 2
45.4618 58.7827 3.98171
39.6327 67.7637 0.0161797
41.5463 65.6392 0.0186619
43.1466 63.7186 0.0196938
44.4835 61.8258 0.0189941
45.7642 60.6216 0.0177946
41.6001 63.812 2
37.5637 67.746 2
39.6477 65.607 2
44.6213 60.2831 2
42.9508 62.0736 2
41.7536 62.4842 3.97968
42.4791 59.9699 3.98203
39.8939 63.5449 3.9788
37.6424 65.5045 3.98082
35.4637 67.6545 3.98298
33.5756 65.3376 3.98033
31.9592 63.2948 3.98116
29.8833 64.7176 3.98255
31.6973 65.1263 2
31.3771 67.1935 3.98344
33.3926 67.4838 2
33.1571 69.7516 3.98733
35.3338 69.9586 2
35.195 72.3724 3.99185
37.5261 70.0476 0.0126311
37.5096 72.4586 2
37.5 75 4
39.8179 72.4036 0.00801994
39.9526 74.9197 2
42.3947 74.6792 0
39.6241 4.71638 3.9895
41.7365 4.9681 2
42.0628 2.71804 3.99328
43.8519 5.35971 0.0110043
44.3266 3.11007 2
44.8158 0.721173 4
46.5712 3.64739 0.00723366
47.2057 1.27779 2
49.554 1.99015 0
57.7234 40.6296 0.0225617
59.5396 37.5647 0.0225839
54.7288 39.6868 0.0242575
49.206 41.2936 2
56.5062 37.8857 2
52.7494 39.2963 2
53.5931 36.6311 3.97728
47.1108 40.3673 3.92315
50.1259 38.5182 3.99174
37.5168 6.67504 3.98609
39.4429 6.80252 2
39.2113 8.69434 3.98354
35.9427 8.49485 3.98382
57.1124 34.7754 0.0226614
55.4709 31.5616 0.022735
54.2647 28.4724 0.0222207
53.9279 20.1714 0.0343762
53.4826 22.7646 0.043939
53.6076 25.5647 0.0238972
51.6207 19.3629 0.022037
49.9915 17.7221 0.0243748
48.9253 15.4166 0.0254015
45.3604 7.99551 0.0135126
47.7428 13.1108 0.0207407
46.6669 10.6572 0.0185155
41.3993 7.07981 0.0137243
42.8663 9.41735 0.0170343
54.523 33.9771 2
41.0139 9.05022 2
44.7247 9.99542 2
42.4682 10.9041 2
53.2115 30.5599 2
52.3666 27.284 2
52.3343 21.1009 2
52.0172 24.1736 2
46.0038 12.7311 2
47.6755 14.5928 2
49.7999 19.6994 2
48.0972 16.9994 2
52.0773 32.8892 3.97982
51.0173 29.2435 3.97504
50.6014 25.809 3.97295
49.885 22.287 3.98264
40.5691 11.6106 3.98071
43.8579 11.9165 3.98018
45.7952 15.4326 3.98144
47.49 19.3121 3.97746
45.9618 37.4828 3.88304
48.8445 60.1959 0.021146
49.7721 57.607 0.0274185
52.1532 42.5759 0.0186032
51.5726 47.2123 0.0233478
51.0825 50.9049 0.0417016
50.5356 54.4014 0.0342573
47.8094 43.7141 0.0110499
47.976 58.7305 2
49.7767 45.2256 2
48.5619 55.9012 2
49.0422 52.5668 2
49.4983 48.9953 2
45.6263 39.8542 2
46.0677 42.6123 2
46.2113 45.7561 2
43.4242 41.1285 2
41.8534 42.0012 2
46.8215 57.3312 3.98227
44.1496 39.3876 3.78382
42.1883 40.8554 3.68642
47.8327 47.1949 3.97945
47.1158 54.2148 3.9725
47.4694 50.7155 3.96928
44.5935 47.3497 3.97663
44.6968 41.9183 3.865
44.6778 44.4865 3.93232
42.2915 42.6045 3.79466
40.7661 42.313 3.67095
46.6148 59.7879 0.0158215
45.4621 58.7834 2
43.8669 57.7026 3.9838
37.5635 67.7452 0.0169069
39.6477 65.6064 0.0196175
41.6001 63.8119 0.0194473
42.9505 62.0729 0.0211743
44.6212 60.2824 0.0170716
35.4639 67.6557 2
41.7538 62.4846 2
39.8938 63.5453 2
37.6425 65.5052 2
42.4795 59.9704 2
40.6235 61.6396 3.98048
40.4414 58.1958 3.98092
37.837 63.2055 3.97905
35.5731 65.4262 3.98022
33.5757 65.3381 2
31.959 63.2955 2
33.6286 63.3328 3.97956
30.3784 62.8547 3.98188
32.1236 61.9996 3.98326
26.8701 61.4965 3.97993
28.0622 64.146 3.98224
29.8833 64.7182 2
29.4065 66.7578 3.98409
31.6972 65.1255 0.0186732
31.3772 67.1942 2
31.0146 69.4167 3.9873
33.3925 67.4831 0.0171959
33.157 69.7522 2
32.892 72.1468 3.99197
35.3339 69.9577 0.0125007
35.1949 72.373 2
35.0474 74.9194 4
37.5095 72.4581 0.00806973
37.5 75 2
39.9526 74.9197 0
35.6214 6.72626 3.98558
37.5236 4.61597 3.98959
39.6242 4.71539 2
39.7892 2.47454 3.99328
41.7365 4.96894 0.0108116
42.0628 2.71754 2
42.3946 0.32156 4
44.3264 3.11053 0.00690633
44.8159 0.72056 2
47.2057 1.27793 0
49.186 41.2839 0.0116709
56.5066 37.8853 0.0227965
52.7496 39.3047 0.016831
47.1299 40.3674 2
50.1346 38.5097 2
53.6002 36.634 2
50.9135 35.5762 3.97668
47.7751 37.7488 3.93659
45.5858 35.1408 3.88022
43.4047 33.8836 3.77731
41.8382 33.0109 3.63036
37.4584 8.53624 3.98425
37.5167 6.67386 2
39.4428 6.80366 0.0138911
39.2115 8.69291 2
38.9764 10.1291 3.98368
35.8992 9.77649 3.98192
34.1516 8.82515 3.98293
35.9422 8.4933 2
54.5272 33.9748 0.0238922
53.2136 30.5607 0.0224742
52.3602 27.2816 0.0241267
52.3328 21.1004 0.0249129
52.0171 24.172 0.0229208
49.7993 19.6991 0.0255995
48.0986 17.0016 0.0261488
47.6758 14.5956 0.0260977
44.7253 9.99577 0.0154728
46.0038 12.7359 0.0224569
41.0138 9.05101 0.0171293
42.4683 10.9041 0.0144644
52.0837 32.889 2
40.5697 11.6108 2
43.857 11.9172 2
51.0325 29.2447 2
50.6057 25.8121 2
49.884 22.2838 2
45.7939 15.4246 2
47.49 19.3187 2
49.62 31.4754 3.98612
49.0401 27.5813 3.97449
49.2736 24.4919 3.97959
47.1568 22.0563 3.98053
38.3025 12.7415 3.97812
42.1006 14.3072 3.97863
44.7909 18.5058 3.97739
44.486 37.4905 3.79258
46.0216 37.4887 2
47.9765 58.7293 0.021116
48.563 55.8992 0.024057
49.7629 45.2164 0.0204134
49.4955 48.9974 0.0282305
49.0427 52.563 0.0246248
45.5866 39.8456 0.117738
46.0439 42.5889 0.0845521
46.2063 45.7538 0.0139096
43.3994 41.102 0.215543
41.8355 41.9844 0.366011
46.8206 57.3321 2
44.1837 39.4085 2
42.1819 40.8641 2
47.835 47.1965 2
47.1141 54.2189 2
47.4715 50.7188 2
44.6031 47.3277 2
44.7205 41.9392 2
44.6987 44.5055 2
42.3389 42.6339 2
40.7741 42.3109 2
45.3709 55.9207 3.98925
42.5089 39.2663 3.69771
40.6519 40.7531 3.7846
45.9264 48.8759 3.98815
45.4582 52.5029 3.98078
43.2891 48.3615 3.99867
43.2339 46.0274 3.91367
43.4132 43.7 3.86374
40.9247 43.7252 3.78159
39.2556 42.6185 3.6891
45.4618 58.7827 0.0182889
43.867 57.7036 2
42.0946 56.3189 3.98479
35.4637 67.6545 0.0170172
37.6424 65.5045 0.0191837
39.8939 63.5449 0.0211992
41.7536 62.4842 0.0203203
42.4791 59.9699 0.0179708
35.5733 65.4277 2
40.6237 61.6403 2
37.8368 63.206 2
40.4416 58.1966 2
38.9207 56.4868 3.98969
38.2507 60.3211 3.97931
35.6069 63.1976 3.97709
33.5756 65.3376 0.0196688
31.9592 63.2948 0.0188425
33.6285 63.3335 2
30.3783 62.8552 2
32.1238 62.0004 2
28.6815 62.2002 3.98158
33.3459 61.5094 3.98131
31.0681 61.2174 3.98107
27.5732 59.5909 3.9809
23.7985 59.0774 3.97917
25.0364 60.8696 3.98005
26.8703 61.4973 2
26.2292 63.477 3.98149
28.0623 64.1465 2
27.4631 66.1821 3.98435
29.8833 64.7176 0.0174474
29.4066 66.7583 2
28.9069 68.9428 3.98719
31.3771 67.1935 0.0165605
31.0145 69.4173 2
30.6144 71.7778 3.99188
33.1571 69.7516 0.0126678
32.8918 72.1472 2
32.6054 74.6784 4
35.195 72.3724 0.00814643
35.0474 74.9197 2
37.5 75 0
33.7243 6.98145 3.98503
35.4355 4.68626 3.98942
35.6213 6.72518 2
37.5147 2.3871 3.99325
37.5236 4.61517 2
39.6241 4.71638 0.0104971
39.7891 2.47398 2
39.9526 0.0806499 4
42.0628 2.71804 0.00671719
42.3947 0.320817 2
44.8158 0.721173 0
44.1617 35.5915 3.78018
42.1951 34.1306 3.68417
47.1108 40.3673 0.0768473
50.1259 38.5182 0.00826344
53.5931 36.6311 0.022724
47.7791 37.7541 2
50.9262 35.5744 2
45.6174 35.1217 2
43.4337 33.8556 2
41.857 32.9934 2
47.9431 34.3037 3.96345
44.6958 33.0558 3.8586
42.2947 32.3912 3.78931
40.769 32.6868 3.66801
37.311 10.6338 3.98121
37.4583 8.53443 2
37.5168 6.67504 0.0139146
39.2113 8.69434 0.0164559
38.9772 10.1276 2
34.7548 10.3838 3.98124
35.8992 9.77417 2
32.3784 9.37255 3.98107
34.1507 8.82334 2
35.9427 8.49485 0.0161785
52.0773 32.8892 0.0201839
51.0173 29.2435 0.0249632
50.6014 25.809 0.027051
49.885 22.287 0.017356
47.49 19.3121 0.0225439
45.7952 15.4326 0.018562
43.8579 11.9165 0.0198203
40.5691 11.6106 0.0192888
49.6333 31.4699 2
38.3025 12.7391 2
42.1008 14.3095 2
49.0443 27.5812 2
49.2764 24.488 2
47.1518 22.0545 2
44.7908 18.5204 2
47.4559 29.5775 3.98339
46.9635 25.2409 3.9815
44.2673 21.4401 3.97554
36.583 12.94 3.97662
38.6827 14.8178 3.97624
41.7463 17.8714 3.97848
42.6276 37.4842 3.71194
44.5134 37.4908 2
45.9618 37.4828 0.116957
46.8215 57.3312 0.0177266
47.1158 54.2148 0.0274951
47.8327 47.1949 0.0205522
47.4694 50.7155 0.0307197
44.1496 39.3876 0.216181
44.6968 41.9183 0.135002
44.6778 44.4865 0.0676759
44.5935 47.3497 0.0233705
42.2915 42.6045 0.205341
42.1883 40.8554 0.313582
40.7661 42.313 0.329051
45.3698 55.9204 2
42.5 39.2644 2
40.6434 40.7389 2
45.9269 48.8835 2
45.4574 52.5091 2
43.2933 48.3803 2
43.2657 46.0553 2
43.4447 43.7279 2
40.9565 43.767 2
39.2528 42.6153 2
43.7023 54.421 3.99568
40.7484 39.1474 3.80772
39.1194 40.8198 3.79354
43.582 50.422 4.00427
41.8782 47.5711 3.94983
41.7927 45.1175 3.87723
39.3369 44.4118 3.78644
37.5042 42.7136 3.7109
43.8669 57.7026 0.0162029
42.0947 56.3196 2
40.4054 54.9153 3.98177
35.5731 65.4262 0.0197801
37.837 63.2055 0.020954
40.6235 61.6396 0.0195165
40.4414 58.1958 0.0190785
35.6068 63.1989 2
38.2511 60.3217 2
38.9207 56.487 2
37.9965 55.2301 3.99113
36.9343 57.6172 3.98305
35.3634 60.9036 3.97734
33.6286 63.3328 0.0204435
30.3784 62.8547 0.0181209
32.1236 61.9996 0.0167426
33.3462 61.5102 2
28.6816 62.2005 2
31.0685 61.2179 2
29.4059 60.2869 3.97988
32.3605 59.7412 3.98695
28.033 58.372 3.98939
27.5736 59.5918 2
25.3866 58.5914 3.97755
22.7671 58.2316 3.97002
23.4038 60.3471 3.97871
23.7988 59.0784 2
25.0367 60.8705 2
24.4324 62.7689 3.9816
26.8701 61.4965 0.0200654
26.2294 63.4779 2
25.5473 65.4916 3.98353
28.0622 64.146 0.0177575
27.4632 66.1826 2
26.8364 68.3312 3.98724
29.4065 66.7578 0.0159071
28.9068 68.943 2
28.3693 71.2631 3.99194
31.0146 69.4167 0.0126959
30.614 71.7781 2
30.1842 74.2788 4
32.892 72.1468 0.00802528
32.6053 74.6792 2
35.0474 74.9194 0
31.7888 7.42153 3.98391
33.3479 4.92577 3.98891
33.7239 6.98003 2
35.2449 2.46315 3.99318
35.4353 4.68558 2
35.6214 6.72626 0.0144246
37.5 0 4
37.5145 2.38667 2
37.5236 4.61597 0.0104115
39.7892 2.47454 0.00671886
39.9526 0.0802889 2
42.3946 0.32156 0
42.5043 35.7087 3.69963
44.1923 35.5715 2
40.6573 34.2426 3.78351
42.1854 34.1231 2
47.7751 37.7488 0.0634133
50.9135 35.5762 0.0233156
45.5858 35.1408 0.119778
43.4047 33.8836 0.222689
41.8382 33.0109 0.369638
47.9604 34.2948 2
44.7223 33.0378 2
42.3434 32.3583 2
40.779 32.6884 2
45.9689 31.6204 3.93696
43.404 31.2976 3.86613
40.9234 31.272 3.78303
39.257 32.3913 3.68832
35.6934 11.7813 3.97937
37.3119 10.6311 2
37.4584 8.53624 0.0157457
38.9764 10.1291 0.0163239
33.0992 11.2223 3.97801
34.7543 10.3811 2
35.8992 9.77649 0.0180781
30.4835 10.0224 3.9806
32.3778 9.37209 2
34.1516 8.82515 0.0170688
49.62 31.4754 0.0138781
49.0401 27.5813 0.0255063
49.2736 24.4919 0.0204106
47.1568 22.0563 0.019469
44.7909 18.5058 0.0226072
42.1006 14.3072 0.0213663
38.3025 12.7415 0.0218767
36.5828 12.9356 2
47.466 29.5552 2
38.682 14.814 2
41.7445 17.876 2
46.9697 25.2385 2
44.2653 21.4237 2
45.3187 27.7036 4.00217
43.7168 24.1605 4.00707
41.3262 20.8231 3.97955
35.7734 14.7709 3.9772
38.6822 17.6175 3.97832
40.7995 37.4778 3.81695
42.6238 37.4855 2
44.486 37.4905 0.207417
45.3709 55.9207 0.0107524
45.4582 52.5029 0.0192175
45.9264 48.8759 0.01185
42.5089 39.2663 0.302292
43.4132 43.7 0.136261
43.2339 46.0274 0.0863284
43.2891 48.3615 0.00132721
40.9247 43.7252 0.218413
40.6519 40.7531 0.215403
39.2556 42.6185 0.310903
43.7001 54.4208 2
40.7305 39.1399 2
39.1203 40.8016 2
43.5807 50.4387 2
41.8708 47.5922 2
41.8134 45.147 2
37.5031 42.7129 2
39.3544 44.445 2
41.8504 52.9684 3.99454
39.1394 39.1593 3.81525
37.5038 40.8682 3.8068
35.7554 42.6261 3.6908
40.8624 49.6243 3.99757
39.8035 45.9686 3.855
37.5031 44.6408 3.77899
42.0946 56.3189 0.0152133
40.404 54.9175 2
38.7235 53.7998 3.99555
35.6069 63.1976 0.0229132
38.2507 60.3211 0.0206853
38.9207 56.4868 0.0103051
35.3637 60.9044 2
36.9349 57.618 2
37.9961 55.2272 2
36.3238 55.316 3.99696
34.4895 58.5093 3.98519
33.3459 61.5094 0.0186905
28.6815 62.2002 0.0184166
31.0681 61.2174 0.0189284
32.361 59.7421 2
29.4065 60.2871 2
30.3105 57.8168 3.98423
28.0333 58.3728 2
26.966 56.8244 3.9756
27.5732 59.5909 0.0190964
25.387 58.5925 2
23.8599 56.7905 3.96289
21.3488 57.3838 3.9692
21.9992 59.6165 3.97721
22.7672 58.2334 2
22.7372 62.0188 3.97939
23.404 60.3481 2
23.7985 59.0774 0.0208336
25.0364 60.8696 0.0199541
24.4326 62.7698 2
23.6815 64.709 3.98314
26.2292 63.477 0.0185091
25.5473 65.4925 2
24.8085 67.5924 3.98701
27.4631 66.1821 0.015649
26.8364 68.3319 2
26.1644 70.6038 3.99201
28.9069 68.9428 0.0128118
28.369 71.2632 2
27.7943 73.7221 4
30.6144 71.7778 0.00812214
30.1841 74.2794 2
32.6054 74.6784 0
29.8114 7.99607 3.98295
31.2533 5.33279 3.98802
31.7884 7.42071 2
32.9807 2.70145 3.99285
33.3475 4.92477 2
33.7243 6.98145 0.0149736
35.0474 0.080333 4
35.2447 2.46282 2
35.4355 4.68626 0.0105824
37.5 0 2
37.5147 2.3871 0.00675356
39.9526 0.0806499 0
40.752 35.8246 3.80614
42.4954 35.7116 2
44.1617 35.5915 0.21982
28.5442 10.698 3.97942
39.1187 34.1888 3.79271
40.6461 34.2569 2
42.1951 34.1306 0.315829
47.9431 34.3037 0.0365484
44.6958 33.0558 0.141397
42.2947 32.3912 0.210689
40.769 32.6868 0.331986
45.9965 31.6058 2
43.4339 31.2666 2
40.9573 31.2323 2
39.2584 32.3955 2
44.2223 29.815 3.929
41.7879 29.879 3.87572
39.3416 30.5931 3.78514
37.5085 32.3047 3.71029
34.0941 12.9429 3.97634
35.6933 11.7768 2
37.311 10.6338 0.018786
31.1877 11.9926 3.97843
33.0995 11.2216 2
34.7548 10.3838 0.0187637
30.4824 10.02 2
32.3784 9.37255 0.0189296
47.4559 29.5775 0.0166104
46.9635 25.2409 0.0185046
36.583 12.94 0.0233788
44.2673 21.4401 0.0244566
41.7463 17.8714 0.0215247
38.6827 14.8178 0.0237634
35.774 14.776 2
45.3223 27.7031 2
38.6801 17.621 2
41.3228 20.8116 2
43.7199 24.1485 2
33.6104 15.891 3.97707
42.914 26.5545 3.99818
40.8679 23.3858 4.0135
38.4135 20.3972 3.98267
35.8521 17.5253 3.97944
39.1453 37.4881 3.83853
40.7833 37.4776 2
42.6276 37.4842 0.288056
43.7023 54.421 0.00432037
43.582 50.422 -0.00426783
40.7484 39.1474 0.19228
41.7927 45.1175 0.122767
41.8782 47.5711 0.0501732
39.3369 44.4118 0.213563
39.1194 40.8198 0.206462
37.5042 42.7136 0.289103
41.8485 52.9659 2
39.1282 39.1478 2
37.5031 40.845 2
40.8685 49.64 2
35.7529 42.6217 2
39.8239 46.0047 2
37.4976 44.6706 2
39.7915 51.8385 4.00162
37.5007 39.1706 3.841
35.8884 40.8334 3.79359
34.2423 42.3219 3.66827
35.6677 44.4258 3.78256
38.6711 48.6148 3.96486
37.518 46.267 3.87051
40.4054 54.9153 0.0182258
38.7228 53.7942 2
36.7416 53.1347 3.99934
35.3634 60.9036 0.022656
36.9343 57.6172 0.0169463
37.9965 55.2301 0.0088684
34.4905 58.5102 2
36.3249 55.3196 2
33.2455 55.4905 3.99526
32.3605 59.7412 0.0130489
29.4059 60.2869 0.0201206
30.311 57.8171 2
28.7259 55.3127 3.97878
28.033 58.372 0.0106092
26.9659 56.8252 2
25.3491 55.13 3.97093
21.8381 55.3308 3.96497
25.3866 58.5914 0.0224494
23.8596 56.7928 2
20.235 57.0121 3.97184
20.6531 58.7675 3.97302
21.3487 57.3854 2
21.169 61.1666 3.97715
21.9994 59.6176 2
22.7671 58.2316 0.029985
21.8953 63.8362 3.98186
22.7374 62.0198 2
23.4038 60.3471 0.0212942
24.4324 62.7689 0.0183954
23.6815 64.7099 2
22.8368 66.7355 3.98629
25.5473 65.4916 0.0164663
24.8085 67.5933 2
24.0086 69.805 3.99211
26.8364 68.3312 0.0127578
26.1641 70.6041 2
25.446 73.0099 4
28.3693 71.2631 0.00805944
27.7943 73.7222 2
30.1842 74.2788 0
27.8213 8.65581 3.9825
29.1554 5.87907 3.98699
29.8107 7.99417 2
30.7259 3.09851 3.99256
31.2529 5.33203 2
31.7888 7.42153 0.0160942
32.6053 0.320823 4
32.9803 2.70095 2
33.3479 4.92577 0.0110893
35.0474 0.0802903 2
35.2449 2.46315 0.00682291
37.5 0 0
39.1412 35.828 3.81539
40.7328 35.8309 2
42.5043 35.7087 0.300375
28.5433 10.697 2
26.6228 11.3942 3.97923
29.2267 12.6493 3.97894
37.5018 34.1522 3.80564
39.1195 34.2078 2
40.6573 34.2426 0.216493
45.9689 31.6204 0.0630401
43.404 31.2976 0.133874
40.9234 31.272 0.216966
39.257 32.3913 0.311681
44.2238 29.8037 2
41.8041 29.8552 2
39.3557 30.5568 2
37.5099 32.3043 2
42.2442 28.4741 3.90385
39.8123 29.0271 3.8758
37.5112 30.3737 3.77937
35.7622 32.3915 3.68887
31.9166 14.4927 3.9773
34.0951 12.9427 2
35.6934 11.7813 0.020634
31.187 11.9891 2
33.0992 11.2223 0.0219869
30.4835 10.0224 0.0194045
45.3187 27.7036 -0.00216855
43.7168 24.1605 -0.00707281
35.7734 14.7709 0.0228001
41.3262 20.8231 0.0204545
38.6822 17.6175 0.0216845
33.6093 15.8874 2
35.8489 17.5281 2
42.9232 26.5547 2
38.4126 20.3976 2
40.8664 23.3716 2
33.5551 17.4007 3.97818
40.3266 25.7425 3.98899
38.0673 23.0334 3.99789
35.5834 20.1114 3.98165
37.4991 37.4991 3.86031
39.1353 37.4876 2
40.7995 37.4778 0.183048
41.8504 52.9684 0.00546316
40.8624 49.6243 0.00243328
39.1394 39.1593 0.184747
39.8035 45.9686 0.145003
37.5031 44.6408 0.221012
37.5038 40.8682 0.193197
35.7554 42.6261 0.3092
39.7931 51.8425 2
37.5009 39.1562 2
35.8872 40.8158 2
38.6864 48.6547 2
34.2343 42.3206 2
35.651 44.4608 2
37.5183 46.3042 2
37.6564 50.9071 4.00186
35.8651 39.1774 3.8157
34.3565 40.7729 3.78393
33.1673 41.9952 3.63364
34.0725 43.726 3.78249
35.185 45.9635 3.86744
36.9068 48.2433 3.93369
38.7235 53.7998 0.00444983
36.7375 53.1402 2
34.394 52.4372 3.99689
34.4895 58.5093 0.0148138
36.3238 55.316 0.00304284
33.2459 55.4936 2
30.5586 53.3432 3.97834
30.3105 57.8168 0.0157727
28.7259 55.3147 2
26.9418 53.4259 3.97148
26.966 56.8244 0.0243984
25.3488 55.1337 2
23.6392 53.4619 3.95842
20.5421 53.1975 3.96237
19.9563 55.8131 3.96667
21.8367 55.3323 2
23.8599 56.7905 0.0371079
19.449 57.8738 3.97186
20.2345 57.0135 2
19.7104 60.1931 3.97649
20.653 58.7682 2
21.3488 57.3838 0.0308029
20.2084 62.8561 3.97953
21.1693 61.168 2
21.9992 59.6165 0.0227868
20.9382 65.7641 3.98539
21.8953 63.8371 2
22.7372 62.0188 0.0206091
23.6815 64.709 0.0168553
22.8369 66.7362 2
21.9112 68.8719 3.99177
24.8085 67.5924 0.0129892
24.0081 69.8052 2
23.1494 72.1454 4
26.1644 70.6038 0.00799431
25.446 73.0099 2
27.7943 73.7221 0
25.8605 9.38468 3.98153
27.0702 6.54314 3.98597
27.8205 8.65489 2
28.4882 3.64459 3.99206
29.1549 5.87781 2
29.8114 7.99607 0.017051
30.1841 0.720592 4
30.7254 3.09817 2
31.2533 5.33279 0.0119791
32.6053 0.320817 2
32.9807 2.70145 0.00714616
35.0474 0.080333 0
37.5007 35.834 3.84003
39.1287 35.8386 2
40.752 35.8246 0.193863
24.7777 12.0789 3.97933
23.7534 14.3684 3.97802
28.5442 10.698 0.020579
26.6221 11.3939 2
29.226 12.648 2
27.2931 13.3829 3.9785
29.783 14.2118 3.97865
35.8881 34.1872 3.79288
37.5028 34.1747 2
39.1187 34.1888 0.207293
37.5085 32.3047 0.28971
44.2223 29.815 0.0709997
41.7879 29.879 0.124282
39.3416 30.5931 0.214856
42.2667 28.4448 2
39.8249 28.9913 2
37.5151 30.3428 2
35.7614 32.3957 2
39.9994 27.6616 3.90569
37.5066 28.7405 3.87099
35.6777 30.6034 3.78786
34.2542 32.6936 3.6683
30.9301 16.8552 3.97764
31.9165 14.4865 2
34.0941 12.9429 0.0236609
31.1877 11.9926 0.0215707
42.914 26.5545 0.00181665
40.8679 23.3858 -0.0134963
33.6104 15.891 0.0229325
35.8521 17.5253 0.020561
38.4135 20.3972 0.0173332
33.551 17.4129 2
35.5854 20.1153 2
40.3279 25.7257 2
38.0597 23.0203 2
32.8685 19.8077 3.98581
37.7819 25.3397 4.00054
35.1947 22.7583 3.99414
35.8542 37.5033 3.83905
37.4991 37.4989 2
39.1453 37.4881 0.161473
39.7915 51.8385 -0.00162342
38.6711 48.6148 0.0351404
37.5007 39.1706 0.159002
37.518 46.267 0.129492
35.6677 44.4258 0.217442
35.8884 40.8334 0.206413
34.2423 42.3219 0.331731
37.6437 50.9272 2
35.878 39.1662 2
34.3656 40.7593 2
36.8884 48.2823 2
33.149 42.0116 2
34.0447 43.7641 2
35.1697 45.9944 2
35.5106 50.0679 3.99288
34.2622 39.1735 3.80812
32.808 40.8728 3.68575
32.711 42.6161 3.79136
33.2173 45.1197 3.87342
34.339 47.3359 3.90863
36.7416 53.1347 0.000658445
34.3889 52.4443 2
32.0745 51.152 4.00431
33.2455 55.4905 0.00473668
30.5584 53.3482 2
28.5005 51.5596 3.97915
28.7259 55.3127 0.0212157
26.9412 53.4294 2
25.1693 51.7148 3.95741
25.3491 55.13 0.029071
23.6383 53.4641 2
22.0704 51.7726 3.95527
19.3152 51.6053 3.96317
18.9636 54.2872 3.96324
20.5415 53.1968 2
18.464 56.7056 3.96922
19.9554 55.8142 2
21.8381 55.3308 0.0350268
18.3752 59.0963 3.97078
19.4486 57.8747 2
20.235 57.0121 0.0281625
18.6208 61.7596 3.9745
19.7108 60.1946 2
20.6531 58.7675 0.0269796
19.1272 64.674 3.98393
20.2083 62.8574 2
21.169 61.1666 0.0228458
19.8854 67.8086 3.99169
20.9382 65.765 2
21.8953 63.8362 0.0181371
22.8368 66.7355 0.0137149
21.9106 68.8719 2
20.9142 71.1327 4
24.0086 69.805 0.00789171
23.1494 72.1455 2
25.446 73.0099 0
23.0972 12.7948 3.97886
23.9731 10.1727 3.98081
25.0238 7.3138 3.98498
25.8598 9.38415 2
26.2799 4.32874 3.99159
27.0695 6.54244 2
27.8213 8.65581 0.0175038
27.7943 1.27781 4
28.4874 3.64416 2
29.1554 5.87907 0.0130105
30.1841 0.720551 2
30.7259 3.09851 0.0074391
32.6053 0.320823 0
35.8601 35.8336 3.8143
37.5009 35.8484 2
39.1412 35.828 0.184614
24.7772 12.0783 2
23.7536 14.3682 2
22.4827 15.0454 3.97896
25.3593 13.9166 3.97759
24.0297 15.6322 3.97939
26.6228 11.3942 0.020773
29.2267 12.6493 0.0210629
27.2929 13.3828 2
29.7817 14.2095 2
28.3611 15.9883 3.97795
34.3589 34.2506 3.78155
35.8874 34.2061 2
37.5018 34.1522 0.194358
35.7622 32.3915 0.311129
37.5112 30.3737 0.22063
42.2442 28.4741 0.0961545
39.8123 29.0271 0.124204
40.0169 27.6368 2
37.5075 28.7077 2
35.6614 30.5637 2
34.2417 32.6966 2
37.5844 27.3752 3.91853
35.1946 29.0417 3.87453
34.0856 31.2876 3.78262
33.1854 33.0213 3.6325
30.2156 19.3676 3.98093
30.9285 16.8481 2
31.9166 14.4927 0.0226975
40.3266 25.7425 0.0110111
38.0673 23.0334 0.00211484
33.5551 17.4007 0.0218157
35.5834 20.1114 0.0183545
32.8681 19.8207 2
35.1918 22.748 2
37.7776 25.325 2
32.3172 22.4894 3.9963
35.0175 25.3055 4.0011
34.204 37.5105 3.81816
35.8647 37.5044 2
37.4991 37.4991 0.139694
37.6564 50.9071 -0.00185798
36.9068 48.2433 0.0663055
35.8651 39.1774 0.184296
35.185 45.9635 0.132561
34.0725 43.726 0.217514
34.3565 40.7729 0.216067
33.1673 41.9952 0.366359
35.5005 50.0739 2
34.2826 39.1669 2
32.8135 40.8799 2
34.3252 47.3762 2
32.6718 42.6453 2
33.2004 45.1464 2
33.3316 49.0639 3.98758
32.4914 39.2903 3.70189
31.5926 41.1163 3.7822
31.5923 43.708 3.86549
32.3855 46.2727 3.90733
34.394 52.4372 0.00310585
32.0749 51.1617 2
29.9727 49.6691 3.98546
30.5586 53.3432 0.0216596
28.4991 51.558 2
26.6276 49.9424 3.96938
26.9418 53.4259 0.0285194
25.168 51.7125 2
23.4741 50.148 3.9644
23.6392 53.4619 0.0415824
22.0697 51.7712 2
20.6026 50.2776 3.96534
18.1181 50.3001 3.96798
17.9215 52.7665 3.96442
19.3138 51.6047 2
17.4623 55.3236 3.96327
18.9603 54.2873 2
20.5421 53.1975 0.0376321
17.1454 57.8574 3.9675
18.4633 56.7059 2
19.9563 55.8131 0.0333309
17.1395 60.5365 3.97381
18.3751 59.0973 2
19.449 57.8738 0.0281364
17.4083 63.4647 3.98019
18.621 61.7609 2
19.7104 60.1931 0.0235133
17.9419 66.6171 3.99118
19.1271 64.6752 2
20.2084 62.8561 0.0204674
18.75 69.9759 4
19.8847 67.8084 2
20.9382 65.7641 0.0146141
21.9112 68.8719 0.00823108
20.9142 71.1327 2
23.1494 72.1454 0
21.5885 13.6158 3.97852
22.1912 11.0329 3.97996
23.0972 12.7948 2
23.0416 8.1801 3.98414
23.9725 10.1719 2
24.1176 5.14354 3.9911
25.0232 7.31314 2
25.8605 9.38468 0.0184688
25.446 1.99014 4
26.279 4.32867 2
27.0702 6.54314 0.014025
27.7943 1.27778 2
28.4882 3.64459 0.00793518
30.1841 0.720592 0
34.256 35.8424 3.80619
35.8714 35.8446 2
37.5007 35.834 0.159968
21.3098 15.8421 3.98045
24.7777 12.0789 0.0206731
23.7534 14.3684 0.0219815
25.3593 13.9161 2
22.4832 15.0457 2
24.0297 15.6326 2
23.2706 16.2628 3.97633
25.3858 16.1018 3.97878
27.2931 13.3829 0.0215003
29.783 14.2118 0.0213523
28.3593 15.9898 2
27.4465 18.819 3.97911
32.8204 34.1456 3.68413
34.3721 34.2651 2
35.8881 34.1872 0.207122
34.2542 32.6936 0.331696
35.6777 30.6034 0.21214
37.5066 28.7405 0.129009
39.9994 27.6616 0.0943087
37.5865 27.3396 2
33.1658 33.0056 2
35.1886 29.0012 2
34.0486 31.2434 2
35.0903 27.4984 3.91767
33.2199 29.8957 3.8702
32.727 32.3939 3.77901
29.6035 21.9636 3.99544
30.2154 19.3784 2
30.9301 16.8552 0.0223595
37.7819 25.3397 -0.000542711
35.1947 22.7583 0.00586244
32.8685 19.8077 0.0141905
32.3176 22.4813 2
35.035 25.2939 2
31.7905 25.7122 4.00811
32.3622 37.5114 3.71454
34.2251 37.5107 2
35.8542 37.5033 0.160945
35.5106 50.0679 0.00712202
34.339 47.3359 0.0913749
34.2622 39.1735 0.191883
33.2173 45.1197 0.126579
32.711 42.6161 0.208639
32.808 40.8728 0.314254
33.3271 49.0614 2
32.5062 39.2883 2
31.5647 41.1409 2
32.3521 46.3035 2
31.5613 43.7358 2
31.2939 47.9012 3.98697
30.842 39.4076 3.782
30.3014 41.9428 3.85947
30.6212 44.8702 3.92872
32.0745 51.152 -0.00431153
29.9705 49.6699 2
28.045 48.1267 3.9651
28.5005 51.5596 0.0208461
26.6267 49.9404 2
24.8224 48.4163 3.97254
25.1693 51.7148 0.0425931
23.4737 50.1457 2
21.8428 48.7406 3.96968
22.0704 51.7726 0.0447257
20.601 50.2765 2
19.1909 49.0565 3.9722
17.017 49.3043 3.9728
16.8682 51.3828 3.96693
18.1198 50.299 2
16.4331 53.8525 3.96445
17.9191 52.7663 2
19.3152 51.6053 0.0368331
15.9909 56.4611 3.96629
17.4604 55.3241 2
18.9636 54.2872 0.036756
15.7557 59.1984 3.96994
17.1453 57.8584 2
18.464 56.7056 0.0307829
15.7902 62.1316 3.97511
17.1398 60.5383 2
18.3752 59.0963 0.0292229
16.0891 65.2996 3.98989
17.408 63.4663 2
18.6208 61.7596 0.025497
16.6661 68.6801 4
17.9409 66.6168 2
19.1272 64.674 0.0160748
18.75 69.9759 2
19.8854 67.8086 0.00831047
20.9142 71.1327 0
20.2216 14.6064 3.97715
21.5887 13.616 2
20.5306 12.0037 3.9793
21.1444 9.15048 3.98349
22.1909 11.0327 2
23.0972 12.7948 0.0211394
22.0167 6.08274 3.99055
23.0409 8.17931 2
23.9731 10.1727 0.0191906
23.1494 2.85457 4
24.1164 5.1436 2
25.0238 7.3138 0.0150177
25.446 1.99012 2
26.2799 4.32874 0.00841399
27.7943 1.27781 0
32.4876 35.7288 3.69494
34.2747 35.8528 2
35.8601 35.8336 0.185695
21.3103 15.8418 2
20.3097 16.9743 3.98091
22.1031 16.6485 3.97423
25.3593 13.9166 0.0224113
22.4827 15.0454 0.0210405
24.0297 15.6322 0.0206144
25.3851 16.1024 2
23.2709 16.2637 2
24.2119 18.4741 3.97373
27.0433 21.486 3.99138
28.3611 15.9883 0.0220506
27.4479 18.8188 2
31.6113 33.9072 3.77994
32.8275 34.1365 2
34.3589 34.2506 0.218448
33.1854 33.0213 0.367503
34.0856 31.2876 0.217385
35.1946 29.0417 0.125467
37.5844 27.3752 0.0814711
35.081 27.457 2
32.6596 32.3637 2
33.2061 29.8761 2
32.6559 28.2078 3.92896
31.595 31.3156 3.86689
28.8982 24.4448 3.9815
29.5987 21.9752 2
30.2156 19.3676 0.01907
35.0175 25.3055 -0.0010964
32.3172 22.4894 0.00370167
31.7928 25.6906 2
29.7901 27.3718 3.97093
30.499 37.5044 3.79108
32.3744 37.5098 2
34.204 37.5105 0.181835
33.3316 49.0639 0.0124171
32.3855 46.2727 0.0926678
32.4914 39.2903 0.298114
31.5923 43.708 0.134512
31.5926 41.1163 0.217798
31.2908 47.9055 2
30.8035 39.4279 2
30.2763 41.9594 2
30.6016 44.8912 2
29.4029 46.5049 4.00211
29.4035 39.8522 3.88185
29.0088 43.1005 3.92852
29.9727 49.6691 0.0145408
28.0436 48.1226 2
26.1714 46.5954 3.97653
26.6276 49.9424 0.0306213
24.8222 48.4138 2
23.0384 47.0186 3.97418
23.4741 50.148 0.0356003
21.8419 48.7395 2
20.1679 47.5759 3.97695
20.6026 50.2776 0.034656
19.193 49.055 2
17.815 48.1479 3.97625
16.2558 48.6589 3.97593
17.0184 49.3034 2
15.9472 50.1472 3.97034
15.4385 52.3972 3.96645
16.8686 51.3821 2
18.1181 50.3001 0.0320176
14.8876 54.9651 3.96517
16.4327 53.8524 2
17.9215 52.7665 0.0355754
14.468 57.7276 3.96706
15.9911 56.4611 2
17.4623 55.3236 0.0367339
14.2692 60.6853 3.97403
15.7559 59.1997 2
17.1454 57.8574 0.0324965
14.3342 63.8582 3.98654
15.79 62.1328 2
17.1395 60.5365 0.0261894
14.6715 67.2507 4
16.0877 65.2989 2
17.4083 63.4647 0.0198059
16.6661 68.6801 2
17.9419 66.6171 0.0088247
18.75 69.9759 0
18.9366 15.7929 3.97855
20.222 14.6062 2
18.9808 13.1156 3.97802
21.5885 13.6158 0.0214781
20.5306 12.0037 2
19.3436 10.2389 3.98278
19.9912 7.14744 3.99013
21.1439 9.15011 2
22.1912 11.0329 0.0200362
20.9142 3.86727 4
22.0153 6.08297 2
23.0416 8.1801 0.0158579
23.1494 2.85451 2
24.1176 5.14354 0.00889612
25.446 1.99014 0
30.8598 35.6202 3.78465
32.4992 35.7316 2
34.256 35.8424 0.193806
21.3098 15.8421 0.019552
22.1038 16.6489 2
20.3102 16.9733 2
19.2588 18.4239 3.97343
21.7895 17.8672 3.97967
25.3858 16.1018 0.0212171
23.2706 16.2628 0.0236695
24.2123 18.4749 2
22.3038 19.9175 3.96907
24.6253 21.3582 3.98942
26.5071 23.7525 3.97107
27.0428 21.4837 2
27.4465 18.819 0.0208931
30.3319 33.0834 3.87287
31.5881 33.8721 2
32.8204 34.1456 0.315867
32.727 32.3939 0.220989
33.2199 29.8957 0.129798
35.0903 27.4984 0.0823262
32.6192 28.1822 2
31.5597 31.2805 2
30.3086 29.6281 3.94751
28.037 26.5849 3.98677
28.8933 24.4611 2
29.6035 21.9636 0.00455788
31.7905 25.7122 -0.00811479
29.7864 27.3412 2
29.0216 37.5172 3.88363
30.4789 37.5051 2
32.3622 37.5114 0.285456
31.2939 47.9012 0.0130323
30.6212 44.8702 0.071281
30.842 39.4076 0.218002
30.3014 41.9428 0.140532
29.4023 46.5161 2
29.3712 39.8719 2
28.9805 43.1266 2
27.5827 44.8091 3.97527
27.1737 40.5921 3.95321
28.045 48.1267 0.0349014
26.1677 46.5976 2
24.2893 45.1409 3.97612
24.8224 48.4163 0.0274642
23.0378 47.0178 2
21.1454 45.8436 3.97833
21.8428 48.7406 0.0303243
20.1672 47.5747 2
18.4974 46.7013 3.97826
19.1909 49.0565 0.0278036
17.8166 48.1468 2
16.4622 47.6881 3.97697
16.2569 48.6582 2
15.2921 48.9942 3.97349
17.017 49.3043 0.0272008
15.9485 50.1465 2
14.5556 50.9674 3.96841
13.8575 53.4229 3.96595
15.4396 52.3968 2
16.8682 51.3828 0.0330713
13.2639 56.1586 3.96706
14.8869 54.9651 2
16.4331 53.8525 0.0355519
12.8531 59.1188 3.972
14.4685 57.7277 2
15.9909 56.4611 0.0337107
12.6801 62.3003 3.98375
14.2691 60.6858 2
15.7557 59.1984 0.0300579
12.7746 65.6939 4
14.3325 63.8566 2
15.7902 62.1316 0.0248872
14.6714 67.2507 2
16.0891 65.2996 0.0101086
16.6661 68.6801 0
17.6761 17.1699 3.97306
18.937 15.7924 2
17.513 14.3806 3.97716
20.2216 14.6064 0.022847
18.981 13.1154 2
17.6392 11.4585 3.98153
20.5306 12.0037 0.020697
19.3434 10.2387 2
18.0513 8.34033 3.98984
18.75 5.0241 4
19.9897 7.14821 2
21.1444 9.15048 0.0165124
20.9142 3.86727 2
22.0167 6.08274 0.00945341
23.1494 2.85457 0
29.4204 35.1551 3.88419
30.8135 35.5943 2
32.4876 35.7288 0.305059
22.1031 16.6485 0.0257695
20.3097 16.9743 0.0190888
21.7902 17.8666 2
19.2592 18.4227 2
18.0116 19.9616 3.96254
20.8986 19.3982 3.97456
24.2119 18.4741 0.0262715
22.3039 19.9173 2
24.6251 21.3592 2
22.4072 21.7491 3.97686
24.776 23.1967 3.97783
25.624 25.983 3.97596
26.5089 23.7511 2
27.0433 21.486 0.00862261
28.7117 32.4015 3.93142
30.3009 33.0624 2
31.6113 33.9072 0.220063
31.595 31.3156 0.133111
32.6559 28.2078 0.0710409
30.3031 29.628 2
27.2565 29.1733 4.00581
28.0296 26.5978 2
28.8982 24.4448 0.0184967
29.7901 27.3718 0.0290717
27.2863 37.3675 3.93378
28.9701 37.5061 2
30.499 37.5044 0.20892
29.4029 46.5049 -0.00211084
29.0088 43.1005 0.0714819
29.4035 39.8522 0.118155
27.5731 44.8335 2
27.1561 40.5982 2
25.6074 43.1185 3.98839
24.4294 39.4514 3.97621
26.1714 46.5954 0.0234745
24.2816 45.1418 2
22.176 43.894 3.97818
23.0384 47.0186 0.0258159
21.1432 45.8427 2
19.1989 44.9327 3.97789
20.1679 47.5759 0.0230534
18.498 46.7002 2
16.7816 46.1857 3.97721
17.815 48.1479 0.0237485
16.4634 47.6874 2
15.0387 47.6491 3.97491
16.2558 48.6589 0.0240685
15.2935 48.9936 2
13.8571 49.5298 3.97045
15.9472 50.1472 0.0296562
14.5565 50.967 2
12.9278 51.8637 3.96695
12.1507 54.5208 3.96723
13.8573 53.4228 2
15.4385 52.3972 0.0335453
11.5386 57.4526 3.97123
13.2644 56.1586 2
14.8876 54.9651 0.0348345
11.135 60.6259 3.98132
12.8535 59.1185 2
14.468 57.7276 0.0329415
10.9835 64.0165 4
12.6783 62.2978 2
14.2692 60.6853 0.0259701
12.7745 65.694 2
14.3342 63.8582 0.0134554
14.6715 67.2507 0
16.4178 18.6681 3.96498
17.6762 17.1691 2
16.1057 15.791 3.97466
18.9366 15.7929 0.0214546
17.5133 14.3799 2
16.0211 12.8129 3.97953
18.9808 13.1156 0.0219816
17.6391 11.4582 2
16.2025 9.66344 3.98942
19.3436 10.2389 0.0172163
18.0498 8.34151 2
16.6661 6.31991 4
18.75 5.02404 2
19.9912 7.14744 0.00986566
20.9142 3.86727 0
27.8164 34.7994 3.92555
29.3877 35.1393 2
30.8598 35.6202 0.215345
16.7247 21.3964 3.96542
21.7895 17.8672 0.0203332
19.2588 18.4239 0.026569
20.8988 19.3972 2
18.012 19.9608 2
19.7767 21.5983 3.97083
22.3038 19.9175 0.0309317
24.6253 21.3582 0.010579
22.4072 21.7489 2
24.7763 23.196 2
22.97 24.6326 3.97274
24.7976 28.5648 3.97827
25.6218 25.9809 2
26.5071 23.7525 0.0289312
26.5594 31.7562 3.98313
28.6839 32.378 2
30.3319 33.0834 0.127132
30.3086 29.6281 0.0524859
27.2784 29.1564 2
28.037 26.5849 0.0132263
25.1158 36.8594 3.98283
27.27 37.3589 2
29.0216 37.5172 0.116365
27.5827 44.8091 0.0247336
27.1737 40.5921 0.0467889
25.591 43.1297 2
24.4135 39.4516 2
23.3241 41.8126 3.98
22.147 38.5203 3.97781
24.2893 45.1409 0.0238846
22.1743 43.8942 2
20.0204 42.8646 3.97691
21.1454 45.8436 0.0216657
19.1989 44.9326 2
17.1513 44.352 3.97719
18.4974 46.7013 0.0217417
16.7831 46.185 2
14.9807 46.0697 3.97533
16.4622 47.6881 0.0230259
15.0399 47.6486 2
13.3749 47.9931 3.97201
15.2921 48.9942 0.02651
13.8582 49.5294 2
12.1498 50.2433 3.96782
14.5556 50.9674 0.0315867
12.928 51.8634 2
11.146 52.8323 3.9673
10.3292 55.7073 3.97132
12.1512 54.5207 2
13.8575 53.4229 0.0340495
9.7017 58.8481 3.97993
11.539 57.4522 2
13.2639 56.1586 0.0329434
9.30605 62.2254 4
11.1334 60.6228 2
12.8531 59.1188 0.0279972
10.9835 64.0165 2
12.6801 62.3003 0.0162504
12.7746 65.6939 0
15.1651 20.2002 3.96554
16.4181 18.6677 2
14.7564 17.3175 3.96837
17.6761 17.1699 0.0269363
16.106 15.7898 2
14.4843 14.2961 3.97749
17.513 14.3806 0.0228381
16.0211 12.8122 2
14.4453 11.1148 3.98852
17.6392 11.4585 0.0184731
16.2009 9.66495 2
14.6715 7.74927 4
18.0513 8.34033 0.0101627
16.6661 6.31988 2
18.75 5.0241 0
25.7757 34.2888 3.99026
27.7946 34.8083 2
29.4204 35.1551 0.115805
17.9227 22.3464 3.96968
15.5775 22.9372 3.96778
16.7253 21.3963 2
20.8986 19.3982 0.0254386
18.0116 19.9616 0.0374627
19.777 21.5978 2
19.7965 24.4138 3.97035
22.4072 21.7491 0.0231374
24.776 23.1967 0.022174
22.9694 24.6323 2
22.1656 27.8651 3.97269
24.1161 31.2364 3.97654
24.8122 28.5648 2
25.624 25.983 0.0240424
26.5425 31.7291 2
28.7117 32.4015 0.0685755
27.2565 29.1733 -0.00580738
22.8686 36.2876 3.98226
25.0986 36.86 2
27.2863 37.3675 0.066222
25.6074 43.1185 0.0116055
24.4294 39.4514 0.0237932
23.3142 41.8114 2
22.1396 38.5186 2
21.0507 40.6372 3.97574
20.4443 37.8026 3.97698
22.176 43.894 0.0218232
20.0192 42.8653 2
17.6101 42.0732 3.97657
19.1989 44.9327 0.0221143
17.153 44.3517 2
15.0108 44.1805 3.97581
16.7816 46.1857 0.022793
14.9818 46.0692 2
13.0625 46.2811 3.97311
15.0387 47.6491 0.0250937
13.3759 47.9928 2
11.5269 48.541 3.9686
13.8571 49.5298 0.0295475
12.1503 50.243 2
10.2716 51.0774 3.96717
12.9278 51.8637 0.0330507
11.1466 52.832 2
9.23798 53.8873 3.97094
8.3851 56.9814 3.98046
10.3296 55.7067 2
12.1507 54.5208 0.0327669
7.74927 60.3285 4
9.70051 58.8447 2
11.5386 57.4526 0.0287669
9.306 62.2255 2
11.135 60.6259 0.0186753
10.9835 64.0165 0
13.9848 21.765 3.96558
15.1659 20.2002 2
13.4605 18.9138 3.96712
16.4178 18.6681 0.0350221
14.7569 17.3166 2
13.0317 15.8911 3.97358
16.1057 15.791 0.0253381
14.4842 14.295 2
12.7829 12.6885 3.98673
16.0211 12.8129 0.0204671
14.4437 11.1166 2
12.7746 9.30605 4
16.2025 9.66344 0.0105805
14.6715 7.74924 2
16.6661 6.31991 0
23.453 33.8301 3.98378
25.752 34.2795 2
27.8164 34.7994 0.074447
17.7347 24.069 3.97026
17.9234 22.3463 2
14.3999 24.4702 3.96946
15.5787 22.9373 2
16.7247 21.3964 0.0345796
19.2478 27.2407 3.97191
19.7767 21.5983 0.0291697
19.7945 24.4136 2
21.4907 30.7067 3.97518
22.97 24.6326 0.0272629
22.1748 27.8663 2
24.0976 31.234 2
24.7976 28.5648 0.0217287
26.5594 31.7562 0.0168741
20.5662 35.9516 3.97712
22.8674 36.2839 2
25.1158 36.8594 0.0171663
23.3241 41.8126 0.0199969
22.147 38.5203 0.0221923
21.0569 40.6365 2
20.4475 37.802 2
18.3526 39.0065 3.97733
20.0204 42.8646 0.0230852
17.6114 42.0732 2
14.9945 41.9008 3.97685
17.1513 44.352 0.0228066
15.0123 44.18 2
12.8221 44.3792 3.97374
14.9807 46.0697 0.0246692
13.0637 46.2808 2
11.0353 46.7255 3.96926
13.3749 47.9931 0.0279879
11.5275 48.5407 2
9.53547 49.238 3.96694
12.1498 50.2433 0.032184
10.272 51.0771 2
8.27088 52.0013 3.97057
11.146 52.8323 0.0327042
9.23844 53.8865 2
7.19407 55.0322 3.98122
6.31991 58.3339 4
8.38422 56.978 2
10.3292 55.7073 0.0286799
7.74924 60.3285 2
9.7017 58.8481 0.0200684
9.30605 62.2254 0
13.2959 25.378 3.97211
12.8671 23.2934 3.96704
13.9843 21.7648 2
12.2455 20.5589 3.96747
15.1651 20.2002 0.0344573
13.4615 18.9136 2
11.6635 17.5727 3.9714
14.7564 17.3175 0.0316326
13.0321 15.8904 2
11.2209 14.3743 3.98324
14.4843 14.2961 0.0225084
12.7811 12.6907 2
10.9835 10.9835 4
14.4453 11.1148 0.0114787
12.7745 9.306 2
14.6715 7.74927 0
20.9246 33.4354 3.97585
23.4548 33.838 2
25.7757 34.2888 0.00974252
16.0552 26.4283 3.9719
17.7351 24.069 2
17.9227 22.3464 0.0303169
14.3999 24.4704 2
15.5775 22.9372 0.032216
18.6251 30.2093 3.9749
19.2469 27.2409 2
19.7965 24.4138 0.0296517
21.4927 30.707 2
22.1656 27.8651 0.0273062
24.1161 31.2364 0.023459
17.9639 35.9836 3.97814
20.5659 35.9537 2
22.8686 36.2876 0.0177385
21.0507 40.6372 0.0242578
20.4443 37.8026 0.0230194
18.352 39.0061 2
14.501 39.1712 3.97767
17.6101 42.0732 0.0234334
14.9959 41.9004 2
12.5218 42.2677 3.97422
15.0108 44.1805 0.024186
12.8232 44.379 2
10.6222 44.7951 3.96984
13.0625 46.2811 0.026887
11.0358 46.7252 2
8.91896 47.3173 3.9668
11.5269 48.541 0.0314019
9.53563 49.2377 2
7.43775 50.0349 3.97005
10.2716 51.0774 0.0328266
8.27124 52.0005 2
6.13473 53.0074 3.98158
9.23798 53.8873 0.0290601
7.19353 55.0294 2
5.0241 56.25 4
6.31988 58.3339 2
8.3851 56.9814 0.0195435
7.74927 60.3285 0
13.5613 26.832 3.97165
11.9738 24.7982 3.96867
13.2953 25.3782 2
11.1485 22.2404 3.96714
12.8674 23.2936 2
13.9848 21.765 0.0344213
12.2465 20.5589 2
10.3942 19.3248 3.97171
13.4605 18.9138 0.0328823
11.6643 17.5727 2
9.76228 16.1587 3.98015
13.0317 15.8911 0.0264199
11.2191 14.3773 2
9.30607 12.7746 4
12.7829 12.6885 0.0132663
10.9835 10.9835 2
12.7746 9.30605 0
18.1372 33.1438 3.97726
20.9272 33.4359 2
23.453 33.8301 0.0162217
15.6797 29.6631 3.97426
16.0547 26.4286 2
17.7347 24.069 0.0297407
14.3999 24.4702 0.030538
18.6227 30.2094 2
19.2478 27.2407 0.0280941
21.4907 30.7067 0.0248193
15.118 36.033 3.97786
17.9662 35.9838 2
20.5662 35.9516 0.0228799
12.7438 37.8306 3.97761
18.3526 39.0065 0.0226722
14.5018 39.1711 2
12.0284 40.136 3.97494
14.9945 41.9008 0.0231474
12.5227 42.2675 2
10.2291 42.772 3.97026
12.8221 44.3792 0.0262595
10.6226 44.7949 2
8.39807 45.3193 3.967
11.0353 46.7255 0.0307405
8.91883 47.317 2
6.72897 48.0002 3.96965
9.53547 49.238 0.0330637
7.43794 50.0343 2
5.21155 50.9109 3.98134
8.27088 52.0013 0.0294303
6.13446 53.0055 2
3.86727 54.0858 4
7.19407 55.0322 0.0187792
5.02404 56.25 2
6.31991 58.3339 0
13.0365 29.0499 3.97118
11.4171 26.498 3.969
13.5606 26.8322 2
10.2069 23.9715 3.96728
11.9746 24.7985 2
13.2959 25.378 0.0278863
9.24669 21.1416 3.97058
11.1494 22.2406 2
12.8671 23.2934 0.0329552
12.2455 20.5589 0.0325291
10.3951 19.3252 2
8.41798 18.0297 3.98016
11.6635 17.5727 0.0285977
9.76098 16.1625 2
7.74928 14.6715 4
11.2209 14.3743 0.0167555
9.30602 12.7745 2
10.9835 10.9835 0
14.6756 32.8817 3.97647
18.1353 33.1442 2
20.9246 33.4354 0.0241456
15.6809 29.6636 2
16.0552 26.4283 0.0280962
18.6251 30.2093 0.0251041
13.0364 36.2154 3.97693
15.1189 36.0333 2
17.9639 35.9836 0.0218634
12.7454 37.8306 2
11.3719 38.3092 3.97507
14.501 39.1712 0.0223338
12.0298 40.1358 2
9.81474 40.7507 3.97096
12.5218 42.2677 0.0257774
10.2301 42.7717 2
7.94747 43.2685 3.96732
10.6222 44.7951 0.0301603
8.39811 45.3191 2
6.13501 45.9054 3.96946
8.91896 47.3173 0.0331964
6.72911 47.9997 2
4.42308 48.7516 3.98069
7.43775 50.0349 0.0299523
5.21144 50.9098 2
2.85457 51.8506 4
6.13473 53.0074 0.0184193
3.86727 54.0858 2
5.0241 56.25 0
12.1822 31.2705 3.97243
10.8397 28.4253 3.96921
13.0379 29.0503 2
9.42336 25.8011 3.96731
11.4174 26.4982 2
13.5613 26.832 0.0283483
8.23341 23.025 3.97049
10.2075 23.9717 2
11.9738 24.7982 0.0313288
7.20008 19.9794 3.98064
9.24757 21.1422 2
11.1485 22.2404 0.0328601
10.3942 19.3248 0.0282933
8.41722 18.0335 2
6.31992 16.6661 4
9.76228 16.1587 0.0198528
7.74926 14.6714 2
9.30607 12.7746 0
12.2062 34.304 3.97655
14.6767 32.8821 2
18.1372 33.1438 0.0227369
15.6797 29.6631 0.0257395
10.929 36.6135 3.97441
13.0374 36.2155 2
15.118 36.033 0.022141
12.7438 37.8306 0.0223907
11.3733 38.309 2
9.40563 38.8222 3.97117
12.0284 40.136 0.0250595
9.81559 40.7505 2
7.55854 41.2105 3.96773
10.2291 42.772 0.0297411
7.94694 43.2683 2
5.64689 43.7683 3.9694
8.39807 45.3193 0.033002
6.13513 45.9049 2
3.76864 46.5372 3.98026
6.72897 48.0002 0.0303539
4.42314 48.7511 2
1.99014 49.554 4
5.21155 50.9109 0.0186602
2.85451 51.8506 2
3.86727 54.0858 0
11.0117 32.9284 3.97434
10.1581 30.3911 3.96966
12.1835 31.2708 2
8.73414 27.7347 3.9673
10.8403 28.4255 2
13.0365 29.0499 0.0288167
7.35875 24.9835 3.97013
9.4236 25.8013 2
11.4171 26.498 0.0310025
6.117 22.0025 3.98142
8.23401 23.0256 2
10.2069 23.9715 0.0327185
5.02411 18.75 4
7.19973 19.9824 2
9.24669 21.1416 0.0294163
8.41798 18.0297 0.0198443
6.3199 16.6661 2
7.74928 14.6715 0
10.529 35.0049 3.97429
12.2079 34.3043 2
14.6756 32.8817 0.0235277
9.07007 36.9858 3.97161
10.9304 36.6135 2
13.0364 36.2154 0.0230681
11.3719 38.3092 0.0249334
9.4069 38.8221 2
7.23831 39.182 3.96812
9.81474 40.7507 0.0290353
7.55867 41.2103 2
5.26202 41.614 3.96928
7.94747 43.2685 0.0326821
5.64696 43.7679 2
3.24635 44.2819 3.98021
6.13501 45.9054 0.0305437
3.7688 46.5369 2
1.27781 47.2057 4
4.42308 48.7516 0.0193131
1.99012 49.554 2
2.85457 51.8506 0
10.1641 33.8876 3.97477
9.44158 32.1611 3.97039
11.013 32.9286 2
8.08293 29.698 3.96751
10.1589 30.3913 2
12.1822 31.2705 0.0275723
6.60235 27.0092 3.96987
8.73392 27.7348 2
10.8397 28.4253 0.0307902
5.17236 24.0951 3.98144
7.35905 24.9839 2
9.42336 25.8011 0.0326936
3.86728 20.9142 4
6.11688 22.0044 2
8.23341 23.025 0.0295068
5.02406 18.75 2
7.20008 19.9794 0.0193564
6.31992 16.6661 0
8.89025 35.2822 3.97172
10.53 35.0049 2
12.2062 34.304 0.0234502
7.01958 37.2064 3.96806
9.07077 36.9858 2
10.929 36.6135 0.0255946
9.40563 38.8222 0.0288337
7.23878 39.1819 2
4.98955 39.4674 3.96953
7.55854 41.2105 0.0322742
5.2624 41.6137 2
2.8568 42.0022 3.98017
5.64689 43.7683 0.0306037
3.24642 44.2817 2
0.720592 44.8159 4
3.76864 46.5372 0.0197442
1.27778 47.2057 2
1.99014 49.554 0
8.92918 33.7022 3.97148
10.1652 33.8877 2
7.5191 31.6111 3.96774
9.44257 32.1612 2
11.0117 32.9284 0.0256627
5.94734 29.0701 3.96991
8.08246 29.6981 2
10.1581 30.3911 0.0303389
4.36004 26.2475 3.98091
6.60246 27.0096 2
8.73414 27.7347 0.032702
2.85458 23.1494 4
5.17235 24.0959 2
7.35875 24.9835 0.0298653
3.86728 20.9142 2
6.117 22.0025 0.0185817
5.02411 18.75 0
6.9681 35.307 3.96804
8.89102 35.2822 2
10.529 35.0049 0.025709
4.83967 37.3398 3.96994
7.01982 37.2064 2
9.07007 36.9858 0.0283877
7.23831 39.182 0.0318778
4.98993 39.4672 2
2.60482 39.7138 3.98017
5.26202 41.614 0.030716
2.85711 42.0022 2
0.320823 42.3947 4
3.24635 44.2819 0.0197945
0.720551 44.8159 2
1.27781 47.2057 0
7.12965 33.4623 3.96795
8.92967 33.7022 2
10.1641 33.8876 0.0252333
5.41805 31.1339 3.97008
7.51894 31.6112 2
9.44158 32.1611 0.0296147
3.6817 28.4434 3.9805
5.94741 29.0704 2
8.08293 29.698 0.0324877
1.99015 25.446 4
4.3601 26.2478 2
6.60235 27.0092 0.0301256
2.85453 23.1494 2
5.17236 24.0951 0.0185558
3.86728 20.9142 0
4.85395 35.2517 3.97011
6.96825 35.307 2
8.89025 35.2822 0.0282831
2.49624 37.4284 3.9808
4.83969 37.3399 2
7.01958 37.2064 0.0319397
4.98955 39.4674 0.0304681
2.60521 39.7142 2
0.080333 39.9526 4
2.8568 42.0022 0.0198275
0.320817 42.3947 2
0.720592 44.8159 0
5.04738 33.1904 3.97012
7.12953 33.4624 2
8.92918 33.7022 0.0285159
3.14595 30.6661 3.98041
5.41814 31.1343 2
7.5191 31.6111 0.0322554
1.27793 27.7943 4
3.68186 28.4436 2
5.94734 29.0701 0.0300911
1.99013 25.446 2
4.36004 26.2475 0.0190896
2.85458 23.1494 0
2.54834 35.159 3.98067
4.85442 35.2519 2
6.9681 35.307 0.031959
0 37.5 4
2.49627 37.4289 2
4.83967 37.3398 0.0300599
2.60482 39.7138 0.0198286
0.0802903 39.9526 2
0.320823 42.3947 0
2.76596 32.9057 3.98077
5.04751 33.1908 2
7.12965 33.4623 0.0320518
0.721173 30.1842 4
3.14614 30.6665 2
5.41805 31.1339 0.0299191
1.27779 27.7943 2
3.6817 28.4434 0.0194996
1.99015 25.446 0
0.0806499 35.0474 4
2.5488 35.1594 2
4.85395 35.2517 0.0298884
0 37.5 2
2.49624 37.4284 0.0191971
0.080333 39.9526 0
0.32156 32.6054 4
2.76606 32.9063 2
5.04738 33.1904 0.0298814
0.72056 30.1841 2
3.14595 30.6661 0.0195885
1.27793 27.7943 0
0.0802889 35.0474 2
2.54834 35.159 0.0193332
0 37.5 0
0.320817 32.6053 2
2.76596 32.9057 0.0192254
0.721173 30.1842 0
0.0806499 35.0474 0
0.32156 32.6054 0
CELLS 1910 17190
8 18 6 25 56 2 0 5 16
8 57 23 6 18 17 4 0 2
8 78 36 9 29 31 11 1 7
8 31 11 1 7 79 37 10 30
8 110 57 18 50 48 17 2 14
8 50 18 56 111 14 2 16 49
8 116 62 22 55 52 20 3 15
8 56 25 67 118 16 5 24 53
8 119 63 23 57 54 21 4 17
8 55 22 63 119 15 3 21 54
8 58 26 68 121 18 6 25 56
8 122 65 26 58 57 23 6 18
8 73 31 7 27 142 79 30 71
8 143 78 29 72 73 31 7 27
8 83 147 76 34 32 74 28 8
8 84 148 78 36 33 75 29 9
8 76 34 8 28 148 84 33 75
8 37 79 150 86 10 30 77 35
8 151 87 36 78 80 38 11 31
8 80 38 11 31 152 88 37 79
8 175 100 42 94 96 44 12 40
8 44 96 176 101 12 40 95 43
8 101 176 98 46 43 95 41 13
8 46 98 178 103 13 41 97 45
8 178 103 45 97 147 83 32 74
8 189 116 55 109 106 52 15 47
8 111 56 118 191 49 16 53 107
8 192 119 57 110 108 54 17 48
8 109 55 119 192 47 15 54 108
8 194 122 58 112 110 57 18 50
8 112 58 121 195 50 18 56 111
8 115 61 19 51 197 124 59 113
8 115 61 125 198 51 19 60 114
8 198 125 62 116 114 60 20 52
8 200 127 64 120 116 62 22 55
8 118 67 132 202 53 24 66 117
8 121 68 133 203 56 25 67 118
8 120 64 128 204 55 22 63 119
8 204 128 65 122 119 63 23 57
8 206 134 68 121 123 69 26 58
8 123 69 26 58 207 131 65 122
8 226 147 74 138 140 76 28 70
8 229 148 75 139 143 78 29 72
8 140 76 28 70 229 148 75 139
8 142 79 30 71 231 150 77 141
8 144 80 31 73 232 152 79 142
8 233 151 78 143 144 80 31 73
8 150 86 35 77 235 154 81 145
8 235 154 81 145 146 82 39 91
8 146 82 39 91 236 155 90 165
8 238 157 83 147 149 85 34 76
8 239 158 84 148 151 87 36 78
8 149 85 34 76 239 158 84 148
8 152 88 37 79 241 160 86 150
8 242 161 87 151 153 89 38 80
8 153 89 38 80 243 162 88 152
8 171 98 41 92 265 178 97 169
8 265 178 97 169 226 147 74 138
8 172 96 40 93 266 176 95 170
8 266 176 95 170 171 98 41 92
8 269 175 94 173 172 96 40 93
8 271 180 99 174 175 100 42 94
8 197 124 59 113 271 180 99 174
8 272 181 100 175 177 102 44 96
8 273 182 101 176 179 104 46 98
8 177 102 44 96 273 182 101 176
8 179 104 46 98 275 184 103 178
8 275 184 103 178 238 157 83 147
8 188 115 51 105 283 197 113 186
8 188 115 198 284 105 51 114 187
8 284 198 116 189 187 114 52 106
8 286 200 120 193 189 116 55 109
8 191 118 202 288 107 53 117 190
8 195 121 203 289 111 56 118 191
8 193 120 204 290 109 55 119 192
8 290 204 122 194 192 119 57 110
8 196 123 58 112 292 207 122 194
8 293 206 121 195 196 123 58 112
8 199 126 61 115 297 211 124 197
8 298 212 127 200 198 125 62 116
8 199 126 212 298 115 61 125 198
8 205 129 64 120 300 214 127 200
8 301 217 130 201 202 132 66 117
8 209 136 168 264 301 217 130 201
8 302 219 132 202 203 133 67 118
8 303 220 133 203 206 134 68 121
8 205 129 215 304 120 64 128 204
8 304 215 131 207 204 128 65 122
8 306 221 134 206 208 135 69 123
8 208 135 69 123 307 218 131 207
8 210 137 167 263 309 223 136 209
8 328 238 147 226 230 149 76 140
8 228 146 91 166 329 236 165 260
8 231 150 77 141 330 235 145 227
8 330 235 145 227 228 146 91 166
8 332 239 148 229 233 151 78 143
8 230 149 76 140 332 239 148 229
8 232 152 79 142 334 241 150 231
8 234 153 80 144 335 243 152 232
8 336 242 151 233 234 153 80 144
8 236 155 90 165 338 245 164 259
8 241 160 86 150 339 246 154 235
8 339 246 154 235 237 156 82 146
8 237 156 82 146 340 247 155 236
8 342 249 157 238 240 159 85 149
8 343 250 158 239 242 161 87 151
8 240 159 85 149 343 250 158 239
8 243 162 88 152 345 252 160 241
8 244 163 253 346 153 89 161 242
8 244 163 89 153 347 254 162 243
8 311 224 261 371 210 137 167 263
8 263 167 262 372 209 136 168 264
8 267 179 98 171 375 275 178 265
8 375 275 178 265 328 238 147 226
8 376 273 176 266 267 179 98 171
8 268 177 96 172 376 273 176 266
8 379 272 175 269 268 177 96 172
8 380 271 174 270 269 175 94 173
8 283 197 113 186 380 271 174 270
8 381 277 180 271 272 181 100 175
8 297 211 124 197 381 277 180 271
8 382 278 181 272 274 183 102 177
8 274 183 102 177 383 279 182 273
8 383 279 182 273 276 185 104 179
8 385 281 184 275 342 249 157 238
8 276 185 104 179 385 281 184 275
8 285 199 115 188 393 297 197 283
8 394 298 200 286 284 198 116 189
8 285 199 298 394 188 115 198 284
8 291 205 120 193 396 300 200 286
8 397 301 201 287 288 202 117 190
8 295 209 264 374 397 301 201 287
8 398 302 202 288 289 203 118 191
8 399 303 203 289 293 206 121 195
8 291 205 304 400 193 120 204 290
8 400 304 207 292 290 204 122 194
8 294 208 123 196 402 307 207 292
8 403 306 206 293 294 208 123 196
8 296 210 263 373 405 309 209 295
8 408 312 213 299 297 211 126 199
8 299 213 313 409 199 126 212 298
8 409 313 214 300 298 212 127 200
8 305 216 129 205 411 315 214 300
8 412 318 217 301 302 219 132 202
8 309 223 136 209 412 318 217 301
8 413 320 219 302 303 220 133 203
8 306 221 321 414 206 134 220 303
8 307 218 131 207 415 316 215 304
8 305 216 316 415 205 129 215 304
8 417 322 221 306 308 222 135 208
8 308 222 135 208 418 319 218 307
8 310 225 137 210 420 325 223 309
8 423 326 224 311 310 225 137 210
8 329 236 165 260 441 338 259 368
8 442 342 238 328 333 240 149 230
8 331 237 146 228 443 340 236 329
8 334 241 150 231 444 339 235 330
8 444 339 235 330 331 237 146 228
8 446 343 239 332 336 242 151 233
8 333 240 149 230 446 343 239 332
8 335 243 152 232 448 345 241 334
8 337 244 153 234 449 347 243 335
8 337 244 346 450 234 153 242 336
8 338 245 164 259 452 349 258 367
8 340 247 155 236 453 350 245 338
8 345 252 160 241 454 351 246 339
8 454 351 246 339 341 248 156 237
8 341 248 156 237 455 352 247 340
8 240 159 251 344 342 249 354 457
8 242 161 253 346 343 250 355 458
8 343 250 355 458 240 159 251 344
8 347 254 162 243 460 357 252 345
8 348 255 358 461 244 163 253 346
8 348 255 163 244 462 359 254 347
8 473 360 257 365 363 256 364 482
8 452 349 258 367 365 257 366 485
8 422 324 369 488 311 224 261 371
8 371 261 370 490 263 167 262 372
8 407 311 371 491 296 210 263 373
8 373 263 372 492 295 209 264 374
8 493 385 275 375 442 342 238 328
8 377 276 179 267 493 385 275 375
8 378 274 177 268 494 383 273 376
8 494 383 273 376 377 276 179 267
8 497 382 272 379 378 274 177 268
8 498 381 271 380 379 272 175 269
8 393 297 197 283 498 381 271 380
8 499 387 277 381 382 278 181 272
8 408 312 211 297 499 387 277 381
8 500 388 278 382 384 280 183 274
8 501 389 279 383 386 282 185 276
8 384 280 183 274 501 389 279 383
8 386 282 185 276 503 391 281 385
8 503 391 281 385 457 354 249 342
8 511 408 299 395 393 297 199 285
8 395 299 409 512 285 199 298 394
8 512 409 300 396 394 298 200 286
8 401 305 205 291 514 411 300 396
8 515 412 301 397 398 302 202 288
8 405 309 209 295 515 412 301 397
8 516 413 302 398 399 303 203 289
8 403 306 414 517 293 206 303 399
8 402 307 207 292 518 415 304 400
8 401 305 415 518 291 205 304 400
8 404 308 208 294 520 418 307 402
8 521 417 306 403 404 308 208 294
8 406 310 210 296 523 420 309 405
8 526 423 311 407 406 310 210 296
8 410 314 213 299 527 424 312 408
8 528 425 315 411 409 313 214 300
8 410 314 425 528 299 213 313 409
8 416 317 216 305 530 427 315 411
8 531 430 318 412 413 320 219 302
8 420 325 223 309 531 430 318 412
8 532 432 320 413 414 321 220 303
8 417 322 433 533 306 221 321 414
8 418 319 218 307 534 428 316 415
8 416 317 428 534 305 216 316 415
8 419 323 434 536 308 222 322 417
8 419 323 222 308 537 431 319 418
8 421 327 225 310 539 438 325 420
8 421 327 439 541 310 225 326 423
8 543 437 324 422 423 326 224 311
8 441 338 259 368 559 452 367 486
8 443 340 236 329 560 453 338 441
8 333 240 344 447 442 342 457 561
8 445 341 237 331 562 455 340 443
8 448 345 241 334 563 454 339 444
8 563 454 339 444 445 341 237 331
8 336 242 346 450 446 343 458 565
8 446 343 458 565 333 240 344 447
8 449 347 243 335 567 460 345 448
8 451 348 244 337 568 462 347 449
8 451 348 461 569 337 244 346 450
8 570 463 349 452 473 360 257 365
8 453 350 245 338 570 463 349 452
8 455 352 247 340 571 464 350 453
8 460 357 252 345 572 465 351 454
8 572 465 351 454 456 353 248 341
8 456 353 248 341 573 466 352 455
8 344 251 356 459 457 354 468 575
8 458 355 469 576 344 251 356 459
8 346 253 358 461 458 355 469 576
8 462 359 254 347 578 471 357 460
8 348 255 359 462 461 358 472 579
8 591 474 360 473 475 361 256 363
8 475 361 256 363 594 477 362 479
8 363 256 364 482 479 362 480 603
8 590 473 365 484 481 363 482 605
8 482 364 257 365 606 483 366 485
8 559 452 367 486 484 365 485 607
8 542 436 487 609 422 324 369 488
8 525 422 488 611 407 311 371 491
8 488 369 489 612 371 261 370 490
8 491 371 490 613 373 263 372 492
8 495 386 276 377 614 503 385 493
8 614 503 385 493 561 457 342 442
8 615 501 383 494 495 386 276 377
8 496 384 274 378 615 501 383 494
8 618 500 382 497 496 384 274 378
8 619 499 381 498 497 382 272 379
8 511 408 297 393 619 499 381 498
8 620 505 387 499 500 388 278 382
8 527 424 312 408 620 505 387 499
8 502 390 506 621 384 280 388 500
8 622 507 389 501 504 392 282 386
8 502 390 280 384 622 507 389 501
8 504 392 282 386 624 509 391 503
8 624 509 391 503 575 468 354 457
8 513 410 299 395 630 527 408 511
8 631 528 411 514 512 409 300 396
8 513 410 528 631 395 299 409 512
8 519 416 305 401 633 530 411 514
8 634 531 412 515 516 413 302 398
8 523 420 309 405 634 531 412 515
8 635 532 413 516 517 414 303 399
8 521 417 533 636 403 306 414 517
8 520 418 307 402 637 534 415 518
8 519 416 534 637 401 305 415 518
8 522 419 308 404 639 537 418 520
8 522 419 536 640 404 308 417 521
8 524 421 310 406 642 539 420 523
8 524 421 541 644 406 310 423 526
8 646 543 422 525 526 423 311 407
8 529 426 314 410 647 544 424 527
8 528 425 545 648 411 315 427 530
8 529 426 545 648 410 314 425 528
8 535 429 317 416 649 546 427 530
8 650 548 430 531 532 432 320 413
8 539 438 325 420 650 548 430 531
8 533 433 550 651 414 321 432 532
8 536 434 551 652 417 322 433 533
8 537 431 319 418 653 547 428 534
8 535 429 547 653 416 317 428 534
8 538 435 552 654 419 323 434 536
8 538 435 323 419 655 549 431 537
8 540 440 327 421 657 556 438 539
8 540 440 557 659 421 327 439 541
8 541 439 555 660 423 326 437 543
8 661 554 436 542 543 437 324 422
8 676 570 452 559 590 473 365 484
8 560 453 338 441 676 570 452 559
8 562 455 340 443 677 571 453 560
8 447 344 459 566 561 457 575 678
8 564 456 341 445 679 573 455 562
8 567 460 345 448 680 572 454 563
8 680 572 454 563 564 456 341 445
8 565 458 576 682 447 344 459 566
8 450 346 461 569 565 458 576 682
8 568 462 347 449 684 578 460 567
8 451 348 462 568 569 461 579 685
8 686 580 463 570 591 474 360 473
8 571 464 350 453 686 580 463 570
8 573 466 352 455 687 581 464 571
8 572 465 582 688 460 357 471 578
8 574 467 582 688 456 353 465 572
8 574 467 353 456 689 583 466 573
8 459 356 470 577 575 468 585 691
8 576 469 586 692 459 356 470 577
8 461 358 472 579 576 469 586 692
8 462 359 471 578 579 472 588 694
8 704 591 473 590 593 475 363 481
8 595 476 592 705 475 361 474 591
8 593 475 363 481 707 594 479 602
8 594 477 362 479 709 598 478 600
8 595 476 361 475 711 597 477 594
8 479 362 480 603 600 478 601 720
8 481 363 482 605 602 479 603 722
8 603 480 364 482 723 604 483 606
8 605 482 365 484 724 606 485 607
8 656 553 608 726 542 436 487 609
8 645 542 609 728 525 422 488 611
8 609 487 610 729 488 369 489 612
8 611 488 612 730 491 371 490 613
8 616 504 386 495 731 624 503 614
8 731 624 503 614 678 575 457 561
8 732 622 501 615 616 504 386 495
8 617 502 384 496 732 622 501 615
8 617 502 621 735 496 384 500 618
8 736 620 499 619 618 500 382 497
8 630 527 408 511 736 620 499 619
8 621 506 626 737 500 388 505 620
8 647 544 424 527 737 626 505 620
8 623 508 627 738 502 390 506 621
8 623 508 390 502 739 628 507 622
8 625 510 628 739 504 392 507 622
8 740 629 509 624 691 585 468 575
8 625 510 392 504 740 629 509 624
8 632 529 410 513 744 647 527 630
8 631 528 648 745 514 411 530 633
8 632 529 648 745 513 410 528 631
8 638 535 416 519 746 649 530 633
8 747 650 531 634 635 532 413 516
8 642 539 420 523 747 650 531 634
8 636 533 651 748 517 414 532 635
8 640 536 652 749 521 417 533 636
8 639 537 418 520 750 653 534 637
8 638 535 653 750 519 416 534 637
8 641 538 419 522 751 655 537 639
8 641 538 654 752 522 419 536 640
8 643 540 421 524 753 657 539 642
8 643 540 659 755 524 421 541 644
8 644 541 660 757 526 423 543 646
8 758 661 542 645 646 543 422 525
8 529 426 544 647 648 545 662 759
8 530 427 545 648 649 546 663 760
8 535 429 546 649 653 547 664 761
8 762 666 548 650 651 550 432 532
8 657 556 438 539 762 666 548 650
8 652 551 668 763 533 433 550 651
8 654 552 669 764 536 434 551 652
8 655 549 431 537 765 665 547 653
8 538 435 549 655 654 552 667 766
8 661 554 671 768 542 436 553 656
8 658 558 440 540 769 674 556 657
8 658 558 675 770 540 440 557 659
8 659 557 673 771 541 439 555 660
8 660 555 672 772 543 437 554 661
8 788 686 570 676 704 591 473 590
8 677 571 453 560 788 686 570 676
8 679 573 455 562 789 687 571 677
8 566 459 577 683 678 575 691 790
8 681 574 456 564 791 689 573 679
8 680 572 688 792 567 460 578 684
8 681 574 688 792 564 456 572 680
8 682 576 692 794 566 459 577 683
8 569 461 579 685 682 576 692 794
8 568 462 578 684 685 579 694 796
8 687 581 464 571 798 696 580 686
8 798 696 580 686 705 592 474 591
8 689 583 466 573 799 697 581 687
8 688 582 698 800 578 471 588 694
8 690 584 698 800 574 467 582 688
8 690 584 467 574 801 699 583 689
8 693 587 701 803 577 470 585 691
8 693 587 470 577 804 702 586 692
8 695 589 702 804 579 472 586 692
8 695 589 472 579 805 703 588 694
8 708 595 705 813 593 475 591 704
8 710 596 706 814 595 476 592 705
8 707 594 479 602 816 709 600 719
8 708 595 475 593 817 711 594 707
8 709 598 478 600 819 715 599 717
8 711 597 477 594 820 714 598 709
8 710 596 476 595 822 713 597 711
8 600 478 601 720 717 599 718 832
8 602 479 603 722 719 600 720 834
8 720 601 480 603 835 721 604 723
8 722 603 482 605 836 723 606 724
8 767 670 725 839 656 553 608 726
8 756 656 726 841 645 542 609 728
8 726 608 727 842 609 487 610 729
8 728 609 729 843 611 488 612 730
8 844 740 624 731 790 691 575 678
8 733 625 504 616 844 740 624 731
8 734 623 502 617 845 739 622 732
8 733 625 739 845 616 504 622 732
8 734 623 738 846 617 502 621 735
8 735 621 737 847 618 500 620 736
8 744 647 527 630 847 737 620 736
8 621 506 627 738 737 626 741 848
8 647 544 626 737 759 662 741 848
8 623 508 628 739 738 627 742 849
8 740 629 585 691 850 743 700 802
8 625 510 629 740 739 628 743 850
8 632 529 647 744 745 648 759 854
8 633 530 648 745 746 649 760 855
8 638 535 649 746 750 653 761 856
8 857 762 650 747 748 651 532 635
8 753 657 539 642 857 762 650 747
8 749 652 763 858 636 533 651 748
8 752 654 764 859 640 536 652 749
8 751 655 537 639 860 765 653 750
8 641 538 655 751 752 654 766 861
8 754 658 540 643 862 769 657 753
8 754 658 770 863 643 540 659 755
8 755 659 771 864 644 541 660 757
8 758 661 768 866 645 542 656 756
8 757 660 772 867 646 543 661 758
8 759 662 773 868 648 545 663 760
8 649 546 663 760 761 664 774 871
8 765 665 547 653 872 775 664 761
8 873 777 666 762 763 668 550 651
8 769 674 556 657 873 777 666 762
8 764 669 779 874 652 551 668 763
8 654 552 667 766 764 669 778 875
8 655 549 665 765 766 667 776 876
8 768 671 782 877 656 553 670 767
8 772 672 783 878 661 554 671 768
8 658 558 674 769 770 675 786 879
8 659 557 675 770 771 673 785 881
8 882 784 672 772 771 673 555 660
8 789 687 571 677 897 798 686 788
8 897 798 686 788 813 705 591 704
8 791 689 573 679 898 799 687 789
8 795 693 803 900 683 577 691 790
8 793 690 574 681 901 801 689 791
8 792 688 800 902 684 578 694 796
8 793 690 800 902 681 574 688 792
8 795 693 577 683 903 804 692 794
8 797 695 804 903 685 579 692 794
8 797 695 579 685 904 805 694 796
8 905 806 697 799 798 696 581 687
8 814 706 806 905 705 592 696 798
8 689 583 697 799 801 699 808 907
8 800 698 809 908 694 588 703 805
8 690 584 699 801 800 698 809 908
8 803 701 810 909 691 585 700 802
8 693 587 702 804 803 701 811 910
8 695 589 703 805 804 702 812 911
8 818 710 814 919 708 595 705 813
8 821 712 815 920 710 596 706 814
8 816 709 600 719 922 819 717 831
8 817 711 594 707 923 820 709 816
8 818 710 595 708 924 822 711 817
8 819 715 599 717 926 827 716 829
8 820 714 598 709 927 826 715 819
8 929 825 713 822 820 714 597 711
8 821 712 596 710 930 824 713 822
8 717 599 718 832 829 716 830 942
8 719 600 720 834 831 717 832 944
8 832 718 601 720 945 833 721 835
8 834 720 603 722 946 835 723 836
8 869 780 838 950 767 670 725 839
8 865 767 839 952 756 656 726 841
8 839 725 840 953 726 608 727 842
8 841 726 842 954 728 609 729 843
8 844 740 691 790 955 850 802 899
8 733 625 740 844 845 739 850 955
8 734 623 739 845 846 738 849 956
8 735 621 738 846 847 737 848 957
8 744 647 737 847 854 759 848 957
8 738 627 742 849 848 741 851 958
8 848 741 851 958 759 662 773 868
8 850 743 700 802 959 852 807 906
8 849 742 628 739 959 852 743 850
8 854 759 868 965 745 648 760 855
8 746 649 760 855 856 761 871 966
8 860 765 653 750 967 872 761 856
8 968 873 762 857 858 763 651 748
8 862 769 657 753 968 873 762 857
8 859 764 874 969 749 652 763 858
8 752 654 766 861 859 764 875 970
8 751 655 765 860 861 766 876 971
8 754 658 769 862 863 770 879 972
8 755 659 770 863 864 771 881 974
8 976 882 772 867 864 771 660 757
8 866 768 877 977 756 656 767 865
8 867 772 878 978 758 661 768 866
8 760 663 773 868 871 774 883 980
8 870 781 837 948 982 890 780 869
8 982 890 780 869 877 782 670 767
8 761 664 774 871 872 775 884 984
8 876 776 665 765 985 885 775 872
8 873 777 668 763 986 887 779 874
8 769 674 777 873 879 786 887 986
8 764 669 778 875 874 779 888 987
8 766 667 776 876 875 778 886 988
8 878 783 892 989 768 671 782 877
8 878 783 672 772 990 893 784 882
8 880 787 675 770 991 896 786 879
8 880 787 895 992 770 675 785 881
8 881 785 894 993 771 673 784 882
8 1006 905 799 898 897 798 687 789
8 919 814 905 1006 813 705 798 897
8 791 689 799 898 901 801 907 1007
8 900 803 909 1009 790 691 802 899
8 795 693 804 903 900 803 910 1010
8 902 800 908 1011 796 694 805 904
8 793 690 801 901 902 800 908 1011
8 797 695 805 904 903 804 911 1012
8 799 697 806 905 907 808 912 1013
8 920 815 912 1013 814 706 806 905
8 802 700 810 909 906 807 913 1014
8 801 699 808 907 908 809 914 1015
8 805 703 809 908 911 812 915 1016
8 803 701 811 910 909 810 916 1017
8 911 812 917 1018 804 702 811 910
8 925 821 920 1030 818 710 814 919
8 928 823 921 1031 821 712 815 920
8 922 819 717 831 1033 926 829 941
8 923 820 709 816 1034 927 819 922
8 1035 929 822 924 923 820 711 817
8 925 821 710 818 1036 930 822 924
8 1038 933 825 929 927 826 714 820
8 926 827 716 829 1039 935 828 939
8 927 826 715 819 1040 934 827 926
8 928 823 712 821 1041 931 824 930
8 1042 932 824 930 929 825 713 822
8 829 716 830 942 939 828 940 1058
8 831 717 832 944 941 829 942 1060
8 942 830 718 832 1061 943 833 945
8 944 832 720 834 1062 945 835 946
8 981 889 947 1064 870 781 837 948
8 948 837 949 1067 869 780 838 950
8 975 869 950 1069 865 767 839 952
8 950 838 951 1070 839 725 840 953
8 952 839 953 1071 841 726 842 954
8 955 850 802 899 1072 959 906 1008
8 956 849 739 845 1072 959 850 955
8 846 738 849 956 957 848 958 1073
8 957 848 958 1073 854 759 868 965
8 849 742 852 959 958 851 961 1076
8 960 853 961 1076 906 807 852 959
8 958 851 961 1076 868 773 883 980
8 960 853 807 906 1077 963 913 1014
8 855 760 868 965 966 871 980 1085
8 856 761 871 966 967 872 984 1086
8 971 876 765 860 1087 985 872 967
8 968 873 763 858 1088 986 874 969
8 862 769 873 968 972 879 986 1088
8 859 764 875 970 969 874 987 1089
8 861 766 876 971 970 875 988 1090
8 973 880 770 863 1091 991 879 972
8 973 880 992 1092 863 770 881 974
8 974 881 993 1093 864 771 882 976
8 979 870 948 1066 1094 982 869 975
8 1094 982 869 975 977 877 767 865
8 978 878 772 867 1095 990 882 976
8 978 878 989 1096 866 768 877 977
8 871 774 883 980 984 884 994 1099
8 983 891 999 1100 870 781 889 981
8 1101 1000 890 982 989 892 782 877
8 983 891 781 870 1101 1000 890 982
8 872 775 884 984 985 885 995 1103
8 876 776 885 985 988 886 996 1104
8 986 887 779 874 1105 998 888 987
8 879 786 887 986 991 896 998 1105
8 875 778 886 988 987 888 997 1106
8 990 893 1002 1107 878 783 892 989
8 1108 1003 893 990 993 894 784 882
8 880 787 896 991 992 895 1005 1109
8 993 894 785 881 1110 1004 895 992
8 898 799 905 1006 1007 907 1013 1120
8 1030 920 1013 1120 919 814 905 1006
8 901 801 907 1007 1011 908 1015 1121
8 899 802 909 1009 1008 906 1014 1122
8 900 803 910 1010 1009 909 1017 1123
8 1012 911 1018 1124 903 804 910 1010
8 904 805 908 1011 1012 911 1016 1125
8 1013 912 1020 1127 907 808 914 1015
8 1031 921 1020 1127 920 815 912 1013
8 1019 918 962 1075 1128 1021 913 1014
8 1128 1021 913 1014 1017 916 810 909
8 1015 914 1022 1129 908 809 915 1016
8 1016 915 1023 1130 911 812 917 1018
8 1018 917 1024 1131 910 811 916 1017
8 1037 928 1031 1148 925 821 920 1030
8 928 823 931 1041 1031 921 1032 1149
8 1033 926 829 941 1151 1039 939 1057
8 1034 927 819 922 1152 1040 926 1033
8 1153 1038 929 1035 1034 927 820 923
8 1154 1042 930 1036 1035 929 822 924
8 1037 928 821 925 1155 1041 930 1036
8 1039 935 828 939 1156 1047 938 1055
8 1157 1043 932 1042 1038 933 825 929
8 1038 933 826 927 1158 1045 934 1040
8 1040 934 827 926 1159 1046 935 1039
8 930 824 932 1042 1041 931 1044 1160
8 1051 936 1048 1165 1175 1052 937 1053
8 1156 1047 938 1055 1053 937 1054 1178
8 939 828 940 1058 1055 938 1056 1181
8 941 829 942 1060 1057 939 1058 1183
8 942 830 943 1061 1058 940 1059 1184
8 1060 942 832 944 1185 1061 945 1062
8 1082 964 1063 1188 981 889 947 1064
8 1097 981 1064 1190 979 870 948 1066
8 1064 947 1065 1191 948 837 949 1067
8 1066 948 1067 1193 975 869 950 1069
8 1067 949 1068 1194 950 838 951 1070
8 1069 950 1070 1195 952 839 953 1071
8 956 849 959 1072 1073 958 1076 1197
8 1074 960 1076 1197 1008 906 959 1072
8 1073 958 1076 1197 965 868 980 1085
8 1074 960 906 1008 1198 1077 1014 1122
8 1133 1026 1079 1199 1019 918 962 1075
8 1077 963 913 1014 1200 1080 962 1075
8 960 853 963 1077 1076 961 1078 1201
8 980 883 961 1076 1099 994 1078 1201
8 1210 1083 964 1082 1100 999 889 981
8 966 871 980 1085 1086 984 1099 1215
8 967 872 984 1086 1087 985 1103 1216
8 971 876 985 1087 1090 988 1104 1217
8 1088 986 874 969 1218 1105 987 1089
8 972 879 986 1088 1091 991 1105 1218
8 970 875 988 1090 1089 987 1106 1219
8 973 880 991 1091 1092 992 1109 1220
8 1093 993 881 974 1221 1110 992 1092
8 1222 1108 990 1095 1093 993 882 976
8 1223 1101 982 1094 1096 989 877 977
8 1098 983 870 979 1223 1101 982 1094
8 1095 990 1107 1224 978 878 989 1096
8 1098 983 1100 1225 979 870 981 1097
8 984 884 994 1099 1103 995 1111 1227
8 1102 1001 1115 1228 983 891 999 1100
8 1101 1000 892 989 1229 1116 1002 1107
8 1102 1001 891 983 1229 1116 1000 1101
8 985 885 995 1103 1104 996 1112 1230
8 988 886 996 1104 1106 997 1113 1231
8 1105 998 888 987 1232 1114 997 1106
8 991 896 998 1105 1109 1005 1114 1232
8 1108 1003 1117 1233 990 893 1002 1107
8 1108 1003 894 993 1233 1117 1004 1110
8 992 895 1005 1109 1110 1004 1118 1234
8 1120 1013 1127 1244 1007 907 1015 1121
8 1148 1031 1127 1244 1030 920 1013 1120
8 1121 1015 1129 1245 1011 908 1016 1125
8 1126 1019 1075 1196 1246 1128 1014 1122
8 1246 1128 1014 1122 1123 1017 909 1009
8 1124 1018 1131 1247 1010 910 1017 1123
8 1125 1016 1130 1248 1012 911 1018 1124
8 1127 1020 1137 1254 1015 914 1022 1129
8 1031 921 1032 1149 1127 1020 1137 1254
8 1134 1027 918 1019 1257 1140 1021 1128
8 1257 1140 1021 1128 1131 1024 916 1017
8 1129 1022 1141 1258 1016 915 1023 1130
8 1130 1023 1142 1259 1018 917 1024 1131
8 1261 1144 1025 1132 1133 1026 1079 1199
8 1255 1138 1025 1132 1135 1028 1144 1261
8 1133 1026 918 1019 1262 1145 1027 1134
8 1136 1029 1139 1256 1263 1146 1028 1135
8 1037 928 1041 1155 1148 1031 1149 1275
8 1041 931 1044 1160 1149 1032 1150 1276
8 1151 1039 939 1057 1278 1156 1055 1180
8 1152 1040 926 1033 1279 1159 1039 1151
8 1153 1038 927 1034 1280 1158 1040 1152
8 1281 1157 1042 1154 1153 1038 929 1035
8 1036 930 1042 1154 1155 1041 1160 1282
8 1283 1164 1046 1159 1156 1047 935 1039
8 1165 1048 1164 1283 1053 937 1047 1156
8 1157 1043 933 1038 1284 1161 1045 1158
8 1157 1043 1161 1284 1042 932 1044 1160
8 1040 934 1046 1159 1158 1045 1163 1285
8 1166 1049 1167 1292 1051 936 1048 1165
8 1166 1049 936 1051 1293 1168 1050 1172
8 1051 936 1052 1175 1172 1050 1173 1306
8 1174 1051 1165 1290 1308 1175 1053 1177
8 1053 937 1054 1178 1175 1052 1176 1309
8 1278 1156 1055 1180 1177 1053 1178 1311
8 1055 938 1056 1181 1178 1054 1179 1312
8 1057 939 1058 1183 1180 1055 1181 1314
8 1058 940 1059 1184 1181 1056 1182 1315
8 1060 942 1061 1185 1183 1058 1184 1316
8 1208 1081 1187 1321 1082 964 1063 1188
8 1209 1082 1188 1322 1097 981 1064 1190
8 1188 1063 1189 1323 1064 947 1065 1191
8 1190 1064 1191 1325 1066 948 1067 1193
8 1191 1065 1192 1326 1067 949 1068 1194
8 1067 1193 1069 950 1194 1327 1195 1070
8 1250 1133 1199 1330 1126 1019 1075 1196
8 1198 1077 1014 1122 1331 1200 1075 1196
8 1074 960 1077 1198 1197 1076 1201 1332
8 1085 980 1076 1197 1215 1099 1201 1332
8 1199 1079 1203 1333 1075 962 1080 1200
8 1132 1025 1119 1243 1199 1079 1203 1333
8 1201 1078 963 1077 1334 1202 1080 1200
8 1099 994 1078 1201 1227 1111 1202 1334
8 1343 1207 1081 1208 1210 1083 964 1082
8 1214 1084 1186 1319 1343 1207 1081 1208
8 1345 1210 1082 1209 1225 1100 981 1097
8 1346 1211 1083 1210 1228 1115 999 1100
8 1086 984 1099 1215 1216 1103 1227 1352
8 1087 985 1103 1216 1217 1104 1230 1353
8 1090 988 1104 1217 1219 1106 1231 1354
8 1218 1105 987 1089 1355 1232 1106 1219
8 1091 991 1105 1218 1220 1109 1232 1355
8 1092 992 1109 1220 1221 1110 1234 1356
8 1222 1108 1233 1357 1095 990 1107 1224
8 1222 1108 993 1093 1357 1233 1110 1221
8 1223 1101 989 1096 1358 1229 1107 1224
8 1226 1102 983 1098 1358 1229 1101 1223
8 1226 1102 1228 1359 1098 983 1100 1225
8 1103 995 1111 1227 1230 1112 1235 1360
8 1107 1002 1117 1233 1229 1116 1240 1362
8 1102 1001 1116 1229 1228 1115 1240 1362
8 1104 996 1112 1230 1231 1113 1236 1363
8 1364 1237 1114 1232 1231 1113 997 1106
8 1109 1005 1114 1232 1234 1118 1238 1365
8 1110 1004 1118 1234 1233 1117 1241 1366
8 1242 1374 1255 1138 1119 1243 1132 1025
8 1244 1127 1254 1376 1121 1015 1129 1245
8 1148 1031 1149 1275 1244 1127 1254 1376
8 1245 1129 1258 1377 1125 1016 1130 1248
8 1251 1134 1019 1126 1378 1257 1128 1246
8 1378 1257 1128 1246 1247 1131 1017 1123
8 1248 1130 1259 1379 1124 1018 1131 1247
8 1261 1381 1250 1133 1132 1249 1330 1199
8 1255 1380 1252 1135 1132 1249 1381 1261
8 1250 1133 1019 1126 1382 1262 1134 1251
8 1253 1136 1256 1385 1384 1263 1135 1252
8 1254 1137 1265 1387 1129 1022 1141 1258
8 1149 1032 1150 1276 1254 1137 1265 1387
8 1028 1135 1255 1138 1139 1256 1388 1266
8 1136 1029 1147 1264 1256 1139 1267 1389
8 1390 1268 1140 1257 1259 1142 1024 1131
8 1260 1143 1027 1134 1390 1268 1140 1257
8 1258 1141 1269 1391 1130 1023 1142 1259
8 1262 1145 1027 1134 1393 1271 1143 1260
8 1261 1144 1026 1133 1394 1272 1145 1262
8 1135 1028 1144 1261 1263 1146 1272 1394
8 1136 1029 1146 1263 1264 1147 1273 1395
8 1155 1041 1160 1282 1275 1149 1276 1405
8 1276 1150 1044 1160 1406 1277 1162 1286
8 1408 1283 1159 1279 1278 1156 1039 1151
8 1290 1165 1283 1408 1177 1053 1156 1278
8 1152 1040 1159 1279 1280 1158 1285 1409
8 1281 1157 1038 1153 1410 1284 1158 1280
8 1281 1157 1284 1410 1154 1042 1160 1282
8 1159 1046 1164 1283 1285 1163 1289 1412
8 1292 1167 1289 1412 1165 1048 1164 1283
8 1158 1045 1163 1285 1284 1161 1288 1413
8 1284 1161 1288 1413 1160 1044 1162 1286
8 1291 1166 1292 1418 1174 1051 1165 1290
8 1291 1166 1051 1174 1419 1293 1172 1305
8 1294 1169 1296 1421 1166 1049 1167 1292
8 1293 1168 1050 1172 1422 1295 1171 1303
8 1294 1169 1049 1166 1423 1297 1168 1293
8 1422 1295 1171 1303 1301 1170 1302 1435
8 1172 1050 1173 1306 1303 1171 1304 1438
8 1174 1051 1175 1308 1305 1172 1306 1440
8 1175 1052 1176 1309 1306 1173 1307 1441
8 1177 1053 1178 1311 1308 1175 1309 1443
8 1178 1054 1179 1312 1309 1176 1310 1444
8 1180 1055 1181 1314 1311 1178 1312 1446
8 1056 1181 1312 1179 1182 1315 1447 1313
8 1183 1058 1184 1316 1314 1181 1315 1448
8 1319 1186 1084 1214 1451 1317 1213 1350
8 1319 1186 1318 1453 1208 1081 1187 1321
8 1321 1187 1320 1456 1188 1063 1189 1323
8 1344 1208 1321 1457 1209 1082 1188 1322
8 1322 1188 1323 1458 1190 1064 1191 1325
8 1323 1189 1324 1459 1191 1065 1192 1326
8 1191 1325 1193 1067 1326 1460 1327 1194
8 1242 1374 1243 1119 1328 1462 1335 1204
8 1330 1199 1333 1465 1196 1075 1200 1331
8 1132 1249 1330 1199 1243 1375 1465 1333
8 1332 1201 1077 1198 1466 1334 1200 1331
8 1215 1099 1201 1332 1352 1227 1334 1466
8 1119 1243 1333 1203 1204 1335 1470 1338
8 1333 1203 1338 1470 1200 1080 1202 1334
8 1227 1111 1202 1334 1360 1235 1338 1470
8 1328 1462 1335 1204 1205 1336 1471 1339
8 1337 1206 1340 1472 1464 1329 1205 1336
8 1346 1211 1342 1479 1210 1083 1207 1343
8 1346 1211 1115 1228 1479 1342 1239 1361
8 1348 1212 1084 1214 1479 1342 1207 1343
8 1480 1343 1208 1344 1345 1210 1082 1209
8 1351 1214 1319 1454 1480 1343 1208 1344
8 1481 1346 1210 1345 1359 1228 1100 1225
8 1348 1212 1347 1483 1214 1084 1213 1350
8 1216 1103 1227 1352 1353 1230 1360 1488
8 1217 1104 1230 1353 1354 1231 1363 1489
8 1490 1364 1232 1355 1354 1231 1106 1219
8 1220 1109 1232 1355 1356 1234 1365 1491
8 1221 1110 1234 1356 1357 1233 1366 1492
8 1224 1107 1233 1357 1358 1229 1362 1493
8 1226 1102 1229 1358 1359 1228 1362 1493
8 1230 1112 1235 1360 1363 1236 1367 1496
8 1361 1239 1115 1228 1497 1371 1240 1362
8 1366 1241 1372 1498 1233 1117 1240 1362
8 1364 1237 1113 1231 1499 1368 1236 1363
8 1364 1237 1368 1499 1232 1114 1238 1365
8 1234 1118 1238 1365 1366 1241 1369 1500
8 1507 1373 1242 1374 1388 1266 1138 1255
8 1508 1374 1243 1375 1380 1255 1132 1249
8 1376 1254 1387 1509 1245 1129 1258 1377
8 1275 1149 1276 1405 1376 1254 1387 1509
8 1377 1258 1391 1510 1248 1130 1259 1379
8 1511 1390 1257 1378 1379 1259 1131 1247
8 1383 1260 1134 1251 1511 1390 1257 1378
8 1252 1135 1256 1385 1380 1255 1388 1512
8 1261 1381 1513 1394 1133 1250 1382 1262
8 1135 1252 1384 1263 1261 1381 1513 1394
8 1382 1262 1134 1251 1514 1393 1260 1383
8 1253 1136 1263 1384 1386 1264 1395 1516
8 1253 1136 1264 1386 1385 1256 1389 1517
8 1387 1265 1397 1519 1258 1141 1269 1391
8 1276 1150 1277 1406 1387 1265 1397 1519
8 1256 1139 1267 1389 1388 1266 1398 1520
8 1264 1147 1274 1396 1389 1267 1399 1521
8 1392 1270 1143 1260 1522 1400 1268 1390
8 1390 1268 1142 1259 1522 1400 1269 1391
8 1392 1270 1401 1523 1260 1143 1271 1393
8 1272 1394 1524 1402 1145 1262 1393 1271
8 1395 1273 1146 1263 1524 1402 1272 1394
8 1273 1395 1264 1147 1403 1526 1396 1274
8 1405 1276 1160 1282 1534 1406 1286 1411
8 1414 1287 1407 1535 1286 1162 1277 1406
8 1279 1159 1283 1408 1409 1285 1412 1537
8 1418 1292 1412 1537 1290 1165 1283 1408
8 1280 1158 1285 1409 1410 1284 1413 1538
8 1410 1284 1413 1538 1282 1160 1286 1411
8 1285 1163 1289 1412 1413 1288 1417 1540
8 1421 1296 1417 1540 1292 1167 1289 1412
8 1414 1287 1162 1286 1541 1416 1288 1413
8 1420 1294 1421 1545 1291 1166 1292 1418
8 1419 1293 1172 1305 1546 1422 1303 1437
8 1420 1294 1166 1291 1547 1423 1293 1419
8 1294 1169 1297 1423 1421 1296 1425 1548
8 1423 1297 1168 1293 1549 1424 1295 1422
8 1301 1170 1298 1427 1422 1295 1424 1549
8 1432 1300 1428 1554 1301 1170 1298 1427
8 1431 1299 1428 1554 1560 1430 1300 1432
8 1563 1433 1300 1432 1435 1302 1170 1301
8 1546 1422 1303 1437 1434 1301 1435 1565
8 1303 1171 1304 1438 1435 1302 1436 1566
8 1305 1172 1306 1440 1437 1303 1438 1568
8 1306 1173 1307 1441 1438 1304 1439 1569
8 1308 1175 1309 1443 1440 1306 1441 1571
8 1309 1176 1310 1444 1441 1307 1442 1572
8 1311 1178 1312 1446 1443 1309 1444 1574
8 1179 1312 1444 1310 1313 1447 1575 1445
8 1314 1181 1315 1448 1446 1312 1447 1576
8 1350 1213 1349 1486 1451 1317 1449 1579
8 1451 1317 1450 1581 1319 1186 1318 1453
8 1454 1319 1214 1351 1582 1451 1350 1487
8 1453 1318 1452 1584 1321 1187 1320 1456
8 1454 1319 1453 1585 1344 1208 1321 1457
8 1456 1320 1455 1586 1323 1189 1324 1459
8 1457 1321 1456 1587 1322 1188 1323 1458
8 1458 1323 1459 1588 1325 1191 1326 1460
8 1205 1336 1464 1329 1328 1462 1590 1461
8 1507 1373 1461 1590 1374 1242 1328 1462
8 1508 1374 1462 1591 1375 1243 1335 1467
8 1337 1206 1329 1464 1473 1341 1463 1594
8 1375 1243 1335 1467 1465 1333 1470 1596
8 1465 1333 1470 1596 1331 1200 1334 1466
8 1352 1227 1334 1466 1488 1360 1470 1596
8 1591 1462 1336 1468 1467 1335 1471 1597
8 1469 1337 1472 1598 1595 1464 1336 1468
8 1471 1339 1474 1600 1335 1204 1338 1470
8 1600 1474 1367 1496 1470 1338 1235 1360
8 1336 1205 1340 1472 1471 1339 1475 1601
8 1337 1206 1341 1473 1472 1340 1476 1602
8 1495 1370 1478 1609 1361 1239 1342 1479
8 1348 1212 1342 1479 1483 1347 1478 1609
8 1481 1346 1479 1610 1345 1210 1343 1480
8 1481 1346 1228 1359 1610 1479 1361 1494
8 1484 1348 1214 1351 1610 1479 1343 1480
8 1483 1347 1482 1612 1350 1213 1349 1486
8 1484 1348 1483 1613 1351 1214 1350 1487
8 1353 1230 1360 1488 1489 1363 1496 1616
8 1490 1364 1231 1354 1617 1499 1363 1489
8 1490 1364 1499 1617 1355 1232 1365 1491
8 1356 1234 1365 1491 1492 1366 1500 1619
8 1492 1366 1498 1620 1357 1233 1362 1493
8 1494 1361 1228 1359 1621 1497 1362 1493
8 1495 1370 1239 1361 1622 1504 1371 1497
8 1363 1236 1367 1496 1499 1368 1501 1623
8 1497 1371 1240 1362 1624 1505 1372 1498
8 1625 1503 1372 1498 1500 1369 1241 1366
8 1365 1238 1368 1499 1500 1369 1502 1626
8 1520 1398 1506 1633 1388 1266 1373 1507
8 1634 1507 1374 1508 1512 1388 1255 1380
8 1509 1387 1519 1635 1377 1258 1391 1510
8 1405 1276 1406 1534 1509 1387 1519 1635
8 1515 1392 1260 1383 1636 1522 1390 1511
8 1511 1390 1259 1379 1636 1522 1391 1510
8 1385 1256 1389 1517 1512 1388 1520 1637
8 1513 1394 1262 1382 1638 1524 1393 1514
8 1395 1516 1638 1524 1263 1384 1513 1394
8 1515 1392 1523 1639 1383 1260 1393 1514
8 1516 1395 1526 1640 1386 1264 1396 1518
8 1386 1264 1396 1518 1517 1389 1521 1641
8 1519 1397 1527 1643 1391 1269 1400 1522
8 1535 1407 1527 1643 1406 1277 1397 1519
8 1389 1267 1399 1521 1520 1398 1528 1644
8 1645 1529 1399 1521 1525 1404 1274 1396
8 1392 1270 1400 1522 1523 1401 1531 1646
8 1524 1402 1271 1393 1648 1532 1401 1523
8 1403 1526 1648 1532 1273 1395 1524 1402
8 1525 1404 1274 1396 1649 1533 1403 1526
8 1539 1414 1535 1657 1411 1286 1406 1534
8 1542 1415 1536 1658 1414 1287 1407 1535
8 1409 1285 1412 1537 1538 1413 1540 1660
8 1545 1421 1540 1660 1418 1292 1412 1537
8 1539 1414 1286 1411 1661 1541 1413 1538
8 1540 1417 1544 1663 1413 1288 1416 1541
8 1421 1296 1425 1548 1540 1417 1544 1663
8 1542 1415 1287 1414 1664 1543 1416 1541
8 1420 1294 1423 1547 1545 1421 1548 1666
8 1547 1423 1293 1419 1667 1549 1422 1546
8 1434 1301 1427 1553 1546 1422 1549 1667
8 1423 1297 1424 1549 1548 1425 1550 1668
8 1551 1426 1550 1668 1427 1298 1424 1549
8 1551 1426 1298 1427 1671 1552 1428 1554
8 1562 1432 1554 1674 1434 1301 1427 1553
8 1431 1299 1429 1558 1554 1428 1555 1675
8 1431 1299 1430 1560 1558 1429 1557 1680
8 1560 1430 1300 1432 1683 1559 1433 1563
8 1561 1431 1554 1674 1684 1560 1432 1562
8 1685 1563 1432 1562 1565 1435 1301 1434
8 1435 1302 1436 1566 1563 1433 1564 1686
8 1437 1303 1438 1568 1565 1435 1566 1688
8 1438 1304 1439 1569 1566 1436 1567 1689
8 1440 1306 1441 1571 1568 1438 1569 1691
8 1441 1307 1442 1572 1569 1439 1570 1692
8 1443 1309 1444 1574 1571 1441 1572 1694
8 1310 1444 1572 1442 1445 1575 1695 1573
8 1446 1312 1447 1576 1574 1444 1575 1696
8 1486 1349 1485 1614 1579 1449 1577 1699
8 1451 1317 1449 1579 1581 1450 1578 1701
8 1487 1350 1486 1615 1582 1451 1579 1702
8 1581 1450 1580 1704 1453 1318 1452 1584
8 1582 1451 1581 1705 1454 1319 1453 1585
8 1584 1452 1583 1706 1456 1320 1455 1586
8 1585 1453 1584 1707 1457 1321 1456 1587
8 1587 1456 1586 1708 1458 1323 1459 1588
8 1633 1506 1589 1710 1507 1373 1461 1590
8 1464 1329 1461 1590 1594 1463 1589 1710
8 1468 1336 1462 1591 1595 1464 1590 1711
8 1634 1507 1590 1711 1508 1374 1462 1591
8 1473 1341 1463 1594 1603 1477 1593 1716
8 1469 1337 1464 1595 1599 1473 1594 1717
8 1471 1597 1467 1335 1600 1718 1596 1470
8 1718 1600 1496 1616 1596 1470 1360 1488
8 1336 1468 1597 1471 1472 1598 1719 1601
8 1469 1337 1473 1599 1598 1472 1602 1720
8 1722 1604 1501 1623 1600 1474 1367 1496
8 1475 1601 1471 1339 1604 1722 1600 1474
8 1602 1476 1605 1723 1472 1340 1475 1601
8 1476 1602 1724 1606 1341 1473 1603 1477
8 1483 1347 1478 1609 1612 1482 1608 1731
8 1495 1370 1504 1622 1609 1478 1608 1731
8 1618 1495 1609 1732 1494 1361 1479 1610
8 1484 1348 1479 1610 1613 1483 1609 1732
8 1486 1349 1482 1612 1614 1485 1611 1733
8 1613 1483 1612 1734 1487 1350 1486 1615
8 1489 1363 1496 1616 1617 1499 1623 1736
8 1491 1365 1499 1617 1619 1500 1626 1737
8 1618 1495 1361 1494 1738 1622 1497 1621
8 1739 1625 1498 1620 1619 1500 1366 1492
8 1621 1497 1362 1493 1740 1624 1498 1620
8 1742 1631 1504 1622 1624 1505 1371 1497
8 1743 1628 1502 1626 1623 1501 1368 1499
8 1744 1630 1505 1624 1625 1503 1372 1498
8 1745 1629 1503 1625 1626 1502 1369 1500
8 1520 1398 1528 1644 1633 1506 1632 1751
8 1637 1520 1633 1752 1512 1388 1507 1634
8 1635 1519 1643 1753 1510 1391 1522 1636
8 1657 1535 1643 1753 1534 1406 1519 1635
8 1515 1392 1522 1636 1639 1523 1646 1754
8 1517 1389 1521 1641 1637 1520 1644 1755
8 1524 1638 1756 1648 1393 1514 1639 1523
8 1640 1526 1395 1516 1756 1648 1524 1638
8 1642 1525 1396 1518 1757 1649 1526 1640
8 1758 1645 1521 1641 1642 1525 1396 1518
8 1646 1531 1400 1522 1760 1650 1527 1643
8 1535 1407 1536 1658 1643 1527 1650 1760
8 1521 1399 1529 1645 1644 1528 1651 1761
8 1647 1530 1652 1762 1525 1404 1529 1645
8 1401 1523 1648 1532 1531 1646 1763 1655
8 1525 1404 1533 1649 1647 1530 1654 1765
8 1533 1649 1766 1656 1403 1526 1648 1532
8 1662 1542 1658 1774 1539 1414 1535 1657
8 1542 1415 1543 1664 1658 1536 1659 1775
8 1660 1540 1663 1777 1538 1413 1541 1661
8 1545 1421 1548 1666 1660 1540 1663 1777
8 1662 1542 1414 1539 1778 1664 1541 1661
8 1664 1543 1416 1541 1779 1665 1544 1663
8 1548 1425 1550 1668 1663 1544 1665 1779
8 1547 1423 1549 1667 1666 1548 1668 1781
8 1670 1551 1668 1781 1553 1427 1549 1667
8 1551 1426 1552 1671 1668 1550 1669 1782
8 1670 1551 1427 1553 1784 1671 1554 1674
8 1675 1555 1672 1785 1554 1428 1552 1671
8 1678 1556 1673 1789 1558 1429 1555 1675
8 1561 1431 1558 1681 1674 1554 1675 1790
8 1794 1677 1556 1678 1680 1557 1429 1558
8 1560 1430 1559 1683 1680 1557 1679 1797
8 1561 1431 1560 1684 1681 1558 1680 1798
8 1563 1433 1564 1686 1683 1559 1682 1800
8 1684 1560 1432 1562 1801 1683 1563 1685
8 1565 1435 1566 1688 1685 1563 1686 1802
8 1566 1436 1567 1689 1686 1564 1687 1803
8 1568 1438 1569 1691 1688 1566 1689 1805
8 1569 1439 1570 1692 1689 1567 1690 1806
8 1571 1441 1572 1694 1691 1569 1692 1808
8 1442 1572 1692 1570 1573 1695 1809 1693
8 1574 1444 1575 1696 1694 1572 1695 1810
8 1614 1485 1592 1712 1699 1577 1697 1813
8 1579 1449 1577 1699 1701 1578 1698 1815
8 1615 1486 1614 1735 1702 1579 1699 1816
8 1701 1578 1700 1818 1581 1450 1580 1704
8 1582 1451 1579 1702 1705 1581 1701 1819
8 1704 1580 1703 1820 1584 1452 1583 1706
8 1705 1581 1704 1821 1585 1453 1584 1707
8 1707 1584 1706 1822 1587 1456 1586 1708
8 1710 1589 1506 1633 1824 1709 1632 1751
8 1594 1463 1589 1710 1716 1593 1709 1824
8 1752 1633 1710 1825 1634 1507 1590 1711
8 1595 1464 1590 1711 1717 1594 1710 1825
8 1830 1714 1592 1712 1733 1611 1485 1614
8 1603 1477 1593 1716 1725 1607 1715 1834
8 1599 1473 1594 1717 1721 1603 1716 1835
8 1837 1722 1623 1736 1718 1600 1496 1616
8 1719 1601 1722 1837 1597 1471 1600 1718
8 1602 1720 1598 1472 1723 1838 1719 1601
8 1720 1602 1473 1599 1839 1724 1603 1721
8 1723 1605 1726 1840 1601 1475 1604 1722
8 1840 1726 1628 1743 1722 1604 1501 1623
8 1724 1606 1727 1841 1602 1476 1605 1723
8 1725 1607 1728 1842 1603 1477 1606 1724
8 1612 1482 1608 1731 1733 1611 1730 1849
8 1741 1627 1730 1849 1622 1504 1608 1731
8 1613 1483 1609 1732 1734 1612 1731 1850
8 1618 1495 1622 1738 1732 1609 1731 1850
8 1615 1486 1612 1734 1735 1614 1733 1851
8 1852 1743 1626 1737 1736 1623 1499 1617
8 1853 1745 1625 1739 1737 1626 1500 1619
8 1855 1742 1622 1738 1740 1624 1497 1621
8 1856 1744 1624 1740 1739 1625 1498 1620
8 1741 1627 1504 1622 1857 1746 1631 1742
8 1742 1631 1505 1624 1858 1749 1630 1744
8 1859 1747 1629 1745 1743 1628 1502 1626
8 1860 1748 1630 1744 1745 1629 1503 1625
8 1644 1528 1651 1761 1751 1632 1750 1865
8 1637 1520 1644 1755 1752 1633 1751 1866
8 1754 1646 1522 1636 1867 1760 1643 1753
8 1657 1535 1658 1774 1753 1643 1760 1867
8 1639 1523 1646 1754 1756 1648 1763 1868
8 1641 1521 1645 1758 1755 1644 1761 1869
8 1757 1649 1526 1640 1870 1766 1648 1756
8 1642 1525 1649 1757 1759 1647 1765 1871
8 1759 1647 1762 1872 1642 1525 1645 1758
8 1760 1650 1767 1874 1646 1531 1655 1763
8 1658 1536 1659 1775 1760 1650 1767 1874
8 1762 1652 1768 1875 1645 1529 1651 1761
8 1764 1653 1769 1876 1647 1530 1652 1762
8 1656 1766 1877 1773 1532 1648 1763 1655
8 1771 1879 1765 1654 1653 1764 1647 1530
8 1533 1649 1765 1654 1656 1766 1880 1772
8 1662 1542 1664 1778 1774 1658 1775 1887
8 1664 1543 1665 1779 1775 1659 1776 1888
8 1778 1664 1541 1661 1890 1779 1663 1777
8 1666 1548 1668 1781 1777 1663 1779 1890
8 1782 1669 1780 1891 1668 1550 1665 1779
8 1670 1551 1671 1784 1781 1668 1782 1893
8 1671 1552 1672 1785 1782 1669 1783 1894
8 1790 1675 1785 1896 1674 1554 1671 1784
8 1675 1555 1673 1789 1785 1672 1786 1897
8 1792 1676 1788 1903 1678 1556 1673 1789
8 1795 1678 1789 1904 1681 1558 1675 1790
8 1792 1676 1556 1678 1906 1791 1677 1794
8 1680 1557 1679 1797 1794 1677 1793 1909
8 1910 1794 1678 1795 1798 1680 1558 1681
8 1683 1559 1682 1800 1797 1679 1796 1912
8 1684 1560 1683 1801 1798 1680 1797 1913
8 1686 1564 1687 1803 1800 1682 1799 1915
8 1685 1563 1686 1802 1801 1683 1800 1916
8 1688 1566 1689 1805 1802 1686 1803 1917
8 1689 1567 1690 1806 1803 1687 1804 1918
8 1691 1569 1692 1808 1805 1689 1806 1920
8 1692 1570 1693 1809 1806 1690 1807 1921
8 1694 1572 1695 1810 1808 1692 1809 1922
8 1829 1713 1811 1926 1712 1592 1697 1813
8 1813 1697 1812 1928 1699 1577 1698 1815
8 1735 1614 1712 1828 1816 1699 1813 1929
8 1815 1698 1814 1931 1701 1578 1700 1818
8 1702 1579 1699 1816 1819 1701 1815 1932
8 1818 1700 1817 1933 1704 1580 1703 1820
8 1819 1701 1818 1934 1705 1581 1704 1821
8 1821 1704 1820 1935 1707 1584 1706 1822
8 1824 1709 1632 1751 1937 1823 1750 1865
8 1716 1593 1709 1824 1834 1715 1823 1937
8 1825 1710 1633 1752 1938 1824 1751 1866
8 1717 1594 1710 1825 1835 1716 1824 1938
8 1945 1830 1712 1828 1851 1733 1614 1735
8 1830 1714 1831 1946 1712 1592 1713 1829
8 1947 1832 1714 1830 1849 1730 1611 1733
8 1843 1729 1607 1725 1950 1833 1715 1834
8 1721 1603 1716 1835 1836 1725 1834 1951
8 1836 1725 1842 1953 1721 1603 1724 1839
8 1723 1838 1719 1601 1840 1954 1837 1722
8 1954 1840 1743 1852 1837 1722 1623 1736
8 1724 1839 1720 1602 1841 1955 1838 1723
8 1841 1727 1844 1956 1723 1605 1726 1840
8 1956 1844 1747 1859 1840 1726 1628 1743
8 1728 1842 1724 1606 1845 1957 1841 1727
8 1725 1607 1729 1843 1842 1728 1846 1958
8 1741 1627 1746 1857 1849 1730 1848 1965
8 1734 1612 1731 1850 1851 1733 1849 1966
8 1854 1741 1849 1966 1738 1622 1731 1850
8 1967 1859 1745 1853 1852 1743 1626 1737
8 1968 1860 1744 1856 1853 1745 1625 1739
8 1854 1741 1622 1738 1969 1857 1742 1855
8 1855 1742 1624 1740 1970 1858 1744 1856
8 1857 1746 1631 1742 1971 1861 1749 1858
8 1858 1749 1630 1744 1972 1863 1748 1860
8 1859 1747 1862 1973 1745 1629 1748 1860
8 1875 1768 1864 1977 1761 1651 1750 1865
8 1755 1644 1761 1869 1866 1751 1865 1978
8 1867 1760 1874 1979 1754 1646 1763 1868
8 1774 1658 1775 1887 1867 1760 1874 1979
8 1870 1766 1648 1756 1980 1877 1763 1868
8 1872 1762 1875 1981 1758 1645 1761 1869
8 1757 1649 1766 1870 1871 1765 1880 1982
8 1983 1879 1764 1873 1871 1765 1647 1759
8 1873 1764 1876 1984 1759 1647 1762 1872
8 1877 1773 1655 1763 1986 1881 1767 1874
8 1775 1659 1776 1888 1874 1767 1881 1986
8 1876 1769 1882 1987 1762 1652 1768 1875
8 1878 1770 1883 1988 1764 1653 1769 1876
8 1880 1772 1656 1766 1989 1886 1773 1877
8 1878 1770 1653 1764 1990 1884 1771 1879
8 1765 1654 1772 1880 1879 1771 1885 1991
8 1778 1664 1779 1890 1887 1775 1888 1997
8 1998 1889 1776 1888 1891 1780 1665 1779
8 1893 1782 1891 2000 1781 1668 1779 1890
8 1894 1783 1892 2001 1782 1669 1780 1891
8 1784 1671 1785 1896 1893 1782 1894 2003
8 1897 1786 1895 2004 1785 1672 1783 1894
8 1790 1675 1789 1904 1896 1785 1897 2006
8 1901 1787 1898 2007 1789 1673 1786 1897
8 1903 1788 1900 2013 1789 1673 1787 1901
8 1792 1676 1791 1906 1903 1788 1902 2016
8 1907 1792 1903 2017 1795 1678 1789 1904
8 1906 1791 1677 1794 2019 1905 1793 1909
8 1907 1792 1678 1795 2020 1906 1794 1910
8 1797 1679 1796 1912 1909 1793 1908 2022
8 1798 1680 1797 1913 1910 1794 1909 2023
8 1800 1682 1799 1915 1912 1796 1911 2025
8 1801 1683 1800 1916 1913 1797 1912 2026
8 1803 1687 1804 1918 1915 1799 1914 2028
8 1802 1686 1803 1917 1916 1800 1915 2029
8 1805 1689 1806 1920 1917 1803 1918 2030
8 1806 1690 1807 1921 1918 1804 1919 2031
8 1808 1692 1809 1922 1920 1806 1921 2032
8 1939 1826 1924 2037 1829 1713 1811 1926
8 1926 1811 1925 2039 1813 1697 1812 1928
8 1944 1829 1926 2040 1828 1712 1813 1929
8 1928 1812 1927 2042 1815 1698 1814 1931
8 1929 1813 1928 2043 1816 1699 1815 1932
8 1931 1814 1930 2044 1818 1700 1817 1933
8 1932 1815 1931 2045 1819 1701 1818 1934
8 1934 1818 1933 2046 1821 1704 1820 1935
8 2048 1936 1823 1937 1977 1864 1750 1865
8 1950 1833 1715 1834 2048 1936 1823 1937
8 1938 1824 1751 1866 2049 1937 1865 1978
8 1835 1716 1824 1938 1951 1834 1937 2049
8 1939 1826 1713 1829 2053 1942 1831 1946
8 1940 1827 1923 2035 2053 1942 1826 1939
8 1945 1830 1946 2058 1828 1712 1829 1944
8 2059 1947 1830 1945 1966 1849 1733 1851
8 1947 1832 1730 1849 2060 1948 1848 1965
8 1947 1832 1948 2060 1830 1714 1831 1946
8 1959 1847 1729 1843 2063 1949 1833 1950
8 1952 1843 1725 1836 2064 1950 1834 1951
8 1836 1725 1843 1952 1953 1842 1958 2066
8 1953 1842 1957 2067 1839 1724 1841 1955
8 1841 1955 1838 1723 1956 2068 1954 1840
8 2068 1956 1859 1967 1954 1840 1743 1852
8 1956 1844 1960 2069 1859 1747 1862 1973
8 1845 1957 1841 1727 1960 2069 1956 1844
8 1728 1842 1957 1845 1846 1958 2071 1961
8 1962 2072 1959 1847 1846 1958 1843 1729
8 1971 1861 1964 2077 1857 1746 1848 1965
8 1854 1741 1857 1969 1966 1849 1965 2078
8 1967 1859 1973 2079 1853 1745 1860 1968
8 1970 1858 1744 1856 2080 1972 1860 1968
8 1969 1857 1742 1855 2081 1971 1858 1970
8 1971 1861 1749 1858 2082 1974 1863 1972
8 1973 1862 1975 2083 1860 1748 1863 1972
8 1987 1882 1976 2086 1875 1768 1864 1977
8 1981 1875 1977 2087 1869 1761 1865 1978
8 1980 1877 1763 1868 2088 1986 1874 1979
8 1887 1775 1888 1997 1979 1874 1986 2088
8 1880 1982 2089 1989 1766 1870 1980 1877
8 1984 1876 1987 2090 1872 1762 1875 1981
8 1765 1871 1983 1879 1880 1982 2091 1991
8 1985 1878 1764 1873 2092 1990 1879 1983
8 1985 1878 1988 2093 1873 1764 1876 1984
8 2094 1992 1881 1986 1998 1889 1776 1888
8 1986 1881 1992 2094 1877 1773 1886 1989
8 1988 1883 1993 2095 1876 1769 1882 1987
8 1878 1770 1884 1990 1988 1883 1994 2096
8 1991 1885 1772 1880 2097 1996 1886 1989
8 1879 1771 1885 1991 1990 1884 1995 2098
8 2103 1998 1888 1997 2000 1891 1779 1890
8 2104 1999 1889 1998 2001 1892 1780 1891
8 2003 1894 2001 2106 1893 1782 1891 2000
8 2004 1895 2002 2107 1894 1783 1892 2001
8 2006 1897 2004 2109 1896 1785 1894 2003
8 2007 1898 2005 2110 1897 1786 1895 2004
8 2014 1901 2007 2112 1904 1789 1897 2006
8 2011 1899 2008 2113 1901 1787 1898 2007
8 2119 2010 1899 2011 2013 1900 1787 1901
8 2016 1902 2012 2122 1903 1788 1900 2013
8 2017 1903 2013 2123 1904 1789 1901 2014
8 1906 1791 1905 2019 2016 1902 2015 2125
8 1907 1792 1906 2020 2017 1903 2016 2126
8 1909 1793 1908 2022 2019 1905 2018 2128
8 2020 1906 1794 1910 2129 2019 1909 2023
8 1912 1796 1911 2025 2022 1908 2021 2131
8 1913 1797 1912 2026 2023 1909 2022 2132
8 1915 1799 1914 2028 2025 1911 2024 2134
8 1916 1800 1915 2029 2026 1912 2025 2135
8 1918 1804 1919 2031 2028 1914 2027 2136
8 1917 1803 1918 2030 2029 1915 2028 2137
8 1920 1806 1921 2032 2030 1918 2031 2138
8 1940 1827 1941 2054 2035 1923 2033 2140
8 2035 1923 2034 2143 1939 1826 1924 2037
8 2037 1924 2036 2146 1926 1811 1925 2039
8 2051 1939 2037 2147 1944 1829 1926 2040
8 2039 1925 2038 2149 1928 1812 1927 2042
8 2040 1926 2039 2150 1929 1813 1928 2043
8 2042 1927 2041 2151 1931 1814 1930 2044
8 2043 1928 2042 2152 1932 1815 1931 2045
8 2045 1931 2044 2153 1934 1818 1933 2046
8 2155 2047 1936 2048 2086 1976 1864 1977
8 2063 1949 1833 1950 2155 2047 1936 2048
8 2156 2048 1937 2049 2087 1977 1865 1978
8 2064 1950 1834 1951 2156 2048 1937 2049
8 2051 1939 1829 1944 2160 2053 1946 2058
8 2052 1940 2035 2144 2160 2053 1939 2051
8 2053 1942 1831 1946 2163 2057 1948 2060
8 2055 1943 1827 1940 2163 2057 1942 2053
8 2055 1943 2056 2164 1940 1827 1941 2054
8 2059 1947 1849 1966 2167 2060 1965 2078
8 2059 1947 2060 2167 1945 1830 1946 2058
8 2077 1964 2061 2168 1965 1848 1948 2060
8 2070 1963 1847 1959 2170 2062 1949 2063
8 2065 1959 1843 1952 2171 2063 1950 2064
8 2173 2072 1958 2066 2065 1959 1843 1952
8 1953 1842 1958 2066 2067 1957 2071 2174
8 2068 1956 2069 2175 1967 1859 1973 2079
8 2067 1957 2069 2175 1955 1841 1956 2068
8 1845 1957 2069 1960 1961 2071 2176 2073
8 2069 1960 2073 2176 1973 1862 1975 2083
8 2070 1963 2075 2177 1959 1847 1962 2072
8 1846 1958 2071 1961 1962 2072 2178 2074
8 2077 1964 1861 1971 2182 2076 1974 2082
8 2081 1971 2077 2183 1969 1857 1965 2078
8 2079 1973 2083 2184 1968 1860 1972 2080
8 2081 1971 1858 1970 2185 2082 1972 2080
8 2083 1975 2084 2186 1972 1863 1974 2082
8 2086 1976 1882 1987 2189 2085 1993 2095
8 2090 1987 2086 2190 1981 1875 1977 2087
8 2191 2094 1986 2088 2103 1998 1888 1997
8 2088 1986 2094 2191 1980 1877 1989 2089
8 1991 2091 2192 2097 1880 1982 2089 1989
8 2093 1988 2095 2193 1984 1876 1987 2090
8 1879 1983 2092 1990 1991 2091 2194 2098
8 1985 1878 1990 2092 2093 1988 2096 2195
8 2097 1996 1886 1989 2196 2099 1992 2094
8 2196 2099 1992 2094 2104 1999 1889 1998
8 1994 2096 1988 1883 2100 2197 2095 1993
8 2096 1994 1884 1990 2198 2101 1995 2098
8 1995 2098 2199 2102 1885 1991 2097 1996
8 2203 2104 1998 2103 2106 2001 1891 2000
8 2107 2002 2105 2204 2001 1892 1999 2104
8 2109 2004 2107 2206 2003 1894 2001 2106
8 2110 2005 2108 2207 2004 1895 2002 2107
8 2112 2007 2110 2209 2006 1897 2004 2109
8 2113 2008 2111 2210 2007 1898 2005 2110
8 2120 2011 2113 2212 2014 1901 2007 2112
8 2117 2009 2114 2213 2011 1899 2008 2113
8 2219 2116 2009 2117 2119 2010 1899 2011
8 2222 2118 2010 2119 2122 2012 1900 2013
8 2223 2119 2011 2120 2123 2013 1901 2014
8 2016 1902 2015 2125 2122 2012 2121 2225
8 2126 2016 2122 2226 2017 1903 2013 2123
8 2019 1905 2018 2128 2125 2015 2124 2228
8 2020 1906 2019 2129 2126 2016 2125 2229
8 2022 1908 2021 2131 2128 2018 2127 2231
8 2023 1909 2022 2132 2129 2019 2128 2232
8 2025 1911 2024 2134 2131 2021 2130 2234
8 2026 1912 2025 2135 2132 2022 2131 2235
8 1914 2028 2134 2024 2027 2136 2236 2133
8 2029 1915 2028 2137 2135 2025 2134 2237
8 2030 1918 2031 2138 2137 2028 2136 2238
8 2157 2050 2139 2240 2054 1941 2033 2140
8 2052 1940 2054 2161 2144 2035 2140 2242
8 2140 2033 2141 2243 2035 1923 2034 2143
8 2143 2034 2142 2246 2037 1924 2036 2146
8 2144 2035 2143 2247 2051 1939 2037 2147
8 2146 2036 2145 2249 2039 1925 2038 2149
8 2147 2037 2146 2250 2040 1926 2039 2150
8 2149 2038 2148 2251 2042 1927 2041 2151
8 2150 2039 2149 2252 2043 1928 2042 2152
8 2152 2042 2151 2253 2045 1931 2044 2153
8 2255 2154 2047 2155 2189 2085 1976 2086
8 2170 2062 1949 2063 2255 2154 2047 2155
8 2256 2155 2048 2156 2190 2086 1977 2087
8 2171 2063 1950 2064 2256 2155 2048 2156
8 2258 2159 2050 2157 2164 2056 1941 2054
8 2160 2053 1946 2058 2262 2163 2060 2167
8 2162 2055 1940 2052 2262 2163 2053 2160
8 2162 2055 2164 2263 2052 1940 2054 2161
8 2163 2057 1948 2060 2264 2165 2061 2168
8 2055 1943 2057 2163 2164 2056 2165 2264
8 2182 2076 2166 2268 2077 1964 2061 2168
8 2183 2077 2168 2269 2078 1965 2060 2167
8 2070 1963 2062 2170 2177 2075 2169 2271
8 2172 2070 1959 2065 2272 2170 2063 2171
8 2172 2070 2177 2273 2065 1959 2072 2173
8 2066 1958 2072 2173 2174 2071 2178 2274
8 2067 1957 2071 2174 2175 2069 2176 2275
8 2175 2069 2176 2275 2079 1973 2083 2184
8 2071 1961 2074 2178 2176 2073 2179 2276
8 2176 2073 2179 2276 2083 1975 2084 2186
8 2072 1962 2075 2177 2178 2074 2180 2277
8 2182 2076 1974 2082 2280 2181 2084 2186
8 2183 2077 1971 2081 2281 2182 2082 2185
8 2184 2083 2186 2282 2080 1972 2082 2185
8 2189 2085 1993 2095 2285 2188 2100 2197
8 2190 2086 1987 2090 2286 2189 2095 2193
8 2192 2097 1989 2089 2287 2196 2094 2191
8 2287 2196 2094 2191 2203 2104 1998 2103
8 2194 2098 1991 2091 2288 2199 2097 2192
8 2195 2096 2197 2289 2093 1988 2095 2193
8 2096 2195 2290 2198 1990 2092 2194 2098
8 2097 1996 2099 2196 2199 2102 2200 2291
8 2196 2099 1999 2104 2291 2200 2105 2204
8 2100 2197 2292 2201 1994 2096 2198 2101
8 1995 2098 2198 2101 2102 2199 2293 2202
8 2206 2107 2204 2296 2106 2001 2104 2203
8 2207 2108 2205 2297 2107 2002 2105 2204
8 2209 2110 2207 2299 2109 2004 2107 2206
8 2210 2111 2208 2300 2110 2005 2108 2207
8 2212 2113 2210 2302 2112 2007 2110 2209
8 2213 2114 2211 2303 2113 2008 2111 2210
8 2220 2117 2213 2305 2120 2011 2113 2212
8 2216 2115 2214 2306 2117 2009 2114 2213
8 2216 2115 2009 2117 2311 2217 2116 2219
8 2219 2116 2010 2119 2314 2218 2118 2222
8 2315 2219 2117 2220 2223 2119 2011 2120
8 2122 2012 2121 2225 2222 2118 2221 2317
8 2318 2222 2119 2223 2226 2122 2013 2123
8 2125 2015 2124 2228 2225 2121 2224 2320
8 2126 2016 2125 2229 2226 2122 2225 2321
8 2128 2018 2127 2231 2228 2124 2227 2323
8 2129 2019 2128 2232 2229 2125 2228 2324
8 2131 2021 2130 2234 2231 2127 2230 2326
8 2132 2022 2131 2235 2232 2128 2231 2327
8 2134 2024 2133 2236 2234 2130 2233 2328
8 2135 2025 2134 2237 2235 2131 2234 2329
8 2137 2028 2136 2238 2237 2134 2236 2330
8 2157 2050 2158 2259 2240 2139 2239 2332
8 2257 2157 2240 2334 2161 2054 2140 2242
8 2240 2139 2241 2335 2140 2033 2141 2243
8 2242 2140 2243 2337 2144 2035 2143 2247
8 2243 2141 2244 2338 2143 2034 2142 2246
8 2246 2142 2245 2341 2146 2036 2145 2249
8 2247 2143 2246 2342 2147 2037 2146 2250
8 2249 2145 2248 2343 2149 2038 2148 2251
8 2250 2146 2249 2344 2150 2039 2149 2252
8 2252 2149 2251 2345 2152 2042 2151 2253
8 2169 2271 2347 2254 2062 2170 2255 2154
8 2189 2085 2188 2285 2255 2154 2254 2347
8 2348 2255 2155 2256 2286 2189 2086 2190
8 2272 2170 2063 2171 2348 2255 2155 2256
8 2349 2258 2157 2257 2263 2164 2054 2161
8 2258 2159 2261 2351 2157 2050 2158 2259
8 2258 2159 2056 2164 2351 2261 2165 2264
8 2262 2163 2060 2167 2355 2264 2168 2269
8 2162 2055 2163 2262 2263 2164 2264 2355
8 2357 2266 2165 2264 2268 2166 2061 2168
8 2268 2166 2076 2182 2361 2267 2181 2280
8 2281 2182 2268 2362 2183 2077 2168 2269
8 2271 2169 2270 2364 2177 2075 2180 2277
8 2172 2070 2170 2272 2273 2177 2271 2365
8 2072 2173 2274 2178 2177 2273 2366 2277
8 2071 2174 2275 2176 2178 2274 2367 2276
8 2275 2176 2276 2367 2184 2083 2186 2282
8 2283 2187 2084 2186 2368 2278 2179 2276
8 2178 2074 2180 2277 2276 2179 2278 2368
8 2283 2187 2279 2370 2186 2084 2181 2280
8 2281 2182 2082 2185 2371 2280 2186 2282
8 2188 2285 2374 2284 2100 2197 2292 2201
8 2286 2189 2095 2193 2375 2285 2197 2289
8 2192 2097 2196 2287 2288 2199 2291 2376
8 2287 2196 2104 2203 2376 2291 2204 2296
8 2194 2098 2199 2288 2290 2198 2293 2377
8 2289 2197 2096 2195 2378 2292 2198 2290
8 2291 2200 2105 2204 2379 2294 2205 2297
8 2199 2102 2200 2291 2293 2202 2294 2379
8 2198 2101 2202 2293 2292 2201 2295 2380
8 2299 2207 2297 2383 2206 2107 2204 2296
8 2300 2208 2298 2384 2207 2108 2205 2297
8 2302 2210 2300 2386 2209 2110 2207 2299
8 2303 2211 2301 2387 2210 2111 2208 2300
8 2305 2213 2303 2389 2212 2113 2210 2302
8 2306 2214 2304 2390 2213 2114 2211 2303
8 2310 2216 2306 2392 2220 2117 2213 2305
8 2308 2215 2307 2393 2216 2115 2214 2306
8 2308 2215 2115 2216 2396 2309 2217 2311
8 2310 2216 2117 2220 2398 2311 2219 2315
8 2311 2217 2116 2219 2399 2312 2218 2314
8 2314 2218 2118 2222 2402 2313 2221 2317
8 2315 2219 2119 2223 2403 2314 2222 2318
8 2225 2121 2224 2320 2317 2221 2316 2405
8 2226 2122 2225 2321 2318 2222 2317 2406
8 2228 2124 2227 2323 2320 2224 2319 2408
8 2229 2125 2228 2324 2321 2225 2320 2409
8 2231 2127 2230 2326 2323 2227 2322 2411
8 2232 2128 2231 2327 2324 2228 2323 2412
8 2234 2130 2233 2328 2326 2230 2325 2413
8 2235 2131 2234 2329 2327 2231 2326 2414
8 2237 2134 2236 2330 2329 2234 2328 2415
8 2259 2158 2260 2352 2332 2239 2331 2417
8 2257 2157 2259 2350 2334 2240 2332 2419
8 2240 2139 2239 2332 2335 2241 2333 2420
8 2334 2240 2335 2422 2242 2140 2243 2337
8 2335 2241 2336 2423 2243 2141 2244 2338
8 2337 2243 2338 2425 2247 2143 2246 2342
8 2338 2244 2339 2426 2246 2142 2245 2341
8 2341 2245 2340 2428 2249 2145 2248 2343
8 2342 2246 2341 2429 2250 2146 2249 2344
8 2344 2249 2343 2430 2252 2149 2251 2345
8 2188 2285 2347 2254 2284 2374 2432 2346
8 2347 2254 2346 2432 2271 2169 2270 2364
8 2365 2271 2170 2272 2433 2347 2255 2348
8 2286 2189 2285 2375 2348 2255 2347 2433
8 2349 2258 2351 2435 2257 2157 2259 2350
8 2349 2258 2164 2263 2435 2351 2264 2355
8 2259 2158 2261 2351 2352 2260 2354 2437
8 2356 2265 2354 2437 2264 2165 2261 2351
8 2441 2357 2264 2355 2362 2268 2168 2269
8 2356 2265 2165 2264 2442 2358 2266 2357
8 2443 2359 2266 2357 2361 2267 2166 2268
8 2370 2279 2360 2446 2280 2181 2267 2361
8 2362 2268 2182 2281 2447 2361 2280 2371
8 2180 2277 2368 2278 2270 2364 2449 2363
8 2271 2365 2273 2177 2364 2450 2366 2277
8 2372 2283 2186 2282 2451 2368 2276 2367
8 2178 2274 2367 2276 2277 2366 2451 2368
8 2283 2187 2278 2368 2370 2279 2369 2452
8 2372 2283 2370 2453 2282 2186 2280 2371
8 2284 2374 2455 2373 2201 2292 2380 2295
8 2375 2285 2197 2289 2456 2374 2292 2378
8 2376 2291 2204 2296 2457 2379 2297 2383
8 2288 2199 2291 2376 2377 2293 2379 2457
8 2198 2290 2378 2292 2293 2377 2458 2380
8 2293 2202 2294 2379 2380 2295 2381 2459
8 2384 2298 2381 2459 2297 2205 2294 2379
8 2386 2300 2384 2463 2299 2207 2297 2383
8 2387 2301 2385 2464 2300 2208 2298 2384
8 2389 2303 2387 2466 2302 2210 2300 2386
8 2390 2304 2388 2467 2303 2211 2301 2387
8 2392 2306 2390 2469 2305 2213 2303 2389
8 2393 2307 2391 2470 2306 2214 2304 2390
8 2395 2308 2393 2472 2310 2216 2306 2392
8 2308 2215 2309 2396 2393 2307 2394 2473
8 2395 2308 2216 2310 2475 2396 2311 2398
8 2396 2309 2217 2311 2476 2397 2312 2399
8 2398 2311 2219 2315 2478 2399 2314 2403
8 2399 2312 2218 2314 2479 2400 2313 2402
8 2317 2221 2316 2405 2402 2313 2401 2482
8 2403 2314 2222 2318 2483 2402 2317 2406
8 2320 2224 2319 2408 2405 2316 2404 2485
8 2321 2225 2320 2409 2406 2317 2405 2486
8 2323 2227 2322 2411 2408 2319 2407 2488
8 2324 2228 2323 2412 2409 2320 2408 2489
8 2326 2230 2325 2413 2411 2322 2410 2490
8 2327 2231 2326 2414 2412 2323 2411 2491
8 2329 2234 2328 2415 2414 2326 2413 2492
8 2417 2331 2260 2352 2494 2416 2353 2438
8 2350 2259 2352 2436 2419 2332 2417 2496
8 2332 2239 2331 2417 2420 2333 2418 2497
8 2334 2240 2332 2419 2422 2335 2420 2499
8 2420 2333 2421 2500 2335 2241 2336 2423
8 2422 2335 2423 2502 2337 2243 2338 2425
8 2423 2336 2424 2503 2338 2244 2339 2426
8 2425 2338 2426 2505 2342 2246 2341 2429
8 2426 2339 2427 2506 2341 2245 2340 2428
8 2429 2341 2428 2507 2344 2249 2343 2430
8 2432 2346 2284 2374 2509 2431 2373 2455
8 2432 2346 2431 2509 2364 2270 2363 2449
8 2375 2285 2374 2456 2433 2347 2432 2510
8 2347 2433 2365 2271 2432 2510 2450 2364
8 2350 2259 2351 2435 2436 2352 2437 2514
8 2440 2356 2437 2514 2355 2264 2351 2435
8 2352 2260 2354 2437 2438 2353 2439 2516
8 2356 2265 2358 2442 2437 2354 2439 2516
8 2440 2356 2264 2355 2518 2442 2357 2441
8 2519 2443 2357 2441 2447 2361 2268 2362
8 2443 2359 2444 2520 2357 2266 2358 2442
8 2443 2359 2267 2361 2520 2444 2360 2446
8 2446 2360 2279 2370 2523 2445 2369 2452
8 2453 2370 2446 2524 2371 2280 2361 2447
8 2449 2363 2448 2525 2368 2278 2369 2452
8 2366 2277 2364 2450 2451 2368 2449 2526
8 2372 2283 2368 2451 2453 2370 2452 2527
8 2455 2373 2295 2380 2529 2454 2382 2460
8 2456 2374 2292 2378 2530 2455 2380 2458
8 2377 2293 2379 2457 2458 2380 2459 2531
8 2463 2384 2459 2531 2383 2297 2379 2457
8 2533 2461 2382 2460 2459 2381 2295 2380
8 2464 2385 2461 2533 2384 2298 2381 2459
8 2466 2387 2464 2537 2386 2300 2384 2463
8 2467 2388 2465 2538 2387 2301 2385 2464
8 2469 2390 2467 2540 2389 2303 2387 2466
8 2470 2391 2468 2541 2390 2304 2388 2467
8 2472 2393 2470 2543 2392 2306 2390 2469
8 2393 2307 2394 2473 2470 2391 2471 2544
8 2395 2308 2396 2475 2472 2393 2473 2546
8 2396 2309 2397 2476 2473 2394 2474 2547
8 2475 2396 2311 2398 2549 2476 2399 2478
8 2476 2397 2312 2399 2550 2477 2400 2479
8 2478 2399 2314 2403 2552 2479 2402 2483
8 2479 2400 2313 2402 2553 2480 2401 2482
8 2405 2316 2404 2485 2482 2401 2481 2556
8 2406 2317 2405 2486 2483 2402 2482 2557
8 2408 2319 2407 2488 2485 2404 2484 2559
8 2409 2320 2408 2489 2486 2405 2485 2560
8 2411 2322 2410 2490 2488 2407 2487 2561
8 2412 2323 2411 2491 2489 2408 2488 2562
8 2414 2326 2413 2492 2491 2411 2490 2563
8 2513 2434 2493 2565 2438 2353 2416 2494
8 2496 2417 2352 2436 2567 2494 2438 2515
8 2494 2416 2495 2568 2417 2331 2418 2497
8 2419 2332 2417 2496 2499 2420 2497 2570
8 2497 2418 2498 2571 2420 2333 2421 2500
8 2499 2420 2500 2573 2422 2335 2423 2502
8 2500 2421 2501 2574 2423 2336 2424 2503
8 2502 2423 2503 2576 2425 2338 2426 2505
8 2503 2424 2504 2577 2426 2339 2427 2506
8 2505 2426 2506 2578 2429 2341 2428 2507
8 2509 2431 2373 2455 2580 2508 2454 2529
8 2509 2431 2508 2580 2449 2363 2448 2525
8 2432 2510 2581 2509 2374 2456 2530 2455
8 2432 2510 2450 2364 2509 2581 2526 2449
8 2583 2511 2434 2513 2516 2439 2353 2438
8 2436 2352 2437 2514 2515 2438 2516 2588
8 2440 2356 2442 2518 2514 2437 2516 2588
8 2442 2358 2444 2520 2516 2439 2517 2589
8 2519 2443 2520 2591 2441 2357 2442 2518
8 2519 2443 2361 2447 2591 2520 2446 2524
8 2446 2360 2445 2523 2520 2444 2521 2592
8 2525 2448 2522 2593 2452 2369 2445 2523
8 2524 2446 2370 2453 2594 2523 2452 2527
8 2526 2449 2525 2595 2451 2368 2452 2527
8 2534 2462 2528 2597 2460 2382 2454 2529
8 2530 2455 2380 2458 2598 2529 2460 2532
8 2599 2533 2460 2532 2531 2459 2380 2458
8 2537 2464 2533 2599 2463 2384 2459 2531
8 2534 2462 2382 2460 2601 2535 2461 2533
8 2538 2465 2535 2601 2464 2385 2461 2533
8 2540 2467 2538 2604 2466 2387 2464 2537
8 2541 2468 2539 2605 2467 2388 2465 2538
8 2543 2470 2541 2607 2469 2390 2467 2540
8 2470 2391 2471 2544 2541 2468 2542 2608
8 2472 2393 2473 2546 2543 2470 2544 2610
8 2473 2394 2474 2547 2544 2471 2545 2611
8 2475 2396 2476 2549 2546 2473 2547 2613
8 2476 2397 2477 2550 2547 2474 2548 2614
8 2549 2476 2399 2478 2616 2550 2479 2552
8 2479 2400 2480 2553 2550 2477 2551 2617
8 2552 2479 2402 2483 2619 2553 2482 2557
8 2482 2401 2481 2556 2553 2480 2554 2620
8 2485 2404 2484 2559 2556 2481 2555 2623
8 2486 2405 2485 2560 2557 2482 2556 2624
8 2488 2407 2487 2561 2559 2484 2558 2625
8 2489 2408 2488 2562 2560 2485 2559 2626
8 2491 2411 2490 2563 2562 2488 2561 2627
8 2513 2434 2512 2585 2565 2493 2564 2630
8 2586 2513 2565 2632 2515 2438 2494 2567
8 2565 2493 2566 2633 2494 2416 2495 2568
8 2567 2494 2568 2635 2496 2417 2497 2570
8 2568 2495 2569 2636 2497 2418 2498 2571
8 2570 2497 2571 2638 2499 2420 2500 2573
8 2571 2498 2572 2639 2500 2421 2501 2574
8 2573 2500 2574 2641 2502 2423 2503 2576
8 2574 2501 2575 2642 2503 2424 2504 2577
8 2576 2503 2577 2643 2505 2426 2506 2578
8 2597 2528 2579 2645 2529 2454 2508 2580
8 2580 2508 2579 2645 2525 2448 2522 2593
8 2581 2509 2455 2530 2646 2580 2529 2598
8 2581 2509 2580 2646 2526 2449 2525 2595
8 2583 2511 2582 2648 2513 2434 2512 2585
8 2583 2511 2439 2516 2648 2582 2517 2589
8 2649 2583 2513 2586 2588 2516 2438 2515
8 2589 2517 2444 2520 2653 2587 2521 2592
8 2518 2442 2520 2591 2588 2516 2589 2654
8 2593 2522 2590 2655 2523 2445 2521 2592
8 2524 2446 2523 2594 2591 2520 2592 2656
8 2595 2525 2593 2657 2527 2452 2523 2594
8 2602 2536 2596 2659 2534 2462 2528 2597
8 2600 2534 2597 2660 2532 2460 2529 2598
8 2600 2534 2460 2532 2661 2601 2533 2599
8 2604 2538 2601 2661 2537 2464 2533 2599
8 2602 2536 2462 2534 2663 2603 2535 2601
8 2601 2535 2465 2538 2663 2603 2539 2605
8 2607 2541 2605 2665 2540 2467 2538 2604
8 2608 2542 2606 2666 2541 2468 2539 2605
8 2543 2470 2544 2610 2607 2541 2608 2668
8 2544 2471 2545 2611 2608 2542 2609 2669
8 2546 2473 2547 2613 2610 2544 2611 2671
8 2547 2474 2548 2614 2611 2545 2612 2672
8 2549 2476 2550 2616 2613 2547 2614 2674
8 2550 2477 2551 2617 2614 2548 2615 2675
8 2552 2479 2553 2619 2616 2550 2617 2677
8 2553 2480 2554 2620 2617 2551 2618 2678
8 2557 2482 2556 2624 2619 2553 2620 2680
8 2556 2481 2555 2623 2620 2554 2621 2681
8 2559 2484 2558 2625 2623 2555 2622 2683
8 2560 2485 2559 2626 2624 2556 2623 2684
8 2562 2488 2561 2627 2626 2559 2625 2685
8 2690 2629 2564 2630 2650 2584 2512 2585
8 2586 2513 2585 2651 2632 2565 2630 2691
8 2630 2564 2631 2692 2565 2493 2566 2633
8 2632 2565 2633 2694 2567 2494 2568 2635
8 2633 2566 2634 2695 2568 2495 2569 2636
8 2635 2568 2636 2697 2570 2497 2571 2638
8 2636 2569 2637 2698 2571 2498 2572 2639
8 2638 2571 2639 2700 2573 2500 2574 2641
8 2639 2572 2640 2701 2574 2501 2575 2642
8 2641 2574 2642 2702 2576 2503 2577 2643
8 2597 2528 2596 2659 2645 2579 2644 2704
8 2645 2579 2644 2704 2593 2522 2590 2655
8 2660 2597 2645 2705 2598 2529 2580 2646
8 2646 2580 2645 2705 2595 2525 2593 2657
8 2650 2584 2512 2585 2707 2647 2582 2648
8 2648 2582 2517 2589 2707 2647 2587 2653
8 2649 2583 2648 2708 2586 2513 2585 2651
8 2649 2583 2516 2588 2708 2648 2589 2654
8 2655 2590 2652 2710 2592 2521 2587 2653
8 2654 2589 2520 2591 2711 2653 2592 2656
8 2657 2593 2655 2712 2594 2523 2592 2656
8 2602 2536 2603 2663 2659 2596 2658 2714
8 2662 2602 2659 2715 2600 2534 2597 2660
8 2662 2602 2534 2600 2717 2663 2601 2661
8 2661 2601 2538 2604 2717 2663 2605 2665
8 2666 2606 2664 2718 2605 2539 2603 2663
8 2668 2608 2666 2720 2607 2541 2605 2665
8 2608 2542 2609 2669 2666 2606 2667 2721
8 2610 2544 2611 2671 2668 2608 2669 2723
8 2611 2545 2612 2672 2669 2609 2670 2724
8 2613 2547 2614 2674 2671 2611 2672 2726
8 2614 2548 2615 2675 2672 2612 2673 2727
8 2616 2550 2617 2677 2674 2614 2675 2729
8 2617 2551 2618 2678 2675 2615 2676 2730
8 2619 2553 2620 2680 2677 2617 2678 2732
8 2620 2554 2621 2681 2678 2618 2679 2733
8 2624 2556 2623 2684 2680 2620 2681 2735
8 2681 2621 2555 2623 2736 2682 2622 2683
8 2626 2559 2625 2685 2684 2623 2683 2737
8 2688 2628 2584 2650 2740 2686 2647 2707
8 2688 2628 2687 2742 2650 2584 2629 2690
8 2690 2629 2689 2745 2630 2564 2631 2692
8 2746 2690 2630 2691 2709 2650 2585 2651
8 2691 2630 2692 2747 2632 2565 2633 2694
8 2692 2631 2693 2748 2633 2566 2634 2695
8 2694 2633 2695 2750 2635 2568 2636 2697
8 2695 2634 2696 2751 2636 2569 2637 2698
8 2697 2636 2698 2753 2638 2571 2639 2700
8 2698 2637 2699 2754 2639 2572 2640 2701
8 2700 2639 2701 2755 2641 2574 2642 2702
8 2659 2596 2658 2714 2704 2644 2703 2757
8 2704 2644 2703 2757 2655 2590 2652 2710
8 2660 2597 2659 2715 2705 2645 2704 2758
8 2705 2645 2704 2758 2657 2593 2655 2712
8 2759 2706 2647 2707 2710 2652 2587 2653
8 2709 2650 2585 2651 2760 2707 2648 2708
8 2708 2648 2589 2654 2760 2707 2653 2711
8 2712 2655 2710 2761 2656 2592 2653 2711
8 2763 2713 2658 2714 2718 2664 2603 2663
8 2662 2602 2663 2717 2715 2659 2714 2764
8 2720 2666 2718 2767 2665 2605 2663 2717
8 2768 2719 2664 2718 2721 2667 2606 2666
8 2668 2608 2669 2723 2720 2666 2721 2770
8 2669 2609 2670 2724 2721 2667 2722 2771
8 2671 2611 2672 2726 2723 2669 2724 2773
8 2672 2612 2673 2727 2724 2670 2725 2774
8 2674 2614 2675 2729 2726 2672 2727 2776
8 2675 2615 2676 2730 2727 2673 2728 2777
8 2677 2617 2678 2732 2729 2675 2730 2779
8 2678 2618 2679 2733 2730 2676 2731 2780
8 2680 2620 2681 2735 2732 2678 2733 2782
8 2733 2679 2621 2681 2783 2734 2682 2736
8 2735 2681 2623 2684 2784 2736 2683 2737
8 2740 2686 2647 2707 2787 2738 2706 2759
8 2688 2628 2686 2740 2742 2687 2739 2789
8 2743 2688 2650 2709 2790 2740 2707 2760
8 2742 2687 2741 2792 2690 2629 2689 2745
8 2743 2688 2742 2793 2709 2650 2690 2746
8 2745 2689 2744 2795 2692 2631 2693 2748
8 2746 2690 2745 2796 2691 2630 2692 2747
8 2747 2692 2748 2797 2694 2633 2695 2750
8 2748 2693 2749 2798 2695 2634 2696 2751
8 2750 2695 2751 2800 2697 2636 2698 2753
8 2751 2696 2752 2801 2698 2637 2699 2754
8 2753 2698 2754 2802 2700 2639 2701 2755
8 2763 2713 2756 2804 2714 2658 2703 2757
8 2759 2706 2652 2710 2804 2756 2703 2757
8 2715 2659 2714 2764 2758 2704 2757 2805
8 2758 2704 2757 2805 2712 2655 2710 2761
8 2806 2759 2707 2760 2761 2710 2653 2711
8 2765 2716 2762 2808 2718 2664 2713 2763
8 2809 2763 2714 2764 2767 2718 2663 2717
8 2765 2716 2664 2718 2811 2766 2719 2768
8 2813 2768 2718 2767 2770 2721 2666 2720
8 2814 2769 2719 2768 2771 2722 2667 2721
8 2723 2669 2724 2773 2770 2721 2771 2816
8 2724 2670 2725 2774 2771 2722 2772 2817
8 2726 2672 2727 2776 2773 2724 2774 2819
8 2727 2673 2728 2777 2774 2725 2775 2820
8 2729 2675 2730 2779 2776 2727 2777 2822
8 2730 2676 2731 2780 2777 2728 2778 2823
8 2732 2678 2733 2782 2779 2730 2780 2825
8 2780 2731 2679 2733 2826 2781 2734 2783
8 2782 2733 2681 2735 2827 2783 2736 2784
8 2830 2785 2738 2787 2804 2756 2706 2759
8 2789 2739 2686 2740 2832 2786 2738 2787
8 2790 2740 2707 2760 2833 2787 2759 2806
8 2742 2687 2739 2789 2792 2741 2788 2835
8 2743 2688 2740 2790 2793 2742 2789 2836
8 2792 2741 2791 2838 2745 2689 2744 2795
8 2793 2742 2792 2839 2746 2690 2745 2796
8 2795 2744 2794 2841 2748 2693 2749 2798
8 2796 2745 2795 2842 2747 2692 2748 2797
8 2797 2748 2798 2843 2750 2695 2751 2800
8 2798 2749 2799 2844 2751 2696 2752 2801
8 2800 2751 2801 2845 2753 2698 2754 2802
8 2808 2762 2803 2847 2763 2713 2756 2804
8 2809 2763 2804 2848 2764 2714 2757 2805
8 2806 2759 2710 2761 2848 2804 2757 2805
8 2765 2716 2766 2811 2808 2762 2807 2850
8 2810 2765 2808 2851 2767 2718 2763 2809
8 2810 2765 2718 2767 2852 2811 2768 2813
8 2811 2766 2719 2768 2853 2812 2769 2814
8 2855 2814 2768 2813 2816 2771 2721 2770
8 2856 2815 2769 2814 2817 2772 2722 2771
8 2773 2724 2774 2819 2816 2771 2817 2858
8 2774 2725 2775 2820 2817 2772 2818 2859
8 2776 2727 2777 2822 2819 2774 2820 2861
8 2777 2728 2778 2823 2820 2775 2821 2862
8 2779 2730 2780 2825 2822 2777 2823 2864
8 2823 2778 2731 2780 2865 2824 2781 2826
8 2825 2780 2733 2782 2866 2826 2783 2827
8 2869 2828 2785 2830 2847 2803 2756 2804
8 2871 2829 2786 2832 2830 2785 2738 2787
8 2872 2830 2787 2833 2848 2804 2759 2806
8 2789 2739 2786 2832 2835 2788 2831 2874
8 2836 2789 2740 2790 2875 2832 2787 2833
8 2792 2741 2788 2835 2838 2791 2834 2877
8 2793 2742 2789 2836 2839 2792 2835 2878
8 2838 2791 2837 2880 2795 2744 2794 2841
8 2839 2792 2838 2881 2796 2745 2795 2842
8 2841 2794 2840 2882 2798 2749 2799 2844
8 2842 2795 2841 2883 2797 2748 2798 2843
8 2843 2798 2844 2884 2800 2751 2801 2845
8 2886 2846 2803 2847 2850 2807 2762 2808
8 2851 2808 2847 2887 2809 2763 2804 2848
8 2850 2807 2766 2811 2889 2849 2812 2853
8 2810 2765 2811 2852 2851 2808 2850 2890
8 2852 2811 2768 2813 2891 2853 2814 2855
8 2853 2812 2769 2814 2892 2854 2815 2856
8 2894 2856 2814 2855 2858 2817 2771 2816
8 2817 2772 2818 2859 2856 2815 2857 2895
8 2819 2774 2820 2861 2858 2817 2859 2897
8 2820 2775 2821 2862 2859 2818 2860 2898
8 2822 2777 2823 2864 2861 2820 2862 2900
8 2823 2778 2824 2865 2862 2821 2863 2901
8 2864 2823 2780 2825 2902 2865 2826 2866
8 2904 2867 2828 2869 2886 2846 2803 2847
8 2869 2828 2868 2906 2830 2785 2829 2871
8 2907 2869 2830 2872 2887 2847 2804 2848
8 2871 2829 2870 2909 2832 2786 2831 2874
8 2910 2871 2832 2875 2872 2830 2787 2833
8 2835 2788 2831 2874 2877 2834 2873 2912
8 2836 2789 2832 2875 2878 2835 2874 2913
8 2877 2834 2876 2915 2838 2791 2837 2880
8 2839 2792 2835 2878 2881 2838 2877 2916
8 2880 2837 2879 2917 2841 2794 2840 2882
8 2881 2838 2880 2918 2842 2795 2841 2883
8 2883 2841 2882 2919 2843 2798 2844 2884
8 2921 2885 2846 2886 2889 2849 2807 2850
8 2922 2886 2847 2887 2890 2850 2808 2851
8 2889 2849 2812 2853 2924 2888 2854 2892
8 2890 2850 2811 2852 2925 2889 2853 2891
8 2891 2853 2814 2855 2926 2892 2856 2894
8 2892 2854 2815 2856 2927 2893 2857 2895
8 2858 2817 2859 2897 2894 2856 2895 2929
8 2859 2818 2860 2898 2895 2857 2896 2930
8 2861 2820 2862 2900 2897 2859 2898 2932
8 2862 2821 2863 2901 2898 2860 2899 2933
8 2864 2823 2865 2902 2900 2862 2901 2934
8 2904 2867 2846 2886 2936 2903 2885 2921
8 2904 2867 2903 2936 2869 2828 2868 2906
8 2937 2904 2869 2907 2922 2886 2847 2887
8 2906 2868 2905 2939 2871 2829 2870 2909
8 2907 2869 2906 2940 2872 2830 2871 2910
8 2909 2870 2908 2942 2874 2831 2873 2912
8 2910 2871 2909 2943 2875 2832 2874 2913
8 2912 2873 2911 2945 2877 2834 2876 2915
8 2878 2835 2874 2913 2916 2877 2912 2946
8 2915 2876 2914 2947 2880 2837 2879 2917
8 2916 2877 2915 2948 2881 2838 2880 2918
8 2918 2880 2917 2949 2883 2841 2882 2919
8 2921 2885 2849 2889 2951 2920 2888 2924
8 2952 2921 2886 2922 2925 2889 2850 2890
8 2924 2888 2854 2892 2954 2923 2893 2927
8 2925 2889 2853 2891 2955 2924 2892 2926
8 2926 2892 2856 2894 2956 2927 2895 2929
8 2895 2857 2896 2930 2927 2893 2928 2957
8 2897 2859 2898 2932 2929 2895 2930 2959
8 2898 2860 2899 2933 2930 2896 2931 2960
8 2900 2862 2901 2934 2932 2898 2933 2961
8 2936 2903 2885 2921 2963 2935 2920 2951
8 2936 2903 2935 2963 2906 2868 2905 2939
8 2937 2904 2886 2922 2964 2936 2921 2952
8 2937 2904 2936 2964 2907 2869 2906 2940
8 2939 2905 2938 2966 2909 2870 2908 2942
8 2940 2906 2939 2967 2910 2871 2909 2943
8 2942 2908 2941 2969 2912 2873 2911 2945
8 2943 2909 2942 2970 2913 2874 2912 2946
8 2945 2911 2944 2971 2915 2876 2914 2947
8 2946 2912 2945 2972 2916 2877 2915 2948
8 2948 2915 2947 2973 2918 2880 2917 2949
8 2951 2920 2888 2924 2975 2950 2923 2954
8 2952 2921 2889 2925 2976 2951 2924 2955
8 2927 2893 2928 2957 2954 2923 2953 2978
8 2955 2924 2892 2926 2979 2954 2927 2956
8 2929 2895 2930 2959 2956 2927 2957 2980
8 2930 2896 2931 2960 2957 2928 2958 2981
8 2932 2898 2933 2961 2959 2930 2960 2982
8 2951 2920 2950 2975 2963 2935 2962 2984
8 2963 2935 2962 2984 2939 2905 2938 2966
8 2964 2936 2921 2952 2985 2963 2951 2976
8 2964 2936 2963 2985 2940 2906 2939 2967
8 2966 2938 2965 2987 2942 2908 2941 2969
8 2967 2939 2966 2988 2943 2909 2942 2970
8 2969 2941 2968 2989 2945 2911 2944 2971
8 2970 2942 2969 2990 2946 2912 2945 2972
8 2972 2945 2971 2991 2948 2915 2947 2973
8 2954 2923 2953 2978 2975 2950 2974 2993
8 2976 2951 2924 2955 2994 2975 2954 2979
8 2957 2928 2958 2981 2978 2953 2977 2995
8 2956 2927 2957 2980 2979 2954 2978 2996
8 2959 2930 2960 2982 2980 2957 2981 2997
8 2984 2962 2983 2999 2966 2938 2965 2987
8 2975 2950 2974 2993 2984 2962 2983 2999
8 2976 2951 2975 2994 2985 2963 2984 3000
8 2985 2963 2984 3000 2967 2939 2966 2988
8 2987 2965 2986 3001 2969 2941 2968 2989
8 2988 2966 2987 3002 2970 2942 2969 2990
8 2990 2969 2989 3003 2972 2945 2971 2991
8 2978 2953 2977 2995 2993 2974 2992 3004
8 2979 2954 2978 2996 2994 2975 2993 3005
8 2980 2957 2981 2997 2996 2978 2995 3006
8 2974 2993 2999 2983 2992 3004 3007 2998
8 2983 2999 2987 2965 2998 3007 3001 2986
8 3000 2984 2999 3008 2988 2966 2987 3002
8 2994 2975 2993 3005 3000 2984 2999 3008
8 3002 2987 3001 3009 2990 2969 2989 3003
8 2996 2978 2995 3006 3005 2993 3004 3010
8 3005 2993 3004 3010 3008 2999 3007 3011
8 3008 2999 3007 3011 3002 2987 3001 3009

CELL_TYPES 1910
12
12
12
12
12
12
12
12
12
12
12
12
12
12
12
12
12
12
12
12
12
12
12
12
12
12
12
12
12
12
12
12
12
12
12
12
12
12
12
12
12
12
12
12
12
12
12
12
12
12
12
12
12
12
12
12
12
12
12
12
12
12
12
12
12
12
12
12
12
12
12
12
12
12
12
12
12
12
12
12
12
12
12
12
12
12
12
12
12
12
12
12
12
12
12
12
12
12
12
12
12
12
12
12
12
12
12
12
12
12
12
12
12
12
12
12
12
12
12
12
12
12
12
12
12
12
12
12
12
12
12
12
12
12
12
12
12
12
12
12
12
12
12
12
12
12
12
12
12
12
12
12
12
12
12
12
12
12
12
12
12
12
12
12
12
12
12
12
12
12
12
12
12
12
12
12
12
12
12
12
12
12
12
12
12
12
12
12
12
12
12
12
12
12
12
12
12
12
12
12
12
12
12
12
12
12
12
12
12
12
12
12
12
12
12
12
12
12
12
12
12
12
12
12
12
12
12
12
12
12
12
12
12
12
12
12
12
12
12
12
12
12
12
12
12
12
12
12
12
12
12
12
12
12
12
12
12
12
12
12
12
12
12
12
12
12
12
12
12
12
12
12
12
12
12
12
12
12
12
12
12
12
12
12
12
12
12
12
12
12
12
12
12
12
12
12
12
12
12
12
12
12
12
12
12
12
12
12
12
12
12
12
12
12
12
12
12
12
12
12
12
12
12
12
12
12
12
12
12
12
12
12
12
12
12
12
12
12
12
12
12
12
12
12
12
12
12
12
12
12
12
12
12
12
12
12
12
12
12
12
12
12
12
12
12
12
12
12
12
12
12
12
12
12
12
12
12
12
12
12
12
12
12
12
12
12
12
12
12
12
12
12
12
12
12
12
12
12
12
12
12
12
12
12
12
12
12
12
12
12
12
12
12
12
12
12
12
12
12
12
12
12
12
12
12
12
12
12
12
12
12
12
12
12
12
12
12
12
12
12
12
12
12
12
12
12
12
12
12
12
12
12
12
12
12
12
12
12
12
12
12
12
12
12
12
12
12
12
12
12
12
12
12
12
12
12
12
12
12
12
12
12
12
12
12
12
12
12
12
12
12
12
12
12
12
12
12
12
12
12
12
12
12
12
12
12
12
12
12
12
12
12
12
12
12
12
12
12
12
12
12
12
12
12
12
12
12
12
12
12
12
12
12
12
12
12
12
12
12
12
12
12
12
12
12
12
12
12
12
12
12
12
12
12
12
12
12
12
12
12
12
12
12
12
12
12
12
12
12
12
12
12
12
12
12
12
12
12
12
12
12
12
12
12
12
12
12
12
12
12
12
12
12
12
12
12
12
12
12
12
12
12
12
12
12
12
12
12
12
12
12
12
12
12
12
12
12
12
12
12
12
12
12
12
12
12
12
12
12
12
12
12
12
12
12
12
12
12
12
12
12
12
12
12
12
12
12
12
12
12
12
12
12
12
12
12
12
12
12
12
12
12
12
12
12
12
12
12
12
12
12
12
12
12
12
12
12
12
12
12
12
12
12
12
12
12
12
12
12
12
12
12
12
12
12
12
12
12
12
12
12
12
12
12
12
12
12
12
12
12
12
12
12
12
12
12
12
12
12
12
12
12
12
12
12
12
12
12
12
12
12
12
12
12
12
12
12
12
12
12
12
12
12
12
12
12
12
12
12
12
12
12
12
12
12
12
12
12
12
12
12
12
12
12
12
12
12
12
12
12
12
12
12
12
12
12
12
12
12
12
12
12
12
12
12
12
12
12
12
12
12
12
12
12
12
12
12
12
12
12
12
12
12
12
12
12
12
12
12
12
12
12
12
12
12
12
12
12
12
12
12
12
12
12
12
12
12
12
12
12
12
12
12
12
12
12
12
12
12
12
12
12
12
12
12
12
12
12
12
12
12
12
12
12
12
12
12
12
12
12
12
12
12
12
12
12
12
12
12
12
12
12
12
12
12
12
12
12
12
12
12
12
12
12
12
12
12
12
12
12
12
12
12
12
12
12
12
12
12
12
12
12
12
12
12
12
12
12
12
12
12
12
12
12
12
12
12
12
12
12
12
12
12
12
12
12
12
12
12
12
12
12
12
12
12
12
12
12
12
12
12
12
12
12
12
12
12
12
12
12
12
12
12
12
12
12
12
12
12
12
12
12
12
12
12
12
12
12
12
12
12
12
12
12
12
12
12
12
12
12
12
12
12
12
12
12
12
12
12
12
12
12
12
12
12
12
12
12
12
12
12
12
12
12
12
12
12
12
12
12
12
12
12
12
12
12
12
12
12
12
12
12
12
12
12
12
12
12
12
12
12
12
12
12
12
12
12
12
12
12
12
12
12
12
12
12
12
12
12
12
12
12
12
12
12
12
12
12
12
12
12
12
12
12
12
12
12
12
12
12
12
12
12
12
12
12
12
12
12
12
12
12
12
12
12
12
12
12
12
12
12
12
12
12
12
12
12
12
12
12
12
12
12
12
12
12
12
12
12
12
12
12
12
12
12
12
12
12
12
12
12
12
12
12
12
12
12
12
12
12
12
12
12
12
12
12
12
12
12
12
12
12
12
12
12
12
12
12
12
12
12
12
12
12
12
12
12
12
12
12
12
12
12
12
12
12
12
12
12
12
12
12
12
12
12
12
12
12
12
12
12
12
12
12
12
12
12
12
12
12
12
12
12
12
12
12
12
12
12
12
12
12
12
12
12
12
12
12
12
12
12
12
12
12
12
12
12
12
12
12
12
12
12
12
12
12
12
12
12
12
12
12
12
12
12
12
12
12
12
12
12
12
12
12
12
12
12
12
12
12
12
12
12
12
12
12
12
12
12
12
12
12
12
12
12
12
12
12
12
12
12
12
12
12
12
12
12
12
12
12
12
12
12
12
12
12
12
12
12
12
12
12
12
12
12
12
12
12
12
12
12
12
12
12
12
12
12
12
12
12
12
12
12
12
12
12
12
12
12
12
12
12
12
12
12
12
12
12
12
12
12
12
12
12
12
12
12
12
12
12
12
12
12
12
12
12
12
12
12
12
12
12
12
12
12
12
12
12
12
12
12
12
12
12
12
12
12
12
12
12
12
12
12
12
12
12
12
12
12
12
12
12
12
12
12
12
12
12
12
12
12
12
12
12
12
12
12
12
12
12
12
12
12
12
12
12
12
12
12
12
12
12
12
12
12
12
12
12
12
12
12
12
12
12
12
12
12
12
12
12
12
12
12
12
12
12
12
12
12
12
12
12
12
12
12
12
12
12
12
12
12
12
12
12
12
12
12
12
12
12
12
12
12
12
12
12
12
12
12
12
12
12
12
12
12
12
12
12
12
12
12
12
12
12
12
12
12
12
12
12
12
12
12
12
12
12
12
12
12
12
12
12
12
12
12
12
12
12
12
12
12
12
12
12
12
12
12
12
12
12
12
12
12
12
12
12
12
12
12
12
12
12
12
12
12
12
12
12
12
12
12
12
12
12
12
12
12
12
12
12
12
12
12
12
12
12
12
12
12
12
12
12
12
12
12
12
12
12
12
12
12
12
12
12
12
12
12
12
12
12
12
12
12
12
12
12
12
12
12
12
12
12
12
12
12
12
12
12
12
12
12
12
12
12
12
12
12
12
12
12
12
12
12
12
12
12
12
12
12
12
12
12
12
12
12
12
12
12
12
12
12
12
12
12
12
12
12
12
12
12
12
12
12
12
12
12
12
12
12
12
12
12
12
12
12
12
12
12
12
12
12
12
12
12
12
12
12
12
12
12
12
12
12
12
12
12
12
12
12
12
12
12
12
12
12
12
12
12
12
12
12
12
12
12
12
12
12
12
12
12
12
12
12
12
12
12
12
12
12
12
12
12
12
12
12
12
12
12
12
12
12
12
12
12
12
12
12
12
12
12
12
12
12
12
12
12
12
12
12
12
12
12
12
12
12
12
12
12
12
12
12
12
12
12
12
12
12
12
12
12
12
12
12
12
12
12
12
12
12
12
12
12
12
12
12
12
12
12
12
12
12
12
12
12
12
12
12
12
12
12
12
12
12
12
12
12
12
12
12
12
12
12
12
12
12
12
12
12
12
12
12
12
12
12
12
12
12
12
12
12
12
12
12
12
12
12
12
12
12
12
12
12
12
12
12
12
12
12
12
12
12
12
12
12
12
12
12
12
12
12
12
12
12
12
12
12
12
12
12
12
12
12
12
12
12
12
12
12
12
12
12
12
12
12
12
12
12
12
12
12
12
12
12
12
12
12
12
12
12
12
12
12
12
12
12
12
12
12
12
12
12
12
12
12
12
12
12
12
12
12

POINT_DATA 3012
SCALARS Jp_lamdaP float 4
LOOKUP_TABLE default
0.999884 1 1 0.999884
1 1 1 1
0.999888 1 1 0.999888
0.999845 1 1 0.999845
0.999882 1 1 0.999882
0.999881 1 1 0.999881
0.99941 1 1 0.99941
1 1 1 1
1 1 1 1
1 1 1 1
0.999954 1 1 0.999954
0.999576 1 1 0.999576
0.999805 1 1 0.999805
0.999836 1 1 0.999836
0.999887 1 1 0.999887
0.999858 1 1 0.999858
0.999885 1 1 0.999885
0.99989 1 1 0.99989
0.999413 1 1 0.999413
1 1 1 1
0.999826 1 1 0.999826
0.999867 1 1 0.999867
0.999283 1 1 0.999283
0.999378 1 1 0.999378
0.999903 1 1 0.999903
0.999447 1 1 0.999447
0.998657 1 1 0.998657
1 1 1 1
0.999931 1 1 0.999931
0.999944 1 1 0.999944
1 1 1 1
0.999584 1 1 0.999584
0.999857 1 1 0.999857
0.999879 1 1 0.999879
0.999484 1 1 0.999484
1 1 1 1
0.999574 1 1 0.999574
0.99967 1 1 0.99967
0.998717 1 1 0.998717
1 1 1 1
1 1 1 1
0.999916 1 1 0.999916
1 1 1 1
0.999826 1 1 0.999826
0.999215 1 1 0.999215
1 1 1 1
0.999394 1 1 0.999394
0.999869 1 1 0.999869
0.999894 1 1 0.999894
0.999887 1 1 0.999887
0.999418 1 1 0.999418
0.999901 1 1 0.999901
0.99984 1 1 0.99984
0.999912 1 1 0.999912
0.999878 1 1 0.999878
0.999284 1 1 0.999284
0.999451 1 1 0.999451
0.999381 1 1 0.999381
0.998642 1 1 0.998642
1 1 1 1
0.999813 1 1 0.999813
0.999362 1 1 0.999362
0.999249 1 1 0.999249
0.999331 1 1 0.999331
0.99878 1.00042 1 0.998361
0.9985 1 1 0.998497
0.999952 1 1 0.999952
0.999562 1 1 0.999562
0.998763 1 1 0.998763
1.0015 1.00354 1 0.997967
1 1 1 1
1 1 1 1
1 1 1 1
0.999593 1 1 0.999593
1 1 1 1
1 1 1 1
0.999419 1 1 0.999419
0.999991 1 1 0.999991
0.999526 1 1 0.999526
0.999712 1 1 0.999712
0.998714 1 1 0.998714
1 1 1 1
0.999969 1 1 0.999969
0.999363 1 1 0.999363
0.999456 1 1 0.999456
0.998727 1.00042 1 0.998304
0.999828 1 1 0.999828
0.998615 1 1 0.998615
0.99885 1 1 0.99885
0.998231 1.00002 1 0.998212
1 1 1 1
1 1 1 1
1 1 1 1
1 1 1 1
1 1 1 1
0.999909 1 1 0.999909
0.999284 1 1 0.999284
0.999921 1 1 0.999921
0.999357 1 1 0.999357
1 1 1 1
0.999197 1 1 0.999197
0.999365 1 1 0.999365
0.998741 1.00074 1 0.997998
0.999428 1 1 0.999428
0.999529 1.00144 1 0.998091
0.999822 1 1 0.999822
0.999851 1 1 0.999851
0.999921 1 1 0.999921
0.999887 1 1 0.999887
0.999286 1 1 0.999286
0.999386 1 1 0.999386
0.999456 1 1 0.999456
0.998628 1 1 0.998628
1 1 1 1
0.999826 1 1 0.999826
0.999222 1 1 0.999222
0.999248 1 1 0.999248
0.999976 1 1 0.999976
0.99961 1 1 0.99961
0.999334 1 1 0.999334
0.998759 1.00044 1 0.998323
0.998745 1 1 0.998745
0.998537 1.00001 1 0.998524
1.00189 1.00392 1 0.997971
0.999218 1 1 0.999218
0.999224 1 1 0.999224
0.998538 1.00039 1 0.998149
0.998808 1.00056 1 0.998247
0.998573 1.00019 1 0.99838
1.00666 1.00893 1 0.997748
1 1 1 1
1.00286 1.00498 1 0.997894
0.999772 1 1 0.999772
0.998813 1 1 0.998813
1.00064 1.00261 1 0.99804
1.00969 1.012 1 0.997724
0.999907 1 1 0.999907
0.999312 1 1.00002 0.999293
1 1 1 1
1 1 1 1
0.999426 1 1 0.999426
1 1 1 1
0.999717 1 1 0.999717
0.999531 1 1 0.999531
0.998712 1 1 0.998712
1 1 1 1
0.999978 1 1 0.999978
0.999412 1 1 0.999412
0.999503 1 1 0.999503
0.998606 1.0003 1 0.998306
0.999845 1 1 0.999845
0.998618 1 1 0.998618
0.998849 1 1 0.998849
0.998368 1.00017 1 0.998196
0.999915 1 1 0.999915
0.999995 1 1 0.999995
0.99946 1 1 0.99946
0.999133 1.00094 1 0.998192
0.998534 1.00007 1 0.998463
1.00485 1.00711 1 0.997764
0.999046 1 1 0.999046
0.999648 1.00155 1 0.998097
0.998906 1.00003 1.00057 0.998306
0.999482 1.00144 1 0.99804
1 1 1 1
1 1 1 1
1 1 1 1
0.999946 1 1 0.999946
1 1 1 1
1 1 1 1
1 1 1 1
0.999316 1 1 0.999316
0.999239 1 1 0.999239
1 1 1 1
1 1 1 1
0.999199 1 1 0.999199
0.999327 1 1 0.999327
0.998898 1.0009 1 0.997998
0.999344 1 1 0.999344
0.999493 1.00141 1 0.998091
0.999189 1 1 0.999189
0.998297 1.00035 1 0.997946
0.99924 1.00119 1 0.998054
1.00997 1.01247 1 0.997536
0.99942 1.00129 1 0.998128
1.00979 1.0122 1 0.997617
1 1 1 1
0.99984 1 1 0.99984
0.999071 1 1 0.999071
0.999248 1 1 0.999248
1 1 1 1
0.999659 1 1 0.999659
0.999337 1 1 0.999337
0.998738 1.00045 1 0.998284
0.998573 1.00002 1 0.998551
0.998726 1 1 0.998726
1.00228 1.00432 1 0.997975
0.999215 1 1 0.999215
0.999223 1 1 0.999223
0.998421 1.00036 1 0.998064
0.998844 1.00057 1 0.998275
1 1 1 1
0.999764 1 1 0.999764
0.998858 1 1 0.998858
0.998568 1.00019 1 0.998379
1.00661 1.00893 1 0.997709
1.00071 1.00268 1 0.998029
1.00331 1.0054 1 0.997922
1.00927 1.01156 1 0.997729
0.999898 1 1 0.999898
0.999357 1 1.00006 0.999294
0.998206 1.00024 1 0.997966
0.998761 1.00056 1 0.998203
1.00796 1.01036 1 0.997633
1.00721 1.00961 1 0.997628
1.00434 1.00651 1 0.997843
1.01735 1.01979 1 0.997607
0.999851 1 1 0.999851
1.01157 1.01391 1 0.997698
0.998966 1 1 0.998966
0.998842 1.00067 1 0.998178
1.00773 1.00997 1 0.997778
1.01395 1.01628 1 0.997712
0.999164 1 1 0.999164
0.999461 1 1 0.999461
0.999458 1 1.00068 0.998781
0.999381 1 1 0.999381
1 1 1 1
0.999988 1 1 0.999988
0.999483 1 1 0.999483
0.998471 1.00016 1 0.998309
0.999857 1 1 0.999857
0.998849 1 1 0.998849
0.998621 1 1 0.998621
0.998511 1.00033 1 0.99818
0.999931 1 1 0.999931
0.999997 1 1 0.999997
0.999462 1 1 0.999462
0.998987 1.0008 1 0.998192
0.998499 1.00003 1 0.998468
1.00429 1.00654 1 0.997762
0.999048 1 1 0.999048
0.999267 1.00116 1 0.998108
0.998948 1.00018 1.00047 0.998302
0.999526 1.0015 1 0.998026
1 1 1 1
0.999245 1 1 0.999245
0.999666 1 1 0.999666
0.99932 1 1.00037 0.998947
1.00698 1.00932 1 0.997673
1.00246 1.00454 1 0.997936
1.01294 1.01542 1 0.997561
0.998965 1 1.00044 0.998528
1.00276 1.00485 1 0.99792
1.00084 1.00127 1.00158 0.998002
1.00409 1.0062 1 0.997897
0.999887 1 1 0.999887
1 1 1 1
1 1 1 1
1 1 1 1
1 1 1 1
0.999974 1 1 0.999974
1 1 1 1
0.999936 1 1 0.999936
1 1 1 1
0.999345 1 1 0.999345
0.999282 1 1 0.999282
0.99951 1.00142 1 0.998091
0.999051 1.00106 1 0.997998
0.999201 1 1 0.999201
1 1 1 1
0.999188 1 1 0.999188
0.998408 1.00046 1 0.997947
0.999352 1.0013 1 0.998054
1.00986 1.01236 1 0.997535
0.999356 1.00123 1 0.998127
1.0098 1.01222 1 0.997616
0.998112 1.00017 1 0.997938
1.00922 1.01177 1 0.997488
1.01028 1.01273 1 0.997583
1.02357 1.02611 1 0.997526
1.00893 1.01132 1 0.997639
1.02183 1.02432 1 0.99756
0.999212 1 1 0.999212
0.999222 1 1 0.999222
0.99831 1.00033 1 0.99798
0.998879 1.00058 1 0.998302
1 1 1 1
0.999755 1 1 0.999755
0.998902 1 1 0.998902
0.998563 1.00018 1 0.998379
1.00657 1.00892 1 0.997671
1.00374 1.00581 1 0.99795
1.00076 1.00275 1 0.998018
1.00891 1.0112 1 0.997735
0.999888 1 1 0.999888
0.999417 1 1.00012 0.999295
0.998153 1.00021 1 0.997942
0.998732 1.00053 1 0.998201
1.00819 1.01059 1 0.997627
1.00739 1.00975 1 0.997666
0.999841 1 1 0.999841
0.998963 1 1 0.998963
0.999065 1.00086 1 0.998211
1.00461 1.00678 1 0.997841
1.01769 1.02013 1 0.997613
1.00708 1.00936 1 0.997744
1.01149 1.01382 1 0.997701
1.01425 1.01658 1 0.997712
0.999176 1 1.00001 0.999167
0.999514 1 1.00073 0.998782
0.999519 1 1.00006 0.999458
1.00838 1.01083 1 0.997575
1.0083 1.01067 1 0.997657
1.02145 1.02399 1 0.99752
1.01972 1.02222 1 0.997552
1.01381 1.01618 1 0.997666
1.02084 1.02317 1 0.997725
0.999084 1 1 0.999084
1.01605 1.01836 1 0.99773
0.99848 1 1 0.99848
1.00085 1.00306 1 0.9978
1.01119 1.01361 1 0.997608
1.01472 1.01692 1 0.99784
0.999601 1 1 0.999601
0.99876 1 1 0.99876
0.999796 1 1.00093 0.998862
0.999262 1 1.00065 0.998617
0.998845 1.00065 1 0.998192
0.999999 1 1 0.999999
0.999947 1 1 0.999947
0.999465 1 1 0.999465
0.998473 1 1 0.998473
1.00372 1.00597 1 0.99776
0.999051 1 1 0.999051
0.998941 1.00032 1.00033 0.998298
0.998844 1.00073 1 0.998118
0.999555 1.00155 1 0.998013
1 1 1 1
0.999245 1 1 0.999245
0.999673 1 1 0.999673
0.999288 1 1.00034 0.998944
1.00668 1.00903 1 0.99767
1.00155 1.00362 1 0.997938
1.01305 1.01553 1 0.997559
0.998982 1 1.00045 0.998533
1.00238 1.00446 1 0.997935
1.00109 1.00138 1.00173 0.99799
1.00394 1.00598 1 0.997965
1 1 1 1
0.999791 1 1 0.999791
0.998782 1 1.00002 0.998758
0.999544 1 1.00039 0.999155
0.999562 1 1.00088 0.998679
1.01622 1.01874 1 0.997525
1.00791 1.01021 1 0.997724
1.01419 1.01667 1 0.997559
1.00017 1 1.00199 0.998177
1.0052 1.00737 1 0.997845
1.00327 1.00469 1.00086 0.997725
0.999872 1 1 0.999872
0.999528 1 1 0.999528
0.999897 1 1 0.999897
0.99989 1 1 0.99989
1 1 1 1
1 1 1 1
1 1 1 1
1 1 1 1
1 1 1 1
0.999992 1 1 0.999992
1 1 1 1
0.999966 1 1 0.999966
1 1 1 1
0.999927 1 1 0.999927
1 1 1 1
0.999274 1.00115 1 0.998127
0.999418 1.00137 1 0.998053
1.00972 1.01213 1 0.997615
1.00972 1.01222 1 0.997534
0.99854 1.00059 1 0.997947
0.999187 1 1 0.999187
0.998151 1.00021 1 0.997937
1.00922 1.01176 1 0.997488
1.01003 1.01248 1 0.997583
1.02379 1.02632 1 0.997534
1.00865 1.01104 1 0.997636
1.02131 1.02381 1 0.997559
1.0088 1.01136 1 0.997477
1.02334 1.0259 1 0.997507
1.02352 1.02604 1 0.997546
1.02863 1.03105 1 0.997652
1.01848 1.02099 1 0.997549
1.02302 1.02532 1 0.997752
0.998108 1.00019 1 0.997917
0.998706 1.00051 1 0.998198
1.00839 1.01079 1 0.997621
1.00757 1.00988 1 0.997704
0.999831 1 1 0.999831
0.99896 1 1 0.99896
0.999286 1.00104 1 0.998244
1.00489 1.00707 1 0.99784
1.01803 1.02046 1 0.997618
1.01142 1.01375 1 0.997704
1.00635 1.00866 1 0.99771
1.01454 1.01686 1 0.997712
0.999169 1 1 0.999169
0.999526 1 1.00074 0.998784
0.999581 1 1.00013 0.999455
1.00853 1.01101 1 0.99754
1.00834 1.01071 1 0.997655
1.02117 1.0237 1 0.997527
1.02003 1.02252 1 0.997556
0.999083 1 1 0.999083
0.998644 1.00017 1 0.998474
1.00084 1.00296 1.00003 0.997849
1.01396 1.01633 1 0.997668
1.02016 1.02245 1 0.997756
1.01131 1.01376 1 0.997577
1.01607 1.01838 1 0.997733
1.01414 1.01631 1 0.997862
0.998763 1 1 0.998763
0.999267 1 1.00067 0.998599
0.999596 1 1 0.999596
0.99982 1 1.00093 0.998886
1.02179 1.02437 1 0.997479
1.02189 1.0244 1 0.997554
1.02551 1.028 1 0.99758
1.02262 1.02497 0.999985 0.997728
1.01825 1.02053 1 0.997762
1.01997 1.02213 1 0.997887
0.998685 1 1 0.998685
1.01487 1.01695 1 0.997951
0.998308 1.00017 1 0.998138
1.00521 1.00749 1.00018 0.997565
1.01344 1.01594 1 0.997536
1.01339 1.01553 1 0.997892
0.99969 1 1 0.99969
0.999201 1 1.00017 0.999028
0.998595 1 1 0.998595
1.00014 1 1.00149 0.99865
0.998936 1 1.00037 0.998566
1 1 1 1
1.00633 1.00868 1 0.997667
0.999679 1 1 0.999679
0.999245 1 1 0.999245
0.999325 1 1.00039 0.99894
1.0007 1.00277 1 0.997939
1.0132 1.01568 1 0.997558
0.999043 1 1.00051 0.998537
1.00149 1.00158 1.00193 0.997979
1.00216 1.00422 1 0.997949
1.00392 1.0059 1 0.998032
1 1 1 1
0.999797 1 1 0.999797
0.998829 1 1.00007 0.998759
0.999464 1 1.00031 0.999155
0.999859 1 1.0012 0.998657
1.01646 1.01899 1 0.99752
1.00794 1.01024 1 0.997723
1.01418 1.01667 1 0.99755
1.00033 1.00002 1.00213 0.998182
1.007 1.00917 1 0.997858
1.00278 1.00408 1.00096 0.997745
0.999846 1 1 0.999846
0.999337 1 1 0.999337
0.99893 1 1.00048 0.998454
1.0001 1 1.00126 0.998842
0.999594 1 1.00106 0.998534
1.01728 1.01975 1 0.997583
1.00979 1.01214 1 0.997678
1.01306 1.01537 1 0.997717
1.00172 1 1.00379 0.997937
1.00418 1.0066 1 0.9976
0.999875 1 1 0.999875
0.999463 1 1 0.999463
0.999509 1 1 0.999509
0.99931 1 1 0.99931
0.999537 1 1 0.999537
0.9999 1 1 0.9999
0.999899 1 1 0.999899
1 1 1 1
0.999892 1 1 0.999892
1 1 1 1
1 1 1 1
1 1 1 1
1 1 1 1
1 1 1 1
1 1 1 1
0.999988 1 1 0.999988
1 1 1 1
1 1 1 1
0.999959 1 1 0.999959
1 1 1 1
1.00843 1.01082 1 0.997634
1.00989 1.01233 1 0.997582
1.02085 1.02335 1 0.997559
1.02404 1.02656 1 0.997542
1.00921 1.01175 1 0.997489
0.998173 1.00024 1 0.997937
1.00877 1.01132 1 0.997478
1.02326 1.02582 1 0.9975
1.02342 1.02594 1 0.997546
1.02777 1.03037 0.9998 0.997676
1.01887 1.02138 1 0.997544
1.02332 1.02561 1 0.997767
1.02248 1.02507 1 0.997474
1.02688 1.02968 0.999672 0.997611
1.02612 1.02844 1 0.997742
1.02667 1.02974 0.999233 0.997785
1.02079 1.02315 1 0.997688
1.02392 1.02615 0.99991 0.997924
1.00869 1.01121 1 0.997506
1.00837 1.01075 1 0.997654
1.02092 1.02344 1 0.997535
1.02035 1.02285 1 0.99756
0.999082 1 1 0.999082
0.998829 1.00036 1 0.998467
1.00103 1.00296 1.00018 0.997899
1.01411 1.01648 1 0.997671
1.01944 1.0217 1 0.997786
1.01608 1.01838 1 0.997736
1.01146 1.01394 1 0.997547
1.0135 1.01565 1 0.997883
0.998789 1 1.00002 0.998766
0.999251 1 1.00067 0.998581
0.999592 1 1 0.999592
0.999718 1 1.00081 0.998909
1.02179 1.02437 1 0.997479
1.02155 1.02407 1 0.997541
1.02543 1.0279 1 0.997597
1.02212 1.02447 0.999998 0.997714
0.99868 1 1 0.99868
0.998508 1.0003 1.00003 0.998182
1.00545 1.00752 1.00039 0.997557
1.01798 1.02029 1 0.997736
1.02005 1.02216 1 0.997934
1.01298 1.0155 1 0.997524
1.01484 1.01692 1 0.997954
1.01458 1.01669 1 0.997932
0.998593 1 1 0.998593
0.99874 1 1.00017 0.998568
1.00055 1 1.00191 0.998644
0.999658 1 1 0.999658
0.999107 1 1.00006 0.99905
1.02631 1.02899 0.999806 0.997588
1.0259 1.02836 0.999967 0.997647
1.0211 1.02364 0.999618 0.997906
1.01744 1.01952 1 0.997966
0.998478 1 1 0.998478
1.01708 1.01902 1 0.998093
0.998264 1.00005 1.00029 0.997925
1.00804 1.01023 1.00051 0.99733
1.013 1.01553 1 0.997501
0.99971 1 1 0.99971
0.999234 1 1 0.999234
0.999462 1 1.00065 0.998817
0.998555 1 1 0.998555
1.00118 1 1.0027 0.99848
0.998508 1 1 0.998508
1 1 1 1
0.999804 1 1 0.999804
1.01674 1.01928 1 0.997515
0.999368 1 1.00021 0.999156
0.998822 1 1.00006 0.99876
1.00028 1 1.00164 0.998635
1.00776 1.01006 1 0.997723
1.01402 1.01652 1 0.997542
1.00047 1 1.00229 0.998186
1.0019 1.00337 1.00077 0.997765
1.00855 1.0107 1 0.997872
0.99985 1 1 0.99985
0.999339 1 1 0.999339
0.998873 1 1.00041 0.99846
1.00042 1 1.00158 0.99884
0.999797 1 1.00127 0.998524
1.01735 1.01982 1 0.997577
1.01031 1.01267 1 0.997669
1.01293 1.01522 1 0.997741
1.00115 1 1.00324 0.997912
1.00345 1.00584 1.00006 0.997569
0.999444 1 1 0.999444
0.999474 1 1.00049 0.998983
1.00028 1 1.002 0.998286
1.00087 1 1.00229 0.998577
0.999411 1 1.001 0.998417
1.01907 1.02116 1 0.997951
1.00918 1.01162 1 0.997593
1.01073 1.01299 1 0.997765
1.00329 1.00121 1.00433 0.997752
1.0005 1.00314 1 0.997365
0.999878 1 1 0.999878
0.99948 1 1 0.99948
0.99922 1 1 0.99922
0.999489 1 1 0.999489
0.999537 1 1 0.999537
0.999281 1 1 0.999281
0.999138 1 1 0.999138
0.999259 1 1 0.999259
0.999541 1 1 0.999541
0.999898 1 1 0.999898
0.9999 1 1 0.9999
1 1 1 1
0.9999 1 1 0.9999
1 1 1 1
1 1 1 1
1 1 1 1
1 1 1 1
1 1 1 1
1 1 1 1
0.999998 1 1 0.999998
1 1 1 1
0.999983 1 1 0.999983
1 1 1 1
1 1 1 1
1.01921 1.02173 1 0.997539
1.02327 1.02578 1 0.997546
1.02363 1.0259 1 0.997782
1.02688 1.02971 0.999556 0.9977
1.02315 1.02572 1 0.997493
1.00873 1.01128 1 0.997479
1.02272 1.02532 1 0.997461
1.02722 1.02988 0.999816 0.997602
1.02589 1.02823 1 0.997722
1.02623 1.0295 0.999026 0.997798
1.02019 1.02255 1 0.997688
1.0234 1.02557 0.999921 0.99796
1.0264 1.0289 1 0.997571
1.02697 1.03129 0.998027 0.997772
1.02562 1.02858 0.999217 0.997904
1.02164 1.02366 1 0.998023
1.02176 1.02434 1 0.99748
1.0212 1.02373 1 0.997529
1.02531 1.02777 1 0.997614
1.02165 1.02401 1 0.997701
0.998675 1 1 0.998675
0.998469 1.00024 1 0.998226
1.00561 1.00749 1.00058 0.99755
1.01767 1.02 1 0.997711
1.02014 1.02221 1 0.997981
1.01489 1.01697 1 0.997956
1.01259 1.01512 1 0.997512
1.01567 1.01774 1 0.997972
0.998592 1 1 0.998592
0.998569 1 1 0.998569
1.00128 1 1.00265 0.998638
0.999626 1 1 0.999626
0.999071 1 1 0.999071
1.02628 1.02885 0.99991 0.997591
1.02611 1.02855 0.999982 0.99765
1.02097 1.02349 0.999644 0.997897
0.998472 1 1 0.998472
0.998969 1.00075 1.00026 0.997966
1.00758 1.00952 1.00076 0.99732
1.01796 1.02004 1 0.997955
1.01267 1.01514 1 0.997567
1.01598 1.01794 1 0.998075
0.99972 1 1 0.99972
0.998549 1 1 0.998549
0.998564 1 1 0.998564
1.00103 1 1.00256 0.998467
0.999375 1 1.00055 0.998827
0.999209 1 1 0.999209
1.02677 1.02986 0.999324 0.997666
1.02518 1.02984 0.997652 0.997815
1.01902 1.02245 0.998649 0.997994
1.02233 1.02459 0.999655 0.998141
0.998344 1 1 0.998344
1.01405 1.01628 1 0.997805
1.00058 1.00142 1.00165 0.997523
1.00545 1.00724 1.00104 0.997188
0.999801 1 1 0.999801
0.999356 1 1 0.999356
0.998967 1 1 0.998967
1.00129 1 1.00274 0.998552
0.998468 1 1 0.998468
0.999649 1 1.00127 0.998377
0.999855 1 1 0.999855
0.999342 1 1 0.999342
1.01754 1.02002 1 0.997572
1.00046 1 1.00163 0.998837
0.998736 1 1.00027 0.998466
0.999913 1 1.0014 0.998514
1.01105 1.01342 1 0.99766
1.01303 1.01529 1 0.997764
1.00061 1 1.00273 0.997887
1.00287 1.00507 1.00027 0.997538
0.999446 1 1 0.999446
0.999232 1 1.00024 0.998992
1.00028 1 1.00198 0.998303
1.00113 1 1.00255 0.99858
0.998947 1 1.00048 0.998472
1.01915 1.02121 1 0.997979
1.00873 1.01117 1 0.997595
1.01189 1.01408 1 0.99784
1.00304 1.00075 1.00458 0.997722
1.00125 1.00391 1.00003 0.997322
0.999156 1 1 0.999156
0.999767 1 1.00109 0.998682
1.00192 1 1.00378 0.998142
0.999836 1 1.00153 0.998311
1.02185 1.02791 0.995931 0.998167
1.01568 1.01778 0.999872 0.998061
1.00573 1.00835 1 0.997405
1.00302 1.0014 1.00426 0.997375
0.999496 1 1 0.999496
0.999233 1 1 0.999233
0.999087 1 1 0.999087
0.999537 1 1 0.999537
0.999252 1 1 0.999252
0.99954 1 1 0.99954
0.99912 1 1 0.99912
0.999271 1 1 0.999271
0.999016 1 1 0.999016
0.999097 1 1 0.999097
0.999249 1 1 0.999249
0.99953 1 1 0.99953
0.999892 1 1 0.999892
0.999897 1 1 0.999897
1 1 1 1
0.999901 1 1 0.999901
1 1 1 1
1 1 1 1
1 1 1 1
1 1 1 1
1 1 1 1
1 1 1 1
1 1 1 1
1 1 1 1
0.999996 1 1 0.999996
1 1 1 1
1 1 1 1
1.01956 1.02192 1 0.997688
1.02564 1.028 1 0.997701
1.02288 1.025 0.999932 0.997996
1.02579 1.0292 0.998876 0.997812
1.02758 1.03006 1 0.997594
1.02298 1.0256 1 0.997449
1.0263 1.02888 0.999918 0.997578
1.02611 1.03022 0.998241 0.997763
1.02546 1.02858 0.999056 0.997905
1.02305 1.02508 1 0.998024
1.02662 1.03051 0.998512 0.997713
1.02703 1.03331 0.995975 0.997943
1.0268 1.03053 0.998326 0.998045
1.02624 1.02872 1 0.997594
1.0263 1.02872 1 0.997654
1.0208 1.02328 0.999682 0.997888
0.998465 1 1 0.998465
0.999779 1.0016 1.00018 0.998007
1.00693 1.00879 1.00085 0.997309
1.01845 1.02055 1 0.997945
1.01504 1.01701 1 0.998058
1.01266 1.01506 1 0.997633
0.998543 1 1 0.998543
0.998619 1 1 0.998619
1.00073 1 1.00228 0.998454
0.99973 1 1 0.99973
0.999149 1 1.00031 0.998837
0.999184 1 1 0.999184
1.02735 1.03031 0.999457 0.997672
1.02587 1.03004 0.998128 0.997822
1.01916 1.02235 0.998897 0.997985
0.998531 1.0002 1 0.998333
1.00067 1.00167 1.0014 0.997607
1.0048 1.00669 1.0009 0.997221
1.02216 1.02437 0.999686 0.998152
1.01471 1.01695 1 0.997794
0.999836 1 1 0.999836
0.999356 1 1 0.999356
0.998486 1 1 0.998486
1.00026 1 1.00182 0.99844
1.00122 1 1.00266 0.998567
0.998946 1 1 0.998946
1.02755 1.03284 0.997011 0.99786
1.01903 1.02716 0.994118 0.997955
1.02009 1.02433 0.997677 0.998181
1.0187 1.02085 0.999715 0.99818
0.999181 1.00017 1.00088 0.998133
1.00471 1.00602 1.0014 0.997295
1.00265 1.00268 1.00264 0.997329
0.999917 1 1 0.999917
0.999583 1 1 0.999583
0.999408 1 1 0.999408
0.999041 1 1 0.999041
0.999374 1 1.00066 0.998714
1.0007 1 1.00227 0.998438
0.99851 1 1 0.99851
1.01007 1 1.01152 0.998568
0.999448 1 1 0.999448
0.999138 1 1.00014 0.999002
1.01911 1.02115 1 0.998007
1.00164 1 1.00306 0.998584
1.00047 1 1.00215 0.998321
0.998562 1 1.00004 0.998527
1.00807 1.01049 1 0.997598
1.01297 1.01509 1 0.997915
1.00292 1.00042 1.00482 0.997692
1.00204 1.00477 1 0.997279
0.99914 1 1 0.99914
1.00009 1 1.0014 0.998693
1.00232 1.00001 1.00415 0.998165
0.999648 1 1.00131 0.998337
1.02313 1.02884 0.996268 0.998177
1.01529 1.01734 0.999949 0.99803
1.00661 1.00919 1 0.997444
1.00286 1.00176 1.00377 0.997337
0.998997 1 1.00003 0.998962
1.02092 1.02928 0.993692 0.998168
1.00075 1 1.0023 0.998455
1.00062 1.00003 1.00268 0.99792
1.02062 1.02388 0.998541 0.998267
1.00648 1.00897 1 0.997525
1.00431 1.00388 1.00323 0.997206
0.999246 1 1 0.999246
0.999084 1 1 0.999084
0.998969 1 1 0.998969
0.99954 1 1 0.99954
0.999283 1 1 0.999283
0.999102 1 1 0.999102
0.999528 1 1 0.999528
0.999251 1 1 0.999251
0.999 1 1 0.999
0.999118 1 1 0.999118
0.998923 1 1 0.998923
0.99898 1 1 0.99898
0.999098 1 1 0.999098
0.99924 1 1 0.99924
0.999506 1 1 0.999506
0.999884 1 1 0.999884
0.999891 1 1 0.999891
1 1 1 1
0.999896 1 1 0.999896
1 1 1 1
1 1 1 1
1 1 1 1
1 1 1 1
1 1 1 1
0.999943 1 1 0.999943
1 1 1 1
1 1 1 1
1 1 1 1
1 1 1 1
1 1 1 1
1 1 1 1
1.02447 1.0265 1 0.998025
1.02533 1.0286 0.998906 0.997906
1.02525 1.02919 0.998417 0.997754
1.02623 1.02887 0.99985 0.997584
1.02644 1.03041 0.998412 0.997732
1.02743 1.03346 0.996223 0.997932
1.02638 1.03044 0.998004 0.998058
1.02687 1.03419 0.995003 0.997915
1.02988 1.0369 0.995156 0.998061
1.01425 1.02672 0.989561 0.99827
1.02797 1.03078 0.999596 0.997678
1.02661 1.03032 0.998565 0.997829
1.01924 1.02224 0.999093 0.997976
0.998737 1.00036 1.00006 0.998323
1.00081 1.00186 1.00126 0.997691
1.00409 1.00608 1.00078 0.997253
1.02207 1.02428 0.999687 0.998162
1.01482 1.01708 1 0.997783
0.998505 1 1 0.998505
1.00094 1 1.00244 0.998502
1.00152 1 1.00294 0.998581
0.999871 1 1 0.999871
0.999355 1 1 0.999355
0.998925 1 1 0.998925
1.02704 1.03277 0.996568 0.997873
0.999913 1 1 0.999913
0.999564 1 1 0.999564
1.01898 1.02641 0.994792 0.997954
1.02074 1.02507 0.997619 0.998149
0.999095 1.00005 1.00084 0.998207
1.00301 1.00242 1.0033 0.997302
1.00524 1.00712 1.00084 0.997298
1.01767 1.01988 0.999664 0.998165
0.999464 1 1 0.999464
0.999038 1 1 0.999038
0.998451 1 1 0.998451
1.00669 1 1.00803 0.998667
1.0008 1 1.00238 0.998427
0.999507 1 1.00078 0.998725
1.02952 1.03633 0.995393 0.998023
1.01104 1.02479 0.988473 0.998093
1.0184 1.0235 0.996649 0.998367
1.00571 1.00853 0.999306 0.997894
1.00054 1 1.00234 0.998199
1.00431 1.00169 1.00547 0.997164
0.99958 1 1 0.99958
0.999532 1 1 0.999532
0.999321 1 1 0.999321
0.999059 1 1 0.999059
0.998854 1 1 0.998854
0.999559 1 1.00107 0.998495
1.01565 1 1.01729 0.998387
1.00021 1 1.00151 0.998701
0.999124 1 1 0.999124
1.0001 1 1.0014 0.998705
1.02433 1.02964 0.996647 0.998187
1.01501 1.01705 1 0.997998
0.999405 1 1.00104 0.998362
1.00259 1 1.00441 0.998187
1.00771 1.01022 1.00004 0.997483
1.00268 1.00204 1.00335 0.997298
0.999045 1 1.00009 0.998955
1.02176 1.0311 0.992731 0.998197
1.00055 1 1.00208 0.998471
1.0006 1.00002 1.00269 0.997894
1.01958 1.02308 0.998333 0.998241
1.00703 1.00948 1 0.99757
1.00412 1.00342 1.00348 0.997218
0.99996 1 1.00126 0.998699
1.01632 1.02713 0.990942 0.998516
0.999975 1.00005 1.00167 0.998262
1.00216 1.00073 1.00379 0.99764
1.00969 1.01473 0.997099 0.997928
1.00169 1.00216 1.00221 0.997322
1.00376 1.00769 0.997527 0.998573
0.999082 1 1 0.999082
0.999022 1 1.00006 0.998967
0.99886 1 1.00001 0.99885
0.999527 1 1 0.999527
0.999254 1 1 0.999254
0.99914 1 1 0.99914
0.998983 1 1 0.998983
0.999505 1 1 0.999505
0.99923 1 1 0.99923
0.998906 1 1 0.998906
0.999097 1 1 0.999097
0.998995 1 1 0.998995
0.998897 1 1 0.998897
0.998977 1 1 0.998977
0.999091 1 1 0.999091
0.999177 1 1 0.999177
0.999442 1 1 0.999442
0.999282 1 1 0.999282
0.999438 1 1 0.999438
0.999877 1 1 0.999877
0.999883 1 1 0.999883
1 1 1 1
0.99989 1 1 0.99989
1 1 1 1
1 1 1 1
1 1 1 1
1 1 1 1
1 1 1 1
0.999958 1 1 0.999958
0.99994 1 1 0.99994
1 1 1 1
1 1 1 1
1 1 1 1
1 1 1 1
1 1 1 1
1 1 1 1
1.02601 1.03041 0.997656 0.998071
1.02783 1.03363 0.996454 0.99792
1.02624 1.0303 0.998301 0.997751
1.0267 1.03398 0.995035 0.997913
1.02836 1.03524 0.995288 0.998058
1.01488 1.02641 0.990507 0.998247
1.02671 1.03647 0.992442 0.998126
0.998585 1.01596 0.985038 0.99783
1.0103 1.0252 0.986735 0.998716
0.999655 1 1 0.999655
1.02651 1.03265 0.996156 0.997886
1.01925 1.02577 0.995683 0.997954
1.02136 1.02574 0.997617 0.998118
0.999101 1 1.00082 0.998281
1.00342 1.00214 1.00402 0.997275
1.00611 1.00838 1.00045 0.997301
1.0167 1.01887 0.999722 0.998149
0.998392 1 1 0.998392
1.00332 1 1.00456 0.998767
1.00073 1 1.00231 0.998417
0.999909 1 1 0.999909
0.999509 1 1.00077 0.998736
0.999519 1 1 0.999519
0.999035 1 1 0.999035
0.999544 1 1 0.999544
1.02856 1.03693 0.993885 0.99803
0.999607 1 1 0.999607
0.999531 1 1 0.999531
0.999283 1 1 0.999283
1.01185 1.02444 0.98959 0.998096
1.01815 1.02313 0.996808 0.998319
0.999859 1 1.00164 0.998219
1.00425 1.00151 1.00555 0.9972
1.00504 1.0075 0.999672 0.997892
0.99909 1 1 0.99909
0.998932 1 1.0001 0.99883
1.00268 1 1.00405 0.998635
1.01258 1 1.01418 0.998424
0.999361 1 1.00084 0.998518
1.01824 1.02967 0.990777 0.99811
1.01147 1.02779 0.985892 0.998211
1.0111 1.01497 0.998104 0.998088
1.00358 1.00391 1.00195 0.997728
1.00311 1 1.00484 0.998276
0.999266 1 1 0.999266
0.999166 1 1 0.999166
0.999056 1 1 0.999056
0.998907 1 1.00004 0.998865
0.999225 1 1.00056 0.99867
1.01123 1 1.01283 0.99842
1.01361 1 1.01528 0.998356
0.999103 1 1.00016 0.998948
1.00038 1 1.0019 0.998487
1.02236 1.03299 0.991473 0.998225
1.01846 1.02228 0.998046 0.998214
1.00726 1.00967 1 0.997614
1.00054 1 1.00268 0.997867
1.00366 1.00283 1.0036 0.997231
0.999924 1 1.00119 0.998734
1.01489 1.02673 0.989929 0.998527
0.999583 1.00002 1.00128 0.998289
1.00208 1.00036 1.00408 0.997651
1.01079 1.01533 0.997519 0.998005
1.00202 1.00202 1.00269 0.997308
1.00324 1.00789 0.997264 0.998115
1.00001 1 1.00144 0.998573
1.00546 1.01711 0.990022 0.998512
1.0002 1 1.00194 0.99826
1.00408 1.00011 1.00636 0.997631
1.00264 1.00507 0.999892 0.997685
0.953215 0.97978 0.985769 0.986932
0.975311 0.987125 0.994261 0.993735
0.981713 0.999016 0.984017 0.998641
0.86094 0.904757 0.967307 0.983732
0.822857 0.9036 0.928185 0.981101
0.999004 1 1.00004 0.998965
0.99901 1 1.00014 0.998865
0.998878 1 1 0.998878
0.999505 1 1 0.999505
0.99922 1 1 0.99922
0.999097 1 1 0.999097
0.999009 1 1 0.999009
0.998888 1 1 0.998888
0.999071 1 1 0.999071
0.999465 1 1 0.999465
0.999191 1 1 0.999191
0.998898 1 1 0.998898
0.99898 1 1 0.99898
0.998987 1 1 0.998987
0.998948 1 1 0.998948
0.999016 1 1 0.999016
0.999148 1 1 0.999148
0.999431 1 1 0.999431
0.999212 1 1 0.999212
0.99912 1 1 0.99912
0.999262 1 1 0.999262
0.999253 1 1 0.999253
0.999497 1 1 0.999497
0.999436 1 1 0.999436
0.999873 1 1 0.999873
0.999877 1 1 0.999877
1 1 1 1
0.999882 1 1 0.999882
1 1 1 1
1 1 1 1
1 1 1 1
1 1 1 1
1 1 1 1
0.999965 1 1 0.999965
0.999955 1 1 0.999955
1 1 1 1
0.999937 1 1 0.999937
1 1 1 1
1 1 1 1
1 1 1 1
1 1 1 1
1 1 1 1
1.02686 1.03355 0.995456 0.998055
1.02647 1.03372 0.99507 0.997912
1.01558 1.02597 0.991632 0.998224
1.0005 1.01572 0.987112 0.997872
1.02508 1.03487 0.992399 0.998124
1.01492 1.02717 0.989421 0.998639
1.02452 1.03099 0.99554 0.998172
0.962957 0.984897 0.984687 0.992929
1.00696 1.01935 0.989577 0.998247
0.999663 1 1 0.999663
0.999655 1 1 0.999655
0.999353 1 1 0.999353
0.999381 1 1 0.999381
1.02726 1.03734 0.992228 0.998038
1.01197 1.02365 0.990478 0.998098
1.01783 1.02274 0.996922 0.998272
0.999008 1 1.00077 0.998238
1.00395 1.00137 1.00536 0.997236
1.00433 1.00669 0.999767 0.99789
1.00499 1 1.00643 0.998569
1.00959 1 1.01115 0.998461
0.999172 1 1.00063 0.998542
0.99953 1 1 0.99953
0.998927 1 1.00012 0.998805
0.99912 1 1 0.99912
0.999635 1 1 0.999635
0.999244 1 1 0.999244
1.01642 1.02879 0.98983 0.998125
0.999308 1 1 0.999308
0.999196 1 1 0.999196
0.999081 1 1 0.999081
1.01382 1.0296 0.986439 0.998217
1.00975 1.0141 0.997622 0.998086
1.00295 1 1.0047 0.998266
1.00381 1.00425 1.00183 0.997739
0.99899 1 1.00013 0.998862
0.998931 1 1.00028 0.998651
1.01432 1 1.01599 0.998355
1.01224 1 1.01386 0.998396
1.00905 1.02859 0.982793 0.998185
1.00339 1.02249 0.983107 0.998183
1.00503 1.0072 1.00005 0.997798
1.00013 1.00031 1.00152 0.998307
0.998967 1 1 0.998967
0.99917 1 1.00025 0.998923
1.00318 1 1.00452 0.998666
1.02452 1 1.02636 0.998209
0.937165 0.972856 0.97677 0.986224
1.00006 1 1.00129 0.998769
0.999408 1 1.00109 0.998316
1.01315 1.02606 0.988868 0.998538
1.01188 1.01583 0.998024 0.998082
1.0027 1.00212 1.0033 0.997293
1.00212 1 1.00447 0.997663
1.0025 1.00789 0.996998 0.997647
1.00005 1 1.00145 0.9986
1.0049 1.01738 0.989223 0.998499
0.999707 1 1.00144 0.998271
1.00377 1.00004 1.00611 0.997631
1.00299 1.00596 0.999333 0.997709
0.952223 0.981811 0.983172 0.986464
0.970219 0.984845 0.993064 0.99203
0.983421 0.997076 0.987617 0.998672
0.863421 0.904092 0.970901 0.983638
0.806583 0.891471 0.923714 0.9795
0.999508 1 1.00077 0.998742
0.884032 0.923015 0.973349 0.98399
0.862893 0.90814 0.967343 0.982253
0.983717 1.0066 0.978831 0.998399
1.00491 1.00002 1.00653 0.99837
1.01077 1.00271 1.01019 0.997864
0.979469 0.992404 0.988151 0.998801
0.95212 0.972271 0.993039 0.986138
0.957239 0.967614 0.997916 0.991344
0.840942 0.9051 0.944223 0.983999
0.870004 0.939119 0.942473 0.982952
0.999252 1 1.00037 0.998881
0.99892 1 1.00005 0.99887
0.999088 1 1 0.999088
0.999487 1 1 0.999487
0.999204 1 1 0.999204
0.999051 1 1 0.999051
0.998983 1 1 0.998983
0.9989 1 1 0.9989
0.999431 1 1 0.999431
0.998983 1 1 0.998983
0.999034 1 1 0.999034
0.999172 1 1 0.999172
0.998947 1 1 0.998947
0.998949 1 1 0.998949
0.999167 1 1.0002 0.99897
0.998999 1 1 0.998999
0.999179 1 1 0.999179
0.99921 1 1 0.99921
0.999106 1 1 0.999106
0.999056 1 1 0.999056
0.999102 1 1 0.999102
0.999046 1 1 0.999046
0.998972 1 1 0.998972
0.999242 1 1 0.999242
0.999261 1 1 0.999261
0.999508 1 1 0.999508
0.999224 1 1 0.999224
0.999478 1 1 0.999478
0.999871 1 1 0.999871
0.999435 1 1 0.999435
0.999873 1 1 0.999873
1 1 1 1
0.999876 1 1 0.999876
1 1 1 1
1 1 1 1
1 1 1 1
1 1 1 1
1 1 1 1
0.999644 1 1 0.999644
0.999965 1 1 0.999965
0.999964 1 1 0.999964
1 1 1 1
0.999952 1 1 0.999952
1 1 1 1
1 1 1 1
1 1 1 1
1 1 1 1
1 1 1 1
1.00221 1.01579 0.988685 0.997917
1.02382 1.03348 0.992515 0.998122
1.01934 1.02939 0.991664 0.99856
0.960203 0.981089 0.984827 0.993791
1.00703 1.01907 0.989834 0.998333
1.02654 1.03373 0.994892 0.998137
1.01661 1.02371 0.99495 0.9981
0.968656 0.983572 0.990374 0.994407
0.953733 0.978509 0.98898 0.985541
0.841426 0.896567 0.954714 0.983015
0.804822 0.87849 0.934151 0.980722
0.99934 1 1 0.99934
0.999663 1 1 0.999663
0.999654 1 1 0.999654
0.999341 1 1 0.999341
0.999147 1 1 0.999147
0.999183 1 1 0.999183
0.999335 1 1 0.999335
0.99936 1 1 0.99936
1.01522 1.0284 0.989032 0.998139
1.01671 1.03216 0.986791 0.998222
1.00856 1.01333 0.9972 0.998083
1.00313 1 1.00488 0.998256
1.00422 1.00437 1.00211 0.997749
1.01483 1 1.0165 0.998354
1.01335 1 1.015 0.998371
0.998758 1 1.00013 0.998632
0.999226 1 1 0.999226
0.998959 1 1.0001 0.998859
0.99935 1 1 0.99935
0.999107 1 1 0.999107
1.00999 1.02867 0.983644 0.998168
0.998991 1 1 0.998991
0.999009 1 1.00007 0.998938
1.00433 1.02178 0.98473 0.998162
1.00404 1.00697 0.99919 0.997904
1.00195 1.00063 1.00309 0.998244
1.00472 1 1.00611 0.998624
1.02172 1 1.02355 0.998218
1.0085 1.02525 0.985473 0.998158
0.985435 1.00679 0.980542 0.99821
0.997332 1.00052 0.99861 0.998204
1.00655 1 1.00823 0.998335
0.998955 1 1.00014 0.998814
1.00191 1 1.00319 0.998718
1.0204 1 1.02202 0.998414
0.872112 0.927032 0.95561 0.984457
0.948724 0.976113 0.984163 0.987581
0.999803 1 1.00118 0.998628
0.999348 1 1.00107 0.998283
1.00558 1.01817 0.989129 0.998486
1.00332 1.00702 0.998587 0.997733
1.00333 1 1.00571 0.997632
0.95054 0.977213 0.986925 0.985591
0.972675 0.988663 0.991055 0.992708
0.985382 0.995611 0.991014 0.9987
0.857533 0.904859 0.963291 0.983812
0.792331 0.878804 0.921996 0.97788
0.999146 1 1.0004 0.998744
0.876546 0.925595 0.962037 0.984379
0.858229 0.902705 0.968585 0.981566
0.985524 1.00737 0.979889 0.99839
1.0045 1.00004 1.00609 0.998391
1.00982 1.00134 1.01051 0.997979
0.971181 0.987692 0.984386 0.99888
0.956832 0.979232 0.99192 0.985085
0.959344 0.971374 0.99458 0.992998
0.843302 0.899464 0.954007 0.982761
0.869727 0.940747 0.941132 0.982335
1.0011 1 1.00214 0.998962
0.888266 0.916022 0.985658 0.983809
0.949328 0.967261 0.993405 0.987976
0.989307 1.0004 0.990046 0.998852
1.01219 1.00141 1.01194 0.998832
0.986739 0.980072 1.00772 0.999091
0.943216 0.95891 0.989503 0.994069
0.944292 0.958562 1.00021 0.984907
0.860118 0.916555 0.954573 0.983084
0.899017 0.959862 0.950677 0.985203
0.998861 1 1 0.998861
0.999067 1 1 0.999067
0.999739 1 1.00047 0.999266
0.999432 1 1 0.999432
0.999195 1 1 0.999195
0.999052 1 1 0.999052
0.998979 1 1 0.998979
0.998945 1 1 0.998945
0.999178 1 1 0.999178
0.998956 1 1 0.998956
0.998999 1 1 0.998999
0.999242 1 1.00025 0.998992
1.00402 1 1.00483 0.9992
0.999015 1 1.00009 0.998928
0.998988 1 1 0.998988
0.999208 1 1 0.999208
0.999092 1 1 0.999092
0.999055 1 1 0.999055
0.999099 1 1 0.999099
0.999052 1 1 0.999052
0.999056 1 1 0.999056
0.999008 1 1 0.999008
0.999033 1 1 0.999033
0.998825 1 1 0.998825
0.99943 1 1.00093 0.998503
0.998855 1 1 0.998855
0.998969 1 1 0.998969
0.99919 1 1 0.99919
0.99924 1 1 0.99924
0.999502 1 1 0.999502
0.999261 1 1 0.999261
0.999508 1 1 0.999508
0.999872 1 1 0.999872
0.999459 1 1 0.999459
0.999871 1 1 0.999871
1 1 1 1
0.999873 1 1 0.999873
1 1 1 1
1 1 1 1
1 1 1 1
1 1 1 1
1 1 1 1
0.999663 1 1 0.999663
0.999957 1 1 0.999957
0.999644 1 1 0.999644
1 1 1 1
0.999965 1 1 0.999965
0.999962 1 1 0.999962
1 1 1 1
1 1 1 1
1 1 1 1
1 1 1 1
1 1 1 1
0.872454 0.915796 0.96817 0.983993
0.867808 0.910484 0.969768 0.982841
0.962041 0.983804 0.983487 0.994298
1.00874 1.01871 0.991781 0.99842
1.02847 1.03607 0.994552 0.998103
0.963019 0.977075 0.989911 0.995659
1.01619 1.02339 0.994812 0.998148
0.957492 0.982564 0.987481 0.986837
0.855577 0.902744 0.963616 0.983536
0.795676 0.876997 0.926654 0.979085
0.987701 0.998903 0.991921 0.996838
0.952723 0.972774 0.992716 0.986574
0.832945 0.899005 0.941917 0.983652
0.86564 0.931651 0.946412 0.981756
0.999067 1 1 0.999067
0.999359 1 1 0.999359
0.999662 1 1 0.999662
0.999328 1 1 0.999328
0.999175 1 1 0.999175
0.99909 1 1 0.99909
0.999182 1 1 0.999182
0.999208 1 1 0.999208
0.999311 1 1 0.999311
0.99934 1 1 0.99934
1.01067 1.0283 0.984673 0.998152
1.00429 1.02008 0.986356 0.998143
1.00323 1.00695 0.998289 0.99801
1.00345 1.00094 1.00433 0.998181
1.01839 1 1.0202 0.998227
1.00636 1 1.00779 0.998582
0.998953 1 1 0.998953
0.999016 1 1 0.999016
1.0081 1.0256 0.984742 0.998165
0.998929 1 1.00013 0.998801
1.0019 1 1.00321 0.998689
0.986262 1.00561 0.982588 0.998135
0.997141 1.00038 0.998432 0.998327
1.00753 1.00047 1.00883 0.998235
1.01783 1 1.01947 0.998389
0.999289 1.00522 0.995631 0.998458
0.988537 1 0.989686 0.998839
1.01381 1.00027 1.01516 0.998408
1.00047 1 1.00169 0.998782
1.00015 1 1.00151 0.998642
1.01172 1 1.01324 0.998502
0.894293 0.921937 0.983852 0.985935
0.880499 0.926367 0.965811 0.984133
0.943131 0.97682 0.978994 0.986228
0.998745 1 1 0.998745
1.0041 1 1.0057 0.998413
0.987883 1.00787 0.981756 0.998382
1.00902 1 1.01095 0.998092
0.870516 0.920818 0.960742 0.984002
0.956496 0.977293 0.991809 0.986803
0.95479 0.971234 0.99158 0.991416
0.967279 0.983764 0.984266 0.998961
0.84427 0.899914 0.954384 0.983008
0.860324 0.907155 0.966279 0.981472
0.86158 0.935592 0.93741 0.98238
1.00173 1 1.00276 0.998968
0.889405 0.919444 0.982684 0.984375
0.953618 0.970774 0.994354 0.987905
0.991669 1.00027 0.992475 0.998918
1.01159 1.00032 1.01247 0.998813
0.984833 0.979628 1.00636 0.998965
0.944633 0.960601 0.991044 0.992264
0.946495 0.963422 0.996729 0.985654
0.869406 0.926695 0.953718 0.983708
0.889612 0.951656 0.948819 0.985229
1.00334 0.999757 1.00411 0.99947
0.951873 0.97052 0.990193 0.990501
0.939867 0.960633 0.987148 0.99112
1.00481 0.991569 1.01364 0.999715
0.962477 0.96296 1.00315 0.996357
0.952116 0.959585 1.00736 0.984967
0.905019 0.944447 0.974031 0.983801
0.905217 0.971912 0.945902 0.984644
0.999047 1 1 0.999047
0.999877 1 1.00061 0.999266
1.0094 1 1.00999 0.999421
0.999177 1 1 0.999177
0.998999 1 1 0.998999
0.998962 1 1 0.998962
0.999295 1 1.00028 0.999013
0.998987 1 1 0.998987
0.998956 1 1.00003 0.998925
1.00634 1 1.00711 0.999238
1.01277 0.998526 1.01483 0.999446
1.00469 1 1.00557 0.99913
0.998934 1 1 0.998934
0.999053 1 1 0.999053
0.999096 1 1 0.999096
0.999058 1 1 0.999058
0.999014 1 1 0.999014
0.999055 1 1 0.999055
0.999038 1 1 0.999038
0.998966 1 1 0.998966
0.999126 1 1 0.999126
0.998846 1 1 0.998846
0.998847 1 1 0.998847
0.999305 1 1.00069 0.998611
0.999662 1 1.00153 0.998139
0.999022 1 1.00025 0.99877
0.999377 1 1.00079 0.998586
0.998885 1 1 0.998885
0.99907 1 1 0.99907
0.998966 1 1 0.998966
0.999188 1 1 0.999188
0.99947 1 1 0.99947
0.999238 1 1 0.999238
0.999501 1 1 0.999501
0.99987 1 1 0.99987
0.999508 1 1 0.999508
0.999871 1 1 0.999871
1 1 1 1
0.999871 1 1 0.999871
1 1 1 1
1 1 1 1
1 1 1 1
1 1 1 1
1 1 1 1
0.999548 1 1 0.999548
0.999945 1 1 0.999945
0.999616 1 1 0.999616
1 1 1 1
0.999959 1 1 0.999959
0.999644 1 1 0.999644
1 1 1 1
1 1 1 1
0.999966 1 1 0.999966
1 1 1 1
1 1 1 1
1 1 1 1
0.892779 0.919722 0.98526 0.985227
0.875627 0.921154 0.966318 0.983709
0.951358 0.972385 0.990466 0.987793
0.858949 0.90335 0.968099 0.98218
0.959901 0.979462 0.986091 0.993853
1.0145 1.0232 0.99329 0.998197
0.960906 0.982857 0.989453 0.988088
0.856733 0.90608 0.961652 0.983244
0.789604 0.877829 0.92026 0.977437
0.984019 0.996808 0.990969 0.996166
0.952657 0.973628 0.993324 0.985036
0.84329 0.905618 0.947816 0.982444
0.863502 0.932882 0.943518 0.98104
0.968942 0.985735 0.987549 0.995357
0.957474 0.965247 1.00744 0.984621
0.868838 0.928747 0.951465 0.983214
0.895558 0.961252 0.946912 0.983891
0.999113 1 1.0002 0.998914
0.999095 1 1 0.999095
0.999378 1 1 0.999378
0.999203 1 1 0.999203
0.998931 1 1 0.998931
0.99911 1 1 0.99911
0.999182 1 1 0.999182
0.999179 1 1 0.999179
0.999234 1 1 0.999234
0.999286 1 1 0.999286
1.00821 1.0266 0.983879 0.998172
0.988604 1.00527 0.985334 0.99806
0.996792 1 0.998341 0.998449
1.00945 1.00104 1.01028 0.998136
1.01559 1 1.01726 0.998363
1.00158 1 1.00292 0.998661
0.998983 1 1.00019 0.998789
0.999904 1 1.00113 0.99878
0.995129 1.00593 0.990773 0.998472
1.00016 1 1.00151 0.998651
1.01196 1 1.01349 0.998496
0.987378 1.00018 0.988426 0.998758
1.01342 1.00052 1.01453 0.998388
0.968333 0.992061 0.977104 0.998953
1.00516 0.999066 1.00683 0.999271
1.01611 1 1.01752 0.998619
0.999548 1 1.00089 0.998662
1.00727 1 1.00878 0.998504
0.951601 0.96637 0.992855 0.991803
0.897827 0.92179 0.987801 0.986033
0.8738 0.922661 0.961963 0.984489
1.00232 1 1.00335 0.998974
1.01094 0.999223 1.01295 0.998792
0.991897 1 0.992909 0.998981
0.89938 0.925311 0.9867 0.985078
0.955529 0.963055 1.00766 0.984644
0.947375 0.96187 0.991359 0.993515
0.975664 0.976702 1.00013 0.998812
0.870842 0.925896 0.956696 0.983112
0.957795 0.974107 0.995362 0.987837
0.888663 0.951498 0.947883 0.985314
1.00286 0.999472 1.00395 0.999447
0.950203 0.968748 0.989574 0.991191
0.942484 0.962979 0.987475 0.991132
1.00608 0.993294 1.01331 0.999568
0.965456 0.965234 1.00431 0.995935
0.944689 0.958752 1.00129 0.984064
0.908309 0.974073 0.946296 0.985406
0.900116 0.941862 0.971667 0.983545
1.0051 0.994541 1.01091 0.999711
0.935247 0.958434 0.980513 0.995201
0.950248 0.97311 0.984625 0.991755
0.897899 0.962251 0.948364 0.983931
0.991294 0.977682 1.01493 0.999012
0.967255 0.967547 1.0143 0.9856
0.903589 0.934803 0.982438 0.983888
1.00021 1 1.00095 0.999265
1.00842 1 1.00906 0.999365
1.01414 0.997937 1.01668 0.999566
0.998985 1 1 0.998985
0.998922 1 1 0.998922
1.00919 1 1.00992 0.999276
0.998944 1 1 0.998944
1.0045 1 1.00537 0.999135
1.01436 0.998547 1.01642 0.999421
1.00551 0.998164 1.00788 0.999489
1.0031 1 1.00398 0.999128
0.999022 1 1 0.999022
0.999054 1 1 0.999054
0.999044 1 1 0.999044
0.999113 1 1 0.999113
0.998974 1 1 0.998974
0.9994 1 1.00033 0.999068
0.998954 1 1 0.998954
1.00098 1 1.00259 0.998391
0.99887 1 1 0.99887
0.999147 1 1.00057 0.998581
0.998991 1 1.00101 0.99798
0.999364 1 1.00129 0.998077
1.00001 1 1.00142 0.998598
0.999538 1 1.00138 0.998159
0.998959 1 1 0.998959
0.999037 1 1.00029 0.998743
0.999314 1 1.00065 0.99867
0.998915 1 1 0.998915
0.999099 1 1 0.999099
0.999411 1 1 0.999411
0.999187 1 1 0.999187
0.999469 1 1 0.999469
0.999859 1 1 0.999859
0.9995 1 1 0.9995
0.999868 1 1 0.999868
1 1 1 1
0.999871 1 1 0.999871
1 1 1 1
1 1 1 1
1 1 1 1
1 1 1 1
1 1 1 1
0.999406 1 1 0.999406
0.999851 1 1 0.999851
0.999547 1 1 0.999547
1 1 1 1
0.999916 1 1 0.999916
0.999569 1 1 0.999569
1 1 1 1
1 1 1 1
0.999962 1 1 0.999962
1 1 1 1
1 1 1 1
1 1 1 1
0.946947 0.966138 0.988847 0.991191
0.881841 0.917572 0.975643 0.985052
0.876416 0.918394 0.970265 0.983537
0.999093 1 1 0.999093
0.939655 0.958905 0.987963 0.991865
0.955245 0.973438 0.993491 0.987739
0.85426 0.90453 0.961603 0.982136
0.98593 0.997672 0.992832 0.995366
0.955215 0.973599 0.994707 0.986338
0.849663 0.916402 0.943516 0.982678
0.8565 0.927012 0.941806 0.981026
0.971079 0.986721 0.990786 0.993299
0.943832 0.958817 0.998685 0.985668
0.878232 0.931811 0.958715 0.983087
0.893714 0.957895 0.948537 0.983619
0.953694 0.968723 0.992724 0.991701
0.953794 0.955344 1.01477 0.983846
0.903334 0.946359 0.970783 0.983265
0.904222 0.970104 0.946631 0.984637
0.999069 1 1.0003 0.998766
0.999253 1 1.00036 0.998896
0.999124 1 1 0.999124
0.998928 1 1 0.998928
0.998965 1 1 0.998965
0.99913 1 1 0.99913
0.999186 1 1 0.999186
0.99926 1 1 0.99926
0.989531 1.00579 0.985332 0.998484
0.985229 1.00013 0.986406 0.998679
0.999249 1 1.00047 0.998777
1.01268 1.00068 1.01364 0.998367
1.01239 1 1.01392 0.99849
1.0004 1 1.00174 0.998661
0.999751 1 1.00108 0.998671
0.972985 0.99365 0.980207 0.998976
1.00765 1 1.00913 0.99853
1.01331 1 1.01471 0.998622
0.999233 0.999094 1.00084 0.999299
1.00026 1 1.00156 0.998702
0.9653 0.985224 0.98047 0.999294
1.00953 0.996551 1.01358 0.999454
1.02094 1 1.02227 0.998694
1.0018 1 1.00315 0.99865
0.947864 0.960591 0.990828 0.995885
0.95102 0.965435 0.993105 0.991908
0.902608 0.922008 0.992723 0.986135
1.0021 0.999154 1.00352 0.999428
1.0087 0.995215 1.01414 0.999425
0.948986 0.967156 0.989249 0.991876
0.959021 0.959175 1.01463 0.985426
0.96053 0.963001 1.00378 0.993682
0.904579 0.945291 0.973757 0.982721
0.943467 0.963704 0.987749 0.991143
0.912511 0.97751 0.946603 0.986164
1.00603 0.996035 1.01036 0.999674
0.935013 0.957856 0.98085 0.995211
0.947849 0.971204 0.983145 0.992684
0.999792 0.984143 1.01607 0.999838
0.89524 0.959225 0.948823 0.983635
0.957828 0.961018 1.0118 0.985053
0.914119 0.94896 0.979895 0.98305
1.00746 0.992527 1.01528 0.999771
0.947639 0.971065 0.979819 0.995975
0.940538 0.96017 0.987549 0.991904
0.865927 0.933596 0.944686 0.981826
0.903283 0.948317 0.969001 0.982983
0.975149 0.971673 1.00519 0.998396
0.969315 0.960592 1.02618 0.983333
1.00666 1 1.00735 0.99931
1.01306 0.997143 1.01643 0.999544
1.00368 0.986874 1.01746 0.999582
0.998953 1 1 0.998953
1.00397 1 1.00484 0.999139
1.01577 0.999212 1.01718 0.999396
1.00128 1 1.00216 0.999118
1.00545 0.99867 1.0073 0.999488
1.00658 0.997849 1.0095 0.999265
0.9991 1 1 0.9991
0.998983 1 1 0.998983
1.00003 1 1.001 0.999038
1.00644 1 1.00787 0.998576
0.99906 1 1 0.99906
1.00046 1 1.00198 0.998481
1.002 1 1.00413 0.997884
1.00044 1.001 1.00188 0.997566
0.998955 1 1.0004 0.998551
0.999077 1.00008 1.00109 0.997902
0.998695 1 1.00053 0.998171
1.00073 1 1.00232 0.998411
0.999381 1 1.00125 0.99813
1.00012 1 1.00129 0.998831
0.999952 1 1.00136 0.998591
0.999455 1 1.00128 0.998179
0.999307 1 1 0.999307
0.99897 1 1.00002 0.998953
0.999105 1 1.00039 0.998716
0.999127 1 1 0.999127
0.999408 1 1 0.999408
0.999834 1 1 0.999834
0.999468 1 1 0.999468
0.999856 1 1 0.999856
1 1 1 1
0.999867 1 1 0.999867
1 1 1 1
1 1 1 1
1 1 1 1
1 1 1 1
1 1 1 1
0.999348 1 1 0.999348
0.999787 1 1 0.999787
0.999433 1 1 0.999433
1 1 1 1
0.999846 1 1 0.999846
0.999545 1 1 0.999545
1 1 1 1
1 1 1 1
0.999887 1 1 0.999887
1 1 1 1
1 1 1 1
1 1 1 1
0.936896 0.958021 0.982636 0.995231
0.94787 0.966703 0.989236 0.991187
0.881961 0.918818 0.974367 0.985139
0.999108 1 1 0.999108
0.999065 1 1 0.999065
0.998963 1 1 0.998963
0.947048 0.971744 0.98273 0.991713
0.93867 0.958003 0.987835 0.991887
0.959372 0.974591 0.996657 0.987686
0.977645 0.988279 0.994385 0.994826
0.943232 0.959325 0.998566 0.984636
0.869119 0.921511 0.959321 0.98314
0.90038 0.962854 0.95089 0.983411
0.955259 0.968323 0.99298 0.993483
0.949048 0.954565 1.00958 0.984782
0.894558 0.933492 0.973459 0.98442
0.906329 0.972633 0.94565 0.985386
0.941811 0.957635 0.991024 0.992384
0.967639 0.965197 1.01767 0.98512
0.904429 0.933339 0.984737 0.984044
0.899322 0.95908 0.951853 0.985123
0.998756 1 1 0.998756
0.999276 1 1.00051 0.998763
0.999402 1 1.00053 0.998877
0.998923 1 1 0.998923
0.998998 1 1 0.998998
0.999194 1 1 0.999194
0.979736 0.99617 0.984493 0.998994
0.99417 0.999136 0.995703 0.999324
0.999868 1 1.00119 0.99868
1.01098 1 1.01237 0.998626
1.00833 1 1.00979 0.998555
1.00003 1 1.00135 0.998679
1.00172 1 1.00307 0.998662
0.977156 0.988757 0.988945 0.999314
1.01917 1 1.02041 0.99879
1.00597 0.992058 1.01455 0.99948
0.999985 1 1.00121 0.998775
0.991981 0.97817 1.01461 0.999516
0.9975 0.988381 1.00971 0.999525
1.01551 1 1.01661 0.998919
0.963347 0.974908 0.991284 0.99683
0.947278 0.960551 0.989992 0.996151
0.95075 0.964446 0.993739 0.99201
1.00768 0.997829 1.01024 0.999638
0.995076 0.986288 1.00952 0.999391
0.935646 0.958149 0.981203 0.995221
0.958819 0.95613 1.01456 0.988419
0.913886 0.945846 0.981877 0.984044
0.946495 0.969668 0.982376 0.993613
0.901472 0.963435 0.951426 0.983456
1.00614 0.992614 1.01384 0.999788
0.948174 0.971423 0.979753 0.996239
0.939962 0.959256 0.987863 0.991926
0.974034 0.968282 1.01019 0.995793
0.862544 0.933481 0.941765 0.981145
0.892393 0.936663 0.96809 0.984141
0.978776 0.966603 1.02806 0.98496
1.0027 0.975753 1.02795 0.999673
0.937575 0.958609 0.982691 0.995286
0.952199 0.97353 0.990073 0.987896
0.803006 0.877189 0.933226 0.980932
0.870883 0.931038 0.95133 0.983243
0.967578 0.965891 1.01717 0.984842
0.951369 0.963205 0.993296 0.994378
1.01239 0.996281 1.01666 0.999521
1.00727 0.991046 1.01679 0.999586
1.01754 0.995738 1.02237 0.999529
0.999512 1 1.0004 0.999108
1.0052 0.998637 1.00709 0.999487
1.00759 0.998096 1.01019 0.999333
1.01733 1 1.01849 0.998854
1.00061 1 1.00161 0.999009
1.00673 1 1.00827 0.998481
1.01505 1 1.01732 0.99777
1.00002 1 1.00145 0.998572
1.00304 1.00013 1.00508 0.997845
1.00457 1.00144 1.00589 0.997258
1.00266 1.00359 1.00191 0.997166
0.998944 1 1.00108 0.997867
1.00042 1.00101 1.00189 0.997531
0.99921 1.00015 1.00124 0.997825
0.999445 1 1.0011 0.99835
0.998736 1 1.00048 0.998257
1.00104 1 1.00245 0.998599
1.00079 1 1.00234 0.998447
0.999351 1 1.00117 0.998183
0.999361 1 1.00023 0.999132
0.999924 1 1.00109 0.998833
0.999848 1 1.00126 0.998585
0.999782 1 1 0.999782
0.999305 1 1 0.999305
0.998978 1 1.00003 0.998946
0.999406 1 1 0.999406
0.99983 1 1 0.99983
1 1 1 1
0.999854 1 1 0.999854
1 1 1 1
1 1 1 1
1 1 1 1
1 1 1 1
1 1 1 1
0.999342 1 1 0.999342
0.999797 1 1 0.999797
0.999366 1 1 0.999366
1 1 1 1
0.999817 1 1 0.999817
0.99946 1 1 0.99946
1 1 1 1
1 1 1 1
0.99984 1 1 0.99984
1 1 1 1
1 1 1 1
1 1 1 1
0.946847 0.970334 0.979767 0.995947
0.936547 0.958382 0.981887 0.995244
0.947227 0.967199 0.988052 0.991194
0.999044 1 1 0.999044
0.998933 1 1 0.998933
0.999123 1 1 0.999123
0.999062 1 1 0.999062
0.998945 1 1 0.998945
0.998954 1 1 0.998954
0.998855 1 1 0.998855
0.937325 0.959888 0.985318 0.991044
0.946243 0.969722 0.983016 0.992648
0.937654 0.956959 0.987819 0.991909
0.909201 0.975799 0.944851 0.986135
0.943871 0.958362 0.992936 0.991887
0.952869 0.956291 1.01072 0.985849
0.89882 0.933809 0.978812 0.983365
0.937791 0.956964 0.988169 0.991698
0.95775 0.957685 1.01607 0.984255
0.916399 0.950113 0.980709 0.983489
0.888818 0.950993 0.948706 0.985153
0.940447 0.957864 0.988271 0.99347
0.963008 0.962552 1.01685 0.983896
0.906959 0.94612 0.974253 0.983942
0.867636 0.937532 0.941689 0.982751
0.999447 1 1.00061 0.998837
0.998852 1 1.0001 0.998756
0.999415 1 1.00066 0.998759
0.998919 1 1 0.998919
0.986366 0.991591 0.995389 0.999338
1.0012 0.988069 1.0138 0.999505
0.998691 1 1.00004 0.998655
1.0015 1 1.00283 0.998674
1.01614 1 1.01727 0.998886
0.999482 1 1.00071 0.99877
1.01628 0.99993 1.01746 0.998905
0.987687 0.976253 1.01283 0.998896
0.99978 0.988447 1.01183 0.999635
1.00701 0.999534 1.00849 0.999003
0.991782 0.973558 1.01996 0.998786
1.01488 0.994235 1.02148 0.999304
0.9483 0.960959 0.990871 0.995919
0.958717 0.972941 0.98824 0.997107
0.946566 0.960449 0.989089 0.996417
1.00351 0.991302 1.01251 0.999805
0.976799 0.969533 1.00901 0.998501
0.947898 0.971087 0.979546 0.996503
0.970637 0.963864 1.02377 0.983642
0.896348 0.935658 0.97451 0.983045
0.939049 0.958317 0.987848 0.991948
0.856266 0.92728 0.941174 0.981132
1.0076 0.97872 1.02978 0.999736
0.936963 0.958912 0.981725 0.995299
0.95615 0.974754 0.992989 0.98784
0.953993 0.963553 0.993576 0.996479
0.795832 0.876856 0.92677 0.979312
0.876129 0.931421 0.956892 0.983013
0.965424 0.961165 1.02006 0.984679
0.999158 0.979495 1.02101 0.999088
0.947996 0.9673 0.988633 0.991312
0.868761 0.911234 0.969824 0.983054
0.835432 0.899914 0.943554 0.983883
0.951102 0.953616 1.01239 0.985156
0.935287 0.956823 0.984894 0.992484
1.01076 0.99491 1.01635 0.99959
1.01804 0.994186 1.02448 0.999522
1.01353 0.999902 1.01428 0.999362
1.00876 0.998462 1.01091 0.999402
1.0166 0.998892 1.01882 0.998926
1.01073 1.00069 1.01194 0.998111
1.00724 1 1.00886 0.998385
1.01412 1 1.01644 0.997719
1.00878 1.00017 1.01142 0.997224
1.00411 1.00029 1.00602 0.997806
1.00447 1.00099 1.0063 0.997196
1.00322 1.00209 1.00415 0.996989
1.00426 1.00708 1 0.997195
1.00429 1.00618 1.00077 0.997356
1.0032 1.00392 1.00218 0.997115
0.998276 1.00006 1.00013 0.998094
0.998761 1.0001 1.00074 0.997918
1.00045 1.00106 1.0019 0.997497
0.999491 1 1.00112 0.998378
0.999423 1 1.00108 0.998342
0.998767 1 1.00043 0.998342
1.00014 1 1.00125 0.998893
1.00088 1 1.00225 0.998636
1.00082 1 1.00234 0.998482
0.99966 1 1 0.99966
0.999386 1 1.00025 0.999133
0.99972 1 1.00089 0.998836
1 1 1 1
0.999777 1 1 0.999777
0.999303 1 1 0.999303
0.999826 1 1 0.999826
1 1 1 1
1 1 1 1
1 1 1 1
1 1 1 1
1 1 1 1
0.999039 1 1 0.999039
0.999293 1 1 0.999293
0.999751 1 1 0.999751
0.99934 1 1 0.99934
1 1 1 1
0.999801 1 1 0.999801
0.999383 1 1 0.999383
1 1 1 1
1 1 1 1
0.999848 1 1 0.999848
1 1 1 1
1 1 1 1
1 1 1 1
0.935093 0.958778 0.980016 0.995186
0.947322 0.970853 0.979471 0.996213
0.936257 0.95878 0.981165 0.995255
0.999054 1 1 0.999054
0.998918 1 1 0.998918
0.998854 1 1 0.998854
0.998919 1 1 0.998919
0.998882 1 1.00005 0.99883
0.99906 1 1 0.99906
0.998927 1 1 0.998927
0.998955 1 1 0.998955
0.998854 1 1 0.998854
0.999164 1 1.00026 0.998901
0.94755 0.966141 0.992856 0.987815
0.941352 0.962592 0.986754 0.991063
0.946424 0.96838 0.983642 0.993581
0.886796 0.950805 0.946642 0.98525
0.91437 0.944378 0.983741 0.984227
0.930725 0.953094 0.9856 0.990798
0.965884 0.964907 1.01634 0.984919
0.941703 0.959611 0.989772 0.991479
0.974434 0.97151 1.01845 0.984835
0.901867 0.94256 0.972479 0.983906
0.868609 0.939801 0.941101 0.982092
0.961874 0.96802 1.00087 0.992787
0.964122 0.964251 1.0148 0.985288
0.858292 0.916219 0.953063 0.98291
0.824372 0.904139 0.92977 0.980647
1.00134 1 1.00213 0.999212
1.00088 1 1.00204 0.998838
0.99956 1 1.0008 0.998756
0.985672 0.974684 1.01303 0.998267
1.00202 0.987793 1.01466 0.999748
0.999775 1 1.00101 0.998763
1.01765 0.999928 1.01885 0.998891
1.00796 0.999786 1.00918 0.99901
1.01587 0.996051 1.02062 0.999294
0.988564 0.970782 1.01952 0.998824
1.01357 0.999409 1.01483 0.999346
0.994598 0.981137 1.01512 0.998624
0.954 0.968269 0.993499 0.991711
0.947621 0.960701 0.990165 0.996181
0.953961 0.971076 0.984954 0.997383
1.01277 0.982228 1.03131 0.999794
0.953041 0.964454 0.99466 0.993471
0.936725 0.959175 0.981195 0.995311
0.96567 0.966652 1.01633 0.982935
0.869573 0.921964 0.95939 0.983099
0.96036 0.976116 0.996023 0.987787
0.791517 0.878755 0.921286 0.977681
0.997898 0.977854 1.02132 0.999193
0.949219 0.968078 0.989115 0.991309
0.859863 0.904365 0.967829 0.982396
0.937605 0.959605 0.983433 0.993533
0.845315 0.906253 0.949222 0.982655
0.940375 0.95164 1.00419 0.984037
0.974972 0.979271 0.99727 0.998335
0.893145 0.920587 0.984528 0.985437
0.843955 0.897639 0.956207 0.983254
0.955383 0.965081 1.00533 0.9847
0.937395 0.956831 0.985714 0.993885
1.0177 0.992908 1.02546 0.999515
1.01414 0.998274 1.01657 0.999334
0.993876 1.00086 0.994269 0.998744
1.01536 0.997585 1.01884 0.998997
1.01134 1.00082 1.01232 0.998206
1.00244 1.00193 1.0028 0.997719
1.0129 1 1.01527 0.997669
1.00726 1.00032 1.00973 0.997239
0.999474 1.00147 1.00068 0.997329
1.00419 1.00053 1.00655 0.997133
1.00346 1.00301 1.00345 0.997008
1.00551 1.00818 1 0.997348
1.01283 1.01536 1 0.997508
1.00818 1.01096 1.00002 0.997231
1.00399 1.0068 1 0.997211
1.00104 1.00341 1 0.997637
1.00277 1.0044 1.00107 0.99731
1.00374 1.00425 1.00244 0.997063
0.99825 1 1 0.99825
0.99825 1.00007 1.00002 0.998156
0.998457 1.00017 1.00032 0.99797
0.999741 1 1.00108 0.998664
0.999684 1 1.00129 0.998399
0.999428 1 1.0011 0.998334
0.999615 1 1.00018 0.999434
1.00008 1 1.00119 0.998894
1.00073 1 1.00206 0.998672
0.999999 1 1 0.999999
0.999654 1 1 0.999654
0.999437 1 1.0003 0.999134
1 1 1 1
1 1 1 1
0.999771 1 1 0.999771
1 1 1 1
1 1 1 1
1 1 1 1
0.998956 1 1 0.998956
0.999234 1 1 0.999234
0.999026 1 1 0.999026
0.999715 1 1 0.999715
0.999292 1 1 0.999292
0.999998 1 1 0.999998
0.999754 1 1 0.999754
0.999338 1 1 0.999338
1 1 1 1
1 1 1 1
0.999804 1 1 0.999804
1 1 1 1
1 1 1 1
1 1 1 1
0.950562 0.970536 0.987361 0.991957
0.934527 0.957927 0.980279 0.995199
0.947279 0.970666 0.979353 0.996481
0.998854 1 1 0.998854
0.999064 1 1 0.999064
0.998904 1 1 0.998904
0.998933 1 1 0.998933
0.99887 1 1 0.99887
0.998845 1 1.00001 0.998832
0.999304 1 1.00057 0.998736
0.999415 1 1.00061 0.998804
0.998955 1 1 0.998955
0.998854 1 1 0.998854
0.999232 1 1.00034 0.998893
0.999741 1 1.00072 0.999017
0.8621 0.907896 0.966982 0.981981
0.95146 0.969543 0.993527 0.987743
0.943127 0.962976 0.988201 0.991081
0.862493 0.935919 0.938312 0.982133
0.908993 0.949398 0.973657 0.983345
0.963725 0.962557 1.01755 0.983948
0.945838 0.960064 0.992842 0.992285
0.961674 0.96569 1.00141 0.994441
0.808126 0.892088 0.925221 0.979097
0.961086 0.960775 1.01669 0.9839
0.86639 0.925795 0.951595 0.983437
0.952169 0.964457 0.992374 0.994846
0.953049 0.956294 1.01086 0.985903
0.840206 0.905136 0.944043 0.983286
1.0001 1 1.0005 0.999601
1.00089 1 1.00168 0.999214
1.00192 1 1.00309 0.998838
0.986287 0.969301 1.01869 0.998856
1.01773 0.998762 1.01973 0.999283
1.00888 1 1.00987 0.999017
1.01287 0.999767 1.01377 0.999345
0.994503 0.982554 1.01351 0.998673
1.00113 0.992783 1.00939 0.999032
0.895322 0.922829 0.985457 0.984511
0.95248 0.967089 0.992186 0.992651
0.946572 0.960222 0.989303 0.996444
0.99811 0.976439 1.02292 0.999292
0.9343 0.960343 0.978482 0.994276
0.948747 0.968775 0.987909 0.991313
0.948857 0.952698 1.01038 0.985736
0.853698 0.918548 0.945554 0.982916
0.854206 0.904831 0.961003 0.982359
0.975562 0.979609 0.997472 0.998392
0.88222 0.918104 0.975293 0.985257
0.858712 0.903975 0.965569 0.983802
0.938857 0.956472 0.989679 0.99182
0.944063 0.96159 0.99603 0.985687
0.965064 0.987312 0.97836 0.999085
0.872813 0.91644 0.967698 0.984187
0.95528 0.975632 0.992708 0.986332
0.951265 0.969322 0.989667 0.991618
1.01563 0.996791 1.0196 0.999306
0.989903 1.00041 0.990637 0.998845
0.982508 1.00256 0.981634 0.998334
1.01241 1.00102 1.01309 0.998301
1.00338 1.00237 1.0033 0.997711
1.00064 1.00334 0.999428 0.997879
1.00607 1.0005 1.00833 0.997254
0.999576 1.00111 1.00113 0.997342
1.00989 1.01209 1 0.997829
1.00379 1.00395 1.00283 0.997027
1.00525 1.00792 1 0.997354
1.01389 1.01605 1 0.997878
1.0185 1.02067 1 0.99787
1.01416 1.01676 1 0.997447
1.0124 1.0149 1 0.997533
1.00675 1.00932 1 0.997446
1.00738 1.01013 1 0.997271
1.00367 1.00646 1 0.997226
0.998987 1.001 1 0.997993
1.00131 1.00352 1.00014 0.997657
1.00139 1.00266 1.00148 0.997264
0.998486 1 1 0.998486
0.998373 1.00013 1 0.998244
0.998218 1 1 0.998218
0.999298 1 1.00013 0.999172
0.999557 1 1.00089 0.998666
0.999865 1 1.00145 0.998421
0.999983 1 1 0.999983
0.999577 1 1.00015 0.99943
0.999931 1 1.00104 0.998895
1 1 1 1
0.999996 1 1 0.999996
0.999648 1 1 0.999648
1 1 1 1
1 1 1 1
1 1 1 1
0.998923 1 1 0.998923
0.998956 1 1 0.998956
0.999155 1 1 0.999155
0.999677 1 1 0.999677
0.999234 1 1 0.999234
0.999014 1 1 0.999014
0.999995 1 1 0.999995
0.999717 1 1 0.999717
0.999291 1 1 0.999291
1 1 1 1
0.999999 1 1 0.999999
0.999757 1 1 0.999757
1 1 1 1
1 1 1 1
1 1 1 1
0.886401 0.914826 0.984784 0.983899
0.949725 0.968941 0.988105 0.991967
0.935122 0.958276 0.980533 0.995212
0.99884 1 1 0.99884
0.998784 1 1 0.998784
0.999061 1 1.0003 0.99876
0.998947 1 1 0.998947
0.998886 1 1 0.998886
0.998833 1 1 0.998833
0.999315 1 1.00052 0.998801
0.999315 1 1.00058 0.998738
0.999574 1 1.00092 0.99865
0.999106 1 1.00002 0.999082
0.998995 1 1.00011 0.998884
0.999306 1 1.0003 0.999003
0.855983 0.901606 0.965489 0.983334
0.856736 0.901667 0.968304 0.981271
0.956384 0.973868 0.994298 0.987678
0.792699 0.878228 0.923356 0.977534
0.867588 0.923354 0.95596 0.982891
0.963273 0.963747 1.01346 0.986232
0.962531 0.963188 1.00684 0.99253
0.950859 0.963074 0.99412 0.993157
0.841082 0.898191 0.95327 0.982321
0.944254 0.953055 1.00529 0.985548
0.947514 0.964552 0.988531 0.993733
0.943061 0.963767 0.993364 0.985053
1.00724 1 1.00819 0.99906
0.999816 1 1.00027 0.999545
1.00007 1 1.00085 0.999216
0.992641 0.982059 1.01207 0.998718
1.01199 1 1.01265 0.999344
1.00172 0.993674 1.00918 0.998927
0.992883 0.996903 0.997769 0.998194
0.871719 0.928045 0.954077 0.98452
0.899113 0.923045 0.988617 0.985288
0.952029 0.966249 0.991646 0.993583
0.974756 0.980818 0.995332 0.998481
0.938201 0.955905 0.988765 0.992632
0.882654 0.919378 0.974341 0.985338
0.941581 0.958605 0.997446 0.984757
0.861425 0.909494 0.963054 0.983484
0.96846 0.988074 0.981516 0.998607
0.877237 0.922351 0.966663 0.983888
0.956089 0.976889 0.993604 0.985008
0.95668 0.970414 0.992444 0.993353
0.980079 0.995021 0.98606 0.998909
0.956114 0.980871 0.989165 0.985437
0.967083 0.985991 0.986243 0.994505
0.985904 1 0.986946 0.998944
0.983331 1.00326 0.981798 0.998312
0.984028 1.00623 0.979681 0.998214
1.00389 1.0027 1.0035 0.997702
0.99996 1.00345 0.998648 0.997874
1.01299 1.01753 0.997227 0.998309
0.999486 1.00064 1.0015 0.997356
1.00968 1.01189 1 0.99782
1.01893 1.0209 0.999797 0.998275
1.00481 1.00747 1 0.997361
1.0133 1.01546 1 0.997877
1.01897 1.02081 1 0.998202
1.01663 1.01857 1 0.998092
1.01858 1.02071 1 0.997913
1.01807 1.02035 1 0.99777
1.01356 1.01607 1 0.997531
1.01486 1.01746 1 0.997452
1.012 1.01447 1 0.997558
1.00224 1.00454 1 0.997714
1.00725 1.00979 1 0.997482
1.00659 1.0093 1 0.997312
0.998392 1.00011 1 0.998287
0.999721 1.00174 1 0.997986
1.00161 1.00377 1.00017 0.997677
0.998979 1 1 0.998979
0.998484 1 1 0.998484
0.998614 1.00038 1 0.998239
0.99992 1 1 0.99992
0.999351 1 1.00018 0.999173
0.999438 1 1.00077 0.998668
1 1 1 1
0.999969 1 1 0.999969
0.999602 1 1.00018 0.999426
1 1 1 1
0.999993 1 1 0.999993
1 1 1 1
0.998855 1 1 0.998855
0.998913 1 1 0.998913
0.99907 1 1 0.99907
0.998957 1 1 0.998957
0.999155 1 1 0.999155
0.999616 1 1 0.999616
0.999991 1 1 0.999991
0.99968 1 1 0.99968
0.999235 1 1 0.999235
1 1 1 1
0.999996 1 1 0.999996
0.999719 1 1 0.999719
1 1 1 1
0.999999 1 1 0.999999
1 1 1 1
0.880685 0.920535 0.972294 0.983971
0.888442 0.91866 0.983216 0.983617
0.948148 0.96668 0.988763 0.991975
0.998826 1 1 0.998826
0.999085 1 1.00036 0.998727
0.99882 1 1 0.99882
0.998553 1 1 0.998553
0.999031 1 1.00034 0.998687
0.999341 1 1.00054 0.998797
0.999311 1 1.00057 0.99874
0.999475 1 1.0008 0.998678
0.998538 1 1 0.998538
0.998496 1 0.999596 0.998899
0.998721 1.00034 1.00026 0.998129
0.999505 1 1.00037 0.999131
0.99923 1 1.00024 0.998988
0.951047 0.976164 0.989162 0.984944
0.858999 0.900638 0.969924 0.983342
0.857651 0.904648 0.966226 0.981188
0.839951 0.89898 0.950995 0.982485
0.948703 0.955573 1.00907 0.983882
0.953338 0.961806 0.996196 0.99498
0.948578 0.964082 0.989001 0.994861
0.948373 0.965243 0.996184 0.986285
0.9685 0.987475 0.986838 0.993865
1.00108 1.00132 1.00151 0.998257
1.00569 1 1.00666 0.999039
0.999488 1 1 0.999488
1.00229 0.995454 1.00804 0.998839
0.997491 1.00011 0.999283 0.998092
0.938316 0.974191 0.976634 0.98622
0.880316 0.92749 0.964321 0.984255
0.903941 0.923634 0.9925 0.986075
0.97179 0.989045 0.984416 0.998109
0.951661 0.965668 0.993727 0.991716
0.87806 0.920192 0.97004 0.983684
0.95493 0.973804 0.994371 0.986169
0.979966 0.995136 0.985817 0.998924
0.958612 0.983865 0.987534 0.986632
0.968348 0.986316 0.988955 0.992746
0.998491 1.00496 0.995178 0.998377
0.9815 0.996235 0.988958 0.99621
0.98431 1.00415 0.981916 0.998294
0.985818 1.00579 0.981941 0.998166
1.00507 1.02479 0.982408 0.998322
0.999563 1.00358 0.998123 0.997869
1.01228 1.01696 0.997098 0.998297
1.01965 1.02659 0.994743 0.998482
1.00961 1.01183 1 0.997811
1.01877 1.02105 0.999508 0.998259
1.01886 1.02155 0.998973 0.998385
1.01292 1.01508 1 0.997877
1.01924 1.02114 0.999956 0.998187
1.01719 1.019 1 0.998221
1.01733 1.01923 1 0.998133
1.01654 1.01864 1 0.997943
1.01866 1.02075 1 0.997956
1.01791 1.02019 1 0.997763
1.01615 1.01851 1 0.99768
1.008 1.01038 1 0.997651
1.01337 1.01589 1 0.997523
1.01553 1.01811 1 0.997457
0.99904 1.00096 1 0.998084
1.00247 1.00475 1 0.997735
1.00769 1.0102 1 0.997518
0.99882 1 1 0.99882
0.998553 1.00027 1 0.998282
1.00021 1.00223 1 0.997979
0.999811 1 1 0.999811
0.99898 1 1 0.99898
0.998483 1 1 0.998483
1 1 1 1
0.9999 1 1 0.9999
0.999343 1 1.00017 0.999173
1 1 1 1
0.999956 1 1 0.999956
1 1 1 1
0.998566 1 1 0.998566
0.998855 1 1 0.998855
0.998942 1 1 0.998942
0.998903 1 1 0.998903
0.999049 1 1 0.999049
0.999501 1 1 0.999501
0.999155 1 1 0.999155
0.999619 1 1 0.999619
0.999986 1 1 0.999986
1 1 1 1
0.999992 1 1 0.999992
0.999682 1 1 0.999682
1 1 1 1
0.999997 1 1 0.999997
1 1 1 1
0.956225 0.981415 0.987282 0.986884
0.873101 0.922541 0.961378 0.98443
0.899302 0.924909 0.988659 0.983467
0.999097 1 1.0004 0.998695
0.998856 1 1 0.998856
0.998961 1 1.00026 0.998698
0.998567 1 1 0.998567
0.999858 1.00161 1.00002 0.998231
0.998592 1 1 0.998592
0.999304 1 1.0006 0.998705
0.998448 1 1 0.998448
0.999038 1 1.00017 0.998864
0.998369 1 1 0.998369
0.999916 1.00213 0.999499 0.998287
0.998313 1.00129 0.999313 0.997714
0.999012 1.00081 0.999968 0.998239
1.00003 1 1.00085 0.999179
0.966658 0.987757 0.98451 0.994037
0.953341 0.97703 0.989851 0.985758
0.853622 0.90133 0.963009 0.983448
0.960655 0.971714 1.00393 0.984754
0.947544 0.96341 0.987777 0.995701
0.972656 0.988557 0.987944 0.995922
0.993592 1.00381 0.991515 0.998294
0.998804 1.00067 0.999822 0.998314
1.00464 1 1.00563 0.999018
0.997508 1.00112 0.998415 0.997973
0.968528 0.982738 0.991476 0.994013
0.949838 0.97714 0.984315 0.98755
0.872097 0.923041 0.959607 0.98458
0.980725 0.996253 0.985462 0.998937
0.973121 0.988396 0.990444 0.994045
0.961963 0.984378 0.989257 0.987842
0.992294 1.00414 0.989798 0.998389
0.979464 0.994432 0.989316 0.995584
1.00003 1.02281 0.979547 0.998143
1.00585 1.01491 0.993196 0.997854
0.987277 1.00517 0.984057 0.998116
1.00526 1.02441 0.982959 0.998313
1.00864 1.0307 0.980212 0.99835
1.01174 1.01667 0.99686 0.998285
1.01933 1.02634 0.9947 0.998468
1.01447 1.02195 0.994345 0.998328
1.01847 1.02109 0.999192 0.998243
1.01844 1.02131 0.998819 0.99837
1.01816 1.02093 0.999111 0.998179
1.01945 1.02142 0.999896 0.998171
1.0168 1.01867 0.999948 0.998219
1.01661 1.01867 1 0.997974
1.01804 1.0199 1 0.998174
1.01637 1.01843 1 0.997976
1.01671 1.01899 1 0.997755
1.0178 1.02009 1 0.997757
1.01604 1.01841 1 0.997672
1.01112 1.01343 1 0.997726
1.00068 1.00275 1 0.997931
1.00768 1.01004 1 0.997671
1.01322 1.01574 1 0.997514
0.99865 1 1 0.99865
0.999561 1.00148 1 0.998084
1.00288 1.00513 1 0.997757
0.999684 1 1 0.999684
0.998818 1 1 0.998818
0.998744 1.00047 1 0.998277
1 1 1 1
0.999796 1 1 0.999796
0.99898 1 1 0.99898
1 1 1 1
0.99988 1 1 0.99988
1 1 1 1
0.999949 1.00167 1 0.998279
0.998579 1 1 0.998579
0.998743 1 1 0.998743
0.998854 1 1 0.998854
0.998923 1 1 0.998923
0.999341 1 1 0.999341
0.999029 1 1 0.999029
0.999503 1 1 0.999503
0.999973 1 1 0.999973
0.999621 1 1 0.999621
0.999987 1 1 0.999987
1 1 1 1
1 1 1 1
0.999993 1 1 0.999993
1 1 1 1
0.968119 0.985474 0.987949 0.994372
0.952362 0.981654 0.983988 0.985947
0.867096 0.918543 0.959339 0.984002
1.00459 1.00663 1.00007 0.99791
0.998901 1 1.00019 0.998708
0.998581 1 1 0.998581
0.998567 1 1 0.998567
0.999876 1.00154 1.00012 0.998221
0.999873 1.00139 1 0.998483
0.998359 1 1 0.998359
0.999482 1 1.00065 0.998829
0.998437 1.00002 1 0.998412
0.999277 1.0015 0.999512 0.998263
1.00115 1.00345 1 0.997707
1.0031 1.0058 0.999665 0.997654
0.9994 1.00195 0.999781 0.997669
0.99945 1.00134 0.999767 0.99835
0.996246 1.00622 0.9913 0.998773
0.966426 0.988192 0.984671 0.9932
0.957183 0.978258 0.991502 0.986843
0.967216 0.984773 0.987705 0.994397
0.997789 1.00589 0.993325 0.998614
0.999354 1.0002 1.00079 0.998369
0.999286 1.00668 0.994698 0.997944
0.965036 0.977121 0.992362 0.995234
0.943824 0.976809 0.979645 0.986308
0.98565 1.00252 0.984756 0.998396
0.982271 0.995405 0.991944 0.99482
1.00117 1.02366 0.979823 0.998173
1.00481 1.01332 0.993609 0.997981
1.00753 1.02939 0.980585 0.998135
1.01949 1.02482 0.996738 0.998051
1.00531 1.02379 0.98362 0.998305
1.011 1.03185 0.981413 0.99835
1.00747 1.02417 0.985475 0.998193
1.0188 1.02581 0.994699 0.998454
1.01518 1.02227 0.994727 0.998325
1.01801 1.0227 0.99734 0.998067
1.01812 1.02109 0.998735 0.998355
1.0181 1.02066 0.999302 0.998193
1.01823 1.02039 1 0.997891
1.0164 1.01831 0.999911 0.998217
1.01633 1.0184 1 0.997974
1.01859 1.02089 1 0.997745
1.01619 1.01822 1 0.998008
1.01672 1.01899 1 0.997774
1.01281 1.01515 1 0.997696
1.0159 1.01828 1 0.997664
1.01098 1.01331 1 0.997706
1.00278 1.00487 1 0.997912
0.998525 1 1 0.998525
1.00103 1.00308 1 0.997956
1.00731 1.00964 1 0.99769
0.999561 1 1 0.999561
0.99865 1 1 0.99865
1.00004 1.00196 1 0.998084
1 1 1 1
0.999671 1 1 0.999671
0.998817 1 1 0.998817
1 1 1 1
0.999781 1 1 0.999781
1 1 1 1
1.00159 1.00362 1 0.997976
0.999497 1.00121 1 0.998285
0.99851 1 1 0.99851
0.998598 1 1.00001 0.998591
0.998751 1 1 0.998751
0.999166 1 1 0.999166
0.998904 1 1 0.998904
0.99934 1 1 0.99934
0.99994 1 1 0.99994
0.999505 1 1 0.999505
0.999977 1 1 0.999977
1 1 1 1
0.999989 1 1 0.999989
1 1 1 1
1 1 1 1
1.00081 1.0105 0.991659 0.998744
0.963142 0.984078 0.985889 0.992734
0.952658 0.975921 0.988864 0.987156
1.00541 1.00731 1.00001 0.998093
1.00932 1.01164 1 0.997707
1.00408 1.00601 1.00013 0.997948
0.998541 1 1 0.998541
0.999901 1.00145 1.00024 0.998209
1.00041 1.00198 1 0.998427
1.00712 1.00934 1 0.997804
0.998502 1.00005 1 0.998455
0.998567 1.00077 0.99956 0.998238
1.00167 1.00391 1 0.997765
1.00942 1.01201 1 0.997439
1.01117 1.01723 0.996065 0.997973
1.00308 1.00599 0.999482 0.997631
1.00016 1.00262 0.99992 0.997624
1.00005 1.00853 0.992702 0.998881
0.967965 0.988206 0.987207 0.992211
0.998461 1.00719 0.992381 0.998943
1.01372 1.02079 0.994477 0.998588
0.99808 1.00539 0.994695 0.998023
0.964391 0.980829 0.98959 0.993584
1.00283 1.02472 0.980396 0.998201
1.00299 1.01196 0.993008 0.998113
1.00655 1.02932 0.979648 0.998195
1.0215 1.02704 0.996533 0.99806
1.01681 1.02887 0.990197 0.998065
1.0309 1.037 0.995939 0.998172
1.01343 1.03345 0.982252 0.998351
1.00831 1.02377 0.986677 0.998197
1.02039 1.02845 0.994174 0.997976
1.01587 1.02262 0.995064 0.998322
1.01821 1.02233 0.997901 0.998065
1.02177 1.02425 0.99973 0.99784
1.01798 1.02035 0.999464 0.998207
1.01839 1.02054 1 0.997889
1.02125 1.02363 1 0.997676
1.01606 1.01812 1 0.997974
1.01848 1.02078 1 0.997746
1.01488 1.01727 1 0.997643
1.01674 1.01898 1 0.997794
1.01266 1.015 1 0.997701
1.00356 1.00572 1 0.997857
1.01088 1.01322 1 0.997686
1.00281 1.00492 1 0.997901
0.99845 1 1 0.99845
0.999481 1 1 0.999481
0.998524 1 1 0.998524
1.00142 1.00344 1 0.997981
1 1 1 1
0.99955 1 1 0.99955
0.998649 1 1 0.998649
1 1 1 1
0.999659 1 1 0.999659
1 1 1 1
1.00274 1.00501 1 0.997735
1.00142 1.00348 1 0.997949
0.999109 1.00088 1 0.998231
0.999044 1.00076 1 0.99829
0.998515 1 1 0.998515
0.998974 1 1 0.998974
0.998758 1 1 0.998758
0.999166 1 1 0.999166
0.999872 1 1 0.999872
0.99934 1 1 0.99934
0.999951 1 1 0.999951
1 1 1 1
0.999981 1 1 0.999981
1 1 1 1
1 1 1 1
1.01148 1.02156 0.991713 0.998405
0.997756 1.00952 0.989913 0.998418
0.960698 0.984451 0.98221 0.993547
1.01266 1.01494 1 0.997756
1.00459 1.00635 1 0.998253
1.01863 1.02108 1 0.997603
1.00932 1.01166 1 0.997693
1.00362 1.00546 1.00018 0.997989
1.01887 1.02147 1 0.997464
1.00096 1.00259 1 0.998373
1.00663 1.0089 1 0.997746
1.02415 1.02707 0.999536 0.997616
1.00202 1.00421 1 0.997822
1.01029 1.01291 1 0.997408
1.01117 1.01664 0.996626 0.997986
1.00274 1.00555 0.999606 0.997606
1.00314 1.01041 0.993808 0.998991
1.02651 1.03345 0.995024 0.998247
1.01342 1.02062 0.994343 0.99859
0.997688 1.00409 0.995518 0.998097
1.00574 1.02887 0.979222 0.998255
1.02225 1.0283 0.996042 0.99807
1.01591 1.02917 0.98901 0.99808
1.03105 1.03798 0.995138 0.998175
1.02968 1.03767 0.994215 0.998071
1.00903 1.02321 0.987924 0.998201
1.02028 1.02801 0.994483 0.997984
1.02508 1.03006 0.997318 0.997845
1.01843 1.02199 0.998455 0.998062
1.02148 1.02387 0.999835 0.997823
1.02341 1.02587 1 0.99761
1.01861 1.02077 1 0.997888
1.02105 1.02343 1 0.997674
1.01774 1.02022 1 0.997567
1.01839 1.0207 1 0.997746
1.01495 1.01734 1 0.997645
1.00477 1.00702 1 0.997769
1.01251 1.01484 1 0.997706
1.0038 1.00595 1 0.997859
0.998411 1.00004 1 0.998375
1.00281 1.00493 1 0.997889
0.998449 1 1 0.998449
0.99953 1 1 0.99953
0.999863 1 1 0.999863
0.999509 1 1 0.999509
0.998524 1 1 0.998524
1 1 1 1
0.999538 1 1 0.999538
1 1 1 1
1.02437 1.02678 1 0.997647
1.01088 1.01323 1 0.997683
1.00317 1.00546 1 0.99772
1.00147 1.00343 1 0.99804
1.00117 1.00325 1 0.997922
0.998788 1.00055 1 0.998235
0.998775 1 1 0.998775
0.99852 1 1 0.99852
0.998977 1 1 0.998977
0.999755 1 1 0.999755
0.999167 1 1 0.999167
0.999889 1 1 0.999889
1 1 1 1
0.999962 1 1 0.999962
1 1 1 1
1 1 1 1
1.02773 1.03262 0.997262 0.998002
1.01492 1.02466 0.991988 0.99849
0.995851 1.00962 0.98825 0.998093
1.02148 1.02402 1 0.99752
1.01183 1.01404 1 0.997828
1.00369 1.00529 1 0.99841
1.01855 1.02098 1 0.997623
1.00933 1.01168 1 0.997679
1.02778 1.03028 0.999976 0.997599
1.01706 1.01968 1 0.997426
1.00626 1.00859 1 0.997688
1.0235 1.02628 0.999683 0.99761
1.01204 1.0147 1 0.997378
1.01318 1.01816 0.997105 0.998003
1.03293 1.03867 0.996315 0.998159
1.02837 1.03471 0.995608 0.998257
1.01421 1.02057 0.995167 0.998594
1.01587 1.03032 0.987849 0.998095
1.03194 1.03935 0.994683 0.998178
1.02974 1.03839 0.993579 0.998084
1.02909 1.03407 0.997277 0.997906
1.02001 1.02745 0.994751 0.997991
1.02512 1.02956 0.997851 0.997837
1.02581 1.02827 1 0.997607
1.02115 1.02346 0.99994 0.997806
1.02378 1.02623 1 0.99761
1.02077 1.02333 1 0.997501
1.02082 1.0232 1 0.997673
1.01779 1.02027 1 0.997567
1.00626 1.00861 1 0.997673
1.01501 1.0174 1 0.997646
1.00504 1.00728 1 0.99777
0.998458 1.00018 1 0.998278
1.00404 1.0062 1 0.997861
0.998433 1.00006 1 0.998373
0.999527 1 1 0.999527
0.998448 1 1 0.998447
0.999525 1 1 0.999525
0.999871 1 1 0.999871
0.999933 1 1 0.999933
0.999538 1 1 0.999538
1 1 1 1
1.02464 1.02719 1 0.997522
1.01572 1.01806 1 0.997704
1.02431 1.02663 1 0.997745
1.00359 1.00569 1 0.997914
1.01198 1.01434 1 0.997676
1.00368 1.00599 1 0.997704
1.00061 1.00258 1 0.998039
0.9986 1 1 0.9986
0.998515 1.00028 1 0.998239
0.998777 1 1 0.998777
0.999617 1 1 0.999617
0.99898 1 1 0.99898
0.999773 1 1 0.999773
1 1 1 1
0.999907 1 1 0.999907
1 1 1 1
1 1 1 1
1.03113 1.03445 0.998907 0.997883
1.02771 1.0326 0.99726 0.997999
1.01617 1.02636 0.991486 0.99857
1.02781 1.03034 1 0.997538
1.02069 1.02323 1 0.997523
1.01114 1.01327 1 0.9979
1.01835 1.02076 1 0.997644
1.02766 1.0302 0.999959 0.99758
1.01525 1.01791 1 0.997388
1.02149 1.02417 0.99978 0.997604
1.03213 1.03626 0.998037 0.997966
1.03243 1.03797 0.996536 0.998121
1.03045 1.03641 0.995977 0.998267
1.02815 1.03164 0.998826 0.997795
1.02971 1.03899 0.99295 0.998098
1.02874 1.03389 0.997122 0.997895
1.02757 1.03002 0.99994 0.997686
1.02522 1.02909 0.998406 0.997828
1.02653 1.02899 1 0.99761
1.02268 1.02528 1 0.997468
1.02412 1.02658 1 0.99761
1.0205 1.02306 1 0.997502
1.00796 1.01039 1 0.997593
1.01781 1.0203 1 0.997567
1.00656 1.00891 1 0.997673
0.998626 1.00045 1 0.998179
1.0053 1.00754 1 0.997771
0.998522 1.00025 1 0.998276
0.999506 1 1 0.999506
0.998459 1.00009 1 0.998371
0.99952 1 1 0.99952
0.999874 1 1 0.999874
0.999523 1 1 0.999523
0.999874 1 1 0.999874
1 1 1 1
1.02528 1.02793 1 0.997424
1.0177 1.0202 1 0.997543
1.02521 1.02774 1 0.997542
1.0043 1.00643 1 0.997889
1.01574 1.01807 1 0.997707
1.02433 1.02654 1 0.997842
0.998514 1.00007 1 0.998447
1.00316 1.00526 1 0.997909
1.0132 1.01557 1 0.997669
0.999682 1.00165 1 0.998038
0.998601 1 1 0.998601
0.999507 1 1 0.999507
0.99878 1 1 0.99878
0.99963 1 1 0.99963
1 1 1 1
0.999791 1 1 0.999791
1 1 1 1
1 1 1 1
1.03106 1.03363 0.999772 0.997743
1.03107 1.03467 0.998649 0.997868
1.02824 1.03302 0.997375 0.997995
1.02726 1.02979 1 0.997545
1.01986 1.02239 1 0.997526
1.02734 1.02991 0.999943 0.997561
1.02893 1.03155 0.999667 0.997798
1.03214 1.03628 0.998035 0.997959
1.03157 1.03691 0.996756 0.998083
1.02879 1.03214 0.998936 0.997813
1.02667 1.0291 1 0.99764
1.02839 1.03372 0.996949 0.997884
1.02769 1.03014 0.999965 0.997656
1.02315 1.02571 1 0.997505
1.02721 1.02967 1 0.997612
1.02241 1.025 1 0.997471
1.00954 1.01204 1 0.99753
1.02033 1.02289 1 0.997503
1.0084 1.01083 1 0.997593
0.998871 1.00077 1 0.998101
1.0069 1.00924 1 0.997674
0.998723 1.00055 1 0.998178
0.999463 1 1 0.999463
0.998592 1.00032 1 0.998275
0.999495 1 1 0.999495
0.999862 1 1 0.999862
0.999515 1 1 0.999515
0.999881 1 1 0.999881
0.999873 1 1 0.999873
1.02696 1.02944 1 0.997598
1.02019 1.02284 1 0.997411
1.02559 1.02823 1 0.997436
1.00642 1.00871 1 0.997732
1.01743 1.01993 1 0.997548
1.02572 1.02822 1 0.997562
0.998532 1.0002 1 0.998331
1.00426 1.00643 1 0.997844
1.01563 1.01796 1 0.99771
0.999445 1 1 0.999445
0.998502 1.00005 1 0.998449
1.00274 1.00484 1 0.997905
0.998603 1 1 0.998603
0.999517 1 1 0.999517
1 1 1 1
0.999643 1 1 0.999643
1 1 1 1
1 1 1 1
1.02731 1.02975 0.999922 0.997707
1.03031 1.03305 0.999603 0.997741
1.03125 1.03515 0.998382 0.997853
1.02672 1.02924 1 0.997551
1.0266 1.02907 1 0.997604
1.0295 1.03238 0.999401 0.997807
1.03205 1.03623 0.998016 0.997951
1.02945 1.03266 0.999057 0.997831
1.02618 1.02875 0.999853 0.99765
1.02235 1.02489 1 0.997517
1.0279 1.03035 1 0.997625
1.02289 1.02547 1 0.997491
1.01048 1.01301 1 0.9975
1.02211 1.0247 1 0.997474
1.00983 1.01233 1 0.997532
0.998975 1.00094 1 0.998032
1.00876 1.01119 1 0.997593
0.998921 1.00082 1 0.998101
0.99934 1 1 0.99934
0.998806 1.00063 1 0.998177
0.999419 1 1 0.999419
1 1 1 1
0.999486 1 1 0.999486
0.999873 1 1 0.999873
0.999884 1 1 0.999884
1.02541 1.02782 1 0.99765
1.02128 1.02387 1 0.997475
1.02658 1.02906 1 0.997595
1.0091 1.01158 1 0.997549
1.02025 1.02288 1 0.997433
1.02601 1.02863 1 0.997449
0.998769 1.00063 1 0.998143
1.00648 1.00877 1 0.997731
1.01723 1.01973 1 0.997553
0.999418 1 1 0.999418
0.998451 1.00016 1 0.99829
1.00426 1.00648 1 0.997798
1 1 1 1
0.999455 1 1 0.999455
0.99849 1.00004 1 0.998451
0.999527 1 1 0.999527
1 1 1 1
1 1 1 1
1.02554 1.02799 1 0.997614
1.02764 1.03004 0.999952 0.997715
1.02954 1.03245 0.999443 0.997739
1.02337 1.02597 1 0.997465
1.02571 1.02817 1 0.99761
1.03006 1.0332 0.999146 0.997817
1.02567 1.02839 0.999691 0.99766
1.02239 1.02493 1 0.997517
1.01055 1.01303 1 0.997549
1.02258 1.02517 1 0.997476
1.01049 1.01299 1 0.99753
0.998956 1.00106 1 0.997902
1.01017 1.01267 1 0.997534
0.999013 1.00098 1 0.998033
0.999288 1 1 0.999288
0.998993 1.00089 1 0.9981
0.999337 1 1 0.999337
1 1 1 1
0.999368 1 1 0.999368
0.999926 1 1 0.999926
0.999881 1 1 0.999881
1.02307 1.02551 1 0.997614
1.02156 1.0241 1 0.997519
1.02513 1.02755 1 0.997653
1.01015 1.01262 1 0.997553
1.02175 1.02435 1 0.997467
1.02621 1.02868 1 0.997592
0.99928 1.00125 1 0.998036
1.00906 1.01149 1 0.997593
1.02025 1.02286 1 0.997454
0.999391 1 1 0.999391
0.998745 1.00062 1 0.998129
1.00653 1.00882 1 0.99773
1 1 1 1
0.999427 1 1 0.999427
0.998373 1.00012 1 0.998249
1 1 1 1
0.999466 1 1 0.999466
1 1 1 1
1.02353 1.02609 1 0.997506
1.02514 1.0276 1 0.997607
1.02801 1.03038 0.999978 0.997724
1.00972 1.01222 1 0.997534
1.02338 1.02597 1 0.99748
1.02487 1.02732 1 0.997617
1.02244 1.02498 1 0.997518
1.01057 1.01306 1 0.997549
0.998907 1.00105 1 0.997862
1.01052 1.01299 1 0.99756
0.998972 1.00104 1 0.997937
0.999222 1 1 0.999222
0.999021 1.00099 1 0.998033
0.999284 1 1 0.999284
1 1 1 1
0.999334 1 1 0.999334
1 1 1 1
0.999866 1 1 0.999866
1.02178 1.0243 1 0.997539
1.02333 1.02577 1 0.997624
1.00972 1.01219 1 0.997562
1.02154 1.02409 1 0.997518
1.02486 1.02727 1 0.997655
0.999355 1.0013 1 0.998055
1.01003 1.01251 1 0.99755
1.02222 1.02482 1 0.99746
0.999347 1 1 0.999347
0.999311 1.00125 1 0.998065
1.00899 1.01138 1 0.997636
1 1 1 1
0.999396 1 1 0.999396
0.998722 1.00061 1 0.998115
1 1 1 1
0.999435 1 1 0.999435
1 1 1 1
1.00908 1.01154 1 0.997571
1.02344 1.02601 1 0.9975
1.02466 1.02713 1 0.997599
0.998429 1.00057 1 0.997862
1.00976 1.01226 1 0.997534
1.02336 1.02593 1 0.997495
1.0106 1.01308 1 0.997548
0.998906 1.00104 1 0.997864
0.999173 1 1 0.999173
0.999002 1.00103 1 0.997971
0.999219 1 1 0.999219
1 1 1 1
0.999281 1 1 0.999281
1 1 1 1
1 1 1 1
1.0091 1.01157 1 0.997558
1.0214 1.02391 1 0.99755
1.02359 1.02601 1 0.997635
0.998979 1.00095 1 0.998032
1.00982 1.01229 1 0.99756
1.02148 1.02403 1 0.997517
0.9993 1 1 0.9993
0.999395 1.00134 1 0.998054
1.00995 1.01243 1 0.997547
1 1 1 1
0.999351 1 1 0.999351
0.999348 1.00126 1 0.998093
1 1 1 1
0.999402 1 1 0.999402
1 1 1 1
0.998164 1.00021 1 0.997951
1.00905 1.01154 1 0.997535
1.02338 1.02595 1 0.997495
0.999169 1 1 0.999169
0.998444 1.00058 1 0.997861
1.0098 1.0123 1 0.997535
0.998903 1.00104 1 0.997867
0.999172 1 1 0.999172
1 1 1 1
0.999216 1 1 0.999216
1 1 1 1
1 1 1 1
0.998432 1.00044 1 0.997996
1.00901 1.01148 1 0.997554
1.02106 1.02356 1 0.99756
0.999365 1 1 0.999365
0.999118 1.00109 1 0.99803
1.00993 1.0124 1 0.997557
1 1 1 1
0.999301 1 1 0.999301
0.999417 1.00137 1 0.998052
1 1 1 1
0.999355 1 1 0.999355
1 1 1 1
0.99917 1 1 0.99917
0.998189 1.00027 1 0.99792
1.00902 1.01155 1 0.997499
1 1 1 1
0.999168 1 1 0.999168
0.998458 1.0006 1 0.997859
0.99917 1 1 0.99917
1 1 1 1
1 1 1 1
0.999317 1 1 0.999317
0.998595 1.0006 1 0.997996
1.00889 1.01137 1 0.99755
1 1 1 1
0.99926 1 1 0.99926
0.999266 1.00124 1 0.998028
1 1 1 1
0.999303 1 1 0.999303
1 1 1 1
0.999784 1 1 0.999784
0.999243 1 1 0.999243
0.998216 1.00033 1 0.99789
1 1 1 1
0.999169 1 1 0.999169
1 1 1 1
0.999801 1 1 0.999801
0.999272 1 1 0.999272
0.998759 1.00076 1 0.997996
0.999904 1 1 0.999904
0.999259 1 1 0.999259
1 1 1 1
1 1 1 1
0.99919 1 1 0.99919
1 1 1 1
0.999897 1 1 0.999897
0.999222 1 1 0.999222
1 1 1 1
1 1 1 1
1 1 1 1

VECTORS lamdaE float
1.00018 1.00015 0.995104
1.00004 1.00041 0.997658
0.999875 1.00035 0.995284
1.00048 0.999928 0.994891
1.0003 0.999956 0.995135
1.00015 1.00031 0.994957
1.00142 1.00049 0.992299
1.00006 1.00031 0.997666
0.99996 1.00023 0.997933
0.999565 1.0007 0.997985
1.00004 1.0003 0.995189
1.00125 1.00123 0.991287
1.00033 1.00001 0.994923
1.00006 0.999991 0.995172
0.999601 1.00056 0.995438
1.00025 0.999905 0.995119
0.999831 1.0006 0.995111
1.00004 1.00003 0.995331
1.00159 1.00033 0.992226
1.00032 1 0.99757
1.00049 0.999988 0.994783
1.00041 0.999879 0.995051
1.00181 0.99999 0.992142
1.00163 1.00012 0.992324
1.00016 1.00026 0.994897
1.00121 1.00099 0.992169
1.00406 1.00032 0.988037
1.00004 1.00025 0.997698
1.0001 1.00011 0.996475
0.999801 1.00054 0.996507
1.00002 1.00007 0.997792
1.00116 1.00136 0.991285
1.00038 0.999841 0.994965
1.0001 1.00037 0.995034
1.00191 1.00018 0.99254
0.99956 0.999482 0.99842
1.00157 1.00083 0.992541
1.0009 1.00163 0.991498
1.00324 1.00178 0.987268
0.999645 0.998446 0.998758
1.00034 1.00001 0.997541
1.00022 1.00001 0.996357
1.0003 0.999996 0.997562
0.999996 1.00004 0.995234
1.00194 1.00003 0.991296
1.00013 0.999963 0.997856
1.00209 1.00011 0.992331
1.00002 0.999843 0.995346
0.999795 1.0001 0.995513
0.999523 1.00093 0.99525
1.00174 1.00016 0.992167
1.0002 1.00002 0.996381
1.00025 0.999989 0.995017
0.999836 1.00061 0.995049
1.00018 0.999866 0.995262
1.00191 0.999955 0.992048
1.0014 1.00078 0.992092
1.00175 1.00003 0.992247
1.00405 1.00034 0.988019
1.00028 0.999999 0.997583
1.00044 1.00002 0.994836
1.00177 1 0.992831
1.00184 1.00002 0.992069
1.00176 0.999966 0.992257
1.00432 0.999941 0.987854
1.00422 0.999979 0.987815
0.999933 0.999766 0.99552
1.00075 1.00168 0.992149
1.00383 1.00076 0.987973
1.00501 1.00008 0.985851
1.00028 1.00014 0.997634
0.999896 0.999839 0.997993
1.00004 1.00038 0.997654
1.0011 1.00146 0.991276
1.0004 0.999976 0.997597
1.00016 1.00032 0.997655
1.0018 1.00013 0.991339
0.999675 0.999562 0.997198
1.00135 1.0009 0.991376
1.00078 1.00167 0.992296
1.0033 1.0017 0.987253
0.99978 0.998906 0.99846
0.999723 1.00033 0.994929
1.002 0.999988 0.991221
1.00171 1.00042 0.991341
1.00432 1.00022 0.986925
1.00038 1.00146 0.993827
1.00367 1.00099 0.987316
1.00221 1.00343 0.98748
1.00454 1.00136 0.985377
0.999578 0.998027 0.998991
0.999569 0.998364 0.998859
1.0004 0.999992 0.99754
1.00036 1.00001 0.99754
1.00033 0.999998 0.997561
1.00018 1.00002 0.996391
1.00197 1.00002 0.991932
1.00026 0.999973 0.996377
1.00203 1.00013 0.991742
1.00032 0.999992 0.997573
1.00185 0.999948 0.991478
1.00205 1.00011 0.992411
1.00438 0.999698 0.987364
1.00205 1.00003 0.992425
1.00443 0.99991 0.98708
1.0003 1.00001 0.994986
1.00001 0.999983 0.995256
0.999492 1.00102 0.99521
0.999956 0.999832 0.995469
1.00201 0.999958 0.991953
1.00187 0.999943 0.992176
1.0016 1.00052 0.992024
1.00404 1.00036 0.988001
1.00031 0.999996 0.997577
1.00019 1.00002 0.995072
1.00188 0.999977 0.991767
1.00193 1.00001 0.991964
0.999812 1.00005 0.996702
1.001 1.00156 0.992279
1.00186 0.999915 0.992174
1.00434 0.999919 0.987769
1.00381 1.00078 0.987987
1.00422 1.00005 0.987878
1.00499 1.00009 0.985877
1.00183 0.999974 0.991518
1.00178 1.00001 0.992149
1.0043 0.999659 0.987973
1.00434 0.99985 0.987722
1.0043 0.999863 0.987757
1.00519 0.99956 0.986351
0.999706 0.99944 0.998314
1.0051 0.999801 0.985969
1.00022 1.00205 0.992109
1.00316 1.00181 0.987354
1.0049 1.00046 0.985722
1.00522 0.999774 0.985767
0.999884 1.0013 0.993525
1.0002 1.00427 0.99013
1.00038 1.00001 0.99761
1.00011 1.00031 0.997665
1.00181 1.00011 0.99134
0.999748 0.999258 0.998359
1.00053 1.00192 0.991742
1.00131 1.00094 0.991383
1.00336 1.00163 0.987238
0.999689 0.998828 0.998573
0.999709 1.00024 0.994979
1.00201 1.00002 0.991856
1.00169 1.00044 0.991969
1.00431 1.00023 0.986922
1.00015 1.00153 0.99294
1.00368 1.00096 0.987324
1.00223 1.00338 0.987468
1.00452 1.00131 0.985346
0.999902 1.00098 0.993975
0.999742 0.999572 0.995639
1.00029 1.0032 0.991122
1.00441 1.0001 0.986909
1.00403 1.00055 0.987092
1.00511 1.0001 0.985658
1.00128 1.00407 0.988545
1.00474 1.00083 0.985519
1.00372 1.00303 0.985327
1.00499 1.0011 0.984988
0.999602 0.997724 0.999095
0.999547 0.997962 0.999035
0.999513 0.998258 0.99894
0.99981 1.00084 0.994122
0.999658 0.999076 0.998501
1.00042 0.999977 0.99757
1.00037 1.00001 0.997532
1.00193 1.00014 0.991159
1.00188 1.00002 0.991357
1.0003 1 0.997561
1.00029 0.999996 0.997571
1.00185 0.999956 0.991473
1.00198 1.0001 0.991815
1.00438 0.999697 0.987364
1.00195 1.00006 0.991187
1.00442 0.999909 0.987075
1.00182 0.999944 0.991524
1.00435 0.999634 0.987476
1.0044 0.99979 0.987229
1.00518 0.998979 0.986751
1.00443 1.00001 0.986964
1.00521 0.999374 0.986298
1.00029 0.999994 0.997571
0.999949 1.00003 0.995307
1.00189 0.999968 0.990803
1.00203 1.00001 0.991857
0.999459 1.00028 0.998155
1.00133 1.00134 0.992407
1.00196 0.999887 0.992091
1.00435 0.99988 0.987684
1.00421 1.00012 0.987941
1.00378 1.00083 0.988
1.00497 1.0001 0.985902
1.00182 0.99996 0.991519
1.00189 1.00001 0.992038
1.00432 0.999638 0.987657
1.00436 0.999888 0.987765
0.999744 0.999527 0.998229
1.00048 1.00182 0.992664
1.00305 1.00203 0.987644
1.00431 0.999891 0.987736
1.00518 0.999429 0.986372
1.00489 1.00049 0.985668
1.0051 0.999853 0.98607
1.00522 0.999767 0.985797
0.999922 1.0013 0.993519
1.00029 1.00407 0.990149
1.00431 0.999639 0.987543
1.00432 0.999774 0.987835
1.00517 0.999114 0.986812
1.00518 0.999172 0.986542
1.00516 0.999559 0.986355
1.00524 0.998518 0.987118
1.00001 1.00168 0.992871
1.00523 0.999234 0.98632
1.0018 1.00357 0.987946
1.00463 1.00119 0.985311
1.00519 1.00047 0.985322
1.0052 0.998965 0.986733
1.00063 1.00413 0.989565
1.00014 1.0035 0.990976
1.00087 1.00471 0.988691
1.00192 0.999999 0.991277
0.999599 0.998734 0.998691
0.999698 1.00014 0.995028
1.00155 1.00049 0.991404
1.00431 1.00023 0.986918
1.00005 1.00163 0.992861
1.00223 1.00335 0.987455
1.00369 1.00094 0.987333
1.0045 1.00126 0.985316
0.999863 1.00094 0.994
0.999755 0.99946 0.995679
1.00012 1.00339 0.991128
1.00439 1.00011 0.986899
1.00404 1.00055 0.987091
1.00513 1.00009 0.985639
1.00118 1.00414 0.988571
1.00478 1.00083 0.985525
1.00369 1.00301 0.985313
1.00494 1.00096 0.984951
0.999859 0.998984 0.995997
1.00071 1.00372 0.989836
1.00008 1.00226 0.992399
1.00044 1.00462 0.989423
1.00516 0.999863 0.985836
1.00495 1.00044 0.985578
1.0052 0.99961 0.986004
1.00234 1.00431 0.986599
1.00512 1.00057 0.985246
1.00438 1.00239 0.98479
1.00514 1.00091 0.984928
1.00027 1.00042 0.993885
1.00007 0.998409 0.996187
0.999675 0.99749 0.99913
0.999596 0.997684 0.999107
0.999527 0.997904 0.999067
0.999812 1.00022 0.994761
0.999625 0.998692 0.998676
0.999839 1.00088 0.994098
0.999709 0.999125 0.998438
1.00195 1.00009 0.991182
1.00193 1.00008 0.991234
1.00442 0.999909 0.98707
1.00437 0.999696 0.987364
1.00186 0.999965 0.991472
1.00032 0.999997 0.997564
1.00184 0.999946 0.991523
1.00434 0.99964 0.987476
1.0044 0.999795 0.987226
1.00517 0.998988 0.986746
1.00442 1.00003 0.986953
1.00521 0.999377 0.986289
1.00431 0.99963 0.987539
1.00516 0.998879 0.986883
1.0052 0.999151 0.986542
1.0052 0.997536 0.988212
1.0052 0.999611 0.98606
1.00523 0.998214 0.987453
1.00183 0.999947 0.991522
1.002 0.999988 0.991926
1.00434 0.999604 0.987343
1.00438 0.99992 0.987809
0.999813 0.999639 0.998133
1.00072 1.0017 0.993101
1.00304 1.00219 0.987931
1.00431 0.999907 0.987715
1.00518 0.999294 0.986393
1.0051 0.999908 0.986171
1.00488 1.00052 0.985614
1.00521 0.999759 0.985826
0.99997 1.00129 0.993512
1.00039 1.00389 0.990166
1.00431 0.999588 0.987497
1.00434 0.999757 0.98782
1.00517 0.998994 0.986947
1.00518 0.999307 0.986495
1.00009 1.00167 0.992855
1.00193 1.00344 0.987944
1.00457 1.00126 0.985362
1.00516 0.999636 0.986292
1.00524 0.998346 0.987324
1.00519 1.00047 0.985308
1.00523 0.999227 0.986342
1.0052 0.998914 0.986736
1.0007 1.00398 0.989564
1.00073 1.00465 0.988721
1.00018 1.00346 0.990973
1.00516 0.999002 0.98694
1.00518 0.999066 0.986871
1.00522 0.997679 0.98801
1.00523 0.998077 0.987545
1.00522 0.998611 0.986961
1.00517 0.996981 0.988669
1.00107 1.00391 0.988931
1.00519 0.998049 0.987478
1.00336 1.00311 0.985882
1.00513 1.00117 0.984443
1.00519 1.00012 0.985605
1.00513 0.998047 0.987687
1.00017 1.00257 0.991864
1.00133 1.00396 0.988457
1.00035 1.00494 0.989062
1.00157 1.00395 0.988386
1.00438 1.00013 0.986889
0.999766 0.999361 0.995717
0.999816 1.00091 0.994026
1.00001 1.00352 0.991133
1.00405 1.00055 0.98709
1.00515 1.00009 0.985619
1.00109 1.00421 0.988599
1.00366 1.00304 0.985299
1.00481 1.00084 0.985531
1.00487 1.00083 0.984914
0.99987 0.998925 0.996015
1.00064 1.00383 0.98984
1.00005 1.00221 0.992435
1.00033 1.00485 0.989384
1.00517 0.999868 0.98582
1.00498 1.00042 0.985552
1.0052 0.999616 0.985991
1.00223 1.00432 0.986634
1.00513 1.00063 0.985238
1.00436 1.00224 0.984794
1.00514 1.0009 0.984838
0.999988 0.998608 0.996131
1.00018 1.00123 0.993239
1.00121 1.00451 0.988282
1.00018 1.00392 0.990645
1.00095 1.00435 0.988988
1.00521 0.99914 0.986497
1.00516 1.0001 0.985522
1.00514 0.998827 0.98681
1.0029 1.00374 0.986152
1.00515 1.00021 0.985541
1.00439 1.00186 0.984694
1.00027 1.00048 0.993801
1.00024 1.0018 0.992586
1.00023 1.00042 0.993954
1.00026 1.00042 0.993884
1.0001 0.998234 0.996803
1.00006 0.998395 0.996479
0.99983 0.9973 0.998002
0.999682 0.99745 0.999134
0.999595 0.997636 0.999118
0.999837 0.999618 0.995346
0.999625 0.998281 0.99886
0.999818 1.00029 0.994733
0.999676 0.998763 0.998614
0.999871 1.00091 0.994075
0.999748 0.999184 0.998371
1.00441 1.00003 0.986941
1.0044 0.999798 0.987222
1.00521 0.999393 0.986279
1.00517 0.998996 0.986741
1.00434 0.999646 0.987476
1.00182 0.999948 0.991521
1.00431 0.999629 0.98754
1.00516 0.998882 0.986882
1.0052 0.999165 0.986533
1.0052 0.997405 0.988361
1.0052 0.99962 0.98605
1.00523 0.998228 0.987436
1.00515 0.998857 0.986918
1.00515 0.997184 0.988694
1.00522 0.997779 0.987897
1.00519 0.996026 0.989638
1.00521 0.998703 0.986983
1.00519 0.996628 0.988903
1.00431 0.99954 0.987451
1.00437 0.999753 0.987804
1.00517 0.998886 0.987081
1.00518 0.999443 0.986448
1.00018 1.00165 0.992838
1.00195 1.0034 0.987943
1.00451 1.00132 0.985413
1.00516 0.999714 0.986228
1.00524 0.998173 0.98753
1.00522 0.999219 0.986363
1.00518 1.00045 0.985292
1.0052 0.998862 0.986738
1.00077 1.00385 0.989563
1.00069 1.00464 0.988751
1.00022 1.00339 0.990972
1.00516 0.998956 0.986911
1.00518 0.999065 0.986863
1.00521 0.997449 0.988277
1.00523 0.998165 0.987469
1.00111 1.00392 0.988899
1.00339 1.00299 0.985879
1.00506 1.00127 0.984501
1.00522 0.998786 0.986795
1.00518 0.996778 0.988892
1.00519 1.00012 0.985527
1.00519 0.998058 0.987491
1.00514 0.997925 0.987814
1.00142 1.00396 0.988443
1.00151 1.00398 0.988369
1.0002 1.00255 0.99185
1.00029 1.00485 0.989172
1.00519 0.997417 0.988367
1.00522 0.997821 0.987954
1.00515 0.996226 0.989485
1.00519 0.996069 0.989479
1.00517 0.997283 0.988316
1.00514 0.996018 0.989759
1.00218 1.0037 0.987319
1.00512 0.996664 0.988806
1.00407 1.00282 0.984774
1.00514 1.00135 0.984306
1.00518 0.999609 0.985899
1.00511 0.997662 0.988045
1.00015 1.00185 0.992603
1.00021 1.00437 0.989869
1.00202 1.00333 0.987928
1.0006 1.00503 0.988722
1.00187 1.0033 0.988568
0.999877 0.99888 0.996033
1.00518 0.999872 0.985804
1.00002 1.00217 0.992471
1.00052 1.00401 0.989845
1.00021 1.00504 0.989345
1.00501 1.00041 0.985525
1.0052 0.999622 0.985978
1.00222 1.00419 0.986668
1.00435 1.00209 0.984798
1.00514 1.00068 0.985231
1.00515 1.00089 0.98475
0.999992 0.998593 0.99614
1.00016 1.00123 0.993258
1.0012 1.00448 0.988291
1.00005 1.00405 0.990639
1.0008 1.00431 0.988974
1.00521 0.999138 0.986485
1.00517 1.0001 0.985503
1.00514 0.9988 0.98678
1.00286 1.00369 0.986153
1.00517 1.00024 0.985436
1.00461 1.00179 0.984671
1.00027 1.0007 0.993629
1.00016 1.00281 0.991796
1.00175 1.00378 0.988059
1.0003 1.00481 0.989735
1.00127 1.00355 0.9892
1.00517 0.998172 0.987452
1.00514 0.999449 0.98614
1.0051 0.998174 0.987172
1.00305 1.00299 0.986186
1.005 1.00088 0.984817
1.00028 1.00049 0.993797
1.00025 1.00175 0.992521
1.00018 1.00186 0.992542
1.00023 1.0025 0.99205
1.00019 1.00185 0.99262
1.00017 1.00047 0.993988
1.00022 1.00042 0.993955
1.00012 0.998164 0.996825
1.00025 1.00043 0.993882
1.0001 0.998254 0.996805
0.999925 0.997081 0.998031
1.00005 0.998394 0.996766
0.999795 0.997261 0.998576
0.999691 0.997399 0.999138
0.999891 0.999058 0.995814
0.999834 0.999671 0.995319
0.999634 0.997904 0.998999
0.999656 0.998367 0.998791
0.999823 1.00037 0.994706
0.999723 0.998815 0.998549
1.00519 0.999627 0.98604
1.0052 0.999167 0.986524
1.00523 0.998236 0.98742
1.0052 0.997273 0.988509
1.00515 0.998885 0.986881
1.00431 0.999628 0.987541
1.00515 0.998858 0.986922
1.00515 0.997184 0.988703
1.00523 0.997789 0.987888
1.00518 0.995868 0.989809
1.00521 0.998695 0.986962
1.00519 0.996521 0.989036
1.00517 0.997212 0.988657
1.00518 0.995834 0.989875
1.0052 0.99595 0.989678
1.0052 0.995138 0.990434
1.00518 0.9974 0.988205
1.00518 0.995625 0.989906
1.00515 0.998905 0.986882
1.00518 0.99907 0.986855
1.00521 0.997207 0.988544
1.00523 0.998249 0.987394
1.00117 1.00393 0.988868
1.00342 1.00289 0.985874
1.00492 1.00133 0.984557
1.00522 0.998962 0.98663
1.00518 0.996573 0.989115
1.00519 0.998068 0.987504
1.00519 1.00013 0.985449
1.00514 0.997804 0.987942
1.00138 1.00402 0.98843
1.00131 1.00403 0.988352
1.00024 1.00254 0.991835
1.00025 1.00479 0.989283
1.00519 0.997424 0.988359
1.00521 0.99791 0.987826
1.00515 0.99604 0.989705
1.0052 0.996175 0.989356
1.00208 1.00393 0.987281
1.00401 1.00272 0.984844
1.00514 1.00138 0.984271
1.00517 0.997472 0.988105
1.00514 0.995729 0.989941
1.00517 0.999647 0.985877
1.00513 0.996686 0.988807
1.00512 0.997408 0.988177
1.00212 1.00328 0.987896
1.00181 1.00322 0.988637
1.0006 1.00503 0.988693
1.00015 1.00185 0.992533
1.00014 1.00433 0.989996
1.00517 0.995741 0.990036
1.00518 0.995824 0.989873
1.00515 0.995127 0.990404
1.00513 0.9959 0.989582
1.00273 1.00361 0.986443
1.00515 0.996204 0.989435
1.00447 1.00257 0.984028
1.005 1.0014 0.984392
1.00513 0.999198 0.986189
1.00007 1.00117 0.993225
1.00011 1.00366 0.990969
1.00046 1.00468 0.989414
1.00235 1.00308 0.987736
1.00084 1.00481 0.988272
1.00211 1.00253 0.988352
0.999993 0.998584 0.996148
1.00014 1.00121 0.993278
1.00521 0.999136 0.986473
0.999914 1.00419 0.990634
1.00108 1.00459 0.988301
1.00065 1.00428 0.988959
1.00519 1.00011 0.985484
1.00514 0.998774 0.98675
1.0028 1.00364 0.986155
1.00478 1.00177 0.984646
1.0052 1.00026 0.98533
1.00025 1.0007 0.993634
1.00008 1.00285 0.991819
1.00178 1.00373 0.988064
1.00014 1.00489 0.989699
1.00119 1.0034 0.989289
1.00516 0.998187 0.987429
1.00514 0.999448 0.986117
1.0051 0.998204 0.987234
1.00317 1.00291 0.985994
1.005 1.00098 0.984826
1.00023 1.00206 0.992399
0.999825 1.00423 0.990633
1.00245 1.00246 0.988064
1.00022 1.00484 0.989484
1.00178 1.00245 0.98913
1.00511 0.996733 0.988673
1.0051 0.999547 0.986034
1.00507 0.998024 0.987267
1.00405 1.0021 0.985625
1.0049 1.00085 0.985056
1.00028 1.00048 0.993794
1.00025 1.00178 0.992545
1.00006 1.0025 0.992066
1.00014 1.0019 0.992498
1.00016 1.0019 0.992615
1.00012 1.00257 0.991996
1.00007 1.00289 0.991851
1.0001 1.00272 0.991804
1.00012 1.00197 0.992626
1.00011 1.00058 0.993989
1.00017 1.00047 0.993988
1.00013 0.998155 0.996825
1.00022 1.00041 0.993956
1.00013 0.998187 0.996825
0.99999 0.996958 0.998039
1.00011 0.998264 0.99681
0.999914 0.997052 0.998037
0.999756 0.997214 0.999162
0.999939 0.998619 0.996185
0.99988 0.99913 0.995783
0.99967 0.997601 0.999095
0.999828 0.999743 0.995294
0.999658 0.997986 0.998958
0.999698 0.998437 0.998728
1.00522 0.998687 0.98694
1.00523 0.997805 0.987878
1.00519 0.996415 0.989169
1.00518 0.99573 0.989981
1.00515 0.997182 0.988712
1.00515 0.998859 0.986925
1.00517 0.997304 0.988542
1.00518 0.995898 0.989854
1.00519 0.995994 0.989647
1.00521 0.99508 0.990494
1.00518 0.997442 0.988194
1.00517 0.99541 0.990092
1.00519 0.995843 0.989932
1.00523 0.994952 0.990662
1.00519 0.995095 0.990456
1.00516 0.995744 0.98977
1.00519 0.997431 0.988351
1.00521 0.997996 0.987699
1.00515 0.995868 0.989925
1.0052 0.996287 0.989232
1.00208 1.00403 0.987243
1.00407 1.00261 0.984914
1.00514 1.00143 0.984237
1.00517 0.997661 0.987894
1.00513 0.995448 0.990122
1.00514 0.996709 0.988807
1.00516 0.999677 0.985854
1.00514 0.997164 0.988309
1.00222 1.00327 0.987864
1.00183 1.00299 0.988705
1.00059 1.00504 0.988662
1.00017 1.00183 0.992463
1.00012 1.00425 0.990123
1.00517 0.995775 0.99003
1.00518 0.995857 0.989807
1.00515 0.995269 0.990299
1.0027 1.00372 0.98643
1.0045 1.00249 0.98412
1.00502 1.00133 0.984365
1.00513 0.995918 0.989573
1.00513 0.99898 0.986481
1.00513 0.996173 0.989283
1.00009 1.00106 0.993337
1.0025 1.00288 0.987672
1.00192 1.00234 0.988929
1.00099 1.00491 0.988212
1.00046 1.00476 0.989439
1.00012 1.00362 0.990905
1.00521 0.995079 0.990432
1.00517 0.995163 0.99046
1.00513 0.994987 0.990371
1.00516 0.995311 0.990141
1.00349 1.00314 0.985705
1.00513 0.997198 0.988177
1.00499 1.00246 0.983257
1.00498 1.00146 0.98424
1.00014 1.00027 0.994038
1.00008 1.00276 0.991932
1.00028 1.00424 0.990206
1.00072 1.00502 0.98856
1.00255 1.00278 0.987274
1.00199 1.00368 0.987652
1.00023 1.0007 0.993639
1 1.00287 0.991842
1.00515 0.998201 0.987406
0.999971 1.00497 0.989663
1.00182 1.00367 0.988068
1.00094 1.00332 0.989381
1.00514 0.999447 0.986095
1.0051 0.998239 0.987295
1.00334 1.00287 0.9858
1.005 1.00107 0.984836
1.00018 1.00207 0.992414
0.999901 1.0043 0.9906
1.00252 1.00252 0.988061
1.00006 1.00499 0.989519
1.0016 1.00213 0.989646
1.00512 0.9967 0.988861
1.00509 0.999543 0.986101
1.00508 0.998098 0.987273
1.00397 1.00228 0.985408
1.00495 1.00086 0.984881
0.999899 1.00292 0.991839
0.999771 1.00505 0.989714
1.00316 1.00163 0.987679
1.00073 1.00384 0.988633
1.00516 0.995398 0.989842
1.00506 0.997141 0.988632
1.00499 0.999821 0.985751
1.00435 1.00099 0.985223
1.00027 1.00177 0.992569
1.00009 1.0025 0.992079
0.999843 1.00306 0.992128
1.00012 1.00196 0.99261
1.00003 1.00264 0.991943
1.00011 1.00198 0.992619
1.00001 1.00287 0.991884
1.00011 1.0027 0.991842
0.999954 1.00276 0.99214
1.00008 1.00312 0.991532
1.00012 1.00286 0.991619
1.0001 1.00206 0.992563
1.00006 1.00068 0.993957
1.00012 1.00056 0.993988
1.00012 0.998181 0.996815
1.00017 1.00045 0.993988
1.00013 0.998186 0.996823
1.00003 0.996886 0.998034
1.00013 0.998211 0.996826
0.999983 0.996923 0.998045
0.9999 0.997029 0.99804
1.00003 0.998218 0.996442
0.999946 0.99865 0.996155
0.99973 0.997277 0.999167
0.999868 0.999201 0.995751
0.999681 0.99765 0.999069
0.999684 0.998055 0.998899
1.00517 0.997481 0.988183
1.00518 0.996038 0.989616
1.00516 0.995194 0.990278
1.00521 0.994994 0.990555
1.00518 0.995943 0.989833
1.00517 0.997398 0.988427
1.00519 0.995871 0.989903
1.00524 0.994972 0.990626
1.00518 0.995132 0.990417
1.00516 0.995663 0.989867
1.00523 0.995066 0.990587
1.00519 0.994943 0.990645
1.00517 0.995018 0.990404
1.00518 0.995817 0.990025
1.00518 0.995889 0.989741
1.00514 0.995412 0.990196
1.0027 1.00385 0.986418
1.00449 1.00241 0.98421
1.00503 1.0013 0.984338
1.00514 0.99593 0.989566
1.00512 0.996136 0.989129
1.00513 0.99876 0.986773
1.00266 1.00272 0.987607
1.00168 1.00223 0.989505
1.00119 1.00502 0.988153
1.0001 1.00097 0.993449
1.00038 1.00478 0.989463
1.00013 1.00358 0.99084
1.0052 0.995147 0.990469
1.00517 0.995071 0.990505
1.00513 0.995058 0.990415
1.00331 1.00332 0.985682
1.00479 1.0025 0.9834
1.00493 1.00126 0.984555
1.00515 0.995334 0.990099
1.00513 0.99714 0.988116
1.00013 1.00024 0.994195
1.00008 1.00276 0.99193
1.00231 1.00265 0.987605
1.00184 1.00375 0.988145
1.00065 1.005 0.988767
1.00026 1.00427 0.99014
1.00516 0.994939 0.990714
1.00514 0.994929 0.990528
1.00513 0.995048 0.99041
1.00513 0.995044 0.990067
1.00381 1.00291 0.984561
1.00479 1.0004 0.985523
1.00503 1.00272 0.983062
1.00021 0.999829 0.994574
1.00021 1.00098 0.993479
1.00009 1.00171 0.992784
1.00002 1.0038 0.990928
1.00021 1.0048 0.989516
1.00042 1.0047 0.98885
1.00258 1.00178 0.987808
1.00191 1.00356 0.988978
1.00013 1.00211 0.992428
0.999974 1.00437 0.990566
1.00513 0.996665 0.989049
1.00014 1.00503 0.989551
1.00259 1.00261 0.988059
1.00139 1.00187 0.990159
1.00509 0.999522 0.98617
1.00509 0.998159 0.987281
1.00389 1.00241 0.985197
1.00502 1.00087 0.984706
0.99991 1.00301 0.991736
0.999868 1.00496 0.989792
1.0031 1.00168 0.987776
1.0011 1.00389 0.988769
1.00517 0.995325 0.989973
1.00508 0.997139 0.988447
1.00501 0.999771 0.985759
1.00461 1.00109 0.985101
0.999733 1.00371 0.991379
1.00519 0.994894 0.990296
1.00068 1.00493 0.989137
1.00328 1.00214 0.986852
1.00511 0.99587 0.989898
1.00503 0.998573 0.986164
1.00497 1.00102 0.984923
1.00009 1.00255 0.992091
0.999821 1.00301 0.992098
0.999547 1.00317 0.992553
1.00012 1.00195 0.992612
1.00012 1.00269 0.991881
0.999842 1.00294 0.991918
1.00011 1.00204 0.992552
1.0001 1.00286 0.99164
0.999785 1.00287 0.992194
1.00015 1.00303 0.991556
0.999954 1.00252 0.992571
0.999923 1.00305 0.991862
1.00019 1.00337 0.991131
1.00026 1.00287 0.991445
1.00012 1.00218 0.992399
1.00002 1.00082 0.993883
1.00005 1.00071 0.993952
1.00011 0.99825 0.996775
1.00011 1.00057 0.993987
1.00012 0.998218 0.996811
1.00006 0.996843 0.998029
1.00013 0.998217 0.996822
1.00003 0.996851 0.998039
0.999979 0.996892 0.998048
1.00019 0.999815 0.994634
1.00009 0.99798 0.996581
1.00003 0.998246 0.996425
0.999819 0.996995 0.999213
0.999949 0.998694 0.996125
0.999735 0.997357 0.999147
0.999698 0.997721 0.999042
1.00516 0.995584 0.989964
1.00518 0.995173 0.990377
1.00524 0.995009 0.99059
1.0052 0.995887 0.989875
1.00523 0.994989 0.990662
1.00519 0.994944 0.990664
1.00517 0.995045 0.990382
1.00518 0.99495 0.990711
1.00521 0.994937 0.990528
1.00519 0.994951 0.990858
1.0052 0.995206 0.990506
1.00518 0.994974 0.99055
1.00512 0.995125 0.990459
1.00316 1.00348 0.985661
1.00467 1.00256 0.983548
1.00487 1.00107 0.984869
1.00515 0.995376 0.990057
1.00514 0.997063 0.988056
1.0021 1.00257 0.987939
1.00177 1.00379 0.988635
1.00045 1.00495 0.988975
1.00012 1.00017 0.994352
1.00013 1.00272 0.991928
1.00024 1.00439 0.990073
1.00517 0.99494 0.990681
1.00019 0.999853 0.994569
1.00017 1.00102 0.993407
1.00514 0.994925 0.99054
1.00513 0.995038 0.990407
1.00359 1.00313 0.984925
1.00497 1.00268 0.983213
1.00487 1.00018 0.985454
1.00512 0.99525 0.990006
1.00009 1.00171 0.992968
1.00008 1.00377 0.990902
1.00283 1.00231 0.987459
1.00129 1.00358 0.989375
1.00048 1.00467 0.989036
1.00017 1.00482 0.989611
1.0052 0.994955 0.990464
1.00514 0.994874 0.99054
1.00512 0.994919 0.990198
1.00475 0.995875 0.989796
1.00342 1.00297 0.985494
1.00443 1.00319 0.983906
1.0001 1.00119 0.993258
1.00018 1.00106 0.993417
1.00035 1.00156 0.992782
1.00013 1.00293 0.99145
0.999984 1.0045 0.99043
1.00094 1.00433 0.988924
0.999776 1.00491 0.989442
1.002 1.00112 0.989445
0.999926 1.00309 0.991635
1.00004 1.00487 0.989874
1.00517 0.995256 0.990104
1.00509 0.997183 0.988263
1.00145 1.00393 0.988906
1.00304 1.00169 0.987869
1.00504 0.999733 0.985766
1.00484 1.00122 0.984976
0.999806 1.0037 0.991336
1.0052 0.994901 0.990411
1.00046 1.00491 0.989193
1.00322 1.00208 0.986841
1.0051 0.995761 0.989882
1.00493 0.998675 0.986437
1.0049 1.00111 0.984977
0.999874 1.00462 0.990653
1.00452 0.995058 0.991764
1.00197 1.00371 0.988551
1.00382 1.00211 0.986389
1.00491 0.996461 0.989247
1.00403 1.00098 0.985701
0.998923 0.997232 0.990743
0.999761 1.00302 0.99207
0.999398 1.00328 0.992535
0.999631 1.00339 0.99248
1.00009 1.00206 0.99254
1.00008 1.0029 0.991661
1.00024 1.00294 0.991581
0.99969 1.00288 0.992248
1.00012 1.00217 0.992398
1.00022 1.00294 0.991429
0.99991 1.00254 0.992487
1.00014 1.00343 0.991135
1.00003 1.00298 0.991791
0.999972 1.00263 0.992308
1.00027 1.00347 0.990884
1.0002 1.00346 0.991044
1.00037 1.003 0.99115
1.00016 1.0023 0.992087
1.00027 1.00275 0.991721
1.00016 1.00237 0.991971
1.00002 1.00085 0.993838
1.00002 1.00082 0.993878
1.00012 0.998343 0.996157
1.00006 1.00069 0.993946
1.00012 0.998296 0.99648
1.00003 0.996825 0.999153
1.00012 0.998256 0.996808
1.00006 0.996805 0.998034
1.00003 0.996818 0.998041
1.00014 0.999807 0.994702
1.0002 0.999776 0.994643
1.0001 0.997864 0.996686
1.00007 0.997987 0.996836
0.999892 0.996811 0.999243
1.00003 0.998271 0.996408
0.99981 0.997064 0.999201
0.99974 0.997408 0.999127
1.00516 0.99507 0.99036
1.00518 0.994946 0.990682
1.00523 0.994923 0.990737
1.00518 0.99495 0.990713
1.0052 0.994935 0.990532
1.00518 0.994962 0.990529
1.00523 0.994991 0.990456
1.00101 0.99485 0.987176
1.00438 0.994948 0.993071
1.00003 1.00125 0.99346
1.00518 0.99494 0.990647
1.00514 0.99492 0.990552
1.00513 0.99503 0.990404
1.00325 1.00328 0.985286
1.00493 1.00262 0.983364
1.00495 0.999985 0.985389
1.00512 0.995474 0.989942
1.00322 1.00251 0.987114
1.00065 1.00358 0.989779
1.00061 1.00462 0.989223
1.00016 0.999901 0.994564
1.00015 1.00486 0.989705
1.00008 1.00169 0.99315
1.00016 1.00371 0.990875
1.00016 1.00101 0.993336
1.0052 0.994953 0.990465
1.00011 1.00115 0.993357
1.00015 1.00111 0.993412
1.00033 1.00158 0.992722
1.00514 0.994891 0.990523
1.00513 0.994923 0.99022
1.00362 1.00283 0.985539
1.00434 1.00256 0.984458
1.00464 0.996341 0.989697
1.00004 1.00299 0.991593
1.00009 1.00443 0.990255
1.00191 1.00197 0.989168
1.00021 1.00475 0.989483
1.00082 1.00426 0.989014
1.00519 0.995108 0.990518
1.00515 0.994885 0.990484
1.00508 0.995568 0.989731
1.00443 0.998179 0.989008
1.00188 1.00313 0.988472
1.00012 1.00213 0.992304
1.00038 1.00174 0.992256
1.00014 1.00237 0.991994
0.999889 1.00439 0.990976
1.00005 1.00451 0.989973
1.00017 1.00452 0.989457
1.00054 1.00339 0.989949
0.999931 1.00364 0.991289
1.00013 1.00488 0.989247
1.00522 0.994904 0.990522
1.00511 0.995607 0.989863
1.00488 0.998795 0.986709
1.00319 1.002 0.986833
1.00484 1.00115 0.985034
0.999949 1.00451 0.990758
1.00445 0.995032 0.991884
1.00159 1.00372 0.988651
1.00352 1.00214 0.986461
1.00491 0.996109 0.989602
1.00417 1.00115 0.985668
0.998973 0.997237 0.988654
1.00001 1.00455 0.990501
1.00287 0.997319 0.991902
1.00149 1.00302 0.989207
1.00268 1.00175 0.987541
1.00379 0.997416 0.989009
1.00019 0.995358 0.953192
0.997049 0.994915 0.972084
0.996569 1.00238 0.990046
0.999789 0.996478 0.898711
0.994703 0.996906 0.873829
0.999276 1.00339 0.992519
0.999278 1.00359 0.99257
0.999688 1.00309 0.992418
1.00011 1.00217 0.992397
1.00027 1.00286 0.991413
1.00012 1.00347 0.991139
1.00014 1.00291 0.991721
0.999835 1.00258 0.992404
1.00024 1.0034 0.991005
1.00016 1.00228 0.99216
1.00035 1.003 0.991177
0.99998 1.00261 0.992223
1.00018 1.00352 0.991007
1.00022 1.00359 0.990993
0.999807 1.0032 0.991706
1.00032 1.0035 0.990815
1.00034 1.00304 0.991079
1.0002 1.00237 0.991941
1.00033 1.00306 0.991209
1.00019 1.00292 0.991595
1.00013 1.00267 0.991888
1.00025 1.00277 0.99166
1.00024 1.00204 0.992347
1.00019 1.00238 0.991955
1.00007 1.0008 0.993817
1.00002 1.00086 0.993836
1.00011 0.998407 0.996136
1.00001 1.00085 0.993874
1.00011 0.998358 0.996155
1.00003 0.996825 0.999149
1.00012 0.998344 0.996185
1.00005 0.996824 0.998577
1.00006 0.996768 0.998038
1.00008 0.999833 0.994784
1.00015 0.999793 0.994705
1.00011 0.997772 0.996767
1.00021 0.999741 0.994651
1.0001 0.997823 0.996941
0.999943 0.996651 0.999272
1.00008 0.998026 0.996555
0.999881 0.996887 0.999229
0.999806 0.997123 0.99919
1.0052 0.994934 0.990536
1.00518 0.994949 0.990715
1.00518 0.994951 0.990201
1.00085 0.994921 0.987302
1.00522 0.994978 0.990459
1.00426 0.995337 0.992673
1.00497 0.996286 0.991108
0.996883 0.994897 0.971097
1.00065 0.996774 0.98881
1.00005 1.00129 0.993402
1.00009 1.00119 0.993453
1.00002 1.00223 0.992493
1.00004 1.00218 0.992524
1.00519 0.994951 0.990465
1.00513 0.994902 0.990507
1.00513 0.994914 0.990242
1.00412 1.0025 0.985581
1.00418 1.00179 0.985004
1.00456 0.996852 0.989594
1.00164 1.003 0.988889
1.00071 1.0046 0.989521
1.00069 1.00415 0.989104
1.00012 1.00121 0.993407
1.00013 1.00441 0.990078
1.00007 1.00301 0.991737
1.00011 1.00114 0.993456
1.00026 1.0016 0.992658
1.0052 0.995032 0.990512
1.00013 1.00215 0.992399
1.00035 1.00175 0.992435
0.999941 1.00229 0.992432
1.00516 0.994885 0.990393
1.00495 0.995497 0.989755
1.00242 1.00232 0.988387
1.00408 0.998024 0.989413
0.999998 1.00419 0.990823
1.0002 1.00472 0.989541
1.00063 1.0038 0.989872
1.00075 1.00433 0.989356
1.00465 0.995043 0.991372
1.00511 0.99571 0.990062
1.00502 0.996155 0.989574
1.00205 0.999566 0.991609
0.999931 1.00325 0.991558
1.0002 1.0029 0.991421
0.99936 1.00467 0.991103
0.99958 1.00488 0.990156
1 0.994898 0.945669
0.99997 1.00444 0.990863
1.0011 1.00382 0.988749
1.00442 0.994959 0.992006
1.00491 0.995809 0.989955
1.00422 1.00123 0.985629
1.00319 1.00222 0.986528
0.999084 0.997209 0.986507
0.999883 1.0047 0.990633
1.00307 0.997062 0.991929
1.00141 1.00309 0.989217
1.00312 1.00133 0.987505
1.00406 0.99764 0.989033
1.00126 0.99556 0.944091
0.996826 0.995092 0.967806
0.996492 1.00241 0.989824
0.999773 0.996822 0.902159
0.994701 0.996897 0.863293
0.999694 1.00392 0.991587
0.999842 0.995053 0.908683
0.995065 0.996416 0.874619
1.00161 0.999989 0.991296
1.0008 1.00278 0.990333
1.00202 1.00067 0.989172
0.996466 1.00323 0.989673
1.00058 0.996892 0.949785
0.994922 0.996222 0.965616
0.997928 0.998751 0.90685
0.994796 0.997834 0.870091
0.999015 1.00376 0.99266
0.999522 1.00333 0.992345
0.9995 1.00287 0.993383
1.00017 1.00224 0.992232
1.00034 1.00303 0.991204
1.0001 1.00352 0.990967
1.00009 1.00356 0.991131
1.00003 1.00257 0.992139
1.0002 1.00235 0.99195
1.00012 1.00369 0.990952
1.0003 1.0035 0.990819
1.00038 1.00298 0.991147
0.999795 1.00321 0.991791
1.00002 1.00372 0.991294
0.999271 1.00361 0.991947
1.0004 1.00346 0.990665
1.00044 1.00313 0.99096
1.00038 1.00303 0.991184
1.00017 1.00291 0.991645
1.00041 1.00315 0.991029
1.00006 1.00296 0.991749
0.999864 1.0028 0.991844
0.99973 1.00391 0.99126
0.99998 1.00291 0.991885
1.00015 1.00266 0.991885
1.00017 1.00194 0.992552
1.00024 1.00278 0.991599
1.00025 1.00205 0.992279
1.00015 1.0007 0.993801
1.0002 1.00239 0.99194
1.00006 1.00081 0.99382
1.00011 0.998368 0.996734
1.00001 1.00088 0.993834
1.00011 0.998379 0.996435
1.00008 0.996843 0.997971
1.00011 0.998373 0.996153
1.00003 0.996835 0.999146
1.00007 0.996832 0.998
1.00009 1.00139 0.993232
1.00003 0.999896 0.994802
1.00008 0.999819 0.994787
1.00012 0.997744 0.996793
1.00016 0.999771 0.994708
1.00012 0.997736 0.996768
0.999983 0.996546 0.999287
1.00009 0.997824 0.997175
0.999959 0.99673 0.998759
0.999925 0.99694 0.998193
1.00055 0.995057 0.98745
1.0052 0.994984 0.990463
1.00411 0.996019 0.99227
0.996759 0.994883 0.972391
1.00054 0.996494 0.989082
1.005 0.995894 0.99095
1.00315 0.997178 0.988693
0.996645 0.996891 0.975033
1.00008 0.995673 0.950466
0.999316 0.998224 0.910344
0.994646 0.997062 0.872468
0.99993 1.00228 0.99246
1.00007 1.00127 0.9934
1.00015 1.00112 0.993446
1.00003 1.00223 0.992482
0.999833 1.00315 0.991906
1.0002 1.00259 0.99185
1.00003 1.00264 0.992185
0.999995 1.0023 0.992437
1.00521 0.994929 0.990503
1.00517 0.994889 0.9903
1.00487 0.995347 0.989781
1.0027 1.00183 0.988307
1.00375 0.997934 0.989822
1.00075 1.00432 0.989793
1.00122 1.00418 0.989256
1.00042 1.00488 0.989111
1.00023 1.00176 0.992617
1.00001 1.0042 0.990668
1.00016 1.00219 0.992496
0.999839 1.0022 0.992868
1.00468 0.994958 0.991478
0.999918 1.00329 0.991626
1.00015 1.00304 0.991565
1.00504 0.995441 0.990017
1.0048 0.995686 0.989769
1.00203 0.999584 0.991258
0.999666 1.00491 0.990609
1.00013 1.00453 0.990245
1.0034 0.996129 0.991784
1.00468 0.996244 0.990517
1.0044 0.995213 0.991205
1.00157 0.999686 0.991987
0.999985 1.00435 0.990414
0.999595 1.00432 0.991021
0.999599 1.00505 0.990669
0.999879 0.994844 0.910153
1.00054 0.994979 0.955156
0.999831 1.0048 0.990766
1.00135 1.00303 0.989229
1.00324 0.996609 0.99196
1.00431 0.998008 0.989058
1.00359 1.00092 0.987477
1.0004 0.994943 0.951654
0.997183 0.995404 0.967031
0.996487 1.00255 0.989564
0.999398 0.996991 0.91208
0.994708 0.996972 0.852447
0.999713 1.00383 0.991584
0.999852 0.99576 0.907572
0.995009 0.996469 0.869286
1.00157 1.00029 0.991346
1.00085 1.00262 0.990389
1.00225 1.00054 0.989739
0.996765 1.00314 0.990271
1.00166 0.996875 0.943264
0.994925 0.995748 0.969489
0.99854 0.999299 0.907092
0.994804 0.997553 0.868049
0.999318 1.00351 0.993019
0.995156 0.996408 0.873189
0.994796 0.997433 0.887836
0.999413 1.00195 0.993329
0.999593 1.00305 0.99259
0.995913 1.00275 0.990361
0.994851 0.998523 0.968732
0.998286 0.999115 0.940952
0.994967 0.999824 0.91282
0.994854 0.994797 0.875616
0.999493 1.00348 0.992272
0.99962 1.0025 0.993347
0.998419 1.0039 0.993315
1.00021 1.00233 0.991959
1.0004 1.00294 0.991214
1.00029 1.00348 0.990823
1.00007 1.00379 0.990912
0.99972 1.00328 0.991875
1.00042 1.00316 0.990955
1.00004 1.00361 0.991209
1.00042 1.00342 0.990687
0.999024 1.00398 0.992088
0.997422 1.00462 0.993857
1.00009 1.00369 0.991054
1.00065 1.00362 0.990193
1.00041 1.003 0.991159
1.00021 1.00284 0.991695
1.00041 1.00318 0.990994
1.00008 1.00296 0.991719
0.999901 1.00275 0.992027
0.999819 1.00349 0.991555
0.999905 1.0034 0.991358
0.999815 1.00274 0.992166
1.00028 1.00276 0.991547
1.00004 1.00482 0.989335
0.999563 1.00429 0.990973
0.99979 1.00389 0.99125
0.999834 1.00335 0.991691
1 1.00293 0.991876
1.00007 1.00201 0.992602
1.00015 1.0027 0.991882
1.00018 1.00193 0.992559
1.00022 1.00053 0.993815
1.00026 1.00206 0.992212
1.00015 1.00068 0.993811
1.00013 0.998341 0.996722
1.00006 1.00081 0.993823
1.00012 0.998338 0.99644
1.00006 0.996802 0.997988
1.00012 0.998351 0.996142
1.00003 0.996847 0.999142
1.00003 0.996839 0.999145
1.00012 1.00158 0.993235
1.00002 1.00002 0.994706
1.00008 1.00141 0.993238
1.00012 0.997751 0.996779
1.00003 0.999891 0.994805
1.00009 0.999818 0.99479
1.00012 0.997733 0.99679
1.00001 0.99649 0.999289
1.0001 0.997711 0.997247
1 0.996561 0.998797
0.999983 0.996734 0.998274
0.999853 0.995839 0.900478
0.994671 0.996397 0.873152
0.998041 0.994874 0.972453
1.00049 0.995689 0.989377
1.00504 0.995255 0.990794
0.996278 0.995937 0.97618
1.00338 0.996375 0.989037
1.00127 0.995989 0.949403
0.999824 0.997392 0.900452
0.994669 0.99695 0.861875
0.99869 0.995033 0.979735
1.00002 0.997918 0.950228
0.998246 0.999141 0.905264
0.994766 0.996425 0.87
1.00001 1.00331 0.991472
0.999936 1.00226 0.992539
1.00011 1.00122 0.993398
1.00003 1.0022 0.992471
0.999801 1.00302 0.992091
1.00005 1.00351 0.991307
1.00013 1.00278 0.991829
1.00024 1.00297 0.991363
1.00007 1.00259 0.992089
0.999944 1.00243 0.992353
1.0047 0.994909 0.991586
1.00507 0.995174 0.989986
1.00434 0.995393 0.989966
1.00186 0.999688 0.990906
1.00061 1.00424 0.990334
0.999883 1.00508 0.990114
1.00013 1.00303 0.991711
0.99985 1.00335 0.991693
1.00341 0.995573 0.99204
0.999926 1.00458 0.990297
0.999546 1.00441 0.990914
1.00485 0.995873 0.990295
1.00418 0.995343 0.991197
1.00159 0.999605 0.991844
0.999816 1.005 0.990613
1.00079 0.997347 0.992381
1.00289 0.995639 0.994184
1.00054 1.00128 0.991962
0.999553 1.00478 0.990162
0.999676 1.00503 0.990114
0.999382 1.00511 0.990749
0.994748 0.996382 0.889192
0.999862 0.994867 0.91329
1.00001 0.994902 0.945876
0.999556 1.00394 0.99158
1.00093 1.00247 0.990443
1.00149 1.00041 0.991397
1.00248 1.00049 0.990301
0.999831 0.995289 0.914816
1.00022 0.996614 0.943352
0.994899 0.995248 0.965755
0.997009 1.00215 0.990832
0.998121 0.99895 0.896694
0.994986 0.996473 0.871251
0.99478 0.997189 0.874417
0.999057 1.00341 0.992997
0.99507 0.995608 0.87967
0.994892 0.997561 0.88745
0.99957 1.00165 0.993379
0.999389 1.00307 0.992596
0.995824 0.99987 0.993202
0.994875 0.99795 0.967777
0.997435 0.999371 0.950455
0.997205 0.999905 0.901832
0.994822 0.994794 0.882199
0.997588 1.00399 0.995265
0.994826 0.996308 0.897736
0.99479 0.994753 0.894625
0.995781 1.00213 0.999467
0.994826 0.999792 0.975304
0.995027 0.999973 0.951154
0.994838 0.999645 0.898763
0.99486 0.994801 0.880005
0.999728 1.00215 0.993309
0.998682 1.00375 0.993573
0.997011 1.0049 0.995068
1.00039 1.00321 0.99095
1.00046 1.00339 0.99071
1.00009 1.00345 0.991124
0.998786 1.00431 0.992235
1.00055 1.00373 0.990176
1.00006 1.00377 0.991004
0.997553 1.0046 0.994252
0.995449 1.00525 0.996837
0.998164 1.00459 0.993633
1.00035 1.00387 0.990464
1.00043 1.0032 0.990958
1.00009 1.00298 0.991689
0.999881 1.00275 0.992207
0.999915 1.00333 0.991475
0.999853 1.00348 0.991564
0.999807 1.00286 0.992203
1.00007 1.00299 0.991827
0.998818 1.0031 0.993369
1.00134 1.00016 0.991903
1.00032 1.0026 0.991675
1.00037 1.00375 0.99017
1.00172 1.0047 0.987167
0.999857 1.00486 0.990509
0.999899 1.00486 0.989746
0.999684 1.00423 0.991033
0.999672 1.00376 0.99136
0.999854 1.00387 0.99124
0.999923 1.00326 0.99169
1.00001 1.00233 0.992413
1.00009 1.00287 0.991867
1.00012 1.00199 0.992596
1.00024 1.00051 0.993813
1.00021 1.0019 0.992567
1.00023 1.00055 0.993821
1.00014 0.998312 0.996724
1.00015 1.00067 0.993821
1.00014 0.998318 0.996429
1.00003 0.996881 0.997973
1.00014 0.998312 0.996145
1.00004 0.996825 0.998566
1.00002 0.996836 0.999145
1.00014 1.00199 0.992584
1.00007 1.00013 0.994529
1.00008 1.00162 0.99306
1.00012 0.997807 0.996716
1.00002 1 0.994708
1.00006 1.00146 0.993241
1.00003 0.996472 0.999284
1.00012 0.997747 0.99678
1.00004 0.999876 0.994807
1.00012 0.997723 0.996787
1.00001 0.996505 0.999289
0.999982 0.99655 0.999286
0.994697 0.994852 0.880004
0.999875 0.995579 0.906664
0.994826 0.997756 0.887294
0.99468 0.996446 0.870609
0.996084 0.995501 0.973556
1.00344 0.996255 0.989416
1.00018 0.996338 0.947718
0.999813 0.997403 0.911024
0.994704 0.997023 0.851077
0.998408 0.995646 0.978851
1.00135 0.997679 0.939687
0.998427 0.999443 0.906031
0.994788 0.99713 0.864613
0.99572 0.99609 0.97395
0.997771 0.998944 0.941607
0.99561 0.999888 0.896981
0.994839 0.99479 0.870242
1.00004 1.00413 0.990778
0.99998 1.00321 0.991603
0.999916 1.0023 0.992615
0.999766 1.0029 0.992276
1.00039 1.00371 0.990359
1.00005 1.00331 0.991427
1 1.00293 0.991807
1.00041 1.003 0.991218
1.00025 1.003 0.991447
1.00009 1.00254 0.991993
1.00356 0.994949 0.99228
1.00488 0.995285 0.990085
1.00438 0.995252 0.991184
1.00171 0.999327 0.991714
1.00004 1.00489 0.990559
0.99965 1.00455 0.990808
0.999825 1.00474 0.99018
0.999932 1.00489 0.989991
1.00086 0.996893 0.992695
0.999874 1.00496 0.990031
0.999678 1.00511 0.990722
1.00308 0.995413 0.99394
1.00108 1.00105 0.991772
0.998535 0.996609 0.994211
0.998277 0.998239 1.0002
0.998633 1.00378 0.99242
0.999967 1.00486 0.989939
0.999347 1.00505 0.990812
0.994835 0.996248 0.902591
0.994747 0.996355 0.88674
0.999853 0.994853 0.903463
0.998825 1.00331 0.992976
0.99927 1.00303 0.992586
0.999781 1.00142 0.993444
0.994984 0.994874 0.880221
0.997527 0.998885 0.942178
0.994867 0.997337 0.967996
0.996046 0.998449 0.996261
0.995438 0.999887 0.913089
0.995026 0.997791 0.887119
0.994837 0.994805 0.882509
0.997536 1.00396 0.995462
0.994897 0.995596 0.900623
0.99477 0.994755 0.894699
0.995999 1.0023 0.998485
0.994855 0.999506 0.976806
0.996123 0.999885 0.942203
0.994853 0.994809 0.880073
0.994845 0.999962 0.90589
0.995638 1.00497 0.998172
0.994688 0.994788 0.912934
0.994786 0.994776 0.897764
0.994833 0.994787 0.870853
0.995082 1.00039 0.99293
0.994974 0.999783 0.954489
0.994958 0.999912 0.905542
0.999036 1.00352 0.993827
0.997562 1.00491 0.99424
0.995316 1.0052 0.998253
1.00052 1.00376 0.990158
1.00001 1.00382 0.990954
0.997586 1.00461 0.994636
1.00023 1.00383 0.990527
0.99816 1.00444 0.993686
0.995741 1.00524 0.996704
0.995351 1.00514 0.998172
0.998126 1.00412 0.993617
0.999913 1.00326 0.991593
0.999881 1.00347 0.991572
0.999834 1.00295 0.992243
0.999016 1.00331 0.993224
0.999993 1.00292 0.991815
0.999772 1.00225 0.992983
1.00058 1.00063 0.992884
1.00135 1.00208 0.98967
1.00038 1.00243 0.991807
1.00081 1.00365 0.989889
1.00238 1.00353 0.986741
1.00233 1.00393 0.986645
1.00028 1.00491 0.989527
1.0014 1.00466 0.98725
0.999864 1.00446 0.99065
0.99977 1.00493 0.990446
0.999735 1.00488 0.990156
0.999801 1.00417 0.991094
0.999731 1.00365 0.991458
0.999983 1.00265 0.992124
0.999996 1.00317 0.99169
1.00006 1.00228 0.992416
1.0002 1.0007 0.99369
1.00016 1.00197 0.992591
1.00025 1.00051 0.993809
1.00012 0.998306 0.996749
1.00023 1.00054 0.993827
1.00015 0.998289 0.996437
0.99999 0.996955 0.997987
1.00016 0.998269 0.99614
1.00001 0.996888 0.998558
1.00001 0.996862 0.999145
1.00028 1.00217 0.991993
1.00011 1.00042 0.993936
1.00016 1.00198 0.992584
1.00014 0.997903 0.996583
1.00006 1.00015 0.994389
1.00008 1.00161 0.992887
1.00003 0.996524 0.999266
1.00012 0.997798 0.996721
1.00002 0.999983 0.99471
1.00003 0.996481 0.999285
1.00011 0.997743 0.996781
1.00001 0.996506 0.99929
0.994806 0.994819 0.898437
0.994704 0.995547 0.885753
0.999857 0.995827 0.907596
1.00052 1.00313 0.990778
0.994776 0.995779 0.899889
0.994815 0.996908 0.887086
0.994717 0.996428 0.875376
0.99853 0.995903 0.97752
0.999575 0.99834 0.949637
0.998154 0.998847 0.895061
0.994772 0.997382 0.867986
0.996552 0.995642 0.970117
0.997433 0.998962 0.950094
0.997015 0.999899 0.901022
0.994826 0.995274 0.872804
0.994863 0.996633 0.966221
0.995326 0.999929 0.9496
0.99488 0.999975 0.90635
0.994873 0.994817 0.879748
1.00017 1.00446 0.989989
1.00002 1.00419 0.99062
1 1.00313 0.991734
1.00033 1.00385 0.990368
1.00029 1.00382 0.990529
1.00007 1.00324 0.991547
1.00045 1.00296 0.991249
1.00026 1.00301 0.99153
1.00059 0.99689 0.992948
1.00324 0.995432 0.993658
1.00004 1.00498 0.98982
1.00164 1.00093 0.991567
0.999965 1.00511 0.990694
0.999999 1.00499 0.989946
0.999922 1.00488 0.989958
0.997807 0.997169 0.994802
0.9996 1.00492 0.990888
0.999381 1.00358 0.992473
0.998473 0.997642 1.00021
0.999966 1.00489 0.990051
0.996031 0.998609 0.994456
0.99528 1.00032 1.00303
0.998057 1.0052 0.992656
0.99969 1.00477 0.99095
0.994688 0.994775 0.91797
0.994827 0.996337 0.902567
0.99474 0.996387 0.884278
0.99743 1.004 0.995684
0.995925 1.00203 0.99749
0.994925 0.994826 0.903436
0.995132 0.999989 0.951415
0.994869 0.998985 0.973891
0.994846 0.999951 0.905309
0.994773 0.994762 0.894747
0.994832 0.994836 0.880138
0.995894 1.00489 0.997761
0.994717 0.994785 0.912759
0.994776 0.994774 0.901595
0.994941 1.00116 0.99625
0.994819 0.995408 0.873176
0.994903 0.999077 0.949037
0.994949 0.999903 0.910236
0.995065 1.00427 0.998657
0.994739 0.994776 0.916986
0.994746 0.995983 0.900294
0.994769 0.99653 0.870282
0.995853 0.999981 0.905796
0.994912 0.999551 0.983039
0.994984 1.0005 0.941737
0.998136 1.00493 0.993411
0.995559 1.00512 0.997793
0.994963 1.00507 0.999662
1.00008 1.00382 0.990592
0.998128 1.00436 0.99374
0.996145 1.00483 0.996578
0.998348 1.00414 0.99351
0.995482 1.00445 0.998101
0.997618 1.00335 0.996174
0.99925 1.00343 0.993076
0.999832 1.00292 0.991805
0.999847 1.0024 0.993109
0.999493 1.00374 0.991149
0.999813 1.00106 0.99385
1.00117 1.00195 0.990192
1.00272 1.00291 0.986885
1.00431 1.00214 0.984845
1.00125 1.00356 0.989603
1.00282 1.00366 0.985915
1.00325 1.00314 0.986628
1.00098 1.00442 0.988212
1.00227 1.00388 0.986837
0.999886 1.00489 0.989934
1.00032 1.00491 0.989481
1.00108 1.00464 0.987336
0.999979 1.00317 0.99158
0.99979 1.00445 0.990704
0.999696 1.00498 0.990381
0.999798 1.00354 0.991556
1.00003 1.00261 0.992123
1.00018 1.00101 0.993415
1.0001 1.00224 0.99242
1.00021 1.0007 0.993685
1.00007 0.998438 0.996158
1.00026 1.00054 0.993804
1.00014 0.998299 0.996175
0.999869 0.99702 0.999155
1.00016 0.998269 0.996146
0.999968 0.996962 0.99856
0.999979 0.996918 0.999141
1.0003 1.0024 0.991673
1.00021 1.00073 0.993473
1.00025 1.00221 0.99209
1.00015 0.99807 0.996397
1.00013 1.00043 0.99388
1.00015 1.002 0.992582
1.00003 0.996598 0.999234
1.00014 0.997895 0.996594
1.00006 1.00017 0.994251
1.00004 0.996501 0.999272
1.00012 0.997786 0.996726
1.00003 0.996492 0.999287
0.994721 0.994773 0.913826
0.994805 0.995523 0.898273
0.994704 0.996209 0.885958
1.00045 1.00316 0.990866
1.00043 1.00331 0.990611
1.00049 1.0036 0.990489
0.994803 0.994765 0.897264
0.994781 0.995451 0.899929
0.994803 0.996515 0.886869
0.996379 0.995013 0.972455
0.998361 0.999366 0.940361
0.995213 0.999912 0.912578
0.994844 0.996139 0.869083
0.994905 0.996553 0.969502
0.996044 0.999962 0.946364
0.994821 0.999873 0.906163
0.994857 0.99482 0.879695
0.99489 0.996792 0.965502
0.9949 0.999777 0.951278
0.994962 0.999979 0.905808
0.994845 0.994824 0.875492
1.00034 1.00425 0.989907
1.0002 1.00448 0.989883
1.00014 1.00412 0.990462
1.00044 1.00369 0.990341
1.00016 1.00385 0.990701
1.00047 1.00295 0.991279
0.997193 0.997633 0.995388
0.998216 0.99731 1.00026
1 1.00471 0.989977
1.00003 1.00305 0.992535
0.999688 1.00487 0.990965
0.999957 1.00476 0.990007
0.999333 1.00478 0.991075
0.995773 0.998443 0.994763
0.998091 1.00508 0.993343
0.995411 1.00093 1.00199
0.999639 1.0043 0.991108
0.99495 0.99835 0.994264
0.996066 1.00201 0.998537
0.998323 1.00516 0.993375
0.994718 0.994743 0.922426
0.994695 0.994768 0.919136
0.994811 0.996375 0.902531
0.996146 1.00484 0.997333
0.994957 1.00117 0.993231
0.994713 0.994782 0.912588
0.994858 0.99921 0.951105
0.99495 0.999899 0.899822
0.994769 0.994734 0.905417
0.994853 0.996358 0.869583
0.995152 1.004 0.999106
0.994728 0.994782 0.918539
0.994776 0.995535 0.900345
0.994948 0.999617 0.979514
0.994792 0.99733 0.864979
0.99481 0.999957 0.905348
0.994931 1.00014 0.951838
0.995125 1.00485 0.995233
0.994724 0.994766 0.914191
0.994889 0.998047 0.88769
0.994616 0.997197 0.87311
0.995962 0.999212 0.896867
0.995943 0.999946 0.949711
0.995002 1.00033 0.973573
0.995939 1.00512 0.997344
0.99523 1.00416 0.999598
0.996497 1.00352 0.99829
0.998505 1.00427 0.993405
0.995636 1.00411 0.99805
0.996629 1.00404 0.996646
0.999726 1.00219 0.993686
0.999931 1.00265 0.993233
1.00076 1.00337 0.990714
1.00178 1.0044 0.987263
1.00099 1.00186 0.990732
1.00293 1.00303 0.986566
1.00404 1.00386 0.983638
1.00496 1.00157 0.984224
1.00398 1.00207 0.985439
1.00429 1.00236 0.984646
1.00328 1.00377 0.985089
1.00275 1.00323 0.9872
1.00297 1.00298 0.986843
1.00043 1.00474 0.988757
1.00112 1.00439 0.988375
1.00223 1.00384 0.98703
0.999932 1.00432 0.990439
1.00004 1.00485 0.989944
1.00034 1.00493 0.989434
1.00016 1.00145 0.993004
1.00006 1.00314 0.991565
0.999716 1.00444 0.990759
1.00008 1.00258 0.992121
1.0002 1.00102 0.99341
0.999988 0.998672 0.996065
1.00022 1.00071 0.99368
1.00008 0.99844 0.996151
0.999808 0.997178 0.999146
1.00014 0.998292 0.996171
0.999903 0.99705 0.998572
0.999931 0.997 0.999143
1.00035 1.00266 0.991523
1.00029 1.00096 0.993294
1.00034 1.00239 0.991734
1.00017 0.998257 0.99617
1.0002 1.00073 0.993557
1.00027 1.00221 0.992188
1.00002 0.996732 0.999192
1.00015 0.998045 0.996412
1.00015 1.00043 0.993823
1.00003 0.996588 0.999244
1.00013 0.997889 0.996605
1.00004 0.996497 0.999278
0.994735 0.99479 0.916645
0.994722 0.994796 0.913655
0.994803 0.996252 0.898216
1.00031 1.00367 0.990455
1.00051 1.0038 0.990208
1.0004 1.00321 0.990955
1.0004 1.00341 0.990589
1.00035 1.00372 0.990456
1.00029 1.00394 0.990318
1.00038 1.00385 0.990225
0.99479 0.994726 0.894192
0.994801 0.994768 0.901153
0.994786 0.994751 0.899984
0.994841 0.994814 0.879666
0.994902 0.996339 0.96673
0.995198 0.999965 0.943578
0.994858 0.999762 0.912977
0.994883 0.997265 0.964651
0.994884 0.999946 0.942784
0.994948 0.999937 0.910767
0.994816 0.994797 0.882104
0.995036 0.996295 0.968586
0.994913 1.00023 0.942563
0.994794 0.999856 0.899397
0.994795 0.998051 0.869281
0.999635 1.005 0.990514
1.00023 1.00438 0.989944
1.00024 1.00469 0.989777
1.00056 1.00353 0.990315
0.995628 0.998187 0.995185
0.995581 1.00215 1.00094
0.999941 1.00488 0.989964
0.999274 1.00481 0.991201
0.998479 1.00514 0.994023
0.999601 1.0045 0.99106
0.998014 1.00516 0.993376
0.994866 0.999696 0.991396
0.995497 1.00331 0.998803
0.9977 1.00493 0.993969
0.995104 0.998528 0.990068
0.997352 1.00413 0.997358
0.994686 0.994792 0.918075
0.994708 0.994724 0.925278
0.994713 0.994755 0.920299
0.995017 1.00369 0.999509
0.99494 0.998382 0.983709
0.994726 0.994804 0.920127
0.995988 1.00024 0.942378
0.994845 0.999888 0.912123
0.994806 0.994777 0.900411
0.994772 0.9977 0.868438
0.994974 1.00359 0.995891
0.994723 0.994793 0.914036
0.994895 0.997102 0.887481
0.994921 1.00055 0.974522
0.994653 0.997051 0.862752
0.997045 0.999905 0.90063
0.994891 0.99988 0.942062
0.995397 1.00482 0.990011
0.994804 0.994839 0.899107
0.994668 0.996474 0.87388
0.998641 0.998145 0.905921
0.995227 0.999974 0.94954
0.994887 1.00001 0.967382
0.995312 1.00328 0.999742
0.995861 1.0041 0.998227
0.997264 1.00159 0.997135
0.995745 1.00461 0.997118
0.998538 1.00246 0.994225
1.00294 1.00054 0.990097
1.00205 1.0029 0.990277
1.00219 1.00423 0.987171
1.00299 1.00442 0.984422
1.00314 1.00314 0.986248
1.00442 1.00387 0.983183
1.0044 1.00409 0.982671
1.005 1.00101 0.984798
1.00507 1.00118 0.984564
1.00487 1.00172 0.984205
1.00376 1.00189 0.985871
1.004 1.00198 0.985613
1.00422 1.00259 0.984447
1.00211 1.00424 0.987039
1.0026 1.0032 0.987168
1.00266 1.00282 0.987055
1.00029 1.00503 0.989075
1.00047 1.00477 0.988987
1.00128 1.00434 0.98854
1.00007 1.00233 0.992225
1.0001 1.00415 0.990455
1.00019 1.00482 0.989954
0.999901 0.998925 0.995946
1.00019 1.00145 0.992987
1.00014 1.0031 0.991551
1.00021 1.00101 0.993404
0.999986 0.99869 0.996053
0.999721 0.997388 0.999128
1.00008 0.998434 0.996144
0.9998 0.997216 0.999142
0.999869 0.997078 0.999149
1.00035 1.00373 0.990445
1.00044 1.00289 0.991195
1.00034 1.00129 0.992892
1.00037 1.00266 0.991511
1.00016 0.998509 0.995925
1.00028 1.00098 0.993294
1.0003 1.00245 0.991795
0.999998 0.996886 0.999139
1.00016 0.998254 0.996185
1.0002 1.00073 0.993639
1.00002 0.996697 0.999205
1.00015 0.99803 0.996426
1.00003 0.996557 0.999254
0.994677 0.994785 0.912618
0.994722 0.994788 0.918234
0.994723 0.994814 0.913464
1.0004 1.00361 0.990488
1.00039 1.00387 0.990213
1.00024 1.00363 0.990397
1.00018 1.00409 0.990165
1.00042 1.00432 0.990074
1.00039 1.00348 0.990565
1.00028 1.00383 0.990423
1.00035 1.00389 0.990319
1.00037 1.004 0.990289
1.0001 1.00454 0.990258
0.994883 0.997762 0.88682
0.994754 0.994758 0.894316
0.99479 0.994759 0.905022
0.994821 0.994788 0.882414
0.994954 0.999972 0.90008
0.994867 0.998409 0.963153
0.994887 0.99998 0.951053
0.994966 0.996686 0.965394
0.994924 0.999747 0.951522
0.994849 0.999976 0.907023
0.994834 0.997799 0.867035
0.995026 0.994962 0.97024
0.994926 1.00001 0.951596
0.995498 0.999885 0.911736
0.994724 0.997053 0.871658
0.998809 1.00376 0.992744
0.999776 1.00488 0.990453
1.00023 1.00438 0.989982
0.994893 1.00044 0.988373
0.995337 1.00399 0.999073
0.999569 1.00453 0.991012
0.997333 1.00519 0.993378
0.997833 1.0046 0.993987
0.996477 1.00364 0.997408
0.994967 0.998775 0.99019
0.996132 1.00203 0.998495
0.996007 0.999886 0.990818
0.994885 0.995952 0.902168
0.994695 0.994784 0.919212
0.994692 0.994708 0.928134
0.995019 1.00239 0.996191
0.994895 1.001 0.971051
0.994725 0.994806 0.913857
0.996004 0.999976 0.948753
0.995097 0.999914 0.912156
0.994817 0.996634 0.887279
0.994708 0.997081 0.852184
0.995349 1.00508 0.990488
0.9948 0.995309 0.898962
0.994682 0.996555 0.871351
0.994894 0.999994 0.968397
0.998463 0.999267 0.906656
0.996036 0.999944 0.945142
0.994881 1.0042 0.987634
0.994696 0.994861 0.880894
0.999665 0.997801 0.91138
0.997697 0.998804 0.941431
0.994865 0.997235 0.970256
0.995387 1.00493 0.998157
0.99741 1.00212 0.997024
1.0019 1.00156 0.991597
0.997378 1.00283 0.994687
1.00184 1.00075 0.990371
1.00395 0.999598 0.988072
1.00256 1.00404 0.987078
1.00309 1.00424 0.984478
1.00443 1.00163 0.984779
1.00479 1.00386 0.98273
1.00445 1.0037 0.982758
1.00482 1.00086 0.985109
1.00516 0.999139 0.986228
1.0051 1.00064 0.984878
1.00494 1.00092 0.984883
1.00507 1.00142 0.984495
1.00504 1.00123 0.984547
1.0048 1.00185 0.984186
1.00339 1.00305 0.985882
1.00369 1.00194 0.98605
1.00404 1.00192 0.985789
1.00134 1.00436 0.987929
1.0019 1.00422 0.987197
1.00246 1.0032 0.987135
1.00001 1.00381 0.990776
1.00045 1.00491 0.989094
1.00053 1.00481 0.989215
0.999814 0.999419 0.996221
1.00014 1.00233 0.992188
1.00027 1.00398 0.990472
0.999649 0.997634 0.997883
0.999896 0.999009 0.996197
1.00021 1.00145 0.992971
0.999982 0.998717 0.99604
0.999717 0.997431 0.999119
0.999791 0.997247 0.999137
1.00026 1.004 0.990303
1.00043 1.0032 0.990893
1.00028 1.00383 0.990412
1.00035 1.00162 0.992531
1.00037 1.00298 0.991187
1.00013 0.998805 0.99568
1.00033 1.00129 0.992894
1.00041 1.00262 0.991499
0.999967 0.997088 0.999083
1.00016 0.998492 0.995941
1.00027 1.00099 0.993294
0.999999 0.996869 0.999155
1.00015 0.998243 0.996201
1.00002 0.996678 0.999218
0.995151 0.994838 0.903814
0.99471 0.994782 0.912465
0.994718 0.994794 0.919843
1.00056 1.00312 0.990581
1.00038 1.00367 0.990521
1.00028 1.00393 0.990217
1.0003 1.00413 0.990168
1.00047 1.00354 0.990446
1.00035 1.00406 0.990293
1.00067 1.00414 0.989523
0.999802 1.00467 0.990018
1.00043 1.00377 0.99032
1.00006 1.00416 0.990352
0.999959 1.00454 0.990239
0.999435 1.00483 0.991572
0.995226 0.996691 0.873474
0.995155 0.997772 0.886434
0.994757 0.99479 0.894414
0.994864 0.99743 0.873563
0.994846 0.999958 0.906834
0.99494 1.00016 0.942613
0.995078 0.996714 0.963774
0.99498 0.994993 0.971811
0.994711 0.997189 0.86153
0.994898 0.999839 0.946711
0.99703 0.999911 0.900991
0.994874 0.99626 0.972373
0.995323 0.999966 0.951738
0.999186 0.99844 0.902637
0.999146 1.00167 0.994977
0.998963 1.00388 0.992698
0.999675 1.00482 0.990392
0.994858 0.999139 0.990427
0.995755 1.00317 0.997451
0.997834 1.00433 0.994004
0.997341 1.00186 0.998335
0.995519 0.999698 0.990924
0.99697 0.998854 0.993754
0.994753 0.997536 0.883172
0.994868 0.995473 0.905774
0.994717 0.994765 0.920348
0.995106 1.00511 0.990777
0.994863 0.999992 0.968514
0.994792 0.995905 0.898912
0.995129 0.999971 0.942873
0.99848 0.998016 0.895965
0.994806 0.996505 0.876274
0.99524 1.00453 0.987581
0.9947 0.995383 0.88661
0.999819 0.996581 0.901789
0.994918 0.997223 0.966273
0.997454 0.999 0.949809
0.996919 1.00168 0.99144
0.999836 0.995662 0.90129
1.00003 0.99783 0.950142
0.994885 0.995589 0.965708
0.997467 1.00251 0.997019
1.00131 1.00053 0.99197
1.00332 1.0006 0.989124
1.00073 1.00102 0.990651
1.00334 1.00014 0.988062
1.00459 0.99834 0.987826
1.00317 1.00406 0.984533
1.00428 1.00166 0.984749
1.005 0.997919 0.987263
1.0045 1.00333 0.982845
1.00477 1.00067 0.985154
1.00508 0.997478 0.987878
1.00514 0.997451 0.987975
1.00519 0.999448 0.985905
1.00515 0.99901 0.986356
1.00512 1.00084 0.984749
1.00508 1.00064 0.984941
1.00489 1.00083 0.984969
1.00472 1.00136 0.985159
1.00489 1.00139 0.984652
1.005 1.00124 0.984528
1.00266 1.00346 0.986675
1.00342 1.00295 0.985874
1.00364 1.00195 0.986229
1.00056 1.0045 0.98926
1.00143 1.00443 0.987905
1.00167 1.00417 0.987357
0.999736 1.00025 0.99483
1.0002 1.00364 0.990772
1.00064 1.0048 0.989113
0.999557 0.997889 0.999058
0.999797 0.999514 0.995554
1.00021 1.00231 0.992152
0.99965 0.997628 0.999094
0.999872 0.999074 0.995882
0.999714 0.997479 0.999111
1.00069 1.00358 0.9901
1.00031 1.00401 0.99026
1.00043 1.00356 0.990551
1.00032 1.00199 0.992223
1.00038 1.00326 0.990888
1.00027 1.00384 0.99038
1.0001 0.999099 0.995444
1.00034 1.00164 0.992533
1.00033 1.00304 0.991179
0.999926 0.997309 0.999022
1.00014 0.998773 0.995694
1.00032 1.0013 0.992896
0.999969 0.997049 0.9991
1.00016 0.998477 0.995956
1 0.996823 0.999171
0.995262 0.99614 0.873616
0.995086 0.994834 0.903704
0.994708 0.994778 0.912314
1.00042 1.00337 0.990527
1.00131 1.00302 0.990232
1.00055 1.00364 0.990174
1.00034 1.00421 0.990171
1.0007 1.00343 0.990495
1.00013 1.00391 0.990512
1 1.0047 0.989979
1.00054 1.00417 0.989629
1.00038 1.00475 0.989415
0.999926 1.00075 0.993666
1.00014 1.0045 0.99022
0.999519 1.00465 0.991235
0.999802 0.997369 0.896992
0.995088 0.996667 0.868119
0.995351 0.997921 0.886117
0.994708 0.997399 0.851143
0.996675 0.999037 0.911797
0.994863 0.999967 0.944653
0.994901 0.995038 0.969588
0.994924 0.996246 0.971055
0.998464 0.999467 0.905331
0.996063 0.999964 0.94327
0.994891 0.997567 0.972329
0.998642 0.998931 0.941506
1.00195 0.997916 0.994076
0.999146 1.00175 0.994806
0.999116 1.0041 0.992665
0.99502 0.999587 0.990983
0.998349 1.00172 0.998165
0.997611 0.998921 0.993245
0.999119 0.998529 0.990598
0.999884 0.994849 0.909804
0.9948 0.996741 0.883389
0.99479 0.994857 0.909287
0.995644 1.00495 0.987697
0.994891 0.997167 0.964243
0.994705 0.995779 0.886756
0.998774 0.998692 0.940365
0.999811 0.997092 0.912226
0.996679 1.0007 0.989319
0.999873 0.995363 0.907543
1.00148 0.997285 0.940025
0.994913 0.995642 0.969212
0.998493 0.996731 0.99184
1.00003 0.995904 0.950856
0.996338 0.995859 0.971494
1.0007 0.999335 0.992289
1.00314 0.999502 0.989085
1.00485 0.997659 0.989197
1.0027 1.00059 0.988057
1.00432 0.998505 0.987822
1.00488 0.996496 0.989018
1.00423 1.00168 0.984719
1.00493 0.998206 0.987185
1.00509 0.995796 0.989372
1.00473 1.00049 0.985199
1.00508 0.997479 0.98787
1.00512 0.995906 0.989505
1.00512 0.996537 0.989175
1.00516 0.997273 0.988185
1.00516 0.998165 0.987443
1.00517 0.999892 0.985702
1.00519 0.999504 0.985944
1.00515 0.998881 0.986484
1.00513 1.00065 0.985041
1.00511 1.00083 0.984745
1.00507 1.00062 0.985004
1.00395 1.00218 0.985735
1.0046 1.00149 0.98515
1.0047 1.00142 0.98481
1.00145 1.00395 0.988257
1.00271 1.00346 0.986665
1.00339 1.0029 0.985865
0.999903 1.00115 0.993613
1.00069 1.00427 0.989271
1.00157 1.00442 0.987881
0.9996 0.998207 0.998909
0.999759 1.00035 0.994777
1.00036 1.00351 0.990769
0.999598 0.997916 0.998398
0.999785 0.999604 0.995532
0.999662 0.997693 0.999073
1.00095 1.00296 0.990248
1.00045 1.00372 0.990186
1.00036 1.00392 0.990192
1.00039 1.004 0.990218
1.00035 1.00363 0.990549
1.00029 1.00237 0.991889
1.00004 0.999408 0.995245
1.00031 1.00198 0.992226
1.00029 1.00335 0.990883
0.999875 0.99753 0.99896
1.0001 0.99908 0.995455
1.00032 1.00165 0.992535
0.999928 0.997267 0.999041
1.00014 0.998748 0.995707
0.999972 0.997026 0.999117
0.999832 0.995132 0.908365
0.995218 0.99618 0.876374
0.995123 0.994831 0.903577
1.0003 1.0036 0.990472
1.00051 1.00409 0.989711
1.00097 1.003 0.990509
1.00237 1.00358 0.987359
1.00047 1.0041 0.990025
1.00014 1.00469 0.989942
1.00049 1.00417 0.989736
1.00016 1.00467 0.989679
1.00075 1.00348 0.988881
1.0012 0.999748 0.993036
1.00418 0.997401 0.989843
1.00012 1.00061 0.993749
0.999916 1.00396 0.990894
0.998788 0.997486 0.950029
0.999777 0.997886 0.901508
0.995014 0.996597 0.869986
0.999077 0.999736 0.894033
0.995682 0.999955 0.949182
0.994867 0.99617 0.972295
0.994866 0.997568 0.974154
0.997421 0.998744 0.951627
0.9959 0.997696 0.973423
1.00258 0.996073 0.994009
1.00126 0.998578 0.994167
0.999181 1.00185 0.994628
0.998379 0.998751 0.992819
0.999808 0.998558 0.989909
0.999989 0.9949 0.945789
0.999873 0.994877 0.913409
0.994876 0.996095 0.883715
0.996319 1.00002 0.987124
0.994966 0.995411 0.965984
0.999854 0.995668 0.90843
1.00036 0.997952 0.949243
0.997678 0.997833 0.992192
1.00127 0.995949 0.949348
0.996686 0.995244 0.968444
1.00138 0.996201 0.990755
0.999148 0.99572 0.977372
1.00299 0.998601 0.989107
1.00478 0.996786 0.989135
1.00497 0.995881 0.99026
1.00407 0.998683 0.987817
1.00473 0.996665 0.988947
1.00514 0.995103 0.990073
1.0048 0.998495 0.987108
1.00509 0.995884 0.989333
1.00506 0.995016 0.990368
1.00508 0.997483 0.987862
1.00512 0.995928 0.989463
1.00514 0.995554 0.990047
1.00512 0.996295 0.989324
1.00512 0.997154 0.988563
1.00517 0.997092 0.988396
1.00516 0.998175 0.987418
1.00519 0.999004 0.986587
1.00517 1.00021 0.985442
1.00517 0.999936 0.985679
1.00519 0.999558 0.985984
1.00474 1.00082 0.985585
1.00509 1.0007 0.985022
1.00511 1.00082 0.984741
1.00248 1.00281 0.987561
1.00389 1.00222 0.985743
1.00454 1.00159 0.985143
1.00029 1.00163 0.992455
1.00152 1.00386 0.988243
1.00267 1.00353 0.986655
0.999711 0.998745 0.998619
0.999975 1.00116 0.993584
1.00086 1.00406 0.98928
0.999662 0.998317 0.99882
0.999796 1.00043 0.994722
0.999659 0.997951 0.998972
1.00233 1.00355 0.987334
1.001 1.00285 0.990222
1.00049 1.00386 0.989864
1.00023 1.0038 0.990273
1.0003 1.00396 0.990159
1.0003 1.00283 0.991413
1.00028 1.00368 0.990547
1.00027 1.00237 0.991896
0.999959 0.999739 0.995061
0.999807 0.997774 0.998908
1.00004 0.999383 0.995255
1.0003 1.00197 0.99223
0.999878 0.997507 0.99898
1.00009 0.999067 0.995465
0.999932 0.997223 0.99906
1.00008 0.995326 0.953797
0.999844 0.995059 0.907562
0.995095 0.996224 0.872957
1.00048 1.00461 0.989249
1.00069 1.00291 0.990787
1.00067 1.004 0.989944
1.0022 1.0036 0.987534
1.004 1.00254 0.985097
1.00105 1.00359 0.988835
0.999921 1.00472 0.989941
1.00149 1.00349 0.988127
1.00087 0.999978 0.993121
1.00286 1.00008 0.988955
1.00474 0.996246 0.99088
1.00419 0.996574 0.990594
1.00373 0.997216 0.990519
0.999861 1.00084 0.993836
0.995991 0.996097 0.972827
1.00015 0.997213 0.947313
0.998115 0.997624 0.911644
0.997839 0.999416 0.941443
0.994866 0.997952 0.974936
0.995909 0.997807 0.978134
0.999757 0.997926 0.992203
1.00287 0.995748 0.993941
1.00086 0.99907 0.994259
1.00131 0.998607 0.989186
0.996514 0.997523 0.973545
1.00027 0.995049 0.955173
0.999855 0.994861 0.903422
0.996933 0.998697 0.992404
0.996824 0.994873 0.970493
1.00012 0.996659 0.947593
1.00088 0.996224 0.990881
0.99854 0.995761 0.976719
1.00367 0.995597 0.991061
1.0028 0.998256 0.987558
1.00471 0.995959 0.989043
1.00485 0.995705 0.990264
1.00514 0.994861 0.990611
1.00461 0.996823 0.988877
1.00515 0.995084 0.990027
1.00509 0.994941 0.990539
1.00509 0.99596 0.989293
1.00506 0.995119 0.990338
1.00514 0.995111 0.990417
1.00512 0.995957 0.989419
1.00513 0.995533 0.989968
1.00512 0.996239 0.989309
1.00512 0.996061 0.989471
1.00513 0.997008 0.988716
1.00518 0.998328 0.987362
1.00516 0.998186 0.987394
1.00519 0.999066 0.986559
1.00521 0.999702 0.986017
1.00496 1.00021 0.985691
1.00517 1.00025 0.985422
1.00517 0.999982 0.985656
1.00346 1.00141 0.987281
1.00472 1.00087 0.985587
1.00505 1.00075 0.985003
1.00068 1.00179 0.991609
1.00247 1.00286 0.987567
1.00385 1.00225 0.985749
0.9999 0.999303 0.998244
1.00039 1.00158 0.992444
1.00159 1.00377 0.988228
0.999809 0.998865 0.99848
1.00003 1.00119 0.993556
0.999743 0.998406 0.998709
1.00387 1.00284 0.98533
1.0024 1.00353 0.987363
1.00147 1.00403 0.988078
1.00097 1.00283 0.990195
1.00058 1.00381 0.989752
1.00054 1.00315 0.990729
1.00025 1.00401 0.990126
1.00028 1.00284 0.991417
0.999879 1.00015 0.994795
1.00026 1.00236 0.991903
0.999957 0.999699 0.995075
0.999735 0.998027 0.998857
0.999813 0.997739 0.998925
1.00003 0.999358 0.995264
0.999878 0.99746 0.998999
0.996791 0.994899 0.97445
1.00028 0.995488 0.944715
0.999826 0.995257 0.91466
1.00512 1.00081 0.984785
1.00086 1.00387 0.989861
1.00206 1.00362 0.987711
1.00145 1.00352 0.988537
1.00398 1.00262 0.985093
1.00345 1.00081 0.987402
1.0022 1.00353 0.987378
1.00053 1.0002 0.993212
1.00334 0.999862 0.988845
1.0046 0.995878 0.990803
1.00482 0.996528 0.98905
1.00417 0.995692 0.991743
1.00409 0.996236 0.990485
1.00322 0.996983 0.991196
0.999963 0.997111 0.992576
0.995856 0.995869 0.971135
0.999522 0.996568 0.945227
0.995665 0.997345 0.976588
0.99997 0.996984 0.994277
1.00257 0.995467 0.993859
1.00066 0.997466 0.987066
0.996414 0.99622 0.975068
1.00001 0.994903 0.945882
1.00014 0.99668 0.991067
0.998478 0.996183 0.975566
1.00326 0.995499 0.991382
1.00281 0.997726 0.98798
1.00447 0.994868 0.991248
1.0045 0.997538 0.990705
1.00475 0.995519 0.990267
1.00514 0.994861 0.990489
1.00518 0.994867 0.990412
1.00515 0.995083 0.989982
1.00508 0.994935 0.990528
1.00515 0.99496 0.990494
1.00506 0.995214 0.990306
1.00513 0.995096 0.99038
1.00514 0.995793 0.989742
1.00513 0.995504 0.989888
1.00513 0.996252 0.989299
1.00517 0.997482 0.988144
1.00513 0.996862 0.988869
1.00518 0.998196 0.987535
1.00522 0.999331 0.98632
1.00519 0.999124 0.986531
1.00521 0.999711 0.985977
1.00506 1.00001 0.985856
1.00391 1.00054 0.987332
1.00495 1.00028 0.985713
1.00517 1.00029 0.985401
1.00119 1.00135 0.9912
1.0034 1.00146 0.987289
1.0047 1.00091 0.98559
1.00003 0.999788 0.99793
1.00086 1.00159 0.991595
1.00245 1.00287 0.987574
0.99998 0.999403 0.998121
1.00051 1.00148 0.992434
0.999908 0.998972 0.99834
1.00488 1.00126 0.984811
1.00378 1.00283 0.98533
1.0029 1.00334 0.98637
1.00247 1.00351 0.987392
1.00155 1.00406 0.98805
1.00086 1.00374 0.989626
1.00069 1.00375 0.989638
1.00039 1.00333 0.990734
0.999857 1.00066 0.994331
1.00022 1.00288 0.991421
0.999875 1.00009 0.994816
0.99968 0.998322 0.998773
0.999956 0.999662 0.995088
0.999738 0.997985 0.998876
0.999817 0.997714 0.998941
1.00099 0.995038 0.991016
0.996805 0.994895 0.970942
0.999991 0.994951 0.954414
1.00458 0.999904 0.986207
1.00514 0.999437 0.986196
1.00508 1.00066 0.984911
1.00183 1.00343 0.988236
1.00395 1.00269 0.985086
1.00378 1.00063 0.987337
1.00505 0.997449 0.987916
1.00382 0.999613 0.988732
1.00444 0.995524 0.990717
1.00487 0.996569 0.989269
1.00499 0.995801 0.989684
1.00419 0.995436 0.991622
1.00395 0.995849 0.991592
1.00424 0.996005 0.990367
1.0002 0.997032 0.992711
0.995971 0.995819 0.969332
1.00031 0.996676 0.996423
1.00413 0.995682 0.992014
1.0005 0.997708 0.987245
0.996375 0.995773 0.972799
1.00317 0.994874 0.991675
1.0028 0.997723 0.988436
1.00453 0.995029 0.991572
1.00455 0.996766 0.990651
1.0052 0.994938 0.990391
1.00525 0.994997 0.990588
1.00515 0.994866 0.990369
1.00518 0.994886 0.990396
1.00519 0.994935 0.990368
1.00508 0.994932 0.990515
1.00515 0.994955 0.990461
1.00517 0.995399 0.990141
1.00512 0.995084 0.990342
1.00515 0.995811 0.989733
1.00517 0.996914 0.988724
1.00514 0.996266 0.989288
1.00517 0.997501 0.988146
1.00523 0.998926 0.986678
1.00518 0.998061 0.987709
1.00522 0.999271 0.986392
1.00513 0.999874 0.985876
1.0052 0.999724 0.985936
1.00505 1 0.985858
1.00411 1.00019 0.987335
1.00146 1.00078 0.991241
1.00389 1.00057 0.987324
1.00494 1.00035 0.985734
1.00011 1.00015 0.997703
1.00125 1.00128 0.991199
1.00333 1.00156 0.987297
1.00009 0.999893 0.99783
1.00096 1.00149 0.991586
1.00005 0.999517 0.998001
1.00511 1.00028 0.985405
1.0049 1.00117 0.984823
1.00423 1.00166 0.985644
1.0037 1.0028 0.985329
1.00289 1.00338 0.986378
1.0016 1.00375 0.988269
1.00161 1.00409 0.988022
1.0007 1.00388 0.989654
1.00003 1.00127 0.993467
1.00027 1.00348 0.990741
0.999838 1.00061 0.994351
0.999666 0.998714 0.998612
0.999874 1.00004 0.994836
0.999671 0.998264 0.998808
0.999743 0.997949 0.998892
1.00408 0.994895 0.992512
1.001 0.995066 0.989361
0.996574 0.994892 0.970589
1.00509 0.99854 0.987211
1.00487 0.999573 0.986203
1.00521 0.998232 0.987307
1.00515 0.999412 0.986216
1.00503 1.00051 0.985039
1.00511 0.996619 0.988665
1.00413 1.00046 0.987274
1.00503 0.997668 0.987862
1.00514 0.995283 0.989937
1.00492 0.99661 0.989491
1.00496 0.995877 0.989576
1.00418 0.995546 0.991741
1.00354 0.995908 0.991431
1.00038 0.996966 0.992771
1.0052 0.994902 0.990451
1.00412 0.996297 0.992062
1.0004 0.997584 0.987408
1.00457 0.995183 0.991891
1.00458 0.995963 0.990604
1.0052 0.994918 0.990438
1.00525 0.995015 0.990496
1.00521 0.994945 0.99058
1.00519 0.994902 0.99038
1.00519 0.994934 0.990391
1.0052 0.99507 0.990442
1.00514 0.994956 0.990429
1.00516 0.995404 0.990083
1.00516 0.996492 0.989125
1.00516 0.995827 0.989723
1.00517 0.996938 0.988723
1.00524 0.998533 0.987083
1.00517 0.997519 0.988149
1.00523 0.998926 0.986699
1.00517 0.999802 0.98591
1.00522 0.999211 0.986463
1.00512 0.999878 0.985894
1.00424 1.00006 0.98725
1.00504 0.999994 0.985861
1.00411 1.0002 0.987328
1.00154 1.0004 0.992817
1.00032 1.00005 0.994918
1.00152 1.00073 0.991925
1.00387 1.0006 0.987317
1.00015 1.00021 0.997657
1.00137 1.00111 0.991196
1.00014 1 0.997736
1.00523 0.998147 0.987418
1.00521 0.999393 0.986179
1.00513 1.00027 0.985483
1.0048 1.00059 0.985738
1.00493 1.0011 0.984835
1.00429 1.00161 0.985622
1.00274 1.00243 0.987458
1.00288 1.00343 0.986386
1.00153 1.00381 0.988275
1.00045 1.00178 0.992255
1.00056 1.00403 0.989681
0.999932 1.00131 0.993497
0.99972 0.999281 0.998305
0.999821 1.00056 0.994371
0.999635 0.998623 0.99868
0.999669 0.99821 0.998836
1.00518 0.994934 0.990339
1.00444 0.994884 0.992492
1.00125 0.994899 0.987748
1.00513 0.99719 0.988217
1.0051 0.998497 0.987055
1.00513 0.999261 0.9862
1.00519 0.998346 0.987266
1.00515 0.99939 0.986236
1.00519 0.995599 0.989915
1.00509 0.996619 0.988616
1.00502 0.997899 0.987809
1.00514 0.99528 0.989943
1.00496 0.995973 0.989468
1.00422 0.995726 0.991885
1.00519 0.994916 0.990688
1.0052 0.994903 0.990601
1.00413 0.996922 0.992116
1.0052 0.9949 0.990478
1.00525 0.994964 0.990406
1.00521 0.994947 0.990528
1.00518 0.994929 0.99075
1.00519 0.994931 0.990413
1.00519 0.995051 0.990402
1.00516 0.996235 0.989427
1.00516 0.99541 0.990025
1.00517 0.99651 0.989129
1.00523 0.998222 0.987423
1.00516 0.996963 0.988721
1.00524 0.998534 0.987096
1.00519 0.999701 0.985995
1.00523 0.998925 0.986721
1.00516 0.999797 0.985928
1.0043 1.00006 0.987139
1.00512 0.999883 0.985911
1.00425 1.00005 0.987249
1.00168 1.0001 0.992914
1.00411 1.0002 0.98732
1.0017 1.00031 0.992742
1.00031 0.999992 0.995055
1.00013 1.00028 0.996297
1.00169 1.00066 0.992484
1.00015 1.0003 0.997626
1.00517 0.997544 0.988156
1.00524 0.99905 0.986436
1.00523 0.997963 0.987589
1.00501 1.00004 0.985896
1.00523 0.999461 0.986122
1.00515 1.00026 0.985561
1.00482 1.00054 0.985721
1.00362 1.00105 0.987298
1.00435 1.00155 0.985599
1.0028 1.00238 0.987441
1.00094 1.00171 0.991358
1.00145 1.00387 0.988282
1.00027 1.00192 0.992286
0.999844 1.00003 0.997899
0.999821 1.00135 0.993525
0.99965 0.999164 0.998433
0.999618 0.998536 0.998737
1.00519 0.994969 0.9904
1.00518 0.99495 0.990324
1.00468 0.994896 0.992439
1.00516 0.996324 0.989271
1.00512 0.997249 0.988204
1.00512 0.998457 0.986897
1.00518 0.998462 0.987226
1.00518 0.995608 0.989823
1.00508 0.996623 0.988567
1.00513 0.995281 0.989949
1.00516 0.994938 0.990788
1.00518 0.994924 0.990677
1.00519 0.994909 0.99075
1.00522 0.995026 0.990481
1.00521 0.994952 0.990476
1.00518 0.995006 0.990653
1.00517 0.995975 0.989803
1.00517 0.995033 0.990362
1.00518 0.996208 0.98943
1.0052 0.998017 0.987714
1.00518 0.996532 0.989132
1.00523 0.998224 0.987427
1.00519 0.999552 0.986155
1.00524 0.998537 0.987108
1.00519 0.999691 0.986009
1.00435 1.00006 0.987053
1.00516 0.999792 0.985945
1.00431 1.00005 0.987145
1.00177 1.00003 0.992859
1.00426 1.00004 0.987247
1.00181 1.00005 0.992816
1.00036 0.999889 0.995089
1.00186 1.00021 0.992677
1.00003 1.00015 0.99523
0.999722 1.00056 0.997927
1.00518 0.997453 0.988137
1.00522 0.998581 0.987053
1.00518 0.997595 0.988013
1.00517 0.999726 0.986171
1.00525 0.998877 0.986585
1.00523 0.997782 0.987759
1.00405 1.00034 0.987257
1.00503 1.00001 0.985867
1.00525 0.999526 0.986063
1.00484 1.00049 0.985704
1.00365 1.001 0.987299
1.00131 1.00121 0.991165
1.00285 1.00232 0.987425
1.00084 1.00184 0.991363
0.999909 1.00061 0.997653
1.00012 1.00204 0.992315
0.99974 0.999869 0.998058
0.9996 0.999012 0.998543
1.00517 0.995494 0.990088
1.00519 0.994961 0.990417
1.00518 0.994963 0.990309
1.00517 0.996221 0.989348
1.00511 0.997302 0.988191
1.00517 0.995614 0.989731
1.00519 0.995086 0.990597
1.00516 0.994941 0.990794
1.00519 0.994932 0.990666
1.00522 0.995008 0.990608
1.00523 0.996179 0.98948
1.00517 0.995088 0.990557
1.00518 0.996141 0.989593
1.00516 0.997677 0.988197
1.00521 0.996176 0.989433
1.0052 0.997997 0.987715
1.00518 0.999369 0.986363
1.00523 0.998216 0.98743
1.00519 0.999541 0.986164
1.00438 1.00001 0.987036
1.00518 0.999681 0.986022
1.00435 1.00005 0.987063
1.00182 1.0001 0.992688
1.00432 1.00003 0.987151
1.00188 0.999986 0.992741
1.00043 0.99988 0.995004
1.00193 1 0.992727
1.00012 0.999943 0.995286
0.99976 1.00033 0.995389
1.00518 0.99675 0.988951
1.00521 0.998446 0.987185
1.00518 0.997262 0.988304
1.00519 0.999391 0.986446
1.00521 0.998668 0.986948
1.00518 0.997646 0.987869
1.00429 0.999925 0.987258
1.00517 0.999608 0.98614
1.00526 0.998706 0.986734
1.0015 1.00067 0.991338
1.00406 1.00032 0.987267
1.00505 0.999985 0.985838
1.00368 1.00096 0.987302
1.00125 1.0013 0.991168
0.999929 1.00079 0.997618
1.00072 1.00197 0.991376
0.999871 1.00045 0.997727
0.999649 0.999689 0.998211
1.00518 0.995383 0.990216
1.00517 0.995536 0.990043
1.00519 0.994956 0.990434
1.00517 0.996124 0.989424
1.0052 0.996353 0.989406
1.00521 0.995089 0.990625
1.00516 0.994945 0.9908
1.00523 0.994973 0.990736
1.00521 0.996126 0.989548
1.00519 0.997706 0.988127
1.0052 0.996303 0.989383
1.00516 0.997864 0.987955
1.00517 0.999015 0.986778
1.00519 0.997987 0.987715
1.00518 0.999364 0.98637
1.0044 0.999936 0.987074
1.00518 0.999536 0.986173
1.00438 1.00001 0.987044
1.00189 1.00016 0.991199
1.00436 1.00005 0.987073
1.00193 1.00006 0.99191
1.00036 0.999934 0.997611
1.002 0.999959 0.992624
1.00021 0.999868 0.995213
0.999882 0.999996 0.995465
1.00517 0.99637 0.989396
1.0052 0.998136 0.987601
1.00518 0.996834 0.988914
1.00519 0.999192 0.986469
1.0052 0.998449 0.987186
1.00518 0.997068 0.988471
1.00436 0.999712 0.987136
1.00519 0.999395 0.986454
1.00521 0.998751 0.986843
1.00168 1.00014 0.991526
1.00428 0.999884 0.987181
1.00517 0.999483 0.986108
1 1.00064 0.997666
1.00149 1.00067 0.991348
1.00406 1.00031 0.987276
1.00118 1.00136 0.991173
0.999932 1.00069 0.997617
0.999778 1.00034 0.997834
1.00517 0.996228 0.989514
1.00518 0.995468 0.990189
1.00517 0.995575 0.989998
1.0052 0.997745 0.988011
1.0052 0.996242 0.989482
1.00522 0.995096 0.990653
1.0052 0.996078 0.989616
1.00519 0.997688 0.988133
1.00516 0.998943 0.98703
1.00516 0.99805 0.987713
1.00517 0.999155 0.986695
1.0044 0.999743 0.987106
1.00517 0.999352 0.986378
1.0044 0.999934 0.987079
1.00191 1.00014 0.991185
1.00438 1.00001 0.987053
1.0019 1.00015 0.991199
1.00036 0.999975 0.997575
1.00195 1.00005 0.991227
1.00027 0.999927 0.996383
0.999985 0.999833 0.99542
1.00517 0.9966 0.989122
1.0052 0.997968 0.987744
1.00517 0.996351 0.98944
1.00519 0.999242 0.986424
1.0052 0.998191 0.987516
1.00518 0.99692 0.988876
1.0044 0.999643 0.987154
1.00519 0.999306 0.98645
1.0052 0.998455 0.987186
1.00181 0.999888 0.991553
1.00435 0.99971 0.987136
1.00519 0.999401 0.986462
1.00016 1.00031 0.997697
1.00169 1.00012 0.99153
1.00428 0.999844 0.987102
1.00001 1.00059 0.997643
1.00147 1.00067 0.991357
0.999903 1.00064 0.99763
1.00521 0.997574 0.988183
1.00517 0.996308 0.989416
1.00519 0.995553 0.990163
1.00516 0.998837 0.987136
1.0052 0.997655 0.988103
1.00519 0.996133 0.989557
1.00519 0.997673 0.98814
1.00516 0.998946 0.98703
1.00436 0.999648 0.987277
1.00516 0.999297 0.986611
1.00441 0.999794 0.987124
1.00193 1.00006 0.991232
1.0044 0.999929 0.987085
1.0019 1.00014 0.991187
1.00036 1.00001 0.997535
1.0019 1.00014 0.991197
1.00036 0.999988 0.997556
1.00034 0.999883 0.994961
1.00521 0.997868 0.987794
1.00517 0.996417 0.989285
1.00519 0.999136 0.986552
1.00521 0.997975 0.98773
1.00517 0.99633 0.989484
1.00441 0.999694 0.987313
1.00519 0.999252 0.98642
1.0052 0.998243 0.987431
1.0019 0.999863 0.991435
1.00439 0.999685 0.987206
1.00519 0.999423 0.986431
1.00031 1.00005 0.997657
1.00182 0.999879 0.991556
1.00435 0.999701 0.987135
1.00014 1.00032 0.997686
1.0017 1.00011 0.991532
1 1.00057 0.997626
1.00517 0.998812 0.98712
1.00521 0.99765 0.988092
1.00516 0.996389 0.989318
1.00432 0.999599 0.987391
1.00516 0.998843 0.987135
1.0052 0.997562 0.988195
1.00516 0.998953 0.987029
1.00438 0.999639 0.987254
1.00189 1.00001 0.991343
1.00441 0.999844 0.987141
1.00192 1.00007 0.991236
1.00038 1.00001 0.99752
1.00191 1.00014 0.991189
1.00036 1.00002 0.997532
1.00037 0.999997 0.997541
1.00519 0.999036 0.986662
1.00522 0.997658 0.988024
1.00516 0.996237 0.989448
1.00438 0.999683 0.987381
1.00519 0.999145 0.986542
1.00521 0.997982 0.987717
1.00192 0.999949 0.991336
1.00439 0.999698 0.987308
1.00518 0.999261 0.986415
1.00039 0.999947 0.997584
1.0019 0.999878 0.991436
1.00439 0.999719 0.987258
1.00027 1.00009 0.997676
1.00183 0.999887 0.991559
1.00014 1.00032 0.997668
1.00432 0.999667 0.987504
1.00517 0.998768 0.987084
1.00521 0.997726 0.988001
1.00186 0.999958 0.99148
1.00433 0.999581 0.987378
1.00516 0.998847 0.987135
1.00439 0.999626 0.987231
1.0019 0.999998 0.99135
1.00037 1.00001 0.997512
1.0019 1.00008 0.991239
1.00037 1.00002 0.997511
1.00035 1.00003 0.997528
1.00435 0.999668 0.987455
1.00519 0.998917 0.986789
1.00522 0.99745 0.988254
1.00199 1.00001 0.992565
1.00437 0.999681 0.987381
1.00518 0.999155 0.986532
1.00039 0.999955 0.997535
1.00192 0.999969 0.991337
1.00438 0.999704 0.987302
1.00037 0.999978 0.997613
1.0019 0.999903 0.991437
1.00025 1.0001 0.997688
1.0019 0.999958 0.991436
1.00432 0.999614 0.987455
1.00517 0.998721 0.987047
1.00032 0.999996 0.997548
1.00184 0.999958 0.991479
1.00434 0.999566 0.987365
1.00189 0.999985 0.991354
1.00035 1.00001 0.997522
1.00037 1.00003 0.997511
1.00202 0.999983 0.99258
1.00435 0.999665 0.987455
1.00518 0.998795 0.986917
1.00002 0.999993 0.997891
1.0019 1.00001 0.991349
1.00437 0.999677 0.987382
1.00039 0.999966 0.997558
1.00192 0.99999 0.991337
1.00035 0.999998 0.997639
1.0003 0.999985 0.99501
1.00192 0.999957 0.992063
1.00432 0.999564 0.987406
1.00033 0.999996 0.997552
1.00185 0.999958 0.991484
1.00036 1 0.997527
0.999944 1 0.995353
1.00194 0.999978 0.992008
1.00434 0.999665 0.987454
1.00018 0.999991 0.996419
1.0019 1.00001 0.991359
1.00039 0.999977 0.997581
1.00032 0.999989 0.997554
1.00183 0.999955 0.991512
1.0003 0.999995 0.997553
1.00014 0.999988 0.996459
1.00187 0.999978 0.991451
1.00037 0.999981 0.99755
1.00032 0.999987 0.997565
1.00032 0.999985 0.997556

TENSORS stress float
0.00171866 -9.53709e-05 0.000179572
-9.53709e-05 0.000677042 -2.47637e-05
0.000179572 -2.47637e-05 0.000655603
0.00545479 -0.000106986 0.000173825
-0.000106986 0.00291928 1.84971e-05
0.000173825 1.84971e-05 0.00289827
0.001509 -2.58758e-05 8.33724e-05
-2.58758e-05 0.000559997 -9.65849e-06
8.33724e-05 -9.65849e-06 0.000529382
0.00185676 -5.72539e-05 0.000180382
-5.72539e-05 0.000733159 -1.56393e-05
0.000180382 -1.56393e-05 0.000715476
0.00179334 -8.60039e-05 0.000176834
-8.60039e-05 0.00071174 -2.24218e-05
0.000176834 -2.24218e-05 0.000691805
0.00166965 -9.1957e-05 0.000184547
-9.1957e-05 0.000646431 -2.44704e-05
0.000184547 -2.44704e-05 0.000626671
0.00147483 -7.01121e-05 2.80431e-05
-7.01121e-05 0.000459869 -9.59178e-06
2.80431e-05 -9.59178e-06 0.000376859
0.00537307 -0.000110995 -6.25895e-06
-0.000110995 0.00285979 4.65441e-07
-6.25895e-06 4.65441e-07 0.00284477
0.00542758 6.38207e-05 8.02803e-05
6.38207e-05 0.00285316 4.83294e-06
8.02803e-05 4.83294e-06 0.00283921
0.00516892 -0.000209042 1.68936e-05
-0.000209042 0.00274571 3.0001e-06
1.68936e-05 3.0001e-06 0.0027107
0.0017109 8.65171e-05 0.000180579
8.65171e-05 0.000668424 1.70728e-05
0.000180579 1.70728e-05 0.000658627
0.000625303 0.000185519 2.2615e-05
0.000185519 -2.79999e-05 1.39594e-05
2.2615e-05 1.39594e-05 -0.00012036
0.00165387 -3.26672e-05 0.000190157
-3.26672e-05 0.000608652 2.46036e-06
0.000190157 2.46036e-06 0.000600017
0.00128002 -1.17079e-05 3.44208e-05
-1.17079e-05 0.000409515 1.07234e-06
3.44208e-05 1.07234e-06 0.000372371
0.00136374 -1.61285e-05 -2.94391e-05
-1.61285e-05 0.000475607 5.34567e-06
-2.94391e-05 5.34567e-06 0.000439685
0.00156583 -6.12769e-05 6.36518e-05
-6.12769e-05 0.000574251 -3.62427e-06
6.36518e-05 -3.62427e-06 0.000546476
0.00151482 -7.50602e-06 8.99312e-05
-7.50602e-06 0.00057031 -9.1454e-06
8.99312e-05 -9.1454e-06 0.000535573
0.00153443 -4.22836e-05 7.45226e-05
-4.22836e-05 0.000562363 -8.52144e-06
7.45226e-05 -8.52144e-06 0.00053596
0.00154624 -0.000111744 -3.09956e-05
-0.000111744 0.000493152 3.09145e-06
-3.09956e-05 3.09145e-06 0.000418704
0.00546539 -0.000110423 0.000226525
-0.000110423 0.00288348 -6.74495e-06
0.000226525 -6.74495e-06 0.00288738
0.00183018 -3.94609e-05 0.000182737
-3.94609e-05 0.000714951 -1.16925e-05
0.000182737 -1.16925e-05 0.000698037
0.00185281 -7.36613e-05 0.000178126
-7.36613e-05 0.000736956 -1.92869e-05
0.000178126 -1.92869e-05 0.000718661
0.001521 -0.000103131 4.93189e-05
-0.000103131 0.000456505 -7.48543e-06
4.93189e-05 -7.48543e-06 0.00038152
0.00150674 -8.59075e-05 3.72636e-05
-8.59075e-05 0.000458949 -8.77766e-06
3.72636e-05 -8.77766e-06 0.000383039
0.00155634 -6.37629e-05 0.00017628
-6.37629e-05 0.000571448 -2.0925e-05
0.00017628 -2.0925e-05 0.000554727
0.00146075 -5.62154e-05 2.0814e-05
-5.62154e-05 0.000472319 -1.03415e-05
2.0814e-05 -1.03415e-05 0.000380846
0.00202535 -0.000217965 1.36555e-05
-0.000217965 0.000641317 -6.14147e-06
1.36555e-05 -6.14147e-06 0.000499496
0.00529486 -0.000127881 -0.000167434
-0.000127881 0.00280599 -1.04725e-05
-0.000167434 -1.04725e-05 0.00279457
0.00348168 6.82644e-05 -0.000104654
6.82644e-05 0.00171025 -8.53074e-06
-0.000104654 -8.53074e-06 0.00169177
0.00337572 -4.395e-05 -9.78423e-05
-4.395e-05 0.00167288 -4.73551e-06
-9.78423e-05 -4.73551e-06 0.00164752
0.00508418 -0.00015661 6.01249e-06
-0.00015661 0.00269684 -3.57569e-07
6.01249e-06 -3.57569e-07 0.00267821
0.000593962 0.000175144 -2.38331e-06
0.000175144 -4.71873e-05 -6.24489e-07
-2.38331e-06 -6.24489e-07 -0.000136793
0.00158377 5.33008e-05 0.00018376
5.33008e-05 0.000577911 1.40833e-05
0.00018376 1.40833e-05 0.000561417
0.00175264 0.000125607 0.000186769
0.000125607 0.000699637 2.10117e-05
0.000186769 2.10117e-05 0.000678369
0.00262583 0.000172616 0.000113929
0.000172616 0.00111306 1.43714e-05
0.000113929 1.43714e-05 0.00104795
0.00396798 -0.000253724 1.39226e-06
-0.000253724 0.00206114 4.154e-06
1.39226e-06 4.154e-06 0.0020211
0.00266998 0.000213226 0.000112753
0.000213226 0.0011658 1.62186e-05
0.000112753 1.62186e-05 0.00109659
0.000618379 0.000150052 2.66082e-05
0.000150052 -2.64053e-05 1.77949e-05
2.66082e-05 1.77949e-05 -0.000110401
0.000881521 0.000176808 1.02735e-05
0.000176808 3.15721e-05 4.99534e-06
1.02735e-05 4.99534e-06 -0.000128312
0.00315862 -0.000104108 9.92454e-05
-0.000104108 0.00154775 4.0589e-06
9.92454e-05 4.0589e-06 0.00155118
0.00549428 6.52867e-05 3.69872e-06
6.52867e-05 0.002891 -1.31839e-06
3.69872e-06 -1.31839e-06 0.00290003
0.00345051 5.78664e-05 -8.60175e-05
5.78664e-05 0.00168557 -3.11063e-06
-8.60175e-05 -3.11063e-06 0.00167129
0.00540184 5.91078e-05 0.000222588
5.91078e-05 0.0028391 2.45041e-06
0.000222588 2.45041e-06 0.00284798
0.00129389 6.71957e-05 3.77551e-05
6.71957e-05 0.000415326 2.02556e-06
3.77551e-05 2.02556e-06 0.000382428
0.000677863 8.22027e-06 1.62062e-05
8.22027e-06 -6.8427e-05 1.64298e-06
1.62062e-05 1.64298e-06 -0.000140592
0.00532643 0.000186019 0.000113167
0.000186019 0.00281584 9.74776e-06
0.000113167 9.74776e-06 0.00279389
0.00268364 5.51615e-05 0.000111372
5.51615e-05 0.00111411 6.44634e-06
0.000111372 6.44634e-06 0.00106247
0.00121142 -7.36487e-05 -4.83485e-05
-7.36487e-05 0.000380554 6.04882e-06
-4.83485e-05 6.04882e-06 0.000340904
0.00128068 -6.06418e-05 -4.14575e-05
-6.06418e-05 0.000423772 6.27307e-06
-4.14575e-05 6.27307e-06 0.000387368
0.00143001 3.74035e-05 -1.77595e-05
3.74035e-05 0.00052208 5.51863e-06
-1.77595e-05 5.51863e-06 0.000480946
0.00157954 -0.000122874 -9.74504e-05
-0.000122874 0.000506112 1.53889e-05
-9.74504e-05 1.53889e-05 0.000438334
0.00343929 1.12751e-05 -9.13199e-05
1.12751e-05 0.00168558 -1.7885e-06
-9.13199e-05 -1.7885e-06 0.00166877
0.00155837 -4.51091e-05 7.05047e-05
-4.51091e-05 0.000565021 -3.056e-06
7.05047e-05 -3.056e-06 0.000538976
0.00145347 1.69357e-05 9.24388e-05
1.69357e-05 0.000536705 -7.12041e-06
9.24388e-05 -7.12041e-06 0.000500636
0.00155904 -5.3124e-05 6.78756e-05
-5.3124e-05 0.000569928 -6.11533e-06
6.78756e-05 -6.11533e-06 0.000544331
0.00157342 -8.58078e-05 -2.50436e-05
-8.58078e-05 0.000480583 1.09382e-06
-2.50436e-05 1.09382e-06 0.000412438
0.00153849 -0.000102973 -3.60188e-05
-0.000102973 0.000502514 3.20198e-06
-3.60188e-05 3.20198e-06 0.000423141
0.00156644 -0.000110948 -2.64104e-05
-0.000110948 0.00049159 2.28509e-06
-2.64104e-05 2.28509e-06 0.000420763
0.00201745 -0.000215865 -6.88079e-06
-0.000215865 0.00063492 1.82963e-06
-6.88079e-06 1.82963e-06 0.00049337
0.0053631 4.20394e-05 0.000216378
4.20394e-05 0.00281629 -1.43195e-07
0.000216378 -1.43195e-07 0.00282575
0.00180345 -2.09318e-05 0.000182895
-2.09318e-05 0.000701245 -7.99066e-06
0.000182895 -7.99066e-06 0.000685825
0.00241215 2.1202e-05 3.38736e-05
2.1202e-05 0.000970751 -9.41018e-07
3.38736e-05 -9.41018e-07 0.000910741
0.00152314 -8.27654e-05 4.28441e-05
-8.27654e-05 0.000449495 -5.10683e-06
4.28441e-05 -5.10683e-06 0.000378138
0.00152053 -9.61102e-05 4.46788e-05
-9.61102e-05 0.000457714 -8.18238e-06
4.46788e-05 -8.18238e-06 0.000383735
0.00192092 -0.000132861 1.14336e-05
-0.000132861 0.000528298 -2.94324e-06
1.14336e-05 -2.94324e-06 0.000404885
0.00166202 -0.000175031 1.53784e-05
-0.000175031 0.000403398 -5.54974e-06
1.53784e-05 -5.54974e-06 0.00026831
0.00114329 -2.20093e-05 0.000136762
-2.20093e-05 0.000331291 -1.46242e-05
0.000136762 -1.46242e-05 0.000319101
0.00126899 -9.22326e-06 1.19947e-05
-9.22326e-06 0.000383126 -1.06933e-05
1.19947e-05 -1.06933e-05 0.000291792
0.00197204 -0.000233757 1.27571e-05
-0.000233757 0.000636015 -6.26498e-06
1.27571e-05 -6.26498e-06 0.000485442
0.00124021 -0.000208087 7.79466e-06
-0.000208087 7.54058e-05 -2.56048e-06
7.79466e-06 -2.56048e-06 -9.74927e-05
0.00566357 0.00013645 -0.000228541
0.00013645 0.00299285 -1.8615e-05
-0.000228541 -1.8615e-05 0.00299534
0.00472312 -0.000195787 -0.000124245
-0.000195787 0.00249639 -9.24822e-06
-0.000124245 -9.24822e-06 0.00247148
0.00541796 -4.96745e-05 -0.000190704
-4.96745e-05 0.00286326 -1.25197e-05
-0.000190704 -1.25197e-05 0.00286204
0.000547688 0.000171153 -2.35331e-05
0.000171153 -7.14825e-05 -1.43647e-05
-2.35331e-05 -1.43647e-05 -0.000161345
0.00567723 0.0001578 -3.02146e-06
0.0001578 0.00299995 -1.82975e-06
-3.02146e-06 -1.82975e-06 0.00300192
0.00566536 6.67071e-05 -8.49578e-06
6.67071e-05 0.00299849 -1.11013e-06
-8.49578e-06 -1.11013e-06 0.00299956
0.000535169 0.000120415 -1.93346e-07
0.000120415 -0.000119857 -2.79943e-07
-1.93346e-07 -2.79943e-07 -0.000205685
0.00261266 -0.000125677 -5.55092e-05
-0.000125677 0.0012389 -1.61825e-06
-5.55092e-05 -1.61825e-06 0.0012128
0.000533132 0.000175205 -6.6224e-07
0.000175205 -8.72661e-05 -2.821e-07
-6.6224e-07 -2.821e-07 -0.000178561
0.00152247 0.000124508 3.71096e-05
0.000124508 0.000518159 7.51996e-07
3.71096e-05 7.51996e-07 0.000445638
0.000894075 0.000174876 7.21553e-08
0.000174876 3.56857e-05 -2.826e-08
7.21553e-08 -2.826e-08 -0.000123642
0.00374549 -0.000109135 0.00012522
-0.000109135 0.00189387 6.49395e-06
0.00012522 6.49395e-06 0.00189443
0.000630318 -3.57462e-05 3.31613e-06
-3.57462e-05 4.05682e-05 8.13352e-06
3.31613e-06 8.13352e-06 -1.52947e-07
0.000654315 8.99065e-05 1.71503e-05
8.99065e-05 -6.98032e-05 8.52067e-06
1.71503e-05 8.52067e-06 -0.000150994
0.000691499 0.00014435 2.18933e-05
0.00014435 -1.41944e-05 1.46453e-05
2.18933e-05 1.46453e-05 -0.000104968
0.000988494 0.000144079 1.3462e-05
0.000144079 -5.94619e-06 5.27116e-06
1.3462e-05 5.27116e-06 -0.0001503
0.00239783 5.66576e-05 7.97674e-05
5.66576e-05 0.0010546 1.06607e-05
7.97674e-05 1.06607e-05 0.00100322
0.000940754 0.000171016 1.13172e-05
0.000171016 3.01751e-05 6.23749e-06
1.13172e-05 6.23749e-06 -0.000122281
0.000902816 0.000185037 9.50113e-06
0.000185037 0.000116771 5.08307e-06
9.50113e-06 5.08307e-06 -5.17956e-05
0.00108081 0.000224001 4.80298e-06
0.000224001 7.49557e-05 1.45639e-06
4.80298e-06 1.45639e-06 -0.000120005
0.00271344 -0.000119532 5.46125e-05
-0.000119532 0.00128414 2.24395e-06
5.46125e-05 2.24395e-06 0.00128392
0.00299114 -0.000133897 1.09877e-05
-0.000133897 0.00145435 -3.73935e-07
1.09877e-05 -3.73935e-07 0.00145014
0.0056297 2.0277e-05 -0.000222463
2.0277e-05 0.00296488 -9.17736e-06
-0.000222463 -9.17736e-06 0.00297255
0.00553968 5.57097e-05 -0.000227222
5.57097e-05 0.0029154 -5.40922e-06
-0.000227222 -5.40922e-06 0.00292517
0.00547004 8.24692e-05 -1.81493e-07
8.24692e-05 0.00288523 -2.52743e-06
-1.81493e-07 -2.52743e-06 0.00289004
0.00341723 1.11515e-05 -0.000100158
1.11515e-05 0.00166433 -3.83481e-06
-0.000100158 -3.83481e-06 0.00165315
0.00165627 3.14528e-05 4.76293e-05
3.14528e-05 0.000509963 8.9763e-07
4.76293e-05 8.9763e-07 0.000449504
0.00351986 0.000104401 -8.75974e-05
0.000104401 0.00172976 -4.35751e-06
-8.75974e-05 -4.35751e-06 0.00171162
0.00169102 7.41667e-05 4.67035e-05
7.41667e-05 0.000532785 1.76373e-06
4.67035e-05 1.76373e-06 0.000467634
0.00543723 0.000140417 0.000225409
0.000140417 0.0028762 5.48192e-06
0.000225409 5.48192e-06 0.00287478
0.000604688 9.772e-06 1.83306e-05
9.772e-06 -0.000108287 4.46399e-07
1.83306e-05 4.46399e-07 -0.000178744
0.00270469 2.30978e-05 0.000111628
2.30978e-05 0.00112531 4.27607e-06
0.000111628 4.27607e-06 0.00107634
0.00102708 3.41923e-05 1.24037e-05
3.41923e-05 -1.75559e-05 1.21365e-06
1.24037e-05 1.21365e-06 -0.000138221
0.00260921 9.75396e-05 0.00011321
9.75396e-05 0.00107846 8.22067e-06
0.00011321 8.22067e-06 0.00102321
0.00104625 8.13399e-05 1.21146e-05
8.13399e-05 -4.78121e-06 2.47671e-06
1.21146e-05 2.47671e-06 -0.000133777
0.00165559 4.08997e-05 -0.000188142
4.08997e-05 0.000611444 1.60213e-06
-0.000188142 1.60213e-06 0.000603162
0.00126154 1.48639e-06 -3.51859e-05
1.48639e-06 0.000400931 1.69555e-06
-3.51859e-05 1.69555e-06 0.000364866
0.00140912 9.24374e-05 -6.67544e-06
9.24374e-05 0.000529701 6.88773e-06
-6.67544e-06 6.88773e-06 0.000477745
0.00122726 -7.42552e-05 -4.90675e-05
-7.42552e-05 0.000390718 6.73373e-06
-4.90675e-05 6.73373e-06 0.000352773
0.00168855 -6.56535e-05 -9.69127e-05
-6.56535e-05 0.000540642 8.25097e-06
-9.69127e-05 8.25097e-06 0.000479969
0.00163335 -0.000105393 -9.62302e-05
-0.000105393 0.000524559 1.34765e-05
-9.62302e-05 1.34765e-05 0.000460398
0.00155021 -0.00012818 -9.87837e-05
-0.00012818 0.00049963 1.5786e-05
-9.87837e-05 1.5786e-05 0.000428382
0.00201289 -0.000214221 -2.60521e-05
-0.000214221 0.000631056 9.30437e-06
-2.60521e-05 9.30437e-06 0.000489762
0.00544392 -8.4616e-05 2.03085e-06
-8.4616e-05 0.00287068 -1.43046e-06
2.03085e-06 -1.43046e-06 0.00287515
0.00150775 4.44834e-05 7.90158e-05
4.44834e-05 0.000534366 -2.79207e-06
7.90158e-05 -2.79207e-06 0.000511002
0.00113195 -9.252e-07 -5.04484e-05
-9.252e-07 0.000205606 9.09432e-07
-5.04484e-05 9.09432e-07 0.000143847
0.00158377 -5.03931e-05 -2.9054e-05
-5.03931e-05 0.00048044 1.57011e-06
-2.9054e-05 1.57011e-06 0.000414688
0.00295404 4.4804e-05 0.000144171
4.4804e-05 0.00142459 -3.19933e-06
0.000144171 -3.19933e-06 0.00141316
0.001925 -7.65007e-05 -3.21784e-05
-7.65007e-05 0.000752576 2.97239e-07
-3.21784e-05 2.97239e-07 0.000672345
0.0015771 -0.000100894 -2.43684e-05
-0.000100894 0.000488314 1.53635e-06
-2.43684e-05 1.53635e-06 0.000419389
0.00181936 -0.00012639 -8.63427e-06
-0.00012639 0.000466896 1.4958e-06
-8.63427e-06 1.4958e-06 0.000343005
0.00198631 -0.000235104 -5.61588e-06
-0.000235104 0.000643826 1.84232e-06
-5.61588e-06 1.84232e-06 0.00049307
0.00185155 -0.000182873 -4.25465e-06
-0.000182873 0.000514537 1.04335e-06
-4.25465e-06 1.04335e-06 0.000379987
0.0012595 -0.000209589 2.80063e-07
-0.000209589 8.45082e-05 -1.4138e-07
2.80063e-07 -1.4138e-07 -8.83287e-05
0.000641777 1.28921e-05 1.88431e-05
1.28921e-05 -8.83283e-05 -1.17249e-06
1.88431e-05 -1.17249e-06 -0.000155674
0.00147381 1.57485e-05 3.40586e-05
1.57485e-05 0.000416305 -2.53889e-06
3.40586e-05 -2.53889e-06 0.000349732
0.00163637 -3.13251e-05 1.27904e-05
-3.13251e-05 0.000346618 -1.05575e-06
1.27904e-05 -1.05575e-06 0.000234853
0.0016447 -9.87482e-05 1.25416e-05
-9.87482e-05 0.000358527 -2.36932e-06
1.25416e-05 -2.36932e-06 0.000237274
0.00163102 -0.000147853 1.42386e-05
-0.000147853 0.000367718 -4.24299e-06
1.42386e-05 -4.24299e-06 0.00023842
0.00171533 -0.000159076 1.88852e-06
-0.000159076 0.000266853 -7.56295e-07
1.88852e-06 -7.56295e-07 0.000119529
0.00412434 0.000159457 0.000113764
0.000159457 0.00213299 -5.62788e-06
0.000113764 -5.62788e-06 0.0021195
0.00128154 -0.000191917 6.49152e-06
-0.000191917 6.91796e-05 -2.07996e-06
6.49152e-06 -2.07996e-06 -9.51736e-05
0.000346094 -7.71052e-05 1.3909e-05
-7.71052e-05 -0.000162277 -1.31548e-05
1.3909e-05 -1.31548e-05 -0.000230548
0.000860923 -0.000175853 9.60171e-06
-0.000175853 2.52778e-05 -6.92061e-06
9.60171e-06 -6.92061e-06 -0.000134175
0.00131205 -0.000233962 8.9889e-06
-0.000233962 0.000149647 -2.92979e-06
8.9889e-06 -2.92979e-06 -3.50793e-05
0.00150832 -0.000266989 4.00927e-06
-0.000266989 0.000130163 3.75821e-07
4.00927e-06 3.75821e-07 -5.64792e-05
0.000422615 -1.7231e-05 7.44201e-06
-1.7231e-05 -9.29971e-05 -1.06922e-05
7.44201e-06 -1.06922e-05 -0.000146331
0.000689629 -3.34571e-05 1.03205e-06
-3.34571e-05 6.92552e-05 -4.35741e-06
1.03205e-06 -4.35741e-06 -4.25414e-05
0.00569697 0.000173191 -0.000240475
0.000173191 0.00301536 -1.93187e-05
-0.000240475 -1.93187e-05 0.00301544
0.00551673 4.81501e-05 -0.000207986
4.81501e-05 0.00291021 -1.55122e-05
-0.000207986 -1.55122e-05 0.00291424
0.000534007 0.000113377 -1.81113e-05
0.000113377 -0.000122199 -1.01574e-05
-1.81113e-05 -1.01574e-05 -0.000207815
0.00403 -0.000164768 -0.000109531
-0.000164768 0.00207629 -5.13227e-06
-0.000109531 -5.13227e-06 0.00206335
0.000443016 0.000113323 -1.822e-05
0.000113323 -0.000120539 -1.38328e-05
-1.822e-05 -1.38328e-05 -0.000194064
0.000486102 0.00016005 -2.02464e-05
0.00016005 -0.000110509 -1.33692e-05
-2.02464e-05 -1.33692e-05 -0.000203472
0.000924417 0.000175547 -1.16211e-05
0.000175547 5.02428e-05 -5.21087e-06
-1.16211e-05 -5.21087e-06 -0.000108897
0.00355972 -0.000129371 7.43142e-06
-0.000129371 0.00179019 -4.34846e-07
7.43142e-06 -4.34846e-07 0.00178684
0.000528389 -4.70335e-05 2.33487e-07
-4.70335e-05 -1.53469e-05 4.73928e-07
2.33487e-07 4.73928e-07 -5.67622e-05
0.00165272 0.000116756 4.68124e-05
0.000116756 0.000522149 3.02982e-06
4.68124e-05 3.02982e-06 0.00045069
0.00159527 0.000165269 4.50363e-05
0.000165269 0.000522743 2.725e-06
4.50363e-05 2.725e-06 0.000442538
0.000986454 0.000145859 1.73663e-07
0.000145859 -4.92494e-06 -2.27816e-07
1.73663e-07 -2.27816e-07 -0.000149985
0.000622392 5.37009e-05 -6.64532e-07
5.37009e-05 8.79172e-06 1.8239e-07
-6.64532e-07 1.8239e-07 -5.23793e-05
0.000938294 0.000171346 4.84906e-07
0.000171346 2.90626e-05 3.29324e-07
4.84906e-07 3.29324e-07 -0.000123425
0.000859215 0.00017254 7.93713e-07
0.00017254 8.77158e-05 -1.39668e-06
7.93713e-07 -1.39668e-06 -7.85752e-05
0.000914527 0.000212583 -7.25116e-07
0.000212583 -2.39379e-05 7.44799e-07
-7.25116e-07 7.44799e-07 -0.000217898
0.000671639 1.2362e-05 9.56966e-06
1.2362e-05 5.30646e-05 9.80186e-06
9.56966e-06 9.80186e-06 2.56811e-06
0.000598422 -6.44006e-05 -2.30338e-07
-6.44006e-05 2.42666e-05 6.58808e-06
-2.30338e-07 6.58808e-06 -1.03509e-05
0.000772236 5.70819e-05 3.22862e-06
5.70819e-05 0.000129336 4.50934e-06
3.22862e-06 4.50934e-06 2.082e-05
0.00102618 0.000124112 1.29526e-05
0.000124112 -8.79289e-07 4.29238e-06
1.29526e-05 4.29238e-06 -0.000140139
0.000943279 0.00016027 1.28067e-05
0.00016027 -1.64128e-06 6.02253e-06
1.28067e-05 6.02253e-06 -0.000150749
0.00131967 0.000206054 6.1338e-06
0.000206054 7.67539e-05 1.72898e-06
6.1338e-06 1.72898e-06 -9.74792e-05
0.00091346 0.000170565 6.8012e-06
0.000170565 0.000181479 7.10872e-06
6.8012e-06 7.10872e-06 2.37015e-05
0.00110679 0.000216699 5.36758e-06
0.000216699 4.77586e-05 2.79836e-06
5.36758e-06 2.79836e-06 -0.000138502
0.00128591 0.000248739 5.6452e-06
0.000248739 0.000267345 6.08555e-07
5.6452e-06 6.08555e-07 5.06947e-05
0.00151804 0.00027432 3.64241e-07
0.00027432 0.000281036 1.93728e-07
3.64241e-07 1.93728e-07 7.24741e-05
0.00248448 -0.000113201 3.32757e-05
-0.000113201 0.00114339 2.90942e-06
3.32757e-05 2.90942e-06 0.00114449
0.00260308 -0.000126927 5.3074e-06
-0.000126927 0.00122107 -4.89266e-07
5.3074e-06 -4.89266e-07 0.00121838
0.00280948 -0.000144679 -4.32547e-05
-0.000144679 0.00135061 -2.457e-06
-4.32547e-05 -2.457e-06 0.00134287
0.00042339 -7.97452e-07 5.24567e-06
-7.97452e-07 -8.71449e-05 -9.04627e-06
5.24567e-06 -9.04627e-06 -0.000133959
0.00374259 0.000140863 9.97005e-05
0.000140863 0.00190158 -4.6262e-06
9.97005e-05 -4.6262e-06 0.00189341
0.00568783 0.000167136 -0.000242736
0.000167136 0.00301037 -1.71851e-05
-0.000242736 -1.71851e-05 0.00301109
0.00553555 5.89658e-05 -0.000224012
5.89658e-05 0.0029112 -7.56744e-06
-0.000224012 -7.56744e-06 0.00292047
0.000626227 8.55636e-05 -1.94691e-05
8.55636e-05 -9.40982e-05 -4.58013e-06
-1.94691e-05 -4.58013e-06 -0.00016974
0.000605956 3.82617e-05 -1.90527e-05
3.82617e-05 -0.000105579 -2.21882e-06
-1.90527e-05 -2.21882e-06 -0.000178623
0.00541065 -1.81467e-05 -0.000217733
-1.81467e-05 0.00284125 -1.2297e-06
-0.000217733 -1.2297e-06 0.00285178
0.00538307 1.78611e-05 -6.84765e-07
1.78611e-05 0.00282636 -3.24126e-07
-6.84765e-07 -3.24126e-07 0.00283651
0.000588519 5.94985e-07 -1.27973e-07
5.94985e-07 -0.000119745 -7.91868e-08
-1.27973e-07 -7.91868e-08 -0.000188751
0.00164043 2.99203e-05 4.74132e-05
2.99203e-05 0.00049967 1.58239e-06
4.74132e-05 1.58239e-06 0.000438752
0.00101036 3.79943e-05 3.19113e-08
3.79943e-05 -2.76199e-05 -1.36149e-07
3.19113e-08 -1.36149e-07 -0.000148646
0.00059667 7.2198e-05 -4.20966e-07
7.2198e-05 -0.000106707 -2.90759e-07
-4.20966e-07 -2.90759e-07 -0.000185423
0.00101361 8.29442e-05 -8.98717e-08
8.29442e-05 -2.2687e-05 -1.57099e-07
-8.98717e-08 -1.57099e-07 -0.000152211
0.000580814 -2.61849e-05 1.88033e-05
-2.61849e-05 -0.00012585 -8.01576e-07
1.88033e-05 -8.01576e-07 -0.000192631
0.00100997 1.47588e-05 1.22355e-05
1.47588e-05 -2.48199e-05 4.68512e-07
1.22355e-05 4.68512e-07 -0.000143569
0.00102027 5.78831e-05 1.21565e-05
5.78831e-05 -2.16621e-05 1.8964e-06
1.21565e-05 1.8964e-06 -0.000145898
0.00143229 5.6718e-05 2.08176e-06
5.6718e-05 5.23486e-05 1.71784e-07
2.08176e-06 1.71784e-07 -7.60749e-05
0.00104114 0.000102289 1.24119e-05
0.000102289 -1.99184e-06 3.28302e-06
1.24119e-05 3.28302e-06 -0.000136047
0.00145719 0.000124191 2.88935e-06
0.000124191 7.87045e-05 3.12585e-07
2.88935e-06 3.12585e-07 -6.4504e-05
0.00538081 -4.51184e-05 -0.000224059
-4.51184e-05 0.00282792 4.28105e-07
-0.000224059 4.28105e-07 0.00283635
0.00125413 -0.000126485 -3.7248e-05
-0.000126485 0.000402317 3.85828e-06
-3.7248e-05 3.85828e-06 0.000365066
-0.000256853 -1.5238e-06 -1.30263e-05
-1.5238e-06 -0.000611445 2.12236e-06
-1.30263e-05 2.12236e-06 -0.000691617
0.00166946 -4.50903e-05 -9.73488e-05
-4.50903e-05 0.000526068 5.97036e-06
-9.73488e-05 5.97036e-06 0.00046622
0.00448277 0.000318626 8.52226e-06
0.000318626 0.00239495 6.16184e-06
8.52226e-06 6.16184e-06 0.00233398
0.00260582 -0.000167426 -9.89674e-05
-0.000167426 0.00113913 1.5889e-05
-9.89674e-05 1.5889e-05 0.00106772
0.00167226 -8.60461e-05 -9.63745e-05
-8.60461e-05 0.000536812 1.08736e-05
-9.63745e-05 1.08736e-05 0.000475171
0.00169 -0.000118964 -2.67505e-05
-0.000118964 0.000388852 5.25831e-06
-2.67505e-05 5.25831e-06 0.000264692
0.00202603 -0.00018983 -2.47498e-05
-0.00018983 0.0006169 7.72196e-06
-2.47498e-05 7.72196e-06 0.000483132
0.00201942 -0.00023731 -2.36537e-05
-0.00023731 0.000663819 9.28463e-06
-2.36537e-05 9.28463e-06 0.000512664
0.00127726 -0.000211052 -6.59874e-06
-0.000211052 9.27034e-05 2.11141e-06
-6.59874e-06 2.11141e-06 -8.00881e-05
0.000584804 7.73189e-06 -5.84291e-08
7.73189e-06 -0.000119958 5.48263e-08
-5.84291e-08 5.48263e-08 -0.000188235
0.00159074 -6.29583e-05 -2.85829e-05
-6.29583e-05 0.000484379 3.2032e-07
-2.85829e-05 3.2032e-07 0.000420783
0.00120647 -2.69411e-05 -6.82642e-06
-2.69411e-05 9.38783e-05 3.43915e-07
-6.82642e-06 3.43915e-07 -2.21897e-05
0.00182185 -0.000100545 -5.11944e-06
-0.000100545 0.00046063 7.71957e-07
-5.11944e-06 7.71957e-07 0.000340813
0.00422672 0.000148494 -5.8682e-06
0.000148494 0.00219115 -8.1704e-07
-5.8682e-06 -8.1704e-07 0.00217942
0.00148377 -7.03877e-05 -2.3778e-06
-7.03877e-05 0.000515964 -8.89455e-09
-2.3778e-06 -8.89455e-09 0.000436827
0.00131239 -0.00020021 1.0448e-06
-0.00020021 0.000299828 -1.13512e-06
1.0448e-06 -1.13512e-06 0.000140739
0.00165478 -0.000147403 -5.52098e-06
-0.000147403 0.000381286 1.20486e-06
-5.52098e-06 1.20486e-06 0.000252039
0.00155997 -0.000154937 -2.46646e-06
-0.000154937 0.000173866 4.94059e-07
-2.46646e-06 4.94059e-07 2.69858e-05
0.00124392 -0.00023046 4.17717e-07
-0.00023046 0.0001093 3.95973e-10
4.17717e-07 3.95973e-10 -7.61783e-05
0.00149667 -0.000202179 3.36899e-07
-0.000202179 0.000192462 -1.54284e-07
3.36899e-07 -1.54284e-07 2.87231e-05
0.00152014 -0.000266378 6.25134e-07
-0.000266378 0.000141787 -8.85334e-09
6.25134e-07 -8.85334e-09 -4.41303e-05
0.000514703 -2.32988e-05 -7.71453e-07
-2.32988e-05 -4.16278e-05 1.43457e-07
-7.71453e-07 1.43457e-07 -9.54193e-05
0.000656809 -5.2081e-05 -5.4601e-07
-5.2081e-05 4.90376e-05 -3.36156e-08
-5.4601e-07 -3.36156e-08 -6.51186e-05
0.00100028 -1.27693e-05 1.21607e-05
-1.27693e-05 -2.70136e-05 -8.6366e-07
1.21607e-05 -8.6366e-07 -0.000144765
0.00166735 -6.00513e-05 1.21335e-05
-6.00513e-05 0.000365852 -1.63612e-06
1.21335e-05 -1.63612e-06 0.000250599
0.00167343 -4.92746e-05 1.09659e-06
-4.92746e-05 0.000212417 1.03089e-08
1.09659e-06 1.03089e-08 8.65211e-05
0.00144522 -0.00012188 3.16689e-06
-0.00012188 9.1618e-05 -3.21487e-07
3.16689e-06 -3.21487e-07 -4.71004e-05
0.00166852 -0.000191657 3.87563e-06
-0.000191657 0.000267744 -9.95086e-07
3.87563e-06 -9.95086e-07 0.000113442
0.0017127 -0.000192219 -7.37578e-07
-0.000192219 0.000142839 4.87922e-07
-7.37578e-07 4.87922e-07 2.73913e-06
0.000375318 -4.94021e-05 1.09992e-05
-4.94021e-05 -0.000130966 -1.20182e-05
1.09992e-05 -1.20182e-05 -0.000190907
0.00158594 -0.000248822 1.98787e-06
-0.000248822 0.000140319 4.46067e-07
1.98787e-06 4.46067e-07 -2.90859e-05
0.000687927 -0.00014781 5.13672e-06
-0.00014781 9.84404e-06 -7.13502e-06
5.13672e-06 -7.13502e-06 -0.00014781
0.00100648 -0.000230974 9.64622e-06
-0.000230974 2.353e-05 -3.42537e-06
9.64622e-06 -3.42537e-06 -0.000175515
0.0017524 -0.000308739 3.58836e-06
-0.000308739 0.000320553 -7.52967e-09
3.58836e-06 -7.52967e-09 0.000112611
0.00186013 -0.000304418 -1.7002e-06
-0.000304418 0.000277413 3.25535e-06
-1.7002e-06 3.25535e-06 0.000101172
0.000759744 -9.43925e-05 2.80436e-06
-9.43925e-05 0.000106977 -4.58886e-06
2.80436e-06 -4.58886e-06 -2.41036e-05
0.000620761 -1.92593e-05 5.98794e-07
-1.92593e-05 3.22121e-05 -3.71925e-06
5.98794e-07 -3.71925e-06 -6.7025e-05
0.000991437 -0.00014936 1.66065e-07
-0.00014936 0.000260676 9.52639e-08
1.66065e-07 9.52639e-08 9.16074e-05
0.000566621 9.23239e-05 -1.75804e-05
9.23239e-05 -0.000116879 -7.71374e-06
-1.75804e-05 -7.71374e-06 -0.000198632
0.00336545 -0.000153976 -7.56748e-05
-0.000153976 0.0016809 -2.59798e-06
-7.56748e-05 -2.59798e-06 0.00167135
0.000415824 -5.9623e-05 1.57491e-06
-5.9623e-05 -7.55802e-05 -7.77194e-06
1.57491e-06 -7.77194e-06 -0.00011897
0.000492014 0.000138802 -1.88493e-05
0.000138802 -0.000124162 -1.25084e-05
-1.88493e-05 -1.25084e-05 -0.000214281
0.000980266 0.000147677 -1.38744e-05
0.000147677 -6.27955e-06 -5.70819e-06
-1.38744e-05 -5.70819e-06 -0.000152049
0.000374243 4.57915e-05 -1.20057e-05
4.57915e-05 -0.000134416 -1.17035e-05
-1.20057e-05 -1.17035e-05 -0.000193526
0.00077152 0.000157625 -7.06019e-06
0.000157625 3.38456e-05 -7.5614e-06
-7.06019e-06 -7.5614e-06 -0.000129816
0.000939999 0.000171845 -1.12405e-05
0.000171845 3.05776e-05 -5.85675e-06
-1.12405e-05 -5.85675e-06 -0.000121976
0.000740508 0.00020031 -7.25912e-06
0.00020031 -0.000127635 -9.02736e-07
-7.25912e-06 -9.02736e-07 -0.00032037
0.000535143 1.57294e-06 1.78043e-06
1.57294e-06 -2.50318e-05 4.03626e-07
1.78043e-06 4.03626e-07 -7.41909e-05
0.000521886 -6.9633e-05 -3.67309e-08
-6.9633e-05 -1.9043e-05 2.6726e-07
-3.67309e-08 2.6726e-07 -5.4372e-05
0.000636445 1.4543e-05 6.99767e-07
1.4543e-05 4.27657e-05 3.85889e-07
6.99767e-07 3.85889e-07 -5.61191e-05
0.00100218 0.000124995 -2.41655e-08
0.000124995 -1.24438e-05 -2.3859e-07
-2.41655e-08 -2.3859e-07 -0.000152399
0.000968952 0.000163308 4.82592e-07
0.000163308 1.45592e-05 -2.3953e-07
4.82592e-07 -2.3953e-07 -0.000135248
0.00133296 0.000205914 3.1818e-07
0.000205914 8.7844e-05 4.27092e-08
3.1818e-07 4.27092e-08 -8.64379e-05
0.000801339 0.00015162 -5.65045e-07
0.00015162 0.000117816 4.32637e-07
-5.65045e-07 4.32637e-07 -3.70954e-05
0.00120688 0.000222838 -5.76292e-08
0.000222838 0.000109013 2.18578e-08
-5.76292e-08 2.18578e-08 -7.76832e-05
0.00114029 0.000236286 9.54742e-07
0.000236286 0.00018232 -1.97903e-06
9.54742e-07 -1.97903e-06 -3.25031e-05
0.00113917 0.000248892 -8.24217e-07
0.000248892 5.71461e-05 3.27034e-07
-8.24217e-07 3.27034e-07 -0.000148419
0.000562734 -6.92819e-05 -1.74574e-06
-6.92819e-05 -5.12978e-06 5.57826e-06
-1.74574e-06 5.57826e-06 -3.45178e-05
0.000769176 0.000110379 5.10808e-06
0.000110379 0.00011244 4.52809e-06
5.10808e-06 4.52809e-06 -1.72567e-05
0.000695125 -7.30869e-06 1.02785e-06
-7.30869e-06 7.13756e-05 4.19505e-06
1.02785e-06 4.19505e-06 -4.74042e-06
0.000795367 0.000104653 1.63514e-06
0.000104653 0.0001655 -1.0161e-07
1.63514e-06 -1.0161e-07 8.83294e-06
0.00139039 0.00018368 4.86629e-06
0.00018368 8.30044e-05 7.40021e-07
4.86629e-06 7.40021e-07 -8.09904e-05
0.00124885 0.000219872 6.94658e-06
0.000219872 8.08496e-05 2.36729e-06
6.94658e-06 2.36729e-06 -0.000101294
0.00166371 0.000274913 1.4327e-06
0.000274913 0.000177906 -1.37527e-07
1.4327e-06 -1.37527e-07 -5.38267e-06
0.00130261 0.000224937 3.16544e-06
0.000224937 0.000366046 4.42209e-06
3.16544e-06 4.42209e-06 0.000163179
0.00157863 0.000293126 6.01218e-08
0.000293126 0.000259243 -1.19891e-07
6.01218e-08 -1.19891e-07 5.3573e-05
0.00147748 0.000283449 2.70784e-06
0.000283449 0.000325439 -1.565e-06
2.70784e-06 -1.565e-06 8.63561e-05
0.00171663 0.000297901 5.61807e-07
0.000297901 0.000329672 1.58833e-07
5.61807e-07 1.58833e-07 0.000117355
0.000636699 1.93956e-06 2.17127e-06
1.93956e-06 1.66443e-05 2.27692e-06
2.17127e-06 2.27692e-06 -3.23462e-05
0.000554345 -4.47193e-05 6.55491e-07
-4.47193e-05 -3.51139e-05 4.559e-06
6.55491e-07 4.559e-06 -5.42066e-05
0.00238116 -9.8464e-05 2.84451e-05
-9.8464e-05 0.00107368 3.31349e-06
2.84451e-05 3.31349e-06 0.00107846
0.00242744 -0.000110783 3.15298e-06
-0.000110783 0.00110919 -3.25461e-07
3.15298e-06 -3.25461e-07 0.00111076
0.00251254 -0.00012451 -3.55554e-05
-0.00012451 0.00116773 -2.68447e-06
-3.55554e-05 -2.68447e-06 0.00116544
0.000447808 7.19029e-06 4.03324e-06
7.19029e-06 -7.44813e-05 -7.47869e-06
4.03324e-06 -7.47869e-06 -0.000113059
0.00335142 0.000128338 8.204e-05
0.000128338 0.00166573 -3.83626e-06
8.204e-05 -3.83626e-06 0.00166106
0.000531708 -2.89237e-06 -3.40152e-07
-2.89237e-06 -2.58579e-05 1.80616e-07
-3.40152e-07 1.80616e-07 -7.30248e-05
0.00385252 0.000130562 -4.1569e-06
0.000130562 0.00196332 -6.00884e-07
-4.1569e-06 -6.00884e-07 0.00195754
0.000618162 9.56286e-05 -1.90138e-05
9.56286e-05 -9.24915e-05 -6.15695e-06
-1.90138e-05 -6.15695e-06 -0.000172516
0.000624676 3.24157e-05 -1.8336e-05
3.24157e-05 -9.76066e-05 -3.15987e-06
-1.8336e-05 -3.15987e-06 -0.000170672
0.000995987 8.42845e-05 -1.19782e-05
8.42845e-05 -3.25993e-05 -2.77478e-06
-1.19782e-05 -2.77478e-06 -0.000162536
0.000992353 3.99997e-05 -1.23559e-05
3.99997e-05 -3.85583e-05 -1.46741e-06
-1.23559e-05 -1.46741e-06 -0.000159817
0.000637869 -6.24077e-06 -1.90538e-05
-6.24077e-06 -9.4463e-05 -7.31772e-07
-1.90538e-05 -7.31772e-07 -0.000161461
0.00545297 -9.50888e-05 -0.000231398
-9.50888e-05 0.00287571 3.45904e-06
-0.000231398 3.45904e-06 0.00288115
0.000623693 -4.56442e-07 1.40983e-07
-4.56442e-07 -0.000101584 -4.41027e-07
1.40983e-07 -4.41027e-07 -0.000168274
0.00100324 1.94609e-05 -3.69424e-08
1.94609e-05 -2.90226e-05 -1.0938e-07
-3.69424e-08 -1.0938e-07 -0.000147946
0.00101739 5.95917e-05 -6.03751e-08
5.95917e-05 -2.37481e-05 -9.66742e-08
-6.03751e-08 -9.66742e-08 -0.000148299
0.00143282 5.59179e-05 -5.73709e-08
5.59179e-05 5.34717e-05 6.26042e-08
-5.73709e-08 6.26042e-08 -7.50688e-05
0.00101372 0.000104129 -9.34061e-08
0.000104129 -1.63252e-05 -2.29494e-07
-9.34061e-08 -2.29494e-07 -0.000151178
0.00144446 0.000125142 -1.65546e-08
0.000125142 7.12986e-05 -4.51767e-08
-1.65546e-08 -4.51767e-08 -7.24393e-05
0.00100186 -2.90664e-07 1.21998e-05
-2.90664e-07 -2.64803e-05 -3.06878e-07
1.21998e-05 -3.06878e-07 -0.000144415
0.00142211 3.03596e-05 2.26858e-06
3.03596e-05 5.10759e-05 1.19231e-07
2.26858e-06 1.19231e-07 -7.40238e-05
0.00144456 9.06645e-05 2.21715e-06
9.06645e-05 6.12363e-05 1.56976e-07
2.21715e-06 1.56976e-07 -7.3546e-05
0.00175533 8.05451e-05 -1.77377e-06
8.05451e-05 9.6132e-05 -5.19396e-07
-1.77377e-06 -5.19396e-07 -9.8397e-06
0.00144461 0.000156771 3.63998e-06
0.000156771 8.66211e-05 5.83369e-07
3.63998e-06 5.83369e-07 -6.66375e-05
0.00175887 0.000167101 -3.89828e-07
0.000167101 0.000124453 -1.1576e-06
-3.89828e-07 -1.1576e-06 -5.04801e-06
0.000606673 1.79883e-06 -1.8209e-05
1.79883e-06 -0.000105501 1.06448e-06
-1.8209e-05 1.06448e-06 -0.000175286
0.0016663 -2.32501e-05 -9.7163e-05
-2.32501e-05 0.000523204 3.89733e-06
-9.7163e-05 3.89733e-06 0.00046551
0.000751337 -2.12844e-05 -1.42415e-05
-2.12844e-05 -0.000173201 1.67735e-06
-1.42415e-05 1.67735e-06 -0.000293762
0.00198622 -0.000101114 -2.36512e-05
-0.000101114 0.0005549 3.749e-06
-2.36512e-05 3.749e-06 0.000436693
0.00442981 0.000126238 -0.000143184
0.000126238 0.00230518 8.43357e-06
-0.000143184 8.43357e-06 0.00229747
0.00259506 -0.000110096 -8.98882e-05
-0.000110096 0.00115902 1.23035e-05
-8.98882e-05 1.23035e-05 0.00109566
0.00193636 -0.000243186 -1.89774e-05
-0.000243186 0.000672119 7.90453e-06
-1.89774e-05 7.90453e-06 0.000510594
0.00166002 -0.000145812 -2.47414e-05
-0.000145812 0.000383664 6.33536e-06
-2.47414e-05 6.33536e-06 0.000254748
0.00140033 -0.00015057 -5.81711e-06
-0.00015057 7.82698e-05 1.22034e-06
-5.81711e-06 1.22034e-06 -6.81442e-05
0.00171731 -0.000212868 -7.06006e-06
-0.000212868 0.000319089 2.11329e-06
-7.06006e-06 2.11329e-06 0.00015591
0.00120031 -0.000228847 -7.64328e-06
-0.000228847 8.32999e-05 2.41652e-06
-7.64328e-06 2.41652e-06 -0.000103216
0.00153715 -0.000266326 -2.50314e-06
-0.000266326 0.000155706 -4.58879e-07
-2.50314e-06 -4.58879e-07 -2.95755e-05
0.000619771 -3.26527e-05 -9.7894e-06
-3.26527e-05 1.83483e-05 1.07213e-05
-9.7894e-06 1.07213e-05 -3.67204e-05
0.000665383 -7.16424e-05 -2.20794e-06
-7.16424e-05 5.50851e-05 3.44084e-06
-2.20794e-06 3.44084e-06 -6.28339e-05
0.000871162 -8.20593e-06 -3.02207e-07
-8.20593e-06 -0.000102522 -5.48699e-08
-3.02207e-07 -5.48699e-08 -0.000221033
0.00167467 -6.10626e-05 -5.64687e-06
-6.10626e-05 0.000369015 5.84458e-07
-5.64687e-06 5.84458e-07 0.000253838
0.00169899 -4.55966e-05 -2.10981e-06
-4.55966e-05 0.000223739 2.60705e-07
-2.10981e-06 2.60705e-07 0.000100325
0.00155974 -0.000123706 -2.61985e-07
-0.000123706 0.00015937 1.44563e-07
-2.61985e-07 1.44563e-07 2.00132e-05
0.000528921 -6.05048e-05 -1.5505e-07
-6.05048e-05 -4.3003e-05 3.40618e-07
-1.5505e-07 3.40618e-07 -0.000105057
0.00085093 -0.000171014 -8.03637e-07
-0.000171014 0.000102259 -3.99184e-07
-8.03637e-07 -3.99184e-07 -5.86684e-05
0.00101377 -0.000229869 2.3129e-06
-0.000229869 2.99707e-05 -1.06737e-06
2.3129e-06 -1.06737e-06 -0.000168075
0.00168406 -0.000189959 -2.60164e-06
-0.000189959 0.000275626 6.69058e-07
-2.60164e-06 6.69058e-07 0.000120683
0.00177803 -0.00019604 5.08023e-07
-0.00019604 0.000175346 -4.37738e-08
5.08023e-07 -4.37738e-08 3.84462e-05
0.0017254 -0.000310495 -1.89498e-06
-0.000310495 0.000308087 3.10701e-07
-1.89498e-06 3.10701e-07 9.87067e-05
0.00158867 -0.000248386 4.44464e-07
-0.000248386 0.000143185 -1.09639e-07
4.44464e-07 -1.09639e-07 -2.57739e-05
0.00180874 -0.000303439 6.81011e-07
-0.000303439 0.000241994 5.70023e-07
6.81011e-07 5.70023e-07 6.57079e-05
0.000727428 -0.000106332 -1.47419e-07
-0.000106332 8.76464e-05 -1.94255e-07
-1.47419e-07 -1.94255e-07 -4.54185e-05
0.000587475 -9.18727e-05 -6.13961e-07
-9.18727e-05 1.0782e-05 -7.04135e-07
-6.13961e-07 -7.04135e-07 -0.000144627
0.00066961 -3.06593e-05 2.46519e-08
-3.06593e-05 5.95043e-05 1.69798e-07
2.46519e-08 1.69798e-07 -4.07798e-05
0.00166104 -1.84352e-05 9.41977e-07
-1.84352e-05 0.000199107 3.61964e-09
9.41977e-07 3.61964e-09 7.5952e-05
0.00172747 -8.17086e-05 7.0384e-07
-8.17086e-05 0.000242453 3.24173e-07
7.0384e-07 3.24173e-07 0.00011498
0.00166727 -6.66316e-05 -2.16054e-06
-6.66316e-05 6.40114e-05 1.09957e-06
-2.16054e-06 1.09957e-06 -4.36303e-05
0.00171603 -0.000157734 -2.40504e-06
-0.000157734 0.000110091 1.17754e-06
-2.40504e-06 1.17754e-06 -1.6208e-05
0.00160745 -0.000227188 1.60134e-07
-0.000227188 0.000117811 1.47289e-06
1.60134e-07 1.47289e-06 -3.36652e-05
0.00179334 -0.000218485 -1.91405e-06
-0.000218485 0.000124286 1.22843e-06
-1.91405e-06 1.22843e-06 8.59076e-06
0.000684047 -0.000130262 3.94097e-06
-0.000130262 5.13134e-05 -5.15357e-06
3.94097e-06 -5.15357e-06 -9.53606e-05
0.00168437 -0.000280506 -2.13048e-06
-0.000280506 0.000127117 2.07065e-06
-2.13048e-06 2.07065e-06 -2.79559e-05
0.00118206 -0.000237232 2.88053e-06
-0.000237232 0.000233562 -5.06288e-06
2.88053e-06 -5.06288e-06 2.86278e-05
0.00127375 -0.000295999 5.86449e-06
-0.000295999 0.000121284 -1.75492e-06
5.86449e-06 -1.75492e-06 -0.000107723
0.00188114 -0.000348557 1.10896e-06
-0.000348557 0.000340319 3.27655e-06
1.10896e-06 3.27655e-06 0.000126423
0.0019669 -0.000329045 -3.3236e-06
-0.000329045 0.000302222 3.88538e-06
-3.3236e-06 3.88538e-06 0.000138887
0.00061304 -2.18361e-05 7.48415e-07
-2.18361e-05 2.58582e-05 -3.34233e-06
7.48415e-07 -3.34233e-06 -6.03534e-05
0.000754011 -0.000145238 1.07174e-06
-0.000145238 8.48528e-05 9.60819e-09
1.07174e-06 9.60819e-09 -7.51443e-05
0.000496543 -7.52968e-05 -5.35449e-07
-7.52968e-05 -1.85475e-05 -4.7651e-08
-5.35449e-07 -4.7651e-08 -0.00017246
0.00127422 -0.000210525 -2.17934e-06
-0.000210525 0.000399758 1.80952e-06
-2.17934e-06 1.80952e-06 0.00021771
0.000975345 0.000126007 -1.3491e-05
0.000126007 -2.5764e-05 -4.69072e-06
-1.3491e-05 -4.69072e-06 -0.000166423
0.000459382 -7.06064e-05 1.26403e-06
-7.06064e-05 -5.60462e-05 -6.01695e-06
1.26403e-06 -6.01695e-06 -9.09527e-05
0.000401918 -1.62843e-05 -3.54255e-06
-1.62843e-05 -9.87563e-05 -9.73007e-06
-3.54255e-06 -9.73007e-06 -0.000147766
0.000543406 -1.94465e-05 5.61701e-07
-1.94465e-05 -8.69532e-06 -4.73533e-06
5.61701e-07 -4.73533e-06 -0.000105759
0.000992172 0.000166476 -1.28667e-05
0.000166476 2.93076e-05 -6.71326e-06
-1.28667e-05 -6.71326e-06 -0.000121264
0.0013471 0.000205746 -5.98072e-06
0.000205746 9.94099e-05 -1.73139e-06
-5.98072e-06 -1.73139e-06 -7.49069e-05
0.000678859 0.000129711 -4.57635e-06
0.000129711 4.72712e-05 -4.93676e-06
-4.57635e-06 -4.93676e-06 -0.000104218
0.00108551 0.000231375 -4.82638e-06
0.000231375 0.000150571 -4.85792e-06
-4.82638e-06 -4.85792e-06 -6.31802e-05
0.00132048 0.000229919 -6.23918e-06
0.000229919 0.000178684 -2.57346e-06
-6.23918e-06 -2.57346e-06 -8.60566e-06
0.000731986 0.000220801 -3.77512e-06
0.000220801 -0.000182067 1.60238e-06
-3.77512e-06 1.60238e-06 -0.000384347
0.000530742 -6.57129e-05 -2.00247e-07
-6.57129e-05 -2.63331e-05 1.27659e-07
-2.00247e-07 1.27659e-07 -5.44226e-05
0.000747763 9.80452e-05 3.451e-07
9.80452e-05 0.000106568 -2.90522e-07
3.451e-07 -2.90522e-07 -2.48039e-05
0.000601113 -2.39076e-05 -5.77202e-07
-2.39076e-05 1.87443e-05 7.34041e-07
-5.77202e-07 7.34041e-07 -5.72846e-05
0.000796008 7.4526e-05 1.46789e-06
7.4526e-05 0.000163708 -8.95343e-07
1.46789e-06 -8.95343e-07 1.16684e-05
0.00139483 0.000183586 2.0478e-07
0.000183586 8.73832e-05 -2.90722e-07
2.0478e-07 -2.90722e-07 -7.68371e-05
0.00126029 0.000219407 4.03654e-07
0.000219407 9.33446e-05 2.35228e-08
4.03654e-07 2.35228e-08 -8.87927e-05
0.00165278 0.000274554 2.13396e-07
0.000274554 0.000170341 1.45674e-07
2.13396e-07 1.45674e-07 -1.32039e-05
0.00106117 0.000205653 7.63709e-07
0.000205653 0.000228862 6.2755e-07
7.63709e-07 6.2755e-07 2.89638e-05
0.00167353 0.000296677 -1.2345e-06
0.000296677 0.000319262 -1.9998e-07
-1.2345e-06 -1.9998e-07 0.000113448
0.00121697 0.000263014 6.7474e-07
0.000263014 0.000171707 -2.61478e-06
6.7474e-07 -2.61478e-06 -6.6625e-05
0.00156138 0.000287462 -2.31906e-06
0.000287462 0.000241423 3.54684e-07
-2.31906e-06 3.54684e-07 2.99342e-05
0.000545932 -5.54194e-05 1.42301e-07
-5.54194e-05 -3.03273e-05 4.79146e-06
1.42301e-07 4.79146e-06 -5.3112e-05
0.000680516 -1.37523e-05 1.46496e-06
-1.37523e-05 5.36454e-05 3.05164e-06
1.46496e-06 3.05164e-06 -7.77911e-06
0.00100887 0.00016858 1.56154e-06
0.00016858 0.000249224 1.52247e-06
1.56154e-06 1.52247e-06 7.86136e-05
0.000848785 5.87865e-05 -9.52772e-07
5.87865e-05 0.000200116 2.69416e-06
-9.52772e-07 2.69416e-06 6.76267e-05
0.00113315 0.000159438 3.55736e-07
0.000159438 0.000349599 -1.8735e-06
3.55736e-07 -1.8735e-06 0.00017139
0.00172143 0.000242631 1.10857e-06
0.000242631 0.000165366 -1.40709e-06
1.10857e-06 -1.40709e-06 1.50704e-06
0.00153377 0.000291313 1.52277e-06
0.000291313 0.000165917 1.80198e-07
1.52277e-06 1.80198e-07 -3.33938e-05
0.00179241 0.000312499 3.13483e-07
0.000312499 0.000209374 -3.58598e-07
3.13483e-07 -3.58598e-07 3.16361e-05
0.00139299 0.000270473 2.2257e-06
0.000270473 0.000392045 5.23782e-06
2.2257e-06 5.23782e-06 0.000157167
0.00182982 0.000350437 1.60758e-06
0.000350437 0.00035112 -3.52717e-07
1.60758e-06 -3.52717e-07 0.000137064
0.000782547 0.00023595 2.8693e-06
0.00023595 -0.000145423 -1.7519e-06
2.8693e-06 -1.7519e-06 -0.000375811
0.000634124 -2.45463e-06 2.50463e-06
-2.45463e-06 1.60377e-05 2.29942e-06
2.50463e-06 2.29942e-06 -3.45521e-05
0.000687222 4.28391e-05 1.55406e-07
4.28391e-05 7.53444e-05 1.03999e-06
1.55406e-07 1.03999e-06 -7.74773e-06
0.000651261 1.18054e-05 1.9162e-06
1.18054e-05 2.73291e-05 2.23968e-06
1.9162e-06 2.23968e-06 -2.12534e-05
0.000624741 -1.94145e-05 -5.40565e-07
-1.94145e-05 1.17417e-05 1.04302e-08
-5.40565e-07 1.04302e-08 -3.83475e-05
0.00125214 -5.17983e-05 9.95564e-07
-5.17983e-05 0.000374152 2.64908e-06
9.95564e-07 2.64908e-06 0.00036086
0.000924156 -5.19358e-05 5.91763e-07
-5.19358e-05 0.000184478 -9.00434e-08
5.91763e-07 -9.00434e-08 0.000167224
0.000899751 -4.99498e-05 2.36981e-05
-4.99498e-05 0.000181414 7.33712e-06
2.36981e-05 7.33712e-06 0.00018344
0.0023466 -9.62184e-05 3.27659e-06
-9.62184e-05 0.0010522 -2.89244e-07
3.27659e-06 -2.89244e-07 0.00105746
0.00237047 -0.000107719 -3.24766e-05
-0.000107719 0.00107476 -3.03679e-06
-3.24766e-05 -3.03679e-06 0.00107698
0.000487094 2.92197e-05 4.81592e-07
2.92197e-05 -5.26285e-05 -6.14029e-06
4.81592e-07 -6.14029e-06 -8.50568e-05
0.00301634 0.00013044 5.15183e-05
0.00013044 0.00146288 -3.0802e-06
5.15183e-05 -3.0802e-06 0.0014583
0.000534572 6.49189e-06 -3.11562e-07
6.49189e-06 -2.39927e-05 2.55667e-07
-3.11562e-07 2.55667e-07 -6.32019e-05
0.00349441 0.000119186 -5.01611e-06
0.000119186 0.0017473 -4.59388e-07
-5.01611e-06 -4.59388e-07 0.00174489
0.000623425 -5.27576e-06 -6.05107e-06
-5.27576e-06 2.56029e-05 9.23426e-06
-6.05107e-06 9.23426e-06 -2.20879e-05
0.00394585 0.000118098 -0.000122776
0.000118098 0.00201512 6.56888e-06
-0.000122776 6.56888e-06 0.00201191
0.000992932 0.00010607 -1.25931e-05
0.00010607 -2.70027e-05 -3.67726e-06
-1.25931e-05 -3.67726e-06 -0.000162573
0.00100223 6.33442e-05 -1.21123e-05
6.33442e-05 -3.21451e-05 -2.07915e-06
-1.21123e-05 -2.07915e-06 -0.000157234
0.00144601 0.000122928 -3.4986e-06
0.000122928 7.25353e-05 -4.51641e-07
-3.4986e-06 -4.51641e-07 -7.1288e-05
0.00143297 5.53064e-05 -2.46597e-06
5.53064e-05 5.45996e-05 -2.15689e-08
-2.46597e-06 -2.15689e-08 -7.40688e-05
0.00100126 2.30858e-05 -1.23259e-05
2.30858e-05 -3.07157e-05 -7.37144e-07
-1.23259e-05 -7.37144e-07 -0.000149817
0.000591195 2.60386e-05 -1.87927e-05
2.60386e-05 -0.000120227 -7.09656e-08
-1.87927e-05 -7.09656e-08 -0.000186827
0.000999769 2.09469e-06 3.62032e-09
2.09469e-06 -2.80073e-05 -1.13519e-07
3.62032e-09 -1.13519e-07 -0.000145973
0.00141904 3.19741e-05 -6.91566e-08
3.19741e-05 4.95627e-05 2.99909e-08
-6.91566e-08 2.99909e-08 -7.56656e-05
0.00144679 8.82559e-05 1.00763e-08
8.82559e-05 6.39952e-05 -3.9876e-09
1.00763e-08 -3.9876e-09 -7.077e-05
0.00180029 8.07307e-05 -1.52806e-08
8.07307e-05 0.000118351 2.48504e-07
-1.52806e-08 2.48504e-07 1.49808e-05
0.00143273 0.000156077 -2.01908e-07
0.000156077 8.16396e-05 -6.26757e-08
-2.01908e-07 -6.26757e-08 -7.18269e-05
0.0017509 0.000164684 -2.65344e-07
0.000164684 0.000123936 2.14218e-08
-2.65344e-07 2.14218e-08 -5.51291e-06
0.00141804 6.62889e-06 2.57256e-06
6.62889e-06 5.22042e-05 4.92578e-08
2.57256e-06 4.92578e-08 -7.18578e-05
0.0017912 4.43574e-05 -3.00048e-06
4.43574e-05 0.000120695 -1.80758e-08
-3.00048e-06 -1.80758e-08 2.47618e-05
0.00176549 0.000128856 -1.32057e-06
0.000128856 0.000104567 -9.7279e-07
-1.32057e-06 -9.7279e-07 -1.16903e-05
0.00177923 8.30422e-05 1.64243e-06
8.30422e-05 3.96214e-05 7.75645e-08
1.64243e-06 7.75645e-08 -4.05541e-05
0.00174736 0.000201829 -3.3377e-09
0.000201829 0.000152744 -1.10502e-06
-3.3377e-09 -1.10502e-06 7.9981e-06
0.00172456 0.000186544 -1.20683e-06
0.000186544 4.81155e-05 -1.22719e-06
-1.20683e-06 -1.22719e-06 -5.61817e-05
0.000744128 -5.16936e-06 -1.2054e-05
-5.16936e-06 -0.00017669 6.69389e-07
-1.2054e-05 6.69389e-07 -0.000296015
0.00170268 -6.34516e-05 -2.32611e-05
-6.34516e-05 0.000384336 2.76191e-06
-2.32611e-05 2.76191e-06 0.000269194
0.00174524 -3.95568e-05 -5.711e-06
-3.95568e-05 0.000247104 1.87721e-07
-5.711e-06 1.87721e-07 0.000126391
0.00167596 -0.000125751 -4.36793e-06
-0.000125751 0.000228134 9.59163e-07
-4.36793e-06 9.59163e-07 8.81242e-05
0.000716871 -7.59513e-05 -1.3789e-05
-7.59513e-05 6.59658e-05 1.27963e-05
-1.3789e-05 1.27963e-05 5.66462e-07
0.000828999 -0.000177228 -7.84133e-06
-0.000177228 8.91439e-05 6.77731e-06
-7.84133e-06 6.77731e-06 -7.26575e-05
0.00100643 -0.000227824 -5.50907e-06
-0.000227824 2.75592e-05 2.04548e-06
-5.50907e-06 2.04548e-06 -0.000169307
0.00170002 -0.000188154 -7.99231e-06
-0.000188154 0.000283687 2.30118e-06
-7.99231e-06 2.30118e-06 0.000128132
0.00184371 -0.000199739 5.64903e-07
-0.000199739 0.000208035 -9.72074e-07
5.64903e-07 -9.72074e-07 7.43687e-05
0.00158902 -0.000247842 -1.47794e-06
-0.000247842 0.000144511 -5.54616e-07
-1.47794e-06 -5.54616e-07 -2.39961e-05
0.00166806 -0.000309691 -5.34401e-06
-0.000309691 0.000278418 -2.86909e-07
-5.34401e-06 -2.86909e-07 6.8061e-05
0.00175339 -0.000301461 3.24062e-06
-0.000301461 0.00020443 -2.74946e-06
3.24062e-06 -2.74946e-06 2.83505e-05
0.000718514 -0.000113692 -4.06858e-06
-0.000113692 7.83896e-05 4.60942e-06
-4.06858e-06 4.60942e-06 -5.43279e-05
0.00051598 -7.88098e-05 -9.78123e-07
-7.88098e-05 -2.98696e-05 -8.82053e-07
-9.78123e-07 -8.82053e-07 -0.000184197
0.000645657 -3.77177e-05 -1.00957e-06
-3.77177e-05 4.49893e-05 3.51729e-06
-1.00957e-06 3.51729e-06 -5.66846e-05
0.00155192 -1.62189e-05 -2.21398e-06
-1.62189e-05 0.000133876 1.3303e-07
-2.21398e-06 1.3303e-07 1.00737e-05
0.00172698 -8.90407e-05 -2.7075e-06
-8.90407e-05 0.000241639 4.44654e-07
-2.7075e-06 4.44654e-07 0.000113401
0.00171141 -6.34793e-05 1.24279e-06
-6.34793e-05 8.97849e-05 5.47145e-07
1.24279e-06 5.47145e-07 -1.2956e-05
0.00171977 -0.000154623 -1.54082e-06
-0.000154623 0.000111057 4.57954e-07
-1.54082e-06 4.57954e-07 -1.6101e-05
0.000756868 -0.000145216 4.48565e-07
-0.000145216 9.51571e-05 3.48816e-07
4.48565e-07 3.48816e-07 -5.42397e-05
0.00109703 -0.000230663 -1.69304e-06
-0.000230663 0.000176813 -6.84819e-07
-1.69304e-06 -6.84819e-07 -2.61652e-05
0.00130369 -0.000293842 1.71601e-06
-0.000293842 0.000145395 -3.82782e-07
1.71601e-06 -3.82782e-07 -8.24702e-05
0.00160956 -0.000226278 -6.70582e-07
-0.000226278 0.000121001 5.21525e-07
-6.70582e-07 5.21525e-07 -3.32698e-05
0.00183996 -0.000219917 1.56546e-06
-0.000219917 0.000153171 1.53013e-07
1.56546e-06 1.53013e-07 4.16633e-05
0.00177192 -0.000346994 -8.84769e-07
-0.000346994 0.000273145 5.17991e-07
-8.84769e-07 5.17991e-07 5.69066e-05
0.00171613 -0.000281112 1.25134e-07
-0.000281112 0.000145538 3.04068e-07
1.25134e-07 3.04068e-07 -9.25818e-06
0.00198829 -0.000326945 1.78314e-06
-0.000326945 0.000315027 -3.92239e-07
1.78314e-06 -3.92239e-07 0.00015493
0.00096116 -0.000169727 3.59001e-07
-0.000169727 0.000209692 8.04949e-07
3.59001e-07 8.04949e-07 4.40674e-05
0.00113882 -0.000207068 -3.94675e-07
-0.000207068 0.000326861 1.51138e-07
-3.94675e-07 1.51138e-07 0.000142265
0.000642134 -2.73729e-05 3.15065e-08
-2.73729e-05 4.21012e-05 2.06229e-07
3.15065e-08 2.06229e-07 -4.49573e-05
0.00039074 -3.74028e-05 -1.42176e-07
-3.74028e-05 -9.02607e-05 -5.79339e-07
-1.42176e-07 -5.79339e-07 -0.000234475
0.00174161 -3.53617e-05 -2.21543e-06
-3.53617e-05 0.000104188 2.18482e-07
-2.21543e-06 2.18482e-07 3.27638e-06
0.00184908 -0.000106341 -9.73134e-07
-0.000106341 0.000170308 1.36259e-06
-9.73134e-07 1.36259e-06 5.78978e-05
0.00167626 -7.53414e-05 1.1362e-06
-7.53414e-05 1.16471e-05 -2.21215e-08
1.1362e-06 -2.21215e-08 -7.13346e-05
0.00176438 -0.000180937 -3.74625e-06
-0.000180937 6.60541e-05 8.47385e-07
-3.74625e-06 8.47385e-07 -2.76442e-05
0.00172709 -0.000250616 -3.78533e-06
-0.000250616 0.000118049 2.88458e-06
-3.78533e-06 2.88458e-06 -1.28348e-05
0.0019946 -0.000224855 1.80637e-06
-0.000224855 0.000225059 -4.97809e-07
1.80637e-06 -4.97809e-07 0.000129715
0.000952967 -0.000200476 8.02121e-07
-0.000200476 0.00017192 -3.59629e-06
8.02121e-07 -3.59629e-06 -1.32846e-05
0.0016383 -0.000294518 -4.83447e-06
-0.000294518 7.30802e-05 2.74334e-06
-4.83447e-06 2.74334e-06 -5.94165e-05
0.00118647 -0.000271891 2.19365e-06
-0.000271891 0.0001852 -4.49105e-06
2.19365e-06 -4.49105e-06 -4.51498e-05
0.00162234 -0.000366902 5.71866e-07
-0.000366902 0.000272193 1.11568e-06
5.71866e-07 1.11568e-06 1.93058e-05
0.00172841 -0.000358486 8.19981e-07
-0.000358486 0.000200796 5.276e-06
8.19981e-07 5.276e-06 -1.16146e-05
0.00195928 -0.000314 -2.88872e-07
-0.000314 0.000287065 1.26654e-06
-2.88872e-07 1.26654e-06 0.000134549
0.000553953 -2.84787e-05 1.02572e-06
-2.84787e-05 -1.00336e-05 -3.09795e-06
1.02572e-06 -3.09795e-06 -8.53001e-05
0.000451704 -3.16232e-05 -1.41378e-06
-3.16232e-05 -4.49489e-05 -1.24102e-06
-1.41378e-06 -1.24102e-06 -0.000178912
0.000864709 -0.000201408 -6.37129e-07
-0.000201408 0.000130751 6.92176e-07
-6.37129e-07 6.92176e-07 -5.0503e-05
0.000802865 -0.000142972 4.91528e-07
-0.000142972 0.000169328 1.77735e-06
4.91528e-07 1.77735e-06 -8.66033e-06
0.00138552 -0.00024909 -3.31175e-06
-0.00024909 0.00045742 3.32695e-06
-3.31175e-06 3.32695e-06 0.000270319
0.000508144 -6.00147e-05 -5.74715e-07
-6.00147e-05 -4.23993e-05 -4.88225e-06
-5.74715e-07 -4.88225e-06 -6.88813e-05
0.00139544 0.000183181 -4.60825e-06
0.000183181 9.00448e-05 -1.32765e-06
-4.60825e-06 -1.32765e-06 -7.437e-05
0.000520596 -4.0528e-05 -2.60283e-07
-4.0528e-05 -2.484e-05 -3.30927e-06
-2.60283e-07 -3.30927e-06 -0.000101567
0.000715668 7.25973e-05 -1.91832e-06
7.25973e-05 8.46273e-05 -4.63143e-06
-1.91832e-06 -4.63143e-06 -4.09215e-05
0.000711679 4.39546e-05 1.6824e-06
4.39546e-05 0.000110308 -1.62463e-06
1.6824e-06 -1.62463e-06 -3.60989e-05
0.00127282 0.000219222 -6.60309e-06
0.000219222 0.000105925 -2.41302e-06
-6.60309e-06 -2.41302e-06 -7.62829e-05
0.00164505 0.000274507 -9.72901e-08
0.000274507 0.00016431 6.86494e-07
-9.72901e-08 6.86494e-07 -1.95451e-05
0.000879146 0.000195338 -1.48001e-06
0.000195338 0.000126429 -3.52721e-06
-1.48001e-06 -3.52721e-06 -7.34179e-05
0.000984844 0.000245798 -1.53373e-06
0.000245798 3.38845e-05 -3.04445e-06
-1.53373e-06 -3.04445e-06 -0.000204374
0.00175279 0.000299669 -2.84265e-06
0.000299669 0.000368914 -8.37067e-07
-2.84265e-06 -8.37067e-07 0.000162983
0.00145258 0.000281462 -5.47533e-06
0.000281462 0.000178998 1.838e-06
-5.47533e-06 1.838e-06 -3.23282e-05
0.000550456 -5.19715e-05 2.86355e-08
-5.19715e-05 -2.94005e-05 1.45194e-09
2.86355e-08 1.45194e-09 -5.13343e-05
0.000634156 -2.26481e-05 -6.30168e-07
-2.26481e-05 2.87797e-05 3.03536e-07
-6.30168e-07 3.03536e-07 -3.29188e-05
0.000936529 0.000161216 -1.93828e-07
0.000161216 0.00020721 9.00549e-07
-1.93828e-07 9.00549e-07 3.75198e-05
0.00070116 1.11575e-05 -6.40031e-07
1.11575e-05 0.000106734 4.55139e-07
-6.40031e-07 4.55139e-07 -1.70906e-05
0.000659867 0.0001109 6.26629e-07
0.0001109 6.42782e-05 -8.0362e-07
6.26629e-07 -8.0362e-07 -0.000104673
0.00170617 0.000243149 -8.06676e-08
0.000243149 0.000153903 -8.1132e-07
-8.06676e-08 -8.1132e-07 -1.03934e-05
0.00154276 0.000292332 4.93691e-07
0.000292332 0.000170223 1.68407e-07
4.93691e-07 1.68407e-07 -2.95312e-05
0.00171881 0.00030957 1.7582e-06
0.00030957 0.00016691 2.12358e-07
1.7582e-06 2.12358e-07 -1.12321e-05
0.00119623 0.000252736 1.03953e-06
0.000252736 0.00028423 1.87552e-06
1.03953e-06 1.87552e-06 4.91742e-05
0.00178983 0.000347071 6.28703e-07
0.000347071 0.000313926 2.05929e-07
6.28703e-07 2.05929e-07 9.92249e-05
0.00121863 0.000272488 -1.81074e-06
0.000272488 0.000107475 1.08083e-07
-1.81074e-06 1.08083e-07 -0.000127349
0.000682423 -9.07178e-06 2.19621e-06
-9.07178e-06 4.72451e-05 2.48172e-06
2.19621e-06 2.48172e-06 -6.75631e-06
0.000831398 4.87863e-05 7.63565e-07
4.87863e-05 0.000172857 2.72463e-06
7.63565e-07 2.72463e-06 7.04136e-05
0.00106837 0.000222559 -2.21215e-06
0.000222559 0.000263494 -7.27958e-07
-2.21215e-06 -7.27958e-07 7.18594e-05
0.00118073 8.06736e-05 2.21068e-07
8.06736e-05 0.000391094 9.438e-07
2.21068e-07 9.438e-07 0.000235434
0.00113238 0.000130227 -5.18674e-06
0.000130227 0.000302851 -6.01652e-06
-5.18674e-06 -6.01652e-06 0.000141867
0.00175246 0.000254373 -2.83227e-06
0.000254373 0.000146255 -2.58855e-06
-2.83227e-06 -2.58855e-06 -2.51863e-06
0.00174942 0.000351843 1.6624e-06
0.000351843 0.000233796 2.43851e-07
1.6624e-06 2.43851e-07 3.03899e-05
0.00152594 0.000329425 3.93923e-06
0.000329425 2.77998e-05 -9.01951e-07
3.93923e-06 -9.01951e-07 -0.000148035
0.000882449 0.000238614 -2.13469e-07
0.000238614 7.63142e-05 3.34409e-06
-2.13469e-07 3.34409e-06 -0.000170768
0.00145392 0.00033336 5.87751e-06
0.00033336 0.000152249 -6.44795e-07
5.87751e-06 -6.44795e-07 -7.95046e-05
0.000636765 -1.04708e-05 -1.78851e-07
-1.04708e-05 1.7408e-05 1.4754e-08
-1.78851e-07 1.4754e-08 -3.30932e-05
0.000562113 2.06978e-05 1.50344e-06
2.06978e-05 -8.96928e-06 1.51399e-06
1.50344e-06 1.51399e-06 -8.72588e-05
0.000557585 8.82619e-06 -5.86545e-07
8.82619e-06 -6.85773e-06 -9.16832e-08
-5.86545e-07 -9.16832e-08 -8.52849e-05
0.000927175 8.57048e-05 4.16391e-07
8.57048e-05 0.000223836 -3.8102e-07
4.16391e-07 -3.8102e-07 0.000125859
0.000686779 6.55136e-05 1.83509e-06
6.55136e-05 7.56232e-05 1.33248e-06
1.83509e-06 1.33248e-06 -6.07509e-06
0.000631546 2.41118e-05 1.95747e-06
2.41118e-05 2.01095e-05 2.30171e-06
1.95747e-06 2.30171e-06 -2.92869e-05
0.000629328 -1.16875e-05 -6.39739e-07
-1.16875e-05 1.57803e-05 9.59329e-09
-6.39739e-07 9.59329e-09 -3.34118e-05
0.00125018 -3.95598e-05 7.85285e-07
-3.95598e-05 0.000368851 2.52188e-06
7.85285e-07 2.52188e-06 0.000357476
0.000630441 -2.20245e-05 -1.07604e-06
-2.20245e-05 1.43217e-05 -2.30943e-06
-1.07604e-06 -2.30943e-06 -3.50693e-05
0.0012959 -4.86035e-05 -5.26569e-06
-4.86035e-05 0.000399721 -1.38633e-06
-5.26569e-06 -1.38633e-06 0.000386917
0.000866868 -3.97302e-05 2.28939e-05
-3.97302e-05 0.000153495 7.48951e-06
2.28939e-05 7.48951e-06 0.000158499
0.00131288 -5.70651e-05 -9.48724e-06
-5.70651e-05 0.000415863 -3.84404e-06
-9.48724e-06 -3.84404e-06 0.000400836
0.0015736 -6.57406e-05 2.06861e-05
-6.57406e-05 0.000583178 1.92051e-06
2.06861e-05 1.92051e-06 0.000588449
0.0023022 -9.35842e-05 -2.87042e-05
-9.35842e-05 0.00102473 -3.55627e-06
-2.87042e-05 -3.55627e-06 0.00103056
0.000484795 6.14035e-05 -1.76655e-06
6.14035e-05 -5.37702e-05 -5.12565e-06
-1.76655e-06 -5.12565e-06 -8.3349e-05
0.00052024 2.51932e-05 3.22599e-07
2.51932e-05 -3.31987e-05 2.89693e-07
3.22599e-07 2.89693e-07 -6.60486e-05
0.002694 0.000114992 3.55543e-05
0.000114992 0.00126597 -3.39311e-06
3.55543e-05 -3.39311e-06 0.00126536
0.00312299 0.000110305 -6.53367e-06
0.000110305 0.00152308 -3.81745e-07
-6.53367e-06 -3.81745e-07 0.00152335
0.000624068 5.15689e-06 -4.68869e-06
5.15689e-06 2.79812e-05 7.73331e-06
-4.68869e-06 7.73331e-06 -1.18608e-05
0.00359788 0.000106638 -0.000108664
0.000106638 0.00180513 5.61369e-06
-0.000108664 5.61369e-06 0.00180556
0.00142313 0.000155725 -4.19262e-06
0.000155725 7.74999e-05 -7.19865e-07
-4.19262e-06 -7.19865e-07 -7.62227e-05
0.00143541 8.87093e-05 -2.75376e-06
8.87093e-05 5.84241e-05 -1.64183e-07
-2.75376e-06 -1.64183e-07 -7.67287e-05
0.00173784 0.00016338 -2.34432e-07
0.00016338 0.00012023 1.13206e-06
-2.34432e-07 1.13206e-06 -9.33502e-06
0.00184626 8.08284e-05 1.12414e-06
8.08284e-05 0.00014087 8.76804e-07
1.12414e-06 8.76804e-07 4.01327e-05
0.00141138 3.49805e-05 -2.35804e-06
3.49805e-05 4.55866e-05 -4.10657e-08
-2.35804e-06 -4.10657e-08 -7.98342e-05
0.00100359 6.65683e-06 -1.20882e-05
6.65683e-06 -2.6139e-05 -2.97945e-08
-1.20882e-05 -2.97945e-08 -0.00014407
0.00140864 1.0051e-05 7.58645e-08
1.0051e-05 4.76159e-05 4.0315e-08
7.58645e-08 4.0315e-08 -7.65547e-05
0.00179497 3.49695e-05 -1.66129e-06
3.49695e-05 0.000124139 1.93279e-08
-1.66129e-06 1.93279e-08 2.8601e-05
0.00177464 0.000127641 -2.19015e-07
0.000127641 0.000110369 1.15579e-07
-2.19015e-07 1.15579e-07 -5.77998e-06
0.00179434 8.16649e-05 2.06018e-06
8.16649e-05 4.92068e-05 8.86327e-07
2.06018e-06 8.86327e-07 -2.58279e-05
0.00172621 0.000202444 -2.8059e-07
0.000202444 0.000136435 -7.03238e-08
-2.8059e-07 -7.03238e-08 -8.8855e-06
0.00176238 0.000184433 -4.25634e-07
0.000184433 6.74687e-05 9.83328e-07
-4.25634e-07 9.83328e-07 -3.39567e-05
0.00177778 2.60723e-06 -2.15371e-06
2.60723e-06 0.000122016 3.51656e-07
-2.15371e-06 3.51656e-07 2.64227e-05
0.00173347 4.05382e-05 1.95712e-06
4.05382e-05 2.59608e-05 3.72474e-07
1.95712e-06 3.72474e-07 -4.51013e-05
0.00186275 0.000138314 -1.32225e-06
0.000138314 9.81291e-05 -7.96825e-07
-1.32225e-06 -7.96825e-07 1.379e-05
0.00180268 8.94523e-05 4.49363e-06
8.94523e-05 3.26901e-05 5.23808e-07
4.49363e-06 5.23808e-07 -2.53632e-05
0.0017164 0.000203349 -8.03116e-07
0.000203349 8.28781e-05 -2.50399e-06
-8.03116e-07 -2.50399e-06 -3.85213e-05
0.00187726 0.000194477 3.3761e-06
0.000194477 9.6234e-05 6.53306e-07
3.3761e-06 6.53306e-07 1.19243e-05
0.00143146 -1.43101e-05 -4.41294e-06
-1.43101e-05 6.1952e-05 7.54132e-08
-4.41294e-06 7.54132e-08 -6.25211e-05
0.00173691 -9.34837e-05 -6.24457e-06
-9.34837e-05 0.000246736 6.89056e-07
-6.24457e-06 6.89056e-07 0.000117993
0.00173646 -6.14526e-05 2.98155e-06
-6.14526e-05 0.000104218 -1.17023e-06
2.98155e-06 -1.17023e-06 6.26251e-06
0.00171631 -0.000151851 -6.41286e-08
-0.000151851 0.000107892 -1.64697e-07
-6.41286e-08 -1.64697e-07 -2.01984e-05
0.000879313 -0.00017013 -5.27101e-06
-0.00017013 0.000169369 7.03726e-06
-5.27101e-06 7.03726e-06 1.57563e-05
0.00101712 -0.000224156 -5.52514e-06
-0.000224156 0.000123595 3.45553e-06
-5.52514e-06 3.45553e-06 -7.75183e-05
0.00107658 -0.000268561 -1.84041e-06
-0.000268561 1.9263e-05 5.37111e-07
-1.84041e-06 5.37111e-07 -0.000204423
0.00161327 -0.000225475 -1.17975e-06
-0.000225475 0.000125062 1.38925e-07
-1.17975e-06 1.38925e-07 -3.20221e-05
0.00188367 -0.00022095 3.73855e-06
-0.00022095 0.000180712 -1.81066e-06
3.73855e-06 -1.81066e-06 7.34497e-05
0.00174961 -0.000281786 2.60041e-06
-0.000281786 0.000165224 -1.43385e-06
2.60041e-06 -1.43385e-06 1.07015e-05
0.00168869 -0.000348549 -3.55486e-07
-0.000348549 0.000220648 -1.991e-06
-3.55486e-07 -1.991e-06 1.42072e-06
0.00201119 -0.000324844 5.64336e-06
-0.000324844 0.000329253 -6.47452e-06
5.64336e-06 -6.47452e-06 0.000172407
0.000924389 -0.000170708 -1.63641e-07
-0.000170708 0.000189951 1.52797e-06
-1.63641e-07 1.52797e-06 2.38351e-05
0.000663997 -0.000148385 2.5436e-08
-0.000148385 3.84649e-05 -5.92298e-07
2.5436e-08 -5.92298e-07 -0.000133156
0.000708107 -3.18419e-05 -1.18882e-06
-3.18419e-05 7.87724e-05 3.42162e-06
-1.18882e-06 3.42162e-06 -8.60874e-06
0.000341646 -1.04034e-05 8.63637e-07
-1.04034e-05 -0.000123555 -1.43633e-06
8.63637e-07 -1.43633e-06 -0.000261241
0.00173178 -3.53746e-05 4.37995e-09
-3.53746e-05 9.86278e-05 8.64686e-08
4.37995e-09 8.64686e-08 -2.46041e-06
0.00177442 -0.000105252 3.1445e-07
-0.000105252 0.000128656 -2.91478e-07
3.1445e-07 -2.91478e-07 1.41339e-05
0.00171936 -7.46566e-05 2.01744e-06
-7.46566e-05 3.68356e-05 -4.97571e-07
2.01744e-06 -4.97571e-07 -4.22066e-05
0.00173837 -0.000177658 -1.66987e-06
-0.000177658 5.75636e-05 6.94924e-07
-1.66987e-06 6.94924e-07 -3.81765e-05
0.000981533 -0.000195376 -8.54886e-07
-0.000195376 0.000189714 9.24176e-07
-8.54886e-07 9.24176e-07 5.5317e-06
0.000994867 -0.00025144 1.11949e-06
-0.00025144 7.19228e-05 -1.79501e-06
1.11949e-06 -1.79501e-06 -0.00015273
0.00161608 -0.000369416 3.68319e-08
-0.000369416 0.000268123 7.63128e-07
3.68319e-08 7.63128e-07 1.17824e-05
0.00167901 -0.000247405 -1.49974e-06
-0.000247405 9.51923e-05 7.54224e-07
-1.49974e-06 7.54224e-07 -3.92224e-05
0.00183985 -0.000221216 2.09445e-06
-0.000221216 0.000130625 -1.10528e-06
2.09445e-06 -1.10528e-06 3.93935e-05
0.00172879 -0.00035996 -7.36807e-07
-0.00035996 0.000204593 6.57782e-07
-7.36807e-07 6.57782e-07 -8.87503e-06
0.00169727 -0.000297464 -5.38383e-07
-0.000297464 0.000105513 1.07023e-06
-5.38383e-07 1.07023e-06 -2.73603e-05
0.00183825 -0.000307294 3.47514e-06
-0.000307294 0.000203448 -5.19422e-06
3.47514e-06 -5.19422e-06 5.5386e-05
0.00102836 -0.000217049 6.1294e-07
-0.000217049 0.000223819 1.41846e-06
6.1294e-07 1.41846e-06 3.9784e-05
0.00121775 -0.000227129 2.95908e-06
-0.000227129 0.000351171 1.16411e-06
2.95908e-06 1.16411e-06 0.000172393
0.000780357 -0.00010993 -1.98826e-07
-0.00010993 0.000151227 -1.92723e-07
-1.98826e-07 -1.92723e-07 -2.59987e-05
0.000473109 -5.16443e-06 -1.25131e-06
-5.16443e-06 -5.77845e-05 3.7552e-07
-1.25131e-06 3.7552e-07 -0.000134524
0.000413421 -1.53657e-06 -3.70637e-07
-1.53657e-06 -6.99519e-05 -6.71854e-07
-3.70637e-07 -6.71854e-07 -0.000198162
0.00180084 -4.93855e-05 8.72561e-07
-4.93855e-05 7.23914e-05 -7.10938e-07
8.72561e-07 -7.10938e-07 2.14318e-06
0.00185231 -0.000105464 2.05667e-06
-0.000105464 9.67457e-05 2.81999e-07
2.05667e-06 2.81999e-07 1.93656e-05
0.00180133 -0.000212099 3.56502e-08
-0.000212099 6.57693e-05 -1.29866e-06
3.56502e-08 -1.29866e-06 -1.02905e-05
0.00162519 -0.00024688 -9.37249e-07
-0.00024688 2.71925e-05 3.00724e-07
-9.37249e-07 3.00724e-07 -7.70487e-05
0.00105178 -0.000233337 -1.81831e-06
-0.000233337 0.000201777 -3.99702e-06
-1.81831e-06 -3.99702e-06 -4.40471e-06
0.00221263 -0.000353316 -3.46352e-06
-0.000353316 0.000345055 9.66356e-07
-3.46352e-06 9.66356e-07 0.000215844
0.000983599 -0.000288122 2.01973e-06
-0.000288122 3.34525e-05 -3.71254e-06
2.01973e-06 -3.71254e-06 -0.000217663
0.00168388 -0.0004109 5.70906e-07
-0.0004109 0.000264578 2.32472e-06
5.70906e-07 2.32472e-06 -5.14901e-06
0.00162857 -0.000347843 1.85903e-06
-0.000347843 0.000115594 4.0264e-06
1.85903e-06 4.0264e-06 -8.81886e-05
0.00027228 1.24787e-05 2.8465e-07
1.24787e-05 -0.000175652 -3.45519e-06
2.8465e-07 -3.45519e-06 -0.00024209
0.000738544 -3.66819e-05 3.53288e-07
-3.66819e-05 0.000133003 -8.65813e-07
3.53288e-07 -8.65813e-07 1.26936e-05
0.000942465 -6.61047e-05 -1.45485e-06
-6.61047e-05 0.000239098 7.14425e-07
-1.45485e-06 7.14425e-07 8.7452e-05
0.00113679 -0.000234723 -5.40946e-06
-0.000234723 0.000272823 1.45647e-09
-5.40946e-06 1.45647e-09 8.3861e-05
0.000511499 -0.000123222 2.6444e-06
-0.000123222 -1.55658e-05 3.42273e-06
2.6444e-06 3.42273e-06 -0.000206759
0.000622804 -0.000192421 -7.89123e-07
-0.000192421 -2.83355e-05 3.86628e-08
-7.89123e-07 3.86628e-08 -0.000202149
0.000554191 -5.01854e-05 -1.03374e-06
-5.01854e-05 -2.81464e-05 -4.55569e-06
-1.03374e-06 -4.55569e-06 -4.96506e-05
0.000578903 -2.5895e-05 -1.84045e-06
-2.5895e-05 -2.28842e-06 -2.54513e-06
-1.84045e-06 -2.54513e-06 -6.38428e-05
0.00168963 0.000243714 -1.15887e-06
0.000243714 0.000141303 -1.60823e-07
-1.15887e-06 -1.60823e-07 -2.34587e-05
0.000549339 -6.37986e-05 1.37752e-06
-6.37986e-05 1.63731e-05 -2.61855e-06
1.37752e-06 -2.61855e-06 -0.000101845
0.000804959 0.000145404 -1.36086e-06
0.000145404 0.00013177 5.93693e-07
-1.36086e-06 5.93693e-07 -3.44855e-05
0.000214822 6.52327e-05 1.54349e-06
6.52327e-05 -0.000203736 1.60391e-06
1.54349e-06 1.60391e-06 -0.000364524
0.00155324 0.000292992 -4.97213e-07
0.000292992 0.000176981 2.57537e-07
-4.97213e-07 2.57537e-07 -2.3094e-05
0.00164321 0.000306117 2.21087e-07
0.000306117 0.000124539 2.66976e-07
2.21087e-07 2.66976e-07 -5.38873e-05
0.000971301 0.000232388 1.14574e-06
0.000232388 0.000159927 -1.63555e-06
1.14574e-06 -1.63555e-06 -7.52084e-05
0.00160794 0.000304221 -1.26064e-06
0.000304221 0.000332619 -7.32667e-07
-1.26064e-06 -7.32667e-07 9.57722e-05
0.00174017 0.000342737 -2.83023e-06
0.000342737 0.000272977 -5.56977e-07
-2.83023e-06 -5.56977e-07 5.77627e-05
0.000633906 -9.65258e-06 -3.18771e-07
-9.65258e-06 1.97538e-05 1.6667e-07
-3.18771e-07 1.6667e-07 -3.42176e-05
0.000699113 -6.13488e-06 -9.75784e-07
-6.13488e-06 9.31076e-05 4.09312e-07
-9.75784e-07 4.09312e-07 -4.86406e-06
0.00109217 0.000224997 -8.72036e-07
0.000224997 0.000278425 -4.37209e-08
-8.72036e-07 -4.37209e-08 8.66278e-05
0.000833634 3.27246e-05 3.67325e-07
3.27246e-05 0.000183277 -2.10453e-07
3.67325e-07 -2.10453e-07 3.46926e-05
0.000836375 0.000142363 8.97372e-07
0.000142363 0.000145446 1.16629e-06
8.97372e-07 1.16629e-06 -2.28202e-05
0.00173072 0.00025599 -1.85259e-06
0.00025599 0.000134661 -1.3972e-06
-1.85259e-06 -1.3972e-06 -1.53413e-05
0.00171897 0.000349201 1.45298e-06
0.000349201 0.000213098 4.08608e-07
1.45298e-06 4.08608e-07 9.84708e-06
0.00166285 0.000334355 4.7581e-07
0.000334355 0.000107895 8.29813e-08
4.7581e-07 8.29813e-08 -6.68554e-05
0.000825875 0.000239145 2.56007e-07
0.000239145 3.60821e-05 3.16774e-06
2.56007e-07 3.16774e-06 -0.000210786
0.00159335 0.000345235 -1.6906e-06
0.000345235 0.000243242 -8.57826e-07
-1.6906e-06 -8.57826e-07 8.11293e-06
0.000776476 3.30861e-05 8.3496e-07
3.30861e-05 0.00012803 1.90654e-06
8.3496e-07 1.90654e-06 4.11987e-05
0.000400599 -8.79963e-06 -1.73608e-06
-8.79963e-06 -7.50012e-05 3.07222e-06
-1.73608e-06 3.07222e-06 -0.000192447
0.00106864 0.00023652 -3.44112e-06
0.00023652 0.00021931 -1.02935e-06
-3.44112e-06 -1.02935e-06 1.81453e-05
0.00066051 0.000106237 -4.57133e-06
0.000106237 0.000105215 -4.18355e-06
-4.57133e-06 -4.18355e-06 -7.22243e-05
0.000785944 0.000206393 -1.05389e-06
0.000206393 8.83845e-05 -2.5299e-06
-1.05389e-06 -2.5299e-06 -8.75749e-05
0.0016137 0.000271575 -1.6187e-08
0.000271575 -1.07873e-06 -2.17648e-06
-1.6187e-08 -2.17648e-06 -0.000126465
0.00189726 0.000388888 3.56679e-06
0.000388888 0.00029663 -1.93826e-06
3.56679e-06 -1.93826e-06 8.11212e-05
0.00154228 0.000346195 3.29597e-06
0.000346195 2.58876e-05 1.84556e-07
3.29597e-06 1.84556e-07 -0.000150554
0.00157842 0.000317505 2.8746e-06
0.000317505 0.00040466 7.25157e-06
2.8746e-06 7.25157e-06 0.000137864
0.00165037 0.000375135 -1.15264e-06
0.000375135 0.000278194 -8.61142e-07
-1.15264e-06 -8.61142e-07 3.59953e-05
0.000615534 -2.14404e-05 -1.39725e-06
-2.14404e-05 6.39683e-06 -2.41976e-06
-1.39725e-06 -2.41976e-06 -4.49597e-05
0.000627941 2.49809e-05 9.51886e-07
2.49809e-05 3.17519e-05 3.3213e-07
9.51886e-07 3.3213e-07 -4.72741e-05
0.000532467 1.77694e-06 -2.88777e-07
1.77694e-06 -2.11893e-05 1.00463e-06
-2.88777e-07 1.00463e-06 -0.00010731
0.000450584 -3.01961e-05 -6.6999e-07
-3.01961e-05 -7.07532e-05 -1.29858e-06
-6.6999e-07 -1.29858e-06 -0.000148215
0.000669035 3.22364e-05 -2.53491e-07
3.22364e-05 6.4115e-05 2.59066e-08
-2.53491e-07 2.59066e-08 -1.61026e-05
0.000692216 4.27962e-05 -2.65017e-07
4.27962e-05 7.5125e-05 -3.55268e-07
-2.65017e-07 -3.55268e-07 -1.39838e-05
0.000825505 7.31236e-05 -1.18727e-06
7.31236e-05 0.000161782 -1.56922e-06
-1.18727e-06 -1.56922e-06 6.29762e-05
0.000535467 -1.50782e-05 6.31028e-07
-1.50782e-05 -3.74437e-06 3.64768e-07
6.31028e-07 3.64768e-07 -0.000102736
0.000693338 5.45706e-05 8.88385e-07
5.45706e-05 7.51633e-05 1.43232e-06
8.88385e-07 1.43232e-06 -1.82769e-06
0.000637863 3.06896e-05 2.00696e-06
3.06896e-05 2.81856e-05 2.33114e-06
2.00696e-06 2.33114e-06 -2.23208e-05
0.000629069 -2.14416e-06 -1.08368e-06
-2.14416e-06 1.87217e-05 1.16632e-08
-1.08368e-06 1.16632e-08 -3.0694e-05
0.00125497 -2.76069e-05 8.81144e-07
-2.76069e-05 0.000369735 2.45728e-06
8.81144e-07 2.45728e-06 0.000359357
0.000600857 -4.3281e-05 -1.71644e-07
-4.3281e-05 1.89901e-06 -2.28047e-06
-1.71644e-07 -2.28047e-06 -4.88822e-05
0.00129688 -3.65065e-05 -4.53219e-06
-3.65065e-05 0.000396275 -1.44228e-06
-4.53219e-06 -1.44228e-06 0.000385178
0.000866957 -3.23926e-05 1.91846e-05
-3.23926e-05 0.000148086 7.81997e-06
1.91846e-05 7.81997e-06 0.000154561
0.00133347 -4.63056e-05 -8.33618e-06
-4.63056e-05 0.000421585 -5.44382e-06
-8.33618e-06 -5.44382e-06 0.000409012
0.000812517 -4.06503e-05 7.05818e-06
-4.06503e-05 0.000120802 2.93557e-06
7.05818e-06 2.93557e-06 0.000125274
0.00223827 -8.77745e-05 -4.79316e-06
-8.77745e-05 0.000978753 -1.92554e-06
-4.79316e-06 -1.92554e-06 0.000985949
0.000516304 4.45875e-05 -5.32548e-07
4.45875e-05 -4.77584e-05 -3.93279e-06
-5.32548e-07 -3.93279e-06 -6.84065e-05
0.000521466 4.44842e-05 -7.47311e-07
4.44842e-05 -3.55952e-05 2.81395e-08
-7.47311e-07 2.81395e-08 -6.33134e-05
0.00248234 9.93828e-05 2.64329e-05
9.93828e-05 0.00113387 -3.63691e-06
2.64329e-05 -3.63691e-06 0.00113736
0.000577024 1.22631e-05 -3.78138e-06
1.22631e-05 -2.29893e-06 6.3658e-06
-3.78138e-06 6.3658e-06 -3.40369e-05
0.00281556 0.000115447 -8.79863e-06
0.000115447 0.00133738 -5.41773e-07
-8.79863e-06 -5.41773e-07 0.00133688
0.00324101 9.87166e-05 -9.06192e-05
9.87166e-05 0.00159027 4.59098e-06
-9.06192e-05 4.59098e-06 0.00159325
0.00170402 0.000202886 -1.63403e-06
0.000202886 0.000119941 7.1572e-07
-1.63403e-06 7.1572e-07 -2.59287e-05
0.00178711 0.000125509 1.15956e-06
0.000125509 0.000118334 1.2348e-06
1.15956e-06 1.2348e-06 2.42927e-06
0.0018029 0.000182461 1.18127e-06
0.000182461 8.82339e-05 2.19785e-06
1.18127e-06 2.19785e-06 -1.03241e-05
0.00183914 8.08343e-05 1.66533e-06
8.08343e-05 7.62108e-05 1.19072e-06
1.66533e-06 1.19072e-06 6.61141e-06
0.00179744 2.8025e-05 -4.21248e-07
2.8025e-05 0.000127082 1.41032e-07
-4.21248e-07 1.41032e-07 3.18718e-05
0.00140635 1.27743e-05 -2.25738e-06
1.27743e-05 4.69071e-05 5.34472e-08
-2.25738e-06 5.34472e-08 -7.72817e-05
0.00174833 3.96508e-06 -1.37526e-06
3.96508e-06 0.000103451 1.51606e-08
-1.37526e-06 1.51606e-08 5.76243e-06
0.00177655 3.84767e-05 1.81779e-06
3.84767e-05 5.41831e-05 -8.53801e-09
1.81779e-06 -8.53801e-09 -1.86947e-05
0.00185829 0.000136928 -1.41453e-06
0.000136928 9.7674e-05 -6.35138e-07
-1.41453e-06 -6.35138e-07 1.27861e-05
0.00182735 9.03561e-05 1.92528e-06
9.03561e-05 4.49934e-05 5.31592e-07
1.92528e-06 5.31592e-07 -9.95876e-06
0.00174041 0.00020237 -8.00396e-07
0.00020237 0.000104427 -2.58617e-07
-8.00396e-07 -2.58617e-07 -1.69816e-05
0.00183897 0.000195792 3.5901e-06
0.000195792 7.37154e-05 1.46258e-06
3.5901e-06 1.46258e-06 -7.29599e-06
0.00179368 -7.21881e-06 -5.77936e-08
-7.21881e-06 7.81605e-05 1.13348e-07
-5.77936e-08 1.13348e-07 5.54072e-06
0.0018571 4.31502e-05 4.50723e-06
4.31502e-05 4.9351e-05 1.17655e-07
4.50723e-06 1.17655e-07 8.41627e-06
0.0018662 0.000141211 3.3679e-06
0.000141211 6.40106e-05 8.08801e-07
3.3679e-06 8.08801e-07 2.72536e-06
0.00187176 0.000240326 7.62442e-07
0.000240326 0.000107186 -8.34573e-07
7.62442e-07 -8.34573e-07 1.28045e-05
0.00172377 -3.53803e-05 1.31289e-06
-3.53803e-05 9.43866e-05 -1.01736e-08
1.31289e-06 -1.01736e-08 -6.86408e-06
0.00169962 -0.00010585 2.33235e-06
-0.00010585 8.70964e-05 -1.25141e-06
2.33235e-06 -1.25141e-06 -2.96881e-05
0.00178079 -7.43166e-05 4.03375e-06
-7.43166e-05 7.33828e-05 -1.56512e-06
4.03375e-06 -1.56512e-06 -1.78388e-06
0.00172531 -0.000174353 -3.39908e-07
-0.000174353 5.58961e-05 4.77785e-08
-3.39908e-07 4.77785e-08 -4.17622e-05
0.00109383 -0.000204823 -1.12944e-06
-0.000204823 0.000257238 4.70608e-06
-1.12944e-06 4.70608e-06 7.04749e-05
0.00108522 -0.000256506 -1.39903e-07
-0.000256506 0.000121823 1.18059e-06
-1.39903e-07 1.18059e-06 -0.000100589
0.00163621 -0.00037472 -8.45227e-07
-0.00037472 0.000280734 -1.90272e-07
-8.45227e-07 -1.90272e-07 2.03231e-05
0.00163072 -0.000244318 4.80784e-07
-0.000244318 7.25128e-05 -5.43452e-07
4.80784e-07 -5.43452e-07 -6.545e-05
0.00169412 -0.000218083 3.71508e-06
-0.000218083 4.15073e-05 -2.15768e-06
3.71508e-06 -2.15768e-06 -4.57271e-05
0.00174968 -0.000300125 3.69556e-06
-0.000300125 0.000133804 -5.52287e-07
3.69556e-06 -5.52287e-07 5.61734e-07
0.00172399 -0.000360479 -1.76012e-06
-0.000360479 0.000204324 -2.84642e-06
-1.76012e-06 -2.84642e-06 -9.91948e-06
0.00172765 -0.00030115 2.58462e-06
-0.00030115 0.00012736 -1.13699e-05
2.58462e-06 -1.13699e-05 -1.63957e-05
0.00123137 -0.000236205 2.23144e-06
-0.000236205 0.000341296 2.34215e-06
2.23144e-06 2.34215e-06 0.000153607
0.00103989 -0.0002094 3.33251e-06
-0.0002094 0.000236437 -2.24541e-06
3.33251e-06 -2.24541e-06 6.52048e-05
0.000710448 -8.98318e-05 1.53713e-06
-8.98318e-05 0.000106333 -2.57564e-06
1.53713e-06 -2.57564e-06 -7.12009e-05
0.000374396 1.00016e-05 -1.09183e-06
1.00016e-05 -0.000115292 2.9191e-06
-1.09183e-06 2.9191e-06 -0.000194125
0.000419235 2.7213e-05 1.5024e-06
2.7213e-05 -6.81999e-05 -8.14785e-09
1.5024e-06 -8.14785e-09 -0.000192735
0.00186089 -5.44519e-05 -1.15394e-08
-5.44519e-05 0.000110235 -1.14418e-07
-1.15394e-08 -1.14418e-07 3.87092e-05
0.00181122 -0.000108286 1.28122e-06
-0.000108286 7.01534e-05 -7.34555e-07
1.28122e-06 -7.34555e-07 -8.85124e-06
0.00181345 -0.00020658 -2.16255e-06
-0.00020658 7.93728e-05 2.53232e-07
-2.16255e-06 2.53232e-07 1.37407e-06
0.00113721 -0.000238948 -9.48679e-07
-0.000238948 0.00025253 3.48742e-07
-9.48679e-07 3.48742e-07 4.5282e-05
0.00107887 -0.000289697 1.68554e-06
-0.000289697 7.88523e-05 -2.25026e-06
1.68554e-06 -2.25026e-06 -0.000168117
0.00163564 -0.000413069 -3.35784e-07
-0.000413069 0.000238899 5.47431e-07
-3.35784e-07 5.47431e-07 -3.47689e-05
0.001652 -0.000248013 4.31889e-07
-0.000248013 3.7742e-05 -2.98607e-07
4.31889e-07 -2.98607e-07 -6.6834e-05
0.00168595 -0.00034748 7.0446e-07
-0.00034748 0.000152054 -2.19963e-06
7.0446e-07 -2.19963e-06 -4.53061e-05
0.00188836 -0.000332079 -3.37406e-07
-0.000332079 0.000171853 -1.06111e-06
-3.37406e-07 -1.06111e-06 4.30829e-05
0.00031183 3.26288e-05 -2.34676e-07
3.26288e-05 -0.000156822 -8.62175e-07
-2.34676e-07 -8.62175e-07 -0.000219636
0.00115237 -0.000234829 -1.39282e-07
-0.000234829 0.00027106 1.55716e-06
-1.39282e-07 1.55716e-06 8.33509e-05
0.000657589 -0.000192543 1.96227e-08
-0.000192543 -6.5734e-07 8.16167e-07
1.96227e-08 8.16167e-07 -0.000166731
0.000945535 -0.000158966 -6.52893e-07
-0.000158966 0.00024141 3.35351e-07
-6.52893e-07 3.35351e-07 4.25226e-05
0.00109491 -7.31243e-05 1.79126e-07
-7.31243e-05 0.00032983 -6.07383e-07
1.79126e-07 -6.07383e-07 0.000177786
0.000621857 1.32863e-06 -4.39686e-07
1.32863e-06 5.72949e-05 5.09676e-07
-4.39686e-07 5.09676e-07 -5.98872e-05
0.00163248 -6.0926e-05 1.79808e-06
-6.0926e-05 -5.96041e-05 -2.73361e-07
1.79808e-06 -2.73361e-07 -0.000117427
0.00202008 -0.000150001 2.18848e-06
-0.000150001 0.000122907 -3.35874e-07
2.18848e-06 -3.35874e-07 7.36908e-05
0.00159801 -0.000238313 1.4565e-06
-0.000238313 -6.31584e-05 -1.08007e-06
1.4565e-06 -1.08007e-06 -0.000135121
0.00203194 -0.000310927 -6.59967e-07
-0.000310927 0.000170398 -1.85877e-06
-6.59967e-07 -1.85877e-06 7.03596e-05
0.00141468 -0.0002839 -4.09319e-06
-0.0002839 0.000366826 -4.89299e-06
-4.09319e-06 -4.89299e-06 0.00014373
0.00185594 -0.000369392 1.15878e-06
-0.000369392 0.000174277 4.22997e-06
1.15878e-06 4.22997e-06 1.08557e-05
0.00139264 -0.000374426 -1.6819e-06
-0.000374426 0.000211203 6.18995e-07
-1.6819e-06 6.18995e-07 -8.4879e-05
0.0017052 -0.000433058 -1.74708e-06
-0.000433058 0.000270911 2.73011e-06
-1.74708e-06 2.73011e-06 -1.30774e-05
0.000308057 5.09207e-05 -1.81883e-06
5.09207e-05 -0.000163282 -2.25766e-06
-1.81883e-06 -2.25766e-06 -0.00021636
0.000726882 -1.03519e-06 -9.15309e-08
-1.03519e-06 0.000116667 -7.21859e-07
-9.15309e-08 -7.21859e-07 1.59348e-05
0.000968877 -0.000101613 -1.7184e-06
-0.000101613 0.000263501 1.81636e-06
-1.7184e-06 1.81636e-06 0.000125949
0.000893802 -2.7044e-05 -2.27587e-06
-2.7044e-05 0.000211796 2.69686e-06
-2.27587e-06 2.69686e-06 2.79888e-05
0.000635148 -0.00020818 -2.98042e-06
-0.00020818 -4.83343e-05 -3.55954e-06
-2.98042e-06 -3.55954e-06 -0.000239445
0.000971583 -0.000219723 -6.3478e-06
-0.000219723 0.000202738 1.33322e-06
-6.3478e-06 1.33322e-06 9.43574e-08
0.000593457 -1.76796e-05 -2.17921e-06
-1.76796e-05 -3.24026e-06 -2.33008e-06
-2.17921e-06 -2.33008e-06 -5.70857e-05
0.000573166 -4.32134e-05 2.29008e-07
-4.32134e-05 1.41623e-05 -1.83802e-06
2.29008e-07 -1.83802e-06 -7.78246e-05
0.00171176 0.000258062 -2.0894e-06
0.000258062 0.000123557 -4.33521e-07
-2.0894e-06 -4.33521e-07 -2.77512e-05
0.000464375 -1.26159e-05 7.59125e-07
-1.26159e-05 -3.8049e-05 -1.28251e-06
7.59125e-07 -1.28251e-06 -0.000178132
0.00110641 0.00022627 1.04019e-06
0.00022627 0.000287526 -2.22323e-07
1.04019e-06 -2.22323e-07 9.63202e-05
0.000202712 7.36388e-05 2.76492e-06
7.36388e-05 -0.000235867 2.20866e-06
2.76492e-06 2.20866e-06 -0.000387495
0.00169438 0.000347324 -6.60338e-07
0.000347324 0.000193989 2.48182e-07
-6.60338e-07 2.48182e-07 -9.25387e-06
0.00181176 0.000340263 -2.72789e-06
0.000340263 0.000192428 1.1496e-06
-2.72789e-06 1.1496e-06 1.85617e-05
0.000923145 0.000252548 -1.58151e-06
0.000252548 8.66475e-05 5.29271e-07
-1.58151e-06 5.29271e-07 -0.000161852
0.0017247 0.000355463 -2.03561e-06
0.000355463 0.000330355 1.39363e-06
-2.03561e-06 1.39363e-06 9.11889e-05
0.000697517 1.0221e-05 -8.45017e-07
1.0221e-05 7.86795e-05 1.85485e-07
-8.45017e-07 1.85485e-07 -4.57423e-06
0.000641422 1.66027e-05 6.88732e-07
1.66027e-05 6.51999e-05 1.38338e-06
6.88732e-07 1.38338e-06 -5.34071e-05
0.00131486 0.00025898 -9.82411e-07
0.00025898 0.000375199 -2.93764e-06
-9.82411e-07 -2.93764e-06 0.000167453
0.000541843 2.99772e-05 -8.20776e-07
2.99772e-05 8.40712e-06 -4.5227e-07
-8.20776e-07 -4.5227e-07 -0.000145983
0.000588491 0.000169989 -2.05492e-06
0.000169989 -3.63745e-05 -9.5875e-07
-2.05492e-06 -9.5875e-07 -0.000191253
0.00186862 0.00028245 -2.84045e-06
0.00028245 0.000144833 -1.29109e-06
-2.84045e-06 -1.29109e-06 2.15476e-05
0.00196888 0.000389957 1.75895e-06
0.000389957 0.000341625 -2.20846e-07
1.75895e-06 -2.20846e-07 0.000127865
0.00170662 0.000364483 1.79132e-06
0.000364483 0.000109944 2.38077e-06
1.79132e-06 2.38077e-06 -6.9206e-05
0.00131729 0.000297796 3.56494e-06
0.000297796 0.000264772 4.3711e-06
3.56494e-06 4.3711e-06 -7.2743e-06
0.00156512 0.000374728 -2.9312e-06
0.000374728 0.000223081 5.30836e-07
-2.9312e-06 5.30836e-07 -2.33226e-05
0.000400896 -2.04612e-05 -1.00568e-06
-2.04612e-05 -8.45792e-05 2.57024e-06
-1.00568e-06 2.57024e-06 -0.000178782
0.00012676 7.76632e-05 2.13843e-07
7.76632e-05 -0.000203309 7.79538e-07
2.13843e-07 7.79538e-07 -0.000358237
0.00120822 0.000258287 2.10509e-06
0.000258287 0.000273077 3.74398e-06
2.10509e-06 3.74398e-06 4.96902e-05
-0.000633601 6.27119e-05 3.47281e-06
6.27119e-05 -0.000707109 -1.95344e-07
3.47281e-06 -1.95344e-07 -0.000876043
0.00191221 0.000293834 -2.02415e-06
0.000293834 9.73922e-06 -5.11668e-07
-2.02415e-06 -5.11668e-07 -5.30321e-05
0.00233932 0.000360376 7.1744e-07
0.000360376 0.000403705 -6.43361e-07
7.1744e-07 -6.43361e-07 0.000261759
0.00181101 0.000419239 -1.87527e-06
0.000419239 0.000250608 -3.52437e-06
-1.87527e-06 -3.52437e-06 1.80275e-05
0.000404771 0.000251534 -1.48907e-06
0.000251534 -0.000327961 1.65464e-06
-1.48907e-06 1.65464e-06 -0.000598946
0.000682875 5.35448e-05 -9.10467e-07
5.35448e-05 6.91359e-05 -7.0074e-07
-9.10467e-07 -7.0074e-07 -1.28863e-05
0.000617559 3.22186e-05 -6.30852e-08
3.22186e-05 3.55292e-05 3.86158e-07
-6.30852e-08 3.86158e-07 -5.52533e-05
0.000906724 2.25312e-05 -1.92791e-06
2.25312e-05 0.000203726 -1.37382e-06
-1.92791e-06 -1.37382e-06 0.00011641
0.000658848 2.70665e-06 -1.4378e-06
2.70665e-06 4.89296e-05 -1.27472e-06
-1.4378e-06 -1.27472e-06 -2.44525e-05
0.00046023 -7.2172e-06 -1.50077e-07
-7.2172e-06 -5.85771e-05 -7.69483e-07
-1.50077e-07 -7.69483e-07 -0.0001475
0.00067392 2.2847e-05 1.44717e-08
2.2847e-05 6.56823e-05 3.56009e-09
1.44717e-08 3.56009e-09 -1.23373e-05
0.000671597 7.2553e-05 -6.07565e-07
7.2553e-05 8.11835e-05 -3.32225e-07
-6.07565e-07 -3.32225e-07 -2.1615e-05
0.000619956 1.78428e-05 7.25925e-07
1.78428e-05 4.85771e-05 3.96607e-07
7.25925e-07 3.96607e-07 -5.21187e-05
0.000762663 4.49064e-05 7.29803e-07
4.49064e-05 0.000119083 -1.15504e-06
7.29803e-07 -1.15504e-06 2.7279e-05
0.000704304 -2.39934e-05 1.20108e-06
-2.39934e-05 9.71095e-05 -1.23492e-06
1.20108e-06 -1.23492e-06 -9.35098e-06
0.000543703 4.22709e-05 5.2721e-07
4.22709e-05 1.53286e-06 1.31267e-06
5.2721e-07 1.31267e-06 -0.000100583
0.000665145 6.62564e-05 1.17379e-06
6.62564e-05 6.38283e-05 1.84211e-06
1.17379e-06 1.84211e-06 -1.66383e-05
0.00058726 4.01543e-05 1.54829e-06
4.01543e-05 4.22196e-06 2.13476e-06
1.54829e-06 2.13476e-06 -4.86252e-05
0.00060398 -3.21408e-06 -9.67306e-07
-3.21408e-06 9.17631e-06 5.09752e-09
-9.67306e-07 5.09752e-09 -4.19456e-05
0.00126136 -1.63057e-05 7.078e-07
-1.63057e-05 0.000373233 2.37819e-06
7.078e-07 2.37819e-06 0.000363184
0.000603009 -4.00133e-05 1.71353e-08
-4.00133e-05 5.21853e-06 -2.295e-06
1.71353e-08 -2.295e-06 -4.53412e-05
0.00130306 -2.47866e-05 -3.79843e-06
-2.47866e-05 0.000398366 -1.51571e-06
-3.79843e-06 -1.51571e-06 0.000388055
0.000866586 -2.45269e-05 1.60931e-05
-2.45269e-05 0.000144207 8.12096e-06
1.60931e-05 8.12096e-06 0.000151621
0.00134011 -3.43508e-05 -6.95012e-06
-3.43508e-05 0.000421916 -5.45435e-06
-6.95012e-06 -5.45435e-06 0.000410846
0.000813869 -3.28018e-05 5.69344e-06
-3.28018e-05 0.000115861 3.03883e-06
5.69344e-06 3.03883e-06 0.000122095
0.000751142 -3.94672e-05 -1.31924e-06
-3.94672e-05 8.40148e-05 -2.12572e-06
-1.31924e-06 -2.12572e-06 8.85391e-05
0.000541652 3.64798e-05 2.76452e-07
3.64798e-05 -4.38735e-05 -3.38428e-06
2.76452e-07 -3.38428e-06 -5.86621e-05
0.000535581 5.08507e-05 -4.32715e-09
5.08507e-05 -3.46184e-05 1.33436e-07
-4.32715e-09 1.33436e-07 -5.66497e-05
0.00226808 8.24308e-05 2.10808e-05
8.24308e-05 0.000999008 -3.76521e-06
2.10808e-05 -3.76521e-06 0.00100698
0.000549639 3.66043e-05 -2.31659e-06
3.66043e-05 -1.97007e-05 5.41464e-06
-2.31659e-06 5.41464e-06 -4.702e-05
0.00254291 0.000100807 -6.05954e-06
0.000100807 0.00116984 -4.37256e-07
-6.05954e-06 -4.37256e-07 0.00117303
0.0028969 9.33137e-05 -6.94839e-05
9.33137e-05 0.00138258 3.71975e-06
-6.94839e-05 3.71975e-06 0.00138726
0.00175845 0.000201181 2.57265e-08
0.000201181 0.000122822 2.10381e-06
2.57265e-08 2.10381e-06 1.41166e-06
0.00185176 0.000135361 -1.41161e-06
0.000135361 9.62724e-05 5.9442e-07
-1.41161e-06 5.9442e-07 1.08593e-05
0.00179897 0.000196842 2.42422e-06
0.000196842 5.01542e-05 1.26195e-06
2.42422e-06 1.26195e-06 -2.75375e-05
0.00181123 9.06776e-05 -1.71444e-06
9.06776e-05 3.3408e-05 -1.83418e-07
-1.71444e-06 -1.83418e-07 -1.8849e-05
0.00179358 3.66028e-05 1.84349e-06
3.66028e-05 6.7085e-05 -3.27545e-07
1.84349e-06 -3.27545e-07 -7.9047e-06
0.00172191 2.04034e-06 -4.01259e-07
2.04034e-06 8.63281e-05 -1.54516e-08
-4.01259e-07 -1.54516e-08 -1.33909e-05
0.00179691 -4.17584e-06 -2.19853e-08
-4.17584e-06 7.97128e-05 -7.07195e-08
-2.19853e-08 -7.07195e-08 7.31848e-06
0.00183591 4.24247e-05 1.09921e-06
4.24247e-05 4.77786e-05 1.4233e-07
1.09921e-06 1.4233e-07 4.2911e-06
0.00187342 0.000146268 6.60095e-07
0.000146268 6.54923e-05 -3.92963e-07
6.60095e-07 -3.92963e-07 4.22929e-06
0.00190827 0.000237358 1.55462e-07
0.000237358 0.000115461 1.5996e-07
1.55462e-07 1.5996e-07 2.35605e-05
0.00180099 -1.05402e-05 1.17176e-06
-1.05402e-05 3.84723e-05 -5.62597e-07
1.17176e-06 -5.62597e-07 -7.68881e-06
0.00191966 8.85542e-05 3.1052e-06
8.85542e-05 3.27142e-05 -4.42366e-08
3.1052e-06 -4.42366e-08 8.38109e-06
0.00193411 0.000212239 2.85639e-06
0.000212239 4.9226e-05 2.10218e-07
2.85639e-06 2.10218e-07 -1.32896e-05
0.00193301 -5.9462e-05 8.9935e-07
-5.9462e-05 0.000155153 4.06234e-07
8.9935e-07 4.06234e-07 8.24647e-05
0.00176583 -0.000110993 1.38041e-07
-0.000110993 4.13777e-05 -6.97514e-07
1.38041e-07 -6.97514e-07 -3.92799e-05
0.00182364 -0.000200858 -1.84233e-06
-0.000200858 9.27589e-05 6.33568e-07
-1.84233e-06 6.33568e-07 1.27754e-05
0.00130568 -0.000252035 -6.33979e-07
-0.000252035 0.000351331 4.73821e-06
-6.33979e-07 4.73821e-06 0.0001418
0.00104993 -0.000279918 5.15607e-07
-0.000279918 5.17419e-05 6.3284e-07
5.15607e-07 6.3284e-07 -0.000188824
0.00157714 -0.000414939 -6.03606e-07
-0.000414939 0.000208462 -1.28689e-06
-6.03606e-07 -1.28689e-06 -6.8217e-05
0.00167365 -0.000248997 5.2722e-07
-0.000248997 4.51795e-05 -2.62432e-07
5.2722e-07 -2.62432e-07 -5.96766e-05
0.00157349 -0.000313462 1.04702e-06
-0.000313462 6.11631e-07 -2.82442e-06
1.04702e-06 -2.82442e-06 -0.000128204
0.00176298 -0.000350215 -1.93179e-06
-0.000350215 0.000196735 -7.83649e-06
-1.93179e-06 -7.83649e-06 5.17254e-06
0.00123595 -0.000241398 3.48491e-06
-0.000241398 0.000310819 4.44221e-06
3.48491e-06 4.44221e-06 0.00012288
0.000697329 -0.000192305 -7.15115e-06
-0.000192305 3.26258e-05 1.46622e-06
-7.15115e-06 1.46622e-06 -0.000126145
0.00154498 -0.000202611 9.62366e-07
-0.000202611 0.000603675 1.37273e-07
9.62366e-07 1.37273e-07 0.000390213
0.000370866 2.2882e-05 4.64443e-07
2.2882e-05 -0.000122665 8.10047e-07
4.64443e-07 8.10047e-07 -0.000184243
0.000952508 -7.65879e-05 1.84793e-06
-7.65879e-05 0.000241513 -6.9049e-07
1.84793e-06 -6.9049e-07 9.64862e-05
0.000489624 3.4603e-05 2.44822e-06
3.4603e-05 -2.77546e-05 1.61607e-06
2.44822e-06 1.61607e-06 -0.000141569
0.00176295 -6.15522e-05 -5.73956e-07
-6.15522e-05 1.77981e-05 1.14324e-07
-5.73956e-07 1.14324e-07 -4.09997e-05
0.00196031 -0.000154828 1.25755e-07
-0.000154828 8.85676e-05 -1.75236e-07
1.25755e-07 -1.75236e-07 3.55928e-05
0.0017422 -0.000241571 -1.0574e-07
-0.000241571 2.457e-05 4.58001e-07
-1.0574e-07 4.58001e-07 -4.93047e-05
0.00118688 -0.000260555 -1.72767e-06
-0.000260555 0.00023577 4.33245e-07
-1.72767e-06 4.33245e-07 1.60429e-05
0.00111578 -0.000343892 -4.75344e-07
-0.000343892 5.39929e-05 -5.62017e-07
-4.75344e-07 -5.62017e-07 -0.000232067
0.00173719 -0.000430101 -3.40731e-06
-0.000430101 0.00029203 1.4236e-07
-3.40731e-06 1.4236e-07 1.59966e-05
0.00198146 -0.00031452 9.55976e-07
-0.00031452 0.000144868 -4.09306e-07
9.55976e-07 -4.09306e-07 4.25789e-05
0.00170467 -0.000363583 1.15366e-06
-0.000363583 7.88188e-05 -2.90217e-06
1.15366e-06 -2.90217e-06 -8.47592e-05
0.000465863 4.23132e-05 -2.30998e-07
4.23132e-05 -7.29177e-05 -9.26763e-07
-2.30998e-07 -9.26763e-07 -0.000122189
0.000743776 -9.31836e-06 -5.76445e-07
-9.31836e-06 0.000125363 3.11016e-07
-5.76445e-07 3.11016e-07 2.51611e-05
0.000295509 -0.000175637 -2.95875e-06
-0.000175637 -0.000243766 4.30515e-06
-2.95875e-06 4.30515e-06 -0.000424507
0.00139687 -0.000241767 4.98467e-07
-0.000241767 0.000464731 -3.56035e-07
4.98467e-07 -3.56035e-07 0.000261655
0.000988665 -6.62395e-05 -1.11285e-07
-6.62395e-05 0.000276048 -8.32082e-07
-1.11285e-07 -8.32082e-07 9.16585e-05
0.000847789 -7.41302e-05 -4.77898e-07
-7.41302e-05 0.000192561 1.35069e-06
-4.77898e-07 1.35069e-06 5.47107e-05
0.00188718 -7.95304e-05 2.4625e-06
-7.95304e-05 3.05592e-05 5.82087e-08
2.4625e-06 5.82087e-08 -1.83787e-06
0.00196504 -0.000221409 6.67794e-07
-0.000221409 4.41723e-05 -1.00769e-06
6.67794e-07 -1.00769e-06 2.05599e-05
0.00191157 -0.000263756 6.15573e-07
-0.000263756 8.04216e-05 -1.45245e-06
6.15573e-07 -1.45245e-06 1.47997e-05
0.00182869 -0.000405638 5.16606e-06
-0.000405638 2.66555e-05 -2.18414e-06
5.16606e-06 -2.18414e-06 -9.80814e-05
0.000464341 -0.000231863 -5.1367e-06
-0.000231863 -0.000221489 -5.95744e-06
-5.1367e-06 -5.95744e-06 -0.000465065
0.00175872 -0.00043438 -8.49006e-07
-0.00043438 0.000264559 1.16781e-05
-8.49006e-07 1.16781e-05 3.64863e-06
0.00187439 -0.000454412 -1.38801e-06
-0.000454412 0.000452289 -1.23353e-06
-1.38801e-06 -1.23353e-06 0.000125144
0.000627722 4.28889e-05 2.12857e-07
4.28889e-05 1.45169e-05 -1.34172e-06
2.12857e-07 -1.34172e-06 -2.72971e-05
0.000692108 -0.000102495 2.62097e-06
-0.000102495 9.02545e-05 -1.73865e-06
2.62097e-06 -1.73865e-06 1.03259e-05
0.000466347 4.41409e-05 -1.98185e-06
4.41409e-05 -4.44184e-05 -1.10792e-06
-1.98185e-06 -1.10792e-06 -0.000130237
0.000687406 -4.4661e-05 -8.46566e-07
-4.4661e-05 0.000110528 2.26431e-06
-8.46566e-07 2.26431e-06 -1.7069e-05
0.000626926 -2.501e-05 9.80981e-07
-2.501e-05 4.97263e-05 -5.48506e-07
9.80981e-07 -5.48506e-07 -9.3018e-05
7.04288e-05 -9.03294e-05 -9.0882e-08
-9.03294e-05 -0.000256841 1.31776e-06
-9.0882e-08 1.31776e-06 -0.000435368
4.59501e-05 -0.000173037 -3.09459e-06
-0.000173037 -0.000411601 -5.08503e-06
-3.09459e-06 -5.08503e-06 -0.000583721
0.0025544 -0.000346207 -1.04512e-05
-0.000346207 0.0012027 2.52423e-06
-1.04512e-05 2.52423e-06 0.000915518
0.000641725 -9.50105e-06 -1.1475e-06
-9.50105e-06 4.05923e-05 -9.40187e-07
-1.1475e-06 -9.40187e-07 -3.73939e-05
0.000881917 2.41772e-05 4.43462e-07
2.41772e-05 0.000209564 -1.62874e-06
4.43462e-07 -1.62874e-06 8.668e-05
0.0021125 0.000292088 -1.52779e-06
0.000292088 0.000285936 -2.99569e-07
-1.52779e-06 -2.99569e-07 0.000164976
0.000851249 6.73133e-05 -1.20308e-06
6.73133e-05 0.000199491 2.79703e-06
-1.20308e-06 2.79703e-06 3.40728e-05
0.00159293 0.000285625 7.68394e-07
0.000285625 0.000550814 -2.45295e-06
7.68394e-07 -2.45295e-06 0.000333971
0.000409219 0.000134394 -6.17704e-07
0.000134394 -0.000147358 1.20478e-06
-6.17704e-07 1.20478e-06 -0.000282699
0.00200957 0.000387603 -3.41155e-06
0.000387603 0.000371213 1.6148e-07
-3.41155e-06 1.6148e-07 0.000159924
0.00184311 0.000380769 -2.52625e-06
0.000380769 0.000178904 4.79948e-06
-2.52625e-06 4.79948e-06 -2.5424e-06
0.00101052 0.00027606 -3.68216e-07
0.00027606 9.654e-05 -6.33023e-07
-3.68216e-07 -6.33023e-07 -0.000180625
0.00150954 0.00037773 1.03179e-07
0.00037773 0.000182072 1.53119e-06
1.03179e-07 1.53119e-06 -6.84892e-05
0.000407488 7.77861e-06 -1.71058e-07
7.77861e-06 -7.21694e-05 1.18607e-06
-1.71058e-07 1.18607e-06 -0.000173284
0.000357084 9.59252e-05 -5.67421e-07
9.59252e-05 -6.55609e-05 -2.11926e-06
-5.67421e-07 -2.11926e-06 -0.000225292
0.001268 0.000266274 3.29383e-06
0.000266274 0.000319367 -1.78091e-06
3.29383e-06 -1.78091e-06 8.98135e-05
0.00062123 0.000157406 -1.44091e-06
0.000157406 1.97463e-05 -3.37222e-06
-1.44091e-06 -3.37222e-06 -0.000158796
0.00200783 0.000288595 1.00179e-06
0.000288595 6.15512e-05 -9.01453e-07
1.00179e-06 -9.01453e-07 -5.1879e-07
0.00210814 0.000354362 3.30424e-06
0.000354362 0.000279343 6.73625e-07
3.30424e-06 6.73625e-07 0.000133442
0.00180399 0.000412893 -1.20104e-06
0.000412893 0.000239687 2.72164e-07
-1.20104e-06 2.72164e-07 9.75056e-06
0.00111988 0.000317613 3.33019e-07
0.000317613 6.33327e-05 4.58727e-08
3.33019e-07 4.58727e-08 -0.000211029
0.000488012 3.24069e-05 -1.12747e-06
3.24069e-05 -3.2695e-05 2.70426e-06
-1.12747e-06 2.70426e-06 -0.000133002
0.00189381 0.000232546 -1.05935e-06
0.000232546 -3.74992e-05 1.6007e-06
-1.05935e-06 1.6007e-06 -5.94937e-05
0.00153551 0.00025687 6.21767e-07
0.00025687 0.000622636 2.61916e-06
6.21767e-07 2.61916e-06 0.000414301
0.00123603 0.000274844 3.32929e-06
0.000274844 0.000263114 4.13134e-06
3.32929e-06 4.13134e-06 2.7052e-05
0.00249837 0.000351593 -1.76992e-05
0.000351593 0.000397965 -4.36938e-06
-1.76992e-05 -4.36938e-06 0.000299871
0.00114842 0.000387041 -3.08841e-06
0.000387041 -0.00021333 -7.09885e-06
-3.08841e-06 -7.09885e-06 -0.00042567
0.00202325 0.000427898 -2.01592e-06
0.000427898 0.000496465 3.42844e-06
-2.01592e-06 3.42844e-06 0.000211765
0.000689705 4.67047e-05 -1.21825e-06
4.67047e-05 7.80591e-05 -4.86782e-07
-1.21825e-06 -4.86782e-07 -1.23107e-05
0.000727276 3.90219e-05 -1.19879e-06
3.90219e-05 0.000104075 -4.95344e-07
-1.19879e-06 -4.95344e-07 1.38991e-05
0.000932103 2.62318e-05 -1.57295e-06
2.62318e-05 0.0002316 4.93379e-08
-1.57295e-06 4.93379e-08 0.000145315
0.000635415 -7.88792e-06 -2.40109e-08
-7.88792e-06 4.53266e-05 -1.85615e-06
-2.40109e-08 -1.85615e-06 -3.43217e-05
0.000676071 4.15595e-05 8.19961e-07
4.15595e-05 8.31174e-05 5.79528e-08
8.19961e-07 5.79528e-08 -1.82318e-05
0.000392743 1.01378e-05 -7.62606e-07
1.01378e-05 -7.03697e-05 8.93057e-07
-7.62606e-07 8.93057e-07 -0.000175433
0.000643977 1.45659e-06 -5.56611e-07
1.45659e-06 5.75545e-05 -1.07858e-08
-5.56611e-07 -1.07858e-08 -2.71789e-05
0.000514215 -2.34606e-05 -6.51315e-07
-2.34606e-05 -8.10358e-06 3.87514e-07
-6.51315e-07 3.87514e-07 -0.00011411
0.000565861 -3.69367e-06 5.08301e-07
-3.69367e-06 9.25985e-06 3.71917e-08
5.08301e-07 3.71917e-08 -8.03101e-05
0.00077896 3.50008e-05 4.55898e-07
3.50008e-05 0.000151244 -1.30559e-07
4.55898e-07 -1.30559e-07 3.6745e-05
0.00105667 3.52554e-05 3.43094e-07
3.52554e-05 0.000279653 -1.30858e-06
3.43094e-07 -1.30858e-06 0.000197964
0.000704572 -2.71824e-05 1.6346e-06
-2.71824e-05 8.87794e-05 -1.83684e-06
1.6346e-06 -1.83684e-06 -7.13486e-06
0.000766266 3.08349e-05 -2.6535e-08
3.08349e-05 0.000141773 5.12242e-08
-2.6535e-08 5.12242e-08 2.2603e-05
0.000639564 3.21546e-05 1.88432e-06
3.21546e-05 6.73613e-05 1.52884e-06
1.88432e-06 1.52884e-06 -4.64106e-05
0.000665987 2.03083e-05 1.41988e-06
2.03083e-05 6.40167e-05 1.8579e-06
1.41988e-06 1.8579e-06 -1.89414e-05
0.000589155 -2.49219e-05 -2.04505e-07
-2.49219e-05 4.91852e-06 1.9315e-06
-2.04505e-07 1.9315e-06 -4.74153e-05
0.000603432 -8.19234e-06 -3.20284e-07
-8.19234e-06 1.1303e-05 2.94655e-08
-3.20284e-07 2.94655e-08 -3.99224e-05
0.00127548 -5.90714e-06 6.46103e-07
-5.90714e-06 0.000382443 2.2654e-06
6.46103e-07 2.2654e-06 0.00037192
0.000612724 -2.73131e-05 7.00698e-07
-2.73131e-05 1.30403e-05 -2.41651e-06
7.00698e-07 -2.41651e-06 -3.71676e-05
0.00130775 -1.37373e-05 -2.87315e-06
-1.37373e-05 0.000401266 -1.56834e-06
-2.87315e-06 -1.56834e-06 0.000391097
0.000859761 -1.67165e-05 1.20313e-05
-1.67165e-05 0.000137921 8.28196e-06
1.20313e-05 8.28196e-06 0.000145881
0.00135167 -2.29472e-05 -4.96509e-06
-2.29472e-05 0.000427438 -5.56333e-06
-4.96509e-06 -5.56333e-06 0.00041698
0.000824031 -2.49689e-05 3.79058e-06
-2.49689e-05 0.000117809 3.14723e-06
3.79058e-06 3.14723e-06 0.000125111
0.000769604 -3.16795e-05 -8.84845e-07
-3.16795e-05 8.84398e-05 -2.10178e-06
-8.84845e-07 -2.10178e-06 9.48743e-05
0.000663088 1.09738e-05 1.00521e-06
1.09738e-05 3.16621e-05 -1.53431e-06
1.00521e-06 -1.53431e-06 -6.83987e-06
0.000556028 2.82893e-05 4.07525e-07
2.82893e-05 -4.26415e-05 -3.46927e-06
4.07525e-07 -3.46927e-06 -5.3806e-05
0.000562594 3.74668e-05 9.66024e-08
3.74668e-05 -3.09558e-05 1.09698e-07
9.66024e-08 1.09698e-07 -4.61204e-05
0.00215145 6.68278e-05 1.84832e-05
6.68278e-05 0.00092122 -3.9712e-06
1.84832e-05 -3.9712e-06 0.000933105
0.000564087 5.54463e-05 2.4221e-06
5.54463e-05 -1.62576e-05 4.74095e-06
2.4221e-06 4.74095e-06 -3.96825e-05
0.00236849 8.58754e-05 -3.99139e-06
8.58754e-05 0.00105921 -3.01859e-07
-3.99139e-06 -3.01859e-07 0.00106631
0.00265243 0.00010274 -3.34046e-05
0.00010274 0.0012346 3.60238e-06
-3.34046e-05 3.60238e-06 0.0012374
0.00194962 0.000234716 -4.65525e-07
0.000234716 0.000126563 1.61333e-06
-4.65525e-07 1.61333e-06 3.71068e-05
0.00188201 0.000151437 -2.47752e-06
0.000151437 6.78427e-05 -4.56996e-07
-2.47752e-06 -4.56996e-07 6.49842e-06
0.00183854 4.43051e-05 -1.90349e-06
4.43051e-05 6.01107e-05 2.13032e-08
-1.90349e-06 2.13032e-08 1.43625e-05
0.00178335 -9.75593e-07 2.45216e-07
-9.75593e-07 7.10664e-05 -1.50834e-07
2.45216e-07 -1.50834e-07 -1.19121e-06
0.0018102 -6.26584e-06 -1.20176e-06
-6.26584e-06 4.21421e-05 -1.28944e-07
-1.20176e-06 -1.28944e-07 -1.57506e-06
0.00190685 8.38852e-05 2.17748e-07
8.38852e-05 2.83804e-05 -4.83895e-08
2.17748e-07 -4.83895e-08 2.44696e-06
0.00192926 0.000216166 -5.93808e-07
0.000216166 4.4922e-05 -1.64946e-07
-5.93808e-07 -1.64946e-07 -1.55937e-05
0.00191264 1.57306e-07 2.44159e-06
1.57306e-07 2.27912e-05 -3.89278e-07
2.44159e-06 -3.89278e-07 1.0422e-05
0.00199373 0.000125223 2.14727e-06
0.000125223 1.88174e-05 -4.05672e-07
2.14727e-06 -4.05672e-07 -1.75025e-06
0.00216978 7.27648e-05 -4.1241e-06
7.27648e-05 0.00017436 3.14164e-06
-4.1241e-06 3.14164e-06 0.000202664
0.00188563 -6.23472e-05 -3.03122e-06
-6.23472e-05 9.00124e-05 5.44499e-08
-3.03122e-06 5.44499e-08 3.02064e-05
0.00190043 -0.000160623 -3.40485e-06
-0.000160623 5.23854e-05 9.78116e-07
-3.40485e-06 9.78116e-07 -4.1469e-06
0.00188469 -0.000244657 -2.63999e-06
-0.000244657 0.000110689 1.55736e-06
-2.63999e-06 1.55736e-06 3.52925e-05
0.00101436 -0.0002421 -3.40801e-07
-0.0002421 0.000135433 5.93308e-06
-3.40801e-07 5.93308e-06 -8.18332e-05
0.0010918 -0.000337474 1.00605e-06
-0.000337474 4.29925e-05 1.75841e-06
1.00605e-06 1.75841e-06 -0.000237749
0.00171251 -0.000420564 -3.83257e-06
-0.000420564 0.00028502 -2.89412e-06
-3.83257e-06 -2.89412e-06 1.78617e-05
0.00194482 -0.000316719 2.74106e-06
-0.000316719 0.000128136 4.09361e-07
2.74106e-06 4.09361e-07 2.41738e-05
0.00150681 -0.000350055 -3.45167e-06
-0.000350055 -3.60274e-05 -6.03305e-06
-3.45167e-06 -6.03305e-06 -0.000198177
9.55957e-05 -0.000155217 -1.54464e-06
-0.000155217 -0.000356441 9.54449e-06
-1.54464e-06 9.54449e-06 -0.000529089
0.0019634 -0.000279484 1.29969e-05
-0.000279484 0.000811302 -3.13493e-06
1.29969e-05 -3.13493e-06 0.000604088
0.000694485 -2.61753e-05 3.36539e-07
-2.61753e-05 9.23823e-05 -8.07192e-07
3.36539e-07 -8.07192e-07 -7.59299e-05
0.000572405 1.53129e-05 -6.16893e-08
1.53129e-05 -1.18027e-05 5.42032e-07
-6.16893e-08 5.42032e-07 -5.77889e-05
0.000808218 2.24728e-05 1.09165e-06
2.24728e-05 0.000159971 1.01025e-06
1.09165e-06 1.01025e-06 6.04667e-05
0.000869365 -4.79703e-05 8.89812e-07
-4.79703e-05 0.00020715 1.53623e-06
8.89812e-07 1.53623e-06 6.74732e-05
0.00189742 -8.17487e-05 2.28935e-07
-8.17487e-05 3.03472e-05 -1.08073e-07
2.28935e-07 -1.08073e-07 1.34649e-06
0.000606193 1.69599e-05 9.9948e-07
1.69599e-05 1.5756e-06 1.15238e-07
9.9948e-07 1.15238e-07 -3.96793e-05
0.000550611 -3.38347e-05 -1.73282e-06
-3.38347e-05 -9.51416e-06 -4.87192e-08
-1.73282e-06 -4.87192e-08 -7.88838e-05
0.00194053 -0.000212289 -2.67717e-07
-0.000212289 4.63824e-05 2.42894e-07
-2.67717e-07 2.42894e-07 1.76539e-05
0.0018662 -0.00026364 -1.47542e-06
-0.00026364 5.08389e-05 2.69269e-07
-1.47542e-06 2.69269e-07 -1.44595e-05
0.000717291 -0.000251991 -3.00159e-07
-0.000251991 -6.52253e-05 2.16841e-06
-3.00159e-07 2.16841e-06 -0.000306602
0.00183856 -0.000450001 -2.63284e-07
-0.000450001 0.000441322 2.77585e-07
-2.63284e-07 2.77585e-07 0.000110533
0.00156289 -0.00042275 2.86485e-06
-0.00042275 0.000131945 -1.37778e-06
2.86485e-06 -1.37778e-06 -0.000122016
0.00202773 -0.000414187 2.51672e-06
-0.000414187 0.000150726 -8.64227e-07
2.51672e-06 -8.64227e-07 2.33868e-05
0.000726176 -1.37123e-05 9.17511e-07
-1.37123e-05 0.000113417 -1.10694e-06
9.17511e-07 -1.10694e-06 2.70656e-05
0.00073257 -2.84799e-05 2.56001e-07
-2.84799e-05 0.000137205 1.25421e-06
2.56001e-07 1.25421e-06 7.56991e-06
0.000954106 -0.000230237 -3.35014e-06
-0.000230237 0.000114928 -1.16693e-06
-3.35014e-06 -1.16693e-06 -6.9499e-05
0.00153921 -0.000258589 1.33619e-05
-0.000258589 0.000604328 -3.47143e-06
1.33619e-05 -3.47143e-06 0.000364095
0.000473937 -8.32537e-05 -2.55102e-06
-8.32537e-05 -2.9143e-05 -3.48734e-08
-2.55102e-06 -3.48734e-08 -0.000204746
0.000684433 -2.49593e-05 4.64697e-07
-2.49593e-05 9.31645e-05 -7.47511e-07
4.64697e-07 -7.47511e-07 -5.36506e-05
0.00192255 -9.11155e-05 2.59164e-06
-9.11155e-05 -2.07904e-05 -1.08358e-06
2.59164e-06 -1.08358e-06 -4.14354e-05
0.00187049 -0.000241503 -4.2845e-07
-0.000241503 -4.17635e-05 -3.37326e-07
-4.2845e-07 -3.37326e-07 -1.395e-05
0.00201696 -0.00037125 -2.41936e-06
-0.00037125 5.80796e-05 -2.41045e-06
-2.41936e-06 -2.41045e-06 -2.26649e-05
0.0015942 -0.000466992 2.70701e-06
-0.000466992 1.75983e-05 1.65053e-07
2.70701e-06 1.65053e-07 -0.00013971
0.000821925 -0.000230015 -8.7316e-06
-0.000230015 1.44368e-05 -8.056e-06
-8.7316e-06 -8.056e-06 -0.000226393
0.00247428 -0.00054102 -6.53805e-06
-0.00054102 0.000772785 6.39478e-06
-6.53805e-06 6.39478e-06 0.000419129
0.000415796 5.3108e-05 -1.13792e-06
5.3108e-05 -8.08993e-05 -2.24644e-06
-1.13792e-06 -2.24644e-06 -0.00015474
0.000667202 -5.83525e-05 2.96747e-06
-5.83525e-05 6.10721e-05 -8.71258e-07
2.96747e-06 -8.71258e-07 -1.03365e-05
0.000927488 -8.33141e-05 1.46846e-06
-8.33141e-05 0.000226698 1.17925e-06
1.46846e-06 1.17925e-06 0.00013079
0.000432616 1.68553e-05 -1.60084e-06
1.68553e-05 -4.52314e-05 2.54377e-06
-1.60084e-06 2.54377e-06 -0.000165622
0.000927637 -6.29391e-05 -1.52118e-06
-6.29391e-05 0.000237275 1.96964e-06
-1.52118e-06 1.96964e-06 0.000108523
0.00102359 -4.66894e-05 2.33026e-06
-4.66894e-05 0.000250136 9.62816e-07
2.33026e-06 9.62816e-07 9.1195e-05
-0.000454536 -9.1572e-05 6.27444e-06
-9.1572e-05 -0.000416704 6.82296e-07
6.27444e-06 6.82296e-07 -0.00073266
6.53567e-05 -0.00022876 -1.874e-05
-0.00022876 -0.000387955 2.54338e-06
-1.874e-05 2.54338e-06 -0.000566531
0.000407095 4.60143e-05 8.42424e-08
4.60143e-05 -6.70718e-05 -1.04436e-06
8.42424e-08 -1.04436e-06 -0.000173328
0.000795191 0.000129247 -3.62313e-06
0.000129247 0.000189645 -2.8474e-06
-3.62313e-06 -2.8474e-06 2.59359e-05
0.00209675 0.000284212 -2.77551e-06
0.000284212 0.000110357 -1.04551e-06
-2.77551e-06 -1.04551e-06 4.84461e-05
0.00192819 0.000351067 -6.70302e-07
0.000351067 0.000183818 1.70439e-06
-6.70302e-07 1.70439e-06 3.35267e-05
0.00178911 0.00022314 -6.97647e-06
0.00022314 0.000683938 -2.38916e-06
-6.97647e-06 -2.38916e-06 0.000504581
0.00124965 0.000265971 -3.2116e-06
0.000265971 0.000318533 -9.07328e-06
-3.2116e-06 -9.07328e-06 8.54902e-05
0.00182171 0.00040911 7.65733e-07
0.00040911 0.000241408 1.58346e-06
7.65733e-07 1.58346e-06 1.33186e-05
0.00174812 0.000374032 -3.50534e-07
0.000374032 0.000409309 -9.79156e-07
-3.50534e-07 -9.79156e-07 0.000131766
0.000590004 5.94659e-05 7.95572e-07
5.94659e-05 3.87774e-05 -9.11153e-07
7.95572e-07 -9.11153e-07 -7.17932e-05
0.00200109 0.000223051 -6.21318e-07
0.000223051 1.31909e-05 -4.40531e-07
-6.21318e-07 -4.40531e-07 -9.20804e-07
0.00099264 0.000185277 8.91355e-07
0.000185277 0.0002985 1.585e-06
8.91355e-07 1.585e-06 0.000106257
0.000934947 0.000248259 1.21717e-06
0.000248259 9.92606e-05 4.49758e-07
1.21717e-06 4.49758e-07 -0.000135332
0.00226617 0.000342536 2.95425e-06
0.000342536 0.000272782 6.43273e-07
2.95425e-06 6.43273e-07 0.000176471
0.00144219 0.00040585 -7.26758e-07
0.00040585 -4.69513e-05 -3.20035e-06
-7.26758e-07 -3.20035e-06 -0.000258265
0.00203216 0.000427502 1.19116e-07
0.000427502 0.000515952 4.39538e-07
1.19116e-07 4.39538e-07 0.000230347
0.00116993 0.000136317 -3.69277e-06
0.000136317 0.000399184 3.05726e-06
-3.69277e-06 3.05726e-06 0.000249379
0.00244873 0.000250802 -4.23032e-05
0.000250802 0.000323991 -1.04756e-05
-4.23032e-05 -1.04756e-05 0.000336251
0.00239845 0.000381905 -5.99104e-06
0.000381905 0.00104955 2.95403e-07
-5.99104e-06 2.95403e-07 0.00082247
0.00223176 0.000401676 -7.30502e-06
0.000401676 0.000755315 -2.13104e-07
-7.30502e-06 -2.13104e-07 0.000492533
0.00198799 0.000460612 -1.98888e-05
0.000460612 0.00014159 -1.2789e-05
-1.98888e-05 -1.2789e-05 2.34747e-07
0.00108697 0.000378593 -1.4274e-05
0.000378593 -7.46363e-05 -7.64258e-07
-1.4274e-05 -7.64258e-07 -0.000339716
0.0006812 0.000319614 2.70937e-05
0.000319614 -0.000604961 -1.84634e-05
2.70937e-05 -1.84634e-05 -0.000829003
0.000528215 5.37289e-05 8.5379e-07
5.37289e-05 -3.32072e-06 -4.33484e-07
8.5379e-07 -4.33484e-07 -9.74009e-05
0.000670228 3.44335e-05 -1.61542e-07
3.44335e-05 9.07708e-05 8.67498e-07
-1.61542e-07 8.67498e-07 1.46665e-06
0.00136281 6.22756e-05 9.14399e-08
6.22756e-05 0.000482825 -6.27559e-07
9.14399e-08 -6.27559e-07 0.000390861
0.000616563 -5.91081e-05 1.37626e-07
-5.91081e-05 4.75878e-05 -2.32568e-06
1.37626e-07 -2.32568e-06 -4.08685e-05
0.000560308 -4.21078e-05 -1.07682e-06
-4.21078e-05 1.46557e-05 -1.93918e-08
-1.07682e-06 -1.93918e-08 -8.78454e-05
0.000914668 0.000120908 -1.24755e-07
0.000120908 0.000230927 7.09169e-07
-1.24755e-07 7.09169e-07 0.000114187
0.000404205 -1.73344e-05 -1.2406e-06
-1.73344e-05 -7.68795e-05 3.00468e-06
-1.2406e-06 3.00468e-06 -0.000168405
0.000638993 -2.29974e-05 -1.17902e-07
-2.29974e-05 5.94862e-05 -3.69346e-08
-1.17902e-07 -3.69346e-08 -3.05429e-05
0.00063621 3.86189e-05 -9.96975e-08
3.86189e-05 5.18576e-05 -3.80785e-07
-9.96975e-08 -3.80785e-07 -5.24766e-05
0.000851451 2.88969e-05 -1.12974e-06
2.88969e-05 0.000161962 1.08891e-07
-1.12974e-06 1.08891e-07 7.91711e-05
0.000757557 1.74597e-05 4.0935e-07
1.74597e-05 0.000125128 -8.83627e-08
4.0935e-07 -8.83627e-08 1.465e-05
0.000778839 -4.95894e-06 -3.64152e-08
-4.95894e-06 0.00012982 -2.60215e-07
-3.64152e-08 -2.60215e-07 3.16428e-05
0.000870413 2.69721e-05 -5.56287e-07
2.69721e-05 0.000170508 -2.89779e-06
-5.56287e-07 -2.89779e-06 8.5726e-05
0.00080546 3.38449e-05 -1.4639e-06
3.38449e-05 0.00014122 -2.20398e-06
-1.4639e-06 -2.20398e-06 2.91356e-05
0.000809542 6.96846e-05 4.10989e-07
6.96846e-05 0.000147181 3.53078e-07
4.10989e-07 3.53078e-07 3.96628e-05
0.000690954 4.08456e-05 2.46461e-07
4.08456e-05 9.71134e-05 1.22385e-06
2.46461e-07 1.22385e-06 -2.30841e-05
0.000487181 -1.97671e-05 -1.57016e-07
-1.97671e-05 -4.43355e-05 2.04063e-06
-1.57016e-07 2.04063e-06 -0.000130369
0.000886349 -2.64002e-05 5.9145e-08
-2.64002e-05 0.000229665 -1.00958e-06
5.9145e-08 -1.00958e-06 0.000108374
0.000429981 -1.10664e-05 -7.95816e-07
-1.10664e-05 -7.39596e-05 2.21033e-06
-7.95816e-07 2.21033e-06 -0.000164194
0.000562375 6.96222e-06 -1.10808e-06
6.96222e-06 -7.93914e-06 1.93755e-06
-1.10808e-06 1.93755e-06 -6.24395e-05
0.000579165 1.99721e-05 1.13632e-06
1.99721e-05 9.18876e-07 -9.26357e-09
1.13632e-06 -9.26357e-09 -5.25662e-05
0.000550401 3.51005e-06 2.92193e-07
3.51005e-06 -4.64584e-05 3.72586e-06
2.92193e-07 3.72586e-06 -6.17826e-05
0.000589599 -1.40864e-06 -1.45508e-06
-1.40864e-06 4.82025e-06 -2.22608e-06
-1.45508e-06 -2.22608e-06 -4.7671e-05
0.000941744 -2.89108e-06 -1.92045e-06
-2.89108e-06 0.000185139 -1.64757e-06
-1.92045e-06 -1.64757e-06 0.000172353
0.00235516 -1.31183e-05 7.83462e-06
-1.31183e-05 0.00102436 5.17659e-06
7.83462e-06 5.17659e-06 0.00104025
0.00135729 -1.21209e-05 -2.97139e-06
-1.21209e-05 0.000431199 -5.48906e-06
-2.97139e-06 -5.48906e-06 0.000420761
0.000822533 -1.67146e-05 2.03402e-06
-1.67146e-05 0.000114398 3.20618e-06
2.03402e-06 3.20618e-06 0.00012245
0.000783215 -2.34525e-05 -3.3389e-07
-2.34525e-05 9.21955e-05 -2.12367e-06
-3.3389e-07 -2.12367e-06 9.97914e-05
0.000620091 7.76228e-06 -4.71099e-07
7.76228e-06 9.13866e-06 -1.51499e-06
-4.71099e-07 -1.51499e-06 -2.89102e-05
0.00063398 -3.12511e-06 9.66146e-07
-3.12511e-06 1.57781e-05 -1.07077e-07
9.66146e-07 -1.07077e-07 -2.36307e-05
0.000582808 2.15099e-05 3.40532e-07
2.15099e-05 -3.00962e-05 -3.3964e-06
3.40532e-07 -3.3964e-06 -3.90849e-05
0.000888758 3.42003e-05 -3.79543e-07
3.42003e-05 0.000155986 4.82312e-08
-3.79543e-07 4.82312e-08 0.000146243
0.00211614 5.3434e-05 1.45976e-05
5.3434e-05 0.000893484 -4.18358e-06
1.45976e-05 -4.18358e-06 0.00090803
0.000570087 3.96722e-05 5.396e-07
3.96722e-05 -2.54817e-05 3.74554e-06
5.396e-07 3.74554e-06 -4.12224e-05
0.00221346 6.97806e-05 -2.87872e-06
6.97806e-05 0.000959128 -1.82716e-07
-2.87872e-06 -1.82716e-07 0.000970227
0.00242852 8.83173e-05 -2.22052e-05
8.83173e-05 0.00109526 3.94976e-06
-2.22052e-05 3.94976e-06 0.00110172
0.00192607 0.000220038 -4.34922e-06
0.000220038 4.05888e-05 -1.47416e-06
-4.34922e-06 -1.47416e-06 -1.7686e-05
0.00189487 7.96749e-05 -2.27434e-06
7.96749e-05 2.43159e-05 3.04308e-07
-2.27434e-06 3.04308e-07 -3.08272e-06
0.00183304 -4.14078e-06 -3.54795e-06
-4.14078e-06 5.42581e-05 7.30719e-08
-3.54795e-06 7.30719e-08 1.30528e-05
0.00190487 2.87965e-07 8.60145e-08
2.87965e-07 2.12098e-05 -1.58255e-07
8.60145e-08 -1.58255e-07 8.69345e-06
0.00197353 0.000124746 2.67486e-07
0.000124746 2.24779e-05 9.49973e-08
2.67486e-07 9.49973e-08 4.50951e-07
0.00189107 6.21718e-05 4.24171e-06
6.21718e-05 4.41958e-06 2.6405e-07
4.24171e-06 2.6405e-07 2.60976e-05
0.00195852 7.7926e-06 -4.15383e-07
7.7926e-06 -1.54752e-05 -8.5023e-07
-4.15383e-07 -8.5023e-07 -5.65593e-06
0.00284694 0.000300982 3.21958e-05
0.000300982 -0.000260727 6.29859e-06
3.21958e-05 6.29859e-06 -0.000128577
0.00217349 3.7741e-05 -2.89075e-05
3.7741e-05 0.00031614 9.82265e-06
-2.89075e-05 9.82265e-06 0.000378911
0.000610633 7.84962e-05 -9.4499e-07
7.84962e-05 3.7137e-05 -4.91918e-07
-9.4499e-07 -4.91918e-07 -3.37976e-05
0.00190058 -8.34424e-05 -2.2909e-06
-8.34424e-05 2.70223e-05 5.81131e-08
-2.2909e-06 5.81131e-08 1.18847e-06
0.00190672 -0.000203431 -7.31517e-07
-0.000203431 4.42586e-05 9.70127e-07
-7.31517e-07 9.70127e-07 8.74388e-06
0.00182797 -0.0002654 2.61913e-07
-0.0002654 2.60103e-05 1.82789e-06
2.61913e-07 1.82789e-06 -3.97563e-05
0.000549082 -0.000233125 7.54909e-07
-0.000233125 -0.000153112 8.85173e-06
7.54909e-07 8.85173e-06 -0.000386044
0.00185837 -0.000449747 2.1895e-06
-0.000449747 0.000460523 5.04566e-06
2.1895e-06 5.04566e-06 0.000126474
0.00143948 -0.000418941 -1.97094e-07
-0.000418941 3.83438e-05 -7.99545e-06
-1.97094e-07 -7.99545e-06 -0.000211477
0.00225522 -0.000426983 -3.86623e-06
-0.000426983 0.000290116 -1.69757e-06
-3.86623e-06 -1.69757e-06 0.000158304
0.00173737 -0.000281274 1.41192e-05
-0.000281274 0.000559784 -6.88059e-07
1.41192e-05 -6.88059e-07 0.000364736
0.000424156 -0.000165315 1.03267e-05
-0.000165315 -4.88728e-05 -4.9376e-06
1.03267e-05 -4.9376e-06 -0.000243408
0.00100272 -0.000108708 1.03639e-06
-0.000108708 0.000275382 -2.11787e-06
1.03639e-06 -2.11787e-06 9.92851e-05
0.000608103 4.30398e-06 -8.2856e-07
4.30398e-06 2.17429e-06 1.5489e-06
-8.2856e-07 1.5489e-06 -3.81602e-05
0.000834812 -1.66809e-05 1.93827e-06
-1.66809e-05 0.000191468 -8.11095e-07
1.93827e-06 -8.11095e-07 3.98102e-05
0.000922122 -3.98137e-05 1.84783e-06
-3.98137e-05 0.000235286 -4.76114e-07
1.84783e-06 -4.76114e-07 0.00014793
0.000836137 -2.36167e-05 8.1021e-07
-2.36167e-05 0.000194801 -6.41442e-07
8.1021e-07 -6.41442e-07 6.41109e-05
0.000404162 -2.46815e-05 -1.88337e-06
-2.46815e-05 -0.00010209 9.83674e-07
-1.88337e-06 9.83674e-07 -0.00016813
0.00195009 -0.000104424 -2.36806e-07
-0.000104424 -2.57224e-05 6.79665e-08
-2.36806e-07 6.79665e-08 -3.38518e-05
0.000511392 3.57526e-05 6.22134e-08
3.57526e-05 -1.94116e-05 -1.23806e-06
6.22134e-08 -1.23806e-06 -9.53706e-05
0.000656288 -5.34492e-05 7.33438e-07
-5.34492e-05 6.20577e-05 4.29252e-07
7.33438e-07 4.29252e-07 -1.33531e-05
0.000787298 -5.2428e-05 -1.24325e-07
-5.2428e-05 0.000143878 7.69504e-07
-1.24325e-07 7.69504e-07 4.79555e-05
0.00189262 -0.000244885 1.17366e-06
-0.000244885 -2.07212e-05 -1.87088e-07
1.17366e-06 -1.87088e-07 -4.06436e-06
0.00203647 -0.000370175 -5.3368e-07
-0.000370175 8.04371e-05 -3.53311e-07
-5.3368e-07 -3.53311e-07 -2.1989e-06
0.00125319 -0.000285166 5.85985e-06
-0.000285166 0.000243458 -1.7712e-07
5.85985e-06 -1.7712e-07 3.00598e-06
0.00200668 -0.000499895 5.47075e-06
-0.000499895 0.00052474 2.09072e-07
5.47075e-06 2.09072e-07 0.000182014
0.00183193 -0.000479264 -7.77541e-07
-0.000479264 0.000167597 1.39095e-06
-7.77541e-07 1.39095e-06 1.51877e-06
0.000494264 -1.08035e-05 -4.34237e-07
-1.08035e-05 -5.42525e-06 -1.99468e-07
-4.34237e-07 -1.99468e-07 -0.000123672
0.000829875 -7.29206e-05 -1.57072e-06
-7.29206e-05 0.000186148 4.86072e-07
-1.57072e-06 4.86072e-07 4.79875e-05
0.000644856 -0.000276012 -5.98918e-06
-0.000276012 -4.14481e-05 2.73635e-08
-5.98918e-06 2.73635e-08 -0.000254558
0.000539082 -0.000105066 -2.06634e-07
-0.000105066 9.10585e-05 -1.29718e-06
-2.06634e-07 -1.29718e-06 -0.000177343
0.000715778 -6.89649e-05 -5.93986e-08
-6.89649e-05 7.42505e-05 -2.07019e-07
-5.93986e-08 -2.07019e-07 -8.06162e-05
0.00235464 -0.000214546 -2.57748e-06
-0.000214546 0.000190702 -1.73492e-06
-2.57748e-06 -1.73492e-06 0.000193271
0.0017642 -0.000258398 -1.02964e-05
-0.000258398 -0.000132962 1.80002e-06
-1.02964e-05 1.80002e-06 -8.94689e-05
0.0024885 -0.000520443 -6.38008e-06
-0.000520443 0.000359418 -3.60394e-06
-6.38008e-06 -3.60394e-06 0.000217767
0.00279273 -0.000591541 -1.92624e-05
-0.000591541 0.000811179 2.5744e-06
-1.92624e-05 2.5744e-06 0.000580346
0.0013117 -0.000317943 -1.46447e-05
-0.000317943 0.000326557 -2.96728e-06
-1.46447e-05 -2.96728e-06 7.01531e-05
0.000444709 6.82512e-06 1.277e-06
6.82512e-06 -5.5465e-05 -7.65364e-07
1.277e-06 -7.65364e-07 -0.000150767
0.000499171 4.58488e-05 4.18559e-07
4.58488e-05 -3.28856e-05 5.88397e-07
4.18559e-07 5.88397e-07 -0.000132475
0.000448378 4.90197e-07 1.04378e-07
4.90197e-07 -5.24572e-05 -1.07193e-06
1.04378e-07 -1.07193e-06 -0.000158243
0.00129965 -0.000149927 -2.1666e-06
-0.000149927 0.000478829 4.46375e-06
-2.1666e-06 4.46375e-06 0.000341693
0.000468233 -5.54365e-05 -6.00239e-07
-5.54365e-05 -4.93905e-05 5.33011e-06
-6.00239e-07 5.33011e-06 -0.000179328
-2.6308e-05 -7.3765e-05 2.10585e-06
-7.3765e-05 -0.000189687 3.34455e-06
2.10585e-06 3.34455e-06 -0.000478066
0.00024177 -0.000321547 4.24472e-06
-0.000321547 -7.17449e-05 -1.28039e-06
4.24472e-06 -1.28039e-06 -0.000414678
0.000747267 9.48359e-05 1.38675e-06
9.48359e-05 0.000144927 -4.38624e-06
1.38675e-06 -4.38624e-06 2.07345e-05
0.000195871 8.64281e-05 4.47955e-07
8.64281e-05 -0.000175265 -1.41876e-06
4.47955e-07 -1.41876e-06 -0.000346264
0.00212082 0.000212106 7.552e-06
0.000212106 6.9398e-05 -5.46352e-08
7.552e-06 -5.46352e-08 6.51933e-05
0.00200496 0.000331808 1.303e-05
0.000331808 0.000131548 3.43217e-06
1.303e-05 3.43217e-06 3.82436e-05
0.00189656 0.00043623 9.49013e-06
0.00043623 0.000205229 3.53224e-06
9.49013e-06 3.53224e-06 -6.20046e-06
0.000697948 0.000228496 1.25864e-06
0.000228496 -2.99858e-05 -6.08218e-07
1.25864e-06 -6.08218e-07 -0.000263192
0.00201588 0.000425391 2.13875e-06
0.000425391 0.000520021 7.94444e-07
2.13875e-06 7.94444e-07 0.000235066
0.00135024 0.000116159 -8.46647e-08
0.000116159 0.000488602 4.41699e-07
-8.46647e-08 4.41699e-07 0.000349867
0.0021945 0.000216092 -2.38653e-06
0.000216092 0.000203581 4.38428e-07
-2.38653e-06 4.38428e-07 0.000223934
0.00153272 0.000277352 -1.72387e-06
0.000277352 0.000545528 4.89696e-07
-1.72387e-06 4.89696e-07 0.000341289
0.00153551 0.000337693 -5.35748e-07
0.000337693 0.000386753 9.47387e-07
-5.35748e-07 9.47387e-07 0.000124052
0.00198167 0.000445855 -1.59813e-06
0.000445855 0.000140791 -3.24577e-06
-1.59813e-06 -3.24577e-06 9.38525e-06
0.00165115 0.000430348 -2.87648e-06
0.000430348 0.000242354 4.67039e-06
-2.87648e-06 4.67039e-06 -3.46569e-05
0.00195347 0.000418136 3.23491e-05
0.000418136 -0.000203733 3.42593e-06
3.23491e-05 3.42593e-06 -0.000510801
0.00119112 0.000189233 -5.10766e-06
0.000189233 0.000422448 -9.66817e-07
-5.10766e-06 -9.66817e-07 0.000258317
0.00227281 0.000351988 -4.91366e-05
0.000351988 0.000333292 -2.48142e-05
-4.91366e-05 -2.48142e-05 0.000321237
0.00125678 0.000272396 -5.70869e-06
0.000272396 0.000324728 -1.09216e-06
-5.70869e-06 -1.09216e-06 0.000128751
0.000774221 0.000299241 -2.71346e-06
0.000299241 -8.91868e-05 -3.68975e-06
-2.71346e-06 -3.68975e-06 -0.00035415
5.1839e-05 0.000391053 -1.54804e-05
0.000391053 -0.000755459 -6.38538e-06
-1.54804e-05 -6.38538e-06 -0.000948785
0.0103544 0.00035339 -0.000188796
0.00035339 0.0022953 -3.87487e-05
-0.000188796 -3.87487e-05 0.0014147
0.00562708 0.000785895 0.00013049
0.000785895 0.000733914 -2.181e-05
0.00013049 -2.181e-05 0.000379675
0.00109504 0.000557338 1.95388e-05
0.000557338 -0.000236218 1.13524e-05
1.95388e-05 1.13524e-05 -0.000452136
-0.00474221 -0.000737895 0.000369653
-0.000737895 -0.00113751 3.26716e-05
0.000369653 3.26716e-05 -0.00244217
0.00828847 -0.00236976 -2.30377e-05
-0.00236976 0.00174738 1.2014e-05
-2.30377e-05 1.2014e-05 0.00314453
0.000477543 4.34067e-05 3.28777e-06
4.34067e-05 -1.2485e-05 8.75343e-07
3.28777e-06 8.75343e-07 -0.00010363
0.000874079 3.84006e-05 1.20022e-06
3.84006e-05 0.000215393 -5.48011e-07
1.20022e-06 -5.48011e-07 0.000123935
0.000961953 8.87429e-05 -2.54442e-06
8.87429e-05 0.000261628 -1.69114e-06
-2.54442e-06 -1.69114e-06 0.000160253
0.000623419 -5.99895e-05 -5.42769e-08
-5.99895e-05 5.78776e-05 -1.79823e-06
-5.42769e-08 -1.79823e-06 -3.68839e-05
0.000618848 5.75679e-05 -1.10433e-06
5.75679e-05 4.51379e-05 -1.44239e-06
-1.10433e-06 -1.44239e-06 -6.30521e-05
0.00076273 -3.06958e-05 3.85469e-07
-3.06958e-05 0.000130268 -2.88212e-07
3.85469e-07 -2.88212e-07 1.92014e-05
0.000848126 1.89951e-05 -1.26111e-06
1.89951e-05 0.0001672 2.58767e-06
-1.26111e-06 2.58767e-06 6.72662e-05
0.000591264 1.87914e-05 -1.39071e-06
1.87914e-05 1.33606e-05 2.05144e-06
-1.39071e-06 2.05144e-06 -7.03623e-05
0.000757657 7.58226e-05 -1.47971e-06
7.58226e-05 0.000129748 -4.99705e-07
-1.47971e-06 -4.99705e-07 1.23244e-05
0.000562335 -8.57788e-06 1.1973e-08
-8.57788e-06 6.01912e-06 7.29841e-07
1.1973e-08 7.29841e-07 -8.29016e-05
0.000674831 2.2144e-05 9.68641e-08
2.2144e-05 8.45615e-05 8.12756e-08
9.68641e-08 8.12756e-08 -3.27252e-05
0.000737975 2.80292e-05 8.24049e-07
2.80292e-05 9.2648e-05 -1.03993e-07
8.24049e-07 -1.03993e-07 7.01904e-06
0.000817853 4.08542e-05 -5.53859e-07
4.08542e-05 0.000147978 -7.1871e-08
-5.53859e-07 -7.1871e-08 4.02325e-05
0.0010041 8.51876e-05 -1.28115e-06
8.51876e-05 0.000260029 -1.20808e-06
-1.28115e-06 -1.20808e-06 0.000149729
0.000396083 4.14978e-05 7.01915e-08
4.14978e-05 -8.97038e-05 -2.84589e-06
7.01915e-08 -2.84589e-06 -0.000185774
0.000838496 7.82013e-05 1.56936e-06
7.82013e-05 0.000162261 5.76917e-07
1.56936e-06 5.76917e-07 4.97841e-05
0.000587762 -1.88744e-05 1.14605e-06
-1.88744e-05 2.04577e-05 8.19762e-08
1.14605e-06 8.19762e-08 -8.98426e-05
0.000475833 -5.14482e-05 -1.23316e-06
-5.14482e-05 -4.53687e-05 1.75904e-06
-1.23316e-06 1.75904e-06 -0.000137969
0.000783314 -2.60779e-06 -9.6947e-07
-2.60779e-06 0.000145869 -5.32128e-08
-9.6947e-07 -5.32128e-08 3.13244e-05
0.00079064 3.4904e-05 -1.23767e-07
3.4904e-05 0.000150791 -2.64357e-06
-1.23767e-07 -2.64357e-06 4.12128e-05
0.000670915 -2.00041e-05 -9.47803e-07
-2.00041e-05 8.87301e-05 -1.9945e-07
-9.47803e-07 -1.9945e-07 -1.86537e-05
0.000797517 -2.11345e-05 1.12288e-06
-2.11345e-05 0.000159986 -5.67701e-07
1.12288e-06 -5.67701e-07 4.92432e-05
0.000678369 -8.15842e-05 -2.33734e-06
-8.15842e-05 7.23553e-05 1.35307e-06
-2.33734e-06 1.35307e-06 -1.5135e-05
0.000478979 -9.16231e-06 1.06339e-07
-9.16231e-06 -4.29658e-05 7.92903e-07
1.06339e-07 7.92903e-07 -0.000135352
0.000600612 -1.5973e-05 -1.36181e-06
-1.5973e-05 8.0712e-06 2.26171e-06
-1.36181e-06 2.26171e-06 -4.42342e-05
0.000591525 -1.62357e-05 9.55284e-07
-1.62357e-05 7.91429e-06 -1.18805e-08
9.55284e-07 -1.18805e-08 -4.59965e-05
0.000587871 5.89704e-06 -3.04096e-07
5.89704e-06 -2.31949e-05 5.41875e-06
-3.04096e-07 5.41875e-06 -3.91496e-05
0.000590828 1.59083e-05 -7.92161e-07
1.59083e-05 6.05833e-06 -2.04237e-06
-7.92161e-07 -2.04237e-06 -4.61812e-05
0.000561542 2.94843e-06 3.83297e-07
2.94843e-06 -3.96136e-05 -1.00477e-08
3.83297e-07 -1.00477e-08 -5.50375e-05
0.00235526 -1.64747e-06 -6.48546e-07
-1.64747e-06 0.00102404 5.25661e-06
-6.48546e-07 5.25661e-06 0.0010399
0.000601369 -8.29331e-07 -5.92825e-07
-8.29331e-07 -1.67858e-05 -5.57739e-06
-5.92825e-07 -5.57739e-06 -3.19167e-05
0.00159112 -9.81822e-06 -3.43001e-08
-9.81822e-06 0.000569758 8.26017e-08
-3.43001e-08 8.26017e-08 0.000581637
0.000782797 -1.48636e-05 1.2518e-07
-1.48636e-05 8.93222e-05 -2.09158e-06
1.2518e-07 -2.09158e-06 9.77322e-05
0.000614882 -8.79747e-06 7.85202e-07
-8.79747e-06 8.50135e-06 -1.43387e-06
7.85202e-07 -1.43387e-06 -2.84782e-05
0.000631253 -1.62324e-05 4.2903e-07
-1.62324e-05 1.59182e-05 -3.79691e-08
4.2903e-07 -3.79691e-08 -2.26384e-05
0.000597744 1.42112e-05 3.47735e-07
1.42112e-05 -2.36217e-05 -3.18608e-06
3.47735e-07 -3.18608e-06 -3.09037e-05
0.000612342 -1.38163e-05 -1.4362e-06
-1.38163e-05 2.15142e-06 1.40615e-06
-1.4362e-06 1.40615e-06 -3.68257e-05
0.000871132 2.517e-05 -6.58873e-08
2.517e-05 0.000141292 -7.16244e-07
-6.58873e-08 -7.16244e-07 0.000134218
0.00205318 3.96539e-05 1.11235e-05
3.96539e-05 0.000851203 -4.31287e-06
1.11235e-05 -4.31287e-06 0.000868031
0.000569241 3.00907e-05 -4.05518e-07
3.00907e-05 -3.35599e-05 3.44614e-06
-4.05518e-07 3.44614e-06 -4.53673e-05
0.00217512 5.53538e-05 -7.23975e-06
5.53538e-05 0.000930579 1.12508e-06
-7.23975e-06 1.12508e-06 0.000944472
0.00227274 7.26228e-05 -1.72438e-05
7.26228e-05 0.000995306 4.03595e-06
-1.72438e-05 4.03595e-06 0.00100567
0.00194323 0.000124145 -2.6723e-06
0.000124145 2.08917e-05 -2.03745e-07
-2.6723e-06 -2.03745e-07 -2.86727e-06
0.00189913 -1.34876e-07 -2.09415e-06
-1.34876e-07 2.11024e-05 2.33537e-07
-2.09415e-06 2.33537e-07 8.42927e-06
0.00157468 5.16383e-05 1.05394e-05
5.16383e-05 -0.000187864 -1.35064e-06
1.05394e-05 -1.35064e-06 -0.000172421
0.00230933 0.000218549 3.58115e-05
0.000218549 -0.000386146 7.81742e-06
3.58115e-05 7.81742e-06 -0.000314844
0.00191766 -4.99458e-06 -2.53139e-06
-4.99458e-06 -3.01387e-05 -3.27357e-07
-2.53139e-06 -3.27357e-07 -1.96059e-05
0.00191016 4.78873e-05 3.93286e-06
4.78873e-05 0.000170711 -1.59293e-06
3.93286e-06 -1.59293e-06 0.000218304
0.00280092 -1.26793e-05 -2.62665e-05
-1.26793e-05 0.000694121 3.00804e-06
-2.62665e-05 3.00804e-06 0.000672088
0.00204071 -3.93345e-05 6.62087e-05
-3.93345e-05 -0.00116744 -1.48976e-05
6.62087e-05 -1.48976e-05 -0.00108544
0.00259891 7.09528e-05 2.33455e-05
7.09528e-05 4.28691e-05 1.39028e-05
2.33455e-05 1.39028e-05 0.000144553
0.000638952 6.81106e-05 -3.14872e-08
6.81106e-05 5.71026e-05 -6.41827e-07
-3.14872e-08 -6.41827e-07 -1.71185e-05
0.000664406 -9.22878e-06 5.96316e-07
-9.22878e-06 7.33274e-05 -2.08736e-07
5.96316e-07 -2.08736e-07 -2.2271e-06
0.000637228 -9.08175e-05 -4.86253e-07
-9.08175e-05 5.79618e-05 7.90893e-07
-4.86253e-07 7.90893e-07 -3.21969e-05
0.000644764 -3.79629e-05 -9.82131e-07
-3.79629e-05 8.20565e-05 1.27111e-06
-9.82131e-07 1.27111e-06 -1.97895e-05
0.00198327 -0.000115716 -4.40982e-06
-0.000115716 -2.72212e-05 8.33339e-07
-4.40982e-06 8.33339e-07 -2.1474e-05
0.0018993 -0.0002436 6.82184e-07
-0.0002436 -4.92786e-06 3.99545e-07
6.82184e-07 3.99545e-07 2.85434e-06
0.00203437 -0.00036567 -3.62138e-06
-0.00036567 9.03431e-05 2.58948e-06
-3.62138e-06 2.58948e-06 7.03818e-06
0.00221636 -0.000396515 7.17948e-06
-0.000396515 0.00077179 4.68415e-06
7.17948e-06 4.68415e-06 0.000523284
0.00116705 -0.000428205 8.79806e-06
-0.000428205 7.12844e-05 -3.79233e-06
8.79806e-06 -3.79233e-06 -0.000258922
0.00220394 -0.000502254 3.94261e-06
-0.000502254 0.000386844 -3.78262e-06
3.94261e-06 -3.78262e-06 0.000212422
0.00101612 -0.000293857 -5.02461e-06
-0.000293857 0.000188861 2.43944e-06
-5.02461e-06 2.43944e-06 -5.07057e-05
0.0017495 -0.000133301 2.57326e-07
-0.000133301 0.000726085 -6.11101e-07
2.57326e-07 -6.11101e-07 0.000501427
0.000338425 -8.06928e-05 -7.53948e-07
-8.06928e-05 -0.000145656 -9.16868e-07
-7.53948e-07 -9.16868e-07 -0.000294049
0.000688554 -3.63495e-05 -3.16084e-07
-3.63495e-05 7.93054e-05 1.19425e-06
-3.16084e-07 1.19425e-06 5.74803e-06
0.000651801 -8.41591e-05 3.07401e-07
-8.41591e-05 9.06779e-05 -2.12335e-06
3.07401e-07 -2.12335e-06 -5.63733e-05
0.000812355 -5.09384e-06 6.89844e-07
-5.09384e-06 0.000182352 -7.73168e-07
6.89844e-07 -7.73168e-07 6.41626e-05
0.00065703 8.9695e-06 3.32683e-07
8.9695e-06 7.2738e-05 1.39244e-07
3.32683e-07 1.39244e-07 -6.07123e-06
0.000567216 9.21159e-06 -2.62115e-06
9.21159e-06 1.46895e-05 2.55838e-06
-2.62115e-06 2.55838e-06 -8.05079e-05
0.00225256 -0.000194618 1.09939e-06
-0.000194618 0.000143897 5.88331e-07
1.09939e-06 5.88331e-07 0.000158344
0.000663162 -1.08096e-05 1.14875e-06
-1.08096e-05 8.17464e-05 -3.79416e-07
1.14875e-06 -3.79416e-07 -1.84189e-05
0.000700091 9.2538e-06 2.28455e-06
9.2538e-06 9.36298e-05 -1.77128e-07
2.28455e-06 -1.77128e-07 -8.64049e-06
0.000446823 4.58843e-05 1.24937e-07
4.58843e-05 -4.83463e-05 1.51605e-06
1.24937e-07 1.51605e-06 -0.000146059
0.00176121 -0.000261919 -9.44118e-07
-0.000261919 -0.000156807 -1.71774e-06
-9.44118e-07 -1.71774e-06 -0.000119099
0.00201185 -0.000481716 1.26986e-06
-0.000481716 0.00011369 -4.35763e-07
1.26986e-06 -4.35763e-07 -1.7339e-05
0.0014897 -0.000370691 -9.38735e-07
-0.000370691 0.000414039 -5.00413e-07
-9.38735e-07 -5.00413e-07 0.000148804
0.00216964 -0.000544726 -5.19151e-06
-0.000544726 0.000479566 2.01695e-06
-5.19151e-06 2.01695e-06 0.000252381
0.00107702 -6.9917e-05 -1.0143e-06
-6.9917e-05 0.000330461 6.28659e-07
-1.0143e-06 6.28659e-07 0.000200671
0.00053456 -7.53894e-05 -2.14806e-07
-7.53894e-05 -1.03109e-05 9.78006e-07
-2.14806e-07 9.78006e-07 -0.000149284
0.000992643 -0.000367975 3.09962e-06
-0.000367975 0.000351766 -1.0948e-06
3.09962e-06 -1.0948e-06 -1.67298e-06
0.00112528 -0.00017459 3.73971e-07
-0.00017459 0.000415876 -1.64125e-07
3.73971e-07 -1.64125e-07 0.000144015
0.00239675 -0.00022485 -2.13e-05
-0.00022485 0.00015478 3.59372e-07
-2.13e-05 3.59372e-07 0.000242509
0.00238394 -0.000399319 -2.23408e-05
-0.000399319 0.000204712 5.92899e-06
-2.23408e-05 5.92899e-06 0.000214076
0.00286444 -0.000635928 -9.82819e-06
-0.000635928 0.000658056 -6.40988e-06
-9.82819e-06 -6.40988e-06 0.000453395
0.0016554 -0.000468925 -4.02797e-06
-0.000468925 0.000395514 3.63057e-06
-4.02797e-06 3.63057e-06 0.000178159
0.000563381 -1.811e-06 -1.43293e-06
-1.811e-06 3.89488e-05 -2.167e-06
-1.43293e-06 -2.167e-06 -8.24028e-05
0.00053931 -7.14253e-05 -6.35852e-07
-7.14253e-05 1.57355e-05 -4.47979e-06
-6.35852e-07 -4.47979e-06 -0.000112208
0.000507093 -0.000108639 -1.91563e-06
-0.000108639 7.11826e-05 7.2954e-06
-1.91563e-06 7.2954e-06 -0.000103632
-6.67094e-06 -0.000155825 -1.67665e-07
-0.000155825 -3.28229e-05 -7.37656e-06
-1.67665e-07 -7.37656e-06 -0.000465121
0.000828555 -0.000363611 3.02999e-05
-0.000363611 -0.00299563 -4.09766e-06
3.02999e-05 -4.09766e-06 -0.00333797
0.00145307 0.000107826 7.45915e-07
0.000107826 0.000539359 -3.5811e-06
7.45915e-07 -3.5811e-06 0.00040839
0.000500931 0.000164052 3.71638e-06
0.000164052 -4.64953e-05 1.10261e-06
3.71638e-06 1.10261e-06 -0.00023018
0.00197637 0.000190427 4.75598e-05
0.000190427 0.000100291 8.8505e-06
4.75598e-05 8.8505e-06 0.000125349
0.00205917 0.000437021 1.66896e-05
0.000437021 0.000183672 7.29582e-06
1.66896e-05 7.29582e-06 5.99233e-05
0.00181817 0.000449855 5.66342e-06
0.000449855 0.000350453 6.82356e-06
5.66342e-06 6.82356e-06 6.32629e-05
0.000816364 0.000271089 6.22645e-06
0.000271089 4.59864e-06 2.86776e-06
6.22645e-06 2.86776e-06 -0.000258521
0.00324068 0.000518556 7.28737e-05
0.000518556 0.000264852 2.27405e-05
7.28737e-05 2.27405e-05 -0.000179856
0.00128007 0.000169088 2.816e-06
0.000169088 0.000474624 2.91683e-07
2.816e-06 2.91683e-07 0.000314912
0.00240026 0.000356182 -1.26831e-05
0.000356182 0.000382209 -1.22472e-06
-1.26831e-05 -1.22472e-06 0.000384967
0.00109714 0.000258398 1.159e-06
0.000258398 0.000252278 5.11246e-07
1.159e-06 5.11246e-07 5.69142e-05
0.00126132 0.000358305 2.11605e-06
0.000358305 0.000189179 -1.73518e-06
2.11605e-06 -1.73518e-06 -8.57374e-05
0.00121472 0.00048089 -5.97634e-06
0.00048089 -0.000157561 -1.5164e-06
-5.97634e-06 -1.5164e-06 -0.000355258
0.00293293 -0.000263077 -0.000110702
-0.000263077 -0.00201388 -3.31469e-05
-0.000110702 -3.31469e-05 -0.00299178
0.00555056 0.000643942 -1.77081e-05
0.000643942 0.000499711 -4.00983e-05
-1.77081e-05 -4.00983e-05 -1.38675e-05
0.000386016 0.000429394 -8.36698e-06
0.000429394 -0.000464689 7.76795e-06
-8.36698e-06 7.76795e-06 -0.000733691
-0.00156566 -0.000540748 0.000166235
-0.000540748 0.00101261 6.99036e-05
0.000166235 6.99036e-05 -0.000443426
0.000800833 -0.00235888 -0.000115968
-0.00235888 -0.000799191 -0.000130575
-0.000115968 -0.000130575 0.000792935
0.00104622 0.000183927 -5.39893e-06
0.000183927 0.000325224 -3.39303e-06
-5.39893e-06 -3.39303e-06 0.000181668
0.000513177 0.00040379 0.00017966
0.00040379 0.00170663 -1.5327e-05
0.00017966 -1.5327e-05 0.000580217
0.00118727 -0.000741532 -0.000108887
-0.000741532 0.00242895 -0.000169784
-0.000108887 -0.000169784 0.000704949
0.00238416 0.00051465 -2.79954e-05
0.00051465 0.000384737 -9.00631e-06
-2.79954e-05 -9.00631e-06 0.000424782
0.000907435 0.000172544 -1.27903e-05
0.000172544 0.000131379 -2.85236e-06
-1.27903e-05 -2.85236e-06 -6.02521e-05
-0.000146636 0.000387249 -2.06272e-05
0.000387249 -0.000570569 -1.52648e-05
-2.06272e-05 -1.52648e-05 -0.000859876
0.00018016 0.000477182 3.22987e-05
0.000477182 -0.000615635 6.65915e-05
3.22987e-05 6.65915e-05 -0.000763801
0.0120244 0.000729342 -1.97967e-05
0.000729342 0.00366077 -3.70752e-05
-1.97967e-05 -3.70752e-05 0.00214973
0.00291995 0.000980618 1.33038e-05
0.000980618 0.000526563 7.55138e-06
1.33038e-05 7.55138e-06 -0.000602748
0.00291461 -0.00209061 0.000283692
-0.00209061 -0.000153184 0.000207735
0.000283692 0.000207735 2.46366e-05
0.00560229 -0.00112181 -1.95707e-05
-0.00112181 -0.000568249 0.000239516
-1.95707e-05 0.000239516 0.000549208
0.000553439 2.29402e-05 1.85157e-06
2.29402e-05 4.34996e-05 -1.27675e-06
1.85157e-06 -1.27675e-06 -4.90165e-05
0.000780796 8.23828e-05 1.89959e-06
8.23828e-05 0.00016339 9.38224e-07
1.89959e-06 9.38224e-07 6.09945e-05
0.0015624 0.000151502 -3.28581e-06
0.000151502 0.000628417 -3.1392e-06
-3.28581e-06 -3.1392e-06 0.000529157
0.000633349 4.70898e-06 6.94677e-07
4.70898e-06 6.48106e-05 -4.45221e-07
6.94677e-07 -4.45221e-07 -3.41513e-05
0.000738021 3.53817e-05 -5.95432e-08
3.53817e-05 0.000120099 -1.43117e-06
-5.95432e-08 -1.43117e-06 4.5628e-06
0.000535909 -5.82758e-06 -1.10746e-06
-5.82758e-06 -1.31876e-05 -7.7894e-08
-1.10746e-06 -7.7894e-08 -0.000119182
0.000806175 4.81296e-05 -5.12206e-07
4.81296e-05 0.000141605 1.35464e-06
-5.12206e-07 1.35464e-06 3.77183e-05
0.000677739 2.9017e-05 -4.56771e-07
2.9017e-05 5.47548e-05 6.01277e-07
-4.56771e-07 6.01277e-07 -3.14963e-05
0.000457766 -2.53675e-06 2.78235e-07
-2.53675e-06 -5.20824e-05 7.82962e-07
2.78235e-07 7.82962e-07 -0.000147052
0.000828677 3.60695e-05 3.10726e-07
3.60695e-05 0.000159092 5.31776e-07
3.10726e-07 5.31776e-07 5.00421e-05
0.000804707 3.09207e-05 2.48009e-07
3.09207e-05 0.000144014 3.62877e-07
2.48009e-07 3.62877e-07 3.1277e-05
0.000703843 2.03719e-05 5.55898e-07
2.03719e-05 0.000103662 -3.45413e-07
5.55898e-07 -3.45413e-07 -1.62313e-05
0.00050474 4.6136e-05 -2.89919e-07
4.6136e-05 -2.45701e-05 -5.82827e-07
-2.89919e-07 -5.82827e-07 -0.000120344
0.00109836 5.39533e-05 -5.43878e-07
5.39533e-05 0.00031544 -2.01884e-06
-5.43878e-07 -2.01884e-06 0.00021392
-4.72152e-05 3.5117e-05 -1.58929e-06
3.5117e-05 -0.000314042 -3.81983e-06
-1.58929e-06 -3.81983e-06 -0.000414219
0.000752457 -7.57592e-05 1.88761e-08
-7.57592e-05 0.000115403 2.62181e-08
1.88761e-08 2.62181e-08 -2.97935e-06
0.000786991 -5.70645e-05 -1.04123e-06
-5.70645e-05 0.000156444 -8.87489e-07
-1.04123e-06 -8.87489e-07 3.0371e-05
0.000809052 -2.6787e-05 -5.68364e-07
-2.6787e-05 0.000168856 -3.7801e-07
-5.68364e-07 -3.7801e-07 4.78161e-05
0.00080288 8.15769e-06 -7.60666e-07
8.15769e-06 0.000149757 -2.15315e-07
-7.60666e-07 -2.15315e-07 4.62961e-05
0.000846076 6.18847e-06 -2.4997e-06
6.18847e-06 0.000196784 -2.39283e-06
-2.4997e-06 -2.39283e-06 6.6098e-05
0.000737783 1.40671e-05 8.99033e-07
1.40671e-05 0.000115782 -1.39621e-06
8.99033e-07 -1.39621e-06 1.31222e-05
0.000146206 -1.69478e-05 1.17835e-07
-1.69478e-05 -0.000241909 -1.95955e-06
1.17835e-07 -1.95955e-06 -0.000331674
0.000613178 6.09211e-06 1.0471e-06
6.09211e-06 3.76506e-05 -3.10186e-09
1.0471e-06 -3.10186e-09 -6.25598e-05
0.000660487 -4.22488e-05 1.94617e-08
-4.22488e-05 6.16868e-05 1.64227e-07
1.94617e-08 1.64227e-07 -2.93856e-05
0.000719333 -4.00925e-05 -2.2374e-07
-4.00925e-05 0.000110964 -1.56215e-08
-2.2374e-07 -1.56215e-08 6.47916e-06
0.000670957 -4.75751e-05 -1.95337e-06
-4.75751e-05 5.71265e-05 1.03491e-06
-1.95337e-06 1.03491e-06 -1.94873e-05
0.000703948 -3.21328e-05 1.58703e-06
-3.21328e-05 8.65283e-05 -2.83058e-07
1.58703e-06 -2.83058e-07 -1.32749e-05
0.000620781 -7.5608e-05 -3.80032e-09
-7.5608e-05 3.6244e-05 2.06961e-07
-3.80032e-09 2.06961e-07 -5.11533e-05
0.000635354 -1.43752e-05 -1.88183e-06
-1.43752e-05 2.36862e-05 2.46861e-06
-1.88183e-06 2.46861e-06 -2.81176e-05
0.000502948 -6.07861e-06 1.22062e-06
-6.07861e-06 -1.99294e-05 -6.2632e-07
1.22062e-06 -6.2632e-07 -0.000118507
0.000597249 4.17088e-06 1.13838e-06
4.17088e-06 9.32111e-06 -1.59418e-08
1.13838e-06 -1.59418e-08 -4.48371e-05
0.00138271 1.33757e-05 -2.89794e-06
1.33757e-05 0.000448151 5.35341e-06
-2.89794e-06 5.35341e-06 0.000436402
0.000589844 3.13487e-05 -4.90148e-07
3.13487e-05 7.00613e-06 -2.01316e-06
-4.90148e-07 -2.01316e-06 -4.67759e-05
0.000966261 6.23228e-06 -1.6639e-06
6.23228e-06 0.000201262 8.17497e-07
-1.6639e-06 8.17497e-07 0.000187586
0.000840087 3.38179e-06 -3.99743e-06
3.38179e-06 0.000124409 5.05526e-06
-3.99743e-06 5.05526e-06 0.000132099
0.00057169 1.57363e-06 1.83021e-07
1.57363e-06 -3.33589e-05 -3.72998e-06
1.83021e-07 -3.72998e-06 -4.8884e-05
0.00236525 1.10352e-07 4.38447e-06
1.10352e-07 0.00103007 -7.47133e-09
4.38447e-06 -7.47133e-09 0.00104586
0.000855672 -3.18915e-06 -4.12182e-06
-3.18915e-06 0.000133634 -5.1562e-06
-4.12182e-06 -5.1562e-06 0.000141624
0.000625317 6.5372e-05 1.7822e-06
6.5372e-05 5.57136e-05 1.73504e-07
1.7822e-06 1.73504e-07 -2.58419e-05
0.000599424 2.37433e-05 -1.20165e-06
2.37433e-05 4.09737e-06 -1.74711e-06
-1.20165e-06 -1.74711e-06 -3.4298e-05
0.000607117 -6.60339e-06 9.03861e-07
-6.60339e-06 5.5717e-06 7.70965e-09
9.03861e-07 7.70965e-09 -3.25861e-05
0.000601148 8.21854e-06 2.45167e-07
8.21854e-06 -2.24667e-05 -3.14205e-06
2.45167e-07 -3.14205e-06 -2.91119e-05
0.000630672 -3.05452e-05 -1.66675e-06
-3.05452e-05 1.68769e-05 1.4839e-06
-1.66675e-06 1.4839e-06 -2.28769e-05
0.000569829 1.41273e-05 9.68027e-09
1.41273e-05 -4.07221e-05 -7.57809e-07
9.68027e-09 -7.57809e-07 -4.7724e-05
0.00202559 2.65301e-05 7.41757e-06
2.65301e-05 0.000831172 -4.47084e-06
7.41757e-06 -4.47084e-06 0.000849496
0.00117242 3.1421e-05 -6.81437e-07
3.1421e-05 0.000321157 1.88432e-06
-6.81437e-07 1.88432e-06 0.000315363
0.00148361 3.41095e-05 1.30086e-07
3.41095e-05 0.000512788 1.41276e-06
1.30086e-07 1.41276e-06 0.000525617
0.000899844 3.73796e-05 -1.37716e-05
3.73796e-05 0.000170882 7.16698e-06
-1.37716e-05 7.16698e-06 0.000177936
0.00152982 0.000138541 6.79409e-05
0.000138541 -0.000705098 1.27735e-05
6.79409e-05 1.27735e-05 -0.000634015
0.00190495 -1.72758e-05 2.40481e-06
-1.72758e-05 -2.79123e-05 5.1288e-07
2.40481e-06 5.1288e-07 -1.88544e-05
0.00195866 5.95147e-05 3.44318e-05
5.95147e-05 0.000216114 -9.06396e-06
3.44318e-05 -9.06396e-06 0.000252474
0.00141869 0.000107056 -1.33168e-05
0.000107056 -0.00109854 -8.66981e-06
-1.33168e-05 -8.66981e-06 -0.000891716
0.00181351 5.56009e-05 1.80727e-05
5.56009e-05 -0.000313298 3.60969e-07
1.80727e-05 3.60969e-07 -0.000209131
0.00230784 -1.87085e-05 -2.39604e-07
-1.87085e-05 0.000351822 -1.9523e-06
-2.39604e-07 -1.9523e-06 0.000332491
0.00332721 -7.26969e-05 -5.97513e-05
-7.26969e-05 0.000732651 2.82179e-06
-5.97513e-05 2.82179e-06 0.00070912
0.00303878 -7.00435e-05 9.66073e-05
-7.00435e-05 0.000343033 -1.88259e-06
9.66073e-05 -1.88259e-06 0.000231297
0.00978346 -0.000421285 1.47595e-05
-0.000421285 0.00227303 3.16555e-05
1.47595e-05 3.16555e-05 0.000848965
0.00873579 0.00179014 0.000368485
0.00179014 0.00412394 -0.000160493
0.000368485 -0.000160493 0.00400119
0.00522495 0.00192819 -2.17661e-05
0.00192819 0.00374395 2.24734e-05
-2.17661e-05 2.24734e-05 0.00426088
0.000417783 -8.42107e-05 2.1744e-06
-8.42107e-05 -6.15015e-05 1.51768e-07
2.1744e-06 1.51768e-07 -0.000155036
0.000659521 -1.09346e-05 1.33565e-06
-1.09346e-05 7.11116e-05 -1.62333e-07
1.33565e-06 -1.62333e-07 -4.90303e-06
0.000693991 -7.79193e-05 -1.6375e-06
-7.79193e-05 9.62715e-05 1.19824e-06
-1.6375e-06 1.19824e-06 1.55381e-05
0.000629713 -3.89299e-05 -2.53458e-07
-3.89299e-05 5.53936e-05 2.57635e-07
-2.53458e-07 2.57635e-07 -3.62619e-05
0.000658248 6.47349e-05 -8.55987e-07
6.47349e-05 9.26184e-05 1.88561e-06
-8.55987e-07 1.88561e-06 -1.73715e-05
0.000710025 0.000121457 1.47494e-06
0.000121457 0.000107662 3.56494e-06
1.47494e-06 3.56494e-06 -2.02125e-06
0.000813816 -9.49274e-06 2.57839e-06
-9.49274e-06 0.000178961 -2.65555e-07
2.57839e-06 -2.65555e-07 7.45154e-05
0.00058651 -2.88188e-05 -8.77216e-07
-2.88188e-05 3.8792e-05 8.83771e-07
-8.77216e-07 8.83771e-07 -5.73612e-05
0.00210722 -0.00017923 4.16951e-06
-0.00017923 6.72895e-05 1.97303e-06
4.16951e-06 1.97303e-06 9.25493e-05
0.00179322 -0.000272603 7.68925e-06
-0.000272603 -0.000171335 -1.5323e-06
7.68925e-06 -1.5323e-06 -0.000139037
0.00157089 -0.000446775 3.21664e-06
-0.000446775 -0.000115809 4.72396e-06
3.21664e-06 4.72396e-06 -0.00023719
0.00143072 -0.000391081 1.00652e-05
-0.000391081 0.000369554 1.52229e-06
1.00652e-05 1.52229e-06 9.75189e-05
0.00170399 -0.000511944 3.59229e-06
-0.000511944 0.000237003 4.4137e-07
3.59229e-06 4.4137e-07 1.25316e-05
0.00196228 -0.000432925 3.20594e-06
-0.000432925 0.00089754 -4.7748e-07
3.20594e-06 -4.7748e-07 0.000531081
0.00208736 -0.000263884 -8.3318e-08
-0.000263884 0.000927523 -2.40325e-06
-8.3318e-08 -2.40325e-06 0.000664346
0.000730203 -0.00012138 2.54737e-06
-0.00012138 0.000109027 -2.66941e-06
2.54737e-06 -2.66941e-06 -4.51298e-05
0.000680325 -2.35411e-05 3.66195e-07
-2.35411e-05 8.48698e-05 2.36192e-06
3.66195e-07 2.36192e-06 -1.36705e-05
0.000888182 -3.69229e-05 1.21314e-06
-3.69229e-05 0.000206022 -6.23847e-06
1.21314e-06 -6.23847e-06 8.36707e-05
0.00092586 -2.19622e-05 1.49171e-06
-2.19622e-05 0.000239026 2.85853e-07
1.49171e-06 2.85853e-07 0.00013752
0.000683977 0.000102608 2.41226e-06
0.000102608 9.54928e-05 2.59726e-06
2.41226e-06 2.59726e-06 2.86884e-06
0.00196314 -0.000215366 5.2239e-08
-0.000215366 -3.13592e-05 1.56856e-06
5.2239e-08 1.56856e-06 4.44847e-05
0.000680227 1.42448e-05 -1.6163e-06
1.42448e-05 0.000108063 2.96329e-07
-1.6163e-06 2.96329e-07 -1.21984e-05
0.000832496 -8.2327e-05 -2.08458e-06
-8.2327e-05 0.000180865 1.40197e-06
-2.08458e-06 1.40197e-06 6.08872e-05
0.00175851 -0.000378754 1.78554e-06
-0.000378754 -0.000129398 -1.54281e-06
1.78554e-06 -1.54281e-06 -0.000123793
0.001673 -0.000542147 6.62646e-07
-0.000542147 2.77712e-05 1.21758e-06
6.62646e-07 1.21758e-06 -0.000150128
0.00116744 -0.000426838 -1.00872e-06
-0.000426838 0.000133083 -2.16934e-06
-1.00872e-06 -2.16934e-06 -9.89173e-05
0.000965529 -0.000141829 4.16936e-07
-0.000141829 0.000326733 -3.94338e-06
4.16936e-07 -3.94338e-06 0.000133823
0.00111475 -0.000229359 -1.15883e-06
-0.000229359 0.000552589 1.14125e-06
-1.15883e-06 1.14125e-06 0.000155278
0.00340689 -0.000343753 -3.14181e-05
-0.000343753 0.000744359 6.70561e-06
-3.14181e-05 6.70561e-06 0.000753721
0.0027647 -0.000540196 -3.04232e-05
-0.000540196 0.000514599 5.10007e-06
-3.04232e-05 5.10007e-06 0.000497767
0.00158484 -0.000580168 -8.79835e-06
-0.000580168 8.71296e-05 1.11278e-06
-8.79835e-06 1.11278e-06 -9.44575e-05
0.000714069 -0.000326568 -1.1828e-05
-0.000326568 2.33118e-05 1.58493e-05
-1.1828e-05 1.58493e-05 -0.000206125
0.000672857 -0.000131588 1.38211e-06
-0.000131588 0.000107083 6.05914e-07
1.38211e-06 6.05914e-07 -3.46908e-05
0.000491411 -0.000105422 2.57587e-06
-0.000105422 3.46398e-05 -2.70638e-06
2.57587e-06 -2.70638e-06 -0.000123652
0.00104251 -9.5248e-05 3.30019e-07
-9.5248e-05 0.000512792 -6.35134e-06
3.30019e-07 -6.35134e-06 0.0001727
-0.00482204 -7.76727e-05 0.000263665
-7.76727e-05 -0.0033638 6.96539e-07
0.000263665 6.96539e-07 -0.00240523
0.0101228 -0.000139632 2.12098e-06
-0.000139632 0.00282766 -7.34254e-07
2.12098e-06 -7.34254e-07 0.00222099
0.00149273 0.000148376 5.17425e-06
0.000148376 0.000586798 -2.00391e-06
5.17425e-06 -2.00391e-06 0.000437424
0.00081684 0.000233036 3.79058e-06
0.000233036 0.000107288 -7.84735e-07
3.79058e-06 -7.84735e-07 -8.526e-05
0.00215025 0.000328269 4.29062e-05
0.000328269 0.0002291 2.34047e-05
4.29062e-05 2.34047e-05 0.000251261
0.00250401 0.000581795 1.22459e-05
0.000581795 0.000510491 6.46957e-06
1.22459e-05 6.46957e-06 0.000308205
0.00186454 0.000427227 9.68348e-06
0.000427227 0.00052655 3.29043e-07
9.68348e-06 3.29043e-07 0.000242297
0.0105436 0.000538563 4.48602e-05
0.000538563 0.00269509 1.59453e-05
4.48602e-05 1.59453e-05 0.00156448
0.00747105 0.000951344 -0.000155808
0.000951344 0.0010156 -2.9035e-05
-0.000155808 -2.9035e-05 0.000605383
-1.36561e-05 0.000319259 5.64486e-06
0.000319259 -0.000529197 -1.92654e-05
5.64486e-06 -1.92654e-05 -0.000860431
0.00878797 -0.00144719 -9.16055e-05
-0.00144719 0.00413677 2.15086e-05
-9.16055e-05 2.15086e-05 0.00348161
-0.00751698 -0.00238748 -0.000623934
-0.00238748 -0.00339618 -0.000474795
-0.000623934 -0.000474795 -0.00186943
0.000951542 0.00017764 -4.78136e-07
0.00017764 0.000278697 -1.87235e-06
-4.78136e-07 -1.87235e-06 0.000135269
-0.00234507 -0.000711974 0.000130744
-0.000711974 -0.00210211 1.67824e-05
0.000130744 1.67824e-05 -0.00234652
-0.00267661 -0.000535277 -0.000152692
-0.000535277 0.00138548 -7.71558e-05
-0.000152692 -7.71558e-05 -0.000676255
0.00281605 0.000483438 -9.59175e-06
0.000483438 0.000632733 -4.94345e-07
-9.59175e-06 -4.94345e-07 0.000665817
0.000833025 0.000212088 -2.77853e-06
0.000212088 0.000122716 1.09448e-06
-2.77853e-06 1.09448e-06 -8.67963e-05
0.000997825 0.000440013 3.84256e-06
0.000440013 4.82544e-05 1.77003e-06
3.84256e-06 1.77003e-06 -0.000235852
0.00112414 0.000414754 1.62071e-05
0.000414754 3.7969e-06 1.38969e-05
1.62071e-05 1.38969e-05 -3.19994e-05
0.00877776 0.000571394 -5.66097e-05
0.000571394 0.001364 -2.86878e-05
-5.66097e-05 -2.86878e-05 -0.000439685
0.00630486 0.00137733 -5.91522e-05
0.00137733 0.00156825 -2.46102e-05
-5.91522e-05 -2.46102e-05 0.000803781
0.0102761 -0.00168884 0.000130223
-0.00168884 0.00466133 -4.93357e-05
0.000130223 -4.93357e-05 0.00445747
0.00480328 -0.00137771 0.00014371
-0.00137771 -0.00130065 0.000306593
0.00014371 0.000306593 -0.00019135
0.0015173 0.000167417 -1.60175e-05
0.000167417 0.000619487 -8.10972e-06
-1.60175e-05 -8.10972e-06 0.000491504
-0.00572084 0.000294489 -9.11802e-05
0.000294489 0.000977864 -5.10601e-05
-9.11802e-05 -5.10601e-05 -0.00173234
0.00316279 0.000303735 -0.0001623
0.000303735 0.00165725 -0.00022194
-0.0001623 -0.00022194 -0.00101151
0.00140374 0.000423758 -1.65977e-05
0.000423758 0.000142042 5.71625e-06
-1.65977e-05 5.71625e-06 0.000135501
0.00110047 0.000409382 -4.5824e-05
0.000409382 0.000348827 -1.65804e-05
-4.5824e-05 -1.65804e-05 9.8588e-05
0.00228494 0.00036713 -6.22896e-05
0.00036713 0.00120543 -5.93741e-06
-6.22896e-05 -5.93741e-06 0.000817534
0.00220965 0.00097023 -3.92757e-05
0.00097023 0.000187217 -1.59207e-05
-3.92757e-05 -1.59207e-05 -9.8096e-05
0.0011733 0.000757357 0.000152542
0.000757357 -0.000105173 0.000110717
0.000152542 0.000110717 -0.00277077
0.00999229 -0.00193981 7.6496e-05
-0.00193981 0.00337406 0.000265639
7.6496e-05 0.000265639 0.00283372
0.00429572 -0.000866542 -4.83697e-05
-0.000866542 -0.00200811 -4.74703e-05
-4.83697e-05 -4.74703e-05 -0.000825081
0.00082101 0.000100895 3.65068e-06
0.000100895 0.000194904 3.21266e-06
3.65068e-06 3.21266e-06 8.59607e-05
0.0012753 0.000132943 5.79282e-06
0.000132943 0.000452714 2.65589e-06
5.79282e-06 2.65589e-06 0.000356447
0.000130793 4.89714e-05 2.33319e-06
4.89714e-05 -0.000155588 -3.58828e-06
2.33319e-06 -3.58828e-06 -0.000249338
0.000464448 4.4768e-05 1.31982e-06
4.4768e-05 -4.90665e-05 -1.11726e-07
1.31982e-06 -1.11726e-07 -0.000143486
0.000762993 5.22138e-05 -6.70513e-07
5.22138e-05 0.000144436 -1.13338e-06
-6.70513e-07 -1.13338e-06 2.13998e-05
0.000747668 -5.66765e-06 -3.77822e-07
-5.66765e-06 0.000110747 1.08306e-06
-3.77822e-07 1.08306e-06 -1.54706e-06
0.00077769 2.21908e-06 2.25865e-06
2.21908e-06 0.000136262 5.83884e-07
2.25865e-06 5.83884e-07 2.3915e-05
0.000536096 3.88426e-05 7.71923e-07
3.88426e-05 -3.50735e-06 2.6089e-06
7.71923e-07 2.6089e-06 -9.77769e-05
0.000774072 4.3215e-05 -2.12164e-08
4.3215e-05 0.000149794 -8.1249e-07
-2.12164e-08 -8.1249e-07 2.36471e-05
0.000873234 4.24322e-05 -4.46684e-08
4.24322e-05 0.000181796 2.70878e-07
-4.46684e-08 2.70878e-07 7.98262e-05
0.000786922 -3.35663e-05 -4.81201e-07
-3.35663e-05 0.000137632 5.63512e-07
-4.81201e-07 5.63512e-07 1.75466e-05
6.03482e-05 3.53238e-05 -2.0143e-07
3.53238e-05 -0.000237434 7.02292e-07
-2.0143e-07 7.02292e-07 -0.000337733
-0.000638212 2.13041e-05 -7.41459e-07
2.13041e-05 -0.000510088 -1.78091e-06
-7.41459e-07 -1.78091e-06 -0.000645975
0.000885441 -1.25482e-06 -2.61794e-06
-1.25482e-06 0.000199057 -4.01165e-06
-2.61794e-06 -4.01165e-06 8.72575e-05
0.000945694 1.11262e-05 -6.87919e-07
1.11262e-05 0.000250737 -1.18527e-06
-6.87919e-07 -1.18527e-06 0.000105707
0.000818696 -5.68562e-05 2.52013e-08
-5.68562e-05 0.000178203 -7.70501e-07
2.52013e-08 -7.70501e-07 5.35916e-05
0.000863647 -3.07102e-05 -7.93392e-09
-3.07102e-05 0.00017897 1.43432e-06
-7.93392e-09 1.43432e-06 7.88923e-05
0.000844294 -5.20662e-05 1.75932e-07
-5.20662e-05 0.000184816 -6.40903e-07
1.75932e-07 -6.40903e-07 6.06611e-05
0.000764768 7.95553e-06 -2.93779e-07
7.95553e-06 0.000128029 -8.66657e-08
-2.93779e-07 -8.66657e-08 2.63672e-05
0.000428345 -4.43869e-05 3.23018e-07
-4.43869e-05 -7.32575e-05 1.05e-06
3.23018e-07 1.05e-06 -0.000164115
0.000640262 1.53642e-05 8.99811e-07
1.53642e-05 5.67146e-05 5.25621e-07
8.99811e-07 5.25621e-07 -4.18005e-05
0.000412332 -1.69981e-05 -1.6971e-06
-1.69981e-05 -5.60654e-05 -3.60321e-06
-1.6971e-06 -3.60321e-06 -0.000171242
0.000403546 -3.66871e-05 1.92626e-06
-3.66871e-05 -8.81835e-05 -1.05881e-06
1.92626e-06 -1.05881e-06 -0.000175953
0.00076711 -2.73752e-05 3.98644e-06
-2.73752e-05 9.36572e-05 -5.147e-06
3.98644e-06 -5.147e-06 -1.76557e-06
3.05377e-05 -4.20983e-05 8.36427e-07
-4.20983e-05 -0.000295928 1.03769e-06
8.36427e-07 1.03769e-06 -0.000446684
0.000325058 1.18088e-05 -4.46564e-07
1.18088e-05 -0.000119433 -7.67786e-07
-4.46564e-07 -7.67786e-07 -0.000227386
0.000724551 -7.06267e-07 2.23316e-07
-7.06267e-07 0.000101706 3.58224e-07
2.23316e-07 3.58224e-07 -4.39059e-07
0.000650608 -7.133e-06 4.94145e-08
-7.133e-06 5.66532e-05 3.45062e-07
4.94145e-08 3.45062e-07 -3.44686e-05
0.000721791 -2.43527e-05 -1.66351e-07
-2.43527e-05 0.000110237 -5.75776e-08
-1.66351e-07 -5.75776e-08 1.01863e-05
0.00059086 2.93392e-06 -6.55915e-07
2.93392e-06 1.73229e-05 8.34151e-07
-6.55915e-07 8.34151e-07 -6.08469e-05
0.000764334 -2.13851e-05 2.86109e-07
-2.13851e-05 0.000135288 5.45762e-08
2.86109e-07 5.45762e-08 3.21964e-05
0.000678172 -4.27418e-05 -4.26484e-07
-4.27418e-05 6.92967e-05 9.9047e-08
-4.26484e-07 9.9047e-08 -1.24213e-05
0.000581899 3.86139e-05 -8.76919e-07
3.86139e-05 -9.08113e-06 2.31205e-06
-8.76919e-07 2.31205e-06 -6.17522e-05
0.000563768 -6.66151e-05 1.70823e-06
-6.66151e-05 -2.14086e-06 -9.94788e-07
1.70823e-06 -9.94788e-07 -8.77189e-05
0.000610628 -1.96313e-07 -2.52832e-07
-1.96313e-07 8.86643e-06 -1.03308e-08
-2.52832e-07 -1.03308e-08 -4.25782e-05
0.00137978 2.32802e-05 -4.73857e-06
2.32802e-05 0.000445662 5.48022e-06
-4.73857e-06 5.48022e-06 0.000433617
0.00059848 -2.06683e-05 9.42423e-07
-2.06683e-05 8.42575e-06 -2.06563e-06
9.42423e-07 -2.06563e-06 -4.46468e-05
0.000957149 1.22393e-05 -2.65206e-06
1.22393e-05 0.000194898 7.54893e-07
-2.65206e-06 7.54893e-07 0.000181354
0.000771539 1.4635e-05 -1.59079e-07
1.4635e-05 8.26814e-05 2.00832e-06
-1.59079e-07 2.00832e-06 9.04873e-05
0.000557958 3.59965e-06 6.34268e-07
3.59965e-06 -4.22044e-05 -3.75064e-06
6.34268e-07 -3.75064e-06 -5.76929e-05
0.00237052 1.34822e-05 4.10484e-06
1.34822e-05 0.00103351 5.13507e-08
4.10484e-06 5.13507e-08 0.0010491
0.00236615 1.89982e-06 -5.48289e-07
1.89982e-06 0.00103067 -5.25182e-06
-5.48289e-07 -5.25182e-06 0.0010464
0.000998911 7.21558e-05 -1.09474e-06
7.21558e-05 0.000270847 -6.54522e-07
-1.09474e-06 -6.54522e-07 0.000191495
0.000614036 3.37775e-05 -1.15137e-06
3.37775e-05 1.55686e-05 -1.91099e-06
-1.15137e-06 -1.91099e-06 -2.55646e-05
0.000647704 -7.70879e-06 6.43671e-07
-7.70879e-06 6.78239e-05 8.81332e-07
6.43671e-07 8.81332e-07 -1.28302e-05
0.000602048 3.00588e-06 1.49133e-07
3.00588e-06 -2.22753e-05 -3.31198e-06
1.49133e-07 -3.31198e-06 -2.8949e-05
0.000606151 -1.10426e-05 2.06946e-07
-1.10426e-05 8.21295e-06 -2.83626e-08
2.06946e-07 -2.83626e-08 -3.0388e-05
0.00062258 -3.02963e-05 -1.40158e-06
-3.02963e-05 1.55373e-05 1.3544e-06
-1.40158e-06 1.3544e-06 -2.33814e-05
0.000584653 7.95169e-06 -2.02677e-07
7.95169e-06 -3.22615e-05 -2.20551e-08
-2.02677e-07 -2.20551e-08 -3.8842e-05
0.0020188 1.39539e-05 2.99029e-06
1.39539e-05 0.000824727 -4.63422e-06
2.99029e-06 -4.63422e-06 0.000843849
0.00115732 2.068e-05 -6.629e-07
2.068e-05 0.000309171 1.85839e-06
-6.629e-07 1.85839e-06 0.000305363
0.00140479 2.26881e-05 9.52803e-07
2.26881e-05 0.00046112 1.61305e-08
9.52803e-07 1.61305e-08 0.00047606
0.000865824 2.69547e-05 -1.28998e-05
2.69547e-05 0.000144837 7.0373e-06
-1.28998e-05 7.0373e-06 0.000154834
-0.00826628 0.000386974 0.000206514
0.000386974 -0.00361685 3.86549e-06
0.000206514 3.86549e-06 -0.00451575
-0.00189764 5.56627e-05 0.000248433
5.56627e-05 0.00192385 5.58028e-06
0.000248433 5.58028e-06 0.000375923
0.004445 0.000223096 -0.000219773
0.000223096 0.000275518 -1.954e-05
-0.000219773 -1.954e-05 0.000603337
0.000469097 4.34342e-05 3.08119e-05
4.34342e-05 -0.000956586 -7.97383e-06
3.08119e-05 -7.97383e-06 -0.000916036
0.00151725 -2.77551e-05 1.85083e-05
-2.77551e-05 -0.000171972 -7.09056e-07
1.85083e-05 -7.09056e-07 -0.000189719
0.000274662 5.2757e-05 -7.78277e-06
5.2757e-05 -0.000743234 -6.70474e-06
-7.78277e-06 -6.70474e-06 -0.000700629
0.00259576 -0.000113195 -7.70316e-07
-0.000113195 0.00025953 4.02761e-06
-7.70316e-07 4.02761e-06 0.00022359
0.00908899 0.000122311 5.0162e-05
0.000122311 0.0014238 -3.1354e-05
5.0162e-05 -3.1354e-05 0.00040261
-0.00327788 0.00107342 -2.66392e-05
0.00107342 -0.000808099 -1.28055e-05
-2.66392e-05 -1.28055e-05 -0.00201033
-0.00104667 0.00207733 -0.000126666
0.00207733 0.000262642 6.37289e-05
-0.000126666 6.37289e-05 0.00137335
0.00183123 -0.000237246 6.17704e-05
-0.000237246 -0.000653153 -1.68107e-06
6.17704e-05 -1.68107e-06 -0.000733358
0.0122683 -0.00036176 9.4923e-05
-0.00036176 0.00339912 -3.2686e-05
9.4923e-05 -3.2686e-05 0.00190024
0.00313422 0.00200085 0.000131002
0.00200085 0.000243171 -0.000254852
0.000131002 -0.000254852 0.000637166
0.00648938 0.00147835 -0.000199395
0.00147835 0.000830288 0.000125742
-0.000199395 0.000125742 0.000842445
0.000700883 8.19237e-05 -1.83503e-06
8.19237e-05 0.00012666 1.51271e-06
-1.83503e-06 1.51271e-06 3.83409e-08
0.00051553 1.50231e-05 -1.71711e-07
1.50231e-05 -8.88386e-06 -7.52721e-07
-1.71711e-07 -7.52721e-07 -9.8619e-05
0.00068013 -8.64542e-05 -9.9568e-07
-8.64542e-05 8.80233e-05 8.74172e-07
-9.9568e-07 8.74172e-07 7.87478e-06
0.000563807 -6.12175e-06 5.20568e-07
-6.12175e-06 2.30323e-05 -3.007e-07
5.20568e-07 -3.007e-07 -7.26965e-05
0.000646711 5.99244e-05 9.2209e-07
5.99244e-05 9.17914e-05 1.45664e-06
9.2209e-07 1.45664e-06 -1.84958e-05
0.000862182 6.97078e-05 9.33864e-08
6.97078e-05 0.000220666 1.91933e-06
9.33864e-08 1.91933e-06 9.23816e-05
0.000755739 8.9138e-05 1.62969e-06
8.9138e-05 0.000144957 1.86886e-06
1.62969e-06 1.86886e-06 3.06769e-05
0.000653562 1.39093e-05 2.58365e-06
1.39093e-05 6.8663e-05 6.31006e-08
2.58365e-06 6.31006e-08 -4.25811e-05
0.000694143 -2.14785e-05 1.06549e-06
-2.14785e-05 0.000109981 -9.29046e-07
1.06549e-06 -9.29046e-07 2.28895e-06
0.000526865 -8.34536e-06 -5.82894e-07
-8.34536e-06 -5.31397e-06 -3.8959e-07
-5.82894e-07 -3.8959e-07 -9.55614e-05
0.00156898 -0.000200201 1.87006e-05
-0.000200201 -0.000190416 -1.27936e-06
1.87006e-05 -1.27936e-06 -0.000126887
0.00141322 -0.00036718 2.15326e-05
-0.00036718 -0.000305133 -3.99287e-06
2.15326e-05 -3.99287e-06 -0.000307454
5.98577e-05 -0.00040865 1.24404e-05
-0.00040865 -0.000825548 3.25527e-06
1.24404e-05 3.25527e-06 -0.000968919
0.000363321 -0.000359953 3.47297e-06
-0.000359953 -0.000290485 -1.15229e-06
3.47297e-06 -1.15229e-06 -0.000526847
0.00214212 -0.000279704 1.34845e-06
-0.000279704 0.00108499 8.13142e-06
1.34845e-06 8.13142e-06 0.000725109
0.00107996 -0.000190551 2.09148e-06
-0.000190551 0.000396296 -1.03741e-06
2.09148e-06 -1.03741e-06 0.000178583
0.00100572 -8.86704e-05 -2.12144e-07
-8.86704e-05 0.000270525 -1.88592e-07
-2.12144e-07 -1.88592e-07 0.000160779
0.000702079 2.31422e-05 -1.3913e-06
2.31422e-05 0.000121381 1.70767e-06
-1.3913e-06 1.70767e-06 4.00417e-06
0.0019223 -0.000259265 5.79002e-06
-0.000259265 -1.5697e-05 -2.87935e-06
5.79002e-06 -2.87935e-06 1.8835e-05
0.000690892 -6.31872e-05 -3.10484e-07
-6.31872e-05 0.000120859 -2.88075e-07
-3.10484e-07 -2.88075e-07 -2.27173e-05
0.000330434 -8.46936e-05 7.71262e-07
-8.46936e-05 -5.37849e-05 -1.59945e-06
7.71262e-07 -1.59945e-06 -0.00021569
0.00218746 -0.000506161 7.07673e-06
-0.000506161 0.000220816 -5.70876e-07
7.07673e-06 -5.70876e-07 0.000193387
0.00125908 -0.0005561 7.31282e-07
-0.0005561 -0.00010043 4.17469e-06
7.31282e-07 4.17469e-06 -0.00026878
0.000575448 -0.000351252 8.47069e-06
-0.000351252 -5.25625e-05 -5.66997e-06
8.47069e-06 -5.66997e-06 -0.00030201
0.00149804 -0.000150393 -5.4419e-07
-0.000150393 0.000743975 -3.77575e-06
-5.4419e-07 -3.77575e-06 0.000424314
0.00199273 -0.000406764 -2.73066e-05
-0.000406764 0.00039934 4.50516e-06
-2.73066e-05 4.50516e-06 0.000129556
0.00145753 -0.000436252 -3.83843e-05
-0.000436252 0.000114186 9.51795e-06
-3.83843e-05 9.51795e-06 4.19153e-05
1.89202e-05 -0.000223411 -2.42914e-05
-0.000223411 -0.000204058 3.76116e-05
-2.42914e-05 3.76116e-05 -0.000489998
-0.000192754 1.60821e-06 -3.30711e-07
1.60821e-06 -0.000385706 1.92601e-06
-3.30711e-07 1.92601e-06 -0.000531166
0.000416921 -0.000114754 2.28244e-06
-0.000114754 -1.16779e-05 -9.43429e-07
2.28244e-06 -9.43429e-07 -0.000174946
0.000723233 -9.30568e-05 3.33811e-06
-9.30568e-05 0.000243625 -4.65609e-06
3.33811e-06 -4.65609e-06 3.39665e-06
7.85912e-05 0.000256516 -0.00015775
0.000256516 0.00369703 4.78854e-06
-0.00015775 4.78854e-06 0.00191692
0.00178324 -0.000410712 1.624e-05
-0.000410712 0.00139991 2.34757e-05
1.624e-05 2.34757e-05 0.00133924
0.000871892 0.000701562 -6.31866e-05
0.000701562 -0.00307256 9.17172e-06
-6.31866e-05 9.17172e-06 -0.00358007
0.000675915 0.000157696 6.02901e-06
0.000157696 0.000131245 1.80638e-06
6.02901e-06 1.80638e-06 -9.29516e-06
0.000861689 0.000261765 6.41674e-06
0.000261765 0.000166914 8.14222e-06
6.41674e-06 8.14222e-06 -6.007e-05
0.00289699 0.000430656 2.68453e-05
0.000430656 0.000689512 1.10233e-05
2.68453e-05 1.10233e-05 0.000719849
0.00221145 0.00048906 1.87282e-05
0.00048906 0.000702029 1.30552e-05
1.87282e-05 1.30552e-05 0.0004197
0.00705591 -0.000822284 7.04281e-05
-0.000822284 0.00259893 3.95601e-05
7.04281e-05 3.95601e-05 0.00279645
0.0026862 4.12358e-05 -0.00014912
4.12358e-05 -0.00177984 -9.82384e-06
-0.00014912 -9.82384e-06 -0.00347936
0.00295772 0.00123999 -7.29801e-05
0.00123999 -0.000369773 -1.35488e-05
-7.29801e-05 -1.35488e-05 -0.00105931
0.000454489 0.00025673 2.49814e-05
0.00025673 -0.000156985 -2.31267e-05
2.49814e-05 -2.31267e-05 -0.000145883
-0.0034768 -0.000941601 -0.000101927
-0.000941601 -0.000918994 -0.000131297
-0.000101927 -0.000131297 -0.00140651
-0.000620913 -0.000857977 -9.10469e-05
-0.000857977 0.00142951 -6.33062e-06
-9.10469e-05 -6.33062e-06 -0.000652132
0.00938307 -0.00180138 0.000219725
-0.00180138 0.00112153 0.000166975
0.000219725 0.000166975 0.00229381
0.000635603 0.000122883 6.21737e-06
0.000122883 0.000130193 -2.25368e-06
6.21737e-06 -2.25368e-06 -3.97692e-06
-0.00201845 6.91272e-05 -8.25552e-05
6.91272e-05 0.00206523 -2.40915e-05
-8.25552e-05 -2.40915e-05 -0.000229599
0.00354204 0.000345198 -1.95298e-05
0.000345198 0.00171439 -7.39865e-05
-1.95298e-05 -7.39865e-05 -0.00104835
0.00133278 0.000400686 -5.07606e-06
0.000400686 0.000148528 4.51863e-06
-5.07606e-06 4.51863e-06 0.000102593
0.000530463 0.000277892 6.91979e-07
0.000277892 7.17087e-05 2.07307e-06
6.91979e-07 2.07307e-06 -0.000174476
-0.000470797 0.000264839 2.12125e-05
0.000264839 -0.000318677 -3.73493e-05
2.12125e-05 -3.73493e-05 -0.000600264
0.00538471 0.00146663 -8.29986e-06
0.00146663 0.00183856 6.11472e-06
-8.29986e-06 6.11472e-06 0.00120678
0.0114455 0.000844239 5.84353e-05
0.000844239 0.00397698 2.17734e-05
5.84353e-05 2.17734e-05 0.00198885
0.00395979 -0.00126537 2.37857e-05
-0.00126537 -0.000380577 -4.30114e-05
2.37857e-05 -4.30114e-05 -0.000890421
0.009071 -0.00117141 8.04002e-06
-0.00117141 0.00116885 -3.23854e-05
8.04002e-06 -3.23854e-05 0.0023215
0.000829192 0.00019693 -1.08132e-05
0.00019693 0.000294448 -1.02722e-05
-1.08132e-05 -1.02722e-05 0.000159562
0.00271984 6.2159e-05 -0.000113679
6.2159e-05 0.00097758 -3.14714e-05
-0.000113679 -3.14714e-05 -0.00076553
-2.34436e-05 8.63279e-05 -3.5086e-05
8.63279e-05 0.000106418 -9.17345e-05
-3.5086e-05 -9.17345e-05 -0.00147064
-0.000933037 7.24672e-05 -1.26912e-05
7.24672e-05 -0.000435434 -1.79096e-05
-1.26912e-05 -1.79096e-05 -0.000594973
0.00158464 0.000368077 -3.93763e-05
0.000368077 0.000880839 4.23932e-05
-3.93763e-05 4.23932e-05 0.00017695
0.00962878 0.00123222 4.39574e-05
0.00123222 0.00386166 1.34137e-06
4.39574e-05 1.34137e-06 0.000864257
-0.0068392 -0.0018572 -4.21372e-05
-0.0018572 -0.00369571 0.000118059
-4.21372e-05 0.000118059 -0.00579365
0.00748072 0.000401824 1.6488e-05
0.000401824 -0.000904064 -0.000172686
1.6488e-05 -0.000172686 0.00100046
0.000985809 0.000104992 2.4387e-06
0.000104992 0.00026998 6.62207e-06
2.4387e-06 6.62207e-06 0.000180898
0.000984944 0.000121302 -4.86472e-06
0.000121302 0.000346944 -1.30404e-06
-4.86472e-06 -1.30404e-06 0.000240802
0.000311606 7.77638e-05 -2.74726e-06
7.77638e-05 0.000114771 -2.98957e-06
-2.74726e-06 -2.98957e-06 -5.57392e-05
0.000770871 7.89565e-05 -2.45256e-06
7.89565e-05 0.000137827 -9.01153e-07
-2.45256e-06 -9.01153e-07 1.89294e-05
0.000863682 -2.76128e-05 -8.1456e-07
-2.76128e-05 0.000192839 1.14672e-06
-8.1456e-07 1.14672e-06 6.55587e-05
0.000630006 3.86673e-05 9.09231e-07
3.86673e-05 3.78004e-05 2.11234e-06
9.09231e-07 2.11234e-06 -6.53388e-05
0.000143183 3.41027e-05 1.64073e-06
3.41027e-05 -0.000175124 2.68277e-06
1.64073e-06 2.68277e-06 -0.000275417
0.000830317 -3.33501e-06 1.06556e-06
-3.33501e-06 0.000165738 1.37288e-07
1.06556e-06 1.37288e-07 3.43385e-05
0.000858135 2.47976e-05 1.95057e-07
2.47976e-05 0.000187075 -9.17709e-07
1.95057e-07 -9.17709e-07 7.30932e-05
0.000255701 -7.3025e-06 5.53188e-07
-7.3025e-06 1.27254e-05 1.34498e-06
5.53188e-07 1.34498e-06 -0.000130777
-0.000705088 7.17811e-06 -2.84117e-06
7.17811e-06 -0.000335579 -9.8431e-07
-2.84117e-06 -9.8431e-07 -0.000542964
0.000960717 -5.87593e-06 -2.16051e-06
-5.87593e-06 0.000371914 -7.3734e-06
-2.16051e-06 -7.3734e-06 0.00024155
0.000963316 4.41965e-05 -1.64303e-06
4.41965e-05 0.000256957 -3.87774e-06
-1.64303e-06 -3.87774e-06 0.000124205
0.000883424 -0.000105617 1.71622e-06
-0.000105617 0.000195694 8.6999e-07
1.71622e-06 8.6999e-07 7.8172e-05
0.000753404 9.49959e-06 -3.29032e-07
9.49959e-06 0.000117665 7.48494e-08
-3.29032e-07 7.48494e-08 1.77263e-05
0.000649113 -5.33131e-05 -1.80444e-06
-5.33131e-05 5.87598e-05 3.11132e-06
-1.80444e-06 3.11132e-06 -3.1089e-05
0.000503737 -3.19631e-05 1.73626e-06
-3.19631e-05 -1.38595e-05 1.36517e-06
1.73626e-06 1.36517e-06 -0.000120879
0.000719718 1.11994e-05 2.77745e-07
1.11994e-05 0.000103781 3.12991e-08
2.77745e-07 3.12991e-08 3.50865e-06
0.000610792 -2.26781e-05 -7.34662e-07
-2.26781e-05 3.27741e-05 -6.48847e-09
-7.34662e-07 -6.48847e-09 -5.40506e-05
0.000943952 -1.78696e-05 -2.13566e-07
-1.78696e-05 0.000212168 -2.85765e-06
-2.13566e-07 -2.85765e-06 0.000120882
9.23187e-05 -3.819e-05 3.34541e-06
-3.819e-05 -0.000214963 -4.43656e-06
3.34541e-06 -4.43656e-06 -0.000294204
0.000277366 -9.09631e-05 1.74596e-06
-9.09631e-05 -0.000243352 -8.96265e-07
1.74596e-06 -8.96265e-07 -0.000337799
0.00084535 -5.51856e-05 -2.53769e-06
-5.51856e-05 0.000144967 -3.76272e-07
-2.53769e-06 -3.76272e-07 4.48644e-05
0.000519644 -9.71374e-05 5.16117e-06
-9.71374e-05 -2.56471e-05 3.25144e-06
5.16117e-06 3.25144e-06 -0.000167358
0.00118785 -0.000235647 -1.56847e-06
-0.000235647 0.000327902 7.29283e-06
-1.56847e-06 7.29283e-06 0.000107461
0.0012664 -0.000111595 1.77151e-06
-0.000111595 0.000440636 -1.40397e-06
1.77151e-06 -1.40397e-06 0.000305363
0.000287003 -6.95809e-05 -2.0964e-06
-6.95809e-05 -0.000132446 -4.76589e-06
-2.0964e-06 -4.76589e-06 -0.000282998
0.000640936 -4.56595e-06 -2.71702e-07
-4.56595e-06 5.68121e-05 -1.1369e-07
-2.71702e-07 -1.1369e-07 -4.93083e-05
0.000367582 1.59641e-06 4.84659e-07
1.59641e-06 -9.72821e-05 -4.19714e-08
4.84659e-07 -4.19714e-08 -0.000196895
0.000850487 -1.31183e-05 -6.11344e-07
-1.31183e-05 0.000174507 9.11495e-07
-6.11344e-07 9.11495e-07 7.01595e-05
0.000739313 -3.40508e-05 -5.64779e-07
-3.40508e-05 0.000118478 6.00265e-07
-5.64779e-07 6.00265e-07 1.81495e-05
0.000626759 -1.58619e-05 -6.32371e-07
-1.58619e-05 3.43473e-05 8.49403e-07
-6.32371e-07 8.49403e-07 -4.23845e-05
0.000832382 -5.26572e-05 -3.30446e-08
-5.26572e-05 0.00018726 -5.0281e-07
-3.30446e-08 -5.0281e-07 7.66643e-05
0.000683144 -4.8568e-05 -5.71112e-07
-4.8568e-05 7.26348e-05 -2.63751e-08
-5.71112e-07 -2.63751e-08 -7.88368e-06
0.000601139 3.03011e-05 -1.94324e-06
3.03011e-05 7.94755e-07 1.83975e-06
-1.94324e-06 1.83975e-06 -5.15998e-05
0.000716847 -7.96006e-05 1.83939e-06
-7.96006e-05 9.5085e-05 -1.11538e-06
1.83939e-06 -1.11538e-06 1.06497e-05
0.000649779 -8.87069e-06 -2.63958e-07
-8.87069e-06 2.72363e-05 3.76337e-08
-2.63958e-07 3.76337e-08 -2.34554e-05
0.00137051 3.29854e-05 -7.30397e-06
3.29854e-05 0.000440318 5.44494e-06
-7.30397e-06 5.44494e-06 0.000427915
0.000623162 -2.80287e-05 1.96078e-06
-2.80287e-05 1.80067e-05 -2.14225e-06
1.96078e-06 -2.14225e-06 -3.46603e-05
0.00096156 2.05684e-05 -3.55703e-06
2.05684e-05 0.000196889 7.1483e-07
-3.55703e-06 7.1483e-07 0.000183054
0.000780726 2.32027e-05 -4.71046e-07
2.32027e-05 9.1102e-05 2.08339e-06
-4.71046e-07 2.08339e-06 9.7751e-05
0.000553273 9.26241e-06 4.94796e-07
9.26241e-06 -4.60411e-05 -3.85889e-06
4.94796e-07 -3.85889e-06 -6.142e-05
0.0015604 2.28207e-05 5.62647e-06
2.28207e-05 0.000552514 -1.49001e-06
5.62647e-06 -1.49001e-06 0.000563996
0.00235229 1.59247e-05 4.18115e-06
1.59247e-05 0.00102287 -5.14512e-06
4.18115e-06 -5.14512e-06 0.00103848
0.000706739 7.37301e-06 1.25219e-06
7.37301e-06 8.94286e-05 -1.41747e-06
1.25219e-06 -1.41747e-06 7.12278e-06
0.000653823 2.90236e-05 -6.45132e-07
2.90236e-05 3.6463e-05 -1.8261e-06
-6.45132e-07 -1.8261e-06 -6.45187e-06
0.000703725 -3.04794e-06 1.13638e-06
-3.04794e-06 9.44981e-05 3.0411e-07
1.13638e-06 3.0411e-07 1.55291e-05
0.000591072 -2.69884e-06 2.79025e-07
-2.69884e-06 -2.81162e-05 -3.45854e-06
2.79025e-07 -3.45854e-06 -3.56447e-05
0.000605716 2.24731e-05 6.56862e-08
2.24731e-05 9.2163e-06 -2.37735e-08
6.56862e-08 -2.37735e-08 -3.10215e-05
0.000661148 -8.73199e-05 -3.45389e-06
-8.73199e-05 7.02985e-05 1.36713e-06
-3.45389e-06 1.36713e-06 -6.15062e-06
0.00203204 1.46028e-06 -1.72374e-06
1.46028e-06 0.000831285 -4.7353e-06
-1.72374e-06 -4.7353e-06 0.000850674
0.000586331 2.6655e-06 -1.80248e-07
2.6655e-06 -3.12788e-05 -1.01111e-08
-1.80248e-07 -1.01111e-08 -3.79228e-05
0.000599405 -2.00963e-05 -1.38363e-06
-2.00963e-05 3.18315e-06 1.60602e-06
-1.38363e-06 1.60602e-06 -3.48535e-05
0.000568572 7.73199e-06 -4.48753e-07
7.73199e-06 -4.17966e-05 3.21366e-06
-4.48753e-07 3.21366e-06 -4.83321e-05
0.0020368 1.54009e-05 -3.79231e-06
1.54009e-05 0.000835591 -4.61513e-08
-3.79231e-06 -4.61513e-08 0.000854601
0.00202801 2.7317e-05 -9.66444e-06
2.7317e-05 0.000832656 4.34646e-06
-9.66444e-06 4.34646e-06 0.000851045
-0.00421958 -0.000369665 -5.06352e-05
-0.000369665 0.00150985 1.83364e-05
-5.06352e-05 1.83364e-05 -0.000731309
-0.000734296 0.000498979 -7.73955e-05
0.000498979 -0.000420134 1.93497e-05
-7.73955e-05 1.93497e-05 -0.000981377
0.00373521 -0.0003828 -0.000247628
-0.0003828 0.00115865 0.000167043
-0.000247628 0.000167043 -0.00125392
-0.00293374 0.000107587 0.000348753
0.000107587 0.0019349 -0.000151773
0.000348753 -0.000151773 0.000390908
0.000290738 0.000260068 -2.2958e-05
0.000260068 -0.00126546 4.29711e-06
-2.2958e-05 4.29711e-06 -0.00126459
0.0024181 -0.000166838 9.9287e-05
-0.000166838 8.64331e-05 -9.00059e-06
9.9287e-05 -9.00059e-06 7.56198e-05
0.00107524 -0.000412809 -2.65545e-05
-0.000412809 -0.0021632 -6.15548e-05
-2.65545e-05 -6.15548e-05 -0.00358241
0.0102461 0.00107163 -0.000116699
0.00107163 0.00501478 -2.03943e-05
-0.000116699 -2.03943e-05 0.00437282
-0.00765349 0.00232057 -0.000595703
0.00232057 -0.00352635 0.000458299
-0.000595703 0.000458299 -0.0018732
0.00275554 -0.000107749 -4.73581e-06
-0.000107749 -0.000240463 -5.04454e-06
-4.73581e-06 -5.04454e-06 -0.000339404
0.00479875 -0.000440346 4.99409e-05
-0.000440346 -0.000171955 -5.96092e-05
4.99409e-05 -5.96092e-05 -0.00229062
0.0108159 0.00196276 -7.92794e-05
0.00196276 0.00337254 -7.82389e-05
-7.92794e-05 -7.82389e-05 0.00382517
0.00371137 0.00143485 -6.88787e-05
0.00143485 -0.00112586 0.000173634
-6.88787e-05 0.000173634 -0.000953589
0.00310009 -0.000684945 -6.88645e-05
-0.000684945 -0.000509568 1.90396e-05
-6.88645e-05 1.90396e-05 -0.000520676
0.00290837 -0.000935252 0.000197762
-0.000935252 0.000169846 -0.000127161
0.000197762 -0.000127161 -0.00312785
-0.00449527 0.00107164 -6.73723e-05
0.00107164 -0.00414293 -0.000323025
-6.73723e-05 -0.000323025 -0.00436976
0.00354376 0.000837808 -8.50333e-05
0.000837808 -0.00297388 6.90845e-06
-8.50333e-05 6.90845e-06 -0.00178424
0.000992975 -1.9918e-05 6.86667e-07
-1.9918e-05 0.000306947 3.53531e-06
6.86667e-07 3.53531e-06 0.000161713
0.000691465 6.98905e-05 -1.76933e-06
6.98905e-05 0.000114616 -1.21591e-06
-1.76933e-06 -1.21591e-06 -5.23636e-06
0.000642486 6.30558e-05 6.6681e-08
6.30558e-05 6.17313e-05 -1.57565e-06
6.6681e-08 -1.57565e-06 -2.40148e-05
0.000645786 6.2817e-05 3.27506e-06
6.2817e-05 9.49409e-05 7.21934e-07
3.27506e-06 7.21934e-07 -1.39424e-05
0.00065098 4.52899e-05 5.66284e-07
4.52899e-05 8.36086e-05 1.25007e-06
5.66284e-07 1.25007e-06 -5.91749e-05
0.000742797 6.89955e-05 -2.97075e-08
6.89955e-05 0.000146383 1.33345e-06
-2.97075e-08 1.33345e-06 2.24997e-05
0.000617763 2.63901e-05 -2.07705e-07
2.63901e-05 6.43721e-05 -2.48803e-08
-2.07705e-07 -2.48803e-08 -4.65697e-05
0.000884095 0.000125892 1.061e-06
0.000125892 0.000227964 1.65831e-06
1.061e-06 1.65831e-06 9.47486e-05
0.000837368 7.79852e-05 -9.40639e-08
7.79852e-05 0.000199612 3.70355e-07
-9.40639e-08 3.70355e-07 7.44902e-05
0.000521067 -5.96247e-06 -2.91687e-06
-5.96247e-06 7.61317e-06 -1.50652e-06
-2.91687e-06 -1.50652e-06 -0.000101557
0.000690183 -0.000203792 3.75949e-05
-0.000203792 -0.000651332 -1.84582e-05
3.75949e-05 -1.84582e-05 -0.00059931
0.000926 -0.000442 2.86711e-05
-0.000442 -0.000451858 -5.31037e-06
2.86711e-05 -5.31037e-06 -0.000477847
0.00184148 -0.000613619 1.47312e-05
-0.000613619 0.000193282 3.73546e-07
1.47312e-05 3.73546e-07 2.00637e-05
0.000450592 -0.000383594 6.32918e-06
-0.000383594 -0.000129545 -1.16884e-05
6.32918e-06 -1.16884e-05 -0.000412047
0.00186306 -0.00018376 -2.0666e-06
-0.00018376 0.0009069 1.42899e-05
-2.0666e-06 1.42899e-05 0.000619442
0.000656042 -9.53451e-05 -1.03858e-06
-9.53451e-05 0.00013967 3.27272e-06
-1.03858e-06 3.27272e-06 -2.88414e-05
0.000489149 7.25255e-05 -2.46642e-08
7.25255e-05 7.55938e-06 -2.59372e-06
-2.46642e-08 -2.59372e-06 -0.00013736
0.00070406 -5.46159e-05 -5.26985e-07
-5.46159e-05 0.000140346 2.91641e-06
-5.26985e-07 2.91641e-06 -1.86543e-05
0.00142251 -0.000332571 1.30483e-06
-0.000332571 2.57189e-05 -1.06554e-06
1.30483e-06 -1.06554e-06 -0.000132434
0.000712564 -2.07518e-05 3.79274e-08
-2.07518e-05 0.000151401 1.04128e-06
3.79274e-08 1.04128e-06 -1.31864e-05
0.00145727 -0.000143565 -2.67247e-07
-0.000143565 0.000667929 -1.99734e-07
-2.67247e-07 -1.99734e-07 0.000418405
0.00144488 -0.000447451 1.13444e-06
-0.000447451 6.77907e-05 8.08528e-07
1.13444e-06 8.08528e-07 9.47026e-06
0.000916978 -0.000306675 -1.63628e-05
-0.000306675 0.00027101 4.75734e-06
-1.63628e-05 4.75734e-06 -1.05984e-05
0.000820043 -0.000528939 -1.18347e-05
-0.000528939 -0.000337453 -2.4449e-05
-1.18347e-05 -2.4449e-05 -0.000320638
0.00101228 -0.000251616 -1.70957e-05
-0.000251616 0.000343735 1.85666e-05
-1.70957e-05 1.85666e-05 0.000222366
-0.000879945 -3.63294e-05 6.15458e-07
-3.63294e-05 -0.000593218 2.25154e-05
6.15458e-07 2.25154e-05 -0.00087385
0.000691909 9.5931e-06 -8.8577e-07
9.5931e-06 0.000110232 -4.41075e-06
-8.8577e-07 -4.41075e-06 -3.61376e-05
0.000618637 3.91631e-05 2.08545e-06
3.91631e-05 0.000179189 -3.27056e-06
2.08545e-06 -3.27056e-06 -4.25601e-05
0.0017302 -4.84736e-05 -1.87734e-05
-4.84736e-05 0.00109888 -5.11652e-06
-1.87734e-05 -5.11652e-06 -0.000553851
-0.00254521 0.000100581 -0.000126325
0.000100581 0.00279779 -5.30375e-06
-0.000126325 -5.30375e-06 0.00063619
-0.00960904 -0.000583872 -0.000301721
-0.000583872 -0.00509351 4.22946e-06
-0.000301721 4.22946e-06 -0.00490621
-0.000170655 9.36624e-05 6.23219e-06
9.36624e-05 -0.000310274 -1.68438e-06
6.23219e-06 -1.68438e-06 -0.000456495
9.2311e-05 0.000173857 2.95561e-06
0.000173857 -0.000147169 5.1404e-06
2.95561e-06 5.1404e-06 -0.000387615
0.00159332 0.00038434 1.91206e-05
0.00038434 0.000283322 6.9012e-06
1.91206e-05 6.9012e-06 0.000243413
-0.00384223 0.000448902 -1.92937e-05
0.000448902 0.00136154 1.5084e-05
-1.92937e-05 1.5084e-05 -0.00106361
0.00144342 0.000772527 -8.98796e-05
0.000772527 -2.3059e-05 -8.94958e-05
-8.98796e-05 -8.94958e-05 -0.00332907
0.00295316 0.00108834 0.000153138
0.00108834 0.000462207 3.64413e-05
0.000153138 3.64413e-05 4.8799e-06
0.000295987 0.000322155 6.82585e-06
0.000322155 -5.72893e-05 -2.65671e-05
6.82585e-06 -2.65671e-05 -0.000119461
0.0125416 -0.00141545 2.88759e-06
-0.00141545 0.00364266 -0.000110707
2.88759e-06 -0.000110707 0.00330062
0.00406741 0.000375175 0.000143179
0.000375175 0.00187736 7.53667e-05
0.000143179 7.53667e-05 -0.000977556
0.00924556 -0.00103654 6.251e-05
-0.00103654 0.00140594 1.62193e-05
6.251e-05 1.62193e-05 0.00263392
0.000920915 0.000199933 1.79823e-06
0.000199933 0.000395118 -2.04598e-06
1.79823e-06 -2.04598e-06 0.000252531
0.00327614 7.51502e-05 9.63175e-06
7.51502e-05 0.00148319 -1.90091e-06
9.63175e-06 -1.90091e-06 2.06581e-05
0.000507596 0.000108273 1.49825e-05
0.000108273 0.000127717 1.07038e-05
1.49825e-05 1.07038e-05 -0.00148169
-0.000260923 0.000203233 -7.38104e-06
0.000203233 -0.000145975 -1.6883e-06
-7.38104e-06 -1.6883e-06 -0.000345344
0.00222024 0.000596159 -7.43637e-05
0.000596159 0.000998046 -3.85546e-05
-7.43637e-05 -3.85546e-05 0.000173838
0.00278897 0.00162503 7.66514e-05
0.00162503 0.000930188 5.72121e-05
7.66514e-05 5.72121e-05 -0.00226463
0.00573635 0.000160018 -1.02831e-05
0.000160018 -0.00238654 -0.000110134
-1.02831e-05 -0.000110134 -0.000157351
0.00206055 -0.00116342 -3.15874e-05
-0.00116342 0.00042502 -4.385e-05
-3.15874e-05 -4.385e-05 -0.00120401
0.000878329 0.000151145 -7.1192e-06
0.000151145 0.000565751 -1.17291e-05
-7.1192e-06 -1.17291e-05 0.000402014
0.000521402 -6.33241e-05 -5.55004e-06
-6.33241e-05 5.74002e-05 -8.38075e-06
-5.55004e-06 -8.38075e-06 5.8154e-05
0.00267013 1.41046e-05 2.84847e-05
1.41046e-05 0.000314693 -8.04552e-05
2.84847e-05 -8.04552e-05 -0.000841044
0.00365777 0.000875166 9.04213e-05
0.000875166 -0.00281266 -9.21826e-06
9.04213e-05 -9.21826e-06 -0.00178627
-0.000728356 0.000103129 -3.62762e-06
0.000103129 -1.67822e-05 -1.85947e-05
-3.62762e-06 -1.85947e-05 -0.000525862
0.0104679 0.00123334 0.000126782
0.00123334 0.00510484 4.93093e-05
0.000126782 4.93093e-05 0.0014836
-0.00893279 -0.000334221 6.97078e-05
-0.000334221 -0.000597717 0.000192479
6.97078e-05 0.000192479 -0.00255897
0.00194329 0.000210519 1.7213e-05
0.000210519 0.000911832 8.77328e-06
1.7213e-05 8.77328e-06 0.000789294
0.000585995 0.000117747 -4.51278e-06
0.000117747 0.000247827 -3.42218e-07
-4.51278e-06 -3.42218e-07 6.81413e-05
0.000200389 7.47649e-05 -2.96134e-06
7.47649e-05 0.000233323 -2.50049e-06
-2.96134e-06 -2.50049e-06 2.65387e-05
0.000761647 0.000133903 7.78858e-07
0.000133903 0.000135876 1.24979e-06
7.78858e-07 1.24979e-06 -1.30955e-06
0.000719429 6.19238e-05 9.79411e-07
6.19238e-05 0.000101035 2.07726e-06
9.79411e-07 2.07726e-06 -8.6997e-06
0.000928627 9.1069e-07 6.68971e-06
9.1069e-07 0.000417991 6.72753e-06
6.68971e-06 6.72753e-06 0.000260572
0.000674585 4.46858e-05 -1.82854e-07
4.46858e-05 8.16592e-05 -2.18477e-07
-1.82854e-07 -2.18477e-07 -4.26414e-05
0.000798164 -2.16729e-05 -1.13903e-06
-2.16729e-05 0.000283179 -1.69805e-06
-1.13903e-06 -1.69805e-06 0.000150101
-8.35395e-05 2.93162e-05 5.03254e-06
2.93162e-05 1.08542e-05 3.43652e-06
5.03254e-06 3.43652e-06 -0.000202564
0.000900302 9.42029e-06 -8.77339e-06
9.42029e-06 0.000499486 -8.86145e-06
-8.77339e-06 -8.86145e-06 0.00039234
0.000125846 -3.73629e-05 -3.46348e-06
-3.73629e-05 -0.000118261 -8.43154e-06
-3.46348e-06 -8.43154e-06 -0.000237779
0.000586765 -4.47928e-05 2.55443e-06
-4.47928e-05 2.24651e-05 3.75526e-06
2.55443e-06 3.75526e-06 -7.54904e-05
0.00078276 1.19182e-05 -7.34957e-07
1.19182e-05 0.00014106 1.95177e-07
-7.34957e-07 1.95177e-07 3.9338e-05
0.000881412 -1.62306e-05 -5.7763e-06
-1.62306e-05 0.00019001 4.03792e-06
-5.7763e-06 4.03792e-06 0.000103581
0.000705202 -4.51628e-05 3.21275e-06
-4.51628e-05 0.000133527 -5.09616e-08
3.21275e-06 -5.09616e-08 5.24752e-05
0.00061825 -8.36422e-06 -5.94894e-07
-8.36422e-06 2.80854e-05 2.00972e-07
-5.94894e-07 2.00972e-07 -6.46768e-05
0.000765372 -8.89645e-05 3.41218e-06
-8.89645e-05 0.000139107 -4.66804e-07
3.41218e-06 -4.66804e-07 4.35821e-05
0.00040654 -8.12245e-05 -2.38594e-06
-8.12245e-05 -0.000133912 -1.15452e-06
-2.38594e-06 -1.15452e-06 -0.000216001
-0.000101636 -0.000155345 8.14311e-06
-0.000155345 -0.000404744 6.18158e-07
8.14311e-06 6.18158e-07 -0.000582141
0.000937435 -7.99846e-05 -1.17232e-06
-7.99846e-05 0.000204859 1.05659e-06
-1.17232e-06 1.05659e-06 9.93702e-05
0.00112848 -0.0001576 -4.23028e-07
-0.0001576 0.000316112 2.56156e-06
-4.23028e-07 2.56156e-06 0.000162521
0.000692257 -0.000221069 -3.20771e-06
-0.000221069 -3.06968e-06 4.87688e-06
-3.20771e-06 4.87688e-06 -0.000222165
0.000904484 -0.000217291 -4.25647e-06
-0.000217291 0.000124272 2.90814e-07
-4.25647e-06 2.90814e-07 -9.42513e-05
0.00101424 -0.000178923 -2.03643e-06
-0.000178923 0.000310499 3.86852e-06
-2.03643e-06 3.86852e-06 0.000131733
0.00040807 -0.00015701 1.85758e-06
-0.00015701 -0.000122196 -1.33379e-07
1.85758e-06 -1.33379e-07 -0.000327682
0.000866843 -6.75433e-05 1.14536e-06
-6.75433e-05 0.000195751 1.25208e-08
1.14536e-06 1.25208e-08 7.7657e-05
0.00104394 -0.000104973 -1.41979e-06
-0.000104973 0.000319293 -4.71874e-07
-1.41979e-06 -4.71874e-07 0.000179919
0.000479522 -9.14826e-05 2.54261e-06
-9.14826e-05 -7.22537e-06 -9.66907e-06
2.54261e-06 -9.66907e-06 -0.000156007
0.000952043 -2.10505e-05 -6.66676e-07
-2.10505e-05 0.000230309 -3.08084e-07
-6.66676e-07 -3.08084e-07 0.000126118
0.000501363 -6.2895e-06 2.97743e-07
-6.2895e-06 -1.68728e-05 -8.32342e-08
2.97743e-07 -8.32342e-08 -0.000118515
0.000623512 -3.98891e-06 -3.35837e-07
-3.98891e-06 3.41051e-05 6.04983e-07
-3.35837e-07 6.04983e-07 -4.74442e-05
0.000799709 -5.00119e-05 -1.24723e-07
-5.00119e-05 0.000163467 3.55038e-07
-1.24723e-07 3.55038e-07 5.45574e-05
0.000683274 -3.06651e-05 -1.40097e-07
-3.06651e-05 7.49648e-05 4.80174e-08
-1.40097e-07 4.80174e-08 -7.94162e-06
0.000602581 3.0409e-05 -6.00739e-07
3.0409e-05 6.64467e-06 1.85261e-06
-6.00739e-07 1.85261e-06 -4.91308e-05
0.000737086 -6.42149e-05 6.44658e-07
-6.42149e-05 0.000111174 -1.15178e-06
6.44658e-07 -1.15178e-06 2.52347e-05
0.000624911 2.16982e-05 -9.10773e-07
2.16982e-05 1.51936e-05 -5.21396e-08
-9.10773e-07 -5.21396e-08 -3.78357e-05
0.00133154 4.53512e-05 -8.30625e-06
4.53512e-05 0.00042042 3.61607e-06
-8.30625e-06 3.61607e-06 0.000407185
0.000656172 -2.07978e-05 2.25296e-06
-2.07978e-05 3.19495e-05 -2.1439e-06
2.25296e-06 -2.1439e-06 -1.94945e-05
0.000943066 2.9779e-05 -4.48694e-06
2.9779e-05 0.000186484 6.31392e-07
-4.48694e-06 6.31392e-07 0.00017228
0.000803076 3.18385e-05 -1.0689e-06
3.18385e-05 0.000107872 2.12992e-06
-1.0689e-06 2.12992e-06 0.000113411
0.000536802 1.61897e-05 8.16142e-07
1.61897e-05 -5.67141e-05 -4.05605e-06
8.16142e-07 -4.05605e-06 -7.219e-05
0.00156744 3.41567e-05 7.64628e-06
3.41567e-05 0.000559581 -1.35333e-06
7.64628e-06 -1.35333e-06 0.000570006
0.00234947 3.04158e-05 7.8723e-06
3.04158e-05 0.001023 -5.04451e-06
7.8723e-06 -5.04451e-06 0.00103799
0.000453936 4.57371e-06 8.35558e-07
4.57371e-06 -4.89515e-05 -6.83208e-07
8.35558e-07 -6.83208e-07 -0.000149696
0.0003281 3.09179e-06 -7.10955e-08
3.09179e-06 -0.00015585 -3.21199e-06
-7.10955e-08 -3.21199e-06 -0.00020664
0.000749747 1.78648e-05 4.30761e-08
1.78648e-05 0.000120538 1.16544e-07
4.30761e-08 1.16544e-07 3.38577e-05
0.000585842 -7.98102e-06 2.5251e-07
-7.98102e-06 -3.09405e-05 -3.63887e-06
2.5251e-07 -3.63887e-06 -4.02134e-05
0.000458265 3.93607e-06 1.07893e-06
3.93607e-06 -7.96597e-05 -7.26201e-08
1.07893e-06 -7.26201e-08 -0.00012344
0.00044087 -7.84622e-05 -1.29606e-06
-7.84622e-05 -5.95506e-05 7.95542e-07
-1.29606e-06 7.95542e-07 -0.000141292
0.00209169 -1.1502e-05 -6.08697e-06
-1.1502e-05 0.000866864 -4.7862e-06
-6.08697e-06 -4.7862e-06 0.000885693
0.000587377 -2.75742e-06 -1.07724e-07
-2.75742e-06 -3.04346e-05 -4.3031e-08
-1.07724e-07 -4.3031e-08 -3.78755e-05
0.000587246 -1.08633e-05 -1.47584e-06
-1.08633e-05 -2.9199e-06 1.77093e-06
-1.47584e-06 1.77093e-06 -4.22938e-05
0.00204377 2.81655e-06 -3.82326e-06
2.81655e-06 0.000838367 9.16485e-09
-3.82326e-06 9.16485e-09 0.000857706
0.000570988 2.45188e-06 -3.30608e-07
2.45188e-06 -4.00633e-05 3.29689e-06
-3.30608e-07 3.29689e-06 -4.66802e-05
0.00203596 1.67882e-05 -2.64325e-06
1.67882e-05 0.000835225 4.53894e-06
-2.64325e-06 4.53894e-06 0.000854176
0.000454731 -0.00017509 -9.36022e-05
-0.00017509 -0.000162776 2.7993e-05
-9.36022e-05 2.7993e-05 -0.00168239
0.00149563 0.000160571 -2.79899e-05
0.000160571 0.00344705 -7.68714e-06
-2.79899e-05 -7.68714e-06 0.00203017
0.00113529 -0.000338111 -0.000257931
-0.000338111 0.00201316 4.27395e-06
-0.000257931 4.27395e-06 0.00107214
0.000759451 7.87083e-05 1.74935e-06
7.87083e-05 0.000134605 6.52582e-07
1.74935e-06 6.52582e-07 5.23704e-06
0.00367826 -0.000247017 -3.35052e-05
-0.000247017 0.00230972 9.16107e-05
-3.35052e-05 9.16107e-05 0.0010559
0.00357688 -0.000428572 -9.18577e-05
-0.000428572 0.00119248 7.63373e-06
-9.18577e-05 7.63373e-06 -0.00149224
0.00224433 0.000675723 0.000179562
0.000675723 0.00317711 -0.000161513
0.000179562 -0.000161513 0.00209866
0.00379707 -0.000222898 2.46697e-05
-0.000222898 0.000136728 -3.27119e-05
2.46697e-05 -3.27119e-05 -0.000147113
0.0114798 -0.000393629 0.000112578
-0.000393629 0.00313145 -6.04564e-05
0.000112578 -6.04564e-05 0.00148524
-0.00226239 0.00157696 -0.000125179
0.00157696 -0.00367093 0.000146198
-0.000125179 0.000146198 -0.00299657
0.00553877 0.00156181 4.07907e-05
0.00156181 0.000161749 4.57501e-05
4.07907e-05 4.57501e-05 0.000181418
0.00485664 -0.000812325 -8.6376e-05
-0.000812325 0.000249354 -8.91344e-07
-8.6376e-05 -8.91344e-07 -0.00017495
0.0105124 -0.000792184 5.57791e-05
-0.000792184 0.00384536 -1.45011e-05
5.57791e-05 -1.45011e-05 0.00170816
0.0066302 0.00103628 6.59985e-05
0.00103628 0.000579013 -0.000121253
6.59985e-05 -0.000121253 0.000151113
0.00541872 0.000764811 -7.16247e-06
0.000764811 -0.00158484 1.20703e-05
-7.16247e-06 1.20703e-05 -0.000632547
0.00408751 -0.00127561 1.99293e-05
-0.00127561 0.000455815 1.25926e-07
1.99293e-05 1.25926e-07 -0.000372065
0.0112566 -0.00137073 9.08054e-05
-0.00137073 0.00534284 -4.81185e-05
9.08054e-05 -4.81185e-05 0.00166878
0.00352685 -0.000137021 6.38495e-05
-0.000137021 0.000403112 -0.000179924
6.38495e-05 -0.000179924 -7.79336e-05
0.00719552 0.000391885 -4.15511e-05
0.000391885 -0.000871169 0.000102904
-4.15511e-05 0.000102904 0.000938027
0.000672732 -2.34902e-05 5.21182e-07
-2.34902e-05 0.000104637 1.84197e-06
5.21182e-07 1.84197e-06 -4.57011e-05
0.000809984 -5.88251e-05 -1.17259e-07
-5.88251e-05 0.000204188 -6.00219e-08
-1.17259e-07 -6.00219e-08 5.42366e-05
0.000815617 9.37383e-05 -6.03331e-07
9.37383e-05 0.000192876 -2.26682e-06
-6.03331e-07 -2.26682e-06 7.07275e-05
0.000740185 4.26256e-05 6.43278e-07
4.26256e-05 0.000114286 2.40113e-06
6.43278e-07 2.40113e-06 -1.25465e-05
0.000818773 9.38458e-05 -5.55414e-07
9.38458e-05 0.000191184 7.39364e-07
-5.55414e-07 7.39364e-07 4.7594e-05
0.00088906 6.33035e-05 -1.17453e-06
6.33035e-05 0.000231723 9.62614e-08
-1.17453e-06 9.62614e-08 0.000109062
0.000983752 0.000116243 -9.09664e-07
0.000116243 0.000283904 -1.12362e-07
-9.09664e-07 -1.12362e-07 0.000151567
0.000966863 0.000122758 7.86368e-07
0.000122758 0.000286333 2.44571e-06
7.86368e-07 2.44571e-06 0.000155646
0.000355049 -0.000225738 4.89392e-05
-0.000225738 -0.00061597 -2.10295e-05
4.89392e-05 -2.10295e-05 -0.000632853
0.00163262 -0.000461255 8.4937e-06
-0.000461255 0.000140829 -1.30296e-05
8.4937e-06 -1.30296e-05 8.98906e-05
0.000858673 -0.000169544 -6.2401e-07
-0.000169544 0.000238784 -2.61809e-06
-6.2401e-07 -2.61809e-06 7.17269e-05
0.00198703 -0.000382945 1.71156e-05
-0.000382945 0.000848843 -2.24152e-05
1.71156e-05 -2.24152e-05 0.000572335
0.0021919 -0.000191609 -4.00218e-06
-0.000191609 0.00108411 6.70064e-06
-4.00218e-06 6.70064e-06 0.000830047
0.000975117 -7.2483e-05 -1.46529e-06
-7.2483e-05 0.000294788 -3.0264e-06
-1.46529e-06 -3.0264e-06 0.000130291
0.000622614 -2.29289e-06 7.39337e-07
-2.29289e-06 7.93726e-05 2.29257e-06
7.39337e-07 2.29257e-06 -7.20829e-05
0.000217115 -0.000491377 -6.95548e-06
-0.000491377 -0.000673873 -6.39793e-07
-6.95548e-06 -6.39793e-07 -0.000635894
0.00122949 5.09117e-05 2.30451e-07
5.09117e-05 0.00053239 7.56424e-07
2.30451e-07 7.56424e-07 0.000303575
0.000967001 -0.000164965 -1.47702e-05
-0.000164965 0.000403062 3.00016e-06
-1.47702e-05 3.00016e-06 0.000143334
0.000561161 -0.000187514 8.78526e-06
-0.000187514 4.94791e-05 4.36577e-06
8.78526e-06 4.36577e-06 -1.60235e-05
0.000891217 5.53487e-05 1.68086e-06
5.53487e-05 0.000211912 -2.66256e-06
1.68086e-06 -2.66256e-06 7.55925e-05
0.0011901 -0.000406999 1.82354e-05
-0.000406999 -4.99617e-05 -3.43644e-05
1.82354e-05 -3.43644e-05 0.000117214
-0.000159344 -0.000112057 5.66994e-06
-0.000112057 -7.98829e-05 2.35418e-05
5.66994e-06 2.35418e-05 -0.000183591
-2.58147e-05 3.66197e-05 1.49581e-06
3.66197e-05 -2.82544e-06 7.81168e-06
1.49581e-06 7.81168e-06 -0.000336548
0.00136749 0.000193873 1.77667e-06
0.000193873 0.000561208 -5.10793e-06
1.77667e-06 -5.10793e-06 0.000383565
0.000546758 -2.21254e-05 -5.55276e-06
-2.21254e-05 0.000694275 -8.99731e-06
-5.55276e-06 -8.99731e-06 6.42837e-05
0.00131385 -5.33362e-05 7.83609e-05
-5.33362e-05 0.000926585 -8.92158e-06
7.83609e-05 -8.92158e-06 -0.000746648
-0.00521791 -5.99296e-05 -0.000140382
-5.99296e-05 0.00197416 5.71562e-06
-0.000140382 5.71562e-06 -0.000639858
0.000980276 0.000190006 1.4615e-05
0.000190006 0.000487015 3.40135e-06
1.4615e-05 3.40135e-06 0.000337037
-0.00112117 0.000253487 8.11777e-06
0.000253487 -0.000639646 1.09339e-05
8.11777e-06 1.09339e-05 -0.000901516
0.00369253 6.55745e-05 8.849e-05
6.55745e-05 0.0019095 2.45169e-06
8.849e-05 2.45169e-06 0.000709096
0.0077979 0.000772557 0.000142053
0.000772557 0.00349981 7.78223e-05
0.000142053 7.78223e-05 0.000124208
0.00319395 0.000815757 -0.000103813
0.000815757 0.00149027 -8.51738e-05
-0.000103813 -8.51738e-05 0.000429212
0.00442356 -0.000743179 -7.23546e-06
-0.000743179 0.00135211 -0.000199586
-7.23546e-06 -0.000199586 -9.93562e-05
0.000914522 0.00013212 4.97894e-05
0.00013212 0.000178703 0.000117128
4.97894e-05 0.000117128 -0.00141381
0.00417005 -3.72157e-05 -1.08287e-05
-3.72157e-05 -0.00395111 -0.000109958
-1.08287e-05 -0.000109958 -0.00129869
0.000702133 0.000172005 5.92752e-07
0.000172005 0.000467144 -1.743e-06
5.92752e-07 -1.743e-06 0.000285257
0.000485608 -5.90616e-05 1.27558e-06
-5.90616e-05 7.78032e-05 -1.98569e-06
1.27558e-06 -1.98569e-06 6.41568e-05
0.00276387 4.02251e-05 3.59639e-05
4.02251e-05 0.000476041 1.5624e-05
3.59639e-05 1.5624e-05 -0.000307911
-0.000932745 0.000146081 -7.31429e-06
0.000146081 -0.000335172 -5.27294e-06
-7.31429e-06 -5.27294e-06 -0.000746166
0.00566144 0.000855703 6.19111e-06
0.000855703 -0.00152176 -1.21605e-05
6.19111e-06 -1.21605e-05 -0.000617369
0.00498297 0.000965951 0.000116197
0.000965951 0.00299636 5.60163e-05
0.000116197 5.60163e-05 -0.000793119
0.00333123 0.000367838 -6.84834e-05
0.000367838 0.00233443 6.01115e-06
-6.84834e-05 6.01115e-06 0.00107519
0.000437424 0.000192519 -1.68616e-05
0.000192519 0.000348306 -1.69135e-05
-1.68616e-05 -1.69135e-05 9.38417e-05
0.00170878 6.28949e-05 8.45647e-06
6.28949e-05 -0.000179911 -1.37004e-05
8.45647e-06 -1.37004e-05 -1.50692e-05
0.00376437 -0.000200513 3.73413e-05
-0.000200513 0.00229283 -9.28654e-05
3.73413e-05 -9.28654e-05 0.00108309
0.00669254 0.00159297 0.000182269
0.00159297 0.000577231 -0.000125067
0.000182269 -0.000125067 0.000769013
0.00661915 -0.000146585 -8.33893e-05
-0.000146585 0.0014552 0.000175635
-8.33893e-05 0.000175635 0.00117672
0.000824619 0.000181483 -1.52329e-05
0.000181483 3.64101e-05 -6.15645e-05
-1.52329e-05 -6.15645e-05 -6.68261e-05
-0.000676215 0.00100765 0.000125474
0.00100765 0.00263601 3.32877e-05
0.000125474 3.32877e-05 -0.0030475
0.000945567 0.0001686 3.21388e-06
0.0001686 0.000422171 9.64926e-06
3.21388e-06 9.64926e-06 0.000238883
0.000173004 9.1945e-05 2.85434e-06
9.1945e-05 0.000212348 1.70455e-06
2.85434e-06 1.70455e-06 8.87807e-07
0.00105553 1.3877e-05 -1.34172e-05
1.3877e-05 0.000759216 -1.40845e-05
-1.34172e-05 -1.40845e-05 0.000622117
0.000379896 -2.26947e-05 1.24285e-06
-2.26947e-05 -0.00010346 4.1689e-06
1.24285e-06 4.1689e-06 -0.000214876
0.000668458 -2.62832e-05 1.93742e-06
-2.62832e-05 0.000210631 5.55649e-06
1.93742e-06 5.55649e-06 7.82569e-05
0.000231347 -9.69932e-06 1.9004e-06
-9.69932e-06 0.000170191 3.28179e-06
1.9004e-06 3.28179e-06 -4.64098e-05
0.000587259 -6.31198e-05 6.33235e-07
-6.31198e-05 0.000128154 -4.09197e-07
6.33235e-07 -4.09197e-07 2.12151e-05
0.000103975 -1.16878e-05 1.39025e-06
-1.16878e-05 3.617e-05 1.46884e-06
1.39025e-06 1.46884e-06 -7.45748e-05
0.00113267 -0.000197044 9.23992e-06
-0.000197044 0.000588316 -8.96745e-06
9.23992e-06 -8.96745e-06 0.000409669
0.00127257 -6.34352e-05 -1.77888e-06
-6.34352e-05 0.00045669 4.15473e-06
-1.77888e-06 4.15473e-06 0.000372293
0.000184186 6.84644e-06 -1.21234e-06
6.84644e-06 -0.000217917 1.80494e-06
-1.21234e-06 1.80494e-06 -0.000310533
0.0014135 -0.000145435 1.205e-06
-0.000145435 0.000503169 2.17912e-06
1.205e-06 2.17912e-06 0.000396754
-0.00045805 -0.000139042 5.40329e-06
-0.000139042 -0.000465054 1.68084e-06
5.40329e-06 1.68084e-06 -0.000690971
0.000420123 -6.36872e-05 -5.70798e-06
-6.36872e-05 -9.29506e-05 8.93275e-07
-5.70798e-06 8.93275e-07 -0.000161554
2.9243e-05 -0.000152449 2.34392e-06
-0.000152449 -0.000332901 -1.19094e-06
2.34392e-06 -1.19094e-06 -0.000496092
0.00106517 -0.000280793 1.08297e-05
-0.000280793 0.000185171 -2.5859e-06
1.08297e-05 -2.5859e-06 -6.65974e-05
0.00131202 -0.000318494 -4.51422e-06
-0.000318494 0.000204473 3.5885e-06
-4.51422e-06 3.5885e-06 -5.48529e-05
0.00174574 -0.000218385 -2.97968e-06
-0.000218385 0.000663318 7.9459e-08
-2.97968e-06 7.9459e-08 0.000497561
0.000889195 -0.000240244 -6.55595e-07
-0.000240244 8.34002e-05 4.1582e-07
-6.55595e-07 4.1582e-07 -0.000149614
0.00213432 -0.000340955 2.71041e-06
-0.000340955 0.000813265 -1.06159e-06
2.71041e-06 -1.06159e-06 0.000585925
0.000236863 -0.000126557 -1.40786e-06
-0.000126557 -0.000185015 1.96154e-06
-1.40786e-06 1.96154e-06 -0.000379187
0.000941723 -0.000217136 -1.57862e-07
-0.000217136 0.000151862 -2.73539e-07
-1.57862e-07 -2.73539e-07 -6.34997e-05
0.000526523 -6.03139e-05 3.68753e-07
-6.03139e-05 9.7372e-06 -4.21045e-07
3.68753e-07 -4.21045e-07 -0.000132286
0.00105138 -0.000192759 -3.90169e-06
-0.000192759 0.000333311 2.3941e-06
-3.90169e-06 2.3941e-06 0.000151434
-0.000366464 -7.9078e-05 -2.44112e-06
-7.9078e-05 -0.000568036 -3.81053e-06
-2.44112e-06 -3.81053e-06 -0.000759686
0.000592703 1.95402e-05 8.49913e-07
1.95402e-05 2.62187e-05 1.0212e-06
8.49913e-07 1.0212e-06 -7.00653e-05
0.000739802 -5.30103e-05 8.49539e-07
-5.30103e-05 0.000128366 -2.14296e-07
8.49539e-07 -2.14296e-07 8.64644e-06
0.000828752 -9.80456e-05 3.23064e-06
-9.80456e-05 0.000201406 -2.87815e-06
3.23064e-06 -2.87815e-06 5.76402e-05
0.000653114 -1.64121e-05 2.01516e-07
-1.64121e-05 7.39306e-05 -1.23265e-07
2.01516e-07 -1.23265e-07 -2.98923e-05
0.00069519 -1.64412e-05 -6.44641e-07
-1.64412e-05 8.46268e-05 -1.31978e-07
-6.44641e-07 -1.31978e-07 -4.03753e-06
0.00059337 3.46107e-05 -6.19491e-07
3.46107e-05 3.76351e-06 2.22513e-06
-6.19491e-07 2.22513e-06 -5.60045e-05
0.000753813 -4.31135e-05 5.64917e-07
-4.31135e-05 0.000122977 -7.12531e-07
5.64917e-07 -7.12531e-07 3.44337e-05
0.000624506 2.65722e-05 -7.71791e-07
2.65722e-05 1.80583e-05 -1.13779e-07
-7.71791e-07 -1.13779e-07 -3.7161e-05
0.00056352 4.24583e-05 -1.07933e-06
4.24583e-05 -3.03054e-05 4.06592e-06
-1.07933e-06 4.06592e-06 -4.94597e-05
0.000683825 -1.16898e-05 2.16685e-06
-1.16898e-05 4.61915e-05 -1.98582e-06
2.16685e-06 -1.98582e-06 -4.91771e-06
0.000566336 3.33544e-05 1.58624e-07
3.33544e-05 -3.54223e-05 6.96202e-09
1.58624e-07 6.96202e-09 -5.23077e-05
0.00223629 7.34537e-05 -4.04871e-06
7.34537e-05 0.000967661 1.88065e-06
-4.04871e-06 1.88065e-06 0.000978018
0.000537228 2.50479e-05 9.55218e-07
2.50479e-05 -5.5224e-05 -4.11109e-06
9.55218e-07 -4.11109e-06 -7.13034e-05
0.00156573 4.52474e-05 9.12349e-06
4.52474e-05 0.000562671 -1.16233e-06
9.12349e-06 -1.16233e-06 0.000571796
0.00234921 4.42782e-05 1.24511e-05
4.42782e-05 0.00102599 -4.83122e-06
1.24511e-05 -4.83122e-06 0.00103991
0.00040413 3.04888e-06 7.19728e-07
3.04888e-06 -9.15357e-05 -1.6944e-06
7.19728e-07 -1.6944e-06 -0.000188748
0.000345263 -3.3517e-07 1.776e-07
-3.3517e-07 -0.000147639 -2.78657e-06
1.776e-07 -2.78657e-06 -0.000205125
0.000577741 1.5982e-05 -4.30168e-07
1.5982e-05 2.2637e-05 -1.02948e-06
-4.30168e-07 -1.02948e-06 -7.50939e-05
0.000586983 -1.38452e-05 3.77189e-07
-1.38452e-05 -2.86374e-05 -3.89535e-06
3.77189e-07 -3.89535e-06 -4.06518e-05
0.000316209 2.12294e-06 -4.1144e-07
2.12294e-06 -0.000163205 -1.18913e-06
-4.1144e-07 -1.18913e-06 -0.000214932
0.000748965 2.85803e-05 -2.38758e-07
2.85803e-05 0.000128928 1.70455e-06
-2.38758e-07 1.70455e-06 3.69586e-05
0.00214641 -2.4476e-05 -1.0687e-05
-2.4476e-05 0.000900341 -4.75363e-06
-1.0687e-05 -4.75363e-06 0.000918159
0.000581806 -8.26384e-06 -2.08817e-07
-8.26384e-06 -3.32463e-05 -4.70481e-08
-2.08817e-07 -4.70481e-08 -4.23981e-05
0.000285452 2.69084e-06 6.268e-07
2.69084e-06 -0.000180348 1.7815e-06
6.268e-07 1.7815e-06 -0.000226488
0.00207158 -1.00305e-05 -3.58011e-06
-1.00305e-05 0.000854667 4.14501e-08
-3.58011e-06 4.14501e-08 0.000873729
0.000579157 -2.82017e-06 -2.74889e-07
-2.82017e-06 -3.53922e-05 3.41126e-06
-2.74889e-07 3.41126e-06 -4.27129e-05
0.00205853 4.20507e-06 1.89828e-06
4.20507e-06 0.000847252 4.66942e-06
1.89828e-06 4.66942e-06 0.00086648
0.000838178 -2.49135e-07 1.04861e-05
-2.49135e-07 0.000461072 8.94365e-06
1.04861e-05 8.94365e-06 0.000304214
0.00091514 -0.000125941 2.33626e-06
-0.000125941 0.00014388 -1.06466e-05
2.33626e-06 -1.06466e-05 -0.00142453
0.00169376 7.66217e-05 2.94304e-05
7.66217e-05 0.00351944 -3.21169e-05
2.94304e-05 -3.21169e-05 0.00228148
0.000740324 8.4772e-05 -1.74409e-07
8.4772e-05 0.000116518 3.4031e-07
-1.74409e-07 3.4031e-07 -5.20182e-06
0.00055791 5.84877e-05 1.47681e-06
5.84877e-05 -6.33479e-06 -2.93008e-07
1.47681e-06 -2.93008e-07 -0.00012088
0.000953524 0.000119928 2.31143e-06
0.000119928 0.000242197 2.93689e-06
2.31143e-06 2.93689e-06 0.000110955
0.00261729 -5.27789e-05 3.40709e-06
-5.27789e-05 0.000177827 0.000154158
3.40709e-06 0.000154158 -0.000804175
0.00344539 -0.000215338 6.28841e-06
-0.000215338 0.00227424 -2.32496e-06
6.28841e-06 -2.32496e-06 0.00107224
0.003613 -0.000474254 6.44692e-05
-0.000474254 0.00133228 -0.000118702
6.44692e-05 -0.000118702 -0.00163738
0.00560968 -0.000932964 -8.86926e-05
-0.000932964 0.00073144 -5.25857e-07
-8.86926e-05 -5.25857e-07 0.000306821
0.00228909 -0.000853244 -0.00012326
-0.000853244 6.97173e-05 7.83563e-05
-0.00012326 7.83563e-05 -0.00253788
0.0110395 0.00146827 9.82776e-05
0.00146827 0.00380006 4.70742e-05
9.82776e-05 4.70742e-05 0.00310337
0.00300241 0.000228757 7.01484e-05
0.000228757 -0.00298587 -9.172e-05
7.01484e-05 -9.172e-05 -0.00208509
0.00527796 -0.00138201 -1.60185e-05
-0.00138201 0.00117064 3.17763e-06
-1.60185e-05 3.17763e-06 0.00050129
0.00647163 -0.00114954 -1.93651e-05
-0.00114954 0.00302888 2.06587e-05
-1.93651e-05 2.06587e-05 -0.000317404
-0.00288691 0.00105786 -3.10644e-05
0.00105786 -2.68149e-05 -0.000120984
-3.10644e-05 -0.000120984 -0.00188524
0.00561032 9.70683e-05 -1.51159e-05
9.70683e-05 -0.00245201 4.75774e-05
-1.51159e-05 4.75774e-05 -0.000171033
0.0018208 -0.000845644 -3.85936e-05
-0.000845644 0.000286175 -1.99349e-05
-3.85936e-05 -1.99349e-05 -0.000299854
0.0110554 -0.00140376 -7.06577e-05
-0.00140376 0.00490916 5.43281e-05
-7.06577e-05 5.43281e-05 0.00110834
-0.00918855 -0.000110982 3.74998e-05
-0.000110982 -0.000439082 -0.000188664
3.74998e-05 -0.000188664 -0.00266698
0.00400676 -0.000880288 3.93047e-05
-0.000880288 -0.00195074 -1.65092e-05
3.93047e-05 -1.65092e-05 -0.000876144
0.00070733 4.8905e-05 3.60951e-08
4.8905e-05 9.7552e-05 7.60577e-06
3.60951e-08 7.60577e-06 -4.00837e-05
0.000637544 3.15418e-06 6.25406e-07
3.15418e-06 8.48459e-05 -5.96947e-07
6.25406e-07 -5.96947e-07 -6.91955e-05
0.000795594 -7.55429e-05 8.25277e-07
-7.55429e-05 0.000189555 -2.13576e-06
8.25277e-07 -2.13576e-06 3.66835e-05
0.000740923 6.28773e-05 -7.11869e-07
6.28773e-05 0.000113781 -6.87838e-07
-7.11869e-07 -6.87838e-07 -1.60245e-05
0.000792735 0.000115037 9.58399e-07
0.000115037 0.000178037 -3.22207e-07
9.58399e-07 -3.22207e-07 3.9276e-05
0.00107559 0.000129981 -1.8913e-06
0.000129981 0.000340707 -7.59909e-07
-1.8913e-06 -7.59909e-07 0.000206204
-0.000132865 -0.000468024 1.83798e-05
-0.000468024 -0.000870877 8.66788e-06
1.83798e-05 8.66788e-06 -0.000863283
-0.000693591 -0.000105027 1.83541e-05
-0.000105027 -0.000664267 -1.97827e-05
1.83541e-05 -1.97827e-05 -0.00068117
0.000610105 5.05594e-05 -1.35176e-06
5.05594e-05 7.85242e-05 -1.05114e-06
-1.35176e-06 -1.05114e-06 -7.96025e-05
0.00206923 -0.00026748 4.05983e-05
-0.00026748 0.000979688 -3.19007e-05
4.05983e-05 -3.19007e-05 0.000732249
0.00152036 1.53713e-05 -3.21974e-06
1.53713e-05 0.000691174 3.1072e-07
-3.21974e-06 3.1072e-07 0.0004644
0.000609683 3.78734e-05 -2.7725e-07
3.78734e-05 5.34769e-05 2.03583e-06
-2.7725e-07 2.03583e-06 -8.60732e-05
0.000625668 0.000109471 5.13418e-07
0.000109471 0.000129862 -1.05763e-06
5.13418e-07 -1.05763e-06 -3.29626e-05
0.000471655 -0.000438213 -1.51739e-06
-0.000438213 -0.000408155 -3.89529e-06
-1.51739e-06 -3.89529e-06 -0.000401769
0.000766062 -1.79594e-05 -5.68476e-07
-1.79594e-05 0.000410105 -1.3927e-07
-5.68476e-07 -1.3927e-07 0.000128967
0.000412022 -8.44364e-05 1.20887e-05
-8.44364e-05 0.00028379 -8.19319e-07
1.20887e-05 -8.19319e-07 0.000153256
0.000748324 7.7061e-05 3.77621e-06
7.7061e-05 0.000147661 -1.18374e-05
3.77621e-06 -1.18374e-05 1.98242e-05
-0.00249769 0.000127607 -7.54636e-05
0.000127607 -0.00101118 -1.18619e-05
-7.54636e-05 -1.18619e-05 -0.00143502
-0.000375116 3.12124e-05 1.58763e-05
3.12124e-05 -0.000156379 2.74414e-05
1.58763e-05 2.74414e-05 -0.000293837
0.00144766 9.74047e-06 5.54454e-06
9.74047e-06 0.000748988 1.65235e-06
5.54454e-06 1.65235e-06 0.000531334
0.000902247 -2.15768e-05 -9.45018e-07
-2.15768e-05 -9.61198e-05 7.60922e-07
-9.45018e-07 7.60922e-07 -0.000608566
0.000366726 -1.76132e-05 -1.61086e-05
-1.76132e-05 0.000505299 -1.13709e-05
-1.61086e-05 -1.13709e-05 -2.78168e-05
0.000795898 -3.7491e-05 0.000173438
-3.7491e-05 0.000728298 -9.27206e-06
0.000173438 -9.27206e-06 -0.000991268
0.000528398 0.00018731 1.15011e-05
0.00018731 0.00035574 1.47344e-05
1.15011e-05 1.47344e-05 0.000158242
0.00120674 0.000418592 1.00444e-05
0.000418592 0.00031897 -1.24961e-05
1.00444e-05 -1.24961e-05 2.88752e-05
0.000489603 -5.95066e-05 1.09606e-05
-5.95066e-05 5.41859e-05 2.79847e-06
1.09606e-05 2.79847e-06 2.40445e-05
-0.00274725 0.000529712 4.47987e-05
0.000529712 0.000275259 6.21574e-05
4.47987e-05 6.21574e-05 -0.00353041
-0.0102112 0.000516308 -8.04119e-05
0.000516308 -0.00365655 -0.000231182
-8.04119e-05 -0.000231182 -0.00580393
0.00275514 4.57716e-05 3.46836e-05
4.57716e-05 0.000641591 6.0613e-05
3.46836e-05 6.0613e-05 0.000153
0.00321025 0.000323245 -7.17803e-05
0.000323245 -0.00281248 9.05574e-05
-7.17803e-05 9.05574e-05 -0.00197845
0.000503844 0.000170911 7.06653e-06
0.000170911 0.000384182 -1.52389e-06
7.06653e-06 -1.52389e-06 0.000164912
0.00151951 -1.11378e-06 1.3459e-05
-1.11378e-06 -0.000300686 -2.37384e-05
1.3459e-05 -2.37384e-05 -0.000103359
0.0034764 -0.000156319 -6.05184e-06
-0.000156319 0.00225625 2.00914e-06
-6.05184e-06 2.00914e-06 0.00106338
0.00121584 0.000209198 -4.17455e-05
0.000209198 0.000512266 -3.97944e-06
-4.17455e-05 -3.97944e-06 -7.99239e-05
0.00378383 0.00148771 6.3173e-05
0.00148771 -0.0012899 -0.000170222
6.3173e-05 -0.000170222 -0.000925295
-0.00265668 0.000998962 2.92678e-05
0.000998962 -0.000709358 0.000118036
2.92678e-05 0.000118036 -0.00211383
0.00697081 6.07239e-05 6.05389e-05
6.07239e-05 0.00547321 -2.53936e-05
6.05389e-05 -2.53936e-05 0.000243908
0.0017542 -8.04961e-05 5.99124e-05
-8.04961e-05 0.00139175 -2.07891e-05
5.99124e-05 -2.07891e-05 0.000943804
0.000930105 3.03512e-05 -1.33026e-05
3.03512e-05 0.000471669 -8.65012e-06
-1.33026e-05 -8.65012e-06 0.000319576
0.00377614 -0.000334776 0.000251791
-0.000334776 0.00112595 -0.000166902
0.000251791 -0.000166902 -0.00123239
0.00519382 0.00198841 3.47459e-06
0.00198841 0.00371692 -1.51623e-05
3.47459e-06 -1.51623e-05 0.00431399
-0.00397456 0.00106967 3.3027e-05
0.00106967 -0.00418261 0.000320406
3.3027e-05 0.000320406 -0.00435998
0.0132187 -0.00133976 0.000124755
-0.00133976 0.00541862 -0.00010665
0.000124755 -0.00010665 0.00163346
0.00323678 -0.000413131 -6.74015e-05
-0.000413131 0.00118064 7.71369e-05
-6.74015e-05 7.71369e-05 0.000902368
0.00067087 0.000145975 8.17096e-06
0.000145975 0.000488561 6.15825e-06
8.17096e-06 6.15825e-06 0.00027162
0.000203387 3.84227e-06 -2.42373e-05
3.84227e-06 0.00024773 1.42849e-06
-2.42373e-05 1.42849e-06 9.46243e-05
0.00109896 -0.000274608 1.72072e-05
-0.000274608 0.000758468 -9.02825e-06
1.72072e-05 -9.02825e-06 0.000464075
0.00103464 -8.40458e-05 1.01143e-06
-8.40458e-05 0.000370819 3.64834e-06
1.01143e-06 3.64834e-06 0.000275135
-6.64158e-05 -2.91422e-05 3.63959e-06
-2.91422e-05 -6.41365e-05 8.32555e-06
3.63959e-06 8.32555e-06 -0.000179547
0.000251941 -0.000184671 -1.0754e-06
-0.000184671 0.000133298 -7.08537e-07
-1.0754e-06 -7.08537e-07 -3.88766e-05
0.00131364 -0.000303092 2.32652e-05
-0.000303092 0.00060719 -1.55318e-05
2.32652e-05 -1.55318e-05 0.000322262
0.00224117 -0.000206116 -6.24379e-06
-0.000206116 0.000971841 4.49714e-06
-6.24379e-06 4.49714e-06 0.000853327
0.00189868 -0.00035549 3.26408e-06
-0.00035549 0.000786016 -3.26314e-07
3.26408e-06 -3.26314e-07 0.000542776
0.00138194 -0.000334625 1.0436e-05
-0.000334625 0.000522252 2.01946e-06
1.0436e-05 2.01946e-06 0.000120493
0.000215809 -0.000142982 -2.74798e-06
-0.000142982 -0.000231646 -3.39271e-07
-2.74798e-06 -3.39271e-07 -0.000377547
0.00143902 -0.00031362 -1.03519e-06
-0.00031362 0.000363457 1.2205e-06
-1.03519e-06 1.2205e-06 9.98411e-05
0.00175343 -0.000405851 -4.23231e-07
-0.000405851 0.000470732 2.10826e-06
-4.23231e-07 2.10826e-06 0.000124404
0.00171854 -0.000420482 -3.54632e-06
-0.000420482 0.000329509 3.2813e-06
-3.54632e-06 3.2813e-06 3.90557e-05
0.00101587 -0.000274035 -3.19644e-07
-0.000274035 7.31773e-05 4.55144e-06
-3.19644e-07 4.55144e-06 -0.000160725
0.00128795 -0.000318515 -2.58345e-06
-0.000318515 0.000191206 1.67662e-06
-2.58345e-06 1.67662e-06 -7.25164e-05
0.00110255 -0.00026123 -7.878e-06
-0.00026123 0.000177616 2.55361e-06
-7.878e-06 2.55361e-06 -6.95609e-05
0.0017267 -0.000296843 5.19884e-06
-0.000296843 0.000605857 -1.05917e-06
5.19884e-06 -1.05917e-06 0.000388947
0.00146468 -0.000277634 2.80692e-06
-0.000277634 0.000424406 -2.90734e-06
2.80692e-06 -2.90734e-06 0.000212013
3.02517e-05 -5.89651e-05 1.46215e-06
-5.89651e-05 -0.000295273 1.81027e-07
1.46215e-06 1.81027e-07 -0.000466333
0.000795085 -0.000182535 1.8893e-06
-0.000182535 0.000145868 -1.18644e-06
1.8893e-06 -1.18644e-06 -5.53352e-05
0.00104824 -0.000223559 5.71765e-06
-0.000223559 0.000220275 -4.72818e-06
5.71765e-06 -4.72818e-06 7.2953e-06
0.000518416 2.26562e-05 1.49907e-06
2.26562e-05 -9.50336e-06 1.69425e-06
1.49907e-06 1.69425e-06 -0.000126687
0.000889934 -9.63894e-05 -3.13958e-07
-9.63894e-05 0.000228299 5.96646e-07
-3.13958e-07 5.96646e-07 7.7544e-05
0.00105785 -0.00020336 -1.05891e-06
-0.00020336 0.000339054 -5.77855e-07
-1.05891e-06 -5.77855e-07 0.000154656
0.000598462 2.1016e-05 -1.04902e-06
2.1016e-05 8.45104e-06 2.43311e-06
-1.04902e-06 2.43311e-06 -5.6841e-05
0.000724677 -1.51934e-05 -6.09076e-07
-1.51934e-05 0.000101601 -2.58767e-07
-6.09076e-07 -2.58767e-07 3.76865e-06
0.000607554 -3.75041e-05 -3.26936e-07
-3.75041e-05 5.87723e-05 -1.2422e-07
-3.26936e-07 -1.2422e-07 -6.31394e-05
0.000766462 -3.55744e-05 3.7583e-07
-3.55744e-05 0.000129434 -1.05691e-06
3.7583e-07 -1.05691e-06 3.72727e-05
0.000640321 7.75791e-06 -2.80872e-07
7.75791e-06 2.77381e-05 -1.58363e-07
-2.80872e-07 -1.58363e-07 -3.02951e-05
0.000546822 5.16987e-05 -5.21097e-07
5.16987e-05 -3.07845e-05 4.54867e-06
-5.21097e-07 4.54867e-06 -5.37444e-05
0.00065448 -2.14904e-06 1.84231e-06
-2.14904e-06 3.19598e-05 -1.88312e-06
1.84231e-06 -1.88312e-06 -2.12734e-05
0.000569602 4.4156e-05 -1.48073e-07
4.4156e-05 -2.64497e-05 -4.08855e-08
-1.48073e-07 -4.08855e-08 -4.5877e-05
0.0022914 8.08229e-05 -2.44022e-05
8.08229e-05 0.00100804 3.82088e-06
-2.44022e-05 3.82088e-06 0.00101697
0.000556417 3.42202e-05 1.02444e-06
3.42202e-05 -4.11664e-05 -4.0292e-06
1.02444e-06 -4.0292e-06 -5.8132e-05
0.0015402 5.64336e-05 1.09388e-05
5.64336e-05 0.000553424 -1.00515e-06
1.09388e-05 -1.00515e-06 0.000560922
0.00234892 5.82286e-05 1.63692e-05
5.82286e-05 0.0010305 -4.48278e-06
1.63692e-05 -4.48278e-06 0.00104292
0.000704058 6.38416e-05 3.35524e-07
6.38416e-05 8.93022e-05 -1.03651e-06
3.35524e-07 -1.03651e-06 -1.39401e-05
0.00063288 2.29554e-05 -3.20986e-07
2.29554e-05 1.97991e-05 -2.33526e-06
-3.20986e-07 -2.33526e-06 -4.02433e-05
0.000568734 3.90857e-05 -1.15564e-06
3.90857e-05 1.63725e-05 -1.09733e-06
-1.15564e-06 -1.09733e-06 -8.81081e-05
0.000570731 -1.95672e-05 5.01103e-07
-1.95672e-05 -3.63032e-05 -4.28594e-06
5.01103e-07 -4.28594e-06 -5.16441e-05
0.000450254 1.52826e-05 -1.38029e-06
1.52826e-05 -8.55022e-05 -1.17572e-06
-1.38029e-06 -1.17572e-06 -0.000141739
0.000781373 4.02608e-05 -2.44821e-07
4.02608e-05 0.00014264 -7.0203e-07
-2.44821e-07 -7.0203e-07 4.55358e-05
0.00225012 -3.83016e-05 -1.5463e-05
-3.83016e-05 0.000964079 -4.70202e-06
-1.5463e-05 -4.70202e-06 0.00098014
0.000574082 -1.37733e-05 -2.08787e-07
-1.37733e-05 -3.66061e-05 -6.66637e-08
-2.08787e-07 -6.66637e-08 -4.83709e-05
0.0002606 1.51265e-06 -7.95138e-07
1.51265e-06 -0.000196207 9.7455e-07
-7.95138e-07 9.7455e-07 -0.000248637
0.00215218 -2.32979e-05 -3.92843e-06
-2.32979e-05 0.000903497 9.56475e-08
-3.92843e-06 9.56475e-08 0.000921469
0.000576842 -8.67335e-06 -4.30608e-07
-8.67335e-06 -3.6046e-05 3.50993e-06
-4.30608e-07 3.50993e-06 -4.51075e-05
0.00208059 -8.58159e-06 6.5722e-06
-8.58159e-06 0.000859839 4.72524e-06
6.5722e-06 4.72524e-06 0.000878946
0.00159003 -4.41476e-05 -1.24991e-05
-4.41476e-05 -0.00020564 1.56956e-05
-1.24991e-05 1.56956e-05 -3.96888e-05
0.000890482 -2.49393e-05 5.97745e-06
-2.49393e-05 0.000418849 -2.31046e-06
5.97745e-06 -2.31046e-06 0.000313694
0.00147852 -0.000113935 0.000103894
-0.000113935 0.00039494 -2.74091e-05
0.000103894 -2.74091e-05 -0.00108034
0.000550464 1.84975e-05 6.48868e-07
1.84975e-05 -2.1583e-05 -6.45564e-07
6.48868e-07 -6.45564e-07 -0.000128103
0.000932429 5.06809e-05 -4.25681e-07
5.06809e-05 0.000199592 4.00192e-07
-4.25681e-07 4.00192e-07 8.1729e-05
0.000801903 9.27268e-05 -1.42008e-07
9.27268e-05 0.000151024 -8.20429e-08
-1.42008e-07 -8.20429e-08 3.29913e-05
0.000594758 4.28174e-05 2.12617e-07
4.28174e-05 8.22828e-06 1.72262e-07
2.12617e-07 1.72262e-07 -0.000101131
0.000715398 5.86789e-05 5.59645e-08
5.86789e-05 9.95218e-05 4.89579e-07
5.59645e-08 4.89579e-07 -2.61432e-05
0.000702848 5.40888e-05 1.16048e-06
5.40888e-05 8.33848e-05 -6.40092e-07
1.16048e-06 -6.40092e-07 -3.64659e-05
0.000653523 0.000144763 3.03671e-06
0.000144763 8.41732e-05 4.33073e-06
3.03671e-06 4.33073e-06 -6.04812e-05
-2.19005e-05 4.02068e-05 5.87185e-05
4.02068e-05 2.362e-05 0.000152211
5.87185e-05 0.000152211 -0.00142994
0.00259478 -4.09755e-05 -9.07971e-06
-4.09755e-05 0.000480691 4.89047e-05
-9.07971e-06 4.89047e-05 -0.00032
0.00294145 -0.000156748 3.01167e-05
-0.000156748 0.00212301 -6.3263e-05
3.01167e-05 -6.3263e-05 0.000958459
0.00400735 -0.000113588 -9.64361e-06
-0.000113588 -0.00407508 5.16545e-05
-9.64361e-06 5.16545e-05 -0.00128084
0.00307586 -0.00113345 -8.77248e-05
-0.00113345 0.00100755 6.27084e-05
-8.77248e-05 6.27084e-05 0.000118289
-0.0018357 -0.00132356 -1.94362e-05
-0.00132356 -0.000273455 7.84531e-05
-1.94362e-05 7.84531e-05 -0.00412305
0.0084997 0.0017081 7.65785e-05
0.0017081 0.00457563 -5.1993e-05
7.65785e-05 -5.1993e-05 0.00263277
0.00341002 -0.00102065 -2.58755e-05
-0.00102065 0.000912925 4.75514e-06
-2.58755e-05 4.75514e-06 0.000370822
-0.000281654 -0.000490204 3.26932e-05
-0.000490204 0.00150762 2.42365e-05
3.26932e-05 2.42365e-05 -0.00292026
0.00452248 0.000135127 9.48701e-06
0.000135127 0.00248069 -9.68449e-06
9.48701e-06 -9.68449e-06 0.00120425
0.0087942 -0.00117959 -3.13708e-05
-0.00117959 0.00112721 -3.88101e-05
-3.13708e-05 -3.88101e-05 0.0022848
-0.00143906 1.83949e-05 -0.000162685
1.83949e-05 -0.00144251 7.34904e-05
-0.000162685 7.34904e-05 -0.00128977
0.000832006 0.00121418 -4.69257e-05
0.00121418 0.00188537 -8.53245e-05
-4.69257e-05 -8.53245e-05 -0.00256659
-0.00677857 -0.00185225 4.69913e-05
-0.00185225 -0.00379579 -0.000125794
4.69913e-05 -0.000125794 -0.00583853
0.00521834 -0.00111347 3.58408e-05
-0.00111347 -0.000642762 -0.000243765
3.58408e-05 -0.000243765 0.000549226
0.000874951 2.12923e-05 2.90912e-06
2.12923e-05 0.000207203 -2.23958e-07
2.90912e-06 -2.23958e-07 8.77588e-05
0.000641482 5.80727e-05 3.10803e-07
5.80727e-05 6.67898e-05 -1.03629e-06
3.10803e-07 -1.03629e-06 -7.20503e-05
0.000900354 -7.20729e-06 7.8119e-07
-7.20729e-06 0.000255688 -2.62303e-06
7.8119e-07 -2.62303e-06 8.76352e-05
0.000778221 5.08023e-05 -1.01608e-06
5.08023e-05 0.000143361 -4.2405e-06
-1.01608e-06 -4.2405e-06 4.70963e-06
0.000142244 -0.000401106 -5.25753e-06
-0.000401106 -0.000602748 2.92526e-05
-5.25753e-06 2.92526e-05 -0.000677069
0.00206404 -6.67868e-05 -1.89337e-05
-6.67868e-05 0.00121449 -2.55624e-05
-1.89337e-05 -2.55624e-05 0.00108357
0.000692304 3.38865e-05 -2.357e-06
3.38865e-05 8.15717e-05 -3.15778e-06
-2.357e-06 -3.15778e-06 -4.05451e-05
0.000690241 0.000140566 -1.42864e-06
0.000140566 0.000179201 4.96429e-06
-1.42864e-06 4.96429e-06 1.25472e-05
0.00277587 -5.32359e-05 1.51745e-05
-5.32359e-05 0.00150447 -2.19401e-05
1.51745e-05 -2.19401e-05 0.00128552
0.000878515 6.30349e-05 1.15338e-06
6.30349e-05 0.000217404 3.33671e-06
1.15338e-06 3.33671e-06 9.59376e-05
0.000641479 0.000103886 -2.32954e-06
0.000103886 0.000316678 -1.66058e-06
-2.32954e-06 -1.66058e-06 7.4005e-05
0.000114991 2.22326e-05 4.83747e-05
2.22326e-05 0.000255383 -1.60121e-05
4.83747e-05 -1.60121e-05 -0.000277995
0.000242875 1.53677e-05 2.50032e-05
1.53677e-05 0.000213244 -7.47777e-07
2.50032e-05 -7.47777e-07 9.40456e-05
0.000612605 0.000132884 -3.33863e-07
0.000132884 0.000244985 -7.50912e-06
-3.33863e-07 -7.50912e-06 7.5525e-05
-7.29759e-05 -8.93832e-05 -3.1163e-05
-8.93832e-05 0.000582982 -4.45206e-05
-3.1163e-05 -4.45206e-05 -0.000604143
0.00390669 0.000139041 2.32456e-05
0.000139041 0.00214011 2.23388e-05
2.32456e-05 2.23388e-05 0.0019317
0.000586681 -3.25233e-06 3.36842e-07
-3.25233e-06 0.000695214 1.12164e-05
3.36842e-07 1.12164e-05 6.68227e-05
0.00133075 -3.24729e-05 -1.44313e-07
-3.24729e-05 0.00011664 6.4805e-07
-1.44313e-07 6.4805e-07 -0.000134455
0.000207941 -1.81227e-05 9.40079e-07
-1.81227e-05 0.000323626 -1.61396e-05
9.40079e-07 -1.61396e-05 -0.000104541
-0.00020631 9.44982e-05 -5.85371e-07
9.44982e-05 4.36588e-05 6.82667e-06
-5.85371e-07 6.82667e-06 -0.000140523
-0.000932411 0.000297032 5.79706e-05
0.000297032 -0.000808397 4.65694e-05
5.79706e-05 4.65694e-05 -0.00104371
0.00134376 -2.85699e-05 1.72178e-05
-2.85699e-05 -0.00037273 -6.12398e-06
1.72178e-05 -6.12398e-06 -0.000132923
0.00348785 -0.00102428 0.000115312
-0.00102428 0.00366764 -0.000123939
0.000115312 -0.000123939 -0.0015694
0.00863283 0.00176059 -7.13251e-05
0.00176059 0.00408628 4.86841e-05
-7.13251e-05 4.86841e-05 0.00240212
0.00300397 -9.41796e-05 -3.44833e-05
-9.41796e-05 0.00210791 6.52874e-05
-3.44833e-05 6.52874e-05 0.000949922
0.00562041 0.00157465 -3.4874e-05
0.00157465 0.000173622 -4.37846e-05
-3.4874e-05 -4.37846e-05 0.000262001
-0.000167619 0.000134089 -2.98485e-05
0.000134089 0.000384764 8.94268e-06
-2.98485e-05 8.94268e-06 -0.000139684
0.000975277 1.30568e-05 -7.15099e-06
1.30568e-05 0.000420088 2.44004e-06
-7.15099e-06 2.44004e-06 0.000335805
0.00363038 -0.000385165 8.98016e-05
-0.000385165 0.00113302 -9.21724e-06
8.98016e-05 -9.21724e-06 -0.0014867
3.56602e-05 -0.000186631 5.59344e-06
-0.000186631 -0.00051265 2.44743e-05
5.59344e-06 2.44743e-05 -0.000531538
-0.00101359 0.00213652 0.000132623
0.00213652 0.000283964 -6.04841e-05
0.000132623 -6.04841e-05 0.00140733
0.0068417 0.0010351 -6.11431e-05
0.0010351 0.000418344 0.000121076
-6.11431e-05 0.000121076 0.000176873
-0.00284093 -0.000785496 7.2739e-05
-0.000785496 0.000454061 -7.08126e-05
7.2739e-05 -7.08126e-05 -0.00457914
0.000523264 -0.000125119 4.01429e-05
-0.000125119 0.000409855 -7.39105e-06
4.01429e-05 -7.39105e-06 7.04548e-05
0.000619715 -0.000154594 8.20471e-05
-0.000154594 -0.000188943 -2.95534e-05
8.20471e-05 -2.95534e-05 -0.00165998
-0.00184654 0.000109135 -0.000249184
0.000109135 0.00188106 2.28022e-07
-0.000249184 2.28022e-07 0.000358189
0.00344329 0.00197352 -0.000180609
0.00197352 0.000314042 0.000262494
-0.000180609 0.000262494 0.000601169
0.00806409 -0.00080819 2.26229e-06
-0.00080819 0.00362635 -3.95977e-06
2.26229e-06 -3.95977e-06 0.000352634
0.00320282 -0.000500888 -6.04397e-05
-0.000500888 0.00103977 4.96597e-05
-6.04397e-05 4.96597e-05 0.00071265
-0.000802163 4.77963e-05 2.93085e-05
4.77963e-05 -0.000326413 1.06924e-05
2.93085e-05 1.06924e-05 -0.000499722
9.785e-05 -0.000184715 -4.83645e-06
-0.000184715 0.000231415 7.53926e-07
-4.83645e-06 7.53926e-07 -6.17847e-05
-0.000526619 -0.000197622 1.11575e-05
-0.000197622 -0.000386453 -4.66418e-06
1.11575e-05 -4.66418e-06 -0.000562445
-0.000539243 -0.000159564 -5.94192e-06
-0.000159564 -0.000277997 6.96505e-06
-5.94192e-06 6.96505e-06 -0.000440054
-0.000687284 -0.00016044 -2.23707e-07
-0.00016044 -0.000447172 -4.29506e-06
-2.23707e-07 -4.29506e-06 -0.000729837
0.00336746 -0.000582844 2.9155e-05
-0.000582844 0.00135822 -2.8066e-06
2.9155e-05 -2.8066e-06 0.00105829
0.0041686 -0.000577886 -8.71113e-06
-0.000577886 0.00198272 3.19512e-06
-8.71113e-06 3.19512e-06 0.00172085
0.00222025 -0.000411517 5.46017e-06
-0.000411517 0.000914315 5.70837e-07
5.46017e-06 5.70837e-07 0.000536513
0.00121183 -0.000384719 8.03344e-06
-0.000384719 0.000202729 -5.18077e-06
8.03344e-06 -5.18077e-06 -0.000194543
0.00180104 -0.00034656 -7.92854e-06
-0.00034656 0.000533354 1.7514e-06
-7.92854e-06 1.7514e-06 0.000258605
0.00219992 -0.000455403 1.04266e-06
-0.000455403 0.00068223 4.47868e-07
1.04266e-06 4.47868e-07 0.000327859
0.00190123 -0.000449925 8.6136e-07
-0.000449925 0.000467874 -5.41057e-06
8.6136e-07 -5.41057e-06 0.000115875
0.00192578 -0.000422606 -9.90898e-07
-0.000422606 0.000374389 -2.52821e-06
-9.90898e-07 -2.52821e-06 0.000118895
0.00178586 -0.000420909 -1.2111e-06
-0.000420909 0.000354299 3.12752e-06
-1.2111e-06 3.12752e-06 8.24314e-05
0.00168417 -0.000421161 -8.46731e-07
-0.000421161 0.000312708 -2.63881e-07
-8.46731e-07 -2.63881e-07 1.72152e-05
0.000671673 -0.00022658 5.65065e-06
-0.00022658 -0.000117071 1.6197e-06
5.65065e-06 1.6197e-06 -0.000324599
0.00116818 -0.000281347 1.86109e-06
-0.000281347 0.000157266 1.44033e-07
1.86109e-06 1.44033e-07 -7.05282e-05
0.00119102 -0.000311361 3.05487e-07
-0.000311361 0.000138151 -2.95342e-06
3.05487e-07 -2.95342e-06 -0.000129178
0.00125103 -0.000239002 3.36451e-06
-0.000239002 0.000359055 1.58221e-06
3.36451e-06 1.58221e-06 0.00014557
0.0012638 -0.000251936 -1.96914e-06
-0.000251936 0.000331513 -1.51494e-06
-1.96914e-06 -1.51494e-06 0.000121725
0.000709049 -0.000206496 4.72331e-06
-0.000206496 -1.40747e-05 -5.07523e-06
4.72331e-06 -5.07523e-06 -0.00021021
0.000511348 -6.04405e-05 2.56813e-06
-6.04405e-05 -5.75744e-06 1.53002e-06
2.56813e-06 1.53002e-06 -0.000163586
0.000503819 -9.98835e-05 -6.3327e-07
-9.98835e-05 -5.98285e-06 1.05678e-06
-6.3327e-07 1.05678e-06 -0.000183379
0.00136796 -0.000239742 2.66611e-06
-0.000239742 0.000484664 -4.02773e-06
2.66611e-06 -4.02773e-06 0.000276421
0.000511564 3.00808e-05 2.29923e-08
3.00808e-05 -3.36923e-05 3.01788e-06
2.29923e-08 3.01788e-06 -0.000112697
0.000729334 -2.52855e-05 -4.8588e-07
-2.52855e-05 0.000118905 -6.0427e-07
-4.8588e-07 -6.0427e-07 -6.82194e-06
0.00123919 -0.000133536 5.4982e-07
-0.000133536 0.000437418 -3.67274e-07
5.4982e-07 -3.67274e-07 0.000279083
0.000509172 6.18715e-05 -7.41418e-07
6.18715e-05 -4.17152e-05 6.58525e-06
-7.41418e-07 6.58525e-06 -6.9401e-05
0.000639861 1.7465e-05 -2.62983e-07
1.7465e-05 3.09144e-05 -2.83155e-07
-2.62983e-07 -2.83155e-07 -3.42995e-05
0.000846303 -3.83791e-05 -2.0871e-07
-3.83791e-05 0.00017571 -1.54811e-06
-2.0871e-07 -1.54811e-06 7.34047e-05
0.000663416 6.25562e-06 1.43898e-06
6.25562e-06 4.02248e-05 -2.22978e-06
1.43898e-06 -2.22978e-06 -1.77342e-05
0.000550414 5.50115e-05 -3.9443e-08
5.50115e-05 -2.71676e-05 -2.1015e-08
-3.9443e-08 -2.1015e-08 -5.09234e-05
0.00234749 9.58284e-05 -2.65317e-05
9.58284e-05 0.00104994 3.4703e-06
-2.65317e-05 3.4703e-06 0.00105542
0.000568847 4.63016e-05 2.25819e-07
4.63016e-05 -2.65985e-05 -4.28875e-06
2.25819e-07 -4.28875e-06 -4.63736e-05
0.00232092 8.35384e-05 2.60238e-06
8.35384e-05 0.00102649 2.29831e-07
2.60238e-06 2.29831e-07 0.00103485
0.0023081 7.11321e-05 1.97791e-05
7.11321e-05 0.00101217 -4.03674e-06
1.97791e-05 -4.03674e-06 0.00102293
0.000720155 5.48046e-05 -3.65051e-08
5.48046e-05 0.000104028 -6.24598e-07
-3.65051e-08 -6.24598e-07 -2.10143e-05
0.00077305 8.33957e-05 3.51491e-07
8.33957e-05 0.000140552 -1.37849e-06
3.51491e-07 -1.37849e-06 2.36728e-05
0.000646069 1.45486e-05 -3.18058e-07
1.45486e-05 2.72389e-05 -2.66506e-06
-3.18058e-07 -2.66506e-06 -3.8343e-05
0.000713195 7.59128e-05 -9.84797e-08
7.59128e-05 9.40812e-05 8.24608e-09
-9.84797e-08 8.24608e-09 -9.22676e-06
0.000560836 -2.4121e-05 1.55749e-08
-2.4121e-05 -3.82212e-05 -4.84753e-06
1.55749e-08 -4.84753e-06 -5.7454e-05
0.000632615 2.30632e-05 -5.13914e-08
2.30632e-05 2.02772e-05 -9.246e-08
-5.13914e-08 -9.246e-08 -3.97608e-05
0.000643435 4.0773e-05 -1.89988e-06
4.0773e-05 4.96322e-05 2.71521e-07
-1.89988e-06 2.71521e-07 -4.60964e-05
0.00234684 -5.23421e-05 -2.0264e-05
-5.23421e-05 0.00102462 -4.63035e-06
-2.0264e-05 -4.63035e-06 0.00103851
0.000571655 -1.98214e-05 -2.72921e-07
-1.98214e-05 -3.54976e-05 -6.42804e-08
-2.72921e-07 -6.42804e-08 -5.07319e-05
0.000570776 2.6112e-05 -1.16789e-06
2.6112e-05 -1.4327e-05 8.4696e-07
-1.16789e-06 8.4696e-07 -6.9361e-05
0.00222288 -3.68427e-05 -3.97345e-06
-3.68427e-05 0.000947474 1.47496e-07
-3.97345e-06 1.47496e-07 0.000963903
0.000574918 -1.36232e-05 -4.83152e-07
-1.36232e-05 -3.63673e-05 3.70881e-06
-4.83152e-07 3.70881e-06 -4.79217e-05
0.00212708 -2.19241e-05 1.06752e-05
-2.19241e-05 0.000888244 4.68333e-06
1.06752e-05 4.68333e-06 0.000906494
0.000668026 -8.32917e-05 4.84745e-06
-8.32917e-05 5.01149e-05 8.69147e-06
4.84745e-06 8.69147e-06 7.96877e-05
0.00149457 -7.80544e-05 -1.48409e-05
-7.80544e-05 -0.000307206 2.36707e-05
-1.48409e-05 2.36707e-05 -9.7445e-05
0.000942336 -4.43387e-05 6.50433e-06
-4.43387e-05 0.000373878 -1.17207e-05
6.50433e-06 -1.17207e-05 0.000315432
0.000724823 5.50656e-05 -2.09981e-07
5.50656e-05 9.84214e-05 5.7482e-08
-2.09981e-07 5.7482e-08 -2.13047e-05
0.000716939 3.70088e-05 9.73484e-07
3.70088e-05 7.46965e-05 -1.6042e-07
9.73484e-07 -1.6042e-07 -4.03512e-05
0.000252684 2.8775e-05 -2.64087e-06
2.8775e-05 -0.000197127 -3.94167e-06
-2.64087e-06 -3.94167e-06 -0.000307306
0.000424666 7.88061e-06 2.3933e-07
7.88061e-06 -8.57886e-05 -3.0523e-07
2.3933e-07 -3.0523e-07 -0.000201173
0.00128163 0.000140448 -4.07027e-07
0.000140448 0.000434216 -1.18331e-06
-4.07027e-07 -1.18331e-06 0.000293658
0.000646789 2.45722e-05 -1.30753e-06
2.45722e-05 3.25953e-05 6.28716e-07
-1.30753e-06 6.28716e-07 -7.29054e-05
0.000663935 4.7522e-05 -1.65764e-06
4.7522e-05 6.08235e-05 -2.8175e-06
-1.65764e-06 -2.8175e-06 -5.82141e-05
0.000776557 5.91095e-05 -9.23202e-08
5.91095e-05 0.000127246 -1.81088e-07
-9.23202e-08 -1.81088e-07 5.26803e-06
0.000954985 9.27299e-05 2.14927e-07
9.27299e-05 0.000241974 1.61719e-07
2.14927e-07 1.61719e-07 0.000110342
0.0010285 6.59871e-05 1.82114e-06
6.59871e-05 0.000295718 -8.31958e-07
1.82114e-06 -8.31958e-07 0.000162681
0.00295538 0.000208591 0.000155328
0.000208591 0.00164413 0.000218078
0.000155328 0.000218078 -0.00102975
0.000483625 6.98411e-05 8.64685e-06
6.98411e-05 9.61788e-05 6.01614e-05
8.64685e-06 6.01614e-05 -0.00147008
0.00257626 -4.24978e-05 -1.12838e-05
-4.24978e-05 0.000738413 -3.44862e-06
-1.12838e-05 -3.44862e-06 0.000129094
0.00907146 -0.00103241 -9.12755e-05
-0.00103241 0.00126617 -9.90154e-05
-9.12755e-05 -9.90154e-05 0.00260897
-0.010505 0.000801268 -2.72774e-05
0.000801268 -0.0034983 0.000230779
-2.72774e-05 0.000230779 -0.00584541
0.0054826 -0.00111159 -0.000123266
-0.00111159 0.00209594 5.18084e-05
-0.000123266 5.18084e-05 0.00157056
0.0105771 -0.000902068 -4.97877e-05
-0.000902068 0.00462 -7.50593e-06
-4.97877e-05 -7.50593e-06 0.00111774
0.00221683 -0.000166796 -1.11541e-05
-0.000166796 0.000478717 5.69265e-05
-1.11541e-05 5.69265e-05 0.000185458
0.0114374 -0.00011479 1.85994e-06
-0.00011479 0.00572082 -1.40781e-05
1.85994e-06 -1.40781e-05 0.00146643
0.0022039 -0.00114382 4.98626e-05
-0.00114382 0.000461436 6.41524e-05
4.98626e-05 6.41524e-05 -0.00107415
0.00437729 -0.00134036 -0.00013115
-0.00134036 -0.00136477 -0.000294109
-0.00013115 -0.000294109 -0.000256259
0.00338526 6.16589e-05 -0.00012288
6.16589e-05 0.000867069 4.12349e-05
-0.00012288 4.12349e-05 0.000329339
0.00966372 0.000927371 -3.28004e-05
0.000927371 0.00448216 1.90205e-05
-3.28004e-05 1.90205e-05 0.00105663
0.0108841 -0.002009 -5.82091e-05
-0.002009 0.00361048 -0.000247917
-5.82091e-05 -0.000247917 0.00334247
0.00739145 -0.00217547 6.80631e-05
-0.00217547 0.00153501 3.3107e-06
6.80631e-05 3.3107e-06 0.00284839
0.000109256 6.59549e-05 2.18071e-06
6.59549e-05 -0.000167357 -4.5377e-06
2.18071e-06 -4.5377e-06 -0.000292981
0.000964918 1.99242e-05 9.26881e-07
1.99242e-05 0.000273167 2.85634e-06
9.26881e-07 2.85634e-06 0.000135103
0.0007054 6.57413e-05 -1.29014e-06
6.57413e-05 0.00010621 -5.73794e-06
-1.29014e-06 -5.73794e-06 -3.58378e-05
0.00168643 -8.69003e-05 -4.17673e-05
-8.69003e-05 0.00102463 2.36117e-05
-4.17673e-05 2.36117e-05 0.000346166
0.00103496 -3.97647e-05 -7.05718e-05
-3.97647e-05 0.000678448 -2.50266e-05
-7.05718e-05 -2.50266e-05 0.000576673
0.000770581 8.85278e-06 -2.71561e-06
8.85278e-06 0.000156646 5.79104e-06
-2.71561e-06 5.79104e-06 3.39198e-05
-0.00111659 9.99384e-05 -6.10093e-06
9.99384e-05 -0.000640722 -3.77654e-06
-6.10093e-06 -3.77654e-06 -0.000917759
0.000523799 7.60042e-05 2.15785e-07
7.60042e-05 0.000192918 -2.8996e-06
2.15785e-07 -2.8996e-06 1.34577e-05
0.000628322 0.000118171 -2.65452e-06
0.000118171 0.000384961 3.17774e-06
-2.65452e-06 3.17774e-06 0.000138354
-0.000346974 -6.6189e-05 0.00012656
-6.6189e-05 0.000668182 -4.13453e-05
0.00012656 -4.13453e-05 -0.000514125
-0.00233372 1.06553e-06 -2.29696e-05
1.06553e-06 -0.00126468 1.29929e-05
-2.29696e-05 1.29929e-05 -0.00145977
0.00251912 0.000282491 -3.81416e-05
0.000282491 0.00152941 -4.13758e-05
-3.81416e-05 -4.13758e-05 0.00073345
0.00183309 1.69352e-05 7.96514e-05
1.69352e-05 0.00101171 1.23685e-05
7.96514e-05 1.23685e-05 -0.000737451
0.000380977 -5.88011e-06 1.65115e-05
-5.88011e-06 0.000515974 1.23499e-05
1.65115e-05 1.23499e-05 -2.4994e-05
0.00177786 -6.30225e-05 4.46014e-07
-6.30225e-05 0.000322877 -5.03762e-07
4.46014e-07 -5.03762e-07 0.000327525
-0.00200708 0.000219833 7.91341e-05
0.000219833 -0.000580373 8.61558e-06
7.91341e-05 8.61558e-06 -0.00122208
0.00335622 0.000123171 -2.75741e-05
0.000123171 0.00141683 4.85415e-06
-2.75741e-05 4.85415e-06 0.000798394
0.000984866 -1.82525e-05 -4.59313e-06
-1.82525e-05 0.000377264 1.04252e-05
-4.59313e-06 1.04252e-05 0.000327771
0.0159965 -0.00146851 0.000120997
-0.00146851 0.0068982 -3.28597e-05
0.000120997 -3.28597e-05 0.00297043
0.0105619 0.00153218 -7.04625e-05
0.00153218 0.00353634 -4.6157e-05
-7.04625e-05 -4.6157e-05 0.0027916
0.0036607 -0.000430271 -7.24449e-05
-0.000430271 0.00122273 0.000120733
-7.24449e-05 0.000120733 -0.00166541
-0.00740692 0.00238527 0.000621923
0.00238527 -0.00342122 -0.000467
0.000621923 -0.000467 -0.00182758
0.000950702 -0.000160064 8.83515e-06
-0.000160064 0.000760337 -3.48031e-06
8.83515e-06 -3.48031e-06 0.000348034
0.000999066 -0.000122951 -2.79999e-06
-0.000122951 5.96267e-05 1.04137e-05
-2.79999e-06 1.04137e-05 -0.00147507
-0.00281396 0.000176723 -0.000351566
0.000176723 0.00187077 0.000152099
-0.000351566 0.000152099 0.000383171
0.00173354 -0.000330486 -2.47895e-05
-0.000330486 0.000351459 3.5547e-05
-2.47895e-05 3.5547e-05 4.30113e-05
0.0110321 0.00203448 8.49802e-05
0.00203448 0.00343011 7.40226e-05
8.49802e-05 7.40226e-05 0.00379607
0.00754578 -0.00138808 7.96227e-05
-0.00138808 0.00314342 -5.16558e-05
7.96227e-05 -5.16558e-05 0.000126587
0.000734377 -0.000274846 5.84449e-06
-0.000274846 0.000141674 2.38769e-05
5.84449e-06 2.38769e-05 0.000146396
-0.00398782 -0.000342926 3.50424e-05
-0.000342926 0.00149252 -1.95459e-05
3.50424e-05 -1.95459e-05 -0.000633643
0.00954112 0.00187411 -0.000375296
0.00187411 0.00446176 0.00017662
-0.000375296 0.00017662 0.00429758
0.00244199 -0.000809392 -0.000186378
-0.000809392 -0.000242116 0.000129138
-0.000186378 0.000129138 -0.00333774
0.00233821 -0.000869735 8.80614e-05
-0.000869735 0.000415787 -3.92799e-05
8.80614e-05 -3.92799e-05 0.000256698
-0.000157992 -0.000175573 -4.2004e-05
-0.000175573 6.50125e-05 1.29182e-05
-4.2004e-05 1.29182e-05 -0.000201467
0.000560932 -0.000259819 -5.59502e-09
-0.000259819 0.000236958 4.58722e-06
-5.59502e-09 4.58722e-06 3.63052e-06
0.00382944 -0.000586626 3.22159e-05
-0.000586626 0.00153597 3.02421e-06
3.22159e-05 3.02421e-06 0.00140571
-0.00259525 -4.29805e-05 -2.59111e-06
-4.29805e-05 -0.00144447 9.44909e-06
-2.59111e-06 9.44909e-06 -0.00172288
0.000700417 -0.000327905 2.68508e-06
-0.000327905 -8.57618e-06 1.50496e-06
2.68508e-06 1.50496e-06 -0.000312112
0.00241108 -0.000561402 4.83355e-06
-0.000561402 0.000595711 3.88336e-07
4.83355e-06 3.88336e-07 0.000336439
0.00287808 -0.000468497 -1.20969e-05
-0.000468497 0.00120811 3.54868e-06
-1.20969e-05 3.54868e-06 0.000857828
0.00131553 -0.000387069 -2.23785e-06
-0.000387069 0.000230555 -3.67789e-06
-2.23785e-06 -3.67789e-06 -0.000142265
0.00199556 -0.000516371 4.43425e-06
-0.000516371 0.000366511 -4.92765e-06
4.43425e-06 -4.92765e-06 7.90475e-05
0.002585 -0.000498449 -4.03732e-06
-0.000498449 0.000861276 -1.96131e-06
-4.03732e-06 -1.96131e-06 0.000500175
0.00157947 -0.000424532 4.38716e-08
-0.000424532 0.000263441 -3.07821e-06
4.38716e-08 -3.07821e-06 -7.45492e-05
0.00199722 -0.000438256 -2.50324e-07
-0.000438256 0.000354574 -6.39657e-06
-2.50324e-07 -6.39657e-06 0.000106453
0.00168639 -0.000344436 -2.6904e-06
-0.000344436 0.000136807 -3.11321e-06
-2.6904e-06 -3.11321e-06 -6.17574e-05
0.0016215 -0.000406317 2.40383e-06
-0.000406317 0.000190249 -7.09636e-07
2.40383e-06 -7.09636e-07 -6.34159e-05
0.00175426 -0.000408203 1.90483e-06
-0.000408203 0.000279638 -2.20347e-06
1.90483e-06 -2.20347e-06 2.77751e-05
0.00171252 -0.000357703 -7.49612e-07
-0.000357703 0.000368178 2.77564e-06
-7.49612e-07 2.77564e-06 0.000122392
0.00175707 -0.000418936 -1.81e-06
-0.000418936 0.000356212 1.20889e-07
-1.81e-06 1.20889e-07 8.01924e-05
0.00167862 -0.000425243 1.30362e-06
-0.000425243 0.000311755 -3.57563e-06
1.30362e-06 -3.57563e-06 1.09802e-05
0.00127495 -0.000260918 3.67545e-06
-0.000260918 0.000281821 8.63008e-07
3.67545e-06 8.63008e-07 6.72475e-05
0.000821083 -0.000236636 4.56798e-07
-0.000236636 -2.59175e-05 -6.32034e-07
4.56798e-07 -6.32034e-07 -0.000231226
0.00141365 -0.000298145 4.64407e-06
-0.000298145 0.000294178 -4.08337e-06
4.64407e-06 -4.08337e-06 7.17047e-05
0.000640162 -0.000160751 -1.17741e-07
-0.000160751 2.88122e-05 -5.1185e-07
-1.17741e-07 -5.1185e-07 -0.000154459
0.00090682 -0.000202004 9.33199e-08
-0.000202004 0.000160448 -4.74785e-07
9.33199e-08 -4.74785e-07 -4.55859e-05
0.000860441 -0.000212164 -3.04663e-06
-0.000212164 9.2107e-05 -1.27519e-06
-3.04663e-06 -1.27519e-06 -0.000111581
0.000458287 2.98491e-05 9.96533e-07
2.98491e-05 -5.68766e-05 4.62224e-06
9.96533e-07 4.62224e-06 -0.00016061
0.000780678 -8.60189e-05 1.20401e-06
-8.60189e-05 0.000158094 7.52221e-07
1.20401e-06 7.52221e-07 -8.75456e-06
0.00104648 -0.000145149 -2.52079e-06
-0.000145149 0.000323739 8.29705e-07
-2.52079e-06 8.29705e-07 0.000139195
0.00138795 9.57595e-05 -1.48819e-05
9.57595e-05 0.000494054 4.45916e-06
-1.48819e-05 4.45916e-06 0.000461835
0.000658978 6.75224e-06 -4.22751e-07
6.75224e-06 4.88055e-05 -6.41806e-07
-4.22751e-07 -6.41806e-07 -3.07105e-05
0.000929791 -6.48074e-05 -2.18334e-06
-6.48074e-05 0.000241226 -1.73745e-06
-2.18334e-06 -1.73745e-06 0.000107054
0.000750961 4.92547e-05 -2.78159e-05
4.92547e-05 0.000107173 3.55318e-06
-2.78159e-05 3.55318e-06 0.000105793
0.00097857 7.61495e-05 -8.22473e-06
7.61495e-05 0.000238974 2.42292e-08
-8.22473e-06 2.42292e-08 0.000211728
0.000682876 1.28197e-05 8.56646e-07
1.28197e-05 5.41068e-05 -2.80271e-06
8.56646e-07 -2.80271e-06 -1.09939e-05
0.000561007 6.03383e-05 -8.97618e-07
6.03383e-05 -1.85664e-05 -4.91205e-06
-8.97618e-07 -4.91205e-06 -4.36589e-05
0.0023879 9.80266e-05 3.42456e-06
9.80266e-05 0.00107473 3.09889e-07
3.42456e-06 3.09889e-07 0.00107975
0.00233801 8.56043e-05 2.26421e-05
8.56043e-05 0.00103764 -3.76273e-06
2.26421e-05 -3.76273e-06 0.00104556
0.000700853 5.24581e-05 4.81724e-07
5.24581e-05 7.84821e-05 1.86306e-07
4.81724e-07 1.86306e-07 -3.89717e-05
0.000787855 7.01025e-05 2.12982e-07
7.01025e-05 0.000145394 -1.76091e-06
2.12982e-07 -1.76091e-06 2.62522e-05
0.000642711 4.1753e-05 -1.51253e-07
4.1753e-05 4.49629e-05 1.96399e-07
-1.51253e-07 1.96399e-07 -6.9897e-05
0.000650313 3.71175e-06 -5.50484e-07
3.71175e-06 3.04631e-05 -2.85063e-06
-5.50484e-07 -2.85063e-06 -4.01651e-05
0.000729029 5.82801e-05 6.19274e-07
5.82801e-05 0.000101957 3.30424e-08
6.19274e-07 3.30424e-08 -5.04848e-06
0.000557493 -2.62536e-05 -6.48629e-07
-2.62536e-05 -3.52677e-05 -5.33802e-06
-6.48629e-07 -5.33802e-06 -5.86087e-05
0.000628818 1.79896e-05 -5.35988e-08
1.79896e-05 1.84095e-05 -9.55331e-08
-5.35988e-08 -9.55331e-08 -4.7638e-05
0.000742548 6.58164e-05 -4.29112e-07
6.58164e-05 0.000127004 1.68636e-06
-4.29112e-07 1.68636e-06 1.24253e-05
0.00248041 -6.69212e-05 -2.64641e-05
-6.69212e-05 0.00110826 -4.47739e-06
-2.64641e-05 -4.47739e-06 0.0011195
0.000554277 -2.54666e-05 -3.92713e-07
-2.54666e-05 -4.2087e-05 -4.28196e-08
-3.92713e-07 -4.28196e-08 -6.12436e-05
0.00061752 2.4937e-05 3.54373e-07
2.4937e-05 1.21445e-05 2.44758e-06
3.54373e-07 2.44758e-06 -4.78806e-05
0.00234951 -5.14753e-05 -4.10271e-06
-5.14753e-05 0.00102583 2.11835e-07
-4.10271e-06 2.11835e-07 0.00103993
0.000559693 -2.00166e-05 -6.41521e-07
-2.00166e-05 -4.2376e-05 4.12576e-06
-6.41521e-07 4.12576e-06 -5.74817e-05
0.00222435 -3.55744e-05 1.53647e-05
-3.55744e-05 0.000947902 4.62901e-06
1.53647e-05 4.62901e-06 0.000964542
0.00418329 4.97539e-05 9.24373e-05
4.97539e-05 0.00165552 2.62346e-05
9.24373e-05 2.62346e-05 0.000582712
0.000614785 -7.78191e-05 -1.31565e-06
-7.78191e-05 7.84778e-05 1.35255e-06
-1.31565e-06 1.35255e-06 9.89686e-05
0.00136823 -7.95656e-05 -1.5617e-05
-7.95656e-05 -0.000362291 4.72908e-06
-1.5617e-05 4.72908e-06 -0.000118217
0.000618935 0.000103894 -4.85173e-06
0.000103894 2.26275e-05 -1.26394e-06
-4.85173e-06 -1.26394e-06 -0.000100243
0.000822718 5.91588e-05 -4.90145e-07
5.91588e-05 0.000151708 5.9682e-07
-4.90145e-07 5.9682e-07 3.55693e-05
0.000539049 2.67151e-05 3.26018e-07
2.67151e-05 -2.88303e-05 6.42995e-08
3.26018e-07 6.42995e-08 -0.000141124
0.000793586 3.1496e-05 -1.21683e-07
3.1496e-05 0.00012343 -1.11493e-07
-1.21683e-07 -1.11493e-07 8.86982e-06
0.000796587 7.27583e-05 -5.58742e-07
7.27583e-05 0.000121628 -7.56522e-09
-5.58742e-07 -7.56522e-09 4.94217e-06
0.00101159 0.000115858 8.9036e-07
0.000115858 0.000271331 4.81042e-07
8.9036e-07 4.81042e-07 0.000139298
0.00087171 9.35959e-05 -9.48968e-07
9.35959e-05 0.000171911 -5.86557e-06
-9.48968e-07 -5.86557e-06 2.83634e-05
0.000104077 1.9845e-05 3.01239e-07
1.9845e-05 -0.000249952 -8.81151e-07
3.01239e-07 -8.81151e-07 -0.000375871
0.000808837 0.000111612 -1.51425e-06
0.000111612 0.000155833 4.87566e-07
-1.51425e-06 4.87566e-07 2.52172e-05
0.000504596 1.48567e-05 -1.60072e-06
1.48567e-05 -3.74542e-05 -3.22967e-06
-1.60072e-06 -3.22967e-06 -0.000148968
0.000625186 5.56783e-05 -2.53878e-07
5.56783e-05 5.90168e-05 7.02998e-07
-2.53878e-07 7.02998e-07 -6.94769e-05
0.0016694 0.000153422 7.68896e-06
0.000153422 0.000707825 5.64676e-06
7.68896e-06 5.64676e-06 0.000570727
0.00106733 -0.000798075 0.000105934
-0.000798075 0.00240253 0.000181231
0.000105934 0.000181231 0.000665701
0.00350733 0.000276046 2.2236e-05
0.000276046 0.00177114 7.30631e-05
2.2236e-05 7.30631e-05 -0.000971108
0.000798509 8.34981e-05 -2.27573e-05
8.34981e-05 0.000267954 -3.6313e-05
-2.27573e-05 -3.6313e-05 -0.00141108
0.00911176 -0.00174304 -0.000235672
-0.00174304 0.00116163 -0.000175612
-0.000235672 -0.000175612 0.00223028
0.00535795 -0.000604578 5.43366e-05
-0.000604578 0.001206 0.000219666
5.43366e-05 0.000219666 6.40849e-06
0.000779112 -0.00075102 -9.43482e-05
-0.00075102 0.00177619 8.99177e-05
-9.43482e-05 8.99177e-05 -0.0027456
0.00130284 -0.000280523 -5.4962e-06
-0.000280523 0.000256168 7.33087e-05
-5.4962e-06 7.33087e-05 -0.000313092
0.00271855 -0.000136208 2.38372e-05
-0.000136208 0.000641222 5.1148e-05
2.38372e-05 5.1148e-05 0.000280089
0.000283879 -0.00222972 0.00010574
-0.00222972 -0.00087632 0.000120668
0.00010574 0.000120668 0.00060978
0.0049528 0.000839594 -3.65451e-06
0.000839594 0.00351848 -2.04498e-05
-3.65451e-06 -2.04498e-05 -0.000683943
0.00267081 -0.00115987 -3.6628e-05
-0.00115987 -0.000959952 4.65811e-05
-3.6628e-05 4.65811e-05 -0.0012682
0.000956 0.000336617 -2.04855e-06
0.000336617 -8.78929e-05 4.42181e-05
-2.04855e-06 4.42181e-05 -0.000179938
0.00822887 0.000830122 -3.72821e-05
0.000830122 0.00392388 -1.07852e-05
-3.72821e-05 -1.07852e-05 0.00084105
0.00297237 -0.00190375 -0.000185822
-0.00190375 -0.000223681 -0.000179919
-0.000185822 -0.000179919 -8.37972e-06
0.000920586 0.000306871 5.33189e-06
0.000306871 0.000220772 -1.29879e-05
5.33189e-06 -1.29879e-05 8.6681e-05
0.000649907 8.84303e-05 3.05452e-06
8.84303e-05 0.000136318 -5.77532e-07
3.05452e-06 -5.77532e-07 1.5172e-05
0.000525943 3.82074e-05 -2.27084e-06
3.82074e-05 2.65016e-05 -2.249e-06
-2.27084e-06 -2.249e-06 -0.000119916
-6.71961e-06 -5.95073e-05 -0.000161245
-5.95073e-05 0.000949473 -4.42161e-05
-0.000161245 -4.42161e-05 -0.000180821
-0.00221407 0.000129516 6.18651e-06
0.000129516 -0.00117539 -1.51515e-05
6.18651e-06 -1.51515e-05 -0.0014444
0.00015661 0.000106073 -2.29053e-06
0.000106073 -9.86432e-06 4.80387e-06
-2.29053e-06 4.80387e-06 -0.000205325
0.000552051 0.000288467 1.08534e-05
0.000288467 0.000235529 3.42307e-06
1.08534e-05 3.42307e-06 2.72347e-05
0.000737886 0.000243349 -2.89123e-06
0.000243349 0.00052031 -3.24549e-05
-2.89123e-06 -3.24549e-05 -0.000158814
-0.000138453 0.000460303 2.64491e-05
0.000460303 -0.00048685 5.93968e-06
2.64491e-05 5.93968e-06 -0.000803583
-0.000909243 0.000269045 0.00014835
0.000269045 0.00312266 8.34416e-06
0.00014835 8.34416e-06 0.000787843
0.0020117 -2.10555e-05 -5.72512e-06
-2.10555e-05 0.00113729 1.97205e-05
-5.72512e-06 1.97205e-05 -0.000256258
0.000159368 -1.79238e-05 1.74355e-06
-1.79238e-05 0.000333457 1.52709e-05
1.74355e-06 1.52709e-05 -0.000105268
0.000158031 -0.000112352 -4.15141e-05
-0.000112352 0.000448073 3.9119e-06
-4.15141e-05 3.9119e-06 2.03721e-05
0.000304644 -0.000101327 -4.99147e-05
-0.000101327 -0.000893568 1.2903e-05
-4.99147e-05 1.2903e-05 -0.000661895
0.00152761 -0.000102188 -8.86338e-05
-0.000102188 0.000268467 2.80712e-05
-8.86338e-05 2.80712e-05 -0.0011806
-0.00173829 -0.00130636 6.21172e-05
-0.00130636 -6.13444e-05 -9.04597e-05
6.21172e-05 -9.04597e-05 -0.00394628
-0.00169094 0.00159915 0.000159733
0.00159915 -0.00354095 -0.000157194
0.000159733 -0.000157194 -0.00300101
0.00237568 0.000754721 -0.000178473
0.000754721 0.00317422 0.000155847
-0.000178473 0.000155847 0.00217794
0.00179315 -0.00015979 -8.42836e-06
-0.00015979 0.00057902 -2.22376e-07
-8.42836e-06 -2.22376e-07 0.000695306
0.00156721 0.000176164 2.83124e-05
0.000176164 0.00339146 7.38792e-06
2.83124e-05 7.38792e-06 0.00204119
-0.00357398 0.00114269 2.71349e-05
0.00114269 -0.000918879 1.26755e-05
2.71349e-05 1.26755e-05 -0.00224753
0.00359282 -0.00102896 3.44661e-05
-0.00102896 0.00125705 -9.56963e-06
3.44661e-05 -9.56963e-06 0.000612686
0.0108714 -0.000696647 1.46657e-05
-0.000696647 0.00359692 -1.05169e-05
1.46657e-05 -1.05169e-05 0.00169715
0.00299565 -0.000614484 -9.97262e-06
-0.000614484 0.000955005 2.44796e-05
-9.97262e-06 2.44796e-05 0.0010031
-0.00805856 0.000439184 -0.00020198
0.000439184 -0.00368212 5.55519e-06
-0.00020198 5.55519e-06 -0.00452289
0.0120237 -0.000375519 -8.48954e-05
-0.000375519 0.00327248 2.64673e-05
-8.48954e-05 2.64673e-05 0.00174725
0.00351288 -0.0011619 1.67314e-05
-0.0011619 -5.89772e-05 -1.93166e-05
1.67314e-05 -1.93166e-05 -0.00059502
0.00136956 -0.0002832 -1.73285e-05
-0.0002832 0.000709557 1.61204e-05
-1.73285e-05 1.61204e-05 0.000414616
0.00172889 -0.000445499 -3.72938e-06
-0.000445499 0.000326648 1.30872e-06
-3.72938e-06 1.30872e-06 0.000285574
0.00286785 -0.000502665 1.3119e-05
-0.000502665 0.000742555 -3.86324e-06
1.3119e-05 -3.86324e-06 0.00068871
-0.00187358 -8.19125e-05 -3.83109e-06
-8.19125e-05 -0.0013227 -1.87595e-07
-3.83109e-06 -1.87595e-07 -0.00163402
0.00139919 -0.000463137 -4.68631e-06
-0.000463137 0.000100089 -2.31956e-06
-4.68631e-06 -2.31956e-06 -0.000164795
0.00228463 -0.00055926 2.87079e-06
-0.00055926 0.000385981 -6.5495e-07
2.87079e-06 -6.5495e-07 0.000172201
0.00138365 -0.000388196 -1.29439e-05
-0.000388196 0.000245056 -2.46648e-06
-1.29439e-05 -2.46648e-06 -0.000106932
0.00156368 -0.000472149 4.89816e-08
-0.000472149 0.000147532 3.21915e-07
4.89816e-08 3.21915e-07 -0.000140972
0.00168427 -0.000427768 -3.36987e-07
-0.000427768 4.85637e-05 -5.13848e-06
-3.36987e-07 -5.13848e-06 -0.000146716
0.00129151 -0.00040317 -3.08889e-06
-0.00040317 7.9454e-05 -2.24391e-07
-3.08889e-06 -2.24391e-07 -0.000245642
0.00162163 -0.000404344 -3.80933e-07
-0.000404344 0.000146151 5.91952e-07
-3.80933e-07 5.91952e-07 -9.57235e-05
0.00175111 -0.000342278 -2.16039e-06
-0.000342278 0.000104667 -5.04971e-06
-2.16039e-06 -5.04971e-06 -5.61447e-05
0.00161986 -0.000272893 -3.9981e-06
-0.000272893 4.29707e-05 -3.13744e-06
-3.9981e-06 -3.13744e-06 -0.000100353
0.00155359 -0.000331699 -2.44668e-06
-0.000331699 8.33794e-05 -2.11154e-06
-2.44668e-06 -2.11154e-06 -0.000121005
0.00162871 -0.000332682 9.71264e-07
-0.000332682 0.00010936 1.38532e-06
9.71264e-07 1.38532e-06 -8.42237e-05
0.00150209 -0.000352886 -2.0772e-06
-0.000352886 0.000168393 -6.38603e-07
-2.0772e-06 -6.38603e-07 -7.09148e-05
0.00162452 -0.000401611 1.57039e-06
-0.000401611 0.000202223 -2.30016e-07
1.57039e-06 -2.30016e-07 -4.85917e-05
0.00161029 -0.000395741 1.54076e-06
-0.000395741 0.000200328 1.85967e-07
1.54076e-06 1.85967e-07 -4.80375e-05
0.00137669 -0.000285667 -8.79213e-07
-0.000285667 0.000235568 1.65196e-06
-8.79213e-07 1.65196e-06 1.80827e-05
0.00142696 -0.000334723 1.66886e-06
-0.000334723 0.000207498 -8.00287e-07
1.66886e-06 -8.00287e-07 -3.44265e-05
0.00162048 -0.00040682 -2.23515e-06
-0.00040682 0.000296408 -1.9331e-06
-2.23515e-06 -1.9331e-06 1.72804e-05
0.000969323 -0.000206869 -9.98519e-07
-0.000206869 0.000145264 2.66223e-06
-9.98519e-07 2.66223e-06 -4.72666e-05
0.00119008 -0.000251796 1.02187e-06
-0.000251796 0.000225117 2.92704e-07
1.02187e-06 2.92704e-07 1.32789e-05
0.000945218 -0.000243878 -8.76451e-07
-0.000243878 5.00742e-05 -4.4545e-06
-8.76451e-07 -4.4545e-06 -0.000152916
0.000707681 -7.41388e-05 -7.84537e-07
-7.41388e-05 7.71393e-05 5.3119e-06
-7.84537e-07 5.3119e-06 -5.75977e-05
0.000937673 -0.000167647 -1.49836e-07
-0.000167647 0.000201748 -1.11418e-07
-1.49836e-07 -1.11418e-07 1.6041e-05
0.000468568 -0.00015799 -3.98531e-06
-0.00015799 -9.38477e-05 -3.41888e-07
-3.98531e-06 -3.41888e-07 -0.000291171
0.000395205 4.91192e-05 7.15677e-07
4.91192e-05 -9.31368e-05 7.69737e-06
7.15677e-07 7.69737e-06 -0.000136481
0.000696216 -3.94889e-05 -4.79267e-07
-3.94889e-05 8.24687e-05 -4.7104e-07
-4.79267e-07 -4.7104e-07 -2.74399e-05
0.00112509 -0.000119038 8.77264e-07
-0.000119038 0.000364291 -1.26836e-06
8.77264e-07 -1.26836e-06 0.000188761
0.00255996 0.000137086 -7.03327e-06
0.000137086 0.00119382 1.73169e-06
-7.03327e-06 1.73169e-06 0.00118809
0.00053311 5.8881e-05 -3.83986e-07
5.8881e-05 -1.83587e-05 -2.55252e-07
-3.83986e-07 -2.55252e-07 -5.24115e-05
0.000756874 -1.46894e-05 1.91831e-06
-1.46894e-05 0.000104152 -4.14281e-06
1.91831e-06 -4.14281e-06 2.30359e-05
0.002467 0.000110468 3.61421e-06
0.000110468 0.00112906 3.01122e-07
3.61421e-06 3.01122e-07 0.00113116
0.00056323 6.00483e-05 -3.99316e-07
6.00483e-05 -8.22568e-06 -5.3696e-06
-3.99316e-07 -5.3696e-06 -3.67253e-05
0.00244066 0.000100247 2.80972e-05
0.000100247 0.00110677 -3.27747e-06
2.80972e-05 -3.27747e-06 0.00111132
0.000895747 0.000116806 3.89423e-07
0.000116806 0.000188143 1.62578e-06
3.89423e-07 1.62578e-06 5.66774e-05
0.000779142 6.49949e-05 -2.87267e-08
6.49949e-05 0.000127089 -1.52234e-07
-2.87267e-08 -1.52234e-07 6.11506e-06
0.000804882 5.39609e-05 5.36149e-08
5.39609e-05 0.00016105 -2.37112e-06
5.36149e-08 -2.37112e-06 3.22353e-05
0.000656133 4.71866e-07 -8.97976e-07
4.71866e-07 3.74171e-05 -3.35767e-06
-8.97976e-07 -3.35767e-06 -3.86588e-05
0.000724852 4.05709e-05 3.49186e-07
4.05709e-05 0.000102141 2.02159e-07
3.49186e-07 2.02159e-07 -1.14033e-05
0.00059156 5.33682e-05 7.15327e-07
5.33682e-05 2.23532e-05 1.10455e-06
7.15327e-07 1.10455e-06 -9.73944e-05
0.000559727 -2.9669e-05 -1.05792e-06
-2.9669e-05 -2.90577e-05 -5.8212e-06
-1.05792e-06 -5.8212e-06 -5.65156e-05
0.00063274 9.7392e-06 -2.87013e-08
9.7392e-06 2.24625e-05 -7.32172e-08
-2.87013e-08 -7.32172e-08 -4.90656e-05
0.000711306 5.67043e-05 5.94561e-07
5.67043e-05 8.7491e-05 1.46788e-06
5.94561e-07 1.46788e-06 -1.56884e-05
0.00260995 -8.11359e-05 -3.39285e-05
-8.11359e-05 0.00119054 -4.21529e-06
-3.39285e-05 -4.21529e-06 0.00119895
0.000541183 -2.65386e-05 -4.34941e-07
-2.65386e-05 -4.5185e-05 -7.48025e-08
-4.34941e-07 -7.48025e-08 -6.82754e-05
0.000628536 2.06367e-05 4.78547e-07
2.06367e-05 1.91662e-05 2.78301e-06
4.78547e-07 2.78301e-06 -4.71238e-05
0.00245389 -6.58729e-05 -4.57996e-06
-6.58729e-05 0.00109202 2.79947e-07
-4.57996e-06 2.79947e-07 0.00110356
0.000548941 -2.51069e-05 -6.45091e-07
-2.51069e-05 -4.53321e-05 4.68532e-06
-6.45091e-07 4.68532e-06 -6.42799e-05
0.00230923 -4.98447e-05 1.96159e-05
-4.98447e-05 0.00100148 4.5318e-06
1.96159e-05 4.5318e-06 0.00101601
-0.00556349 0.000205348 -6.73989e-06
0.000205348 0.00106279 4.38224e-05
-6.73989e-06 4.38224e-05 -0.00152316
0.00397303 -5.09741e-06 -1.46853e-06
-5.09741e-06 0.00176627 7.51946e-06
-1.46853e-06 7.51946e-06 0.00065599
0.000633722 -7.97704e-05 -8.39443e-06
-7.97704e-05 5.17428e-05 -4.43442e-06
-8.39443e-06 -4.43442e-06 6.26762e-05
0.000539588 7.08921e-05 -1.18317e-06
7.08921e-05 -2.87345e-05 9.83841e-07
-1.18317e-06 9.83841e-07 -0.000144822
0.0019421 0.000284489 -5.49514e-07
0.000284489 0.000809419 2.6265e-06
-5.49514e-07 2.6265e-06 0.000639853
0.000782433 7.34522e-05 -2.98854e-06
7.34522e-05 0.000112188 -6.95988e-07
-2.98854e-06 -6.95988e-07 -1.45186e-05
0.00104174 3.45726e-05 -5.72476e-07
3.45726e-05 0.000263658 -5.66507e-07
-5.72476e-07 -5.66507e-07 0.000151151
0.00128137 0.000121706 1.89987e-06
0.000121706 0.000403016 5.98089e-07
1.89987e-06 5.98089e-07 0.000281656
0.00055496 4.67861e-05 -1.87552e-06
4.67861e-05 -1.24274e-05 2.63984e-06
-1.87552e-06 2.63984e-06 -0.000124085
0.00060025 6.58212e-05 -1.17667e-06
6.58212e-05 4.74869e-05 1.16143e-06
-1.17667e-06 1.16143e-06 -8.99387e-05
0.000740594 7.34807e-05 -1.24887e-06
7.34807e-05 9.3403e-05 -1.19071e-06
-1.24887e-06 -1.19071e-06 -4.33596e-05
0.000895413 0.000136997 1.04289e-06
0.000136997 0.00021775 -3.93618e-06
1.04289e-06 -3.93618e-06 4.64388e-05
0.000365255 0.000189991 1.95434e-06
0.000189991 -0.000158603 -4.42173e-06
1.95434e-06 -4.42173e-06 -0.000263627
0.000996564 8.59715e-05 -1.92721e-06
8.59715e-05 0.000283846 -4.80877e-07
-1.92721e-06 -4.80877e-07 0.000145302
0.00110344 0.000135853 4.79032e-07
0.000135853 0.000381672 2.96585e-06
4.79032e-07 2.96585e-06 0.000242321
-0.00523575 -0.000862916 -0.000376246
-0.000862916 -0.00124033 -1.52656e-06
-0.000376246 -1.52656e-06 -0.00249888
-0.00295364 -0.000598848 0.00015567
-0.000598848 0.00134339 7.82963e-05
0.00015567 7.82963e-05 -0.000731116
0.00418615 0.000310934 -0.000138659
0.000310934 0.00189287 -7.35211e-05
-0.000138659 -7.35211e-05 -0.000923709
-0.00786886 -0.00228759 0.000512868
-0.00228759 -0.00329311 0.000410207
0.000512868 0.000410207 -0.00187748
0.012985 -0.00140672 -6.08343e-05
-0.00140672 0.00397578 0.000125788
-6.08343e-05 0.000125788 0.00376855
-0.00124172 0.0010037 1.7035e-06
0.0010037 0.000235639 -6.86869e-05
1.7035e-06 -6.86869e-05 -0.0038335
0.00231277 -1.51956e-05 -0.000140511
-1.51956e-05 0.000813464 3.8115e-05
-0.000140511 3.8115e-05 -8.73027e-05
0.00250219 0.000388163 -3.66994e-06
0.000388163 0.000763668 2.25424e-05
-3.66994e-06 2.25424e-05 0.000495408
0.00926311 -0.00155208 -0.00016385
-0.00155208 0.00443031 5.33373e-05
-0.00016385 5.33373e-05 0.00428387
-7.77759e-05 0.000985841 -9.51915e-06
0.000985841 0.000478975 -2.61045e-05
-9.51915e-06 -2.61045e-05 -0.00275129
0.00159818 0.000714768 -4.59202e-05
0.000714768 0.000266751 -6.28866e-05
-4.59202e-05 -6.28866e-05 8.67069e-05
0.00437594 0.00148279 -0.000173794
0.00148279 0.000353276 -9.95595e-05
-0.000173794 -9.95595e-05 -0.00191261
0.00222294 0.000611181 1.66676e-05
0.000611181 0.000602187 -2.24614e-05
1.66676e-05 -2.24614e-05 0.000376109
0.000841206 0.000281997 -4.3762e-06
0.000281997 0.000174036 7.55178e-07
-4.3762e-06 7.55178e-07 4.82748e-05
0.00134898 0.000101543 -4.76301e-06
0.000101543 0.000529106 3.77256e-06
-4.76301e-06 3.77256e-06 0.000416933
-0.00103984 0.000184173 -4.37889e-05
0.000184173 -0.000441661 -4.51163e-05
-4.37889e-05 -4.51163e-05 -0.00102322
0.00283012 0.00042872 -1.84931e-05
0.00042872 0.00142241 -1.37946e-05
-1.84931e-05 -1.37946e-05 0.00120915
0.00118913 0.000577871 1.31958e-05
0.000577871 0.000133635 -3.96403e-06
1.31958e-05 -3.96403e-06 -0.00018894
0.00318826 0.00093308 9.73399e-05
0.00093308 0.000519424 3.11049e-05
9.73399e-05 3.11049e-05 0.000408588
-0.00460609 -7.43663e-05 -0.000281539
-7.43663e-05 -0.0035664 3.19146e-06
-0.000281539 3.19146e-06 -0.00248675
-0.0029373 0.000159213 0.000126622
0.000159213 0.00242331 2.20931e-06
0.000126622 2.20931e-06 -5.18488e-05
0.00202084 -4.92837e-05 -6.83117e-05
-4.92837e-05 0.00117755 2.7158e-05
-6.83117e-05 2.7158e-05 8.31701e-05
0.00373201 -0.000340872 -6.56037e-05
-0.000340872 0.00147264 -3.54657e-05
-6.56037e-05 -3.54657e-05 0.0015598
0.0015788 -0.000889654 -2.92401e-05
-0.000889654 2.43178e-05 1.14797e-05
-2.92401e-05 1.14797e-05 -0.000442118
0.00170698 0.000122421 -1.98913e-05
0.000122421 0.00339753 3.26437e-05
-1.98913e-05 3.26437e-05 0.00217005
0.00256306 -0.000827318 0.000155557
-0.000827318 0.000123158 -0.000123005
0.000155557 -0.000123005 -0.00230786
0.0104444 0.00111432 0.000114285
0.00111432 0.00496822 6.22627e-06
0.000114285 6.22627e-06 0.00420923
0.00268422 -0.000731087 -2.16104e-05
-0.000731087 0.000631125 7.50986e-06
-2.16104e-05 7.50986e-06 0.000534886
-0.000714686 0.000549683 7.10992e-05
0.000549683 -0.000499109 -1.85184e-05
7.10992e-05 -1.85184e-05 -0.00106257
0.00450808 -0.000354453 -5.01633e-05
-0.000354453 -0.000429445 5.48641e-05
-5.01633e-05 5.48641e-05 -0.0025455
0.00585594 -0.0012766 -3.27306e-05
-0.0012766 0.00124041 1.48252e-05
-3.27306e-05 1.48252e-05 0.000687747
0.0010714 -0.000481756 4.34793e-05
-0.000481756 -0.000156706 -9.27596e-06
4.34793e-05 -9.27596e-06 -0.000354004
0.00998278 -0.000423588 1.5246e-05
-0.000423588 0.00237005 -3.00123e-05
1.5246e-05 -3.00123e-05 0.000934276
0.00392514 -0.00067159 6.71389e-05
-0.00067159 -0.000359748 -3.82807e-05
6.71389e-05 -3.82807e-05 -0.000305788
-0.00072436 -0.000278507 -1.94887e-05
-0.000278507 -0.00107003 6.90032e-06
-1.94887e-05 6.90032e-06 -0.00101561
0.000628297 -0.000363337 -9.0041e-06
-0.000363337 -0.000474613 -1.07509e-06
-9.0041e-06 -1.07509e-06 -0.000476259
0.00326642 -0.000537898 2.74973e-05
-0.000537898 0.000773655 -1.71234e-05
2.74973e-05 -1.71234e-05 0.000736447
0.000152549 -0.000344008 -1.084e-05
-0.000344008 -0.000521224 -5.2831e-06
-1.084e-05 -5.2831e-06 -0.000784612
0.0017229 -0.000507136 5.57513e-09
-0.000507136 0.000102063 -2.54612e-07
5.57513e-09 -2.54612e-07 -9.95202e-05
0.00215311 -0.000459826 -2.31453e-06
-0.000459826 0.000172896 -1.32955e-06
-2.31453e-06 -1.32955e-06 4.04774e-05
0.00140441 -0.000450062 -2.42409e-06
-0.000450062 6.94345e-05 3.59874e-06
-2.42409e-06 3.59874e-06 -0.000221358
0.00182911 -0.000435621 -2.18137e-06
-0.000435621 0.00012848 5.6389e-07
-2.18137e-06 5.6389e-07 -6.98587e-05
0.00181734 -0.000339695 -9.43647e-07
-0.000339695 3.78507e-05 -1.29105e-06
-9.43647e-07 -1.29105e-06 -8.30362e-05
0.00131625 -0.000375215 4.24502e-06
-0.000375215 -2.29498e-05 4.18267e-06
4.24502e-06 4.18267e-06 -0.000259127
0.00170882 -0.000333361 -5.54616e-08
-0.000333361 8.80921e-05 8.17514e-07
-5.54616e-08 8.17514e-07 -7.07774e-05
0.00179292 -0.00028074 -3.50361e-06
-0.00028074 8.61272e-05 -1.56483e-06
-3.50361e-06 -1.56483e-06 -2.4364e-05
0.00192229 -0.000261475 -2.35237e-06
-0.000261475 0.000222856 -6.76053e-07
-2.35237e-06 -6.76053e-07 0.000107892
0.00169043 -0.000274566 -2.47074e-06
-0.000274566 8.09621e-05 3.04532e-06
-2.47074e-06 3.04532e-06 -5.78982e-05
0.001746 -0.000286809 -1.15765e-06
-0.000286809 0.000150953 -5.41256e-06
-1.15765e-06 -5.41256e-06 -6.97295e-06
0.00165878 -0.000328144 -3.73278e-06
-0.000328144 0.000179438 -1.86827e-06
-3.73278e-06 -1.86827e-06 -2.75822e-05
0.00166914 -0.000338531 1.18262e-06
-0.000338531 0.000148783 4.55118e-07
1.18262e-06 4.55118e-07 -5.59427e-05
0.00157518 -0.000320984 2.86711e-06
-0.000320984 8.38157e-05 5.54923e-06
2.86711e-06 5.54923e-06 -0.000104734
0.0013883 -0.000295829 -6.06448e-06
-0.000295829 0.000164296 2.00012e-06
-6.06448e-06 2.00012e-06 -5.19208e-05
0.00146277 -0.000350041 -2.87825e-07
-0.000350041 0.000142695 2.20283e-07
-2.87825e-07 2.20283e-07 -9.59379e-05
0.00165308 -0.000399623 1.72207e-06
-0.000399623 0.000227498 6.23731e-07
1.72207e-06 6.23731e-07 -2.09176e-05
0.0011998 -0.000238468 -3.78403e-06
-0.000238468 0.000196427 3.36111e-06
-3.78403e-06 3.36111e-06 -4.39413e-06
0.00125136 -0.000275368 2.91313e-07
-0.000275368 0.000160421 3.27705e-07
2.91313e-07 3.27705e-07 -5.63265e-05
0.00121015 -0.000318019 2.2434e-06
-0.000318019 8.66581e-05 -2.79339e-06
2.2434e-06 -2.79339e-06 -0.000151974
0.00076994 -0.000139833 -4.95588e-06
-0.000139833 7.81838e-05 4.76021e-06
-4.95588e-06 4.76021e-06 -7.61056e-05
0.00107909 -0.000217198 9.40656e-07
-0.000217198 0.000208399 -2.42463e-07
9.40656e-07 -2.42463e-07 1.41171e-05
0.00103669 -0.000237388 8.43608e-07
-0.000237388 0.000130228 -1.65304e-06
8.43608e-07 -1.65304e-06 -7.85534e-05
0.000383249 -2.81627e-06 -4.03083e-06
-2.81627e-06 -0.000117066 1.03493e-05
-4.03083e-06 1.03493e-05 -0.000169485
0.000726102 -9.9917e-05 4.00068e-07
-9.9917e-05 9.17236e-05 5.43647e-07
4.00068e-07 5.43647e-07 -4.97665e-05
0.00126363 -0.000186031 1.43981e-07
-0.000186031 0.000392967 -1.11909e-06
1.43981e-07 -1.11909e-06 0.000201751
0.00291427 0.000145577 -4.58702e-05
0.000145577 0.00140709 2.30917e-06
-4.58702e-05 2.30917e-06 0.00139993
0.000534159 3.51051e-05 -3.29339e-07
3.51051e-05 -1.71022e-05 -6.51419e-07
-3.29339e-07 -6.51419e-07 -5.93354e-05
0.000905288 -8.59707e-05 2.60332e-06
-8.59707e-05 0.000206477 -4.83049e-06
2.60332e-06 -4.83049e-06 9.02629e-05
0.00176312 9.93313e-05 2.15226e-05
9.93313e-05 0.000716856 2.42349e-07
2.15226e-05 2.42349e-07 0.000711663
0.000604279 5.15254e-05 9.26718e-07
5.15254e-05 2.15768e-05 -6.37001e-06
9.26718e-07 -6.37001e-06 -1.153e-05
0.00256306 0.000113081 3.69184e-05
0.000113081 0.00118614 -2.66737e-06
3.69184e-05 -2.66737e-06 0.00118783
0.000903213 0.000126024 2.95499e-06
0.000126024 0.000174844 9.18392e-07
2.95499e-06 9.18392e-07 4.56187e-05
0.000608733 6.77006e-05 -2.04166e-07
6.77006e-05 1.34248e-05 3.76365e-07
-2.04166e-07 3.76365e-07 -0.000105576
0.000666119 4.06637e-05 -3.97701e-07
4.06637e-05 5.86251e-05 -1.43095e-06
-3.97701e-07 -1.43095e-06 -6.15531e-05
0.000906339 8.72627e-05 4.40848e-07
8.72627e-05 0.000205287 6.29616e-07
4.40848e-07 6.29616e-07 7.9283e-05
0.000713299 3.09078e-05 2.02936e-07
3.09078e-05 8.80604e-05 5.77755e-08
2.02936e-07 5.77755e-08 -2.60152e-05
0.000666917 3.01686e-06 -1.21007e-06
3.01686e-06 4.64604e-05 -3.95728e-06
-1.21007e-06 -3.95728e-06 -3.5919e-05
0.000563772 -3.12967e-05 -1.62059e-06
-3.12967e-05 -2.06374e-05 -6.49783e-06
-1.62059e-06 -6.49783e-06 -5.1921e-05
0.000629705 2.18709e-06 2.24804e-07
2.18709e-06 2.33618e-05 -7.38921e-08
2.24804e-07 -7.38921e-08 -5.32678e-05
0.000645503 1.21671e-05 -2.26794e-07
1.21671e-05 3.74709e-05 1.58868e-06
-2.26794e-07 1.58868e-06 -6.21144e-05
0.00271099 -9.44628e-05 -4.21765e-05
-9.44628e-05 0.00125681 -3.85336e-06
-4.21765e-05 -3.85336e-06 0.00126247
0.00053346 -2.60876e-05 -1.75914e-07
-2.60876e-05 -4.45059e-05 -5.74105e-08
-1.75914e-07 -5.74105e-08 -7.15484e-05
0.000618253 1.54768e-05 9.99051e-07
1.54768e-05 1.65622e-05 3.00086e-06
9.99051e-07 3.00086e-06 -5.6124e-05
0.00258063 -8.04904e-05 -4.84494e-06
-8.04904e-05 0.00117267 3.22027e-07
-4.84494e-06 3.22027e-07 0.00118126
0.000529452 -3.00524e-05 -3.09413e-07
-3.00524e-05 -5.18095e-05 5.26562e-06
-3.09413e-07 5.26562e-06 -7.5001e-05
0.00245166 -6.5086e-05 2.44235e-05
-6.5086e-05 0.0010902 4.43541e-06
2.44235e-05 4.43541e-06 0.00110191
0.000216574 0.000323325 -0.000198892
0.000323325 0.00162158 3.14939e-05
-0.000198892 3.14939e-05 0.000539586
-0.00250676 -2.141e-05 1.15691e-05
-2.141e-05 0.00181242 1.42791e-05
1.15691e-05 1.42791e-05 -0.000758442
0.00378863 -4.9048e-05 -6.88747e-05
-4.9048e-05 0.0019492 -6.21235e-06
-6.88747e-05 -6.21235e-06 0.000812027
0.00049184 3.91097e-05 2.10072e-06
3.91097e-05 -6.15454e-05 -1.38773e-06
2.10072e-06 -1.38773e-06 -0.000171564
0.000662587 4.71291e-05 2.28709e-06
4.71291e-05 3.82166e-05 7.55276e-07
2.28709e-06 7.55276e-07 -9.03119e-05
0.00140281 0.000228908 -1.54198e-06
0.000228908 0.00050043 8.1432e-07
-1.54198e-06 8.1432e-07 0.000343749
0.00147246 0.000280877 3.38938e-06
0.000280877 0.000464352 -2.07527e-06
3.38938e-06 -2.07527e-06 0.000256978
0.00106604 0.000181 -6.78326e-06
0.000181 0.000322989 -1.21661e-06
-6.78326e-06 -1.21661e-06 0.000157765
0.000903471 0.000112136 6.79495e-07
0.000112136 0.000226917 3.20308e-06
6.79495e-07 3.20308e-06 8.29201e-05
0.00075273 8.78719e-05 3.68175e-06
8.78719e-05 0.000105276 3.06239e-06
3.68175e-06 3.06239e-06 -3.1482e-05
0.000559574 0.000137965 -4.23834e-06
0.000137965 3.28135e-05 -3.51073e-06
-4.23834e-06 -3.51073e-06 -0.000131696
-0.000714694 9.48968e-05 -2.89005e-07
9.48968e-05 -0.000754155 -4.48479e-07
-2.89005e-07 -4.48479e-07 -0.000918556
0.00140936 0.00029476 2.64017e-06
0.00029476 0.000365925 -2.30907e-06
2.64017e-06 -2.30907e-06 0.000242857
0.00211217 0.000524538 2.83235e-06
0.000524538 0.000471586 -1.06358e-05
2.83235e-06 -1.06358e-05 0.00027114
0.00069353 0.00022216 -5.9463e-06
0.00022216 4.27223e-05 -5.72671e-07
-5.9463e-06 -5.72671e-07 -7.18189e-05
0.000629078 8.62679e-05 -3.34448e-07
8.62679e-05 6.39036e-05 -1.33804e-06
-3.34448e-07 -1.33804e-06 -6.31578e-05
0.0110246 0.000807577 -8.73669e-05
0.000807577 0.00275314 3.6975e-05
-8.73669e-05 3.6975e-05 0.0013344
-0.000337187 -0.000690411 -0.000181828
-0.000690411 0.00185119 -5.96452e-05
-0.000181828 -5.96452e-05 0.000480172
-0.00114545 -0.00095102 9.46428e-05
-0.00095102 0.00140837 -1.01853e-05
9.46428e-05 -1.01853e-05 -0.000687255
-0.00177498 -0.000836406 1.88083e-05
-0.000836406 -0.000470746 0.000144325
1.88083e-05 0.000144325 -0.000706656
0.0110556 0.00101378 9.48216e-07
0.00101378 0.00498291 -7.03986e-07
9.48216e-07 -7.03986e-07 0.00179311
0.00034841 0.00031178 -4.08491e-05
0.00031178 -0.00032719 -2.48353e-05
-4.08491e-05 -2.48353e-05 -0.000469008
0.00152681 0.000696396 -2.15537e-05
0.000696396 0.000262721 -1.16864e-05
-2.15537e-05 -1.16864e-05 0.000118783
0.010109 0.000916674 2.78188e-05
0.000916674 0.00327693 2.21305e-05
2.78188e-05 2.21305e-05 0.00135515
0.00566974 0.00142503 -3.9706e-05
0.00142503 0.00090527 -4.46065e-05
-3.9706e-05 -4.46065e-05 0.000472654
0.00175702 0.000637091 1.97109e-06
0.000637091 0.000199315 -6.67753e-06
1.97109e-06 -6.67753e-06 2.925e-05
0.00106353 0.000461168 5.80789e-06
0.000461168 0.00011767 -1.10851e-06
5.80789e-06 -1.10851e-06 -9.48187e-05
0.000826284 0.00025356 -1.63742e-05
0.00025356 0.000176535 1.79372e-05
-1.63742e-05 1.79372e-05 6.00664e-05
0.00270876 0.000744716 -4.36352e-05
0.000744716 0.000784346 -1.84984e-05
-4.36352e-05 -1.84984e-05 0.000475862
0.00221104 0.000853272 -9.47679e-07
0.000853272 -7.08558e-05 1.88662e-05
-9.47679e-07 1.88662e-05 -0.000195928
0.000851386 -0.000332586 -3.33223e-05
-0.000332586 -0.00307607 1.63585e-05
-3.33223e-05 1.63585e-05 -0.0033486
0.00226433 -0.000438726 -1.1498e-06
-0.000438726 0.0012977 -2.14137e-05
-1.1498e-06 -2.14137e-05 0.00137667
-0.00500572 2.56485e-05 0.000151782
2.56485e-05 0.00184853 -6.72786e-06
0.000151782 -6.72786e-06 -0.000798159
0.00183715 -0.000753838 -2.78899e-05
-0.000753838 9.75104e-05 6.62602e-06
-2.78899e-05 6.62602e-06 -7.82298e-05
0.00319779 -0.00112944 3.20405e-05
-0.00112944 0.000509276 -9.01032e-06
3.20405e-05 -9.01032e-06 -0.000343612
0.00125805 -0.00028821 0.000232275
-0.00028821 0.00192655 -9.84793e-06
0.000232275 -9.84793e-06 0.00106067
0.0123314 -0.000432143 -0.00013036
-0.000432143 0.00366379 6.56163e-05
-0.00013036 6.56163e-05 0.00205915
0.000840982 -0.000493281 -2.73689e-05
-0.000493281 -0.000346859 -3.28205e-06
-2.73689e-05 -3.28205e-06 -0.000469775
0.00852427 6.01039e-05 -5.54647e-05
6.01039e-05 0.00117022 2.87088e-05
-5.54647e-05 2.87088e-05 0.000145307
0.00457038 -0.000736878 7.36058e-05
-0.000736878 -0.000108576 4.59193e-06
7.36058e-05 4.59193e-06 -0.000430347
0.00328063 -0.0005104 4.88624e-05
-0.0005104 0.000872277 -1.11081e-05
4.88624e-05 -1.11081e-05 0.000567057
0.00340184 -0.000265667 -9.19604e-05
-0.000265667 3.84427e-05 4.37078e-06
-9.19604e-05 4.37078e-06 3.65423e-05
-0.00112439 -0.000261579 -1.46155e-05
-0.000261579 -0.00144012 3.52668e-06
-1.46155e-05 3.52668e-06 -0.00139719
0.00156794 -0.000442331 -8.893e-08
-0.000442331 -0.0001289 -7.32671e-07
-8.893e-08 -7.32671e-07 -0.000146743
0.00237554 -0.00037826 1.55154e-05
-0.00037826 0.000176114 -9.55896e-06
1.55154e-05 -9.55896e-06 0.000203219
0.00122512 -0.00046356 -1.86517e-06
-0.00046356 -0.0001476 3.03026e-06
-1.86517e-06 3.03026e-06 -0.000340213
0.00182089 -0.000427834 -2.109e-06
-0.000427834 1.66299e-05 2.42627e-07
-2.109e-06 2.42627e-07 -0.000112914
0.00205008 -0.000334017 1.06867e-06
-0.000334017 5.1332e-05 1.02353e-06
1.06867e-06 1.02353e-06 -1.979e-06
0.00179741 -0.000429202 -3.17184e-06
-0.000429202 0.000116355 5.63345e-06
-3.17184e-06 5.63345e-06 -8.34114e-05
0.0018637 -0.000341294 3.45865e-07
-0.000341294 6.45893e-05 1.59873e-06
3.45865e-07 1.59873e-06 -5.52451e-05
0.0017992 -0.000295476 -4.4518e-07
-0.000295476 3.30738e-05 1.59604e-06
-4.4518e-07 1.59604e-06 -5.12119e-05
0.00167386 -0.000326079 4.27536e-06
-0.000326079 7.39352e-05 5.32069e-06
4.27536e-06 5.32069e-06 -8.33149e-05
0.00175815 -0.000281697 -3.36712e-07
-0.000281697 6.47541e-05 1.2445e-06
-3.36712e-07 1.2445e-06 -4.66905e-05
0.00202373 -0.000282595 -6.56691e-07
-0.000282595 0.000234819 2.44159e-07
-6.56691e-07 2.44159e-07 0.000135105
0.00180557 -0.00025724 -3.9666e-06
-0.00025724 0.000146005 3.49767e-06
-3.9666e-06 3.49767e-06 3.47357e-05
0.00184178 -0.000269514 1.89109e-06
-0.000269514 0.000198176 -3.17758e-06
1.89109e-06 -3.17758e-06 6.82992e-05
0.00175926 -0.000276669 2.38204e-06
-0.000276669 0.000117923 7.64123e-06
2.38204e-06 7.64123e-06 -1.66017e-05
0.00174575 -0.000288457 3.59296e-07
-0.000288457 0.000150054 -7.8892e-07
3.59296e-07 -7.8892e-07 -8.57437e-06
0.00168251 -0.000283389 -1.35779e-06
-0.000283389 0.000152346 -3.15924e-06
-1.35779e-06 -3.15924e-06 -2.1534e-05
0.00152357 -0.000289326 -5.22077e-06
-0.000289326 0.000171285 -2.95172e-07
-5.22077e-06 -2.95172e-07 -3.07e-05
0.00169435 -0.00033138 3.80029e-07
-0.00033138 0.000201833 -3.54364e-07
3.80029e-07 -3.54364e-07 -6.39768e-06
0.00178171 -0.000345414 3.39343e-06
-0.000345414 0.000213037 2.65047e-06
3.39343e-06 2.65047e-06 7.91305e-06
0.00114778 -0.000231877 -6.87105e-06
-0.000231877 8.9942e-05 2.49576e-06
-6.87105e-06 2.49576e-06 -0.000101656
0.00133266 -0.000290667 -1.09188e-06
-0.000290667 0.000133073 4.61592e-07
-1.09188e-06 4.61592e-07 -8.28351e-05
0.00142375 -0.000346955 2.50311e-06
-0.000346955 0.000117456 3.21735e-07
2.50311e-06 3.21735e-07 -0.000120454
0.00080857 -0.000158743 -6.80909e-06
-0.000158743 3.77028e-05 6.41011e-06
-6.80909e-06 6.41011e-06 -0.000121363
0.0011266 -0.000231777 8.86371e-07
-0.000231777 0.000153121 4.95822e-07
8.86371e-07 4.95822e-07 -4.65668e-05
0.00123679 -0.000273952 2.86051e-06
-0.000273952 0.000149951 -1.65975e-06
2.86051e-06 -1.65975e-06 -6.71125e-05
0.0004089 -7.14971e-05 -1.3291e-05
-7.14971e-05 -0.000126999 1.21551e-05
-1.3291e-05 1.21551e-05 -0.000190621
0.00079131 -0.000154479 -4.56379e-07
-0.000154479 8.98126e-05 2.04743e-07
-4.56379e-07 2.04743e-07 -6.65206e-05
0.00109519 -0.000214915 1.50978e-06
-0.000214915 0.000216538 -1.94847e-06
1.50978e-06 -1.94847e-06 2.33656e-05
0.00356542 0.000165782 -7.19976e-05
0.000165782 0.00179389 2.48428e-06
-7.19976e-05 2.48428e-06 0.00178182
0.000551452 -2.21251e-05 1.00802e-06
-2.21251e-05 -2.27851e-05 -3.63165e-07
1.00802e-06 -3.63165e-07 -7.62197e-05
0.000857139 -0.000147878 4.65955e-06
-0.000147878 0.000170023 -4.43945e-06
4.65955e-06 -4.43945e-06 2.22916e-05
0.00310756 0.000139509 8.42229e-06
0.000139509 0.00151799 4.11878e-07
8.42229e-06 4.11878e-07 0.00151298
0.000678391 1.77063e-05 5.14031e-06
1.77063e-05 6.22446e-05 -8.49131e-06
5.14031e-06 -8.49131e-06 2.06644e-05
0.00278325 0.000121418 5.51824e-05
0.000121418 0.00132059 -2.09723e-06
5.51824e-05 -2.09723e-06 0.00132066
0.00119327 0.00023243 4.14818e-06
0.00023243 0.000306516 -4.40804e-06
4.14818e-06 -4.40804e-06 0.000113414
0.00082614 0.000150289 1.13689e-06
0.000150289 0.000139914 -2.50939e-07
1.13689e-06 -2.50939e-07 2.68039e-06
0.000461007 4.84887e-05 1.98385e-07
4.84887e-05 -6.97268e-05 -5.75313e-07
1.98385e-07 -5.75313e-07 -0.0001951
0.00031247 2.92016e-05 3.87527e-08
2.92016e-05 -0.000160253 -3.09438e-07
3.87527e-08 -3.09438e-07 -0.000271734
0.000543605 1.60873e-05 -3.05946e-07
1.60873e-05 -1.65975e-05 6.31721e-07
-3.05946e-07 6.31721e-07 -0.000133513
0.000662137 8.56217e-06 -1.46466e-06
8.56217e-06 4.40171e-05 -4.04112e-06
-1.46466e-06 -4.04112e-06 -4.6875e-05
0.000626141 1.08446e-05 2.00732e-07
1.08446e-05 2.7774e-05 1.8578e-06
2.00732e-07 1.8578e-06 -7.84952e-05
0.000618701 -3.14389e-06 3.28846e-07
-3.14389e-06 1.98058e-05 -2.00707e-07
3.28846e-07 -2.00707e-07 -6.26743e-05
0.000568306 -3.45977e-05 -1.99788e-06
-3.45977e-05 -1.08762e-05 -7.25698e-06
-1.99788e-06 -7.25698e-06 -4.61394e-05
0.00281561 -0.000108138 -5.00352e-05
-0.000108138 0.00132656 -3.36479e-06
-5.00352e-05 -3.36479e-06 0.00132924
0.000529717 -2.9236e-05 1.1447e-07
-2.9236e-05 -4.0671e-05 -1.80991e-08
1.1447e-07 -1.80991e-08 -7.15772e-05
0.000592556 3.03895e-06 1.30951e-06
3.03895e-06 3.04531e-06 3.42969e-06
1.30951e-06 3.42969e-06 -7.4027e-05
0.00271276 -9.48841e-05 -5.06655e-06
-9.48841e-05 0.00125754 3.86006e-07
-5.06655e-06 3.86006e-07 0.00126303
0.000512321 -2.5609e-05 1.0426e-06
-2.5609e-05 -5.66257e-05 5.80197e-06
1.0426e-06 5.80197e-06 -8.35121e-05
0.00255524 -7.96194e-05 3.02896e-05
-7.96194e-05 0.00115695 4.26541e-06
3.02896e-05 4.26541e-06 0.00116578
0.0111462 0.000512955 0.000195547
0.000512955 0.00259011 5.8422e-05
0.000195547 5.8422e-05 0.00167784
-0.00306253 -0.000848468 -0.000128092
-0.000848468 -0.00232638 -1.66657e-05
-0.000128092 -1.66657e-05 -0.00255888
-0.00514829 0.00036174 -6.72517e-05
0.00036174 0.000673956 -3.79194e-05
-6.72517e-05 -3.79194e-05 -0.00243036
0.000673469 2.30255e-05 8.32457e-06
2.30255e-05 3.77774e-05 1.88286e-06
8.32457e-06 1.88286e-06 -9.16143e-05
0.000937264 0.000187881 -3.13646e-06
0.000187881 0.000234231 1.68609e-06
-3.13646e-06 1.68609e-06 8.88379e-05
0.00132777 0.000204061 -2.94288e-08
0.000204061 0.000466121 -6.82231e-07
-2.94288e-08 -6.82231e-07 0.000298413
0.00128574 0.000261338 -4.08567e-06
0.000261338 0.000365244 1.03854e-06
-4.08567e-06 1.03854e-06 0.000162849
0.0011935 0.000292521 1.31721e-05
0.000292521 0.000168908 1.13895e-06
1.31721e-05 1.13895e-06 -6.30522e-05
0.000162494 0.000168512 -6.69735e-07
0.000168512 -0.000249234 -2.70752e-06
-6.69735e-07 -2.70752e-06 -0.000425631
0.00037541 0.000133368 -2.72421e-06
0.000133368 -5.78391e-05 -2.4455e-06
-2.72421e-06 -2.4455e-06 -0.000218817
0.000183808 0.000186216 1.10642e-06
0.000186216 -0.000260199 1.80847e-06
1.10642e-06 1.80847e-06 -0.000449864
0.00100165 0.000269181 5.95163e-07
0.000269181 0.000154834 6.53854e-07
5.95163e-07 6.53854e-07 2.88937e-05
0.000555143 0.000284558 5.6308e-06
0.000284558 -0.000207496 1.53474e-06
5.6308e-06 1.53474e-06 -0.000385022
0.00345448 0.000596663 -3.70261e-06
0.000596663 0.00118623 -3.92543e-06
-3.70261e-06 -3.92543e-06 0.00100391
0.00206923 0.000549079 -5.63219e-06
0.000549079 0.000358546 3.65283e-06
-5.63219e-06 3.65283e-06 0.000175264
0.00149726 0.000470816 3.61318e-06
0.000470816 0.000155224 -2.80838e-06
3.61318e-06 -2.80838e-06 -2.70206e-05
0.0004076 0.000217502 -2.24408e-06
0.000217502 -0.000106454 3.95911e-06
-2.24408e-06 3.95911e-06 -0.000224976
0.00558748 0.0006323 -1.9326e-05
0.0006323 0.000336156 8.79783e-06
-1.9326e-05 8.79783e-06 0.000553165
0.00936856 0.00063624 8.84411e-05
0.00063624 0.00186162 4.74762e-05
8.84411e-05 4.74762e-05 0.000326262
0.00538753 -0.00135109 9.33325e-05
-0.00135109 0.00308305 -5.73994e-05
9.33325e-05 -5.73994e-05 0.00233994
0.00392864 0.00134657 0.000330611
0.00134657 3.5014e-05 0.00014881
0.000330611 0.00014881 -0.00320965
0.0012364 0.000597562 -3.78893e-05
0.000597562 0.000158421 4.86134e-07
-3.78893e-05 4.86134e-07 0.000252996
0.00336843 0.00109777 -8.28942e-05
0.00109777 -5.23867e-05 -2.56298e-05
-8.28942e-05 -2.56298e-05 -0.000232023
0.00379639 0.000899315 4.14379e-05
0.000899315 0.000652449 2.05785e-05
4.14379e-05 2.05785e-05 0.000619124
0.0030206 0.000749381 7.71279e-06
0.000749381 0.000754228 7.03911e-06
7.71279e-06 7.03911e-06 0.000585553
0.000630312 0.000396768 -9.40511e-06
0.000396768 -5.86081e-05 1.94142e-05
-9.40511e-06 1.94142e-05 -0.000256357
0.00392242 0.0010017 -0.000120839
0.0010017 0.000737583 -2.874e-05
-0.000120839 -2.874e-05 0.000536853
0.00288584 -0.00022196 -6.72433e-05
-0.00022196 0.000366711 9.14276e-06
-6.72433e-05 9.14276e-06 0.000128097
0.0100068 -0.000280217 -9.35641e-06
-0.000280217 0.00263913 3.8267e-06
-9.35641e-06 3.8267e-06 0.0020226
-0.00917763 -0.000631485 0.000312626
-0.000631485 -0.00520399 -8.9219e-06
0.000312626 -8.9219e-06 -0.00483286
0.000315508 -0.00046896 -4.37239e-05
-0.00046896 -0.000724747 8.36325e-06
-4.37239e-05 8.36325e-06 -0.000772286
0.00680526 -0.000951785 0.000116438
-0.000951785 0.000955922 2.67957e-05
0.000116438 2.67957e-05 0.000733106
0.00136283 -0.000384471 -7.95044e-06
-0.000384471 -0.00215306 5.87841e-05
-7.95044e-06 5.87841e-05 -0.00355653
0.00147937 -0.000374504 1.74606e-05
-0.000374504 -0.000143758 9.89252e-07
1.74606e-05 9.89252e-07 -0.000282218
0.00272808 -0.000144606 -6.30205e-06
-0.000144606 -0.000386197 5.84131e-06
-6.30205e-06 5.84131e-06 -0.000452542
0.00415534 -0.000385539 2.19298e-05
-0.000385539 0.000977454 -8.57495e-06
2.19298e-05 -8.57495e-06 0.00105145
0.00360935 -0.000103656 7.08937e-05
-0.000103656 0.000850196 1.18078e-06
7.08937e-05 1.18078e-06 0.000813771
-9.66673e-05 -0.000355846 -8.21297e-06
-0.000355846 -0.00101628 7.88669e-06
-8.21297e-06 7.88669e-06 -0.00101048
0.00177281 -0.000353597 -3.82902e-07
-0.000353597 -0.000149987 5.53466e-07
-3.82902e-07 5.53466e-07 -0.000114724
0.00181614 -0.000242798 1.36775e-05
-0.000242798 -0.000178362 -2.47593e-06
1.36775e-05 -2.47593e-06 -7.72555e-05
0.0015592 -0.000402353 3.14988e-07
-0.000402353 -0.000109712 1.88596e-06
3.14988e-07 1.88596e-06 -0.000236535
0.00196071 -0.000331511 1.90542e-06
-0.000331511 5.45256e-06 9.48768e-07
1.90542e-06 9.48768e-07 -4.84081e-05
0.00189461 -0.000268918 9.21976e-07
-0.000268918 3.88401e-05 1.25371e-06
9.21976e-07 1.25371e-06 9.11133e-06
0.00189055 -0.000341086 4.51347e-06
-0.000341086 8.00211e-05 3.68325e-06
4.51347e-06 3.68325e-06 -3.81963e-05
0.00185547 -0.000295511 8.29719e-07
-0.000295511 7.18666e-05 4.35748e-07
8.29719e-07 4.35748e-07 -1.19732e-05
0.0019306 -0.000264329 -1.91445e-06
-0.000264329 0.000142071 1.46581e-06
-1.91445e-06 1.46581e-06 6.29627e-05
0.00172631 -0.000282238 4.17027e-06
-0.000282238 4.56199e-05 3.66692e-06
4.17027e-06 3.66692e-06 -6.65551e-05
0.00184261 -0.000275505 2.0853e-07
-0.000275505 0.000136347 5.86032e-07
2.0853e-07 5.86032e-07 3.63475e-05
0.00169433 -0.000259856 3.45823e-06
-0.000259856 8.46143e-05 -1.52949e-06
3.45823e-06 -1.52949e-06 -2.82456e-05
0.00169888 -0.000253558 -2.46796e-06
-0.000253558 7.51965e-05 7.26344e-06
-2.46796e-06 7.26344e-06 -3.24833e-05
0.00187086 -0.000267552 -2.16923e-06
-0.000267552 0.000212875 5.33605e-08
-2.16923e-06 5.33605e-08 8.66527e-05
0.00178374 -0.000261835 6.74199e-07
-0.000261835 0.000193034 -1.97955e-06
6.74199e-07 -1.97955e-06 4.13517e-05
0.00174723 -0.000289725 2.13541e-06
-0.000289725 0.000150095 3.60137e-06
2.13541e-06 3.60137e-06 -9.11764e-06
0.00172252 -0.000286231 5.93239e-07
-0.000286231 0.00017758 -6.45174e-07
5.93239e-07 -6.45174e-07 2.61837e-06
0.00171928 -0.000265373 -2.31211e-06
-0.000265373 0.000240514 -1.214e-06
-2.31211e-06 -1.214e-06 6.10033e-05
0.0010484 -0.000210766 -8.88039e-06
-0.000210766 -1.78929e-05 2.43711e-06
-8.88039e-06 2.43711e-06 -0.000198116
0.00155123 -0.000291765 -9.96092e-07
-0.000291765 0.000191099 -2.74717e-07
-9.96092e-07 -2.74717e-07 -1.17596e-05
0.00172481 -0.000333734 3.77933e-06
-0.000333734 0.000221337 8.30204e-07
3.77933e-06 8.30204e-07 1.20795e-05
0.000942304 -0.000175827 -1.01841e-05
-0.000175827 5.07358e-05 6.2762e-06
-1.01841e-05 6.2762e-06 -0.0001067
0.00118428 -0.00023467 -9.24356e-08
-0.00023467 0.000107935 2.61593e-07
-9.24356e-08 2.61593e-07 -8.40854e-05
0.00127166 -0.000285213 1.82829e-06
-0.000285213 9.77566e-05 -6.77049e-07
1.82829e-06 -6.77049e-07 -0.000117844
0.000437377 -0.000105862 -1.72766e-05
-0.000105862 -0.000132404 1.3266e-05
-1.72766e-05 1.3266e-05 -0.000206354
0.000852465 -0.000166405 5.64573e-07
-0.000166405 6.53039e-05 4.02643e-07
5.64573e-07 4.02643e-07 -9.52518e-05
0.00106454 -0.000226301 5.62216e-06
-0.000226301 0.000115869 -2.31602e-06
5.62216e-06 -2.31602e-06 -8.28975e-05
0.0043219 0.000175361 -0.000111333
0.000175361 0.00224092 4.65422e-06
-0.000111333 4.65422e-06 0.00222563
0.000572619 -7.86413e-05 4.83072e-07
-7.86413e-05 -3.2591e-05 -2.8224e-07
4.83072e-07 -2.8224e-07 -9.91923e-05
0.000831759 -0.000168899 6.3086e-06
-0.000168899 0.000110946 -5.71742e-06
6.3086e-06 -5.71742e-06 -4.67917e-05
0.00379237 0.000139836 8.22431e-06
0.000139836 0.00192153 3.90367e-07
8.22431e-06 3.90367e-07 0.00191567
0.00071275 -3.1558e-05 1.02967e-05
-3.1558e-05 6.8287e-05 -1.03738e-05
1.02967e-05 -1.03738e-05 1.38229e-05
0.003282 0.000110609 9.64613e-05
0.000110609 0.00161472 -3.7662e-06
9.64613e-05 -3.7662e-06 0.0016168
0.00143638 0.000280329 -3.70944e-06
0.000280329 0.000340182 -4.0158e-06
-3.70944e-06 -4.0158e-06 0.000118532
0.00139277 0.000250243 7.52833e-07
0.000250243 0.000426992 2.78607e-07
7.52833e-07 2.78607e-07 0.00023083
0.000691721 0.000142465 -1.92398e-07
0.000142465 3.74149e-05 -5.61742e-06
-1.92398e-07 -5.61742e-06 -0.000127813
0.000679876 0.000162066 -1.87676e-06
0.000162066 6.63246e-05 -2.2689e-08
-1.87676e-06 -2.2689e-08 -7.76678e-05
0.000465208 6.17274e-05 1.35896e-07
6.17274e-05 -6.66594e-05 -5.03901e-07
1.35896e-07 -5.03901e-07 -0.000196913
0.000773127 8.35026e-05 -2.87191e-06
8.35026e-05 0.000118297 -4.10662e-06
-2.87191e-06 -4.10662e-06 3.57717e-06
0.000417916 -1.98352e-06 3.80082e-07
-1.98352e-06 -9.47179e-05 1.5107e-06
3.80082e-07 1.5107e-06 -0.000207659
0.000637466 7.44727e-06 1.50157e-07
7.44727e-06 3.1694e-05 -2.51071e-07
1.50157e-07 -2.51071e-07 -5.96305e-05
0.000573663 -3.07723e-05 -2.67254e-06
-3.07723e-05 -2.5589e-06 -8.05463e-06
-2.67254e-06 -8.05463e-06 -4.21014e-05
0.000580444 -5.43108e-06 1.17118e-06
-5.43108e-06 -2.36176e-06 3.89679e-06
1.17118e-06 3.89679e-06 -8.42233e-05
0.00052343 -3.2456e-05 2.65525e-07
-3.2456e-05 -3.73947e-05 -5.34473e-08
2.65525e-07 -5.34473e-08 -7.21884e-05
0.00292426 -0.00012032 -5.93901e-05
-0.00012032 0.00139909 -2.75495e-06
-5.93901e-05 -2.75495e-06 0.001399
0.00280518 -0.000108474 -3.96454e-06
-0.000108474 0.00131988 3.89947e-07
-3.96454e-06 3.89947e-07 0.00132232
0.000500302 -2.32131e-05 2.48382e-06
-2.32131e-05 -5.85262e-05 6.45296e-06
2.48382e-06 6.45296e-06 -8.87537e-05
0.00267412 -9.41623e-05 3.71641e-05
-9.41623e-05 0.00123419 3.98041e-06
3.71641e-05 3.98041e-06 0.00123977
0.00326526 1.59223e-05 1.80179e-05
1.59223e-05 -0.000295287 9.34661e-06
1.80179e-05 9.34661e-06 -0.000177097
0.00282317 -0.000567969 6.12707e-05
-0.000567969 -0.00204506 2.71024e-05
6.12707e-05 2.71024e-05 -0.00311711
0.00734062 -0.000906594 -7.93074e-05
-0.000906594 0.00276789 -5.91507e-05
-7.93074e-05 -5.91507e-05 0.00309582
0.00132211 0.00032216 6.00508e-06
0.00032216 0.000112916 4.17356e-06
6.00508e-06 4.17356e-06 -0.000118021
0.00151487 0.000228563 1.7968e-06
0.000228563 0.000566893 1.50966e-06
1.7968e-06 1.50966e-06 0.000395806
0.00118166 0.000250141 -5.85848e-06
0.000250141 0.000315109 6.57078e-06
-5.85848e-06 6.57078e-06 0.000115963
0.000718876 0.000225534 1.33202e-06
0.000225534 6.12042e-05 2.38113e-06
1.33202e-06 2.38113e-06 -0.000129026
0.00123797 0.000298519 -4.62749e-07
0.000298519 0.000202351 -1.51323e-06
-4.62749e-07 -1.51323e-06 -3.32823e-05
0.000851886 0.000307037 5.49513e-06
0.000307037 -5.88775e-05 3.8046e-06
5.49513e-06 3.8046e-06 -0.000260095
0.00107709 0.000277488 -4.79676e-06
0.000277488 0.000233605 -2.70702e-06
-4.79676e-06 -2.70702e-06 1.83049e-05
0.000536087 0.000242065 3.25316e-06
0.000242065 -8.77656e-05 3.63118e-06
3.25316e-06 3.63118e-06 -0.000214821
0.00137884 0.000362566 2.78135e-06
0.000362566 0.000242719 -6.71759e-07
2.78135e-06 -6.71759e-07 5.30819e-05
0.00233847 0.000503046 3.55023e-06
0.000503046 0.000580835 6.86217e-06
3.55023e-06 6.86217e-06 0.000416599
0.0016866 0.000483505 1.14847e-06
0.000483505 0.000128823 -3.52634e-07
1.14847e-06 -3.52634e-07 -6.02601e-05
0.00164154 0.000451483 4.49044e-06
0.000451483 0.000121703 9.10249e-06
4.49044e-06 9.10249e-06 -8.62209e-06
0.00118055 0.000480502 -2.76403e-06
0.000480502 -0.000114653 -3.07138e-06
-2.76403e-06 -3.07138e-06 -0.000290005
0.000655497 0.000393465 2.45223e-07
0.000393465 -0.000279172 2.02384e-06
2.45223e-07 2.02384e-06 -0.000438316
0.001377 0.000356483 2.64988e-05
0.000356483 -0.000264656 2.97694e-05
2.64988e-05 2.97694e-05 -0.000214881
0.00513389 0.000740268 -4.82249e-05
0.000740268 -7.97057e-05 -1.34308e-05
-4.82249e-05 -1.34308e-05 5.76156e-05
0.00202827 0.000381556 0.000270271
0.000381556 -0.00197038 3.30915e-05
0.000270271 3.30915e-05 -0.00367276
0.000546101 0.000814817 -9.93301e-06
0.000814817 -0.00120714 -2.17101e-05
-9.93301e-06 -2.17101e-05 -0.00136512
0.00255713 0.00072029 -2.55962e-05
0.00072029 0.000299591 -2.71498e-06
-2.55962e-05 -2.71498e-06 0.000244232
0.00236817 0.000677441 -5.96048e-05
0.000677441 0.000436671 -2.2252e-05
-5.96048e-05 -2.2252e-05 0.00026615
0.00232968 -0.000185221 -6.67282e-06
-0.000185221 5.92711e-05 -5.15688e-06
-6.67282e-06 -5.15688e-06 4.0627e-05
0.000994812 -5.24733e-05 7.75338e-06
-5.24733e-05 -0.000251214 5.99323e-06
7.75338e-06 5.99323e-06 -0.000408096
0.00110386 0.000696049 8.92437e-05
0.000696049 -0.00296235 -2.43462e-05
8.92437e-05 -2.43462e-05 -0.00351038
-0.000294913 -0.000245637 -1.73522e-05
-0.000245637 -0.00110059 2.78816e-05
-1.73522e-05 2.78816e-05 -0.00108045
0.00353977 -0.000125857 -3.48625e-05
-0.000125857 -3.39184e-05 3.57087e-05
-3.48625e-05 3.57087e-05 -0.000333248
0.00219479 -0.000278809 -1.45816e-05
-0.000278809 -1.72386e-05 5.29606e-06
-1.45816e-05 5.29606e-06 8.22988e-05
0.00302877 -0.000133694 -3.43965e-06
-0.000133694 0.000497339 -3.1445e-06
-3.43965e-06 -3.1445e-06 0.000452784
0.00153031 -0.000159424 2.97516e-05
-0.000159424 -0.000358895 -1.01652e-06
2.97516e-05 -1.01652e-06 -0.000230879
0.0031599 -5.0975e-05 2.42992e-05
-5.0975e-05 0.000926328 9.05387e-07
2.42992e-05 9.05387e-07 0.000886031
0.00118418 -0.000326681 -1.63426e-05
-0.000326681 -0.00046104 8.44031e-06
-1.63426e-05 8.44031e-06 -0.000420523
0.00177041 -0.000252561 6.46005e-07
-0.000252561 -0.000222069 2.15513e-06
6.46005e-07 2.15513e-06 -0.000131687
0.00195524 -0.000251022 1.73214e-06
-0.000251022 -4.50031e-05 3.41516e-08
1.73214e-06 3.41516e-08 7.70228e-06
0.0018813 -0.000328012 8.7224e-07
-0.000328012 -3.11017e-05 1.77033e-06
8.7224e-07 1.77033e-06 -8.58009e-05
0.00189579 -0.00027655 3.58232e-07
-0.00027655 3.69807e-05 9.83033e-08
3.58232e-07 9.83033e-08 1.77345e-06
0.00192369 -0.000249512 -1.20828e-06
-0.000249512 8.90371e-05 8.38039e-07
-1.20828e-06 8.38039e-07 3.21883e-05
0.00190151 -0.00029582 9.9735e-07
-0.00029582 0.000105176 5.35206e-07
9.9735e-07 5.35206e-07 2.10712e-05
0.00183945 -0.000266989 -6.61387e-07
-0.000266989 9.40353e-05 3.63338e-08
-6.61387e-07 3.63338e-08 1.16553e-05
0.00173035 -0.000235929 5.78459e-07
-0.000235929 7.69158e-05 3.32065e-07
5.78459e-07 3.32065e-07 -2.16721e-05
0.00164813 -0.000267675 -2.89937e-07
-0.000267675 3.04687e-05 1.1958e-06
-2.89937e-07 1.1958e-06 -6.98395e-05
0.00172518 -0.000261312 7.39744e-07
-0.000261312 0.000103202 -6.83952e-07
7.39744e-07 -6.83952e-07 -9.97041e-06
0.001728 -0.000247615 1.93673e-06
-0.000247615 0.000125112 -2.03792e-06
1.93673e-06 -2.03792e-06 -8.57036e-06
0.00189624 -0.000265196 -5.03464e-06
-0.000265196 0.000225628 4.76991e-06
-5.03464e-06 4.76991e-06 0.000103116
0.00184802 -0.000263367 -1.24749e-06
-0.000263367 0.000227998 3.02377e-07
-1.24749e-06 3.02377e-07 7.9577e-05
0.00165478 -0.000237452 -1.5036e-06
-0.000237452 0.000174509 -8.46601e-07
-1.5036e-06 -8.46601e-07 8.67575e-06
0.0017582 -0.000289196 2.4811e-06
-0.000289196 0.00020024 1.68666e-06
2.4811e-06 1.68666e-06 2.41399e-05
0.00167223 -0.000264294 1.01776e-06
-0.000264294 0.000213501 -6.61222e-07
1.01776e-06 -6.61222e-07 3.30268e-05
0.0012816 -0.000202444 -7.17855e-06
-0.000202444 8.29492e-05 2.13593e-06
-7.17855e-06 2.13593e-06 -8.72788e-05
0.000961248 -0.00016905 -1.16145e-05
-0.00016905 2.27734e-05 5.83957e-06
-1.16145e-05 5.83957e-06 -0.000126411
0.00116077 -0.00021861 -1.97994e-06
-0.00021861 4.78141e-05 4.16208e-07
-1.97994e-06 4.16208e-07 -0.000133306
0.0015773 -0.000294485 3.30117e-06
-0.000294485 0.000210187 -4.88232e-07
3.30117e-06 -4.88232e-07 6.36023e-06
0.000531665 -0.000169134 -2.1183e-05
-0.000169134 -8.77893e-05 1.39847e-05
-2.1183e-05 1.39847e-05 -0.000177468
0.000885443 -0.000172903 5.20027e-07
-0.000172903 1.97907e-05 2.65155e-07
5.20027e-07 2.65155e-07 -0.000137428
0.00120086 -0.000235739 7.07089e-06
-0.000235739 0.000114702 -2.21092e-06
7.07089e-06 -2.21092e-06 -7.74595e-05
0.0048995 0.000198048 -0.000129239
0.000198048 0.00259165 8.47131e-06
-0.000129239 8.47131e-06 0.00256698
0.000581091 -0.000142398 -5.98196e-07
-0.000142398 -4.43394e-05 8.61391e-08
-5.98196e-07 8.61391e-08 -0.000126506
0.000836327 -0.000171898 8.50508e-06
-0.000171898 5.82159e-05 -6.01564e-06
8.50508e-06 -6.01564e-06 -0.000103711
0.0044955 0.000151176 8.48675e-06
0.000151176 0.00233841 1.00172e-06
8.48675e-06 1.00172e-06 0.002327
0.000734121 -9.87421e-05 1.62521e-05
-9.87421e-05 6.03472e-05 -1.26489e-05
1.62521e-05 -1.26489e-05 -9.9166e-06
0.00399913 0.000110372 0.000129601
0.000110372 0.00203654 -6.91488e-06
0.000129601 -6.91488e-06 0.00203586
0.00118578 0.000272363 -4.24443e-06
0.000272363 8.70945e-05 -3.05958e-07
-4.24443e-06 -3.05958e-07 -0.000130865
0.00117712 0.00025564 -1.84901e-06
0.00025564 0.000192398 -4.84468e-07
-1.84901e-06 -4.84468e-07 -2.50953e-05
0.00101601 0.000210063 -3.54083e-06
0.000210063 0.000155195 -2.43462e-06
-3.54083e-06 -2.43462e-06 -3.87578e-05
0.00158004 0.00026668 -2.4876e-06
0.00026668 0.000540092 3.53997e-06
-2.4876e-06 3.53997e-06 0.000341151
0.000890139 0.000160856 -1.11693e-06
0.000160856 0.000155122 -1.99039e-06
-1.11693e-06 -1.99039e-06 -1.31882e-05
0.000889719 0.000132618 -3.76802e-06
0.000132618 0.000182127 -5.39899e-06
-3.76802e-06 -5.39899e-06 4.4626e-05
0.000491617 7.75082e-05 -2.67179e-07
7.75082e-05 -5.29533e-05 1.77946e-07
-2.67179e-07 1.77946e-07 -0.000186992
0.00066288 3.48816e-05 -6.2742e-07
3.48816e-05 4.64797e-05 -1.55819e-07
-6.2742e-07 -1.55819e-07 -5.89294e-05
0.000589956 -1.48296e-05 -4.92597e-06
-1.48296e-05 6.93124e-06 -8.91226e-06
-4.92597e-06 -8.91226e-06 -3.84497e-05
0.000563176 -9.6563e-06 1.09982e-06
-9.6563e-06 -1.05986e-05 4.17932e-06
1.09982e-06 4.17932e-06 -0.000100777
0.000511747 -3.43421e-05 3.95019e-07
-3.43421e-05 -3.75642e-05 -1.59305e-07
3.95019e-07 -1.59305e-07 -7.71887e-05
0.00309185 -0.000128661 -7.38338e-05
-0.000128661 0.0015054 -2.29527e-06
-7.38338e-05 -2.29527e-06 0.0015033
0.000484927 -3.03934e-05 2.51231e-06
-3.03934e-05 -6.02143e-05 7.10685e-06
2.51231e-06 7.10685e-06 -9.45083e-05
0.0028993 -0.000122028 -3.10463e-06
-0.000122028 0.00138407 3.60251e-07
-3.10463e-06 3.60251e-07 0.00138329
0.00280159 -0.000108377 4.55314e-05
-0.000108377 0.00131734 3.60854e-06
4.55314e-05 3.60854e-06 0.00131966
0.000295137 5.09185e-05 1.58005e-05
5.09185e-05 -0.00094825 7.93257e-06
1.58005e-05 7.93257e-06 -0.000883743
0.00457424 2.24647e-05 5.3977e-05
2.24647e-05 0.000279719 9.43449e-07
5.3977e-05 9.43449e-07 0.000300934
0.0103953 0.000618732 -7.96708e-05
0.000618732 0.00290268 -2.13734e-05
-7.96708e-05 -2.13734e-05 0.00183951
0.000869816 0.00030153 2.07828e-06
0.00030153 -0.000174709 2.33063e-06
2.07828e-06 2.33063e-06 -0.000379691
0.00170502 0.000367763 1.95357e-06
0.000367763 0.000231652 2.56911e-06
1.95357e-06 2.56911e-06 2.29713e-05
0.00123255 0.000322314 -1.1342e-07
0.000322314 6.34461e-05 -9.69937e-07
-1.1342e-07 -9.69937e-07 -0.000167033
0.00117235 0.000272812 -2.11406e-06
0.000272812 0.000310994 1.98166e-06
-2.11406e-06 1.98166e-06 0.000108929
0.00124933 0.000300714 -1.53602e-06
0.000300714 0.000215847 -9.36398e-07
-1.53602e-06 -9.36398e-07 -2.27125e-05
0.00143246 0.00036171 7.78102e-06
0.00036171 0.000251611 9.24829e-07
7.78102e-06 9.24829e-07 4.20573e-05
0.00182372 0.000459576 -4.1328e-06
0.000459576 0.000192622 -1.82854e-06
-4.1328e-06 -1.82854e-06 -5.5599e-06
0.00215954 0.000437332 -4.83288e-06
0.000437332 0.000667731 6.95646e-07
-4.83288e-06 6.95646e-07 0.000466575
0.00117079 0.000406281 1.0649e-05
0.000406281 -5.53464e-05 1.71447e-05
1.0649e-05 1.71447e-05 -0.000202194
0.00215739 0.000516224 -3.14252e-06
0.000516224 0.000388693 9.62599e-08
-3.14252e-06 9.62599e-08 0.000198183
0.00197215 0.000459619 -1.13633e-05
0.000459619 0.000184574 1.5858e-06
-1.13633e-05 1.5858e-06 2.40741e-05
0.000685281 0.000226911 1.48593e-05
0.000226911 -0.000486582 7.43713e-06
1.48593e-05 7.43713e-06 -0.000525566
0.00106998 0.00040858 9.92519e-06
0.00040858 -0.000169853 -5.06347e-08
9.92519e-06 -5.06347e-08 -0.000297577
0.00112649 0.000469552 -8.2874e-06
0.000469552 -0.000150553 -8.05288e-06
-8.2874e-06 -8.05288e-06 -0.000325061
0.00176423 0.000364795 3.44621e-06
0.000364795 -6.74156e-05 6.23483e-06
3.44621e-06 6.23483e-06 -5.81384e-05
0.00536362 0.000492339 3.07267e-05
0.000492339 5.33378e-05 -1.70114e-05
3.07267e-05 -1.70114e-05 -6.15478e-05
0.00268293 0.000634466 9.98613e-06
0.000634466 0.0006179 -2.81111e-05
9.98613e-06 -2.81111e-05 0.000569721
0.00149649 -4.12568e-05 2.34077e-05
-4.12568e-05 -2.07548e-07 -2.36604e-06
2.34077e-05 -2.36604e-06 -5.77449e-06
0.00214503 -0.000124287 -2.53958e-05
-0.000124287 9.96187e-06 -1.81746e-07
-2.53958e-05 -1.81746e-07 -9.55711e-06
0.00146251 0.000164933 2.93848e-05
0.000164933 -0.000594847 -6.28534e-06
2.93848e-05 -6.28534e-06 -0.000795569
0.000267958 -0.000194875 -3.01034e-05
-0.000194875 -0.00101128 2.26327e-05
-3.01034e-05 2.26327e-05 -0.00089879
0.00323325 -0.000201667 -9.22648e-05
-0.000201667 0.000547335 -1.00571e-06
-9.22648e-05 -1.00571e-06 0.000532339
0.00189482 -0.000190135 3.24127e-06
-0.000190135 -0.00011292 -2.6716e-06
3.24127e-06 -2.6716e-06 3.48535e-06
0.00231367 -6.55929e-05 -8.94337e-06
-6.55929e-05 0.000388973 3.13229e-07
-8.94337e-06 3.13229e-07 0.000352604
0.00201846 -0.000180209 2.94667e-06
-0.000180209 1.724e-06 1.49848e-06
2.94667e-06 1.49848e-06 1.85855e-05
0.00208898 -2.58507e-05 4.38644e-06
-2.58507e-05 9.03192e-05 1.20321e-07
4.38644e-06 1.20321e-07 7.14239e-05
0.00175429 -0.000265863 -7.22897e-06
-0.000265863 -0.000256829 2.87124e-06
-7.22897e-06 2.87124e-06 -0.000174763
0.00197728 -0.000247923 -1.85959e-06
-0.000247923 -2.27528e-05 1.38303e-08
-1.85959e-06 1.38303e-08 2.01679e-05
0.00196474 -0.000198547 -2.17278e-06
-0.000198547 1.89146e-05 -6.14218e-08
-2.17278e-06 -6.14218e-08 -2.65951e-06
0.00190044 -0.000283629 -1.67081e-06
-0.000283629 3.66338e-05 -7.90597e-07
-1.67081e-06 -7.90597e-07 -3.42838e-06
0.00184636 -0.000244293 2.77919e-07
-0.000244293 5.34059e-05 -1.5472e-07
2.77919e-07 -1.5472e-07 -8.3326e-06
0.00191653 -0.000217374 -9.21762e-07
-0.000217374 0.000122036 4.23227e-07
-9.21762e-07 4.23227e-07 3.96499e-05
0.00175283 -0.000269667 -1.73361e-06
-0.000269667 4.85905e-05 -8.67319e-07
-1.73361e-06 -8.67319e-07 -3.6782e-05
0.00176931 -0.000236954 3.84263e-07
-0.000236954 9.62849e-05 -1.23637e-07
3.84263e-07 -1.23637e-07 -2.44429e-06
0.00175936 -0.000222854 1.47507e-06
-0.000222854 0.000105008 -9.99142e-07
1.47507e-06 -9.99142e-07 -1.21869e-05
0.00175846 -0.000262916 -1.63437e-06
-0.000262916 0.000123122 1.47877e-07
-1.63437e-06 1.47877e-07 9.63219e-06
0.00175532 -0.000248189 -3.50575e-08
-0.000248189 0.000141905 -3.14262e-07
-3.50575e-08 -3.14262e-07 8.2349e-06
0.00162652 -0.000219077 -3.40351e-07
-0.000219077 0.00012902 -8.59981e-07
-3.40351e-07 -8.59981e-07 -2.58667e-05
0.00190964 -0.00026484 -1.82942e-06
-0.00026484 0.000261354 3.37748e-06
-1.82942e-06 3.37748e-06 0.000116194
0.00166591 -0.00023847 -6.32187e-07
-0.00023847 0.000181657 -9.1522e-08
-6.32187e-07 -9.1522e-08 1.68768e-05
0.00130255 -0.000183313 -6.44687e-06
-0.000183313 7.46637e-05 1.937e-06
-6.44687e-06 1.937e-06 -8.87902e-05
0.00163192 -0.000263523 4.40249e-06
-0.000263523 0.000190312 -5.3232e-08
4.40249e-06 -5.3232e-08 8.83816e-06
0.00125809 -0.000202376 -1.15799e-07
-0.000202376 6.86489e-05 -4.88622e-08
-1.15799e-07 -4.88622e-08 -0.00010189
0.000983822 -0.000153261 -1.25928e-05
-0.000153261 1.34347e-05 5.98138e-06
-1.25928e-05 5.98138e-06 -0.000128426
0.000454296 -0.000161822 -1.99002e-05
-0.000161822 -0.000142415 1.32239e-05
-1.99002e-05 1.32239e-05 -0.00023424
0.000937727 -0.000166898 2.05493e-07
-0.000166898 9.4425e-06 -4.04431e-08
2.05493e-07 -4.04431e-08 -0.000139539
0.00128015 -0.000226956 5.50949e-06
-0.000226956 0.000117532 -1.81548e-06
5.50949e-06 -1.81548e-06 -6.45601e-05
0.00534566 0.000133982 -0.00016229
0.000133982 0.00282938 8.7357e-06
-0.00016229 8.7357e-06 0.00281795
0.000561791 -0.000162672 -2.01188e-06
-0.000162672 -7.49876e-05 5.95318e-07
-2.01188e-06 5.95318e-07 -0.000162898
0.000845741 -0.000172133 1.01964e-05
-0.000172133 -1.68097e-07 -5.56938e-06
1.01964e-05 -5.56938e-06 -0.000157516
0.00507241 0.000153113 7.45584e-06
0.000153113 0.00267882 7.7236e-07
7.45584e-06 7.7236e-07 0.00266337
0.000696812 -0.000146028 2.03034e-05
-0.000146028 1.93264e-05 -1.3787e-05
2.03034e-05 -1.3787e-05 -6.40638e-05
0.0046815 0.000124205 0.00015156
0.000124205 0.00244065 -9.24686e-06
0.00015156 -9.24686e-06 0.00243345
0.00136843 0.000295369 -3.19384e-06
0.000295369 0.000140013 1.0576e-06
-3.19384e-06 1.0576e-06 -6.87294e-05
0.00113583 0.000267939 4.4102e-07
0.000267939 5.6021e-05 4.57091e-07
4.4102e-07 4.57091e-07 -0.000160783
0.00108553 0.000224365 -6.67211e-06
0.000224365 9.40099e-05 -1.61886e-06
-6.67211e-06 -1.61886e-06 -0.000100451
0.000921293 0.000231588 -5.61874e-07
0.000231588 4.66168e-05 2.94981e-06
-5.61874e-07 2.94981e-06 -0.000166806
0.00103779 0.000210941 -1.63404e-06
0.000210941 0.000170321 7.94667e-07
-1.63404e-06 7.94667e-07 -2.39246e-05
0.000892941 0.000167895 -6.25289e-06
0.000167895 0.000147289 -5.52771e-06
-6.25289e-06 -5.52771e-06 -1.10738e-05
0.00104301 0.000174833 -6.2989e-07
0.000174833 0.00024594 8.72816e-07
-6.2989e-07 8.72816e-07 7.52794e-05
0.0007334 0.000104854 -1.16862e-07
0.000104854 9.27335e-05 -3.95953e-07
-1.16862e-07 -3.95953e-07 -4.10101e-05
0.000700474 3.45069e-05 -1.01951e-05
3.45069e-05 6.38225e-05 -1.11089e-05
-1.01951e-05 -1.11089e-05 6.27257e-06
0.00059401 1.66929e-06 1.1896e-06
1.66929e-06 5.70163e-06 4.0393e-06
1.1896e-06 4.0393e-06 -9.57146e-05
0.000506496 -2.30425e-05 -1.22293e-07
-2.30425e-05 -3.94807e-05 -2.67063e-07
-1.22293e-07 -2.67063e-07 -8.48746e-05
0.00339398 -0.000130068 -9.6332e-05
-0.000130068 0.00168914 -2.7909e-06
-9.6332e-05 -2.7909e-06 0.00168603
0.000462567 -3.53017e-05 2.36315e-06
-3.53017e-05 -6.5832e-05 7.80427e-06
2.36315e-06 7.80427e-06 -0.000105212
0.00303633 -0.000135041 -3.02599e-06
-0.000135041 0.00147345 3.49752e-07
-3.02599e-06 3.49752e-07 0.0014694
0.002883 -0.000122055 5.24448e-05
-0.000122055 0.001374 3.12659e-06
5.24448e-05 3.12659e-06 0.00137303
0.000589907 5.70897e-05 1.77847e-05
5.70897e-05 -0.000549379 -3.11227e-06
1.77847e-05 -3.11227e-06 -0.000514754
0.00200611 2.34489e-05 -7.03179e-06
2.34489e-05 -0.000219463 -1.1852e-06
-7.03179e-06 -1.1852e-06 -0.000139736
0.00424994 3.4381e-05 0.000139067
3.4381e-05 -0.000255413 4.00406e-05
0.000139067 4.00406e-05 0.000140907
0.00210311 0.000426621 -1.91532e-06
0.000426621 0.000373411 1.04083e-06
-1.91532e-06 1.04083e-06 0.000173822
0.0012178 0.00035095 3.90735e-07
0.00035095 1.32339e-05 -2.12055e-06
3.90735e-07 -2.12055e-06 -0.000198781
0.0019452 0.00035332 -2.1676e-07
0.00035332 0.000244876 3.17551e-06
-2.1676e-07 3.17551e-06 6.58237e-05
0.00172327 0.000367683 8.18996e-07
0.000367683 0.000241352 2.40621e-07
8.18996e-07 2.40621e-07 3.31199e-05
0.00113251 0.000322527 1.20639e-06
0.000322527 5.9768e-06 -4.7514e-06
1.20639e-06 -4.7514e-06 -0.000224139
0.00183789 0.000379315 -2.19146e-06
0.000379315 8.98488e-05 1.50041e-06
-2.19146e-06 1.50041e-06 -6.92057e-05
0.00206342 0.000421541 -3.60635e-06
0.000421541 0.000591955 -1.26238e-06
-3.60635e-06 -1.26238e-06 0.000372994
0.00198926 0.000465291 -3.11239e-08
0.000465291 0.000296395 -6.05219e-07
-3.11239e-08 -6.05219e-07 9.632e-05
0.00179528 0.000269614 -4.92741e-06
0.000269614 -1.20577e-05 2.33481e-08
-4.92741e-06 2.33481e-08 -0.000111085
0.00266476 0.000552546 4.53314e-06
0.000552546 0.000668446 2.77516e-06
4.53314e-06 2.77516e-06 0.000475995
0.00193114 0.000458793 -1.60483e-06
0.000458793 0.000153837 1.30959e-07
-1.60483e-06 1.30959e-07 -8.88528e-06
0.00087102 0.000240434 3.7891e-06
0.000240434 -0.00035042 2.81816e-06
3.7891e-06 2.81816e-06 -0.000399804
-0.000248442 0.000318291 -1.04915e-06
0.000318291 -0.000847867 -4.29766e-06
-1.04915e-06 -4.29766e-06 -0.000968466
0.00192819 0.000372879 -4.98032e-05
0.000372879 4.4853e-06 -2.38565e-05
-4.98032e-05 -2.38565e-05 -1.37347e-05
0.00183073 3.91088e-05 7.66013e-07
3.91088e-05 -6.09707e-05 -2.00349e-06
7.66013e-07 -2.00349e-06 -7.35393e-05
0.00214787 -3.31237e-05 8.87927e-07
-3.31237e-05 0.000396026 2.50018e-06
8.87927e-07 2.50018e-06 0.000393994
0.00159143 -4.23628e-05 -5.75e-05
-4.23628e-05 -0.000199384 -4.38598e-06
-5.75e-05 -4.38598e-06 -0.000294588
0.00225058 -0.000218848 -3.19897e-05
-0.000218848 0.000125745 1.61177e-06
-3.19897e-05 1.61177e-06 0.000226415
0.00134516 -7.34392e-05 -7.50162e-06
-7.34392e-05 -0.000213815 5.03835e-07
-7.50162e-06 5.03835e-07 -0.000245018
0.00196084 -0.000173611 1.60877e-07
-0.000173611 -3.25782e-05 -6.19857e-07
1.60877e-07 -6.19857e-07 -6.24071e-06
0.00207271 -2.68043e-05 -3.31572e-06
-2.68043e-05 5.97843e-05 1.08268e-06
-3.31572e-06 1.08268e-06 4.68736e-05
0.00206167 -6.41323e-05 -4.30724e-06
-6.41323e-05 4.45664e-05 -2.7605e-07
-4.30724e-06 -2.7605e-07 3.71677e-05
0.00198863 -0.000243496 -3.69948e-06
-0.000243496 -3.61883e-06 -2.52297e-07
-3.69948e-06 -2.52297e-07 2.92446e-05
0.00195138 -0.000190405 4.72357e-07
-0.000190405 2.23618e-05 -2.19704e-07
4.72357e-07 -2.19704e-07 -9.23798e-07
0.00204741 -0.000157736 -1.10346e-06
-0.000157736 0.000115007 -3.14503e-07
-1.10346e-06 -3.14503e-07 6.91009e-05
0.00178117 -0.000240058 7.40705e-07
-0.000240058 2.43921e-05 -1.182e-06
7.40705e-07 -1.182e-06 -4.2387e-05
0.00182969 -0.000213228 7.16583e-08
-0.000213228 7.5668e-05 -7.89329e-08
7.16583e-08 -7.89329e-08 -8.26195e-06
0.00176082 -0.000179659 8.07958e-07
-0.000179659 6.74283e-05 -4.26336e-07
8.07958e-07 -4.26336e-07 -3.39348e-05
0.00180933 -0.000238038 1.365e-07
-0.000238038 0.000115638 -4.67954e-07
1.365e-07 -4.67954e-07 1.678e-05
0.00178523 -0.000222966 2.02968e-08
-0.000222966 0.000121582 -2.09898e-07
2.02968e-08 -2.09898e-07 4.39398e-06
0.00167875 -0.000196841 6.55115e-07
-0.000196841 0.000122131 -7.65738e-07
6.55115e-07 -7.65738e-07 -2.02621e-05
0.00178245 -0.000248818 -1.32072e-06
-0.000248818 0.000158408 1.2431e-06
-1.32072e-06 1.2431e-06 2.47377e-05
0.00164822 -0.000219668 -2.92522e-07
-0.000219668 0.000141663 -3.46392e-08
-2.92522e-07 -3.46392e-08 -1.2892e-05
0.00135329 -0.000167403 -5.09687e-06
-0.000167403 8.42536e-05 1.55462e-06
-5.09687e-06 1.55462e-06 -7.43193e-05
0.00167662 -0.000239376 1.13906e-06
-0.000239376 0.000188448 8.65938e-07
1.13906e-06 8.65938e-07 2.47556e-05
0.0013236 -0.000184498 -1.8024e-07
-0.000184498 8.52609e-05 5.95459e-08
-1.8024e-07 5.95459e-08 -7.80376e-05
0.000987197 -0.000135279 -1.31969e-05
-0.000135279 3.09905e-07 5.52047e-06
-1.31969e-05 5.52047e-06 -0.000136979
0.00123517 -0.000202408 6.39354e-06
-0.000202408 5.47201e-05 -1.80348e-06
6.39354e-06 -1.80348e-06 -0.000116143
0.000979268 -0.000151487 2.52429e-07
-0.000151487 1.02411e-05 5.46008e-08
2.52429e-07 5.46008e-08 -0.000131249
0.00240249 -0.000107034 -2.79126e-05
-0.000107034 0.000998855 8.2721e-06
-2.79126e-05 8.2721e-06 0.000922481
0.00167803 -4.47275e-05 -0.000175643
-4.47275e-05 0.000636296 1.88533e-05
-0.000175643 1.88533e-05 0.000618432
0.00152649 -0.000142928 -4.79787e-06
-0.000142928 0.000486539 -3.33687e-07
-4.79787e-06 -3.33687e-07 0.000400223
0.000920348 -0.000165181 1.1395e-05
-0.000165181 -1.62342e-07 -5.71742e-06
1.1395e-05 -5.71742e-06 -0.000149029
0.00544924 0.000116546 -5.66669e-06
0.000116546 0.00289602 -8.0347e-07
-5.66669e-06 -8.0347e-07 0.0028818
0.000625799 -0.00018269 2.21608e-05
-0.00018269 -3.67735e-05 -1.37034e-05
2.21608e-05 -1.37034e-05 -0.000128478
0.00523081 0.000131506 0.000166567
0.000131506 0.00277442 -1.34048e-05
0.000166567 -1.34048e-05 0.00275782
0.00191066 0.000282584 9.63175e-07
0.000282584 0.000191834 5.29947e-07
9.63175e-07 5.29947e-07 3.64468e-05
0.00161458 0.000306091 9.40405e-07
0.000306091 0.000175976 2.58698e-06
9.40405e-07 2.58698e-06 -1.57956e-05
0.00154199 0.000313491 -1.63623e-07
0.000313491 0.000234962 -7.07699e-08
-1.63623e-07 -7.07699e-08 2.40391e-05
0.00123978 0.000236028 -6.71849e-06
0.000236028 0.000111846 -1.91113e-06
-6.71849e-06 -1.91113e-06 -7.56899e-05
0.00110578 0.000265158 5.08249e-06
0.000265158 3.77166e-05 6.01092e-07
5.08249e-06 6.01092e-07 -0.000178256
0.00111702 0.000226488 -5.08139e-07
0.000226488 0.000113132 3.79535e-07
-5.08139e-07 3.79535e-07 -8.15621e-05
0.000823944 0.000170542 -9.17745e-06
0.000170542 2.88427e-05 -4.7577e-06
-9.17745e-06 -4.7577e-06 -0.00013147
0.00109472 0.000214737 1.78915e-06
0.000214737 0.000206271 4.52822e-06
1.78915e-06 4.52822e-06 1.12146e-05
0.000803233 0.00015356 -4.51524e-07
0.00015356 9.57388e-05 4.04715e-07
-4.51524e-07 4.04715e-07 -6.04075e-05
0.000773736 0.000114974 -1.69932e-05
0.000114974 9.07146e-05 -1.32891e-05
-1.69932e-05 -1.32891e-05 1.4568e-05
0.00061339 7.62904e-05 1.89529e-06
7.62904e-05 2.01965e-05 3.98066e-06
1.89529e-06 3.98066e-06 -0.000107202
0.000526488 2.20638e-05 -9.23757e-07
2.20638e-05 -3.50518e-05 -5.49863e-07
-9.23757e-07 -5.49863e-07 -9.00533e-05
0.00391707 -0.000124512 -0.000127156
-0.000124512 0.00200169 -5.52779e-06
-0.000127156 -5.52779e-06 0.00199651
0.000411938 -3.09225e-05 2.44209e-06
-3.09225e-05 -9.1501e-05 8.77718e-06
2.44209e-06 8.77718e-06 -0.000137395
0.00328005 -0.000146598 -4.09491e-06
-0.000146598 0.00162483 3.68176e-07
-4.09491e-06 3.68176e-07 0.00161757
0.00299198 -0.000136438 5.92809e-05
-0.000136438 0.00144724 2.51613e-06
5.92809e-05 2.51613e-06 0.00144261
0.00185233 0.000147278 2.2977e-07
0.000147278 -4.08476e-05 -8.8437e-07
2.2977e-07 -8.8437e-07 -8.46621e-05
0.00193074 4.60875e-05 1.54228e-05
4.60875e-05 0.000157025 1.50633e-06
1.54228e-05 1.50633e-06 0.000180716
0.0041925 1.03723e-05 -9.31628e-05
1.03723e-05 0.000732572 -1.27851e-05
-9.31628e-05 -1.27851e-05 0.000844507
0.00175201 0.00032796 -2.51804e-06
0.00032796 5.97844e-05 1.31179e-06
-2.51804e-06 1.31179e-06 -9.43516e-05
0.00179429 0.000400918 -1.39248e-06
0.000400918 0.000211491 -1.09318e-07
-1.39248e-06 -1.09318e-07 1.39755e-05
0.00151287 0.000394574 -1.45229e-05
0.000394574 0.000172506 -6.99483e-06
-1.45229e-05 -6.99483e-06 -4.51729e-05
0.00197836 0.000344204 2.55809e-06
0.000344204 0.000272492 8.77439e-07
2.55809e-06 8.77439e-07 9.5612e-05
0.00173925 0.0003673 -1.37336e-06
0.0003673 0.000250841 -2.3381e-06
-1.37336e-06 -2.3381e-06 4.30339e-05
0.00215762 0.00026755 1.40167e-06
0.00026755 0.000205639 1.07298e-06
1.40167e-06 1.07298e-06 0.000104666
0.00171205 0.000372983 -1.23166e-06
0.000372983 3.284e-05 7.91691e-07
-1.23166e-06 7.91691e-07 -0.000126883
0.00218332 0.00047343 -5.16222e-08
0.00047343 0.000415268 -5.69304e-07
-5.16222e-08 -5.69304e-07 0.000212858
0.00180054 0.000274976 -9.82053e-07
0.000274976 -1.69738e-06 2.50377e-08
-9.82053e-07 2.50377e-08 -0.000102726
0.00203647 0.000468023 1.76212e-05
0.000468023 0.000193345 1.52194e-06
1.76212e-05 1.52194e-06 2.74452e-05
0.00131389 0.000254923 -2.40054e-05
0.000254923 -8.7484e-05 -5.17314e-06
-2.40054e-05 -5.17314e-06 -0.000146137
0.0020099 4.90948e-05 -4.49288e-06
4.90948e-05 3.93787e-05 -3.04781e-07
-4.49288e-06 -3.04781e-07 1.70042e-05
0.00192579 5.0237e-05 -2.40061e-06
5.0237e-05 -2.87545e-07 3.44636e-07
-2.40061e-06 3.44636e-07 -1.65478e-05
0.00285723 -2.12667e-05 -3.90058e-05
-2.12667e-05 0.000832876 3.19695e-07
-3.90058e-05 3.19695e-07 0.000825019
0.0018844 -0.000165465 -7.90777e-06
-0.000165465 -8.30454e-05 -1.54988e-06
-7.90777e-06 -1.54988e-06 -4.73142e-05
0.00196997 -2.65702e-05 3.30314e-06
-2.65702e-05 -2.34623e-05 -4.80583e-07
3.30314e-06 -4.80583e-07 -3.24918e-05
0.00202738 -6.85489e-05 -3.85083e-07
-6.85489e-05 9.51211e-06 8.26175e-08
-3.85083e-07 8.26175e-08 7.22084e-06
0.00192114 -4.92076e-05 -2.15558e-06
-4.92076e-05 4.99643e-05 -1.11129e-07
-2.15558e-06 -1.11129e-07 1.76285e-05
0.00193371 -0.000181122 2.60589e-06
-0.000181122 2.43907e-05 -4.18481e-07
2.60589e-06 -4.18481e-07 -1.81659e-07
0.00190033 -0.000156372 3.963e-07
-0.000156372 3.99998e-05 -2.03511e-08
3.963e-07 -2.03511e-08 -1.14017e-05
0.00181452 -0.000122791 2.91373e-06
-0.000122791 7.21443e-05 -1.2978e-06
2.91373e-06 -1.2978e-06 -1.58e-05
0.00174218 -0.000208971 1.17458e-06
-0.000208971 2.92995e-05 -2.33349e-07
1.17458e-06 -2.33349e-07 -5.61756e-05
0.00181261 -0.000181575 -2.51933e-09
-0.000181575 9.47311e-05 -4.48555e-08
-2.51933e-09 -4.48555e-08 -6.71281e-06
0.00175684 -0.000164238 9.26062e-07
-0.000164238 0.000126469 -6.03809e-07
9.26062e-07 -6.03809e-07 -3.41606e-06
0.00181129 -0.000222956 -8.26425e-07
-0.000222956 0.000138512 4.93273e-07
-8.26425e-07 4.93273e-07 2.13553e-05
0.00170126 -0.000197248 -2.5052e-07
-0.000197248 0.000135253 -3.35365e-08
-2.5052e-07 -3.35365e-08 -6.90198e-06
0.00139484 -0.00014704 -4.05585e-06
-0.00014704 8.59291e-05 1.07441e-06
-4.05585e-06 1.07441e-06 -6.68949e-05
0.00167031 -0.000220296 -7.27723e-08
-0.000220296 0.000154627 7.31785e-07
-7.27723e-08 7.31785e-07 4.00295e-07
0.00136105 -0.000167622 -1.19526e-07
-0.000167622 8.66775e-05 9.03772e-08
-1.19526e-07 9.03772e-08 -7.15888e-05
0.000985418 -0.000118536 -1.30331e-05
-0.000118536 -1.04457e-05 4.8137e-06
-1.30331e-05 4.8137e-06 -0.000145608
0.00134617 -0.000185818 5.67295e-06
-0.000185818 9.66852e-05 -1.66319e-06
5.67295e-06 -1.66319e-06 -6.64771e-05
0.000995771 -0.000133781 1.68174e-07
-0.000133781 4.0109e-06 9.82865e-08
1.68174e-07 9.82865e-08 -0.00013273
0.0024588 -0.00011506 -3.56277e-05
-0.00011506 0.00101752 7.5102e-06
-3.56277e-05 7.5102e-06 0.000948312
0.000967191 -0.000149498 1.25887e-05
-0.000149498 2.79289e-06 -5.75311e-06
1.25887e-05 -5.75311e-06 -0.000138337
0.00256981 -0.000153002 3.68112e-05
-0.000153002 0.00109178 -4.56801e-06
3.68112e-05 -4.56801e-06 0.00102164
0.00174925 -8.49195e-05 -0.000179961
-8.49195e-05 0.000684709 2.30896e-05
-0.000179961 2.30896e-05 0.000665354
0.00354207 -1.31977e-05 -0.000177027
-1.31977e-05 0.00175808 1.07433e-05
-0.000177027 1.07433e-05 0.00174407
0.00265976 -0.000204659 0.000112101
-0.000204659 0.00114956 -1.51157e-05
0.000112101 -1.51157e-05 0.00108194
0.00554021 0.000103021 0.000176399
0.000103021 0.00295913 -1.72776e-05
0.000176399 -1.72776e-05 0.00294022
0.00205039 0.00028163 -1.66401e-06
0.00028163 0.000246317 -6.53458e-07
-1.66401e-06 -6.53458e-07 0.000105243
0.00155911 0.000253115 2.69023e-06
0.000253115 8.89974e-05 9.79315e-07
2.69023e-06 9.79315e-07 -7.98215e-05
0.00190129 0.00028221 4.20959e-07
0.00028221 0.000183007 -1.12666e-06
4.20959e-07 -1.12666e-06 3.16243e-05
0.00129332 0.000227275 -6.45128e-06
0.000227275 9.29085e-05 -1.33735e-06
-6.45128e-06 -1.33735e-06 -8.53803e-05
0.00167606 0.000307866 5.40197e-07
0.000307866 0.000204409 4.09134e-07
5.40197e-07 4.09134e-07 1.20259e-05
0.00172928 0.000333089 2.64626e-06
0.000333089 0.000337151 -6.81549e-07
2.64626e-06 -6.81549e-07 0.000123839
0.00119802 0.000230802 7.69097e-08
0.000230802 9.21756e-05 -4.07973e-08
7.69097e-08 -4.07973e-08 -9.43005e-05
0.000889259 0.000169805 -1.07666e-05
0.000169805 1.87963e-06 -5.62547e-06
-1.07666e-05 -5.62547e-06 -0.000151652
0.00114623 0.000228611 6.29362e-06
0.000228611 0.000130468 2.63712e-06
6.29362e-06 2.63712e-06 -6.44739e-05
0.000843315 0.000166828 -6.65907e-07
0.000166828 3.73906e-05 6.29106e-07
-6.65907e-07 6.29106e-07 -0.000122133
0.000657853 0.00016927 -2.15652e-05
0.00016927 1.76016e-06 -1.35946e-05
-2.15652e-05 -1.35946e-05 -8.74871e-05
0.000687126 0.000136037 3.59489e-06
0.000136037 2.89742e-05 5.76284e-06
3.59489e-06 5.76284e-06 -0.000124502
0.000547803 8.87174e-05 -7.68658e-07
8.87174e-05 -3.82322e-05 -4.17902e-08
-7.68658e-07 -4.17902e-08 -0.000109587
0.0047329 -0.000118759 -0.000159731
-0.000118759 0.00249051 -1.11066e-05
-0.000159731 -1.11066e-05 0.00247765
0.000348555 -3.50677e-06 4.73936e-06
-3.50677e-06 -0.000132553 1.01951e-05
4.73936e-06 1.01951e-05 -0.000187068
0.00374957 -0.000158852 -7.28179e-06
-0.000158852 0.00190988 4.87362e-07
-7.28179e-06 4.87362e-07 0.00189807
0.00319277 -0.000152634 6.80841e-05
-0.000152634 0.00157433 2.00264e-06
6.80841e-05 2.00264e-06 0.00156534
0.00188641 0.000157024 -8.3849e-07
0.000157024 -7.49212e-06 5.05906e-07
-8.3849e-07 5.05906e-07 -6.80688e-05
0.00183952 0.000146648 6.87837e-07
0.000146648 -4.71419e-05 -2.22588e-07
6.87837e-07 -2.22588e-07 -9.10059e-05
0.00292981 3.64564e-05 -6.2889e-05
3.64564e-05 0.000686484 -5.44538e-06
-6.2889e-05 -5.44538e-06 0.000709267
0.00200672 0.000238453 1.44904e-06
0.000238453 0.000152532 1.01439e-06
1.44904e-06 1.01439e-06 4.22197e-05
0.00175773 0.000323394 -5.81356e-07
0.000323394 7.83697e-05 2.89932e-07
-5.81356e-07 2.89932e-07 -7.51629e-05
0.00149107 0.000375867 -6.02855e-07
0.000375867 5.12567e-05 -2.25473e-06
-6.02855e-07 -2.25473e-06 -0.000144327
0.00201358 0.00033483 -7.39834e-07
0.00033483 0.000301884 -2.34902e-06
-7.39834e-07 -2.34902e-06 0.000127266
0.00201247 0.000258717 -1.12548e-06
0.000258717 0.000122404 -2.26473e-07
-1.12548e-06 -2.26473e-07 2.10992e-05
0.00159826 0.000366806 -5.62888e-07
0.000366806 -1.77862e-05 -2.52842e-07
-5.62888e-07 -2.52842e-07 -0.000178106
0.00180492 0.000277155 7.26257e-06
0.000277155 2.01728e-05 -5.69539e-07
7.26257e-06 -5.69539e-07 -8.20769e-05
0.00190813 4.54736e-05 -1.35041e-06
4.54736e-05 3.47819e-05 3.10678e-07
-1.35041e-06 3.10678e-07 -3.43601e-06
0.00197029 4.88711e-05 5.67059e-07
4.88711e-05 2.46256e-05 -2.01425e-08
5.67059e-07 -2.01425e-08 -2.09739e-07
0.00198299 6.04361e-05 -6.13153e-06
6.04361e-05 3.48561e-05 4.54326e-07
-6.13153e-06 4.54326e-07 1.704e-05
0.00157726 -1.06257e-05 -2.43364e-06
-1.06257e-05 -0.000105781 1.91888e-08
-2.43364e-06 1.91888e-08 -0.00015534
0.00199152 -7.71567e-05 4.5232e-06
-7.71567e-05 -2.62923e-05 -3.64225e-07
4.5232e-06 -3.64225e-07 -2.37724e-05
0.00189428 -5.16283e-05 -1.02485e-06
-5.16283e-05 3.29662e-05 5.1345e-07
-1.02485e-06 5.1345e-07 -1.71513e-08
0.00187268 -6.59362e-05 -5.58007e-07
-6.59362e-05 0.000102724 -7.85878e-07
-5.58007e-07 -7.85878e-07 2.71828e-05
0.0017574 -0.0001551 2.63948e-06
-0.0001551 -3.28408e-05 -3.26011e-07
2.63948e-06 -3.26011e-07 -8.99393e-05
0.00184469 -0.000123832 2.25267e-06
-0.000123832 8.26939e-05 -6.87619e-07
2.25267e-06 -6.87619e-07 -5.00199e-06
0.00180846 -0.000115654 2.39248e-06
-0.000115654 0.00013214 -1.3073e-06
2.39248e-06 -1.3073e-06 1.39642e-05
0.00187115 -0.000183148 -6.41728e-07
-0.000183148 0.000126038 3.38368e-07
-6.41728e-07 3.38368e-07 2.45965e-05
0.00176136 -0.000162711 -1.2169e-07
-0.000162711 0.000131343 -4.06088e-08
-1.2169e-07 -4.06088e-08 1.78202e-06
0.00143329 -0.000119498 -3.24333e-06
-0.000119498 8.39098e-05 5.77431e-07
-3.24333e-06 5.77431e-07 -6.15687e-05
0.00172216 -0.000197491 -6.89712e-07
-0.000197491 0.000147621 6.13063e-07
-6.89712e-07 6.13063e-07 5.72493e-06
0.00139225 -0.000146545 -1.38232e-07
-0.000146545 8.2013e-05 1.38734e-07
-1.38232e-07 1.38734e-07 -7.04709e-05
0.000994925 -0.000101021 -1.26723e-05
-0.000101021 -1.46931e-05 3.91069e-06
-1.26723e-05 3.91069e-06 -0.000147864
0.00136641 -0.000167655 4.56243e-06
-0.000167655 8.77499e-05 -1.29694e-06
4.56243e-06 -1.29694e-06 -7.01857e-05
0.00100392 -0.000116951 2.31192e-08
-0.000116951 -1.39982e-06 1.9586e-07
2.31192e-08 1.9586e-07 -0.00013587
0.00249607 -0.000124745 -4.34121e-05
-0.000124745 0.00103265 7.23207e-06
-4.34121e-05 7.23207e-06 0.000965784
0.00100005 -0.000132147 1.31721e-05
-0.000132147 5.10714e-06 -5.36648e-06
1.31721e-05 -5.36648e-06 -0.000131047
0.00256445 -0.00014666 3.35589e-05
-0.00014666 0.00107777 -3.84828e-06
3.35589e-05 -3.84828e-06 0.00101274
0.00180105 -7.41331e-05 -0.000176457
-7.41331e-05 0.000710123 2.07208e-05
-0.000176457 2.07208e-05 0.00069168
0.00271313 -0.000170948 0.000111575
-0.000170948 0.00117195 -1.71862e-05
0.000111575 -1.71862e-05 0.00110676
0.00152754 -2.15512e-05 -8.10978e-05
-2.15512e-05 0.000561105 8.95568e-06
-8.10978e-05 8.95568e-06 0.000532207
0.00527673 0.000185977 2.59989e-05
0.000185977 0.00279567 -2.41507e-06
2.59989e-05 -2.41507e-06 0.00276532
0.00185537 0.000228096 7.85052e-07
0.000228096 0.000116659 3.63057e-07
7.85052e-07 3.63057e-07 -1.34954e-05
0.00182368 0.00025055 -7.7543e-09
0.00025055 0.000200498 -6.14302e-07
-7.7543e-09 -6.14302e-07 4.54786e-05
0.001911 0.000275874 -3.27509e-06
0.000275874 0.000162254 7.08476e-08
-3.27509e-06 7.08476e-08 1.93424e-05
0.00168296 0.000224115 -3.79071e-06
0.000224115 0.00028906 -8.47935e-07
-3.79071e-06 -8.47935e-07 0.000122723
0.00159466 0.000260141 5.75069e-07
0.000260141 0.000103201 -1.18113e-06
5.75069e-07 -1.18113e-06 -6.42254e-05
0.00189205 0.00028195 -2.72499e-06
0.00028195 0.000174193 -3.30454e-06
-2.72499e-06 -3.30454e-06 2.68324e-05
0.000953977 0.000164076 -1.25843e-05
0.000164076 1.13145e-06 -5.42255e-06
-1.25843e-05 -5.42255e-06 -0.00014618
0.0012579 0.000224317 5.08661e-08
0.000224317 7.37005e-05 2.61145e-07
5.08661e-08 2.61145e-07 -0.000104355
0.00173607 0.00030962 2.8681e-06
0.00030962 0.000230966 -1.3538e-06
2.8681e-06 -1.3538e-06 3.79453e-05
0.00113968 0.000224186 7.30506e-06
0.000224186 6.35281e-05 2.02266e-06
7.30506e-06 2.02266e-06 -0.000121678
0.000890674 0.000169665 -3.69799e-07
0.000169665 2.01885e-06 -2.67122e-07
-3.69799e-07 -2.67122e-07 -0.000151316
0.000592663 0.000201164 -2.42456e-05
0.000201164 -5.14257e-05 -1.35157e-05
-2.42456e-05 -1.35157e-05 -0.0001451
0.000849905 0.000163805 8.05243e-06
0.000163805 3.87476e-05 5.88858e-06
8.05243e-06 5.88858e-06 -0.000120058
0.000571923 0.000161552 1.14201e-06
0.000161552 -4.52525e-05 5.01761e-07
1.14201e-06 5.01761e-07 -0.000133109
0.00538867 -0.000124443 -0.000167886
-0.000124443 0.0028976 -1.82131e-05
-0.000167886 -1.82131e-05 0.0028678
0.000373762 7.33975e-05 1.19259e-05
7.33975e-05 -0.000138367 1.24753e-05
1.19259e-05 1.24753e-05 -0.000205243
0.00446393 -0.00017349 -1.26877e-05
-0.00017349 0.002342 1.17879e-06
-1.26877e-05 1.17879e-06 0.0023218
0.00356053 -0.000172545 8.18326e-05
-0.000172545 0.00180075 2.07039e-06
8.18326e-05 2.07039e-06 0.00178584
0.00185239 0.00012726 -4.68416e-07
0.00012726 2.68346e-05 1.65642e-06
-4.68416e-07 1.65642e-06 -4.66087e-05
0.00191632 0.000160503 7.66337e-07
0.000160503 5.4869e-06 2.95796e-07
7.66337e-07 2.95796e-07 -5.30568e-05
0.00185214 0.000152098 6.45602e-07
0.000152098 -4.43948e-05 9.03196e-07
6.45602e-07 9.03196e-07 -8.97992e-05
0.00197544 0.000234247 3.21669e-07
0.000234247 0.000137576 -7.43594e-08
3.21669e-07 -7.43594e-08 2.9664e-05
0.00175004 0.000318135 -9.30737e-07
0.000318135 8.98912e-05 -1.06653e-06
-9.30737e-07 -1.06653e-06 -6.298e-05
0.00185103 0.000249057 -4.06601e-07
0.000249057 3.16641e-05 -1.09132e-06
-4.06601e-07 -1.09132e-06 -6.99084e-05
0.00183386 4.91797e-05 -4.75396e-07
4.91797e-05 5.14564e-05 2.62528e-08
-4.75396e-07 2.62528e-08 -5.6591e-06
0.00191131 4.37734e-05 5.0313e-07
4.37734e-05 3.84956e-05 -1.11672e-07
5.0313e-07 -1.11672e-07 2.60294e-07
0.00196502 4.94975e-05 3.58655e-06
4.94975e-05 3.26279e-05 4.55169e-07
3.58655e-06 4.55169e-07 5.22456e-06
0.00175772 -1.57475e-05 -2.44065e-06
-1.57475e-05 -1.99735e-07 4.85853e-08
-2.44065e-06 4.85853e-08 -4.86936e-05
0.00173992 -3.50578e-05 -9.82902e-08
-3.50578e-05 4.2032e-05 -5.26205e-07
-9.82902e-08 -5.26205e-07 -3.74991e-05
0.0018759 -5.39862e-05 9.80501e-07
-5.39862e-05 2.09481e-05 6.37301e-07
9.80501e-07 6.37301e-07 -1.25701e-05
0.00184904 -6.60737e-05 -1.26941e-06
-6.60737e-05 8.9202e-05 4.73432e-07
-1.26941e-06 4.73432e-07 9.80857e-06
0.00184288 -6.72981e-05 3.17577e-07
-6.72981e-05 0.00015282 -4.32791e-07
3.17577e-07 -4.32791e-07 4.70878e-05
0.00186499 -0.00012509 1.70644e-06
-0.00012509 8.78375e-05 -4.17563e-08
1.70644e-06 -4.17563e-08 3.19305e-07
0.00176871 -0.000116319 1.64486e-06
-0.000116319 0.000111462 -6.59594e-07
1.64486e-06 -6.59594e-07 -6.89909e-06
0.00145682 -8.30807e-05 -2.45583e-06
-8.30807e-05 7.49159e-05 3.63826e-09
-2.45583e-06 3.63826e-09 -6.27937e-05
0.0017544 -0.000162624 -9.81133e-07
-0.000162624 0.000128957 4.7775e-07
-9.81133e-07 4.7775e-07 -5.27422e-07
0.00142388 -0.000118954 -8.24269e-08
-0.000118954 7.49058e-05 7.91242e-08
-8.24269e-08 7.91242e-08 -7.03526e-05
0.000998129 -7.94054e-05 -1.23601e-05
-7.94054e-05 -2.29849e-05 2.99261e-06
-1.23601e-05 2.99261e-06 -0.000153034
0.00139513 -0.000146246 3.62403e-06
-0.000146246 8.09071e-05 -7.96139e-07
3.62403e-06 -7.96139e-07 -7.12329e-05
0.00100952 -9.90053e-05 -8.71281e-08
-9.90053e-05 -7.67228e-06 2.34238e-07
-8.71281e-08 2.34238e-07 -0.000140193
0.00248093 -0.00013865 -4.72058e-05
-0.00013865 0.0010203 6.57045e-06
-4.72058e-05 6.57045e-06 0.000952619
0.00102288 -0.00011543 1.30491e-05
-0.00011543 7.7339e-06 -4.52188e-06
1.30491e-05 -4.52188e-06 -0.000126021
0.00256078 -0.0001331 3.23012e-05
-0.0001331 0.00106752 -2.9314e-06
3.23012e-05 -2.9314e-06 0.00100477
0.00184219 -6.35176e-05 -0.00017649
-6.35176e-05 0.000728076 1.78259e-05
-0.00017649 1.78259e-05 0.000710131
0.00266897 -0.000147418 0.000110328
-0.000147418 0.00113446 -1.49897e-05
0.000110328 -1.49897e-05 0.0010748
0.00153796 -3.42694e-05 -7.37164e-05
-3.42694e-05 0.000559776 7.91469e-06
-7.37164e-05 7.91469e-06 0.000534032
0.00136007 -1.23144e-05 3.16561e-05
-1.23144e-05 0.000465853 -5.04318e-06
3.16561e-05 -5.04318e-06 0.000430567
0.00191739 0.000133898 -3.5488e-07
0.000133898 0.000129999 1.85899e-06
-3.5488e-07 1.85899e-06 3.20451e-05
0.00178125 0.00020949 -1.10524e-06
0.00020949 0.000143491 2.37072e-07
-1.10524e-06 2.37072e-07 -2.64485e-07
0.00184704 0.000228083 -7.62258e-07
0.000228083 0.000104982 -1.16641e-07
-7.62258e-07 -1.16641e-07 -2.21401e-05
0.00171461 0.000205761 -3.12813e-06
0.000205761 0.000267304 -5.94107e-07
-3.12813e-06 -5.94107e-07 0.00011098
0.00176581 0.000245758 5.20895e-07
0.000245758 0.000171687 1.79931e-08
5.20895e-07 1.79931e-08 1.56382e-05
0.00177368 0.000270365 3.94494e-07
0.000270365 7.99481e-05 1.1069e-07
3.94494e-07 1.1069e-07 -6.48741e-05
0.000992686 0.000150391 -1.34896e-05
0.000150391 -2.22065e-06 -5.0784e-06
-1.34896e-05 -5.0784e-06 -0.000142886
0.00148733 0.00021794 3.22665e-06
0.00021794 0.000171238 7.48919e-07
3.22665e-06 7.48919e-07 4.49138e-06
0.00163713 0.000267548 5.77324e-07
0.000267548 0.000121907 -1.85464e-06
5.77324e-07 -1.85464e-06 -4.41486e-05
0.000542383 0.000174104 -2.24527e-05
0.000174104 -9.08364e-05 -1.20779e-05
-2.24527e-05 -1.20779e-05 -0.000182511
0.000957961 0.000164618 -6.73584e-07
0.000164618 4.08741e-06 2.06525e-07
-6.73584e-07 2.06525e-07 -0.000143268
0.00123804 0.000222419 7.56021e-06
0.000222419 6.35238e-05 2.29868e-06
7.56021e-06 2.29868e-06 -0.00011443
0.00091033 0.000171 1.11116e-05
0.000171 1.28664e-05 5.30764e-06
1.11116e-05 5.30764e-06 -0.000140515
0.000551084 0.000184371 1.6543e-06
0.000184371 -7.20979e-05 4.70749e-07
1.6543e-06 4.70749e-07 -0.00016655
0.00567967 -3.87976e-05 -0.000183984
-3.87976e-05 0.0030481 -2.05735e-05
-0.000183984 -2.05735e-05 0.00302754
0.000461553 0.000152297 1.96353e-05
0.000152297 -0.000111162 1.36149e-05
1.96353e-05 1.36149e-05 -0.00019453
0.00518124 -0.000130484 -2.5546e-06
-0.000130484 0.00275586 -2.53264e-07
-2.5546e-06 -2.53264e-07 0.00273832
0.00418971 -0.000200955 0.000101024
-0.000200955 0.0021854 4.1394e-06
0.000101024 4.1394e-06 0.00216069
0.00175789 8.90912e-05 -1.85348e-06
8.90912e-05 1.74286e-05 1.0967e-06
-1.85348e-06 1.0967e-06 -5.13446e-05
0.00185225 0.000126779 1.1234e-06
0.000126779 3.09554e-05 7.32284e-07
1.1234e-06 7.32284e-07 -4.17017e-05
0.0019335 0.000164038 -2.61438e-07
0.000164038 9.26338e-06 -4.98714e-08
-2.61438e-07 -4.98714e-08 -4.71372e-05
0.00194923 0.000229799 1.28578e-06
0.000229799 0.000125387 -6.8926e-07
1.28578e-06 -6.8926e-07 1.99597e-05
0.00180653 -7.20871e-07 2.30053e-06
-7.20871e-07 8.76104e-05 -4.22021e-07
2.30053e-06 -4.22021e-07 6.01921e-06
0.00191332 4.29037e-05 7.27697e-07
4.29037e-05 9.09121e-05 -1.3177e-07
7.27697e-07 -1.3177e-07 3.68495e-05
0.00191295 4.20492e-05 2.49296e-06
4.20492e-05 4.19048e-05 1.37952e-07
2.49296e-06 1.37952e-07 3.85553e-06
0.0019179 -1.8676e-05 -2.49054e-06
-1.8676e-05 9.28221e-05 4.41185e-07
-2.49054e-06 4.41185e-07 4.53447e-05
0.0017315 -2.66875e-05 -2.02981e-06
-2.66875e-05 3.86396e-05 -2.98079e-07
-2.02981e-06 -2.98079e-07 -3.82362e-05
0.00179248 -2.94645e-05 2.05797e-06
-2.94645e-05 0.000134515 -5.35794e-07
2.05797e-06 -5.35794e-07 3.0104e-05
0.00182133 -6.61289e-05 -1.99652e-06
-6.61289e-05 7.25453e-05 1.20291e-06
-1.99652e-06 1.20291e-06 -1.07902e-05
0.00175563 -6.76083e-05 -2.53089e-07
-6.76083e-05 0.000104862 3.57948e-07
-2.53089e-07 3.57948e-07 -5.09372e-06
0.00152329 -4.83012e-05 -2.92442e-06
-4.83012e-05 9.92435e-05 2.55609e-08
-2.92442e-06 2.55609e-08 -2.84621e-05
0.00174256 -0.000115697 9.95647e-07
-0.000115697 9.8707e-05 -4.71777e-08
9.95647e-07 -4.71777e-08 -1.96083e-05
0.00144683 -8.1063e-05 4.62475e-07
-8.1063e-05 6.67587e-05 -2.00322e-07
4.62475e-07 -2.00322e-07 -7.05598e-05
0.000994782 -5.41401e-05 -1.22289e-05
-5.41401e-05 -3.30311e-05 2.22676e-06
-1.22289e-05 2.22676e-06 -0.000159801
0.0014169 -0.000116363 2.96527e-06
-0.000116363 6.77091e-05 -4.58429e-07
2.96527e-06 -4.58429e-07 -7.7065e-05
0.00100368 -7.85376e-05 -5.0649e-08
-7.85376e-05 -2.02879e-05 1.72263e-07
-5.0649e-08 1.72263e-07 -0.000150038
0.000603433 -7.80671e-05 -1.94105e-05
-7.80671e-05 -0.000105707 4.72443e-06
-1.94105e-05 4.72443e-06 -0.000179703
0.00102511 -9.70376e-05 1.25977e-05
-9.70376e-05 -7.77053e-08 -3.49964e-06
1.25977e-05 -3.49964e-06 -0.000131927
0.00158424 -8.80507e-05 4.49518e-05
-8.80507e-05 0.000480908 -2.89663e-06
4.49518e-05 -2.89663e-06 0.000414708
0.00553689 -0.000117358 -0.000224699
-0.000117358 0.00291539 1.38967e-05
-0.000224699 1.38967e-05 0.00292065
0.00264375 -0.000120206 0.000109523
-0.000120206 0.00110866 -1.21507e-05
0.000109523 -1.21507e-05 0.00105235
0.00155384 -4.62031e-05 -6.63602e-05
-4.62031e-05 0.000565113 5.52058e-06
-6.63602e-05 5.52058e-06 0.000539571
0.0012825 -5.5426e-05 4.276e-05
-5.5426e-05 0.00041959 -5.90866e-06
4.276e-05 -5.90866e-06 0.000384214
0.00190302 9.3233e-05 -6.62113e-08
9.3233e-05 0.000139464 1.76784e-06
-6.62113e-08 1.76784e-06 5.44814e-05
0.00184842 0.000144466 4.47823e-07
0.000144466 0.000167544 1.43871e-06
4.47823e-07 1.43871e-06 4.32779e-05
0.00196209 0.000131227 4.46708e-07
0.000131227 0.000163226 2.40446e-08
4.46708e-07 2.40446e-08 6.45672e-05
0.00148285 0.000164164 -3.72099e-06
0.000164164 9.48058e-05 -4.62128e-07
-3.72099e-06 -4.62128e-07 -5.36234e-05
0.00177384 0.000206524 3.40248e-07
0.000206524 0.000139103 9.7069e-10
3.40248e-07 9.7069e-10 -3.90518e-06
0.00183446 0.000228212 -8.57348e-09
0.000228212 9.002e-05 -3.54836e-07
-8.57348e-09 -3.54836e-07 -3.41447e-05
0.000705982 0.000116714 -1.52894e-05
0.000116714 -0.000188668 -4.65897e-06
-1.52894e-05 -4.65897e-06 -0.000324891
0.00173654 0.000207244 2.38815e-06
0.000207244 0.000280095 6.40103e-07
2.38815e-06 6.40103e-07 0.000123767
0.00170233 0.000240588 3.96233e-07
0.000240588 0.000139415 -2.5588e-07
3.96233e-07 -2.5588e-07 -1.764e-05
0.000513755 0.000129186 -1.946e-05
0.000129186 -0.000125525 -9.54921e-06
-1.946e-05 -9.54921e-06 -0.000210075
0.000809821 0.000141657 4.43336e-07
0.000141657 -0.000109249 2.52959e-07
4.43336e-07 2.52959e-07 -0.000250594
0.00128062 0.000211081 9.11579e-06
0.000211081 4.65926e-05 2.00176e-06
9.11579e-06 2.00176e-06 -0.000120463
0.00573733 4.69895e-05 -0.000197542
4.69895e-05 0.00305587 -1.9888e-05
-0.000197542 -1.9888e-05 0.0030479
0.000520995 0.000161002 1.21418e-06
0.000161002 -0.00010219 6.38228e-07
1.21418e-06 6.38228e-07 -0.000194703
0.00094837 0.000164428 1.24573e-05
0.000164428 -7.04538e-07 6.07933e-06
1.24573e-05 6.07933e-06 -0.00014806
0.000471752 0.000168484 2.05258e-05
0.000168484 -0.000113845 1.33307e-05
2.05258e-05 1.33307e-05 -0.000209519
0.00554292 -4.922e-05 8.47298e-06
-4.922e-05 0.00295756 -8.68838e-07
8.47298e-06 -8.68838e-07 0.00294427
0.00493796 -0.000184634 0.000133719
-0.000184634 0.0026209 7.06559e-06
0.000133719 7.06559e-06 0.00259708
0.00182222 6.21748e-05 -1.39061e-06
6.21748e-05 9.21979e-05 -7.0607e-07
-1.39061e-06 -7.0607e-07 1.06989e-05
0.00184661 9.01179e-05 2.28882e-07
9.01179e-05 6.8465e-05 5.1679e-07
2.28882e-07 5.1679e-07 -1.1753e-06
0.00184948 0.000126136 1.48069e-06
0.000126136 3.37345e-05 -1.44736e-08
1.48069e-06 -1.44736e-08 -3.82117e-05
0.00169178 4.34197e-06 2.40134e-06
4.34197e-06 6.65511e-05 -5.27959e-07
2.40134e-06 -5.27959e-07 -3.98474e-05
0.00174332 1.55885e-06 6.66294e-07
1.55885e-06 5.4955e-05 2.91512e-08
6.66294e-07 2.91512e-08 -2.51205e-05
0.00199603 3.54266e-05 7.96895e-07
3.54266e-05 0.000132535 -4.06403e-08
7.96895e-07 -4.06403e-08 8.13801e-05
0.00172715 -1.96343e-05 -2.74712e-06
-1.96343e-05 3.76952e-05 8.9926e-07
-2.74712e-06 8.9926e-07 -3.64228e-05
0.00176796 -2.49704e-05 9.65411e-07
-2.49704e-05 0.000119566 -1.14224e-07
9.65411e-07 -1.14224e-07 1.53902e-05
0.00173061 -1.83687e-05 -9.70538e-07
-1.83687e-05 0.00022011 -4.09671e-07
-9.70538e-07 -4.09671e-07 9.81807e-05
0.00166514 -6.79528e-05 -1.53577e-06
-6.79528e-05 5.54391e-05 1.03027e-06
-1.53577e-06 1.03027e-06 -5.87346e-05
0.00159045 -4.81848e-05 4.19293e-08
-4.81848e-05 0.000139689 6.60846e-08
4.19293e-08 6.60846e-08 1.07788e-05
0.000775629 -2.62034e-05 -1.38242e-05
-2.62034e-05 -0.00016781 1.41728e-06
-1.38242e-05 1.41728e-06 -0.00029284
0.00143097 -8.10909e-05 3.15908e-06
-8.10909e-05 5.51241e-05 -4.41144e-07
3.15908e-06 -4.41144e-07 -8.20731e-05
0.000998376 -5.10995e-05 -3.51991e-08
-5.10995e-05 -3.17713e-05 1.28123e-07
-3.51991e-08 1.28123e-07 -0.000158115
0.000605322 -2.0399e-05 -1.83121e-05
-2.0399e-05 -0.000108357 3.09061e-06
-1.83121e-05 3.09061e-06 -0.000181543
0.0010207 -7.6974e-05 1.22798e-05
-7.6974e-05 -1.1429e-05 -2.64517e-06
1.22798e-05 -2.64517e-06 -0.000140733
0.000608884 -6.1454e-05 -2.04153e-07
-6.1454e-05 -0.000100463 3.30211e-07
-2.04153e-07 3.30211e-07 -0.000175921
0.00555254 -1.18385e-05 -0.000215977
-1.18385e-05 0.00292125 8.46752e-06
-0.000215977 8.46752e-06 0.00292866
0.000636811 -6.57086e-05 1.60711e-05
-6.57086e-05 -8.20614e-05 -6.62879e-06
1.60711e-05 -6.62879e-06 -0.000159326
0.00349391 -7.7304e-05 0.000101419
-7.7304e-05 0.0017116 -3.58739e-06
0.000101419 -3.58739e-06 0.00169537
0.0012305 -7.12665e-05 4.88333e-05
-7.12665e-05 0.000390782 -6.46785e-06
4.88333e-05 -6.46785e-06 0.000352842
0.00180247 8.84005e-05 -6.33986e-07
8.84005e-05 0.000101993 1.41238e-07
-6.33986e-07 1.41238e-07 1.25044e-05
0.0017131 8.5997e-05 2.35399e-06
8.5997e-05 8.92214e-05 2.2256e-06
2.35399e-06 2.2256e-06 -2.48669e-05
0.00192907 9.07182e-05 -2.92012e-08
9.07182e-05 0.000156733 -3.66474e-07
-2.92012e-08 -3.66474e-07 7.26546e-05
0.00145545 0.000116629 -2.48292e-06
0.000116629 6.45036e-05 -1.97874e-07
-2.48292e-06 -1.97874e-07 -7.61306e-05
0.00181252 0.000143296 5.53804e-07
0.000143296 0.000142634 1.60673e-07
5.53804e-07 1.60673e-07 1.70694e-05
0.0020123 0.000128423 -1.51567e-07
0.000128423 0.000199764 -1.88429e-06
-1.51567e-07 -1.88429e-06 0.000100432
0.000751177 9.62269e-05 -1.45643e-05
9.62269e-05 -0.000177216 -3.52662e-06
-1.45643e-05 -3.52662e-06 -0.000308902
0.00160453 0.000166713 -2.20728e-07
0.000166713 0.000169008 1.7097e-07
-2.20728e-07 1.7097e-07 2.04507e-05
0.00176812 0.000203583 8.39215e-07
0.000203583 0.000136122 -4.61608e-07
8.39215e-07 -4.61608e-07 -6.13133e-06
0.000526846 9.16108e-05 -1.78969e-05
9.16108e-05 -0.000135671 -7.10829e-06
-1.78969e-05 -7.10829e-06 -0.00021384
0.000685936 0.000116233 -2.82266e-06
0.000116233 -0.00019973 -4.2104e-07
-2.82266e-06 -4.2104e-07 -0.000336191
0.00176249 0.000209173 8.09816e-06
0.000209173 0.000295293 1.98838e-06
8.09816e-06 1.98838e-06 0.000138888
0.00569224 0.000125228 -0.000215372
0.000125228 0.0030127 -1.8814e-05
-0.000215372 -1.8814e-05 0.00301289
0.00052045 0.000123222 4.15896e-07
0.000123222 -0.000122186 3.86678e-07
4.15896e-07 3.86678e-07 -0.000207208
0.000631522 0.000133485 1.32362e-05
0.000133485 -0.000213719 4.95721e-06
1.32362e-05 4.95721e-06 -0.000355817
0.00564 6.05467e-05 1.2397e-05
6.05467e-05 0.0029993 9.67778e-07
1.2397e-05 9.67778e-07 0.00299256
0.000483134 0.00014722 1.89447e-05
0.00014722 -0.000123089 1.19956e-05
1.89447e-05 1.19956e-05 -0.000216297
0.00541878 -8.09806e-05 0.000176228
-8.09806e-05 0.00287531 1.04857e-05
0.000176228 1.04857e-05 0.00286791
0.0017995 4.3905e-05 9.25231e-07
4.3905e-05 0.00012014 -6.08608e-07
9.25231e-07 -6.08608e-07 1.61238e-05
0.0017696 5.96357e-05 -1.63302e-06
5.96357e-05 6.67733e-05 4.75377e-07
-1.63302e-06 4.75377e-07 -1.63516e-05
0.00194074 9.08442e-05 1.33318e-06
9.08442e-05 0.00012245 4.66432e-08
1.33318e-06 4.66432e-08 5.20105e-05
0.00173691 -1.78253e-06 6.73534e-08
-1.78253e-06 0.000229082 -3.20351e-07
6.73534e-08 -3.20351e-07 0.000109109
0.00170194 2.45549e-06 2.13282e-07
2.45549e-06 7.13172e-05 1.32606e-08
2.13282e-07 1.32606e-08 -3.34228e-05
0.00168663 5.23406e-06 9.43967e-07
5.23406e-06 2.58085e-05 2.11176e-07
9.43967e-07 2.11176e-07 -5.27451e-05
0.00174646 -2.07256e-05 -3.10619e-07
-2.07256e-05 0.000106583 4.70191e-07
-3.10619e-07 4.70191e-07 2.60716e-06
0.00173812 -1.84986e-05 2.6493e-06
-1.84986e-05 0.000224121 -1.94375e-07
2.6493e-06 -1.94375e-07 0.000102206
0.00078985 -8.94175e-06 -1.33224e-05
-8.94175e-06 -0.000159712 5.59672e-07
-1.33224e-05 5.59672e-07 -0.000282032
0.0016605 -4.82177e-05 3.36925e-06
-4.82177e-05 0.00018179 2.92213e-08
3.36925e-06 2.92213e-08 5.16726e-05
0.000888527 -2.54783e-05 -2.32901e-06
-2.54783e-05 -0.000101739 2.31825e-07
-2.32901e-06 2.31825e-07 -0.00022608
0.00060964 -6.14749e-06 -1.85526e-05
-6.14749e-06 -0.000110019 2.0028e-06
-1.85526e-05 2.0028e-06 -0.000181924
0.0010063 -4.92409e-05 1.18626e-05
-4.92409e-05 -2.77065e-05 -1.94046e-06
1.18626e-05 -1.94046e-06 -0.000153731
0.000590301 -3.00497e-05 7.50801e-07
-3.00497e-05 -0.000118834 -3.75417e-08
7.50801e-07 -3.75417e-08 -0.000190775
0.00551367 -0.000109033 -0.000224969
-0.000109033 0.00290608 8.71739e-06
-0.000224969 8.71739e-06 0.00291044
0.000587717 -4.52224e-05 1.76817e-05
-4.52224e-05 -0.00011312 -3.71357e-06
1.76817e-05 -3.71357e-06 -0.00018831
0.00553229 -4.76736e-05 7.85614e-06
-4.76736e-05 0.00291027 -3.5467e-08
7.85614e-06 -3.5467e-08 0.00291779
0.00155617 -1.82861e-05 0.000182328
-1.82861e-05 0.000558789 -9.81307e-06
0.000182328 -9.81307e-06 0.000545173
0.00165719 6.43726e-05 2.42452e-06
6.43726e-05 5.33556e-05 3.92112e-07
2.42452e-06 3.92112e-07 -5.76751e-05
0.00178581 9.25642e-05 -3.09027e-06
9.25642e-05 8.52282e-05 -6.21381e-07
-3.09027e-06 -6.21381e-07 -1.65388e-06
0.0014594 7.04326e-05 -1.62326e-06
7.04326e-05 6.62479e-05 1.10489e-07
-1.62326e-06 1.10489e-07 -6.60914e-05
0.00171947 8.48574e-05 5.97876e-07
8.48574e-05 9.26805e-05 1.53216e-07
5.97876e-07 1.53216e-07 -2.14846e-05
0.0019485 8.83422e-05 -9.14935e-07
8.83422e-05 0.000169912 -2.9419e-06
-9.14935e-07 -2.9419e-06 8.67258e-05
0.00104691 7.58687e-05 -1.23635e-05
7.58687e-05 -9.54807e-06 -2.38603e-06
-1.23635e-05 -2.38603e-06 -0.0001345
0.001455 0.000116503 7.07558e-08
0.000116503 6.53737e-05 7.29748e-08
7.07558e-08 7.29748e-08 -7.5431e-05
0.00177275 0.000142013 8.53962e-08
0.000142013 0.000115516 -8.72355e-07
8.53962e-08 -8.72355e-07 -1.13488e-05
0.000554751 6.47448e-05 -1.74271e-05
6.47448e-05 -0.000132392 -5.13723e-06
-1.74271e-05 -5.13723e-06 -0.000207167
0.000861186 0.000100787 -3.11252e-06
0.000100787 -0.00011148 -3.22889e-07
-3.11252e-06 -3.22889e-07 -0.000242701
0.00172984 0.000169178 4.56541e-06
0.000169178 0.00024551 1.15748e-06
4.56541e-06 1.15748e-06 9.68542e-05
0.0056437 0.000172179 -0.000233866
0.000172179 0.00298389 -1.8132e-05
-0.000233866 -1.8132e-05 0.00298403
0.000546424 9.05289e-05 2.5719e-08
9.05289e-05 -0.000125063 1.45975e-07
2.5719e-08 1.45975e-07 -0.000203376
0.000664668 0.000115749 9.36237e-06
0.000115749 -0.000211741 3.59532e-06
9.36237e-06 3.59532e-06 -0.000348391
0.0056369 0.000145249 1.06392e-05
0.000145249 0.00298884 2.63263e-06
1.06392e-05 2.63263e-06 0.00298518
0.000531263 0.000115838 1.8164e-05
0.000115838 -0.000117078 9.55434e-06
1.8164e-05 9.55434e-06 -0.00020212
0.00556801 5.50991e-05 0.000203272
5.50991e-05 0.00294612 1.56902e-05
0.000203272 1.56902e-05 0.00294705
0.00172209 2.97221e-05 5.77911e-07
2.97221e-05 0.000223699 -1.26422e-07
5.77911e-07 -1.26422e-07 0.000103585
0.00175721 3.94431e-05 -1.16267e-06
3.94431e-05 9.83262e-05 9.82347e-08
-1.16267e-06 9.82347e-08 -7.06177e-06
0.00171577 5.68067e-05 -1.6068e-06
5.68067e-05 4.13011e-05 5.75143e-07
-1.6068e-06 5.75143e-07 -4.34124e-05
0.000785305 -7.88473e-06 -1.38065e-05
-7.88473e-06 -0.000156951 -1.45151e-07
-1.38065e-05 -1.45151e-07 -0.000277769
0.00174182 4.097e-06 3.0273e-06
4.097e-06 0.000231899 -1.69519e-07
3.0273e-06 -1.69519e-07 0.000111888
0.00170757 4.28898e-07 -1.18356e-06
4.28898e-07 7.34661e-05 4.43035e-07
-1.18356e-06 4.43035e-07 -2.96014e-05
0.00174994 -1.89822e-05 6.09304e-06
-1.89822e-05 0.000230667 2.61469e-09
6.09304e-06 2.61469e-09 0.000108765
0.000781059 -9.08496e-06 -1.778e-06
-9.08496e-06 -0.000165677 1.006e-07
-1.778e-06 1.006e-07 -0.000288213
0.000610985 -2.75286e-05 -1.88803e-05
-2.75286e-05 -0.000110275 7.42499e-07
-1.88803e-05 7.42499e-07 -0.000180288
0.000985743 -2.39471e-05 1.00334e-05
-2.39471e-05 -4.47601e-05 -1.16065e-06
1.00334e-05 -1.16065e-06 -0.000168428
0.000590574 4.50893e-06 3.06274e-07
4.50893e-06 -0.000121486 8.54068e-08
3.06274e-07 8.54068e-08 -0.000192826
0.00555073 -8.65287e-05 -0.000231998
-8.65287e-05 0.00292559 6.10816e-06
-0.000231998 6.10816e-06 0.00293202
0.000600231 -3.20569e-05 1.84335e-05
-3.20569e-05 -0.000111556 -2.50242e-06
1.84335e-05 -2.50242e-06 -0.000184547
0.00554705 -2.53713e-06 -3.01994e-06
-2.53713e-06 0.00291721 1.47601e-06
-3.01994e-06 1.47601e-06 0.00292655
0.00553978 -6.65995e-05 0.000225099
-6.65995e-05 0.00291313 -7.79258e-06
0.000225099 -7.79258e-06 0.00292192
0.00143732 4.35658e-05 -1.54111e-06
4.35658e-05 5.88207e-05 -3.77266e-08
-1.54111e-06 -3.77266e-08 -6.95228e-05
0.00171456 6.76341e-05 -1.24193e-06
6.76341e-05 8.56848e-05 -1.2066e-06
-1.24193e-06 -1.2066e-06 -2.14335e-05
0.00177638 9.71472e-05 -4.34987e-06
9.71472e-05 7.27923e-05 -1.15896e-06
-4.34987e-06 -1.15896e-06 -1.15132e-05
0.0010482 4.3211e-05 -1.21576e-05
4.3211e-05 -8.28663e-06 -1.80954e-06
-1.21576e-05 -1.80954e-06 -0.000129006
0.00144577 7.04071e-05 1.74263e-07
7.04071e-05 5.78584e-05 3.29059e-08
1.74263e-07 3.29059e-08 -7.48713e-05
0.00172523 8.36166e-05 -1.07764e-06
8.36166e-05 9.62008e-05 -1.72764e-06
-1.07764e-06 -1.72764e-06 -1.80343e-05
0.000581046 4.00676e-05 -1.70287e-05
4.00676e-05 -0.000122978 -3.73433e-06
-1.70287e-05 -3.73433e-06 -0.000195822
0.00101634 7.70325e-05 2.13674e-07
7.70325e-05 -2.67927e-05 2.21421e-07
2.13674e-07 2.21421e-07 -0.000152231
0.00145539 0.000116419 3.08165e-06
0.000116419 6.64129e-05 4.14632e-07
3.08165e-06 4.14632e-07 -7.45741e-05
0.0055851 0.000167458 -0.000245837
0.000167458 0.0029516 -1.57683e-05
-0.000245837 -1.57683e-05 0.00295221
0.000578216 6.72658e-05 3.22482e-07
6.72658e-05 -0.000118602 1.61702e-07
3.22482e-07 1.61702e-07 -0.0001938
0.000968475 0.000105305 9.40236e-06
0.000105305 -4.74995e-05 3.01463e-06
9.40236e-06 3.01463e-06 -0.000178217
0.0056234 0.000185785 6.08004e-06
0.000185785 0.00297868 2.54484e-06
6.08004e-06 2.54484e-06 0.00297607
0.000568997 9.05464e-05 1.74444e-05
9.05464e-05 -0.000112165 7.39825e-06
1.74444e-05 7.39825e-06 -0.000190718
0.00561327 0.000167089 0.000222635
0.000167089 0.00297435 2.04468e-05
0.000222635 2.04468e-05 0.00297163
0.00102237 1.34552e-05 -1.28438e-05
1.34552e-05 -1.52033e-05 -7.74875e-07
-1.28438e-05 -7.74875e-07 -0.000133746
0.00160059 2.53607e-05 3.44567e-06
2.53607e-05 0.000153068 1.06745e-07
3.44567e-06 1.06745e-07 3.22144e-05
0.00171599 3.42435e-05 -3.44508e-06
3.42435e-05 7.68516e-05 2.37566e-07
-3.44508e-06 2.37566e-07 -2.99231e-05
0.000637691 2.94166e-05 -1.93488e-05
2.94166e-05 -0.000101596 -4.42503e-07
-1.93488e-05 -4.42503e-07 -0.000164764
0.000763711 -2.43396e-06 -1.99791e-06
-2.43396e-06 -0.000170363 6.91482e-08
-1.99791e-06 6.91482e-08 -0.000291337
0.00174446 1.02171e-05 6.05476e-06
1.02171e-05 0.000233377 1.24081e-07
6.05476e-06 1.24081e-07 0.000113311
0.000769093 -8.87134e-06 9.81904e-06
-8.87134e-06 -0.00017359 -3.8667e-07
9.81904e-06 -3.8667e-07 -0.000296324
0.000604329 -4.05519e-06 2.50655e-07
-4.05519e-06 -0.000114042 2.97047e-07
2.50655e-07 2.97047e-07 -0.000184161
0.00552816 4.20823e-05 -0.000237851
4.20823e-05 0.00290851 -6.16103e-07
-0.000237851 -6.16103e-07 0.00291838
0.000567823 1.54254e-05 1.79716e-05
1.54254e-05 -0.000135599 -1.17122e-06
1.79716e-05 -1.17122e-06 -0.000206089
0.00553424 -8.54447e-05 -7.83951e-06
-8.54447e-05 0.00291655 1.4955e-06
-7.83951e-06 1.4955e-06 0.00292266
0.00551837 1.76426e-05 0.000216871
1.76426e-05 0.00290074 -3.44484e-06
0.000216871 -3.44484e-06 0.0029097
0.00103037 2.30497e-05 -1.26339e-05
2.30497e-05 -1.3864e-05 -1.36515e-06
-1.26339e-05 -1.36515e-06 -0.000132642
0.00143936 4.31584e-05 -1.36149e-07
4.31584e-05 5.91921e-05 -9.45341e-08
-1.36149e-07 -9.45341e-08 -6.71103e-05
0.00177364 7.06674e-05 -4.18361e-06
7.06674e-05 0.000118757 -1.87247e-06
-4.18361e-06 -1.87247e-06 1.55667e-05
0.00261765 4.78516e-05 -0.000114928
4.78516e-05 0.00107646 -3.60583e-06
-0.000114928 -3.60583e-06 0.00102839
0.00102017 4.51259e-05 2.39028e-07
4.51259e-05 -2.50521e-05 1.38259e-07
2.39028e-07 1.38259e-07 -0.000146105
0.00143309 7.03211e-05 2.69537e-06
7.03211e-05 4.99679e-05 8.58787e-08
2.69537e-06 8.58787e-08 -8.31606e-05
0.00552863 0.000134581 -0.000248385
0.000134581 0.00291706 -1.18195e-05
-0.000248385 -1.18195e-05 0.00292065
0.000613773 5.62091e-05 8.03778e-07
5.62091e-05 -0.000101964 3.20217e-07
8.03778e-07 3.20217e-07 -0.000176224
0.00099042 7.83608e-05 1.22589e-05
7.83608e-05 -4.12968e-05 2.78881e-06
1.22589e-05 2.78881e-06 -0.000167201
0.00561906 0.000179355 1.67439e-06
0.000179355 0.00297385 1.65397e-06
1.67439e-06 1.65397e-06 0.00297337
0.000612134 7.22464e-05 1.77863e-05
7.22464e-05 -9.77014e-05 5.89628e-06
1.77863e-05 5.89628e-06 -0.000173862
0.00560653 0.000211589 0.000234406
0.000211589 0.00297626 2.19572e-05
0.000234406 2.19572e-05 0.00296976
0.000681861 9.06738e-06 -1.63594e-05
9.06738e-06 -6.52236e-05 -1.78916e-06
-1.63594e-05 -1.78916e-06 -0.000136064
0.00088352 1.15326e-05 6.65635e-07
1.15326e-05 -9.6881e-05 2.38694e-07
6.65635e-07 2.38694e-07 -0.000216367
0.00147577 2.06509e-05 5.52877e-06
2.06509e-05 8.03969e-05 1.55367e-07
5.52877e-06 1.55367e-07 -4.11639e-05
0.00540664 -9.30668e-05 -0.000221618
-9.30668e-05 0.0028532 7.5078e-07
-0.000221618 7.5078e-07 0.00285348
0.000600239 7.82232e-06 -4.90139e-07
7.82232e-06 -0.000118693 1.73603e-07
-4.90139e-07 1.73603e-07 -0.000184585
0.00075398 2.57032e-06 9.66106e-06
2.57032e-06 -0.000177011 1.56937e-07
9.66106e-06 1.56937e-07 -0.000298103
0.000566926 2.06444e-05 1.82049e-05
2.06444e-05 -0.000136317 1.48336e-07
1.82049e-05 1.48336e-07 -0.000205896
0.00548501 6.32883e-06 2.56519e-06
6.32883e-06 0.00288741 -7.88135e-07
2.56519e-06 -7.88135e-07 0.00289406
0.00554646 1.12374e-06 0.000226384
1.12374e-06 0.00291481 -1.59395e-06
0.000226384 -1.59395e-06 0.00292533
0.00268087 6.46495e-06 -0.000111866
6.46495e-06 0.00111046 -2.27303e-06
-0.000111866 -2.27303e-06 0.0010636
0.00102779 2.58455e-05 4.47028e-08
2.58455e-05 -1.64999e-05 9.97901e-08
4.47028e-08 9.97901e-08 -0.000135489
0.00143639 4.29005e-05 2.44687e-06
4.29005e-05 5.68022e-05 -1.15539e-07
2.44687e-06 -1.15539e-07 -6.74594e-05
0.00514724 -5.95274e-05 -7.39408e-05
-5.95274e-05 0.00270334 4.21832e-07
-7.39408e-05 4.21832e-07 0.00268909
0.000628615 4.84651e-05 5.07277e-08
4.84651e-05 -9.52731e-05 2.21811e-07
5.07277e-08 2.21811e-07 -0.00016711
0.00100816 4.75529e-05 1.20847e-05
4.75529e-05 -3.29566e-05 2.12755e-06
1.20847e-05 2.12755e-06 -0.000154288
0.00557553 0.000103944 -1.09444e-05
0.000103944 0.00294014 -1.07552e-06
-1.09444e-05 -1.07552e-06 0.00294554
0.000643375 7.78141e-05 1.92625e-05
7.78141e-05 -8.39594e-05 4.91614e-06
1.92625e-05 4.91614e-06 -0.000158823
0.00562693 0.000203497 0.000244829
0.000203497 0.00298578 2.0387e-05
0.000244829 2.0387e-05 0.00298178
0.00166784 -4.90081e-05 -0.000189241
-4.90081e-05 0.000619245 6.51611e-07
-0.000189241 6.51611e-07 0.000609851
0.00165168 2.49048e-05 -4.651e-05
2.49048e-05 0.000500739 2.04719e-07
-4.651e-05 2.04719e-07 0.000446171
0.000744249 1.1994e-05 1.24218e-05
1.1994e-05 -0.000178626 9.46847e-07
1.24218e-05 9.46847e-07 -0.00029911
0.00546055 -3.96335e-05 7.89831e-06
-3.96335e-05 0.00287968 1.15598e-06
7.89831e-06 1.15598e-06 0.00288402
0.000615046 -1.2121e-05 1.86969e-05
-1.2121e-05 -0.000105172 8.62095e-07
1.86969e-05 8.62095e-07 -0.000174011
0.00551627 -6.19416e-05 0.000241045
-6.19416e-05 0.00290661 -1.85397e-06
0.000241045 -1.85397e-06 0.00291393
0.00126758 6.55929e-06 -3.61963e-05
6.55929e-06 0.000406408 -6.54835e-07
-3.61963e-05 -6.54835e-07 0.000372442
0.00164244 1.20404e-05 -4.68744e-05
1.20404e-05 0.0004991 -5.72996e-07
-4.68744e-05 -5.72996e-07 0.000441494
0.0010139 2.72344e-05 1.23431e-05
2.72344e-05 -2.5405e-05 1.60969e-06
1.23431e-05 1.60969e-06 -0.000144634
0.00340565 4.76717e-05 8.84859e-05
4.76717e-05 0.00165897 2.04286e-06
8.84859e-05 2.04286e-06 0.00164718
0.000635511 5.79663e-05 1.94545e-05
5.79663e-05 -9.09441e-05 3.83761e-06
1.94545e-05 3.83761e-06 -0.000162952
0.00562003 9.44875e-05 0.000234041
9.44875e-05 0.00296137 1.24487e-05
0.000234041 1.24487e-05 0.00296947
0.0054069 -2.24847e-05 -8.88634e-06
-2.24847e-05 0.00285059 -1.78247e-06
-8.88634e-06 -1.78247e-06 0.00285418
0.000616889 4.21239e-05 2.00378e-05
4.21239e-05 -0.000111438 1.925e-06
2.00378e-05 1.925e-06 -0.000174527
0.00538153 5.13629e-05 0.000227426
5.13629e-05 0.00283025 -4.18926e-08
0.000227426 -4.18926e-08 0.00283731
0.00335606 2.61602e-05 0.000102295
2.61602e-05 0.00163382 3.02028e-06
0.000102295 3.02028e-06 0.00162211
0.000646813 4.67151e-06 1.87141e-05
4.67151e-06 -8.62354e-05 2.63076e-06
1.87141e-05 2.63076e-06 -0.000155308
0.00552342 -2.81477e-05 0.000225716
-2.81477e-05 0.00290728 5.5541e-06
0.000225716 5.5541e-06 0.00291452
0.00543606 -0.000128329 0.000223236
-0.000128329 0.00287361 -2.75857e-06
0.000223236 -2.75857e-06 0.00287224
0.0054238 -1.28891e-05 0.000222501
-1.28891e-05 0.00284631 2.8468e-06
0.000222501 2.8468e-06 0.00285684
