# vtk DataFile Version 2.0
Wound Healing Simulation
ASCII
DATASET UNSTRUCTURED_GRID
POINTS 3012 float
69.9759 18.75 4
67.2507 60.3285 4
69.976 18.75 2
73.0099 25.446 4
71.1327 20.9142 4
68.6801 16.6661 4
67.8272 19.9257 3.98603
67.2507 60.3286 2
71.1327 54.0858 4
68.6801 58.3339 4
65.6939 62.2254 4
65.3137 59.003 3.98707
74.6784 42.3946 4
73.7221 47.2057 4
69.9759 18.75 0
73.0099 25.446 2
68.6801 16.6661 2
71.1327 20.9142 2
67.8277 19.9279 2
74.6792 32.6053 4
73.7222 27.7943 4
72.1454 23.1494 4
70.6153 26.2219 3.98518
68.8872 21.9587 3.98575
67.2507 14.6715 4
66.6388 17.9705 3.98666
65.8012 21.0236 3.97943
67.2507 60.3285 0
71.1327 54.0858 2
68.6801 58.3339 2
65.694 62.2255 2
65.3146 59.0016 2
72.1454 51.8506 4
69.9759 56.25 4
68.8377 53.1128 3.98509
64.0165 64.0165 4
66.6123 57.135 3.9867
63.8872 60.7678 3.98868
63.504 57.7762 3.98163
60.3285 67.2507 4
74.6792 42.3947 2
73.7222 47.2057 2
74.9194 39.9526 4
74.2788 44.8158 4
72.1688 42.0857 3.98334
73.0099 49.554 4
71.2503 46.598 3.98452
73.0099 25.446 0
71.1327 20.9142 0
68.6801 16.6661 0
67.8272 19.9257 0.0139668
74.6792 32.6053 2
73.7222 27.7943 2
67.2508 14.6715 2
72.1455 23.1494 2
70.6153 26.2225 2
66.6396 17.9722 2
68.8875 21.9606 2
65.801 21.0233 2
74.9197 35.0474 4
74.2794 30.1841 4
72.1854 32.9434 3.98372
71.2793 28.4319 3.98502
69.8168 24.0607 3.98535
68.3495 26.9516 3.97648
66.7659 22.9329 3.97787
65.694 12.7746 4
65.3254 16.1013 3.98786
64.7182 19.1913 3.98103
63.8923 22.0324 3.97561
71.1327 54.0858 0
65.6939 62.2254 0
68.6801 58.3339 0
65.3137 59.003 0.0129254
72.1455 51.8506 2
69.9759 56.25 2
68.838 53.1107 2
64.0165 64.0165 2
66.6131 57.133 2
63.8879 60.7671 2
63.5042 57.7771 2
62.2254 65.694 4
58.8951 65.4153 3.99254
69.7701 50.9883 3.98473
67.7852 55.1678 3.98585
66.6525 52.2102 3.97711
62.3374 62.429 3.99048
64.6649 56.0351 3.9812
62.2057 59.4097 3.9826
61.8281 56.6879 3.97848
58.3339 68.6801 4
60.3285 67.2508 2
73.7221 47.2057 0
74.6784 42.3946 0
74.9197 39.9526 2
74.2794 44.8159 2
72.1686 42.0856 2
73.0099 49.554 2
71.2503 46.5976 2
75 37.5 4
72.4059 39.8023 3.98307
71.7833 44.353 3.984
69.8057 41.7901 3.97467
70.5762 48.8131 3.98464
68.9148 46.0156 3.97577
74.6792 32.6053 0
73.7222 27.7943 0
67.2507 14.6715 0
72.1454 23.1494 0
70.6153 26.2219 0.014816
68.8872 21.9587 0.0142462
66.6388 17.9705 0.0133367
65.8012 21.0236 0.0205697
74.9197 35.0474 2
74.2794 30.1841 2
72.1852 32.9434 2
71.2793 28.432 2
65.694 12.7745 2
65.3262 16.1022 2
69.8169 24.062 2
68.3494 26.9518 2
64.7183 19.1905 2
66.7656 22.9329 2
63.8922 22.0318 2
72.4137 35.2242 3.98309
71.8047 30.6765 3.9844
69.8417 33.2683 3.97511
68.969 29.0381 3.97649
67.614 24.9123 3.97669
66.1978 27.6339 3.97323
64.0165 10.9835 4
64.7606 23.8287 3.9741
63.8915 14.325 3.98918
63.5173 17.4415 3.98288
62.913 20.3152 3.97702
62.0982 22.9394 3.97351
60.6849 11.096 3.99125
57.6133 11.4421 3.98585
72.1454 51.8506 0
69.9759 56.25 0
68.8377 53.1128 0.0149086
64.0165 64.0165 0
63.8872 60.7678 0.0113235
66.6123 57.135 0.0132964
63.504 57.7762 0.0183744
62.2255 65.694 2
58.8955 65.4153 2
69.7702 50.9869 2
67.7858 55.1655 2
66.6522 52.21 2
62.338 62.4287 2
64.665 56.0358 2
62.2058 59.4106 2
61.8283 56.6889 2
60.6697 63.9783 3.99165
57.0257 66.7361 3.99315
57.559 63.6958 3.98699
67.5099 50.1773 3.97589
65.7057 54.1753 3.97904
64.5411 51.3876 3.973
60.775 60.943 3.98392
62.8259 55.0734 3.97817
60.6623 58.1669 3.97888
60.3336 55.7935 3.97742
56.25 69.9759 4
58.3339 68.6801 2
60.3285 67.2507 0
58.922 9.65435 3.99198
62.2254 9.30607 4
73.0099 49.554 0
74.2788 44.8158 0
71.2503 46.598 0.0154752
72.1688 42.0857 0.0166562
74.9194 39.9526 0
75 37.5 2
72.4058 39.8024 2
71.7833 44.3527 2
69.8055 41.79 2
70.5762 48.8123 2
68.9148 46.0153 2
72.4892 37.5121 3.98292
70.0423 39.6577 3.97394
69.4325 43.9081 3.97533
67.5993 41.4986 3.97119
68.2684 48.1078 3.97575
66.7131 45.4418 3.9724
74.9197 35.0474 0
74.2794 30.1841 0
72.1854 32.9434 0.0162778
71.2793 28.4319 0.0149805
65.694 12.7746 0
65.3254 16.1013 0.0121424
69.8168 24.0607 0.0146453
68.3495 26.9516 0.0235181
66.7659 22.9329 0.0221269
64.7182 19.1913 0.0189675
63.8923 22.0324 0.0243905
72.4136 35.2241 2
71.8048 30.6765 2
69.8416 33.2685 2
68.969 29.0382 2
64.0165 10.9835 2
63.8921 14.3255 2
63.5176 17.4405 2
67.6137 24.9124 2
66.1977 27.6338 2
62.9132 20.3143 2
64.7604 23.8284 2
62.0982 22.939 2
60.6853 11.0964 2
57.6135 11.4413 2
70.059 35.392 3.97416
69.4693 31.1494 3.97572
67.6576 33.5905 3.9716
66.7758 29.6218 3.9729
65.5271 25.6987 3.97321
64.1498 28.2541 3.9725
62.3427 12.6531 3.99025
62.8606 24.6353 3.97204
62.202 15.7788 3.98385
61.8195 18.6775 3.97914
61.2239 21.3358 3.97445
60.4304 23.7233 3.97292
59.2475 12.7735 3.98425
55.8752 10.2288 3.98732
56.4064 13.1057 3.98262
69.7701 50.9883 0.015275
62.2254 65.694 0
58.8951 65.4153 0.00745652
67.7852 55.1678 0.0141484
66.6525 52.2102 0.0228893
62.3374 62.429 0.00951931
62.2057 59.4097 0.0174048
64.6649 56.0351 0.0188033
61.8281 56.6879 0.0215241
60.6702 63.9781 2
57.026 66.7362 2
57.559 63.6967 2
67.5097 50.1769 2
65.7056 54.1756 2
64.5409 51.3879 2
60.7752 60.944 2
62.826 55.0744 2
60.6625 58.1679 2
60.3338 55.7943 2
55.0711 67.9331 3.99342
59.2207 62.3707 3.98492
55.8057 64.9135 3.98888
56.3283 62.0963 3.98348
65.3344 49.41 3.972
63.7107 53.2959 3.97508
62.4445 50.6553 3.97089
59.336 59.5644 3.98127
61.083 54.3157 3.97704
59.2934 57.0206 3.97603
59.2478 55.1907 3.97858
48.1036 68.5812 3.99007
50.9488 69.9327 3.99381
54.0858 71.1327 4
56.25 69.976 2
58.3339 68.6801 0
57.0591 8.33437 3.9923
60.3285 7.74928 4
58.9225 9.65451 2
62.2255 9.30602 2
70.5762 48.8131 0.0153597
71.7833 44.353 0.0160009
68.9148 46.0156 0.0242262
69.8057 41.7901 0.0253338
72.4059 39.8023 0.0169266
75 37.5 0
72.489 37.5121 2
70.0423 39.6576 2
69.4325 43.908 2
67.5992 41.4987 2
68.2683 48.1074 2
66.713 45.4418 2
70.1303 37.5217 3.97401
67.8358 39.513 3.97053
67.2263 43.4714 3.97173
65.5581 41.2114 3.97044
66.0717 47.4198 3.97252
64.6558 44.8512 3.97122
72.4137 35.2242 0.01691
71.8047 30.6765 0.0155951
69.8417 33.2683 0.024886
68.969 29.0381 0.0235141
64.0165 10.9835 0
63.8915 14.325 0.0108239
63.5173 17.4415 0.0171217
67.614 24.9123 0.023313
66.1978 27.6339 0.0267665
64.7606 23.8287 0.0258988
62.913 20.3152 0.022977
62.0982 22.9394 0.0264919
60.6849 11.096 0.00875478
57.6133 11.4421 0.0141527
70.059 35.3922 2
69.4694 31.1495 2
67.6575 33.5905 2
66.7759 29.6217 2
62.3432 12.6536 2
62.202 15.7782 2
61.8197 18.6764 2
65.5269 25.6986 2
64.1497 28.2539 2
61.2241 21.3351 2
62.8604 24.635 2
60.4304 23.7229 2
59.2475 12.773 2
56.4064 13.1048 2
55.8752 10.228 2
67.8719 35.5475 3.97081
67.2681 31.6217 3.97204
65.7 33.9268 3.97073
64.6668 30.1905 3.97142
63.541 26.4131 3.97195
62.261 28.7756 3.97243
60.7771 14.2181 3.98391
61.0476 25.3354 3.97143
60.6169 17.1199 3.9812
60.2286 19.8086 3.97659
59.6667 22.2525 3.97257
58.9819 24.3156 3.97341
54.0382 9.13204 3.98801
57.9118 14.3245 3.98227
54.7876 12.0049 3.984
55.3137 14.6371 3.98114
67.5099 50.1773 0.0241088
57.0257 66.7361 0.00684764
60.6697 63.9783 0.00835059
57.559 63.6958 0.01301
65.7057 54.1753 0.0209553
64.5411 51.3876 0.0269989
60.775 60.943 0.0160807
60.6623 58.1669 0.0211198
62.8259 55.0734 0.0218346
60.3336 55.7935 0.0225814
55.0714 67.9332 2
59.2207 62.3717 2
55.8056 64.9143 2
56.3283 62.0975 2
65.3343 49.41 2
63.7107 53.2966 2
62.4445 50.6556 2
59.3361 59.5655 2
61.0833 54.3165 2
59.2937 57.0214 2
59.2482 55.1913 2
53.043 69.001 3.99366
53.9679 66.0156 3.98951
57.8824 60.8767 3.98236
54.6849 63.2133 3.9853
55.2128 60.624 3.98173
63.1963 48.6638 3.97043
61.7457 52.5797 3.97304
60.2749 50.0236 3.96989
58.0212 58.2691 3.97832
59.3326 53.9542 3.97645
58.1308 55.8196 3.97405
50.1103 67.8592 3.98998
47.4643 66.5854 3.98777
46.0572 69.1607 3.99021
48.1036 68.5816 2
48.8029 70.724 3.99391
50.949 69.9329 2
51.8506 72.1454 4
54.0858 71.1327 2
56.25 69.9759 0
55.1034 7.13888 3.99258
58.3339 6.31992 4
57.0595 8.33435 2
60.3286 7.74926 2
58.922 9.65435 0.00802009
62.2254 9.30607 0
68.2684 48.1078 0.0242537
69.4325 43.9081 0.0246727
66.7131 45.4418 0.0276007
67.5993 41.4986 0.0288071
70.0423 39.6577 0.0260642
72.4892 37.5121 0.0170805
70.1303 37.5217 2
67.8358 39.513 2
67.2263 43.4715 2
65.558 41.2114 2
66.0716 47.4198 2
64.6557 44.8513 2
67.9321 37.5223 3.97062
65.789 39.3712 3.97002
65.1789 43.0275 3.97065
63.7573 40.9316 3.97113
63.9687 46.7197 3.97152
62.811 44.2198 3.97177
70.059 35.392 0.0258399
69.4693 31.1494 0.0242769
67.6576 33.5905 0.028401
66.7758 29.6218 0.0271045
62.3427 12.6531 0.00975466
62.202 15.7788 0.0161456
61.8195 18.6775 0.0208605
65.5271 25.6987 0.0267922
64.1498 28.2541 0.0275034
62.8606 24.6353 0.0279608
61.2239 21.3358 0.0255508
60.4304 23.7233 0.0270795
59.2475 12.7735 0.0157487
56.4064 13.1057 0.01738
55.8752 10.2288 0.0126755
67.8718 35.5475 2
67.2682 31.6215 2
65.7 33.9267 2
64.6668 30.1903 2
60.7771 14.2176 2
60.617 17.119 2
60.229 19.8077 2
63.5408 26.4129 2
62.261 28.7755 2
59.6669 22.252 2
61.0475 25.3352 2
58.9819 24.3154 2
57.9116 14.3239 2
55.3135 14.6362 2
54.0382 9.13143 2
54.7876 12.0039 2
65.8778 35.6668 3.97011
65.1889 32.1533 3.97058
64.2864 34.2493 3.97085
62.599 30.634 3.97162
61.6536 27.0701 3.97171
60.8542 29.138 3.97292
59.3131 15.6614 3.98207
59.3322 25.7933 3.97265
59.1281 18.3469 3.97958
58.7453 20.8464 3.97393
58.2889 23.0867 3.97178
57.9706 24.6604 3.97571
52.1128 8.15049 3.98852
53.0585 11.0112 3.98485
56.6782 15.7338 3.98131
53.8103 13.6719 3.98246
54.3776 15.9888 3.9809
55.0711 67.9331 0.00658178
65.3344 49.41 0.0279975
55.8057 64.9135 0.0111208
59.2207 62.3707 0.015082
56.3283 62.0963 0.0165182
63.7107 53.2959 0.0249162
62.4445 50.6553 0.0291149
59.336 59.5644 0.0187256
59.2934 57.0206 0.0239739
61.083 54.3157 0.0229578
59.2478 55.1907 0.0214215
53.0432 69.0011 2
53.9678 66.0163 2
57.8824 60.8777 2
54.6848 63.2143 2
55.2128 60.6253 2
63.1962 48.6639 2
61.7459 52.5803 2
60.2749 50.0237 2
58.0215 58.2703 2
59.3331 53.9546 2
58.1312 55.8198 2
52.0714 67.0022 3.98982
52.9542 64.2237 3.98668
56.6503 59.4966 3.98061
53.6822 61.63 3.98321
54.2618 59.33 3.97963
60.9947 47.8848 3.97003
59.7126 52.1106 3.97272
58.0247 49.6227 3.971
56.7799 56.9956 3.97506
57.1246 54.1278 3.97454
50.1103 67.8597 2
49.338 65.9258 3.9877
47.464 66.586 2
46.8931 64.7427 3.98642
45.5593 67.1029 3.98755
43.9741 69.5929 3.9901
46.0572 69.1611 2
46.6095 71.3685 3.99401
48.1036 68.5812 0.00993109
48.8031 70.7242 2
49.554 73.0099 4
50.9488 69.9327 0.00619074
51.8506 72.1455 2
54.0858 71.1327 0
53.0644 6.07035 3.99283
55.1038 7.13882 2
56.25 5.02411 4
58.3339 6.3199 2
57.0591 8.33437 0.00770142
60.3285 7.74928 0
66.0717 47.4198 0.0274835
67.2263 43.4714 0.0282668
64.6558 44.8512 0.0287758
65.5581 41.2114 0.02956
67.8358 39.513 0.029466
70.1303 37.5217 0.025989
67.932 37.5223 2
65.789 39.3712 2
65.1788 43.0276 2
63.7573 40.9316 2
63.9686 46.7197 2
62.8109 44.2198 2
65.892 37.5022 3.96993
63.8947 39.268 3.97066
63.3319 42.5528 3.97103
62.4278 40.7001 3.97203
61.9713 45.9235 3.97142
61.4541 43.6873 3.97294
67.8719 35.5475 0.0291878
67.2681 31.6217 0.0279591
65.7 33.9268 0.0292686
64.6668 30.1905 0.0285766
60.7771 14.2181 0.0160882
60.6169 17.1199 0.018802
60.2286 19.8086 0.0234057
63.541 26.4131 0.0280546
62.261 28.7756 0.0275704
61.0476 25.3354 0.0285738
59.6667 22.2525 0.0274299
58.9819 24.3156 0.0265918
57.9118 14.3245 0.0177271
55.3137 14.6371 0.0188597
54.0382 9.13204 0.0119881
54.7876 12.0049 0.0160039
65.8778 35.6668 2
65.1891 32.1531 2
64.2865 34.2492 2
62.599 30.6338 2
59.3129 15.6606 2
59.1283 18.3459 2
58.7458 20.8456 2
61.6534 27.07 2
60.8541 29.1379 2
58.2891 23.0864 2
59.3321 25.7932 2
57.9706 24.6604 2
56.678 15.733 2
54.3773 15.9879 2
53.8103 13.6709 2
52.1128 8.14995 2
53.0585 11.0104 2
64.0894 35.6323 3.97039
62.9331 33.0454 3.97093
60.6199 30.6101 3.97277
59.5725 27.9071 3.97249
57.9421 16.9748 3.98111
57.7404 25.7221 3.97329
57.719 19.4674 3.97773
57.3745 21.834 3.97118
57.1886 23.9433 3.97211
50.1128 7.28244 3.9889
51.2329 10.1195 3.98564
52.1725 12.7893 3.98356
55.5392 16.9629 3.98123
52.9784 15.2535 3.98058
53.7595 16.9706 3.9811
53.043 69.001 0.00633998
53.9679 66.0156 0.0104938
63.1963 48.6638 0.0295664
54.6849 63.2133 0.0147004
57.8824 60.8767 0.0176377
55.2128 60.624 0.0182688
61.7457 52.5797 0.0269556
60.2749 50.0236 0.0301117
58.0212 58.2691 0.0216823
58.1308 55.8196 0.0259466
59.3326 53.9542 0.0235496
52.0713 67.0027 2
52.954 64.2245 2
56.6503 59.4978 2
53.6821 61.6312 2
54.2616 59.3316 2
60.9945 47.8849 2
59.713 52.1109 2
58.0248 49.6226 2
56.7802 56.9975 2
57.1251 54.1281 2
51.1688 65.1327 3.98741
52.0469 62.5457 3.9848
55.4829 58.2578 3.9795
52.8356 60.1439 3.98119
53.6416 58.4802 3.98009
58.3067 46.8546 3.97299
57.5607 51.792 3.9726
56.2446 49.5586 3.97576
55.4745 55.7971 3.97331
55.358 53.3852 3.96997
50.1103 67.8592 0.0100206
49.3378 65.9263 2
48.6188 64.1291 3.986
47.4643 66.5854 0.0122304
45.5591 67.1034 2
46.8929 64.7433 2
46.3824 63.0615 3.98529
45.1334 65.2041 3.98645
43.6322 67.4736 3.98758
41.8611 69.8803 3.98994
43.9741 69.5934 2
44.3768 71.8633 3.9939
46.0572 69.1607 0.00978849
46.6097 71.3687 2
47.2057 73.7222 4
48.8029 70.724 0.00608667
49.554 73.0099 2
51.8506 72.1454 0
50.9541 5.13069 3.99308
53.0647 6.07026 2
54.0858 3.86728 4
55.1034 7.13888 0.00741689
56.25 5.02406 2
58.3339 6.31992 0
63.9687 46.7197 0.028479
65.1789 43.0275 0.0293493
62.811 44.2198 0.0282307
63.7573 40.9316 0.0288738
65.789 39.3712 0.0299752
67.9321 37.5223 0.0293824
65.892 37.5022 2
63.8948 39.268 2
63.3319 42.5529 2
62.4281 40.7001 2
61.9711 45.9235 2
61.454 43.6873 2
63.9556 37.4576 3.97049
62.1457 39.3568 3.97162
61.2158 41.9616 3.97263
60.2552 44.7755 3.97363
65.8778 35.6668 0.0298922
65.1889 32.1533 0.029417
64.2864 34.2493 0.0291525
62.599 30.634 0.0283824
59.3131 15.6614 0.0179348
59.1281 18.3469 0.0204181
58.7453 20.8464 0.0260676
61.6536 27.0701 0.0282881
60.8542 29.138 0.0270753
59.3322 25.7933 0.0273491
58.2889 23.0867 0.0282174
57.9706 24.6604 0.02429
56.6782 15.7338 0.01869
54.3776 15.9888 0.0191015
53.8103 13.6719 0.0175387
52.1128 8.15049 0.011483
53.0585 11.0112 0.0151533
64.0894 35.6322 2
62.9334 33.0453 2
60.6199 30.61 2
57.942 16.9739 2
57.7194 19.4663 2
57.3751 21.8335 2
59.5728 27.907 2
57.1888 23.9435 2
57.7404 25.7222 2
50.1128 7.28194 2
55.5389 16.962 2
53.7593 16.9696 2
52.9782 15.2525 2
52.1725 12.7885 2
51.2328 10.1189 2
62.1816 35.3595 3.97119
60.2911 32.7446 3.97245
58.6257 30.0734 3.97342
57.2876 27.3782 3.97363
56.6386 18.1472 3.98071
56.2925 25.0985 3.97275
56.3602 20.5139 3.97363
56.1108 22.8659 3.96837
48.0565 6.52554 3.98929
49.3247 9.32738 3.98607
50.4334 11.9873 3.98398
51.3782 14.4891 3.98227
54.4166 17.9117 3.98139
52.362 17.0259 3.98002
52.0714 67.0022 0.0101774
52.9542 64.2237 0.0133167
60.9947 47.8848 0.0299684
53.6822 61.63 0.0167944
56.6503 59.4966 0.0193923
54.2618 59.33 0.0203714
59.7126 52.1106 0.0272845
58.0247 49.6227 0.0290043
56.7799 56.9956 0.0249352
57.1246 54.1278 0.0254616
51.1686 65.1333 2
52.0467 62.5466 2
55.4828 58.2594 2
52.8355 60.1451 2
53.6415 58.4816 2
58.3064 46.8545 2
57.5613 51.7922 2
56.2448 49.5584 2
55.4751 55.7981 2
55.3587 53.3858 2
50.347 63.3873 3.98556
51.2449 60.9437 3.98273
54.2213 57.2741 3.97928
52.3138 58.643 3.9793
56.7116 44.1893 3.97603
55.4931 47.902 3.97487
55.0667 51.3893 3.9709
54.0051 54.5457 3.97188
49.338 65.9258 0.0122981
48.6186 64.1297 2
47.9626 62.4825 3.98483
45.5593 67.1029 0.0124459
46.8931 64.7427 0.0135801
43.632 67.4741 2
46.3822 63.0622 2
45.1331 65.2047 2
45.988 61.595 3.98456
44.7677 63.4627 3.98588
43.3572 65.5139 3.98649
41.664 67.6925 3.98745
39.7026 70.0275 3.98979
41.8612 69.8809 2
42.1111 72.208 3.99376
43.9741 69.5929 0.00989597
44.377 71.8635 2
44.8159 74.2794 4
46.6095 71.3685 0.00598543
47.2057 73.7222 2
49.554 73.0099 0
48.7845 4.3217 3.99331
50.9544 5.13055 2
51.8506 2.85458 4
53.0644 6.07035 0.00717017
54.0858 3.86728 2
56.25 5.02411 0
61.9713 45.9235 0.0285774
63.3319 42.5528 0.0289705
61.4541 43.6873 0.0270579
62.4278 40.7001 0.0279653
63.8947 39.268 0.0293429
65.892 37.5022 0.030075
63.9554 37.4576 2
62.1457 39.3568 2
61.216 41.9616 2
60.2551 44.7755 2
61.9798 37.4455 3.97151
60.2352 39.8498 3.97312
58.989 42.923 3.97369
64.0894 35.6323 0.0296077
62.9331 33.0454 0.0290681
60.6199 30.6101 0.0272311
57.9421 16.9748 0.0188924
57.719 19.4674 0.0222712
57.3745 21.834 0.0288184
59.5725 27.9071 0.0275107
57.7404 25.7221 0.0267144
57.1886 23.9433 0.0278852
55.5392 16.9629 0.0187689
53.7595 16.9706 0.0188994
52.9784 15.2535 0.0194153
50.1128 7.28244 0.0111026
52.1725 12.7893 0.0164365
51.2329 10.1195 0.0143607
62.1813 35.3595 2
60.2917 32.7446 2
58.6255 30.0734 2
56.6387 18.1462 2
56.3609 20.5127 2
56.1114 22.8663 2
57.2889 27.3782 2
56.2925 25.099 2
48.0565 6.52501 2
49.3246 9.3269 2
54.4165 17.9106 2
52.3617 17.025 2
51.3781 14.4882 2
50.4333 11.9867 2
59.8779 35.1198 3.97233
57.9942 32.2689 3.97457
56.5446 29.3375 3.9746
55.4433 26.5953 3.97534
55.344 19.1812 3.97989
54.9296 24.055 3.96919
55.0029 21.5565 3.97235
45.9623 5.88051 3.98963
43.3734 7.47065 3.98739
47.3549 8.62111 3.98659
48.6001 11.2888 3.98444
49.7142 13.7362 3.98301
50.6339 16.1229 3.98052
53.1258 18.6505 3.97848
51.3029 18.0389 3.98521
51.1688 65.1327 0.0125917
52.0469 62.5457 0.015195
58.3067 46.8546 0.0270115
52.8356 60.1439 0.018805
55.4829 58.2578 0.0205017
53.6416 58.4802 0.0199059
57.5607 51.792 0.0273967
56.2446 49.5586 0.0242368
55.4745 55.7971 0.0266898
55.358 53.3852 0.0300306
50.3467 63.3879 2
51.2448 60.9446 2
54.2215 57.2757 2
52.3137 58.6441 2
56.7106 44.1892 2
55.4928 47.9017 2
55.0675 51.3893 2
54.0058 54.5476 2
49.5924 61.7524 3.98418
55.6139 41.7112 3.97618
50.5678 59.3372 3.97957
52.1863 56.4978 3.97568
54.172 45.5699 3.97679
53.3306 49.3309 3.9742
52.666 52.847 3.96886
48.6188 64.1291 0.0139965
47.9623 62.483 2
47.3299 61.0178 3.98411
43.6322 67.4736 0.0124217
45.1334 65.2041 0.0135472
46.3824 63.0615 0.0147068
41.6639 67.6931 2
43.357 65.5143 2
45.9878 61.5958 2
44.7674 63.4633 2
45.7668 60.6398 3.98362
44.4839 61.845 3.98452
43.1469 63.7352 3.98573
41.5466 65.6515 3.98625
39.6328 67.7722 3.98723
37.5259 70.0526 3.98966
39.7027 70.0281 2
39.8179 72.4051 3.99366
41.8611 69.8803 0.0100633
42.1113 72.2083 2
42.3947 74.6792 4
44.3768 71.8633 0.00610024
44.8159 74.2794 2
47.2057 73.7222 0
43.8516 5.35763 3.98978
46.5705 3.64621 3.99357
48.7848 4.3215 2
49.554 1.99015 4
50.9541 5.13069 0.00692253
51.8506 2.85453 2
54.0858 3.86728 0
60.2552 44.7755 0.0263683
61.2158 41.9616 0.0273668
62.1457 39.3568 0.028377
63.9556 37.4576 0.0295071
61.9797 37.4455 2
60.2351 39.8498 2
58.9888 42.923 2
59.7364 37.568 3.97244
57.9767 40.6606 3.97372
55.0804 39.7251 3.97545
62.1816 35.3595 0.0288093
60.2911 32.7446 0.0275456
58.6257 30.0734 0.0265753
56.6386 18.1472 0.0192926
56.3602 20.5139 0.0263704
56.1108 22.8659 0.0316302
57.2876 27.3782 0.0263671
56.2925 25.0985 0.0272467
54.4166 17.9117 0.0186071
52.362 17.0259 0.0199785
51.3782 14.4891 0.0177323
48.0565 6.52554 0.0107108
49.3247 9.32738 0.013931
50.4334 11.9873 0.0160198
59.877 35.1197 2
45.9624 5.88003 2
43.3735 7.47022 2
57.9952 32.2689 2
56.5456 29.3375 2
55.3444 19.1801 2
55.0036 21.5552 2
54.9299 24.0559 2
55.4419 26.5958 2
47.3549 8.62052 2
48.5999 11.2884 2
53.1259 18.6495 2
51.3029 18.0382 2
50.6337 16.122 2
49.714 13.7354 2
57.3763 34.7607 3.9753
55.7246 31.5178 3.97584
54.4855 28.4016 3.97662
53.769 25.4949 3.9748
53.9705 20.1297 3.97915
53.5807 22.7078 3.96832
41.3985 7.07607 3.98771
45.3596 7.99245 3.98683
42.8653 9.41233 3.98584
46.6663 10.6496 3.9848
47.7454 13.0965 3.98322
48.9314 15.3938 3.98183
50.0068 17.6923 3.97978
51.6513 19.3144 3.9877
50.347 63.3873 0.0144425
51.2449 60.9437 0.0172716
56.7116 44.1893 0.02397
55.4931 47.902 0.0251271
52.3138 58.643 0.0206956
54.2213 57.2741 0.0207154
55.0667 51.3893 0.0290955
54.0051 54.5457 0.0281163
49.5922 61.753 2
55.6129 41.7111 2
50.5676 59.3382 2
52.1867 56.499 2
54.1753 45.5695 2
53.3319 49.3299 2
52.6671 52.847 2
48.8496 60.2105 3.98274
52.5068 42.6476 3.97675
49.7903 57.6354 3.97819
50.5924 54.4322 3.97351
51.7899 47.2732 3.97611
51.2072 50.9429 3.96946
48.13 43.8115 3.99256
47.9626 62.4825 0.0151736
47.3296 61.0182 2
46.6194 59.8048 3.98326
41.664 67.6925 0.0125541
43.3572 65.5139 0.0135137
44.7677 63.4627 0.0141236
45.988 61.595 0.0154444
39.6328 67.7728 2
41.5464 65.652 2
45.7666 60.6405 2
43.1467 63.7356 2
44.4837 61.8456 2
44.6241 60.3026 3.9838
42.951 62.0937 3.98504
41.6003 63.8286 3.98566
39.6479 65.6198 3.98587
37.5632 67.7546 3.9872
31.6964 65.1383 3.98608
33.3916 67.4921 3.98716
35.333 69.9627 3.98963
37.5259 70.0532 2
37.5095 72.4597 3.99354
39.7026 70.0275 0.0102097
39.818 72.4055 2
39.9526 74.9197 4
42.1111 72.208 0.00624281
42.3947 74.6792 2
44.8159 74.2794 0
41.7361 4.96691 3.98995
43.8516 5.3572 2
44.3257 3.10949 3.99367
46.5707 3.64598 2
47.2057 1.27793 4
48.7845 4.3217 0.00668564
49.554 1.99013 2
51.8506 2.85458 0
58.989 42.923 0.0263104
60.2352 39.8498 0.0268767
61.9798 37.4455 0.0284947
59.7368 37.568 2
57.9759 40.6605 2
55.0796 39.725 2
56.7974 37.8978 3.97605
49.543 41.3433 3.98773
53.1093 39.3086 3.97769
39.4419 6.79964 3.98778
59.8779 35.1198 0.0276665
57.9942 32.2689 0.0254337
56.5446 29.3375 0.0253989
55.344 19.1812 0.0201148
55.0029 21.5565 0.0276473
54.9296 24.055 0.0308102
55.4433 26.5953 0.0246623
53.1258 18.6505 0.0215174
51.3029 18.0389 0.0147923
50.6339 16.1229 0.0194836
45.9623 5.88051 0.0103738
49.7142 13.7362 0.0169933
47.3549 8.62111 0.0134101
48.6001 11.2888 0.0155558
43.3734 7.47065 0.0126067
57.3755 34.7606 2
41.3986 7.07554 2
45.3596 7.99199 2
42.8653 9.41187 2
55.7221 31.5181 2
54.4879 28.4022 2
53.971 20.1283 2
53.5811 22.7045 2
53.7685 25.4955 2
46.6662 10.649 2
47.7451 13.096 2
51.6516 19.3139 2
50.0067 17.6914 2
48.9312 15.3929 2
54.8655 33.9713 3.97655
53.4758 30.484 3.97554
52.5768 27.1959 3.97539
52.1418 24.0931 3.97271
52.3906 21.0504 3.981
41.0132 9.04563 3.98571
44.7235 9.99261 3.98502
42.4681 10.8987 3.98429
46.0051 12.7248 3.983
47.6816 14.5787 3.98272
48.1142 16.9826 3.9792
49.8181 19.5992 3.97622
49.5924 61.7524 0.0158247
50.5678 59.3372 0.0204307
55.6139 41.7112 0.0238213
54.172 45.5699 0.0232117
53.3306 49.3309 0.0258033
52.1863 56.4978 0.0243164
52.666 52.847 0.0311448
48.8493 60.2111 2
52.5069 42.6463 2
49.7902 57.6365 2
50.5929 54.4339 2
51.789 47.2717 2
51.2088 50.9415 2
48.1308 43.8186 2
47.9878 58.7524 3.98138
50.0659 45.2831 3.97575
48.5978 55.9262 3.97881
49.1248 52.5975 3.97303
49.6549 49.0494 3.97323
45.9475 39.8821 3.89934
46.3743 42.6969 3.94522
46.4669 45.865 3.99555
43.7998 41.1815 3.88896
42.0071 42.0296 3.83923
47.3299 61.0178 0.0158946
46.619 59.8053 2
45.4692 58.8019 3.98376
39.6328 67.7722 0.0127667
41.5466 65.6515 0.0137504
43.1469 63.7352 0.014268
44.4839 61.845 0.0154835
45.7668 60.6398 0.016377
41.6001 63.8291 2
37.5632 67.7552 2
39.6477 65.6202 2
44.6239 60.3033 2
42.9508 62.0942 2
41.7539 62.5044 3.98515
42.4819 59.9959 3.98539
39.8937 63.5638 3.98523
37.6422 65.5187 3.98539
35.4631 67.6639 3.98715
33.5749 65.3517 3.98568
31.9587 63.3119 3.98525
29.8824 64.7293 3.98627
31.6965 65.1389 2
31.376 67.2019 3.98728
33.3917 67.4927 2
33.1557 69.756 3.98966
35.333 69.9633 2
35.1948 72.3741 3.99352
37.5259 70.0526 0.0103377
37.5095 72.46 2
37.5 75 4
39.8179 72.4051 0.00633833
39.9526 74.9197 2
42.3947 74.6792 0
39.6236 4.71406 3.99003
41.7362 4.96642 2
42.0621 2.71716 3.99374
43.8516 5.35763 0.0102188
44.3259 3.10924 2
44.8158 0.721173 4
46.5705 3.64621 0.00642694
47.2057 1.27779 2
49.554 1.99015 0
57.9767 40.6606 0.0262822
59.7364 37.568 0.027557
55.0804 39.7251 0.0245486
49.554 41.3455 2
56.7977 37.8977 2
53.1083 39.3079 2
53.9614 36.6294 3.97734
47.4705 40.4281 3.94787
50.4867 38.5124 3.98462
37.5157 6.67065 3.98779
39.4419 6.79913 2
39.2107 8.68825 3.98599
35.9411 8.48784 3.98621
57.3763 34.7607 0.0247031
55.7246 31.5178 0.024158
54.4855 28.4016 0.0233758
53.9705 20.1297 0.020852
53.5807 22.7078 0.0316797
53.769 25.4949 0.0251977
51.6513 19.3144 0.0122979
50.0068 17.6923 0.0202247
48.9314 15.3938 0.0181687
45.3596 7.99245 0.0131726
47.7454 13.0965 0.0167838
46.6663 10.6496 0.0151995
41.3985 7.07607 0.0122903
42.8653 9.41233 0.0141581
54.8667 33.9712 2
41.0133 9.04514 2
44.7233 9.99221 2
42.4679 10.8982 2
53.4725 30.4841 2
52.58 27.1965 2
52.3914 21.0496 2
52.1425 24.0937 2
46.0047 12.724 2
47.6813 14.5779 2
49.8184 19.5981 2
48.114 16.9815 2
52.4203 32.8745 3.97888
51.3006 29.155 3.9753
50.7837 25.7223 3.97136
49.9401 22.1815 3.97812
40.5689 11.6026 3.98367
43.8578 11.9142 3.98407
45.8028 15.4151 3.9818
47.5045 19.2171 3.97754
46.2821 37.5006 3.90565
48.8496 60.2105 0.0172575
49.7903 57.6354 0.0218075
52.5068 42.6476 0.0232482
51.7899 47.2732 0.0238923
51.2072 50.9429 0.0305388
50.5924 54.4322 0.026493
48.13 43.8115 0.00743597
47.9875 58.7531 2
50.0697 45.2849 2
48.5979 55.9274 2
49.1257 52.5999 2
49.6563 49.0484 2
45.9657 39.8904 2
46.3884 42.7068 2
46.4667 45.8575 2
43.8162 41.1933 2
42.0126 42.0354 2
46.8393 57.3558 3.98379
44.5457 39.4668 3.87957
42.3631 40.8941 3.86055
48.0609 47.2504 3.97688
47.1655 54.2574 3.97898
47.5783 50.7537 3.97339
44.7812 47.4435 3.99707
45.043 41.978 3.90403
44.9011 44.6019 3.9507
42.6353 42.7088 3.88882
40.8931 42.3781 3.86853
46.6194 59.8048 0.016739
45.4687 58.8026 2
43.8773 57.7285 3.9846
37.5632 67.7546 0.0127963
39.6479 65.6198 0.0141264
41.6003 63.8286 0.0143414
42.951 62.0937 0.0149596
44.6241 60.3026 0.0162022
35.4631 67.6645 2
41.7537 62.5048 2
39.8935 63.5642 2
37.6422 65.5193 2
42.4817 59.9965 2
40.6234 61.6634 3.98464
40.446 58.2307 3.98608
37.8369 63.2249 3.9847
35.5727 65.4408 3.9855
33.5749 65.3522 2
31.9587 63.3124 2
33.6285 63.3518 3.98486
30.3776 62.8704 3.98547
32.1224 62.0193 3.98525
26.8672 61.5139 3.98478
28.0612 64.1573 3.98619
29.8825 64.7299 2
29.4053 66.7655 3.98738
31.6964 65.1383 0.0139213
31.3761 67.2025 2
31.0128 69.4209 3.98971
33.3916 67.4921 0.0128427
33.1556 69.7566 2
32.8918 72.1483 3.99355
35.333 69.9627 0.0103669
35.1948 72.3744 2
35.0474 74.9194 4
37.5095 72.4597 0.00646292
37.5 75 2
39.9526 74.9197 0
35.6202 6.72157 3.98783
37.5227 4.61352 3.99017
39.6236 4.71361 2
39.7885 2.4736 3.99383
41.7361 4.96691 0.0100453
42.0622 2.71687 2
42.3946 0.32156 4
44.3257 3.10949 0.00633321
44.8159 0.72056 2
47.2057 1.27793 0
49.543 41.3433 0.012268
56.7974 37.8978 0.0239496
53.1093 39.3086 0.0223122
47.4816 40.436 2
50.4944 38.5126 2
53.9631 36.6298 2
51.2863 35.5834 3.97468
48.1274 37.7621 3.96657
45.9537 35.1417 3.90385
43.8061 33.832 3.8854
42.0122 32.9875 3.83716
37.4574 8.52998 3.98588
37.5157 6.67004 2
39.4419 6.79964 0.0122226
39.2107 8.68772 2
38.9758 10.1209 3.98551
35.8977 9.76755 3.98494
34.1495 8.81717 3.98609
35.9411 8.48719 2
54.8655 33.9713 0.0234508
53.4758 30.484 0.024459
52.5768 27.1959 0.0246142
52.3906 21.0504 0.0189972
52.1418 24.0931 0.0272942
49.8181 19.5992 0.0237785
48.1142 16.9826 0.0207991
47.6816 14.5787 0.0172835
44.7235 9.99261 0.0149793
46.0051 12.7248 0.0170042
41.0132 9.04563 0.0142864
42.4681 10.8987 0.0157099
52.42 32.8742 2
40.5686 11.6022 2
43.8574 11.9138 2
51.3123 29.1552 2
50.7843 25.7239 2
49.9409 22.1804 2
45.8024 15.4142 2
47.5047 19.216 2
49.9535 31.4112 3.96966
49.2724 27.4717 3.97629
49.4016 24.3948 3.97834
47.1874 21.9359 3.97566
38.3012 12.7272 3.98417
42.1013 14.298 3.98313
44.8013 18.4515 3.98092
44.8309 37.512 3.87793
46.3047 37.5074 2
47.9878 58.7524 0.0186208
48.5978 55.9262 0.0211943
50.0659 45.2831 0.0242518
49.6549 49.0494 0.0267736
49.1248 52.5975 0.0269652
45.9475 39.8821 0.100665
46.3743 42.6969 0.0547834
46.4669 45.865 0.00444916
43.7998 41.1815 0.111043
42.0071 42.0296 0.160773
46.839 57.3568 2
44.5581 39.4736 2
42.3607 40.8943 2
48.0626 47.251 2
47.1659 54.26 2
47.5799 50.7553 2
44.785 47.4195 2
45.0562 41.9878 2
44.9154 44.6152 2
42.6577 42.7257 2
40.8928 42.3775 2
45.3986 55.944 3.98575
42.6968 39.2781 3.87387
40.8219 40.8198 3.91991
46.0778 48.9266 3.98465
45.5383 52.55 3.98071
43.4399 48.475 4.01359
43.349 46.1677 3.95604
43.6453 43.7975 3.90221
41.1446 43.8856 3.88504
39.3005 42.7355 3.88421
45.4692 58.8019 0.0162369
43.8767 57.7288 2
42.1076 56.3573 3.9879
35.4631 67.6639 0.0128472
37.6422 65.5187 0.0146107
39.8937 63.5638 0.0147725
41.7539 62.5044 0.0148528
42.4819 59.9959 0.0146054
35.5727 65.4414 2
40.6232 61.6638 2
37.8367 63.2253 2
40.4458 58.2314 2
38.9262 56.5291 3.99091
38.2505 60.3477 3.98514
35.6067 63.2185 3.9845
33.5749 65.3517 0.0143206
31.9587 63.3119 0.0147518
33.6285 63.3522 2
30.3777 62.8709 2
32.1224 62.0197 2
28.68 62.2157 3.98538
33.3453 61.5324 3.98508
31.0655 61.2368 3.98544
27.5663 59.6125 3.98315
23.7892 59.0969 3.9817
25.0328 60.886 3.98357
26.8674 61.5143 2
26.2277 63.4896 3.98595
28.0613 64.1578 2
27.4617 66.1894 3.9875
29.8824 64.7293 0.0137308
29.4054 66.7661 2
28.9049 68.9464 3.98978
31.376 67.2019 0.0127177
31.0127 69.4215 2
30.6141 71.7793 3.99361
33.1557 69.756 0.0103372
32.8917 72.1486 2
32.6054 74.6784 4
35.1948 72.3741 0.00648202
35.0474 74.9197 2
37.5 75 0
33.7227 6.97603 3.98748
35.434 4.68389 3.99011
35.6201 6.72098 2
37.5139 2.38623 3.99392
37.5227 4.61303 2
39.6236 4.71406 0.00996757
39.7886 2.47331 2
39.9526 0.0806499 4
42.0621 2.71716 0.00626373
42.3947 0.320817 2
44.8158 0.721173 0
44.5627 35.5489 3.87611
42.372 34.117 3.85808
47.4705 40.4281 0.0521283
50.4867 38.5124 0.0153803
53.9614 36.6294 0.022664
48.1354 37.7654 2
51.2919 35.5827 2
45.966 35.1289 2
43.825 33.8191 2
42.0181 32.9827 2
48.308 34.2912 3.98609
45.0449 33.0399 3.90037
42.6404 32.3102 3.88809
40.8974 32.6395 3.86699
37.3098 10.6243 3.98462
37.4574 8.52922 2
37.5157 6.67065 0.0122149
39.2107 8.68825 0.0140146
38.9758 10.1203 2
34.7527 10.3729 3.98481
35.8977 9.76685 2
32.376 9.36352 3.98562
34.1494 8.81642 2
35.9411 8.48784 0.0137928
52.4203 32.8745 0.0211213
51.3006 29.155 0.0246951
50.7837 25.7223 0.0286429
49.9401 22.1815 0.0218768
47.5045 19.2171 0.0224639
45.8028 15.4151 0.0182006
43.8578 11.9142 0.0159345
40.5689 11.6026 0.0163265
49.9559 31.4083 2
38.3008 12.7268 2
42.1007 14.2975 2
49.2726 27.4734 2
49.4022 24.3938 2
47.1884 21.9369 2
44.8014 18.4506 2
47.7733 29.5559 3.98681
47.1002 25.1279 3.98167
44.2909 21.3019 3.97907
36.5807 12.9233 3.98366
38.6807 14.7955 3.98342
41.75 17.8254 3.98131
42.8467 37.4959 3.87303
44.8553 37.5077 2
46.2821 37.5006 0.0943482
46.8393 57.3558 0.0162141
47.1655 54.2574 0.0210184
48.0609 47.2504 0.0231173
47.5783 50.7537 0.0266131
44.5457 39.4668 0.120431
45.043 41.978 0.0959653
44.9011 44.6019 0.0492973
44.7812 47.4435 0.00292976
42.6353 42.7088 0.111182
42.3631 40.8941 0.139449
40.8931 42.3781 0.131473
45.3985 55.9451 2
42.6991 39.2774 2
40.819 40.8165 2
46.0789 48.9277 2
45.5397 52.5534 2
43.4427 48.4925 2
43.3725 46.1858 2
43.6616 43.8093 2
41.1618 43.8965 2
39.2984 42.7297 2
43.7368 54.4611 3.99422
40.9345 39.1825 3.94661
39.1982 40.9117 3.94928
43.6947 50.5266 3.99554
41.9522 47.7083 3.98224
41.8649 45.2102 3.90292
39.3978 44.6208 3.89805
37.4908 42.8662 3.8914
43.8773 57.7285 0.0154006
42.1071 56.3575 2
40.4197 54.9692 3.98979
35.5727 65.4408 0.0144991
37.8369 63.2249 0.0152966
40.6234 61.6634 0.015361
40.446 58.2307 0.0139197
35.6067 63.2189 2
38.2502 60.348 2
38.9259 56.5308 2
38.0001 55.2883 3.9889
36.9348 57.6547 3.98679
35.3632 60.9319 3.9849
33.6285 63.3518 0.0151405
30.3776 62.8704 0.0145297
32.1224 62.0193 0.0147466
33.3452 61.5329 2
28.6801 62.2162 2
31.0655 61.2372 2
29.4016 60.3065 3.98463
32.3552 59.7659 3.98563
28.0191 58.3922 3.98422
27.5664 59.6129 2
25.3761 58.6103 3.98049
22.7526 58.2541 3.97688
23.3984 60.3645 3.98137
23.7892 59.0977 2
25.0329 60.8867 2
24.4302 62.7816 3.98532
26.8672 61.5139 0.0152195
26.2279 63.49 2
25.5457 65.4993 3.98755
28.0612 64.1573 0.0138051
27.4619 66.1899 2
26.8344 68.3347 3.98983
29.4053 66.7655 0.0126249
28.9048 68.9469 2
28.3692 71.2645 3.99368
31.0128 69.4209 0.0102923
30.6139 71.7796 2
30.1842 74.2788 4
32.8918 72.1483 0.0064515
32.6053 74.6792 2
35.0474 74.9194 0
31.787 7.41571 3.98725
33.3458 4.92301 3.99003
33.7226 6.97539 2
35.2441 2.46239 3.99389
35.434 4.68339 2
35.6202 6.72157 0.0121674
37.5 0 4
37.514 2.38592 2
37.5227 4.61352 0.00982897
39.7885 2.4736 0.00616555
39.9526 0.0802889 2
42.3946 0.32156 0
42.7122 35.7217 3.8727
44.5764 35.542 2
40.831 34.1916 3.9183
42.3704 34.118 2
48.1274 37.7621 0.0334314
51.2863 35.5834 0.0253164
45.9537 35.1417 0.0961523
43.8061 33.832 0.114599
42.0122 32.9875 0.162842
48.316 34.2829 2
45.0585 33.0289 2
42.6597 32.2965 2
40.8957 32.6393 2
46.2934 31.5596 3.96779
43.6463 31.2277 3.90105
41.1562 31.1374 3.88617
39.3042 32.275 3.88365
35.6908 11.7682 3.98374
37.3098 10.6237 2
37.4574 8.52998 0.0141164
38.9758 10.1209 0.0144934
33.0964 11.2092 3.98371
34.7527 10.3721 2
35.8977 9.76755 0.0150645
30.4806 10.0114 3.9851
32.376 9.36277 2
34.1495 8.81717 0.0139092
49.9535 31.4112 0.0303381
49.2724 27.4717 0.0237097
49.4016 24.3948 0.0216556
47.1874 21.9359 0.0243422
44.8013 18.4515 0.0190765
42.1013 14.298 0.0168701
38.3012 12.7272 0.015833
36.5804 12.9228 2
47.774 29.5525 2
38.6799 14.7953 2
41.7496 17.8245 2
47.1012 25.1291 2
44.2917 21.3007 2
45.5475 27.6485 3.99914
43.8023 24.0255 3.9975
41.3418 20.7009 3.98137
35.7705 14.7475 3.98338
38.6807 17.5802 3.98215
40.9819 37.4879 3.95788
42.8541 37.4979 2
44.8309 37.512 0.12207
45.3986 55.944 0.0142478
45.5383 52.55 0.0192876
46.0778 48.9266 0.0153456
42.6968 39.2781 0.126134
43.6453 43.7975 0.0977885
43.349 46.1677 0.0439597
43.4399 48.475 -0.0135852
41.1446 43.8856 0.114961
40.8219 40.8198 0.0800941
39.3005 42.7355 0.11579
43.7371 54.4622 2
40.9319 39.1802 2
39.1954 40.9049 2
43.6965 50.5374 2
41.9563 47.722 2
41.8879 45.2233 2
37.492 42.8602 2
39.4174 44.6252 2
41.8817 53.0389 3.99598
39.2094 39.1828 3.9758
37.492 40.9616 3.96084
35.6876 42.734 3.88474
40.9296 49.762 4.00416
39.8011 46.1118 3.88783
37.4916 44.8669 3.89692
42.1076 56.3573 0.0121046
40.4192 54.9696 2
38.73 53.9028 3.99249
35.6067 63.2185 0.0154973
38.2505 60.3477 0.0148582
38.9262 56.5291 0.0090873
35.363 60.9321 2
36.9344 57.6549 2
37.9995 55.289 2
36.3188 55.4203 3.99256
34.4868 58.5454 3.98594
33.3453 61.5324 0.0149231
28.68 62.2157 0.0146212
31.0655 61.2368 0.0145626
32.3552 59.7662 2
29.4016 60.3068 2
30.2947 57.8395 3.98662
28.0191 58.3927 2
26.9398 56.8409 3.98034
27.5663 59.6125 0.016851
25.3761 58.6109 2
23.8336 56.8177 3.97533
21.3286 57.4121 3.97675
21.9906 59.6355 3.98082
22.7524 58.2551 2
22.734 62.0323 3.98385
23.3985 60.3653 2
23.7892 59.0969 0.0183045
25.0328 60.886 0.0164312
24.4304 62.7822 2
23.6796 64.7174 3.98713
26.2277 63.4896 0.0140494
25.5459 65.4998 2
24.8066 67.5958 3.98981
27.4617 66.1894 0.0125018
26.8344 68.3352 2
26.1643 70.6053 3.99373
28.9049 68.9464 0.0102168
28.3689 71.2647 2
27.7943 73.7221 4
30.6141 71.7793 0.00638849
30.1841 74.2794 2
32.6054 74.6784 0
29.8094 7.9888 3.9868
31.2509 5.33016 3.98975
31.7869 7.415 2
32.9798 2.70051 3.99382
33.3458 4.92244 2
33.7227 6.97603 0.0125198
35.0474 0.080333 4
35.2441 2.46207 2
35.434 4.68389 0.00988756
37.5 0 2
37.5139 2.38623 0.00608136
39.9526 0.0806499 0
40.942 35.8051 3.94768
42.7135 35.7245 2
44.5627 35.5489 0.123893
28.5413 10.6863 3.98519
39.2031 34.0989 3.9493
40.8278 34.1952 2
42.372 34.117 0.141919
48.308 34.2912 0.0139111
45.0449 33.0399 0.0996339
42.6404 32.3102 0.111913
40.8974 32.6395 0.133008
46.3071 31.5525 2
43.6565 31.2158 2
41.1736 31.1235 2
39.302 32.2794 2
44.3965 29.7406 3.95265
41.8797 29.8117 3.90597
39.4119 30.387 3.89841
37.4941 32.141 3.89184
34.0906 12.9258 3.98318
35.6908 11.7675 2
37.3098 10.6243 0.0153817
31.1843 11.977 3.98426
33.0964 11.2084 2
34.7527 10.3729 0.0151936
30.4805 10.0105 2
32.376 9.36352 0.0143807
47.7733 29.5559 0.013191
47.1002 25.1279 0.0183312
36.5807 12.9233 0.0163362
44.2909 21.3019 0.0209331
41.75 17.8254 0.0186868
38.6807 14.7955 0.0165772
35.7699 14.7471 2
45.5474 27.6464 2
38.68 17.5797 2
41.342 20.6985 2
43.804 24.0286 2
33.6055 15.8632 3.98314
43.0595 26.474 4.00057
40.9183 23.2681 3.99419
38.4213 20.3067 3.98351
35.8467 17.4932 3.98434
39.2209 37.4869 3.98344
40.9781 37.4878 2
42.8467 37.4959 0.126975
43.7368 54.4611 0.00578313
43.6947 50.5266 0.00446404
40.9345 39.1825 0.0533872
41.8649 45.2102 0.0970824
41.9522 47.7083 0.0177552
39.3978 44.6208 0.101951
39.1982 40.9117 0.0507209
37.4908 42.8662 0.108596
41.883 53.0405 2
39.2074 39.1815 2
37.4919 40.9569 2
40.9329 49.7663 2
35.689 42.7304 2
39.824 46.1286 2
37.4905 44.8639 2
39.8241 51.9569 3.9969
37.4903 39.1946 3.98413
35.7865 40.9188 3.94851
34.0924 42.3731 3.86824
35.568 44.6224 3.89546
38.7202 48.7675 3.99311
37.4874 46.4407 3.88891
40.4197 54.9692 0.0102058
38.7294 53.9025 2
36.7205 53.2614 4.00552
35.3632 60.9319 0.0151013
36.9348 57.6547 0.0132079
38.0001 55.2883 0.0111008
34.4866 58.5455 2
36.3183 55.4202 2
33.2229 55.5329 3.9883
32.3552 59.7659 0.0143672
29.4016 60.3065 0.0153678
30.2948 57.84 2
28.6832 55.3321 3.97983
28.0191 58.3922 0.0157817
26.9396 56.8414 2
25.3025 55.1561 3.97614
21.8008 55.3582 3.97253
25.3761 58.6103 0.0195129
23.8333 56.8187 2
20.2128 57.0407 3.97922
20.6412 58.7924 3.97944
21.3283 57.4131 2
21.1641 61.1811 3.98267
21.9906 59.6364 2
22.7526 58.2541 0.0231225
21.893 63.8451 3.98639
22.7341 62.0331 2
23.3984 60.3645 0.0186256
24.4302 62.7816 0.0146846
23.6798 64.718 2
22.8348 66.7393 3.98971
25.5457 65.4993 0.0124471
24.8066 67.5962 2
24.0085 69.8064 3.99369
26.8344 68.3347 0.0101665
26.1641 70.6055 2
25.446 73.0099 4
28.3692 71.2645 0.00632351
27.7943 73.7222 2
30.1842 74.2788 0
27.8192 8.64824 3.98659
29.1527 5.87585 3.98944
29.8093 7.98802 2
30.725 3.09769 3.99363
31.2508 5.32955 2
31.787 7.41571 0.0127452
32.6053 0.320823 4
32.9797 2.70019 2
33.3458 4.92301 0.00996838
35.0474 0.0802903 2
35.2441 2.46239 0.00611113
37.5 0 0
39.2207 35.8034 3.97583
40.9394 35.8075 2
42.7122 35.7217 0.127296
28.5413 10.6855 2
26.6201 11.381 3.98512
29.223 12.633 3.98466
37.4945 34.046 3.96124
39.2004 34.1047 2
40.831 34.1916 0.0816994
46.2934 31.5596 0.0322131
43.6463 31.2277 0.0989534
41.1562 31.1374 0.113834
39.3042 32.275 0.116351
44.4138 29.7278 2
41.9016 29.7962 2
39.4278 30.3806 2
37.4945 32.1471 2
42.3544 28.3775 3.93957
39.8451 28.8979 3.90097
37.5034 30.1308 3.89631
35.6875 32.2649 3.88326
31.9118 14.4698 3.9838
34.0904 12.925 2
35.6908 11.7682 0.0162574
31.1843 11.9762 2
33.0964 11.2092 0.0162851
30.4806 10.0114 0.0149026
45.5475 27.6485 0.000860946
43.8023 24.0255 0.00250132
35.7705 14.7475 0.0166177
41.3418 20.7009 0.0186282
38.6807 17.5802 0.0178463
33.605 15.8629 2
35.8459 17.493 2
43.0613 26.4745 2
38.4207 20.3061 2
40.9188 23.2628 2
33.5476 17.3706 3.98486
40.4344 25.609 4.01043
38.0766 22.8327 3.99328
35.5823 20.0566 3.98678
37.4952 37.4947 3.98317
39.2184 37.4866 2
40.9819 37.4879 0.0421228
41.8817 53.0389 0.00401735
40.9296 49.762 -0.0041567
39.2094 39.1828 0.024199
39.8011 46.1118 0.112174
37.4916 44.8669 0.103084
37.492 40.9616 0.0391606
35.6876 42.734 0.115264
39.8269 51.9595 2
37.4911 39.1948 2
35.7893 40.9134 2
38.7195 48.7963 2
34.0938 42.3721 2
35.5571 44.6336 2
37.4858 46.461 2
37.6643 51.0586 4.00996
35.7765 39.1967 3.97625
34.1669 40.8241 3.91971
32.9752 42.0239 3.83838
33.8235 43.8772 3.88367
35.1569 46.1053 3.8974
36.8519 48.4185 3.97839
38.73 53.9028 0.00751259
36.7206 53.2608 2
34.3594 52.5127 3.99102
34.4868 58.5454 0.0140585
36.3188 55.4203 0.00744418
33.2227 55.5325 2
30.5117 53.4182 3.98282
30.2947 57.8395 0.0133845
28.6829 55.3331 2
26.8715 53.4461 3.97507
26.9398 56.8409 0.0196604
25.3023 55.1578 2
23.5623 53.4912 3.97102
20.4567 53.231 3.96766
19.9247 55.8424 3.97593
21.8003 55.3594 2
23.8336 56.8177 0.0246745
19.4335 57.9025 3.97827
20.2123 57.0413 2
19.7035 60.214 3.98136
20.6411 58.7935 2
21.3286 57.4121 0.0232488
20.2055 62.8659 3.98484
21.1642 61.1821 2
21.9906 59.6355 0.0191806
20.9362 65.7682 3.98945
21.8932 63.8459 2
22.734 62.0323 0.0161545
23.6796 64.7174 0.0128672
22.8349 66.7398 2
21.911 68.8734 3.9936
24.8066 67.5958 0.010192
24.0083 69.8065 2
23.1494 72.1454 4
26.1643 70.6053 0.00626913
25.446 73.0099 2
27.7943 73.7221 0
25.8582 9.37604 3.98642
27.0674 6.53984 3.98913
27.819 8.64743 2
28.4871 3.64361 3.99347
29.1526 5.8752 2
29.8094 7.9888 0.0131956
30.1841 0.720592 4
30.7248 3.09737 2
31.2509 5.33016 0.0102508
32.6053 0.320817 2
32.9798 2.70051 0.00618494
35.0474 0.080333 0
37.4982 35.8008 3.98478
39.217 35.8041 2
40.942 35.8051 0.0523234
24.7749 12.0637 3.98526
23.7491 14.3476 3.98432
28.5413 10.6863 0.0148069
26.6202 11.3805 2
29.223 12.6321 2
27.2892 13.3654 3.98453
29.7776 14.1915 3.98383
35.7916 34.0855 3.94914
37.4947 34.0505 2
39.2031 34.0989 0.0506999
37.4941 32.141 0.108157
44.3965 29.7406 0.0473462
41.8797 29.8117 0.0940281
39.4119 30.387 0.101587
42.3728 28.3632 2
39.8613 28.8783 2
37.5054 30.1318 2
35.6903 32.2696 2
40.0424 27.5209 3.94027
37.5165 28.5609 3.89783
35.5832 30.3799 3.89872
34.0981 32.6212 3.86677
30.9231 16.8247 3.98405
31.9117 14.469 2
34.0906 12.9258 0.0168177
31.1843 11.977 0.0157398
43.0595 26.474 -0.00056801
40.9183 23.2681 0.00581442
33.6055 15.8632 0.0168554
35.8467 17.4932 0.01566
38.4213 20.3067 0.0164874
33.5469 17.3707 2
35.5818 20.0558 2
40.4344 25.6051 2
38.0771 22.8326 2
32.8604 19.7742 3.98584
37.799 25.1414 4.02075
35.2009 22.6089 3.99145
35.7726 37.499 3.98373
37.4955 37.4941 2
39.2209 37.4869 0.0165591
39.8241 51.9569 0.00310346
38.7202 48.7675 0.00688783
37.4903 39.1946 0.0158711
37.4874 46.4407 0.11109
35.568 44.6224 0.104544
35.7865 40.9188 0.0514871
34.0924 42.3731 0.131757
37.6675 51.0682 2
35.7805 39.1951 2
34.1698 40.8203 2
36.8521 48.4337 2
32.9693 42.0273 2
33.8119 43.8866 2
35.1367 46.1193 2
35.4533 50.1914 4.01344
34.0599 39.1929 3.94735
32.615 40.8926 3.85963
32.3411 42.6996 3.88844
33.1223 45.1975 3.90448
34.2649 47.4791 3.94992
36.7205 53.2614 -0.00551729
34.3597 52.5139 2
31.9901 51.2261 3.99495
33.2229 55.5329 0.0116968
30.5113 53.4202 2
28.4158 51.6238 3.97868
28.6832 55.3321 0.0201717
26.8711 53.447 2
25.0648 51.7633 3.96861
25.3025 55.1561 0.0238586
23.5619 53.4916 2
21.9515 51.8129 3.96745
19.1893 51.6411 3.96867
18.9125 54.3169 3.97051
20.4562 53.2307 2
18.441 56.7336 3.97829
19.9241 55.8431 2
21.8008 55.3582 0.0274728
18.3653 59.1199 3.97868
19.4333 57.9034 2
20.2128 57.0407 0.0207846
18.6165 61.7727 3.98321
19.7035 60.2151 2
20.6412 58.7924 0.0205603
19.1252 64.6789 3.98854
20.2056 62.8668 2
21.1641 61.1811 0.0173274
19.885 67.81 3.9934
20.9363 65.7689 2
21.893 63.8451 0.0136093
22.8348 66.7393 0.0102866
21.9107 68.8735 2
20.9142 71.1327 4
24.0085 69.8064 0.00631017
23.1494 72.1455 2
25.446 73.0099 0
23.0942 12.7782 3.98484
23.9707 10.1624 3.98636
25.0212 7.30985 3.98898
25.8582 9.37539 2
26.2788 4.3278 3.99331
27.0673 6.53915 2
27.8192 8.64824 0.0134067
27.7943 1.27781 4
28.4869 3.64331 2
29.1527 5.87585 0.0105565
30.1841 0.720551 2
30.725 3.09769 0.00636992
32.6053 0.320823 0
35.7786 35.8038 3.97682
37.4977 35.7996 2
39.2207 35.8034 0.024168
24.7752 12.0632 2
23.7495 14.3474 2
22.4778 15.024 3.98382
25.3553 13.897 3.98414
24.0222 15.6093 3.98326
26.6201 11.381 0.01488
29.223 12.633 0.0153448
27.2893 13.365 2
29.7777 14.1907 2
28.3534 15.965 3.98418
34.1769 34.1781 3.91829
35.7943 34.0912 2
37.4945 34.046 0.0387588
35.6875 32.2649 0.116745
37.5034 30.1308 0.103691
42.3544 28.3775 0.060426
39.8451 28.8979 0.0990304
40.0539 27.5073 2
37.519 28.5407 2
35.5688 30.3724 2
34.1008 32.621 2
37.6197 27.1944 3.94726
35.173 28.8782 3.8992
33.8301 31.1212 3.88546
32.988 32.9716 3.83835
30.2045 19.3258 3.98637
30.9228 16.8243 2
31.9118 14.4698 0.0162015
40.4344 25.609 -0.0104251
38.0766 22.8327 0.00671546
33.5476 17.3706 0.0151359
35.5823 20.0566 0.013224
32.8592 19.7746 2
35.1989 22.6046 2
37.7901 25.1429 2
32.3071 22.3849 3.98912
34.9694 25.1334 4.01097
34.0136 37.4989 3.95639
35.7758 37.4984 2
37.4952 37.4947 0.0168259
37.6643 51.0586 -0.00996081
36.8519 48.4185 0.0216067
35.7765 39.1967 0.0237549
35.1569 46.1053 0.102596
33.8235 43.8772 0.116331
34.1669 40.8241 0.0802911
32.9752 42.0239 0.161619
35.4515 50.2001 2
34.0652 39.1905 2
32.6158 40.8907 2
34.2593 47.5109 2
32.3233 42.7108 2
33.1015 45.2162 2
33.2255 49.1839 4.00658
32.2789 39.2823 3.874
31.1749 41.1751 3.88716
31.3409 43.7872 3.90083
32.2317 46.4005 3.94918
34.3594 52.5127 0.00898025
31.9895 51.2309 2
29.8378 49.7374 3.98681
30.5117 53.4182 0.0171759
28.4151 51.6215 2
26.4893 50.0043 3.97114
26.8715 53.4461 0.024934
25.0644 51.7622 2
23.3248 50.2078 3.97403
23.5623 53.4912 0.0289813
21.9514 51.8122 2
20.4518 50.3241 3.97
17.9771 50.3363 3.97244
17.8245 52.7978 3.969
19.1891 51.6411 2
17.4296 55.3486 3.9742
18.912 54.3173 2
20.4567 53.231 0.0323401
17.1304 57.8815 3.97911
18.4406 56.7345 2
19.9247 55.8424 0.0240732
17.1339 60.5552 3.981
18.3653 59.1209 2
19.4335 57.9025 0.0217278
17.4058 63.4711 3.98683
18.6165 61.7737 2
19.7035 60.214 0.0186375
17.9411 66.6183 3.99312
19.1253 64.6797 2
20.2055 62.8659 0.0151641
18.75 69.9759 4
19.8847 67.81 2
20.9362 65.7682 0.0105485
21.911 68.8734 0.00640411
20.9142 71.1327 2
23.1494 72.1454 0
21.5851 13.5983 3.98435
22.1887 11.0215 3.98603
23.0946 12.7781 2
23.0391 8.17516 3.98887
23.9708 10.1621 2
24.1164 5.14248 3.99317
25.021 7.30933 2
25.8582 9.37604 0.0135813
25.446 1.99014 4
26.2785 4.32755 2
27.0674 6.53984 0.0108704
27.7943 1.27778 2
28.4871 3.64361 0.0065337
30.1841 0.720592 0
34.0581 35.8059 3.94569
35.7812 35.8044 2
37.4982 35.8008 0.0152228
21.3028 15.8197 3.98296
24.7749 12.0637 0.0147393
23.7491 14.3476 0.0156755
25.3555 13.8967 2
22.4782 15.024 2
24.0226 15.6092 2
23.2613 16.2407 3.98296
25.3774 16.0773 3.98406
27.2892 13.3654 0.0154658
29.7776 14.1915 0.0161726
28.3538 15.9647 2
27.4362 18.786 3.98517
32.6361 34.1045 3.86002
34.1817 34.1807 2
35.7916 34.0855 0.0508575
34.0981 32.6212 0.133229
35.5832 30.3799 0.101285
37.5165 28.5609 0.102171
40.0424 27.5209 0.0597334
37.6186 27.1632 2
32.9824 32.9686 2
35.1576 28.8595 2
33.8137 31.1031 2
35.0669 27.3225 3.95504
33.1246 29.802 3.8987
32.3457 32.2878 3.88514
29.5701 21.9186 3.99432
30.204 19.3265 2
30.9231 16.8247 0.0159469
37.799 25.1414 -0.0207532
35.2009 22.6089 0.00854564
32.8604 19.7742 0.014157
32.305 22.3858 2
34.9775 25.135 2
31.6776 25.599 4.00031
32.1414 37.502 3.87442
34.0195 37.4988 2
35.7726 37.499 0.0162731
35.4533 50.1914 -0.0134423
34.2649 47.4791 0.0500757
34.0599 39.1929 0.0526465
33.1223 45.1975 0.0955169
32.3411 42.6996 0.111562
32.615 40.8926 0.140366
33.2229 49.1714 2
32.2765 39.279 2
31.1563 41.183 2
32.2099 46.4184 2
31.3275 43.7983 2
31.1226 48.0068 3.99721
30.424 39.4552 3.87767
29.9381 41.9713 3.8978
30.4008 44.9783 3.95086
31.9901 51.2261 0.00505362
29.8368 49.734 2
27.8487 48.202 3.97437
28.4158 51.6238 0.0213164
26.489 50.0025 2
24.628 48.4884 3.97869
25.0648 51.7633 0.0313858
23.3249 50.2067 2
21.6393 48.8044 3.97285
21.9515 51.8129 0.0325455
20.4519 50.3238 2
19.0191 49.1019 3.97415
16.8843 49.3373 3.97454
16.7654 51.4116 3.97087
17.9775 50.3361 2
16.3825 53.876 3.97146
17.8242 52.7981 2
19.1893 51.6411 0.0313274
15.9715 56.4824 3.97708
17.4292 55.3494 2
18.9125 54.3169 0.0294949
15.747 59.2156 3.98031
17.1302 57.8825 2
18.441 56.7336 0.0217111
15.7865 62.1411 3.98442
17.134 60.5562 2
18.3653 59.1199 0.0213204
16.0878 65.3007 3.99247
17.4058 63.4719 2
18.6165 61.7727 0.0167906
16.6661 68.6801 4
17.9408 66.6184 2
19.1252 64.6789 0.0114581
18.75 69.9759 2
19.885 67.81 0.00659751
20.9142 71.1327 0
20.2171 14.5871 3.98355
21.5854 13.5982 2
20.528 11.9912 3.9854
21.142 9.14482 3.98886
22.1889 11.0212 2
23.0942 12.7782 0.0151552
22.0154 6.08145 3.99309
23.039 8.17481 2
23.9707 10.1624 0.0136384
23.1494 2.85457 4
24.116 5.14236 2
25.0212 7.30985 0.011018
25.446 1.99012 2
26.2788 4.3278 0.00669248
27.7943 1.27781 0
32.2905 35.7169 3.87348
34.0626 35.808 2
35.7786 35.8038 0.0231841
21.3031 15.8192 2
20.3002 16.9542 3.98282
22.0945 16.6251 3.98154
25.3553 13.897 0.0158622
22.4778 15.024 0.0161775
24.0222 15.6093 0.0167438
25.3778 16.0771 2
23.2617 16.2408 2
24.2006 18.44 3.98109
27.0074 21.4435 3.98704
28.3534 15.965 0.015824
27.4361 18.7859 2
31.1976 33.823 3.88691
32.6363 34.1076 2
34.1769 34.1781 0.0817142
32.988 32.9716 0.161646
33.8301 31.1212 0.114538
35.173 28.8782 0.100799
37.6197 27.1944 0.0527449
35.05 27.3003 2
32.3356 32.286 2
33.1062 29.7782 2
32.5274 28.0563 3.97238
31.3338 31.2149 3.90091
28.7879 24.3847 3.98677
29.5679 21.9206 2
30.2045 19.3258 0.013633
34.9694 25.1334 -0.0109723
32.3071 22.3849 0.0108755
31.6829 25.5863 2
29.6288 27.2928 3.97012
30.1463 37.4919 3.8773
32.1409 37.5006 2
34.0136 37.4989 0.0436074
33.2255 49.1839 -0.00657638
32.2317 46.4005 0.0508244
32.2789 39.2823 0.126004
31.3409 43.7872 0.09917
31.1749 41.1751 0.112844
31.1224 48.0068 2
30.408 39.467 2
29.9248 41.9831 2
30.3804 44.9918 2
29.1546 46.5964 3.99864
29.0284 39.8598 3.89947
28.6627 43.1864 3.9564
29.8378 49.7374 0.0131876
27.8482 48.1967 2
25.9229 46.6837 3.97771
26.4893 50.0043 0.0288552
24.6283 48.4868 2
22.791 47.0978 3.97784
23.3248 50.2078 0.025973
21.6393 48.8038 2
19.9656 47.631 3.97677
20.4518 50.3241 0.0300047
19.0201 49.1016 2
17.6603 48.1858 3.9747
16.1354 48.6881 3.97547
16.8847 49.3374 2
15.8433 50.1742 3.97338
15.3728 52.4192 3.97157
16.7655 51.4117 2
17.9771 50.3363 0.0275634
14.8638 54.9817 3.97417
16.3822 53.8766 2
17.8245 52.7978 0.0309999
14.4559 57.7441 3.97923
15.9711 56.4833 2
17.4296 55.3486 0.0258006
14.2646 60.695 3.9831
15.747 59.2166 2
17.1304 57.8815 0.0208911
14.3322 63.8599 3.99144
15.7865 62.1419 2
17.1339 60.5552 0.0190019
14.6715 67.2507 4
16.0875 65.3007 2
17.4058 63.4711 0.0131654
16.6661 68.6801 2
17.9411 66.6183 0.00688273
18.75 69.9759 0
18.931 15.7747 3.9825
20.2173 14.5867 2
18.9777 13.102 3.98454
21.5851 13.5983 0.0156485
20.5284 11.991 2
19.3414 10.2325 3.98864
19.99 7.14609 3.99308
21.1421 9.14448 2
22.1887 11.0215 0.0139729
20.9142 3.86727 4
22.015 6.08147 2
23.0391 8.17516 0.0111313
23.1494 2.85451 2
24.1164 5.14248 0.00682998
25.446 1.99014 0
30.4431 35.5453 3.88102
32.2907 35.719 2
34.0581 35.8059 0.0543119
21.3028 15.8197 0.0170401
22.0947 16.6247 2
20.3003 16.9534 2
19.2393 18.4016 3.98135
21.7788 17.8416 3.982
25.3774 16.0773 0.0159359
23.2613 16.2407 0.0170377
24.2008 18.4401 2
22.2731 19.8841 3.97809
24.5848 21.3122 3.98229
26.4075 23.7083 3.97947
27.0069 21.444 2
27.4362 18.786 0.0148332
29.9519 33.0224 3.89808
31.1756 33.8024 2
32.6361 34.1045 0.139983
32.3457 32.2878 0.114863
33.1246 29.802 0.101305
35.0669 27.3225 0.0449599
32.5189 28.0482 2
31.3355 31.21 2
30.0991 29.5201 3.96528
27.8676 26.5265 3.97237
28.7894 24.3912 2
29.5701 21.9186 0.00567624
31.6776 25.599 -0.000306639
29.6246 27.2548 2
28.6945 37.5055 3.90512
30.1345 37.4944 2
32.1414 37.502 0.125584
31.1226 48.0068 0.00278727
30.4008 44.9783 0.0491376
30.424 39.4552 0.122328
29.9381 41.9713 0.102198
29.1548 46.6115 2
29.0137 39.8706 2
28.6469 43.1984 2
27.2534 44.864 3.98896
26.7998 40.6107 3.97707
27.8487 48.202 0.0256277
25.9219 46.6854 2
23.9866 45.2326 3.9778
24.628 48.4884 0.0213097
22.791 47.0972 2
20.9197 45.9105 3.97834
21.6393 48.8044 0.0271467
19.9677 47.6304 2
18.3085 46.7455 3.9762
19.0191 49.1019 0.0258541
17.6605 48.1859 2
16.3259 47.7184 3.97422
16.1357 48.6883 2
15.1902 49.0189 3.97429
16.8843 49.3373 0.025457
15.8436 50.1743 2
14.4871 50.9873 3.97259
13.8267 53.4366 3.97307
15.3728 52.4194 2
16.7654 51.4116 0.0291309
13.2513 56.1707 3.97705
14.8635 54.9825 2
16.3825 53.876 0.028535
12.8469 59.1284 3.98257
14.4558 57.745 2
15.9715 56.4824 0.0229218
12.6778 62.3023 3.98977
14.2645 60.6958 2
15.747 59.2156 0.0196881
12.7746 65.6939 4
14.3318 63.8597 2
15.7865 62.1411 0.0155824
14.6714 67.2507 2
16.0878 65.3007 0.00752606
16.6661 68.6801 0
17.665 17.1507 3.98127
18.9311 15.7742 2
17.5094 14.3669 3.98331
20.2171 14.5871 0.0164545
18.978 13.1015 2
17.6372 11.4514 3.98781
20.528 11.9912 0.0146038
19.3417 10.2322 2
18.0501 8.33895 3.99301
18.75 5.0241 4
19.9895 7.14622 2
21.142 9.14482 0.0111372
20.9142 3.86727 2
22.0154 6.08145 0.00691095
23.1494 2.85457 0
29.0397 35.1163 3.8999
30.4261 35.5358 2
32.2905 35.7169 0.126522
22.0945 16.6251 0.0184572
20.3002 16.9542 0.0171817
21.7789 17.8409 2
19.2394 18.4007 2
17.9757 19.935 3.97874
20.8716 19.3705 3.98046
24.2006 18.44 0.0189065
22.2733 19.8834 2
24.5849 21.3131 2
22.3506 21.7107 3.98034
24.6864 23.1579 3.97711
25.4498 25.9362 3.9664
26.4095 23.7082 2
27.0074 21.4435 0.0129622
28.3268 32.3016 3.94661
29.9383 33.018 2
31.1976 33.823 0.113087
31.3338 31.2149 0.099091
32.5274 28.0563 0.0276225
30.0782 29.5062 2
27.0101 29.1197 3.99417
27.8643 26.5242 2
28.7879 24.3847 0.0132343
29.6288 27.2928 0.0298766
26.9226 37.3648 3.96109
28.6767 37.4993 2
30.1463 37.4919 0.122698
29.1546 46.5964 0.00135562
28.6627 43.1864 0.0436034
29.0284 39.8598 0.100527
27.2542 44.8688 2
26.7899 40.6224 2
25.2581 43.1864 3.97144
24.0463 39.4287 3.97699
25.9229 46.6837 0.0222866
23.9808 45.2334 2
21.8892 43.9637 3.97843
22.791 47.0978 0.022156
20.9231 45.9097 2
18.9645 44.9778 3.97708
19.9656 47.631 0.0232333
18.3089 46.7455 2
16.6139 46.2173 3.97396
17.6603 48.1858 0.0253043
16.3261 47.7185 2
14.9199 47.6735 3.97308
16.1354 48.6881 0.0245256
15.1906 49.0191 2
13.7856 49.548 3.97292
15.8433 50.1742 0.0266172
14.4874 50.9875 2
12.8943 51.8752 3.9731
12.1397 54.5281 3.97557
13.8267 53.4371 2
15.3728 52.4192 0.0284266
11.5316 57.4599 3.98109
13.2511 56.1716 2
14.8638 54.9817 0.0258257
11.1324 60.6283 3.9884
12.8467 59.1291 2
14.4559 57.7441 0.0207655
10.9835 64.0165 4
12.6773 62.3019 2
14.2646 60.695 0.0169021
12.7745 65.694 2
14.3322 63.8599 0.00856447
14.6715 67.2507 0
16.3975 18.6456 3.97993
17.665 17.15 2
16.1004 15.7763 3.98274
18.931 15.7747 0.0174969
17.5096 14.3662 2
16.0191 12.8052 3.98581
18.9777 13.102 0.0154646
17.6374 11.4508 2
16.2012 9.66208 3.99281
19.3414 10.2325 0.0113552
18.0497 8.33917 2
16.6661 6.31991 4
18.75 5.02404 2
19.99 7.14609 0.00691924
20.9142 3.86727 0
27.4317 34.7593 3.94605
29.0202 35.1073 2
30.4431 35.5453 0.118983
16.6774 21.3733 3.97444
21.7788 17.8416 0.0180001
19.2393 18.4016 0.018651
20.8718 19.3696 2
17.9759 19.9341 2
19.7183 21.5667 3.98059
22.2731 19.8841 0.0219126
24.5848 21.3122 0.0177064
22.351 21.71 2
24.687 23.1581 2
22.8369 24.5954 3.97093
24.5517 28.5184 3.96819
25.4477 25.9344 2
26.4075 23.7083 0.0205307
26.1681 31.6922 3.99164
28.3115 32.2896 2
29.9519 33.0224 0.101921
30.0991 29.5201 0.0347209
27.0173 29.1199 2
27.8676 26.5265 0.0276274
24.7431 36.8558 3.98269
26.91 37.3656 2
28.6945 37.5055 0.0948769
27.2534 44.864 0.0110419
26.7998 40.6107 0.0229268
25.2523 43.1907 2
24.0386 39.4297 2
22.9617 41.8069 3.9797
21.7626 38.5012 3.97484
23.9866 45.2326 0.0221973
21.8904 43.9642 2
19.7258 42.8937 3.97737
20.9197 45.9105 0.0216574
18.9635 44.9779 2
16.9423 44.3838 3.97376
18.3085 46.7455 0.0238023
16.6139 46.2174 2
14.8382 46.0937 3.97249
16.3259 47.7184 0.0257772
14.92 47.6737 2
13.2927 48.0104 3.97232
15.1902 49.0189 0.0257132
13.7859 49.5482 2
12.1139 50.2534 3.97292
14.4871 50.9873 0.0274066
12.8945 51.8755 2
11.1359 52.8366 3.97492
10.3227 55.7112 3.97956
12.1396 54.5288 2
13.8267 53.4366 0.026925
9.69912 58.8503 3.98698
11.5314 57.4608 2
13.2513 56.1707 0.0229504
9.30605 62.2254 4
11.1317 60.6276 2
12.8469 59.1284 0.0174272
10.9835 64.0165 2
12.6778 62.3023 0.0102269
12.7746 65.6939 0
15.1435 20.1817 3.97631
16.3976 18.6448 2
14.746 17.2995 3.981
17.665 17.1507 0.0187308
16.1005 15.7753 2
14.4817 14.2874 3.98442
17.5094 14.3669 0.0166896
16.0193 12.8044 2
14.4441 11.1133 3.99216
17.6372 11.4514 0.0121888
16.2009 9.66226 2
14.6715 7.74927 4
18.0501 8.33895 0.00699379
16.6661 6.31988 2
18.75 5.0241 0
25.3828 34.258 3.98754
27.4179 34.7555 2
29.0397 35.1163 0.100097
17.8511 22.3192 3.9821
15.5243 22.9184 3.97098
16.6776 21.3724 2
20.8716 19.3705 0.0195377
17.9757 19.935 0.0212638
19.7186 21.5658 2
19.6581 24.377 3.97069
22.3506 21.7107 0.0196566
24.6864 23.1579 0.0228908
22.8358 24.5943 2
21.9189 27.8149 3.97044
23.7405 31.1787 3.97336
24.5564 28.5184 2
25.4498 25.9362 0.0336039
26.1665 31.6856 2
28.3268 32.3016 0.0533935
27.0101 29.1197 0.00583322
22.4971 36.2722 3.97689
24.7315 36.8554 2
26.9226 37.3648 0.0389098
25.2581 43.1864 0.0285559
24.0463 39.4287 0.0230104
22.9603 41.8064 2
21.7606 38.5013 2
20.698 40.6339 3.97626
20.1046 37.7813 3.97627
21.8892 43.9637 0.0215744
19.7272 42.8939 2
17.3556 42.1028 3.97403
18.9645 44.9778 0.0229249
16.9423 44.3839 2
14.8388 44.2029 3.9718
16.6139 46.2173 0.0260378
14.8382 46.0938 2
12.9633 46.2977 3.9719
14.9199 47.6735 0.0269212
13.2929 48.0106 2
11.4857 48.5503 3.97229
13.7856 49.548 0.0270831
12.1142 50.2536 2
10.2623 51.08 3.97431
12.8943 51.8752 0.0268994
11.1362 52.837 2
9.23195 53.889 3.97869
8.38284 56.9826 3.98583
10.3226 55.7117 2
12.1397 54.5281 0.0244338
7.74927 60.3285 4
9.69823 58.8492 2
11.5316 57.4599 0.0189112
9.306 62.2255 2
11.1324 60.6283 0.0115971
10.9835 64.0165 0
13.9571 21.7499 3.97339
15.1437 20.1808 2
13.4472 18.8977 3.97851
16.3975 18.6456 0.020068
14.7461 17.2985 2
13.027 15.8804 3.98353
16.1004 15.7763 0.0172616
14.4817 14.2865 2
12.7816 12.6865 3.99098
16.0191 12.8052 0.0141899
14.4438 11.1135 2
12.7746 9.30605 4
16.2012 9.66208 0.00718981
14.6715 7.74924 2
16.6661 6.31991 0
23.0676 33.7942 3.97527
25.3699 34.2563 2
27.4317 34.7593 0.0539458
17.6233 24.0398 3.97212
17.8513 22.3183 2
14.3069 24.4494 3.9718
15.5244 22.9176 2
16.6774 21.3733 0.0255634
19.0346 27.1961 3.97031
19.7183 21.5667 0.0194063
19.6572 24.3769 2
21.1766 30.6557 3.97182
22.8369 24.5954 0.0290664
21.9208 27.8149 2
23.7318 31.1792 2
24.5517 28.5184 0.0318142
26.1681 31.6922 0.00836158
20.2452 35.9189 3.97538
22.4954 36.2726 2
24.7431 36.8558 0.0173093
22.9617 41.8069 0.0203033
21.7626 38.5012 0.0251607
20.6965 40.6342 2
20.1027 37.7814 2
18.0763 39.0011 3.97447
19.7258 42.8937 0.0226263
17.3555 42.1028 2
14.7996 41.9194 3.97184
16.9423 44.3838 0.0262427
14.8388 44.203 2
12.7028 44.3937 3.97108
14.8382 46.0937 0.0275146
12.9633 46.2979 2
10.9866 46.7346 3.97197
13.2927 48.0104 0.0276802
11.4859 48.5506 2
9.52606 49.2398 3.97351
12.1139 50.2534 0.0270756
10.2626 51.0802 2
8.2653 52.0017 3.9779
11.1359 52.8366 0.0250819
9.2322 53.889 2
7.19196 55.0323 3.98546
6.31991 58.3339 4
8.38201 56.9806 2
10.3227 55.7112 0.0204396
7.74924 60.3285 2
9.69912 58.8503 0.0130173
9.30605 62.2254 0
13.227 25.3616 3.975
12.8251 23.2795 3.97319
13.9573 21.749 2
12.2335 20.5479 3.97649
15.1435 20.1817 0.0236887
13.4473 18.8966 2
11.6569 17.562 3.98231
14.746 17.2995 0.0189997
13.0271 15.8795 2
11.219 14.3715 3.98934
14.4817 14.2874 0.0155832
12.7812 12.6868 2
10.9835 10.9835 4
14.4441 11.1133 0.00783505
12.7745 9.306 2
14.6715 7.74927 0
20.6139 33.3889 3.97393
23.0687 33.7945 2
25.3828 34.258 0.0124629
15.8949 26.397 3.97134
17.623 24.0394 2
17.8511 22.3192 0.0179043
14.3067 24.4488 2
15.5243 22.9184 0.0290175
18.3872 30.1665 3.97207
19.0343 27.1961 2
19.6581 24.377 0.029305
21.1788 30.6556 2
21.9189 27.8149 0.0295615
23.7405 31.1787 0.026643
17.7155 35.9613 3.97442
20.2463 35.919 2
22.4971 36.2722 0.0231131
20.698 40.6339 0.0237355
20.1046 37.7813 0.0237319
18.0768 39.0012 2
14.3284 39.1761 3.97244
17.3556 42.1028 0.0259704
14.7993 41.9195 2
12.3931 42.2776 3.97017
14.8388 44.2029 0.0281954
12.7028 44.3938 2
10.5634 44.8034 3.97109
12.9633 46.2977 0.0280984
10.9866 46.7349 2
8.90823 47.3193 3.97319
11.4857 48.5503 0.0277129
9.52629 49.24 2
7.43269 50.0349 3.97695
10.2623 51.08 0.0256935
8.26564 52.0016 2
6.13268 53.0066 3.98556
9.23195 53.889 0.0213126
7.19145 55.0299 2
5.0241 56.25 4
6.31988 58.3339 2
8.38284 56.9826 0.0141706
7.74927 60.3285 0
13.4643 26.8126 3.97067
11.9391 24.7875 3.97288
13.2268 25.3611 2
11.1377 22.2336 3.97494
12.8253 23.2788 2
13.9571 21.7499 0.0266075
12.2338 20.5468 2
10.3876 19.3175 3.98073
13.4472 18.8977 0.0214907
11.657 17.5609 2
9.75991 16.1553 3.98775
13.027 15.8804 0.016468
11.2185 14.3719 2
9.30607 12.7746 4
12.7816 12.6865 0.00902289
10.9835 10.9835 2
12.7746 9.30605 0
17.878 33.1062 3.97363
20.6154 33.389 2
23.0676 33.7942 0.0247263
15.4893 29.6325 3.97188
15.894 26.3967 2
17.6233 24.0398 0.027881
14.3069 24.4494 0.028199
18.3887 30.1666 2
19.0346 27.1961 0.0296924
21.1766 30.6557 0.0281836
14.9361 36.0164 3.97298
17.7159 35.9614 2
20.2452 35.9189 0.0246232
12.6118 37.8289 3.97232
18.0763 39.0011 0.0255281
14.3288 39.1761 2
11.9136 40.1408 3.9707
14.7996 41.9194 0.0281578
12.3928 42.2777 2
10.164 42.7785 3.96996
12.7028 44.3937 0.0289234
10.5634 44.8037 2
8.38602 45.3215 3.9725
10.9866 46.7346 0.0280309
8.90832 47.3195 2
6.72403 48.0002 3.97652
9.52606 49.2398 0.0264936
7.43291 50.0347 2
5.20968 50.9096 3.98543
8.2653 52.0017 0.0220953
6.13245 53.0047 2
3.86727 54.0858 4
7.19196 55.0323 0.0145413
5.02404 56.25 2
6.31991 58.3339 0
12.9172 29.0308 3.97027
11.3695 26.4869 3.97123
13.4642 26.8123 2
10.1976 23.9676 3.97374
11.9391 24.7869 2
13.227 25.3616 0.0250013
9.24057 21.1374 3.9789
11.138 22.2327 2
12.8251 23.2795 0.0268116
12.2335 20.5479 0.023509
10.3878 19.3166 2
8.41582 18.027 3.98656
11.6569 17.562 0.017686
9.75921 16.1561 2
7.74928 14.6715 4
11.219 14.3715 0.0106598
9.30602 12.7745 2
10.9835 10.9835 0
14.4995 32.8595 3.97259
17.8799 33.1063 2
20.6139 33.3889 0.026066
15.4895 29.6324 2
15.8949 26.397 0.0286582
18.3872 30.1665 0.0279344
12.906 36.2082 3.97179
14.9365 36.0164 2
17.7155 35.9613 0.0255752
12.612 37.8289 2
11.2712 38.3097 3.97124
14.3284 39.1761 0.0275591
11.9138 40.1408 2
9.75067 40.7546 3.96975
12.3931 42.2776 0.0298324
10.164 42.7786 2
7.93631 43.2701 3.97105
10.5634 44.8034 0.0289143
8.38603 45.3217 2
6.13024 45.9055 3.97613
8.90823 47.3193 0.0268098
6.72413 48.0001 2
4.42138 48.7506 3.98528
7.43269 50.0349 0.0230485
5.20955 50.9084 2
2.85457 51.8506 4
6.13268 53.0066 0.0144406
3.86727 54.0858 2
5.0241 56.25 0
12.0618 31.2546 3.97111
10.7811 28.4141 3.97069
12.917 29.0306 2
9.41304 25.7982 3.97276
11.3695 26.4866 2
13.4643 26.8126 0.0293258
8.22834 23.0231 3.97737
10.1979 23.967 2
11.9391 24.7875 0.0271151
7.19815 19.9779 3.9856
9.24099 21.1369 2
11.1377 22.2336 0.0250639
10.3876 19.3175 0.0192662
8.41517 18.0285 2
6.31992 16.6661 4
9.75991 16.1553 0.0122473
7.74926 14.6714 2
9.30607 12.7746 0
12.0934 34.2935 3.97181
14.4991 32.8595 2
17.878 33.1062 0.0263714
15.4893 29.6325 0.0281224
10.8351 36.6108 3.97118
12.9062 36.2082 2
14.9361 36.0164 0.0270205
12.6118 37.8289 0.0276832
11.2714 38.3097 2
9.34594 38.8238 3.9699
11.9136 40.1408 0.0293008
9.75088 40.7547 2
7.54883 41.2112 3.97033
10.164 42.7785 0.0300418
7.93626 43.2703 2
5.6429 43.7684 3.97519
8.38602 45.3215 0.0274986
6.13026 45.9054 2
3.76712 46.5367 3.98496
6.72403 48.0002 0.0234808
4.42133 48.75 2
1.99014 49.554 4
5.20968 50.9096 0.0145705
2.85451 51.8506 2
3.86727 54.0858 0
10.9211 32.9181 3.97153
10.0943 30.3814 3.97033
12.0616 31.2545 2
8.72101 27.7317 3.97234
10.781 28.4139 2
12.9172 29.0308 0.0297346
7.35428 24.9826 3.97638
9.41314 25.7979 2
11.3695 26.4869 0.0287722
6.11528 22.0024 3.98521
8.22874 23.0229 2
10.1976 23.9676 0.0262585
5.02411 18.75 4
7.1978 19.9797 2
9.24057 21.1374 0.0210986
8.41582 18.027 0.0134398
6.3199 16.6661 2
7.74928 14.6715 0
10.4435 34.9996 3.97099
12.0935 34.2935 2
14.4995 32.8595 0.0274137
9.01729 36.985 3.96995
10.8355 36.6108 2
12.906 36.2082 0.0282126
11.2712 38.3097 0.0287632
9.34592 38.8238 2
7.22997 39.182 3.97025
9.75067 40.7546 0.0302541
7.54899 41.2112 2
5.25911 41.6141 3.9739
7.93631 43.2701 0.0289512
5.64286 43.7684 2
3.24512 44.2819 3.98409
6.13024 45.9055 0.0238709
3.76713 46.5366 2
1.27781 47.2057 4
4.42138 48.7506 0.0147232
1.99012 49.554 2
2.85457 51.8506 0
10.088 33.8809 3.97125
9.38761 32.154 3.97091
10.921 32.9181 2
8.0705 29.6953 3.97169
10.0942 30.3813 2
12.0618 31.2546 0.0288908
6.59812 27.0086 3.97595
8.72099 27.7315 2
10.7811 28.4141 0.0293096
5.17076 24.0957 3.98511
7.35449 24.9825 2
9.41304 25.7982 0.0272417
3.86728 20.9142 4
6.11517 22.0039 2
8.22834 23.0231 0.0226303
5.02406 18.75 2
7.19815 19.9779 0.0144008
6.31992 16.6661 0
8.84355 35.2793 3.97027
10.4435 34.9995 2
12.0934 34.2935 0.0281862
7.01365 37.2059 3.97038
9.01729 36.985 2
10.8351 36.6108 0.0288207
9.34594 38.8238 0.0301
7.23002 39.1821 2
4.98746 39.4674 3.9733
7.54883 41.2112 0.0296713
5.25927 41.6139 2
2.85595 42.0023 3.98304
5.6429 43.7684 0.0248122
3.24513 44.282 2
0.720592 44.8159 4
3.76712 46.5367 0.0150417
1.27778 47.2057 2
1.99014 49.554 0
8.88425 33.6974 3.9712
10.088 33.8809 2
7.50841 31.609 3.97187
9.38751 32.1539 2
10.9211 32.9181 0.0284655
5.94354 29.0696 3.97549
8.0704 29.6952 2
10.0943 30.3814 0.0296661
4.35856 26.2482 3.98491
6.59818 27.0086 2
8.72101 27.7317 0.0276569
2.85458 23.1494 4
5.1707 24.0965 2
7.35428 24.9826 0.0236238
3.86728 20.9142 2
6.11528 22.0024 0.0147879
5.02411 18.75 0
6.96393 35.306 3.97045
8.8437 35.2792 2
10.4435 34.9996 0.0290149
4.83757 37.3399 3.97374
7.01371 37.2059 2
9.01729 36.985 0.0300483
7.22997 39.182 0.0297452
4.9875 39.4674 2
2.60429 39.714 3.98231
5.25911 41.6141 0.0261009
2.85614 42.0025 2
0.320823 42.3947 4
3.24512 44.2819 0.0159117
0.720551 44.8159 2
1.27781 47.2057 0
7.12285 33.4608 3.97167
8.88427 33.6973 2
10.088 33.8809 0.0287492
5.4148 31.1336 3.97521
7.50829 31.6089 2
9.38761 32.154 0.0290921
3.68046 28.4438 3.98444
5.94347 29.0697 2
8.0705 29.6953 0.0283085
1.99015 25.446 4
4.35855 26.2485 2
6.59812 27.0086 0.0240531
2.85453 23.1494 2
5.17076 24.0957 0.0148866
3.86728 20.9142 0
4.85189 35.2517 3.97375
6.96408 35.306 2
8.84355 35.2793 0.0297348
2.49567 37.4286 3.98269
4.83763 37.34 2
7.01365 37.2059 0.0296246
4.98746 39.4674 0.0267011
2.60438 39.7144 2
0.080333 39.9526 4
2.85595 42.0023 0.0169617
0.320817 42.3947 2
0.720592 44.8159 0
5.04467 33.1902 3.97476
7.12286 33.4607 2
8.88425 33.6974 0.0288047
3.14499 30.6663 3.98374
5.41467 31.1337 2
7.50841 31.609 0.0281257
1.27793 27.7943 4
3.68046 28.4438 2
5.94354 29.0696 0.0245118
1.99013 25.446 2
4.35856 26.2482 0.015095
2.85458 23.1494 0
2.54782 35.1591 3.98275
4.85205 35.2518 2
6.96393 35.306 0.0295515
0 37.5 4
2.4958 37.4289 2
4.83757 37.3399 0.0262568
2.60429 39.714 0.0176878
0.0802903 39.9526 2
0.320823 42.3947 0
2.76521 32.9058 3.98327
5.04468 33.1904 2
7.12285 33.4608 0.0283263
0.721173 30.1842 4
3.14498 30.6664 2
5.4148 31.1336 0.024788
1.27779 27.7943 2
3.68046 28.4438 0.0155553
1.99015 25.446 0
0.0806499 35.0474 4
2.548 35.1595 2
4.85189 35.2517 0.0262536
0 37.5 2
2.49567 37.4286 0.0173119
0.080333 39.9526 0
0.32156 32.6054 4
2.76528 32.9062 2
5.04467 33.1902 0.0252429
0.72056 30.1841 2
3.14499 30.6663 0.0162565
1.27793 27.7943 0
0.0802889 35.0474 2
2.54782 35.1591 0.0172544
0 37.5 0
0.320817 32.6053 2
2.76521 32.9058 0.0167264
0.721173 30.1842 0
0.0806499 35.0474 0
0.32156 32.6054 0
CELLS 1910 17190
8 18 6 25 56 2 0 5 16
8 57 23 6 18 17 4 0 2
8 78 36 9 29 31 11 1 7
8 31 11 1 7 79 37 10 30
8 110 57 18 50 48 17 2 14
8 50 18 56 111 14 2 16 49
8 116 62 22 55 52 20 3 15
8 56 25 67 118 16 5 24 53
8 119 63 23 57 54 21 4 17
8 55 22 63 119 15 3 21 54
8 58 26 68 121 18 6 25 56
8 122 65 26 58 57 23 6 18
8 73 31 7 27 142 79 30 71
8 143 78 29 72 73 31 7 27
8 83 147 76 34 32 74 28 8
8 84 148 78 36 33 75 29 9
8 76 34 8 28 148 84 33 75
8 37 79 150 86 10 30 77 35
8 151 87 36 78 80 38 11 31
8 80 38 11 31 152 88 37 79
8 175 100 42 94 96 44 12 40
8 44 96 176 101 12 40 95 43
8 101 176 98 46 43 95 41 13
8 46 98 178 103 13 41 97 45
8 178 103 45 97 147 83 32 74
8 189 116 55 109 106 52 15 47
8 111 56 118 191 49 16 53 107
8 192 119 57 110 108 54 17 48
8 109 55 119 192 47 15 54 108
8 194 122 58 112 110 57 18 50
8 112 58 121 195 50 18 56 111
8 115 61 19 51 197 124 59 113
8 115 61 125 198 51 19 60 114
8 198 125 62 116 114 60 20 52
8 200 127 64 120 116 62 22 55
8 118 67 132 202 53 24 66 117
8 121 68 133 203 56 25 67 118
8 120 64 128 204 55 22 63 119
8 204 128 65 122 119 63 23 57
8 206 134 68 121 123 69 26 58
8 123 69 26 58 207 131 65 122
8 226 147 74 138 140 76 28 70
8 229 148 75 139 143 78 29 72
8 140 76 28 70 229 148 75 139
8 142 79 30 71 231 150 77 141
8 144 80 31 73 232 152 79 142
8 233 151 78 143 144 80 31 73
8 150 86 35 77 235 154 81 145
8 235 154 81 145 146 82 39 91
8 146 82 39 91 236 155 90 165
8 238 157 83 147 149 85 34 76
8 239 158 84 148 151 87 36 78
8 149 85 34 76 239 158 84 148
8 152 88 37 79 241 160 86 150
8 242 161 87 151 153 89 38 80
8 153 89 38 80 243 162 88 152
8 171 98 41 92 265 178 97 169
8 265 178 97 169 226 147 74 138
8 172 96 40 93 266 176 95 170
8 266 176 95 170 171 98 41 92
8 269 175 94 173 172 96 40 93
8 271 180 99 174 175 100 42 94
8 197 124 59 113 271 180 99 174
8 272 181 100 175 177 102 44 96
8 273 182 101 176 179 104 46 98
8 177 102 44 96 273 182 101 176
8 179 104 46 98 275 184 103 178
8 275 184 103 178 238 157 83 147
8 188 115 51 105 283 197 113 186
8 188 115 198 284 105 51 114 187
8 284 198 116 189 187 114 52 106
8 286 200 120 193 189 116 55 109
8 191 118 202 288 107 53 117 190
8 195 121 203 289 111 56 118 191
8 193 120 204 290 109 55 119 192
8 290 204 122 194 192 119 57 110
8 196 123 58 112 292 207 122 194
8 293 206 121 195 196 123 58 112
8 199 126 61 115 297 211 124 197
8 298 212 127 200 198 125 62 116
8 199 126 212 298 115 61 125 198
8 205 129 64 120 300 214 127 200
8 301 217 130 201 202 132 66 117
8 209 136 168 264 301 217 130 201
8 302 219 132 202 203 133 67 118
8 303 220 133 203 206 134 68 121
8 205 129 215 304 120 64 128 204
8 304 215 131 207 204 128 65 122
8 306 221 134 206 208 135 69 123
8 208 135 69 123 307 218 131 207
8 210 137 167 263 309 223 136 209
8 328 238 147 226 230 149 76 140
8 228 146 91 166 329 236 165 260
8 231 150 77 141 330 235 145 227
8 330 235 145 227 228 146 91 166
8 332 239 148 229 233 151 78 143
8 230 149 76 140 332 239 148 229
8 232 152 79 142 334 241 150 231
8 234 153 80 144 335 243 152 232
8 336 242 151 233 234 153 80 144
8 236 155 90 165 338 245 164 259
8 241 160 86 150 339 246 154 235
8 339 246 154 235 237 156 82 146
8 237 156 82 146 340 247 155 236
8 342 249 157 238 240 159 85 149
8 343 250 158 239 242 161 87 151
8 240 159 85 149 343 250 158 239
8 243 162 88 152 345 252 160 241
8 244 163 253 346 153 89 161 242
8 244 163 89 153 347 254 162 243
8 311 224 261 371 210 137 167 263
8 263 167 262 372 209 136 168 264
8 267 179 98 171 375 275 178 265
8 375 275 178 265 328 238 147 226
8 376 273 176 266 267 179 98 171
8 268 177 96 172 376 273 176 266
8 379 272 175 269 268 177 96 172
8 380 271 174 270 269 175 94 173
8 283 197 113 186 380 271 174 270
8 381 277 180 271 272 181 100 175
8 297 211 124 197 381 277 180 271
8 382 278 181 272 274 183 102 177
8 274 183 102 177 383 279 182 273
8 383 279 182 273 276 185 104 179
8 385 281 184 275 342 249 157 238
8 276 185 104 179 385 281 184 275
8 285 199 115 188 393 297 197 283
8 394 298 200 286 284 198 116 189
8 285 199 298 394 188 115 198 284
8 291 205 120 193 396 300 200 286
8 397 301 201 287 288 202 117 190
8 295 209 264 374 397 301 201 287
8 398 302 202 288 289 203 118 191
8 399 303 203 289 293 206 121 195
8 291 205 304 400 193 120 204 290
8 400 304 207 292 290 204 122 194
8 294 208 123 196 402 307 207 292
8 403 306 206 293 294 208 123 196
8 296 210 263 373 405 309 209 295
8 408 312 213 299 297 211 126 199
8 299 213 313 409 199 126 212 298
8 409 313 214 300 298 212 127 200
8 305 216 129 205 411 315 214 300
8 412 318 217 301 302 219 132 202
8 309 223 136 209 412 318 217 301
8 413 320 219 302 303 220 133 203
8 306 221 321 414 206 134 220 303
8 307 218 131 207 415 316 215 304
8 305 216 316 415 205 129 215 304
8 417 322 221 306 308 222 135 208
8 308 222 135 208 418 319 218 307
8 310 225 137 210 420 325 223 309
8 423 326 224 311 310 225 137 210
8 329 236 165 260 441 338 259 368
8 442 342 238 328 333 240 149 230
8 331 237 146 228 443 340 236 329
8 334 241 150 231 444 339 235 330
8 444 339 235 330 331 237 146 228
8 446 343 239 332 336 242 151 233
8 333 240 149 230 446 343 239 332
8 335 243 152 232 448 345 241 334
8 337 244 153 234 449 347 243 335
8 337 244 346 450 234 153 242 336
8 338 245 164 259 452 349 258 367
8 340 247 155 236 453 350 245 338
8 345 252 160 241 454 351 246 339
8 454 351 246 339 341 248 156 237
8 341 248 156 237 455 352 247 340
8 240 159 251 344 342 249 354 457
8 242 161 253 346 343 250 355 458
8 343 250 355 458 240 159 251 344
8 347 254 162 243 460 357 252 345
8 348 255 358 461 244 163 253 346
8 348 255 163 244 462 359 254 347
8 473 360 257 365 363 256 364 482
8 452 349 258 367 365 257 366 485
8 422 324 369 488 311 224 261 371
8 371 261 370 490 263 167 262 372
8 407 311 371 491 296 210 263 373
8 373 263 372 492 295 209 264 374
8 493 385 275 375 442 342 238 328
8 377 276 179 267 493 385 275 375
8 378 274 177 268 494 383 273 376
8 494 383 273 376 377 276 179 267
8 497 382 272 379 378 274 177 268
8 498 381 271 380 379 272 175 269
8 393 297 197 283 498 381 271 380
8 499 387 277 381 382 278 181 272
8 408 312 211 297 499 387 277 381
8 500 388 278 382 384 280 183 274
8 501 389 279 383 386 282 185 276
8 384 280 183 274 501 389 279 383
8 386 282 185 276 503 391 281 385
8 503 391 281 385 457 354 249 342
8 511 408 299 395 393 297 199 285
8 395 299 409 512 285 199 298 394
8 512 409 300 396 394 298 200 286
8 401 305 205 291 514 411 300 396
8 515 412 301 397 398 302 202 288
8 405 309 209 295 515 412 301 397
8 516 413 302 398 399 303 203 289
8 403 306 414 517 293 206 303 399
8 402 307 207 292 518 415 304 400
8 401 305 415 518 291 205 304 400
8 404 308 208 294 520 418 307 402
8 521 417 306 403 404 308 208 294
8 406 310 210 296 523 420 309 405
8 526 423 311 407 406 310 210 296
8 410 314 213 299 527 424 312 408
8 528 425 315 411 409 313 214 300
8 410 314 425 528 299 213 313 409
8 416 317 216 305 530 427 315 411
8 531 430 318 412 413 320 219 302
8 420 325 223 309 531 430 318 412
8 532 432 320 413 414 321 220 303
8 417 322 433 533 306 221 321 414
8 418 319 218 307 534 428 316 415
8 416 317 428 534 305 216 316 415
8 419 323 434 536 308 222 322 417
8 419 323 222 308 537 431 319 418
8 421 327 225 310 539 438 325 420
8 421 327 439 541 310 225 326 423
8 543 437 324 422 423 326 224 311
8 441 338 259 368 559 452 367 486
8 443 340 236 329 560 453 338 441
8 333 240 344 447 442 342 457 561
8 445 341 237 331 562 455 340 443
8 448 345 241 334 563 454 339 444
8 563 454 339 444 445 341 237 331
8 336 242 346 450 446 343 458 565
8 446 343 458 565 333 240 344 447
8 449 347 243 335 567 460 345 448
8 451 348 244 337 568 462 347 449
8 451 348 461 569 337 244 346 450
8 570 463 349 452 473 360 257 365
8 453 350 245 338 570 463 349 452
8 455 352 247 340 571 464 350 453
8 460 357 252 345 572 465 351 454
8 572 465 351 454 456 353 248 341
8 456 353 248 341 573 466 352 455
8 344 251 356 459 457 354 468 575
8 458 355 469 576 344 251 356 459
8 346 253 358 461 458 355 469 576
8 462 359 254 347 578 471 357 460
8 348 255 359 462 461 358 472 579
8 591 474 360 473 475 361 256 363
8 475 361 256 363 594 477 362 479
8 363 256 364 482 479 362 480 603
8 590 473 365 484 481 363 482 605
8 482 364 257 365 606 483 366 485
8 559 452 367 486 484 365 485 607
8 542 436 487 609 422 324 369 488
8 525 422 488 611 407 311 371 491
8 488 369 489 612 371 261 370 490
8 491 371 490 613 373 263 372 492
8 495 386 276 377 614 503 385 493
8 614 503 385 493 561 457 342 442
8 615 501 383 494 495 386 276 377
8 496 384 274 378 615 501 383 494
8 618 500 382 497 496 384 274 378
8 619 499 381 498 497 382 272 379
8 511 408 297 393 619 499 381 498
8 620 505 387 499 500 388 278 382
8 527 424 312 408 620 505 387 499
8 502 390 506 621 384 280 388 500
8 622 507 389 501 504 392 282 386
8 502 390 280 384 622 507 389 501
8 504 392 282 386 624 509 391 503
8 624 509 391 503 575 468 354 457
8 513 410 299 395 630 527 408 511
8 631 528 411 514 512 409 300 396
8 513 410 528 631 395 299 409 512
8 519 416 305 401 633 530 411 514
8 634 531 412 515 516 413 302 398
8 523 420 309 405 634 531 412 515
8 635 532 413 516 517 414 303 399
8 521 417 533 636 403 306 414 517
8 520 418 307 402 637 534 415 518
8 519 416 534 637 401 305 415 518
8 522 419 308 404 639 537 418 520
8 522 419 536 640 404 308 417 521
8 524 421 310 406 642 539 420 523
8 524 421 541 644 406 310 423 526
8 646 543 422 525 526 423 311 407
8 529 426 314 410 647 544 424 527
8 528 425 545 648 411 315 427 530
8 529 426 545 648 410 314 425 528
8 535 429 317 416 649 546 427 530
8 650 548 430 531 532 432 320 413
8 539 438 325 420 650 548 430 531
8 533 433 550 651 414 321 432 532
8 536 434 551 652 417 322 433 533
8 537 431 319 418 653 547 428 534
8 535 429 547 653 416 317 428 534
8 538 435 552 654 419 323 434 536
8 538 435 323 419 655 549 431 537
8 540 440 327 421 657 556 438 539
8 540 440 557 659 421 327 439 541
8 541 439 555 660 423 326 437 543
8 661 554 436 542 543 437 324 422
8 676 570 452 559 590 473 365 484
8 560 453 338 441 676 570 452 559
8 562 455 340 443 677 571 453 560
8 447 344 459 566 561 457 575 678
8 564 456 341 445 679 573 455 562
8 567 460 345 448 680 572 454 563
8 680 572 454 563 564 456 341 445
8 565 458 576 682 447 344 459 566
8 450 346 461 569 565 458 576 682
8 568 462 347 449 684 578 460 567
8 451 348 462 568 569 461 579 685
8 686 580 463 570 591 474 360 473
8 571 464 350 453 686 580 463 570
8 573 466 352 455 687 581 464 571
8 572 465 582 688 460 357 471 578
8 574 467 582 688 456 353 465 572
8 574 467 353 456 689 583 466 573
8 459 356 470 577 575 468 585 691
8 576 469 586 692 459 356 470 577
8 461 358 472 579 576 469 586 692
8 462 359 471 578 579 472 588 694
8 704 591 473 590 593 475 363 481
8 595 476 592 705 475 361 474 591
8 593 475 363 481 707 594 479 602
8 594 477 362 479 709 598 478 600
8 595 476 361 475 711 597 477 594
8 479 362 480 603 600 478 601 720
8 481 363 482 605 602 479 603 722
8 603 480 364 482 723 604 483 606
8 605 482 365 484 724 606 485 607
8 656 553 608 726 542 436 487 609
8 645 542 609 728 525 422 488 611
8 609 487 610 729 488 369 489 612
8 611 488 612 730 491 371 490 613
8 616 504 386 495 731 624 503 614
8 731 624 503 614 678 575 457 561
8 732 622 501 615 616 504 386 495
8 617 502 384 496 732 622 501 615
8 617 502 621 735 496 384 500 618
8 736 620 499 619 618 500 382 497
8 630 527 408 511 736 620 499 619
8 621 506 626 737 500 388 505 620
8 647 544 424 527 737 626 505 620
8 623 508 627 738 502 390 506 621
8 623 508 390 502 739 628 507 622
8 625 510 628 739 504 392 507 622
8 740 629 509 624 691 585 468 575
8 625 510 392 504 740 629 509 624
8 632 529 410 513 744 647 527 630
8 631 528 648 745 514 411 530 633
8 632 529 648 745 513 410 528 631
8 638 535 416 519 746 649 530 633
8 747 650 531 634 635 532 413 516
8 642 539 420 523 747 650 531 634
8 636 533 651 748 517 414 532 635
8 640 536 652 749 521 417 533 636
8 639 537 418 520 750 653 534 637
8 638 535 653 750 519 416 534 637
8 641 538 419 522 751 655 537 639
8 641 538 654 752 522 419 536 640
8 643 540 421 524 753 657 539 642
8 643 540 659 755 524 421 541 644
8 644 541 660 757 526 423 543 646
8 758 661 542 645 646 543 422 525
8 529 426 544 647 648 545 662 759
8 530 427 545 648 649 546 663 760
8 535 429 546 649 653 547 664 761
8 762 666 548 650 651 550 432 532
8 657 556 438 539 762 666 548 650
8 652 551 668 763 533 433 550 651
8 654 552 669 764 536 434 551 652
8 655 549 431 537 765 665 547 653
8 538 435 549 655 654 552 667 766
8 661 554 671 768 542 436 553 656
8 658 558 440 540 769 674 556 657
8 658 558 675 770 540 440 557 659
8 659 557 673 771 541 439 555 660
8 660 555 672 772 543 437 554 661
8 788 686 570 676 704 591 473 590
8 677 571 453 560 788 686 570 676
8 679 573 455 562 789 687 571 677
8 566 459 577 683 678 575 691 790
8 681 574 456 564 791 689 573 679
8 680 572 688 792 567 460 578 684
8 681 574 688 792 564 456 572 680
8 682 576 692 794 566 459 577 683
8 569 461 579 685 682 576 692 794
8 568 462 578 684 685 579 694 796
8 687 581 464 571 798 696 580 686
8 798 696 580 686 705 592 474 591
8 689 583 466 573 799 697 581 687
8 688 582 698 800 578 471 588 694
8 690 584 698 800 574 467 582 688
8 690 584 467 574 801 699 583 689
8 693 587 701 803 577 470 585 691
8 693 587 470 577 804 702 586 692
8 695 589 702 804 579 472 586 692
8 695 589 472 579 805 703 588 694
8 708 595 705 813 593 475 591 704
8 710 596 706 814 595 476 592 705
8 707 594 479 602 816 709 600 719
8 708 595 475 593 817 711 594 707
8 709 598 478 600 819 715 599 717
8 711 597 477 594 820 714 598 709
8 710 596 476 595 822 713 597 711
8 600 478 601 720 717 599 718 832
8 602 479 603 722 719 600 720 834
8 720 601 480 603 835 721 604 723
8 722 603 482 605 836 723 606 724
8 767 670 725 839 656 553 608 726
8 756 656 726 841 645 542 609 728
8 726 608 727 842 609 487 610 729
8 728 609 729 843 611 488 612 730
8 844 740 624 731 790 691 575 678
8 733 625 504 616 844 740 624 731
8 734 623 502 617 845 739 622 732
8 733 625 739 845 616 504 622 732
8 734 623 738 846 617 502 621 735
8 735 621 737 847 618 500 620 736
8 744 647 527 630 847 737 620 736
8 621 506 627 738 737 626 741 848
8 647 544 626 737 759 662 741 848
8 623 508 628 739 738 627 742 849
8 740 629 585 691 850 743 700 802
8 625 510 629 740 739 628 743 850
8 632 529 647 744 745 648 759 854
8 633 530 648 745 746 649 760 855
8 638 535 649 746 750 653 761 856
8 857 762 650 747 748 651 532 635
8 753 657 539 642 857 762 650 747
8 749 652 763 858 636 533 651 748
8 752 654 764 859 640 536 652 749
8 751 655 537 639 860 765 653 750
8 641 538 655 751 752 654 766 861
8 754 658 540 643 862 769 657 753
8 754 658 770 863 643 540 659 755
8 755 659 771 864 644 541 660 757
8 758 661 768 866 645 542 656 756
8 757 660 772 867 646 543 661 758
8 759 662 773 868 648 545 663 760
8 649 546 663 760 761 664 774 871
8 765 665 547 653 872 775 664 761
8 873 777 666 762 763 668 550 651
8 769 674 556 657 873 777 666 762
8 764 669 779 874 652 551 668 763
8 654 552 667 766 764 669 778 875
8 655 549 665 765 766 667 776 876
8 768 671 782 877 656 553 670 767
8 772 672 783 878 661 554 671 768
8 658 558 674 769 770 675 786 879
8 659 557 675 770 771 673 785 881
8 882 784 672 772 771 673 555 660
8 789 687 571 677 897 798 686 788
8 897 798 686 788 813 705 591 704
8 791 689 573 679 898 799 687 789
8 795 693 803 900 683 577 691 790
8 793 690 574 681 901 801 689 791
8 792 688 800 902 684 578 694 796
8 793 690 800 902 681 574 688 792
8 795 693 577 683 903 804 692 794
8 797 695 804 903 685 579 692 794
8 797 695 579 685 904 805 694 796
8 905 806 697 799 798 696 581 687
8 814 706 806 905 705 592 696 798
8 689 583 697 799 801 699 808 907
8 800 698 809 908 694 588 703 805
8 690 584 699 801 800 698 809 908
8 803 701 810 909 691 585 700 802
8 693 587 702 804 803 701 811 910
8 695 589 703 805 804 702 812 911
8 818 710 814 919 708 595 705 813
8 821 712 815 920 710 596 706 814
8 816 709 600 719 922 819 717 831
8 817 711 594 707 923 820 709 816
8 818 710 595 708 924 822 711 817
8 819 715 599 717 926 827 716 829
8 820 714 598 709 927 826 715 819
8 929 825 713 822 820 714 597 711
8 821 712 596 710 930 824 713 822
8 717 599 718 832 829 716 830 942
8 719 600 720 834 831 717 832 944
8 832 718 601 720 945 833 721 835
8 834 720 603 722 946 835 723 836
8 869 780 838 950 767 670 725 839
8 865 767 839 952 756 656 726 841
8 839 725 840 953 726 608 727 842
8 841 726 842 954 728 609 729 843
8 844 740 691 790 955 850 802 899
8 733 625 740 844 845 739 850 955
8 734 623 739 845 846 738 849 956
8 735 621 738 846 847 737 848 957
8 744 647 737 847 854 759 848 957
8 738 627 742 849 848 741 851 958
8 848 741 851 958 759 662 773 868
8 850 743 700 802 959 852 807 906
8 849 742 628 739 959 852 743 850
8 854 759 868 965 745 648 760 855
8 746 649 760 855 856 761 871 966
8 860 765 653 750 967 872 761 856
8 968 873 762 857 858 763 651 748
8 862 769 657 753 968 873 762 857
8 859 764 874 969 749 652 763 858
8 752 654 766 861 859 764 875 970
8 751 655 765 860 861 766 876 971
8 754 658 769 862 863 770 879 972
8 755 659 770 863 864 771 881 974
8 976 882 772 867 864 771 660 757
8 866 768 877 977 756 656 767 865
8 867 772 878 978 758 661 768 866
8 760 663 773 868 871 774 883 980
8 870 781 837 948 982 890 780 869
8 982 890 780 869 877 782 670 767
8 761 664 774 871 872 775 884 984
8 876 776 665 765 985 885 775 872
8 873 777 668 763 986 887 779 874
8 769 674 777 873 879 786 887 986
8 764 669 778 875 874 779 888 987
8 766 667 776 876 875 778 886 988
8 878 783 892 989 768 671 782 877
8 878 783 672 772 990 893 784 882
8 880 787 675 770 991 896 786 879
8 880 787 895 992 770 675 785 881
8 881 785 894 993 771 673 784 882
8 1006 905 799 898 897 798 687 789
8 919 814 905 1006 813 705 798 897
8 791 689 799 898 901 801 907 1007
8 900 803 909 1009 790 691 802 899
8 795 693 804 903 900 803 910 1010
8 902 800 908 1011 796 694 805 904
8 793 690 801 901 902 800 908 1011
8 797 695 805 904 903 804 911 1012
8 799 697 806 905 907 808 912 1013
8 920 815 912 1013 814 706 806 905
8 802 700 810 909 906 807 913 1014
8 801 699 808 907 908 809 914 1015
8 805 703 809 908 911 812 915 1016
8 803 701 811 910 909 810 916 1017
8 911 812 917 1018 804 702 811 910
8 925 821 920 1030 818 710 814 919
8 928 823 921 1031 821 712 815 920
8 922 819 717 831 1033 926 829 941
8 923 820 709 816 1034 927 819 922
8 1035 929 822 924 923 820 711 817
8 925 821 710 818 1036 930 822 924
8 1038 933 825 929 927 826 714 820
8 926 827 716 829 1039 935 828 939
8 927 826 715 819 1040 934 827 926
8 928 823 712 821 1041 931 824 930
8 1042 932 824 930 929 825 713 822
8 829 716 830 942 939 828 940 1058
8 831 717 832 944 941 829 942 1060
8 942 830 718 832 1061 943 833 945
8 944 832 720 834 1062 945 835 946
8 981 889 947 1064 870 781 837 948
8 948 837 949 1067 869 780 838 950
8 975 869 950 1069 865 767 839 952
8 950 838 951 1070 839 725 840 953
8 952 839 953 1071 841 726 842 954
8 955 850 802 899 1072 959 906 1008
8 956 849 739 845 1072 959 850 955
8 846 738 849 956 957 848 958 1073
8 957 848 958 1073 854 759 868 965
8 849 742 852 959 958 851 961 1076
8 960 853 961 1076 906 807 852 959
8 958 851 961 1076 868 773 883 980
8 960 853 807 906 1077 963 913 1014
8 855 760 868 965 966 871 980 1085
8 856 761 871 966 967 872 984 1086
8 971 876 765 860 1087 985 872 967
8 968 873 763 858 1088 986 874 969
8 862 769 873 968 972 879 986 1088
8 859 764 875 970 969 874 987 1089
8 861 766 876 971 970 875 988 1090
8 973 880 770 863 1091 991 879 972
8 973 880 992 1092 863 770 881 974
8 974 881 993 1093 864 771 882 976
8 979 870 948 1066 1094 982 869 975
8 1094 982 869 975 977 877 767 865
8 978 878 772 867 1095 990 882 976
8 978 878 989 1096 866 768 877 977
8 871 774 883 980 984 884 994 1099
8 983 891 999 1100 870 781 889 981
8 1101 1000 890 982 989 892 782 877
8 983 891 781 870 1101 1000 890 982
8 872 775 884 984 985 885 995 1103
8 876 776 885 985 988 886 996 1104
8 986 887 779 874 1105 998 888 987
8 879 786 887 986 991 896 998 1105
8 875 778 886 988 987 888 997 1106
8 990 893 1002 1107 878 783 892 989
8 1108 1003 893 990 993 894 784 882
8 880 787 896 991 992 895 1005 1109
8 993 894 785 881 1110 1004 895 992
8 898 799 905 1006 1007 907 1013 1120
8 1030 920 1013 1120 919 814 905 1006
8 901 801 907 1007 1011 908 1015 1121
8 899 802 909 1009 1008 906 1014 1122
8 900 803 910 1010 1009 909 1017 1123
8 1012 911 1018 1124 903 804 910 1010
8 904 805 908 1011 1012 911 1016 1125
8 1013 912 1020 1127 907 808 914 1015
8 1031 921 1020 1127 920 815 912 1013
8 1019 918 962 1075 1128 1021 913 1014
8 1128 1021 913 1014 1017 916 810 909
8 1015 914 1022 1129 908 809 915 1016
8 1016 915 1023 1130 911 812 917 1018
8 1018 917 1024 1131 910 811 916 1017
8 1037 928 1031 1148 925 821 920 1030
8 928 823 931 1041 1031 921 1032 1149
8 1033 926 829 941 1151 1039 939 1057
8 1034 927 819 922 1152 1040 926 1033
8 1153 1038 929 1035 1034 927 820 923
8 1154 1042 930 1036 1035 929 822 924
8 1037 928 821 925 1155 1041 930 1036
8 1039 935 828 939 1156 1047 938 1055
8 1157 1043 932 1042 1038 933 825 929
8 1038 933 826 927 1158 1045 934 1040
8 1040 934 827 926 1159 1046 935 1039
8 930 824 932 1042 1041 931 1044 1160
8 1051 936 1048 1165 1175 1052 937 1053
8 1156 1047 938 1055 1053 937 1054 1178
8 939 828 940 1058 1055 938 1056 1181
8 941 829 942 1060 1057 939 1058 1183
8 942 830 943 1061 1058 940 1059 1184
8 1060 942 832 944 1185 1061 945 1062
8 1082 964 1063 1188 981 889 947 1064
8 1097 981 1064 1190 979 870 948 1066
8 1064 947 1065 1191 948 837 949 1067
8 1066 948 1067 1193 975 869 950 1069
8 1067 949 1068 1194 950 838 951 1070
8 1069 950 1070 1195 952 839 953 1071
8 956 849 959 1072 1073 958 1076 1197
8 1074 960 1076 1197 1008 906 959 1072
8 1073 958 1076 1197 965 868 980 1085
8 1074 960 906 1008 1198 1077 1014 1122
8 1133 1026 1079 1199 1019 918 962 1075
8 1077 963 913 1014 1200 1080 962 1075
8 960 853 963 1077 1076 961 1078 1201
8 980 883 961 1076 1099 994 1078 1201
8 1210 1083 964 1082 1100 999 889 981
8 966 871 980 1085 1086 984 1099 1215
8 967 872 984 1086 1087 985 1103 1216
8 971 876 985 1087 1090 988 1104 1217
8 1088 986 874 969 1218 1105 987 1089
8 972 879 986 1088 1091 991 1105 1218
8 970 875 988 1090 1089 987 1106 1219
8 973 880 991 1091 1092 992 1109 1220
8 1093 993 881 974 1221 1110 992 1092
8 1222 1108 990 1095 1093 993 882 976
8 1223 1101 982 1094 1096 989 877 977
8 1098 983 870 979 1223 1101 982 1094
8 1095 990 1107 1224 978 878 989 1096
8 1098 983 1100 1225 979 870 981 1097
8 984 884 994 1099 1103 995 1111 1227
8 1102 1001 1115 1228 983 891 999 1100
8 1101 1000 892 989 1229 1116 1002 1107
8 1102 1001 891 983 1229 1116 1000 1101
8 985 885 995 1103 1104 996 1112 1230
8 988 886 996 1104 1106 997 1113 1231
8 1105 998 888 987 1232 1114 997 1106
8 991 896 998 1105 1109 1005 1114 1232
8 1108 1003 1117 1233 990 893 1002 1107
8 1108 1003 894 993 1233 1117 1004 1110
8 992 895 1005 1109 1110 1004 1118 1234
8 1120 1013 1127 1244 1007 907 1015 1121
8 1148 1031 1127 1244 1030 920 1013 1120
8 1121 1015 1129 1245 1011 908 1016 1125
8 1126 1019 1075 1196 1246 1128 1014 1122
8 1246 1128 1014 1122 1123 1017 909 1009
8 1124 1018 1131 1247 1010 910 1017 1123
8 1125 1016 1130 1248 1012 911 1018 1124
8 1127 1020 1137 1254 1015 914 1022 1129
8 1031 921 1032 1149 1127 1020 1137 1254
8 1134 1027 918 1019 1257 1140 1021 1128
8 1257 1140 1021 1128 1131 1024 916 1017
8 1129 1022 1141 1258 1016 915 1023 1130
8 1130 1023 1142 1259 1018 917 1024 1131
8 1261 1144 1025 1132 1133 1026 1079 1199
8 1255 1138 1025 1132 1135 1028 1144 1261
8 1133 1026 918 1019 1262 1145 1027 1134
8 1136 1029 1139 1256 1263 1146 1028 1135
8 1037 928 1041 1155 1148 1031 1149 1275
8 1041 931 1044 1160 1149 1032 1150 1276
8 1151 1039 939 1057 1278 1156 1055 1180
8 1152 1040 926 1033 1279 1159 1039 1151
8 1153 1038 927 1034 1280 1158 1040 1152
8 1281 1157 1042 1154 1153 1038 929 1035
8 1036 930 1042 1154 1155 1041 1160 1282
8 1283 1164 1046 1159 1156 1047 935 1039
8 1165 1048 1164 1283 1053 937 1047 1156
8 1157 1043 933 1038 1284 1161 1045 1158
8 1157 1043 1161 1284 1042 932 1044 1160
8 1040 934 1046 1159 1158 1045 1163 1285
8 1166 1049 1167 1292 1051 936 1048 1165
8 1166 1049 936 1051 1293 1168 1050 1172
8 1051 936 1052 1175 1172 1050 1173 1306
8 1174 1051 1165 1290 1308 1175 1053 1177
8 1053 937 1054 1178 1175 1052 1176 1309
8 1278 1156 1055 1180 1177 1053 1178 1311
8 1055 938 1056 1181 1178 1054 1179 1312
8 1057 939 1058 1183 1180 1055 1181 1314
8 1058 940 1059 1184 1181 1056 1182 1315
8 1060 942 1061 1185 1183 1058 1184 1316
8 1208 1081 1187 1321 1082 964 1063 1188
8 1209 1082 1188 1322 1097 981 1064 1190
8 1188 1063 1189 1323 1064 947 1065 1191
8 1190 1064 1191 1325 1066 948 1067 1193
8 1191 1065 1192 1326 1067 949 1068 1194
8 1067 1193 1069 950 1194 1327 1195 1070
8 1250 1133 1199 1330 1126 1019 1075 1196
8 1198 1077 1014 1122 1331 1200 1075 1196
8 1074 960 1077 1198 1197 1076 1201 1332
8 1085 980 1076 1197 1215 1099 1201 1332
8 1199 1079 1203 1333 1075 962 1080 1200
8 1132 1025 1119 1243 1199 1079 1203 1333
8 1201 1078 963 1077 1334 1202 1080 1200
8 1099 994 1078 1201 1227 1111 1202 1334
8 1343 1207 1081 1208 1210 1083 964 1082
8 1214 1084 1186 1319 1343 1207 1081 1208
8 1345 1210 1082 1209 1225 1100 981 1097
8 1346 1211 1083 1210 1228 1115 999 1100
8 1086 984 1099 1215 1216 1103 1227 1352
8 1087 985 1103 1216 1217 1104 1230 1353
8 1090 988 1104 1217 1219 1106 1231 1354
8 1218 1105 987 1089 1355 1232 1106 1219
8 1091 991 1105 1218 1220 1109 1232 1355
8 1092 992 1109 1220 1221 1110 1234 1356
8 1222 1108 1233 1357 1095 990 1107 1224
8 1222 1108 993 1093 1357 1233 1110 1221
8 1223 1101 989 1096 1358 1229 1107 1224
8 1226 1102 983 1098 1358 1229 1101 1223
8 1226 1102 1228 1359 1098 983 1100 1225
8 1103 995 1111 1227 1230 1112 1235 1360
8 1107 1002 1117 1233 1229 1116 1240 1362
8 1102 1001 1116 1229 1228 1115 1240 1362
8 1104 996 1112 1230 1231 1113 1236 1363
8 1364 1237 1114 1232 1231 1113 997 1106
8 1109 1005 1114 1232 1234 1118 1238 1365
8 1110 1004 1118 1234 1233 1117 1241 1366
8 1242 1374 1255 1138 1119 1243 1132 1025
8 1244 1127 1254 1376 1121 1015 1129 1245
8 1148 1031 1149 1275 1244 1127 1254 1376
8 1245 1129 1258 1377 1125 1016 1130 1248
8 1251 1134 1019 1126 1378 1257 1128 1246
8 1378 1257 1128 1246 1247 1131 1017 1123
8 1248 1130 1259 1379 1124 1018 1131 1247
8 1261 1381 1250 1133 1132 1249 1330 1199
8 1255 1380 1252 1135 1132 1249 1381 1261
8 1250 1133 1019 1126 1382 1262 1134 1251
8 1253 1136 1256 1385 1384 1263 1135 1252
8 1254 1137 1265 1387 1129 1022 1141 1258
8 1149 1032 1150 1276 1254 1137 1265 1387
8 1028 1135 1255 1138 1139 1256 1388 1266
8 1136 1029 1147 1264 1256 1139 1267 1389
8 1390 1268 1140 1257 1259 1142 1024 1131
8 1260 1143 1027 1134 1390 1268 1140 1257
8 1258 1141 1269 1391 1130 1023 1142 1259
8 1262 1145 1027 1134 1393 1271 1143 1260
8 1261 1144 1026 1133 1394 1272 1145 1262
8 1135 1028 1144 1261 1263 1146 1272 1394
8 1136 1029 1146 1263 1264 1147 1273 1395
8 1155 1041 1160 1282 1275 1149 1276 1405
8 1276 1150 1044 1160 1406 1277 1162 1286
8 1408 1283 1159 1279 1278 1156 1039 1151
8 1290 1165 1283 1408 1177 1053 1156 1278
8 1152 1040 1159 1279 1280 1158 1285 1409
8 1281 1157 1038 1153 1410 1284 1158 1280
8 1281 1157 1284 1410 1154 1042 1160 1282
8 1159 1046 1164 1283 1285 1163 1289 1412
8 1292 1167 1289 1412 1165 1048 1164 1283
8 1158 1045 1163 1285 1284 1161 1288 1413
8 1284 1161 1288 1413 1160 1044 1162 1286
8 1291 1166 1292 1418 1174 1051 1165 1290
8 1291 1166 1051 1174 1419 1293 1172 1305
8 1294 1169 1296 1421 1166 1049 1167 1292
8 1293 1168 1050 1172 1422 1295 1171 1303
8 1294 1169 1049 1166 1423 1297 1168 1293
8 1422 1295 1171 1303 1301 1170 1302 1435
8 1172 1050 1173 1306 1303 1171 1304 1438
8 1174 1051 1175 1308 1305 1172 1306 1440
8 1175 1052 1176 1309 1306 1173 1307 1441
8 1177 1053 1178 1311 1308 1175 1309 1443
8 1178 1054 1179 1312 1309 1176 1310 1444
8 1180 1055 1181 1314 1311 1178 1312 1446
8 1056 1181 1312 1179 1182 1315 1447 1313
8 1183 1058 1184 1316 1314 1181 1315 1448
8 1319 1186 1084 1214 1451 1317 1213 1350
8 1319 1186 1318 1453 1208 1081 1187 1321
8 1321 1187 1320 1456 1188 1063 1189 1323
8 1344 1208 1321 1457 1209 1082 1188 1322
8 1322 1188 1323 1458 1190 1064 1191 1325
8 1323 1189 1324 1459 1191 1065 1192 1326
8 1191 1325 1193 1067 1326 1460 1327 1194
8 1242 1374 1243 1119 1328 1462 1335 1204
8 1330 1199 1333 1465 1196 1075 1200 1331
8 1132 1249 1330 1199 1243 1375 1465 1333
8 1332 1201 1077 1198 1466 1334 1200 1331
8 1215 1099 1201 1332 1352 1227 1334 1466
8 1119 1243 1333 1203 1204 1335 1470 1338
8 1333 1203 1338 1470 1200 1080 1202 1334
8 1227 1111 1202 1334 1360 1235 1338 1470
8 1328 1462 1335 1204 1205 1336 1471 1339
8 1337 1206 1340 1472 1464 1329 1205 1336
8 1346 1211 1342 1479 1210 1083 1207 1343
8 1346 1211 1115 1228 1479 1342 1239 1361
8 1348 1212 1084 1214 1479 1342 1207 1343
8 1480 1343 1208 1344 1345 1210 1082 1209
8 1351 1214 1319 1454 1480 1343 1208 1344
8 1481 1346 1210 1345 1359 1228 1100 1225
8 1348 1212 1347 1483 1214 1084 1213 1350
8 1216 1103 1227 1352 1353 1230 1360 1488
8 1217 1104 1230 1353 1354 1231 1363 1489
8 1490 1364 1232 1355 1354 1231 1106 1219
8 1220 1109 1232 1355 1356 1234 1365 1491
8 1221 1110 1234 1356 1357 1233 1366 1492
8 1224 1107 1233 1357 1358 1229 1362 1493
8 1226 1102 1229 1358 1359 1228 1362 1493
8 1230 1112 1235 1360 1363 1236 1367 1496
8 1361 1239 1115 1228 1497 1371 1240 1362
8 1366 1241 1372 1498 1233 1117 1240 1362
8 1364 1237 1113 1231 1499 1368 1236 1363
8 1364 1237 1368 1499 1232 1114 1238 1365
8 1234 1118 1238 1365 1366 1241 1369 1500
8 1507 1373 1242 1374 1388 1266 1138 1255
8 1508 1374 1243 1375 1380 1255 1132 1249
8 1376 1254 1387 1509 1245 1129 1258 1377
8 1275 1149 1276 1405 1376 1254 1387 1509
8 1377 1258 1391 1510 1248 1130 1259 1379
8 1511 1390 1257 1378 1379 1259 1131 1247
8 1383 1260 1134 1251 1511 1390 1257 1378
8 1252 1135 1256 1385 1380 1255 1388 1512
8 1261 1381 1513 1394 1133 1250 1382 1262
8 1135 1252 1384 1263 1261 1381 1513 1394
8 1382 1262 1134 1251 1514 1393 1260 1383
8 1253 1136 1263 1384 1386 1264 1395 1516
8 1253 1136 1264 1386 1385 1256 1389 1517
8 1387 1265 1397 1519 1258 1141 1269 1391
8 1276 1150 1277 1406 1387 1265 1397 1519
8 1256 1139 1267 1389 1388 1266 1398 1520
8 1264 1147 1274 1396 1389 1267 1399 1521
8 1392 1270 1143 1260 1522 1400 1268 1390
8 1390 1268 1142 1259 1522 1400 1269 1391
8 1392 1270 1401 1523 1260 1143 1271 1393
8 1272 1394 1524 1402 1145 1262 1393 1271
8 1395 1273 1146 1263 1524 1402 1272 1394
8 1273 1395 1264 1147 1403 1526 1396 1274
8 1405 1276 1160 1282 1534 1406 1286 1411
8 1414 1287 1407 1535 1286 1162 1277 1406
8 1279 1159 1283 1408 1409 1285 1412 1537
8 1418 1292 1412 1537 1290 1165 1283 1408
8 1280 1158 1285 1409 1410 1284 1413 1538
8 1410 1284 1413 1538 1282 1160 1286 1411
8 1285 1163 1289 1412 1413 1288 1417 1540
8 1421 1296 1417 1540 1292 1167 1289 1412
8 1414 1287 1162 1286 1541 1416 1288 1413
8 1420 1294 1421 1545 1291 1166 1292 1418
8 1419 1293 1172 1305 1546 1422 1303 1437
8 1420 1294 1166 1291 1547 1423 1293 1419
8 1294 1169 1297 1423 1421 1296 1425 1548
8 1423 1297 1168 1293 1549 1424 1295 1422
8 1301 1170 1298 1427 1422 1295 1424 1549
8 1432 1300 1428 1554 1301 1170 1298 1427
8 1431 1299 1428 1554 1560 1430 1300 1432
8 1563 1433 1300 1432 1435 1302 1170 1301
8 1546 1422 1303 1437 1434 1301 1435 1565
8 1303 1171 1304 1438 1435 1302 1436 1566
8 1305 1172 1306 1440 1437 1303 1438 1568
8 1306 1173 1307 1441 1438 1304 1439 1569
8 1308 1175 1309 1443 1440 1306 1441 1571
8 1309 1176 1310 1444 1441 1307 1442 1572
8 1311 1178 1312 1446 1443 1309 1444 1574
8 1179 1312 1444 1310 1313 1447 1575 1445
8 1314 1181 1315 1448 1446 1312 1447 1576
8 1350 1213 1349 1486 1451 1317 1449 1579
8 1451 1317 1450 1581 1319 1186 1318 1453
8 1454 1319 1214 1351 1582 1451 1350 1487
8 1453 1318 1452 1584 1321 1187 1320 1456
8 1454 1319 1453 1585 1344 1208 1321 1457
8 1456 1320 1455 1586 1323 1189 1324 1459
8 1457 1321 1456 1587 1322 1188 1323 1458
8 1458 1323 1459 1588 1325 1191 1326 1460
8 1205 1336 1464 1329 1328 1462 1590 1461
8 1507 1373 1461 1590 1374 1242 1328 1462
8 1508 1374 1462 1591 1375 1243 1335 1467
8 1337 1206 1329 1464 1473 1341 1463 1594
8 1375 1243 1335 1467 1465 1333 1470 1596
8 1465 1333 1470 1596 1331 1200 1334 1466
8 1352 1227 1334 1466 1488 1360 1470 1596
8 1591 1462 1336 1468 1467 1335 1471 1597
8 1469 1337 1472 1598 1595 1464 1336 1468
8 1471 1339 1474 1600 1335 1204 1338 1470
8 1600 1474 1367 1496 1470 1338 1235 1360
8 1336 1205 1340 1472 1471 1339 1475 1601
8 1337 1206 1341 1473 1472 1340 1476 1602
8 1495 1370 1478 1609 1361 1239 1342 1479
8 1348 1212 1342 1479 1483 1347 1478 1609
8 1481 1346 1479 1610 1345 1210 1343 1480
8 1481 1346 1228 1359 1610 1479 1361 1494
8 1484 1348 1214 1351 1610 1479 1343 1480
8 1483 1347 1482 1612 1350 1213 1349 1486
8 1484 1348 1483 1613 1351 1214 1350 1487
8 1353 1230 1360 1488 1489 1363 1496 1616
8 1490 1364 1231 1354 1617 1499 1363 1489
8 1490 1364 1499 1617 1355 1232 1365 1491
8 1356 1234 1365 1491 1492 1366 1500 1619
8 1492 1366 1498 1620 1357 1233 1362 1493
8 1494 1361 1228 1359 1621 1497 1362 1493
8 1495 1370 1239 1361 1622 1504 1371 1497
8 1363 1236 1367 1496 1499 1368 1501 1623
8 1497 1371 1240 1362 1624 1505 1372 1498
8 1625 1503 1372 1498 1500 1369 1241 1366
8 1365 1238 1368 1499 1500 1369 1502 1626
8 1520 1398 1506 1633 1388 1266 1373 1507
8 1634 1507 1374 1508 1512 1388 1255 1380
8 1509 1387 1519 1635 1377 1258 1391 1510
8 1405 1276 1406 1534 1509 1387 1519 1635
8 1515 1392 1260 1383 1636 1522 1390 1511
8 1511 1390 1259 1379 1636 1522 1391 1510
8 1385 1256 1389 1517 1512 1388 1520 1637
8 1513 1394 1262 1382 1638 1524 1393 1514
8 1395 1516 1638 1524 1263 1384 1513 1394
8 1515 1392 1523 1639 1383 1260 1393 1514
8 1516 1395 1526 1640 1386 1264 1396 1518
8 1386 1264 1396 1518 1517 1389 1521 1641
8 1519 1397 1527 1643 1391 1269 1400 1522
8 1535 1407 1527 1643 1406 1277 1397 1519
8 1389 1267 1399 1521 1520 1398 1528 1644
8 1645 1529 1399 1521 1525 1404 1274 1396
8 1392 1270 1400 1522 1523 1401 1531 1646
8 1524 1402 1271 1393 1648 1532 1401 1523
8 1403 1526 1648 1532 1273 1395 1524 1402
8 1525 1404 1274 1396 1649 1533 1403 1526
8 1539 1414 1535 1657 1411 1286 1406 1534
8 1542 1415 1536 1658 1414 1287 1407 1535
8 1409 1285 1412 1537 1538 1413 1540 1660
8 1545 1421 1540 1660 1418 1292 1412 1537
8 1539 1414 1286 1411 1661 1541 1413 1538
8 1540 1417 1544 1663 1413 1288 1416 1541
8 1421 1296 1425 1548 1540 1417 1544 1663
8 1542 1415 1287 1414 1664 1543 1416 1541
8 1420 1294 1423 1547 1545 1421 1548 1666
8 1547 1423 1293 1419 1667 1549 1422 1546
8 1434 1301 1427 1553 1546 1422 1549 1667
8 1423 1297 1424 1549 1548 1425 1550 1668
8 1551 1426 1550 1668 1427 1298 1424 1549
8 1551 1426 1298 1427 1671 1552 1428 1554
8 1562 1432 1554 1674 1434 1301 1427 1553
8 1431 1299 1429 1558 1554 1428 1555 1675
8 1431 1299 1430 1560 1558 1429 1557 1680
8 1560 1430 1300 1432 1683 1559 1433 1563
8 1561 1431 1554 1674 1684 1560 1432 1562
8 1685 1563 1432 1562 1565 1435 1301 1434
8 1435 1302 1436 1566 1563 1433 1564 1686
8 1437 1303 1438 1568 1565 1435 1566 1688
8 1438 1304 1439 1569 1566 1436 1567 1689
8 1440 1306 1441 1571 1568 1438 1569 1691
8 1441 1307 1442 1572 1569 1439 1570 1692
8 1443 1309 1444 1574 1571 1441 1572 1694
8 1310 1444 1572 1442 1445 1575 1695 1573
8 1446 1312 1447 1576 1574 1444 1575 1696
8 1486 1349 1485 1614 1579 1449 1577 1699
8 1451 1317 1449 1579 1581 1450 1578 1701
8 1487 1350 1486 1615 1582 1451 1579 1702
8 1581 1450 1580 1704 1453 1318 1452 1584
8 1582 1451 1581 1705 1454 1319 1453 1585
8 1584 1452 1583 1706 1456 1320 1455 1586
8 1585 1453 1584 1707 1457 1321 1456 1587
8 1587 1456 1586 1708 1458 1323 1459 1588
8 1633 1506 1589 1710 1507 1373 1461 1590
8 1464 1329 1461 1590 1594 1463 1589 1710
8 1468 1336 1462 1591 1595 1464 1590 1711
8 1634 1507 1590 1711 1508 1374 1462 1591
8 1473 1341 1463 1594 1603 1477 1593 1716
8 1469 1337 1464 1595 1599 1473 1594 1717
8 1471 1597 1467 1335 1600 1718 1596 1470
8 1718 1600 1496 1616 1596 1470 1360 1488
8 1336 1468 1597 1471 1472 1598 1719 1601
8 1469 1337 1473 1599 1598 1472 1602 1720
8 1722 1604 1501 1623 1600 1474 1367 1496
8 1475 1601 1471 1339 1604 1722 1600 1474
8 1602 1476 1605 1723 1472 1340 1475 1601
8 1476 1602 1724 1606 1341 1473 1603 1477
8 1483 1347 1478 1609 1612 1482 1608 1731
8 1495 1370 1504 1622 1609 1478 1608 1731
8 1618 1495 1609 1732 1494 1361 1479 1610
8 1484 1348 1479 1610 1613 1483 1609 1732
8 1486 1349 1482 1612 1614 1485 1611 1733
8 1613 1483 1612 1734 1487 1350 1486 1615
8 1489 1363 1496 1616 1617 1499 1623 1736
8 1491 1365 1499 1617 1619 1500 1626 1737
8 1618 1495 1361 1494 1738 1622 1497 1621
8 1739 1625 1498 1620 1619 1500 1366 1492
8 1621 1497 1362 1493 1740 1624 1498 1620
8 1742 1631 1504 1622 1624 1505 1371 1497
8 1743 1628 1502 1626 1623 1501 1368 1499
8 1744 1630 1505 1624 1625 1503 1372 1498
8 1745 1629 1503 1625 1626 1502 1369 1500
8 1520 1398 1528 1644 1633 1506 1632 1751
8 1637 1520 1633 1752 1512 1388 1507 1634
8 1635 1519 1643 1753 1510 1391 1522 1636
8 1657 1535 1643 1753 1534 1406 1519 1635
8 1515 1392 1522 1636 1639 1523 1646 1754
8 1517 1389 1521 1641 1637 1520 1644 1755
8 1524 1638 1756 1648 1393 1514 1639 1523
8 1640 1526 1395 1516 1756 1648 1524 1638
8 1642 1525 1396 1518 1757 1649 1526 1640
8 1758 1645 1521 1641 1642 1525 1396 1518
8 1646 1531 1400 1522 1760 1650 1527 1643
8 1535 1407 1536 1658 1643 1527 1650 1760
8 1521 1399 1529 1645 1644 1528 1651 1761
8 1647 1530 1652 1762 1525 1404 1529 1645
8 1401 1523 1648 1532 1531 1646 1763 1655
8 1525 1404 1533 1649 1647 1530 1654 1765
8 1533 1649 1766 1656 1403 1526 1648 1532
8 1662 1542 1658 1774 1539 1414 1535 1657
8 1542 1415 1543 1664 1658 1536 1659 1775
8 1660 1540 1663 1777 1538 1413 1541 1661
8 1545 1421 1548 1666 1660 1540 1663 1777
8 1662 1542 1414 1539 1778 1664 1541 1661
8 1664 1543 1416 1541 1779 1665 1544 1663
8 1548 1425 1550 1668 1663 1544 1665 1779
8 1547 1423 1549 1667 1666 1548 1668 1781
8 1670 1551 1668 1781 1553 1427 1549 1667
8 1551 1426 1552 1671 1668 1550 1669 1782
8 1670 1551 1427 1553 1784 1671 1554 1674
8 1675 1555 1672 1785 1554 1428 1552 1671
8 1678 1556 1673 1789 1558 1429 1555 1675
8 1561 1431 1558 1681 1674 1554 1675 1790
8 1794 1677 1556 1678 1680 1557 1429 1558
8 1560 1430 1559 1683 1680 1557 1679 1797
8 1561 1431 1560 1684 1681 1558 1680 1798
8 1563 1433 1564 1686 1683 1559 1682 1800
8 1684 1560 1432 1562 1801 1683 1563 1685
8 1565 1435 1566 1688 1685 1563 1686 1802
8 1566 1436 1567 1689 1686 1564 1687 1803
8 1568 1438 1569 1691 1688 1566 1689 1805
8 1569 1439 1570 1692 1689 1567 1690 1806
8 1571 1441 1572 1694 1691 1569 1692 1808
8 1442 1572 1692 1570 1573 1695 1809 1693
8 1574 1444 1575 1696 1694 1572 1695 1810
8 1614 1485 1592 1712 1699 1577 1697 1813
8 1579 1449 1577 1699 1701 1578 1698 1815
8 1615 1486 1614 1735 1702 1579 1699 1816
8 1701 1578 1700 1818 1581 1450 1580 1704
8 1582 1451 1579 1702 1705 1581 1701 1819
8 1704 1580 1703 1820 1584 1452 1583 1706
8 1705 1581 1704 1821 1585 1453 1584 1707
8 1707 1584 1706 1822 1587 1456 1586 1708
8 1710 1589 1506 1633 1824 1709 1632 1751
8 1594 1463 1589 1710 1716 1593 1709 1824
8 1752 1633 1710 1825 1634 1507 1590 1711
8 1595 1464 1590 1711 1717 1594 1710 1825
8 1830 1714 1592 1712 1733 1611 1485 1614
8 1603 1477 1593 1716 1725 1607 1715 1834
8 1599 1473 1594 1717 1721 1603 1716 1835
8 1837 1722 1623 1736 1718 1600 1496 1616
8 1719 1601 1722 1837 1597 1471 1600 1718
8 1602 1720 1598 1472 1723 1838 1719 1601
8 1720 1602 1473 1599 1839 1724 1603 1721
8 1723 1605 1726 1840 1601 1475 1604 1722
8 1840 1726 1628 1743 1722 1604 1501 1623
8 1724 1606 1727 1841 1602 1476 1605 1723
8 1725 1607 1728 1842 1603 1477 1606 1724
8 1612 1482 1608 1731 1733 1611 1730 1849
8 1741 1627 1730 1849 1622 1504 1608 1731
8 1613 1483 1609 1732 1734 1612 1731 1850
8 1618 1495 1622 1738 1732 1609 1731 1850
8 1615 1486 1612 1734 1735 1614 1733 1851
8 1852 1743 1626 1737 1736 1623 1499 1617
8 1853 1745 1625 1739 1737 1626 1500 1619
8 1855 1742 1622 1738 1740 1624 1497 1621
8 1856 1744 1624 1740 1739 1625 1498 1620
8 1741 1627 1504 1622 1857 1746 1631 1742
8 1742 1631 1505 1624 1858 1749 1630 1744
8 1859 1747 1629 1745 1743 1628 1502 1626
8 1860 1748 1630 1744 1745 1629 1503 1625
8 1644 1528 1651 1761 1751 1632 1750 1865
8 1637 1520 1644 1755 1752 1633 1751 1866
8 1754 1646 1522 1636 1867 1760 1643 1753
8 1657 1535 1658 1774 1753 1643 1760 1867
8 1639 1523 1646 1754 1756 1648 1763 1868
8 1641 1521 1645 1758 1755 1644 1761 1869
8 1757 1649 1526 1640 1870 1766 1648 1756
8 1642 1525 1649 1757 1759 1647 1765 1871
8 1759 1647 1762 1872 1642 1525 1645 1758
8 1760 1650 1767 1874 1646 1531 1655 1763
8 1658 1536 1659 1775 1760 1650 1767 1874
8 1762 1652 1768 1875 1645 1529 1651 1761
8 1764 1653 1769 1876 1647 1530 1652 1762
8 1656 1766 1877 1773 1532 1648 1763 1655
8 1771 1879 1765 1654 1653 1764 1647 1530
8 1533 1649 1765 1654 1656 1766 1880 1772
8 1662 1542 1664 1778 1774 1658 1775 1887
8 1664 1543 1665 1779 1775 1659 1776 1888
8 1778 1664 1541 1661 1890 1779 1663 1777
8 1666 1548 1668 1781 1777 1663 1779 1890
8 1782 1669 1780 1891 1668 1550 1665 1779
8 1670 1551 1671 1784 1781 1668 1782 1893
8 1671 1552 1672 1785 1782 1669 1783 1894
8 1790 1675 1785 1896 1674 1554 1671 1784
8 1675 1555 1673 1789 1785 1672 1786 1897
8 1792 1676 1788 1903 1678 1556 1673 1789
8 1795 1678 1789 1904 1681 1558 1675 1790
8 1792 1676 1556 1678 1906 1791 1677 1794
8 1680 1557 1679 1797 1794 1677 1793 1909
8 1910 1794 1678 1795 1798 1680 1558 1681
8 1683 1559 1682 1800 1797 1679 1796 1912
8 1684 1560 1683 1801 1798 1680 1797 1913
8 1686 1564 1687 1803 1800 1682 1799 1915
8 1685 1563 1686 1802 1801 1683 1800 1916
8 1688 1566 1689 1805 1802 1686 1803 1917
8 1689 1567 1690 1806 1803 1687 1804 1918
8 1691 1569 1692 1808 1805 1689 1806 1920
8 1692 1570 1693 1809 1806 1690 1807 1921
8 1694 1572 1695 1810 1808 1692 1809 1922
8 1829 1713 1811 1926 1712 1592 1697 1813
8 1813 1697 1812 1928 1699 1577 1698 1815
8 1735 1614 1712 1828 1816 1699 1813 1929
8 1815 1698 1814 1931 1701 1578 1700 1818
8 1702 1579 1699 1816 1819 1701 1815 1932
8 1818 1700 1817 1933 1704 1580 1703 1820
8 1819 1701 1818 1934 1705 1581 1704 1821
8 1821 1704 1820 1935 1707 1584 1706 1822
8 1824 1709 1632 1751 1937 1823 1750 1865
8 1716 1593 1709 1824 1834 1715 1823 1937
8 1825 1710 1633 1752 1938 1824 1751 1866
8 1717 1594 1710 1825 1835 1716 1824 1938
8 1945 1830 1712 1828 1851 1733 1614 1735
8 1830 1714 1831 1946 1712 1592 1713 1829
8 1947 1832 1714 1830 1849 1730 1611 1733
8 1843 1729 1607 1725 1950 1833 1715 1834
8 1721 1603 1716 1835 1836 1725 1834 1951
8 1836 1725 1842 1953 1721 1603 1724 1839
8 1723 1838 1719 1601 1840 1954 1837 1722
8 1954 1840 1743 1852 1837 1722 1623 1736
8 1724 1839 1720 1602 1841 1955 1838 1723
8 1841 1727 1844 1956 1723 1605 1726 1840
8 1956 1844 1747 1859 1840 1726 1628 1743
8 1728 1842 1724 1606 1845 1957 1841 1727
8 1725 1607 1729 1843 1842 1728 1846 1958
8 1741 1627 1746 1857 1849 1730 1848 1965
8 1734 1612 1731 1850 1851 1733 1849 1966
8 1854 1741 1849 1966 1738 1622 1731 1850
8 1967 1859 1745 1853 1852 1743 1626 1737
8 1968 1860 1744 1856 1853 1745 1625 1739
8 1854 1741 1622 1738 1969 1857 1742 1855
8 1855 1742 1624 1740 1970 1858 1744 1856
8 1857 1746 1631 1742 1971 1861 1749 1858
8 1858 1749 1630 1744 1972 1863 1748 1860
8 1859 1747 1862 1973 1745 1629 1748 1860
8 1875 1768 1864 1977 1761 1651 1750 1865
8 1755 1644 1761 1869 1866 1751 1865 1978
8 1867 1760 1874 1979 1754 1646 1763 1868
8 1774 1658 1775 1887 1867 1760 1874 1979
8 1870 1766 1648 1756 1980 1877 1763 1868
8 1872 1762 1875 1981 1758 1645 1761 1869
8 1757 1649 1766 1870 1871 1765 1880 1982
8 1983 1879 1764 1873 1871 1765 1647 1759
8 1873 1764 1876 1984 1759 1647 1762 1872
8 1877 1773 1655 1763 1986 1881 1767 1874
8 1775 1659 1776 1888 1874 1767 1881 1986
8 1876 1769 1882 1987 1762 1652 1768 1875
8 1878 1770 1883 1988 1764 1653 1769 1876
8 1880 1772 1656 1766 1989 1886 1773 1877
8 1878 1770 1653 1764 1990 1884 1771 1879
8 1765 1654 1772 1880 1879 1771 1885 1991
8 1778 1664 1779 1890 1887 1775 1888 1997
8 1998 1889 1776 1888 1891 1780 1665 1779
8 1893 1782 1891 2000 1781 1668 1779 1890
8 1894 1783 1892 2001 1782 1669 1780 1891
8 1784 1671 1785 1896 1893 1782 1894 2003
8 1897 1786 1895 2004 1785 1672 1783 1894
8 1790 1675 1789 1904 1896 1785 1897 2006
8 1901 1787 1898 2007 1789 1673 1786 1897
8 1903 1788 1900 2013 1789 1673 1787 1901
8 1792 1676 1791 1906 1903 1788 1902 2016
8 1907 1792 1903 2017 1795 1678 1789 1904
8 1906 1791 1677 1794 2019 1905 1793 1909
8 1907 1792 1678 1795 2020 1906 1794 1910
8 1797 1679 1796 1912 1909 1793 1908 2022
8 1798 1680 1797 1913 1910 1794 1909 2023
8 1800 1682 1799 1915 1912 1796 1911 2025
8 1801 1683 1800 1916 1913 1797 1912 2026
8 1803 1687 1804 1918 1915 1799 1914 2028
8 1802 1686 1803 1917 1916 1800 1915 2029
8 1805 1689 1806 1920 1917 1803 1918 2030
8 1806 1690 1807 1921 1918 1804 1919 2031
8 1808 1692 1809 1922 1920 1806 1921 2032
8 1939 1826 1924 2037 1829 1713 1811 1926
8 1926 1811 1925 2039 1813 1697 1812 1928
8 1944 1829 1926 2040 1828 1712 1813 1929
8 1928 1812 1927 2042 1815 1698 1814 1931
8 1929 1813 1928 2043 1816 1699 1815 1932
8 1931 1814 1930 2044 1818 1700 1817 1933
8 1932 1815 1931 2045 1819 1701 1818 1934
8 1934 1818 1933 2046 1821 1704 1820 1935
8 2048 1936 1823 1937 1977 1864 1750 1865
8 1950 1833 1715 1834 2048 1936 1823 1937
8 1938 1824 1751 1866 2049 1937 1865 1978
8 1835 1716 1824 1938 1951 1834 1937 2049
8 1939 1826 1713 1829 2053 1942 1831 1946
8 1940 1827 1923 2035 2053 1942 1826 1939
8 1945 1830 1946 2058 1828 1712 1829 1944
8 2059 1947 1830 1945 1966 1849 1733 1851
8 1947 1832 1730 1849 2060 1948 1848 1965
8 1947 1832 1948 2060 1830 1714 1831 1946
8 1959 1847 1729 1843 2063 1949 1833 1950
8 1952 1843 1725 1836 2064 1950 1834 1951
8 1836 1725 1843 1952 1953 1842 1958 2066
8 1953 1842 1957 2067 1839 1724 1841 1955
8 1841 1955 1838 1723 1956 2068 1954 1840
8 2068 1956 1859 1967 1954 1840 1743 1852
8 1956 1844 1960 2069 1859 1747 1862 1973
8 1845 1957 1841 1727 1960 2069 1956 1844
8 1728 1842 1957 1845 1846 1958 2071 1961
8 1962 2072 1959 1847 1846 1958 1843 1729
8 1971 1861 1964 2077 1857 1746 1848 1965
8 1854 1741 1857 1969 1966 1849 1965 2078
8 1967 1859 1973 2079 1853 1745 1860 1968
8 1970 1858 1744 1856 2080 1972 1860 1968
8 1969 1857 1742 1855 2081 1971 1858 1970
8 1971 1861 1749 1858 2082 1974 1863 1972
8 1973 1862 1975 2083 1860 1748 1863 1972
8 1987 1882 1976 2086 1875 1768 1864 1977
8 1981 1875 1977 2087 1869 1761 1865 1978
8 1980 1877 1763 1868 2088 1986 1874 1979
8 1887 1775 1888 1997 1979 1874 1986 2088
8 1880 1982 2089 1989 1766 1870 1980 1877
8 1984 1876 1987 2090 1872 1762 1875 1981
8 1765 1871 1983 1879 1880 1982 2091 1991
8 1985 1878 1764 1873 2092 1990 1879 1983
8 1985 1878 1988 2093 1873 1764 1876 1984
8 2094 1992 1881 1986 1998 1889 1776 1888
8 1986 1881 1992 2094 1877 1773 1886 1989
8 1988 1883 1993 2095 1876 1769 1882 1987
8 1878 1770 1884 1990 1988 1883 1994 2096
8 1991 1885 1772 1880 2097 1996 1886 1989
8 1879 1771 1885 1991 1990 1884 1995 2098
8 2103 1998 1888 1997 2000 1891 1779 1890
8 2104 1999 1889 1998 2001 1892 1780 1891
8 2003 1894 2001 2106 1893 1782 1891 2000
8 2004 1895 2002 2107 1894 1783 1892 2001
8 2006 1897 2004 2109 1896 1785 1894 2003
8 2007 1898 2005 2110 1897 1786 1895 2004
8 2014 1901 2007 2112 1904 1789 1897 2006
8 2011 1899 2008 2113 1901 1787 1898 2007
8 2119 2010 1899 2011 2013 1900 1787 1901
8 2016 1902 2012 2122 1903 1788 1900 2013
8 2017 1903 2013 2123 1904 1789 1901 2014
8 1906 1791 1905 2019 2016 1902 2015 2125
8 1907 1792 1906 2020 2017 1903 2016 2126
8 1909 1793 1908 2022 2019 1905 2018 2128
8 2020 1906 1794 1910 2129 2019 1909 2023
8 1912 1796 1911 2025 2022 1908 2021 2131
8 1913 1797 1912 2026 2023 1909 2022 2132
8 1915 1799 1914 2028 2025 1911 2024 2134
8 1916 1800 1915 2029 2026 1912 2025 2135
8 1918 1804 1919 2031 2028 1914 2027 2136
8 1917 1803 1918 2030 2029 1915 2028 2137
8 1920 1806 1921 2032 2030 1918 2031 2138
8 1940 1827 1941 2054 2035 1923 2033 2140
8 2035 1923 2034 2143 1939 1826 1924 2037
8 2037 1924 2036 2146 1926 1811 1925 2039
8 2051 1939 2037 2147 1944 1829 1926 2040
8 2039 1925 2038 2149 1928 1812 1927 2042
8 2040 1926 2039 2150 1929 1813 1928 2043
8 2042 1927 2041 2151 1931 1814 1930 2044
8 2043 1928 2042 2152 1932 1815 1931 2045
8 2045 1931 2044 2153 1934 1818 1933 2046
8 2155 2047 1936 2048 2086 1976 1864 1977
8 2063 1949 1833 1950 2155 2047 1936 2048
8 2156 2048 1937 2049 2087 1977 1865 1978
8 2064 1950 1834 1951 2156 2048 1937 2049
8 2051 1939 1829 1944 2160 2053 1946 2058
8 2052 1940 2035 2144 2160 2053 1939 2051
8 2053 1942 1831 1946 2163 2057 1948 2060
8 2055 1943 1827 1940 2163 2057 1942 2053
8 2055 1943 2056 2164 1940 1827 1941 2054
8 2059 1947 1849 1966 2167 2060 1965 2078
8 2059 1947 2060 2167 1945 1830 1946 2058
8 2077 1964 2061 2168 1965 1848 1948 2060
8 2070 1963 1847 1959 2170 2062 1949 2063
8 2065 1959 1843 1952 2171 2063 1950 2064
8 2173 2072 1958 2066 2065 1959 1843 1952
8 1953 1842 1958 2066 2067 1957 2071 2174
8 2068 1956 2069 2175 1967 1859 1973 2079
8 2067 1957 2069 2175 1955 1841 1956 2068
8 1845 1957 2069 1960 1961 2071 2176 2073
8 2069 1960 2073 2176 1973 1862 1975 2083
8 2070 1963 2075 2177 1959 1847 1962 2072
8 1846 1958 2071 1961 1962 2072 2178 2074
8 2077 1964 1861 1971 2182 2076 1974 2082
8 2081 1971 2077 2183 1969 1857 1965 2078
8 2079 1973 2083 2184 1968 1860 1972 2080
8 2081 1971 1858 1970 2185 2082 1972 2080
8 2083 1975 2084 2186 1972 1863 1974 2082
8 2086 1976 1882 1987 2189 2085 1993 2095
8 2090 1987 2086 2190 1981 1875 1977 2087
8 2191 2094 1986 2088 2103 1998 1888 1997
8 2088 1986 2094 2191 1980 1877 1989 2089
8 1991 2091 2192 2097 1880 1982 2089 1989
8 2093 1988 2095 2193 1984 1876 1987 2090
8 1879 1983 2092 1990 1991 2091 2194 2098
8 1985 1878 1990 2092 2093 1988 2096 2195
8 2097 1996 1886 1989 2196 2099 1992 2094
8 2196 2099 1992 2094 2104 1999 1889 1998
8 1994 2096 1988 1883 2100 2197 2095 1993
8 2096 1994 1884 1990 2198 2101 1995 2098
8 1995 2098 2199 2102 1885 1991 2097 1996
8 2203 2104 1998 2103 2106 2001 1891 2000
8 2107 2002 2105 2204 2001 1892 1999 2104
8 2109 2004 2107 2206 2003 1894 2001 2106
8 2110 2005 2108 2207 2004 1895 2002 2107
8 2112 2007 2110 2209 2006 1897 2004 2109
8 2113 2008 2111 2210 2007 1898 2005 2110
8 2120 2011 2113 2212 2014 1901 2007 2112
8 2117 2009 2114 2213 2011 1899 2008 2113
8 2219 2116 2009 2117 2119 2010 1899 2011
8 2222 2118 2010 2119 2122 2012 1900 2013
8 2223 2119 2011 2120 2123 2013 1901 2014
8 2016 1902 2015 2125 2122 2012 2121 2225
8 2126 2016 2122 2226 2017 1903 2013 2123
8 2019 1905 2018 2128 2125 2015 2124 2228
8 2020 1906 2019 2129 2126 2016 2125 2229
8 2022 1908 2021 2131 2128 2018 2127 2231
8 2023 1909 2022 2132 2129 2019 2128 2232
8 2025 1911 2024 2134 2131 2021 2130 2234
8 2026 1912 2025 2135 2132 2022 2131 2235
8 1914 2028 2134 2024 2027 2136 2236 2133
8 2029 1915 2028 2137 2135 2025 2134 2237
8 2030 1918 2031 2138 2137 2028 2136 2238
8 2157 2050 2139 2240 2054 1941 2033 2140
8 2052 1940 2054 2161 2144 2035 2140 2242
8 2140 2033 2141 2243 2035 1923 2034 2143
8 2143 2034 2142 2246 2037 1924 2036 2146
8 2144 2035 2143 2247 2051 1939 2037 2147
8 2146 2036 2145 2249 2039 1925 2038 2149
8 2147 2037 2146 2250 2040 1926 2039 2150
8 2149 2038 2148 2251 2042 1927 2041 2151
8 2150 2039 2149 2252 2043 1928 2042 2152
8 2152 2042 2151 2253 2045 1931 2044 2153
8 2255 2154 2047 2155 2189 2085 1976 2086
8 2170 2062 1949 2063 2255 2154 2047 2155
8 2256 2155 2048 2156 2190 2086 1977 2087
8 2171 2063 1950 2064 2256 2155 2048 2156
8 2258 2159 2050 2157 2164 2056 1941 2054
8 2160 2053 1946 2058 2262 2163 2060 2167
8 2162 2055 1940 2052 2262 2163 2053 2160
8 2162 2055 2164 2263 2052 1940 2054 2161
8 2163 2057 1948 2060 2264 2165 2061 2168
8 2055 1943 2057 2163 2164 2056 2165 2264
8 2182 2076 2166 2268 2077 1964 2061 2168
8 2183 2077 2168 2269 2078 1965 2060 2167
8 2070 1963 2062 2170 2177 2075 2169 2271
8 2172 2070 1959 2065 2272 2170 2063 2171
8 2172 2070 2177 2273 2065 1959 2072 2173
8 2066 1958 2072 2173 2174 2071 2178 2274
8 2067 1957 2071 2174 2175 2069 2176 2275
8 2175 2069 2176 2275 2079 1973 2083 2184
8 2071 1961 2074 2178 2176 2073 2179 2276
8 2176 2073 2179 2276 2083 1975 2084 2186
8 2072 1962 2075 2177 2178 2074 2180 2277
8 2182 2076 1974 2082 2280 2181 2084 2186
8 2183 2077 1971 2081 2281 2182 2082 2185
8 2184 2083 2186 2282 2080 1972 2082 2185
8 2189 2085 1993 2095 2285 2188 2100 2197
8 2190 2086 1987 2090 2286 2189 2095 2193
8 2192 2097 1989 2089 2287 2196 2094 2191
8 2287 2196 2094 2191 2203 2104 1998 2103
8 2194 2098 1991 2091 2288 2199 2097 2192
8 2195 2096 2197 2289 2093 1988 2095 2193
8 2096 2195 2290 2198 1990 2092 2194 2098
8 2097 1996 2099 2196 2199 2102 2200 2291
8 2196 2099 1999 2104 2291 2200 2105 2204
8 2100 2197 2292 2201 1994 2096 2198 2101
8 1995 2098 2198 2101 2102 2199 2293 2202
8 2206 2107 2204 2296 2106 2001 2104 2203
8 2207 2108 2205 2297 2107 2002 2105 2204
8 2209 2110 2207 2299 2109 2004 2107 2206
8 2210 2111 2208 2300 2110 2005 2108 2207
8 2212 2113 2210 2302 2112 2007 2110 2209
8 2213 2114 2211 2303 2113 2008 2111 2210
8 2220 2117 2213 2305 2120 2011 2113 2212
8 2216 2115 2214 2306 2117 2009 2114 2213
8 2216 2115 2009 2117 2311 2217 2116 2219
8 2219 2116 2010 2119 2314 2218 2118 2222
8 2315 2219 2117 2220 2223 2119 2011 2120
8 2122 2012 2121 2225 2222 2118 2221 2317
8 2318 2222 2119 2223 2226 2122 2013 2123
8 2125 2015 2124 2228 2225 2121 2224 2320
8 2126 2016 2125 2229 2226 2122 2225 2321
8 2128 2018 2127 2231 2228 2124 2227 2323
8 2129 2019 2128 2232 2229 2125 2228 2324
8 2131 2021 2130 2234 2231 2127 2230 2326
8 2132 2022 2131 2235 2232 2128 2231 2327
8 2134 2024 2133 2236 2234 2130 2233 2328
8 2135 2025 2134 2237 2235 2131 2234 2329
8 2137 2028 2136 2238 2237 2134 2236 2330
8 2157 2050 2158 2259 2240 2139 2239 2332
8 2257 2157 2240 2334 2161 2054 2140 2242
8 2240 2139 2241 2335 2140 2033 2141 2243
8 2242 2140 2243 2337 2144 2035 2143 2247
8 2243 2141 2244 2338 2143 2034 2142 2246
8 2246 2142 2245 2341 2146 2036 2145 2249
8 2247 2143 2246 2342 2147 2037 2146 2250
8 2249 2145 2248 2343 2149 2038 2148 2251
8 2250 2146 2249 2344 2150 2039 2149 2252
8 2252 2149 2251 2345 2152 2042 2151 2253
8 2169 2271 2347 2254 2062 2170 2255 2154
8 2189 2085 2188 2285 2255 2154 2254 2347
8 2348 2255 2155 2256 2286 2189 2086 2190
8 2272 2170 2063 2171 2348 2255 2155 2256
8 2349 2258 2157 2257 2263 2164 2054 2161
8 2258 2159 2261 2351 2157 2050 2158 2259
8 2258 2159 2056 2164 2351 2261 2165 2264
8 2262 2163 2060 2167 2355 2264 2168 2269
8 2162 2055 2163 2262 2263 2164 2264 2355
8 2357 2266 2165 2264 2268 2166 2061 2168
8 2268 2166 2076 2182 2361 2267 2181 2280
8 2281 2182 2268 2362 2183 2077 2168 2269
8 2271 2169 2270 2364 2177 2075 2180 2277
8 2172 2070 2170 2272 2273 2177 2271 2365
8 2072 2173 2274 2178 2177 2273 2366 2277
8 2071 2174 2275 2176 2178 2274 2367 2276
8 2275 2176 2276 2367 2184 2083 2186 2282
8 2283 2187 2084 2186 2368 2278 2179 2276
8 2178 2074 2180 2277 2276 2179 2278 2368
8 2283 2187 2279 2370 2186 2084 2181 2280
8 2281 2182 2082 2185 2371 2280 2186 2282
8 2188 2285 2374 2284 2100 2197 2292 2201
8 2286 2189 2095 2193 2375 2285 2197 2289
8 2192 2097 2196 2287 2288 2199 2291 2376
8 2287 2196 2104 2203 2376 2291 2204 2296
8 2194 2098 2199 2288 2290 2198 2293 2377
8 2289 2197 2096 2195 2378 2292 2198 2290
8 2291 2200 2105 2204 2379 2294 2205 2297
8 2199 2102 2200 2291 2293 2202 2294 2379
8 2198 2101 2202 2293 2292 2201 2295 2380
8 2299 2207 2297 2383 2206 2107 2204 2296
8 2300 2208 2298 2384 2207 2108 2205 2297
8 2302 2210 2300 2386 2209 2110 2207 2299
8 2303 2211 2301 2387 2210 2111 2208 2300
8 2305 2213 2303 2389 2212 2113 2210 2302
8 2306 2214 2304 2390 2213 2114 2211 2303
8 2310 2216 2306 2392 2220 2117 2213 2305
8 2308 2215 2307 2393 2216 2115 2214 2306
8 2308 2215 2115 2216 2396 2309 2217 2311
8 2310 2216 2117 2220 2398 2311 2219 2315
8 2311 2217 2116 2219 2399 2312 2218 2314
8 2314 2218 2118 2222 2402 2313 2221 2317
8 2315 2219 2119 2223 2403 2314 2222 2318
8 2225 2121 2224 2320 2317 2221 2316 2405
8 2226 2122 2225 2321 2318 2222 2317 2406
8 2228 2124 2227 2323 2320 2224 2319 2408
8 2229 2125 2228 2324 2321 2225 2320 2409
8 2231 2127 2230 2326 2323 2227 2322 2411
8 2232 2128 2231 2327 2324 2228 2323 2412
8 2234 2130 2233 2328 2326 2230 2325 2413
8 2235 2131 2234 2329 2327 2231 2326 2414
8 2237 2134 2236 2330 2329 2234 2328 2415
8 2259 2158 2260 2352 2332 2239 2331 2417
8 2257 2157 2259 2350 2334 2240 2332 2419
8 2240 2139 2239 2332 2335 2241 2333 2420
8 2334 2240 2335 2422 2242 2140 2243 2337
8 2335 2241 2336 2423 2243 2141 2244 2338
8 2337 2243 2338 2425 2247 2143 2246 2342
8 2338 2244 2339 2426 2246 2142 2245 2341
8 2341 2245 2340 2428 2249 2145 2248 2343
8 2342 2246 2341 2429 2250 2146 2249 2344
8 2344 2249 2343 2430 2252 2149 2251 2345
8 2188 2285 2347 2254 2284 2374 2432 2346
8 2347 2254 2346 2432 2271 2169 2270 2364
8 2365 2271 2170 2272 2433 2347 2255 2348
8 2286 2189 2285 2375 2348 2255 2347 2433
8 2349 2258 2351 2435 2257 2157 2259 2350
8 2349 2258 2164 2263 2435 2351 2264 2355
8 2259 2158 2261 2351 2352 2260 2354 2437
8 2356 2265 2354 2437 2264 2165 2261 2351
8 2441 2357 2264 2355 2362 2268 2168 2269
8 2356 2265 2165 2264 2442 2358 2266 2357
8 2443 2359 2266 2357 2361 2267 2166 2268
8 2370 2279 2360 2446 2280 2181 2267 2361
8 2362 2268 2182 2281 2447 2361 2280 2371
8 2180 2277 2368 2278 2270 2364 2449 2363
8 2271 2365 2273 2177 2364 2450 2366 2277
8 2372 2283 2186 2282 2451 2368 2276 2367
8 2178 2274 2367 2276 2277 2366 2451 2368
8 2283 2187 2278 2368 2370 2279 2369 2452
8 2372 2283 2370 2453 2282 2186 2280 2371
8 2284 2374 2455 2373 2201 2292 2380 2295
8 2375 2285 2197 2289 2456 2374 2292 2378
8 2376 2291 2204 2296 2457 2379 2297 2383
8 2288 2199 2291 2376 2377 2293 2379 2457
8 2198 2290 2378 2292 2293 2377 2458 2380
8 2293 2202 2294 2379 2380 2295 2381 2459
8 2384 2298 2381 2459 2297 2205 2294 2379
8 2386 2300 2384 2463 2299 2207 2297 2383
8 2387 2301 2385 2464 2300 2208 2298 2384
8 2389 2303 2387 2466 2302 2210 2300 2386
8 2390 2304 2388 2467 2303 2211 2301 2387
8 2392 2306 2390 2469 2305 2213 2303 2389
8 2393 2307 2391 2470 2306 2214 2304 2390
8 2395 2308 2393 2472 2310 2216 2306 2392
8 2308 2215 2309 2396 2393 2307 2394 2473
8 2395 2308 2216 2310 2475 2396 2311 2398
8 2396 2309 2217 2311 2476 2397 2312 2399
8 2398 2311 2219 2315 2478 2399 2314 2403
8 2399 2312 2218 2314 2479 2400 2313 2402
8 2317 2221 2316 2405 2402 2313 2401 2482
8 2403 2314 2222 2318 2483 2402 2317 2406
8 2320 2224 2319 2408 2405 2316 2404 2485
8 2321 2225 2320 2409 2406 2317 2405 2486
8 2323 2227 2322 2411 2408 2319 2407 2488
8 2324 2228 2323 2412 2409 2320 2408 2489
8 2326 2230 2325 2413 2411 2322 2410 2490
8 2327 2231 2326 2414 2412 2323 2411 2491
8 2329 2234 2328 2415 2414 2326 2413 2492
8 2417 2331 2260 2352 2494 2416 2353 2438
8 2350 2259 2352 2436 2419 2332 2417 2496
8 2332 2239 2331 2417 2420 2333 2418 2497
8 2334 2240 2332 2419 2422 2335 2420 2499
8 2420 2333 2421 2500 2335 2241 2336 2423
8 2422 2335 2423 2502 2337 2243 2338 2425
8 2423 2336 2424 2503 2338 2244 2339 2426
8 2425 2338 2426 2505 2342 2246 2341 2429
8 2426 2339 2427 2506 2341 2245 2340 2428
8 2429 2341 2428 2507 2344 2249 2343 2430
8 2432 2346 2284 2374 2509 2431 2373 2455
8 2432 2346 2431 2509 2364 2270 2363 2449
8 2375 2285 2374 2456 2433 2347 2432 2510
8 2347 2433 2365 2271 2432 2510 2450 2364
8 2350 2259 2351 2435 2436 2352 2437 2514
8 2440 2356 2437 2514 2355 2264 2351 2435
8 2352 2260 2354 2437 2438 2353 2439 2516
8 2356 2265 2358 2442 2437 2354 2439 2516
8 2440 2356 2264 2355 2518 2442 2357 2441
8 2519 2443 2357 2441 2447 2361 2268 2362
8 2443 2359 2444 2520 2357 2266 2358 2442
8 2443 2359 2267 2361 2520 2444 2360 2446
8 2446 2360 2279 2370 2523 2445 2369 2452
8 2453 2370 2446 2524 2371 2280 2361 2447
8 2449 2363 2448 2525 2368 2278 2369 2452
8 2366 2277 2364 2450 2451 2368 2449 2526
8 2372 2283 2368 2451 2453 2370 2452 2527
8 2455 2373 2295 2380 2529 2454 2382 2460
8 2456 2374 2292 2378 2530 2455 2380 2458
8 2377 2293 2379 2457 2458 2380 2459 2531
8 2463 2384 2459 2531 2383 2297 2379 2457
8 2533 2461 2382 2460 2459 2381 2295 2380
8 2464 2385 2461 2533 2384 2298 2381 2459
8 2466 2387 2464 2537 2386 2300 2384 2463
8 2467 2388 2465 2538 2387 2301 2385 2464
8 2469 2390 2467 2540 2389 2303 2387 2466
8 2470 2391 2468 2541 2390 2304 2388 2467
8 2472 2393 2470 2543 2392 2306 2390 2469
8 2393 2307 2394 2473 2470 2391 2471 2544
8 2395 2308 2396 2475 2472 2393 2473 2546
8 2396 2309 2397 2476 2473 2394 2474 2547
8 2475 2396 2311 2398 2549 2476 2399 2478
8 2476 2397 2312 2399 2550 2477 2400 2479
8 2478 2399 2314 2403 2552 2479 2402 2483
8 2479 2400 2313 2402 2553 2480 2401 2482
8 2405 2316 2404 2485 2482 2401 2481 2556
8 2406 2317 2405 2486 2483 2402 2482 2557
8 2408 2319 2407 2488 2485 2404 2484 2559
8 2409 2320 2408 2489 2486 2405 2485 2560
8 2411 2322 2410 2490 2488 2407 2487 2561
8 2412 2323 2411 2491 2489 2408 2488 2562
8 2414 2326 2413 2492 2491 2411 2490 2563
8 2513 2434 2493 2565 2438 2353 2416 2494
8 2496 2417 2352 2436 2567 2494 2438 2515
8 2494 2416 2495 2568 2417 2331 2418 2497
8 2419 2332 2417 2496 2499 2420 2497 2570
8 2497 2418 2498 2571 2420 2333 2421 2500
8 2499 2420 2500 2573 2422 2335 2423 2502
8 2500 2421 2501 2574 2423 2336 2424 2503
8 2502 2423 2503 2576 2425 2338 2426 2505
8 2503 2424 2504 2577 2426 2339 2427 2506
8 2505 2426 2506 2578 2429 2341 2428 2507
8 2509 2431 2373 2455 2580 2508 2454 2529
8 2509 2431 2508 2580 2449 2363 2448 2525
8 2432 2510 2581 2509 2374 2456 2530 2455
8 2432 2510 2450 2364 2509 2581 2526 2449
8 2583 2511 2434 2513 2516 2439 2353 2438
8 2436 2352 2437 2514 2515 2438 2516 2588
8 2440 2356 2442 2518 2514 2437 2516 2588
8 2442 2358 2444 2520 2516 2439 2517 2589
8 2519 2443 2520 2591 2441 2357 2442 2518
8 2519 2443 2361 2447 2591 2520 2446 2524
8 2446 2360 2445 2523 2520 2444 2521 2592
8 2525 2448 2522 2593 2452 2369 2445 2523
8 2524 2446 2370 2453 2594 2523 2452 2527
8 2526 2449 2525 2595 2451 2368 2452 2527
8 2534 2462 2528 2597 2460 2382 2454 2529
8 2530 2455 2380 2458 2598 2529 2460 2532
8 2599 2533 2460 2532 2531 2459 2380 2458
8 2537 2464 2533 2599 2463 2384 2459 2531
8 2534 2462 2382 2460 2601 2535 2461 2533
8 2538 2465 2535 2601 2464 2385 2461 2533
8 2540 2467 2538 2604 2466 2387 2464 2537
8 2541 2468 2539 2605 2467 2388 2465 2538
8 2543 2470 2541 2607 2469 2390 2467 2540
8 2470 2391 2471 2544 2541 2468 2542 2608
8 2472 2393 2473 2546 2543 2470 2544 2610
8 2473 2394 2474 2547 2544 2471 2545 2611
8 2475 2396 2476 2549 2546 2473 2547 2613
8 2476 2397 2477 2550 2547 2474 2548 2614
8 2549 2476 2399 2478 2616 2550 2479 2552
8 2479 2400 2480 2553 2550 2477 2551 2617
8 2552 2479 2402 2483 2619 2553 2482 2557
8 2482 2401 2481 2556 2553 2480 2554 2620
8 2485 2404 2484 2559 2556 2481 2555 2623
8 2486 2405 2485 2560 2557 2482 2556 2624
8 2488 2407 2487 2561 2559 2484 2558 2625
8 2489 2408 2488 2562 2560 2485 2559 2626
8 2491 2411 2490 2563 2562 2488 2561 2627
8 2513 2434 2512 2585 2565 2493 2564 2630
8 2586 2513 2565 2632 2515 2438 2494 2567
8 2565 2493 2566 2633 2494 2416 2495 2568
8 2567 2494 2568 2635 2496 2417 2497 2570
8 2568 2495 2569 2636 2497 2418 2498 2571
8 2570 2497 2571 2638 2499 2420 2500 2573
8 2571 2498 2572 2639 2500 2421 2501 2574
8 2573 2500 2574 2641 2502 2423 2503 2576
8 2574 2501 2575 2642 2503 2424 2504 2577
8 2576 2503 2577 2643 2505 2426 2506 2578
8 2597 2528 2579 2645 2529 2454 2508 2580
8 2580 2508 2579 2645 2525 2448 2522 2593
8 2581 2509 2455 2530 2646 2580 2529 2598
8 2581 2509 2580 2646 2526 2449 2525 2595
8 2583 2511 2582 2648 2513 2434 2512 2585
8 2583 2511 2439 2516 2648 2582 2517 2589
8 2649 2583 2513 2586 2588 2516 2438 2515
8 2589 2517 2444 2520 2653 2587 2521 2592
8 2518 2442 2520 2591 2588 2516 2589 2654
8 2593 2522 2590 2655 2523 2445 2521 2592
8 2524 2446 2523 2594 2591 2520 2592 2656
8 2595 2525 2593 2657 2527 2452 2523 2594
8 2602 2536 2596 2659 2534 2462 2528 2597
8 2600 2534 2597 2660 2532 2460 2529 2598
8 2600 2534 2460 2532 2661 2601 2533 2599
8 2604 2538 2601 2661 2537 2464 2533 2599
8 2602 2536 2462 2534 2663 2603 2535 2601
8 2601 2535 2465 2538 2663 2603 2539 2605
8 2607 2541 2605 2665 2540 2467 2538 2604
8 2608 2542 2606 2666 2541 2468 2539 2605
8 2543 2470 2544 2610 2607 2541 2608 2668
8 2544 2471 2545 2611 2608 2542 2609 2669
8 2546 2473 2547 2613 2610 2544 2611 2671
8 2547 2474 2548 2614 2611 2545 2612 2672
8 2549 2476 2550 2616 2613 2547 2614 2674
8 2550 2477 2551 2617 2614 2548 2615 2675
8 2552 2479 2553 2619 2616 2550 2617 2677
8 2553 2480 2554 2620 2617 2551 2618 2678
8 2557 2482 2556 2624 2619 2553 2620 2680
8 2556 2481 2555 2623 2620 2554 2621 2681
8 2559 2484 2558 2625 2623 2555 2622 2683
8 2560 2485 2559 2626 2624 2556 2623 2684
8 2562 2488 2561 2627 2626 2559 2625 2685
8 2690 2629 2564 2630 2650 2584 2512 2585
8 2586 2513 2585 2651 2632 2565 2630 2691
8 2630 2564 2631 2692 2565 2493 2566 2633
8 2632 2565 2633 2694 2567 2494 2568 2635
8 2633 2566 2634 2695 2568 2495 2569 2636
8 2635 2568 2636 2697 2570 2497 2571 2638
8 2636 2569 2637 2698 2571 2498 2572 2639
8 2638 2571 2639 2700 2573 2500 2574 2641
8 2639 2572 2640 2701 2574 2501 2575 2642
8 2641 2574 2642 2702 2576 2503 2577 2643
8 2597 2528 2596 2659 2645 2579 2644 2704
8 2645 2579 2644 2704 2593 2522 2590 2655
8 2660 2597 2645 2705 2598 2529 2580 2646
8 2646 2580 2645 2705 2595 2525 2593 2657
8 2650 2584 2512 2585 2707 2647 2582 2648
8 2648 2582 2517 2589 2707 2647 2587 2653
8 2649 2583 2648 2708 2586 2513 2585 2651
8 2649 2583 2516 2588 2708 2648 2589 2654
8 2655 2590 2652 2710 2592 2521 2587 2653
8 2654 2589 2520 2591 2711 2653 2592 2656
8 2657 2593 2655 2712 2594 2523 2592 2656
8 2602 2536 2603 2663 2659 2596 2658 2714
8 2662 2602 2659 2715 2600 2534 2597 2660
8 2662 2602 2534 2600 2717 2663 2601 2661
8 2661 2601 2538 2604 2717 2663 2605 2665
8 2666 2606 2664 2718 2605 2539 2603 2663
8 2668 2608 2666 2720 2607 2541 2605 2665
8 2608 2542 2609 2669 2666 2606 2667 2721
8 2610 2544 2611 2671 2668 2608 2669 2723
8 2611 2545 2612 2672 2669 2609 2670 2724
8 2613 2547 2614 2674 2671 2611 2672 2726
8 2614 2548 2615 2675 2672 2612 2673 2727
8 2616 2550 2617 2677 2674 2614 2675 2729
8 2617 2551 2618 2678 2675 2615 2676 2730
8 2619 2553 2620 2680 2677 2617 2678 2732
8 2620 2554 2621 2681 2678 2618 2679 2733
8 2624 2556 2623 2684 2680 2620 2681 2735
8 2681 2621 2555 2623 2736 2682 2622 2683
8 2626 2559 2625 2685 2684 2623 2683 2737
8 2688 2628 2584 2650 2740 2686 2647 2707
8 2688 2628 2687 2742 2650 2584 2629 2690
8 2690 2629 2689 2745 2630 2564 2631 2692
8 2746 2690 2630 2691 2709 2650 2585 2651
8 2691 2630 2692 2747 2632 2565 2633 2694
8 2692 2631 2693 2748 2633 2566 2634 2695
8 2694 2633 2695 2750 2635 2568 2636 2697
8 2695 2634 2696 2751 2636 2569 2637 2698
8 2697 2636 2698 2753 2638 2571 2639 2700
8 2698 2637 2699 2754 2639 2572 2640 2701
8 2700 2639 2701 2755 2641 2574 2642 2702
8 2659 2596 2658 2714 2704 2644 2703 2757
8 2704 2644 2703 2757 2655 2590 2652 2710
8 2660 2597 2659 2715 2705 2645 2704 2758
8 2705 2645 2704 2758 2657 2593 2655 2712
8 2759 2706 2647 2707 2710 2652 2587 2653
8 2709 2650 2585 2651 2760 2707 2648 2708
8 2708 2648 2589 2654 2760 2707 2653 2711
8 2712 2655 2710 2761 2656 2592 2653 2711
8 2763 2713 2658 2714 2718 2664 2603 2663
8 2662 2602 2663 2717 2715 2659 2714 2764
8 2720 2666 2718 2767 2665 2605 2663 2717
8 2768 2719 2664 2718 2721 2667 2606 2666
8 2668 2608 2669 2723 2720 2666 2721 2770
8 2669 2609 2670 2724 2721 2667 2722 2771
8 2671 2611 2672 2726 2723 2669 2724 2773
8 2672 2612 2673 2727 2724 2670 2725 2774
8 2674 2614 2675 2729 2726 2672 2727 2776
8 2675 2615 2676 2730 2727 2673 2728 2777
8 2677 2617 2678 2732 2729 2675 2730 2779
8 2678 2618 2679 2733 2730 2676 2731 2780
8 2680 2620 2681 2735 2732 2678 2733 2782
8 2733 2679 2621 2681 2783 2734 2682 2736
8 2735 2681 2623 2684 2784 2736 2683 2737
8 2740 2686 2647 2707 2787 2738 2706 2759
8 2688 2628 2686 2740 2742 2687 2739 2789
8 2743 2688 2650 2709 2790 2740 2707 2760
8 2742 2687 2741 2792 2690 2629 2689 2745
8 2743 2688 2742 2793 2709 2650 2690 2746
8 2745 2689 2744 2795 2692 2631 2693 2748
8 2746 2690 2745 2796 2691 2630 2692 2747
8 2747 2692 2748 2797 2694 2633 2695 2750
8 2748 2693 2749 2798 2695 2634 2696 2751
8 2750 2695 2751 2800 2697 2636 2698 2753
8 2751 2696 2752 2801 2698 2637 2699 2754
8 2753 2698 2754 2802 2700 2639 2701 2755
8 2763 2713 2756 2804 2714 2658 2703 2757
8 2759 2706 2652 2710 2804 2756 2703 2757
8 2715 2659 2714 2764 2758 2704 2757 2805
8 2758 2704 2757 2805 2712 2655 2710 2761
8 2806 2759 2707 2760 2761 2710 2653 2711
8 2765 2716 2762 2808 2718 2664 2713 2763
8 2809 2763 2714 2764 2767 2718 2663 2717
8 2765 2716 2664 2718 2811 2766 2719 2768
8 2813 2768 2718 2767 2770 2721 2666 2720
8 2814 2769 2719 2768 2771 2722 2667 2721
8 2723 2669 2724 2773 2770 2721 2771 2816
8 2724 2670 2725 2774 2771 2722 2772 2817
8 2726 2672 2727 2776 2773 2724 2774 2819
8 2727 2673 2728 2777 2774 2725 2775 2820
8 2729 2675 2730 2779 2776 2727 2777 2822
8 2730 2676 2731 2780 2777 2728 2778 2823
8 2732 2678 2733 2782 2779 2730 2780 2825
8 2780 2731 2679 2733 2826 2781 2734 2783
8 2782 2733 2681 2735 2827 2783 2736 2784
8 2830 2785 2738 2787 2804 2756 2706 2759
8 2789 2739 2686 2740 2832 2786 2738 2787
8 2790 2740 2707 2760 2833 2787 2759 2806
8 2742 2687 2739 2789 2792 2741 2788 2835
8 2743 2688 2740 2790 2793 2742 2789 2836
8 2792 2741 2791 2838 2745 2689 2744 2795
8 2793 2742 2792 2839 2746 2690 2745 2796
8 2795 2744 2794 2841 2748 2693 2749 2798
8 2796 2745 2795 2842 2747 2692 2748 2797
8 2797 2748 2798 2843 2750 2695 2751 2800
8 2798 2749 2799 2844 2751 2696 2752 2801
8 2800 2751 2801 2845 2753 2698 2754 2802
8 2808 2762 2803 2847 2763 2713 2756 2804
8 2809 2763 2804 2848 2764 2714 2757 2805
8 2806 2759 2710 2761 2848 2804 2757 2805
8 2765 2716 2766 2811 2808 2762 2807 2850
8 2810 2765 2808 2851 2767 2718 2763 2809
8 2810 2765 2718 2767 2852 2811 2768 2813
8 2811 2766 2719 2768 2853 2812 2769 2814
8 2855 2814 2768 2813 2816 2771 2721 2770
8 2856 2815 2769 2814 2817 2772 2722 2771
8 2773 2724 2774 2819 2816 2771 2817 2858
8 2774 2725 2775 2820 2817 2772 2818 2859
8 2776 2727 2777 2822 2819 2774 2820 2861
8 2777 2728 2778 2823 2820 2775 2821 2862
8 2779 2730 2780 2825 2822 2777 2823 2864
8 2823 2778 2731 2780 2865 2824 2781 2826
8 2825 2780 2733 2782 2866 2826 2783 2827
8 2869 2828 2785 2830 2847 2803 2756 2804
8 2871 2829 2786 2832 2830 2785 2738 2787
8 2872 2830 2787 2833 2848 2804 2759 2806
8 2789 2739 2786 2832 2835 2788 2831 2874
8 2836 2789 2740 2790 2875 2832 2787 2833
8 2792 2741 2788 2835 2838 2791 2834 2877
8 2793 2742 2789 2836 2839 2792 2835 2878
8 2838 2791 2837 2880 2795 2744 2794 2841
8 2839 2792 2838 2881 2796 2745 2795 2842
8 2841 2794 2840 2882 2798 2749 2799 2844
8 2842 2795 2841 2883 2797 2748 2798 2843
8 2843 2798 2844 2884 2800 2751 2801 2845
8 2886 2846 2803 2847 2850 2807 2762 2808
8 2851 2808 2847 2887 2809 2763 2804 2848
8 2850 2807 2766 2811 2889 2849 2812 2853
8 2810 2765 2811 2852 2851 2808 2850 2890
8 2852 2811 2768 2813 2891 2853 2814 2855
8 2853 2812 2769 2814 2892 2854 2815 2856
8 2894 2856 2814 2855 2858 2817 2771 2816
8 2817 2772 2818 2859 2856 2815 2857 2895
8 2819 2774 2820 2861 2858 2817 2859 2897
8 2820 2775 2821 2862 2859 2818 2860 2898
8 2822 2777 2823 2864 2861 2820 2862 2900
8 2823 2778 2824 2865 2862 2821 2863 2901
8 2864 2823 2780 2825 2902 2865 2826 2866
8 2904 2867 2828 2869 2886 2846 2803 2847
8 2869 2828 2868 2906 2830 2785 2829 2871
8 2907 2869 2830 2872 2887 2847 2804 2848
8 2871 2829 2870 2909 2832 2786 2831 2874
8 2910 2871 2832 2875 2872 2830 2787 2833
8 2835 2788 2831 2874 2877 2834 2873 2912
8 2836 2789 2832 2875 2878 2835 2874 2913
8 2877 2834 2876 2915 2838 2791 2837 2880
8 2839 2792 2835 2878 2881 2838 2877 2916
8 2880 2837 2879 2917 2841 2794 2840 2882
8 2881 2838 2880 2918 2842 2795 2841 2883
8 2883 2841 2882 2919 2843 2798 2844 2884
8 2921 2885 2846 2886 2889 2849 2807 2850
8 2922 2886 2847 2887 2890 2850 2808 2851
8 2889 2849 2812 2853 2924 2888 2854 2892
8 2890 2850 2811 2852 2925 2889 2853 2891
8 2891 2853 2814 2855 2926 2892 2856 2894
8 2892 2854 2815 2856 2927 2893 2857 2895
8 2858 2817 2859 2897 2894 2856 2895 2929
8 2859 2818 2860 2898 2895 2857 2896 2930
8 2861 2820 2862 2900 2897 2859 2898 2932
8 2862 2821 2863 2901 2898 2860 2899 2933
8 2864 2823 2865 2902 2900 2862 2901 2934
8 2904 2867 2846 2886 2936 2903 2885 2921
8 2904 2867 2903 2936 2869 2828 2868 2906
8 2937 2904 2869 2907 2922 2886 2847 2887
8 2906 2868 2905 2939 2871 2829 2870 2909
8 2907 2869 2906 2940 2872 2830 2871 2910
8 2909 2870 2908 2942 2874 2831 2873 2912
8 2910 2871 2909 2943 2875 2832 2874 2913
8 2912 2873 2911 2945 2877 2834 2876 2915
8 2878 2835 2874 2913 2916 2877 2912 2946
8 2915 2876 2914 2947 2880 2837 2879 2917
8 2916 2877 2915 2948 2881 2838 2880 2918
8 2918 2880 2917 2949 2883 2841 2882 2919
8 2921 2885 2849 2889 2951 2920 2888 2924
8 2952 2921 2886 2922 2925 2889 2850 2890
8 2924 2888 2854 2892 2954 2923 2893 2927
8 2925 2889 2853 2891 2955 2924 2892 2926
8 2926 2892 2856 2894 2956 2927 2895 2929
8 2895 2857 2896 2930 2927 2893 2928 2957
8 2897 2859 2898 2932 2929 2895 2930 2959
8 2898 2860 2899 2933 2930 2896 2931 2960
8 2900 2862 2901 2934 2932 2898 2933 2961
8 2936 2903 2885 2921 2963 2935 2920 2951
8 2936 2903 2935 2963 2906 2868 2905 2939
8 2937 2904 2886 2922 2964 2936 2921 2952
8 2937 2904 2936 2964 2907 2869 2906 2940
8 2939 2905 2938 2966 2909 2870 2908 2942
8 2940 2906 2939 2967 2910 2871 2909 2943
8 2942 2908 2941 2969 2912 2873 2911 2945
8 2943 2909 2942 2970 2913 2874 2912 2946
8 2945 2911 2944 2971 2915 2876 2914 2947
8 2946 2912 2945 2972 2916 2877 2915 2948
8 2948 2915 2947 2973 2918 2880 2917 2949
8 2951 2920 2888 2924 2975 2950 2923 2954
8 2952 2921 2889 2925 2976 2951 2924 2955
8 2927 2893 2928 2957 2954 2923 2953 2978
8 2955 2924 2892 2926 2979 2954 2927 2956
8 2929 2895 2930 2959 2956 2927 2957 2980
8 2930 2896 2931 2960 2957 2928 2958 2981
8 2932 2898 2933 2961 2959 2930 2960 2982
8 2951 2920 2950 2975 2963 2935 2962 2984
8 2963 2935 2962 2984 2939 2905 2938 2966
8 2964 2936 2921 2952 2985 2963 2951 2976
8 2964 2936 2963 2985 2940 2906 2939 2967
8 2966 2938 2965 2987 2942 2908 2941 2969
8 2967 2939 2966 2988 2943 2909 2942 2970
8 2969 2941 2968 2989 2945 2911 2944 2971
8 2970 2942 2969 2990 2946 2912 2945 2972
8 2972 2945 2971 2991 2948 2915 2947 2973
8 2954 2923 2953 2978 2975 2950 2974 2993
8 2976 2951 2924 2955 2994 2975 2954 2979
8 2957 2928 2958 2981 2978 2953 2977 2995
8 2956 2927 2957 2980 2979 2954 2978 2996
8 2959 2930 2960 2982 2980 2957 2981 2997
8 2984 2962 2983 2999 2966 2938 2965 2987
8 2975 2950 2974 2993 2984 2962 2983 2999
8 2976 2951 2975 2994 2985 2963 2984 3000
8 2985 2963 2984 3000 2967 2939 2966 2988
8 2987 2965 2986 3001 2969 2941 2968 2989
8 2988 2966 2987 3002 2970 2942 2969 2990
8 2990 2969 2989 3003 2972 2945 2971 2991
8 2978 2953 2977 2995 2993 2974 2992 3004
8 2979 2954 2978 2996 2994 2975 2993 3005
8 2980 2957 2981 2997 2996 2978 2995 3006
8 2974 2993 2999 2983 2992 3004 3007 2998
8 2983 2999 2987 2965 2998 3007 3001 2986
8 3000 2984 2999 3008 2988 2966 2987 3002
8 2994 2975 2993 3005 3000 2984 2999 3008
8 3002 2987 3001 3009 2990 2969 2989 3003
8 2996 2978 2995 3006 3005 2993 3004 3010
8 3005 2993 3004 3010 3008 2999 3007 3011
8 3008 2999 3007 3011 3002 2987 3001 3009

CELL_TYPES 1910
12
12
12
12
12
12
12
12
12
12
12
12
12
12
12
12
12
12
12
12
12
12
12
12
12
12
12
12
12
12
12
12
12
12
12
12
12
12
12
12
12
12
12
12
12
12
12
12
12
12
12
12
12
12
12
12
12
12
12
12
12
12
12
12
12
12
12
12
12
12
12
12
12
12
12
12
12
12
12
12
12
12
12
12
12
12
12
12
12
12
12
12
12
12
12
12
12
12
12
12
12
12
12
12
12
12
12
12
12
12
12
12
12
12
12
12
12
12
12
12
12
12
12
12
12
12
12
12
12
12
12
12
12
12
12
12
12
12
12
12
12
12
12
12
12
12
12
12
12
12
12
12
12
12
12
12
12
12
12
12
12
12
12
12
12
12
12
12
12
12
12
12
12
12
12
12
12
12
12
12
12
12
12
12
12
12
12
12
12
12
12
12
12
12
12
12
12
12
12
12
12
12
12
12
12
12
12
12
12
12
12
12
12
12
12
12
12
12
12
12
12
12
12
12
12
12
12
12
12
12
12
12
12
12
12
12
12
12
12
12
12
12
12
12
12
12
12
12
12
12
12
12
12
12
12
12
12
12
12
12
12
12
12
12
12
12
12
12
12
12
12
12
12
12
12
12
12
12
12
12
12
12
12
12
12
12
12
12
12
12
12
12
12
12
12
12
12
12
12
12
12
12
12
12
12
12
12
12
12
12
12
12
12
12
12
12
12
12
12
12
12
12
12
12
12
12
12
12
12
12
12
12
12
12
12
12
12
12
12
12
12
12
12
12
12
12
12
12
12
12
12
12
12
12
12
12
12
12
12
12
12
12
12
12
12
12
12
12
12
12
12
12
12
12
12
12
12
12
12
12
12
12
12
12
12
12
12
12
12
12
12
12
12
12
12
12
12
12
12
12
12
12
12
12
12
12
12
12
12
12
12
12
12
12
12
12
12
12
12
12
12
12
12
12
12
12
12
12
12
12
12
12
12
12
12
12
12
12
12
12
12
12
12
12
12
12
12
12
12
12
12
12
12
12
12
12
12
12
12
12
12
12
12
12
12
12
12
12
12
12
12
12
12
12
12
12
12
12
12
12
12
12
12
12
12
12
12
12
12
12
12
12
12
12
12
12
12
12
12
12
12
12
12
12
12
12
12
12
12
12
12
12
12
12
12
12
12
12
12
12
12
12
12
12
12
12
12
12
12
12
12
12
12
12
12
12
12
12
12
12
12
12
12
12
12
12
12
12
12
12
12
12
12
12
12
12
12
12
12
12
12
12
12
12
12
12
12
12
12
12
12
12
12
12
12
12
12
12
12
12
12
12
12
12
12
12
12
12
12
12
12
12
12
12
12
12
12
12
12
12
12
12
12
12
12
12
12
12
12
12
12
12
12
12
12
12
12
12
12
12
12
12
12
12
12
12
12
12
12
12
12
12
12
12
12
12
12
12
12
12
12
12
12
12
12
12
12
12
12
12
12
12
12
12
12
12
12
12
12
12
12
12
12
12
12
12
12
12
12
12
12
12
12
12
12
12
12
12
12
12
12
12
12
12
12
12
12
12
12
12
12
12
12
12
12
12
12
12
12
12
12
12
12
12
12
12
12
12
12
12
12
12
12
12
12
12
12
12
12
12
12
12
12
12
12
12
12
12
12
12
12
12
12
12
12
12
12
12
12
12
12
12
12
12
12
12
12
12
12
12
12
12
12
12
12
12
12
12
12
12
12
12
12
12
12
12
12
12
12
12
12
12
12
12
12
12
12
12
12
12
12
12
12
12
12
12
12
12
12
12
12
12
12
12
12
12
12
12
12
12
12
12
12
12
12
12
12
12
12
12
12
12
12
12
12
12
12
12
12
12
12
12
12
12
12
12
12
12
12
12
12
12
12
12
12
12
12
12
12
12
12
12
12
12
12
12
12
12
12
12
12
12
12
12
12
12
12
12
12
12
12
12
12
12
12
12
12
12
12
12
12
12
12
12
12
12
12
12
12
12
12
12
12
12
12
12
12
12
12
12
12
12
12
12
12
12
12
12
12
12
12
12
12
12
12
12
12
12
12
12
12
12
12
12
12
12
12
12
12
12
12
12
12
12
12
12
12
12
12
12
12
12
12
12
12
12
12
12
12
12
12
12
12
12
12
12
12
12
12
12
12
12
12
12
12
12
12
12
12
12
12
12
12
12
12
12
12
12
12
12
12
12
12
12
12
12
12
12
12
12
12
12
12
12
12
12
12
12
12
12
12
12
12
12
12
12
12
12
12
12
12
12
12
12
12
12
12
12
12
12
12
12
12
12
12
12
12
12
12
12
12
12
12
12
12
12
12
12
12
12
12
12
12
12
12
12
12
12
12
12
12
12
12
12
12
12
12
12
12
12
12
12
12
12
12
12
12
12
12
12
12
12
12
12
12
12
12
12
12
12
12
12
12
12
12
12
12
12
12
12
12
12
12
12
12
12
12
12
12
12
12
12
12
12
12
12
12
12
12
12
12
12
12
12
12
12
12
12
12
12
12
12
12
12
12
12
12
12
12
12
12
12
12
12
12
12
12
12
12
12
12
12
12
12
12
12
12
12
12
12
12
12
12
12
12
12
12
12
12
12
12
12
12
12
12
12
12
12
12
12
12
12
12
12
12
12
12
12
12
12
12
12
12
12
12
12
12
12
12
12
12
12
12
12
12
12
12
12
12
12
12
12
12
12
12
12
12
12
12
12
12
12
12
12
12
12
12
12
12
12
12
12
12
12
12
12
12
12
12
12
12
12
12
12
12
12
12
12
12
12
12
12
12
12
12
12
12
12
12
12
12
12
12
12
12
12
12
12
12
12
12
12
12
12
12
12
12
12
12
12
12
12
12
12
12
12
12
12
12
12
12
12
12
12
12
12
12
12
12
12
12
12
12
12
12
12
12
12
12
12
12
12
12
12
12
12
12
12
12
12
12
12
12
12
12
12
12
12
12
12
12
12
12
12
12
12
12
12
12
12
12
12
12
12
12
12
12
12
12
12
12
12
12
12
12
12
12
12
12
12
12
12
12
12
12
12
12
12
12
12
12
12
12
12
12
12
12
12
12
12
12
12
12
12
12
12
12
12
12
12
12
12
12
12
12
12
12
12
12
12
12
12
12
12
12
12
12
12
12
12
12
12
12
12
12
12
12
12
12
12
12
12
12
12
12
12
12
12
12
12
12
12
12
12
12
12
12
12
12
12
12
12
12
12
12
12
12
12
12
12
12
12
12
12
12
12
12
12
12
12
12
12
12
12
12
12
12
12
12
12
12
12
12
12
12
12
12
12
12
12
12
12
12
12
12
12
12
12
12
12
12
12
12
12
12
12
12
12
12
12
12
12
12
12
12
12
12
12
12
12
12
12
12
12
12
12
12
12
12
12
12
12
12
12
12
12
12
12
12
12
12
12
12
12
12
12
12
12
12
12
12
12
12
12
12
12
12
12
12
12
12
12
12
12
12
12
12
12
12
12
12
12
12
12
12
12
12
12
12
12
12
12
12
12
12
12
12
12
12
12
12
12
12
12
12
12
12
12
12
12
12
12
12
12
12
12
12
12
12
12
12
12
12
12
12
12
12
12
12
12
12
12
12
12
12
12
12
12
12
12
12
12
12
12
12
12
12
12
12
12
12
12
12
12
12
12
12
12
12
12
12
12
12
12
12
12
12
12
12
12
12
12
12
12
12
12
12
12
12
12
12
12
12
12
12
12
12
12
12
12
12
12
12
12
12
12
12
12
12
12
12
12
12
12
12
12
12
12
12
12
12
12
12
12
12
12
12
12
12
12
12
12
12
12
12
12
12
12
12
12
12
12
12
12
12
12
12
12
12
12
12
12
12
12
12
12
12
12
12
12
12
12
12
12
12
12
12
12
12
12
12
12
12
12
12
12
12
12
12
12
12
12
12
12
12
12
12
12
12
12
12
12
12
12
12
12
12
12
12
12
12
12
12
12
12
12
12
12
12
12
12
12
12
12
12
12
12
12
12
12
12
12
12
12
12
12
12
12
12
12
12
12
12
12
12
12
12
12
12
12
12
12
12
12
12
12
12
12
12
12
12
12
12
12
12
12
12
12
12
12
12
12
12
12
12
12
12
12
12
12
12
12
12
12
12
12
12
12
12
12
12
12
12
12
12
12
12
12
12
12
12
12
12
12
12
12
12
12
12
12
12
12
12
12
12
12
12
12
12
12
12
12
12
12
12
12
12
12
12
12
12
12
12
12
12
12
12
12
12
12
12
12
12
12
12
12
12
12
12
12
12
12
12
12
12
12
12
12
12
12
12
12
12
12
12
12
12
12
12
12

POINT_DATA 3012
SCALARS Jp_lamdaP float 4
LOOKUP_TABLE default
0.999995 1 1 0.999995
1 1 1 1
0.999995 1 1 0.999995
0.999974 1 1 0.999974
0.99999 1 1 0.99999
0.999998 1 1 0.999998
0.999832 1 1 0.999832
1 1 1 1
1 1 1 1
1 1 1 1
1 1 1 1
0.999938 1 1 0.999938
0.999951 1 1 0.999951
0.999975 1 1 0.999975
0.999996 1 1 0.999996
0.999977 1 1 0.999977
0.999999 1 1 0.999999
0.999992 1 1 0.999992
0.999835 1 1 0.999835
1 1 1 1
0.99997 1 1 0.99997
0.999982 1 1 0.999982
0.99973 1 1 0.99973
0.999801 1 1 0.999801
1 1 1 1
0.999868 1 1 0.999868
0.999552 1 1 0.999552
1 1 1 1
0.999993 1 1 0.999993
0.999999 1 1 0.999999
1 1 1 1
0.999943 1 1 0.999943
0.999982 1 1 0.999982
0.999996 1 1 0.999996
0.999859 1 1 0.999859
1 1 1 1
0.999919 1 1 0.999919
0.99996 1 1 0.99996
0.999616 1 1 0.999616
1 1 1 1
1 1 1 1
0.999986 1 1 0.999986
1 1 1 1
0.999967 1 1 0.999967
0.999709 1 1 0.999709
1 1 1 1
0.999802 1 1 0.999802
0.99998 1 1 0.99998
0.999993 1 1 0.999993
1 1 1 1
0.999837 1 1 0.999837
0.999977 1 1 0.999977
0.999973 1 1 0.999973
1 1 1 1
0.999985 1 1 0.999985
0.999732 1 1 0.999732
0.99987 1 1 0.99987
0.999803 1 1 0.999803
0.999541 1 1 0.999541
1 1 1 1
0.999963 1 1 0.999963
0.999755 1 1 0.999755
0.999714 1 1 0.999714
0.999765 1 1 0.999765
0.999313 1 1 0.999313
0.999445 1 1 0.999445
1 1 1 1
0.999913 1 1 0.999913
0.99963 1 1 0.99963
0.999224 1 1 0.999224
1 1 1 1
1 1 1 1
1 1 1 1
0.999949 1 1 0.999949
1 1 1 1
1 1 1 1
0.999859 1 1 0.999859
1 1 1 1
0.999923 1 1 0.999923
0.999969 1 1 0.999969
0.999615 1 1 0.999615
1 1 1 1
1 1 1 1
0.999821 1 1 0.999821
0.999887 1 1 0.999887
0.999389 1 1 0.999389
0.999986 1 1 0.999986
0.999577 1 1 0.999577
0.999656 1 1 0.999656
0.999388 1 1 0.999388
1 1 1 1
1 1 1 1
1 1 1 1
1 1 1 1
1 1 1 1
0.99998 1 1 0.99998
0.999733 1 1 0.999733
0.999989 1 1 0.999989
0.999798 1 1 0.999798
1 1 1 1
0.999679 1 1 0.999679
0.999776 1 1 0.999776
0.99911 1 1 0.99911
0.999819 1 1 0.999819
0.999201 1 1 0.999201
0.999958 1 1 0.999958
0.999976 1 1 0.999976
1 1 1 1
0.999987 1 1 0.999987
0.999734 1 1 0.999734
0.999806 1 1 0.999806
0.999871 1 1 0.999871
0.999531 1 1 0.999531
1 1 1 1
0.999968 1 1 0.999968
0.999698 1 1 0.999698
0.999715 1 1 0.999715
1 1 1 1
0.999934 1 1 0.999934
0.999767 1 1 0.999767
0.999294 1 1 0.999294
0.999618 1 1 0.999618
0.999458 1 1 0.999458
0.999225 1 1 0.999225
0.999694 1 1 0.999694
0.999704 1 1 0.999704
0.999174 1 1 0.999174
0.999248 1 1 0.999248
0.999352 1 1 0.999352
0.998996 1 1 0.998996
1 1 1 1
0.999157 1 1 0.999157
0.999983 1 1 0.999983
0.999657 1 1 0.999657
0.99929 1 1 0.99929
0.999087 1 1 0.999087
0.999999 1 1 0.999999
0.999793 1 1 0.999793
1 1 1 1
1 1 1 1
0.999864 1 1 0.999864
1 1 1 1
0.999977 1 1 0.999977
0.999927 1 1 0.999927
0.999613 1 1 0.999613
1 1 1 1
1 1 1 1
0.999832 1 1 0.999832
0.999896 1 1 0.999896
0.999391 1 1 0.999391
0.999991 1 1 0.999991
0.999578 1 1 0.999578
0.999655 1 1 0.999655
0.99938 1 1 0.99938
0.999999 1 1 0.999999
1 1 1 1
0.999823 1 1 0.999823
0.9993 1 1 0.9993
0.999496 1 1 0.999496
0.999114 1 1 0.999114
0.99971 1 1 0.99971
0.999341 1 1 0.999341
0.999413 1 1 0.999413
0.999291 1 1 0.999291
1 1 1 1
1 1 1 1
1 1 1 1
1 1 1 1
1 1 1 1
1 1 1 1
1 1 1 1
0.999793 1 1 0.999793
0.999724 1 1 0.999724
1 1 1 1
1 1 1 1
0.999681 1 1 0.999681
0.999773 1 1 0.999773
0.999111 1 1 0.999111
0.999809 1 1 0.999809
0.999201 1 1 0.999201
0.999669 1 1 0.999669
0.999056 1 1 0.999056
0.999163 1 1 0.999163
0.998845 1 1 0.998845
0.999241 1 1 0.999241
0.998943 1 1 0.998943
1 1 1 1
0.999972 1 1 0.999972
0.999638 1 1 0.999638
0.999716 1 1 0.999716
1 1 1 1
0.999955 1 1 0.999955
0.99977 1 1 0.99977
0.999274 1 1 0.999274
0.999471 1 1 0.999471
0.999606 1 1 0.999606
0.999226 1 1 0.999226
0.999691 1 1 0.999691
0.999704 1 1 0.999704
0.999134 1 1 0.999134
0.999263 1 1 0.999263
1 1 1 1
0.999977 1 1 0.999977
0.999674 1 1 0.999674
0.999353 1 1 0.999353
0.998972 1 1 0.998972
0.999286 1 1 0.999286
0.999168 1 1 0.999168
0.999089 1 1 0.999089
0.999998 1 1 0.999998
0.999793 1 1 0.999793
0.999067 1 1 0.999067
0.999225 1 1 0.999225
0.998894 1 1 0.998894
0.998911 1 1 0.998911
0.999086 1 1 0.999086
0.998881 1 1 0.998881
0.999995 1 1 0.999995
0.999026 1 1 0.999026
0.99969 1 1 0.99969
0.999376 1 1 0.999376
0.999153 1 1 0.999153
0.999043 1 1 0.999043
0.999737 1 1 0.999737
0.999861 1 1 0.999861
0.999514 1 1 0.999514
0.999832 1 1 0.999832
1 1 1 1
1 1 1 1
0.999902 1 1 0.999902
0.999393 1 1 0.999393
0.999996 1 1 0.999996
0.999655 1 1 0.999655
0.999579 1 1 0.999579
0.999372 1 1 0.999372
0.999999 1 1 0.999999
1 1 1 1
0.999824 1 1 0.999824
0.999301 1 1 0.999301
0.999499 1 1 0.999499
0.999114 1 1 0.999114
0.99971 1 1 0.99971
0.99935 1 1 0.99935
0.999412 1 1 0.999412
0.999281 1 1 0.999281
1 1 1 1
0.999763 1 1 0.999763
0.999886 1 1 0.999886
0.999561 1 1 0.999561
0.999027 1 1 0.999027
0.999246 1 1 0.999246
0.998976 1 1 0.998976
0.999468 1 1 0.999468
0.999245 1 1 0.999245
0.999349 1 1.00009 0.99926
0.999208 1 1 0.999208
0.999976 1 1 0.999976
1 1 1 1
1 1 1 1
1 1 1 1
1 1 1 1
1 1 1 1
1 1 1 1
1 1 1 1
1 1 1 1
0.999811 1 1 0.999811
0.999765 1 1 0.999765
0.999201 1 1 0.999201
0.999111 1 1 0.999111
0.999683 1 1 0.999683
1 1 1 1
0.999668 1 1 0.999668
0.999057 1 1 0.999057
0.999163 1 1 0.999163
0.998844 1 1 0.998844
0.999241 1 1 0.999241
0.998943 1 1 0.998943
0.999043 1 1 0.999043
0.998789 1 1 0.998789
0.9989 1 1 0.9989
0.999124 1.00035 1 0.99877
0.998981 1 1 0.998981
0.998864 1.00001 1 0.998856
0.999689 1 1 0.999689
0.999705 1 1 0.999705
0.999094 1 1 0.999094
0.999277 1 1 0.999277
1 1 1 1
0.999972 1 1 0.999972
0.999691 1 1 0.999691
0.999355 1 1 0.999355
0.998948 1 1 0.998948
0.999179 1 1 0.999179
0.999283 1 1 0.999283
0.999091 1 1 0.999091
0.999998 1 1 0.999998
0.999793 1 1 0.999793
0.999054 1 1 0.999054
0.999225 1 1 0.999225
0.998884 1 1 0.998884
0.998936 1 1 0.998936
0.999992 1 1 0.999992
0.99969 1 1 0.99969
0.999394 1 1 0.999394
0.999086 1 1 0.999086
0.998875 1 1 0.998875
0.999135 1 1 0.999135
0.999026 1 1 0.999026
0.999043 1 1 0.999043
0.999738 1 1 0.999738
0.999512 1 1 0.999512
0.99986 1 1 0.99986
0.998843 1 1 0.998843
0.99892 1 1 0.99892
0.998903 1.00014 1 0.998762
0.998822 1 1 0.998822
0.998953 1 1 0.998953
0.999002 1.00013 1 0.998877
0.99971 1 1 0.99971
0.998998 1 1 0.998996
0.999474 1 1 0.999474
0.999218 1 1 0.999218
0.999038 1 1 0.999038
0.999081 1 1 0.999081
0.999915 1 1 0.999915
0.999506 1 1 0.999506
0.999541 1 1 0.999541
0.99941 1 1 0.99941
0.999301 1 1 0.999301
1 1 1 1
1 1 1 1
0.999824 1 1 0.999824
0.999502 1 1 0.999502
0.999114 1 1 0.999114
0.99971 1 1 0.99971
0.99941 1 1 0.99941
0.999358 1 1 0.999358
0.999272 1 1 0.999272
1 1 1 1
0.999762 1 1 0.999762
0.999888 1 1 0.999888
0.99956 1 1 0.99956
0.999025 1 1 0.999025
0.999248 1 1 0.999248
0.998976 1 1 0.998976
0.99947 1 1 0.99947
0.999254 1 1 0.999254
0.999271 1 1.00002 0.999255
0.999239 1 1 0.999239
1 1 1 1
0.999927 1 1 0.999927
0.999519 1 1 0.999519
0.999617 1 1 0.999617
0.999412 1 1 0.999412
0.998906 1 1 0.998906
0.999121 1 1 0.999121
0.998927 1 1 0.998927
0.999332 1 1.00003 0.999301
0.999186 1 1 0.999186
0.99921 1 1.00011 0.9991
0.999965 1 1 0.999965
0.999786 1 1 0.999786
0.999984 1 1 0.999984
0.999978 1 1 0.999978
1 1 1 1
1 1 1 1
1 1 1 1
1 1 1 1
1 1 1 1
1 1 1 1
1 1 1 1
1 1 1 1
1 1 1 1
1 1 1 1
1 1 1 1
0.999242 1 1 0.999242
0.999163 1 1 0.999163
0.998943 1 1 0.998943
0.998844 1 1 0.998844
0.999057 1 1 0.999057
0.999668 1 1 0.999668
0.999042 1 1 0.999042
0.998789 1 1 0.998789
0.9989 1 1 0.9989
0.999068 1.0003 1 0.998765
0.99898 1 1 0.99898
0.99886 1 1 0.998856
0.998773 1 1 0.998773
1.00035 1.00163 1 0.998715
0.998908 1.0001 1 0.998811
1.00111 1.00236 1 0.998758
0.998886 1 1 0.998886
0.999532 1.00065 1 0.998884
0.999041 1 1 0.999041
0.999225 1 1 0.999225
0.998874 1 1 0.998874
0.998961 1 1 0.998961
0.999989 1 1 0.999989
0.99969 1 1 0.99969
0.999411 1 1 0.999411
0.999085 1 1 0.999085
0.998869 1 1 0.998869
0.999026 1 1 0.999026
0.999116 1 1 0.999116
0.999043 1 1 0.999043
0.999739 1 1 0.999739
0.999509 1 1 0.999509
0.999859 1 1 0.999859
0.998822 1 1 0.998822
0.99892 1 1 0.99892
0.999015 1.00026 1 0.998753
0.998827 1 1 0.998827
0.999711 1 1 0.999711
0.999472 1 1 0.999472
0.999239 1 1 0.999239
0.998961 1 1 0.998961
0.999019 1.00014 1 0.998883
0.999023 1 1 0.999023
0.999038 1.00004 1 0.998996
0.999088 1 1 0.999088
0.999508 1 1 0.999508
0.999397 1 1 0.999397
0.999912 1 1 0.999912
0.99955 1 1 0.99955
0.99935 1.00064 1 0.99871
0.998846 1.00005 1 0.998793
1.00051 1.0018 1 0.998713
0.998958 1.00015 1 0.998806
0.999237 1.0003 1 0.998941
0.999619 1.00072 1 0.998901
0.999503 1 1 0.999503
0.999146 1.00007 1 0.999072
0.999337 1 1 0.999337
0.999087 1 1 0.999087
0.998962 1 1 0.998962
0.999085 1 1 0.999085
0.999941 1 1 0.999941
0.999605 1 1 0.999605
0.999408 1 1 0.999408
0.999413 1 1 0.999413
0.999358 1 1 0.999358
1 1 1 1
0.999024 1 1 0.999024
0.99989 1 1 0.99989
0.999762 1 1 0.999762
0.999558 1 1 0.999558
0.99925 1 1 0.99925
0.998977 1 1 0.998977
0.999471 1 1 0.999471
0.99925 1 1 0.99925
0.999264 1 1 0.999264
0.999269 1 1 0.999269
1 1 1 1
0.999931 1 1 0.999931
0.999519 1 1 0.999519
0.999617 1 1 0.999617
0.999404 1 1 0.999404
0.998923 1.00002 1 0.998904
0.999122 1 1 0.999122
0.998923 1 1 0.998923
0.999347 1 1.00004 0.999303
0.999193 1 1 0.999193
0.999288 1 1.00017 0.999114
0.99995 1 1 0.99995
0.999676 1 1 0.999676
0.99936 1 1 0.99936
0.999453 1 1 0.999453
0.999326 1 1 0.999326
0.999036 1.00016 1 0.998876
0.999064 1 1 0.999064
0.998999 1 1 0.998999
1.00005 1 1.0009 0.999146
0.999027 1 1 0.999027
0.999968 1 1 0.999968
0.999733 1 1 0.999733
0.999772 1 1 0.999772
0.999644 1 1 0.999644
0.999796 1 1 0.999796
0.999989 1 1 0.999989
0.999986 1 1 0.999986
1 1 1 1
0.999981 1 1 0.999981
1 1 1 1
1 1 1 1
1 1 1 1
1 1 1 1
1 1 1 1
1 1 1 1
1 1 1 1
1 1 1 1
1 1 1 1
1 1 1 1
1 1 1 1
0.998979 1 1 0.998979
0.9989 1 1 0.9989
0.998857 1 1 0.998857
0.999007 1.00025 1 0.99876
0.998789 1 1 0.998789
0.999042 1 1 0.999042
0.998774 1 1 0.998774
1.00035 1.00165 1 0.998708
0.998878 1.00007 1 0.998811
1.00101 1.00226 1 0.998758
0.998904 1.00002 1 0.998884
0.999384 1.0005 1 0.998883
1.00008 1.0014 1 0.998685
1.00345 1.00476 1 0.998701
1.00044 1.00163 1 0.998811
1.00288 1.00413 1 0.998757
0.999278 1.00039 1 0.998889
1.00102 1.00211 1 0.998912
0.9988 1 1 0.9988
0.99892 1 1 0.99892
0.999121 1.00038 1 0.998743
0.998831 1 1 0.998831
0.999712 1 1 0.999712
0.99947 1 1 0.99947
0.999259 1 1 0.999259
0.99897 1 1 0.99897
0.999031 1.00014 1 0.99889
0.999097 1.0001 1 0.998996
0.999009 1 1 0.999009
0.999095 1 1 0.999095
0.99951 1 1 0.99951
0.999385 1 1 0.999385
0.999909 1 1 0.999909
0.999559 1 1 0.999559
0.999594 1.00088 1 0.998711
0.998838 1.00004 1 0.998795
1.00018 1.00147 1 0.998716
0.998946 1.00014 1 0.998808
0.999503 1 1 0.999503
0.999353 1 1 0.999353
0.999085 1 1 0.999085
0.999243 1.00031 1 0.998937
0.999667 1.00074 1 0.99893
0.998954 1 1 0.998954
0.999356 1.00028 1 0.999073
0.999109 1 1 0.999109
0.999408 1 1 0.999408
0.999354 1 1 0.999354
0.99941 1 1 0.99941
0.99992 1 1 0.99992
0.999614 1 1 0.999614
1.00246 1.00379 1 0.998677
1.00051 1.0018 1 0.998716
1.00012 1.00129 1 0.998829
0.999984 1.001 1 0.998985
0.99941 1 1 0.99941
1.00009 1.00096 1 0.999132
0.999241 1 1 0.999241
0.999115 1 1.0002 0.998916
0.998893 1 1 0.998893
0.999923 1 1 0.999923
0.999695 1 1 0.999695
0.999474 1 1 0.999474
0.999377 1 1 0.999377
0.999312 1 1 0.999312
0.99932 1 1 0.99932
1 1 1 1
0.999935 1 1 0.999935
0.998942 1.00004 1 0.998902
0.999617 1 1 0.999617
0.999518 1 1 0.999518
0.999396 1 1 0.999396
0.999123 1 1 0.999123
0.998918 1 1 0.998918
0.999305 1 1 0.999305
0.999263 1 1.00014 0.999127
0.999201 1 1 0.999201
0.999954 1 1 0.999954
0.999676 1 1 0.999676
0.999368 1 1 0.999368
0.999452 1 1 0.999452
0.999315 1 1 0.999315
0.999023 1.00015 1 0.998874
0.999059 1 1 0.999059
0.99901 1 1 0.99901
0.999721 1 1.00058 0.999139
0.999003 1 1 0.999003
0.999722 1 1 0.999722
0.999482 1 1 0.999482
0.99977 1 1.00052 0.999247
0.999317 1 1 0.999317
0.999247 1 1 0.999247
1.00061 1.00158 1 0.999032
0.998968 1 1 0.998968
0.999702 1.0007 1 0.999
1.00089 1 1.00185 0.999049
0.998832 1 1 0.998832
0.999971 1 1 0.999971
0.999744 1 1 0.999744
0.999569 1 1 0.999569
0.999759 1 1 0.999759
0.999796 1 1 0.999796
0.999624 1 1 0.999624
0.999518 1 1 0.999518
0.99962 1 1 0.99962
0.999805 1 1 0.999805
0.99999 1 1 0.99999
0.999989 1 1 0.999989
1 1 1 1
0.999987 1 1 0.999987
1 1 1 1
1 1 1 1
1 1 1 1
1 1 1 1
1 1 1 1
1 1 1 1
1 1 1 1
1 1 1 1
1 1 1 1
1 1 1 1
1 1 1 1
0.998919 1.00004 1 0.998882
0.998854 1.00004 1 0.998812
0.999243 1.00036 1 0.998883
1.00091 1.00215 1 0.998758
1.00036 1.00166 1 0.998701
0.998774 1 1 0.998774
1.00021 1.00153 1 0.998682
1.00335 1.00465 1 0.998702
1.00039 1.00159 1 0.998802
1.00308 1.00433 1 0.998753
0.999169 1.00028 1 0.998889
1.00075 1.00182 1 0.998929
1.00385 1.00519 1 0.998673
1.00474 1.00602 1 0.998727
1.00328 1.00446 1 0.998821
1.00129 1.00231 1 0.998986
0.999836 1.00113 1 0.998711
0.998831 1.00003 1 0.998796
0.999878 1.00116 1 0.998718
0.998931 1.00012 1 0.99881
0.999503 1 1 0.999503
0.99937 1 1 0.99937
0.999102 1 1.00002 0.999083
0.999234 1.0003 1 0.998933
0.999744 1.00079 1 0.998958
0.999586 1.00051 1 0.999074
0.998946 1 1 0.998946
0.999134 1 1 0.999134
0.999409 1 1 0.999409
0.99935 1 1 0.99935
0.999408 1 1 0.999408
0.9999 1 1 0.9999
0.999622 1 1 0.999622
1.00219 1.00352 1 0.99868
1.00068 1.00196 1 0.998721
1.00012 1.00128 1 0.998838
0.999408 1 1 0.999408
0.99926 1 1 0.99926
0.999266 1 1.00035 0.998912
1.00021 1.00123 1 0.998976
0.998926 1 1 0.998926
0.999778 1.00065 1 0.999134
0.999924 1 1 0.999924
0.999375 1 1 0.999375
0.999329 1 1 0.999329
0.99931 1 1 0.99931
0.99948 1 1 0.99948
0.999679 1 1 0.999679
1.00376 1.00508 1 0.998683
1.00256 1.00385 1 0.998723
1.00178 1.0029 1 0.998878
1.00207 1.00302 1 0.999055
0.999355 1 1 0.999355
0.999305 1.00034 1 0.99897
0.999319 1 1.00027 0.999048
0.999689 1 1.0009 0.99879
0.999942 1 1 0.999942
0.999739 1 1 0.999739
0.999533 1 1 0.999533
0.999324 1 1 0.999324
0.999327 1 1 0.999327
0.999267 1 1 0.999267
0.999957 1 1 0.999957
0.999677 1 1 0.999677
0.999009 1.00014 1 0.998872
0.999451 1 1 0.999451
0.999376 1 1 0.999376
0.999303 1 1 0.999303
0.999055 1 1 0.999055
0.999021 1 1 0.999021
0.999475 1 1.00034 0.999132
0.999028 1 1.00005 0.998978
0.999723 1 1 0.999723
0.999488 1 1 0.999488
0.999556 1 1.00029 0.999261
0.999323 1 1 0.999323
0.999252 1 1 0.999252
1.00064 1.00161 1 0.999031
0.998971 1 1 0.998971
0.999455 1.00038 1 0.999072
1.00101 1 1.00197 0.999039
0.998826 1 1.00003 0.998797
0.999536 1 1 0.999536
0.999334 1 1 0.999334
1.00079 1 1.00164 0.999155
0.999194 1 1 0.999194
1.00558 1.00656 1 0.999028
1.00293 1.00396 0.999872 0.999094
0.99925 1.00045 1 0.9988
1.00186 1 1.00306 0.998811
0.999755 1 1 0.999755
0.999579 1 1 0.999579
0.999469 1 1 0.999469
0.999796 1 1 0.999796
0.999603 1 1 0.999603
0.999805 1 1 0.999805
0.999503 1 1 0.999503
0.999627 1 1 0.999627
0.999416 1 1 0.999416
0.999504 1 1 0.999504
0.99963 1 1 0.99963
0.999809 1 1 0.999809
0.999989 1 1 0.999989
0.99999 1 1 0.99999
1 1 1 1
0.99999 1 1 0.99999
1 1 1 1
1 1 1 1
1 1 1 1
1 1 1 1
1 1 1 1
1 1 1 1
1 1 1 1
1 1 1 1
1 1 1 1
1 1 1 1
1 1 1 1
0.999061 1.00017 1 0.99889
1.00035 1.00155 1 0.998794
1.00048 1.00154 1 0.998946
1.00328 1.00454 1 0.998748
1.00323 1.00453 1 0.998703
1.00035 1.00167 1 0.99868
1.00359 1.00492 1 0.998678
1.00464 1.00592 1 0.998727
1.00325 1.00443 1 0.998827
1.00157 1.00259 1 0.99898
1.00557 1.00687 1 0.998702
1.00592 1.00714 1 0.998794
1.0046 1.0057 1 0.998907
1.00192 1.00324 1 0.998684
1.00086 1.00213 1 0.998727
1.00011 1.00126 1 0.998848
0.999407 1 1 0.999407
0.99928 1 1 0.99928
0.999431 1 1.00052 0.998908
1.00041 1.00144 1 0.998966
0.999477 1.00034 1 0.999135
0.99896 1 1 0.99896
0.999374 1 1 0.999374
0.999339 1 1 0.999339
0.999307 1 1 0.999307
0.999924 1 1 0.999924
0.999487 1 1 0.999487
0.999664 1 1 0.999664
1.00424 1.00556 1 0.998684
1.0023 1.00358 1 0.998721
1.00175 1.00289 1 0.998866
0.999351 1 1 0.999351
0.999357 1 1.00028 0.999082
0.999676 1 1.00088 0.998795
1.00251 1.00344 1 0.999074
0.999295 1.00033 1 0.998966
0.999957 1 1 0.999957
0.99974 1 1 0.99974
0.999327 1 1 0.999327
0.999279 1 1 0.999279
0.999327 1 1 0.999327
0.999522 1 1 0.999522
1.00526 1.00654 1 0.99873
1.00438 1.00563 1 0.99876
1.00518 1.00627 0.999905 0.999011
1.00363 1.00453 1 0.999105
0.999297 1 1.00004 0.999262
1.00012 1 1.0014 0.998721
1.00043 1 1.00151 0.998921
0.999988 1 1 0.999988
0.999828 1 1 0.999828
0.999742 1 1 0.999742
0.999551 1 1 0.999551
0.99938 1 1 0.99938
0.999216 1 1 0.999216
0.999329 1 1 0.999329
1.00004 1 1.00076 0.999279
0.999723 1 1 0.999723
0.999494 1 1 0.999494
1.00061 1.00158 1 0.999031
0.999329 1 1 0.999329
0.999365 1 1.00009 0.999275
0.999257 1 1 0.999257
0.998975 1 1 0.998975
0.999144 1 1 0.999144
1.00112 1 1.00209 0.999029
0.998762 1 1 0.998762
0.999529 1 1 0.999529
0.999343 1 1 0.999343
1.00098 1 1.00182 0.999167
0.999205 1 1 0.999205
1.00532 1.00631 1 0.999019
1.00248 1.00344 0.999949 0.999093
0.999471 1.00064 1 0.998832
1.00142 1 1.00263 0.998794
0.999422 1 1 0.999422
1.00571 1.00676 1 0.99895
0.999232 1 1 0.999232
1.0005 1 1.00145 0.999044
1.00879 1.00998 0.999722 0.999092
1.00296 1.00416 1 0.99881
1.00177 1 1.00308 0.998689
0.999589 1 1 0.999589
0.999469 1 1 0.999469
0.999373 1 1 0.999373
0.999806 1 1 0.999806
0.999634 1 1 0.999634
0.999487 1 1 0.999487
0.999809 1 1 0.999809
0.999629 1 1 0.999629
0.999404 1 1 0.999404
0.999519 1 1 0.999519
0.99934 1 1 0.99934
0.999404 1 1 0.999404
0.999534 1 1 0.999534
0.999647 1 1 0.999647
0.999805 1 1 0.999805
0.999987 1 1 0.999987
0.999988 1 1 0.999988
1 1 1 1
0.999989 1 1 0.999989
1 1 1 1
1 1 1 1
1 1 1 1
1 1 1 1
1 1 1 1
0.999995 1 1 0.999995
1 1 1 1
1 1 1 1
1 1 1 1
1 1 1 1
1 1 1 1
1 1 1 1
1.00185 1.00288 1 0.998975
1.0032 1.00437 1 0.998833
1.00453 1.00581 1 0.998726
1.00334 1.00466 1 0.998683
1.00547 1.00677 1 0.998708
1.00627 1.0075 1 0.998784
1.00496 1.00604 1 0.998921
1.00543 1.00666 1 0.998772
1.00721 1.00837 1 0.998849
1.00493 1.00596 1 0.998981
1.00466 1.00599 1 0.998686
1.00202 1.0033 1 0.998719
1.00179 1.00294 1 0.998853
0.999347 1 1 0.999347
0.999354 1 1.00024 0.999116
0.999575 1 1.00078 0.9988
1.00308 1.00399 1 0.999092
0.999201 1.00024 1 0.998961
0.999327 1 1 0.999327
0.999291 1 1 0.999291
0.99933 1 1 0.99933
0.999973 1 1 0.999973
0.99974 1 1 0.99974
0.99951 1 1 0.99951
1.00478 1.00605 1 0.998738
0.999985 1 1 0.999985
0.999817 1 1 0.999817
1.00429 1.00554 1 0.99876
1.00603 1.00705 1 0.998984
0.999301 1 1.00002 0.999281
1.00089 1 1.002 0.998892
0.999574 1.00001 1.00084 0.998729
1.00324 1.00414 1 0.999105
0.999772 1 1 0.999772
0.99955 1 1 0.99955
0.999312 1 1 0.999312
0.999705 1 1.00038 0.999325
0.999197 1 1 0.999197
0.999383 1 1 0.999383
1.00587 1.00707 1 0.998815
1.00717 1.00832 1 0.998852
1.0072 1.00843 0.999601 0.999184
0.999831 1.00093 1 0.998902
1.00039 1 1.00116 0.999227
1.00321 1 1.00449 0.99872
0.99983 1 1 0.99983
0.999798 1 1 0.999798
0.999681 1 1 0.999681
0.999556 1 1 0.999556
0.999429 1 1 0.999429
0.999251 1 1 0.999251
0.999851 1 1.00073 0.999121
0.999334 1 1 0.999334
0.999523 1 1 0.999523
0.999352 1 1 0.999352
1.00523 1.00623 1 0.99901
1.00225 1.00317 1 0.999091
0.999215 1 1 0.999215
1.00112 1 1.00194 0.999178
0.99974 1.00084 1.00004 0.998863
1.00103 1 1.00225 0.998777
0.999421 1 1 0.999421
1.00615 1.00719 1 0.998967
0.999234 1 1 0.999234
1.00065 1 1.00163 0.999027
1.0082 1.00939 0.99974 0.99908
1.00333 1.00451 1 0.99882
1.00193 1 1.00324 0.998695
0.999296 1 1 0.999296
1.01593 1.01797 0.998912 0.999078
0.999139 1 1 0.999139
1.00194 1 1.00306 0.998874
1.00383 1.00776 0.997225 0.99888
1.00177 1.0009 1.00221 0.998662
1.00777 1.00977 0.998929 0.999089
0.999468 1 1 0.999468
0.999373 1 1 0.999373
0.999304 1 1 0.999304
0.999809 1 1 0.999809
0.999628 1 1 0.999628
0.999535 1 1 0.999535
0.999391 1 1 0.999391
0.999805 1 1 0.999805
0.999638 1 1 0.999638
0.999336 1 1 0.999336
0.999533 1 1 0.999533
0.999417 1 1 0.999417
0.999324 1 1 0.999324
0.999455 1 1 0.999455
0.999542 1 1 0.999542
0.99962 1 1 0.99962
0.999774 1 1 0.999774
0.999667 1 1 0.999667
0.999776 1 1 0.999776
0.999985 1 1 0.999985
0.999986 1 1 0.999986
1 1 1 1
0.999987 1 1 0.999987
1 1 1 1
1 1 1 1
1 1 1 1
1 1 1 1
1 1 1 1
0.999998 1 1 0.999998
0.999993 1 1 0.999993
1 1 1 1
1 1 1 1
1 1 1 1
1 1 1 1
1 1 1 1
1 1 1 1
1.0053 1.00637 1 0.998935
1.00663 1.00787 1 0.998775
1.00541 1.00671 1 0.998715
1.00582 1.00705 1 0.99877
1.00662 1.00778 1 0.998854
1.00524 1.00626 1 0.998987
1.00625 1.00737 1 0.998897
1.01049 1.01571 0.995782 0.999069
1.01856 1.02045 0.999005 0.999141
0.999868 1 1 0.999868
1.00436 1.00562 1 0.998746
1.00407 1.00532 1 0.998759
1.00662 1.00767 1 0.998958
0.999301 1 1 0.999301
1.00154 1 1.00268 0.998863
0.999232 1.00004 1.00045 0.998736
1.00277 1.00367 1 0.999104
0.999296 1 1 0.999296
0.999371 1 1 0.999371
0.999178 1 1 0.999178
0.999982 1 1 0.999982
0.999386 1 1 0.999386
0.999802 1 1 0.999802
0.99955 1 1 0.99955
0.999806 1 1 0.999806
1.00596 1.00715 1 0.998813
0.999843 1 1 0.999843
0.999797 1 1 0.999797
0.999657 1 1 0.999657
1.00761 1.00876 1 0.998856
1.00576 1.00715 0.999469 0.99915
0.999885 1 1.00065 0.999237
1.00346 1 1.00476 0.998711
1.00008 1.00101 1.00016 0.998907
0.999572 1 1 0.999572
0.999422 1 1 0.999422
0.999516 1 1.00021 0.999308
0.999937 1 1.00079 0.999143
0.999264 1 1 0.999264
1.00868 1.0099 0.999955 0.998833
1.00753 1.01121 0.997374 0.998982
1.00212 1.00341 0.999716 0.999002
1.00195 1.00027 1.00289 0.998795
1.00306 1 1.00393 0.999134
0.999659 1 1 0.999659
0.999601 1 1 0.999601
0.999536 1 1 0.999536
0.99944 1 1 0.99944
0.999328 1 1 0.999328
0.999341 1 1.00017 0.999173
1.00262 1 1.00354 0.999081
0.999419 1 1 0.999419
0.999237 1 1 0.999237
1.00651 1.00753 1 0.998984
1.00746 1.00869 0.999712 0.999068
1.00351 1.00468 1 0.998831
1.00079 1 1.00178 0.999011
1.00195 1 1.00326 0.9987
0.99931 1 1 0.99931
1.01556 1.01814 0.998384 0.999083
0.999143 1 1 0.999143
1.00202 1 1.00314 0.998881
1.0051 1.00836 0.99784 0.998917
1.00203 1.00068 1.00269 0.998656
1.00916 1.01128 0.998898 0.999007
0.999224 1 1 0.999224
1.00144 1.01189 0.990641 0.999028
0.999964 1 1.00086 0.999105
1.00489 1 1.0061 0.9988
1.00111 1.00128 1.00109 0.998745
0.959385 0.966628 0.997935 0.994561
1.00106 0.997171 1.00618 0.997726
0.988667 1.00789 0.981703 0.99921
0.920745 0.939286 0.983333 0.996875
0.92043 0.956451 0.964886 0.99736
0.999373 1 1 0.999373
0.99931 1 1 0.99931
0.999289 1 1 0.999289
0.999804 1 1 0.999804
0.999629 1 1 0.999629
0.999533 1 1 0.999533
0.99943 1 1 0.99943
0.999332 1 1 0.999332
0.999528 1 1 0.999528
0.999787 1 1 0.999787
0.999631 1 1 0.999631
0.99933 1 1 0.99933
0.999451 1 1 0.999451
0.999463 1 1 0.999463
0.999377 1 1 0.999377
0.999502 1 1 0.999502
0.999611 1 1 0.999611
0.999773 1 1 0.999773
0.999645 1 1 0.999645
0.999546 1 1 0.999546
0.999636 1 1 0.999636
0.999648 1 1 0.999648
0.999798 1 1 0.999798
0.999775 1 1 0.999775
0.999984 1 1 0.999984
0.999985 1 1 0.999985
1 1 1 1
0.999986 1 1 0.999986
1 1 1 1
1 1 1 1
1 1 1 1
1 1 1 1
1 1 1 1
0.999999 1 1 0.999999
0.999997 1 1 0.999997
1 1 1 1
0.999991 1 1 0.999991
1 1 1 1
1 1 1 1
1 1 1 1
1 1 1 1
1 1 1 1
1.00604 1.00719 1 0.998858
1.00616 1.0074 1 0.998769
1.00547 1.00649 1 0.998993
1.01112 1.01557 0.996533 0.999086
1.00603 1.00714 1 0.998895
1.01929 1.02106 0.999168 0.9991
1.0185 1.01979 0.999916 0.998816
0.978005 0.984914 0.995731 0.997243
1.0165 1.0185 0.998835 0.999204
0.999876 1 1 0.999876
0.999868 1 1 0.999868
0.999706 1 1 0.999706
0.999724 1 1 0.999724
1.00609 1.00729 1 0.998812
1.00816 1.00931 1 0.998859
1.00421 1.00562 0.999481 0.999117
0.999248 1 1 0.999248
1.00332 1 1.00462 0.998702
1.00023 1.00119 1.00013 0.998912
0.999695 1 1.00041 0.999281
1.00002 1 1.00086 0.999166
0.999277 1 1 0.999277
0.999797 1 1 0.999797
0.999415 1 1 0.999415
0.999588 1 1 0.999588
0.999856 1 1 0.999856
0.999634 1 1 0.999634
1.00726 1.00841 1 0.998851
0.999683 1 1 0.999683
0.999614 1 1 0.999614
0.999532 1 1 0.999532
1.00893 1.01166 0.998305 0.998991
1.00081 1.00227 0.999541 0.999
1.00274 1 1.00361 0.999132
1.00168 1.00031 1.00259 0.998782
0.999444 1 1 0.999444
0.999334 1 1 0.999334
1.00163 1 1.00255 0.999081
0.999663 1 1.00051 0.999156
1.01701 1.01827 0.999887 0.998877
1.0046 1.00954 0.996147 0.998961
1.00065 1.00118 1.00073 0.998743
1.00174 1 1.00272 0.999019
0.999491 1 1 0.999491
0.999476 1 1 0.999476
0.999288 1 1 0.999288
1.00304 1 1.00404 0.999007
0.949812 0.964339 0.99045 0.994434
0.999323 1 1 0.999323
0.999148 1 1 0.999148
1.01497 1.01813 0.997803 0.999088
1.00638 1.00888 0.99857 0.998954
1.00246 1.00051 1.0033 0.99865
1.00219 1 1.00331 0.998888
1.01033 1.01254 0.998888 0.998923
0.999233 1 1 0.999233
1.00097 1.01166 0.990409 0.999016
0.999679 1 1.00057 0.999108
1.00468 1 1.00589 0.998804
1.00071 1.00165 1.00031 0.998756
0.95696 0.965976 0.995846 0.994799
0.995881 0.994626 1.00442 0.99686
0.991755 1.00845 0.984182 0.999254
0.927915 0.942115 0.988388 0.996499
0.911323 0.950096 0.961915 0.997168
0.999257 1 1 0.999255
0.929364 0.941901 0.990541 0.996112
0.938541 0.958104 0.981943 0.997594
0.978197 1.00268 0.976532 0.999032
1.00302 1 1.00391 0.999106
1.00889 1 1.00999 0.998904
0.991419 1.00676 0.985439 0.999314
0.968854 0.971211 1.00331 0.994281
0.999751 0.995761 1.00738 0.996648
0.918653 0.945148 0.975122 0.996764
0.952117 0.983335 0.970041 0.998157
0.999315 1 1 0.999315
0.99929 1 1 0.99929
0.999315 1 1 0.999315
0.999799 1 1 0.999799
0.999641 1 1 0.999641
0.999515 1 1 0.999515
0.999447 1 1 0.999447
0.999336 1 1 0.999336
0.999773 1 1 0.999773
0.999465 1 1 0.999465
0.999517 1 1 0.999517
0.999625 1 1 0.999625
0.999366 1 1 0.999366
0.999418 1 1 0.999418
0.999543 1 1.0002 0.999346
0.999516 1 1 0.999516
0.999636 1 1 0.999636
0.999645 1 1 0.999645
0.999532 1 1 0.999532
0.999528 1 1 0.999528
0.999518 1 1 0.999518
0.999462 1 1 0.999462
0.999437 1 1 0.999437
0.999613 1 1 0.999613
0.999636 1 1 0.999636
0.999793 1 1 0.999793
0.999629 1 1 0.999629
0.999788 1 1 0.999788
0.999983 1 1 0.999983
0.999775 1 1 0.999775
0.999984 1 1 0.999984
1 1 1 1
0.999985 1 1 0.999985
1 1 1 1
1 1 1 1
1 1 1 1
1 1 1 1
1 1 1 1
0.999872 1 1 0.999872
0.999999 1 1 0.999999
0.999999 1 1 0.999999
1 1 1 1
0.999997 1 1 0.999997
1 1 1 1
1 1 1 1
1 1 1 1
1 1 1 1
1 1 1 1
1.01247 1.01585 0.997566 0.999102
1.00582 1.00694 1 0.998893
1.02004 1.02172 0.999301 0.999059
0.980095 0.98446 0.997795 0.997767
1.01636 1.01823 0.998931 0.999229
1.01942 1.02094 0.999701 0.998803
1.02053 1.02087 1.00072 0.998943
0.983802 0.986526 0.99946 0.997777
0.957971 0.967148 0.996786 0.993706
0.911596 0.937349 0.976647 0.995781
0.912821 0.947166 0.966332 0.997318
0.999699 1 1 0.999699
0.999875 1 1 0.999875
0.999868 1 1 0.999868
0.999699 1 1 0.999699
0.999595 1 1 0.999595
0.99962 1 1 0.99962
0.999707 1 1 0.999707
0.999714 1 1 0.999714
1.00566 1.00677 1.00003 0.998868
1.01075 1.01264 0.999126 0.999
0.999913 1.0016 0.999317 0.998997
1.0027 1 1.00357 0.99913
1.00174 1.00025 1.00272 0.998769
1.0007 1 1.00162 0.999082
0.999987 1 1.00085 0.999138
0.99934 1 1 0.99934
0.999627 1 1 0.999627
0.999447 1 1 0.999447
0.999707 1 1 0.999707
0.999528 1 1 0.999528
1.01733 1.01909 0.99942 0.998853
0.999503 1 1 0.999503
0.999476 1 1 0.999476
1.00418 1.00864 0.996612 0.998956
1.00058 1.00139 1.0004 0.998792
1.0028 1 1.00382 0.998985
0.999281 1 1 0.999281
1.00291 1 1.00391 0.99901
1.00958 1.01884 0.992089 0.998805
0.99515 1.00178 0.994507 0.998873
0.999924 1 1.00103 0.998894
1.00543 1 1.00643 0.999008
0.999418 1 1 0.999418
0.999335 1 1 0.999335
0.999679 1 1.00054 0.999136
0.921098 0.94239 0.980855 0.996484
0.956236 0.966085 0.995033 0.994746
0.999242 1 1 0.999242
0.999478 1 1.00037 0.999112
1.00124 1.01192 0.990437 0.999004
1.00022 1.00205 0.999411 0.998767
1.00437 1 1.00557 0.998807
0.958683 0.96728 0.997489 0.993608
0.995896 0.995506 1.00282 0.997578
0.995149 1.00922 0.986751 0.999296
0.922393 0.942951 0.982093 0.996034
0.901388 0.942864 0.95891 0.996976
0.999287 1 1.00003 0.999254
0.924236 0.945129 0.981246 0.996584
0.940918 0.956686 0.985911 0.997573
0.98045 1.00305 0.978426 0.999022
1.00248 1 1.00337 0.999113
1.00808 1 1.00916 0.998926
0.985043 1.00406 0.981728 0.999317
0.969617 0.972317 1.00333 0.993917
0.996973 0.993587 1.00591 0.99751
0.920524 0.944437 0.978674 0.995919
0.950849 0.982794 0.969424 0.99801
0.999417 1 1.00015 0.999267
0.952744 0.9574 0.997027 0.998104
1.00056 1.00194 0.999647 0.99897
0.986617 1 0.987361 0.999246
1.00788 1 1.00859 0.999299
1.00567 1.00054 1.0055 0.999633
0.990301 0.991076 1.00087 0.998345
0.974023 0.972226 1.00782 0.99407
0.938156 0.965976 0.9752 0.9959
0.974044 1.00316 0.972315 0.998626
0.99929 1 1 0.99929
0.999302 1 1 0.999302
0.999779 1 1.00042 0.999358
0.999773 1 1 0.999773
0.999638 1 1 0.999638
0.999532 1 1 0.999532
0.999466 1 1 0.999466
0.999355 1 1 0.999355
0.999636 1 1 0.999636
0.999428 1 1 0.999428
0.999515 1 1 0.999515
0.999591 1 1.00024 0.999346
0.999918 1 1.00055 0.999364
0.999497 1 1.00009 0.99941
0.999519 1 1 0.999519
0.999644 1 1 0.999644
0.999517 1 1 0.999517
0.999528 1 1 0.999528
0.999517 1 1 0.999517
0.999459 1 1 0.999459
0.999485 1 1 0.999485
0.999452 1 1 0.999452
0.999416 1 1 0.999416
0.999328 1 1 0.999328
0.999418 1 1.00014 0.999274
0.999389 1 1 0.999389
0.999437 1 1 0.999437
0.999578 1 1 0.999578
0.999612 1 1 0.999612
0.99978 1 1 0.99978
0.999636 1 1 0.999636
0.999793 1 1 0.999793
0.999981 1 1 0.999981
0.999777 1 1 0.999777
0.999983 1 1 0.999983
1 1 1 1
0.999984 1 1 0.999984
1 1 1 1
1 1 1 1
1 1 1 1
1 1 1 1
1 1 1 1
0.999884 1 1 0.999884
0.999999 1 1 0.999999
0.999872 1 1 0.999872
1 1 1 1
0.999999 1 1 0.999999
0.999998 1 1 0.999998
1 1 1 1
1 1 1 1
1 1 1 1
1 1 1 1
1 1 1 1
0.922751 0.941221 0.983536 0.996787
0.944716 0.958613 0.987575 0.997902
0.983002 0.98512 0.999692 0.998157
1.01644 1.01793 0.999284 0.999254
1.02036 1.0221 0.999503 0.998789
0.98355 0.985026 0.999837 0.998665
1.02009 1.02068 1.00047 0.99895
0.960629 0.969068 0.996591 0.994683
0.92157 0.939472 0.984162 0.99673
0.90604 0.94482 0.961717 0.997129
1.0002 0.999275 1.00184 0.99908
0.96755 0.970613 1.00228 0.994577
0.91365 0.942288 0.972797 0.996722
0.950823 0.980536 0.971841 0.997795
0.999555 1 1 0.999555
0.999709 1 1 0.999709
0.999875 1 1 0.999875
0.999692 1 1 0.999692
0.999608 1 1 0.999608
0.999574 1 1 0.999574
0.999621 1 1 0.999621
0.999644 1 1 0.999644
0.999694 1 1 0.999694
0.999704 1 1 0.999704
1.0176 1.01979 0.999025 0.99883
1.00279 1.0068 0.997063 0.998951
1.00046 1.00149 1.00013 0.998841
1.0036 1 1.00466 0.998951
1.00267 1 1.00366 0.999014
0.999274 1 1 0.999274
0.999475 1 1 0.999475
0.999514 1 1 0.999514
1.01059 1.01893 0.993027 0.998778
0.999412 1 1 0.999412
0.99932 1 1 0.99932
0.996189 1.00176 0.995593 0.998838
1.00027 1 1.00133 0.998935
1.00426 1 1.00529 0.998978
1.00072 1 1.00159 0.999129
1.0099 1.01107 1.00004 0.998798
0.999162 1 1.00003 0.999135
1.00479 1 1.00574 0.99905
0.9994 1 1 0.9994
0.999308 1 1 0.999308
0.999187 1 1 0.999187
0.954285 0.961359 0.994508 0.998123
0.924649 0.942233 0.985354 0.995924
0.953479 0.966403 0.992178 0.994404
0.999253 1 1 0.999253
1.002 1 1.00288 0.99912
0.982815 1.00331 0.980537 0.999013
1.00744 1 1.0085 0.998948
0.922286 0.944719 0.980301 0.995872
0.968216 0.971523 1.00144 0.995165
0.997729 0.995397 1.00566 0.996699
0.982214 1.00164 0.981269 0.999326
0.92365 0.943311 0.982278 0.996823
0.942082 0.958234 0.985627 0.99748
0.946062 0.980561 0.966929 0.997816
0.999531 1 1.00027 0.999266
0.950508 0.958624 0.993481 0.99804
1.00006 1.00123 0.999855 0.998975
0.989642 1 0.990377 0.999258
1.00792 1 1.00863 0.9993
1.00587 1.00148 1.00513 0.999247
0.991471 0.990974 1.0034 0.997114
0.971936 0.97331 1.00462 0.993991
0.940339 0.968042 0.974299 0.997006
0.968113 0.997338 0.972218 0.998436
1.00001 1 1.00051 0.999507
1.00421 1.00515 0.999791 0.99927
1.01528 1.01256 1.00323 0.999454
1.00788 0.99972 1.00845 0.999715
0.995413 0.99044 1.00585 0.999177
0.975764 0.976427 1.00547 0.99388
0.966295 0.983146 0.985601 0.99722
0.973525 1.00553 0.969726 0.998392
0.99929 1 1 0.99929
0.999728 1 1.00036 0.999373
1.00075 1 1.0013 0.999451
0.999636 1 1 0.999636
0.999515 1 1 0.999515
0.999439 1 1 0.999439
0.999628 1 1.00028 0.999347
0.999519 1 1 0.999519
0.999441 1 1.00003 0.99941
1.0003 1 1.00093 0.999372
1.00031 1 1.00086 0.999456
0.99958 1 1.00021 0.999367
0.999441 1 1 0.999441
0.999528 1 1 0.999528
0.999517 1 1 0.999517
0.999456 1 1 0.999456
0.999454 1 1 0.999454
0.999484 1 1 0.999484
0.999421 1 1 0.999421
0.999382 1 1 0.999382
0.999395 1 1 0.999395
0.999302 1 1 0.999302
0.999334 1 1 0.999334
0.999415 1 1.00014 0.99927
0.99925 1 1.00008 0.999168
0.999392 1 1 0.999392
0.999393 1 1.00008 0.999313
0.999405 1 1 0.999405
0.999517 1 1 0.999517
0.999436 1 1 0.999436
0.999578 1 1 0.999578
0.999757 1 1 0.999757
0.999611 1 1 0.999611
0.99978 1 1 0.99978
0.999978 1 1 0.999978
0.999793 1 1 0.999793
0.999981 1 1 0.999981
1 1 1 1
0.999982 1 1 0.999982
1 1 1 1
1 1 1 1
1 1 1 1
1 1 1 1
1 1 1 1
0.999831 1 1 0.999831
0.999998 1 1 0.999998
0.99986 1 1 0.99986
1 1 1 1
0.999999 1 1 0.999999
0.999871 1 1 0.999871
1 1 1 1
1 1 1 1
0.999999 1 1 0.999999
1 1 1 1
1 1 1 1
1 1 1 1
0.955965 0.960582 0.996893 0.998296
0.923296 0.941684 0.984145 0.996268
0.999177 1.00251 0.997758 0.998919
0.940078 0.955788 0.98574 0.997792
0.979537 0.983685 0.9982 0.997579
1.01924 1.02051 0.999798 0.998957
0.961106 0.968911 0.996251 0.995677
0.918974 0.941002 0.980646 0.995865
0.899236 0.942532 0.956993 0.996939
0.997653 0.999515 0.99948 0.998658
0.968201 0.969837 1.0041 0.994239
0.916928 0.946009 0.973314 0.995834
0.948962 0.979836 0.970674 0.997751
0.996822 0.999326 0.998756 0.998737
0.970408 0.970412 1.00603 0.994001
0.942381 0.96947 0.97504 0.996942
0.973143 1.0032 0.971538 0.998459
0.999469 1 1 0.999469
0.999569 1 1 0.999569
0.999718 1 1 0.999718
0.999621 1 1 0.999621
0.999491 1 1 0.999491
0.999585 1 1 0.999585
0.999622 1 1 0.999622
0.999627 1 1 0.999627
0.999658 1 1 0.999658
0.999681 1 1 0.999681
1.01237 1.01981 0.993949 0.998751
0.997706 1.00218 0.996727 0.998803
1.00056 1 1.00159 0.998975
1.00337 1 1.00443 0.998948
1.00183 1 1.00271 0.999121
0.999304 1 1 0.999304
0.999406 1 1 0.999406
0.999401 1 1 0.999401
1.00528 1.00962 0.996886 0.998818
0.999317 1 1 0.999317
0.999276 1 1.00009 0.999185
0.997874 1 0.998782 0.999091
1.00416 1 1.00511 0.99905
0.996144 1.00582 0.991247 0.999128
1.01229 1 1.01296 0.999341
0.999933 1 1.00078 0.999153
0.999329 1 1 0.999329
0.999196 1 1 0.999196
1.00669 1.00753 0.999768 0.9994
0.955755 0.960838 0.996449 0.998255
0.924221 0.942843 0.98343 0.996765
0.99958 1 1.00032 0.999264
1.00779 1 1.00849 0.999302
0.991089 1 0.991814 0.99927
0.955976 0.960447 0.997084 0.998255
0.972471 0.971409 1.00727 0.993869
0.993726 0.992397 1.00328 0.998067
1.0007 1.00149 1.00038 0.998837
0.939291 0.96549 0.976871 0.995899
0.998924 0.999885 1.00006 0.99898
0.963617 0.993612 0.971299 0.998469
1.00028 1 1.00077 0.99952
1.00242 1.00309 0.999936 0.99939
1.01723 1.01414 1.00359 0.999463
1.0075 0.999652 1.00826 0.999596
0.994967 0.99169 1.0045 0.998814
0.979964 0.978671 1.00762 0.993752
0.975439 1.00932 0.967816 0.998573
0.951656 0.97554 0.978787 0.996659
1.00066 0.999646 1.00131 0.999711
1.01759 1.01742 1.00033 0.999835
1.0242 1.02013 1.00446 0.999532
0.974838 1.00322 0.973209 0.998463
1.0028 0.990978 1.0122 0.99973
0.979124 0.978253 1.00668 0.994248
0.946008 0.964527 0.983674 0.997078
0.999655 1 1.00027 0.999388
1.00051 1 1.00109 0.999414
1.00312 1 1.00355 0.999566
0.999519 1 1 0.999519
0.999409 1 1 0.999409
1.00075 1 1.00138 0.999379
0.999443 1 1 0.999443
0.999691 1 1.00033 0.999366
1.00069 1 1.00126 0.999429
0.999852 1 1.00035 0.999498
0.999374 1 1 0.999374
0.999455 1 1 0.999455
0.999484 1 1 0.999484
0.999425 1 1 0.999425
0.999395 1 1 0.999395
0.999387 1 1 0.999387
0.999367 1 1 0.999367
0.999328 1 1 0.999328
1.00106 1 1.00194 0.99912
0.99934 1 1 0.99934
0.999391 1 1.00013 0.999265
0.999388 1 1.00034 0.999051
0.999229 1 1.00006 0.999165
0.999349 1 1 0.999349
0.99933 1 1.00016 0.999171
0.999492 1 1 0.999492
0.99938 1 1 0.99938
0.999352 1 1 0.999352
0.999422 1 1 0.999422
0.999531 1 1 0.999531
0.999723 1 1 0.999723
0.999577 1 1 0.999577
0.999757 1 1 0.999757
0.999972 1 1 0.999972
0.999779 1 1 0.999779
0.999977 1 1 0.999977
1 1 1 1
0.99998 1 1 0.99998
1 1 1 1
1 1 1 1
1 1 1 1
1 1 1 1
1 1 1 1
0.999758 1 1 0.999758
0.999964 1 1 0.999964
0.999829 1 1 0.999829
1 1 1 1
0.999985 1 1 0.999985
0.999836 1 1 0.999836
1 1 1 1
1 1 1 1
0.999999 1 1 0.999999
1 1 1 1
1 1 1 1
1 1 1 1
1.00357 1.00458 0.999662 0.999338
0.949418 0.959802 0.991142 0.998021
0.925816 0.941421 0.987373 0.996001
0.999578 1 1 0.999578
1.01426 1.01185 1.00282 0.999556
1.00076 1.00263 0.999212 0.998924
0.933771 0.955178 0.979942 0.997598
0.995764 0.999958 0.997604 0.998198
0.970338 0.971524 1.0043 0.9945
0.921139 0.949904 0.972894 0.996736
0.944213 0.977643 0.968103 0.997627
0.999516 1.00234 0.999609 0.997576
0.968258 0.969732 1.00432 0.994182
0.943624 0.968907 0.977293 0.996535
0.971845 1.00247 0.971098 0.998299
0.99246 0.993088 1.00238 0.996995
0.975174 0.971542 1.0108 0.993012
0.952345 0.977362 0.978077 0.996243
0.973549 1.00625 0.969073 0.998381
0.999389 1 1 0.999389
0.999461 1 1 0.999461
0.999583 1 1 0.999583
0.999477 1 1 0.999477
0.999508 1 1 0.999508
0.999595 1 1 0.999595
0.999632 1 1 0.999632
0.999672 1 1 0.999672
1.00055 1.00784 0.993924 0.998838
0.996506 1 0.997457 0.999046
0.999402 1 1 0.999402
1.00342 1 1.00438 0.999049
0.999349 1 1.00017 0.999182
0.999327 1 1 0.999327
0.999331 1 1 0.999331
1.00023 1.0068 0.994339 0.999133
0.99921 1 1 0.99921
1.00075 1 1.0016 0.999149
1.009 1 1.00967 0.999333
0.999339 1 1 0.999339
0.99075 0.999096 0.992101 0.999543
1.01308 1 1.01363 0.999454
0.999236 1 1 0.999236
0.999275 1 1 0.999275
1.0187 1.0195 0.99935 0.999866
1.00623 1.0071 0.999723 0.999408
0.957156 0.960087 0.998555 0.99839
1.0005 1 1.00097 0.999533
1.00808 0.999579 1.00903 0.999478
1.00078 1.00128 0.999995 0.99951
0.977864 0.975115 1.0089 0.993973
0.997317 0.991887 1.00786 0.997634
0.953655 0.976893 0.97996 0.996176
1.01918 1.01569 1.00397 0.999471
0.978921 1.01412 0.966495 0.998753
1.00079 0.999575 1.00154 0.999678
1.0176 1.01781 0.999948 0.999839
1.02391 1.01998 1.00422 0.999628
1.006 0.994024 1.01212 0.999931
0.972797 1.00231 0.97221 0.998296
0.978754 0.977974 1.00648 0.994351
0.950671 0.972718 0.981169 0.996092
1.00545 0.99663 1.00908 0.999771
1.02317 1.02216 1.00111 0.99988
1.01416 1.01234 1.00224 0.999558
0.952606 0.98108 0.973107 0.997811
0.951176 0.977501 0.976772 0.996209
0.99675 0.989884 1.00695 0.999989
0.979132 0.97251 1.01301 0.99388
1.00027 1 1.00089 0.999377
1.00223 1 1.00268 0.99955
1.01029 0.998119 1.01262 0.999582
0.999445 1 1 0.999445
0.999731 1 1.00037 0.999365
1.00094 1 1.00154 0.999403
0.999372 1 1 0.999372
0.999931 1 1.00043 0.999498
1.00341 1 1.00401 0.999401
0.999394 1 1 0.999394
0.999393 1 1 0.999393
0.999607 1 1.00026 0.999349
1.00434 1 1.00518 0.99916
0.999353 1 1 0.999353
1.0005 1 1.00135 0.999153
1.0025 1 1.00357 0.998936
1.00002 1 1.00107 0.998951
0.999362 1 1.0001 0.999259
0.999368 1 1.00035 0.999023
0.999313 1 1.00008 0.999232
0.999318 1 1.00001 0.999303
0.99921 1 1.00002 0.999187
0.999468 1 1 0.999468
0.999346 1 1 0.999346
0.999417 1 1.00024 0.999175
0.999681 1 1 0.999681
0.999487 1 1 0.999487
0.999367 1 1 0.999367
0.999545 1 1 0.999545
0.999722 1 1 0.999722
0.999961 1 1 0.999961
0.999756 1 1 0.999756
0.99997 1 1 0.99997
1 1 1 1
0.999975 1 1 0.999975
1 1 1 1
1 1 1 1
1 1 1 1
1 1 1 1
1 1 1 1
0.999727 1 1 0.999727
0.999943 1 1 0.999943
0.999772 1 1 0.999772
1 1 1 1
0.999963 1 1 0.999963
0.999828 1 1 0.999828
1 1 1 1
1 1 1 1
0.999971 1 1 0.999971
1 1 1 1
1 1 1 1
1 1 1 1
1.01817 1.01833 1.00002 0.999825
1.00355 1.00451 0.999705 0.999344
0.950309 0.959798 0.992063 0.998036
0.999583 1 1 0.999583
0.999546 1 1 0.999546
0.999485 1 1 0.999485
1.02454 1.01934 1.00558 0.999528
1.01461 1.012 1.00302 0.999566
1.00199 1.00276 1.00031 0.998928
1.00557 1.00384 1.00319 0.998541
0.970452 0.97043 1.00599 0.994071
0.941128 0.966927 0.977332 0.995894
0.972273 1.00406 0.96992 0.998376
0.987626 0.988612 1.00097 0.998033
0.972041 0.971245 1.00691 0.993952
0.953131 0.974924 0.98048 0.997111
0.976296 1.00991 0.9681 0.998566
0.981239 0.984115 0.99917 0.997906
0.980954 0.974432 1.01267 0.994099
0.947398 0.965448 0.984201 0.997056
0.973375 1.00184 0.972937 0.99861
0.999372 1 1 0.999372
0.999388 1 1 0.999388
0.999453 1 1 0.999453
0.999476 1 1 0.999476
0.999526 1 1 0.999526
0.999636 1 1 0.999636
1.00405 1.00753 0.997403 0.999138
1.00545 1 1.00613 0.999326
0.999334 1 1 0.999334
1.00146 1 1.00231 0.999144
0.999224 1 1 0.999224
0.999332 1 1 0.999332
0.999275 1 1 0.999275
0.998508 1.00121 0.997768 0.999534
0.999264 1 1 0.999264
1.01116 0.998359 1.01335 0.99948
0.999331 1 1 0.999331
1.01271 0.993655 1.01943 0.999754
0.996609 0.996543 1.00044 0.99963
0.999291 1 1 0.999291
1.02282 1.02341 0.999502 0.999918
1.01878 1.0196 0.999306 0.999881
1.00577 1.00671 0.99965 0.999417
1.00085 0.99952 1.00169 0.999644
1.00035 0.994243 1.00621 0.999933
1.01759 1.01817 0.99959 0.999843
0.986572 0.981537 1.00892 0.996248
0.957733 0.974567 0.98543 0.997257
1.02345 1.01977 1.00388 0.999724
0.972765 1.0039 0.970563 0.998377
1.00463 0.997716 1.00714 0.999788
1.02333 1.02241 1.00102 0.99989
1.01465 1.01248 1.00258 0.999568
0.996537 0.987391 1.01064 0.998634
0.951136 0.980649 0.972078 0.997764
0.951527 0.975606 0.978191 0.997065
0.987663 0.977747 1.01599 0.994245
1.02052 0.995027 1.02574 0.99989
1.01858 1.01882 0.999943 0.999823
1.00048 1.00348 0.998084 0.99892
0.914325 0.94799 0.967068 0.997332
0.942426 0.968517 0.976012 0.996976
0.985687 0.977362 1.01447 0.994133
0.971661 0.982197 0.99103 0.998227
1.0012 1 1.00167 0.999534
1.01209 0.998836 1.01369 0.999586
1.0195 1 1.01998 0.999529
0.999371 1 1 0.999371
1.00005 1 1.00055 0.999497
1.00272 1 1.00331 0.999416
1.01212 1 1.01291 0.999225
0.99981 1 1.00048 0.999332
1.00425 1 1.00513 0.999124
1.00917 1 1.01032 0.998856
1.00001 1 1.00082 0.999186
1.00323 1 1.00431 0.998929
1.0034 1 1.00465 0.998758
0.999819 1 1.00103 0.998793
0.999627 1 1.0005 0.999132
1.00004 1 1.00111 0.998934
0.999395 1 1.0004 0.998995
0.999333 1 1.00002 0.999313
0.999348 1 1.00009 0.999258
0.999401 1 1 0.999401
0.999344 1 1.00003 0.999319
0.999209 1 1 0.999209
0.999634 1 1 0.999634
0.999469 1 1 0.999469
0.999343 1 1 0.999343
0.999942 1 1 0.999942
0.999682 1 1 0.999682
0.999482 1 1 0.999482
0.999721 1 1 0.999721
0.999958 1 1 0.999958
1 1 1 1
0.999967 1 1 0.999967
1 1 1 1
1 1 1 1
1 1 1 1
1 1 1 1
1 1 1 1
0.999723 1 1 0.999723
0.999961 1 1 0.999961
0.999737 1 1 0.999737
1 1 1 1
0.999961 1 1 0.999961
0.999786 1 1 0.999786
1 1 1 1
1 1 1 1
0.999962 1 1 0.999962
1 1 1 1
1 1 1 1
1 1 1 1
1.02394 1.02188 1.00214 0.999877
1.01928 1.01858 1.00086 0.999829
1.00378 1.00437 1.00006 0.999351
0.99953 1 1 0.99953
0.999459 1 1 0.999459
0.999588 1 1 0.999588
0.999544 1 1 0.999544
0.999472 1 1 0.999472
0.999462 1 1 0.999462
0.999407 1 1 0.999407
1.01499 1.01121 1.00429 0.999448
1.02364 1.01902 1.00492 0.999624
1.01525 1.01213 1.00351 0.999577
0.980148 1.0144 0.967447 0.998751
0.987555 0.989301 1.00117 0.997067
0.976675 0.974561 1.00733 0.994873
0.955033 0.970959 0.987505 0.996043
0.980732 0.984345 0.998956 0.997372
0.977455 0.973729 1.00991 0.993973
0.953244 0.974422 0.982031 0.996166
0.968766 0.997487 0.972761 0.998403
0.973297 0.97921 0.99556 0.998394
0.97417 0.975274 1.00504 0.99386
0.970634 0.98627 0.986944 0.997165
0.951154 0.982036 0.970368 0.99813
0.999371 1 1 0.999371
0.99937 1 1 0.99937
0.999387 1 1 0.999387
0.999475 1 1 0.999475
1.00589 1.00324 1.00312 0.999525
1.01 0.997051 1.01349 0.999505
0.999324 1 1 0.999324
0.999275 1 1 0.999275
0.999291 1 1 0.999291
0.99933 1 1 0.99933
0.99928 1 1 0.99928
1.00765 0.992268 1.01583 0.999676
0.998134 0.998011 1.00044 0.999686
0.999313 1 1 0.999313
1.01219 0.987821 1.02483 0.999842
1.00235 0.999012 1.00395 0.999391
1.01961 1.02 0.999753 0.999863
1.02153 1.02215 0.999468 0.999924
1.01875 1.01953 0.999332 0.999895
1.00385 0.998764 1.00529 0.999805
0.997465 0.986875 1.01079 0.999944
1.02339 1.02256 1.00091 0.999901
0.9783 0.97221 1.0124 0.993939
0.955019 0.971471 0.987003 0.99601
1.01539 1.01263 1.00315 0.999578
0.946956 0.978496 0.970049 0.997648
1.02284 0.9945 1.02863 0.999873
1.01923 1.01892 1.00048 0.999827
1.00203 1.00363 0.999474 0.998925
0.975728 0.985105 0.990906 0.999572
0.907865 0.945749 0.962689 0.997147
0.942199 0.966998 0.977718 0.996561
0.988867 0.978063 1.01669 0.994454
1.00683 0.991185 1.01598 0.999807
1.00463 1.00526 1.00004 0.999335
0.945948 0.959451 0.987979 0.997923
0.915755 0.941977 0.975355 0.996728
0.979943 0.97428 1.0118 0.994083
0.968787 0.981294 0.989715 0.997515
1.01428 0.999822 1.01487 0.99959
1.0196 0.999436 1.02066 0.999523
1.01346 1 1.01405 0.999415
1.00209 1 1.00266 0.999431
1.01259 1 1.01335 0.999255
1.00918 1 1.01029 0.998899
1.00424 1 1.00516 0.999087
1.00925 1 1.01043 0.998826
1.00421 1 1.00556 0.998654
1.00389 1 1.00498 0.998923
1.00327 1 1.00454 0.998733
1.00148 1 1.00283 0.99866
0.998759 1 1 0.998759
0.999251 1 1.0003 0.998952
1.00002 1 1.00126 0.998767
0.999252 1 1 0.999252
0.999379 1 1.00023 0.999149
0.999996 1 1.00108 0.998917
0.999353 1 1 0.999353
0.999366 1 1.00006 0.999307
0.999353 1 1.00007 0.999283
0.999568 1 1 0.999568
0.999414 1 1 0.999414
0.999348 1 1.00001 0.999335
0.999904 1 1 0.999904
0.999635 1 1 0.999635
0.99947 1 1 0.99947
1 1 1 1
0.999939 1 1 0.999939
0.999682 1 1 0.999682
0.999954 1 1 0.999954
1 1 1 1
1 1 1 1
1 1 1 1
1 1 1 1
1 1 1 1
0.999529 1 1 0.999529
0.999696 1 1 0.999696
0.99995 1 1 0.99995
0.999723 1 1 0.999723
1 1 1 1
0.999965 1 1 0.999965
0.999748 1 1 0.999748
1 1 1 1
1 1 1 1
0.999979 1 1 0.999979
1 1 1 1
1 1 1 1
1 1 1 1
1.01816 1.01684 1.00146 0.999834
1.02418 1.02225 1.002 0.999888
1.02004 1.01891 1.00128 0.999833
0.999536 1 1 0.999536
0.999449 1 1 0.999449
0.999416 1 1 0.999416
0.999446 1 1 0.999446
0.999403 1 1 0.999403
0.999541 1 1 0.999541
0.999459 1 1 0.999459
0.999463 1 1 0.999463
0.999403 1 1 0.999403
0.999409 1 1 0.999409
0.999655 1.00035 1.00036 0.998952
1.0168 1.01272 1.00458 0.999457
1.02261 1.01868 1.00414 0.999719
0.964582 0.994014 0.971907 0.99844
0.956901 0.973984 0.985158 0.997262
0.974792 0.980542 0.997282 0.996846
0.978495 0.97758 1.0069 0.994072
0.973992 0.979008 0.997629 0.997241
0.981489 0.978016 1.00958 0.994026
0.956899 0.97862 0.981088 0.996654
0.950514 0.981676 0.970215 0.997981
0.986434 0.980211 1.00871 0.997663
0.97622 0.97815 1.00384 0.994213
0.939181 0.966316 0.975936 0.995884
0.918489 0.955679 0.963668 0.99732
0.999493 1 1 0.999493
0.999372 1 1 0.999372
0.999368 1 1 0.999368
1.00267 0.990684 1.01251 0.999597
0.998702 0.998552 1.00041 0.999745
0.999328 1 1 0.999328
0.999269 1 1 0.999269
0.999356 1 1.00003 0.999322
1.00299 0.999172 1.00444 0.999386
1.01094 0.988466 1.02288 0.999851
1.00376 1 1.00435 0.999405
1.00903 0.995462 1.01406 0.999574
1.00536 1.00598 1 0.999379
1.01964 1.02005 0.999712 0.999878
1.02071 1.02139 0.999408 0.99993
1.0249 0.993935 1.03131 0.999855
0.975128 0.984655 0.992406 0.997903
1.01967 1.01908 1.00075 0.999831
0.979798 0.976074 1.01097 0.992926
0.940876 0.966054 0.977886 0.995962
1.00321 1.00381 1.00048 0.99893
0.901428 0.943768 0.958048 0.996961
1.00763 0.991951 1.01598 0.999824
1.00473 1.0054 0.999993 0.999341
0.941527 0.956836 0.986158 0.997813
0.967477 0.981996 0.987017 0.998173
0.918417 0.945966 0.974911 0.995862
0.974452 0.97344 1.00758 0.993505
0.98794 0.991944 0.996464 0.999498
0.956088 0.960435 0.997155 0.998314
0.913292 0.93779 0.97798 0.995804
0.97361 0.971753 1.00795 0.994006
0.988137 0.988802 1.00111 0.998224
1.01918 0.998793 1.02091 0.999516
1.0158 1 1.0164 0.99941
0.993686 1 0.994532 0.99915
1.01288 1 1.0136 0.999285
1.00886 1 1.00994 0.998931
1.00192 1.00046 1.00272 0.998747
1.00917 1 1.01038 0.998797
1.00372 1 1.00507 0.998659
0.998761 1 1.00003 0.998727
1.00311 1 1.00441 0.998709
1.00093 1.00006 1.0022 0.99867
0.999657 1.00087 1 0.998791
0.998908 1.00003 1 0.998879
0.998862 1 1 0.998862
0.998766 1 1 0.998766
0.999112 1 1 0.999112
0.999408 1 1.00048 0.998924
1.00027 1 1.00153 0.998741
0.999348 1 1 0.999348
0.999272 1 1 0.999272
0.999173 1 1.00001 0.999165
0.999501 1 1 0.999501
0.999357 1 1 0.999357
0.999416 1 1.00012 0.999301
0.999839 1 1 0.999839
0.999568 1 1 0.999568
0.999428 1 1 0.999428
1 1 1 1
0.999902 1 1 0.999902
0.999635 1 1 0.999635
1 1 1 1
1 1 1 1
0.999935 1 1 0.999935
1 1 1 1
1 1 1 1
1 1 1 1
0.999488 1 1 0.999488
0.999665 1 1 0.999665
0.999522 1 1 0.999522
0.99994 1 1 0.99994
0.999696 1 1 0.999696
1 1 1 1
0.999953 1 1 0.999953
0.999723 1 1 0.999723
1 1 1 1
1 1 1 1
0.999969 1 1 0.999969
1 1 1 1
1 1 1 1
1 1 1 1
1.00443 1.00496 1 0.999482
1.01842 1.01742 1.00115 0.999837
1.02429 1.02247 1.00188 0.999899
0.999415 1 1 0.999415
0.999542 1 1 0.999542
0.99944 1 1 0.99944
0.999456 1 1 0.999456
0.999425 1 1 0.999425
0.999401 1 1 0.999401
0.999366 1 1 0.999366
0.999386 1 1 0.999386
0.999463 1 1 0.999463
0.999398 1 1 0.999398
0.999406 1 1 0.999406
0.999403 1 1 0.999403
0.939619 0.957877 0.983335 0.997563
0.999127 0.9996 1.00057 0.998956
1.0185 1.01411 1.00487 0.999466
0.94651 0.98033 0.967665 0.997765
0.960431 0.981135 0.982596 0.996237
0.973429 0.974921 1.00461 0.993885
0.975638 0.977209 1.00005 0.998343
0.986483 0.979451 1.00839 0.998798
0.910273 0.949128 0.961812 0.997142
0.981046 0.976969 1.01074 0.993501
0.937452 0.965613 0.973851 0.996904
0.985338 0.98657 0.999861 0.99889
0.975118 0.973087 1.00769 0.994441
0.914573 0.941847 0.97427 0.996687
1.00007 1 1.00041 0.999664
0.999495 1 1 0.999495
0.999372 1 1 0.999372
1.01157 0.991139 1.02076 0.999855
1.00444 1 1.00506 0.999381
0.999383 1 1.00005 0.999332
1.00405 1 1.00465 0.999409
1.00808 0.996033 1.01251 0.999592
1.00776 0.998751 1.00939 0.999635
0.954809 0.961049 0.995601 0.997898
1.00614 1.00664 0.999986 0.999509
1.01955 1.01993 0.999735 0.999894
1.00808 0.992405 1.01596 0.999842
0.969041 0.98423 0.985894 0.998654
1.00499 1.00548 1.00017 0.999348
0.977177 0.975216 1.00706 0.994983
0.92283 0.949697 0.974875 0.996753
0.93486 0.956187 0.980027 0.997621
0.986988 0.992305 0.995109 0.99953
0.949605 0.959697 0.991427 0.99804
0.923051 0.939035 0.986167 0.996767
0.986789 0.985564 1.00413 0.997128
0.973133 0.973106 1.00592 0.994146
0.977391 0.998827 0.979065 0.999462
0.923842 0.942074 0.983778 0.996816
0.971276 0.971862 1.00502 0.994402
0.996785 0.996366 1.00348 0.996954
1.01903 1 1.01964 0.999405
0.990163 1 0.990979 0.999177
0.982321 1.00072 0.982541 0.999056
1.00876 1 1.00981 0.998964
1.00187 1.00064 1.00249 0.998748
0.999554 1.00119 0.999428 0.998938
1.00334 1 1.00468 0.998664
0.999161 1.00005 1.00037 0.99874
1.00198 1.00299 1 0.99899
1.00041 1.00012 1.00161 0.99868
0.999449 1.00065 1 0.998797
1.00006 1.00103 1 0.999028
0.999137 1.00007 1 0.999066
0.998914 1 1 0.998914
0.998933 1.00004 1 0.998898
0.999005 1 1 0.999005
0.998881 1 1 0.998881
0.998774 1 1 0.998774
0.999281 1 1 0.999281
0.999112 1 1 0.999112
0.999528 1 1.00063 0.998895
0.999463 1 1 0.999463
0.999346 1 1 0.999346
0.999292 1 1 0.999292
0.999762 1 1 0.999762
0.999502 1 1 0.999502
0.999366 1 1 0.999362
1 1 1 1
0.999838 1 1 0.999838
0.999568 1 1 0.999568
1 1 1 1
1 1 1 1
0.999899 1 1 0.999899
1 1 1 1
1 1 1 1
1 1 1 1
0.999485 1 1 0.999485
0.999491 1 1 0.999491
0.999628 1 1 0.999628
0.999925 1 1 0.999925
0.999665 1 1 0.999665
0.999514 1 1 0.999514
1 1 1 1
0.999942 1 1 0.999942
0.999696 1 1 0.999696
1 1 1 1
1 1 1 1
0.999956 1 1 0.999956
1 1 1 1
1 1 1 1
1 1 1 1
0.954761 0.959346 0.997103 0.998112
1.0034 1.00391 1 0.999491
1.01873 1.01803 1.00084 0.999841
0.999407 1 1 0.999407
0.999404 1 1 0.999404
0.999369 1 1 0.999369
0.999465 1 1 0.999465
0.999434 1 1 0.999434
0.999398 1 1 0.999398
0.999386 1 1 0.999386
0.999366 1 1 0.999366
0.999319 1 1 0.999319
0.999398 1 1 0.999398
0.999404 1 1 0.999404
0.999405 1 1 0.999405
0.920974 0.939652 0.983285 0.996784
0.940424 0.956294 0.985818 0.997552
0.99836 0.998585 1.00082 0.99896
0.90225 0.942731 0.959974 0.996964
0.936604 0.963086 0.976525 0.995881
0.989618 0.982416 1.01215 0.995235
0.991128 0.979001 1.01485 0.997577
0.984414 0.984899 1.00179 0.997718
0.917182 0.942651 0.977033 0.995854
0.977622 0.974818 1.00817 0.994751
0.988647 0.986392 1.00443 0.997871
0.975308 0.974745 1.00635 0.994261
1.00757 1 1.00819 0.999393
0.99992 1 1.00027 0.999653
0.999497 1 1 0.999497
1.00495 0.994503 1.0109 0.999609
1.00435 1 1.00494 0.999413
1.00788 0.99913 1.00918 0.99958
1.00134 1.00067 1.00146 0.999209
0.920983 0.943333 0.979717 0.99652
0.955123 0.959756 0.997026 0.998142
1.00698 1.00743 0.999918 0.999639
0.984925 0.992333 0.992964 0.999567
0.987407 0.985806 1.00358 0.998052
0.950589 0.959771 0.992365 0.998053
0.975589 0.972562 1.00911 0.994059
0.919891 0.940552 0.982077 0.995883
0.980939 0.999432 0.982114 0.999372
0.92398 0.941908 0.984638 0.996272
0.97136 0.971204 1.00604 0.994154
0.996411 0.992242 1.00626 0.997953
0.998914 1.00555 0.994164 0.999234
0.958869 0.967902 0.997033 0.993615
0.995461 0.997248 0.999823 0.998384
0.986633 1 0.987419 0.999204
0.984098 1.00079 0.984264 0.999039
0.985844 1.00188 0.984925 0.999057
1.00153 1.00076 1.00203 0.998749
0.999408 1.00159 0.998885 0.998933
1.00329 1.00609 0.997988 0.999236
0.999589 1.00012 1.00071 0.998754
1.00238 1.0034 1 0.99899
1.00423 1.00503 1 0.999212
0.99926 1.00046 1 0.998803
0.999995 1.00097 1 0.999028
0.999883 1.0007 1 0.99918
0.999155 1 1 0.999155
0.999101 1.00001 1 0.999087
0.999049 1 1 0.999049
0.998994 1 1 0.998994
0.998917 1 1 0.998917
0.998916 1 1 0.998916
0.99915 1 1 0.99915
0.999027 1 1 0.999027
0.998901 1 1 0.998901
0.999419 1 1 0.999419
0.999278 1 1 0.999278
0.999112 1 1 0.999112
0.999701 1 1 0.999701
0.999464 1 1 0.999464
0.999344 1 1 0.999344
1 1 1 1
0.999762 1 1 0.999762
0.999504 1 1 0.999504
1 1 1 1
1 1 1 1
0.999836 1 1 0.999836
1 1 1 1
1 1 1 1
1 1 1 1
0.999453 1 1 0.999453
0.999474 1 1 0.999474
0.999592 1 1 0.999592
0.999494 1 1 0.999494
0.999628 1 1 0.999628
0.999896 1 1 0.999896
1 1 1 1
0.999927 1 1 0.999927
0.999665 1 1 0.999665
1 1 1 1
1 1 1 1
0.999944 1 1 0.999944
1 1 1 1
1 1 1 1
1 1 1 1
0.930434 0.942583 0.99095 0.996126
0.952368 0.959687 0.994429 0.997934
1.00218 1.00268 1 0.999501
0.999399 1 1 0.999399
0.99936 1 1 0.99936
0.999412 1 1 0.999412
0.999383 1 1 0.999383
0.999354 1 1 0.999354
0.999386 1 1 0.999386
0.999366 1 1 0.999366
0.999324 1 1 0.999324
0.999319 1 1 0.999319
0.999319 1 1 0.999319
0.999377 1 1.00026 0.99912
0.999401 1 1 0.999401
0.999407 1 1 0.999407
0.970537 0.97684 1.00009 0.993461
0.926804 0.94172 0.987704 0.996412
0.94094 0.956775 0.985965 0.997449
0.917962 0.942278 0.977373 0.996749
0.976943 0.972915 1.01104 0.99318
0.98627 0.984958 1.0024 0.998938
0.991369 0.989508 1.00339 0.998494
0.974791 0.976139 1.00416 0.994478
0.990284 0.99831 0.994196 0.997751
1.00582 1.00132 1.0057 0.998802
1.00604 1 1.00666 0.99938
0.999642 1 1 0.999642
1.00757 1 1.00804 0.999528
1.00039 1.00101 1.00017 0.999214
0.951224 0.966543 0.989662 0.994432
0.925267 0.943337 0.98479 0.995994
0.956038 0.958541 0.999 0.998388
0.984784 1.00052 0.984986 0.999278
0.997844 0.993117 1.0078 0.99698
0.926693 0.94174 0.987988 0.995986
0.973158 0.971796 1.00707 0.994374
0.995203 1.00624 0.989801 0.99922
0.961505 0.969418 0.997256 0.994568
0.997718 0.999388 1.00097 0.997359
1.00521 1.0084 0.997913 0.998915
0.997053 0.996402 1.00173 0.998926
0.985064 1.00088 0.985157 0.999022
0.988567 1.00169 0.987858 0.999029
1.00507 1.01292 0.993162 0.999086
0.999418 1.00194 0.998556 0.998929
1.00216 1.00481 0.998123 0.999229
1.00782 1.01026 0.998313 0.999276
1.00276 1.00378 1 0.998989
1.00427 1.00509 0.999994 0.999199
1.00281 1.00361 0.999987 0.999214
0.999927 1.0009 1 0.999027
0.999783 1.00061 1 0.999171
0.99955 1.00039 1 0.999157
0.99918 1 1 0.99918
0.999096 1 1 0.999096
0.999107 1 1 0.999107
0.999044 1 1 0.999044
0.999035 1 1 0.999035
0.999081 1 1 0.999081
0.99899 1 1 0.99899
0.99892 1 1 0.99892
0.999338 1 1 0.999338
0.999165 1 1 0.999165
0.999049 1 1 0.999049
0.999657 1 1 0.999657
0.999417 1 1 0.999417
0.999275 1 1 0.999275
0.999992 1 1 0.999992
0.999702 1 1 0.999702
0.999465 1 1 0.999465
1 1 1 1
0.999998 1 1 0.999998
0.999761 1 1 0.999761
1 1 1 1
1 1 1 1
1 1 1 1
0.999405 1 1 0.999405
0.999454 1 1 0.999454
0.999535 1 1 0.999535
0.999463 1 1 0.999463
0.99958 1 1 0.99958
0.999845 1 1 0.999845
0.999628 1 1 0.999628
0.999897 1 1 0.999897
1 1 1 1
1 1 1 1
1 1 1 1
0.999928 1 1 0.999928
1 1 1 1
1 1 1 1
1 1 1 1
0.965402 0.972037 0.998697 0.99447
0.925748 0.945694 0.982193 0.996655
0.955994 0.960438 0.997341 0.998028
0.999351 1 1 0.999351
0.999421 1 1 0.999421
0.999359 1 1 0.999359
0.999384 1 1 0.999384
0.999322 1 1 0.999322
0.999362 1 1 0.999362
0.999329 1 1 0.999329
0.999295 1 1 0.999295
0.99931 1 1 0.99931
0.999256 1 1 0.999256
0.999356 1.00021 1 0.99915
0.998925 1.0001 1.00011 0.998707
0.999196 1 1.00006 0.999139
0.999403 1 1 0.999403
0.988309 0.994079 0.996212 0.997976
0.969013 0.973817 1.00083 0.994244
0.920317 0.942105 0.980926 0.995868
0.974391 0.97428 1.00601 0.994136
0.986664 0.988856 0.998704 0.999078
0.992444 0.997044 0.996613 0.998769
0.99689 1.00479 0.993173 0.99896
1.00293 1.00067 1.00337 0.998886
1.00499 1 1.00563 0.999367
0.998266 1.00112 0.997932 0.999215
0.984149 0.986386 1.00009 0.997638
0.958512 0.96795 0.995489 0.994737
0.923547 0.94328 0.982207 0.996817
0.993431 1.00681 0.987498 0.999205
1.00365 1.00095 1.00453 0.998173
0.96193 0.969173 0.996957 0.995556
0.999827 1.00677 0.994162 0.998935
0.994674 0.996469 0.999687 0.99851
1.00697 1.01757 0.990701 0.998879
1.01284 1.01318 1.00083 0.998842
0.991576 1.00154 0.991037 0.999002
1.00537 1.01255 0.993814 0.999084
1.01097 1.01475 0.997205 0.99907
1.0011 1.0037 0.99819 0.999221
1.00818 1.01029 0.998643 0.999268
1.00547 1.00683 0.999561 0.999086
1.00429 1.00511 1 0.999186
1.00215 1.00295 1 0.999204
1.00043 1.00139 1 0.999042
0.999658 1.0005 1 0.999161
0.999427 1.00026 1 0.999168
0.999043 1 1 0.999043
0.999206 1 1 0.999206
0.999109 1 1 0.999109
0.999034 1 1 0.999034
0.99904 1 1 0.99904
0.999031 1 1 0.999031
0.999082 1 1 0.999082
0.999238 1 1 0.999238
0.999095 1 1 0.999095
0.998986 1 1 0.998986
0.999596 1 1 0.999596
0.999337 1 1 0.999337
0.99918 1 1 0.99918
0.999974 1 1 0.999974
0.999656 1 1 0.999656
0.999415 1 1 0.999415
1 1 1 1
0.999987 1 1 0.999987
0.999703 1 1 0.999703
1 1 1 1
0.999996 1 1 0.999996
1 1 1 1
0.999352 1 1 0.999352
0.999413 1 1 0.999413
0.999493 1 1 0.999493
0.999455 1 1 0.999455
0.999529 1 1 0.999529
0.999779 1 1 0.999779
0.999568 1 1 0.999568
0.999845 1 1 0.999845
1 1 1 1
0.999898 1 1 0.999898
1 1 1 1
1 1 1 1
1 1 1 1
1 1 1 1
1 1 1 1
0.981677 0.986272 0.997357 0.997978
0.958643 0.968948 0.994968 0.994368
0.923829 0.945974 0.980611 0.9959
0.999224 1 1 0.999224
0.999364 1 1 0.999364
0.999385 1 1 0.999385
0.999359 1 1 0.999359
0.999317 1 1 0.999317
0.999389 1 1 0.999389
0.999272 1 1 0.999272
0.9993 1 1 0.9993
0.999279 1 1 0.999279
0.99926 1.00008 1 0.999178
0.999097 1.00025 1 0.998848
1.00361 1.00519 1 0.998427
0.998911 1.00008 1.00013 0.998705
0.999159 1 1 0.999159
1.00045 1.00558 0.99573 0.999165
0.989366 0.995397 0.996415 0.997517
0.971711 0.975398 1.0011 0.995126
0.994248 0.997813 0.998583 0.997841
1.00166 1.00633 0.996391 0.998963
1.00147 1.00019 1.00231 0.998972
1.00438 1.00529 1.00002 0.999074
0.98519 0.985341 1.00141 0.998443
0.95622 0.968179 0.993141 0.994468
0.993404 1.00501 0.989486 0.998953
0.993096 0.996283 0.998752 0.998046
1.00824 1.01785 0.991684 0.998865
1.01104 1.01144 1.00067 0.998934
1.01891 1.02079 0.999344 0.998817
1.01078 1.01206 1 0.998736
1.00571 1.012 0.9947 0.999082
1.01256 1.01577 0.997754 0.999078
1.00492 1.00604 0.999953 0.998935
1.00867 1.0104 0.999025 0.999261
1.00632 1.00749 0.999761 0.999084
1.00063 1.00174 1 0.99889
1.00156 1.00236 1 0.999193
1.0005 1.00144 1 0.999064
0.999057 1.00015 1 0.99891
0.999314 1.00014 1 0.999178
0.999068 1.00003 1 0.999043
0.99897 1 1 0.99897
0.999122 1 1 0.999122
0.999039 1 1 0.999039
0.999038 1 1 0.999038
0.999027 1 1 0.999027
0.999072 1 1 0.999072
0.999194 1 1 0.999194
0.999524 1 1 0.999524
0.999253 1 1 0.999253
0.99911 1 1 0.99911
0.999947 1 1 0.999947
0.999595 1 1 0.999595
0.999337 1 1 0.999337
1 1 1 1
0.999967 1 1 0.999967
0.999656 1 1 0.999656
1 1 1 1
0.999983 1 1 0.999983
1 1 1 1
0.999262 1 1 0.999262
0.999354 1 1 0.999354
0.99945 1 1 0.99945
0.999421 1 1 0.999421
0.999498 1 1 0.999498
0.999719 1 1 0.999719
0.999523 1 1 0.999523
0.999779 1 1 0.999779
1 1 1 1
0.999846 1 1 0.999846
1 1 1 1
1 1 1 1
1 1 1 1
1 1 1 1
1 1 1 1
1.00472 1.00836 0.997094 0.999292
0.981504 0.987573 0.99675 0.997095
0.962946 0.969465 0.998712 0.994556
0.999264 1 1 0.999264
0.99904 1 1 0.99904
0.999238 1 1 0.999238
0.999356 1 1 0.999356
0.999312 1 1 0.999312
0.999367 1 1 0.999367
1.00019 1.00125 1 0.998948
0.999301 1 1 0.999301
0.999205 1 1 0.999205
0.999422 1.00055 1 0.99887
1.00171 1.00321 1 0.9985
1.00808 1.00988 0.999519 0.998693
1.0025 1.00407 1 0.99844
0.998724 1.00002 1 0.998703
1.0034 1.00825 0.995985 0.999202
0.987607 0.994916 0.995679 0.99696
1.00483 1.00756 0.998317 0.998966
1.0067 1.00757 1 0.999136
1.00393 1.00434 1.00047 0.999116
0.982457 0.98512 0.999884 0.997413
1.00977 1.01848 0.992589 0.998853
1.00869 1.00956 1.00011 0.999027
1.01857 1.02082 0.998952 0.998844
1.01212 1.01337 1 0.998768
1.00764 1.00882 1 0.998821
1.009 1.01006 1 0.998947
1.01395 1.01684 0.998067 0.999086
1.00471 1.00598 0.9998 0.998941
1.0028 1.00401 1 0.998798
1.00694 1.00796 0.999913 0.999082
1.0006 1.0017 1 0.998901
1.0002 1.0014 1 0.9988
1.00055 1.00146 1 0.999086
0.999113 1.0002 1 0.998908
0.998865 1 1 0.998865
0.999095 1.00005 1 0.999042
0.99897 1 1 0.99897
0.998973 1 1 0.998973
0.999043 1 1 0.999043
0.999039 1 1 0.999039
0.999144 1 1 0.999144
0.999063 1 1 0.999063
0.999189 1 1 0.999189
0.999461 1 1 0.999461
0.999914 1 1 0.999914
0.999524 1 1 0.999524
0.999268 1 1 0.999268
1 1 1 1
0.999938 1 1 0.999938
0.999594 1 1 0.999594
1 1 1 1
0.99996 1 1 0.99996
1 1 1 1
0.999113 1 1 0.999113
0.999247 1 1 0.999247
0.999373 1 1 0.999373
0.999356 1 1 0.999356
0.999452 1 1 0.999452
0.999669 1 1 0.999669
0.999503 1 1 0.999503
0.999719 1 1 0.999719
0.999992 1 1 0.999992
0.999778 1 1 0.999778
1 1 1 1
1 1 1 1
1 1 1 1
1 1 1 1
1 1 1 1
1.00597 1.00759 0.999381 0.999018
1.00382 1.00753 0.997079 0.999235
0.981129 0.986214 0.997056 0.997781
1.00029 1.00131 1 0.998987
0.999341 1 1 0.999341
0.998921 1.00005 1 0.998868
0.99903 1 1 0.99903
0.999252 1 1 0.999252
1.00423 1.00562 1 0.998616
0.999346 1 1 0.999346
1.00013 1.0012 1 0.998931
1.00443 1.00584 1 0.998598
0.999701 1.00081 1 0.998891
1.00251 1.00404 1 0.998474
1.00599 1.00764 0.999671 0.998689
1.00083 1.00238 1 0.998453
1.00563 1.01012 0.996312 0.999239
1.00805 1.00899 1 0.999068
1.00679 1.00767 1 0.999132
1.00389 1.0034 1.00134 0.999158
1.01849 1.02103 0.998637 0.998871
1.01366 1.01488 1 0.998799
1.00814 1.00934 0.999994 0.998822
1.00927 1.01032 1 0.998953
1.00697 1.0081 1 0.998879
1.00467 1.00598 0.999747 0.998946
1.00261 1.00382 1 0.998803
1.00316 1.00441 1 0.998761
1.00061 1.0017 1 0.998911
0.999927 1.00113 1 0.998796
0.999068 1.00029 1 0.998776
0.999165 1.00026 1 0.998906
0.998879 1.00002 1 0.998863
0.998887 1 1 0.998887
0.998969 1 1 0.998969
0.998973 1 1 0.998973
0.999069 1 1 0.999069
0.99904 1 1 0.99904
0.999145 1 1 0.999145
0.9994 1 1 0.9994
0.999184 1 1 0.999184
0.999461 1 1 0.999461
0.999889 1 1 0.999889
0.999994 1 1 0.999994
0.999908 1 1 0.999908
0.999523 1 1 0.999523
1 1 1 1
0.99993 1 1 0.99993
1 1 1 1
0.999077 1.00018 1 0.998902
0.999017 1 1 0.999017
0.999097 1 1 0.999097
0.999291 1 1 0.999291
0.999231 1 1 0.999231
0.999376 1 1 0.999376
0.999621 1 1 0.999621
0.999453 1 1 0.999453
0.999669 1 1 0.999669
0.99997 1 1 0.99997
0.999718 1 1 0.999718
0.999995 1 1 0.999995
1 1 1 1
1 1 1 1
1 1 1 1
1 1 1 1
1.00635 1.00747 1 0.998884
1.00812 1.00952 0.999551 0.999063
1.00395 1.00773 0.997069 0.999178
1.00175 1.00304 1 0.998711
0.999781 1.00074 1 0.999045
0.999418 1 1 0.999418
0.999028 1.00014 1 0.998892
0.99902 1 1 0.99902
1.0089 1.01036 1 0.998559
1.00392 1.00534 1 0.998588
1.00009 1.00118 1 0.998914
1.00513 1.00655 1 0.998591
1.00377 1.00533 1 0.998449
1.00539 1.00696 0.999758 0.998687
1.00986 1.0109 1 0.998964
1.00756 1.00851 1 0.99906
1.00696 1.00784 1 0.999128
1.00845 1.00969 0.99995 0.998823
1.00966 1.01071 1 0.998959
1.00762 1.00874 1 0.998886
1.00733 1.00853 1 0.998808
1.00244 1.00364 1 0.998808
1.00257 1.00382 1 0.998758
1.00078 1.00204 1 0.998746
0.999657 1.00087 1 0.998791
0.999345 1.00057 1 0.998775
0.998815 1 1 0.998815
0.998895 1.00003 1 0.998861
0.998885 1 1 0.998885
0.99899 1 1 0.99899
0.998972 1 1 0.998972
0.999069 1 1 0.999069
0.999326 1 1 0.999326
0.999145 1 1 0.999145
0.999399 1 1 0.999399
0.99987 1 1 0.99987
0.99946 1 1 0.99946
0.999884 1 1 0.999884
0.999991 1 1 0.999991
0.999997 1 1 0.999997
0.999902 1 1 0.999902
1 1 1 1
0.999943 1.00121 1 0.998736
0.998999 1 1 0.998999
0.999099 1.00011 1 0.998988
0.999189 1 1 0.999189
0.999015 1 1 0.999015
0.99908 1 1 0.99908
0.999292 1 1 0.999292
0.99956 1 1 0.99956
0.999379 1 1 0.999379
0.999622 1 1 0.999622
0.999944 1 1 0.999944
0.999669 1 1 0.999669
0.999977 1 1 0.999977
1 1 1 1
0.999998 1 1 0.999998
1 1 1 1
1 1 1 1
1.01004 1.01129 1 0.998769
1.00618 1.0073 1 0.998882
1.00927 1.01038 0.999794 0.999107
1.00571 1.00712 1 0.998607
1.00154 1.00283 1 0.998713
0.999302 1.0002 1 0.999104
0.999145 1.00023 1 0.998915
1.00868 1.01013 1 0.998558
1.00362 1.00506 1 0.99856
1.0051 1.00652 1 0.998584
1.00948 1.01064 1 0.998855
1.0098 1.01088 1 0.998938
1.00681 1.00776 1 0.999051
1.00847 1.00971 1 0.998774
1.00815 1.00926 1 0.998893
1.00725 1.00845 1 0.998808
1.00385 1.00509 1 0.998764
1.00198 1.00322 1 0.998755
1.00119 1.00245 1 0.998747
0.999054 1.00028 1 0.998772
0.99961 1.00084 1 0.998774
0.998859 1.00005 1 0.998814
0.998929 1 1 0.998929
0.998884 1 1 0.998884
0.99899 1 1 0.99899
0.999254 1 1 0.999254
0.999069 1 1 0.999069
0.999325 1 1 0.999325
0.999852 1 1 0.999852
0.999397 1 1 0.999397
0.999866 1 1 0.999866
0.999988 1 1 0.999988
0.999879 1 1 0.999879
0.999992 1 1 0.999992
1 1 1 1
1.00106 1.00243 1 0.998639
0.998845 1.00002 1 0.998829
0.999558 1.00079 1 0.998766
0.999122 1 1 0.999122
0.998998 1 1 0.998998
0.999073 1 1 0.999073
0.999462 1 1 0.999462
0.999187 1 1 0.999187
0.999013 1 1 0.999013
0.999293 1 1 0.999293
0.99956 1 1 0.99956
0.999914 1 1 0.999914
0.999622 1 1 0.999622
0.999952 1 1 0.999952
1 1 1 1
0.999984 1 1 0.999984
1 1 1 1
1 1 1 1
1.00823 1.00951 1 0.998729
1.0101 1.01136 1 0.99875
1.00647 1.0076 1 0.99888
1.00577 1.00717 1 0.998607
1.00128 1.00257 1 0.998715
1.00842 1.00988 1 0.998557
1.00844 1.00968 1 0.998771
1.00972 1.01087 1 0.998854
1.00991 1.01101 1 0.998912
1.00851 1.00974 1 0.998778
1.00577 1.00703 1 0.99874
1.00717 1.00837 1 0.998808
1.00403 1.00528 1 0.998762
0.999932 1.00117 1 0.998762
1.00161 1.00287 1 0.998749
0.999285 1.00051 1 0.998774
0.998881 1 1 0.998881
0.998914 1.0001 1 0.998814
0.998929 1 1 0.998929
0.999205 1 1 0.999205
0.998989 1 1 0.998989
0.999253 1 1 0.999253
0.999831 1 1 0.999831
0.999323 1 1 0.999323
0.999847 1 1 0.999847
0.999984 1 1 0.999984
0.999861 1 1 0.999861
0.99999 1 1 0.99999
0.999992 1 1 0.999992
1.00316 1.00445 1 0.998716
0.998811 1.0001 1 0.998715
1.00066 1.00203 1 0.998633
0.998985 1 1 0.998985
0.998853 1.00001 1 0.99884
0.999239 1.00044 1 0.998796
0.999358 1 1 0.999358
0.999095 1 1 0.999095
0.998997 1 1 0.998997
0.999875 1 1 0.999875
0.999464 1 1 0.999464
0.999186 1 1 0.999186
0.999561 1 1 0.999561
0.999922 1 1 0.999922
1 1 1 1
0.999959 1 1 0.999959
1 1 1 1
1 1 1 1
1.00693 1.00822 1 0.998719
1.00829 1.00958 1 0.998725
1.01011 1.0114 1 0.99873
1.00588 1.00728 1 0.998607
1.00626 1.00756 1 0.998714
1.00874 1.00998 1 0.998777
1.00995 1.01111 1 0.998852
1.00852 1.00975 1 0.998782
1.00574 1.007 1 0.998741
1.00092 1.00217 1 0.998752
1.00422 1.00547 1 0.998759
1.00015 1.00138 1 0.998768
0.998848 1.00001 1 0.998838
0.999513 1.00074 1 0.998775
0.998881 1 1 0.998881
0.999165 1 1 0.999165
0.998928 1 1 0.998928
0.999204 1 1 0.999204
0.999803 1 1 0.999803
0.999252 1 1 0.999252
0.999822 1 1 0.999822
1 1 1 1
0.999841 1 1 0.999841
0.999986 1 1 0.999986
0.999991 1 1 0.999991
1.00323 1.00449 1 0.998738
0.999136 1.0004 1 0.998741
1.0032 1.00449 1 0.99872
0.998854 1 1 0.998854
0.998788 1.00006 1 0.998729
1.00021 1.00159 1 0.998626
0.999219 1 1 0.999219
0.998984 1 1 0.998984
0.998862 1.00001 1 0.998851
0.999834 1 1 0.999834
0.999334 1 1 0.999334
0.999067 1 1 0.999067
1 1 1 1
0.999884 1 1 0.999884
0.999465 1 1 0.999465
0.999929 1 1 0.999929
1 1 1 1
1 1 1 1
1.00532 1.00661 1 0.998716
1.00733 1.00861 1 0.998727
1.00833 1.00962 1 0.99872
1.00158 1.00287 1 0.998708
1.00594 1.00723 1 0.998712
1.00906 1.01029 1 0.998782
1.00572 1.00699 1 0.998743
1.00095 1.0022 1 0.998752
0.998898 1.00006 1 0.998843
1.00036 1.00159 1 0.998773
0.998873 1.00001 1 0.998862
0.99908 1 1 0.99908
0.998882 1 1 0.998882
0.999165 1 1 0.999165
0.999777 1 1 0.999777
0.999203 1 1 0.999203
0.999801 1 1 0.999801
1 1 1 1
0.999813 1 1 0.999813
0.99999 1 1 0.99999
0.999988 1 1 0.999988
1.00178 1.00304 1 0.998745
0.999118 1.00034 1 0.998776
1.00322 1.00449 1 0.998739
0.998863 1 1 0.998863
0.99928 1.00054 1 0.998745
1.00326 1.00455 1 0.998723
0.99914 1 1 0.99914
0.998884 1 1 0.998884
0.998765 1.00002 1 0.998743
0.999805 1 1 0.999805
0.999208 1 1 0.999208
0.998982 1 1 0.998982
1 1 1 1
0.999842 1 1 0.999842
0.99931 1 1 0.99931
1 1 1 1
0.999893 1 1 0.999893
1 1 1 1
1.0014 1.00268 1 0.998724
1.00498 1.00627 1 0.998717
1.00774 1.00902 1 0.998736
0.998826 1.00002 1 0.998804
1.0015 1.00279 1 0.998711
1.00563 1.00693 1 0.998709
1.00097 1.00222 1 0.998752
0.998894 1.00005 1 0.998843
0.999031 1 1 0.999031
0.998897 1.00001 1 0.998885
0.999102 1 1 0.999102
0.999731 1 1 0.999731
0.999165 1 1 0.999165
0.999774 1 1 0.999774
1 1 1 1
0.999799 1 1 0.999799
1 1 1 1
0.999983 1 1 0.999983
0.999356 1.00058 1 0.998782
1.00166 1.00292 1 0.998744
0.998863 1 1 0.998863
0.999198 1.00042 1 0.998775
1.0032 1.00446 1 0.99874
0.999143 1 1 0.999143
0.99886 1 1 0.99886
0.999419 1.00067 1 0.998749
0.999785 1 1 0.999785
0.999156 1 1 0.999156
0.998914 1 1 0.998914
1 1 1 1
0.99981 1 1 0.99981
0.999198 1 1 0.999198
1 1 1 1
0.99985 1 1 0.99985
1 1 1 1
0.998828 1 1 0.998826
1.00124 1.00252 1 0.998727
1.00459 1.00588 1 0.998719
0.999007 1 1 0.999007
0.998825 1.00002 1 0.998804
1.00138 1.00267 1 0.998715
0.99889 1.00005 1 0.998843
0.999037 1 1 0.999037
0.999684 1 1 0.999684
0.999124 1 1 0.999124
0.999728 1 1 0.999728
1 1 1 1
0.999772 1 1 0.999772
1 1 1 1
1 1 1 1
0.998849 1 1 0.998849
0.999305 1.00053 1 0.998776
1.00154 1.0028 1 0.998744
0.999123 1 1 0.999123
0.998862 1 1 0.998862
0.999283 1.00051 1 0.998775
0.999764 1 1 0.999764
0.999142 1 1 0.999142
0.998858 1 1 0.998858
1 1 1 1
0.999787 1 1 0.999787
0.999171 1 1 0.999171
1 1 1 1
0.999814 1 1 0.999814
1 1 1 1
0.999053 1 1 0.999053
0.998804 1 1 0.998803
1.00111 1.00238 1 0.998729
0.999663 1 1 0.999663
0.999009 1 1 0.999009
0.998823 1.00002 1 0.998804
0.999042 1 1 0.999042
0.999683 1 1 0.999683
1 1 1 1
0.999725 1 1 0.999725
1 1 1 1
1 1 1 1
0.99909 1 1 0.99909
0.99884 1 1 0.99884
0.999255 1.00049 1 0.99877
0.999761 1 1 0.999761
0.999122 1 1 0.999122
0.998861 1 1 0.998861
1 1 1 1
0.999764 1 1 0.999764
0.999141 1 1 0.999141
1 1 1 1
0.99979 1 1 0.99979
1 1 1 1
0.999661 1 1 0.999661
0.999037 1 1 0.999037
0.998781 1 1 0.998781
1 1 1 1
0.999662 1 1 0.999662
0.999011 1 1 0.999011
0.999681 1 1 0.999681
1 1 1 1
1 1 1 1
0.999724 1 1 0.999724
0.99909 1 1 0.99909
0.998831 1 1 0.998831
1 1 1 1
0.999737 1 1 0.999737
0.99912 1 1 0.99912
1 1 1 1
0.999765 1 1 0.999765
1 1 1 1
0.999925 1 1 0.999925
0.999688 1 1 0.999688
0.99902 1 1 0.99902
1 1 1 1
0.999662 1 1 0.999662
1 1 1 1
0.99994 1 1 0.99994
0.999715 1 1 0.999715
0.999091 1 1 0.999091
0.999975 1 1 0.999975
0.999735 1 1 0.999735
1 1 1 1
1 1 1 1
0.99967 1 1 0.99967
1 1 1 1
0.999967 1 1 0.999967
0.9997 1 1 0.9997
1 1 1 1
1 1 1 1
1 1 1 1

VECTORS lamdaE float
0.999141 1.00028 0.996371
0.999259 0.999573 0.998514
0.999031 1.00042 0.996458
0.999595 0.999956 0.996102
0.999275 1.00024 0.996264
0.999151 1.00001 0.996543
1.00003 1.00077 0.994082
0.999269 0.999447 0.998559
0.999178 1.00037 0.998425
0.998985 1.00004 0.998589
0.99938 0.999102 0.997077
0.999921 1.00066 0.994105
0.999783 1.00002 0.995694
0.999464 0.999887 0.996144
0.998903 1.00063 0.996538
0.999479 0.999943 0.996206
0.999055 1.00014 0.996619
0.999141 1.00036 0.996363
1.00011 1.0007 0.994073
0.999725 1 0.998083
0.999626 0.999959 0.99603
0.999478 1.00006 0.996158
1.00082 0.999916 0.993602
1.00037 1.00045 0.993837
0.999278 0.999462 0.99684
0.999729 1.00093 0.994413
1.0017 1.00105 0.990882
0.999269 0.999316 0.998612
0.999259 1.00025 0.997286
0.999085 1.00005 0.99755
0.999348 0.998937 0.998703
0.999836 1.00076 0.994112
0.999536 1.00006 0.996049
0.99925 1.00044 0.996327
1.00068 1.00035 0.994074
0.999337 0.998366 0.998983
1.00012 1.00067 0.994658
0.999773 1.00045 0.994549
1.00077 1.00184 0.991392
0.999435 0.997818 0.999143
0.999776 1 0.998038
0.999558 0.999962 0.997149
0.999828 1 0.997994
0.999498 0.999979 0.996042
1.00118 1.00004 0.992288
0.999468 1.00001 0.998358
1.00106 0.999948 0.993757
0.999363 0.999917 0.996309
0.999012 1.00051 0.99645
0.99895 1.00029 0.996709
1.0002 1.00059 0.994067
0.999674 1.00001 0.996991
0.999513 0.999931 0.996148
0.999199 0.999525 0.996914
0.999348 1.00012 0.99626
1.00087 0.99989 0.993559
0.999811 1.00086 0.994412
1.00045 1.00039 0.993819
1.00177 1.00108 0.990793
0.999773 1 0.998037
0.999687 0.999998 0.995869
1.00106 1.00001 0.993627
1.00084 0.999928 0.993548
1.00069 1.0001 0.993646
1.00297 0.999792 0.98984
1.00231 1.00043 0.990111
0.999471 0.998742 0.997218
0.999467 1.00079 0.994967
1.001 1.00163 0.991519
1.00262 1.00113 0.98864
0.999319 1.00021 0.998307
0.999352 0.998758 0.998801
0.999169 0.999816 0.998489
0.999758 1.00085 0.994117
0.999563 1.00011 0.998225
0.999234 1.00025 0.998358
1.00056 1.00035 0.993094
0.999372 0.998445 0.998235
0.999981 1.00078 0.993789
0.999714 1.00043 0.995043
1.00077 1.00181 0.991385
0.99943 0.998103 0.999026
0.999612 0.99901 0.996311
1.00092 1.00001 0.992838
1.00036 1.0006 0.993353
1.00255 1.00042 0.989432
0.999636 0.99993 0.996009
1.00127 1.00138 0.990915
1.00038 1.00215 0.991831
1.00133 1.00211 0.989988
0.999477 0.997508 0.999226
0.99942 0.997765 0.999173
0.999641 0.999981 0.99819
0.999742 1 0.998072
0.99982 1 0.998004
0.999604 0.999994 0.997057
1.00118 1.00003 0.992897
0.999534 0.999972 0.997187
1.00102 0.999968 0.993261
0.999835 0.999999 0.997996
1.00122 0.999987 0.992234
1.00113 1.00003 0.993584
1.00338 0.999838 0.988472
1.00101 0.999913 0.993856
1.00317 0.99983 0.988892
0.99975 1.00002 0.995769
0.999398 0.999877 0.996267
0.999117 0.999555 0.997004
0.999221 1.00018 0.996357
1.00092 0.99988 0.993517
1.00052 1.00031 0.993806
0.999897 1.00076 0.994404
1.00184 1.00113 0.990705
0.999808 1 0.998016
0.999559 0.999984 0.996002
1.00112 1 0.992717
1.00089 0.999898 0.993507
0.999392 0.998754 0.998001
0.999598 1.00071 0.995084
1.00074 1.00007 0.993615
1.00297 0.999776 0.989729
1.00109 1.00167 0.991415
1.00233 1.0005 0.990187
1.00261 1.00114 0.988645
1.00119 1.00001 0.992286
1.00092 0.999977 0.99333
1.00331 0.999817 0.98893
1.00297 0.999772 0.98957
1.00284 0.999957 0.989668
1.00404 0.999443 0.987936
0.999463 0.998244 0.998951
1.00328 1.00041 0.988116
0.999602 1.00035 0.994937
1.00034 1.00199 0.991895
1.00192 1.00198 0.989222
1.00323 1.00099 0.987644
0.999667 0.999419 0.995719
1.00009 1.00115 0.993285
0.999505 1.00012 0.998241
0.999159 1.00014 0.998406
1.00054 1.00035 0.993104
0.99939 0.998318 0.998975
0.999627 1.00054 0.994676
0.999906 1.00088 0.993781
1.00077 1.0018 0.991377
0.999408 0.998053 0.999067
0.999614 0.998952 0.99634
1.0009 1.00002 0.993391
1.00028 1.00061 0.993892
1.00255 1.00042 0.989445
0.999614 0.999909 0.995386
1.00125 1.00136 0.990931
1.00035 1.00215 0.991828
1.00134 1.00211 0.989927
0.999582 0.999488 0.995872
0.999694 0.998544 0.996641
0.999997 1.00083 0.993756
1.00298 1.00002 0.989019
1.00189 1.00095 0.990174
1.00356 1.00037 0.987622
1.00022 1.00185 0.992394
1.00196 1.0015 0.989397
1.00085 1.00285 0.990326
1.00153 1.00239 0.989422
0.99956 0.997205 0.999275
0.999478 0.997449 0.999244
0.999406 0.997704 0.999201
0.999705 0.999028 0.996068
0.99948 0.997981 0.999057
0.999614 1.00002 0.998211
0.999668 0.999985 0.998145
1.00098 0.999961 0.992739
1.00113 1.00004 0.992369
0.999797 1 0.998019
0.999832 1 0.997993
1.00122 0.999996 0.992238
1.00107 1.00004 0.9931
1.00338 0.999838 0.988474
1.00096 0.99989 0.992815
1.00316 0.999839 0.988892
1.00124 0.99998 0.992206
1.0035 0.9998 0.988284
1.00324 0.999858 0.988728
1.00445 0.999485 0.986869
1.00314 0.99983 0.988926
1.00423 0.999495 0.987291
0.999823 0.999999 0.997999
0.999433 0.999963 0.99614
1.00113 0.999994 0.991868
1.00094 0.999893 0.993464
0.999264 0.998719 0.998848
0.999734 1.00064 0.995195
1.00079 1.00004 0.993585
1.00297 0.999753 0.989618
1.00236 1.00057 0.990263
1.00118 1.00175 0.991312
1.0026 1.00115 0.988649
1.00119 0.999998 0.99228
1.00097 0.999972 0.993288
1.0033 0.9998 0.988682
1.00299 0.999804 0.989677
0.999451 0.998307 0.998912
0.999636 1.00029 0.995296
1.00044 1.00202 0.991989
1.00281 1.00001 0.989663
1.00405 0.999356 0.987801
1.00183 1.00198 0.989212
1.0033 1.00044 0.988214
1.00322 1.00099 0.987656
0.999646 0.999495 0.995705
1.0001 1.00111 0.99328
1.00348 0.999793 0.988316
1.00311 0.99983 0.989258
1.00437 0.99953 0.987266
1.00407 0.999375 0.987538
1.00386 0.999727 0.987895
1.0046 0.998873 0.987305
0.999634 0.999881 0.995305
1.00398 1.00003 0.987216
1.00017 1.00195 0.992271
1.00096 1.0025 0.990077
1.00252 1.00211 0.988272
1.0037 1.00058 0.987262
1.00015 1.00159 0.992767
1.00011 1.00059 0.993814
1.00031 1.00218 0.991891
1.00085 1.00001 0.992894
0.999388 0.99801 0.999106
0.999613 0.998902 0.99637
1.00015 1.00071 0.993456
1.00255 1.00041 0.989458
0.999598 0.999905 0.995349
1.00032 1.00214 0.991825
1.00123 1.00136 0.990947
1.00135 1.0021 0.989866
0.999591 0.999417 0.995896
0.999685 0.998519 0.99666
0.999985 1.00086 0.993767
1.00299 1.00003 0.989019
1.00187 1.00094 0.990199
1.00357 1.00037 0.987618
1.00018 1.0019 0.992397
1.00199 1.00151 0.989431
1.00083 1.00285 0.990317
1.00152 1.00238 0.989383
0.999779 0.998191 0.996835
1.00011 1.00138 0.993018
0.999982 1.00019 0.994438
1.00018 1.00198 0.992351
1.00404 0.999802 0.987281
1.00275 1.00105 0.988497
1.00418 1.0001 0.986736
1.00053 1.00279 0.990997
1.00236 1.00147 0.98882
1.00089 1.00371 0.989302
1.00174 1.00219 0.988978
1.00019 0.999135 0.995144
0.999927 0.997723 0.997015
0.999657 0.996937 0.999306
0.999571 0.997151 0.999286
0.999481 0.997385 0.99926
0.99977 0.9987 0.996294
0.999502 0.997742 0.999128
0.999699 0.999079 0.996045
0.999489 0.998015 0.999024
1.00097 0.999888 0.992813
1.00103 1.00003 0.992569
1.00315 0.999846 0.988893
1.00338 0.999839 0.988476
1.00122 1 0.992242
0.999839 1 0.997991
1.00124 0.999983 0.992204
1.0035 0.999803 0.988285
1.00323 0.999868 0.988729
1.00446 0.999488 0.986864
1.00314 0.999844 0.988921
1.00423 0.999493 0.987294
1.00353 0.999789 0.988249
1.00457 0.999416 0.986703
1.00431 0.999529 0.987101
1.00492 0.998979 0.986517
1.00421 0.999494 0.98731
1.00475 0.999048 0.986786
1.0012 0.999986 0.992273
1.00102 0.999968 0.993243
1.00329 0.999777 0.988434
1.00301 0.999822 0.989783
0.999444 0.99837 0.998871
0.999685 1.00027 0.995627
1.00056 1.00203 0.992081
1.00279 1.00005 0.989658
1.00406 0.999266 0.987666
1.00331 1.00048 0.988312
1.00174 1.00197 0.989202
1.00321 1.00099 0.987667
0.999631 0.99956 0.99569
1.00012 1.00107 0.993275
1.00347 0.999773 0.988238
1.00313 0.999826 0.989252
1.00438 0.999487 0.98721
1.00409 0.99943 0.987689
0.999637 0.999909 0.995304
1.00022 1.00196 0.992266
1.00096 1.00247 0.990211
1.00387 0.999783 0.987906
1.00461 0.99879 0.987273
1.00245 1.00211 0.988137
1.00396 1.00002 0.987225
1.00364 1.00055 0.987272
1.00016 1.00154 0.992774
1.0003 1.00215 0.991903
1.00011 1.00059 0.993803
1.00453 0.999486 0.987004
1.00424 0.999488 0.987395
1.0049 0.999035 0.986627
1.00465 0.998957 0.987043
1.00452 0.999099 0.987082
1.00492 0.998325 0.987222
1.00016 1.00181 0.992493
1.0044 0.999372 0.986998
1.00063 1.00243 0.991053
1.00133 1.00302 0.988932
1.00287 1.00202 0.987493
1.00395 1.00008 0.987482
1.00014 1.0002 0.994154
1.00042 1.00217 0.991691
1.00026 1.00179 0.99231
1.00032 1.00271 0.991401
1.00299 1.00003 0.989018
0.999675 0.998498 0.996679
0.999605 0.999335 0.995919
0.999985 1.00086 0.993777
1.00184 1.00094 0.990224
1.00357 1.00037 0.987614
1.00014 1.00194 0.992402
1.00082 1.00285 0.990308
1.00202 1.00153 0.989465
1.00149 1.00236 0.989345
0.99977 0.998181 0.996842
1.0001 1.00141 0.993019
0.999991 1.00017 0.994453
1.00016 1.00202 0.992342
1.00406 0.999804 0.987268
1.00273 1.00105 0.988511
1.00417 1.00011 0.986733
1.00049 1.00279 0.991013
1.00239 1.0015 0.988864
1.00091 1.00376 0.989259
1.00171 1.00206 0.989247
0.999857 0.997929 0.996946
1.00005 0.999695 0.994831
1.00034 1.00239 0.991699
1.00015 1.00131 0.993046
1.00009 1.00296 0.991568
1.00466 0.999391 0.98656
1.00325 1.00091 0.987677
1.00449 0.999786 0.9865
1.00049 1.00403 0.989848
1.00254 1.0013 0.988616
1.00111 1.00366 0.988394
1.00015 0.999249 0.995095
1.00022 1.0001 0.994124
1.00022 0.99906 0.995159
1.00018 0.999153 0.995139
0.999969 0.997525 0.997509
0.999915 0.997707 0.997243
0.999805 0.996735 0.998438
0.999671 0.996892 0.999314
0.999584 0.997098 0.999296
0.999839 0.998429 0.996443
0.999562 0.997495 0.999171
0.999773 0.998723 0.996278
0.999512 0.997777 0.999107
0.999692 0.999128 0.996023
0.999499 0.998063 0.998989
1.00314 0.999854 0.988916
1.00323 0.999876 0.988729
1.00422 0.9995 0.987297
1.00446 0.999489 0.986858
1.0035 0.999806 0.988285
1.00124 0.999986 0.992203
1.00353 0.999787 0.988247
1.00458 0.999419 0.986701
1.0043 0.999545 0.987098
1.00493 0.998936 0.986525
1.00422 0.999488 0.987304
1.00473 0.999057 0.986782
1.0046 0.999392 0.986675
1.00501 0.998858 0.986439
1.00483 0.999026 0.986628
1.0051 0.998447 0.986726
1.00475 0.999057 0.986759
1.00495 0.998427 0.986959
1.00345 0.999754 0.988161
1.00314 0.999823 0.989246
1.00439 0.999449 0.987153
1.00411 0.999485 0.98784
0.999641 0.999937 0.995302
1.00024 1.00198 0.992261
1.00097 1.00244 0.990345
1.00387 0.999841 0.987917
1.00462 0.99871 0.987241
1.00395 1.00002 0.987234
1.00239 1.00211 0.988002
1.00358 1.00051 0.987282
1.00017 1.00148 0.992782
1.00029 1.00212 0.991916
1.00011 1.0006 0.993792
1.00454 0.999459 0.986874
1.00425 0.999486 0.98739
1.0049 0.998958 0.986609
1.00467 0.998982 0.987059
1.00019 1.00177 0.992499
1.00068 1.00242 0.991028
1.00127 1.00302 0.989105
1.0045 0.99919 0.987131
1.00491 0.998265 0.987239
1.00278 1.00208 0.987405
1.00441 0.999376 0.987003
1.00391 0.999916 0.987543
1.00043 1.00219 0.991704
1.00033 1.00273 0.991343
1.00014 1.00021 0.994149
1.00025 1.00173 0.992383
1.00498 0.998961 0.986432
1.0048 0.99905 0.986811
1.00511 0.998565 0.986621
1.00497 0.998228 0.987129
1.00491 0.998439 0.987017
1.00504 0.997862 0.987371
1.00052 1.0022 0.991503
1.00463 0.998631 0.987335
1.00063 1.0031 0.990148
1.0017 1.00349 0.987998
1.00303 1.00186 0.987168
1.00427 0.999365 0.987558
1.00016 0.99996 0.994353
1.00025 1.00136 0.992752
1.00045 1.0026 0.99124
1.00024 1.00247 0.991791
1.00034 1.00288 0.991178
0.999761 0.998173 0.99685
1.00408 0.999807 0.987254
1 1.00014 0.994469
1.00008 1.00147 0.993021
1.00014 1.00207 0.992333
1.00272 1.00105 0.988525
1.00417 1.00012 0.98673
1.00046 1.00277 0.991029
1.00094 1.0038 0.989216
1.00243 1.00152 0.988907
1.00169 1.00195 0.989515
0.999851 0.997922 0.99695
1.00005 0.999682 0.99484
1.00033 1.00238 0.991703
1.00014 1.00134 0.993051
1.00008 1.00305 0.991465
1.00466 0.999397 0.986547
1.00323 1.00092 0.987686
1.00446 0.999801 0.986481
1.00044 1.00402 0.989861
1.00257 1.00132 0.988658
1.00125 1.00367 0.988471
1.0001 0.999423 0.995009
1.00017 1.00071 0.993623
1.00031 1.0035 0.990688
1.00004 1.00243 0.992157
1.00012 1.00364 0.990919
1.00493 0.998966 0.986442
1.00353 1.0006 0.987432
1.00446 0.999177 0.986947
1.0004 1.0049 0.988927
1.00226 1.00242 0.988007
1.00015 0.999262 0.995093
1.0002 1.00019 0.994001
1.00022 1.00011 0.994083
1.00017 1.00079 0.99366
1.00026 1.0001 0.994082
1.00026 0.999036 0.995121
1.00022 0.999065 0.995156
1.00003 0.997374 0.997538
1.00018 0.999167 0.995134
0.999977 0.997518 0.997513
0.9999 0.996512 0.998473
0.999904 0.997697 0.997467
0.99978 0.996692 0.998888
0.999685 0.996847 0.999322
0.999902 0.998186 0.99657
0.999842 0.998443 0.996434
0.99964 0.997251 0.999206
0.999562 0.997539 0.999159
0.999774 0.99875 0.996262
0.999521 0.997806 0.999085
1.00423 0.999482 0.987298
1.0043 0.999553 0.987095
1.00472 0.999063 0.986779
1.00493 0.998893 0.986532
1.00458 0.999421 0.9867
1.00353 0.999785 0.988246
1.00461 0.999392 0.986676
1.00501 0.998868 0.986427
1.00482 0.999039 0.986624
1.00511 0.998377 0.986786
1.00475 0.999049 0.986751
1.00497 0.998362 0.986983
1.00503 0.998879 0.986394
1.00513 0.99847 0.986657
1.00504 0.998245 0.986945
1.00514 0.998012 0.987128
1.00498 0.99852 0.986784
1.00501 0.997906 0.987383
1.00455 0.99943 0.986745
1.00425 0.999494 0.987384
1.00489 0.998877 0.986591
1.00469 0.999007 0.987075
1.00022 1.00173 0.992506
1.00074 1.00241 0.991004
1.00121 1.00303 0.989278
1.00447 0.999279 0.98718
1.00489 0.998204 0.987256
1.00442 0.99938 0.987007
1.00269 1.00213 0.987318
1.00387 0.999746 0.987606
1.00042 1.0022 0.991716
1.00033 1.00277 0.991285
1.00013 1.00022 0.994143
1.00025 1.00165 0.992455
1.00497 0.998965 0.986436
1.00481 0.999075 0.986764
1.0051 0.998522 0.986639
1.00494 0.998296 0.987116
1.00054 1.00222 0.991493
1.00063 1.00304 0.99029
1.00166 1.0036 0.987975
1.0049 0.998503 0.987002
1.00504 0.997813 0.987393
1.00302 1.00192 0.987112
1.00461 0.998646 0.987328
1.0041 0.999145 0.987865
1.00048 1.0026 0.991242
1.00035 1.0029 0.991163
1.00022 1.00249 0.991787
1.00016 0.999956 0.994279
1.00025 1.00131 0.992799
1.00514 0.998477 0.986619
1.00509 0.998345 0.986815
1.00507 0.997568 0.98758
1.00508 0.997742 0.987322
1.00051 1.00268 0.991015
1.00483 0.997986 0.987581
1.00051 1.00373 0.989466
1.00205 1.00394 0.986904
1.00364 1.00105 0.986905
1.00018 0.999756 0.994368
1.00025 1.00105 0.993212
1.0002 1.00205 0.9923
1.00044 1.00273 0.991142
1.00023 1.00298 0.991336
1.00044 1.00281 0.991031
0.999844 0.997917 0.996954
1.00006 0.99967 0.994848
1.00466 0.999402 0.986534
1.00013 1.00136 0.993056
1.0003 1.00237 0.991706
1.00007 1.00312 0.991362
1.00322 1.00092 0.987696
1.00444 0.999815 0.986462
1.00041 1.00404 0.989874
1.00138 1.00368 0.988548
1.00259 1.00134 0.988701
1.0001 0.999431 0.99501
1.00017 1.00069 0.993633
1.00028 1.00349 0.990712
1.00004 1.00242 0.992157
1.00009 1.00367 0.990856
1.00492 0.998999 0.986429
1.00354 1.00059 0.987416
1.00447 0.999059 0.987086
1.00039 1.00492 0.988869
1.00227 1.00262 0.987832
1.00017 1.00037 0.993956
1.00008 1.00175 0.992667
1.00029 1.00417 0.989979
1.00001 1.00338 0.991165
1.00025 1.00384 0.990455
1.00502 0.997585 0.987534
1.00371 1.0007 0.987259
1.00452 0.998094 0.987492
1.00105 1.00472 0.988485
1.00215 1.00276 0.987097
1.00014 0.999277 0.995091
1.0002 1.00018 0.994049
1.00015 1.00095 0.99337
1.00021 1.00013 0.994042
1.00025 1.0001 0.994082
1.00015 1.00079 0.993594
1.00007 1.00135 0.993262
1.00014 1.00077 0.993577
1.00029 1.0001 0.994038
1.00027 0.999078 0.995051
1.00025 0.999036 0.995121
1.00008 0.997303 0.997517
1.00022 0.99907 0.995153
1.00004 0.997379 0.997536
0.999968 0.996361 0.998492
0.999985 0.99751 0.997518
0.999891 0.996488 0.998475
0.999753 0.996642 0.999345
0.999961 0.997963 0.996688
0.999906 0.998196 0.996563
0.999721 0.997017 0.999237
0.999845 0.998459 0.996425
0.999633 0.997296 0.999195
0.999563 0.997575 0.999146
1.00474 0.999041 0.986742
1.00482 0.999055 0.986619
1.00499 0.998298 0.987007
1.00511 0.998306 0.986847
1.00502 0.998876 0.986414
1.00461 0.999392 0.986676
1.00503 0.998909 0.986376
1.00513 0.998504 0.986626
1.00507 0.998288 0.986876
1.00515 0.997922 0.987166
1.00498 0.998543 0.98679
1.00505 0.997775 0.987415
1.00513 0.998541 0.986583
1.00513 0.998009 0.987086
1.00515 0.997592 0.987464
1.00502 0.997609 0.987641
1.00497 0.998969 0.986441
1.00482 0.999095 0.986717
1.00509 0.998482 0.986656
1.00491 0.998365 0.987103
1.00057 1.00222 0.991483
1.00063 1.00298 0.990431
1.00162 1.00372 0.987952
1.0049 0.998567 0.986987
1.00504 0.997764 0.987415
1.00459 0.99866 0.98732
1.00302 1.00197 0.987056
1.00394 0.998947 0.98817
1.0005 1.0026 0.991245
1.00037 1.0029 0.991148
1.0002 1.0025 0.991782
1.00016 0.999953 0.994204
1.00025 1.00126 0.992846
1.00513 0.998486 0.986624
1.00508 0.998351 0.986861
1.00507 0.997658 0.987517
1.00056 1.00269 0.990998
1.00064 1.00368 0.989621
1.00201 1.00404 0.986871
1.00507 0.997772 0.987344
1.0036 1.0009 0.987073
1.0048 0.998013 0.987604
1.00018 0.999731 0.994394
1.00047 1.00273 0.991134
1.00042 1.00279 0.99108
1.00023 1.00302 0.991293
1.0002 1.00204 0.992326
1.00025 1.00103 0.993148
1.00515 0.99816 0.98686
1.00513 0.997517 0.987589
1.00512 0.997137 0.987845
1.0051 0.997195 0.987874
1.0005 1.00306 0.990695
1.00462 0.998555 0.98723
1.0009 1.0048 0.987961
1.0026 1.00373 0.986317
1.00019 0.999551 0.994569
1.00024 1.00082 0.993445
1.0002 1.00179 0.992606
1.00015 1.00267 0.991742
1.00051 1.00295 0.990863
1.00046 1.00285 0.990982
1.0001 0.999438 0.995011
1.00018 1.00067 0.993644
1.00492 0.999032 0.986416
1.00004 1.00242 0.992158
1.00025 1.00349 0.990737
1.00005 1.00372 0.990794
1.00355 1.00058 0.9874
1.00448 0.998944 0.987225
1.00038 1.00492 0.988811
1.00229 1.00284 0.987656
1.00018 1.00035 0.993961
1.00009 1.00173 0.992705
1.00025 1.00424 0.990044
0.999992 1.00345 0.991164
1.00017 1.0038 0.990547
1.00502 0.99764 0.987649
1.00376 1.00059 0.987198
1.00456 0.997956 0.987788
1.0009 1.00474 0.988422
1.00233 1.003 0.986875
1.00012 1.00117 0.993178
0.999996 1.00273 0.991773
1.00041 1.00431 0.989661
1 1.00408 0.990209
1.00516 0.996329 0.988667
1.0051 0.996723 0.98833
1.00386 1.00043 0.986897
1.00122 1.00442 0.98729
1.00021 1.00017 0.994096
1.00015 1.00096 0.993402
1.00004 1.00164 0.992988
1.00025 1.0001 0.994082
1.00014 1.00078 0.993528
1.00029 1.00009 0.994038
1.00006 1.00136 0.993209
1.00016 1.00074 0.993597
1 1.00179 0.992886
1.0001 1.00122 0.993242
1.00017 1.00073 0.99355
1.0003 1.00014 0.993974
1.00026 0.999154 0.99498
1.00026 0.999083 0.995051
1.00011 0.997296 0.997468
1.00025 0.999034 0.995122
1.00008 0.997322 0.997508
1.00002 0.996293 0.998467
1.00004 0.997384 0.997536
0.999961 0.996337 0.998496
0.999882 0.996467 0.998475
1.00001 0.997749 0.996804
0.999966 0.997968 0.996682
0.999798 0.996797 0.999267
0.999911 0.998205 0.996556
0.999712 0.99706 0.999227
0.999628 0.997342 0.999184
1.00498 0.998565 0.986796
1.00509 0.998329 0.986807
1.00509 0.997643 0.987447
1.00515 0.997835 0.987204
1.00513 0.998538 0.986595
1.00502 0.99894 0.986358
1.00513 0.998534 0.986595
1.00513 0.99803 0.987064
1.00514 0.997604 0.987444
1.00507 0.99756 0.987633
1.00514 0.998154 0.986945
1.00514 0.997424 0.987696
1.00514 0.997095 0.987916
1.00512 0.998496 0.98663
1.00507 0.998358 0.986908
1.00507 0.997748 0.987455
1.00061 1.00268 0.990981
1.00077 1.00361 0.989777
1.00195 1.00415 0.986838
1.00506 0.997802 0.987366
1.00477 0.998027 0.98763
1.00354 1.00076 0.987242
1.00049 1.00273 0.991126
1.00038 1.00279 0.991129
1.00024 1.00305 0.99125
1.00018 0.999704 0.99442
1.00019 1.00203 0.992352
1.00024 1.00102 0.993084
1.00515 0.998196 0.986868
1.00513 0.997492 0.987627
1.00511 0.997191 0.987829
1.00054 1.00306 0.990653
1.00081 1.00466 0.988281
1.00263 1.00361 0.986327
1.0051 0.997185 0.987894
1.00467 0.998612 0.98717
1.00019 0.999524 0.994665
1.00024 1.00082 0.993445
1.00043 1.00286 0.990896
1.00045 1.00275 0.991139
1.00016 1.00265 0.991704
1.00018 1.00182 0.99256
1.00514 0.99754 0.987538
1.00511 0.996659 0.988407
1.0051 0.996553 0.988359
1.00501 0.996923 0.988307
1.00029 1.00388 0.989962
1.00351 1.00159 0.986434
1.00145 1.00496 0.987397
1.00021 0.999374 0.994874
1.00018 1.00044 0.993862
1.00022 1.00069 0.993477
1.00016 1.00167 0.992717
1.00009 1.00248 0.992041
1.00002 1.00328 0.991247
1.00073 1.00182 0.991356
1.00033 1.00285 0.991848
1.00019 1.00034 0.993966
1.00011 1.00171 0.992742
1.00503 0.997697 0.987764
0.999993 1.00349 0.991163
1.0002 1.00432 0.99011
1.00008 1.00377 0.99064
1.0038 1.00047 0.987136
1.00463 0.997795 0.988081
1.00076 1.00475 0.98836
1.00251 1.00319 0.986653
1.00013 1.0012 0.993136
1.00001 1.00277 0.991775
1.00036 1.00434 0.989699
1.00009 1.0041 0.990292
1.00514 0.99634 0.988727
1.00504 0.996858 0.988232
1.00393 1.00038 0.987024
1.00148 1.0044 0.987131
1.00003 1.002 0.992631
1.00517 0.995832 0.989001
1 1.00388 0.990973
1.00055 1.00458 0.989097
1.00517 0.995854 0.989099
1.00488 0.997664 0.987561
1.00268 1.00336 0.986597
1.00016 1.00097 0.993434
1.00003 1.00164 0.992981
0.999939 1.00219 0.992621
1.00029 1.00007 0.994039
1.00017 1.00072 0.993617
1.00004 1.00137 0.993156
1.0003 1.00013 0.993972
1.00018 1.00073 0.993557
1.00001 1.00181 0.992836
1.0001 1.0012 0.993292
1 1.00203 0.992591
1.0001 1.00157 0.992875
1.00014 1.00112 0.993336
1.00025 1.00071 0.993474
1.00029 1.00022 0.993895
1.00025 0.999222 0.99493
1.00026 0.999158 0.99498
1.00013 0.997318 0.997417
1.00026 0.99909 0.99505
1.00011 0.997325 0.99746
1.00005 0.996271 0.998435
1.00009 0.997344 0.997501
1.00002 0.996263 0.998473
0.999954 0.996314 0.998498
1.00021 0.999251 0.994978
1.00006 0.997563 0.996902
1.00002 0.997755 0.996799
0.999868 0.996591 0.999296
0.999971 0.997975 0.996676
0.999789 0.996837 0.999257
0.999703 0.997104 0.999217
1.00512 0.997511 0.987625
1.00514 0.997616 0.987424
1.00513 0.998045 0.987043
1.00513 0.998528 0.986608
1.00513 0.998127 0.986987
1.00514 0.997421 0.987673
1.00515 0.997066 0.987909
1.00513 0.997477 0.987604
1.00514 0.996883 0.988301
1.00515 0.995442 0.98917
1.00516 0.998233 0.986876
1.00513 0.997465 0.987665
1.00512 0.997244 0.987813
1.00058 1.00308 0.990611
1.00072 1.00455 0.988602
1.00265 1.00347 0.986338
1.0051 0.997187 0.987913
1.00473 0.998666 0.98711
1.00036 1.00277 0.99093
1.00047 1.00266 0.991292
1.00014 1.00269 0.991665
1.00019 0.999496 0.994761
1.00024 1.00082 0.993444
1.00017 1.00185 0.992515
1.00514 0.997474 0.987636
1.00021 0.999366 0.994873
1.00017 1.00047 0.993819
1.0051 0.996724 0.988389
1.00512 0.996574 0.988288
1.00022 1.00389 0.990179
1.00142 1.00495 0.987234
1.00349 1.00149 0.986449
1.00498 0.996946 0.988289
1.00022 1.00067 0.993609
1.00016 1.00166 0.992711
1.00085 1.00199 0.991066
1.00016 1.00238 0.992226
0.999999 1.00337 0.991173
1.0001 1.00243 0.99206
1.00513 0.996441 0.988667
1.00511 0.996225 0.988901
1.00507 0.996076 0.988772
1.00451 0.997601 0.988059
1.00055 1.00343 0.990238
1.00216 1.00436 0.986681
1.00014 1.00039 0.993879
1.0002 1.00057 0.993709
1.00009 1.00134 0.993256
1.00014 1.00157 0.99272
1.00006 1.00239 0.992282
0.999905 1.00318 0.991417
0.999737 1.00435 0.990955
1.00027 1.00169 0.992359
1.00014 1.00122 0.993093
1.00003 1.0028 0.991777
1.00513 0.996338 0.988787
1.00495 0.997026 0.988134
1.00019 1.00411 0.990374
1.00031 1.00435 0.989737
1.004 1.00035 0.987152
1.00175 1.00442 0.986973
1.00002 1.00201 0.992607
1.00516 0.995836 0.989015
0.999951 1.00377 0.991015
1.00055 1.00451 0.989015
1.00518 0.995765 0.989009
1.00488 0.997622 0.9877
1.00259 1.00346 0.98668
0.999944 1.00308 0.991796
1.00513 0.995197 0.990376
1.00046 1.00416 0.990236
1.00125 1.00472 0.98818
1.00509 0.996499 0.988601
1.00336 1.00102 0.987207
1.00012 0.999556 0.992618
1.00003 1.00165 0.992974
0.999932 1.0022 0.992613
1.00001 1.00239 0.992286
1.0003 1.00012 0.99397
1.00017 1.00074 0.993565
1.0001 1.00118 0.993342
1.00001 1.00183 0.992786
1.00029 1.00021 0.993891
1.00025 1.0007 0.993467
1.00002 1.00205 0.992559
1.00014 1.00111 0.99333
1.00009 1.00159 0.992921
1.00011 1.0018 0.992657
1.00015 1.00123 0.993147
1.00021 1.00103 0.993284
1.00033 1.00074 0.993301
1.0003 1.00028 0.99374
1.00024 1.0008 0.993484
1.00028 1.00028 0.993768
1.00024 0.999255 0.994913
1.00025 0.999224 0.994931
1.00016 0.997374 0.996918
1.00026 0.999163 0.994981
1.00014 0.997346 0.997184
1.00003 0.996219 0.999329
1.00011 0.997351 0.997453
1.00005 0.996233 0.99844
1.00001 0.996234 0.998478
1.0002 0.999196 0.99505
1.00022 0.999251 0.994975
1.0001 0.997434 0.996963
1.00006 0.997566 0.99713
0.999929 0.996423 0.999318
1.00002 0.99776 0.996793
0.999859 0.99663 0.999287
0.99978 0.996878 0.999248
1.00516 0.997039 0.987903
1.00515 0.997415 0.987649
1.00513 0.998105 0.98703
1.00514 0.997473 0.98759
1.00513 0.996854 0.98827
1.00516 0.995735 0.98905
1.00513 0.996175 0.988798
1.00129 1 0.988538
1.00517 0.995071 0.990422
1.00013 1.00038 0.994034
1.00514 0.997409 0.987733
1.0051 0.996783 0.988372
1.00513 0.99666 0.988218
1.00015 1.00392 0.990396
1.00139 1.00495 0.987072
1.00345 1.00143 0.986462
1.00497 0.996965 0.988271
1.00096 1.00216 0.990781
0.99998 1.00188 0.992614
0.999991 1.00342 0.9911
1.00021 0.99936 0.994873
1.00012 1.00239 0.992078
1.00023 1.00065 0.993742
1.00016 1.00166 0.992704
1.00016 1.00048 0.993775
1.00514 0.996333 0.988747
1.00015 1.00038 0.993943
1.0002 1.00057 0.993705
1.0001 1.00133 0.993163
1.00511 0.996134 0.988895
1.00504 0.996218 0.988705
1.00063 1.00312 0.990317
1.00188 1.00428 0.986739
1.00451 0.997903 0.98806
1.00014 1.00159 0.992777
1.00006 1.00237 0.992246
1.00021 1.00208 0.992039
0.999748 1.0041 0.991123
0.999942 1.00321 0.991476
1.00511 0.995604 0.989449
1.00504 0.996607 0.988768
1.00507 0.996432 0.988393
1.00298 1.00123 0.988031
1.00045 1.00339 0.990439
1.00011 1.00121 0.993125
1.0001 1.00147 0.992926
1.00009 1.00189 0.992712
1.00004 1.00229 0.992274
0.999985 1.00292 0.991799
0.99977 1.00404 0.990976
0.999682 1.00449 0.990636
1.00002 1.00203 0.992583
0.99989 1.00367 0.991057
1.00515 0.995852 0.989029
1.0052 0.995681 0.98892
1.00488 0.997538 0.987839
1.00054 1.00446 0.988934
1.00249 1.00354 0.986763
0.999917 1.00299 0.991924
1.00513 0.995166 0.990342
1.00025 1.00414 0.990291
1.00096 1.0048 0.988274
1.00509 0.996172 0.988723
1.00335 1.00102 0.987173
1.00008 0.999671 0.991123
1.00004 1.00341 0.991308
1.00481 0.995734 0.991068
1.00014 1.00447 0.990201
1.00134 1.0041 0.988102
1.00387 0.997529 0.988499
1.00156 0.995182 0.960694
0.996107 1.00032 0.978934
0.999178 1.00019 0.993573
0.999346 0.997393 0.943859
0.995017 0.998219 0.938142
0.99993 1.00222 0.992605
0.999969 1.00241 0.992341
1.00001 1.00208 0.992636
1.00029 1.00021 0.993887
1.00024 1.00068 0.99346
1.00014 1.00111 0.993325
1.00009 1.00161 0.992966
1.00004 1.00205 0.992527
1.00021 1.00101 0.993254
1.00029 1.00028 0.993791
1.00033 1.00073 0.993326
1.0001 1.00182 0.992667
1.00015 1.00124 0.993146
1.00019 1.00113 0.993121
1.00014 1.0012 0.993179
1.00032 1.00098 0.993118
1.00038 1.00082 0.993113
1.00029 1.0003 0.993733
1.00033 1.0008 0.993287
1.00027 1.00104 0.993186
1.00016 1.00086 0.993483
1.00025 1.00081 0.993428
1.00027 1.00024 0.99391
1.00028 1.0003 0.99376
1.00024 0.999253 0.994923
1.00024 0.999253 0.994913
1.00015 0.997426 0.9969
1.00025 0.999225 0.994932
1.00016 0.997378 0.996917
1.00003 0.996228 0.999322
1.00015 0.997373 0.996951
1.00005 0.996222 0.998872
1.00005 0.996196 0.998444
1.0002 0.999153 0.995103
1.00021 0.999188 0.995049
1.00013 0.997351 0.997003
1.00022 0.999249 0.994971
1.0001 0.997421 0.997191
0.999977 0.996308 0.999331
1.00007 0.997582 0.99689
0.999919 0.996478 0.999309
0.999851 0.996667 0.999278
1.00512 0.996823 0.988239
1.00514 0.997472 0.987575
1.00516 0.995995 0.98893
1.00125 0.99905 0.988666
1.00513 0.996245 0.988808
1.00518 0.995334 0.990286
1.00517 0.996151 0.989561
0.997872 0.999955 0.975626
1.00274 0.99673 0.989511
1.00014 1.00036 0.99405
1.00014 1.00036 0.994034
1.0001 1.00116 0.993306
1.00009 1.00113 0.993354
1.00514 0.99624 0.988826
1.0051 0.996066 0.988889
1.00508 0.996277 0.988636
1.00072 1.00282 0.990396
1.0016 1.00418 0.986796
1.00451 0.998275 0.988061
1.00015 1.00249 0.991709
0.999773 1.00385 0.991292
0.999979 1.00325 0.991536
1.0002 1.00059 0.993702
1.00007 1.00233 0.992211
1.00013 1.00161 0.992834
1.00015 1.00038 0.994007
1.0001 1.00133 0.993069
1.0051 0.995646 0.989449
1.00011 1.00123 0.993227
1.0001 1.00147 0.992965
1.00008 1.00186 0.992686
1.00507 0.996227 0.988817
1.00505 0.996474 0.98837
1.00053 1.00325 0.990418
1.00297 1.00143 0.987965
1.00004 1.00234 0.99227
0.999945 1.0029 0.991859
0.999713 1.00451 0.990634
0.999855 1.00412 0.990898
1.00511 0.995894 0.989271
1.00508 0.995925 0.988929
1.00404 0.99903 0.988042
1.00052 1.00373 0.990064
1.00012 1.00189 0.992514
1.00002 1.00209 0.992518
0.999916 1.00319 0.991601
0.999864 1.00483 0.990056
1.00065 0.995114 0.957542
0.999882 1.00291 0.992051
1.00003 1.00411 0.990345
1.00514 0.995111 0.990305
1.00509 0.995839 0.988845
1.00333 1.00102 0.987137
1.00067 1.00486 0.988368
1.00001 0.999704 0.989605
0.999923 1.00345 0.991411
1.00477 0.995482 0.990994
1.00003 1.00444 0.990251
1.00126 1.00416 0.98808
1.00414 0.997591 0.988488
1.00184 0.995527 0.957461
0.995942 1.00003 0.975137
0.999276 1.0002 0.993781
0.998227 0.997823 0.944711
0.994835 0.998186 0.933728
0.999724 1.00344 0.991989
1.00001 0.994988 0.945832
0.994883 0.999773 0.939533
1.00418 0.995765 0.991517
0.99966 1.00488 0.990537
1.00176 1.00173 0.989185
0.998295 1.00035 0.995981
0.998765 0.998059 0.961316
0.994827 1.00011 0.974843
0.997505 0.99988 0.945769
0.994527 0.999862 0.94394
0.999916 1.00246 0.992397
0.999979 1.00215 0.992616
0.999977 1.00129 0.993623
1.00028 1.00028 0.993842
1.00032 1.00072 0.993351
1.0002 1.00102 0.993225
1.00016 1.00126 0.993145
1.0001 1.00185 0.992677
1.00029 1.00031 0.993732
1.00021 1.00115 0.993113
1.0003 1.00099 0.993139
1.00038 1.0008 0.99318
1.00014 1.00119 0.993205
1.0003 1.001 0.993069
1.00024 1.00044 0.993754
1.0004 1.00098 0.992985
1.00037 1.00081 0.993205
1.00034 1.00079 0.993283
1.00028 1.00102 0.993173
1.00039 1.00094 0.99303
1.00017 1.00114 0.993213
1.00026 1.00104 0.993167
0.999918 1.0019 0.992868
1.00009 1.00097 0.99349
1.00016 1.00087 0.993483
1.00024 1.00023 0.993961
1.00026 1.00082 0.993373
1.00027 1.00025 0.993872
1.00024 0.999237 0.994951
1.00028 1.00031 0.993753
1.00024 0.999247 0.994924
1.0001 0.997452 0.997375
1.00024 0.999252 0.994913
1.00013 0.997418 0.997135
1.00008 0.996255 0.998381
1.00016 0.997383 0.996916
1.00003 0.996234 0.99932
1.00008 0.996227 0.998414
1.00016 1.00033 0.994036
1.0002 0.999117 0.995138
1.0002 0.999147 0.995104
1.00014 0.997289 0.997043
1.00021 0.999181 0.995048
1.00013 0.99734 0.997003
1.00001 0.996224 0.999341
1.00008 0.997426 0.997413
0.999989 0.996346 0.998869
0.99996 0.996514 0.998381
1.00106 0.998122 0.988805
1.00513 0.996327 0.988818
1.00519 0.995646 0.990151
0.997308 0.999204 0.977576
1.00259 0.997233 0.989771
1.00517 0.995623 0.989582
1.00447 0.996174 0.989979
0.998506 0.996825 0.980323
1.00034 0.995687 0.960311
0.997882 0.997534 0.946208
0.994665 0.998253 0.937364
1.00007 1.00119 0.993248
1.00014 1.00036 0.994049
1.00015 1.00035 0.994035
1.0001 1.00118 0.993274
1.00004 1.00168 0.992885
1.00013 1.00153 0.992962
1.00012 1.00112 0.993346
1.00009 1.00116 0.99331
1.00509 0.995675 0.98945
1.00511 0.995832 0.988863
1.00496 0.996518 0.988347
1.00061 1.00307 0.9904
1.00294 1.0015 0.987897
0.999743 1.0045 0.990634
0.999936 1.0042 0.99082
0.999906 1.00289 0.991918
1.0001 1.00146 0.993004
1.00005 1.0024 0.992265
1.00012 1.00124 0.993328
1.00007 1.00183 0.992661
1.00511 0.995948 0.989222
1.0001 1.00187 0.992611
1.00004 1.0021 0.9925
1.00505 0.99601 0.988834
1.00368 0.998695 0.988375
1.00066 1.00365 0.989828
0.999973 1.00319 0.9916
0.999924 1.00479 0.99006
1.00385 0.999973 0.989339
1.00457 0.996454 0.989951
1.0014 1.00084 0.989547
1.00019 1.00382 0.990455
1.00011 1.00183 0.992538
1.00007 1.00246 0.992091
0.999919 1.00383 0.99103
0.999908 0.994995 0.943503
1.00115 0.994959 0.963213
0.999822 1.00348 0.991515
0.999924 1.00439 0.990301
1.00473 0.995291 0.990926
1.00441 0.997739 0.988476
1.00119 1.00424 0.988058
1.00087 0.995011 0.958506
0.996168 1.00033 0.975565
0.999298 1.00009 0.993998
0.997774 0.997436 0.948156
0.994693 0.998172 0.929301
0.999698 1.00332 0.991994
1.00005 0.995112 0.944015
0.994815 0.999791 0.937439
1.00431 0.996076 0.99148
0.999579 1.00484 0.990609
1.00152 1.0016 0.989521
0.99862 0.999442 0.996767
0.999345 0.998627 0.958413
0.995266 0.999902 0.977504
0.996882 0.999906 0.945976
0.9947 0.999908 0.941856
0.999374 1.00324 0.992818
0.994712 0.999955 0.942208
0.994319 1.00377 0.956737
1.0014 0.998015 0.994399
0.999286 1.00427 0.992212
0.99734 1.00188 0.997177
0.995516 0.999885 0.981722
0.996067 1.00048 0.95784
0.995822 0.999939 0.948582
0.994317 1.00003 0.951808
0.999964 1.00217 0.992595
0.999975 1.0014 0.993464
0.999743 1.00004 0.994935
1.00029 1.00031 0.993731
1.00037 1.00079 0.993248
1.00029 1.001 0.99316
1.00021 1.00116 0.993105
1.00015 1.00116 0.99323
1.00037 1.00081 0.993204
1.0003 1.00105 0.993082
1.0004 1.00098 0.99298
1.00016 1.00042 0.993925
1.00007 0.999614 0.995002
1.00044 1.00054 0.993312
1.00044 1.00095 0.992922
1.00035 1.00079 0.993278
1.00029 1.001 0.993159
1.00038 1.00094 0.993032
1.00017 1.00114 0.993208
1.00026 1.00102 0.993168
1.00005 1.00137 0.993159
1.00034 1.00094 0.993078
1.00015 1.00113 0.993264
1.00001 1.00246 0.992153
0.999683 1.00437 0.990713
0.9998 1.00259 0.992235
0.99991 1.00197 0.992844
1.00004 1.00121 0.993375
1.0001 1.00099 0.993485
1.0002 1.00026 0.994014
1.00016 1.00089 0.993482
1.00025 1.00023 0.993961
1.00022 0.999236 0.994986
1.00027 1.00026 0.993834
1.00024 0.99923 0.994952
1.00008 0.997484 0.997394
1.00024 0.999242 0.994924
1.00012 0.997444 0.997146
1.00005 0.996259 0.998389
1.00015 0.997406 0.996902
1.00002 0.996256 0.999316
1.00003 0.996239 0.999318
1.00019 1.00036 0.994124
1.0002 0.999119 0.995127
1.00015 1.00034 0.994033
1.00014 0.99726 0.997069
1.0002 0.99912 0.995138
1.0002 0.999141 0.995105
1.00014 0.99729 0.997042
1.00003 0.996168 0.999351
1.00011 0.997333 0.997452
1.00003 0.996237 0.998886
1.00002 0.996352 0.998415
0.999796 0.995294 0.942944
0.995094 0.999352 0.940467
0.997924 0.998383 0.978734
1.00246 0.997643 0.990027
1.00517 0.995147 0.989604
0.998034 0.996863 0.982934
1.00447 0.996412 0.990006
1.00066 0.995215 0.961223
0.998387 0.997329 0.943839
0.994628 0.998203 0.932883
0.999476 0.99708 0.98673
0.998134 0.998163 0.963298
0.997269 0.999768 0.945312
0.994634 0.999922 0.941406
1.00012 1.00168 0.992749
1.00008 1.00119 0.993274
1.00014 1.00035 0.994048
1.0001 1.00118 0.993241
1.00004 1.00163 0.992943
1.00013 1.00162 0.992829
1.00014 1.0015 0.992929
1.00016 1.00123 0.993124
1.00013 1.00112 0.993296
1.00009 1.00117 0.993266
1.00511 0.995936 0.989176
1.00501 0.996183 0.988746
1.00332 0.998347 0.98871
1.00079 1.00363 0.989593
0.999988 1.00473 0.990065
1.00002 1.00319 0.9916
1.00005 1.00212 0.992482
1.00007 1.00185 0.992708
1.00379 0.999088 0.989423
1.00012 1.00186 0.992532
1.00007 1.00243 0.992098
1.00449 0.996305 0.989742
1.00131 1.00144 0.989721
1.00029 1.00398 0.990154
0.999991 1.00375 0.990964
1.00096 1.00203 0.992374
1.00137 0.999138 0.993078
0.999944 1.00319 0.991203
1.00012 1.002 0.992467
1.00019 1.00186 0.992336
1.0002 1.00252 0.991777
0.994601 0.999577 0.949207
0.999946 0.995367 0.945817
1.00069 0.994945 0.957083
0.999654 1.00325 0.992
0.999501 1.00475 0.990684
1.00449 0.996319 0.991436
1.00124 1.00159 0.989855
0.999959 0.995363 0.946438
0.998475 0.998125 0.959493
0.994871 0.999735 0.974888
0.99905 0.997979 0.99748
0.997506 0.999838 0.942662
0.994784 0.999813 0.937737
0.994895 0.999881 0.942043
0.999281 1.00322 0.992839
0.994751 1.00002 0.944431
0.994491 1.00386 0.956278
1.00158 0.998005 0.994368
0.9989 1.00439 0.992217
0.996797 0.999536 1.00038
0.995379 0.999663 0.978136
0.996292 1.0004 0.962331
0.997343 0.999915 0.945803
0.994372 1.00006 0.952266
0.998536 1.00247 0.995313
0.993921 1.00304 0.964452
0.993657 1.0046 0.969606
0.997048 1.00174 0.998089
0.995708 1.00043 0.987521
0.995494 0.999998 0.962073
0.995122 0.999989 0.947982
0.994585 0.999966 0.950597
0.999961 1.00154 0.993307
0.999817 1.00003 0.994986
0.999347 0.999426 0.996228
1.00038 1.0008 0.993202
1.00041 1.00097 0.992976
1.0003 1.0011 0.993095
1.00009 1.0004 0.994095
1.00044 1.00096 0.992925
1.00042 1.0006 0.993275
1.00008 0.99938 0.995143
0.999552 0.999 0.996449
1.00034 0.999597 0.994464
1.00041 1.0008 0.99306
1.00038 1.00094 0.993033
1.00017 1.00113 0.993203
1.00027 1.00101 0.993169
1.00033 1.00095 0.993085
1.00004 1.00142 0.993144
1.00016 1.00112 0.99326
1.00007 1.00151 0.99306
1.00012 1.00095 0.993478
0.999956 1.00239 0.992304
1.00002 1.00242 0.992219
0.99971 1.0039 0.991196
1.00024 1.0047 0.989566
0.999882 1.00345 0.991592
0.999649 1.00428 0.990906
0.999817 1.00261 0.992357
0.999964 1.00167 0.992922
0.999902 1.00204 0.99282
1.00004 1.00123 0.993365
1.00016 1.00034 0.994005
1.0001 1.001 0.993479
1.00021 1.00025 0.994012
1.00018 0.999288 0.99501
1.00025 1.00024 0.993961
1.00022 0.99923 0.994987
1.00003 0.997536 0.997417
1.00024 0.999223 0.994953
1.00008 0.997478 0.997169
1.00001 0.996323 0.998405
1.00013 0.997427 0.996914
1.00003 0.996274 0.998851
1.00002 0.996263 0.999316
1.0002 1.00042 0.993899
1.0002 0.99917 0.99508
1.00017 1.00036 0.994004
1.00013 0.997284 0.997062
1.0002 0.999123 0.995128
1.00014 1.00036 0.994031
1.00003 0.996151 0.999355
1.00014 0.99726 0.997069
1.0002 0.999119 0.995138
1.00014 0.997293 0.99704
1.00002 0.996176 0.999348
1.00001 0.996236 0.999337
0.994727 0.999365 0.94697
0.999861 0.99521 0.94429
0.994625 1.00421 0.955763
0.995004 0.999626 0.93895
0.998836 0.996968 0.978742
1.00444 0.996842 0.990011
1.00062 0.995073 0.962125
0.999265 0.998107 0.947173
0.994603 0.998082 0.928386
0.998976 0.997596 0.985126
0.999011 0.99763 0.957544
0.99703 0.999775 0.945541
0.994604 0.999839 0.939044
0.995701 0.999728 0.983513
0.997727 1.00016 0.957766
0.995427 0.999746 0.944677
0.994493 0.9999 0.947655
1.00015 1.00192 0.992511
1.00011 1.00168 0.992795
1.00008 1.00121 0.993299
1.00005 1.00159 0.993
1.00018 1.00174 0.99255
1.00013 1.0016 0.992859
1.00014 1.0015 0.992896
1.00022 1.0012 0.993121
1.00017 1.00122 0.993183
1.00014 1.00112 0.993246
1.00361 0.998229 0.989517
1.00445 0.996116 0.989533
1.00124 1.00203 0.989893
1.0004 1.00411 0.989856
1.00006 1.00369 0.990898
1.00007 1.00238 0.992106
1.00014 1.00189 0.992526
1.00012 1.00199 0.992455
1.00096 1.00102 0.992645
1.00019 1.00194 0.992364
1.00021 1.00255 0.991708
1.00147 0.999304 0.992696
1.00024 1.00309 0.991142
0.998928 1.0004 0.995763
0.999394 0.999641 0.996842
1.00025 1.00164 0.992178
1.00026 1.00177 0.992394
1.00029 1.00204 0.992074
0.993524 1.0024 0.96943
0.994635 1.00004 0.948916
0.99987 0.995861 0.943016
0.9992 1.00326 0.992855
0.998588 1.00446 0.992212
1.00166 0.998064 0.994357
0.994784 0.999939 0.946284
0.997363 1.00055 0.957992
0.994872 0.99951 0.979761
0.996443 0.998422 1.00378
0.995762 0.999957 0.948155
0.99466 1.00399 0.955834
0.994355 1.00002 0.952552
0.998468 1.00237 0.995366
0.993954 1.0027 0.966579
0.993657 1.00468 0.96948
0.997041 1.00234 0.99831
0.99534 1.00028 0.987784
0.996195 0.999978 0.957574
0.994474 0.999926 0.952556
0.994962 0.999919 0.949598
0.997099 1.00235 0.99794
0.993102 1.00404 0.984459
0.993698 1.00455 0.971527
0.994471 0.99992 0.947782
0.995035 1.00155 0.996437
0.996053 0.999048 0.963738
0.994691 1.00003 0.95047
0.999926 0.999987 0.995033
0.999468 0.999576 0.99597
0.99893 0.999072 0.997565
1.00043 1.00096 0.992927
1.0004 1.00067 0.993238
1.00011 0.999108 0.995287
1.0004 1.00084 0.993049
1.00034 0.999527 0.99447
0.999803 0.998961 0.996062
0.999414 0.998527 0.997215
1.00026 1.00038 0.993801
1.00032 1.00096 0.993093
1.00004 1.00146 0.99313
1.00017 1.00109 0.993255
1.00014 1.00095 0.993448
1.00008 1.00143 0.993118
0.999552 1.00201 0.993429
0.999798 1.00254 0.992429
0.999974 1.00397 0.990644
1.00005 1.00238 0.992286
0.999877 1.00383 0.991147
1.00017 1.00491 0.989175
1.00023 1.00483 0.989312
0.999948 1.00387 0.990941
1.00017 1.00463 0.989639
0.999973 1.00239 0.992357
0.999877 1.00349 0.991478
0.999613 1.0042 0.9911
0.999836 1.00264 0.99248
0.999976 1.00162 0.993018
1.00012 1.00056 0.993851
1.00005 1.00124 0.993355
1.00016 1.00036 0.994
1.00013 0.999385 0.995006
1.00021 1.00025 0.99401
1.00018 0.999273 0.995013
0.999962 0.997633 0.997431
1.00022 0.999221 0.994989
1.00004 0.997537 0.997193
0.999948 0.996413 0.998421
1.0001 0.997463 0.996938
0.999988 0.996333 0.99886
0.999994 0.996303 0.999319
1.00025 1.00051 0.993583
1.0002 0.999281 0.99482
1.00021 1.00043 0.993898
1.00012 0.997363 0.997018
1.0002 0.999181 0.994995
1.00016 1.00037 0.993884
1.00002 0.996184 0.999351
1.00013 0.997281 0.997063
1.0002 0.999127 0.99513
1.00003 0.996152 0.999354
1.00014 0.997262 0.997068
1.00002 0.996185 0.999345
0.993546 1.00286 0.967818
0.994724 0.999159 0.947182
0.999818 0.995052 0.944985
1.00026 1.00112 0.993052
0.993602 1.00444 0.97088
0.99464 1.00422 0.955345
0.995 0.999809 0.939839
0.998953 0.998297 0.983492
0.998485 0.998836 0.963321
0.997349 0.999698 0.942247
0.994594 0.999847 0.939221
0.995672 0.999817 0.979076
0.996567 1.00006 0.962147
0.997333 0.999901 0.946691
0.994542 0.999921 0.946984
0.995492 1.00005 0.97503
0.99525 1.00012 0.960102
0.994785 0.999925 0.949987
0.994564 0.999917 0.950615
1.00021 1.0019 0.992385
1.00014 1.00192 0.992497
1.0001 1.00167 0.992842
1.00021 1.00161 0.992663
1.00018 1.00174 0.992624
1.00013 1.00159 0.99289
1.00022 1.00122 0.993123
1.00018 1.00121 0.993241
1.00099 0.999956 0.992897
1.00154 0.999485 0.992306
1.00013 1.00199 0.992443
1.00052 1.00309 0.991079
1.00022 1.00254 0.991638
1.00017 1.00201 0.992391
1.00025 1.00182 0.992416
0.998989 1.0001 0.996147
1.00025 1.00202 0.992189
1.00044 1.00159 0.992223
0.999481 0.998848 0.996805
1.00028 1.00167 0.992578
0.997496 0.999653 0.997859
0.998314 1.00059 0.998069
1.00029 1.00106 0.992759
1.00026 1.00136 0.992829
0.993029 1.00384 0.987257
0.993396 1.00285 0.969971
0.994673 1.00045 0.948642
0.998351 1.00227 0.995433
0.997005 1.00252 0.998488
0.993979 1.00242 0.968685
0.995545 1.00002 0.963086
0.99488 0.999419 0.983954
0.995265 0.999906 0.949218
0.993608 1.00475 0.969366
0.994387 0.999891 0.954513
0.997313 1.00235 0.997542
0.992916 1.00407 0.984574
0.993606 1.00463 0.97476
0.995235 1.00307 0.999198
0.994526 0.999927 0.947024
0.995291 0.999061 0.961163
0.99492 0.999923 0.95062
0.996815 1.002 0.999059
0.99372 1.00368 0.987733
0.993603 1.00455 0.970869
0.994658 0.999919 0.941498
0.995278 0.999891 0.949197
0.995871 0.999016 0.993082
0.996129 1.00013 0.956151
0.999533 0.999705 0.995714
0.998862 0.999524 0.997327
0.997631 0.998476 1.00126
1.0004 1.00089 0.993038
1.00034 0.999459 0.994476
1.00002 0.999002 0.995675
1.00023 1.0005 0.993757
0.99949 0.998118 0.997275
0.998902 1.00192 0.99457
1.00016 1.00096 0.993418
1.0001 1.00135 0.993176
0.999733 1.00209 0.993239
0.999302 1.00427 0.991484
0.999627 1.00268 0.992551
0.999799 1.00384 0.990927
1.00036 1.00503 0.98899
1.0012 1.00478 0.987652
1.00005 1.00375 0.991097
1.0003 1.0049 0.989039
1.00048 1.00462 0.989418
0.999809 1.00447 0.990327
1.00026 1.00471 0.989445
0.999951 1.00293 0.991846
0.999989 1.00385 0.990926
1.00011 1.00455 0.989713
1.00009 1.00102 0.993466
0.999959 1.00235 0.992334
0.999873 1.00354 0.991364
0.999986 1.00158 0.993114
1.00012 1.00059 0.993838
1.00007 0.999554 0.994949
1.00016 1.00038 0.993995
1.00013 0.999377 0.995006
0.999909 0.997786 0.996967
1.00019 0.999258 0.995016
0.999986 0.997635 0.996981
0.999826 0.996528 0.999336
1.00005 0.997524 0.996966
0.999932 0.996418 0.998871
0.999953 0.996365 0.999324
1.00029 1.0005 0.99353
1.0002 0.999416 0.994664
1.00026 1.00051 0.993657
1.00009 0.997491 0.996944
1.0002 0.999292 0.994801
1.00022 1.00043 0.993896
0.99999 0.996265 0.999338
1.00011 0.997358 0.997021
1.0002 0.999192 0.994909
1.00002 0.996175 0.999353
1.00013 0.997279 0.997064
1.00003 0.996151 0.999354
0.992996 1.00361 0.984474
0.993574 1.00326 0.967633
0.994755 0.999236 0.94713
1.00025 1.00115 0.993071
1.00024 1.00115 0.993022
1.00019 1.00155 0.992818
0.993721 1.00434 0.971704
0.993653 1.00435 0.970771
0.994661 1.00444 0.95492
0.995064 1.00054 0.981985
0.996692 1.0001 0.95728
0.995165 0.999932 0.948859
0.994539 0.999922 0.946087
0.995649 1.00002 0.977896
0.996337 1.00008 0.959698
0.995311 0.999967 0.950706
0.994484 0.999899 0.95256
0.995277 1.00001 0.974561
0.995752 1.00006 0.961515
0.994631 0.999987 0.950917
0.994345 1.00002 0.951531
1.00026 1.0017 0.992478
1.00021 1.00191 0.992363
1.00013 1.00193 0.992483
1.00021 1.00161 0.992656
1.00017 1.00173 0.992697
1.00023 1.00123 0.993126
0.99913 0.999913 0.996524
0.999382 0.998266 0.996772
1.00023 1.0019 0.992439
1.00064 1.0014 0.992268
1.00021 1.00205 0.992305
1.00032 1.00161 0.992491
1.00023 1.00137 0.992929
0.997518 0.999971 0.998106
1.00025 1.00105 0.993115
0.998177 1.00008 0.998657
1.00021 1.00126 0.993108
0.996074 0.999202 0.999052
0.997923 1.00108 0.99898
1.00003 1.00042 0.994288
0.99416 1.00369 0.991367
0.992949 1.0038 0.988338
0.993281 1.00334 0.970498
0.997618 1.00242 0.997131
0.996049 1.00231 0.997279
0.992788 1.00407 0.984688
0.995545 0.999185 0.966939
0.994699 0.999998 0.949591
0.993555 1.00472 0.977996
0.994516 0.99989 0.946307
0.996677 1.0023 0.999215
0.993695 1.00377 0.988716
0.993656 1.00445 0.97075
0.995208 0.999791 0.988493
0.994611 0.999868 0.939324
0.995554 0.999903 0.949678
0.995526 1.00014 0.96181
0.995744 1.00143 1.00154
0.992991 1.00365 0.984466
0.994485 1.00421 0.956192
0.994686 0.998173 0.937817
0.995565 0.999897 0.944131
0.995492 1.00003 0.96149
0.995764 0.998897 0.984578
0.998776 1.0001 0.997128
0.997602 0.998245 1.00113
0.997901 1.00031 0.998785
1.00019 1.00061 0.993714
0.999576 0.997695 0.997338
0.998745 1.002 0.994868
0.998778 1.00379 0.993159
0.999919 1.0022 0.993052
0.999734 1.00425 0.991146
1.00044 1.00507 0.988777
0.999616 1.00371 0.991212
1.00041 1.005 0.988914
1.00163 1.00502 0.986995
1.00232 1.00453 0.98604
1.00086 1.00439 0.988415
1.00118 1.00486 0.987574
1.00043 1.0049 0.988902
1.0004 1.00416 0.989982
1.00032 1.00449 0.989653
0.999878 1.00373 0.991005
0.999884 1.00439 0.990447
1.00029 1.00457 0.989578
1.00006 1.00169 0.992843
0.999974 1.00289 0.991854
1.00003 1.00382 0.99091
1.00001 0.999836 0.994768
1.00009 1.00104 0.993454
0.999946 1.00232 0.992311
1.00012 1.00062 0.993825
1.00007 0.999553 0.994946
0.999821 0.997992 0.996921
1.00014 0.999369 0.995007
0.999913 0.997788 0.996966
0.999762 0.996694 0.999326
0.999993 0.997628 0.99698
0.999854 0.996551 0.998878
0.999896 0.996455 0.999328
1.00031 1.00051 0.993569
1.00022 0.999503 0.994707
1.00029 1.0005 0.993563
1.00005 0.997644 0.996861
1.00021 0.999422 0.99473
1.00026 1.0005 0.99373
0.999951 0.996387 0.999319
1.00009 0.997484 0.996948
1.0002 0.999302 0.994781
0.999994 0.996248 0.999342
1.00011 0.997354 0.997024
1.00002 0.996166 0.999355
0.993749 1.0034 0.987898
0.993056 1.00335 0.984601
0.993605 1.00335 0.967513
1.00022 1.00123 0.992973
1.00009 1.00187 0.992678
1.00023 1.00117 0.993089
1.00024 1.00116 0.99302
1.00019 1.00154 0.992786
1.00015 1.00161 0.992818
1.00016 1.00171 0.992668
0.993731 1.00438 0.969522
0.993592 1.00441 0.974969
0.9937 1.00414 0.970665
0.994414 0.999903 0.954507
0.994844 1.00003 0.975529
0.995627 1.00012 0.960025
0.994722 0.999977 0.951054
0.995705 1.00001 0.973871
0.995421 1.00008 0.957971
0.994771 0.999924 0.951822
0.994414 1.00002 0.95208
0.995921 0.997897 0.978582
0.995123 1.00009 0.957588
0.995348 0.999959 0.948478
0.994542 0.999873 0.943348
1.00015 1.00149 0.992948
1.00026 1.00166 0.992486
1.00021 1.00191 0.99234
1.00022 1.00161 0.992649
0.997614 1.00033 0.998333
0.998086 0.999494 0.999227
1.00035 1.00154 0.992404
1.00019 1.00135 0.993028
1.00014 1.00107 0.99347
1.0002 1.00129 0.993034
0.999912 1.00045 0.994246
0.99584 1.00003 0.99722
0.997488 1.00127 0.999226
0.999724 1.00104 0.993989
0.995832 0.999139 0.997149
0.998164 1.00132 0.998276
0.993037 1.00389 0.98728
0.994681 1.00338 0.991504
0.993008 1.0037 0.989421
0.996586 1.00249 0.999327
0.995713 0.999163 0.993849
0.993756 1.00374 0.9897
0.996276 1.00014 0.956688
0.994846 0.999981 0.950053
0.993707 1.00426 0.97063
0.994595 0.999825 0.939384
0.995717 1.00112 1.00173
0.993045 1.00352 0.98457
0.994525 1.00416 0.955773
0.995031 0.99881 0.988644
0.994672 0.998141 0.933381
0.997473 0.999923 0.945982
0.995455 1.00008 0.958506
0.996113 1.00127 0.999259
0.993573 1.00287 0.967974
0.994942 0.999359 0.941135
0.997392 0.999775 0.945406
0.995365 1.00043 0.961886
0.994864 0.999458 0.978825
0.997651 0.997914 1.00093
0.997663 1.00087 0.99875
0.999667 0.99875 0.9976
0.998566 1.00209 0.995165
0.99834 1.00387 0.993458
1.00091 1.00282 0.989969
1.00018 1.0042 0.990805
1.00066 1.00502 0.988585
1.00201 1.00345 0.987219
1.00047 1.00495 0.988838
1.00164 1.00501 0.986866
1.00291 1.00308 0.985937
1.00358 1.00214 0.985936
1.00207 1.00457 0.986653
1.00239 1.00445 0.985824
1.00077 1.00374 0.989201
1.00084 1.0044 0.988589
1.00118 1.00494 0.987497
1.00038 1.00379 0.990241
1.00035 1.00422 0.98994
1.00017 1.00437 0.989888
1.00008 1.00243 0.992041
0.999912 1.00362 0.991145
0.999964 1.00432 0.990568
0.999961 1.00034 0.994346
1.00007 1.00167 0.992843
0.999998 1.00284 0.991863
0.999743 0.998221 0.996846
1 0.999855 0.994758
1.00009 1.00105 0.993443
1.00007 0.999552 0.994943
0.999828 0.997997 0.996918
0.999668 0.996893 0.999314
0.999917 0.997792 0.996965
0.99975 0.996727 0.999323
0.999823 0.996584 0.999328
1.00021 1.00134 0.992945
1.00031 1.00055 0.993523
1.00021 0.999595 0.994632
1.00031 1.00051 0.993566
0.999999 0.997803 0.996787
1.00021 0.999523 0.994704
1.00028 1.00051 0.993596
0.9999 0.996532 0.9993
1.00005 0.997637 0.996866
1.00021 0.999427 0.994797
0.999956 0.996362 0.999325
1.00008 0.997477 0.996953
0.999999 0.996229 0.999347
0.993108 1.00379 0.984628
0.9937 1.00351 0.988866
0.993046 1.00334 0.98473
1.00023 1.00121 0.993003
1.00009 1.00187 0.992634
1.00007 1.00217 0.992314
1.00008 1.00176 0.99268
1.00004 1.0023 0.992376
1.00024 1.00116 0.993018
1.00018 1.00152 0.992754
1.00013 1.00161 0.992819
1.00019 1.00171 0.992626
1.00006 1.00184 0.992787
0.994362 1.00396 0.956157
0.993706 1.00445 0.96941
0.99351 1.00446 0.97823
0.994427 1.00001 0.952366
0.994635 0.999967 0.950228
0.995157 1.00001 0.972541
0.994969 1.00005 0.960952
0.99568 0.99806 0.974513
0.995737 1.00006 0.961115
0.994799 0.999934 0.950365
0.994721 0.999881 0.941206
0.996133 0.995406 0.979197
0.995355 1.00006 0.96197
0.996093 0.9999 0.948195
0.994996 0.998155 0.937339
0.999618 1.00109 0.994204
1.00012 1.00156 0.99294
1.00026 1.00163 0.992494
0.995629 1.00079 0.995412
0.997274 1.00132 0.999474
1.00021 1.00129 0.99296
0.999871 1.00056 0.994203
0.99972 1.00106 0.994003
0.998132 1.00088 0.998107
0.995459 0.99905 0.997318
0.998352 1.00127 0.9965
0.99586 1.00094 0.996336
0.993638 1.00291 0.968564
0.992977 1.0038 0.988399
0.994734 1.00326 0.991641
0.995585 1.00093 1.00196
0.995164 0.998545 0.982445
0.99304 1.00362 0.984673
0.996238 1.00004 0.958206
0.995407 0.999955 0.947924
0.994547 1.00434 0.955354
0.994665 0.998065 0.928929
0.996108 1.00088 0.999457
0.993609 1.00327 0.967781
0.994883 0.999557 0.939631
0.994924 0.999375 0.9805
0.997029 0.999806 0.945585
0.996079 1.00001 0.958717
0.997758 0.999271 0.995257
0.994682 0.999509 0.947414
0.997694 0.997252 0.946375
0.997777 1.00077 0.95745
0.994844 0.999679 0.980335
0.997488 1.00131 0.998706
0.999477 0.998785 0.997651
1.00215 0.998811 0.992749
0.997939 1.00389 0.99375
1.00042 1.00305 0.990369
1.00291 0.999615 0.988764
1.00087 1.00502 0.988393
1.00202 1.00345 0.987281
1.00373 1.00016 0.987431
1.00163 1.00501 0.986736
1.00296 1.00304 0.98599
1.00442 0.999472 0.986549
1.0045 0.999356 0.986969
1.00284 1.00338 0.985977
1.00349 1.00206 0.985977
1.00167 1.00392 0.987807
1.00195 1.00461 0.98648
1.00245 1.00437 0.985609
1.00081 1.00322 0.989936
1.00075 1.00368 0.989381
1.00083 1.0044 0.988764
1.00033 1.00279 0.991247
1.00033 1.00379 0.990308
1.0003 1.00428 0.989898
0.999961 1.00107 0.993618
1.00012 1.00239 0.992042
0.999941 1.0035 0.991285
0.999641 0.998565 0.997138
0.999954 1.00036 0.994331
1.00008 1.00165 0.992844
0.999588 0.997161 0.998333
0.999741 0.998255 0.997058
1 0.999872 0.994748
0.999834 0.998002 0.996915
0.999655 0.996938 0.999308
0.999737 0.996763 0.999319
1.00017 1.00166 0.992635
1.00029 1.00071 0.993396
1.0002 1.00138 0.992911
1.00017 0.999711 0.994591
1.0003 1.00057 0.993524
0.999941 0.997967 0.996728
1.0002 0.999621 0.994629
1.00032 1.00052 0.993564
0.999839 0.996693 0.999281
0.999995 0.997804 0.996791
1.00021 0.999547 0.994701
0.999906 0.996507 0.999305
1.00004 0.997631 0.996871
0.999962 0.996338 0.999331
0.993952 1.00277 0.969231
0.992936 1.00379 0.984749
0.99376 1.00351 0.989836
1.00003 1.00251 0.992146
1.00023 1.00124 0.993034
1.0001 1.00188 0.99259
1.00009 1.00178 0.992715
1.0001 1.00212 0.992361
1.00004 1.00227 0.992342
1.00004 1.00259 0.992029
0.999949 1.0023 0.992342
1.00012 1.00162 0.992819
1.0002 1.00171 0.992585
1.00003 1.00188 0.992752
0.999875 1.00227 0.993028
0.99485 0.999789 0.939132
0.994551 1.00407 0.955682
0.993628 1.00453 0.969303
0.994914 0.999899 0.941547
0.995318 0.999936 0.950401
0.995137 1.00009 0.957701
0.995959 0.998184 0.973708
0.996391 0.99524 0.981155
0.994789 0.998136 0.933019
0.995258 1.00008 0.958654
0.99707 0.999914 0.945542
0.99557 0.997462 0.982504
0.996046 1.00006 0.963207
0.997459 0.999802 0.944421
0.999246 1.00053 0.995442
0.999754 1.00104 0.994191
1.00008 1.00164 0.992932
0.99507 0.998841 0.99742
0.998095 1.00028 0.997948
0.999692 1.00106 0.994017
0.998874 1.00112 0.996321
0.99573 1.00092 0.996549
0.997777 1.00083 0.995211
0.99463 1.00007 0.943741
0.993455 1.00288 0.972297
0.993048 1.00362 0.98952
0.996041 1.00084 0.999707
0.994841 0.999464 0.981654
0.993653 1.00344 0.967646
0.995556 1.00004 0.959699
0.997369 0.999794 0.942526
0.994924 0.999623 0.940518
0.997637 0.999494 0.995349
0.994695 0.999185 0.947653
0.998297 0.997306 0.944304
0.995022 0.999661 0.976201
0.996401 1.00057 0.961677
0.99876 0.999152 0.995604
0.999847 0.995137 0.943275
0.997905 0.999883 0.96145
0.995129 1.00024 0.974759
0.999221 0.998879 0.997727
1.00167 0.998512 0.993503
1.00377 0.996983 0.990891
0.999942 1.00336 0.99077
1.00291 0.999964 0.9887
1.0045 0.996738 0.989146
1.00202 1.00345 0.987344
1.00362 1.00021 0.987476
1.00486 0.997389 0.988132
1.00302 1.00297 0.986042
1.00451 0.999533 0.986527
1.00498 0.997405 0.987664
1.00473 0.998004 0.987859
1.00386 1.00091 0.986669
1.00443 0.999353 0.986979
1.00235 1.00308 0.986901
1.00281 1.00328 0.986143
1.00342 1.00198 0.986017
1.00126 1.00317 0.989157
1.00152 1.00394 0.987827
1.00182 1.00465 0.986307
1.0007 1.00267 0.990709
1.00085 1.00322 0.98992
1.00073 1.00363 0.98956
1.00007 1.00174 0.992758
1.00035 1.00278 0.991256
1.00027 1.00379 0.990376
0.999597 0.99898 0.996318
0.999975 1.00105 0.993603
1.00015 1.00236 0.992043
0.999444 0.997441 0.999267
0.999655 0.998614 0.996625
0.999949 1.00038 0.994316
0.999563 0.997158 0.999289
0.99975 0.99827 0.996813
0.999643 0.996982 0.999302
1.00012 1.00205 0.992425
1.00019 1.00165 0.992633
1.00025 1.00102 0.993147
1.00011 0.999859 0.994547
1.00028 1.00071 0.993401
1.00019 1.00138 0.992876
0.999878 0.998124 0.996693
1.00017 0.999715 0.99459
1.0003 1.00057 0.993525
0.99977 0.996861 0.999265
0.999937 0.997968 0.99673
1.00019 0.999639 0.994627
0.999846 0.996669 0.999286
0.999991 0.997802 0.996794
0.999912 0.99648 0.999311
0.994677 1.00001 0.942346
0.993944 1.00279 0.969063
0.992818 1.00379 0.984866
1 1.00258 0.992097
1.00006 1.003 0.991679
0.99995 1.00292 0.99185
1.00011 1.00179 0.99275
1.00012 1.00207 0.992409
1.00001 1.00226 0.992308
0.999983 1.00231 0.992315
1.00001 1.00261 0.991996
0.999841 1.0034 0.991664
1.00008 1.00157 0.992883
1.00003 1.0019 0.992718
0.999826 1.0021 0.993024
0.999139 0.997411 0.943025
0.994769 0.999867 0.937004
0.994727 1.00416 0.955238
0.994637 0.99808 0.928683
0.995763 0.999871 0.947692
0.996094 1.00004 0.961043
0.995991 0.995234 0.97855
0.995285 0.997545 0.980228
0.997008 0.999381 0.945012
0.995989 1.00005 0.959386
0.996103 0.997372 0.981085
0.997331 1.00084 0.956852
1.00113 1.00016 0.993039
0.999421 1.00041 0.995298
0.999861 1.00097 0.994181
0.99553 1.00105 0.996743
0.99923 1.00103 0.996134
0.99833 1.00119 0.994602
1.00116 0.999932 0.990044
0.999981 0.995183 0.943434
0.994641 1.00041 0.946172
0.993295 1.00287 0.975993
0.997551 0.99951 0.995495
0.994868 0.999626 0.976884
0.994725 0.999158 0.947598
0.996336 1.00075 0.956903
0.999317 0.999047 0.947327
0.998698 0.999406 0.994393
0.999914 0.995426 0.944504
0.999314 0.998751 0.956486
0.995242 0.999933 0.977419
0.999495 0.998453 0.995297
1.0004 0.997001 0.95888
0.995994 1.00108 0.97996
1.00117 0.998156 0.994255
1.00365 0.996717 0.990854
1.00498 0.994884 0.990169
1.00291 1.00024 0.988636
1.00441 0.996711 0.989146
1.00491 0.995518 0.989635
1.00349 1.00021 0.987523
1.00478 0.997395 0.988078
1.00515 0.996177 0.988636
1.00461 0.999598 0.986505
1.00503 0.997442 0.987646
1.00504 0.996917 0.988135
1.00479 0.997681 0.988051
1.00468 0.99793 0.987928
1.00429 0.999062 0.987623
1.00344 1.00135 0.986967
1.00386 1.00091 0.98667
1.00435 0.999341 0.986989
1.00199 1.00275 0.987975
1.00237 1.00311 0.987055
1.00278 1.00318 0.98631
1.00103 1.00258 0.990144
1.00128 1.00318 0.989133
1.00138 1.00395 0.987846
1.00027 1.00199 0.992119
1.00074 1.00264 0.990709
1.00089 1.00321 0.989904
0.999601 0.999476 0.99578
1.0001 1.00167 0.992757
1.00039 1.00275 0.991265
0.999413 0.997715 0.999196
0.999598 0.999037 0.996287
0.99999 1.00102 0.993587
0.999474 0.997474 0.998759
0.999665 0.998629 0.996613
0.99955 0.997237 0.999274
1.00014 1.00251 0.991919
1.0001 1.00211 0.992388
1.00017 1.00151 0.992833
1.00021 1.00165 0.99263
1.00025 1.00103 0.99315
1.00003 1.00013 0.99441
0.999811 0.998279 0.99667
1.00011 0.999852 0.994552
1.00027 1.00074 0.993406
0.999692 0.997026 0.999255
0.999874 0.99812 0.996694
1.00017 0.999719 0.99459
0.999778 0.99684 0.99927
0.999933 0.99797 0.996732
0.999852 0.996641 0.999292
0.999932 0.995384 0.945621
0.994734 1.00033 0.941889
0.993938 1.00282 0.968891
0.999978 1.00266 0.992049
0.999942 1.00303 0.991736
0.999987 1.00297 0.991763
1.00027 1.00325 0.991049
0.999876 1.00352 0.991406
1.00001 1.00233 0.992288
1 1.00262 0.991963
0.999801 1.00326 0.991691
0.999696 1.00394 0.990862
1.00016 1.00249 0.991815
1.00239 1.00078 0.989631
0.999854 1.00185 0.993026
0.999829 1.00191 0.993021
0.999747 0.998447 0.957935
0.998377 0.997617 0.944008
0.994768 0.99983 0.937303
0.997485 0.999877 0.941726
0.995874 1.00061 0.959164
0.995509 0.997598 0.983358
0.995911 0.99749 0.983184
0.997011 0.999803 0.962239
0.998222 0.99976 0.978149
1.00355 0.99851 0.9897
1.00077 0.999967 0.993039
0.999573 1.0003 0.995152
0.998625 1.00144 0.994033
1.00194 1.00073 0.988851
1.00071 0.995709 0.956711
0.999968 0.995487 0.945859
0.994681 1.00075 0.948636
0.998598 0.999653 0.993158
0.994862 1.00029 0.974864
0.999798 0.994946 0.945026
0.998362 1.00034 0.96171
0.999408 0.999098 0.995468
1.0015 0.995684 0.959554
0.995897 1.00083 0.976485
1.00092 1.0015 0.992475
1.0002 0.997547 0.98391
1.00354 0.996471 0.990819
1.00497 0.9949 0.989936
1.00502 0.994982 0.989955
1.00432 0.996725 0.989143
1.00479 0.995656 0.989626
1.00518 0.995116 0.989583
1.00471 0.997424 0.988023
1.00517 0.996138 0.988607
1.0051 0.996258 0.988673
1.00508 0.997476 0.987627
1.00505 0.996974 0.9881
1.00499 0.997266 0.987997
1.00473 0.997572 0.988173
1.0046 0.998353 0.987754
1.00463 0.997869 0.987999
1.00431 0.99902 0.987615
1.00398 0.99991 0.987397
1.00294 1.00155 0.98746
1.00343 1.0014 0.98693
1.00385 1.00091 0.98667
1.00157 1.0024 0.98934
1.00196 1.00277 0.988087
1.00239 1.00315 0.987208
1.00048 1.00202 0.991652
1.00108 1.00258 0.990124
1.00131 1.00319 0.989109
0.999662 1.00001 0.995133
1.00029 1.00196 0.992127
1.00076 1.00263 0.99071
0.99941 0.998024 0.999088
0.999595 0.999552 0.995753
1.00013 1.00161 0.992755
0.99943 0.997772 0.999166
0.999597 0.999099 0.996256
0.999478 0.997527 0.999224
1.0004 1.00281 0.991182
1.00014 1.00248 0.991919
1.00016 1.00202 0.992275
1.00008 1.00215 0.99235
1.00015 1.00159 0.99276
0.999977 1.0006 0.994016
1.00024 1.00102 0.993152
1.00004 1.0001 0.994419
0.999728 0.998495 0.996612
0.999605 0.997202 0.999246
0.999804 0.998279 0.996672
1.00011 0.999848 0.994557
0.999702 0.997006 0.999258
0.999871 0.998119 0.996696
0.999784 0.996817 0.999274
1.00163 0.995539 0.960332
0.999844 0.995448 0.944225
0.994767 1.00071 0.941011
0.999927 1.00315 0.991621
0.999917 1.00293 0.991847
0.999885 1.00352 0.991448
1.00023 1.00322 0.991085
1.00044 1.00388 0.990067
0.999876 1.00376 0.990988
0.999759 1.00312 0.991717
0.999927 1.00404 0.990565
1.00006 1.00279 0.991643
1.00062 1.00306 0.989842
1.00278 1.00098 0.989615
1.00385 0.999493 0.98745
1.00214 1.00076 0.989844
0.999618 1.00219 0.993168
0.99765 0.999945 0.976774
0.99994 0.998547 0.958131
0.998337 0.997767 0.947121
0.998584 1.00066 0.956875
0.996004 0.997657 0.984916
0.998665 0.999192 0.982493
1.00243 0.998355 0.990764
1.00349 0.998365 0.990097
1.00065 0.999763 0.993036
1.00327 1.00171 0.987622
0.999106 0.997583 0.978632
1.00134 0.995249 0.962279
0.999949 0.99596 0.943133
0.999371 0.99965 0.995599
0.995662 1.00105 0.9788
1.00105 0.995112 0.960438
1.00082 1.00069 0.992615
0.999519 0.997888 0.98254
1.00357 1.00068 0.989588
1.00457 0.996195 0.98945
1.00496 0.99495 0.9897
1.00502 0.995016 0.989892
1.00514 0.995145 0.989812
1.00468 0.995774 0.989619
1.00518 0.995165 0.989561
1.00513 0.99579 0.989168
1.00519 0.996076 0.988577
1.0051 0.99632 0.988648
1.00507 0.997023 0.988122
1.00506 0.99703 0.988066
1.00496 0.997271 0.98802
1.00483 0.997972 0.987584
1.00466 0.997457 0.988294
1.0046 0.998219 0.987823
1.00439 0.999208 0.987396
1.00433 0.99897 0.987606
1.00398 0.999912 0.987373
1.00362 1.00044 0.987607
1.00231 1.00158 0.988541
1.00289 1.00162 0.987557
1.00341 1.00145 0.986893
1.00085 1.00195 0.991058
1.00159 1.00238 0.989333
1.00193 1.0028 0.9882
0.999716 1.00052 0.994524
1.00051 1.00204 0.991648
1.00112 1.00257 0.990103
0.999438 0.998354 0.998931
0.99968 1.00002 0.995122
1.00033 1.00192 0.992135
0.999435 0.99808 0.99904
0.999594 0.999617 0.995725
0.999449 0.997825 0.999134
1.00061 1.0033 0.990323
1.00041 1.00279 0.991224
1.00035 1.00236 0.991676
1.00013 1.00247 0.99192
1.00017 1.00208 0.9922
1.00001 1.00117 0.993391
1.00014 1.00166 0.992687
0.999984 1.0006 0.994026
0.999642 0.998823 0.996439
1.00006 1.00007 0.994427
0.999725 0.998477 0.99662
0.999518 0.997417 0.999229
0.999618 0.99718 0.999249
0.999798 0.998276 0.996674
0.999711 0.996989 0.999261
0.998507 0.998623 0.978
1.00157 0.995975 0.955796
0.99981 0.995651 0.94629
1.00127 1.00355 0.9889
0.999901 1.00352 0.991489
1.00019 1.00319 0.991122
0.999946 1.00383 0.990917
1.00039 1.00396 0.990027
1.00042 1.00325 0.990416
1.00015 1.00415 0.990267
1.00004 1.00307 0.991472
1.00081 1.00296 0.990074
1.00252 1.00111 0.989526
1.00401 0.999966 0.987065
1.00474 0.998143 0.987388
1.00395 0.99951 0.98715
1.00194 1.00066 0.990057
1.00151 0.998449 0.993101
0.997797 1.00024 0.975342
0.999419 0.998068 0.958678
0.99861 0.998752 0.980695
1.00243 0.997493 0.992428
1.00306 0.998145 0.990495
1.00307 0.997406 0.988551
0.998545 0.996434 0.981327
1.00083 0.995497 0.956537
1.00072 0.999959 0.992753
0.999559 0.998306 0.981061
1.00347 0.999183 0.989749
1.00456 0.996392 0.989438
1.00511 0.99596 0.989451
1.00514 0.996517 0.989373
1.005 0.995015 0.989827
1.00514 0.995044 0.989847
1.00511 0.995611 0.989439
1.00517 0.995223 0.989538
1.00513 0.995813 0.989158
1.00511 0.996807 0.988308
1.00509 0.996395 0.988623
1.00507 0.997041 0.988101
1.005 0.997917 0.987347
1.00494 0.997278 0.988043
1.00485 0.997979 0.987581
1.00468 0.998676 0.987251
1.0046 0.99809 0.987893
1.00438 0.999089 0.987428
1.00402 0.999773 0.987411
1.00399 0.999914 0.98735
1.00359 1.00043 0.987544
1.00302 1.00078 0.988311
1.00145 1.00146 0.990459
1.00228 1.00163 0.988639
1.00283 1.00169 0.987653
0.999818 1.00089 0.993964
1.00087 1.00195 0.99105
1.00162 1.00236 0.989326
0.999407 0.998772 0.998756
0.999791 1.00043 0.994516
1.00054 1.00205 0.991644
0.999449 0.998429 0.998872
0.999696 1.00004 0.99511
0.999463 0.99814 0.998988
1.0011 1.00332 0.989183
1.00058 1.00328 0.990342
1.00061 1.00266 0.990991
1.00042 1.00276 0.991266
1.00034 1.00235 0.991695
1.00011 1.00163 0.992779
1.00017 1.00214 0.992125
0.999992 1.00122 0.993391
0.99957 0.999286 0.996089
0.999986 1.0006 0.994034
0.999643 0.998785 0.996459
0.999454 0.997662 0.999185
0.999724 0.998463 0.996628
0.999528 0.997379 0.999236
0.999628 0.997158 0.999252
1.00204 0.998558 0.9911
0.998515 0.998536 0.974638
1.00062 0.996276 0.960781
1.00136 1.00291 0.988929
1.00312 1.00166 0.987208
1.00104 1.00358 0.989003
1.00002 1.00389 0.990845
1.00034 1.00404 0.989982
1.0007 1.00317 0.99016
1.00375 1.00012 0.987665
1.00095 1.00288 0.990306
1.002 1.00124 0.989437
1.00378 1.00009 0.987376
1.00506 0.998422 0.986674
1.00507 0.996441 0.988436
1.00481 0.998138 0.987301
1.00413 0.999584 0.986852
1.00179 0.998371 0.99327
0.997423 1.00089 0.973247
1.00263 0.996692 0.994083
1.00514 0.996223 0.989704
1.00292 0.997441 0.988748
0.999174 0.996075 0.977577
1.00337 0.997775 0.98992
1.00455 0.996873 0.989417
1.00512 0.99563 0.989607
1.00513 0.996235 0.989234
1.00514 0.995735 0.989152
1.00515 0.995889 0.988684
1.00514 0.994971 0.989881
1.00511 0.995625 0.989429
1.0051 0.996775 0.98833
1.00514 0.99584 0.989149
1.0051 0.996883 0.988228
1.0051 0.997759 0.987358
1.00506 0.99706 0.98808
1.005 0.997926 0.987355
1.00487 0.998513 0.987057
1.00487 0.997987 0.987578
1.00468 0.998674 0.987246
1.00434 0.999323 0.987263
1.00436 0.998968 0.987461
1.00399 0.999742 0.987417
1.00342 1.00023 0.98808
1.00356 1.00041 0.98748
1.00297 1.00076 0.988275
1.00202 1.00081 0.990053
1.00002 1.00088 0.993541
1.00145 1.00147 0.990454
1.00225 1.00168 0.988737
0.999306 0.999298 0.998595
0.999902 1.00079 0.99395
1.0009 1.00198 0.991041
0.999403 0.998882 0.998701
0.999847 1.00039 0.994507
0.999464 0.998505 0.998813
1.00215 1.00247 0.987779
1.00111 1.00332 0.989042
1.00111 1.0027 0.989981
1.00056 1.00325 0.99036
1.00056 1.00265 0.991012
1.00024 1.00203 0.992217
1.00033 1.00233 0.991714
1.00008 1.00169 0.992776
0.99958 0.999784 0.995568
0.999977 1.00126 0.993391
0.999583 0.999216 0.996114
0.999427 0.99794 0.999089
0.999642 0.998746 0.996481
0.999454 0.99762 0.999202
0.99954 0.997348 0.999242
1.00511 0.995891 0.989019
1.00212 0.998281 0.99019
0.998486 0.997698 0.975436
1.00379 1.00044 0.987276
1.00112 1.00271 0.989643
1.00416 0.999462 0.987156
1.00322 1.00161 0.987161
1.00081 1.00363 0.98911
1.0051 0.998138 0.9869
1.00098 1.00307 0.989908
1.00386 1.00016 0.987319
1.00511 0.997502 0.987443
1.00361 1.00021 0.987686
1.00506 0.998335 0.986756
1.00503 0.996519 0.988507
1.00476 0.998208 0.987204
1.00189 0.998293 0.99347
1.00517 0.996264 0.988497
1.00514 0.996305 0.989721
1.00277 0.997198 0.988928
1.00512 0.995227 0.98977
1.00512 0.995979 0.989096
1.00513 0.995712 0.9893
1.00516 0.995943 0.988805
1.00513 0.996709 0.988265
1.0051 0.995609 0.989419
1.0051 0.996795 0.988336
1.00515 0.997641 0.987401
1.00509 0.996957 0.988147
1.00509 0.997831 0.987301
1.00499 0.998605 0.986773
1.00501 0.997936 0.987363
1.00486 0.998519 0.987059
1.00455 0.999111 0.98708
1.00468 0.998673 0.98724
1.00433 0.999321 0.987264
1.00376 0.999833 0.987844
1.00396 0.999708 0.987423
1.0034 1.00024 0.988087
1.00243 1.00037 0.989741
1.00291 1.00075 0.988239
1.00202 1.00083 0.990046
1.00022 1.00066 0.994346
0.99933 0.999797 0.996395
1.0001 1.0008 0.99403
1.00145 1.0015 0.990449
0.999315 0.999432 0.998535
1 1.00068 0.993934
0.999402 0.998979 0.99864
1.00447 0.999004 0.987256
1.00317 1.00087 0.987546
1.00232 1.00243 0.987683
1.00179 1.00227 0.989087
1.00111 1.00332 0.988901
1.00106 1.00272 0.990008
1.00053 1.00215 0.991579
1.00051 1.00265 0.991033
1.0002 1.00204 0.992226
0.999669 1.00028 0.994935
1.00004 1.00177 0.992772
0.999577 0.99974 0.995585
0.999405 0.99829 0.998937
0.999593 0.999149 0.996139
0.999413 0.99789 0.999124
0.999455 0.997574 0.999217
1.00516 0.996773 0.988053
1.00513 0.996099 0.989466
1.0023 0.998142 0.98928
1.00499 0.998246 0.987029
1.00364 1.00043 0.987539
1.00087 1.00249 0.990346
1.0042 0.999527 0.987238
1.00333 1.00156 0.987114
1.00514 0.997608 0.987551
1.0051 0.998156 0.986837
1.00396 1.00023 0.986971
1.00511 0.997495 0.987422
1.00507 0.998231 0.986838
1.00502 0.996553 0.988597
1.00517 0.996867 0.988187
1.00517 0.99621 0.988558
1.00515 0.996362 0.989742
1.00511 0.995722 0.989444
1.00516 0.995992 0.988927
1.00514 0.996608 0.988403
1.00516 0.997653 0.987399
1.0051 0.996825 0.988342
1.00515 0.997657 0.987388
1.00512 0.998604 0.986545
1.00507 0.9979 0.987244
1.00497 0.998604 0.986784
1.00469 0.999184 0.986748
1.00486 0.998525 0.987061
1.00455 0.999112 0.98708
1.00397 0.999605 0.987662
1.00433 0.999319 0.987265
1.00375 0.999832 0.987848
1.00272 1.00011 0.989463
1.00339 1.00024 0.988093
1.00243 1.00037 0.989732
1.00044 1.00036 0.9943
1.002 1.00085 0.990039
1.00034 1.00062 0.994296
0.999312 1.00015 0.996242
0.999248 0.999937 0.99738
1.00023 1.00072 0.994456
0.999319 0.999553 0.998473
1.00501 0.998433 0.986809
1.00395 0.999827 0.987597
1.00441 0.998767 0.987532
1.00258 1.00137 0.988446
1.00325 1.00091 0.987555
1.00248 1.00238 0.987586
1.00177 1.00228 0.989084
1.00102 1.00192 0.990857
1.001 1.00273 0.990034
1.00049 1.00213 0.991593
0.999799 1.00071 0.994299
1.00015 1.00204 0.992234
0.999623 1.00031 0.994945
0.999333 0.998796 0.998748
0.999578 0.999687 0.9956
0.999394 0.99822 0.998991
0.999406 0.99784 0.999156
1.00515 0.997193 0.98784
1.00515 0.996769 0.988046
1.00514 0.996237 0.989895
1.00514 0.997903 0.987172
1.005 0.998313 0.987002
1.00351 1.00042 0.987804
1.00424 0.999577 0.987321
1.00514 0.997585 0.987483
1.00509 0.998171 0.986773
1.0051 0.997495 0.9874
1.00514 0.997476 0.987592
1.00517 0.996904 0.988119
1.00517 0.99617 0.988618
1.00515 0.997894 0.987145
1.00515 0.996498 0.988541
1.00517 0.997657 0.987397
1.00516 0.998435 0.986685
1.00514 0.997674 0.987376
1.00509 0.998607 0.986559
1.00488 0.999191 0.986364
1.00494 0.998605 0.986796
1.00468 0.999185 0.986752
1.00412 0.999649 0.987343
1.00454 0.999113 0.987079
1.00397 0.999606 0.987659
1.00289 0.999961 0.989276
1.00374 0.999831 0.987851
1.00272 1.00009 0.989459
1.00065 1.00009 0.994245
1.00243 1.00037 0.989722
1.00055 1.00033 0.994247
0.999363 1.00014 0.996224
1.00047 1.00054 0.994249
0.999191 1.00029 0.996321
0.999078 1.00005 0.998511
1.00509 0.998489 0.986681
1.00465 0.999005 0.98697
1.00498 0.998476 0.986895
1.00333 1.00046 0.988241
1.00395 0.999698 0.987585
1.00438 0.998541 0.987802
1.00169 1.00132 0.990154
1.0026 1.00139 0.988425
1.00334 1.00097 0.987563
1.00176 1.0023 0.989081
1.001 1.0019 0.990867
0.99996 1.00096 0.993758
1.00045 1.00211 0.991606
0.99971 1.0008 0.994314
0.999213 0.999443 0.998565
0.999576 1.00034 0.994956
0.999339 0.998687 0.998816
0.999389 0.99815 0.999041
1.00514 0.99765 0.987364
1.00515 0.997141 0.987856
1.00515 0.996762 0.988039
1.00514 0.997849 0.987212
1.005 0.998386 0.986973
1.00514 0.99756 0.987415
1.00513 0.997897 0.987233
1.00514 0.997539 0.987555
1.00517 0.996941 0.988051
1.00516 0.997855 0.987204
1.00515 0.998362 0.98673
1.00517 0.997661 0.987395
1.00515 0.998484 0.986598
1.00503 0.999016 0.986272
1.00506 0.998608 0.986572
1.00487 0.999199 0.986376
1.00435 0.99971 0.986861
1.00467 0.999182 0.986755
1.00412 0.999647 0.987338
1.00301 0.999948 0.989052
1.00398 0.999607 0.987657
1.00291 0.999946 0.989273
1.00078 0.999961 0.994158
1.00273 1.00007 0.989454
1.00072 1.00008 0.994188
0.999481 1.00003 0.99618
1.00065 1.00029 0.994201
0.999236 1.00024 0.996316
0.999057 1.00049 0.996392
1.00511 0.998182 0.986947
1.00482 0.99892 0.986691
1.00509 0.998422 0.98673
1.00398 0.999649 0.987685
1.00466 0.99907 0.98697
1.00492 0.998515 0.986985
1.00233 1.00059 0.989653
1.00333 1.00039 0.988091
1.00396 0.99956 0.987573
1.00019 1.00089 0.993359
1.00169 1.00131 0.990163
1.00261 1.00141 0.988405
1.00099 1.00188 0.990878
0.999854 1.00106 0.993778
0.999149 1.00005 0.998421
0.999619 1.0009 0.994328
0.999227 0.999298 0.998632
0.999348 0.99857 0.998876
1.00514 0.997934 0.98714
1.00514 0.997637 0.987392
1.00515 0.99709 0.987871
1.00514 0.997793 0.987252
1.00514 0.998362 0.98674
1.00513 0.997908 0.987239
1.00514 0.997601 0.987517
1.00517 0.997824 0.987263
1.00515 0.998331 0.986765
1.00508 0.998917 0.986388
1.00515 0.998532 0.986512
1.00502 0.999078 0.986258
1.00459 0.999519 0.986505
1.00485 0.999211 0.986388
1.00434 0.999708 0.986868
1.00322 0.999974 0.988637
1.00413 0.999651 0.987334
1.00303 0.999937 0.989046
1.00086 0.999984 0.992914
1.00292 0.999927 0.989271
1.00083 0.999936 0.993578
0.999521 1.00001 0.998283
1.0008 1.00007 0.994133
0.999361 1.00007 0.996275
0.999116 1.00036 0.996392
1.00511 0.998197 0.986968
1.0049 0.99882 0.98667
1.00511 0.998234 0.986931
1.00425 0.999283 0.987235
1.00483 0.998926 0.986733
1.00509 0.998357 0.986779
1.00283 0.999967 0.989043
1.004 0.999664 0.987679
1.00468 0.999143 0.986971
1.00049 1.0005 0.993128
1.00234 1.00055 0.989523
1.00332 1.00031 0.98794
0.999197 1.0004 0.998329
1.00012 1.00094 0.993376
1.00169 1.0013 0.990173
0.999762 1.00114 0.993796
0.999128 0.999907 0.998472
0.999235 0.99914 0.998695
1.00514 0.998304 0.986797
1.00514 0.997925 0.987151
1.00514 0.997626 0.98742
1.00508 0.998891 0.986377
1.00513 0.99833 0.986779
1.00514 0.997917 0.987245
1.00514 0.998294 0.9868
1.00508 0.998913 0.986384
1.00473 0.99939 0.986626
1.00502 0.999142 0.986245
1.00458 0.999582 0.986634
1.0035 0.99986 0.987966
1.00433 0.999702 0.986874
1.00323 0.999968 0.988635
1.001 1.00006 0.992591
1.00305 0.999928 0.989039
1.00088 0.999975 0.992904
0.999553 0.99999 0.99825
1.00084 0.999929 0.993049
0.999471 0.999977 0.997277
0.999244 1.00011 0.996365
1.0051 0.998397 0.986838
1.00493 0.998745 0.986705
1.00511 0.99818 0.986965
1.00435 0.999307 0.9872
1.0049 0.998838 0.98663
1.00511 0.998284 0.986915
1.00312 0.999657 0.988822
1.00426 0.999355 0.987394
1.00484 0.998928 0.986775
1.00074 1.00009 0.993023
1.00286 0.999966 0.989012
1.00401 0.999675 0.987674
0.999325 1.0004 0.998284
1.00045 1.00052 0.993148
1.00234 1.00052 0.989394
0.999148 1.00029 0.998357
1.00004 1.00098 0.993401
0.999109 0.999758 0.998529
1.00506 0.99878 0.986517
1.00514 0.998321 0.986778
1.00514 0.997914 0.987161
1.0047 0.999301 0.986731
1.00508 0.998857 0.986425
1.00513 0.998305 0.986819
1.00508 0.99891 0.986381
1.00473 0.999387 0.986622
1.00367 0.999746 0.987769
1.00456 0.999648 0.986764
1.00348 0.999899 0.988096
1.0012 1.00006 0.992211
1.00324 0.999958 0.988633
1.00101 1.00006 0.992575
0.99963 0.999995 0.998171
1.00088 0.999972 0.992895
0.999577 0.999983 0.998226
0.999518 0.999907 0.996167
1.00494 0.998792 0.986788
1.0051 0.998325 0.986848
1.00441 0.999258 0.987152
1.00492 0.998744 0.986704
1.00511 0.998163 0.986961
1.00324 0.999682 0.988885
1.00436 0.999302 0.987195
1.0049 0.998857 0.98659
1.00092 0.999863 0.992913
1.00312 0.999709 0.988926
1.00426 0.999433 0.987553
0.999494 1.0002 0.99825
1.00073 1.00008 0.993034
1.00288 0.99996 0.988982
0.99928 1.00036 0.998294
1.00041 1.00053 0.993164
0.999087 1.00021 0.998396
1.00463 0.999272 0.986911
1.00506 0.998803 0.986502
1.00514 0.998339 0.986759
1.00364 0.99968 0.987876
1.0047 0.999315 0.986731
1.00508 0.998819 0.986473
1.00472 0.999386 0.986618
1.00366 0.999743 0.98777
1.00133 1.00004 0.992005
1.00346 0.999935 0.988225
1.0012 1.00006 0.992199
0.999767 1.00001 0.998056
1.00102 1.00006 0.99256
0.999679 0.999995 0.998131
0.999609 0.999975 0.998196
1.00447 0.99927 0.987075
1.00493 0.998709 0.986787
1.0051 0.998252 0.986858
1.00331 0.999703 0.988728
1.00442 0.99926 0.987141
1.00491 0.998744 0.986702
1.00103 0.999852 0.992729
1.00324 0.999693 0.988881
1.00437 0.999296 0.98719
0.999624 1.00002 0.998203
1.00092 0.999859 0.99292
1.00312 0.999753 0.98903
0.999447 1.00022 0.99826
1.00073 1.00008 0.993043
0.999226 1.00033 0.998306
1.00357 0.999749 0.988217
1.00465 0.999249 0.98677
1.00507 0.998824 0.986486
1.00133 0.999978 0.992035
1.00365 0.999676 0.987861
1.00471 0.999328 0.986731
1.00366 0.999737 0.987771
1.00132 1.00002 0.992006
0.999872 1.00001 0.997962
1.00121 1.00007 0.992186
0.999804 1.00001 0.998015
0.999717 0.999995 0.998089
1.00343 0.999738 0.988483
1.00448 0.999222 0.987021
1.00493 0.998629 0.986785
1.00116 0.999951 0.993603
1.00332 0.99971 0.98872
1.00443 0.999262 0.98713
0.999704 0.999953 0.998132
1.00102 0.999865 0.992735
1.00323 0.999702 0.988876
0.999585 1.00005 0.998222
1.00092 0.999863 0.992926
0.999406 1.00022 0.998267
1.00132 0.999984 0.992078
1.00357 0.999715 0.988119
1.00467 0.999224 0.986629
0.999902 1 0.997947
1.00133 0.999984 0.992036
1.00366 0.999674 0.987846
1.00133 1.00001 0.992004
0.999894 1.00001 0.997949
0.999854 1.00001 0.997982
1.0013 0.999996 0.993355
1.00343 0.999733 0.988486
1.0045 0.999174 0.986967
0.999543 0.99998 0.998271
1.00109 0.999964 0.992525
1.00333 0.999714 0.988712
0.999674 0.999978 0.998161
1.00102 0.999885 0.992742
0.999554 1.00007 0.998237
0.99987 1.00001 0.995566
1.00132 0.999982 0.992696
1.00357 0.999683 0.98802
0.999895 1 0.997949
1.00132 0.999988 0.992041
0.999904 1.00001 0.997938
0.999589 1.00001 0.995888
1.00123 0.999996 0.992855
1.00343 0.999731 0.98849
0.999636 0.999989 0.997029
1.0011 0.999976 0.992518
0.999647 0.999996 0.998187
0.999871 0.999997 0.997965
1.00127 0.999983 0.992154
0.999885 1 0.997954
0.999707 1 0.996934
1.00118 0.999996 0.992315
0.99971 0.999983 0.998118
0.999841 0.999993 0.997993
0.999775 0.999988 0.99805

TENSORS stress float
0.00125555 -3.15796e-05 9.57237e-05
-3.15796e-05 0.000345615 -1.08714e-05
9.57237e-05 -1.08714e-05 0.0003254
0.00368445 -8.82074e-05 8.98596e-05
-8.82074e-05 0.00166732 4.92672e-06
8.98596e-05 4.92672e-06 0.00166018
0.00128201 2.78797e-05 4.89496e-05
2.78797e-05 0.000372853 -3.27689e-06
4.89496e-05 -3.27689e-06 0.000344148
0.00167464 -2.71004e-05 0.000108863
-2.71004e-05 0.000542093 -7.81738e-06
0.000108863 -7.81738e-06 0.000521782
0.00141936 -3.30265e-05 0.000100448
-3.30265e-05 0.000427106 -1.07251e-05
0.000100448 -1.07251e-05 0.000405487
0.00114711 -5.77054e-06 8.44081e-05
-5.77054e-06 0.000283844 -9.59096e-06
8.44081e-05 -9.59096e-06 0.000265815
0.0011831 -7.70774e-06 9.5604e-06
-7.70774e-06 0.000256717 -6.13955e-06
9.5604e-06 -6.13955e-06 0.000197159
0.00359079 -0.000110059 4.43943e-06
-0.000110059 0.00161636 -4.82283e-07
4.43943e-06 -4.82283e-07 0.00160787
0.00450781 -0.000142807 1.21911e-05
-0.000142807 0.00212227 2.0634e-06
1.21911e-05 2.0634e-06 0.00210092
0.00369956 -0.000198521 3.67018e-06
-0.000198521 0.00171035 2.70128e-06
3.67018e-06 2.70128e-06 0.00168151
0.00124624 -2.34825e-05 7.32199e-05
-2.34825e-05 0.000319219 5.13874e-06
7.32199e-05 5.13874e-06 0.00030891
0.000751435 5.4654e-05 9.52987e-06
5.4654e-05 1.92077e-05 6.73057e-06
9.52987e-06 6.73057e-06 -3.17032e-05
0.00169624 -1.29292e-05 0.000124897
-1.29292e-05 0.000541759 1.37007e-06
0.000124897 1.37007e-06 0.000520612
0.00127281 2.45153e-05 1.87824e-05
2.45153e-05 0.000330222 1.96633e-06
1.87824e-05 1.96633e-06 0.000302077
0.00134958 9.72518e-05 6.25199e-07
9.72518e-05 0.000426149 4.31832e-06
6.25199e-07 4.31832e-06 0.000387009
0.00148628 -1.18506e-05 4.45574e-05
-1.18506e-05 0.000445049 -2.66793e-06
4.45574e-05 -2.66793e-06 0.000422007
0.00117688 3.63715e-05 4.11368e-05
3.63715e-05 0.000311807 -3.15191e-06
4.11368e-05 -3.15191e-06 0.000286226
0.00136765 1.93349e-05 5.01011e-05
1.93349e-05 0.000409948 -3.53676e-06
5.01011e-05 -3.53676e-06 0.000382058
0.00129907 -3.05442e-05 -2.07793e-05
-3.05442e-05 0.00031175 5.42628e-07
-2.07793e-05 5.42628e-07 0.000256733
0.00500774 -5.14478e-05 0.000130126
-5.14478e-05 0.00235539 -1.94827e-06
0.000130126 -1.94827e-06 0.00235095
0.00165852 -1.67765e-05 0.000110861
-1.67765e-05 0.000531023 -6.06095e-06
0.000110861 -6.06095e-06 0.000510867
0.00158573 -3.17306e-05 0.000105422
-3.17306e-05 0.000502805 -9.51979e-06
0.000105422 -9.51979e-06 0.000481657
0.00147336 -4.29267e-05 2.45226e-05
-4.29267e-05 0.000345186 -3.67783e-06
2.45226e-05 -3.67783e-06 0.000292697
0.00131435 -1.52346e-05 1.34512e-05
-1.52346e-05 0.000300748 -5.84603e-06
1.34512e-05 -5.84603e-06 0.000242468
0.00113383 3.34089e-05 6.66868e-05
3.34089e-05 0.00026723 -7.87721e-06
6.66868e-05 -7.87721e-06 0.000250691
0.00104185 -3.30192e-06 9.27052e-06
-3.30192e-06 0.000198148 -5.24363e-06
9.27052e-06 -5.24363e-06 0.000142605
0.00166992 -0.0001246 6.15088e-06
-0.0001246 0.000409549 -2.90239e-06
6.15088e-06 -2.90239e-06 0.000317011
0.00347705 -0.000126367 -6.83607e-05
-0.000126367 0.00155457 -3.1673e-06
-6.83607e-05 -3.1673e-06 0.00154455
0.00288904 -4.93274e-05 -5.82801e-05
-4.93274e-05 0.0012347 -1.23584e-06
-5.82801e-05 -1.23584e-06 0.00121166
0.00248714 -9.63698e-05 -3.62776e-05
-9.63698e-05 0.00103151 -1.09231e-06
-3.62776e-05 -1.09231e-06 0.00100808
0.00327401 -0.000109804 3.09189e-06
-0.000109804 0.00143336 -2.48599e-07
3.09189e-06 -2.48599e-07 0.0014284
0.000669357 4.50465e-05 -1.29703e-07
4.50465e-05 -1.99879e-05 -2.31475e-07
-1.29703e-07 -2.31475e-07 -7.0784e-05
0.00158641 4.00112e-05 0.000109161
4.00112e-05 0.000499561 7.19765e-06
0.000109161 7.19765e-06 0.000478449
0.00174392 4.37656e-05 0.000101907
4.37656e-05 0.000605134 8.83055e-06
0.000101907 8.83055e-06 0.000584415
0.00238561 0.000108599 6.41154e-05
0.000108599 0.000861321 7.56954e-06
6.41154e-05 7.56954e-06 0.000814067
0.00281722 -0.000116464 1.5412e-05
-0.000116464 0.0011801 1.36246e-06
1.5412e-05 1.36246e-06 0.00117614
0.00213817 7.1388e-05 5.13308e-05
7.1388e-05 0.000766749 6.64053e-06
5.13308e-05 6.64053e-06 0.000721498
0.000669401 1.26592e-05 9.09637e-06
1.26592e-05 -1.9041e-05 8.52504e-06
9.09637e-06 8.52504e-06 -6.35295e-05
0.00093679 9.03572e-05 4.28357e-06
9.03572e-05 7.8584e-05 1.51276e-06
4.28357e-06 1.51276e-06 -1.23153e-05
0.00251953 -7.80379e-05 4.58646e-05
-7.80379e-05 0.00100473 2.88321e-06
4.58646e-05 2.88321e-06 0.00101166
0.00509199 1.39957e-05 5.37956e-08
1.39957e-05 0.00239698 -8.3664e-07
5.37956e-08 -8.3664e-07 0.00239334
0.00311526 2.19368e-05 -4.97442e-05
2.19368e-05 0.00132952 -1.10597e-06
-4.97442e-05 -1.10597e-06 0.00131362
0.00516743 5.24663e-05 0.000135401
5.24663e-05 0.00243668 8.26471e-07
0.000135401 8.26471e-07 0.00243244
0.00135229 -2.23218e-05 1.18273e-05
-2.23218e-05 0.000372101 1.10839e-06
1.18273e-05 1.10839e-06 0.000342398
0.000767708 -2.15289e-06 1.52971e-05
-2.15289e-06 -6.97708e-05 2.23342e-06
1.52971e-05 2.23342e-06 -0.000130054
0.00471786 4.27691e-05 4.36194e-05
4.27691e-05 0.00220541 2.24542e-06
4.36194e-05 2.24542e-06 0.00219488
0.00242206 2.01184e-05 6.81057e-05
2.01184e-05 0.000843303 4.17434e-06
6.81057e-05 4.17434e-06 0.00080059
0.00127469 -2.45089e-05 -2.32274e-05
-2.45089e-05 0.000337215 2.43772e-06
-2.32274e-05 2.43772e-06 0.000310581
0.00135964 2.59853e-05 -1.26022e-05
2.59853e-05 0.000408061 3.16943e-06
-1.26022e-05 3.16943e-06 0.000379266
0.00124279 9.44386e-05 -2.52951e-06
9.44386e-05 0.000362379 3.73128e-06
-2.52951e-06 3.73128e-06 0.000326941
0.00136194 -5.68372e-05 -5.18195e-05
-5.68372e-05 0.000335872 7.06346e-06
-5.18195e-05 7.06346e-06 0.000286573
0.00326543 3.99156e-05 -5.24587e-05
3.99156e-05 0.00141401 -1.078e-06
-5.24587e-05 -1.078e-06 0.00139148
0.00147545 -1.50154e-05 4.47238e-05
-1.50154e-05 0.000437758 -1.6984e-06
4.47238e-05 -1.6984e-06 0.000414375
0.0011152 5.06688e-05 3.16967e-05
5.06688e-05 0.000264285 -2.52772e-06
3.16967e-05 -2.52772e-06 0.000243997
0.0014542 -2.11433e-06 4.67403e-05
-2.11433e-06 0.000437805 -3.50153e-06
4.67403e-05 -3.50153e-06 0.000413378
0.00150889 -4.77577e-05 -1.6452e-05
-4.77577e-05 0.000361857 5.49877e-07
-1.6452e-05 5.49877e-07 0.000311427
0.00117664 -1.71205e-05 -1.77694e-05
-1.71205e-05 0.00026448 3.45421e-07
-1.77694e-05 3.45421e-07 0.000212394
0.00140325 -4.84864e-05 -1.79626e-05
-4.84864e-05 0.000340016 7.5232e-07
-1.79626e-05 7.5232e-07 0.000287297
0.00178597 -0.000129399 -3.07788e-06
-0.000129399 0.000468023 1.01718e-06
-3.07788e-06 1.01718e-06 0.000374232
0.00508382 5.11962e-05 0.000125898
5.11962e-05 0.00239311 1.3238e-07
0.000125898 1.3238e-07 0.00238934
0.00164938 -3.59017e-06 0.00011492
-3.59017e-06 0.000522398 -4.23534e-06
0.00011492 -4.23534e-06 0.000501447
0.00232184 5.9498e-05 1.39569e-05
5.9498e-05 0.000794903 -1.19198e-06
1.39569e-05 -1.19198e-06 0.000740899
0.00145136 -4.233e-05 2.52221e-05
-4.233e-05 0.000331574 -3.11184e-06
2.52221e-05 -3.11184e-06 0.000279122
0.00143056 -3.51228e-05 2.05884e-05
-3.51228e-05 0.000334481 -4.74043e-06
2.05884e-05 -4.74043e-06 0.000280036
0.00195462 -9.15207e-05 8.10148e-06
-9.15207e-05 0.000454515 -1.79211e-06
8.10148e-06 -1.79211e-06 0.000365103
0.00136899 -0.000106917 8.80189e-06
-0.000106917 0.000196107 -3.73158e-06
8.80189e-06 -3.73158e-06 0.000101158
0.00117884 4.79413e-05 5.3926e-05
4.79413e-05 0.000274136 -7.14135e-06
5.3926e-05 -7.14135e-06 0.000262754
0.00091637 2.28158e-05 7.72683e-06
2.28158e-05 0.000141431 -4.0532e-06
7.72683e-06 -4.0532e-06 9.50959e-05
0.00144828 -0.000110607 4.2049e-06
-0.000110607 0.000339982 -2.184e-06
4.2049e-06 -2.184e-06 0.000251014
0.00119266 -0.000126479 4.08366e-06
-0.000126479 8.08749e-05 -1.76972e-06
4.08366e-06 -1.76972e-06 -3.83806e-05
0.00450338 -3.51798e-05 -0.000104397
-3.51798e-05 0.00210473 -5.77218e-06
-0.000104397 -5.77218e-06 0.0020977
0.00316701 -0.000114555 -5.85116e-05
-0.000114555 0.00137358 -2.81431e-06
-5.85116e-05 -2.81431e-06 0.00136901
0.00374892 -0.000128267 -7.72776e-05
-0.000128267 0.00171558 -4.19557e-06
-7.72776e-05 -4.19557e-06 0.00170152
0.000594338 4.30573e-05 -8.2259e-06
4.30573e-05 -5.63391e-05 -7.22611e-06
-8.2259e-06 -7.22611e-06 -0.000106841
0.00491876 2.26002e-05 -2.74821e-06
2.26002e-05 0.0023118 -6.39976e-07
-2.74821e-06 -6.39976e-07 0.00230729
0.0043846 -9.0348e-05 -1.5195e-06
-9.0348e-05 0.00205806 1.47042e-07
-1.5195e-06 1.47042e-07 0.00204334
0.000618794 9.10805e-05 -7.03395e-07
9.10805e-05 -9.46018e-05 -2.0245e-07
-7.03395e-07 -2.0245e-07 -0.000153946
0.00194509 -7.95535e-05 -2.36023e-05
-7.95535e-05 0.000699697 -4.24693e-07
-2.36023e-05 -4.24693e-07 0.000693948
0.00063548 7.3847e-05 -2.64545e-07
7.3847e-05 -4.58453e-05 -9.07908e-08
-2.64545e-07 -9.07908e-08 -0.000100604
0.00120294 -7.25663e-06 1.39432e-05
-7.25663e-06 0.00027791 3.48658e-07
1.39432e-05 3.48658e-07 0.000237366
0.000872432 8.61841e-05 2.3779e-07
8.61841e-05 4.26996e-05 -1.86819e-07
2.3779e-07 -1.86819e-07 -4.73885e-05
0.00275512 -8.6052e-05 5.43112e-05
-8.6052e-05 0.00113624 2.95298e-06
5.43112e-05 2.95298e-06 0.00114043
0.00067595 -6.42579e-05 -5.31591e-07
-6.42579e-05 -6.80852e-06 4.87982e-06
-5.31591e-07 4.87982e-06 -3.14991e-05
0.000745828 6.83772e-05 1.58747e-05
6.83772e-05 -5.30922e-05 7.33688e-06
1.58747e-05 7.33688e-06 -0.000112187
0.000789895 9.48549e-05 1.7454e-05
9.48549e-05 1.43391e-05 1.0042e-05
1.7454e-05 1.0042e-05 -4.46461e-05
0.00107022 9.96755e-05 8.49271e-06
9.96755e-05 1.33327e-05 3.88264e-06
8.49271e-06 3.88264e-06 -8.77543e-05
0.00164885 -4.95599e-05 2.84803e-05
-4.95599e-05 0.000526272 4.16313e-06
2.84803e-05 4.16313e-06 0.0004957
0.000988339 0.000102261 5.16973e-06
0.000102261 6.98733e-05 2.88458e-06
5.16973e-06 2.88458e-06 -2.36947e-05
0.000914421 6.87636e-05 4.03048e-06
6.87636e-05 9.52171e-05 2.13057e-06
4.03048e-06 2.13057e-06 6.75982e-06
0.000865533 0.000113687 1.78835e-06
0.000113687 6.7489e-06 -3.42985e-07
1.78835e-06 -3.42985e-07 -0.000105085
0.00230415 -7.04452e-05 3.73399e-05
-7.04452e-05 0.000881576 2.92615e-06
3.73399e-05 2.92615e-06 0.000891221
0.00244154 -7.9084e-05 1.48024e-06
-7.9084e-05 0.000962926 -1.31753e-07
1.48024e-06 -1.31753e-07 0.000969793
0.00490146 5.18866e-05 -0.000127201
5.18866e-05 0.00229874 -4.78652e-06
-0.000127201 -4.78652e-06 0.0022952
0.00504177 3.3763e-05 -0.000127064
3.3763e-05 0.00237076 -2.03293e-06
-0.000127064 -2.03293e-06 0.00236742
0.0051607 5.59075e-05 3.75335e-06
5.59075e-05 0.00243578 -6.18528e-07
3.75335e-06 -6.18528e-07 0.00243004
0.00315834 -1.66826e-05 -5.46325e-05
-1.66826e-05 0.00135015 -9.1768e-07
-5.46325e-05 -9.1768e-07 0.00133399
0.00164308 1.11586e-05 2.95174e-05
1.11586e-05 0.000408761 1.809e-07
2.95174e-05 1.809e-07 0.000356
0.0031209 2.93549e-05 -5.44274e-05
2.93549e-05 0.00133302 -2.05524e-06
-5.44274e-05 -2.05524e-06 0.00131718
0.00161191 3.48512e-05 2.72821e-05
3.48512e-05 0.000405871 6.67923e-07
2.72821e-05 6.67923e-07 0.000355513
0.00518307 0.000115313 0.000127514
0.000115313 0.00245221 1.8177e-06
0.000127514 1.8177e-06 0.00244301
0.000723065 -4.31519e-06 1.46106e-05
-4.31519e-06 -9.8376e-05 5.90245e-07
1.46106e-05 5.90245e-07 -0.000158803
0.00248917 -5.55237e-06 7.02598e-05
-5.55237e-06 0.000874829 3.05444e-06
7.02598e-05 3.05444e-06 0.000830633
0.00120568 2.05299e-05 9.82253e-06
2.05299e-05 8.74259e-06 1.51291e-06
9.82253e-06 1.51291e-06 -9.15374e-05
0.00236075 6.45093e-05 6.70068e-05
6.45093e-05 0.000818333 4.85994e-06
6.70068e-05 4.85994e-06 0.000773919
0.00119178 5.44242e-05 9.44906e-06
5.44242e-05 2.16424e-05 2.30639e-06
9.44906e-06 2.30639e-06 -7.57562e-05
0.00170972 2.0927e-05 -0.000123189
2.0927e-05 0.000551445 5.49943e-07
-0.000123189 5.49943e-07 0.000530622
0.00124685 -3.66059e-05 -2.13396e-05
-3.66059e-05 0.000321541 1.98782e-06
-2.13396e-05 1.98782e-06 0.000293836
0.00106454 7.93596e-05 -6.94209e-06
7.93596e-05 0.000245538 2.74139e-06
-6.94209e-06 2.74139e-06 0.000219669
0.00132945 -6.16567e-06 -1.96082e-05
-6.16567e-06 0.000375953 2.84811e-06
-1.96082e-05 2.84811e-06 0.000348823
0.0015696 -3.89727e-05 -5.89792e-05
-3.89727e-05 0.000391407 4.59916e-06
-5.89792e-05 4.59916e-06 0.000343354
0.00146157 -5.79407e-05 -5.52013e-05
-5.79407e-05 0.000366639 7.00028e-06
-5.52013e-05 7.00028e-06 0.000316908
0.00125731 -3.83435e-05 -4.52929e-05
-3.83435e-05 0.000299858 6.21022e-06
-4.52929e-05 6.21022e-06 0.000252483
0.0019318 -0.000135623 -1.32367e-05
-0.000135623 0.00054286 5.25478e-06
-1.32367e-05 5.25478e-06 0.000447622
0.00514574 -3.49489e-05 -2.44583e-06
-3.49489e-05 0.00242584 -6.13827e-07
-2.44583e-06 -6.13827e-07 0.00242139
0.00146914 3.97025e-06 5.02619e-05
3.97025e-06 0.000431383 -1.27074e-06
5.02619e-05 -1.27074e-06 0.00040709
0.00115946 5.78007e-06 -3.17428e-05
5.78007e-06 0.000149972 3.46762e-07
-3.17428e-05 3.46762e-07 9.49683e-05
0.00148703 -3.90265e-05 -1.73392e-05
-3.90265e-05 0.000347876 3.45754e-07
-1.73392e-05 3.45754e-07 0.000297619
0.00211243 7.56427e-05 4.75271e-05
7.56427e-05 0.000791574 -8.57053e-07
4.75271e-05 -8.57053e-07 0.000784418
0.00133283 1.74e-05 -1.1074e-05
1.74e-05 0.000361558 -6.48099e-08
-1.1074e-05 -6.48099e-08 0.00031681
0.00148665 -5.17918e-05 -1.6836e-05
-5.17918e-05 0.000361417 6.28774e-07
-1.6836e-05 6.28774e-07 0.000309647
0.00177218 -8.47622e-05 -5.51075e-06
-8.47622e-05 0.000354526 9.28171e-07
-5.51075e-06 9.28171e-07 0.000264117
0.00162564 -0.000121629 -2.31485e-06
-0.000121629 0.000431689 9.18592e-07
-2.31485e-06 9.18592e-07 0.000340515
0.00165762 -0.000116267 -1.56283e-06
-0.000116267 0.000351687 2.22529e-07
-1.56283e-06 2.22529e-07 0.000257132
0.00118271 -0.000125168 -7.24762e-08
-0.000125168 7.55706e-05 -9.62734e-10
-7.24762e-08 -9.62734e-10 -4.34404e-05
0.000741261 3.89681e-06 1.48061e-05
3.89681e-06 -8.50297e-05 -1.21475e-06
1.48061e-05 -1.21475e-06 -0.000145153
0.00144321 -1.72027e-05 2.16294e-05
-1.72027e-05 0.000319796 -2.34429e-06
2.16294e-05 -2.34429e-06 0.000266228
0.00163056 -1.39024e-05 9.53269e-06
-1.39024e-05 0.000246054 -1.4328e-06
9.53269e-06 -1.4328e-06 0.000151063
0.00153661 -6.32297e-05 9.10318e-06
-6.32297e-05 0.000223422 -1.79438e-06
9.10318e-06 -1.79438e-06 0.000132596
0.00155117 -9.97329e-05 9.73654e-06
-9.97329e-05 0.000250375 -2.97377e-06
9.73654e-06 -2.97377e-06 0.000155735
0.00178455 -9.83956e-05 2.92074e-06
-9.83956e-05 0.000275266 -3.16538e-07
2.92074e-06 -3.16538e-07 0.000166215
0.00294588 9.93461e-05 5.39824e-05
9.93461e-05 0.0012397 -2.69892e-06
5.39824e-05 -2.69892e-06 0.00124084
0.00126486 -0.000120304 4.39389e-06
-0.000120304 6.37554e-05 -1.91724e-06
4.39389e-06 -1.91724e-06 -5.44662e-05
0.000614571 4.44773e-05 3.38908e-06
4.44773e-05 -3.57554e-05 -5.51268e-06
3.38908e-06 -5.51268e-06 -7.75038e-05
0.000665401 -7.33892e-05 3.14715e-06
-7.33892e-05 -4.20884e-05 -1.788e-06
3.14715e-06 -1.788e-06 -0.000127149
0.00129037 -0.000137771 3.64179e-06
-0.000137771 0.000193588 -1.94598e-06
3.64179e-06 -1.94598e-06 7.29117e-05
0.00133308 -0.000141142 2.23943e-06
-0.000141142 0.000106646 -9.94735e-07
2.23943e-06 -9.94735e-07 -2.42874e-05
0.000562045 6.87393e-05 1.66629e-07
6.87393e-05 -6.68497e-05 -5.58397e-06
1.66629e-07 -5.58397e-06 -9.99611e-05
0.000748884 3.98704e-05 2.39018e-07
3.98704e-05 1.12257e-05 -2.7899e-06
2.39018e-07 -2.7899e-06 -5.03886e-05
0.00480021 2.41792e-05 -0.000120821
2.41792e-05 0.00225043 -6.14039e-06
-0.000120821 -6.14039e-06 0.00224618
0.00407183 -0.000120324 -8.14414e-05
-0.000120324 0.00189597 -5.79265e-06
-8.14414e-05 -5.79265e-06 0.0018792
0.000575881 8.03717e-05 -1.30729e-05
8.03717e-05 -0.000116664 -7.73059e-06
-1.30729e-05 -7.73059e-06 -0.000176151
0.00288429 -9.97772e-05 -5.23791e-05
-9.97772e-05 0.00121209 -2.6774e-06
-5.23791e-05 -2.6774e-06 0.00121269
0.000576941 -1.52447e-05 -3.51147e-06
-1.52447e-05 -6.03472e-05 -6.60047e-06
-3.51147e-06 -6.60047e-06 -0.00010298
0.000551079 6.6539e-05 -1.01518e-05
6.6539e-05 -8.70649e-05 -7.39463e-06
-1.01518e-05 -7.39463e-06 -0.000142065
0.000830802 8.30128e-05 -4.31361e-06
8.30128e-05 1.91749e-05 -2.06338e-06
-4.31361e-06 -2.06338e-06 -7.03417e-05
0.00267677 -8.74914e-05 1.58599e-06
-8.74914e-05 0.00109482 -1.61885e-07
1.58599e-06 -1.61885e-07 0.0010989
0.000639582 -6.05518e-05 5.79759e-08
-6.05518e-05 -2.78505e-05 1.48224e-07
5.79759e-08 1.48224e-07 -5.14332e-05
0.00152932 7.84736e-05 2.5847e-05
7.84736e-05 0.000376033 6.19155e-07
2.5847e-05 6.19155e-07 0.000323094
0.0013685 8.95075e-05 2.17824e-05
8.95075e-05 0.000334763 5.08626e-07
2.17824e-05 5.08626e-07 0.000282646
0.00106868 0.000100729 3.69894e-07
0.000100729 1.34553e-05 -1.87873e-07
3.69894e-07 -1.87873e-07 -8.77148e-05
0.000652017 -4.42409e-05 -3.00091e-07
-4.42409e-05 -1.84625e-05 1.35998e-07
-3.00091e-07 1.35998e-07 -5.37323e-05
0.000925901 9.80776e-05 2.35034e-07
9.80776e-05 3.69174e-05 4.38091e-07
2.35034e-07 4.38091e-07 -5.60415e-05
0.000832999 6.20524e-05 3.55048e-07
6.20524e-05 5.11418e-05 -2.5524e-07
3.55048e-07 -2.5524e-07 -3.62275e-05
0.000812715 0.00011079 -8.33421e-08
0.00011079 -2.30995e-05 -6.92184e-08
-8.33421e-08 -6.92184e-08 -0.000135353
0.000649786 -5.36425e-05 2.2564e-06
-5.36425e-05 -1.80807e-05 5.1303e-06
2.2564e-06 5.1303e-06 -4.78612e-05
0.000708708 -5.32691e-05 1.10165e-06
-5.32691e-05 -1.2486e-06 3.97291e-06
1.10165e-06 3.97291e-06 -1.84008e-05
0.000697672 -8.53717e-06 2.10693e-06
-8.53717e-06 -7.91679e-06 2.47979e-06
2.10693e-06 2.47979e-06 -6.65898e-05
0.00110851 8.57239e-05 9.21353e-06
8.57239e-05 -2.66673e-06 3.11021e-06
9.21353e-06 3.11021e-06 -0.000103262
0.00103388 0.000105879 6.99784e-06
0.000105879 4.71715e-05 3.79379e-06
6.99784e-06 3.79379e-06 -5.11306e-05
0.00130067 0.000125442 4.82381e-06
0.000125442 6.26614e-05 2.13182e-06
4.82381e-06 2.13182e-06 -6.13262e-05
0.000857533 4.44404e-05 3.10002e-06
4.44404e-05 7.38731e-05 2.54662e-06
3.10002e-06 2.54662e-06 -7.00611e-06
0.000911641 0.000117587 1.63605e-06
0.000117587 -1.89082e-05 9.16247e-07
1.63605e-06 9.16247e-07 -0.000132861
0.00108987 0.00012231 2.10582e-06
0.00012231 0.000167502 3.34353e-07
2.10582e-06 3.34353e-07 5.38844e-05
0.00107468 0.0001346 -1.62268e-06
0.0001346 0.000106961 -1.66475e-06
-1.62268e-06 -1.66475e-06 -1.58522e-05
0.00216218 -6.25831e-05 3.16182e-05
-6.25831e-05 0.000795673 3.08032e-06
3.16182e-05 3.08032e-06 0.000808102
0.00224364 -7.04422e-05 9.27401e-07
-7.04422e-05 0.000848038 -1.04463e-07
9.27401e-07 -1.04463e-07 0.000857902
0.00235434 -7.88822e-05 -3.66874e-05
-7.88822e-05 0.000915788 -2.75616e-06
-3.66874e-05 -2.75616e-06 0.000922867
0.000607934 5.53651e-05 1.68244e-06
5.53651e-05 -5.14694e-05 -4.63288e-06
1.68244e-06 -4.63288e-06 -7.67703e-05
0.00276189 8.9739e-05 4.73974e-05
8.9739e-05 0.00113558 -2.82746e-06
4.73974e-05 -2.82746e-06 0.00113968
0.00490992 5.55097e-05 -0.000129056
5.55097e-05 0.00230423 -5.9763e-06
-0.000129056 -5.9763e-06 0.00230029
0.00491755 -1.82951e-05 -0.000121209
-1.82951e-05 0.00230637 -2.89688e-06
-0.000121209 -2.89688e-06 0.00230308
0.000732565 4.3287e-05 -1.44576e-05
4.3287e-05 -7.11556e-05 -3.72703e-06
-1.44576e-05 -3.72703e-06 -0.000128146
0.000721042 1.74421e-05 -1.47019e-05
1.74421e-05 -9.03524e-05 -2.24605e-06
-1.47019e-05 -2.24605e-06 -0.000150296
0.00511908 -5.88927e-05 -0.000126115
-5.88927e-05 0.00241247 -3.89611e-07
-0.000126115 -3.89611e-07 0.00240788
0.00517627 2.65472e-06 -1.12002e-06
2.65472e-06 0.00244084 4.73717e-07
-1.12002e-06 4.73717e-07 0.00243686
0.000720359 -2.52538e-06 -1.58521e-07
-2.52538e-06 -9.90845e-05 -2.59649e-07
-1.58521e-07 -2.59649e-07 -0.000159594
0.0016168 1.39842e-05 2.83854e-05
1.39842e-05 0.000403581 4.92169e-07
2.83854e-05 4.92169e-07 0.000352456
0.00121378 2.45014e-05 1.55792e-07
2.45014e-05 1.33373e-05 -9.81416e-08
1.55792e-07 -9.81416e-08 -8.70264e-05
0.000675082 4.83177e-05 2.22545e-07
4.83177e-05 -9.89773e-05 -1.06647e-07
2.22545e-07 -1.06647e-07 -0.000155783
0.00117866 5.6367e-05 -1.05922e-07
5.6367e-05 1.54831e-05 4.40023e-09
-1.05922e-07 4.40023e-09 -8.22044e-05
0.000710276 -1.17542e-05 1.49376e-05
-1.17542e-05 -0.000106336 -3.04481e-07
1.49376e-05 -3.04481e-07 -0.000167092
0.00122886 8.78741e-06 9.92887e-06
8.78741e-06 1.10049e-05 4.71283e-07
9.92887e-06 4.71283e-07 -9.10872e-05
0.00119374 3.75003e-05 9.5483e-06
3.75003e-05 1.51602e-05 1.95203e-06
9.5483e-06 1.95203e-06 -8.31108e-05
0.00147081 2.57436e-05 4.32684e-06
2.57436e-05 6.66223e-05 9.01321e-07
4.32684e-06 9.01321e-07 -4.96549e-05
0.00115213 6.93344e-05 9.43504e-06
6.93344e-05 5.07244e-06 2.51685e-06
9.43504e-06 2.51685e-06 -9.33104e-05
0.00145858 6.43378e-05 4.20618e-06
6.43378e-05 8.10968e-05 1.14334e-06
4.20618e-06 1.14334e-06 -3.25793e-05
0.00515869 -3.02206e-05 -0.000136723
-3.02206e-05 0.00243203 -6.87415e-07
-0.000136723 -6.87415e-07 0.00242777
0.00128633 -2.71826e-05 -1.56202e-05
-2.71826e-05 0.000339639 1.26419e-06
-1.56202e-05 1.26419e-06 0.000311383
-8.89105e-05 -5.49118e-07 -1.34341e-05
-5.49118e-07 -0.000531008 2.30193e-06
-1.34341e-05 2.30193e-06 -0.000596733
0.00156845 -2.49933e-05 -5.98723e-05
-2.49933e-05 0.000388299 3.23164e-06
-5.98723e-05 3.23164e-06 0.000340634
0.00293146 0.000129195 -1.65366e-05
0.000129195 0.00125099 1.29778e-06
-1.65366e-05 1.29778e-06 0.00124217
0.00178114 -1.69226e-05 -3.72216e-05
-1.69226e-05 0.000592732 5.14079e-06
-3.72216e-05 5.14079e-06 0.000553984
0.00154444 -5.17294e-05 -5.77128e-05
-5.17294e-05 0.00038955 6.12873e-06
-5.77128e-05 6.12873e-06 0.000340104
0.00157767 -7.79164e-05 -1.77323e-05
-7.79164e-05 0.000247874 3.18122e-06
-1.77323e-05 3.18122e-06 0.000156558
0.00195175 -0.000126375 -1.33484e-05
-0.000126375 0.000510564 4.60553e-06
-1.33484e-05 4.60553e-06 0.00041632
0.00184542 -0.000133458 -1.0413e-05
-0.000133458 0.000546457 4.56241e-06
-1.0413e-05 4.56241e-06 0.000452948
0.00117685 -0.000124098 -3.64632e-06
-0.000124098 7.2483e-05 1.62486e-06
-3.64632e-06 1.62486e-06 -4.63171e-05
0.000713935 6.31926e-06 2.63645e-08
6.31926e-06 -0.000100397 -2.52559e-07
2.63645e-08 -2.52559e-07 -0.000160403
0.00151806 -2.2625e-05 -1.97866e-05
-2.2625e-05 0.000357863 9.30353e-08
-1.97866e-05 9.30353e-08 0.000306299
0.00121091 -1.23376e-05 -3.70412e-06
-1.23376e-05 1.84917e-05 1.29974e-07
-3.70412e-06 1.29974e-07 -7.94577e-05
0.00178993 -6.57502e-05 -2.63465e-06
-6.57502e-05 0.000359734 3.55552e-07
-2.63465e-06 3.55552e-07 0.000270466
0.00294714 9.77572e-05 -9.84126e-07
9.77572e-05 0.00124154 -2.06599e-07
-9.84126e-07 -2.06599e-07 0.00124247
0.0011406 2.50137e-05 2.19248e-06
2.50137e-05 0.000247788 3.25665e-07
2.19248e-06 3.25665e-07 0.000209156
0.00113307 -8.55773e-05 3.46726e-07
-8.55773e-05 0.000207215 -1.85738e-07
3.46726e-07 -1.85738e-07 0.000121934
0.00154708 -9.86012e-05 -2.82468e-06
-9.86012e-05 0.000249662 5.00989e-07
-2.82468e-06 5.00989e-07 0.000154845
0.00148908 -9.02552e-05 -2.07863e-06
-9.02552e-05 0.00011292 6.00695e-07
-2.07863e-06 6.00695e-07 2.76486e-06
0.00100686 -0.000122595 -5.26392e-07
-0.000122595 4.36e-05 -1.75296e-07
-5.26392e-07 -1.75296e-07 -7.60139e-05
0.00150739 -0.000127468 -4.65939e-09
-0.000127468 0.00019457 -3.03613e-07
-4.65939e-09 -3.03613e-07 7.72688e-05
0.00131412 -0.000139506 8.72806e-08
-0.000139506 9.67799e-05 1.33072e-07
8.72806e-08 1.33072e-07 -3.38172e-05
0.000597108 6.03816e-05 -9.92806e-07
6.03816e-05 -4.91273e-05 -5.03983e-10
-9.92806e-07 -5.03983e-10 -8.11493e-05
0.000719922 2.49807e-05 -1.86649e-07
2.49807e-05 -6.56437e-06 1.96289e-07
-1.86649e-07 1.96289e-07 -6.76055e-05
0.00120955 -6.40805e-06 9.71897e-06
-6.40805e-06 2.20661e-06 -1.37143e-06
9.71897e-06 -1.37143e-06 -9.93262e-05
0.00157026 -3.36746e-05 8.99499e-06
-3.36746e-05 0.00022886 -1.56313e-06
8.99499e-06 -1.56313e-06 0.000136671
0.00188144 -1.94348e-05 3.05232e-06
-1.94348e-05 0.000295801 -5.47702e-07
3.05232e-06 -5.47702e-07 0.000184773
0.00119904 -6.24945e-05 4.87821e-06
-6.24945e-05 -4.96888e-05 -1.19727e-06
4.87821e-06 -1.19727e-06 -0.000161043
0.00162643 -0.000119735 4.34078e-06
-0.000119735 0.000209818 -7.64621e-07
4.34078e-06 -7.64621e-07 9.54329e-05
0.00170397 -9.50283e-05 8.64176e-07
-9.50283e-05 0.000177801 3.29956e-07
8.64176e-07 3.29956e-07 6.54213e-05
0.000546497 5.52594e-05 1.75917e-06
5.52594e-05 -7.44713e-05 -5.74408e-06
1.75917e-06 -5.74408e-06 -0.000111522
0.00146105 -0.000133355 1.88884e-06
-0.000133355 0.000109678 -1.1881e-06
1.88884e-06 -1.1881e-06 -1.70935e-05
0.000666544 -4.10483e-05 2.14923e-06
-4.10483e-05 -2.94228e-05 -1.44691e-06
2.14923e-06 -1.44691e-06 -0.000110101
0.000542342 -9.53889e-05 2.46695e-06
-9.53889e-05 -0.000143758 -2.41298e-06
2.46695e-06 -2.41298e-06 -0.000256163
0.00185149 -0.000177413 1.40814e-06
-0.000177413 0.000455083 -6.69754e-07
1.40814e-06 -6.69754e-07 0.000319313
0.00159897 -0.000156974 -2.34776e-07
-0.000156974 0.000205358 5.30163e-07
-2.34776e-07 5.30163e-07 7.19332e-05
0.000806405 -5.26998e-06 1.42354e-06
-5.26998e-06 4.57225e-05 -2.87052e-06
1.42354e-06 -2.87052e-06 -2.67567e-05
0.000734256 3.86397e-05 1.00795e-06
3.86397e-05 -8.86816e-07 -2.10746e-06
1.00795e-06 -2.10746e-06 -5.36451e-05
0.000833442 -3.36993e-05 3.08857e-07
-3.36993e-05 5.84913e-05 -8.25108e-07
3.08857e-07 -8.25108e-07 -3.12455e-05
0.000640913 6.91827e-05 -1.36108e-05
6.91827e-05 -0.000105078 -6.45577e-06
-1.36108e-05 -6.45577e-06 -0.000163996
0.00261661 -8.89487e-05 -4.42887e-05
-8.89487e-05 0.00106307 -2.65771e-06
-4.42887e-05 -2.65771e-06 0.00106704
0.000606824 -5.50015e-05 -1.70825e-06
-5.50015e-05 -4.72571e-05 -4.17905e-06
-1.70825e-06 -4.17905e-06 -6.94845e-05
0.00052965 8.24224e-05 -1.22983e-05
8.24224e-05 -0.000116061 -7.93413e-06
-1.22983e-05 -7.93413e-06 -0.000173031
0.0010603 0.000101756 -8.39531e-06
0.000101756 1.00064e-05 -4.31341e-06
-8.39531e-06 -4.31341e-06 -9.12714e-05
0.000540593 -5.98294e-05 -1.02066e-06
-5.98294e-05 -7.37824e-05 -5.92427e-06
-1.02066e-06 -5.92427e-06 -0.000111545
0.000733416 5.66474e-05 -2.74523e-06
5.66474e-05 -3.34114e-06 -2.32445e-06
-2.74523e-06 -2.32445e-06 -8.914e-05
0.000871768 9.40723e-05 -4.79285e-06
9.40723e-05 8.7021e-06 -2.13675e-06
-4.79285e-06 -2.13675e-06 -8.3697e-05
0.0007558 0.000107718 -2.80584e-06
0.000107718 -5.52788e-05 -2.04712e-07
-2.80584e-06 -2.04712e-07 -0.000167917
0.000604468 -6.3433e-05 1.15724e-06
-6.3433e-05 -4.11152e-05 3.08203e-08
1.15724e-06 3.08203e-08 -7.17753e-05
0.000676853 -4.96192e-05 -1.3585e-07
-4.96192e-05 -1.90468e-05 1.17595e-07
-1.3585e-07 1.17595e-07 -3.54635e-05
0.000715406 -3.91789e-05 1.79043e-07
-3.91789e-05 -1.10183e-06 2.62209e-07
1.79043e-07 2.62209e-07 -5.71836e-05
0.00112662 8.78133e-05 2.79335e-07
8.78133e-05 7.48736e-06 -3.37337e-07
2.79335e-07 -3.37337e-07 -9.34256e-05
0.000994381 0.00010418 4.72519e-07
0.00010418 2.75421e-05 -4.57389e-09
4.72519e-07 -4.57389e-09 -7.04608e-05
0.00130803 0.000126745 2.78103e-07
0.000126745 6.68799e-05 6.76336e-08
2.78103e-07 6.76336e-08 -5.73815e-05
0.000806112 3.99852e-05 -2.63659e-08
3.99852e-05 4.81977e-05 -3.68649e-08
-2.63659e-08 -3.68649e-08 -3.23526e-05
0.0010823 0.000126559 -1.43145e-07
0.000126559 7.32059e-05 -1.13955e-07
-1.43145e-07 -1.13955e-07 -4.11808e-05
0.00102426 0.000117987 3.04454e-07
0.000117987 0.000132592 -4.3214e-07
3.04454e-07 -4.3214e-07 1.93205e-05
0.000955112 0.000129634 -8.28793e-07
0.000129634 4.25002e-05 7.08326e-07
-8.28793e-07 7.08326e-07 -8.04807e-05
0.00072008 -4.44067e-05 2.14055e-06
-4.44067e-05 -6.03234e-06 3.42778e-06
2.14055e-06 3.42778e-06 -1.80694e-05
0.000738916 1.39944e-05 2.4264e-06
1.39944e-05 9.60663e-06 2.23735e-06
2.4264e-06 2.23735e-06 -5.89477e-05
0.000709035 -4.83697e-05 2.18547e-07
-4.83697e-05 -8.13161e-06 2.20355e-06
2.18547e-07 2.20355e-06 -5.39278e-05
0.000837492 2.52057e-05 4.87748e-07
2.52057e-05 6.74285e-05 7.6292e-07
4.87748e-07 7.6292e-07 -1.59344e-05
0.00134529 0.000104882 5.68931e-06
0.000104882 4.32416e-05 1.12924e-06
5.68931e-06 1.12924e-06 -7.72973e-05
0.00123483 0.000133883 3.61943e-06
0.000133883 9.46542e-05 2.50544e-06
3.61943e-06 2.50544e-06 -2.64842e-05
0.00146236 0.000138892 2.36239e-06
0.000138892 9.63982e-05 1.77066e-06
2.36239e-06 1.77066e-06 -3.72745e-05
0.00108761 9.10373e-05 2.13004e-06
9.10373e-05 0.000186053 1.56771e-06
2.13004e-06 1.56771e-06 8.20147e-05
0.00124896 0.000144532 -5.06686e-07
0.000144532 0.000132348 6.57192e-07
-5.06686e-07 6.57192e-07 9.08656e-06
0.00101712 0.000131034 2.72855e-07
0.000131034 0.000127841 -1.72933e-06
2.72855e-07 -1.72933e-06 -4.9633e-06
0.000765201 0.000122851 -1.7804e-07
0.000122851 -8.36113e-05 -1.12368e-06
-1.7804e-07 -1.12368e-06 -0.000209695
0.000780283 -2.35559e-05 1.20315e-06
-2.35559e-05 5.41648e-06 1.62867e-06
1.20315e-06 1.62867e-06 -2.44653e-05
0.000722138 -3.38672e-05 1.5322e-06
-3.38672e-05 -2.1012e-05 3.33347e-06
1.5322e-06 3.33347e-06 -2.73306e-05
0.00209001 -5.52347e-05 2.73241e-05
-5.52347e-05 0.000747187 3.29982e-06
2.73241e-05 3.29982e-06 0.000762089
0.00213031 -6.23373e-05 1.14783e-06
-6.23373e-05 0.000777105 -1.04103e-07
1.14783e-06 -1.04103e-07 0.000789821
0.00218406 -6.95927e-05 -3.23612e-05
-6.95927e-05 0.000814782 -2.92997e-06
-3.23612e-05 -2.92997e-06 0.000825065
0.000646596 4.56222e-05 2.33324e-06
4.56222e-05 -4.04196e-05 -4.07202e-06
2.33324e-06 -4.07202e-06 -6.03032e-05
0.00257472 8.10417e-05 4.09063e-05
8.10417e-05 0.00102972 -3.01374e-06
4.09063e-05 -3.01374e-06 0.00103627
0.000633355 6.09601e-05 -1.47851e-07
6.09601e-05 -3.55982e-05 8.26053e-08
-1.47851e-07 8.26053e-08 -6.22665e-05
0.00278675 8.81827e-05 -1.1093e-06
8.81827e-05 0.00114868 -1.52808e-07
-1.1093e-06 -1.52808e-07 0.00115287
0.000695102 5.31913e-05 -1.40624e-05
5.31913e-05 -8.80573e-05 -4.86988e-06
-1.40624e-05 -4.86988e-06 -0.000145383
0.000722866 2.98256e-05 -1.43286e-05
2.98256e-05 -8.09236e-05 -3.06196e-06
-1.43286e-05 -3.06196e-06 -0.000139438
0.00116402 5.7398e-05 -9.23981e-06
5.7398e-05 8.35426e-06 -2.20134e-06
-9.23981e-06 -2.20134e-06 -8.95376e-05
0.00121422 2.63565e-05 -9.69883e-06
2.63565e-05 1.39296e-05 -1.68804e-06
-9.69883e-06 -1.68804e-06 -8.64727e-05
0.000736164 1.61121e-06 -1.50662e-05
1.61121e-06 -9.06043e-05 -1.1858e-06
-1.50662e-05 -1.1858e-06 -0.000150864
0.00519367 -6.16795e-05 -0.000133468
-6.16795e-05 0.00245039 9.97699e-07
-0.000133468 9.97699e-07 0.00244636
0.000730972 -1.56056e-06 1.06056e-07
-1.56056e-06 -9.58884e-05 -2.72071e-07
1.06056e-07 -2.72071e-07 -0.000156445
0.00123301 1.29191e-05 2.39984e-08
1.29191e-05 1.34242e-05 -3.05426e-07
2.39984e-08 -3.05426e-07 -8.86828e-05
0.00118857 3.81805e-05 2.64572e-09
3.81805e-05 1.30827e-05 -7.28273e-08
2.64572e-09 -7.28273e-08 -8.5323e-05
0.00148681 2.55247e-05 4.33049e-08
2.55247e-05 7.47077e-05 -1.44287e-08
4.33049e-08 -1.44287e-08 -4.1591e-05
0.00116076 7.1924e-05 9.92127e-09
7.1924e-05 1.0303e-05 -1.35158e-07
9.92127e-09 -1.35158e-07 -8.85229e-05
0.00145157 6.64769e-05 -2.04704e-08
6.64769e-05 7.7817e-05 1.09052e-07
-2.04704e-08 1.09052e-07 -3.60386e-05
0.00123869 -7.17554e-07 9.90675e-06
-7.17554e-07 1.41321e-05 -3.0334e-07
9.90675e-06 -3.0334e-07 -8.81963e-05
0.00149397 1.66145e-05 4.32214e-06
1.66145e-05 6.82393e-05 2.22886e-07
4.32214e-06 2.22886e-07 -4.95154e-05
0.00146783 4.49111e-05 4.33789e-06
4.49111e-05 7.77244e-05 9.78072e-07
4.33789e-06 9.78072e-07 -3.69757e-05
0.0016173 2.44032e-05 1.11909e-06
2.44032e-05 9.85106e-05 3.2684e-07
1.11909e-06 3.2684e-07 -1.84426e-05
0.00141105 8.47653e-05 4.33527e-06
8.47653e-05 6.07021e-05 8.04491e-07
4.33527e-06 8.04491e-07 -5.47746e-05
0.00161656 7.05169e-05 1.11536e-06
7.05169e-05 0.000117775 4.92246e-07
1.11536e-06 4.92246e-07 1.07419e-06
0.000721211 9.75478e-06 -1.43576e-05
9.75478e-06 -9.74345e-05 6.18673e-07
-1.43576e-05 6.18673e-07 -0.000157503
0.00159019 -7.99829e-06 -6.17925e-05
-7.99829e-06 0.000394182 2.31741e-06
-6.17925e-05 2.31741e-06 0.000344909
0.000790994 -9.23431e-06 -1.02624e-05
-9.23431e-06 -0.000209309 1.78903e-06
-1.02624e-05 1.78903e-06 -0.00031026
0.00201891 -6.69631e-05 -1.5563e-05
-6.69631e-05 0.000482656 2.39289e-06
-1.5563e-05 2.39289e-06 0.000395123
0.00295755 9.55762e-05 -5.93696e-05
9.55762e-05 0.00124801 2.89105e-06
-5.93696e-05 2.89105e-06 0.00124888
0.00172609 2.22711e-05 -3.10338e-05
2.22711e-05 0.000565182 3.77193e-06
-3.10338e-05 3.77193e-06 0.00053029
0.00162083 -0.000105461 -6.99196e-06
-0.000105461 0.000467031 2.85874e-06
-6.99196e-06 2.85874e-06 0.000380969
0.00153683 -9.73138e-05 -1.48957e-05
-9.73138e-05 0.000245616 3.93433e-06
-1.48957e-05 3.93433e-06 0.000150686
0.00118847 -8.18948e-05 -6.05785e-06
-8.18948e-05 -5.22362e-05 1.05322e-06
-6.05785e-06 1.05322e-06 -0.000163469
0.00174597 -0.000134558 -5.40025e-06
-0.000134558 0.000323361 1.62253e-06
-5.40025e-06 1.62253e-06 0.000206964
0.000717289 -0.000106946 -3.07045e-06
-0.000106946 -0.00010951 1.3933e-06
-3.07045e-06 1.3933e-06 -0.000228015
0.00129554 -0.000137883 -1.39865e-06
-0.000137883 8.70854e-05 1.06953e-06
-1.39865e-06 1.06953e-06 -4.31724e-05
0.000631817 5.20899e-05 -2.47691e-06
5.20899e-05 -3.07917e-05 5.3107e-06
-2.47691e-06 5.3107e-06 -6.23343e-05
0.000704642 1.01321e-05 -1.69963e-06
1.01321e-05 -1.58018e-05 2.49921e-06
-1.69963e-06 2.49921e-06 -7.71619e-05
0.00102229 -2.48126e-06 -4.37732e-07
-2.48126e-06 -9.82239e-05 -2.79758e-07
-4.37732e-07 -2.79758e-07 -0.000200923
0.0015942 -3.55567e-05 -3.04783e-06
-3.55567e-05 0.00024104 2.21313e-07
-3.04783e-06 2.21313e-07 0.000148825
0.0017751 -1.62901e-05 -2.11524e-06
-1.62901e-05 0.00023669 4.66625e-07
-2.11524e-06 4.66625e-07 0.000125108
0.00154768 -6.80073e-05 1.08657e-06
-6.80073e-05 0.000138599 -2.95936e-07
1.08657e-06 -2.95936e-07 2.91823e-05
0.000596307 4.41653e-05 1.63573e-07
4.41653e-05 -5.00735e-05 1.40546e-07
1.63573e-07 1.40546e-07 -8.60218e-05
0.000813855 -5.27474e-05 -2.14946e-07
-5.27474e-05 4.97027e-05 7.81174e-09
-2.14946e-07 7.81174e-09 -3.24392e-05
0.000702942 -0.000104107 9.43146e-07
-0.000104107 -5.56246e-05 -8.4781e-07
9.43146e-07 -8.4781e-07 -0.000167099
0.00173236 -0.000121535 -1.06322e-06
-0.000121535 0.000267178 2.69153e-07
-1.06322e-06 2.69153e-07 0.000152797
0.00156952 -9.02195e-05 -6.52108e-07
-9.02195e-05 0.000102814 5.15707e-07
-6.52108e-07 5.15707e-07 -9.3535e-06
0.00146574 -0.000157393 -1.31903e-06
-0.000157393 0.000247947 6.43165e-07
-1.31903e-06 6.43165e-07 0.000112042
0.00142309 -0.00013132 -9.71213e-08
-0.00013132 8.9853e-05 -4.46578e-07
-9.71213e-08 -4.46578e-07 -3.6651e-05
0.001387 -0.000147088 4.31347e-07
-0.000147088 9.39734e-05 6.72656e-07
4.31347e-07 6.72656e-07 -3.86595e-05
0.000759777 -8.95782e-06 -2.37359e-07
-8.95782e-06 1.97771e-05 -1.21718e-07
-2.37359e-07 -1.21718e-07 -5.26986e-05
0.000777902 -6.99641e-06 -6.03705e-07
-6.99641e-06 2.32865e-05 -2.79311e-07
-6.03705e-07 -2.79311e-07 -6.2449e-05
0.000729635 3.01798e-05 4.69888e-07
3.01798e-05 -4.89767e-06 2.71562e-07
4.69888e-07 2.71562e-07 -5.7056e-05
0.00189991 -1.25864e-06 3.04938e-06
-1.25864e-06 0.000292346 -5.65195e-07
3.04938e-06 -5.65195e-07 0.000178845
0.00164611 -3.97402e-05 3.77277e-06
-3.97402e-05 0.000178697 -6.83626e-07
3.77277e-06 -6.83626e-07 6.8077e-05
0.00179879 -1.52476e-05 1.01963e-06
-1.52476e-05 0.00020137 4.45375e-08
1.01963e-06 4.45375e-08 8.58002e-05
0.00156845 -6.25325e-05 1.25886e-06
-6.25325e-05 9.74964e-05 -9.34808e-07
1.25886e-06 -9.34808e-07 -1.58538e-05
0.00147538 -0.000117233 2.74345e-06
-0.000117233 6.56592e-05 1.90667e-07
2.74345e-06 1.90667e-07 -5.39896e-05
0.00174341 -8.7692e-05 -9.08762e-07
-8.7692e-05 0.000162216 6.98179e-07
-9.08762e-07 6.98179e-07 5.36763e-05
0.00075722 -2.73934e-05 2.23784e-06
-2.73934e-05 2.36769e-05 -2.02775e-06
2.23784e-06 -2.02775e-06 -5.59785e-05
0.00147707 -0.00013614 -6.10063e-07
-0.00013614 7.34986e-05 -6.94591e-07
-6.10063e-07 -6.94591e-07 -5.15804e-05
0.000890546 -0.000106994 1.15544e-06
-0.000106994 7.23717e-05 -2.96985e-07
1.15544e-06 -2.96985e-07 -3.00238e-05
0.00070815 -0.000118194 2.3935e-06
-0.000118194 -7.62453e-05 -3.12285e-06
2.3935e-06 -3.12285e-06 -0.000207658
0.00165854 -0.000175634 1.52998e-06
-0.000175634 0.000314798 3.31297e-07
1.52998e-06 3.31297e-07 0.000170422
0.00196829 -0.000175883 -3.62211e-06
-0.000175883 0.000373813 2.3458e-06
-3.62211e-06 2.3458e-06 0.000245337
0.000751957 2.7207e-05 1.29194e-06
2.7207e-05 2.70401e-06 -1.89161e-06
1.29194e-06 -1.89161e-06 -4.30709e-05
0.000863029 -5.43889e-05 1.06997e-06
-5.43889e-05 6.49976e-05 -5.79971e-08
1.06997e-06 -5.79971e-08 -2.51184e-05
0.000752008 3.30526e-06 3.82458e-07
3.30526e-06 1.0815e-05 -1.3472e-06
3.82458e-07 -1.3472e-06 -6.96208e-05
0.000954678 -9.68585e-05 -3.68066e-07
-9.68585e-05 0.000127144 9.64347e-07
-3.68066e-07 9.64347e-07 2.72076e-05
0.00114222 9.0198e-05 -9.54724e-06
9.0198e-05 1.62637e-05 -3.80298e-06
-9.54724e-06 -3.80298e-06 -8.4992e-05
0.000644716 -4.68512e-05 -2.33436e-06
-4.68512e-05 -3.66708e-05 -3.54195e-06
-2.33436e-06 -3.54195e-06 -5.25294e-05
0.000553832 -6.74301e-05 -3.54577e-07
-6.74301e-05 -6.8124e-05 -5.20684e-06
-3.54577e-07 -5.20684e-06 -9.90452e-05
0.000737428 -5.4895e-05 1.60243e-07
-5.4895e-05 1.26798e-05 -2.59967e-06
1.60243e-07 -2.59967e-06 -4.42781e-05
0.000947173 0.00010213 -6.0261e-06
0.00010213 4.09468e-06 -3.85422e-06
-6.0261e-06 -3.85422e-06 -9.36291e-05
0.00131925 0.000127962 -4.60828e-06
0.000127962 7.30367e-05 -2.08142e-06
-4.60828e-06 -2.08142e-06 -5.14635e-05
0.000740975 3.26743e-05 -2.08255e-06
3.26743e-05 1.55464e-05 -2.24844e-06
-2.08255e-06 -2.24844e-06 -6.48218e-05
0.000976795 0.000114691 -2.39015e-06
0.000114691 0.000107507 -1.64956e-06
-2.39015e-06 -1.64956e-06 -5.55384e-06
0.0012404 0.000134975 -2.11625e-06
0.000134975 0.000158841 -1.1257e-06
-2.11625e-06 -1.1257e-06 4.40419e-05
0.000797287 0.000122476 -1.84556e-06
0.000122476 -4.2308e-05 1.10295e-06
-1.84556e-06 1.10295e-06 -0.000165233
0.000691899 -4.2881e-05 8.26013e-08
-4.2881e-05 -2.1177e-05 3.21785e-08
8.26013e-08 3.21785e-08 -3.29926e-05
0.000760898 1.10704e-05 1.07596e-07
1.10704e-05 2.56337e-05 -4.28259e-08
1.07596e-07 -4.28259e-08 -4.50667e-05
0.000722629 -5.11486e-05 -2.09961e-07
-5.11486e-05 -7.73384e-07 3.21545e-07
-2.09961e-07 3.21545e-07 -4.65778e-05
0.000842824 9.32794e-06 3.26747e-07
9.32794e-06 6.93595e-05 -2.10209e-07
3.26747e-07 -2.10209e-07 -1.27841e-05
0.00139093 0.000107152 1.07272e-06
0.000107152 6.66419e-05 4.64422e-09
1.07272e-06 4.64422e-09 -5.41864e-05
0.00118676 0.000132514 8.95031e-08
0.000132514 7.0851e-05 7.19888e-08
8.95031e-08 7.19888e-08 -5.02781e-05
0.001451 0.000138603 8.5771e-08
0.000138603 9.11254e-05 5.30331e-07
8.5771e-08 5.30331e-07 -4.27049e-05
0.000990319 9.1257e-05 3.47859e-07
9.1257e-05 0.000134367 3.46791e-07
3.47859e-07 3.46791e-07 3.15354e-05
0.00143008 0.00015382 -6.83652e-07
0.00015382 0.000230582 -1.40807e-06
-6.83652e-07 -1.40807e-06 0.000106959
0.00110209 0.00013645 3.64682e-07
0.00013645 0.000173529 -1.10312e-06
3.64682e-07 -1.10312e-06 3.98977e-05
0.000875891 0.000128867 -1.85094e-06
0.000128867 -2.09291e-05 -8.90854e-08
-1.85094e-06 -8.90854e-08 -0.000143866
0.000723566 -3.89772e-05 1.88242e-06
-3.89772e-05 -1.28731e-05 3.34326e-06
1.88242e-06 3.34326e-06 -2.16346e-05
0.000741212 -4.48647e-05 6.40641e-07
-4.48647e-05 1.41999e-06 1.80895e-06
6.40641e-07 1.80895e-06 -3.70452e-05
0.000975142 4.85409e-05 1.49544e-06
4.85409e-05 0.000133795 7.22048e-07
1.49544e-06 7.22048e-07 4.14019e-05
0.000802848 1.02675e-05 2.83566e-07
1.02675e-05 4.251e-05 1.2269e-06
2.83566e-07 1.2269e-06 -2.73207e-05
0.000899351 7.48144e-05 7.18511e-07
7.48144e-05 0.000111944 -7.774e-08
7.18511e-07 -7.774e-08 1.32006e-05
0.00152922 0.000111621 3.531e-06
0.000111621 8.70493e-05 -2.06402e-08
3.531e-06 -2.06402e-08 -3.92952e-05
0.00132841 0.000147689 8.27682e-07
0.000147689 0.000102321 2.88779e-06
8.27682e-07 2.88779e-06 -2.91065e-05
0.00160887 0.000149584 -2.59256e-07
0.000149584 0.000141741 1.55177e-06
-2.59256e-07 1.55177e-06 6.31391e-06
0.00113548 0.000131409 2.74672e-06
0.000131409 0.000223394 2.98167e-06
2.74672e-06 2.98167e-06 9.52078e-05
0.00126068 0.000153339 1.16697e-06
0.000153339 0.000117218 1.06797e-06
1.16697e-06 1.06797e-06 -8.88348e-06
0.000276385 9.53591e-05 1.6821e-06
9.53591e-05 -0.000297381 -2.29303e-06
1.6821e-06 -2.29303e-06 -0.000438379
0.00077429 -2.80042e-05 1.39582e-06
-2.80042e-05 6.22282e-06 1.57583e-06
1.39582e-06 1.57583e-06 -2.52226e-05
0.00079083 1.8263e-06 3.92019e-07
1.8263e-06 2.35481e-05 5.97e-07
3.92019e-07 5.97e-07 -2.64822e-05
0.0007912 -1.73765e-05 8.62566e-07
-1.73765e-05 7.77174e-06 1.73124e-06
8.62566e-07 1.73124e-06 -2.11125e-05
0.000781159 -2.25246e-05 1.36531e-07
-2.25246e-05 6.3843e-06 -3.24446e-09
1.36531e-07 -3.24446e-09 -2.36026e-05
0.00126004 -3.62613e-05 1.71663e-06
-3.62613e-05 0.000268925 2.02988e-06
1.71663e-06 2.02988e-06 0.000267525
0.000990584 -3.70999e-05 7.84852e-07
-3.70999e-05 0.000126962 -2.48397e-08
7.84852e-07 -2.48397e-08 0.000122187
0.000965841 -3.24607e-05 2.24175e-05
-3.24607e-05 0.000118424 6.10954e-06
2.24175e-05 6.10954e-06 0.000129841
0.00207395 -5.50004e-05 1.24592e-06
-5.50004e-05 0.000737153 -9.59334e-08
1.24592e-06 -9.59334e-08 0.000752321
0.00210266 -6.19148e-05 -2.86987e-05
-6.19148e-05 0.000760764 -3.137e-06
-2.86987e-05 -3.137e-06 0.000773811
0.000664658 3.9991e-05 2.20242e-06
3.9991e-05 -3.89621e-05 -3.86173e-06
2.20242e-06 -3.86173e-06 -5.51491e-05
0.00244426 7.28839e-05 3.60124e-05
7.28839e-05 0.000952108 -3.2506e-06
3.60124e-05 -3.2506e-06 0.000961092
0.000664908 4.85233e-05 3.05547e-08
4.85233e-05 -2.97299e-05 4.34451e-08
3.05547e-08 4.34451e-08 -5.0212e-05
0.0026251 8.05147e-05 -1.26989e-06
8.05147e-05 0.0010567 -1.34968e-07
-1.26989e-06 -1.34968e-07 0.00106327
0.000654738 6.08819e-05 1.4423e-07
6.08819e-05 -2.35699e-05 5.19728e-06
1.4423e-07 5.19728e-06 -5.05695e-05
0.00283565 8.70628e-05 -5.4355e-05
8.70628e-05 0.00117489 3.03848e-06
-5.4355e-05 3.03848e-06 0.00117906
0.0011741 7.46146e-05 -9.68488e-06
7.46146e-05 1.77995e-05 -2.72425e-06
-9.68488e-06 -2.72425e-06 -8.14286e-05
0.00119412 4.17412e-05 -9.27059e-06
4.17412e-05 1.66603e-05 -2.04221e-06
-9.27059e-06 -2.04221e-06 -8.19684e-05
0.0014349 6.47503e-05 -4.21187e-06
6.47503e-05 6.94982e-05 -9.12606e-07
-4.21187e-06 -9.12606e-07 -4.43357e-05
0.00150611 2.55819e-05 -4.50557e-06
2.55819e-05 8.44832e-05 -9.13517e-07
-4.50557e-06 -9.13517e-07 -3.1833e-05
0.00123488 1.5711e-05 -1.00066e-05
1.5711e-05 1.46916e-05 -1.11121e-06
-1.00066e-05 -1.11121e-06 -8.74588e-05
0.000723563 8.55721e-06 -1.48855e-05
8.55721e-06 -9.94338e-05 -2.44302e-07
-1.48855e-05 -2.44302e-07 -0.000160143
0.0012338 1.27527e-06 1.38211e-08
1.27527e-06 1.14192e-05 -1.32938e-07
1.38211e-08 -1.32938e-07 -9.09569e-05
0.00150347 1.84337e-05 -5.22465e-08
1.84337e-05 7.32329e-05 -2.51891e-07
-5.22465e-08 -2.51891e-07 -4.45547e-05
0.00146662 4.2273e-05 1.04281e-07
4.2273e-05 7.74076e-05 -7.9248e-08
1.04281e-07 -7.9248e-08 -3.72634e-05
0.00159533 2.45927e-05 -1.39127e-07
2.45927e-05 8.55223e-05 8.98841e-08
-1.39127e-07 8.98841e-08 -3.11498e-05
0.00142653 8.55795e-05 -2.05859e-07
8.55795e-05 6.81917e-05 1.08539e-07
-2.05859e-07 1.08539e-07 -4.73516e-05
0.0015799 6.9294e-05 -2.69069e-08
6.9294e-05 9.91397e-05 1.22563e-07
-2.69069e-08 1.22563e-07 -1.76726e-05
0.00150572 6.08208e-06 4.59989e-06
6.08208e-06 7.19692e-05 -1.95998e-07
4.59989e-06 -1.95998e-07 -4.5854e-05
0.00160291 1.95262e-05 6.31752e-07
1.95262e-05 7.22862e-05 3.00122e-07
6.31752e-07 3.00122e-07 -4.51925e-05
0.00159475 4.64407e-05 1.20813e-06
4.64407e-05 9.66286e-05 1.85993e-07
1.20813e-06 1.85993e-07 -2.03483e-05
0.00173514 2.59076e-05 -2.38339e-07
2.59076e-05 0.000122177 1.00627e-07
-2.38339e-07 1.00627e-07 1.09558e-05
0.00160778 8.71257e-05 1.20365e-06
8.71257e-05 0.000115394 -1.83318e-08
1.20365e-06 -1.83318e-08 -3.16332e-06
0.00160961 6.16324e-05 -1.9797e-06
6.16324e-05 7.98089e-05 1.60719e-07
-1.9797e-06 1.60719e-07 -3.00512e-05
0.000826711 -5.03022e-07 -9.66388e-06
-5.03022e-07 -0.00020288 6.84794e-07
-9.66388e-06 6.84794e-07 -0.000306795
0.00162503 -3.91933e-05 -1.51112e-05
-3.91933e-05 0.000256759 2.08381e-06
-1.51112e-05 2.08381e-06 0.000164533
0.00165691 -9.68976e-06 -6.94094e-06
-9.68976e-06 0.000171501 1.26242e-06
-6.94094e-06 1.26242e-06 5.94299e-05
0.00189372 -7.3667e-05 -4.47703e-06
-7.3667e-05 0.00032551 8.07758e-07
-4.47703e-06 8.07758e-07 0.000218024
0.000647869 3.4492e-05 -4.50145e-06
3.4492e-05 -2.26207e-05 5.21812e-06
-4.50145e-06 5.21812e-06 -5.87574e-05
0.000896154 -5.92749e-05 -3.56496e-06
-5.92749e-05 9.42652e-05 2.00661e-06
-3.56496e-06 2.00661e-06 1.12018e-05
0.000875254 -0.000113773 -7.69612e-07
-0.000113773 3.85886e-05 5.08687e-07
-7.69612e-07 5.08687e-07 -7.2053e-05
0.00184838 -0.000123695 -6.3539e-06
-0.000123695 0.000329871 1.49152e-06
-6.3539e-06 1.49152e-06 0.000215478
0.00144093 -8.55051e-05 -1.91782e-06
-8.55051e-05 3.09443e-05 3.83193e-07
-1.91782e-06 3.83193e-07 -8.10197e-05
0.00138787 -0.000129405 -2.20829e-06
-0.000129405 7.148e-05 3.19588e-07
-2.20829e-06 3.19588e-07 -5.47656e-05
0.00107794 -0.000137316 -2.42617e-06
-0.000137316 3.97795e-05 1.77095e-06
-2.42617e-06 1.77095e-06 -9.62671e-05
0.00116506 -0.000136656 1.34795e-06
-0.000136656 -2.27621e-05 3.42398e-07
1.34795e-06 3.42398e-07 -0.000154535
0.000717982 -1.13433e-05 -2.41187e-06
-1.13433e-05 -4.91965e-06 2.29109e-06
-2.41187e-06 2.29109e-06 -7.64434e-05
0.000748741 1.87873e-06 -1.04169e-06
1.87873e-06 7.2344e-06 3.13318e-07
-1.04169e-06 3.13318e-07 -7.81214e-05
0.000723356 2.30959e-05 -8.9201e-07
2.30959e-05 -9.36944e-06 2.27052e-06
-8.9201e-07 2.27052e-06 -6.11988e-05
0.00169898 -2.06885e-07 -2.12623e-06
-2.06885e-07 0.000182544 1.32501e-07
-2.12623e-06 1.32501e-07 6.72759e-05
0.00165268 -4.45399e-05 -1.13269e-06
-4.45399e-05 0.000181984 1.00651e-07
-1.13269e-06 1.00651e-07 7.11565e-05
0.00164753 -1.22577e-05 -7.52085e-07
-1.22577e-05 0.000118145 3.4037e-07
-7.52085e-07 3.4037e-07 2.52647e-06
0.00169661 -6.20538e-05 -9.79283e-08
-6.20538e-05 0.000165062 -2.51249e-07
-9.79283e-08 -2.51249e-07 5.21278e-05
0.000785348 -3.31496e-05 8.98965e-08
-3.31496e-05 3.71416e-05 -2.29196e-07
8.98965e-08 -2.29196e-07 -4.22512e-05
0.000997909 -0.000113916 -2.48643e-07
-0.000113916 0.000127931 3.97532e-07
-2.48643e-07 3.97532e-07 2.46798e-05
0.000815586 -0.000122396 7.17217e-07
-0.000122396 -1.40186e-05 -1.24018e-06
7.17217e-07 -1.24018e-06 -0.000143736
0.00161368 -0.00012104 4.44897e-07
-0.00012104 0.000143386 -1.35704e-07
4.44897e-07 -1.35704e-07 2.37854e-05
0.00164752 -8.45644e-05 5.74121e-08
-8.45644e-05 0.000109993 3.0824e-07
5.74121e-08 3.0824e-07 2.08983e-06
0.00135179 -0.000160332 -1.95233e-07
-0.000160332 0.000153891 4.79583e-07
-1.95233e-07 4.79583e-07 8.97872e-06
0.00150517 -0.000135892 -2.86368e-07
-0.000135892 8.78399e-05 -5.17065e-07
-2.86368e-07 -5.17065e-07 -3.70208e-05
0.00170245 -0.000164294 1.30243e-06
-0.000164294 0.000231116 1.4357e-06
1.30243e-06 1.4357e-06 0.0001049
0.000917951 -5.92601e-05 -2.9845e-07
-5.92601e-05 9.69445e-05 -1.65074e-07
-2.9845e-07 -1.65074e-07 5.36148e-06
0.000932553 -9.62192e-05 -3.23059e-07
-9.62192e-05 0.000115743 3.87441e-07
-3.23059e-07 3.87441e-07 1.42858e-05
0.000751138 2.15669e-05 1.54128e-07
2.15669e-05 2.06174e-06 8.91054e-08
1.54128e-07 8.91054e-08 -4.36341e-05
0.000726051 2.37486e-05 -1.30441e-07
2.37486e-05 -6.98985e-06 -4.97898e-07
-1.30441e-07 -4.97898e-07 -8.35913e-05
0.00163805 -2.27136e-06 1.63185e-06
-2.27136e-06 0.000103519 -5.37287e-07
1.63185e-06 -5.37287e-07 -1.43438e-05
0.00179515 -3.89299e-05 8.57859e-07
-3.89299e-05 0.000207795 1.67088e-07
8.57859e-07 1.67088e-07 9.34918e-05
0.00174202 -1.78271e-05 3.35622e-07
-1.78271e-05 0.000133337 1.31173e-07
3.35622e-07 1.31173e-07 2.01679e-05
0.00161448 -5.72001e-05 -1.01068e-06
-5.72001e-05 8.47762e-05 -5.91524e-07
-1.01068e-06 -5.91524e-07 -2.22669e-05
0.00159844 -0.00011564 -7.54194e-07
-0.00011564 8.6822e-05 1.10666e-06
-7.54194e-07 1.10666e-06 -2.82913e-05
0.00168218 -7.98288e-05 2.48288e-07
-7.98288e-05 0.000103985 3.83839e-07
2.48288e-07 3.83839e-07 9.49272e-07
0.00088546 -0.000102151 1.20903e-06
-0.000102151 7.64128e-05 2.37027e-07
1.20903e-06 2.37027e-07 -1.9363e-05
0.00161035 -0.000141492 -4.21094e-06
-0.000141492 0.000111405 -3.40927e-07
-4.21094e-06 -3.40927e-07 -4.43746e-06
0.00057883 -0.000101744 -2.80577e-07
-0.000101744 -9.51698e-05 -1.88503e-06
-2.80577e-07 -1.88503e-06 -0.000212548
0.00115941 -0.000151824 2.58379e-06
-0.000151824 0.00014301 -2.10429e-06
2.58379e-06 -2.10429e-06 -5.0401e-06
0.00145016 -0.00017404 1.1789e-06
-0.00017404 0.000180214 3.03106e-06
1.1789e-06 3.03106e-06 3.22165e-05
0.00202866 -0.000183432 -7.55046e-07
-0.000183432 0.000366902 5.50669e-07
-7.55046e-07 5.50669e-07 0.000243284
0.000760437 1.69616e-05 1.72308e-06
1.69616e-05 3.25312e-06 -1.86565e-06
1.72308e-06 -1.86565e-06 -3.8635e-05
0.000708056 9.39721e-06 3.42128e-07
9.39721e-06 -1.24532e-05 -1.25175e-06
3.42128e-07 -1.25175e-06 -8.65176e-05
0.000927053 -0.000114129 9.78486e-08
-0.000114129 0.000108299 1.22982e-06
9.78486e-08 1.22982e-06 4.25936e-06
0.000940824 -6.97411e-05 9.51049e-07
-6.97411e-05 0.000118558 -7.85134e-08
9.51049e-07 -7.85134e-08 2.67892e-05
0.000927504 -0.00011385 -8.61849e-07
-0.00011385 0.00011622 1.94665e-06
-8.61849e-07 1.94665e-06 9.53396e-06
0.000666217 -4.16098e-05 -2.16888e-06
-4.16098e-05 -3.4894e-05 -3.40303e-06
-2.16888e-06 -3.40303e-06 -4.65275e-05
0.00142119 0.000108891 -3.74328e-06
0.000108891 8.20786e-05 -1.15664e-06
-3.74328e-06 -1.15664e-06 -3.9044e-05
0.000729954 -5.36332e-05 -5.90255e-07
-5.36332e-05 3.2865e-06 -1.80118e-06
-5.90255e-07 -1.80118e-06 -4.25854e-05
0.00079456 -8.44268e-06 -3.37931e-07
-8.44268e-06 4.36896e-05 -2.6459e-06
-3.37931e-07 -2.6459e-06 -2.59886e-05
0.000853932 -5.72899e-06 5.65994e-07
-5.72899e-06 7.42056e-05 -9.72972e-07
5.65994e-07 -9.72972e-07 -6.60051e-06
0.00117098 0.000132718 -3.60727e-06
0.000132718 6.39989e-05 -2.43108e-06
-3.60727e-06 -2.43108e-06 -5.72227e-05
0.0014394 0.00013832 -1.94822e-06
0.00013832 8.57676e-05 -7.04289e-07
-1.94822e-06 -7.04289e-07 -4.8234e-05
0.000899495 0.000102372 -1.47351e-06
0.000102372 8.8661e-05 -8.16322e-07
-1.47351e-06 -8.16322e-07 -1.49356e-05
0.00116694 0.00014077 -1.96339e-06
0.00014077 0.000208206 -1.3724e-06
-1.96339e-06 -1.3724e-06 7.35011e-05
0.00162054 0.000163533 -1.48928e-06
0.000163533 0.000333691 -2.58177e-06
-1.48928e-06 -2.58177e-06 0.000209684
0.00104075 0.00013767 -3.50111e-06
0.00013767 7.09747e-05 1.89657e-06
-3.50111e-06 1.89657e-06 -4.914e-05
0.000701242 -3.79666e-05 7.73712e-08
-3.79666e-05 -2.48225e-05 2.58759e-08
7.73712e-08 2.58759e-08 -3.34651e-05
0.000747191 -4.45436e-05 -2.04666e-07
-4.45436e-05 4.42939e-06 9.64542e-08
-2.04666e-07 9.64542e-08 -3.38924e-05
0.000925488 5.40657e-05 5.34285e-07
5.40657e-05 0.000107972 -7.49186e-08
5.34285e-07 -7.49186e-08 1.53468e-05
0.000810852 -1.56846e-05 -1.88233e-07
-1.56846e-05 4.53332e-05 1.47993e-07
-1.88233e-07 1.47993e-07 -2.2982e-05
0.000855281 5.63351e-05 5.75084e-07
5.63351e-05 8.54548e-05 -2.26861e-07
5.75084e-07 -2.26861e-07 -1.24825e-05
0.00152282 0.000112006 1.30882e-06
0.000112006 8.34395e-05 7.4623e-08
1.30882e-06 7.4623e-08 -4.31723e-05
0.00131123 0.000147752 -4.02581e-08
0.000147752 9.42911e-05 5.55329e-07
-4.02581e-08 5.55329e-07 -3.72146e-05
0.00154083 0.000148158 1.01439e-06
0.000148158 0.000106771 9.47798e-07
1.01439e-06 9.47798e-07 -2.9161e-05
0.00101015 0.000123821 1.05613e-06
0.000123821 0.00015805 1.22405e-06
1.05613e-06 1.22405e-06 3.05464e-05
0.0014211 0.000160673 1.06833e-06
0.000160673 0.000204088 -1.39888e-06
1.06833e-06 -1.39888e-06 7.78941e-05
0.000793207 0.000125469 -1.79561e-06
0.000125469 -2.29618e-05 -9.40446e-07
-1.79561e-06 -9.40446e-07 -0.000165991
0.000764044 -3.45794e-05 1.30798e-06
-3.45794e-05 6.35667e-06 1.60718e-06
1.30798e-06 1.60718e-06 -2.7619e-05
0.000807708 9.77032e-07 4.73802e-07
9.77032e-07 3.60541e-05 1.06215e-06
4.73802e-07 1.06215e-06 -2.13014e-05
0.00104994 0.000118397 1.01232e-07
0.000118397 0.000187051 -1.13354e-07
1.01232e-07 -1.13354e-07 7.24834e-05
0.000862333 8.10344e-06 4.78679e-07
8.10344e-06 8.24134e-05 5.54282e-07
4.78679e-07 5.54282e-07 -1.23485e-06
0.00106993 5.70597e-05 -4.442e-07
5.70597e-05 0.000200405 -2.11114e-06
-4.442e-07 -2.11114e-06 9.34698e-05
0.0015778 0.000109648 -1.49544e-06
0.000109648 8.07245e-05 -1.72888e-06
-1.49544e-06 -1.72888e-06 -4.37934e-05
0.00142552 0.000162557 4.86257e-07
0.000162557 0.00012073 2.94543e-06
4.86257e-07 2.94543e-06 -1.36166e-05
0.0014172 0.000156531 -4.26885e-06
0.000156531 2.17137e-05 -1.74927e-07
-4.26885e-06 -1.74927e-07 -0.000106707
0.000844412 0.000120154 3.34719e-07
0.000120154 7.67341e-05 2.17703e-06
3.34719e-07 2.17703e-06 -7.31736e-05
0.00124127 0.000164581 3.39328e-06
0.000164581 0.000133802 -4.55483e-07
3.39328e-06 -4.55483e-07 -9.42449e-06
0.000772726 -2.7036e-05 2.52463e-08
-2.7036e-05 5.78208e-06 -1.62148e-09
2.52463e-08 -1.62148e-09 -2.5703e-05
0.000662167 -1.826e-05 8.32535e-07
-1.826e-05 -4.86714e-05 1.23385e-06
8.32535e-07 1.23385e-06 -9.81995e-05
0.000737113 -2.23933e-05 -6.99861e-07
-2.23933e-05 -7.96271e-06 -2.81635e-08
-6.99861e-07 -2.81635e-08 -5.6916e-05
0.000987474 1.41947e-05 1.12728e-06
1.41947e-05 0.000140106 -2.12014e-07
1.12728e-06 -2.12014e-07 7.84164e-05
0.00082029 1.49356e-05 1.69179e-06
1.49356e-05 3.42895e-05 7.49607e-07
1.69179e-06 7.49607e-07 -1.39421e-05
0.000793402 -8.21415e-06 9.16565e-07
-8.21415e-06 6.0111e-06 1.73967e-06
9.16565e-07 1.73967e-06 -2.26896e-05
0.000788282 -1.7838e-05 -4.40996e-08
-1.7838e-05 6.38576e-06 1.84751e-08
-4.40996e-08 1.84751e-08 -2.25539e-05
0.00125706 -2.93456e-05 1.17115e-06
-2.93456e-05 0.000261148 2.02545e-06
1.17115e-06 2.02545e-06 0.000261472
0.000778624 -2.18417e-05 -1.13337e-06
-2.18417e-05 5.44808e-06 -1.74916e-06
-1.13337e-06 -1.74916e-06 -2.46398e-05
0.00127783 -3.42189e-05 -4.14611e-06
-3.42189e-05 0.000278107 -1.1615e-06
-4.14611e-06 -1.1615e-06 0.000277028
0.000960701 -2.74022e-05 1.9369e-05
-2.74022e-05 0.00010703 6.19076e-06
1.9369e-05 6.19076e-06 0.000120527
0.00126589 -3.82009e-05 -9.42829e-06
-3.82009e-05 0.000278786 -3.08471e-06
-9.42829e-06 -3.08471e-06 0.000275855
0.00148036 -4.01825e-05 1.76563e-05
-4.01825e-05 0.000402084 1.94961e-06
1.76563e-05 1.94961e-06 0.000416441
0.00205903 -5.46224e-05 -2.52836e-05
-5.46224e-05 0.000727723 -3.33947e-06
-2.52836e-05 -3.33947e-06 0.000743181
0.000677104 3.60332e-05 1.82843e-06
3.60332e-05 -3.94457e-05 -3.75348e-06
1.82843e-06 -3.75348e-06 -5.25661e-05
0.000681548 4.11505e-05 -1.23342e-07
4.11505e-05 -2.962e-05 3.0815e-08
-1.23342e-07 3.0815e-08 -4.60427e-05
0.00235724 6.51213e-05 3.16171e-05
6.51213e-05 0.000896955 -3.47672e-06
3.16171e-05 -3.47672e-06 0.000908304
0.00249062 7.30331e-05 -1.22516e-06
7.30331e-05 0.000977719 -1.29511e-07
-1.22516e-06 -1.29511e-07 0.000986539
0.000683993 5.22568e-05 -8.90868e-07
5.22568e-05 -1.83041e-05 4.43675e-06
-8.90868e-07 4.43675e-06 -3.95853e-05
0.00266192 7.90837e-05 -4.77453e-05
7.90837e-05 0.00107627 3.08766e-06
-4.77453e-05 3.08766e-06 0.00108303
0.00144212 8.65044e-05 -4.66342e-06
8.65044e-05 7.57115e-05 -5.64976e-07
-4.66342e-06 -5.64976e-07 -3.99063e-05
0.00146928 4.31033e-05 -4.32523e-06
4.31033e-05 7.91584e-05 -1.12834e-06
-4.32523e-06 -1.12834e-06 -3.56797e-05
0.00154556 6.91746e-05 -1.18688e-06
6.91746e-05 8.17072e-05 -3.02727e-07
-1.18688e-06 -3.02727e-07 -3.52694e-05
0.00157032 2.46962e-05 -1.1408e-06
2.46962e-05 7.10376e-05 -2.14117e-07
-1.1408e-06 -2.14117e-07 -4.53567e-05
0.00151506 2.17924e-05 -4.35057e-06
2.17924e-05 7.93422e-05 -7.11884e-07
-4.35057e-06 -7.11884e-07 -3.85141e-05
0.00124055 6.15872e-06 -9.88216e-06
6.15872e-06 1.46495e-05 -3.2852e-08
-9.88216e-06 -3.2852e-08 -8.77009e-05
0.00151043 1.0094e-05 6.38214e-08
1.0094e-05 7.4512e-05 -9.58571e-08
6.38214e-08 -9.58571e-08 -4.33789e-05
0.00160666 1.03549e-05 -1.19769e-07
1.03549e-05 7.41116e-05 1.12106e-08
-1.19769e-07 1.12106e-08 -4.35366e-05
0.00159138 4.56334e-05 1.54264e-08
4.56334e-05 9.5392e-05 -1.40222e-07
1.54264e-08 -1.40222e-07 -2.16369e-05
0.001739 2.71397e-05 1.24646e-07
2.71397e-05 0.000123346 1.76987e-07
1.24646e-07 1.76987e-07 1.32655e-05
0.00155904 8.68934e-05 -2.58159e-07
8.68934e-05 8.95153e-05 3.1927e-07
-2.58159e-07 3.1927e-07 -2.92369e-05
0.00161615 6.20964e-05 -8.38877e-08
6.20964e-05 8.17579e-05 3.77007e-07
-8.38877e-08 3.77007e-07 -2.73402e-05
0.00161784 8.45425e-08 1.60474e-06
8.45425e-08 8.16511e-05 -2.81938e-08
1.60474e-06 -2.81938e-08 -3.65e-05
0.0017569 2.59763e-05 -2.57354e-07
2.59763e-05 0.000114315 3.99946e-07
-2.57354e-07 3.99946e-07 1.50866e-06
0.00160403 4.15011e-05 -1.4483e-06
4.15011e-05 5.8792e-05 -5.12828e-08
-1.4483e-06 -5.12828e-08 -4.93837e-05
0.00183826 3.1928e-05 -3.97446e-07
3.1928e-05 0.000152219 8.94015e-08
-3.97446e-07 8.94015e-08 4.82164e-05
0.00157444 7.90625e-05 -1.4368e-06
7.90625e-05 6.39765e-05 -9.49274e-07
-1.4368e-06 -9.49274e-07 -5.00176e-05
0.0016979 5.78176e-05 -6.8841e-07
5.78176e-05 9.93816e-05 -5.13292e-08
-6.8841e-07 -5.13292e-08 -1.72303e-06
0.00149655 3.30031e-07 -6.23353e-06
3.30031e-07 7.18812e-05 7.62745e-07
-6.23353e-06 7.62745e-07 -4.5147e-05
0.0016577 -4.62578e-05 -6.01123e-06
-4.62578e-05 0.000184702 1.12316e-06
-6.01123e-06 1.12316e-06 7.37179e-05
0.00149915 -1.13577e-05 -2.19148e-06
-1.13577e-05 3.63783e-05 5.05685e-07
-2.19148e-06 5.05685e-07 -7.93238e-05
0.0018203 -6.21506e-05 -1.60056e-06
-6.21506e-05 0.000230412 4.06143e-07
-1.60056e-06 4.06143e-07 0.000117853
0.000816538 -3.87462e-05 -2.7964e-06
-3.87462e-05 5.22525e-05 1.93828e-06
-2.7964e-06 1.93828e-06 -2.70246e-05
0.00110399 -0.000120727 -1.73978e-06
-0.000120727 0.000182908 1.14028e-06
-1.73978e-06 1.14028e-06 7.87936e-05
0.000908537 -0.000125548 -7.07655e-07
-0.000125548 4.05108e-05 7.20085e-07
-7.07655e-07 7.20085e-07 -8.73914e-05
0.00174532 -0.000124569 -2.14429e-06
-0.000124569 0.000217546 -1.88791e-07
-2.14429e-06 -1.88791e-07 9.8021e-05
0.00154901 -8.1492e-05 4.41511e-07
-8.1492e-05 5.64664e-05 -9.31787e-08
4.41511e-07 -9.31787e-08 -5.08165e-05
0.00153274 -0.000135743 2.77856e-07
-0.000135743 0.000101781 -3.43845e-07
2.77856e-07 -3.43845e-07 -2.28787e-05
0.001034 -0.00014454 -1.62856e-06
-0.00014454 -1.28897e-05 5.36698e-07
-1.62856e-06 5.36698e-07 -0.000158308
0.00142469 -0.000152264 3.58769e-06
-0.000152264 8.20142e-05 -1.16402e-06
3.58769e-06 -1.16402e-06 -4.18783e-05
0.000937529 -5.07095e-05 -1.28551e-06
-5.07095e-05 0.000107066 -2.18188e-07
-1.28551e-06 -2.18188e-07 1.63263e-05
0.000901367 -6.87407e-05 -6.00701e-07
-6.87407e-05 9.26298e-05 -4.28295e-07
-6.00701e-07 -4.28295e-07 -5.51751e-06
0.000744858 1.91975e-05 -1.30429e-06
1.91975e-05 -1.4057e-06 1.99154e-06
-1.30429e-06 1.99154e-06 -4.71113e-05
0.000713775 3.67652e-05 2.03461e-09
3.67652e-05 -1.55969e-05 2.90339e-07
2.03461e-09 2.90339e-07 -8.98138e-05
0.00163521 -1.77096e-06 -5.43944e-08
-1.77096e-06 0.000100551 -1.7852e-07
-5.43944e-08 -1.7852e-07 -1.73259e-05
0.00179314 -3.64783e-05 -7.37955e-07
-3.64783e-05 0.000206131 3.55489e-07
-7.37955e-07 3.55489e-07 9.13081e-05
0.00167666 -1.71469e-05 -3.91726e-07
-1.71469e-05 0.000101254 7.30175e-08
-3.91726e-07 7.30175e-08 -1.15377e-05
0.00160595 -5.68749e-05 -3.43618e-08
-5.68749e-05 8.32776e-05 -2.28909e-07
-3.43618e-08 -2.28909e-07 -2.43855e-05
0.000967194 -9.02549e-05 -2.90609e-07
-9.02549e-05 0.000117271 2.05801e-07
-2.90609e-07 2.05801e-07 2.27519e-05
0.000692959 -0.000107106 5.84416e-07
-0.000107106 -3.292e-05 -6.73995e-07
5.84416e-07 -6.73995e-07 -0.000148729
0.00117451 -0.000151513 1.17023e-07
-0.000151513 0.000153647 -3.66835e-08
1.17023e-07 -3.66835e-08 4.95341e-06
0.00165298 -0.000117604 -3.28853e-07
-0.000117604 0.000117782 1.32543e-07
-3.28853e-07 1.32543e-07 2.03717e-06
0.00164052 -7.92648e-05 4.90244e-07
-7.92648e-05 8.11469e-05 -2.88522e-07
4.90244e-07 -2.88522e-07 -2.11321e-05
0.00143446 -0.000171644 -4.51981e-07
-0.000171644 0.000172148 9.44966e-07
-4.51981e-07 9.44966e-07 2.33364e-05
0.00156446 -0.000139807 -4.56967e-07
-0.000139807 8.65425e-05 -3.28136e-07
-4.56967e-07 -3.28136e-07 -2.94587e-05
0.00164387 -0.000165647 1.62318e-06
-0.000165647 0.000171336 -9.16117e-07
1.62318e-06 -9.16117e-07 5.34569e-05
0.000996235 -0.000118384 6.75623e-08
-0.000118384 0.000144826 2.05463e-08
6.75623e-08 2.05463e-08 4.0429e-05
0.000961595 -0.00010773 1.63307e-07
-0.00010773 0.000131943 2.31438e-07
1.63307e-07 2.31438e-07 2.64291e-05
0.000905475 -4.3979e-05 -2.59523e-07
-4.3979e-05 9.70328e-05 -9.75208e-08
-2.59523e-07 -9.75208e-08 7.39871e-06
0.000640124 2.43495e-05 -2.85151e-07
2.43495e-05 -6.17114e-05 3.30758e-08
-2.85151e-07 3.30758e-08 -0.000104925
0.000708955 2.6054e-05 9.39746e-08
2.6054e-05 -1.61367e-05 -3.61249e-07
9.39746e-08 -3.61249e-07 -8.68041e-05
0.00173409 -8.55457e-06 7.43043e-07
-8.55457e-06 0.000108564 -1.93456e-07
7.43043e-07 -1.93456e-07 -4.54492e-06
0.00167552 -2.82186e-05 -1.69204e-07
-2.82186e-05 9.40838e-05 9.50903e-08
-1.69204e-07 9.50903e-08 -1.59442e-05
0.00166176 -6.39056e-05 -1.88614e-07
-6.39056e-05 8.11757e-05 -1.73052e-07
-1.88614e-07 -1.73052e-07 -1.67607e-05
0.00159629 -0.000104681 -5.79401e-07
-0.000104681 5.00598e-05 4.87811e-07
-5.79401e-07 4.87811e-07 -5.52228e-05
0.00089582 -0.000114675 -3.65424e-07
-0.000114675 8.7092e-05 9.24854e-07
-3.65424e-07 9.24854e-07 -1.97754e-05
0.00176934 -0.00015854 -1.52196e-06
-0.00015854 0.00015118 -1.72588e-06
-1.52196e-06 -1.72588e-06 4.12914e-05
0.000210294 -8.39554e-05 2.67008e-07
-8.39554e-05 -0.000288894 -3.55593e-06
2.67008e-07 -3.55593e-06 -0.000416365
0.0013014 -0.000170047 3.70929e-06
-0.000170047 0.000190732 -1.36333e-06
3.70929e-06 -1.36333e-06 2.38696e-05
0.00174844 -0.000193177 2.05777e-06
-0.000193177 0.000278489 1.9553e-06
2.05777e-06 1.9553e-06 0.000131143
0.000532809 2.4312e-05 1.15409e-06
2.4312e-05 -0.000123301 -2.55848e-06
1.15409e-06 -2.55848e-06 -0.000164554
0.00091311 -1.0931e-06 1.37365e-06
-1.0931e-06 9.71592e-05 -6.90094e-07
1.37365e-06 -6.90094e-07 3.09223e-05
0.000942085 -3.06312e-05 -1.02635e-07
-3.06312e-05 0.000116604 -4.05128e-08
-1.02635e-07 -4.05128e-08 3.51215e-05
0.000932012 -0.000115052 -9.53354e-07
-0.000115052 0.000111625 2.04288e-06
-9.53354e-07 2.04288e-06 5.52428e-06
0.00101662 -6.96501e-05 3.13437e-07
-6.96501e-05 0.000158779 1.20986e-06
3.13437e-07 1.20986e-06 6.01389e-05
0.000881523 -0.000111564 -5.11339e-07
-0.000111564 8.32183e-05 1.70221e-06
-5.11339e-07 1.70221e-06 -2.44179e-05
0.000680577 -3.7077e-05 -1.81978e-06
-3.7077e-05 -3.58328e-05 -3.37828e-06
-1.81978e-06 -3.37828e-06 -4.43747e-05
0.000752454 -4.26312e-05 -1.49957e-06
-4.26312e-05 6.69651e-06 -1.45587e-06
-1.49957e-06 -1.45587e-06 -3.12539e-05
0.00151717 0.000112498 -1.00629e-06
0.000112498 8.02159e-05 1.71717e-07
-1.00629e-06 1.71717e-07 -4.66744e-05
0.000828038 -4.36391e-05 3.96444e-07
-4.36391e-05 5.30463e-05 -1.05469e-06
3.96444e-07 -1.05469e-06 -1.37921e-05
0.000839222 4.79117e-05 -4.48941e-07
4.79117e-05 5.99033e-05 -4.57745e-07
-4.48941e-07 -4.57745e-07 -3.07574e-05
0.000795958 3.88767e-05 6.27846e-07
3.88767e-05 5.02727e-05 4.23253e-08
6.27846e-07 4.23253e-08 -4.65937e-05
0.00129024 0.000147557 -1.49898e-06
0.000147557 8.42758e-05 -1.9671e-06
-1.49898e-06 -1.9671e-06 -4.72855e-05
0.00146617 0.000146334 6.41469e-07
0.000146334 6.84288e-05 6.17474e-08
6.41469e-07 6.17474e-08 -6.79738e-05
0.00096143 0.00012074 -1.84572e-07
0.00012074 0.000133788 -4.17046e-07
-1.84572e-07 -4.17046e-07 6.8653e-06
0.00130256 0.00015498 -8.46982e-07
0.00015498 0.000246957 6.90912e-07
-8.46982e-07 6.90912e-07 0.000102739
0.00156481 0.000167387 -2.32923e-06
0.000167387 0.000282175 -2.83162e-06
-2.32923e-06 -2.83162e-06 0.000155928
0.000764831 -3.37214e-05 -4.44709e-08
-3.37214e-05 7.04608e-06 2.30375e-08
-4.44709e-08 2.30375e-08 -2.6905e-05
0.000805162 -2.50575e-05 -3.785e-07
-2.50575e-05 3.40672e-05 2.47553e-07
-3.785e-07 2.47553e-07 -2.27795e-05
0.000997135 0.000115381 -5.03507e-07
0.000115381 0.000160003 -1.08127e-07
-5.03507e-07 -1.08127e-07 4.59932e-05
0.000853737 -5.32812e-06 2.72465e-07
-5.32812e-06 7.45435e-05 1.27588e-08
2.72465e-07 1.27588e-08 -7.04525e-06
0.000927685 6.68422e-05 1.12774e-07
6.68422e-05 0.000127346 -7.13206e-07
1.12774e-07 -7.13206e-07 1.81803e-05
0.00158996 0.000112482 -6.58142e-07
0.000112482 8.82016e-05 -6.00713e-07
-6.58142e-07 -6.00713e-07 -3.70595e-05
0.00140694 0.000161464 9.71921e-07
0.000161464 0.000110928 5.03246e-07
9.71921e-07 5.03246e-07 -2.3497e-05
0.00147752 0.000156217 9.48885e-07
0.000156217 5.19391e-05 1.07974e-06
9.48885e-07 1.07974e-06 -7.37068e-05
0.000774438 0.000116695 6.92091e-07
0.000116695 3.74793e-05 1.88261e-06
6.92091e-07 1.88261e-06 -0.000110785
0.00132887 0.000169602 -1.01584e-06
0.000169602 0.000181909 -1.03509e-06
-1.01584e-06 -1.03509e-06 3.5023e-05
0.000804585 -2.50808e-06 8.29514e-07
-2.50808e-06 3.06075e-05 8.14419e-07
8.29514e-07 8.14419e-07 -2.00323e-05
0.000704877 -2.70213e-05 -5.98499e-07
-2.70213e-05 -1.33045e-05 1.44491e-06
-5.98499e-07 1.44491e-06 -8.50777e-05
0.000982322 0.000121435 -1.03603e-06
0.000121435 0.000155641 -1.63363e-06
-1.03603e-06 -1.63363e-06 2.46179e-05
0.000738363 2.36493e-05 -2.94936e-07
2.36493e-05 2.01507e-05 -3.15826e-07
-2.94936e-07 -3.15826e-07 -7.93187e-05
0.00104328 9.26867e-05 -4.60038e-07
9.26867e-05 0.000184184 -2.14685e-06
-4.60038e-07 -2.14685e-06 6.68615e-05
0.00156976 0.000113641 -2.70753e-06
0.000113641 2.81297e-05 -1.25036e-06
-2.70753e-06 -1.25036e-06 -7.45204e-05
0.00193681 0.000203632 -1.35955e-06
0.000203632 0.000371875 3.51779e-07
-1.35955e-06 3.51779e-07 0.000229948
0.000909575 0.000135069 -6.43405e-07
0.000135069 -0.0002819 -3.70084e-07
-6.43405e-07 -3.70084e-07 -0.000396315
0.00181197 0.0001814 3.60362e-06
0.0001814 0.000562788 3.73674e-06
3.60362e-06 3.73674e-06 0.000395693
0.000170561 0.000117277 -4.28231e-07
0.000117277 -0.000445038 -6.85956e-07
-4.28231e-07 -6.85956e-07 -0.000600059
0.000772898 -2.54118e-05 -1.54449e-06
-2.54118e-05 6.28497e-06 -1.56639e-06
-1.54449e-06 -1.56639e-06 -2.52183e-05
0.000741559 -1.32662e-05 1.60146e-07
-1.32662e-05 -4.86444e-06 5.01573e-07
1.60146e-07 5.01573e-07 -5.43749e-05
0.000731628 -4.21049e-05 -1.80076e-07
-4.21049e-05 -4.11138e-06 8.59132e-07
-1.80076e-07 8.59132e-07 -6.56541e-05
0.000687319 -4.06435e-05 -8.56865e-07
-4.06435e-05 -3.54719e-05 -4.92806e-07
-8.56865e-07 -4.92806e-07 -8.45171e-05
0.000819163 -5.9823e-06 1.93038e-07
-5.9823e-06 3.35149e-05 -2.67034e-08
1.93038e-07 -2.67034e-08 -1.45001e-05
0.000842427 -2.08203e-05 2.36917e-07
-2.08203e-05 5.63908e-05 -3.50834e-07
2.36917e-07 -3.50834e-07 -2.27924e-06
0.000949729 6.5593e-06 7.39969e-08
6.5593e-06 0.000121295 -5.58269e-07
7.39969e-08 -5.58269e-07 5.52972e-05
0.000754231 -3.77853e-05 3.01197e-07
-3.77853e-05 1.07799e-05 1.55514e-07
3.01197e-07 1.55514e-07 -4.9186e-05
0.000847428 -4.92238e-06 3.80696e-07
-4.92238e-06 4.36226e-05 6.34016e-07
3.80696e-07 6.34016e-07 -2.63215e-06
0.000783997 -5.57855e-07 8.91716e-07
-5.57855e-07 2.58693e-07 1.58462e-06
8.91716e-07 1.58462e-06 -2.91707e-05
0.00078905 -1.20162e-05 -1.51597e-07
-1.20162e-05 3.89888e-06 1.64245e-09
-1.51597e-07 1.64245e-09 -2.48821e-05
0.00126248 -2.17671e-05 1.08263e-06
-2.17671e-05 0.000259492 1.97988e-06
1.08263e-06 1.97988e-06 0.000260556
0.000784664 -1.81466e-05 -8.7778e-07
-1.81466e-05 4.60706e-06 -1.78507e-06
-8.7778e-07 -1.78507e-06 -2.43821e-05
0.00127766 -2.74851e-05 -3.50542e-06
-2.74851e-05 0.000272127 -1.17338e-06
-3.50542e-06 -1.17338e-06 0.000272577
0.000959799 -2.26235e-05 1.56918e-05
-2.26235e-05 0.000100466 6.27092e-06
1.56918e-05 6.27092e-06 0.000115321
0.00129399 -3.27171e-05 -8.00008e-06
-3.27171e-05 0.000286458 -4.39145e-06
-8.00008e-06 -4.39145e-06 0.000285572
0.000905532 -2.86611e-05 6.34233e-06
-2.86611e-05 7.6958e-05 2.3713e-06
6.34233e-06 2.3713e-06 9.01736e-05
0.00198491 -5.22148e-05 -6.16474e-06
-5.22148e-05 0.000680145 -1.50838e-06
-6.16474e-06 -1.50838e-06 0.000696809
0.000690316 3.21081e-05 1.32843e-06
3.21081e-05 -3.89131e-05 -3.62814e-06
1.32843e-06 -3.62814e-06 -4.92107e-05
0.000692581 3.67006e-05 -1.39054e-07
3.67006e-05 -3.10807e-05 2.76531e-08
-1.39054e-07 2.76531e-08 -4.43342e-05
0.00228731 5.735e-05 2.73637e-05
5.735e-05 0.000851068 -3.66642e-06
2.73637e-05 -3.66642e-06 0.00086469
0.000699327 4.26411e-05 -2.13127e-06
4.26411e-05 -1.96387e-05 3.93805e-06
-2.13127e-06 3.93805e-06 -3.63537e-05
0.00238767 6.5299e-05 -1.39847e-06
6.5299e-05 0.000914399 -1.15321e-07
-1.39847e-06 -1.15321e-07 0.000925523
0.0025268 7.23787e-05 -4.0981e-05
7.23787e-05 0.000997634 3.18009e-06
-4.0981e-05 3.18009e-06 0.00100647
0.00151065 8.6601e-05 -2.13725e-06
8.6601e-05 6.3824e-05 5.86684e-07
-2.13725e-06 5.86684e-07 -5.51173e-05
0.00158847 4.39937e-05 -9.12956e-07
4.39937e-05 9.43759e-05 -4.37458e-07
-9.12956e-07 -4.37458e-07 -2.2663e-05
0.00162104 6.25107e-05 2.12279e-06
6.25107e-05 8.28236e-05 6.33636e-07
2.12279e-06 6.33636e-07 -2.55218e-05
0.00174316 2.83809e-05 9.01304e-07
2.83809e-05 0.000124612 7.57309e-08
9.01304e-07 7.57309e-08 1.56818e-05
0.00161201 4.26979e-06 -1.10505e-06
4.26979e-06 7.67731e-05 -2.79727e-07
-1.10505e-06 -2.79727e-07 -4.10659e-05
0.00151403 1.33667e-05 -4.27027e-06
1.33667e-05 7.64354e-05 3.11449e-08
-4.27027e-06 3.11449e-08 -4.14853e-05
0.00162842 3.43635e-06 -1.06408e-08
3.43635e-06 8.689e-05 -5.46543e-08
-1.06408e-08 -5.46543e-08 -3.16779e-05
0.00175625 2.04993e-05 2.75641e-07
2.04993e-05 0.000115603 -4.72094e-08
2.75641e-07 -4.72094e-08 2.33198e-06
0.00163447 3.92436e-05 -5.19266e-07
3.92436e-05 7.41887e-05 -1.44789e-07
-5.19266e-07 -1.44789e-07 -3.48701e-05
0.00178393 3.2612e-05 6.89651e-07
3.2612e-05 0.000119351 -1.53952e-07
6.89651e-07 -1.53952e-07 1.61711e-05
0.00161661 8.05298e-05 -5.56902e-07
8.05298e-05 8.77972e-05 1.99761e-07
-5.56902e-07 1.99761e-07 -2.62597e-05
0.00167129 6.04124e-05 1.94904e-06
6.04124e-05 8.25536e-05 6.65462e-08
1.94904e-06 6.65462e-08 -1.73013e-05
0.0017469 6.06945e-06 9.44224e-09
6.06945e-06 0.000107471 1.70099e-07
9.44224e-09 1.70099e-07 -6.84664e-06
0.0017468 2.7195e-05 -6.36817e-07
2.7195e-05 9.10984e-05 4.40648e-07
-6.36817e-07 4.40648e-07 -1.40899e-05
0.00177524 4.44866e-05 -1.06028e-06
4.44866e-05 0.000106709 8.72414e-08
-1.06028e-06 8.72414e-08 8.81295e-06
0.00172471 8.39938e-05 -1.42934e-06
8.39938e-05 0.00010544 -5.33936e-07
-1.42934e-06 -5.33936e-07 7.69231e-06
0.00163323 -1.293e-06 -1.51049e-06
-1.293e-06 9.80497e-05 1.87287e-07
-1.51049e-06 1.87287e-07 -1.98374e-05
0.00179998 -3.56584e-05 -2.44136e-06
-3.56584e-05 0.000208916 6.3465e-07
-2.44136e-06 6.3465e-07 9.35495e-05
0.00161895 -1.65366e-05 -1.17957e-06
-1.65366e-05 7.30841e-05 3.39235e-07
-1.17957e-06 3.39235e-07 -3.93363e-05
0.0016057 -5.60141e-05 3.38219e-07
-5.60141e-05 8.5985e-05 8.43169e-08
3.38219e-07 8.43169e-08 -2.22528e-05
0.00105331 -9.13719e-05 -1.41657e-06
-9.13719e-05 0.000163016 1.15889e-07
-1.41657e-06 1.15889e-07 6.78071e-05
0.000833706 -0.000114349 7.6274e-07
-0.000114349 4.35404e-05 2.7886e-07
7.6274e-07 2.7886e-07 -7.0924e-05
0.00120776 -0.000152093 -1.58005e-06
-0.000152093 0.000174108 2.58871e-06
-1.58005e-06 2.58871e-06 2.45291e-05
0.00171181 -0.000119549 -6.45931e-07
-0.000119549 0.000151075 -6.99334e-07
-6.45931e-07 -6.99334e-07 3.47164e-05
0.00160099 -7.884e-05 -1.42637e-08
-7.884e-05 5.92292e-05 -6.15331e-07
-1.42637e-08 -6.15331e-07 -4.22943e-05
0.0015256 -0.000138308 2.14296e-06
-0.000138308 6.50876e-05 -1.15548e-07
2.14296e-06 -1.15548e-07 -5.10665e-05
0.00142599 -0.000169543 -1.2976e-06
-0.000169543 0.000167443 -8.68429e-07
-1.2976e-06 -8.68429e-07 1.7851e-05
0.00133872 -0.000151151 1.1035e-06
-0.000151151 1.72502e-05 -1.73298e-06
1.1035e-06 -1.73298e-06 -9.51952e-05
0.001064 -0.000122567 6.92923e-08
-0.000122567 0.000180779 -1.09047e-06
6.92923e-08 -1.09047e-06 7.59991e-05
0.00101241 -0.00011173 2.5718e-07
-0.00011173 0.000158218 -1.87913e-06
2.5718e-07 -1.87913e-06 5.2382e-05
0.000862199 -1.93992e-05 3.1666e-07
-1.93992e-05 7.26308e-05 6.57754e-08
3.1666e-07 6.57754e-08 -1.56462e-05
0.000520572 2.35199e-05 -1.50441e-06
2.35199e-05 -0.000126854 1.91771e-06
-1.50441e-06 1.91771e-06 -0.000171006
0.000716244 3.8438e-05 1.11633e-08
3.8438e-05 -1.50576e-05 3.26307e-07
1.11633e-08 3.26307e-07 -8.32776e-05
0.00172823 -9.54184e-06 5.23686e-08
-9.54184e-06 0.000108471 -3.27537e-08
5.23686e-08 -3.27537e-08 -4.59261e-06
0.00172447 -2.90596e-05 1.7191e-07
-2.90596e-05 0.000120446 2.64547e-08
1.7191e-07 2.64547e-08 1.09544e-05
0.00169985 -6.40069e-05 -7.18437e-07
-6.40069e-05 0.000102862 -1.83587e-07
-7.18437e-07 -1.83587e-07 3.764e-06
0.00101156 -0.000121182 -5.7735e-08
-0.000121182 0.000147438 3.7324e-07
-5.7735e-08 3.7324e-07 3.98937e-05
0.00072723 -0.00011324 1.70414e-06
-0.00011324 -1.46662e-05 -1.55555e-06
1.70414e-06 -1.55555e-06 -0.000142406
0.00126657 -0.000166522 -4.62894e-07
-0.000166522 0.000175934 4.84766e-08
-4.62894e-07 4.84766e-08 7.01096e-06
0.00164545 -0.000105055 5.92857e-07
-0.000105055 7.57911e-05 -1.77172e-07
5.92857e-07 -1.77172e-07 -2.94384e-05
0.00161865 -0.000183128 6.65503e-07
-0.000183128 0.000212331 -1.88384e-06
6.65503e-07 -1.88384e-06 6.89549e-05
0.00174647 -0.000160672 -1.27207e-06
-0.000160672 0.000144603 -5.07411e-07
-1.27207e-06 -5.07411e-07 3.42982e-05
0.000529553 2.71964e-05 4.84e-09
2.71964e-05 -0.000125195 -6.38923e-07
4.84e-09 -6.38923e-07 -0.000166072
0.00100437 -0.000119406 1.22755e-09
-0.000119406 0.000149684 2.61729e-07
1.22755e-09 2.61729e-07 4.30774e-05
0.00089307 -0.000111707 -5.22515e-07
-0.000111707 9.02598e-05 4.10248e-07
-5.22515e-07 4.10248e-07 -1.67044e-05
0.00101384 -7.59838e-05 -3.2951e-07
-7.59838e-05 0.000160371 8.30099e-07
-3.2951e-07 8.30099e-07 5.92047e-05
0.000963803 -2.61533e-05 -1.6863e-08
-2.61533e-05 0.000128954 2.25406e-08
-1.6863e-08 2.25406e-08 4.75167e-05
0.000799509 1.45951e-05 -1.7003e-07
1.45951e-05 3.19194e-05 2.76432e-07
-1.7003e-07 2.76432e-07 -3.29168e-05
0.00169172 -1.90768e-05 -4.74492e-08
-1.90768e-05 6.72099e-05 6.28523e-08
-4.74492e-08 6.28523e-08 -4.14465e-05
0.00177278 -4.56157e-05 -1.07745e-06
-4.56157e-05 0.000111005 -1.82181e-07
-1.07745e-06 -1.82181e-07 1.45433e-05
0.00161091 -7.90859e-05 1.4585e-08
-7.90859e-05 2.81475e-05 4.25642e-07
1.4585e-08 4.25642e-07 -6.51719e-05
0.00188273 -0.000132669 -1.62732e-06
-0.000132669 0.000157753 -4.77231e-08
-1.62732e-06 -4.77231e-08 6.02218e-05
0.000954304 -0.00011986 -1.20173e-06
-0.00011986 0.000120109 6.93477e-07
-1.20173e-06 6.93477e-07 6.94204e-06
0.00150408 -0.000175462 1.70405e-06
-0.000175462 3.39134e-05 1.51842e-07
1.70405e-06 1.51842e-07 -8.99171e-05
0.000760367 -0.000124547 -5.00106e-07
-0.000124547 -1.17852e-05 -3.83777e-06
-5.00106e-07 -3.83777e-06 -0.000168346
0.00177269 -0.000203392 1.16549e-06
-0.000203392 0.000400227 1.20556e-06
1.16549e-06 1.20556e-06 0.000219397
0.000553589 2.21857e-05 7.69864e-07
2.21857e-05 -0.000115048 -2.45465e-06
7.69864e-07 -2.45465e-06 -0.000152793
0.000914236 2.14078e-07 1.1441e-06
2.14078e-07 9.47789e-05 -8.92931e-07
1.1441e-06 -8.92931e-07 3.36101e-05
0.00100227 -4.10034e-05 1.10013e-07
-4.10034e-05 0.000150799 6.98332e-07
1.10013e-07 6.98332e-07 7.28751e-05
0.00092029 -1.61495e-05 3.04466e-07
-1.61495e-05 0.000105988 -6.6466e-07
3.04466e-07 -6.6466e-07 1.56816e-05
0.0010593 -0.000123422 -6.46261e-07
-0.000123422 0.000177029 1.80771e-06
-6.46261e-07 1.80771e-06 6.58102e-05
0.000948509 -0.000117092 -2.43674e-06
-0.000117092 0.000117446 2.88827e-06
-2.43674e-06 2.88827e-06 7.93985e-06
0.00076535 -3.27506e-05 -1.66343e-06
-3.27506e-05 7.49299e-06 -1.47362e-06
-1.66343e-06 -1.47362e-06 -2.63935e-05
0.000793015 -4.47943e-05 -1.86216e-07
-4.47943e-05 2.76293e-05 -8.20792e-07
-1.86216e-07 -8.20792e-07 -2.9213e-05
0.00161326 0.000115738 1.57557e-07
0.000115738 0.000101426 5.35815e-07
1.57557e-07 5.35815e-07 -2.45921e-05
0.000856747 -2.00203e-05 3.02262e-07
-2.00203e-05 7.32188e-05 -4.50136e-07
3.02262e-07 -4.50136e-07 -6.46471e-06
0.000926819 0.000111314 4.9216e-08
0.000111314 0.00012375 -3.76593e-07
4.9216e-08 -3.76593e-07 1.03834e-05
0.000800227 4.55194e-05 2.75555e-07
4.55194e-05 5.63788e-05 -5.11467e-08
2.75555e-07 -5.11467e-08 -5.07636e-05
0.00139875 0.000160917 -6.82302e-07
0.000160917 0.000106426 -2.31069e-06
-6.82302e-07 -2.31069e-06 -2.81104e-05
0.00155877 0.000156966 2.40149e-06
0.000156966 9.28213e-05 1.41585e-07
2.40149e-06 1.41585e-07 -3.013e-05
0.000651812 0.000110003 1.64158e-07
0.000110003 -2.99727e-05 8.46277e-07
1.64158e-07 8.46277e-07 -0.000176817
0.00145917 0.000176964 -9.6516e-07
0.000176964 0.000253465 -7.17093e-08
-9.6516e-07 -7.17093e-08 0.000102258
0.000797361 -2.02978e-05 -4.24045e-07
-2.02978e-05 2.70797e-05 1.16701e-07
-4.24045e-07 1.16701e-07 -2.39198e-05
0.000771573 -1.41625e-05 -4.44983e-08
-1.41625e-05 2.2409e-05 7.41323e-07
-4.44983e-08 7.41323e-07 -4.92665e-05
0.00104939 0.000124739 -3.81554e-07
0.000124739 0.000195193 -1.43228e-06
-3.81554e-07 -1.43228e-06 6.58015e-05
0.000785265 -9.67506e-06 -1.53356e-07
-9.67506e-06 4.01528e-05 4.34001e-08
-1.53356e-07 4.34001e-08 -5.49808e-05
0.000910692 7.94527e-05 -9.12471e-07
7.94527e-05 0.000114409 -9.33527e-07
-9.12471e-07 -9.33527e-07 -2.56857e-07
0.00181683 0.000119826 -1.86695e-06
0.000119826 0.000160999 -6.068e-07
-1.86695e-06 -6.068e-07 5.92731e-05
0.00183484 0.000197503 1.32401e-06
0.000197503 0.000312857 5.32952e-07
1.32401e-06 5.32952e-07 0.000171541
0.00123981 0.00015037 -3.57003e-08
0.00015037 -0.000104713 9.74557e-07
-3.57003e-08 9.74557e-07 -0.000215202
0.00132883 0.000154414 1.45996e-06
0.000154414 0.000311436 2.02216e-06
1.45996e-06 2.02216e-06 0.000143727
0.000711416 0.000148984 -1.61389e-06
0.000148984 -0.000161594 -7.99073e-07
-1.61389e-06 -7.99073e-07 -0.000323296
0.0007112 -3.14033e-05 -4.42682e-08
-3.14033e-05 -1.4538e-05 1.08757e-06
-4.42682e-08 1.08757e-06 -7.83274e-05
0.000619242 2.58536e-05 -1.54101e-07
2.58536e-05 -4.58e-05 3.06947e-07
-1.54101e-07 3.06947e-07 -0.000136414
0.00108075 0.000127195 1.72035e-07
0.000127195 0.000209192 -5.22803e-07
1.72035e-07 -5.22803e-07 6.35923e-05
0.00036017 3.96164e-05 3.64905e-07
3.96164e-05 -0.000179459 7.44764e-09
3.64905e-07 7.44764e-09 -0.000294855
0.00190292 0.000111519 -1.5833e-06
0.000111519 0.000127542 -5.12296e-07
-1.5833e-06 -5.12296e-07 4.78091e-05
0.00188166 0.000149762 9.05051e-07
0.000149762 0.000144104 4.09351e-07
9.05051e-07 4.09351e-07 5.36781e-05
0.00155435 0.000199459 -8.265e-07
0.000199459 0.000139641 -2.48941e-06
-8.265e-07 -2.48941e-06 -7.43757e-06
0.000192597 9.88422e-05 -4.63711e-07
9.88422e-05 -0.000328609 1.40516e-06
-4.63711e-07 1.40516e-06 -0.000518743
0.000812098 7.52449e-07 -8.16937e-07
7.52449e-07 3.70484e-05 -2.25722e-07
-8.16937e-07 -2.25722e-07 -1.43539e-05
0.000809376 -1.61101e-05 -1.93381e-07
-1.61101e-05 3.95249e-05 4.09675e-07
-1.93381e-07 4.09675e-07 -2.26711e-05
0.000908981 -3.26162e-05 -1.44052e-07
-3.26162e-05 9.89201e-05 1.7822e-07
-1.44052e-07 1.7822e-07 3.03882e-05
0.000810438 -3.05901e-05 -8.99273e-07
-3.05901e-05 2.71684e-05 -6.37473e-07
-8.99273e-07 -6.37473e-07 -1.97033e-05
0.000705303 -4.31264e-05 1.31003e-07
-4.31264e-05 -1.83213e-05 -3.29143e-07
1.31003e-07 -3.29143e-07 -7.73564e-05
0.0008292 -1.36436e-05 2.84319e-08
-1.36436e-05 3.43173e-05 3.31436e-08
2.84319e-08 3.31436e-08 -1.23405e-05
0.000852472 1.53687e-05 -1.65816e-07
1.53687e-05 7.3499e-05 -3.37766e-07
-1.65816e-07 -3.37766e-07 4.04236e-06
0.000772444 -1.93228e-05 1.9849e-07
-1.93228e-05 2.28815e-05 2.4205e-07
1.9849e-07 2.4205e-07 -3.86719e-05
0.000876958 -1.1581e-05 2.35277e-07
-1.1581e-05 8.48436e-05 -2.52867e-07
2.35277e-07 -2.52867e-07 1.30884e-05
0.000811931 -4.3211e-05 -2.3019e-07
-4.3211e-05 4.65079e-05 2.06399e-07
-2.3019e-07 2.06399e-07 -2.08636e-05
0.000732764 3.26118e-06 3.88502e-07
3.26118e-06 -3.75045e-06 2.6076e-07
3.88502e-07 2.6076e-07 -6.29469e-05
0.000835886 8.78747e-06 5.27092e-07
8.78747e-06 3.70218e-05 5.27054e-07
5.27092e-07 5.27054e-07 -1.00099e-05
0.000776886 4.83272e-06 6.82856e-07
4.83272e-06 -2.5624e-06 1.50411e-06
6.82856e-07 1.50411e-06 -3.30942e-05
0.000785275 -6.76505e-06 -2.20211e-07
-6.76505e-06 1.26914e-06 -3.04846e-09
-2.20211e-07 -3.04846e-09 -2.82833e-05
0.00127255 -1.43889e-05 8.88475e-07
-1.43889e-05 0.000262285 1.91951e-06
8.88475e-07 1.91951e-06 0.000263308
0.000783106 -1.64554e-05 -5.26761e-07
-1.64554e-05 9.01593e-07 -1.70154e-06
-5.26761e-07 -1.70154e-06 -2.79621e-05
0.00128676 -2.01012e-05 -2.85321e-06
-2.01012e-05 0.000272827 -1.23539e-06
-2.85321e-06 -1.23539e-06 0.000273804
0.000964352 -1.72772e-05 1.28264e-05
-1.72772e-05 9.87617e-05 6.47041e-06
1.28264e-05 6.47041e-06 0.000114069
0.0013007 -2.61334e-05 -6.35618e-06
-2.61334e-05 0.000284456 -4.39514e-06
-6.35618e-06 -4.39514e-06 0.000284926
0.000912535 -2.34852e-05 4.95698e-06
-2.34852e-05 7.45236e-05 2.41137e-06
4.95698e-06 2.41137e-06 8.9276e-05
0.000850614 -2.8832e-05 -2.16093e-06
-2.8832e-05 4.69449e-05 -1.62102e-06
-2.16093e-06 -1.62102e-06 6.01365e-05
0.000700533 2.775e-05 8.99271e-07
2.775e-05 -3.95868e-05 -3.51548e-06
8.99271e-07 -3.51548e-06 -4.71535e-05
0.00070269 3.25859e-05 -1.6977e-07
3.25859e-05 -3.23561e-05 2.60647e-08
-1.6977e-07 2.60647e-08 -4.27363e-05
0.00222386 4.94187e-05 2.30465e-05
4.94187e-05 0.000809084 -3.81572e-06
2.30465e-05 -3.81572e-06 0.000824859
0.000709401 3.74634e-05 -1.9827e-06
3.74634e-05 -2.19907e-05 3.77657e-06
-1.9827e-06 3.77657e-06 -3.53857e-05
0.0023105 5.76243e-05 -1.53091e-06
5.76243e-05 0.00086467 -1.08326e-07
-1.53091e-06 -1.08326e-07 0.000878044
0.00242348 6.5278e-05 -3.54563e-05
6.5278e-05 0.000934641 3.41928e-06
-3.54563e-05 3.41928e-06 0.000945595
0.00165098 8.18872e-05 1.23588e-06
8.18872e-05 0.000107615 1.59494e-06
1.23588e-06 1.59494e-06 -6.51652e-06
0.00166562 3.69833e-05 4.13409e-07
3.69833e-05 8.99167e-05 -1.29078e-07
4.13409e-07 -1.29078e-07 -2.00139e-05
0.00164971 6.30791e-05 3.82755e-06
6.30791e-05 6.81792e-05 -9.31346e-08
3.82755e-06 -9.31346e-08 -3.04079e-05
0.00172943 3.32472e-05 1.83205e-06
3.32472e-05 8.64669e-05 -4.8235e-07
1.83205e-06 -4.8235e-07 -1.59047e-05
0.00175837 1.59855e-05 9.41021e-07
1.59855e-05 0.000118591 -3.3233e-07
9.41021e-07 -3.3233e-07 4.78623e-06
0.00163671 2.20558e-06 -1.39571e-06
2.20558e-06 9.08649e-05 -5.52619e-08
-1.39571e-06 -5.52619e-08 -2.80892e-05
0.00175213 6.69941e-06 -8.64892e-08
6.69941e-06 0.000112369 -8.77607e-09
-8.64892e-08 -8.77607e-09 -1.67855e-06
0.00174124 2.30447e-05 3.6647e-07
2.30447e-05 8.91404e-05 -1.42083e-07
3.6647e-07 -1.42083e-07 -1.63347e-05
0.00175712 4.59102e-05 7.59585e-07
4.59102e-05 9.73682e-05 -6.03175e-08
7.59585e-07 -6.03175e-08 -8.95179e-07
0.0017838 8.09628e-05 3.41727e-07
8.09628e-05 0.000130671 6.71089e-08
3.41727e-07 6.71089e-08 3.35456e-05
0.00176043 4.24254e-06 -9.63386e-07
4.24254e-06 9.44218e-05 3.49823e-07
-9.63386e-07 3.49823e-07 -1.34728e-05
0.00187768 3.23539e-05 -4.07208e-07
3.23539e-05 0.000137354 3.2677e-07
-4.07208e-07 3.2677e-07 4.3402e-05
0.00176304 7.58124e-05 -4.15128e-07
7.58124e-05 7.85439e-05 4.71071e-07
-4.15128e-07 4.71071e-07 -1.23839e-05
0.00172102 -1.0232e-05 -6.12351e-07
-1.0232e-05 0.000107724 -8.01589e-08
-6.12351e-07 -8.01589e-08 -5.30007e-06
0.00177075 -2.97905e-05 -2.29129e-07
-2.97905e-05 0.000145416 8.41658e-08
-2.29129e-07 8.41658e-08 3.64542e-05
0.00173639 -6.40581e-05 -2.59983e-08
-6.40581e-05 0.000123798 -1.9167e-07
-2.59983e-08 -1.9167e-07 2.35461e-05
0.00111235 -0.000126665 -1.40673e-07
-0.000126665 0.000199666 9.78547e-08
-1.40673e-07 9.78547e-08 9.15877e-05
0.00121204 -0.000140808 3.46075e-08
-0.000140808 0.000241797 1.09963e-06
3.46075e-08 1.09963e-06 0.000114038
0.00123084 -0.000162738 -2.49276e-06
-0.000162738 0.000161635 2.77674e-06
-2.49276e-06 2.77674e-06 -9.7327e-06
0.00168155 -0.000104913 4.70641e-07
-0.000104913 9.50543e-05 -6.36004e-07
4.70641e-07 -6.36004e-07 -1.01208e-05
0.00169695 -0.000162092 -7.61264e-07
-0.000162092 0.000123764 -3.4338e-08
-7.61264e-07 -3.4338e-08 1.31432e-05
0.00147515 -0.000172944 -2.50292e-06
-0.000172944 0.00013959 -3.61866e-06
-2.50292e-06 -3.61866e-06 1.26535e-07
0.00106522 -0.000123031 7.13343e-07
-0.000123031 0.000181614 -1.32764e-06
7.13343e-07 -1.32764e-06 7.45801e-05
0.000844554 -0.000107996 -1.38994e-06
-0.000107996 6.56479e-05 -1.79023e-06
-1.38994e-06 -1.79023e-06 -4.02748e-05
0.00100293 -9.08889e-05 6.28838e-07
-9.08889e-05 0.000159514 3.65332e-07
6.28838e-07 3.65332e-07 5.43866e-05
0.00052137 2.5895e-05 -9.44768e-07
2.5895e-05 -0.000129858 1.19194e-06
-9.44768e-07 1.19194e-06 -0.000170235
0.000984295 -1.45809e-05 4.95469e-08
-1.45809e-05 0.000138497 -8.69439e-08
4.95469e-08 -8.69439e-08 5.85069e-05
0.000682232 2.64869e-05 1.04847e-07
2.64869e-05 -3.53996e-05 1.1711e-06
1.04847e-07 1.1711e-06 -9.87567e-05
0.00176695 -1.69991e-05 -7.9435e-08
-1.69991e-05 0.000104739 6.07698e-08
-7.9435e-08 6.07698e-08 -3.93702e-06
0.00179859 -4.80881e-05 4.38632e-07
-4.80881e-05 0.000126652 -5.99903e-08
4.38632e-07 -5.99903e-08 3.06631e-05
0.00165758 -7.73202e-05 -5.70618e-08
-7.73202e-05 5.4302e-05 2.50528e-09
-5.70618e-08 2.50528e-09 -3.93852e-05
0.00101729 -0.000123251 -9.16809e-08
-0.000123251 0.000151462 8.32659e-07
-9.16809e-08 8.32659e-07 3.76736e-05
0.000758017 -0.000123195 -4.01009e-07
-0.000123195 -8.04107e-06 3.90542e-07
-4.01009e-07 3.90542e-07 -0.00016014
0.00171147 -0.000198473 -2.31435e-06
-0.000198473 0.000363826 1.52648e-06
-2.31435e-06 1.52648e-06 0.000184134
0.00188103 -0.000134421 5.71926e-07
-0.000134421 0.000154633 -1.54126e-07
5.71926e-07 -1.54126e-07 5.71698e-05
0.00165444 -0.000181083 1.06708e-06
-0.000181083 0.000110958 -1.29365e-06
1.06708e-06 -1.29365e-06 -1.39562e-05
0.000657466 2.18396e-05 2.00947e-07
2.18396e-05 -5.86764e-05 -5.99741e-07
2.00947e-07 -5.99741e-07 -9.51824e-05
0.000905849 9.3559e-06 -2.47469e-07
9.3559e-06 8.93157e-05 1.93081e-07
-2.47469e-07 1.93081e-07 2.89127e-05
0.00076231 -0.000105387 -1.02213e-06
-0.000105387 1.69853e-05 6.75377e-07
-1.02213e-06 6.75377e-07 -9.16181e-05
0.0010232 -0.000116795 1.09847e-06
-0.000116795 0.000157061 8.79296e-07
1.09847e-06 8.79296e-07 5.03737e-05
0.000880536 -2.38784e-05 1.11068e-07
-2.38784e-05 8.63464e-05 -3.71661e-07
1.11068e-07 -3.71661e-07 -5.95439e-06
0.000934312 -3.37238e-05 -6.26261e-07
-3.37238e-05 0.000113804 8.59069e-07
-6.26261e-07 8.59069e-07 3.58541e-05
0.00181497 -2.9705e-05 -9.62907e-07
-2.9705e-05 0.000109758 9.72955e-08
-9.62907e-07 9.72955e-08 1.30056e-05
0.00172517 -6.43173e-05 -1.17712e-06
-6.43173e-05 5.85078e-05 -1.16851e-07
-1.17712e-06 -1.16851e-07 -2.42311e-05
0.00163366 -9.44215e-05 -2.50079e-06
-9.44215e-05 -9.09607e-06 7.35392e-09
-2.50079e-06 7.35392e-09 -9.2931e-05
0.00203867 -0.000184765 -5.98257e-07
-0.000184765 0.000214744 -2.64587e-07
-5.98257e-07 -2.64587e-07 0.000117073
0.000523615 -9.74665e-05 -1.78056e-06
-9.74665e-05 -9.9945e-05 5.75276e-08
-1.78056e-06 5.75276e-08 -0.0002243
0.00156987 -0.000201347 -1.53661e-06
-0.000201347 0.000191343 4.90201e-06
-1.53661e-06 4.90201e-06 2.01858e-05
0.0017896 -0.000192797 1.02824e-06
-0.000192797 0.000513703 -3.61185e-06
1.02824e-06 -3.61185e-06 0.000333936
0.000791844 1.67703e-05 7.23972e-07
1.67703e-05 1.14593e-05 -1.74634e-06
7.23972e-07 -1.74634e-06 -2.17174e-05
0.000788198 -5.61348e-05 1.07709e-06
-5.61348e-05 3.19077e-05 -1.08825e-06
1.07709e-06 -1.08825e-06 -2.50253e-05
0.000685916 8.92766e-06 5.9173e-07
8.92766e-06 -2.7589e-05 -1.51769e-06
5.9173e-07 -1.51769e-06 -8.85403e-05
0.000876027 -3.211e-05 9.70802e-07
-3.211e-05 8.54696e-05 -6.83807e-08
9.70802e-07 -6.83807e-08 8.61006e-06
0.000895541 7.88957e-06 1.90156e-07
7.88957e-06 9.1997e-05 -2.01668e-07
1.90156e-07 -2.01668e-07 9.24914e-06
0.000733276 -0.000103418 1.44002e-06
-0.000103418 2.90002e-05 2.10701e-06
1.44002e-06 2.10701e-06 -8.00792e-05
0.000747325 -0.000103907 -3.57343e-06
-0.000103907 -1.97727e-05 1.53634e-06
-3.57343e-06 1.53634e-06 -0.00011694
0.00187243 -0.000169781 -3.63515e-06
-0.000169781 0.000634694 2.98468e-06
-3.63515e-06 2.98468e-06 0.000522666
0.000803673 -4.24856e-05 -4.70945e-07
-4.24856e-05 3.05176e-05 -7.08889e-07
-4.70945e-07 -7.08889e-07 -2.05851e-05
0.000842046 -1.78024e-06 -2.29035e-07
-1.78024e-06 6.03862e-05 1.69369e-07
-2.29035e-07 1.69369e-07 -1.12782e-05
0.0020801 0.000125956 1.3664e-06
0.000125956 0.000302897 5.37651e-07
1.3664e-06 5.37651e-07 0.000202139
0.000848391 1.03489e-05 -2.48772e-07
1.03489e-05 7.72612e-05 -3.19395e-07
-2.48772e-07 -3.19395e-07 -1.98092e-05
0.00112984 0.000129006 -3.70716e-07
0.000129006 0.000242266 -1.61942e-06
-3.70716e-07 -1.61942e-06 0.000114205
0.000753862 6.52613e-05 -8.33581e-07
6.52613e-05 3.20933e-05 1.24699e-06
-8.33581e-07 1.24699e-06 -7.97969e-05
0.00168168 0.00018873 1.07194e-06
0.00018873 0.000226697 -7.87201e-07
1.07194e-06 -7.87201e-07 8.62637e-05
0.00161673 0.000167736 6.20111e-06
0.000167736 9.56611e-05 3.08298e-06
6.20111e-06 3.08298e-06 -1.08065e-05
0.000842434 0.000127345 8.81208e-07
0.000127345 5.83225e-05 8.01343e-07
8.81208e-07 8.01343e-07 -0.000109984
0.00118507 0.000176984 -3.60254e-06
0.000176984 8.45617e-05 -1.16853e-06
-3.60254e-06 -1.16853e-06 -8.28703e-05
0.000718533 -1.28425e-05 1.55309e-07
-1.28425e-05 -7.84579e-06 5.37674e-07
1.55309e-07 5.37674e-07 -7.43419e-05
0.000724598 3.90327e-05 -1.25625e-07
3.90327e-05 1.14097e-05 -1.07987e-06
-1.25625e-07 -1.07987e-06 -7.98801e-05
0.00100347 0.00012302 2.17057e-07
0.00012302 0.000172843 -1.19813e-06
2.17057e-07 -1.19813e-06 2.58632e-05
0.000760225 6.38756e-05 -5.92151e-07
6.38756e-05 3.4548e-05 -6.6214e-07
-5.92151e-07 -6.6214e-07 -8.20845e-05
0.00194493 0.000107473 1.29421e-07
0.000107473 0.000154781 -4.78512e-07
1.29421e-07 -4.78512e-07 7.60302e-05
0.00173334 0.000149634 1.92307e-06
0.000149634 7.78788e-05 -1.85375e-07
1.92307e-06 -1.85375e-07 -1.56928e-05
0.00186798 0.000211815 -2.71005e-06
0.000211815 0.00030018 -3.77025e-07
-2.71005e-06 -3.77025e-07 0.000154759
0.000688894 0.000131998 9.84604e-07
0.000131998 -8.2325e-05 4.93461e-07
9.84604e-07 4.93461e-07 -0.000270628
0.000876932 -2.20477e-05 5.60352e-08
-2.20477e-05 8.22308e-05 1.99734e-07
5.60352e-08 1.99734e-07 8.91238e-06
0.00169437 7.49631e-05 5.17757e-07
7.49631e-05 8.82866e-06 9.81373e-07
5.17757e-07 9.81373e-07 -6.18603e-05
0.00117727 0.000112653 -2.57663e-07
0.000112653 0.000274491 2.25563e-06
-2.57663e-07 2.25563e-06 0.000159566
0.0010363 0.000128725 5.23513e-07
0.000128725 0.00017487 1.01734e-06
5.23513e-07 1.01734e-06 2.10175e-05
0.00218793 0.000137808 -3.06919e-06
0.000137808 0.00022157 3.37229e-07
-3.06919e-06 3.37229e-07 0.000149565
0.00162299 0.000209907 9.26453e-07
0.000209907 2.15883e-05 -2.27902e-06
9.26453e-07 -2.27902e-06 -9.93577e-05
0.001899 0.000212653 -1.26902e-06
0.000212653 0.000472713 2.03875e-06
-1.26902e-06 2.03875e-06 0.000276919
0.000888148 -8.02192e-06 -1.44054e-06
-8.02192e-06 8.11724e-05 -6.63614e-08
-1.44054e-06 -6.63614e-08 1.99787e-05
0.000882898 -2.36152e-05 -4.73678e-08
-2.36152e-05 8.47854e-05 -3.2142e-08
-4.73678e-08 -3.2142e-08 1.64325e-05
0.000900603 -2.17547e-05 -1.49838e-07
-2.17547e-05 0.000100865 5.01463e-07
-1.49838e-07 5.01463e-07 2.582e-05
0.000807896 -2.88572e-05 -4.91143e-07
-2.88572e-05 2.38326e-05 -6.83849e-07
-4.91143e-07 -6.83849e-07 -2.35014e-05
0.000811216 -7.46728e-06 3.1859e-08
-7.46728e-06 4.32688e-05 3.67931e-07
3.1859e-08 3.67931e-07 -1.805e-05
0.000743569 -6.12892e-06 -2.51418e-07
-6.12892e-06 1.62235e-05 -4.5321e-07
-2.51418e-07 -4.5321e-07 -5.4429e-05
0.000820864 -1.73885e-05 -1.22848e-07
-1.73885e-05 3.17933e-05 1.99949e-08
-1.22848e-07 1.99949e-08 -1.71755e-05
0.000759485 -2.53475e-05 -5.43798e-07
-2.53475e-05 1.28156e-05 2.55674e-07
-5.43798e-07 2.55674e-07 -4.78266e-05
0.000846227 -3.80939e-05 3.90686e-07
-3.80939e-05 6.74576e-05 -3.96481e-07
3.90686e-07 -3.96481e-07 -4.66778e-06
0.000870342 4.64734e-06 1.2111e-07
4.64734e-06 8.15628e-05 5.62499e-07
1.2111e-07 5.62499e-07 1.25595e-05
0.000803691 -2.30453e-05 5.96539e-07
-2.30453e-05 4.29867e-05 -8.09124e-07
5.96539e-07 -8.09124e-07 -3.1732e-05
0.000802084 -5.34731e-05 -2.13249e-08
-5.34731e-05 3.94679e-05 1.27665e-07
-2.13249e-08 1.27665e-07 -3.27887e-05
0.000907759 1.10069e-05 5.41894e-07
1.10069e-05 9.64238e-05 -1.99976e-08
5.41894e-07 -1.99976e-08 3.05186e-05
0.000825424 9.34014e-06 1.28356e-06
9.34014e-06 4.709e-05 -1.91073e-09
1.28356e-06 -1.91073e-09 -1.6183e-05
0.000828105 5.36757e-06 5.58338e-07
5.36757e-06 3.36235e-05 5.07528e-07
5.58338e-07 5.07528e-07 -1.4554e-05
0.000771437 9.57764e-06 4.2107e-07
9.57764e-06 -4.04569e-06 1.46229e-06
4.2107e-07 1.46229e-06 -3.55177e-05
0.000780701 -1.34003e-06 -1.57588e-07
-1.34003e-06 -3.7513e-07 -1.60399e-10
-1.57588e-07 -1.60399e-10 -3.09319e-05
0.00128209 -7.01832e-06 6.72187e-07
-7.01832e-06 0.000266207 1.88596e-06
6.72187e-07 1.88596e-06 0.000266859
0.000789892 -1.27667e-05 -3.4516e-07
-1.27667e-05 4.06622e-06 -1.57796e-06
-3.4516e-07 -1.57796e-06 -2.56062e-05
0.00130287 -1.29404e-05 -2.1207e-06
-1.29404e-05 0.000279247 -1.27929e-06
-2.1207e-06 -1.27929e-06 0.000280067
0.000978052 -1.19088e-05 9.61284e-06
-1.19088e-05 0.000103651 6.63938e-06
9.61284e-06 6.63938e-06 0.000118965
0.00131789 -1.89632e-05 -4.78207e-06
-1.89632e-05 0.000289871 -4.4286e-06
-4.78207e-06 -4.4286e-06 0.000290659
0.000927036 -1.79092e-05 3.55029e-06
-1.79092e-05 7.78048e-05 2.4889e-06
3.55029e-06 2.4889e-06 9.31693e-05
0.000864473 -2.34207e-05 -1.57591e-06
-2.34207e-05 4.81001e-05 -1.61109e-06
-1.57591e-06 -1.61109e-06 6.29377e-05
0.00078243 1.15984e-05 3.83033e-07
1.15984e-05 4.23115e-06 -1.70382e-06
3.83033e-07 -1.70382e-06 -2.70229e-05
0.000715725 2.23635e-05 8.20513e-07
2.23635e-05 -3.7044e-05 -3.42226e-06
8.20513e-07 -3.42226e-06 -4.22066e-05
0.00071502 2.81953e-05 -1.48816e-07
2.81953e-05 -3.18721e-05 2.82859e-08
-1.48816e-07 2.82859e-08 -3.9522e-05
0.00216266 4.11816e-05 1.89425e-05
4.11816e-05 0.000768959 -3.92469e-06
1.89425e-05 -3.92469e-06 0.000786773
0.000718771 3.31885e-05 -1.58351e-06
3.31885e-05 -2.37597e-05 3.63865e-06
-1.58351e-06 3.63865e-06 -3.42431e-05
0.00224431 4.97984e-05 -1.76848e-06
4.97984e-05 0.000821178 -1.01038e-07
-1.76848e-06 -1.01038e-07 0.000836694
0.00233633 5.77415e-05 -3.04006e-05
5.77415e-05 0.000879693 3.64188e-06
-3.04006e-05 3.64188e-06 0.000892845
0.00183849 7.78609e-05 1.55272e-06
7.78609e-05 0.000153589 8.91788e-07
1.55272e-06 8.91788e-07 5.7076e-05
0.00174074 4.72499e-05 1.35724e-06
4.72499e-05 8.90213e-05 -3.19445e-07
1.35724e-06 -3.19445e-07 -9.60168e-06
0.00172939 2.26005e-05 1.37158e-06
2.26005e-05 8.36867e-05 -5.45441e-07
1.37158e-06 -5.45441e-07 -2.20644e-05
0.00175569 7.56679e-06 2.38312e-07
7.56679e-06 0.000116264 -1.96137e-07
2.38312e-07 -1.96137e-07 2.54624e-06
0.00177864 4.21356e-06 -4.18666e-07
4.21356e-06 0.000104515 9.69449e-08
-4.18666e-07 9.69449e-08 -2.50732e-06
0.00185874 3.07978e-05 3.78457e-07
3.07978e-05 0.000124052 -2.04368e-07
3.78457e-07 -2.04368e-07 2.97382e-05
0.00174487 7.7438e-05 -5.22212e-08
7.7438e-05 6.44689e-05 -1.02269e-07
-5.22212e-08 -1.02269e-07 -2.637e-05
0.00178976 2.00314e-06 -1.19747e-06
2.00314e-06 9.64859e-05 6.95219e-07
-1.19747e-06 6.95219e-07 1.24453e-06
0.00198141 4.21781e-05 -7.22659e-07
4.21781e-05 0.000176914 5.10445e-08
-7.22659e-07 5.10445e-08 9.28528e-05
0.00151123 2.79561e-05 8.80267e-07
2.79561e-05 -9.4059e-05 4.01918e-07
8.80267e-07 4.01918e-07 -0.000158222
0.00183743 -1.51554e-05 -5.31482e-08
-1.51554e-05 0.000140109 -8.57136e-08
-5.31482e-08 -8.57136e-08 3.14148e-05
0.00181852 -5.09227e-05 2.15679e-06
-5.09227e-05 0.000139313 -3.57849e-08
2.15679e-06 -3.57849e-08 4.37985e-05
0.00171214 -7.69652e-05 -1.1942e-07
-7.69652e-05 8.37779e-05 -3.80655e-07
-1.1942e-07 -3.80655e-07 -1.03523e-05
0.00109702 -0.000127721 -4.59326e-07
-0.000127721 0.000192002 1.54648e-06
-4.59326e-07 1.54648e-06 7.743e-05
0.00080525 -0.000124785 2.87646e-07
-0.000124785 2.21184e-05 3.84661e-06
2.87646e-07 3.84661e-06 -0.000125358
0.00158161 -0.000189745 -2.45774e-06
-0.000189745 0.000290793 3.1403e-06
-2.45774e-06 3.1403e-06 0.000113452
0.00191466 -0.0001364 4.84647e-06
-0.0001364 0.000169265 -8.04079e-07
4.84647e-06 -8.04079e-07 7.18746e-05
0.0018306 -0.000186958 -1.64646e-06
-0.000186958 0.000201897 -2.75564e-06
-1.64646e-06 -2.75564e-06 7.5983e-05
0.000477024 -8.82018e-05 -1.51001e-06
-8.82018e-05 -0.000136962 6.26251e-07
-1.51001e-06 6.26251e-07 -0.000243029
0.00115319 -0.000122489 5.2766e-06
-0.000122489 0.000227169 -3.13022e-06
5.2766e-06 -3.13022e-06 0.000122258
0.000803946 9.66138e-06 2.4823e-08
9.66138e-06 3.88293e-05 -4.44242e-07
2.4823e-08 -4.44242e-07 -4.87088e-05
0.000764529 2.10688e-05 -7.52837e-07
2.10688e-05 -7.87839e-07 1.12291e-06
-7.52837e-07 1.12291e-06 -3.60245e-05
0.000904679 2.57102e-05 -5.51176e-07
2.57102e-05 8.86403e-05 1.21869e-06
-5.51176e-07 1.21869e-06 2.82806e-05
0.000863872 -1.24422e-05 -5.84724e-07
-1.24422e-05 7.59823e-05 9.66151e-07
-5.84724e-07 9.66151e-07 -2.27609e-06
0.00184414 -2.96901e-05 -1.62839e-07
-2.96901e-05 0.00012903 1.10997e-07
-1.62839e-07 1.10997e-07 3.39e-05
0.000784045 1.53677e-05 8.82428e-08
1.53677e-05 6.98518e-06 1.45238e-08
8.82428e-08 1.45238e-08 -2.61212e-05
0.000725138 -9.31097e-06 -3.43848e-07
-9.31097e-06 -9.31562e-06 8.84288e-08
-3.43848e-07 8.84288e-08 -6.19121e-05
0.00178375 -6.70881e-05 -4.38531e-08
-6.70881e-05 9.101e-05 -1.16292e-07
-4.38531e-08 -1.16292e-07 7.56284e-06
0.00160394 -9.37459e-05 -7.79659e-07
-9.37459e-05 -2.94827e-05 5.49777e-07
-7.79659e-07 5.49777e-07 -0.000115282
0.000658099 -0.000104175 -1.35574e-07
-0.000104175 -2.2522e-05 2.23415e-06
-1.35574e-07 2.23415e-06 -0.00014498
0.00145119 -0.000171945 -1.24264e-06
-0.000171945 0.000335196 5.71647e-07
-1.24264e-06 5.71647e-07 0.000150186
0.00137939 -0.000187422 1.22715e-06
-0.000187422 8.83689e-05 5.89689e-07
1.22715e-06 5.89689e-07 -7.69355e-05
0.00196209 -0.000187555 1.58511e-06
-0.000187555 0.000177968 -4.43242e-07
1.58511e-06 -4.43242e-07 7.94538e-05
0.000869222 -1.98265e-05 1.14257e-06
-1.98265e-05 7.12281e-05 -5.68333e-07
1.14257e-06 -5.68333e-07 1.2412e-05
0.000859074 -1.94521e-05 -3.96721e-07
-1.94521e-05 7.76731e-05 5.02158e-07
-3.96721e-07 5.02158e-07 -2.22713e-07
0.000903205 -0.000106032 4.81168e-07
-0.000106032 5.84774e-05 1.34725e-07
4.81168e-07 1.34725e-07 -4.20815e-05
0.00124741 -0.000133983 3.69116e-06
-0.000133983 0.000296984 -1.58883e-06
3.69116e-06 -1.58883e-06 0.000197663
0.000707391 -7.42966e-05 -5.19632e-07
-7.42966e-05 1.09431e-05 3.23548e-07
-5.19632e-07 3.23548e-07 -9.58321e-05
0.000889867 2.86842e-06 2.03555e-07
2.86842e-06 9.09884e-05 -3.47348e-07
2.03555e-07 -3.47348e-07 6.65424e-06
0.00189859 -3.51002e-05 -2.66425e-06
-3.51002e-05 0.000131255 -1.70608e-08
-2.66425e-06 -1.70608e-08 5.45155e-05
0.00189162 -6.0355e-05 2.95293e-06
-6.0355e-05 0.000120272 3.26979e-07
2.95293e-06 3.26979e-07 4.59938e-05
0.00180771 -0.000163357 -6.5461e-06
-0.000163357 2.13907e-05 -1.32576e-06
-6.5461e-06 -1.32576e-06 -5.82987e-05
0.00116281 -0.000189459 -1.33301e-07
-0.000189459 -0.000174428 1.37762e-06
-1.33301e-07 1.37762e-06 -0.000287889
0.000994878 -9.8249e-05 -3.18383e-06
-9.8249e-05 0.000137391 -1.62152e-06
-3.18383e-06 -1.62152e-06 1.24551e-05
0.00206226 -0.000227277 -2.67406e-06
-0.000227277 0.000598382 2.59532e-07
-2.67406e-06 2.59532e-07 0.00038805
0.000617756 4.21131e-05 -1.0499e-06
4.21131e-05 -6.39225e-05 -1.54678e-06
-1.0499e-06 -1.54678e-06 -0.000117221
0.000804631 -2.6792e-05 6.64753e-07
-2.6792e-05 3.23583e-05 -1.0554e-06
6.64753e-07 -1.0554e-06 -2.16685e-05
0.000988693 -3.49697e-05 8.95061e-07
-3.49697e-05 0.000150111 -3.92365e-07
8.95061e-07 -3.92365e-07 8.1569e-05
0.000675678 1.81334e-05 -4.75762e-07
1.81334e-05 -1.89776e-05 -4.69881e-07
-4.75762e-07 -4.69881e-07 -9.78103e-05
0.00103902 -1.51678e-05 2.73287e-07
-1.51678e-05 0.000175503 7.90852e-08
2.73287e-07 7.90852e-08 9.35888e-05
0.000508804 -2.01697e-05 5.05229e-07
-2.01697e-05 -9.75603e-05 4.30702e-07
5.05229e-07 4.30702e-07 -0.000195756
0.00111113 -7.94742e-05 5.71912e-06
-7.94742e-05 0.00025569 3.16641e-07
5.71912e-06 3.16641e-07 0.000132684
0.000760108 -0.000112505 -1.14002e-05
-0.000112505 1.00832e-05 3.40434e-06
-1.14002e-05 3.40434e-06 -7.93492e-05
0.000709375 6.38261e-06 -2.67935e-07
6.38261e-06 -1.032e-05 -3.87224e-08
-2.67935e-07 -3.87224e-08 -7.93767e-05
0.000828248 4.93743e-05 -1.72923e-06
4.93743e-05 6.73743e-05 -2.00074e-06
-1.72923e-06 -2.00074e-06 -2.44939e-05
0.00197668 0.00010383 -6.03756e-07
0.00010383 0.000174693 -3.96516e-07
-6.03756e-07 -3.96516e-07 9.69585e-05
0.00156299 0.000148525 2.18488e-06
0.000148525 -5.13325e-08 1.08496e-06
2.18488e-06 1.08496e-06 -9.68012e-05
0.00117877 6.95546e-05 -2.41951e-06
6.95546e-05 0.000255622 -3.92111e-07
-2.41951e-06 -3.92111e-07 0.000139451
0.000932766 0.00011896 -6.84511e-07
0.00011896 0.000139234 -2.524e-06
-6.84511e-07 -2.524e-06 -8.6117e-06
0.00222069 0.000225796 1.09133e-06
0.000225796 0.000481709 7.91875e-07
1.09133e-06 7.91875e-07 0.00033748
0.00124756 0.000168382 -9.85391e-07
0.000168382 0.000198545 -8.99097e-07
-9.85391e-07 -8.99097e-07 1.11542e-05
0.000854912 6.29299e-06 4.46537e-07
6.29299e-06 7.39576e-05 -5.84771e-07
4.46537e-07 -5.84771e-07 -1.90377e-06
0.00176719 7.27139e-05 -3.07024e-07
7.27139e-05 4.21586e-05 1.57914e-07
-3.07024e-07 1.57914e-07 -2.82043e-05
0.000930207 7.99487e-05 9.85406e-08
7.99487e-05 0.00013769 1.12836e-06
9.85406e-08 1.12836e-06 2.76947e-05
0.000821955 0.000115455 3.57019e-07
0.000115455 6.07693e-05 -2.12431e-07
3.57019e-07 -2.12431e-07 -9.52638e-05
0.00197327 0.000132088 2.2093e-06
0.000132088 0.000109405 -7.55526e-08
2.2093e-06 -7.55526e-08 3.70331e-05
0.00179923 0.000214463 1.57984e-07
0.000214463 0.00010927 -1.18122e-06
1.57984e-07 -1.18122e-06 -9.80252e-06
0.00190898 0.000215921 8.79545e-07
0.000215921 0.000485808 1.28981e-06
8.79545e-07 1.28981e-06 0.000289798
0.00102755 2.48962e-05 -1.1295e-06
2.48962e-05 0.000179501 9.66158e-07
-1.1295e-06 9.66158e-07 8.66656e-05
0.00194049 8.50696e-05 -9.5774e-06
8.50696e-05 0.000101319 -8.1941e-07
-9.5774e-06 -8.1941e-07 5.42487e-05
0.00184276 0.000151239 -2.59736e-06
0.000151239 0.000608296 4.70808e-07
-2.59736e-06 4.70808e-07 0.00048043
0.00199163 0.00019913 -3.24112e-06
0.00019913 0.00064187 1.14567e-06
-3.24112e-06 1.14567e-06 0.000463701
0.00242643 0.000237716 -2.01883e-08
0.000237716 0.000323093 -1.02179e-06
-2.01883e-08 -1.02179e-06 0.00024275
0.00149917 0.000210845 -3.19198e-06
0.000210845 0.000144776 5.89935e-07
-3.19198e-06 5.89935e-07 -2.57239e-05
0.000358228 9.42639e-05 1.24766e-05
9.42639e-05 -0.000415694 1.44221e-06
1.24766e-05 1.44221e-06 -0.000559486
0.000863526 -7.94818e-06 1.69697e-08
-7.94818e-06 7.47339e-05 -3.37155e-07
1.69697e-08 -3.37155e-07 6.24317e-06
0.000889074 -1.92745e-05 -7.75998e-08
-1.92745e-05 9.56247e-05 1.60881e-07
-7.75998e-08 1.60881e-07 2.01037e-05
0.000909792 -1.18777e-05 9.30954e-08
-1.18777e-05 0.00010118 -7.80095e-07
9.30954e-08 -7.80095e-07 2.16044e-05
0.000812596 -4.12594e-05 -2.51295e-07
-4.12594e-05 2.94354e-05 -6.5725e-07
-2.51295e-07 -6.5725e-07 -2.09897e-05
0.000776719 -5.25596e-05 -9.35047e-07
-5.25596e-05 2.26098e-05 2.64317e-07
-9.35047e-07 2.64317e-07 -3.82213e-05
0.000903906 5.32534e-05 -8.10217e-07
5.32534e-05 0.000103707 4.92088e-07
-8.10217e-07 4.92088e-07 3.29642e-05
0.000816818 -4.02702e-05 9.64659e-08
-4.02702e-05 5.21968e-05 -1.05283e-07
9.64659e-08 -1.05283e-07 -2.11205e-05
0.000811089 -2.38852e-05 -1.09852e-07
-2.38852e-05 2.9412e-05 4.16805e-08
-1.09852e-07 4.16805e-08 -2.20646e-05
0.000779583 3.13853e-06 4.08745e-08
3.13853e-06 1.60408e-05 -5.68741e-08
4.08745e-08 -5.68741e-08 -4.30473e-05
0.000829043 -2.63865e-05 4.09499e-07
-2.63865e-05 5.6232e-05 -4.76959e-07
4.09499e-07 -4.76959e-07 -1.90902e-05
0.00089708 -2.32873e-05 -8.22603e-08
-2.32873e-05 8.87117e-05 2.74291e-08
-8.22603e-08 2.74291e-08 2.39109e-05
0.000894537 -4.12223e-05 3.29851e-07
-4.12223e-05 8.95742e-05 -4.10212e-08
3.29851e-07 -4.10212e-08 1.79752e-05
0.000858534 -3.23575e-05 -1.20141e-07
-3.23575e-05 6.61041e-05 -6.28766e-07
-1.20141e-07 -6.28766e-07 -7.67387e-06
0.000842165 -1.24791e-05 5.53574e-07
-1.24791e-05 5.31242e-05 -7.70031e-07
5.53574e-07 -7.70031e-07 -1.23279e-05
0.000894188 -7.53627e-07 7.50863e-07
-7.53627e-07 7.99683e-05 -3.25212e-07
7.50863e-07 -3.25212e-07 1.69434e-05
0.000835058 2.15339e-05 1.74644e-07
2.15339e-05 4.85846e-05 8.50528e-08
1.74644e-07 8.50528e-08 -1.7235e-05
0.000719103 -5.59461e-06 1.20561e-07
-5.59461e-06 -2.62359e-05 9.44008e-07
1.20561e-07 9.44008e-07 -7.63201e-05
0.000934196 -4.3956e-06 3.09507e-07
-4.3956e-06 0.000115152 -4.34347e-07
3.09507e-07 -4.34347e-07 4.69774e-05
0.000697969 8.34894e-06 -4.98597e-07
8.34894e-06 -3.35016e-05 9.40516e-07
-4.98597e-07 9.40516e-07 -8.52087e-05
0.000774132 1.25318e-05 1.74023e-07
1.25318e-05 -1.65838e-06 1.41908e-06
1.74023e-07 1.41908e-06 -3.35522e-05
0.000774149 2.75511e-06 -1.71032e-07
2.75511e-06 -2.55063e-06 1.46268e-09
-1.71032e-07 1.46268e-09 -3.39821e-05
0.000722092 7.6177e-07 2.39986e-07
7.6177e-07 -4.22457e-05 3.17377e-06
2.39986e-07 3.17377e-06 -4.52804e-05
0.000786502 -7.72592e-06 -2.68545e-08
-7.72592e-06 2.91735e-06 -1.47581e-06
-2.68545e-08 -1.47581e-06 -2.76696e-05
0.00101957 -5.33891e-06 -1.3653e-06
-5.33891e-06 0.000121829 -1.33415e-06
-1.3653e-06 -1.33415e-06 0.000120761
0.00211463 -8.36369e-06 5.93234e-06
-8.36369e-06 0.000727993 4.18779e-06
5.93234e-06 4.18779e-06 0.000749632
0.00133135 -1.19695e-05 -2.91002e-06
-1.19695e-05 0.000295159 -4.45651e-06
-2.91002e-06 -4.45651e-06 0.000295733
0.000938274 -1.21685e-05 1.92158e-06
-1.21685e-05 8.09711e-05 2.56509e-06
1.92158e-06 2.56509e-06 9.64882e-05
0.000884315 -1.7545e-05 -1.08071e-06
-1.7545e-05 5.39804e-05 -1.61894e-06
-1.08071e-06 -1.61894e-06 6.9564e-05
0.00078421 8.1935e-06 2.68224e-07
8.1935e-06 4.78932e-06 -1.66441e-06
2.68224e-07 -1.66441e-06 -2.54023e-05
0.00078556 1.06424e-05 -3.30989e-08
1.06424e-05 5.69674e-06 3.46728e-09
-3.30989e-08 3.46728e-09 -2.55791e-05
0.0007264 1.66724e-05 4.67927e-07
1.66724e-05 -3.55507e-05 -3.38385e-06
4.67927e-07 -3.38385e-06 -3.90509e-05
0.00102124 2.54026e-05 -4.68197e-07
2.54026e-05 0.000131209 3.19529e-08
-4.68197e-07 3.19529e-08 0.00012748
0.00211973 3.25972e-05 1.57005e-05
3.25972e-05 0.000739787 -4.05081e-06
1.57005e-05 -4.05081e-06 0.000759321
0.000727877 2.86532e-05 -1.09556e-06
2.86532e-05 -2.50132e-05 3.51679e-06
-1.09556e-06 3.51679e-06 -3.27488e-05
0.00218247 4.17139e-05 -1.85212e-06
4.17139e-05 0.000780669 -8.87906e-08
-1.85212e-06 -8.87906e-08 0.000798198
0.00226504 5.00388e-05 -2.57097e-05
5.00388e-05 0.000833432 3.817e-06
-2.57097e-05 3.817e-06 0.00084871
0.00172458 7.91559e-05 -4.32545e-07
7.91559e-05 4.95563e-05 -4.16922e-07
-4.32545e-07 -4.16922e-07 -4.12161e-05
0.00183269 2.99893e-05 9.50488e-07
2.99893e-05 0.000107009 -5.24954e-07
9.50488e-07 -5.24954e-07 1.23123e-05
0.00180487 6.93954e-07 2.73018e-07
6.93954e-07 0.000118631 -2.23652e-07
2.73018e-07 -2.23652e-07 1.24739e-05
0.00177034 3.9634e-06 3.5629e-07
3.9634e-06 8.30724e-05 1.28406e-07
3.5629e-07 1.28406e-07 -1.24259e-05
0.00185093 4.09129e-05 -9.06499e-07
4.09129e-05 0.000112235 1.57803e-07
-9.06499e-07 1.57803e-07 2.78268e-05
0.00172634 2.59555e-05 2.28113e-06
2.59555e-05 2.71948e-05 1.24216e-07
2.28113e-06 1.24216e-07 -3.98153e-05
0.00163073 5.43692e-06 -1.44505e-06
5.43692e-06 -8.93625e-06 -5.64242e-07
-1.44505e-06 -5.64242e-07 -8.20427e-05
0.00341892 2.25905e-06 1.0938e-05
2.25905e-06 0.000733679 3.34689e-06
1.0938e-05 3.34689e-06 0.000681855
0.0016322 3.04951e-05 -5.52819e-06
3.04951e-05 -4.99657e-05 3.66445e-07
-5.52819e-06 3.66445e-07 -9.0271e-05
0.000809499 2.92132e-05 6.64824e-09
2.92132e-05 3.81834e-05 -8.82113e-07
6.64824e-09 -8.82113e-07 -1.11703e-05
0.00187507 -2.97351e-05 1.43873e-06
-2.97351e-05 0.000148771 -2.20709e-09
1.43873e-06 -2.20709e-09 5.52459e-05
0.00182984 -6.78355e-05 4.0885e-07
-6.78355e-05 0.000118145 -2.74304e-07
4.0885e-07 -2.74304e-07 3.40862e-05
0.00165449 -9.35614e-05 2.82199e-06
-9.35614e-05 -4.63694e-06 2.37799e-08
2.82199e-06 2.37799e-08 -9.18958e-05
0.000810972 -0.00011183 1.8321e-06
-0.00011183 6.50323e-05 2.90489e-06
1.8321e-06 2.90489e-06 -5.562e-05
0.00113833 -0.000152127 1.17928e-06
-0.000152127 0.000171542 4.4932e-06
1.17928e-06 4.4932e-06 -2.07446e-05
0.00119766 -0.000175216 1.01916e-06
-0.000175216 -8.60821e-06 -2.33488e-06
1.01916e-06 -2.33488e-06 -0.000169541
0.00192 -0.000193351 1.60147e-06
-0.000193351 0.00015825 -2.00097e-06
1.60147e-06 -2.00097e-06 5.86899e-05
0.00106624 -0.000114852 6.84971e-06
-0.000114852 0.000142458 -3.28887e-06
6.84971e-06 -3.28887e-06 3.75042e-05
0.000555134 -9.58015e-05 4.92738e-07
-9.58015e-05 -7.56897e-05 -8.51567e-06
4.92738e-07 -8.51567e-06 -0.000162299
0.000655653 -6.93804e-05 -2.23044e-07
-6.93804e-05 -1.78202e-05 -3.54454e-07
-2.23044e-07 -3.54454e-07 -0.000124872
0.000778719 1.42943e-05 -7.9707e-07
1.42943e-05 3.96013e-06 1.79493e-06
-7.9707e-07 1.79493e-06 -2.91041e-05
0.000897745 -7.03682e-06 -3.07792e-08
-7.03682e-06 9.73203e-05 -5.21245e-07
-3.07792e-08 -5.21245e-07 1.12534e-05
0.00104569 -4.66189e-05 -4.09806e-07
-4.66189e-05 0.000170293 4.35175e-07
-4.09806e-07 4.35175e-07 0.000110989
0.000849258 -1.21973e-05 -7.78894e-07
-1.21973e-05 7.21077e-05 1.02062e-06
-7.78894e-07 1.02062e-06 -5.7232e-06
0.00065815 -5.65633e-06 -1.85276e-07
-5.65633e-06 -4.89384e-05 9.96925e-07
-1.85276e-07 9.96925e-07 -9.98992e-05
0.0018648 -3.68255e-05 -2.60995e-07
-3.68255e-05 0.000111845 -7.34127e-08
-2.60995e-07 -7.34127e-08 3.66177e-05
0.000711487 1.75382e-05 1.86174e-07
1.75382e-05 -1.19552e-05 -5.84383e-07
1.86174e-07 -5.84383e-07 -6.51549e-05
0.000809407 -3.91832e-05 -4.1447e-07
-3.91832e-05 3.91542e-05 4.41847e-08
-4.1447e-07 4.41847e-08 -1.79059e-05
0.000848678 -1.30048e-05 -6.16428e-07
-1.30048e-05 7.52916e-05 5.33986e-07
-6.16428e-07 5.33986e-07 4.49778e-06
0.00175235 -6.36174e-05 5.55196e-07
-6.36174e-05 3.83506e-05 -3.93358e-07
5.55196e-07 -3.93358e-07 -3.55203e-05
0.00179518 -0.000162812 -2.91524e-07
-0.000162812 3.12695e-05 -4.27824e-08
-2.91524e-07 -4.27824e-08 -4.93867e-05
0.000889322 -0.000102583 4.89019e-07
-0.000102583 6.83722e-05 5.25493e-08
4.89019e-07 5.25493e-08 -5.04112e-05
0.00117534 -0.000173734 7.14233e-07
-0.000173734 0.000153004 -4.9401e-07
7.14233e-07 -4.9401e-07 -6.06396e-05
0.00161821 -0.0002136 -7.68462e-07
-0.0002136 6.66901e-05 3.38676e-07
-7.68462e-07 3.38676e-07 -5.11815e-05
0.000777891 1.57328e-06 -1.69324e-07
1.57328e-06 3.73445e-05 -5.63609e-09
-1.69324e-07 -5.63609e-09 -4.10018e-05
0.00095297 -3.19902e-05 -3.11475e-08
-3.19902e-05 0.000132552 7.67516e-08
-3.11475e-08 7.67516e-08 4.76708e-05
0.000666351 -0.000109135 -5.45242e-06
-0.000109135 -3.19063e-05 1.18883e-06
-5.45242e-06 1.18883e-06 -0.000128838
0.0010091 -6.6206e-05 8.85623e-07
-6.6206e-05 0.00019586 -4.65492e-07
8.85623e-07 -4.65492e-07 7.80472e-05
0.000755927 -4.2404e-05 -4.13403e-07
-4.2404e-05 3.56965e-05 8.49361e-07
-4.13403e-07 8.49361e-07 -6.30736e-05
0.00188393 -8.07375e-05 -2.54672e-06
-8.07375e-05 6.81575e-05 1.47855e-07
-2.54672e-06 1.47855e-07 6.07949e-06
0.00227723 -0.000100997 -1.10473e-06
-0.000100997 0.000271433 5.66134e-07
-1.10473e-06 5.66134e-07 0.000211735
0.00195184 -0.00023647 -1.65857e-06
-0.00023647 0.000121625 -6.54927e-07
-1.65857e-06 -6.54927e-07 2.28974e-05
0.0018884 -0.00023149 -6.02517e-06
-0.00023149 0.00039726 4.83729e-07
-6.02517e-06 4.83729e-07 0.00023228
0.000964082 -0.000107516 -2.8355e-06
-0.000107516 0.000147051 -2.22488e-06
-2.8355e-06 -2.22488e-06 -9.80817e-06
0.000646591 1.55864e-05 3.87468e-07
1.55864e-05 -3.65234e-05 -1.10755e-06
3.87468e-07 -1.10755e-06 -0.000106504
0.000702372 5.39195e-05 -2.47266e-07
5.39195e-05 -4.55256e-06 -7.97816e-07
-2.47266e-07 -7.97816e-07 -7.86008e-05
0.000997204 1.81403e-05 9.18908e-07
1.81403e-05 0.000154867 3.47981e-07
9.18908e-07 3.47981e-07 7.72815e-05
0.000801858 -5.89515e-05 1.47894e-06
-5.89515e-05 5.51617e-05 2.50744e-08
1.47894e-06 2.50744e-08 -3.1075e-05
0.000916959 -2.36956e-07 5.85167e-07
-2.36956e-07 0.000109424 7.76867e-07
5.85167e-07 7.76867e-07 2.26709e-05
0.00077873 -9.63626e-06 1.35012e-06
-9.63626e-06 5.96421e-05 -9.75826e-07
1.35012e-06 -9.75826e-07 -4.87192e-05
0.000702302 -8.39719e-05 8.34343e-06
-8.39719e-05 5.5398e-05 7.01268e-07
8.34343e-06 7.01268e-07 -9.78253e-05
0.000843572 3.82772e-05 1.36242e-07
3.82772e-05 7.21528e-05 -1.58834e-06
1.36242e-07 -1.58834e-06 -6.85287e-06
0.000662699 4.70827e-05 9.47699e-08
4.70827e-05 -9.57957e-06 -1.46722e-07
9.47699e-08 -1.46722e-07 -0.000114642
0.001851 6.99837e-05 -3.23143e-07
6.99837e-05 8.22692e-05 -5.90519e-07
-3.23143e-07 -5.90519e-07 1.21803e-05
0.00175509 0.000125886 2.79501e-06
0.000125886 -3.71163e-06 -5.25692e-07
2.79501e-06 -5.25692e-07 -7.60444e-05
0.00189733 0.00021578 1.24558e-06
0.00021578 0.000156841 -4.65137e-07
1.24558e-06 -4.65137e-07 4.00763e-05
0.000601785 0.000102287 1.26437e-06
0.000102287 -5.62683e-05 -4.13628e-07
1.26437e-06 -4.13628e-07 -0.000214357
0.0018773 0.000217277 1.55363e-06
0.000217277 0.000475901 1.52861e-06
1.55363e-06 1.52861e-06 0.000280826
0.00101476 1.57966e-05 -2.47481e-07
1.57966e-05 0.000170671 1.39033e-07
-2.47481e-07 1.39033e-07 8.18562e-05
0.00188324 8.37819e-05 -1.37384e-06
8.37819e-05 6.49289e-05 -3.45788e-07
-1.37384e-06 -3.45788e-07 2.35573e-05
0.00127081 0.000121488 -9.6831e-07
0.000121488 0.000308655 2.19934e-07
-9.6831e-07 2.19934e-07 0.000184594
0.00140615 0.000162065 -6.10574e-07
0.000162065 0.000349703 8.16427e-07
-6.10574e-07 8.16427e-07 0.000170575
0.00211592 0.000218786 1.47685e-06
0.000218786 0.000156417 -7.1261e-07
1.47685e-06 -7.1261e-07 7.82313e-05
0.0014355 0.000209071 -1.67118e-06
0.000209071 0.000114885 1.1203e-06
-1.67118e-06 1.1203e-06 -5.94497e-05
0.0014834 0.000105542 1.11714e-05
0.000105542 -5.32306e-05 1.5432e-06
1.11714e-05 1.5432e-06 -0.000221174
0.00108549 4.41785e-05 -1.5284e-06
4.41785e-05 0.000207193 -1.07557e-06
-1.5284e-06 -1.07557e-06 0.000106559
0.00275629 0.000150894 -1.32996e-05
0.000150894 0.000522822 -9.22616e-06
-1.32996e-05 -9.22616e-06 0.000518957
0.00135812 0.000152176 -4.77369e-06
0.000152176 0.00036637 -8.9279e-07
-4.77369e-06 -8.9279e-07 0.000229178
0.00131976 0.000171237 -5.34456e-06
0.000171237 0.000258813 -5.44922e-07
-5.34456e-06 -5.44922e-07 5.77612e-05
0.000276421 0.000210431 -6.85857e-06
0.000210431 -0.000634246 -1.74058e-06
-6.85857e-06 -1.74058e-06 -0.000766051
0.00720947 1.25047e-05 -6.52312e-05
1.25047e-05 0.00231579 -2.60858e-05
-6.52312e-05 -2.60858e-05 0.00147637
0.0039468 0.000154834 8.72057e-05
0.000154834 0.000603386 5.02602e-06
8.72057e-05 5.02602e-06 -2.3406e-05
-0.000100673 0.00018616 7.70472e-06
0.00018616 -0.000714263 1.8298e-05
7.70472e-06 1.8298e-05 -0.000794708
-0.00136125 -0.000332506 2.43854e-05
-0.000332506 -0.000614788 -1.10783e-05
2.43854e-05 -1.10783e-05 -0.000673705
0.00302825 -0.000609519 -2.3031e-05
-0.000609519 0.000388403 -1.05265e-05
-2.3031e-05 -1.05265e-05 0.00149613
0.000894175 -1.61807e-05 2.42607e-07
-1.61807e-05 9.79764e-05 -3.42446e-07
2.42607e-07 -3.42446e-07 2.26559e-05
0.000918931 -1.79887e-05 6.03974e-07
-1.79887e-05 0.00010885 -2.58203e-07
6.03974e-07 -2.58203e-07 2.97019e-05
0.000961627 2.3409e-05 -7.87168e-08
2.3409e-05 0.000134278 -1.67642e-06
-7.87168e-08 -1.67642e-06 5.56367e-05
0.000795869 -4.60421e-05 1.20461e-07
-4.60421e-05 2.45745e-05 -7.01431e-07
1.20461e-07 -7.01431e-07 -2.91291e-05
0.000731678 3.83712e-05 -9.01207e-07
3.83712e-05 -7.98545e-06 -3.03781e-08
-9.01207e-07 -3.03781e-08 -6.84434e-05
0.000894049 -4.57299e-05 -3.23505e-08
-4.57299e-05 8.72719e-05 3.74791e-08
-3.23505e-08 3.74791e-08 2.20729e-05
0.000975043 -2.6648e-05 -4.52142e-07
-2.6648e-05 0.000132654 2.5768e-07
-4.52142e-07 2.5768e-07 6.22572e-05
0.000842717 -3.09412e-05 3.22399e-07
-3.09412e-05 6.27495e-05 -4.63978e-07
3.22399e-07 -4.63978e-07 -1.31983e-05
0.00083625 2.67165e-05 -5.85991e-07
2.67165e-05 5.20818e-05 -2.26383e-07
-5.85991e-07 -2.26383e-07 -1.38188e-05
0.0007554 -2.69927e-06 6.24299e-10
-2.69927e-06 -2.77104e-06 4.85834e-07
6.24299e-10 4.85834e-07 -5.4108e-05
0.0008408 2.14427e-05 -2.96454e-07
2.14427e-05 5.10003e-05 -7.46447e-08
-2.96454e-07 -7.46447e-08 -1.37663e-05
0.000880155 -3.15235e-05 -2.20805e-07
-3.15235e-05 7.7924e-05 3.80064e-07
-2.20805e-07 3.80064e-07 4.43943e-06
0.000866462 -1.61537e-05 -4.48908e-09
-1.61537e-05 6.6281e-05 -1.84333e-07
-4.48908e-09 -1.84333e-07 8.26932e-07
0.00077681 9.90901e-06 5.37556e-07
9.90901e-06 1.33196e-05 -6.44869e-07
5.37556e-07 -6.44869e-07 -5.08957e-05
0.000829478 -1.5742e-05 6.22245e-07
-1.5742e-05 4.34069e-05 -1.27938e-06
6.22245e-07 -1.27938e-06 -2.08914e-05
0.000893377 1.30483e-05 1.32733e-06
1.30483e-05 7.30317e-05 6.21078e-08
1.32733e-06 6.21078e-08 7.9673e-06
0.000802407 2.80505e-06 1.02738e-06
2.80505e-06 2.31346e-05 -8.38604e-08
1.02738e-06 -8.38604e-08 -4.14486e-05
0.000698025 -3.38431e-05 -1.22815e-06
-3.38431e-05 -3.3034e-05 1.00578e-06
-1.22815e-06 1.00578e-06 -8.56682e-05
0.000888494 1.03868e-05 -3.63201e-07
1.03868e-05 7.88715e-05 -7.74786e-10
-3.63201e-07 -7.74786e-10 1.26811e-05
0.000954311 6.16273e-05 -3.87451e-08
6.16273e-05 0.000115919 -8.4742e-07
-3.87451e-08 -8.4742e-07 4.72961e-05
0.000785487 1.08562e-05 -6.17695e-07
1.08562e-05 3.27431e-05 -6.39405e-08
-6.17695e-07 -6.39405e-08 -3.17689e-05
0.000893124 1.28777e-05 5.37297e-07
1.28777e-05 8.63397e-05 -3.46571e-07
5.37297e-07 -3.46571e-07 2.12285e-05
0.000808554 -2.3973e-05 -1.40033e-06
-2.3973e-05 2.80139e-05 4.76635e-07
-1.40033e-06 4.76635e-07 -2.23367e-05
0.000706173 7.08683e-06 1.22143e-07
7.08683e-06 -2.56844e-05 4.35101e-07
1.22143e-07 4.35101e-07 -7.96347e-05
0.000781618 1.44262e-05 -1.95465e-07
1.44262e-05 2.57709e-06 1.45066e-06
-1.95465e-07 1.45066e-06 -2.92803e-05
0.000772268 5.48295e-06 -1.28811e-07
5.48295e-06 -2.85535e-06 2.24095e-09
-1.28811e-07 2.24095e-09 -3.46453e-05
0.000740268 6.02158e-06 -3.29513e-07
6.02158e-06 -3.10193e-05 4.51858e-06
-3.29513e-07 4.51858e-06 -3.46031e-05
0.000773739 -4.26343e-06 2.79434e-07
-4.26343e-06 -2.7959e-06 -1.42835e-06
2.79434e-07 -1.42835e-06 -3.41592e-05
0.00072623 9.26247e-07 2.11651e-07
9.26247e-07 -3.99569e-05 -7.78805e-09
2.11651e-07 -7.78805e-09 -4.30255e-05
0.00213024 -9.51525e-07 2.92303e-07
-9.51525e-07 0.000736155 4.24853e-06
2.92303e-07 4.24853e-06 0.00075767
0.000748171 -4.24552e-06 -5.5269e-07
-4.24552e-06 -2.74418e-05 -4.50155e-06
-5.5269e-07 -4.50155e-06 -3.02623e-05
0.00152824 -6.84948e-06 -3.48629e-07
-6.84948e-06 0.000404583 2.34737e-08
-3.48629e-07 2.34737e-08 0.000423127
0.000894137 -1.14209e-05 -5.76762e-07
-1.14209e-05 5.60221e-05 -1.60076e-06
-5.76762e-07 -1.60076e-06 7.18543e-05
0.000788121 4.32283e-06 -8.44613e-08
4.32283e-06 6.55039e-06 -1.71517e-06
-8.44613e-08 -1.71517e-06 -2.28453e-05
0.000782604 7.08401e-06 4.86967e-08
7.08401e-06 3.56599e-06 -2.49402e-09
4.86967e-08 -2.49402e-09 -2.65699e-05
0.000729765 1.10492e-05 2.35613e-07
1.10492e-05 -3.63971e-05 -3.37641e-06
2.35613e-07 -3.37641e-06 -3.88148e-05
0.000786667 9.61641e-06 -7.06927e-07
9.61641e-06 6.03179e-06 1.80363e-06
-7.06927e-07 1.80363e-06 -2.52473e-05
0.00101397 1.8772e-05 -2.43585e-07
1.8772e-05 0.000122602 -6.77283e-07
-2.43585e-07 -6.77283e-07 0.000120686
0.00210418 2.42774e-05 1.18214e-05
2.42774e-05 0.000726916 -4.18793e-06
1.18214e-05 -4.18793e-06 0.00074761
0.000729283 2.32199e-05 -7.53052e-07
2.32199e-05 -2.93908e-05 3.42781e-06
-7.53052e-07 3.42781e-06 -3.48035e-05
0.00215777 3.24648e-05 -6.65729e-06
3.24648e-05 0.000762006 1.13134e-06
-6.65729e-06 1.13134e-06 0.000781228
0.0021992 4.2098e-05 -2.10211e-05
4.2098e-05 0.000790678 3.94826e-06
-2.10211e-05 3.94826e-06 0.000807953
0.00171811 3.98785e-05 6.21557e-07
3.98785e-05 4.62248e-05 2.10592e-08
6.21557e-07 2.10592e-08 -3.85248e-05
0.00176017 5.21489e-06 1.16649e-06
5.21489e-06 7.48839e-05 -2.59273e-07
1.16649e-06 -2.59273e-07 -2.08458e-05
0.00187369 2.47981e-05 3.10539e-06
2.47981e-05 0.000112417 1.59032e-07
3.10539e-06 1.59032e-07 4.26945e-05
0.00195086 1.55616e-05 1.14572e-05
1.55616e-05 8.86703e-06 2.09886e-06
1.14572e-05 2.09886e-06 -5.87711e-05
0.00182644 4.46164e-06 -4.51387e-07
4.46164e-06 9.39321e-05 -1.59241e-07
-4.51387e-07 -1.59241e-07 2.06106e-05
0.00177921 3.00511e-05 1.52552e-06
3.00511e-05 3.90012e-05 1.79e-07
1.52552e-06 1.79e-07 -5.01278e-06
0.00239315 1.16371e-05 -5.13961e-06
1.16371e-05 0.000357915 7.99458e-07
-5.13961e-06 7.99458e-07 0.000294698
0.00317332 -3.60539e-05 0.000137172
-3.60539e-05 0.000482416 5.33056e-06
0.000137172 5.33056e-06 0.000140377
0.00156801 -3.42974e-05 -7.35625e-06
-3.42974e-05 -0.000162374 -2.91568e-06
-7.35625e-06 -2.91568e-06 -0.000227936
0.000813519 3.54627e-05 -8.44458e-07
3.54627e-05 4.17497e-05 -9.23453e-07
-8.44458e-07 -9.23453e-07 -8.42063e-06
0.000807349 -1.37342e-05 6.92984e-07
-1.37342e-05 4.00783e-05 -6.24642e-08
6.92984e-07 -6.24642e-08 -1.1577e-05
0.000810503 -4.78977e-05 1.50072e-07
-4.78977e-05 4.63074e-05 -2.44001e-07
1.50072e-07 -2.44001e-07 -1.65251e-05
0.000812616 -2.05632e-05 -1.308e-06
-2.05632e-05 5.75477e-05 -2.79582e-08
-1.308e-06 -2.79582e-08 -1.07903e-05
0.00185627 -3.9616e-05 1.58514e-06
-3.9616e-05 0.000105243 -2.85699e-07
1.58514e-06 -2.85699e-07 3.1435e-05
0.0016305 -6.88182e-05 -1.99288e-06
-6.88182e-05 -3.45863e-05 1.14994e-07
-1.99288e-06 1.14994e-07 -0.000108378
0.00185868 -0.000163132 -2.93775e-07
-0.000163132 7.71357e-05 7.02805e-07
-2.93775e-07 7.02805e-07 -5.23468e-06
0.000820736 -0.000116877 3.4498e-06
-0.000116877 2.17302e-05 2.57388e-06
3.4498e-06 2.57388e-06 -9.22738e-05
0.000263435 -0.000118733 3.62595e-06
-0.000118733 -0.000310735 -8.25665e-07
3.62595e-06 -8.25665e-07 -0.000523755
0.00218102 -0.000243061 6.4514e-07
-0.000243061 0.000364493 -2.33709e-06
6.4514e-07 -2.33709e-06 0.000242813
0.000616092 -9.63784e-05 -7.29412e-06
-9.63784e-05 -5.49961e-05 1.25543e-06
-7.29412e-06 1.25543e-06 -0.000157434
0.000969044 -5.50298e-05 -1.51188e-06
-5.50298e-05 0.000169451 -7.99556e-07
-1.51188e-06 -7.99556e-07 5.62949e-05
0.00099438 -6.49875e-05 -1.85478e-06
-6.49875e-05 0.000164393 1.47058e-06
-1.85478e-06 1.47058e-06 6.49404e-05
0.000817446 -1.44437e-05 -1.26164e-06
-1.44437e-05 4.18381e-05 1.13105e-06
-1.26164e-06 1.13105e-06 -1.41544e-05
0.000857301 -4.42837e-05 -5.08354e-07
-4.42837e-05 8.58452e-05 2.00327e-08
-5.08354e-07 2.00327e-08 -3.07967e-06
0.000884197 -1.15346e-06 -7.77079e-07
-1.15346e-06 9.35586e-05 6.42591e-07
-7.77079e-07 6.42591e-07 1.72274e-05
0.000814273 -3.91888e-06 -3.01929e-09
-3.91888e-06 4.56981e-05 3.89537e-07
-3.01929e-09 3.89537e-07 -7.95676e-06
0.000705804 2.03392e-05 3.4694e-08
2.03392e-05 -1.60595e-07 1.22447e-06
3.4694e-08 1.22447e-06 -7.35297e-05
0.00193048 -6.68372e-05 -1.82088e-07
-6.68372e-05 0.000111913 5.19072e-07
-1.82088e-07 5.19072e-07 4.91369e-05
0.000819474 1.0288e-05 5.80296e-07
1.0288e-05 5.71966e-05 -4.6211e-07
5.80296e-07 -4.6211e-07 -1.13202e-05
0.000768605 2.32661e-05 5.24439e-07
2.32661e-05 3.26043e-05 -1.98247e-08
5.24439e-07 -1.98247e-08 -4.18217e-05
0.000884691 5.3701e-05 -4.07529e-07
5.3701e-05 9.70782e-05 6.83291e-07
-4.07529e-07 6.83291e-07 1.77161e-05
0.00196827 -9.57878e-05 -2.95336e-06
-9.57878e-05 9.5154e-05 4.03812e-07
-2.95336e-06 4.03812e-07 3.13235e-05
0.00185648 -0.000223116 7.14111e-07
-0.000223116 8.63373e-05 -9.99668e-07
7.14111e-07 -9.99668e-07 -1.04456e-05
0.000979044 -0.000129624 -1.2096e-06
-0.000129624 0.0001413 1.4368e-08
-1.2096e-06 1.4368e-08 -1.26392e-05
0.00205543 -0.000240433 -5.14851e-07
-0.000240433 0.000484256 -2.71532e-07
-5.14851e-07 -2.71532e-07 0.000315842
0.000905481 -1.49838e-05 -3.13232e-07
-1.49838e-05 0.00010802 4.78053e-08
-3.13232e-07 4.78053e-08 2.35192e-05
0.000854038 -1.40614e-05 2.81457e-08
-1.40614e-05 8.24616e-05 9.09326e-07
2.81457e-08 9.09326e-07 -6.48239e-06
0.000813344 -8.69902e-05 3.80561e-06
-8.69902e-05 0.000105417 -1.0219e-06
3.80561e-06 -1.0219e-06 -3.98976e-05
0.00101614 -5.40856e-05 9.1347e-07
-5.40856e-05 0.000190391 -1.20321e-06
9.1347e-07 -1.20321e-06 7.44418e-05
0.00162222 -5.56753e-05 -2.61319e-06
-5.56753e-05 -0.000110101 2.6957e-06
-2.61319e-06 2.6957e-06 -0.000175479
0.00213763 -0.000196518 -3.63447e-06
-0.000196518 0.000132873 -1.40826e-06
-3.63447e-06 -1.40826e-06 7.73403e-05
0.00212711 -0.000257653 -2.50083e-06
-0.000257653 0.000351463 -1.69885e-06
-2.50083e-06 -1.69885e-06 0.000214017
0.00125037 -0.000182423 -1.18298e-06
-0.000182423 0.00027251 -1.46548e-06
-1.18298e-06 -1.46548e-06 0.000106824
0.000784195 2.76e-05 -4.50243e-07
2.76e-05 4.28856e-05 -2.53894e-07
-4.50243e-07 -2.53894e-07 -4.1072e-05
0.000801151 -3.55392e-05 5.72422e-07
-3.55392e-05 5.79023e-05 -5.55261e-07
5.72422e-07 -5.55261e-07 -2.62636e-05
0.000841852 -1.82899e-05 1.50072e-07
-1.82899e-05 7.80625e-05 7.04505e-08
1.50072e-07 7.04505e-08 -1.53597e-05
0.000852235 -2.57468e-06 -1.05668e-06
-2.57468e-06 0.000125183 -6.01141e-08
-1.05668e-06 -6.01141e-08 -3.13377e-05
0.000650221 -9.92271e-05 1.50504e-06
-9.92271e-05 -0.00107001 -2.48681e-06
1.50504e-06 -2.48681e-06 -0.00153664
0.000979635 8.58513e-06 7.04595e-07
8.58513e-06 0.000149445 -1.06595e-06
7.04595e-07 -1.06595e-06 6.5186e-05
0.000682528 8.19512e-05 1.58867e-06
8.19512e-05 -1.35921e-06 8.80486e-07
1.58867e-06 8.80486e-07 -0.000120441
0.00179547 8.29795e-05 8.53941e-06
8.29795e-05 1.30617e-05 2.50179e-07
8.53941e-06 2.50179e-07 -2.23953e-05
0.00183419 0.000201356 -1.13719e-07
0.000201356 5.44721e-06 -9.1681e-07
-1.13719e-07 -9.1681e-07 -7.06523e-05
0.0013142 0.000204199 2.56795e-06
0.000204199 5.68473e-05 2.51985e-06
2.56795e-06 2.51985e-06 -0.000122975
0.00078227 0.000122285 3.08309e-06
0.000122285 3.70596e-05 1.06263e-06
3.08309e-06 1.06263e-06 -0.000143177
0.00242261 0.000121407 8.05551e-06
0.000121407 0.000228437 -7.61824e-08
8.05551e-06 -7.61824e-08 2.60549e-05
0.000952983 3.85726e-05 8.09839e-07
3.85726e-05 0.000141585 -7.43706e-07
8.09839e-07 -7.43706e-07 4.28389e-05
0.00214179 0.000138751 -5.78578e-06
0.000138751 0.000201502 -2.43142e-06
-5.78578e-06 -2.43142e-06 0.000210242
0.00104512 0.000131745 1.25753e-08
0.000131745 0.000203283 -1.05726e-07
1.25753e-08 -1.05726e-07 6.99815e-05
0.00114167 0.000165527 -1.05516e-07
0.000165527 0.000176179 5.06343e-07
-1.05516e-07 5.06343e-07 -2.71229e-05
0.00115713 0.000251608 -2.90714e-06
0.000251608 -0.000207902 -2.01117e-07
-2.90714e-06 -2.01117e-07 -0.000334141
0.00266647 -0.000165181 -4.57408e-05
-0.000165181 0.00010325 -1.5384e-05
-4.57408e-05 -1.5384e-05 -0.000662376
0.00361553 7.84172e-05 1.22778e-06
7.84172e-05 0.000319282 -1.41847e-05
1.22778e-06 -1.41847e-05 -0.000414414
0.00032199 0.000163979 6.41424e-06
0.000163979 -0.000493178 5.02787e-06
6.41424e-06 5.02787e-06 -0.000583477
-0.00191411 -0.000213286 4.18928e-05
-0.000213286 -0.000532583 1.03109e-05
4.18928e-05 1.03109e-05 -0.000921853
-3.41451e-05 -0.000630513 5.13257e-06
-0.000630513 -0.00114317 -7.54943e-06
5.13257e-06 -7.54943e-06 0.000141411
0.00121519 8.85669e-05 -1.73175e-06
8.85669e-05 0.000304141 -2.20672e-06
-1.73175e-06 -2.20672e-06 0.000205288
0.000802692 0.00012747 -6.38269e-05
0.00012747 0.000802305 -2.28365e-05
-6.38269e-05 -2.28365e-05 0.00038975
0.00150512 -0.000334044 -4.4326e-05
-0.000334044 0.000660708 -3.98949e-05
-4.4326e-05 -3.98949e-05 0.000862439
0.00162378 0.000177545 -1.77652e-05
0.000177545 -7.14573e-06 -5.0203e-06
-1.77652e-05 -5.0203e-06 1.88596e-05
0.00111337 8.1437e-05 -6.543e-06
8.1437e-05 0.000261857 -1.63308e-06
-6.543e-06 -1.63308e-06 0.000115681
0.00103996 0.000228388 -1.11888e-05
0.000228388 5.8949e-05 -5.69411e-06
-1.11888e-05 -5.69411e-06 -0.000153178
-0.000114987 0.000209824 5.74342e-06
0.000209824 -0.000706674 4.43351e-05
5.74342e-06 4.43351e-05 -0.000681406
0.00672561 -0.000132921 -4.80302e-05
-0.000132921 0.00230607 -1.33586e-05
-4.80302e-05 -1.33586e-05 0.00104872
0.00373928 0.000277233 -7.48279e-06
0.000277233 0.000504877 2.24648e-05
-7.48279e-06 2.24648e-05 -0.000507569
0.000839518 -0.000530014 -8.9004e-06
-0.000530014 -4.36861e-05 -2.87651e-06
-8.9004e-06 -2.87651e-06 0.000252511
0.000970093 -0.000345485 -3.22299e-05
-0.000345485 -0.00154966 1.73953e-05
-3.22299e-05 1.73953e-05 -0.000541094
0.000907429 -2.34527e-05 7.1682e-07
-2.34527e-05 0.000106467 -3.90846e-07
7.1682e-07 -3.90846e-07 2.75388e-05
0.000943201 1.23918e-05 -1.83456e-07
1.23918e-05 0.000124456 1.03856e-07
-1.83456e-07 1.03856e-07 4.65689e-05
0.00114281 4.87585e-05 -7.14925e-07
4.87585e-05 0.000232043 -2.166e-06
-7.14925e-07 -2.166e-06 0.000165906
0.000793038 2.62427e-06 -1.2736e-07
2.62427e-06 2.66897e-05 -1.3491e-07
-1.2736e-07 -1.3491e-07 -2.94235e-05
0.000850657 1.48741e-05 -7.18325e-07
1.48741e-05 5.52436e-05 -1.47183e-07
-7.18325e-07 -1.47183e-07 -8.29627e-06
0.000786373 -3.41903e-05 -4.94285e-07
-3.41903e-05 1.99498e-05 -4.83494e-08
-4.94285e-07 -4.83494e-08 -4.29438e-05
0.000909014 -1.93536e-05 1.20176e-07
-1.93536e-05 8.92743e-05 1.20749e-07
1.20176e-07 1.20749e-07 2.35699e-05
0.000929827 -3.43838e-05 -8.93988e-08
-3.43838e-05 0.000105593 1.23806e-06
-8.93988e-08 1.23806e-06 3.1912e-05
0.000704892 -4.9313e-07 4.74164e-07
-4.9313e-07 -2.71328e-05 4.39388e-07
4.74164e-07 4.39388e-07 -8.12578e-05
0.000833801 -1.66571e-05 -1.21357e-07
-1.66571e-05 4.36181e-05 -1.94231e-07
-1.21357e-07 -1.94231e-07 -2.0688e-05
0.000909951 -1.84309e-05 -6.78408e-08
-1.84309e-05 8.43354e-05 2.74613e-07
-6.78408e-08 2.74613e-07 1.85306e-05
0.00087135 2.381e-05 5.09466e-07
2.381e-05 6.70206e-05 -1.97071e-07
5.09466e-07 -1.97071e-07 -7.67707e-07
0.000855996 -1.4332e-05 1.99565e-07
-1.4332e-05 5.73895e-05 -7.3567e-08
1.99565e-07 -7.3567e-08 -6.61655e-06
0.000810092 -2.42788e-05 5.76757e-07
-2.42788e-05 2.3435e-05 -5.92613e-07
5.76757e-07 -5.92613e-07 -4.07237e-05
0.000855662 1.17595e-05 -4.52284e-07
1.17595e-05 4.78309e-05 -3.0641e-06
-4.52284e-07 -3.0641e-06 -1.00595e-05
0.000929457 -5.70882e-05 1.9173e-07
-5.70882e-05 8.96949e-05 -3.48829e-07
1.9173e-07 -3.48829e-07 2.21613e-05
0.000907129 -4.10269e-05 -4.80229e-07
-4.10269e-05 8.80998e-05 -3.22724e-07
-4.80229e-07 -3.22724e-07 1.98129e-05
0.000906344 -6.62223e-06 -4.44229e-07
-6.62223e-06 8.84171e-05 -1.21708e-07
-4.44229e-07 -1.21708e-07 2.18639e-05
0.000927215 5.04749e-05 -3.98469e-07
5.04749e-05 9.82426e-05 -2.61815e-07
-3.98469e-07 -2.61815e-07 3.10343e-05
0.000890564 2.09164e-05 -3.36279e-07
2.09164e-05 7.98133e-05 -7.93011e-07
-3.36279e-07 -7.93011e-07 6.21211e-06
0.000848496 5.00104e-05 1.42189e-07
5.00104e-05 6.2112e-05 -4.88818e-07
1.42189e-07 -4.88818e-07 -5.13748e-06
0.000898398 6.26621e-05 -1.70224e-07
6.26621e-05 8.12169e-05 -9.0394e-07
-1.70224e-07 -9.0394e-07 1.41347e-05
0.000770616 3.74195e-05 1.37672e-06
3.74195e-05 3.27152e-05 1.17747e-06
1.37672e-06 1.17747e-06 -3.93398e-05
0.000792603 2.38778e-05 -1.66683e-07
2.38778e-05 3.23042e-05 2.9747e-08
-1.66683e-07 2.9747e-08 -2.74775e-05
0.000813398 4.73184e-06 -8.34278e-08
4.73184e-06 4.55471e-05 -8.66728e-09
-8.34278e-08 -8.66728e-09 -1.75456e-05
0.000801122 1.35451e-05 -1.03486e-06
1.35451e-05 2.24157e-05 3.91287e-07
-1.03486e-06 3.91287e-07 -2.56045e-05
0.000853124 1.67413e-05 6.07912e-07
1.67413e-05 5.69466e-05 -1.74567e-07
6.07912e-07 -1.74567e-07 -4.31339e-06
0.000774847 -1.91947e-05 -3.22433e-08
-1.91947e-05 9.4468e-06 2.51345e-08
-3.22433e-08 2.51345e-08 -4.1383e-05
0.000784087 1.63153e-05 -5.32446e-07
1.63153e-05 4.20588e-06 1.51144e-06
-5.32446e-07 1.51144e-06 -2.74185e-05
0.000715563 8.16307e-06 4.52827e-07
8.16307e-06 -1.80125e-05 -1.43664e-07
4.52827e-07 -1.43664e-07 -7.3698e-05
0.000776497 8.47108e-06 -1.31592e-07
8.47108e-06 -5.31494e-07 8.11551e-10
-1.31592e-07 8.11551e-10 -3.22405e-05
0.0013428 1.33694e-05 -2.9358e-06
1.33694e-05 0.000302856 4.45106e-06
-2.9358e-06 4.45106e-06 0.000302121
0.000770481 -1.48623e-06 5.70593e-07
-1.48623e-06 -3.95934e-06 -1.42462e-06
5.70593e-07 -1.42462e-06 -3.56685e-05
0.00103611 7.05799e-06 -1.37541e-06
7.05799e-06 0.000131978 6.64e-07
-1.37541e-06 6.64e-07 0.000130024
0.000950883 3.48238e-06 -2.95246e-06
3.48238e-06 8.64972e-05 4.14289e-06
-2.95246e-06 4.14289e-06 0.000101567
0.000731233 1.08294e-06 1.34444e-09
1.08294e-06 -3.71709e-05 -3.16426e-06
1.34444e-09 -3.16426e-06 -4.02826e-05
0.00213567 -3.03853e-07 2.58736e-06
-3.03853e-07 0.000739185 -7.59105e-10
2.58736e-06 -7.59105e-10 0.000760646
0.000960764 -3.87154e-06 -2.375e-06
-3.87154e-06 9.16345e-05 -4.1336e-06
-2.375e-06 -4.1336e-06 0.000107143
0.000810797 5.19405e-05 5.12209e-07
5.19405e-05 4.29004e-05 -2.22348e-07
5.12209e-07 -2.22348e-07 -1.01153e-05
0.000785437 1.06716e-07 -1.18201e-07
1.06716e-07 4.71269e-06 -1.68902e-06
-1.18201e-07 -1.68902e-06 -2.41459e-05
0.00078586 3.35993e-06 -8.91513e-08
3.35993e-06 5.14063e-06 -1.01224e-08
-8.91513e-08 -1.01224e-08 -2.42022e-05
0.000734397 5.21586e-06 -6.29852e-08
5.21586e-06 -3.55149e-05 -3.35552e-06
-6.29852e-08 -3.35552e-06 -3.70649e-05
0.000782646 6.04298e-06 -3.26904e-07
6.04298e-06 3.23098e-06 1.67839e-06
-3.26904e-07 1.67839e-06 -2.68571e-05
0.000726429 1.12392e-05 3.34002e-08
1.12392e-05 -3.86047e-05 -6.94331e-07
3.34002e-08 -6.94331e-07 -4.09344e-05
0.00208683 1.58678e-05 7.91074e-06
1.58678e-05 0.000714452 -4.28186e-06
7.91074e-06 -4.28186e-06 0.000735998
0.00129814 2.23603e-05 -1.1954e-06
2.23603e-05 0.000279609 2.04669e-06
-1.1954e-06 2.04669e-06 0.000279039
0.00153474 2.07672e-05 3.58398e-07
2.07672e-05 0.000414038 1.33243e-06
3.58398e-07 1.33243e-06 0.000431394
0.000996759 2.33399e-05 -1.59431e-05
2.33399e-05 0.000122443 6.73783e-06
-1.59431e-05 6.73783e-06 0.000135335
7.47121e-05 3.69014e-05 1.7306e-05
3.69014e-05 -0.00091908 7.67554e-06
1.7306e-05 7.67554e-06 -0.00100822
0.00204927 3.36656e-06 2.17955e-06
3.36656e-06 0.000211279 1.93722e-07
2.17955e-06 1.93722e-07 0.000137697
0.00201239 2.8479e-05 6.89485e-06
2.8479e-05 0.000177004 -1.35082e-06
6.89485e-06 -1.35082e-06 0.000129041
0.00103225 5.14374e-06 2.46301e-05
5.14374e-06 -0.000388271 -4.50812e-06
2.46301e-05 -4.50812e-06 -0.000728602
0.00184245 -2.85082e-05 -6.91356e-07
-2.85082e-05 4.43666e-05 6.42408e-07
-6.91356e-07 6.42408e-07 -2.78137e-05
0.00195202 2.96367e-06 -3.14477e-06
2.96367e-06 6.65756e-05 -1.19183e-06
-3.14477e-06 -1.19183e-06 7.4923e-06
0.00213017 -8.00472e-06 -1.93866e-05
-8.00472e-06 0.000208874 1.75775e-06
-1.93866e-05 1.75775e-06 0.000139956
0.00161366 -9.60038e-05 0.000131124
-9.60038e-05 -9.83009e-05 -8.98347e-06
0.000131124 -8.98347e-06 -0.0004362
0.00836252 -9.76498e-06 -2.77576e-05
-9.76498e-06 0.00285005 1.2819e-06
-2.77576e-05 1.2819e-06 0.00199349
0.00302279 0.000605966 2.37337e-05
0.000605966 0.00143493 -7.60494e-06
2.37337e-05 -7.60494e-06 0.00162097
0.00212864 0.000606712 -1.43038e-05
0.000606712 0.000544662 1.13559e-05
-1.43038e-05 1.13559e-05 0.00155275
0.000685301 -5.39969e-05 1.07042e-06
-5.39969e-05 -1.6806e-05 -8.38598e-07
1.07042e-06 -8.38598e-07 -8.23717e-05
0.000812849 -1.01189e-05 2.90405e-07
-1.01189e-05 4.27497e-05 -5.07643e-08
2.90405e-07 -5.07643e-08 -8.33424e-06
0.000805608 -5.69306e-05 -1.06548e-06
-5.69306e-05 4.27099e-05 1.00977e-06
-1.06548e-06 1.00977e-06 -1.15009e-05
0.000789632 -2.16564e-05 -3.11192e-07
-2.16564e-05 3.89879e-05 3.2699e-08
-3.11192e-07 3.2699e-08 -2.70157e-05
0.000786705 4.01079e-05 1.84119e-07
4.01079e-05 4.8983e-05 6.01374e-07
1.84119e-07 6.01374e-07 -2.87593e-05
0.000931471 7.58405e-05 3.9612e-07
7.58405e-05 0.000118069 7.69157e-07
3.9612e-07 7.69157e-07 4.46255e-05
0.000860501 -2.59204e-05 6.3928e-07
-2.59204e-05 7.7125e-05 -8.49014e-07
6.3928e-07 -8.49014e-07 1.15621e-05
0.000776106 -3.64668e-05 -4.93008e-07
-3.64668e-05 3.33001e-05 5.90237e-07
-4.93008e-07 5.90237e-07 -3.25881e-05
0.00195719 -5.15192e-05 2.75285e-06
-5.15192e-05 0.00014665 -5.24822e-07
2.75285e-06 -5.24822e-07 8.35272e-05
0.00167426 -9.50543e-05 -1.72559e-07
-9.50543e-05 -8.13353e-05 -3.15565e-07
-1.72559e-07 -3.15565e-07 -0.000148846
0.0015692 -0.000206707 -1.12919e-06
-0.000206707 -4.89956e-05 4.99797e-07
-1.12919e-06 4.99797e-07 -0.000143415
0.000919252 -0.000139343 1.39008e-06
-0.000139343 9.46007e-05 2.63563e-06
1.39008e-06 2.63563e-06 -5.63234e-05
0.00197683 -0.000236315 1.03529e-06
-0.000236315 0.000444705 2.74991e-07
1.03529e-06 2.74991e-07 0.000271012
0.000889353 -8.79061e-05 -6.06589e-07
-8.79061e-05 0.00013747 -4.10464e-07
-6.06589e-07 -4.10464e-07 -3.02562e-07
0.00124672 -9.68911e-05 -1.99547e-07
-9.68911e-05 0.00031787 -2.93504e-07
-1.99547e-07 -2.93504e-07 0.000194285
0.000809532 -3.7894e-05 -1.42771e-06
-3.7894e-05 6.49348e-05 7.36897e-07
-1.42771e-06 7.36897e-07 -2.59411e-05
0.000811907 6.15772e-07 2.1611e-07
6.15772e-07 5.70904e-05 6.00816e-07
2.1611e-07 6.00816e-07 -1.73451e-05
0.00100873 1.43766e-05 -1.01576e-06
1.43766e-05 0.000160769 -6.67656e-08
-1.01576e-06 -6.67656e-08 7.80322e-05
0.00101386 -2.4142e-06 5.61439e-07
-2.4142e-06 0.000161732 2.76274e-07
5.61439e-07 2.76274e-07 9.49321e-05
0.000776223 8.8004e-05 1.05507e-06
8.8004e-05 4.09649e-05 1.4596e-06
1.05507e-06 1.4596e-06 -4.01425e-05
0.00160496 -5.56158e-05 -1.11289e-06
-5.56158e-05 -0.000122758 -2.27477e-06
-1.11289e-06 -2.27477e-06 -0.000184372
0.000845956 3.18843e-05 -3.99425e-07
3.18843e-05 7.6514e-05 2.54729e-07
-3.99425e-07 2.54729e-07 -5.43636e-06
0.000849133 -2.36549e-05 -3.86482e-07
-2.36549e-05 7.92561e-05 -3.84538e-07
-3.86482e-07 -3.84538e-07 -2.85372e-06
0.00211294 -0.000202899 2.79403e-07
-0.000202899 0.000124511 -2.62811e-07
2.79403e-07 -2.62811e-07 6.40561e-05
0.00112591 -0.000210796 1.07153e-06
-0.000210796 -0.000154678 7.17689e-07
1.07153e-06 7.17689e-07 -0.000281744
0.00123449 -0.000183112 9.58356e-07
-0.000183112 0.000256904 -1.39115e-06
9.58356e-07 -1.39115e-06 8.15666e-05
0.000986802 -1.86253e-05 1.63043e-07
-1.86253e-05 0.000156471 -4.65471e-07
1.63043e-07 -4.65471e-07 6.07919e-05
0.000975919 -2.9611e-05 1.86036e-07
-2.9611e-05 0.000189988 4.93651e-07
1.86036e-07 4.93651e-07 3.30064e-05
0.00373951 -0.000169533 -1.05764e-05
-0.000169533 0.00111493 5.9952e-06
-1.05764e-05 5.9952e-06 0.00103619
0.00290366 -0.000294448 -1.03621e-05
-0.000294448 0.000610439 -3.32462e-07
-1.03621e-05 -3.32462e-07 0.000555134
-0.000825478 -0.00012053 -3.17092e-06
-0.00012053 -0.000961531 -1.4557e-06
-3.17092e-06 -1.4557e-06 -0.00109934
0.00113112 -0.000113203 -4.17855e-06
-0.000113203 0.000237434 2.39156e-06
-4.17855e-06 2.39156e-06 5.19878e-05
0.000731834 -7.29727e-05 1.00208e-06
-7.29727e-05 7.22059e-06 -1.56283e-07
1.00208e-06 -1.56283e-07 -7.33333e-05
0.00088513 -2.83175e-05 1.02922e-06
-2.83175e-05 9.21734e-05 1.28985e-07
1.02922e-06 1.28985e-07 5.8605e-06
0.000957564 -7.56163e-06 -2.26087e-06
-7.56163e-06 0.000146418 3.94871e-07
-2.26087e-06 3.94871e-07 3.78701e-05
-0.00397462 -3.89184e-05 4.89279e-05
-3.89184e-05 -0.0017757 9.35603e-06
4.89279e-05 9.35603e-06 -0.0015945
0.00812478 -5.32051e-05 -3.0405e-05
-5.32051e-05 0.00281359 -3.00576e-07
-3.0405e-05 -3.00576e-07 0.00222374
0.000867986 3.69068e-05 2.25007e-06
3.69068e-05 0.000102201 -4.90585e-07
2.25007e-06 -4.90585e-07 4.37122e-06
0.000742964 0.000112193 2.8484e-06
0.000112193 4.57042e-05 -1.26948e-07
2.8484e-06 -1.26948e-07 -8.43145e-05
0.00164153 0.000122754 3.30279e-06
0.000122754 -6.28765e-05 5.44907e-06
3.30279e-06 5.44907e-06 -4.0914e-05
0.00219159 0.000300118 2.23026e-06
0.000300118 0.000295905 9.28394e-07
2.23026e-06 9.28394e-07 0.000175611
0.00100476 0.000161347 5.1308e-06
0.000161347 0.000113761 1.5596e-06
5.1308e-06 1.5596e-06 -9.08233e-05
0.00500073 0.000164372 5.74167e-05
0.000164372 0.00120941 -1.81316e-07
5.74167e-05 -1.81316e-07 0.000269228
0.00508767 0.000128074 -8.27075e-05
0.000128074 0.000921444 -2.88335e-05
-8.27075e-05 -2.88335e-05 0.00031889
0.000369062 0.000132086 3.59822e-06
0.000132086 -0.00047676 -1.84648e-05
3.59822e-06 -1.84648e-05 -0.000559614
0.00346068 -0.000487137 1.83415e-05
-0.000487137 0.00172431 1.87487e-05
1.83415e-05 1.87487e-05 0.00164163
-0.00311919 -0.000665927 -2.38141e-05
-0.000665927 -0.00264182 -3.68819e-05
-2.38141e-05 -3.68819e-05 -0.00116151
0.000967252 9.51458e-05 5.01471e-07
9.51458e-05 0.000174898 -7.59258e-07
5.01471e-07 -7.59258e-07 7.44864e-05
-0.00266758 -0.000147536 1.97982e-05
-0.000147536 -0.00137649 2.03756e-06
1.97982e-05 2.03756e-06 -0.00129691
-0.000318392 -0.000310432 -2.43345e-05
-0.000310432 -9.56595e-05 -8.51309e-06
-2.43345e-05 -8.51309e-06 -0.000125855
0.0024552 0.000202727 -3.73016e-06
0.000202727 0.00039733 -2.96108e-06
-3.73016e-06 -2.96108e-06 0.000433079
0.000888541 9.21245e-05 -6.42984e-07
9.21245e-05 0.00015661 -4.22657e-07
-6.42984e-07 -4.22657e-07 8.60134e-06
0.000567313 0.000172944 1.08351e-06
0.000172944 -0.000170254 9.74833e-07
1.08351e-06 9.74833e-07 -0.000375957
3.63301e-05 0.000127242 1.71632e-05
0.000127242 -0.000570048 1.11344e-05
1.71632e-05 1.11344e-05 -0.000502965
0.00621217 -0.000100554 -6.13931e-06
-0.000100554 0.00193199 -3.10741e-06
-6.13931e-06 -3.10741e-06 0.000586982
0.00566944 0.000391683 -2.47275e-05
0.000391683 0.00137252 -1.65287e-05
-2.47275e-05 -1.65287e-05 0.000646547
0.0042943 -0.00073213 1.76274e-05
-0.00073213 0.00172649 -1.24549e-05
1.76274e-05 -1.24549e-05 0.00178597
0.000990772 -0.000403125 2.05191e-05
-0.000403125 -0.00164817 4.8564e-05
2.05191e-05 4.8564e-05 -0.000576454
0.00113023 5.96919e-05 -4.79059e-06
5.96919e-05 0.000277883 -4.58828e-06
-4.79059e-06 -4.58828e-06 0.000192238
-0.00200039 -0.0001015 -7.00503e-05
-0.0001015 -0.000373474 -1.88756e-05
-7.00503e-05 -1.88756e-05 -0.000865837
0.00187577 -2.75424e-05 -5.39913e-05
-2.75424e-05 0.000158407 -5.46852e-05
-5.39913e-05 -5.46852e-05 -0.000241202
0.000619301 0.000172289 -2.17928e-05
0.000172289 -0.000244367 -2.12244e-06
-2.17928e-05 -2.12244e-06 -0.000234401
0.00165153 0.000196716 -2.13066e-05
0.000196716 0.000611703 -6.16881e-06
-2.13066e-05 -6.16881e-06 0.000442595
0.00240624 0.000125592 -4.14579e-05
0.000125592 0.000936865 -2.97494e-06
-4.14579e-05 -2.97494e-06 0.000849085
0.00499709 0.000592687 -0.000103374
0.000592687 0.00121319 7.18056e-06
-0.000103374 7.18056e-06 0.000775883
-0.00118077 -0.000100199 3.69476e-05
-0.000100199 -0.00108402 4.35568e-05
3.69476e-05 4.35568e-05 -0.00283895
0.00687312 -0.000753815 -5.31397e-05
-0.000753815 0.00182758 1.62078e-05
-5.31397e-05 1.62078e-05 0.00200191
0.00158659 -0.000231248 -1.25368e-05
-0.000231248 -0.00176518 -1.45173e-05
-1.25368e-05 -1.45173e-05 -0.000732725
0.00091181 2.45047e-05 7.33715e-07
2.45047e-05 0.000111448 2.27508e-06
7.33715e-07 2.27508e-06 3.11542e-05
0.00107304 4.98283e-05 1.19363e-06
4.98283e-05 0.00019469 1.42874e-06
1.19363e-06 1.42874e-06 0.000126454
0.000563922 4.6638e-05 3.79422e-08
4.6638e-05 -7.14499e-05 -4.49438e-06
3.79422e-08 -4.49438e-06 -0.000123346
0.000707453 3.55796e-05 3.08246e-07
3.55796e-05 -2.57791e-05 -1.20452e-07
3.08246e-07 -1.20452e-07 -7.99232e-05
0.000931731 3.33692e-05 -7.17069e-07
3.33692e-05 0.000103483 -2.73122e-07
-7.17069e-07 -2.73122e-07 3.44735e-05
0.0009177 -3.20506e-05 -4.42514e-07
-3.20506e-05 8.94429e-05 4.39102e-07
-4.42514e-07 4.39102e-07 2.3886e-05
0.000858967 -2.71415e-05 -6.96486e-07
-2.71415e-05 5.77693e-05 -1.31715e-07
-6.96486e-07 -1.31715e-07 -7.13546e-06
0.000874583 -1.73984e-05 -7.41034e-07
-1.73984e-05 6.67469e-05 1.47394e-06
-7.41034e-07 1.47394e-06 3.18453e-06
0.000900934 2.61299e-05 3.07495e-07
2.61299e-05 8.51362e-05 -4.27747e-07
3.07495e-07 -4.27747e-07 1.65873e-05
0.000903442 -2.67946e-05 -1.64743e-08
-2.67946e-05 7.48744e-05 2.78248e-07
-1.64743e-08 2.78248e-07 1.04492e-05
0.000919688 -3.7129e-05 1.54096e-07
-3.7129e-05 8.68633e-05 2.25223e-07
1.54096e-07 2.25223e-07 1.7623e-05
0.000838835 -4.8516e-06 5.8286e-08
-4.8516e-06 4.3234e-05 -1.52617e-07
5.8286e-08 -1.52617e-07 -1.26256e-05
0.000961438 -3.48931e-05 1.91988e-06
-3.48931e-05 0.000116274 -2.06592e-06
1.91988e-06 -2.06592e-06 6.90977e-05
0.000888095 -3.37624e-05 1.33936e-07
-3.37624e-05 5.77463e-05 -2.23964e-06
1.33936e-07 -2.23964e-06 -4.66567e-06
0.000918331 3.06729e-06 1.09737e-07
3.06729e-06 9.19259e-05 -5.2405e-07
1.09737e-07 -5.2405e-07 1.67228e-05
0.000914339 -3.1324e-05 1.36989e-07
-3.1324e-05 9.52334e-05 -3.21499e-07
1.36989e-07 -3.21499e-07 2.6693e-05
0.000894946 1.89104e-05 -2.87376e-07
1.89104e-05 7.57428e-05 3.26e-07
-2.87376e-07 3.26e-07 1.12852e-05
0.000885419 -3.85082e-06 2.13139e-07
-3.85082e-06 7.48066e-05 -2.89223e-07
2.13139e-07 -2.89223e-07 2.83802e-06
0.000838402 4.73481e-05 -1.59343e-07
4.73481e-05 5.53683e-05 -2.77642e-08
-1.59343e-07 -2.77642e-08 -1.12194e-05
0.000885724 3.21285e-05 -3.74884e-07
3.21285e-05 7.05968e-05 6.34028e-08
-3.74884e-07 6.34028e-08 6.01962e-06
0.000787815 5.23915e-05 8.44288e-07
5.23915e-05 3.41798e-05 1.66181e-07
8.44288e-07 1.66181e-07 -3.34985e-05
0.000827221 3.78441e-05 4.0846e-08
3.78441e-05 4.34429e-05 -9.82655e-07
4.0846e-08 -9.82655e-07 -2.80513e-05
0.000865939 4.36243e-05 1.67391e-07
4.36243e-05 6.71853e-05 -7.25272e-07
1.67391e-07 -7.25272e-07 2.30011e-06
0.000816049 2.69139e-05 1.80885e-06
2.69139e-05 5.18733e-05 5.14648e-08
1.80885e-06 5.14648e-08 -2.9968e-05
0.000618473 -4.11856e-05 2.39665e-07
-4.11856e-05 -1.52895e-05 1.25083e-07
2.39665e-07 1.25083e-07 -0.000128796
0.000532722 2.31578e-05 1.68952e-07
2.31578e-05 -8.68226e-05 3.66643e-07
1.68952e-07 3.66643e-07 -0.000168102
0.000814331 3.78421e-05 3.96837e-07
3.78421e-05 5.71531e-05 5.39689e-07
3.96837e-07 5.39689e-07 -1.54622e-05
0.000811226 3.80632e-05 3.86394e-07
3.80632e-05 4.6355e-05 6.37638e-07
3.86394e-07 6.37638e-07 -1.59564e-05
0.000820112 1.63972e-05 -2.02505e-07
1.63972e-05 4.94313e-05 -6.70734e-08
-2.02505e-07 -6.70734e-08 -1.20996e-05
0.000801974 2.94096e-05 -6.48173e-07
2.94096e-05 2.68399e-05 4.20826e-07
-6.48173e-07 4.20826e-07 -2.18348e-05
0.000844503 1.58052e-05 4.84158e-07
1.58052e-05 6.0113e-05 1.64567e-07
4.84158e-07 1.64567e-07 -1.51796e-06
0.000819908 9.64187e-07 -1.056e-07
9.64187e-07 3.41273e-05 1.26461e-08
-1.056e-07 1.26461e-08 -1.50409e-05
0.000780571 2.10244e-05 -9.14397e-07
2.10244e-05 3.95684e-06 1.52175e-06
-9.14397e-07 1.52175e-06 -2.76523e-05
0.000740037 -1.07278e-05 6.59395e-07
-1.07278e-05 -1.14774e-05 -3.74522e-07
6.59395e-07 -3.74522e-07 -6.16346e-05
0.000780871 1.23532e-05 -6.02001e-08
1.23532e-05 2.13786e-06 5.10367e-09
-6.02001e-08 5.10367e-09 -2.9356e-05
0.00133535 2.01403e-05 -4.78317e-06
2.01403e-05 0.000301372 4.40673e-06
-4.78317e-06 4.40673e-06 0.000300353
0.000774225 3.33259e-06 7.29475e-07
3.33259e-06 -2.06522e-06 -1.43491e-06
7.29475e-07 -1.43491e-06 -3.36524e-05
0.00103367 1.32956e-05 -2.16753e-06
1.32956e-05 0.0001324 6.47927e-07
-2.16753e-06 6.47927e-07 0.000130215
0.000898064 1.12484e-05 -5.73952e-07
1.12484e-05 5.88077e-05 1.59967e-06
-5.73952e-07 1.59967e-06 7.37712e-05
0.000725424 6.48389e-06 2.72362e-07
6.48389e-06 -3.96038e-05 -3.15924e-06
2.72362e-07 -3.15924e-06 -4.30319e-05
0.00214155 7.90901e-06 2.30898e-06
7.90901e-06 0.000743036 1.98537e-08
2.30898e-06 1.98537e-08 0.00076429
0.00213972 3.47888e-07 8.04764e-07
3.47888e-07 0.000741428 -4.26934e-06
8.04764e-07 -4.26934e-06 0.000762831
0.00107186 3.81107e-05 -1.14565e-06
3.81107e-05 0.000180813 -5.42397e-07
-1.14565e-06 -5.42397e-07 0.000130322
0.000784382 -4.0191e-06 -3.20679e-07
-4.0191e-06 3.96469e-06 -1.68996e-06
-3.20679e-07 -1.68996e-06 -2.50142e-05
0.000805531 3.81221e-06 7.43338e-07
3.81221e-06 3.95598e-05 5.28325e-07
7.43338e-07 5.28325e-07 -1.28193e-05
0.000737945 -7.98424e-07 -1.35764e-07
-7.98424e-07 -3.40287e-05 -3.32656e-06
-1.35764e-07 -3.32656e-06 -3.51485e-05
0.000790816 -6.23014e-07 5.36453e-08
-6.23014e-07 7.63364e-06 -1.74755e-09
5.36453e-08 -1.74755e-09 -2.12412e-05
0.00078368 2.48064e-06 -2.19043e-07
2.48064e-06 3.77771e-06 1.65579e-06
-2.19043e-07 1.65579e-06 -2.55119e-05
0.000736852 5.49028e-06 -1.65552e-07
5.49028e-06 -3.41984e-05 5.7347e-09
-1.65552e-07 5.7347e-09 -3.57706e-05
0.0020677 7.46986e-06 3.60143e-06
7.46986e-06 0.000702298 -4.31578e-06
3.60143e-06 -4.31578e-06 0.000724428
0.00129499 1.50277e-05 -7.10407e-07
1.50277e-05 0.000274836 2.02662e-06
-7.10407e-07 2.02662e-06 0.000275476
0.00150455 1.39922e-05 2.19088e-06
1.39922e-05 0.000393658 4.98421e-08
2.19088e-06 4.98421e-08 0.000412072
0.000973483 1.68669e-05 -1.37431e-05
1.68669e-05 0.000104276 6.78216e-06
-1.37431e-05 6.78216e-06 0.00011882
-0.00597496 0.000112743 2.98053e-05
0.000112743 -0.00289194 7.92157e-07
2.98053e-05 7.92157e-07 -0.00291926
-0.00125876 0.000261257 1.45191e-05
0.000261257 -0.000461538 1.65858e-05
1.45191e-05 1.65858e-05 -0.000481374
0.00216715 1.21533e-05 -0.000125235
1.21533e-05 0.000117351 -4.62341e-06
-0.000125235 -4.62341e-06 -0.000216061
0.00203162 -2.46586e-05 1.47575e-05
-2.46586e-05 0.000204707 8.22012e-07
1.47575e-05 8.22012e-07 0.000120033
0.00156325 -5.96573e-06 -1.3353e-06
-5.96573e-06 -0.000195853 -2.37528e-07
-1.3353e-06 -2.37528e-07 -0.000251198
0.00133895 -3.36789e-06 2.71015e-05
-3.36789e-06 -7.66077e-05 -7.28683e-07
2.71015e-05 -7.28683e-07 -0.000314905
0.00206064 -1.11007e-05 -1.73559e-06
-1.11007e-05 0.000169689 1.07159e-06
-1.73559e-06 1.07159e-06 0.000100492
0.00521893 0.000213949 -1.62881e-05
0.000213949 0.00125768 -1.35736e-05
-1.62881e-05 -1.35736e-05 0.000517274
-0.00370175 0.000245319 -1.76646e-05
0.000245319 -0.00143541 -2.85494e-07
-1.76646e-05 -2.85494e-07 -0.00161575
-0.000531044 0.00064034 -7.9383e-06
0.00064034 -0.00111686 9.51425e-07
-7.9383e-06 9.51425e-07 0.000178463
0.00198998 -8.65661e-05 6.64572e-05
-8.65661e-05 0.000167328 -1.94638e-06
6.64572e-05 -1.94638e-06 -8.03773e-05
0.00698617 0.000353792 2.08514e-05
0.000353792 0.00240348 -3.79204e-06
2.08514e-05 -3.79204e-06 0.00129934
0.000113149 0.000515961 -2.15098e-05
0.000515961 -0.000333476 -1.8176e-05
-2.15098e-05 -1.8176e-05 8.40993e-05
0.00351245 0.000427647 -5.5023e-05
0.000427647 -2.42293e-05 3.52632e-05
-5.5023e-05 3.52632e-05 0.000823054
0.000826519 4.67137e-05 -6.9694e-07
4.67137e-05 6.67127e-05 5.61797e-08
-6.9694e-07 5.61797e-08 -1.39702e-05
0.000732519 7.51457e-07 -1.58549e-07
7.51457e-07 7.01696e-06 -2.93463e-07
-1.58549e-07 -2.93463e-07 -5.7124e-05
0.000802702 -5.45252e-05 -9.1462e-07
-5.45252e-05 4.01837e-05 9.50608e-07
-9.1462e-07 9.50608e-07 -1.2919e-05
0.000730445 1.81577e-06 1.44227e-07
1.81577e-06 9.24061e-06 5.34273e-07
1.44227e-07 5.34273e-07 -5.86606e-05
0.000805951 4.72217e-05 6.92228e-07
4.72217e-05 5.95264e-05 7.24468e-07
6.92228e-07 7.24468e-07 -1.76962e-05
0.000880451 3.79763e-05 -8.26225e-07
3.79763e-05 9.38137e-05 4.99199e-07
-8.26225e-07 4.99199e-07 1.5381e-05
0.000866404 5.25786e-05 1.37826e-06
5.25786e-05 8.68164e-05 9.51926e-07
1.37826e-06 9.51926e-07 1.00406e-05
0.000807871 -1.92531e-05 6.30015e-07
-1.92531e-05 4.46649e-05 2.12817e-07
6.30015e-07 2.12817e-07 -2.34015e-05
0.00080325 -2.53409e-05 3.95731e-07
-2.53409e-05 4.86789e-05 -5.44005e-07
3.95731e-07 -5.44005e-07 -1.95079e-05
0.000728714 -2.20223e-05 2.96595e-07
-2.20223e-05 4.88008e-06 6.78371e-07
2.96595e-07 6.78371e-07 -5.99385e-05
0.00151938 -5.39089e-05 8.84771e-07
-5.39089e-05 -0.000176337 -2.47892e-06
8.84771e-07 -2.47892e-06 -0.000234413
0.00219265 -0.000206039 4.53341e-06
-0.000206039 0.000181616 1.29987e-06
4.53341e-06 1.29987e-06 0.000115472
0.000101522 -0.00016206 4.40504e-06
-0.00016206 -0.000672078 1.75675e-06
4.40504e-06 1.75675e-06 -0.000788085
0.00127217 -0.00018742 1.31732e-06
-0.00018742 0.000269263 1.10834e-06
1.31732e-06 1.10834e-06 8.60389e-05
0.00107832 -5.90576e-05 2.13333e-06
-5.90576e-05 0.000241954 -5.5474e-07
2.13333e-06 -5.5474e-07 8.56448e-05
0.00112797 -3.81792e-05 -1.38765e-07
-3.81792e-05 0.000233194 -5.70281e-07
-1.38765e-07 -5.70281e-07 0.000135348
0.000902792 -1.76982e-05 -1.09321e-06
-1.76982e-05 0.000102188 -3.45168e-07
-1.09321e-06 -3.45168e-07 2.31361e-05
0.000885179 3.53484e-05 -9.14453e-07
3.53484e-05 9.82418e-05 7.91606e-08
-9.14453e-07 7.91606e-08 1.82878e-05
0.00189037 -0.000123987 -3.77396e-06
-0.000123987 0.000151813 1.59573e-06
-3.77396e-06 1.59573e-06 9.40408e-05
0.000791059 -3.39359e-05 -1.40218e-07
-3.39359e-05 4.13586e-05 4.88228e-08
-1.40218e-07 4.88228e-08 -4.10362e-05
0.000848287 -3.27803e-05 4.35789e-07
-3.27803e-05 7.23026e-05 -2.76729e-07
4.35789e-07 -2.76729e-07 -1.41777e-05
0.0022258 -0.000268391 3.47136e-06
-0.000268391 0.000263874 -1.56918e-06
3.47136e-06 -1.56918e-06 0.000201478
4.26617e-05 -0.000161937 1.53462e-06
-0.000161937 -0.000498303 1.63458e-06
1.53462e-06 1.63458e-06 -0.000638944
0.00119093 -0.000109131 2.39116e-06
-0.000109131 0.000262444 -1.31355e-06
2.39116e-06 -1.31355e-06 8.34536e-05
0.000926405 -3.07786e-05 -6.14951e-07
-3.07786e-05 0.000136474 -5.60409e-07
-6.14951e-07 -5.60409e-07 1.69457e-05
0.00312441 -0.000241534 3.0402e-06
-0.000241534 0.00108642 -8.16639e-06
3.0402e-06 -8.16639e-06 0.000899989
0.00173365 -0.000222906 -1.38561e-05
-0.000222906 0.0003329 7.43289e-07
-1.38561e-05 7.43289e-07 0.000250713
0.000417857 -4.6493e-06 -8.99313e-06
-4.6493e-06 -0.000112786 8.12523e-06
-8.99313e-06 8.12523e-06 -0.000266123
0.0008887 2.18755e-05 4.757e-07
2.18755e-05 9.25866e-05 8.1792e-07
4.757e-07 8.1792e-07 1.04169e-05
0.000717699 -7.31686e-05 1.29288e-06
-7.31686e-05 -6.13577e-06 2.4288e-07
1.29288e-06 2.4288e-07 -9.00333e-05
0.000916273 -2.14662e-05 -7.19988e-08
-2.14662e-05 9.28372e-05 1.22887e-06
-7.19988e-08 1.22887e-06 5.79419e-06
0.00088852 3.08066e-06 -8.42944e-05
3.08066e-06 0.00115485 5.17282e-07
-8.42944e-05 5.17282e-07 0.000890038
0.00170964 -7.23635e-05 1.31118e-05
-7.23635e-05 0.00110724 2.76273e-06
1.31118e-05 2.76273e-06 0.00101247
-0.000555135 0.000213702 -4.46799e-05
0.000213702 -0.00171099 2.10531e-05
-4.46799e-05 2.10531e-05 -0.00228561
0.000748213 8.0373e-05 2.93757e-06
8.0373e-05 5.75278e-05 6.72731e-07
2.93757e-06 6.72731e-07 -4.10629e-05
0.000621757 0.000102601 4.97674e-06
0.000102601 2.70823e-05 1.59326e-06
4.97674e-06 1.59326e-06 -0.000122247
0.00335431 0.00022347 9.90965e-06
0.00022347 0.000852355 1.73912e-06
9.90965e-06 1.73912e-06 0.000881341
0.000102562 0.000115047 9.16594e-06
0.000115047 -0.000391314 5.36538e-06
9.16594e-06 5.36538e-06 -0.000593315
0.00373828 -0.000314092 4.93158e-05
-0.000314092 0.00164524 9.74963e-06
4.93158e-05 9.74963e-06 0.00177125
-0.000272229 -0.000168712 -5.97265e-06
-0.000168712 -0.00121684 6.82206e-06
-5.97265e-06 6.82206e-06 -0.00232974
0.00406374 0.000347532 -6.48675e-05
0.000347532 0.00034345 -5.47372e-05
-6.48675e-05 -5.47372e-05 -0.000501807
-0.000450604 6.94271e-05 1.92837e-05
6.94271e-05 -0.000752003 -1.21033e-05
1.92837e-05 -1.21033e-05 -0.00069318
-0.00264849 -0.000376362 3.01377e-05
-0.000376362 -0.00130287 1.16558e-05
3.01377e-05 1.16558e-05 -0.00137399
0.00112376 -0.000320218 2.77501e-05
-0.000320218 0.00051967 2.37105e-05
2.77501e-05 2.37105e-05 0.000469758
0.0039238 -0.000479502 6.18878e-05
-0.000479502 -5.9368e-05 4.34579e-05
6.18878e-05 4.34579e-05 0.001121
0.000863574 6.81366e-05 1.05831e-06
6.81366e-05 0.000142973 -1.35693e-06
1.05831e-06 -1.35693e-06 5.40104e-05
-0.000126572 -0.000135237 -2.54815e-05
-0.000135237 0.000449941 -7.50784e-06
-2.54815e-05 -7.50784e-06 0.000161589
0.00207321 -2.78181e-05 -1.62409e-06
-2.78181e-05 0.00027444 -1.09735e-05
-1.62409e-06 -1.09735e-05 -0.000138498
0.000998732 0.000144244 -6.03082e-06
0.000144244 3.93576e-06 5.53676e-07
-6.03082e-06 5.53676e-07 -3.94998e-05
0.000707715 9.76532e-05 -1.45432e-06
9.76532e-05 0.000141002 4.88375e-07
-1.45432e-06 4.88375e-07 -3.40528e-05
-0.0002134 9.64492e-05 2.57697e-05
9.64492e-05 -0.000351617 -1.51329e-05
2.57697e-05 -1.51329e-05 -0.000398559
0.00553105 0.000677778 -1.69643e-05
0.000677778 0.00146449 -3.93403e-06
-1.69643e-05 -3.93403e-06 0.000724823
0.00772591 -0.000355849 2.36239e-05
-0.000355849 0.00274248 8.76947e-06
2.36239e-05 8.76947e-06 0.00131153
0.00131652 -0.000416697 1.31715e-06
-0.000416697 -0.0010332 -4.11582e-06
1.31715e-06 -4.11582e-06 -0.000697638
0.00475809 -0.00029583 4.8573e-06
-0.00029583 0.000308914 -2.54242e-06
4.8573e-06 -2.54242e-06 0.00130245
0.00133239 0.00012101 -1.29257e-05
0.00012101 0.00044003 -7.87944e-06
-1.29257e-05 -7.87944e-06 0.000369851
0.00154152 -3.80314e-05 -4.88739e-05
-3.80314e-05 3.94893e-05 -2.19729e-05
-4.88739e-05 -2.19729e-05 -0.000261959
0.00157578 -7.00136e-06 -1.54498e-05
-7.00136e-06 0.000128032 -2.9923e-05
-1.54498e-05 -2.9923e-05 -0.000229783
-0.000869159 -2.02531e-05 -2.08478e-05
-2.02531e-05 -0.000539559 -1.78957e-05
-2.08478e-05 -1.78957e-05 -0.000641004
0.00352276 0.000351641 -8.15768e-07
0.000351641 0.00110284 4.91205e-05
-8.15768e-07 4.91205e-05 0.000692944
0.00849313 -0.000267998 2.15205e-05
-0.000267998 0.002808 7.19998e-06
2.15205e-05 7.19998e-06 0.00123562
-0.00422469 -0.000287172 -5.58131e-05
-0.000287172 -0.00328424 -1.02439e-05
-5.58131e-05 -1.02439e-05 -0.00375625
0.00460008 3.87766e-05 -2.25859e-06
3.87766e-05 -8.23746e-05 -4.48604e-05
-2.25859e-06 -4.48604e-05 0.00102029
0.00100746 5.3926e-05 1.29186e-06
5.3926e-05 0.000161019 3.5675e-06
1.29186e-06 3.5675e-06 9.02709e-05
0.000829327 6.29164e-05 -1.43464e-06
6.29164e-05 6.96087e-05 -6.01243e-07
-1.43464e-06 -6.01243e-07 1.74315e-05
0.000474438 3.5713e-05 5.22408e-07
3.5713e-05 -9.44715e-05 -3.45484e-06
5.22408e-07 -3.45484e-06 -0.000137304
0.000907922 5.93931e-05 -1.21974e-06
5.93931e-05 8.40306e-05 -5.75498e-07
-1.21974e-06 -5.75498e-07 1.85671e-05
0.000922742 -2.79131e-05 -5.41203e-08
-2.79131e-05 9.21151e-05 8.82914e-07
-5.41203e-08 8.82914e-07 2.02498e-05
0.00100074 -2.04918e-05 -1.04623e-06
-2.04918e-05 0.000128085 1.15981e-06
-1.04623e-06 1.15981e-06 6.35329e-05
0.000841155 -1.9678e-05 -7.40855e-07
-1.9678e-05 4.97579e-05 2.3919e-06
-7.40855e-07 2.3919e-06 -4.94903e-06
0.000917254 9.46008e-06 4.25895e-07
9.46008e-06 8.44241e-05 9.77519e-09
4.25895e-07 9.77519e-09 1.40439e-05
0.000873499 -2.15105e-05 -1.3051e-07
-2.15105e-05 5.06454e-05 -1.51329e-07
-1.3051e-07 -1.51329e-07 -1.18994e-05
0.000875598 -2.79593e-05 3.20931e-07
-2.79593e-05 6.86581e-05 3.75074e-07
3.20931e-07 3.75074e-07 2.15731e-05
0.000800243 -3.73443e-05 -2.18988e-07
-3.73443e-05 5.69188e-05 -2.39447e-06
-2.18988e-07 -2.39447e-06 2.43415e-05
0.000899264 -3.36e-05 2.94312e-06
-3.36e-05 6.14012e-05 -3.00585e-06
2.94312e-06 -3.00585e-06 1.44899e-05
0.000796066 3.78338e-05 6.73004e-07
3.78338e-05 1.87032e-05 -1.06559e-06
6.73004e-07 -1.06559e-06 -5.08236e-05
0.000891724 -2.70838e-05 1.0211e-06
-2.70838e-05 7.44349e-05 2.28043e-07
1.0211e-06 2.28043e-07 5.0105e-06
0.000824981 5.24477e-05 -3.24081e-07
5.24477e-05 4.7554e-05 2.41335e-07
-3.24081e-07 2.41335e-07 -1.8819e-05
0.00087801 2.44275e-05 -3.48071e-07
2.44275e-05 6.58728e-05 9.91027e-07
-3.48071e-07 9.91027e-07 1.71914e-06
0.00084138 3.73324e-05 -4.58463e-08
3.73324e-05 4.81193e-05 5.29485e-08
-4.58463e-08 5.29485e-08 -2.10043e-05
0.000812673 5.41705e-05 3.95749e-07
5.41705e-05 4.89535e-05 3.06329e-07
3.95749e-07 3.06329e-07 -1.95486e-05
0.000868398 5.38496e-05 -7.11953e-08
5.38496e-05 6.91916e-05 1.05571e-08
-7.11953e-08 1.05571e-08 3.44425e-06
0.000895538 4.28245e-05 2.016e-06
4.28245e-05 8.85161e-05 -1.03368e-07
2.016e-06 -1.03368e-07 1.95839e-05
0.000838322 4.17121e-05 1.74787e-07
4.17121e-05 5.21858e-05 -1.03226e-06
1.74787e-07 -1.03226e-06 -9.57522e-06
0.000797612 -5.10966e-05 8.52837e-07
-5.10966e-05 5.37585e-05 -1.93113e-07
8.52837e-07 -1.93113e-07 -3.34153e-05
0.000905221 9.76707e-06 -1.92039e-07
9.76707e-06 0.000101223 -8.75659e-08
-1.92039e-07 -8.75659e-08 1.85902e-05
0.000706094 -3.81395e-05 6.47103e-07
-3.81395e-05 2.57666e-05 1.87935e-06
6.47103e-07 1.87935e-06 -7.95618e-05
0.00100864 -0.000123465 -1.31746e-06
-0.000123465 0.000170382 3.23951e-06
-1.31746e-06 3.23951e-06 3.49715e-05
0.00109192 -2.01531e-05 9.69403e-07
-2.01531e-05 0.000220952 -5.83766e-07
9.69403e-07 -5.83766e-07 0.000125854
0.000671372 -4.89838e-05 8.88623e-08
-4.89838e-05 1.57521e-05 -2.40903e-06
8.88623e-08 -2.40903e-06 -9.51136e-05
0.000798939 2.6221e-05 -5.34576e-07
2.6221e-05 5.61657e-05 -5.48738e-07
-5.34576e-07 -5.48738e-07 -2.36374e-05
0.0006229 3.05185e-05 9.00274e-07
3.05185e-05 -5.00458e-05 8.55852e-07
9.00274e-07 8.55852e-07 -0.00011932
0.000865097 3.68236e-05 -4.84042e-07
3.68236e-05 8.52012e-05 -2.37915e-07
-4.84042e-07 -2.37915e-07 1.21722e-05
0.000836413 1.26914e-05 -2.10686e-07
1.26914e-05 6.04571e-05 3.21009e-07
-2.10686e-07 3.21009e-07 -2.43842e-06
0.000790707 3.71864e-05 -6.50916e-07
3.71864e-05 2.43345e-05 5.4825e-07
-6.50916e-07 5.4825e-07 -2.55874e-05
0.000849997 -1.13983e-05 3.41286e-07
-1.13983e-05 6.89006e-05 -1.17802e-07
3.41286e-07 -1.17802e-07 4.84898e-06
0.000810585 3.62372e-06 -3.87928e-07
3.62372e-06 3.24194e-05 4.09176e-08
-3.87928e-07 4.09176e-08 -1.71225e-05
0.000776054 2.59875e-05 -1.13574e-06
2.59875e-05 5.22755e-06 1.52139e-06
-1.13574e-06 1.52139e-06 -2.68822e-05
0.000838951 -1.93983e-05 1.20566e-06
-1.93983e-05 4.58408e-05 -4.40283e-07
1.20566e-06 -4.40283e-07 -4.38969e-06
0.000782513 1.68686e-05 -1.48879e-07
1.68686e-05 4.53666e-06 8.27099e-09
-1.48879e-07 8.27099e-09 -2.68849e-05
0.00132351 2.69671e-05 -6.57759e-06
2.69671e-05 0.000298747 4.34444e-06
-6.57759e-06 4.34444e-06 0.000297241
0.000777275 7.62107e-06 1.09028e-06
7.62107e-06 -2.03559e-07 -1.47301e-06
1.09028e-06 -1.47301e-06 -3.1532e-05
0.00102747 1.95719e-05 -2.90212e-06
1.95719e-05 0.00013182 6.17921e-07
-2.90212e-06 6.17921e-07 0.000129343
0.00089208 1.73704e-05 -1.08053e-06
1.73704e-05 5.91939e-05 1.60181e-06
-1.08053e-06 1.60181e-06 7.35894e-05
0.000721208 1.21282e-05 4.6157e-07
1.21282e-05 -4.02563e-05 -3.16616e-06
4.6157e-07 -3.16616e-06 -4.38868e-05
0.00151529 1.46778e-05 4.54035e-06
1.46778e-05 0.000399313 -1.26421e-06
4.54035e-06 -1.26421e-06 0.000417256
0.00214313 9.00155e-06 4.84715e-06
9.00155e-06 0.000744238 -4.21531e-06
4.84715e-06 -4.21531e-06 0.00076543
0.000873758 -2.44654e-05 5.33713e-07
-2.44654e-05 6.95814e-05 -4.34963e-07
5.33713e-07 -4.34963e-07 1.78192e-05
0.000789436 -8.90988e-06 -3.09127e-07
-8.90988e-06 7.49992e-06 -1.64106e-06
-3.09127e-07 -1.64106e-06 -2.22951e-05
0.000863145 -5.10545e-06 3.75065e-07
-5.10545e-06 6.65623e-05 1.25582e-07
3.75065e-07 1.25582e-07 1.5581e-05
0.000739997 -6.6977e-06 -3.55661e-07
-6.6977e-06 -3.20634e-05 -3.29428e-06
-3.55661e-07 -3.29428e-06 -3.34546e-05
0.000791244 -4.77659e-06 -4.83804e-08
-4.77659e-06 7.78601e-06 2.23894e-09
-4.83804e-08 2.23894e-09 -2.12196e-05
0.000803905 -3.7544e-05 -1.17987e-06
-3.7544e-05 3.54164e-05 1.36527e-06
-1.17987e-06 1.36527e-06 -1.45335e-05
0.00205695 -9.77026e-07 -4.85517e-07
-9.77026e-07 0.000696117 -4.32063e-06
-4.85517e-07 -4.32063e-06 0.000718436
0.000738726 -4.87562e-07 -7.48982e-08
-4.87562e-07 -3.36328e-05 2.48759e-09
-7.48982e-08 2.48759e-09 -3.47567e-05
0.000791848 -1.39299e-06 1.13278e-07
-1.39299e-06 8.13855e-06 1.67268e-06
1.13278e-07 1.67268e-06 -2.07303e-05
0.000740071 5.76808e-06 -1.14534e-07
5.76808e-06 -3.24558e-05 3.3371e-06
-1.14534e-07 3.3371e-06 -3.40561e-05
0.00206927 8.06155e-06 -2.48839e-06
8.06155e-06 0.000703352 -2.17002e-08
-2.48839e-06 -2.17002e-08 0.000725423
0.00209265 1.60226e-05 -1.03156e-05
1.60226e-05 0.000717824 4.22867e-06
-1.03156e-05 4.22867e-06 0.000739353
-0.00136943 8.62057e-05 -4.01718e-05
8.62057e-05 -9.55972e-05 6.78424e-06
-4.01718e-05 6.78424e-06 -0.00050551
-0.000838261 0.000243461 -7.54388e-06
0.000243461 -0.000249408 4.16218e-06
-7.54388e-06 4.16218e-06 -0.000320416
0.00211651 6.41232e-05 -6.86267e-05
6.41232e-05 0.000149427 4.83785e-05
-6.86267e-05 4.83785e-05 -0.000181839
-0.00150035 0.000302545 5.65151e-05
0.000302545 -0.000504409 -2.35917e-05
5.65151e-05 -2.35917e-05 -0.000446621
0.00259742 8.21832e-05 -9.55977e-05
8.21832e-05 0.00040259 1.11183e-05
-9.55977e-05 1.11183e-05 7.21499e-05
0.00202172 -1.5024e-05 4.57505e-05
-1.5024e-05 0.000148665 -5.63753e-06
4.57505e-05 -5.63753e-06 8.70229e-05
0.001237 -0.000252646 -6.94492e-05
-0.000252646 -0.000615815 -2.25827e-05
-6.94492e-05 -2.25827e-05 -0.00126488
0.00866272 0.000524109 6.71968e-05
0.000524109 0.0042047 -1.67287e-05
6.71968e-05 -1.67287e-05 0.00425743
-0.00324634 0.000686136 -2.45184e-05
0.000686136 -0.00282058 4.45432e-05
-2.45184e-05 4.45432e-05 -0.00121793
0.00142963 1.85368e-05 -6.22023e-06
1.85368e-05 -0.000261502 -1.83276e-06
-6.22023e-06 -1.83276e-06 -0.000480819
0.00169199 0.000174512 1.73846e-05
0.000174512 -8.4865e-05 -1.81221e-05
1.73846e-05 -1.81221e-05 -0.00152632
0.00505449 0.000789939 -1.23855e-05
0.000789939 0.00157475 -1.62993e-05
-1.23855e-05 -1.62993e-05 0.00198255
0.00174643 0.000430529 -8.57815e-06
0.000430529 -0.00110013 2.07812e-05
-8.57815e-06 2.07812e-05 -0.000219463
0.00297495 -0.000115041 -2.26751e-05
-0.000115041 0.000315289 7.21462e-06
-2.26751e-05 7.21462e-06 -1.67056e-06
0.00458992 0.000311298 6.85475e-05
0.000311298 0.00142586 -4.64382e-05
6.85475e-05 -4.64382e-05 -0.000174925
-0.00586372 0.000168149 -7.69975e-05
0.000168149 -0.00429928 -2.04784e-05
-7.69975e-05 -2.04784e-05 -0.00401898
0.00135868 0.000276789 -2.0089e-05
0.000276789 -0.00204834 1.94272e-05
-2.0089e-05 1.94272e-05 -0.0010649
0.000908323 -2.07737e-05 1.01726e-06
-2.07737e-05 0.000108476 4.82963e-07
1.01726e-06 4.82963e-07 2.38844e-05
0.000870717 3.51326e-05 -1.47552e-06
3.51326e-05 9.01903e-05 -3.59642e-07
-1.47552e-06 -3.59642e-07 1.08893e-05
0.00081762 1.50529e-05 7.30824e-07
1.50529e-05 5.41941e-05 -6.35778e-08
7.30824e-07 -6.35778e-08 -1.03702e-05
0.000866601 5.46128e-05 1.7902e-06
5.46128e-05 9.25791e-05 1.01371e-06
1.7902e-06 1.01371e-06 1.56127e-05
0.000783796 1.4251e-05 -3.4308e-07
1.4251e-05 4.15119e-05 7.51024e-07
-3.4308e-07 7.51024e-07 -4.34187e-05
0.000909343 4.01887e-05 1.97235e-07
4.01887e-05 0.000110571 5.4655e-07
1.97235e-07 5.4655e-07 3.18416e-05
0.000811958 -3.87576e-07 -1.6107e-08
-3.87576e-07 5.40772e-05 1.08407e-06
-1.6107e-08 1.08407e-06 -2.08466e-05
0.000926426 6.91762e-05 -7.73365e-07
6.91762e-05 0.000118449 6.04007e-07
-7.73365e-07 6.04007e-07 4.14385e-05
0.000902087 2.98847e-05 -2.91161e-07
2.98847e-05 0.000105349 3.02841e-07
-2.91161e-07 3.02841e-07 3.14273e-05
0.000754285 -1.88923e-05 -7.94846e-07
-1.88923e-05 2.38628e-05 -2.80877e-07
-7.94846e-07 -2.80877e-07 -4.6665e-05
-0.000354173 -6.81599e-05 1.11956e-05
-6.81599e-05 -0.0010001 -4.58039e-06
1.11956e-05 -4.58039e-06 -0.00103404
0.00161761 -0.000250065 8.3305e-06
-0.000250065 -5.36511e-05 4.84972e-07
8.3305e-06 4.84972e-07 -0.000123909
0.000943381 -0.00020516 7.40277e-06
-0.00020516 -1.76483e-05 1.86418e-06
7.40277e-06 1.86418e-06 -0.000162138
0.00122662 -0.000100688 5.99346e-06
-0.000100688 0.000276332 -1.36206e-06
5.99346e-06 -1.36206e-06 0.000101023
0.000927829 -2.07492e-05 8.94657e-07
-2.07492e-05 0.000144131 -9.95861e-07
8.94657e-07 -9.95861e-07 1.34049e-05
0.000801807 -4.13508e-05 -4.8078e-07
-4.13508e-05 5.08777e-05 -4.9049e-07
-4.8078e-07 -4.9049e-07 -3.8331e-05
0.000868573 5.07954e-05 -1.65318e-07
5.07954e-05 8.54564e-05 -1.88266e-07
-1.65318e-07 -1.88266e-07 8.58653e-07
0.000878923 -3.33071e-05 -2.63409e-07
-3.33071e-05 9.00362e-05 3.33065e-07
-2.63409e-07 3.33065e-07 5.76978e-06
0.00141664 -0.000167262 3.36445e-06
-0.000167262 0.00019049 -6.1296e-07
3.36445e-06 -6.1296e-07 7.52352e-05
0.00086455 7.12306e-06 -1.36464e-07
7.12306e-06 7.69558e-05 -2.49692e-07
-1.36464e-07 -2.49692e-07 -9.05043e-06
0.000883937 -2.76027e-05 -2.31534e-07
-2.76027e-05 8.13487e-05 5.1228e-08
-2.31534e-07 5.1228e-08 -1.12019e-05
0.00162014 -0.00021799 -7.07973e-07
-0.00021799 0.000268197 3.11448e-07
-7.07973e-07 3.11448e-07 0.000191511
0.00104521 -2.8349e-05 -3.40943e-06
-2.8349e-05 0.000197806 1.89242e-06
-3.40943e-06 1.89242e-06 5.01843e-05
0.000682529 -0.000241565 -3.05305e-07
-0.000241565 -0.000212457 -1.27592e-05
-3.05305e-07 -1.27592e-05 -0.000242206
0.00160623 -7.4889e-05 -1.06684e-05
-7.4889e-05 0.000540648 8.97683e-06
-1.06684e-05 8.97683e-06 0.000421081
0.000462279 2.12496e-05 -3.33604e-06
2.12496e-05 -0.000159125 6.93889e-06
-3.33604e-06 6.93889e-06 -0.000247012
0.000865754 -3.49428e-06 4.49429e-07
-3.49428e-06 6.47101e-05 7.67443e-07
4.49429e-07 7.67443e-07 -1.48027e-05
0.000841402 2.78895e-05 -5.63691e-07
2.78895e-05 5.4731e-05 5.36167e-07
-5.63691e-07 5.36167e-07 -3.25541e-05
0.00126864 9.85769e-07 -2.66281e-05
9.85769e-07 -0.000118209 -3.33578e-06
-2.66281e-05 -3.33578e-06 -0.000359591
-0.00028661 -1.32358e-05 -2.4952e-05
-1.32358e-05 0.000593266 -1.49443e-06
-2.4952e-05 -1.49443e-06 0.000231327
-0.00607529 -9.71458e-05 -6.23254e-05
-9.71458e-05 -0.00300112 -4.04391e-06
-6.23254e-05 -4.04391e-06 -0.0029551
0.00070823 7.93839e-05 5.46855e-06
7.93839e-05 6.68588e-05 1.66225e-06
5.46855e-06 1.66225e-06 -2.51881e-05
-0.000111857 1.14248e-05 5.77648e-06
1.14248e-05 -0.000271659 3.40937e-06
5.77648e-06 3.40937e-06 -0.000450403
0.00122995 9.70305e-05 1.52849e-05
9.70305e-05 0.000152984 -1.56546e-06
1.52849e-05 -1.56546e-06 8.5957e-05
-0.00131491 -6.50547e-05 1.8717e-05
-6.50547e-05 -7.31109e-05 6.39998e-06
1.8717e-05 6.39998e-06 -0.000508045
0.00469544 -0.000421912 -8.71397e-06
-0.000421912 0.00146463 -1.93565e-05
-8.71397e-06 -1.93565e-05 -0.000228064
0.00400299 0.000589006 3.7353e-05
0.000589006 0.000550234 -2.25053e-05
3.7353e-05 -2.25053e-05 9.67246e-06
2.45668e-05 7.69405e-05 -9.55092e-06
7.69405e-05 -0.000171364 3.01461e-07
-9.55092e-06 3.01461e-07 -0.000120574
0.00560844 -0.000650881 3.64291e-05
-0.000650881 0.00149468 1.94588e-05
3.64291e-05 1.94588e-05 0.00158601
0.00227503 -3.47284e-05 4.76716e-05
-3.47284e-05 0.000417999 3.23972e-05
4.76716e-05 3.23972e-05 -6.50597e-06
0.00460699 -0.000269324 2.67611e-05
-0.000269324 0.00039942 1.36977e-05
2.67611e-05 1.36977e-05 0.00142502
0.00104003 0.000104504 2.51038e-06
0.000104504 0.00029275 -1.52298e-06
2.51038e-06 -1.52298e-06 0.00022217
0.00161451 -3.42351e-05 3.31922e-06
-3.42351e-05 0.000162754 -5.63628e-06
3.31922e-06 -5.63628e-06 -0.000104485
0.00170066 -1.46048e-06 1.47605e-06
-1.46048e-06 0.000127905 5.19071e-06
1.47605e-06 5.19071e-06 -0.000237959
0.000258679 6.07161e-05 -6.57327e-06
6.07161e-05 5.61795e-05 1.19284e-06
-6.57327e-06 1.19284e-06 -5.24191e-05
0.00316345 0.000415032 -1.32633e-05
0.000415032 0.000650327 -2.78061e-05
-1.32633e-05 -2.78061e-05 0.000348149
0.00318852 0.000255132 4.19132e-05
0.000255132 0.000357154 1.97685e-05
4.19132e-05 1.97685e-05 -0.00147955
0.00321349 1.89416e-05 -4.96244e-08
1.89416e-05 -0.00115272 -1.87022e-05
-4.96244e-08 -1.87022e-05 0.000103494
0.000393902 -0.000213198 -1.13283e-05
-0.000213198 -0.000871853 1.65894e-05
-1.13283e-05 1.65894e-05 -0.000986316
0.000687055 4.5575e-05 -4.05151e-06
4.5575e-05 0.000203033 -8.98742e-06
-4.05151e-06 -8.98742e-06 0.000157358
0.00125082 -1.39508e-05 -1.12228e-05
-1.39508e-05 0.000128836 -1.25982e-05
-1.12228e-05 -1.25982e-05 2.93791e-05
0.0017434 7.08411e-06 2.74551e-06
7.08411e-06 3.97681e-05 -2.84628e-05
2.74551e-06 -2.84628e-05 -0.000303359
0.00136418 0.000254934 1.85575e-05
0.000254934 -0.00195121 -2.22815e-05
1.85575e-05 -2.22815e-05 -0.00105636
-0.00186276 2.04923e-05 7.2499e-06
2.04923e-05 -0.000910023 -1.33377e-05
7.2499e-06 -1.33377e-05 -0.00117799
0.00888167 0.000144809 8.1687e-05
0.000144809 0.00310566 3.04369e-05
8.1687e-05 3.04369e-05 0.0014891
-0.00325025 -9.20195e-05 1.89459e-05
-9.20195e-05 -0.000963263 -1.6964e-05
1.89459e-05 -1.6964e-05 -0.00139578
0.00115269 8.99742e-05 5.16892e-06
8.99742e-05 0.000240288 4.98791e-06
5.16892e-06 4.98791e-06 0.000187378
0.000643621 5.91549e-05 -2.38167e-06
5.91549e-05 -6.84395e-06 1.4099e-06
-2.38167e-06 1.4099e-06 -5.3847e-05
0.000457133 3.27616e-05 -5.17136e-06
3.27616e-05 -5.31022e-05 -6.9983e-06
-5.17136e-06 -6.9983e-06 -0.00010006
0.000909645 8.16017e-05 -2.16136e-07
8.16017e-05 8.39335e-05 5.31557e-07
-2.16136e-07 5.31557e-07 1.13853e-05
0.000865262 -5.54163e-07 -5.54706e-07
-5.54163e-07 4.61679e-05 1.24903e-06
-5.54706e-07 1.24903e-06 -1.59349e-05
0.000771261 -3.73698e-05 -2.27869e-06
-3.73698e-05 1.13197e-05 5.89992e-06
-2.27869e-06 5.89992e-06 -3.64739e-05
0.000840441 4.2403e-05 9.27584e-08
4.2403e-05 4.14258e-05 7.03829e-08
9.27584e-08 7.03829e-08 -2.71916e-05
0.000799771 -4.16846e-05 1.80962e-07
-4.16846e-05 9.65115e-06 -9.39219e-07
1.80962e-07 -9.39219e-07 -3.85982e-05
0.000883417 -6.21024e-05 3.2554e-06
-6.21024e-05 8.96177e-05 2.28205e-06
3.2554e-06 2.28205e-06 4.81359e-05
0.000947868 -6.61086e-07 1.08521e-06
-6.61086e-07 0.000135611 -2.77366e-06
1.08521e-06 -2.77366e-06 0.000112991
0.000848121 1.20719e-05 -1.40391e-08
1.20719e-05 4.39515e-05 -2.57709e-06
-1.40391e-08 -2.57709e-06 -1.09015e-05
0.000855387 3.971e-05 -1.19295e-07
3.971e-05 5.22079e-05 1.09216e-06
-1.19295e-07 1.09216e-06 -1.42445e-05
0.000828459 5.71285e-05 -1.34511e-07
5.71285e-05 5.89762e-05 1.42602e-07
-1.34511e-07 1.42602e-07 -1.04276e-05
0.000863999 5.78601e-05 -9.34113e-07
5.78601e-05 6.67998e-05 7.57307e-07
-9.34113e-07 7.57307e-07 6.56746e-07
0.000852872 3.91415e-05 3.26458e-07
3.91415e-05 5.85186e-05 1.90066e-07
3.26458e-07 1.90066e-07 -3.31354e-06
0.000911562 4.30728e-05 7.20422e-07
4.30728e-05 9.61855e-05 2.09127e-07
7.20422e-07 2.09127e-07 2.80953e-05
0.000706034 -2.33762e-05 1.31129e-06
-2.33762e-05 2.63355e-05 6.74263e-07
1.31129e-06 6.74263e-07 -4.54376e-05
0.000754715 -2.44965e-05 -5.45587e-07
-2.44965e-05 3.61268e-05 -1.00253e-06
-5.45587e-07 -1.00253e-06 -4.67731e-05
0.000747636 -5.35434e-05 2.52604e-06
-5.35434e-05 4.43162e-05 7.31733e-07
2.52604e-06 7.31733e-07 -8.35888e-05
0.0010033 -6.44243e-06 -1.57632e-06
-6.44243e-06 0.000154503 -4.23733e-07
-1.57632e-06 -4.23733e-07 7.13418e-05
0.00100535 -5.82058e-05 -5.75844e-07
-5.82058e-05 0.000178717 8.4861e-07
-5.75844e-07 8.4861e-07 7.15187e-05
0.000578063 -0.000101384 -3.58556e-07
-0.000101384 -5.88671e-05 2.26341e-06
-3.58556e-07 2.26341e-06 -0.000201741
0.000823766 -0.000112589 -2.88781e-06
-0.000112589 7.02842e-05 2.48433e-07
-2.88781e-06 2.48433e-07 -6.73306e-05
0.000955539 -8.54336e-05 -1.01074e-06
-8.54336e-05 0.000153109 1.65111e-06
-1.01074e-06 1.65111e-06 4.31796e-05
0.000831351 -0.000111799 9.34277e-10
-0.000111799 7.74159e-05 5.16065e-07
9.34277e-10 5.16065e-07 -5.65137e-05
0.00089098 1.66991e-06 9.60371e-07
1.66991e-06 9.93665e-05 1.059e-06
9.60371e-07 1.059e-06 2.02331e-05
0.000978878 -2.50754e-05 -8.88261e-07
-2.50754e-05 0.0001605 -6.73897e-07
-8.88261e-07 -6.73897e-07 6.358e-05
0.000731036 -5.68667e-05 4.09997e-07
-5.68667e-05 5.05393e-05 -3.90836e-06
4.09997e-07 -3.90836e-06 -5.76455e-05
0.0010664 2.90725e-05 -1.7781e-06
2.90725e-05 0.000199781 -1.51031e-06
-1.7781e-06 -1.51031e-06 0.000121475
0.000734633 2.40994e-05 9.89035e-08
2.40994e-05 9.9055e-06 -1.72284e-08
9.89035e-08 -1.72284e-08 -5.8233e-05
0.000787159 4.60237e-05 -1.39461e-07
4.60237e-05 2.74711e-05 7.35717e-07
-1.39461e-07 7.35717e-07 -2.64577e-05
0.000855408 -4.63824e-06 6.12554e-08
-4.63824e-06 7.2582e-05 -8.62773e-08
6.12554e-08 -8.62773e-08 8.13366e-06
0.00080844 1.39493e-05 -5.7046e-07
1.39493e-05 3.41015e-05 -6.71417e-08
-5.7046e-07 -6.71417e-08 -1.5973e-05
0.000769773 3.14112e-05 -1.31953e-06
3.14112e-05 6.75034e-06 1.48837e-06
-1.31953e-06 1.48837e-06 -2.65288e-05
0.000826671 -1.69466e-05 1.20988e-06
-1.69466e-05 4.13731e-05 -5.45471e-07
1.20988e-06 -5.45471e-07 -8.63052e-06
0.000778843 2.46523e-05 -1.14938e-07
2.46523e-05 6.08633e-06 5.54618e-09
-1.14938e-07 5.54618e-09 -2.58539e-05
0.00128683 3.37569e-05 -7.38608e-06
3.37569e-05 0.000284916 3.03108e-06
-7.38608e-06 3.03108e-06 0.000282435
0.000781605 1.33302e-05 1.21612e-06
1.33302e-05 3.55931e-06 -1.47645e-06
1.21612e-06 -1.47645e-06 -2.76801e-05
0.00102092 2.58993e-05 -3.57951e-06
2.58993e-05 0.000132342 5.73179e-07
-3.57951e-06 5.73179e-07 0.000129325
0.000881021 2.32374e-05 -1.62268e-06
2.32374e-05 5.81568e-05 1.59599e-06
-1.62268e-06 1.59599e-06 7.1713e-05
0.000719413 1.79381e-05 6.91786e-07
1.79381e-05 -3.84369e-05 -3.17817e-06
6.91786e-07 -3.17817e-06 -4.23669e-05
0.00150277 2.19212e-05 6.00203e-06
2.19212e-05 0.000395885 -1.18829e-06
6.00203e-06 -1.18829e-06 0.000413273
0.00213225 1.75669e-05 8.6257e-06
1.75669e-05 0.000740556 -4.10439e-06
8.6257e-06 -4.10439e-06 0.000761382
0.000673451 2.29148e-07 -3.9005e-07
2.29148e-07 -3.5437e-05 -9.49356e-07
-3.9005e-07 -9.49356e-07 -9.55442e-05
0.000549624 -1.38555e-05 -2.8735e-07
-1.38555e-05 -0.000121197 -2.11328e-06
-2.8735e-07 -2.11328e-06 -0.000154432
0.00089892 -1.08436e-05 -1.47938e-08
-1.08436e-05 8.51053e-05 7.72706e-08
-1.47938e-08 7.72706e-08 3.18236e-05
0.000738823 -1.25805e-05 -3.56147e-07
-1.25805e-05 -3.044e-05 -3.28186e-06
-3.56147e-07 -3.28186e-06 -3.28644e-05
0.000669179 -9.24045e-06 8.28376e-08
-9.24045e-06 -5.77117e-05 1.19729e-08
8.28376e-08 1.19729e-08 -8.84742e-05
0.000659276 -4.40868e-05 2.38791e-07
-4.40868e-05 -4.27845e-05 8.43278e-07
2.38791e-07 8.43278e-07 -9.57678e-05
0.00206478 -9.30145e-06 -4.81652e-06
-9.30145e-06 0.000701492 -4.28473e-06
-4.81652e-06 -4.28473e-06 0.000723513
0.000737113 -6.41898e-06 -1.77164e-07
-6.41898e-06 -3.36746e-05 -1.86899e-09
-1.77164e-07 -1.86899e-09 -3.50389e-05
0.000796826 -5.64012e-06 9.83351e-08
-5.64012e-06 1.09098e-05 1.66015e-06
9.83351e-08 1.66015e-06 -1.81166e-05
0.00205725 -3.57131e-07 -2.3876e-06
-3.57131e-07 0.000696271 -5.03462e-10
-2.3876e-06 -5.03462e-10 0.000718586
0.000740265 -1.81071e-07 1.44803e-07
-1.81071e-07 -3.28136e-05 3.32851e-06
1.44803e-07 3.32851e-06 -3.39497e-05
0.0020736 8.64845e-06 -4.94285e-06
8.64845e-06 0.000705924 4.32103e-06
-4.94285e-06 4.32103e-06 0.000727908
0.00109681 2.22699e-05 -4.56119e-05
2.22699e-05 -0.000141479 1.71402e-05
-4.56119e-05 1.71402e-05 -0.000410742
0.00129154 0.00016905 -1.13971e-06
0.00016905 0.0011643 -4.33846e-06
-1.13971e-06 -4.33846e-06 0.00103997
0.000643705 -0.00010156 1.19345e-05
-0.00010156 0.00062443 -1.11916e-05
1.19345e-05 -1.11916e-05 0.000371794
0.000843584 2.19991e-05 -1.06173e-07
2.19991e-05 6.57796e-05 5.99176e-07
-1.06173e-07 5.99176e-07 -9.21408e-06
0.00201395 3.15639e-05 -2.07571e-05
3.15639e-05 0.000346885 3.3409e-05
-2.07571e-05 3.3409e-05 6.48296e-05
0.0021056 5.28912e-05 -1.65811e-05
5.28912e-05 0.000187486 2.63263e-06
-1.65811e-05 2.63263e-06 -0.000205522
0.00154714 0.000381085 6.23379e-05
0.000381085 0.000883683 -4.44263e-05
6.23379e-05 -4.44263e-05 0.00122564
0.00300031 -4.13802e-05 -2.96312e-05
-4.13802e-05 0.000322502 -1.369e-06
-2.96312e-05 -1.369e-06 8.50864e-05
0.00952078 0.000483089 2.48063e-05
0.000483089 0.00364145 -2.4264e-05
2.48063e-05 -2.4264e-05 0.00240359
-0.00251613 0.000435308 2.09113e-05
0.000435308 -0.00222478 2.82885e-06
2.09113e-05 2.82885e-06 -0.00169594
0.00303438 0.000463604 3.58981e-05
0.000463604 -0.000379107 -1.90189e-05
3.58981e-05 -1.90189e-05 0.000541443
0.00283186 -0.000184301 -4.47878e-05
-0.000184301 -4.89654e-05 1.95182e-06
-4.47878e-05 1.95182e-06 -0.000594572
0.00713157 0.000320935 2.27687e-05
0.000320935 0.00264944 -1.0981e-05
2.27687e-05 -1.0981e-05 0.00124742
0.0048856 0.000548709 2.03443e-07
0.000548709 0.00058226 -1.22148e-05
2.03443e-07 -1.22148e-05 0.000794824
0.00306826 0.000286125 -8.91492e-06
0.000286125 -0.00108826 2.0124e-06
-8.91492e-06 2.0124e-06 -0.000116224
0.00403532 -0.00040926 1.10504e-05
-0.00040926 0.000528721 -2.02142e-05
1.10504e-05 -2.02142e-05 -0.000235854
0.00745932 0.000139946 3.42688e-05
0.000139946 0.00308204 3.77494e-06
3.42688e-05 3.77494e-06 0.00105982
0.00151 0.000140957 -1.74572e-06
0.000140957 -0.000667874 1.639e-05
-1.74572e-06 1.639e-05 -0.000679525
0.00461248 5.56065e-05 -2.41001e-06
5.56065e-05 -0.000148273 2.47666e-05
-2.41001e-06 2.47666e-05 0.00098196
0.000889054 -2.67606e-05 3.98392e-07
-2.67606e-05 9.19158e-05 6.47826e-07
3.98392e-07 6.47826e-07 6.26054e-06
0.000868918 -3.76289e-05 4.83877e-07
-3.76289e-05 8.99519e-05 3.04957e-08
4.83877e-07 3.04957e-08 3.57733e-06
0.000900183 5.15765e-05 -1.07147e-06
5.15765e-05 0.000108146 -1.09334e-07
-1.07147e-06 -1.09334e-07 2.85361e-05
0.00084629 -1.72516e-05 -4.79614e-07
-1.72516e-05 6.4292e-05 4.36124e-07
-4.79614e-07 4.36124e-07 -1.33211e-05
0.000883046 4.54838e-05 -5.85121e-07
4.54838e-05 9.56329e-05 3.32982e-07
-5.85121e-07 3.32982e-07 1.16517e-05
0.000920181 2.40783e-05 7.33981e-07
2.40783e-05 0.000117894 7.95992e-07
7.33981e-07 7.95992e-07 3.8953e-05
0.000970537 6.24791e-05 -5.72743e-07
6.24791e-05 0.000140686 1.02277e-07
-5.72743e-07 1.02277e-07 6.47492e-05
0.0010079 7.00025e-05 9.16953e-07
7.00025e-05 0.000166709 8.66623e-07
9.16953e-07 8.66623e-07 9.07162e-05
-0.000317561 -8.90838e-05 1.7935e-05
-8.90838e-05 -0.000728039 -6.30331e-06
1.7935e-05 -6.30331e-06 -0.000777088
0.00146966 -0.000212763 6.63661e-06
-0.000212763 0.000182427 -2.67088e-06
6.63661e-06 -2.67088e-06 0.000115195
0.000866322 -0.000110443 -1.88099e-06
-0.000110443 9.12324e-05 -3.09237e-07
-1.88099e-06 -3.09237e-07 1.41493e-06
0.00181245 -5.42851e-05 3.81095e-06
-5.42851e-05 0.000583454 -2.87829e-06
3.81095e-06 -2.87829e-06 0.000442506
0.000786811 -3.85549e-05 -3.10032e-07
-3.85549e-05 3.17486e-05 -7.54599e-07
-3.10032e-07 -7.54599e-07 -6.4125e-05
0.000968976 -2.50691e-05 -9.85891e-07
-2.50691e-05 0.000129416 -4.06076e-08
-9.85891e-07 -4.06076e-08 4.68589e-05
0.000932919 8.42671e-06 4.3936e-08
8.42671e-06 0.000107266 -2.68367e-07
4.3936e-08 -2.68367e-07 2.45391e-05
0.000689594 -0.000252354 -4.58328e-06
-0.000252354 -0.000227449 1.39329e-07
-4.58328e-06 1.39329e-07 -0.00027663
0.000884978 2.41419e-05 8.39237e-08
2.41419e-05 8.43717e-05 -2.7444e-07
8.39237e-08 -2.7444e-07 -4.70945e-06
0.00100206 -2.32657e-05 -9.99513e-08
-2.32657e-05 0.000122683 3.63469e-07
-9.99513e-08 3.63469e-07 2.99294e-05
0.000591346 -6.6945e-05 7.88951e-07
-6.6945e-05 -9.2195e-06 3.02599e-06
7.88951e-07 3.02599e-06 -0.000107286
0.00104217 -2.13905e-05 2.07132e-07
-2.13905e-05 0.000153957 9.52248e-07
2.07132e-07 9.52248e-07 8.05721e-05
5.28779e-06 -0.000262855 3.81714e-05
-0.000262855 -0.000435443 -2.22628e-05
3.81714e-05 -2.22628e-05 -0.0004171
0.00129128 -2.92556e-05 -1.06366e-05
-2.92556e-05 0.000530178 1.42963e-05
-1.06366e-05 1.42963e-05 0.000407166
0.000518733 6.72958e-06 -1.18407e-06
6.72958e-06 -0.000136026 3.74482e-06
-1.18407e-06 3.74482e-06 -0.000208374
0.000900644 9.11488e-05 1.48957e-06
9.11488e-05 8.86505e-05 1.37262e-06
1.48957e-06 1.37262e-06 9.55778e-06
0.00140806 -2.87244e-06 -1.16502e-05
-2.87244e-06 0.000247848 3.9759e-07
-1.16502e-05 3.9759e-07 0.000184593
0.00112587 -1.11191e-05 2.44e-05
-1.11191e-05 -0.000157181 -1.94388e-06
2.44e-05 -1.94388e-06 -0.00039861
-0.00150466 -2.57595e-05 1.80036e-05
-2.57595e-05 1.74501e-05 7.86008e-07
1.80036e-05 7.86008e-07 -0.000450416
0.000623459 7.73704e-05 9.614e-06
7.73704e-05 8.25755e-05 1.63789e-06
9.614e-06 1.63789e-06 1.21335e-05
0.000588241 0.00012282 1.94161e-05
0.00012282 0.00024352 9.64075e-06
1.94161e-05 9.64075e-06 0.000123439
0.00171459 -3.04253e-05 4.34779e-05
-3.04253e-05 0.000287066 1.00787e-05
4.34779e-05 1.00787e-05 5.80128e-05
0.00760016 -0.000465468 6.26293e-05
-0.000465468 0.00278444 2.78737e-05
6.26293e-05 2.78737e-05 0.00105179
0.00227119 0.000410609 -6.6603e-05
0.000410609 0.000220095 -7.66382e-05
-6.6603e-05 -7.66382e-05 -0.000477223
0.0035087 -0.000291085 2.11883e-05
-0.000291085 0.000334878 3.38501e-05
2.11883e-05 3.38501e-05 0.000124158
0.00178992 3.13771e-06 1.6262e-05
3.13771e-06 0.000105673 4.04298e-05
1.6262e-05 4.04298e-05 -0.000270109
0.00190297 1.03711e-05 2.03368e-06
1.03711e-05 -0.00220339 -4.30419e-06
2.03368e-06 -4.30419e-06 -0.000822974
0.000717397 7.55495e-05 1.42293e-06
7.55495e-05 0.000210701 -3.5745e-08
1.42293e-06 -3.5745e-08 0.00015482
0.00120029 -1.18668e-05 -1.08949e-06
-1.18668e-05 7.66207e-05 -4.11078e-06
-1.08949e-06 -4.11078e-06 -1.54056e-05
0.00180529 8.53899e-06 6.60972e-06
8.53899e-06 0.000184905 2.67104e-06
6.60972e-06 2.67104e-06 -0.0001037
-0.000589465 8.05253e-05 -1.12845e-05
8.05253e-05 -0.000217229 -3.38173e-06
-1.12845e-05 -3.38173e-06 -0.000401395
0.00304036 0.000269792 6.07349e-06
0.000269792 -0.00103858 -2.38235e-06
6.07349e-06 -2.38235e-06 -0.000122521
0.00529669 0.00050852 4.29883e-05
0.00050852 0.00134465 5.61606e-06
4.29883e-05 5.61606e-06 -0.000293355
0.00283865 0.000134505 -5.06083e-05
0.000134505 0.000965216 -5.10831e-06
-5.06083e-05 -5.10831e-06 0.000625417
0.000105078 6.95435e-05 -7.58804e-06
6.95435e-05 1.99603e-05 -1.19023e-05
-7.58804e-06 -1.19023e-05 -8.12172e-05
0.00116054 2.30864e-06 -1.16617e-06
2.30864e-06 0.000126306 -1.07909e-05
-1.16617e-06 -1.07909e-05 3.79677e-05
0.0020361 2.50685e-05 1.95719e-05
2.50685e-05 0.000344912 -3.30553e-05
1.95719e-05 -3.30553e-05 7.32659e-05
0.00351655 0.000421681 5.09627e-05
0.000421681 2.45821e-05 -3.26724e-05
5.09627e-05 -3.26724e-05 0.000804721
0.00250971 0.000211443 -1.12717e-05
0.000211443 -0.000284988 -1.81805e-05
-1.12717e-05 -1.81805e-05 -0.000206719
0.00207552 0.000285916 1.3692e-05
0.000285916 0.000253887 -1.68255e-05
1.3692e-05 -1.68255e-05 0.000336645
0.00234618 -6.74726e-05 0.000103748
-6.74726e-05 0.000997957 2.84973e-05
0.000103748 2.84973e-05 -0.0012222
0.000624518 7.60969e-05 2.21351e-06
7.60969e-05 -1.85903e-05 5.84997e-06
2.21351e-06 5.84997e-06 -6.90006e-05
0.000652418 1.1553e-05 4.18906e-06
1.1553e-05 5.07402e-05 1.09601e-06
4.18906e-06 1.09601e-06 6.10769e-06
0.000638582 -2.26892e-05 9.97814e-06
-2.26892e-05 0.000214027 -1.01316e-05
9.97814e-06 -1.01316e-05 0.000149988
0.000874909 1.95437e-05 -3.89231e-07
1.95437e-05 5.60075e-05 1.13646e-06
-3.89231e-07 1.13646e-06 -9.66703e-06
0.000714701 -4.07583e-05 -1.14675e-06
-4.07583e-05 -3.68751e-05 2.72773e-06
-1.14675e-06 2.72773e-06 -8.47287e-05
0.000985459 -6.7792e-05 -2.48496e-06
-6.7792e-05 0.000132038 5.71855e-06
-2.48496e-06 5.71855e-06 8.44952e-05
0.000867444 -1.59896e-06 -2.00988e-07
-1.59896e-06 5.72078e-05 -3.41219e-07
-2.00988e-07 -3.41219e-07 1.32693e-06
0.000645144 -9.09215e-06 -2.34439e-06
-9.09215e-06 -3.76432e-05 2.95676e-06
-2.34439e-06 2.95676e-06 -5.62153e-05
0.000473951 -6.61471e-05 2.42099e-06
-6.61471e-05 -1.54934e-05 -2.9043e-06
2.42099e-06 -2.9043e-06 -0.000120742
0.000878613 3.21857e-05 2.44997e-07
3.21857e-05 7.10636e-05 1.22927e-06
2.44997e-07 1.22927e-06 9.1301e-06
0.000924879 5.48599e-05 -2.77939e-07
5.48599e-05 0.000104064 1.02551e-06
-2.77939e-07 1.02551e-06 3.58694e-05
0.00107481 -3.1164e-05 7.10566e-07
-3.1164e-05 0.000215203 5.34634e-07
7.10566e-07 5.34634e-07 0.000138687
0.000465887 -3.69456e-05 3.66744e-06
-3.69456e-05 -3.17812e-05 1.48458e-06
3.66744e-06 1.48458e-06 -0.000183822
0.000662188 9.02047e-07 -4.39148e-06
9.02047e-07 -7.17298e-06 -7.41518e-07
-4.39148e-06 -7.41518e-07 -8.60759e-05
0.000475859 -5.20183e-05 4.79773e-07
-5.20183e-05 -9.5544e-05 -2.82195e-07
4.79773e-07 -2.82195e-07 -0.000215589
0.0010634 -0.000140405 2.43714e-06
-0.000140405 0.000208478 3.64889e-07
2.43714e-06 3.64889e-07 3.37815e-05
0.00113227 -0.000144838 -2.31332e-06
-0.000144838 0.000173544 3.45459e-06
-2.31332e-06 3.45459e-06 5.81744e-06
0.00130655 -7.88076e-05 -1.59572e-06
-7.88076e-05 0.000332726 -1.00494e-06
-1.59572e-06 -1.00494e-06 0.000223579
0.000745386 -0.000112409 -3.71804e-07
-0.000112409 2.28042e-05 1.45028e-07
-3.71804e-07 1.45028e-07 -0.000122352
0.00136264 -0.000148017 4.91247e-07
-0.000148017 0.00035176 -5.67787e-07
4.91247e-07 -5.67787e-07 0.000213179
0.000543937 -8.18461e-05 -1.25664e-06
-8.18461e-05 -5.77791e-05 2.57668e-07
-1.25664e-06 2.57668e-07 -0.000177744
0.000916026 -0.000118058 2.12345e-07
-0.000118058 0.00011858 1.03473e-07
2.12345e-07 1.03473e-07 -1.70069e-05
0.00089162 -5.08686e-06 -3.78168e-07
-5.08686e-06 0.000103192 7.24318e-07
-3.78168e-07 7.24318e-07 1.64889e-05
0.00101234 -8.37354e-05 -1.45817e-06
-8.37354e-05 0.000181389 1.3206e-06
-1.45817e-06 1.3206e-06 7.12037e-05
0.000649795 -9.99215e-05 -4.08487e-07
-9.99215e-05 -1.78959e-05 -9.4456e-07
-4.08487e-07 -9.4456e-07 -0.00015039
0.000799882 4.56012e-05 1.7019e-07
4.56012e-05 3.94156e-05 9.65359e-07
1.7019e-07 9.65359e-07 -2.12845e-05
0.00076672 1.63295e-06 7.21925e-07
1.63295e-06 3.27694e-05 1.15668e-08
7.21925e-07 1.15668e-08 -4.65429e-05
0.000869755 -3.0333e-05 7.30689e-07
-3.0333e-05 0.000102168 -2.31373e-06
7.30689e-07 -2.31373e-06 3.3826e-06
0.00084482 1.62859e-05 -9.64144e-08
1.62859e-05 6.89757e-05 -7.46517e-07
-9.64144e-08 -7.46517e-07 2.06851e-06
0.000805436 2.42295e-05 -4.42588e-07
2.42295e-05 3.6216e-05 -1.52496e-07
-4.42588e-07 -1.52496e-07 -1.71292e-05
0.000761153 3.87323e-05 -1.30106e-06
3.87323e-05 8.67008e-06 1.42437e-06
-1.30106e-06 1.42437e-06 -2.69809e-05
0.000817739 -6.10895e-06 8.29919e-07
-6.10895e-06 3.95757e-05 -7.3243e-07
8.29919e-07 -7.3243e-07 -1.07679e-05
0.0007715 3.21404e-05 -6.96994e-08
3.21404e-05 7.44255e-06 -5.1082e-09
-6.96994e-08 -5.1082e-09 -2.58487e-05
0.000693835 3.40042e-05 -1.27387e-06
3.40042e-05 -3.49357e-05 3.25089e-06
-1.27387e-06 3.25089e-06 -4.21104e-05
0.000780972 2.2862e-05 1.16685e-06
2.2862e-05 6.54303e-06 -1.47509e-06
1.16685e-06 -1.47509e-06 -2.52052e-05
0.000713772 2.9242e-05 1.22501e-07
2.9242e-05 -3.12646e-05 1.85159e-08
1.22501e-07 1.85159e-08 -3.68262e-05
0.00201237 4.4449e-05 -4.74913e-06
4.4449e-05 0.000688716 1.53808e-06
-4.74913e-06 1.53808e-06 0.000706712
0.000718547 2.37898e-05 9.02972e-07
2.37898e-05 -3.47491e-05 -3.18244e-06
9.02972e-07 -3.18244e-06 -3.92338e-05
0.00148521 2.89003e-05 7.28994e-06
2.89003e-05 0.000391046 -1.09625e-06
7.28994e-06 -1.09625e-06 0.000407622
0.00211239 2.5872e-05 1.22238e-05
2.5872e-05 0.000733283 -3.95065e-06
1.22238e-05 -3.95065e-06 0.000753525
0.000702032 -1.97797e-05 -1.75261e-07
-1.97797e-05 -2.76305e-05 -6.33686e-07
-1.75261e-07 -6.33686e-07 -8.53198e-05
0.000527892 -1.76914e-05 -3.08025e-07
-1.76914e-05 -0.000131409 -2.04023e-06
-3.08025e-07 -2.04023e-06 -0.000167194
0.000789024 -9.08082e-07 -3.20147e-07
-9.08082e-07 2.66843e-05 -5.16181e-07
-3.20147e-07 -5.16181e-07 -3.22311e-05
0.000733453 -1.84779e-05 -4.02757e-07
-1.84779e-05 -2.97726e-05 -3.29937e-06
-4.02757e-07 -3.29937e-06 -3.38755e-05
0.000540956 -1.39922e-05 2.44796e-08
-1.39922e-05 -0.000125913 -6.19258e-07
2.44796e-08 -6.19258e-07 -0.000159416
0.000916262 2.35638e-07 -1.26676e-07
2.35638e-07 9.79668e-05 6.68021e-07
-1.26676e-07 6.68021e-07 4.21824e-05
0.00208996 -1.77806e-05 -8.57621e-06
-1.77806e-05 0.000717734 -4.23647e-06
-8.57621e-06 -4.23647e-06 0.000738968
0.00073266 -1.22762e-05 -1.05848e-07
-1.22762e-05 -3.3838e-05 -1.11013e-08
-1.05848e-07 -1.11013e-08 -3.62049e-05
0.000547712 -9.38872e-06 2.17051e-07
-9.38872e-06 -0.000123521 1.56327e-06
2.17051e-07 1.56327e-06 -0.000155248
0.00205983 -8.73268e-06 -2.55871e-06
-8.73268e-06 0.000698573 2.20049e-08
-2.55871e-06 2.20049e-08 0.000720675
0.000735135 -6.14641e-06 1.93237e-07
-6.14641e-06 -3.47768e-05 3.30837e-06
1.93237e-07 3.30837e-06 -3.61212e-05
0.0020553 2.6458e-07 -6.03947e-07
2.6458e-07 0.000695188 4.33417e-06
-6.03947e-07 4.33417e-06 0.000717501
0.00118983 1.91664e-05 -1.34067e-05
1.91664e-05 4.50941e-05 1.27997e-05
-1.34067e-05 1.27997e-05 -4.84868e-05
0.00132662 2.63968e-05 5.46844e-06
2.63968e-05 -2.98759e-07 -1.887e-06
5.46844e-06 -1.887e-06 -0.000268893
0.00118664 0.00013352 4.72571e-05
0.00013352 0.00121105 -1.64896e-05
4.72571e-05 -1.64896e-05 0.00104591
0.000864162 2.04127e-05 2.04106e-07
2.04127e-05 7.40921e-05 3.83233e-08
2.04106e-07 3.83233e-08 1.78129e-06
0.000785439 -1.08546e-05 -3.09314e-08
-1.08546e-05 2.79995e-05 2.98494e-07
-3.09314e-08 2.98494e-07 -4.27374e-05
0.000928204 3.36923e-05 -4.86811e-07
3.36923e-05 0.000112177 1.07318e-06
-4.86811e-07 1.07318e-06 3.47383e-05
0.00175142 1.823e-05 2.62714e-06
1.823e-05 7.66905e-05 4.95741e-05
2.62714e-06 4.95741e-05 -0.000286108
0.00203184 3.42696e-05 -6.21946e-06
3.42696e-05 0.000358001 2.30613e-06
-6.21946e-06 2.30613e-06 6.96617e-05
0.00222749 4.51254e-05 3.66045e-05
4.51254e-05 0.000293544 -3.87004e-05
3.66045e-05 -3.87004e-05 -0.000145594
0.00419199 -0.000212643 -5.65627e-05
-0.000212643 0.000741877 5.15479e-06
-5.65627e-05 5.15479e-06 0.00024225
-0.000539806 5.75427e-05 -2.91364e-05
5.75427e-05 -0.000763192 1.48011e-05
-2.91364e-05 1.48011e-05 -0.00239533
0.00460637 0.000599786 6.25136e-05
0.000599786 0.000995227 -1.93847e-05
6.25136e-05 -1.93847e-05 0.00105834
0.00148458 0.000212155 1.11855e-05
0.000212155 -0.00209925 -2.60598e-05
1.11855e-05 -2.60598e-05 -0.0010726
0.00425484 -0.00047491 -9.57904e-06
-0.00047491 0.000927154 3.0097e-06
-9.57904e-06 3.0097e-06 0.000427888
0.00602714 8.01152e-05 1.47001e-05
8.01152e-05 0.00210349 -1.04973e-05
1.47001e-05 -1.04973e-05 0.000446778
0.000181945 0.000101948 -1.06907e-05
0.000101948 -0.000726343 -5.63965e-06
-1.06907e-05 -5.63965e-06 -0.000845303
0.0032513 3.14207e-05 -4.24751e-06
3.14207e-05 -0.0011528 2.19554e-06
-4.24751e-06 2.19554e-06 7.93492e-05
0.00227416 -0.000455128 -2.80803e-05
-0.000455128 -0.000213377 -4.2087e-05
-2.80803e-05 -4.2087e-05 -0.000702296
0.00886936 -0.000245377 6.84972e-05
-0.000245377 0.00374589 3.28594e-06
6.84972e-05 3.28594e-06 0.0017012
-0.00321105 7.99826e-05 2.33981e-05
7.99826e-05 -0.00102807 2.11347e-06
2.33981e-05 2.11347e-06 -0.00146416
0.00151604 -0.000219738 6.53485e-06
-0.000219738 -0.00173471 2.26462e-06
6.53485e-06 2.26462e-06 -0.0007312
0.000886948 1.60737e-07 -1.47626e-07
1.60737e-07 8.34221e-05 1.20045e-06
-1.47626e-07 1.20045e-06 1.44711e-06
0.000865664 -1.56315e-05 1.89973e-07
-1.56315e-05 8.20487e-05 -3.86913e-08
1.89973e-07 -3.86913e-08 -5.76931e-06
0.000838152 -4.66386e-05 -1.28688e-07
-4.66386e-05 7.44858e-05 -4.20231e-07
-1.28688e-07 -4.20231e-07 -1.2687e-05
0.00086159 7.23901e-06 -2.83746e-07
7.23901e-06 7.27008e-05 -2.42439e-07
-2.83746e-07 -2.42439e-07 -5.43761e-06
0.000984368 8.29605e-05 1.39296e-06
8.29605e-05 0.000150148 -1.29502e-07
1.39296e-06 -1.29502e-07 6.75578e-05
0.00101757 7.01786e-05 -3.08732e-08
7.01786e-05 0.000167747 -5.17942e-08
-3.08732e-08 -5.17942e-08 9.05881e-05
0.00112279 -0.000275163 -9.69149e-07
-0.000275163 -1.54122e-05 5.69377e-06
-9.69149e-07 5.69377e-06 -8.93709e-05
-0.000664275 -5.04266e-05 7.98451e-06
-5.04266e-05 -0.000670204 -4.41798e-06
7.98451e-06 -4.41798e-06 -0.000750928
0.0010134 4.23472e-05 -4.0955e-07
4.23472e-05 0.000157933 -7.06486e-07
-4.0955e-07 -7.06486e-07 7.16904e-05
0.00137497 -6.95852e-05 6.24723e-06
-6.95852e-05 0.000312383 -8.37917e-06
6.24723e-06 -8.37917e-06 0.000215472
0.00102871 1.57733e-05 -1.94061e-07
1.57733e-05 0.000162864 -1.46954e-06
-1.94061e-07 -1.46954e-06 7.52447e-05
0.000927702 -1.05467e-05 8.16857e-08
-1.05467e-05 9.14926e-05 -3.59478e-07
8.16857e-08 -3.59478e-07 1.58956e-05
0.000969426 4.89149e-05 3.58069e-07
4.89149e-05 0.000123629 -2.35571e-07
3.58069e-07 -2.35571e-07 4.86994e-05
0.000700741 -0.00025326 -9.76975e-06
-0.00025326 -0.000100211 -1.20013e-06
-9.76975e-06 -1.20013e-06 -0.000110397
0.00090761 -1.77183e-05 8.79839e-07
-1.77183e-05 7.94641e-05 -1.53371e-06
8.79839e-07 -1.53371e-06 9.1384e-06
0.000708573 -1.35455e-05 3.87105e-06
-1.35455e-05 0.000239226 -1.81415e-06
3.87105e-06 -1.81415e-06 0.000125427
0.000978862 1.31175e-05 1.99464e-06
1.31175e-05 0.000127585 1.26852e-06
1.99464e-06 1.26852e-06 5.84041e-05
-0.00173547 -4.22663e-05 1.21311e-05
-4.22663e-05 -0.000852214 -2.43969e-05
1.21311e-05 -2.43969e-05 -0.00111295
0.00151708 8.57921e-06 1.22949e-05
8.57921e-06 0.000629017 1.88155e-05
1.22949e-05 1.88155e-05 0.000596029
0.00108432 -1.88833e-05 3.85825e-07
-1.88833e-05 0.000186152 4.13171e-06
3.85825e-07 4.13171e-06 0.000129737
0.00130185 -3.01454e-06 -3.59046e-07
-3.01454e-06 0.000317183 2.98983e-07
-3.59046e-07 2.98983e-07 0.000278804
0.000987448 -1.578e-06 -4.84331e-06
-1.578e-06 2.79039e-05 -1.14231e-06
-4.84331e-06 -1.14231e-06 -2.69518e-05
0.00101486 -2.23552e-05 7.67092e-05
-2.23552e-05 -0.000176444 -1.04e-06
7.67092e-05 -1.04e-06 -0.000418726
0.00108826 0.000112558 1.36872e-05
0.000112558 0.000392649 9.78715e-06
1.36872e-05 9.78715e-06 0.000328246
0.00304819 0.000292539 4.05549e-06
0.000292539 0.00127005 -1.37887e-05
4.05549e-06 -1.37887e-05 0.00116175
0.00118058 -1.10415e-05 7.75541e-06
-1.10415e-05 4.51904e-05 4.42492e-06
7.75541e-06 4.42492e-06 -3.90459e-05
0.00124712 0.000213856 -1.712e-05
0.000213856 -0.000180486 -1.36869e-06
-1.712e-05 -1.36869e-06 -0.00178176
-0.0059501 1.9521e-05 -2.5832e-05
1.9521e-05 -0.00314246 1.79408e-05
-2.5832e-05 1.79408e-05 -0.00366475
0.00190443 1.24637e-05 6.35014e-06
1.24637e-05 0.000352736 2.66896e-05
6.35014e-06 2.66896e-05 0.000126064
0.00152103 0.000203007 -9.65719e-06
0.000203007 -0.00203022 2.63055e-05
-9.65719e-06 2.63055e-05 -0.00103569
0.0003262 5.37411e-05 -2.6078e-06
5.37411e-05 0.000125094 -2.31666e-06
-2.6078e-06 -2.31666e-06 4.24524e-05
0.00103128 -3.01033e-07 1.10441e-06
-3.01033e-07 7.87259e-05 -4.43469e-06
1.10441e-06 -4.43469e-06 2.18179e-06
0.00204882 2.67717e-05 5.79313e-06
2.67717e-05 0.000353739 -2.03296e-06
5.79313e-06 -2.03296e-06 7.43945e-05
0.00173647 0.00028608 5.00122e-05
0.00028608 -8.38326e-05 2.97848e-07
5.00122e-05 2.97848e-07 -0.000161639
0.0018348 0.000418919 6.96881e-06
0.000418919 -0.0009962 -1.82251e-05
6.96881e-06 -1.82251e-05 -0.000194383
0.000205447 0.00010292 1.16607e-05
0.00010292 -0.00092718 2.44142e-06
1.16607e-05 2.44142e-06 -0.000887695
0.00688934 0.000154821 4.22128e-05
0.000154821 0.00318787 -1.61447e-05
4.22128e-05 -1.61447e-05 0.000757852
-3.86746e-05 4.04083e-06 -1.71844e-05
4.04083e-06 0.000140943 -1.20391e-05
-1.71844e-05 -1.20391e-05 -4.6177e-05
0.00112306 1.59075e-05 1.28043e-05
1.59075e-05 -3.72401e-06 -1.16322e-05
1.28043e-05 -1.16322e-05 -9.66885e-05
0.00212023 5.82368e-05 6.77026e-05
5.82368e-05 0.000137239 -4.65492e-05
6.77026e-05 -4.65492e-05 -0.000204678
0.00220254 0.000619931 1.28673e-05
0.000619931 0.000574296 -6.87793e-06
1.28673e-05 -6.87793e-06 0.0015483
-0.00588214 0.000173103 6.43058e-05
0.000173103 -0.00417066 2.34107e-05
6.43058e-05 2.34107e-05 -0.00393956
0.00819514 -9.52928e-06 3.26361e-05
-9.52928e-06 0.00327572 -4.92647e-05
3.26361e-05 -4.92647e-05 0.0011253
0.00426595 -0.000201509 -4.78956e-05
-0.000201509 0.000875063 0.000114957
-4.78956e-05 0.000114957 0.000981287
0.00104077 -4.37331e-06 -2.58795e-06
-4.37331e-06 0.000262932 7.32417e-06
-2.58795e-06 7.32417e-06 0.000219642
8.7255e-05 -1.4771e-05 1.63913e-06
-1.4771e-05 -6.78912e-05 -8.26817e-07
1.63913e-06 -8.26817e-07 -0.000151725
0.000120903 -9.11322e-05 7.09422e-06
-9.11322e-05 -7.68619e-07 -8.87529e-06
7.09422e-06 -8.87529e-06 -0.000160641
0.000870624 -1.54944e-05 1.04571e-08
-1.54944e-05 6.44436e-05 1.06427e-06
1.04571e-08 1.06427e-06 5.86445e-06
0.000355025 -1.49796e-05 -2.05693e-07
-1.49796e-05 -0.000204083 8.92272e-06
-2.05693e-07 8.92272e-06 -0.000219257
0.000606527 -1.6548e-05 1.44115e-07
-1.6548e-05 5.21284e-05 3.95493e-08
1.44115e-07 3.95493e-08 -3.93193e-05
0.00081756 -0.00011074 1.06626e-05
-0.00011074 0.000251511 -5.32247e-06
1.06626e-05 -5.32247e-06 4.36547e-05
0.00149385 -4.54132e-05 -1.38776e-06
-4.54132e-05 0.000430212 1.11769e-06
-1.38776e-06 1.11769e-06 0.00034947
0.00120795 -0.000110667 9.33246e-07
-0.000110667 0.000334895 5.37081e-07
9.33246e-07 5.37081e-07 0.000179284
0.00104823 -0.00014644 4.12648e-06
-0.00014644 0.00024563 2.75134e-06
4.12648e-06 2.75134e-06 3.07901e-06
0.00018718 -4.68369e-05 -1.60522e-06
-4.68369e-05 -0.00024527 -1.60852e-06
-1.60522e-06 -1.60852e-06 -0.000356691
0.00103942 -0.000136295 -2.24113e-07
-0.000136295 0.000194182 5.94964e-07
-2.24113e-07 5.94964e-07 1.33311e-05
0.00186489 -0.000206982 4.54723e-07
-0.000206982 0.000552478 2.15548e-06
4.54723e-07 2.15548e-06 0.000339531
0.00173988 -0.000199669 -3.32836e-06
-0.000199669 0.000411382 2.40963e-06
-3.32836e-06 2.40963e-06 0.000221741
0.000662959 -0.000113159 -6.15622e-07
-0.000113159 -5.91951e-05 3.94344e-06
-6.15622e-07 3.94344e-06 -0.000208664
0.0011038 -0.00014371 -1.52752e-06
-0.00014371 0.000158053 1.14741e-06
-1.52752e-06 1.14741e-06 -1.12666e-05
0.000905073 -0.000122825 -1.88035e-06
-0.000122825 0.000101242 -3.27471e-07
-1.88035e-06 -3.27471e-07 -4.65668e-05
0.00125541 -0.000138823 1.71899e-06
-0.000138823 0.000297606 -1.39281e-06
1.71899e-06 -1.39281e-06 0.000169226
0.00106525 -0.000128396 1.9046e-06
-0.000128396 0.000198125 -1.49226e-06
1.9046e-06 -1.49226e-06 6.45722e-05
0.000643737 -3.30155e-05 5.5178e-07
-3.30155e-05 -1.89264e-05 1.26132e-06
5.5178e-07 1.26132e-06 -0.000121583
0.000819961 -9.18464e-05 7.64066e-07
-9.18464e-05 8.84193e-05 -3.05081e-07
7.64066e-07 -3.05081e-07 -3.10682e-05
0.000989739 -0.000122216 3.90993e-06
-0.000122216 0.00015683 -2.76409e-06
3.90993e-06 -2.76409e-06 2.32857e-05
0.000806685 4.83344e-05 3.84804e-07
4.83344e-05 4.9564e-05 1.30488e-06
3.84804e-07 1.30488e-06 -2.18989e-05
0.00090422 -2.36252e-05 -2.26858e-07
-2.36252e-05 0.000111603 3.63148e-08
-2.26858e-07 3.63148e-08 2.30577e-05
0.00105911 -8.08278e-05 -9.08157e-08
-8.08278e-05 0.000204037 -2.43659e-07
-9.08157e-08 -2.43659e-07 9.39636e-05
0.000738678 4.71709e-05 -9.70996e-07
4.71709e-05 4.2671e-06 1.52693e-06
-9.70996e-07 1.52693e-06 -3.58551e-05
0.000806549 2.81457e-05 -4.09881e-07
2.81457e-05 4.19273e-05 -2.28881e-07
-4.09881e-07 -2.28881e-07 -1.82222e-05
0.000649348 9.63358e-07 1.60109e-07
9.63358e-07 -3.01591e-05 -9.64675e-07
1.60109e-07 -9.64675e-07 -0.000109665
0.000824759 4.91538e-06 6.83639e-07
4.91538e-06 4.58986e-05 -1.01915e-06
6.83639e-07 -1.01915e-06 -7.13096e-06
0.000762574 4.12323e-05 -7.63178e-08
4.12323e-05 9.7342e-06 -3.00613e-08
-7.63178e-08 -3.00613e-08 -2.62263e-05
0.000677082 3.90296e-05 -1.52093e-06
3.90296e-05 -3.54801e-05 3.25945e-06
-1.52093e-06 3.25945e-06 -4.49781e-05
0.000775657 3.31024e-05 1.08625e-06
3.31024e-05 9.48332e-06 -1.54337e-06
1.08625e-06 -1.54337e-06 -2.38366e-05
0.0007063 3.46663e-05 8.16764e-08
3.46663e-05 -2.82859e-05 2.24097e-09
8.16764e-08 2.24097e-09 -3.55074e-05
0.00205934 4.81766e-05 -2.06101e-05
4.81766e-05 0.000720938 3.47438e-06
-2.06101e-05 3.47438e-06 0.000737811
0.000719725 2.96504e-05 1.09259e-06
2.96504e-05 -2.84502e-05 -3.19406e-06
1.09259e-06 -3.19406e-06 -3.39804e-05
0.00147081 3.59932e-05 8.53131e-06
3.59932e-05 0.000389904 -9.9484e-07
8.53131e-06 -9.9484e-07 0.000405191
0.00208906 3.38865e-05 1.55157e-05
3.38865e-05 0.000725468 -3.75973e-06
1.55157e-05 -3.75973e-06 0.000744847
0.000827267 2.08353e-05 -6.08203e-07
2.08353e-05 4.01162e-05 -3.62978e-07
-6.08203e-07 -3.62978e-07 -1.77165e-05
0.000754431 -2.06686e-05 -7.26366e-07
-2.06686e-05 -7.34993e-06 -1.43333e-06
-7.26366e-07 -1.43333e-06 -4.31751e-05
0.000745638 1.58009e-05 -7.44663e-07
1.58009e-05 3.83252e-07 -4.23845e-07
-7.44663e-07 -4.23845e-07 -5.94606e-05
0.000723839 -2.43303e-05 -3.65008e-07
-2.43303e-05 -3.02776e-05 -3.34863e-06
-3.65008e-07 -3.34863e-06 -3.63942e-05
0.00064803 -1.79402e-05 -1.40305e-07
-1.79402e-05 -6.6148e-05 -6.45436e-07
-1.40305e-07 -6.45436e-07 -0.000101197
0.000909397 -3.08569e-06 4.58395e-08
-3.08569e-06 9.20394e-05 -1.07957e-07
4.58395e-08 -1.07957e-07 3.3878e-05
0.0021299 -2.6259e-05 -1.2312e-05
-2.6259e-05 0.000743308 -4.14669e-06
-1.2312e-05 -4.14669e-06 0.000763342
0.000725212 -1.81268e-05 -1.70973e-07
-1.81268e-05 -3.43197e-05 -7.81217e-09
-1.70973e-07 -7.81217e-09 -3.83377e-05
0.000531962 -1.3995e-05 8.49073e-08
-1.3995e-05 -0.00013082 8.84479e-07
8.49073e-08 8.84479e-07 -0.000164581
0.00208206 -1.71699e-05 -2.31179e-06
-1.71699e-05 0.000713017 4.21236e-08
-2.31179e-06 4.21236e-08 0.000734402
0.000727197 -1.19889e-05 3.77338e-07
-1.19889e-05 -3.6842e-05 3.29872e-06
3.77338e-07 3.29872e-06 -3.91589e-05
0.00205641 -8.15668e-06 3.46272e-06
-8.15668e-06 0.000696485 4.29964e-06
3.46272e-06 4.29964e-06 0.000718646
0.00114855 2.46484e-06 5.02935e-07
2.46484e-06 0.000135946 1.14722e-05
5.02935e-07 1.14722e-05 3.24983e-05
0.00118269 1.42323e-05 -4.52979e-06
1.42323e-05 4.68005e-05 1.49662e-06
-4.52979e-06 1.49662e-06 -5.62808e-05
0.00140105 2.59478e-05 5.82515e-05
2.59478e-05 5.50393e-05 -1.41131e-05
5.82515e-05 -1.41131e-05 -0.000216927
0.000768014 -4.63325e-05 3.51623e-08
-4.63325e-05 1.33855e-05 -2.6347e-07
3.51623e-08 -2.6347e-07 -5.39548e-05
0.000933007 -1.53447e-05 -3.42366e-07
-1.53447e-05 0.000110569 -5.17073e-07
-3.42366e-07 -5.17073e-07 3.78492e-05
0.000882915 2.15098e-05 1.35223e-06
2.15098e-05 8.26843e-05 -4.50108e-07
1.35223e-06 -4.50108e-07 1.22211e-05
0.000792774 -2.55647e-05 5.24272e-08
-2.55647e-05 2.77553e-05 1.1399e-08
5.24272e-08 1.1399e-08 -4.02721e-05
0.000858923 6.76956e-06 7.59836e-09
6.76956e-06 7.24717e-05 2.33991e-07
7.59836e-09 2.33991e-07 -3.9321e-06
0.000903996 -6.77911e-06 -9.12392e-07
-6.77911e-06 9.63425e-05 3.92549e-07
-9.12392e-07 3.92549e-07 2.20818e-05
0.000880589 0.000105961 5.72889e-07
0.000105961 9.44778e-05 1.16213e-06
5.72889e-07 1.16213e-06 9.5939e-06
0.00153415 -2.77626e-06 2.07714e-05
-2.77626e-06 0.000154605 4.73368e-05
2.07714e-05 4.73368e-05 -0.000229267
0.0017869 1.97206e-05 -1.28144e-06
1.97206e-05 0.000202161 1.45926e-05
-1.28144e-06 1.45926e-05 -9.30587e-05
0.0019777 3.83919e-05 8.85391e-06
3.83919e-05 0.000329535 -2.93656e-05
8.85391e-06 -2.93656e-05 2.94543e-05
0.001932 8.89275e-06 -4.18281e-06
8.89275e-06 -0.00215115 -1.08172e-05
-4.18281e-06 -1.08172e-05 -0.000826228
0.00247728 -0.000429124 -2.38088e-05
-0.000429124 8.06763e-05 5.03108e-05
-2.38088e-05 5.03108e-05 -0.000635593
-4.36091e-05 -0.000127553 4.83728e-05
-0.000127553 -0.000742543 -8.85088e-06
4.83728e-05 -8.85088e-06 -0.00238866
0.00469457 0.000459292 3.94206e-05
0.000459292 0.00195154 -2.51923e-05
3.94206e-05 -2.51923e-05 0.00130652
0.00463454 -0.000590567 -2.07307e-05
-0.000590567 0.000892379 5.10976e-06
-2.07307e-05 5.10976e-06 0.000289184
0.00169753 -0.000166325 4.05885e-05
-0.000166325 0.000244622 -2.25819e-05
4.05885e-05 -2.25819e-05 -0.00162962
0.00343432 3.63421e-07 -2.10325e-05
3.63421e-07 0.00111299 1.95207e-06
-2.10325e-05 1.95207e-06 0.000782603
0.00477896 -0.000281487 -1.00067e-05
-0.000281487 0.00033332 -1.54838e-05
-1.00067e-05 -1.54838e-05 0.00130793
0.00209308 -0.000168593 -1.21513e-05
-0.000168593 -0.000235074 5.11209e-06
-1.21513e-05 5.11209e-06 -0.000251322
0.00128859 -0.000212653 3.71364e-05
-0.000212653 -0.000466713 -6.11702e-05
3.71364e-05 -6.11702e-05 -0.00192308
-0.00326933 -0.000299713 4.11901e-05
-0.000299713 -0.00293589 9.07633e-06
4.11901e-05 9.07633e-06 -0.00344162
0.000856893 -0.000332596 2.71545e-05
-0.000332596 -0.00156399 -1.74092e-05
2.71545e-05 -1.74092e-05 -0.000558359
0.000938476 -5.50523e-05 -4.69149e-07
-5.50523e-05 0.000109295 2.02577e-06
-4.69149e-07 2.02577e-06 3.82658e-05
0.000818152 1.84229e-07 1.66512e-07
1.84229e-07 4.52666e-05 -1.22209e-08
1.66512e-07 -1.22209e-08 -3.58198e-05
0.000821168 -1.61524e-06 -4.50559e-07
-1.61524e-06 6.02147e-05 -1.28597e-06
-4.50559e-07 -1.28597e-06 -2.92152e-05
0.000868849 2.22839e-05 5.26742e-08
2.22839e-05 7.83344e-05 -1.46902e-06
5.26742e-08 -1.46902e-06 -1.29312e-06
0.00163362 -0.000267239 -8.7834e-07
-0.000267239 0.000348353 1.44184e-05
-8.7834e-07 1.44184e-05 0.000311021
0.000161937 -1.96662e-05 5.87737e-06
-1.96662e-05 -3.10543e-05 -9.34035e-06
5.87737e-06 -9.34035e-06 -0.000135359
0.000798062 -3.00871e-05 -1.81696e-07
-3.00871e-05 1.52542e-05 -1.98883e-06
-1.81696e-07 -1.98883e-06 -5.88253e-05
0.000957871 5.70584e-05 -2.83731e-07
5.70584e-05 0.000126545 -2.03477e-06
-2.83731e-07 -2.03477e-06 4.86205e-05
0.00115606 8.03777e-06 4.08505e-06
8.03777e-06 0.000228127 -8.65764e-06
4.08505e-06 -8.65764e-06 0.000156488
0.000873346 -8.05074e-06 -2.87269e-07
-8.05074e-06 6.92939e-05 2.96558e-09
-2.87269e-07 2.96558e-09 3.4893e-07
0.000772641 -1.12913e-05 -1.61946e-07
-1.12913e-05 2.70492e-05 -5.84444e-07
-1.61946e-07 -5.84444e-07 -3.24269e-05
-0.000719518 -5.2228e-05 -1.22757e-05
-5.2228e-05 -0.000366872 -9.6697e-06
-1.22757e-05 -9.6697e-06 -0.000654748
0.000905386 -1.88957e-05 -4.83123e-06
-1.88957e-05 0.000331373 2.51021e-06
-4.83123e-06 2.51021e-06 0.000305563
0.000794439 -1.76597e-05 2.74078e-06
-1.76597e-05 4.80089e-05 6.50319e-07
2.74078e-06 6.50319e-07 -1.45546e-05
0.00117627 2.39085e-05 -6.32078e-06
2.39085e-05 0.00105081 -4.60067e-05
-6.32078e-06 -4.60067e-05 0.000271172
0.0015781 -3.02337e-05 -2.70136e-06
-3.02337e-05 0.00066103 1.51278e-05
-2.70136e-06 1.51278e-05 0.000602043
0.0014202 -4.2879e-06 1.13357e-05
-4.2879e-06 0.000253412 2.65347e-07
1.13357e-05 2.65347e-07 0.000184251
0.000909372 -2.88135e-06 -5.07299e-08
-2.88135e-06 0.000113707 -6.57929e-08
-5.07299e-08 -6.57929e-08 7.76765e-05
0.000657193 5.84035e-08 1.91064e-06
5.84035e-08 -0.000133384 -1.92248e-07
1.91064e-06 -1.92248e-07 -0.000180387
0.00054273 4.56185e-05 5.36988e-06
4.56185e-05 0.00021256 7.80788e-06
5.36988e-06 7.80788e-06 0.000151686
0.00200606 0.000208944 -6.29157e-05
0.000208944 0.000327174 1.67277e-05
-6.29157e-05 1.67277e-05 0.000369901
0.000913945 -1.63339e-06 9.39362e-07
-1.63339e-06 3.82784e-05 2.36841e-06
9.39362e-07 2.36841e-06 -2.86021e-05
0.00322055 -4.61345e-05 9.41764e-05
-4.61345e-05 0.00129312 -0.000110924
9.41764e-05 -0.000110924 -0.000820153
0.0046382 0.000488419 -3.47152e-05
0.000488419 0.00179204 2.57573e-05
-3.47152e-05 2.57573e-05 0.00117644
0.00199717 2.61902e-05 -1.00613e-05
2.61902e-05 0.000326576 2.9228e-05
-1.00613e-05 2.9228e-05 3.46245e-05
0.00301509 0.00044684 -3.38136e-05
0.00044684 -0.000314236 1.99726e-05
-3.38136e-05 1.99726e-05 0.000509746
-0.000531377 -1.47314e-05 2.06259e-05
-1.47314e-05 -7.14976e-05 -1.12755e-06
2.06259e-05 -1.12755e-06 -0.000297225
0.00117088 1.09637e-05 4.73753e-06
1.09637e-05 3.21128e-05 -1.33554e-06
4.73753e-06 -1.33554e-06 -6.61159e-05
0.00210084 4.44893e-05 1.68447e-05
4.44893e-05 0.000166282 -2.42107e-06
1.68447e-05 -2.42107e-06 -0.000234777
0.00179928 -6.20896e-05 -2.06632e-05
-6.20896e-05 -0.000304186 2.55397e-05
-2.06632e-05 2.55397e-05 -2.31941e-05
-0.000392613 0.000647207 8.18092e-06
0.000647207 -0.00104012 3.85765e-09
8.18092e-06 3.85765e-09 0.000202801
0.0047879 0.000573215 9.66439e-08
0.000573215 0.000582546 1.21704e-05
9.66439e-08 1.21704e-05 0.000773304
0.00117641 -0.000240769 4.40479e-05
-0.000240769 0.000143735 -2.37556e-05
4.40479e-05 -2.37556e-05 -0.00228625
0.0013578 -7.78819e-05 5.05827e-05
-7.78819e-05 0.000576297 -1.0107e-05
5.05827e-05 -1.0107e-05 0.0005418
0.00105657 1.51598e-05 4.25214e-05
1.51598e-05 -0.000167968 -1.55984e-05
4.25214e-05 -1.55984e-05 -0.000446959
-0.00121281 0.000260906 -1.34334e-05
0.000260906 -0.000449386 -1.46507e-05
-1.34334e-05 -1.46507e-05 -0.000482976
0.000301784 0.000528913 1.33143e-05
0.000528913 -9.76547e-05 2.30363e-05
1.33143e-05 2.30363e-05 0.000180083
0.00753951 0.000352046 2.6661e-05
0.000352046 0.00288829 -3.78791e-05
2.6661e-05 -3.78791e-05 0.00093994
0.00283813 -0.000321501 -6.0494e-05
-0.000321501 0.000193494 8.03566e-05
-6.0494e-05 8.03566e-05 -0.000127041
-0.000501943 -1.25642e-05 2.15095e-06
-1.25642e-05 -0.000371281 7.76972e-06
2.15095e-06 7.76972e-06 -0.000478946
0.000261311 -4.39868e-05 -3.51634e-06
-4.39868e-05 8.89885e-05 -3.74493e-07
-3.51634e-06 -3.74493e-07 -7.19033e-05
0.00112657 -0.000152626 1.62599e-05
-0.000152626 0.000354288 -6.41375e-06
1.62599e-05 -6.41375e-06 0.000220815
0.00067996 2.7337e-05 -4.57559e-06
2.7337e-05 9.06485e-05 7.60864e-07
-4.57559e-06 7.60864e-07 1.223e-05
0.000106116 -5.5439e-05 1.02655e-06
-5.5439e-05 -9.46109e-05 -1.88295e-06
1.02655e-06 -1.88295e-06 -0.000306948
0.00113175 -0.000168663 1.0546e-05
-0.000168663 0.00020975 2.4692e-06
1.0546e-05 2.4692e-06 -4.46555e-06
0.0019356 -0.000184844 -3.33549e-06
-0.000184844 0.000693218 4.51956e-08
-3.33549e-06 4.51956e-08 0.00053325
0.0013359 -0.000161061 5.4835e-07
-0.000161061 0.00037744 1.28896e-06
5.4835e-07 1.28896e-06 0.000136992
0.00110102 -0.000184822 5.72306e-07
-0.000184822 8.74994e-05 -2.10331e-06
5.72306e-07 -2.10331e-06 -0.00012754
0.00103918 -0.000133954 -2.39279e-06
-0.000133954 0.000190601 -1.0923e-06
-2.39279e-06 -1.0923e-06 4.38205e-06
0.00169443 -0.000196018 1.0909e-06
-0.000196018 0.000454587 1.4029e-07
1.0909e-06 1.4029e-07 0.000242985
0.0012664 -0.000188748 1.50771e-06
-0.000188748 9.85726e-05 -1.88689e-06
1.50771e-06 -1.88689e-06 -0.000100191
0.001747 -0.000202396 -1.99147e-06
-0.000202396 0.000293849 -3.00687e-06
-1.99147e-06 -3.00687e-06 0.000125904
0.00190112 -0.000200128 -5.12922e-06
-0.000200128 0.000521926 4.80536e-06
-5.12922e-06 4.80536e-06 0.000346812
0.00151295 -0.000188432 -8.02245e-07
-0.000188432 0.000283619 4.57561e-07
-8.02245e-07 4.57561e-07 9.05766e-05
0.000558417 -0.000105056 1.1491e-06
-0.000105056 -0.000114577 -4.55961e-08
1.1491e-06 -4.55961e-08 -0.000246128
0.00087983 -0.000125107 1.42013e-06
-0.000125107 5.77376e-05 -5.22329e-07
1.42013e-06 -5.22329e-07 -8.82411e-05
0.00112587 -0.000145701 -1.76638e-07
-0.000145701 0.000168389 -1.78254e-06
-1.76638e-07 -1.78254e-06 -1.99292e-06
0.00104218 -0.000120467 4.18978e-07
-0.000120467 0.000178773 5.46098e-07
4.18978e-07 5.46098e-07 5.79495e-05
0.00114256 -0.000131059 -3.35585e-07
-0.000131059 0.000238467 -7.81145e-07
-3.35585e-07 -7.81145e-07 0.000109893
0.00078109 -0.000109735 1.9894e-06
-0.000109735 5.17036e-05 -2.04779e-06
1.9894e-06 -2.04779e-06 -7.67185e-05
0.000779923 1.58203e-05 8.77844e-07
1.58203e-05 4.26482e-05 1.25197e-06
8.77844e-07 1.25197e-06 -4.48172e-05
0.00077103 -4.1246e-05 3.21842e-08
-4.1246e-05 5.0419e-05 6.48319e-07
3.21842e-08 6.48319e-07 -5.21207e-05
0.00112205 -0.000104058 1.30325e-06
-0.000104058 0.00024893 -1.2898e-06
1.30325e-06 -1.2898e-06 0.000129628
0.000728727 6.05194e-05 -2.43376e-07
6.05194e-05 8.49122e-06 2.01153e-06
-2.43376e-07 2.01153e-06 -4.07831e-05
0.00080239 2.2693e-05 -2.48394e-07
2.2693e-05 4.8428e-05 -1.31953e-07
-2.48394e-07 -1.31953e-07 -2.42792e-05
0.000915235 -3.77257e-05 2.81074e-07
-3.77257e-05 0.000119207 -7.30281e-07
2.81074e-07 -7.30281e-07 2.87858e-05
0.000678547 4.38365e-05 -2.65554e-06
4.38365e-05 -2.62535e-05 4.5307e-06
-2.65554e-06 4.5307e-06 -3.84417e-05
0.000743746 5.29299e-05 -3.22355e-08
5.29299e-05 8.62188e-06 -1.33977e-07
-3.22355e-08 -1.33977e-07 -3.25951e-05
0.000812871 1.10055e-05 2.37515e-07
1.10055e-05 4.43597e-05 -1.21409e-06
2.37515e-07 -1.21409e-06 -1.53209e-05
0.000763154 4.40379e-05 6.99243e-07
4.40379e-05 1.03906e-05 -1.64318e-06
6.99243e-07 -1.64318e-06 -2.59141e-05
0.000699189 4.00211e-05 3.10649e-08
4.00211e-05 -2.36547e-05 -2.0598e-08
3.10649e-08 -2.0598e-08 -3.32554e-05
0.00206694 5.56296e-05 -2.3391e-05
5.56296e-05 0.000733498 3.26941e-06
-2.3391e-05 3.26941e-06 0.000748406
0.00072217 3.54375e-05 1.31447e-06
3.54375e-05 -1.9759e-05 -3.21109e-06
1.31447e-06 -3.21109e-06 -2.70457e-05
0.00206679 4.87455e-05 1.34131e-06
4.87455e-05 0.000726114 8.64875e-08
1.34131e-06 8.64875e-08 0.000742763
0.00207184 4.16406e-05 1.85892e-05
4.16406e-05 0.000722368 -3.57472e-06
1.85892e-05 -3.57472e-06 0.000740504
0.000861249 5.89073e-06 -1.3152e-07
5.89073e-06 6.95535e-05 -6.0803e-07
-1.3152e-07 -6.0803e-07 -1.65129e-06
0.000822555 3.4407e-05 -1.15666e-06
3.4407e-05 4.31436e-05 -9.76821e-07
-1.15666e-06 -9.76821e-07 -1.91924e-05
0.000753588 -2.86688e-05 -7.57083e-07
-2.86688e-05 -5.43229e-06 -1.61161e-06
-7.57083e-07 -1.61161e-06 -4.3065e-05
0.000823042 2.29944e-05 -7.16114e-08
2.29944e-05 3.79478e-05 -2.51692e-08
-7.16114e-08 -2.51692e-08 -1.98827e-05
0.000709738 -2.95158e-05 -6.16546e-07
-2.95158e-05 -3.24693e-05 -3.41851e-06
-6.16546e-07 -3.41851e-06 -4.06327e-05
0.000766234 -2.22402e-05 -1.39729e-07
-2.22402e-05 -3.6343e-07 7.54353e-09
-1.39729e-07 7.54353e-09 -3.63832e-05
0.000788133 1.33742e-05 3.23684e-08
1.33742e-05 1.67009e-05 -1.04598e-07
3.23684e-08 -1.04598e-07 -3.78736e-05
0.0021709 -3.46129e-05 -1.5865e-05
-3.46129e-05 0.000770506 -4.02267e-06
-1.5865e-05 -4.02267e-06 0.000789104
0.000715872 -2.3838e-05 -1.48251e-07
-2.3838e-05 -3.47048e-05 -3.17594e-09
-1.48251e-07 -3.17594e-09 -4.07263e-05
0.000766841 -1.86708e-05 9.48348e-08
-1.86708e-05 -1.61379e-06 8.66823e-07
9.48348e-08 8.66823e-07 -3.59393e-05
0.0021179 -2.5695e-05 -2.29765e-06
-2.5695e-05 0.000736209 6.39706e-08
-2.29765e-06 6.39706e-08 0.000756444
0.000717311 -1.77999e-05 3.26553e-07
-1.77999e-05 -3.86597e-05 3.309e-06
3.26553e-07 3.309e-06 -4.25996e-05
0.00207289 -1.6518e-05 7.69705e-06
-1.6518e-05 0.000707587 4.24522e-06
7.69705e-06 4.24522e-06 0.000729123
0.00122074 -1.81311e-05 1.13778e-05
-1.81311e-05 0.000137893 1.41756e-05
1.13778e-05 1.41756e-05 1.99248e-05
0.00100063 1.27119e-06 -1.22206e-06
1.27119e-06 7.20947e-05 4.62202e-06
-1.22206e-06 4.62202e-06 -1.73615e-05
0.00125776 1.14461e-05 4.69603e-06
1.14461e-05 9.45185e-05 -8.04304e-06
4.69603e-06 -8.04304e-06 -1.01838e-05
0.000812481 -6.2867e-06 -2.90982e-07
-6.2867e-06 4.25609e-05 -5.94129e-08
-2.90982e-07 -5.94129e-08 -2.81903e-05
0.000859954 -2.63331e-05 -1.47742e-07
-2.63331e-05 7.11505e-05 2.35458e-07
-1.47742e-07 2.35458e-07 -2.09331e-06
0.000777955 -3.07122e-05 4.0476e-07
-3.07122e-05 2.86383e-05 -1.80735e-06
4.0476e-07 -1.80735e-06 -4.93253e-05
0.000743376 -3.7941e-05 -8.5757e-08
-3.7941e-05 8.68114e-06 -7.16436e-07
-8.5757e-08 -7.16436e-07 -6.41833e-05
0.000975245 3.33347e-05 -7.02762e-07
3.33347e-05 0.000145593 -2.96257e-07
-7.02762e-07 -2.96257e-07 6.25186e-05
0.000776966 -3.93906e-05 7.65325e-08
-3.93906e-05 1.65415e-05 -8.78471e-08
7.65325e-08 -8.78471e-08 -4.98166e-05
0.000777151 -1.77301e-05 4.67057e-07
-1.77301e-05 2.53728e-05 -9.18987e-07
4.67057e-07 -9.18987e-07 -4.94684e-05
0.000861003 6.92559e-06 -1.59751e-07
6.92559e-06 7.38647e-05 -5.4817e-08
-1.59751e-07 -5.4817e-08 -2.25233e-07
0.000893201 2.69647e-05 -1.04947e-07
2.69647e-05 9.1681e-05 2.70399e-07
-1.04947e-07 2.70399e-07 1.17729e-05
0.000963189 1.24059e-05 -3.11969e-08
1.24059e-05 0.00013756 8.19345e-07
-3.11969e-08 8.19345e-07 5.88903e-05
0.00176501 -3.94527e-05 5.10332e-05
-3.94527e-05 0.000181854 5.57495e-05
5.10332e-05 5.57495e-05 -0.000256415
0.00164027 2.63569e-06 2.79619e-06
2.63569e-06 0.000144105 1.2607e-05
2.79619e-06 1.2607e-05 -0.000244836
0.00185663 2.22447e-05 -2.48161e-06
2.22447e-05 0.000345008 -1.27576e-05
-2.48161e-06 -1.27576e-05 0.000120612
0.00465464 -0.000259138 -2.59192e-05
-0.000259138 0.000426177 -3.80819e-05
-2.59192e-05 -3.80819e-05 0.00143016
-0.00581543 0.000183115 -1.88035e-05
0.000183115 -0.00310588 1.08106e-06
-1.88035e-05 1.08106e-06 -0.00360003
0.00397616 -0.000561665 -6.03027e-05
-0.000561665 0.00070993 6.00738e-05
-6.03027e-05 6.00738e-05 6.63174e-05
0.00623979 -1.57876e-05 -5.91199e-06
-1.57876e-05 0.00184118 -4.68049e-05
-5.91199e-06 -4.68049e-05 0.000314663
0.00345842 -0.000293759 -4.15875e-05
-0.000293759 0.000393378 4.06448e-05
-4.15875e-05 4.06448e-05 7.08489e-05
0.00909772 -0.000213771 5.67245e-05
-0.000213771 0.00355953 -9.35105e-06
5.67245e-05 -9.35105e-06 0.00167358
0.000205917 -0.000219535 2.05566e-05
-0.000219535 -0.000940845 -4.23185e-06
2.05566e-05 -4.23185e-06 -0.00115942
0.000851472 -0.000377918 -2.01737e-05
-0.000377918 -0.00165459 -4.97595e-05
-2.01737e-05 -4.97595e-05 -0.000609979
0.00416111 -4.91242e-05 -0.000108272
-4.91242e-05 0.000795986 -2.41086e-05
-0.000108272 -2.41086e-05 0.00052981
0.00806214 -0.000354276 -2.10618e-05
-0.000354276 0.00251038 4.88417e-05
-2.10618e-05 4.88417e-05 0.00117437
0.00778372 -0.000816477 1.86307e-05
-0.000816477 0.00221042 -7.84756e-06
1.86307e-05 -7.84756e-06 0.00235874
0.00287616 -0.000594241 1.45056e-05
-0.000594241 0.000301677 7.90857e-07
1.45056e-05 7.90857e-07 0.00148737
0.000704829 1.0744e-05 1.8913e-06
1.0744e-05 1.96649e-05 1.54855e-06
1.8913e-06 1.54855e-06 -4.20167e-05
0.000932482 -4.35965e-05 -9.19975e-08
-4.35965e-05 0.000109029 5.201e-07
-9.19975e-08 5.201e-07 3.70286e-05
0.000792834 -1.03551e-07 8.55636e-08
-1.03551e-07 2.92069e-05 -1.31222e-06
8.55636e-08 -1.31222e-06 -5.0431e-05
0.000243818 -9.25869e-06 -8.9083e-06
-9.25869e-06 7.76064e-05 1.31778e-05
-8.9083e-06 1.31778e-05 -0.000213958
0.000698677 -6.68155e-05 -6.27207e-06
-6.68155e-05 0.00023884 -6.65428e-06
-6.27207e-06 -6.65428e-06 0.000220259
0.000803789 -2.06003e-05 -1.15235e-06
-2.06003e-05 3.23351e-05 -8.91003e-07
-1.15235e-06 -8.91003e-07 -3.84666e-05
0.000781834 -5.50016e-05 -6.36339e-07
-5.50016e-05 3.01379e-05 -5.30105e-06
-6.36339e-07 -5.30105e-06 -2.75322e-05
0.00082356 -9.81587e-06 -5.40391e-07
-9.81587e-06 6.56362e-05 -1.05769e-06
-5.40391e-07 -1.05769e-06 2.59659e-06
0.000576744 -3.22206e-05 1.02311e-06
-3.22206e-05 0.000128981 4.25539e-06
1.02311e-06 4.25539e-06 7.01996e-05
0.00010019 -1.7818e-05 2.72516e-05
-1.7818e-05 0.000459284 -3.23397e-05
2.72516e-05 -3.23397e-05 -0.000293035
-0.000387462 -2.06176e-05 -4.03754e-06
-2.06176e-05 -0.000403535 7.68743e-06
-4.03754e-06 7.68743e-06 -0.000480602
0.000856524 0.000104546 1.86614e-06
0.000104546 0.000394779 -2.74885e-05
1.86614e-06 -2.74885e-05 -3.58326e-05
0.00127546 -1.825e-06 4.13918e-05
-1.825e-06 -5.38713e-05 5.75492e-06
4.13918e-05 5.75492e-06 -0.000314762
0.00101312 -2.90282e-06 5.32501e-06
-2.90282e-06 4.39075e-05 1.06013e-06
5.32501e-06 1.06013e-06 -1.67162e-05
0.000199736 -2.42977e-06 2.48162e-07
-2.42977e-06 -0.00029326 -4.34214e-07
2.48162e-07 -4.34214e-07 -0.000327719
-0.00136784 -2.63497e-05 -3.43968e-05
-2.63497e-05 -0.000417437 1.17496e-05
-3.43968e-05 1.17496e-05 -0.000697338
0.00170339 6.80824e-05 1.82084e-05
6.80824e-05 -0.000493073 -4.31176e-05
1.82084e-05 -4.31176e-05 -0.000540033
0.00129583 7.3915e-06 -3.53711e-06
7.3915e-06 0.000113743 7.3238e-06
-3.53711e-06 7.3238e-06 1.53047e-05
0.0110443 -0.000109271 7.94771e-05
-0.000109271 0.00445809 -4.06676e-06
7.94771e-05 -4.06676e-06 0.00237927
0.00475648 0.000639352 -5.14548e-05
0.000639352 0.00102313 1.715e-05
-5.14548e-05 1.715e-05 0.00106719
0.00220191 3.72646e-05 -3.57561e-05
3.72646e-05 0.000253448 3.67544e-05
-3.57561e-05 3.67544e-05 -0.000189651
-0.00301512 0.000687813 2.45102e-05
0.000687813 -0.00270058 -4.53945e-05
2.45102e-05 -4.53945e-05 -0.00116308
0.000396026 -3.36325e-05 -1.44859e-05
-3.36325e-05 0.000127782 -1.24455e-06
-1.44859e-05 -1.24455e-06 5.29403e-05
0.00129887 1.57367e-05 -5.79834e-06
1.57367e-05 -2.69012e-05 1.78111e-06
-5.79834e-06 1.78111e-06 -0.000304066
-0.00143788 0.000303669 -5.58017e-05
0.000303669 -0.000502179 2.28837e-05
-5.58017e-05 2.28837e-05 -0.00045702
0.0020242 -0.000295014 -1.95835e-05
-0.000295014 -0.000196902 2.88549e-05
-1.95835e-05 2.88549e-05 -0.000379458
0.00493576 0.000801756 1.0974e-05
0.000801756 0.0015752 1.7297e-05
1.0974e-05 1.7297e-05 0.00187955
0.00672318 -1.48232e-05 4.7969e-05
-1.48232e-05 0.00213955 -2.61794e-05
4.7969e-05 -2.61794e-05 0.000306054
0.00198959 -0.000203478 2.31138e-05
-0.000203478 0.000403092 1.51098e-05
2.31138e-05 1.51098e-05 0.000542785
-0.00132595 7.71492e-05 3.84217e-05
7.71492e-05 -4.23617e-05 -6.18266e-06
3.84217e-05 -6.18266e-06 -0.000456752
0.00168864 0.000523158 -1.92297e-05
0.000523158 0.000879956 7.38878e-06
-1.92297e-05 7.38878e-06 0.000976844
0.00572809 0.000385402 -5.78121e-05
0.000385402 0.00185364 5.07134e-05
-5.78121e-05 5.07134e-05 0.00010726
0.00248748 -0.000513385 8.94554e-06
-0.000513385 0.000120644 1.51851e-05
8.94554e-06 1.51851e-05 -0.000505068
0.000354147 8.75765e-06 1.02552e-05
8.75765e-06 0.000156913 8.54192e-06
1.02552e-05 8.54192e-06 -4.55388e-06
0.000741348 -0.000135615 3.47785e-07
-0.000135615 0.000174022 -8.21007e-07
3.47785e-07 -8.21007e-07 2.37554e-05
0.0023735 -0.000223189 1.40717e-05
-0.000223189 0.000632937 2.89635e-06
1.40717e-05 2.89635e-06 0.000600728
-0.000583495 -2.39361e-06 -3.41859e-06
-2.39361e-06 -0.000432774 3.11495e-06
-3.41859e-06 3.11495e-06 -0.00064801
0.000596322 -0.000131955 3.63975e-06
-0.000131955 -3.8416e-05 -4.07531e-07
3.63975e-06 -4.07531e-07 -0.000254084
0.000805959 -0.000198126 -1.40242e-08
-0.000198126 -0.000229955 -5.89027e-07
-1.40242e-08 -5.89027e-07 -0.000385211
0.0016624 -0.000176961 -3.62365e-06
-0.000176961 0.000529792 -4.50884e-07
-3.62365e-06 -4.50884e-07 0.000292511
0.00122583 -0.000189145 -2.00815e-06
-0.000189145 0.000148971 -1.93083e-06
-2.00815e-06 -1.93083e-06 -6.01593e-05
0.0017076 -0.00023002 3.05143e-06
-0.00023002 0.000206556 -1.36233e-06
3.05143e-06 -1.36233e-06 6.1172e-05
0.00150592 -0.000183569 -8.37522e-07
-0.000183569 0.000348893 -1.70393e-06
-8.37522e-07 -1.70393e-06 0.000138289
0.00142435 -0.00019291 5.66106e-07
-0.00019291 0.000176318 -1.54509e-06
5.66106e-07 -1.54509e-06 -1.66551e-05
0.00125894 -0.000181262 -1.3589e-06
-0.000181262 -7.22139e-05 -3.89143e-06
-1.3589e-06 -3.89143e-06 -0.000214736
0.00183451 -0.000184747 -1.25197e-06
-0.000184747 0.000247161 -2.24383e-06
-1.25197e-06 -2.24383e-06 0.000113989
0.00140237 -0.000175985 -2.06881e-06
-0.000175985 0.000180249 -7.49117e-07
-2.06881e-06 -7.49117e-07 8.49044e-06
0.00141823 -0.000183717 2.72054e-07
-0.000183717 0.000123219 -1.00845e-06
2.72054e-07 -1.00845e-06 -4.24496e-05
0.00142304 -0.000163645 -2.37358e-06
-0.000163645 0.000291718 3.47314e-06
-2.37358e-06 3.47314e-06 0.000139188
0.00135765 -0.00016989 -2.02044e-07
-0.00016989 0.000235831 8.56306e-07
-2.02044e-07 8.56306e-07 5.84062e-05
0.00124874 -0.00017482 2.28044e-07
-0.00017482 0.000137705 -1.91123e-06
2.28044e-07 -1.91123e-06 -5.92133e-05
0.000956712 -0.000122873 7.71368e-08
-0.000122873 0.000101582 -8.58214e-07
7.71368e-08 -8.58214e-07 -1.99357e-05
0.000697603 -0.000112121 -2.41061e-07
-0.000112121 -3.76926e-05 -1.34169e-06
-2.41061e-07 -1.34169e-06 -0.00016748
0.00109118 -0.000136745 4.05144e-06
-0.000136745 0.000171727 -3.90422e-06
4.05144e-06 -3.90422e-06 2.89036e-05
0.000865436 -6.29921e-05 1.03507e-07
-6.29921e-05 7.87662e-05 1.26123e-06
1.03507e-07 1.26123e-06 -2.21177e-05
0.000986452 -0.000106913 5.03895e-07
-0.000106913 0.000149756 5.33859e-07
5.03895e-07 5.33859e-07 3.12292e-05
0.00103754 -0.000123697 6.39374e-10
-0.000123697 0.000183784 2.42928e-07
6.39374e-10 2.42928e-07 5.47798e-05
0.000734877 7.78423e-05 6.60526e-07
7.78423e-05 2.07001e-05 2.76033e-06
6.60526e-07 2.76033e-06 -4.30183e-05
0.000834593 -3.14367e-06 1.23857e-08
-3.14367e-06 7.31217e-05 -8.88629e-08
1.23857e-08 -8.88629e-08 -1.63845e-05
0.000887025 -5.38789e-05 -7.6214e-07
-5.38789e-05 0.000113672 -7.80789e-08
-7.6214e-07 -7.80789e-08 1.14145e-05
0.00130667 5.88339e-05 -1.34457e-05
5.88339e-05 0.000329462 2.95867e-06
-1.34457e-05 2.95867e-06 0.000316217
0.000723343 5.2337e-05 -4.73854e-08
5.2337e-05 4.31504e-06 -2.53206e-07
-4.73854e-08 -2.53206e-07 -4.42225e-05
0.000802879 -2.61032e-06 3.49012e-07
-2.61032e-06 4.99006e-05 -1.33774e-06
3.49012e-07 -1.33774e-06 -2.41063e-05
0.000827966 3.61888e-05 -2.22243e-05
3.61888e-05 6.15991e-05 3.28221e-06
-2.22243e-05 3.28221e-06 6.86349e-05
0.00102753 5.0496e-05 -6.04358e-06
5.0496e-05 0.000165745 3.11724e-07
-6.04358e-06 3.11724e-07 0.000154682
0.000745148 5.75875e-05 -1.14612e-07
5.75875e-05 1.05521e-05 -1.97787e-06
-1.14612e-07 -1.97787e-06 -3.1475e-05
0.00072271 4.11549e-05 1.40731e-06
4.11549e-05 -1.10451e-05 -3.24135e-06
1.40731e-06 -3.24135e-06 -2.07683e-05
0.00208953 5.63059e-05 1.08943e-06
5.63059e-05 0.000747032 8.89441e-08
1.08943e-06 8.89441e-08 0.000761615
0.00207974 4.9272e-05 2.1753e-05
4.9272e-05 0.000734322 -3.38559e-06
2.1753e-05 -3.38559e-06 0.000750736
0.000775542 -1.79274e-05 1.70045e-07
-1.79274e-05 2.23335e-05 -1.17852e-06
1.70045e-07 -1.17852e-06 -5.11468e-05
0.000820466 1.25313e-05 -5.98805e-07
1.25313e-05 4.22921e-05 -1.43049e-06
-5.98805e-07 -1.43049e-06 -2.13314e-05
0.000842536 -1.80077e-05 5.40353e-08
-1.80077e-05 5.8146e-05 -3.32472e-08
5.40353e-08 -3.32472e-08 -1.22932e-05
0.000753422 -4.22807e-05 -6.7981e-07
-4.22807e-05 7.17062e-08 -1.91448e-06
-6.7981e-07 -1.91448e-06 -3.99978e-05
0.000831744 5.67017e-07 6.50312e-07
5.67017e-07 4.52374e-05 -7.88758e-08
6.50312e-07 -7.88758e-08 -1.47609e-05
0.000698718 -3.44419e-05 -8.40729e-07
-3.44419e-05 -3.23165e-05 -3.55752e-06
-8.40729e-07 -3.55752e-06 -4.25019e-05
0.000764224 -2.54004e-05 -1.64003e-07
-2.54004e-05 9.2892e-07 1.6037e-08
-1.64003e-07 1.6037e-08 -3.67429e-05
0.000842974 4.04016e-05 1.13339e-06
4.04016e-05 5.50203e-05 5.71651e-07
1.13339e-06 5.71651e-07 -6.91871e-06
0.00220975 -4.25056e-05 -1.99802e-05
-4.25056e-05 0.000797359 -3.86839e-06
-1.99802e-05 -3.86839e-06 0.000814402
0.000705926 -2.9073e-05 -2.74519e-07
-2.9073e-05 -3.44612e-05 1.03966e-08
-2.74519e-07 1.03966e-08 -4.2584e-05
0.000783999 -2.25041e-05 3.39309e-07
-2.25041e-05 9.83042e-06 1.50708e-06
3.39309e-07 1.50708e-06 -2.63516e-05
0.0021592 -3.41383e-05 -2.08446e-06
-3.41383e-05 0.0007635 8.10636e-08
-2.08446e-06 8.10636e-08 0.000782289
0.000708829 -2.34112e-05 3.75859e-07
-2.34112e-05 -3.85886e-05 3.34352e-06
3.75859e-07 3.34352e-06 -4.45299e-05
0.00210611 -2.50842e-05 1.12382e-05
-2.50842e-05 0.000729199 4.1622e-06
1.12382e-05 4.1622e-06 0.000749634
0.00183898 -3.88062e-05 4.15418e-05
-3.88062e-05 0.000300021 2.27763e-05
4.15418e-05 2.27763e-05 6.73638e-05
0.0011682 -1.51096e-05 1.24999e-06
-1.51096e-05 8.29209e-05 4.4807e-06
1.24999e-06 4.4807e-06 -2.91084e-05
0.000889803 -4.56421e-07 -5.02371e-07
-4.56421e-07 3.3312e-05 -3.11646e-06
-5.02371e-07 -3.11646e-06 -4.51967e-05
0.000915632 3.95496e-05 -7.86533e-07
3.95496e-05 0.00011515 -2.547e-07
-7.86533e-07 -2.547e-07 2.8887e-05
0.000890992 -9.36555e-06 2.37321e-07
-9.36555e-06 8.48765e-05 2.53073e-07
2.37321e-07 2.53073e-07 1.47656e-05
0.000840424 -3.70074e-05 1.24496e-07
-3.70074e-05 6.07309e-05 5.01297e-07
1.24496e-07 5.01297e-07 -1.35184e-05
0.000868541 -3.64419e-05 1.04753e-07
-3.64419e-05 7.53284e-05 -1.50564e-07
1.04753e-07 -1.50564e-07 3.11183e-06
0.000874725 -5.15656e-06 2.02092e-07
-5.15656e-06 8.11818e-05 -4.8305e-07
2.02092e-07 -4.8305e-07 2.49788e-06
0.000888877 1.92429e-05 5.43796e-08
1.92429e-05 9.63377e-05 6.26322e-07
5.43796e-08 6.26322e-07 1.44972e-05
0.000904426 1.81984e-05 -2.15488e-07
1.81984e-05 0.00010528 -1.78633e-06
-2.15488e-07 -1.78633e-06 1.87823e-05
0.000685914 -2.27364e-05 2.82918e-07
-2.27364e-05 -1.41009e-05 -2.06557e-07
2.82918e-07 -2.06557e-07 -9.26714e-05
0.000834853 4.24098e-05 4.18027e-07
4.24098e-05 6.34785e-05 -3.91394e-07
4.18027e-07 -3.91394e-07 -1.25961e-05
0.000870772 -5.63336e-05 6.08377e-07
-5.63336e-05 7.17283e-05 -8.76406e-07
6.08377e-07 -8.76406e-07 -3.90831e-06
0.000894488 -1.24816e-06 -1.30038e-07
-1.24816e-06 9.96448e-05 1.5773e-07
-1.30038e-07 1.5773e-07 2.21058e-05
0.00143029 4.07071e-06 3.0961e-06
4.07071e-06 0.000403951 1.27739e-06
3.0961e-06 1.27739e-06 0.000325391
0.0014007 -0.000330193 4.80699e-05
-0.000330193 0.000700587 4.10645e-05
4.80699e-05 4.10645e-05 0.000829723
0.00198506 -3.62109e-05 2.28105e-06
-3.62109e-05 0.000308221 1.09238e-05
2.28105e-06 1.09238e-05 -0.00014404
0.00169705 7.87554e-06 -1.23271e-05
7.87554e-06 0.000107335 -2.20691e-05
-1.23271e-05 -2.20691e-05 -0.000286902
0.00391857 -0.00046414 -5.4992e-05
-0.00046414 -1.4997e-05 -4.49304e-05
-5.4992e-05 -4.49304e-05 0.00114333
0.00417112 -0.000232807 -1.42302e-05
-0.000232807 0.000534056 -1.74292e-05
-1.42302e-05 -1.74292e-05 0.000257053
0.00138505 -0.000268384 -9.98008e-05
-0.000268384 -0.000445466 6.08407e-05
-9.98008e-05 6.08407e-05 -0.00185807
0.00288889 -0.000244784 -4.20068e-05
-0.000244784 0.000333656 8.97787e-05
-4.20068e-05 8.97787e-05 -9.81886e-05
0.00379889 -0.000215026 -5.25511e-06
-0.000215026 0.000699591 2.92591e-05
-5.25511e-06 2.92591e-05 0.000544602
-0.000170646 -0.000603358 -3.54194e-06
-0.000603358 -0.00115498 6.70481e-06
-3.54194e-06 6.70481e-06 0.000151761
0.00482895 -6.73949e-06 5.28846e-06
-6.73949e-06 0.00162206 2.86317e-05
5.28846e-06 2.86317e-05 -0.000323364
0.000775233 -0.0004027 -2.72601e-06
-0.0004027 -0.00115914 8.23439e-06
-2.72601e-06 8.23439e-06 -0.000803395
0.00269798 0.000144787 -6.11251e-05
0.000144787 0.000197532 -2.72415e-05
-6.11251e-05 -2.72415e-05 6.62674e-05
0.0095949 -0.000507862 -2.80272e-05
-0.000507862 0.00376907 3.78099e-05
-2.80272e-05 3.78099e-05 0.00214998
-7.55031e-06 -0.000487702 -2.5125e-05
-0.000487702 -0.000253764 -2.86821e-05
-2.5125e-05 -2.86821e-05 8.01327e-05
0.00061058 0.000128177 4.74488e-08
0.000128177 -3.25489e-05 -1.62988e-06
4.74488e-08 -1.62988e-06 -9.2523e-05
0.000980369 1.75543e-05 3.39819e-06
1.75543e-05 0.000160584 -4.58491e-08
3.39819e-06 -4.58491e-08 0.000100498
0.000929399 -2.76854e-05 -6.54201e-07
-2.76854e-05 0.000110946 -6.60494e-07
-6.54201e-07 -6.60494e-07 3.78346e-05
-0.00118534 -1.06311e-05 -2.75708e-05
-1.06311e-05 -0.000308711 -1.43337e-05
-2.75708e-05 -1.43337e-05 -0.00101443
-0.000672075 1.52996e-05 3.30973e-06
1.52996e-05 -0.000538209 -6.79576e-06
3.30973e-06 -6.79576e-06 -0.000600562
0.000756905 1.67737e-05 -2.24755e-07
1.67737e-05 3.25975e-05 -1.49471e-06
-2.24755e-07 -1.49471e-06 -3.07828e-05
0.000764344 6.03017e-05 2.82523e-06
6.03017e-05 0.000160112 1.48079e-06
2.82523e-06 1.48079e-06 7.77405e-05
0.000586779 0.000130247 6.11587e-06
0.000130247 0.000157686 -1.92804e-05
6.11587e-06 -1.92804e-05 -0.000171102
-0.000117179 0.000148435 1.43104e-05
0.000148435 -0.000391041 6.11611e-06
1.43104e-05 6.11611e-06 -0.000530062
0.00027687 -1.4755e-05 7.99002e-05
-1.4755e-05 0.000785217 -1.30073e-07
7.99002e-05 -1.30073e-07 0.000384148
0.00135222 -1.06364e-05 -4.49145e-06
-1.06364e-05 5.40506e-05 4.83279e-06
-4.49145e-06 4.83279e-06 -0.000157649
0.000680297 -1.3076e-06 -1.32202e-06
-1.3076e-06 -0.000118236 -4.78234e-07
-1.32202e-06 -4.78234e-07 -0.000170869
0.00011022 -2.45181e-05 3.37862e-06
-2.45181e-05 -5.83813e-06 4.85876e-06
3.37862e-06 4.85876e-06 -9.22395e-05
0.00129765 -0.000251238 1.0263e-05
-0.000251238 -0.000643081 -2.72822e-05
1.0263e-05 -2.72822e-05 -0.000704527
0.00142901 1.28119e-05 -5.48017e-05
1.28119e-05 5.96316e-05 1.30289e-05
-5.48017e-05 1.30289e-05 -0.000218952
0.000812455 -8.9824e-05 1.75716e-05
-8.9824e-05 -0.000561427 -2.34507e-05
1.75716e-05 -2.34507e-05 -0.0022167
-0.00236678 0.000442879 -1.76529e-05
0.000442879 -0.00202732 -9.29209e-06
-1.76529e-05 -9.29209e-06 -0.00161638
0.00159161 0.00037999 -6.23709e-05
0.00037999 0.000850527 4.00891e-05
-6.23709e-05 4.00891e-05 0.00119779
0.00177029 -0.000156784 -5.18991e-06
-0.000156784 0.000213769 3.63929e-06
-5.18991e-06 3.63929e-06 0.000448596
0.00128911 0.00015622 1.54451e-07
0.00015622 0.00119301 4.4906e-06
1.54451e-07 4.4906e-06 0.00106213
-0.0039521 0.000224275 1.60003e-05
0.000224275 -0.00139859 -9.62744e-08
1.60003e-05 -9.62744e-08 -0.0016983
0.00395642 -0.000543299 -3.8415e-06
-0.000543299 0.000971327 6.78381e-06
-3.8415e-06 6.78381e-06 4.02742e-05
0.00747562 0.000318973 -6.45419e-07
0.000318973 0.00264292 -7.7175e-07
-6.45419e-07 -7.7175e-07 0.00111679
0.000110682 -0.000162718 -1.03825e-06
-0.000162718 -0.000526497 1.29874e-05
-1.03825e-06 1.29874e-05 -0.000455097
-0.00601337 0.00012898 -3.11867e-05
0.00012898 -0.00296212 -2.99859e-06
-3.11867e-05 -2.99859e-06 -0.00301148
0.00625808 0.000277699 -3.69441e-06
0.000277699 0.00222369 2.89915e-06
-3.69441e-06 2.89915e-06 0.000853407
0.00491746 -0.000401648 -5.30975e-06
-0.000401648 0.000749397 2.45405e-05
-5.30975e-06 2.45405e-05 -7.77601e-05
0.000275477 -0.000107329 -1.34045e-05
-0.000107329 -3.16548e-05 5.59488e-06
-1.34045e-05 5.59488e-06 -0.000211088
0.00121391 -0.000164625 -9.76926e-07
-0.000164625 5.00153e-05 2.38485e-07
-9.76926e-07 2.38485e-07 5.39539e-05
0.00201625 -0.000203856 8.99353e-06
-0.000203856 0.00017731 -1.38193e-06
8.99353e-06 -1.38193e-06 0.000224723
0.000181717 -0.000101731 -3.47083e-06
-0.000101731 -0.000223001 -2.60067e-06
-3.47083e-06 -2.60067e-06 -0.000441978
0.00126515 -0.000221752 -3.77758e-06
-0.000221752 4.28294e-06 -1.62216e-06
-3.77758e-06 -1.62216e-06 -0.000151059
0.00193189 -0.000258127 -7.58154e-07
-0.000258127 0.000164237 7.10868e-07
-7.58154e-07 7.10868e-07 6.57851e-05
0.00131943 -0.000192059 -2.16858e-06
-0.000192059 0.000195145 -2.65397e-06
-2.16858e-06 -2.65397e-06 -9.13216e-06
0.00149573 -0.000217097 2.47486e-06
-0.000217097 0.000104648 3.21182e-07
2.47486e-06 3.21182e-07 -4.23627e-05
0.00198906 -0.000208657 -1.06216e-06
-0.000208657 0.000219892 -3.27046e-06
-1.06216e-06 -3.27046e-06 0.000110951
0.00155511 -0.000196165 -2.01602e-06
-0.000196165 0.000239164 -4.11949e-07
-2.01602e-06 -4.11949e-07 5.18987e-05
0.00159374 -0.000194445 -1.15096e-06
-0.000194445 0.000102264 -1.26448e-07
-1.15096e-06 -1.26448e-07 -4.09899e-05
0.00151556 -0.000158079 -8.95518e-07
-0.000158079 -4.36596e-06 -2.12015e-06
-8.95518e-07 -2.12015e-06 -0.000111814
0.00181016 -0.000156034 -1.55755e-06
-0.000156034 0.000200328 -1.23337e-06
-1.55755e-06 -1.23337e-06 9.26553e-05
0.00174976 -0.000180932 -1.78076e-06
-0.000180932 0.000272403 -2.09565e-06
-1.78076e-06 -2.09565e-06 0.00012611
0.00161511 -0.000172661 3.56206e-07
-0.000172661 0.000135964 1.43477e-06
3.56206e-07 1.43477e-06 3.91877e-06
0.000833284 -0.000137238 -2.79988e-06
-0.000137238 -8.74828e-05 1.26115e-06
-2.79988e-06 1.26115e-06 -0.000243458
0.00140829 -0.000173745 1.83245e-06
-0.000173745 0.00018524 -1.34236e-06
1.83245e-06 -1.34236e-06 1.6461e-05
0.0011377 -0.000167301 2.32241e-06
-0.000167301 -2.294e-05 6.90685e-07
2.32241e-06 6.90685e-07 -0.000186399
0.00105005 -0.000135 -5.6061e-07
-0.000135 0.000119426 1.41557e-06
-5.6061e-07 1.41557e-06 -1.14113e-05
0.00104721 -0.000141742 8.80545e-07
-0.000141742 9.57918e-05 -4.13859e-07
8.80545e-07 -4.13859e-07 -5.49455e-05
0.000793286 -0.000138452 1.04332e-06
-0.000138452 -6.15911e-05 -2.75034e-06
1.04332e-06 -2.75034e-06 -0.000240825
0.000948653 -0.000106743 -1.69275e-06
-0.000106743 9.95905e-05 3.31689e-07
-1.69275e-06 3.31689e-07 -6.79888e-06
0.00104817 -0.000127657 -1.12109e-07
-0.000127657 0.000148562 -5.36724e-07
-1.12109e-07 -5.36724e-07 2.66349e-05
0.000829288 -0.000118716 1.68248e-07
-0.000118716 3.51359e-05 -2.51101e-06
1.68248e-07 -2.51101e-06 -9.28185e-05
0.000794934 1.2964e-05 3.13257e-07
1.2964e-05 4.59734e-05 3.15511e-06
3.13257e-07 3.15511e-06 -2.7981e-05
0.000929169 -6.07408e-05 9.22841e-07
-6.07408e-05 0.00011188 4.22881e-07
9.22841e-07 4.22881e-07 1.10996e-05
0.000930495 -9.23773e-05 3.158e-07
-9.23773e-05 0.000120483 7.11287e-07
3.158e-07 7.11287e-07 4.22143e-06
0.000600813 5.61446e-05 -1.42351e-06
5.61446e-05 -4.87648e-05 4.20598e-06
-1.42351e-06 4.20598e-06 -7.20834e-05
0.000726279 2.86159e-05 -7.08735e-07
2.86159e-05 9.23675e-06 -3.67184e-07
-7.08735e-07 -3.67184e-07 -5.10109e-05
0.000885877 -2.24407e-05 7.57159e-09
-2.24407e-05 0.000101492 -1.62882e-06
7.57159e-09 -1.62882e-06 1.01449e-05
0.00217441 7.80623e-05 -9.62428e-06
7.80623e-05 0.00081231 1.25992e-06
-9.62428e-06 1.25992e-06 0.000820388
0.000680447 5.11873e-05 2.99508e-08
5.11873e-05 -1.41969e-05 -7.38586e-08
2.99508e-08 -7.38586e-08 -3.17058e-05
0.00071674 4.32376e-05 1.04813e-06
4.32376e-05 3.89505e-07 -2.23069e-06
1.04813e-06 -2.23069e-06 -4.80457e-05
0.0021215 6.30716e-05 1.13664e-06
6.30716e-05 0.000772898 8.8285e-08
1.13664e-06 8.8285e-08 0.000785373
0.000724611 4.71517e-05 1.50517e-06
4.71517e-05 -7.04282e-07 -3.42079e-06
1.50517e-06 -3.42079e-06 -1.37515e-05
0.00211098 5.67554e-05 2.50683e-05
5.67554e-05 0.000759918 -3.19892e-06
2.50683e-05 -3.19892e-06 0.000774223
0.000919408 2.98678e-05 -3.53919e-07
2.98678e-05 0.000108706 -1.50047e-07
-3.53919e-07 -1.50047e-07 2.86737e-05
0.000809256 -1.03957e-05 1.08737e-07
-1.03957e-05 4.09686e-05 -2.82122e-07
1.08737e-07 -2.82122e-07 -3.34919e-05
0.000809511 -6.47982e-07 -3.72275e-07
-6.47982e-07 4.13535e-05 -1.64645e-06
-3.72275e-07 -1.64645e-06 -2.76543e-05
0.000739709 -4.89045e-05 -5.43982e-07
-4.89045e-05 -1.24667e-06 -2.23091e-06
-5.43982e-07 -2.23091e-06 -4.35676e-05
0.000796946 -1.45473e-05 8.05267e-07
-1.45473e-05 3.05204e-05 -8.8135e-08
8.05267e-07 -8.8135e-08 -3.31714e-05
0.000781935 -4.8445e-06 5.48626e-07
-4.8445e-06 2.87464e-05 7.96731e-07
5.48626e-07 7.96731e-07 -4.4233e-05
0.000697811 -3.89705e-05 -1.41031e-06
-3.89705e-05 -2.63732e-05 -3.66193e-06
-1.41031e-06 -3.66193e-06 -3.83662e-05
0.000756237 -3.41653e-05 -2.00008e-07
-3.41653e-05 6.43848e-07 2.42548e-08
-2.00008e-07 2.42548e-08 -3.87373e-05
0.000804285 -1.12647e-05 1.21125e-06
-1.12647e-05 3.09507e-05 8.95533e-07
1.21125e-06 8.95533e-07 -2.91256e-05
0.00223812 -5.00543e-05 -2.37236e-05
-5.00543e-05 0.000819209 -3.68735e-06
-2.37236e-05 -3.68735e-06 0.000834626
0.000692221 -3.37368e-05 -1.95409e-07
-3.37368e-05 -3.57438e-05 2.08842e-08
-1.95409e-07 2.08842e-08 -4.58795e-05
0.000772432 -2.39064e-05 8.83435e-07
-2.39064e-05 5.66392e-06 1.62788e-06
8.83435e-07 1.62788e-06 -3.19799e-05
0.00220091 -4.22273e-05 -2.18784e-06
-4.22273e-05 0.000791918 1.02117e-07
-2.18784e-06 1.02117e-07 0.000809102
0.000697474 -2.8566e-05 4.10018e-07
-2.8566e-05 -3.89637e-05 3.43832e-06
4.10018e-07 3.43832e-06 -4.70354e-05
0.00214652 -3.35559e-05 1.47608e-05
-3.35559e-05 0.000755917 4.06408e-06
1.47608e-05 4.06408e-06 0.000774917
-0.00203273 -0.000128503 3.83168e-05
-0.000128503 -0.000473634 1.63853e-05
3.83168e-05 1.63853e-05 -0.000967158
0.00181031 -4.55584e-05 2.0045e-06
-4.55584e-05 0.000295659 6.18318e-06
2.0045e-06 6.18318e-06 6.48358e-05
0.00115608 -1.23317e-05 -7.63639e-06
-1.23317e-05 5.26775e-05 -5.17121e-06
-7.63639e-06 -5.17121e-06 -5.2733e-05
0.000881002 7.69039e-06 -9.21867e-07
7.69039e-06 9.33604e-05 7.20318e-07
-9.21867e-07 7.20318e-07 9.31585e-06
0.00105217 0.000109105 1.70524e-07
0.000109105 0.00019989 1.04342e-06
1.70524e-07 1.04342e-06 9.90905e-05
0.00087186 2.95959e-05 -4.01836e-07
2.95959e-05 9.69097e-05 1.85889e-07
-4.01836e-07 1.85889e-07 5.89559e-06
0.000972352 -4.41664e-05 4.13294e-07
-4.41664e-05 0.000131506 -3.10639e-07
4.13294e-07 -3.10639e-07 5.92118e-05
0.00092359 2.02149e-05 6.41149e-07
2.02149e-05 0.000105091 5.34875e-07
6.41149e-07 5.34875e-07 2.79559e-05
0.000733417 -2.73061e-05 -8.30267e-07
-2.73061e-05 8.23044e-06 1.65746e-06
-8.30267e-07 1.65746e-06 -7.02337e-05
0.000753862 9.65572e-07 -6.59212e-07
9.65572e-07 2.67519e-05 2.18015e-08
-6.59212e-07 2.18015e-08 -5.60909e-05
0.000804458 5.67372e-06 2.12989e-07
5.67372e-06 5.09063e-05 -1.0388e-07
2.12989e-07 -1.0388e-07 -3.46289e-05
0.00101253 5.16829e-05 1.29968e-06
5.16829e-05 0.000186437 -1.86434e-06
1.29968e-06 -1.86434e-06 8.62565e-05
0.000854022 5.75099e-05 3.77081e-06
5.75099e-05 6.59037e-05 -3.08664e-06
3.77081e-06 -3.08664e-06 -1.53536e-05
0.000867892 2.8207e-05 -1.77678e-07
2.8207e-05 8.70055e-05 -8.81271e-07
-1.77678e-07 -8.81271e-07 7.89191e-06
0.0010264 3.1911e-05 7.14282e-07
3.1911e-05 0.000187707 7.13307e-07
7.14282e-07 7.13307e-07 0.000109476
-0.00231489 -0.000334293 -2.67064e-05
-0.000334293 -0.0010538 1.73992e-05
-2.67064e-05 1.73992e-05 -0.00114544
-0.000371847 -0.000323458 2.45558e-05
-0.000323458 -8.71709e-05 8.95448e-06
2.45558e-05 8.95448e-06 -0.000116611
0.00217203 -4.35595e-05 -4.41087e-05
-4.35595e-05 0.000433106 -3.40832e-05
-4.41087e-05 -3.40832e-05 -3.22498e-05
-0.00321713 -0.000615333 2.16835e-05
-0.000615333 -0.0026126 4.1439e-05
2.16835e-05 4.1439e-05 -0.00118382
0.00524912 -0.000646548 -1.39187e-05
-0.000646548 0.0014903 -1.98881e-05
-1.39187e-05 -1.98881e-05 0.00159775
0.0033922 0.000265014 5.16338e-05
0.000265014 0.000862586 9.35192e-08
5.16338e-05 9.35192e-08 -0.00108491
0.00294153 -0.000256286 -0.000127131
-0.000256286 0.000356574 8.20773e-05
-0.000127131 8.20773e-05 -0.000206073
0.00322102 0.000114625 -2.89778e-05
0.000114625 0.000391738 2.08636e-06
-2.89778e-05 2.08636e-06 0.000140474
0.0038911 -0.000693262 -1.43463e-05
-0.000693262 0.00155094 1.92234e-05
-1.43463e-05 1.92234e-05 0.00169176
0.00170228 6.03009e-05 1.05064e-05
6.03009e-05 9.43694e-05 2.04715e-05
1.05064e-05 2.04715e-05 -0.00162994
0.0021675 0.000334873 -0.000107667
0.000334873 0.000374176 -8.37518e-05
-0.000107667 -8.37518e-05 -0.000351504
0.00200545 0.000339661 -0.00013538
0.000339661 0.000287882 -4.91311e-05
-0.00013538 -4.91311e-05 -0.00140984
0.00227784 0.000305661 1.22447e-05
0.000305661 0.000645876 -1.0901e-05
1.22447e-05 -1.0901e-05 0.00051095
0.000800215 0.00012346 -2.06753e-06
0.00012346 6.13588e-05 2.03949e-07
-2.06753e-06 2.03949e-07 3.57843e-06
0.0011501 1.98427e-05 -1.10405e-06
1.98427e-05 0.000245016 -2.43904e-06
-1.10405e-06 -2.43904e-06 0.000186414
0.000339262 0.000119122 -3.19048e-05
0.000119122 2.73644e-06 -1.44325e-05
-3.19048e-05 -1.44325e-05 -0.00023602
0.00154804 0.000107389 -4.98038e-06
0.000107389 0.000538061 -6.24024e-06
-4.98038e-06 -6.24024e-06 0.000450965
0.00122131 0.000227758 1.1525e-05
0.000227758 0.000210027 -4.67914e-07
1.1525e-05 -4.67914e-07 8.49081e-05
0.0015037 0.000307825 5.13408e-05
0.000307825 -7.46038e-05 2.93137e-05
5.13408e-05 2.93137e-05 -0.000117024
-0.00365133 -3.99646e-05 -6.85879e-05
-3.99646e-05 -0.00176269 -6.67244e-06
-6.85879e-05 -6.67244e-06 -0.00151919
-0.000522339 -1.41581e-05 2.11272e-05
-1.41581e-05 0.000477018 4.98369e-07
2.11272e-05 4.98369e-07 4.72809e-05
0.00144347 -1.7658e-05 -3.79173e-05
-1.7658e-05 0.000161981 3.42e-06
-3.79173e-05 3.42e-06 9.42036e-07
0.00148064 -0.000178635 -3.50915e-05
-0.000178635 6.44335e-05 -1.64538e-05
-3.50915e-05 -1.64538e-05 0.000292383
0.0037343 -0.000582541 -6.51699e-05
-0.000582541 0.000655549 -4.09279e-06
-6.51699e-05 -4.09279e-06 -6.04331e-05
0.00116026 0.00012502 -4.47729e-05
0.00012502 0.00120488 1.61817e-05
-4.47729e-05 1.61817e-05 0.00103121
-0.00111705 1.21887e-05 4.23703e-05
1.21887e-05 -0.000948272 -5.03126e-05
4.23703e-05 -5.03126e-05 -0.00282755
0.00981338 0.000523428 -8.71783e-05
0.000523428 0.00484825 1.02512e-05
-8.71783e-05 1.02512e-05 0.00482778
0.00149631 -0.00027326 6.91973e-06
-0.00027326 9.11675e-05 1.19016e-06
6.91973e-06 1.19016e-06 7.80754e-05
-0.000600067 0.000248895 -3.7557e-06
0.000248895 -0.000124896 -4.03622e-06
-3.7557e-06 -4.03622e-06 -0.000231517
0.00241031 0.00017435 -1.46807e-05
0.00017435 0.00031598 1.66018e-05
-1.46807e-05 1.66018e-05 -0.00129182
0.00475976 -0.000406574 -1.44623e-05
-0.000406574 0.0011397 7.7188e-06
-1.44623e-05 7.7188e-06 0.000377146
-0.000309058 -0.000125739 1.13862e-06
-0.000125739 -0.000636275 -2.93764e-06
1.13862e-06 -2.93764e-06 -0.000812061
0.00798626 -4.075e-05 5.54391e-05
-4.075e-05 0.00267 -2.98887e-06
5.54391e-05 -2.98887e-06 0.00174286
0.00367702 -5.76022e-05 6.94829e-06
-5.76022e-05 0.000633092 -1.03346e-05
6.94829e-06 -1.03346e-05 0.000170944
-5.77809e-05 -0.000105487 -1.31586e-05
-0.000105487 -0.0005899 2.04327e-06
-1.31586e-05 2.04327e-06 -0.000550315
0.00119456 -0.000182018 -7.97058e-07
-0.000182018 -0.000238936 -5.17912e-07
-7.97058e-07 -5.17912e-07 -0.000190789
0.00193594 -0.00023359 4.63982e-06
-0.00023359 -9.99694e-06 -9.41306e-06
4.63982e-06 -9.41306e-06 3.34955e-05
0.00159743 -0.000237457 -5.23914e-06
-0.000237457 0.000173194 -3.60529e-06
-5.23914e-06 -3.60529e-06 2.01063e-05
0.00163226 -0.000242798 -1.55473e-07
-0.000242798 7.51717e-06 1.46632e-06
-1.55473e-07 1.46632e-06 -8.46734e-05
0.0020128 -0.00021914 -5.10495e-06
-0.00021914 0.00011803 2.13457e-07
-5.10495e-06 2.13457e-07 5.8324e-05
0.0011859 -0.00020001 1.25602e-06
-0.00020001 -4.78417e-05 1.91483e-06
1.25602e-06 1.91483e-06 -0.000196246
0.00167882 -0.00019599 -2.07169e-06
-0.00019599 5.61571e-05 -4.50383e-07
-2.07169e-06 -4.50383e-07 -5.2541e-05
0.00186975 -0.000164948 -2.02037e-06
-0.000164948 9.60625e-05 -1.31269e-06
-2.02037e-06 -1.31269e-06 1.11917e-05
0.00194448 -0.000208285 1.24316e-06
-0.000208285 0.000284752 2.33745e-06
1.24316e-06 2.33745e-06 0.000140734
0.00167852 -0.000164064 4.94534e-07
-0.000164064 8.00874e-05 8.07109e-07
4.94534e-07 8.07109e-07 -2.7879e-05
0.00166962 -0.00013672 -7.91689e-07
-0.00013672 6.60765e-05 3.95704e-08
-7.91689e-07 3.95704e-08 -2.70558e-05
0.00177279 -0.000134662 -2.77752e-07
-0.000134662 0.000171553 -3.24813e-07
-2.77752e-07 -3.24813e-07 7.22947e-05
0.00164682 -0.000147861 -1.83829e-06
-0.000147861 0.000116833 1.80463e-06
-1.83829e-06 1.80463e-06 1.11123e-05
0.00166577 -0.000153472 2.97246e-07
-0.000153472 0.000176731 -3.26146e-06
2.97246e-07 -3.26146e-06 5.86055e-05
0.00153553 -0.00016565 -3.08944e-06
-0.00016565 0.000201138 -1.02447e-06
-3.08944e-06 -1.02447e-06 5.69102e-05
0.00171534 -0.00017805 1.41006e-06
-0.00017805 0.000255068 -6.76945e-08
1.41006e-06 -6.76945e-08 0.000109052
0.0013609 -0.000158682 2.7509e-06
-0.000158682 6.55019e-06 4.58364e-06
2.7509e-06 4.58364e-06 -0.000124186
0.000808758 -0.000128142 -3.33893e-06
-0.000128142 -7.01774e-05 2.85936e-06
-3.33893e-06 2.85936e-06 -0.000210805
0.00116827 -0.000152787 3.71006e-07
-0.000152787 9.34425e-05 -1.46994e-07
3.71006e-07 -1.46994e-07 -6.16092e-05
0.00143272 -0.000172588 4.15538e-06
-0.000172588 0.000199987 -1.67807e-06
4.15538e-06 -1.67807e-06 3.40982e-05
0.000952041 -0.000115245 -1.56251e-06
-0.000115245 7.87729e-05 7.32119e-07
-1.56251e-06 7.32119e-07 -3.43442e-05
0.0011017 -0.00013689 1.55607e-07
-0.00013689 0.000145139 -2.87367e-07
1.55607e-07 -2.87367e-07 1.41022e-05
0.000695198 -0.000121205 1.16421e-06
-0.000121205 -8.79893e-05 -3.87915e-06
1.16421e-06 -3.87915e-06 -0.00023701
0.000781786 -4.00155e-05 -2.5363e-06
-4.00155e-05 2.82945e-05 2.60273e-06
-2.5363e-06 2.60273e-06 -5.42458e-05
0.00102243 -0.000111868 6.45625e-08
-0.000111868 0.000137813 -8.14059e-08
6.45625e-08 -8.14059e-08 3.10126e-05
0.0011366 -0.000132275 9.38194e-07
-0.000132275 0.000193955 -8.05488e-07
9.38194e-07 -8.05488e-07 7.16314e-05
0.000550125 6.86034e-05 3.95004e-07
6.86034e-05 -6.89071e-05 5.34885e-06
3.95004e-07 5.34885e-06 -0.000102036
0.000769324 -4.75412e-06 -5.42424e-09
-4.75412e-06 3.28489e-05 7.44047e-08
-5.42424e-09 7.44047e-08 -4.28453e-05
0.00100613 -6.70952e-05 1.4537e-06
-6.70952e-05 0.00015314 -4.45301e-07
1.4537e-06 -4.45301e-07 5.1368e-05
0.0023828 8.05277e-05 -3.47616e-05
8.05277e-05 0.000931011 2.70281e-06
-3.47616e-05 2.70281e-06 0.000937712
0.000642094 6.12316e-05 -1.37986e-07
6.12316e-05 -2.48462e-05 -1.87218e-07
-1.37986e-07 -1.87218e-07 -4.94748e-05
0.000714829 -4.51459e-06 2.19322e-06
-4.51459e-06 4.44022e-07 -2.90833e-06
2.19322e-06 -2.90833e-06 -5.91027e-05
0.00157547 6.09279e-05 1.37125e-05
6.09279e-05 0.000481868 -5.97621e-07
1.37125e-05 -5.97621e-07 0.000487843
0.000714267 5.4521e-05 9.43482e-07
5.4521e-05 4.40146e-06 -3.93188e-06
9.43482e-07 -3.93188e-06 -1.36587e-05
0.00218189 6.41839e-05 2.9309e-05
6.41839e-05 0.000807367 -2.99614e-06
2.9309e-05 -2.99614e-06 0.000819273
0.000903493 4.63116e-05 4.08565e-07
4.63116e-05 0.000102339 5.88898e-07
4.08565e-07 5.88898e-07 1.37943e-05
0.000886 -2.99505e-06 -2.60971e-07
-2.99505e-06 8.723e-05 5.03678e-07
-2.60971e-07 5.03678e-07 9.81198e-06
0.000826307 -3.1217e-05 1.3216e-07
-3.1217e-05 5.56112e-05 -1.41573e-06
1.3216e-07 -1.41573e-06 -1.78048e-05
0.00087633 3.65925e-06 1.78409e-07
3.65925e-06 7.77277e-05 5.98861e-07
1.78409e-07 5.98861e-07 2.05504e-06
0.000805957 -3.17456e-05 4.03125e-07
-3.17456e-05 3.62132e-05 -8.91929e-08
4.03125e-07 -8.91929e-08 -3.04532e-05
0.000709592 -4.89487e-05 -5.55494e-07
-4.89487e-05 -1.10113e-05 -2.42456e-06
-5.55494e-07 -2.42456e-06 -5.65853e-05
0.00069902 -4.3767e-05 -1.84969e-06
-4.3767e-05 -1.88858e-05 -3.76106e-06
-1.84969e-06 -3.76106e-06 -3.26833e-05
0.000740521 -4.42914e-05 6.6038e-08
-4.42914e-05 -1.52147e-06 -3.08785e-08
6.6038e-08 -3.08785e-08 -4.33095e-05
0.000796721 -5.45707e-05 -1.70008e-07
-5.45707e-05 2.75659e-05 1.34054e-06
-1.70008e-07 1.34054e-06 -3.35896e-05
0.00224468 -5.70557e-05 -2.73185e-05
-5.70557e-05 0.000829767 -3.43837e-06
-2.73185e-05 -3.43837e-06 0.000843608
0.000683072 -3.80575e-05 -2.39194e-07
-3.80575e-05 -3.43327e-05 3.77682e-08
-2.39194e-07 3.77682e-08 -4.62362e-05
0.000759802 -2.56251e-05 1.58555e-06
-2.56251e-05 1.77969e-06 1.8394e-06
1.58555e-06 1.8394e-06 -3.70021e-05
0.00223495 -4.9885e-05 -1.80555e-06
-4.9885e-05 0.000816794 1.14928e-07
-1.80555e-06 1.14928e-07 0.000832311
0.000685521 -3.31011e-05 7.62945e-07
-3.31011e-05 -3.92049e-05 3.58837e-06
7.62945e-07 3.58837e-06 -4.93111e-05
0.00218589 -4.18303e-05 1.80953e-05
-4.18303e-05 0.000783062 3.92436e-06
1.80953e-05 3.92436e-06 0.000800426
0.00112097 0.000131343 7.27554e-05
0.000131343 0.000900607 3.09458e-05
7.27554e-05 3.09458e-05 0.000448912
-0.000319632 -0.000161191 2.99835e-06
-0.000161191 0.000301631 5.43242e-06
2.99835e-06 5.43242e-06 -7.6245e-05
0.00178601 -5.13976e-05 -4.02365e-05
-5.13976e-05 0.000301924 -1.08934e-05
-4.02365e-05 -1.08934e-05 7.30453e-05
0.000864429 -1.91236e-05 -1.59763e-08
-1.91236e-05 8.23806e-05 7.85097e-07
-1.59763e-08 7.85097e-07 -1.08751e-07
0.000851671 3.05428e-06 -6.63243e-08
3.05428e-06 8.2904e-05 6.97073e-07
-6.63243e-08 6.97073e-07 -7.29314e-06
0.000923141 9.67223e-05 -3.85369e-08
9.67223e-05 0.000134082 2.69843e-07
-3.85369e-08 2.69843e-07 3.46179e-05
0.00110583 0.000128973 9.51817e-07
0.000128973 0.000220176 5.02203e-07
9.51817e-07 5.02203e-07 0.0001082
0.000911411 8.03255e-05 -1.1154e-06
8.03255e-05 0.000135045 -2.87391e-07
-1.1154e-06 -2.87391e-07 2.99301e-05
0.000812237 2.79895e-05 4.63311e-07
2.79895e-05 5.75319e-05 1.20887e-06
4.63311e-07 1.20887e-06 -2.59529e-05
0.000753825 9.366e-06 2.28113e-07
9.366e-06 2.29897e-05 1.21613e-06
2.28113e-07 1.21613e-06 -6.2216e-05
0.00072812 5.2944e-05 -9.8251e-07
5.2944e-05 3.23725e-05 -9.95476e-07
-9.8251e-07 -9.95476e-07 -6.50964e-05
0.000226114 7.4546e-05 -1.34207e-07
7.4546e-05 -0.000224229 5.9775e-07
-1.34207e-07 5.9775e-07 -0.000337217
0.000883155 0.000108158 1.16367e-06
0.000108158 7.63807e-05 -3.16123e-06
1.16367e-06 -3.16123e-06 -2.34236e-05
0.00188106 0.000230172 5.5676e-06
0.000230172 0.000417414 -8.02646e-06
5.5676e-06 -8.02646e-06 0.000290306
0.00079853 5.89252e-05 -1.28606e-06
5.89252e-05 5.45607e-05 -3.56267e-07
-1.28606e-06 -3.56267e-07 -2.72056e-05
0.000752823 1.59104e-06 -4.75328e-07
1.59104e-06 3.30283e-05 -8.24254e-07
-4.75328e-07 -8.24254e-07 -4.07501e-05
0.00899624 -3.09817e-05 -4.26237e-05
-3.09817e-05 0.00282529 -7.92129e-06
-4.26237e-05 -7.92129e-06 0.00160855
-0.00203317 -0.000274204 -4.02708e-05
-0.000274204 -0.00064954 -5.62623e-06
-4.02708e-05 -5.62623e-06 -0.00100925
0.00103551 -0.000342184 -2.8849e-05
-0.000342184 0.000583326 -2.45996e-05
-2.8849e-05 -2.45996e-05 0.000514686
-0.00283515 -0.000369294 -4.34782e-06
-0.000369294 -0.00157073 1.38415e-05
-4.34782e-06 1.38415e-05 -0.00137882
0.00963214 -0.000406613 7.61363e-05
-0.000406613 0.00387236 8.9761e-06
7.61363e-05 8.9761e-06 0.00175862
0.00325717 0.000130553 -3.1888e-06
0.000130553 0.000513777 1.53435e-05
-3.1888e-06 1.53435e-05 0.000441011
0.00143378 0.000315238 -4.23786e-05
0.000315238 -0.000141541 -2.14051e-05
-4.23786e-05 -2.14051e-05 -0.000719988
0.00704209 -0.000307312 5.00964e-05
-0.000307312 0.00226611 1.73541e-05
5.00964e-05 1.73541e-05 0.000892569
0.00317533 0.000356837 4.55041e-06
0.000356837 0.000244815 -3.41983e-05
4.55041e-06 -3.41983e-05 -0.000277609
0.00210879 0.000352504 9.15157e-06
0.000352504 0.000344466 1.25174e-05
9.15157e-06 1.25174e-05 0.000186851
0.000877715 0.000206881 1.90113e-06
0.000206881 8.96552e-06 -5.29259e-06
1.90113e-06 -5.29259e-06 -0.000135463
0.000926389 0.000113588 -7.00321e-06
0.000113588 0.000125691 3.88204e-06
-7.00321e-06 3.88204e-06 7.14425e-05
0.00147324 0.000254227 -3.30261e-05
0.000254227 0.000283579 -1.61074e-05
-3.30261e-05 -1.61074e-05 0.000170738
0.000857244 0.000287437 -1.76616e-05
0.000287437 -0.000359644 1.444e-05
-1.76616e-05 1.444e-05 -0.000422114
0.000508916 -0.000111154 -5.55063e-06
-0.000111154 -0.00134667 -3.16334e-06
-5.55063e-06 -3.16334e-06 -0.00177618
0.00189482 -3.76106e-05 -3.16065e-06
-3.76106e-05 0.00108702 -2.77532e-06
-3.16065e-06 -2.77532e-06 0.00102723
-0.00130906 -1.66502e-05 -7.63425e-06
-1.66502e-05 0.000204077 -5.8235e-08
-7.63425e-06 -5.8235e-08 -0.000283398
0.00263314 -0.000354013 -4.94802e-05
-0.000354013 0.000587131 4.33451e-06
-4.94802e-05 4.33451e-06 0.000523915
0.00394827 -0.000394762 -1.31271e-05
-0.000394762 0.000780547 -1.72424e-05
-1.31271e-05 -1.72424e-05 -0.000270809
-6.67203e-05 -7.5346e-05 -2.45169e-05
-7.5346e-05 0.000273144 1.91127e-05
-2.45169e-05 1.91127e-05 -1.28765e-05
0.00901209 0.000360629 -3.92405e-05
0.000360629 0.0036579 2.68728e-05
-3.92405e-05 2.68728e-05 0.00218214
0.000526295 -0.000171095 -2.2044e-08
-0.000171095 -0.000270321 -2.31455e-07
-2.2044e-08 -2.31455e-07 -0.000394989
0.0059123 0.000157322 1.92513e-05
0.000157322 0.00158173 1.504e-05
1.92513e-05 1.504e-05 0.00075498
0.00366975 -0.000124118 3.98926e-05
-0.000124118 0.000372447 -1.68779e-06
3.98926e-05 -1.68779e-06 -0.000310639
0.00328252 -0.00020614 -5.77979e-06
-0.00020614 0.00114909 2.98602e-06
-5.77979e-06 2.98602e-06 0.000943236
0.0029155 -3.70127e-05 -7.96034e-05
-3.70127e-05 0.00059479 -5.95847e-06
-7.96034e-05 -5.95847e-06 0.000290273
0.000483618 -0.000160667 -7.09945e-06
-0.000160667 -0.000610614 2.17196e-06
-7.09945e-06 2.17196e-06 -0.00055462
0.00158035 -0.000230757 -1.22996e-07
-0.000230757 -0.000168326 6.50672e-07
-1.22996e-07 6.50672e-07 -0.000150481
0.00188826 -0.00015485 -1.40642e-06
-0.00015485 -4.23445e-05 -1.68669e-06
-1.40642e-06 -1.68669e-06 -4.95707e-05
0.00138239 -0.000230274 4.90336e-06
-0.000230274 -0.000120126 1.41017e-06
4.90336e-06 1.41017e-06 -0.000208221
0.00179104 -0.000202177 -2.51769e-07
-0.000202177 2.9558e-05 -3.8724e-07
-2.51769e-07 -3.8724e-07 -3.09521e-05
0.00189518 -0.000130624 -3.02839e-06
-0.000130624 2.86463e-05 5.27596e-07
-3.02839e-06 5.27596e-07 -1.99407e-05
0.0014552 -0.000186612 -1.8936e-06
-0.000186612 -6.30299e-05 2.47546e-06
-1.8936e-06 2.47546e-06 -0.000171737
0.00180392 -0.00016083 2.00431e-07
-0.00016083 6.09389e-05 1.17021e-06
2.00431e-07 1.17021e-06 -2.38183e-05
0.00177022 -0.000124497 9.40745e-07
-0.000124497 7.06207e-05 2.01244e-07
9.40745e-07 2.01244e-07 -9.46172e-06
0.0018407 -0.000170065 3.03676e-06
-0.000170065 0.000164353 3.70278e-06
3.03676e-06 3.70278e-06 5.58776e-05
0.00170864 -0.000138825 -2.90741e-07
-0.000138825 8.89899e-05 6.27158e-07
-2.90741e-07 6.27158e-07 -5.18496e-06
0.00173806 -0.000120506 8.53276e-07
-0.000120506 0.000120341 1.01102e-06
8.53276e-07 1.01102e-06 2.55806e-05
0.00162136 -0.000130574 -2.10669e-06
-0.000130574 9.33655e-05 2.40332e-07
-2.10669e-06 2.40332e-07 -3.71925e-06
0.00168753 -0.000132722 2.35648e-06
-0.000132722 0.000156556 -1.37984e-06
2.35648e-06 -1.37984e-06 4.88653e-05
0.00149543 -0.000140289 7.36332e-07
-0.000140289 3.97566e-05 3.24906e-06
7.36332e-07 3.24906e-06 -6.41587e-05
0.001638 -0.000151742 4.35922e-07
-0.000151742 0.000160131 -4.06781e-07
4.35922e-07 -4.06781e-07 4.23017e-05
0.00159162 -0.000149326 -6.58989e-07
-0.000149326 0.000176498 -1.71267e-06
-6.58989e-07 -1.71267e-06 5.03935e-05
0.00104951 -0.000137423 -4.06161e-06
-0.000137423 -1.87797e-05 1.04003e-06
-4.06161e-06 1.04003e-06 -0.00015678
0.00151131 -0.00016343 1.90026e-07
-0.00016343 0.000189056 -5.19949e-07
1.90026e-07 -5.19949e-07 4.42658e-05
0.0016816 -0.000175262 3.33354e-06
-0.000175262 0.000238465 2.3275e-06
3.33354e-06 2.3275e-06 9.26697e-05
0.00104675 -0.000127303 -2.60417e-06
-0.000127303 9.13534e-05 1.77863e-06
-2.60417e-06 1.77863e-06 -3.03963e-05
0.000922758 -0.000132903 -9.62926e-07
-0.000132903 -5.99555e-06 1.10334e-06
-9.62926e-07 1.10334e-06 -0.000145627
0.00147716 -0.000166798 3.48259e-06
-0.000166798 0.000260957 -1.92531e-06
3.48259e-06 -1.92531e-06 0.000106925
0.000739067 -6.03622e-05 -3.07684e-06
-6.03622e-05 -1.13074e-05 1.9936e-06
-3.07684e-06 1.9936e-06 -9.77554e-05
0.00104726 -0.000121344 1.16372e-07
-0.000121344 0.000128086 -3.082e-07
1.16372e-07 -3.082e-07 1.42317e-05
0.00116147 -0.000139334 1.47479e-06
-0.000139334 0.000175286 -2.10577e-06
1.47479e-06 -2.10577e-06 4.39749e-05
0.000558329 4.03696e-05 -1.81115e-06
4.03696e-05 -7.23814e-05 5.97192e-06
-1.81115e-06 5.97192e-06 -0.000109531
0.000820611 -4.51233e-05 1.69666e-07
-4.51233e-05 4.78624e-05 2.83671e-07
1.69666e-07 2.83671e-07 -3.47516e-05
0.00108075 -0.000108513 1.75518e-06
-0.000108513 0.000166888 -4.5618e-07
1.75518e-06 -4.5618e-07 6.07576e-05
0.00267366 9.24153e-05 -4.10538e-05
9.24153e-05 0.00109298 2.65692e-06
-4.10538e-05 2.65692e-06 0.00109618
0.000608872 5.59122e-05 8.73596e-07
5.59122e-05 -4.03521e-05 -1.43973e-07
8.73596e-07 -1.43973e-07 -7.17218e-05
0.000761051 -3.68735e-05 2.40785e-06
-3.68735e-05 2.43836e-05 -2.68128e-06
2.40785e-06 -2.68128e-06 -4.99722e-05
0.00247229 8.13548e-05 1.07563e-06
8.13548e-05 0.000979152 1.25271e-07
1.07563e-06 1.25271e-07 0.000985516
0.00068419 6.2912e-05 -5.97468e-07
6.2912e-05 -1.36849e-06 -4.87151e-06
-5.97468e-07 -4.87151e-06 -2.6707e-05
0.00233069 7.23135e-05 3.51693e-05
7.23135e-05 0.000896213 -2.8506e-06
3.51693e-05 -2.8506e-06 0.000905388
0.00101505 0.00011626 5.81847e-07
0.00011626 0.000158283 6.12881e-10
5.81847e-07 6.12881e-10 5.27661e-05
0.000849595 7.71232e-05 3.31618e-07
7.71232e-05 7.72962e-05 9.31688e-08
3.31618e-07 9.31688e-08 -1.37863e-05
0.000764748 -2.29457e-05 -4.45487e-07
-2.29457e-05 2.67752e-05 -7.92822e-07
-4.45487e-07 -7.92822e-07 -5.67908e-05
0.000836333 -2.96792e-05 -4.23879e-07
-2.96792e-05 5.98346e-05 9.11343e-07
-4.23879e-07 9.11343e-07 -1.71904e-05
0.000791823 -4.47415e-05 1.90572e-07
-4.47415e-05 3.62788e-05 5.66931e-08
1.90572e-07 5.66931e-08 -3.71257e-05
0.000689271 -4.81657e-05 -6.52607e-07
-4.81657e-05 -1.65689e-05 -2.52325e-06
-6.52607e-07 -2.52325e-06 -6.89107e-05
0.000782159 -5.33987e-05 -1.77314e-07
-5.33987e-05 2.25394e-05 1.60226e-06
-1.77314e-07 1.60226e-06 -4.33228e-05
0.000723323 -5.19253e-05 1.5843e-07
-5.19253e-05 -3.89016e-06 -1.39791e-07
1.5843e-07 -1.39791e-07 -4.95734e-05
0.000694707 -5.15266e-05 -1.59408e-06
-5.15266e-05 -1.20105e-05 -3.95255e-06
-1.59408e-06 -3.95255e-06 -2.88004e-05
0.00224314 -6.38788e-05 -3.04002e-05
-6.38788e-05 0.000836657 -3.15434e-06
-3.04002e-05 -3.15434e-06 0.000848779
0.000682265 -4.25972e-05 -5.22302e-08
-4.25972e-05 -2.77487e-05 2.14175e-08
-5.22302e-08 2.14175e-08 -4.14387e-05
0.000743094 -4.09645e-05 1.6268e-06
-4.09645e-05 -5.76318e-07 1.98322e-06
1.6268e-06 1.98322e-06 -4.19722e-05
0.00224842 -5.69528e-05 -1.59744e-06
-5.69528e-05 0.000830993 1.20845e-07
-1.59744e-06 1.20845e-07 0.000844893
0.00067391 -3.72373e-05 1.12737e-06
-3.72373e-05 -3.92554e-05 3.72497e-06
1.12737e-06 3.72497e-06 -5.10899e-05
0.00222714 -4.9587e-05 2.20674e-05
-4.9587e-05 0.000811894 3.75851e-06
2.20674e-05 3.75851e-06 0.000827535
0.00793106 0.000124234 7.60627e-05
0.000124234 0.00238999 2.37283e-05
7.60627e-05 2.37283e-05 0.00148885
-0.00244516 -0.00014385 -1.65852e-05
-0.00014385 -0.00124693 -2.29557e-06
-1.65852e-05 -2.29557e-06 -0.00123045
-0.00160389 -9.7843e-05 -4.36415e-05
-9.7843e-05 -0.000296331 -7.29499e-06
-4.36415e-05 -7.29499e-06 -0.000829545
0.000820043 -2.25996e-05 3.09533e-07
-2.25996e-05 6.34519e-05 1.20056e-06
3.09533e-07 1.20056e-06 -2.61965e-05
0.000795528 9.68736e-05 -5.97962e-07
9.68736e-05 6.84324e-05 8.871e-08
-5.97962e-07 8.871e-08 -2.94255e-05
0.000992217 8.40927e-05 4.17091e-07
8.40927e-05 0.000178734 -1.22676e-07
4.17091e-07 -1.22676e-07 7.37264e-05
0.00100124 0.000122523 -1.03542e-06
0.000122523 0.000165067 1.2613e-07
-1.03542e-06 1.2613e-07 5.42254e-05
0.0011109 0.000133598 7.73653e-06
0.000133598 0.00021101 6.31415e-07
7.73653e-06 6.31415e-07 8.52634e-05
0.000659493 0.000101524 -6.77973e-07
0.000101524 2.04953e-06 2.63143e-07
-6.77973e-07 2.63143e-07 -0.000111098
0.000441856 5.14708e-05 -7.67233e-07
5.14708e-05 -0.000119598 2.72488e-08
-7.67233e-07 2.72488e-08 -0.000216394
0.000593852 9.87311e-05 4.54933e-07
9.87311e-05 -3.69213e-05 6.2172e-07
4.54933e-07 6.2172e-07 -0.000155869
0.00078401 8.93076e-05 -2.88511e-07
8.93076e-05 3.01755e-05 -1.70729e-07
-2.88511e-07 -1.70729e-07 -7.18458e-05
0.000178241 9.61095e-05 2.09534e-06
9.61095e-05 -0.000327211 -1.09712e-06
2.09534e-06 -1.09712e-06 -0.000449239
0.00321962 0.000281917 8.99747e-07
0.000281917 0.00110717 -2.24286e-06
8.99747e-07 -2.24286e-06 0.000979514
0.00122196 0.000226348 3.66909e-06
0.000226348 -8.6692e-05 -1.8988e-06
3.66909e-06 -1.8988e-06 -0.000229651
0.00141447 0.000204154 1.92236e-06
0.000204154 0.000188495 -1.55027e-06
1.92236e-06 -1.55027e-06 6.63331e-05
0.000821435 6.61159e-05 -4.58957e-06
6.61159e-05 7.98656e-05 2.12003e-06
-4.58957e-06 2.12003e-06 -1.66958e-06
0.00275149 5.8151e-05 -1.03518e-05
5.8151e-05 -9.79316e-05 -3.66784e-06
-1.03518e-05 -3.66784e-06 -0.000387712
0.00599541 -3.02073e-05 1.56481e-05
-3.02073e-05 0.00163924 5.65559e-06
1.56481e-05 5.65559e-06 0.000468856
0.00498041 -0.000574021 -3.30065e-05
-0.000574021 0.00243652 -2.91234e-05
-3.30065e-05 -2.91234e-05 0.00241321
0.007422 -8.41164e-05 0.00023471
-8.41164e-05 0.00247736 6.79984e-05
0.00023471 6.79984e-05 0.000810054
0.00249412 0.000343092 3.65076e-05
0.000343092 0.000263173 4.11583e-05
3.65076e-05 4.11583e-05 7.70276e-05
0.00224908 0.000259687 -6.06552e-05
0.000259687 3.37613e-05 -1.90705e-05
-6.06552e-05 -1.90705e-05 -0.000305407
0.00240235 0.00031088 3.9079e-05
0.00031088 0.000304618 1.98233e-05
3.9079e-05 1.98233e-05 0.000300459
0.00206628 0.000344787 -1.3244e-06
0.000344787 0.000318256 5.5014e-06
-1.3244e-06 5.5014e-06 0.000182624
0.00028933 0.000161361 -2.32567e-06
0.000161361 -0.000272374 5.44093e-06
-2.32567e-06 5.44093e-06 -0.000410722
0.00220562 0.000375954 -7.40872e-05
0.000375954 0.000300649 -4.60867e-05
-7.40872e-05 -4.60867e-05 0.000225359
0.00317702 -0.000122972 -0.000144481
-0.000122972 0.000658809 1.24616e-07
-0.000144481 1.24616e-07 0.000258231
0.00793944 -3.57694e-05 1.56995e-05
-3.57694e-05 0.00264081 -9.52221e-07
1.56995e-05 -9.52221e-07 0.00200422
-0.00567526 -0.000112739 7.40246e-05
-0.000112739 -0.00293451 2.67436e-06
7.40246e-05 2.67436e-06 -0.00282046
0.00128922 -0.000196021 -1.95177e-06
-0.000196021 9.03976e-05 5.80822e-06
-1.95177e-06 5.80822e-06 -1.75637e-05
0.00523874 -0.000173123 8.49984e-05
-0.000173123 0.00119809 1.01755e-06
8.49984e-05 1.01755e-06 0.000564267
0.000272734 -0.000251093 7.08625e-05
-0.000251093 -0.00109909 2.89179e-05
7.08625e-05 2.89179e-05 -0.00184687
0.00126286 -0.000129957 5.16404e-06
-0.000129957 0.000116636 -1.37401e-06
5.16404e-06 -1.37401e-06 -1.82125e-05
0.00165429 3.60512e-05 -3.74526e-06
3.60512e-05 -0.000170537 1.98357e-06
-3.74526e-06 1.98357e-06 -0.000454884
0.00461414 -0.000125054 3.99283e-06
-0.000125054 0.00160115 -2.21873e-06
3.99283e-06 -2.21873e-06 0.0015204
0.00176536 1.86733e-05 3.16465e-05
1.86733e-05 3.94917e-05 -3.10835e-06
3.16465e-05 -3.10835e-06 -4.16348e-05
0.00128463 -0.000233748 -1.39819e-06
-0.000233748 -0.000293499 2.61268e-06
-1.39819e-06 2.61268e-06 -0.000303307
0.00192689 -0.000162255 -9.61917e-07
-0.000162255 -1.81084e-05 7.30502e-07
-9.61917e-07 7.30502e-07 -3.19459e-05
0.00193027 -5.78102e-05 2.37673e-06
-5.78102e-05 3.57798e-05 -8.37652e-07
2.37673e-06 -8.37652e-07 4.36974e-06
0.00155745 -0.000185753 4.9105e-06
-0.000185753 -6.89435e-05 -2.7544e-07
4.9105e-06 -2.7544e-07 -0.000129782
0.00189809 -0.000131339 1.76428e-06
-0.000131339 3.79542e-05 1.98624e-07
1.76428e-06 1.98624e-07 -1.4163e-05
0.00178665 -7.01191e-05 1.74461e-06
-7.01191e-05 5.4349e-05 7.13293e-07
1.74461e-06 7.13293e-07 -9.43943e-06
0.00170903 -0.000155528 4.71906e-06
-0.000155528 1.03075e-05 2.92153e-06
4.71906e-06 2.92153e-06 -7.42428e-05
0.00178382 -0.00012186 9.23691e-07
-0.00012186 8.73225e-05 3.3548e-07
9.23691e-07 3.3548e-07 6.57994e-06
0.00180233 -9.11797e-05 7.46027e-07
-9.11797e-05 0.000136671 2.82889e-07
7.46027e-07 2.82889e-07 4.75555e-05
0.00175572 -0.000140876 1.16709e-08
-0.000140876 0.000116063 1.62998e-06
1.16709e-08 1.62998e-06 2.08848e-05
0.00169882 -0.00012169 2.20406e-07
-0.00012169 0.000103239 1.40235e-07
2.20406e-07 1.40235e-07 8.3841e-06
0.00158229 -0.000112069 2.94752e-06
-0.000112069 7.4482e-05 8.33844e-07
2.94752e-06 8.33844e-07 -3.01405e-05
0.00143008 -0.000125149 -1.81284e-06
-0.000125149 -5.49576e-06 1.49684e-07
-1.81284e-06 1.49684e-07 -0.000100342
0.00159571 -0.000129134 -1.15074e-06
-0.000129134 0.000105058 -7.82048e-07
-1.15074e-06 -7.82048e-07 -7.41003e-07
0.0017457 -0.000135086 7.27566e-07
-0.000135086 0.000220683 -8.78473e-07
7.27566e-07 -8.78473e-07 0.000102811
0.0015972 -0.000149628 5.8723e-07
-0.000149628 0.000136522 2.37847e-06
5.8723e-07 2.37847e-06 1.90505e-05
0.00157964 -0.000147994 5.59225e-07
-0.000147994 0.000169389 -6.46136e-07
5.59225e-07 -6.46136e-07 4.31232e-05
0.00157816 -0.000145741 -2.27904e-06
-0.000145741 0.0002084 -2.43482e-07
-2.27904e-06 -2.43482e-07 8.15652e-05
0.000801827 -0.000115991 -5.16652e-06
-0.000115991 -0.000103466 2.1111e-06
-5.16652e-06 2.1111e-06 -0.000227358
0.00114475 -0.000140374 -7.53829e-07
-0.000140374 3.72789e-05 4.25495e-07
-7.53829e-07 4.25495e-07 -0.000100119
0.00148681 -0.000161186 3.16797e-06
-0.000161186 0.000176808 -4.05013e-08
3.16797e-06 -4.05013e-08 3.14597e-05
0.000836086 -8.5886e-05 -4.02056e-06
-8.5886e-05 1.69608e-05 2.62037e-06
-4.02056e-06 2.62037e-06 -7.68477e-05
0.00108574 -0.000128895 2.62231e-07
-0.000128895 0.000110122 1.30073e-07
2.62231e-07 1.30073e-07 -1.1508e-05
0.00105096 -0.000138424 1.04625e-06
-0.000138424 6.54025e-05 -5.79189e-07
1.04625e-06 -5.79189e-07 -7.32628e-05
0.000577961 1.76453e-05 -4.87969e-06
1.76453e-05 -6.58419e-05 6.1245e-06
-4.87969e-06 6.1245e-06 -0.000109377
0.000860338 -6.72607e-05 1.00843e-07
-6.72607e-05 5.43187e-05 -7.90103e-08
1.00843e-07 -7.90103e-08 -3.3372e-05
0.00113774 -0.000127089 2.31281e-06
-0.000127089 0.000174863 -1.52952e-06
2.31281e-06 -1.52952e-06 6.03097e-05
0.00300733 0.000104877 -4.99845e-05
0.000104877 0.00127634 2.67505e-06
-4.99845e-05 2.67505e-06 0.00127574
0.000620331 3.23937e-05 2.84225e-07
3.23937e-05 -4.03733e-05 -1.63137e-07
2.84225e-07 -1.63137e-07 -7.77354e-05
0.000859476 -5.04703e-05 3.52568e-06
-5.04703e-05 6.6983e-05 -2.18881e-06
3.52568e-06 -2.18881e-06 -1.55363e-05
0.00275527 9.16665e-05 1.34276e-06
9.16665e-05 0.00113615 1.45211e-07
1.34276e-06 1.45211e-07 0.00113923
0.00066218 5.08028e-05 2.13023e-06
5.08028e-05 -1.19604e-05 -5.29698e-06
2.13023e-06 -5.29698e-06 -4.34694e-05
0.00255715 8.09385e-05 4.27018e-05
8.09385e-05 0.00102454 -2.84362e-06
4.27018e-05 -2.84362e-06 0.00103082
0.00108374 0.000127455 -2.79607e-07
0.000127455 0.000183074 -2.17078e-06
-2.79607e-07 -2.17078e-06 6.46221e-05
0.00106028 0.000119071 3.25384e-07
0.000119071 0.000182899 1.93062e-07
3.25384e-07 1.93062e-07 7.76631e-05
0.000925859 5.77222e-05 -1.23819e-06
5.77222e-05 0.000106623 -7.98387e-07
-1.23819e-06 -7.98387e-07 1.26311e-05
0.00080855 9.72937e-05 9.89589e-09
9.72937e-05 5.97138e-05 5.30768e-08
9.89589e-09 5.30768e-08 -3.41486e-05
0.00075794 -4.74434e-06 -4.50868e-07
-4.74434e-06 2.37862e-05 -1.4496e-07
-4.50868e-07 -1.4496e-07 -6.1445e-05
0.000706538 2.57882e-06 -1.97058e-06
2.57882e-06 -4.21591e-06 -2.11837e-06
-1.97058e-06 -2.11837e-06 -6.76348e-05
0.000769809 -5.97843e-05 -1.67614e-07
-5.97843e-05 2.5984e-05 1.30778e-06
-1.67614e-07 1.30778e-06 -4.9187e-05
0.000709565 -4.79161e-05 2.23196e-07
-4.79161e-05 -4.9463e-06 -3.38779e-07
2.23196e-07 -3.38779e-07 -5.76553e-05
0.000675302 -6.25502e-05 -1.32543e-07
-6.25502e-05 -1.11226e-05 -4.5258e-06
-1.32543e-07 -4.5258e-06 -3.33258e-05
0.000731845 -5.64161e-05 7.62169e-07
-5.64161e-05 8.19066e-07 2.24784e-06
7.62169e-07 2.24784e-06 -4.52188e-05
0.000672068 -4.88674e-05 1.58689e-07
-4.88674e-05 -2.4881e-05 -1.82248e-08
1.58689e-07 -1.82248e-08 -4.11772e-05
0.00229153 -7.12844e-05 -3.38971e-05
-7.12844e-05 0.000871121 -2.82738e-06
-3.38971e-05 -2.82738e-06 0.000881121
0.00225213 -6.38527e-05 -9.75679e-07
-6.38527e-05 0.000840539 1.12763e-07
-9.75679e-07 1.12763e-07 0.000852733
0.000665718 -4.14597e-05 1.812e-06
-4.14597e-05 -3.65882e-05 3.78543e-06
1.812e-06 3.78543e-06 -5.01658e-05
0.00225282 -5.69288e-05 2.57e-05
-5.69288e-05 0.000832659 3.56059e-06
2.57e-05 3.56059e-06 0.000846596
0.00201935 -2.4926e-05 -5.77983e-05
-2.4926e-05 -6.07091e-05 7.52472e-06
-5.77983e-05 7.52472e-06 -0.000329146
0.00211423 -0.000148041 1.31382e-05
-0.000148041 -0.00042321 4.27143e-06
1.31382e-05 4.27143e-06 -0.00122423
0.00359701 -0.000345004 -4.71499e-05
-0.000345004 0.00154206 -1.75277e-05
-4.71499e-05 -1.75277e-05 0.00165537
0.00129176 0.000150159 7.59797e-06
0.000150159 0.000246667 1.44283e-06
7.59797e-06 1.44283e-06 0.000109606
0.00109703 8.70769e-05 2.82609e-07
8.70769e-05 0.000235019 7.55418e-08
2.82609e-07 7.55418e-08 0.000130072
0.000889295 0.000115559 -1.03126e-06
0.000115559 0.000106328 5.93711e-07
-1.03126e-06 5.93711e-07 -3.35794e-06
0.000859705 0.000114329 3.1769e-07
0.000114329 0.000107955 6.62924e-07
3.1769e-07 6.62924e-07 -7.59919e-06
0.00100862 0.00012839 -2.639e-07
0.00012839 0.000159569 -1.56166e-06
-2.639e-07 -1.56166e-06 3.31427e-05
0.000686127 0.000114238 -2.97515e-07
0.000114238 -3.5127e-05 6.9184e-09
-2.97515e-07 6.9184e-09 -0.000151771
0.000972237 0.000124271 -8.41898e-07
0.000124271 0.000156954 -4.94158e-07
-8.41898e-07 -4.94158e-07 3.16981e-05
0.000897184 8.19311e-05 -2.88482e-06
8.19311e-05 9.19674e-05 2.96701e-06
-2.88482e-06 2.96701e-06 -1.31503e-05
0.000924905 0.000138567 3.04504e-07
0.000138567 6.15631e-05 -1.28476e-08
3.04504e-07 -1.28476e-08 -6.08203e-05
0.00246 0.000241688 6.49857e-07
0.000241688 0.000726921 3.67165e-06
6.49857e-07 3.67165e-06 0.000600812
0.00172678 0.00022612 1.38637e-07
0.00022612 0.000190575 -2.23626e-06
1.38637e-07 -2.23626e-06 4.56047e-05
0.00169615 0.000207324 1.05725e-05
0.000207324 5.12888e-05 9.24329e-06
1.05725e-05 9.24329e-06 -7.64767e-05
0.00115813 0.000224896 -9.67317e-07
0.000224896 -0.000126359 -1.48932e-06
-9.67317e-07 -1.48932e-06 -0.000273476
0.000996876 0.000177991 -1.20779e-06
0.000177991 -2.21495e-05 6.38405e-06
-1.20779e-06 6.38405e-06 -0.000138875
0.000328429 0.000109178 1.15063e-06
0.000109178 -0.00041325 8.30681e-07
1.15063e-06 8.30681e-07 -0.000417481
0.00455145 0.000117327 -1.73516e-05
0.000117327 0.000625134 1.21826e-06
-1.73516e-05 1.21826e-06 0.000251412
0.000350958 -9.83952e-05 2.88417e-05
-9.83952e-05 -0.00109324 1.13528e-05
2.88417e-05 1.13528e-05 -0.00219734
0.00267267 0.000329981 6.11243e-05
0.000329981 0.000135011 1.79014e-05
6.11243e-05 1.79014e-05 -0.000366066
0.00147345 0.000245947 -1.50169e-05
0.000245947 1.35965e-06 -1.39602e-06
-1.50169e-05 -1.39602e-06 -2.38369e-05
0.000660265 0.000252535 -2.34262e-05
0.000252535 -0.00031263 -1.55213e-05
-2.34262e-05 -1.55213e-05 -0.000452577
0.00243577 -9.47312e-05 1.44182e-05
-9.47312e-05 0.000365449 -9.56145e-07
1.44182e-05 -9.56145e-07 0.000262935
0.00121704 -3.02904e-06 -2.13659e-05
-3.02904e-06 -0.000184459 8.74606e-07
-2.13659e-05 8.74606e-07 -0.000511556
0.000177874 0.000224541 5.70435e-05
0.000224541 -0.00146727 -1.68115e-05
5.70435e-05 -1.68115e-05 -0.00211121
-0.000572656 -7.55335e-05 1.99464e-06
-7.55335e-05 -0.000847818 8.74612e-06
1.99464e-06 8.74612e-06 -0.000898913
0.00286418 4.86006e-05 2.47744e-05
4.86006e-05 0.000295391 6.63075e-06
2.47744e-05 6.63075e-06 -4.68394e-05
0.00171552 -7.14356e-05 2.18546e-07
-7.14356e-05 6.66393e-05 -1.00777e-06
2.18546e-07 -1.00777e-06 2.42603e-05
0.00204014 1.69882e-05 -2.67588e-07
1.69882e-05 0.000181434 -9.15272e-07
-2.67588e-07 -9.15272e-07 0.000100629
0.00150569 -9.07884e-06 9.11988e-06
-9.07884e-06 -0.000154962 -2.13922e-06
9.11988e-06 -2.13922e-06 -0.00021617
0.00252956 -7.72019e-07 4.35368e-06
-7.72019e-07 0.000460827 -1.22818e-06
4.35368e-06 -1.22818e-06 0.000392638
0.00187165 -0.000165383 -5.57782e-07
-0.000165383 -3.75997e-05 1.86177e-07
-5.57782e-07 1.86177e-07 -5.89821e-05
0.00193642 -6.45477e-05 3.01057e-06
-6.45477e-05 2.59965e-05 -1.31531e-07
3.01057e-06 -1.31531e-07 -9.71193e-06
0.00180492 -6.49902e-05 2.08283e-09
-6.49902e-05 7.34836e-05 -6.15748e-08
2.08283e-09 -6.15748e-08 1.1492e-05
0.00190147 -0.000133084 3.60768e-06
-0.000133084 4.75969e-05 1.02023e-06
3.60768e-06 1.02023e-06 -8.5292e-06
0.0018252 -8.23325e-05 5.54858e-07
-8.23325e-05 7.0334e-05 1.23469e-07
5.54858e-07 1.23469e-07 3.80774e-06
0.00177392 -7.53648e-05 2.25913e-06
-7.53648e-05 0.000118896 2.61958e-07
2.25913e-06 2.61958e-07 3.42337e-05
0.00180988 -0.000120299 -8.92471e-07
-0.000120299 0.000110476 1.03277e-06
-8.92471e-07 1.03277e-06 2.90169e-05
0.0017664 -9.62388e-05 -1.18163e-06
-9.62388e-05 0.00011882 -9.78662e-08
-1.18163e-06 -9.78662e-08 2.89248e-05
0.00162006 -8.76865e-05 7.88766e-07
-8.76865e-05 7.95979e-05 3.80155e-07
7.88766e-07 3.80155e-07 -2.4999e-05
0.00166423 -0.000123084 -1.39539e-06
-0.000123084 8.8679e-05 -5.33355e-07
-1.39539e-06 -5.33355e-07 -6.29955e-06
0.00163456 -0.000113442 7.17175e-07
-0.000113442 0.00010142 1.89927e-07
7.17175e-07 1.89927e-07 -3.26215e-06
0.00159181 -0.000114676 7.88941e-07
-0.000114676 0.000108017 6.42191e-08
7.88941e-07 6.42191e-08 -5.86994e-06
0.00151504 -0.000125922 -3.72884e-06
-0.000125922 5.93879e-05 4.73549e-07
-3.72884e-06 4.73549e-07 -4.45538e-05
0.00158128 -0.000128485 -1.58638e-07
-0.000128485 0.000130962 -4.90623e-07
-1.58638e-07 -4.90623e-07 1.44901e-05
0.00148153 -0.000124756 -2.03527e-06
-0.000124756 0.000116379 1.51863e-07
-2.03527e-06 1.51863e-07 -4.96485e-06
0.00156632 -0.000146615 1.94939e-06
-0.000146615 0.000161589 7.99103e-07
1.94939e-06 7.99103e-07 3.51639e-05
0.00138761 -0.00013765 5.88956e-07
-0.00013765 0.000105945 -4.20529e-07
5.88956e-07 -4.20529e-07 -2.1215e-05
0.0013347 -0.000128764 -4.92775e-06
-0.000128764 0.000127186 1.36803e-06
-4.92775e-06 1.36803e-06 7.46685e-06
0.000943583 -9.9104e-05 -5.57443e-06
-9.9104e-05 3.26026e-05 3.12907e-06
-5.57443e-06 3.12907e-06 -6.5675e-05
0.00093602 -0.00012146 -1.19698e-06
-0.00012146 -2.81395e-05 7.49346e-07
-1.19698e-06 7.49346e-07 -0.000151375
0.00122423 -0.000142379 2.36544e-06
-0.000142379 8.5114e-05 -1.217e-07
2.36544e-06 -1.217e-07 -5.16064e-05
0.0005891 -4.42831e-05 -7.80045e-06
-4.42831e-05 -6.33628e-05 6.99097e-06
-7.80045e-06 6.99097e-06 -0.000114986
0.000897198 -9.04378e-05 2.5789e-07
-9.04378e-05 4.96023e-05 -2.54151e-08
2.5789e-07 -2.54151e-08 -4.49652e-05
0.00112484 -0.000130645 3.11549e-06
-0.000130645 0.00012888 -1.50301e-06
3.11549e-06 -1.50301e-06 7.35283e-06
0.00327928 0.000116785 -5.93861e-05
0.000116785 0.0014309 2.72244e-06
-5.93861e-05 2.72244e-06 0.00142584
0.000652844 -1.28896e-05 -1.35385e-07
-1.28896e-05 -2.98193e-05 -1.49531e-07
-1.35385e-07 -1.49531e-07 -7.36424e-05
0.000944922 -7.43124e-05 4.18139e-06
-7.43124e-05 0.00010001 -2.47905e-06
4.18139e-06 -2.47905e-06 1.12844e-05
0.00306205 0.000101694 1.68986e-06
0.000101694 0.0013058 2.17663e-07
1.68986e-06 2.17663e-07 0.0013053
0.000675499 1.5911e-05 5.72702e-06
1.5911e-05 -1.26968e-05 -5.51952e-06
5.72702e-06 -5.51952e-06 -4.96767e-05
0.00284604 8.90618e-05 5.28858e-05
8.90618e-05 0.00118402 -3.04273e-06
5.28858e-05 -3.04273e-06 0.0011873
0.000884404 0.000124338 -7.52116e-07
0.000124338 3.59734e-05 -1.8247e-06
-7.52116e-07 -1.8247e-06 -9.44391e-05
0.00100491 0.000122333 -4.21738e-08
0.000122333 0.000141442 -9.86185e-07
-4.21738e-08 -9.86185e-07 2.37924e-05
0.0011072 0.000114393 -8.87909e-07
0.000114393 0.000190557 -9.58131e-07
-8.87909e-07 -9.58131e-07 8.61802e-05
0.00111081 0.000122313 -5.11155e-07
0.000122313 0.000210121 -2.08604e-07
-5.11155e-07 -2.08604e-07 0.000105137
0.000902956 6.05088e-05 -9.45096e-07
6.05088e-05 9.37721e-05 -5.24951e-07
-9.45096e-07 -5.24951e-07 7.52641e-07
0.000775308 2.20314e-05 -2.09493e-06
2.20314e-05 3.2444e-05 -1.76162e-06
-2.09493e-06 -1.76162e-06 -4.19441e-05
0.000751524 1.52117e-05 -9.46449e-08
1.52117e-05 2.00184e-05 1.4144e-07
-9.46449e-08 1.4144e-07 -6.61764e-05
0.00072477 -3.30721e-05 -4.19568e-07
-3.30721e-05 6.27384e-06 -3.64337e-08
-4.19568e-07 -3.64337e-08 -5.65836e-05
0.000637523 -7.18186e-05 5.72731e-07
-7.18186e-05 -2.09508e-05 -4.99914e-06
5.72731e-07 -4.99914e-06 -5.07103e-05
0.000728373 -5.84462e-05 5.1283e-07
-5.84462e-05 6.77506e-06 2.48582e-06
5.1283e-07 2.48582e-06 -4.67171e-05
0.000650792 -5.9089e-05 1.96125e-07
-5.9089e-05 -2.56144e-05 -1.17923e-07
1.96125e-07 -1.17923e-07 -4.68708e-05
0.00240696 -7.91825e-05 -3.89647e-05
-7.91825e-05 0.000940857 -2.57864e-06
-3.89647e-05 -2.57864e-06 0.000948419
0.000659677 -4.69901e-05 2.2441e-06
-4.69901e-05 -3.20717e-05 3.82072e-06
2.2441e-06 3.82072e-06 -4.79988e-05
0.00227248 -7.1065e-05 -5.49624e-07
-7.1065e-05 0.000859739 1.01382e-07
-5.49624e-07 1.01382e-07 0.000869914
0.00225543 -6.36063e-05 2.93697e-05
-6.36063e-05 0.000841466 3.29741e-06
2.93697e-05 3.29741e-06 0.000853758
0.000408761 6.14666e-06 4.83782e-06
6.14666e-06 -0.000472991 8.01326e-07
4.83782e-06 8.01326e-07 -0.000507744
0.00357089 -3.06179e-06 1.03746e-06
-3.06179e-06 0.000460175 1.05857e-05
1.03746e-06 1.05857e-05 8.08759e-05
0.00599396 0.000205023 -8.34687e-05
0.000205023 0.00174002 -1.93734e-05
-8.34687e-05 -1.93734e-05 0.000832257
0.000693251 0.000114495 2.59093e-06
0.000114495 -9.83409e-05 4.49206e-07
2.59093e-06 4.49206e-07 -0.000227442
0.0014256 0.000162914 2.86029e-06
0.000162914 0.000164728 -2.58464e-06
2.86029e-06 -2.58464e-06 2.06323e-05
0.000862951 0.000128353 -5.70073e-08
0.000128353 2.7367e-05 -9.33452e-07
-5.70073e-08 -9.33452e-07 -0.000107506
0.00103814 0.00012576 -1.21434e-06
0.00012576 0.000201681 -6.32082e-07
-1.21434e-06 -6.32082e-07 8.3972e-05
0.00093466 0.000124709 -1.0169e-06
0.000124709 0.000122619 -7.87847e-07
-1.0169e-06 -7.87847e-07 -4.58782e-06
0.000994609 0.00013523 3.51514e-06
0.00013523 0.000113483 1.31472e-06
3.51514e-06 1.31472e-06 -7.46218e-06
0.00191836 0.000214451 -4.3292e-06
0.000214451 0.000327701 -5.06171e-06
-4.3292e-06 -5.06171e-06 0.000191711
0.00155211 0.000174252 -1.14003e-07
0.000174252 0.000390486 1.63291e-06
-1.14003e-07 1.63291e-06 0.000268077
0.000979187 0.000164395 -2.45575e-06
0.000164395 -2.04221e-05 9.41083e-06
-2.45575e-06 9.41083e-06 -0.000142711
0.00168946 0.000222092 -1.53135e-06
0.000222092 0.000188496 5.53823e-07
-1.53135e-06 5.53823e-07 4.60963e-05
0.00210803 0.000224541 -6.13907e-06
0.000224541 0.00026538 1.36741e-06
-6.13907e-06 1.36741e-06 0.000128091
0.00134948 8.02294e-05 1.38495e-05
8.02294e-05 -0.000188948 3.73024e-06
1.38495e-05 3.73024e-06 -0.000270505
0.00179147 0.000204875 7.35527e-06
0.000204875 0.000103764 2.93329e-06
7.35527e-06 2.93329e-06 -2.39843e-05
0.00139622 0.000233638 -5.18241e-06
0.000233638 -1.29752e-05 -3.84261e-07
-5.18241e-06 -3.84261e-07 -0.000163301
0.000910504 9.9443e-05 -2.77343e-06
9.9443e-05 -0.000123764 1.96843e-07
-2.77343e-06 1.96843e-07 -0.000135068
0.00461082 -2.03803e-06 4.6252e-05
-2.03803e-06 0.000533944 1.28802e-05
4.6252e-05 1.28802e-05 0.00013401
0.00126226 0.000209394 3.24693e-06
0.000209394 2.74737e-05 -8.00311e-06
3.24693e-06 -8.00311e-06 -5.80012e-06
0.00163824 -2.41681e-05 9.23783e-06
-2.41681e-05 6.14479e-05 -5.81603e-08
9.23783e-06 -5.81603e-08 3.48565e-07
0.00202936 -5.01565e-05 -2.73979e-06
-5.01565e-05 0.00019652 4.45055e-08
-2.73979e-06 4.45055e-08 8.67383e-05
0.00140785 9.96398e-05 5.59365e-05
9.96398e-05 -0.000316911 -3.45675e-06
5.59365e-05 -3.45675e-06 -0.000702423
-0.00110846 -2.74476e-05 -1.0982e-05
-2.74476e-05 -0.00141214 6.13707e-06
-1.0982e-05 6.13707e-06 -0.00141819
0.00254205 1.2972e-05 -4.23208e-05
1.2972e-05 0.000445611 5.14155e-06
-4.23208e-05 5.14155e-06 0.000374396
0.00135346 -3.27008e-05 5.78026e-07
-3.27008e-05 -0.000260373 2.25227e-06
5.78026e-07 2.25227e-06 -0.000311142
0.002244 -1.43462e-05 1.76321e-07
-1.43462e-05 0.000270843 2.89444e-07
1.76321e-07 2.89444e-07 0.000202432
0.00190566 -7.02179e-05 1.33295e-06
-7.02179e-05 7.61305e-05 8.91844e-07
1.33295e-06 8.91844e-07 1.06062e-05
0.00153195 -2.76674e-05 8.89279e-07
-2.76674e-05 -0.000123225 -4.57325e-07
8.89279e-07 -4.57325e-07 -0.000195287
0.00198907 -7.17553e-05 4.15821e-06
-7.17553e-05 3.84808e-05 9.68555e-07
4.15821e-06 9.68555e-07 2.77243e-07
0.00181113 -6.46631e-05 -1.70845e-06
-6.46631e-05 7.3875e-05 -9.06485e-08
-1.70845e-06 -9.06485e-08 1.31066e-05
0.001798 -6.9182e-05 2.34534e-06
-6.9182e-05 0.00010088 3.82923e-07
2.34534e-06 3.82923e-07 1.81679e-05
0.00187209 -9.22797e-05 -2.10762e-06
-9.22797e-05 9.20301e-05 -1.71648e-08
-2.10762e-06 -1.71648e-08 2.32513e-05
0.00175058 -7.4711e-05 -5.24643e-07
-7.4711e-05 0.000107667 -1.55145e-07
-5.24643e-07 -1.55145e-07 2.1651e-05
0.00168925 -6.63312e-05 9.89558e-07
-6.63312e-05 9.46784e-05 3.84327e-07
9.89558e-07 3.84327e-07 -6.84127e-06
0.00173204 -0.000100794 -4.51052e-06
-0.000100794 0.00010182 -7.41469e-08
-4.51052e-06 -7.41469e-08 1.1184e-05
0.00165153 -8.77342e-05 1.53635e-07
-8.77342e-05 9.58757e-05 -2.92645e-08
1.53635e-07 -2.92645e-08 -8.62903e-06
0.00163007 -9.05922e-05 -2.00667e-07
-9.05922e-05 0.000109556 1.04643e-07
-2.00667e-07 1.04643e-07 -2.83128e-06
0.00168691 -0.000114816 -1.38324e-06
-0.000114816 0.000128393 -4.54422e-07
-1.38324e-06 -4.54422e-07 2.36537e-05
0.00158343 -0.000113655 2.24746e-07
-0.000113655 0.000103391 6.45718e-08
2.24746e-07 6.45718e-08 -1.04407e-05
0.0015118 -0.000113239 -1.74658e-06
-0.000113239 0.000103317 3.80394e-07
-1.74658e-06 3.80394e-07 -1.50452e-05
0.00141902 -0.000122023 -3.57957e-07
-0.000122023 4.22667e-05 1.94691e-07
-3.57957e-07 1.94691e-07 -7.27999e-05
0.00135507 -0.00012029 -1.71021e-07
-0.00012029 4.94542e-05 -1.54431e-07
-1.71021e-07 -1.54431e-07 -7.15645e-05
0.00132462 -0.000116061 -4.90497e-06
-0.000116061 8.57059e-05 1.36569e-06
-4.90497e-06 1.36569e-06 -3.06732e-05
0.00119776 -0.000129665 3.29651e-06
-0.000129665 3.9735e-06 -3.46139e-07
3.29651e-06 -3.46139e-07 -0.000123542
0.00110472 -0.000118427 2.4059e-07
-0.000118427 4.99991e-06 -3.8069e-08
2.4059e-07 -3.8069e-08 -0.00011455
0.00101607 -9.93e-05 -7.28797e-06
-9.93e-05 2.6881e-05 3.31775e-06
-7.28797e-06 3.31775e-06 -7.08087e-05
0.000506965 -7.26576e-05 -1.02752e-05
-7.26576e-05 -0.000119185 7.73893e-06
-1.02752e-05 7.73893e-06 -0.00017568
0.000957289 -0.000101029 3.16018e-07
-0.000101029 4.0149e-05 1.21985e-07
3.16018e-07 1.21985e-07 -5.84516e-05
0.00107764 -0.000127444 2.44575e-06
-0.000127444 5.11914e-05 -4.34991e-07
2.44575e-06 -4.34991e-07 -7.14557e-05
0.00353003 0.000131975 -6.4557e-05
0.000131975 0.00158082 2.87255e-06
-6.4557e-05 2.87255e-06 0.00156991
0.000670866 -3.87337e-05 -2.2464e-07
-3.87337e-05 -2.34725e-05 1.41285e-08
-2.2464e-07 1.41285e-08 -7.5745e-05
0.000982079 -9.41713e-05 4.76703e-06
-9.41713e-05 9.55014e-05 -2.62909e-06
4.76703e-06 -2.62909e-06 -5.80997e-08
0.00334906 0.000114069 2.44464e-06
0.000114069 0.00146995 3.136e-07
2.44464e-06 3.136e-07 0.00146473
0.000739861 -1.52729e-05 7.60432e-06
-1.52729e-05 1.35815e-05 -6.08175e-06
7.60432e-06 -6.08175e-06 -3.0453e-05
0.00313053 9.80244e-05 6.25144e-05
9.80244e-05 0.0013423 -3.07347e-06
6.25144e-05 -3.07347e-06 0.00134199
0.000617541 0.000119105 -1.6698e-06
0.000119105 -0.000194025 -1.19789e-06
-1.6698e-06 -1.19789e-06 -0.000334541
0.000687303 0.000113868 -1.24648e-07
0.000113868 -7.15752e-05 -1.14835e-07
-1.24648e-07 -1.14835e-07 -0.000202849
0.00113072 0.000125134 -2.13846e-06
0.000125134 0.000168967 -1.30616e-06
-2.13846e-06 -1.30616e-06 5.27062e-05
0.000917572 0.000116692 -4.42326e-07
0.000116692 9.52085e-05 -6.19502e-08
-4.42326e-07 -6.19502e-08 -2.15647e-05
0.000984558 0.00010645 -2.53176e-07
0.00010645 0.000126201 -3.62762e-07
-2.53176e-07 -3.62762e-07 2.28832e-05
0.000906963 5.21517e-05 -3.13618e-06
5.21517e-05 9.88769e-05 -1.75212e-06
-3.13618e-06 -1.75212e-06 1.55395e-05
0.000875392 6.19957e-05 -5.94383e-08
6.19957e-05 7.87697e-05 -5.49887e-07
-5.94383e-08 -5.49887e-07 -1.34459e-05
0.000763417 7.14677e-06 -2.29621e-08
7.14677e-06 2.91692e-05 1.0074e-07
-2.29621e-08 1.0074e-07 -4.59096e-05
0.000639923 -4.89048e-05 -3.16482e-06
-4.89048e-05 -2.17956e-05 -4.91988e-06
-3.16482e-06 -4.91988e-06 -5.63589e-05
0.000740618 -5.60824e-05 4.75041e-07
-5.60824e-05 1.69567e-05 2.64373e-06
4.75041e-07 2.64373e-06 -4.65571e-05
0.000607827 -7.03726e-05 -5.56967e-08
-7.03726e-05 -3.8316e-05 -1.62279e-07
-5.56967e-08 -1.62279e-07 -6.73531e-05
0.00259688 -8.80418e-05 -4.55179e-05
-8.80418e-05 0.00104909 -2.50196e-06
-4.55179e-05 -2.50196e-06 0.00105374
0.000624512 -5.49096e-05 2.09386e-06
-5.49096e-05 -4.12423e-05 3.96251e-06
2.09386e-06 3.96251e-06 -6.14672e-05
0.00236767 -7.92952e-05 -6.08536e-07
-7.92952e-05 0.000919148 9.59959e-08
-6.08536e-07 9.59959e-08 0.000926831
0.00226904 -7.07351e-05 3.21221e-05
-7.07351e-05 0.00085686 2.98735e-06
3.21221e-05 2.98735e-06 0.000867219
0.00137609 2.1213e-05 1.19234e-05
2.1213e-05 -0.000162972 1.32925e-06
1.19234e-05 1.32925e-06 -0.000226191
0.00121501 -2.59417e-05 -2.38864e-06
-2.59417e-05 -0.000143044 3.52396e-06
-2.38864e-06 3.52396e-06 -0.000200847
0.00268483 -4.99655e-05 7.16851e-05
-4.99655e-05 3.02993e-05 7.42234e-06
7.16851e-05 7.42234e-06 -0.000276181
0.00176393 0.000177042 3.94146e-07
0.000177042 0.000269037 -3.73055e-06
3.94146e-07 -3.73055e-06 0.000133495
0.00075531 0.000121283 -1.21487e-06
0.000121283 -4.86175e-05 1.50267e-06
-1.21487e-06 1.50267e-06 -0.000170238
0.00123472 0.000147209 -2.82378e-06
0.000147209 -4.52211e-05 1.67278e-06
-2.82378e-06 1.67278e-06 -0.000174465
0.00158266 0.000171332 5.83135e-07
0.000171332 0.000243239 1.69024e-07
5.83135e-07 1.69024e-07 9.84377e-05
0.000439241 0.000106571 -3.25366e-06
0.000106571 -0.000188612 2.31384e-06
-3.25366e-06 2.31384e-06 -0.000321367
0.00182078 0.000181682 -4.72839e-06
0.000181682 0.000123025 1.1859e-07
-4.72839e-06 1.1859e-07 -3.56207e-06
0.00127803 0.00015481 -9.36982e-07
0.00015481 0.000249228 8.00237e-07
-9.36982e-07 8.00237e-07 0.000124195
0.0017776 0.000205835 4.8241e-07
0.000205835 0.000247203 -2.16765e-06
4.8241e-07 -2.16765e-06 0.000108304
0.00180113 0.000118532 -1.55453e-06
0.000118532 8.51305e-05 1.52267e-06
-1.55453e-06 1.52267e-06 -2.09153e-05
0.00181386 0.000227773 2.69354e-06
0.000227773 0.00026916 3.87354e-06
2.69354e-06 3.87354e-06 0.000128539
0.00207346 0.000223174 -2.27015e-06
0.000223174 0.000241252 -1.16597e-07
-2.27015e-06 -1.16597e-07 0.000105352
0.00145853 9.15352e-05 -4.00926e-07
9.15352e-05 -0.000109277 -6.46547e-07
-4.00926e-07 -6.46547e-07 -0.000191843
0.00160605 0.000189966 -1.87699e-06
0.000189966 2.58202e-05 -2.70871e-06
-1.87699e-06 -2.70871e-06 -0.000102327
0.00100405 9.16269e-05 -9.68292e-06
9.16269e-05 -7.43781e-05 -3.5533e-06
-9.68292e-06 -3.5533e-06 -9.10976e-05
0.00171152 -8.24399e-06 -3.83104e-07
-8.24399e-06 -6.32445e-06 3.31322e-07
-3.83104e-07 3.31322e-07 -8.14515e-05
0.00188054 -7.26396e-06 -1.55866e-06
-7.26396e-06 0.000190292 -2.07529e-07
-1.55866e-06 -2.07529e-07 0.000129542
0.00121308 2.69929e-06 -2.39644e-05
2.69929e-06 -0.000188702 1.33068e-06
-2.39644e-05 1.33068e-06 -0.000317067
0.00119143 -5.41533e-05 -4.80592e-06
-5.41533e-05 -0.000382103 1.94464e-06
-4.80592e-06 1.94464e-06 -0.000422955
0.0019843 -2.68227e-05 6.0633e-08
-2.68227e-05 9.26423e-05 -6.9726e-08
6.0633e-08 -6.9726e-08 2.38883e-05
0.00201743 -6.58703e-05 -1.73783e-06
-6.58703e-05 0.000136394 2.29745e-07
-1.73783e-06 2.29745e-07 7.25978e-05
0.00173169 -2.95142e-05 1.27376e-06
-2.95142e-05 -1.24159e-05 2.58513e-07
1.27376e-06 2.58513e-07 -8.32672e-05
0.00172456 -4.00719e-05 7.26137e-07
-4.00719e-05 2.65857e-05 -3.76999e-07
7.26137e-07 -3.76999e-07 -5.54702e-05
0.00176892 -6.47553e-05 -2.15887e-06
-6.47553e-05 4.86755e-05 -4.58302e-07
-2.15887e-06 -4.58302e-07 -1.15726e-05
0.00182366 -6.67934e-05 3.63555e-07
-6.67934e-05 0.000118106 -8.6883e-08
3.63555e-07 -8.6883e-08 3.53051e-05
0.00179662 -5.06998e-05 7.23008e-07
-5.06998e-05 0.000112011 -3.95706e-07
7.23008e-07 -3.95706e-07 1.35212e-05
0.00172135 -7.49175e-05 -4.12773e-06
-7.49175e-05 9.29191e-05 -1.73464e-07
-4.12773e-06 -1.73464e-07 5.50994e-06
0.0016637 -6.5628e-05 -2.01732e-07
-6.5628e-05 8.49932e-05 1.74023e-07
-2.01732e-07 1.74023e-07 -1.76363e-05
0.00169132 -5.72815e-05 -2.6232e-07
-5.72815e-05 0.000127788 4.89887e-07
-2.6232e-07 4.89887e-07 1.44604e-05
0.00168493 -8.77715e-05 -7.81297e-07
-8.77715e-05 0.000113165 -4.22076e-07
-7.81297e-07 -4.22076e-07 8.75978e-06
0.00161663 -8.92512e-05 1.94976e-08
-8.92512e-05 0.000102673 -1.13698e-07
1.94976e-08 -1.13698e-07 -9.67296e-06
0.0015466 -9.22529e-05 -1.92329e-06
-9.22529e-05 0.000100722 1.99109e-07
-1.92329e-06 1.99109e-07 -1.5822e-05
0.00157145 -0.000112577 2.29306e-07
-0.000112577 9.69374e-05 -4.85379e-08
2.29306e-07 -4.85379e-08 -1.68487e-05
0.00150544 -0.00011235 7.46276e-08
-0.00011235 9.9852e-05 1.20149e-07
7.46276e-08 1.20149e-07 -1.83844e-05
0.00137551 -0.000105138 -4.57464e-06
-0.000105138 8.23764e-05 1.2684e-06
-4.57464e-06 1.2684e-06 -3.22213e-05
0.00123135 -0.000115875 1.92733e-06
-0.000115875 -1.61348e-05 -3.54425e-07
1.92733e-06 -3.54425e-07 -0.000136809
0.00130215 -0.000114383 1.34252e-09
-0.000114383 7.41894e-05 1.95572e-09
1.34252e-09 1.95572e-09 -4.19763e-05
0.00106923 -9.26138e-05 -8.47588e-06
-9.26138e-05 2.17168e-05 3.46827e-06
-8.47588e-06 3.46827e-06 -7.48933e-05
0.000876416 -0.000108067 4.3304e-06
-0.000108067 -0.000116329 -1.03436e-06
4.3304e-06 -1.03436e-06 -0.000235694
0.00101696 -9.92641e-05 3.03574e-07
-9.92641e-05 2.74936e-05 3.23938e-08
3.03574e-07 3.23938e-08 -7.03046e-05
0.0019413 -2.15612e-05 -8.3376e-06
-2.15612e-05 0.000657317 5.57852e-06
-8.3376e-06 5.57852e-06 0.000601471
0.00112003 1.55668e-05 -7.90793e-05
1.55668e-05 0.000256236 8.53313e-06
-7.90793e-05 8.53313e-06 0.000236658
0.00134917 -4.54061e-05 -5.66892e-08
-4.54061e-05 0.000338568 -5.18048e-08
-5.66892e-08 -5.18048e-08 0.000282554
0.000985372 -0.000103556 5.9472e-06
-0.000103556 5.57384e-05 -2.68086e-06
5.9472e-06 -2.68086e-06 -4.32917e-05
0.0036646 0.000119392 5.22755e-06
0.000119392 0.00165366 3.80546e-07
5.22755e-06 3.80546e-07 0.00164392
0.000774561 -5.60038e-05 9.70134e-06
-5.60038e-05 2.59243e-05 -7.0128e-06
9.70134e-06 -7.0128e-06 -2.63086e-05
0.00339925 9.97906e-05 7.53484e-05
9.97906e-05 0.00149682 -3.32776e-06
7.53484e-05 -3.32776e-06 0.00149312
0.00158363 0.000142142 1.07461e-07
0.000142142 0.000113426 3.95566e-07
1.07461e-07 3.95566e-07 -8.10062e-06
0.000895611 0.00013305 1.03702e-06
0.00013305 -0.000131223 1.43019e-06
1.03702e-06 1.43019e-06 -0.000264906
0.00090963 0.000135295 -1.80484e-07
0.000135295 -4.62113e-05 -9.16865e-08
-1.80484e-07 -9.16865e-08 -0.000188696
0.00113066 0.000130692 -3.13799e-06
0.000130692 0.00011628 -9.87937e-07
-3.13799e-06 -9.87937e-07 -7.07552e-06
0.000496038 0.000103774 2.8028e-07
0.000103774 -0.000175931 1.96518e-06
2.8028e-07 1.96518e-06 -0.000308123
0.00103031 0.000118253 -4.53482e-07
0.000118253 0.000117603 -7.58079e-08
-4.53482e-07 -7.58079e-08 2.22098e-06
0.000980217 8.03227e-05 -3.95683e-06
8.03227e-05 0.000118976 -1.94032e-06
-3.95683e-06 -1.94032e-06 2.8667e-05
0.000871839 9.89859e-05 8.77003e-07
9.89859e-05 6.71746e-05 4.89532e-07
8.77003e-07 4.89532e-07 -3.51353e-05
0.000810215 4.42458e-05 -2.21407e-07
4.42458e-05 4.8377e-05 7.40619e-08
-2.21407e-07 7.40619e-08 -3.44184e-05
0.00070367 -8.03932e-06 -5.95955e-06
-8.03932e-06 5.48719e-06 -5.27673e-06
-5.95955e-06 -5.27673e-06 -3.50165e-05
0.000764221 -7.06675e-06 1.06148e-06
-7.06675e-06 2.98088e-05 1.85799e-06
1.06148e-06 1.85799e-06 -4.40018e-05
0.000589323 -6.0128e-05 -8.12176e-07
-6.0128e-05 -4.75934e-05 -1.06292e-07
-8.12176e-07 -1.06292e-07 -8.25707e-05
0.0028262 -9.76718e-05 -5.33663e-05
-9.76718e-05 0.00117909 -2.52995e-06
-5.33663e-05 -2.52995e-06 0.00118005
0.000573443 -6.69527e-05 9.14638e-07
-6.69527e-05 -5.86752e-05 4.57123e-06
9.14638e-07 4.57123e-06 -8.65337e-05
0.00253774 -8.87178e-05 -8.35182e-07
-8.87178e-05 0.00101739 1.21609e-07
-8.35182e-07 1.21609e-07 0.00102212
0.00232667 -7.87185e-05 3.47912e-05
-7.87185e-05 0.000896317 2.6604e-06
3.47912e-05 2.6604e-06 0.000904278
0.00180077 5.29136e-05 -1.56859e-07
5.29136e-05 5.46698e-05 1.15635e-06
-1.56859e-07 1.15635e-06 -3.12789e-05
0.00191088 1.52932e-05 -4.09876e-07
1.52932e-05 0.000143442 -6.93247e-07
-4.09876e-07 -6.93247e-07 8.24149e-05
0.00257826 -6.663e-05 -1.47861e-05
-6.663e-05 0.000467488 -1.24125e-06
-1.47861e-05 -1.24125e-06 0.000384125
0.00172032 0.000151909 -4.30556e-06
0.000151909 0.00011093 1.89202e-07
-4.30556e-06 1.89202e-07 -9.75975e-06
0.00167177 0.000172207 -1.75587e-06
0.000172207 0.000237308 1.77644e-07
-1.75587e-06 1.77644e-07 0.000105092
0.000735571 0.000124437 -8.78295e-06
0.000124437 -4.29773e-05 3.2962e-06
-8.78295e-06 3.2962e-06 -0.000156776
0.00155725 0.000158235 2.0774e-06
0.000158235 0.000126552 6.14806e-07
2.0774e-06 6.14806e-07 -1.9657e-06
0.00175293 0.000180524 -1.30032e-06
0.000180524 0.000329085 3.3646e-07
-1.30032e-06 3.3646e-07 0.000183492
0.00203317 0.000120316 -3.76422e-06
0.000120316 0.00019195 9.5009e-07
-3.76422e-06 9.5009e-07 8.64421e-05
0.00176123 0.000182484 -2.11082e-06
0.000182484 9.20791e-05 6.53048e-08
-2.11082e-06 6.53048e-08 -3.59663e-05
0.00166743 0.000199047 2.5595e-06
0.000199047 0.000182567 1.57951e-06
2.5595e-06 1.57951e-06 4.0419e-05
0.00178016 0.000119532 -5.03027e-07
0.000119532 6.80008e-05 5.47772e-08
-5.03027e-07 5.47772e-08 -3.85905e-05
0.0020351 0.000220659 5.32048e-06
0.000220659 0.000211779 -2.83612e-07
5.32048e-06 -2.83612e-07 7.75641e-05
0.00161623 0.000101743 -1.68145e-05
0.000101743 -1.99886e-05 -5.88466e-06
-1.68145e-05 -5.88466e-06 -0.000102562
0.00192529 1.92454e-06 -9.28293e-08
1.92454e-06 0.00011947 1.04462e-07
-9.28293e-08 1.04462e-07 3.60988e-05
0.0017664 -3.84897e-06 3.37386e-07
-3.84897e-06 2.53773e-05 -4.42279e-07
3.37386e-07 -4.42279e-07 -4.87944e-05
0.00211315 9.132e-06 -1.21357e-05
9.132e-06 0.000311876 1.42281e-07
-1.21357e-05 1.42281e-07 0.000251578
0.00216312 -6.28221e-05 -5.5187e-06
-6.28221e-05 0.000216032 -6.0666e-07
-5.5187e-06 -6.0666e-07 0.000154077
0.00194353 -3.05134e-05 5.61611e-07
-3.05134e-05 0.000103427 7.20368e-07
5.61611e-07 7.20368e-07 3.38395e-05
0.00182363 -3.92218e-05 -7.62717e-08
-3.92218e-05 7.26056e-05 -1.49864e-07
-7.62717e-08 -1.49864e-07 -7.17441e-06
0.00184244 -2.29888e-05 3.50913e-08
-2.29888e-05 0.000109109 -3.7456e-07
3.50913e-08 -3.7456e-07 1.08061e-05
0.00186486 -6.47685e-05 -8.93623e-07
-6.47685e-05 0.000143235 -9.05612e-08
-8.93623e-07 -9.05612e-08 6.03069e-05
0.00177492 -5.20265e-05 -5.38069e-07
-5.20265e-05 0.000106511 -1.00728e-07
-5.38069e-07 -1.00728e-07 7.57999e-06
0.00174919 -3.49231e-05 1.33831e-07
-3.49231e-05 0.000130386 -1.60428e-07
1.33831e-07 -1.60428e-07 1.60823e-05
0.00163563 -6.502e-05 -1.13505e-06
-6.502e-05 7.39311e-05 6.06915e-08
-1.13505e-06 6.06915e-08 -2.98136e-05
0.00164364 -5.70095e-05 -4.72351e-08
-5.70095e-05 0.000101532 3.25663e-08
-4.72351e-08 3.25663e-08 -1.18101e-05
0.00159345 -6.19678e-05 -1.83201e-06
-6.19678e-05 0.000110922 6.85212e-07
-1.83201e-06 6.85212e-07 -6.84381e-06
0.00160612 -8.78921e-05 5.49048e-07
-8.78921e-05 9.72894e-05 -3.59185e-07
5.49048e-07 -3.59185e-07 -1.50024e-05
0.00154464 -9.15122e-05 -6.23815e-08
-9.15122e-05 9.95736e-05 -1.37772e-07
-6.23815e-08 -1.37772e-07 -1.69144e-05
0.00140065 -8.75621e-05 -4.54273e-06
-8.75621e-05 7.45782e-05 8.43287e-07
-4.54273e-06 8.43287e-07 -3.84543e-05
0.00149725 -0.000111438 2.08784e-06
-0.000111438 9.54571e-05 -1.65885e-07
2.08784e-06 -1.65885e-07 -2.26593e-05
0.00136384 -0.000103936 4.65225e-08
-0.000103936 7.61853e-05 1.89735e-07
4.65225e-08 1.89735e-07 -3.82356e-05
0.0011144 -8.44108e-05 -9.03908e-06
-8.44108e-05 2.12195e-05 3.24065e-06
-9.03908e-06 3.24065e-06 -7.53637e-05
0.00127992 -0.000112726 4.53263e-06
-0.000112726 6.28013e-05 -1.27873e-06
4.53263e-06 -1.27873e-06 -5.31556e-05
0.00106623 -9.17469e-05 3.299e-07
-9.17469e-05 1.94631e-05 -2.82212e-09
3.299e-07 -2.82212e-09 -7.70844e-05
0.00205738 -2.62278e-05 -1.08386e-05
-2.62278e-05 0.000701854 5.05841e-06
-1.08386e-05 5.05841e-06 0.000648637
0.00100993 -9.90859e-05 7.3144e-06
-9.90859e-05 2.41569e-05 -3.0979e-06
7.3144e-06 -3.0979e-06 -7.37937e-05
0.00214762 -5.30698e-05 2.44825e-05
-5.30698e-05 0.0007597 -1.44265e-06
2.44825e-05 -1.44265e-06 0.000707355
0.0013644 -2.83164e-05 -9.92422e-05
-2.83164e-05 0.000392297 1.0813e-05
-9.92422e-05 1.0813e-05 0.000372172
0.00253354 4.14259e-05 -8.10595e-05
4.14259e-05 0.00103837 2.07892e-06
-8.10595e-05 2.07892e-06 0.0010238
0.00221425 -7.20626e-05 5.25651e-05
-7.20626e-05 0.000801347 -6.54058e-06
5.25651e-05 -6.54058e-06 0.000754086
0.00376555 8.92411e-05 9.0316e-05
8.92411e-05 0.00170692 -4.83112e-06
9.0316e-05 -4.83112e-06 0.00169959
0.00164612 0.000122611 -3.18425e-06
0.000122611 9.06906e-05 -1.96611e-06
-3.18425e-06 -1.96611e-06 -2.89541e-05
0.00167792 0.000151525 3.32825e-06
0.000151525 0.000225943 4.55933e-07
3.32825e-06 4.55933e-07 0.000101711
0.00146608 0.000139112 9.72952e-07
0.000139112 5.34774e-05 8.89231e-07
9.72952e-07 8.89231e-07 -6.29157e-05
0.00117724 0.000135314 -3.64594e-06
0.000135314 7.54071e-05 -7.72969e-07
-3.64594e-06 -7.72969e-07 -4.95548e-05
0.00120476 0.000148577 -8.33397e-08
0.000148577 3.17178e-05 1.29728e-07
-8.33397e-08 1.29728e-07 -0.000103069
0.00114907 0.000149031 2.08182e-06
0.000149031 7.37745e-05 7.6791e-07
2.08182e-06 7.6791e-07 -7.04914e-05
0.00110768 0.000129751 -4.00924e-07
0.000129751 0.000105295 8.65547e-08
-4.00924e-07 8.65547e-08 -1.82599e-05
0.000989222 9.9058e-05 -4.98606e-06
9.9058e-05 8.82239e-05 -2.39114e-06
-4.98606e-06 -2.39114e-06 -8.753e-06
0.000926129 0.000111182 1.22811e-06
0.000111182 6.4094e-05 1.11008e-06
1.22811e-06 1.11008e-06 -5.03767e-05
0.000856119 7.42449e-05 -3.19862e-07
7.42449e-05 5.24627e-05 -6.55127e-08
-3.19862e-07 -6.55127e-08 -3.65359e-05
0.000768618 2.91354e-05 -7.83265e-06
2.91354e-05 3.45314e-05 -5.96751e-06
-7.83265e-06 -5.96751e-06 -1.39499e-05
0.000693967 3.62416e-05 1.47569e-06
3.62416e-05 -1.28908e-05 1.437e-06
1.47569e-06 1.437e-06 -9.4888e-05
0.000620562 -2.65877e-05 2.00601e-07
-2.65877e-05 -3.52016e-05 -2.167e-07
2.00601e-07 -2.167e-07 -7.62043e-05
0.00309141 -0.000102716 -6.59284e-05
-0.000102716 0.00133299 -2.62159e-06
-6.59284e-05 -2.62159e-06 0.00132997
0.000528778 -7.67253e-05 -6.57308e-07
-7.67253e-05 -7.5052e-05 5.42368e-06
-6.57308e-07 5.42368e-06 -0.000112887
0.00277295 -9.9969e-05 -1.30465e-06
-9.9969e-05 0.00115036 1.79829e-07
-1.30465e-06 1.79829e-07 0.00115132
0.00249005 -8.8713e-05 3.88157e-05
-8.8713e-05 0.000991514 2.38216e-06
3.88157e-05 2.38216e-06 0.000996499
0.00189474 5.62598e-05 -2.35262e-06
5.62598e-05 9.829e-05 7.87097e-07
-2.35262e-06 7.87097e-07 6.2066e-06
0.00174314 5.23127e-05 7.65683e-07
5.23127e-05 2.79047e-05 -1.06205e-07
7.65683e-07 -1.06205e-07 -5.81565e-05
0.00227378 9.94079e-06 -2.64705e-05
9.94079e-06 0.000371429 -3.03071e-06
-2.64705e-05 -3.03071e-06 0.000312431
0.00186215 0.000108826 -2.40239e-07
0.000108826 0.000134503 8.76686e-07
-2.40239e-07 8.76686e-07 2.38715e-05
0.00179129 0.000153209 -8.03049e-07
0.000153209 0.000151843 -4.42812e-07
-8.03049e-07 -4.42812e-07 3.0619e-05
0.00163677 0.000169786 -1.9519e-06
0.000169786 0.000234856 1.59073e-06
-1.9519e-06 1.59073e-06 0.000105876
0.00185706 0.000168124 1.19201e-06
0.000168124 0.000285692 -1.0297e-06
1.19201e-06 -1.0297e-06 0.000158033
0.00189802 0.000116285 1.46276e-07
0.000116285 0.000119724 -6.26826e-08
1.46276e-07 -6.26826e-08 1.35786e-05
0.00168477 0.000182535 1.16911e-06
0.000182535 5.24431e-05 -2.83446e-07
1.16911e-06 -2.83446e-07 -7.69813e-05
0.00172575 0.000119702 3.06423e-06
0.000119702 4.05006e-05 -1.18506e-06
3.06423e-06 -1.18506e-06 -6.6692e-05
0.00182363 1.04107e-05 9.17534e-07
1.04107e-05 8.18751e-05 1.80704e-07
9.17534e-07 1.80704e-07 -1.3279e-05
0.00187627 2.82499e-06 -3.83131e-07
2.82499e-06 9.34609e-05 -5.18298e-08
-3.83131e-07 -5.18298e-08 8.74724e-06
0.00181424 3.97402e-07 -2.15019e-06
3.97402e-07 5.61822e-05 -2.85201e-07
-2.15019e-06 -2.85201e-07 -1.70786e-05
0.00174011 -1.34202e-06 -2.65632e-07
-1.34202e-06 5.64428e-05 -1.04689e-07
-2.65632e-07 -1.04689e-07 -4.70021e-05
0.00189978 -3.77198e-05 -6.29476e-07
-3.77198e-05 0.000107552 3.17493e-07
-6.29476e-07 3.17493e-07 3.00855e-05
0.0018483 -2.29045e-05 -1.25194e-07
-2.29045e-05 0.000112517 3.41418e-07
-1.25194e-07 3.41418e-07 1.41986e-05
0.00185348 -1.63121e-05 6.0555e-07
-1.63121e-05 0.000158506 -7.918e-07
6.0555e-07 -7.918e-07 4.7279e-05
0.00175414 -5.32712e-05 -1.60335e-06
-5.32712e-05 0.000101567 4.30235e-07
-1.60335e-06 4.30235e-07 2.20195e-06
0.00169585 -3.47609e-05 -1.12979e-08
-3.47609e-05 0.000100597 4.08356e-08
-1.12979e-08 4.08356e-08 -1.37379e-05
0.00159839 -2.95848e-05 -2.40217e-06
-2.95848e-05 9.3623e-05 8.36557e-07
-2.40217e-06 8.36557e-07 -2.65297e-05
0.00159337 -5.61287e-05 1.94952e-07
-5.61287e-05 7.4059e-05 -4.17858e-07
1.94952e-07 -4.17858e-07 -3.92799e-05
0.00156554 -5.98763e-05 -2.56081e-08
-5.98763e-05 9.62216e-05 -5.01625e-08
-2.56081e-08 -5.01625e-08 -2.15032e-05
0.00142594 -6.4816e-05 -4.40606e-06
-6.4816e-05 7.37071e-05 1.15594e-06
-4.40606e-06 1.15594e-06 -4.0697e-05
0.0015403 -9.06561e-05 2.02481e-06
-9.06561e-05 9.7197e-05 -4.86968e-07
2.02481e-06 -4.86968e-07 -1.92306e-05
0.00140551 -8.68473e-05 -8.9793e-08
-8.68473e-05 7.68712e-05 -4.67204e-08
-8.9793e-08 -4.67204e-08 -3.60791e-05
0.00113841 -7.18268e-05 -9.28289e-06
-7.18268e-05 1.73754e-05 2.48002e-06
-9.28289e-06 2.48002e-06 -7.88235e-05
0.00134961 -0.000102606 4.71279e-06
-0.000102606 6.86378e-05 -9.04655e-07
4.71279e-06 -9.04655e-07 -4.55969e-05
0.00110944 -8.26473e-05 3.08036e-07
-8.26473e-05 1.7289e-05 1.98274e-07
3.08036e-07 1.98274e-07 -7.89755e-05
0.00217078 -4.91031e-05 -1.79959e-05
-4.91031e-05 0.000741658 4.02605e-06
-1.79959e-05 4.02605e-06 0.000693734
0.00105536 -9.06655e-05 8.36563e-06
-9.06655e-05 1.30066e-05 -3.40128e-06
8.36563e-06 -3.40128e-06 -8.34638e-05
0.00222678 -6.81876e-05 2.18074e-05
-6.81876e-05 0.000783135 -1.83195e-06
2.18074e-05 -1.83195e-06 0.000734946
0.00147473 -2.74725e-05 -0.000100709
-2.74725e-05 0.000450388 1.02422e-05
-0.000100709 1.02422e-05 0.000429163
0.00233385 -8.89375e-05 6.08412e-05
-8.89375e-05 0.000849111 -8.93611e-06
6.08412e-05 -8.93611e-06 0.000801285
0.00134217 3.11452e-05 -5.02577e-05
3.11452e-05 0.000394146 3.20429e-06
-5.02577e-05 3.20429e-06 0.000365146
0.00386369 0.000203894 4.44057e-06
0.000203894 0.00179376 -2.6773e-06
4.44057e-06 -2.6773e-06 0.00176408
0.0017601 9.35235e-05 -9.78523e-07
9.35235e-05 0.000134753 1.96174e-07
-9.78523e-07 1.96174e-07 1.66529e-05
0.00159562 0.000119672 -1.19435e-06
0.000119672 0.000114611 -1.99095e-06
-1.19435e-06 -1.99095e-06 -6.44486e-06
0.00173483 0.000127277 -2.65247e-06
0.000127277 0.000145794 5.58692e-07
-2.65247e-06 5.58692e-07 2.67405e-05
0.00171634 0.000147831 -2.45883e-06
0.000147831 0.000304814 -2.51334e-07
-2.45883e-06 -2.51334e-07 0.00018449
0.00149521 0.000146838 4.38729e-07
0.000146838 0.000124464 -9.18411e-07
4.38729e-07 -9.18411e-07 7.43073e-07
0.00143846 0.000139141 3.37899e-06
0.000139141 4.02716e-05 1.15069e-06
3.37899e-06 1.15069e-06 -7.10278e-05
0.00100572 0.000106988 -6.76241e-06
0.000106988 4.55628e-05 -2.8669e-06
-6.76241e-06 -2.8669e-06 -5.59611e-05
0.00121024 0.000137831 -2.17584e-07
0.000137831 9.34798e-05 9.91268e-08
-2.17584e-07 9.91268e-08 -3.21903e-05
0.0015477 0.000165638 3.16542e-06
0.000165638 0.000212573 -1.622e-07
3.16542e-06 -1.622e-07 7.6552e-05
0.00108406 0.00012891 2.60952e-06
0.00012891 9.40542e-05 1.30045e-06
2.60952e-06 1.30045e-06 -2.97292e-05
0.000921069 9.44553e-05 -4.14143e-07
9.44553e-05 5.17148e-05 -1.27994e-07
-4.14143e-07 -1.27994e-07 -4.4605e-05
0.000789111 7.47465e-05 -1.1122e-05
7.47465e-05 3.96158e-05 -6.94825e-06
-1.1122e-05 -6.94825e-06 -1.68251e-05
0.000743506 6.82898e-05 2.79445e-06
6.82898e-05 -7.85834e-06 1.65159e-06
2.79445e-06 1.65159e-06 -9.56866e-05
0.000665935 2.44773e-05 4.74561e-08
2.44773e-05 -1.44442e-05 -4.47291e-08
4.74561e-08 -4.47291e-08 -6.33144e-05
0.00343711 -9.01889e-05 -8.18395e-05
-9.01889e-05 0.00153428 -3.98496e-06
-8.18395e-05 -3.98496e-06 0.00152764
0.000555438 -4.08716e-05 2.07166e-06
-4.08716e-05 -6.68745e-05 5.59114e-06
2.07166e-06 5.59114e-06 -0.0001079
0.00304597 -0.00011352 -2.13937e-06
-0.00011352 0.00130797 2.90317e-07
-2.13937e-06 2.90317e-07 0.0013038
0.0027295 -0.000100883 4.42482e-05
-0.000100883 0.00112651 2.2534e-06
4.42482e-05 2.2534e-06 0.00112777
0.00178706 5.43206e-05 6.63756e-07
5.43206e-05 6.71269e-05 7.48272e-07
6.63756e-07 7.48272e-07 -3.37765e-05
0.00183978 5.8063e-05 -6.32716e-07
5.8063e-05 6.72704e-05 1.63094e-07
-6.32716e-07 1.63094e-07 -2.46784e-05
0.00172399 5.19812e-05 3.45964e-07
5.19812e-05 1.63152e-05 -1.40646e-06
3.45964e-07 -1.40646e-06 -6.98025e-05
0.00185287 0.000107277 6.95862e-07
0.000107277 0.000126695 -8.52718e-08
6.95862e-07 -8.52718e-08 1.70991e-05
0.0018603 0.000154637 3.9821e-07
0.000154637 0.000192526 -7.4534e-07
3.9821e-07 -7.4534e-07 7.06909e-05
0.00177396 0.000112105 2.84052e-06
0.000112105 5.36028e-05 -1.02733e-06
2.84052e-06 -1.02733e-06 -5.31212e-05
0.00184079 1.36638e-05 1.02075e-07
1.36638e-05 0.000108273 1.91287e-07
1.02075e-07 1.91287e-07 5.80776e-06
0.00186013 1.20936e-05 3.77148e-07
1.20936e-05 0.000101101 -1.57923e-07
3.77148e-07 -1.57923e-07 5.1211e-06
0.00183553 4.34788e-06 9.13444e-07
4.34788e-06 7.04096e-05 -1.234e-07
9.13444e-07 -1.234e-07 -1.56508e-05
0.00179094 -9.00893e-06 -9.41938e-07
-9.00893e-06 8.34082e-05 1.57767e-07
-9.41938e-07 1.57767e-07 -1.90854e-05
0.00175636 -6.37066e-06 1.0148e-06
-6.37066e-06 9.53866e-05 -5.36121e-07
1.0148e-06 -5.36121e-07 -1.56539e-05
0.00185498 -2.28014e-05 -6.09852e-07
-2.28014e-05 0.000116355 6.81216e-07
-6.09852e-07 6.81216e-07 1.80174e-05
0.00177472 -1.61361e-05 7.53668e-08
-1.61361e-05 0.000115547 1.67679e-07
7.53668e-08 1.67679e-07 2.85256e-06
0.00163068 -9.25974e-06 -2.94021e-07
-9.25974e-06 9.12384e-05 -4.32164e-07
-2.94021e-07 -4.32164e-07 -2.83075e-05
0.00164306 -3.51905e-05 8.78588e-08
-3.51905e-05 7.10167e-05 2.14407e-07
8.78588e-08 2.14407e-07 -4.33676e-05
0.00159712 -3.04594e-05 -7.12976e-07
-3.04594e-05 9.21346e-05 4.21553e-07
-7.12976e-07 4.21553e-07 -2.80417e-05
0.00148929 -3.52854e-05 -5.47167e-06
-3.52854e-05 8.78406e-05 1.74797e-06
-5.47167e-06 1.74797e-06 -3.0171e-05
0.00154241 -5.93346e-05 1.60913e-06
-5.93346e-05 8.38674e-05 -7.91141e-07
1.60913e-06 -7.91141e-07 -3.38649e-05
0.00143755 -6.38855e-05 8.2663e-08
-6.38855e-05 7.92843e-05 -1.71031e-07
8.2663e-08 -1.71031e-07 -3.50492e-05
0.00114018 -5.4049e-05 -9.14416e-06
-5.4049e-05 6.24521e-06 2.1498e-06
-9.14416e-06 2.1498e-06 -9.04734e-05
0.0014097 -8.60672e-05 4.54477e-06
-8.60672e-05 7.88127e-05 -9.61841e-07
4.54477e-06 -9.61841e-07 -3.4051e-05
0.00114336 -6.97828e-05 4.47858e-08
-6.97828e-05 1.87799e-05 1.1604e-07
4.47858e-08 1.1604e-07 -7.70621e-05
0.00222647 -5.38376e-05 -2.16193e-05
-5.38376e-05 0.000759303 3.05751e-06
-2.16193e-05 3.05751e-06 0.000712914
0.001102 -8.09767e-05 9.10487e-06
-8.09767e-05 1.19656e-05 -2.8738e-06
9.10487e-06 -2.8738e-06 -8.39784e-05
0.00228017 -7.02518e-05 2.09163e-05
-7.02518e-05 0.000796571 -1.59655e-06
2.09163e-05 -1.59655e-06 0.000750545
0.00158133 -2.58857e-05 -0.000103013
-2.58857e-05 0.000499539 8.87138e-06
-0.000103013 8.87138e-06 0.000478719
0.0023816 -8.62761e-05 6.29394e-05
-8.62761e-05 0.000861439 -8.26206e-06
6.29394e-05 -8.26206e-06 0.000815093
0.00139652 2.56116e-05 -5.03315e-05
2.56116e-05 0.000419302 3.25696e-06
-5.03315e-05 3.25696e-06 0.000391187
0.00136843 9.94703e-05 -3.53345e-07
9.94703e-05 0.000425904 -4.51957e-06
-3.53345e-07 -4.51957e-06 0.000386148
0.00178291 5.26877e-05 3.55681e-07
5.26877e-05 0.00011973 9.25106e-07
3.55681e-07 9.25106e-07 1.10237e-05
0.00156951 8.8044e-05 -2.59103e-06
8.8044e-05 8.06902e-05 -4.62738e-07
-2.59103e-06 -4.62738e-07 -3.9556e-05
0.00173616 9.4071e-05 -1.31495e-06
9.4071e-05 0.000123299 -2.22107e-07
-1.31495e-06 -2.22107e-07 6.02471e-06
0.00158815 0.000121522 -3.86554e-06
0.000121522 0.000174711 -1.20615e-06
-3.86554e-06 -1.20615e-06 5.73002e-05
0.00172949 0.000124649 1.26042e-06
0.000124649 0.000187298 3.7395e-07
1.26042e-06 3.7395e-07 6.58372e-05
0.00176192 0.000129891 3.32568e-06
0.000129891 0.000169036 1.15594e-06
3.32568e-06 1.15594e-06 5.05642e-05
0.00102035 0.000104537 -8.12046e-06
0.000104537 1.69312e-06 -2.90541e-06
-8.12046e-06 -2.90541e-06 -9.98958e-05
0.00136636 0.000135927 2.35819e-06
0.000135927 0.000114045 7.94944e-07
2.35819e-06 7.94944e-07 -7.40309e-06
0.00131711 0.000142514 1.61476e-06
0.000142514 2.47057e-05 6.80458e-07
1.61476e-06 6.80458e-07 -9.848e-05
0.00073943 0.000101697 -1.49212e-05
0.000101697 -7.70071e-07 -7.32472e-06
-1.49212e-05 -7.32472e-06 -6.14728e-05
0.000995968 0.000105546 -5.7679e-07
0.000105546 4.05747e-05 -8.30689e-09
-5.7679e-07 -8.30689e-09 -6.06417e-05
0.00124423 0.000140314 4.12231e-06
0.000140314 0.000112087 1.30757e-06
4.12231e-06 1.30757e-06 -1.42858e-05
0.000872214 9.07184e-05 4.4001e-06
9.07184e-05 2.5907e-05 2.34971e-06
4.4001e-06 2.34971e-06 -6.9885e-05
0.000668331 6.63491e-05 -1.27432e-07
6.63491e-05 -1.95279e-05 7.0835e-08
-1.27432e-07 7.0835e-08 -7.56809e-05
0.00393793 -7.6291e-05 -9.34272e-05
-7.6291e-05 0.00181892 -6.43445e-06
-9.34272e-05 -6.43445e-06 0.00180631
0.000579425 1.6659e-05 5.42133e-06
1.6659e-05 -5.70835e-05 6.01751e-06
5.42133e-06 6.01751e-06 -0.000104882
0.00335914 -0.00012139 -4.77551e-06
-0.00012139 0.00149254 3.43082e-07
-4.77551e-06 3.43082e-07 0.00148325
0.00299029 -0.000115035 5.05891e-05
-0.000115035 0.00127602 2.22866e-06
5.05891e-05 2.22866e-06 0.00127228
0.00179998 3.52908e-05 4.82194e-07
3.52908e-05 9.36718e-05 -7.89264e-09
4.82194e-07 -7.89264e-09 -1.07104e-05
0.00179816 5.35496e-05 -1.95764e-07
5.35496e-05 7.28222e-05 2.27874e-07
-1.95764e-07 2.27874e-07 -2.76865e-05
0.00177649 5.93797e-05 3.58305e-06
5.93797e-05 3.23446e-05 -5.64637e-07
3.58305e-06 -5.64637e-07 -5.94776e-05
0.0018423 0.000105629 1.24861e-06
0.000105629 0.000117794 -7.25984e-07
1.24861e-06 -7.25984e-07 9.25697e-06
0.00176695 -3.13641e-06 6.55348e-07
-3.13641e-06 9.57305e-05 -5.83157e-08
6.55348e-07 -5.83157e-08 -1.56116e-05
0.00187837 1.07464e-05 -1.21523e-07
1.07464e-05 0.000126765 -5.79113e-08
-1.21523e-07 -5.79113e-08 2.4312e-05
0.00189341 1.3233e-05 -5.01948e-07
1.3233e-05 0.000118742 6.31068e-08
-5.01948e-07 6.31068e-08 2.19414e-05
0.00185146 -1.32583e-05 -1.97728e-06
-1.32583e-05 0.000115855 9.72248e-08
-1.97728e-06 9.72248e-08 1.42819e-05
0.00175852 -8.99928e-07 -5.10302e-07
-8.99928e-07 9.62743e-05 -7.27026e-08
-5.10302e-07 -7.27026e-08 -1.41408e-05
0.00179782 2.86002e-06 1.28791e-07
2.86002e-06 0.000170288 -3.45879e-07
1.28791e-07 -3.45879e-07 5.28303e-05
0.00169575 -1.60025e-05 -1.71043e-07
-1.60025e-05 7.24485e-05 9.10422e-07
-1.71043e-07 9.10422e-07 -4.17134e-05
0.00169068 -8.67448e-06 7.101e-07
-8.67448e-06 0.000122982 -1.08997e-07
7.101e-07 -1.08997e-07 3.04854e-06
0.00137982 -8.96749e-06 -4.299e-06
-8.96749e-06 7.54144e-06 6.10402e-07
-4.299e-06 6.10402e-07 -0.000112572
0.00158594 -2.97826e-05 7.50321e-07
-2.97826e-05 8.56514e-05 1.31003e-08
7.50321e-07 1.31003e-08 -3.45163e-05
0.00145861 -3.25419e-05 -5.47636e-07
-3.25419e-05 7.19465e-05 4.21538e-07
-5.47636e-07 4.21538e-07 -4.58918e-05
0.00117472 -3.23365e-05 -9.32048e-06
-3.23365e-05 7.29404e-06 2.26816e-06
-9.32048e-06 2.26816e-06 -9.24335e-05
0.00144396 -6.08676e-05 4.24926e-06
-6.08676e-05 8.21546e-05 -1.4462e-06
4.24926e-06 -1.4462e-06 -3.1994e-05
0.00116385 -5.3973e-05 -3.97968e-08
-5.3973e-05 1.77034e-05 -4.15713e-08
-3.97968e-08 -4.15713e-08 -7.89227e-05
0.000687027 -3.70316e-05 -1.40043e-05
-3.70316e-05 -8.79172e-05 3.29321e-06
-1.40043e-05 3.29321e-06 -0.000143075
0.00114897 -6.79224e-05 9.31349e-06
-6.79224e-05 2.04242e-05 -2.35686e-06
9.31349e-06 -2.35686e-06 -7.50563e-05
0.0014944 -5.4807e-05 2.60268e-05
-5.4807e-05 0.000357564 -1.23558e-06
2.60268e-05 -1.23558e-06 0.000308748
0.00474225 -4.18509e-05 -0.000123444
-4.18509e-05 0.00221798 5.30671e-06
-0.000123444 5.30671e-06 0.00221461
0.00239399 -7.38808e-05 6.42981e-05
-7.38808e-05 0.000854314 -6.89575e-06
6.42981e-05 -6.89575e-06 0.000809806
0.00144746 1.80054e-06 -4.51673e-05
1.80054e-06 0.000432863 3.19202e-06
-4.51673e-05 3.19202e-06 0.000408737
0.00135919 3.09711e-05 1.24554e-05
3.09711e-05 0.000400362 -3.13734e-06
1.24554e-05 -3.13734e-06 0.000371779
0.00181116 3.35678e-05 7.38757e-07
3.35678e-05 0.000137514 2.72269e-07
7.38757e-07 2.72269e-07 3.0091e-05
0.00160175 5.20848e-05 -1.27712e-06
5.20848e-05 8.55211e-05 5.56355e-07
-1.27712e-06 5.56355e-07 -3.06128e-05
0.00182567 5.07776e-05 -1.43847e-07
5.07776e-05 0.000144311 -1.35095e-07
-1.43847e-07 -1.35095e-07 3.52626e-05
0.00118111 8.44206e-05 -5.23563e-06
8.44206e-05 -7.49002e-05 -1.44968e-06
-5.23563e-06 -1.44968e-06 -0.000191865
0.0016518 9.0337e-05 2.84516e-08
9.0337e-05 0.000125548 -9.06784e-09
2.84516e-08 -9.06784e-09 5.89369e-06
0.00171204 9.47957e-05 -4.03586e-07
9.47957e-05 0.000112123 -6.94773e-07
-4.03586e-07 -6.94773e-07 -4.36111e-06
0.000655589 7.83564e-05 -1.07362e-05
7.83564e-05 -0.000241443 -3.24146e-06
-1.07362e-05 -3.24146e-06 -0.000343285
0.00164 0.000125179 1.08957e-06
0.000125179 0.000202404 2.2544e-07
1.08957e-06 2.2544e-07 8.4551e-05
0.00187648 0.00013018 3.61229e-06
0.00013018 0.000267318 1.11361e-06
3.61229e-06 1.11361e-06 0.000145382
0.000687379 0.00010142 -1.5387e-05
0.00010142 -5.21274e-05 -6.60042e-06
-1.5387e-05 -6.60042e-06 -0.000112309
0.000799862 9.6074e-05 9.12763e-08
9.6074e-05 -0.000119125 1.79669e-07
9.12763e-08 1.79669e-07 -0.000221752
0.0010101 0.000123753 5.9368e-06
0.000123753 -8.0033e-05 1.92276e-06
5.9368e-06 1.92276e-06 -0.000202585
0.00445291 -8.00486e-05 -9.72032e-05
-8.00486e-05 0.0021038 -8.12809e-06
-9.72032e-05 -8.12809e-06 0.00208475
0.000653686 9.0806e-05 6.40817e-07
9.0806e-05 -4.39078e-05 1.64149e-07
6.40817e-07 1.64149e-07 -0.000104042
0.000975043 0.000103623 6.34301e-06
0.000103623 3.00128e-05 3.09918e-06
6.34301e-06 3.09918e-06 -7.09174e-05
0.0005557 5.81869e-05 8.54135e-06
5.81869e-05 -7.53388e-05 6.78727e-06
8.54135e-06 6.78727e-06 -0.000131165
0.00374265 -0.000111787 -6.722e-06
-0.000111787 0.00171451 3.44587e-07
-6.722e-06 3.44587e-07 0.00170084
0.0032421 -0.00013129 5.66134e-05
-0.00013129 0.00142774 2.28048e-06
5.66134e-05 2.28048e-06 0.00141757
0.00179447 1.6471e-05 -4.86207e-07
1.6471e-05 0.000112515 -2.68369e-07
-4.86207e-07 -2.68369e-07 2.48966e-06
0.00181224 3.4649e-05 -2.76728e-07
3.4649e-05 9.68189e-05 1.08234e-07
-2.76728e-07 1.08234e-07 -7.33363e-06
0.00181542 5.32515e-05 2.62709e-07
5.32515e-05 8.19275e-05 -3.93924e-07
2.62709e-07 -3.93924e-07 -1.81969e-05
0.00176359 8.23291e-06 1.90622e-07
8.23291e-06 0.00014455 -2.73464e-07
1.90622e-07 -2.73464e-07 2.64985e-05
0.00175961 4.19618e-07 -1.88949e-07
4.19618e-07 9.40439e-05 1.13958e-08
-1.88949e-07 1.13958e-08 -1.65774e-05
0.0019114 5.12158e-06 -1.03074e-06
5.12158e-06 0.000142686 8.3714e-08
-1.03074e-06 8.3714e-08 4.02681e-05
0.00175112 3.20083e-06 -1.12568e-06
3.20083e-06 9.17645e-05 5.74995e-07
-1.12568e-06 5.74995e-07 -1.79902e-05
0.00178915 5.55496e-06 9.37131e-07
5.55496e-06 0.000165293 -2.08041e-07
9.37131e-07 -2.08041e-07 4.77709e-05
0.0017849 2.35517e-06 -2.95873e-06
2.35517e-06 0.000214213 1.23497e-07
-2.95873e-06 1.23497e-07 9.70983e-05
0.00176119 -8.04006e-06 2.05334e-06
-8.04006e-06 0.000160237 1.74256e-08
2.05334e-06 1.74256e-08 3.99254e-05
0.00163031 -7.07797e-06 -2.17848e-08
-7.07797e-06 0.000144465 6.66206e-08
-2.17848e-08 6.66206e-08 2.60658e-05
0.000822928 -1.01958e-05 -1.13343e-05
-1.01958e-05 -0.000206242 2.09466e-06
-1.13343e-05 2.09466e-06 -0.000312547
0.00144404 -3.20995e-05 3.7411e-06
-3.20995e-05 6.43862e-05 -8.53357e-07
3.7411e-06 -8.53357e-07 -5.33785e-05
0.00117992 -2.98244e-05 4.78893e-08
-2.98244e-05 9.24644e-06 4.70644e-08
4.78893e-08 4.70644e-08 -9.03e-05
0.000695968 -1.87238e-05 -1.39164e-05
-1.87238e-05 -9.34721e-05 2.63745e-06
-1.39164e-05 2.63745e-06 -0.000151282
0.00118658 -5.26098e-05 9.47839e-06
-5.26098e-05 2.85641e-05 -2.34894e-06
9.47839e-06 -2.34894e-06 -6.78631e-05
0.000691371 -2.62312e-05 -1.82779e-07
-2.62312e-05 -8.66313e-05 5.2921e-08
-1.82779e-07 5.2921e-08 -0.00014167
0.00475421 -4.58757e-05 -0.000122599
-4.58757e-05 0.00222358 4.19333e-06
-0.000122599 4.19333e-06 0.00221999
0.000736005 -4.80695e-05 1.51255e-05
-4.80695e-05 -5.75106e-05 -5.00445e-06
1.51255e-05 -5.00445e-06 -0.000112296
0.00308179 -2.07822e-05 5.01047e-05
-2.07822e-05 0.00131487 1.37626e-07
5.01047e-05 1.37626e-07 0.00130009
0.00130914 -4.78407e-06 1.93821e-05
-4.78407e-06 0.000362906 -2.73102e-06
1.93821e-05 -2.73102e-06 0.0003363
0.0018366 2.1874e-05 4.35607e-08
2.1874e-05 0.000168571 -8.86924e-08
4.35607e-08 -8.86924e-08 5.90676e-05
0.00163093 2.83772e-05 -8.68218e-07
2.83772e-05 9.85723e-05 4.00145e-07
-8.68218e-07 4.00145e-07 -1.4984e-05
0.00178237 3.17676e-05 -2.64018e-07
3.17676e-05 0.000121994 -1.32925e-07
-2.64018e-07 -1.32925e-07 1.46207e-05
0.00142976 5.8638e-05 -4.17071e-06
5.8638e-05 4.95352e-05 -5.03698e-07
-4.17071e-06 -5.03698e-07 -6.43395e-05
0.00156955 5.08033e-05 3.66838e-07
5.08033e-05 6.72741e-05 1.58902e-07
3.66838e-07 1.58902e-07 -4.93532e-05
0.0018673 4.86665e-05 -8.40779e-07
4.86665e-05 0.000168118 -8.38519e-07
-8.40779e-07 -8.38519e-07 5.87447e-05
0.000711267 6.36983e-05 -1.10825e-05
6.36983e-05 -0.000237618 -2.85833e-06
-1.10825e-05 -2.85833e-06 -0.00033783
0.00153096 9.47114e-05 -1.40921e-06
9.47114e-05 0.000115425 -3.83625e-07
-1.40921e-06 -3.83625e-07 -1.63022e-08
0.00173126 9.24123e-05 2.78899e-06
9.24123e-05 0.000168752 7.2493e-08
2.78899e-06 7.2493e-08 4.97264e-05
0.000655508 7.86913e-05 -1.47908e-05
7.86913e-05 -9.05743e-05 -5.32439e-06
-1.47908e-05 -5.32439e-06 -0.000148917
0.00067867 7.99989e-05 -2.57325e-06
7.99989e-05 -0.000230127 -5.91246e-07
-2.57325e-06 -5.91246e-07 -0.000332527
0.00168712 0.000128707 6.26672e-06
0.000128707 0.000227483 1.47354e-06
6.26672e-06 1.47354e-06 0.000109215
0.00476616 -4.50902e-05 -0.000107119
-4.50902e-05 0.00225534 -7.39738e-06
-0.000107119 -7.39738e-06 0.00224252
0.000634154 9.25655e-05 9.29148e-07
9.25655e-05 -7.83226e-05 2.70969e-07
9.29148e-07 2.70969e-07 -0.000138831
0.000576656 8.74325e-05 7.98824e-06
8.74325e-05 -0.000241307 3.2171e-06
7.98824e-06 3.2171e-06 -0.000344982
0.00419998 -7.50028e-05 -1.32736e-06
-7.50028e-05 0.00196169 3.86008e-08
-1.32736e-06 3.86008e-08 0.00194779
0.000536366 8.26589e-05 1.16995e-05
8.26589e-05 -0.000103896 7.14109e-06
1.16995e-05 7.14109e-06 -0.000163435
0.00355066 -0.000139679 6.58848e-05
-0.000139679 0.00161205 2.99114e-06
6.58848e-05 2.99114e-06 0.00159642
0.00178154 1.53511e-05 -5.7002e-07
1.53511e-05 0.000153353 -4.4255e-07
-5.7002e-07 -4.4255e-07 3.77082e-05
0.00177876 1.60062e-05 -4.41426e-08
1.60062e-05 0.000107562 6.97923e-08
-4.41426e-08 6.97923e-08 -2.78385e-06
0.00182354 3.40318e-05 -7.16377e-07
3.40318e-05 9.93011e-05 -1.15467e-08
-7.16377e-07 -1.15467e-08 -4.62379e-06
0.00174835 -1.75822e-06 -3.31905e-06
-1.75822e-06 0.000194401 -1.60345e-07
-3.31905e-06 -1.60345e-07 7.84367e-05
0.00178711 7.69014e-06 7.34446e-07
7.69014e-06 0.000157653 -3.33743e-08
7.34446e-07 -3.33743e-08 4.04204e-05
0.00176501 6.25628e-06 3.03673e-07
6.25628e-06 9.91822e-05 1.08853e-07
3.03673e-07 1.08853e-07 -1.07737e-05
0.00178087 7.01748e-06 1.30337e-06
7.01748e-06 0.000160532 1.92201e-07
1.30337e-06 1.92201e-07 4.29518e-05
0.00177008 2.85964e-06 1.40352e-06
2.85964e-06 0.000206244 -1.90996e-07
1.40352e-06 -1.90996e-07 8.90972e-05
0.000869661 -2.22227e-06 -1.09138e-05
-2.22227e-06 -0.000195467 9.04203e-07
-1.09138e-05 9.04203e-07 -0.000303306
0.00187404 -5.37314e-06 5.28137e-06
-5.37314e-06 0.000277999 -7.36075e-07
5.28137e-06 -7.36075e-07 0.000161299
0.00102402 -8.47551e-06 -2.28e-06
-8.47551e-06 -9.59944e-05 5.4243e-07
-2.28e-06 5.4243e-07 -0.000200566
0.000712065 -7.27832e-06 -1.45158e-05
-7.27832e-06 -9.95455e-05 2.01002e-06
-1.45158e-05 2.01002e-06 -0.00016085
0.00119616 -2.88469e-05 9.36605e-06
-2.88469e-05 1.69502e-05 -2.21076e-06
9.36605e-06 -2.21076e-06 -8.24823e-05
0.000709237 -1.24764e-05 2.59043e-07
-1.24764e-05 -8.75479e-05 -2.94766e-08
2.59043e-07 -2.94766e-08 -0.000145299
0.00486305 -2.5019e-05 -0.000121742
-2.5019e-05 0.00227808 2.70453e-06
-0.000121742 2.70453e-06 0.00227494
0.000687187 -2.05441e-05 1.32301e-05
-2.05441e-05 -8.99513e-05 -2.99153e-06
1.32301e-05 -2.99153e-06 -0.000144616
0.00477884 -5.46548e-06 5.59242e-06
-5.46548e-06 0.00223492 2.23164e-07
5.59242e-06 2.23164e-07 0.002232
0.00148434 -1.52643e-05 0.000106022
-1.52643e-05 0.000443987 -4.57236e-06
0.000106022 -4.57236e-06 0.000424817
0.00181821 1.82657e-05 -5.73804e-07
1.82657e-05 0.00019946 -4.00274e-07
-5.73804e-07 -4.00274e-07 8.73319e-05
0.00174805 2.39849e-05 -4.33414e-08
2.39849e-05 0.000120282 3.25153e-07
-4.33414e-08 3.25153e-07 1.11703e-05
0.00145747 2.81877e-05 -3.67291e-06
2.81877e-05 5.78071e-05 -4.34733e-07
-3.67291e-06 -4.34733e-07 -5.40634e-05
0.00160109 2.76843e-05 3.83231e-07
2.76843e-05 8.25255e-05 -4.07621e-08
3.83231e-07 -4.07621e-08 -3.10901e-05
0.00175138 2.99764e-05 -1.95264e-08
2.99764e-05 0.000105379 -4.95199e-07
-1.95264e-08 -4.95199e-07 -1.93984e-06
0.00118749 5.15642e-05 -9.45224e-06
5.15642e-05 9.44898e-06 -1.9343e-06
-9.45224e-06 -1.9343e-06 -8.7447e-05
0.00145583 5.91369e-05 -6.21635e-08
5.91369e-05 6.23122e-05 2.59234e-07
-6.21635e-08 2.59234e-07 -5.15417e-05
0.00153792 4.95235e-05 1.03153e-06
4.95235e-05 4.94021e-05 7.38384e-09
1.03153e-06 7.38384e-09 -6.77282e-05
0.000660536 5.47676e-05 -1.4547e-05
5.47676e-05 -0.000104729 -4.0754e-06
-1.4547e-05 -4.0754e-06 -0.000161083
0.000933389 7.08346e-05 -2.84669e-06
7.08346e-05 -0.000116106 -5.08335e-07
-2.84669e-06 -5.08335e-07 -0.000215524
0.00189056 0.000105237 4.56597e-06
0.000105237 0.000311015 9.22278e-07
4.56597e-06 9.22278e-07 0.000197072
0.00490603 2.28279e-05 -0.000124785
2.28279e-05 0.00230916 -6.23349e-06
-0.000124785 -6.23349e-06 0.00230465
0.000635703 7.36609e-05 1.25758e-07
7.36609e-05 -0.000100559 2.08741e-07
1.25758e-07 2.08741e-07 -0.000159165
0.000698715 8.17549e-05 6.3771e-06
8.17549e-05 -0.000220561 2.19782e-06
6.3771e-06 2.19782e-06 -0.000323521
0.00458227 -2.82721e-05 8.49973e-06
-2.82721e-05 0.00215778 -3.22502e-08
8.49973e-06 -3.22502e-08 0.00214564
0.000565646 8.14486e-05 1.31051e-05
8.14486e-05 -0.000112555 6.65731e-06
1.31051e-05 6.65731e-06 -0.000173405
0.00396464 -0.000121298 7.66859e-05
-0.000121298 0.00184247 5.21833e-06
7.66859e-05 5.21833e-06 0.00182487
0.00175452 1.48781e-05 -2.90415e-06
1.48781e-05 0.00020278 -7.47646e-07
-2.90415e-06 -7.47646e-07 8.90713e-05
0.00179166 1.21187e-05 1.63056e-07
1.21187e-05 0.000160813 8.76774e-08
1.63056e-07 8.76774e-08 4.49348e-05
0.00176412 1.52074e-05 1.92961e-07
1.52074e-05 0.000103562 5.07689e-07
1.92961e-07 5.07689e-07 -7.0967e-06
0.000853932 -1.10057e-05 -1.14447e-05
-1.10057e-05 -0.000202842 -1.6304e-07
-1.14447e-05 -1.6304e-07 -0.000309638
0.00177164 5.13875e-06 1.44503e-06
5.13875e-06 0.000207126 -2.97447e-09
1.44503e-06 -2.97447e-09 9.11062e-05
0.00180416 7.3983e-06 1.81933e-06
7.3983e-06 0.000167451 7.76101e-08
1.81933e-06 7.76101e-08 5.10515e-05
0.00175854 3.15102e-06 5.55238e-06
3.15102e-06 0.000200066 -1.50581e-07
5.55238e-06 -1.50581e-07 8.28751e-05
0.000856162 -2.58833e-06 -1.7302e-06
-2.58833e-06 -0.000202509 2.63251e-07
-1.7302e-06 2.63251e-07 -0.000310303
0.000752215 -4.08426e-06 -1.50256e-05
-4.08426e-06 -8.87433e-05 8.2867e-07
-1.50256e-05 8.2867e-07 -0.000151689
0.00121372 -5.93287e-06 7.54536e-06
-5.93287e-06 8.16538e-06 -1.24246e-06
7.54536e-06 -1.24246e-06 -9.46677e-05
0.000726954 2.14472e-06 2.16151e-07
2.14472e-06 -9.2649e-05 1.47885e-07
2.16151e-07 1.47885e-07 -0.000153862
0.00509817 -4.0272e-05 -0.000127815
-4.0272e-05 0.00240054 1.6053e-06
-0.000127815 1.6053e-06 0.00239602
0.000732935 7.89694e-07 1.37212e-05
7.89694e-07 -7.63932e-05 -2.26542e-06
1.37212e-05 -2.26542e-06 -0.000133953
0.00494093 2.46301e-05 7.36976e-06
2.46301e-05 0.00232157 1.38925e-07
7.36976e-06 1.38925e-07 0.00231622
0.00481084 -2.71267e-05 0.00013069
-2.71267e-05 0.00225064 -3.05784e-06
0.00013069 -3.05784e-06 0.00224821
0.0015203 1.67405e-05 -3.74944e-06
1.67405e-05 8.80575e-05 -1.20375e-06
-3.74944e-06 -1.20375e-06 -2.42297e-05
0.0016885 1.87688e-05 5.32508e-07
1.87688e-05 0.000128564 7.93503e-08
5.32508e-07 7.93503e-08 1.664e-05
0.00165855 2.62601e-05 5.13883e-08
2.62601e-05 7.14232e-05 5.75237e-07
5.13883e-08 5.75237e-07 -3.72947e-05
0.00119231 2.36716e-05 -9.1429e-06
2.36716e-05 4.8123e-06 -1.6105e-06
-9.1429e-06 -1.6105e-06 -9.2108e-05
0.00147556 2.84778e-05 2.21922e-07
2.84778e-05 6.66373e-05 -3.09314e-08
2.21922e-07 -3.09314e-08 -4.53364e-05
0.00156672 2.69704e-05 8.32919e-07
2.69704e-05 6.4126e-05 -6.27416e-07
8.32919e-07 -6.27416e-07 -4.95607e-05
0.000687587 3.30158e-05 -1.40898e-05
3.30158e-05 -0.000100972 -3.1272e-06
-1.40898e-05 -3.1272e-06 -0.000157247
0.00118261 5.28203e-05 2.9799e-08
5.28203e-05 7.29683e-06 1.91938e-07
2.9799e-08 1.91938e-07 -8.98748e-05
0.00148045 5.957e-05 4.40831e-06
5.957e-05 7.43022e-05 1.07838e-06
4.40831e-06 1.07838e-06 -3.9531e-05
0.00493662 4.88871e-05 -0.000135724
4.88871e-05 0.00231727 -5.29239e-06
-0.000135724 -5.29239e-06 0.00231447
0.000665159 5.46294e-05 3.20455e-08
5.46294e-05 -0.000102101 1.11831e-07
3.20455e-08 1.11831e-07 -0.000158584
0.00114456 7.78666e-05 6.93924e-06
7.78666e-05 -4.74747e-07 1.98269e-06
6.93924e-06 1.98269e-06 -9.90784e-05
0.00480317 3.21936e-05 5.07279e-06
3.21936e-05 0.00225816 7.49626e-07
5.07279e-06 7.49626e-07 0.00225242
0.000620321 6.92357e-05 1.35369e-05
6.92357e-05 -0.000108388 5.46582e-06
1.35369e-05 5.46582e-06 -0.000166987
0.00441587 -1.65963e-05 0.000103664
-1.65963e-05 0.00206301 5.98639e-06
0.000103664 5.98639e-06 0.00205588
0.00125262 7.16588e-06 -1.00876e-05
7.16588e-06 1.82782e-05 -6.68895e-07
-1.00876e-05 -6.68895e-07 -8.41794e-05
0.00157438 9.91461e-06 1.56976e-06
9.91461e-06 0.00010364 1.18362e-08
1.56976e-06 1.18362e-08 -1.19361e-05
0.00179898 7.75503e-06 1.38912e-06
7.75503e-06 0.000166522 8.15685e-07
1.38912e-06 8.15685e-07 5.04053e-05
0.000738421 1.80808e-05 -1.54195e-05
1.80808e-05 -0.000101707 -3.38573e-07
-1.54195e-05 -3.38573e-07 -0.000161725
0.000850377 -4.50946e-06 -1.93861e-06
-4.50946e-06 -0.000205465 4.13756e-08
-1.93861e-06 4.13756e-08 -0.000312351
0.00179476 1.17728e-05 6.18807e-06
1.17728e-05 0.000219724 3.15437e-08
6.18807e-06 3.15437e-08 0.000103647
0.000839681 -2.47863e-06 7.26857e-06
-2.47863e-06 -0.000211188 -2.43245e-07
7.26857e-06 -2.43245e-07 -0.000318925
0.000724736 3.69365e-06 7.08228e-08
3.69365e-06 -0.000103731 3.47127e-07
7.08228e-08 3.47127e-07 -0.000166553
0.0052628 4.99205e-05 -0.000131761
4.99205e-05 0.00248378 -4.66652e-07
-0.000131761 -4.66652e-07 0.00247972
0.000721609 1.12485e-05 1.41938e-05
1.12485e-05 -9.61697e-05 -1.33066e-06
1.41938e-05 -1.33066e-06 -0.000157401
0.00514553 -2.40236e-05 -4.64828e-07
-2.40236e-05 0.00242312 7.11121e-07
-4.64828e-07 7.11121e-07 0.00241941
0.00498998 3.11027e-05 0.000129591
3.11027e-05 0.00234224 -1.29725e-06
0.000129591 -1.29725e-06 0.00233939
0.00122427 1.12012e-05 -9.7259e-06
1.12012e-05 1.30407e-05 -1.76282e-06
-9.7259e-06 -1.76282e-06 -8.62954e-05
0.00142216 1.50242e-05 9.33585e-09
1.50242e-05 3.313e-05 -2.42694e-07
9.33585e-09 -2.42694e-07 -7.97024e-05
0.00156163 1.91926e-05 1.11993e-06
1.91926e-05 5.92226e-05 2.34942e-07
1.11993e-06 2.34942e-07 -5.25064e-05
0.00249564 1.37889e-05 -7.13572e-05
1.37889e-05 0.000874947 -2.03112e-06
-7.13572e-05 -2.03112e-06 0.000831085
0.00119971 2.54607e-05 1.44886e-07
2.54607e-05 8.63819e-06 8.39274e-08
1.44886e-07 8.39274e-08 -8.85042e-05
0.00149499 2.86496e-05 4.14957e-06
2.86496e-05 7.61836e-05 3.9454e-07
4.14957e-06 3.9454e-07 -3.58952e-05
0.00495414 5.11678e-05 -0.00014122
5.11678e-05 0.00232369 -3.99971e-06
-0.00014122 -3.99971e-06 0.00232072
0.000706439 3.50701e-05 1.21513e-07
3.50701e-05 -9.02135e-05 9.47495e-08
1.21513e-07 9.47495e-08 -0.000146665
0.00118117 5.4134e-05 9.50695e-06
5.4134e-05 6.85373e-06 2.271e-06
9.50695e-06 2.271e-06 -9.05775e-05
0.00489707 5.89569e-05 1.26097e-06
5.89569e-05 0.00229961 8.06e-07
1.26097e-06 8.06e-07 0.00229573
0.000673153 5.45818e-05 1.40482e-05
5.45818e-05 -9.7369e-05 4.3163e-06
1.40482e-05 4.3163e-06 -0.000153994
0.00470506 4.56314e-05 0.000121094
4.56314e-05 0.00220643 6.66177e-06
0.000121094 6.66177e-06 0.00220129
0.000773733 7.82438e-06 -1.5654e-05
7.82438e-06 -7.75852e-05 -1.64317e-06
-1.5654e-05 -1.64317e-06 -0.000139622
0.00105651 4.31738e-06 4.32936e-07
4.31738e-06 -8.80037e-05 4.68989e-07
4.32936e-07 4.68989e-07 -0.000191784
0.00138797 4.89139e-06 5.5264e-06
4.89139e-06 1.05008e-06 7.64694e-07
5.5264e-06 7.64694e-07 -0.00011635
0.00530078 -7.01905e-05 -0.00012647
-7.01905e-05 0.00251248 -1.93151e-06
-0.00012647 -1.93151e-06 0.00250247
0.000735499 9.65719e-06 -1.58118e-07
9.65719e-06 -0.000100647 2.06826e-07
-1.58118e-07 2.06826e-07 -0.000162193
0.000856567 1.61285e-06 7.49597e-06
1.61285e-06 -0.000202962 1.59789e-07
7.49597e-06 1.59789e-07 -0.00030993
0.000716585 1.5052e-05 1.45614e-05
1.5052e-05 -0.00010838 4.17252e-08
1.45614e-05 4.17252e-08 -0.000171253
0.00530078 3.8925e-05 4.77603e-06
3.8925e-05 0.00250666 4.51408e-07
4.77603e-06 4.51408e-07 0.00250023
0.00523469 9.15141e-05 0.000130137
9.15141e-05 0.00247391 1.76251e-08
0.000130137 1.76251e-08 0.00246644
0.002587 -6.6729e-06 -7.39615e-05
-6.6729e-06 0.000914779 -1.89485e-06
-7.39615e-05 -1.89485e-06 0.000868736
0.00123349 1.33228e-05 -7.58541e-08
1.33228e-05 1.78067e-05 -5.43036e-08
-7.58541e-08 -5.43036e-08 -8.1512e-05
0.00132421 1.34495e-05 3.88962e-06
1.34495e-05 -2.17443e-05 6.95548e-07
3.88962e-06 6.95548e-07 -0.000135115
0.00474601 2.20951e-05 -3.17176e-05
2.20951e-05 0.0022201 -1.27471e-06
-3.17176e-05 -1.27471e-06 0.00220876
0.000744795 1.81452e-05 -6.39183e-08
1.81452e-05 -7.52425e-05 1.95544e-07
-6.39183e-08 1.95544e-07 -0.000133394
0.0012231 2.79337e-05 9.38535e-06
2.79337e-05 2.06273e-05 1.828e-06
9.38535e-06 1.828e-06 -7.66854e-05
0.00494793 5.23551e-05 -4.23003e-06
5.23551e-05 0.00232187 4.70994e-07
-4.23003e-06 4.70994e-07 0.00231884
0.000725619 4.08911e-05 1.47281e-05
4.08911e-05 -7.86015e-05 3.54692e-06
1.47281e-05 3.54692e-06 -0.000135503
0.00486233 7.18389e-05 0.000131237
7.18389e-05 0.0022836 6.57791e-06
0.000131237 6.57791e-06 0.00227885
0.00173728 -2.19076e-05 -0.000126885
-2.19076e-05 0.000558855 2.1131e-07
-0.000126885 2.1131e-07 0.000536066
0.00167272 1.24335e-05 -3.01894e-05
1.24335e-05 0.000411486 4.40584e-07
-3.01894e-05 4.40584e-07 0.000358605
0.000860817 4.51092e-06 9.77996e-06
4.51092e-06 -0.000193957 1.44181e-06
9.77996e-06 1.44181e-06 -0.000299084
0.00528694 -3.11236e-05 5.31354e-06
-3.11236e-05 0.00250168 -1.03512e-06
5.31354e-06 -1.03512e-06 0.00249433
0.000721004 2.8575e-06 1.52445e-05
2.8575e-06 -0.00010642 7.96919e-07
1.52445e-05 7.96919e-07 -0.000168861
0.00530871 -2.62636e-05 0.000140882
-2.62636e-05 0.00250789 6.90695e-07
0.000140882 6.90695e-07 0.0025034
0.00142676 -8.19177e-05 -7.38877e-06
-8.19177e-05 0.000414924 -8.2231e-07
-7.38877e-06 -8.2231e-07 0.000378773
0.00166421 8.45435e-06 -2.94393e-05
8.45435e-06 0.000415891 4.57896e-09
-2.94393e-05 4.57896e-09 0.000363087
0.00123734 1.3569e-05 9.38468e-06
1.3569e-05 1.9943e-05 1.69812e-06
9.38468e-06 1.69812e-06 -7.93871e-05
0.00319926 3.15501e-05 5.15971e-05
3.15501e-05 0.00137149 5.13206e-07
5.15971e-05 5.13206e-07 0.00135442
0.000760167 2.67066e-05 1.49849e-05
2.67066e-05 -6.67074e-05 3.03692e-06
1.49849e-05 3.03692e-06 -0.000125206
0.00493618 7.66535e-05 0.000134512
7.66535e-05 0.00231938 5.60675e-06
0.000134512 5.60675e-06 0.00231476
0.00523867 -3.85597e-05 -7.91036e-06
-3.85597e-05 0.00247637 4.05522e-07
-7.91036e-06 4.05522e-07 0.00246933
0.000730415 2.13482e-05 1.55028e-05
2.13482e-05 -0.000100043 1.75604e-06
1.55028e-05 1.75604e-06 -0.000159644
0.00526696 6.14886e-05 0.000130066
6.14886e-05 0.00249265 -1.37923e-06
0.000130066 -1.37923e-06 0.00248444
0.00327322 2.0853e-05 6.11281e-05
2.0853e-05 0.00140794 5.50291e-07
6.11281e-05 5.50291e-07 0.0013903
0.000739013 9.96926e-06 1.47823e-05
9.96926e-06 -8.53921e-05 2.43077e-06
1.47823e-05 2.43077e-06 -0.000145495
0.00499562 8.4855e-07 0.000127817
8.4855e-07 0.00234484 3.07786e-06
0.000127817 3.07786e-06 0.00234241
0.00518806 -0.000119414 0.000123193
-0.000119414 0.00245592 -8.59561e-08
0.000123193 -8.59561e-08 0.00244491
0.00507915 -8.50438e-05 0.00012301
-8.50438e-05 0.00239478 1.25895e-06
0.00012301 1.25895e-06 0.00238714
