# vtk DataFile Version 2.0
Wound Healing Simulation
ASCII
DATASET UNSTRUCTURED_GRID
POINTS 3012 float
69.9759 18.75 4
67.2507 60.3285 4
69.976 18.75 2
73.0099 25.446 4
71.1327 20.9142 4
68.6801 16.6661 4
67.8258 19.9261 3.98321
67.2507 60.3286 2
71.1327 54.0858 4
68.6801 58.3339 4
65.6939 62.2254 4
65.3124 59.0016 3.98308
74.6784 42.3946 4
73.7221 47.2057 4
69.9759 18.75 0
73.0099 25.446 2
68.6801 16.6661 2
71.1327 20.9142 2
67.8263 19.9289 2
74.6792 32.6053 4
73.7222 27.7943 4
72.1454 23.1494 4
70.6145 26.2209 3.98303
68.8861 21.9581 3.98375
67.2507 14.6715 4
66.6372 17.9719 3.98236
65.7972 21.0254 3.97446
67.2507 60.3285 0
71.1327 54.0858 2
68.6801 58.3339 2
65.694 62.2255 2
65.3136 58.9984 2
72.1454 51.8506 4
69.9759 56.25 4
68.8366 53.1131 3.98273
64.0165 64.0165 4
66.6109 57.1339 3.98284
63.8861 60.7665 3.98525
63.5003 57.7713 3.97527
60.3285 67.2507 4
74.6792 42.3947 2
73.7222 47.2057 2
74.9194 39.9526 4
74.2788 44.8158 4
72.1684 42.0856 3.98179
73.0099 49.554 4
71.2495 46.5982 3.98196
73.0099 25.446 0
71.1327 20.9142 0
68.6801 16.6661 0
67.8258 19.9261 0.0167899
74.6792 32.6053 2
73.7222 27.7943 2
67.2508 14.6715 2
72.1455 23.1494 2
70.6145 26.2214 2
66.638 17.9752 2
68.8863 21.9601 2
65.7967 21.0258 2
74.9197 35.0474 4
74.2794 30.1841 4
72.185 32.9432 3.98218
71.2785 28.4313 3.98244
69.8159 24.0596 3.98354
68.3471 26.9511 3.97293
66.7628 22.9331 3.9738
65.694 12.7746 4
65.324 16.1031 3.98363
64.7133 19.1957 3.97439
63.8856 22.0364 3.97055
71.1327 54.0858 0
65.6939 62.2254 0
68.6801 58.3339 0
65.3124 59.0016 0.0169223
72.1455 51.8506 2
69.9759 56.25 2
68.8368 53.1111 2
64.0165 64.0165 2
66.6116 57.1306 2
63.8876 60.7642 2
63.5 57.7716 2
62.2254 65.694 4
58.895 65.4144 3.99154
69.7692 50.989 3.98271
67.7838 55.1673 3.98268
66.6493 52.2091 3.97266
62.3366 62.4279 3.98792
64.6606 56.0312 3.97465
62.2031 59.4043 3.97707
61.8211 56.6788 3.97049
58.3339 68.6801 4
60.3285 67.2508 2
73.7221 47.2057 0
74.6784 42.3946 0
74.9197 39.9526 2
74.2794 44.8159 2
72.168 42.0856 2
73.0099 49.554 2
71.2495 46.5979 2
75 37.5 4
72.4056 39.8022 3.98198
71.7828 44.353 3.98199
69.804 41.7895 3.97184
70.5753 48.8136 3.98231
68.9123 46.0148 3.97188
74.6792 32.6053 0
73.7222 27.7943 0
67.2507 14.6715 0
72.1454 23.1494 0
70.6145 26.2209 0.0169707
68.8861 21.9581 0.0162533
66.6372 17.9719 0.0176421
65.7972 21.0254 0.0255431
74.9197 35.0474 2
74.2794 30.1841 2
72.1847 32.9434 2
71.2784 28.4316 2
65.694 12.7745 2
65.3253 16.1059 2
69.816 24.0607 2
68.3471 26.9513 2
64.7128 19.1958 2
66.7624 22.9335 2
63.885 22.0364 2
72.4134 35.2241 3.98204
71.8041 30.6762 3.9823
69.8401 33.268 3.9723
68.9664 29.0378 3.97262
67.6115 24.9117 3.97324
66.1937 27.6345 3.96918
64.0165 10.9835 4
64.7554 23.8304 3.96985
63.8906 14.3266 3.98627
63.5132 17.4475 3.97592
62.9043 20.3232 3.96993
62.0893 22.9459 3.96881
60.6843 11.0974 3.98875
57.6124 11.4475 3.98161
72.1454 51.8506 0
69.9759 56.25 0
68.8366 53.1131 0.0172667
64.0165 64.0165 0
63.8861 60.7665 0.0147518
66.6109 57.1339 0.0171606
63.5003 57.7713 0.0247332
62.2255 65.694 2
58.8958 65.414 2
69.7692 50.9879 2
67.7843 55.1645 2
66.6489 52.2086 2
62.338 62.4265 2
64.6601 56.0311 2
62.2029 59.4053 2
61.8206 56.6796 2
60.6692 63.9773 3.98985
57.0259 66.735 3.99219
57.5584 63.6923 3.98412
67.5075 50.1768 3.97216
65.7016 54.173 3.97333
64.536 51.3842 3.96854
60.7734 60.9382 3.97983
62.8179 55.0657 3.97037
60.657 58.1575 3.97168
60.3231 55.7801 3.96979
56.25 69.9759 4
58.3339 68.6801 2
60.3285 67.2507 0
58.9215 9.65573 3.98975
62.2254 9.30607 4
73.0099 49.554 0
74.2788 44.8158 0
71.2495 46.5982 0.0180438
72.1684 42.0856 0.0182121
74.9194 39.9526 0
75 37.5 2
72.4055 39.8024 2
71.7827 44.3527 2
69.8038 41.7893 2
70.5754 48.8132 2
68.9123 46.0144 2
72.489 37.512 3.98186
70.0411 39.6572 3.97177
69.4305 43.9074 3.97192
67.5965 41.4969 3.96886
68.266 48.1072 3.97191
66.7088 45.4392 3.96856
74.9197 35.0474 0
74.2794 30.1841 0
72.185 32.9432 0.0178226
71.2785 28.4313 0.0175558
65.694 12.7746 0
65.324 16.1031 0.016367
69.8159 24.0596 0.0164561
68.3471 26.9511 0.0270656
66.7628 22.9331 0.0261976
64.7133 19.1957 0.0256122
63.8856 22.0364 0.0294486
72.4133 35.2241 2
71.8041 30.6766 2
69.8398 33.2683 2
68.9664 29.038 2
64.0165 10.9835 2
63.892 14.3287 2
63.513 17.447 2
67.6113 24.9121 2
66.1936 27.6346 2
62.9038 20.323 2
64.7549 23.8304 2
62.0888 22.9459 2
60.6855 11.0987 2
57.6126 11.4467 2
70.0578 35.3916 3.97197
69.4672 31.1491 3.97225
67.6547 33.5907 3.96916
66.7714 29.6227 3.96903
65.523 25.6993 3.96945
64.1405 28.2569 3.96924
62.3421 12.6546 3.98775
62.8537 24.6391 3.9689
62.1997 15.7846 3.9791
61.811 18.6882 3.96985
61.2117 21.3464 3.96781
60.4147 23.7333 3.9686
59.2465 12.779 3.98033
55.8744 10.2337 3.98344
56.4049 13.1158 3.97788
69.7692 50.989 0.0172897
62.2254 65.694 0
58.895 65.4144 0.00845752
67.7838 55.1673 0.0173177
66.6493 52.2091 0.0273362
62.3366 62.4279 0.0120803
62.2031 59.4043 0.0229318
64.6606 56.0312 0.0253465
61.8211 56.6788 0.0295141
60.6703 63.9765 2
57.0264 66.7349 2
57.5585 63.6936 2
67.5073 50.1762 2
65.7012 54.1726 2
64.5356 51.3841 2
60.7735 60.9395 2
62.8175 55.0663 2
60.6568 58.1586 2
60.3229 55.7804 2
55.0715 67.932 3.99253
59.2195 62.3665 3.9812
55.8053 64.9105 3.98687
56.3268 62.0898 3.97963
65.3306 49.4075 3.96839
63.7036 53.2907 3.9688
62.4348 50.6482 3.96754
59.3328 59.556 3.9759
61.0714 54.3041 3.96902
59.2855 57.0058 3.96923
59.2349 55.1741 3.97236
48.1033 68.5787 3.98839
50.9491 69.9316 3.99275
54.0858 71.1327 4
56.25 69.976 2
58.3339 68.6801 0
57.0589 8.33574 3.99052
60.3285 7.74928 4
58.9226 9.65653 2
62.2255 9.30602 2
70.5753 48.8136 0.0176935
71.7828 44.353 0.0180108
68.9123 46.0148 0.0281248
69.804 41.7895 0.0281601
72.4056 39.8022 0.0180218
75 37.5 0
72.4887 37.5121 2
70.0411 39.657 2
69.4304 43.9071 2
67.5962 41.4968 2
68.266 48.1067 2
66.7088 45.439 2
70.1293 37.5213 3.97202
67.8337 39.5118 3.96895
67.2228 43.4693 3.96873
65.5396 41.2078 3.97001
66.0676 47.4173 3.96847
64.6402 44.8454 3.96906
72.4134 35.2241 0.0179602
71.8041 30.6762 0.0176959
69.8401 33.268 0.0276969
68.9664 29.0378 0.0273832
64.0165 10.9835 0
63.8906 14.3266 0.0137298
63.5132 17.4475 0.0240804
67.6115 24.9117 0.0267611
66.1937 27.6345 0.0308165
64.7554 23.8304 0.0301493
62.9043 20.3232 0.0300717
62.0893 22.9459 0.03119
60.6843 11.0974 0.0112464
57.6124 11.4475 0.0183852
70.0578 35.3918 2
69.4671 31.1493 2
67.6544 33.5908 2
66.7714 29.6227 2
62.3434 12.6563 2
62.1995 15.7838 2
61.8108 18.6873 2
65.5227 25.6993 2
64.1402 28.2569 2
61.2111 21.3463 2
62.8533 24.6391 2
60.415 23.7334 2
59.2466 12.7785 2
56.4047 13.1148 2
55.8746 10.2328 2
67.8697 35.5473 3.96911
67.2644 31.6222 3.96901
65.6871 33.9276 3.97016
64.6547 30.1933 3.96928
63.5338 26.4157 3.96905
62.2359 28.782 3.97207
60.7759 14.2234 3.98025
61.033 25.343 3.96998
60.6118 17.1295 3.97465
60.2147 19.8236 3.9661
59.6473 22.2657 3.96634
58.9572 24.3292 3.9704
54.0376 9.13626 3.98477
57.9101 14.334 3.97863
54.7865 12.0145 3.97926
55.3115 14.6514 3.97643
67.5075 50.1768 0.0278428
57.0259 66.735 0.0078052
60.6692 63.9773 0.0101496
57.5584 63.6923 0.015877
65.7016 54.173 0.026675
64.536 51.3842 0.0314564
60.7734 60.9382 0.0201683
60.657 58.1575 0.028316
62.8179 55.0657 0.0296268
60.3231 55.7801 0.0302098
55.0719 67.932 2
59.2196 62.3677 2
55.8053 64.9115 2
56.3268 62.0911 2
65.3303 49.4074 2
63.7033 53.2908 2
62.4352 50.6482 2
59.3329 59.5574 2
61.0713 54.3042 2
59.2856 57.0057 2
59.2348 55.174 2
53.0433 68.9998 3.99265
53.9677 66.0132 3.98781
57.8803 60.8693 3.97821
54.6841 63.2078 3.98264
55.2104 60.6142 3.9774
63.1826 48.6572 3.96802
61.7358 52.571 3.96751
60.2458 50.0092 3.9684
58.0157 58.2576 3.97193
59.3178 53.9381 3.9678
58.1189 55.7994 3.96621
50.11 67.8567 3.9883
47.4636 66.5809 3.98562
46.0568 69.1579 3.98842
48.1033 68.5792 2
48.8032 70.7229 3.99284
50.9495 69.9317 2
51.8506 72.1454 4
54.0858 71.1327 2
56.25 69.9759 0
55.1034 7.14029 3.99122
58.3339 6.31992 4
57.0598 8.33612 2
60.3286 7.74926 2
58.9215 9.65573 0.0102528
62.2254 9.30607 0
68.266 48.1072 0.0280898
69.4305 43.9074 0.0280794
66.7088 45.4392 0.0314404
67.5965 41.4969 0.0311352
70.0411 39.6572 0.0282305
72.489 37.512 0.0181409
70.1291 37.5213 2
67.8336 39.5117 2
67.2227 43.4691 2
65.5391 41.2077 2
66.0676 47.4172 2
64.6398 44.8453 2
67.9302 37.5216 3.96919
65.7711 39.3688 3.97026
65.1638 43.0228 3.96963
63.7095 40.9261 3.97265
63.9507 46.7131 3.96849
62.7733 44.2105 3.97242
70.0578 35.3916 0.0280272
69.4672 31.1491 0.0277464
67.6547 33.5907 0.0308443
66.7714 29.6227 0.0309662
62.3421 12.6546 0.0122451
62.1997 15.7846 0.0208964
61.811 18.6882 0.0301541
65.523 25.6993 0.030546
64.1405 28.2569 0.030759
62.8537 24.6391 0.0311036
61.2117 21.3464 0.0321906
60.4147 23.7333 0.0313984
59.2465 12.779 0.0196655
56.4049 13.1158 0.0221167
55.8744 10.2337 0.0165641
67.8697 35.5473 2
67.2643 31.6223 2
65.6869 33.9276 2
64.6544 30.1933 2
60.7758 14.2228 2
60.6115 17.1284 2
60.2148 19.823 2
63.5336 26.4158 2
62.2352 28.7822 2
59.6488 22.2656 2
61.0329 25.3431 2
58.9569 24.3296 2
57.9097 14.3331 2
55.311 14.6506 2
54.0378 9.13546 2
54.7865 12.0133 2
65.8606 35.6666 3.97016
65.1729 32.1553 3.96965
64.2516 34.2503 3.97242
62.5568 30.6396 3.97234
61.6295 27.0776 3.97071
60.809 29.1465 3.97518
59.3104 15.6703 3.97775
59.2978 25.8057 3.97302
59.1188 18.3611 3.97109
58.7241 20.8639 3.96448
58.2626 23.1025 3.96632
57.9333 24.6761 3.97207
52.1123 8.15422 3.98586
53.058 11.0195 3.98091
56.6753 15.7466 3.97776
53.8085 13.6861 3.97689
54.3741 16.0064 3.97726
55.0715 67.932 0.00747147
65.3306 49.4075 0.0316055
55.8053 64.9105 0.0131286
59.2195 62.3665 0.0188011
56.3268 62.0898 0.0203698
63.7036 53.2907 0.0311956
62.4348 50.6482 0.032463
59.3328 59.556 0.0241043
59.2855 57.0058 0.0307666
61.0714 54.3041 0.0309846
59.2349 55.1741 0.0276391
53.0437 68.9999 2
53.9676 66.0139 2
57.8801 60.8705 2
54.6841 63.209 2
55.2104 60.6157 2
63.1824 48.6571 2
61.7357 52.5709 2
60.2458 50.0089 2
58.0156 58.2594 2
59.318 53.9379 2
58.1187 55.7989 2
52.0712 66.9997 3.98817
52.9539 64.219 3.98464
56.6468 59.4863 3.97598
53.6809 61.6217 3.98018
54.2581 59.3172 3.97601
60.9531 47.8707 3.96923
59.6901 52.0952 3.96784
57.9742 49.6009 3.97081
56.7712 56.9748 3.9689
57.1035 54.1065 3.96659
50.1099 67.8572 2
49.3375 65.9213 3.9855
47.4636 66.5815 2
46.893 64.7358 3.98406
45.5587 67.098 3.98561
43.9736 69.5902 3.98846
46.0568 69.1585 2
46.6098 71.3674 3.99284
48.1033 68.5787 0.0116149
48.8036 70.7231 2
49.554 73.0099 4
50.9491 69.9316 0.0072503
51.8506 72.1455 2
54.0858 71.1327 0
53.0647 6.07186 3.99156
55.1041 7.14041 2
56.25 5.02411 4
58.3339 6.3199 2
57.0589 8.33574 0.00948469
60.3285 7.74928 0
66.0676 47.4173 0.0315312
67.2228 43.4693 0.031267
64.6402 44.8454 0.0309402
65.5396 41.2078 0.0299892
67.8337 39.5118 0.0310496
70.1293 37.5213 0.0279769
67.93 37.5216 2
65.7706 39.3688 2
65.1635 43.0227 2
63.7089 40.926 2
63.9502 46.7129 2
62.7723 44.2102 2
65.8738 37.501 3.97019
63.8476 39.2643 3.97239
63.285 42.5454 3.9725
62.3619 40.6934 3.97563
61.9314 45.9114 3.97107
61.3908 43.6752 3.97564
67.8697 35.5473 0.0308947
67.2644 31.6222 0.0309875
65.6871 33.9276 0.0298391
64.6547 30.1933 0.0307157
60.7759 14.2234 0.0197546
60.6118 17.1295 0.0253542
60.2147 19.8236 0.0339018
63.5338 26.4157 0.0309477
62.2359 28.782 0.0279282
61.033 25.343 0.030016
59.6473 22.2657 0.0336551
58.9572 24.3292 0.0295972
57.9101 14.334 0.02137
55.3115 14.6514 0.0235705
54.0376 9.13626 0.0152335
54.7865 12.0145 0.020736
65.8603 35.6666 2
65.1729 32.1553 2
64.2514 34.2503 2
62.5563 30.6396 2
59.3099 15.6694 2
59.1188 18.3599 2
58.7249 20.8641 2
61.6289 27.0778 2
60.8088 29.1467 2
58.2633 23.1029 2
59.298 25.8061 2
57.9335 24.6767 2
56.6747 15.7456 2
54.3733 16.0057 2
53.8083 13.6849 2
52.1124 8.15357 2
53.0579 11.0185 2
64.046 35.6322 3.97196
62.8792 33.0484 3.97298
60.5549 30.6179 3.97547
59.5231 27.9191 3.97432
57.937 16.9874 3.97608
57.6936 25.7383 3.97467
57.7039 19.4857 3.96808
57.3433 21.8537 3.9635
57.146 23.9606 3.96883
50.1125 7.28536 3.98702
51.2327 10.1267 3.98244
52.1716 12.8016 3.97917
55.5343 16.9789 3.97736
52.9758 15.2724 3.97516
53.7544 16.9899 3.97966
53.0433 68.9998 0.00735125
53.9677 66.0132 0.0121855
63.1826 48.6572 0.031976
54.6841 63.2078 0.017356
57.8803 60.8693 0.0217902
55.2104 60.6142 0.0225994
61.7358 52.571 0.032487
60.2458 50.0092 0.0315988
58.0157 58.2576 0.0280719
58.1189 55.7994 0.0337944
59.3178 53.9381 0.0321962
52.0711 67.0003 2
52.9537 64.2198 2
56.6466 59.4873 2
53.6808 61.6231 2
54.2582 59.3186 2
60.952 47.8704 2
59.691 52.0951 2
57.9724 49.6002 2
56.7707 56.9795 2
57.1033 54.1061 2
51.1685 65.1282 3.98532
52.0465 62.5388 3.98235
55.4773 58.2455 3.9767
52.8331 60.1332 3.97813
53.6361 58.4668 3.97942
58.2343 46.833 3.97383
57.5318 51.7709 3.96832
56.1773 49.5349 3.97082
55.4596 55.7735 3.96579
55.3294 53.3637 3.96482
50.11 67.8567 0.0116969
49.3374 65.9219 2
48.6188 64.1225 3.98422
47.4636 66.5809 0.0143842
45.5586 67.0986 2
46.8928 64.7363 2
46.3827 63.0526 3.98348
45.1332 65.1969 3.98402
43.6318 67.4687 3.98567
41.8608 69.8776 3.98832
43.9737 69.5907 2
44.3771 71.8622 3.99273
46.0568 69.1579 0.0115783
46.6101 71.3676 2
47.2057 73.7222 4
48.8032 70.7229 0.00716077
49.554 73.0099 2
51.8506 72.1454 0
50.9546 5.13201 3.99205
53.0652 6.07182 2
54.0858 3.86728 4
55.1034 7.14029 0.00877671
56.25 5.02406 2
58.3339 6.31992 0
63.9507 46.7131 0.0315056
65.1638 43.0228 0.0303656
62.7733 44.2105 0.0275772
63.7095 40.9261 0.0273536
65.7711 39.3688 0.0297392
67.9302 37.5216 0.0308105
65.8733 37.501 2
63.8469 39.2642 2
63.2843 42.5452 2
62.3611 40.6933 2
61.9303 45.9111 2
61.3896 43.6749 2
63.9092 37.4558 3.97195
62.0759 39.352 3.97423
61.1405 41.9511 3.97555
60.1904 44.7597 3.97528
65.8606 35.6666 0.0298406
65.1729 32.1553 0.0303515
64.2516 34.2503 0.0275786
62.5568 30.6396 0.0276601
59.3104 15.6703 0.0222461
59.1188 18.3611 0.028914
58.7241 20.8639 0.0355203
61.6295 27.0776 0.0292859
60.809 29.1465 0.0248235
59.2978 25.8057 0.0269812
58.2626 23.1025 0.0336828
57.9333 24.6761 0.0279314
56.6753 15.7466 0.0222384
54.3741 16.0064 0.0227432
53.8085 13.6861 0.0231083
52.1123 8.15422 0.0141356
53.058 11.0195 0.019092
64.0455 35.6321 2
62.8786 33.0484 2
60.5549 30.6181 2
57.9365 16.9863 2
57.7042 19.4841 2
57.344 21.854 2
59.5224 27.9195 2
57.1456 23.9612 2
57.6947 25.7389 2
50.1126 7.28476 2
55.5337 16.9778 2
53.7536 16.989 2
52.9754 15.2712 2
52.1714 12.8006 2
51.2326 10.126 2
62.1106 35.3602 3.97352
60.2036 32.7503 3.97565
58.5427 30.0862 3.97638
57.2235 27.3955 3.97561
56.6303 18.1634 3.97578
56.2365 25.1184 3.97209
56.3376 20.5361 3.9656
56.0675 22.8863 3.96365
48.0565 6.52783 3.98813
49.3248 9.33329 3.98325
50.4332 11.9978 3.98041
51.3762 14.5049 3.97643
54.4085 17.9296 3.97837
52.3571 17.0494 3.97441
52.0712 66.9997 0.0118318
52.9539 64.219 0.0153641
60.9531 47.8707 0.0307725
53.6809 61.6217 0.019818
56.6468 59.4863 0.0240168
54.2581 59.3172 0.023993
59.6901 52.0952 0.0321576
57.9742 49.6009 0.0291931
56.7712 56.9748 0.0310983
57.1035 54.1065 0.0334129
51.1683 65.1288 2
52.0462 62.5397 2
55.4771 58.2465 2
52.8331 60.1348 2
53.636 58.4675 2
58.2335 46.8324 2
57.5318 51.7704 2
56.1763 49.5343 2
55.4601 55.7745 2
55.3299 53.3637 2
50.3468 63.3808 3.98374
51.2438 60.9343 3.97983
54.2122 57.2618 3.97635
52.3093 58.6281 3.97653
56.5902 44.1618 3.97761
55.4016 47.873 3.97301
55.0276 51.3707 3.96755
53.9816 54.5209 3.96611
49.3375 65.9213 0.0144978
48.6186 64.1231 2
47.9627 62.474 3.98334
45.5587 67.098 0.0143872
46.893 64.7358 0.0159407
43.6317 67.4693 2
46.3826 63.0531 2
45.133 65.1975 2
45.9883 61.5845 3.98335
44.7679 63.4529 3.98301
43.3572 65.5063 3.98394
41.6638 67.6874 3.98536
39.7024 70.0247 3.98844
41.8608 69.8782 2
42.1113 72.2071 3.99266
43.9736 69.5902 0.0115436
44.3774 71.8625 2
44.8159 74.2794 4
46.6098 71.3674 0.00716008
47.2057 73.7222 2
49.554 73.0099 0
48.7851 4.32277 3.99253
50.955 5.13184 2
51.8506 2.85458 4
53.0647 6.07186 0.00844116
54.0858 3.86728 2
56.25 5.02411 0
61.9314 45.9114 0.028925
63.285 42.5454 0.027497
61.3908 43.6752 0.0243589
62.3619 40.6934 0.0243732
63.8476 39.2643 0.0276099
65.8738 37.501 0.0298137
63.9085 37.4557 2
62.0751 39.352 2
61.1396 41.9508 2
60.1893 44.7593 2
61.9138 37.4434 3.97364
60.146 39.8407 3.97708
58.888 42.9047 3.97694
64.046 35.6322 0.0280401
62.8792 33.0484 0.0270156
60.5549 30.6179 0.0245257
57.937 16.9874 0.0239212
57.7039 19.4857 0.0319158
57.3433 21.8537 0.0364978
59.5231 27.9191 0.0256787
57.6936 25.7383 0.0253327
57.146 23.9606 0.0311742
55.5343 16.9789 0.022637
53.7544 16.9899 0.0203361
52.9758 15.2724 0.0248412
50.1125 7.28536 0.0129849
52.1716 12.8016 0.0208326
51.2327 10.1267 0.0175585
62.1094 35.3602 2
60.2024 32.7505 2
58.5424 30.0867 2
56.6299 18.1621 2
56.338 20.5332 2
56.0685 22.8869 2
57.2252 27.396 2
56.2387 25.119 2
48.0565 6.52706 2
49.3247 9.33267 2
54.4081 17.9287 2
52.3562 17.0486 2
51.3756 14.5037 2
50.4329 11.9972 2
59.7887 35.1219 3.97663
57.8762 32.2816 3.97683
56.4566 29.3565 3.97707
55.365 26.6202 3.97564
55.3304 19.1981 3.97476
54.8733 24.0784 3.96669
54.9705 21.5817 3.96419
45.9625 5.88256 3.9888
43.374 7.4739 3.98577
47.3554 8.62568 3.98439
48.6002 11.2977 3.98106
49.7128 13.749 3.97957
50.6304 16.1422 3.97692
53.1152 18.6731 3.974
51.2934 18.0629 3.98074
51.1685 65.1282 0.0146752
52.0465 62.5388 0.0176478
58.2343 46.833 0.0261697
52.8331 60.1332 0.0218698
55.4773 58.2455 0.0232973
53.6361 58.4668 0.0205754
57.5318 51.7709 0.0316807
56.1773 49.5349 0.0291787
55.4596 55.7735 0.0342129
55.3294 53.3637 0.0351833
50.3465 63.3813 2
51.2435 60.9352 2
54.2121 57.2628 2
52.3091 58.6288 2
56.5895 44.1611 2
55.4002 47.8722 2
55.0276 51.3705 2
53.9823 54.5224 2
49.5922 61.7441 3.98236
55.46 41.6814 3.97694
50.5648 59.3257 3.976
52.1741 56.4813 3.97039
54.0433 45.5328 3.97647
53.245 49.3037 3.97058
52.6277 52.8271 3.96592
48.6188 64.1225 0.0157848
47.9625 62.4744 2
47.3296 61.0078 3.98337
43.6318 67.4687 0.0143257
45.1332 65.1969 0.0159848
46.3827 63.0526 0.016518
41.6638 67.6878 2
43.357 65.5071 2
45.9882 61.5851 2
44.7678 63.4536 2
45.7665 60.6285 3.9816
44.4843 61.8332 3.98262
43.1471 63.7251 3.98256
41.5466 65.6437 3.98317
39.6329 67.7669 3.98497
37.5259 70.0497 3.98828
39.7024 70.0253 2
39.818 72.4042 3.99249
41.8608 69.8776 0.0116835
42.1116 72.2074 2
42.3947 74.6792 4
44.3771 71.8622 0.00727194
44.8159 74.2794 2
47.2057 73.7222 0
43.8519 5.35932 3.98898
46.5711 3.64718 3.99275
48.7854 4.32248 2
49.554 1.99015 4
50.9546 5.13201 0.007948
51.8506 2.85453 2
54.0858 3.86728 0
60.1904 44.7597 0.0247243
61.1405 41.9511 0.024448
62.0759 39.352 0.0257658
63.9092 37.4558 0.0280496
61.9127 37.4434 2
60.145 39.8404 2
58.8871 42.9042 2
59.6439 37.5642 3.97771
57.8569 40.6426 3.97764
54.9002 39.698 3.97678
62.1106 35.3602 0.0264842
60.2036 32.7503 0.0243472
58.5427 30.0862 0.0236196
56.6303 18.1634 0.0242205
56.3376 20.5361 0.0343965
56.0675 22.8863 0.036348
57.2235 27.3955 0.0243904
56.2365 25.1184 0.0279109
54.4085 17.9296 0.0216304
52.3571 17.0494 0.025588
51.3762 14.5049 0.0235745
48.0565 6.52783 0.0118715
49.3248 9.33329 0.0167466
50.4332 11.9978 0.0195885
59.7867 35.1221 2
45.9624 5.88212 2
43.374 7.47346 2
57.8768 32.2823 2
56.4565 29.3572 2
55.3302 19.1972 2
54.9716 21.5809 2
54.873 24.0799 2
55.3601 26.6214 2
47.3554 8.62462 2
48.6 11.2971 2
53.1151 18.6721 2
51.2929 18.0622 2
50.6297 16.1413 2
49.7121 13.7486 2
57.2411 34.7708 3.9776
55.6066 31.538 3.97809
54.3874 28.4324 3.97838
53.7059 25.524 3.97309
53.9513 20.1512 3.97408
53.536 22.7376 3.95944
41.3992 7.07906 3.98634
45.3601 7.99572 3.98584
42.8661 9.41753 3.9832
46.6669 10.6567 3.98185
47.7447 13.1077 3.98099
48.9292 15.4088 3.97746
50.0001 17.7111 3.97801
51.6355 19.3388 3.98114
50.3468 63.3808 0.016259
51.2438 60.9343 0.0201734
56.5902 44.1618 0.022393
55.4016 47.873 0.0269879
52.3093 58.6281 0.0234706
54.2122 57.2618 0.0236453
55.0276 51.3707 0.0324507
53.9816 54.5209 0.0338901
49.5918 61.7443 2
55.4598 41.6811 2
50.5646 59.3267 2
52.174 56.4821 2
54.047 45.532 2
53.2484 49.3035 2
52.6296 52.8268 2
48.8482 60.2005 3.98058
52.3228 42.6068 3.97968
49.7836 57.6186 3.97608
50.5664 54.4116 3.96729
51.6787 47.2379 3.97591
51.1458 50.9221 3.96437
47.9645 43.7611 3.99094
47.9627 62.474 0.0166645
47.3295 61.0081 2
46.6185 59.7936 3.98264
41.6638 67.6874 0.0146436
43.3572 65.5063 0.0160577
44.7679 63.4529 0.0169867
45.9883 61.5845 0.0166491
39.633 67.7677 2
41.5464 65.6439 2
45.7663 60.6292 2
43.1471 63.7258 2
44.4843 61.8339 2
44.6233 60.2904 3.98234
42.9513 62.0809 3.98102
41.6006 63.818 3.98253
39.6479 65.6112 3.98231
37.5635 67.749 3.9848
31.6967 65.1298 3.98308
33.3921 67.4864 3.98463
35.3334 69.9596 3.98826
37.526 70.0503 2
37.5095 72.4587 3.99236
39.7024 70.0247 0.0115584
39.8181 72.4046 2
39.9526 74.9197 4
42.1113 72.2071 0.00733848
42.3947 74.6792 2
44.8159 74.2794 0
41.7365 4.96845 3.98933
43.8519 5.35884 2
44.3263 3.11024 3.99311
46.5713 3.64697 2
47.2057 1.27793 4
48.7851 4.32277 0.00747116
49.554 1.99013 2
51.8506 2.85458 0
58.888 42.9047 0.0230557
60.146 39.8407 0.0229223
61.9138 37.4434 0.0263631
59.6427 37.5641 2
57.8554 40.6421 2
54.9009 39.6964 2
56.6446 37.8871 3.97799
49.3561 41.31 3.98938
52.9216 39.3035 3.98277
39.4426 6.80259 3.98641
59.7887 35.1219 0.0233663
57.8762 32.2816 0.0231684
56.4566 29.3565 0.0229341
55.3304 19.1981 0.0252439
54.9705 21.5817 0.0358082
54.8733 24.0784 0.0333072
55.365 26.6202 0.0243583
53.1152 18.6731 0.0259965
51.2934 18.0629 0.0192588
50.6304 16.1422 0.023083
45.9625 5.88256 0.0111998
49.7128 13.749 0.0204299
47.3554 8.62568 0.0156077
48.6002 11.2977 0.0189353
43.374 7.4739 0.0142267
57.2384 34.7708 2
41.3992 7.07859 2
45.36 7.99536 2
42.8658 9.4171 2
55.6076 31.5389 2
54.3843 28.4336 2
53.9516 20.1509 2
53.5367 22.735 2
53.7039 25.5254 2
46.6667 10.6553 2
47.7442 13.1069 2
51.6355 19.338 2
49.9993 17.7101 2
48.9283 15.4085 2
54.6908 33.9747 3.97693
53.3441 30.517 3.97809
52.4869 27.2369 3.97505
52.0817 24.1321 3.974
52.3635 21.0739 3.97767
41.014 9.05017 3.98343
44.7246 9.99701 3.98342
42.4689 10.9052 3.9835
46.005 12.7353 3.97927
47.6794 14.5915 3.9777
48.1074 16.9964 3.97626
49.8087 19.6567 3.97672
49.5922 61.7441 0.0176406
50.5648 59.3257 0.023997
55.46 41.6814 0.0230578
54.0433 45.5328 0.0235263
53.245 49.3037 0.0294249
52.1741 56.4813 0.0296083
52.6277 52.8271 0.0340832
48.848 60.2002 2
52.3289 42.6065 2
49.7834 57.6196 2
50.5667 54.4125 2
51.6819 47.2375 2
51.1477 50.9212 2
47.9703 43.7751 2
47.9842 58.7392 3.97905
49.9128 45.245 3.97902
48.5834 55.91 3.97727
49.0847 52.5735 3.97266
49.5753 49.0203 3.97053
45.7604 39.859 3.88884
46.2034 42.6402 3.92801
46.3289 45.8037 3.99035
43.5897 41.1393 3.82772
41.9102 42.011 3.72342
47.3296 61.0078 0.0166262
46.618 59.7942 2
45.4669 58.7901 3.98156
39.6329 67.7669 0.0150296
41.5466 65.6437 0.0168273
43.1471 63.7251 0.017437
44.4843 61.8332 0.0173832
45.7665 60.6285 0.018399
41.6006 63.8184 2
37.5635 67.7498 2
39.6478 65.6119 2
44.6231 60.291 2
42.9513 62.0814 2
41.7542 62.4917 3.98137
42.4805 59.9795 3.98207
39.8942 63.5517 3.9814
37.6423 65.5104 3.98271
35.4635 67.6582 3.98462
33.5752 65.343 3.98255
31.9591 63.3009 3.98251
29.8827 64.7211 3.98384
31.6967 65.1306 2
31.3766 67.1963 3.98489
33.3921 67.487 2
33.1563 69.753 3.98805
35.3334 69.9604 2
35.1947 72.373 3.99231
37.5259 70.0497 0.0117205
37.5095 72.4591 2
37.5 75 4
39.818 72.4042 0.00750759
39.9526 74.9197 2
42.3947 74.6792 0
39.6242 4.71571 3.98958
41.7365 4.96797 2
42.0626 2.71777 3.99323
43.8519 5.35932 0.0110233
44.3265 3.10994 2
44.8158 0.721173 4
46.5711 3.64718 0.00724503
47.2057 1.27779 2
49.554 1.99015 0
57.8569 40.6426 0.0223617
59.6439 37.5642 0.0222897
54.9002 39.698 0.0232198
49.3727 41.3134 2
56.6429 37.8875 2
52.9232 39.3035 2
53.7681 36.6311 3.97709
47.2823 40.3848 3.93552
50.2971 38.5086 3.99291
37.5165 6.67379 3.98656
39.4427 6.80203 2
39.2115 8.69279 3.98418
35.9424 8.49284 3.98432
57.2411 34.7708 0.0223989
55.6066 31.538 0.0219051
54.3874 28.4324 0.0216249
53.9513 20.1512 0.0259206
53.536 22.7376 0.0405593
53.7059 25.524 0.0269053
51.6355 19.3388 0.0188588
50.0001 17.7111 0.0219913
48.9292 15.4088 0.022542
45.3601 7.99572 0.0141645
47.7447 13.1077 0.0190051
46.6669 10.6567 0.0181477
41.3992 7.07906 0.0136557
42.8661 9.41753 0.0167973
54.6918 33.974 2
41.0138 9.04992 2
44.7242 9.99682 2
42.4685 10.9052 2
53.3404 30.5157 2
52.4917 27.2384 2
52.3642 21.0728 2
52.0834 24.1332 2
46.0045 12.7332 2
47.6787 14.5906 2
49.8087 19.6551 2
48.1065 16.9959 2
52.2523 32.8921 3.9802
51.1681 29.1911 3.97679
50.6946 25.7692 3.97224
49.914 22.2401 3.97813
40.5702 11.6101 3.9807
43.8586 11.9203 3.98
45.7998 15.4299 3.98056
47.498 19.2705 3.97718
46.0978 37.4861 3.89622
48.8482 60.2005 0.019417
49.7836 57.6186 0.0239165
52.3228 42.6068 0.02032
51.6787 47.2379 0.0240925
51.1458 50.9221 0.0356325
50.5664 54.4116 0.032713
47.9645 43.7611 0.00905697
47.9837 58.74 2
49.9198 45.2496 2
48.5828 55.912 2
49.0849 52.5759 2
49.5785 49.0201 2
45.7879 39.8665 2
46.2237 42.656 2
46.3289 45.7983 2
43.6131 41.16 2
41.9221 42.0208 2
46.8331 57.3413 3.98283
44.3369 39.4211 3.8282
42.2587 40.8741 3.76529
47.9383 47.2101 3.9764
47.1432 54.2297 3.97476
47.5215 50.7276 3.96605
44.6807 47.3886 3.98322
44.8631 41.9446 3.88479
44.8017 44.5373 3.94285
42.4453 42.6541 3.83647
40.8181 42.3499 3.75677
46.6185 59.7936 0.0173595
45.4663 58.7907 2
43.873 57.7134 3.98433
37.5635 67.749 0.0151953
39.6479 65.6112 0.0176934
41.6006 63.818 0.0174652
42.9513 62.0809 0.0189775
44.6233 60.2904 0.0176555
35.4635 67.6592 2
41.7542 62.4921 2
39.8942 63.5523 2
37.6424 65.511 2
42.4804 59.98 2
40.6237 61.6484 3.98176
40.4427 58.2072 3.98085
37.8373 63.2133 3.9808
35.5729 65.4319 3.98229
33.5753 65.3435 2
31.9589 63.3017 2
33.6288 63.3403 3.98192
30.378 62.8598 3.98284
32.1229 62.0066 3.98304
26.8681 61.5027 3.98208
28.0615 64.149 3.98347
29.8828 64.7219 2
29.406 66.7601 3.98512
31.6967 65.1298 0.0169229
31.3767 67.197 2
31.0136 69.4179 3.98804
33.3921 67.4864 0.0153748
33.1563 69.7536 2
32.8916 72.1472 3.99235
35.3334 69.9596 0.0117445
35.1947 72.3735 2
35.0474 74.9194 4
37.5095 72.4587 0.00764127
37.5 75 2
39.9526 74.9197 0
35.6212 6.72485 3.98622
37.5236 4.61526 3.98963
39.6242 4.71517 2
39.789 2.47421 3.99325
41.7365 4.96845 0.0106711
42.0627 2.71746 2
42.3946 0.32156 4
44.3263 3.11024 0.00689255
44.8159 0.72056 2
47.2057 1.27793 0
49.3561 41.31 0.0106186
56.6446 37.8871 0.0220057
52.9216 39.3035 0.0172272
47.2992 40.3989 2
50.3096 38.5065 2
53.7754 36.6323 2
51.0898 35.5736 3.97872
47.941 37.7416 3.94842
45.761 35.1317 3.88948
43.596 33.849 3.82447
41.9194 32.9875 3.72011
37.4584 8.53449 3.98456
37.5165 6.67305 2
39.4426 6.80259 0.0135886
39.2114 8.69219 2
38.977 10.1272 3.98323
35.8992 9.7738 3.98269
34.151 8.82247 3.98386
35.9421 8.49203 2
54.6908 33.9747 0.0230721
53.3441 30.517 0.0219135
52.4869 27.2369 0.0249471
52.3635 21.0739 0.0223282
52.0817 24.1321 0.0260035
49.8087 19.6567 0.0232792
48.1074 16.9964 0.0237368
47.6794 14.5915 0.0222966
44.7246 9.99701 0.0165789
46.005 12.7353 0.0207325
41.014 9.05017 0.0165732
42.4689 10.9052 0.0164998
52.2567 32.8928 2
40.5703 11.6107 2
43.8577 11.9204 2
51.1812 29.1918 2
50.6979 25.7712 2
49.9146 22.2383 2
45.7987 15.4273 2
47.4975 19.2705 2
49.7855 31.4286 3.98101
49.1631 27.5388 3.97532
49.3413 24.4543 3.9854
47.1703 22.0093 3.97384
38.3031 12.738 3.9796
42.1018 14.3098 3.9784
44.7969 18.4787 3.97697
44.6371 37.4934 3.83151
46.1415 37.4922 2
47.9842 58.7392 0.0209487
48.5834 55.91 0.0227333
49.9128 45.245 0.020983
49.5753 49.0203 0.0294708
49.0847 52.5735 0.0273398
45.7604 39.859 0.111161
46.2034 42.6402 0.0719945
46.3289 45.8037 0.00965164
43.5897 41.1393 0.172279
41.9102 42.011 0.27658
46.8322 57.3423 2
44.3568 39.4359 2
42.249 40.8758 2
47.9382 47.213 2
47.1426 54.234 2
47.5226 50.7303 2
44.6849 47.366 2
44.8838 41.9598 2
44.8158 44.5545 2
42.4794 42.6788 2
40.8184 42.3495 2
45.3874 55.9328 3.98976
42.5794 39.27 3.77741
40.7172 40.7894 3.84691
45.9981 48.8927 3.9835
45.4978 52.522 3.98152
43.3574 48.4139 4.00084
43.3015 46.0874 3.93088
43.5263 43.7368 3.88197
41.0201 43.8043 3.83061
39.2789 42.6925 3.77171
45.4669 58.7901 0.0184432
43.8725 57.7137 2
42.1021 56.3355 3.98684
35.4635 67.6582 0.0153784
37.6423 65.5104 0.0172891
39.8942 63.5517 0.0186016
41.7542 62.4917 0.018628
42.4805 59.9795 0.0179309
35.5731 65.4331 2
40.6237 61.649 2
37.8372 63.2138 2
40.4424 58.208 2
38.9215 56.4985 3.98815
38.2505 60.3303 3.98049
35.607 63.2059 3.98043
33.5752 65.343 0.0174471
31.9591 63.3009 0.017488
33.6287 63.341 2
30.3779 62.8605 2
32.1228 62.0074 2
28.6806 62.2045 3.98252
33.3457 61.5185 3.98226
31.0662 61.2237 3.98234
27.5678 59.5984 3.98123
23.7924 59.0853 3.98075
25.0339 60.8752 3.98107
26.8682 61.5033 2
26.2282 63.4812 3.98345
28.0617 64.1496 2
27.4625 66.184 3.9852
29.8827 64.7211 0.0161587
29.406 66.7608 2
28.9058 68.9436 3.98798
31.3766 67.1963 0.0151148
31.0135 69.4187 2
30.6139 71.7782 3.99238
33.1563 69.753 0.011946
32.8915 72.1476 2
32.6054 74.6784 4
35.1947 72.373 0.00769491
35.0474 74.9197 2
37.5 75 0
33.7239 6.97957 3.98576
35.4352 4.68549 3.98944
35.621 6.7242 2
37.5144 2.38683 3.99325
37.5236 4.61473 2
39.6242 4.71571 0.0104164
39.789 2.47387 2
39.9526 0.0806499 4
42.0626 2.71777 0.00677289
42.3947 0.320817 2
44.8158 0.721173 0
44.3519 35.5652 3.8232
42.2696 34.1162 3.76104
47.2823 40.3848 0.0644771
50.2971 38.5086 0.00708808
53.7681 36.6311 0.0229081
47.9533 37.7483 2
51.1013 35.5748 2
45.7818 35.1168 2
43.6224 33.8296 2
41.9302 32.9779 2
48.1149 34.3065 3.97324
44.8693 33.0417 3.87666
42.4605 32.3452 3.83268
40.8293 32.6513 3.75462
37.3114 10.6312 3.98186
37.4583 8.53344 2
37.5165 6.67379 0.013436
39.2115 8.69279 0.0158235
38.9772 10.1265 2
34.7544 10.3802 3.98182
35.8991 9.77294 2
32.3778 9.36954 3.98297
34.1506 8.82183 2
35.9424 8.49284 0.0156767
52.2523 32.8921 0.0197999
51.1681 29.1911 0.0232058
50.6946 25.7692 0.0277616
49.914 22.2401 0.0218655
47.498 19.2705 0.0228179
45.7998 15.4299 0.019442
43.8586 11.9203 0.0200022
40.5702 11.6101 0.019301
49.7959 31.4256 2
38.3028 12.7367 2
42.1012 14.312 2
49.1669 27.54 2
49.3435 24.4519 2
47.1694 22.0065 2
44.7962 18.4857 2
47.6262 29.5321 3.98905
47.036 25.1979 3.98359
44.2788 21.3799 3.97577
36.5829 12.9346 3.97935
38.6821 14.812 3.97816
41.7479 17.8538 3.9778
42.6968 37.4862 3.7864
44.6542 37.4941 2
46.0978 37.4861 0.103782
46.8331 57.3413 0.0171736
47.1432 54.2297 0.0252369
47.9383 47.2101 0.0235975
47.5215 50.7276 0.0339548
44.3369 39.4211 0.171803
44.8631 41.9446 0.115211
44.8017 44.5373 0.0571464
44.6807 47.3886 0.0167832
42.4453 42.6541 0.16353
42.2587 40.8741 0.234708
40.8181 42.3499 0.24323
45.3866 55.933 2
42.5726 39.2683 2
40.7052 40.7799 2
45.9974 48.8971 2
45.4984 52.5268 2
43.3595 48.4327 2
43.3281 46.1137 2
43.5484 43.759 2
41.0443 43.8301 2
39.2708 42.6827 2
43.7228 54.4421 3.9969
40.8152 39.1634 3.8785
39.15 40.8719 3.87331
43.6347 50.4693 4.00228
41.9055 47.6332 3.96425
41.8333 45.1605 3.88702
39.3439 44.5221 3.84099
37.4977 42.801 3.79147
43.873 57.7134 0.015666
42.1016 56.3361 2
40.4119 54.9417 3.99082
35.5729 65.4319 0.0177075
37.8373 63.2133 0.0191958
40.6237 61.6484 0.018236
40.4427 58.2072 0.0191533
35.607 63.2071 2
38.2505 60.331 2
38.9211 56.4994 2
37.9976 55.25 3.98723
36.9332 57.628 3.98022
35.3636 60.9154 3.98171
33.6288 63.3403 0.0180833
30.378 62.8598 0.0171623
32.1229 62.0066 0.0169594
33.3456 61.5195 2
28.6806 62.205 2
31.0661 61.2244 2
29.4026 60.2922 3.98139
32.357 59.7507 3.98551
28.0241 58.3786 3.98664
27.568 59.5989 2
25.3792 58.5969 3.97915
22.7586 58.2414 3.973
23.4001 60.3544 3.97948
23.7926 59.0861 2
25.034 60.876 2
24.4309 62.7735 3.98296
26.8681 61.5027 0.0179198
26.2284 63.4819 2
25.5465 65.494 3.98507
28.0615 64.149 0.0165324
27.4625 66.1846 2
26.8353 68.332 3.988
29.406 66.7601 0.0148803
28.9057 68.9442 2
28.3689 71.2634 3.99248
31.0136 69.4179 0.0119637
30.6137 71.7786 2
30.1842 74.2788 4
32.8916 72.1472 0.00765197
32.6053 74.6792 2
35.0474 74.9194 0
31.7883 7.41962 3.98519
33.3473 4.92471 3.98911
33.7237 6.97891 2
35.2445 2.46291 3.99324
35.4351 4.685 2
35.6212 6.72485 0.0137754
37.5 0 4
37.5143 2.38651 2
37.5236 4.61526 0.0103744
39.789 2.47421 0.00674764
39.9526 0.0802889 2
42.3946 0.32156 0
42.5824 35.7095 3.7789
44.3654 35.5526 2
40.7266 34.2076 3.84512
42.259 34.1163 2
47.941 37.7416 0.0515848
51.0898 35.5736 0.0212775
45.761 35.1317 0.110516
43.596 33.849 0.175527
41.9194 32.9875 0.27989
48.1311 34.2863 2
44.891 33.0288 2
42.4866 32.3234 2
40.8286 32.6511 2
46.1412 31.5707 3.94839
43.5261 31.2613 3.88125
41.0302 31.1966 3.83052
39.2882 32.3129 3.77084
35.6932 11.7771 3.98053
37.3116 10.6299 2
37.4584 8.53449 0.01544
38.977 10.1272 0.0167654
33.0984 11.2177 3.98036
34.7544 10.3794 2
35.8992 9.7738 0.0173081
30.4825 10.0179 3.98228
32.3775 9.36906 2
34.151 8.82247 0.0161423
49.7855 31.4286 0.0189918
49.1631 27.5388 0.024684
49.3413 24.4543 0.0146021
47.1703 22.0093 0.026158
44.7969 18.4787 0.0230277
42.1018 14.3098 0.0215955
38.3031 12.738 0.0203952
36.5826 12.9334 2
47.6298 29.5154 2
38.6812 14.811 2
41.7469 17.8598 2
47.0399 25.1958 2
44.2777 21.3657 2
45.4383 27.6642 4.00137
43.7625 24.1066 4.00321
41.336 20.7558 3.97917
35.773 14.7632 3.97812
38.6818 17.6034 3.97785
40.8622 37.48 3.88779
42.6987 37.4875 2
44.6371 37.4934 0.168493
45.3874 55.9328 0.0102433
45.4978 52.522 0.0184757
45.9981 48.8927 0.0165033
42.5794 39.27 0.222589
43.5263 43.7368 0.118029
43.3015 46.0874 0.0691198
43.3574 48.4139 -0.000840563
41.0201 43.8043 0.16939
40.7172 40.7894 0.153093
39.2789 42.6925 0.228294
43.7221 54.4424 2
40.8017 39.1573 2
39.1379 40.8575 2
43.6337 50.4845 2
41.8956 47.6489 2
41.8554 45.1828 2
37.4983 42.7887 2
39.3608 44.5415 2
41.8627 53.0139 3.99338
39.1642 39.1642 3.9089
37.4971 40.911 3.88988
35.7214 42.6948 3.77179
40.8698 49.6881 3.9996
39.8062 46.0541 3.86965
37.4963 44.7465 3.8278
42.1021 56.3355 0.013158
40.4117 54.9422 2
38.7264 53.8602 3.99543
35.607 63.2059 0.0195682
38.2505 60.3303 0.0195136
38.9215 56.4985 0.0118452
35.3636 60.9165 2
36.9332 57.6289 2
37.9972 55.2496 2
36.3196 55.3694 3.98862
34.4881 58.5266 3.98645
33.3457 61.5185 0.0177439
28.6806 62.2045 0.0174825
31.0662 61.2237 0.0176571
32.357 59.7516 2
29.4028 60.2925 2
30.3008 57.8237 3.9853
28.0242 58.3792 2
26.951 56.8294 3.97868
27.5678 59.5984 0.0187714
25.3793 58.5978 2
23.8452 56.7993 3.97118
21.3377 57.3958 3.97238
21.9937 59.6249 3.97854
22.7585 58.243 2
22.735 62.0245 3.98165
23.4002 60.3552 2
23.7924 59.0853 0.0192543
25.0339 60.8752 0.0189253
24.4311 62.7743 2
23.6804 64.7122 3.98477
26.2282 63.4812 0.0165504
25.5466 65.4947 2
24.8074 67.5932 3.98792
27.4625 66.184 0.0148043
26.8353 68.3327 2
26.1641 70.6041 3.99256
28.9058 68.9436 0.0120206
28.3686 71.2636 2
27.7943 73.7221 4
30.6139 71.7782 0.00762447
30.1841 74.2794 2
32.6054 74.6784 0
29.8108 7.9931 3.98445
31.2526 5.33187 3.98848
31.7881 7.41899 2
32.9801 2.70112 3.99303
33.3472 4.92413 2
33.7239 6.97957 0.0142397
35.0474 0.080333 4
35.2444 2.46263 2
35.4352 4.68549 0.010561
37.5 0 2
37.5144 2.38683 0.00675166
39.9526 0.0806499 0
40.8162 35.81 3.87996
42.5748 35.7125 2
44.3519 35.5652 0.176797
28.5432 10.6937 3.98175
39.1573 34.132 3.87259
40.7126 34.2169 2
42.2696 34.1162 0.238964
48.1149 34.3065 0.026757
44.8693 33.0417 0.123336
42.4605 32.3452 0.167322
40.8293 32.6513 0.245378
46.1641 31.5611 2
43.5411 31.2432 2
41.0524 31.171 2
39.2807 32.3218 2
44.3234 29.7684 3.9389
41.8489 29.8412 3.88907
39.363 30.478 3.84108
37.5092 32.208 3.79093
34.0935 12.9365 3.97931
35.6932 11.776 2
37.3114 10.6312 0.0181398
31.1863 11.9863 3.98058
33.0984 11.2171 2
34.7544 10.3802 0.0181831
30.4822 10.0173 2
32.3778 9.36954 0.0170286
47.6262 29.5321 0.0109535
47.036 25.1979 0.0164137
36.5829 12.9346 0.0206548
44.2788 21.3799 0.0242263
41.7479 17.8538 0.022199
38.6821 14.812 0.0218377
35.7725 14.7625 2
45.4417 27.6634 2
38.6802 17.6051 2
41.334 20.7438 2
43.764 24.095 2
33.609 15.8809 3.97754
42.9873 26.5072 3.99698
40.8957 23.3239 4.00745
38.4173 20.3705 3.97563
35.8494 17.5185 3.97784
39.1782 37.4835 3.91996
40.8467 37.479 2
42.6968 37.4862 0.213605
43.7228 54.4421 0.0030962
43.6347 50.4693 -0.00228008
40.8152 39.1634 0.1215
41.8333 45.1605 0.112977
41.9055 47.6332 0.0357468
39.3439 44.5221 0.15901
39.15 40.8719 0.126685
37.4977 42.801 0.208528
41.8648 53.0128 2
39.1481 39.1631 2
37.4964 40.8958 2
40.8877 49.6997 2
35.7275 42.6852 2
39.8299 46.0808 2
37.493 44.7609 2
39.7989 51.9101 3.99572
37.496 39.1834 3.92593
35.8428 40.884 3.87207
34.1772 42.3501 3.75579
35.6384 44.5297 3.83865
38.676 48.7022 3.97988
37.491 46.3613 3.87461
40.4119 54.9417 0.00918169
38.7273 53.8594 2
36.7308 53.1954 4.00208
35.3636 60.9154 0.0182879
36.9332 57.628 0.0197789
37.9976 55.25 0.0127667
34.4881 58.528 2
36.3199 55.3749 2
33.234 55.5118 3.99116
32.357 59.7507 0.014492
29.4026 60.2922 0.0186056
30.3011 57.8241 2
28.7026 55.319 3.979
28.0241 58.3786 0.0133577
26.9507 56.8301 2
25.3241 55.1374 3.97399
21.8211 55.3424 3.96802
25.3792 58.5969 0.0208502
23.8447 56.8015 2
20.2235 57.0242 3.97799
20.6464 58.7798 3.97617
21.3373 57.3976 2
21.1659 61.173 3.98
21.9937 59.6261 2
22.7586 58.2414 0.0270045
21.8939 63.8399 3.98406
22.7352 62.0254 2
23.4001 60.3544 0.020517
24.4309 62.7735 0.0170444
23.6805 64.7129 2
22.8356 66.7367 3.98775
25.5465 65.494 0.0149301
24.8075 67.5939 2
24.0083 69.8052 3.99263
26.8353 68.332 0.0120039
26.1638 70.6044 2
25.446 73.0099 4
28.3689 71.2634 0.00752107
27.7943 73.7222 2
30.1842 74.2788 0
27.8207 8.65296 3.98408
29.1546 5.87765 3.98786
29.8106 7.99238 2
30.7253 3.09832 3.99274
31.2523 5.33135 2
31.7883 7.41962 0.0148133
32.6053 0.320823 4
32.98 2.7008 2
33.3473 4.92471 0.0108869
35.0474 0.0802903 2
35.2445 2.46291 0.00676115
37.5 0 0
39.1727 35.8149 3.90729
40.8008 35.8148 2
42.5824 35.7095 0.221104
28.5431 10.6931 2
26.6219 11.3891 3.98201
29.2252 12.6433 3.98138
37.503 34.0983 3.88835
39.1427 34.1467 2
40.7266 34.2076 0.154875
46.1412 31.5707 0.0516122
43.5261 31.2613 0.118746
41.0302 31.1966 0.169478
39.2882 32.3129 0.229158
44.3432 29.7521 2
41.8658 29.8243 2
39.3781 30.4563 2
37.5112 32.2213 2
42.3275 28.4145 3.92034
39.8521 28.9433 3.88824
37.522 30.2552 3.82797
35.7343 32.3112 3.77086
31.9153 14.4826 3.9795
34.0935 12.936 2
35.6932 11.7771 0.0194732
31.1865 11.9858 2
33.0984 11.2177 0.019644
30.4825 10.0179 0.0177215
45.4383 27.6642 -0.00136885
43.7625 24.1066 -0.00320902
35.773 14.7632 0.0218821
41.336 20.7558 0.0208277
38.6818 17.6034 0.022146
33.608 15.8811 2
35.8475 17.518 2
42.9942 26.5046 2
38.4179 20.3649 2
40.8945 23.3102 2
33.5515 17.3927 3.97915
40.3748 25.6647 4.00203
38.0701 22.9178 3.99454
35.5815 20.092 3.97849
37.4961 37.4952 3.94031
39.1606 37.4841 2
40.8622 37.48 0.112213
41.8627 53.0139 0.00662015
40.8698 49.6881 0.000403479
39.1642 39.1642 0.0911006
39.8062 46.0541 0.130352
37.4963 44.7465 0.172202
37.4971 40.911 0.110122
35.7214 42.6948 0.228207
39.8072 51.9103 2
37.495 39.1773 2
35.856 40.8688 2
38.68 48.7359 2
34.1769 42.3503 2
35.6225 44.5512 2
37.4902 46.3863 2
37.6388 50.986 4.01095
35.8302 39.1831 3.90837
34.2787 40.8009 3.84608
33.0796 42.0132 3.72181
33.9647 43.7961 3.82957
35.1529 46.0354 3.8807
36.8677 48.3404 3.94805
38.7264 53.8602 0.00456652
36.729 53.2005 2
34.372 52.4682 3.99471
34.4881 58.5266 0.0135453
36.3196 55.3694 0.0113809
33.2339 55.5127 2
30.5327 53.3654 3.9789
30.3008 57.8237 0.0147044
28.7021 55.3205 2
26.9037 53.4298 3.97305
26.951 56.8294 0.0213214
25.3236 55.1409 2
23.5975 53.4713 3.96554
20.4935 53.2124 3.96055
19.941 55.8269 3.97156
21.8198 55.344 2
23.8452 56.7993 0.0288226
19.4404 57.8853 3.97524
20.2229 57.0258 2
19.7066 60.2042 3.97747
20.6462 58.7809 2
21.3377 57.3958 0.0276195
20.2065 62.8604 3.98217
21.166 61.1743 2
21.9937 59.6249 0.0214595
20.937 65.7656 3.98739
21.894 63.8407 2
22.735 62.0245 0.0183541
23.6804 64.7122 0.015227
22.8357 66.7374 2
21.9108 68.8722 3.9925
24.8074 67.5932 0.0120835
24.0079 69.8054 2
23.1494 72.1454 4
26.1641 70.6041 0.0074388
25.446 73.0099 2
27.7943 73.7221 0
25.8599 9.38139 3.98361
27.0693 6.54184 3.98717
27.8205 8.65236 2
28.4874 3.64432 3.99243
29.1543 5.87707 2
29.8108 7.9931 0.0155508
30.1841 0.720592 4
30.7251 3.09804 2
31.2526 5.33187 0.0115173
32.6053 0.320817 2
32.9801 2.70112 0.00696789
35.0474 0.080333 0
37.4979 35.8121 3.92607
39.1546 35.8169 2
40.8162 35.81 0.120041
24.7766 12.0722 3.98234
23.7514 14.3586 3.98144
28.5432 10.6937 0.0182454
26.6219 11.3886 2
29.2254 12.6426 2
27.2913 13.3759 3.98186
29.7807 14.2035 3.98092
35.8525 34.127 3.87191
37.5009 34.1139 2
39.1573 34.132 0.12741
37.5092 32.208 0.209074
44.3234 29.7684 0.0610958
41.8489 29.8412 0.110929
39.363 30.478 0.158918
42.3528 28.39 2
39.8651 28.9149 2
37.5212 30.2447 2
35.7423 32.3208 2
40.0385 27.5765 3.91648
37.5292 28.6382 3.88121
35.6688 30.4835 3.84209
34.1974 32.6534 3.75524
30.927 16.841 3.97968
31.9152 14.4825 2
34.0935 12.9365 0.0206901
31.1863 11.9863 0.0194234
42.9873 26.5072 0.00301536
40.8957 23.3239 -0.00745003
33.609 15.8809 0.0224615
35.8494 17.5185 0.0221594
38.4173 20.3705 0.024371
33.5501 17.394 2
35.5832 20.0991 2
40.3773 25.6519 2
38.0659 22.9097 2
32.8615 19.8021 3.98056
37.7969 25.2306 4.00806
35.1953 22.6711 3.98834
35.8199 37.5006 3.92102
37.4935 37.4938 2
39.1782 37.4835 0.0800394
39.7989 51.9101 0.00427584
38.676 48.7022 0.0201155
37.496 39.1834 0.0740659
37.491 46.3613 0.125393
35.6384 44.5297 0.161348
35.8428 40.884 0.127933
34.1772 42.3501 0.244214
37.6476 51.0008 2
35.8448 39.1782 2
34.2917 40.792 2
36.861 48.3646 2
33.0683 42.0237 2
33.9437 43.8199 2
35.138 46.0598 2
35.4871 50.1226 4.00126
34.1882 39.1832 3.88138
32.7247 40.8826 3.76327
32.5419 42.6568 3.83639
33.1569 45.1559 3.88667
34.2823 47.4112 3.92525
36.7308 53.1954 -0.00208413
34.3709 52.4732 2
32.0317 51.1763 4.00194
33.234 55.5118 0.00884341
30.5321 53.3705 2
28.4544 51.5799 3.97706
28.7026 55.319 0.0210045
26.9027 53.4328 2
25.1116 51.7331 3.96202
25.3241 55.1374 0.0260053
23.5964 53.4739 2
22.0033 51.7919 3.96012
19.2355 51.6256 3.96425
18.9385 54.3003 3.96215
20.4926 53.2118 2
18.4519 56.7175 3.97461
19.94 55.8285 2
21.8211 55.3424 0.0319826
18.3698 59.1067 3.97452
19.4399 57.8864 2
20.2235 57.0242 0.0220081
18.6183 61.7656 3.97911
19.7066 60.2056 2
20.6464 58.7798 0.0238331
19.126 64.6761 3.98643
20.2066 62.8616 2
21.1659 61.173 0.0199981
19.8849 67.8088 3.99241
20.9371 65.7664 2
21.8939 63.8399 0.0159447
22.8356 66.7367 0.012246
21.9104 68.8723 2
20.9142 71.1327 4
24.0083 69.8052 0.00737287
23.1494 72.1455 2
25.446 73.0099 0
23.096 12.7872 3.98199
23.9723 10.1683 3.98337
25.023 7.31225 3.98659
25.8597 9.38087 2
26.279 4.32865 3.99205
27.069 6.54135 2
27.8207 8.65296 0.0159156
27.7943 1.27781 4
28.4871 3.64405 2
29.1546 5.87765 0.012141
30.1841 0.720551 2
30.7253 3.09832 0.00726358
32.6053 0.320823 0
35.83 35.8202 3.90835
37.4953 35.8183 2
39.1727 35.8149 0.0927089
24.7768 12.0719 2
23.752 14.3584 2
22.4803 15.0355 3.98101
25.3575 13.9077 3.98136
24.0252 15.6218 3.98062
26.6219 11.3891 0.0179939
29.2252 12.6433 0.0186203
27.2917 13.3754 2
29.7807 14.2032 2
28.357 15.978 3.98113
34.2885 34.2092 3.84543
35.8634 34.1422 2
37.503 34.0983 0.111645
35.7343 32.3112 0.229145
37.522 30.2552 0.172029
42.3275 28.4145 0.0796609
39.8521 28.9433 0.111755
40.0482 27.5554 2
37.5321 28.6138 2
35.6446 30.4575 2
34.192 32.654 2
37.6112 27.275 3.93099
35.1909 28.9522 3.88732
33.9845 31.2065 3.83018
33.1063 32.989 3.72237
30.2083 19.3453 3.98496
30.9263 16.8414 2
31.9153 14.4826 0.0204963
40.3748 25.6647 -0.00203208
38.0701 22.9178 0.00545868
33.5515 17.3927 0.0208499
35.5815 20.092 0.0215077
32.8621 19.8034 2
35.1938 22.666 2
37.782 25.2202 2
32.3096 22.4269 3.99158
34.9982 25.2166 4.00472
34.1352 37.5029 3.88906
35.8334 37.4997 2
37.4961 37.4952 0.0596931
37.6388 50.986 -0.0109483
36.8677 48.3404 0.0519519
35.8302 39.1831 0.0916255
35.1529 46.0354 0.119295
33.9647 43.7961 0.170431
34.2787 40.8009 0.153918
33.0796 42.0132 0.278187
35.4841 50.1398 2
34.2083 39.1764 2
32.7343 40.8838 2
34.2731 47.4455 2
32.5168 42.6778 2
33.1413 45.1767 2
33.2803 49.1173 3.99991
32.408 39.2853 3.78128
31.3904 41.1467 3.8267
31.4718 43.7383 3.88449
32.293 46.335 3.92369
34.372 52.4682 0.00528583
32.0298 51.1846 2
29.9038 49.6964 3.9903
30.5327 53.3654 0.0210964
28.4525 51.5794 2
26.5528 49.9686 3.97197
26.9037 53.4298 0.0269523
25.1098 51.7309 2
23.39 50.1784 3.96909
23.5975 53.4713 0.0344648
22.0021 51.7907 2
20.5085 50.3041 3.96729
18.0259 50.3216 3.96856
17.8612 52.7838 3.96307
19.2338 51.6251 2
17.4471 55.3326 3.96663
18.9375 54.3001 2
20.4935 53.2124 0.0394518
17.1377 57.8687 3.97393
18.451 56.7185 2
19.941 55.8269 0.0284439
17.1369 60.5465 3.97631
18.3695 59.1078 2
19.4404 57.8853 0.0247636
17.4069 63.4677 3.98366
18.6183 61.7671 2
19.7066 60.2042 0.0225262
17.9412 66.6173 3.99216
19.126 64.6771 2
20.2065 62.8604 0.0178307
18.75 69.9759 4
19.8845 67.8089 2
20.937 65.7656 0.012606
21.9108 68.8722 0.00749543
20.9142 71.1327 2
23.1494 72.1454 0
21.5871 13.6077 3.98145
22.1903 11.0278 3.98289
23.0964 12.7871 2
23.0409 8.17792 3.98619
23.9723 10.1678 2
24.1166 5.14351 3.99174
25.0227 7.31176 2
25.8599 9.38139 0.0163908
25.446 1.99014 4
26.2786 4.32847 2
27.0693 6.54184 0.012835
27.7943 1.27778 2
28.4874 3.64432 0.0075684
30.1841 0.720592 0
34.1818 35.8235 3.87885
35.843 35.8239 2
37.4979 35.8121 0.0739328
21.3059 15.8315 3.98118
24.7766 12.0722 0.0176634
23.7514 14.3586 0.018562
25.358 13.9074 2
22.4811 15.0355 2
24.0258 15.6218 2
23.2648 16.2538 3.97979
25.3807 16.0904 3.98096
27.2913 13.3759 0.0181438
29.7807 14.2035 0.0190802
28.3572 15.9783 2
27.4406 18.8019 3.98356
32.7459 34.1198 3.76107
34.3063 34.2196 2
35.8525 34.127 0.128088
34.1974 32.6534 0.244762
35.6688 30.4835 0.15791
37.5292 28.6382 0.118788
40.0385 27.5765 0.0835216
37.6118 27.2446 2
33.0918 32.9804 2
35.1793 28.9267 2
33.9608 31.1751 2
35.0725 27.4037 3.93423
33.1788 29.8495 3.88273
32.5643 32.3389 3.82613
29.582 21.9401 3.99723
30.2089 19.3481 2
30.927 16.841 0.0203158
37.7969 25.2306 -0.00806383
35.1953 22.6711 0.011659
32.8615 19.8021 0.0194401
32.3081 22.4256 2
35.0113 25.2097 2
31.7409 25.6485 4.004
32.2893 37.5051 3.78843
34.1551 37.5048 2
35.8199 37.5006 0.0789793
35.4871 50.1226 -0.00126227
34.2823 47.4112 0.0747481
34.1882 39.1832 0.118617
33.1569 45.1559 0.11333
32.5419 42.6568 0.163613
32.7247 40.8826 0.236732
33.2743 49.1093 2
32.4195 39.2819 2
31.3673 41.1635 2
32.2666 46.3594 2
31.4492 43.7589 2
31.2083 47.9497 3.99204
30.6401 39.4304 3.82474
30.1239 41.9552 3.8777
30.4954 44.9248 3.93974
32.0317 51.1763 -0.00194086
29.9006 49.6953 2
27.9448 48.1617 3.96909
28.4544 51.5799 0.0229411
26.5512 49.9669 2
24.7172 48.4511 3.97279
25.1116 51.7331 0.0379847
23.3892 50.1764 2
21.7322 48.774 3.97039
22.0033 51.7919 0.0398794
20.5069 50.3032 2
19.0905 49.0817 3.97215
16.9319 49.3232 3.97223
16.8016 51.3996 3.96644
18.0265 50.3208 2
16.4043 53.8642 3.96478
17.8592 52.7836 2
19.2355 51.6256 0.0357485
15.9827 56.4688 3.96853
17.4465 55.3329 2
18.9385 54.3003 0.0378539
15.7514 59.2068 3.97499
17.1372 57.87 2
18.4519 56.7175 0.0253892
15.7882 62.1363 3.98001
17.137 60.548 2
18.3698 59.1067 0.025479
16.0882 65.3 3.99137
17.4067 63.469 2
18.6183 61.7656 0.0208926
16.6661 68.6801 4
17.9406 66.6173 2
19.126 64.6761 0.0135722
18.75 69.9759 2
19.8849 67.8088 0.00758985
20.9142 71.1327 0
20.2194 14.597 3.98053
21.5875 13.6077 2
20.5296 11.9979 3.98226
21.1437 9.14785 3.98587
22.1905 11.0276 2
23.096 12.7872 0.0180091
22.0157 6.08262 3.99153
23.0406 8.17746 2
23.9723 10.1683 0.0166328
23.1494 2.85457 4
24.1161 5.14339 2
25.023 7.31225 0.013413
25.446 1.99012 2
26.279 4.32865 0.00794738
27.7943 1.27781 0
32.4126 35.7196 3.77584
34.1991 35.8311 2
35.83 35.8202 0.0916504
21.3067 15.8313 2
20.3042 16.9652 3.98171
22.098 16.638 3.97883
25.3575 13.9077 0.0186369
22.4803 15.0355 0.0189919
24.0252 15.6218 0.0193752
25.3813 16.0904 2
23.2655 16.2539 2
24.2053 18.4563 3.97753
27.0218 21.4629 3.99059
28.357 15.978 0.0188735
27.4419 18.8022 2
31.4221 33.8614 3.82783
32.7584 34.1192 2
34.2885 34.2092 0.154566
33.1063 32.989 0.277634
33.9845 31.2065 0.16982
35.1909 28.9522 0.112682
37.6112 27.275 0.069011
35.0544 27.3687 2
32.5165 32.3184 2
33.1619 29.8239 2
32.6031 28.1287 3.94559
31.4793 31.2703 3.88526
28.8438 24.4134 3.98122
29.5791 21.9445 2
30.2083 19.3453 0.0150412
34.9982 25.2166 -0.00472131
32.3096 22.4269 0.00842376
31.7455 25.6324 2
29.7155 27.3281 3.96458
30.3414 37.4963 3.83092
32.2948 37.5018 2
34.1352 37.5029 0.110944
33.2803 49.1173 9.2471e-05
32.293 46.335 0.0763078
32.408 39.2853 0.218721
31.4718 43.7383 0.115505
31.3904 41.1467 0.173304
31.2052 47.9521 2
30.6194 39.4449 2
30.1028 41.9695 2
30.4809 44.9403 2
29.279 46.5507 4.00094
29.2205 39.8541 3.88884
28.8379 43.1494 3.94119
29.9038 49.6964 0.00970481
27.941 48.1577 2
26.0443 46.6334 3.97549
26.5528 49.9686 0.0280252
24.7171 48.4485 2
22.9056 47.0574 3.97433
23.39 50.1784 0.0309075
21.7321 48.7726 2
20.0604 47.6052 3.97702
20.5085 50.3041 0.0327141
19.0915 49.0807 2
17.7213 48.1692 3.97589
16.1765 48.6757 3.97473
16.9329 49.3225 2
15.8762 50.1629 3.96926
15.3935 52.4097 3.96608
16.8009 51.3992 2
18.0259 50.3216 0.0314419
14.8775 54.9704 3.96657
16.4041 53.8641 2
17.8612 52.7838 0.0369319
14.4626 57.7349 3.97158
15.9823 56.4695 2
17.4471 55.3326 0.0333714
14.2669 60.6898 3.97858
15.7514 59.2083 2
17.1377 57.8687 0.0260659
14.333 63.8589 3.98921
15.788 62.1376 2
17.1369 60.5465 0.0236948
14.6715 67.2507 4
16.0874 65.2997 2
17.4069 63.4677 0.0163404
16.6661 68.6801 2
17.9412 66.6173 0.00784242
18.75 69.9759 0
18.9337 15.784 3.9803
20.22 14.5969 2
18.9795 13.109 3.98127
21.5871 13.6077 0.0185526
20.53 11.9978 2
19.3429 10.2358 3.98541
19.9903 7.14725 3.99147
21.1436 9.14758 2
22.1903 11.0278 0.0171076
20.9142 3.86727 4
22.015 6.08264 2
23.0409 8.17792 0.0138112
23.1494 2.85451 2
24.1166 5.14351 0.00826156
25.446 1.99014 0
30.6582 35.5816 3.82779
32.4238 35.7211 2
34.1818 35.8235 0.121146
21.3059 15.8315 0.0188176
22.0988 16.638 2
20.305 16.9645 2
19.2475 18.4134 3.97756
21.7831 17.8555 3.97974
25.3807 16.0904 0.0190397
23.2648 16.2538 0.0202061
24.2064 18.4564 2
22.2852 19.9015 3.97449
24.6021 21.3325 3.98521
26.4534 23.7291 3.96969
27.0214 21.4627 2
27.4406 18.8019 0.0164389
30.1542 33.0531 3.88396
31.3984 33.8281 2
32.7459 34.1198 0.238926
32.5643 32.3389 0.173874
33.1788 29.8495 0.117266
35.0725 27.4037 0.0657662
32.5937 28.1149 2
31.4657 31.2462 2
30.2052 29.5676 3.95814
27.9562 26.5532 3.97874
28.8434 24.4239 2
29.582 21.9401 0.00277232
31.7409 25.6485 -0.00399773
29.7131 27.2941 2
28.8808 37.5111 3.89662
30.3319 37.4989 2
32.2893 37.5051 0.211575
31.2083 47.9497 0.00796278
30.4954 44.9248 0.0602599
30.6401 39.4304 0.175259
30.1239 41.9552 0.122298
29.2764 46.5653 2
29.1979 39.8725 2
28.8116 43.1671 2
27.4178 44.846 3.98161
26.9932 40.5836 3.96382
27.9448 48.1617 0.0309051
26.0415 46.6353 2
24.1344 45.1876 3.97612
24.7172 48.4511 0.027214
22.9066 47.0556 2
21.0323 45.8769 3.97881
21.7322 48.774 0.0296093
20.0624 47.6039 2
18.3926 46.7266 3.97793
19.0905 49.0817 0.0278543
17.7219 48.1685 2
16.3783 47.7054 3.97584
16.1773 48.6751 2
15.2199 49.0087 3.97226
16.9319 49.3232 0.0277661
15.877 50.1625 2
14.5057 50.9795 3.96803
13.8375 53.4297 3.96762
15.3938 52.4095 2
16.8016 51.3996 0.033556
13.2601 56.1614 3.96879
14.8774 54.9705 2
16.4043 53.8642 0.035224
12.85 59.1231 3.97712
14.4625 57.7359 2
15.9827 56.4688 0.0314682
12.6789 62.3011 3.98682
14.2667 60.6909 2
15.7514 59.2068 0.0250091
12.7746 65.6939 4
14.3319 63.8582 2
15.7882 62.1363 0.0199859
14.6714 67.2507 2
16.0882 65.3 0.00863452
16.6661 68.6801 0
17.6698 17.1603 3.97716
18.9342 15.7837 2
17.5113 14.3738 3.98012
20.2194 14.597 0.0194703
18.9799 13.1088 2
17.6384 11.4549 3.98441
20.5296 11.9979 0.017735
19.343 10.2356 2
18.0505 8.33997 3.99145
18.75 5.0241 4
19.9896 7.14757 2
21.1437 9.14785 0.0141284
20.9142 3.86727 2
22.0157 6.08262 0.00846814
23.1494 2.85457 0
29.2407 35.1328 3.89287
30.6362 35.5634 2
32.4126 35.7196 0.224161
22.098 16.638 0.0211733
20.3042 16.9652 0.0182851
21.7839 17.8553 2
19.2482 18.4124 2
17.9891 19.9466 3.97322
20.8821 19.3864 3.97718
24.2053 18.4563 0.0224704
22.2858 19.9011 2
24.6021 21.3331 2
22.3734 21.729 3.97732
24.7255 23.1757 3.97329
25.5386 25.9577 3.97087
26.4564 23.7292 2
27.0218 21.4629 0.00940599
28.5298 32.3513 3.93907
30.129 33.0421 2
31.4221 33.8614 0.172166
31.4793 31.2703 0.114743
32.6031 28.1287 0.0544084
30.1923 29.5624 2
27.1354 29.1394 4.00458
27.9523 26.5574 2
28.8438 24.4134 0.0187777
29.7155 27.3281 0.0354198
27.1144 37.3665 3.94525
28.8444 37.5044 2
30.3414 37.4963 0.169078
29.279 46.5507 -0.000937982
28.8379 43.1494 0.0588122
29.2205 39.8541 0.111164
27.4115 44.8642 2
26.9787 40.6008 2
25.4371 43.1584 3.98376
24.2446 39.4418 3.97835
26.0443 46.6334 0.024507
24.1297 45.1864 2
22.0276 43.9308 3.97876
22.9056 47.0574 0.0256656
21.032 45.8758 2
19.0772 44.9573 3.97845
20.0604 47.6052 0.0229777
18.3942 46.7257 2
16.6844 46.2041 3.97638
17.7213 48.1692 0.0241088
16.379 47.7049 2
14.9606 47.6633 3.97366
16.1765 48.6757 0.025268
15.2208 49.0083 2
13.8022 49.5412 3.96948
15.8762 50.1629 0.0307418
14.5065 50.9792 2
12.9032 51.8706 3.96803
12.1476 54.5225 3.97003
13.8379 53.4296 2
15.3935 52.4097 0.0339188
11.5363 57.4548 3.97419
13.2602 56.1619 2
14.8775 54.9704 0.0334267
11.1337 60.627 3.98496
12.85 59.1238 2
14.4626 57.7349 0.0284177
10.9835 64.0165 4
12.6775 62.2996 2
14.2669 60.6898 0.0214215
12.7745 65.694 2
14.333 63.8589 0.0107854
14.6715 67.2507 0
16.4053 18.6558 3.97413
17.6701 17.1596 2
16.1028 15.7835 3.97905
18.9337 15.784 0.0197049
17.5117 14.3732 2
16.0202 12.8089 3.98251
18.9795 13.109 0.0187301
17.6386 11.4546 2
16.2018 9.66286 3.99119
19.3429 10.2358 0.0145916
18.0498 8.3405 2
16.6661 6.31991 4
18.75 5.02404 2
19.9903 7.14725 0.00852528
20.9142 3.86727 0
27.6385 34.7858 3.93832
29.216 35.1128 2
30.6582 35.5816 0.172209
16.6967 21.3863 3.96488
21.7831 17.8555 0.0202648
19.2475 18.4134 0.0224399
20.8827 19.3858 2
17.9897 19.9454 2
19.7389 21.5831 3.97517
22.2852 19.9015 0.0255108
24.6021 21.3325 0.0147936
22.3737 21.7288 2
24.7267 23.1751 2
22.8925 24.6099 3.97072
24.677 28.5368 3.97711
25.5362 25.9567 2
26.4534 23.7291 0.0303063
26.3742 31.7166 3.98733
28.5033 32.334 2
30.1542 33.0531 0.116043
30.2052 29.5676 0.0418626
27.1505 29.1303 2
27.9562 26.5532 0.0212564
24.9415 36.8594 3.98823
27.0923 37.3631 2
28.8808 37.5111 0.103383
27.4178 44.846 0.0183882
26.9932 40.5836 0.0361796
25.4237 43.1644 2
24.2314 39.4409 2
23.142 41.8016 3.97985
21.9629 38.5132 3.97763
24.1344 45.1876 0.0238781
22.0268 43.9316 2
19.8749 42.8777 3.97775
21.0323 45.8769 0.0211855
19.0774 44.9566 2
17.0375 44.371 3.97679
18.3926 46.7266 0.0220656
16.6853 46.2036 2
14.8944 46.0839 3.97437
16.3783 47.7054 0.0241558
14.9614 47.663 2
13.3133 48.004 3.97057
15.2199 49.0087 0.0277434
13.8029 49.541 2
12.1214 50.2502 3.96839
14.5057 50.9795 0.0319712
12.9036 51.8705 2
11.1425 52.8339 3.9697
10.3272 55.7081 3.97381
12.1479 54.5226 2
13.8375 53.4297 0.0323811
9.70072 58.8489 3.98255
11.5364 57.455 2
13.2601 56.1614 0.0312103
9.30605 62.2254 4
11.1322 60.6249 2
12.85 59.1231 0.0228806
10.9835 64.0165 2
12.6789 62.3011 0.0131847
12.7746 65.6939 0
15.156 20.194 3.96783
16.4057 18.655 2
14.7501 17.3073 3.97613
17.6698 17.1603 0.0228421
16.1032 15.7824 2
14.483 14.2916 3.98097
17.5113 14.3738 0.0198805
16.0204 12.8082 2
14.4446 11.114 3.99039
17.6384 11.4549 0.0155851
16.2011 9.66357 2
14.6715 7.74927 4
18.0505 8.33997 0.00855286
16.6661 6.31988 2
18.75 5.0241 0
25.5953 34.2716 3.99092
27.6174 34.7774 2
29.2407 35.1328 0.107134
17.878 22.3349 3.9743
15.5427 22.9257 3.9691
16.6972 21.3857 2
20.8821 19.3864 0.0228242
17.9891 19.9466 0.0267751
19.7392 21.5826 2
19.7124 24.3904 3.9695
22.3734 21.729 0.0226837
24.7255 23.1757 0.0267063
22.893 24.6096 2
22.0455 27.8373 3.97157
23.9331 31.201 3.97538
24.6866 28.5381 2
25.5386 25.9577 0.0291316
26.3632 31.6991 2
28.5298 32.3513 0.0609298
27.1354 29.1394 -0.00457855
22.6925 36.285 3.98121
24.9204 36.8556 2
27.1144 37.3665 0.0547494
25.4371 43.1584 0.0162415
24.2446 39.4418 0.0216545
23.1357 41.8004 2
21.9562 38.5122 2
20.8799 40.6393 3.97645
20.2832 37.7957 3.97754
22.0276 43.9308 0.0212373
19.8751 42.8775 2
17.4804 42.0918 3.97696
19.0772 44.9573 0.0215463
17.0387 44.3704 2
14.9176 44.1946 3.97456
16.6844 46.2041 0.0236234
14.8951 46.0837 2
12.9937 46.291 3.97104
14.9606 47.6633 0.0263381
13.3138 48.0038 2
11.4929 48.5477 3.96847
13.8022 49.5412 0.0305203
12.1218 50.2501 2
10.2678 51.0788 3.96953
12.9032 51.8706 0.0319722
11.143 52.8338 2
9.23579 53.888 3.97396
8.38441 56.9816 3.98206
10.3276 55.7078 2
12.1476 54.5225 0.0299687
7.74927 60.3285 4
9.69948 58.8459 2
11.5363 57.4548 0.0258112
9.306 62.2255 2
11.1337 60.627 0.0150405
10.9835 64.0165 0
13.9706 21.7588 3.96792
15.1565 20.1932 2
13.4543 18.9067 3.97063
16.4053 18.6558 0.0258738
14.7506 17.306 2
13.0289 15.8852 3.97949
16.1028 15.7835 0.0209506
14.4831 14.2905 2
12.7822 12.6875 3.98879
16.0202 12.8089 0.0174894
14.4439 11.1148 2
12.7746 9.30605 4
16.2018 9.66286 0.0088071
14.6715 7.74924 2
16.6661 6.31991 0
23.2687 33.8126 3.98113
25.5748 34.2669 2
27.6385 34.7858 0.0616837
17.6679 24.0515 3.97155
17.8783 22.3346 2
14.337 24.4555 3.9697
15.5434 22.9254 2
16.6967 21.3863 0.0351246
19.1442 27.2153 3.97088
19.7389 21.5831 0.0248282
19.7124 24.3901 2
21.3336 30.6773 3.97343
22.8925 24.6099 0.0292827
22.0507 27.8378 2
23.9204 31.2016 2
24.677 28.5368 0.0228929
26.3742 31.7166 0.0126708
20.4063 35.9353 3.97717
22.6884 36.2806 2
24.9415 36.8594 0.0117713
23.142 41.8016 0.0201472
21.9629 38.5132 0.0223748
20.8805 40.64 2
20.2845 37.7959 2
18.2195 39.0026 3.97765
19.8749 42.8777 0.0222496
17.4818 42.0911 2
14.8948 41.914 3.97494
17.0375 44.371 0.0232137
14.9185 44.1944 2
12.7474 44.3873 3.97118
14.8944 46.0839 0.0256301
12.9941 46.2908 2
10.9963 46.7315 3.96847
13.3133 48.004 0.0294308
11.4932 48.5476 2
9.53079 49.2392 3.96909
12.1214 50.2502 0.0316073
10.2682 51.0786 2
8.26859 52.0018 3.97362
11.1425 52.8339 0.0303046
9.23618 53.8874 2
7.19329 55.0322 3.98293
6.31991 58.3339 4
8.38357 56.9784 2
10.3272 55.7081 0.0261949
7.74924 60.3285 2
9.70072 58.8489 0.0174502
9.30605 62.2254 0
13.2457 25.366 3.97144
12.8359 23.2843 3.96846
13.9713 21.7585 2
12.2423 20.5564 3.96917
15.156 20.194 0.0321656
13.4549 18.9056 2
11.6602 17.5673 3.97657
14.7501 17.3073 0.0238726
13.0291 15.884 2
11.2198 14.3728 3.98665
14.483 14.2916 0.0190302
12.7812 12.6885 2
10.9835 10.9835 4
14.4446 11.114 0.00961175
12.7745 9.306 2
14.6715 7.74927 0
20.7671 33.4078 3.97545
23.2743 33.8147 2
25.5953 34.2716 0.00908056
15.9721 26.4091 3.9715
17.6681 24.0512 2
17.878 22.3349 0.0257022
14.3372 24.4554 2
15.5427 22.9257 0.0308964
18.503 30.1838 3.97419
19.1438 27.2153 2
19.7124 24.3904 0.0304959
21.3416 30.6778 2
22.0455 27.8373 0.0284317
23.9331 31.201 0.0246226
17.837 35.9695 3.97819
20.4041 35.9358 2
22.6925 36.285 0.0187933
20.8799 40.6393 0.0235491
20.2832 37.7957 0.0224567
18.2218 39.0028 2
14.41 39.1741 3.97602
17.4804 42.0918 0.0230418
14.896 41.9139 2
12.4489 42.2726 3.9719
14.9176 44.1946 0.0254367
12.7478 44.3872 2
10.578 44.8001 3.9688
12.9937 46.291 0.0289581
10.9965 46.7314 2
8.91289 47.3185 3.96865
11.4929 48.5477 0.0315276
9.531 49.239 2
7.43549 50.0354 3.97305
10.2678 51.0788 0.0304737
8.26892 52.0012 2
6.1339 53.0073 3.98345
9.23579 53.888 0.0260361
7.19275 55.0294 2
5.0241 56.25 4
6.31988 58.3339 2
8.38441 56.9816 0.0179353
7.74927 60.3285 0
13.5014 26.8189 3.97062
11.9457 24.7901 3.96939
13.2457 25.3658 2
11.1451 22.2382 3.96979
12.8364 23.2841 2
13.9706 21.7588 0.0320795
12.2431 20.5559 2
10.3922 19.3225 3.97397
13.4543 18.9067 0.0293698
11.6607 17.5664 2
9.76098 16.1569 3.98418
13.0289 15.8852 0.0205134
11.2186 14.3744 2
9.30607 12.7746 4
12.7822 12.6875 0.0112118
10.9835 10.9835 2
12.7746 9.30605 0
18.0068 33.1195 3.97672
20.7674 33.4079 2
23.2687 33.8126 0.0188661
15.5819 29.6443 3.973
15.9721 26.4092 2
17.6679 24.0515 0.0284488
14.337 24.4555 0.0303011
18.5029 30.184 2
19.1442 27.2153 0.0291212
21.3336 30.6773 0.0265668
15.0254 36.0206 3.97596
17.8388 35.9698 2
20.4063 35.9353 0.0228264
12.6713 37.8286 3.97485
18.2195 39.0026 0.0223485
14.4107 39.174 2
11.9682 40.1378 3.97249
14.8948 41.914 0.0250616
12.4495 42.2725 2
10.1846 42.7754 3.96895
12.7474 44.3873 0.0288226
10.578 44.8 2
8.39069 45.3203 3.9684
10.9963 46.7315 0.0315316
8.91296 47.3184 2
6.72675 48.0006 3.97252
9.53079 49.2392 0.0309119
7.43566 50.0349 2
5.21073 50.9107 3.98331
8.26859 52.0018 0.0263784
6.13361 53.0053 2
3.86727 54.0858 4
7.19329 55.0322 0.0170668
5.02404 56.25 2
6.31991 58.3339 0
12.9694 29.0374 3.97035
11.3814 26.4894 3.9691
13.501 26.8188 2
10.2024 23.9691 3.97011
11.9462 24.7899 2
13.2457 25.366 0.0285555
9.24482 21.1403 3.97337
11.1459 22.2379 2
12.8359 23.2843 0.0315438
12.2423 20.5564 0.0308274
10.3931 19.3222 2
8.41726 18.0287 3.98225
11.6602 17.5673 0.02343
9.75985 16.1593 2
7.74928 14.6715 4
11.2198 14.3728 0.0133461
9.30602 12.7745 2
10.9835 10.9835 0
14.5845 32.8673 3.97465
18.0086 33.1199 2
20.7671 33.4078 0.0245496
15.5824 29.6444 2
15.9721 26.4091 0.0284982
18.503 30.1838 0.0258065
12.9688 36.2098 3.9736
15.0274 36.0206 2
17.837 35.9695 0.0218132
12.6722 37.8285 2
11.3149 38.3085 3.97293
14.41 39.1741 0.0239847
11.9693 40.1376 2
9.7763 40.7522 3.96938
12.4489 42.2726 0.0281016
10.1851 42.7753 2
7.94006 43.2691 3.96818
10.578 44.8001 0.031201
8.39079 45.3202 2
6.133 45.9057 3.972
8.91289 47.3185 0.0313466
6.72679 48.0003 2
4.42231 48.7514 3.98277
7.43549 50.0354 0.0269495
5.21059 50.9096 2
2.85457 51.8506 4
6.1339 53.0073 0.016549
3.86727 54.0858 2
5.0241 56.25 0
12.1164 31.26 3.9715
10.7992 28.417 3.96894
12.97 29.0374 2
9.41725 25.7987 3.96935
11.3816 26.4893 2
13.5014 26.8189 0.0293819
8.23119 23.0237 3.97382
10.203 23.9689 2
11.9457 24.7901 0.0306121
7.1995 19.9789 3.98217
9.24567 21.1404 2
11.1451 22.2382 0.030213
10.3922 19.3225 0.0260291
8.41663 18.0317 2
6.31992 16.6661 4
9.76098 16.1569 0.0158193
7.74926 14.6714 2
9.30607 12.7746 0
12.1472 34.2965 3.97389
14.5857 32.8675 2
18.0068 33.1195 0.0232755
15.5819 29.6443 0.0269954
10.8772 36.6109 3.97238
12.9697 36.2098 2
15.0254 36.0206 0.0240399
12.6713 37.8286 0.0251455
11.3156 38.3084 2
9.36799 38.8222 3.97005
11.9682 40.1378 0.027512
9.77693 40.7521 2
7.55142 41.2105 3.96823
10.1846 42.7754 0.0310467
7.94013 43.2689 2
5.64519 43.7684 3.97155
8.39069 45.3203 0.0315992
6.1331 45.9053 2
3.76796 46.5371 3.9822
6.72675 48.0006 0.0274774
4.42227 48.7509 2
1.99014 49.554 4
5.21073 50.9107 0.0166923
2.85451 51.8506 2
3.86727 54.0858 0
10.9602 32.9211 3.9728
10.1173 30.3839 3.96915
12.1172 31.2601 2
8.72511 27.7321 3.96894
10.7994 28.4169 2
12.9694 29.0374 0.0296503
7.35674 24.9824 3.9729
9.41751 25.7985 2
11.3814 26.4894 0.0309006
6.11624 22.0023 3.98331
8.2318 23.0238 2
10.2024 23.9691 0.029893
5.02411 18.75 4
7.19925 19.9815 2
9.24482 21.1403 0.0266267
8.41726 18.0287 0.0177547
6.3199 16.6661 2
7.74928 14.6715 0
10.4832 35.0007 3.97214
12.1482 34.2965 2
14.5845 32.8673 0.0253532
9.03631 36.9843 3.97031
10.8783 36.6108 2
12.9688 36.2098 0.0264037
11.3149 38.3085 0.0270747
9.36862 38.822 2
7.23166 39.1815 3.96871
9.7763 40.7522 0.0306192
7.55164 41.2103 2
5.26067 41.614 3.97106
7.94006 43.2691 0.0318249
5.64526 43.7681 2
3.24579 44.2819 3.98186
6.133 45.9057 0.0280045
3.76807 46.5368 2
1.27781 47.2057 4
4.42231 48.7514 0.0172292
1.99012 49.554 2
2.85457 51.8506 0
10.1203 33.8825 3.9725
9.40539 32.1556 3.96979
10.9607 32.9211 2
8.07409 29.6955 3.9688
10.1177 30.3839 2
12.1164 31.26 0.0284957
6.60057 27.0084 3.97241
8.72512 27.732 2
10.7992 28.417 0.0310596
5.17162 24.095 3.98334
7.35705 24.9825 2
9.41725 25.7987 0.0306465
3.86728 20.9142 4
6.11617 22.004 2
8.23119 23.0237 0.02618
5.02406 18.75 2
7.1995 19.9789 0.0178271
6.31992 16.6661 0
8.86061 35.2795 3.97054
10.4837 35.0006 2
12.1472 34.2965 0.0261065
7.01522 37.2055 3.96892
9.0365 36.9842 2
10.8772 36.6109 0.0276159
9.36799 38.8222 0.0299459
7.23185 39.1814 2
4.98842 39.4672 3.97118
7.55142 41.2105 0.0317665
5.26088 41.6137 2
2.85638 42.0022 3.98155
5.64519 43.7684 0.028452
3.24589 44.2818 2
0.720592 44.8159 4
3.76796 46.5371 0.0178046
1.27778 47.2057 2
1.99014 49.554 0
8.8982 33.6983 3.97043
10.1208 33.8824 2
7.51156 31.6091 3.96896
9.40571 32.1556 2
10.9602 32.9211 0.0271969
5.94572 29.0693 3.97222
8.07401 29.6955 2
10.1173 30.3839 0.0308534
4.3594 26.2475 3.98272
6.60062 27.0084 2
8.72511 27.7321 0.0310588
2.85458 23.1494 4
5.17161 24.0958 2
7.35674 24.9824 0.0270959
3.86728 20.9142 2
6.11624 22.0023 0.0166947
5.02411 18.75 0
6.96532 35.3058 3.96908
8.86107 35.2794 2
10.4832 35.0007 0.0278627
4.8384 37.3395 3.97177
7.01527 37.2054 2
9.03631 36.9843 0.0296902
7.23166 39.1815 0.0312879
4.98861 39.467 2
2.6045 39.7139 3.9813
5.26067 41.614 0.0289376
2.8566 42.0024 2
0.320823 42.3947 4
3.24579 44.2819 0.0181425
0.720551 44.8159 2
1.27781 47.2057 0
7.12526 33.4607 3.9692
8.89838 33.6982 2
10.1203 33.8825 0.0274973
5.41662 31.1332 3.97215
7.5116 31.6091 2
9.40539 32.1556 0.0302107
3.68115 28.4433 3.98223
5.94566 29.0694 2
8.07409 29.6955 0.0311963
1.99015 25.446 4
4.35941 26.2477 2
6.60057 27.0084 0.0275852
2.85453 23.1494 2
5.17162 24.095 0.0166574
3.86728 20.9142 0
4.85265 35.2512 3.97201
6.96558 35.3057 2
8.86061 35.2795 0.0294564
2.49586 37.4285 3.9819
4.83844 37.3396 2
7.01522 37.2055 0.0310815
4.98842 39.4672 0.0288207
2.60474 39.7143 2
0.080333 39.9526 4
2.85638 42.0022 0.0184507
0.320817 42.3947 2
0.720592 44.8159 0
5.046 33.1899 3.97219
7.12539 33.4607 2
8.8982 33.6983 0.0295729
3.14549 30.666 3.98188
5.41664 31.1334 2
7.51156 31.6091 0.0310392
1.27793 27.7943 4
3.68119 28.4435 2
5.94572 29.0693 0.0277829
1.99013 25.446 2
4.3594 26.2475 0.0172809
2.85458 23.1494 0
2.54796 35.159 3.98194
4.85292 35.2514 2
6.96532 35.3058 0.0309224
0 37.5 4
2.49593 37.4289 2
4.8384 37.3395 0.0282256
2.6045 39.7139 0.0187049
0.0802903 39.9526 2
0.320823 42.3947 0
2.76554 32.9057 3.98204
5.04612 33.1901 2
7.12526 33.4607 0.0307984
0.721173 30.1842 4
3.14561 30.6664 2
5.41662 31.1332 0.0278545
1.27779 27.7943 2
3.68115 28.4433 0.0177712
1.99015 25.446 0
0.0806499 35.0474 4
2.54826 35.1594 2
4.85265 35.2512 0.0279927
0 37.5 2
2.49586 37.4285 0.0180992
0.080333 39.9526 0
0.32156 32.6054 4
2.76566 32.9062 2
5.046 33.1899 0.0278078
0.72056 30.1841 2
3.14549 30.666 0.0181174
1.27793 27.7943 0
0.0802889 35.0474 2
2.54796 35.159 0.0180627
0 37.5 0
0.320817 32.6053 2
2.76554 32.9057 0.0179622
0.721173 30.1842 0
0.0806499 35.0474 0
0.32156 32.6054 0
CELLS 1910 17190
8 18 6 25 56 2 0 5 16
8 57 23 6 18 17 4 0 2
8 78 36 9 29 31 11 1 7
8 31 11 1 7 79 37 10 30
8 110 57 18 50 48 17 2 14
8 50 18 56 111 14 2 16 49
8 116 62 22 55 52 20 3 15
8 56 25 67 118 16 5 24 53
8 119 63 23 57 54 21 4 17
8 55 22 63 119 15 3 21 54
8 58 26 68 121 18 6 25 56
8 122 65 26 58 57 23 6 18
8 73 31 7 27 142 79 30 71
8 143 78 29 72 73 31 7 27
8 83 147 76 34 32 74 28 8
8 84 148 78 36 33 75 29 9
8 76 34 8 28 148 84 33 75
8 37 79 150 86 10 30 77 35
8 151 87 36 78 80 38 11 31
8 80 38 11 31 152 88 37 79
8 175 100 42 94 96 44 12 40
8 44 96 176 101 12 40 95 43
8 101 176 98 46 43 95 41 13
8 46 98 178 103 13 41 97 45
8 178 103 45 97 147 83 32 74
8 189 116 55 109 106 52 15 47
8 111 56 118 191 49 16 53 107
8 192 119 57 110 108 54 17 48
8 109 55 119 192 47 15 54 108
8 194 122 58 112 110 57 18 50
8 112 58 121 195 50 18 56 111
8 115 61 19 51 197 124 59 113
8 115 61 125 198 51 19 60 114
8 198 125 62 116 114 60 20 52
8 200 127 64 120 116 62 22 55
8 118 67 132 202 53 24 66 117
8 121 68 133 203 56 25 67 118
8 120 64 128 204 55 22 63 119
8 204 128 65 122 119 63 23 57
8 206 134 68 121 123 69 26 58
8 123 69 26 58 207 131 65 122
8 226 147 74 138 140 76 28 70
8 229 148 75 139 143 78 29 72
8 140 76 28 70 229 148 75 139
8 142 79 30 71 231 150 77 141
8 144 80 31 73 232 152 79 142
8 233 151 78 143 144 80 31 73
8 150 86 35 77 235 154 81 145
8 235 154 81 145 146 82 39 91
8 146 82 39 91 236 155 90 165
8 238 157 83 147 149 85 34 76
8 239 158 84 148 151 87 36 78
8 149 85 34 76 239 158 84 148
8 152 88 37 79 241 160 86 150
8 242 161 87 151 153 89 38 80
8 153 89 38 80 243 162 88 152
8 171 98 41 92 265 178 97 169
8 265 178 97 169 226 147 74 138
8 172 96 40 93 266 176 95 170
8 266 176 95 170 171 98 41 92
8 269 175 94 173 172 96 40 93
8 271 180 99 174 175 100 42 94
8 197 124 59 113 271 180 99 174
8 272 181 100 175 177 102 44 96
8 273 182 101 176 179 104 46 98
8 177 102 44 96 273 182 101 176
8 179 104 46 98 275 184 103 178
8 275 184 103 178 238 157 83 147
8 188 115 51 105 283 197 113 186
8 188 115 198 284 105 51 114 187
8 284 198 116 189 187 114 52 106
8 286 200 120 193 189 116 55 109
8 191 118 202 288 107 53 117 190
8 195 121 203 289 111 56 118 191
8 193 120 204 290 109 55 119 192
8 290 204 122 194 192 119 57 110
8 196 123 58 112 292 207 122 194
8 293 206 121 195 196 123 58 112
8 199 126 61 115 297 211 124 197
8 298 212 127 200 198 125 62 116
8 199 126 212 298 115 61 125 198
8 205 129 64 120 300 214 127 200
8 301 217 130 201 202 132 66 117
8 209 136 168 264 301 217 130 201
8 302 219 132 202 203 133 67 118
8 303 220 133 203 206 134 68 121
8 205 129 215 304 120 64 128 204
8 304 215 131 207 204 128 65 122
8 306 221 134 206 208 135 69 123
8 208 135 69 123 307 218 131 207
8 210 137 167 263 309 223 136 209
8 328 238 147 226 230 149 76 140
8 228 146 91 166 329 236 165 260
8 231 150 77 141 330 235 145 227
8 330 235 145 227 228 146 91 166
8 332 239 148 229 233 151 78 143
8 230 149 76 140 332 239 148 229
8 232 152 79 142 334 241 150 231
8 234 153 80 144 335 243 152 232
8 336 242 151 233 234 153 80 144
8 236 155 90 165 338 245 164 259
8 241 160 86 150 339 246 154 235
8 339 246 154 235 237 156 82 146
8 237 156 82 146 340 247 155 236
8 342 249 157 238 240 159 85 149
8 343 250 158 239 242 161 87 151
8 240 159 85 149 343 250 158 239
8 243 162 88 152 345 252 160 241
8 244 163 253 346 153 89 161 242
8 244 163 89 153 347 254 162 243
8 311 224 261 371 210 137 167 263
8 263 167 262 372 209 136 168 264
8 267 179 98 171 375 275 178 265
8 375 275 178 265 328 238 147 226
8 376 273 176 266 267 179 98 171
8 268 177 96 172 376 273 176 266
8 379 272 175 269 268 177 96 172
8 380 271 174 270 269 175 94 173
8 283 197 113 186 380 271 174 270
8 381 277 180 271 272 181 100 175
8 297 211 124 197 381 277 180 271
8 382 278 181 272 274 183 102 177
8 274 183 102 177 383 279 182 273
8 383 279 182 273 276 185 104 179
8 385 281 184 275 342 249 157 238
8 276 185 104 179 385 281 184 275
8 285 199 115 188 393 297 197 283
8 394 298 200 286 284 198 116 189
8 285 199 298 394 188 115 198 284
8 291 205 120 193 396 300 200 286
8 397 301 201 287 288 202 117 190
8 295 209 264 374 397 301 201 287
8 398 302 202 288 289 203 118 191
8 399 303 203 289 293 206 121 195
8 291 205 304 400 193 120 204 290
8 400 304 207 292 290 204 122 194
8 294 208 123 196 402 307 207 292
8 403 306 206 293 294 208 123 196
8 296 210 263 373 405 309 209 295
8 408 312 213 299 297 211 126 199
8 299 213 313 409 199 126 212 298
8 409 313 214 300 298 212 127 200
8 305 216 129 205 411 315 214 300
8 412 318 217 301 302 219 132 202
8 309 223 136 209 412 318 217 301
8 413 320 219 302 303 220 133 203
8 306 221 321 414 206 134 220 303
8 307 218 131 207 415 316 215 304
8 305 216 316 415 205 129 215 304
8 417 322 221 306 308 222 135 208
8 308 222 135 208 418 319 218 307
8 310 225 137 210 420 325 223 309
8 423 326 224 311 310 225 137 210
8 329 236 165 260 441 338 259 368
8 442 342 238 328 333 240 149 230
8 331 237 146 228 443 340 236 329
8 334 241 150 231 444 339 235 330
8 444 339 235 330 331 237 146 228
8 446 343 239 332 336 242 151 233
8 333 240 149 230 446 343 239 332
8 335 243 152 232 448 345 241 334
8 337 244 153 234 449 347 243 335
8 337 244 346 450 234 153 242 336
8 338 245 164 259 452 349 258 367
8 340 247 155 236 453 350 245 338
8 345 252 160 241 454 351 246 339
8 454 351 246 339 341 248 156 237
8 341 248 156 237 455 352 247 340
8 240 159 251 344 342 249 354 457
8 242 161 253 346 343 250 355 458
8 343 250 355 458 240 159 251 344
8 347 254 162 243 460 357 252 345
8 348 255 358 461 244 163 253 346
8 348 255 163 244 462 359 254 347
8 473 360 257 365 363 256 364 482
8 452 349 258 367 365 257 366 485
8 422 324 369 488 311 224 261 371
8 371 261 370 490 263 167 262 372
8 407 311 371 491 296 210 263 373
8 373 263 372 492 295 209 264 374
8 493 385 275 375 442 342 238 328
8 377 276 179 267 493 385 275 375
8 378 274 177 268 494 383 273 376
8 494 383 273 376 377 276 179 267
8 497 382 272 379 378 274 177 268
8 498 381 271 380 379 272 175 269
8 393 297 197 283 498 381 271 380
8 499 387 277 381 382 278 181 272
8 408 312 211 297 499 387 277 381
8 500 388 278 382 384 280 183 274
8 501 389 279 383 386 282 185 276
8 384 280 183 274 501 389 279 383
8 386 282 185 276 503 391 281 385
8 503 391 281 385 457 354 249 342
8 511 408 299 395 393 297 199 285
8 395 299 409 512 285 199 298 394
8 512 409 300 396 394 298 200 286
8 401 305 205 291 514 411 300 396
8 515 412 301 397 398 302 202 288
8 405 309 209 295 515 412 301 397
8 516 413 302 398 399 303 203 289
8 403 306 414 517 293 206 303 399
8 402 307 207 292 518 415 304 400
8 401 305 415 518 291 205 304 400
8 404 308 208 294 520 418 307 402
8 521 417 306 403 404 308 208 294
8 406 310 210 296 523 420 309 405
8 526 423 311 407 406 310 210 296
8 410 314 213 299 527 424 312 408
8 528 425 315 411 409 313 214 300
8 410 314 425 528 299 213 313 409
8 416 317 216 305 530 427 315 411
8 531 430 318 412 413 320 219 302
8 420 325 223 309 531 430 318 412
8 532 432 320 413 414 321 220 303
8 417 322 433 533 306 221 321 414
8 418 319 218 307 534 428 316 415
8 416 317 428 534 305 216 316 415
8 419 323 434 536 308 222 322 417
8 419 323 222 308 537 431 319 418
8 421 327 225 310 539 438 325 420
8 421 327 439 541 310 225 326 423
8 543 437 324 422 423 326 224 311
8 441 338 259 368 559 452 367 486
8 443 340 236 329 560 453 338 441
8 333 240 344 447 442 342 457 561
8 445 341 237 331 562 455 340 443
8 448 345 241 334 563 454 339 444
8 563 454 339 444 445 341 237 331
8 336 242 346 450 446 343 458 565
8 446 343 458 565 333 240 344 447
8 449 347 243 335 567 460 345 448
8 451 348 244 337 568 462 347 449
8 451 348 461 569 337 244 346 450
8 570 463 349 452 473 360 257 365
8 453 350 245 338 570 463 349 452
8 455 352 247 340 571 464 350 453
8 460 357 252 345 572 465 351 454
8 572 465 351 454 456 353 248 341
8 456 353 248 341 573 466 352 455
8 344 251 356 459 457 354 468 575
8 458 355 469 576 344 251 356 459
8 346 253 358 461 458 355 469 576
8 462 359 254 347 578 471 357 460
8 348 255 359 462 461 358 472 579
8 591 474 360 473 475 361 256 363
8 475 361 256 363 594 477 362 479
8 363 256 364 482 479 362 480 603
8 590 473 365 484 481 363 482 605
8 482 364 257 365 606 483 366 485
8 559 452 367 486 484 365 485 607
8 542 436 487 609 422 324 369 488
8 525 422 488 611 407 311 371 491
8 488 369 489 612 371 261 370 490
8 491 371 490 613 373 263 372 492
8 495 386 276 377 614 503 385 493
8 614 503 385 493 561 457 342 442
8 615 501 383 494 495 386 276 377
8 496 384 274 378 615 501 383 494
8 618 500 382 497 496 384 274 378
8 619 499 381 498 497 382 272 379
8 511 408 297 393 619 499 381 498
8 620 505 387 499 500 388 278 382
8 527 424 312 408 620 505 387 499
8 502 390 506 621 384 280 388 500
8 622 507 389 501 504 392 282 386
8 502 390 280 384 622 507 389 501
8 504 392 282 386 624 509 391 503
8 624 509 391 503 575 468 354 457
8 513 410 299 395 630 527 408 511
8 631 528 411 514 512 409 300 396
8 513 410 528 631 395 299 409 512
8 519 416 305 401 633 530 411 514
8 634 531 412 515 516 413 302 398
8 523 420 309 405 634 531 412 515
8 635 532 413 516 517 414 303 399
8 521 417 533 636 403 306 414 517
8 520 418 307 402 637 534 415 518
8 519 416 534 637 401 305 415 518
8 522 419 308 404 639 537 418 520
8 522 419 536 640 404 308 417 521
8 524 421 310 406 642 539 420 523
8 524 421 541 644 406 310 423 526
8 646 543 422 525 526 423 311 407
8 529 426 314 410 647 544 424 527
8 528 425 545 648 411 315 427 530
8 529 426 545 648 410 314 425 528
8 535 429 317 416 649 546 427 530
8 650 548 430 531 532 432 320 413
8 539 438 325 420 650 548 430 531
8 533 433 550 651 414 321 432 532
8 536 434 551 652 417 322 433 533
8 537 431 319 418 653 547 428 534
8 535 429 547 653 416 317 428 534
8 538 435 552 654 419 323 434 536
8 538 435 323 419 655 549 431 537
8 540 440 327 421 657 556 438 539
8 540 440 557 659 421 327 439 541
8 541 439 555 660 423 326 437 543
8 661 554 436 542 543 437 324 422
8 676 570 452 559 590 473 365 484
8 560 453 338 441 676 570 452 559
8 562 455 340 443 677 571 453 560
8 447 344 459 566 561 457 575 678
8 564 456 341 445 679 573 455 562
8 567 460 345 448 680 572 454 563
8 680 572 454 563 564 456 341 445
8 565 458 576 682 447 344 459 566
8 450 346 461 569 565 458 576 682
8 568 462 347 449 684 578 460 567
8 451 348 462 568 569 461 579 685
8 686 580 463 570 591 474 360 473
8 571 464 350 453 686 580 463 570
8 573 466 352 455 687 581 464 571
8 572 465 582 688 460 357 471 578
8 574 467 582 688 456 353 465 572
8 574 467 353 456 689 583 466 573
8 459 356 470 577 575 468 585 691
8 576 469 586 692 459 356 470 577
8 461 358 472 579 576 469 586 692
8 462 359 471 578 579 472 588 694
8 704 591 473 590 593 475 363 481
8 595 476 592 705 475 361 474 591
8 593 475 363 481 707 594 479 602
8 594 477 362 479 709 598 478 600
8 595 476 361 475 711 597 477 594
8 479 362 480 603 600 478 601 720
8 481 363 482 605 602 479 603 722
8 603 480 364 482 723 604 483 606
8 605 482 365 484 724 606 485 607
8 656 553 608 726 542 436 487 609
8 645 542 609 728 525 422 488 611
8 609 487 610 729 488 369 489 612
8 611 488 612 730 491 371 490 613
8 616 504 386 495 731 624 503 614
8 731 624 503 614 678 575 457 561
8 732 622 501 615 616 504 386 495
8 617 502 384 496 732 622 501 615
8 617 502 621 735 496 384 500 618
8 736 620 499 619 618 500 382 497
8 630 527 408 511 736 620 499 619
8 621 506 626 737 500 388 505 620
8 647 544 424 527 737 626 505 620
8 623 508 627 738 502 390 506 621
8 623 508 390 502 739 628 507 622
8 625 510 628 739 504 392 507 622
8 740 629 509 624 691 585 468 575
8 625 510 392 504 740 629 509 624
8 632 529 410 513 744 647 527 630
8 631 528 648 745 514 411 530 633
8 632 529 648 745 513 410 528 631
8 638 535 416 519 746 649 530 633
8 747 650 531 634 635 532 413 516
8 642 539 420 523 747 650 531 634
8 636 533 651 748 517 414 532 635
8 640 536 652 749 521 417 533 636
8 639 537 418 520 750 653 534 637
8 638 535 653 750 519 416 534 637
8 641 538 419 522 751 655 537 639
8 641 538 654 752 522 419 536 640
8 643 540 421 524 753 657 539 642
8 643 540 659 755 524 421 541 644
8 644 541 660 757 526 423 543 646
8 758 661 542 645 646 543 422 525
8 529 426 544 647 648 545 662 759
8 530 427 545 648 649 546 663 760
8 535 429 546 649 653 547 664 761
8 762 666 548 650 651 550 432 532
8 657 556 438 539 762 666 548 650
8 652 551 668 763 533 433 550 651
8 654 552 669 764 536 434 551 652
8 655 549 431 537 765 665 547 653
8 538 435 549 655 654 552 667 766
8 661 554 671 768 542 436 553 656
8 658 558 440 540 769 674 556 657
8 658 558 675 770 540 440 557 659
8 659 557 673 771 541 439 555 660
8 660 555 672 772 543 437 554 661
8 788 686 570 676 704 591 473 590
8 677 571 453 560 788 686 570 676
8 679 573 455 562 789 687 571 677
8 566 459 577 683 678 575 691 790
8 681 574 456 564 791 689 573 679
8 680 572 688 792 567 460 578 684
8 681 574 688 792 564 456 572 680
8 682 576 692 794 566 459 577 683
8 569 461 579 685 682 576 692 794
8 568 462 578 684 685 579 694 796
8 687 581 464 571 798 696 580 686
8 798 696 580 686 705 592 474 591
8 689 583 466 573 799 697 581 687
8 688 582 698 800 578 471 588 694
8 690 584 698 800 574 467 582 688
8 690 584 467 574 801 699 583 689
8 693 587 701 803 577 470 585 691
8 693 587 470 577 804 702 586 692
8 695 589 702 804 579 472 586 692
8 695 589 472 579 805 703 588 694
8 708 595 705 813 593 475 591 704
8 710 596 706 814 595 476 592 705
8 707 594 479 602 816 709 600 719
8 708 595 475 593 817 711 594 707
8 709 598 478 600 819 715 599 717
8 711 597 477 594 820 714 598 709
8 710 596 476 595 822 713 597 711
8 600 478 601 720 717 599 718 832
8 602 479 603 722 719 600 720 834
8 720 601 480 603 835 721 604 723
8 722 603 482 605 836 723 606 724
8 767 670 725 839 656 553 608 726
8 756 656 726 841 645 542 609 728
8 726 608 727 842 609 487 610 729
8 728 609 729 843 611 488 612 730
8 844 740 624 731 790 691 575 678
8 733 625 504 616 844 740 624 731
8 734 623 502 617 845 739 622 732
8 733 625 739 845 616 504 622 732
8 734 623 738 846 617 502 621 735
8 735 621 737 847 618 500 620 736
8 744 647 527 630 847 737 620 736
8 621 506 627 738 737 626 741 848
8 647 544 626 737 759 662 741 848
8 623 508 628 739 738 627 742 849
8 740 629 585 691 850 743 700 802
8 625 510 629 740 739 628 743 850
8 632 529 647 744 745 648 759 854
8 633 530 648 745 746 649 760 855
8 638 535 649 746 750 653 761 856
8 857 762 650 747 748 651 532 635
8 753 657 539 642 857 762 650 747
8 749 652 763 858 636 533 651 748
8 752 654 764 859 640 536 652 749
8 751 655 537 639 860 765 653 750
8 641 538 655 751 752 654 766 861
8 754 658 540 643 862 769 657 753
8 754 658 770 863 643 540 659 755
8 755 659 771 864 644 541 660 757
8 758 661 768 866 645 542 656 756
8 757 660 772 867 646 543 661 758
8 759 662 773 868 648 545 663 760
8 649 546 663 760 761 664 774 871
8 765 665 547 653 872 775 664 761
8 873 777 666 762 763 668 550 651
8 769 674 556 657 873 777 666 762
8 764 669 779 874 652 551 668 763
8 654 552 667 766 764 669 778 875
8 655 549 665 765 766 667 776 876
8 768 671 782 877 656 553 670 767
8 772 672 783 878 661 554 671 768
8 658 558 674 769 770 675 786 879
8 659 557 675 770 771 673 785 881
8 882 784 672 772 771 673 555 660
8 789 687 571 677 897 798 686 788
8 897 798 686 788 813 705 591 704
8 791 689 573 679 898 799 687 789
8 795 693 803 900 683 577 691 790
8 793 690 574 681 901 801 689 791
8 792 688 800 902 684 578 694 796
8 793 690 800 902 681 574 688 792
8 795 693 577 683 903 804 692 794
8 797 695 804 903 685 579 692 794
8 797 695 579 685 904 805 694 796
8 905 806 697 799 798 696 581 687
8 814 706 806 905 705 592 696 798
8 689 583 697 799 801 699 808 907
8 800 698 809 908 694 588 703 805
8 690 584 699 801 800 698 809 908
8 803 701 810 909 691 585 700 802
8 693 587 702 804 803 701 811 910
8 695 589 703 805 804 702 812 911
8 818 710 814 919 708 595 705 813
8 821 712 815 920 710 596 706 814
8 816 709 600 719 922 819 717 831
8 817 711 594 707 923 820 709 816
8 818 710 595 708 924 822 711 817
8 819 715 599 717 926 827 716 829
8 820 714 598 709 927 826 715 819
8 929 825 713 822 820 714 597 711
8 821 712 596 710 930 824 713 822
8 717 599 718 832 829 716 830 942
8 719 600 720 834 831 717 832 944
8 832 718 601 720 945 833 721 835
8 834 720 603 722 946 835 723 836
8 869 780 838 950 767 670 725 839
8 865 767 839 952 756 656 726 841
8 839 725 840 953 726 608 727 842
8 841 726 842 954 728 609 729 843
8 844 740 691 790 955 850 802 899
8 733 625 740 844 845 739 850 955
8 734 623 739 845 846 738 849 956
8 735 621 738 846 847 737 848 957
8 744 647 737 847 854 759 848 957
8 738 627 742 849 848 741 851 958
8 848 741 851 958 759 662 773 868
8 850 743 700 802 959 852 807 906
8 849 742 628 739 959 852 743 850
8 854 759 868 965 745 648 760 855
8 746 649 760 855 856 761 871 966
8 860 765 653 750 967 872 761 856
8 968 873 762 857 858 763 651 748
8 862 769 657 753 968 873 762 857
8 859 764 874 969 749 652 763 858
8 752 654 766 861 859 764 875 970
8 751 655 765 860 861 766 876 971
8 754 658 769 862 863 770 879 972
8 755 659 770 863 864 771 881 974
8 976 882 772 867 864 771 660 757
8 866 768 877 977 756 656 767 865
8 867 772 878 978 758 661 768 866
8 760 663 773 868 871 774 883 980
8 870 781 837 948 982 890 780 869
8 982 890 780 869 877 782 670 767
8 761 664 774 871 872 775 884 984
8 876 776 665 765 985 885 775 872
8 873 777 668 763 986 887 779 874
8 769 674 777 873 879 786 887 986
8 764 669 778 875 874 779 888 987
8 766 667 776 876 875 778 886 988
8 878 783 892 989 768 671 782 877
8 878 783 672 772 990 893 784 882
8 880 787 675 770 991 896 786 879
8 880 787 895 992 770 675 785 881
8 881 785 894 993 771 673 784 882
8 1006 905 799 898 897 798 687 789
8 919 814 905 1006 813 705 798 897
8 791 689 799 898 901 801 907 1007
8 900 803 909 1009 790 691 802 899
8 795 693 804 903 900 803 910 1010
8 902 800 908 1011 796 694 805 904
8 793 690 801 901 902 800 908 1011
8 797 695 805 904 903 804 911 1012
8 799 697 806 905 907 808 912 1013
8 920 815 912 1013 814 706 806 905
8 802 700 810 909 906 807 913 1014
8 801 699 808 907 908 809 914 1015
8 805 703 809 908 911 812 915 1016
8 803 701 811 910 909 810 916 1017
8 911 812 917 1018 804 702 811 910
8 925 821 920 1030 818 710 814 919
8 928 823 921 1031 821 712 815 920
8 922 819 717 831 1033 926 829 941
8 923 820 709 816 1034 927 819 922
8 1035 929 822 924 923 820 711 817
8 925 821 710 818 1036 930 822 924
8 1038 933 825 929 927 826 714 820
8 926 827 716 829 1039 935 828 939
8 927 826 715 819 1040 934 827 926
8 928 823 712 821 1041 931 824 930
8 1042 932 824 930 929 825 713 822
8 829 716 830 942 939 828 940 1058
8 831 717 832 944 941 829 942 1060
8 942 830 718 832 1061 943 833 945
8 944 832 720 834 1062 945 835 946
8 981 889 947 1064 870 781 837 948
8 948 837 949 1067 869 780 838 950
8 975 869 950 1069 865 767 839 952
8 950 838 951 1070 839 725 840 953
8 952 839 953 1071 841 726 842 954
8 955 850 802 899 1072 959 906 1008
8 956 849 739 845 1072 959 850 955
8 846 738 849 956 957 848 958 1073
8 957 848 958 1073 854 759 868 965
8 849 742 852 959 958 851 961 1076
8 960 853 961 1076 906 807 852 959
8 958 851 961 1076 868 773 883 980
8 960 853 807 906 1077 963 913 1014
8 855 760 868 965 966 871 980 1085
8 856 761 871 966 967 872 984 1086
8 971 876 765 860 1087 985 872 967
8 968 873 763 858 1088 986 874 969
8 862 769 873 968 972 879 986 1088
8 859 764 875 970 969 874 987 1089
8 861 766 876 971 970 875 988 1090
8 973 880 770 863 1091 991 879 972
8 973 880 992 1092 863 770 881 974
8 974 881 993 1093 864 771 882 976
8 979 870 948 1066 1094 982 869 975
8 1094 982 869 975 977 877 767 865
8 978 878 772 867 1095 990 882 976
8 978 878 989 1096 866 768 877 977
8 871 774 883 980 984 884 994 1099
8 983 891 999 1100 870 781 889 981
8 1101 1000 890 982 989 892 782 877
8 983 891 781 870 1101 1000 890 982
8 872 775 884 984 985 885 995 1103
8 876 776 885 985 988 886 996 1104
8 986 887 779 874 1105 998 888 987
8 879 786 887 986 991 896 998 1105
8 875 778 886 988 987 888 997 1106
8 990 893 1002 1107 878 783 892 989
8 1108 1003 893 990 993 894 784 882
8 880 787 896 991 992 895 1005 1109
8 993 894 785 881 1110 1004 895 992
8 898 799 905 1006 1007 907 1013 1120
8 1030 920 1013 1120 919 814 905 1006
8 901 801 907 1007 1011 908 1015 1121
8 899 802 909 1009 1008 906 1014 1122
8 900 803 910 1010 1009 909 1017 1123
8 1012 911 1018 1124 903 804 910 1010
8 904 805 908 1011 1012 911 1016 1125
8 1013 912 1020 1127 907 808 914 1015
8 1031 921 1020 1127 920 815 912 1013
8 1019 918 962 1075 1128 1021 913 1014
8 1128 1021 913 1014 1017 916 810 909
8 1015 914 1022 1129 908 809 915 1016
8 1016 915 1023 1130 911 812 917 1018
8 1018 917 1024 1131 910 811 916 1017
8 1037 928 1031 1148 925 821 920 1030
8 928 823 931 1041 1031 921 1032 1149
8 1033 926 829 941 1151 1039 939 1057
8 1034 927 819 922 1152 1040 926 1033
8 1153 1038 929 1035 1034 927 820 923
8 1154 1042 930 1036 1035 929 822 924
8 1037 928 821 925 1155 1041 930 1036
8 1039 935 828 939 1156 1047 938 1055
8 1157 1043 932 1042 1038 933 825 929
8 1038 933 826 927 1158 1045 934 1040
8 1040 934 827 926 1159 1046 935 1039
8 930 824 932 1042 1041 931 1044 1160
8 1051 936 1048 1165 1175 1052 937 1053
8 1156 1047 938 1055 1053 937 1054 1178
8 939 828 940 1058 1055 938 1056 1181
8 941 829 942 1060 1057 939 1058 1183
8 942 830 943 1061 1058 940 1059 1184
8 1060 942 832 944 1185 1061 945 1062
8 1082 964 1063 1188 981 889 947 1064
8 1097 981 1064 1190 979 870 948 1066
8 1064 947 1065 1191 948 837 949 1067
8 1066 948 1067 1193 975 869 950 1069
8 1067 949 1068 1194 950 838 951 1070
8 1069 950 1070 1195 952 839 953 1071
8 956 849 959 1072 1073 958 1076 1197
8 1074 960 1076 1197 1008 906 959 1072
8 1073 958 1076 1197 965 868 980 1085
8 1074 960 906 1008 1198 1077 1014 1122
8 1133 1026 1079 1199 1019 918 962 1075
8 1077 963 913 1014 1200 1080 962 1075
8 960 853 963 1077 1076 961 1078 1201
8 980 883 961 1076 1099 994 1078 1201
8 1210 1083 964 1082 1100 999 889 981
8 966 871 980 1085 1086 984 1099 1215
8 967 872 984 1086 1087 985 1103 1216
8 971 876 985 1087 1090 988 1104 1217
8 1088 986 874 969 1218 1105 987 1089
8 972 879 986 1088 1091 991 1105 1218
8 970 875 988 1090 1089 987 1106 1219
8 973 880 991 1091 1092 992 1109 1220
8 1093 993 881 974 1221 1110 992 1092
8 1222 1108 990 1095 1093 993 882 976
8 1223 1101 982 1094 1096 989 877 977
8 1098 983 870 979 1223 1101 982 1094
8 1095 990 1107 1224 978 878 989 1096
8 1098 983 1100 1225 979 870 981 1097
8 984 884 994 1099 1103 995 1111 1227
8 1102 1001 1115 1228 983 891 999 1100
8 1101 1000 892 989 1229 1116 1002 1107
8 1102 1001 891 983 1229 1116 1000 1101
8 985 885 995 1103 1104 996 1112 1230
8 988 886 996 1104 1106 997 1113 1231
8 1105 998 888 987 1232 1114 997 1106
8 991 896 998 1105 1109 1005 1114 1232
8 1108 1003 1117 1233 990 893 1002 1107
8 1108 1003 894 993 1233 1117 1004 1110
8 992 895 1005 1109 1110 1004 1118 1234
8 1120 1013 1127 1244 1007 907 1015 1121
8 1148 1031 1127 1244 1030 920 1013 1120
8 1121 1015 1129 1245 1011 908 1016 1125
8 1126 1019 1075 1196 1246 1128 1014 1122
8 1246 1128 1014 1122 1123 1017 909 1009
8 1124 1018 1131 1247 1010 910 1017 1123
8 1125 1016 1130 1248 1012 911 1018 1124
8 1127 1020 1137 1254 1015 914 1022 1129
8 1031 921 1032 1149 1127 1020 1137 1254
8 1134 1027 918 1019 1257 1140 1021 1128
8 1257 1140 1021 1128 1131 1024 916 1017
8 1129 1022 1141 1258 1016 915 1023 1130
8 1130 1023 1142 1259 1018 917 1024 1131
8 1261 1144 1025 1132 1133 1026 1079 1199
8 1255 1138 1025 1132 1135 1028 1144 1261
8 1133 1026 918 1019 1262 1145 1027 1134
8 1136 1029 1139 1256 1263 1146 1028 1135
8 1037 928 1041 1155 1148 1031 1149 1275
8 1041 931 1044 1160 1149 1032 1150 1276
8 1151 1039 939 1057 1278 1156 1055 1180
8 1152 1040 926 1033 1279 1159 1039 1151
8 1153 1038 927 1034 1280 1158 1040 1152
8 1281 1157 1042 1154 1153 1038 929 1035
8 1036 930 1042 1154 1155 1041 1160 1282
8 1283 1164 1046 1159 1156 1047 935 1039
8 1165 1048 1164 1283 1053 937 1047 1156
8 1157 1043 933 1038 1284 1161 1045 1158
8 1157 1043 1161 1284 1042 932 1044 1160
8 1040 934 1046 1159 1158 1045 1163 1285
8 1166 1049 1167 1292 1051 936 1048 1165
8 1166 1049 936 1051 1293 1168 1050 1172
8 1051 936 1052 1175 1172 1050 1173 1306
8 1174 1051 1165 1290 1308 1175 1053 1177
8 1053 937 1054 1178 1175 1052 1176 1309
8 1278 1156 1055 1180 1177 1053 1178 1311
8 1055 938 1056 1181 1178 1054 1179 1312
8 1057 939 1058 1183 1180 1055 1181 1314
8 1058 940 1059 1184 1181 1056 1182 1315
8 1060 942 1061 1185 1183 1058 1184 1316
8 1208 1081 1187 1321 1082 964 1063 1188
8 1209 1082 1188 1322 1097 981 1064 1190
8 1188 1063 1189 1323 1064 947 1065 1191
8 1190 1064 1191 1325 1066 948 1067 1193
8 1191 1065 1192 1326 1067 949 1068 1194
8 1067 1193 1069 950 1194 1327 1195 1070
8 1250 1133 1199 1330 1126 1019 1075 1196
8 1198 1077 1014 1122 1331 1200 1075 1196
8 1074 960 1077 1198 1197 1076 1201 1332
8 1085 980 1076 1197 1215 1099 1201 1332
8 1199 1079 1203 1333 1075 962 1080 1200
8 1132 1025 1119 1243 1199 1079 1203 1333
8 1201 1078 963 1077 1334 1202 1080 1200
8 1099 994 1078 1201 1227 1111 1202 1334
8 1343 1207 1081 1208 1210 1083 964 1082
8 1214 1084 1186 1319 1343 1207 1081 1208
8 1345 1210 1082 1209 1225 1100 981 1097
8 1346 1211 1083 1210 1228 1115 999 1100
8 1086 984 1099 1215 1216 1103 1227 1352
8 1087 985 1103 1216 1217 1104 1230 1353
8 1090 988 1104 1217 1219 1106 1231 1354
8 1218 1105 987 1089 1355 1232 1106 1219
8 1091 991 1105 1218 1220 1109 1232 1355
8 1092 992 1109 1220 1221 1110 1234 1356
8 1222 1108 1233 1357 1095 990 1107 1224
8 1222 1108 993 1093 1357 1233 1110 1221
8 1223 1101 989 1096 1358 1229 1107 1224
8 1226 1102 983 1098 1358 1229 1101 1223
8 1226 1102 1228 1359 1098 983 1100 1225
8 1103 995 1111 1227 1230 1112 1235 1360
8 1107 1002 1117 1233 1229 1116 1240 1362
8 1102 1001 1116 1229 1228 1115 1240 1362
8 1104 996 1112 1230 1231 1113 1236 1363
8 1364 1237 1114 1232 1231 1113 997 1106
8 1109 1005 1114 1232 1234 1118 1238 1365
8 1110 1004 1118 1234 1233 1117 1241 1366
8 1242 1374 1255 1138 1119 1243 1132 1025
8 1244 1127 1254 1376 1121 1015 1129 1245
8 1148 1031 1149 1275 1244 1127 1254 1376
8 1245 1129 1258 1377 1125 1016 1130 1248
8 1251 1134 1019 1126 1378 1257 1128 1246
8 1378 1257 1128 1246 1247 1131 1017 1123
8 1248 1130 1259 1379 1124 1018 1131 1247
8 1261 1381 1250 1133 1132 1249 1330 1199
8 1255 1380 1252 1135 1132 1249 1381 1261
8 1250 1133 1019 1126 1382 1262 1134 1251
8 1253 1136 1256 1385 1384 1263 1135 1252
8 1254 1137 1265 1387 1129 1022 1141 1258
8 1149 1032 1150 1276 1254 1137 1265 1387
8 1028 1135 1255 1138 1139 1256 1388 1266
8 1136 1029 1147 1264 1256 1139 1267 1389
8 1390 1268 1140 1257 1259 1142 1024 1131
8 1260 1143 1027 1134 1390 1268 1140 1257
8 1258 1141 1269 1391 1130 1023 1142 1259
8 1262 1145 1027 1134 1393 1271 1143 1260
8 1261 1144 1026 1133 1394 1272 1145 1262
8 1135 1028 1144 1261 1263 1146 1272 1394
8 1136 1029 1146 1263 1264 1147 1273 1395
8 1155 1041 1160 1282 1275 1149 1276 1405
8 1276 1150 1044 1160 1406 1277 1162 1286
8 1408 1283 1159 1279 1278 1156 1039 1151
8 1290 1165 1283 1408 1177 1053 1156 1278
8 1152 1040 1159 1279 1280 1158 1285 1409
8 1281 1157 1038 1153 1410 1284 1158 1280
8 1281 1157 1284 1410 1154 1042 1160 1282
8 1159 1046 1164 1283 1285 1163 1289 1412
8 1292 1167 1289 1412 1165 1048 1164 1283
8 1158 1045 1163 1285 1284 1161 1288 1413
8 1284 1161 1288 1413 1160 1044 1162 1286
8 1291 1166 1292 1418 1174 1051 1165 1290
8 1291 1166 1051 1174 1419 1293 1172 1305
8 1294 1169 1296 1421 1166 1049 1167 1292
8 1293 1168 1050 1172 1422 1295 1171 1303
8 1294 1169 1049 1166 1423 1297 1168 1293
8 1422 1295 1171 1303 1301 1170 1302 1435
8 1172 1050 1173 1306 1303 1171 1304 1438
8 1174 1051 1175 1308 1305 1172 1306 1440
8 1175 1052 1176 1309 1306 1173 1307 1441
8 1177 1053 1178 1311 1308 1175 1309 1443
8 1178 1054 1179 1312 1309 1176 1310 1444
8 1180 1055 1181 1314 1311 1178 1312 1446
8 1056 1181 1312 1179 1182 1315 1447 1313
8 1183 1058 1184 1316 1314 1181 1315 1448
8 1319 1186 1084 1214 1451 1317 1213 1350
8 1319 1186 1318 1453 1208 1081 1187 1321
8 1321 1187 1320 1456 1188 1063 1189 1323
8 1344 1208 1321 1457 1209 1082 1188 1322
8 1322 1188 1323 1458 1190 1064 1191 1325
8 1323 1189 1324 1459 1191 1065 1192 1326
8 1191 1325 1193 1067 1326 1460 1327 1194
8 1242 1374 1243 1119 1328 1462 1335 1204
8 1330 1199 1333 1465 1196 1075 1200 1331
8 1132 1249 1330 1199 1243 1375 1465 1333
8 1332 1201 1077 1198 1466 1334 1200 1331
8 1215 1099 1201 1332 1352 1227 1334 1466
8 1119 1243 1333 1203 1204 1335 1470 1338
8 1333 1203 1338 1470 1200 1080 1202 1334
8 1227 1111 1202 1334 1360 1235 1338 1470
8 1328 1462 1335 1204 1205 1336 1471 1339
8 1337 1206 1340 1472 1464 1329 1205 1336
8 1346 1211 1342 1479 1210 1083 1207 1343
8 1346 1211 1115 1228 1479 1342 1239 1361
8 1348 1212 1084 1214 1479 1342 1207 1343
8 1480 1343 1208 1344 1345 1210 1082 1209
8 1351 1214 1319 1454 1480 1343 1208 1344
8 1481 1346 1210 1345 1359 1228 1100 1225
8 1348 1212 1347 1483 1214 1084 1213 1350
8 1216 1103 1227 1352 1353 1230 1360 1488
8 1217 1104 1230 1353 1354 1231 1363 1489
8 1490 1364 1232 1355 1354 1231 1106 1219
8 1220 1109 1232 1355 1356 1234 1365 1491
8 1221 1110 1234 1356 1357 1233 1366 1492
8 1224 1107 1233 1357 1358 1229 1362 1493
8 1226 1102 1229 1358 1359 1228 1362 1493
8 1230 1112 1235 1360 1363 1236 1367 1496
8 1361 1239 1115 1228 1497 1371 1240 1362
8 1366 1241 1372 1498 1233 1117 1240 1362
8 1364 1237 1113 1231 1499 1368 1236 1363
8 1364 1237 1368 1499 1232 1114 1238 1365
8 1234 1118 1238 1365 1366 1241 1369 1500
8 1507 1373 1242 1374 1388 1266 1138 1255
8 1508 1374 1243 1375 1380 1255 1132 1249
8 1376 1254 1387 1509 1245 1129 1258 1377
8 1275 1149 1276 1405 1376 1254 1387 1509
8 1377 1258 1391 1510 1248 1130 1259 1379
8 1511 1390 1257 1378 1379 1259 1131 1247
8 1383 1260 1134 1251 1511 1390 1257 1378
8 1252 1135 1256 1385 1380 1255 1388 1512
8 1261 1381 1513 1394 1133 1250 1382 1262
8 1135 1252 1384 1263 1261 1381 1513 1394
8 1382 1262 1134 1251 1514 1393 1260 1383
8 1253 1136 1263 1384 1386 1264 1395 1516
8 1253 1136 1264 1386 1385 1256 1389 1517
8 1387 1265 1397 1519 1258 1141 1269 1391
8 1276 1150 1277 1406 1387 1265 1397 1519
8 1256 1139 1267 1389 1388 1266 1398 1520
8 1264 1147 1274 1396 1389 1267 1399 1521
8 1392 1270 1143 1260 1522 1400 1268 1390
8 1390 1268 1142 1259 1522 1400 1269 1391
8 1392 1270 1401 1523 1260 1143 1271 1393
8 1272 1394 1524 1402 1145 1262 1393 1271
8 1395 1273 1146 1263 1524 1402 1272 1394
8 1273 1395 1264 1147 1403 1526 1396 1274
8 1405 1276 1160 1282 1534 1406 1286 1411
8 1414 1287 1407 1535 1286 1162 1277 1406
8 1279 1159 1283 1408 1409 1285 1412 1537
8 1418 1292 1412 1537 1290 1165 1283 1408
8 1280 1158 1285 1409 1410 1284 1413 1538
8 1410 1284 1413 1538 1282 1160 1286 1411
8 1285 1163 1289 1412 1413 1288 1417 1540
8 1421 1296 1417 1540 1292 1167 1289 1412
8 1414 1287 1162 1286 1541 1416 1288 1413
8 1420 1294 1421 1545 1291 1166 1292 1418
8 1419 1293 1172 1305 1546 1422 1303 1437
8 1420 1294 1166 1291 1547 1423 1293 1419
8 1294 1169 1297 1423 1421 1296 1425 1548
8 1423 1297 1168 1293 1549 1424 1295 1422
8 1301 1170 1298 1427 1422 1295 1424 1549
8 1432 1300 1428 1554 1301 1170 1298 1427
8 1431 1299 1428 1554 1560 1430 1300 1432
8 1563 1433 1300 1432 1435 1302 1170 1301
8 1546 1422 1303 1437 1434 1301 1435 1565
8 1303 1171 1304 1438 1435 1302 1436 1566
8 1305 1172 1306 1440 1437 1303 1438 1568
8 1306 1173 1307 1441 1438 1304 1439 1569
8 1308 1175 1309 1443 1440 1306 1441 1571
8 1309 1176 1310 1444 1441 1307 1442 1572
8 1311 1178 1312 1446 1443 1309 1444 1574
8 1179 1312 1444 1310 1313 1447 1575 1445
8 1314 1181 1315 1448 1446 1312 1447 1576
8 1350 1213 1349 1486 1451 1317 1449 1579
8 1451 1317 1450 1581 1319 1186 1318 1453
8 1454 1319 1214 1351 1582 1451 1350 1487
8 1453 1318 1452 1584 1321 1187 1320 1456
8 1454 1319 1453 1585 1344 1208 1321 1457
8 1456 1320 1455 1586 1323 1189 1324 1459
8 1457 1321 1456 1587 1322 1188 1323 1458
8 1458 1323 1459 1588 1325 1191 1326 1460
8 1205 1336 1464 1329 1328 1462 1590 1461
8 1507 1373 1461 1590 1374 1242 1328 1462
8 1508 1374 1462 1591 1375 1243 1335 1467
8 1337 1206 1329 1464 1473 1341 1463 1594
8 1375 1243 1335 1467 1465 1333 1470 1596
8 1465 1333 1470 1596 1331 1200 1334 1466
8 1352 1227 1334 1466 1488 1360 1470 1596
8 1591 1462 1336 1468 1467 1335 1471 1597
8 1469 1337 1472 1598 1595 1464 1336 1468
8 1471 1339 1474 1600 1335 1204 1338 1470
8 1600 1474 1367 1496 1470 1338 1235 1360
8 1336 1205 1340 1472 1471 1339 1475 1601
8 1337 1206 1341 1473 1472 1340 1476 1602
8 1495 1370 1478 1609 1361 1239 1342 1479
8 1348 1212 1342 1479 1483 1347 1478 1609
8 1481 1346 1479 1610 1345 1210 1343 1480
8 1481 1346 1228 1359 1610 1479 1361 1494
8 1484 1348 1214 1351 1610 1479 1343 1480
8 1483 1347 1482 1612 1350 1213 1349 1486
8 1484 1348 1483 1613 1351 1214 1350 1487
8 1353 1230 1360 1488 1489 1363 1496 1616
8 1490 1364 1231 1354 1617 1499 1363 1489
8 1490 1364 1499 1617 1355 1232 1365 1491
8 1356 1234 1365 1491 1492 1366 1500 1619
8 1492 1366 1498 1620 1357 1233 1362 1493
8 1494 1361 1228 1359 1621 1497 1362 1493
8 1495 1370 1239 1361 1622 1504 1371 1497
8 1363 1236 1367 1496 1499 1368 1501 1623
8 1497 1371 1240 1362 1624 1505 1372 1498
8 1625 1503 1372 1498 1500 1369 1241 1366
8 1365 1238 1368 1499 1500 1369 1502 1626
8 1520 1398 1506 1633 1388 1266 1373 1507
8 1634 1507 1374 1508 1512 1388 1255 1380
8 1509 1387 1519 1635 1377 1258 1391 1510
8 1405 1276 1406 1534 1509 1387 1519 1635
8 1515 1392 1260 1383 1636 1522 1390 1511
8 1511 1390 1259 1379 1636 1522 1391 1510
8 1385 1256 1389 1517 1512 1388 1520 1637
8 1513 1394 1262 1382 1638 1524 1393 1514
8 1395 1516 1638 1524 1263 1384 1513 1394
8 1515 1392 1523 1639 1383 1260 1393 1514
8 1516 1395 1526 1640 1386 1264 1396 1518
8 1386 1264 1396 1518 1517 1389 1521 1641
8 1519 1397 1527 1643 1391 1269 1400 1522
8 1535 1407 1527 1643 1406 1277 1397 1519
8 1389 1267 1399 1521 1520 1398 1528 1644
8 1645 1529 1399 1521 1525 1404 1274 1396
8 1392 1270 1400 1522 1523 1401 1531 1646
8 1524 1402 1271 1393 1648 1532 1401 1523
8 1403 1526 1648 1532 1273 1395 1524 1402
8 1525 1404 1274 1396 1649 1533 1403 1526
8 1539 1414 1535 1657 1411 1286 1406 1534
8 1542 1415 1536 1658 1414 1287 1407 1535
8 1409 1285 1412 1537 1538 1413 1540 1660
8 1545 1421 1540 1660 1418 1292 1412 1537
8 1539 1414 1286 1411 1661 1541 1413 1538
8 1540 1417 1544 1663 1413 1288 1416 1541
8 1421 1296 1425 1548 1540 1417 1544 1663
8 1542 1415 1287 1414 1664 1543 1416 1541
8 1420 1294 1423 1547 1545 1421 1548 1666
8 1547 1423 1293 1419 1667 1549 1422 1546
8 1434 1301 1427 1553 1546 1422 1549 1667
8 1423 1297 1424 1549 1548 1425 1550 1668
8 1551 1426 1550 1668 1427 1298 1424 1549
8 1551 1426 1298 1427 1671 1552 1428 1554
8 1562 1432 1554 1674 1434 1301 1427 1553
8 1431 1299 1429 1558 1554 1428 1555 1675
8 1431 1299 1430 1560 1558 1429 1557 1680
8 1560 1430 1300 1432 1683 1559 1433 1563
8 1561 1431 1554 1674 1684 1560 1432 1562
8 1685 1563 1432 1562 1565 1435 1301 1434
8 1435 1302 1436 1566 1563 1433 1564 1686
8 1437 1303 1438 1568 1565 1435 1566 1688
8 1438 1304 1439 1569 1566 1436 1567 1689
8 1440 1306 1441 1571 1568 1438 1569 1691
8 1441 1307 1442 1572 1569 1439 1570 1692
8 1443 1309 1444 1574 1571 1441 1572 1694
8 1310 1444 1572 1442 1445 1575 1695 1573
8 1446 1312 1447 1576 1574 1444 1575 1696
8 1486 1349 1485 1614 1579 1449 1577 1699
8 1451 1317 1449 1579 1581 1450 1578 1701
8 1487 1350 1486 1615 1582 1451 1579 1702
8 1581 1450 1580 1704 1453 1318 1452 1584
8 1582 1451 1581 1705 1454 1319 1453 1585
8 1584 1452 1583 1706 1456 1320 1455 1586
8 1585 1453 1584 1707 1457 1321 1456 1587
8 1587 1456 1586 1708 1458 1323 1459 1588
8 1633 1506 1589 1710 1507 1373 1461 1590
8 1464 1329 1461 1590 1594 1463 1589 1710
8 1468 1336 1462 1591 1595 1464 1590 1711
8 1634 1507 1590 1711 1508 1374 1462 1591
8 1473 1341 1463 1594 1603 1477 1593 1716
8 1469 1337 1464 1595 1599 1473 1594 1717
8 1471 1597 1467 1335 1600 1718 1596 1470
8 1718 1600 1496 1616 1596 1470 1360 1488
8 1336 1468 1597 1471 1472 1598 1719 1601
8 1469 1337 1473 1599 1598 1472 1602 1720
8 1722 1604 1501 1623 1600 1474 1367 1496
8 1475 1601 1471 1339 1604 1722 1600 1474
8 1602 1476 1605 1723 1472 1340 1475 1601
8 1476 1602 1724 1606 1341 1473 1603 1477
8 1483 1347 1478 1609 1612 1482 1608 1731
8 1495 1370 1504 1622 1609 1478 1608 1731
8 1618 1495 1609 1732 1494 1361 1479 1610
8 1484 1348 1479 1610 1613 1483 1609 1732
8 1486 1349 1482 1612 1614 1485 1611 1733
8 1613 1483 1612 1734 1487 1350 1486 1615
8 1489 1363 1496 1616 1617 1499 1623 1736
8 1491 1365 1499 1617 1619 1500 1626 1737
8 1618 1495 1361 1494 1738 1622 1497 1621
8 1739 1625 1498 1620 1619 1500 1366 1492
8 1621 1497 1362 1493 1740 1624 1498 1620
8 1742 1631 1504 1622 1624 1505 1371 1497
8 1743 1628 1502 1626 1623 1501 1368 1499
8 1744 1630 1505 1624 1625 1503 1372 1498
8 1745 1629 1503 1625 1626 1502 1369 1500
8 1520 1398 1528 1644 1633 1506 1632 1751
8 1637 1520 1633 1752 1512 1388 1507 1634
8 1635 1519 1643 1753 1510 1391 1522 1636
8 1657 1535 1643 1753 1534 1406 1519 1635
8 1515 1392 1522 1636 1639 1523 1646 1754
8 1517 1389 1521 1641 1637 1520 1644 1755
8 1524 1638 1756 1648 1393 1514 1639 1523
8 1640 1526 1395 1516 1756 1648 1524 1638
8 1642 1525 1396 1518 1757 1649 1526 1640
8 1758 1645 1521 1641 1642 1525 1396 1518
8 1646 1531 1400 1522 1760 1650 1527 1643
8 1535 1407 1536 1658 1643 1527 1650 1760
8 1521 1399 1529 1645 1644 1528 1651 1761
8 1647 1530 1652 1762 1525 1404 1529 1645
8 1401 1523 1648 1532 1531 1646 1763 1655
8 1525 1404 1533 1649 1647 1530 1654 1765
8 1533 1649 1766 1656 1403 1526 1648 1532
8 1662 1542 1658 1774 1539 1414 1535 1657
8 1542 1415 1543 1664 1658 1536 1659 1775
8 1660 1540 1663 1777 1538 1413 1541 1661
8 1545 1421 1548 1666 1660 1540 1663 1777
8 1662 1542 1414 1539 1778 1664 1541 1661
8 1664 1543 1416 1541 1779 1665 1544 1663
8 1548 1425 1550 1668 1663 1544 1665 1779
8 1547 1423 1549 1667 1666 1548 1668 1781
8 1670 1551 1668 1781 1553 1427 1549 1667
8 1551 1426 1552 1671 1668 1550 1669 1782
8 1670 1551 1427 1553 1784 1671 1554 1674
8 1675 1555 1672 1785 1554 1428 1552 1671
8 1678 1556 1673 1789 1558 1429 1555 1675
8 1561 1431 1558 1681 1674 1554 1675 1790
8 1794 1677 1556 1678 1680 1557 1429 1558
8 1560 1430 1559 1683 1680 1557 1679 1797
8 1561 1431 1560 1684 1681 1558 1680 1798
8 1563 1433 1564 1686 1683 1559 1682 1800
8 1684 1560 1432 1562 1801 1683 1563 1685
8 1565 1435 1566 1688 1685 1563 1686 1802
8 1566 1436 1567 1689 1686 1564 1687 1803
8 1568 1438 1569 1691 1688 1566 1689 1805
8 1569 1439 1570 1692 1689 1567 1690 1806
8 1571 1441 1572 1694 1691 1569 1692 1808
8 1442 1572 1692 1570 1573 1695 1809 1693
8 1574 1444 1575 1696 1694 1572 1695 1810
8 1614 1485 1592 1712 1699 1577 1697 1813
8 1579 1449 1577 1699 1701 1578 1698 1815
8 1615 1486 1614 1735 1702 1579 1699 1816
8 1701 1578 1700 1818 1581 1450 1580 1704
8 1582 1451 1579 1702 1705 1581 1701 1819
8 1704 1580 1703 1820 1584 1452 1583 1706
8 1705 1581 1704 1821 1585 1453 1584 1707
8 1707 1584 1706 1822 1587 1456 1586 1708
8 1710 1589 1506 1633 1824 1709 1632 1751
8 1594 1463 1589 1710 1716 1593 1709 1824
8 1752 1633 1710 1825 1634 1507 1590 1711
8 1595 1464 1590 1711 1717 1594 1710 1825
8 1830 1714 1592 1712 1733 1611 1485 1614
8 1603 1477 1593 1716 1725 1607 1715 1834
8 1599 1473 1594 1717 1721 1603 1716 1835
8 1837 1722 1623 1736 1718 1600 1496 1616
8 1719 1601 1722 1837 1597 1471 1600 1718
8 1602 1720 1598 1472 1723 1838 1719 1601
8 1720 1602 1473 1599 1839 1724 1603 1721
8 1723 1605 1726 1840 1601 1475 1604 1722
8 1840 1726 1628 1743 1722 1604 1501 1623
8 1724 1606 1727 1841 1602 1476 1605 1723
8 1725 1607 1728 1842 1603 1477 1606 1724
8 1612 1482 1608 1731 1733 1611 1730 1849
8 1741 1627 1730 1849 1622 1504 1608 1731
8 1613 1483 1609 1732 1734 1612 1731 1850
8 1618 1495 1622 1738 1732 1609 1731 1850
8 1615 1486 1612 1734 1735 1614 1733 1851
8 1852 1743 1626 1737 1736 1623 1499 1617
8 1853 1745 1625 1739 1737 1626 1500 1619
8 1855 1742 1622 1738 1740 1624 1497 1621
8 1856 1744 1624 1740 1739 1625 1498 1620
8 1741 1627 1504 1622 1857 1746 1631 1742
8 1742 1631 1505 1624 1858 1749 1630 1744
8 1859 1747 1629 1745 1743 1628 1502 1626
8 1860 1748 1630 1744 1745 1629 1503 1625
8 1644 1528 1651 1761 1751 1632 1750 1865
8 1637 1520 1644 1755 1752 1633 1751 1866
8 1754 1646 1522 1636 1867 1760 1643 1753
8 1657 1535 1658 1774 1753 1643 1760 1867
8 1639 1523 1646 1754 1756 1648 1763 1868
8 1641 1521 1645 1758 1755 1644 1761 1869
8 1757 1649 1526 1640 1870 1766 1648 1756
8 1642 1525 1649 1757 1759 1647 1765 1871
8 1759 1647 1762 1872 1642 1525 1645 1758
8 1760 1650 1767 1874 1646 1531 1655 1763
8 1658 1536 1659 1775 1760 1650 1767 1874
8 1762 1652 1768 1875 1645 1529 1651 1761
8 1764 1653 1769 1876 1647 1530 1652 1762
8 1656 1766 1877 1773 1532 1648 1763 1655
8 1771 1879 1765 1654 1653 1764 1647 1530
8 1533 1649 1765 1654 1656 1766 1880 1772
8 1662 1542 1664 1778 1774 1658 1775 1887
8 1664 1543 1665 1779 1775 1659 1776 1888
8 1778 1664 1541 1661 1890 1779 1663 1777
8 1666 1548 1668 1781 1777 1663 1779 1890
8 1782 1669 1780 1891 1668 1550 1665 1779
8 1670 1551 1671 1784 1781 1668 1782 1893
8 1671 1552 1672 1785 1782 1669 1783 1894
8 1790 1675 1785 1896 1674 1554 1671 1784
8 1675 1555 1673 1789 1785 1672 1786 1897
8 1792 1676 1788 1903 1678 1556 1673 1789
8 1795 1678 1789 1904 1681 1558 1675 1790
8 1792 1676 1556 1678 1906 1791 1677 1794
8 1680 1557 1679 1797 1794 1677 1793 1909
8 1910 1794 1678 1795 1798 1680 1558 1681
8 1683 1559 1682 1800 1797 1679 1796 1912
8 1684 1560 1683 1801 1798 1680 1797 1913
8 1686 1564 1687 1803 1800 1682 1799 1915
8 1685 1563 1686 1802 1801 1683 1800 1916
8 1688 1566 1689 1805 1802 1686 1803 1917
8 1689 1567 1690 1806 1803 1687 1804 1918
8 1691 1569 1692 1808 1805 1689 1806 1920
8 1692 1570 1693 1809 1806 1690 1807 1921
8 1694 1572 1695 1810 1808 1692 1809 1922
8 1829 1713 1811 1926 1712 1592 1697 1813
8 1813 1697 1812 1928 1699 1577 1698 1815
8 1735 1614 1712 1828 1816 1699 1813 1929
8 1815 1698 1814 1931 1701 1578 1700 1818
8 1702 1579 1699 1816 1819 1701 1815 1932
8 1818 1700 1817 1933 1704 1580 1703 1820
8 1819 1701 1818 1934 1705 1581 1704 1821
8 1821 1704 1820 1935 1707 1584 1706 1822
8 1824 1709 1632 1751 1937 1823 1750 1865
8 1716 1593 1709 1824 1834 1715 1823 1937
8 1825 1710 1633 1752 1938 1824 1751 1866
8 1717 1594 1710 1825 1835 1716 1824 1938
8 1945 1830 1712 1828 1851 1733 1614 1735
8 1830 1714 1831 1946 1712 1592 1713 1829
8 1947 1832 1714 1830 1849 1730 1611 1733
8 1843 1729 1607 1725 1950 1833 1715 1834
8 1721 1603 1716 1835 1836 1725 1834 1951
8 1836 1725 1842 1953 1721 1603 1724 1839
8 1723 1838 1719 1601 1840 1954 1837 1722
8 1954 1840 1743 1852 1837 1722 1623 1736
8 1724 1839 1720 1602 1841 1955 1838 1723
8 1841 1727 1844 1956 1723 1605 1726 1840
8 1956 1844 1747 1859 1840 1726 1628 1743
8 1728 1842 1724 1606 1845 1957 1841 1727
8 1725 1607 1729 1843 1842 1728 1846 1958
8 1741 1627 1746 1857 1849 1730 1848 1965
8 1734 1612 1731 1850 1851 1733 1849 1966
8 1854 1741 1849 1966 1738 1622 1731 1850
8 1967 1859 1745 1853 1852 1743 1626 1737
8 1968 1860 1744 1856 1853 1745 1625 1739
8 1854 1741 1622 1738 1969 1857 1742 1855
8 1855 1742 1624 1740 1970 1858 1744 1856
8 1857 1746 1631 1742 1971 1861 1749 1858
8 1858 1749 1630 1744 1972 1863 1748 1860
8 1859 1747 1862 1973 1745 1629 1748 1860
8 1875 1768 1864 1977 1761 1651 1750 1865
8 1755 1644 1761 1869 1866 1751 1865 1978
8 1867 1760 1874 1979 1754 1646 1763 1868
8 1774 1658 1775 1887 1867 1760 1874 1979
8 1870 1766 1648 1756 1980 1877 1763 1868
8 1872 1762 1875 1981 1758 1645 1761 1869
8 1757 1649 1766 1870 1871 1765 1880 1982
8 1983 1879 1764 1873 1871 1765 1647 1759
8 1873 1764 1876 1984 1759 1647 1762 1872
8 1877 1773 1655 1763 1986 1881 1767 1874
8 1775 1659 1776 1888 1874 1767 1881 1986
8 1876 1769 1882 1987 1762 1652 1768 1875
8 1878 1770 1883 1988 1764 1653 1769 1876
8 1880 1772 1656 1766 1989 1886 1773 1877
8 1878 1770 1653 1764 1990 1884 1771 1879
8 1765 1654 1772 1880 1879 1771 1885 1991
8 1778 1664 1779 1890 1887 1775 1888 1997
8 1998 1889 1776 1888 1891 1780 1665 1779
8 1893 1782 1891 2000 1781 1668 1779 1890
8 1894 1783 1892 2001 1782 1669 1780 1891
8 1784 1671 1785 1896 1893 1782 1894 2003
8 1897 1786 1895 2004 1785 1672 1783 1894
8 1790 1675 1789 1904 1896 1785 1897 2006
8 1901 1787 1898 2007 1789 1673 1786 1897
8 1903 1788 1900 2013 1789 1673 1787 1901
8 1792 1676 1791 1906 1903 1788 1902 2016
8 1907 1792 1903 2017 1795 1678 1789 1904
8 1906 1791 1677 1794 2019 1905 1793 1909
8 1907 1792 1678 1795 2020 1906 1794 1910
8 1797 1679 1796 1912 1909 1793 1908 2022
8 1798 1680 1797 1913 1910 1794 1909 2023
8 1800 1682 1799 1915 1912 1796 1911 2025
8 1801 1683 1800 1916 1913 1797 1912 2026
8 1803 1687 1804 1918 1915 1799 1914 2028
8 1802 1686 1803 1917 1916 1800 1915 2029
8 1805 1689 1806 1920 1917 1803 1918 2030
8 1806 1690 1807 1921 1918 1804 1919 2031
8 1808 1692 1809 1922 1920 1806 1921 2032
8 1939 1826 1924 2037 1829 1713 1811 1926
8 1926 1811 1925 2039 1813 1697 1812 1928
8 1944 1829 1926 2040 1828 1712 1813 1929
8 1928 1812 1927 2042 1815 1698 1814 1931
8 1929 1813 1928 2043 1816 1699 1815 1932
8 1931 1814 1930 2044 1818 1700 1817 1933
8 1932 1815 1931 2045 1819 1701 1818 1934
8 1934 1818 1933 2046 1821 1704 1820 1935
8 2048 1936 1823 1937 1977 1864 1750 1865
8 1950 1833 1715 1834 2048 1936 1823 1937
8 1938 1824 1751 1866 2049 1937 1865 1978
8 1835 1716 1824 1938 1951 1834 1937 2049
8 1939 1826 1713 1829 2053 1942 1831 1946
8 1940 1827 1923 2035 2053 1942 1826 1939
8 1945 1830 1946 2058 1828 1712 1829 1944
8 2059 1947 1830 1945 1966 1849 1733 1851
8 1947 1832 1730 1849 2060 1948 1848 1965
8 1947 1832 1948 2060 1830 1714 1831 1946
8 1959 1847 1729 1843 2063 1949 1833 1950
8 1952 1843 1725 1836 2064 1950 1834 1951
8 1836 1725 1843 1952 1953 1842 1958 2066
8 1953 1842 1957 2067 1839 1724 1841 1955
8 1841 1955 1838 1723 1956 2068 1954 1840
8 2068 1956 1859 1967 1954 1840 1743 1852
8 1956 1844 1960 2069 1859 1747 1862 1973
8 1845 1957 1841 1727 1960 2069 1956 1844
8 1728 1842 1957 1845 1846 1958 2071 1961
8 1962 2072 1959 1847 1846 1958 1843 1729
8 1971 1861 1964 2077 1857 1746 1848 1965
8 1854 1741 1857 1969 1966 1849 1965 2078
8 1967 1859 1973 2079 1853 1745 1860 1968
8 1970 1858 1744 1856 2080 1972 1860 1968
8 1969 1857 1742 1855 2081 1971 1858 1970
8 1971 1861 1749 1858 2082 1974 1863 1972
8 1973 1862 1975 2083 1860 1748 1863 1972
8 1987 1882 1976 2086 1875 1768 1864 1977
8 1981 1875 1977 2087 1869 1761 1865 1978
8 1980 1877 1763 1868 2088 1986 1874 1979
8 1887 1775 1888 1997 1979 1874 1986 2088
8 1880 1982 2089 1989 1766 1870 1980 1877
8 1984 1876 1987 2090 1872 1762 1875 1981
8 1765 1871 1983 1879 1880 1982 2091 1991
8 1985 1878 1764 1873 2092 1990 1879 1983
8 1985 1878 1988 2093 1873 1764 1876 1984
8 2094 1992 1881 1986 1998 1889 1776 1888
8 1986 1881 1992 2094 1877 1773 1886 1989
8 1988 1883 1993 2095 1876 1769 1882 1987
8 1878 1770 1884 1990 1988 1883 1994 2096
8 1991 1885 1772 1880 2097 1996 1886 1989
8 1879 1771 1885 1991 1990 1884 1995 2098
8 2103 1998 1888 1997 2000 1891 1779 1890
8 2104 1999 1889 1998 2001 1892 1780 1891
8 2003 1894 2001 2106 1893 1782 1891 2000
8 2004 1895 2002 2107 1894 1783 1892 2001
8 2006 1897 2004 2109 1896 1785 1894 2003
8 2007 1898 2005 2110 1897 1786 1895 2004
8 2014 1901 2007 2112 1904 1789 1897 2006
8 2011 1899 2008 2113 1901 1787 1898 2007
8 2119 2010 1899 2011 2013 1900 1787 1901
8 2016 1902 2012 2122 1903 1788 1900 2013
8 2017 1903 2013 2123 1904 1789 1901 2014
8 1906 1791 1905 2019 2016 1902 2015 2125
8 1907 1792 1906 2020 2017 1903 2016 2126
8 1909 1793 1908 2022 2019 1905 2018 2128
8 2020 1906 1794 1910 2129 2019 1909 2023
8 1912 1796 1911 2025 2022 1908 2021 2131
8 1913 1797 1912 2026 2023 1909 2022 2132
8 1915 1799 1914 2028 2025 1911 2024 2134
8 1916 1800 1915 2029 2026 1912 2025 2135
8 1918 1804 1919 2031 2028 1914 2027 2136
8 1917 1803 1918 2030 2029 1915 2028 2137
8 1920 1806 1921 2032 2030 1918 2031 2138
8 1940 1827 1941 2054 2035 1923 2033 2140
8 2035 1923 2034 2143 1939 1826 1924 2037
8 2037 1924 2036 2146 1926 1811 1925 2039
8 2051 1939 2037 2147 1944 1829 1926 2040
8 2039 1925 2038 2149 1928 1812 1927 2042
8 2040 1926 2039 2150 1929 1813 1928 2043
8 2042 1927 2041 2151 1931 1814 1930 2044
8 2043 1928 2042 2152 1932 1815 1931 2045
8 2045 1931 2044 2153 1934 1818 1933 2046
8 2155 2047 1936 2048 2086 1976 1864 1977
8 2063 1949 1833 1950 2155 2047 1936 2048
8 2156 2048 1937 2049 2087 1977 1865 1978
8 2064 1950 1834 1951 2156 2048 1937 2049
8 2051 1939 1829 1944 2160 2053 1946 2058
8 2052 1940 2035 2144 2160 2053 1939 2051
8 2053 1942 1831 1946 2163 2057 1948 2060
8 2055 1943 1827 1940 2163 2057 1942 2053
8 2055 1943 2056 2164 1940 1827 1941 2054
8 2059 1947 1849 1966 2167 2060 1965 2078
8 2059 1947 2060 2167 1945 1830 1946 2058
8 2077 1964 2061 2168 1965 1848 1948 2060
8 2070 1963 1847 1959 2170 2062 1949 2063
8 2065 1959 1843 1952 2171 2063 1950 2064
8 2173 2072 1958 2066 2065 1959 1843 1952
8 1953 1842 1958 2066 2067 1957 2071 2174
8 2068 1956 2069 2175 1967 1859 1973 2079
8 2067 1957 2069 2175 1955 1841 1956 2068
8 1845 1957 2069 1960 1961 2071 2176 2073
8 2069 1960 2073 2176 1973 1862 1975 2083
8 2070 1963 2075 2177 1959 1847 1962 2072
8 1846 1958 2071 1961 1962 2072 2178 2074
8 2077 1964 1861 1971 2182 2076 1974 2082
8 2081 1971 2077 2183 1969 1857 1965 2078
8 2079 1973 2083 2184 1968 1860 1972 2080
8 2081 1971 1858 1970 2185 2082 1972 2080
8 2083 1975 2084 2186 1972 1863 1974 2082
8 2086 1976 1882 1987 2189 2085 1993 2095
8 2090 1987 2086 2190 1981 1875 1977 2087
8 2191 2094 1986 2088 2103 1998 1888 1997
8 2088 1986 2094 2191 1980 1877 1989 2089
8 1991 2091 2192 2097 1880 1982 2089 1989
8 2093 1988 2095 2193 1984 1876 1987 2090
8 1879 1983 2092 1990 1991 2091 2194 2098
8 1985 1878 1990 2092 2093 1988 2096 2195
8 2097 1996 1886 1989 2196 2099 1992 2094
8 2196 2099 1992 2094 2104 1999 1889 1998
8 1994 2096 1988 1883 2100 2197 2095 1993
8 2096 1994 1884 1990 2198 2101 1995 2098
8 1995 2098 2199 2102 1885 1991 2097 1996
8 2203 2104 1998 2103 2106 2001 1891 2000
8 2107 2002 2105 2204 2001 1892 1999 2104
8 2109 2004 2107 2206 2003 1894 2001 2106
8 2110 2005 2108 2207 2004 1895 2002 2107
8 2112 2007 2110 2209 2006 1897 2004 2109
8 2113 2008 2111 2210 2007 1898 2005 2110
8 2120 2011 2113 2212 2014 1901 2007 2112
8 2117 2009 2114 2213 2011 1899 2008 2113
8 2219 2116 2009 2117 2119 2010 1899 2011
8 2222 2118 2010 2119 2122 2012 1900 2013
8 2223 2119 2011 2120 2123 2013 1901 2014
8 2016 1902 2015 2125 2122 2012 2121 2225
8 2126 2016 2122 2226 2017 1903 2013 2123
8 2019 1905 2018 2128 2125 2015 2124 2228
8 2020 1906 2019 2129 2126 2016 2125 2229
8 2022 1908 2021 2131 2128 2018 2127 2231
8 2023 1909 2022 2132 2129 2019 2128 2232
8 2025 1911 2024 2134 2131 2021 2130 2234
8 2026 1912 2025 2135 2132 2022 2131 2235
8 1914 2028 2134 2024 2027 2136 2236 2133
8 2029 1915 2028 2137 2135 2025 2134 2237
8 2030 1918 2031 2138 2137 2028 2136 2238
8 2157 2050 2139 2240 2054 1941 2033 2140
8 2052 1940 2054 2161 2144 2035 2140 2242
8 2140 2033 2141 2243 2035 1923 2034 2143
8 2143 2034 2142 2246 2037 1924 2036 2146
8 2144 2035 2143 2247 2051 1939 2037 2147
8 2146 2036 2145 2249 2039 1925 2038 2149
8 2147 2037 2146 2250 2040 1926 2039 2150
8 2149 2038 2148 2251 2042 1927 2041 2151
8 2150 2039 2149 2252 2043 1928 2042 2152
8 2152 2042 2151 2253 2045 1931 2044 2153
8 2255 2154 2047 2155 2189 2085 1976 2086
8 2170 2062 1949 2063 2255 2154 2047 2155
8 2256 2155 2048 2156 2190 2086 1977 2087
8 2171 2063 1950 2064 2256 2155 2048 2156
8 2258 2159 2050 2157 2164 2056 1941 2054
8 2160 2053 1946 2058 2262 2163 2060 2167
8 2162 2055 1940 2052 2262 2163 2053 2160
8 2162 2055 2164 2263 2052 1940 2054 2161
8 2163 2057 1948 2060 2264 2165 2061 2168
8 2055 1943 2057 2163 2164 2056 2165 2264
8 2182 2076 2166 2268 2077 1964 2061 2168
8 2183 2077 2168 2269 2078 1965 2060 2167
8 2070 1963 2062 2170 2177 2075 2169 2271
8 2172 2070 1959 2065 2272 2170 2063 2171
8 2172 2070 2177 2273 2065 1959 2072 2173
8 2066 1958 2072 2173 2174 2071 2178 2274
8 2067 1957 2071 2174 2175 2069 2176 2275
8 2175 2069 2176 2275 2079 1973 2083 2184
8 2071 1961 2074 2178 2176 2073 2179 2276
8 2176 2073 2179 2276 2083 1975 2084 2186
8 2072 1962 2075 2177 2178 2074 2180 2277
8 2182 2076 1974 2082 2280 2181 2084 2186
8 2183 2077 1971 2081 2281 2182 2082 2185
8 2184 2083 2186 2282 2080 1972 2082 2185
8 2189 2085 1993 2095 2285 2188 2100 2197
8 2190 2086 1987 2090 2286 2189 2095 2193
8 2192 2097 1989 2089 2287 2196 2094 2191
8 2287 2196 2094 2191 2203 2104 1998 2103
8 2194 2098 1991 2091 2288 2199 2097 2192
8 2195 2096 2197 2289 2093 1988 2095 2193
8 2096 2195 2290 2198 1990 2092 2194 2098
8 2097 1996 2099 2196 2199 2102 2200 2291
8 2196 2099 1999 2104 2291 2200 2105 2204
8 2100 2197 2292 2201 1994 2096 2198 2101
8 1995 2098 2198 2101 2102 2199 2293 2202
8 2206 2107 2204 2296 2106 2001 2104 2203
8 2207 2108 2205 2297 2107 2002 2105 2204
8 2209 2110 2207 2299 2109 2004 2107 2206
8 2210 2111 2208 2300 2110 2005 2108 2207
8 2212 2113 2210 2302 2112 2007 2110 2209
8 2213 2114 2211 2303 2113 2008 2111 2210
8 2220 2117 2213 2305 2120 2011 2113 2212
8 2216 2115 2214 2306 2117 2009 2114 2213
8 2216 2115 2009 2117 2311 2217 2116 2219
8 2219 2116 2010 2119 2314 2218 2118 2222
8 2315 2219 2117 2220 2223 2119 2011 2120
8 2122 2012 2121 2225 2222 2118 2221 2317
8 2318 2222 2119 2223 2226 2122 2013 2123
8 2125 2015 2124 2228 2225 2121 2224 2320
8 2126 2016 2125 2229 2226 2122 2225 2321
8 2128 2018 2127 2231 2228 2124 2227 2323
8 2129 2019 2128 2232 2229 2125 2228 2324
8 2131 2021 2130 2234 2231 2127 2230 2326
8 2132 2022 2131 2235 2232 2128 2231 2327
8 2134 2024 2133 2236 2234 2130 2233 2328
8 2135 2025 2134 2237 2235 2131 2234 2329
8 2137 2028 2136 2238 2237 2134 2236 2330
8 2157 2050 2158 2259 2240 2139 2239 2332
8 2257 2157 2240 2334 2161 2054 2140 2242
8 2240 2139 2241 2335 2140 2033 2141 2243
8 2242 2140 2243 2337 2144 2035 2143 2247
8 2243 2141 2244 2338 2143 2034 2142 2246
8 2246 2142 2245 2341 2146 2036 2145 2249
8 2247 2143 2246 2342 2147 2037 2146 2250
8 2249 2145 2248 2343 2149 2038 2148 2251
8 2250 2146 2249 2344 2150 2039 2149 2252
8 2252 2149 2251 2345 2152 2042 2151 2253
8 2169 2271 2347 2254 2062 2170 2255 2154
8 2189 2085 2188 2285 2255 2154 2254 2347
8 2348 2255 2155 2256 2286 2189 2086 2190
8 2272 2170 2063 2171 2348 2255 2155 2256
8 2349 2258 2157 2257 2263 2164 2054 2161
8 2258 2159 2261 2351 2157 2050 2158 2259
8 2258 2159 2056 2164 2351 2261 2165 2264
8 2262 2163 2060 2167 2355 2264 2168 2269
8 2162 2055 2163 2262 2263 2164 2264 2355
8 2357 2266 2165 2264 2268 2166 2061 2168
8 2268 2166 2076 2182 2361 2267 2181 2280
8 2281 2182 2268 2362 2183 2077 2168 2269
8 2271 2169 2270 2364 2177 2075 2180 2277
8 2172 2070 2170 2272 2273 2177 2271 2365
8 2072 2173 2274 2178 2177 2273 2366 2277
8 2071 2174 2275 2176 2178 2274 2367 2276
8 2275 2176 2276 2367 2184 2083 2186 2282
8 2283 2187 2084 2186 2368 2278 2179 2276
8 2178 2074 2180 2277 2276 2179 2278 2368
8 2283 2187 2279 2370 2186 2084 2181 2280
8 2281 2182 2082 2185 2371 2280 2186 2282
8 2188 2285 2374 2284 2100 2197 2292 2201
8 2286 2189 2095 2193 2375 2285 2197 2289
8 2192 2097 2196 2287 2288 2199 2291 2376
8 2287 2196 2104 2203 2376 2291 2204 2296
8 2194 2098 2199 2288 2290 2198 2293 2377
8 2289 2197 2096 2195 2378 2292 2198 2290
8 2291 2200 2105 2204 2379 2294 2205 2297
8 2199 2102 2200 2291 2293 2202 2294 2379
8 2198 2101 2202 2293 2292 2201 2295 2380
8 2299 2207 2297 2383 2206 2107 2204 2296
8 2300 2208 2298 2384 2207 2108 2205 2297
8 2302 2210 2300 2386 2209 2110 2207 2299
8 2303 2211 2301 2387 2210 2111 2208 2300
8 2305 2213 2303 2389 2212 2113 2210 2302
8 2306 2214 2304 2390 2213 2114 2211 2303
8 2310 2216 2306 2392 2220 2117 2213 2305
8 2308 2215 2307 2393 2216 2115 2214 2306
8 2308 2215 2115 2216 2396 2309 2217 2311
8 2310 2216 2117 2220 2398 2311 2219 2315
8 2311 2217 2116 2219 2399 2312 2218 2314
8 2314 2218 2118 2222 2402 2313 2221 2317
8 2315 2219 2119 2223 2403 2314 2222 2318
8 2225 2121 2224 2320 2317 2221 2316 2405
8 2226 2122 2225 2321 2318 2222 2317 2406
8 2228 2124 2227 2323 2320 2224 2319 2408
8 2229 2125 2228 2324 2321 2225 2320 2409
8 2231 2127 2230 2326 2323 2227 2322 2411
8 2232 2128 2231 2327 2324 2228 2323 2412
8 2234 2130 2233 2328 2326 2230 2325 2413
8 2235 2131 2234 2329 2327 2231 2326 2414
8 2237 2134 2236 2330 2329 2234 2328 2415
8 2259 2158 2260 2352 2332 2239 2331 2417
8 2257 2157 2259 2350 2334 2240 2332 2419
8 2240 2139 2239 2332 2335 2241 2333 2420
8 2334 2240 2335 2422 2242 2140 2243 2337
8 2335 2241 2336 2423 2243 2141 2244 2338
8 2337 2243 2338 2425 2247 2143 2246 2342
8 2338 2244 2339 2426 2246 2142 2245 2341
8 2341 2245 2340 2428 2249 2145 2248 2343
8 2342 2246 2341 2429 2250 2146 2249 2344
8 2344 2249 2343 2430 2252 2149 2251 2345
8 2188 2285 2347 2254 2284 2374 2432 2346
8 2347 2254 2346 2432 2271 2169 2270 2364
8 2365 2271 2170 2272 2433 2347 2255 2348
8 2286 2189 2285 2375 2348 2255 2347 2433
8 2349 2258 2351 2435 2257 2157 2259 2350
8 2349 2258 2164 2263 2435 2351 2264 2355
8 2259 2158 2261 2351 2352 2260 2354 2437
8 2356 2265 2354 2437 2264 2165 2261 2351
8 2441 2357 2264 2355 2362 2268 2168 2269
8 2356 2265 2165 2264 2442 2358 2266 2357
8 2443 2359 2266 2357 2361 2267 2166 2268
8 2370 2279 2360 2446 2280 2181 2267 2361
8 2362 2268 2182 2281 2447 2361 2280 2371
8 2180 2277 2368 2278 2270 2364 2449 2363
8 2271 2365 2273 2177 2364 2450 2366 2277
8 2372 2283 2186 2282 2451 2368 2276 2367
8 2178 2274 2367 2276 2277 2366 2451 2368
8 2283 2187 2278 2368 2370 2279 2369 2452
8 2372 2283 2370 2453 2282 2186 2280 2371
8 2284 2374 2455 2373 2201 2292 2380 2295
8 2375 2285 2197 2289 2456 2374 2292 2378
8 2376 2291 2204 2296 2457 2379 2297 2383
8 2288 2199 2291 2376 2377 2293 2379 2457
8 2198 2290 2378 2292 2293 2377 2458 2380
8 2293 2202 2294 2379 2380 2295 2381 2459
8 2384 2298 2381 2459 2297 2205 2294 2379
8 2386 2300 2384 2463 2299 2207 2297 2383
8 2387 2301 2385 2464 2300 2208 2298 2384
8 2389 2303 2387 2466 2302 2210 2300 2386
8 2390 2304 2388 2467 2303 2211 2301 2387
8 2392 2306 2390 2469 2305 2213 2303 2389
8 2393 2307 2391 2470 2306 2214 2304 2390
8 2395 2308 2393 2472 2310 2216 2306 2392
8 2308 2215 2309 2396 2393 2307 2394 2473
8 2395 2308 2216 2310 2475 2396 2311 2398
8 2396 2309 2217 2311 2476 2397 2312 2399
8 2398 2311 2219 2315 2478 2399 2314 2403
8 2399 2312 2218 2314 2479 2400 2313 2402
8 2317 2221 2316 2405 2402 2313 2401 2482
8 2403 2314 2222 2318 2483 2402 2317 2406
8 2320 2224 2319 2408 2405 2316 2404 2485
8 2321 2225 2320 2409 2406 2317 2405 2486
8 2323 2227 2322 2411 2408 2319 2407 2488
8 2324 2228 2323 2412 2409 2320 2408 2489
8 2326 2230 2325 2413 2411 2322 2410 2490
8 2327 2231 2326 2414 2412 2323 2411 2491
8 2329 2234 2328 2415 2414 2326 2413 2492
8 2417 2331 2260 2352 2494 2416 2353 2438
8 2350 2259 2352 2436 2419 2332 2417 2496
8 2332 2239 2331 2417 2420 2333 2418 2497
8 2334 2240 2332 2419 2422 2335 2420 2499
8 2420 2333 2421 2500 2335 2241 2336 2423
8 2422 2335 2423 2502 2337 2243 2338 2425
8 2423 2336 2424 2503 2338 2244 2339 2426
8 2425 2338 2426 2505 2342 2246 2341 2429
8 2426 2339 2427 2506 2341 2245 2340 2428
8 2429 2341 2428 2507 2344 2249 2343 2430
8 2432 2346 2284 2374 2509 2431 2373 2455
8 2432 2346 2431 2509 2364 2270 2363 2449
8 2375 2285 2374 2456 2433 2347 2432 2510
8 2347 2433 2365 2271 2432 2510 2450 2364
8 2350 2259 2351 2435 2436 2352 2437 2514
8 2440 2356 2437 2514 2355 2264 2351 2435
8 2352 2260 2354 2437 2438 2353 2439 2516
8 2356 2265 2358 2442 2437 2354 2439 2516
8 2440 2356 2264 2355 2518 2442 2357 2441
8 2519 2443 2357 2441 2447 2361 2268 2362
8 2443 2359 2444 2520 2357 2266 2358 2442
8 2443 2359 2267 2361 2520 2444 2360 2446
8 2446 2360 2279 2370 2523 2445 2369 2452
8 2453 2370 2446 2524 2371 2280 2361 2447
8 2449 2363 2448 2525 2368 2278 2369 2452
8 2366 2277 2364 2450 2451 2368 2449 2526
8 2372 2283 2368 2451 2453 2370 2452 2527
8 2455 2373 2295 2380 2529 2454 2382 2460
8 2456 2374 2292 2378 2530 2455 2380 2458
8 2377 2293 2379 2457 2458 2380 2459 2531
8 2463 2384 2459 2531 2383 2297 2379 2457
8 2533 2461 2382 2460 2459 2381 2295 2380
8 2464 2385 2461 2533 2384 2298 2381 2459
8 2466 2387 2464 2537 2386 2300 2384 2463
8 2467 2388 2465 2538 2387 2301 2385 2464
8 2469 2390 2467 2540 2389 2303 2387 2466
8 2470 2391 2468 2541 2390 2304 2388 2467
8 2472 2393 2470 2543 2392 2306 2390 2469
8 2393 2307 2394 2473 2470 2391 2471 2544
8 2395 2308 2396 2475 2472 2393 2473 2546
8 2396 2309 2397 2476 2473 2394 2474 2547
8 2475 2396 2311 2398 2549 2476 2399 2478
8 2476 2397 2312 2399 2550 2477 2400 2479
8 2478 2399 2314 2403 2552 2479 2402 2483
8 2479 2400 2313 2402 2553 2480 2401 2482
8 2405 2316 2404 2485 2482 2401 2481 2556
8 2406 2317 2405 2486 2483 2402 2482 2557
8 2408 2319 2407 2488 2485 2404 2484 2559
8 2409 2320 2408 2489 2486 2405 2485 2560
8 2411 2322 2410 2490 2488 2407 2487 2561
8 2412 2323 2411 2491 2489 2408 2488 2562
8 2414 2326 2413 2492 2491 2411 2490 2563
8 2513 2434 2493 2565 2438 2353 2416 2494
8 2496 2417 2352 2436 2567 2494 2438 2515
8 2494 2416 2495 2568 2417 2331 2418 2497
8 2419 2332 2417 2496 2499 2420 2497 2570
8 2497 2418 2498 2571 2420 2333 2421 2500
8 2499 2420 2500 2573 2422 2335 2423 2502
8 2500 2421 2501 2574 2423 2336 2424 2503
8 2502 2423 2503 2576 2425 2338 2426 2505
8 2503 2424 2504 2577 2426 2339 2427 2506
8 2505 2426 2506 2578 2429 2341 2428 2507
8 2509 2431 2373 2455 2580 2508 2454 2529
8 2509 2431 2508 2580 2449 2363 2448 2525
8 2432 2510 2581 2509 2374 2456 2530 2455
8 2432 2510 2450 2364 2509 2581 2526 2449
8 2583 2511 2434 2513 2516 2439 2353 2438
8 2436 2352 2437 2514 2515 2438 2516 2588
8 2440 2356 2442 2518 2514 2437 2516 2588
8 2442 2358 2444 2520 2516 2439 2517 2589
8 2519 2443 2520 2591 2441 2357 2442 2518
8 2519 2443 2361 2447 2591 2520 2446 2524
8 2446 2360 2445 2523 2520 2444 2521 2592
8 2525 2448 2522 2593 2452 2369 2445 2523
8 2524 2446 2370 2453 2594 2523 2452 2527
8 2526 2449 2525 2595 2451 2368 2452 2527
8 2534 2462 2528 2597 2460 2382 2454 2529
8 2530 2455 2380 2458 2598 2529 2460 2532
8 2599 2533 2460 2532 2531 2459 2380 2458
8 2537 2464 2533 2599 2463 2384 2459 2531
8 2534 2462 2382 2460 2601 2535 2461 2533
8 2538 2465 2535 2601 2464 2385 2461 2533
8 2540 2467 2538 2604 2466 2387 2464 2537
8 2541 2468 2539 2605 2467 2388 2465 2538
8 2543 2470 2541 2607 2469 2390 2467 2540
8 2470 2391 2471 2544 2541 2468 2542 2608
8 2472 2393 2473 2546 2543 2470 2544 2610
8 2473 2394 2474 2547 2544 2471 2545 2611
8 2475 2396 2476 2549 2546 2473 2547 2613
8 2476 2397 2477 2550 2547 2474 2548 2614
8 2549 2476 2399 2478 2616 2550 2479 2552
8 2479 2400 2480 2553 2550 2477 2551 2617
8 2552 2479 2402 2483 2619 2553 2482 2557
8 2482 2401 2481 2556 2553 2480 2554 2620
8 2485 2404 2484 2559 2556 2481 2555 2623
8 2486 2405 2485 2560 2557 2482 2556 2624
8 2488 2407 2487 2561 2559 2484 2558 2625
8 2489 2408 2488 2562 2560 2485 2559 2626
8 2491 2411 2490 2563 2562 2488 2561 2627
8 2513 2434 2512 2585 2565 2493 2564 2630
8 2586 2513 2565 2632 2515 2438 2494 2567
8 2565 2493 2566 2633 2494 2416 2495 2568
8 2567 2494 2568 2635 2496 2417 2497 2570
8 2568 2495 2569 2636 2497 2418 2498 2571
8 2570 2497 2571 2638 2499 2420 2500 2573
8 2571 2498 2572 2639 2500 2421 2501 2574
8 2573 2500 2574 2641 2502 2423 2503 2576
8 2574 2501 2575 2642 2503 2424 2504 2577
8 2576 2503 2577 2643 2505 2426 2506 2578
8 2597 2528 2579 2645 2529 2454 2508 2580
8 2580 2508 2579 2645 2525 2448 2522 2593
8 2581 2509 2455 2530 2646 2580 2529 2598
8 2581 2509 2580 2646 2526 2449 2525 2595
8 2583 2511 2582 2648 2513 2434 2512 2585
8 2583 2511 2439 2516 2648 2582 2517 2589
8 2649 2583 2513 2586 2588 2516 2438 2515
8 2589 2517 2444 2520 2653 2587 2521 2592
8 2518 2442 2520 2591 2588 2516 2589 2654
8 2593 2522 2590 2655 2523 2445 2521 2592
8 2524 2446 2523 2594 2591 2520 2592 2656
8 2595 2525 2593 2657 2527 2452 2523 2594
8 2602 2536 2596 2659 2534 2462 2528 2597
8 2600 2534 2597 2660 2532 2460 2529 2598
8 2600 2534 2460 2532 2661 2601 2533 2599
8 2604 2538 2601 2661 2537 2464 2533 2599
8 2602 2536 2462 2534 2663 2603 2535 2601
8 2601 2535 2465 2538 2663 2603 2539 2605
8 2607 2541 2605 2665 2540 2467 2538 2604
8 2608 2542 2606 2666 2541 2468 2539 2605
8 2543 2470 2544 2610 2607 2541 2608 2668
8 2544 2471 2545 2611 2608 2542 2609 2669
8 2546 2473 2547 2613 2610 2544 2611 2671
8 2547 2474 2548 2614 2611 2545 2612 2672
8 2549 2476 2550 2616 2613 2547 2614 2674
8 2550 2477 2551 2617 2614 2548 2615 2675
8 2552 2479 2553 2619 2616 2550 2617 2677
8 2553 2480 2554 2620 2617 2551 2618 2678
8 2557 2482 2556 2624 2619 2553 2620 2680
8 2556 2481 2555 2623 2620 2554 2621 2681
8 2559 2484 2558 2625 2623 2555 2622 2683
8 2560 2485 2559 2626 2624 2556 2623 2684
8 2562 2488 2561 2627 2626 2559 2625 2685
8 2690 2629 2564 2630 2650 2584 2512 2585
8 2586 2513 2585 2651 2632 2565 2630 2691
8 2630 2564 2631 2692 2565 2493 2566 2633
8 2632 2565 2633 2694 2567 2494 2568 2635
8 2633 2566 2634 2695 2568 2495 2569 2636
8 2635 2568 2636 2697 2570 2497 2571 2638
8 2636 2569 2637 2698 2571 2498 2572 2639
8 2638 2571 2639 2700 2573 2500 2574 2641
8 2639 2572 2640 2701 2574 2501 2575 2642
8 2641 2574 2642 2702 2576 2503 2577 2643
8 2597 2528 2596 2659 2645 2579 2644 2704
8 2645 2579 2644 2704 2593 2522 2590 2655
8 2660 2597 2645 2705 2598 2529 2580 2646
8 2646 2580 2645 2705 2595 2525 2593 2657
8 2650 2584 2512 2585 2707 2647 2582 2648
8 2648 2582 2517 2589 2707 2647 2587 2653
8 2649 2583 2648 2708 2586 2513 2585 2651
8 2649 2583 2516 2588 2708 2648 2589 2654
8 2655 2590 2652 2710 2592 2521 2587 2653
8 2654 2589 2520 2591 2711 2653 2592 2656
8 2657 2593 2655 2712 2594 2523 2592 2656
8 2602 2536 2603 2663 2659 2596 2658 2714
8 2662 2602 2659 2715 2600 2534 2597 2660
8 2662 2602 2534 2600 2717 2663 2601 2661
8 2661 2601 2538 2604 2717 2663 2605 2665
8 2666 2606 2664 2718 2605 2539 2603 2663
8 2668 2608 2666 2720 2607 2541 2605 2665
8 2608 2542 2609 2669 2666 2606 2667 2721
8 2610 2544 2611 2671 2668 2608 2669 2723
8 2611 2545 2612 2672 2669 2609 2670 2724
8 2613 2547 2614 2674 2671 2611 2672 2726
8 2614 2548 2615 2675 2672 2612 2673 2727
8 2616 2550 2617 2677 2674 2614 2675 2729
8 2617 2551 2618 2678 2675 2615 2676 2730
8 2619 2553 2620 2680 2677 2617 2678 2732
8 2620 2554 2621 2681 2678 2618 2679 2733
8 2624 2556 2623 2684 2680 2620 2681 2735
8 2681 2621 2555 2623 2736 2682 2622 2683
8 2626 2559 2625 2685 2684 2623 2683 2737
8 2688 2628 2584 2650 2740 2686 2647 2707
8 2688 2628 2687 2742 2650 2584 2629 2690
8 2690 2629 2689 2745 2630 2564 2631 2692
8 2746 2690 2630 2691 2709 2650 2585 2651
8 2691 2630 2692 2747 2632 2565 2633 2694
8 2692 2631 2693 2748 2633 2566 2634 2695
8 2694 2633 2695 2750 2635 2568 2636 2697
8 2695 2634 2696 2751 2636 2569 2637 2698
8 2697 2636 2698 2753 2638 2571 2639 2700
8 2698 2637 2699 2754 2639 2572 2640 2701
8 2700 2639 2701 2755 2641 2574 2642 2702
8 2659 2596 2658 2714 2704 2644 2703 2757
8 2704 2644 2703 2757 2655 2590 2652 2710
8 2660 2597 2659 2715 2705 2645 2704 2758
8 2705 2645 2704 2758 2657 2593 2655 2712
8 2759 2706 2647 2707 2710 2652 2587 2653
8 2709 2650 2585 2651 2760 2707 2648 2708
8 2708 2648 2589 2654 2760 2707 2653 2711
8 2712 2655 2710 2761 2656 2592 2653 2711
8 2763 2713 2658 2714 2718 2664 2603 2663
8 2662 2602 2663 2717 2715 2659 2714 2764
8 2720 2666 2718 2767 2665 2605 2663 2717
8 2768 2719 2664 2718 2721 2667 2606 2666
8 2668 2608 2669 2723 2720 2666 2721 2770
8 2669 2609 2670 2724 2721 2667 2722 2771
8 2671 2611 2672 2726 2723 2669 2724 2773
8 2672 2612 2673 2727 2724 2670 2725 2774
8 2674 2614 2675 2729 2726 2672 2727 2776
8 2675 2615 2676 2730 2727 2673 2728 2777
8 2677 2617 2678 2732 2729 2675 2730 2779
8 2678 2618 2679 2733 2730 2676 2731 2780
8 2680 2620 2681 2735 2732 2678 2733 2782
8 2733 2679 2621 2681 2783 2734 2682 2736
8 2735 2681 2623 2684 2784 2736 2683 2737
8 2740 2686 2647 2707 2787 2738 2706 2759
8 2688 2628 2686 2740 2742 2687 2739 2789
8 2743 2688 2650 2709 2790 2740 2707 2760
8 2742 2687 2741 2792 2690 2629 2689 2745
8 2743 2688 2742 2793 2709 2650 2690 2746
8 2745 2689 2744 2795 2692 2631 2693 2748
8 2746 2690 2745 2796 2691 2630 2692 2747
8 2747 2692 2748 2797 2694 2633 2695 2750
8 2748 2693 2749 2798 2695 2634 2696 2751
8 2750 2695 2751 2800 2697 2636 2698 2753
8 2751 2696 2752 2801 2698 2637 2699 2754
8 2753 2698 2754 2802 2700 2639 2701 2755
8 2763 2713 2756 2804 2714 2658 2703 2757
8 2759 2706 2652 2710 2804 2756 2703 2757
8 2715 2659 2714 2764 2758 2704 2757 2805
8 2758 2704 2757 2805 2712 2655 2710 2761
8 2806 2759 2707 2760 2761 2710 2653 2711
8 2765 2716 2762 2808 2718 2664 2713 2763
8 2809 2763 2714 2764 2767 2718 2663 2717
8 2765 2716 2664 2718 2811 2766 2719 2768
8 2813 2768 2718 2767 2770 2721 2666 2720
8 2814 2769 2719 2768 2771 2722 2667 2721
8 2723 2669 2724 2773 2770 2721 2771 2816
8 2724 2670 2725 2774 2771 2722 2772 2817
8 2726 2672 2727 2776 2773 2724 2774 2819
8 2727 2673 2728 2777 2774 2725 2775 2820
8 2729 2675 2730 2779 2776 2727 2777 2822
8 2730 2676 2731 2780 2777 2728 2778 2823
8 2732 2678 2733 2782 2779 2730 2780 2825
8 2780 2731 2679 2733 2826 2781 2734 2783
8 2782 2733 2681 2735 2827 2783 2736 2784
8 2830 2785 2738 2787 2804 2756 2706 2759
8 2789 2739 2686 2740 2832 2786 2738 2787
8 2790 2740 2707 2760 2833 2787 2759 2806
8 2742 2687 2739 2789 2792 2741 2788 2835
8 2743 2688 2740 2790 2793 2742 2789 2836
8 2792 2741 2791 2838 2745 2689 2744 2795
8 2793 2742 2792 2839 2746 2690 2745 2796
8 2795 2744 2794 2841 2748 2693 2749 2798
8 2796 2745 2795 2842 2747 2692 2748 2797
8 2797 2748 2798 2843 2750 2695 2751 2800
8 2798 2749 2799 2844 2751 2696 2752 2801
8 2800 2751 2801 2845 2753 2698 2754 2802
8 2808 2762 2803 2847 2763 2713 2756 2804
8 2809 2763 2804 2848 2764 2714 2757 2805
8 2806 2759 2710 2761 2848 2804 2757 2805
8 2765 2716 2766 2811 2808 2762 2807 2850
8 2810 2765 2808 2851 2767 2718 2763 2809
8 2810 2765 2718 2767 2852 2811 2768 2813
8 2811 2766 2719 2768 2853 2812 2769 2814
8 2855 2814 2768 2813 2816 2771 2721 2770
8 2856 2815 2769 2814 2817 2772 2722 2771
8 2773 2724 2774 2819 2816 2771 2817 2858
8 2774 2725 2775 2820 2817 2772 2818 2859
8 2776 2727 2777 2822 2819 2774 2820 2861
8 2777 2728 2778 2823 2820 2775 2821 2862
8 2779 2730 2780 2825 2822 2777 2823 2864
8 2823 2778 2731 2780 2865 2824 2781 2826
8 2825 2780 2733 2782 2866 2826 2783 2827
8 2869 2828 2785 2830 2847 2803 2756 2804
8 2871 2829 2786 2832 2830 2785 2738 2787
8 2872 2830 2787 2833 2848 2804 2759 2806
8 2789 2739 2786 2832 2835 2788 2831 2874
8 2836 2789 2740 2790 2875 2832 2787 2833
8 2792 2741 2788 2835 2838 2791 2834 2877
8 2793 2742 2789 2836 2839 2792 2835 2878
8 2838 2791 2837 2880 2795 2744 2794 2841
8 2839 2792 2838 2881 2796 2745 2795 2842
8 2841 2794 2840 2882 2798 2749 2799 2844
8 2842 2795 2841 2883 2797 2748 2798 2843
8 2843 2798 2844 2884 2800 2751 2801 2845
8 2886 2846 2803 2847 2850 2807 2762 2808
8 2851 2808 2847 2887 2809 2763 2804 2848
8 2850 2807 2766 2811 2889 2849 2812 2853
8 2810 2765 2811 2852 2851 2808 2850 2890
8 2852 2811 2768 2813 2891 2853 2814 2855
8 2853 2812 2769 2814 2892 2854 2815 2856
8 2894 2856 2814 2855 2858 2817 2771 2816
8 2817 2772 2818 2859 2856 2815 2857 2895
8 2819 2774 2820 2861 2858 2817 2859 2897
8 2820 2775 2821 2862 2859 2818 2860 2898
8 2822 2777 2823 2864 2861 2820 2862 2900
8 2823 2778 2824 2865 2862 2821 2863 2901
8 2864 2823 2780 2825 2902 2865 2826 2866
8 2904 2867 2828 2869 2886 2846 2803 2847
8 2869 2828 2868 2906 2830 2785 2829 2871
8 2907 2869 2830 2872 2887 2847 2804 2848
8 2871 2829 2870 2909 2832 2786 2831 2874
8 2910 2871 2832 2875 2872 2830 2787 2833
8 2835 2788 2831 2874 2877 2834 2873 2912
8 2836 2789 2832 2875 2878 2835 2874 2913
8 2877 2834 2876 2915 2838 2791 2837 2880
8 2839 2792 2835 2878 2881 2838 2877 2916
8 2880 2837 2879 2917 2841 2794 2840 2882
8 2881 2838 2880 2918 2842 2795 2841 2883
8 2883 2841 2882 2919 2843 2798 2844 2884
8 2921 2885 2846 2886 2889 2849 2807 2850
8 2922 2886 2847 2887 2890 2850 2808 2851
8 2889 2849 2812 2853 2924 2888 2854 2892
8 2890 2850 2811 2852 2925 2889 2853 2891
8 2891 2853 2814 2855 2926 2892 2856 2894
8 2892 2854 2815 2856 2927 2893 2857 2895
8 2858 2817 2859 2897 2894 2856 2895 2929
8 2859 2818 2860 2898 2895 2857 2896 2930
8 2861 2820 2862 2900 2897 2859 2898 2932
8 2862 2821 2863 2901 2898 2860 2899 2933
8 2864 2823 2865 2902 2900 2862 2901 2934
8 2904 2867 2846 2886 2936 2903 2885 2921
8 2904 2867 2903 2936 2869 2828 2868 2906
8 2937 2904 2869 2907 2922 2886 2847 2887
8 2906 2868 2905 2939 2871 2829 2870 2909
8 2907 2869 2906 2940 2872 2830 2871 2910
8 2909 2870 2908 2942 2874 2831 2873 2912
8 2910 2871 2909 2943 2875 2832 2874 2913
8 2912 2873 2911 2945 2877 2834 2876 2915
8 2878 2835 2874 2913 2916 2877 2912 2946
8 2915 2876 2914 2947 2880 2837 2879 2917
8 2916 2877 2915 2948 2881 2838 2880 2918
8 2918 2880 2917 2949 2883 2841 2882 2919
8 2921 2885 2849 2889 2951 2920 2888 2924
8 2952 2921 2886 2922 2925 2889 2850 2890
8 2924 2888 2854 2892 2954 2923 2893 2927
8 2925 2889 2853 2891 2955 2924 2892 2926
8 2926 2892 2856 2894 2956 2927 2895 2929
8 2895 2857 2896 2930 2927 2893 2928 2957
8 2897 2859 2898 2932 2929 2895 2930 2959
8 2898 2860 2899 2933 2930 2896 2931 2960
8 2900 2862 2901 2934 2932 2898 2933 2961
8 2936 2903 2885 2921 2963 2935 2920 2951
8 2936 2903 2935 2963 2906 2868 2905 2939
8 2937 2904 2886 2922 2964 2936 2921 2952
8 2937 2904 2936 2964 2907 2869 2906 2940
8 2939 2905 2938 2966 2909 2870 2908 2942
8 2940 2906 2939 2967 2910 2871 2909 2943
8 2942 2908 2941 2969 2912 2873 2911 2945
8 2943 2909 2942 2970 2913 2874 2912 2946
8 2945 2911 2944 2971 2915 2876 2914 2947
8 2946 2912 2945 2972 2916 2877 2915 2948
8 2948 2915 2947 2973 2918 2880 2917 2949
8 2951 2920 2888 2924 2975 2950 2923 2954
8 2952 2921 2889 2925 2976 2951 2924 2955
8 2927 2893 2928 2957 2954 2923 2953 2978
8 2955 2924 2892 2926 2979 2954 2927 2956
8 2929 2895 2930 2959 2956 2927 2957 2980
8 2930 2896 2931 2960 2957 2928 2958 2981
8 2932 2898 2933 2961 2959 2930 2960 2982
8 2951 2920 2950 2975 2963 2935 2962 2984
8 2963 2935 2962 2984 2939 2905 2938 2966
8 2964 2936 2921 2952 2985 2963 2951 2976
8 2964 2936 2963 2985 2940 2906 2939 2967
8 2966 2938 2965 2987 2942 2908 2941 2969
8 2967 2939 2966 2988 2943 2909 2942 2970
8 2969 2941 2968 2989 2945 2911 2944 2971
8 2970 2942 2969 2990 2946 2912 2945 2972
8 2972 2945 2971 2991 2948 2915 2947 2973
8 2954 2923 2953 2978 2975 2950 2974 2993
8 2976 2951 2924 2955 2994 2975 2954 2979
8 2957 2928 2958 2981 2978 2953 2977 2995
8 2956 2927 2957 2980 2979 2954 2978 2996
8 2959 2930 2960 2982 2980 2957 2981 2997
8 2984 2962 2983 2999 2966 2938 2965 2987
8 2975 2950 2974 2993 2984 2962 2983 2999
8 2976 2951 2975 2994 2985 2963 2984 3000
8 2985 2963 2984 3000 2967 2939 2966 2988
8 2987 2965 2986 3001 2969 2941 2968 2989
8 2988 2966 2987 3002 2970 2942 2969 2990
8 2990 2969 2989 3003 2972 2945 2971 2991
8 2978 2953 2977 2995 2993 2974 2992 3004
8 2979 2954 2978 2996 2994 2975 2993 3005
8 2980 2957 2981 2997 2996 2978 2995 3006
8 2974 2993 2999 2983 2992 3004 3007 2998
8 2983 2999 2987 2965 2998 3007 3001 2986
8 3000 2984 2999 3008 2988 2966 2987 3002
8 2994 2975 2993 3005 3000 2984 2999 3008
8 3002 2987 3001 3009 2990 2969 2989 3003
8 2996 2978 2995 3006 3005 2993 3004 3010
8 3005 2993 3004 3010 3008 2999 3007 3011
8 3008 2999 3007 3011 3002 2987 3001 3009

CELL_TYPES 1910
12
12
12
12
12
12
12
12
12
12
12
12
12
12
12
12
12
12
12
12
12
12
12
12
12
12
12
12
12
12
12
12
12
12
12
12
12
12
12
12
12
12
12
12
12
12
12
12
12
12
12
12
12
12
12
12
12
12
12
12
12
12
12
12
12
12
12
12
12
12
12
12
12
12
12
12
12
12
12
12
12
12
12
12
12
12
12
12
12
12
12
12
12
12
12
12
12
12
12
12
12
12
12
12
12
12
12
12
12
12
12
12
12
12
12
12
12
12
12
12
12
12
12
12
12
12
12
12
12
12
12
12
12
12
12
12
12
12
12
12
12
12
12
12
12
12
12
12
12
12
12
12
12
12
12
12
12
12
12
12
12
12
12
12
12
12
12
12
12
12
12
12
12
12
12
12
12
12
12
12
12
12
12
12
12
12
12
12
12
12
12
12
12
12
12
12
12
12
12
12
12
12
12
12
12
12
12
12
12
12
12
12
12
12
12
12
12
12
12
12
12
12
12
12
12
12
12
12
12
12
12
12
12
12
12
12
12
12
12
12
12
12
12
12
12
12
12
12
12
12
12
12
12
12
12
12
12
12
12
12
12
12
12
12
12
12
12
12
12
12
12
12
12
12
12
12
12
12
12
12
12
12
12
12
12
12
12
12
12
12
12
12
12
12
12
12
12
12
12
12
12
12
12
12
12
12
12
12
12
12
12
12
12
12
12
12
12
12
12
12
12
12
12
12
12
12
12
12
12
12
12
12
12
12
12
12
12
12
12
12
12
12
12
12
12
12
12
12
12
12
12
12
12
12
12
12
12
12
12
12
12
12
12
12
12
12
12
12
12
12
12
12
12
12
12
12
12
12
12
12
12
12
12
12
12
12
12
12
12
12
12
12
12
12
12
12
12
12
12
12
12
12
12
12
12
12
12
12
12
12
12
12
12
12
12
12
12
12
12
12
12
12
12
12
12
12
12
12
12
12
12
12
12
12
12
12
12
12
12
12
12
12
12
12
12
12
12
12
12
12
12
12
12
12
12
12
12
12
12
12
12
12
12
12
12
12
12
12
12
12
12
12
12
12
12
12
12
12
12
12
12
12
12
12
12
12
12
12
12
12
12
12
12
12
12
12
12
12
12
12
12
12
12
12
12
12
12
12
12
12
12
12
12
12
12
12
12
12
12
12
12
12
12
12
12
12
12
12
12
12
12
12
12
12
12
12
12
12
12
12
12
12
12
12
12
12
12
12
12
12
12
12
12
12
12
12
12
12
12
12
12
12
12
12
12
12
12
12
12
12
12
12
12
12
12
12
12
12
12
12
12
12
12
12
12
12
12
12
12
12
12
12
12
12
12
12
12
12
12
12
12
12
12
12
12
12
12
12
12
12
12
12
12
12
12
12
12
12
12
12
12
12
12
12
12
12
12
12
12
12
12
12
12
12
12
12
12
12
12
12
12
12
12
12
12
12
12
12
12
12
12
12
12
12
12
12
12
12
12
12
12
12
12
12
12
12
12
12
12
12
12
12
12
12
12
12
12
12
12
12
12
12
12
12
12
12
12
12
12
12
12
12
12
12
12
12
12
12
12
12
12
12
12
12
12
12
12
12
12
12
12
12
12
12
12
12
12
12
12
12
12
12
12
12
12
12
12
12
12
12
12
12
12
12
12
12
12
12
12
12
12
12
12
12
12
12
12
12
12
12
12
12
12
12
12
12
12
12
12
12
12
12
12
12
12
12
12
12
12
12
12
12
12
12
12
12
12
12
12
12
12
12
12
12
12
12
12
12
12
12
12
12
12
12
12
12
12
12
12
12
12
12
12
12
12
12
12
12
12
12
12
12
12
12
12
12
12
12
12
12
12
12
12
12
12
12
12
12
12
12
12
12
12
12
12
12
12
12
12
12
12
12
12
12
12
12
12
12
12
12
12
12
12
12
12
12
12
12
12
12
12
12
12
12
12
12
12
12
12
12
12
12
12
12
12
12
12
12
12
12
12
12
12
12
12
12
12
12
12
12
12
12
12
12
12
12
12
12
12
12
12
12
12
12
12
12
12
12
12
12
12
12
12
12
12
12
12
12
12
12
12
12
12
12
12
12
12
12
12
12
12
12
12
12
12
12
12
12
12
12
12
12
12
12
12
12
12
12
12
12
12
12
12
12
12
12
12
12
12
12
12
12
12
12
12
12
12
12
12
12
12
12
12
12
12
12
12
12
12
12
12
12
12
12
12
12
12
12
12
12
12
12
12
12
12
12
12
12
12
12
12
12
12
12
12
12
12
12
12
12
12
12
12
12
12
12
12
12
12
12
12
12
12
12
12
12
12
12
12
12
12
12
12
12
12
12
12
12
12
12
12
12
12
12
12
12
12
12
12
12
12
12
12
12
12
12
12
12
12
12
12
12
12
12
12
12
12
12
12
12
12
12
12
12
12
12
12
12
12
12
12
12
12
12
12
12
12
12
12
12
12
12
12
12
12
12
12
12
12
12
12
12
12
12
12
12
12
12
12
12
12
12
12
12
12
12
12
12
12
12
12
12
12
12
12
12
12
12
12
12
12
12
12
12
12
12
12
12
12
12
12
12
12
12
12
12
12
12
12
12
12
12
12
12
12
12
12
12
12
12
12
12
12
12
12
12
12
12
12
12
12
12
12
12
12
12
12
12
12
12
12
12
12
12
12
12
12
12
12
12
12
12
12
12
12
12
12
12
12
12
12
12
12
12
12
12
12
12
12
12
12
12
12
12
12
12
12
12
12
12
12
12
12
12
12
12
12
12
12
12
12
12
12
12
12
12
12
12
12
12
12
12
12
12
12
12
12
12
12
12
12
12
12
12
12
12
12
12
12
12
12
12
12
12
12
12
12
12
12
12
12
12
12
12
12
12
12
12
12
12
12
12
12
12
12
12
12
12
12
12
12
12
12
12
12
12
12
12
12
12
12
12
12
12
12
12
12
12
12
12
12
12
12
12
12
12
12
12
12
12
12
12
12
12
12
12
12
12
12
12
12
12
12
12
12
12
12
12
12
12
12
12
12
12
12
12
12
12
12
12
12
12
12
12
12
12
12
12
12
12
12
12
12
12
12
12
12
12
12
12
12
12
12
12
12
12
12
12
12
12
12
12
12
12
12
12
12
12
12
12
12
12
12
12
12
12
12
12
12
12
12
12
12
12
12
12
12
12
12
12
12
12
12
12
12
12
12
12
12
12
12
12
12
12
12
12
12
12
12
12
12
12
12
12
12
12
12
12
12
12
12
12
12
12
12
12
12
12
12
12
12
12
12
12
12
12
12
12
12
12
12
12
12
12
12
12
12
12
12
12
12
12
12
12
12
12
12
12
12
12
12
12
12
12
12
12
12
12
12
12
12
12
12
12
12
12
12
12
12
12
12
12
12
12
12
12
12
12
12
12
12
12
12
12
12
12
12
12
12
12
12
12
12
12
12
12
12
12
12
12
12
12
12
12
12
12
12
12
12
12
12
12
12
12
12
12
12
12
12
12
12
12
12
12
12
12
12
12
12
12
12
12
12
12
12
12
12
12
12
12
12
12
12
12
12
12
12
12
12
12
12
12
12
12
12
12
12
12
12
12
12
12
12
12
12
12
12
12
12
12
12
12
12
12
12
12
12
12
12
12
12
12
12
12
12
12
12
12
12
12
12
12
12
12
12
12
12
12
12
12
12
12
12
12
12
12
12
12
12
12
12
12
12
12
12
12
12
12
12
12
12
12
12
12
12
12
12
12
12
12
12
12
12
12
12
12
12
12
12
12
12
12
12
12
12
12
12
12
12
12
12
12
12
12
12
12
12
12
12
12
12
12
12
12
12
12
12
12
12
12
12
12
12
12
12
12
12
12
12
12
12
12
12
12
12
12
12
12
12
12
12
12
12
12
12
12
12
12
12
12
12
12
12
12
12
12
12
12
12
12
12
12
12
12
12
12
12
12
12
12
12
12
12
12
12
12
12
12
12
12
12
12
12
12
12
12
12
12
12
12
12
12
12
12
12
12
12
12
12
12
12
12
12
12
12
12
12
12
12
12
12
12
12
12
12
12
12
12
12
12
12
12
12
12
12
12
12
12
12
12
12
12
12
12
12
12
12
12
12
12
12
12
12
12
12
12
12
12
12
12
12
12
12
12
12
12
12
12
12
12
12
12
12
12
12
12
12
12
12
12
12
12
12
12
12
12
12
12
12
12
12
12
12
12
12
12
12
12
12
12
12
12
12
12
12
12
12
12
12
12
12
12
12
12
12
12
12
12
12
12
12
12
12
12
12
12
12
12
12
12
12
12
12
12
12
12
12
12
12
12

POINT_DATA 3012
SCALARS Jp_lamdaP float 4
LOOKUP_TABLE default
0.999944 1 1 0.999944
1 1 1 1
0.999947 1 1 0.999947
0.999915 1 1 0.999915
0.999941 1 1 0.999941
0.99995 1 1 0.99995
0.999614 1 1 0.999614
1 1 1 1
1 1 1 1
1 1 1 1
0.999995 1 1 0.999995
0.999782 1 1 0.999782
0.999875 1 1 0.999875
0.999907 1 1 0.999907
0.999947 1 1 0.999947
0.999923 1 1 0.999923
0.999954 1 1 0.999954
0.999945 1 1 0.999945
0.999617 1 1 0.999617
1 1 1 1
0.999902 1 1 0.999902
0.999929 1 1 0.999929
0.999496 1 1 0.999496
0.999579 1 1 0.999579
0.999972 1 1 0.999972
0.999661 1 1 0.999661
0.999078 1 1 0.999078
1 1 1 1
0.999962 1 1 0.999962
0.999976 1 1 0.999976
1 1 1 1
0.999789 1 1 0.999789
0.999921 1 1 0.999921
0.999943 1 1 0.999943
0.999663 1 1 0.999663
1 1 1 1
0.999753 1 1 0.999753
0.999847 1 1 0.999847
0.999174 1 1 0.999174
1 1 1 1
1 1 1 1
0.999952 1 1 0.999952
1 1 1 1
0.999896 1 1 0.999896
0.999439 1 1 0.999439
1 1 1 1
0.999587 1 1 0.999587
0.99993 1 1 0.99993
0.999947 1 1 0.999947
0.999957 1 1 0.999957
0.999621 1 1 0.999621
0.999937 1 1 0.999937
0.999911 1 1 0.999911
0.999977 1 1 0.999977
0.999936 1 1 0.999936
0.999498 1 1 0.999498
0.999665 1 1 0.999665
0.999582 1 1 0.999582
0.999064 1 1 0.999064
1 1 1 1
0.999887 1 1 0.999887
0.999538 1 1 0.999538
0.999469 1 1 0.999469
0.999537 1 1 0.999537
0.998797 1 1 0.998797
0.998933 1 1 0.998933
0.999994 1 1 0.999994
0.999762 1 1 0.999762
0.999192 1 1 0.999192
0.998538 1 1 0.998538
1 1 1 1
1 1 1 1
1 1 1 1
0.999797 1 1 0.999797
1 1 1 1
1 1 1 1
0.999631 1 1 0.999631
1 1 1 1
0.999738 1 1 0.999738
0.999867 1 1 0.999867
0.999172 1 1 0.999172
1 1 1 1
0.999995 1 1 0.999995
0.999583 1 1 0.999583
0.999669 1 1 0.999669
0.998797 1 1 0.998797
0.999923 1 1 0.999923
0.999083 1 1 0.999083
0.999271 1 1 0.999271
0.998792 1 1 0.998792
1 1 1 1
1 1 1 1
1 1 1 1
1 1 1 1
1 1 1 1
0.999944 1 1 0.999944
0.999488 1 1 0.999488
0.999956 1 1 0.999956
0.999568 1 1 0.999568
1 1 1 1
0.999411 1 1 0.999411
0.999555 1 1 0.999555
0.998481 1 1 0.998481
0.999613 1 1 0.999613
0.998588 1 1 0.998588
0.999888 1 1 0.999888
0.999918 1 1 0.999918
0.999982 1 1 0.999982
0.999941 1 1 0.999941
0.9995 1 1 0.9995
0.999586 1 1 0.999586
0.99967 1 1 0.99967
0.99905 1 1 0.99905
1 1 1 1
0.999897 1 1 0.999897
0.999435 1 1 0.999435
0.999469 1 1 0.999469
0.999997 1 1 0.999997
0.999798 1 1 0.999798
0.999539 1 1 0.999539
0.998766 1 1 0.998766
0.999172 1 1 0.999172
0.998954 1 1 0.998954
0.99854 1 1 0.99854
0.99943 1 1 0.99943
0.999443 1 1 0.999443
0.998592 1 1 0.998592
0.998699 1 1 0.998699
0.998822 1 1 0.998822
0.999179 1.00088 1 0.998298
1 1 1 1
0.998517 1.00006 1 0.99846
0.99991 1 1 0.99991
0.999259 1 1 0.999259
0.99862 1 1 0.99862
0.999605 1.00128 1 0.998324
0.999972 1 1 0.999972
0.999563 1 1 0.999563
1 1 1 1
1 1 1 1
0.999638 1 1 0.999638
1 1 1 1
0.99988 1 1 0.99988
0.999742 1 1 0.999742
0.99917 1 1 0.99917
1 1 1 1
0.999997 1 1 0.999997
0.999612 1 1 0.999612
0.999697 1 1 0.999697
0.998799 1 1 0.998799
0.999939 1 1 0.999939
0.999085 1 1 0.999085
0.99927 1 1 0.99927
0.998779 1 1 0.998779
0.999972 1 1 0.999972
1 1 1 1
0.999664 1 1 0.999664
0.99869 1 1 0.99869
0.998945 1 1 0.998945
0.999451 1.0011 1 0.998357
0.999396 1 1 0.999396
0.998683 1 1 0.998683
0.999039 1 1.00017 0.998868
0.998648 1 1 0.998648
1 1 1 1
1 1 1 1
1 1 1 1
0.999989 1 1 0.999989
1 1 1 1
1 1 1 1
1 1 1 1
0.999545 1 1 0.999545
0.99946 1 1 0.99946
1 1 1 1
1 1 1 1
0.999413 1 1 0.999413
0.999536 1 1 0.999536
0.998481 1 1 0.998481
0.999568 1 1 0.999568
0.998588 1 1 0.998588
0.9994 1 1 0.9994
0.998422 1 1 0.998422
0.998545 1 1 0.998545
1.00162 1.00354 1 0.998082
0.998628 1 1 0.998628
1.00067 1.00249 1 0.998186
1 1 1 1
0.999906 1 1 0.999906
0.999326 1 1 0.999326
0.99947 1 1 0.99947
1 1 1 1
0.999834 1 1 0.999834
0.999543 1 1 0.999543
0.998735 1 1 0.998735
0.998976 1 1 0.998976
0.999153 1 1 0.999153
0.998543 1 1 0.998543
0.999427 1 1 0.999427
0.999443 1 1 0.999443
0.998527 1 1 0.998527
0.998722 1 1 0.998722
1 1 1 1
0.999898 1 1 0.999898
0.999287 1 1 0.999287
0.998822 1 1 0.998822
0.999205 1.00094 1 0.998262
0.998615 1 1 0.998615
0.998584 1.0001 1 0.99848
0.999663 1.00134 1 0.998328
0.999966 1 1 0.999966
0.999563 1 1 0.999563
0.998437 1 1 0.998437
0.998653 1 1 0.998653
1.00064 1.00248 1 0.998165
0.999403 1.00123 1 0.998179
0.998663 1.00027 1 0.998391
1.00317 1.00504 1 0.998138
0.999948 1 1 0.999948
1.00015 1.00188 1 0.998269
0.999355 1 1 0.999355
0.998773 1 1 0.998773
0.999301 1.0009 1 0.9984
1.00239 1.00412 1 0.998272
0.999465 1 1 0.999465
0.999682 1 1 0.999682
0.999155 1 1 0.999155
0.999597 1 1 0.999597
1 1 1 1
1 1 1 1
0.999692 1 1 0.999692
0.998802 1 1 0.998802
0.999953 1 1 0.999953
0.99927 1 1 0.99927
0.999087 1 1 0.999087
0.998765 1 1 0.998765
0.99998 1 1 0.99998
1 1 1 1
0.999666 1 1 0.999666
0.998691 1 1 0.998691
0.998949 1 1 0.998949
0.999162 1.00081 1 0.998356
0.999397 1 1 0.999397
0.998693 1 1 0.998693
0.998915 1 1.00005 0.998865
0.998637 1 1 0.998637
1 1 1 1
0.999522 1 1 0.999522
0.9998 1 1 0.9998
0.999262 1 1 0.999262
1.00035 1.0021 1 0.99826
0.998772 1.00025 1 0.998528
1.00308 1.00493 1 0.998155
0.99911 1 1.0001 0.99901
0.999455 1.00093 1 0.99853
0.999753 1 1.00114 0.998619
0.998803 1.00028 1 0.998523
0.999946 1 1 0.999946
1 1 1 1
1 1 1 1
1 1 1 1
1 1 1 1
0.999997 1 1 0.999997
1 1 1 1
0.999984 1 1 0.999984
1 1 1 1
0.999569 1 1 0.999569
0.999509 1 1 0.999509
0.998588 1 1 0.998588
0.998482 1 1 0.998482
0.999415 1 1 0.999415
1 1 1 1
0.999399 1 1 0.999399
0.998422 1 1 0.998422
0.998545 1 1 0.998545
1.00145 1.00338 1 0.998081
0.998628 1 1 0.998628
1.00073 1.00255 1 0.998186
0.998408 1 1 0.998408
1.00185 1.00383 1 0.998024
1.00106 1.00292 1 0.998141
1.0094 1.01142 1 0.998009
1.00075 1.00253 1 0.998218
1.00717 1.00911 1 0.998082
0.999424 1 1 0.999424
0.999443 1 1 0.999443
0.998463 1 1 0.998463
0.998746 1 1 0.998746
1 1 1 1
0.999885 1 1 0.999885
0.999314 1 1 0.999314
0.998823 1 1 0.998823
0.999227 1.001 1 0.998227
0.99865 1.00015 1 0.998501
0.99861 1 1 0.99861
0.999746 1.00142 1 0.998331
0.999959 1 1 0.999959
0.999563 1 1 0.999563
0.998416 1 1 0.998416
0.998651 1 1 0.998651
1.00083 1.00268 1 0.998153
0.999576 1.00136 1 0.998215
0.999939 1 1 0.999939
0.999353 1 1 0.999353
0.998803 1 1 0.998803
0.998728 1.00034 1 0.998392
1.00351 1.00539 1 0.998134
0.999302 1.00093 1 0.99837
1.00047 1.0022 1 0.998271
1.00262 1.00435 1 0.998272
0.999467 1 1 0.999467
0.999153 1 1 0.999153
0.99968 1 1 0.99968
1.00125 1.00316 1 0.998101
1.00065 1.00247 1 0.998188
1.0084 1.01042 1 0.998006
1.00494 1.00689 1 0.998066
1.00158 1.00339 1 0.998205
1.00913 1.01098 1 0.998171
0.999414 1 1 0.999414
1.00458 1.00634 1 0.998246
0.999 1 1 0.999
0.998775 1.0003 1 0.998475
1.0007 1.00247 1 0.998233
1.00664 1.00831 1 0.998345
0.999774 1 1 0.999774
0.999136 1 1 0.999136
0.999212 1 1 0.999212
0.99901 1 1 0.99901
0.998692 1 1 0.998692
1 1 1 1
0.999988 1 1 0.999988
0.999667 1 1 0.999667
0.998954 1 1 0.998954
0.998919 1.00057 1 0.998355
0.999398 1 1 0.999398
0.998862 1 1 0.998862
0.998703 1 1 0.998703
0.998626 1 1 0.998626
1 1 1 1
0.999522 1 1 0.999522
0.999804 1 1 0.999804
0.99926 1 1 0.99926
1.00007 1.00181 1 0.998258
0.998721 1.00019 1 0.99853
1.00287 1.00473 1 0.998154
0.999098 1 1.00009 0.999012
0.999127 1.00058 1 0.998543
0.999728 1 1.00112 0.998609
0.998717 1.00013 1 0.998589
1 1 1 1
0.99988 1 1 0.99988
0.999145 1 1 0.999145
0.999396 1 1 0.999396
0.999057 1 1.00002 0.999037
1.00445 1.00637 1 0.998095
1.00125 1.00292 1 0.998332
1.0058 1.0077 1 0.998108
1.00022 1 1.0015 0.998724
0.999383 1.00093 1 0.998455
0.999305 1.00008 1.00086 0.998372
0.999934 1 1 0.999934
0.999665 1 1 0.999665
0.999953 1 1 0.999953
0.999948 1 1 0.999948
1 1 1 1
1 1 1 1
1 1 1 1
1 1 1 1
1 1 1 1
1 1 1 1
1 1 1 1
0.999995 1 1 0.999995
1 1 1 1
0.99998 1 1 0.99998
1 1 1 1
0.998627 1 1 0.998627
0.998545 1 1 0.998545
1.00079 1.0026 1 0.998186
1.00128 1.00321 1 0.99808
0.998422 1 1 0.998422
0.999399 1 1 0.999399
0.998408 1 1 0.998408
1.0018 1.00379 1 0.998024
1.00089 1.00275 1 0.998141
1.00958 1.01159 1 0.99801
1.00069 1.00248 1 0.998216
1.00663 1.00857 1 0.998082
1.00181 1.00381 1 0.998009
1.01104 1.0131 1 0.997966
1.00833 1.01031 1 0.998046
1.01513 1.01711 1 0.998056
1.00561 1.00753 1 0.998094
1.01148 1.01333 1 0.998183
0.998396 1 1 0.998396
0.99865 1 1 0.99865
1.001 1.00287 1 0.998141
0.999747 1.0015 1 0.998252
0.999931 1 1 0.999931
0.999351 1 1 0.999351
0.998834 1 1 0.998834
0.998798 1.00041 1 0.998392
1.00386 1.00574 1 0.99813
1.00079 1.00252 1 0.998272
0.999276 1.00094 1 0.99834
1.00286 1.0046 1 0.998272
0.99947 1 1 0.99947
0.999152 1 1 0.999152
0.999677 1 1 0.999677
1.00144 1.00337 1 0.99807
1.00061 1.00242 1 0.998187
1.00837 1.01039 1 0.998001
1.00547 1.00741 1 0.998072
0.999415 1 1 0.999415
0.998995 1 1 0.998995
0.99884 1.00029 1.00003 0.998516
1.00188 1.00368 1 0.998214
1.00865 1.01048 1 0.998187
1.00086 1.00265 1 0.99821
1.00463 1.00639 1 0.998248
1.0061 1.00775 1 0.998358
0.999139 1 1 0.999139
0.998993 1 1 0.998993
0.999771 1 1 0.999771
0.999228 1 1 0.999228
1.00948 1.01155 1 0.997951
1.00791 1.00989 1 0.998041
1.01528 1.01732 1 0.997992
1.01083 1.01273 1 0.998124
1.00724 1.00903 1 0.998226
1.0116 1.01336 1 0.998259
0.999108 1 1 0.999108
1.00771 1.00934 1 0.998384
0.998744 1 1 0.998744
0.999748 1.00131 1.00018 0.998262
1.0047 1.00656 1 0.998148
1.00788 1.00952 1 0.998372
0.999827 1 1 0.999827
0.999325 1 1 0.999325
0.998999 1 1 0.998999
0.999035 1 1 0.99903
0.998946 1 1 0.998946
1 1 1 1
0.999738 1.00148 1 0.998256
0.999809 1 1 0.999809
0.999522 1 1 0.999522
0.999258 1 1 0.999258
0.99865 1.00012 1 0.998532
1.00259 1.00445 1 0.998153
0.999015 1 1 0.999015
0.999753 1 1.00116 0.998599
0.998779 1.00022 1 0.998556
0.998654 1 1 0.998654
1 1 1 1
0.999885 1 1 0.999885
0.999145 1 1 0.999145
0.999396 1 1 0.999396
0.99903 1 1.00001 0.999019
1.00469 1.00661 1 0.998091
1.00067 1.00234 1 0.998332
1.0058 1.00771 1 0.998101
1.00017 1 1.00144 0.998728
0.999633 1.00117 1 0.99847
0.999539 1.00019 1.00096 0.998391
0.999916 1 1 0.999916
0.999515 1 1 0.999515
0.999288 1 1.0004 0.998888
0.999167 1 1.00002 0.999146
0.999177 1 1.00028 0.998899
1.00814 1.01006 1 0.998094
1.00238 1.00412 1 0.998262
1.0061 1.00788 1 0.998237
1.0022 1 1.0037 0.998503
0.999066 1.00082 1 0.99825
0.999937 1 1 0.999937
0.999606 1 1 0.999606
0.999648 1 1 0.999648
0.999481 1 1 0.999481
0.999672 1 1 0.999672
0.999955 1 1 0.999955
0.999954 1 1 0.999954
1 1 1 1
0.99995 1 1 0.99995
1 1 1 1
1 1 1 1
1 1 1 1
1 1 1 1
1 1 1 1
1 1 1 1
0.999999 1 1 0.999999
1 1 1 1
1 1 1 1
0.999993 1 1 0.999993
1 1 1 1
1.00066 1.00245 1 0.998215
1.00071 1.00258 1 0.998141
1.0061 1.00804 1 0.998082
1.00975 1.01176 1 0.99801
1.00178 1.00376 1 0.998024
0.998407 1 1 0.998407
1.00184 1.00383 1 0.99801
1.01111 1.01317 1 0.997959
1.00811 1.01009 1 0.998046
1.01496 1.01692 1 0.998066
1.00576 1.00769 1 0.998091
1.01161 1.01344 1 0.998189
1.0105 1.0126 1 0.997934
1.01651 1.01854 1 0.998
1.01302 1.01492 1 0.998133
1.01455 1.01646 1 0.99812
1.01035 1.01222 1 0.998156
1.01343 1.01517 1 0.998285
1.00164 1.00361 1 0.998039
1.00056 1.00238 1 0.998186
1.00835 1.01038 1 0.997996
1.006 1.00794 1 0.998078
0.999415 1 1 0.999415
0.99899 1 1 0.99899
0.998997 1.00026 1.00018 0.998557
1.0022 1.00398 1 0.998224
1.00817 1.00999 1 0.998203
1.00462 1.00638 1 0.99825
1.00103 1.00285 1 0.998187
1.00556 1.0072 1 0.998372
0.999142 1 1 0.999142
0.998976 1 1 0.998976
0.999767 1 1 0.999767
0.999245 1 1 0.999245
1.00949 1.01156 1 0.997952
1.00795 1.00993 1 0.998037
1.015 1.01703 1 0.997999
1.01025 1.01216 1 0.998118
0.999105 1 1 0.999105
0.99881 1 1.00003 0.998779
0.999918 1.00128 1.00039 0.998257
1.00691 1.00872 1 0.998214
1.0117 1.01343 1 0.998296
1.00461 1.00649 1 0.998138
1.00742 1.00904 1 0.998386
1.00835 1.00996 1 0.998404
0.998999 1 1 0.998999
0.998943 1 1 0.998943
0.999117 1 1.00009 0.999027
0.999799 1 1 0.999799
0.999339 1 1 0.999339
1.0164 1.01846 1 0.997974
1.01435 1.01635 1 0.998026
1.01246 1.01426 1 0.998233
1.00988 1.01156 1 0.998346
0.998956 1 1 0.998956
1.00951 1.01104 1 0.998486
0.998868 1 1.00029 0.998581
1.00121 1.00267 1.00051 0.998037
1.00713 1.00905 1 0.998093
0.999817 1 1 0.999817
0.999468 1 1 0.999468
0.999155 1 1.00001 0.999149
0.99896 1 1 0.99896
0.999068 1 1.00018 0.998888
0.998895 1 1 0.998895
1 1 1 1
0.999891 1 1 0.999891
1.00497 1.0069 1 0.998087
0.999396 1 1 0.999396
0.999146 1 1 0.999146
0.999002 1 1 0.999002
1.00018 1.00185 1 0.998333
1.00572 1.00764 1 0.998094
1.00014 1 1.00141 0.998732
0.999474 1.00029 1.00077 0.99841
0.999908 1.00143 1 0.998484
0.99992 1 1 0.99992
0.999517 1 1 0.999517
0.999232 1 1.00034 0.998896
0.999155 1 1.00001 0.999145
0.999261 1 1.00038 0.998886
1.00817 1.0101 1 0.99809
1.00242 1.00417 1 0.998255
1.00607 1.00782 1 0.998258
1.00165 1 1.00317 0.998487
0.999163 1.00089 1.00006 0.99822
0.999592 1 1 0.999592
0.999232 1 1 0.999232
1.00063 1 1.00191 0.998729
0.999427 1 1.00051 0.998918
0.999299 1 1.00051 0.998788
1.01153 1.01317 1 0.998381
1.00244 1.00427 1 0.998178
1.00561 1.00734 1 0.998283
1.00275 1.00011 1.0043 0.998353
0.998664 1.00065 1 0.998018
0.999941 1 1 0.999941
0.99962 1 1 0.99962
0.999395 1 1 0.999395
0.999631 1 1 0.999631
0.999672 1 1 0.999672
0.999456 1 1 0.999456
0.999327 1 1 0.999327
0.999443 1 1 0.999443
0.999677 1 1 0.999677
0.999953 1 1 0.999953
0.999955 1 1 0.999955
1 1 1 1
0.999956 1 1 0.999956
1 1 1 1
1 1 1 1
1 1 1 1
1 1 1 1
1 1 1 1
1 1 1 1
1 1 1 1
1 1 1 1
0.999998 1 1 0.999998
1 1 1 1
1 1 1 1
1.0059 1.00782 1 0.998088
1.0079 1.00987 1 0.998046
1.01172 1.01355 1 0.998196
1.0148 1.01675 1 0.998077
1.01116 1.01323 1 0.997951
1.00185 1.00385 1 0.99801
1.0106 1.0127 1 0.997927
1.01655 1.01859 1 0.997997
1.01325 1.01516 1 0.998117
1.01468 1.01659 1 0.998123
1.00975 1.01161 1 0.998157
1.0133 1.01501 1 0.99831
1.01589 1.01796 1 0.997967
1.01596 1.0179 1 0.998088
1.01514 1.01694 1 0.998226
1.01289 1.01453 1 0.998383
1.00948 1.01155 1 0.997953
1.00796 1.00994 1 0.998032
1.01472 1.01675 1 0.998006
1.00968 1.01159 1 0.998112
0.999103 1 1 0.999103
0.998814 1 1 0.998814
1.0001 1.00127 1.00058 0.998252
1.00657 1.00839 1 0.998201
1.0118 1.01349 1 0.998332
1.0072 1.00883 1 0.998388
1.00447 1.00635 1 0.998128
1.00866 1.01024 1 0.998436
0.999 1 1 0.999
0.99894 1 1 0.99894
0.999193 1 1.00017 0.999024
0.999772 1 1 0.999772
0.999353 1 1 0.999353
1.01609 1.01815 1 0.997977
1.01422 1.01622 1 0.998032
1.01228 1.01407 1 0.998232
0.998952 1 1 0.998952
0.998871 1 1.00026 0.998614
1.00141 1.00262 1.00076 0.998029
1.01013 1.01181 1 0.998336
1.00687 1.00874 1 0.998141
1.009 1.01054 1 0.998479
0.999822 1 1 0.999822
0.998957 1 1 0.998957
0.99892 1 1 0.99892
0.999161 1 1.00028 0.99888
0.999158 1 1 0.999158
0.999447 1 1 0.999447
1.01561 1.01764 1 0.998014
1.01502 1.01709 0.999828 0.998134
1.012 1.01371 1 0.998315
1.01249 1.01403 1 0.99848
0.998859 1 1 0.998859
1.00672 1.00847 1 0.998274
0.999901 1 1.00165 0.998259
1.00215 1.0032 1.00104 0.997906
0.999865 1 1 0.999865
0.999542 1 1 0.999542
0.999249 1 1 0.999249
0.999086 1 1.00014 0.998942
0.998887 1 1 0.998887
0.999 1 1.00019 0.99881
0.999924 1 1 0.999924
0.999518 1 1 0.999518
1.00827 1.01021 1 0.998086
0.999143 1 1 0.999143
0.999094 1 1.00019 0.998904
0.999442 1 1.00057 0.998872
1.0024 1.00416 1 0.998248
1.00612 1.00785 1 0.998278
1.00113 1 1.00266 0.99847
0.99936 1.0009 1.00027 0.99819
0.999593 1 1 0.999593
0.999242 1 1 0.999242
1.00065 1 1.0019 0.998747
0.999669 1 1.00075 0.998923
0.999096 1 1.00028 0.998816
1.01162 1.01325 1 0.998397
1.00237 1.0042 1 0.998176
1.00588 1.00754 1 0.998358
1.00291 1.00003 1.00456 0.998335
0.998637 1.00063 1.00003 0.997983
0.999343 1 1 0.999343
0.998996 1 1 0.998996
1.00237 1 1.00376 0.998609
0.999349 1 1.00065 0.998703
1.01767 1.01959 0.999604 0.998508
1.01096 1.01261 0.999872 0.998495
1.00304 1.00505 1 0.998004
1.00246 1.0002 1.00426 0.998015
0.999635 1 1 0.999635
0.999406 1 1 0.999406
0.999268 1 1 0.999268
0.999672 1 1 0.999672
0.99943 1 1 0.99943
0.999677 1 1 0.999677
0.999308 1 1 0.999308
0.999453 1 1 0.999453
0.999202 1 1 0.999202
0.999301 1 1 0.999301
0.999443 1 1 0.999443
0.999671 1 1 0.999671
0.999948 1 1 0.999948
0.999952 1 1 0.999952
1 1 1 1
0.999955 1 1 0.999955
1 1 1 1
1 1 1 1
1 1 1 1
1 1 1 1
1 1 1 1
1 1 1 1
1 1 1 1
1 1 1 1
1 1 1 1
1 1 1 1
1 1 1 1
1.00916 1.01102 1 0.998157
1.01347 1.0154 1 0.998102
1.01316 1.01485 1 0.998335
1.0148 1.01671 1 0.998126
1.01661 1.01865 1 0.997994
1.01071 1.01282 1 0.99792
1.01584 1.0179 1 0.997972
1.01538 1.01732 1 0.998085
1.01486 1.01666 1 0.998229
1.01395 1.01559 1 0.998379
1.01571 1.0177 1 0.998046
1.01871 1.02074 0.999781 0.998236
1.01799 1.01973 0.99993 0.998358
1.01577 1.01783 1 0.99798
1.01411 1.0161 1 0.998039
1.01206 1.01386 1 0.998231
0.998948 1 1 0.998948
0.998826 1 1.00018 0.998648
1.00146 1.00259 1.00085 0.998022
1.01028 1.01197 1 0.998327
1.0087 1.01024 1 0.998471
1.00692 1.00875 1 0.998189
0.998954 1 1 0.998954
0.998945 1 1 0.998945
0.999213 1 1.00034 0.998871
0.999826 1 1 0.999826
0.999167 1 1 0.999167
0.999426 1 1 0.999426
1.01609 1.01811 1 0.998018
1.01524 1.01722 0.999918 0.998138
1.01182 1.01354 1 0.998304
0.998851 1 1 0.998851
0.999718 1 1.0014 0.998322
1.00229 1.00348 1.0009 0.99792
1.01267 1.0142 1 0.998494
1.00711 1.00886 1 0.998266
0.999891 1 1 0.999891
0.999542 1 1 0.999542
0.998893 1 1 0.998893
0.999005 1 1.00016 0.998846
0.999134 1 1.00019 0.998944
0.999232 1 1 0.999232
1.01864 1.0209 0.999633 0.998152
1.01349 1.01686 0.998421 0.998254
1.01379 1.01588 0.999456 0.998491
1.01074 1.01223 1 0.998536
0.999577 1 1.00088 0.998694
1.00244 1.00313 1.0014 0.997918
1.00089 1.00016 1.00264 0.998091
0.999947 1 1 0.999947
0.999688 1 1 0.999688
0.999555 1 1 0.999555
0.999284 1 1 0.999284
0.999041 1 1 0.999041
0.999027 1 1.00022 0.998811
0.998919 1 1 0.998919
1.00459 1 1.00567 0.998927
0.999594 1 1 0.999594
0.999252 1 1 0.999252
1.01159 1.0132 1 0.998412
0.999781 1 1.00085 0.998927
1.00085 1 1.00209 0.998764
0.99888 1 1.00004 0.998844
1.00232 1.00416 1 0.998175
1.00605 1.00762 1 0.998433
1.00311 1 1.0048 0.998317
0.998551 1.0006 1 0.997948
0.999332 1 1 0.999332
0.999073 1 1.00007 0.999005
1.00275 1 1.00413 0.998625
0.999251 1 1.00053 0.998723
1.01762 1.01953 0.999614 0.998508
1.01022 1.01181 0.999949 0.998476
1.00353 1.0055 1 0.998042
1.00203 1.00028 1.00377 0.997986
0.999182 1 1 0.999182
1.01724 1.02082 0.998019 0.998478
0.999554 1 1.00074 0.998816
1.0011 1 1.00268 0.998425
1.01619 1.01828 0.999344 0.9986
1.00616 1.00809 1 0.998084
1.0037 1.00262 1.00323 0.997851
0.999418 1 1 0.999418
0.999266 1 1 0.999266
0.999145 1 1 0.999145
0.999676 1 1 0.999676
0.999462 1 1 0.999462
0.999289 1 1 0.999289
0.999671 1 1 0.999671
0.999444 1 1 0.999444
0.999186 1 1 0.999186
0.99932 1 1 0.99932
0.999104 1 1 0.999104
0.99918 1 1 0.99918
0.999321 1 1 0.999321
0.999447 1 1 0.999447
0.999658 1 1 0.999658
0.999944 1 1 0.999944
0.999948 1 1 0.999948
1 1 1 1
0.999951 1 1 0.999951
1 1 1 1
1 1 1 1
1 1 1 1
1 1 1 1
1 1 1 1
0.999967 1 1 0.999967
1 1 1 1
1 1 1 1
1 1 1 1
1 1 1 1
1 1 1 1
1 1 1 1
1.015 1.01665 1 0.998375
1.01458 1.01638 1 0.998231
1.01478 1.01673 1 0.998081
1.01577 1.01783 1 0.997977
1.01559 1.01756 1 0.998058
1.01866 1.02073 0.999748 0.998224
1.01839 1.02014 0.99991 0.998372
1.01937 1.0218 0.99942 0.998203
1.02184 1.02486 0.998698 0.998354
1.00896 1.01763 0.992926 0.998537
1.01654 1.01855 1 0.998021
1.01548 1.01738 0.999987 0.998141
1.01174 1.01347 1 0.998292
0.998899 1 1.00006 0.998843
0.999646 1 1.00126 0.998386
1.0022 1.00349 1.00078 0.997933
1.01296 1.01447 1 0.998509
1.00693 1.00869 1 0.998258
0.998899 1 1 0.998899
0.99901 1 1.00013 0.998881
0.999269 1 1.00032 0.998946
0.999916 1 1 0.999916
0.999542 1 1 0.999542
0.999216 1 1 0.999216
1.01845 1.02071 0.999616 0.998167
0.999944 1 1 0.999944
0.999672 1 1 0.999672
1.01352 1.01637 0.998941 0.998252
1.0149 1.01685 0.999623 0.99846
0.999581 1 1.00084 0.998742
1.0016 1.00025 1.0033 0.998056
1.00213 1.00337 1.00084 0.997925
1.00995 1.01144 1 0.998527
0.999599 1 1 0.999599
0.999283 1 1 0.999283
0.998877 1 1 0.998877
1.00223 1 1.00323 0.999002
0.999029 1 1.00024 0.998791
0.999047 1 1 0.999047
1.02073 1.02401 0.998477 0.998322
1.01324 1.01797 0.996971 0.998382
1.01303 1.01649 0.997906 0.998689
1.0035 1.00529 0.999937 0.998283
1.00104 1 1.00234 0.998702
1.00412 1.00079 1.00547 0.997877
0.999692 1 1 0.999692
0.999643 1 1 0.999643
0.999474 1 1 0.999474
0.999285 1 1 0.999285
0.999125 1 1 0.999125
0.99886 1 1 0.99886
1.0075 1 1.00878 0.998727
0.999616 1 1.00059 0.999028
0.999321 1 1 0.999321
0.999137 1 1.00012 0.999014
1.01765 1.01956 0.999619 0.998508
1.00978 1.01134 1 0.998458
0.999189 1 1.00045 0.998743
1.00301 1 1.00438 0.998641
1.00415 1.00605 1.00004 0.998079
1.00166 1.00035 1.00335 0.997958
0.999178 1 1 0.999178
1.01708 1.02135 0.997321 0.998498
0.999456 1 1.00063 0.998825
1.00109 1 1.00269 0.998403
1.01594 1.018 0.9994 0.998578
1.00697 1.00888 1 0.998113
1.00359 1.00225 1.00348 0.997861
0.999255 1 1.00028 0.998972
1.01719 1.02385 0.994769 0.998719
0.999445 1 1.00079 0.998656
1.00229 1.00032 1.00379 0.998183
1.00789 1.0124 0.997225 0.998313
1.00195 1.00183 1.00221 0.997907
1.00555 1.00825 0.998499 0.998828
0.999265 1 1 0.999265
0.999143 1 1 0.999143
0.999041 1 1 0.999041
0.99967 1 1 0.99967
0.999445 1 1 0.999445
0.99934 1 1 0.99934
0.999169 1 1 0.999169
0.999657 1 1 0.999657
0.999438 1 1 0.999438
0.999095 1 1 0.999095
0.99932 1 1 0.99932
0.999196 1 1 0.999196
0.999085 1 1 0.999085
0.999221 1 1 0.999221
0.999321 1 1 0.999321
0.999401 1 1 0.999401
0.99961 1 1 0.99961
0.999476 1 1 0.999476
0.999613 1 1 0.999613
0.99994 1 1 0.99994
0.999943 1 1 0.999943
1 1 1 1
0.999947 1 1 0.999947
1 1 1 1
1 1 1 1
1 1 1 1
1 1 1 1
1 1 1 1
0.999977 1 1 0.999977
0.999964 1 1 0.999964
1 1 1 1
1 1 1 1
1 1 1 1
1 1 1 1
1 1 1 1
1 1 1 1
1.01876 1.02051 0.999896 0.998385
1.01864 1.02075 0.999719 0.998212
1.0155 1.01747 1 0.99807
1.01927 1.02169 0.999428 0.998201
1.02099 1.02397 0.998739 0.998351
1.01008 1.01795 0.993721 0.998535
1.0177 1.02392 0.9955 0.998421
1.00668 1.01596 0.992471 0.998388
1.01492 1.02401 0.992282 0.998838
0.999753 1 1 0.999753
1.01831 1.02054 0.999629 0.998182
1.01347 1.01579 0.999466 0.998251
1.01573 1.01763 0.999705 0.998429
0.999609 1 1.00082 0.998789
1.00242 1.00039 1.00402 0.998021
1.00229 1.00392 1.00045 0.997932
1.00928 1.01078 1 0.998518
0.998834 1 1 0.998834
0.999849 1 1.00077 0.999079
0.998985 1 1.00021 0.998771
0.99994 1 1 0.99994
0.999052 1 1 0.999052
0.999644 1 1 0.999644
0.999281 1 1 0.999281
0.999657 1 1 0.999657
1.02041 1.02465 0.997523 0.998329
0.999713 1 1 0.999713
0.999642 1 1 0.999642
0.999441 1 1 0.999441
1.01352 1.01821 0.997007 0.998385
1.01246 1.01564 0.99822 0.998644
1.00033 1 1.00161 0.998719
1.0038 1.00039 1.00553 0.997883
1.00351 1.00512 1.00011 0.998286
0.999307 1 1 0.999307
0.999112 1 1 0.999112
1.00109 1 1.00212 0.998975
1.00616 1 1.00741 0.998761
0.998879 1 1 0.998879
1.01371 1.02035 0.995082 0.998399
1.01284 1.0203 0.994183 0.998502
1.00774 1.01088 0.998437 0.998458
1.00458 1.00321 1.00322 0.998152
1.00343 1 1.00478 0.998665
0.999441 1 1 0.999441
0.999354 1 1 0.999354
0.999264 1 1 0.999264
0.999122 1 1 0.999122
0.998975 1 1 0.998975
1.00476 1 1.006 0.998763
1.00864 1 1.00999 0.998666
0.999173 1 1 0.999173
0.999335 1 1.0005 0.998835
1.01686 1.02179 0.996649 0.998518
1.0155 1.01757 0.999411 0.998556
1.00745 1.00932 1 0.998142
1.00106 1 1.00268 0.998381
1.00321 1.00174 1.0036 0.997871
0.999248 1 1.00025 0.999
1.01677 1.02396 0.994251 0.998724
0.999414 1 1.00074 0.998674
1.0024 1.00013 1.00408 0.998194
1.0089 1.01274 0.99784 0.998368
1.00249 1.0019 1.00269 0.997896
1.00564 1.00852 0.998596 0.998552
0.999181 1 1.00032 0.998858
1.00418 1.01524 0.990398 0.998703
1.00053 1 1.00191 0.998627
1.00447 1 1.00636 0.998125
1.00315 1.004 1.00104 0.998117
0.958598 0.97514 0.992446 0.990519
0.98666 0.989478 1.0015 0.995662
0.981584 1.00092 0.981703 0.998956
0.894744 0.924211 0.97691 0.990999
0.871716 0.929692 0.946623 0.990509
0.999142 1 1 0.999142
0.999052 1 1 0.999052
0.999055 1 1 0.999055
0.999656 1 1 0.999656
0.999428 1 1 0.999428
0.99932 1 1 0.99932
0.999212 1 1 0.999212
0.999085 1 1 0.999085
0.999304 1 1 0.999304
0.999628 1 1 0.999628
0.999414 1 1 0.999414
0.999091 1 1 0.999091
0.999218 1 1 0.999218
0.999226 1 1 0.999226
0.999158 1 1 0.999158
0.999262 1 1 0.999262
0.999377 1 1 0.999377
0.999606 1 1 0.999606
0.999432 1 1 0.999432
0.999329 1 1 0.999329
0.99945 1 1 0.99945
0.999452 1 1 0.999452
0.999652 1 1 0.999652
0.999612 1 1 0.999612
0.999938 1 1 0.999938
0.99994 1 1 0.99994
1 1 1 1
0.999943 1 1 0.999943
1 1 1 1
1 1 1 1
1 1 1 1
1 1 1 1
1 1 1 1
0.999982 1 1 0.999982
0.999975 1 1 0.999975
1 1 1 1
0.999961 1 1 0.999961
1 1 1 1
1 1 1 1
1 1 1 1
1 1 1 1
1 1 1 1
1.02022 1.02314 0.998796 0.998349
1.01912 1.02154 0.999433 0.998199
1.01107 1.01813 0.994522 0.998533
1.0069 1.01572 0.992887 0.998419
1.01713 1.02331 0.995535 0.99842
1.01727 1.02525 0.99342 0.998783
1.02115 1.02619 0.996666 0.998417
0.971291 0.984914 0.99119 0.994934
1.01291 1.01935 0.994989 0.998684
0.999764 1 1 0.999764
0.999752 1 1 0.999752
0.999512 1 1 0.999512
0.99954 1 1 0.99954
1.0201 1.0253 0.996593 0.998336
1.01391 1.01836 0.99724 0.998389
1.0121 1.01485 0.998691 0.998599
0.999506 1 1.00077 0.998735
1.00328 1.00004 1.00536 0.997888
1.00349 1.00508 1.00013 0.998289
1.00257 1 1.00366 0.99892
1.00486 1 1.00607 0.998794
0.998897 1 1 0.998897
0.999641 1 1 0.999641
0.999098 1 1 0.999098
0.99933 1 1 0.99933
0.999734 1 1 0.999734
0.999409 1 1 0.999409
1.0122 1.01864 0.995248 0.998415
0.999475 1 1 0.999475
0.999374 1 1 0.999374
0.999268 1 1 0.999268
1.0149 1.02175 0.994772 0.998514
1.00651 1.00999 0.998106 0.998454
1.00335 1 1.0047 0.99866
1.00451 1.00356 1.00282 0.998141
0.999125 1 1 0.999125
0.998979 1 1 0.998979
1.0084 1 1.00975 0.998667
1.00564 1 1.0069 0.998743
1.01612 1.02375 0.99412 0.998424
0.999934 1.0162 0.985475 0.9985
1.00464 1.00574 1.00073 0.998174
1.00163 1 1.00306 0.998571
0.999199 1 1 0.999199
0.999168 1 1 0.999168
1.00029 1 1.00137 0.998923
1.01456 1 1.01605 0.99853
0.94763 0.972319 0.984288 0.990165
0.999278 1 1.00025 0.999027
0.999476 1 1.00079 0.998691
1.01592 1.02391 0.993458 0.998728
1.01001 1.01305 0.99857 0.998423
1.00327 1.0021 1.0033 0.997884
1.00267 1 1.00447 0.998205
1.00512 1.00851 0.998361 0.998271
0.999363 1 1.00048 0.998878
1.00334 1.01487 0.989931 0.99869
1.00005 1 1.00141 0.998636
1.00423 1 1.00611 0.998127
1.0035 1.00517 1.0002 0.998136
0.956235 0.974971 0.990163 0.990527
0.982371 0.988294 0.999662 0.994344
0.98331 0.999702 0.984585 0.999003
0.8984 0.92447 0.980929 0.990695
0.857983 0.919005 0.943279 0.98974
0.999576 1 1.00062 0.99896
0.910355 0.93526 0.982669 0.990538
0.905435 0.934518 0.977505 0.991176
0.980681 1.00574 0.976382 0.998669
1.00483 1 1.00617 0.998674
1.00978 1.00133 1.01017 0.998284
0.982552 0.996624 0.986728 0.99914
0.962126 0.973055 0.998692 0.990064
0.975367 0.977324 1.00411 0.993909
0.878246 0.924314 0.958821 0.990967
0.909011 0.958806 0.9556 0.992116
0.999064 1 1 0.999064
0.999051 1 1 0.999051
0.999192 1 1 0.999192
0.999646 1 1 0.999646
0.999426 1 1 0.999426
0.999287 1 1 0.999287
0.999216 1 1 0.999216
0.999097 1 1 0.999097
0.999606 1 1 0.999606
0.999225 1 1 0.999225
0.999279 1 1 0.999279
0.999397 1 1 0.999397
0.999152 1 1 0.999152
0.999179 1 1 0.999179
0.999365 1 1.0002 0.999168
0.999257 1 1 0.999257
0.999411 1 1 0.999411
0.999431 1 1 0.999431
0.999314 1 1 0.999314
0.99929 1 1 0.99929
0.999306 1 1 0.999306
0.999247 1 1 0.999247
0.9992 1 1 0.9992
0.99943 1 1 0.99943
0.99945 1 1 0.99945
0.999654 1 1 0.999654
0.999427 1 1 0.999427
0.999638 1 1 0.999638
0.999938 1 1 0.999938
0.99961 1 1 0.99961
0.999938 1 1 0.999938
1 1 1 1
0.99994 1 1 0.99994
1 1 1 1
1 1 1 1
1 1 1 1
1 1 1 1
1 1 1 1
0.999754 1 1 0.999754
0.999983 1 1 0.999983
0.999981 1 1 0.999981
1 1 1 1
0.999973 1 1 0.999973
1 1 1 1
1 1 1 1
1 1 1 1
1 1 1 1
1 1 1 1
1.00808 1.01579 0.993946 0.998452
1.01661 1.02285 0.99548 0.998419
1.02005 1.02675 0.994747 0.998727
0.972908 0.983655 0.993387 0.995658
1.01267 1.01907 0.994973 0.998739
1.02233 1.02796 0.996125 0.998396
1.01761 1.02311 0.996123 0.998495
0.977252 0.986311 0.994791 0.996003
0.95856 0.97565 0.993014 0.989394
0.876526 0.916613 0.966091 0.98983
0.859349 0.911852 0.95166 0.990292
0.999503 1 1 0.999503
0.999763 1 1 0.999763
0.999752 1 1 0.999752
0.999502 1 1 0.999502
0.999348 1 1 0.999348
0.999385 1 1 0.999385
0.999512 1 1 0.999512
0.999524 1 1 0.999524
1.01055 1.01702 0.995194 0.99843
1.01704 1.02373 0.994937 0.998525
1.00533 1.00914 0.99777 0.998449
1.00346 1 1.00481 0.998655
1.00447 1.00362 1.00272 0.99813
1.00815 1 1.0095 0.998667
1.00671 1 1.008 0.998723
0.998984 1 1 0.998984
0.999394 1 1 0.999394
0.999128 1 1 0.999128
0.99951 1 1 0.99951
0.999273 1 1 0.999273
1.01637 1.02423 0.993919 0.998403
0.999218 1 1 0.999218
0.999173 1 1 0.999173
1.00147 1.01497 0.988193 0.998484
1.00434 1.00623 0.999867 0.998256
1.00341 1.00011 1.00478 0.998522
1.00111 1 1.00221 0.998909
1.01299 1 1.01448 0.998535
1.01499 1.02241 0.994361 0.998367
0.984214 1.00454 0.981251 0.998487
0.999484 1 1.00103 0.998454
1.00703 1 1.00846 0.998583
0.9991 1 1 0.9991
0.999998 1 1.00101 0.998987
1.0088 1 1.0101 0.998714
0.899392 0.937012 0.968719 0.990845
0.954465 0.973245 0.989661 0.990949
0.999451 1 1.00055 0.998899
0.999711 1 1.00107 0.998645
1.00348 1.01493 0.990032 0.998677
1.00392 1.0065 0.999279 0.998155
1.00383 1 1.00571 0.998129
0.957073 0.974955 0.992243 0.989334
0.98367 0.990473 0.998052 0.995069
0.985715 0.998936 0.987705 0.999049
0.892636 0.925438 0.973917 0.990388
0.844322 0.907491 0.940773 0.988966
0.999344 1 1.00038 0.99896
0.904268 0.938131 0.972717 0.99094
0.903914 0.931226 0.979581 0.990904
0.983448 1.00657 0.978338 0.998657
1.00441 1 1.00573 0.99869
1.00904 1.00071 1.00998 0.998364
0.975635 0.993606 0.982724 0.999176
0.96415 0.976303 0.998105 0.989427
0.977411 0.980869 1.00131 0.995175
0.879758 0.919928 0.96609 0.989902
0.907678 0.958752 0.954631 0.991723
1.00094 1 1.00186 0.999086
0.924808 0.938429 0.993128 0.992304
0.976914 0.981611 1.00035 0.994869
0.987998 1.0008 0.988161 0.999036
1.01061 1.00033 1.01125 0.999026
0.997762 0.990687 1.00766 0.999484
0.967571 0.975598 0.995485 0.99627
0.961827 0.966814 1.00545 0.989449
0.901409 0.942609 0.965947 0.990005
0.93308 0.976322 0.961936 0.993527
0.999048 1 1 0.999048
0.99917 1 1 0.99917
0.999754 1 1.00042 0.999333
0.999606 1 1 0.999606
0.999416 1 1 0.999416
0.999296 1 1 0.999296
0.999224 1 1 0.999224
0.999146 1 1 0.999146
0.99941 1 1 0.99941
0.999189 1 1 0.999189
0.999256 1 1 0.999256
0.999426 1 1.00024 0.999181
0.999841 1 1.00055 0.999287
0.999261 1 1.00009 0.999175
0.99926 1 1 0.99926
0.99943 1 1 0.99943
0.999299 1 1 0.999299
0.99929 1 1 0.99929
0.999305 1 1 0.999305
0.999247 1 1 0.999247
0.999271 1 1 0.999271
0.999225 1 1 0.999225
0.999221 1 1 0.999221
0.99905 1 1 0.99905
0.999525 1 1.00068 0.998849
0.999103 1 1 0.999103
0.999198 1 1 0.999198
0.999387 1 1 0.999387
0.999429 1 1 0.999429
0.999646 1 1 0.999646
0.999449 1 1 0.999449
0.999653 1 1 0.999653
0.999938 1 1 0.999938
0.999623 1 1 0.999623
0.999937 1 1 0.999937
1 1 1 1
0.999938 1 1 0.999938
1 1 1 1
1 1 1 1
1 1 1 1
1 1 1 1
1 1 1 1
0.999771 1 1 0.999771
0.999979 1 1 0.999979
0.999754 1 1 0.999754
1 1 1 1
0.999983 1 1 0.999983
0.99998 1 1 0.99998
1 1 1 1
1 1 1 1
1 1 1 1
1 1 1 1
1 1 1 1
0.901865 0.931224 0.97728 0.990989
0.91122 0.93544 0.982262 0.991699
0.975352 0.985009 0.994032 0.996141
1.01289 1.01871 0.99548 0.998794
1.0234 1.02948 0.995712 0.998375
0.97579 0.983961 0.994544 0.997136
1.01815 1.02293 0.996807 0.998516
0.960557 0.976821 0.992682 0.990599
0.89001 0.921898 0.974419 0.990755
0.849637 0.908627 0.944991 0.989509
0.995852 1 0.997884 0.997958
0.961475 0.972682 0.998014 0.990445
0.871798 0.920125 0.956315 0.99076
0.906843 0.954015 0.958928 0.991268
0.999292 1 1 0.999292
0.999517 1 1 0.999517
0.999762 1 1 0.999762
0.999491 1 1 0.999491
0.999368 1 1 0.999368
0.999321 1 1 0.999321
0.999384 1 1 0.999384
0.999422 1 1 0.999422
0.999493 1 1 0.999493
0.999508 1 1 0.999508
1.01637 1.02447 0.993699 0.998382
1.00212 1.01295 0.990828 0.998469
1.00405 1.00673 0.998995 0.998338
1.00499 1.00027 1.00626 0.998473
1.01071 1 1.01218 0.99854
1.00181 1 1.00292 0.998894
0.999178 1 1 0.999178
0.999237 1 1 0.999237
1.0125 1.02245 0.991902 0.998357
0.999093 1 1 0.999093
0.99992 1 1.00095 0.998967
0.985823 1.00409 0.983355 0.99843
0.999872 1 1.00133 0.998541
1.00672 1 1.00822 0.998515
1.00786 1 1.00917 0.998697
1.00218 1.0076 0.996009 0.998604
0.991445 1 0.992496 0.998941
1.0097 1 1.01106 0.998658
0.999083 1 1 0.999083
0.999267 1 1.00031 0.998953
1.00335 1 1.00455 0.998798
0.926101 0.941481 0.990479 0.993119
0.906097 0.936838 0.976573 0.990387
0.951894 0.975327 0.985685 0.990148
0.998961 1 1 0.998961
1.00397 1 1.00527 0.998707
0.98619 1.00719 0.980482 0.998646
1.00836 1 1.00993 0.998442
0.900691 0.935728 0.971996 0.990288
0.962644 0.974143 0.997215 0.990956
0.975118 0.981771 0.999248 0.993971
0.972835 0.991369 0.982074 0.999216
0.882923 0.920273 0.968449 0.990671
0.905899 0.934795 0.978118 0.990769
0.902346 0.956349 0.951629 0.991491
1.00144 1 1.00236 0.999087
0.924798 0.941051 0.990211 0.992444
0.979042 0.983059 1.00108 0.994843
0.990231 1.00035 0.990794 0.999083
1.01034 1.00005 1.01129 0.999015
0.997304 0.991841 1.00634 0.999174
0.968489 0.975188 0.998468 0.994655
0.961058 0.97009 1.00103 0.989672
0.905335 0.947566 0.964016 0.991095
0.925215 0.969639 0.960621 0.9933
1.00192 0.999809 1.00262 0.999491
0.978252 0.982688 0.999342 0.996141
0.976601 0.978758 1.00108 0.996715
1.00944 0.9972 1.01256 0.999715
0.982733 0.979555 1.00536 0.997894
0.965528 0.967758 1.00858 0.98921
0.937491 0.963773 0.981169 0.991399
0.938446 0.984158 0.960241 0.993035
0.999148 1 1 0.999148
0.999692 1 1.00036 0.999337
1.00075 1 1.0013 0.999451
0.99941 1 1 0.99941
0.999256 1 1 0.999256
0.999199 1 1 0.999199
0.999475 1 1.00028 0.999194
0.99926 1 1 0.99926
0.999203 1 1.00003 0.999172
1.00044 1 1.00112 0.999312
1.00047 0.999862 1.00116 0.999448
0.999915 1 1.00067 0.999242
0.999194 1 1 0.999194
0.99929 1 1 0.99929
0.999303 1 1 0.999303
0.999248 1 1 0.999248
0.999228 1 1 0.999228
0.999269 1 1 0.999269
0.999225 1 1 0.999225
0.999171 1 1 0.999171
0.999246 1 1 0.999246
0.999049 1 1 0.999049
0.999065 1 1 0.999065
0.999599 1 1.00069 0.998905
0.999876 1 1.00126 0.998614
0.999049 1 1 0.999049
0.999409 1 1.0005 0.998906
0.999128 1 1 0.999128
0.999288 1 1 0.999288
0.999196 1 1 0.999196
0.999386 1 1 0.999386
0.999622 1 1 0.999622
0.999427 1 1 0.999427
0.999645 1 1 0.999645
0.999936 1 1 0.999936
0.999653 1 1 0.999653
0.999937 1 1 0.999937
1 1 1 1
0.999937 1 1 0.999937
1 1 1 1
1 1 1 1
1 1 1 1
1 1 1 1
1 1 1 1
0.99969 1 1 0.99969
0.999973 1 1 0.999973
0.999735 1 1 0.999735
1 1 1 1
0.99998 1 1 0.99998
0.999754 1 1 0.999754
1 1 1 1
1 1 1 1
0.999983 1 1 0.999983
1 1 1 1
1 1 1 1
1 1 1 1
0.929385 0.942323 0.993185 0.993038
0.903092 0.934111 0.976112 0.990453
0.978161 0.984728 0.998589 0.994734
0.902408 0.929294 0.97955 0.991341
0.97165 0.982991 0.992824 0.995607
1.01803 1.02283 0.996767 0.998535
0.961399 0.97745 0.991704 0.991806
0.890882 0.925594 0.972221 0.989999
0.841525 0.906754 0.938647 0.988725
0.992385 0.998502 0.996483 0.997381
0.963565 0.973584 1.00013 0.989582
0.878475 0.924799 0.959823 0.989671
0.904047 0.952999 0.957295 0.990952
0.98698 0.99277 0.997125 0.997035
0.967867 0.969538 1.00918 0.989193
0.905568 0.949106 0.962893 0.990897
0.930522 0.976727 0.959559 0.992846
0.999178 1 1 0.999178
0.999313 1 1 0.999313
0.999531 1 1 0.999531
0.999388 1 1 0.999388
0.999206 1 1 0.999206
0.999335 1 1 0.999335
0.999384 1 1 0.999384
0.999403 1 1 0.999403
0.999443 1 1 0.999443
0.999474 1 1 0.999474
1.01036 1.023 0.989273 0.998348
0.988419 1.00403 0.986052 0.998374
1.00022 1 1.00159 0.998627
1.00711 1 1.00868 0.998448
1.00756 1 1.00889 0.99868
0.999791 1 1.00085 0.998946
0.999086 1 1 0.999086
0.999086 1 1 0.999086
0.996443 1.00684 0.991043 0.998621
0.999113 1 1.00015 0.998964
1.00354 1 1.00476 0.998793
0.98974 1 0.990849 0.998881
1.00834 1 1.0097 0.998648
0.974661 0.996457 0.979037 0.999069
1.00785 1 1.00857 0.99929
1.00328 1 1.00445 0.998833
0.998991 1 1 0.998991
1.00276 1 1.00397 0.998797
0.975178 0.979164 0.999135 0.996791
0.929928 0.941814 0.994051 0.993289
0.902199 0.934618 0.973918 0.991164
1.002 1 1.00292 0.999088
1.00992 0.99964 1.0113 0.999002
0.990948 1 0.991814 0.999127
0.932723 0.944901 0.994136 0.992935
0.969109 0.970331 1.00966 0.98918
0.970327 0.976209 0.998162 0.995805
0.989784 0.990608 1.00033 0.998837
0.905077 0.94565 0.966765 0.989999
0.980412 0.983685 1.00186 0.994818
0.920862 0.966218 0.959423 0.993366
1.00187 0.999707 1.00269 0.999483
0.977404 0.981373 0.999421 0.996533
0.980689 0.981855 1.00209 0.996726
1.01004 0.998108 1.01239 0.999578
0.981431 0.979216 1.00483 0.997446
0.96635 0.970378 1.00713 0.988802
0.938986 0.987033 0.957513 0.993534
0.925723 0.956971 0.976291 0.990839
1.00382 0.998279 1.00584 0.999711
0.977174 0.980306 0.998138 0.998665
0.986275 0.990323 0.998846 0.997063
0.933119 0.978341 0.960635 0.992861
0.997727 0.983941 1.01462 0.999398
0.976564 0.974062 1.01304 0.989665
0.918387 0.941811 0.9837 0.991287
0.999608 1 1.00027 0.99934
1.0005 1 1.00109 0.99941
1.00308 0.999717 1.0038 0.999566
0.999259 1 1 0.999259
0.99917 1 1 0.99917
1.00129 1 1.00195 0.999337
0.999199 1 1 0.999199
1.00018 1 1.00094 0.999245
1.00104 0.999811 1.0018 0.999422
1.0002 1 1.00071 0.99949
0.999882 1 1.00065 0.999234
0.999231 1 1 0.999231
0.999268 1 1 0.999268
0.999229 1 1 0.999229
0.999241 1 1 0.999241
0.999179 1 1 0.999179
0.999498 1 1.00029 0.999207
0.999106 1 1 0.999106
1.00127 1 1.00256 0.998712
0.99908 1 1 0.99908
0.999452 1 1.00056 0.998889
0.99948 1 1.00101 0.998469
0.99976 1 1.00118 0.998583
0.999309 1 1.00037 0.998937
0.999747 1 1.00112 0.998625
0.999214 1 1 0.999214
0.99903 1 1 0.999027
0.999299 1 1.00034 0.998964
0.999154 1 1 0.999154
0.999311 1 1 0.999311
0.999575 1 1 0.999575
0.999384 1 1 0.999384
0.999621 1 1 0.999621
0.99993 1 1 0.99993
0.999644 1 1 0.999644
0.999935 1 1 0.999935
1 1 1 1
0.999936 1 1 0.999936
1 1 1 1
1 1 1 1
1 1 1 1
1 1 1 1
1 1 1 1
0.999583 1 1 0.999583
0.999912 1 1 0.999912
0.999688 1 1 0.999688
1 1 1 1
0.999952 1 1 0.999952
0.999698 1 1 0.999698
1 1 1 1
1 1 1 1
0.999981 1 1 0.999981
1 1 1 1
1 1 1 1
1 1 1 1
0.975868 0.980399 0.998854 0.996519
0.920831 0.940785 0.986015 0.992673
0.90418 0.932071 0.979646 0.990231
0.99934 1 1 0.99934
0.973171 0.976209 0.999808 0.99708
0.980098 0.984735 1.00058 0.994714
0.895549 0.928381 0.973276 0.991121
0.991769 0.998773 0.99625 0.996725
0.968615 0.975524 1.00265 0.990289
0.88428 0.932482 0.957458 0.990443
0.897972 0.949051 0.954963 0.990802
0.988594 0.994601 0.998578 0.995376
0.959377 0.96572 1.00374 0.989729
0.912033 0.950803 0.968338 0.990588
0.929371 0.975468 0.959894 0.992551
0.976045 0.981646 1.00006 0.994235
0.970874 0.965078 1.01803 0.98819
0.925214 0.95849 0.974553 0.990487
0.935592 0.982435 0.959005 0.993029
0.999074 1 1 0.999074
0.999166 1 1 0.999166
0.999334 1 1 0.999334
0.999202 1 1 0.999202
0.999231 1 1 0.999231
0.999349 1 1 0.999349
0.999408 1 1 0.999408
0.999463 1 1 0.999463
0.990555 1.00581 0.986175 0.998637
0.987515 1 0.988681 0.998821
0.999088 1 1 0.999088
1.00653 1 1.0079 0.998638
1.00356 1 1.00478 0.998788
0.999101 1 1.00013 0.998976
0.999022 1 1.00003 0.998996
0.98034 0.998767 0.982453 0.999082
1.00262 1 1.0038 0.998825
1.00399 1 1.00517 0.998832
1.00248 1 1.00318 0.999308
0.999026 1 1 0.999026
0.973231 0.98997 0.98362 0.999463
1.01175 0.998689 1.01363 0.999454
1.00255 1 1.00364 0.998919
1.0002 1 1.00125 0.998947
0.979191 0.981114 0.999122 0.998917
0.974754 0.978451 0.999373 0.996846
0.934722 0.942642 0.998121 0.993464
1.00174 0.999705 1.00256 0.999477
1.0117 0.999102 1.01317 0.999444
0.976478 0.980184 0.999294 0.996922
0.973287 0.968969 1.01508 0.989532
0.9789 0.976308 1.00706 0.995626
0.930284 0.959881 0.978797 0.990161
0.983857 0.983973 1.00315 0.996738
0.940956 0.991127 0.955079 0.994033
1.00417 0.998401 1.0061 0.999678
0.975247 0.979335 0.997144 0.998678
0.985389 0.988474 0.999351 0.997526
1.00641 0.990924 1.01572 0.999912
0.931093 0.977199 0.959968 0.992552
0.971314 0.970134 1.01184 0.989502
0.927875 0.955537 0.980646 0.990215
1.00743 0.995678 1.01203 0.999771
0.985077 0.989325 0.996668 0.999035
0.974051 0.977827 0.99904 0.997096
0.907605 0.956507 0.957194 0.991309
0.924804 0.960627 0.972124 0.990315
0.98458 0.979656 1.00575 0.999285
0.9781 0.967417 1.02288 0.988429
1.00026 1 1.00089 0.999369
1.00223 0.999419 1.00326 0.99955
1.00428 0.992172 1.01262 0.999582
0.999204 1 1 0.999204
0.999997 1 1.00075 0.999248
1.00161 1 1.00221 0.999397
0.999459 1 1.00023 0.999229
1.00044 1 1.00096 0.999489
1.00549 0.998978 1.0072 0.999325
0.999235 1 1 0.999235
0.999188 1 1 0.999188
1.00008 1 1.00091 0.999179
1.00647 1 1.00765 0.998829
0.999163 1 1 0.999163
1.00074 1 1.00197 0.998775
1.00247 1 1.00413 0.998347
1.00007 1 1.00188 0.998198
0.999276 1 1.0004 0.998873
0.999517 1 1.00109 0.998424
0.99919 1 1.00053 0.998665
1.0002 1 1.00138 0.998822
0.999688 1 1.00107 0.998621
0.999166 1 1.00003 0.999131
0.999302 1 1.00037 0.998933
0.999646 1 1.00101 0.998638
0.9995 1 1 0.9995
0.999207 1 1 0.999207
0.99901 1 1.00001 0.999005
0.999333 1 1 0.999333
0.999574 1 1 0.999574
0.999917 1 1 0.999917
0.999619 1 1 0.999619
0.999928 1 1 0.999928
1 1 1 1
0.999933 1 1 0.999933
1 1 1 1
1 1 1 1
1 1 1 1
1 1 1 1
1 1 1 1
0.999542 1 1 0.999542
0.999873 1 1 0.999873
0.999604 1 1 0.999604
1 1 1 1
0.99991 1 1 0.99991
0.999687 1 1 0.999687
1 1 1 1
1 1 1 1
0.999931 1 1 0.999931
1 1 1 1
1 1 1 1
1 1 1 1
0.973581 0.977561 0.997263 0.998662
0.975385 0.980116 0.998643 0.996526
0.920934 0.941762 0.985055 0.992719
0.99935 1 1 0.99935
0.999313 1 1 0.999313
0.999228 1 1 0.999228
0.985165 0.988902 0.999164 0.997055
0.975191 0.9773 1.00075 0.997099
0.981557 0.984714 1.00211 0.994693
0.994383 0.994483 1.00325 0.99666
0.961044 0.966752 1.00489 0.989254
0.905123 0.944158 0.968291 0.99005
0.932899 0.978532 0.960517 0.992555
0.972209 0.977017 0.9994 0.995677
0.965739 0.965009 1.01166 0.989222
0.922319 0.951073 0.978023 0.991559
0.937102 0.985615 0.956971 0.993529
0.96209 0.970496 0.99627 0.99505
0.980415 0.971434 1.02006 0.989394
0.918559 0.940221 0.985487 0.991348
0.931988 0.974863 0.962293 0.993481
0.999068 1 1 0.999068
0.999072 1 1 0.999072
0.999154 1 1 0.999154
0.9992 1 1 0.9992
0.999256 1 1 0.999256
0.999414 1 1 0.999414
0.986904 1.00112 0.986698 0.999092
0.997634 1 0.998309 0.999324
0.999 1 1 0.999
1.00477 1 1.00595 0.998831
1.00277 1 1.00392 0.998853
0.999009 1 1 0.999009
1.00012 1 1.00116 0.998954
0.984421 0.993452 0.991443 0.999462
1.00378 1 1.0048 0.998986
1.00704 0.995651 1.01196 0.99948
0.999059 1 1 0.999059
1.00071 0.984912 1.01633 0.999712
0.993421 0.992169 1.00169 0.999572
1.00127 1 1.00217 0.999103
0.992094 0.99323 0.999502 0.999354
0.978899 0.981067 0.99875 0.999038
0.974143 0.977724 0.999435 0.9969
1.00476 0.998795 1.00633 0.999644
1.00167 0.992744 1.00931 0.999686
0.973705 0.978771 0.996127 0.998691
0.975628 0.968886 1.01475 0.992326
0.930952 0.953449 0.984705 0.99157
0.9846 0.986909 0.99967 0.99799
0.934403 0.979966 0.960639 0.992575
1.00656 0.995967 1.01085 0.999788
0.983555 0.989006 0.995346 0.999138
0.97636 0.978913 1.00028 0.997115
0.982846 0.975695 1.01016 0.997193
0.904207 0.954704 0.955697 0.991011
0.919883 0.95459 0.972012 0.991389
0.988002 0.973076 1.02628 0.989341
1.00709 0.981982 1.02574 0.999832
0.97452 0.978354 0.997392 0.998685
0.979297 0.986142 0.99826 0.994789
0.858335 0.911576 0.950714 0.990407
0.907168 0.950571 0.963075 0.990931
0.979906 0.972822 1.0182 0.98928
0.957704 0.970266 0.990748 0.99627
1.00098 0.998772 1.00268 0.999534
1.00781 0.994613 1.01369 0.999586
1.019 0.998749 1.02076 0.999529
0.999224 1 1 0.999224
1.00091 0.999862 1.00156 0.999488
1.00561 0.9995 1.00675 0.999365
1.01635 1 1.01735 0.999018
1.00061 1 1.00146 0.999151
1.00661 1 1.00786 0.99876
1.01327 1 1.01504 0.998248
1.00028 1 1.00145 0.998838
1.00332 1 1.005 0.998331
1.00313 1 1.0052 0.997943
1.00057 1.00078 1.00191 0.997884
0.999525 1 1.00108 0.998449
1.00009 1.00003 1.00189 0.998172
0.999604 1 1.00123 0.998379
0.999812 1 1.00101 0.998803
0.999203 1 1.00048 0.998723
0.999957 1 1.00098 0.998974
1.00025 1 1.00141 0.998848
0.999573 1 1.00092 0.998658
0.99939 1 1 0.99939
0.999164 1 1.00003 0.999133
0.999301 1 1.00037 0.998929
0.999884 1 1 0.999884
0.999499 1 1 0.999499
0.999199 1 1 0.999199
0.999572 1 1 0.999572
0.999913 1 1 0.999913
1 1 1 1
0.999926 1 1 0.999926
1 1 1 1
1 1 1 1
1 1 1 1
1 1 1 1
1 1 1 1
0.99954 1 1 0.99954
0.999892 1 1 0.999892
0.999556 1 1 0.999556
1 1 1 1
0.999898 1 1 0.999898
0.999625 1 1 0.999625
1 1 1 1
1 1 1 1
0.999907 1 1 0.999907
1 1 1 1
1 1 1 1
1 1 1 1
0.984935 0.989016 0.996841 0.999029
0.975324 0.97913 0.997433 0.998677
0.975631 0.979769 0.999238 0.996537
0.999296 1 1 0.999296
0.9992 1 1 0.9992
0.99936 1 1 0.99936
0.999311 1 1 0.999311
0.999212 1 1 0.999212
0.999216 1 1 0.999216
0.999137 1 1 0.999137
0.975422 0.978097 1.00057 0.996694
0.983467 0.986673 0.999229 0.99752
0.977667 0.978376 1.00216 0.997118
0.940619 0.990409 0.955434 0.994028
0.964255 0.970983 0.998698 0.994364
0.971833 0.968578 1.01316 0.990331
0.925729 0.948231 0.985829 0.990303
0.961439 0.970844 0.995856 0.994434
0.970318 0.966078 1.01555 0.989012
0.929615 0.956232 0.981482 0.990508
0.924882 0.969218 0.960742 0.993249
0.956367 0.96874 0.991325 0.995867
0.970597 0.969505 1.01251 0.988759
0.939745 0.965585 0.981643 0.991439
0.906904 0.957423 0.954866 0.992008
0.99912 1 1 0.99912
0.999068 1 1 0.999068
0.99907 1 1 0.99907
0.999197 1 1 0.999197
0.993649 0.996606 0.997572 0.999461
1.00261 0.993065 1.01011 0.999505
0.998993 1 1 0.998993
0.999762 1 1.0008 0.998961
1.0045 1 1.00545 0.999052
0.999055 1 1 0.999055
1.00193 1 1.00284 0.999089
0.996326 0.98338 1.01385 0.999327
0.994556 0.993454 1.00145 0.999658
0.999792 1 1.00064 0.999153
1.00261 0.980906 1.02281 0.99933
1.00388 0.996476 1.00808 0.999348
0.979264 0.981002 0.999285 0.998942
0.989416 0.99092 0.999042 0.99944
0.979386 0.980966 0.99923 0.99916
1.00594 0.996356 1.00982 0.999805
0.984789 0.976129 1.00958 0.999294
0.98196 0.988478 0.994161 0.999241
0.976168 0.967489 1.02058 0.988625
0.923546 0.950862 0.980969 0.990115
0.979034 0.980018 1.00187 0.997133
0.898702 0.950153 0.954572 0.990862
1.01239 0.984369 1.02863 0.999843
0.975102 0.979304 0.997007 0.998699
0.981162 0.986237 1.00009 0.994768
0.961028 0.971982 0.990585 0.998128
0.850312 0.909145 0.945091 0.989627
0.909605 0.949962 0.966644 0.990557
0.980565 0.970519 1.02108 0.989489
0.999379 0.983787 1.01634 0.999515
0.976342 0.981074 0.998598 0.996574
0.912516 0.936555 0.982374 0.991814
0.874265 0.92056 0.958434 0.990898
0.969921 0.965039 1.01577 0.989455
0.950044 0.967761 0.986661 0.994965
1.01239 0.99796 1.01487 0.99959
1.01884 0.997282 1.0221 0.999522
1.01328 1 1.01391 0.999386
1.00569 1 1.00629 0.999404
1.01603 0.999681 1.01729 0.999071
1.00986 1 1.01143 0.998444
1.00693 1 1.00825 0.99869
1.01263 1 1.01446 0.998205
1.00678 1.00017 1.00875 0.997874
1.00415 1 1.00585 0.998315
1.00336 1 1.00547 0.997903
1.00296 1.00172 1.00349 0.997757
1.0009 1.00304 1 0.997873
0.99946 1.00063 1.00077 0.998064
1.0008 1.00078 1.00218 0.997838
0.998766 1 1.00013 0.99864
0.999228 1 1.00074 0.998487
1.00007 1.00003 1.0019 0.998145
0.999745 1 1.0009 0.998841
0.99984 1 1.00105 0.998796
0.999207 1 1.00043 0.998782
0.999234 1 1 0.999234
0.999814 1 1.00082 0.998999
1.00029 1 1.00142 0.998874
0.999805 1 1 0.999805
0.99939 1 1 0.99939
0.999158 1 1.00002 0.999135
1 1 1 1
0.999879 1 1 0.999879
0.999498 1 1 0.999498
0.999909 1 1 0.999909
1 1 1 1
1 1 1 1
1 1 1 1
1 1 1 1
1 1 1 1
0.999292 1 1 0.999292
0.999506 1 1 0.999506
0.999867 1 1 0.999867
0.999539 1 1 0.999539
1 1 1 1
0.999896 1 1 0.999896
0.99957 1 1 0.99957
1 1 1 1
1 1 1 1
0.999924 1 1 0.999924
1 1 1 1
1 1 1 1
1 1 1 1
0.975585 0.979345 0.997479 0.998679
0.983276 0.988627 0.99545 0.999133
0.975694 0.9807 0.996199 0.998692
0.999304 1 1 0.999304
0.999187 1 1 0.999187
0.999129 1 1 0.999129
0.999188 1 1 0.999188
0.999117 1 1 0.999117
0.999309 1 1 0.999309
0.999196 1 1 0.999196
0.999217 1 1 0.999217
0.999133 1 1 0.999133
0.999166 1 1 0.999166
0.974882 0.979966 1.00001 0.994803
0.978771 0.980581 1.00145 0.996709
0.981186 0.984187 0.998965 0.997984
0.921638 0.966885 0.959609 0.993324
0.92985 0.95097 0.986003 0.991672
0.953207 0.965246 0.993781 0.993707
0.977056 0.973456 1.0146 0.989261
0.957932 0.969559 0.993736 0.994235
0.983222 0.977326 1.01703 0.989185
0.927485 0.958563 0.976346 0.991019
0.906876 0.958194 0.954466 0.991594
0.976132 0.976365 1.00467 0.995113
0.972606 0.972095 1.01112 0.989523
0.899355 0.942061 0.964388 0.989921
0.870987 0.929339 0.946404 0.990286
0.999368 1 1 0.999368
0.999122 1 1 0.999122
0.999067 1 1 0.999067
0.992735 0.98136 1.01266 0.99894
0.994641 0.993601 1.0013 0.999748
0.99905 1 1 0.99905
1.0031 1 1.00403 0.999075
1 1 1.00084 0.999161
1.0043 0.997422 1.00756 0.99934
1.00038 0.97967 1.0218 0.999357
1.00478 1 1.00541 0.999371
1.00208 0.987915 1.01523 0.999118
0.976064 0.980368 0.998857 0.996749
0.978415 0.980516 0.998793 0.999062
0.986212 0.988607 0.99805 0.999527
1.0163 0.985597 1.03131 0.999852
0.962798 0.974525 0.992284 0.995649
0.974943 0.980269 0.995848 0.998713
0.975171 0.971904 1.01594 0.987617
0.905576 0.944136 0.968789 0.990058
0.982503 0.986396 1.00131 0.994748
0.84377 0.908103 0.939638 0.988845
0.998034 0.982583 1.01615 0.999585
0.976988 0.981564 0.998754 0.99658
0.903747 0.930495 0.979623 0.991457
0.951007 0.969349 0.985153 0.995864
0.880678 0.925412 0.961462 0.989807
0.960224 0.962849 1.00875 0.988627
0.978971 0.9839 0.996002 0.998984
0.930627 0.943273 0.993402 0.993146
0.879058 0.917741 0.967568 0.989957
0.971353 0.971879 1.01029 0.989279
0.961519 0.970988 0.994182 0.996042
1.0178 0.995587 1.02281 0.999515
1.01514 0.99969 1.0161 0.99937
0.993217 1 0.994269 0.998941
1.0155 0.999381 1.01702 0.999124
1.01033 1.0003 1.01153 0.998515
1.00247 1.00159 1.00272 0.99816
1.01176 1 1.01362 0.998163
1.00552 1.00031 1.00734 0.997884
0.999466 1.00147 1.00003 0.997969
1.00343 1 1.00558 0.997862
1.00316 1.00269 1.0027 0.997771
1.00415 1.00617 1 0.99799
1.00481 1.00674 1 0.998091
1.00086 1.00291 1.00002 0.997933
1.00102 1.00314 1 0.997885
0.998523 1.00021 1 0.99831
0.999448 1.00035 1.00107 0.998023
1.00105 1.00082 1.00244 0.997792
0.998783 1 1 0.998783
0.998709 1 1.00002 0.998685
0.998841 1 1.00032 0.998524
0.999076 1 1 0.999076
0.999833 1 1.00098 0.998855
0.999883 1 1.0011 0.998789
0.999659 1 1 0.999659
0.999295 1 1.00006 0.999235
0.999691 1 1.00067 0.999024
1 1 1 1
0.999801 1 1 0.999801
0.999391 1 1 0.999391
1 1 1 1
1 1 1 1
0.999874 1 1 0.999874
1 1 1 1
1 1 1 1
1 1 1 1
0.999224 1 1 0.999224
0.999462 1 1 0.999462
0.999281 1 1 0.999281
0.999848 1 1 0.999848
0.999506 1 1 0.999506
1 1 1 1
0.99987 1 1 0.99987
0.999539 1 1 0.999539
1 1 1 1
1 1 1 1
0.999899 1 1 0.999899
1 1 1 1
1 1 1 1
1 1 1 1
0.978388 0.982558 0.998799 0.996954
0.974304 0.978607 0.996906 0.998693
0.982043 0.988126 0.994602 0.999238
0.99912 1 1 0.99912
0.999313 1 1 0.999313
0.999174 1 1 0.999174
0.999201 1 1 0.999201
0.999142 1 1 0.999142
0.999112 1 1 0.999112
0.999049 1 1 0.999049
0.999097 1 1 0.999097
0.999218 1 1 0.999218
0.999128 1 1 0.999128
0.99916 1 1 0.99916
0.999211 1 1 0.999211
0.904488 0.933375 0.97781 0.991042
0.977085 0.981535 1.00069 0.994776
0.981123 0.982043 1.00235 0.996724
0.902235 0.955966 0.952031 0.991348
0.934429 0.964397 0.9782 0.990519
0.971203 0.969069 1.01355 0.988808
0.959792 0.9685 0.995789 0.995199
0.97615 0.975624 1.00401 0.996546
0.858104 0.91924 0.943361 0.98954
0.97525 0.97089 1.0162 0.988478
0.903997 0.947209 0.963131 0.990914
0.970544 0.97673 0.996822 0.996835
0.966198 0.964069 1.01232 0.99001
0.876721 0.923542 0.95829 0.990622
1.00005 1 1.00041 0.99964
0.99937 1 1 0.99937
0.999125 1 1 0.999125
1.0012 0.981717 1.02048 0.999377
1.00545 0.99918 1.00694 0.999332
0.999964 1 1.0008 0.999168
1.00471 1 1.00534 0.999372
1.00073 0.988098 1.01363 0.999157
1.00434 0.995633 1.00939 0.999363
0.926822 0.942234 0.991245 0.99233
0.97603 0.979697 0.998993 0.997261
0.977867 0.979969 0.998671 0.999183
0.996549 0.981082 1.01612 0.999654
0.950449 0.971367 0.981875 0.996526
0.977892 0.98203 0.999195 0.996589
0.967637 0.965598 1.01191 0.990322
0.888547 0.934866 0.959495 0.990577
0.896124 0.929047 0.97309 0.991237
0.978436 0.984655 0.994644 0.999035
0.921583 0.941422 0.986046 0.992779
0.892627 0.922486 0.976525 0.990893
0.96114 0.968528 0.997956 0.994404
0.960939 0.968578 1.00237 0.989763
0.968424 0.990507 0.97836 0.999331
0.902262 0.931914 0.976882 0.991093
0.96327 0.973777 0.99898 0.990221
0.974917 0.98284 0.997732 0.994194
1.01781 0.999362 1.01912 0.999354
0.989657 1 0.990637 0.999011
0.982168 1.00187 0.981634 0.99868
1.01112 1.00051 1.01204 0.998586
1.00289 1.00185 1.0029 0.998154
1.00069 1.00292 0.999428 0.998346
1.00465 1.00048 1.00628 0.997894
0.999523 1.00108 1.00046 0.997984
1.00681 1.00849 1 0.998337
1.00346 1.00368 1.002 0.997786
1.00397 1.00599 1 0.997995
1.00905 1.01072 1 0.998355
1.00939 1.01105 1 0.998353
1.0042 1.00614 1 0.998067
1.00494 1.00684 1 0.99811
1.00029 1.00217 1 0.998127
1.00091 1.00295 1 0.997965
1.0011 1.00321 1 0.997896
0.998603 1 1 0.998603
0.998916 1.00046 1.00014 0.99832
0.999611 1.00015 1.00148 0.997981
0.998971 1 1 0.998971
0.998778 1 1 0.998778
0.99873 1 1 0.99873
0.999487 1 1 0.999487
0.999133 1 1.00005 0.999079
0.999909 1 1.00104 0.998868
0.999999 1 1 0.999999
0.999656 1 1 0.999656
0.999342 1 1.00011 0.999235
1 1 1 1
1 1 1 1
0.999796 1 1 0.999796
1 1 1 1
1 1 1 1
1 1 1 1
0.999203 1 1 0.999203
0.999226 1 1 0.999226
0.999404 1 1 0.999404
0.999826 1 1 0.999826
0.999463 1 1 0.999463
0.999271 1 1 0.999271
1 1 1 1
0.99985 1 1 0.99985
0.999505 1 1 0.999505
1 1 1 1
1 1 1 1
0.999873 1 1 0.999873
1 1 1 1
1 1 1 1
1 1 1 1
0.924454 0.938601 0.992521 0.992349
0.977373 0.981533 0.99879 0.996968
0.973357 0.97824 0.996296 0.998707
0.999108 1 1 0.999108
0.999065 1 1 0.999065
0.999045 1 1 0.999045
0.999213 1 1 0.999213
0.999155 1 1 0.999155
0.999107 1 1 0.999107
0.999094 1 1 0.999094
0.999047 1 1 0.999047
0.998975 1 1 0.998975
0.999192 1 1 0.999192
0.999153 1 1 0.999153
0.999209 1 1 0.999209
0.890381 0.921186 0.975567 0.990766
0.90117 0.929158 0.978921 0.990762
0.979784 0.983565 1.00141 0.994752
0.844489 0.90754 0.941072 0.988792
0.9031 0.944288 0.966151 0.989888
0.979909 0.975755 1.0137 0.990688
0.97788 0.973343 1.00978 0.99493
0.966936 0.973085 0.998322 0.995351
0.877225 0.918877 0.964651 0.989655
0.96042 0.961852 1.0085 0.99009
0.9675 0.97394 0.9976 0.995778
0.962267 0.971038 1.00141 0.989569
1.00736 1 1.00819 0.99918
0.999871 1 1.00027 0.999604
0.999372 1 1 0.999372
0.996432 0.985338 1.01207 0.999196
1.00487 1 1.0055 0.999373
1.00513 0.996717 1.00918 0.999271
0.998852 1.00067 0.999528 0.998654
0.899018 0.937563 0.967682 0.990912
0.93091 0.942851 0.994404 0.992891
0.976602 0.979607 0.999161 0.99777
0.976899 0.98528 0.992383 0.999104
0.960696 0.968178 0.996918 0.99534
0.922034 0.94227 0.985597 0.992824
0.962705 0.967484 1.00577 0.989355
0.894645 0.927998 0.97368 0.990119
0.97185 0.991111 0.981516 0.999033
0.90447 0.934976 0.976617 0.990534
0.965987 0.975398 1.00083 0.989526
0.97802 0.981107 1.00129 0.995569
0.98582 0.997956 0.988707 0.999123
0.959416 0.976963 0.99269 0.989271
0.983745 0.990507 0.996758 0.996404
0.986038 1 0.986946 0.99908
0.982934 1.00216 0.982134 0.99866
0.983324 1.00483 0.979979 0.998589
1.00306 1.0022 1.00272 0.998147
1.00026 1.00328 0.998648 0.99834
1.00741 1.01151 0.997227 0.998712
0.999347 1.00062 1.00073 0.997999
1.00677 1.00845 1 0.998332
1.01368 1.01505 1 0.998654
1.00375 1.00576 1 0.998
1.00853 1.0102 1 0.998355
1.01125 1.01269 1 0.99858
1.00935 1.01086 1 0.9985
1.00922 1.01085 1 0.998383
1.00752 1.00925 1 0.998293
1.00365 1.00551 1 0.998156
1.00459 1.00653 1 0.99807
1.00507 1.00695 1 0.99813
0.998941 1.00058 1 0.998358
1.00062 1.00246 1 0.998159
1.00093 1.00293 1 0.997998
0.998845 1 1 0.998845
0.998642 1.00005 1 0.998597
0.999147 1.00065 1.00017 0.99833
0.999355 1 1 0.999355
0.998971 1 1 0.998971
0.998774 1 1 0.998774
0.99998 1 1 0.99998
0.999486 1 1 0.999486
0.999203 1 1.00012 0.999082
1 1 1 1
0.999995 1 1 0.999995
0.999653 1 1 0.999653
1 1 1 1
1 1 1 1
1 1 1 1
0.999134 1 1 0.999134
0.99919 1 1 0.99919
0.999339 1 1 0.999339
0.999228 1 1 0.999228
0.999403 1 1 0.999403
0.999782 1 1 0.999782
1 1 1 1
0.999828 1 1 0.999828
0.999463 1 1 0.999463
1 1 1 1
1 1 1 1
0.999853 1 1 0.999853
1 1 1 1
1 1 1 1
1 1 1 1
0.909515 0.934459 0.982601 0.990541
0.924363 0.940573 0.990653 0.992038
0.975637 0.979751 0.998816 0.996982
0.999096 1 1 0.999096
0.999024 1 1 0.999024
0.999086 1 1 0.999086
0.998956 1 1 0.998956
0.998988 1 1 0.998988
0.999092 1 1 0.999092
0.999045 1 1 0.999045
0.998987 1 1 0.998987
0.998901 1 1 0.998901
0.999037 1 1 0.999037
0.99897 1.00019 1.00026 0.998523
0.999309 1 1.00009 0.999223
0.999207 1 1 0.999207
0.962071 0.978097 0.994618 0.988937
0.894259 0.921823 0.979407 0.990495
0.902808 0.931962 0.97788 0.990629
0.877075 0.918781 0.963865 0.990395
0.966746 0.964408 1.01431 0.988284
0.969097 0.971692 1.00038 0.99695
0.970031 0.976012 0.997182 0.99668
0.964289 0.972536 1.00133 0.990206
0.982181 0.994046 0.992348 0.995683
1.00316 1.00132 1.00343 0.998412
1.00582 1 1.00666 0.999162
0.999568 1 1 0.999568
1.00566 0.99845 1.00804 0.999189
0.999152 1.00101 0.999555 0.998586
0.948858 0.973842 0.984037 0.990151
0.905711 0.937437 0.975434 0.990489
0.935444 0.943489 0.998002 0.993458
0.975181 0.991884 0.984416 0.998725
0.973162 0.976167 1.00268 0.994253
0.905126 0.933437 0.979182 0.990287
0.967808 0.974758 1.00275 0.990151
0.984207 0.998592 0.98647 0.999113
0.960661 0.977613 0.992172 0.990413
0.985162 0.992062 0.998067 0.994968
1.00077 1.00557 0.99659 0.998639
0.991098 0.996936 0.996597 0.997538
0.983548 1.0026 0.982333 0.998642
0.985495 1.00435 0.982653 0.998545
1.00334 1.01933 0.985653 0.998639
1.00003 1.00358 0.998123 0.998335
1.00623 1.01037 0.997193 0.998704
1.01368 1.01871 0.99625 0.99881
1.00667 1.00836 1 0.998328
1.01377 1.01527 0.999879 0.99864
1.01406 1.01545 0.999938 0.998699
1.00809 1.00975 1 0.998355
1.01133 1.01278 1 0.998567
1.00958 1.01103 1 0.998566
1.00969 1.01118 1 0.998532
1.00819 1.00981 1 0.998394
1.00909 1.0107 1 0.998413
1.00739 1.00911 1 0.998287
1.00461 1.00637 1 0.998251
1.00019 1.00191 1 0.998275
1.00348 1.00534 1 0.998149
1.00491 1.00685 1 0.998073
0.998676 1 1 0.998676
0.999059 1.00068 1 0.998378
1.00101 1.00283 1 0.998191
0.99925 1 1 0.99925
0.998841 1 1 0.998841
0.998709 1.00012 1 0.998591
0.999932 1 1 0.999932
0.999357 1 1 0.999357
0.998971 1 1 0.998971
1 1 1 1
0.999968 1 1 0.999968
0.999486 1 1 0.999486
1 1 1 1
0.999991 1 1 0.999991
1 1 1 1
0.998986 1 1 0.998986
0.999134 1 1 0.999134
0.999234 1 1 0.999234
0.999178 1 1 0.999178
0.999321 1 1 0.999321
0.999695 1 1 0.999695
0.999403 1 1 0.999403
0.999784 1 1 0.999784
1 1 1 1
1 1 1 1
1 1 1 1
0.999829 1 1 0.999829
1 1 1 1
1 1 1 1
1 1 1 1
0.962491 0.978338 0.993314 0.990425
0.903323 0.93677 0.973046 0.991007
0.93169 0.944698 0.994105 0.99208
0.999004 1 1 0.999004
0.999107 1 1 0.999107
0.998998 1 1 0.998998
0.998963 1 1 0.998963
0.998802 1 1.00002 0.99878
0.998951 1 1 0.998951
0.999 1 1 0.999
0.998848 1 1 0.998848
0.999099 1 1.00009 0.999006
0.998754 1 1 0.998754
1.00074 1.00213 1 0.998606
0.999076 1.00108 0.999944 0.998057
0.999328 1.00069 1.00006 0.998587
0.99944 1 1.00019 0.999253
0.980123 0.991528 0.992612 0.995854
0.962582 0.977083 0.995291 0.98982
0.888891 0.9228 0.972887 0.9901
0.973074 0.976036 1.0077 0.989347
0.968455 0.977285 0.993529 0.997419
0.986813 0.995491 0.993983 0.997283
0.994956 1.00429 0.992116 0.998578
1.00064 1.00067 1.00147 0.998503
1.00477 1 1.00563 0.999143
0.997558 1.00112 0.997932 0.998506
0.977615 0.985929 0.995823 0.995727
0.955677 0.974016 0.990169 0.990913
0.900829 0.934814 0.972155 0.991245
0.984713 1.00014 0.985462 0.999101
0.991145 0.99329 1.00179 0.996056
0.961739 0.978316 0.991394 0.99159
0.994815 1.00455 0.991651 0.998648
0.989026 0.996226 0.995772 0.996987
1.00865 1.02096 0.989516 0.998406
1.00754 1.01456 0.994736 0.998331
0.987577 1.00375 0.985363 0.9985
1.00475 1.01939 0.986991 0.998631
1.0103 1.02239 0.989523 0.998639
1.00517 1.0095 0.997009 0.998695
1.01362 1.01829 0.996609 0.998799
1.01245 1.01631 0.997583 0.998622
1.01396 1.0156 0.999759 0.998626
1.01367 1.01515 0.999849 0.998686
1.01101 1.01259 0.999944 0.998493
1.01135 1.01281 1 0.998554
1.00921 1.01066 1 0.99857
1.00898 1.01062 1 0.998373
1.01002 1.01147 1 0.998564
1.0079 1.0095 1 0.998416
1.00501 1.00674 1 0.998282
1.00728 1.00901 1 0.998282
1.00453 1.0063 1 0.998245
1.00053 1.00221 1 0.998317
0.998522 1 1 0.998522
1.00015 1.00186 1 0.998294
1.00331 1.00518 1 0.998142
0.999117 1 1 0.999117
0.998675 1 1 0.998675
0.999168 1.00077 1 0.998399
0.999861 1 1 0.999861
0.999249 1 1 0.999249
0.998837 1 1 0.998837
1 1 1 1
0.999919 1 1 0.999919
0.999358 1 1 0.999358
1 1 1 1
0.999956 1 1 0.999956
1 1 1 1
0.998826 1 1 0.998826
0.998998 1 1 0.998998
0.999122 1 1 0.999122
0.999135 1 1 0.999135
0.999221 1 1 0.999221
0.999573 1 1 0.999573
0.999303 1 1 0.999303
0.999696 1 1 0.999696
0.999998 1 1 0.999998
0.999785 1 1 0.999785
1 1 1 1
1 1 1 1
1 1 1 1
1 1 1 1
1 1 1 1
0.974664 0.986272 0.992158 0.996042
0.956971 0.976383 0.990029 0.989989
0.899437 0.93442 0.971986 0.990304
0.999406 1.00078 1.00007 0.99856
0.999008 1 1 0.999008
0.998971 1 1 0.998971
0.998939 1 1 0.998939
0.998893 1 1.00012 0.99877
0.999007 1.00008 1 0.998922
0.998795 1 1 0.998795
0.999148 1 1.00017 0.998975
0.998795 1 1 0.998795
1.00005 1.00145 1 0.998603
1.00108 1.00295 1 0.998141
1.00364 1.0058 0.999965 0.997892
1.00001 1.00186 1.00013 0.998023
0.999952 1.0013 1 0.998651
0.999769 1.00619 0.994641 0.998972
0.980858 0.992827 0.992717 0.995193
0.965541 0.977912 0.996435 0.990882
0.98363 0.993078 0.994426 0.996038
0.999514 1.00624 0.994547 0.998765
1.00018 1.0002 1.00139 0.998596
1.0029 1.00668 0.997753 0.998484
0.976928 0.984287 0.995711 0.996798
0.952767 0.975076 0.986778 0.990214
0.988142 1.00283 0.986686 0.998654
0.988854 0.99621 0.996251 0.996351
1.00817 1.02156 0.988462 0.998413
1.00701 1.01271 0.995929 0.998429
1.01516 1.0256 0.991426 0.998382
1.01456 1.01835 0.997942 0.998325
1.00629 1.01937 0.988531 0.998624
1.01205 1.02336 0.990282 0.998647
1.00729 1.01527 0.993643 0.99849
1.01346 1.01768 0.997062 0.998788
1.01367 1.01711 0.998 0.99862
1.01109 1.01342 0.999338 0.998371
1.0133 1.01489 0.999765 0.998674
1.01113 1.01267 0.999972 0.99851
1.01037 1.01213 1 0.998259
1.00887 1.01031 1 0.998574
1.00855 1.01019 1 0.998374
1.00686 1.00865 1 0.99823
1.00762 1.0092 1 0.998438
1.00512 1.00684 1 0.998291
1.00067 1.00239 1 0.998275
1.00445 1.00622 1 0.998239
1.00053 1.00223 1 0.9983
0.998505 1.00002 1 0.998488
0.998995 1 1 0.998995
0.998544 1 1 0.998544
1.00011 1.0018 1 0.998314
0.999776 1 1 0.999776
0.999116 1 1 0.999116
0.998675 1 1 0.998675
1 1 1 1
0.99985 1 1 0.99985
0.999248 1 1 0.999248
1 1 1 1
0.999905 1 1 0.999905
1 1 1 1
0.998605 1 1 0.998605
0.99883 1 1 0.99883
0.998994 1 1 0.998994
0.99901 1 1 0.99901
0.999129 1 1 0.999129
0.999454 1 1 0.999454
0.999208 1 1 0.999208
0.999573 1 1 0.999573
0.999984 1 1 0.999984
0.999697 1 1 0.999697
0.999999 1 1 0.999999
1 1 1 1
1 1 1 1
1 1 1 1
1 1 1 1
1.00506 1.01031 0.995813 0.998979
0.974225 0.986908 0.992366 0.994742
0.96094 0.97485 0.995079 0.990606
1.00039 1.00173 1.00001 0.998654
1.00206 1.00378 1 0.998289
0.999121 1.0004 1.00013 0.998591
0.998928 1 1 0.998928
0.999004 1 1.00024 0.998759
0.999162 1.00028 1 0.99888
1.0023 1.00403 1 0.998276
0.998837 1 1 0.998837
0.999191 1.00059 1 0.998599
1.0012 1.00302 1 0.998183
1.00591 1.00811 1 0.997821
1.0117 1.01465 0.998882 0.998211
1.00285 1.00514 0.99984 0.997884
1.00058 1.0026 1 0.997989
1.00297 1.00889 0.99508 0.999042
0.979581 0.991978 0.993073 0.994391
1.00155 1.00762 0.995015 0.998955
1.01391 1.01666 0.998516 0.998776
1.00191 1.00539 0.997987 0.998546
0.97447 0.984744 0.994151 0.995388
1.00761 1.02226 0.987221 0.998421
1.0059 1.01091 0.996518 0.998528
1.01384 1.02563 0.99007 0.998425
1.01676 1.0201 0.998385 0.998341
1.01128 1.01853 0.994504 0.998366
1.02113 1.02389 0.998845 0.998464
1.01343 1.02447 0.990556 0.998655
1.00732 1.01499 0.993944 0.998494
1.01323 1.01753 0.997484 0.998282
1.01482 1.01787 0.998388 0.998617
1.01125 1.01336 0.999549 0.998371
1.0125 1.01435 1 0.99818
1.01119 1.01269 0.999994 0.998527
1.01008 1.01184 1 0.998257
1.00975 1.01164 1 0.99813
1.00812 1.00976 1 0.998374
1.0069 1.00869 1 0.99823
1.00154 1.00334 1 0.998207
1.00523 1.00694 1 0.998301
1.0008 1.00253 1 0.998276
0.998492 1.00006 1 0.998433
1.00052 1.00224 1 0.998284
0.998492 1.00001 1 0.998479
0.998917 1 1 0.998917
0.999704 1 1 0.999704
0.998995 1 1 0.998995
0.998567 1 1 0.998567
1 1 1 1
0.999765 1 1 0.999765
0.999115 1 1 0.999115
1 1 1 1
0.999839 1 1 0.999839
1 1 1 1
0.998849 1.00049 1 0.998358
0.99858 1 1 0.99858
0.998799 1 1 0.998799
0.998833 1 1 0.998833
0.998998 1 1 0.998998
0.999339 1 1 0.999339
0.999136 1 1 0.999136
0.999454 1 1 0.999454
0.999946 1 1 0.999946
0.999573 1 1 0.999573
0.999989 1 1 0.999989
1 1 1 1
1 1 1 1
1 1 1 1
1 1 1 1
1.01249 1.01659 0.997378 0.998587
1.00323 1.00939 0.995098 0.99879
0.973139 0.986062 0.991329 0.995527
1.00527 1.00701 1 0.998269
0.999709 1.0009 1 0.99881
1.00863 1.01053 1 0.998117
1.00187 1.0036 1 0.998274
0.998826 1.00002 1.00018 0.998623
1.01166 1.01378 1 0.997904
0.999311 1.00047 1 0.998839
1.00238 1.00416 1 0.998228
1.01573 1.01779 1 0.997976
1.00126 1.00304 1 0.998225
1.00648 1.0087 1 0.997797
1.0105 1.01315 0.999159 0.998217
1.0017 1.00384 1 0.997875
1.00553 1.01089 0.995583 0.999116
1.02126 1.02309 0.999667 0.998553
1.01367 1.01651 0.998424 0.998775
1.00123 1.00409 0.998548 0.998606
1.01266 1.02569 0.988804 0.998468
1.01838 1.02141 0.998671 0.998356
1.0117 1.01906 0.994399 0.998378
1.02181 1.02492 0.99849 0.998472
1.02123 1.02439 0.998543 0.998366
1.00739 1.01462 0.994369 0.998499
1.01342 1.01722 0.997975 0.998288
1.01571 1.01817 0.999422 0.998162
1.01142 1.01333 0.999739 0.998372
1.01199 1.01385 1 0.998166
1.01234 1.01433 1 0.998044
1.0098 1.01157 1 0.998256
1.00956 1.01145 1 0.998128
1.00348 1.00537 1 0.998112
1.00695 1.00873 1 0.99823
1.00182 1.00362 1 0.998207
0.998564 1.00022 1 0.998346
1.00094 1.00266 1 0.998278
0.998512 1.00008 1 0.998435
0.998846 1 1 0.998846
0.998477 1.00001 1 0.998469
0.998916 1 1 0.998916
0.999702 1 1 0.999702
0.999934 1 1 0.999934
0.999712 1 1 0.999712
0.998995 1 1 0.998995
1 1 1 1
0.999755 1 1 0.999755
1 1 1 1
1.0108 1.01266 1 0.99816
1.00144 1.00318 1 0.998261
0.998589 1.00025 1 0.998337
0.998636 1.00001 1 0.998626
0.998556 1 1 0.998556
0.998804 1 1 0.998804
0.999213 1 1 0.999213
0.999002 1 1 0.999002
0.999341 1 1 0.999341
0.999886 1 1 0.999886
0.999453 1 1 0.999453
0.999959 1 1 0.999959
1 1 1 1
0.999994 1 1 0.999994
1 1 1 1
1 1 1 1
1.02095 1.02277 0.999899 0.998325
1.01638 1.02006 0.997721 0.998666
1.00288 1.00962 0.99472 0.9986
1.01359 1.01564 1 0.99798
1.00434 1.006 1 0.998348
0.999013 1.00005 1 0.998963
1.00907 1.01095 1 0.998141
1.00168 1.00343 1 0.998258
1.01881 1.02091 1 0.997952
1.01101 1.01316 1 0.997871
1.0026 1.00443 1 0.998178
1.01577 1.01783 1 0.99797
1.00803 1.01028 1 0.997773
1.01144 1.01401 0.999239 0.998225
1.02365 1.02555 0.999693 0.998451
1.02234 1.02406 0.999763 0.998553
1.01413 1.01668 0.998717 0.998775
1.01249 1.01993 0.994308 0.998389
1.02283 1.02615 0.998278 0.99848
1.02116 1.02495 0.997919 0.998381
1.02081 1.02264 1 0.998207
1.01366 1.01691 0.998513 0.998294
1.01574 1.01789 0.99973 0.998156
1.01476 1.01676 1 0.998026
1.01147 1.01334 1 0.998153
1.01239 1.01438 1 0.998044
1.00616 1.00815 1 0.99803
1.00938 1.01127 1 0.998127
1.00373 1.00563 1 0.998112
0.998932 1.00068 1 0.998251
1.00208 1.00388 1 0.998207
0.998669 1.00032 1 0.998347
0.998758 1 1 0.998758
0.998531 1.00009 1 0.998436
0.998844 1 1 0.998844
0.999692 1 1 0.999692
0.998914 1 1 0.998914
0.999698 1 1 0.999698
0.999934 1 1 0.999934
0.999968 1 1 0.999968
0.999721 1 1 0.999721
1 1 1 1
1.0134 1.01544 1 0.997996
1.00263 1.00438 1 0.998265
1.01039 1.01217 1 0.998249
0.998596 1.00011 1 0.998487
1.00182 1.00357 1 0.998258
0.998321 1.00001 1 0.998315
0.998629 1 1 0.998626
0.999071 1 1 0.999071
0.998809 1 1 0.998809
0.999216 1 1 0.999216
0.99981 1 1 0.99981
0.999343 1 1 0.999343
0.999901 1 1 0.999901
1 1 1 1
0.999971 1 1 0.999971
1 1 1 1
1 1 1 1
1.02119 1.02303 1 0.998203
1.02 1.02185 0.999865 0.998323
1.01822 1.02167 0.997878 0.998741
1.01805 1.02016 1 0.997937
1.0131 1.01515 1 0.997984
1.00341 1.00499 1 0.998428
1.00948 1.01134 1 0.998165
1.01851 1.02062 1 0.99794
1.01012 1.01231 1 0.997838
1.01382 1.01589 1 0.997963
1.02249 1.02426 1 0.998271
1.02328 1.02521 0.999703 0.998415
1.02326 1.02498 0.999763 0.998553
1.01976 1.02167 1 0.998134
1.02098 1.02547 0.997228 0.998397
1.02056 1.02259 0.999809 0.998206
1.01679 1.01875 1 0.998075
1.01577 1.01765 1 0.99815
1.01489 1.01689 1 0.998028
1.00889 1.01093 1 0.997982
1.01243 1.01441 1 0.998044
1.00619 1.00817 1 0.99803
0.999772 1.00161 1 0.998169
1.00398 1.00588 1 0.998111
0.999168 1.00092 1 0.998251
0.998668 1 1 0.998668
0.998773 1.00043 1 0.998347
0.998756 1 1 0.998756
0.999673 1 1 0.999673
0.998843 1 1 0.998843
0.999686 1 1 0.999686
0.999936 1 1 0.999936
0.999694 1 1 0.999694
0.999936 1 1 0.999936
1 1 1 1
1.01418 1.01632 1 0.997898
1.00551 1.00745 1 0.998074
1.01368 1.01569 1 0.998023
0.998703 1.00026 1 0.998439
1.00258 1.00432 1 0.998262
1.01001 1.0117 1 0.998337
0.99892 1 1 0.99892
0.998612 1.00013 1 0.998484
1.00222 1.00398 1 0.998255
0.998627 1 1 0.998625
0.999073 1 1 0.999073
0.999729 1 1 0.999729
0.999218 1 1 0.999218
0.999822 1 1 0.999822
1 1 1 1
0.999916 1 1 0.999916
1 1 1 1
1 1 1 1
1.02029 1.02224 1 0.998098
1.02152 1.02338 1 0.998186
1.02037 1.02222 0.999868 0.998321
1.0176 1.0197 1 0.99794
1.01266 1.0147 1 0.997988
1.01855 1.02066 1 0.997929
1.01941 1.02132 1 0.998136
1.02239 1.02417 1 0.998264
1.02268 1.02464 0.999713 0.998379
1.01993 1.02182 1 0.998145
1.01667 1.01867 1 0.998044
1.02028 1.02248 0.999646 0.998204
1.01664 1.01862 1 0.99806
1.01088 1.01292 1 0.997992
1.01498 1.01699 1 0.99803
1.00867 1.01071 1 0.997985
1.0011 1.003 1 0.998099
1.00625 1.00824 1 0.998031
1.00017 1.00201 1 0.998168
0.998598 1 1 0.998598
0.999411 1.00116 1 0.99825
0.998667 1 1 0.998667
0.999641 1 1 0.999641
0.998754 1 1 0.998754
0.999666 1 1 0.999666
0.999928 1 1 0.999928
0.999682 1 1 0.999682
0.999939 1 1 0.999939
0.999935 1 1 0.999935
1.01612 1.01814 1 0.998021
1.0077 1.00978 1 0.99794
1.01444 1.01657 1 0.9979
0.999655 1.00138 1 0.998277
1.00531 1.00724 1 0.998084
1.01389 1.01587 1 0.998051
0.998799 1 1 0.998799
0.998608 1.00021 1 0.998399
1.0025 1.00425 1 0.998259
0.999661 1 1 0.999661
0.998922 1 1 0.998922
0.998619 1.00014 1 0.99848
0.999075 1 1 0.999075
0.999738 1 1 0.999738
1 1 1 1
0.999833 1 1 0.999833
1 1 1 1
1 1 1 1
1.01784 1.01981 1 0.998067
1.01998 1.02193 1 0.998096
1.02169 1.02356 1 0.99817
1.01715 1.01925 1 0.997943
1.01727 1.01929 1 0.998014
1.01987 1.02177 1 0.998143
1.02232 1.0241 1 0.998257
1.02009 1.02198 1 0.998156
1.01659 1.01858 1 0.998049
1.01068 1.01271 1 0.997997
1.01655 1.01854 1 0.998044
1.01064 1.01267 1 0.997989
1.00249 1.00445 1 0.99805
1.00843 1.01046 1 0.997988
1.00155 1.00346 1 0.9981
0.998532 1 1 0.998532
1.00055 1.00239 1 0.998168
0.998597 1 1 0.998597
0.999564 1 1 0.999564
0.998665 1 1 0.998665
0.999616 1 1 0.999616
1 1 1 1
0.999659 1 1 0.999659
0.999934 1 1 0.999934
0.999941 1 1 0.999941
1.01555 1.01753 1 0.998053
1.0089 1.01094 1 0.997979
1.01589 1.0179 1 0.998021
1.00126 1.00317 1 0.998104
1.00773 1.00979 1 0.99796
1.01476 1.01689 1 0.997902
0.998627 1 1 0.998627
0.999662 1.00139 1 0.998276
1.00514 1.00706 1 0.998095
0.999619 1 1 0.999619
0.998764 1 1 0.998764
0.998517 1.00016 1 0.99836
1 1 1 1
0.999671 1 1 0.999671
0.998924 1 1 0.998924
0.999748 1 1 0.999748
1 1 1 1
1 1 1 1
1.01683 1.01885 1 0.99802
1.0183 1.02026 1 0.998076
1.01966 1.02161 1 0.998095
1.01146 1.01354 1 0.997951
1.01659 1.01861 1 0.998016
1.02033 1.02222 1 0.99815
1.0165 1.01848 1 0.998055
1.01075 1.01278 1 0.997998
1.00285 1.00478 1 0.99808
1.01037 1.01241 1 0.997987
1.00272 1.00465 1 0.998081
0.998408 1 1 0.998408
1.00202 1.00393 1 0.998102
0.998532 1 1 0.998532
0.999517 1 1 0.999517
0.998596 1 1 0.998596
0.999561 1 1 0.999561
1 1 1 1
0.999587 1 1 0.999587
0.999961 1 1 0.999961
0.999939 1 1 0.999939
1.01389 1.01588 1 0.998038
1.00933 1.01134 1 0.998016
1.01548 1.01746 1 0.998054
1.00194 1.00384 1 0.99811
1.00922 1.01127 1 0.997977
1.01565 1.01766 1 0.998021
0.998527 1 1 0.998527
1.00118 1.00304 1 0.998146
1.00772 1.00976 1 0.997979
0.99959 1 1 0.99959
0.998614 1 1 0.998614
0.999667 1.0014 1 0.998274
1 1 1 1
0.999627 1 1 0.999627
0.99873 1 1 0.99873
1 1 1 1
0.999681 1 1 0.999681
1 1 1 1
1.01168 1.01372 1 0.99798
1.01636 1.01838 1 0.998017
1.01878 1.02074 1 0.998085
1.00238 1.00434 1 0.998055
1.01149 1.01356 1 0.99796
1.01598 1.018 1 0.998018
1.01083 1.01286 1 0.997998
1.00288 1.00481 1 0.99808
0.998359 1 1 0.998359
1.00295 1.00485 1 0.998113
0.998439 1 1 0.998439
0.999452 1 1 0.999452
0.998532 1 1 0.998532
0.999514 1 1 0.999514
1 1 1 1
0.999559 1 1 0.999559
1 1 1 1
0.999929 1 1 0.999929
1.0094 1.01139 1 0.998033
1.01405 1.01604 1 0.998041
1.00156 1.00345 1 0.998112
1.0092 1.01121 1 0.998016
1.01541 1.01739 1 0.998055
0.998538 1 1 0.998538
1.00187 1.00377 1 0.998107
1.00954 1.01159 1 0.997976
0.999557 1 1 0.999557
0.998551 1 1 0.998551
1.00109 1.00291 1 0.998187
1 1 1 1
0.999596 1 1 0.999596
0.998601 1 1 0.998601
1 1 1 1
0.999635 1 1 0.999635
1 1 1 1
1.0021 1.00402 1 0.998088
1.01158 1.01363 1 0.997979
1.01581 1.01783 1 0.998015
0.998347 1 1 0.998347
1.0024 1.00436 1 0.998055
1.01147 1.01353 1 0.997969
1.0029 1.00483 1 0.99808
0.998363 1 1 0.998363
0.999399 1 1 0.999399
0.998471 1 1 0.998471
0.999449 1 1 0.999449
1 1 1 1
0.99951 1 1 0.99951
1 1 1 1
1 1 1 1
1.00133 1.00324 1 0.998101
1.0091 1.01109 1 0.998032
1.01422 1.0162 1 0.998044
0.998511 1 1 0.998511
1.00176 1.00366 1 0.99811
1.00905 1.01106 1 0.998016
0.999519 1 1 0.999519
0.998536 1 1 0.998536
1.00182 1.00372 1 0.998105
1 1 1 1
0.999561 1 1 0.999561
0.998575 1 1 0.998575
1 1 1 1
0.999601 1 1 0.999601
1 1 1 1
0.998421 1 1 0.998421
1.00209 1.00404 1 0.998056
1.01153 1.01358 1 0.997978
0.999385 1 1 0.999385
0.998347 1 1 0.998347
1.00242 1.00438 1 0.998055
0.998367 1 1 0.998367
0.999397 1 1 0.999397
1 1 1 1
0.999445 1 1 0.999445
1 1 1 1
1 1 1 1
0.998469 1 1 0.998469
1.0014 1.00331 1 0.998091
1.00883 1.01082 1 0.998031
0.999546 1 1 0.999546
0.998509 1 1 0.998509
1.00197 1.00387 1 0.998108
1 1 1 1
0.99952 1 1 0.99952
0.998535 1 1 0.998535
1 1 1 1
0.999564 1 1 0.999564
1 1 1 1
0.999386 1 1 0.999386
0.998396 1 1 0.998396
1.00207 1.00406 1 0.998024
1 1 1 1
0.999385 1 1 0.999385
0.998348 1 1 0.998348
0.999395 1 1 0.999395
1 1 1 1
1 1 1 1
0.999498 1 1 0.999498
0.998469 1 1 0.998469
1.00145 1.00337 1 0.998081
1 1 1 1
0.99948 1 1 0.99948
0.998507 1 1 0.998507
1 1 1 1
0.999521 1 1 0.999521
1 1 1 1
0.999848 1 1 0.999848
0.999438 1 1 0.999438
0.99837 1 1 0.99837
1 1 1 1
0.999385 1 1 0.999385
1 1 1 1
0.999866 1 1 0.999866
0.99947 1 1 0.99947
0.99847 1 1 0.99847
0.999938 1 1 0.999938
0.999478 1 1 0.999478
1 1 1 1
1 1 1 1
0.999401 1 1 0.999401
1 1 1 1
0.999929 1 1 0.999929
0.999437 1 1 0.999437
1 1 1 1
1 1 1 1
1 1 1 1

VECTORS lamdaE float
0.999786 1.00018 0.995591
0.999699 1.00016 0.998
0.999556 1.00037 0.99572
1.00005 0.999922 0.995464
0.99986 1 0.995676
0.999763 1.00026 0.995457
1.00095 1.00051 0.992947
0.99967 1.00003 0.998056
0.99965 1.00024 0.998152
0.999351 1.00056 0.998193
0.999677 0.999799 0.996141
1.00064 1.00114 0.992416
1.00006 1.00002 0.995286
0.999786 0.999959 0.995585
0.999349 1.00059 0.995822
0.999874 0.9999 0.99564
0.999531 1.00053 0.995582
0.99966 1.00008 0.99582
1.00109 1.00037 0.992889
1.00003 1 0.997814
1.00009 0.999979 0.995321
0.999979 0.999901 0.995607
1.00133 0.999957 0.992825
1.00112 1.00014 0.993017
0.999663 1 0.995753
1.00073 1.00104 0.992778
1.00337 1.00036 0.988958
0.999617 0.999929 0.998133
0.999769 1.00011 0.99683
0.999522 1.00042 0.99686
0.99962 0.999606 0.998256
1.00053 1.00126 0.99243
1.00001 0.999845 0.995477
0.999775 1.00038 0.995497
1.00143 1.00016 0.993173
0.999391 0.998989 0.998712
1.00105 1.00083 0.993233
1.00032 1.00112 0.992995
1.00211 1.00219 0.988767
0.999479 0.998196 0.998976
1.00006 1.00001 0.997777
0.999916 0.999986 0.996697
1.00005 1 0.997778
0.999769 1.00002 0.995587
1.00158 1.00006 0.991769
0.999811 0.999953 0.99809
1.00163 1.00008 0.992917
0.999694 0.999843 0.995817
0.999472 1.00017 0.995949
0.999292 1.00086 0.995699
1.00122 1.0002 0.992843
0.999936 1.00001 0.996674
0.999906 0.999972 0.995509
0.999479 1.00023 0.995871
0.9998 0.9999 0.995768
1.00141 0.999916 0.992758
1.00085 1.00093 0.992732
1.00123 1.00005 0.992963
1.00336 1.00037 0.98896
1.00002 1 0.997806
1.0001 1.00001 0.99528
1.00143 1.00001 0.993221
1.00139 1 0.992685
1.00127 0.999955 0.992949
1.00372 0.999904 0.988718
1.00353 0.999978 0.988732
0.999628 0.999312 0.996412
1.00004 1.00146 0.993348
1.00293 1.00117 0.988913
1.00451 0.999927 0.986664
0.999911 1.00014 0.997915
0.999557 0.999387 0.998409
0.999676 1.00024 0.997977
1.00044 1.00133 0.99245
1.00002 0.999973 0.997895
0.999819 1.00031 0.997927
1.00134 1.00012 0.992058
0.999466 0.999067 0.997739
1.00085 1.00092 0.992144
1.00019 1.00117 0.993641
1.00212 1.00214 0.988762
0.999544 0.998564 0.998763
0.99962 0.999681 0.995683
1.00152 0.99994 0.991975
1.00124 1.00042 0.992042
1.00372 1.00016 0.987831
0.999949 1.00074 0.994974
1.00289 1.00119 0.98833
1.00123 1.00306 0.989534
1.00306 1.00236 0.986788
0.999474 0.997863 0.999117
0.999435 0.998128 0.999037
1.00006 0.999969 0.997834
1.00006 1 0.997786
1.00006 1 0.997776
0.99991 1 0.996691
1.0016 1.00004 0.992381
0.99992 0.999954 0.996746
1.00158 1.0001 0.992372
1.00006 0.999999 0.997782
1.00153 0.99999 0.991879
1.00163 1.0001 0.992915
1.00395 0.999814 0.98778
1.00158 0.999984 0.993058
1.00392 0.999967 0.987693
1.00003 1.00001 0.995356
0.999715 0.999958 0.995702
0.999269 1.00047 0.996025
0.999623 0.999884 0.995924
1.00149 0.99991 0.99269
1.00133 0.999952 0.992915
1.00098 1.00077 0.992689
1.00335 1.00039 0.988962
1.00005 1 0.997791
0.999905 1.00001 0.995471
1.00152 0.999987 0.992218
1.00146 0.999986 0.99261
0.999513 0.999467 0.997393
1.00028 1.00135 0.993486
1.00135 0.999903 0.992888
1.00374 0.999888 0.988587
1.00291 1.00124 0.988897
1.00353 1.00005 0.988829
1.00449 0.999952 0.986675
1.00151 1 0.991923
1.00141 1 0.992631
1.00388 0.999741 0.988347
1.00378 0.999868 0.9884
1.00368 0.999837 0.988597
1.00483 0.999583 0.986734
0.999545 0.998885 0.998639
1.00462 0.999754 0.986653
0.999822 1.00126 0.993609
1.00171 1.0024 0.989133
1.00416 1.00079 0.986509
1.00503 0.999625 0.98599
0.99978 1.00041 0.994576
1.0002 1.00278 0.991544
1 1.00001 0.997904
0.999767 1.00028 0.997934
1.00134 1.0001 0.992062
0.999505 0.998849 0.998689
1.00001 1.00135 0.993187
1.00079 1.00097 0.992156
1.00214 1.00209 0.988756
0.999484 0.998499 0.998845
0.999624 0.9996 0.995725
1.00153 0.999972 0.99256
1.00121 1.00044 0.992623
1.00372 1.00016 0.987832
0.999833 1.00076 0.994212
1.00289 1.00117 0.988338
1.00119 1.00305 0.989541
1.00308 1.00233 0.986746
0.999681 1.00027 0.994992
0.999694 0.999096 0.996146
1.00012 1.00196 0.992525
1.00385 1.00004 0.987741
1.00341 1.00054 0.988019
1.00478 1.00002 0.986086
1.00068 1.00304 0.990545
1.00399 1.00097 0.986384
1.00198 1.00374 0.987484
1.00345 1.00223 0.986338
0.999533 0.997593 0.999172
0.999458 0.997817 0.999137
0.9994 0.998066 0.999081
0.999771 1.00002 0.995004
0.999555 0.998576 0.998772
1.00005 0.999963 0.99787
1.00005 0.999992 0.997804
1.00151 1.0001 0.991816
1.00153 1.00005 0.991826
1.00004 1.00001 0.997783
1.00004 1 0.997783
1.00152 0.999998 0.991876
1.00158 1.0001 0.992358
1.00396 0.999812 0.987778
1.0015 1.00001 0.991914
1.00392 0.999968 0.987688
1.00151 0.999982 0.991909
1.00395 0.999743 0.987851
1.00394 0.99989 0.987733
1.00496 0.999277 0.986541
1.0039 1.00001 0.987691
1.00494 0.999575 0.986287
1.00004 0.999998 0.997785
0.999718 1.00001 0.995663
1.00153 0.999984 0.9913
1.00154 0.999976 0.992533
0.999299 0.999542 0.998533
1.00056 1.00118 0.993608
1.00143 0.999871 0.99283
1.00375 0.999858 0.988455
1.00353 1.00011 0.988927
1.0029 1.00133 0.988881
1.00447 0.999978 0.986686
1.0015 0.99999 0.991924
1.0015 1 0.992546
1.00388 0.999731 0.988049
1.0038 0.999903 0.988482
0.999554 0.99896 0.998585
0.99999 1.00112 0.994029
1.00176 1.0025 0.989325
1.00367 0.999868 0.988584
1.00483 0.999493 0.986633
1.0041 1.00079 0.986441
1.00463 0.999797 0.986769
1.00502 0.999639 0.986015
0.999782 1.00044 0.994571
1.00025 1.00268 0.991553
1.00392 0.999736 0.987913
1.00385 0.999826 0.98832
1.00491 0.999335 0.986824
1.00486 0.999376 0.986553
1.00476 0.999589 0.986774
1.00517 0.998923 0.986595
0.999795 1.0008 0.994122
1.00508 0.999312 0.98624
1.00082 1.003 0.990123
1.00301 1.0025 0.986588
1.00487 1.0005 0.985736
1.00516 0.999357 0.986141
1.00041 1.00284 0.991135
1.00013 1.00227 0.992154
1.00061 1.00366 0.990024
1.00146 0.999952 0.99202
0.999432 0.998417 0.998927
0.999629 0.999507 0.995765
1.00109 1.00051 0.992086
1.00373 1.00016 0.987833
0.999777 1.00081 0.994155
1.00114 1.00304 0.989548
1.00289 1.00116 0.988346
1.0031 1.00229 0.986703
0.999673 1.0002 0.995019
0.999697 0.999035 0.996173
1.00005 1.00205 0.992539
1.00384 1.00005 0.987737
1.00341 1.00054 0.988028
1.00479 1.00001 0.986074
1.00061 1.00308 0.990559
1.00403 1.00101 0.986412
1.00196 1.0038 0.987469
1.00349 1.00211 0.986327
0.999798 0.998678 0.99637
1.00034 1.0026 0.991511
1.00003 1.00118 0.993467
1.0003 1.00339 0.99085
1.00487 0.999838 0.986128
1.00455 1.00038 0.986183
1.00511 0.999762 0.985751
1.00117 1.00404 0.988718
1.00455 1.00055 0.985837
1.0023 1.00402 0.986493
1.00418 1.00138 0.98582
1.00026 0.999906 0.994328
0.999976 0.998202 0.996514
0.999625 0.997339 0.9992
0.999536 0.99754 0.999182
0.999449 0.997759 0.999155
0.999792 0.999601 0.995398
0.999553 0.998299 0.998887
0.99977 1.00007 0.994984
0.999576 0.998624 0.998726
1.0015 1.00003 0.991907
1.00153 1.00009 0.991798
1.00392 0.999971 0.987684
1.00396 0.99981 0.987777
1.00153 1.00001 0.991874
1.00006 1 0.997775
1.00152 0.999984 0.991908
1.00395 0.999748 0.987849
1.00394 0.999897 0.98773
1.00496 0.999279 0.986536
1.00389 1.00002 0.987684
1.00494 0.999576 0.986278
1.00393 0.999732 0.987909
1.00496 0.999168 0.986657
1.00496 0.999424 0.986413
1.0052 0.998398 0.987018
1.00492 0.999705 0.986189
1.0052 0.998823 0.986567
1.00151 0.999977 0.991924
1.00158 0.999986 0.992461
1.00389 0.999707 0.987754
1.00382 0.999935 0.988564
0.999569 0.999038 0.998525
1.00016 1.00107 0.994378
1.00188 1.00255 0.989516
1.00367 0.999888 0.988572
1.00483 0.999401 0.986532
1.00463 0.999841 0.986886
1.00403 1.00077 0.986374
1.00501 0.999654 0.98604
0.999789 1.00047 0.994565
1.0003 1.00259 0.991561
1.00392 0.999696 0.987839
1.00387 0.999814 0.988307
1.00492 0.99927 0.986863
1.00486 0.999463 0.986634
0.999838 1.0008 0.994121
1.00094 1.00296 0.990094
1.00297 1.00256 0.986677
1.00477 0.999633 0.986771
1.00517 0.998796 0.986695
1.00488 1.00044 0.985634
1.00506 0.999314 0.986263
1.00515 0.999324 0.98614
1.00044 1.00277 0.991147
1.00052 1.00371 0.990039
1.00016 1.00226 0.992145
1.00493 0.999256 0.986861
1.0049 0.999335 0.9868
1.00518 0.998474 0.987025
1.00518 0.998709 0.986708
1.00513 0.998913 0.986529
1.00518 0.997768 0.987637
1.00055 1.00285 0.990841
1.00517 0.998631 0.986716
1.00172 1.00344 0.988207
1.0041 1.00238 0.984886
1.00515 1.00036 0.985287
1.00515 0.998679 0.986826
1.00015 1.00168 0.992732
1.00088 1.00313 0.990022
1.00026 1.0039 0.990263
1.00092 1.00369 0.989597
1.00383 1.00006 0.987733
0.999694 0.998987 0.9962
0.999662 1.00015 0.995046
1 1.00211 0.992553
1.00341 1.00053 0.988038
1.00479 1 0.986062
1.00052 1.00314 0.990574
1.00195 1.00384 0.987453
1.00408 1.00105 0.98644
1.00353 1.00201 0.986315
0.999798 0.998652 0.99638
1.00031 1.00265 0.991512
1.00002 1.00116 0.993493
1.00022 1.00351 0.990841
1.00487 0.999839 0.986117
1.00453 1.00038 0.986177
1.00512 0.999767 0.985738
1.00112 1.00405 0.988734
1.00461 1.00063 0.98587
1.00236 1.00407 0.986435
1.00403 1.00111 0.986248
0.9999 0.998388 0.996467
1.00011 1.00051 0.994013
1.00068 1.00374 0.98988
1.00014 1.00265 0.991873
1.00025 1.00437 0.989984
1.00514 0.999466 0.986009
1.00496 1.00004 0.98568
1.00513 0.999246 0.986226
1.00147 1.00476 0.98742
1.00491 1.00018 0.985646
1.00326 1.00284 0.985446
1.00024 0.999984 0.994297
1.00023 1.00113 0.9932
1.00028 0.999882 0.99434
1.00026 0.999918 0.994326
1.00002 0.998019 0.99707
0.999964 0.998191 0.996779
0.999781 0.997149 0.998172
0.999636 0.997294 0.999205
0.999543 0.997487 0.999191
0.99984 0.999207 0.995713
0.999569 0.998025 0.998984
0.999791 0.999648 0.995376
0.999578 0.998344 0.998848
0.99977 1.00011 0.994964
0.999596 0.998677 0.998679
1.00389 1.00004 0.987677
1.00394 0.999903 0.987727
1.00493 0.999587 0.98627
1.00496 0.999281 0.986531
1.00395 0.999753 0.987846
1.00151 0.999987 0.991906
1.00393 0.99973 0.987909
1.00495 0.999171 0.986656
1.00495 0.999437 0.986406
1.0052 0.998318 0.987117
1.00491 0.99971 0.98618
1.0052 0.998846 0.986558
1.00493 0.999142 0.986722
1.00518 0.998179 0.987314
1.0052 0.998552 0.98683
1.00518 0.997397 0.988041
1.00517 0.99916 0.986287
1.00517 0.997531 0.987858
1.00391 0.999657 0.987766
1.00388 0.999812 0.988294
1.00492 0.999213 0.986903
1.00486 0.99955 0.986716
0.999887 1.00078 0.994119
1.00098 1.00298 0.990066
1.00294 1.00264 0.986765
1.00477 0.999677 0.986767
1.00517 0.998666 0.986794
1.00505 0.999315 0.986287
1.0049 1.00036 0.985532
1.00515 0.999287 0.986138
1.00047 1.00269 0.991158
1.00048 1.0037 0.990053
1.00018 1.00224 0.992135
1.00493 0.999217 0.986783
1.00491 0.999332 0.98679
1.00517 0.99834 0.98715
1.00518 0.998748 0.986709
1.0006 1.00281 0.990828
1.0018 1.0034 0.988169
1.00389 1.00242 0.985135
1.00513 0.999042 0.986471
1.00518 0.997605 0.987832
1.00514 1.00037 0.985162
1.00516 0.998629 0.986742
1.00515 0.998589 0.986939
1.00092 1.00313 0.990027
1.00089 1.0037 0.98956
1.00016 1.00169 0.992719
1.00019 1.00387 0.990354
1.00517 0.998342 0.987156
1.00518 0.998555 0.987054
1.00516 0.997586 0.987845
1.00517 0.997138 0.988286
1.00517 0.998007 0.987425
1.00513 0.996766 0.988733
1.00121 1.003 0.989567
1.00513 0.99748 0.98786
1.00206 1.00386 0.986675
1.00481 1.00214 0.98436
1.00515 1.00005 0.985346
1.00511 0.998278 0.987252
1.00015 1.00126 0.993156
1.00012 1.0034 0.990975
1.00116 1.00312 0.989566
1.00039 1.00449 0.989611
1.00113 1.00323 0.989653
0.999796 0.998632 0.99639
1.00487 0.999839 0.986106
1.00001 1.00112 0.993519
1.00026 1.00273 0.991514
1.00014 1.00362 0.990832
1.00452 1.00038 0.986171
1.00512 0.99977 0.985725
1.00114 1.00402 0.988752
1.00246 1.0041 0.986378
1.00468 1.00071 0.985904
1.0039 1.00087 0.98667
0.999898 0.998382 0.99647
1.0001 1.00049 0.994024
1.00068 1.00369 0.989889
1.00006 1.00273 0.991882
1.00017 1.00446 0.989909
1.00514 0.999476 0.985992
1.00499 1.00005 0.98566
1.00513 0.999242 0.986194
1.00141 1.00481 0.987447
1.00486 1.00024 0.985746
1.00344 1.00275 0.985498
1.00019 1.00015 0.994221
1.00015 1.00182 0.992683
1.00089 1.00441 0.988857
0.999958 1.00398 0.990889
1.00044 1.0045 0.989669
1.00513 0.998687 0.98678
1.0051 0.999711 0.985767
1.00512 0.998317 0.986886
1.00177 1.00479 0.986717
1.00473 1.00099 0.985098
1.00023 0.999994 0.994294
1.00023 1.00114 0.993109
1.00021 1.00115 0.993159
1.00017 1.00186 0.992703
1.00022 1.00116 0.993203
1.00026 0.999911 0.99433
1.00027 0.999886 0.99434
1.00007 0.997906 0.997076
1.00026 0.999931 0.994324
1.00003 0.998023 0.99707
0.999885 0.99692 0.998197
0.999954 0.998186 0.99704
0.999752 0.997104 0.998697
0.999648 0.997249 0.99921
0.999898 0.998866 0.995957
0.999836 0.999251 0.995694
0.999608 0.997774 0.999054
0.999588 0.998074 0.998953
0.999789 0.9997 0.995353
0.999603 0.998386 0.998806
1.00491 0.999714 0.986172
1.00494 0.999441 0.986399
1.0052 0.998865 0.98655
1.0052 0.998238 0.987215
1.00495 0.999172 0.986656
1.00393 0.999728 0.987909
1.00493 0.999142 0.986724
1.00517 0.998187 0.987322
1.00521 0.998564 0.98683
1.00518 0.997247 0.988223
1.00517 0.999171 0.986268
1.00518 0.997409 0.987974
1.00516 0.998217 0.987308
1.00516 0.99735 0.988119
1.00518 0.997108 0.988327
1.00516 0.996402 0.989043
1.00514 0.998038 0.987387
1.00515 0.996559 0.98893
1.00493 0.999175 0.986705
1.00491 0.999337 0.98678
1.00517 0.998201 0.987276
1.00518 0.998783 0.986709
1.00067 1.00278 0.990815
1.00188 1.00336 0.988131
1.00369 1.00241 0.985384
1.00513 0.999174 0.986412
1.00517 0.997441 0.988027
1.00516 0.998627 0.986769
1.00514 1.00041 0.985037
1.00514 0.998507 0.987052
1.0009 1.00318 0.990032
1.00078 1.00382 0.989522
1.00017 1.0017 0.992707
1.00016 1.00381 0.990446
1.00517 0.998346 0.987152
1.00517 0.998603 0.986956
1.00516 0.997524 0.987938
1.00517 0.997235 0.988163
1.00121 1.0031 0.989527
1.00207 1.00386 0.986881
1.00473 1.00193 0.984334
1.00517 0.998149 0.987252
1.00513 0.99658 0.98886
1.00514 1.0001 0.985323
1.00513 0.997503 0.987869
1.00513 0.998076 0.987333
1.00121 1.00311 0.989555
1.00111 1.00319 0.989709
1.00034 1.00454 0.989585
1.00015 1.00125 0.993085
1.0001 1.00333 0.991072
1.00516 0.997432 0.9881
1.00514 0.997116 0.988393
1.00512 0.996085 0.989425
1.00511 0.996656 0.988691
1.00135 1.00356 0.988748
1.00511 0.997076 0.988458
1.00231 1.0036 0.986104
1.00507 1.0017 0.984151
1.0051 0.99959 0.985722
1.00012 1.00087 0.993417
1.00012 1.00278 0.991795
1.00018 1.00409 0.990407
1.00137 1.0028 0.989582
1.00052 1.00463 0.989172
1.00137 1.00257 0.989585
0.999894 0.99838 0.996474
1.00011 1.00046 0.994036
1.00515 0.999487 0.985975
0.999985 1.00282 0.991891
1.00063 1.00372 0.989898
1.0001 1.00457 0.989834
1.00502 1.00006 0.985641
1.00512 0.999239 0.986163
1.00134 1.00489 0.987473
1.00359 1.00271 0.98555
1.00481 1.00029 0.985853
1.00019 1.00015 0.994221
1.00012 1.00183 0.992699
1.00086 1.00446 0.98883
0.999886 1.00408 0.990881
1.00037 1.00442 0.9897
1.00513 0.998709 0.986757
1.00511 0.999709 0.985731
1.00512 0.998347 0.986931
1.00176 1.0047 0.986598
1.00471 1.00116 0.985104
1.00021 1.00133 0.993058
0.999893 1.00313 0.991664
1.00109 1.00421 0.988568
0.999946 1.00476 0.990055
1.00084 1.00379 0.989506
1.00513 0.997069 0.988198
1.0051 0.999501 0.98595
1.00508 0.998219 0.986991
1.00288 1.00372 0.986141
1.00472 1.00065 0.98516
1.00023 1 0.994292
1.00023 1.00114 0.993142
1.00006 1.00192 0.99264
1.00019 1.00116 0.993117
1.0002 1.00117 0.993202
1.00011 1.0019 0.992647
1.00003 1.00233 0.992423
1.00011 1.00195 0.992519
1.00019 1.00124 0.99317
1.00022 1 0.994305
1.00026 0.999921 0.99433
1.00012 0.997858 0.997052
1.00026 0.999892 0.99434
1.00008 0.997921 0.997073
0.999961 0.996785 0.998198
1.00003 0.998025 0.997072
0.999873 0.996892 0.998203
0.999719 0.997048 0.999233
0.999952 0.998544 0.996195
0.999895 0.9989 0.99594
0.999664 0.997522 0.999108
0.99983 0.999299 0.995676
0.999617 0.997819 0.999033
0.999609 0.998117 0.998918
1.00517 0.999183 0.986248
1.00521 0.998579 0.98683
1.00518 0.997283 0.988091
1.00517 0.997097 0.988404
1.00517 0.998195 0.98733
1.00493 0.999142 0.986726
1.00516 0.998273 0.987248
1.00515 0.997443 0.988057
1.00518 0.99718 0.98824
1.00515 0.996225 0.989213
1.00514 0.998063 0.987381
1.00514 0.996347 0.989073
1.00516 0.997537 0.988002
1.00517 0.996327 0.989064
1.00516 0.995894 0.989508
1.00512 0.996383 0.989093
1.00517 0.99835 0.987147
1.00517 0.998649 0.986858
1.00516 0.997464 0.988032
1.00517 0.997336 0.98804
1.00127 1.00315 0.989488
1.00207 1.00387 0.987088
1.00465 1.00172 0.984308
1.00516 0.99829 0.987078
1.00514 0.996402 0.988986
1.00512 0.997526 0.987878
1.00513 1.00013 0.9853
1.00515 0.997871 0.987413
1.00126 1.00311 0.989545
1.00115 1.00306 0.989764
1.00031 1.00459 0.989558
1.00015 1.00124 0.993013
1.00009 1.00325 0.99117
1.00516 0.997446 0.988102
1.00515 0.997153 0.988355
1.00512 0.99617 0.98929
1.00143 1.00356 0.988712
1.00251 1.00374 0.986214
1.00503 1.00151 0.98411
1.00512 0.996693 0.98867
1.00509 0.999384 0.985964
1.00511 0.997031 0.98831
1.00012 1.00081 0.993482
1.00144 1.00273 0.989551
1.00127 1.00245 0.989934
1.00059 1.00467 0.9891
1.00019 1.0041 0.990432
1.00011 1.00276 0.991739
1.00514 0.996747 0.988647
1.00517 0.995874 0.989575
1.00511 0.995618 0.989657
1.00514 0.995979 0.989378
1.00164 1.00356 0.988306
1.00512 0.997796 0.987472
1.00335 1.00334 0.984868
1.00507 1.00131 0.984228
1.00014 1.00031 0.993935
1.00011 1.0023 0.992295
1.00018 1.00344 0.991124
1.00021 1.00487 0.989493
1.00161 1.00238 0.98941
1.00137 1.00336 0.988943
1.00018 1.00015 0.994222
1.00009 1.00181 0.992715
1.00513 0.998731 0.986734
0.999817 1.00414 0.990873
1.00083 1.00448 0.988804
1.00023 1.0043 0.989731
1.00512 0.999705 0.985694
1.00511 0.998385 0.986976
1.00177 1.00465 0.986478
1.00473 1.00131 0.985109
1.0002 1.00132 0.993068
0.999949 1.00309 0.99169
1.00111 1.00427 0.988576
0.999847 1.00483 0.990018
1.00067 1.0036 0.98987
1.00513 0.997049 0.98839
1.0051 0.999475 0.986015
1.00508 0.99832 0.986945
1.00278 1.00386 0.986029
1.0049 1.00059 0.984976
0.99998 1.0022 0.992421
0.99981 1.00413 0.990653
1.00161 1.00366 0.988237
1.00014 1.00462 0.989121
1.00511 0.995595 0.989686
1.00497 0.997376 0.98832
1.00505 0.999542 0.985846
1.00335 1.00201 0.985534
1.00025 1.00113 0.993175
1.00007 1.00194 0.992656
0.999866 1.00257 0.992461
1.00019 1.0012 0.9932
1.00006 1.00193 0.992592
1.00019 1.00124 0.993165
1 1.00231 0.99241
1.00012 1.00195 0.992547
0.999954 1.00253 0.992317
1.00007 1.00239 0.99222
1.00013 1.00204 0.992377
1.00019 1.00135 0.993053
1.00018 1.0001 0.99428
1.00022 0.999999 0.994303
1.00014 0.997845 0.997021
1.00026 0.999917 0.994329
1.00012 0.997882 0.997047
1.00002 0.996701 0.998176
1.00009 0.997935 0.99707
0.999953 0.996752 0.998205
0.999862 0.996868 0.998206
1.00002 0.998213 0.99641
0.999956 0.998562 0.996177
0.999735 0.997235 0.999163
0.99989 0.99894 0.995922
0.999667 0.997574 0.999092
0.999631 0.99786 0.99901
1.00515 0.998087 0.987374
1.00517 0.997255 0.988153
1.00513 0.996138 0.989214
1.00513 0.996051 0.989383
1.00515 0.997535 0.987996
1.00516 0.998331 0.987187
1.00516 0.997531 0.988007
1.00516 0.996393 0.989011
1.00516 0.995924 0.989472
1.00513 0.996343 0.989144
1.00516 0.996707 0.988787
1.00518 0.995241 0.990159
1.00516 0.995325 0.98985
1.00517 0.99746 0.988103
1.00515 0.997189 0.988317
1.00512 0.996258 0.989156
1.0015 1.00356 0.988677
1.00273 1.00387 0.986323
1.00499 1.00137 0.984069
1.00512 0.996726 0.98865
1.00511 0.99698 0.988162
1.00508 0.999198 0.986206
1.00151 1.00267 0.989519
1.00111 1.00237 0.990284
1.00065 1.00474 0.989028
1.00012 1.00075 0.993547
1.00018 1.00408 0.990458
1.00011 1.00274 0.991682
1.00515 0.996804 0.98867
1.00518 0.995786 0.989639
1.00511 0.99562 0.989693
1.00166 1.00359 0.988269
1.0032 1.00344 0.985197
1.00506 1.00111 0.984414
1.00514 0.996009 0.989313
1.00512 0.997789 0.987435
1.00014 1.00028 0.99407
1.00012 1.0023 0.992288
1.00144 1.00231 0.989518
1.00129 1.0034 0.989266
1.00023 1.00477 0.989623
1.00015 1.00349 0.991053
1.00518 0.995364 0.990096
1.00517 0.995124 0.990136
1.00513 0.99533 0.989966
1.00512 0.996225 0.989096
1.00176 1.00338 0.987667
1.00504 0.999856 0.985537
1.00423 1.00316 0.984463
1.00018 0.999947 0.994444
1.00016 1.0012 0.993261
1.00011 1.00177 0.992644
1.00006 1.00318 0.99149
1.00006 1.00417 0.990414
1.00005 1.00467 0.989603
1.00206 1.00116 0.989457
1.00131 1.00316 0.990063
1.00018 1.00133 0.993077
0.999998 1.00308 0.991716
1.00512 0.997032 0.988583
0.999886 1.0049 0.98998
1.00111 1.00436 0.988586
1.00047 1.00346 0.990233
1.00509 0.999438 0.986081
1.0051 0.998408 0.986901
1.00261 1.00395 0.98592
1.00507 1.00053 0.984792
1 1.00224 0.992359
0.999875 1.00412 0.990663
1.00152 1.00376 0.988316
1.00041 1.00464 0.989217
1.00513 0.995485 0.989827
1.00501 0.997429 0.988105
1.00506 0.999497 0.985874
1.00372 1.00215 0.985375
0.999827 1.0031 0.991907
1.00509 0.995089 0.990205
1.00024 1.00484 0.989824
1.00172 1.00418 0.987469
1.00497 0.996027 0.989835
1.00486 0.998686 0.986541
1.00451 1.00122 0.985385
1.00006 1.00198 0.992672
0.999859 1.00256 0.992443
0.999679 1.00307 0.992304
1.00019 1.00122 0.99316
1.00011 1.00196 0.992575
0.999947 1.00232 0.992396
1.0002 1.00134 0.993041
1.00012 1.00203 0.992399
0.999909 1.00256 0.992284
1.0001 1.00234 0.992257
1.0001 1.00247 0.992158
1.00004 1.00253 0.992118
1.00014 1.00257 0.991959
1.00026 1.00211 0.99215
1.00021 1.00146 0.992905
1.00015 1.00018 0.994243
1.00018 1.0001 0.994279
1.00015 0.997878 0.996968
1.00022 1.00001 0.9943
1.00014 0.997879 0.997015
1.00006 0.996637 0.998156
1.00012 0.997908 0.997042
1.00002 0.996665 0.998182
0.999946 0.996721 0.998209
1.00017 0.999832 0.994594
1.00007 0.997968 0.996564
1.00003 0.998228 0.996396
0.999817 0.996967 0.999207
0.999959 0.998586 0.99616
0.999732 0.997301 0.999146
0.999672 0.997625 0.999075
1.00514 0.996302 0.989194
1.00516 0.995953 0.989435
1.00516 0.996459 0.988959
1.00516 0.997525 0.988013
1.00517 0.996644 0.988839
1.00519 0.995251 0.99017
1.00516 0.995386 0.989837
1.00518 0.995084 0.990268
1.00517 0.995004 0.990385
1.00494 0.995004 0.990771
1.00515 0.996861 0.988692
1.00518 0.995691 0.989703
1.00511 0.995613 0.989729
1.00168 1.00361 0.988233
1.00305 1.00355 0.985526
1.00504 1.00089 0.9846
1.00514 0.996048 0.989249
1.00511 0.997768 0.987398
1.0013 1.00227 0.989627
1.00126 1.00343 0.989585
1.00016 1.00472 0.989754
1.00014 1.00025 0.994206
1.00014 1.00228 0.992282
1.00013 1.00355 0.990982
1.00517 0.995327 0.990088
1.00017 0.99996 0.994441
1.00014 1.00122 0.993202
1.00517 0.99513 0.990147
1.00512 0.995315 0.989936
1.00155 1.00356 0.988036
1.00407 1.00309 0.984426
1.00503 0.999739 0.985505
1.00511 0.996275 0.988982
1.00012 1.00175 0.992817
1.00009 1.00313 0.991475
1.00224 1.00146 0.989224
1.00084 1.0032 0.990363
1.00009 1.00474 0.989644
1.00004 1.00414 0.990497
1.00517 0.995011 0.990282
1.00508 0.994915 0.990474
1.0051 0.995169 0.989904
1.00502 0.996647 0.988383
1.0019 1.00287 0.98826
1.00439 1.00278 0.984582
1.00012 1.00114 0.993235
1.00015 1.00135 0.993126
1.00014 1.00216 0.992466
1.00006 1.00294 0.991533
1.00001 1.00375 0.991122
1.00034 1.00424 0.989866
0.999613 1.00486 0.990058
1.00145 1.00131 0.990503
1.00003 1.00227 0.992298
0.999953 1.00408 0.990674
1.00514 0.995366 0.989967
1.00504 0.997506 0.98789
1.00064 1.00468 0.989313
1.00144 1.00383 0.988392
1.00507 0.999455 0.985901
1.00411 1.00233 0.985215
0.999855 1.0031 0.991869
1.00509 0.99502 0.990288
1.00006 1.00478 0.989924
1.00173 1.00401 0.987428
1.00497 0.995889 0.989727
1.00478 0.998737 0.986765
1.00447 1.00141 0.985427
0.999851 1.00434 0.990997
1.00469 0.995112 0.991609
1.00106 1.00456 0.98917
1.00263 1.00386 0.986846
1.00479 0.996851 0.988782
1.00406 1.00065 0.986208
0.999604 0.997696 0.991789
0.999847 1.00255 0.992426
0.999642 1.0031 0.992294
0.999918 1.00315 0.991936
1.00019 1.00135 0.99303
1.00012 1.00206 0.992421
1.00013 1.0023 0.992295
0.999885 1.00256 0.99225
1.00021 1.00145 0.992903
1.00023 1.00213 0.99215
1.0001 1.00255 0.992041
1.00012 1.00258 0.991963
1.00008 1.00249 0.992135
1.00023 1.00235 0.992016
1.00025 1.00275 0.991598
1.00019 1.0026 0.991846
1.00034 1.00221 0.991904
1.00024 1.00152 0.992695
1.00027 1.00205 0.992314
1.00023 1.00155 0.992651
1.00015 1.00023 0.994197
1.00015 1.00018 0.994243
1.00018 0.997957 0.996379
1.00018 1.0001 0.994278
1.00017 0.997916 0.996693
1.00003 0.996583 0.999206
1.00014 0.997912 0.99701
1.00006 0.996596 0.998162
1.00001 0.99663 0.998186
1.00013 0.999738 0.994722
1.00017 0.999816 0.994596
1.0001 0.997811 0.996683
1.00006 0.997972 0.996816
0.99989 0.996756 0.999242
1.00003 0.998237 0.996382
0.99981 0.997029 0.999195
0.999731 0.997367 0.999129
1.00516 0.99545 0.989823
1.00519 0.995258 0.990181
1.00518 0.996581 0.98889
1.00517 0.995098 0.990265
1.00516 0.994987 0.990352
1.00495 0.995061 0.990525
1.00515 0.99492 0.990433
1.00083 0.996748 0.988389
1.00431 0.994916 0.993006
1.00007 1.0011 0.993508
1.00516 0.995279 0.990079
1.00518 0.995148 0.990158
1.00511 0.995299 0.989905
1.00132 1.0037 0.988404
1.00392 1.00305 0.984389
1.00504 0.999646 0.985475
1.00505 0.996338 0.988867
1.00249 1.00162 0.988996
1.00034 1.00321 0.99067
1.00018 1.00479 0.989686
1.00016 0.999983 0.994439
1.00004 1.0041 0.99058
1.00013 1.00172 0.99299
1.0001 1.00311 0.991459
1.00013 1.00121 0.993144
1.00518 0.994957 0.990309
1.00011 1.00113 0.993332
1.00015 1.00136 0.993124
1.00016 1.00215 0.992364
1.00506 0.99494 0.990466
1.00511 0.995274 0.989811
1.00199 1.00279 0.988312
1.00406 1.00239 0.984886
1.00499 0.996931 0.988327
1.00005 1.00294 0.991629
1.00003 1.00372 0.990995
1.00135 1.00177 0.990308
0.999813 1.00484 0.990127
1.00035 1.00412 0.989936
1.0051 0.994993 0.990522
1.00509 0.99488 0.99048
1.00506 0.996008 0.989127
1.00448 0.999041 0.98798
1.00131 1.00309 0.989229
1.00008 1.00218 0.992258
1.00016 1.00235 0.991927
0.999974 1.00315 0.991601
0.999919 1.00407 0.991019
0.99999 1.0041 0.990578
0.999902 1.00463 0.98998
1.00004 1.00424 0.990256
0.999899 1.00308 0.99183
0.999862 1.00473 0.990025
1.00511 0.994964 0.990369
1.00498 0.995732 0.989618
1.00473 0.99876 0.986989
1.00173 1.0038 0.987389
1.00446 1.00159 0.98547
0.999815 1.00419 0.991144
1.0046 0.995048 0.991671
1.00072 1.00442 0.989355
1.00234 1.00396 0.98682
1.00476 0.99668 0.989086
1.00418 1.00057 0.986147
0.999612 0.99764 0.989925
0.999992 1.00434 0.990661
1.00405 0.995901 0.991762
1.00064 1.00434 0.989429
1.00246 1.00261 0.987317
1.00416 0.99812 0.987748
1.00066 0.995607 0.956439
0.996402 0.996811 0.975302
0.997813 1.0017 0.991336
0.999844 0.996623 0.917335
0.994902 0.998165 0.900533
0.999616 1.0031 0.992284
0.99975 1.00327 0.991995
1.0001 1.00247 0.992182
1.00021 1.00145 0.9929
1.00026 1.00207 0.992149
1.00012 1.00259 0.991967
1.00012 1.00244 0.992151
1.00009 1.00264 0.991925
1.00022 1.00256 0.991799
1.00024 1.00149 0.992765
1.00034 1.0022 0.991915
1.00022 1.00237 0.991985
1.00021 1.00276 0.991641
1.00027 1.00275 0.99164
1.00015 1.00255 0.991826
1.00032 1.00264 0.991593
1.00038 1.00218 0.991814
1.00025 1.00157 0.992614
1.00035 1.00215 0.992032
1.00029 1.00225 0.992034
1.00015 1.0021 0.992361
1.00027 1.00207 0.992251
1.00023 1.00145 0.992871
1.00024 1.00156 0.992642
1.00017 1.00023 0.994154
1.00015 1.00024 0.994195
1.00017 0.998027 0.996352
1.00014 1.00019 0.994242
1.00018 0.997965 0.996377
1.00004 0.996591 0.999198
1.00018 0.997953 0.996419
1.00006 0.996585 0.998666
1.00006 0.996556 0.998166
1.0001 0.999702 0.994817
1.00014 0.999741 0.99472
1.00013 0.997695 0.99676
1.00017 0.999799 0.994599
1.0001 0.99778 0.996937
0.999946 0.996579 0.999271
1.00007 0.998012 0.99653
0.999879 0.99684 0.999225
0.999803 0.997079 0.999183
1.00515 0.994968 0.990319
1.00516 0.995114 0.990261
1.00494 0.995093 0.990278
1.00075 0.996558 0.988488
1.00514 0.99492 0.990406
1.00422 0.995367 0.992649
1.00491 0.996093 0.991159
0.99719 0.996818 0.973419
1.00138 0.996216 0.990188
1.00008 1.00108 0.993515
1.0001 1.00107 0.993502
0.999981 1.00218 0.992561
1.00006 1.002 0.992632
1.00518 0.994926 0.990335
1.00505 0.994959 0.990457
1.00511 0.995377 0.989717
1.00224 1.00257 0.988364
1.00369 1.00187 0.985185
1.00499 0.997247 0.98827
1.00118 1.00237 0.990107
1.00005 1.00484 0.990193
1.00034 1.00398 0.990005
1.00013 1.0014 0.993121
1.00006 1.00366 0.990869
1.00006 1.00294 0.991727
1.00011 1.00113 0.993429
1.00014 1.00217 0.992261
1.0051 0.994937 0.990511
1.00006 1.00224 0.992383
1.00015 1.00237 0.992052
0.999911 1.00298 0.991833
1.00509 0.994877 0.990424
1.00503 0.995851 0.989139
1.00164 1.00265 0.989178
1.0043 0.99894 0.988161
0.999949 1.00402 0.990975
1.00009 1.00407 0.990389
1.00005 1.00445 0.990252
1.00021 1.00453 0.989938
1.00488 0.99482 0.991095
1.00509 0.99524 0.990217
1.00462 0.997232 0.98907
1.00179 1.00134 0.990339
0.999976 1.00338 0.991317
1.00001 1.0036 0.991051
0.999566 1.00459 0.990832
0.999738 1.00517 0.98988
1.00003 0.994972 0.951288
0.999758 1.00406 0.991289
1.00032 1.00433 0.989539
1.00454 0.994978 0.991727
1.00473 0.996527 0.98939
1.00432 1.00045 0.986085
1.002 1.00407 0.986793
0.999723 0.997454 0.988017
0.999843 1.00441 0.99079
1.00418 0.995716 0.991737
1.00052 1.00437 0.989485
1.00266 1.00233 0.987311
1.00439 0.998128 0.987888
1.00151 0.995844 0.950169
0.996136 0.996958 0.971361
0.997707 1.00171 0.991196
0.999821 0.997358 0.919893
0.994727 0.998127 0.892415
0.999815 1.00365 0.991652
0.99989 0.995318 0.92451
0.995232 0.998376 0.902135
1.00284 0.99942 0.990708
1.00022 1.00412 0.990274
1.00264 1.0013 0.987748
0.997167 1.00314 0.991357
0.999967 0.996978 0.955022
0.994865 0.997523 0.969725
0.998479 0.998382 0.923009
0.99475 0.99952 0.900829
0.999604 1.00338 0.992054
1 1.00271 0.992106
0.999971 1.00154 0.993591
1.00024 1.00146 0.992834
1.00035 1.00221 0.991928
1.00015 1.00262 0.991752
1.00019 1.00276 0.991685
1.00023 1.00238 0.991954
1.00026 1.00155 0.992621
1.00023 1.00279 0.991588
1.00031 1.00262 0.991619
1.00039 1.00217 0.991868
1.00016 1.00247 0.991884
1.00021 1.00288 0.991637
1.00011 1.00245 0.991921
1.00043 1.00262 0.991365
1.00042 1.00221 0.991844
1.00037 1.00212 0.992019
1.00029 1.00226 0.992034
1.00043 1.00225 0.991772
1.00013 1.00244 0.992068
1.0002 1.00217 0.992076
0.999809 1.00323 0.991786
1.00004 1.00227 0.992377
1.00015 1.00211 0.992359
1.00019 1.00143 0.992954
1.00026 1.00209 0.992188
1.00024 1.00146 0.992818
1.00022 1.00018 0.994137
1.00025 1.00157 0.992633
1.00018 1.00023 0.994155
1.00013 0.998054 0.996905
1.00015 1.00024 0.994194
1.00016 0.998016 0.996629
1.00009 0.996624 0.99808
1.00018 0.997974 0.996376
1.00004 0.996598 0.999195
1.0001 0.996588 0.998124
1.00011 1.00115 0.993408
1.00009 0.999713 0.994829
1.0001 0.999696 0.994817
1.00014 0.997644 0.996785
1.00014 0.999743 0.994718
1.00013 0.997672 0.996758
0.999992 0.996468 0.999283
1.00008 0.997788 0.997171
0.99996 0.996652 0.998759
0.999922 0.996889 0.998187
1.00056 0.996434 0.988611
1.00513 0.994925 0.99038
1.00413 0.995897 0.99229
0.996537 0.99658 0.974958
1.00113 0.996232 0.99043
1.00495 0.995604 0.990954
1.00365 0.996395 0.989918
0.997408 0.996471 0.977817
1.00005 0.99556 0.954615
0.999421 0.997931 0.925071
0.994668 0.998096 0.89914
0.999967 1.00208 0.992527
1.00008 1.00108 0.993514
1.00012 1.00104 0.993496
1 1.00218 0.992517
0.999968 1.00295 0.991875
1.00018 1.00252 0.991972
1.00008 1.00221 0.992419
1.00003 1.00209 0.992559
1.00512 0.994899 0.990497
1.00508 0.994878 0.990362
1.00506 0.995613 0.989153
1.00181 1.00235 0.98913
1.00418 0.998864 0.988342
1.00005 1.00453 0.990249
1.00049 1.00445 0.989898
1.00023 1.00409 0.990201
1.00012 1.00237 0.992178
0.999951 1.00401 0.99093
1.00005 1.00231 0.992508
0.99994 1.00277 0.992066
1.00488 0.99486 0.991135
0.999971 1.00337 0.9914
0.999995 1.00358 0.991189
1.00504 0.995132 0.990114
1.00411 0.997058 0.989483
1.00187 1.00117 0.990226
0.999756 1.00469 0.990553
0.999966 1.00496 0.989913
1.00295 0.997587 0.991742
1.00449 0.996137 0.990871
1.00317 0.997266 0.990844
1.00097 1.00193 0.990705
0.999991 1.00393 0.99074
0.999737 1.00447 0.990649
0.999676 1.00523 0.990161
0.999917 0.994859 0.924844
1.00065 0.995045 0.959034
0.999735 1.00446 0.990918
1.00042 1.00431 0.989543
1.00423 0.995532 0.991714
1.0046 0.998194 0.988027
1.00285 1.00216 0.987309
1.00042 0.99527 0.954777
0.996596 0.997224 0.970723
0.997587 1.00152 0.991037
0.998853 0.997037 0.92675
0.994692 0.998125 0.884195
0.999754 1.00362 0.991675
0.999919 0.995804 0.923368
0.995272 0.998279 0.898152
1.00278 0.999301 0.990706
1.00013 1.00403 0.990374
1.00237 1.00131 0.988403
0.997542 1.00279 0.991969
1.00116 0.996937 0.950129
0.994889 0.996988 0.973341
0.998582 0.999088 0.923421
0.994934 0.99945 0.898758
0.999364 1.00301 0.993348
0.995347 0.997836 0.903329
0.995048 0.999651 0.918702
1 1.00151 0.992678
0.999346 1.00409 0.992257
0.996509 1.00287 0.992659
0.994829 0.999354 0.973714
0.997943 0.998681 0.948539
0.995294 0.999914 0.928329
0.994758 0.997898 0.908037
0.999965 1.00289 0.992032
1.00002 1.00142 0.993542
0.99972 1.00037 0.99469
1.00026 1.00153 0.992628
1.00037 1.00218 0.991923
1.00031 1.00258 0.991644
1.00022 1.00284 0.991536
1.00015 1.00242 0.991943
1.00041 1.00222 0.991835
1.00022 1.00281 0.991611
1.00043 1.00264 0.991366
0.999949 1.00248 0.992073
0.998773 1.00323 0.993284
1.00024 1.00309 0.991353
1.00056 1.00248 0.991406
1.0004 1.00209 0.992007
1.00031 1.00224 0.992034
1.00044 1.00224 0.991768
1.00014 1.00244 0.992053
1.00022 1.00217 0.99212
0.999969 1.00277 0.991982
1.00027 1.00213 0.991989
1.00003 1.00233 0.992285
1.00017 1.00285 0.991618
0.999696 1.00486 0.990016
0.999571 1.00381 0.991415
0.999823 1.00326 0.991775
0.999942 1.00251 0.992297
1.00005 1.00228 0.992373
1.00014 1.00146 0.992992
1.00015 1.00214 0.992357
1.0002 1.00142 0.992958
1.00024 1.00012 0.994142
1.00025 1.00147 0.992764
1.00022 1.00017 0.99414
1.00011 0.998076 0.996912
1.00017 1.00023 0.994157
1.00014 0.998039 0.996629
1.00006 0.996645 0.998088
1.00018 0.997996 0.996351
1.00003 0.996631 0.999188
1.00004 0.996609 0.999192
1.00014 1.00125 0.993448
1.00011 0.999772 0.994749
1.00009 1.00116 0.993409
1.00015 0.997624 0.996785
1.00009 0.999706 0.994831
1.00011 0.999697 0.994816
1.00014 0.997639 0.996783
1.00002 0.99641 0.999286
1.00011 0.997662 0.997241
1.00001 0.996486 0.998791
0.999991 0.996644 0.998274
0.999858 0.996007 0.918643
0.995155 0.99755 0.901802
0.997713 0.996257 0.975527
1.00091 0.996171 0.99068
1.00499 0.995029 0.990751
0.996792 0.995874 0.979451
1.00372 0.995978 0.990167
1.00132 0.995837 0.954297
0.999823 0.997093 0.918378
0.994669 0.998065 0.890985
0.998295 0.99636 0.982755
0.999682 0.997608 0.955307
0.998437 0.998772 0.921626
0.99474 0.999043 0.899608
1.00009 1.00295 0.991618
0.999993 1.00207 0.992601
1.0001 1.00106 0.993512
1.00002 1.00215 0.992473
0.999963 1.00286 0.991959
1.0002 1.00282 0.99165
1.00017 1.00251 0.991966
1.00016 1.00243 0.991997
1.0001 1.0022 0.992342
1 1.00216 0.992488
1.00485 0.994865 0.991185
1.00509 0.995056 0.990029
1.00356 0.996915 0.989901
1.00187 1.00112 0.990114
1.00021 1.00484 0.989945
0.999928 1.00479 0.990274
0.999968 1.00356 0.991328
0.999924 1.00337 0.991482
1.0031 0.997111 0.991954
0.99997 1.004 0.990695
0.999735 1.00457 0.99053
1.0044 0.996086 0.990585
1.00273 0.997177 0.991713
1.00127 1.00205 0.99016
0.999892 1.00518 0.990039
1.00007 0.998648 0.993465
1.00186 0.997317 0.994332
0.999744 1.00381 0.990839
0.999898 1.00414 0.990641
0.99984 1.00463 0.990262
0.999692 1.00515 0.990125
0.994816 0.997715 0.91621
0.999913 0.994895 0.927738
1.00005 0.994952 0.951212
0.999624 1.00375 0.991698
1.00005 1.0039 0.990475
1.00275 0.999154 0.990709
1.00218 1.00137 0.989055
0.999885 0.995548 0.928221
0.999584 0.996881 0.950222
0.994892 0.996336 0.969818
0.997899 1.00187 0.99252
0.998548 0.998387 0.915968
0.995191 0.998138 0.899171
0.994974 0.999362 0.902844
0.99913 1.00297 0.993355
0.995292 0.997176 0.908175
0.995237 0.999804 0.91811
1.00034 1.00153 0.992623
0.998997 1.00415 0.992249
0.99631 1.0007 0.99529
0.994838 0.998475 0.971925
0.997501 0.998803 0.95585
0.997269 0.9999 0.920838
0.994755 0.997871 0.912496
0.998122 1.00239 0.995725
0.9951 0.997435 0.929347
0.994609 0.997726 0.931156
0.996105 1.00246 0.998917
0.994849 1 0.980053
0.995603 1.00001 0.955514
0.994812 0.99995 0.919496
0.994834 0.99632 0.909624
1.00005 1.00132 0.993493
0.999753 1.00044 0.994868
0.998522 1.00196 0.99619
1.00041 1.00225 0.991826
1.00044 1.00266 0.991367
1.00025 1.00271 0.991585
0.999823 1.00251 0.992226
1.0005 1.00252 0.991392
1.00021 1.00307 0.99137
0.998833 1.00311 0.993517
0.996814 1.00447 0.995653
0.99897 1.00402 0.992731
1.00039 1.00264 0.991548
1.00045 1.00224 0.991764
1.00015 1.00244 0.992039
1.00023 1.00218 0.992164
1.00027 1.00218 0.991998
0.999972 1.0028 0.991978
1.00007 1.00232 0.992291
1.00011 1.00253 0.992115
0.999638 1.00201 0.993213
1.00072 1.00121 0.992062
1.00019 1.00273 0.991742
0.999818 1.00407 0.990755
1.00085 1.00496 0.988314
0.999808 1.00444 0.990911
0.999554 1.00491 0.990374
0.999653 1.0038 0.991492
0.999816 1.0029 0.991959
0.999841 1.0033 0.991764
0.999982 1.00249 0.992291
1.0001 1.00158 0.992953
1.00009 1.00226 0.992369
1.00016 1.00146 0.99299
1.00023 1.00014 0.994144
1.00022 1.00142 0.992961
1.00024 1.00013 0.994144
1.00008 0.998097 0.996936
1.00022 1.00018 0.994143
1.00012 0.998064 0.996642
1.00001 0.99673 0.998098
1.00016 0.998015 0.996351
1.00004 0.996659 0.998637
1.00003 0.996642 0.999189
1.00016 1.00146 0.993037
1.00014 0.999853 0.994621
1.0001 1.0013 0.993293
1.00016 0.997645 0.996751
1.00011 0.999762 0.994752
1.00007 1.0012 0.99341
1.00003 0.996387 0.999286
1.00015 0.997624 0.996786
1.0001 0.999691 0.994832
1.00014 0.997634 0.996781
1.00002 0.99642 0.999286
0.999989 0.996479 0.999281
0.99496 0.996229 0.910087
0.99989 0.99556 0.922662
0.995101 0.999968 0.918071
0.995226 0.998095 0.899407
0.997457 0.995348 0.976394
1.00374 0.995976 0.990427
1.00064 0.996241 0.953602
0.99984 0.996946 0.925837
0.994685 0.998139 0.882791
0.998308 0.996791 0.981658
1.00128 0.997276 0.946838
0.99857 0.999089 0.922229
0.994759 0.999322 0.895248
0.995109 0.99842 0.977545
0.998011 0.99955 0.948226
0.995851 0.999818 0.917111
0.994774 0.997572 0.902305
1.00007 1.00348 0.99117
1.00006 1.00293 0.991716
0.999976 1.00211 0.992674
0.999947 1.00276 0.992043
1.00031 1.00301 0.991143
1.00019 1.00276 0.991714
1.00013 1.00253 0.991959
1.0003 1.00239 0.99191
1.00021 1.00237 0.992083
1.00012 1.0022 0.992265
1.00337 0.996808 0.992154
1.00423 0.996031 0.990301
1.00238 0.997131 0.992574
1.00161 1.00201 0.989626
1.00003 1.00514 0.989919
0.999778 1.00467 0.990412
0.999989 1.004 0.990652
0.99997 1.00413 0.990619
1.00038 0.998769 0.993752
0.999914 1.00466 0.990274
0.99982 1.00515 0.990131
1.00196 0.997239 0.993931
1.00025 1.0036 0.990691
0.998666 0.997095 0.995227
0.99856 0.998652 0.999123
0.999313 1.00467 0.991186
0.999978 1.00458 0.990139
0.999738 1.00508 0.990052
0.994762 0.997187 0.934977
0.994813 0.997345 0.914788
0.999885 0.994916 0.920947
0.998916 1.0029 0.993358
0.99873 1.00415 0.992227
1.00059 1.00154 0.992578
0.99532 0.9962 0.909586
0.99791 0.998719 0.949028
0.994842 0.997853 0.972651
0.99639 0.99975 0.998132
0.996226 0.999682 0.928155
0.995613 0.999968 0.917525
0.994788 0.997826 0.912593
0.998117 1.00241 0.995932
0.995174 0.996385 0.932135
0.994622 0.997699 0.931058
0.996346 1.00295 0.998121
0.994852 0.99991 0.981042
0.996181 0.999986 0.948701
0.994809 0.996842 0.91099
0.994851 0.999973 0.924915
0.996595 1.00362 0.997995
0.994435 0.994669 0.952119
0.994662 0.996891 0.934064
0.994778 0.99764 0.902552
0.994928 1.0016 0.993992
0.995496 0.999835 0.95814
0.994901 1 0.923324
0.999852 1.00054 0.995047
0.99866 1.0017 0.995951
0.996193 1.00403 0.998031
1.00046 1.00257 0.991377
1.00017 1.00303 0.991386
0.99884 1.00301 0.993754
1.00031 1.00255 0.991629
0.998996 1.00388 0.992752
0.997141 1.00428 0.995271
0.996734 1.00486 0.996199
0.999182 1.00298 0.993198
1.00026 1.00222 0.992007
0.99997 1.00284 0.991974
1.00013 1.00231 0.992298
0.999758 1.00205 0.993135
1.00011 1.00244 0.992126
0.999721 1.00218 0.993043
1.00021 1.00159 0.992623
1.00054 1.00312 0.99038
1.00024 1.00259 0.991867
1.00015 1.00398 0.990603
1.00107 1.00415 0.988157
1.00115 1.00448 0.987943
0.999958 1.00483 0.990079
1.00069 1.00486 0.988459
0.999883 1.00353 0.991476
0.999745 1.00451 0.990831
0.999403 1.00493 0.990732
0.999735 1.00379 0.99157
0.999851 1.00285 0.992044
1.00006 1.00177 0.992825
1.00001 1.00247 0.992285
1.00012 1.00157 0.992952
1.0002 1.00023 0.994116
1.00018 1.00145 0.992989
1.00024 1.00013 0.994144
1.00003 0.998143 0.996965
1.00025 1.00013 0.994145
1.00009 0.998087 0.99667
0.999942 0.996825 0.998122
1.00014 0.998029 0.996367
0.999987 0.996741 0.998642
0.999996 0.996707 0.999191
1.00024 1.00161 0.992562
1.00018 1.00003 0.99418
1.00016 1.00147 0.993036
1.00016 0.997727 0.996657
1.00014 0.999861 0.994503
1.00008 1.00131 0.993139
1.00003 0.996422 0.999276
1.00016 0.997645 0.996755
1.00011 0.99975 0.994755
1.00003 0.996393 0.999286
1.00015 0.997622 0.996787
1.00002 0.996427 0.999286
0.99488 0.995755 0.932951
0.994952 0.996464 0.913249
0.999876 0.99603 0.923602
1.00039 1.00239 0.991665
0.994668 0.998329 0.934356
0.995275 0.999868 0.917579
0.995284 0.998239 0.902329
0.998306 0.997087 0.980177
0.999695 0.997646 0.955008
0.998409 0.998741 0.914371
0.994746 0.999569 0.897245
0.995852 0.998307 0.973616
0.997482 0.999075 0.95498
0.997376 0.999899 0.920503
0.994758 0.997971 0.903733
0.994888 0.998616 0.969854
0.995381 1.00054 0.954214
0.994852 0.999932 0.924513
0.994816 0.996714 0.909459
1.0002 1.00375 0.990644
1.00008 1.00352 0.991088
1.00007 1.0029 0.991814
1.00034 1.0029 0.99121
1.00031 1.00298 0.991252
1.00018 1.00273 0.991779
1.00032 1.00239 0.99193
1.00024 1.00233 0.992169
1.00058 0.99903 0.994014
1.00204 0.997219 0.993509
1 1.00414 0.990597
1.00075 1.00346 0.990533
1 1.00515 0.990136
0.9999 1.00471 0.990285
1 1.00456 0.990198
0.99849 0.997963 0.9957
0.999845 1.0051 0.990004
0.999806 1.00385 0.991248
0.998643 0.998344 0.999125
0.999977 1.00435 0.990313
0.997069 0.998553 0.995806
0.996837 0.999669 1.0015
0.999578 1.00494 0.990628
0.999979 1.00496 0.990056
0.994475 0.995279 0.956154
0.994733 0.99737 0.935613
0.994803 0.997059 0.913379
0.998006 1.00244 0.996157
0.99631 1.00308 0.997299
0.995173 0.995684 0.934876
0.995685 0.999996 0.956174
0.994849 0.999 0.977611
0.994842 0.999957 0.924026
0.994642 0.997681 0.930964
0.994787 0.997294 0.912336
0.996668 1.0033 0.997865
0.994476 0.994866 0.952034
0.994632 0.996672 0.938528
0.994935 1.00257 0.997106
0.994776 0.998023 0.90391
0.995133 0.999359 0.954084
0.995209 1 0.926874
0.995532 1.00422 0.998313
0.994473 0.99471 0.957031
0.994648 0.998412 0.934565
0.994759 0.99915 0.899852
0.995781 0.999948 0.923677
0.995027 0.998737 0.988021
0.995774 1.00096 0.946629
0.998721 1.00125 0.995698
0.996302 1.00427 0.997528
0.995419 1.00444 1.00011
1.00024 1.00245 0.99171
0.999003 1.00382 0.992772
0.997459 1.00388 0.994882
0.999257 1.00294 0.993164
0.996747 1.00422 0.996128
0.997794 1.00404 0.995021
0.999892 1.00209 0.993056
1.00007 1.00238 0.992137
0.999873 1.00228 0.993006
0.999407 1.0041 0.991276
0.999681 1.00196 0.993178
1.00034 1.00297 0.990748
1.00124 1.0042 0.988274
1.00302 1.00312 0.986084
1.00049 1.00389 0.990448
1.00127 1.00425 0.987905
1.00198 1.00344 0.988249
1.00012 1.00492 0.989181
1.00119 1.00436 0.988173
0.999771 1.00436 0.990765
1.00001 1.00481 0.990052
1.00053 1.0048 0.988605
1.00002 1.0022 0.992458
0.999847 1.00352 0.991457
0.999687 1.00459 0.990752
0.999887 1.00281 0.992129
1.00009 1.00177 0.992817
1.00015 1.0004 0.994034
1.00015 1.00156 0.992951
1.00021 1.00022 0.994115
0.999984 0.998262 0.996436
1.00025 1.00014 0.994143
1.00005 0.998138 0.996431
0.999815 0.996929 0.999213
1.00011 0.998062 0.996397
0.999926 0.996832 0.998655
0.999949 0.996783 0.999195
1.00028 1.00172 0.992379
1.00023 1.00024 0.993866
1.00024 1.00162 0.992647
1.00016 0.997864 0.996517
1.00018 1.00004 0.994142
1.00017 1.00148 0.993035
1.00001 0.996516 0.999252
1.00016 0.997726 0.996664
1.00013 0.999874 0.994385
1.00003 0.996411 0.99928
1.00015 0.997644 0.996759
1.00003 0.996398 0.999287
0.994531 0.994951 0.952699
0.994893 0.996849 0.932741
0.994939 0.997341 0.913406
1.00036 1.00241 0.991738
1.00035 1.00232 0.991739
1.00039 1.0027 0.991421
0.994677 0.996702 0.933676
0.994632 0.997886 0.934267
0.995494 1.00014 0.917087
0.995399 0.997953 0.97597
0.998419 0.999846 0.947276
0.9952 0.999901 0.928134
0.994779 0.998373 0.900774
0.995118 0.998109 0.972925
0.996393 1.00001 0.952054
0.994799 0.999961 0.925972
0.994794 0.996926 0.91072
0.994893 0.998501 0.968927
0.995591 1.00001 0.955597
0.994875 0.999993 0.923841
0.994768 0.998216 0.907657
1.00035 1.00343 0.990692
1.0002 1.00371 0.990649
1.0001 1.00354 0.991006
1.00035 1.00292 0.991191
1.00031 1.00294 0.991361
1.00035 1.00238 0.991951
0.99824 0.99848 0.996159
0.998432 0.998178 0.99914
1.00003 1.00454 0.990257
1.00027 1.00304 0.991313
0.999947 1.00512 0.989956
1.00008 1.00437 0.990171
0.999796 1.00495 0.990081
0.996943 0.998054 0.996179
0.999576 1.00446 0.991217
0.996531 1.00045 1.00099
1.00003 1.00439 0.990581
0.995626 0.997715 0.996699
0.996924 1.00269 0.997749
0.999203 1.00517 0.991439
0.994389 0.995353 0.962425
0.994412 0.99526 0.957845
0.994707 0.997642 0.936226
0.996886 1.00323 0.997734
0.995234 1.00247 0.994742
0.994475 0.995054 0.951948
0.99498 0.999279 0.958061
0.994886 0.999985 0.920234
0.994593 0.996492 0.942994
0.994789 0.998447 0.901052
0.995462 1.0046 0.998615
0.994457 0.994705 0.958706
0.994631 0.997954 0.934482
0.994916 0.999015 0.983748
0.994755 0.999396 0.895646
0.994827 0.999972 0.925071
0.995507 1.00074 0.954633
0.994851 1.0035 0.999029
0.994536 0.994748 0.953067
0.995197 0.999799 0.918531
0.994663 0.998098 0.900036
0.996093 0.998936 0.917216
0.996149 1 0.954457
0.995713 0.99997 0.977323
0.996597 1.00446 0.997084
0.99546 1.00334 1.00009
0.996548 1.00322 0.99846
0.999334 1.00285 0.993129
0.996694 1.00368 0.996068
0.997233 1.00423 0.995285
0.999353 1.00303 0.99323
1.00003 1.00243 0.992969
1.0002 1.0039 0.990886
1.00103 1.00488 0.987925
1.00013 1.00285 0.991123
1.00135 1.00419 0.988073
1.00323 1.00426 0.985271
1.00461 1.00253 0.983892
1.00258 1.00276 0.986879
1.00299 1.00341 0.98592
1.00147 1.00433 0.987655
1.00151 1.00366 0.988801
1.00168 1.00314 0.988754
0.999888 1.00495 0.989667
1.00023 1.00493 0.989288
1.00123 1.00424 0.988407
0.999946 1.00313 0.991653
0.999871 1.00426 0.990776
1.00005 1.00478 0.990025
1.00009 1.00069 0.993841
1.00006 1.00219 0.992446
0.999813 1.0035 0.991439
1.00011 1.00176 0.992809
1.00016 1.0004 0.994032
0.999898 0.998445 0.996401
1.00021 1.00022 0.994115
0.999987 0.998259 0.996434
0.999748 0.997087 0.999206
1.00006 0.998126 0.996429
0.999845 0.996954 0.99867
0.999888 0.996878 0.999201
1.00034 1.00176 0.992372
1.00029 1.00039 0.993795
1.0003 1.00171 0.992426
1.00015 0.998036 0.996356
1.00023 1.00024 0.993943
1.00025 1.00164 0.992732
0.999981 0.996655 0.999219
1.00016 0.997859 0.996526
1.00019 1.00005 0.994103
1.00002 0.996494 0.99926
1.00016 0.997725 0.996672
1.00004 0.996404 0.999283
0.994478 0.994636 0.956808
0.994471 0.994706 0.952613
0.994908 0.997071 0.932634
1.00026 1.00244 0.991752
1.00019 1.00294 0.991513
1.00031 1.00242 0.991812
1.00033 1.00235 0.991747
1.00034 1.00275 0.991391
1.00027 1.00266 0.991607
1.00049 1.00277 0.991214
0.994632 0.997632 0.930622
0.99465 0.996759 0.938188
0.994596 0.99743 0.934179
0.994776 0.997099 0.911975
0.994856 0.998439 0.970181
0.995289 1.00003 0.950778
0.994842 0.999958 0.929282
0.994917 0.998706 0.968298
0.995122 1.00003 0.949506
0.995098 0.999985 0.927964
0.994753 0.997969 0.912221
0.995713 0.997083 0.972192
0.995045 1.00067 0.948605
0.994815 0.999948 0.920081
0.994741 0.999521 0.900258
0.999982 1.00353 0.991234
1.00033 1.00342 0.990692
1.0002 1.00369 0.990655
1.00037 1.00293 0.991172
0.996985 0.997974 0.996562
0.996452 1.00106 1.00048
1.00009 1.00441 0.990029
0.9998 1.00494 0.990106
0.999752 1.00395 0.991809
0.999898 1.00427 0.990608
0.999087 1.00519 0.991419
0.995538 0.998803 0.99415
0.996468 1.00359 0.998056
0.99865 1.0046 0.992351
0.995354 0.999085 0.992506
0.997736 1.00475 0.995978
0.994471 0.99504 0.956454
0.994371 0.99497 0.964738
0.994357 0.994944 0.959533
0.99527 1.00495 0.998852
0.995023 0.99759 0.988998
0.994459 0.994645 0.960399
0.996703 1.00099 0.947182
0.995106 0.999959 0.928249
0.994613 0.997496 0.934396
0.994726 0.999573 0.897609
0.994961 1.00194 0.999415
0.994477 0.994721 0.952996
0.995438 0.999679 0.918032
0.994893 1.00071 0.979002
0.994664 0.998044 0.891863
0.997361 0.999899 0.920153
0.994975 1.00001 0.948918
0.995378 1.00379 0.993663
0.995113 0.995313 0.933678
0.995211 0.997465 0.902661
0.998665 0.997555 0.922936
0.99553 0.999971 0.954972
0.994898 0.999482 0.971995
0.995611 1.00204 0.999967
0.995982 1.00402 0.998462
0.998402 0.999983 0.998023
0.996703 1.0044 0.995549
0.998449 1.00327 0.993653
1.00275 1.00026 0.989868
1.00101 1.00365 0.990493
1.00135 1.00484 0.987784
1.00275 1.0034 0.985645
1.00148 1.00422 0.987873
1.00318 1.00433 0.985046
1.00427 1.00296 0.983983
1.00505 1.00108 0.98432
1.00484 1.00267 0.983985
1.00476 1.00254 0.983657
1.00212 1.00298 0.987455
1.00257 1.00284 0.987117
1.00297 1.00376 0.985755
1.00103 1.00445 0.988594
1.0014 1.00359 0.988825
1.00137 1.00286 0.989256
1.00002 1.0042 0.990468
0.999955 1.00489 0.989786
1.00036 1.00493 0.989396
0.999996 1.00135 0.993316
1.00003 1.00302 0.991649
0.999958 1.00417 0.990787
0.999809 0.998658 0.99634
1.00009 1.00071 0.993829
1.0001 1.00217 0.992435
1.00016 1.00039 0.99403
0.999899 0.998453 0.996397
0.999656 0.997275 0.999198
0.99999 0.998254 0.996432
0.999739 0.99712 0.999204
0.999814 0.996989 0.999206
1.00027 1.00254 0.991731
1.00039 1.00184 0.992243
1.00032 1.00056 0.993561
1.00034 1.00178 0.992361
1.00013 0.998248 0.996186
1.00028 1.00041 0.993793
1.00028 1.00175 0.992473
0.999937 0.996829 0.999181
1.00015 0.998035 0.996366
1.00024 1.00024 0.99402
0.999987 0.996624 0.999229
1.00016 0.997857 0.996536
1.00002 0.996467 0.999268
0.994449 0.994615 0.951939
0.994469 0.994673 0.958521
0.994411 0.994763 0.95252
1.00032 1.0024 0.991776
1.00014 1.00299 0.991474
1.00006 1.0033 0.991263
1.00013 1.00289 0.991501
1.00018 1.00337 0.991168
1.00032 1.00238 0.991756
1.0003 1.0028 0.991362
1.00028 1.00264 0.991603
1.00042 1.0028 0.991246
1.00014 1.00294 0.991645
0.995082 0.999419 0.918172
0.994633 0.997807 0.930553
0.994624 0.996848 0.942697
0.994763 0.997712 0.912325
0.994888 0.999972 0.920768
0.994899 0.998936 0.966933
0.994971 1.00027 0.955118
0.995017 0.997402 0.968893
0.995359 1.00035 0.955199
0.994833 0.999976 0.925985
0.994953 0.999357 0.898063
0.995169 0.995436 0.97364
0.994926 1.00046 0.956129
0.995636 0.99989 0.927621
0.994931 0.998184 0.898821
0.998996 1.00263 0.993701
0.999961 1.00363 0.991277
1.00031 1.00347 0.990692
0.995367 0.99946 0.991562
0.995973 1.00439 0.99833
0.999857 1.00421 0.990634
0.998678 1.00522 0.991399
0.998691 1.0046 0.992397
0.997126 1.00442 0.995919
0.995039 0.999429 0.992783
0.996827 1.00314 0.996634
0.995927 1.00063 0.99249
0.994858 0.997038 0.934839
0.994412 0.995015 0.958101
0.994333 0.994777 0.967053
0.995035 1.00054 0.999852
0.994904 1.00077 0.974707
0.994422 0.994729 0.952913
0.996912 1.00016 0.95234
0.995246 0.99991 0.927733
0.995609 1.00003 0.917547
0.994678 0.998146 0.883638
0.995391 1.00383 0.994026
0.995055 0.996247 0.933467
0.995328 0.997877 0.90027
0.994901 0.99949 0.973071
0.998577 0.998871 0.923178
0.996347 0.99998 0.950995
0.996179 1.00101 0.991615
0.995033 0.995937 0.911028
0.9993 0.997538 0.925989
0.997872 0.998533 0.948976
0.994841 0.998044 0.974271
0.995537 1.0047 0.99844
0.998242 1.00013 0.997972
1.00302 0.998449 0.992853
0.997594 1.00343 0.994032
1.00175 1.0007 0.990377
1.00391 0.998482 0.988397
1.00166 1.00476 0.987642
1.00283 1.00349 0.985709
1.00441 1.00057 0.985871
1.00313 1.00436 0.984823
1.00419 1.00283 0.984062
1.005 0.999994 0.98548
1.0051 0.999411 0.985884
1.0051 1.0016 0.983735
1.00505 1.00103 0.984368
1.00422 1.00238 0.985042
1.00465 1.00257 0.983845
1.00487 1.00253 0.983422
1.00178 1.00387 0.987691
1.00205 1.00295 0.987759
1.00255 1.00293 0.987358
1.00065 1.00421 0.989364
1.0009 1.00442 0.988701
1.00128 1.00353 0.988848
0.999945 1.00247 0.992257
1.00011 1.00408 0.990475
1.00003 1.00484 0.989902
0.999714 0.999007 0.996693
1.00002 1.00136 0.99329
1.00012 1.00292 0.991645
0.999575 0.997515 0.998078
0.999807 0.998704 0.996587
1.0001 1.00072 0.993817
0.9999 0.998462 0.996393
0.999648 0.997317 0.999193
0.999729 0.997152 0.999202
1.00019 1.00289 0.991456
1.00037 1.00205 0.992069
1.00023 1.0026 0.991698
1.00033 1.00074 0.993382
1.00035 1.00189 0.992238
1.00008 0.998464 0.996038
1.00032 1.00057 0.99356
1.00036 1.00177 0.99235
0.999883 0.997039 0.99914
1.00013 0.998242 0.996196
1.00028 1.00042 0.99379
0.999944 0.996795 0.999192
1.00014 0.998034 0.996376
0.999992 0.996595 0.999239
0.995388 0.995122 0.935896
0.994474 0.994737 0.951862
0.994471 0.994641 0.960243
1.00018 1.00315 0.991279
1.00032 1.00241 0.9918
1.00011 1.00304 0.991435
1.00019 1.0029 0.991534
1.00015 1.00323 0.991308
1.00012 1.00336 0.991185
1.00012 1.00371 0.990813
0.999955 1.0035 0.9911
1.00032 1.0026 0.991598
1.00035 1.00282 0.991278
1.0001 1.00299 0.991592
0.99948 1.00338 0.992684
0.995243 0.998633 0.901164
0.995432 0.999569 0.917572
0.994637 0.997988 0.930485
0.995196 0.999167 0.902179
0.994929 0.999955 0.925628
0.994966 1.00067 0.948628
0.995727 0.997408 0.966691
0.995317 0.995624 0.975399
0.994765 0.998164 0.891019
0.995055 1.00004 0.952317
0.9973 0.99988 0.920105
0.994918 0.99645 0.976581
0.995642 1.00003 0.95656
0.99923 0.997694 0.920176
0.998922 1.00117 0.995475
0.999204 1.00255 0.993671
0.999932 1.00373 0.991319
0.994881 0.999574 0.993037
0.996831 1.00404 0.995862
0.998786 1.0046 0.992443
0.997947 1.00295 0.996399
0.995559 1.00085 0.992616
0.997241 1.00075 0.993628
0.994865 0.998884 0.910047
0.994851 0.996028 0.939144
0.99433 0.994895 0.959748
0.995295 1.00445 0.994407
0.994898 0.999336 0.973671
0.994953 0.996671 0.933336
0.995278 1 0.950059
0.998665 0.997481 0.915523
0.995558 0.997782 0.903161
0.99632 1.00144 0.991638
0.995098 0.996045 0.914103
0.99984 0.996678 0.919364
0.994861 0.998187 0.970292
0.997515 0.998605 0.955604
0.998016 0.999255 0.993752
0.999861 0.995796 0.919235
0.999551 0.997865 0.955134
0.994879 0.997463 0.969805
0.998023 1.00047 0.99799
1.00221 0.997733 0.993468
1.00396 0.99831 0.990122
1.0008 1.00113 0.990888
1.00363 0.999115 0.988318
1.00475 0.997721 0.987907
1.00288 1.00353 0.985774
1.00422 1.0007 0.98586
1.00494 0.998102 0.987463
1.0041 1.00272 0.984139
1.005 0.999898 0.985473
1.0051 0.997722 0.987576
1.00514 0.99802 0.987242
1.00512 1.00025 0.985109
1.00511 0.999344 0.985927
1.00508 1.00106 0.984398
1.00506 1.00153 0.98392
1.00504 1.00097 0.984415
1.00309 1.00301 0.986163
1.00386 1.00239 0.985172
1.00445 1.00245 0.983704
1.00152 1.0036 0.988399
1.00185 1.0038 0.987666
1.002 1.0029 0.988062
1.00027 1.00316 0.991039
1.0007 1.00417 0.989373
1.00077 1.00438 0.988808
0.999652 0.999587 0.995636
1.00005 1.00236 0.992238
1.0002 1.00395 0.990482
0.999463 0.997751 0.999164
0.999708 0.999086 0.996106
1.00005 1.00137 0.993264
0.999565 0.997513 0.999176
0.999799 0.998736 0.996307
0.999641 0.997362 0.999188
1.00033 1.00294 0.991265
1.00023 1.00288 0.991442
1.00035 1.00235 0.9918
1.00029 1.00096 0.993224
1.00033 1.00208 0.99207
1.00024 1.00261 0.991665
1.00003 0.998666 0.99594
1.00032 1.00074 0.993383
1.00033 1.00192 0.992233
0.99982 0.997246 0.999105
1.00009 0.998457 0.996046
1.00031 1.00059 0.993558
0.999889 0.996994 0.999152
1.00012 0.998238 0.996205
0.999951 0.996755 0.999204
0.995296 0.997901 0.903657
0.995215 0.995285 0.935709
0.994491 0.994874 0.951783
1.00007 1.00331 0.991239
1.00049 1.00334 0.990863
1.00005 1.00367 0.990935
1.00021 1.00291 0.991567
1.00023 1.00315 0.991353
1.00001 1.0034 0.991201
1.00006 1.00346 0.991085
1.00008 1.00375 0.990822
1.00001 1.00421 0.990586
1.00002 1.00134 0.993048
1.00017 1.0029 0.99154
0.999548 1.0031 0.992541
0.999822 0.996828 0.916352
0.995186 0.998629 0.897002
0.995674 0.999786 0.917003
0.994676 0.998161 0.883144
0.996671 0.998719 0.927223
0.994902 1.00004 0.952209
0.995528 0.99535 0.972977
0.994894 0.996783 0.974817
0.998564 0.998802 0.92221
0.996287 0.999993 0.950462
0.995324 0.998245 0.97531
0.999037 0.998258 0.948708
1.00193 0.998812 0.99292
0.999153 1.00111 0.995228
0.999365 1.00244 0.993655
0.994993 1.00121 0.992714
0.99874 1.00269 0.996155
0.997774 1.00095 0.99298
1.00021 0.999189 0.989872
0.999923 0.994849 0.924735
0.994911 0.99794 0.911564
0.994779 0.995199 0.943374
0.996465 1.00159 0.991772
0.994869 0.998268 0.968917
0.995206 0.996654 0.914237
0.998326 0.998088 0.948254
0.999844 0.997291 0.926841
0.997837 0.999141 0.991868
0.999898 0.995501 0.923271
1.00131 0.997026 0.947227
0.994896 0.99712 0.973009
0.999121 0.996351 0.993431
1.00006 0.996303 0.954519
0.995925 0.997601 0.975358
1.00144 0.996933 0.994055
1.00382 0.997533 0.990086
1.00498 0.99692 0.989172
1.00322 0.999759 0.988241
1.00454 0.997833 0.987902
1.00482 0.996764 0.988748
1.00407 1.00088 0.985851
1.00481 0.998201 0.987419
1.00507 0.996084 0.989071
1.005 0.999808 0.985468
1.0051 0.997672 0.987572
1.00513 0.996378 0.988895
1.00511 0.997203 0.98827
1.00513 0.997872 0.987413
1.00516 0.998873 0.986536
1.00515 1.00033 0.985132
1.00512 1.00025 0.98513
1.00511 0.999277 0.985969
1.00447 1.00132 0.985184
1.00495 1.00109 0.984497
1.00504 1.00143 0.984105
1.00242 1.00327 0.987171
1.00313 1.00299 0.98614
1.0035 1.00244 0.985301
1.00082 1.00306 0.990154
1.00161 1.00355 0.988376
1.00191 1.00375 0.987642
0.999715 1.00034 0.994754
1.00036 1.00303 0.991041
1.00077 1.00408 0.989381
0.999466 0.998007 0.999065
0.999652 0.999684 0.995592
1.00014 1.00229 0.992219
0.999495 0.997775 0.998579
0.999701 0.999144 0.996085
0.999566 0.997579 0.999165
1.00046 1.00294 0.991034
1.00021 1.00303 0.991279
1.00026 1.00277 0.991482
1.00028 1.00287 0.991428
1.00029 1.0024 0.9918
1.00024 1.00127 0.993004
0.999945 0.99887 0.995886
1.00029 1.00095 0.99323
1.00028 1.00214 0.99207
0.999752 0.99743 0.999082
1.00003 0.998659 0.995946
1.00031 1.00075 0.993384
0.999826 0.997209 0.999115
1.00008 0.998454 0.996054
0.999897 0.996952 0.999164
0.999875 0.995227 0.924607
0.995324 0.998081 0.904801
0.995192 0.995387 0.935511
0.999965 1.00349 0.991199
0.999984 1.0039 0.990799
1.0003 1.00332 0.991052
1.00116 1.00344 0.98949
1.00002 1.0043 0.99049
1.00014 1.00347 0.99107
1.00007 1.00376 0.990831
0.999928 1.00405 0.99075
1.00018 1.0038 0.989745
1.00072 1.00115 0.99232
1.00408 0.999255 0.988182
0.99983 1.00148 0.993367
0.999723 1.00277 0.992396
1.00004 0.997239 0.953972
0.999798 0.997164 0.919363
0.995159 0.99841 0.89823
0.999084 0.998635 0.914059
0.9958 0.999951 0.953842
0.994918 0.996686 0.976885
0.995062 0.998156 0.977399
0.997445 0.998481 0.956894
0.996343 0.998658 0.976175
1.00379 0.996565 0.991333
1.00144 0.999087 0.992987
0.99938 1.0011 0.994968
0.998343 1.00097 0.992388
1.00133 0.999775 0.988296
1.00002 0.995128 0.951235
0.999914 0.994886 0.927855
0.995035 0.996879 0.913164
0.997554 0.999152 0.989955
0.994853 0.996976 0.970089
0.999877 0.99588 0.924181
0.999881 0.997902 0.955007
0.998676 0.99773 0.993786
1.00136 0.996114 0.953829
0.996136 0.997353 0.972215
1.00094 0.997695 0.991854
0.999261 0.996305 0.980432
1.00363 0.996738 0.990088
1.00498 0.996348 0.98909
1.00502 0.995635 0.989936
1.00437 0.998008 0.987896
1.00474 0.996794 0.988721
1.00507 0.995286 0.989932
1.00467 0.998304 0.987377
1.00507 0.996134 0.989051
1.00513 0.995244 0.989907
1.0051 0.997625 0.987569
1.00513 0.996388 0.988856
1.0051 0.996263 0.989257
1.00512 0.997004 0.988399
1.00514 0.997925 0.987542
1.00513 0.997725 0.987585
1.00516 0.998892 0.98652
1.00517 0.999512 0.98592
1.00502 1.00018 0.985434
1.00515 1.00038 0.985102
1.00513 1.00026 0.98515
1.00364 1.00195 0.98632
1.00448 1.00134 0.985194
1.00482 1.00112 0.984596
1.00141 1.00282 0.989291
1.00246 1.00321 0.987152
1.00317 1.00298 0.986116
0.999938 1.00086 0.99381
1.00087 1.00301 0.990148
1.00165 1.00355 0.988353
0.999515 0.998398 0.998878
0.999746 1.00037 0.994726
1.00046 1.00288 0.991045
0.999503 0.998076 0.999012
0.999656 0.999774 0.995546
0.999526 0.997811 0.999107
1.00124 1.00307 0.989502
1.0005 1.00284 0.991023
1.00032 1.00301 0.991037
1.00011 1.00308 0.991292
1.00022 1.00284 0.991432
1.00019 1.00173 0.992597
1.00025 1.00243 0.9918
1.00023 1.00126 0.993013
0.999851 0.999113 0.995815
0.999681 0.997598 0.999068
0.999948 0.998851 0.995892
1.00028 1.00095 0.993235
0.999757 0.99741 0.999089
1.00002 0.998657 0.995952
0.999833 0.997167 0.999125
1.00074 0.995036 0.957314
0.999898 0.995798 0.923285
0.995199 0.998462 0.902437
0.999922 1.00413 0.990663
1.00014 1.00325 0.991241
1.00008 1.00425 0.990538
1.00105 1.0034 0.98959
1.00194 1.00397 0.98758
1.00035 1.004 0.989769
0.999843 1.00392 0.990914
1.00059 1.00386 0.989387
1.00057 1.00155 0.992126
1.0022 1.00105 0.988969
1.00416 0.998769 0.989187
1.00458 0.997373 0.988779
1.00356 0.999117 0.988896
0.999457 1.00182 0.993687
0.995758 0.997618 0.975476
1.00045 0.996464 0.952366
0.998999 0.997376 0.926602
0.998552 0.998971 0.948636
0.994864 0.998336 0.978711
0.996503 0.998579 0.980585
1.0005 0.99829 0.992229
1.00381 0.996329 0.991579
1.00124 0.999268 0.993057
1.00268 1.00041 0.986655
0.997416 0.9969 0.976597
1.00049 0.995185 0.959053
0.999893 0.994865 0.920954
0.998368 0.998586 0.994042
0.996102 0.99679 0.974324
1.00068 0.996376 0.952942
1.00091 0.997801 0.991988
0.99866 0.996555 0.97948
1.00355 0.997096 0.991072
1.00357 0.997128 0.989023
1.00492 0.99581 0.988986
1.005 0.995544 0.989884
1.0051 0.994862 0.990456
1.00469 0.996796 0.988694
1.00507 0.99527 0.989898
1.00508 0.995011 0.990377
1.00505 0.996176 0.989029
1.00513 0.995334 0.989876
1.00511 0.99574 0.98978
1.00513 0.996398 0.988817
1.0051 0.99625 0.98916
1.00512 0.997095 0.988304
1.00513 0.996807 0.988528
1.00514 0.997798 0.987701
1.00517 0.998972 0.986499
1.00515 0.998912 0.986504
1.00517 0.999572 0.985887
1.00508 0.999762 0.985924
1.00444 1.00037 0.986208
1.00503 1.00027 0.985444
1.00515 1.00044 0.985072
1.00236 1.00203 0.988437
1.00359 1.00194 0.986338
1.0045 1.00135 0.985205
1.00015 1.00133 0.992954
1.00146 1.00284 0.989276
1.00251 1.00316 0.987133
0.999618 0.998872 0.998605
0.999999 1.00085 0.9938
1.00094 1.00295 0.990141
0.999575 0.998503 0.998783
0.99977 1.00042 0.994698
0.999552 0.998145 0.998946
1.00184 1.00364 0.987841
1.0013 1.00307 0.989532
1.00086 1.00308 0.990086
1.00049 1.0028 0.991013
1.00037 1.003 0.990952
1.00031 1.00217 0.991999
1.00019 1.0029 0.991382
1.00018 1.00174 0.992604
0.999766 0.999466 0.995617
1.00022 1.00126 0.993021
0.99986 0.999073 0.995826
0.99962 0.99776 0.999048
0.999686 0.99758 0.999073
0.999952 0.998832 0.995898
0.999761 0.99738 0.999095
0.996696 0.996633 0.977158
1.00072 0.995231 0.950162
0.999877 0.994964 0.928331
1.00371 1.00255 0.985774
1.00016 1.0042 0.990586
1.00095 1.00336 0.989691
1.00053 1.00404 0.989621
1.00181 1.00397 0.987552
1.00221 1.00185 0.988639
1.00099 1.0039 0.98903
1.00045 1.00189 0.991935
1.00246 1.001 0.989102
1.00417 0.998597 0.988838
1.00479 0.998003 0.987603
1.0042 0.996122 0.99083
1.00449 0.997279 0.988483
1.00297 0.998891 0.989612
0.999957 0.998285 0.993646
0.996044 0.99774 0.973804
1.00021 0.996454 0.951276
0.996682 0.998195 0.978358
1.00054 0.997379 0.99436
1.00333 0.996208 0.991806
1.00153 0.996404 0.989035
0.996869 0.995861 0.978531
1.00003 0.995031 0.951403
1.00064 0.998328 0.992156
0.998649 0.996868 0.978186
1.00334 0.996663 0.991323
1.00349 0.996711 0.989226
1.00482 0.99491 0.991029
1.00464 0.996928 0.99076
1.00503 0.995437 0.989836
1.0051 0.994897 0.990365
1.0051 0.994884 0.990406
1.00504 0.995266 0.989864
1.00506 0.994991 0.990371
1.00512 0.995349 0.990068
1.00514 0.995427 0.989846
1.00512 0.995708 0.989717
1.00511 0.996664 0.988777
1.0051 0.996237 0.989062
1.00512 0.997111 0.988305
1.00518 0.998391 0.986997
1.00514 0.997671 0.987861
1.00517 0.998874 0.98662
1.00511 0.99954 0.985997
1.00517 0.99963 0.985854
1.00508 0.99978 0.985845
1.00462 0.999949 0.986462
1.00317 1.00086 0.988169
1.00439 1.00044 0.986288
1.00505 1.00036 0.985454
1.00058 1.0013 0.992229
1.00233 1.00206 0.988447
1.00354 1.00192 0.986355
0.999666 0.999371 0.99834
1.0003 1.00117 0.992933
1.00149 1.00284 0.989262
0.999666 0.998965 0.998509
1.00007 1.0008 0.993788
0.99964 0.998587 0.998682
1.00318 1.0028 0.986083
1.00181 1.00367 0.987869
1.00154 1.00334 0.988776
1.00136 1.00308 0.989561
1.0009 1.00305 0.990101
1.00048 1.00258 0.991311
1.00043 1.00299 0.990866
1.00022 1.00229 0.991998
0.999726 0.99995 0.9952
1.00015 1.00177 0.992611
0.999778 0.999402 0.995638
0.999581 0.997963 0.998988
0.999868 0.999037 0.995837
0.99962 0.997742 0.999056
0.999689 0.997568 0.999077
1.00091 0.996959 0.991929
0.99703 0.996009 0.973501
1.00011 0.995141 0.958169
1.00344 1.00096 0.986914
1.00506 0.99916 0.986369
1.0036 1.00227 0.98591
1.0007 1.00409 0.989472
1.00168 1.00397 0.987515
1.0025 1.00179 0.988413
1.00506 0.998273 0.987533
1.0027 1.00096 0.989231
1.00411 0.998434 0.988485
1.00475 0.998013 0.98786
1.00502 0.996904 0.98853
1.00446 0.995549 0.990846
1.00425 0.996282 0.990476
1.00459 0.997288 0.988187
1.00011 0.998452 0.993766
0.996007 0.997857 0.97172
1.00072 0.996737 0.99653
1.0044 0.995316 0.992033
1.00125 0.996785 0.989188
0.99715 0.995279 0.975971
1.00336 0.996306 0.991551
1.00343 0.996787 0.989451
1.00484 0.994972 0.991214
1.00473 0.996205 0.990633
1.00512 0.994934 0.990293
1.00512 0.995096 0.990361
1.0051 0.994966 0.990271
1.00509 0.994897 0.9904
1.00518 0.995206 0.990016
1.00506 0.994965 0.990364
1.00511 0.995381 0.989982
1.00511 0.996176 0.989203
1.00513 0.995678 0.989654
1.00511 0.996674 0.988781
1.00517 0.998042 0.987367
1.00512 0.997127 0.988305
1.00517 0.998398 0.987013
1.00513 0.999382 0.986113
1.00517 0.998773 0.98674
1.00511 0.999509 0.986029
1.00469 0.999871 0.986418
1.00508 0.999803 0.985765
1.0046 0.999958 0.986419
1.00347 1.00024 0.988251
1.00097 1.00086 0.991924
1.00314 1.00088 0.988173
1.00433 1.00051 0.986368
0.999704 0.999883 0.998098
1.00065 1.00124 0.992207
1.00229 1.00213 0.988457
0.999713 0.999495 0.998249
1.00042 1.00108 0.992909
0.999714 0.999062 0.998417
1.00463 1.00038 0.985756
1.00321 1.0027 0.986046
1.00255 1.00302 0.987145
1.00178 1.00368 0.987898
1.00146 1.00335 0.98881
1.00085 1.00292 0.990387
1.00093 1.00302 0.990117
1.0004 1.00268 0.991314
0.999815 1.00047 0.994548
1.00015 1.00238 0.991997
0.999733 0.999886 0.995222
0.999571 0.998272 0.998854
0.99979 0.999341 0.995659
0.999573 0.997931 0.999012
0.999622 0.997727 0.999063
1.00455 0.995019 0.991545
1.00103 0.996522 0.990617
0.9965 0.99549 0.974039
1.00511 0.998217 0.987228
1.00363 1.0005 0.987179
1.00515 0.998537 0.986923
1.00504 0.999316 0.986358
1.00348 1.00197 0.986057
1.0051 0.997468 0.987831
1.00278 1.00171 0.988192
1.00504 0.998325 0.987341
1.00514 0.99614 0.98895
1.00472 0.998065 0.98812
1.00495 0.996997 0.988468
1.00447 0.995639 0.990961
1.00413 0.99634 0.990111
1.00007 0.998622 0.993882
1.00511 0.995083 0.990077
1.00441 0.995817 0.992087
1.00102 0.996813 0.989317
1.00485 0.995035 0.991404
1.00475 0.995433 0.99051
1.00511 0.994945 0.990347
1.00513 0.994991 0.990326
1.00519 0.995 0.990244
1.00509 0.994903 0.990394
1.00519 0.995176 0.990036
1.00515 0.995928 0.989476
1.00511 0.995414 0.989895
1.00512 0.996246 0.989123
1.00515 0.997821 0.987631
1.00511 0.996686 0.988785
1.00517 0.998055 0.987373
1.00516 0.999207 0.986263
1.00517 0.998404 0.987029
1.00513 0.999376 0.986131
1.00475 0.999837 0.98634
1.0051 0.999479 0.986061
1.00469 0.999878 0.986427
1.00358 1.00009 0.988211
1.00459 0.999965 0.986377
1.00346 1.00025 0.988237
1.00109 1.00045 0.993353
0.999934 0.999992 0.995409
1.00103 1.0008 0.992572
1.00311 1.00091 0.988176
0.999767 0.99998 0.998014
1.00078 1.00111 0.992191
0.999764 0.999595 0.998148
1.00519 0.998549 0.986878
1.00509 0.999372 0.986228
1.00466 1.00039 0.985821
1.00379 1.00143 0.986391
1.00322 1.00261 0.98601
1.00252 1.00308 0.987147
1.00155 1.00278 0.989217
1.00139 1.00337 0.988844
1.00076 1.00294 0.990416
1.00005 1.00097 0.993676
1.00032 1.00278 0.991318
0.999777 1.00046 0.99456
0.999567 0.998728 0.998635
0.999739 0.99982 0.995244
0.999549 0.998206 0.998908
0.999568 0.997901 0.999033
1.00514 0.995461 0.989645
1.00475 0.995017 0.991774
1.00141 0.995969 0.98932
1.00512 0.997691 0.987602
1.00505 0.998257 0.987205
1.00384 1.00007 0.987432
1.00515 0.998592 0.986887
1.00502 0.999478 0.986347
1.00511 0.996393 0.989164
1.00508 0.997483 0.98774
1.00503 0.998384 0.98715
1.00513 0.996141 0.988971
1.00494 0.997066 0.988406
1.00453 0.995801 0.991098
1.00516 0.995109 0.990334
1.00513 0.995123 0.990209
1.00444 0.996345 0.992145
1.00511 0.994914 0.990398
1.00514 0.99496 0.990291
1.00519 0.994963 0.990258
1.00514 0.995916 0.989613
1.00519 0.995152 0.990056
1.00516 0.995928 0.989435
1.00512 0.997647 0.987898
1.00512 0.99632 0.989043
1.00516 0.997824 0.987632
1.00517 0.99904 0.986428
1.00517 0.998068 0.987379
1.00515 0.999203 0.986273
1.00482 0.999811 0.986256
1.00512 0.99937 0.986149
1.00475 0.999837 0.986349
1.00366 1.00007 0.98807
1.00468 0.999884 0.986437
1.00358 1.00008 0.988206
1.00119 1.00013 0.993516
1.00346 1.00026 0.988224
1.00122 1.00036 0.993315
0.999924 1.00002 0.995533
0.999809 1.00021 0.996653
1.00117 1.00072 0.993112
0.999812 1.0001 0.997943
1.00517 0.998184 0.987285
1.00511 0.999099 0.986467
1.0052 0.998389 0.986972
1.00457 0.99997 0.986504
1.00509 0.999371 0.986196
1.00468 1.00041 0.985885
1.00384 1.00144 0.986363
1.00254 1.00178 0.988335
1.00249 1.00314 0.987149
1.00152 1.00274 0.989236
1.00038 1.00134 0.992726
1.00067 1.00297 0.990445
0.999929 1.00106 0.993697
0.999556 0.999366 0.998352
0.999732 1.00047 0.994572
0.999542 0.998629 0.998722
0.999538 0.998144 0.998953
1.00512 0.995639 0.989704
1.00515 0.995486 0.989634
1.00486 0.994994 0.991971
1.00513 0.997106 0.988383
1.00512 0.997717 0.987596
1.00499 0.998293 0.98718
1.00515 0.998647 0.986851
1.00511 0.996382 0.989034
1.00507 0.997504 0.987648
1.00512 0.996139 0.988993
1.00519 0.995846 0.98963
1.00516 0.995161 0.990233
1.00515 0.995121 0.990341
1.00512 0.996514 0.988943
1.0052 0.994934 0.990273
1.00514 0.995988 0.989505
1.0051 0.997402 0.988331
1.00517 0.995929 0.989394
1.00511 0.997639 0.987902
1.00516 0.998888 0.9866
1.00516 0.997831 0.987632
1.00516 0.999041 0.986438
1.00489 0.999751 0.986206
1.00515 0.999199 0.986284
1.00482 0.999806 0.986267
1.00375 1.00009 0.987897
1.00476 0.999837 0.986358
1.00367 1.00006 0.98807
1.00128 1.00002 0.993495
1.00358 1.00007 0.9882
1.0013 1.00008 0.993447
0.999946 0.999935 0.99561
1.00135 1.00025 0.993284
0.999701 1.00018 0.995656
0.999484 1.00048 0.998122
1.00516 0.998124 0.98728
1.00514 0.998849 0.986674
1.00518 0.998203 0.987196
1.00471 0.999625 0.986933
1.00512 0.998992 0.986507
1.00521 0.998235 0.987066
1.00333 1.00053 0.98813
1.00458 0.999935 0.986495
1.00511 0.999371 0.986164
1.00389 1.00145 0.986334
1.00257 1.00175 0.988325
1.00076 1.00125 0.99207
1.00149 1.00272 0.989255
1.00024 1.00146 0.992759
0.999585 1.00007 0.998068
0.999826 1.00115 0.993716
0.999524 0.999228 0.998463
0.999523 0.998518 0.998798
1.00515 0.996448 0.988895
1.00513 0.995547 0.989739
1.00514 0.99552 0.989623
1.00512 0.997037 0.988425
1.00512 0.997739 0.987591
1.00511 0.996368 0.988904
1.00514 0.996644 0.988921
1.00519 0.995896 0.989563
1.00516 0.995212 0.990132
1.00511 0.996527 0.989027
1.00511 0.997489 0.988091
1.00514 0.996054 0.989397
1.00509 0.997509 0.988126
1.00516 0.998564 0.986975
1.0051 0.997627 0.987907
1.00515 0.998877 0.986608
1.00495 0.999647 0.9862
1.00515 0.999033 0.986447
1.00488 0.999749 0.986217
1.00385 1.00007 0.987724
1.00482 0.999801 0.986278
1.00375 1.00008 0.987902
1.00134 1.00007 0.993323
1.00368 1.00004 0.988071
1.00137 0.999985 0.993403
1.00001 0.999906 0.995552
1.0014 1.00003 0.993387
0.999748 0.999997 0.995756
0.999493 1.00037 0.995763
1.00515 0.99754 0.987963
1.00516 0.998822 0.986602
1.00516 0.997984 0.987423
1.00481 0.999421 0.986797
1.00515 0.998907 0.986616
1.00518 0.998221 0.987106
1.00359 0.999951 0.988275
1.0047 0.999527 0.986811
1.00512 0.998882 0.986547
1.00106 1.0007 0.991998
1.00335 1.00052 0.988129
1.00459 0.9999 0.986486
1.0026 1.00172 0.988316
1.00067 1.00134 0.992086
0.999647 1.00054 0.997911
1.0001 1.00157 0.99279
0.999523 0.999919 0.998174
0.999499 0.999069 0.998565
1.00513 0.996772 0.988684
1.00515 0.996432 0.988927
1.00514 0.995456 0.989774
1.00512 0.996971 0.988468
1.00513 0.997575 0.988007
1.00514 0.996627 0.988951
1.00518 0.995946 0.989497
1.00511 0.996542 0.989111
1.00511 0.997423 0.98815
1.00514 0.998475 0.987161
1.00509 0.997615 0.98792
1.00516 0.998685 0.986828
1.005 0.999387 0.986347
1.00515 0.998873 0.986617
1.00494 0.999647 0.98621
1.00395 1.00003 0.987572
1.00486 0.999752 0.986229
1.00385 1.00007 0.987729
1.00145 1.00012 0.991893
1.00376 1.00006 0.987906
1.00143 1.00004 0.992626
0.999967 0.999948 0.997917
1.00147 0.999961 0.993313
0.999832 0.9999 0.99571
0.999562 1.00007 0.995884
1.00514 0.997403 0.988178
1.00517 0.998597 0.986898
1.00515 0.997619 0.987915
1.00492 0.999244 0.986529
1.00517 0.998812 0.986654
1.00516 0.997845 0.987566
1.00372 0.999745 0.987963
1.00482 0.999435 0.986804
1.00515 0.998965 0.986559
1.00121 1.00017 0.992225
1.00359 0.999903 0.988156
1.00468 0.999423 0.986688
0.999694 1.00056 0.997927
1.00103 1.00073 0.991999
1.00338 1.00051 0.988129
1.00057 1.0014 0.992114
0.999602 1.0004 0.997955
0.999467 0.999748 0.998284
1.00513 0.997493 0.988059
1.00513 0.996787 0.988681
1.00514 0.996414 0.988958
1.00515 0.998444 0.987114
1.00512 0.997514 0.988062
1.00514 0.996608 0.98898
1.00511 0.997352 0.98821
1.00514 0.998457 0.987167
1.00498 0.999272 0.986722
1.00516 0.998806 0.986681
1.00499 0.999482 0.986379
1.00403 0.999877 0.98735
1.00493 0.999641 0.98622
1.00395 1.00003 0.987575
1.00152 1.00012 0.991757
1.00385 1.00007 0.987733
1.00146 1.00012 0.991887
0.999995 0.999974 0.997875
1.00146 1.00002 0.992005
0.999897 0.999934 0.996784
0.999656 0.999876 0.995866
1.00514 0.997692 0.987861
1.00517 0.998485 0.986952
1.00514 0.997384 0.988189
1.00496 0.999289 0.986508
1.00517 0.998642 0.986817
1.00515 0.997698 0.987867
1.00388 0.999623 0.987792
1.00492 0.999324 0.986613
1.00517 0.998803 0.986706
1.00134 0.999905 0.992266
1.00373 0.999746 0.987936
1.00483 0.999449 0.986812
0.999794 1.0003 0.997976
1.00121 1.00016 0.992229
1.0036 0.999856 0.988038
0.999702 1.00049 0.997905
1.00101 1.00075 0.991998
0.999518 1.00032 0.998024
1.00515 0.998305 0.987269
1.00513 0.997528 0.988003
1.00513 0.996804 0.988679
1.00494 0.999143 0.986901
1.00515 0.99839 0.98719
1.00512 0.99746 0.988116
1.00514 0.99844 0.987173
1.00498 0.999275 0.986719
1.00402 0.999758 0.987481
1.00498 0.999581 0.986412
1.00403 0.999918 0.987421
1.0016 1.00007 0.991677
1.00395 1.00002 0.987579
1.00152 1.00012 0.991752
1.00003 1 0.99781
1.00145 1.00012 0.99188
1.00001 0.999986 0.997847
0.999968 0.999882 0.995493
1.00517 0.998445 0.987044
1.00514 0.997563 0.987951
1.00497 0.999233 0.986573
1.00517 0.998493 0.986948
1.00514 0.997362 0.988199
1.00395 0.999684 0.987911
1.00495 0.999291 0.986502
1.00517 0.998686 0.986737
1.00147 0.999841 0.9921
1.00388 0.999672 0.987874
1.00492 0.999408 0.986697
0.999942 1.00006 0.997941
1.00134 0.999897 0.992275
1.00375 0.999741 0.987908
0.999779 1.00031 0.997958
1.00121 1.00016 0.99223
0.999678 1.00046 0.997896
1.00493 0.999101 0.986977
1.00515 0.998348 0.987215
1.00513 0.997565 0.987947
1.00395 0.999684 0.987675
1.00494 0.999156 0.986902
1.00515 0.998331 0.987266
1.00498 0.999279 0.986716
1.00404 0.999753 0.987455
1.0016 1.00003 0.991703
1.00402 0.999957 0.987492
1.00159 1.00007 0.991677
1.00009 1.00001 0.997762
1.00153 1.00012 0.991748
1.00005 1.00001 0.997795
1.00002 0.999995 0.997824
1.00496 0.999178 0.986662
1.00517 0.998317 0.987167
1.00514 0.997434 0.988041
1.00394 0.9997 0.987899
1.00496 0.999235 0.986565
1.00517 0.998501 0.986943
1.00153 0.99992 0.99193
1.00394 0.999691 0.987906
1.00495 0.999294 0.986496
1.00004 0.999945 0.997863
1.00147 0.999856 0.992105
1.00388 0.999713 0.987957
0.999894 1.00009 0.99796
1.00133 0.999903 0.992285
0.999786 1.0003 0.997931
1.00392 0.999731 0.987928
1.00493 0.999065 0.986898
1.00516 0.998388 0.987161
1.00156 0.999985 0.991837
1.00397 0.999672 0.987652
1.00495 0.999168 0.986903
1.00405 0.999745 0.987429
1.0016 1.00002 0.991711
1.00012 1.00001 0.997727
1.00158 1.00008 0.991677
1.0001 1.00001 0.997744
1.00006 1.00002 0.99778
1.00393 0.999704 0.987924
1.00495 0.999103 0.986708
1.00517 0.99819 0.987289
1.00161 0.999996 0.993024
1.00395 0.999697 0.987896
1.00495 0.999238 0.986557
1.00007 0.999947 0.997799
1.00153 0.99994 0.991934
1.00394 0.999699 0.9879
1.00001 0.999979 0.997894
1.00146 0.999882 0.99211
0.999865 1.00011 0.997972
1.00157 0.999979 0.991855
1.00392 0.999687 0.987841
1.00493 0.999026 0.986819
1.00008 1 0.997751
1.00155 0.999987 0.99184
1.00398 0.999663 0.987628
1.00159 1.00002 0.991715
1.00011 1.00001 0.997732
1.00011 1.00002 0.997733
1.00165 0.999985 0.992988
1.00394 0.999699 0.987924
1.00494 0.999026 0.986755
0.999791 0.999984 0.99807
1.00154 0.999999 0.991862
1.00396 0.999694 0.987893
1.00006 0.999959 0.997828
1.00153 0.999961 0.991938
0.999981 0.999999 0.997922
1.00005 1 0.995332
1.00159 0.999977 0.992455
1.00393 0.999647 0.987753
1.00009 1 0.997757
1.00155 0.999987 0.991847
1.00012 1.00001 0.99773
0.999757 1 0.995625
1.00159 0.999985 0.992437
1.00394 0.999695 0.987923
0.999919 0.999984 0.996697
1.00154 0.999995 0.991868
1.00005 0.999971 0.997855
1.00006 0.999994 0.997772
1.00152 0.99998 0.991917
1.00006 0.999999 0.997765
0.999906 0.999994 0.996705
1.00153 0.99999 0.991893
1.00006 0.999972 0.997806
1.00006 0.999989 0.997785
1.00005 0.999984 0.997789

TENSORS stress float
0.001593 -7.19434e-05 0.000149083
-7.19434e-05 0.000567004 -1.83046e-05
0.000149083 -1.83046e-05 0.000546174
0.00483473 -0.000112372 0.00014118
-0.000112372 0.00244935 1.21562e-05
0.00014118 1.21562e-05 0.00243161
0.00145337 2.53777e-06 7.32831e-05
2.53777e-06 0.000499233 -6.52554e-06
7.32831e-05 -6.52554e-06 0.000468207
0.00174214 -4.51114e-05 0.000149325
-4.51114e-05 0.000631043 -1.20859e-05
0.000149325 -1.20859e-05 0.000612329
0.00165797 -6.52132e-05 0.000145468
-6.52132e-05 0.000598277 -1.6783e-05
0.000145468 -1.6783e-05 0.000578337
0.0014563 -6.46882e-05 0.000149013
-6.46882e-05 0.000486135 -1.75154e-05
0.000149013 -1.75154e-05 0.00046714
0.00142429 -3.80606e-05 1.86406e-05
-3.80606e-05 0.000405572 -8.01487e-06
1.86406e-05 -8.01487e-06 0.000331249
0.00464658 -0.000135368 8.12442e-06
-0.000135368 0.0023406 -1.1491e-06
8.12442e-06 -1.1491e-06 0.00232352
0.00508307 -1.97536e-05 5.06424e-05
-1.97536e-05 0.00255219 2.43983e-06
5.06424e-05 2.43983e-06 0.00253933
0.00478324 -0.000294917 -9.91119e-06
-0.000294917 0.00245649 5.47575e-06
-9.91119e-06 5.47575e-06 0.00240457
0.00155749 2.86002e-05 0.000132123
2.86002e-05 0.000546323 1.08117e-05
0.000132123 1.08117e-05 0.000535698
0.000736075 0.000137658 1.80089e-05
0.000137658 2.77559e-05 1.17006e-05
1.80089e-05 1.17006e-05 -4.70182e-05
0.00163139 -2.56334e-05 0.000163469
-2.56334e-05 0.000561419 1.89273e-06
0.000163469 1.89273e-06 0.000547039
0.00126614 -2.36783e-05 1.86164e-05
-2.36783e-05 0.000371418 1.36267e-06
1.86164e-05 1.36267e-06 0.000337363
0.00138806 2.3318e-05 -1.73844e-05
2.3318e-05 0.000461779 4.28462e-06
-1.73844e-05 4.28462e-06 0.000428229
0.00149421 -4.19488e-05 5.67393e-05
-4.19488e-05 0.000498522 -3.29665e-06
5.67393e-05 -3.29665e-06 0.000473373
0.00141917 2.25769e-05 7.88059e-05
2.25769e-05 0.000487548 -5.70794e-06
7.88059e-05 -5.70794e-06 0.000451923
0.00146349 -1.82467e-05 6.47682e-05
-1.82467e-05 0.000492417 -6.36779e-06
6.47682e-05 -6.36779e-06 0.000466991
0.00148774 -8.34027e-05 -2.76312e-05
-8.34027e-05 0.00042871 2.22748e-06
-2.76312e-05 2.22748e-06 0.000363558
0.00521442 -0.000103987 0.00018052
-0.000103987 0.00263078 -4.23796e-06
0.00018052 -4.23796e-06 0.00262817
0.00172461 -2.96521e-05 0.000152594
-2.96521e-05 0.000617855 -9.17982e-06
0.000152594 -9.17982e-06 0.000599253
0.00172714 -5.72818e-05 0.00014676
-5.72818e-05 0.000628316 -1.46459e-05
0.00014676 -1.46459e-05 0.000609372
0.0014601 -7.83397e-05 3.7494e-05
-7.83397e-05 0.000388505 -5.70261e-06
3.7494e-05 -5.70261e-06 0.000324205
0.00143808 -5.72905e-05 2.71219e-05
-5.72905e-05 0.000392727 -7.01668e-06
2.71219e-05 -7.01668e-06 0.000326737
0.00124474 -3.06396e-05 0.000128392
-3.06396e-05 0.000363932 -1.39132e-05
0.000128392 -1.39132e-05 0.000349182
0.00134011 -1.87725e-05 1.16187e-05
-1.87725e-05 0.000380814 -9.23045e-06
1.16187e-05 -9.23045e-06 0.000297583
0.00198887 -0.000189363 1.1424e-05
-0.000189363 0.000583348 -4.42301e-06
1.1424e-05 -4.42301e-06 0.000461486
0.00446591 -0.000174759 -0.000109372
-0.000174759 0.00224524 -7.45272e-06
-0.000109372 -7.45272e-06 0.00222288
0.00327346 2.12258e-05 -8.59994e-05
2.12258e-05 0.00152254 -5.15369e-06
-8.59994e-05 -5.15369e-06 0.00150394
0.00309121 -8.91127e-05 -7.60241e-05
-8.91127e-05 0.00144991 -2.12201e-06
-7.60241e-05 -2.12201e-06 0.00142032
0.00418241 -0.00014355 7.84943e-06
-0.00014355 0.00207134 -6.51675e-07
7.84943e-06 -6.51675e-07 0.00205797
0.000633023 0.000123684 -7.38543e-07
0.000123684 -2.75539e-05 -4.48577e-07
-7.38543e-07 -4.48577e-07 -0.000100553
0.00153243 4.83633e-05 0.000152213
4.83633e-05 0.000515154 1.08209e-05
0.000152213 1.08209e-05 0.00049683
0.00172513 0.000105074 0.000154431
0.000105074 0.000639367 1.52968e-05
0.000154431 1.52968e-05 0.000619873
0.00251516 0.000149653 9.40674e-05
0.000149653 0.00099627 1.12167e-05
9.40674e-05 1.12167e-05 0.000939331
0.00333839 -0.000182857 1.13192e-05
-0.000182857 0.00159507 2.21344e-06
1.13192e-05 2.21344e-06 0.00157437
0.00254884 0.000161438 9.01034e-05
0.000161438 0.00104569 1.22629e-05
9.01034e-05 1.22629e-05 0.000985031
0.000689935 8.49864e-05 1.66306e-05
8.49864e-05 1.13835e-05 1.4088e-05
1.66306e-05 1.4088e-05 -5.27815e-05
0.000948786 0.000149817 7.56765e-06
0.000149817 8.26874e-05 4.06674e-06
7.56765e-06 4.06674e-06 -5.15601e-05
0.0027903 -0.000102034 6.89911e-05
-0.000102034 0.00126141 2.51205e-06
6.89911e-05 2.51205e-06 0.00126434
0.00526734 5.21131e-05 4.09598e-06
5.21131e-05 0.00265022 -1.0002e-06
4.09598e-06 -1.0002e-06 0.00265329
0.00327619 3.45755e-05 -6.95442e-05
3.45755e-05 0.00151574 -2.23121e-06
-6.95442e-05 -2.23121e-06 0.00149974
0.00522515 5.6201e-05 0.000178787
5.6201e-05 0.00262821 1.35275e-06
0.000178787 1.35275e-06 0.00263072
0.00131124 3.58987e-05 2.1276e-05
3.58987e-05 0.000395321 1.45893e-06
2.1276e-05 1.45893e-06 0.000363322
0.000719464 3.87332e-06 1.60742e-05
3.87332e-06 -6.24955e-05 1.79811e-06
1.60742e-05 1.79811e-06 -0.000129009
0.00498209 0.000159162 7.99673e-05
0.000159162 0.00250798 6.50572e-06
7.99673e-05 6.50572e-06 0.00248844
0.00258583 4.04518e-05 9.39882e-05
4.04518e-05 0.00100644 5.46095e-06
9.39882e-05 5.46095e-06 0.000958299
0.00118777 -7.14925e-05 -3.40811e-05
-7.14925e-05 0.00033867 4.50737e-06
-3.40811e-05 4.50737e-06 0.000303267
0.00128746 -2.95366e-05 -2.88459e-05
-2.95366e-05 0.0003973 4.36801e-06
-2.88459e-05 4.36801e-06 0.000366923
0.00144762 9.39463e-05 -3.65736e-06
9.39463e-05 0.000517421 5.82957e-06
-3.65736e-06 5.82957e-06 0.000470703
0.00150596 -0.000100987 -8.06759e-05
-0.000100987 0.000431623 1.14988e-05
-8.06759e-05 1.14988e-05 0.000371933
0.0033256 2.02107e-05 -7.50086e-05
2.02107e-05 0.00155006 -1.19939e-06
-7.50086e-05 -1.19939e-06 0.00153035
0.0014938 -3.70169e-05 6.35457e-05
-3.70169e-05 0.000496096 -2.52979e-06
6.35457e-05 -2.52979e-06 0.000470283
0.00125979 3.31759e-05 6.58009e-05
3.31759e-05 0.000394395 -4.56877e-06
6.58009e-05 -4.56877e-06 0.000364698
0.0014902 -3.41252e-05 5.9241e-05
-3.41252e-05 0.000498044 -5.08593e-06
5.9241e-05 -5.08593e-06 0.000474382
0.00150357 -7.37596e-05 -2.2085e-05
-7.37596e-05 0.000409328 7.71198e-07
-2.2085e-05 7.71198e-07 0.000349087
0.00143603 -6.47687e-05 -3.17799e-05
-6.47687e-05 0.000420153 1.45043e-06
-3.17799e-05 1.45043e-06 0.000348109
0.00149431 -8.68007e-05 -2.31147e-05
-8.68007e-05 0.000419621 1.67457e-06
-2.31147e-05 1.67457e-06 0.000358486
0.00198947 -0.000187684 -5.39348e-06
-0.000187684 0.000582616 1.50693e-06
-5.39348e-06 1.50693e-06 0.000461091
0.00518388 5.48145e-05 0.000171489
5.48145e-05 0.00260601 -1.21363e-07
0.000171489 -1.21363e-07 0.00260845
0.00172097 -1.393e-05 0.000155387
-1.393e-05 0.000615172 -6.2186e-06
0.000155387 -6.2186e-06 0.000597138
0.00236781 4.08951e-05 2.23196e-05
4.08951e-05 0.000895581 -1.11035e-06
2.23196e-05 -1.11035e-06 0.000838793
0.00146056 -6.99819e-05 3.20149e-05
-6.99819e-05 0.000383237 -4.30404e-06
3.20149e-05 -4.30404e-06 0.000319107
0.00146054 -7.17184e-05 3.39579e-05
-7.17184e-05 0.000392411 -6.31474e-06
3.39579e-05 -6.31474e-06 0.000329051
0.00195818 -0.000116044 1.05045e-05
-0.000116044 0.000514861 -2.47574e-06
1.05045e-05 -2.47574e-06 0.000406723
0.00156168 -0.000148374 1.32749e-05
-0.000148374 0.000316848 -4.66693e-06
1.32749e-05 -4.66693e-06 0.000200193
0.00110224 2.31357e-05 9.27162e-05
2.31357e-05 0.000284748 -1.0245e-05
9.27162e-05 -1.0245e-05 0.000270898
0.000952756 1.11342e-05 8.74863e-06
1.11342e-05 0.000190821 -8.09233e-06
8.74863e-06 -8.09233e-06 0.000119272
0.00189968 -0.000196473 9.97851e-06
-0.000196473 0.000571293 -4.82557e-06
9.97851e-06 -4.82557e-06 0.000441392
0.00124813 -0.000173881 7.21541e-06
-0.000173881 7.1329e-05 -1.52984e-06
7.21541e-06 -1.52984e-06 -7.65499e-05
0.00527052 6.86715e-05 -0.000179697
6.86715e-05 0.00265522 -1.20128e-05
-0.000179697 -1.20128e-05 0.00265569
0.00391658 -0.000158081 -9.53697e-05
-0.000158081 0.00192127 -4.32535e-06
-9.53697e-05 -4.32535e-06 0.00190722
0.00487068 -0.000123282 -0.000135063
-0.000123282 0.00246163 -8.81717e-06
-0.000135063 -8.81717e-06 0.00244733
0.000523416 0.000121368 -1.69326e-05
0.000121368 -8.76506e-05 -1.19281e-05
-1.69326e-05 -1.19281e-05 -0.000158974
0.00529718 0.000111109 -2.67971e-06
0.000111109 0.00266789 -1.45979e-06
-2.67971e-06 -1.45979e-06 0.00266745
0.00528399 -6.98987e-06 -8.1587e-06
-6.98987e-06 0.00267556 -2.4432e-07
-8.1587e-06 -2.4432e-07 0.00267013
0.000577695 0.000111055 -3.86982e-07
0.000111055 -0.000108698 -2.288e-07
-3.86982e-07 -2.288e-07 -0.00018259
0.00224127 -0.000104863 -4.13371e-05
-0.000104863 0.000955681 -2.96016e-07
-4.13371e-05 -2.96016e-07 0.000939808
0.000580557 0.000148047 -1.17596e-06
0.000148047 -7.48055e-05 -1.78293e-07
-1.17596e-06 -1.78293e-07 -0.000150753
0.00134405 6.32319e-05 2.67908e-05
6.32319e-05 0.00039516 3.46846e-07
2.67908e-05 3.46846e-07 0.000339161
0.000899741 0.000142809 4.52342e-07
0.000142809 5.25934e-05 -3.56762e-07
4.52342e-07 -3.56762e-07 -8.03892e-05
0.00319428 -0.000103027 9.11871e-05
-0.000103027 0.00149239 3.60234e-06
9.11871e-05 3.60234e-06 0.00149394
0.000607526 -6.26275e-05 8.51356e-08
-6.26275e-05 5.7073e-06 6.40867e-06
8.51356e-08 6.40867e-06 -2.88607e-05
0.000693418 8.01645e-05 1.70296e-05
8.01645e-05 -6.11132e-05 7.9632e-06
1.70296e-05 7.9632e-06 -0.000131423
0.000720614 0.000130155 2.14223e-05
0.000130155 -1.56116e-05 1.28603e-05
2.14223e-05 1.28603e-05 -9.32732e-05
0.00103789 0.00012737 1.20342e-05
0.00012737 1.92153e-06 4.70854e-06
1.20342e-05 4.70854e-06 -0.00012385
0.00200315 1.66283e-06 5.42269e-05
1.66283e-06 0.000784683 6.67465e-06
5.42269e-05 6.67465e-06 0.00074509
0.000977809 0.000149906 9.49702e-06
0.000149906 4.13355e-05 5.0038e-06
9.49702e-06 5.0038e-06 -9.08752e-05
0.000958758 0.000138849 6.42789e-06
0.000138849 0.000147237 4.48834e-06
6.42789e-06 4.48834e-06 1.67929e-05
0.000945764 0.00017798 3.53638e-06
0.00017798 2.69599e-05 5.2163e-07
3.53638e-06 5.2163e-07 -0.000140143
0.00249257 -0.000102848 4.1989e-05
-0.000102848 0.00108811 2.46879e-06
4.1989e-05 2.46879e-06 0.00109098
0.00266126 -0.000114881 4.96315e-06
-0.000114881 0.00119071 -3.29492e-07
4.96315e-06 -3.29492e-07 0.00119018
0.00528382 4.55051e-06 -0.000172766
4.55051e-06 0.00265705 -6.92732e-06
-0.000172766 -6.92732e-06 0.002659
0.00527723 4.49768e-05 -0.0001807
4.49768e-05 0.00265483 -3.5822e-06
-0.0001807 -3.5822e-06 0.00265836
0.00526282 7.73304e-05 -1.20595e-07
7.73304e-05 0.0026559 -1.70737e-06
-1.20595e-07 -1.70737e-06 0.0026543
0.00327778 -2.03926e-07 -8.45588e-05
-2.03926e-07 0.0015151 -2.40022e-06
-8.45588e-05 -2.40022e-06 0.00150105
0.00164699 2.27836e-05 4.00395e-05
2.27836e-05 0.000468842 5.72991e-07
4.00395e-05 5.72991e-07 0.000411877
0.00331409 7.50846e-05 -7.04377e-05
7.50846e-05 0.00153791 -3.28915e-06
-7.04377e-05 -3.28915e-06 0.00152092
0.00166439 5.74495e-05 3.85779e-05
5.74495e-05 0.000484367 1.17721e-06
3.85779e-05 1.17721e-06 0.000425307
0.00524521 0.000142873 0.000182471
0.000142873 0.00265581 3.79472e-06
0.000182471 3.79472e-06 0.00264792
0.000651646 3.55483e-06 1.71084e-05
3.55483e-06 -9.93701e-05 3.9487e-07
1.71084e-05 3.9487e-07 -0.000165001
0.00261441 1.11444e-05 9.50327e-05
1.11444e-05 0.00102074 3.60033e-06
9.50327e-05 3.60033e-06 0.000973711
0.00109219 2.88726e-05 1.17698e-05
2.88726e-05 -4.95159e-06 1.29114e-06
1.17698e-05 1.29114e-06 -0.000117523
0.00250738 8.29624e-05 9.41934e-05
8.29624e-05 0.000970337 6.71817e-06
9.41934e-05 6.71817e-06 0.000919845
0.00109913 6.92517e-05 1.15194e-05
6.92517e-05 8.67277e-06 2.44867e-06
1.15194e-05 2.44867e-06 -0.000108232
0.00164166 3.21639e-05 -0.000161569
3.21639e-05 0.000569368 1.10471e-06
-0.000161569 1.10471e-06 0.000555152
0.00124714 3.7702e-06 -2.07682e-05
3.7702e-06 0.000363439 1.7284e-06
-2.07682e-05 1.7284e-06 0.000331196
0.00128431 0.000124968 1.66907e-06
0.000124968 0.000437871 6.36263e-06
1.66907e-06 6.36263e-06 0.000387583
0.00122402 -5.19546e-05 -3.51991e-05
-5.19546e-05 0.000357349 4.57947e-06
-3.51991e-05 4.57947e-06 0.000325843
0.00160443 -5.3789e-05 -8.06859e-05
-5.3789e-05 0.00046007 6.54597e-06
-8.06859e-05 6.54597e-06 0.000405592
0.00154517 -8.70544e-05 -7.92583e-05
-8.70544e-05 0.000443171 1.03289e-05
-7.92583e-05 1.03289e-05 0.000386574
0.00146944 -0.000101395 -8.09459e-05
-0.000101395 0.000427878 1.18344e-05
-8.09459e-05 1.18344e-05 0.00036447
0.00199855 -0.000186966 -2.16536e-05
-0.000186966 0.000587119 7.06733e-06
-2.16536e-05 7.06733e-06 0.000465811
0.00524224 -8.10617e-05 2.10568e-06
-8.10617e-05 0.00264493 -1.18526e-06
2.10568e-06 -1.18526e-06 0.00264291
0.00148281 4.53828e-05 7.25166e-05
4.53828e-05 0.000488608 -2.04197e-06
7.25166e-05 -2.04197e-06 0.000463268
0.00112941 3.29309e-06 -4.26371e-05
3.29309e-06 0.000177535 6.52446e-07
-4.26371e-05 6.52446e-07 0.000119034
0.00152139 -4.08109e-05 -2.62386e-05
-4.08109e-05 0.000412675 9.94716e-07
-2.62386e-05 9.94716e-07 0.000353463
0.0024478 6.60604e-05 9.43302e-05
6.60604e-05 0.00106927 -8.68594e-07
9.43302e-05 -8.68594e-07 0.0010591
0.00163245 -2.82316e-05 -2.50491e-05
-2.82316e-05 0.000565451 -7.86632e-07
-2.50491e-05 -7.86632e-07 0.000499399
0.00150841 -8.1499e-05 -2.13362e-05
-8.1499e-05 0.000417194 1.17886e-06
-2.13362e-05 1.17886e-06 0.000357354
0.00178833 -0.00010786 -7.45483e-06
-0.00010786 0.000416759 1.27995e-06
-7.45483e-06 1.27995e-06 0.000307524
0.00194766 -0.000200265 -4.45225e-06
-0.000200265 0.00059904 1.17461e-06
-4.45225e-06 1.17461e-06 0.000468044
0.00180115 -0.000157694 -2.86883e-06
-0.000157694 0.000453074 6.11691e-07
-2.86883e-06 6.11691e-07 0.000337151
0.00126041 -0.000173678 3.30316e-07
-0.000173678 7.89377e-05 2.08826e-07
3.30316e-07 2.08826e-07 -6.87831e-05
0.000686173 9.67004e-06 1.7467e-05
9.67004e-06 -7.98492e-05 -1.18863e-06
1.7467e-05 -1.18863e-06 -0.000143552
0.00145518 1.9428e-05 2.41236e-05
1.9428e-05 0.000374775 -2.50231e-06
2.41236e-05 -2.50231e-06 0.000312167
0.00160588 -2.44995e-05 1.20454e-05
-2.44995e-05 0.000292463 -1.07479e-06
1.20454e-05 -1.07479e-06 0.000187493
0.00159093 -8.39514e-05 1.18473e-05
-8.39514e-05 0.000298507 -2.21653e-06
1.18473e-05 -2.21653e-06 0.000189278
0.00155632 -0.000125827 1.28982e-05
-0.000125827 0.000295223 -3.7189e-06
1.28982e-05 -3.7189e-06 0.000182132
0.00175204 -0.000124734 3.07526e-06
-0.000124734 0.000304517 -7.30951e-07
3.07526e-06 -7.30951e-07 0.000172809
0.00348828 0.00013542 8.5301e-05
0.00013542 0.00166576 -2.80384e-06
8.5301e-05 -2.80384e-06 0.00165904
0.00129598 -0.000156219 6.31272e-06
-0.000156219 8.0299e-05 -2.11523e-06
6.31272e-06 -2.11523e-06 -6.18651e-05
0.00045231 -1.54385e-05 7.17227e-06
-1.54385e-05 -0.000100428 -9.27746e-06
7.17227e-06 -9.27746e-06 -0.000154239
0.000714075 -0.000130776 5.73059e-06
-0.000130776 -2.80783e-05 -5.36085e-06
5.73059e-06 -5.36085e-06 -0.000157626
0.0013108 -0.000198159 7.59516e-06
-0.000198159 0.00014698 -1.87056e-06
7.59516e-06 -1.87056e-06 -1.43262e-05
0.00138157 -0.00019059 4.2279e-06
-0.00019059 8.86688e-05 8.31537e-08
4.2279e-06 8.31537e-08 -6.83719e-05
0.000494962 2.56655e-05 3.54025e-06
2.56655e-05 -7.09737e-05 -7.90454e-06
3.54025e-06 -7.90454e-06 -0.000113593
0.00067394 1.96199e-06 1.10719e-06
1.96199e-06 2.12274e-05 -3.73601e-06
1.10719e-06 -3.73601e-06 -6.64402e-05
0.00530361 0.000119573 -0.000190256
0.000119573 0.00267358 -1.28176e-05
-0.000190256 -1.28176e-05 0.00267251
0.00511099 -2.49678e-05 -0.000159687
-2.49678e-05 0.00257661 -1.01475e-05
-0.000159687 -1.01475e-05 0.00257373
0.000576126 0.000102623 -1.67905e-05
0.000102623 -0.000110658 -9.05944e-06
-1.67905e-05 -9.05944e-06 -0.000184488
0.00339792 -0.000138344 -8.06965e-05
-0.000138344 0.0016179 -2.71921e-06
-8.06965e-05 -2.71921e-06 0.00161087
0.000471798 4.98979e-05 -9.38231e-06
4.98979e-05 -0.00010017 -1.06287e-05
-9.38231e-06 -1.06287e-05 -0.000158379
0.000516761 0.000136427 -1.82131e-05
0.000136427 -0.00010708 -1.15375e-05
-1.82131e-05 -1.15375e-05 -0.000183667
0.000868332 0.000138127 -7.67933e-06
0.000138127 3.28057e-05 -5.04676e-06
-7.67933e-06 -5.04676e-06 -9.9243e-05
0.0030574 -0.000117047 5.10229e-06
-0.000117047 0.00141832 -2.50843e-07
5.10229e-06 -2.50843e-07 0.00141704
0.000555095 -7.12285e-05 5.24661e-07
-7.12285e-05 -2.14414e-05 2.23735e-07
5.24661e-07 2.23735e-07 -5.70256e-05
0.00161028 0.000100678 3.79429e-05
0.000100678 0.000465213 1.93509e-06
3.79429e-05 1.93509e-06 0.000402654
0.00154269 0.000141791 3.5924e-05
0.000141791 0.000456865 1.54712e-06
3.5924e-05 1.54712e-06 0.000388289
0.00104421 0.00012965 1.54579e-07
0.00012965 6.43847e-06 -1.52292e-07
1.54579e-07 -1.52292e-07 -0.000119887
0.000626923 2.54223e-06 -5.7731e-07
2.54223e-06 -6.89861e-07 1.29976e-07
-5.7731e-07 1.29976e-07 -4.80707e-05
0.000970773 0.000149133 5.46289e-07
0.000149133 3.78134e-05 1.66865e-07
5.46289e-07 1.66865e-07 -9.42378e-05
0.000847803 0.000125904 1.80242e-07
0.000125904 8.33915e-05 -2.88789e-07
1.80242e-07 -2.88789e-07 -4.46698e-05
0.000918713 0.000176401 1.15928e-07
0.000176401 9.94928e-06 -1.3139e-07
1.15928e-07 -1.3139e-07 -0.000157466
0.000628817 -2.79632e-05 4.94735e-06
-2.79632e-05 1.17769e-05 7.34352e-06
4.94735e-06 7.34352e-06 -2.87771e-05
0.000622354 -7.21608e-05 -2.14904e-06
-7.21608e-05 8.63645e-06 5.47397e-06
-2.14904e-06 5.47397e-06 -2.02791e-05
0.000689279 1.83307e-05 2.32871e-06
1.83307e-05 4.30959e-05 3.59999e-06
2.32871e-06 3.59999e-06 -3.89165e-05
0.00107155 0.000107765 1.18677e-05
0.000107765 6.05043e-06 4.01686e-06
1.18677e-05 4.01686e-06 -0.000116223
0.00100292 0.000143217 1.12631e-05
0.000143217 1.20581e-05 5.03792e-06
1.12631e-05 5.03792e-06 -0.000117584
0.00132174 0.000163976 6.53837e-06
0.000163976 7.86741e-05 1.69311e-06
6.53837e-06 1.69311e-06 -7.35581e-05
0.000911067 0.000111453 5.12162e-06
0.000111453 0.000152943 4.32891e-06
5.12162e-06 4.32891e-06 3.55303e-05
0.000909474 0.000170725 4.36196e-06
0.000170725 -7.15732e-05 1.85089e-06
4.36196e-06 1.85089e-06 -0.000231703
0.00106014 0.000182561 2.8635e-06
0.000182561 0.000171836 1.56936e-06
2.8635e-06 1.56936e-06 1.07764e-06
0.00128133 0.000216728 -2.72395e-06
0.000216728 0.000188214 -7.00794e-07
-2.72395e-06 -7.00794e-07 8.58239e-06
0.00233898 -9.15407e-05 3.41743e-05
-9.15407e-05 0.000992766 2.84803e-06
3.41743e-05 2.84803e-06 0.000998634
0.00241582 -0.000102439 2.29185e-06
-0.000102439 0.00104451 -2.38708e-07
2.29185e-06 -2.38708e-07 0.0010473
0.00254239 -0.000114904 -4.0393e-05
-0.000114904 0.00112415 -2.40397e-06
-4.0393e-05 -2.40397e-06 0.00112331
0.000511278 3.69526e-05 2.46383e-06
3.69526e-05 -6.07941e-05 -6.94357e-06
2.46383e-06 -6.94357e-06 -9.87342e-05
0.00325741 0.000125118 7.2976e-05
0.000125118 0.00152882 -2.74083e-06
7.2976e-05 -2.74083e-06 0.00152516
0.00529855 0.000141946 -0.000192225
0.000141946 0.00267489 -1.21509e-05
-0.000192225 -1.21509e-05 0.00267121
0.00524891 3.44475e-05 -0.000175993
3.44475e-05 0.00263707 -5.19809e-06
-0.000175993 -5.19809e-06 0.00264075
0.000681168 6.70745e-05 -1.77119e-05
6.70745e-05 -7.54653e-05 -4.34913e-06
-1.77119e-05 -4.34913e-06 -0.000143468
0.000664275 2.82601e-05 -1.772e-05
2.82601e-05 -8.89756e-05 -2.12908e-06
-1.772e-05 -2.12908e-06 -0.000156175
0.0052258 -3.35595e-05 -0.000173058
-3.35595e-05 0.00262691 -8.21077e-07
-0.000173058 -8.21077e-07 0.00263057
0.00521669 1.67548e-05 -5.87329e-07
1.67548e-05 0.00262262 2.09718e-07
-5.87329e-07 2.09718e-07 0.0026258
0.000647141 -1.2373e-06 -1.24333e-07
-1.2373e-06 -0.000102737 -1.91649e-07
-1.24333e-07 -1.91649e-07 -0.000167693
0.00163032 2.33107e-05 3.95623e-05
2.33107e-05 0.000461237 1.04805e-06
3.95623e-05 1.04805e-06 0.000404356
0.00109816 3.30859e-05 1.06846e-07
3.30859e-05 -1.40789e-06 -1.42061e-07
1.06846e-07 -1.42061e-07 -0.00011421
0.000653115 6.01392e-05 -1.83833e-07
6.01392e-05 -8.74923e-05 -1.96708e-07
-1.83833e-07 -1.96708e-07 -0.000156105
0.00109348 7.17421e-05 -5.16099e-08
7.17421e-05 5.82127e-06 -1.60788e-07
-5.16099e-08 -1.60788e-07 -0.000111504
0.000637118 -1.98021e-05 1.74522e-05
-1.98021e-05 -0.000109392 -5.19379e-07
1.74522e-05 -5.19379e-07 -0.000173118
0.00109325 1.26485e-05 1.1613e-05
1.26485e-05 -6.41042e-06 4.16817e-07
1.1613e-05 4.16817e-07 -0.000117809
0.00109109 4.95922e-05 1.16811e-05
4.95922e-05 -9.04682e-07 1.9232e-06
1.16811e-05 1.9232e-06 -0.000115323
0.00140391 4.22322e-05 4.02773e-06
4.22322e-05 6.34249e-05 3.67285e-07
4.02773e-06 3.67285e-07 -6.2397e-05
0.00109264 8.76722e-05 1.15473e-05
8.76722e-05 1.01864e-05 3.17675e-06
1.15473e-05 3.17675e-06 -0.000109269
0.00139975 8.84451e-05 4.17456e-06
8.84451e-05 7.99556e-05 6.19081e-07
4.17456e-06 6.19081e-07 -5.38392e-05
0.00521128 -4.6123e-05 -0.000180513
-4.6123e-05 0.00262187 -3.54524e-07
-0.000180513 -3.54524e-07 0.00262348
0.00127563 -9.5501e-05 -2.11342e-05
-9.5501e-05 0.000383289 2.3743e-06
-2.11342e-05 2.3743e-06 0.000348418
-0.000195174 -6.94319e-07 -1.34208e-05
-6.94319e-07 -0.000578839 2.11518e-06
-1.34208e-05 2.11518e-06 -0.000652253
0.00159808 -3.65495e-05 -8.19136e-05
-3.65495e-05 0.000452277 4.83762e-06
-8.19136e-05 4.83762e-06 0.00039747
0.00364147 0.000215428 -1.0133e-05
0.000215428 0.00178411 2.57286e-06
-1.0133e-05 2.57286e-06 0.00175298
0.00230527 -0.000103414 -7.14033e-05
-0.000103414 0.00092988 1.0822e-05
-7.14033e-05 1.0822e-05 0.000873593
0.00158858 -7.16359e-05 -7.98087e-05
-7.16359e-05 0.000457408 8.55408e-06
-7.98087e-05 8.55408e-06 0.000402442
0.00159342 -9.91098e-05 -2.34343e-05
-9.91098e-05 0.000304204 4.4952e-06
-2.34343e-05 4.4952e-06 0.00019403
0.00203065 -0.000166702 -2.04168e-05
-0.000166702 0.000583892 6.14794e-06
-2.04168e-05 6.14794e-06 0.000468803
0.00203377 -0.000206061 -1.90614e-05
-0.000206061 0.000648985 7.30174e-06
-1.90614e-05 7.30174e-06 0.000516579
0.00126507 -0.000173025 -6.11878e-06
-0.000173025 8.23936e-05 1.80069e-06
-6.11878e-06 1.80069e-06 -6.51416e-05
0.000641487 8.7883e-06 -2.89552e-08
8.7883e-06 -0.000104443 -1.22225e-07
-2.89552e-08 -1.22225e-07 -0.000168528
0.00155005 -4.87708e-05 -2.68293e-05
-4.87708e-05 0.000425697 2.8725e-07
-2.68293e-05 2.8725e-07 0.000366656
0.00117873 -2.10079e-05 -5.42898e-06
-2.10079e-05 4.91195e-05 2.46928e-07
-5.42898e-06 2.46928e-07 -5.97297e-05
0.00181521 -8.66341e-05 -3.82735e-06
-8.66341e-05 0.000424325 5.42268e-07
-3.82735e-06 5.42268e-07 0.000316774
0.00354328 0.000128515 -2.65186e-06
0.000128515 0.00169666 -4.28483e-07
-2.65186e-06 -4.28483e-07 0.00169106
0.00130737 -2.35685e-05 1.21707e-06
-2.35685e-05 0.000387383 5.77486e-07
1.21707e-06 5.77486e-07 0.000330059
0.00128342 -0.000160536 5.70565e-07
-0.000160536 0.000296373 -1.00308e-06
5.70565e-07 -1.00308e-06 0.000166069
0.00157504 -0.000125075 -4.17881e-06
-0.000125075 0.000305796 8.29374e-07
-4.17881e-06 8.29374e-07 0.00019274
0.00147478 -0.000115709 -2.63153e-06
-0.000115709 0.000145444 5.69327e-07
-2.63153e-06 5.69327e-07 1.28343e-05
0.00104668 -0.000180639 -1.35796e-07
-0.000180639 -1.84895e-06 -8.45698e-08
-1.35796e-07 -8.45698e-08 -0.000162122
0.00154776 -0.000166072 1.77776e-07
-0.000166072 0.000223054 -2.05223e-07
1.77776e-07 -2.05223e-07 8.18561e-05
0.00141098 -0.000192339 5.03274e-07
-0.000192339 0.000105982 1.49356e-07
5.03274e-07 1.49356e-07 -5.10112e-05
0.000538846 2.02021e-05 -6.806e-07
2.02021e-05 -4.7248e-05 9.80147e-08
-6.806e-07 9.80147e-08 -8.98865e-05
0.000669887 -1.26493e-05 -3.83456e-07
-1.26493e-05 1.77817e-05 2.57554e-08
-3.83456e-07 2.57554e-08 -7.08014e-05
0.00108691 -1.02393e-05 1.15139e-05
-1.02393e-05 -7.89957e-06 -9.41702e-07
1.15139e-05 -9.41702e-07 -0.000118357
0.00161381 -4.93944e-05 1.16327e-05
-4.93944e-05 0.000301748 -1.57688e-06
1.16327e-05 -1.57688e-06 0.000195186
0.00174 -3.38219e-05 2.84161e-06
-3.38219e-05 0.000266114 -1.6033e-07
2.84161e-06 -1.6033e-07 0.000145232
0.00127589 -8.83304e-05 5.07746e-06
-8.83304e-05 2.2288e-05 -7.3686e-07
5.07746e-06 -7.3686e-07 -0.000107952
0.00162616 -0.00015046 4.78667e-06
-0.00015046 0.000249301 -1.11273e-06
4.78667e-06 -1.11273e-06 0.000113016
0.00165537 -0.000133521 -3.61822e-07
-0.000133521 0.000174676 4.83091e-07
-3.61822e-07 4.83091e-07 4.26758e-05
0.000454858 2.70927e-06 5.83253e-06
2.70927e-06 -9.68689e-05 -8.51639e-06
5.83253e-06 -8.51639e-06 -0.000144034
0.00145256 -0.000174738 2.56126e-06
-0.000174738 0.000108192 -1.83215e-07
2.56126e-06 -1.83215e-07 -3.93108e-05
0.000626238 -9.97648e-05 3.69405e-06
-9.97648e-05 -2.42341e-05 -3.60004e-06
3.69405e-06 -3.60004e-06 -0.000142354
0.000775759 -0.000171019 6.54657e-06
-0.000171019 -6.63154e-05 -4.76317e-06
6.54657e-06 -4.76317e-06 -0.000237349
0.00183814 -0.000245925 3.75287e-06
-0.000245925 0.000384919 3.52905e-07
3.75287e-06 3.52905e-07 0.000208965
0.00170237 -0.000218595 -7.27345e-07
-0.000218595 0.000222382 2.5977e-06
-7.27345e-07 2.5977e-06 6.51825e-05
0.000743409 -5.03488e-05 2.57122e-06
-5.03488e-05 6.09079e-05 -3.33409e-06
2.57122e-06 -3.33409e-06 -4.0091e-05
0.000630414 6.17309e-06 1.23336e-06
6.17309e-06 -5.23972e-07 -3.2792e-06
1.23336e-06 -3.2792e-06 -7.88882e-05
0.000877487 -9.09354e-05 1.2783e-06
-9.09354e-05 0.000140736 -6.38892e-07
1.2783e-06 -6.38892e-07 1.37311e-05
0.000615796 8.15372e-05 -1.63324e-05
8.15372e-05 -0.00010111 -7.06051e-06
-1.63324e-05 -7.06051e-06 -0.000171793
0.00291808 -0.000130653 -5.42194e-05
-0.000130653 0.00134227 -2.15393e-06
-5.42194e-05 -2.15393e-06 0.00133754
0.000486587 -7.65819e-05 1.5733e-06
-7.65819e-05 -5.81079e-05 -5.91555e-06
1.5733e-06 -5.91555e-06 -9.45892e-05
0.000530941 0.000123805 -1.75169e-05
0.000123805 -0.000116674 -1.08155e-05
-1.75169e-05 -1.08155e-05 -0.000193346
0.00105461 0.000132451 -1.24014e-05
0.000132451 1.30589e-05 -5.01455e-06
-1.24014e-05 -5.01455e-06 -0.000113857
0.000454552 -6.01392e-06 -5.66853e-06
-6.01392e-06 -9.59199e-05 -8.77762e-06
-5.66853e-06 -8.77762e-06 -0.000142841
0.000714297 0.000111139 -4.76367e-06
0.000111139 7.09709e-06 -4.74821e-06
-4.76367e-06 -4.74821e-06 -0.000118424
0.000949958 0.000147405 -9.0505e-06
0.000147405 2.66061e-05 -4.80208e-06
-9.0505e-06 -4.80208e-06 -0.000105174
0.000843573 0.00017134 -4.6508e-06
0.00017134 -3.44538e-05 -1.91088e-06
-4.6508e-06 -1.91088e-06 -0.000201667
0.000543388 -3.87063e-05 1.30133e-06
-3.87063e-05 -3.5027e-05 3.04371e-07
1.30133e-06 3.04371e-07 -7.55351e-05
0.000580243 -6.80597e-05 -2.61923e-07
-6.80597e-05 -1.72386e-05 1.73146e-07
-2.61923e-07 1.73146e-07 -4.48258e-05
0.000643162 -1.91129e-05 4.25704e-07
-1.91129e-05 1.30046e-05 3.78973e-07
4.25704e-07 3.78973e-07 -6.36758e-05
0.00107288 0.000109955 4.36643e-08
0.000109955 7.78989e-06 -1.93515e-07
4.36643e-08 -1.93515e-07 -0.000115087
0.00101364 0.00014498 4.27878e-07
0.00014498 1.9308e-05 -2.31276e-07
4.27878e-07 -2.31276e-07 -0.000110676
0.00131299 0.000163684 1.64716e-07
0.000163684 7.56816e-05 1.2828e-08
1.64716e-07 1.2828e-08 -7.66802e-05
0.000794813 9.85813e-05 -9.69524e-08
9.85813e-05 8.87463e-05 1.57031e-07
-9.69524e-08 1.57031e-07 -2.68723e-05
0.00111947 0.000184617 -1.94907e-07
0.000184617 4.81797e-05 -1.41821e-07
-1.94907e-07 -1.41821e-07 -0.00011335
0.00108094 0.000182652 5.43947e-07
0.000182652 0.00018509 -5.81365e-07
5.43947e-07 -5.81365e-07 1.47923e-05
0.00121723 0.000215437 -6.61923e-07
0.000215437 0.000147512 1.5346e-06
-6.61923e-07 1.5346e-06 -3.18941e-05
0.000622426 -5.91391e-05 5.05775e-07
-5.91391e-05 -5.77142e-06 4.29837e-06
5.05775e-07 4.29837e-06 -2.73785e-05
0.000735168 5.97554e-05 3.37138e-06
5.97554e-05 6.19408e-05 3.28327e-06
3.37138e-06 3.28327e-06 -3.58803e-05
0.000663971 -3.15844e-05 4.75731e-07
-3.15844e-05 1.85791e-05 2.94342e-06
4.75731e-07 2.94342e-06 -4.1256e-05
0.000839063 6.03188e-05 5.63294e-07
6.03188e-05 0.00013911 1.21464e-06
5.63294e-07 1.21464e-06 1.99065e-05
0.00136533 0.00013967 6.1714e-06
0.00013967 8.0094e-05 1.32658e-06
6.1714e-06 1.32658e-06 -6.52964e-05
0.0013192 0.000185289 6.69133e-06
0.000185289 0.000112059 2.30059e-06
6.69133e-06 2.30059e-06 -4.60921e-05
0.00151444 0.000197801 2.33411e-06
0.000197801 0.000121958 3.68625e-07
2.33411e-06 3.68625e-07 -3.95807e-05
0.00108049 0.000154837 2.58906e-06
0.000154837 0.000232215 3.01002e-06
2.58906e-06 3.01002e-06 7.92117e-05
0.00118405 0.000206402 3.3107e-07
0.000206402 2.90563e-05 2.80337e-06
3.3107e-07 2.80337e-06 -0.000141628
0.000978011 0.000193123 -6.8256e-07
0.000193123 0.000107282 -1.09987e-06
-6.8256e-07 -1.09987e-06 -9.00847e-05
0.00139246 0.000234489 4.84798e-07
0.000234489 0.000183596 5.48255e-07
4.84798e-07 5.48255e-07 2.98198e-07
0.000687015 -1.85169e-05 1.65061e-06
-1.85169e-05 7.85854e-06 1.93257e-06
1.65061e-06 1.93257e-06 -3.37615e-05
0.000621641 -4.31271e-05 9.24536e-07
-4.31271e-05 -2.57684e-05 3.96434e-06
9.24536e-07 3.96434e-06 -4.04366e-05
0.00225051 -8.00659e-05 2.91532e-05
-8.00659e-05 0.000933162 3.26685e-06
2.91532e-05 3.26685e-06 0.000942036
0.00228215 -8.98868e-05 2.13357e-06
-8.98868e-05 0.000959442 -1.99007e-07
2.13357e-06 -1.99007e-07 0.000965679
0.00233101 -0.000100058 -3.54705e-05
-0.000100058 0.000995778 -2.67622e-06
-3.54705e-05 -2.67622e-06 0.000999044
0.000534138 4.08924e-05 1.74962e-06
4.08924e-05 -5.12812e-05 -6.02472e-06
1.74962e-06 -6.02472e-06 -8.38527e-05
0.00301114 0.000115883 5.93741e-05
0.000115883 0.00138453 -2.88282e-06
5.93741e-05 -2.88282e-06 0.00138318
0.00055489 3.45456e-05 -2.79903e-07
3.45456e-05 -3.67314e-05 1.1848e-07
-2.79903e-07 1.1848e-07 -7.47489e-05
0.00331526 0.000118219 -2.32967e-06
0.000118219 0.00156043 -2.9522e-07
-2.32967e-06 -2.9522e-07 0.00155828
0.000672021 7.87952e-05 -1.7478e-05
7.87952e-05 -7.52279e-05 -5.63815e-06
-1.7478e-05 -5.63815e-06 -0.000145053
0.000669526 3.07223e-05 -1.72448e-05
3.07223e-05 -8.55402e-05 -3.10656e-06
-1.72448e-05 -3.10656e-06 -0.000152404
0.00109284 7.36288e-05 -1.13708e-05
7.36288e-05 5.63718e-06 -2.7443e-06
-1.13708e-05 -2.7443e-06 -0.000112021
0.00109805 3.53031e-05 -1.18432e-05
3.53031e-05 -1.29671e-06 -1.55897e-06
-1.18432e-05 -1.55897e-06 -0.000114236
0.000682306 -3.48024e-06 -1.77424e-05
-3.48024e-06 -8.52734e-05 -8.94765e-07
-1.77424e-05 -8.94765e-07 -0.000148854
0.00525723 -9.66949e-05 -0.00018832
-9.66949e-05 0.00265278 2.42643e-06
-0.00018832 2.42643e-06 0.00265172
0.000666774 -8.58293e-07 1.27273e-07
-8.58293e-07 -9.36295e-05 -2.8795e-07
1.27273e-07 -2.8795e-07 -0.000157043
0.00109871 1.72203e-05 -1.14261e-08
1.72203e-05 -3.17088e-06 -1.8445e-07
-1.14261e-08 -1.8445e-07 -0.000114678
0.00109572 5.11011e-05 -1.6407e-08
5.11011e-05 2.03983e-06 -1.07989e-07
-1.6407e-08 -1.07989e-07 -0.000112608
0.00139327 4.15607e-05 -4.53633e-08
4.15607e-05 5.87393e-05 -2.58111e-08
-4.53633e-08 -2.58111e-08 -6.71557e-05
0.00108402 9.02269e-05 -3.68963e-08
9.02269e-05 6.28814e-06 -1.90141e-07
-3.68963e-08 -1.90141e-07 -0.000113829
0.00138491 9.02785e-05 -3.93319e-08
9.02785e-05 7.1615e-05 -7.65388e-08
-3.93319e-08 -7.65388e-08 -6.2634e-05
0.00109986 -2.76606e-07 1.1557e-05
-2.76606e-07 -1.59502e-06 -1.4743e-07
1.1557e-05 -1.4743e-07 -0.000112246
0.00140611 2.45122e-05 3.86084e-06
2.45122e-05 6.03707e-05 9.04559e-08
3.86084e-06 9.04559e-08 -6.32482e-05
0.00140566 6.65098e-05 4.17176e-06
6.65098e-05 7.42075e-05 4.9601e-07
4.17176e-06 4.9601e-07 -5.52109e-05
0.00161843 5.94556e-05 -3.90898e-07
5.94556e-05 8.30468e-05 -2.32249e-07
-3.90898e-07 -2.32249e-07 -3.38885e-05
0.00139566 0.000114407 4.51612e-06
0.000114407 8.39486e-05 8.95897e-07
4.51612e-06 8.95897e-07 -5.52973e-05
0.00157844 0.000109285 -1.91142e-07
0.000109285 9.02555e-05 -7.22857e-07
-1.91142e-07 -7.22857e-07 -3.87973e-05
0.000650619 7.90591e-06 -1.68541e-05
7.90591e-06 -9.90137e-05 7.81227e-07
-1.68541e-05 7.81227e-07 -0.000163709
0.00161225 -1.65179e-05 -8.29427e-05
-1.65179e-05 0.000456326 3.18761e-06
-8.29427e-05 3.18761e-06 0.000401933
0.000732914 -1.61588e-05 -1.28716e-05
-1.61588e-05 -0.000204692 1.58953e-06
-1.28716e-05 1.58953e-06 -0.000317508
0.00203274 -8.81542e-05 -2.06431e-05
-8.81542e-05 0.000546033 3.23408e-06
-2.06431e-05 3.23408e-06 0.000440312
0.00361039 0.000114727 -0.000102717
0.000114727 0.00173314 4.03323e-06
-0.000102717 4.03323e-06 0.00172977
0.00218867 -4.40366e-05 -5.99559e-05
-4.40366e-05 0.000883229 7.79051e-06
-5.99559e-05 7.79051e-06 0.000834335
0.00195407 -0.000199927 -1.39169e-05
-0.000199927 0.000675914 6.21211e-06
-1.39169e-05 6.21211e-06 0.000543644
0.00157652 -0.000123475 -2.08358e-05
-0.000123475 0.000306355 5.1261e-06
-2.08358e-05 5.1261e-06 0.000193545
0.00119525 -0.000106476 -6.75773e-06
-0.000106476 -1.49467e-05 1.45005e-06
-6.75773e-06 1.45005e-06 -0.000148431
0.00180479 -0.000176303 -7.37131e-06
-0.000176303 0.000368727 1.97568e-06
-7.37131e-06 1.97568e-06 0.000228453
0.000754442 -0.000160988 -6.7923e-06
-0.000160988 -0.000166861 9.50186e-07
-6.7923e-06 9.50186e-07 -0.000325751
0.00145921 -0.000195363 -2.70892e-06
-0.000195363 0.000133407 -2.17346e-08
-2.70892e-06 -2.17346e-08 -2.3672e-05
0.000594509 1.16079e-05 -5.75312e-06
1.16079e-05 -1.6283e-05 7.66733e-06
-5.75312e-06 7.66733e-06 -5.93233e-05
0.000688523 -2.91581e-05 -2.49695e-06
-2.91581e-05 2.84683e-05 3.10851e-06
-2.49695e-06 3.10851e-06 -6.19756e-05
0.000915088 -5.89938e-06 -4.22455e-07
-5.89938e-06 -0.000105019 -1.7132e-07
-4.22455e-07 -1.7132e-07 -0.000216621
0.00162062 -5.05001e-05 -4.47583e-06
-5.05001e-05 0.000304656 4.41877e-07
-4.47583e-06 4.41877e-07 0.000198091
0.00171802 -3.03481e-05 -2.39618e-06
-3.03481e-05 0.000250536 2.89431e-07
-2.39618e-06 2.89431e-07 0.000130455
0.00152034 -9.26583e-05 6.82777e-07
-9.26583e-05 0.000160667 -1.32027e-07
6.82777e-07 -1.32027e-07 3.15843e-05
0.000557533 -7.45036e-06 1.43187e-07
-7.45036e-06 -4.12168e-05 2.0404e-07
1.43187e-07 2.0404e-07 -8.87776e-05
0.000837385 -0.000120846 -6.29233e-08
-0.000120846 9.32272e-05 3.96335e-07
-6.29233e-08 3.96335e-07 -2.79746e-05
0.000871318 -0.000177134 1.59988e-06
-0.000177134 -8.30044e-06 -1.77812e-06
1.59988e-06 -1.77812e-06 -0.000178976
0.00170125 -0.000151327 -1.79946e-06
-0.000151327 0.000290943 4.43111e-07
-1.79946e-06 4.43111e-07 0.000154757
0.00162517 -0.000131916 -3.1748e-07
-0.000131916 0.000152642 2.8981e-07
-3.1748e-07 2.8981e-07 2.25546e-05
0.00164579 -0.000233725 -1.90512e-06
-0.000233725 0.00027142 3.69571e-07
-1.90512e-06 3.69571e-07 9.57078e-05
0.00144504 -0.000174645 2.85783e-07
-0.000174645 0.000102433 -9.5843e-08
2.85783e-07 -9.5843e-08 -4.48693e-05
0.00165918 -0.000217393 6.28657e-07
-0.000217393 0.000195052 4.74535e-07
6.28657e-07 4.74535e-07 3.78948e-05
0.00073118 -5.74257e-05 -2.65388e-07
-5.74257e-05 5.37382e-05 -1.81834e-07
-2.65388e-07 -1.81834e-07 -4.80326e-05
0.000712746 -5.77675e-05 -6.07079e-07
-5.77675e-05 4.11134e-05 -4.87985e-07
-6.07079e-07 -4.87985e-07 -7.85503e-05
0.000670356 -3.08773e-06 2.89871e-07
-3.08773e-06 2.03233e-05 2.13824e-07
2.89871e-07 2.13824e-07 -5.81366e-05
0.00173372 -1.05628e-05 2.50142e-06
-1.05628e-05 0.000253583 -1.15721e-07
2.50142e-06 -1.15721e-07 0.00013365
0.00167872 -5.92808e-05 3.11871e-06
-5.92808e-05 0.000233543 -5.79469e-08
3.11871e-06 -5.79469e-08 0.000110707
0.00165732 -4.24414e-05 -6.25189e-07
-4.24414e-05 0.00011741 6.69492e-07
-6.25189e-07 6.69492e-07 1.41528e-06
0.00156279 -0.000107298 -9.68747e-07
-0.000107298 9.71456e-05 6.99003e-07
-9.68747e-07 6.99003e-07 -2.93474e-05
0.00144879 -0.000154618 1.47265e-06
-0.000154618 7.8964e-05 7.22691e-07
1.47265e-06 7.22691e-07 -5.87083e-05
0.00167268 -0.00014943 -2.53845e-06
-0.00014943 0.000109482 1.43446e-06
-2.53845e-06 1.43446e-06 -5.58881e-06
0.000701628 -8.16129e-05 3.39426e-06
-8.16129e-05 3.60067e-05 -2.63099e-06
3.39426e-06 -2.63099e-06 -7.34868e-05
0.00155355 -0.000201624 -1.28397e-06
-0.000201624 0.000101952 1.72883e-06
-1.28397e-06 1.72883e-06 -4.06058e-05
0.000934495 -0.000168159 1.73132e-06
-0.000168159 0.000117668 -2.80458e-06
1.73132e-06 -2.80458e-06 -4.00072e-05
0.00120646 -0.000225914 5.14592e-06
-0.000225914 0.000102869 -4.32763e-06
5.14592e-06 -4.32763e-06 -9.76309e-05
0.00188737 -0.000258487 1.56386e-06
-0.000258487 0.000363334 2.78495e-06
1.56386e-06 2.78495e-06 0.00018005
0.00187938 -0.000250178 -3.94591e-06
-0.000250178 0.000266071 3.90342e-06
-3.94591e-06 3.90342e-06 0.000116102
0.000637541 -1.74716e-06 1.37303e-06
-1.74716e-06 4.2423e-07 -2.8635e-06
1.37303e-06 -2.8635e-06 -6.85315e-05
0.000799453 -0.000104556 2.01547e-06
-0.000104556 7.80163e-05 6.52822e-07
2.01547e-06 6.52822e-07 -4.60459e-05
0.000625925 -3.72553e-05 1.27088e-06
-3.72553e-05 8.74412e-06 -1.98605e-06
1.27088e-06 -1.98605e-06 -0.000109312
0.00112124 -0.000159301 -3.86031e-08
-0.000159301 0.000273858 1.96688e-06
-3.86031e-08 1.96688e-06 0.000131382
0.00106302 0.000111961 -1.23028e-05
0.000111961 3.27465e-06 -4.34227e-06
-1.23028e-05 -4.34227e-06 -0.0001202
0.000544368 -6.26123e-05 -6.44925e-07
-6.26123e-05 -3.97847e-05 -4.54535e-06
-6.44925e-07 -4.54535e-06 -6.58671e-05
0.000473926 -5.67146e-05 9.58949e-07
-5.67146e-05 -6.96539e-05 -7.64564e-06
9.58949e-07 -7.64564e-06 -0.00011173
0.000634994 -5.05764e-05 1.3372e-06
-5.05764e-05 1.25258e-05 -3.66454e-06
1.3372e-06 -3.66454e-06 -6.47946e-05
0.00102362 0.00014695 -1.07714e-05
0.00014695 2.63944e-05 -5.49529e-06
-1.07714e-05 -5.49529e-06 -0.000104026
0.00129982 0.000163181 -6.26974e-06
0.000163181 6.99523e-05 -1.6899e-06
-6.26974e-06 -1.6899e-06 -8.25523e-05
0.000683854 8.42904e-05 -3.2125e-06
8.42904e-05 2.75326e-05 -3.34494e-06
-3.2125e-06 -3.34494e-06 -8.60232e-05
0.0010836 0.000181441 -3.89038e-06
0.000181441 0.000187875 -3.65518e-06
-3.89038e-06 -3.65518e-06 1.77566e-05
0.00134663 0.000199722 -5.07149e-06
0.000199722 0.000177821 -1.82342e-06
-5.07149e-06 -1.82342e-06 1.47202e-05
0.00115217 0.000213839 -2.08924e-06
0.000213839 0.000106959 -9.93705e-07
-2.08924e-06 -9.93705e-07 -7.22378e-05
0.000597939 -5.60087e-05 -2.90532e-08
-5.60087e-05 -2.09793e-05 5.61774e-08
-2.90532e-08 5.61774e-08 -4.18664e-05
0.000736374 5.14388e-05 4.28719e-07
5.14388e-05 6.76201e-05 -1.74295e-07
4.28719e-07 -1.74295e-07 -3.22006e-05
0.000639221 -4.74049e-05 -7.53939e-07
-4.74049e-05 8.04301e-06 5.90509e-07
-7.53939e-07 5.90509e-07 -5.31027e-05
0.000793552 3.39067e-05 7.80786e-07
3.39067e-05 0.000112036 -4.00123e-07
7.80786e-07 -4.00123e-07 -3.81347e-06
0.00134838 0.000138983 7.41825e-07
0.000138983 7.27762e-05 7.49721e-09
7.41825e-07 7.49721e-09 -7.27478e-05
0.0012698 0.000183601 2.39149e-07
0.000183601 8.61823e-05 5.87423e-08
2.39149e-07 5.87423e-08 -7.22338e-05
0.00153143 0.000198171 3.13427e-07
0.000198171 0.000132335 1.92616e-07
3.13427e-07 1.92616e-07 -2.93264e-05
0.000981174 0.000149414 4.30323e-07
0.000149414 0.00017756 6.07546e-07
4.30323e-07 6.07546e-07 2.60593e-05
0.00151199 0.000226224 -1.15967e-06
0.000226224 0.000217388 -8.25255e-07
-1.15967e-06 -8.25255e-07 4.49296e-05
0.00114089 0.000207689 1.80334e-07
0.000207689 0.00019922 -1.38821e-06
1.80334e-07 -1.38821e-06 -1.66714e-06
0.00120991 0.000221743 -2.49613e-06
0.000221743 8.91617e-05 -7.63343e-07
-2.49613e-06 -7.63343e-07 -8.60507e-05
0.000616818 -5.02387e-05 1.05321e-06
-5.02387e-05 -2.04008e-05 4.0171e-06
1.05321e-06 4.0171e-06 -3.77499e-05
0.000687879 -3.33601e-05 1.11247e-06
-3.33601e-05 2.44717e-05 2.23786e-06
1.11247e-06 2.23786e-06 -2.55406e-05
0.000967641 0.000102848 2.18873e-06
0.000102848 0.000193059 1.64546e-06
2.18873e-06 1.64546e-06 6.01107e-05
0.000801116 3.65765e-05 -3.29631e-07
3.65765e-05 0.000116846 2.05759e-06
-3.29631e-07 2.05759e-06 1.75928e-05
0.000900071 0.000114576 2.46129e-07
0.000114576 0.000184118 -2.97924e-07
2.46129e-07 -2.97924e-07 4.4717e-05
0.00155285 0.000168175 1.91019e-06
0.000168175 0.000117077 -6.15936e-07
1.91019e-06 -6.15936e-07 -3.2632e-05
0.00138841 0.000209734 2.37911e-06
0.000209734 8.84581e-05 1.66662e-06
2.37911e-06 1.66662e-06 -7.97039e-05
0.00170324 0.00023421 -4.004e-07
0.00023421 0.000182443 -4.45668e-07
-4.004e-07 -4.45668e-07 2.25072e-05
0.00112803 0.000193173 4.02335e-06
0.000193173 0.000255904 4.59966e-06
4.02335e-06 4.59966e-06 6.28794e-05
0.00152741 0.00024767 3.06898e-06
0.00024767 0.000180679 3.39998e-06
3.06898e-06 3.39998e-06 3.10174e-06
0.00046353 0.000173824 3.49373e-06
0.000173824 -0.00026688 -2.42351e-06
3.49373e-06 -2.42351e-06 -0.000469959
0.00068188 -2.17335e-05 2.08277e-06
-2.17335e-05 7.87383e-06 1.88479e-06
2.08277e-06 1.88479e-06 -3.49062e-05
0.00072485 2.52017e-05 3.56777e-07
2.52017e-05 5.21256e-05 8.06562e-07
3.56777e-07 8.06562e-07 -1.59878e-05
0.000704939 -8.82206e-06 1.3374e-06
-8.82206e-06 1.63905e-05 1.95974e-06
1.3374e-06 1.95974e-06 -2.45641e-05
0.000688044 -2.62322e-05 -1.90878e-07
-2.62322e-05 9.61585e-06 5.37918e-10
-1.90878e-07 5.37918e-10 -3.2594e-05
0.00126271 -4.86068e-05 1.21486e-06
-4.86068e-05 0.000337635 2.37675e-06
1.21486e-06 2.37675e-06 0.000328341
0.000951048 -4.87484e-05 7.42911e-07
-4.87484e-05 0.00016419 -5.50279e-08
7.42911e-07 -5.50279e-08 0.000151213
0.000923619 -4.30477e-05 2.42639e-05
-4.30477e-05 0.000157504 6.78856e-06
2.42639e-05 6.78856e-06 0.000162932
0.00222198 -7.87142e-05 2.1214e-06
-7.87142e-05 0.000915701 -1.81916e-07
2.1214e-06 -1.81916e-07 0.000924931
0.00223573 -8.80566e-05 -3.18249e-05
-8.80566e-05 0.00093187 -3.05532e-06
-3.18249e-05 -3.05532e-06 0.000938562
0.00054679 4.87148e-05 2.9462e-07
4.87148e-05 -4.84744e-05 -5.32388e-06
2.9462e-07 -5.32388e-06 -7.71138e-05
0.00279446 0.000106194 4.66957e-05
0.000106194 0.00125596 -3.13873e-06
4.66957e-05 -3.13873e-06 0.00125703
0.000570664 3.93084e-05 -2.48504e-07
3.93084e-05 -3.06823e-05 1.14552e-07
-2.48504e-07 1.14552e-07 -6.34143e-05
0.00308731 0.00011137 -3.26062e-06
0.00011137 0.00142653 -2.58417e-07
-3.26062e-06 -2.58417e-07 0.00142637
0.000595072 3.13137e-05 -2.966e-06
3.13137e-05 -1.46934e-05 7.08947e-06
-2.966e-06 7.08947e-06 -5.28083e-05
0.00337915 0.000110108 -9.0242e-05
0.000110108 0.00159526 3.50952e-06
-9.0242e-05 3.50952e-06 0.00159473
0.00108778 9.30473e-05 -1.17399e-05
9.30473e-05 8.94384e-06 -3.50241e-06
-1.17399e-05 -3.50241e-06 -0.000111767
0.00110257 5.5138e-05 -1.15923e-05
5.5138e-05 6.37115e-06 -2.10474e-06
-1.15923e-05 -2.10474e-06 -0.000108666
0.00136338 8.85582e-05 -4.47577e-06
8.85582e-05 5.9512e-05 -7.95141e-07
-4.47577e-06 -7.95141e-07 -7.48989e-05
0.00138229 4.1092e-05 -4.24827e-06
4.1092e-05 5.3928e-05 -3.86996e-07
-4.24827e-06 -3.86996e-07 -7.20471e-05
0.0011034 2.05204e-05 -1.17964e-05
2.05204e-05 -3.44447e-07 -8.37695e-07
-1.17964e-05 -8.37695e-07 -0.000111977
0.000646509 1.85428e-05 -1.74124e-05
1.85428e-05 -0.000104304 -6.40525e-08
-1.74124e-05 -6.40525e-08 -0.000167955
0.00109586 1.99742e-06 1.878e-08
1.99742e-06 -3.8824e-06 -4.42971e-08
1.878e-08 -4.42971e-08 -0.000114571
0.00139514 2.61199e-05 -9.24788e-08
2.61199e-05 5.48674e-05 -5.89943e-08
-9.24788e-08 -5.89943e-08 -6.88502e-05
0.00138503 6.36178e-05 -1.12781e-09
6.36178e-05 6.42575e-05 -2.83679e-08
-1.12781e-09 -2.83679e-08 -6.51556e-05
0.00166219 6.06063e-05 -8.40467e-08
6.06063e-05 0.000104442 1.66644e-07
-8.40467e-08 1.66644e-07 -1.08931e-05
0.00137563 0.000114042 -1.71375e-07
0.000114042 7.33105e-05 -7.82563e-08
-1.71375e-07 -7.82563e-08 -6.61434e-05
0.00158823 0.000107955 -1.43629e-07
0.000107955 0.000100419 3.48392e-08
-1.43629e-07 3.48392e-08 -2.86612e-05
0.0013979 6.69928e-06 4.03534e-06
6.69928e-06 5.68933e-05 7.24182e-08
4.03534e-06 7.24182e-08 -6.56607e-05
0.00168028 3.8489e-05 -1.03049e-06
3.8489e-05 0.000103891 1.38324e-07
-1.03049e-06 1.38324e-07 -7.74397e-06
0.00159462 8.95333e-05 -3.64393e-07
8.95333e-05 8.17946e-05 -5.10857e-07
-3.64393e-07 -5.10857e-07 -4.05579e-05
0.00175196 7.08751e-05 -1.29623e-06
7.08751e-05 9.12653e-05 1.55929e-07
-1.29623e-06 1.55929e-07 -8.70824e-06
0.00157408 0.000131102 8.1111e-08
0.000131102 0.000109336 -7.88577e-07
8.1111e-08 -7.88577e-07 -2.81691e-05
0.00168407 0.000130559 -3.01724e-06
0.000130559 8.41746e-05 -9.82932e-07
-3.01724e-06 -9.82932e-07 -2.35882e-05
0.000740895 -3.19477e-06 -1.13891e-05
-3.19477e-06 -0.00020328 4.8391e-07
-1.13891e-05 4.8391e-07 -0.000316079
0.00164848 -5.31011e-05 -2.04065e-05
-5.31011e-05 0.000319392 2.40336e-06
-2.04065e-05 2.40336e-06 0.00021281
0.00169989 -2.39355e-05 -7.29289e-06
-2.39355e-05 0.000237242 5.05399e-07
-7.29289e-06 5.05399e-07 0.000118105
0.00176354 -9.72181e-05 -5.24456e-06
-9.72181e-05 0.000298389 8.72702e-07
-5.24456e-06 8.72702e-07 0.000170446
0.000665888 -1.85282e-05 -8.05565e-06
-1.85282e-05 1.91864e-05 8.53425e-06
-8.05565e-06 8.53425e-06 -2.99515e-05
0.000927628 -0.000134835 -5.74198e-06
-0.000134835 0.000145049 5.08379e-06
-5.74198e-06 5.08379e-06 2.14433e-05
0.00103086 -0.000188206 -3.11797e-06
-0.000188206 8.61488e-05 1.21716e-06
-3.11797e-06 1.21716e-06 -8.49375e-05
0.00177486 -0.000152076 -8.04693e-06
-0.000152076 0.000331765 2.03738e-06
-8.04693e-06 2.03738e-06 0.000195695
0.00158977 -0.000130052 -7.03595e-07
-0.000130052 0.000127548 -3.72596e-07
-7.03595e-07 -3.72596e-07 -5.98781e-07
0.00143706 -0.00017452 -2.01559e-06
-0.00017452 9.64059e-05 -6.62477e-08
-2.01559e-06 -6.62477e-08 -5.0693e-05
0.00143201 -0.000219973 -5.58801e-06
-0.000219973 0.000145939 -2.5623e-07
-5.58801e-06 -2.5623e-07 -2.92701e-05
0.00160023 -0.000215172 2.15264e-06
-0.000215172 0.000158752 -2.25974e-06
2.15264e-06 -2.25974e-06 1.75604e-06
0.000714169 -6.18141e-05 -3.63419e-06
-6.18141e-05 4.17618e-05 2.83487e-06
-3.63419e-06 2.83487e-06 -5.94451e-05
0.000632668 -4.9972e-05 -2.28662e-06
-4.9972e-05 -3.05204e-06 -3.02674e-07
-2.28662e-06 -3.02674e-07 -0.000122149
0.000697765 -9.99229e-06 -1.35771e-06
-9.99229e-06 3.46229e-05 3.31513e-06
-1.35771e-06 3.31513e-06 -4.42579e-05
0.00157364 -8.8352e-06 -2.38461e-06
-8.8352e-06 0.000160889 1.07083e-07
-2.38461e-06 1.07083e-07 3.96616e-05
0.00168308 -6.54514e-05 -1.947e-06
-6.54514e-05 0.000236111 3.49775e-07
-1.947e-06 3.49775e-07 0.00011282
0.00163496 -3.89094e-05 -7.06338e-08
-3.89094e-05 0.000103491 2.47185e-07
-7.06338e-08 2.47185e-07 -1.02307e-05
0.0016143 -0.000105563 -9.4372e-07
-0.000105563 0.000122397 2.08887e-07
-9.4372e-07 2.08887e-07 -3.8837e-06
0.00076899 -9.40196e-05 2.1224e-07
-9.40196e-05 7.35243e-05 3.18727e-08
2.1224e-07 3.18727e-08 -3.74188e-05
0.00103826 -0.000177024 -6.39521e-07
-0.000177024 0.000172537 7.08599e-07
-6.39521e-07 7.08599e-07 1.35553e-05
0.00107042 -0.000212644 4.77539e-07
-0.000212644 3.78249e-05 -1.45947e-06
4.77539e-07 -1.45947e-06 -0.000158415
0.00154056 -0.000158735 -2.37196e-07
-0.000158735 0.000130699 1.8117e-07
-2.37196e-07 1.8117e-07 -8.5238e-06
0.00170677 -0.0001497 1.00766e-06
-0.0001497 0.000130698 2.37105e-07
1.00766e-06 2.37105e-07 1.90984e-05
0.00171817 -0.000249004 -8.95029e-07
-0.000249004 0.000264965 4.75308e-07
-8.95029e-07 4.75308e-07 8.06753e-05
0.00157239 -0.000201446 2.47361e-07
-0.000201446 0.000112773 1.91538e-07
2.47361e-07 1.91538e-07 -2.92859e-05
0.00190506 -0.000250699 1.00759e-06
-0.000250699 0.000282696 -4.78235e-07
1.00759e-06 -4.78235e-07 0.000134811
0.000919164 -0.000119885 5.65414e-08
-0.000119885 0.000148961 1.89755e-07
5.65414e-08 1.89755e-07 2.15293e-05
0.00103313 -0.000156026 -4.28334e-07
-0.000156026 0.00022623 3.68417e-07
-4.28334e-07 3.68417e-07 8.24276e-05
0.000675915 -8.09061e-06 1.63098e-07
-8.09061e-06 2.17365e-05 1.86497e-07
1.63098e-07 1.86497e-07 -4.77015e-05
0.000539081 -1.1934e-05 -1.56092e-07
-1.1934e-05 -4.47913e-05 -8.53288e-07
-1.56092e-07 -8.53288e-07 -0.000156787
0.00163616 -2.31487e-05 -2.20951e-07
-2.31487e-05 9.51692e-05 1.1184e-07
-2.20951e-07 1.1184e-07 -1.8735e-05
0.00183125 -7.17301e-05 -2.82576e-07
-7.17301e-05 0.000222829 8.06152e-07
-2.82576e-07 8.06152e-07 0.000105355
0.00165538 -5.63897e-05 3.3959e-07
-5.63897e-05 4.06191e-05 1.34221e-07
3.3959e-07 1.34221e-07 -6.25119e-05
0.00172999 -0.000132682 -4.06454e-06
-0.000132682 0.000109931 8.41004e-07
-4.06454e-06 8.41004e-07 8.76958e-06
0.00170263 -0.000179799 -3.10929e-06
-0.000179799 0.000151368 2.48895e-06
-3.10929e-06 2.48895e-06 2.64372e-05
0.00176548 -0.000152226 -4.89334e-08
-0.000152226 0.000123843 1.86753e-07
-4.89334e-08 1.86753e-07 2.80082e-05
0.000837323 -0.000149551 1.46302e-06
-0.000149551 9.18103e-05 -4.40928e-07
1.46302e-06 -4.40928e-07 -4.54854e-05
0.00162633 -0.000222672 -5.02666e-06
-0.000222672 9.07451e-05 3.05135e-06
-5.02666e-06 3.05135e-06 -3.41167e-05
0.000322196 -0.000143823 -5.29857e-07
-0.000143823 -0.000256619 -5.18745e-06
-5.29857e-07 -5.18745e-06 -0.000435772
0.00220012 -0.000312728 3.56731e-06
-0.000312728 0.000604858 -1.60406e-06
3.56731e-06 -1.60406e-06 0.00038542
0.00169801 -0.000262111 -1.14561e-06
-0.000262111 0.000203087 5.41045e-06
-1.14561e-06 5.41045e-06 1.91388e-05
0.0019101 -0.000252988 -1.95224e-06
-0.000252988 0.000256872 1.68072e-06
-1.95224e-06 1.68072e-06 0.000113935
0.000648631 -1.05623e-05 1.77767e-06
-1.05623e-05 4.51659e-06 -2.72758e-06
1.77767e-06 -2.72758e-06 -5.80251e-05
0.000553323 -1.6233e-05 -2.03624e-08
-1.6233e-05 -2.3007e-05 -2.07976e-06
-2.03624e-08 -2.07976e-06 -0.000132389
0.000885947 -0.000163062 5.78075e-07
-0.000163062 0.000128645 2.16464e-06
5.78075e-07 2.16464e-06 -1.48851e-05
0.00090356 -0.000118742 1.75158e-06
-0.000118742 0.000173519 3.14938e-07
1.75158e-06 3.14938e-07 3.47704e-05
0.00111838 -0.000183867 -8.76832e-07
-0.000183867 0.000266638 3.93775e-06
-8.76832e-07 3.93775e-06 0.00011911
0.000579143 -5.38084e-05 -1.31056e-06
-5.38084e-05 -3.24757e-05 -4.08742e-06
-1.31056e-06 -4.08742e-06 -5.28671e-05
0.00133304 0.000138309 -4.64811e-06
0.000138309 6.66716e-05 -1.30788e-06
-4.64811e-06 -1.30788e-06 -7.89802e-05
0.000599801 -6.43679e-05 1.62844e-09
-6.43679e-05 -9.56023e-06 -2.35222e-06
1.62844e-09 -2.35222e-06 -7.29603e-05
0.000722503 3.26184e-05 -7.786e-07
3.26184e-05 5.68294e-05 -3.62265e-06
-7.786e-07 -3.62265e-06 -3.92159e-05
0.00072961 6.02865e-06 1.62294e-06
6.02865e-06 7.33407e-05 -1.5931e-06
1.62294e-06 -1.5931e-06 -3.82832e-05
0.00123235 0.00018256 -6.14638e-06
0.00018256 6.68848e-05 -2.22807e-06
-6.14638e-06 -2.22807e-06 -9.18268e-05
0.00153531 0.000197701 -1.2932e-06
0.000197701 0.000136104 6.30697e-08
-1.2932e-06 6.30697e-08 -2.55952e-05
0.000983715 0.000159684 -2.10351e-06
0.000159684 0.000182399 -2.08957e-06
-2.10351e-06 -2.08957e-06 2.94806e-05
0.00136651 0.000227698 -2.79948e-06
0.000227698 0.00032512 -2.63985e-06
-2.79948e-06 -2.63985e-06 0.000119861
0.00183844 0.000245778 -4.11431e-06
0.000245778 0.000404984 -2.15752e-06
-4.11431e-06 -2.15752e-06 0.000230817
0.00109184 0.00021366 -5.58379e-06
0.00021366 3.07289e-05 -8.65639e-07
-5.58379e-06 -8.65639e-07 -0.000137053
0.000607701 -4.86661e-05 6.26608e-08
-4.86661e-05 -2.6029e-05 7.39286e-10
6.26608e-08 7.39286e-10 -4.31164e-05
0.000666013 -4.18273e-05 -5.9888e-07
-4.18273e-05 1.36975e-05 2.1451e-07
-5.9888e-07 2.1451e-07 -3.70956e-05
0.000918995 0.000104376 5.97237e-07
0.000104376 0.000164394 1.52395e-07
5.97237e-07 1.52395e-07 3.23673e-05
0.000726553 -1.04508e-05 -4.33101e-07
-1.04508e-05 7.24978e-05 3.00351e-07
-4.33101e-07 3.00351e-07 -2.26543e-05
0.000730686 7.8051e-05 1.03717e-06
7.8051e-05 8.28817e-05 -4.13516e-07
1.03717e-06 -4.13516e-07 -5.16214e-05
0.00155355 0.000169477 6.72638e-07
0.000169477 0.000115201 -2.91277e-07
6.72638e-07 -2.91277e-07 -3.50451e-05
0.00145334 0.000213321 6.54072e-07
0.000213321 0.000127954 6.38421e-07
6.54072e-07 6.38421e-07 -4.07067e-05
0.00164782 0.000233124 1.40505e-06
0.000233124 0.000151093 2.92207e-07
1.40505e-06 2.92207e-07 -9.5463e-06
0.00107454 0.000188124 1.29313e-06
0.000188124 0.000230851 1.30374e-06
1.29313e-06 1.30374e-06 3.81417e-05
0.00161455 0.000252534 1.73468e-06
0.000252534 0.000234104 -5.54775e-07
1.73468e-06 -5.54775e-07 5.69106e-05
0.0009181 0.000208345 -2.79216e-06
0.000208345 -1.76302e-05 -1.43234e-06
-2.79216e-06 -1.43234e-06 -0.000223684
0.000696723 -2.78529e-05 1.94801e-06
-2.78529e-05 2.12099e-05 1.91477e-06
1.94801e-06 1.91477e-06 -2.39254e-05
0.000781527 2.39469e-05 3.61283e-07
2.39469e-05 9.33006e-05 1.62006e-06
3.61283e-07 1.62006e-06 1.34436e-05
0.00106357 0.000174964 -7.92914e-07
0.000174964 0.000249235 -3.53175e-07
-7.92914e-07 -3.53175e-07 8.65107e-05
0.000861196 3.57472e-05 -2.10616e-07
3.57472e-05 0.000158235 9.49559e-07
-2.10616e-07 9.49559e-07 4.34358e-05
0.00117418 8.94649e-05 -3.14345e-06
8.94649e-05 0.000318497 -3.7611e-06
-3.14345e-06 -3.7611e-06 0.000177981
0.00162913 0.000179034 -2.75154e-06
0.000179034 0.000110371 -2.74968e-06
-2.75154e-06 -2.74968e-06 -2.77249e-05
0.00163162 0.000254288 1.5838e-06
0.000254288 0.000183667 5.48316e-07
1.5838e-06 5.48316e-07 9.61919e-06
0.00148978 0.000251309 1.57536e-07
0.000251309 2.89343e-05 -1.2974e-06
1.57536e-07 -1.2974e-06 -0.0001226
0.00104034 0.000195152 -9.96602e-07
0.000195152 0.000194723 2.40412e-06
-9.96602e-07 2.40412e-06 -2.87862e-05
0.00149261 0.000265566 5.09467e-06
0.000265566 0.000179901 -5.12571e-07
5.09467e-06 -5.12571e-07 -1.76174e-05
0.000683517 -2.83804e-05 -1.02389e-07
-2.83804e-05 9.70089e-06 -3.28514e-09
-1.02389e-07 -3.28514e-09 -3.35418e-05
0.000613765 4.16388e-06 1.37887e-06
4.16388e-06 -1.84628e-05 1.19575e-06
1.37887e-06 1.19575e-06 -8.37243e-05
0.000632479 -1.19592e-05 -5.82187e-07
-1.19592e-05 -3.30977e-06 -6.62833e-08
-5.82187e-07 -6.62833e-08 -6.95917e-05
0.000919782 5.5134e-05 8.25347e-07
5.5134e-05 0.00017309 -3.41161e-07
8.25347e-07 -3.41161e-07 9.17949e-05
0.0007344 4.1596e-05 1.66374e-06
4.1596e-05 5.67705e-05 9.84626e-07
1.66374e-06 9.84626e-07 -1.02898e-05
0.000692392 3.99798e-06 1.31499e-06
3.99798e-06 1.0154e-05 1.93553e-06
1.31499e-06 1.93553e-06 -3.10265e-05
0.000694932 -1.91268e-05 -3.77083e-07
-1.91268e-05 1.18157e-05 1.74419e-08
-3.77083e-07 1.74419e-08 -2.96241e-05
0.00126047 -3.85286e-05 8.08856e-07
-3.85286e-05 0.000330476 2.35133e-06
8.08856e-07 2.35133e-06 0.000322954
0.000691125 -3.25914e-05 -1.0488e-06
-3.25914e-05 1.22903e-05 -1.96511e-06
-1.0488e-06 -1.96511e-06 -3.03466e-05
0.00128799 -4.56705e-05 -4.9065e-06
-4.56705e-05 0.000351617 -1.29848e-06
-4.9065e-06 -1.29848e-06 0.000342752
0.000902633 -3.52874e-05 2.20041e-05
-3.52874e-05 0.000136641 6.99661e-06
2.20041e-05 6.99661e-06 0.000144559
0.00128964 -5.19596e-05 -9.77554e-06
-5.19596e-05 0.000359679 -3.50399e-06
-9.77554e-06 -3.50399e-06 0.000348816
0.00153395 -5.53621e-05 2.01489e-05
-5.53621e-05 0.000510092 1.95678e-06
2.01489e-05 1.95678e-06 0.000518723
0.00219469 -7.72462e-05 -2.82786e-05
-7.72462e-05 0.000898908 -3.4565e-06
-2.82786e-05 -3.4565e-06 0.000908518
0.00056549 4.57921e-05 5.78074e-07
4.57921e-05 -4.55138e-05 -4.7533e-06
5.78074e-07 -4.7533e-06 -6.94171e-05
0.00057487 4.32866e-05 -1.47008e-07
4.32866e-05 -3.34159e-05 1.09448e-07
-1.47008e-07 1.09448e-07 -6.15332e-05
0.00263112 9.45995e-05 3.81152e-05
9.45995e-05 0.00115657 -3.47012e-06
3.81152e-05 -3.47012e-06 0.00116047
0.00287144 0.00010419 -4.42951e-06
0.00010419 0.00129911 -2.77044e-07
-4.42951e-06 -2.77044e-07 0.00130079
0.000609787 3.74319e-05 -2.20246e-06
3.74319e-05 -8.66368e-06 6.25073e-06
-2.20246e-06 6.25073e-06 -4.15682e-05
0.00315423 0.00010374 -7.7859e-05
0.00010374 0.001463 3.32065e-06
-7.7859e-05 3.32065e-06 0.00146459
0.001355 0.00011381 -4.85478e-06
0.00011381 6.21968e-05 -1.06049e-06
-4.85478e-06 -1.06049e-06 -7.74891e-05
0.00136746 6.38931e-05 -4.40746e-06
6.38931e-05 5.61349e-05 -5.39947e-07
-4.40746e-06 -5.39947e-07 -7.35434e-05
0.0015928 0.000107683 -6.83255e-08
0.000107683 0.000107732 7.83749e-07
-6.83255e-08 7.83749e-07 -2.14907e-05
0.00170579 6.17533e-05 3.64143e-07
6.17533e-05 0.000125714 4.17283e-07
3.64143e-07 4.17283e-07 1.19914e-05
0.00138675 2.915e-05 -3.86519e-06
2.915e-05 5.06976e-05 -1.80868e-07
-3.86519e-06 -1.80868e-07 -7.31565e-05
0.00110147 6.77968e-06 -1.15069e-05
6.77968e-06 -1.00373e-06 -3.92179e-08
-1.15069e-05 -3.92179e-08 -0.000111661
0.00139636 1.01919e-05 6.87245e-08
1.01919e-05 5.60626e-05 4.82929e-08
6.87245e-08 4.82929e-08 -6.65803e-05
0.00168692 2.82503e-05 -8.13335e-07
2.82503e-05 0.000108 3.88254e-09
-8.13335e-07 3.88254e-09 -3.36682e-06
0.00161578 8.84901e-05 -1.09472e-07
8.84901e-05 9.53104e-05 5.98326e-08
-1.09472e-07 5.98326e-08 -2.68827e-05
0.00179995 7.3281e-05 1.20059e-06
7.3281e-05 0.000117101 9.42032e-07
1.20059e-06 9.42032e-07 2.01797e-05
0.00156444 0.000132055 -1.96996e-07
0.000132055 0.00010255 -5.97188e-08
-1.96996e-07 -5.97188e-08 -3.55221e-05
0.00169 0.000128058 -2.56944e-07
0.000128058 8.47874e-05 8.07095e-07
-2.56944e-07 8.07095e-07 -2.05462e-05
0.00166251 -8.59189e-08 -1.44716e-07
-8.59189e-08 0.000101817 2.67031e-07
-1.44716e-07 2.67031e-07 -9.53912e-06
0.00170381 4.45781e-05 1.32402e-08
4.45781e-05 5.74306e-05 1.05737e-06
1.32402e-08 1.05737e-06 -4.08293e-05
0.00179715 0.000105749 -3.74658e-06
0.000105749 0.000126696 -7.07047e-07
-3.74658e-06 -7.07047e-07 2.94733e-05
0.00179723 7.98646e-05 6.78484e-07
7.98646e-05 0.000102866 3.14046e-07
6.78484e-07 3.14046e-07 2.04432e-05
0.00159598 0.000135306 -1.86723e-06
0.000135306 6.02536e-05 -2.33551e-06
-1.86723e-06 -2.33551e-06 -5.7952e-05
0.00191434 0.000141752 9.41394e-07
0.000141752 0.000173312 8.54508e-10
9.41394e-07 8.54508e-10 8.41969e-05
0.00140832 -7.5132e-06 -5.92509e-06
-7.5132e-06 6.50897e-05 1.65679e-07
-5.92509e-06 1.65679e-07 -5.74396e-05
0.001693 -6.85708e-05 -7.10231e-06
-6.85708e-05 0.000241713 7.50163e-07
-7.10231e-06 7.50163e-07 0.000118128
0.00160867 -3.69434e-05 3.16839e-08
-3.69434e-05 8.72944e-05 -5.32365e-07
3.16839e-08 -5.32365e-07 -2.42376e-05
0.00166131 -0.000104213 -9.10614e-07
-0.000104213 0.000145061 -1.35498e-07
-9.10614e-07 -1.35498e-07 1.89504e-05
0.000868349 -0.000108842 -4.49215e-06
-0.000108842 0.000129155 3.41166e-06
-4.49215e-06 3.41166e-06 1.64776e-05
0.00113446 -0.000185268 -2.79133e-06
-0.000185268 0.000223294 4.07962e-06
-2.79133e-06 4.07962e-06 6.30638e-05
0.000840017 -0.000191696 -2.99693e-06
-0.000191696 -8.06485e-05 8.77329e-07
-2.99693e-06 8.77329e-07 -0.000272462
0.00163717 -0.000163069 -1.80795e-06
-0.000163069 0.000185042 1.1521e-07
-1.80795e-06 1.1521e-07 4.42415e-05
0.00174165 -0.000149869 3.64493e-06
-0.000149869 0.000152315 -1.64058e-06
3.64493e-06 -1.64058e-06 4.42107e-05
0.00159374 -0.00020133 1.93961e-06
-0.00020133 0.000125504 -1.29104e-06
1.93961e-06 -1.29104e-06 -1.60496e-05
0.00161185 -0.000244081 -1.84309e-06
-0.000244081 0.000202542 -1.25978e-06
-1.84309e-06 -1.25978e-06 1.64852e-05
0.00193892 -0.000250957 5.56916e-06
-0.000250957 0.000304108 -5.91853e-06
5.56916e-06 -5.91853e-06 0.00015839
0.00094243 -0.000118948 -1.52966e-06
-0.000118948 0.000162961 -1.59613e-07
-1.52966e-06 -1.59613e-07 3.57056e-05
0.000843206 -0.000118464 -1.84916e-06
-0.000118464 0.000111568 -1.38872e-06
-1.84916e-06 -1.38872e-06 -2.44498e-05
0.000712153 -1.15054e-05 -1.58409e-06
-1.15054e-05 4.13733e-05 3.02974e-06
-1.58409e-06 3.02974e-06 -2.82726e-05
0.000493003 5.87416e-06 -2.35216e-07
5.87416e-06 -7.20622e-05 3.95083e-07
-2.35216e-07 3.95083e-07 -0.000180813
0.00163493 -2.29026e-05 -5.95509e-09
-2.29026e-05 9.45669e-05 -2.41862e-09
-5.95509e-09 -2.41862e-09 -1.94066e-05
0.0017465 -7.05734e-05 -3.81721e-07
-7.05734e-05 0.000174081 -6.59352e-08
-3.81721e-07 -6.59352e-08 5.50693e-05
0.00170177 -5.58468e-05 8.39e-07
-5.58468e-05 6.91111e-05 -1.55904e-07
8.39e-07 -1.55904e-07 -3.23704e-05
0.00168062 -0.000130552 -1.04733e-06
-0.000130552 8.8975e-05 4.23964e-07
-1.04733e-06 4.23964e-07 -1.41713e-05
0.000957634 -0.000148189 -3.62602e-07
-0.000148189 0.000157813 7.6583e-07
-3.62602e-07 7.6583e-07 2.09721e-05
0.000638357 -0.000165052 1.02249e-06
-0.000165052 -7.4976e-05 -1.70577e-06
1.02249e-06 -1.70577e-06 -0.000253997
0.001647 -0.000273686 -6.35274e-07
-0.000273686 0.000293074 5.97443e-07
-6.35274e-07 5.97443e-07 7.65271e-05
0.00163405 -0.000176916 -1.2149e-06
-0.000176916 0.000117461 5.72092e-07
-1.2149e-06 5.72092e-07 -1.02419e-05
0.00170127 -0.000153111 1.91136e-06
-0.000153111 8.43073e-05 -9.55007e-07
1.91136e-06 -9.55007e-07 -8.97995e-06
0.00171442 -0.000264156 -1.00662e-06
-0.000264156 0.000213947 1.18056e-06
-1.00662e-06 1.18056e-06 2.89222e-05
0.00165558 -0.000223155 -2.94863e-07
-0.000223155 0.000110192 7.75298e-07
-2.94863e-07 7.75298e-07 -1.46729e-05
0.00179484 -0.00024783 2.78142e-06
-0.00024783 0.000184139 -3.99431e-06
2.78142e-06 -3.99431e-06 4.42438e-05
0.00099958 -0.000172471 3.09706e-07
-0.000172471 0.00019199 6.25231e-07
3.09706e-07 6.25231e-07 4.70436e-05
0.00108345 -0.000173324 1.26206e-06
-0.000173324 0.000242899 5.91245e-07
1.26206e-06 5.91245e-07 9.92123e-05
0.000828412 -8.60955e-05 -4.1523e-07
-8.60955e-05 0.00012613 1.58851e-07
-4.1523e-07 1.58851e-07 -8.86492e-06
0.000537326 6.24045e-06 -7.68042e-07
6.24045e-06 -5.86206e-05 1.41708e-07
-7.68042e-07 1.41708e-07 -0.000122648
0.00053348 1.14754e-05 -1.08873e-07
1.14754e-05 -3.80251e-05 -6.08045e-07
-1.08873e-07 -6.08045e-07 -0.000143059
0.0017922 -3.62017e-05 5.39799e-07
-3.62017e-05 0.000109435 -3.07274e-07
5.39799e-07 -3.07274e-07 1.08605e-05
0.00177247 -7.88561e-05 1.01345e-07
-7.88561e-05 0.000105809 1.44144e-07
1.01345e-07 1.44144e-07 1.08233e-05
0.00184016 -0.000152225 -2.45914e-06
-0.000152225 0.000138991 -4.5815e-07
-2.45914e-06 -4.5815e-07 5.63033e-05
0.00155757 -0.000177675 -1.97699e-06
-0.000177675 2.00361e-05 1.11763e-06
-1.97699e-06 1.11763e-06 -8.0824e-05
0.000895112 -0.000170079 -7.55505e-07
-0.000170079 0.000122395 -3.74085e-07
-7.55505e-07 -3.74085e-07 -3.36721e-05
0.00207259 -0.000259029 -4.5798e-06
-0.000259029 0.000296303 1.91749e-06
-4.5798e-06 1.91749e-06 0.000177456
-0.000128817 -0.00012417 -1.28043e-06
-0.00012417 -0.000534172 -5.74302e-06
-1.28043e-06 -5.74302e-06 -0.00072281
0.00213617 -0.00032623 2.66283e-06
-0.00032623 0.000518567 6.37822e-07
2.66283e-06 6.37822e-07 0.000291298
0.00162213 -0.000268105 3.37584e-07
-0.000268105 0.000118037 3.79104e-06
3.37584e-07 3.79104e-06 -6.1033e-05
0.000359333 1.57618e-05 1.10836e-06
1.57618e-05 -0.000160465 -3.55223e-06
1.10836e-06 -3.55223e-06 -0.000219515
0.000808226 -2.05636e-05 1.25066e-06
-2.05636e-05 0.000123336 -1.23807e-06
1.25066e-06 -1.23807e-06 2.51557e-05
0.000926606 -5.48039e-05 -3.64335e-07
-5.48039e-05 0.000187792 -5.92366e-07
-3.64335e-07 -5.92366e-07 6.66283e-05
0.00102487 -0.000179401 -2.29252e-06
-0.000179401 0.000194689 2.98663e-06
-2.29252e-06 2.98663e-06 4.97869e-05
0.000862966 -0.000113558 2.39642e-06
-0.000113558 0.000137349 2.66391e-06
2.39642e-06 2.66391e-06 -7.2927e-06
0.000708557 -0.000158083 2.20948e-07
-0.000158083 8.12079e-06 1.97652e-06
2.20948e-07 1.97652e-06 -0.000133506
0.00060068 -4.74366e-05 -1.27516e-06
-4.74366e-05 -3.02722e-05 -4.00435e-06
-1.27516e-06 -4.00435e-06 -4.71766e-05
0.000645071 -4.46252e-05 -1.73451e-06
-4.46252e-05 2.04534e-06 -1.80724e-06
-1.73451e-06 -1.80724e-06 -4.87224e-05
0.00155952 0.000171116 -8.6142e-07
0.000171116 0.0001159 -5.71187e-08
-8.6142e-07 -5.71187e-08 -3.49165e-05
0.000666854 -6.56034e-05 1.2429e-06
-6.56034e-05 3.81042e-05 -1.62002e-06
1.2429e-06 -1.62002e-06 -5.40127e-05
0.000823779 9.68141e-05 -7.14067e-07
9.68141e-05 0.000108363 -8.44552e-07
-7.14067e-07 -8.44552e-07 -2.02304e-05
0.000597705 4.51931e-05 1.71031e-06
4.51931e-05 2.08784e-06 -3.58487e-07
1.71031e-06 -3.58487e-07 -0.000127363
0.00152544 0.000217567 -2.27727e-06
0.000217567 0.000170778 -7.25659e-07
-2.27727e-06 -7.25659e-07 1.50612e-06
0.00159885 0.000232145 1.34919e-06
0.000232145 0.00012392 7.65778e-07
1.34919e-06 7.65778e-07 -3.73924e-05
0.00100465 0.000181746 -6.94326e-08
0.000181746 0.00019778 -9.76044e-07
-6.94326e-08 -9.76044e-07 5.17895e-06
0.00133016 0.000239355 -1.48583e-06
0.000239355 0.000206926 -1.25619e-06
-1.48583e-06 -1.25619e-06 2.50622e-07
0.0016885 0.000256876 -4.25612e-06
0.000256876 0.000280009 -2.08547e-06
-4.25612e-06 -2.08547e-06 0.000103247
0.000681275 -2.87862e-05 -2.26653e-07
-2.87862e-05 1.2924e-05 4.89507e-08
-2.26653e-07 4.89507e-08 -3.2311e-05
0.000726546 -1.87236e-05 -8.12393e-07
-1.87236e-05 6.05881e-05 3.82119e-07
-8.12393e-07 3.82119e-07 -1.69896e-05
0.00101615 0.00017063 -8.7265e-07
0.00017063 0.000224127 -2.66848e-07
-8.7265e-07 -2.66848e-07 6.1876e-05
0.000803513 -1.73086e-06 1.71965e-07
-1.73086e-06 0.000122132 1.52497e-07
1.71965e-07 1.52497e-07 1.21001e-05
0.000923218 0.000102293 3.12907e-07
0.000102293 0.000186241 1.23936e-07
3.12907e-07 1.23936e-07 4.13536e-05
0.00164181 0.000182252 -1.70253e-06
0.000182252 0.000117592 -1.28006e-06
-1.70253e-06 -1.28006e-06 -2.15974e-05
0.00160853 0.000252131 1.3672e-06
0.000252131 0.000169671 4.24413e-07
1.3672e-06 4.24413e-07 -4.4866e-06
0.00159886 0.000253532 5.91136e-07
0.000253532 9.05265e-05 4.82225e-08
5.91136e-07 4.82225e-08 -6.00114e-05
0.000698848 0.000171336 4.43868e-07
0.000171336 -1.68881e-06 3.51549e-06
4.43868e-07 3.51549e-06 -0.00022116
0.00168353 0.000279931 -1.30437e-06
0.000279931 0.000292482 -5.56861e-07
-1.30437e-06 -5.56861e-07 9.142e-05
0.000774707 1.88528e-05 1.002e-06
1.88528e-05 7.90546e-05 1.13202e-06
1.002e-06 1.13202e-06 9.4885e-06
0.000554828 -2.54353e-05 -9.07389e-07
-2.54353e-05 -2.83416e-05 2.06876e-06
-9.07389e-07 2.06876e-06 -0.000121345
0.000940517 0.000171997 -2.83561e-06
0.000171997 0.000168738 -1.34792e-06
-2.83561e-06 -1.34792e-06 -9.53931e-06
0.00078866 5.23046e-05 -2.36363e-06
5.23046e-05 0.000126929 -1.61352e-06
-2.36363e-06 -1.61352e-06 -9.79555e-06
0.000970379 0.000161249 -1.17081e-06
0.000161249 0.000193765 -1.80074e-06
-1.17081e-06 -1.80074e-06 3.99174e-05
0.00160214 0.000197664 -1.50335e-06
0.000197664 2.15906e-05 -2.59555e-06
-1.50335e-06 -2.59555e-06 -9.01326e-05
0.00182473 0.000293441 1.45348e-06
0.000293441 0.00026597 -1.87969e-06
1.45348e-06 -1.87969e-06 8.64378e-05
0.00151154 0.000257952 2.03129e-06
0.000257952 2.69355e-05 1.09392e-08
2.03129e-06 1.09392e-08 -0.000123026
0.00176204 0.000260591 2.17282e-06
0.000260591 0.000527413 6.24492e-06
2.17282e-06 6.24492e-06 0.000288951
0.00120484 0.000257211 -6.53187e-07
0.000257211 -4.04288e-07 -8.38699e-07
-6.53187e-07 -8.38699e-07 -0.000198697
0.000682114 -3.06741e-05 -1.5335e-06
-3.06741e-05 9.58315e-06 -1.90829e-06
-1.5335e-06 -1.90829e-06 -3.39728e-05
0.000669291 6.96342e-06 5.22106e-07
6.96342e-06 1.48237e-05 4.14418e-07
5.22106e-07 4.14418e-07 -5.10061e-05
0.000628916 -1.96142e-05 -2.42334e-07
-1.96142e-05 -2.9754e-08 5.26797e-07
-2.42334e-07 5.26797e-07 -7.50184e-05
0.00054937 -4.05747e-05 -8.1566e-07
-4.05747e-05 -5.23966e-05 -8.8123e-07
-8.1566e-07 -8.8123e-07 -0.000117731
0.000721777 1.38643e-05 -5.47478e-08
1.38643e-05 4.8231e-05 2.17006e-08
-5.47478e-08 2.17006e-08 -1.75606e-05
0.000746393 1.45439e-05 -4.26406e-08
1.45439e-05 6.70184e-05 -3.61842e-07
-4.26406e-08 -3.61842e-07 -8.60541e-06
0.000842852 4.21185e-05 -3.17122e-07
4.21185e-05 0.000129763 -8.28909e-07
-3.17122e-07 -8.28909e-07 4.57845e-05
0.000633341 -2.6526e-05 6.97286e-07
-2.6526e-05 1.03446e-05 2.36012e-07
6.97286e-07 2.36012e-07 -7.18e-05
0.000744647 2.97176e-05 5.82481e-07
2.97176e-05 5.7489e-05 8.96989e-07
5.82481e-07 8.96989e-07 -5.85364e-06
0.000693595 1.08361e-05 1.29853e-06
1.08361e-05 1.36908e-05 1.85411e-06
1.29853e-06 1.85411e-06 -2.83446e-05
0.000699574 -6.89323e-06 -5.12832e-07
-6.89323e-06 1.4711e-05 1.44213e-08
-5.12832e-07 1.44213e-08 -2.66576e-05
0.00126778 -2.80857e-05 8.31581e-07
-2.80857e-05 0.000330574 2.30582e-06
8.31581e-07 2.30582e-06 0.000323968
0.000687591 -2.98858e-05 -7.14761e-07
-2.98858e-05 8.75397e-06 -1.97435e-06
-7.14761e-07 -1.97435e-06 -3.31689e-05
0.00129162 -3.58025e-05 -4.20355e-06
-3.58025e-05 0.000348113 -1.35571e-06
-4.20355e-06 -1.35571e-06 0.000340788
0.000910135 -2.91409e-05 1.81531e-05
-2.91409e-05 0.000134699 7.27577e-06
1.81531e-05 7.27577e-06 0.000143907
0.00131312 -4.35419e-05 -8.35756e-06
-4.35419e-05 0.000365591 -5.05474e-06
-8.35756e-06 -5.05474e-06 0.000356927
0.000845007 -3.62625e-05 6.99645e-06
-3.62625e-05 0.000103486 2.71805e-06
6.99645e-06 2.71805e-06 0.000110977
0.00212782 -7.29808e-05 -5.7626e-06
-7.29808e-05 0.000852821 -1.71522e-06
-5.7626e-06 -1.71522e-06 0.000863656
0.00058975 3.89982e-05 4.91093e-07
3.89982e-05 -3.97404e-05 -4.23006e-06
4.91093e-07 -4.23006e-06 -5.87177e-05
0.000581268 4.74288e-05 -4.44829e-08
4.74288e-05 -3.55647e-05 6.6487e-08
-4.44829e-08 6.6487e-08 -6.00326e-05
0.0024922 8.29857e-05 3.03984e-05
8.29857e-05 0.0010702 -3.78873e-06
3.03984e-05 -3.78873e-06 0.00107698
0.000604546 4.18319e-05 -1.70844e-06
4.18319e-05 -1.6297e-05 5.46525e-06
-1.70844e-06 5.46525e-06 -4.45588e-05
0.00269429 9.50232e-05 -3.89441e-06
9.50232e-05 0.00119259 -2.61248e-07
-3.89441e-06 -2.61248e-07 0.00119648
0.0029388 9.88832e-05 -6.31207e-05
9.88832e-05 0.00133633 3.17404e-06
-6.31207e-05 3.17404e-06 0.00133935
0.00155447 0.000132901 -1.43447e-06
0.000132901 9.57873e-05 4.42703e-07
-1.43447e-06 4.42703e-07 -4.28344e-05
0.00164089 8.65875e-05 6.21617e-07
8.65875e-05 0.000110836 7.28388e-07
6.21617e-07 7.28388e-07 -1.1104e-05
0.0016923 0.000125472 2.77191e-06
0.000125472 8.33169e-05 1.9875e-06
2.77191e-06 1.9875e-06 -1.95743e-05
0.00184877 7.55967e-05 3.01676e-06
7.55967e-05 0.000143186 4.16508e-07
3.01676e-06 4.16508e-07 4.93276e-05
0.00169206 2.06306e-05 -8.1857e-07
2.06306e-05 0.000111545 3.95883e-09
-8.1857e-07 3.95883e-09 3.90732e-07
0.00139391 1.30021e-05 -3.71729e-06
1.30021e-05 5.47464e-05 5.10365e-08
-3.71729e-06 5.10365e-08 -6.79362e-05
0.00165355 2.71235e-06 -6.32326e-07
2.71235e-06 9.6674e-05 1.55044e-09
-6.32326e-07 1.55044e-09 -1.5832e-05
0.00172725 3.86445e-05 8.32831e-07
3.86445e-05 7.321e-05 -7.76127e-08
8.32831e-07 -7.76127e-08 -2.60959e-05
0.00175839 0.00010379 -1.16607e-06
0.00010379 0.000103773 -3.02245e-07
-1.16607e-06 -3.02245e-07 5.14551e-06
0.00176034 7.99822e-05 2.27995e-06
7.99822e-05 7.87105e-05 2.93425e-08
2.27995e-06 2.93425e-08 -8.2126e-07
0.00161638 0.000134181 -7.58193e-07
0.000134181 7.78331e-05 -9.48338e-08
-7.58193e-07 -9.48338e-08 -4.03182e-05
0.00180641 0.000142554 3.35782e-06
0.000142554 0.000109614 1.01477e-06
3.35782e-06 1.01477e-06 2.31883e-05
0.00176226 -1.41471e-06 -3.01847e-07
-1.41471e-06 0.000103869 2.94282e-07
-3.01847e-07 2.94282e-07 4.15915e-06
0.00168764 4.72865e-05 4.39381e-07
4.72865e-05 3.5684e-05 1.23548e-06
4.39381e-07 1.23548e-06 -4.5371e-05
0.00181302 0.000105176 8.20912e-08
0.000105176 9.3511e-05 -2.67178e-07
8.20912e-08 -2.67178e-07 1.81821e-05
0.00188066 0.000169329 -6.03072e-07
0.000169329 0.000154842 -1.19469e-06
-6.03072e-07 -1.19469e-06 6.54868e-05
0.00163246 -2.26519e-05 -1.61017e-07
-2.26519e-05 9.34246e-05 -8.31828e-08
-1.61017e-07 -8.31828e-08 -2.06186e-05
0.00165871 -7.1183e-05 -1.99544e-07
-7.1183e-05 0.000123915 -7.90099e-07
-1.99544e-07 -7.90099e-07 3.27402e-06
0.00174777 -5.55255e-05 2.27832e-06
-5.55255e-05 9.75066e-05 -3.65704e-07
2.27832e-06 -3.65704e-07 -2.3544e-06
0.00163722 -0.000128196 1.29728e-06
-0.000128196 7.12539e-05 -3.54046e-07
1.29728e-06 -3.54046e-07 -3.38458e-05
0.00111546 -0.000159174 -1.73646e-06
-0.000159174 0.000247017 1.92063e-06
-1.73646e-06 1.92063e-06 0.000107783
0.00096221 -0.000187552 9.12234e-07
-0.000187552 0.0001113 2.0314e-06
9.12234e-07 2.0314e-06 -6.72708e-05
0.00106669 -0.000232912 -2.28379e-06
-0.000232912 -3.40928e-05 1.96957e-06
-2.28379e-06 1.96957e-06 -0.00024752
0.00156496 -0.000174058 4.06921e-07
-0.000174058 8.34291e-05 -7.08686e-07
4.06921e-07 -7.08686e-07 -4.70458e-05
0.001645 -0.000154556 4.40931e-06
-0.000154556 4.95309e-05 -2.30186e-06
4.40931e-06 -2.30186e-06 -4.13082e-05
0.00168497 -0.000223733 4.18569e-06
-0.000223733 0.000129078 -1.3945e-06
4.18569e-06 -1.3945e-06 4.18882e-06
0.00168871 -0.000264158 -9.77643e-07
-0.000264158 0.000200889 -3.07954e-06
-9.77643e-07 -3.07954e-06 1.50585e-05
0.00167277 -0.000242714 4.30195e-06
-0.000242714 0.00010894 -9.60179e-06
4.30195e-06 -9.60179e-06 -2.7962e-05
0.00112046 -0.000182407 4.89593e-07
-0.000182407 0.000259704 -8.37755e-07
4.89593e-07 -8.37755e-07 0.000113211
0.00108346 -0.000173731 4.97082e-07
-0.000173731 0.000239139 -3.8616e-06
4.97082e-07 -3.8616e-06 9.69656e-05
0.000776681 -6.43745e-05 -2.58851e-07
-6.43745e-05 9.16158e-05 2.23355e-07
-2.58851e-07 2.23355e-07 -3.96001e-05
0.000420576 1.55634e-05 -1.78776e-06
1.55634e-05 -0.000124377 2.73784e-06
-1.78776e-06 2.73784e-06 -0.000190153
0.000517474 3.46526e-05 3.31694e-07
3.46526e-05 -4.89552e-05 6.2404e-07
3.31694e-07 6.2404e-07 -0.00015095
0.00182197 -3.89704e-05 1.63861e-07
-3.89704e-05 0.000129 1.29749e-08
1.63861e-07 1.29749e-08 3.04017e-05
0.00178059 -8.18656e-05 5.35959e-07
-8.18656e-05 0.000111238 -5.43455e-07
5.35959e-07 -5.43455e-07 1.53975e-05
0.00176132 -0.00014868 -1.40022e-06
-0.00014868 9.79561e-05 1.24661e-07
-1.40022e-06 1.24661e-07 1.32041e-05
0.00104731 -0.000181443 -1.50038e-07
-0.000181443 0.000205413 1.14792e-06
-1.50038e-07 1.14792e-06 4.77245e-05
0.000774359 -0.000190501 1.78556e-06
-0.000190501 -2.85934e-05 -2.73258e-06
1.78556e-06 -2.73258e-06 -0.000223228
0.00169471 -0.000295691 -1.00483e-06
-0.000295691 0.000270467 8.03848e-07
-1.00483e-06 8.03848e-07 4.40101e-05
0.00159417 -0.000179115 3.90659e-07
-0.000179115 3.81659e-05 -1.58534e-07
3.90659e-07 -1.58534e-07 -6.32886e-05
0.00159987 -0.000264214 8.6392e-07
-0.000264214 0.000108814 -2.24591e-06
8.6392e-07 -2.24591e-06 -6.49676e-05
0.00178642 -0.000245902 -5.69357e-07
-0.000245902 0.000141221 -1.03689e-06
-5.69357e-07 -1.03689e-06 2.16182e-05
0.000383391 2.05061e-05 1.34393e-07
2.05061e-05 -0.000148259 -7.7431e-07
1.34393e-07 -7.7431e-07 -0.000205749
0.00108339 -0.00018331 -1.08202e-07
-0.00018331 0.000223473 6.68784e-07
-1.08202e-07 6.68784e-07 7.83767e-05
0.000755081 -0.000160121 -6.8895e-07
-0.000160121 4.00613e-05 9.15039e-08
-6.8895e-07 9.15039e-08 -9.74523e-05
0.000986743 -0.000127781 -5.49749e-07
-0.000127781 0.000211285 7.18932e-07
-5.49749e-07 7.18932e-07 6.06746e-05
0.000979612 -5.51227e-05 -6.08741e-08
-5.51227e-05 0.000218315 -1.85131e-07
-6.08741e-08 -1.85131e-07 9.7129e-05
0.000678033 6.8553e-06 -3.27491e-07
6.8553e-06 4.46502e-05 3.59787e-07
-3.27491e-07 3.59787e-07 -5.13469e-05
0.00159593 -4.46909e-05 -4.15043e-07
-4.46909e-05 -8.82472e-06 -2.90589e-07
-4.15043e-07 -2.90589e-07 -9.76155e-05
0.00196662 -0.000114132 -5.76726e-07
-0.000114132 0.000168757 -1.35343e-07
-5.76726e-07 -1.35343e-07 9.50856e-05
0.00154909 -0.000166929 -5.5625e-07
-0.000166929 -3.28118e-05 -1.97561e-07
-5.5625e-07 -1.97561e-07 -0.000112497
0.0019612 -0.000224106 -1.70563e-06
-0.000224106 0.000183971 -5.43581e-07
-1.70563e-06 -5.43581e-07 9.03647e-05
0.00106767 -0.000192622 -2.29613e-06
-0.000192622 0.000202474 -2.55117e-07
-2.29613e-06 -2.55117e-07 3.67077e-05
0.0017732 -0.000274396 7.02669e-08
-0.000274396 0.000155535 4.10459e-06
7.02669e-08 4.10459e-06 1.1748e-05
0.000701058 -0.000213234 -1.38742e-06
-0.000213234 -0.000127969 -2.52134e-06
-1.38742e-06 -2.52134e-06 -0.000356565
0.00183144 -0.000321358 7.29735e-08
-0.000321358 0.000321612 3.17833e-06
7.29735e-08 3.17833e-06 8.97306e-05
0.000367645 3.92804e-05 -7.35476e-07
3.92804e-05 -0.000161212 -2.96194e-06
-7.35476e-07 -2.96194e-06 -0.000211972
0.000808132 -1.25238e-05 1.08707e-06
-1.25238e-05 0.000117553 -1.38215e-06
1.08707e-06 -1.38215e-06 2.98038e-05
0.000985711 -7.59389e-05 -1.46778e-07
-7.59389e-05 0.00022425 5.58871e-07
-1.46778e-07 5.58871e-07 0.000111487
0.000827089 -2.12223e-05 -3.64443e-07
-2.12223e-05 0.000128051 -2.88686e-07
-3.64443e-07 -2.88686e-07 -7.59966e-06
0.000833608 -0.000174338 -1.12425e-06
-0.000174338 6.45343e-05 8.38116e-07
-1.12425e-06 8.38116e-07 -8.07669e-05
0.000957933 -0.000174805 -3.66638e-06
-0.000174805 0.000155691 3.29135e-06
-3.66638e-06 3.29135e-06 -5.43517e-07
0.000665472 -3.48233e-05 -1.94331e-06
-3.48233e-05 4.79176e-06 -1.82297e-06
-1.94331e-06 -1.82297e-06 -4.08125e-05
0.000652623 -5.96959e-05 6.14707e-08
-5.96959e-05 1.88897e-05 -1.03013e-06
6.14707e-08 -1.03013e-06 -5.7613e-05
0.00165389 0.000185613 -8.37759e-07
0.000185613 0.000123868 1.95419e-07
-8.37759e-07 1.95419e-07 -1.64621e-05
0.00071368 -3.79489e-05 9.03817e-07
-3.79489e-05 6.84185e-05 -7.92925e-07
9.03817e-07 -7.92925e-07 -3.74091e-05
0.000919241 0.000162171 5.52681e-07
0.000162171 0.00017005 -7.36014e-07
5.52681e-07 -7.36014e-07 9.45765e-06
0.000404786 5.75655e-05 1.89074e-06
5.75655e-05 -0.000112542 6.58968e-07
1.89074e-06 6.58968e-07 -0.000249351
0.00158308 0.000249737 -3.27459e-07
0.000249737 0.000154766 8.71954e-08
-3.27459e-07 8.71954e-08 -1.94509e-05
0.00172064 0.000256869 3.16201e-07
0.000256869 0.000158156 1.39461e-06
3.16201e-07 1.39461e-06 8.4121e-06
0.000497379 0.000158028 2.6795e-09
0.000158028 -0.000119064 6.4199e-07
2.6795e-09 6.4199e-07 -0.000335342
0.00196116 0.00030039 -1.14244e-06
0.00030039 0.000453149 5.78462e-07
-1.14244e-06 5.78462e-07 0.00024695
0.000727415 -7.04302e-06 -6.95754e-07
-7.04302e-06 5.16558e-05 1.26123e-07
-6.95754e-07 1.26123e-07 -1.67836e-05
0.000686173 -7.4199e-06 1.19565e-07
-7.4199e-06 4.58895e-05 1.02982e-06
1.19565e-07 1.02982e-06 -4.82773e-05
0.00107824 0.00018261 -1.86773e-07
0.00018261 0.00025373 -2.26734e-06
-1.86773e-07 -2.26734e-06 7.22137e-05
0.000569513 -3.4432e-07 -4.16826e-07
-3.4432e-07 -9.9647e-06 -1.58921e-07
-4.16826e-07 -1.58921e-07 -0.000135883
0.000758131 0.000129603 -1.70412e-06
0.000129603 7.07704e-05 -6.45102e-07
-1.70412e-06 -6.45102e-07 -6.99909e-05
0.00185169 0.000206096 -2.33473e-06
0.000206096 0.000161135 -1.1906e-06
-2.33473e-06 -1.1906e-06 5.15479e-05
0.00186429 0.000292715 1.25783e-06
0.000292715 0.000288472 -2.59943e-07
1.25783e-06 -2.59943e-07 0.000110571
0.00160172 0.000268826 3.20161e-07
0.000268826 7.64209e-05 1.67287e-06
3.20161e-07 1.67287e-06 -7.56132e-05
0.00151017 0.000244902 2.51552e-06
0.000244902 0.000395904 3.81046e-06
2.51552e-06 3.81046e-06 0.000153516
0.00135347 0.000272109 -1.76488e-06
0.000272109 7.53637e-05 4.53076e-07
-1.76488e-06 4.53076e-07 -0.000127494
0.000518751 -3.00599e-05 -3.18839e-07
-3.00599e-05 -5.57344e-05 1.44351e-06
-3.18839e-07 1.44351e-06 -0.000136271
0.000356775 5.45357e-05 -4.48942e-07
5.45357e-05 -0.000120198 7.55773e-07
-4.48942e-07 7.55773e-07 -0.000239908
0.00106736 0.000186259 1.10876e-06
0.000186259 0.000224874 2.45204e-06
1.10876e-06 2.45204e-06 2.53292e-05
-0.000226712 5.13297e-05 1.85833e-06
5.13297e-05 -0.00046606 2.45066e-07
1.85833e-06 2.45066e-07 -0.000612827
0.00191344 0.000209005 -2.55055e-06
0.000209005 8.35649e-05 -6.85589e-07
-2.55055e-06 -6.85589e-07 4.90814e-06
0.00205219 0.000256699 1.12674e-06
0.000256699 0.000259398 -4.7742e-07
1.12674e-06 -4.7742e-07 0.000140153
0.00177803 0.000321543 -1.15341e-06
0.000321543 0.000215077 -2.57041e-06
-1.15341e-06 -2.57041e-06 2.49136e-05
-0.00020711 0.00013489 -1.3085e-06
0.00013489 -0.000642624 1.77952e-06
-1.3085e-06 1.77952e-06 -0.000880008
0.000722202 2.67989e-05 -8.01686e-07
2.67989e-05 4.96929e-05 -3.43701e-07
-8.01686e-07 -3.43701e-07 -1.88696e-05
0.000702591 6.7967e-06 -3.19118e-07
6.7967e-06 4.70802e-05 3.71726e-07
-3.19118e-07 3.71726e-07 -3.11632e-05
0.000836444 -9.74074e-06 -6.49209e-07
-9.74074e-06 0.000126242 -1.46893e-07
-6.49209e-07 -1.46893e-07 4.65445e-05
0.000706549 -2.13193e-05 -1.16463e-06
-2.13193e-05 3.57489e-05 -8.79422e-07
-1.16463e-06 -8.79422e-07 -2.706e-05
0.000578549 -2.6763e-05 -2.38405e-07
-2.6763e-05 -2.64012e-05 -5.46051e-07
-2.38405e-07 -5.46051e-07 -0.000102751
0.000730222 5.32221e-06 -1.25174e-09
5.32221e-06 5.08373e-05 -6.42652e-09
-1.25174e-09 -6.42652e-09 -1.34967e-05
0.000728182 4.26682e-05 -4.63061e-07
4.26682e-05 7.22995e-05 -2.63008e-07
-4.63061e-07 -2.63008e-07 -1.61624e-05
0.000686399 2.28766e-06 5.07489e-07
2.28766e-06 4.28316e-05 3.17467e-07
5.07489e-07 3.17467e-07 -4.04631e-05
0.000798549 1.25642e-05 7.6073e-07
1.25642e-05 0.000103463 7.07271e-08
7.6073e-07 7.07271e-08 1.85324e-05
0.000750203 -3.31332e-05 9.59452e-07
-3.31332e-05 7.93868e-05 -4.49514e-07
9.59452e-07 -4.49514e-07 -9.65647e-06
0.000606988 2.54297e-05 4.62844e-07
2.54297e-05 -5.61623e-06 7.43831e-07
4.62844e-07 7.43831e-07 -8.93086e-05
0.000721335 4.33146e-05 9.05646e-07
4.33146e-05 4.72461e-05 1.05728e-06
9.05646e-07 1.05728e-06 -1.91658e-05
0.000672557 2.1978e-05 8.65533e-07
2.1978e-05 6.14432e-06 1.76195e-06
8.65533e-07 1.76195e-06 -3.74526e-05
0.000681495 -5.3099e-06 -4.17191e-07
-5.3099e-06 7.42917e-06 1.71629e-08
-4.17191e-07 1.71629e-08 -3.4987e-05
0.00127483 -1.80946e-05 6.55652e-07
-1.80946e-05 0.000332169 2.21645e-06
6.55652e-07 2.21645e-06 0.000325931
0.000685988 -2.48566e-05 -4.47157e-07
-2.48566e-05 7.75319e-06 -1.96094e-06
-4.47157e-07 -1.96094e-06 -3.40306e-05
0.00130053 -2.55981e-05 -3.48359e-06
-2.55981e-05 0.000349518 -1.43208e-06
-3.48359e-06 -1.43208e-06 0.000342924
0.000916886 -2.22953e-05 1.51227e-05
-2.22953e-05 0.000133814 7.58133e-06
1.51227e-05 7.58133e-06 0.00014378
0.00132183 -3.37468e-05 -6.8688e-06
-3.37468e-05 0.000365306 -5.09161e-06
-6.8688e-06 -5.09161e-06 0.000358006
0.000854498 -2.96032e-05 5.65334e-06
-2.96032e-05 0.000102414 2.81686e-06
5.65334e-06 2.81686e-06 0.00011147
0.00078743 -3.57116e-05 -1.80546e-06
-3.57116e-05 7.02229e-05 -1.9083e-06
-1.80546e-06 -1.9083e-06 7.77276e-05
0.000601031 3.31831e-05 4.97882e-07
3.31831e-05 -4.16181e-05 -3.81241e-06
4.97882e-07 -3.81241e-06 -5.60359e-05
0.000600404 4.08605e-05 -1.53967e-07
4.08605e-05 -3.32624e-05 7.55089e-08
-1.53967e-07 7.55089e-08 -5.26503e-05
0.00234133 7.01488e-05 2.44436e-05
7.01488e-05 0.000976057 -3.98023e-06
2.44436e-05 -3.98023e-06 0.000986167
0.000600474 4.33023e-05 -1.12189e-06
4.33023e-05 -2.50208e-05 4.92798e-06
-1.12189e-06 4.92798e-06 -4.9162e-05
0.00255193 8.39749e-05 -3.74635e-06
8.39749e-05 0.00110481 -2.43288e-07
-3.74635e-06 -2.43288e-07 0.00111134
0.00275528 9.33919e-05 -4.79272e-05
9.33919e-05 0.00122698 3.33053e-06
-4.79272e-05 3.33053e-06 0.00123137
0.00163473 0.000133096 1.36201e-06
0.000133096 9.41669e-05 2.29704e-06
1.36201e-06 2.29704e-06 -2.39392e-05
0.0017227 0.000101834 8.02421e-07
0.000101834 8.2704e-05 4.04087e-07
8.02421e-07 4.04087e-07 -1.73357e-05
0.00170259 0.000143409 4.62908e-06
0.000143409 4.82288e-05 1.54363e-06
4.62908e-06 1.54363e-06 -3.55244e-05
0.00172772 8.02067e-05 2.98896e-06
8.02067e-05 5.70692e-05 -4.99453e-07
2.98896e-06 -4.99453e-07 -1.95876e-05
0.00175109 3.35723e-05 2.02355e-06
3.35723e-05 8.91988e-05 -3.82002e-07
2.02355e-06 -3.82002e-07 -1.11891e-05
0.00164865 1.66498e-06 -9.22095e-07
1.66498e-06 9.35893e-05 -8.68363e-08
-9.22095e-07 -8.68363e-08 -1.99938e-05
0.00175385 1.08463e-06 -1.32643e-07
1.08463e-06 9.95355e-05 6.68244e-09
-1.32643e-07 6.68244e-09 -1.18064e-07
0.001683 4.45285e-05 1.60302e-06
4.45285e-05 3.90076e-05 -4.75088e-07
1.60302e-06 -4.75088e-07 -4.29728e-05
0.00181377 0.000108473 7.39048e-07
0.000108473 9.54144e-05 -2.81474e-07
7.39048e-07 -2.81474e-07 1.91839e-05
0.00192059 0.00016638 3.69888e-07
0.00016638 0.000167695 2.54302e-07
3.69888e-07 2.54302e-07 7.97013e-05
0.00173237 -1.17262e-06 -1.61357e-06
-1.17262e-06 7.63209e-05 6.34728e-07
-1.61357e-06 6.34728e-07 -9.24291e-06
0.00188271 7.78384e-05 1.87056e-06
7.78384e-05 9.30606e-05 2.39622e-07
1.87056e-06 2.39622e-07 3.3247e-05
0.00167824 0.000152999 1.17893e-06
0.000152999 -3.22671e-05 -4.21979e-07
1.17893e-06 -4.21979e-07 -0.000104197
0.00185428 -4.15133e-05 6.69895e-07
-4.15133e-05 0.000149982 1.80435e-07
6.69895e-07 1.80435e-07 5.13765e-05
0.00178998 -8.46431e-05 1.08271e-06
-8.46431e-05 0.000117236 -6.04691e-07
1.08271e-06 -6.04691e-07 2.05704e-05
0.00168485 -0.000144569 8.04668e-07
-0.000144569 5.88688e-05 -8.15158e-08
8.04668e-07 -8.15158e-08 -2.78893e-05
0.00119984 -0.000192759 1.38888e-07
-0.000192759 0.000288545 2.6946e-06
1.38888e-07 2.6946e-06 0.000129263
0.00173112 -0.000260971 -3.25632e-07
-0.000260971 0.000506665 1.98035e-06
-3.25632e-07 1.98035e-06 0.000306178
0.00133455 -0.000271288 -2.19957e-06
-0.000271288 6.74679e-05 1.08993e-06
-2.19957e-06 1.08993e-06 -0.000157694
0.00163148 -0.000180461 1.54201e-06
-0.000180461 5.71646e-05 -9.68926e-07
1.54201e-06 -9.68926e-07 -4.48289e-05
0.00150646 -0.000235121 1.61779e-06
-0.000235121 -1.34742e-05 -3.20651e-06
1.61779e-06 -3.20651e-06 -0.000134199
0.00162697 -0.000263968 -4.71609e-07
-0.000263968 0.000124868 -8.35259e-06
-4.71609e-07 -8.35259e-06 -4.41607e-05
0.0011276 -0.000186147 1.12971e-06
-0.000186147 0.000244661 -8.11682e-07
1.12971e-06 -8.11682e-07 9.94363e-05
0.000733348 -0.000156192 -5.3874e-06
-0.000156192 3.45979e-05 -2.41986e-06
-5.3874e-06 -2.41986e-06 -9.80959e-05
0.00114717 -0.000145636 -2.33729e-07
-0.000145636 0.000312517 -4.88069e-07
-2.33729e-07 -4.88069e-07 0.000151991
0.000408524 1.91565e-05 -4.69572e-07
1.91565e-05 -0.000134747 1.5527e-06
-4.69572e-07 1.5527e-06 -0.000191259
0.00097895 -4.96631e-05 4.19967e-07
-4.96631e-05 0.000214596 4.94968e-07
4.19967e-07 4.94968e-07 9.61014e-05
0.000558448 3.12147e-05 8.64154e-07
3.12147e-05 -2.89103e-05 1.77756e-06
8.64154e-07 1.77756e-06 -0.000122323
0.00172735 -4.43371e-05 -7.93545e-07
-4.43371e-05 6.3276e-05 7.27814e-09
-7.93545e-07 7.27814e-09 -2.5298e-05
0.00193957 -0.000115398 -3.81768e-09
-0.000115398 0.000153275 -9.28887e-08
-3.81768e-09 -9.28887e-08 7.98001e-05
0.00160485 -0.000167041 -3.47989e-07
-0.000167041 1.60279e-07 3.63985e-07
-3.47989e-07 3.63985e-07 -7.89296e-05
0.0011092 -0.000194021 1.90005e-07
-0.000194021 0.000222769 1.86402e-06
1.90005e-07 1.86402e-06 5.69297e-05
0.000906033 -0.000225006 -4.5705e-07
-0.000225006 -3.79453e-06 -1.36504e-07
-4.5705e-07 -1.36504e-07 -0.000227767
0.0017792 -0.000315254 -2.99328e-06
-0.000315254 0.000287429 9.15851e-07
-2.99328e-06 9.15851e-07 6.09823e-05
0.00190887 -0.000225627 9.04617e-07
-0.000225627 0.000154508 -5.6784e-07
9.04617e-07 -5.6784e-07 5.93986e-05
0.00171999 -0.000274568 1.29684e-06
-0.000274568 0.000120825 -1.39049e-06
1.29684e-06 -1.39049e-06 -2.36403e-05
0.000520191 2.66675e-05 2.72361e-07
2.66675e-05 -7.5646e-05 -7.70101e-07
2.72361e-07 -7.70101e-07 -0.00012363
0.000814092 -4.4331e-06 -4.28344e-07
-4.4331e-06 0.000119356 2.83649e-07
-4.28344e-07 2.83649e-07 3.23979e-05
0.000450063 -0.000143261 -2.29264e-06
-0.000143261 -0.000151846 1.9641e-06
-2.29264e-06 1.9641e-06 -0.000290963
0.00126551 -0.00018754 -5.40509e-09
-0.00018754 0.000336404 -5.02659e-08
-5.40509e-09 -5.02659e-08 0.000183717
0.000928155 -4.83279e-05 -1.31643e-07
-4.83279e-05 0.000189456 -3.1951e-07
-1.31643e-07 -3.1951e-07 5.18109e-05
0.000884688 -5.51906e-05 -4.99501e-07
-5.51906e-05 0.000167 1.16443e-06
-4.99501e-07 1.16443e-06 5.38725e-05
0.0019538 -6.83058e-05 1.16943e-06
-6.83058e-05 0.000133465 3.77043e-07
1.16943e-06 3.77043e-07 7.35848e-05
0.00184366 -0.00016299 -1.63801e-06
-0.00016299 5.82266e-05 -9.73327e-07
-1.63801e-06 -9.73327e-07 4.52742e-06
0.00181412 -0.000187902 7.27493e-07
-0.000187902 7.27363e-05 -3.12657e-07
7.27493e-07 -3.12657e-07 1.96987e-06
0.00217402 -0.000311509 5.58856e-06
-0.000311509 0.000275125 -5.48235e-07
5.58856e-06 -5.48235e-07 0.000160677
0.000261587 -0.0001443 -2.85669e-06
-0.0001443 -0.000265239 -1.38328e-06
-2.85669e-06 -1.38328e-06 -0.000444044
0.00176955 -0.000326057 -2.44525e-06
-0.000326057 0.000240623 8.31995e-06
-2.44525e-06 8.31995e-06 2.88136e-05
0.00242326 -0.000366405 2.59693e-06
-0.000366405 0.000781866 -4.06828e-06
2.59693e-06 -4.06828e-06 0.000523513
0.000687636 2.66774e-05 5.38361e-07
2.66774e-05 1.40182e-05 -1.96265e-06
5.38361e-07 -1.96265e-06 -2.73165e-05
0.000725472 -8.44671e-05 1.71882e-06
-8.44671e-05 6.88702e-05 -1.99941e-06
1.71882e-06 -1.99941e-06 -6.94375e-06
0.000516733 1.86775e-05 -1.5606e-07
1.86775e-05 -4.92694e-05 -2.16823e-06
-1.5606e-07 -2.16823e-06 -0.000132371
0.000807114 -3.82898e-05 9.6071e-07
-3.82898e-05 0.000130089 4.85409e-07
9.6071e-07 4.85409e-07 2.14281e-05
0.000726159 -7.55788e-06 1.03067e-06
-7.55788e-06 6.75934e-05 -1.61087e-06
1.03067e-06 -1.61087e-06 -4.80375e-05
0.000257699 -9.7861e-05 7.66353e-07
-9.7861e-05 -0.000174251 2.4173e-06
7.66353e-07 2.4173e-06 -0.000318954
0.000332392 -0.000141619 -1.34887e-06
-0.000141619 -0.000266162 2.21029e-07
-1.34887e-06 2.21029e-07 -0.000396487
0.00213698 -0.000256829 -7.38536e-06
-0.000256829 0.000873284 3.80649e-06
-7.38536e-06 3.80649e-06 0.000673563
0.000701842 -2.96239e-05 -8.32036e-07
-2.96239e-05 3.41523e-05 -7.21175e-07
-8.32036e-07 -7.21175e-07 -3.15068e-05
0.000838092 -1.34158e-06 1.14368e-08
-1.34158e-06 0.000133667 -1.06643e-07
1.14368e-08 -1.06643e-07 3.74225e-05
0.00210126 0.000213471 -3.05571e-07
0.000213471 0.000302306 3.08721e-07
-3.05571e-07 3.08721e-07 0.000195026
0.000727744 2.85397e-05 -1.5741e-07
2.85397e-05 8.61844e-05 -7.07959e-08
-1.5741e-07 -7.07959e-08 -4.6226e-05
0.00121169 0.000193457 1.51767e-06
0.000193457 0.000338941 -2.59067e-06
1.51767e-06 -2.59067e-06 0.000152017
0.000552695 9.90394e-05 1.18927e-07
9.90394e-05 -4.56131e-05 8.74818e-07
1.18927e-07 8.74818e-07 -0.000174022
0.00188757 0.000290567 -1.39772e-07
0.000290567 0.000301829 5.56536e-07
-1.39772e-07 5.56536e-07 0.000125829
0.00172132 0.000281186 1.29717e-06
0.000281186 0.000141474 4.10831e-06
1.29717e-06 4.10831e-06 -1.25302e-05
0.00102926 0.000212328 9.6009e-07
0.000212328 0.00013718 8.19289e-08
9.6009e-07 8.19289e-08 -0.000107805
0.0014418 0.000282534 -2.46734e-06
0.000282534 0.000116241 1.10154e-06
-2.46734e-06 1.10154e-06 -9.00467e-05
0.000555724 -9.02259e-06 5.75381e-08
-9.02259e-06 -2.92146e-05 7.84753e-07
5.75381e-08 7.84753e-07 -0.00011485
0.000533576 6.43718e-05 -5.21866e-07
6.43718e-05 -2.09212e-05 -1.53313e-06
-5.21866e-07 -1.53313e-06 -0.000142135
0.0010795 0.000188639 1.772e-06
0.000188639 0.00024277 -1.84042e-06
1.772e-06 -1.84042e-06 3.87348e-05
0.000657123 0.00011145 -9.89016e-07
0.00011145 2.85295e-05 -2.26422e-06
-9.89016e-07 -2.26422e-06 -0.000123405
0.00197331 0.000206601 4.55536e-07
0.000206601 0.000118193 -8.21704e-07
4.55536e-07 -8.21704e-07 4.24309e-05
0.00191861 0.000257163 2.17639e-06
0.000257163 0.000192588 7.87832e-07
2.17639e-06 7.87832e-07 6.87009e-05
0.00177186 0.000315538 -2.18464e-06
0.000315538 0.000207603 1.90074e-09
-2.18464e-06 1.90074e-09 1.98038e-05
0.000817481 0.000216376 7.34803e-07
0.000216376 -9.32415e-05 8.95538e-07
7.34803e-07 8.95538e-07 -0.000332379
0.000709055 7.5112e-06 -2.97265e-07
7.5112e-06 5.59243e-05 1.15975e-06
-2.97265e-07 1.15975e-06 -3.18009e-05
0.0018969 0.000162047 -1.05109e-06
0.000162047 4.42858e-05 1.41817e-06
-1.05109e-06 1.41817e-06 -4.36167e-06
0.00137046 0.000189809 -9.8172e-08
0.000189809 0.000466425 2.95249e-06
-9.8172e-08 2.95249e-06 0.000304816
0.00108001 0.000198003 1.54274e-06
0.000198003 0.000216513 4.01605e-06
1.54274e-06 4.01605e-06 7.06561e-06
0.00247258 0.000258767 -9.8377e-06
0.000258767 0.000402753 -1.41824e-06
-9.8377e-06 -1.41824e-06 0.000318765
0.00133722 0.000307562 -2.9122e-06
0.000307562 -0.000104317 -4.39682e-06
-2.9122e-06 -4.39682e-06 -0.000278085
0.00183888 0.000320037 -2.8265e-06
0.000320037 0.000377242 6.67958e-07
-2.8265e-06 6.67958e-07 0.000138805
0.000769723 1.59781e-05 -1.40189e-06
1.59781e-05 8.57793e-05 -3.23508e-08
-1.40189e-06 -3.23508e-08 7.71009e-06
0.000763501 4.55951e-06 -4.12001e-07
4.55951e-06 8.71916e-05 -1.86697e-08
-4.12001e-07 -1.86697e-08 6.05257e-06
0.000848345 -8.36957e-06 -3.04703e-07
-8.36957e-06 0.000144329 5.79284e-07
-3.04703e-07 5.79284e-07 5.86148e-05
0.000702888 -1.8489e-05 -3.68134e-07
-1.8489e-05 3.69141e-05 -1.14067e-06
-3.68134e-07 -1.14067e-06 -2.86048e-05
0.000727423 2.02608e-05 4.60711e-07
2.02608e-05 6.76971e-05 1.597e-07
4.60711e-07 1.597e-07 -1.60765e-05
0.000571514 -6.62313e-06 -8.39175e-07
-6.62313e-06 -9.89284e-06 2.50997e-07
-8.39175e-07 2.50997e-07 -0.000101193
0.000710163 -7.29345e-06 -2.3112e-07
-7.29345e-06 4.57985e-05 -4.971e-08
-2.3112e-07 -4.971e-08 -2.40964e-05
0.000605429 -2.48412e-05 -5.90435e-07
-2.48412e-05 -1.10752e-06 3.58173e-07
-5.90435e-07 3.58173e-07 -8.76284e-05
0.000681943 -2.87476e-05 6.71486e-07
-2.87476e-05 3.82268e-05 -2.99313e-07
6.71486e-07 -2.99313e-07 -4.62882e-05
0.000805352 1.93996e-05 3.23717e-07
1.93996e-05 0.000119028 1.25369e-07
3.23717e-07 1.25369e-07 2.44246e-05
0.000893402 -1.8444e-06 8.67133e-07
-1.8444e-06 0.000140203 -7.02974e-07
8.67133e-07 -7.02974e-07 5.79072e-05
0.00075308 -4.82394e-05 9.46271e-07
-4.82394e-05 7.47408e-05 -1.18887e-07
9.46271e-07 -1.18887e-07 -1.3059e-05
0.000799832 2.10088e-05 5.05614e-07
2.10088e-05 0.000112591 2.5352e-07
5.05614e-07 2.5352e-07 1.58511e-05
0.000714044 2.40707e-05 1.83513e-06
2.40707e-05 6.07468e-05 6.4287e-07
1.83513e-06 6.4287e-07 -3.27185e-05
0.000733799 1.30099e-05 1.0398e-06
1.30099e-05 5.39602e-05 1.18484e-06
1.0398e-06 1.18484e-06 -1.45729e-05
0.000663948 -6.82265e-06 6.67114e-08
-6.82265e-06 2.18597e-06 1.69242e-06
6.67114e-08 1.69242e-06 -4.13127e-05
0.000676269 -8.26268e-06 -2.19312e-07
-8.26268e-06 7.48718e-06 4.65239e-08
-2.19312e-07 4.65239e-08 -3.55273e-05
0.00128063 -8.33995e-06 5.12238e-07
-8.33995e-06 0.000334716 2.13214e-06
5.12238e-07 2.13214e-06 0.000328144
0.000696059 -1.64688e-05 2.00701e-07
-1.64688e-05 1.56916e-05 -1.99648e-06
2.00701e-07 -1.99648e-06 -2.66387e-05
0.00130963 -1.58907e-05 -2.61247e-06
-1.58907e-05 0.000352753 -1.48621e-06
-2.61247e-06 -1.48621e-06 0.00034636
0.000914707 -1.5256e-05 1.13667e-05
-1.5256e-05 0.00012904 7.75796e-06
1.13667e-05 7.75796e-06 0.00013952
0.00133741 -2.38889e-05 -5.0164e-06
-2.38889e-05 0.000370873 -5.18e-06
-5.0164e-06 -5.18e-06 0.000364125
0.000867081 -2.26623e-05 3.93035e-06
-2.26623e-05 0.000104527 2.93016e-06
3.93035e-06 2.93016e-06 0.000114479
0.000801216 -2.88342e-05 -1.26162e-06
-2.88342e-05 7.13238e-05 -1.90629e-06
-1.26162e-06 -1.90629e-06 8.05439e-05
0.000706274 4.4139e-06 6.89356e-07
4.4139e-06 2.27605e-05 -2.07844e-06
6.89356e-07 -2.07844e-06 -1.55324e-05
0.000619118 2.65108e-05 4.56478e-07
2.65108e-05 -3.80199e-05 -3.75541e-06
4.56478e-07 -3.75541e-06 -4.89442e-05
0.000620432 3.39565e-05 -6.07073e-08
3.39565e-05 -3.0571e-05 7.12348e-08
-6.07073e-08 7.12348e-08 -4.52031e-05
0.00223046 5.74403e-05 2.021e-05
5.74403e-05 0.000904555 -4.16901e-06
2.021e-05 -4.16901e-06 0.000917805
0.000618621 4.40555e-05 8.74452e-09
4.40555e-05 -2.20456e-05 4.51648e-06
8.74452e-09 4.51648e-06 -4.20973e-05
0.00240715 7.19079e-05 -3.07394e-06
7.19079e-05 0.00101456 -1.96821e-07
-3.07394e-06 -1.96821e-07 0.00102413
0.00261639 8.46245e-05 -3.63182e-05
8.46245e-05 0.00114191 3.65946e-06
-3.63182e-05 3.65946e-06 0.0011483
0.00195774 0.000163326 1.185e-06
0.000163326 0.000179061 2.09148e-06
1.185e-06 2.09148e-06 9.24436e-05
0.00181229 0.000111637 1.0109e-06
0.000111637 9.61373e-05 -5.70424e-09
1.0109e-06 -5.70424e-09 1.90226e-05
0.00167937 4.46338e-05 1.58446e-06
4.46338e-05 4.3076e-05 -1.1227e-06
1.58446e-06 -1.1227e-06 -3.98253e-05
0.00174391 3.68597e-06 4.91419e-07
3.68597e-06 9.44081e-05 -1.48439e-07
4.91419e-07 -1.48439e-07 -5.17918e-06
0.00175429 1.59863e-06 -7.70891e-07
1.59863e-06 8.76349e-05 2.05902e-07
-7.70891e-07 2.05902e-07 3.3081e-06
0.00192762 7.52601e-05 2.21153e-07
7.52601e-05 0.000118913 1.18958e-07
2.21153e-07 1.18958e-07 5.96516e-05
0.00175676 0.000156295 -8.19905e-07
0.000156295 9.2997e-06 -2.76265e-07
-8.19905e-07 -2.76265e-07 -6.30255e-05
0.00178762 3.72539e-06 1.15173e-06
3.72539e-06 3.08803e-05 1.58401e-07
1.15173e-06 1.58401e-07 -2.24658e-05
0.00196759 0.000107598 2.86182e-06
0.000107598 8.44437e-05 1.12039e-07
2.86182e-06 1.12039e-07 3.69851e-05
0.00194247 6.111e-05 -2.58578e-06
6.111e-05 9.06686e-05 1.02161e-07
-2.58578e-06 1.02161e-07 0.000100341
0.00185597 -4.40924e-05 -5.9484e-07
-4.40924e-05 0.000134062 1.06369e-07
-5.9484e-07 1.06369e-07 4.56931e-05
0.00190395 -0.000117754 2.28391e-07
-0.000117754 0.000131838 2.99407e-07
2.28391e-07 2.99407e-07 5.86691e-05
0.00164447 -0.000167573 -4.46695e-07
-0.000167573 2.27934e-05 6.56751e-07
-4.46695e-07 6.56751e-07 -5.57914e-05
0.00115502 -0.000196193 3.91375e-07
-0.000196193 0.00024548 4.26121e-06
3.91375e-07 4.26121e-06 7.9062e-05
0.00111533 -0.000237138 8.873e-07
-0.000237138 0.000123016 4.57278e-06
8.873e-07 4.57278e-06 -9.73695e-05
0.00167364 -0.000304196 -2.59928e-06
-0.000304196 0.000226611 -1.49859e-06
-2.59928e-06 -1.49859e-06 6.4398e-06
0.00185098 -0.000224754 3.46802e-06
-0.000224754 0.000122511 -1.13381e-06
3.46802e-06 -1.13381e-06 2.62329e-05
0.00161118 -0.000267092 9.56613e-08
-0.000267092 6.20425e-05 -5.21541e-06
9.56613e-08 -5.21541e-06 -8.18913e-05
0.000151707 -0.000118886 -3.36036e-06
-0.000118886 -0.000319339 2.77724e-06
-3.36036e-06 2.77724e-06 -0.000453395
0.00167059 -0.000212012 9.00335e-06
-0.000212012 0.000573467 -4.36247e-06
9.00335e-06 -4.36247e-06 0.00042208
0.000865593 -1.54837e-05 -3.20044e-07
-1.54837e-05 0.000142149 -1.14632e-07
-3.20044e-07 -1.14632e-07 1.56607e-05
0.000674295 1.08094e-05 -4.35989e-07
1.08094e-05 1.09694e-05 1.23449e-06
-4.35989e-07 1.23449e-06 -3.45136e-05
0.000839814 1.52162e-05 -6.53654e-07
1.52162e-05 0.000132408 1.75512e-06
-6.53654e-07 1.75512e-06 4.57285e-05
0.00080642 -2.57925e-05 -3.27147e-07
-2.57925e-05 0.000122404 2.04813e-06
-3.27147e-07 2.04813e-06 9.01897e-06
0.00186858 -6.85765e-05 5.1633e-08
-6.85765e-05 8.51429e-05 3.93641e-08
5.1633e-08 3.93641e-08 2.53692e-05
0.000679337 7.80338e-06 9.53687e-07
7.80338e-06 1.01057e-05 6.62551e-08
9.53687e-07 6.62551e-08 -3.15516e-05
0.000616104 -2.36048e-05 -1.17683e-06
-2.36048e-05 -6.77426e-06 -3.66408e-08
-1.17683e-06 -3.66408e-08 -7.43381e-05
0.00186304 -0.000159342 -2.42484e-08
-0.000159342 7.95419e-05 2.27882e-07
-2.42484e-08 2.27882e-07 2.15102e-05
0.00168745 -0.000184479 -1.82756e-06
-0.000184479 -9.1104e-07 5.12305e-07
-1.82756e-06 5.12305e-07 -7.35321e-05
0.00047692 -0.000158502 6.5922e-07
-0.000158502 -0.000132932 3.11912e-06
6.5922e-07 3.11912e-06 -0.000308622
0.00180018 -0.000315938 -2.75873e-06
-0.000315938 0.000444204 1.04694e-06
-2.75873e-06 1.04694e-06 0.000182225
0.00150565 -0.000305555 1.71938e-06
-0.000305555 8.87147e-05 -1.20153e-06
1.71938e-06 -1.20153e-06 -0.000115499
0.00204905 -0.000306326 2.45817e-06
-0.000306326 0.000215808 -1.10331e-06
2.45817e-06 -1.10331e-06 0.000100005
0.000773173 -2.1625e-05 1.06982e-06
-2.1625e-05 9.60947e-05 -8.69601e-07
1.06982e-06 -8.69601e-07 1.55599e-05
0.000791143 -2.6792e-05 -5.77858e-09
-2.6792e-05 0.000121243 9.09114e-07
-5.77858e-09 9.09114e-07 1.13875e-05
0.000918576 -0.00017041 -1.80359e-06
-0.00017041 6.32743e-05 -4.22354e-07
-1.80359e-06 -4.22354e-07 -7.31726e-05
0.00135775 -0.000201468 9.58822e-06
-0.000201468 0.000429022 -2.37417e-06
9.58822e-06 -2.37417e-06 0.000260887
0.000567136 -8.32887e-05 -1.22012e-06
-8.32887e-05 -1.02199e-05 3.18837e-07
-1.22012e-06 3.18837e-07 -0.000150115
0.00077287 -8.07329e-06 2.30983e-07
-8.07329e-06 9.82909e-05 -5.46819e-07
2.30983e-07 -5.46819e-07 -1.85174e-05
0.00191751 -8.01509e-05 2.32871e-07
-8.01509e-05 4.99317e-05 3.47796e-07
2.32871e-07 3.47796e-07 4.62755e-06
0.0017857 -0.000159796 7.66685e-07
-0.000159796 1.12026e-05 -7.62454e-07
7.66685e-07 -7.62454e-07 -2.36096e-05
0.00196088 -0.000288181 4.13881e-07
-0.000288181 6.86078e-05 -1.02766e-06
4.13881e-07 -1.02766e-06 -3.46377e-06
0.00151948 -0.00033023 2.1389e-06
-0.00033023 -1.92083e-05 1.67565e-06
2.1389e-06 1.67565e-06 -0.000158451
0.00075622 -0.000142433 -5.91405e-06
-0.000142433 8.64871e-06 -4.66656e-06
-5.91405e-06 -4.66656e-06 -0.000168311
0.00280402 -0.0004261 -4.04547e-06
-0.0004261 0.000929946 4.27705e-06
-4.04547e-06 4.27705e-06 0.000647731
0.000483161 5.40749e-05 -1.26819e-06
5.40749e-05 -7.67434e-05 -2.70574e-06
-1.26819e-06 -2.70574e-06 -0.000146566
0.000730815 -5.00391e-05 2.03122e-06
-5.00391e-05 6.10231e-05 -1.52538e-06
2.03122e-06 -1.52538e-06 -9.57292e-06
0.000950018 -6.59265e-05 1.39349e-06
-6.59265e-05 0.000202023 -1.50473e-07
1.39349e-06 -1.50473e-07 0.000110417
0.000507512 1.53135e-05 -2.28197e-07
1.53135e-05 -3.85642e-05 2.22557e-07
-2.28197e-07 2.22557e-07 -0.000147826
0.00100432 -4.39107e-05 4.278e-07
-4.39107e-05 0.000231552 -1.15346e-07
4.278e-07 -1.15346e-07 0.0001226
0.000807501 -4.5857e-05 2.00996e-06
-4.5857e-05 0.000101006 -3.47166e-07
2.00996e-06 -3.47166e-07 -2.72776e-05
2.15689e-05 -7.58251e-05 5.06083e-06
-7.58251e-05 -0.000222348 1.46667e-06
5.06083e-06 1.46667e-06 -0.000440143
0.000508972 -0.000184587 -1.49455e-05
-0.000184587 -0.000144887 4.63616e-06
-1.49455e-05 4.63616e-06 -0.000279904
0.000578065 1.49337e-05 -1.40148e-07
1.49337e-05 -1.29349e-05 -1.80384e-07
-1.40148e-07 -1.80384e-07 -0.000102626
0.00069414 8.25058e-05 -2.96211e-06
8.25058e-05 6.92166e-05 -2.98789e-06
-2.96211e-06 -2.98789e-06 -5.39349e-05
0.00202308 0.000204886 -1.34453e-06
0.000204886 0.000145848 -8.78005e-07
-1.34453e-06 -8.78005e-07 7.29455e-05
0.0017709 0.000257194 1.75439e-07
0.000257194 0.000116955 2.41988e-06
1.75439e-07 2.41988e-06 -1.16355e-05
0.00149728 0.00014936 -4.55064e-06
0.00014936 0.00049249 -2.24368e-06
-4.55064e-06 -2.24368e-06 0.000339939
0.00108653 0.000190187 -1.66535e-06
0.000190187 0.000255064 -6.88658e-06
-1.66535e-06 -6.88658e-06 4.8297e-05
0.00176431 0.000309236 1.31383e-06
0.000309236 0.000199545 1.46806e-06
1.31383e-06 1.46806e-06 1.38028e-05
0.00194054 0.000304527 -6.26739e-08
0.000304527 0.000513029 -3.21835e-07
-6.26739e-08 -3.21835e-07 0.000270211
0.000717659 2.87865e-05 6.62264e-07
2.87865e-05 6.94466e-05 -7.14617e-07
6.62264e-07 -7.14617e-07 -2.51212e-05
0.00190269 0.000157137 -2.01305e-07
0.000157137 3.99655e-05 -1.02682e-07
-2.01305e-07 -1.02682e-07 -1.37248e-06
0.00094211 0.000133248 7.47759e-07
0.000133248 0.000219898 1.72297e-06
7.47759e-07 1.72297e-06 6.98541e-05
0.000785221 0.000175539 8.44599e-07
0.000175539 5.10593e-05 7.9015e-08
8.44599e-07 7.9015e-08 -0.000157485
0.00210442 0.000245311 2.63347e-06
0.000245311 0.00019961 1.03309e-07
2.63347e-06 1.03309e-07 0.000115534
0.00154093 0.000317903 -5.47722e-07
0.000317903 5.75944e-06 -1.60298e-06
-5.47722e-07 -1.60298e-06 -0.000166324
0.002078 0.00033894 5.98627e-07
0.00033894 0.000522592 4.13953e-07
5.98627e-07 4.13953e-07 0.000281677
0.00129066 7.77124e-05 -2.50379e-06
7.77124e-05 0.000408927 2.12953e-06
-2.50379e-06 2.12953e-06 0.000287087
0.0023667 0.000174251 -2.55587e-05
0.000174251 0.000330364 -4.15686e-06
-2.55587e-05 -4.15686e-06 0.000315821
0.00228531 0.000277977 -3.7872e-06
0.000277977 0.000942581 1.68906e-07
-3.7872e-06 1.68906e-07 0.000760834
0.00236117 0.00032279 -6.29056e-06
0.00032279 0.00085308 1.64055e-06
-6.29056e-06 1.64055e-06 0.00062382
0.00175892 0.000332808 -9.37018e-06
0.000332808 2.47874e-05 -8.44261e-06
-9.37018e-06 -8.44261e-06 -8.63422e-05
0.00136371 0.000313788 -8.66111e-06
0.000313788 5.89808e-05 -7.05673e-07
-8.66111e-06 -7.05673e-07 -0.000161039
0.000450138 0.000191043 1.61528e-05
0.000191043 -0.000539393 -5.43263e-06
1.61528e-05 -5.43263e-06 -0.000742406
0.000700842 1.47329e-05 3.04281e-07
1.47329e-05 5.62507e-05 -2.48786e-07
3.04281e-07 -2.48786e-07 -2.76264e-05
0.000770885 -2.25144e-06 -2.44987e-07
-2.25144e-06 0.00010407 4.51785e-07
-2.44987e-07 4.51785e-07 1.72062e-05
0.00108021 1.44304e-05 6.07824e-07
1.44304e-05 0.000261566 -8.10023e-07
6.07824e-07 -8.10023e-07 0.00017126
0.000699635 -5.35816e-05 -2.42068e-07
-5.35816e-05 4.43103e-05 -1.42661e-06
-2.42068e-07 -1.42661e-06 -2.85356e-05
0.000651233 -4.63577e-05 -1.21661e-06
-4.63577e-05 2.25618e-05 2.17379e-07
-1.21661e-06 2.17379e-07 -6.18815e-05
0.000877059 9.05038e-05 -4.49611e-07
9.05038e-05 0.000161669 5.61193e-07
-4.49611e-07 5.61193e-07 6.55161e-05
0.000556889 -3.78688e-05 -7.73568e-07
-3.78688e-05 -2.85496e-05 5.10653e-07
-7.73568e-07 5.10653e-07 -0.000115428
0.000708587 -2.47188e-05 3.66651e-08
-2.47188e-05 4.85366e-05 -1.45047e-08
3.66651e-08 -1.45047e-08 -2.57265e-05
0.000683592 2.30479e-05 -5.95008e-08
2.30479e-05 3.34344e-05 -2.44444e-07
-5.95008e-08 -2.44444e-07 -5.27379e-05
0.00082187 -6.49262e-06 -3.71369e-07
-6.49262e-06 0.000100773 -5.7341e-07
-3.71369e-07 -5.7341e-07 1.66012e-05
0.00079764 1.20737e-06 3.2438e-07
1.20737e-06 0.000103412 4.62754e-08
3.2438e-07 4.62754e-08 1.22777e-05
0.000818201 -2.69196e-05 -1.62107e-07
-2.69196e-05 0.000110312 -5.68999e-08
-1.62107e-07 -5.68999e-08 2.23259e-05
0.000847925 -8.39749e-06 1.37027e-07
-8.39749e-06 0.000107934 -8.77314e-07
1.37027e-07 -8.77314e-07 2.45006e-05
0.000868224 1.43797e-05 -2.44988e-07
1.43797e-05 0.000131521 -1.12901e-06
-2.44988e-07 -1.12901e-06 3.76709e-05
0.00083764 4.36625e-05 3.94726e-07
4.36625e-05 0.000117995 1.49281e-07
3.94726e-07 1.49281e-07 2.89421e-05
0.000723234 3.13765e-05 2.67037e-07
3.13765e-05 6.44615e-05 5.43116e-07
2.67037e-07 5.43116e-07 -3.35124e-05
0.000590468 -1.54116e-05 -1.45986e-07
-1.54116e-05 -3.01734e-05 1.51691e-06
-1.45986e-07 1.51691e-06 -0.000100911
0.000888897 -1.20622e-05 3.19925e-07
-1.20622e-05 0.000173004 -9.00162e-07
3.19925e-07 -9.00162e-07 7.35074e-05
0.000555079 -1.482e-06 -6.07233e-07
-1.482e-06 -4.52614e-05 1.54587e-06
-6.07233e-07 1.54587e-06 -0.000119529
0.000651746 9.56961e-06 -4.7761e-07
9.56961e-06 -2.93634e-06 1.65263e-06
-4.7761e-07 1.65263e-06 -4.789e-05
0.000659139 1.10777e-05 4.41451e-07
1.10777e-05 3.872e-07 6.54599e-09
4.41451e-07 6.54599e-09 -4.36244e-05
0.000626812 1.53872e-06 1.4458e-07
1.53872e-06 -4.18826e-05 3.56466e-06
1.4458e-07 3.56466e-06 -5.29442e-05
0.000668223 -3.9305e-06 -5.89651e-07
-3.9305e-06 3.4013e-06 -1.81905e-06
-5.89651e-07 -1.81905e-06 -3.99119e-05
0.000977966 -5.7807e-06 -1.70824e-06
-5.7807e-06 0.000160601 -1.56732e-06
-1.70824e-06 -1.56732e-06 0.000151956
0.0022499 -1.12899e-05 7.16708e-06
-1.12899e-05 0.000897074 4.88437e-06
7.16708e-06 4.88437e-06 0.000915133
0.00134715 -1.4434e-05 -2.91957e-06
-1.4434e-05 0.000374851 -5.11985e-06
-2.91957e-06 -5.11985e-06 0.000368199
0.000866597 -1.53255e-05 2.06839e-06
-1.53255e-05 0.000100405 3.00889e-06
2.06839e-06 3.00889e-06 0.000111041
0.000815879 -2.1549e-05 -7.08825e-07
-2.1549e-05 7.43686e-05 -1.93443e-06
-7.08825e-07 -1.93443e-06 8.45975e-05
0.000670687 1.09672e-05 -3.82633e-07
1.09672e-05 3.9514e-06 -2.04259e-06
-3.82633e-07 -2.04259e-06 -3.296e-05
0.000692082 -1.58587e-06 4.34627e-07
-1.58587e-06 1.51799e-05 -3.78839e-08
4.34627e-07 -3.78839e-08 -2.35165e-05
0.000641088 2.01368e-05 3.14776e-07
2.01368e-05 -2.95233e-05 -3.62989e-06
3.14776e-07 -3.62989e-06 -3.79867e-05
0.000954553 3.13076e-05 -4.55284e-07
3.13076e-05 0.000155731 4.11854e-08
-4.55284e-07 4.11854e-08 0.000146334
0.00216867 4.55515e-05 1.62077e-05
4.55515e-05 0.000862329 -4.31094e-06
1.62077e-05 -4.31094e-06 0.00087808
0.000629788 3.49236e-05 -3.16944e-07
3.49236e-05 -2.51666e-05 4.03421e-06
-3.16944e-07 4.03421e-06 -4.00355e-05
0.00228561 5.93035e-05 -2.64039e-06
5.93035e-05 0.000937141 -1.4676e-07
-2.64039e-06 -1.4676e-07 0.000949824
0.0024756 7.34897e-05 -2.7759e-05
7.34897e-05 0.00105451 4.01363e-06
-2.7759e-05 4.01363e-06 0.00106357
0.00184021 0.000159874 -2.66104e-06
0.000159874 5.37337e-05 -6.26477e-07
-2.66104e-06 -6.26477e-07 -1.90688e-05
0.00196385 7.32207e-05 1.11265e-07
7.32207e-05 0.000139927 -1.28555e-07
1.11265e-07 -1.28555e-07 8.11373e-05
0.00177115 1.62888e-06 -1.48374e-07
1.62888e-06 9.57767e-05 -2.56526e-07
-1.48374e-07 -2.56526e-07 1.26861e-05
0.00175131 7.11877e-06 2.0633e-07
7.11877e-06 1.33206e-05 -1.67582e-07
2.0633e-07 -1.67582e-07 -4.03291e-05
0.00185708 0.000104502 -5.39676e-07
0.000104502 3.00752e-05 -2.84062e-07
-5.39676e-07 -2.84062e-07 -1.82018e-05
0.00178529 5.76898e-05 2.43789e-06
5.76898e-05 -2.51592e-06 1.29416e-06
2.43789e-06 1.29416e-06 -1.01258e-06
0.00185606 1.60235e-05 1.41452e-06
1.60235e-05 5.36196e-06 -2.51078e-07
1.41452e-06 -2.51078e-07 -8.51127e-06
0.00277961 0.000172425 2.18797e-05
0.000172425 0.000112275 -1.14928e-06
2.18797e-05 -1.14928e-06 8.56965e-05
0.00190761 3.29277e-05 -2.14699e-05
3.29277e-05 0.000184581 -4.0443e-07
-2.14699e-05 -4.0443e-07 0.000209716
0.000701903 6.10595e-05 -7.02262e-07
6.10595e-05 4.67798e-05 -1.3343e-06
-7.02262e-07 -1.3343e-06 -1.7153e-05
0.00176314 -6.84457e-05 -1.40305e-06
-6.84457e-05 2.55709e-05 -2.20854e-07
-1.40305e-06 -2.20854e-07 -3.42923e-05
0.00189664 -0.000154041 8.86704e-07
-0.000154041 0.00011081 9.24143e-07
8.86704e-07 9.24143e-07 4.86017e-05
0.00157032 -0.000181646 1.16838e-06
-0.000181646 -6.85023e-05 1.07461e-06
1.16838e-06 1.07461e-06 -0.000142246
0.000622563 -0.000166637 2.46173e-06
-0.000166637 -4.02637e-05 6.25461e-06
2.46173e-06 6.25461e-06 -0.000211905
0.00126219 -0.000271942 1.83491e-06
-0.000271942 0.000154729 6.20666e-06
1.83491e-06 6.20666e-06 -0.000112539
0.00136185 -0.000296195 -7.51145e-07
-0.000296195 -1.07009e-06 -6.21976e-06
-7.51145e-07 -6.21976e-06 -0.000200513
0.00181768 -0.000297699 -5.87413e-06
-0.000297699 9.88789e-05 -3.31988e-06
-5.87413e-06 -3.31988e-06 -1.84492e-05
0.00148309 -0.000202168 9.6523e-06
-0.000202168 0.000377634 -3.32639e-06
9.6523e-06 -3.32639e-06 0.000234834
0.000484621 -0.00014007 6.57321e-06
-0.00014007 -6.58926e-05 -7.82866e-06
6.57321e-06 -7.82866e-06 -0.000202431
0.000926935 -0.000101386 1.13419e-07
-0.000101386 0.000190532 -1.87744e-06
1.13419e-07 -1.87744e-06 4.90999e-05
0.000675455 -6.00088e-06 -1.3316e-06
-6.00088e-06 8.09905e-06 2.11424e-06
-1.3316e-06 2.11424e-06 -3.33116e-05
0.000822511 -1.17862e-05 3.25867e-07
-1.17862e-05 0.000132419 4.44994e-07
3.25867e-07 4.44994e-07 1.27748e-05
0.00100586 -5.1495e-05 4.59681e-07
-5.1495e-05 0.000233548 5.17911e-07
4.59681e-07 5.17911e-07 0.00015201
0.000771666 -1.96159e-05 -8.85004e-07
-1.96159e-05 0.000108407 7.70097e-07
-8.85004e-07 7.70097e-07 -1.02007e-06
0.000495604 -1.60131e-05 -1.08976e-06
-1.60131e-05 -8.0096e-05 1.65615e-06
-1.08976e-06 1.65615e-06 -0.000145253
0.00191036 -8.91483e-05 -1.55589e-07
-8.91483e-05 2.97176e-05 2.52218e-08
-1.55589e-07 2.52218e-08 -6.9168e-06
0.000590589 3.22385e-05 8.27213e-08
3.22385e-05 -1.26147e-05 -9.65392e-07
8.27213e-08 -9.65392e-07 -8.27897e-05
0.000728454 -5.40301e-05 6.80555e-08
-5.40301e-05 6.65904e-05 2.4141e-07
6.80555e-08 2.4141e-07 -8.42705e-06
0.000811916 -3.66614e-05 -4.95361e-07
-3.66614e-05 0.000124807 7.50368e-07
-4.95361e-07 7.50368e-07 3.04041e-05
0.00178203 -0.000166048 8.93019e-07
-0.000166048 4.29325e-06 -1.94266e-07
8.93019e-07 -1.94266e-07 -3.1434e-05
0.00195684 -0.000285983 -1.34631e-06
-0.000285983 8.04658e-05 -5.01744e-07
-1.34631e-06 -5.01744e-07 3.15188e-06
0.000944156 -0.000174886 2.83377e-06
-0.000174886 0.000102507 3.68846e-08
2.83377e-06 3.68846e-08 -6.99216e-05
0.0016822 -0.000338248 3.42431e-06
-0.000338248 0.000344577 -2.18142e-07
3.42431e-06 -2.18142e-07 6.71923e-05
0.00176675 -0.000351101 4.13239e-07
-0.000351101 0.000119258 1.24867e-06
4.13239e-07 1.24867e-06 -2.61787e-05
0.000617519 -9.43484e-06 -2.72043e-07
-9.43484e-06 2.49544e-05 -5.43539e-08
-2.72043e-07 -5.43539e-08 -8.31586e-05
0.000841734 -5.56962e-05 -7.5138e-07
-5.56962e-05 0.000144152 2.45856e-07
-7.5138e-07 2.45856e-07 2.97079e-05
0.000618635 -0.000192366 -4.6054e-06
-0.000192366 -6.47135e-05 1.04033e-06
-4.6054e-06 1.04033e-06 -0.000218882
0.00065259 -8.91048e-05 2.84439e-08
-8.91048e-05 0.000103069 -5.96245e-07
2.84439e-08 -5.96245e-07 -9.48249e-05
0.000765866 -6.7673e-05 -2.14556e-07
-6.7673e-05 7.8765e-05 5.63294e-08
-2.14556e-07 5.63294e-08 -4.97428e-05
0.00213663 -0.00017209 -5.54521e-06
-0.00017209 0.000134813 -6.87183e-08
-5.54521e-06 -6.87183e-08 0.000113896
0.00183048 -0.000186596 -4.64998e-06
-0.000186596 -7.66327e-06 1.42285e-06
-4.64998e-06 1.42285e-06 -2.37613e-05
0.00225714 -0.000389748 -2.46547e-06
-0.000389748 0.000253754 -2.37231e-07
-2.46547e-06 -2.37231e-07 0.000139884
0.00277035 -0.000444798 -1.85268e-05
-0.000444798 0.00079264 2.77619e-06
-1.85268e-05 2.77619e-06 0.000589696
0.000933492 -0.000186884 -7.82259e-06
-0.000186884 0.000133222 -2.63028e-06
-7.82259e-06 -2.63028e-06 -7.39054e-05
0.000501397 2.16297e-05 8.82745e-07
2.16297e-05 -5.51607e-05 -2.24522e-06
8.82745e-07 -2.24522e-06 -0.000145604
0.000491652 4.7077e-05 6.2903e-07
4.7077e-05 -6.27968e-05 -8.55974e-07
6.2903e-07 -8.55974e-07 -0.000160224
0.000709344 8.87402e-06 8.39509e-07
8.87402e-06 7.40967e-05 -1.10568e-06
8.39509e-07 -1.10568e-06 -3.20088e-05
0.00108264 -0.000112733 1.13787e-06
-0.000112733 0.000296697 9.69517e-07
1.13787e-06 9.69517e-07 0.000175676
0.000705834 -4.32721e-05 1.01605e-06
-4.32721e-05 5.0807e-05 1.32449e-06
1.01605e-06 1.32449e-06 -5.96778e-05
0.000351999 -5.30423e-05 2.69803e-06
-5.30423e-05 -7.48564e-05 3.14433e-07
2.69803e-06 3.14433e-07 -0.000263834
0.000644051 -0.000193911 5.49476e-06
-0.000193911 0.000105561 1.41983e-06
5.49476e-06 1.41983e-06 -0.000141538
0.000743743 6.07614e-05 9.68481e-07
6.07614e-05 9.39527e-05 -2.85764e-06
9.68481e-07 -2.85764e-06 -8.7142e-06
0.000482535 6.68039e-05 8.51257e-07
6.68039e-05 -4.60086e-05 -6.91887e-07
8.51257e-07 -6.91887e-07 -0.000182341
0.00195057 0.000152451 4.02238e-06
0.000152451 6.01064e-05 -4.64989e-07
4.02238e-06 -4.64989e-07 2.55494e-05
0.00172535 0.000231489 7.40836e-06
0.000231489 -8.60708e-06 8.56365e-07
7.40836e-06 8.56365e-07 -9.23299e-05
0.00181891 0.000331597 6.36738e-06
0.000331597 0.000156059 2.06936e-06
6.36738e-06 2.06936e-06 -1.42129e-05
0.000429061 0.000148856 1.36328e-06
0.000148856 -0.000150156 -1.27117e-06
1.36328e-06 -1.27117e-06 -0.000356887
0.00238803 0.000364096 3.69727e-06
0.000364096 0.000704113 1.28045e-06
3.69727e-06 1.28045e-06 0.000462063
0.0011823 6.30039e-05 -2.89706e-07
6.30039e-05 0.000341017 5.73392e-07
-2.89706e-07 5.73392e-07 0.000227597
0.00202254 0.000151105 -2.12184e-06
0.000151105 0.000149523 -5.13039e-08
-2.12184e-06 -5.13039e-08 0.000141974
0.00140206 0.000199135 -1.32991e-06
0.000199135 0.00044894 -4.75301e-07
-1.32991e-06 -4.75301e-07 0.000281399
0.00165933 0.000267981 -7.61107e-07
0.000267981 0.000486336 1.47798e-06
-7.61107e-07 1.47798e-06 0.000253555
0.00191096 0.000330167 -2.80218e-07
0.000330167 0.000109656 -2.21948e-06
-2.80218e-07 -2.21948e-06 1.34977e-06
0.00151833 0.000330905 -1.21793e-06
0.000330905 0.000141056 2.74808e-06
-1.21793e-06 2.74808e-06 -8.52724e-05
0.00155743 0.000243793 2.37107e-05
0.000243793 -0.000192416 9.72739e-07
2.37107e-05 9.72739e-07 -0.000460113
0.00117637 0.000113553 -3.04174e-06
0.000113553 0.00034359 -1.17588e-06
-3.04174e-06 -1.17588e-06 0.000212792
0.00234645 0.000246182 -3.29419e-05
0.000246182 0.000348397 -1.57381e-05
-3.29419e-05 -1.57381e-05 0.000349518
0.00128115 0.000213696 -5.71792e-06
0.000213696 0.000362243 -9.79215e-07
-5.71792e-06 -9.79215e-07 0.000186932
0.00109977 0.000255987 -4.40632e-06
0.000255987 9.66412e-05 -1.09435e-06
-4.40632e-06 -1.09435e-06 -0.000143959
0.000524518 0.000343546 -9.59234e-06
0.000343546 -0.000521597 -6.84953e-06
-9.59234e-06 -6.84953e-06 -0.000709278
0.00882578 0.000211757 -0.000123364
0.000211757 0.00238784 -3.88321e-05
-0.000123364 -3.88321e-05 0.00144029
0.00471751 0.000499103 0.000115755
0.000499103 0.000775593 -6.65659e-06
0.000115755 -6.65659e-06 0.000168534
0.000903797 0.000346173 1.61319e-05
0.000346173 -0.000227363 1.7218e-05
1.61319e-05 1.7218e-05 -0.000374878
-0.00461055 -0.000458094 0.000179546
-0.000458094 -0.00164884 -6.01026e-06
0.000179546 -6.01026e-06 -0.00230107
0.00517326 -0.00128673 -1.39429e-05
-0.00128673 0.000833269 2.1166e-06
-1.39429e-05 2.1166e-06 0.00240922
0.000694811 4.12855e-06 1.00056e-06
4.12855e-06 6.3446e-05 -2.60171e-07
1.00056e-06 -2.60171e-07 -2.41925e-05
0.000890543 -2.49731e-06 8.3391e-07
-2.49731e-06 0.000163642 -4.31919e-07
8.3391e-07 -4.31919e-07 7.35862e-05
0.000900016 5.07417e-05 -1.11195e-06
5.07417e-05 0.000158281 -2.11733e-06
-1.11195e-06 -2.11733e-06 6.65509e-05
0.000691862 -5.71595e-05 1.65009e-07
-5.71595e-05 4.50518e-05 -1.22628e-06
1.65009e-07 -1.22628e-06 -3.31175e-05
0.000652011 5.16769e-05 -1.09456e-06
5.16769e-05 1.77715e-05 -5.73464e-07
-1.09456e-06 -5.73464e-07 -7.07798e-05
0.000799451 -3.55726e-05 -3.6263e-08
-3.55726e-05 0.000105392 -1.87802e-07
-3.6263e-08 -1.87802e-07 1.38846e-05
0.000876405 -2.11332e-06 -1.47126e-06
-2.11332e-06 0.000140916 8.54225e-07
-1.47126e-06 8.54225e-07 5.35124e-05
0.000774351 -1.61538e-05 -9.939e-07
-1.61538e-05 7.51097e-05 -4.25918e-07
-9.939e-07 -4.25918e-07 -1.1004e-05
0.000771799 5.81762e-05 -1.00445e-06
5.81762e-05 8.94818e-05 -3.18473e-07
-1.00445e-06 -3.18473e-07 -6.82969e-06
0.000642005 -6.80664e-06 -8.95548e-08
-6.80664e-06 4.22261e-06 6.52744e-07
-8.95548e-08 6.52744e-07 -6.86841e-05
0.000730123 2.05035e-05 -1.09023e-08
2.05035e-05 6.59746e-05 -1.48714e-08
-1.09023e-08 -1.48714e-08 -3.02321e-05
0.000819142 -5.80925e-06 4.3729e-07
-5.80925e-06 9.13783e-05 6.37939e-07
4.3729e-07 6.37939e-07 7.83182e-06
0.000853377 1.67734e-05 -5.15284e-07
1.67734e-05 0.000122213 -3.46546e-07
-5.15284e-07 -3.46546e-07 3.0573e-05
0.000972251 5.45238e-05 -5.3651e-07
5.45238e-05 0.000188443 -8.08647e-07
-5.3651e-07 -8.08647e-07 9.63629e-05
0.000631154 1.97283e-05 7.71646e-07
1.97283e-05 -7.71601e-06 -1.51559e-06
7.71646e-07 -1.51559e-06 -9.40014e-05
0.000861569 5.3515e-05 1.34773e-06
5.3515e-05 0.000127315 3.12879e-07
1.34773e-06 3.12879e-07 3.38064e-05
0.000659477 -1.02317e-05 8.89098e-07
-1.02317e-05 1.33619e-05 -2.04187e-08
8.89098e-07 -2.04187e-08 -7.76376e-05
0.000579787 -4.81298e-05 -1.18975e-06
-4.81298e-05 -2.99773e-05 1.35011e-06
-1.18975e-06 1.35011e-06 -0.000106014
0.000827206 1.09733e-05 -5.9237e-07
1.09733e-05 0.00012044 -2.64354e-07
-5.9237e-07 -2.64354e-07 2.64e-05
0.000840976 5.14138e-05 2.45276e-07
5.14138e-05 0.000126966 -1.64905e-06
2.45276e-07 -1.64905e-06 3.28729e-05
0.000706253 -2.40458e-06 -7.25882e-07
-2.40458e-06 6.13466e-05 -3.54653e-07
-7.25882e-07 -3.54653e-07 -2.96637e-05
0.000823658 -1.76158e-06 9.16127e-07
-1.76158e-06 0.000124044 -4.81547e-07
9.16127e-07 -4.81547e-07 3.12433e-05
0.000717699 -5.72032e-05 -1.70418e-06
-5.72032e-05 4.89947e-05 8.02748e-07
-1.70418e-06 8.02748e-07 -2.33615e-05
0.000573808 -2.38443e-07 1.05997e-07
-2.38443e-07 -3.17861e-05 6.51199e-07
1.05997e-07 6.51199e-07 -0.000108211
0.000668032 6.07951e-06 -7.46536e-07
6.07951e-06 4.08326e-06 1.79681e-06
-7.46536e-07 1.79681e-06 -4.08495e-05
0.000658754 -5.15961e-06 3.77137e-07
-5.15961e-06 4.5603e-07 -2.42704e-08
3.77137e-07 -2.42704e-08 -4.41336e-05
0.000649661 7.3059e-06 -3.79021e-07
7.3059e-06 -2.71836e-05 5.14004e-06
-3.79021e-07 5.14004e-06 -3.90099e-05
0.000656222 7.4159e-07 -1.71764e-07
7.4159e-07 -1.32731e-06 -1.71166e-06
-1.71764e-07 -1.71166e-06 -4.51762e-05
0.000634134 1.69293e-06 2.7957e-07
1.69293e-06 -3.75911e-05 -1.41136e-08
2.7957e-07 -1.41136e-08 -4.87119e-05
0.00226873 -1.22014e-06 -8.00246e-08
-1.22014e-06 0.00090735 4.98066e-06
-8.00246e-08 4.98066e-06 0.000925274
0.00066481 -4.1166e-06 -4.92835e-07
-4.1166e-06 -1.98878e-05 -5.16357e-06
-4.92835e-07 -5.16357e-06 -3.06583e-05
0.00156042 -8.69977e-06 -2.38504e-07
-8.69977e-06 0.000498695 5.39678e-08
-2.38504e-07 5.39678e-08 0.000513009
0.000813022 -1.38763e-05 -1.97007e-07
-1.38763e-05 6.87379e-05 -1.91219e-06
-1.97007e-07 -1.91219e-06 7.97324e-05
0.000674097 7.07971e-06 7.83126e-08
7.07971e-06 6.56207e-06 -1.90323e-06
7.83126e-08 -1.90323e-06 -2.89047e-05
0.000681367 -3.64223e-06 2.72993e-07
-3.64223e-06 9.76066e-06 2.72406e-08
2.72993e-07 2.72406e-08 -2.71769e-05
0.000650816 1.36406e-05 1.53622e-07
1.36406e-05 -2.7118e-05 -3.50118e-06
1.53622e-07 -3.50118e-06 -3.38497e-05
0.000676273 -1.26504e-05 -1.60376e-06
-1.26504e-05 6.27528e-06 2.0674e-06
-1.60376e-06 2.0674e-06 -3.25752e-05
0.000941112 2.31716e-05 -1.44886e-07
2.31716e-05 0.000143303 -7.35733e-07
-1.44886e-07 -7.35733e-07 0.000136714
0.00210118 3.3559e-05 1.23766e-05
3.3559e-05 0.000818323 -4.44439e-06
1.23766e-05 -4.44439e-06 0.000836143
0.000631376 2.7849e-05 -4.27199e-07
2.7849e-05 -3.02011e-05 3.78632e-06
-4.27199e-07 3.78632e-06 -4.17381e-05
0.00223613 4.65323e-05 -7.58581e-06
4.65323e-05 0.000902936 1.18379e-06
-7.58581e-06 1.18379e-06 0.00091808
0.00232418 6.07142e-05 -2.14133e-05
6.07142e-05 0.000960133 4.19132e-06
-2.14133e-05 4.19132e-06 0.000972372
0.00174353 0.000101162 -2.80305e-06
0.000101162 -2.62138e-05 -3.28802e-07
-2.80305e-06 -3.28802e-07 -7.54308e-05
0.00173086 1.0076e-05 -1.05305e-06
1.0076e-05 4.71819e-06 -6.48864e-07
-1.05305e-06 -6.48864e-07 -4.91645e-05
0.0015841 5.43446e-05 8.77021e-06
5.43446e-05 -0.000120137 -5.61331e-07
8.77021e-06 -5.61331e-07 -0.000126407
0.00214246 0.000120907 2.33612e-05
0.000120907 -0.000147072 4.98847e-06
2.33612e-05 4.98847e-06 -0.000181627
0.00184349 8.10391e-06 -2.51483e-06
8.10391e-06 -1.3084e-06 -3.23777e-07
-2.51483e-06 -3.23777e-07 -1.5506e-05
0.00182125 4.16423e-05 3.85879e-06
4.16423e-05 0.000145453 3.00262e-07
3.85879e-06 3.00262e-07 0.000162023
0.00281207 -4.22998e-06 -2.00904e-05
-4.22998e-06 0.000675533 1.52918e-07
-2.00904e-05 1.52918e-07 0.000650919
0.00274138 -4.42268e-06 0.000135811
-4.42268e-06 -0.000225581 -1.50656e-05
0.000135811 -1.50656e-05 -0.000405839
0.00244334 1.04819e-05 -5.60835e-06
1.04819e-05 0.000190495 5.12938e-07
-5.60835e-06 5.12938e-07 0.000173892
0.000714094 5.8028e-05 -4.34982e-07
5.8028e-05 5.62569e-05 -1.32057e-06
-4.34982e-07 -1.32057e-06 -9.36683e-06
0.000722324 -8.91275e-06 7.15852e-07
-8.91275e-06 6.30586e-05 -8.90288e-08
7.15852e-07 -8.90288e-08 -4.7875e-06
0.000683529 -7.01316e-05 1.06206e-07
-7.01316e-05 4.61229e-05 -8.4949e-07
1.06206e-07 -8.4949e-07 -3.54902e-05
0.000720239 -2.79338e-05 -1.07847e-06
-2.79338e-05 7.9262e-05 -1.68024e-07
-1.07847e-06 -1.68024e-07 -1.13117e-05
0.00193928 -9.89785e-05 -2.36966e-06
-9.89785e-05 2.98631e-05 -2.32126e-08
-2.36966e-06 -2.32126e-08 1.46804e-06
0.00179654 -0.000172999 -9.77577e-07
-0.000172999 9.46711e-06 8.38508e-07
-9.77577e-07 8.38508e-07 -2.92123e-05
0.00193633 -0.000281874 -5.92326e-06
-0.000281874 8.46588e-05 1.76874e-07
-5.92326e-06 1.76874e-07 1.26882e-06
0.00139601 -0.000239142 3.08547e-06
-0.000239142 0.000342608 3.93798e-06
3.08547e-06 3.93798e-06 0.00016966
0.00024755 -0.000227435 6.6107e-06
-0.000227435 -0.000415318 -2.82629e-06
6.6107e-06 -2.82629e-06 -0.000684417
0.00217963 -0.000381812 3.39306e-06
-0.000381812 0.000346716 -3.57672e-06
3.39306e-06 -3.57672e-06 0.000194779
0.000717337 -0.000188184 -5.69365e-06
-0.000188184 6.51643e-06 -3.35614e-07
-5.69365e-06 -3.35614e-07 -0.00016362
0.00141836 -0.000105397 -9.51711e-07
-0.000105397 0.000501063 -2.12255e-06
-9.51711e-07 -2.12255e-06 0.000323929
0.000631492 -8.52277e-05 -1.64055e-06
-8.52277e-05 3.24118e-06 1.38376e-06
-1.64055e-06 1.38376e-06 -0.000123944
0.000738851 -2.6691e-05 -8.33918e-07
-2.6691e-05 6.80504e-05 1.78187e-06
-8.33918e-07 1.78187e-06 -3.69907e-06
0.000628757 -6.59385e-05 -9.6498e-07
-6.59385e-05 2.9514e-05 -2.34084e-08
-9.6498e-07 -2.34084e-08 -9.09832e-05
0.000793191 -1.13008e-05 -9.78465e-07
-1.13008e-05 0.000123084 5.95185e-07
-9.78465e-07 5.95185e-07 1.70834e-05
0.000723646 3.96303e-06 1.59317e-07
3.96303e-06 6.75892e-05 9.67708e-07
1.59317e-07 9.67708e-07 -4.03124e-06
0.000633126 1.5979e-05 -1.32032e-06
1.5979e-05 2.59326e-05 2.73702e-06
-1.32032e-06 2.73702e-06 -7.11671e-05
0.00205775 -0.00015351 9.51608e-07
-0.00015351 0.000113561 5.50369e-07
9.51608e-07 5.50369e-07 9.4274e-05
0.000708784 1.42523e-06 8.41389e-07
1.42523e-06 6.93901e-05 -4.82641e-07
8.41389e-07 -4.82641e-07 -2.27578e-05
0.000681626 9.51953e-06 1.0657e-06
9.51953e-06 5.11811e-05 -2.01428e-07
1.0657e-06 -2.01428e-07 -4.82616e-05
0.000621509 6.10433e-05 -1.53901e-07
6.10433e-05 2.81979e-05 1.45466e-06
-1.53901e-07 1.45466e-06 -7.55565e-05
0.00185335 -0.000189734 -1.99472e-06
-0.000189734 -1.26729e-05 -7.4998e-07
-1.99472e-06 -7.4998e-07 -3.43444e-05
0.0019322 -0.000365919 1.35309e-06
-0.000365919 8.58383e-05 -2.6297e-07
1.35309e-06 -2.6297e-07 -2.10832e-05
0.00114356 -0.000239106 -5.97394e-07
-0.000239106 0.000229645 -9.22262e-07
-5.97394e-07 -9.22262e-07 1.86257e-05
0.00239465 -0.000420952 -3.61172e-06
-0.000420952 0.000590804 1.46557e-06
-3.61172e-06 1.46557e-06 0.00038774
0.0010251 -5.10574e-05 -6.24543e-07
-5.10574e-05 0.000254622 3.25763e-07
-6.24543e-07 3.25763e-07 0.000138367
0.000667048 -6.14657e-05 -3.9892e-07
-6.14657e-05 3.06894e-05 9.79064e-07
-3.9892e-07 9.79064e-07 -8.67639e-05
0.000957037 -0.00022056 2.86605e-06
-0.00022056 0.0002793 -6.64947e-07
2.86605e-06 -6.64947e-07 3.0714e-05
0.000997342 -0.000116018 5.68434e-07
-0.000116018 0.000276754 -1.81227e-07
5.68434e-07 -1.81227e-07 8.1974e-05
0.00194756 -0.000141402 -1.56374e-05
-0.000141402 1.96117e-05 1.54381e-06
-1.56374e-05 1.54381e-06 1.50161e-05
0.00222105 -0.000306351 -1.3169e-05
-0.000306351 0.000135706 3.51134e-06
-1.3169e-05 3.51134e-06 0.000153214
0.00258731 -0.000455288 -1.08073e-05
-0.000455288 0.000550807 -4.31363e-06
-1.08073e-05 -4.31363e-06 0.000383562
0.00170694 -0.000353515 -2.6259e-06
-0.000353515 0.000460348 3.98747e-06
-2.6259e-06 3.98747e-06 0.000255932
0.000640404 1.78646e-05 -8.23737e-07
1.78646e-05 4.23293e-05 -2.67381e-06
-8.23737e-07 -2.67381e-06 -7.27796e-05
0.000655221 -6.77994e-05 1.17582e-06
-6.77994e-05 5.12502e-05 -3.19054e-06
1.17582e-06 -3.19054e-06 -6.93877e-05
0.000636537 -6.8678e-05 6.8274e-07
-6.8678e-05 6.19705e-05 9.13148e-07
6.8274e-07 9.13148e-07 -6.98885e-05
0.000564586 -6.3433e-05 1.30985e-06
-6.3433e-05 0.000138858 -1.2881e-06
1.30985e-06 -1.2881e-06 -0.000153442
0.000424481 -0.000234422 2.04946e-05
-0.000234422 -0.00225501 -4.93596e-07
2.04946e-05 -4.93596e-07 -0.00273989
0.00105892 4.62058e-05 1.03503e-06
4.62058e-05 0.000266904 -2.45856e-06
1.03503e-06 -2.45856e-06 0.000160957
0.000437211 0.000117814 2.89864e-06
0.000117814 -8.68287e-05 6.16679e-07
2.89864e-06 6.16679e-07 -0.000240731
0.00173066 0.000133255 2.75109e-05
0.000133255 -2.61307e-06 3.59293e-06
2.75109e-05 3.59293e-06 -3.21327e-06
0.00205907 0.000327656 9.28897e-06
0.000327656 0.000191955 3.08911e-06
9.28897e-06 3.08911e-06 8.55834e-05
0.00163431 0.000346259 5.1961e-06
0.000346259 0.000202381 4.04841e-06
5.1961e-06 4.04841e-06 -3.16033e-05
0.000809302 0.0002009 4.39107e-06
0.0002009 3.86861e-05 1.71902e-06
4.39107e-06 1.71902e-06 -0.000197319
0.00267008 0.00030881 3.5592e-05
0.00030881 0.000177738 8.65271e-06
3.5592e-05 8.65271e-06 -0.000167122
0.00106487 9.49353e-05 1.30938e-06
9.49353e-05 0.000286392 -3.92449e-07
1.30938e-06 -3.92449e-07 0.000157742
0.00235152 0.000248491 -8.76577e-06
0.000248491 0.000344932 -1.58222e-06
-8.76577e-06 -1.58222e-06 0.000354216
0.00105408 0.000195154 8.11492e-07
0.000195154 0.000246384 -2.20486e-07
8.11492e-07 -2.20486e-07 7.4313e-05
0.00122067 0.000275446 1.61623e-07
0.000275446 0.000167324 -3.51784e-07
1.61623e-07 -3.51784e-07 -7.68581e-05
0.00142441 0.000404446 -3.69199e-06
0.000404446 -7.43298e-05 -1.54872e-06
-3.69199e-06 -1.54872e-06 -0.000255954
0.00305725 -0.000156611 -7.72296e-05
-0.000156611 -0.000652777 -2.57699e-05
-7.72296e-05 -2.57699e-05 -0.00157944
0.00462428 0.000398411 -2.54843e-06
0.000398411 0.000493296 -2.14399e-05
-2.54843e-06 -2.14399e-05 -0.000209887
0.000198099 0.000259155 1.75524e-06
0.000259155 -0.000519954 7.51732e-06
1.75524e-06 7.51732e-06 -0.000689204
-0.000845264 -0.00035755 9.21357e-05
-0.00035755 0.000569403 3.36281e-05
9.21357e-05 3.36281e-05 -0.000303723
-0.000607153 -0.00126639 -4.15931e-05
-0.00126639 -0.00141301 -5.98614e-05
-4.15931e-05 -5.98614e-05 0.000338003
0.00114714 0.000143353 -3.43823e-06
0.000143353 0.000332402 -4.06987e-06
-3.43823e-06 -4.06987e-06 0.000209249
0.000386147 0.000261002 5.07316e-05
0.000261002 0.00102895 -2.88751e-05
5.07316e-05 -2.88751e-05 0.000252315
0.00132052 -0.00045649 -6.84078e-05
-0.00045649 0.0015213 -0.000100561
-6.84078e-05 -0.000100561 0.000887964
0.00280516 0.000374898 -2.46555e-05
0.000374898 0.00065413 -9.54247e-06
-2.46555e-05 -9.54247e-06 0.000666371
0.00117907 0.000137862 -1.18573e-05
0.000137862 0.000308986 -1.94482e-06
-1.18573e-05 -1.94482e-06 0.000129285
0.000758169 0.000374808 -1.7146e-05
0.000374808 -0.000127006 -1.13989e-05
-1.7146e-05 -1.13989e-05 -0.000392358
-0.000118364 0.000303765 2.27834e-05
0.000303765 -0.000698352 5.35156e-05
2.27834e-05 5.35156e-05 -0.000772658
0.0094447 0.000296077 -3.58864e-05
0.000296077 0.0031687 -2.34659e-05
-3.58864e-05 -2.34659e-05 0.00170485
0.0036349 0.000702877 -2.6576e-07
0.000702877 0.000843679 1.17723e-05
-2.6576e-07 1.17723e-05 -0.000371538
0.00123961 -0.00107733 0.000111554
-0.00107733 -0.000409754 8.99262e-05
0.000111554 8.99262e-05 6.17825e-05
0.00254355 -0.000650034 -1.38506e-06
-0.000650034 -0.00157648 0.00012827
-1.38506e-06 0.00012827 -0.000141334
0.000751517 -1.01169e-05 9.15869e-07
-1.01169e-05 9.33573e-05 -1.08375e-06
9.15869e-07 -1.08375e-06 3.49844e-06
0.000895362 5.04184e-05 7.06958e-07
5.04184e-05 0.000160097 8.86616e-07
7.06958e-07 8.86616e-07 6.739e-05
0.00125538 0.000100807 -1.84196e-06
0.000100807 0.000368824 -3.22027e-06
-1.84196e-06 -3.22027e-06 0.000291524
0.000695596 3.71219e-06 2.80516e-07
3.71219e-06 4.83021e-05 -2.70342e-07
2.80516e-07 -2.70342e-07 -3.24511e-05
0.000776187 2.43473e-05 -6.90928e-08
2.43473e-05 9.0513e-05 -6.57376e-07
-6.90928e-08 -6.57376e-07 -4.42249e-06
0.000613991 -1.92398e-05 -8.02002e-07
-1.92398e-05 -9.24583e-06 -5.83695e-08
-8.02002e-07 -5.83695e-08 -9.82403e-05
0.000837519 2.07446e-05 -8.25207e-07
2.07446e-05 0.000112604 1.89398e-07
-8.25207e-07 1.89398e-07 2.28156e-05
0.000802693 -4.00791e-06 -6.97518e-07
-4.00791e-06 8.1521e-05 5.30944e-07
-6.97518e-07 5.30944e-07 -2.19833e-06
0.000566476 -1.2886e-06 4.45866e-07
-1.2886e-06 -3.51477e-05 6.65211e-07
4.45866e-07 6.65211e-07 -0.000112878
0.000866946 1.67228e-05 2.15372e-08
1.67228e-05 0.000129048 -7.94917e-08
2.15372e-08 -7.94917e-08 3.73392e-05
0.00085252 1.39928e-05 2.94747e-09
1.39928e-05 0.000123478 2.6404e-07
2.94747e-09 2.6404e-07 2.97468e-05
0.000737763 1.72579e-05 5.95705e-07
1.72579e-05 7.0004e-05 -3.57242e-07
5.95705e-07 -3.57242e-07 -2.79529e-05
0.000648157 2.25783e-05 -1.37894e-07
2.25783e-05 9.64066e-07 1.14026e-07
-1.37894e-07 1.14026e-07 -8.46266e-05
0.00100996 1.9522e-05 1.05485e-07
1.9522e-05 0.00020771 -1.0312e-06
1.05485e-07 -1.0312e-06 0.000118758
0.000527957 4.37104e-05 -1.11901e-06
4.37104e-05 -5.84779e-05 -4.7199e-06
-1.11901e-06 -4.7199e-06 -0.000148819
0.000800827 -6.52737e-05 -2.53025e-07
-6.52737e-05 9.12805e-05 -6.53348e-08
-2.53025e-07 -6.53348e-08 -7.24177e-06
0.000830606 -5.41598e-05 -7.63092e-07
-5.41598e-05 0.00012627 -9.32971e-07
-7.63092e-07 -9.32971e-07 2.50912e-05
0.000836875 -1.81114e-05 -5.22967e-07
-1.81114e-05 0.000129378 -3.16801e-07
-5.22967e-07 -3.16801e-07 3.21273e-05
0.000854843 3.10359e-05 -4.70572e-07
3.10359e-05 0.000128339 -3.03531e-07
-4.70572e-07 -3.03531e-07 3.82376e-05
0.00083043 1.52441e-05 -9.8232e-07
1.52441e-05 0.000127589 -1.64785e-06
-9.8232e-07 -1.64785e-06 2.17447e-05
0.00076754 3.93699e-05 7.35082e-07
3.93699e-05 8.80994e-05 -8.89111e-07
7.35082e-07 -8.89111e-07 -3.41778e-06
0.00058451 9.68527e-06 7.06559e-07
9.68527e-06 -3.71858e-05 -1.77415e-06
7.06559e-07 -1.77415e-06 -0.000118146
0.000666394 3.85196e-05 1.39905e-06
3.85196e-05 3.68496e-05 7.42935e-07
1.39905e-06 7.42935e-07 -5.50278e-05
0.000714801 -1.38461e-05 4.19015e-08
-1.38461e-05 5.17185e-05 -5.60723e-08
4.19015e-08 -5.60723e-08 -2.72496e-05
0.000740683 -1.69887e-05 -1.90877e-07
-1.69887e-05 7.65216e-05 -1.69813e-09
-1.90877e-07 -1.69813e-09 -1.19768e-05
0.000711589 -2.16766e-05 -1.32379e-06
-2.16766e-05 3.8762e-05 5.54691e-07
-1.32379e-06 5.54691e-07 -2.71868e-05
0.000750086 -8.33481e-06 9.77506e-07
-8.33481e-06 6.84517e-05 -1.74134e-07
9.77506e-07 -1.74134e-07 -1.6359e-05
0.000678086 -5.20434e-05 -1.45412e-08
-5.20434e-05 2.50942e-05 9.49237e-08
-1.45412e-08 9.49237e-08 -4.74334e-05
0.000687798 7.83677e-06 -1.21056e-06
7.83677e-06 1.26516e-05 1.82305e-06
-1.21056e-06 1.82305e-06 -3.21611e-05
0.000577999 -9.14073e-07 8.24862e-07
-9.14073e-07 -2.38459e-05 -2.82465e-07
8.24862e-07 -2.82465e-07 -0.000104017
0.000671891 7.26643e-06 5.0309e-07
7.26643e-06 6.59315e-06 -2.29007e-08
5.0309e-07 -2.29007e-08 -3.85943e-05
0.00136776 1.68551e-05 -2.78642e-06
1.68551e-05 0.000388817 5.07985e-06
-2.78642e-06 5.07985e-06 0.000380346
0.000663066 1.47016e-05 4.32501e-08
1.47016e-05 2.75766e-06 -1.65385e-06
4.32501e-08 -1.65385e-06 -4.1783e-05
0.00100252 8.90743e-06 -1.54405e-06
8.90743e-06 0.000176306 7.73539e-07
-1.54405e-06 7.73539e-07 0.000166452
0.000871356 3.90162e-06 -3.52194e-06
3.90162e-06 0.000101817 4.84506e-06
-3.52194e-06 4.84506e-06 0.000111916
0.000642805 1.82243e-06 5.80291e-08
1.82243e-06 -3.25038e-05 -3.54611e-06
5.80291e-08 -3.54611e-06 -4.36919e-05
0.00227317 1.27734e-07 3.60876e-06
1.27734e-07 0.000909966 -2.7257e-09
3.60876e-06 -2.7257e-09 0.000927838
0.000888652 -3.68079e-06 -3.47307e-06
-3.68079e-06 0.000111252 -4.85855e-06
-3.47307e-06 -4.85855e-06 0.000121951
0.000725926 6.55633e-05 1.21647e-06
6.55633e-05 6.93038e-05 -5.44677e-07
1.21647e-06 -5.44677e-07 -2.46411e-06
0.000680499 1.40096e-05 -6.21866e-07
1.40096e-05 1.11642e-05 -1.96607e-06
-6.21866e-07 -1.96607e-06 -2.45637e-05
0.00067113 5.1316e-07 5.90916e-07
5.1316e-07 5.35928e-06 1.72513e-08
5.90916e-07 1.72513e-08 -3.05442e-05
0.000649886 7.39924e-06 -3.59084e-08
7.39924e-06 -2.927e-05 -3.47754e-06
-3.59084e-08 -3.47754e-06 -3.52458e-05
0.000691342 -1.45905e-05 -1.06898e-06
-1.45905e-05 1.56483e-05 2.04679e-06
-1.06898e-06 2.04679e-06 -2.16263e-05
0.000635315 1.36004e-05 4.48927e-09
1.36004e-05 -3.65119e-05 -7.55192e-07
4.48927e-09 -7.55192e-07 -4.30787e-05
0.00207764 2.21413e-05 8.27189e-06
2.21413e-05 0.00080087 -4.60232e-06
8.27189e-06 -4.60232e-06 0.000819986
0.00125537 2.84636e-05 -8.42488e-07
2.84636e-05 0.000324925 2.14229e-06
-8.42488e-07 2.14229e-06 0.000319663
0.00151699 2.87255e-05 2.97074e-07
2.87255e-05 0.000482113 1.46041e-06
2.97074e-07 1.46041e-06 0.000495974
0.000944529 3.17252e-05 -1.61102e-05
3.17252e-05 0.000157641 7.39256e-06
-1.61102e-05 7.39256e-06 0.000165744
0.00136947 6.73743e-05 4.55903e-05
6.73743e-05 -0.000476861 1.3957e-05
4.55903e-05 1.3957e-05 -0.00053239
0.00184211 6.63233e-08 1.40717e-06
6.63233e-08 -3.67846e-06 1.00699e-07
1.40717e-06 1.00699e-07 -1.75051e-05
0.00184157 4.84394e-05 2.54883e-05
4.84394e-05 0.000169946 -2.40924e-06
2.54883e-05 -2.40924e-06 0.000176785
0.000850505 4.96337e-05 3.25238e-06
4.96337e-05 -0.000881618 -5.20016e-06
3.25238e-06 -5.20016e-06 -0.00109311
0.00171169 2.21917e-05 1.08078e-05
2.21917e-05 -0.000156724 1.14703e-06
1.08078e-05 1.14703e-06 -0.000158733
0.00221791 -1.33591e-05 -1.37035e-06
-1.33591e-05 0.000281698 -7.74421e-07
-1.37035e-06 -7.74421e-07 0.00025971
0.0030372 -3.44083e-05 -5.43631e-05
-3.44083e-05 0.000616433 5.05353e-06
-5.43631e-05 5.05353e-06 0.000605259
0.0030112 -9.36741e-05 0.000136619
-9.36741e-05 0.000360342 -8.74396e-06
0.000136619 -8.74396e-06 0.000127405
0.0079912 -0.000265729 -6.55267e-06
-0.000265729 0.00195355 1.47893e-05
-6.55267e-06 1.47893e-05 0.000785839
0.00690921 0.00109121 0.000172246
0.00109121 0.00340692 -7.77532e-05
0.000172246 -7.77532e-05 0.00355692
0.00288077 0.001088 6.25016e-06
0.001088 0.001754 1.16649e-05
6.25016e-06 1.16649e-05 0.00272159
0.000449446 -6.70738e-05 1.88899e-06
-6.70738e-05 -8.27616e-05 -1.30375e-06
1.88899e-06 -1.30375e-06 -0.000166976
0.000718099 -8.77213e-06 1.02845e-06
-8.77213e-06 6.05982e-05 -8.79812e-08
1.02845e-06 -8.79812e-08 -6.45217e-06
0.000731631 -6.88916e-05 -1.32848e-06
-6.88916e-05 7.32633e-05 1.79169e-06
-1.32848e-06 1.79169e-06 1.45365e-06
0.00067103 -2.40207e-05 -3.87182e-07
-2.40207e-05 4.151e-05 1.56168e-07
-3.87182e-07 1.56168e-07 -4.29662e-05
0.000797009 6.73076e-05 -1.0335e-08
6.73076e-05 0.000127739 2.61454e-07
-1.0335e-08 2.61454e-07 2.42227e-05
0.000868049 0.000111555 1.04305e-06
0.000111555 0.000155586 9.36417e-07
1.04305e-06 9.36417e-07 5.57524e-05
0.000790497 -9.88203e-06 1.34829e-06
-9.88203e-06 0.000112205 -1.95512e-06
1.34829e-06 -1.95512e-06 2.28571e-05
0.000657808 -2.83667e-05 -6.60143e-07
-2.83667e-05 3.6558e-05 6.79006e-07
-6.60143e-07 6.79006e-07 -4.93051e-05
0.00203307 -0.000136382 6.44494e-06
-0.000136382 0.000119026 1.35358e-07
6.44494e-06 1.35358e-07 0.000102832
0.0018657 -0.000196023 3.29301e-06
-0.000196023 -3.34725e-05 -1.83138e-06
3.29301e-06 -1.83138e-06 -5.76139e-05
0.00163939 -0.000344749 6.49304e-07
-0.000344749 -6.90598e-05 1.52899e-06
6.49304e-07 1.52899e-06 -0.000169258
0.00111371 -0.000260875 4.47524e-06
-0.000260875 0.000195852 2.93683e-06
4.47524e-06 2.93683e-06 -1.5766e-05
0.00223728 -0.000411924 4.63239e-06
-0.000411924 0.000506273 1.97648e-08
4.63239e-06 1.97648e-08 0.00030127
0.00106719 -0.000231469 -4.21161e-07
-0.000231469 0.000340701 -2.007e-06
-4.21161e-07 -2.007e-06 9.07563e-05
0.00159076 -0.000178388 -1.1344e-06
-0.000178388 0.000605357 -5.1659e-07
-1.1344e-06 -5.1659e-07 0.000400603
0.000770303 -9.30758e-05 -1.17721e-06
-9.30758e-05 9.14936e-05 1.21335e-06
-1.17721e-06 1.21335e-06 -3.4475e-05
0.000779803 -2.1626e-05 -3.13224e-07
-2.1626e-05 0.000111418 2.17601e-06
-3.13224e-07 2.17601e-06 1.16867e-05
0.00096461 -1.13679e-05 -1.69225e-06
-1.13679e-05 0.000211956 -2.03833e-06
-1.69225e-06 -2.03833e-06 0.000100647
0.000987394 -1.17718e-05 9.93412e-07
-1.17718e-05 0.000230267 1.13247e-06
9.93412e-07 1.13247e-06 0.000138434
0.000725498 0.000115847 2.26773e-06
0.000115847 9.07439e-05 3.46765e-06
2.26773e-06 3.46765e-06 -1.33362e-05
0.00172843 -0.000140151 -6.53739e-07
-0.000140151 -7.56088e-05 -3.14102e-07
-6.53739e-07 -3.14102e-07 -7.76451e-05
0.000735441 2.92307e-05 -9.67568e-07
2.92307e-05 9.65176e-05 2.50775e-07
-9.67568e-07 2.50775e-07 -1.72815e-05
0.000815305 -5.88751e-05 -8.86677e-07
-5.88751e-05 0.000137177 1.49223e-07
-8.86677e-07 1.49223e-07 2.17717e-05
0.00183629 -0.000300861 6.55308e-07
-0.000300861 -5.37675e-05 -1.5675e-06
6.55308e-07 -1.5675e-06 -5.12611e-05
0.00140151 -0.000372731 -3.0138e-07
-0.000372731 -6.02706e-05 2.56781e-06
-3.0138e-07 2.56781e-06 -0.00020563
0.00158819 -0.00034483 1.7637e-06
-0.00034483 0.000393911 -1.52798e-06
1.7637e-06 -1.52798e-06 0.000176131
0.000894638 -8.09173e-05 4.09234e-07
-8.09173e-05 0.00020742 -1.87607e-06
4.09234e-07 -1.87607e-06 6.27106e-05
0.000923799 -9.77815e-05 -3.14842e-07
-9.77815e-05 0.000316895 1.43464e-07
-3.14842e-07 1.43464e-07 3.94999e-05
0.00244924 -0.000198337 -1.7498e-05
-0.000198337 0.000417745 4.54443e-06
-1.7498e-05 4.54443e-06 0.000356286
0.00279918 -0.000410451 -2.36147e-05
-0.000410451 0.00053566 3.03887e-06
-2.36147e-05 3.03887e-06 0.000555844
0.000667993 -0.000354326 -7.14575e-06
-0.000354326 -0.000300618 8.68673e-07
-7.14575e-06 8.68673e-07 -0.000454077
0.000697645 -0.000221861 -3.63126e-06
-0.000221861 2.05324e-05 1.38361e-05
-3.63126e-06 1.38361e-05 -0.000206514
0.000660349 -0.000104619 1.02458e-06
-0.000104619 4.98671e-05 -8.33027e-07
1.02458e-06 -8.33027e-07 -7.15803e-05
0.000636772 -6.41979e-05 1.93455e-06
-6.41979e-05 5.28737e-05 -4.05026e-06
1.93455e-06 -4.05026e-06 -7.73192e-05
0.000895617 -3.1664e-05 3.00523e-07
-3.1664e-05 0.00027949 -2.85722e-06
3.00523e-07 -2.85722e-06 5.58483e-05
-0.00416647 -2.56336e-05 0.000192547
-2.56336e-05 -0.00234266 -6.40496e-08
0.000192547 -6.40496e-08 -0.00184294
0.00939266 -0.00011239 -1.60515e-05
-0.00011239 0.00295793 1.47764e-06
-1.60515e-05 1.47764e-06 0.00233217
0.00103792 7.99835e-05 2.86976e-06
7.99835e-05 0.000272661 -3.91789e-07
2.86976e-06 -3.91789e-07 0.000147661
0.000744355 0.000170023 3.98226e-06
0.000170023 8.16538e-05 -1.37641e-06
3.98226e-06 -1.37641e-06 -8.63425e-05
0.00211993 0.000234529 2.10281e-05
0.000234529 0.000216647 1.40009e-05
2.10281e-05 1.40009e-05 0.000236301
0.00232149 0.000463192 6.67806e-06
0.000463192 0.00037485 6.12959e-06
6.67806e-06 6.12959e-06 0.000200408
0.00144385 0.000302838 6.7069e-06
0.000302838 0.000296685 9.78501e-07
6.7069e-06 9.78501e-07 4.91626e-05
0.00786626 0.000371431 6.14443e-05
0.000371431 0.00190529 6.06405e-06
6.14443e-05 6.06405e-06 0.000842603
0.00654609 0.000587049 -0.000117735
0.000587049 0.00118695 -3.09677e-05
-0.000117735 -3.09677e-05 0.000583712
-0.000841283 0.000155538 1.00675e-06
0.000155538 -0.000991204 -1.9304e-05
1.00675e-06 -1.9304e-05 -0.00117686
0.00511832 -0.000875582 -2.47789e-05
-0.000875582 0.00257849 2.72562e-05
-2.47789e-05 2.72562e-05 0.00224933
-0.00658313 -0.0012884 -0.000256275
-0.0012884 -0.00361971 -0.00021445
-0.000256275 -0.00021445 -0.00172382
0.000958316 0.000140931 2.27129e-08
0.000140931 0.000235796 -1.64038e-06
2.27129e-08 -1.64038e-06 0.000111679
-0.00245322 -0.000359825 6.82275e-05
-0.000359825 -0.00166447 6.85524e-06
6.82275e-05 6.85524e-06 -0.00174955
-0.00149202 -0.000376493 -7.64478e-05
-0.000376493 0.000497473 -3.54806e-05
-7.64478e-05 -3.54806e-05 -0.000406651
0.00254803 0.000341477 -5.11312e-06
0.000341477 0.000488127 -1.3314e-06
-5.11312e-06 -1.3314e-06 0.00052522
0.000890024 0.000154779 -1.78362e-06
0.000154779 0.000178313 2.49793e-07
-1.78362e-06 2.49793e-07 -1.12166e-05
0.000730125 0.000328177 4.41533e-06
0.000328177 -0.000110723 1.73044e-06
4.41533e-06 1.73044e-06 -0.000369609
0.000724764 0.000252408 1.15825e-05
0.000252408 -0.000183429 1.01566e-05
1.15825e-05 1.01566e-05 -0.000179545
0.00762704 0.000213683 -2.77802e-05
0.000213683 0.00186052 -1.86184e-05
-2.77802e-05 -1.86184e-05 0.000253803
0.0063689 0.000898856 -4.26836e-05
0.000898856 0.00166704 -1.70808e-05
-4.26836e-05 -1.70808e-05 0.000845798
0.00759284 -0.00111907 6.17533e-05
-0.00111907 0.00359972 -3.11163e-05
6.17533e-05 -3.11163e-05 0.00371795
0.00216034 -0.000783013 8.09826e-05
-0.000783013 -0.00190727 0.000169402
8.09826e-05 0.000169402 -0.000413594
0.00143719 0.000119052 -1.21065e-05
0.000119052 0.000524855 -7.55482e-06
-1.21065e-05 -7.55482e-06 0.000419745
-0.00374185 4.48954e-05 -8.15761e-05
4.48954e-05 0.000147914 -3.78455e-05
-8.15761e-05 -3.78455e-05 -0.00133201
0.00234198 0.000109704 -0.000100039
0.000109704 0.000780718 -0.000141396
-0.000100039 -0.000141396 -0.00071633
0.000135086 0.000274453 -1.59138e-05
0.000274453 -0.000460769 1.01254e-06
-1.59138e-05 1.01254e-06 -0.000470763
0.00158246 0.000350897 -3.89734e-05
0.000350897 0.000620933 -1.08109e-05
-3.89734e-05 -1.08109e-05 0.000405951
0.00267205 0.000266356 -7.12082e-05
0.000266356 0.00117028 -5.17564e-06
-7.12082e-05 -5.17564e-06 0.000906334
0.00367377 0.000786403 -5.87923e-05
0.000786403 0.000514665 -1.25217e-05
-5.87923e-05 -1.25217e-05 0.000127908
-0.000163542 0.000332273 0.000105487
0.000332273 -0.000589046 7.8195e-05
0.000105487 7.8195e-05 -0.00291139
0.00817037 -0.00111802 5.81081e-06
-0.00111802 0.00243861 0.000133993
5.81081e-06 0.000133993 0.00230087
0.00273911 -0.000469759 -1.07509e-05
-0.000469759 -0.00209058 -2.23088e-05
-1.07509e-05 -2.23088e-05 -0.000709882
0.00095411 6.90037e-05 2.07844e-06
6.90037e-05 0.000201706 3.73407e-06
2.07844e-06 3.73407e-06 0.000103136
0.00114869 9.47719e-05 3.81339e-06
9.47719e-05 0.000304662 2.56745e-06
3.81339e-06 2.56745e-06 0.000227212
0.00047091 6.81121e-05 -8.37521e-07
6.81121e-05 -7.29408e-05 -7.5847e-06
-8.37521e-07 -7.5847e-06 -0.00013353
0.000556622 4.34606e-05 8.83516e-07
4.34606e-05 -4.16278e-05 -2.96202e-08
8.83516e-07 -2.96202e-08 -0.000118842
0.000782671 3.93703e-05 -6.93557e-07
3.93703e-05 0.000101781 -9.12462e-07
-6.93557e-07 -9.12462e-07 1.14502e-06
0.000819868 -1.01225e-05 -3.12729e-07
-1.01225e-05 0.000104843 7.9637e-07
-3.12729e-07 7.9637e-07 1.17502e-05
0.000818519 -6.65912e-06 8.9799e-07
-6.65912e-06 0.00010496 -2.7856e-07
8.9799e-07 -2.7856e-07 1.10112e-05
0.000632592 1.64097e-05 -6.02936e-07
1.64097e-05 -8.0127e-06 2.55576e-06
-6.02936e-07 2.55576e-06 -9.2489e-05
0.000830397 3.66552e-05 8.90926e-08
3.66552e-05 0.00012689 -6.69472e-07
8.90926e-08 -6.69472e-07 2.53252e-05
0.000894282 1.80628e-05 -7.59539e-08
1.80628e-05 0.000141034 2.32622e-07
-7.59539e-08 2.32622e-07 5.19671e-05
0.000834557 -3.10737e-05 -6.06846e-08
-3.10737e-05 0.000113569 4.56853e-07
-6.06846e-08 4.56853e-07 1.30354e-05
0.000358077 2.94096e-05 8.61676e-07
2.94096e-05 -0.000148052 -4.70567e-07
8.61676e-07 -4.70567e-07 -0.000235646
7.11056e-05 1.7871e-05 2.17624e-06
1.7871e-05 -0.00023774 -3.67394e-06
2.17624e-06 -3.67394e-06 -0.00032098
0.000972741 -6.89667e-06 -2.02009e-06
-6.89667e-06 0.000194681 -2.41659e-06
-2.02009e-06 -2.41659e-06 9.63679e-05
0.000978583 -5.85649e-07 7.54431e-08
-5.85649e-07 0.000210505 -1.68758e-06
7.54431e-08 -1.68758e-06 9.71111e-05
0.000841672 -4.65986e-05 1.21609e-09
-4.65986e-05 0.000135111 -4.16828e-07
1.21609e-09 -4.16828e-07 3.50676e-05
0.000880332 -1.8117e-06 -7.25369e-07
-1.8117e-06 0.000138148 9.48919e-07
-7.25369e-07 9.48919e-07 5.03752e-05
0.000834949 -2.96952e-05 5.04822e-07
-2.96952e-05 0.00012218 -3.37479e-07
5.04822e-07 -3.37479e-07 2.13109e-05
0.000783941 3.48248e-05 -1.91131e-07
3.48248e-05 9.47752e-05 -7.54231e-08
-1.91131e-07 -7.54231e-08 4.29026e-06
0.000688438 -1.71095e-05 -2.01354e-07
-1.71095e-05 2.28997e-05 5.10412e-07
-2.01354e-07 5.10412e-07 -5.86532e-05
0.000695589 4.26687e-05 9.87977e-07
4.26687e-05 4.75388e-05 2.14146e-07
9.87977e-07 2.14146e-07 -4.1296e-05
0.000561269 5.81919e-06 -6.39056e-08
5.81919e-06 -3.52293e-05 -3.05711e-06
-6.39056e-08 -3.05711e-06 -0.000128933
0.000644918 -5.26413e-06 1.56357e-06
-5.26413e-06 6.98133e-06 -1.31234e-06
1.56357e-06 -1.31234e-06 -7.31332e-05
0.000853383 1.01453e-05 2.87769e-06
1.01453e-05 0.000118419 -2.96198e-06
2.87769e-06 -2.96198e-06 2.54219e-05
0.000225327 -3.2862e-05 8.06372e-07
-3.2862e-05 -0.00018823 1.63464e-07
8.06372e-07 1.63464e-07 -0.000323098
0.000356143 3.30782e-05 -2.36759e-07
3.30782e-05 -0.000123487 -3.81761e-07
-2.36759e-07 -3.81761e-07 -0.000223489
0.000744138 3.05951e-05 4.32975e-07
3.05951e-05 8.00498e-05 4.14548e-07
4.32975e-07 4.14548e-07 -1.22159e-05
0.000694671 2.05562e-05 4.88913e-08
2.05562e-05 4.30916e-05 3.68362e-07
4.88913e-08 3.68362e-07 -3.67086e-05
0.000746811 -2.74014e-06 -3.53035e-08
-2.74014e-06 7.84829e-05 6.20869e-09
-3.53035e-08 6.20869e-09 -6.56628e-06
0.000675847 1.50728e-05 -6.19147e-07
1.50728e-05 2.32922e-05 5.16075e-07
-6.19147e-07 5.16075e-07 -4.4046e-05
0.000776066 -7.57754e-07 2.13518e-07
-7.57754e-07 9.49141e-05 2.89068e-07
2.13518e-07 2.89068e-07 7.48892e-06
0.000725608 -2.3261e-05 -2.26413e-07
-2.3261e-05 5.17725e-05 2.547e-08
-2.26413e-07 2.547e-08 -1.76636e-05
0.000659746 3.50171e-05 -7.56897e-07
3.50171e-05 -2.89024e-06 1.80844e-06
-7.56897e-07 1.80844e-06 -4.86326e-05
0.000632222 -4.37918e-05 1.01282e-06
-4.37918e-05 -4.71227e-06 -5.25199e-07
1.01282e-06 -5.25199e-07 -7.5934e-05
0.000674164 1.37942e-05 -1.95057e-07
1.37942e-05 5.09493e-06 -2.66531e-08
-1.95057e-07 -2.66531e-08 -3.98439e-05
0.0013671 2.55752e-05 -4.86096e-06
2.55752e-05 0.000390181 5.06962e-06
-4.86096e-06 5.06962e-06 0.000381237
0.000666564 -5.95461e-06 7.20022e-07
-5.95461e-06 3.20959e-06 -1.68745e-06
7.20022e-07 -1.68745e-06 -4.17263e-05
0.00099747 1.62266e-05 -2.43994e-06
1.62266e-05 0.000174786 7.4458e-07
-2.43994e-06 7.4458e-07 0.000164546
0.000820372 1.38978e-05 -4.41742e-07
1.38978e-05 7.37613e-05 1.90157e-06
-4.41742e-07 1.90157e-06 8.35246e-05
0.000627844 7.51407e-06 3.14431e-07
7.51407e-06 -4.04384e-05 -3.58308e-06
3.14431e-07 -3.58308e-06 -5.20539e-05
0.00228809 1.17038e-05 3.24575e-06
1.17038e-05 0.000919344 3.24865e-08
3.24575e-06 3.24865e-08 0.00093687
0.00228428 1.49288e-06 -7.25759e-09
1.49288e-06 0.000916422 -5.00813e-06
-7.25759e-09 -5.00813e-06 0.000934175
0.00102793 6.7166e-05 -1.31386e-06
6.7166e-05 0.000236075 -1.2493e-06
-1.31386e-06 -1.2493e-06 0.000167276
0.000691953 1.65032e-05 -7.94563e-07
1.65032e-05 1.75665e-05 -2.09373e-06
-7.94563e-07 -2.09373e-06 -1.94316e-05
0.000703868 -9.02494e-07 6.67687e-07
-9.02494e-07 5.53648e-05 7.72035e-07
6.67687e-07 7.72035e-07 -1.5083e-05
0.000649625 1.30436e-06 -1.59709e-07
1.30436e-06 -3.03533e-05 -3.55505e-06
-1.59709e-07 -3.55505e-06 -3.61106e-05
0.000678029 -2.30427e-06 2.35066e-07
-2.30427e-06 9.43893e-06 -3.18474e-08
2.35066e-07 -3.18474e-08 -2.61117e-05
0.000679128 -1.35887e-05 -9.01407e-07
-1.35887e-05 9.74266e-06 1.90696e-06
-9.01407e-07 1.90696e-06 -2.61724e-05
0.000645653 7.45559e-06 -1.60306e-07
7.45559e-06 -3.1807e-05 -1.61288e-08
-1.60306e-07 -1.61288e-08 -3.77586e-05
0.00207484 1.08615e-05 3.90287e-06
1.08615e-05 0.000796836 -4.72758e-06
3.90287e-06 -4.72758e-06 0.000816635
0.00124318 1.90967e-05 -6.13683e-07
1.90967e-05 0.000314508 2.12895e-06
-6.13683e-07 2.12895e-06 0.000311128
0.00145808 1.91959e-05 1.77006e-06
1.91959e-05 0.000443052 7.21691e-08
1.77006e-06 7.21691e-08 0.000458716
0.000897278 2.27461e-05 -1.43141e-05
2.27461e-05 0.00012385 7.25278e-06
-1.43141e-05 7.25278e-06 0.0001349
-0.00690606 0.000189062 0.000133291
0.000189062 -0.00324047 -1.51003e-06
0.000133291 -1.51003e-06 -0.00370775
-0.00203856 0.000157923 0.000124095
0.000157923 0.000514121 1.70321e-05
0.000124095 1.70321e-05 -0.000283884
0.00387691 0.000121169 -0.000175119
0.000121169 0.000580353 1.04001e-06
-0.000175119 1.04001e-06 0.000393945
0.000944425 2.84508e-05 3.38774e-05
2.84508e-05 -0.000508867 3.88949e-07
3.38774e-05 3.88949e-07 -0.000523391
0.00148079 -2.02731e-05 1.58248e-05
-2.02731e-05 -0.00019487 2.88278e-07
1.58248e-05 2.88278e-07 -0.000215045
0.000900321 3.20861e-05 1.39426e-05
3.20861e-05 -0.000595177 -3.03362e-06
1.39426e-05 -3.03362e-06 -0.000684992
0.00234971 -6.17841e-05 2.62916e-06
-6.17841e-05 0.000227755 2.35083e-06
2.62916e-06 2.35083e-06 0.000191119
0.00775095 0.000139328 1.87178e-05
0.000139328 0.00175818 -2.45621e-05
1.87178e-05 -2.45621e-05 0.000818261
-0.00361879 0.000559781 -3.11935e-05
0.000559781 -0.0012419 -4.0654e-06
-3.11935e-05 -4.0654e-06 -0.00182627
-0.00187693 0.00115529 -5.59182e-05
0.00115529 -0.000951043 2.25773e-05
-5.59182e-05 2.25773e-05 0.00055173
0.00120683 -0.000143568 4.38926e-05
-0.000143568 -0.000554274 1.19286e-05
4.38926e-05 1.19286e-05 -0.00084238
0.00916543 2.0435e-05 4.84675e-05
2.0435e-05 0.00282063 -2.42705e-05
4.84675e-05 -2.42705e-05 0.00146354
0.000819288 0.00105167 8.1771e-05
0.00105167 -0.000460208 -0.000140395
8.1771e-05 -0.000140395 0.000184406
0.00458149 0.000839971 -9.86334e-05
0.000839971 2.24385e-05 7.64807e-05
-9.86334e-05 7.64807e-05 0.000807731
0.000741576 6.63982e-05 -1.16628e-06
6.63982e-05 9.75812e-05 -5.27782e-07
-1.16628e-06 -5.27782e-07 -1.42512e-05
0.000606392 1.12643e-05 -2.47558e-07
1.12643e-05 2.9055e-06 -6.48169e-07
-2.47558e-07 -6.48169e-07 -7.89047e-05
0.000718628 -7.36228e-05 -1.00783e-06
-7.36228e-05 6.50611e-05 1.39909e-06
-1.00783e-06 1.39909e-06 -5.12307e-06
0.000614223 1.94062e-06 1.76577e-07
1.94062e-06 1.31928e-05 1.13984e-06
1.76577e-07 1.13984e-06 -7.51466e-05
0.000762596 6.70316e-05 9.5325e-07
6.70316e-05 0.000110333 1.40313e-06
9.5325e-07 1.40313e-06 6.87835e-06
0.000886292 6.80671e-05 -3.04468e-07
6.80671e-05 0.000171815 -1.7658e-07
-3.04468e-07 -1.7658e-07 6.25621e-05
0.000813073 7.9844e-05 1.62307e-06
7.9844e-05 0.000128996 1.55869e-06
1.62307e-06 1.55869e-06 2.66011e-05
0.000714875 3.43709e-07 1.23184e-06
3.43709e-07 6.25335e-05 -6.79581e-07
1.23184e-06 -6.79581e-07 -3.13781e-05
0.000694808 -1.67602e-05 4.75171e-07
-1.67602e-05 6.05065e-05 -9.02081e-07
4.75171e-07 -9.02081e-07 -3.22444e-05
0.000593532 -1.01448e-05 -2.97731e-07
-1.01448e-05 -6.66459e-06 1.25816e-06
-2.97731e-07 1.25816e-06 -8.85349e-05
0.00141034 -0.00013324 1.35004e-05
-0.00013324 -0.000225084 -1.64883e-06
1.35004e-05 -1.64883e-06 -0.000223275
0.00179338 -0.000305448 1.36275e-05
-0.000305448 -5.15993e-05 -2.63279e-06
1.36275e-05 -2.63279e-06 -7.1644e-05
0.000140178 -0.000284111 1.13095e-05
-0.000284111 -0.000710388 2.774e-06
1.13095e-05 2.774e-06 -0.00083218
0.00136721 -0.000330752 2.75819e-06
-0.000330752 0.000278663 -1.17437e-06
2.75819e-06 -1.17437e-06 5.13815e-05
0.00146694 -0.000138216 -8.71394e-09
-0.000138216 0.000592115 2.1304e-06
-8.71394e-09 2.1304e-06 0.000335045
0.00108557 -0.000109914 -8.73023e-07
-0.000109914 0.000318167 9.42086e-07
-8.73023e-07 9.42086e-07 0.000159716
0.000919862 -4.99979e-05 -1.01766e-06
-4.99979e-05 0.000188728 9.64952e-07
-1.01766e-06 9.64952e-07 8.09418e-05
0.000730122 3.72203e-05 -1.20345e-06
3.72203e-05 9.36294e-05 2.24175e-06
-1.20345e-06 2.24175e-06 -1.73962e-05
0.00160114 -0.000167052 -2.01246e-06
-0.000167052 -1.7117e-05 -4.40734e-07
-2.01246e-06 -4.40734e-07 -5.32441e-05
0.000638319 -4.20366e-05 -1.87075e-07
-4.20366e-05 3.98611e-05 1.8266e-08
-1.87075e-07 1.8266e-08 -8.30754e-05
0.000616246 -5.73076e-05 7.42256e-07
-5.73076e-05 4.36888e-05 -1.10205e-06
7.42256e-07 -1.10205e-06 -8.95153e-05
0.00194334 -0.000365472 5.05018e-06
-0.000365472 0.000104055 -1.10032e-06
5.05018e-06 -1.10032e-06 0.000116349
0.000640603 -0.000347906 1.44823e-06
-0.000347906 -0.000294427 2.2572e-06
1.44823e-06 2.2572e-06 -0.000438554
0.000973728 -0.000253259 5.75284e-06
-0.000253259 0.000164448 -2.35296e-06
5.75284e-06 -2.35296e-06 -7.20284e-05
0.00123391 -7.85577e-05 -4.27813e-07
-7.85577e-05 0.000451437 -1.98946e-06
-4.27813e-07 -1.98946e-06 0.000234409
0.000330955 -0.000210017 -9.3106e-06
-0.000210017 -0.000386723 -1.13984e-06
-9.3106e-06 -1.13984e-06 -0.000617013
0.00149105 -0.00030707 -2.42917e-05
-0.00030707 0.000193887 7.59229e-06
-2.42917e-05 7.59229e-06 0.000146825
9.65544e-05 -0.000116849 -1.66693e-05
-0.000116849 -0.000166764 3.04131e-05
-1.66693e-05 3.04131e-05 -0.000407086
0.000576614 3.19585e-05 4.48237e-07
3.19585e-05 2.24769e-06 1.23256e-06
4.48237e-07 1.23256e-06 -0.000117542
0.000585433 -9.64018e-05 2.07501e-06
-9.64018e-05 2.12683e-05 -1.11254e-06
2.07501e-06 -1.11254e-06 -0.000112342
0.000774248 -5.47777e-05 1.57246e-06
-5.47777e-05 0.00015231 -5.10516e-06
1.57246e-06 -5.10516e-06 -1.12409e-05
0.000878479 8.67123e-05 -0.000117121
8.67123e-05 0.00250192 1.12521e-06
-0.000117121 1.12521e-06 0.00159677
0.00210999 -0.000209005 1.70507e-05
-0.000209005 0.00143143 1.29361e-05
1.70507e-05 1.29361e-05 0.00130408
6.85226e-05 0.000436015 -5.50769e-05
0.000436015 -0.00255686 2.17447e-05
-5.50769e-05 2.17447e-05 -0.00313341
0.000816314 0.000129809 4.64641e-06
0.000129809 0.000164322 1.95338e-06
4.64641e-06 1.95338e-06 4.26038e-05
0.000557247 0.000167171 6.59661e-06
0.000167171 1.99614e-05 4.43488e-06
6.59661e-06 4.43488e-06 -0.000177113
0.00230895 0.000305935 1.43121e-05
0.000305935 0.000344042 8.98239e-06
1.43121e-05 8.98239e-06 0.000392925
0.00103931 0.000294933 1.27803e-05
0.000294933 7.29595e-05 9.00057e-06
1.27803e-05 9.00057e-06 -0.000183696
0.00538971 -0.000464828 4.47405e-05
-0.000464828 0.00218407 2.66999e-05
4.47405e-05 2.66999e-05 0.00230594
7.1516e-05 -7.2358e-05 -8.27019e-05
-7.2358e-05 -0.00178976 -5.73341e-06
-8.27019e-05 -5.73341e-06 -0.00324356
0.0033305 0.000807759 -9.29705e-05
0.000807759 -0.000134952 -2.94639e-05
-9.29705e-05 -2.94639e-05 -0.000965523
0.000525622 0.000159203 2.4697e-05
0.000159203 -0.000187169 -1.72445e-05
2.4697e-05 -1.72445e-05 -0.000160074
-0.00418022 -0.000526673 -3.70348e-05
-0.000526673 -0.00153002 -5.70418e-05
-3.70348e-05 -5.70418e-05 -0.00169356
5.33034e-05 -0.000499738 -1.48922e-05
-0.000499738 0.000660908 1.64851e-05
-1.48922e-05 1.64851e-05 -0.000265788
0.00651316 -0.00104001 0.000120575
-0.00104001 0.000375179 0.000102009
0.000120575 0.000102009 0.00194039
0.000733225 9.3888e-05 4.36136e-06
9.3888e-05 0.000146702 -2.47943e-06
4.36136e-06 -2.47943e-06 3.51394e-05
-0.000951668 -6.10553e-05 -5.25553e-05
-6.10553e-05 0.00114973 -1.67417e-05
-5.25553e-05 -1.67417e-05 -3.56683e-05
0.00261605 0.000128352 -6.74911e-06
0.000128352 0.000929692 -3.7287e-05
-6.74911e-06 -3.7287e-05 -0.000622835
0.000877823 0.000265282 -8.45957e-06
0.000265282 -2.32986e-05 3.58556e-06
-8.45957e-06 3.58556e-06 -8.33094e-05
0.000647346 0.000200291 5.75252e-07
0.000200291 0.00014516 1.65261e-06
5.75252e-07 1.65261e-06 -7.18275e-05
0.00016339 0.000198177 3.62101e-05
0.000198177 -0.000186143 -2.664e-05
3.62101e-05 -2.664e-05 -0.00037667
0.00524656 0.00100489 -1.03457e-05
0.00100489 0.00150218 1.12013e-06
-1.03457e-05 1.12013e-06 0.000732533
0.00971238 0.000173314 4.23466e-05
0.000173314 0.00357353 1.53701e-05
4.23466e-05 1.53701e-05 0.0018477
0.00190305 -0.000697657 9.31771e-06
-0.000697657 -0.00112424 -1.82357e-05
9.31771e-06 -1.82357e-05 -0.0010401
0.00723304 -0.000659999 7.00446e-06
-0.000659999 0.00082651 -1.96286e-05
7.00446e-06 -1.96286e-05 0.00213349
0.000619772 0.000131578 -1.13074e-05
0.000131578 0.000120645 -7.58681e-06
-1.13074e-05 -7.58681e-06 2.84196e-05
0.00206843 -1.03824e-05 -8.01168e-05
-1.03824e-05 0.000552858 -3.75029e-05
-8.01168e-05 -3.75029e-05 -0.000497183
0.000782668 6.31967e-05 -1.02146e-05
6.31967e-05 0.000291462 -7.29973e-05
-1.02146e-05 -7.29973e-05 -0.000864214
-0.000977444 2.545e-05 -2.12484e-05
2.545e-05 -0.000502275 -1.62647e-05
-2.12484e-05 -1.62647e-05 -0.000642657
0.00239144 0.000365008 -5.71752e-06
0.000365008 0.000687142 5.11834e-05
-5.71752e-06 5.11834e-05 8.13362e-05
0.00946543 0.00043663 3.4417e-05
0.00043663 0.00389809 -3.51322e-07
3.4417e-05 -3.51322e-07 0.00149967
-0.00688673 -0.000952001 -3.89802e-05
-0.000952001 -0.0041639 5.96164e-05
-3.89802e-05 5.96164e-05 -0.00551434
0.0054097 0.000236462 1.38663e-06
0.000236462 -0.000757799 -0.000103484
1.38663e-06 -0.000103484 0.000715722
0.00101423 8.23649e-05 1.83288e-06
8.23649e-05 0.000222345 6.82214e-06
1.83288e-06 6.82214e-06 0.000147202
0.000930341 9.9925e-05 -4.51516e-06
9.9925e-05 0.00019418 -9.86806e-07
-4.51516e-06 -9.86806e-07 0.000130352
0.00176493 9.85826e-05 -7.44942e-06
9.85826e-05 0.000740702 -4.41408e-06
-7.44942e-06 -4.41408e-06 0.000679729
0.000837539 7.4298e-05 -1.74066e-06
7.4298e-05 0.000122582 -5.15048e-07
-1.74066e-06 -5.15048e-07 2.64757e-05
0.000884598 -3.55007e-05 -3.23031e-07
-3.55007e-05 0.000150541 9.24598e-07
-3.23031e-07 9.24598e-07 4.43482e-05
0.000771847 2.45117e-05 2.38581e-07
2.45117e-05 7.10654e-05 9.87096e-07
2.38581e-07 9.87096e-07 -1.88256e-05
0.000285096 1.97373e-05 5.04707e-08
1.97373e-05 -0.000182936 2.63004e-06
5.04707e-08 2.63004e-06 -0.000268749
0.000883427 -3.8703e-07 7.5366e-07
-3.8703e-07 0.000143406 8.99739e-08
7.5366e-07 8.99739e-08 3.98481e-05
0.000887822 7.49094e-06 -7.45461e-08
7.49094e-06 0.000149523 -3.81218e-07
-7.45461e-08 -3.81218e-07 5.04514e-05
0.000398145 6.32667e-06 2.05e-07
6.32667e-06 -5.14813e-05 7.45421e-07
2.05e-07 7.45421e-07 -0.000137049
8.69899e-05 1.67724e-05 -3.52598e-06
1.67724e-05 -0.000105642 -4.77862e-06
-3.52598e-06 -4.77862e-06 -0.000177833
0.000942418 -2.22062e-05 1.46028e-06
-2.22062e-05 0.000250036 -5.37555e-06
1.46028e-06 -5.37555e-06 0.000158869
0.000992083 3.70875e-05 -2.59984e-07
3.70875e-05 0.000212628 -3.48055e-06
-2.59984e-07 -3.48055e-06 0.000108219
0.000865017 -7.32947e-05 9.37338e-07
-7.32947e-05 0.000129907 9.34809e-07
9.37338e-07 9.34809e-07 3.44762e-05
0.000772148 3.76886e-05 -7.18709e-07
3.76886e-05 8.59204e-05 3.13134e-07
-7.18709e-07 3.13134e-07 -3.5273e-06
0.000791209 -2.39844e-05 -1.69307e-06
-2.39844e-05 8.20187e-05 2.08955e-06
-1.69307e-06 2.08955e-06 4.87389e-07
0.000644741 -4.47451e-06 6.60442e-07
-4.47451e-06 5.4223e-06 6.3967e-07
6.60442e-07 6.3967e-07 -8.36537e-05
0.000747038 3.92979e-05 2.99179e-07
3.92979e-05 7.78984e-05 2.59916e-07
2.99179e-07 2.59916e-07 -1.20974e-05
0.00077597 1.21129e-05 -5.88707e-07
1.21129e-05 7.98507e-05 1.98187e-07
-5.88707e-07 1.98187e-07 -6.18843e-07
0.000929121 2.27287e-05 1.11057e-06
2.27287e-05 0.0001655 -1.70008e-06
1.11057e-06 -1.70008e-06 8.06447e-05
0.000484466 -1.01992e-05 2.88294e-06
-1.01992e-05 -6.37994e-05 -3.76398e-06
2.88294e-06 -3.76398e-06 -0.000133858
0.000574817 -7.93495e-05 1.43144e-06
-7.93495e-05 -6.55009e-05 -7.3897e-07
1.43144e-06 -7.3897e-07 -0.000157593
0.000922575 -1.14848e-05 -1.4519e-06
-1.14848e-05 0.000162427 -2.82772e-07
-1.4519e-06 -2.82772e-07 6.64684e-05
0.000466421 -5.51456e-05 2.65266e-06
-5.51456e-05 -5.87712e-05 1.40227e-06
2.65266e-06 1.40227e-06 -0.000184482
0.00103372 -0.000181488 -7.29789e-09
-0.000181488 0.000232756 4.34013e-06
-7.29789e-09 4.34013e-06 4.91672e-05
0.00120309 -6.75856e-05 1.38436e-06
-6.75856e-05 0.000354616 -1.38852e-06
1.38436e-06 -1.38852e-06 0.000239088
0.00042777 -5.35147e-05 -1.18793e-06
-5.35147e-05 -6.12237e-05 -3.0196e-06
-1.18793e-06 -3.0196e-06 -0.000194566
0.00067039 2.48388e-05 -4.89418e-07
2.48388e-05 4.8075e-05 -6.01464e-07
-4.89418e-07 -6.01464e-07 -4.97496e-05
0.000440163 2.18831e-05 6.83125e-07
2.18831e-05 -9.2527e-05 5.47408e-07
6.83125e-07 5.47408e-07 -0.000179585
0.000830924 1.86979e-05 -2.62866e-07
1.86979e-05 0.000128429 3.37873e-07
-2.62866e-07 3.37873e-07 3.56088e-05
0.000765737 -8.33648e-06 -5.6776e-07
-8.33648e-06 8.90655e-05 4.39298e-07
-5.6776e-07 4.39298e-07 4.09425e-06
0.000685763 1.04033e-05 -7.83486e-07
1.04033e-05 2.74103e-05 6.11924e-07
-7.83486e-07 6.11924e-07 -3.85943e-05
0.000811618 -2.95495e-05 4.23568e-07
-2.95495e-05 0.000123769 9.38192e-09
4.23568e-07 9.38192e-09 3.1894e-05
0.000725753 -2.60888e-05 -4.17897e-07
-2.60888e-05 5.29684e-05 4.72759e-08
-4.17897e-07 4.72759e-08 -1.5972e-05
0.000668323 3.44975e-05 -1.363e-06
3.44975e-05 2.52612e-06 1.70898e-06
-1.363e-06 1.70898e-06 -4.32949e-05
0.000761838 -5.40611e-05 1.32082e-06
-5.40611e-05 7.49329e-05 -5.79249e-07
1.32082e-06 -5.79249e-07 3.43901e-06
0.00069351 1.21598e-05 -2.8131e-07
1.21598e-05 1.42545e-05 -5.18039e-10
-2.8131e-07 -5.18039e-10 -3.0336e-05
0.00135856 3.46162e-05 -6.94745e-06
3.46162e-05 0.000387959 4.9972e-06
-6.94745e-06 4.9972e-06 0.000378509
0.000685085 -7.89527e-06 1.45509e-06
-7.89527e-06 1.08892e-05 -1.68786e-06
1.45509e-06 -1.68786e-06 -3.38346e-05
0.000997813 2.40552e-05 -3.31861e-06
2.40552e-05 0.000176993 6.98198e-07
-3.31861e-06 6.98198e-07 0.000166308
0.000820511 2.15181e-05 -8.82427e-07
2.15181e-05 7.80553e-05 1.87576e-06
-8.82427e-07 1.87576e-06 8.69026e-05
0.000617564 1.39764e-05 4.2679e-07
1.39764e-05 -4.4952e-05 -3.63442e-06
4.2679e-07 -3.63442e-06 -5.69254e-05
0.00155636 2.02626e-05 5.22844e-06
2.02626e-05 0.000498714 -1.44462e-06
5.22844e-06 -1.44462e-06 0.000512066
0.00229412 1.37635e-05 4.42893e-06
1.37635e-05 0.000923188 -4.93257e-06
4.42893e-06 -4.93257e-06 0.000940583
0.000776261 -6.73728e-06 7.27986e-07
-6.73728e-06 8.51099e-05 -1.30805e-06
7.27986e-07 -1.30805e-06 1.5205e-05
0.000708845 1.06707e-05 -4.48188e-07
1.06707e-05 2.57894e-05 -2.10382e-06
-4.48188e-07 -2.10382e-06 -1.26135e-05
0.000767469 -1.75934e-06 6.82786e-07
-1.75934e-06 8.59002e-05 1.52178e-07
6.82786e-07 1.52178e-07 1.72596e-05
0.000647339 -5.00207e-06 -2.18924e-07
-5.00207e-06 -3.16926e-05 -3.62168e-06
-2.18924e-07 -3.62168e-06 -3.78818e-05
0.000680696 9.93023e-06 3.37691e-08
9.93023e-06 1.08156e-05 -2.40954e-08
3.37691e-08 -2.40954e-08 -2.58699e-05
0.000693058 -6.54923e-05 -2.61313e-06
-6.54923e-05 4.45307e-05 1.98176e-06
-2.61313e-06 1.98176e-06 -2.20499e-05
0.00207712 -3.92496e-07 -6.58863e-07
-3.92496e-07 0.000797135 -4.76574e-06
-6.58863e-07 -4.76574e-06 0.000817181
0.000647642 1.36167e-06 -1.41343e-07
1.36167e-06 -3.14239e-05 -4.2197e-09
-1.41343e-07 -4.2197e-09 -3.71654e-05
0.00066364 -1.03241e-05 -6.86491e-07
-1.03241e-05 1.02711e-06 1.93751e-06
-6.86491e-07 1.93751e-06 -3.44487e-05
0.000642111 7.53068e-06 -1.07764e-07
7.53068e-06 -3.39377e-05 3.51674e-06
-1.07764e-07 3.51674e-06 -3.98759e-05
0.00208354 1.20299e-05 -3.21094e-06
1.20299e-05 0.000802031 -3.47006e-08
-3.21094e-06 -3.47006e-08 0.00082176
0.00208462 2.26304e-05 -1.08017e-05
2.26304e-05 0.000805071 4.49052e-06
-1.08017e-05 4.49052e-06 0.000824214
-0.00273321 -9.36047e-05 -4.02499e-05
-9.36047e-05 0.000494251 1.11916e-05
-4.02499e-05 1.11916e-05 -0.000752632
-0.00112195 0.0003305 -3.35675e-05
0.0003305 -0.000506647 8.808e-06
-3.35675e-05 8.808e-06 -0.000815993
0.0027794 -0.000131167 -0.000133121
-0.000131167 0.000644336 0.000111787
-0.000133121 0.000111787 -0.000744987
-0.00255329 0.000194963 0.000176139
0.000194963 0.000615387 -7.74532e-05
0.000176139 -7.74532e-05 -4.30154e-05
0.00199383 0.000155048 -9.0817e-05
0.000155048 -0.000193188 1.46822e-05
-9.0817e-05 1.46822e-05 -0.000404366
0.00205641 -9.99306e-05 8.22288e-05
-9.99306e-05 4.11834e-05 -9.60759e-06
8.22288e-05 -9.60759e-06 3.5629e-06
0.00185902 -0.000407993 -9.30484e-05
-0.000407993 -0.00113955 -4.37349e-05
-9.30484e-05 -4.37349e-05 -0.00211341
0.00773194 0.000643511 -2.76884e-05
0.000643511 0.00378921 -1.20145e-05
-2.76884e-05 -1.20145e-05 0.00354812
-0.00664008 0.00125676 -0.000256773
0.00125676 -0.00376277 0.000219448
-0.000256773 0.000219448 -0.00170679
0.00232153 -4.10276e-05 -8.21282e-06
-4.10276e-05 -0.000107648 -5.88442e-06
-8.21282e-06 -5.88442e-06 -0.000346442
0.00395885 -0.000117508 2.66409e-05
-0.000117508 0.000296387 -3.78614e-05
2.66409e-05 -3.78614e-05 -0.00161417
0.00786109 0.00122758 -3.83498e-05
0.00122758 0.00255522 -4.53184e-05
-3.83498e-05 -4.53184e-05 0.00324156
0.0019356 0.000790752 -4.06395e-05
0.000790752 -0.0015349 8.77081e-05
-4.06395e-05 8.77081e-05 -0.000670416
0.00269269 -0.000478826 -5.40556e-05
-0.000478826 -0.000147104 1.62102e-05
-5.40556e-05 1.62102e-05 -0.000592218
0.00293396 -0.000403536 0.000144719
-0.000403536 0.000668498 -9.96751e-05
0.000144719 -9.96751e-05 -0.00196077
-0.00544383 0.000476129 -4.43697e-05
0.000476129 -0.00456184 -0.000174523
-4.43697e-05 -0.000174523 -0.00433927
0.00171782 0.00048682 -3.03042e-05
0.00048682 -0.00294063 1.45704e-06
-3.03042e-05 1.45704e-06 -0.00162277
0.00081325 -1.35516e-05 8.11187e-07
-1.35516e-05 0.000138782 8.7938e-08
8.11187e-07 8.7938e-08 2.01583e-05
0.000767981 5.65338e-05 -1.72148e-06
5.65338e-05 0.000109987 -7.32904e-07
-1.72148e-06 -7.32904e-07 2.23632e-06
0.000731712 4.48986e-05 2.86138e-07
4.48986e-05 7.29319e-05 -1.25671e-07
2.86138e-07 -1.25671e-07 -6.53501e-06
0.000698026 7.02486e-05 2.59028e-06
7.02486e-05 7.46707e-05 2.49699e-06
2.59028e-06 2.49699e-06 -2.75185e-05
0.000729539 3.31751e-05 -2.35938e-07
3.31751e-05 8.19541e-05 -1.75102e-07
-2.35938e-07 -1.75102e-07 -3.78174e-05
0.000878974 6.9203e-05 2.10602e-07
6.9203e-05 0.000169275 8.7767e-07
2.10602e-07 8.7767e-07 6.02854e-05
0.000713531 1.78093e-05 -4.09634e-07
1.78093e-05 6.92154e-05 2.24848e-06
-4.09634e-07 2.24848e-06 -2.97435e-05
0.000899726 0.00010036 -3.02973e-07
0.00010036 0.000184081 -2.735e-07
-3.02973e-07 -2.735e-07 7.40186e-05
0.000854797 5.53656e-05 -1.51626e-07
5.53656e-05 0.000157106 5.0199e-07
-1.51626e-07 5.0199e-07 5.34613e-05
0.0006256 -7.23308e-06 -1.51973e-06
-7.23308e-06 2.34666e-05 3.01137e-07
-1.51973e-06 3.01137e-07 -7.25427e-05
0.00129961 -0.000169368 2.7199e-05
-0.000169368 -0.000166978 -1.25859e-05
2.7199e-05 -1.25859e-05 -0.000179969
0.000851511 -0.000316045 2.14771e-05
-0.000316045 -0.000451853 -3.08588e-06
2.14771e-05 -3.08588e-06 -0.000449203
0.000912275 -0.000364091 1.36807e-05
-0.000364091 -0.000132792 -1.20144e-06
1.36807e-05 -1.20144e-06 -0.00027071
0.0011776 -0.000278461 8.56338e-06
-0.000278461 0.00026679 -1.29171e-05
8.56338e-06 -1.29171e-05 1.37446e-05
0.00137124 -9.55127e-05 -5.59447e-07
-9.55127e-05 0.000513429 6.12389e-06
-5.59447e-07 6.12389e-06 0.000301343
0.000697956 -7.62861e-05 -1.14595e-06
-7.62861e-05 9.74127e-05 4.12766e-06
-1.14595e-06 4.12766e-06 -4.34165e-05
0.000632767 6.31861e-05 -1.72729e-07
6.31861e-05 3.9256e-05 -2.83856e-07
-1.72729e-07 -2.83856e-07 -8.66273e-05
0.000720805 -4.56273e-05 -3.58307e-07
-4.56273e-05 8.88327e-05 1.16147e-06
-3.58307e-07 1.16147e-06 -3.67421e-05
0.00118976 -0.000215101 -1.9772e-06
-0.000215101 3.89351e-05 -2.70755e-07
-1.9772e-06 -2.70755e-07 -0.000116129
0.000848579 -6.49522e-06 -6.07592e-08
-6.49522e-06 0.000170647 -5.1019e-08
-6.07592e-08 -5.1019e-08 3.4546e-05
0.00112817 -8.24378e-05 -1.27453e-07
-8.24378e-05 0.000360326 1.63668e-08
-1.27453e-07 1.63668e-08 0.000186544
0.00112832 -0.00028776 -2.06736e-06
-0.00028776 -2.48079e-05 -1.18518e-06
-2.06736e-06 -1.18518e-06 -5.20093e-05
0.00101109 -0.000151518 -9.56686e-06
-0.000151518 0.000297553 3.65591e-06
-9.56686e-06 3.65591e-06 7.2111e-05
-0.000717967 -0.00025885 -1.04693e-05
-0.00025885 -0.00100981 -1.45166e-05
-1.04693e-05 -1.45166e-05 -0.000998072
0.000662971 -0.00013582 -1.76471e-05
-0.00013582 0.0001245 2.18631e-05
-1.76471e-05 2.18631e-05 2.70597e-05
0.000678277 -3.60204e-05 -6.33304e-06
-3.60204e-05 0.000113948 2.47513e-05
-6.33304e-06 2.47513e-05 -4.12933e-05
0.000717141 -4.54911e-06 4.26812e-07
-4.54911e-06 7.47181e-05 1.87194e-07
4.26812e-07 1.87194e-07 -4.95335e-05
0.000664182 2.22662e-05 1.29951e-06
2.22662e-05 9.91063e-05 -2.07605e-06
1.29951e-06 -2.07605e-06 -6.97046e-05
0.00152637 -2.33217e-05 -2.66985e-05
-2.33217e-05 0.000486312 -2.96661e-06
-2.66985e-05 -2.96661e-06 -0.000375114
-0.00128159 2.92007e-05 -7.62874e-05
2.92007e-05 0.0015429 -3.09225e-06
-7.62874e-05 -3.09225e-06 0.000371538
-0.00797638 -0.000255459 -0.000212178
-0.000255459 -0.00407435 5.0034e-06
-0.000212178 5.0034e-06 -0.00403004
5.12955e-05 7.74558e-05 6.88304e-06
7.74558e-05 -0.000216207 -5.22168e-07
6.88304e-06 -5.22168e-07 -0.000338104
-0.000153346 7.71452e-05 5.53173e-06
7.71452e-05 -0.00026598 2.42311e-06
5.53173e-06 2.42311e-06 -0.000483568
0.00140969 0.000235522 1.42864e-05
0.000235522 0.000269894 3.15392e-06
1.42864e-05 3.15392e-06 0.000202415
-0.00270151 0.000124263 -6.58014e-06
0.000124263 0.000371074 8.80947e-06
-6.58014e-06 8.80947e-06 -0.000979406
0.00218893 0.000235566 -5.58548e-05
0.000235566 0.0003913 -4.86831e-05
-5.58548e-05 -4.86831e-05 -0.00225415
0.00368556 0.000843843 7.64078e-05
0.000843843 0.000519615 8.306e-06
7.64078e-05 8.306e-06 -5.11053e-05
0.00072635 0.000242365 6.16134e-06
0.000242365 6.17419e-05 -1.16301e-05
6.16134e-06 -1.16301e-05 2.06315e-05
0.0101181 -0.000910023 1.95502e-05
-0.000910023 0.00312448 -4.57454e-05
1.95502e-05 -4.57454e-05 0.00317283
0.00301911 0.000137642 8.64359e-05
0.000137642 0.00122173 6.49759e-05
8.64359e-05 6.49759e-05 -0.000384427
0.00707102 -0.000579534 2.71683e-05
-0.000579534 0.0010219 7.05154e-06
2.71683e-05 7.05154e-06 0.0023894
0.000925301 0.000151117 -6.05983e-07
0.000151117 0.000319939 -2.46326e-06
-6.05983e-07 -2.46326e-06 0.000220788
0.0022264 -6.8825e-06 5.66308e-06
-6.8825e-06 0.000773405 -8.23366e-06
5.66308e-06 -8.23366e-06 -0.000165282
0.00111721 8.4386e-05 6.67908e-06
8.4386e-05 0.000265728 1.38289e-05
6.67908e-06 1.38289e-05 -0.000938455
-1.41682e-05 0.000143249 -7.3106e-06
0.000143249 -3.46417e-05 -9.06314e-07
-7.3106e-06 -9.06314e-07 -0.000202526
0.00278624 0.000494178 -5.63429e-05
0.000494178 0.000720577 -3.52916e-05
-5.63429e-05 -3.52916e-05 0.000158935
0.00228305 0.000878064 5.13544e-05
0.000878064 0.000455756 3.70472e-05
5.13544e-05 3.70472e-05 -0.00226616
0.00437743 8.2552e-05 -5.75564e-06
8.2552e-05 -0.00193969 -6.93821e-05
-5.75564e-06 -6.93821e-05 -1.66205e-05
0.000950619 -0.000539694 -1.93952e-05
-0.000539694 -0.000244279 -1.19163e-05
-1.93952e-05 -1.19163e-05 -0.00109645
0.00118724 9.316e-05 -3.66922e-06
9.316e-05 0.000598442 -7.52363e-06
-3.66922e-06 -7.52363e-06 0.000501197
0.000869584 -4.43137e-05 -3.2189e-07
-4.43137e-05 0.000132833 -2.95437e-05
-3.2189e-07 -2.95437e-05 -0.000224422
0.00221317 -1.2995e-06 1.44704e-05
-1.2995e-06 0.000253393 -6.22083e-05
1.44704e-05 -6.22083e-05 -0.000673128
0.00189119 0.000510153 3.3145e-05
0.000510153 -0.00285827 -3.09651e-06
3.3145e-05 -3.09651e-06 -0.00162404
-0.00105188 4.10044e-05 -5.40328e-06
4.10044e-05 -0.0003245 -1.31197e-05
-5.40328e-06 -1.31197e-05 -0.000712574
0.0100002 0.000633369 0.000102448
0.000633369 0.0044551 4.34297e-05
0.000102448 4.34297e-05 0.00164779
-0.00820882 -0.000262794 5.21545e-05
-0.000262794 -0.00112025 8.98503e-05
5.21545e-05 8.98503e-05 -0.00242004
0.00159665 0.000155738 1.44754e-05
0.000155738 0.000578651 7.38814e-06
1.44754e-05 7.38814e-06 0.000508336
0.00140664 0.000113704 -2.96367e-06
0.000113704 0.000535862 9.24904e-07
-2.96367e-06 9.24904e-07 0.000468721
0.000602446 8.74998e-05 -1.42385e-05
8.74998e-05 0.00025998 -6.79785e-06
-1.42385e-05 -6.79785e-06 0.000186292
0.000794286 0.000113152 1.03333e-06
0.000113152 0.000101287 1.68471e-06
1.03333e-06 1.68471e-06 -6.4411e-06
0.000741926 3.48007e-05 4.26716e-07
3.48007e-05 6.29299e-05 1.52946e-06
4.26716e-07 1.52946e-06 -3.20927e-05
0.000620785 -4.05547e-06 -2.57598e-07
-4.05547e-06 7.784e-05 8.99018e-06
-2.57598e-07 8.99018e-06 -1.01634e-05
0.000754828 3.40687e-05 -1.85171e-07
3.40687e-05 7.31081e-05 -5.50798e-07
-1.85171e-07 -5.50798e-07 -2.47446e-05
0.000831892 -3.28373e-05 -2.31617e-07
-3.28373e-05 0.000190883 -1.17839e-06
-2.31617e-07 -1.17839e-06 9.61071e-05
0.000165902 3.88613e-06 6.13682e-06
3.88613e-06 -7.62126e-05 3.91498e-06
6.13682e-06 3.91498e-06 -0.000157292
0.00132906 -9.59806e-06 -5.07645e-06
-9.59806e-06 0.000594334 -1.01522e-05
-5.07645e-06 -1.01522e-05 0.000527038
0.000659537 -2.53217e-05 -1.32183e-06
-2.53217e-05 7.42908e-05 -6.01962e-06
-1.32183e-06 -6.01962e-06 -7.71422e-06
0.000700822 -1.19287e-05 -4.48448e-07
-1.19287e-05 2.92414e-05 3.0235e-06
-4.48448e-07 3.0235e-06 -5.43047e-05
0.000792106 3.99214e-05 -3.68103e-07
3.99214e-05 0.0001048 3.18885e-07
-3.68103e-07 3.18885e-07 1.36886e-05
0.000917267 2.31066e-05 -3.60032e-06
2.31066e-05 0.000158502 2.91479e-06
-3.60032e-06 2.91479e-06 7.75671e-05
0.000752458 -9.7874e-06 9.7416e-07
-9.7874e-06 8.22867e-05 5.08628e-08
9.7416e-07 5.08628e-08 1.15252e-05
0.000804082 2.72421e-05 1.96096e-07
2.72421e-05 9.65923e-05 1.31817e-07
1.96096e-07 1.31817e-07 1.09638e-05
0.000694471 -5.41266e-05 2.33816e-06
-5.41266e-05 6.45329e-05 1.73169e-08
2.33816e-06 1.73169e-08 -2.10748e-05
0.000593983 -5.88745e-05 -1.31413e-06
-5.88745e-05 -3.19065e-05 -8.08362e-07
-1.31413e-06 -8.08362e-07 -0.000115042
0.000434631 -0.000115226 4.90898e-06
-0.000115226 -9.43896e-05 2.63893e-07
4.90898e-06 2.63893e-07 -0.000246894
0.00102936 -3.41919e-05 -1.12002e-06
-3.41919e-05 0.00022642 6.6193e-07
-1.12002e-06 6.6193e-07 0.000127755
0.00102626 -0.000102346 -8.16213e-07
-0.000102346 0.000246143 1.7572e-06
-8.16213e-07 1.7572e-06 0.000113498
0.00026639 -0.000136758 6.06427e-07
-0.000136758 -0.000225572 2.26017e-06
6.06427e-07 2.26017e-06 -0.000403132
0.000625087 -0.000152119 -5.11144e-06
-0.000152119 -2.25878e-05 -7.85964e-07
-5.11144e-06 -7.85964e-07 -0.000204364
0.000951657 -0.000136667 -1.37304e-06
-0.000136667 0.000228717 2.26301e-06
-1.37304e-06 2.26301e-06 8.4151e-05
0.000674106 -0.00014896 6.1633e-07
-0.00014896 3.21133e-05 3.64894e-07
6.1633e-07 3.64894e-07 -0.000144058
0.000860911 -3.17672e-05 4.56352e-07
-3.17672e-05 0.000148935 5.89911e-07
4.56352e-07 5.89911e-07 5.01333e-05
0.00100991 -5.96576e-05 -1.05418e-06
-5.96576e-05 0.000252054 -7.10787e-07
-1.05418e-06 -7.10787e-07 0.000132968
0.000566261 -6.73533e-05 5.77581e-07
-6.73533e-05 2.84223e-05 -5.79212e-06
5.77581e-07 -5.79212e-06 -0.000102231
0.000992211 1.58363e-05 -1.35464e-06
1.58363e-05 0.000223429 -8.37369e-07
-1.35464e-06 -8.37369e-07 0.000128078
0.000589547 1.37767e-05 1.83419e-07
1.37767e-05 -6.69879e-06 -2.65975e-08
1.83419e-07 -2.65975e-08 -9.4495e-05
0.000682428 2.40889e-05 -3.02832e-07
2.40889e-05 2.94761e-05 6.4385e-07
-3.02832e-07 6.4385e-07 -4.0231e-05
0.000813312 -2.60153e-05 -1.08749e-07
-2.60153e-05 0.000122288 2.26494e-07
-1.08749e-07 2.26494e-07 3.2046e-05
0.000724813 -1.08314e-05 -4.58246e-07
-1.08314e-05 5.36893e-05 -1.28355e-08
-4.58246e-07 -1.28355e-08 -1.57722e-05
0.000672248 3.37298e-05 -1.17099e-06
3.37298e-05 8.06066e-06 1.7088e-06
-1.17099e-06 1.7088e-06 -3.89775e-05
0.000761705 -4.47218e-05 1.01446e-06
-4.47218e-05 7.72068e-05 -6.43007e-07
1.01446e-06 -6.43007e-07 5.13348e-06
0.000685228 2.5434e-05 -4.73059e-07
2.5434e-05 1.12689e-05 -1.64274e-08
-4.73059e-07 -1.64274e-08 -3.42948e-05
0.00132965 4.43294e-05 -7.99228e-06
4.43294e-05 0.000376127 3.41374e-06
-7.99228e-06 3.41374e-06 0.00036578
0.00070053 -1.11435e-06 1.7497e-06
-1.11435e-06 1.75782e-05 -1.71321e-06
1.7497e-06 -1.71321e-06 -2.6784e-05
0.000986667 3.22389e-05 -4.14882e-06
3.22389e-05 0.000173589 6.36576e-07
-4.14882e-06 6.36576e-07 0.000162393
0.000819411 2.8876e-05 -1.40578e-06
2.8876e-05 8.26297e-05 1.88688e-06
-1.40578e-06 1.88688e-06 9.04587e-05
0.000606564 2.07118e-05 6.48658e-07
2.07118e-05 -4.93008e-05 -3.69463e-06
6.48658e-07 -3.69463e-06 -6.16282e-05
0.00155612 3.00585e-05 7.00452e-06
3.00585e-05 0.000502626 -1.34669e-06
7.00452e-06 -1.34669e-06 0.000515025
0.00230707 2.60542e-05 8.59132e-06
2.60542e-05 0.000933399 -4.78792e-06
8.59132e-06 -4.78792e-06 0.000950058
0.000504679 3.2452e-06 -6.65033e-08
3.2452e-06 -6.20189e-05 -2.02644e-06
-6.65033e-08 -2.02644e-06 -0.000145666
0.000420335 -4.46381e-06 -3.27709e-07
-4.46381e-06 -0.000139296 -2.98584e-06
-3.27709e-07 -2.98584e-06 -0.000183509
0.000803224 5.23529e-06 6.1586e-08
5.23529e-06 0.000104988 6.24502e-08
6.1586e-08 6.24502e-08 3.20127e-05
0.000644677 -1.14811e-05 -1.57999e-07
-1.14811e-05 -3.23834e-05 -3.73243e-06
-1.57999e-07 -3.73243e-06 -3.99995e-05
0.000540007 3.27985e-06 6.21956e-07
3.27985e-06 -7.02419e-05 -4.33223e-08
6.21956e-07 -4.33223e-08 -0.000110112
0.000500693 -6.18723e-05 -2.64146e-07
-6.18723e-05 -6.39717e-05 1.51941e-06
-2.64146e-07 1.51941e-06 -0.000135386
0.00210441 -1.1805e-05 -5.13768e-06
-1.1805e-05 0.000813362 -4.76668e-06
-5.13768e-06 -4.76668e-06 0.000833017
0.000649163 -4.85057e-06 -1.51517e-07
-4.85057e-06 -3.06231e-05 -1.62915e-08
-1.51517e-07 -1.62915e-08 -3.67836e-05
0.000663635 -3.98581e-06 -6.00391e-07
-3.98581e-06 8.93631e-07 1.99855e-06
-6.00391e-07 1.99855e-06 -3.55283e-05
0.00208445 7.12788e-07 -3.2929e-06
7.12788e-07 0.000801386 3.27607e-09
-3.2929e-06 3.27607e-09 0.000821405
0.000644493 1.4401e-06 7.65921e-08
1.4401e-06 -3.31639e-05 3.51668e-06
7.65921e-08 3.51668e-06 -3.8887e-05
0.00208729 1.31769e-05 -4.10425e-06
1.31769e-05 0.000804377 4.65123e-06
-4.10425e-06 4.65123e-06 0.00082403
0.000903299 -5.76821e-05 -6.81719e-05
-5.76821e-05 -7.75706e-05 3.02789e-05
-6.81719e-05 3.02789e-05 -0.00101349
0.00144043 0.000149174 -1.18889e-05
0.000149174 0.0022328 -9.03259e-06
-1.18889e-05 -9.03259e-06 0.00149559
0.00131125 -0.000252218 -0.00012894
-0.000252218 0.00144447 -8.64812e-06
-0.00012894 -8.64812e-06 0.000842309
0.000763004 5.50021e-05 -6.82507e-08
5.50021e-05 9.02069e-05 3.79642e-08
-6.82507e-08 3.79642e-08 -1.54768e-05
0.00306055 -0.000113209 -1.93783e-05
-0.000113209 0.00161835 7.33597e-05
-1.93783e-05 7.33597e-05 0.000740272
0.00291826 -0.000159867 -4.43173e-05
-0.000159867 0.000827714 3.80532e-06
-4.43173e-05 3.80532e-06 -0.000693374
0.00139409 0.000446644 0.000104546
0.000446644 0.00205883 -9.8777e-05
0.000104546 -9.8777e-05 0.00181087
0.00308821 -0.000146429 3.32748e-06
-0.000146429 3.02256e-05 -2.5575e-05
3.32748e-06 -2.5575e-05 -0.00024071
0.0096383 5.15644e-05 6.37684e-05
5.15644e-05 0.00309692 -3.43262e-05
6.37684e-05 -3.43262e-05 0.0013838
-0.00346992 0.000813139 -6.76713e-05
0.000813139 -0.00351182 8.00389e-05
-6.76713e-05 8.00389e-05 -0.00264175
0.00387383 0.000872258 1.33649e-05
0.000872258 -0.000400302 2.05205e-05
1.33649e-05 2.05205e-05 0.000428894
0.00467546 -0.000582543 -7.5265e-05
-0.000582543 0.000532352 5.50712e-07
-7.5265e-05 5.50712e-07 -0.000175587
0.00851186 -0.000221662 4.57943e-05
-0.000221662 0.00341669 -1.35689e-05
4.57943e-05 -1.35689e-05 0.00145116
0.00536034 0.000649261 3.23818e-05
0.000649261 0.000323758 -5.99211e-05
3.23818e-05 -5.99211e-05 0.00037811
0.00390909 0.000492655 -1.35178e-05
0.000492655 -0.00163669 4.8357e-06
-1.35178e-05 4.8357e-06 -0.000425044
0.0048452 -0.00100407 -3.9618e-06
-0.00100407 0.000792596 -8.46216e-06
-3.9618e-06 -8.46216e-06 -0.000248372
0.0100052 -0.000667158 5.89369e-05
-0.000667158 0.00496693 -2.72449e-05
5.89369e-05 -2.72449e-05 0.00172965
0.00186448 -8.79095e-05 4.78661e-05
-8.79095e-05 -0.000405072 -9.25655e-05
4.78661e-05 -9.25655e-05 -0.000574637
0.00545621 0.00010334 -1.53033e-05
0.00010334 -0.000713849 4.65778e-05
-1.53033e-05 4.65778e-05 0.000844086
0.000790097 -2.47936e-05 1.87021e-07
-2.47936e-05 0.000119521 -7.43215e-07
1.87021e-07 -7.43215e-07 -6.48989e-06
0.000785483 -3.74411e-05 4.21987e-07
-3.74411e-05 0.000126005 4.2025e-08
4.21987e-07 4.2025e-08 3.95804e-06
0.000903833 8.26362e-05 -9.39163e-07
8.26362e-05 0.000191596 1.22731e-07
-9.39163e-07 1.22731e-07 8.18527e-05
0.000738566 1.73773e-05 -6.79386e-07
1.73773e-05 6.47956e-05 -7.42154e-07
-6.79386e-07 -7.42154e-07 -4.04489e-05
0.000850244 7.20992e-05 -6.8282e-07
7.20992e-05 0.000151662 6.29832e-07
-6.8282e-07 6.29832e-07 3.26103e-05
0.000878874 5.42134e-05 5.1931e-07
5.42134e-05 0.000168484 1.96134e-06
5.1931e-07 1.96134e-06 6.14159e-05
0.000964118 9.48041e-05 -7.15114e-07
9.48041e-05 0.000218264 2.1553e-08
-7.15114e-07 2.1553e-08 0.000109653
0.000997246 0.000101916 9.08291e-07
0.000101916 0.000245021 2.24637e-06
9.08291e-07 2.24637e-06 0.000137231
0.00187587 -0.000215069 4.34973e-05
-0.000215069 0.000364127 -1.60092e-05
4.34973e-05 -1.60092e-05 0.000290135
0.000770602 -0.000267955 9.34944e-06
-0.000267955 -0.000242307 -1.33342e-05
9.34944e-06 -1.33342e-05 -0.000245185
0.000787214 -0.000138671 -1.14423e-06
-0.000138671 0.000137867 5.54511e-07
-1.14423e-06 5.54511e-07 3.81368e-06
0.00199549 -0.000177661 5.94378e-06
-0.000177661 0.000802365 -1.93817e-05
5.94378e-06 -1.93817e-05 0.000593343
0.00163403 -0.000108183 -1.97063e-06
-0.000108183 0.00064399 5.25031e-06
-1.97063e-06 5.25031e-06 0.000465768
0.000917194 -4.4608e-05 -1.7951e-06
-4.4608e-05 0.00020262 -5.03455e-07
-1.7951e-06 -5.03455e-07 7.12806e-05
0.000815499 1.14172e-05 8.35534e-08
1.14172e-05 0.000139196 -2.75654e-07
8.35534e-08 -2.75654e-07 9.30974e-06
0.000546773 -0.000345111 -9.62906e-06
-0.000345111 -0.00039731 2.53203e-07
-9.62906e-06 2.53203e-07 -0.000413073
0.000953488 2.90671e-05 -3.62659e-07
2.90671e-05 0.000265864 1.07994e-06
-3.62659e-07 1.07994e-06 9.08555e-05
0.000917899 -8.85231e-05 2.89152e-07
-8.85231e-05 0.000222668 1.18471e-06
2.89152e-07 1.18471e-06 6.01514e-05
0.000342762 -0.000117887 1.26771e-07
-0.000117887 -8.24312e-05 3.87988e-06
1.26771e-07 3.87988e-06 -0.000133215
0.000622606 2.0786e-05 9.66239e-07
2.0786e-05 7.29554e-06 -2.51011e-07
9.66239e-07 -2.51011e-07 -0.000104444
0.0010204 -0.00029089 3.08791e-05
-0.00029089 -8.1961e-05 -2.90867e-05
3.08791e-05 -2.90867e-05 4.5514e-05
0.000494945 -8.70578e-05 -9.04181e-06
-8.70578e-05 0.000233285 2.84927e-05
-9.04181e-06 2.84927e-05 0.00012902
0.000921457 -9.48747e-06 -9.03815e-07
-9.48747e-06 0.000245837 1.10098e-05
-9.03815e-07 1.10098e-05 8.71468e-05
0.00121459 0.000151406 1.87005e-06
0.000151406 0.000388414 -2.05023e-06
1.87005e-06 -2.05023e-06 0.000235309
0.00126088 -2.88517e-05 -1.08935e-05
-2.88517e-05 0.000426479 -3.41195e-06
-1.08935e-05 -3.41195e-06 9.42113e-05
0.00132792 -4.09359e-05 5.16267e-05
-4.09359e-05 0.000431228 -4.8059e-06
5.16267e-05 -4.8059e-06 -0.000435881
-0.00340653 -4.60922e-05 -5.57303e-05
-4.60922e-05 0.000620445 3.40387e-06
-5.57303e-05 3.40387e-06 -0.000855812
0.000975932 0.00014317 1.58292e-05
0.00014317 0.000380729 2.27081e-06
1.58292e-05 2.27081e-06 0.000277864
-0.000451376 0.00018703 1.57913e-05
0.00018703 -0.000286511 1.08806e-05
1.57913e-05 1.08806e-05 -0.000497235
0.00251856 -1.13358e-05 7.08202e-05
-1.13358e-05 0.00104864 9.05728e-06
7.08202e-05 9.05728e-06 0.000240324
0.00820404 0.000161032 0.000104766
0.000161032 0.00366487 5.54354e-05
0.000104766 5.54354e-05 0.000891469
0.00247945 0.000505907 -8.61982e-05
0.000505907 0.000789229 -8.34539e-05
-8.61982e-05 -8.34539e-05 -0.000163338
0.00305545 -0.00032684 7.77268e-06
-0.00032684 0.000489128 -8.60875e-05
7.77268e-06 -8.60875e-05 -0.000447364
0.00141139 9.92205e-05 2.45661e-05
9.92205e-05 0.000262937 9.96869e-05
2.45661e-05 9.96869e-05 -0.000995486
0.00343046 -1.00247e-05 2.39766e-06
-1.00247e-05 -0.00317257 -6.47796e-05
2.39766e-06 -6.47796e-05 -0.000807939
0.000650868 0.000112625 1.89277e-06
0.000112625 0.00031005 -1.09602e-06
1.89277e-06 -1.09602e-06 0.000198022
0.00103318 -4.134e-05 -1.09097e-07
-4.134e-05 0.000210304 -9.86833e-06
-1.09097e-07 -9.86833e-06 -9.52328e-05
0.00239474 1.22126e-05 2.52894e-05
1.22126e-05 0.000554744 6.27246e-06
2.52894e-05 6.27246e-06 -0.000248022
-0.000924084 9.016e-05 -1.41417e-05
9.016e-05 -0.000386756 -5.27844e-06
-1.41417e-05 -5.27844e-06 -0.000700883
0.00415637 0.000563919 1.16005e-05
0.000563919 -0.00160789 -5.12499e-06
1.16005e-05 -5.12499e-06 -0.00040721
0.0055339 0.000753929 7.14843e-05
0.000753929 0.00251156 3.0161e-05
7.14843e-05 3.0161e-05 -0.000390186
0.00316967 0.000179555 -4.4456e-05
0.000179555 0.00195523 4.36956e-06
-4.4456e-05 4.36956e-06 0.00123061
-6.28653e-05 0.000129704 -2.65446e-05
0.000129704 -7.38861e-06 -1.23549e-05
-2.65446e-05 -1.23549e-05 -0.000185306
0.0016394 1.92147e-05 5.38246e-07
1.92147e-05 0.000165213 -2.7728e-05
5.38246e-07 -2.7728e-05 -3.9427e-05
0.00313971 -8.58562e-05 2.37416e-05
-8.58562e-05 0.00156061 -7.27884e-05
2.37416e-05 -7.27884e-05 0.000728843
0.00492718 0.000895376 9.86837e-05
0.000895376 -0.000127197 -7.60377e-05
9.86837e-05 -7.60377e-05 0.000809492
0.00444549 1.08764e-05 -5.97127e-05
1.08764e-05 0.000439393 8.38941e-05
-5.97127e-05 8.38941e-05 0.000513539
0.00157231 0.000217671 -5.42387e-06
0.000217671 0.000150777 -3.52078e-05
-5.42387e-06 -3.52078e-05 0.000180164
-1.33743e-05 0.00047499 9.33449e-05
0.00047499 0.00175142 3.58374e-05
9.33449e-05 3.58374e-05 -0.002558
0.00052411 0.000103986 2.92346e-06
0.000103986 3.64112e-05 6.0756e-06
2.92346e-06 6.0756e-06 -3.3587e-05
0.000626855 7.79797e-05 8.88076e-06
7.79797e-05 0.00026564 1.39721e-06
8.88076e-06 1.39721e-06 0.00018877
0.00161068 1.79156e-05 -1.51762e-05
1.79156e-05 0.000954407 -1.83825e-05
-1.51762e-05 -1.83825e-05 0.000869496
0.000559675 -7.63243e-06 7.52223e-07
-7.63243e-06 -4.69298e-05 3.35354e-06
7.52223e-07 3.35354e-06 -0.000136035
0.000795037 -3.52255e-05 1.45492e-06
-3.52255e-05 0.000168315 4.01718e-06
1.45492e-06 4.01718e-06 7.53127e-05
-0.000119105 -2.10184e-06 -2.69863e-06
-2.10184e-06 -0.000256896 9.74875e-06
-2.69863e-06 9.74875e-06 -0.00034435
0.00073885 -3.92351e-05 2.80756e-07
-3.92351e-05 0.000113917 -3.19888e-07
2.80756e-07 -3.19888e-07 3.39936e-05
0.000295536 -3.36813e-06 -3.39322e-06
-3.36813e-06 8.33431e-06 2.60909e-06
-3.39322e-06 2.60909e-06 -5.9679e-05
0.00101347 -0.00015403 6.01228e-06
-0.00015403 0.000457151 -6.35785e-06
6.01228e-06 -6.35785e-06 0.000300914
0.00106069 -1.83257e-05 -1.89126e-06
-1.83257e-05 0.000251755 3.9307e-06
-1.89126e-06 3.9307e-06 0.000179541
0.000630978 4.10021e-05 -1.25233e-06
4.10021e-05 1.62142e-06 1.79402e-06
-1.25233e-06 1.79402e-06 -8.45833e-05
0.00124476 -9.04534e-05 1.03424e-06
-9.04534e-05 0.000364436 1.37402e-06
1.03424e-06 1.37402e-06 0.000270776
8.72966e-05 -9.65325e-05 4.1954e-06
-9.65325e-05 -0.000179365 1.72683e-06
4.1954e-06 1.72683e-06 -0.000377562
0.000505698 -3.40732e-05 -4.46074e-06
-3.40732e-05 -5.77321e-05 1.22798e-06
-4.46074e-06 1.22798e-06 -0.00013194
0.000222387 -0.000102626 1.56799e-06
-0.000102626 -0.000212087 -8.51268e-07
1.56799e-06 -8.51268e-07 -0.000353119
0.00104719 -0.00020824 6.49889e-06
-0.00020824 0.000216363 -1.77944e-06
6.49889e-06 -1.77944e-06 4.73418e-06
0.00120077 -0.000234752 -1.08315e-06
-0.000234752 0.000176255 5.00856e-06
-1.08315e-06 5.00856e-06 -4.07739e-05
0.00158327 -0.000150312 -2.23188e-06
-0.000150312 0.000550041 -6.25545e-08
-2.23188e-06 -6.25545e-08 0.000410171
0.000613357 -0.000165534 -2.54184e-07
-0.000165534 -3.81456e-05 -1.67224e-07
-2.54184e-07 -1.67224e-07 -0.000223834
0.0017915 -0.000255438 1.88914e-06
-0.000255438 0.000600736 -1.81865e-06
1.88914e-06 -1.81865e-06 0.000420324
0.000230187 -9.57551e-05 -2.09288e-06
-9.57551e-05 -0.000185814 -6.50545e-07
-2.09288e-06 -6.50545e-07 -0.000347234
0.000889206 -0.000171791 -2.98637e-07
-0.000171791 0.000127903 1.01869e-06
-2.98637e-07 1.01869e-06 -5.1962e-05
0.00074444 -2.80326e-05 9.62119e-08
-2.80326e-05 9.46295e-05 4.49931e-07
9.62119e-08 4.49931e-07 -1.77527e-05
0.00103224 -0.000146004 -2.90134e-06
-0.000146004 0.000273775 2.11696e-06
-2.90134e-06 2.11696e-06 0.000127079
0.000375625 -0.000121724 -1.69953e-06
-0.000121724 -0.000132441 -9.70121e-07
-1.69953e-06 -9.70121e-07 -0.000302639
0.000676384 3.8377e-05 2.93048e-07
3.8377e-05 3.457e-05 9.08642e-07
2.93048e-07 9.08642e-07 -4.5053e-05
0.000714284 -1.71023e-05 7.82512e-07
-1.71023e-05 7.05105e-05 -9.9705e-08
7.82512e-07 -9.9705e-08 -3.03015e-05
0.000852335 -5.51741e-05 2.04199e-06
-5.51741e-05 0.000170352 -2.73216e-06
2.04199e-06 -2.73216e-06 4.69653e-05
0.00074839 3.08577e-06 2.29585e-07
3.08577e-06 8.42604e-05 -5.09984e-07
2.29585e-07 -5.09984e-07 -4.15732e-06
0.000733311 3.21353e-06 -5.36418e-07
3.21353e-06 6.13037e-05 -1.23459e-07
-5.36418e-07 -1.23459e-07 -1.1391e-05
0.000666899 3.69945e-05 -1.45986e-06
3.69945e-05 9.33065e-06 1.70383e-06
-1.45986e-06 1.70383e-06 -3.96724e-05
0.0007688 -2.93701e-05 7.93045e-07
-2.93701e-05 8.19913e-05 -7.0703e-07
7.93045e-07 -7.0703e-07 9.6037e-06
0.000683684 2.9477e-05 -2.8277e-07
2.9477e-05 1.33636e-05 -2.3287e-08
-2.8277e-07 -2.3287e-08 -3.31668e-05
0.000618137 4.23364e-05 -1.06149e-06
4.23364e-05 -2.80413e-05 3.76788e-06
-1.06149e-06 3.76788e-06 -4.36231e-05
0.000711387 9.1048e-06 1.75401e-06
9.1048e-06 2.4104e-05 -1.70997e-06
1.75401e-06 -1.70997e-06 -2.04275e-05
0.000622693 3.54382e-05 1.26273e-07
3.54382e-05 -3.20266e-05 2.89131e-08
1.26273e-07 2.89131e-08 -4.59218e-05
0.00218219 6.26945e-05 -4.51161e-06
6.26945e-05 0.000875932 1.76028e-06
-4.51161e-06 1.76028e-06 0.000888612
0.000605358 2.81852e-05 7.93743e-07
2.81852e-05 -4.67496e-05 -3.73257e-06
7.93743e-07 -3.73257e-06 -5.96605e-05
0.00154345 3.94377e-05 8.49752e-06
3.94377e-05 0.000500481 -1.19298e-06
8.49752e-06 -1.19298e-06 0.000511774
0.00229769 3.78362e-05 1.27311e-05
3.78362e-05 0.000932065 -4.55334e-06
1.27311e-05 -4.55334e-06 0.000947782
0.000513719 -8.48185e-06 -2.14586e-07
-8.48185e-06 -6.66411e-05 -1.74217e-06
-2.14586e-07 -1.74217e-06 -0.000147698
0.000396517 -6.83932e-06 -3.02644e-07
-6.83932e-06 -0.000153612 -2.99364e-06
-3.02644e-07 -2.99364e-06 -0.000202274
0.000669723 1.04784e-05 -4.18371e-07
1.04784e-05 3.11302e-05 -7.41076e-07
-4.18371e-07 -7.41076e-07 -5.08548e-05
0.000639935 -1.80833e-05 -1.93474e-07
-1.80833e-05 -3.31309e-05 -3.88383e-06
-1.93474e-07 -3.88383e-06 -4.30343e-05
0.000394936 -5.25165e-06 -2.1583e-07
-5.25165e-06 -0.000153629 -9.10077e-07
-2.1583e-07 -9.10077e-07 -0.000198445
0.000823574 1.58905e-05 -1.01872e-07
1.58905e-05 0.000123311 1.56449e-06
-1.01872e-07 1.56449e-06 4.58955e-05
0.00215714 -2.34698e-05 -9.3266e-06
-2.34698e-05 0.000845615 -4.74364e-06
-9.3266e-06 -4.74364e-06 0.00086419
0.000644703 -1.13435e-05 -1.36517e-07
-1.13435e-05 -3.2274e-05 -3.52465e-08
-1.36517e-07 -3.52465e-08 -3.98307e-05
0.000377667 -4.24865e-06 3.75047e-07
-4.24865e-06 -0.000162653 2.07e-06
3.75047e-07 2.07e-06 -0.00020392
0.00209801 -1.06762e-05 -3.26448e-06
-1.06762e-05 0.000809443 3.54775e-08
-3.26448e-06 3.54775e-08 0.000829227
0.000649873 -4.71314e-06 1.73078e-07
-4.71314e-06 -3.01875e-05 3.56752e-06
1.73078e-07 3.56752e-06 -3.63134e-05
0.00209156 1.82587e-06 3.38103e-07
1.82587e-06 0.00080551 4.74093e-06
3.38103e-07 4.74093e-06 0.000825474
0.0014473 1.16842e-05 -3.48526e-06
1.16842e-05 0.000575702 2.37162e-05
-3.48526e-06 2.37162e-05 0.000260228
0.00153522 -4.56316e-05 1.02069e-05
-4.56316e-05 0.000336062 -3.88824e-06
1.02069e-05 -3.88824e-06 -0.000586465
0.00182987 9.73223e-05 3.23744e-05
9.73223e-05 0.00244518 -3.02652e-05
3.23744e-05 -3.02652e-05 0.00181832
0.000822785 6.00228e-05 -9.32254e-08
6.00228e-05 0.000118932 2.58233e-07
-9.32254e-08 2.58233e-07 1.84704e-05
0.00069174 3.03928e-05 -3.4803e-08
3.03928e-05 3.09418e-05 2.75282e-07
-3.4803e-08 2.75282e-07 -6.11616e-05
0.000903189 8.37754e-05 -2.69146e-07
8.37754e-05 0.000160638 7.41863e-07
-2.69146e-07 7.41863e-07 5.48728e-05
0.00195559 -3.16519e-05 1.09635e-05
-3.16519e-05 0.00015801 0.000114857
1.09635e-05 0.000114857 -0.000789827
0.00286839 -9.30114e-05 -5.81375e-06
-9.30114e-05 0.00149959 7.3057e-07
-5.81375e-06 7.3057e-07 0.000585416
0.00330503 -0.000183007 4.52574e-05
-0.000183007 0.00113675 -8.70122e-05
4.52574e-05 -8.70122e-05 -0.000473238
0.00474368 -0.000610469 -4.33311e-05
-0.000610469 0.000851382 -8.52054e-07
-4.33311e-05 -8.52054e-07 8.82141e-05
0.00193426 -0.000383685 -8.38078e-05
-0.000383685 0.000304632 6.18504e-05
-8.38078e-05 6.18504e-05 -0.00203242
0.00731156 0.000859648 5.91903e-05
0.000859648 0.0022017 2.63167e-05
5.91903e-05 2.63167e-05 0.00201658
0.00154384 0.000204072 1.89398e-05
0.000204072 -0.00304131 -5.02592e-05
1.89398e-05 -5.02592e-05 -0.00180015
0.00535476 -0.000988876 -1.23737e-05
-0.000988876 0.00143646 4.56309e-06
-1.23737e-05 4.56309e-06 0.000669297
0.00630866 -0.000574399 6.107e-06
-0.000574399 0.00281595 6.20413e-06
6.107e-06 6.20413e-06 8.98462e-05
-0.00199871 0.00035236 -1.16473e-05
0.00035236 -0.000622691 -5.93052e-05
-1.16473e-05 -5.93052e-05 -0.00161744
0.00429286 -4.7464e-05 -1.22859e-05
-4.7464e-05 -0.0019744 2.55633e-05
-1.22859e-05 2.55633e-05 -4.2984e-05
0.00287128 -0.000728261 -3.25899e-05
-0.000728261 0.000353506 -1.73984e-05
-3.25899e-05 -1.73984e-05 -0.000313396
0.0106845 -0.000852341 1.08134e-05
-0.000852341 0.00499458 3.08551e-05
1.08134e-05 3.08551e-05 0.00170555
-0.00832973 -7.42887e-05 5.65859e-05
-7.42887e-05 -0.000998964 -0.000118599
5.65859e-05 -0.000118599 -0.00247328
0.0026939 -0.000473425 9.11369e-07
-0.000473425 -0.00197848 -1.82915e-05
9.11369e-07 -1.82915e-05 -0.000636075
0.000799258 3.57757e-05 -5.88008e-07
3.57757e-05 0.00010304 -1.68552e-07
-5.88008e-07 -1.68552e-07 -1.31717e-05
0.000767269 1.37567e-06 9.41422e-08
1.37567e-06 0.000105801 -5.34057e-07
9.41422e-08 -5.34057e-07 -2.01234e-05
0.00076429 -5.42658e-05 3.80221e-07
-5.42658e-05 0.000114298 -4.08243e-08
3.80221e-07 -4.08243e-08 -1.00891e-05
0.000782029 4.07371e-05 -4.72305e-07
4.07371e-05 9.20762e-05 -4.62783e-07
-4.72305e-07 -4.62783e-07 -1.55969e-05
0.000940932 0.000111982 1.28007e-06
0.000111982 0.000202977 1.22452e-06
1.28007e-06 1.22452e-06 8.58012e-05
0.0010483 0.000106182 -5.66981e-07
0.000106182 0.000267751 9.67724e-07
-5.66981e-07 9.67724e-07 0.000157508
0.00109775 -0.000378793 1.18551e-05
-0.000378793 -0.000121623 5.08356e-06
1.18551e-05 5.08356e-06 -0.000181502
-0.000583183 -6.95164e-05 1.20656e-05
-6.95164e-05 -0.000596239 -1.98402e-05
1.20656e-05 -1.98402e-05 -0.000605818
0.000956848 5.79491e-05 -7.12826e-07
5.79491e-05 0.000226252 -1.54079e-07
-7.12826e-07 -1.54079e-07 9.1523e-05
0.00112473 -0.000125943 1.44305e-05
-0.000125943 0.000306275 -2.782e-05
1.44305e-05 -2.782e-05 0.000142939
0.00122367 1.35246e-05 -1.70104e-06
1.35246e-05 0.000411605 -3.26514e-09
-1.70104e-06 -3.26514e-09 0.000235604
0.000732165 1.59829e-05 2.39415e-07
1.59829e-05 6.98913e-05 1.52517e-08
2.39415e-07 1.52517e-08 -4.74317e-05
0.000740014 8.18191e-05 1.77143e-07
8.18191e-05 0.000112866 -4.84102e-08
1.77143e-07 -4.84102e-08 -2.85462e-05
0.000286789 -0.000292489 -2.99053e-06
-0.000292489 -0.000458016 -2.89856e-06
-2.99053e-06 -2.89856e-06 -0.000446977
0.000963444 -2.76763e-05 3.58682e-06
-2.76763e-05 0.000271139 -2.53596e-06
3.58682e-06 -2.53596e-06 0.000116494
0.000463957 -4.45198e-05 2.07917e-05
-4.45198e-05 0.000227028 -3.40157e-07
2.07917e-05 -3.40157e-07 0.0001252
0.00123356 5.94917e-05 1.4815e-06
5.94917e-05 0.000358354 -1.0221e-06
1.4815e-06 -1.0221e-06 0.000244253
-0.00238924 0.000111421 -4.07903e-05
0.000111421 -0.00110666 -1.90303e-05
-4.07903e-05 -1.90303e-05 -0.00145405
0.000472397 1.05183e-05 8.96603e-06
1.05183e-05 0.000179512 2.95958e-05
8.96603e-06 2.95958e-05 0.000107143
0.0012152 1.38982e-05 1.80375e-06
1.38982e-05 0.000428688 -5.90779e-07
1.80375e-06 -5.90779e-07 0.000296382
0.00144438 -2.24132e-05 3.15098e-06
-2.24132e-05 0.000103906 6.61566e-07
3.15098e-06 6.61566e-07 -0.000146165
0.00110418 -2.32682e-05 -1.25677e-05
-2.32682e-05 0.000314341 -3.86572e-06
-1.25677e-05 -3.86572e-06 2.52558e-05
0.00118205 -3.36692e-05 0.000131057
-3.36692e-05 0.000396479 -1.67221e-06
0.000131057 -1.67221e-06 -0.000473496
0.000890153 0.000163294 1.97774e-05
0.000163294 0.000437234 1.26198e-05
1.97774e-05 1.26198e-05 0.000314797
0.00236002 0.000381552 1.47494e-05
0.000381552 0.000880931 -1.44673e-05
1.47494e-05 -1.44673e-05 0.000686327
0.00117053 -4.21544e-05 -1.38447e-06
-4.21544e-05 0.000256328 9.46528e-06
-1.38447e-06 9.46528e-06 4.06901e-06
-0.00103324 0.000394812 1.09211e-05
0.000394812 -1.19596e-05 2.39187e-05
1.09211e-05 2.39187e-05 -0.00295106
-0.0101029 9.9415e-05 -5.04004e-05
9.9415e-05 -0.00373249 -0.000116316
-5.04004e-05 -0.000116316 -0.00519588
0.00258106 2.49348e-05 2.71929e-05
2.49348e-05 0.000852326 5.75789e-05
2.71929e-05 5.75789e-05 0.000199329
0.00177978 0.000323907 -2.29103e-05
0.000323907 -0.00297233 5.0662e-05
-2.29103e-05 5.0662e-05 -0.00175027
0.000407912 0.000122663 4.49564e-06
0.000122663 0.000271051 -8.73062e-07
4.49564e-06 -8.73062e-07 0.000113014
0.00151697 -2.15578e-06 6.80294e-06
-2.15578e-06 7.94795e-05 -1.40387e-05
6.80294e-06 -1.40387e-05 -4.70468e-05
0.00296109 -6.81862e-05 4.45831e-06
-6.81862e-05 0.00146154 -1.06368e-06
4.45831e-06 -1.06368e-06 0.000578056
0.00138665 0.000206332 1.0227e-05
0.000206332 0.000103636 -3.88886e-06
1.0227e-05 -3.88886e-06 -0.00021684
0.00218902 0.000822027 3.86349e-05
0.000822027 -0.00164969 -8.69168e-05
3.86349e-05 -8.69168e-05 -0.00064512
-0.00185784 0.000344718 9.95126e-06
0.000344718 -0.00131433 5.71178e-05
9.95126e-06 5.71178e-05 -0.00180362
0.00676479 2.49007e-05 5.93221e-05
2.49007e-05 0.00445632 -1.97397e-05
5.93221e-05 -1.97397e-05 0.000281336
0.00149872 -6.0926e-06 1.97136e-05
-6.0926e-06 0.00110434 -1.24516e-05
1.97136e-05 -1.24516e-05 0.000820915
0.00141196 2.84707e-05 5.95732e-06
2.84707e-05 0.000516868 -2.02793e-05
5.95732e-06 -2.02793e-05 0.000204447
0.00283726 -0.000104705 0.000132911
-0.000104705 0.000582947 -0.000112757
0.000132911 -0.000112757 -0.000768073
0.0031361 0.00112662 -8.36015e-06
0.00112662 0.00180422 -1.17777e-05
-8.36015e-06 -1.17777e-05 0.00283143
-0.00558567 0.00043697 4.06946e-05
0.00043697 -0.00473492 0.00016833
4.06946e-05 0.00016833 -0.00449562
0.0115622 -0.00065999 6.88095e-05
-0.00065999 0.00485593 -7.73461e-05
6.88095e-05 -7.73461e-05 0.00174053
0.00450941 -0.000369435 -8.9882e-05
-0.000369435 0.00134644 0.000109117
-8.9882e-05 0.000109117 0.00129588
0.00116273 8.5751e-05 5.05443e-06
8.5751e-05 0.000565513 6.19819e-06
5.05443e-06 6.19819e-06 0.00048022
3.97648e-05 -8.8438e-06 -2.5375e-06
-8.8438e-06 8.33321e-05 5.0631e-07
-2.5375e-06 5.0631e-07 -2.73183e-05
0.000440429 -0.000190775 8.18702e-06
-0.000190775 0.000346677 -1.38049e-05
8.18702e-06 -1.38049e-05 0.000111256
0.00076119 -4.86658e-05 1.38018e-06
-4.86658e-05 0.000123948 2.22063e-06
1.38018e-06 2.22063e-06 4.36342e-05
-0.000744489 -8.89302e-06 3.68075e-06
-8.89302e-06 -0.000569806 1.45132e-05
3.68075e-06 1.45132e-05 -0.000643421
0.000194785 -0.000112861 -1.63158e-06
-0.000112861 1.13611e-05 9.12387e-08
-1.63158e-06 9.12387e-08 -0.000132419
0.00111667 -0.000206405 2.21757e-05
-0.000206405 0.000472046 -1.39977e-05
2.21757e-05 -1.39977e-05 0.000212726
0.00185154 -0.000129242 -3.40689e-06
-0.000129242 0.000696787 2.93187e-06
-3.40689e-06 2.93187e-06 0.000594773
0.0014734 -0.000224535 1.54293e-06
-0.000224535 0.000536455 2.93992e-07
1.54293e-06 2.93992e-07 0.000330366
0.0010529 -0.00022842 8.59309e-06
-0.00022842 0.000315754 2.26696e-06
8.59309e-06 2.26696e-06 -1.60414e-05
2.81625e-05 -8.47868e-05 -1.98855e-06
-8.47868e-05 -0.000321012 -1.08312e-06
-1.98855e-06 -1.08312e-06 -0.000448734
0.00108002 -0.000208711 -4.00224e-07
-0.000208711 0.000219493 1.27406e-06
-4.00224e-07 1.27406e-06 1.0537e-06
0.00252504 -0.000366437 2.8623e-06
-0.000366437 0.000904111 1.99578e-06
2.8623e-06 1.99578e-06 0.000624668
0.00180729 -0.000314191 -2.83455e-06
-0.000314191 0.000379966 2.30042e-06
-2.83455e-06 2.30042e-06 0.000129163
0.00052225 -0.000172229 1.24437e-06
-0.000172229 -0.000177287 6.71425e-06
1.24437e-06 6.71425e-06 -0.000367156
0.00131402 -0.000244457 -2.67982e-06
-0.000244457 0.000241639 1.93521e-06
-2.67982e-06 1.93521e-06 2.05231e-05
0.000910485 -0.000190486 -4.5408e-06
-0.000190486 0.000120553 1.46769e-06
-4.5408e-06 1.46769e-06 -7.272e-05
0.00160507 -0.00023134 4.44341e-06
-0.00023134 0.00052683 -3.24966e-06
4.44341e-06 -3.24966e-06 0.000352657
0.00123996 -0.000208363 2.67105e-06
-0.000208363 0.000296431 -2.16689e-06
2.67105e-06 -2.16689e-06 0.000130138
0.000344172 -4.40474e-05 1.80955e-06
-4.40474e-05 -0.000124845 8.00843e-07
1.80955e-06 8.00843e-07 -0.000264896
0.000704024 -0.000134816 1.27975e-06
-0.000134816 8.30776e-05 -4.30948e-07
1.27975e-06 -4.30948e-07 -8.18343e-05
0.00114181 -0.000190341 5.34981e-06
-0.000190341 0.000271305 -3.14709e-06
5.34981e-06 -3.14709e-06 9.40316e-05
0.000678671 4.73256e-05 1.0928e-06
4.73256e-05 4.58572e-05 1.35857e-06
1.0928e-06 1.35857e-06 -4.89164e-05
0.00088583 -5.63896e-05 -3.64994e-07
-5.63896e-05 0.00017795 -6.70489e-08
-3.64994e-07 -6.70489e-08 6.01007e-05
0.00104166 -0.000148793 -6.84651e-07
-0.000148793 0.000277837 -2.5571e-07
-6.84651e-07 -2.5571e-07 0.000130225
0.00065012 4.15116e-05 -1.13655e-06
4.15116e-05 6.39848e-06 1.78543e-06
-1.13655e-06 1.78543e-06 -4.70753e-05
0.000740126 1.05373e-05 -6.96956e-07
1.05373e-05 6.89719e-05 -2.89427e-07
-6.96956e-07 -2.89427e-07 -1.09439e-05
0.00057493 -6.05076e-06 7.60722e-08
-6.05076e-06 -4.33783e-06 -7.18719e-07
7.60722e-08 -7.18719e-07 -0.000106934
0.000778366 -1.82847e-05 7.39623e-07
-1.82847e-05 8.77359e-05 -9.92236e-07
7.39623e-07 -9.92236e-07 1.34962e-05
0.000684866 2.81466e-05 -2.71054e-07
2.81466e-05 1.82075e-05 -6.01904e-08
-2.71054e-07 -6.01904e-08 -3.02038e-05
0.000601218 4.95636e-05 -1.04752e-06
4.95636e-05 -2.91536e-05 3.90113e-06
-1.04752e-06 3.90113e-06 -4.73487e-05
0.000699592 1.86273e-05 1.78613e-06
1.86273e-05 2.0736e-05 -1.71167e-06
1.78613e-06 -1.71167e-06 -2.49752e-05
0.000617888 4.33344e-05 3.64611e-08
4.33344e-05 -2.80615e-05 4.76139e-09
3.64611e-08 4.76139e-09 -4.37397e-05
0.00222222 6.83805e-05 -2.3299e-05
6.83805e-05 0.000906126 3.74643e-06
-2.3299e-05 3.74643e-06 0.000917605
0.000612191 3.61106e-05 8.66364e-07
3.61106e-05 -3.81368e-05 -3.74286e-06
8.66364e-07 -3.74286e-06 -5.20409e-05
0.00152592 4.90362e-05 1.0017e-05
4.90362e-05 0.000497206 -1.04055e-06
1.0017e-05 -1.04055e-06 0.000506968
0.00228193 4.92795e-05 1.65536e-05
4.92795e-05 0.000928306 -4.25132e-06
1.65536e-05 -4.25132e-06 0.000942796
0.000730445 4.5894e-05 -6.20381e-07
4.5894e-05 5.59288e-05 -7.75319e-07
-6.20381e-07 -7.75319e-07 -2.65289e-05
0.000679208 4.5953e-06 -7.56038e-07
4.5953e-06 6.25637e-06 -2.23913e-06
-7.56038e-07 -2.23913e-06 -4.34589e-05
0.000620407 2.9129e-05 -9.39752e-07
2.9129e-05 1.23819e-06 -6.98618e-07
-9.39752e-07 -6.98618e-07 -8.42635e-05
0.000628968 -2.50419e-05 -4.14269e-08
-2.50419e-05 -3.61445e-05 -4.09086e-06
-4.14269e-08 -4.09086e-06 -4.89105e-05
0.000527164 1.25566e-06 -8.45941e-07
1.25566e-06 -7.91734e-05 -9.00659e-07
-8.45941e-07 -9.00659e-07 -0.000126726
0.000835731 2.44192e-05 3.20502e-07
2.44192e-05 0.000126153 5.72721e-07
3.20502e-07 5.72721e-07 4.4908e-05
0.00223037 -3.53578e-05 -1.37597e-05
-3.53578e-05 0.000890931 -4.65975e-06
-1.37597e-05 -4.65975e-06 0.000907888
0.000638056 -1.77764e-05 -2.2262e-07
-1.77764e-05 -3.41865e-05 -3.05115e-08
-2.2262e-07 -3.05115e-08 -4.39887e-05
0.000362988 -5.57132e-06 -3.07606e-07
-5.57132e-06 -0.000171735 1.33339e-06
-3.07606e-07 1.33339e-06 -0.000217089
0.00214845 -2.236e-05 -3.21114e-06
-2.236e-05 0.000840198 7.20915e-08
-3.21114e-06 7.20915e-08 0.000859003
0.000645181 -1.12314e-05 1.93355e-07
-1.12314e-05 -3.18867e-05 3.66436e-06
1.93355e-07 3.66436e-06 -3.93953e-05
0.00209959 -9.54253e-06 4.88544e-06
-9.54253e-06 0.00081015 4.74988e-06
4.88544e-06 4.74988e-06 0.000829992
0.00156276 -1.71647e-05 3.15066e-06
-1.71647e-05 0.00013793 2.97006e-05
3.15066e-06 2.97006e-05 -7.81099e-05
0.00131373 7.26444e-06 -5.53166e-06
7.26444e-06 0.000438402 -6.5654e-07
-5.53166e-06 -6.5654e-07 0.000119702
0.00167601 -3.91789e-05 8.97607e-05
-3.91789e-05 0.00049291 -2.88256e-05
8.97607e-05 -2.88256e-05 -0.000454239
0.000659289 -8.88634e-06 -1.84821e-07
-8.88634e-06 5.48306e-06 -3.36064e-07
-1.84821e-07 -3.36064e-07 -7.95675e-05
0.000878821 1.68554e-05 -1.03403e-06
1.68554e-05 0.000139093 -4.91653e-07
-1.03403e-06 -4.91653e-07 4.48361e-05
0.000832408 5.8177e-05 1.35387e-06
5.8177e-05 0.000122236 5.35256e-07
1.35387e-06 5.35256e-07 2.55378e-05
0.00069575 1.51456e-05 1.82001e-07
1.51456e-05 2.79854e-05 1.49757e-07
1.82001e-07 1.49757e-07 -5.99716e-05
0.000797501 3.90544e-05 2.30465e-08
3.90544e-05 9.9268e-05 2.04192e-07
2.30465e-08 2.04192e-07 -4.52732e-06
0.000799328 2.22859e-05 -1.04122e-06
2.22859e-05 9.42368e-05 2.88618e-07
-1.04122e-06 2.88618e-07 -9.22832e-07
0.000947289 0.000152612 7.07053e-07
0.000152612 0.000198846 4.15151e-07
7.07053e-07 4.15151e-07 7.71176e-05
0.000641337 2.6223e-05 2.8855e-05
2.6223e-05 0.000208796 0.000113456
2.8855e-05 0.000113456 -0.0009333
0.00228365 -1.87947e-05 -4.46312e-06
-1.87947e-05 0.000572736 3.88103e-05
-4.46312e-06 3.88103e-05 -0.000219543
0.00265708 -6.9671e-05 4.13507e-06
-6.9671e-05 0.00139044 -6.12563e-05
4.13507e-06 -6.12563e-05 0.000417239
0.00311531 -0.000112194 -2.00279e-05
-0.000112194 -0.00329684 2.92211e-05
-2.00279e-05 2.92211e-05 -0.000976878
0.003808 -0.000853305 -4.32687e-05
-0.000853305 0.00117756 5.4928e-05
-4.32687e-05 5.4928e-05 0.000225616
-0.0015769 -0.000801539 2.54429e-05
-0.000801539 -0.000705864 4.05194e-05
2.54429e-05 4.05194e-05 -0.00376377
0.00609897 0.000969535 4.40286e-05
0.000969535 0.00356693 -2.23617e-05
4.40286e-05 -2.23617e-05 0.00207639
0.00419219 -0.000843168 -1.76135e-05
-0.000843168 0.000987277 4.57773e-06
-1.76135e-05 4.57773e-06 0.000196568
0.000590942 -0.000396059 4.13459e-05
-0.000396059 0.000846639 1.4303e-06
4.13459e-05 1.4303e-06 -0.00246212
0.0040754 -8.53941e-05 -2.1285e-05
-8.53941e-05 0.00216388 -3.04756e-06
-2.1285e-05 -3.04756e-06 0.00142848
0.00712724 -0.000669069 -2.23016e-05
-0.000669069 0.000830294 -3.00084e-05
-2.23016e-05 -3.00084e-05 0.00212926
0.00163413 -7.4189e-06 -6.37287e-05
-7.4189e-06 -0.000408263 4.47155e-05
-6.37287e-05 4.47155e-05 -0.000320697
0.000802543 0.000526834 7.45366e-06
0.000526834 0.00070154 -8.79645e-05
7.45366e-06 -8.79645e-05 -0.00237391
-0.00673612 -0.000951851 5.08921e-05
-0.000951851 -0.00423214 -7.08723e-05
5.08921e-05 -7.08723e-05 -0.00556626
0.00235958 -0.000645721 1.19409e-05
-0.000645721 -0.00162425 -0.000127914
1.19409e-05 -0.000127914 -0.000119406
0.000767577 -3.74869e-06 -1.76548e-06
-3.74869e-06 8.34366e-05 6.96464e-07
-1.76548e-06 6.96464e-07 -1.32453e-05
0.00074147 3.56596e-05 1.9469e-07
3.56596e-05 7.19116e-05 2.15177e-07
1.9469e-07 2.15177e-07 -4.4711e-05
0.00073149 1.22765e-05 -3.71752e-07
1.22765e-05 9.12091e-05 -4.11101e-07
-3.71752e-07 -4.11101e-07 -3.82938e-05
0.000819734 3.76326e-05 1.26273e-07
3.76326e-05 0.000122723 -8.39086e-07
1.26273e-07 -8.39086e-07 8.19502e-06
0.000695245 -0.000333312 8.69774e-07
-0.000333312 -0.000303652 1.77117e-05
8.69774e-07 1.77117e-05 -0.000359216
0.000886377 -3.39083e-05 -6.11897e-06
-3.39083e-05 0.000458949 -2.41078e-05
-6.11897e-06 -2.41078e-05 0.000373043
0.000599125 8.56463e-06 -5.4991e-07
8.56463e-06 -1.35218e-05 -1.12659e-07
-5.4991e-07 -1.12659e-07 -0.000127657
0.000748408 8.50466e-05 -1.50147e-06
8.50466e-05 0.00012091 2.10184e-06
-1.50147e-06 2.10184e-06 -2.06374e-05
0.0014427 -5.02855e-05 5.66519e-06
-5.02855e-05 0.000550247 -2.31642e-05
5.66519e-06 -2.31642e-05 0.000389652
0.000734072 3.27121e-05 -4.24375e-07
3.27121e-05 7.84351e-05 3.37875e-07
-4.24375e-07 3.37875e-07 -3.30894e-05
0.00093429 3.7324e-05 -1.29445e-06
3.7324e-05 0.000280043 -2.07247e-06
-1.29445e-06 -2.07247e-06 0.000141536
-0.000288518 2.32729e-05 8.74324e-06
2.32729e-05 -0.000112528 -1.16858e-05
8.74324e-06 -1.16858e-05 -0.000520732
0.000899771 -2.50152e-05 2.40514e-05
-2.50152e-05 0.000434208 -8.36419e-07
2.40514e-05 -8.36419e-07 0.000380626
0.00045939 6.2226e-05 -6.80606e-07
6.2226e-05 -2.09321e-06 5.12323e-08
-6.80606e-07 5.12323e-08 -0.000105463
0.000244703 -2.45202e-05 -2.29943e-05
-2.45202e-05 0.000683884 -4.61785e-05
-2.29943e-05 -4.61785e-05 -0.000402394
0.00287957 5.59337e-05 1.01334e-05
5.59337e-05 0.0014668 1.83343e-05
1.01334e-05 1.83343e-05 0.00133644
0.00123596 -1.66463e-05 1.28477e-05
-1.66463e-05 0.000412882 4.30796e-06
1.28477e-05 4.30796e-06 8.01344e-05
0.00131697 -2.14118e-05 -2.20723e-07
-2.14118e-05 0.000123746 5.38631e-07
-2.20723e-07 5.38631e-07 -7.93427e-05
0.00075641 -2.03433e-05 -8.15581e-06
-2.03433e-05 0.00013173 -4.62597e-06
-8.15581e-06 -4.62597e-06 -0.000146912
0.0004381 0.000101515 1.61064e-05
0.000101515 0.000306839 7.32182e-06
1.61064e-05 7.32182e-06 0.000169361
0.000186452 0.000179385 -6.35601e-06
0.000179385 -0.000476871 2.84548e-05
-6.35601e-06 2.84548e-05 -0.000562056
0.00137929 -1.48588e-05 7.56097e-06
-1.48588e-05 1.49863e-06 5.1317e-06
7.56097e-06 5.1317e-06 -5.99902e-05
0.00349904 -0.000643613 0.000140122
-0.000643613 0.00296484 -0.000122838
0.000140122 -0.000122838 -0.000950085
0.00677535 0.00101486 -4.66881e-05
0.00101486 0.00325573 2.80251e-05
-4.66881e-05 2.80251e-05 0.00210279
0.00277333 -5.23866e-05 -1.15807e-05
-5.23866e-05 0.00137055 6.12174e-05
-1.15807e-05 6.12174e-05 0.000417481
0.00394241 0.000881063 -1.39187e-05
0.000881063 -0.000454396 -1.68544e-05
-1.39187e-05 -1.68544e-05 0.000415087
-0.000478563 4.44426e-05 1.69907e-05
4.44426e-05 0.000107919 4.14849e-06
1.69907e-05 4.14849e-06 -0.000270222
0.00139045 1.95929e-05 5.41088e-06
1.95929e-05 0.000457617 5.18144e-07
5.41088e-06 5.18144e-07 0.000163146
0.00302658 -0.000139741 4.38518e-05
-0.000139741 0.000787987 -3.61393e-06
4.38518e-05 -3.61393e-06 -0.000687483
0.000840151 -0.00010938 -1.94496e-06
-0.00010938 -0.000603983 2.45191e-05
-1.94496e-06 2.45191e-05 -0.000427195
-0.00168799 0.00119674 5.84134e-05
0.00119674 -0.000907494 -2.21244e-05
5.84134e-05 -2.21244e-05 0.000591597
0.00527132 0.000651587 -2.64881e-05
0.000651587 0.000140979 5.9171e-05
-2.64881e-05 5.9171e-05 0.000348317
-0.00207854 -0.000661122 5.58094e-05
-0.000661122 -0.000219418 -4.62641e-05
5.58094e-05 -4.62641e-05 -0.00418373
0.000606926 -2.10923e-05 3.91975e-05
-2.10923e-05 0.000239151 -8.24819e-06
3.91975e-05 -8.24819e-06 0.000115521
0.00102744 -5.04844e-05 5.91596e-05
-5.04844e-05 -5.24861e-05 -2.69718e-05
5.91596e-05 -2.69718e-05 -0.000958573
-0.00182601 0.00019492 -0.000125657
0.00019492 0.00053734 -1.85108e-05
-0.000125657 -1.85108e-05 -0.000244535
0.000856491 0.00103819 -9.20774e-05
0.00103819 -0.000379963 0.000137837
-9.20774e-05 0.000137837 0.00013523
0.00810499 -0.000298984 1.79202e-05
-0.000298984 0.00370727 -2.53153e-05
1.79202e-05 -2.53153e-05 0.00082535
0.00319019 -0.00033355 -7.1259e-05
-0.00033355 0.000624125 6.81243e-05
-7.1259e-05 6.81243e-05 0.000284368
-0.00172665 1.22069e-05 2.41028e-06
1.22069e-05 -0.00087205 1.21627e-05
2.41028e-06 1.21627e-05 -0.00102447
5.8054e-05 -0.000138428 1.13252e-08
-0.000138428 0.000153447 -2.23521e-07
1.13252e-08 -2.23521e-07 -7.04878e-05
0.00068584 -0.000207734 1.89769e-05
-0.000207734 0.000218063 -7.22199e-06
1.89769e-05 -7.22199e-06 7.43241e-05
-0.000571498 -7.0008e-05 -3.56252e-06
-7.0008e-05 -0.000406671 5.50553e-06
-3.56252e-06 5.50553e-06 -0.000537081
-0.000409145 -0.00010248 3.22555e-07
-0.00010248 -0.000312161 -3.45428e-06
3.22555e-07 -3.45428e-06 -0.000575618
0.00235896 -0.000382425 2.48642e-05
-0.000382425 0.000786597 -5.80575e-06
2.48642e-05 -5.80575e-06 0.000537571
0.00283607 -0.000356408 -5.78061e-06
-0.000356408 0.00123747 1.62021e-06
-5.78061e-06 1.62021e-06 0.00102163
0.00170966 -0.00027576 2.78376e-06
-0.00027576 0.000632839 7.75339e-07
2.78376e-06 7.75339e-07 0.000315597
0.000780513 -0.000260187 6.52659e-06
-0.000260187 -6.52249e-05 -4.20333e-06
6.52659e-06 -4.20333e-06 -0.000368504
0.00122545 -0.00021908 -5.08752e-06
-0.00021908 0.000283666 9.49205e-07
-5.08752e-06 9.49205e-07 5.83615e-05
0.00216265 -0.000338669 1.92845e-06
-0.000338669 0.000696384 5.77752e-08
1.92845e-06 5.77752e-08 0.000417137
0.00182622 -0.000331901 3.3232e-06
-0.000331901 0.000379439 -4.83879e-06
3.3232e-06 -4.83879e-06 0.000110471
0.00162265 -0.000290134 7.09733e-07
-0.000290134 0.000186478 -3.91111e-06
7.09733e-07 -3.91111e-06 -2.72433e-05
0.00266966 -0.000370105 -6.52749e-06
-0.000370105 0.000865444 6.5729e-06
-6.52749e-06 6.5729e-06 0.000622363
0.00190213 -0.000323396 -1.19575e-06
-0.000323396 0.00042323 -3.38727e-07
-1.19575e-06 -3.38727e-07 0.000166677
0.000357984 -0.000150116 4.80159e-06
-0.000150116 -0.000248683 2.08559e-08
4.80159e-06 2.08559e-08 -0.000418121
0.000947347 -0.000202726 2.34876e-06
-0.000202726 6.26603e-05 -5.12418e-07
2.34876e-06 -5.12418e-07 -0.000124193
0.00156509 -0.00026484 -1.83942e-06
-0.00026484 0.000383341 -1.55419e-06
-1.83942e-06 -1.55419e-06 0.000157565
0.00113009 -0.000182592 1.81764e-06
-0.000182592 0.000282479 -2.98223e-07
1.81764e-06 -2.98223e-07 0.000110554
0.00124751 -0.000200707 -1.78311e-06
-0.000200707 0.000323994 -1.38719e-06
-1.78311e-06 -1.38719e-06 0.000153751
0.000705455 -0.000162766 3.74739e-06
-0.000162766 2.3872e-06 -1.87019e-06
3.74739e-06 -1.87019e-06 -0.000150201
0.00073607 -1.6511e-05 1.8702e-06
-1.6511e-05 8.80272e-05 1.44692e-06
1.8702e-06 1.44692e-06 -3.22294e-05
0.00061256 -6.94849e-05 1.38584e-07
-6.94849e-05 3.05797e-05 7.59833e-07
1.38584e-07 7.59833e-07 -0.000111865
0.00121644 -0.000177405 2.00507e-06
-0.000177405 0.000373966 -1.6282e-06
2.00507e-06 -1.6282e-06 0.000204858
0.000599263 5.64512e-05 -3.23112e-08
5.64512e-05 -9.98364e-06 2.31436e-06
-3.23112e-08 2.31436e-06 -7.53459e-05
0.000743204 4.9441e-06 -4.26076e-07
4.9441e-06 8.37494e-05 -3.58497e-07
-4.26076e-07 -3.58497e-07 -1.48574e-05
0.000998904 -7.75521e-05 -5.84427e-07
-7.75521e-05 0.000245464 -6.83516e-07
-5.84427e-07 -6.83516e-07 0.00012249
0.000578032 5.64369e-05 -1.79868e-06
5.64369e-05 -3.27354e-05 5.42712e-06
-1.79868e-06 5.42712e-06 -5.4069e-05
0.000671016 3.86049e-05 -2.86191e-07
3.86049e-05 1.74593e-05 -1.95023e-07
-2.86191e-07 -1.95023e-07 -3.59178e-05
0.000802407 -1.23087e-05 4.83443e-08
-1.23087e-05 0.000104731 -1.29459e-06
4.83443e-08 -1.29459e-06 2.31316e-05
0.000693342 2.65625e-05 1.40319e-06
2.65625e-05 2.2331e-05 -1.82638e-06
1.40319e-06 -1.82638e-06 -2.59121e-05
0.000608617 5.10407e-05 2.66327e-08
5.10407e-05 -2.44187e-05 -3.51198e-09
2.66327e-08 -3.51198e-09 -4.28776e-05
0.00223817 7.94137e-05 -2.62855e-05
7.94137e-05 0.000923574 3.38538e-06
-2.62855e-05 3.38538e-06 0.000932593
0.000617762 4.44493e-05 8.029e-07
4.44493e-05 -2.80013e-05 -3.80237e-06
8.029e-07 -3.80237e-06 -4.3796e-05
0.00224216 6.99519e-05 2.14211e-06
6.99519e-05 0.000918493 1.6004e-07
2.14211e-06 1.6004e-07 0.000929652
0.00225455 6.02292e-05 1.98866e-05
6.02292e-05 0.000918975 -3.90281e-06
1.98866e-05 -3.90281e-06 0.00093195
0.000765992 2.76423e-05 -3.54878e-07
2.76423e-05 8.44545e-05 -6.33137e-07
-3.54878e-07 -6.33137e-07 -1.30772e-05
0.00078309 5.99785e-05 -7.33005e-07
5.99785e-05 9.37648e-05 -1.16237e-06
-7.33005e-07 -1.16237e-06 2.96814e-06
0.000680884 -3.79081e-06 -9.27291e-07
-3.79081e-06 6.45824e-06 -2.25847e-06
-9.27291e-07 -2.25847e-06 -4.64241e-05
0.000752206 5.38461e-05 -1.02356e-07
5.38461e-05 6.83694e-05 1.51044e-08
-1.02356e-07 1.51044e-08 -1.43317e-05
0.000614678 -3.2201e-05 -1.30683e-07
-3.2201e-05 -3.9393e-05 -4.31222e-06
-1.30683e-07 -4.31222e-06 -5.55228e-05
0.000683522 3.83775e-06 -1.16684e-07
3.83775e-06 9.09327e-06 -4.50891e-08
-1.16684e-07 -4.50891e-08 -4.06468e-05
0.000716383 3.21447e-05 -5.6281e-07
3.21447e-05 4.63231e-05 5.81884e-07
-5.6281e-07 5.81884e-07 -3.19406e-05
0.00231399 -4.74958e-05 -1.81109e-05
-4.74958e-05 0.000943434 -4.55151e-06
-1.81109e-05 -4.55151e-06 0.000958327
0.000630464 -2.45409e-05 -1.83674e-07
-2.45409e-05 -3.52611e-05 -3.84605e-08
-1.83674e-07 -3.84605e-08 -4.79237e-05
0.000663431 7.55346e-06 -3.77002e-07
7.55346e-06 -1.629e-06 1.43219e-06
-3.77002e-07 1.43219e-06 -4.8069e-05
0.00221366 -3.42517e-05 -3.32976e-06
-3.42517e-05 0.000880746 1.11766e-07
-3.32976e-06 1.11766e-07 0.00089801
0.000638187 -1.75088e-05 1.19634e-07
-1.75088e-05 -3.40629e-05 3.79707e-06
1.19634e-07 3.79707e-06 -4.37762e-05
0.00213192 -2.11747e-05 9.18487e-06
-2.11747e-05 0.000830259 4.68663e-06
9.18487e-06 4.68663e-06 0.000849312
0.000867821 -5.9634e-05 5.13051e-06
-5.9634e-05 0.000130307 2.89715e-05
5.13051e-06 2.89715e-05 -0.000199187
0.00149039 -2.80608e-05 -8.25154e-06
-2.80608e-05 7.87399e-05 1.48532e-05
-8.25154e-06 1.48532e-05 -5.50402e-05
0.00137887 -1.58735e-06 -2.61116e-06
-1.58735e-06 0.00036033 -1.94328e-05
-2.61116e-06 -1.94328e-05 9.91456e-05
0.000757475 2.73919e-05 -1.5958e-07
2.73919e-05 7.26048e-05 -5.36269e-08
-1.5958e-07 -5.36269e-08 -2.1e-05
0.000752359 3.06655e-06 3.03869e-08
3.06655e-06 6.7654e-05 1.68268e-07
3.03869e-08 1.68268e-07 -2.57011e-05
0.000683123 5.46414e-06 -1.67066e-06
5.46414e-06 2.99806e-05 -1.86155e-06
-1.67066e-06 -1.86155e-06 -6.55291e-05
0.000606788 -1.47329e-05 -6.9512e-07
-1.47329e-05 -1.56109e-05 -7.29242e-07
-6.9512e-07 -7.29242e-07 -0.000107716
0.000977808 8.38153e-05 -1.35205e-06
8.38153e-05 0.00020988 -5.06917e-07
-1.35205e-06 -5.06917e-07 0.000100269
0.00071516 -3.85831e-06 3.68732e-08
-3.85831e-06 3.58255e-05 -3.7876e-08
3.68732e-08 -3.7876e-08 -4.95112e-05
0.000721893 1.80549e-05 9.11606e-07
1.80549e-05 4.90921e-05 -4.5101e-07
9.11606e-07 -4.5101e-07 -4.92199e-05
0.000783902 3.2514e-05 -1.04101e-07
3.2514e-05 8.90395e-05 -4.27399e-08
-1.04101e-07 -4.27399e-08 -8.71857e-06
0.000887903 6.61565e-05 3.00027e-07
6.61565e-05 0.000146731 3.1513e-07
3.00027e-07 3.1513e-07 3.95309e-05
0.000930943 3.57542e-05 -6.62087e-07
3.57542e-05 0.000186103 1.15684e-07
-6.62087e-07 1.15684e-07 8.24528e-05
0.00208996 5.47218e-05 9.49401e-05
5.47218e-05 0.000733989 0.000140035
9.49401e-05 0.000140035 -0.000761485
0.0010479 5.3312e-05 8.77712e-06
5.3312e-05 0.000259011 3.46009e-05
8.77712e-06 3.46009e-05 -0.000921466
0.00261813 -6.10957e-06 -1.55101e-05
-6.10957e-06 0.000983411 -1.84326e-05
-1.55101e-05 -1.84326e-05 0.000368217
0.00690479 -0.00059458 -4.61922e-05
-0.00059458 0.000883914 -6.67101e-05
-4.61922e-05 -6.67101e-05 0.00222763
-0.0102182 0.000364693 -5.33173e-05
0.000364693 -0.00353649 0.000143423
-5.33173e-05 0.000143423 -0.00512245
0.00501178 -0.000830986 -8.97922e-05
-0.000830986 0.0016548 5.10779e-05
-8.97922e-05 5.10779e-05 0.000865445
0.00905218 -0.000438929 -3.04612e-05
-0.000438929 0.00353142 -3.0668e-05
-3.04612e-05 -3.0668e-05 0.000820653
0.00289808 -0.000151354 -3.32543e-05
-0.000151354 0.000316548 4.93041e-05
-3.32543e-05 4.93041e-05 -2.22355e-05
0.0107431 -0.000183104 4.25495e-05
-0.000183104 0.00492673 -1.61716e-05
4.25495e-05 -1.61716e-05 0.00164508
0.00130515 -0.000539741 3.46282e-05
-0.000539741 -0.000237635 3.09971e-05
3.46282e-05 3.09971e-05 -0.000961584
0.00195311 -0.000769698 -7.52537e-05
-0.000769698 -0.00197837 -0.000164282
-7.52537e-05 -0.000164282 -0.000465003
0.00368516 0.000138081 -8.59456e-05
0.000138081 0.000568496 1.34627e-06
-8.59456e-05 1.34627e-06 0.00014766
0.00879284 0.000355499 -5.9696e-06
0.000355499 0.00373004 2.88541e-05
-5.9696e-06 2.88541e-05 0.00123387
0.00881918 -0.00126097 -9.38889e-06
-0.00126097 0.00264654 -0.000114597
-9.38889e-06 -0.000114597 0.00273553
0.00467632 -0.0011918 3.51929e-05
-0.0011918 0.000650017 2.42518e-06
3.51929e-05 2.42518e-06 0.00225057
0.000412054 3.83366e-05 7.29657e-07
3.83366e-05 -5.55071e-05 7.47115e-07
7.29657e-07 7.47115e-07 -0.000134539
0.000929791 -5.58588e-06 -4.52278e-08
-5.58588e-06 0.000181939 8.32403e-07
-4.52278e-08 8.32403e-07 8.19711e-05
0.000751139 3.28263e-05 1.0823e-07
3.28263e-05 7.67636e-05 9.41914e-08
1.0823e-07 9.41914e-08 -3.85934e-05
0.00061525 2.84784e-05 -3.61649e-05
2.84784e-05 0.000309606 1.58479e-05
-3.61649e-05 1.58479e-05 -0.000182258
0.00100054 -6.49286e-05 -6.03043e-05
-6.49286e-05 0.00051806 -1.98091e-05
-6.03043e-05 -1.98091e-05 0.00048198
0.000578412 -6.72029e-06 -4.56361e-08
-6.72029e-06 -6.54442e-06 1.0488e-06
-4.56361e-08 1.0488e-06 -0.000118434
-0.000130848 2.4987e-05 9.19674e-08
2.4987e-05 -0.000304936 -2.77554e-06
9.19674e-08 -2.77554e-06 -0.000446898
0.000649621 6.29691e-05 -2.66512e-07
6.29691e-05 0.000111984 -2.33364e-06
-2.66512e-07 -2.33364e-06 1.2448e-06
0.000476655 4.521e-05 -3.74425e-06
4.521e-05 0.000183546 4.86007e-06
-3.74425e-06 4.86007e-06 4.68877e-05
-1.31533e-05 -2.85525e-06 7.42353e-05
-2.85525e-06 0.000636187 -3.67656e-05
7.42353e-05 -3.67656e-05 -0.000428976
-0.00179143 -5.35227e-06 -1.7942e-05
-5.35227e-06 -0.00105836 1.14218e-05
-1.7942e-05 1.14218e-05 -0.0011669
0.00163391 0.000178366 -1.17072e-05
0.000178366 0.000855057 -3.34159e-05
-1.17072e-05 -3.34159e-05 0.000204062
0.00173648 -3.46274e-06 6.43425e-05
-3.46274e-06 0.000531854 7.854e-06
6.43425e-05 7.854e-06 -0.000331486
0.00104843 -1.94903e-05 1.42105e-05
-1.94903e-05 0.000299198 4.56654e-06
1.42105e-05 4.56654e-06 1.50558e-05
0.00130867 -2.30342e-05 -3.775e-06
-2.30342e-05 0.000186716 -1.56506e-06
-3.775e-06 -1.56506e-06 4.44268e-05
-0.00231659 3.19217e-05 -2.53439e-06
3.19217e-05 -0.00080147 1.03237e-05
-2.53439e-06 1.03237e-05 -0.0012862
0.00293588 4.764e-05 -1.12013e-05
4.764e-05 0.000404279 -2.66962e-05
-1.12013e-05 -2.66962e-05 8.03712e-05
0.00140805 7.6087e-06 3.2557e-07
7.6087e-06 0.000383229 1.55416e-05
3.2557e-07 1.55416e-05 0.000144558
0.0150264 -0.000766242 0.000109581
-0.000766242 0.00664378 -1.36542e-05
0.000109581 -1.36542e-05 0.00350496
0.00731097 0.000901598 -5.19712e-05
0.000901598 0.00220393 -2.20222e-05
-5.19712e-05 -2.20222e-05 0.00196553
0.00343991 -0.000164191 -4.62161e-05
-0.000164191 0.00108825 8.72805e-05
-4.62161e-05 8.72805e-05 -0.000459628
-0.00644952 0.00131005 0.000268865
0.00131005 -0.00370851 -0.000221292
0.000268865 -0.000221292 -0.00171945
0.000630199 -6.04881e-05 -3.61141e-06
-6.04881e-05 0.000354021 -2.16281e-07
-3.61141e-06 -2.16281e-07 0.000190901
0.00154057 -4.58539e-05 -1.02457e-05
-4.58539e-05 0.00026382 4.19789e-06
-1.02457e-05 4.19789e-06 -0.000650051
-0.00236263 0.000238017 -0.000177027
0.000238017 0.000615973 7.85716e-05
-0.000177027 7.85716e-05 -2.74671e-05
0.00180396 -0.000289064 -1.94838e-05
-0.000289064 -3.08652e-05 2.91352e-05
-1.94838e-05 2.91352e-05 -0.000306381
0.00833188 0.00131705 4.05222e-05
0.00131705 0.00278592 4.2191e-05
4.05222e-05 4.2191e-05 0.00337615
0.00736984 -0.000720325 6.28608e-05
-0.000720325 0.00307582 -3.75343e-05
6.28608e-05 -3.75343e-05 0.000471021
0.00116999 -0.00021575 8.79343e-06
-0.00021575 0.000171772 2.46414e-05
8.79343e-06 2.46414e-05 0.000312679
-0.00260193 -8.16797e-05 2.87466e-05
-8.16797e-05 0.000507061 -9.87103e-06
2.87466e-05 -9.87103e-06 -0.00072648
0.00625968 0.00111129 -0.000170729
0.00111129 0.00311739 8.09065e-05
-0.000170729 8.09065e-05 0.00318299
0.00265333 -0.000316521 -0.000130063
-0.000316521 0.000337745 9.03444e-05
-0.000130063 9.03444e-05 -0.00234435
0.00264827 -0.000749138 4.72933e-05
-0.000749138 0.00034061 -1.10107e-05
4.72933e-05 -1.10107e-05 -0.000169944
-0.000283967 -9.93727e-05 -1.9437e-06
-9.93727e-05 -1.99264e-05 1.1622e-05
-1.9437e-06 1.1622e-05 -0.000227438
0.000412665 -0.000193779 -3.22417e-06
-0.000193779 9.83307e-05 2.41509e-06
-3.22417e-06 2.41509e-06 -8.63788e-05
0.00401936 -0.000474732 3.01757e-05
-0.000474732 0.00153797 3.03365e-06
3.01757e-05 3.03365e-06 0.00147186
-0.00197823 -9.7138e-06 -5.95151e-06
-9.7138e-06 -0.0011242 7.84468e-06
-5.95151e-06 7.84468e-06 -0.00138956
0.000687316 -0.000244828 3.0763e-06
-0.000244828 -3.88772e-05 -2.18132e-07
3.0763e-06 -2.18132e-07 -0.000294789
0.00135163 -0.000362007 5.82524e-06
-0.000362007 6.64998e-06 1.29467e-06
5.82524e-06 1.29467e-06 -0.000188873
0.00228276 -0.000314628 -8.14943e-06
-0.000314628 0.000901087 2.02649e-06
-8.14943e-06 2.02649e-06 0.000602012
0.00124466 -0.000290743 -3.14646e-06
-0.000290743 0.000165314 -2.53464e-06
-3.14646e-06 -2.53464e-06 -0.000121353
0.00189206 -0.000381549 5.05853e-06
-0.000381549 0.000294071 -1.51908e-06
5.05853e-06 -1.51908e-06 8.27564e-05
0.00176543 -0.000307559 -3.55306e-06
-0.000307559 0.000468066 -8.13812e-07
-3.55306e-06 -8.13812e-07 0.00019023
0.00152404 -0.00030841 -2.15207e-07
-0.00030841 0.000202229 -3.02884e-06
-2.15207e-07 -3.02884e-06 -5.70854e-05
0.00178731 -0.000322209 1.15443e-06
-0.000322209 0.000208986 -4.85976e-06
1.15443e-06 -4.85976e-06 1.30195e-05
0.00156341 -0.000254703 -3.4696e-07
-0.000254703 9.62948e-05 -3.19087e-06
-3.4696e-07 -3.19087e-06 -7.56183e-05
0.00151034 -0.000277219 7.48815e-07
-0.000277219 0.00014644 -1.22945e-06
7.48815e-07 -1.22945e-06 -7.54017e-05
0.00158686 -0.000287861 1.16065e-06
-0.000287861 0.000165284 -8.573e-07
1.16065e-06 -8.573e-07 -4.71016e-05
0.00186207 -0.000287211 -1.81625e-06
-0.000287211 0.000461992 5.86021e-06
-1.81625e-06 5.86021e-06 0.000252031
0.00178411 -0.000304568 -5.8479e-08
-0.000304568 0.000379035 3.38938e-07
-5.8479e-08 3.38938e-07 0.00013725
0.00188082 -0.000323592 -1.4461e-06
-0.000323592 0.000403253 -3.01839e-06
-1.4461e-06 -3.01839e-06 0.000141216
0.00102463 -0.000188617 2.71725e-06
-0.000188617 0.000166967 -7.43348e-07
2.71725e-06 -7.43348e-07 -5.94174e-06
0.000578881 -0.000164476 -1.04348e-06
-0.000164476 -0.000119235 -2.15354e-06
-1.04348e-06 -2.15354e-06 -0.000285391
0.00138871 -0.000234724 4.65153e-06
-0.000234724 0.000311481 -5.92281e-06
4.65153e-06 -5.92281e-06 0.000127975
0.000861608 -0.000113355 3.25918e-07
-0.000113355 0.000136761 8.7737e-07
3.25918e-07 8.7737e-07 -6.51718e-06
0.000891403 -0.000156044 1.17809e-07
-0.000156044 0.000148681 3.46658e-07
1.17809e-07 3.46658e-07 -1.8255e-05
0.000876475 -0.000168815 -1.53866e-06
-0.000168815 0.000113436 1.40355e-06
-1.53866e-06 1.40355e-06 -5.26725e-05
0.000571905 5.95602e-05 1.32404e-06
5.95602e-05 -1.75179e-05 3.58526e-06
1.32404e-06 3.58526e-06 -0.000100477
0.000794919 -3.83628e-05 4.6267e-07
-3.83628e-05 0.000125381 5.05083e-08
4.6267e-07 5.05083e-08 -6.73368e-07
0.000886884 -0.000100699 -1.47616e-06
-0.000100699 0.000189961 5.22915e-07
-1.47616e-06 5.22915e-07 4.45394e-05
0.00132968 8.59533e-05 -1.38635e-05
8.59533e-05 0.000413429 3.5101e-06
-1.38635e-05 3.5101e-06 0.000389384
0.000655547 3.39993e-05 -5.48556e-07
3.39993e-05 1.72002e-05 -5.41371e-07
-5.48556e-07 -5.41371e-07 -4.646e-05
0.000807784 -3.00374e-05 -5.3234e-07
-3.00374e-05 0.000122354 -1.79385e-06
-5.3234e-07 -1.79385e-06 1.95749e-05
0.000772244 4.46904e-05 -2.57721e-05
4.46904e-05 8.69657e-05 3.35716e-06
-2.57721e-05 3.35716e-06 8.85799e-05
0.000992054 6.91063e-05 -7.33796e-06
6.91063e-05 0.000207159 1.85822e-07
-7.33796e-06 1.85822e-07 0.000186514
0.00068776 3.43798e-05 7.27491e-07
3.43798e-05 2.58567e-05 -2.17168e-06
7.27491e-07 -2.17168e-06 -2.72558e-05
0.000617202 5.29613e-05 6.12852e-07
5.29613e-05 -1.88151e-05 -3.95318e-06
6.12852e-07 -3.95318e-06 -3.7631e-05
0.00227067 8.10342e-05 2.04847e-06
8.10342e-05 0.000943139 1.78591e-07
2.04847e-06 1.78591e-07 0.000951782
0.00225901 7.12661e-05 2.34073e-05
7.12661e-05 0.000929109 -3.58156e-06
2.34073e-05 -3.58156e-06 0.000939989
0.000706268 1.57327e-05 -2.31321e-07
1.57327e-05 4.24328e-05 -8.43839e-07
-2.31321e-07 -8.43839e-07 -5.23458e-05
0.00079228 4.20177e-05 -3.73806e-07
4.20177e-05 9.7346e-05 -1.57117e-06
-3.73806e-07 -1.57117e-06 5.28874e-06
0.000733484 1.08987e-05 9.10304e-08
1.08987e-05 5.77759e-05 -4.86394e-09
9.10304e-08 -4.86394e-09 -3.40115e-05
0.000683874 -1.5205e-05 -1.13033e-06
-1.5205e-05 9.69241e-06 -2.42201e-06
-1.13033e-06 -2.42201e-06 -4.60953e-05
0.000756776 3.34603e-05 6.74713e-07
3.34603e-05 7.02991e-05 1.14277e-09
6.74713e-07 1.14277e-09 -1.39571e-05
0.00060005 -3.94013e-05 -1.73187e-07
-3.94013e-05 -4.1673e-05 -4.51682e-06
-1.73187e-07 -4.51682e-06 -6.12237e-05
0.000678337 -3.65725e-07 -1.51381e-07
-3.65725e-07 6.00337e-06 -3.38035e-08
-1.51381e-07 -3.38035e-08 -4.71748e-05
0.000771346 5.39725e-05 7.26806e-07
5.39725e-05 9.12614e-05 1.29449e-06
7.26806e-07 1.29449e-06 2.48282e-07
0.00241567 -5.96214e-05 -2.34515e-05
-5.96214e-05 0.0010074 -4.35296e-06
-2.34515e-05 -4.35296e-06 0.0010199
0.000617016 -3.13205e-05 -3.43403e-07
-3.13205e-05 -3.82822e-05 -2.25193e-08
-3.43403e-07 -2.25193e-08 -5.42415e-05
0.000680251 4.13639e-06 5.58241e-07
4.13639e-06 7.63713e-06 2.37285e-06
5.58241e-07 2.37285e-06 -4.21379e-05
0.00229678 -4.64828e-05 -3.18421e-06
-4.64828e-05 0.00093285 1.44686e-07
-3.18421e-06 1.44686e-07 0.000948071
0.000630374 -2.41182e-05 1.6914e-07
-2.41182e-05 -3.52526e-05 3.9968e-06
1.6914e-07 3.9968e-06 -4.78229e-05
0.00220144 -3.31373e-05 1.32675e-05
-3.31373e-05 0.000873134 4.62407e-06
1.32675e-05 4.62407e-06 0.000890666
0.00260849 -2.37071e-05 6.35077e-05
-2.37071e-05 0.000889011 3.59543e-05
6.35077e-05 3.59543e-05 0.000105049
0.000967305 -5.56012e-05 5.16698e-07
-5.56012e-05 0.00018267 9.98818e-06
5.16698e-07 9.98818e-06 -0.000112738
0.00138318 -3.69467e-05 -1.42116e-05
-3.69467e-05 2.65137e-05 -7.18603e-06
-1.42116e-05 -7.18603e-06 -5.43325e-05
0.000813592 8.00638e-05 -2.78061e-06
8.00638e-05 0.000114195 -5.39756e-07
-2.78061e-06 -5.39756e-07 7.0775e-06
0.000825369 2.85489e-05 4.25838e-07
2.85489e-05 0.00010872 2.84322e-07
4.25838e-07 2.84322e-07 1.69944e-05
0.000674678 -3.53712e-06 6.65799e-07
-3.53712e-06 2.32916e-05 6.28028e-07
6.65799e-07 6.28028e-07 -6.92445e-05
0.000819243 2.42175e-06 4.01017e-08
2.42175e-06 0.000100789 -1.07085e-07
4.01017e-08 -1.07085e-07 1.01347e-05
0.000878435 3.86024e-05 -1.00097e-07
3.86024e-05 0.000143178 -2.2956e-07
-1.00097e-07 -2.2956e-07 4.40669e-05
0.000820181 6.30059e-05 4.48685e-07
6.30059e-05 0.00011861 7.7324e-07
4.48685e-07 7.7324e-07 1.25538e-05
0.000811734 4.99453e-05 -1.52349e-06
4.99453e-05 0.000113316 -2.29986e-06
-1.52349e-06 -2.29986e-06 1.93763e-06
0.000462326 -5.68885e-06 -5.59898e-07
-5.68885e-06 -8.83939e-05 -6.43373e-07
-5.59898e-07 -6.43373e-07 -0.000187606
0.000830439 8.66054e-05 3.86329e-07
8.66054e-05 0.000120003 -3.01002e-07
3.86329e-07 -3.01002e-07 1.76618e-05
0.000765836 -1.32831e-05 1.42692e-06
-1.32831e-05 5.92056e-05 4.07531e-08
1.42692e-06 4.07531e-08 -3.32742e-05
0.000819122 3.25231e-05 -3.25289e-07
3.25231e-05 0.000117867 9.14502e-08
-3.25289e-07 9.14502e-08 1.79891e-05
0.00133187 7.13922e-05 4.6217e-06
7.13922e-05 0.000445672 3.84981e-06
4.6217e-06 3.84981e-06 0.000350139
0.00116182 -0.000477053 6.14424e-05
-0.000477053 0.00157213 0.000107092
6.14424e-05 0.000107092 0.000901314
0.00254562 8.81263e-05 8.42148e-06
8.81263e-05 0.000973238 3.67172e-05
8.42148e-06 3.67172e-05 -0.000572874
0.00138602 7.10645e-05 -8.1962e-06
7.10645e-05 0.000351503 -4.26089e-05
-8.1962e-06 -4.26089e-05 -0.000863489
0.00644607 -0.0010139 -0.000129461
-0.0010139 0.00044014 -0.000108939
-0.000129461 -0.000108939 0.00197315
0.00440796 -0.000291672 7.80897e-06
-0.000291672 0.000575879 0.000110122
7.80897e-06 0.000110122 -7.53125e-05
0.000498229 -0.000507252 -9.30843e-05
-0.000507252 0.000548004 8.58988e-05
-9.30843e-05 8.58988e-05 -0.00261598
0.00260386 -0.000181764 -5.73958e-05
-0.000181764 0.000411204 8.13123e-05
-5.73958e-05 8.13123e-05 -9.92509e-05
0.00397146 -8.26283e-05 1.25921e-05
-8.26283e-05 0.000743034 4.14559e-05
1.25921e-05 4.14559e-05 0.000515474
-0.000827452 -0.00119515 3.77342e-05
-0.00119515 -0.00150274 5.29506e-05
3.77342e-05 5.29506e-05 0.000260195
0.0053817 0.00044643 4.51629e-06
0.00044643 0.00288018 3.49765e-06
4.51629e-06 3.49765e-06 -0.000352537
0.00151138 -0.000650408 -1.58343e-05
-0.000650408 -0.00131053 2.36697e-05
-1.58343e-05 2.36697e-05 -0.00114624
0.00157669 0.000305637 -1.74138e-05
0.000305637 -0.000258368 1.16245e-05
-1.74138e-05 1.16245e-05 -0.000444859
0.00799887 0.000147538 -3.50643e-05
0.000147538 0.00397923 2.22456e-05
-3.50643e-05 2.22456e-05 0.00141785
0.000498201 -0.000990933 -7.38261e-05
-0.000990933 -0.000748735 -8.57423e-05
-7.38261e-05 -8.57423e-05 -0.00023247
0.000486132 0.000190985 6.17629e-07
0.000190985 -4.28105e-05 -4.77764e-06
6.17629e-07 -4.77764e-06 -0.000130147
0.000815336 5.29943e-05 6.25136e-06
5.29943e-05 0.000163168 -1.23421e-07
6.25136e-06 -1.23421e-07 8.44974e-05
0.00105494 1.85103e-05 -3.78134e-07
1.85103e-05 0.000255539 1.00236e-06
-3.78134e-07 1.00236e-06 0.000154838
8.88093e-05 3.35905e-06 -0.000128858
3.35905e-06 0.000599123 -2.89949e-05
-0.000128858 -2.89949e-05 -0.000418816
-0.0011316 7.23941e-05 7.91277e-06
7.23941e-05 -0.000689118 -9.08923e-06
7.91277e-06 -9.08923e-06 -0.000829085
0.000975693 9.93316e-05 3.04792e-06
9.93316e-05 0.000300994 -3.2446e-06
3.04792e-06 -3.2446e-06 0.00018195
0.000778671 0.000180612 6.38302e-06
0.000180612 0.000273301 2.77135e-06
6.38302e-06 2.77135e-06 0.00015142
0.000777331 0.00020316 -5.03728e-06
0.00020316 0.000376428 -2.76058e-05
-5.03728e-06 -2.76058e-05 -0.000157152
0.000118212 0.000320708 1.5805e-05
0.000320708 -0.000317325 1.68491e-06
1.5805e-05 1.68491e-06 -0.000544752
0.000314779 7.07338e-05 0.000112693
7.07338e-05 0.00213948 7.15582e-06
0.000112693 7.15582e-06 0.000959138
0.00165015 -2.32977e-05 -5.86587e-06
-2.32977e-05 0.00055044 1.03444e-05
-5.86587e-06 1.03444e-05 -0.000180691
0.000770492 -1.78328e-05 2.66645e-06
-1.78328e-05 0.000156251 4.1681e-06
2.66645e-06 4.1681e-06 -9.65152e-05
0.00134977 -9.03028e-05 -3.83619e-05
-9.03028e-05 0.000811454 7.291e-06
-3.83619e-05 7.291e-06 0.00065188
0.000854652 -0.000153505 -2.30256e-05
-0.000153505 -0.000912451 -1.46935e-05
-2.30256e-05 -1.46935e-05 -0.000840085
0.00173149 -4.37443e-05 -7.95093e-05
-4.37443e-05 0.000401629 2.54195e-05
-7.95093e-05 2.54195e-05 -0.000531763
-0.00114192 -0.000796588 5.11583e-05
-0.000796588 -0.000522259 -5.62911e-05
5.11583e-05 -5.62911e-05 -0.00350305
-0.00339936 0.000829629 6.87432e-05
0.000829629 -0.00356473 -8.41457e-05
6.87432e-05 -8.41457e-05 -0.00280826
0.0015361 0.000490366 -0.0001021
0.000490366 0.00206358 9.87898e-05
-0.0001021 9.87898e-05 0.00184168
0.00200877 -0.000100163 -2.67915e-06
-0.000100163 0.00040303 1.54663e-06
-2.67915e-06 1.54663e-06 0.000684775
0.0015128 0.000152729 1.11615e-05
0.000152729 0.00222752 8.39396e-06
1.11615e-05 8.39396e-06 0.00151292
-0.00369875 0.000609686 3.17214e-05
0.000609686 -0.00118323 4.78217e-06
3.17214e-05 4.78217e-06 -0.00190308
0.00384047 -0.00081388 7.45406e-06
-0.00081388 0.00123623 -1.25302e-06
7.45406e-06 -1.25302e-06 0.000316389
0.00955202 -0.00011385 3.23493e-06
-0.00011385 0.00358385 -5.85669e-06
3.23493e-06 -5.85669e-06 0.00176551
0.00144088 -0.000337985 2.91234e-06
-0.000337985 0.000143222 2.03292e-05
2.91234e-06 2.03292e-05 0.000241917
-0.00694353 0.000238272 -0.000131696
0.000238272 -0.00336667 -1.2595e-06
-0.000131696 -1.2595e-06 -0.00379626
0.00886616 -1.82181e-05 -3.80295e-05
-1.82181e-05 0.0028183 1.83622e-05
-3.80295e-05 1.83622e-05 0.00134943
0.00500334 -0.000913591 -2.84913e-06
-0.000913591 0.000591937 2.97795e-06
-2.84913e-06 2.97795e-06 -0.00022348
0.000386941 -0.000172652 -2.05303e-05
-0.000172652 0.0001205 1.46089e-05
-2.05303e-05 1.46089e-05 -0.00011374
0.00166429 -0.000326677 -2.86345e-06
-0.000326677 0.000256877 9.54919e-07
-2.86345e-06 9.54919e-07 0.000263644
0.00260826 -0.000369954 1.61419e-05
-0.000369954 0.000545395 -1.61034e-06
1.61419e-05 -1.61034e-06 0.00055552
-0.000839986 -0.000116807 -5.57941e-06
-0.000116807 -0.000791025 4.92126e-07
-5.57941e-06 4.92126e-07 -0.00105841
0.00135029 -0.000357544 -3.18784e-06
-0.000357544 2.58389e-05 -7.16023e-07
-3.18784e-06 -7.16023e-07 -0.000178442
0.00211167 -0.000418922 1.42799e-06
-0.000418922 0.000271153 1.34391e-06
1.42799e-06 1.34391e-06 0.000109986
0.00153849 -0.000309779 -8.84468e-06
-0.000309779 0.000309536 -2.66164e-06
-8.84468e-06 -2.66164e-06 3.5873e-05
0.00149523 -0.000350353 9.52381e-07
-0.000350353 9.78223e-05 7.85116e-07
9.52381e-07 7.85116e-07 -0.000115116
0.00203772 -0.000346848 -1.8654e-06
-0.000346848 0.0002587 -3.4811e-06
-1.8654e-06 -3.4811e-06 0.000100215
0.00121101 -0.000284355 -6.33798e-06
-0.000284355 2.13481e-05 -1.36611e-07
-6.33798e-06 -1.36611e-07 -0.000229245
0.00165141 -0.000310606 -4.29291e-07
-0.000310606 0.000132532 4.46806e-07
-4.29291e-07 4.46806e-07 -6.13707e-05
0.00179227 -0.000274478 -7.659e-07
-0.000274478 0.000136965 -4.94162e-06
-7.659e-07 -4.94162e-06 -2.85658e-06
0.00157782 -0.000216405 -1.81935e-06
-0.000216405 4.94779e-05 -3.29396e-06
-1.81935e-06 -3.29396e-06 -8.54563e-05
0.00154658 -0.000242315 -4.58909e-07
-0.000242315 0.000119572 -2.4946e-06
-4.58909e-07 -2.4946e-06 -6.46818e-05
0.00151751 -0.000247197 4.21369e-07
-0.000247197 7.01405e-05 1.49839e-06
4.21369e-07 1.49839e-06 -9.9359e-05
0.00143041 -0.000255363 -3.47113e-06
-0.000255363 0.000123988 1.16095e-06
-3.47113e-06 1.16095e-06 -8.04516e-05
0.00154456 -0.00027584 2.32315e-06
-0.00027584 0.000168789 -6.95993e-07
2.32315e-06 -6.95993e-07 -4.92507e-05
0.00155369 -0.00028556 9.67058e-07
-0.00028556 0.000145779 2.45112e-06
9.67058e-07 2.45112e-06 -6.52249e-05
0.00117471 -0.000214482 1.32224e-06
-0.000214482 0.000160858 3.5939e-06
1.32224e-06 3.5939e-06 -2.79377e-05
0.00109745 -0.000229542 2.81371e-06
-0.000229542 4.475e-05 -1.07195e-06
2.81371e-06 -1.07195e-06 -0.000158746
0.00083901 -0.000234293 -9.4679e-07
-0.000234293 -0.000141135 -4.63836e-06
-9.4679e-07 -4.63836e-06 -0.000381578
0.000911266 -0.000158923 -1.19836e-06
-0.000158923 0.000114626 4.96291e-07
-1.19836e-06 4.96291e-07 -3.97303e-05
0.00109206 -0.000192855 -1.25805e-07
-0.000192855 0.000199512 -1.34374e-06
-1.25805e-07 -1.34374e-06 2.66048e-05
0.000807934 -0.000179409 -2.23834e-06
-0.000179409 1.47696e-05 -5.1513e-06
-2.23834e-06 -5.1513e-06 -0.00014885
0.000708153 -3.41315e-05 -2.11615e-07
-3.41315e-05 4.7102e-05 3.88159e-06
-2.11615e-07 3.88159e-06 -5.50467e-05
0.000923032 -0.000117394 8.41391e-07
-0.000117394 0.000169928 4.30366e-07
8.41391e-07 4.30366e-07 2.59449e-05
0.000646983 -0.000126364 -1.9523e-06
-0.000126364 1.07912e-05 1.46085e-06
-1.9523e-06 1.46085e-06 -0.00015072
0.000483487 7.54436e-05 1.99238e-06
7.54436e-05 -6.14815e-05 5.95362e-06
1.99238e-06 5.95362e-06 -9.90516e-05
0.000683233 -2.69806e-06 -5.38212e-07
-2.69806e-06 4.09478e-05 -4.40341e-07
-5.38212e-07 -4.40341e-07 -4.30559e-05
0.000875028 -6.78966e-05 -6.60035e-09
-6.78966e-05 0.000172817 -1.62935e-06
-6.60035e-09 -1.62935e-06 4.18584e-05
0.0023729 0.00011178 -8.94985e-06
0.00011178 0.00101898 1.35832e-06
-8.94985e-06 1.35832e-06 0.00101942
0.000587602 7.12806e-05 -1.28538e-07
7.12806e-05 -1.22954e-05 -1.41258e-07
-1.28538e-07 -1.41258e-07 -4.13224e-05
0.000708072 1.34849e-05 1.45757e-06
1.34849e-05 4.44113e-05 -2.95894e-06
1.45757e-06 -2.95894e-06 -1.90139e-05
0.00231274 9.09715e-05 2.11121e-06
9.09715e-05 0.000975114 1.79682e-07
2.11121e-06 1.79682e-07 0.000981307
0.000617874 6.31873e-05 -3.53852e-07
6.31873e-05 -6.58065e-06 -4.32644e-06
-3.53852e-07 -4.32644e-06 -2.98229e-05
0.00231127 8.25918e-05 2.75357e-05
8.25918e-05 0.000967334 -3.19509e-06
2.75357e-05 -3.19509e-06 0.00097561
0.00087551 7.67265e-05 -6.54364e-07
7.67265e-05 0.000142021 1.98134e-07
-6.54364e-07 1.98134e-07 3.69387e-05
0.00077107 2.86874e-05 -1.00895e-07
2.86874e-05 8.02823e-05 -2.8229e-07
-1.00895e-07 -2.8229e-07 -1.64395e-05
0.000786719 2.20326e-05 -2.25235e-07
2.20326e-05 0.000100319 -1.96753e-06
-2.25235e-07 -1.96753e-06 3.59544e-07
0.000684245 -2.03378e-05 -1.21442e-06
-2.03378e-05 1.37424e-05 -2.82336e-06
-1.21442e-06 -2.82336e-06 -4.53645e-05
0.000741887 1.42453e-05 6.00103e-07
1.42453e-05 6.59554e-05 4.67657e-08
6.00103e-07 4.67657e-08 -2.31393e-05
0.000697058 2.09033e-05 9.60989e-07
2.09033e-05 4.1763e-05 7.7403e-07
9.60989e-07 7.7403e-07 -5.35529e-05
0.000593202 -4.85882e-05 -1.658e-08
-4.85882e-05 -3.8051e-05 -4.81365e-06
-1.658e-08 -4.81365e-06 -6.10208e-05
0.00067353 -8.42295e-06 -1.17494e-07
-8.42295e-06 4.6311e-06 -4.53683e-08
-1.17494e-07 -4.53683e-08 -5.13584e-05
0.000744214 2.96147e-05 1.37139e-06
2.96147e-05 6.06109e-05 1.15649e-06
1.37139e-06 1.15649e-06 -2.1383e-05
0.00250131 -7.12535e-05 -2.91239e-05
-7.12535e-05 0.00106284 -4.04449e-06
-2.91239e-05 -4.04449e-06 0.00107297
0.000601688 -3.78151e-05 -3.28097e-07
-3.78151e-05 -4.12234e-05 -1.33705e-09
-3.28097e-07 -1.33705e-09 -6.05004e-05
0.000679922 1.74237e-06 9.72792e-07
1.74237e-06 7.47646e-06 2.38573e-06
9.72792e-07 2.38573e-06 -4.58059e-05
0.00238581 -5.86385e-05 -3.5064e-06
-5.86385e-05 0.000989492 1.86364e-07
-3.5064e-06 1.86364e-07 0.00100234
0.000618108 -3.05889e-05 1.04061e-07
-3.05889e-05 -3.7775e-05 4.24611e-06
1.04061e-07 4.24611e-06 -5.35913e-05
0.00227292 -4.52426e-05 1.74628e-05
-4.52426e-05 0.000918422 4.52136e-06
1.74628e-05 4.52136e-06 0.000934009
-0.00354918 -2.73096e-05 1.0509e-05
-2.73096e-05 0.000195457 3.93895e-05
1.0509e-05 3.93895e-05 -0.00122183
0.00252266 -5.37191e-05 1.08096e-06
-5.37191e-05 0.000915996 1.2182e-05
1.08096e-06 1.2182e-05 0.000140656
0.00108416 -5.42745e-05 -3.19127e-06
-5.42745e-05 0.000227279 -8.33237e-06
-3.19127e-06 -8.33237e-06 -3.1433e-05
0.000690608 4.34416e-05 -6.32028e-07
4.34416e-05 4.11261e-05 4.62952e-07
-6.32028e-07 4.62952e-07 -6.06399e-05
0.00131768 0.000181808 -7.62261e-07
0.000181808 0.000410801 7.36239e-07
-7.62261e-07 7.36239e-07 0.000277562
0.000735838 4.40252e-05 -2.02224e-06
4.40252e-05 7.44208e-05 -2.4121e-07
-2.02224e-06 -2.4121e-07 -3.65278e-05
0.000952589 -1.24504e-06 6.10769e-07
-1.24504e-06 0.000173977 -7.86642e-08
6.10769e-07 -7.86642e-08 8.46978e-05
0.00104146 7.22976e-05 1.62028e-06
7.22976e-05 0.000234901 5.09609e-07
1.62028e-06 5.09609e-07 0.000134398
0.000611039 1.48422e-05 2.67244e-07
1.48422e-05 -8.03432e-06 2.17198e-06
2.67244e-07 2.17198e-06 -0.000104909
0.000666822 2.68496e-05 -1.09437e-06
2.68496e-05 3.43472e-05 1.167e-07
-1.09437e-06 1.167e-07 -7.31299e-05
0.000773548 3.55826e-05 -1.19829e-07
3.55826e-05 8.98769e-05 -3.19732e-07
-1.19829e-07 -3.19732e-07 -1.89296e-05
0.000919871 7.53431e-05 3.67955e-07
7.53431e-05 0.000196369 -1.8706e-06
3.67955e-07 -1.8706e-06 6.56184e-05
0.000560404 0.000121159 3.60973e-06
0.000121159 -6.04614e-05 -6.10909e-06
3.60973e-06 -6.10909e-06 -0.000155654
0.000798041 5.29495e-05 3.63119e-07
5.29495e-05 0.000109037 -4.95492e-07
3.63119e-07 -4.95492e-07 4.11444e-06
0.000875957 7.26412e-05 7.0404e-07
7.26412e-05 0.000188764 1.60628e-06
7.0404e-07 1.60628e-06 8.98786e-05
-0.00521394 -0.000551773 -0.000191183
-0.000551773 -0.00180443 2.27402e-05
-0.000191183 2.27402e-05 -0.00240344
-0.00179827 -0.000404039 8.51075e-05
-0.000404039 0.000490985 3.76694e-05
8.51075e-05 3.76694e-05 -0.000388137
0.00295448 9.90912e-05 -7.96125e-05
9.90912e-05 0.00116062 -6.5829e-05
-7.96125e-05 -6.5829e-05 -0.000438661
-0.00671802 -0.00122953 0.000198883
-0.00122953 -0.00363003 0.00019322
0.000198883 0.00019322 -0.00174097
0.0088024 -0.000888471 -4.15259e-05
-0.000888471 0.00264867 4.81804e-05
-4.15259e-05 4.81804e-05 0.00272901
2.51376e-05 0.000673413 1.08158e-05
0.000673413 -0.000117455 -2.88647e-05
1.08158e-05 -2.88647e-05 -0.00318403
0.00380566 -6.84258e-05 -0.000142134
-6.84258e-05 0.000913815 6.14491e-05
-0.000142134 6.14491e-05 0.000199727
0.00288137 0.000238331 -2.28573e-05
0.000238331 0.000547412 1.2434e-05
-2.28573e-05 1.2434e-05 0.000230922
0.00690571 -0.00106648 -7.30284e-05
-0.00106648 0.00335132 3.82562e-05
-7.30284e-05 3.82562e-05 0.00356805
0.000987248 0.0004318 6.56838e-06
0.0004318 0.000701372 -5.622e-06
6.56838e-06 -5.622e-06 -0.00185871
0.00214054 0.000524159 -9.10681e-05
0.000524159 0.000614796 -7.10229e-05
-9.10681e-05 -7.10229e-05 5.65593e-06
0.00374791 0.000850555 -0.000162727
0.000850555 0.000668637 -7.73057e-05
-0.000162727 -7.73057e-05 -0.00141401
0.00204692 0.000458159 1.24931e-05
0.000458159 0.000500104 -1.67328e-05
1.24931e-05 -1.67328e-05 0.000317031
0.000741435 0.000195318 -5.09151e-06
0.000195318 9.23036e-05 1.34148e-06
-5.09151e-06 1.34148e-06 5.52914e-06
0.00106031 5.67791e-05 5.25929e-07
5.67791e-05 0.000293117 -2.27136e-06
5.25929e-07 -2.27136e-06 0.00021506
-0.000536865 0.000153859 -3.28259e-05
0.000153859 -0.000213147 -3.10316e-05
-3.28259e-05 -3.10316e-05 -0.000645567
0.00232459 0.000284852 -9.80646e-06
0.000284852 0.0010567 -9.63482e-06
-9.80646e-06 -9.63482e-06 0.000923464
0.00117937 0.000409118 1.02655e-05
0.000409118 0.000126955 -3.02221e-06
1.02655e-05 -3.02221e-06 -0.000100814
0.00269695 0.000628942 7.64868e-05
0.000628942 0.000272565 3.06028e-05
7.64868e-05 3.06028e-05 0.000229181
-0.0041213 -3.32857e-05 -0.000211694
-3.32857e-05 -0.00247759 -7.00588e-06
-0.000211694 -7.00588e-06 -0.00189895
-0.00137851 4.07045e-05 7.23275e-05
4.07045e-05 0.00139055 1.28272e-06
7.23275e-05 1.28272e-06 7.30403e-05
0.0016214 -4.86315e-05 -5.64736e-05
-4.86315e-05 0.000562726 1.21768e-05
-5.64736e-05 1.21768e-05 -3.84767e-05
0.00275084 -0.000206339 -5.31633e-05
-0.000206339 0.000712786 -3.05024e-05
-5.31633e-05 -3.05024e-05 0.000980414
0.00274188 -0.000778375 -3.91945e-05
-0.000778375 0.000439454 1.06714e-07
-3.91945e-05 1.06714e-07 -0.000282548
0.00190723 0.000105536 -2.56452e-05
0.000105536 0.00244676 2.90869e-05
-2.56452e-05 2.90869e-05 0.00179891
0.000564455 -0.000410996 0.000106273
-0.000410996 -0.000358666 -8.96461e-05
0.000106273 -8.96461e-05 -0.00271989
0.00885705 0.000667816 1.0354e-05
0.000667816 0.00430895 9.0875e-06
1.0354e-05 9.0875e-06 0.00398504
0.00222238 -0.000478974 -1.31872e-05
-0.000478974 0.000432233 4.86328e-06
-1.31872e-05 4.86328e-06 0.000407619
-0.00109353 0.000371131 2.29647e-05
0.000371131 -0.0005052 -8.21966e-06
2.29647e-05 -8.21966e-06 -0.000841734
0.00380041 -4.52102e-05 -2.67226e-05
-4.52102e-05 0.000230951 3.7827e-05
-2.67226e-05 3.7827e-05 -0.00172225
0.00582583 -0.000904083 -3.01186e-05
-0.000904083 0.00142494 1.10464e-05
-3.01186e-05 1.10464e-05 0.000608231
-0.000548134 -0.000218413 2.82633e-05
-0.000218413 -0.000825423 -6.88486e-06
2.82633e-05 -6.88486e-06 -0.00105889
0.00843846 -0.000282706 3.62679e-05
-0.000282706 0.00216332 -2.3978e-05
3.62679e-05 -2.3978e-05 0.00100893
0.0036378 -0.00039622 4.17229e-05
-0.00039622 0.000198655 -2.46846e-05
4.17229e-05 -2.46846e-05 -0.000233546
-0.000694076 -0.000183005 -2.10562e-05
-0.000183005 -0.00102967 6.26511e-06
-2.10562e-05 6.26511e-06 -0.000948403
0.000937193 -0.000285552 -4.56063e-06
-0.000285552 -0.000346445 -8.19909e-07
-4.56063e-06 -8.19909e-07 -0.000307243
0.00256445 -0.000383582 1.68834e-05
-0.000383582 0.00036802 -1.41305e-05
1.68834e-05 -1.41305e-05 0.000385154
0.00098456 -0.000326943 -1.01612e-05
-0.000326943 -0.000140053 -3.55192e-06
-1.01612e-05 -3.55192e-06 -0.00034683
0.00166473 -0.000386108 -8.13152e-07
-0.000386108 4.14954e-05 -3.32587e-07
-8.13152e-07 -3.32587e-07 -0.000110272
0.00207297 -0.000354424 -5.76369e-06
-0.000354424 0.000159675 -3.49499e-08
-5.76369e-06 -3.49499e-08 5.61084e-05
0.00130365 -0.000333379 -5.10716e-07
-0.000333379 9.82141e-06 1.08792e-06
-5.10716e-07 1.08792e-06 -0.000204359
0.0017673 -0.000329852 -2.33537e-06
-0.000329852 0.000116821 -5.21126e-07
-2.33537e-06 -5.21126e-07 -4.09957e-05
0.00181847 -0.000270596 -3.60047e-06
-0.000270596 5.71266e-05 -1.21504e-06
-3.60047e-06 -1.21504e-06 -4.79803e-05
0.00151005 -0.000298484 9.41199e-07
-0.000298484 5.38216e-05 4.08611e-06
9.41199e-07 4.08611e-06 -0.000137984
0.00170839 -0.000265496 -1.54106e-07
-0.000265496 9.55505e-05 3.25917e-07
-1.54106e-07 3.25917e-07 -4.24743e-05
0.00177794 -0.000224678 -1.1653e-06
-0.000224678 0.000101659 -1.93559e-06
-1.1653e-06 -1.93559e-06 -5.90553e-07
0.00179074 -0.000202707 -8.67127e-07
-0.000202707 0.000161996 -1.07422e-06
-8.67127e-07 -1.07422e-06 5.02082e-05
0.00158961 -0.000214406 -2.39415e-06
-0.000214406 5.67083e-05 2.66567e-06
-2.39415e-06 2.66567e-06 -7.44153e-05
0.00171791 -0.00021633 3.39539e-07
-0.00021633 0.000168926 -5.37869e-06
3.39539e-07 -5.37869e-06 2.06415e-05
0.00164858 -0.000238226 -3.30055e-06
-0.000238226 0.000198798 -1.45901e-06
-3.30055e-06 -1.45901e-06 1.68495e-05
0.00158264 -0.00024403 1.30571e-06
-0.00024403 0.000138064 4.97599e-07
1.30571e-06 4.97599e-07 -4.60343e-05
0.0014711 -0.000239383 1.75389e-07
-0.000239383 4.36086e-05 6.10179e-06
1.75389e-07 6.10179e-06 -0.000123416
0.00113307 -0.000214053 -5.53518e-06
-0.000214053 2.20346e-05 2.66169e-06
-5.53518e-06 2.66169e-06 -0.000166342
0.00125046 -0.000240429 9.17557e-07
-0.000240429 2.77051e-05 -3.82491e-07
9.17557e-07 -3.82491e-07 -0.000173593
0.00156992 -0.000274034 3.77599e-06
-0.000274034 0.000185912 -3.97504e-07
3.77599e-06 -3.97504e-07 -2.82946e-05
0.00107865 -0.00018425 -1.47753e-06
-0.00018425 0.000154591 2.7948e-06
-1.47753e-06 2.7948e-06 -1.54597e-05
0.00123893 -0.000217376 9.3353e-07
-0.000217376 0.000192268 6.62723e-07
9.3353e-07 6.62723e-07 3.65446e-06
0.000355289 -0.000173544 -2.93569e-07
-0.000173544 -0.000359525 -6.23275e-06
-2.93569e-07 -6.23275e-06 -0.000555864
0.000748274 -9.59412e-05 -3.98426e-06
-9.59412e-05 4.56518e-05 3.31143e-06
-3.98426e-06 3.31143e-06 -7.14735e-05
0.0010446 -0.000170684 4.66102e-08
-0.000170684 0.000187017 -6.41631e-07
4.66102e-08 -6.41631e-07 3.09761e-05
0.00114655 -0.000196182 -1.61189e-06
-0.000196182 0.000225309 -2.44178e-06
-1.61189e-06 -2.44178e-06 5.24382e-05
0.000474806 4.16216e-05 4.55349e-07
4.16216e-05 -7.54984e-05 7.73908e-06
4.55349e-07 7.73908e-06 -0.000118798
0.000745694 -5.41694e-05 3.75462e-07
-5.41694e-05 7.06831e-05 3.32047e-07
3.75462e-07 3.32047e-07 -3.59712e-05
0.0010134 -0.00012646 8.59541e-07
-0.00012646 0.000220991 -5.8239e-08
8.59541e-07 -5.8239e-08 7.41777e-05
0.00260828 0.000116676 -4.03153e-05
0.000116676 0.00115766 2.30835e-06
-4.03153e-05 2.30835e-06 0.00115701
0.000563953 6.23368e-05 -1.32079e-07
6.23368e-05 -2.07419e-05 -4.01043e-07
-1.32079e-07 -4.01043e-07 -5.60428e-05
0.000779473 -4.43864e-05 2.57665e-06
-4.43864e-05 9.36906e-05 -3.97596e-06
2.57665e-06 -3.97596e-06 7.48631e-06
0.00165393 8.36761e-05 1.73079e-05
8.36761e-05 0.000602755 -2.04802e-07
1.73079e-05 -2.04802e-07 0.000602304
0.00062368 6.86849e-05 -1.25814e-06
6.86849e-05 7.72573e-06 -5.22697e-06
-1.25814e-06 -5.22697e-06 -2.09346e-05
0.00239457 9.35067e-05 3.32307e-05
9.35067e-05 0.00102274 -2.74095e-06
3.32307e-05 -2.74095e-06 0.00102841
0.000896917 9.10041e-05 9.25504e-07
9.10041e-05 0.00014769 5.59449e-07
9.25504e-07 5.59449e-07 3.79153e-05
0.000719437 3.64278e-05 -2.38378e-07
3.64278e-05 4.79061e-05 4.8714e-07
-2.38378e-07 4.8714e-07 -4.972e-05
0.000729372 -4.08612e-06 2.63408e-08
-4.08612e-06 6.23209e-05 -1.68568e-06
2.63408e-08 -1.68568e-06 -3.68595e-05
0.000873048 5.02512e-05 6.78816e-07
5.02512e-05 0.000139688 6.35527e-07
6.78816e-07 6.35527e-07 4.02708e-05
0.000738317 -1.98664e-06 2.74993e-07
-1.98664e-06 6.18204e-05 4.23102e-09
2.74993e-07 4.23102e-09 -2.93791e-05
0.000677782 -2.09531e-05 -1.24924e-06
-2.09531e-05 1.46216e-05 -3.24708e-06
-1.24924e-06 -3.24708e-06 -4.92236e-05
0.000590096 -5.59629e-05 8.49665e-08
-5.59629e-05 -3.10905e-05 -5.22966e-06
8.49665e-08 -5.22966e-06 -5.71129e-05
0.000668305 -1.68725e-05 1.86859e-07
-1.68725e-05 5.29694e-06 -8.83983e-08
1.86859e-07 -8.83983e-08 -5.38656e-05
0.000695729 -1.69359e-05 1.64233e-07
-1.69359e-05 2.86177e-05 1.35132e-06
1.64233e-07 1.35132e-06 -5.17145e-05
0.00255366 -8.21311e-05 -3.47212e-05
-8.21311e-05 0.00109959 -3.63333e-06
-3.47212e-05 -3.63333e-06 0.00110755
0.000588186 -4.46217e-05 -3.34618e-07
-4.46217e-05 -4.18641e-05 3.98759e-08
-3.34618e-07 3.98759e-08 -6.41815e-05
0.000671326 -8.43651e-07 1.75443e-06
-8.43651e-07 4.34569e-06 2.50698e-06
1.75443e-06 2.50698e-06 -5.19805e-05
0.00247803 -7.05148e-05 -3.43747e-06
-7.05148e-05 0.00104881 2.16308e-07
-3.43747e-06 2.16308e-07 0.00105915
0.000604322 -3.67267e-05 3.48984e-07
-3.67267e-05 -3.99498e-05 4.47457e-06
3.48984e-07 4.47457e-06 -5.90581e-05
0.00236236 -5.76746e-05 2.15189e-05
-5.76746e-05 0.000975215 4.37413e-06
2.15189e-05 4.37413e-06 0.000988387
0.000627428 0.000243153 -6.08363e-05
0.000243153 0.00113125 5.14722e-05
-6.08363e-05 5.14722e-05 0.000351625
-0.00118108 -0.000113849 5.26515e-06
-0.000113849 0.00104357 1.15766e-05
5.26515e-06 1.15766e-05 -0.000292717
0.00249085 -7.5935e-05 -5.51794e-05
-7.5935e-05 0.00102258 -1.02336e-05
-5.51794e-05 -1.02336e-05 0.000258604
0.000621302 1.33834e-05 1.53661e-06
1.33834e-05 1.31488e-09 -7.34648e-08
1.53661e-06 -7.34648e-08 -9.77032e-05
0.000710186 2.21029e-05 7.83874e-07
2.21029e-05 5.80566e-05 6.20266e-07
7.83874e-07 6.20266e-07 -5.14664e-05
0.00106043 0.000156089 -7.28642e-07
0.000156089 0.000271471 4.79365e-07
-7.28642e-07 4.79365e-07 0.000143403
0.00130345 0.000206249 9.45199e-07
0.000206249 0.000365983 -4.21e-07
9.45199e-07 -4.21e-07 0.000211331
0.000927331 0.000115404 -3.67283e-06
0.000115404 0.000209783 -1.54039e-06
-3.67283e-06 -1.54039e-06 7.3458e-05
0.000869269 7.45966e-05 1.5837e-06
7.45966e-05 0.000148314 1.62532e-06
1.5837e-06 1.62532e-06 3.86464e-05
0.000762066 4.25549e-05 1.98102e-06
4.25549e-05 8.39803e-05 1.64709e-06
1.98102e-06 1.64709e-06 -2.45605e-05
0.000706551 9.08767e-05 -2.01496e-06
9.08767e-05 7.61232e-05 -1.95348e-06
-2.01496e-06 -1.95348e-06 -4.87741e-05
-0.000411388 6.89583e-05 -8.03255e-07
6.89583e-05 -0.000573193 -1.05625e-07
-8.03255e-07 -1.05625e-07 -0.000708787
0.00111838 0.000187853 4.35461e-07
0.000187853 0.000212921 -4.31022e-06
4.35461e-07 -4.31022e-06 0.000101342
0.00225788 0.000408728 3.63282e-06
0.000408728 0.000544613 -1.25566e-05
3.63282e-06 -1.25566e-05 0.000362741
0.000615314 0.00012667 -3.56084e-06
0.00012667 -5.76587e-06 -4.54086e-07
-3.56084e-06 -4.54086e-07 -0.000100991
0.000657881 2.541e-05 8.74193e-07
2.541e-05 4.36136e-05 -1.1783e-06
8.74193e-07 -1.1783e-06 -4.73879e-05
0.0115872 0.000306923 -6.80568e-05
0.000306923 0.00359854 1.92212e-05
-6.80568e-05 1.92212e-05 0.00229709
-0.0012992 -0.000457043 -0.000104193
-0.000457043 0.000448595 -2.65807e-05
-0.000104193 -2.65807e-05 -0.000329303
-0.000129605 -0.000550923 2.28903e-05
-0.000550923 0.000774783 -3.00071e-05
2.28903e-05 -3.00071e-05 -0.000147783
-0.00363278 -0.000487389 2.88105e-06
-0.000487389 -0.0015319 7.22104e-05
2.88105e-06 7.22104e-05 -0.00136735
0.00966026 0.000277696 4.25478e-05
0.000277696 0.00473564 -1.04034e-05
4.25478e-05 -1.04034e-05 0.00175552
0.00164703 0.000285886 -3.74143e-05
0.000285886 6.04097e-05 -6.00538e-06
-3.74143e-05 -6.00538e-06 -0.000143581
0.00144407 0.000497941 -3.14975e-05
0.000497941 0.000152831 -1.27988e-05
-3.14975e-05 -1.27988e-05 -0.000334301
0.00853387 0.000207107 3.7993e-05
0.000207107 0.00298078 1.53143e-05
3.7993e-05 1.53143e-05 0.0012736
0.00484357 0.000867049 -2.17442e-06
0.000867049 0.000831207 -3.26836e-05
-2.17442e-06 -3.26836e-05 0.000252661
0.00205133 0.000517645 1.56882e-06
0.000517645 0.000296993 6.87482e-06
1.56882e-06 6.87482e-06 0.000133621
0.000938322 0.000338003 4.35992e-06
0.000338003 2.80642e-05 -3.80607e-06
4.35992e-06 -3.80607e-06 -0.000152166
0.00100868 0.000192316 -1.46708e-05
0.000192316 0.000244199 9.72131e-06
-1.46708e-05 9.72131e-06 0.000160305
0.002054 0.000497052 -2.84455e-05
0.000497052 0.000448413 -1.3933e-05
-2.84455e-05 -1.3933e-05 0.000237236
0.00224024 0.000596813 -1.00587e-05
0.000596813 6.21703e-05 1.49132e-05
-1.00587e-05 1.49132e-05 -1.9078e-05
0.000430004 -0.00023244 -2.15845e-05
-0.00023244 -0.00236476 -7.17376e-06
-2.15845e-05 -7.17376e-06 -0.00282064
0.00235642 -0.00021777 4.62405e-07
-0.00021777 0.0013751 -1.19961e-05
4.62405e-07 -1.19961e-05 0.00134341
-0.00314483 6.23063e-06 7.01428e-05
6.23063e-06 0.000679459 -6.6471e-06
7.01428e-05 -6.6471e-06 -0.000800206
0.00249871 -0.000555334 -4.53465e-05
-0.000555334 0.000506504 3.91824e-06
-4.53465e-05 3.91824e-06 0.00041284
0.00367134 -0.000821809 1.39697e-05
-0.000821809 0.000874563 -1.46934e-05
1.39697e-05 -1.46934e-05 -0.000265813
0.0011779 -0.000213358 0.000104363
-0.000213358 0.00125346 1.59927e-05
0.000104363 1.59927e-05 0.000712684
0.0103531 -1.41401e-06 -8.33068e-05
-1.41401e-06 0.00369362 4.36536e-05
-8.33068e-05 4.36536e-05 0.00197609
0.000698063 -0.000283362 -1.57536e-05
-0.000283362 -0.000293937 -1.61833e-06
-1.57536e-05 -1.61833e-06 -0.000423675
0.00740655 6.42804e-05 -1.37808e-05
6.42804e-05 0.00158554 2.35744e-05
-1.37808e-05 2.35744e-05 0.000651957
0.00443791 -0.00048845 6.03181e-05
-0.00048845 0.000349718 -3.28913e-07
6.03181e-05 -3.28913e-07 -0.000341943
0.00164376 -0.000273742 2.51576e-05
-0.000273742 0.000192883 -6.61069e-06
2.51576e-05 -6.61069e-06 -8.17289e-05
0.00305864 -0.000144596 -7.34541e-05
-0.000144596 0.000310826 -1.17029e-05
-7.34541e-05 -1.17029e-05 4.34999e-05
-0.000769856 -0.00019687 -1.85983e-05
-0.00019687 -0.00126763 4.51318e-06
-1.85983e-05 4.51318e-06 -0.00119313
0.00153502 -0.000338636 6.85658e-07
-0.000338636 -0.000160329 -8.51028e-07
6.85658e-07 -8.51028e-07 -0.00014893
0.00196952 -0.00026168 6.67613e-06
-0.00026168 -1.72763e-05 -5.62898e-06
6.67613e-06 -5.62898e-06 1.03656e-05
0.00142332 -0.000368463 -1.0579e-06
-0.000368463 -7.91175e-05 4.74973e-08
-1.0579e-06 4.74973e-08 -0.00022567
0.00180207 -0.000328573 -1.50302e-06
-0.000328573 3.70826e-05 -9.71229e-08
-1.50302e-06 -9.71229e-08 -6.40663e-05
0.00202377 -0.00024498 -2.20169e-06
-0.00024498 8.49792e-05 1.55387e-06
-2.20169e-06 1.55387e-06 3.61149e-05
0.00147131 -0.000309917 -1.9415e-06
-0.000309917 -3.76742e-05 2.77001e-06
-1.9415e-06 2.77001e-06 -0.00019452
0.00182095 -0.000268864 4.96674e-07
-0.000268864 5.96416e-05 1.26685e-06
4.96674e-07 1.26685e-06 -4.50597e-05
0.00178009 -0.000223106 -8.59904e-07
-0.000223106 3.97301e-05 9.64379e-07
-8.59904e-07 9.64379e-07 -4.0108e-05
0.00162769 -0.000257165 2.00782e-06
-0.000257165 5.51767e-05 4.85151e-06
2.00782e-06 4.85151e-06 -8.11663e-05
0.00172854 -0.000223833 6.52403e-08
-0.000223833 7.47766e-05 1.21072e-06
6.52403e-08 1.21072e-06 -2.83416e-05
0.00194914 -0.000215202 9.91905e-07
-0.000215202 0.000221089 -2.40133e-07
9.91905e-07 -2.40133e-07 0.000126556
0.00172094 -0.000202735 -3.6405e-06
-0.000202735 0.00011657 3.28726e-06
-3.6405e-06 3.28726e-06 7.41893e-06
0.00175038 -0.000202893 2.5336e-06
-0.000202893 0.000167498 -3.31938e-06
2.5336e-06 -3.31938e-06 4.17271e-05
0.00160275 -0.000213006 3.78403e-07
-0.000213006 6.44187e-05 7.48239e-06
3.78403e-07 7.48239e-06 -6.30321e-05
0.00171175 -0.000217051 7.95764e-07
-0.000217051 0.000166082 -8.5398e-07
7.95764e-07 -8.5398e-07 1.73199e-05
0.00163113 -0.000206163 -1.75752e-06
-0.000206163 0.000163114 -2.69334e-06
-1.75752e-06 -2.69334e-06 4.93528e-06
0.00135469 -0.000207845 -7.10861e-06
-0.000207845 8.22124e-05 4.25284e-07
-7.10861e-06 4.25284e-07 -9.02886e-05
0.00167552 -0.000240445 6.55206e-07
-0.000240445 0.000215953 -6.8152e-07
6.55206e-07 -6.8152e-07 3.29862e-05
0.00162327 -0.000246255 1.95159e-06
-0.000246255 0.000159634 3.66164e-06
1.95159e-06 3.66164e-06 -2.43647e-05
0.00130739 -0.000206918 -5.21639e-06
-0.000206918 0.00019521 3.339e-06
-5.21639e-06 3.339e-06 2.12118e-05
0.00120258 -0.000218446 -1.27263e-06
-0.000218446 6.05024e-05 1.03069e-06
-1.27263e-06 1.03069e-06 -0.000128036
0.00109649 -0.00022743 3.83033e-06
-0.00022743 -5.45576e-05 -1.61194e-06
3.83033e-06 -1.61194e-06 -0.000253013
0.000746758 -0.000116723 -4.68805e-06
-0.000116723 8.84003e-06 4.24188e-06
-4.68805e-06 4.24188e-06 -0.000118315
0.00110073 -0.000186389 7.45692e-07
-0.000186389 0.000163317 -4.71162e-08
7.45692e-07 -4.71162e-08 -6.75178e-06
0.00128281 -0.00021911 1.88579e-06
-0.00021911 0.000212866 -2.64902e-06
1.88579e-06 -2.64902e-06 2.44313e-05
0.000469246 -1.70208e-05 -6.66465e-06
-1.70208e-05 -9.84291e-05 8.9115e-06
-6.66465e-06 8.9115e-06 -0.000147709
0.00081297 -0.000107634 -1.39027e-07
-0.000107634 8.15145e-05 1.54056e-07
-1.39027e-07 1.54056e-07 -3.72028e-05
0.00111208 -0.000173157 1.09354e-06
-0.000173157 0.000221949 -1.64872e-06
1.09354e-06 -1.64872e-06 6.59853e-05
0.00304262 0.000136085 -5.22095e-05
0.000136085 0.00140879 2.21966e-06
-5.22095e-05 2.21966e-06 0.0014031
0.000566384 2.28045e-05 4.22524e-07
2.28045e-05 -2.82282e-05 -4.02502e-07
4.22524e-07 -4.02502e-07 -7.06632e-05
0.000819576 -9.49327e-05 3.70539e-06
-9.49327e-05 0.000110628 -3.25293e-06
3.70539e-06 -3.25293e-06 1.58717e-06
0.00273271 0.000117161 3.61027e-06
0.000117161 0.00122727 2.842e-07
3.61027e-06 2.842e-07 0.00122667
0.000644483 5.21393e-05 1.70418e-06
5.21393e-05 2.28374e-05 -6.35705e-06
1.70418e-06 -6.35705e-06 -1.21068e-05
0.00254307 0.000103746 4.24041e-05
0.000103746 0.00111355 -2.36044e-06
4.24041e-05 -2.36044e-06 0.00111673
0.000961645 0.000166608 1.03599e-06
0.000166608 0.000161588 -1.43256e-06
1.03599e-06 -1.43256e-06 1.81533e-05
0.00082641 0.000119073 6.83877e-07
0.000119073 0.000114957 -8.92077e-08
6.83877e-07 -8.92077e-08 -7.73765e-07
0.000609192 1.11383e-05 -7.43076e-07
1.11383e-05 -1.08563e-05 -8.66552e-07
-7.43076e-07 -8.66552e-07 -0.000116161
0.000553112 4.2831e-06 4.41681e-07
4.2831e-06 -4.75154e-05 6.38113e-07
4.41681e-07 6.38113e-07 -0.000141173
0.000657582 -1.73523e-05 -8.7212e-08
-1.73523e-05 1.69728e-05 2.73366e-07
-8.7212e-08 2.73366e-07 -7.8931e-05
0.000662881 -1.97027e-05 -1.29585e-06
-1.97027e-05 1.05512e-05 -3.43571e-06
-1.29585e-06 -3.43571e-06 -6.11533e-05
0.000681533 -1.94121e-05 1.93132e-07
-1.94121e-05 2.42151e-05 1.66502e-06
1.93132e-07 1.66502e-06 -6.21955e-05
0.000653016 -2.5349e-05 3.3971e-07
-2.5349e-05 1.93232e-06 -1.90592e-07
3.3971e-07 -1.90592e-07 -6.20975e-05
0.000588969 -6.40717e-05 3.09183e-07
-6.40717e-05 -2.17891e-05 -5.72573e-06
3.09183e-07 -5.72573e-06 -5.14517e-05
0.00259011 -9.26882e-05 -3.97251e-05
-9.26882e-05 0.00112744 -3.14026e-06
-3.97251e-05 -3.14026e-06 0.0011333
0.000579463 -5.48865e-05 -1.41748e-07
-5.48865e-05 -3.77598e-05 4.74202e-08
-1.41748e-07 4.74202e-08 -6.34532e-05
0.000644157 -1.46668e-05 1.97509e-06
-1.46668e-05 -7.72454e-06 2.77679e-06
1.97509e-06 2.77679e-06 -6.69195e-05
0.00254841 -8.17232e-05 -3.19333e-06
-8.17232e-05 0.00109606 2.43932e-07
-3.19333e-06 2.43932e-07 0.00110404
0.000588155 -4.26437e-05 6.07234e-07
-4.26437e-05 -4.23175e-05 4.73731e-06
6.07234e-07 4.73731e-06 -6.43494e-05
0.0024488 -6.95817e-05 2.66597e-05
-6.95817e-05 0.00103126 4.16305e-06
2.66597e-05 4.16305e-06 0.00104187
0.00987922 0.000350186 0.000135143
0.000350186 0.00271407 6.05961e-05
0.000135143 6.05961e-05 0.00176907
-0.00232594 -0.000417679 -6.94866e-05
-0.000417679 -0.00150762 -6.7238e-06
-6.94866e-05 -6.7238e-06 -0.00163766
-0.00314843 6.80521e-05 -4.33977e-05
6.80521e-05 5.48632e-05 -2.3609e-05
-4.33977e-05 -2.3609e-05 -0.00155698
0.000680133 -5.21009e-06 3.51917e-06
-5.21009e-06 3.67404e-05 1.97232e-06
3.51917e-06 1.97232e-06 -6.98789e-05
0.000806181 0.000141483 -6.0549e-07
0.000141483 0.000132947 1.31436e-06
-6.0549e-07 1.31436e-06 9.63435e-06
0.0011055 0.00013274 4.33992e-07
0.00013274 0.000307389 -1.01829e-08
4.33992e-07 -1.01829e-08 0.00017096
0.00108849 0.000187886 -1.91235e-06
0.000187886 0.000247997 2.43335e-07
-1.91235e-06 2.43335e-07 9.72815e-05
0.00150237 0.000233605 1.55946e-05
0.000233605 0.000425952 -8.71162e-07
1.55946e-05 -8.71162e-07 0.000244161
0.000365678 0.000130587 -1.55046e-06
0.000130587 -0.000131196 -1.65142e-06
-1.55046e-06 -1.65142e-06 -0.000276246
0.000518882 9.45395e-05 -1.32461e-06
9.45395e-05 -2.32091e-05 -1.42073e-06
-1.32461e-06 -1.42073e-06 -0.000146503
0.000271191 0.000127899 3.40354e-07
0.000127899 -0.000201654 1.09542e-06
3.40354e-07 1.09542e-06 -0.000350496
0.00103133 0.000180533 -1.17979e-06
0.000180533 0.000171606 2.40758e-07
-1.17979e-06 2.40758e-07 5.57105e-05
0.000230784 0.000174895 2.32989e-06
0.000174895 -0.000367485 -1.02864e-06
2.32989e-06 -1.02864e-06 -0.000513
0.00314792 0.00043776 -3.47329e-06
0.00043776 0.0010292 -4.33013e-06
-3.47329e-06 -4.33013e-06 0.000863538
0.00188929 0.000417487 -3.48189e-06
0.000417487 0.000230652 1.85344e-06
-3.48189e-06 1.85344e-06 6.64571e-05
0.00158653 0.000359127 4.35792e-06
0.000359127 0.000207858 -3.00342e-06
4.35792e-06 -3.00342e-06 4.04844e-05
0.000537875 0.000134785 -3.65787e-06
0.000134785 -2.88914e-05 5.51092e-06
-3.65787e-06 5.51092e-06 -0.000124628
0.00380951 0.000332587 -3.35067e-06
0.000332587 -1.46742e-06 1.14653e-05
-3.35067e-06 1.14653e-05 -0.000156776
0.00693356 0.000217716 3.44302e-05
0.000217716 0.00140453 2.81289e-05
3.44302e-05 2.81289e-05 4.62348e-05
0.00601608 -0.000914796 1.95232e-05
-0.000914796 0.00322302 -5.34403e-05
1.95232e-05 -5.34403e-05 0.00294577
0.0048961 0.000646675 0.000301796
0.000646675 0.00109869 9.82631e-05
0.000301796 9.82631e-05 -0.00150937
0.0013817 0.000475274 2.34229e-05
0.000475274 -0.000104865 2.51663e-05
2.34229e-05 2.51663e-05 -0.000215845
0.00302806 0.000678642 -7.22262e-05
0.000678642 3.57576e-05 -2.34409e-05
-7.22262e-05 -2.34409e-05 -0.000316881
0.00318293 0.000586416 4.92027e-05
0.000586416 0.000537494 2.38521e-05
4.92027e-05 2.38521e-05 0.000550373
0.00258151 0.000551734 3.14319e-06
0.000551734 0.000518981 7.06822e-06
3.14319e-06 7.06822e-06 0.000373788
0.00067559 0.000297135 -3.76214e-06
0.000297135 -6.81625e-05 1.11962e-05
-3.76214e-06 1.11962e-05 -0.000238971
0.00275401 0.000652347 -9.07424e-05
0.000652347 0.000292866 -4.11279e-05
-9.07424e-05 -4.11279e-05 0.000164942
0.00325326 -0.000174567 -0.000117513
-0.000174567 0.000549156 4.82343e-06
-0.000117513 4.82343e-06 0.000200089
0.00951904 -0.000186217 4.56063e-06
-0.000186217 0.00297903 -3.69893e-06
4.56063e-06 -3.69893e-06 0.00231809
-0.00783345 -0.000282715 0.000227337
-0.000282715 -0.00419321 -2.04436e-06
0.000227337 -2.04436e-06 -0.00402082
0.00141796 -0.000337806 -3.42204e-05
-0.000337806 -2.44347e-05 8.81407e-06
-3.42204e-05 8.81407e-06 -0.000102966
0.00576313 -0.000566969 9.08086e-05
-0.000566969 0.00113827 1.20965e-05
9.08086e-05 1.20965e-05 0.000430315
0.00142954 -0.000389807 6.87696e-05
-0.000389807 -0.00146523 5.32459e-05
6.87696e-05 5.32459e-05 -0.00244139
0.00125335 -0.000225484 1.7604e-05
-0.000225484 -3.08029e-05 -7.70334e-07
1.7604e-05 -7.70334e-07 -0.000213117
0.00218323 -4.54286e-05 -3.6573e-06
-4.54286e-05 -0.000283491 6.48363e-06
-3.6573e-06 6.48363e-06 -0.000534052
0.00362832 -0.000241569 1.51431e-05
-0.000241569 0.000931003 -4.41916e-06
1.51431e-05 -4.41916e-06 0.000902272
0.00323857 -3.69978e-05 6.31313e-05
-3.69978e-05 0.000715093 -3.67899e-06
6.31313e-05 -3.67899e-06 0.000694161
0.000346945 -0.000289865 -7.90498e-06
-0.000289865 -0.000769187 4.46314e-06
-7.90498e-06 4.46314e-06 -0.00075998
0.00174137 -0.000262161 -6.08269e-07
-0.000262161 -0.000134364 1.00812e-06
-6.08269e-07 1.00812e-06 -0.000116047
0.00170618 -0.000153717 7.84305e-06
-0.000153717 -0.00013451 -6.97445e-07
7.84305e-06 -6.97445e-07 -0.000100296
0.00157332 -0.000307348 4.48868e-06
-0.000307348 -7.09432e-05 -6.99793e-07
4.48868e-06 -6.99793e-07 -0.000168624
0.0019068 -0.000241809 2.13726e-06
-0.000241809 3.06233e-05 9.04534e-07
2.13726e-06 9.04534e-07 -2.16225e-05
0.00186567 -0.000177291 8.16962e-07
-0.000177291 6.90733e-05 1.78486e-06
8.16962e-07 1.78486e-06 2.56224e-05
0.00178972 -0.000266231 7.11377e-06
-0.000266231 4.27032e-05 3.09155e-06
7.11377e-06 3.09155e-06 -6.1568e-05
0.00184258 -0.000223439 1.11399e-06
-0.000223439 8.16451e-05 4.3904e-07
1.11399e-06 4.3904e-07 1.69227e-06
0.00198574 -0.00018963 -5.35485e-07
-0.00018963 0.000215624 1.05342e-06
-5.35485e-07 1.05342e-06 0.000135981
0.00167908 -0.000222224 1.97717e-06
-0.000222224 4.84822e-05 3.8302e-06
1.97717e-06 3.8302e-06 -5.53731e-05
0.00178377 -0.000209565 -2.49118e-08
-0.000209565 0.000133137 5.23586e-07
-2.49118e-08 5.23586e-07 3.75653e-05
0.00164587 -0.000194749 4.17524e-06
-0.000194749 8.60165e-05 -1.90123e-06
4.17524e-06 -1.90123e-06 -2.45349e-05
0.00165264 -0.000202878 -3.56605e-06
-0.000202878 7.23188e-05 6.99643e-06
-3.56605e-06 6.99643e-06 -3.42194e-05
0.00180306 -0.000203704 -1.76493e-06
-0.000203704 0.000197018 5.76428e-09
-1.76493e-06 5.76428e-09 7.42139e-05
0.00169748 -0.000188551 7.90357e-07
-0.000188551 0.000186283 -1.66485e-06
7.90357e-07 -1.66485e-06 4.35493e-05
0.00170723 -0.000217624 1.32221e-06
-0.000217624 0.000163991 3.18291e-06
1.32221e-06 3.18291e-06 1.47978e-05
0.00167639 -0.00020843 8.13269e-07
-0.00020843 0.000189684 -7.29546e-07
8.13269e-07 -7.29546e-07 3.06185e-05
0.00161581 -0.000194015 -3.31944e-06
-0.000194015 0.00021023 -2.50134e-07
-3.31944e-06 -2.50134e-07 5.33631e-05
0.00103332 -0.000177515 -8.9499e-06
-0.000177515 -3.48288e-05 1.82969e-06
-8.9499e-06 1.82969e-06 -0.000194403
0.00153442 -0.000219561 -1.44546e-06
-0.000219561 0.000185905 2.84078e-08
-1.44546e-06 2.84078e-08 1.18648e-05
0.00170419 -0.000242602 4.21591e-06
-0.000242602 0.000234404 -3.86516e-08
4.21591e-06 -3.86516e-08 5.04107e-05
0.00092135 -0.000144515 -7.06465e-06
-0.000144515 4.83531e-05 5.86806e-06
-7.06465e-06 5.86806e-06 -8.76971e-05
0.00116565 -0.00019535 6.64356e-07
-0.00019535 0.000115055 1.03063e-06
6.64356e-07 1.03063e-06 -5.68636e-05
0.00128746 -0.000223842 2.84363e-06
-0.000223842 0.000106936 -5.05178e-07
2.84363e-06 -5.05178e-07 -8.17639e-05
0.000468727 -4.80178e-05 -1.0143e-05
-4.80178e-05 -0.000110829 1.01165e-05
-1.0143e-05 1.01165e-05 -0.000170255
0.000869783 -0.000129917 5.26145e-08
-0.000129917 7.87333e-05 -2.13393e-07
5.26145e-08 -2.13393e-07 -5.05635e-05
0.00112567 -0.000188786 3.15633e-06
-0.000188786 0.00017389 -2.8898e-06
3.15633e-06 -2.8898e-06 3.73307e-06
0.00361587 0.000147105 -8.01805e-05
0.000147105 0.00173629 2.54075e-06
-8.01805e-05 2.54075e-06 0.00172743
0.000598432 -2.42506e-05 4.30743e-07
-2.42506e-05 -2.72473e-05 -2.27079e-07
4.30743e-07 -2.27079e-07 -7.80119e-05
0.000902438 -0.000118777 5.11004e-06
-0.000118777 0.000130504 -3.61621e-06
5.11004e-06 -3.61621e-06 1.03749e-05
0.00321807 0.000124939 5.42984e-06
0.000124939 0.00150532 2.5999e-07
5.42984e-06 2.5999e-07 0.00150235
0.000666624 1.24746e-05 5.56596e-06
1.24746e-05 2.52307e-05 -7.4741e-06
5.56596e-06 -7.4741e-06 -1.67882e-05
0.00286716 0.000107084 6.5652e-05
0.000107084 0.00130098 -2.44803e-06
6.5652e-05 -2.44803e-06 0.00130302
0.00108753 0.000188708 -5.32404e-07
0.000188708 0.000196089 -5.1878e-06
-5.32404e-07 -5.1878e-06 2.75675e-05
0.00118109 0.00018399 5.16117e-07
0.00018399 0.00028769 1.87686e-07
5.16117e-07 1.87686e-07 0.000141915
0.000788468 0.000104167 -1.58363e-06
0.000104167 7.23094e-05 -2.31895e-06
-1.58363e-06 -2.31895e-06 -5.32773e-05
0.000728648 0.000135462 -1.33733e-07
0.000135462 6.73789e-05 3.74161e-07
-1.33733e-07 3.74161e-07 -5.33947e-05
0.000620295 2.98196e-05 -5.14362e-07
2.98196e-05 -4.21972e-06 -2.16771e-07
-5.14362e-07 -2.16771e-07 -0.000112875
0.000728254 3.7512e-05 -2.34326e-06
3.7512e-05 5.6534e-05 -3.10104e-06
-2.34326e-06 -3.10104e-06 -3.3232e-05
0.000591232 -3.19824e-05 3.04249e-07
-3.19824e-05 -2.24869e-05 1.53698e-06
3.04249e-07 1.53698e-06 -0.000116971
0.000653903 -2.16973e-05 3.24362e-07
-2.16973e-05 7.85592e-06 -3.04909e-07
3.24362e-07 -3.04909e-07 -6.47314e-05
0.000588108 -6.20561e-05 -4.06688e-08
-6.20561e-05 -1.55631e-05 -6.28264e-06
-4.06688e-08 -6.28264e-06 -4.87368e-05
0.00062936 -2.84315e-05 1.40027e-06
-2.84315e-05 -1.04075e-05 3.13318e-06
1.40027e-06 3.13318e-06 -7.4504e-05
0.00056798 -6.172e-05 1.58827e-07
-6.172e-05 -3.50334e-05 -2.76992e-08
1.58827e-07 -2.76992e-08 -6.40443e-05
0.00263345 -0.000102577 -4.55262e-05
-0.000102577 0.00115872 -2.61163e-06
-4.55262e-05 -2.61163e-06 0.00116253
0.00258312 -9.22545e-05 -2.28894e-06
-9.22545e-05 0.00112296 2.34848e-07
-2.28894e-06 2.34848e-07 0.00112878
0.000569758 -4.98728e-05 9.6414e-07
-4.98728e-05 -4.49696e-05 5.05658e-06
9.6414e-07 5.05658e-06 -6.97062e-05
0.0025248 -8.09569e-05 3.21507e-05
-8.09569e-05 0.00108199 3.84554e-06
3.21507e-05 3.84554e-06 0.00109008
0.00299321 -1.40867e-05 -2.67511e-05
-1.40867e-05 -1.82768e-05 2.53486e-05
-2.67511e-05 2.53486e-05 -5.06451e-05
0.00164562 -0.000405562 3.37413e-05
-0.000405562 -0.00150662 1.5913e-05
3.37413e-05 1.5913e-05 -0.00249075
0.0048807 -0.000524668 -3.41935e-05
-0.000524668 0.00198972 -4.4585e-05
-3.41935e-05 -4.4585e-05 0.00212521
0.0017422 0.000266738 9.23046e-06
0.000266738 0.000426697 4.8421e-06
9.23046e-06 4.8421e-06 0.000229748
0.00130424 0.000154989 2.12314e-06
0.000154989 0.000417878 1.23134e-06
2.12314e-06 1.23134e-06 0.000280008
0.000920047 0.000173515 -1.47764e-06
0.000173515 0.000156812 2.20309e-06
-1.47764e-06 2.20309e-06 9.29933e-06
0.000709437 0.000160888 7.52038e-07
0.000160888 5.80843e-05 1.03781e-06
7.52038e-07 1.03781e-06 -9.35728e-05
0.00111566 0.000204792 -1.36067e-07
0.000204792 0.000213028 -3.0979e-06
-1.36067e-07 -3.0979e-06 3.29085e-05
0.000891563 0.000208034 9.555e-07
0.000208034 1.43227e-05 -4.81817e-07
9.555e-07 -4.81817e-07 -0.000140297
0.000896637 0.000183182 -1.58665e-06
0.000183182 0.000138511 -5.70745e-07
-1.58665e-06 -5.70745e-07 -2.31821e-05
0.000943578 0.000174062 -3.35028e-07
0.000174062 0.000129033 5.55119e-06
-3.35028e-07 5.55119e-06 9.1449e-06
0.00107815 0.00023859 8.84595e-07
0.00023859 9.3862e-05 -3.41979e-07
8.84595e-07 -3.41979e-07 -5.78278e-05
0.00231889 0.000377838 1.92015e-06
0.000377838 0.000584666 6.46958e-06
1.92015e-06 6.46958e-06 0.000424161
0.00170481 0.000369074 -1.84431e-06
0.000369074 0.000137912 -5.61774e-07
-1.84431e-06 -5.61774e-07 -3.29677e-05
0.00136171 0.000318889 8.61564e-06
0.000318889 -4.25273e-05 7.09227e-06
8.61564e-06 7.09227e-06 -0.000151941
0.00113437 0.000368355 -1.32328e-06
0.000368355 -0.000172179 -2.84019e-06
-1.32328e-06 -2.84019e-06 -0.00033598
0.000567921 0.000280361 1.28139e-06
0.000280361 -0.000311997 3.87093e-06
1.28139e-06 3.87093e-06 -0.000460479
0.000779193 0.000221699 1.52442e-05
0.000221699 -0.000302534 1.57168e-05
1.52442e-05 1.57168e-05 -0.000298004
0.00513898 0.000484662 -3.12822e-05
0.000484662 0.000497345 -2.0961e-06
-3.12822e-05 -2.0961e-06 0.000229331
0.00186475 3.85886e-05 0.00013407
3.85886e-05 -0.00109331 2.32295e-05
0.00013407 2.32295e-05 -0.00246515
0.00161128 0.000584815 3.33805e-05
0.000584815 -0.000590175 -2.57515e-06
3.33805e-05 -2.57515e-06 -0.00104434
0.00196978 0.00045665 -2.26788e-05
0.00045665 0.000171802 -2.20596e-06
-2.26788e-05 -2.20596e-06 0.000154497
0.00159674 0.000457489 -4.04628e-05
0.000457489 6.55163e-05 -2.30389e-05
-4.04628e-05 -2.30389e-05 -8.12545e-05
0.00236334 -0.000141644 1.50559e-05
-0.000141644 0.000213054 4.80354e-07
1.50559e-05 4.80354e-07 0.000156238
0.0012449 2.11123e-06 -9.70977e-06
2.11123e-06 -0.000426813 3.43002e-06
-9.70977e-06 3.43002e-06 -0.000610025
0.000609101 0.000467232 7.2429e-05
0.000467232 -0.00224564 -2.24446e-05
7.2429e-05 -2.24446e-05 -0.00289093
0.000883674 -0.000165337 -1.00855e-05
-0.000165337 -0.000249614 2.06007e-05
-1.00855e-05 2.06007e-05 -0.000313966
0.00290131 -7.81259e-05 -1.02197e-05
-7.81259e-05 -6.78433e-05 2.97032e-05
-1.02197e-05 2.97032e-05 -0.000403961
0.00177439 -0.00016503 -5.52898e-06
-0.00016503 -2.07752e-05 2.02469e-06
-5.52898e-06 2.02469e-06 -1.68838e-05
0.00251493 -6.91911e-05 -5.88279e-06
-6.91911e-05 0.000321319 -2.232e-06
-5.88279e-06 -2.232e-06 0.000275656
0.0014587 -9.44374e-05 2.23211e-05
-9.44374e-05 -0.000247557 -1.14617e-06
2.23211e-05 -1.14617e-06 -0.000226241
0.00291707 -4.58568e-05 2.08283e-05
-4.58568e-05 0.000755305 4.45772e-07
2.08283e-05 4.45772e-07 0.000712657
0.00163705 -0.000268552 -8.08344e-06
-0.000268552 -0.000184814 4.28272e-06
-8.08344e-06 4.28272e-06 -0.000181206
0.00175539 -0.000162781 1.853e-06
-0.000162781 -0.000120062 1.55018e-06
1.853e-06 1.55018e-06 -9.47419e-05
0.00183517 -0.000171659 6.05182e-07
-0.000171659 4.89124e-06 6.10048e-07
6.05182e-07 6.10048e-07 2.63865e-07
0.00174568 -0.000236129 4.09445e-06
-0.000236129 -4.38649e-05 8.74843e-07
4.09445e-06 8.74843e-07 -0.000100254
0.00180538 -0.000187667 5.33618e-07
-0.000187667 2.89174e-05 1.31834e-07
5.33618e-07 1.31834e-07 -1.96525e-05
0.00187052 -0.000176817 7.16118e-07
-0.000176817 0.000123915 1.35453e-06
7.16118e-07 1.35453e-06 5.81583e-05
0.00190787 -0.000224642 1.41917e-06
-0.000224642 0.000124962 1.04083e-06
1.41917e-06 1.04083e-06 4.4708e-05
0.00187468 -0.000193346 -1.01267e-06
-0.000193346 0.000152483 5.19256e-08
-1.01267e-06 5.19256e-08 7.10438e-05
0.00166675 -0.000173208 2.18307e-06
-0.000173208 7.67118e-05 -2.97279e-07
2.18307e-06 -2.97279e-07 -2.18457e-05
0.0016163 -0.000204172 -2.32501e-06
-0.000204172 4.37831e-05 1.66213e-06
-2.32501e-06 1.66213e-06 -5.28712e-05
0.00166338 -0.000195307 4.57411e-07
-0.000195307 9.93802e-05 -5.39926e-07
4.57411e-07 -5.39926e-07 -1.12821e-05
0.0016101 -0.000177525 1.8859e-06
-0.000177525 0.000109317 -1.51206e-06
1.8859e-06 -1.51206e-06 -2.25851e-05
0.00185717 -0.000204344 -4.9491e-06
-0.000204344 0.000227319 4.6369e-06
-4.9491e-06 4.6369e-06 0.000107512
0.00173415 -0.000188692 -6.44773e-07
-0.000188692 0.000204218 -7.64186e-08
-6.44773e-07 -7.64186e-08 6.37797e-05
0.00148725 -0.000164916 -2.38731e-06
-0.000164916 0.000124072 -1.81253e-08
-2.38731e-06 -1.81253e-08 -2.48078e-05
0.00171985 -0.000210671 3.0453e-06
-0.000210671 0.00021511 9.49299e-07
3.0453e-06 9.49299e-07 5.51619e-05
0.00153144 -0.000190147 7.62717e-07
-0.000190147 0.000161662 -6.34045e-07
7.62717e-07 -6.34045e-07 3.84886e-06
0.00127619 -0.00016569 -6.8322e-06
-0.00016569 7.79451e-05 2.32788e-06
-6.8322e-06 2.32788e-06 -6.99119e-05
0.00101503 -0.000150081 -9.98644e-06
-0.000150081 4.1789e-05 4.96094e-06
-9.98644e-06 4.96094e-06 -9.02766e-05
0.00109487 -0.000179801 -2.10607e-06
-0.000179801 3.96714e-06 3.76565e-07
-2.10607e-06 3.76565e-07 -0.000154985
0.00174119 -0.000233049 3.95957e-06
-0.000233049 0.000304444 -8.31591e-07
3.95957e-06 -8.31591e-07 0.000128698
0.000534154 -0.000125401 -1.61213e-05
-0.000125401 -9.07865e-05 1.17293e-05
-1.61213e-05 1.17293e-05 -0.000163426
0.000914636 -0.000146585 7.91266e-07
-0.000146585 4.64032e-05 5.43819e-07
7.91266e-07 5.43819e-07 -9.01223e-05
0.00102672 -0.0001843 6.07289e-06
-0.0001843 3.6577e-05 -1.29724e-06
6.07289e-06 -1.29724e-06 -0.000133394
0.00408626 0.00016077 -9.90264e-05
0.00016077 0.00201101 3.99722e-06
-9.90264e-05 3.99722e-06 0.00199672
0.000621456 -8.51958e-05 4.07959e-07
-8.51958e-05 -2.64636e-05 -1.59e-07
4.07959e-07 -1.59e-07 -9.01865e-05
0.00094635 -0.00014077 6.09962e-06
-0.00014077 0.00012246 -5.103e-06
6.09962e-06 -5.103e-06 -8.75814e-06
0.00373987 0.000129762 4.15356e-06
0.000129762 0.00180368 4.60657e-07
4.15356e-06 4.60657e-07 0.00179783
0.000715675 -4.18812e-05 1.00833e-05
-4.18812e-05 3.72952e-05 -8.92068e-06
1.00833e-05 -8.92068e-06 -1.53792e-05
0.00336478 0.000104497 9.32601e-05
0.000104497 0.00158429 -3.83491e-06
9.32601e-05 -3.83491e-06 0.00158508
0.00102954 0.000199069 -3.65823e-06
0.000199069 6.41345e-05 -8.88078e-07
-3.65823e-06 -8.88078e-07 -0.000120496
0.00106711 0.000186884 -3.82592e-08
0.000186884 0.000187529 -1.73607e-06
-3.82592e-08 -1.73607e-06 1.92697e-05
0.0011277 0.000173018 -1.18838e-06
0.000173018 0.000235083 -3.13255e-06
-1.18838e-06 -3.13255e-06 8.47687e-05
0.00138745 0.000200251 -5.28922e-07
0.000200251 0.000406184 7.46612e-07
-5.28922e-07 7.46612e-07 0.00025828
0.000871009 0.000113503 -1.18674e-06
0.000113503 0.000117995 -9.91946e-07
-1.18674e-06 -9.91946e-07 -7.7373e-06
0.000815547 7.15894e-05 -3.14651e-06
7.15894e-05 0.00010326 -2.64813e-06
-3.14651e-06 -2.64813e-06 -1.95983e-07
0.000641544 5.26025e-05 1.03562e-07
5.26025e-05 5.41015e-06 3.6232e-07
1.03562e-07 3.6232e-07 -0.000105003
0.000670935 -3.11015e-06 -4.21169e-07
-3.11015e-06 2.13016e-05 -7.23279e-08
-4.21169e-07 -7.23279e-08 -6.37883e-05
0.000587291 -4.9499e-05 -1.98641e-06
-4.9499e-05 -1.45826e-05 -6.66667e-06
-1.98641e-06 -6.66667e-06 -5.24557e-05
0.000612642 -3.67116e-05 1.02761e-06
-3.67116e-05 -1.33469e-05 3.43307e-06
1.02761e-06 3.43307e-06 -8.59974e-05
0.000554208 -6.6006e-05 4.06347e-07
-6.6006e-05 -3.41321e-05 -1.7206e-07
4.06347e-07 -1.7206e-07 -6.77289e-05
0.00274217 -0.000111836 -5.42922e-05
-0.000111836 0.00122631 -2.16198e-06
-5.42922e-05 -2.16198e-06 0.00122794
0.000553221 -6.08517e-05 4.36441e-07
-6.08517e-05 -4.43799e-05 5.47538e-06
4.36441e-07 5.47538e-06 -7.29448e-05
0.00262063 -0.000102755 -1.71761e-06
-0.000102755 0.00115118 2.14443e-07
-1.71761e-06 2.14443e-07 0.00115479
0.00258088 -9.17069e-05 3.78621e-05
-9.17069e-05 0.0011213 3.42444e-06
3.78621e-05 3.42444e-06 0.0011271
0.000506037 2.61509e-05 1.08458e-05
2.61509e-05 -0.000581106 7.94049e-06
1.08458e-05 7.94049e-06 -0.000582757
0.00415657 4.91483e-05 3.30718e-05
4.91483e-05 0.000399059 9.59963e-06
3.30718e-05 9.59963e-06 0.000160782
0.00873996 0.000422606 -8.60412e-05
0.000422606 0.00262343 -4.16339e-05
-8.60412e-05 -4.16339e-05 0.00153236
0.000446874 0.000176128 1.62913e-06
0.000176128 -0.000341237 1.8263e-06
1.62913e-06 1.8263e-06 -0.000503167
0.00151602 0.000257564 2.08993e-06
0.000257564 0.000132052 1.58449e-06
2.08993e-06 1.58449e-06 -3.4493e-05
0.00125362 0.000235064 -1.87385e-06
0.000235064 0.00015186 1.73456e-07
-1.87385e-06 1.73456e-07 -3.93711e-05
0.00101496 0.000187776 -6.9302e-07
0.000187776 0.00022593 9.43191e-07
-6.9302e-07 9.43191e-07 6.82222e-05
0.000715636 0.000174211 -1.28141e-06
0.000174211 -8.46388e-06 -1.7443e-07
-1.28141e-06 -1.7443e-07 -0.000186692
0.00127172 0.000241208 6.00351e-06
0.000241208 0.000210027 1.27846e-06
6.00351e-06 1.27846e-06 4.86979e-05
0.00252237 0.000391176 -9.23396e-06
0.000391176 0.0006021 -4.10457e-06
-9.23396e-06 -4.10457e-06 0.000432081
0.00188993 0.000300078 -1.12301e-06
0.000300078 0.000536694 2.02957e-06
-1.12301e-06 2.02957e-06 0.000378972
0.00132675 0.000307685 9.17207e-06
0.000307685 5.30224e-05 1.55746e-05
9.17207e-06 1.55746e-05 -0.000101562
0.00195404 0.000380305 -1.55941e-06
0.000380305 0.000279813 1.02291e-06
-1.55941e-06 1.02291e-06 0.000111202
0.00215747 0.000360373 -1.05958e-05
0.000360373 0.000295817 1.99553e-06
-1.05958e-05 1.99553e-06 0.000150811
0.000779096 0.000152682 1.49086e-05
0.000152682 -0.000421182 4.95893e-06
1.49086e-05 4.95893e-06 -0.000480866
0.00128672 0.000308697 8.46678e-06
0.000308697 -7.97149e-05 1.01167e-06
8.46678e-06 1.01167e-06 -0.000191842
0.00106885 0.000359103 -6.34826e-06
0.000359103 -0.000218816 -7.42568e-06
-6.34826e-06 -7.42568e-06 -0.000383637
0.00124195 0.000216097 -3.23544e-06
0.000216097 -7.61158e-05 3.58112e-06
-3.23544e-06 3.58112e-06 -8.31285e-05
0.00489209 0.000267402 3.75967e-05
0.000267402 0.000292396 -5.43029e-06
3.75967e-05 -5.43029e-06 -4.36969e-05
0.00164878 0.000384536 7.17767e-06
0.000384536 0.00021847 -1.76495e-05
7.17767e-06 -1.76495e-05 0.000196138
0.00136229 -3.57173e-05 2.20269e-05
-3.57173e-05 -5.69353e-05 3.20851e-06
2.20269e-05 3.20851e-06 -8.70887e-05
0.00203754 -7.24229e-05 -1.54038e-05
-7.24229e-05 9.36646e-05 -7.70639e-07
-1.54038e-05 -7.70639e-07 3.04603e-05
0.00149271 0.000137493 4.30887e-05
0.000137493 -0.00057188 -7.97227e-06
4.30887e-05 -7.97227e-06 -0.000825992
0.00060505 -0.000134499 -2.3566e-05
-0.000134499 -0.000615344 1.54999e-05
-2.3566e-05 1.54999e-05 -0.000587777
0.00256564 -0.000117723 -7.48601e-05
-0.000117723 0.000330417 4.12836e-06
-7.48601e-05 4.12836e-06 0.000284115
0.00166869 -0.000121738 1.16351e-06
-0.000121738 -0.000130198 -7.21375e-07
1.16351e-06 -7.21375e-07 -0.000101251
0.00227303 -5.48251e-05 -5.02408e-06
-5.48251e-05 0.000349967 4.76079e-07
-5.02408e-06 4.76079e-07 0.000304699
0.00195168 -0.000147944 4.75326e-06
-0.000147944 2.82018e-05 7.41449e-08
4.75326e-06 7.41449e-08 1.69197e-05
0.00205667 -2.64536e-05 4.37581e-06
-2.64536e-05 0.00013486 1.23904e-07
4.37581e-06 1.23904e-07 9.01148e-05
0.00186316 -0.000173349 -1.61168e-06
-0.000173349 -7.75206e-05 1.60488e-06
-1.61168e-06 1.60488e-06 -5.7586e-05
0.00184046 -0.000167973 -1.71251e-06
-0.000167973 1.15037e-05 -1.05161e-07
-1.71251e-06 -1.05161e-07 4.56464e-06
0.00193285 -0.000152119 -8.84784e-08
-0.000152119 8.03078e-05 8.73772e-07
-8.84784e-08 8.73772e-07 3.51715e-05
0.00178957 -0.000198478 -9.41886e-07
-0.000198478 1.27071e-05 -1.31508e-06
-9.41886e-07 -1.31508e-06 -4.05853e-05
0.00177642 -0.000173293 1.04246e-07
-0.000173293 7.43847e-05 -2.59812e-07
1.04246e-07 -2.59812e-07 5.67985e-06
0.00166842 -0.000153408 1.04074e-06
-0.000153408 3.58606e-05 4.15628e-07
1.04074e-06 4.15628e-07 -5.05914e-05
0.00176403 -0.000196311 -3.6546e-06
-0.000196311 8.99805e-05 -3.55765e-07
-3.6546e-06 -3.55765e-07 6.90914e-06
0.00168556 -0.00017355 2.07012e-07
-0.00017355 8.894e-05 -2.47956e-07
2.07012e-07 -2.47956e-07 -9.57209e-06
0.00165587 -0.000160806 2.04174e-06
-0.000160806 0.000100373 -5.61736e-07
2.04174e-06 -5.61736e-07 -2.20911e-05
0.0016825 -0.000195899 -2.62518e-06
-0.000195899 0.000113591 7.51757e-07
-2.62518e-06 7.51757e-07 2.81809e-06
0.00162783 -0.000177499 -1.02047e-07
-0.000177499 0.000119587 -2.91569e-07
-1.02047e-07 -2.91569e-07 -1.20712e-05
0.00149146 -0.000152261 -1.45001e-06
-0.000152261 0.000111301 5.41372e-08
-1.45001e-06 5.41372e-08 -3.30229e-05
0.0017669 -0.000188794 -1.01502e-06
-0.000188794 0.000219957 2.41697e-06
-1.01502e-06 2.41697e-06 8.18074e-05
0.00148332 -0.000165195 -4.63094e-07
-0.000165195 0.000120319 -1.24975e-07
-4.63094e-07 -1.24975e-07 -2.81076e-05
0.00129352 -0.000147425 -6.56147e-06
-0.000147425 7.52326e-05 2.05153e-06
-6.56147e-06 2.05153e-06 -6.82391e-05
0.0014509 -0.000186666 4.92563e-06
-0.000186666 0.000115558 -7.38695e-07
4.92563e-06 -7.38695e-07 -4.32938e-05
0.00118852 -0.000161003 8.13163e-08
-0.000161003 2.8778e-05 -3.34655e-08
8.13163e-08 -3.34655e-08 -0.000119409
0.00103752 -0.000136966 -1.09694e-05
-0.000136966 2.51999e-05 4.76586e-06
-1.09694e-05 4.76586e-06 -9.86171e-05
0.000491313 -0.000142662 -1.86804e-05
-0.000142662 -0.00013572 1.15673e-05
-1.86804e-05 1.15673e-05 -0.000212419
0.000980663 -0.00014796 2.70469e-07
-0.00014796 2.33803e-05 1.69354e-07
2.70469e-07 1.69354e-07 -0.000108484
0.00116805 -0.000182866 4.73368e-06
-0.000182866 4.91801e-05 -1.2694e-06
4.73368e-06 -1.2694e-06 -0.000109211
0.00458249 0.000185376 -0.00010588
0.000185376 0.00230652 6.5569e-06
-0.00010588 6.5569e-06 0.00228282
0.000620292 -0.000117127 -5.79932e-07
-0.000117127 -4.44362e-05 4.04977e-07
-5.79932e-07 4.04977e-07 -0.000118165
0.000920904 -0.000150406 7.97313e-06
-0.000150406 5.28216e-05 -4.45559e-06
7.97313e-06 -4.45559e-06 -8.44238e-05
0.00426161 0.000147622 8.17723e-06
0.000147622 0.00210879 8.18509e-07
8.17723e-06 8.18509e-07 0.00209589
0.000779583 -8.75983e-05 1.3752e-05
-8.75983e-05 5.75145e-05 -1.08726e-05
1.3752e-05 -1.08726e-05 -7.31085e-06
0.00387583 0.000113702 0.0001107
0.000113702 0.00187738 -4.92169e-06
0.0001107 -4.92169e-06 0.00187382
0.00107459 0.000205049 -4.46031e-06
0.000205049 -3.69281e-05 1.72762e-06
-4.46031e-06 1.72762e-06 -0.000210444
0.000892881 0.000190341 -1.26703e-06
0.000190341 -1.56533e-05 2.02244e-06
-1.26703e-06 2.02244e-06 -0.000199619
0.00107116 0.000180658 -3.98379e-06
0.000180658 0.000133462 -1.9471e-06
-3.98379e-06 -1.9471e-06 -3.39361e-05
0.00104932 0.000185425 -3.06548e-07
0.000185425 0.000180121 1.17633e-06
-3.06548e-07 1.17633e-06 1.21218e-05
0.000988324 0.000161167 -3.19892e-07
0.000161167 0.000158649 -9.20662e-07
-3.19892e-07 -9.20662e-07 1.03208e-05
0.000948968 0.000115375 -4.78207e-06
0.000115375 0.00016282 -3.79737e-06
-4.78207e-06 -3.79737e-06 4.41479e-05
0.00093142 0.000120847 1.42771e-07
0.000120847 0.000151266 -3.37361e-07
1.42771e-07 -3.37361e-07 2.55875e-05
0.000736446 5.24724e-05 -3.34875e-07
5.24724e-05 6.05346e-05 7.78719e-08
-3.34875e-07 7.78719e-08 -4.1526e-05
0.000640404 -1.13951e-05 -6.0986e-06
-1.13951e-05 9.09505e-06 -7.37157e-06
-6.0986e-06 -7.37157e-06 -3.5827e-05
0.000636378 -3.06221e-05 8.08649e-07
-3.06221e-05 2.55891e-06 3.37579e-06
8.08649e-07 3.37579e-06 -8.08802e-05
0.000539638 -5.7905e-05 2.62734e-08
-5.7905e-05 -3.96791e-05 -2.54522e-07
2.62734e-08 -2.54522e-07 -7.83074e-05
0.00297238 -0.000119261 -6.90096e-05
-0.000119261 0.00136226 -1.9717e-06
-6.90096e-05 -1.9717e-06 0.00136161
0.000526614 -6.7584e-05 -8.73402e-08
-6.7584e-05 -4.99775e-05 6.02015e-06
-8.73402e-08 6.02015e-06 -8.35046e-05
0.00270615 -0.00011359 -1.68988e-06
-0.00011359 0.00120613 2.13184e-07
-1.68988e-06 2.13184e-07 0.0012072
0.00261272 -0.000102289 4.23792e-05
-0.000102289 0.00114643 2.91887e-06
4.23792e-05 2.91887e-06 0.00115
0.000995578 4.95578e-05 1.20066e-05
4.95578e-05 -0.00031516 1.30745e-06
1.20066e-05 1.30745e-06 -0.000337486
0.00172152 -5.60434e-06 -4.50662e-06
-5.60434e-06 -8.31645e-05 2.3029e-06
-4.50662e-06 2.3029e-06 -9.73927e-05
0.00323117 -7.68098e-06 9.09023e-05
-7.68098e-06 -0.000170418 -5.85177e-06
9.09023e-05 -5.85177e-06 -0.000232079
0.0017535 0.000296378 -2.01775e-06
0.000296378 0.00019749 -7.07578e-07
-2.01775e-06 -7.07578e-07 4.12117e-05
0.000704884 0.000207415 7.65745e-07
0.000207415 -0.000201445 -8.07917e-07
7.65745e-07 -8.07917e-07 -0.000361822
0.00182908 0.000262906 -1.7037e-06
0.000262906 0.000218572 2.10928e-06
-1.7037e-06 2.10928e-06 6.44551e-05
0.00167672 0.000267317 1.05726e-06
0.000267317 0.000228014 4.35018e-07
1.05726e-06 4.35018e-07 5.93192e-05
0.000751573 0.000203737 -3.44842e-06
0.000203737 -0.000131769 2.01869e-06
-3.44842e-06 2.01869e-06 -0.000317313
0.00187456 0.000296 -5.69288e-06
0.000296 0.000147516 1.33315e-06
-5.69288e-06 1.33315e-06 3.17353e-06
0.0016152 0.000271773 -4.44257e-07
0.000271773 0.000386504 3.00085e-07
-4.44257e-07 3.00085e-07 0.000218841
0.0022329 0.00037042 -2.59658e-07
0.00037042 0.000446115 -1.50729e-06
-2.59658e-07 -1.50729e-06 0.000276026
0.00180404 0.000200997 -7.51945e-06
0.000200997 3.89197e-05 1.01861e-06
-7.51945e-06 1.01861e-06 -6.15864e-05
0.00229757 0.000398757 5.08937e-06
0.000398757 0.000472736 3.44639e-06
5.08937e-06 3.44639e-06 0.000305297
0.00204888 0.000355621 -8.68119e-07
0.000355621 0.000236731 6.01554e-07
-8.68119e-07 6.01554e-07 9.04416e-05
0.0010318 0.000170777 7.60126e-07
0.000170777 -0.000262068 1.97626e-06
7.60126e-07 1.97626e-06 -0.000324672
0.000529716 0.000261854 -2.25479e-06
0.000261854 -0.00046264 -2.55589e-06
-2.25479e-06 -2.55589e-06 -0.000576935
0.001129 0.000208128 -3.05766e-05
0.000208128 -0.000138597 -1.05519e-05
-3.05766e-05 -1.05519e-05 -0.000155488
0.00169397 2.86363e-05 3.77641e-06
2.86363e-05 -6.76729e-05 5.0735e-07
3.77641e-06 5.0735e-07 -0.000122692
0.00202017 -1.61782e-05 -9.41094e-07
-1.61782e-05 0.000325006 1.05796e-06
-9.41094e-07 1.05796e-06 0.000297458
0.00128045 -1.98102e-06 -5.20472e-05
-1.98102e-06 -0.000263468 -5.31926e-06
-5.20472e-05 -5.31926e-06 -0.000354747
0.00191652 -0.000146651 -2.00783e-05
-0.000146651 4.25901e-06 1.24969e-06
-2.00783e-05 1.24969e-06 4.03027e-05
0.00136394 -6.37614e-05 -9.4312e-06
-6.37614e-05 -0.000202037 5.7219e-07
-9.4312e-06 5.7219e-07 -0.000248745
0.00192054 -0.000141062 -1.41279e-07
-0.000141062 1.61806e-05 -2.81574e-07
-1.41279e-07 -2.81574e-07 5.62344e-06
0.00192927 -2.65279e-05 -1.07576e-06
-2.65279e-05 4.74798e-05 4.27641e-07
-1.07576e-06 4.27641e-07 6.29889e-06
0.00188256 -5.57358e-05 -3.43946e-06
-5.57358e-05 2.78572e-05 -1.0562e-06
-3.43946e-06 -1.0562e-06 -1.69014e-05
0.00183222 -0.000163676 -2.25772e-06
-0.000163676 1.26307e-05 -9.51541e-07
-2.25772e-06 -9.51541e-07 2.46901e-06
0.00190109 -0.000146675 6.65418e-07
-0.000146675 7.20582e-05 -1.57222e-07
6.65418e-07 -1.57222e-07 2.34191e-05
0.00194844 -0.000117063 -1.28852e-07
-0.000117063 0.000133888 -2.66542e-07
-1.28852e-07 -2.66542e-07 6.26618e-05
0.0016867 -0.000170616 -1.43105e-06
-0.000170616 2.66753e-05 -1.1861e-06
-1.43105e-06 -1.1861e-06 -4.49179e-05
0.00166241 -0.000152304 2.39083e-07
-0.000152304 3.70675e-05 -8.80917e-08
2.39083e-07 -8.80917e-08 -5.07432e-05
0.00173261 -0.000130887 1.64882e-06
-0.000130887 0.000107129 -2.2676e-07
1.64882e-06 -2.2676e-07 -6.15136e-06
0.00170969 -0.000173965 -1.81073e-06
-0.000173965 0.000103953 -1.91451e-07
-1.81073e-06 -1.91451e-07 5.49714e-06
0.00167956 -0.000160139 8.19526e-09
-0.000160139 0.0001155 -1.61239e-07
8.19526e-09 -1.61239e-07 -6.74233e-06
0.0015422 -0.000135694 -6.65253e-07
-0.000135694 0.000113804 -1.5853e-08
-6.65253e-07 -1.5853e-08 -2.49569e-05
0.00164621 -0.000177534 -1.66988e-06
-0.000177534 0.000130196 8.23648e-07
-1.66988e-06 8.23648e-07 -1.22048e-06
0.00149781 -0.000152268 -1.19938e-07
-0.000152268 0.000112924 -1.95999e-08
-1.19938e-07 -1.95999e-08 -3.11185e-05
0.00131412 -0.000130953 -5.70617e-06
-0.000130953 7.59097e-05 1.84792e-06
-5.70617e-06 1.84792e-06 -6.51307e-05
0.00148055 -0.000165495 2.07569e-06
-0.000165495 0.000117065 1.13482e-08
2.07569e-06 1.13482e-08 -3.09041e-05
0.00131284 -0.000147602 -1.4634e-07
-0.000147602 8.61136e-05 2.31908e-08
-1.4634e-07 2.31908e-08 -5.71665e-05
0.00106636 -0.000121739 -1.17939e-05
-0.000121739 2.74978e-05 4.81943e-06
-1.17939e-05 4.81943e-06 -9.22742e-05
0.00109903 -0.000156149 6.36879e-06
-0.000156149 -2.15482e-05 -1.91471e-06
6.36879e-06 -1.91471e-06 -0.000170028
0.00102345 -0.000135064 1.82106e-07
-0.000135064 1.6873e-05 -2.50337e-08
1.82106e-07 -2.50337e-08 -0.000106764
0.00228259 -6.83327e-05 -1.81003e-05
-6.83327e-05 0.000886671 7.23855e-06
-1.81003e-05 7.23855e-06 0.000817998
0.0014498 -2.27206e-05 -0.000139496
-2.27206e-05 0.000469871 1.38567e-05
-0.000139496 1.38567e-05 0.000450627
0.0014933 -0.000105859 -1.24546e-06
-0.000105859 0.000439467 -1.10367e-07
-1.24546e-06 -1.10367e-07 0.000363862
0.000948764 -0.00014615 9.79999e-06
-0.00014615 6.45725e-06 -4.43333e-06
9.79999e-06 -4.43333e-06 -0.000125286
0.00477742 0.000140921 8.27401e-06
0.000140921 0.00240645 7.33781e-07
8.27401e-06 7.33781e-07 0.00238994
0.000729072 -0.000139286 1.83022e-05
-0.000139286 1.37584e-05 -1.15824e-05
1.83022e-05 -1.15824e-05 -6.21069e-05
0.00440013 0.000111656 0.000131866
0.000111656 0.00218145 -7.38921e-06
0.000131866 -7.38921e-06 0.00217308
0.00183154 0.000215359 1.42734e-07
0.000215359 0.000201622 6.81759e-07
1.42734e-07 6.81759e-07 5.95888e-05
0.00159955 0.000226302 -3.04251e-07
0.000226302 0.00019037 1.83996e-06
-3.04251e-07 1.83996e-06 2.94213e-05
0.00124825 0.00021694 -6.29306e-07
0.00021694 6.34825e-05 -1.11913e-07
-6.29306e-07 -1.11913e-07 -0.000110802
0.00107586 0.000183565 -6.17678e-06
0.000183565 3.98155e-05 -6.38229e-07
-6.17678e-06 -6.38229e-07 -0.000125718
0.000756745 0.00018174 1.37082e-06
0.00018174 -9.47192e-05 3.64217e-06
1.37082e-06 3.64217e-06 -0.000278115
0.00107924 0.000180196 -1.16891e-06
0.000180196 0.000141061 6.37709e-07
-1.16891e-06 6.37709e-07 -2.6579e-05
0.000966576 0.00014094 -6.41742e-06
0.00014094 0.000127605 -4.37695e-06
-6.41742e-06 -4.37695e-06 -3.86395e-06
0.000856648 0.000149839 1.5535e-06
0.000149839 8.67166e-05 1.88807e-06
1.5535e-06 1.88807e-06 -5.9719e-05
0.000801749 0.000101994 -6.62596e-08
0.000101994 8.06134e-05 -2.58351e-07
-6.62596e-08 -2.58351e-07 -3.55016e-05
0.000755233 5.07775e-05 -1.03029e-05
5.07775e-05 6.33362e-05 -9.09221e-06
-1.03029e-05 -9.09221e-06 6.70694e-06
0.000676311 3.39352e-05 1.45305e-06
3.39352e-05 2.51346e-05 2.47376e-06
1.45305e-06 2.47376e-06 -7.34292e-05
0.000547638 -2.30763e-05 -5.38937e-07
-2.30763e-05 -4.13285e-05 -3.09332e-07
-5.38937e-07 -3.09332e-07 -8.55618e-05
0.00331052 -0.000119589 -9.03276e-05
-0.000119589 0.00156004 -2.63761e-06
-9.03276e-05 -2.63761e-06 0.00155736
0.000485239 -6.683e-05 -4.85443e-07
-6.683e-05 -6.73106e-05 6.81411e-06
-4.85443e-07 6.81411e-06 -0.000107359
0.00289428 -0.000125767 -2.19043e-06
-0.000125767 0.00131908 2.542e-07
-2.19043e-06 2.542e-07 0.00131685
0.00268167 -0.000113725 4.69498e-05
-0.000113725 0.00119218 2.3724e-06
4.69498e-05 2.3724e-06 0.00119316
0.00180327 0.000110237 -1.76215e-07
0.000110237 -1.18402e-05 1.26542e-06
-1.76215e-07 1.26542e-06 -8.18039e-05
0.00188862 4.30274e-05 8.30408e-06
4.30274e-05 0.000151974 6.19084e-08
8.30408e-06 6.19084e-08 0.000126818
0.00354201 -3.22857e-05 -5.74398e-05
-3.22857e-05 0.000726454 -1.36917e-05
-5.74398e-05 -1.36917e-05 0.000686501
0.00167559 0.000250252 -3.34447e-06
0.000250252 5.32287e-05 7.73677e-07
-3.34447e-06 7.73677e-07 -8.54139e-05
0.00157905 0.000283165 -1.44802e-06
0.000283165 0.000118173 -1.04648e-07
-1.44802e-06 -1.04648e-07 -3.67716e-05
0.00103037 0.000242763 -1.38814e-05
0.000242763 -2.29664e-05 -3.9308e-06
-1.38814e-05 -3.9308e-06 -0.000182243
0.00183302 0.000253657 1.95739e-06
0.000253657 0.000219872 5.36514e-07
1.95739e-06 5.36514e-07 6.7582e-05
0.00184545 0.000277135 -5.37679e-07
0.000277135 0.000329249 -2.24505e-06
-5.37679e-07 -2.24505e-06 0.000158446
0.00212704 0.00019968 -3.28277e-06
0.00019968 0.000231704 1.28419e-06
-3.28277e-06 1.28419e-06 0.000134419
0.00173127 0.000291821 -1.3836e-06
0.000291821 7.17767e-05 7.43995e-07
-1.3836e-06 7.43995e-07 -7.42388e-05
0.00199907 0.000353514 3.66962e-06
0.000353514 0.000317789 1.97035e-07
3.66962e-06 1.97035e-07 0.000147233
0.00182395 0.000201718 -8.1889e-07
0.000201718 5.10015e-05 1.1525e-07
-8.1889e-07 1.1525e-07 -4.9527e-05
0.00207202 0.000358092 1.28977e-05
0.000358092 0.000237271 6.76844e-07
1.28977e-05 6.76844e-07 8.95901e-05
0.0015871 0.000191637 -1.97382e-05
0.000191637 4.23e-05 -3.07593e-06
-1.97382e-05 -3.07593e-06 -2.23328e-05
0.00195975 3.22309e-05 -3.13707e-06
3.22309e-05 9.28697e-05 -1.41674e-07
-3.13707e-06 -1.41674e-07 4.00528e-05
0.00190468 3.61699e-05 -1.44857e-06
3.61699e-05 5.12967e-05 -3.27342e-08
-1.44857e-06 -3.27342e-08 -3.09446e-06
0.00280238 3.85686e-06 -3.42281e-05
3.85686e-06 0.000778679 -5.0704e-06
-3.42281e-05 -5.0704e-06 0.000749582
0.00186596 -0.000134217 -9.73193e-06
-0.000134217 -1.27069e-05 -4.8512e-07
-9.73193e-06 -4.8512e-07 -2.23805e-05
0.00192751 -2.67623e-05 9.00402e-07
-2.67623e-05 3.11678e-05 2.51595e-07
9.00402e-07 2.51595e-07 -7.97954e-06
0.00189283 -5.88983e-05 5.64942e-07
-5.88983e-05 2.0618e-05 -3.15388e-09
5.64942e-07 -3.15388e-09 -1.81047e-05
0.00191842 -4.25046e-05 -8.85772e-07
-4.25046e-05 0.000116099 6.81971e-08
-8.85772e-07 6.81971e-08 4.53142e-05
0.0018685 -0.000141419 1.84839e-06
-0.000141419 6.39103e-05 -1.08059e-06
1.84839e-06 -1.08059e-06 1.13049e-05
0.00189795 -0.000116918 4.11009e-08
-0.000116918 0.000111906 -1.41813e-07
4.11009e-08 -1.41813e-07 3.71835e-05
0.00181041 -9.48493e-05 2.70346e-06
-9.48493e-05 0.000123353 -1.34463e-06
2.70346e-06 -1.34463e-06 1.83794e-05
0.00165837 -0.000151298 -1.21059e-06
-0.000151298 3.95505e-05 -1.55515e-07
-1.21059e-06 -1.55515e-07 -4.96537e-05
0.00174479 -0.000131081 -5.83455e-08
-0.000131081 0.000113742 1.2999e-07
-5.83455e-08 1.2999e-07 4.71551e-07
0.00161077 -0.000111632 -4.13417e-07
-0.000111632 0.000118229 -2.14772e-07
-4.13417e-07 -2.14772e-07 -1.40895e-05
0.00170193 -0.000159335 -1.67156e-06
-0.000159335 0.000129909 2.14768e-07
-1.67156e-06 2.14768e-07 7.90335e-06
0.00154094 -0.000135299 -1.68322e-07
-0.000135299 0.000111265 9.88784e-08
-1.68322e-07 9.88784e-08 -2.73076e-05
0.00134512 -0.000112056 -5.18971e-06
-0.000112056 7.99434e-05 1.49084e-06
-5.18971e-06 1.49084e-06 -5.8912e-05
0.00150236 -0.000152239 1.10112e-06
-0.000152239 0.000113605 -5.74186e-08
1.10112e-06 -5.74186e-08 -3.01592e-05
0.00133149 -0.000131034 -9.30476e-08
-0.000131034 8.4689e-05 8.04583e-08
-9.30476e-08 8.04583e-08 -5.6128e-05
0.00107375 -0.000106992 -1.18468e-05
-0.000106992 2.1505e-05 4.28485e-06
-1.18468e-05 4.28485e-06 -9.71152e-05
0.00133152 -0.000147772 6.0804e-06
-0.000147772 9.66569e-05 -1.92773e-06
6.0804e-06 -1.92773e-06 -4.64342e-05
0.00105552 -0.000119558 2.14682e-07
-0.000119558 2.06568e-05 4.79663e-08
2.14682e-07 4.79663e-08 -9.87234e-05
0.00232796 -8.08065e-05 -2.49827e-05
-8.08065e-05 0.000898028 6.19354e-06
-2.49827e-05 6.19354e-06 0.000837371
0.00100723 -0.000133315 1.10423e-05
-0.000133315 7.41139e-06 -4.84867e-06
1.10423e-05 -4.84867e-06 -0.000116089
0.0024459 -0.000117915 3.25723e-05
-0.000117915 0.000970111 -3.36923e-06
3.25723e-05 -3.36923e-06 0.000908571
0.00165189 -6.40858e-05 -0.000150304
-6.40858e-05 0.00059015 1.74795e-05
-0.000150304 1.74795e-05 0.000570625
0.00325455 2.47962e-05 -0.000147013
2.47962e-05 0.00152529 5.69567e-06
-0.000147013 5.69567e-06 0.00150644
0.00254674 -0.000157943 9.04564e-05
-0.000157943 0.00103477 -1.15331e-05
9.04564e-05 -1.15331e-05 0.000974385
0.00496993 0.00011392 0.000143193
0.00011392 0.00251863 -1.16615e-05
0.000143193 -1.16615e-05 0.00250088
0.00190036 0.000210726 -2.11423e-06
0.000210726 0.000204171 -3.112e-07
-2.11423e-06 -3.112e-07 7.01407e-05
0.00162213 0.000194568 1.81285e-06
0.000194568 0.000178396 8.15815e-07
1.81285e-06 8.15815e-07 3.13462e-05
0.0017611 0.000215186 5.64181e-07
0.000215186 0.000161946 -3.98828e-07
5.64181e-07 -3.98828e-07 2.23846e-05
0.00127191 0.000185218 -6.60268e-06
0.000185218 8.12065e-05 -5.17395e-07
-6.60268e-06 -5.17395e-07 -7.20777e-05
0.00157645 0.00022228 2.04684e-07
0.00022228 0.000173075 2.18691e-07
2.04684e-07 2.18691e-07 1.26886e-05
0.00141595 0.000228592 2.62634e-06
0.000228592 0.000160939 -7.32519e-07
2.62634e-06 -7.32519e-07 -1.41144e-05
0.00117892 0.000191894 -4.02305e-07
0.000191894 9.76807e-05 5.90401e-07
-4.02305e-07 5.90401e-07 -6.94646e-05
0.000921574 0.000146518 -8.87637e-06
0.000146518 3.20845e-05 -3.92981e-06
-8.87637e-06 -3.92981e-06 -0.000103745
0.00109328 0.000180073 2.43363e-06
0.000180073 0.00015196 3.67381e-06
2.43363e-06 3.67381e-06 -1.5951e-05
0.000857475 0.000130749 -4.73385e-07
0.000130749 6.58166e-05 3.59625e-08
-4.73385e-07 3.59625e-08 -6.38948e-05
0.000793353 0.000107509 -1.51996e-05
0.000107509 7.0691e-05 -1.06815e-05
-1.51996e-05 -1.06815e-05 9.24841e-07
0.000649222 8.73457e-05 2.69055e-06
8.73457e-05 -4.13389e-06 2.5694e-06
2.69055e-06 2.5694e-06 -0.000117775
0.000581561 2.71631e-05 6.32101e-08
2.71631e-05 -3.02173e-05 -2.86559e-07
6.32101e-08 -2.86559e-07 -8.49379e-05
0.00380232 -0.00011008 -0.000115234
-0.00011008 0.00184852 -5.32477e-06
-0.000115234 -5.32477e-06 0.00184233
0.000450942 -4.70358e-05 1.06901e-06
-4.70358e-05 -8.95562e-05 7.59193e-06
1.06901e-06 7.59193e-06 -0.000135652
0.00322421 -0.000138627 -3.8972e-06
-0.000138627 0.00151364 3.67392e-07
-3.8972e-06 3.67392e-07 0.00150731
0.00284013 -0.000127251 5.28859e-05
-0.000127251 0.00128847 1.92244e-06
5.28859e-05 1.92244e-06 0.00128597
0.00182798 0.000113801 -2.6648e-06
0.000113801 2.82e-05 1.06384e-06
-2.6648e-06 1.06384e-06 -4.4614e-05
0.00182821 0.00010944 6.1737e-07
0.00010944 1.04058e-05 -3.83895e-07
6.1737e-07 -3.83895e-07 -5.93173e-05
0.00243904 3.68715e-05 -4.36181e-05
3.68715e-05 0.000451587 -7.70096e-06
-4.36181e-05 -7.70096e-06 0.000427341
0.0019564 0.000178548 1.74451e-07
0.000178548 0.000163714 1.2131e-06
1.74451e-07 1.2131e-06 5.46626e-05
0.00167832 0.000244576 -6.03484e-07
0.000244576 6.40517e-05 -1.06281e-07
-6.03484e-07 -1.06281e-07 -7.36022e-05
0.00138731 0.000268931 -2.24842e-08
0.000268931 2.87156e-05 -2.00372e-06
-2.24842e-08 -2.00372e-06 -0.000124816
0.00183739 0.000244211 4.01857e-07
0.000244211 0.000221447 -1.72122e-06
4.01857e-07 -1.72122e-06 7.10173e-05
0.00193464 0.000190416 -3.72413e-07
0.000190416 0.000124069 -1.60943e-07
-3.72413e-07 -1.60943e-07 2.57802e-05
0.00159302 0.000287468 1.40563e-06
0.000287468 5.50503e-07 -5.17312e-07
1.40563e-06 -5.17312e-07 -0.000147068
0.00181679 0.000199395 8.70926e-06
0.000199395 6.54462e-05 -6.13558e-07
8.70926e-06 -6.13558e-07 -3.47648e-05
0.00195247 2.53963e-05 -2.79122e-07
2.53963e-05 0.000122687 7.19136e-07
-2.79122e-07 7.19136e-07 5.32704e-05
0.00188795 3.17872e-05 -1.44557e-07
3.17872e-05 5.53791e-05 -7.97635e-09
-1.44557e-07 -7.97635e-09 5.07209e-07
0.00206872 4.40493e-05 -7.3212e-06
4.40493e-05 0.000143559 -1.65517e-06
-7.3212e-06 -1.65517e-06 9.08187e-05
0.00160676 -1.3677e-05 -1.40456e-06
-1.3677e-05 -3.13225e-05 2.67222e-07
-1.40456e-06 2.67222e-07 -0.00011357
0.00190855 -6.32411e-05 2.71599e-06
-6.32411e-05 1.66519e-05 4.92679e-07
2.71599e-06 4.92679e-07 -1.55108e-05
0.00187614 -4.45932e-05 -9.36811e-07
-4.45932e-05 8.90561e-05 5.912e-07
-9.36811e-07 5.912e-07 1.80233e-05
0.00197054 -4.92965e-05 3.64256e-07
-4.92965e-05 0.00020708 -6.5156e-07
3.64256e-07 -6.5156e-07 0.000111728
0.00185261 -0.000116896 -9.23723e-08
-0.000116896 9.20963e-05 -3.86913e-08
-9.23723e-08 -3.86913e-08 1.42098e-05
0.00178869 -9.47645e-05 1.42676e-06
-9.47645e-05 0.000110463 -6.07049e-07
1.42676e-06 -6.07049e-07 5.52527e-06
0.00165461 -7.98963e-05 -1.11674e-08
-7.98963e-05 0.000110807 -6.39048e-07
-1.11674e-08 -6.39048e-07 -1.5287e-05
0.00176469 -0.000130833 -1.08437e-06
-0.000130833 0.000124695 4.63896e-07
-1.08437e-06 4.63896e-07 1.15085e-05
0.0015948 -0.000109805 -1.66605e-07
-0.000109805 0.000109635 8.66733e-09
-1.66605e-07 8.66733e-09 -2.24339e-05
0.0013793 -8.91855e-05 -4.82154e-06
-8.91855e-05 8.15101e-05 1.10218e-06
-4.82154e-06 1.10218e-06 -5.45525e-05
0.00154087 -0.000134856 7.50168e-07
-0.000134856 0.00010948 1.37586e-07
7.50168e-07 1.37586e-07 -2.88853e-05
0.00134806 -0.000111612 -1.0788e-07
-0.000111612 7.97071e-05 1.25712e-07
-1.0788e-07 1.25712e-07 -5.89119e-05
0.00108283 -9.06833e-05 -1.16722e-05
-9.06833e-05 1.71448e-05 3.55498e-06
-1.16722e-05 3.55498e-06 -0.000101083
0.00135058 -0.000131127 5.53828e-06
-0.000131127 9.43898e-05 -1.6735e-06
5.53828e-06 -1.6735e-06 -4.61926e-05
0.00107432 -0.000104682 1.11397e-07
-0.000104682 2.07518e-05 1.48954e-07
1.11397e-07 1.48954e-07 -9.73095e-05
0.00237845 -9.67715e-05 -3.21909e-05
-9.67715e-05 0.000917465 5.60159e-06
-3.21909e-05 5.60159e-06 0.000860038
0.00103839 -0.000117166 1.17048e-05
-0.000117166 1.02061e-05 -4.74206e-06
1.17048e-05 -4.74206e-06 -0.000108746
0.00243681 -0.000117257 2.91696e-05
-0.000117257 0.00095567 -3.05319e-06
2.91696e-05 -3.05319e-06 0.000899131
0.00169121 -5.62485e-05 -0.000145966
-5.62485e-05 0.000610601 1.58382e-05
-0.000145966 1.58382e-05 0.000591418
0.00257825 -0.000141911 9.23175e-05
-0.000141911 0.00104066 -1.3477e-05
9.23175e-05 -1.3477e-05 0.000983114
0.00147574 5.06532e-06 -7.20179e-05
5.06532e-06 0.000501586 6.23305e-06
-7.20179e-05 6.23305e-06 0.000471962
0.00492289 0.000274947 -2.25692e-06
0.000274947 0.00251957 -4.45681e-06
-2.25692e-06 -4.45681e-06 0.00247333
0.00175808 0.000167317 5.13954e-07
0.000167317 0.000108302 7.74695e-07
5.13954e-07 7.74695e-07 -1.8699e-05
0.00170059 0.000180662 -9.42664e-07
0.000180662 0.000179454 -4.22024e-07
-9.42664e-07 -4.22024e-07 3.93767e-05
0.00180216 0.00020774 -2.57926e-06
0.00020774 0.00014763 6.67149e-08
-2.57926e-06 6.67149e-08 1.24779e-05
0.001808 0.000189488 -4.15523e-06
0.000189488 0.000362698 -7.07797e-07
-4.15523e-06 -7.07797e-07 0.00022051
0.00155108 0.000196197 7.59785e-07
0.000196197 0.000135202 -5.33218e-07
7.59785e-07 -5.33218e-07 -1.16095e-05
0.00169851 0.000215379 7.92676e-07
0.000215379 0.000126759 -1.77407e-06
7.92676e-07 -1.77407e-06 -1.03017e-05
0.000949698 0.00014406 -1.1075e-05
0.00014406 -1.46562e-05 -3.53876e-06
-1.1075e-05 -3.53876e-06 -0.000144234
0.0012464 0.00018494 9.76865e-08
0.00018494 6.59521e-05 1.16498e-07
9.76865e-08 1.16498e-07 -8.74851e-05
0.00156839 0.00021951 3.55016e-06
0.00021951 0.000163898 -8.34474e-07
3.55016e-06 -8.34474e-07 3.87908e-06
0.00128288 0.000200487 5.87931e-06
0.000200487 0.000156043 1.85771e-06
5.87931e-06 1.85771e-06 -1.27885e-05
0.000931723 0.000146014 -9.11278e-07
0.000146014 3.66553e-05 3.64538e-07
-9.11278e-07 3.64538e-07 -9.89955e-05
0.000702581 0.00015863 -2.04028e-05
0.00015863 2.91049e-06 -1.10146e-05
-2.04028e-05 -1.10146e-05 -7.65877e-05
0.000745577 0.000120393 4.8134e-06
0.000120393 2.66801e-06 4.34967e-06
4.8134e-06 4.34967e-06 -0.000125242
0.000623498 0.000100251 -4.87225e-07
0.000100251 -1.82126e-05 1.08972e-07
-4.87225e-07 1.08972e-07 -8.71959e-05
0.00450083 -0.000100387 -0.000136303
-0.000100387 0.00225942 -1.01608e-05
-0.000136303 -1.01608e-05 0.00224429
0.00045181 1.53916e-05 6.22844e-06
1.53916e-05 -0.000101329 8.55765e-06
6.22844e-06 8.55765e-06 -0.000153486
0.00367654 -0.000148994 -7.04549e-06
-0.000148994 0.00178159 5.57972e-07
-7.04549e-06 5.57972e-07 0.00177007
0.00312117 -0.000144528 6.16981e-05
-0.000144528 0.00145551 1.65873e-06
6.16981e-05 1.65873e-06 0.00144798
0.00176263 9.67967e-05 -4.61568e-07
9.67967e-05 2.45975e-05 1.43817e-06
-4.61568e-07 1.43817e-06 -6.23183e-05
0.00177377 0.000115068 -2.95793e-07
0.000115068 -7.15751e-06 3.14027e-07
-2.95793e-07 3.14027e-07 -7.94556e-05
0.00186991 0.000111744 7.91186e-07
0.000111744 3.03521e-05 -1.19411e-06
7.91186e-07 -1.19411e-06 -3.97461e-05
0.00190897 0.000175209 7.76464e-07
0.000175209 0.00013914 -1.66174e-07
7.76464e-07 -1.66174e-07 3.14828e-05
0.00167308 0.000238504 1.42648e-07
0.000238504 7.02637e-05 -1.16232e-06
1.42648e-07 -1.16232e-06 -6.63529e-05
0.00172379 0.000180674 2.74806e-06
0.000180674 4.09919e-06 -1.41255e-06
2.74806e-06 -1.41255e-06 -9.51974e-05
0.00188522 2.64713e-05 -7.95383e-07
2.64713e-05 0.00012543 4.97244e-07
-7.95383e-07 4.97244e-07 4.20341e-05
0.00190682 2.6358e-05 3.07259e-07
2.6358e-05 9.90606e-05 -2.51173e-07
3.07259e-07 -2.51173e-07 2.84201e-05
0.00180435 3.19057e-05 3.66281e-06
3.19057e-05 1.29889e-05 1.46314e-07
3.66281e-06 1.46314e-07 -4.39602e-05
0.00172543 -1.98032e-05 -1.7113e-06
-1.98032e-05 3.76274e-05 -5.58616e-08
-1.7113e-06 -5.58616e-08 -4.3607e-05
0.00169854 -2.52678e-05 7.88314e-07
-2.52678e-05 6.19539e-05 -4.70951e-07
7.88314e-07 -4.70951e-07 -3.63753e-05
0.00182673 -4.6468e-05 5.37115e-07
-4.6468e-05 5.87538e-05 7.46809e-07
5.37115e-07 7.46809e-07 -1.2736e-05
0.00180635 -4.91086e-05 -7.62621e-07
-4.91086e-05 0.000115201 3.44189e-07
-7.62621e-07 3.44189e-07 1.64015e-05
0.00173324 -4.39996e-05 3.63906e-08
-4.39996e-05 0.000137147 -5.13019e-07
3.63906e-08 -5.13019e-07 1.95172e-05
0.00175642 -9.50754e-05 7.58469e-07
-9.50754e-05 9.21012e-05 9.14704e-08
7.58469e-07 9.14704e-08 -1.28841e-05
0.00162814 -8.10165e-05 4.39482e-07
-8.10165e-05 9.85019e-05 -3.35081e-07
4.39482e-07 -3.35081e-07 -2.76198e-05
0.00139812 -5.83734e-05 -4.9951e-06
-5.83734e-05 7.05654e-05 7.86431e-07
-4.9951e-06 7.86431e-07 -6.23726e-05
0.00156825 -0.000109455 2.28886e-07
-0.000109455 9.49161e-05 1.70674e-07
2.28886e-07 1.70674e-07 -3.7075e-05
0.00136731 -8.81825e-05 -1.61243e-08
-8.81825e-05 7.19651e-05 5.64844e-08
-1.61243e-08 5.64844e-08 -6.39285e-05
0.00108315 -7.05679e-05 -1.1577e-05
-7.05679e-05 6.4212e-06 2.9259e-06
-1.1577e-05 2.9259e-06 -0.000111082
0.00134876 -0.000111039 4.8928e-06
-0.000111039 7.8184e-05 -1.22971e-06
4.8928e-06 -1.22971e-06 -6.01934e-05
0.00108204 -8.8059e-05 -2.22183e-08
-8.8059e-05 1.58563e-05 1.56372e-07
-2.22183e-08 1.56372e-07 -0.000101807
0.00237382 -0.000110785 -3.52272e-05
-0.000110785 0.000911075 5.03687e-06
-3.52272e-05 5.03687e-06 0.00085201
0.00107043 -0.000102291 1.18683e-05
-0.000102291 1.74047e-05 -4.07929e-06
1.18683e-05 -4.07929e-06 -0.000100074
0.0024393 -0.000109935 2.80814e-05
-0.000109935 0.00094934 -2.40474e-06
2.80814e-05 -2.40474e-06 0.000894568
0.00173028 -4.90901e-05 -0.000145776
-4.90901e-05 0.00062755 1.36991e-05
-0.000145776 1.36991e-05 0.000608614
0.002541 -0.000124086 9.11447e-05
-0.000124086 0.00101124 -1.19257e-05
9.11447e-05 -1.19257e-05 0.000958086
0.00147605 -1.1555e-05 -6.49176e-05
-1.1555e-05 0.000494195 6.01264e-06
-6.49176e-05 6.01264e-06 0.000468872
0.00136478 2.45508e-05 1.86018e-05
2.45508e-05 0.000440147 -4.2043e-06
1.86018e-05 -4.2043e-06 0.000407114
0.00187718 0.00010057 -4.73879e-08
0.00010057 0.000147259 1.86692e-06
-4.73879e-08 1.86692e-06 4.26432e-05
0.001624 0.000146232 -1.62969e-06
0.000146232 0.000106904 2.27087e-07
-1.62969e-06 2.27087e-07 -2.85993e-05
0.00177803 0.00016841 -9.12245e-07
0.00016841 0.000114256 -9.12786e-08
-9.12245e-07 -9.12786e-08 -1.04178e-05
0.00162529 0.00015689 -4.30248e-06
0.00015689 0.000229501 -8.89201e-07
-4.30248e-06 -8.89201e-07 9.21977e-05
0.00169653 0.00017863 9.94973e-07
0.00017863 0.000180498 2.38819e-07
9.94973e-07 2.38819e-07 3.99071e-05
0.00169784 0.000204526 1.56871e-06
0.000204526 8.83482e-05 -8.58978e-08
1.56871e-06 -8.58978e-08 -4.79629e-05
0.00103274 0.000134134 -1.17575e-05
0.000134134 5.88991e-06 -4.10301e-06
-1.17575e-05 -4.10301e-06 -0.000115976
0.00145243 0.000174647 3.17711e-06
0.000174647 0.000160362 7.18108e-07
3.17711e-06 7.18108e-07 1.75914e-05
0.00147765 0.000197677 2.51537e-06
0.000197677 9.04088e-05 -7.65012e-07
2.51537e-06 -7.65012e-07 -5.61411e-05
0.000606243 0.000158486 -2.13257e-05
0.000158486 -7.27107e-05 -9.66814e-06
-2.13257e-05 -9.66814e-06 -0.000150112
0.00100225 0.000147126 -6.32936e-07
0.000147126 1.48556e-05 2.61016e-07
-6.32936e-07 2.61016e-07 -0.000115058
0.0012191 0.000184425 7.02641e-06
0.000184425 4.97882e-05 7.50056e-07
7.02641e-06 7.50056e-07 -0.000103757
0.000948804 0.00014609 8.33454e-06
0.00014609 4.55007e-05 5.12015e-06
8.33454e-06 5.12015e-06 -9.01192e-05
0.000622981 0.000146178 1.13687e-06
0.000146178 -3.95495e-05 3.38025e-07
1.13687e-06 3.38025e-07 -0.00011782
0.00512449 -0.000101747 -0.000140348
-0.000101747 0.00263086 -1.55439e-05
-0.000140348 -1.55439e-05 0.00260159
0.00046508 8.69809e-05 1.11407e-05
8.69809e-05 -0.000104231 1.01982e-05
1.11407e-05 1.01982e-05 -0.000170567
0.00426432 -0.000151932 -1.12107e-05
-0.000151932 0.00213014 9.72419e-07
-1.12107e-05 9.72419e-07 0.0021112
0.00352485 -0.000164909 7.57682e-05
-0.000164909 0.00169629 1.84921e-06
7.57682e-05 1.84921e-06 0.00168212
0.0017621 7.12664e-05 -6.2302e-07
7.12664e-05 6.00681e-05 3.86196e-07
-6.2302e-07 3.86196e-07 -2.91258e-05
0.00176969 9.63558e-05 5.24761e-07
9.63558e-05 3.18355e-05 5.05205e-07
5.24761e-07 5.05205e-07 -5.45794e-05
0.00173631 0.000115977 4.42806e-06
0.000115977 -3.1704e-05 -3.96836e-07
4.42806e-06 -3.96836e-07 -0.000103393
0.00187063 0.000172007 8.19545e-07
0.000172007 0.000119404 -1.07214e-06
8.19545e-07 -1.07214e-06 1.31759e-05
0.00173772 -7.33427e-06 1.37183e-06
-7.33427e-06 8.01362e-05 4.4953e-08
1.37183e-06 4.4953e-08 -1.98685e-05
0.0018927 2.17435e-05 -4.33116e-08
2.17435e-05 0.000127327 -1.98855e-07
-4.33116e-08 -1.98855e-07 4.44392e-05
0.00185485 2.66979e-05 1.30211e-06
2.66979e-05 7.18491e-05 -2.52129e-07
1.30211e-06 -2.52129e-07 4.2252e-10
0.00184973 -2.33706e-05 -3.16434e-06
-2.33706e-05 0.000109525 -9.87782e-07
-3.16434e-06 -9.87782e-07 2.93392e-05
0.0016864 -1.80863e-05 -1.28649e-06
-1.80863e-05 5.47234e-05 -5.78253e-08
-1.28649e-06 -5.78253e-08 -4.2346e-05
0.00175518 -1.48119e-05 1.32811e-06
-1.48119e-05 0.000157427 -5.2157e-07
1.32811e-06 -5.2157e-07 4.36148e-05
0.00164427 -4.88826e-05 -1.66748e-06
-4.88826e-05 2.38999e-05 1.28785e-06
-1.66748e-06 1.28785e-06 -7.83338e-05
0.0016859 -4.41407e-05 3.2473e-07
-4.41407e-05 0.000113616 1.65225e-07
3.2473e-07 1.65225e-07 -6.46347e-06
0.0013934 -2.81993e-05 -4.28913e-06
-2.81993e-05 4.64353e-05 1.88526e-07
-4.28913e-06 1.88526e-07 -8.18573e-05
0.00161472 -8.07134e-05 8.54878e-07
-8.07134e-05 9.35119e-05 -4.20697e-08
8.54878e-07 -4.20697e-08 -3.24647e-05
0.00138654 -5.63096e-05 -2.14751e-07
-5.63096e-05 6.08053e-05 4.3179e-08
-2.14751e-07 4.3179e-08 -7.18753e-05
0.00108547 -4.63977e-05 -1.16718e-05
-4.63977e-05 -3.45578e-06 2.35903e-06
-1.16718e-05 2.35903e-06 -0.000120377
0.00135085 -8.51179e-05 4.41924e-06
-8.51179e-05 6.00405e-05 -9.60544e-07
4.41924e-06 -9.60544e-07 -7.55024e-05
0.00108524 -6.95757e-05 1.03325e-09
-6.95757e-05 7.25176e-06 1.41628e-07
1.03325e-09 1.41628e-07 -0.000110015
0.000645285 -6.09015e-05 -1.75057e-05
-6.09015e-05 -9.21538e-05 4.25383e-06
-1.75057e-05 4.25383e-06 -0.000158692
0.00109107 -8.57983e-05 1.16231e-05
-8.57983e-05 1.98478e-05 -3.29425e-06
1.16231e-05 -3.29425e-06 -9.7233e-05
0.00155117 -7.20126e-05 3.6981e-05
-7.20126e-05 0.000432676 -2.18707e-06
3.6981e-05 -2.18707e-06 0.000374033
0.0051368 -0.000112382 -0.000177604
-0.000112382 0.00258159 1.02952e-05
-0.000177604 1.02952e-05 0.0025805
0.00252008 -0.000101635 9.08013e-05
-0.000101635 0.000989673 -9.78199e-06
9.08013e-05 -9.78199e-06 0.000939055
0.00149016 -2.94916e-05 -5.83308e-05
-2.94916e-05 0.000496087 4.64766e-06
-5.83308e-05 4.64766e-06 0.000472126
0.00128164 -2.56871e-05 2.92767e-05
-2.56871e-05 0.000388218 -4.22778e-06
2.92767e-05 -4.22778e-06 0.000358295
0.00189459 7.29794e-05 7.80769e-07
7.29794e-05 0.000167057 1.17989e-06
7.80769e-07 1.17989e-06 6.87471e-05
0.00172484 9.7758e-05 -2.28291e-07
9.7758e-05 0.000146041 1.32932e-06
-2.28291e-07 1.32932e-06 2.27766e-05
0.00189986 9.80932e-05 3.47372e-07
9.80932e-05 0.000165374 1.97259e-08
3.47372e-07 1.97259e-08 5.99185e-05
0.00129547 0.000118255 -5.24925e-06
0.000118255 1.08582e-05 -8.29297e-07
-5.24925e-06 -8.29297e-07 -0.000124254
0.00169378 0.000146598 7.40915e-08
0.000146598 0.000146173 -1.4302e-08
7.40915e-08 -1.4302e-08 1.18527e-05
0.00180058 0.000169865 -5.26018e-07
0.000169865 0.000121148 -8.56918e-07
-5.26018e-07 -8.56918e-07 -1.2658e-06
0.000661765 9.83099e-05 -1.37269e-05
9.83099e-05 -0.000223665 -4.20052e-06
-1.37269e-05 -4.20052e-06 -0.000343633
0.00167244 0.000160461 1.70638e-06
0.000160461 0.000256252 4.40322e-07
1.70638e-06 4.40322e-07 0.000118616
0.00169224 0.000176823 2.43179e-06
0.000176823 0.000181433 3.25437e-07
2.43179e-06 3.25437e-07 4.02653e-05
0.000571824 0.000120962 -1.84593e-05
0.000120962 -0.000105004 -8.14053e-06
-1.84593e-05 -8.14053e-06 -0.000177813
0.000807253 0.000124156 6.13689e-07
0.000124156 -0.000123185 -7.33923e-08
6.13689e-07 -7.33923e-08 -0.000245964
0.00108931 0.000159349 8.62412e-06
0.000159349 -4.63336e-05 1.70781e-06
8.62412e-06 1.70781e-06 -0.000189621
0.00532032 -3.12329e-05 -0.000150988
-3.12329e-05 0.00271567 -1.43325e-05
-0.000150988 -1.43325e-05 0.00269951
0.00058166 0.000144723 1.46002e-06
0.000144723 -8.42353e-05 5.91226e-07
1.46002e-06 5.91226e-07 -0.000162868
0.00104419 0.000149744 1.11926e-05
0.000149744 3.84611e-05 4.2288e-06
1.11926e-05 4.2288e-06 -9.17821e-05
0.000494139 0.000137602 1.73796e-05
0.000137602 -0.000109657 1.09951e-05
1.73796e-05 1.09951e-05 -0.000186607
0.00487032 -9.73907e-05 -9.11987e-07
-9.73907e-05 0.00246862 -4.86243e-07
-9.11987e-07 -4.86243e-07 0.00245185
0.00401995 -0.000184386 9.09885e-05
-0.000184386 0.00199471 3.8127e-06
9.09885e-05 3.8127e-06 0.00197213
0.00179621 4.42574e-05 -9.13947e-07
4.42574e-05 0.00010437 -4.20147e-07
-9.13947e-07 -4.20147e-07 4.74802e-06
0.001785 7.0588e-05 -2.08892e-07
7.0588e-05 6.93464e-05 4.11681e-07
-2.08892e-07 4.11681e-07 -1.98416e-05
0.00177274 9.6184e-05 1.62236e-06
9.6184e-05 3.68133e-05 -4.68971e-07
1.62236e-06 -4.68971e-07 -4.91265e-05
0.00166821 3.04986e-06 1.56257e-06
3.04986e-06 0.000100037 -3.1266e-07
1.56257e-06 -3.1266e-07 -1.47854e-05
0.00172449 -4.9057e-06 1.20777e-07
-4.9057e-06 7.65808e-05 7.97192e-08
1.20777e-07 7.97192e-08 -2.22949e-05
0.00189808 1.529e-05 -3.4465e-07
1.529e-05 0.000128146 -1.88418e-07
-3.4465e-07 -1.88418e-07 4.5737e-05
0.0016668 -1.22459e-05 -2.13924e-06
-1.22459e-05 4.32823e-05 5.35221e-07
-2.13924e-06 5.35221e-07 -5.25379e-05
0.00174239 -1.10808e-05 1.1029e-06
-1.10808e-05 0.000149184 -1.55918e-07
1.1029e-06 -1.55918e-07 3.55484e-05
0.00171976 -8.88826e-06 -2.15183e-06
-8.88826e-06 0.000227729 -1.97381e-07
-2.15183e-06 -1.97381e-07 0.0001059
0.00163709 -4.42795e-05 4.34616e-07
-4.42795e-05 8.94614e-05 7.11857e-07
4.34616e-07 7.11857e-07 -3.30794e-05
0.00155773 -2.80234e-05 2.26779e-09
-2.80234e-05 0.000139191 6.57176e-08
2.26779e-09 6.57176e-08 1.14326e-05
0.000783324 -2.02382e-05 -1.34804e-05
-2.02382e-05 -0.000184358 1.65114e-06
-1.34804e-05 1.65114e-06 -0.000302959
0.00138179 -5.6487e-05 4.1953e-06
-5.6487e-05 5.47285e-05 -6.90054e-07
4.1953e-06 -6.90054e-07 -7.78763e-05
0.00108274 -4.34248e-05 2.69087e-08
-4.34248e-05 -5.51123e-06 1.30303e-07
2.69087e-08 1.30303e-07 -0.00012211
0.000646828 -2.03081e-05 -1.70659e-05
-2.03081e-05 -9.83174e-05 2.86926e-06
-1.70659e-05 2.86926e-06 -0.000165276
0.00108889 -6.75542e-05 1.16326e-05
-6.75542e-05 8.89211e-06 -2.65098e-06
1.16326e-05 -2.65098e-06 -0.000108027
0.000657609 -4.63212e-05 -2.01972e-07
-4.63212e-05 -8.46209e-05 2.65365e-07
-2.01972e-07 2.65365e-07 -0.000151839
0.00519171 4.31788e-07 -0.000166194
4.31788e-07 0.00260733 6.39515e-06
-0.000166194 6.39515e-06 0.00260904
0.000687428 -5.80081e-05 1.61248e-05
-5.80081e-05 -6.45307e-05 -6.06255e-06
1.61248e-05 -6.06255e-06 -0.000131832
0.00328029 -6.32421e-05 8.2384e-05
-6.32421e-05 0.00151926 -1.94975e-06
8.2384e-05 -1.94975e-06 0.00150301
0.00121653 -5.25518e-05 3.45243e-05
-5.25518e-05 0.000351426 -4.51909e-06
3.45243e-05 -4.51909e-06 0.000319403
0.00180555 6.55805e-05 9.93627e-08
6.55805e-05 0.00013442 2.07845e-07
9.93627e-08 2.07845e-07 3.11894e-05
0.00160338 5.54275e-05 1.01323e-06
5.54275e-05 7.42377e-05 1.50911e-06
1.01323e-06 1.50911e-06 -4.37676e-05
0.00187653 7.0329e-05 -1.73026e-07
7.0329e-05 0.000157116 -2.08373e-07
-1.73026e-07 -2.08373e-07 5.91641e-05
0.00141163 8.4016e-05 -4.03444e-06
8.4016e-05 6.46807e-05 -2.6952e-07
-4.03444e-06 -2.6952e-07 -6.54002e-05
0.00167913 9.60618e-05 4.85594e-07
9.60618e-05 0.00011773 1.35769e-07
4.85594e-07 1.35769e-07 -6.70283e-06
0.00192169 9.53612e-05 -5.05455e-07
9.53612e-05 0.000183109 -1.67171e-06
-5.05455e-07 -1.67171e-06 7.68407e-05
0.000674906 7.8365e-05 -1.35088e-05
7.8365e-05 -0.00023281 -3.18142e-06
-1.35088e-05 -3.18142e-06 -0.000350707
0.00152562 0.000125298 -9.99577e-07
0.000125298 0.000143784 -1.02543e-07
-9.99577e-07 -1.02543e-07 9.60592e-06
0.00176476 0.000146863 1.81093e-06
0.000146863 0.000186293 -4.3588e-07
1.81093e-06 -4.3588e-07 5.31797e-05
0.000586936 8.64357e-05 -1.69612e-05
8.64357e-05 -0.00011115 -6.31557e-06
-1.69612e-05 -6.31557e-06 -0.00017951
0.000652058 9.86875e-05 -2.80296e-06
9.86875e-05 -0.000229422 -5.93835e-07
-2.80296e-06 -5.93835e-07 -0.000349966
0.00172176 0.000164187 7.93514e-06
0.000164187 0.000284222 1.90281e-06
7.93514e-06 1.90281e-06 0.00014624
0.00528669 5.47133e-05 -0.000168409
5.47133e-05 0.00267202 -1.27237e-05
-0.000168409 -1.27237e-05 0.00266897
0.000566709 0.000113244 7.77163e-07
0.000113244 -0.000107495 2.46226e-07
7.77163e-07 2.46226e-07 -0.000180985
0.000583203 0.000114506 1.17564e-05
0.000114506 -0.00025154 3.47993e-06
1.17564e-05 3.47993e-06 -0.00037527
0.00520088 -1.59459e-05 1.12572e-05
-1.59459e-05 0.0026445 -2.431e-07
1.12572e-05 -2.431e-07 0.00263162
0.000534504 0.000130817 1.78748e-05
0.000130817 -0.0001084 1.00608e-05
1.78748e-05 1.00608e-05 -0.000188202
0.00461852 -0.000153944 0.000114453
-0.000153944 0.00233256 6.99497e-06
0.000114453 6.99497e-06 0.00231177
0.00176536 3.2029e-05 1.36515e-07
3.2029e-05 0.000146356 -3.3606e-07
1.36515e-07 -3.3606e-07 3.39501e-05
0.00174861 4.23943e-05 -6.42266e-07
4.23943e-05 8.27245e-05 2.02848e-07
-6.42266e-07 2.02848e-07 -1.77691e-05
0.00180786 6.96907e-05 6.30737e-07
6.96907e-05 7.85897e-05 -3.29036e-08
6.30737e-07 -3.29036e-08 -1.05982e-05
0.00169471 -3.24026e-06 -1.87798e-06
-3.24026e-06 0.000217625 -2.43856e-07
-1.87798e-06 -2.43856e-07 9.81623e-05
0.00170086 1.74393e-06 5.32882e-07
1.74393e-06 0.00011793 4.01474e-08
5.32882e-07 4.01474e-08 4.4023e-06
0.00172229 -6.63956e-07 7.59309e-07
-6.63956e-07 7.88702e-05 -3.81103e-08
7.59309e-07 -3.81103e-08 -1.88696e-05
0.00173136 -7.8904e-06 5.42269e-07
-7.8904e-06 0.000141935 4.90777e-07
5.42269e-07 4.90777e-07 2.84551e-05
0.00172533 -8.3518e-06 2.08896e-06
-8.3518e-06 0.000230453 -2.35398e-07
2.08896e-06 -2.35398e-07 0.000108603
0.000787511 -7.3877e-06 -1.26992e-05
-7.3877e-06 -0.00018399 5.96704e-07
-1.26992e-05 5.96704e-07 -0.000300564
0.00172479 -2.80096e-05 5.13374e-06
-2.80096e-05 0.000233563 -3.01551e-07
5.13374e-06 -3.01551e-07 0.000106339
0.000935707 -1.91284e-05 -2.55882e-06
-1.91284e-05 -9.78325e-05 3.45847e-07
-2.55882e-06 3.45847e-07 -0.000215136
0.000662582 -6.17102e-06 -1.74519e-05
-6.17102e-06 -9.66177e-05 1.87814e-06
-1.74519e-05 1.87814e-06 -0.000163631
0.00108434 -4.17322e-05 1.14299e-05
-4.17322e-05 -5.11802e-06 -2.0961e-06
1.14299e-05 -2.0961e-06 -0.00012149
0.000644809 -2.33764e-05 5.03342e-07
-2.33764e-05 -0.000100752 -2.19273e-09
5.03342e-07 -2.19273e-09 -0.000167061
0.00523375 -8.89488e-05 -0.000177452
-8.89488e-05 0.0026348 5.70965e-06
-0.000177452 5.70965e-06 0.0026344
0.000648637 -3.15586e-05 1.61882e-05
-3.15586e-05 -9.08536e-05 -3.41856e-06
1.61882e-05 -3.41856e-06 -0.000157465
0.00519361 -3.36926e-05 9.49188e-06
-3.36926e-05 0.00261053 -4.39641e-08
9.49188e-06 -4.39641e-08 0.00261121
0.00150397 -1.3908e-05 0.000151223
-1.3908e-05 0.000498117 -7.39064e-06
0.000151223 -7.39064e-06 0.000482059
0.00166632 4.3954e-05 1.09628e-06
4.3954e-05 0.000110144 3.43101e-07
1.09628e-06 3.43101e-07 -5.4684e-06
0.00177714 6.94076e-05 -1.83186e-06
6.94076e-05 0.000112757 -2.54679e-07
-1.83186e-06 -2.54679e-07 1.10356e-05
0.00143365 4.73605e-05 -3.53638e-06
4.73605e-05 7.64016e-05 2.55599e-08
-3.53638e-06 2.55599e-08 -4.87777e-05
0.0016063 5.45327e-05 4.36047e-07
5.45327e-05 7.69737e-05 1.63671e-08
4.36047e-07 1.63671e-08 -4.10807e-05
0.00185677 6.78182e-05 -9.29148e-07
6.78182e-05 0.00014602 -1.9373e-06
-9.29148e-07 -1.9373e-06 4.8429e-05
0.00109684 6.47433e-05 -1.15041e-05
6.47433e-05 -1.23265e-06 -2.06671e-06
-1.15041e-05 -2.06671e-06 -0.000114258
0.00139563 8.36282e-05 5.12209e-08
8.36282e-05 5.63886e-05 1.36461e-07
5.12209e-08 1.36461e-07 -7.38099e-05
0.00163187 9.43869e-05 4.62271e-07
9.43869e-05 8.86018e-05 -7.83343e-07
4.62271e-07 -7.83343e-07 -3.70085e-05
0.000609274 6.02269e-05 -1.65408e-05
6.02269e-05 -0.000113101 -4.61901e-06
-1.65408e-05 -4.61901e-06 -0.000179316
0.000857602 8.56786e-05 -3.24895e-06
8.56786e-05 -0.000128321 -4.49437e-07
-3.24895e-06 -4.49437e-07 -0.000245603
0.00176339 0.000132543 5.21577e-06
0.000132543 0.000281005 9.73397e-07
5.21577e-06 9.73397e-07 0.000147757
0.00527454 0.000113537 -0.000187174
0.000113537 0.00265746 -1.21718e-05
-0.000187174 -1.21718e-05 0.00265715
0.000590102 8.37452e-05 7.28183e-08
8.37452e-05 -0.000109406 1.2604e-07
7.28183e-08 1.2604e-07 -0.000177892
0.000637943 9.90003e-05 8.17397e-06
9.90003e-05 -0.000237813 2.91661e-06
8.17397e-06 2.91661e-06 -0.000358909
0.0052232 7.27601e-05 1.02997e-05
7.27601e-05 0.00264136 1.47257e-06
1.02997e-05 1.47257e-06 0.00263601
0.000566261 0.000104581 1.70311e-05
0.000104581 -0.000107878 7.87277e-06
1.70311e-05 7.87277e-06 -0.000181647
0.00509207 -2.39904e-05 0.000153579
-2.39904e-05 0.00257137 9.83934e-06
0.000153579 9.83934e-06 0.00256635
0.00171066 2.26058e-05 -1.8348e-06
2.26058e-05 0.000228842 -1.67693e-07
-1.8348e-06 -1.67693e-07 0.000110609
0.00173628 2.74467e-05 -3.50862e-07
2.74467e-05 0.000132441 1.17009e-07
-3.50862e-07 1.17009e-07 1.92453e-05
0.0017039 4.03255e-05 -8.52201e-07
4.03255e-05 6.33374e-05 2.50683e-07
-8.52201e-07 2.50683e-07 -3.79921e-05
0.000773042 -1.00761e-05 -1.31338e-05
-1.00761e-05 -0.000188478 -2.56842e-07
-1.31338e-05 -2.56842e-07 -0.000302894
0.00171704 3.07698e-06 2.26047e-06
3.07698e-06 0.000230331 -6.60475e-08
2.26047e-06 -6.60475e-08 0.000110869
0.00172759 3.46369e-07 5.08799e-07
3.46369e-07 0.00013272 2.10527e-07
5.08799e-07 2.10527e-07 2.04986e-05
0.00173107 -8.13944e-06 6.22857e-06
-8.13944e-06 0.000233303 1.68138e-08
6.22857e-06 1.68138e-08 0.00011143
0.000773472 -7.23522e-06 -1.94399e-06
-7.23522e-06 -0.000192623 1.1535e-07
-1.94399e-06 1.1535e-07 -0.000309451
0.000672779 -1.85091e-05 -1.75708e-05
-1.85091e-05 -9.36248e-05 6.35983e-07
-1.75708e-05 6.35983e-07 -0.000160133
0.00107919 -1.72556e-05 9.20704e-06
-1.72556e-05 -1.63489e-05 -1.19586e-06
9.20704e-06 -1.19586e-06 -0.000132343
0.000647578 3.25446e-06 1.89741e-07
3.25446e-06 -0.000105398 1.03067e-07
1.89741e-07 1.03067e-07 -0.000172174
0.00532416 -7.06083e-05 -0.000187131
-7.06083e-05 0.00268331 3.76892e-06
-0.000187131 3.76892e-06 0.00268424
0.000650765 -1.86911e-05 1.69216e-05
-1.86911e-05 -9.72031e-05 -2.30437e-06
1.69216e-05 -2.30437e-06 -0.000163917
0.00527632 1.49554e-05 -2.75478e-06
1.49554e-05 0.0026527 8.64717e-07
-2.75478e-06 8.64717e-07 0.00265587
0.00522391 -5.21598e-05 0.000178868
-5.21598e-05 0.00262379 -5.35892e-06
0.000178868 -5.35892e-06 0.00262689
0.00144081 3.02113e-05 -3.56179e-06
3.02113e-05 8.27979e-05 -1.85297e-07
-3.56179e-06 -1.85297e-07 -4.01036e-05
0.00166883 4.67671e-05 -1.91551e-07
4.67671e-05 0.000110585 -6.49867e-07
-1.91551e-07 -6.49867e-07 -3.03275e-06
0.00174887 7.34212e-05 -3.0839e-06
7.34212e-05 9.12235e-05 -2.6794e-07
-3.0839e-06 -2.6794e-07 -8.99797e-06
0.00109204 3.45276e-05 -1.13563e-05
3.45276e-05 -6.57152e-06 -1.50926e-06
-1.13563e-05 -1.50926e-06 -0.000117333
0.00140094 4.7418e-05 2.09848e-07
4.7418e-05 5.69122e-05 7.99821e-08
2.09848e-07 7.99821e-08 -6.85664e-05
0.0016085 5.35881e-05 -3.64697e-07
5.35881e-05 7.95003e-05 -1.41022e-06
-3.64697e-07 -1.41022e-06 -3.86014e-05
0.00063757 3.58134e-05 -1.61399e-05
3.58134e-05 -0.000104984 -3.50845e-06
-1.61399e-05 -3.50845e-06 -0.000170435
0.00108641 6.63479e-05 1.09693e-07
6.63479e-05 -6.72074e-06 1.97733e-07
1.09693e-07 1.97733e-07 -0.000120123
0.0013789 8.32115e-05 4.44154e-06
8.32115e-05 4.75759e-05 6.14929e-07
4.44154e-06 6.14929e-07 -8.27459e-05
0.00526028 0.000125885 -0.000198991
0.000125885 0.00264942 -1.07324e-05
-0.000198991 -1.07324e-05 0.0026485
0.00062822 6.12185e-05 2.17587e-07
6.12185e-05 -0.000102086 1.68786e-07
2.17587e-07 1.68786e-07 -0.000168507
0.00103525 9.29081e-05 8.41451e-06
9.29081e-05 -2.67432e-05 2.4033e-06
8.41451e-06 2.4033e-06 -0.000143372
0.00522293 0.000126507 5.20864e-06
0.000126507 0.00263478 1.80097e-06
5.20864e-06 1.80097e-06 0.00263185
0.000596965 8.14248e-05 1.60653e-05
8.14248e-05 -0.000105386 6.40364e-06
1.60653e-05 6.40364e-06 -0.000173859
0.00519609 9.28032e-05 0.00017643
9.28032e-05 0.00262198 1.30711e-05
0.00017643 1.30711e-05 0.00261978
0.00111823 1.00495e-05 -1.1986e-05
1.00495e-05 8.68128e-06 -7.17156e-07
-1.1986e-05 -7.17156e-07 -0.00010179
0.00154093 1.73526e-05 2.55086e-06
1.73526e-05 0.000132847 8.28683e-08
2.55086e-06 8.28683e-08 1.33062e-05
0.0017039 2.18994e-05 -6.03261e-07
2.18994e-05 0.000116222 2.12328e-07
-6.03261e-07 2.12328e-07 2.22488e-06
0.000682663 2.44749e-05 -1.79321e-05
2.44749e-05 -9.28012e-05 -4.72239e-07
-1.79321e-05 -4.72239e-07 -0.00015367
0.000760261 -4.44702e-06 -2.13487e-06
-4.44702e-06 -0.00019674 1.49665e-08
-2.13487e-06 1.49665e-08 -0.000311363
0.0017402 9.42373e-06 6.45399e-06
9.42373e-06 0.000243461 1.20021e-07
6.45399e-06 1.20021e-07 0.000123992
0.000756417 -6.66951e-06 8.76472e-06
-6.66951e-06 -0.000203012 -3.20672e-07
8.76472e-06 -3.20672e-07 -0.000320084
0.00065614 -1.52121e-06 1.78622e-07
-1.52121e-06 -0.000103176 2.96598e-07
1.78622e-07 2.96598e-07 -0.000169416
0.00535958 5.26955e-05 -0.00019539
5.26955e-05 0.00270017 -9.12407e-07
-0.00019539 -9.12407e-07 0.00270304
0.000629702 1.23502e-05 1.66589e-05
1.23502e-05 -0.000115916 -1.122e-06
1.66589e-05 -1.122e-06 -0.000182352
0.00533656 -6.97064e-05 -7.84947e-06
-6.97064e-05 0.00269001 1.27536e-06
-7.84947e-06 1.27536e-06 0.00269078
0.00528833 4.23308e-05 0.00017225
4.23308e-05 0.00266046 -2.3928e-06
0.00017225 -2.3928e-06 0.00266249
0.00110145 1.77743e-05 -1.18646e-05
1.77743e-05 -1.45502e-06 -1.26306e-06
-1.18646e-05 -1.26306e-06 -0.000111409
0.00137636 2.95086e-05 4.61057e-08
2.95086e-05 4.49796e-05 -5.53358e-08
4.61057e-08 -5.53358e-08 -7.7262e-05
0.00167442 4.94329e-05 -1.47648e-06
4.94329e-05 0.000112668 -1.18355e-06
-1.47648e-06 -1.18355e-06 1.04289e-06
0.00256361 3.34511e-05 -9.74494e-05
3.34511e-05 0.000992149 -2.89022e-06
-9.74494e-05 -2.89022e-06 0.000945667
0.00109919 3.67843e-05 1.55799e-07
3.67843e-05 -2.98823e-06 1.90661e-07
1.55799e-07 1.90661e-07 -0.000113935
0.00136742 4.73333e-05 4.09308e-06
4.73333e-05 3.69619e-05 2.00709e-07
4.09308e-06 2.00709e-07 -8.88197e-05
0.00524039 0.000117971 -0.000202411
0.000117971 0.00264069 -8.4608e-06
-0.000202411 -8.4608e-06 0.00263885
0.0006674 4.55067e-05 5.12977e-07
4.55067e-05 -8.6836e-05 2.38653e-07
5.12977e-07 2.38653e-07 -0.00015309
0.00108762 6.82611e-05 1.14917e-05
6.82611e-05 -5.86709e-06 2.45489e-06
1.14917e-05 2.45489e-06 -0.000119625
0.00526676 0.000140858 7.37851e-07
0.000140858 0.00265734 1.54914e-06
7.37851e-07 1.54914e-06 0.00265458
0.000655226 6.17401e-05 1.66188e-05
6.17401e-05 -8.62771e-05 5.19874e-06
1.66188e-05 5.19874e-06 -0.000152915
0.00518036 0.000146162 0.000185141
0.000146162 0.00261484 1.42204e-05
0.000185141 1.42204e-05 0.0026102
0.000717844 7.79537e-06 -1.61758e-05
7.79537e-06 -6.44105e-05 -1.7385e-06
-1.61758e-05 -1.7385e-06 -0.000130164
0.000936373 7.75754e-06 6.27352e-07
7.75754e-06 -9.44201e-05 2.30922e-07
6.27352e-07 2.30922e-07 -0.000206266
0.00136576 1.18816e-05 6.01369e-06
1.18816e-05 3.37917e-05 2.41585e-07
6.01369e-06 2.41585e-07 -8.70297e-05
0.00527387 -9.1622e-05 -0.00017971
-9.1622e-05 0.0026666 -7.46029e-07
-0.00017971 -7.46029e-07 0.00266042
0.000656781 7.85596e-06 -3.15029e-07
7.85596e-06 -0.0001031 2.11283e-07
-3.15029e-07 2.11283e-07 -0.000166359
0.000754019 8.58605e-07 8.77013e-06
8.58605e-07 -0.000201353 1.69727e-07
8.77013e-06 1.69727e-07 -0.00031617
0.000629374 1.83785e-05 1.70256e-05
1.83785e-05 -0.000118148 2.05819e-07
1.70256e-05 2.05819e-07 -0.000184197
0.00533687 1.84095e-05 2.89872e-06
1.84095e-05 0.0026905 -1.72707e-07
2.89872e-06 -1.72707e-07 0.00269083
0.00536378 2.41015e-05 0.000184055
2.41015e-05 0.00269845 -5.79553e-07
0.000184055 -5.79553e-07 0.00270245
0.00260756 8.0502e-07 -9.61138e-05
8.0502e-07 0.00101308 -1.9837e-06
-9.61138e-05 -1.9837e-06 0.000967056
0.00111579 2.03986e-05 2.10137e-09
2.03986e-05 6.16895e-06 5.96905e-08
2.10137e-09 5.96905e-08 -0.000103862
0.00131008 2.90062e-05 3.82145e-06
2.90062e-05 6.18085e-06 -1.12647e-08
3.82145e-06 -1.12647e-08 -0.000115402
0.0049457 -6.53616e-05 -4.12326e-05
-6.53616e-05 0.00248206 -2.25814e-07
-4.12326e-05 -2.25814e-07 0.00246725
0.000679474 3.58673e-05 -3.72922e-08
3.58673e-05 -8.24938e-05 2.36187e-07
-3.72922e-08 2.36187e-07 -0.0001484
0.0011184 3.95646e-05 1.14752e-05
3.95646e-05 7.13029e-06 1.93841e-06
1.14752e-05 1.93841e-06 -0.000103966
0.00527755 8.1235e-05 -1.13915e-05
8.1235e-05 0.00265682 -4.6933e-07
-1.13915e-05 -4.6933e-07 0.00265772
0.000696843 6.28944e-05 1.77923e-05
6.28944e-05 -6.87118e-05 4.36225e-06
1.77923e-05 4.36225e-06 -0.000135838
0.00525302 0.000161642 0.00019479
0.000161642 0.00265536 1.38715e-05
0.00019479 1.38715e-05 0.00264986
0.00165669 -3.77675e-05 -0.000162906
-3.77675e-05 0.000577184 4.13793e-07
-0.000162906 4.13793e-07 0.000561783
0.00164337 1.93736e-05 -3.94306e-05
1.93736e-05 0.00046028 2.43222e-07
-3.94306e-05 2.43222e-07 0.000407306
0.000760918 7.95838e-06 1.16594e-05
7.95838e-06 -0.000193899 9.49173e-07
1.16594e-05 9.49173e-07 -0.000307141
0.00528711 -3.74157e-05 8.47411e-06
-3.74157e-05 0.00266974 1.544e-07
8.47411e-06 1.544e-07 0.00266711
0.000656277 -7.87812e-06 1.7521e-05
-7.87812e-06 -0.000100155 9.69972e-07
1.7521e-05 9.69972e-07 -0.000165172
0.00534852 -5.23622e-05 0.000199687
-5.23622e-05 0.00269693 -6.5046e-07
0.000199687 -6.5046e-07 0.00269822
0.00130829 -1.49317e-05 -1.96342e-05
-1.49317e-05 0.000398028 -7.99276e-07
-1.96342e-05 -7.99276e-07 0.000364263
0.00163796 1.04506e-05 -3.96495e-05
1.04506e-05 0.000461033 -2.68252e-07
-3.96495e-05 -2.68252e-07 0.000405886
0.00111769 2.14675e-05 1.16291e-05
2.14675e-05 7.06231e-06 1.41128e-06
1.16291e-05 1.41128e-06 -0.000103071
0.00328185 3.57413e-05 7.33204e-05
3.57413e-05 0.00151738 1.40963e-06
7.33204e-05 1.40963e-06 0.00150287
0.000688024 4.43443e-05 1.78986e-05
4.43443e-05 -7.74372e-05 3.58182e-06
1.78986e-05 3.58182e-06 -0.000143612
0.00529434 8.18207e-05 0.000185364
8.18207e-05 0.00266436 9.02227e-06
0.000185364 9.02227e-06 0.00266665
0.00522281 -2.62884e-05 -8.90038e-06
-2.62884e-05 0.00263548 -7.94476e-07
-8.90038e-06 -7.94476e-07 0.00263235
0.000670366 3.27059e-05 1.83749e-05
3.27059e-05 -9.55037e-05 1.75601e-06
1.83749e-05 1.75601e-06 -0.000156233
0.0052295 5.66105e-05 0.000184356
5.66105e-05 0.00263436 -6.07462e-07
0.000184356 -6.07462e-07 0.00263409
0.00327005 2.86814e-05 8.80405e-05
2.86814e-05 0.00151471 1.93058e-06
8.80405e-05 1.93058e-06 0.00149911
0.000693682 6.22038e-06 1.74709e-05
6.22038e-06 -7.63106e-05 2.52101e-06
1.74709e-05 2.52101e-06 -0.000140977
0.00526795 -3.93263e-05 0.00017842
-3.93263e-05 0.00265136 4.50867e-06
0.00017842 4.50867e-06 0.00265221
0.00522903 -0.000134472 0.000178715
-0.000134472 0.00264596 -1.4804e-06
0.000178715 -1.4804e-06 0.00263766
0.00522761 -2.62579e-05 0.000176955
-2.62579e-05 0.00262528 2.12307e-06
0.000176955 2.12307e-06 0.00262905
