# vtk DataFile Version 2.0
Wound Healing Simulation
ASCII
DATASET UNSTRUCTURED_GRID
POINTS 3012 float
69.9759 18.75 4
67.2507 60.3285 4
69.976 18.75 2
73.0099 25.446 4
71.1327 20.9142 4
68.6801 16.6661 4
67.8253 19.9261 3.98224
67.2507 60.3286 2
71.1327 54.0858 4
68.6801 58.3339 4
65.6939 62.2254 4
65.3118 59.0009 3.98112
74.6784 42.3946 4
73.7221 47.2057 4
69.9759 18.75 0
73.0099 25.446 2
68.6801 16.6661 2
71.1327 20.9142 2
67.8259 19.9291 2
74.6792 32.6053 4
73.7222 27.7943 4
72.1454 23.1494 4
70.614 26.2209 3.98169
68.8855 21.958 3.98259
67.2507 14.6715 4
66.6367 17.9722 3.98116
65.7959 21.0259 3.97242
67.2507 60.3285 0
71.1327 54.0858 2
68.6801 58.3339 2
65.694 62.2255 2
65.3129 58.9974 2
72.1454 51.8506 4
69.9759 56.25 4
68.8362 53.1129 3.98162
64.0165 64.0165 4
66.6104 57.1335 3.98166
63.8853 60.7657 3.98279
63.4987 57.7692 3.9726
60.3285 67.2507 4
74.6792 42.3947 2
73.7222 47.2057 2
74.9194 39.9526 4
74.2788 44.8158 4
72.168 42.0855 3.98079
73.0099 49.554 4
71.2491 46.598 3.98072
73.0099 25.446 0
71.1327 20.9142 0
68.6801 16.6661 0
67.8253 19.9261 0.0177636
74.6792 32.6053 2
73.7222 27.7943 2
67.2508 14.6715 2
72.1455 23.1494 2
70.614 26.2213 2
66.6375 17.9759 2
68.8858 21.96 2
65.7953 21.0266 2
74.9197 35.0474 4
74.2794 30.1841 4
72.1847 32.9432 3.98126
71.278 28.4313 3.9811
69.8154 24.0595 3.98234
68.3458 26.9517 3.97097
66.7614 22.9336 3.97175
65.694 12.7746 4
65.3231 16.104 3.98103
64.712 19.1966 3.97301
63.8835 22.0383 3.96833
71.1327 54.0858 0
65.6939 62.2254 0
68.6801 58.3339 0
65.3118 59.0009 0.0188765
72.1455 51.8506 2
69.9759 56.25 2
68.8364 53.111 2
64.0165 64.0165 2
66.6113 57.1301 2
63.8869 60.7628 2
63.4982 57.7692 2
62.2254 65.694 4
58.8945 65.4141 3.99069
69.7687 50.9888 3.98143
67.7835 55.1671 3.98164
66.6482 52.2083 3.97077
62.3359 62.4274 3.98625
64.6595 56.0302 3.9728
62.2012 59.4013 3.97319
61.8184 56.6754 3.96847
58.3339 68.6801 4
60.3285 67.2508 2
73.7221 47.2057 0
74.6784 42.3946 0
74.9197 39.9526 2
74.2794 44.8159 2
72.1676 42.0855 2
73.0099 49.554 2
71.249 46.5978 2
75 37.5 4
72.4054 39.8021 3.98134
71.7824 44.3528 3.98087
69.803 41.7891 3.97045
70.5749 48.8134 3.98101
68.9111 46.0141 3.97018
74.6792 32.6053 0
73.7222 27.7943 0
67.2507 14.6715 0
72.1454 23.1494 0
70.614 26.2209 0.0183111
68.8855 21.958 0.017412
66.6367 17.9722 0.0188372
65.7959 21.0259 0.0275759
74.9197 35.0474 2
74.2794 30.1841 2
72.1843 32.9435 2
71.2779 28.4317 2
65.694 12.7745 2
65.3244 16.1076 2
69.8155 24.0606 2
68.3457 26.9521 2
64.7115 19.1971 2
66.761 22.9343 2
63.8829 22.0385 2
72.4132 35.224 3.98136
71.8038 30.6762 3.98129
69.8391 33.2683 3.97099
68.965 29.0384 3.97078
67.6102 24.9123 3.97127
66.1916 27.6359 3.96789
64.0165 10.9835 4
64.7534 23.8321 3.96828
63.8898 14.3275 3.98386
63.511 17.4505 3.97262
62.9025 20.3248 3.96815
62.0797 22.9504 3.96723
60.6838 11.0981 3.98728
57.6118 11.4504 3.97923
72.1454 51.8506 0
69.9759 56.25 0
68.8362 53.1129 0.0183777
64.0165 64.0165 0
63.8853 60.7657 0.0172098
66.6104 57.1335 0.0183366
63.4987 57.7692 0.0274009
62.2255 65.694 2
58.8956 65.4136 2
69.7687 50.9879 2
67.7839 55.1642 2
66.6477 52.2077 2
62.3377 62.4254 2
64.6589 56.0299 2
62.2007 59.4018 2
61.8178 56.6757 2
60.6686 63.9769 3.98847
57.0256 66.7348 3.99163
57.5576 63.6904 3.98182
67.5062 50.1759 3.9702
65.7006 54.1722 3.97148
64.5343 51.3824 3.96714
60.7723 60.9355 3.97729
62.8161 55.0636 3.96816
60.6536 58.1517 3.96691
60.3204 55.7749 3.96826
56.25 69.9759 4
58.3339 68.6801 2
60.3285 67.2507 0
58.9211 9.65636 3.9885
62.2254 9.30607 4
73.0099 49.554 0
74.2788 44.8158 0
71.2491 46.598 0.0192789
72.168 42.0855 0.0192107
74.9194 39.9526 0
75 37.5 2
72.4053 39.8023 2
71.7823 44.3526 2
69.8026 41.7889 2
70.5749 48.8132 2
68.9111 46.0136 2
72.4887 37.5119 3.98109
70.0404 39.657 3.97069
69.4293 43.9069 3.97032
67.5946 41.4964 3.96814
68.2647 48.1064 3.9701
66.7062 45.438 3.96754
74.9197 35.0474 0
74.2794 30.1841 0
72.1847 32.9432 0.0187438
71.278 28.4313 0.0188994
65.694 12.7746 0
65.3231 16.104 0.0189651
69.8154 24.0595 0.0176643
68.3458 26.9517 0.0290261
66.7614 22.9336 0.0282489
64.712 19.1966 0.0269886
63.8835 22.0383 0.0316683
72.4131 35.2242 2
71.8038 30.6766 2
69.8387 33.2687 2
68.965 29.0387 2
64.0165 10.9835 2
63.8915 14.3305 2
63.5105 17.4507 2
67.61 24.9129 2
66.1915 27.6361 2
62.9018 20.325 2
64.7529 23.8324 2
62.0789 22.9506 2
60.6856 11.1 2
57.6124 11.4493 2
70.0571 35.3918 3.97087
69.4661 31.1495 3.97075
67.6531 33.5912 3.96838
66.7692 29.6238 3.96789
65.521 25.7008 3.96809
64.1186 28.2618 3.96931
62.3415 12.6553 3.98607
62.8397 24.6441 3.96801
62.1976 15.7884 3.97497
61.8068 18.692 3.9669
61.2066 21.35 3.96592
60.3891 23.7416 3.96856
59.2457 12.7822 3.97779
55.8741 10.2359 3.98179
56.404 13.1215 3.97503
69.7687 50.9888 0.0185733
62.2254 65.694 0
58.8945 65.4141 0.0093099
67.7835 55.1671 0.018363
66.6482 52.2083 0.0292254
62.3359 62.4274 0.0137452
62.2012 59.4013 0.0268075
64.6595 56.0302 0.0271998
61.8184 56.6754 0.0315252
60.6701 63.9757 2
57.0263 66.7345 2
57.5578 63.6918 2
67.506 50.1753 2
65.7 54.1716 2
64.5338 51.3823 2
60.7722 60.9368 2
62.8155 55.0637 2
60.6532 58.1522 2
60.32 55.7749 2
55.0713 67.9317 3.99209
59.2186 62.364 3.9787
55.8046 64.9092 3.98525
56.3255 62.0856 3.97681
65.3285 49.4059 3.96706
63.7021 53.2889 3.96741
62.4176 50.6422 3.96705
59.3306 59.5515 3.97194
61.0695 54.2999 3.96746
59.28 56.9968 3.96441
59.2315 55.1691 3.96679
48.1026 68.5779 3.98775
50.9491 69.9313 3.99231
54.0858 71.1327 4
56.25 69.976 2
58.3339 68.6801 0
57.0585 8.33621 3.98966
60.3285 7.74928 4
58.9228 9.65753 2
62.2255 9.30602 2
70.5749 48.8134 0.018992
71.7824 44.3528 0.0191283
68.9111 46.0141 0.0298172
69.803 41.7891 0.0295517
72.4054 39.8021 0.0186608
75 37.5 0
72.4883 37.5121 2
70.0403 39.6569 2
69.4291 43.9065 2
67.5943 41.4963 2
68.2647 48.1058 2
66.706 45.4378 2
70.1284 37.5212 3.97087
67.8325 39.5116 3.96839
67.2198 43.4684 3.96774
65.5165 41.2054 3.97081
66.0654 47.4159 3.96733
64.6142 44.8409 3.96951
72.4132 35.224 0.0186362
71.8038 30.6762 0.0187148
69.8391 33.2683 0.0290079
68.965 29.0384 0.0292246
64.0165 10.9835 0
63.8898 14.3275 0.016135
63.511 17.4505 0.0273754
67.6102 24.9123 0.0287342
66.1916 27.6359 0.0321085
64.7534 23.8321 0.0317206
62.9025 20.3248 0.0318541
62.0797 22.9504 0.0327678
60.6838 11.0981 0.0127176
57.6118 11.4504 0.0207669
70.057 35.392 2
69.466 31.1499 2
67.6528 33.5914 2
66.7693 29.624 2
62.3433 12.6579 2
62.1973 15.7881 2
61.8064 18.6919 2
65.5207 25.7011 2
64.1179 28.262 2
61.2059 21.35 2
62.8392 24.6443 2
60.389 23.7421 2
59.2461 12.7818 2
56.4044 13.1201 2
55.8747 10.2346 2
67.8684 35.5475 3.96848
67.2627 31.623 3.96815
65.6681 33.9294 3.97101
64.6315 30.1974 3.9697
63.516 26.4208 3.9688
62.1956 28.7897 3.9728
60.7747 14.2266 3.9776
61.0012 25.3515 3.97023
60.6073 17.1362 3.96989
60.2077 19.8277 3.96525
59.6236 22.2743 3.9659
58.9196 24.3406 3.97076
54.0375 9.13774 3.98339
57.9087 14.3396 3.97626
54.786 12.0184 3.97674
55.3098 14.6594 3.97432
67.5062 50.1759 0.0298029
57.0256 66.7348 0.00837328
60.6686 63.9769 0.0115264
57.5576 63.6904 0.0181809
65.7006 54.1722 0.0285217
64.5343 51.3824 0.0328591
60.7723 60.9355 0.0227142
60.6536 58.1517 0.0330909
62.8161 55.0636 0.0318359
60.3204 55.7749 0.0317398
55.0719 67.9316 2
59.2187 62.3653 2
55.8046 64.9102 2
56.3253 62.0871 2
65.3282 49.4056 2
63.7014 53.2888 2
62.4178 50.6422 2
59.3303 59.5531 2
61.0691 54.2999 2
59.2797 56.9966 2
59.2312 55.1688 2
53.0432 68.9995 3.99219
53.9671 66.0123 3.98672
57.8787 60.8651 3.97598
54.6835 63.2049 3.98095
55.209 60.6071 3.97603
63.1625 48.6513 3.96786
61.7265 52.5659 3.96681
60.2147 50.0002 3.96879
58.0112 58.2515 3.96861
59.3128 53.9325 3.96723
58.1079 55.7938 3.96504
50.1093 67.8561 3.98756
47.4632 66.5791 3.98456
46.0561 69.157 3.98786
48.1025 68.5785 2
48.8032 70.7226 3.99241
50.9495 69.9314 2
51.8506 72.1454 4
54.0858 71.1327 2
56.25 69.9759 0
55.1032 7.14063 3.99082
58.3339 6.31992 4
57.0599 8.33675 2
60.3286 7.74926 2
58.9211 9.65636 0.0114984
62.2254 9.30607 0
68.2647 48.1064 0.0299005
69.4293 43.9069 0.0296755
66.7062 45.438 0.0324573
67.5946 41.4964 0.0318616
70.0404 39.657 0.0293121
72.4887 37.5119 0.0189132
70.1282 37.5213 2
67.8324 39.5116 2
67.22 43.4682 2
65.5157 41.2052 2
66.0653 47.4156 2
64.6134 44.8406 2
67.9288 37.5216 3.96851
65.7512 39.3676 3.97116
65.1385 43.0193 3.97023
63.6709 40.922 3.97424
63.9273 46.7077 3.96866
62.7281 44.2033 3.97332
70.0571 35.3918 0.0291315
69.4661 31.1495 0.0292473
67.6531 33.5912 0.0316157
66.7692 29.6238 0.0321131
62.3415 12.6553 0.013934
62.1976 15.7884 0.0250275
61.8068 18.692 0.0331046
65.521 25.7008 0.0319091
64.1186 28.2618 0.0306891
62.8397 24.6441 0.0319892
61.2066 21.35 0.0340828
60.3891 23.7416 0.0314397
59.2457 12.7822 0.0222089
56.404 13.1215 0.0249684
55.8741 10.2359 0.0182141
67.8684 35.5476 2
67.2626 31.6232 2
65.6676 33.9295 2
64.631 30.1976 2
60.7747 14.2264 2
60.607 17.1354 2
60.2076 19.8277 2
63.5156 26.421 2
62.1943 28.7901 2
59.6256 22.2746 2
61.0008 25.3519 2
58.9187 24.3414 2
57.9084 14.3388 2
55.3097 14.6592 2
54.0378 9.1366 2
54.7864 12.0165 2
65.8418 35.6674 3.97096
65.1508 32.1583 3.9703
64.221 34.2527 3.97461
62.5116 30.6465 3.97349
61.5942 27.0857 3.97127
60.7585 29.1561 3.97642
59.3081 15.6758 3.97453
59.2533 25.8174 3.97386
59.1115 18.3697 3.96679
58.7139 20.8708 3.96376
58.2252 23.1146 3.96627
57.8917 24.6898 3.97273
52.1122 8.15511 3.98506
53.0578 11.0223 3.97923
56.6726 15.7539 3.97571
53.8076 13.6923 3.97573
54.3707 16.0151 3.97575
55.0713 67.9317 0.00791213
65.3285 49.4059 0.0329421
55.8046 64.9092 0.0147519
59.2186 62.364 0.021301
56.3255 62.0856 0.0231864
63.7021 53.2889 0.0325883
62.4176 50.6422 0.0329478
59.3306 59.5515 0.0280585
59.28 56.9968 0.0355949
61.0695 54.2999 0.0325381
59.2315 55.1691 0.0332135
53.0437 68.9995 2
53.967 66.013 2
57.8783 60.8664 2
54.6832 63.2059 2
55.2089 60.6087 2
63.1622 48.6512 2
61.7276 52.566 2
60.2142 49.9998 2
58.0108 58.2531 2
59.3138 53.9322 2
58.107 55.7932 2
52.0705 66.999 3.98729
52.9535 64.2168 3.98318
56.6442 59.4807 3.97445
53.6798 61.6177 3.97786
54.2552 59.3089 3.97472
60.914 47.8616 3.96941
59.6656 52.0867 3.96788
57.9326 49.5897 3.97031
56.764 56.9681 3.96726
57.0885 54.1008 3.96574
50.1092 67.8565 2
49.3371 65.9196 3.98441
47.4631 66.5797 2
46.8925 64.733 3.98288
45.5582 67.0961 3.98468
43.9731 69.5893 3.98797
46.0561 69.1576 2
46.6097 71.367 3.9924
48.1026 68.5779 0.012254
48.8035 70.7228 2
49.554 73.0099 4
50.9491 69.9313 0.00769287
51.8506 72.1455 2
54.0858 71.1327 0
53.0647 6.07207 3.99147
55.1042 7.14073 2
56.25 5.02411 4
58.3339 6.3199 2
57.0585 8.33621 0.0103405
60.3285 7.74928 0
66.0654 47.4159 0.0326719
67.2198 43.4684 0.0322602
64.6142 44.8409 0.0304934
65.5165 41.2054 0.0291869
67.8325 39.5116 0.0316124
70.1284 37.5212 0.0291318
67.9285 37.5217 2
65.7504 39.3675 2
65.1379 43.0191 2
63.6697 40.9218 2
63.9265 46.7074 2
62.7266 44.2029 2
65.8548 37.5008 3.97094
63.8146 39.2619 3.97382
63.2401 42.5394 3.9737
62.3119 40.6877 3.97722
61.8884 45.9031 3.97135
61.3356 43.6664 3.9769
67.8684 35.5475 0.0315152
67.2627 31.623 0.0318464
65.6681 33.9294 0.0289881
64.6315 30.1974 0.0303034
60.7747 14.2266 0.0223958
60.6073 17.1362 0.0301115
60.2077 19.8277 0.0347521
63.516 26.4208 0.0312027
62.1956 28.7897 0.0271965
61.0012 25.3515 0.0297659
59.6236 22.2743 0.0341032
58.9196 24.3406 0.0292439
57.9087 14.3396 0.0237376
55.3098 14.6594 0.025684
54.0375 9.13774 0.0166063
54.786 12.0184 0.0232603
65.841 35.6675 2
65.1506 32.1584 2
64.2205 34.2529 2
62.5104 30.6469 2
59.3074 15.6754 2
59.1116 18.369 2
58.7151 20.871 2
61.5935 27.0862 2
60.7577 29.1566 2
58.2248 23.1155 2
59.2526 25.8182 2
57.8911 24.6908 2
56.6722 15.7531 2
54.3703 16.0152 2
53.8076 13.6897 2
52.1124 8.15419 2
53.0579 11.0209 2
64.0163 35.6332 3.97392
62.8388 33.0532 3.97443
60.5011 30.6273 3.97653
59.4719 27.9307 3.9749
57.9326 16.9948 3.97214
57.6484 25.7528 3.97532
57.6933 19.4951 3.96362
57.319 21.8647 3.9628
57.1004 23.9759 3.96802
50.1126 7.28586 3.98691
51.2327 10.1285 3.98113
52.1709 12.8051 3.97733
55.5295 16.9873 3.97483
52.9741 15.2815 3.97355
53.7497 16.9998 3.97919
53.0432 68.9995 0.00780796
53.9671 66.0123 0.0132781
63.1625 48.6513 0.0321392
54.6835 63.2049 0.0190485
57.8787 60.8651 0.0240168
55.209 60.6071 0.0239741
61.7265 52.5659 0.0331865
60.2147 50.0002 0.031213
58.0112 58.2515 0.0313894
58.1079 55.7938 0.0349625
59.3128 53.9325 0.0327748
52.0704 66.9996 2
52.9532 64.2176 2
56.6438 59.4816 2
53.6796 61.6185 2
54.2551 59.3105 2
60.9129 47.8611 2
59.6662 52.0864 2
57.9295 49.5887 2
56.7628 56.9726 2
57.0869 54.1002 2
51.1682 65.1265 3.98441
52.0457 62.5352 3.98044
55.4728 58.2385 3.975
52.8308 60.1262 3.9774
53.6315 58.4589 3.97906
58.1806 46.8199 3.97383
57.5 51.7619 3.96743
56.1274 49.5217 3.97063
55.448 55.768 3.96282
55.3071 53.3556 3.96376
50.1093 67.8561 0.0124406
49.337 65.92 2
48.6183 64.1198 3.98314
47.4632 66.5791 0.0154418
45.5582 67.0967 2
46.8925 64.7335 2
46.3822 63.0488 3.98237
45.1328 65.1939 3.98292
43.6314 67.4667 3.98475
41.8604 69.8766 3.98785
43.9731 69.5898 2
44.377 71.8619 3.99234
46.0561 69.157 0.0121371
46.61 71.3673 2
47.2057 73.7222 4
48.8032 70.7226 0.00758897
49.554 73.0099 2
51.8506 72.1454 0
50.9547 5.13228 3.99209
53.0653 6.07201 2
54.0858 3.86728 4
55.1032 7.14063 0.00918214
56.25 5.02406 2
58.3339 6.31992 0
63.9273 46.7077 0.0313381
65.1385 43.0193 0.0297744
62.7281 44.2033 0.0266797
63.6709 40.922 0.0257642
65.7512 39.3676 0.0288446
67.9288 37.5216 0.0314944
65.854 37.5008 2
63.8135 39.2617 2
63.2389 42.5391 2
62.3103 40.6874 2
61.887 45.9026 2
61.3341 43.6659 2
63.877 37.455 3.97354
62.0331 39.3487 3.97701
61.0823 41.9427 3.97676
60.1326 44.7488 3.97574
65.8418 35.6674 0.0290448
65.1508 32.1583 0.0297028
64.221 34.2527 0.02539
62.5116 30.6465 0.0265143
59.3081 15.6758 0.0254735
59.1115 18.3697 0.0332089
58.7139 20.8708 0.0362411
61.5942 27.0857 0.0287315
60.7585 29.1561 0.0235781
59.2533 25.8174 0.0261442
58.2252 23.1146 0.0337308
57.8917 24.6898 0.0272736
56.6726 15.7539 0.0242931
54.3707 16.0151 0.0242488
53.8076 13.6923 0.024267
52.1122 8.15511 0.0149406
53.0578 11.0223 0.020769
64.0154 35.6332 2
62.8377 33.0535 2
60.4999 30.6277 2
57.9319 16.9944 2
57.6938 19.4937 2
57.3202 21.8654 2
59.4709 27.9313 2
57.0994 23.9772 2
57.6478 25.7538 2
50.1127 7.28474 2
55.5291 16.9868 2
53.7491 16.9995 2
52.974 15.2811 2
52.1711 12.8042 2
51.2328 10.1274 2
62.0694 35.3634 3.97604
60.1441 32.759 3.97668
58.4795 30.1001 3.97696
57.1663 27.4119 3.97623
56.6229 18.1724 3.97141
56.1889 25.1362 3.97268
56.3226 20.5454 3.96178
56.0286 22.9015 3.96278
48.0567 6.52797 3.98841
49.3249 9.33415 3.98258
50.4327 12.0006 3.97868
51.3744 14.5093 3.97429
54.4015 17.9391 3.976
52.353 17.0612 3.97164
52.0705 66.999 0.0127094
52.9535 64.2168 0.0168151
60.914 47.8616 0.0305869
53.6798 61.6177 0.0221376
56.6442 59.4807 0.0255478
54.2552 59.3089 0.0252837
59.6656 52.0867 0.0321213
57.9326 49.5897 0.0296926
56.764 56.9681 0.0327371
57.0885 54.1008 0.0342557
51.168 65.127 2
52.0454 62.5359 2
55.4723 58.2395 2
52.8307 60.1289 2
53.631 58.4598 2
58.1791 46.8191 2
57.4991 51.7613 2
56.1242 49.5207 2
55.4479 55.7685 2
55.3089 53.356 2
50.3464 63.3785 3.98282
51.2424 60.9294 3.97763
54.2047 57.2547 3.97504
52.3052 58.6187 3.97578
56.5166 44.1447 3.97778
55.3365 47.8572 3.97217
54.9861 51.3586 3.96646
53.9638 54.5151 3.96355
49.3371 65.9196 0.0155946
48.6182 64.1203 2
47.9622 62.4702 3.98187
45.5582 67.0961 0.0153185
46.8925 64.733 0.0171234
43.6314 67.4673 2
46.3823 63.0492 2
45.1327 65.1945 2
45.9878 61.5799 3.98277
44.7675 63.4489 3.98159
43.3569 65.5032 3.98273
41.6635 67.6854 3.98459
39.7022 70.0236 3.98806
41.8604 69.8771 2
42.1113 72.2068 3.9923
43.9731 69.5893 0.012025
44.3773 71.8622 2
44.8159 74.2794 4
46.6097 71.367 0.00759889
47.2057 73.7222 2
49.554 73.0099 0
48.7853 4.32292 3.9926
50.9551 5.1319 2
51.8506 2.85458 4
53.0647 6.07207 0.00853455
54.0858 3.86728 2
56.25 5.02411 0
61.8884 45.9031 0.0286481
63.2401 42.5394 0.0263037
61.3356 43.6664 0.023095
62.3119 40.6877 0.0227802
63.8146 39.2619 0.0261758
65.8548 37.5008 0.0290598
63.8759 37.455 2
62.0314 39.3488 2
61.0807 41.9423 2
60.1311 44.7482 2
61.873 37.4437 3.97728
60.0786 39.8314 3.97742
58.8126 42.8907 3.97744
64.0163 35.6332 0.0260791
62.8388 33.0532 0.0255658
60.5011 30.6273 0.0234723
57.9326 16.9948 0.0278619
57.6933 19.4951 0.0363818
57.319 21.8647 0.0371978
59.4719 27.9307 0.0251021
57.6484 25.7528 0.0246758
57.1004 23.9759 0.0319801
55.5295 16.9873 0.0251685
53.7497 16.9998 0.0208073
52.9741 15.2815 0.0264532
50.1126 7.28586 0.0130906
52.1709 12.8051 0.0226657
51.2327 10.1285 0.018874
62.0682 35.3637 2
60.1418 32.7593 2
58.4787 30.1008 2
56.6221 18.172 2
56.3236 20.5427 2
56.0301 22.9025 2
57.1672 27.4128 2
56.1898 25.1373 2
48.0567 6.52691 2
49.3251 9.33291 2
54.4012 17.9388 2
52.3522 17.0611 2
51.3741 14.5075 2
50.4329 11.9996 2
59.7241 35.1294 3.97718
57.7963 32.2974 3.97721
56.386 29.3751 3.97739
55.2941 26.6423 3.9763
55.3193 19.2083 3.97017
54.8261 24.0982 3.96441
54.9466 21.5926 3.959
45.9628 5.88268 3.989
43.3743 7.47382 3.98599
47.3556 8.62575 3.98438
48.6 11.299 3.97994
49.7112 13.7523 3.97813
50.6277 16.1531 3.97735
53.1067 18.6852 3.97159
51.2875 18.0769 3.97965
51.1682 65.1265 0.0155929
52.0457 62.5352 0.0195596
58.1806 46.8199 0.0261707
52.8308 60.1262 0.0226034
55.4728 58.2385 0.0250022
53.6315 58.4589 0.0209449
57.5 51.7619 0.0325743
56.1274 49.5217 0.0293664
55.448 55.768 0.0371776
55.3071 53.3556 0.0362411
50.3461 63.3786 2
51.2421 60.9297 2
54.2043 57.2559 2
52.3047 58.6195 2
56.5157 44.1438 2
55.3357 47.8563 2
54.9869 51.3584 2
53.9643 54.5162 2
49.5917 61.741 3.98146
55.3557 41.6724 3.97615
50.5615 59.3194 3.97459
52.1644 56.473 3.96933
53.9631 45.5131 3.9751
53.1924 49.289 3.97037
52.6006 52.8201 3.96412
48.6183 64.1198 0.016865
47.9622 62.4705 2
47.3284 61.0029 3.98344
43.6314 67.4667 0.0152464
45.1328 65.1939 0.017076
46.3822 63.0488 0.0176282
41.6636 67.6856 2
43.3568 65.5039 2
45.988 61.5805 2
44.7676 63.4496 2
45.7654 60.6234 3.98131
44.484 61.8283 3.98137
43.1468 63.7209 3.98112
41.5464 65.6409 3.98203
39.6328 67.7649 3.98425
37.526 70.0484 3.98774
39.7022 70.0241 2
39.8179 72.4038 3.99215
41.8604 69.8766 0.0121506
42.1115 72.2071 2
42.3947 74.6792 4
44.377 71.8619 0.00766037
44.8159 74.2794 2
47.2057 73.7222 0
43.8521 5.35948 3.98904
46.5713 3.64732 3.99279
48.7855 4.32249 2
49.554 1.99015 4
50.9547 5.13228 0.00790656
51.8506 2.85453 2
54.0858 3.86728 0
60.1326 44.7488 0.0242634
61.0823 41.9427 0.023238
62.0331 39.3487 0.0229943
63.877 37.455 0.026462
61.8714 37.4439 2
60.0775 39.8311 2
58.8114 42.89 2
59.58 37.5648 3.97764
57.7713 40.6328 3.97775
54.7928 39.6852 3.97609
62.0694 35.3634 0.0239564
60.1441 32.759 0.0233223
58.4795 30.1001 0.0230429
56.6229 18.1724 0.0285911
56.3226 20.5454 0.0382213
56.0286 22.9015 0.0372225
57.1663 27.4119 0.0237667
56.1889 25.1362 0.0273177
54.4015 17.9391 0.0240001
52.353 17.0612 0.0283565
51.3744 14.5093 0.0257064
48.0567 6.52797 0.0115936
49.3249 9.33415 0.0174169
50.4327 12.0006 0.021317
59.7227 35.1296 2
45.9626 5.8821 2
43.3741 7.47331 2
57.7954 32.2982 2
56.3856 29.3759 2
55.3187 19.2084 2
54.9496 21.592 2
54.8251 24.0997 2
55.2898 26.644 2
47.3557 8.62402 2
48.6003 11.2977 2
53.1066 18.6847 2
51.2872 18.0782 2
50.6274 16.153 2
49.7109 13.7513 2
57.1602 34.7742 3.97744
55.5219 31.5539 3.97764
54.311 28.4589 3.97814
53.6466 25.5492 3.97417
53.9367 20.1631 3.97108
53.5047 22.7533 3.95615
41.3994 7.07936 3.9864
45.3605 7.99543 3.98635
42.8663 9.41711 3.98314
46.667 10.6569 3.98164
47.7438 13.1094 3.98013
48.9274 15.4141 3.97576
49.9949 17.72 3.97589
51.6253 19.3542 3.97825
50.3464 63.3785 0.0171774
51.2424 60.9294 0.0223674
56.5166 44.1447 0.0222193
55.3365 47.8572 0.0278337
52.3052 58.6187 0.0242196
54.2047 57.2547 0.0249602
54.9861 51.3586 0.0335382
53.9638 54.5151 0.0364489
49.5913 61.7407 2
55.3557 41.6724 2
50.5612 59.3203 2
52.164 56.4739 2
53.968 45.5123 2
53.1961 49.2892 2
52.6016 52.8194 2
48.8462 60.1974 3.9793
52.2183 42.5883 3.9814
49.7774 57.6109 3.97414
50.5479 54.4047 3.96602
51.6141 47.2219 3.97615
51.108 50.9114 3.9609
47.8691 43.73 3.99006
47.9622 62.4702 0.0181325
47.3287 61.0032 2
46.6166 59.7883 3.98266
41.6635 67.6854 0.0154145
43.3569 65.5032 0.0172695
44.7675 63.4489 0.0184097
45.9878 61.5799 0.0172347
39.633 67.7656 2
41.5462 65.6407 2
45.7654 60.6242 2
43.1468 63.7216 2
44.4841 61.8289 2
44.6223 60.2848 3.98247
42.951 62.0758 3.97965
41.6002 63.8142 3.98124
39.6477 65.6083 3.9811
37.5635 67.7467 3.98378
31.6969 65.1271 3.98192
33.3924 67.4843 3.98346
35.3337 69.9584 3.98779
37.526 70.0491 2
37.5095 72.4583 3.99204
39.7022 70.0236 0.0119355
39.8181 72.4042 2
39.9526 74.9197 4
42.1113 72.2068 0.00769627
42.3947 74.6792 2
44.8159 74.2794 0
41.7366 4.9687 3.98928
43.852 5.35891 2
44.3265 3.1104 3.99313
46.5714 3.64702 2
47.2057 1.27793 4
48.7853 4.32292 0.00739681
49.554 1.99013 2
51.8506 2.85458 0
58.8126 42.8907 0.0225606
60.0786 39.8314 0.0225786
61.873 37.4437 0.0227157
59.5788 37.5649 2
57.7716 40.6326 2
54.7937 39.6848 2
56.5606 37.8839 3.97755
49.2515 41.299 3.99023
52.8143 39.3007 3.98429
39.4429 6.80319 3.98627
59.7241 35.1294 0.0228152
57.7963 32.2974 0.0227915
56.386 29.3751 0.0226092
55.3193 19.2083 0.0298272
54.9466 21.5926 0.041003
54.8261 24.0982 0.0355869
55.2941 26.6423 0.0236977
53.1067 18.6852 0.0284103
51.2875 18.0769 0.0203544
50.6277 16.1531 0.0226531
45.9628 5.88268 0.0109959
49.7112 13.7523 0.0218712
47.3556 8.62575 0.0156245
48.6 11.299 0.0200583
43.3743 7.47382 0.0140114
57.1584 34.7734 2
41.3994 7.07861 2
45.3602 7.99489 2
42.8661 9.4167 2
55.5242 31.554 2
54.3096 28.4603 2
53.9366 20.164 2
53.5047 22.7509 2
53.6441 25.5508 2
46.6671 10.6543 2
47.7438 13.1076 2
51.6255 19.3549 2
49.994 17.7187 2
48.9267 15.4137 2
54.589 33.973 3.97628
53.265 30.5466 3.97766
52.4094 27.2658 3.97506
52.0439 24.1555 3.97684
52.3446 21.0904 3.97646
41.014 9.05036 3.98321
44.7252 9.9959 3.98418
42.4688 10.9041 3.9847
46.0044 12.7356 3.97837
47.6777 14.5938 3.97459
48.1022 16.9991 3.97473
49.8019 19.6848 3.97692
49.5917 61.741 0.0185436
50.5615 59.3194 0.0254053
55.3557 41.6724 0.0238539
53.9631 45.5131 0.024901
53.1924 49.289 0.0296335
52.1644 56.473 0.0306703
52.6006 52.8201 0.0358759
48.846 60.196 2
52.2269 42.5903 2
49.7767 57.6115 2
50.5478 54.406 2
51.6179 47.2228 2
51.1093 50.9102 2
47.8777 43.7501 2
47.9801 58.732 3.97916
49.8209 45.2272 3.98064
48.5716 55.9029 3.97663
49.0592 52.5661 3.97365
49.5263 49.0071 3.97097
45.6534 39.8526 3.88398
46.1038 42.6067 3.91994
46.2548 45.7701 3.98761
43.4715 41.1146 3.79903
41.8628 41.9948 3.66447
47.3284 61.0029 0.0165633
46.6164 59.7891 2
45.4641 58.7846 3.98186
39.6328 67.7649 0.0157473
41.5464 65.6409 0.0179738
43.1468 63.7209 0.0188812
44.484 61.8283 0.0186291
45.7654 60.6234 0.0186877
41.6002 63.8142 2
37.5636 67.7474 2
39.6477 65.6088 2
44.6223 60.2855 2
42.9511 62.0763 2
41.7539 62.487 3.98031
42.48 59.9735 3.982
39.8939 63.5475 3.97974
37.6423 65.5068 3.98161
35.4636 67.6558 3.98363
33.5753 65.3395 3.98111
31.9589 63.297 3.98157
29.8829 64.719 3.98302
31.697 65.1279 2
31.3769 67.1945 3.984
33.3924 67.4849 2
33.1568 69.7521 3.9876
35.3336 69.9592 2
35.1948 72.3726 3.99197
37.526 70.0484 0.0122571
37.5096 72.4588 2
37.5 75 4
39.8179 72.4038 0.00785031
39.9526 74.9197 2
42.3947 74.6792 0
39.6243 4.71611 3.98955
41.7366 4.96802 2
42.0628 2.71793 3.99329
43.8521 5.35948 0.0109582
44.3266 3.11002 2
44.8158 0.721173 4
46.5713 3.64732 0.00720771
47.2057 1.27779 2
49.554 1.99015 0
57.7713 40.6328 0.0222468
59.58 37.5648 0.0223631
54.7928 39.6852 0.023912
49.27 41.3043 2
56.5593 37.8838 2
52.8157 39.2936 2
53.6585 36.6291 3.97721
47.1764 40.3696 3.92815
50.1906 38.5119 3.99265
37.5168 6.67454 3.98626
39.4429 6.80225 2
39.2114 8.69359 3.9839
35.9427 8.49415 3.98385
57.1602 34.7742 0.0225594
55.5219 31.5539 0.0223617
54.311 28.4589 0.021855
53.9367 20.1631 0.0289155
53.5047 22.7533 0.0438461
53.6466 25.5492 0.025831
51.6253 19.3542 0.0217536
49.9949 17.72 0.0241145
48.9274 15.4141 0.0242376
45.3605 7.99543 0.0136524
47.7438 13.1094 0.0198713
46.667 10.6569 0.0183619
41.3994 7.07936 0.0135974
42.8663 9.41711 0.0168584
54.5853 33.9747 2
41.0139 9.04986 2
44.7246 9.99558 2
42.4684 10.9042 2
53.262 30.5456 2
52.4153 27.2675 2
52.3458 21.0908 2
52.0448 24.1566 2
46.0043 12.7316 2
47.6772 14.5918 2
49.8021 19.6853 2
48.101 16.9977 2
52.1441 32.887 3.98037
51.0764 29.2259 3.97552
50.6383 25.7957 3.97221
49.896 22.2688 3.981
40.5698 11.61 3.98068
43.8585 11.9176 3.98004
45.7972 15.4305 3.98149
47.4928 19.2981 3.97745
46.0139 37.4825 3.88821
48.8462 60.1974 0.0207034
49.7774 57.6109 0.0258576
52.2183 42.5883 0.0186031
51.6141 47.2219 0.0238482
51.108 50.9114 0.0391015
50.5479 54.4047 0.0339848
47.8691 43.73 0.00993854
47.9793 58.7324 2
49.8317 45.2352 2
48.5702 55.9046 2
49.0589 52.5694 2
49.5292 49.0065 2
45.6872 39.8584 2
46.1265 42.6273 2
46.2559 45.7705 2
43.4955 41.1391 2
41.8769 42.0089 2
46.8265 57.3342 3.98247
44.2199 39.3984 3.79975
42.2146 40.8619 3.71458
47.8738 47.1968 3.97739
47.1272 54.2197 3.97365
47.4902 50.7188 3.96985
44.6272 47.3638 3.97777
44.7592 41.9291 3.87163
44.725 44.5041 3.93678
42.3467 42.623 3.80833
40.7838 42.3277 3.69926
46.6166 59.7883 0.0173405
45.4641 58.7852 2
43.8696 57.7063 3.98421
37.5635 67.7467 0.0162156
39.6477 65.6083 0.018899
41.6002 63.8142 0.0187571
42.951 62.0758 0.0203475
44.6223 60.2848 0.0175272
35.4637 67.6569 2
41.754 62.4873 2
39.8938 63.5479 2
37.6424 65.5074 2
42.4802 59.9739 2
40.6238 61.6431 3.98092
40.4422 58.2006 3.98097
37.837 63.2087 3.97985
35.573 65.4283 3.98101
33.5755 65.34 2
31.9587 63.2977 2
33.6284 63.3354 3.98038
30.3779 62.8566 3.98208
32.123 62.0021 3.98282
26.869 61.4984 3.98057
28.0618 64.1471 3.98262
29.883 64.7196 2
29.4063 66.7588 3.9845
31.6969 65.1271 0.0180792
31.377 67.1952 2
31.0142 69.4171 3.9876
33.3924 67.4843 0.016542
33.1567 69.7527 2
32.8918 72.147 3.99209
35.3337 69.9584 0.0122074
35.1948 72.3731 2
35.0474 74.9194 4
37.5095 72.4583 0.00796105
37.5 75 2
39.9526 74.9197 0
35.6214 6.72572 3.98574
37.5237 4.61569 3.98961
39.6242 4.71528 2
39.7892 2.47442 3.99328
41.7366 4.9687 0.0107241
42.0628 2.71751 2
42.3946 0.32156 4
44.3265 3.1104 0.00686583
44.8159 0.72056 2
47.2057 1.27793 0
49.2515 41.299 0.00976853
56.5606 37.8839 0.022448
52.8143 39.3007 0.0157106
47.1949 40.3807 2
50.202 38.5062 2
53.6661 36.632 2
50.9793 35.5711 3.97723
47.8375 37.7481 3.94002
45.6523 35.1336 3.88397
43.4779 33.8704 3.79364
41.8691 32.9995 3.66083
37.4585 8.53552 3.98442
37.5167 6.6735 2
39.4429 6.80319 0.0137314
39.2115 8.6925 2
38.9768 10.1281 3.98348
35.8993 9.77545 3.98235
34.1513 8.82392 3.98325
35.9423 8.49293 2
54.589 33.973 0.0237217
53.265 30.5466 0.0223369
52.4094 27.2658 0.0249426
52.3446 21.0904 0.0235394
52.0439 24.1555 0.0231627
49.8019 19.6848 0.0230785
48.1022 16.9991 0.0252731
47.6777 14.5938 0.025409
44.7252 9.9959 0.0158179
46.0044 12.7356 0.0216281
41.014 9.05036 0.0167909
42.4688 10.9041 0.015303
52.1495 32.8869 2
40.5699 11.6103 2
43.8575 11.9179 2
51.0902 29.2267 2
50.6427 25.7975 2
49.8955 22.267 2
45.7961 15.4251 2
47.4924 19.3041 2
49.6851 31.4593 3.98463
49.0862 27.5677 3.97351
49.3006 24.4818 3.98234
47.1612 22.0443 3.97543
38.303 12.7398 3.97874
42.1013 14.3077 3.97845
44.7933 18.4921 3.97665
44.5434 37.4903 3.80672
46.0663 37.4905 2
47.9801 58.732 0.0208421
48.5716 55.9029 0.0233676
49.8209 45.2272 0.0193633
49.5263 49.0071 0.0290307
49.0592 52.5661 0.0263506
45.6534 39.8526 0.116024
46.1038 42.6067 0.0800613
46.2548 45.7701 0.0123879
43.4715 41.1146 0.20097
41.8628 41.9948 0.335527
46.8251 57.3344 2
44.2483 39.4177 2
42.205 40.8682 2
47.8746 47.1991 2
47.1253 54.2238 2
47.4916 50.7223 2
44.6346 47.341 2
44.7826 41.9467 2
44.7411 44.5213 2
42.3909 42.6512 2
40.788 42.3251 2
45.378 55.9245 3.98943
42.5342 39.2673 3.72613
40.6746 40.7676 3.80475
45.9539 48.8836 3.98562
45.4742 52.5083 3.97921
43.315 48.3796 4.0003
43.2636 46.0487 3.91892
43.4576 43.7124 3.8698
40.9599 43.7548 3.7994
39.2661 42.6502 3.71893
45.4641 58.7846 0.0181389
43.8696 57.7069 2
42.0979 56.3258 3.98645
35.4636 67.6558 0.0163667
37.6423 65.5068 0.0183874
39.8939 63.5475 0.0202593
41.7539 62.487 0.0196919
42.48 59.9735 0.0180006
35.5731 65.4297 2
40.6238 61.6435 2
37.8368 63.209 2
40.4423 58.2011 2
38.9214 56.4917 3.98861
38.2507 60.3253 3.97967
35.6067 63.2008 3.97832
33.5753 65.3395 0.0188898
31.9589 63.297 0.018426
33.6284 63.3361 2
30.3779 62.8571 2
32.1232 62.0028 2
28.6808 62.2016 3.98168
33.3456 61.5128 3.98184
31.0669 61.2196 3.98132
27.5709 59.5931 3.98098
23.7961 59.0801 3.97968
25.0351 60.8714 3.98047
26.8693 61.4991 2
26.2287 63.4785 3.9821
28.062 64.1476 2
27.4629 66.1829 3.98468
29.8829 64.719 0.0169812
29.4064 66.7592 2
28.9064 68.9432 3.98753
31.3769 67.1945 0.0160048
31.0141 69.4178 2
30.6141 71.7779 3.99205
33.1568 69.7521 0.0124031
32.8916 72.1474 2
32.6054 74.6784 4
35.1948 72.3726 0.00802806
35.0474 74.9197 2
37.5 75 0
33.7241 6.9806 3.9853
35.4355 4.68595 3.98943
35.6212 6.72483 2
37.5147 2.38699 3.99326
37.5236 4.61497 2
39.6243 4.71611 0.0104545
39.7891 2.47394 2
39.9526 0.0806499 4
42.0628 2.71793 0.00671212
42.3947 0.320817 2
44.8158 0.721173 0
44.2347 35.5813 3.79462
42.2241 34.1231 3.71149
47.1764 40.3696 0.0718527
50.1906 38.5119 0.00735015
53.6585 36.6291 0.0227859
47.8458 37.7513 2
50.9923 35.5697 2
45.681 35.1162 2
43.5046 33.8454 2
41.8834 32.9854 2
48.0081 34.3054 3.96714
44.7613 33.0488 3.86451
42.3554 32.3725 3.8045
40.7909 32.6713 3.69675
37.3113 10.6328 3.98152
37.4584 8.53396 2
37.5168 6.67454 0.0137428
39.2114 8.69359 0.0161022
38.9772 10.1269 2
34.7546 10.3822 3.98111
35.8991 9.77397 2
32.3782 9.3714 3.98185
34.1508 8.82291 2
35.9427 8.49415 0.0161499
52.1441 32.887 0.0196297
51.0764 29.2259 0.024483
50.6383 25.7957 0.0277943
49.896 22.2688 0.0189971
47.4928 19.2981 0.0225456
45.7972 15.4305 0.0185106
43.8585 11.9176 0.019963
40.5698 11.61 0.0193166
49.6964 31.4559 2
38.3025 12.7378 2
42.1012 14.3098 2
49.0922 27.5676 2
49.3033 24.4777 2
47.157 22.0418 2
44.793 18.5041 2
47.522 29.5639 3.98556
46.9925 25.2309 3.98441
44.2717 21.4244 3.97533
36.5831 12.9376 3.97756
38.6826 14.8148 3.97703
41.7468 17.8621 3.9784
42.6527 37.4842 3.73833
44.5651 37.4906 2
46.0139 37.4825 0.111791
46.8265 57.3342 0.0175344
47.1272 54.2197 0.0263454
47.8738 47.1968 0.0226099
47.4902 50.7188 0.0301454
44.2199 39.3984 0.20025
44.7592 41.9291 0.128366
44.725 44.5041 0.0632206
44.6272 47.3638 0.0222331
42.3467 42.623 0.191674
42.2146 40.8619 0.285416
40.7838 42.3277 0.300736
45.3762 55.9235 2
42.5245 39.2653 2
40.6626 40.7531 2
45.9541 48.8894 2
45.4732 52.5144 2
43.3186 48.3988 2
43.2937 46.0755 2
43.4856 43.7403 2
40.9897 43.7911 2
39.2601 42.6415 2
43.7109 54.4292 3.99637
40.7709 39.1558 3.83378
39.1299 40.8365 3.82396
43.6004 50.4376 4.00381
41.8892 47.5926 3.95437
41.8119 45.134 3.8811
39.3388 44.4532 3.80614
37.5025 42.748 3.7414
43.8696 57.7063 0.0157925
42.0978 56.3264 2
40.4089 54.9253 3.98319
35.573 65.4283 0.0189928
37.837 63.2087 0.0201539
40.6238 61.6431 0.0190778
40.4422 58.2006 0.0190282
35.6067 63.202 2
38.2509 60.3254 2
38.9216 56.4916 2
37.9986 55.2407 3.99421
36.9343 57.622 3.98264
35.3633 60.9082 3.9788
33.6284 63.3354 0.0196246
30.3779 62.8566 0.0179157
32.123 62.0021 0.0171802
33.3458 61.5136 2
28.681 62.2019 2
31.0673 61.22 2
29.4043 60.2884 3.98018
32.3591 59.7448 3.98568
28.0295 58.3737 3.98817
27.5714 59.5938 2
25.3838 58.5931 3.9782
22.7638 58.235 3.9709
23.4022 60.3496 3.97899
23.7962 59.0811 2
25.0354 60.8724 2
24.4317 62.7705 3.98206
26.869 61.4984 0.0194303
26.2289 63.4792 2
25.547 65.4925 3.98406
28.0618 64.1471 0.0173803
27.4629 66.1834 2
26.8359 68.3315 3.98755
29.4063 66.7588 0.0155028
28.9064 68.9435 2
28.3691 71.2632 3.99216
31.0142 69.4171 0.0123996
30.6138 71.7783 2
30.1842 74.2788 4
32.8918 72.147 0.00790538
32.6053 74.6792 2
35.0474 74.9194 0
31.7886 7.42083 3.9844
33.3477 4.9253 3.98901
33.7239 6.9797 2
35.2448 2.46305 3.99321
35.4353 4.68534 2
35.6214 6.72572 0.0142607
37.5 0 4
37.5145 2.3866 2
37.5237 4.61569 0.0103854
39.7892 2.47442 0.006718
39.9526 0.0802889 2
42.3946 0.32156 0
42.5359 35.7084 3.73026
44.2593 35.5636 2
40.6827 34.2271 3.80398
42.2126 34.1191 2
47.8375 37.7481 0.0599789
50.9793 35.5711 0.0227668
45.6523 35.1336 0.116028
43.4779 33.8704 0.206358
41.8691 32.9995 0.339172
48.0249 34.2921 2
44.7865 33.032 2
42.3962 32.3434 2
40.7958 32.6727 2
46.0331 31.6008 3.94168
43.4493 31.2848 3.87298
40.9615 31.2403 3.80001
39.2718 32.358 3.71824
35.6933 11.7796 3.9795
37.3116 10.6305 2
37.4585 8.53552 0.0155788
38.9768 10.1281 0.0165215
33.0988 11.2205 3.97905
34.7544 10.3807 2
35.8993 9.77545 0.0176512
30.4831 10.0207 3.98111
32.3777 9.37085 2
34.1513 8.82392 0.0167493
49.6851 31.4593 0.0153698
49.0862 27.5677 0.0264923
49.3006 24.4818 0.0176576
47.1612 22.0443 0.0245663
44.7933 18.4921 0.0233522
42.1013 14.3077 0.0215536
38.303 12.7398 0.0212584
36.5828 12.9355 2
47.5299 29.5448 2
38.6818 14.8122 2
41.7456 17.8687 2
46.9979 25.2273 2
44.2689 21.4052 2
45.3636 27.6872 4.00033
43.736 24.1483 4.00598
41.33 20.7981 3.97957
35.7734 14.767 3.97711
38.6821 17.6084 3.97851
40.8209 37.4771 3.84331
42.647 37.4853 2
44.5434 37.4903 0.193276
45.378 55.9245 0.0105674
45.4742 52.5083 0.0207886
45.9539 48.8836 0.0143814
42.5342 39.2673 0.273868
43.4576 43.7124 0.130198
43.2636 46.0487 0.0810753
43.315 48.3796 -0.000297932
40.9599 43.7548 0.200605
40.6746 40.7676 0.195253
39.2661 42.6502 0.281071
43.7082 54.4282 2
40.7528 39.1461 2
39.1254 40.8219 2
43.5995 50.4541 2
41.8827 47.6136 2
41.833 45.1606 2
37.5022 42.7428 2
39.3556 44.4799 2
41.8566 52.9867 3.99319
39.1453 39.1637 3.85007
37.5 40.8803 3.83976
35.7405 42.6558 3.71937
40.8652 49.6462 3.99913
39.8061 46.0017 3.86063
37.5007 44.6786 3.79495
42.0979 56.3258 0.0135493
40.4084 54.9257 2
38.725 53.8254 3.99376
35.6067 63.2008 0.0216833
38.2507 60.3253 0.020333
38.9214 56.4917 0.0113858
35.3635 60.9089 2
36.935 57.6221 2
37.9987 55.2386 2
36.3232 55.3363 3.99417
34.4896 58.5154 3.98544
33.3456 61.5128 0.0181601
28.6808 62.2016 0.0183232
31.0669 61.2196 0.018684
32.3597 59.7456 2
29.4049 60.2885 2
30.3068 57.8185 3.98384
28.0297 58.3746 2
26.9605 56.8253 3.97646
27.5709 59.5931 0.0190158
25.3839 58.5944 2
23.8546 56.7935 3.96583
21.3448 57.3875 3.97008
21.9971 59.6201 3.97746
22.7639 58.2367 2
22.7362 62.0208 3.98015
23.4023 60.3507 2
23.7961 59.0801 0.020317
25.0351 60.8714 0.0195268
24.4319 62.7714 2
23.681 64.7102 3.98371
26.2287 63.4785 0.017897
25.547 65.4933 2
24.8081 67.5928 3.98736
27.4629 66.1829 0.0153161
26.836 68.3322 2
26.1642 70.6039 3.99221
28.9064 68.9432 0.0124747
28.3688 71.2633 2
27.7943 73.7221 4
30.6141 71.7779 0.00794701
30.1841 74.2794 2
32.6054 74.6784 0
29.8112 7.99494 3.9835
31.2531 5.33245 3.9882
31.7883 7.42006 2
32.9805 2.7013 3.9929
33.3474 4.92459 2
33.7241 6.9806 0.0147001
35.0474 0.080333 4
35.2446 2.46273 2
35.4355 4.68595 0.0105739
37.5 0 2
37.5147 2.38699 0.00674463
39.9526 0.0806499 0
40.7731 35.8174 3.83396
42.5249 35.7107 2
44.2347 35.5813 0.20538
28.5438 10.6966 3.98017
39.1343 34.1704 3.82314
40.6689 34.2411 2
42.2241 34.1231 0.288508
48.0081 34.3054 0.0328576
44.7613 33.0488 0.135493
42.3554 32.3725 0.195502
40.7909 32.6713 0.303246
46.0595 31.5883 2
43.4758 31.2573 2
40.9929 31.2075 2
39.2668 32.3669 2
44.264 29.7951 3.93229
41.8118 29.8629 3.88039
39.3469 30.5505 3.80504
37.5101 32.2677 3.74066
34.0938 12.9401 3.97758
35.6934 11.7774 2
37.3113 10.6328 0.0184759
31.1871 11.9903 3.97912
33.0989 11.2198 2
34.7546 10.3822 0.0188895
30.4824 10.0191 2
32.3782 9.3714 0.0181473
47.522 29.5639 0.0144389
46.9925 25.2309 0.015588
36.5831 12.9376 0.0224449
44.2717 21.4244 0.0246733
41.7468 17.8621 0.0216029
38.6826 14.8148 0.0229692
35.7734 14.7687 2
45.3686 27.687 2
38.6805 17.6129 2
41.3268 20.7839 2
43.7383 24.1347 2
33.6099 15.8872 3.97659
42.9408 26.5342 3.99696
40.8806 23.3623 4.01044
38.415 20.3903 3.97918
35.8511 17.5227 3.97872
39.1563 37.4866 3.86955
40.8025 37.4771 2
42.6527 37.4842 0.261667
43.7109 54.4292 0.00363443
43.6004 50.4376 -0.00381045
40.7709 39.1558 0.166217
41.8119 45.134 0.1189
41.8892 47.5926 0.045631
39.3388 44.4532 0.193857
39.1299 40.8365 0.176041
37.5025 42.748 0.258604
41.8545 52.9844 2
39.1342 39.1536 2
37.4998 40.8587 2
40.8744 49.6618 2
35.7432 42.6467 2
39.8292 46.0348 2
37.4966 44.7018 2
39.799 51.8631 4.00142
37.4981 39.1791 3.87156
35.8689 40.8509 3.82293
34.2203 42.3336 3.69743
35.6602 44.4661 3.80305
38.6727 48.6485 3.9703
37.5092 46.304 3.87169
40.4089 54.9253 0.0168101
38.7247 53.8192 2
36.7388 53.1562 3.99994
35.3633 60.9082 0.0211981
36.9343 57.622 0.0173556
37.9986 55.2407 0.00578518
34.4904 58.5162 2
36.3244 55.3415 2
33.243 55.5006 3.99552
32.3591 59.7448 0.0143245
29.4043 60.2884 0.0198156
30.3075 57.8188 2
28.7177 55.3137 3.9785
28.0295 58.3737 0.0118287
26.9601 56.8264 2
25.3402 55.1327 3.97364
21.8326 55.3344 3.96571
25.3838 58.5931 0.0218026
23.8544 56.7957 2
20.2309 57.0161 3.97421
20.6506 58.7716 3.97423
21.3446 57.3893 2
21.1674 61.169 3.97837
21.9972 59.6211 2
22.7638 58.235 0.029096
21.8947 63.8375 3.98264
22.7364 62.0218 2
23.4022 60.3496 0.0210131
24.4317 62.7705 0.0179376
23.6811 64.711 2
22.8364 66.736 3.98685
25.547 65.4925 0.015941
24.8082 67.5936 2
24.0084 69.805 3.9923
26.8359 68.3315 0.0124494
26.1639 70.6042 2
25.446 73.0099 4
28.3691 71.2632 0.00784418
27.7943 73.7222 2
30.1842 74.2788 0
27.8211 8.65485 3.98302
29.1552 5.8785 3.98732
29.8107 7.99355 2
30.7257 3.09845 3.9926
31.2527 5.33177 2
31.7886 7.42083 0.0155987
32.6053 0.320823 4
32.9802 2.70093 2
33.3477 4.9253 0.0109939
35.0474 0.0802903 2
35.2448 2.46305 0.00679369
37.5 0 0
39.151 35.8198 3.84921
40.7547 35.8266 2
42.5359 35.7084 0.269742
28.5433 10.6958 2
26.6225 11.3927 3.98016
29.2261 12.6475 3.9796
37.5026 34.137 3.83878
39.1278 34.1858 2
40.6827 34.2271 0.196025
46.0331 31.6008 0.058321
43.4493 31.2848 0.127025
40.9615 31.2403 0.199988
39.2718 32.358 0.28176
44.2719 29.7825 2
41.8292 29.8443 2
39.364 30.5178 2
37.5105 32.2722 2
42.2766 28.4485 3.90956
39.8281 28.9933 3.88035
37.5144 30.3323 3.79559
35.7506 32.3572 3.71838
31.916 14.4892 3.97759
34.0945 12.9395 2
35.6933 11.7796 0.0205
31.1868 11.9882 2
33.0988 11.2205 0.0209456
30.4831 10.0207 0.0188941
45.3636 27.6872 -0.0003322
43.736 24.1483 -0.00597971
35.7734 14.767 0.0228915
41.33 20.7981 0.0204268
38.6821 17.6084 0.021491
33.6088 15.8854 2
35.8487 17.5229 2
42.95 26.5335 2
38.4151 20.3888 2
40.8785 23.3476 2
33.5539 17.3979 3.97809
40.3394 25.7113 3.9953
38.0683 22.9937 3.99761
35.5828 20.1053 3.98046
37.4975 37.4973 3.89174
39.1438 37.4865 2
40.8209 37.4771 0.156685
41.8566 52.9867 0.00680623
40.8652 49.6462 0.000874785
39.1453 39.1637 0.149932
39.8061 46.0017 0.139374
37.5007 44.6786 0.205052
37.5 40.8803 0.160237
35.7405 42.6558 0.280629
39.7993 51.8653 2
37.4985 39.1666 2
35.8757 40.8358 2
38.6836 48.6853 2
34.2148 42.332 2
35.644 44.4956 2
37.5074 46.3365 2
37.651 50.9369 4.00607
35.8523 39.1818 3.85007
34.3272 40.7846 3.80431
33.1351 42.0025 3.66377
34.0346 43.7532 3.79919
35.1728 45.993 3.87247
36.8904 48.2818 3.93861
38.725 53.8254 0.00624109
36.7379 53.1638 2
34.3862 52.4516 3.99727
34.4896 58.5154 0.0145609
36.3232 55.3363 0.0058271
33.2433 55.5024 2
30.5494 53.3488 3.97679
30.3068 57.8185 0.0161584
28.7172 55.3164 2
26.9273 53.4271 3.97188
26.9605 56.8253 0.0235377
25.3398 55.136 2
23.6236 53.4676 3.96027
20.5211 53.2038 3.96181
19.951 55.8177 3.96777
21.8314 55.3359 2
23.8546 56.7935 0.0341718
19.446 57.8777 3.97304
20.2305 57.0175 2
19.7089 60.1971 3.97703
20.6505 58.7726 2
21.3448 57.3875 0.0299177
20.2075 62.8576 3.98039
21.1677 61.1703 2
21.9971 59.6201 0.0225406
20.9378 65.7646 3.98618
21.8947 63.8384 2
22.7362 62.0208 0.0198455
23.681 64.7102 0.0162931
22.8365 66.7367 2
21.9109 68.8719 3.99204
24.8081 67.5928 0.0126421
24.008 69.8052 2
23.1494 72.1454 4
26.1642 70.6039 0.00778735
25.446 73.0099 2
27.7943 73.7221 0
25.8603 9.38368 3.98222
27.0699 6.54268 3.98639
27.8206 8.65408 2
28.4879 3.64449 3.99218
29.1547 5.87755 2
29.8112 7.99494 0.0164959
30.1841 0.720592 4
30.7253 3.09812 2
31.2531 5.33245 0.0118036
32.6053 0.320817 2
32.9805 2.7013 0.00709936
35.0474 0.080333 0
37.4996 35.8227 3.87101
39.1395 35.8296 2
40.7731 35.8174 0.166043
24.7773 12.0767 3.9804
23.7527 14.3651 3.97941
28.5438 10.6966 0.0198264
26.622 11.3922 2
29.2258 12.6464 2
27.2924 13.3808 3.97969
29.782 14.2093 3.97937
35.8747 34.1672 3.82263
37.5026 34.1576 2
39.1343 34.1704 0.176856
37.5101 32.2677 0.25934
44.264 29.7951 0.0677149
41.8118 29.8629 0.119606
39.3469 30.5505 0.194961
42.3031 28.4212 2
39.8393 28.9582 2
37.517 30.3113 2
35.7542 32.3673 2
40.0168 27.6271 3.90869
37.5173 28.7012 3.87529
35.6771 30.5592 3.80756
34.2346 32.678 3.69754
30.9286 16.8511 3.97729
31.916 14.4857 2
34.0938 12.9401 0.0224237
31.1871 11.9903 0.0208761
42.9408 26.5342 0.00303719
40.8806 23.3623 -0.0104383
33.6099 15.8872 0.0234058
35.8511 17.5227 0.021282
38.415 20.3903 0.0208186
33.5509 17.4059 2
35.5852 20.1098 2
40.3435 25.6957 2
38.061 22.9767 2
32.8662 19.8067 3.98323
37.7891 25.3024 4.00337
35.1951 22.7274 3.99222
35.841 37.5024 3.86978
37.4972 37.4973 2
39.1563 37.4866 0.130445
39.799 51.8631 -0.00141645
38.6727 48.6485 0.0296973
37.4981 39.1791 0.12844
37.5092 46.304 0.128307
35.6602 44.4661 0.196952
35.8689 40.8509 0.177066
34.2203 42.3336 0.302572
37.64 50.9564 2
35.8651 39.1712 2
34.3393 40.7708 2
36.8821 48.3165 2
33.1197 42.0173 2
34.0075 43.786 2
35.1578 46.0224 2
35.5056 50.0889 3.99493
34.2351 39.1779 3.83568
32.7754 40.8759 3.71288
32.6521 42.6312 3.8069
33.1933 45.1329 3.87835
34.3181 47.3646 3.91433
36.7388 53.1562 6.32773e-05
34.3825 52.4589 2
32.0588 51.1578 4.00232
33.243 55.5006 0.00447743
30.5487 53.3547 2
28.482 51.565 3.97801
28.7177 55.3137 0.0215002
26.9266 53.4298 2
25.1467 51.7218 3.95929
25.3402 55.1327 0.0263559
23.6228 53.4698 2
22.0438 51.7807 3.95624
19.2833 51.6137 3.96353
18.9535 54.2926 3.96222
20.5204 53.2032 2
18.4598 56.7095 3.97086
19.9502 55.8189 2
21.8326 55.3344 0.034292
18.3731 59.0996 3.9723
19.4456 57.8787 2
20.2309 57.0161 0.0257895
18.6198 61.7615 3.9758
19.7092 60.1988 2
20.6506 58.7716 0.0257692
19.1268 64.6748 3.98477
20.2075 62.8587 2
21.1674 61.169 0.0216318
19.8851 67.8085 3.99191
20.9378 65.7654 2
21.8947 63.8375 0.0173608
22.8364 66.736 0.0131531
21.9105 68.872 2
20.9142 71.1327 4
24.0084 69.805 0.00770159
23.1494 72.1455 2
25.446 73.0099 0
23.0968 12.7923 3.97998
23.9728 10.1712 3.9817
25.0236 7.31331 3.9855
25.8598 9.38313 2
26.2796 4.32874 3.99172
27.0694 6.54209 2
27.8211 8.65485 0.0169843
27.7943 1.27781 4
28.4873 3.64414 2
29.1552 5.8785 0.0126775
30.1841 0.720551 2
30.7257 3.09845 0.00739961
32.6053 0.320823 0
35.851 35.8266 3.8495
37.4989 35.8357 2
39.151 35.8198 0.150794
24.7771 12.0763 2
23.7529 14.365 2
22.4819 15.0424 3.97925
25.3586 13.9136 3.97911
24.0277 15.6288 3.97934
26.6225 11.3927 0.0198387
29.2261 12.6475 0.020404
27.2924 13.3804 2
29.7813 14.2077 2
28.3594 15.9852 3.97897
34.3342 34.2341 3.80238
35.8804 34.1827 2
37.5026 34.137 0.161216
35.7506 32.3572 0.281618
37.5144 30.3323 0.204409
42.2766 28.4485 0.0904375
39.8281 28.9933 0.119648
40.0292 27.6037 2
37.5141 28.6754 2
35.6586 30.5254 2
34.2257 32.6801 2
37.5944 27.3365 3.92327
35.19 29.0068 3.87972
34.0519 31.2569 3.79967
33.1564 33.0082 3.66347
30.2133 19.3592 3.98199
30.9277 16.8468 2
31.916 14.4892 0.0224066
40.3394 25.7113 0.00470164
38.0683 22.9937 0.00238615
33.5539 17.3979 0.0219078
35.5828 20.1053 0.0195353
32.8667 19.8154 2
35.1921 22.7196 2
37.7807 25.2833 2
32.3138 22.4673 3.99605
35.0101 25.2738 4.00229
34.1796 37.5078 3.84432
35.8536 37.5029 2
37.4975 37.4973 0.108259
37.651 50.9369 -0.00606555
36.8904 48.2818 0.0613923
35.8523 39.1818 0.149928
35.1728 45.993 0.127528
34.0346 43.7532 0.200809
34.3272 40.7846 0.195692
33.1351 42.0025 0.33623
35.4977 50.1026 2
34.2591 39.1686 2
32.7838 40.8822 2
34.3022 47.4036 2
32.6141 42.658 2
33.1762 45.1573 2
33.3133 49.0831 3.99041
32.4588 39.2885 3.73188
31.5141 41.1266 3.79774
31.5476 43.7177 3.87206
32.35 46.2957 3.91241
34.3862 52.4516 0.0027258
32.0571 51.1669 2
29.9456 49.6775 3.9874
30.5494 53.3488 0.0232068
28.4807 51.5634 2
26.5978 49.9511 3.97032
26.9273 53.4271 0.0281203
25.1454 51.7199 2
23.4411 50.1601 3.96511
23.6236 53.4676 0.0397348
22.0431 51.7796 2
20.5655 50.288 3.96537
18.0814 50.3088 3.96796
17.898 52.7733 3.96379
19.282 51.6132 2
17.4557 55.3271 3.96429
18.9509 54.2928 2
20.5211 53.2038 0.0381902
17.1427 57.8615 3.97025
18.4591 56.7103 2
19.951 55.8177 0.0322332
17.1386 60.54 3.97485
18.3731 59.1007 2
19.446 57.8777 0.0269634
17.4078 63.4656 3.98131
18.6199 61.7629 2
19.7089 60.1971 0.0229689
17.9416 66.6172 3.99166
19.1267 64.6759 2
20.2075 62.8576 0.0196051
18.75 69.9759 4
19.8845 67.8085 2
20.9378 65.7646 0.0138228
21.9109 68.8719 0.00796101
20.9142 71.1327 2
23.1494 72.1454 0
21.588 13.6133 3.97953
22.1909 11.0312 3.98099
23.0969 12.7923 2
23.0414 8.17939 3.9848
23.9725 10.1706 2
24.1172 5.14358 3.9913
25.0231 7.31271 2
25.8603 9.38368 0.0177807
25.446 1.99014 4
26.2789 4.32863 2
27.0699 6.54268 0.0136145
27.7943 1.27778 2
28.4879 3.64449 0.00781996
30.1841 0.720592 0
34.2293 35.8333 3.83211
35.8618 35.8366 2
37.4996 35.8227 0.128993
21.3082 15.8389 3.98016
24.7773 12.0767 0.0196035
23.7527 14.3651 0.0205886
25.3587 13.9133 2
22.4824 15.0424 2
24.0278 15.6292 2
23.2679 16.261 3.97738
25.3835 16.098 3.97922
27.2924 13.3808 0.0203095
29.782 14.2093 0.0206349
28.3584 15.9858 2
27.4451 18.8127 3.98061
32.7922 34.1354 3.71147
34.3501 34.2482 2
35.8747 34.1672 0.177366
34.2346 32.678 0.302457
35.6771 30.5592 0.192438
37.5173 28.7012 0.124711
40.0168 27.6271 0.0913137
37.597 27.3049 2
33.1404 32.9957 2
35.1857 28.971 2
34.0144 31.2164 2
35.0875 27.4656 3.92304
33.2029 29.8793 3.87426
32.6698 32.3735 3.79436
29.5951 21.9553 3.9952
30.214 19.3671 2
30.9286 16.8511 0.022708
37.7891 25.3024 -0.00337188
35.1951 22.7274 0.00777837
32.8662 19.8067 0.0167704
32.3132 22.4629 2
35.027 25.2646 2
31.775 25.6883 4.00803
32.334 37.5092 3.74115
34.2023 37.509 2
35.841 37.5024 0.130223
35.5056 50.0889 0.005072
34.3181 47.3646 0.0856731
34.2351 39.1779 0.164316
33.1933 45.1329 0.121646
32.6521 42.6312 0.193104
32.7754 40.8759 0.287122
33.3093 49.0772 2
32.473 39.286 2
31.4902 41.1488 2
32.3162 46.3238 2
31.5183 43.7456 2
31.2608 47.9185 3.98843
30.7648 39.4149 3.79689
30.2345 41.9472 3.865
30.5726 44.8897 3.93327
32.0588 51.1578 -0.00232175
29.9433 49.6766 2
28.0054 48.1379 3.96632
28.482 51.565 0.0219927
26.5968 49.9497 2
24.7811 48.4289 3.97281
25.1467 51.7218 0.0407067
23.4406 50.1577 2
21.7995 48.7533 3.96935
22.0438 51.7807 0.0437604
20.564 50.2871 2
19.1521 49.0661 3.97199
16.9844 49.3117 3.97237
16.8416 51.3895 3.9666
18.0827 50.3078 2
16.4183 53.8576 3.96447
17.8954 52.7732 2
19.2833 51.6137 0.0364671
15.9886 56.4635 3.96657
17.4549 55.3273 2
18.9535 54.2926 0.0377759
15.7541 59.2013 3.97172
17.1425 57.8626 2
18.4598 56.7095 0.0291418
15.7897 62.1331 3.97674
17.1388 60.5417 2
18.3731 59.0996 0.0276983
16.0887 65.2997 3.99041
17.4076 63.467 2
18.6198 61.7615 0.0241999
16.6661 68.6801 4
17.9408 66.6169 2
19.1268 64.6748 0.0152306
18.75 69.9759 2
19.8851 67.8085 0.00809085
20.9142 71.1327 0
20.2209 14.6031 3.97845
21.5883 13.6133 2
20.5303 12.0018 3.98029
21.1442 9.14959 3.98428
22.1908 11.031 2
23.0968 12.7923 0.0200162
22.0163 6.08273 3.99088
23.0409 8.17874 2
23.9728 10.1712 0.0183014
23.1494 2.85457 4
24.1163 5.14357 2
25.0236 7.31331 0.0144972
25.446 1.99012 2
26.2796 4.32874 0.00827663
27.7943 1.27781 0
32.4594 35.7264 3.72376
34.2481 35.8467 2
35.851 35.8266 0.1505
21.3088 15.8385 2
20.3072 16.9713 3.9816
22.1011 16.6455 3.97749
25.3586 13.9136 0.0208948
22.4819 15.0424 0.020749
24.0277 15.6288 0.0206571
25.3833 16.0984 2
23.2682 16.2616 2
24.2097 18.4667 3.97453
27.0349 21.4776 3.99113
28.3594 15.9852 0.0210254
27.4469 18.8128 2
31.5383 33.8911 3.79677
32.8034 34.1301 2
34.3342 34.2341 0.197617
33.1564 33.0082 0.33653
34.0519 31.2569 0.200328
35.19 29.0068 0.120279
37.5944 27.3365 0.0767331
35.0697 27.425 2
32.6038 32.3458 2
33.1877 29.858 2
32.6354 28.1775 3.93427
31.5536 31.2995 3.87372
28.8797 24.435 3.98061
29.591 21.9645 2
30.2133 19.3592 0.018014
35.0101 25.2738 -0.00228518
32.3138 22.4673 0.00394583
31.7764 25.6692 2
29.7609 27.3544 3.96619
30.4379 37.501 3.80552
32.3475 37.5065 2
34.1796 37.5078 0.155684
33.3133 49.0831 0.00959321
32.35 46.2957 0.0875853
32.4588 39.2885 0.268116
31.5476 43.7177 0.127942
31.5141 41.1266 0.20226
31.2587 47.9217 2
30.7331 39.4337 2
30.2103 41.9636 2
30.5614 44.9067 2
29.3552 46.5213 4.00146
29.3321 39.8532 3.88427
28.9454 43.1172 3.93384
29.9456 49.6775 0.0125951
28.0038 48.1339 2
26.1217 46.6089 3.97669
26.5978 49.9511 0.0296835
24.781 48.4268 2
22.9869 47.0328 3.97352
23.4411 50.1601 0.0348915
21.799 48.7521 2
20.1279 47.5868 3.97685
20.5655 50.288 0.0346281
19.1537 49.0649 2
17.7777 48.1562 3.976
16.2246 48.6656 3.97549
16.9858 49.3109 2
15.9187 50.1535 3.96985
15.4203 52.4024 3.96633
16.8416 51.389 2
18.0814 50.3088 0.0320373
14.8822 54.9679 3.96578
16.4178 53.8576 2
17.898 52.7733 0.036212
14.4664 57.7297 3.96858
15.9884 56.4639 2
17.4557 55.3271 0.0357147
14.2683 60.6869 3.97568
15.7543 59.2027 2
17.1427 57.8615 0.02975
14.3338 63.8583 3.98739
15.7895 62.1344 2
17.1386 60.54 0.0251459
14.6715 67.2507 4
16.0876 65.2992 2
17.4078 63.4656 0.0186884
16.6661 68.6801 2
17.9416 66.6172 0.00834172
18.75 69.9759 0
18.9355 15.7895 3.9792
20.2212 14.6029 2
18.9803 13.1133 3.97916
21.588 13.6133 0.0204654
20.5304 12.0016 2
19.3434 10.2379 3.98369
19.9909 7.1474 3.9906
21.1439 9.14925 2
22.1909 11.0312 0.0190123
20.9142 3.86727 4
22.0152 6.0829 2
23.0414 8.17939 0.0151982
23.1494 2.85451 2
24.1172 5.14358 0.00870295
25.446 1.99014 0
30.783 35.6067 3.80021
32.4722 35.7271 2
34.2293 35.8333 0.16789
21.3082 15.8389 0.0198393
22.1017 16.6456 2
20.308 16.9705 2
19.2543 18.4198 3.97574
21.7871 17.8625 3.97978
25.3835 16.098 0.0207799
23.2679 16.261 0.0226169
24.2108 18.4672 2
22.297 19.9109 3.97091
24.6171 21.3471 3.98953
26.4886 23.7438 3.97008
27.0346 21.4762 2
27.4451 18.8127 0.0193913
30.2646 33.0716 3.87685
31.519 33.8563 2
32.7922 34.1354 0.288529
32.6698 32.3735 0.205638
33.2029 29.8793 0.12574
35.0875 27.4656 0.0769573
32.6084 28.1574 2
31.5204 31.2672 2
30.2656 29.6064 3.9514
28.0053 26.5728 3.98423
28.8752 24.4498 2
29.5951 21.9553 0.00480457
31.775 25.6883 -0.00803382
29.7583 27.3245 2
28.9659 37.5132 3.88871
30.424 37.5018 2
32.334 37.5092 0.258846
31.2608 47.9185 0.0115726
30.5726 44.8897 0.0667336
30.7648 39.4149 0.203109
30.2345 41.9472 0.135002
29.3549 46.5335 2
29.3041 39.8714 2
28.9178 43.1401 2
27.5206 44.8191 3.97679
27.1042 40.5882 3.95684
28.0054 48.1379 0.0336813
26.1182 46.6114 2
24.2298 45.1571 3.97584
24.7811 48.4289 0.0271878
22.9869 47.0316 2
21.1018 45.8558 3.97841
21.7995 48.7533 0.0306541
20.128 47.5857 2
18.4568 46.711 3.97815
19.1521 49.0661 0.0280077
17.7791 48.1553 2
16.4282 47.6951 3.97667
16.2257 48.6649 2
15.2633 49.0001 3.97299
16.9844 49.3117 0.0276327
15.92 50.1529 2
14.535 50.9724 3.96804
13.8472 53.4261 3.96616
15.4212 52.4021 2
16.8416 51.3895 0.0333983
13.2631 56.1596 3.96729
14.8823 54.9678 2
16.4183 53.8576 0.0355338
12.8521 59.1202 3.97353
14.4666 57.7304 2
15.9886 56.4635 0.0334287
12.6796 62.3006 3.9849
14.2683 60.6877 2
15.7541 59.2013 0.0282798
12.7746 65.6939 4
14.3323 63.8571 2
15.7897 62.1331 0.0232618
14.6714 67.2507 2
16.0887 65.2997 0.0095892
16.6661 68.6801 0
17.6733 17.1661 3.97423
18.9359 15.7892 2
17.5123 14.3781 3.97827
20.2209 14.6031 0.0215458
18.9806 13.113 2
17.6389 11.4572 3.98258
20.5303 12.0018 0.0197134
19.3433 10.2376 2
18.051 8.34022 3.9904
18.75 5.0241 4
19.9897 7.14798 2
21.1442 9.14959 0.0157221
20.9142 3.86727 2
22.0163 6.08273 0.00912268
23.1494 2.85457 0
29.351 35.146 3.88657
30.7456 35.5827 2
32.4594 35.7264 0.276243
22.1011 16.6455 0.0225145
20.3072 16.9713 0.0183974
21.788 17.8624 2
19.2549 18.4186 2
18.0034 19.9548 3.96901
20.8923 19.3932 3.97595
24.2097 18.4667 0.0254658
22.2974 19.9106 2
24.6171 21.3476 2
22.3954 21.7407 3.97711
24.7578 23.1878 3.97526
25.5909 25.9724 3.97476
26.4901 23.7432 2
27.0349 21.4776 0.00886905
28.6446 32.3815 3.93498
30.2364 33.0532 2
31.5383 33.8911 0.203234
31.5536 31.2995 0.126281
32.6354 28.1775 0.0657269
30.261 29.6057 2
27.2081 29.1587 4.00515
27.9995 26.5847 2
28.8797 24.435 0.0193928
29.7609 27.3544 0.0338114
27.2199 37.3662 3.93762
28.921 37.506 2
30.4379 37.501 0.19448
29.3552 46.5213 -0.00146283
28.9454 43.1172 0.0661589
29.3321 39.8532 0.115729
27.5146 44.8421 2
27.0868 40.5996 2
25.5416 43.1318 3.98762
24.3584 39.4492 3.97684
26.1217 46.6089 0.0233098
24.2234 45.1571 2
22.1181 43.9074 3.97834
22.9869 47.0328 0.0264813
21.1005 45.8548 2
19.1525 44.9414 3.97811
20.1279 47.5868 0.0231524
18.4577 46.7099 2
16.742 46.1931 3.97725
17.7777 48.1562 0.0240012
16.4292 47.6945 2
15.0071 47.655 3.97464
16.2246 48.6656 0.0245067
15.2646 48.9995 2
13.8345 49.5345 3.96995
15.9187 50.1535 0.0301506
14.536 50.972 2
12.9169 51.8667 3.96713
12.1494 54.5216 3.96794
13.8469 53.426 2
15.4203 52.4024 0.0336694
11.538 57.453 3.97198
13.2635 56.1598 2
14.8822 54.9679 0.0342198
11.1345 60.6263 3.98259
12.8524 59.1204 2
14.4664 57.7297 0.0314197
10.9835 64.0165 4
12.678 62.2984 2
14.2683 60.6869 0.0243194
12.7745 65.694 2
14.3338 63.8583 0.0126114
14.6715 67.2507 0
16.413 18.6649 3.96742
17.6736 17.1653 2
16.1045 15.788 3.97681
18.9355 15.7895 0.0208037
17.5126 14.3775 2
16.0208 12.8114 3.98071
18.9803 13.1133 0.0208419
17.639 11.4568 2
16.2022 9.66324 3.99005
19.3434 10.2379 0.0163135
18.0498 8.34113 2
16.6661 6.31991 4
18.75 5.02404 2
19.9909 7.1474 0.00939949
20.9142 3.86727 0
27.7475 34.7918 3.93041
29.3222 35.1248 2
30.783 35.6067 0.199795
16.7187 21.3915 3.96216
21.7871 17.8625 0.0202165
19.2543 18.4198 0.0242556
20.8928 19.3925 2
18.004 19.9536 2
19.7632 21.5914 3.9733
22.297 19.9109 0.0290921
24.6171 21.3471 0.0104714
22.3953 21.7407 2
24.7582 23.1876 2
22.9409 24.6227 3.97199
24.749 28.5524 3.97779
25.5892 25.9712 2
26.4886 23.7438 0.0299216
26.4908 31.739 3.98489
28.6164 32.3588 2
30.2646 33.0716 0.123155
30.2656 29.6064 0.0485958
27.2296 29.1444 2
28.0053 26.5728 0.0157698
25.0487 36.8603 3.98477
27.1991 37.3588 2
28.9659 37.5132 0.111288
27.5206 44.8191 0.023211
27.1042 40.5882 0.0431563
25.526 43.1423 2
24.3426 39.4476 2
23.2542 41.8103 3.97977
22.0767 38.5181 3.97786
24.2298 45.1571 0.0241589
22.1159 43.9079 2
19.9654 42.8711 3.97716
21.1018 45.8558 0.0215866
19.1521 44.9412 2
17.1071 44.3595 3.97698
18.4568 46.711 0.0218468
16.7433 46.1926 2
14.9469 46.0757 3.97509
16.4282 47.6951 0.0233303
15.0083 47.6545 2
13.3493 47.9976 3.97135
15.2633 49.0001 0.0270071
13.8355 49.5342 2
12.1367 50.2462 3.9678
14.535 50.9724 0.0319558
12.9172 51.8665 2
11.1446 52.8328 3.96799
10.3284 55.7077 3.97246
12.1499 54.5216 2
13.8472 53.4261 0.0338414
9.70144 58.8483 3.98063
11.5383 57.4529 2
13.2631 56.1596 0.0327056
9.30605 62.2254 4
11.133 60.6235 2
12.8521 59.1202 0.0264655
10.9835 64.0165 2
12.6796 62.3006 0.0150951
12.7746 65.6939 0
15.1626 20.1981 3.96725
16.4133 18.6642 2
14.754 17.3134 3.97077
17.6733 17.1661 0.0257749
16.1048 15.7869 2
14.4837 14.2943 3.97885
17.5123 14.3781 0.0217275
16.0209 12.8107 2
14.445 11.1144 3.98921
17.6389 11.4572 0.0174242
16.201 9.66443 2
14.6715 7.74927 4
18.051 8.34022 0.00960217
16.6661 6.31988 2
18.75 5.0241 0
25.7056 34.2799 3.99149
27.7259 34.7956 2
29.351 35.146 0.113431
17.9078 22.3417 3.97029
15.5583 22.9319 3.9673
16.7194 21.3911 2
20.8923 19.3932 0.0240477
18.0034 19.9548 0.0309886
19.7635 21.5908 2
19.7637 24.4029 3.96979
22.3954 21.7407 0.0228927
24.7578 23.1878 0.0247374
22.9406 24.6227 2
22.1173 27.8528 3.97229
24.0477 31.2218 3.97624
24.7638 28.5527 2
25.5909 25.9724 0.0252427
26.4756 31.7163 2
28.6446 32.3815 0.0650175
27.2081 29.1587 -0.00515183
22.8007 36.2869 3.98204
25.0283 36.8566 2
27.2199 37.3662 0.0623784
25.5416 43.1318 0.0123762
24.3584 39.4492 0.0231644
23.2448 41.8083 2
22.0689 38.516 2
20.9856 40.6388 3.976
20.3836 37.8018 3.97715
22.1181 43.9074 0.0216607
19.964 42.8713 2
17.5623 42.0794 3.977
19.1525 44.9414 0.0218856
17.1083 44.3592 2
14.9747 44.1868 3.97582
16.742 46.1931 0.0227473
14.948 46.0753 2
13.0348 46.2852 3.97213
15.0071 47.655 0.0253642
13.3501 47.9973 2
11.5114 48.5438 3.96829
13.8345 49.5345 0.0300493
12.1373 50.246 2
10.27 51.0777 3.96794
12.9169 51.8667 0.0328713
11.1451 52.8326 2
9.2371 53.8877 3.97204
8.38484 56.9815 3.98105
10.3288 55.7072 2
12.1494 54.5216 0.0320618
7.74927 60.3285 4
9.70025 58.8451 2
11.538 57.453 0.0280179
9.306 62.2255 2
11.1345 60.6263 0.0174089
10.9835 64.0165 0
13.9771 21.7614 3.96614
15.1633 20.1979 2
13.4587 18.9121 3.96755
16.413 18.6649 0.0325771
14.7545 17.3123 2
13.0305 15.8887 3.97602
16.1045 15.788 0.0231897
14.4838 14.2932 2
12.7826 12.6881 3.98756
16.0208 12.8114 0.0192922
14.4437 11.116 2
12.7746 9.30605 4
16.2022 9.66324 0.00995218
14.6715 7.74924 2
16.6661 6.31991 0
23.3824 33.8221 3.98337
25.6841 34.2705 2
27.7475 34.7918 0.0695905
17.704 24.0611 3.97085
17.9082 22.3415 2
14.3721 24.4641 3.96963
15.559 22.9318 2
16.7187 21.3915 0.03784
19.2076 27.2292 3.97137
19.7632 21.5914 0.0266999
19.7621 24.4026 2
21.4286 30.6934 3.97462
22.9409 24.6227 0.0280068
22.1265 27.8538 2
24.0314 31.2192 2
24.749 28.5524 0.0222119
26.4908 31.739 0.0151061
20.5059 35.9474 3.97728
22.7976 36.2807 2
25.0487 36.8603 0.0152259
23.2542 41.8103 0.0202293
22.0767 38.5181 0.022142
20.9914 40.6386 2
20.3879 37.8015 2
18.303 39.007 3.97745
19.9654 42.8711 0.0228365
17.5639 42.0789 2
14.9559 41.9075 3.97688
17.1071 44.3595 0.0230162
14.9762 44.1863 2
12.7914 44.3826 3.97269
14.9469 46.0757 0.0249136
13.0356 46.2849 2
11.0174 46.728 3.96873
13.3493 47.9976 0.0286508
11.5119 48.5436 2
9.53303 49.2382 3.96765
12.1367 50.2462 0.0321952
10.2704 51.0775 2
8.26997 52.0015 3.97165
11.1446 52.8328 0.0320061
9.23754 53.887 2
7.19375 55.0323 3.98196
6.31991 58.3339 4
8.38398 56.9781 2
10.3284 55.7077 0.0275403
7.74924 60.3285 2
9.70144 58.8483 0.0193653
9.30605 62.2254 0
13.273 25.373 3.97179
12.8534 23.2895 3.96692
13.9774 21.7612 2
12.2448 20.5582 3.96813
15.1626 20.1981 0.0327486
13.4595 18.9116 2
11.6626 17.5709 3.9728
14.754 17.3134 0.0292308
13.0308 15.8878 2
11.2204 14.3737 3.98469
14.4837 14.2943 0.021145
12.7811 12.6899 2
10.9835 10.9835 4
14.445 11.1144 0.010788
12.7745 9.306 2
14.6715 7.74927 0
20.8626 33.4234 3.97576
23.3868 33.8325 2
25.7056 34.2799 0.00850982
16.0217 26.4204 3.97177
17.704 24.0609 2
17.9078 22.3417 0.0297115
14.372 24.4641 2
15.5583 22.9319 0.0326995
18.5776 30.1977 3.97485
19.2078 27.2294 2
19.7637 24.4029 0.0302085
21.434 30.6941 2
22.1173 27.8528 0.027711
24.0477 31.2218 0.0237649
17.9152 35.9807 3.97805
20.5038 35.9493 2
22.8007 36.2869 0.0179603
20.9856 40.6388 0.024003
20.3836 37.8018 0.0228542
18.3039 39.007 2
14.4624 39.1725 3.97756
17.5623 42.0794 0.0230021
14.9575 41.9072 2
12.4943 42.2694 3.9727
14.9747 44.1868 0.0241841
12.7923 44.3823 2
10.6025 44.7972 3.96925
13.0348 46.2852 0.027867
11.0178 46.7278 2
8.91519 47.3178 3.96744
11.5114 48.5438 0.0317068
9.53325 49.238 2
7.4369 50.035 3.97109
10.27 51.0777 0.0320612
8.27032 52.0008 2
6.1344 53.0074 3.98234
9.2371 53.8877 0.0279642
7.19321 55.0295 2
5.0241 56.25 4
6.31988 58.3339 2
8.38484 56.9815 0.0189473
7.74927 60.3285 0
13.5364 26.8268 3.97123
11.9591 24.7945 3.96865
13.2724 25.373 2
11.1468 22.2394 3.96805
12.8535 23.2894 2
13.9771 21.7614 0.03386
12.2459 20.5581 2
10.3937 19.3243 3.97208
13.4587 18.9121 0.0324465
11.6633 17.5706 2
9.76183 16.1581 3.98148
13.0305 15.8887 0.0239775
11.2188 14.3762 2
9.30607 12.7746 4
12.7826 12.6881 0.0124355
10.9835 10.9835 2
12.7746 9.30605 0
18.0889 33.1326 3.97714
20.8675 33.4236 2
23.3824 33.8221 0.0166305
15.6422 29.6553 3.97388
16.0216 26.4207 2
17.704 24.0611 0.0291524
14.3721 24.4641 0.0303679
18.5752 30.1977 2
19.2076 27.2292 0.0286276
21.4286 30.6934 0.0253764
15.0813 36.0266 3.97779
17.9181 35.9808 2
20.5059 35.9474 0.0227155
12.7126 37.8295 3.97737
18.303 39.007 0.0225533
14.4634 39.1724 2
12.0059 40.1365 3.9736
14.9559 41.9075 0.0231203
12.4949 42.2693 2
10.2112 42.7734 3.96955
12.7914 44.3826 0.0273087
10.6028 44.797 2
8.39312 45.3199 3.96722
11.0174 46.728 0.0312674
8.91528 47.3176 2
6.7282 48.0003 3.97063
9.53303 49.2382 0.0323475
7.43708 50.0345 2
5.21124 50.9108 3.98208
8.26997 52.0015 0.0283457
6.13413 53.0055 2
3.86727 54.0858 4
7.19375 55.0323 0.0180409
5.02404 56.25 2
6.31991 58.3339 0
13.0096 29.0449 3.97087
11.4 26.4943 3.96879
13.5357 26.8268 2
10.2048 23.9706 3.96815
11.9597 24.7946 2
13.273 25.373 0.0282051
9.24585 21.141 3.97193
11.1477 22.2394 2
12.8534 23.2895 0.0330765
12.2448 20.5582 0.031874
10.3947 19.3245 2
8.41782 18.0294 3.98064
11.6626 17.5709 0.0271967
9.76058 16.1615 2
7.74928 14.6715 4
11.2204 14.3737 0.0153089
9.30602 12.7745 2
10.9835 10.9835 0
14.6402 32.8755 3.97603
18.0885 33.1331 2
20.8626 33.4234 0.0242409
15.6426 29.6556 2
16.0217 26.4204 0.0282329
18.5776 30.1977 0.0251478
13.0098 36.2125 3.97595
15.0827 36.0271 2
17.9152 35.9807 0.0219515
12.7135 37.8294 2
11.3475 38.3089 3.97442
14.4624 39.1725 0.0224361
12.0073 40.1363 2
9.79895 40.7514 3.97023
12.4943 42.2694 0.0273013
10.2118 42.7732 2
7.94211 43.2689 3.96746
10.6025 44.7972 0.0307453
8.39321 45.3196 2
6.13446 45.9054 3.97013
8.91519 47.3178 0.0325643
6.72827 47.9998 2
4.4228 48.7515 3.98142
7.4369 50.035 0.0289142
5.21112 50.9098 2
2.85457 51.8506 4
6.1344 53.0074 0.0176629
3.86727 54.0858 2
5.0241 56.25 0
12.1563 31.2663 3.97213
10.8218 28.4219 3.96894
13.0105 29.0451 2
9.41919 25.7999 3.96806
11.4 26.4944 2
13.5364 26.8268 0.0287675
8.23256 23.0245 3.97162
10.2054 23.9706 2
11.9591 24.7945 0.0313491
7.19982 19.9792 3.98135
9.24673 21.1414 2
11.1468 22.2394 0.0319528
10.3937 19.3243 0.0279161
8.41714 18.033 2
6.31992 16.6661 4
9.76183 16.1581 0.0185207
7.74926 14.6714 2
9.30607 12.7746 0
12.1824 34.3006 3.97576
14.6407 32.8758 2
18.0889 33.1326 0.0228581
15.6422 29.6553 0.0261177
10.9082 36.6125 3.97365
13.0103 36.2126 2
15.0813 36.0266 0.0222063
12.7126 37.8295 0.0226345
11.3484 38.3088 2
9.38964 38.8222 3.97052
12.0059 40.1365 0.0263986
9.7995 40.7512 2
7.55317 41.2107 3.96786
10.2112 42.7734 0.0304541
7.94193 43.2687 2
5.64631 43.7683 3.97008
8.39312 45.3199 0.0327841
6.13456 45.905 2
3.76844 46.5371 3.98084
6.7282 48.0003 0.0293661
4.42283 48.7511 2
1.99014 49.554 4
5.21124 50.9108 0.0179213
2.85451 51.8506 2
3.86727 54.0858 0
10.9902 32.9253 3.97393
10.141 30.3882 3.96937
12.1572 31.2665 2
8.72765 27.7333 3.96765
10.8221 28.422 2
13.0096 29.0449 0.0291284
7.35803 24.9831 3.9711
9.41946 25.8 2
11.4 26.4943 0.0312119
6.1167 22.0024 3.98218
8.23318 23.0249 2
10.2048 23.9706 0.0318516
5.02411 18.75 4
7.19952 19.9821 2
9.24585 21.141 0.0280685
8.41782 18.0294 0.0193569
6.3199 16.6661 2
7.74928 14.6715 0
10.5107 35.0032 3.97328
12.1834 34.3007 2
14.6402 32.8755 0.0239676
9.05533 36.9852 3.97092
10.9095 36.6125 2
13.0098 36.2125 0.0240525
11.3475 38.3089 0.0255804
9.39056 38.8221 2
7.23375 39.182 3.96807
9.79895 40.7514 0.0297705
7.55336 41.2105 2
5.26151 41.614 3.96991
7.94211 43.2689 0.0325443
5.64635 43.768 2
3.24616 44.2819 3.9808
6.13446 45.9054 0.0298732
3.76858 46.5368 2
1.27781 47.2057 4
4.4228 48.7515 0.018577
1.99012 49.554 2
2.85457 51.8506 0
10.1463 33.8855 3.97376
9.42559 32.1588 3.97011
10.991 32.9255 2
8.07671 29.6967 3.96775
10.1414 30.3884 2
12.1563 31.2663 0.0278717
6.60184 27.0089 3.97058
8.72759 27.7334 2
10.8218 28.4219 0.0310599
5.17209 24.0951 3.98214
7.35833 24.9834 2
9.41919 25.7999 0.0319364
3.86728 20.9142 4
6.1166 22.0042 2
8.23256 23.0245 0.0283771
5.02406 18.75 2
7.19982 19.9792 0.0186534
6.31992 16.6661 0
8.87743 35.2811 3.97121
10.5115 35.0032 2
12.1824 34.3006 0.0242403
7.01667 37.2062 3.96805
9.05588 36.9851 2
10.9082 36.6125 0.0263488
9.38964 38.8222 0.0294811
7.2341 39.1819 2
4.98924 39.4673 3.96995
7.55317 41.2107 0.0321394
5.26182 41.6137 2
2.85663 42.0022 3.9807
5.64631 43.7683 0.0299195
3.24622 44.2818 2
0.720592 44.8159 4
3.76844 46.5371 0.0191595
1.27778 47.2057 2
1.99014 49.554 0
8.91559 33.7005 3.97102
10.1471 33.8855 2
7.51367 31.61 3.96801
9.42616 32.1589 2
10.9902 32.9253 0.0260678
5.94682 29.0698 3.97056
8.07646 29.6968 2
10.141 30.3882 0.0306264
4.35984 26.2475 3.98148
6.60193 27.0092 2
8.72765 27.7333 0.0323476
2.85458 23.1494 4
5.17208 24.0958 2
7.35803 24.9831 0.0288983
3.86728 20.9142 2
6.1167 22.0024 0.0178206
5.02411 18.75 0
6.96647 35.3065 3.96829
8.87822 35.281 2
10.5107 35.0032 0.0267181
4.8393 37.3397 3.97044
7.01677 37.2061 2
9.05533 36.9852 0.0290762
7.23375 39.182 0.031926
4.98957 39.4672 2
2.60472 39.7139 3.98051
5.26151 41.614 0.0300883
2.85691 42.0023 2
0.320823 42.3947 4
3.24616 44.2819 0.0191966
0.720551 44.8159 2
1.27781 47.2057 0
7.12652 33.4615 3.96823
8.91607 33.7006 2
10.1463 33.8855 0.0262372
5.4176 31.1337 3.9707
7.51359 31.6101 2
9.42559 32.1588 0.029885
3.68152 28.4434 3.98108
5.94685 29.0701 2
8.07671 29.6967 0.0322452
1.99015 25.446 4
4.35989 26.2477 2
6.60184 27.0089 0.0294237
2.85453 23.1494 2
5.17209 24.0951 0.0178551
3.86728 20.9142 0
4.85335 35.2515 3.97091
6.96683 35.3065 2
8.87743 35.2811 0.0287857
2.49612 37.4285 3.98113
4.83933 37.3398 2
7.01667 37.2062 0.0319484
4.98924 39.4673 0.0300457
2.60507 39.7142 2
0.080333 39.9526 4
2.85663 42.0022 0.0192997
0.320817 42.3947 2
0.720592 44.8159 0
5.04682 33.1902 3.9709
7.12665 33.4615 2
8.91559 33.7005 0.0289826
3.1458 30.6661 3.98087
5.41767 31.134 2
7.51367 31.61 0.0319937
1.27793 27.7943 4
3.68164 28.4435 2
5.94682 29.0698 0.0294384
1.99013 25.446 2
4.35984 26.2475 0.0185169
2.85458 23.1494 0
2.54816 35.159 3.98123
4.85373 35.2518 2
6.96647 35.3065 0.0317094
0 37.5 4
2.49617 37.4289 2
4.8393 37.3397 0.0295592
2.60472 39.7139 0.0194926
0.0802903 39.9526 2
0.320823 42.3947 0
2.76579 32.9057 3.98128
5.04692 33.1905 2
7.12652 33.4615 0.0317683
0.721173 30.1842 4
3.14596 30.6665 2
5.4176 31.1337 0.0293039
1.27779 27.7943 2
3.68152 28.4434 0.0189152
1.99015 25.446 0
0.0806499 35.0474 4
2.54856 35.1594 2
4.85335 35.2515 0.0290854
0 37.5 2
2.49612 37.4285 0.0188666
0.080333 39.9526 0
0.32156 32.6054 4
2.76588 32.9062 2
5.04682 33.1902 0.0291046
0.72056 30.1841 2
3.1458 30.6661 0.0191257
1.27793 27.7943 0
0.0802889 35.0474 2
2.54816 35.159 0.0187659
0 37.5 0
0.320817 32.6053 2
2.76579 32.9057 0.0187182
0.721173 30.1842 0
0.0806499 35.0474 0
0.32156 32.6054 0
CELLS 1910 17190
8 18 6 25 56 2 0 5 16
8 57 23 6 18 17 4 0 2
8 78 36 9 29 31 11 1 7
8 31 11 1 7 79 37 10 30
8 110 57 18 50 48 17 2 14
8 50 18 56 111 14 2 16 49
8 116 62 22 55 52 20 3 15
8 56 25 67 118 16 5 24 53
8 119 63 23 57 54 21 4 17
8 55 22 63 119 15 3 21 54
8 58 26 68 121 18 6 25 56
8 122 65 26 58 57 23 6 18
8 73 31 7 27 142 79 30 71
8 143 78 29 72 73 31 7 27
8 83 147 76 34 32 74 28 8
8 84 148 78 36 33 75 29 9
8 76 34 8 28 148 84 33 75
8 37 79 150 86 10 30 77 35
8 151 87 36 78 80 38 11 31
8 80 38 11 31 152 88 37 79
8 175 100 42 94 96 44 12 40
8 44 96 176 101 12 40 95 43
8 101 176 98 46 43 95 41 13
8 46 98 178 103 13 41 97 45
8 178 103 45 97 147 83 32 74
8 189 116 55 109 106 52 15 47
8 111 56 118 191 49 16 53 107
8 192 119 57 110 108 54 17 48
8 109 55 119 192 47 15 54 108
8 194 122 58 112 110 57 18 50
8 112 58 121 195 50 18 56 111
8 115 61 19 51 197 124 59 113
8 115 61 125 198 51 19 60 114
8 198 125 62 116 114 60 20 52
8 200 127 64 120 116 62 22 55
8 118 67 132 202 53 24 66 117
8 121 68 133 203 56 25 67 118
8 120 64 128 204 55 22 63 119
8 204 128 65 122 119 63 23 57
8 206 134 68 121 123 69 26 58
8 123 69 26 58 207 131 65 122
8 226 147 74 138 140 76 28 70
8 229 148 75 139 143 78 29 72
8 140 76 28 70 229 148 75 139
8 142 79 30 71 231 150 77 141
8 144 80 31 73 232 152 79 142
8 233 151 78 143 144 80 31 73
8 150 86 35 77 235 154 81 145
8 235 154 81 145 146 82 39 91
8 146 82 39 91 236 155 90 165
8 238 157 83 147 149 85 34 76
8 239 158 84 148 151 87 36 78
8 149 85 34 76 239 158 84 148
8 152 88 37 79 241 160 86 150
8 242 161 87 151 153 89 38 80
8 153 89 38 80 243 162 88 152
8 171 98 41 92 265 178 97 169
8 265 178 97 169 226 147 74 138
8 172 96 40 93 266 176 95 170
8 266 176 95 170 171 98 41 92
8 269 175 94 173 172 96 40 93
8 271 180 99 174 175 100 42 94
8 197 124 59 113 271 180 99 174
8 272 181 100 175 177 102 44 96
8 273 182 101 176 179 104 46 98
8 177 102 44 96 273 182 101 176
8 179 104 46 98 275 184 103 178
8 275 184 103 178 238 157 83 147
8 188 115 51 105 283 197 113 186
8 188 115 198 284 105 51 114 187
8 284 198 116 189 187 114 52 106
8 286 200 120 193 189 116 55 109
8 191 118 202 288 107 53 117 190
8 195 121 203 289 111 56 118 191
8 193 120 204 290 109 55 119 192
8 290 204 122 194 192 119 57 110
8 196 123 58 112 292 207 122 194
8 293 206 121 195 196 123 58 112
8 199 126 61 115 297 211 124 197
8 298 212 127 200 198 125 62 116
8 199 126 212 298 115 61 125 198
8 205 129 64 120 300 214 127 200
8 301 217 130 201 202 132 66 117
8 209 136 168 264 301 217 130 201
8 302 219 132 202 203 133 67 118
8 303 220 133 203 206 134 68 121
8 205 129 215 304 120 64 128 204
8 304 215 131 207 204 128 65 122
8 306 221 134 206 208 135 69 123
8 208 135 69 123 307 218 131 207
8 210 137 167 263 309 223 136 209
8 328 238 147 226 230 149 76 140
8 228 146 91 166 329 236 165 260
8 231 150 77 141 330 235 145 227
8 330 235 145 227 228 146 91 166
8 332 239 148 229 233 151 78 143
8 230 149 76 140 332 239 148 229
8 232 152 79 142 334 241 150 231
8 234 153 80 144 335 243 152 232
8 336 242 151 233 234 153 80 144
8 236 155 90 165 338 245 164 259
8 241 160 86 150 339 246 154 235
8 339 246 154 235 237 156 82 146
8 237 156 82 146 340 247 155 236
8 342 249 157 238 240 159 85 149
8 343 250 158 239 242 161 87 151
8 240 159 85 149 343 250 158 239
8 243 162 88 152 345 252 160 241
8 244 163 253 346 153 89 161 242
8 244 163 89 153 347 254 162 243
8 311 224 261 371 210 137 167 263
8 263 167 262 372 209 136 168 264
8 267 179 98 171 375 275 178 265
8 375 275 178 265 328 238 147 226
8 376 273 176 266 267 179 98 171
8 268 177 96 172 376 273 176 266
8 379 272 175 269 268 177 96 172
8 380 271 174 270 269 175 94 173
8 283 197 113 186 380 271 174 270
8 381 277 180 271 272 181 100 175
8 297 211 124 197 381 277 180 271
8 382 278 181 272 274 183 102 177
8 274 183 102 177 383 279 182 273
8 383 279 182 273 276 185 104 179
8 385 281 184 275 342 249 157 238
8 276 185 104 179 385 281 184 275
8 285 199 115 188 393 297 197 283
8 394 298 200 286 284 198 116 189
8 285 199 298 394 188 115 198 284
8 291 205 120 193 396 300 200 286
8 397 301 201 287 288 202 117 190
8 295 209 264 374 397 301 201 287
8 398 302 202 288 289 203 118 191
8 399 303 203 289 293 206 121 195
8 291 205 304 400 193 120 204 290
8 400 304 207 292 290 204 122 194
8 294 208 123 196 402 307 207 292
8 403 306 206 293 294 208 123 196
8 296 210 263 373 405 309 209 295
8 408 312 213 299 297 211 126 199
8 299 213 313 409 199 126 212 298
8 409 313 214 300 298 212 127 200
8 305 216 129 205 411 315 214 300
8 412 318 217 301 302 219 132 202
8 309 223 136 209 412 318 217 301
8 413 320 219 302 303 220 133 203
8 306 221 321 414 206 134 220 303
8 307 218 131 207 415 316 215 304
8 305 216 316 415 205 129 215 304
8 417 322 221 306 308 222 135 208
8 308 222 135 208 418 319 218 307
8 310 225 137 210 420 325 223 309
8 423 326 224 311 310 225 137 210
8 329 236 165 260 441 338 259 368
8 442 342 238 328 333 240 149 230
8 331 237 146 228 443 340 236 329
8 334 241 150 231 444 339 235 330
8 444 339 235 330 331 237 146 228
8 446 343 239 332 336 242 151 233
8 333 240 149 230 446 343 239 332
8 335 243 152 232 448 345 241 334
8 337 244 153 234 449 347 243 335
8 337 244 346 450 234 153 242 336
8 338 245 164 259 452 349 258 367
8 340 247 155 236 453 350 245 338
8 345 252 160 241 454 351 246 339
8 454 351 246 339 341 248 156 237
8 341 248 156 237 455 352 247 340
8 240 159 251 344 342 249 354 457
8 242 161 253 346 343 250 355 458
8 343 250 355 458 240 159 251 344
8 347 254 162 243 460 357 252 345
8 348 255 358 461 244 163 253 346
8 348 255 163 244 462 359 254 347
8 473 360 257 365 363 256 364 482
8 452 349 258 367 365 257 366 485
8 422 324 369 488 311 224 261 371
8 371 261 370 490 263 167 262 372
8 407 311 371 491 296 210 263 373
8 373 263 372 492 295 209 264 374
8 493 385 275 375 442 342 238 328
8 377 276 179 267 493 385 275 375
8 378 274 177 268 494 383 273 376
8 494 383 273 376 377 276 179 267
8 497 382 272 379 378 274 177 268
8 498 381 271 380 379 272 175 269
8 393 297 197 283 498 381 271 380
8 499 387 277 381 382 278 181 272
8 408 312 211 297 499 387 277 381
8 500 388 278 382 384 280 183 274
8 501 389 279 383 386 282 185 276
8 384 280 183 274 501 389 279 383
8 386 282 185 276 503 391 281 385
8 503 391 281 385 457 354 249 342
8 511 408 299 395 393 297 199 285
8 395 299 409 512 285 199 298 394
8 512 409 300 396 394 298 200 286
8 401 305 205 291 514 411 300 396
8 515 412 301 397 398 302 202 288
8 405 309 209 295 515 412 301 397
8 516 413 302 398 399 303 203 289
8 403 306 414 517 293 206 303 399
8 402 307 207 292 518 415 304 400
8 401 305 415 518 291 205 304 400
8 404 308 208 294 520 418 307 402
8 521 417 306 403 404 308 208 294
8 406 310 210 296 523 420 309 405
8 526 423 311 407 406 310 210 296
8 410 314 213 299 527 424 312 408
8 528 425 315 411 409 313 214 300
8 410 314 425 528 299 213 313 409
8 416 317 216 305 530 427 315 411
8 531 430 318 412 413 320 219 302
8 420 325 223 309 531 430 318 412
8 532 432 320 413 414 321 220 303
8 417 322 433 533 306 221 321 414
8 418 319 218 307 534 428 316 415
8 416 317 428 534 305 216 316 415
8 419 323 434 536 308 222 322 417
8 419 323 222 308 537 431 319 418
8 421 327 225 310 539 438 325 420
8 421 327 439 541 310 225 326 423
8 543 437 324 422 423 326 224 311
8 441 338 259 368 559 452 367 486
8 443 340 236 329 560 453 338 441
8 333 240 344 447 442 342 457 561
8 445 341 237 331 562 455 340 443
8 448 345 241 334 563 454 339 444
8 563 454 339 444 445 341 237 331
8 336 242 346 450 446 343 458 565
8 446 343 458 565 333 240 344 447
8 449 347 243 335 567 460 345 448
8 451 348 244 337 568 462 347 449
8 451 348 461 569 337 244 346 450
8 570 463 349 452 473 360 257 365
8 453 350 245 338 570 463 349 452
8 455 352 247 340 571 464 350 453
8 460 357 252 345 572 465 351 454
8 572 465 351 454 456 353 248 341
8 456 353 248 341 573 466 352 455
8 344 251 356 459 457 354 468 575
8 458 355 469 576 344 251 356 459
8 346 253 358 461 458 355 469 576
8 462 359 254 347 578 471 357 460
8 348 255 359 462 461 358 472 579
8 591 474 360 473 475 361 256 363
8 475 361 256 363 594 477 362 479
8 363 256 364 482 479 362 480 603
8 590 473 365 484 481 363 482 605
8 482 364 257 365 606 483 366 485
8 559 452 367 486 484 365 485 607
8 542 436 487 609 422 324 369 488
8 525 422 488 611 407 311 371 491
8 488 369 489 612 371 261 370 490
8 491 371 490 613 373 263 372 492
8 495 386 276 377 614 503 385 493
8 614 503 385 493 561 457 342 442
8 615 501 383 494 495 386 276 377
8 496 384 274 378 615 501 383 494
8 618 500 382 497 496 384 274 378
8 619 499 381 498 497 382 272 379
8 511 408 297 393 619 499 381 498
8 620 505 387 499 500 388 278 382
8 527 424 312 408 620 505 387 499
8 502 390 506 621 384 280 388 500
8 622 507 389 501 504 392 282 386
8 502 390 280 384 622 507 389 501
8 504 392 282 386 624 509 391 503
8 624 509 391 503 575 468 354 457
8 513 410 299 395 630 527 408 511
8 631 528 411 514 512 409 300 396
8 513 410 528 631 395 299 409 512
8 519 416 305 401 633 530 411 514
8 634 531 412 515 516 413 302 398
8 523 420 309 405 634 531 412 515
8 635 532 413 516 517 414 303 399
8 521 417 533 636 403 306 414 517
8 520 418 307 402 637 534 415 518
8 519 416 534 637 401 305 415 518
8 522 419 308 404 639 537 418 520
8 522 419 536 640 404 308 417 521
8 524 421 310 406 642 539 420 523
8 524 421 541 644 406 310 423 526
8 646 543 422 525 526 423 311 407
8 529 426 314 410 647 544 424 527
8 528 425 545 648 411 315 427 530
8 529 426 545 648 410 314 425 528
8 535 429 317 416 649 546 427 530
8 650 548 430 531 532 432 320 413
8 539 438 325 420 650 548 430 531
8 533 433 550 651 414 321 432 532
8 536 434 551 652 417 322 433 533
8 537 431 319 418 653 547 428 534
8 535 429 547 653 416 317 428 534
8 538 435 552 654 419 323 434 536
8 538 435 323 419 655 549 431 537
8 540 440 327 421 657 556 438 539
8 540 440 557 659 421 327 439 541
8 541 439 555 660 423 326 437 543
8 661 554 436 542 543 437 324 422
8 676 570 452 559 590 473 365 484
8 560 453 338 441 676 570 452 559
8 562 455 340 443 677 571 453 560
8 447 344 459 566 561 457 575 678
8 564 456 341 445 679 573 455 562
8 567 460 345 448 680 572 454 563
8 680 572 454 563 564 456 341 445
8 565 458 576 682 447 344 459 566
8 450 346 461 569 565 458 576 682
8 568 462 347 449 684 578 460 567
8 451 348 462 568 569 461 579 685
8 686 580 463 570 591 474 360 473
8 571 464 350 453 686 580 463 570
8 573 466 352 455 687 581 464 571
8 572 465 582 688 460 357 471 578
8 574 467 582 688 456 353 465 572
8 574 467 353 456 689 583 466 573
8 459 356 470 577 575 468 585 691
8 576 469 586 692 459 356 470 577
8 461 358 472 579 576 469 586 692
8 462 359 471 578 579 472 588 694
8 704 591 473 590 593 475 363 481
8 595 476 592 705 475 361 474 591
8 593 475 363 481 707 594 479 602
8 594 477 362 479 709 598 478 600
8 595 476 361 475 711 597 477 594
8 479 362 480 603 600 478 601 720
8 481 363 482 605 602 479 603 722
8 603 480 364 482 723 604 483 606
8 605 482 365 484 724 606 485 607
8 656 553 608 726 542 436 487 609
8 645 542 609 728 525 422 488 611
8 609 487 610 729 488 369 489 612
8 611 488 612 730 491 371 490 613
8 616 504 386 495 731 624 503 614
8 731 624 503 614 678 575 457 561
8 732 622 501 615 616 504 386 495
8 617 502 384 496 732 622 501 615
8 617 502 621 735 496 384 500 618
8 736 620 499 619 618 500 382 497
8 630 527 408 511 736 620 499 619
8 621 506 626 737 500 388 505 620
8 647 544 424 527 737 626 505 620
8 623 508 627 738 502 390 506 621
8 623 508 390 502 739 628 507 622
8 625 510 628 739 504 392 507 622
8 740 629 509 624 691 585 468 575
8 625 510 392 504 740 629 509 624
8 632 529 410 513 744 647 527 630
8 631 528 648 745 514 411 530 633
8 632 529 648 745 513 410 528 631
8 638 535 416 519 746 649 530 633
8 747 650 531 634 635 532 413 516
8 642 539 420 523 747 650 531 634
8 636 533 651 748 517 414 532 635
8 640 536 652 749 521 417 533 636
8 639 537 418 520 750 653 534 637
8 638 535 653 750 519 416 534 637
8 641 538 419 522 751 655 537 639
8 641 538 654 752 522 419 536 640
8 643 540 421 524 753 657 539 642
8 643 540 659 755 524 421 541 644
8 644 541 660 757 526 423 543 646
8 758 661 542 645 646 543 422 525
8 529 426 544 647 648 545 662 759
8 530 427 545 648 649 546 663 760
8 535 429 546 649 653 547 664 761
8 762 666 548 650 651 550 432 532
8 657 556 438 539 762 666 548 650
8 652 551 668 763 533 433 550 651
8 654 552 669 764 536 434 551 652
8 655 549 431 537 765 665 547 653
8 538 435 549 655 654 552 667 766
8 661 554 671 768 542 436 553 656
8 658 558 440 540 769 674 556 657
8 658 558 675 770 540 440 557 659
8 659 557 673 771 541 439 555 660
8 660 555 672 772 543 437 554 661
8 788 686 570 676 704 591 473 590
8 677 571 453 560 788 686 570 676
8 679 573 455 562 789 687 571 677
8 566 459 577 683 678 575 691 790
8 681 574 456 564 791 689 573 679
8 680 572 688 792 567 460 578 684
8 681 574 688 792 564 456 572 680
8 682 576 692 794 566 459 577 683
8 569 461 579 685 682 576 692 794
8 568 462 578 684 685 579 694 796
8 687 581 464 571 798 696 580 686
8 798 696 580 686 705 592 474 591
8 689 583 466 573 799 697 581 687
8 688 582 698 800 578 471 588 694
8 690 584 698 800 574 467 582 688
8 690 584 467 574 801 699 583 689
8 693 587 701 803 577 470 585 691
8 693 587 470 577 804 702 586 692
8 695 589 702 804 579 472 586 692
8 695 589 472 579 805 703 588 694
8 708 595 705 813 593 475 591 704
8 710 596 706 814 595 476 592 705
8 707 594 479 602 816 709 600 719
8 708 595 475 593 817 711 594 707
8 709 598 478 600 819 715 599 717
8 711 597 477 594 820 714 598 709
8 710 596 476 595 822 713 597 711
8 600 478 601 720 717 599 718 832
8 602 479 603 722 719 600 720 834
8 720 601 480 603 835 721 604 723
8 722 603 482 605 836 723 606 724
8 767 670 725 839 656 553 608 726
8 756 656 726 841 645 542 609 728
8 726 608 727 842 609 487 610 729
8 728 609 729 843 611 488 612 730
8 844 740 624 731 790 691 575 678
8 733 625 504 616 844 740 624 731
8 734 623 502 617 845 739 622 732
8 733 625 739 845 616 504 622 732
8 734 623 738 846 617 502 621 735
8 735 621 737 847 618 500 620 736
8 744 647 527 630 847 737 620 736
8 621 506 627 738 737 626 741 848
8 647 544 626 737 759 662 741 848
8 623 508 628 739 738 627 742 849
8 740 629 585 691 850 743 700 802
8 625 510 629 740 739 628 743 850
8 632 529 647 744 745 648 759 854
8 633 530 648 745 746 649 760 855
8 638 535 649 746 750 653 761 856
8 857 762 650 747 748 651 532 635
8 753 657 539 642 857 762 650 747
8 749 652 763 858 636 533 651 748
8 752 654 764 859 640 536 652 749
8 751 655 537 639 860 765 653 750
8 641 538 655 751 752 654 766 861
8 754 658 540 643 862 769 657 753
8 754 658 770 863 643 540 659 755
8 755 659 771 864 644 541 660 757
8 758 661 768 866 645 542 656 756
8 757 660 772 867 646 543 661 758
8 759 662 773 868 648 545 663 760
8 649 546 663 760 761 664 774 871
8 765 665 547 653 872 775 664 761
8 873 777 666 762 763 668 550 651
8 769 674 556 657 873 777 666 762
8 764 669 779 874 652 551 668 763
8 654 552 667 766 764 669 778 875
8 655 549 665 765 766 667 776 876
8 768 671 782 877 656 553 670 767
8 772 672 783 878 661 554 671 768
8 658 558 674 769 770 675 786 879
8 659 557 675 770 771 673 785 881
8 882 784 672 772 771 673 555 660
8 789 687 571 677 897 798 686 788
8 897 798 686 788 813 705 591 704
8 791 689 573 679 898 799 687 789
8 795 693 803 900 683 577 691 790
8 793 690 574 681 901 801 689 791
8 792 688 800 902 684 578 694 796
8 793 690 800 902 681 574 688 792
8 795 693 577 683 903 804 692 794
8 797 695 804 903 685 579 692 794
8 797 695 579 685 904 805 694 796
8 905 806 697 799 798 696 581 687
8 814 706 806 905 705 592 696 798
8 689 583 697 799 801 699 808 907
8 800 698 809 908 694 588 703 805
8 690 584 699 801 800 698 809 908
8 803 701 810 909 691 585 700 802
8 693 587 702 804 803 701 811 910
8 695 589 703 805 804 702 812 911
8 818 710 814 919 708 595 705 813
8 821 712 815 920 710 596 706 814
8 816 709 600 719 922 819 717 831
8 817 711 594 707 923 820 709 816
8 818 710 595 708 924 822 711 817
8 819 715 599 717 926 827 716 829
8 820 714 598 709 927 826 715 819
8 929 825 713 822 820 714 597 711
8 821 712 596 710 930 824 713 822
8 717 599 718 832 829 716 830 942
8 719 600 720 834 831 717 832 944
8 832 718 601 720 945 833 721 835
8 834 720 603 722 946 835 723 836
8 869 780 838 950 767 670 725 839
8 865 767 839 952 756 656 726 841
8 839 725 840 953 726 608 727 842
8 841 726 842 954 728 609 729 843
8 844 740 691 790 955 850 802 899
8 733 625 740 844 845 739 850 955
8 734 623 739 845 846 738 849 956
8 735 621 738 846 847 737 848 957
8 744 647 737 847 854 759 848 957
8 738 627 742 849 848 741 851 958
8 848 741 851 958 759 662 773 868
8 850 743 700 802 959 852 807 906
8 849 742 628 739 959 852 743 850
8 854 759 868 965 745 648 760 855
8 746 649 760 855 856 761 871 966
8 860 765 653 750 967 872 761 856
8 968 873 762 857 858 763 651 748
8 862 769 657 753 968 873 762 857
8 859 764 874 969 749 652 763 858
8 752 654 766 861 859 764 875 970
8 751 655 765 860 861 766 876 971
8 754 658 769 862 863 770 879 972
8 755 659 770 863 864 771 881 974
8 976 882 772 867 864 771 660 757
8 866 768 877 977 756 656 767 865
8 867 772 878 978 758 661 768 866
8 760 663 773 868 871 774 883 980
8 870 781 837 948 982 890 780 869
8 982 890 780 869 877 782 670 767
8 761 664 774 871 872 775 884 984
8 876 776 665 765 985 885 775 872
8 873 777 668 763 986 887 779 874
8 769 674 777 873 879 786 887 986
8 764 669 778 875 874 779 888 987
8 766 667 776 876 875 778 886 988
8 878 783 892 989 768 671 782 877
8 878 783 672 772 990 893 784 882
8 880 787 675 770 991 896 786 879
8 880 787 895 992 770 675 785 881
8 881 785 894 993 771 673 784 882
8 1006 905 799 898 897 798 687 789
8 919 814 905 1006 813 705 798 897
8 791 689 799 898 901 801 907 1007
8 900 803 909 1009 790 691 802 899
8 795 693 804 903 900 803 910 1010
8 902 800 908 1011 796 694 805 904
8 793 690 801 901 902 800 908 1011
8 797 695 805 904 903 804 911 1012
8 799 697 806 905 907 808 912 1013
8 920 815 912 1013 814 706 806 905
8 802 700 810 909 906 807 913 1014
8 801 699 808 907 908 809 914 1015
8 805 703 809 908 911 812 915 1016
8 803 701 811 910 909 810 916 1017
8 911 812 917 1018 804 702 811 910
8 925 821 920 1030 818 710 814 919
8 928 823 921 1031 821 712 815 920
8 922 819 717 831 1033 926 829 941
8 923 820 709 816 1034 927 819 922
8 1035 929 822 924 923 820 711 817
8 925 821 710 818 1036 930 822 924
8 1038 933 825 929 927 826 714 820
8 926 827 716 829 1039 935 828 939
8 927 826 715 819 1040 934 827 926
8 928 823 712 821 1041 931 824 930
8 1042 932 824 930 929 825 713 822
8 829 716 830 942 939 828 940 1058
8 831 717 832 944 941 829 942 1060
8 942 830 718 832 1061 943 833 945
8 944 832 720 834 1062 945 835 946
8 981 889 947 1064 870 781 837 948
8 948 837 949 1067 869 780 838 950
8 975 869 950 1069 865 767 839 952
8 950 838 951 1070 839 725 840 953
8 952 839 953 1071 841 726 842 954
8 955 850 802 899 1072 959 906 1008
8 956 849 739 845 1072 959 850 955
8 846 738 849 956 957 848 958 1073
8 957 848 958 1073 854 759 868 965
8 849 742 852 959 958 851 961 1076
8 960 853 961 1076 906 807 852 959
8 958 851 961 1076 868 773 883 980
8 960 853 807 906 1077 963 913 1014
8 855 760 868 965 966 871 980 1085
8 856 761 871 966 967 872 984 1086
8 971 876 765 860 1087 985 872 967
8 968 873 763 858 1088 986 874 969
8 862 769 873 968 972 879 986 1088
8 859 764 875 970 969 874 987 1089
8 861 766 876 971 970 875 988 1090
8 973 880 770 863 1091 991 879 972
8 973 880 992 1092 863 770 881 974
8 974 881 993 1093 864 771 882 976
8 979 870 948 1066 1094 982 869 975
8 1094 982 869 975 977 877 767 865
8 978 878 772 867 1095 990 882 976
8 978 878 989 1096 866 768 877 977
8 871 774 883 980 984 884 994 1099
8 983 891 999 1100 870 781 889 981
8 1101 1000 890 982 989 892 782 877
8 983 891 781 870 1101 1000 890 982
8 872 775 884 984 985 885 995 1103
8 876 776 885 985 988 886 996 1104
8 986 887 779 874 1105 998 888 987
8 879 786 887 986 991 896 998 1105
8 875 778 886 988 987 888 997 1106
8 990 893 1002 1107 878 783 892 989
8 1108 1003 893 990 993 894 784 882
8 880 787 896 991 992 895 1005 1109
8 993 894 785 881 1110 1004 895 992
8 898 799 905 1006 1007 907 1013 1120
8 1030 920 1013 1120 919 814 905 1006
8 901 801 907 1007 1011 908 1015 1121
8 899 802 909 1009 1008 906 1014 1122
8 900 803 910 1010 1009 909 1017 1123
8 1012 911 1018 1124 903 804 910 1010
8 904 805 908 1011 1012 911 1016 1125
8 1013 912 1020 1127 907 808 914 1015
8 1031 921 1020 1127 920 815 912 1013
8 1019 918 962 1075 1128 1021 913 1014
8 1128 1021 913 1014 1017 916 810 909
8 1015 914 1022 1129 908 809 915 1016
8 1016 915 1023 1130 911 812 917 1018
8 1018 917 1024 1131 910 811 916 1017
8 1037 928 1031 1148 925 821 920 1030
8 928 823 931 1041 1031 921 1032 1149
8 1033 926 829 941 1151 1039 939 1057
8 1034 927 819 922 1152 1040 926 1033
8 1153 1038 929 1035 1034 927 820 923
8 1154 1042 930 1036 1035 929 822 924
8 1037 928 821 925 1155 1041 930 1036
8 1039 935 828 939 1156 1047 938 1055
8 1157 1043 932 1042 1038 933 825 929
8 1038 933 826 927 1158 1045 934 1040
8 1040 934 827 926 1159 1046 935 1039
8 930 824 932 1042 1041 931 1044 1160
8 1051 936 1048 1165 1175 1052 937 1053
8 1156 1047 938 1055 1053 937 1054 1178
8 939 828 940 1058 1055 938 1056 1181
8 941 829 942 1060 1057 939 1058 1183
8 942 830 943 1061 1058 940 1059 1184
8 1060 942 832 944 1185 1061 945 1062
8 1082 964 1063 1188 981 889 947 1064
8 1097 981 1064 1190 979 870 948 1066
8 1064 947 1065 1191 948 837 949 1067
8 1066 948 1067 1193 975 869 950 1069
8 1067 949 1068 1194 950 838 951 1070
8 1069 950 1070 1195 952 839 953 1071
8 956 849 959 1072 1073 958 1076 1197
8 1074 960 1076 1197 1008 906 959 1072
8 1073 958 1076 1197 965 868 980 1085
8 1074 960 906 1008 1198 1077 1014 1122
8 1133 1026 1079 1199 1019 918 962 1075
8 1077 963 913 1014 1200 1080 962 1075
8 960 853 963 1077 1076 961 1078 1201
8 980 883 961 1076 1099 994 1078 1201
8 1210 1083 964 1082 1100 999 889 981
8 966 871 980 1085 1086 984 1099 1215
8 967 872 984 1086 1087 985 1103 1216
8 971 876 985 1087 1090 988 1104 1217
8 1088 986 874 969 1218 1105 987 1089
8 972 879 986 1088 1091 991 1105 1218
8 970 875 988 1090 1089 987 1106 1219
8 973 880 991 1091 1092 992 1109 1220
8 1093 993 881 974 1221 1110 992 1092
8 1222 1108 990 1095 1093 993 882 976
8 1223 1101 982 1094 1096 989 877 977
8 1098 983 870 979 1223 1101 982 1094
8 1095 990 1107 1224 978 878 989 1096
8 1098 983 1100 1225 979 870 981 1097
8 984 884 994 1099 1103 995 1111 1227
8 1102 1001 1115 1228 983 891 999 1100
8 1101 1000 892 989 1229 1116 1002 1107
8 1102 1001 891 983 1229 1116 1000 1101
8 985 885 995 1103 1104 996 1112 1230
8 988 886 996 1104 1106 997 1113 1231
8 1105 998 888 987 1232 1114 997 1106
8 991 896 998 1105 1109 1005 1114 1232
8 1108 1003 1117 1233 990 893 1002 1107
8 1108 1003 894 993 1233 1117 1004 1110
8 992 895 1005 1109 1110 1004 1118 1234
8 1120 1013 1127 1244 1007 907 1015 1121
8 1148 1031 1127 1244 1030 920 1013 1120
8 1121 1015 1129 1245 1011 908 1016 1125
8 1126 1019 1075 1196 1246 1128 1014 1122
8 1246 1128 1014 1122 1123 1017 909 1009
8 1124 1018 1131 1247 1010 910 1017 1123
8 1125 1016 1130 1248 1012 911 1018 1124
8 1127 1020 1137 1254 1015 914 1022 1129
8 1031 921 1032 1149 1127 1020 1137 1254
8 1134 1027 918 1019 1257 1140 1021 1128
8 1257 1140 1021 1128 1131 1024 916 1017
8 1129 1022 1141 1258 1016 915 1023 1130
8 1130 1023 1142 1259 1018 917 1024 1131
8 1261 1144 1025 1132 1133 1026 1079 1199
8 1255 1138 1025 1132 1135 1028 1144 1261
8 1133 1026 918 1019 1262 1145 1027 1134
8 1136 1029 1139 1256 1263 1146 1028 1135
8 1037 928 1041 1155 1148 1031 1149 1275
8 1041 931 1044 1160 1149 1032 1150 1276
8 1151 1039 939 1057 1278 1156 1055 1180
8 1152 1040 926 1033 1279 1159 1039 1151
8 1153 1038 927 1034 1280 1158 1040 1152
8 1281 1157 1042 1154 1153 1038 929 1035
8 1036 930 1042 1154 1155 1041 1160 1282
8 1283 1164 1046 1159 1156 1047 935 1039
8 1165 1048 1164 1283 1053 937 1047 1156
8 1157 1043 933 1038 1284 1161 1045 1158
8 1157 1043 1161 1284 1042 932 1044 1160
8 1040 934 1046 1159 1158 1045 1163 1285
8 1166 1049 1167 1292 1051 936 1048 1165
8 1166 1049 936 1051 1293 1168 1050 1172
8 1051 936 1052 1175 1172 1050 1173 1306
8 1174 1051 1165 1290 1308 1175 1053 1177
8 1053 937 1054 1178 1175 1052 1176 1309
8 1278 1156 1055 1180 1177 1053 1178 1311
8 1055 938 1056 1181 1178 1054 1179 1312
8 1057 939 1058 1183 1180 1055 1181 1314
8 1058 940 1059 1184 1181 1056 1182 1315
8 1060 942 1061 1185 1183 1058 1184 1316
8 1208 1081 1187 1321 1082 964 1063 1188
8 1209 1082 1188 1322 1097 981 1064 1190
8 1188 1063 1189 1323 1064 947 1065 1191
8 1190 1064 1191 1325 1066 948 1067 1193
8 1191 1065 1192 1326 1067 949 1068 1194
8 1067 1193 1069 950 1194 1327 1195 1070
8 1250 1133 1199 1330 1126 1019 1075 1196
8 1198 1077 1014 1122 1331 1200 1075 1196
8 1074 960 1077 1198 1197 1076 1201 1332
8 1085 980 1076 1197 1215 1099 1201 1332
8 1199 1079 1203 1333 1075 962 1080 1200
8 1132 1025 1119 1243 1199 1079 1203 1333
8 1201 1078 963 1077 1334 1202 1080 1200
8 1099 994 1078 1201 1227 1111 1202 1334
8 1343 1207 1081 1208 1210 1083 964 1082
8 1214 1084 1186 1319 1343 1207 1081 1208
8 1345 1210 1082 1209 1225 1100 981 1097
8 1346 1211 1083 1210 1228 1115 999 1100
8 1086 984 1099 1215 1216 1103 1227 1352
8 1087 985 1103 1216 1217 1104 1230 1353
8 1090 988 1104 1217 1219 1106 1231 1354
8 1218 1105 987 1089 1355 1232 1106 1219
8 1091 991 1105 1218 1220 1109 1232 1355
8 1092 992 1109 1220 1221 1110 1234 1356
8 1222 1108 1233 1357 1095 990 1107 1224
8 1222 1108 993 1093 1357 1233 1110 1221
8 1223 1101 989 1096 1358 1229 1107 1224
8 1226 1102 983 1098 1358 1229 1101 1223
8 1226 1102 1228 1359 1098 983 1100 1225
8 1103 995 1111 1227 1230 1112 1235 1360
8 1107 1002 1117 1233 1229 1116 1240 1362
8 1102 1001 1116 1229 1228 1115 1240 1362
8 1104 996 1112 1230 1231 1113 1236 1363
8 1364 1237 1114 1232 1231 1113 997 1106
8 1109 1005 1114 1232 1234 1118 1238 1365
8 1110 1004 1118 1234 1233 1117 1241 1366
8 1242 1374 1255 1138 1119 1243 1132 1025
8 1244 1127 1254 1376 1121 1015 1129 1245
8 1148 1031 1149 1275 1244 1127 1254 1376
8 1245 1129 1258 1377 1125 1016 1130 1248
8 1251 1134 1019 1126 1378 1257 1128 1246
8 1378 1257 1128 1246 1247 1131 1017 1123
8 1248 1130 1259 1379 1124 1018 1131 1247
8 1261 1381 1250 1133 1132 1249 1330 1199
8 1255 1380 1252 1135 1132 1249 1381 1261
8 1250 1133 1019 1126 1382 1262 1134 1251
8 1253 1136 1256 1385 1384 1263 1135 1252
8 1254 1137 1265 1387 1129 1022 1141 1258
8 1149 1032 1150 1276 1254 1137 1265 1387
8 1028 1135 1255 1138 1139 1256 1388 1266
8 1136 1029 1147 1264 1256 1139 1267 1389
8 1390 1268 1140 1257 1259 1142 1024 1131
8 1260 1143 1027 1134 1390 1268 1140 1257
8 1258 1141 1269 1391 1130 1023 1142 1259
8 1262 1145 1027 1134 1393 1271 1143 1260
8 1261 1144 1026 1133 1394 1272 1145 1262
8 1135 1028 1144 1261 1263 1146 1272 1394
8 1136 1029 1146 1263 1264 1147 1273 1395
8 1155 1041 1160 1282 1275 1149 1276 1405
8 1276 1150 1044 1160 1406 1277 1162 1286
8 1408 1283 1159 1279 1278 1156 1039 1151
8 1290 1165 1283 1408 1177 1053 1156 1278
8 1152 1040 1159 1279 1280 1158 1285 1409
8 1281 1157 1038 1153 1410 1284 1158 1280
8 1281 1157 1284 1410 1154 1042 1160 1282
8 1159 1046 1164 1283 1285 1163 1289 1412
8 1292 1167 1289 1412 1165 1048 1164 1283
8 1158 1045 1163 1285 1284 1161 1288 1413
8 1284 1161 1288 1413 1160 1044 1162 1286
8 1291 1166 1292 1418 1174 1051 1165 1290
8 1291 1166 1051 1174 1419 1293 1172 1305
8 1294 1169 1296 1421 1166 1049 1167 1292
8 1293 1168 1050 1172 1422 1295 1171 1303
8 1294 1169 1049 1166 1423 1297 1168 1293
8 1422 1295 1171 1303 1301 1170 1302 1435
8 1172 1050 1173 1306 1303 1171 1304 1438
8 1174 1051 1175 1308 1305 1172 1306 1440
8 1175 1052 1176 1309 1306 1173 1307 1441
8 1177 1053 1178 1311 1308 1175 1309 1443
8 1178 1054 1179 1312 1309 1176 1310 1444
8 1180 1055 1181 1314 1311 1178 1312 1446
8 1056 1181 1312 1179 1182 1315 1447 1313
8 1183 1058 1184 1316 1314 1181 1315 1448
8 1319 1186 1084 1214 1451 1317 1213 1350
8 1319 1186 1318 1453 1208 1081 1187 1321
8 1321 1187 1320 1456 1188 1063 1189 1323
8 1344 1208 1321 1457 1209 1082 1188 1322
8 1322 1188 1323 1458 1190 1064 1191 1325
8 1323 1189 1324 1459 1191 1065 1192 1326
8 1191 1325 1193 1067 1326 1460 1327 1194
8 1242 1374 1243 1119 1328 1462 1335 1204
8 1330 1199 1333 1465 1196 1075 1200 1331
8 1132 1249 1330 1199 1243 1375 1465 1333
8 1332 1201 1077 1198 1466 1334 1200 1331
8 1215 1099 1201 1332 1352 1227 1334 1466
8 1119 1243 1333 1203 1204 1335 1470 1338
8 1333 1203 1338 1470 1200 1080 1202 1334
8 1227 1111 1202 1334 1360 1235 1338 1470
8 1328 1462 1335 1204 1205 1336 1471 1339
8 1337 1206 1340 1472 1464 1329 1205 1336
8 1346 1211 1342 1479 1210 1083 1207 1343
8 1346 1211 1115 1228 1479 1342 1239 1361
8 1348 1212 1084 1214 1479 1342 1207 1343
8 1480 1343 1208 1344 1345 1210 1082 1209
8 1351 1214 1319 1454 1480 1343 1208 1344
8 1481 1346 1210 1345 1359 1228 1100 1225
8 1348 1212 1347 1483 1214 1084 1213 1350
8 1216 1103 1227 1352 1353 1230 1360 1488
8 1217 1104 1230 1353 1354 1231 1363 1489
8 1490 1364 1232 1355 1354 1231 1106 1219
8 1220 1109 1232 1355 1356 1234 1365 1491
8 1221 1110 1234 1356 1357 1233 1366 1492
8 1224 1107 1233 1357 1358 1229 1362 1493
8 1226 1102 1229 1358 1359 1228 1362 1493
8 1230 1112 1235 1360 1363 1236 1367 1496
8 1361 1239 1115 1228 1497 1371 1240 1362
8 1366 1241 1372 1498 1233 1117 1240 1362
8 1364 1237 1113 1231 1499 1368 1236 1363
8 1364 1237 1368 1499 1232 1114 1238 1365
8 1234 1118 1238 1365 1366 1241 1369 1500
8 1507 1373 1242 1374 1388 1266 1138 1255
8 1508 1374 1243 1375 1380 1255 1132 1249
8 1376 1254 1387 1509 1245 1129 1258 1377
8 1275 1149 1276 1405 1376 1254 1387 1509
8 1377 1258 1391 1510 1248 1130 1259 1379
8 1511 1390 1257 1378 1379 1259 1131 1247
8 1383 1260 1134 1251 1511 1390 1257 1378
8 1252 1135 1256 1385 1380 1255 1388 1512
8 1261 1381 1513 1394 1133 1250 1382 1262
8 1135 1252 1384 1263 1261 1381 1513 1394
8 1382 1262 1134 1251 1514 1393 1260 1383
8 1253 1136 1263 1384 1386 1264 1395 1516
8 1253 1136 1264 1386 1385 1256 1389 1517
8 1387 1265 1397 1519 1258 1141 1269 1391
8 1276 1150 1277 1406 1387 1265 1397 1519
8 1256 1139 1267 1389 1388 1266 1398 1520
8 1264 1147 1274 1396 1389 1267 1399 1521
8 1392 1270 1143 1260 1522 1400 1268 1390
8 1390 1268 1142 1259 1522 1400 1269 1391
8 1392 1270 1401 1523 1260 1143 1271 1393
8 1272 1394 1524 1402 1145 1262 1393 1271
8 1395 1273 1146 1263 1524 1402 1272 1394
8 1273 1395 1264 1147 1403 1526 1396 1274
8 1405 1276 1160 1282 1534 1406 1286 1411
8 1414 1287 1407 1535 1286 1162 1277 1406
8 1279 1159 1283 1408 1409 1285 1412 1537
8 1418 1292 1412 1537 1290 1165 1283 1408
8 1280 1158 1285 1409 1410 1284 1413 1538
8 1410 1284 1413 1538 1282 1160 1286 1411
8 1285 1163 1289 1412 1413 1288 1417 1540
8 1421 1296 1417 1540 1292 1167 1289 1412
8 1414 1287 1162 1286 1541 1416 1288 1413
8 1420 1294 1421 1545 1291 1166 1292 1418
8 1419 1293 1172 1305 1546 1422 1303 1437
8 1420 1294 1166 1291 1547 1423 1293 1419
8 1294 1169 1297 1423 1421 1296 1425 1548
8 1423 1297 1168 1293 1549 1424 1295 1422
8 1301 1170 1298 1427 1422 1295 1424 1549
8 1432 1300 1428 1554 1301 1170 1298 1427
8 1431 1299 1428 1554 1560 1430 1300 1432
8 1563 1433 1300 1432 1435 1302 1170 1301
8 1546 1422 1303 1437 1434 1301 1435 1565
8 1303 1171 1304 1438 1435 1302 1436 1566
8 1305 1172 1306 1440 1437 1303 1438 1568
8 1306 1173 1307 1441 1438 1304 1439 1569
8 1308 1175 1309 1443 1440 1306 1441 1571
8 1309 1176 1310 1444 1441 1307 1442 1572
8 1311 1178 1312 1446 1443 1309 1444 1574
8 1179 1312 1444 1310 1313 1447 1575 1445
8 1314 1181 1315 1448 1446 1312 1447 1576
8 1350 1213 1349 1486 1451 1317 1449 1579
8 1451 1317 1450 1581 1319 1186 1318 1453
8 1454 1319 1214 1351 1582 1451 1350 1487
8 1453 1318 1452 1584 1321 1187 1320 1456
8 1454 1319 1453 1585 1344 1208 1321 1457
8 1456 1320 1455 1586 1323 1189 1324 1459
8 1457 1321 1456 1587 1322 1188 1323 1458
8 1458 1323 1459 1588 1325 1191 1326 1460
8 1205 1336 1464 1329 1328 1462 1590 1461
8 1507 1373 1461 1590 1374 1242 1328 1462
8 1508 1374 1462 1591 1375 1243 1335 1467
8 1337 1206 1329 1464 1473 1341 1463 1594
8 1375 1243 1335 1467 1465 1333 1470 1596
8 1465 1333 1470 1596 1331 1200 1334 1466
8 1352 1227 1334 1466 1488 1360 1470 1596
8 1591 1462 1336 1468 1467 1335 1471 1597
8 1469 1337 1472 1598 1595 1464 1336 1468
8 1471 1339 1474 1600 1335 1204 1338 1470
8 1600 1474 1367 1496 1470 1338 1235 1360
8 1336 1205 1340 1472 1471 1339 1475 1601
8 1337 1206 1341 1473 1472 1340 1476 1602
8 1495 1370 1478 1609 1361 1239 1342 1479
8 1348 1212 1342 1479 1483 1347 1478 1609
8 1481 1346 1479 1610 1345 1210 1343 1480
8 1481 1346 1228 1359 1610 1479 1361 1494
8 1484 1348 1214 1351 1610 1479 1343 1480
8 1483 1347 1482 1612 1350 1213 1349 1486
8 1484 1348 1483 1613 1351 1214 1350 1487
8 1353 1230 1360 1488 1489 1363 1496 1616
8 1490 1364 1231 1354 1617 1499 1363 1489
8 1490 1364 1499 1617 1355 1232 1365 1491
8 1356 1234 1365 1491 1492 1366 1500 1619
8 1492 1366 1498 1620 1357 1233 1362 1493
8 1494 1361 1228 1359 1621 1497 1362 1493
8 1495 1370 1239 1361 1622 1504 1371 1497
8 1363 1236 1367 1496 1499 1368 1501 1623
8 1497 1371 1240 1362 1624 1505 1372 1498
8 1625 1503 1372 1498 1500 1369 1241 1366
8 1365 1238 1368 1499 1500 1369 1502 1626
8 1520 1398 1506 1633 1388 1266 1373 1507
8 1634 1507 1374 1508 1512 1388 1255 1380
8 1509 1387 1519 1635 1377 1258 1391 1510
8 1405 1276 1406 1534 1509 1387 1519 1635
8 1515 1392 1260 1383 1636 1522 1390 1511
8 1511 1390 1259 1379 1636 1522 1391 1510
8 1385 1256 1389 1517 1512 1388 1520 1637
8 1513 1394 1262 1382 1638 1524 1393 1514
8 1395 1516 1638 1524 1263 1384 1513 1394
8 1515 1392 1523 1639 1383 1260 1393 1514
8 1516 1395 1526 1640 1386 1264 1396 1518
8 1386 1264 1396 1518 1517 1389 1521 1641
8 1519 1397 1527 1643 1391 1269 1400 1522
8 1535 1407 1527 1643 1406 1277 1397 1519
8 1389 1267 1399 1521 1520 1398 1528 1644
8 1645 1529 1399 1521 1525 1404 1274 1396
8 1392 1270 1400 1522 1523 1401 1531 1646
8 1524 1402 1271 1393 1648 1532 1401 1523
8 1403 1526 1648 1532 1273 1395 1524 1402
8 1525 1404 1274 1396 1649 1533 1403 1526
8 1539 1414 1535 1657 1411 1286 1406 1534
8 1542 1415 1536 1658 1414 1287 1407 1535
8 1409 1285 1412 1537 1538 1413 1540 1660
8 1545 1421 1540 1660 1418 1292 1412 1537
8 1539 1414 1286 1411 1661 1541 1413 1538
8 1540 1417 1544 1663 1413 1288 1416 1541
8 1421 1296 1425 1548 1540 1417 1544 1663
8 1542 1415 1287 1414 1664 1543 1416 1541
8 1420 1294 1423 1547 1545 1421 1548 1666
8 1547 1423 1293 1419 1667 1549 1422 1546
8 1434 1301 1427 1553 1546 1422 1549 1667
8 1423 1297 1424 1549 1548 1425 1550 1668
8 1551 1426 1550 1668 1427 1298 1424 1549
8 1551 1426 1298 1427 1671 1552 1428 1554
8 1562 1432 1554 1674 1434 1301 1427 1553
8 1431 1299 1429 1558 1554 1428 1555 1675
8 1431 1299 1430 1560 1558 1429 1557 1680
8 1560 1430 1300 1432 1683 1559 1433 1563
8 1561 1431 1554 1674 1684 1560 1432 1562
8 1685 1563 1432 1562 1565 1435 1301 1434
8 1435 1302 1436 1566 1563 1433 1564 1686
8 1437 1303 1438 1568 1565 1435 1566 1688
8 1438 1304 1439 1569 1566 1436 1567 1689
8 1440 1306 1441 1571 1568 1438 1569 1691
8 1441 1307 1442 1572 1569 1439 1570 1692
8 1443 1309 1444 1574 1571 1441 1572 1694
8 1310 1444 1572 1442 1445 1575 1695 1573
8 1446 1312 1447 1576 1574 1444 1575 1696
8 1486 1349 1485 1614 1579 1449 1577 1699
8 1451 1317 1449 1579 1581 1450 1578 1701
8 1487 1350 1486 1615 1582 1451 1579 1702
8 1581 1450 1580 1704 1453 1318 1452 1584
8 1582 1451 1581 1705 1454 1319 1453 1585
8 1584 1452 1583 1706 1456 1320 1455 1586
8 1585 1453 1584 1707 1457 1321 1456 1587
8 1587 1456 1586 1708 1458 1323 1459 1588
8 1633 1506 1589 1710 1507 1373 1461 1590
8 1464 1329 1461 1590 1594 1463 1589 1710
8 1468 1336 1462 1591 1595 1464 1590 1711
8 1634 1507 1590 1711 1508 1374 1462 1591
8 1473 1341 1463 1594 1603 1477 1593 1716
8 1469 1337 1464 1595 1599 1473 1594 1717
8 1471 1597 1467 1335 1600 1718 1596 1470
8 1718 1600 1496 1616 1596 1470 1360 1488
8 1336 1468 1597 1471 1472 1598 1719 1601
8 1469 1337 1473 1599 1598 1472 1602 1720
8 1722 1604 1501 1623 1600 1474 1367 1496
8 1475 1601 1471 1339 1604 1722 1600 1474
8 1602 1476 1605 1723 1472 1340 1475 1601
8 1476 1602 1724 1606 1341 1473 1603 1477
8 1483 1347 1478 1609 1612 1482 1608 1731
8 1495 1370 1504 1622 1609 1478 1608 1731
8 1618 1495 1609 1732 1494 1361 1479 1610
8 1484 1348 1479 1610 1613 1483 1609 1732
8 1486 1349 1482 1612 1614 1485 1611 1733
8 1613 1483 1612 1734 1487 1350 1486 1615
8 1489 1363 1496 1616 1617 1499 1623 1736
8 1491 1365 1499 1617 1619 1500 1626 1737
8 1618 1495 1361 1494 1738 1622 1497 1621
8 1739 1625 1498 1620 1619 1500 1366 1492
8 1621 1497 1362 1493 1740 1624 1498 1620
8 1742 1631 1504 1622 1624 1505 1371 1497
8 1743 1628 1502 1626 1623 1501 1368 1499
8 1744 1630 1505 1624 1625 1503 1372 1498
8 1745 1629 1503 1625 1626 1502 1369 1500
8 1520 1398 1528 1644 1633 1506 1632 1751
8 1637 1520 1633 1752 1512 1388 1507 1634
8 1635 1519 1643 1753 1510 1391 1522 1636
8 1657 1535 1643 1753 1534 1406 1519 1635
8 1515 1392 1522 1636 1639 1523 1646 1754
8 1517 1389 1521 1641 1637 1520 1644 1755
8 1524 1638 1756 1648 1393 1514 1639 1523
8 1640 1526 1395 1516 1756 1648 1524 1638
8 1642 1525 1396 1518 1757 1649 1526 1640
8 1758 1645 1521 1641 1642 1525 1396 1518
8 1646 1531 1400 1522 1760 1650 1527 1643
8 1535 1407 1536 1658 1643 1527 1650 1760
8 1521 1399 1529 1645 1644 1528 1651 1761
8 1647 1530 1652 1762 1525 1404 1529 1645
8 1401 1523 1648 1532 1531 1646 1763 1655
8 1525 1404 1533 1649 1647 1530 1654 1765
8 1533 1649 1766 1656 1403 1526 1648 1532
8 1662 1542 1658 1774 1539 1414 1535 1657
8 1542 1415 1543 1664 1658 1536 1659 1775
8 1660 1540 1663 1777 1538 1413 1541 1661
8 1545 1421 1548 1666 1660 1540 1663 1777
8 1662 1542 1414 1539 1778 1664 1541 1661
8 1664 1543 1416 1541 1779 1665 1544 1663
8 1548 1425 1550 1668 1663 1544 1665 1779
8 1547 1423 1549 1667 1666 1548 1668 1781
8 1670 1551 1668 1781 1553 1427 1549 1667
8 1551 1426 1552 1671 1668 1550 1669 1782
8 1670 1551 1427 1553 1784 1671 1554 1674
8 1675 1555 1672 1785 1554 1428 1552 1671
8 1678 1556 1673 1789 1558 1429 1555 1675
8 1561 1431 1558 1681 1674 1554 1675 1790
8 1794 1677 1556 1678 1680 1557 1429 1558
8 1560 1430 1559 1683 1680 1557 1679 1797
8 1561 1431 1560 1684 1681 1558 1680 1798
8 1563 1433 1564 1686 1683 1559 1682 1800
8 1684 1560 1432 1562 1801 1683 1563 1685
8 1565 1435 1566 1688 1685 1563 1686 1802
8 1566 1436 1567 1689 1686 1564 1687 1803
8 1568 1438 1569 1691 1688 1566 1689 1805
8 1569 1439 1570 1692 1689 1567 1690 1806
8 1571 1441 1572 1694 1691 1569 1692 1808
8 1442 1572 1692 1570 1573 1695 1809 1693
8 1574 1444 1575 1696 1694 1572 1695 1810
8 1614 1485 1592 1712 1699 1577 1697 1813
8 1579 1449 1577 1699 1701 1578 1698 1815
8 1615 1486 1614 1735 1702 1579 1699 1816
8 1701 1578 1700 1818 1581 1450 1580 1704
8 1582 1451 1579 1702 1705 1581 1701 1819
8 1704 1580 1703 1820 1584 1452 1583 1706
8 1705 1581 1704 1821 1585 1453 1584 1707
8 1707 1584 1706 1822 1587 1456 1586 1708
8 1710 1589 1506 1633 1824 1709 1632 1751
8 1594 1463 1589 1710 1716 1593 1709 1824
8 1752 1633 1710 1825 1634 1507 1590 1711
8 1595 1464 1590 1711 1717 1594 1710 1825
8 1830 1714 1592 1712 1733 1611 1485 1614
8 1603 1477 1593 1716 1725 1607 1715 1834
8 1599 1473 1594 1717 1721 1603 1716 1835
8 1837 1722 1623 1736 1718 1600 1496 1616
8 1719 1601 1722 1837 1597 1471 1600 1718
8 1602 1720 1598 1472 1723 1838 1719 1601
8 1720 1602 1473 1599 1839 1724 1603 1721
8 1723 1605 1726 1840 1601 1475 1604 1722
8 1840 1726 1628 1743 1722 1604 1501 1623
8 1724 1606 1727 1841 1602 1476 1605 1723
8 1725 1607 1728 1842 1603 1477 1606 1724
8 1612 1482 1608 1731 1733 1611 1730 1849
8 1741 1627 1730 1849 1622 1504 1608 1731
8 1613 1483 1609 1732 1734 1612 1731 1850
8 1618 1495 1622 1738 1732 1609 1731 1850
8 1615 1486 1612 1734 1735 1614 1733 1851
8 1852 1743 1626 1737 1736 1623 1499 1617
8 1853 1745 1625 1739 1737 1626 1500 1619
8 1855 1742 1622 1738 1740 1624 1497 1621
8 1856 1744 1624 1740 1739 1625 1498 1620
8 1741 1627 1504 1622 1857 1746 1631 1742
8 1742 1631 1505 1624 1858 1749 1630 1744
8 1859 1747 1629 1745 1743 1628 1502 1626
8 1860 1748 1630 1744 1745 1629 1503 1625
8 1644 1528 1651 1761 1751 1632 1750 1865
8 1637 1520 1644 1755 1752 1633 1751 1866
8 1754 1646 1522 1636 1867 1760 1643 1753
8 1657 1535 1658 1774 1753 1643 1760 1867
8 1639 1523 1646 1754 1756 1648 1763 1868
8 1641 1521 1645 1758 1755 1644 1761 1869
8 1757 1649 1526 1640 1870 1766 1648 1756
8 1642 1525 1649 1757 1759 1647 1765 1871
8 1759 1647 1762 1872 1642 1525 1645 1758
8 1760 1650 1767 1874 1646 1531 1655 1763
8 1658 1536 1659 1775 1760 1650 1767 1874
8 1762 1652 1768 1875 1645 1529 1651 1761
8 1764 1653 1769 1876 1647 1530 1652 1762
8 1656 1766 1877 1773 1532 1648 1763 1655
8 1771 1879 1765 1654 1653 1764 1647 1530
8 1533 1649 1765 1654 1656 1766 1880 1772
8 1662 1542 1664 1778 1774 1658 1775 1887
8 1664 1543 1665 1779 1775 1659 1776 1888
8 1778 1664 1541 1661 1890 1779 1663 1777
8 1666 1548 1668 1781 1777 1663 1779 1890
8 1782 1669 1780 1891 1668 1550 1665 1779
8 1670 1551 1671 1784 1781 1668 1782 1893
8 1671 1552 1672 1785 1782 1669 1783 1894
8 1790 1675 1785 1896 1674 1554 1671 1784
8 1675 1555 1673 1789 1785 1672 1786 1897
8 1792 1676 1788 1903 1678 1556 1673 1789
8 1795 1678 1789 1904 1681 1558 1675 1790
8 1792 1676 1556 1678 1906 1791 1677 1794
8 1680 1557 1679 1797 1794 1677 1793 1909
8 1910 1794 1678 1795 1798 1680 1558 1681
8 1683 1559 1682 1800 1797 1679 1796 1912
8 1684 1560 1683 1801 1798 1680 1797 1913
8 1686 1564 1687 1803 1800 1682 1799 1915
8 1685 1563 1686 1802 1801 1683 1800 1916
8 1688 1566 1689 1805 1802 1686 1803 1917
8 1689 1567 1690 1806 1803 1687 1804 1918
8 1691 1569 1692 1808 1805 1689 1806 1920
8 1692 1570 1693 1809 1806 1690 1807 1921
8 1694 1572 1695 1810 1808 1692 1809 1922
8 1829 1713 1811 1926 1712 1592 1697 1813
8 1813 1697 1812 1928 1699 1577 1698 1815
8 1735 1614 1712 1828 1816 1699 1813 1929
8 1815 1698 1814 1931 1701 1578 1700 1818
8 1702 1579 1699 1816 1819 1701 1815 1932
8 1818 1700 1817 1933 1704 1580 1703 1820
8 1819 1701 1818 1934 1705 1581 1704 1821
8 1821 1704 1820 1935 1707 1584 1706 1822
8 1824 1709 1632 1751 1937 1823 1750 1865
8 1716 1593 1709 1824 1834 1715 1823 1937
8 1825 1710 1633 1752 1938 1824 1751 1866
8 1717 1594 1710 1825 1835 1716 1824 1938
8 1945 1830 1712 1828 1851 1733 1614 1735
8 1830 1714 1831 1946 1712 1592 1713 1829
8 1947 1832 1714 1830 1849 1730 1611 1733
8 1843 1729 1607 1725 1950 1833 1715 1834
8 1721 1603 1716 1835 1836 1725 1834 1951
8 1836 1725 1842 1953 1721 1603 1724 1839
8 1723 1838 1719 1601 1840 1954 1837 1722
8 1954 1840 1743 1852 1837 1722 1623 1736
8 1724 1839 1720 1602 1841 1955 1838 1723
8 1841 1727 1844 1956 1723 1605 1726 1840
8 1956 1844 1747 1859 1840 1726 1628 1743
8 1728 1842 1724 1606 1845 1957 1841 1727
8 1725 1607 1729 1843 1842 1728 1846 1958
8 1741 1627 1746 1857 1849 1730 1848 1965
8 1734 1612 1731 1850 1851 1733 1849 1966
8 1854 1741 1849 1966 1738 1622 1731 1850
8 1967 1859 1745 1853 1852 1743 1626 1737
8 1968 1860 1744 1856 1853 1745 1625 1739
8 1854 1741 1622 1738 1969 1857 1742 1855
8 1855 1742 1624 1740 1970 1858 1744 1856
8 1857 1746 1631 1742 1971 1861 1749 1858
8 1858 1749 1630 1744 1972 1863 1748 1860
8 1859 1747 1862 1973 1745 1629 1748 1860
8 1875 1768 1864 1977 1761 1651 1750 1865
8 1755 1644 1761 1869 1866 1751 1865 1978
8 1867 1760 1874 1979 1754 1646 1763 1868
8 1774 1658 1775 1887 1867 1760 1874 1979
8 1870 1766 1648 1756 1980 1877 1763 1868
8 1872 1762 1875 1981 1758 1645 1761 1869
8 1757 1649 1766 1870 1871 1765 1880 1982
8 1983 1879 1764 1873 1871 1765 1647 1759
8 1873 1764 1876 1984 1759 1647 1762 1872
8 1877 1773 1655 1763 1986 1881 1767 1874
8 1775 1659 1776 1888 1874 1767 1881 1986
8 1876 1769 1882 1987 1762 1652 1768 1875
8 1878 1770 1883 1988 1764 1653 1769 1876
8 1880 1772 1656 1766 1989 1886 1773 1877
8 1878 1770 1653 1764 1990 1884 1771 1879
8 1765 1654 1772 1880 1879 1771 1885 1991
8 1778 1664 1779 1890 1887 1775 1888 1997
8 1998 1889 1776 1888 1891 1780 1665 1779
8 1893 1782 1891 2000 1781 1668 1779 1890
8 1894 1783 1892 2001 1782 1669 1780 1891
8 1784 1671 1785 1896 1893 1782 1894 2003
8 1897 1786 1895 2004 1785 1672 1783 1894
8 1790 1675 1789 1904 1896 1785 1897 2006
8 1901 1787 1898 2007 1789 1673 1786 1897
8 1903 1788 1900 2013 1789 1673 1787 1901
8 1792 1676 1791 1906 1903 1788 1902 2016
8 1907 1792 1903 2017 1795 1678 1789 1904
8 1906 1791 1677 1794 2019 1905 1793 1909
8 1907 1792 1678 1795 2020 1906 1794 1910
8 1797 1679 1796 1912 1909 1793 1908 2022
8 1798 1680 1797 1913 1910 1794 1909 2023
8 1800 1682 1799 1915 1912 1796 1911 2025
8 1801 1683 1800 1916 1913 1797 1912 2026
8 1803 1687 1804 1918 1915 1799 1914 2028
8 1802 1686 1803 1917 1916 1800 1915 2029
8 1805 1689 1806 1920 1917 1803 1918 2030
8 1806 1690 1807 1921 1918 1804 1919 2031
8 1808 1692 1809 1922 1920 1806 1921 2032
8 1939 1826 1924 2037 1829 1713 1811 1926
8 1926 1811 1925 2039 1813 1697 1812 1928
8 1944 1829 1926 2040 1828 1712 1813 1929
8 1928 1812 1927 2042 1815 1698 1814 1931
8 1929 1813 1928 2043 1816 1699 1815 1932
8 1931 1814 1930 2044 1818 1700 1817 1933
8 1932 1815 1931 2045 1819 1701 1818 1934
8 1934 1818 1933 2046 1821 1704 1820 1935
8 2048 1936 1823 1937 1977 1864 1750 1865
8 1950 1833 1715 1834 2048 1936 1823 1937
8 1938 1824 1751 1866 2049 1937 1865 1978
8 1835 1716 1824 1938 1951 1834 1937 2049
8 1939 1826 1713 1829 2053 1942 1831 1946
8 1940 1827 1923 2035 2053 1942 1826 1939
8 1945 1830 1946 2058 1828 1712 1829 1944
8 2059 1947 1830 1945 1966 1849 1733 1851
8 1947 1832 1730 1849 2060 1948 1848 1965
8 1947 1832 1948 2060 1830 1714 1831 1946
8 1959 1847 1729 1843 2063 1949 1833 1950
8 1952 1843 1725 1836 2064 1950 1834 1951
8 1836 1725 1843 1952 1953 1842 1958 2066
8 1953 1842 1957 2067 1839 1724 1841 1955
8 1841 1955 1838 1723 1956 2068 1954 1840
8 2068 1956 1859 1967 1954 1840 1743 1852
8 1956 1844 1960 2069 1859 1747 1862 1973
8 1845 1957 1841 1727 1960 2069 1956 1844
8 1728 1842 1957 1845 1846 1958 2071 1961
8 1962 2072 1959 1847 1846 1958 1843 1729
8 1971 1861 1964 2077 1857 1746 1848 1965
8 1854 1741 1857 1969 1966 1849 1965 2078
8 1967 1859 1973 2079 1853 1745 1860 1968
8 1970 1858 1744 1856 2080 1972 1860 1968
8 1969 1857 1742 1855 2081 1971 1858 1970
8 1971 1861 1749 1858 2082 1974 1863 1972
8 1973 1862 1975 2083 1860 1748 1863 1972
8 1987 1882 1976 2086 1875 1768 1864 1977
8 1981 1875 1977 2087 1869 1761 1865 1978
8 1980 1877 1763 1868 2088 1986 1874 1979
8 1887 1775 1888 1997 1979 1874 1986 2088
8 1880 1982 2089 1989 1766 1870 1980 1877
8 1984 1876 1987 2090 1872 1762 1875 1981
8 1765 1871 1983 1879 1880 1982 2091 1991
8 1985 1878 1764 1873 2092 1990 1879 1983
8 1985 1878 1988 2093 1873 1764 1876 1984
8 2094 1992 1881 1986 1998 1889 1776 1888
8 1986 1881 1992 2094 1877 1773 1886 1989
8 1988 1883 1993 2095 1876 1769 1882 1987
8 1878 1770 1884 1990 1988 1883 1994 2096
8 1991 1885 1772 1880 2097 1996 1886 1989
8 1879 1771 1885 1991 1990 1884 1995 2098
8 2103 1998 1888 1997 2000 1891 1779 1890
8 2104 1999 1889 1998 2001 1892 1780 1891
8 2003 1894 2001 2106 1893 1782 1891 2000
8 2004 1895 2002 2107 1894 1783 1892 2001
8 2006 1897 2004 2109 1896 1785 1894 2003
8 2007 1898 2005 2110 1897 1786 1895 2004
8 2014 1901 2007 2112 1904 1789 1897 2006
8 2011 1899 2008 2113 1901 1787 1898 2007
8 2119 2010 1899 2011 2013 1900 1787 1901
8 2016 1902 2012 2122 1903 1788 1900 2013
8 2017 1903 2013 2123 1904 1789 1901 2014
8 1906 1791 1905 2019 2016 1902 2015 2125
8 1907 1792 1906 2020 2017 1903 2016 2126
8 1909 1793 1908 2022 2019 1905 2018 2128
8 2020 1906 1794 1910 2129 2019 1909 2023
8 1912 1796 1911 2025 2022 1908 2021 2131
8 1913 1797 1912 2026 2023 1909 2022 2132
8 1915 1799 1914 2028 2025 1911 2024 2134
8 1916 1800 1915 2029 2026 1912 2025 2135
8 1918 1804 1919 2031 2028 1914 2027 2136
8 1917 1803 1918 2030 2029 1915 2028 2137
8 1920 1806 1921 2032 2030 1918 2031 2138
8 1940 1827 1941 2054 2035 1923 2033 2140
8 2035 1923 2034 2143 1939 1826 1924 2037
8 2037 1924 2036 2146 1926 1811 1925 2039
8 2051 1939 2037 2147 1944 1829 1926 2040
8 2039 1925 2038 2149 1928 1812 1927 2042
8 2040 1926 2039 2150 1929 1813 1928 2043
8 2042 1927 2041 2151 1931 1814 1930 2044
8 2043 1928 2042 2152 1932 1815 1931 2045
8 2045 1931 2044 2153 1934 1818 1933 2046
8 2155 2047 1936 2048 2086 1976 1864 1977
8 2063 1949 1833 1950 2155 2047 1936 2048
8 2156 2048 1937 2049 2087 1977 1865 1978
8 2064 1950 1834 1951 2156 2048 1937 2049
8 2051 1939 1829 1944 2160 2053 1946 2058
8 2052 1940 2035 2144 2160 2053 1939 2051
8 2053 1942 1831 1946 2163 2057 1948 2060
8 2055 1943 1827 1940 2163 2057 1942 2053
8 2055 1943 2056 2164 1940 1827 1941 2054
8 2059 1947 1849 1966 2167 2060 1965 2078
8 2059 1947 2060 2167 1945 1830 1946 2058
8 2077 1964 2061 2168 1965 1848 1948 2060
8 2070 1963 1847 1959 2170 2062 1949 2063
8 2065 1959 1843 1952 2171 2063 1950 2064
8 2173 2072 1958 2066 2065 1959 1843 1952
8 1953 1842 1958 2066 2067 1957 2071 2174
8 2068 1956 2069 2175 1967 1859 1973 2079
8 2067 1957 2069 2175 1955 1841 1956 2068
8 1845 1957 2069 1960 1961 2071 2176 2073
8 2069 1960 2073 2176 1973 1862 1975 2083
8 2070 1963 2075 2177 1959 1847 1962 2072
8 1846 1958 2071 1961 1962 2072 2178 2074
8 2077 1964 1861 1971 2182 2076 1974 2082
8 2081 1971 2077 2183 1969 1857 1965 2078
8 2079 1973 2083 2184 1968 1860 1972 2080
8 2081 1971 1858 1970 2185 2082 1972 2080
8 2083 1975 2084 2186 1972 1863 1974 2082
8 2086 1976 1882 1987 2189 2085 1993 2095
8 2090 1987 2086 2190 1981 1875 1977 2087
8 2191 2094 1986 2088 2103 1998 1888 1997
8 2088 1986 2094 2191 1980 1877 1989 2089
8 1991 2091 2192 2097 1880 1982 2089 1989
8 2093 1988 2095 2193 1984 1876 1987 2090
8 1879 1983 2092 1990 1991 2091 2194 2098
8 1985 1878 1990 2092 2093 1988 2096 2195
8 2097 1996 1886 1989 2196 2099 1992 2094
8 2196 2099 1992 2094 2104 1999 1889 1998
8 1994 2096 1988 1883 2100 2197 2095 1993
8 2096 1994 1884 1990 2198 2101 1995 2098
8 1995 2098 2199 2102 1885 1991 2097 1996
8 2203 2104 1998 2103 2106 2001 1891 2000
8 2107 2002 2105 2204 2001 1892 1999 2104
8 2109 2004 2107 2206 2003 1894 2001 2106
8 2110 2005 2108 2207 2004 1895 2002 2107
8 2112 2007 2110 2209 2006 1897 2004 2109
8 2113 2008 2111 2210 2007 1898 2005 2110
8 2120 2011 2113 2212 2014 1901 2007 2112
8 2117 2009 2114 2213 2011 1899 2008 2113
8 2219 2116 2009 2117 2119 2010 1899 2011
8 2222 2118 2010 2119 2122 2012 1900 2013
8 2223 2119 2011 2120 2123 2013 1901 2014
8 2016 1902 2015 2125 2122 2012 2121 2225
8 2126 2016 2122 2226 2017 1903 2013 2123
8 2019 1905 2018 2128 2125 2015 2124 2228
8 2020 1906 2019 2129 2126 2016 2125 2229
8 2022 1908 2021 2131 2128 2018 2127 2231
8 2023 1909 2022 2132 2129 2019 2128 2232
8 2025 1911 2024 2134 2131 2021 2130 2234
8 2026 1912 2025 2135 2132 2022 2131 2235
8 1914 2028 2134 2024 2027 2136 2236 2133
8 2029 1915 2028 2137 2135 2025 2134 2237
8 2030 1918 2031 2138 2137 2028 2136 2238
8 2157 2050 2139 2240 2054 1941 2033 2140
8 2052 1940 2054 2161 2144 2035 2140 2242
8 2140 2033 2141 2243 2035 1923 2034 2143
8 2143 2034 2142 2246 2037 1924 2036 2146
8 2144 2035 2143 2247 2051 1939 2037 2147
8 2146 2036 2145 2249 2039 1925 2038 2149
8 2147 2037 2146 2250 2040 1926 2039 2150
8 2149 2038 2148 2251 2042 1927 2041 2151
8 2150 2039 2149 2252 2043 1928 2042 2152
8 2152 2042 2151 2253 2045 1931 2044 2153
8 2255 2154 2047 2155 2189 2085 1976 2086
8 2170 2062 1949 2063 2255 2154 2047 2155
8 2256 2155 2048 2156 2190 2086 1977 2087
8 2171 2063 1950 2064 2256 2155 2048 2156
8 2258 2159 2050 2157 2164 2056 1941 2054
8 2160 2053 1946 2058 2262 2163 2060 2167
8 2162 2055 1940 2052 2262 2163 2053 2160
8 2162 2055 2164 2263 2052 1940 2054 2161
8 2163 2057 1948 2060 2264 2165 2061 2168
8 2055 1943 2057 2163 2164 2056 2165 2264
8 2182 2076 2166 2268 2077 1964 2061 2168
8 2183 2077 2168 2269 2078 1965 2060 2167
8 2070 1963 2062 2170 2177 2075 2169 2271
8 2172 2070 1959 2065 2272 2170 2063 2171
8 2172 2070 2177 2273 2065 1959 2072 2173
8 2066 1958 2072 2173 2174 2071 2178 2274
8 2067 1957 2071 2174 2175 2069 2176 2275
8 2175 2069 2176 2275 2079 1973 2083 2184
8 2071 1961 2074 2178 2176 2073 2179 2276
8 2176 2073 2179 2276 2083 1975 2084 2186
8 2072 1962 2075 2177 2178 2074 2180 2277
8 2182 2076 1974 2082 2280 2181 2084 2186
8 2183 2077 1971 2081 2281 2182 2082 2185
8 2184 2083 2186 2282 2080 1972 2082 2185
8 2189 2085 1993 2095 2285 2188 2100 2197
8 2190 2086 1987 2090 2286 2189 2095 2193
8 2192 2097 1989 2089 2287 2196 2094 2191
8 2287 2196 2094 2191 2203 2104 1998 2103
8 2194 2098 1991 2091 2288 2199 2097 2192
8 2195 2096 2197 2289 2093 1988 2095 2193
8 2096 2195 2290 2198 1990 2092 2194 2098
8 2097 1996 2099 2196 2199 2102 2200 2291
8 2196 2099 1999 2104 2291 2200 2105 2204
8 2100 2197 2292 2201 1994 2096 2198 2101
8 1995 2098 2198 2101 2102 2199 2293 2202
8 2206 2107 2204 2296 2106 2001 2104 2203
8 2207 2108 2205 2297 2107 2002 2105 2204
8 2209 2110 2207 2299 2109 2004 2107 2206
8 2210 2111 2208 2300 2110 2005 2108 2207
8 2212 2113 2210 2302 2112 2007 2110 2209
8 2213 2114 2211 2303 2113 2008 2111 2210
8 2220 2117 2213 2305 2120 2011 2113 2212
8 2216 2115 2214 2306 2117 2009 2114 2213
8 2216 2115 2009 2117 2311 2217 2116 2219
8 2219 2116 2010 2119 2314 2218 2118 2222
8 2315 2219 2117 2220 2223 2119 2011 2120
8 2122 2012 2121 2225 2222 2118 2221 2317
8 2318 2222 2119 2223 2226 2122 2013 2123
8 2125 2015 2124 2228 2225 2121 2224 2320
8 2126 2016 2125 2229 2226 2122 2225 2321
8 2128 2018 2127 2231 2228 2124 2227 2323
8 2129 2019 2128 2232 2229 2125 2228 2324
8 2131 2021 2130 2234 2231 2127 2230 2326
8 2132 2022 2131 2235 2232 2128 2231 2327
8 2134 2024 2133 2236 2234 2130 2233 2328
8 2135 2025 2134 2237 2235 2131 2234 2329
8 2137 2028 2136 2238 2237 2134 2236 2330
8 2157 2050 2158 2259 2240 2139 2239 2332
8 2257 2157 2240 2334 2161 2054 2140 2242
8 2240 2139 2241 2335 2140 2033 2141 2243
8 2242 2140 2243 2337 2144 2035 2143 2247
8 2243 2141 2244 2338 2143 2034 2142 2246
8 2246 2142 2245 2341 2146 2036 2145 2249
8 2247 2143 2246 2342 2147 2037 2146 2250
8 2249 2145 2248 2343 2149 2038 2148 2251
8 2250 2146 2249 2344 2150 2039 2149 2252
8 2252 2149 2251 2345 2152 2042 2151 2253
8 2169 2271 2347 2254 2062 2170 2255 2154
8 2189 2085 2188 2285 2255 2154 2254 2347
8 2348 2255 2155 2256 2286 2189 2086 2190
8 2272 2170 2063 2171 2348 2255 2155 2256
8 2349 2258 2157 2257 2263 2164 2054 2161
8 2258 2159 2261 2351 2157 2050 2158 2259
8 2258 2159 2056 2164 2351 2261 2165 2264
8 2262 2163 2060 2167 2355 2264 2168 2269
8 2162 2055 2163 2262 2263 2164 2264 2355
8 2357 2266 2165 2264 2268 2166 2061 2168
8 2268 2166 2076 2182 2361 2267 2181 2280
8 2281 2182 2268 2362 2183 2077 2168 2269
8 2271 2169 2270 2364 2177 2075 2180 2277
8 2172 2070 2170 2272 2273 2177 2271 2365
8 2072 2173 2274 2178 2177 2273 2366 2277
8 2071 2174 2275 2176 2178 2274 2367 2276
8 2275 2176 2276 2367 2184 2083 2186 2282
8 2283 2187 2084 2186 2368 2278 2179 2276
8 2178 2074 2180 2277 2276 2179 2278 2368
8 2283 2187 2279 2370 2186 2084 2181 2280
8 2281 2182 2082 2185 2371 2280 2186 2282
8 2188 2285 2374 2284 2100 2197 2292 2201
8 2286 2189 2095 2193 2375 2285 2197 2289
8 2192 2097 2196 2287 2288 2199 2291 2376
8 2287 2196 2104 2203 2376 2291 2204 2296
8 2194 2098 2199 2288 2290 2198 2293 2377
8 2289 2197 2096 2195 2378 2292 2198 2290
8 2291 2200 2105 2204 2379 2294 2205 2297
8 2199 2102 2200 2291 2293 2202 2294 2379
8 2198 2101 2202 2293 2292 2201 2295 2380
8 2299 2207 2297 2383 2206 2107 2204 2296
8 2300 2208 2298 2384 2207 2108 2205 2297
8 2302 2210 2300 2386 2209 2110 2207 2299
8 2303 2211 2301 2387 2210 2111 2208 2300
8 2305 2213 2303 2389 2212 2113 2210 2302
8 2306 2214 2304 2390 2213 2114 2211 2303
8 2310 2216 2306 2392 2220 2117 2213 2305
8 2308 2215 2307 2393 2216 2115 2214 2306
8 2308 2215 2115 2216 2396 2309 2217 2311
8 2310 2216 2117 2220 2398 2311 2219 2315
8 2311 2217 2116 2219 2399 2312 2218 2314
8 2314 2218 2118 2222 2402 2313 2221 2317
8 2315 2219 2119 2223 2403 2314 2222 2318
8 2225 2121 2224 2320 2317 2221 2316 2405
8 2226 2122 2225 2321 2318 2222 2317 2406
8 2228 2124 2227 2323 2320 2224 2319 2408
8 2229 2125 2228 2324 2321 2225 2320 2409
8 2231 2127 2230 2326 2323 2227 2322 2411
8 2232 2128 2231 2327 2324 2228 2323 2412
8 2234 2130 2233 2328 2326 2230 2325 2413
8 2235 2131 2234 2329 2327 2231 2326 2414
8 2237 2134 2236 2330 2329 2234 2328 2415
8 2259 2158 2260 2352 2332 2239 2331 2417
8 2257 2157 2259 2350 2334 2240 2332 2419
8 2240 2139 2239 2332 2335 2241 2333 2420
8 2334 2240 2335 2422 2242 2140 2243 2337
8 2335 2241 2336 2423 2243 2141 2244 2338
8 2337 2243 2338 2425 2247 2143 2246 2342
8 2338 2244 2339 2426 2246 2142 2245 2341
8 2341 2245 2340 2428 2249 2145 2248 2343
8 2342 2246 2341 2429 2250 2146 2249 2344
8 2344 2249 2343 2430 2252 2149 2251 2345
8 2188 2285 2347 2254 2284 2374 2432 2346
8 2347 2254 2346 2432 2271 2169 2270 2364
8 2365 2271 2170 2272 2433 2347 2255 2348
8 2286 2189 2285 2375 2348 2255 2347 2433
8 2349 2258 2351 2435 2257 2157 2259 2350
8 2349 2258 2164 2263 2435 2351 2264 2355
8 2259 2158 2261 2351 2352 2260 2354 2437
8 2356 2265 2354 2437 2264 2165 2261 2351
8 2441 2357 2264 2355 2362 2268 2168 2269
8 2356 2265 2165 2264 2442 2358 2266 2357
8 2443 2359 2266 2357 2361 2267 2166 2268
8 2370 2279 2360 2446 2280 2181 2267 2361
8 2362 2268 2182 2281 2447 2361 2280 2371
8 2180 2277 2368 2278 2270 2364 2449 2363
8 2271 2365 2273 2177 2364 2450 2366 2277
8 2372 2283 2186 2282 2451 2368 2276 2367
8 2178 2274 2367 2276 2277 2366 2451 2368
8 2283 2187 2278 2368 2370 2279 2369 2452
8 2372 2283 2370 2453 2282 2186 2280 2371
8 2284 2374 2455 2373 2201 2292 2380 2295
8 2375 2285 2197 2289 2456 2374 2292 2378
8 2376 2291 2204 2296 2457 2379 2297 2383
8 2288 2199 2291 2376 2377 2293 2379 2457
8 2198 2290 2378 2292 2293 2377 2458 2380
8 2293 2202 2294 2379 2380 2295 2381 2459
8 2384 2298 2381 2459 2297 2205 2294 2379
8 2386 2300 2384 2463 2299 2207 2297 2383
8 2387 2301 2385 2464 2300 2208 2298 2384
8 2389 2303 2387 2466 2302 2210 2300 2386
8 2390 2304 2388 2467 2303 2211 2301 2387
8 2392 2306 2390 2469 2305 2213 2303 2389
8 2393 2307 2391 2470 2306 2214 2304 2390
8 2395 2308 2393 2472 2310 2216 2306 2392
8 2308 2215 2309 2396 2393 2307 2394 2473
8 2395 2308 2216 2310 2475 2396 2311 2398
8 2396 2309 2217 2311 2476 2397 2312 2399
8 2398 2311 2219 2315 2478 2399 2314 2403
8 2399 2312 2218 2314 2479 2400 2313 2402
8 2317 2221 2316 2405 2402 2313 2401 2482
8 2403 2314 2222 2318 2483 2402 2317 2406
8 2320 2224 2319 2408 2405 2316 2404 2485
8 2321 2225 2320 2409 2406 2317 2405 2486
8 2323 2227 2322 2411 2408 2319 2407 2488
8 2324 2228 2323 2412 2409 2320 2408 2489
8 2326 2230 2325 2413 2411 2322 2410 2490
8 2327 2231 2326 2414 2412 2323 2411 2491
8 2329 2234 2328 2415 2414 2326 2413 2492
8 2417 2331 2260 2352 2494 2416 2353 2438
8 2350 2259 2352 2436 2419 2332 2417 2496
8 2332 2239 2331 2417 2420 2333 2418 2497
8 2334 2240 2332 2419 2422 2335 2420 2499
8 2420 2333 2421 2500 2335 2241 2336 2423
8 2422 2335 2423 2502 2337 2243 2338 2425
8 2423 2336 2424 2503 2338 2244 2339 2426
8 2425 2338 2426 2505 2342 2246 2341 2429
8 2426 2339 2427 2506 2341 2245 2340 2428
8 2429 2341 2428 2507 2344 2249 2343 2430
8 2432 2346 2284 2374 2509 2431 2373 2455
8 2432 2346 2431 2509 2364 2270 2363 2449
8 2375 2285 2374 2456 2433 2347 2432 2510
8 2347 2433 2365 2271 2432 2510 2450 2364
8 2350 2259 2351 2435 2436 2352 2437 2514
8 2440 2356 2437 2514 2355 2264 2351 2435
8 2352 2260 2354 2437 2438 2353 2439 2516
8 2356 2265 2358 2442 2437 2354 2439 2516
8 2440 2356 2264 2355 2518 2442 2357 2441
8 2519 2443 2357 2441 2447 2361 2268 2362
8 2443 2359 2444 2520 2357 2266 2358 2442
8 2443 2359 2267 2361 2520 2444 2360 2446
8 2446 2360 2279 2370 2523 2445 2369 2452
8 2453 2370 2446 2524 2371 2280 2361 2447
8 2449 2363 2448 2525 2368 2278 2369 2452
8 2366 2277 2364 2450 2451 2368 2449 2526
8 2372 2283 2368 2451 2453 2370 2452 2527
8 2455 2373 2295 2380 2529 2454 2382 2460
8 2456 2374 2292 2378 2530 2455 2380 2458
8 2377 2293 2379 2457 2458 2380 2459 2531
8 2463 2384 2459 2531 2383 2297 2379 2457
8 2533 2461 2382 2460 2459 2381 2295 2380
8 2464 2385 2461 2533 2384 2298 2381 2459
8 2466 2387 2464 2537 2386 2300 2384 2463
8 2467 2388 2465 2538 2387 2301 2385 2464
8 2469 2390 2467 2540 2389 2303 2387 2466
8 2470 2391 2468 2541 2390 2304 2388 2467
8 2472 2393 2470 2543 2392 2306 2390 2469
8 2393 2307 2394 2473 2470 2391 2471 2544
8 2395 2308 2396 2475 2472 2393 2473 2546
8 2396 2309 2397 2476 2473 2394 2474 2547
8 2475 2396 2311 2398 2549 2476 2399 2478
8 2476 2397 2312 2399 2550 2477 2400 2479
8 2478 2399 2314 2403 2552 2479 2402 2483
8 2479 2400 2313 2402 2553 2480 2401 2482
8 2405 2316 2404 2485 2482 2401 2481 2556
8 2406 2317 2405 2486 2483 2402 2482 2557
8 2408 2319 2407 2488 2485 2404 2484 2559
8 2409 2320 2408 2489 2486 2405 2485 2560
8 2411 2322 2410 2490 2488 2407 2487 2561
8 2412 2323 2411 2491 2489 2408 2488 2562
8 2414 2326 2413 2492 2491 2411 2490 2563
8 2513 2434 2493 2565 2438 2353 2416 2494
8 2496 2417 2352 2436 2567 2494 2438 2515
8 2494 2416 2495 2568 2417 2331 2418 2497
8 2419 2332 2417 2496 2499 2420 2497 2570
8 2497 2418 2498 2571 2420 2333 2421 2500
8 2499 2420 2500 2573 2422 2335 2423 2502
8 2500 2421 2501 2574 2423 2336 2424 2503
8 2502 2423 2503 2576 2425 2338 2426 2505
8 2503 2424 2504 2577 2426 2339 2427 2506
8 2505 2426 2506 2578 2429 2341 2428 2507
8 2509 2431 2373 2455 2580 2508 2454 2529
8 2509 2431 2508 2580 2449 2363 2448 2525
8 2432 2510 2581 2509 2374 2456 2530 2455
8 2432 2510 2450 2364 2509 2581 2526 2449
8 2583 2511 2434 2513 2516 2439 2353 2438
8 2436 2352 2437 2514 2515 2438 2516 2588
8 2440 2356 2442 2518 2514 2437 2516 2588
8 2442 2358 2444 2520 2516 2439 2517 2589
8 2519 2443 2520 2591 2441 2357 2442 2518
8 2519 2443 2361 2447 2591 2520 2446 2524
8 2446 2360 2445 2523 2520 2444 2521 2592
8 2525 2448 2522 2593 2452 2369 2445 2523
8 2524 2446 2370 2453 2594 2523 2452 2527
8 2526 2449 2525 2595 2451 2368 2452 2527
8 2534 2462 2528 2597 2460 2382 2454 2529
8 2530 2455 2380 2458 2598 2529 2460 2532
8 2599 2533 2460 2532 2531 2459 2380 2458
8 2537 2464 2533 2599 2463 2384 2459 2531
8 2534 2462 2382 2460 2601 2535 2461 2533
8 2538 2465 2535 2601 2464 2385 2461 2533
8 2540 2467 2538 2604 2466 2387 2464 2537
8 2541 2468 2539 2605 2467 2388 2465 2538
8 2543 2470 2541 2607 2469 2390 2467 2540
8 2470 2391 2471 2544 2541 2468 2542 2608
8 2472 2393 2473 2546 2543 2470 2544 2610
8 2473 2394 2474 2547 2544 2471 2545 2611
8 2475 2396 2476 2549 2546 2473 2547 2613
8 2476 2397 2477 2550 2547 2474 2548 2614
8 2549 2476 2399 2478 2616 2550 2479 2552
8 2479 2400 2480 2553 2550 2477 2551 2617
8 2552 2479 2402 2483 2619 2553 2482 2557
8 2482 2401 2481 2556 2553 2480 2554 2620
8 2485 2404 2484 2559 2556 2481 2555 2623
8 2486 2405 2485 2560 2557 2482 2556 2624
8 2488 2407 2487 2561 2559 2484 2558 2625
8 2489 2408 2488 2562 2560 2485 2559 2626
8 2491 2411 2490 2563 2562 2488 2561 2627
8 2513 2434 2512 2585 2565 2493 2564 2630
8 2586 2513 2565 2632 2515 2438 2494 2567
8 2565 2493 2566 2633 2494 2416 2495 2568
8 2567 2494 2568 2635 2496 2417 2497 2570
8 2568 2495 2569 2636 2497 2418 2498 2571
8 2570 2497 2571 2638 2499 2420 2500 2573
8 2571 2498 2572 2639 2500 2421 2501 2574
8 2573 2500 2574 2641 2502 2423 2503 2576
8 2574 2501 2575 2642 2503 2424 2504 2577
8 2576 2503 2577 2643 2505 2426 2506 2578
8 2597 2528 2579 2645 2529 2454 2508 2580
8 2580 2508 2579 2645 2525 2448 2522 2593
8 2581 2509 2455 2530 2646 2580 2529 2598
8 2581 2509 2580 2646 2526 2449 2525 2595
8 2583 2511 2582 2648 2513 2434 2512 2585
8 2583 2511 2439 2516 2648 2582 2517 2589
8 2649 2583 2513 2586 2588 2516 2438 2515
8 2589 2517 2444 2520 2653 2587 2521 2592
8 2518 2442 2520 2591 2588 2516 2589 2654
8 2593 2522 2590 2655 2523 2445 2521 2592
8 2524 2446 2523 2594 2591 2520 2592 2656
8 2595 2525 2593 2657 2527 2452 2523 2594
8 2602 2536 2596 2659 2534 2462 2528 2597
8 2600 2534 2597 2660 2532 2460 2529 2598
8 2600 2534 2460 2532 2661 2601 2533 2599
8 2604 2538 2601 2661 2537 2464 2533 2599
8 2602 2536 2462 2534 2663 2603 2535 2601
8 2601 2535 2465 2538 2663 2603 2539 2605
8 2607 2541 2605 2665 2540 2467 2538 2604
8 2608 2542 2606 2666 2541 2468 2539 2605
8 2543 2470 2544 2610 2607 2541 2608 2668
8 2544 2471 2545 2611 2608 2542 2609 2669
8 2546 2473 2547 2613 2610 2544 2611 2671
8 2547 2474 2548 2614 2611 2545 2612 2672
8 2549 2476 2550 2616 2613 2547 2614 2674
8 2550 2477 2551 2617 2614 2548 2615 2675
8 2552 2479 2553 2619 2616 2550 2617 2677
8 2553 2480 2554 2620 2617 2551 2618 2678
8 2557 2482 2556 2624 2619 2553 2620 2680
8 2556 2481 2555 2623 2620 2554 2621 2681
8 2559 2484 2558 2625 2623 2555 2622 2683
8 2560 2485 2559 2626 2624 2556 2623 2684
8 2562 2488 2561 2627 2626 2559 2625 2685
8 2690 2629 2564 2630 2650 2584 2512 2585
8 2586 2513 2585 2651 2632 2565 2630 2691
8 2630 2564 2631 2692 2565 2493 2566 2633
8 2632 2565 2633 2694 2567 2494 2568 2635
8 2633 2566 2634 2695 2568 2495 2569 2636
8 2635 2568 2636 2697 2570 2497 2571 2638
8 2636 2569 2637 2698 2571 2498 2572 2639
8 2638 2571 2639 2700 2573 2500 2574 2641
8 2639 2572 2640 2701 2574 2501 2575 2642
8 2641 2574 2642 2702 2576 2503 2577 2643
8 2597 2528 2596 2659 2645 2579 2644 2704
8 2645 2579 2644 2704 2593 2522 2590 2655
8 2660 2597 2645 2705 2598 2529 2580 2646
8 2646 2580 2645 2705 2595 2525 2593 2657
8 2650 2584 2512 2585 2707 2647 2582 2648
8 2648 2582 2517 2589 2707 2647 2587 2653
8 2649 2583 2648 2708 2586 2513 2585 2651
8 2649 2583 2516 2588 2708 2648 2589 2654
8 2655 2590 2652 2710 2592 2521 2587 2653
8 2654 2589 2520 2591 2711 2653 2592 2656
8 2657 2593 2655 2712 2594 2523 2592 2656
8 2602 2536 2603 2663 2659 2596 2658 2714
8 2662 2602 2659 2715 2600 2534 2597 2660
8 2662 2602 2534 2600 2717 2663 2601 2661
8 2661 2601 2538 2604 2717 2663 2605 2665
8 2666 2606 2664 2718 2605 2539 2603 2663
8 2668 2608 2666 2720 2607 2541 2605 2665
8 2608 2542 2609 2669 2666 2606 2667 2721
8 2610 2544 2611 2671 2668 2608 2669 2723
8 2611 2545 2612 2672 2669 2609 2670 2724
8 2613 2547 2614 2674 2671 2611 2672 2726
8 2614 2548 2615 2675 2672 2612 2673 2727
8 2616 2550 2617 2677 2674 2614 2675 2729
8 2617 2551 2618 2678 2675 2615 2676 2730
8 2619 2553 2620 2680 2677 2617 2678 2732
8 2620 2554 2621 2681 2678 2618 2679 2733
8 2624 2556 2623 2684 2680 2620 2681 2735
8 2681 2621 2555 2623 2736 2682 2622 2683
8 2626 2559 2625 2685 2684 2623 2683 2737
8 2688 2628 2584 2650 2740 2686 2647 2707
8 2688 2628 2687 2742 2650 2584 2629 2690
8 2690 2629 2689 2745 2630 2564 2631 2692
8 2746 2690 2630 2691 2709 2650 2585 2651
8 2691 2630 2692 2747 2632 2565 2633 2694
8 2692 2631 2693 2748 2633 2566 2634 2695
8 2694 2633 2695 2750 2635 2568 2636 2697
8 2695 2634 2696 2751 2636 2569 2637 2698
8 2697 2636 2698 2753 2638 2571 2639 2700
8 2698 2637 2699 2754 2639 2572 2640 2701
8 2700 2639 2701 2755 2641 2574 2642 2702
8 2659 2596 2658 2714 2704 2644 2703 2757
8 2704 2644 2703 2757 2655 2590 2652 2710
8 2660 2597 2659 2715 2705 2645 2704 2758
8 2705 2645 2704 2758 2657 2593 2655 2712
8 2759 2706 2647 2707 2710 2652 2587 2653
8 2709 2650 2585 2651 2760 2707 2648 2708
8 2708 2648 2589 2654 2760 2707 2653 2711
8 2712 2655 2710 2761 2656 2592 2653 2711
8 2763 2713 2658 2714 2718 2664 2603 2663
8 2662 2602 2663 2717 2715 2659 2714 2764
8 2720 2666 2718 2767 2665 2605 2663 2717
8 2768 2719 2664 2718 2721 2667 2606 2666
8 2668 2608 2669 2723 2720 2666 2721 2770
8 2669 2609 2670 2724 2721 2667 2722 2771
8 2671 2611 2672 2726 2723 2669 2724 2773
8 2672 2612 2673 2727 2724 2670 2725 2774
8 2674 2614 2675 2729 2726 2672 2727 2776
8 2675 2615 2676 2730 2727 2673 2728 2777
8 2677 2617 2678 2732 2729 2675 2730 2779
8 2678 2618 2679 2733 2730 2676 2731 2780
8 2680 2620 2681 2735 2732 2678 2733 2782
8 2733 2679 2621 2681 2783 2734 2682 2736
8 2735 2681 2623 2684 2784 2736 2683 2737
8 2740 2686 2647 2707 2787 2738 2706 2759
8 2688 2628 2686 2740 2742 2687 2739 2789
8 2743 2688 2650 2709 2790 2740 2707 2760
8 2742 2687 2741 2792 2690 2629 2689 2745
8 2743 2688 2742 2793 2709 2650 2690 2746
8 2745 2689 2744 2795 2692 2631 2693 2748
8 2746 2690 2745 2796 2691 2630 2692 2747
8 2747 2692 2748 2797 2694 2633 2695 2750
8 2748 2693 2749 2798 2695 2634 2696 2751
8 2750 2695 2751 2800 2697 2636 2698 2753
8 2751 2696 2752 2801 2698 2637 2699 2754
8 2753 2698 2754 2802 2700 2639 2701 2755
8 2763 2713 2756 2804 2714 2658 2703 2757
8 2759 2706 2652 2710 2804 2756 2703 2757
8 2715 2659 2714 2764 2758 2704 2757 2805
8 2758 2704 2757 2805 2712 2655 2710 2761
8 2806 2759 2707 2760 2761 2710 2653 2711
8 2765 2716 2762 2808 2718 2664 2713 2763
8 2809 2763 2714 2764 2767 2718 2663 2717
8 2765 2716 2664 2718 2811 2766 2719 2768
8 2813 2768 2718 2767 2770 2721 2666 2720
8 2814 2769 2719 2768 2771 2722 2667 2721
8 2723 2669 2724 2773 2770 2721 2771 2816
8 2724 2670 2725 2774 2771 2722 2772 2817
8 2726 2672 2727 2776 2773 2724 2774 2819
8 2727 2673 2728 2777 2774 2725 2775 2820
8 2729 2675 2730 2779 2776 2727 2777 2822
8 2730 2676 2731 2780 2777 2728 2778 2823
8 2732 2678 2733 2782 2779 2730 2780 2825
8 2780 2731 2679 2733 2826 2781 2734 2783
8 2782 2733 2681 2735 2827 2783 2736 2784
8 2830 2785 2738 2787 2804 2756 2706 2759
8 2789 2739 2686 2740 2832 2786 2738 2787
8 2790 2740 2707 2760 2833 2787 2759 2806
8 2742 2687 2739 2789 2792 2741 2788 2835
8 2743 2688 2740 2790 2793 2742 2789 2836
8 2792 2741 2791 2838 2745 2689 2744 2795
8 2793 2742 2792 2839 2746 2690 2745 2796
8 2795 2744 2794 2841 2748 2693 2749 2798
8 2796 2745 2795 2842 2747 2692 2748 2797
8 2797 2748 2798 2843 2750 2695 2751 2800
8 2798 2749 2799 2844 2751 2696 2752 2801
8 2800 2751 2801 2845 2753 2698 2754 2802
8 2808 2762 2803 2847 2763 2713 2756 2804
8 2809 2763 2804 2848 2764 2714 2757 2805
8 2806 2759 2710 2761 2848 2804 2757 2805
8 2765 2716 2766 2811 2808 2762 2807 2850
8 2810 2765 2808 2851 2767 2718 2763 2809
8 2810 2765 2718 2767 2852 2811 2768 2813
8 2811 2766 2719 2768 2853 2812 2769 2814
8 2855 2814 2768 2813 2816 2771 2721 2770
8 2856 2815 2769 2814 2817 2772 2722 2771
8 2773 2724 2774 2819 2816 2771 2817 2858
8 2774 2725 2775 2820 2817 2772 2818 2859
8 2776 2727 2777 2822 2819 2774 2820 2861
8 2777 2728 2778 2823 2820 2775 2821 2862
8 2779 2730 2780 2825 2822 2777 2823 2864
8 2823 2778 2731 2780 2865 2824 2781 2826
8 2825 2780 2733 2782 2866 2826 2783 2827
8 2869 2828 2785 2830 2847 2803 2756 2804
8 2871 2829 2786 2832 2830 2785 2738 2787
8 2872 2830 2787 2833 2848 2804 2759 2806
8 2789 2739 2786 2832 2835 2788 2831 2874
8 2836 2789 2740 2790 2875 2832 2787 2833
8 2792 2741 2788 2835 2838 2791 2834 2877
8 2793 2742 2789 2836 2839 2792 2835 2878
8 2838 2791 2837 2880 2795 2744 2794 2841
8 2839 2792 2838 2881 2796 2745 2795 2842
8 2841 2794 2840 2882 2798 2749 2799 2844
8 2842 2795 2841 2883 2797 2748 2798 2843
8 2843 2798 2844 2884 2800 2751 2801 2845
8 2886 2846 2803 2847 2850 2807 2762 2808
8 2851 2808 2847 2887 2809 2763 2804 2848
8 2850 2807 2766 2811 2889 2849 2812 2853
8 2810 2765 2811 2852 2851 2808 2850 2890
8 2852 2811 2768 2813 2891 2853 2814 2855
8 2853 2812 2769 2814 2892 2854 2815 2856
8 2894 2856 2814 2855 2858 2817 2771 2816
8 2817 2772 2818 2859 2856 2815 2857 2895
8 2819 2774 2820 2861 2858 2817 2859 2897
8 2820 2775 2821 2862 2859 2818 2860 2898
8 2822 2777 2823 2864 2861 2820 2862 2900
8 2823 2778 2824 2865 2862 2821 2863 2901
8 2864 2823 2780 2825 2902 2865 2826 2866
8 2904 2867 2828 2869 2886 2846 2803 2847
8 2869 2828 2868 2906 2830 2785 2829 2871
8 2907 2869 2830 2872 2887 2847 2804 2848
8 2871 2829 2870 2909 2832 2786 2831 2874
8 2910 2871 2832 2875 2872 2830 2787 2833
8 2835 2788 2831 2874 2877 2834 2873 2912
8 2836 2789 2832 2875 2878 2835 2874 2913
8 2877 2834 2876 2915 2838 2791 2837 2880
8 2839 2792 2835 2878 2881 2838 2877 2916
8 2880 2837 2879 2917 2841 2794 2840 2882
8 2881 2838 2880 2918 2842 2795 2841 2883
8 2883 2841 2882 2919 2843 2798 2844 2884
8 2921 2885 2846 2886 2889 2849 2807 2850
8 2922 2886 2847 2887 2890 2850 2808 2851
8 2889 2849 2812 2853 2924 2888 2854 2892
8 2890 2850 2811 2852 2925 2889 2853 2891
8 2891 2853 2814 2855 2926 2892 2856 2894
8 2892 2854 2815 2856 2927 2893 2857 2895
8 2858 2817 2859 2897 2894 2856 2895 2929
8 2859 2818 2860 2898 2895 2857 2896 2930
8 2861 2820 2862 2900 2897 2859 2898 2932
8 2862 2821 2863 2901 2898 2860 2899 2933
8 2864 2823 2865 2902 2900 2862 2901 2934
8 2904 2867 2846 2886 2936 2903 2885 2921
8 2904 2867 2903 2936 2869 2828 2868 2906
8 2937 2904 2869 2907 2922 2886 2847 2887
8 2906 2868 2905 2939 2871 2829 2870 2909
8 2907 2869 2906 2940 2872 2830 2871 2910
8 2909 2870 2908 2942 2874 2831 2873 2912
8 2910 2871 2909 2943 2875 2832 2874 2913
8 2912 2873 2911 2945 2877 2834 2876 2915
8 2878 2835 2874 2913 2916 2877 2912 2946
8 2915 2876 2914 2947 2880 2837 2879 2917
8 2916 2877 2915 2948 2881 2838 2880 2918
8 2918 2880 2917 2949 2883 2841 2882 2919
8 2921 2885 2849 2889 2951 2920 2888 2924
8 2952 2921 2886 2922 2925 2889 2850 2890
8 2924 2888 2854 2892 2954 2923 2893 2927
8 2925 2889 2853 2891 2955 2924 2892 2926
8 2926 2892 2856 2894 2956 2927 2895 2929
8 2895 2857 2896 2930 2927 2893 2928 2957
8 2897 2859 2898 2932 2929 2895 2930 2959
8 2898 2860 2899 2933 2930 2896 2931 2960
8 2900 2862 2901 2934 2932 2898 2933 2961
8 2936 2903 2885 2921 2963 2935 2920 2951
8 2936 2903 2935 2963 2906 2868 2905 2939
8 2937 2904 2886 2922 2964 2936 2921 2952
8 2937 2904 2936 2964 2907 2869 2906 2940
8 2939 2905 2938 2966 2909 2870 2908 2942
8 2940 2906 2939 2967 2910 2871 2909 2943
8 2942 2908 2941 2969 2912 2873 2911 2945
8 2943 2909 2942 2970 2913 2874 2912 2946
8 2945 2911 2944 2971 2915 2876 2914 2947
8 2946 2912 2945 2972 2916 2877 2915 2948
8 2948 2915 2947 2973 2918 2880 2917 2949
8 2951 2920 2888 2924 2975 2950 2923 2954
8 2952 2921 2889 2925 2976 2951 2924 2955
8 2927 2893 2928 2957 2954 2923 2953 2978
8 2955 2924 2892 2926 2979 2954 2927 2956
8 2929 2895 2930 2959 2956 2927 2957 2980
8 2930 2896 2931 2960 2957 2928 2958 2981
8 2932 2898 2933 2961 2959 2930 2960 2982
8 2951 2920 2950 2975 2963 2935 2962 2984
8 2963 2935 2962 2984 2939 2905 2938 2966
8 2964 2936 2921 2952 2985 2963 2951 2976
8 2964 2936 2963 2985 2940 2906 2939 2967
8 2966 2938 2965 2987 2942 2908 2941 2969
8 2967 2939 2966 2988 2943 2909 2942 2970
8 2969 2941 2968 2989 2945 2911 2944 2971
8 2970 2942 2969 2990 2946 2912 2945 2972
8 2972 2945 2971 2991 2948 2915 2947 2973
8 2954 2923 2953 2978 2975 2950 2974 2993
8 2976 2951 2924 2955 2994 2975 2954 2979
8 2957 2928 2958 2981 2978 2953 2977 2995
8 2956 2927 2957 2980 2979 2954 2978 2996
8 2959 2930 2960 2982 2980 2957 2981 2997
8 2984 2962 2983 2999 2966 2938 2965 2987
8 2975 2950 2974 2993 2984 2962 2983 2999
8 2976 2951 2975 2994 2985 2963 2984 3000
8 2985 2963 2984 3000 2967 2939 2966 2988
8 2987 2965 2986 3001 2969 2941 2968 2989
8 2988 2966 2987 3002 2970 2942 2969 2990
8 2990 2969 2989 3003 2972 2945 2971 2991
8 2978 2953 2977 2995 2993 2974 2992 3004
8 2979 2954 2978 2996 2994 2975 2993 3005
8 2980 2957 2981 2997 2996 2978 2995 3006
8 2974 2993 2999 2983 2992 3004 3007 2998
8 2983 2999 2987 2965 2998 3007 3001 2986
8 3000 2984 2999 3008 2988 2966 2987 3002
8 2994 2975 2993 3005 3000 2984 2999 3008
8 3002 2987 3001 3009 2990 2969 2989 3003
8 2996 2978 2995 3006 3005 2993 3004 3010
8 3005 2993 3004 3010 3008 2999 3007 3011
8 3008 2999 3007 3011 3002 2987 3001 3009

CELL_TYPES 1910
12
12
12
12
12
12
12
12
12
12
12
12
12
12
12
12
12
12
12
12
12
12
12
12
12
12
12
12
12
12
12
12
12
12
12
12
12
12
12
12
12
12
12
12
12
12
12
12
12
12
12
12
12
12
12
12
12
12
12
12
12
12
12
12
12
12
12
12
12
12
12
12
12
12
12
12
12
12
12
12
12
12
12
12
12
12
12
12
12
12
12
12
12
12
12
12
12
12
12
12
12
12
12
12
12
12
12
12
12
12
12
12
12
12
12
12
12
12
12
12
12
12
12
12
12
12
12
12
12
12
12
12
12
12
12
12
12
12
12
12
12
12
12
12
12
12
12
12
12
12
12
12
12
12
12
12
12
12
12
12
12
12
12
12
12
12
12
12
12
12
12
12
12
12
12
12
12
12
12
12
12
12
12
12
12
12
12
12
12
12
12
12
12
12
12
12
12
12
12
12
12
12
12
12
12
12
12
12
12
12
12
12
12
12
12
12
12
12
12
12
12
12
12
12
12
12
12
12
12
12
12
12
12
12
12
12
12
12
12
12
12
12
12
12
12
12
12
12
12
12
12
12
12
12
12
12
12
12
12
12
12
12
12
12
12
12
12
12
12
12
12
12
12
12
12
12
12
12
12
12
12
12
12
12
12
12
12
12
12
12
12
12
12
12
12
12
12
12
12
12
12
12
12
12
12
12
12
12
12
12
12
12
12
12
12
12
12
12
12
12
12
12
12
12
12
12
12
12
12
12
12
12
12
12
12
12
12
12
12
12
12
12
12
12
12
12
12
12
12
12
12
12
12
12
12
12
12
12
12
12
12
12
12
12
12
12
12
12
12
12
12
12
12
12
12
12
12
12
12
12
12
12
12
12
12
12
12
12
12
12
12
12
12
12
12
12
12
12
12
12
12
12
12
12
12
12
12
12
12
12
12
12
12
12
12
12
12
12
12
12
12
12
12
12
12
12
12
12
12
12
12
12
12
12
12
12
12
12
12
12
12
12
12
12
12
12
12
12
12
12
12
12
12
12
12
12
12
12
12
12
12
12
12
12
12
12
12
12
12
12
12
12
12
12
12
12
12
12
12
12
12
12
12
12
12
12
12
12
12
12
12
12
12
12
12
12
12
12
12
12
12
12
12
12
12
12
12
12
12
12
12
12
12
12
12
12
12
12
12
12
12
12
12
12
12
12
12
12
12
12
12
12
12
12
12
12
12
12
12
12
12
12
12
12
12
12
12
12
12
12
12
12
12
12
12
12
12
12
12
12
12
12
12
12
12
12
12
12
12
12
12
12
12
12
12
12
12
12
12
12
12
12
12
12
12
12
12
12
12
12
12
12
12
12
12
12
12
12
12
12
12
12
12
12
12
12
12
12
12
12
12
12
12
12
12
12
12
12
12
12
12
12
12
12
12
12
12
12
12
12
12
12
12
12
12
12
12
12
12
12
12
12
12
12
12
12
12
12
12
12
12
12
12
12
12
12
12
12
12
12
12
12
12
12
12
12
12
12
12
12
12
12
12
12
12
12
12
12
12
12
12
12
12
12
12
12
12
12
12
12
12
12
12
12
12
12
12
12
12
12
12
12
12
12
12
12
12
12
12
12
12
12
12
12
12
12
12
12
12
12
12
12
12
12
12
12
12
12
12
12
12
12
12
12
12
12
12
12
12
12
12
12
12
12
12
12
12
12
12
12
12
12
12
12
12
12
12
12
12
12
12
12
12
12
12
12
12
12
12
12
12
12
12
12
12
12
12
12
12
12
12
12
12
12
12
12
12
12
12
12
12
12
12
12
12
12
12
12
12
12
12
12
12
12
12
12
12
12
12
12
12
12
12
12
12
12
12
12
12
12
12
12
12
12
12
12
12
12
12
12
12
12
12
12
12
12
12
12
12
12
12
12
12
12
12
12
12
12
12
12
12
12
12
12
12
12
12
12
12
12
12
12
12
12
12
12
12
12
12
12
12
12
12
12
12
12
12
12
12
12
12
12
12
12
12
12
12
12
12
12
12
12
12
12
12
12
12
12
12
12
12
12
12
12
12
12
12
12
12
12
12
12
12
12
12
12
12
12
12
12
12
12
12
12
12
12
12
12
12
12
12
12
12
12
12
12
12
12
12
12
12
12
12
12
12
12
12
12
12
12
12
12
12
12
12
12
12
12
12
12
12
12
12
12
12
12
12
12
12
12
12
12
12
12
12
12
12
12
12
12
12
12
12
12
12
12
12
12
12
12
12
12
12
12
12
12
12
12
12
12
12
12
12
12
12
12
12
12
12
12
12
12
12
12
12
12
12
12
12
12
12
12
12
12
12
12
12
12
12
12
12
12
12
12
12
12
12
12
12
12
12
12
12
12
12
12
12
12
12
12
12
12
12
12
12
12
12
12
12
12
12
12
12
12
12
12
12
12
12
12
12
12
12
12
12
12
12
12
12
12
12
12
12
12
12
12
12
12
12
12
12
12
12
12
12
12
12
12
12
12
12
12
12
12
12
12
12
12
12
12
12
12
12
12
12
12
12
12
12
12
12
12
12
12
12
12
12
12
12
12
12
12
12
12
12
12
12
12
12
12
12
12
12
12
12
12
12
12
12
12
12
12
12
12
12
12
12
12
12
12
12
12
12
12
12
12
12
12
12
12
12
12
12
12
12
12
12
12
12
12
12
12
12
12
12
12
12
12
12
12
12
12
12
12
12
12
12
12
12
12
12
12
12
12
12
12
12
12
12
12
12
12
12
12
12
12
12
12
12
12
12
12
12
12
12
12
12
12
12
12
12
12
12
12
12
12
12
12
12
12
12
12
12
12
12
12
12
12
12
12
12
12
12
12
12
12
12
12
12
12
12
12
12
12
12
12
12
12
12
12
12
12
12
12
12
12
12
12
12
12
12
12
12
12
12
12
12
12
12
12
12
12
12
12
12
12
12
12
12
12
12
12
12
12
12
12
12
12
12
12
12
12
12
12
12
12
12
12
12
12
12
12
12
12
12
12
12
12
12
12
12
12
12
12
12
12
12
12
12
12
12
12
12
12
12
12
12
12
12
12
12
12
12
12
12
12
12
12
12
12
12
12
12
12
12
12
12
12
12
12
12
12
12
12
12
12
12
12
12
12
12
12
12
12
12
12
12
12
12
12
12
12
12
12
12
12
12
12
12
12
12
12
12
12
12
12
12
12
12
12
12
12
12
12
12
12
12
12
12
12
12
12
12
12
12
12
12
12
12
12
12
12
12
12
12
12
12
12
12
12
12
12
12
12
12
12
12
12
12
12
12
12
12
12
12
12
12
12
12
12
12
12
12
12
12
12
12
12
12
12
12
12
12
12
12
12
12
12
12
12
12
12
12
12
12
12
12
12
12
12
12
12
12
12
12
12
12
12
12
12
12
12
12
12
12
12
12
12
12
12
12
12
12
12
12
12
12
12
12
12
12
12
12
12
12
12
12
12
12
12
12
12
12
12
12
12
12
12
12
12
12
12
12
12
12
12
12
12
12
12
12
12
12
12
12
12
12
12
12
12
12
12
12
12
12
12
12
12
12
12
12
12
12
12
12
12
12
12
12
12
12
12
12
12
12
12
12
12
12
12
12
12
12
12
12
12
12
12
12
12
12
12
12
12
12
12
12
12
12
12
12
12
12
12
12
12
12
12
12
12
12
12
12
12
12
12
12
12
12
12
12
12
12
12
12
12
12
12
12
12
12
12
12
12
12
12
12
12
12
12
12
12
12
12
12
12
12
12
12
12
12
12
12
12
12
12
12
12
12
12
12
12
12
12
12
12
12
12
12
12
12
12
12
12
12
12
12
12
12
12
12
12
12
12
12
12
12
12
12
12
12
12
12
12
12
12
12
12
12
12
12
12
12
12
12
12
12
12
12
12
12
12
12
12
12
12
12
12
12
12
12
12
12
12
12
12
12
12
12
12
12
12
12
12
12
12
12
12
12
12
12
12
12
12
12
12
12
12
12
12
12
12
12
12
12
12
12
12
12
12
12
12
12
12
12
12
12
12
12
12
12
12
12
12
12
12
12
12
12
12
12
12
12
12
12
12
12
12
12
12
12
12
12
12
12
12
12
12
12
12
12
12
12
12
12
12
12
12
12
12
12
12
12
12
12
12
12
12
12
12
12
12
12
12
12
12
12
12
12
12
12
12
12
12
12
12
12
12
12
12
12
12
12
12
12
12
12
12
12
12
12
12
12
12
12
12
12
12
12
12
12
12
12
12
12
12
12
12
12
12
12
12
12
12
12
12
12
12
12
12
12
12
12
12
12
12
12
12
12
12
12
12
12
12
12
12
12
12
12
12

POINT_DATA 3012
SCALARS Jp_lamdaP float 4
LOOKUP_TABLE default
0.999907 1 1 0.999907
1 1 1 1
0.99991 1 1 0.99991
0.999872 1 1 0.999872
0.999905 1 1 0.999905
0.999907 1 1 0.999907
0.999485 1 1 0.999485
1 1 1 1
1 1 1 1
1 1 1 1
0.999974 1 1 0.999974
0.999655 1 1 0.999655
0.999831 1 1 0.999831
0.999863 1 1 0.999863
0.99991 1 1 0.99991
0.999883 1 1 0.999883
0.999911 1 1 0.999911
0.999911 1 1 0.999911
0.999488 1 1 0.999488
1 1 1 1
0.999855 1 1 0.999855
0.999891 1 1 0.999891
0.999361 1 1 0.999361
0.999452 1 1 0.999452
0.999931 1 1 0.999931
0.999524 1 1 0.999524
0.998808 1 1 0.998808
1 1 1 1
0.999943 1 1 0.999943
0.999956 1 1 0.999956
1 1 1 1
0.999663 1 1 0.999663
0.999882 1 1 0.999882
0.999903 1 1 0.999903
0.99955 1 1 0.99955
1 1 1 1
0.99964 1 1 0.99964
0.999742 1 1 0.999742
0.998884 1 1 0.998884
1 1 1 1
1 1 1 1
0.999929 1 1 0.999929
1 1 1 1
0.999852 1 1 0.999852
0.999296 1 1 0.999296
1 1 1 1
0.999464 1 1 0.999464
0.999893 1 1 0.999893
0.999915 1 1 0.999915
0.999914 1 1 0.999914
0.999492 1 1 0.999492
0.999914 1 1 0.999914
0.999867 1 1 0.999867
0.999939 1 1 0.999939
0.999901 1 1 0.999901
0.999362 1 1 0.999362
0.999528 1 1 0.999528
0.999455 1 1 0.999455
0.998794 1 1 0.998794
1 1 1 1
0.99984 1 1 0.99984
0.999425 1 1 0.999425
0.999329 1 1 0.999329
0.999407 1 1 0.999407
0.998518 1 1 0.998518
0.998653 1 1 0.998653
0.999972 1 1 0.999972
0.999638 1 1 0.999638
0.998917 1 1 0.998917
0.999572 1.00141 1 0.998169
1 1 1 1
1 1 1 1
1 1 1 1
0.999671 1 1 0.999671
1 1 1 1
1 1 1 1
0.999498 1 1 0.999498
0.999996 1 1 0.999996
0.999604 1 1 0.999604
0.999775 1 1 0.999775
0.998882 1 1 0.998882
1 1 1 1
0.999981 1 1 0.999981
0.999444 1 1 0.999444
0.999535 1 1 0.999535
0.99848 1 1 0.99848
0.999867 1 1 0.999867
0.998783 1 1 0.998783
0.99901 1 1 0.99901
0.998419 1 1 0.998419
1 1 1 1
1 1 1 1
1 1 1 1
1 1 1 1
1 1 1 1
0.999922 1 1 0.999922
0.999357 1 1 0.999357
0.999934 1 1 0.999934
0.999434 1 1 0.999434
1 1 1 1
0.999273 1 1 0.999273
0.999434 1 1 0.999434
0.998189 1.00002 1 0.998168
0.999496 1 1 0.999496
0.998421 1.00016 1 0.998266
0.999846 1 1 0.999846
0.999877 1 1 0.999877
0.999946 1 1 0.999946
0.999908 1 1 0.999908
0.999364 1 1 0.999364
0.999459 1 1 0.999459
0.999534 1 1 0.999534
0.99878 1 1 0.99878
1 1 1 1
0.999853 1 1 0.999853
0.999299 1 1 0.999299
0.999328 1 1 0.999328
0.999986 1 1 0.999986
0.999683 1 1 0.999683
0.999409 1 1 0.999409
0.998481 1 1 0.998481
0.998898 1 1 0.998898
0.998679 1 1 0.998679
0.999858 1.00169 1 0.998172
0.999294 1 1 0.999294
0.999303 1 1 0.999303
0.998304 1 1 0.998304
0.998408 1 1 0.998408
0.998538 1 1 0.998538
1.00327 1.00534 1 0.99794
1 1 1 1
1.00058 1.00249 1 0.998093
0.999831 1 1 0.999831
0.998979 1 1 0.998979
0.999062 1.00082 1 0.998245
1.00518 1.00726 1 0.997931
0.999936 1 1 0.999936
0.999397 1 1 0.999397
1 1 1 1
1 1 1 1
0.999504 1 1 0.999504
1 1 1 1
0.999784 1 1 0.999784
0.999609 1 1 0.999609
0.99888 1 1 0.99888
1 1 1 1
0.999988 1 1 0.999988
0.999485 1 1 0.999485
0.999574 1 1 0.999574
0.998483 1 1 0.998483
0.999886 1 1 0.999886
0.998785 1 1 0.998785
0.999009 1 1 0.999009
0.998404 1 1 0.998404
0.999939 1 1 0.999939
0.999998 1 1 0.999998
0.999541 1 1 0.999541
0.998389 1.00002 1 0.99837
0.998636 1 1 0.998636
1.00247 1.0045 1 0.997971
0.999181 1 1 0.999181
0.998903 1.0006 1 0.998305
0.999037 1 1.00052 0.998514
0.99847 1.00021 1 0.998258
1 1 1 1
1 1 1 1
1 1 1 1
0.999964 1 1 0.999964
1 1 1 1
1 1 1 1
1 1 1 1
0.9994 1 1 0.9994
0.999318 1 1 0.999318
1 1 1 1
1 1 1 1
0.999275 1 1 0.999275
0.999402 1 1 0.999402
0.998229 1.00006 1 0.998168
0.999426 1 1 0.999426
0.998395 1.00013 1 0.998266
0.999264 1 1 0.999264
0.998113 1 1 0.998113
0.998341 1.00011 1 0.998226
1.0063 1.00859 1 0.997722
0.99838 1.00007 1 0.998305
1.00563 1.00784 1 0.997813
1 1 1 1
0.999864 1 1 0.999864
0.999163 1 1 0.999163
0.999329 1 1 0.999329
1 1 1 1
0.999727 1 1 0.999727
0.999413 1 1 0.999413
0.998445 1 1 0.998445
0.998704 1 1 0.998704
0.998878 1 1 0.998878
1.00016 1.00198 1 0.998175
0.999291 1 1 0.999291
0.999302 1 1 0.999302
0.998227 1 1 0.998227
0.998434 1 1 0.998434
1 1 1 1
0.99982 1 1 0.99982
0.999017 1 1 0.999017
0.998538 1 1 0.998538
1.00329 1.0054 1 0.997902
0.999181 1.00095 1 0.998236
1.00093 1.00282 1 0.998118
1.00485 1.00693 1 0.997936
0.999927 1 1 0.999927
0.999397 1 1 0.999397
0.998131 1 1 0.998131
0.998361 1 1 0.998361
1.0047 1.0069 1 0.997817
1.00371 1.0059 1 0.997817
1.00162 1.00359 1 0.998034
1.01193 1.01417 1 0.997786
0.999893 1 1 0.999893
1.00671 1.00883 1 0.997893
0.999116 1 1 0.999116
0.99875 1.00036 1 0.998391
1.00399 1.00601 1 0.997994
1.0098 1.01193 1 0.9979
0.999279 1 1 0.999279
0.999545 1 1 0.999545
0.999082 1 1.00016 0.998918
0.999461 1 1 0.999461
1 1 1 1
0.999994 1 1 0.999994
0.99956 1 1 0.99956
0.998485 1 1 0.998485
0.999899 1 1 0.999899
0.999009 1 1 0.999009
0.998788 1 1 0.998788
0.99839 1 1 0.99839
0.999953 1 1 0.999953
0.999999 1 1 0.999999
0.999543 1 1 0.999543
0.998385 1.00001 1 0.99837
0.998641 1 1 0.998641
1.00186 1.0039 1 0.99797
0.999183 1 1 0.999183
0.998715 1.0004 1 0.998315
0.998875 1 1.00036 0.998511
0.998613 1.00037 1 0.998246
1 1 1 1
0.999353 1 1 0.999353
0.99972 1 1 0.99972
0.9991 1 1.00003 0.999067
1.0041 1.00623 1 0.997877
1.00057 1.00243 1 0.998144
1.00871 1.01097 1 0.997763
0.999147 1 1.00044 0.99871
1.00093 1.0028 1 0.998135
0.999967 1.00016 1.00158 0.998227
1.00136 1.00324 1 0.998119
0.999911 1 1 0.999911
1 1 1 1
1 1 1 1
1 1 1 1
1 1 1 1
0.999984 1 1 0.999984
1 1 1 1
0.999957 1 1 0.999957
1 1 1 1
0.999428 1 1 0.999428
0.999364 1 1 0.999364
0.998389 1.00012 1 0.998266
0.998274 1.00011 1 0.998168
0.999278 1 1 0.999278
1 1 1 1
0.999263 1 1 0.999263
0.998121 1.00001 1 0.998113
0.998371 1.00014 1 0.998226
1.00623 1.00853 1 0.997721
0.99837 1.00007 1 0.998305
1.00565 1.00785 1 0.997812
0.998102 1 1 0.998102
1.00603 1.00838 1 0.997671
1.00613 1.00838 1 0.997774
1.01871 1.02107 1 0.997683
1.00522 1.0074 1 0.997839
1.01667 1.01898 1 0.997733
0.999288 1 1 0.999288
0.999301 1 1 0.999301
0.998149 1 1 0.998149
0.99846 1 1 0.99846
1 1 1 1
0.999808 1 1 0.999808
0.999055 1 1 0.999055
0.998538 1 1 0.998538
1.00331 1.00545 1 0.997863
1.00127 1.00313 1 0.998144
0.999287 1.00106 1 0.998227
1.00458 1.00665 1 0.997941
0.999918 1 1 0.999918
0.999398 1 1 0.999398
0.998108 1 1 0.998108
0.998359 1 1 0.998359
1.0049 1.00711 1 0.997808
1.00393 1.00608 1 0.997856
0.999884 1 1 0.999884
0.999113 1 1 0.999113
0.998767 1.00034 1 0.998423
1.00185 1.00382 1 0.998034
1.01225 1.01449 1 0.997788
1.00352 1.00557 1 0.997961
1.00676 1.00888 1 0.997896
1.0101 1.01222 1 0.9979
0.999282 1 1 0.999282
0.99923 1 1.00031 0.998919
0.999543 1 1 0.999543
1.00529 1.00755 1 0.997756
1.005 1.00717 1 0.997839
1.01644 1.0188 1 0.99768
1.01418 1.0165 1 0.997723
1.00892 1.0111 1 0.997848
1.01678 1.01895 1 0.997871
0.999211 1 1 0.999211
1.01194 1.01407 1 0.997902
0.998675 1 1 0.998675
0.999265 1.00123 1 0.998034
1.00759 1.00979 1 0.99782
1.01197 1.01399 1 0.998007
0.999667 1 1 0.999667
0.998901 1 1 0.998901
0.999284 1 1.00029 0.998991
0.999087 1 1.00033 0.99876
0.998381 1.00001 1 0.998371
1 1 1 1
0.999967 1 1 0.999967
0.999545 1 1 0.999545
0.998645 1 1 0.998645
1.00124 1.00328 1 0.997968
0.999185 1 1 0.999185
0.998674 1 1.00017 0.998507
0.998464 1.00014 1 0.998326
0.998749 1.00052 1 0.998233
1 1 1 1
0.999353 1 1 0.999353
0.999726 1 1 0.999726
0.999092 1 1.00003 0.999064
1.00364 1.00578 1 0.997874
0.999937 1.00179 1 0.998146
1.00878 1.01104 1 0.997762
0.999059 1 1.00035 0.998714
1.00032 1.00218 1 0.998149
1.00029 1.00035 1.00173 0.998215
1.00096 1.00277 1 0.998188
1 1 1 1
0.999828 1 1 0.999828
0.998903 1 1 0.998903
0.999305 1 1.00006 0.999247
0.99922 1 1.00041 0.998809
1.01164 1.01395 1 0.997717
1.00479 1.00687 1 0.997934
1.01113 1.01341 1 0.997744
1.00037 1 1.00199 0.998375
1.0023 1.00425 1 0.998055
1.00113 1.00232 1.00086 0.997952
0.999897 1 1 0.999897
0.99958 1 1 0.99958
0.999919 1 1 0.999919
0.999913 1 1 0.999913
1 1 1 1
1 1 1 1
1 1 1 1
1 1 1 1
1 1 1 1
0.999996 1 1 0.999996
1 1 1 1
0.999979 1 1 0.999979
1 1 1 1
0.999949 1 1 0.999949
1 1 1 1
0.998354 1.00005 1 0.998304
0.998379 1.00015 1 0.998226
1.00562 1.00783 1 0.997811
1.00614 1.00844 1 0.99772
0.998131 1.00002 1 0.998113
0.999263 1 1 0.999263
0.998102 1 1 0.998102
1.0061 1.00845 1 0.997671
1.00595 1.0082 1 0.997774
1.0189 1.02126 1 0.997688
1.00498 1.00715 1 0.997837
1.01613 1.01844 1 0.997733
1.00581 1.00817 1 0.997659
1.01909 1.02149 1 0.997655
1.01821 1.02055 1 0.99771
1.02366 1.02594 1 0.997779
1.01385 1.01616 1 0.997731
1.01905 1.0212 1 0.997892
0.998085 1 1 0.998085
0.998357 1 1 0.998357
1.00508 1.00729 1 0.997799
1.00414 1.00625 1 0.997895
0.999874 1 1 0.999874
0.999111 1 1 0.999111
0.998792 1.00034 1 0.998456
1.00208 1.00406 1 0.998034
1.01256 1.01481 1 0.997789
1.00683 1.00895 1 0.997898
1.00299 1.00507 1 0.997928
1.01036 1.01249 1 0.9979
0.999285 1 1 0.999285
0.999348 1 1.00043 0.998919
0.99954 1 1 0.99954
1.00545 1.00774 1 0.997722
1.00496 1.00713 1 0.997838
1.01624 1.0186 1 0.997682
1.01459 1.0169 1 0.997728
0.999211 1 1 0.999211
0.998669 1 1 0.998669
0.999515 1.0014 1.00003 0.998082
1.00911 1.01128 1 0.997854
1.01605 1.0182 1 0.997896
1.00766 1.00989 1 0.997791
1.01192 1.01405 1 0.997905
1.01136 1.01336 1 0.998026
0.998904 1 1 0.998904
0.99911 1 1.00037 0.998743
0.999663 1 1 0.999663
0.999362 1 1.00035 0.999012
1.01698 1.01939 1 0.997633
1.0168 1.01913 1 0.997715
1.02178 1.02413 1 0.99771
1.01826 1.02044 1 0.997856
1.01443 1.01655 1 0.997915
1.01681 1.01884 1 0.998007
0.998847 1 1 0.998847
1.01231 1.01424 1 0.998093
0.99836 1 1 0.99836
1.00242 1.00445 1.00018 0.997805
1.01004 1.01232 1 0.997742
1.01127 1.01324 1 0.998052
0.999741 1 1 0.999741
0.999166 1 1.00003 0.999138
0.998746 1 1 0.998746
0.999703 1 1.00092 0.998786
0.998918 1 1.00021 0.998705
1 1 1 1
1.00314 1.00528 1 0.997871
0.999732 1 1 0.999732
0.999353 1 1 0.999353
0.999061 1 1 0.999061
0.999405 1.00126 1 0.998148
1.00885 1.01111 1 0.99776
0.999009 1 1.00029 0.998718
1.0007 1.00056 1.00193 0.998204
0.999863 1.0017 1 0.998164
1.00064 1.00239 1 0.998257
1 1 1 1
0.999833 1 1 0.999833
0.998904 1 1 0.998904
0.999264 1 1.00002 0.999248
0.999343 1 1.00056 0.998788
1.01189 1.01421 1 0.997713
1.00454 1.00662 1 0.997934
1.01109 1.01338 1 0.997736
1.0005 1 1.00213 0.998379
1.00346 1.0054 1 0.99807
1.00109 1.00216 1.00096 0.997972
0.999874 1 1 0.999874
0.999405 1 1 0.999405
0.999085 1 1.00048 0.998609
0.999422 1 1.00047 0.998955
0.999441 1 1.00078 0.998662
1.01373 1.01601 1 0.997754
1.00684 1.00898 1 0.997876
1.01082 1.01295 1 0.997894
1.00192 1 1.00379 0.998134
1.0021 1.00428 1 0.997826
0.9999 1 1 0.9999
0.999517 1 1 0.999517
0.999561 1 1 0.999561
0.999374 1 1 0.999374
0.999588 1 1 0.999588
0.999922 1 1 0.999922
0.999921 1 1 0.999921
1 1 1 1
0.999915 1 1 0.999915
1 1 1 1
1 1 1 1
1 1 1 1
1 1 1 1
1 1 1 1
1 1 1 1
0.999993 1 1 0.999993
1 1 1 1
1 1 1 1
0.999974 1 1 0.999974
1 1 1 1
1.00476 1.00694 1 0.997835
1.00582 1.00807 1 0.997773
1.01562 1.01792 1 0.997732
1.0191 1.02146 1 0.997693
1.0062 1.00855 1 0.997671
0.998102 1 1 0.998102
1.00587 1.00823 1 0.99766
1.01903 1.02143 1 0.997648
1.01806 1.02039 1 0.99771
1.02322 1.02551 0.999968 0.997799
1.01411 1.01642 1 0.997727
1.01929 1.02143 1 0.997904
1.01787 1.0203 1 0.997623
1.02242 1.02476 0.999983 0.997733
1.02149 1.02368 1 0.997866
1.02223 1.02475 0.999648 0.99789
1.01694 1.01914 1 0.997843
1.02025 1.02226 1 0.998041
1.00564 1.00797 1 0.997688
1.00492 1.00709 1 0.997836
1.01608 1.01844 1 0.997684
1.01501 1.01731 1 0.997733
0.999212 1 1 0.999212
0.998663 1 1 0.998663
0.999839 1.00153 1.00018 0.998131
1.00932 1.01148 1 0.997859
1.01532 1.01743 1 0.997922
1.01189 1.01401 1 0.997907
1.00773 1.00999 1 0.997763
1.0107 1.01268 1 0.998045
0.998907 1 1 0.998907
0.999076 1 1.00035 0.998725
0.999658 1 1 0.999658
0.999315 1 1.00028 0.999033
1.01692 1.01934 1 0.997634
1.01661 1.01895 1 0.997705
1.02176 1.02409 1 0.997722
1.01762 1.01982 1 0.997845
0.998843 1 1 0.998843
0.998452 1.00002 1.00003 0.998402
1.00265 1.00448 1.00039 0.997798
1.01414 1.01628 1 0.997894
1.01699 1.01898 1 0.99805
1.00974 1.01204 1 0.997731
1.01213 1.01406 1 0.998096
1.01216 1.0141 1 0.998089
0.998745 1 1 0.998745
0.99877 1 1.00007 0.998705
0.999978 1 1.0012 0.998782
0.999711 1 1 0.999711
0.999157 1 1 0.999157
1.02225 1.0246 1 0.997707
1.02155 1.02384 1 0.997766
1.01799 1.02007 0.99995 0.998011
1.01461 1.01656 1 0.99809
0.99866 1 1 0.99866
1.01398 1.01579 1 0.998221
0.998453 1 1.00029 0.998166
1.0058 1.00773 1.00051 0.997571
1.01036 1.01268 1 0.997701
0.999748 1 1 0.999748
0.99932 1 1 0.99932
0.999309 1 1.00037 0.998938
0.998708 1 1 0.998708
1.00073 1 1.00211 0.998626
0.99865 1 1 0.99865
1 1 1 1
0.999839 1 1 0.999839
1.0122 1.01452 1 0.997708
0.999249 1 1 0.999249
0.998905 1 1 0.998905
0.999546 1 1.00078 0.998767
1.0041 1.00618 1 0.997934
1.01095 1.01325 1 0.997728
1.00067 1 1.00229 0.998384
1.00069 1.00193 1.00077 0.997993
1.00446 1.00638 1 0.998086
0.999879 1 1 0.999879
0.999407 1 1 0.999407
0.999029 1 1.00041 0.998615
0.999608 1 1.00066 0.998953
0.999701 1 1.00105 0.998651
1.01389 1.01618 1 0.997749
1.0073 1.00945 1 0.997868
1.0107 1.01281 1 0.997916
1.00135 1 1.00324 0.998112
1.0018 1.00396 1.00006 0.997795
0.9995 1 1 0.9995
0.999196 1 1.00012 0.999077
1.00043 1 1.002 0.998441
1.00025 1 1.00156 0.998698
0.999525 1 1.00098 0.998547
1.01654 1.01848 1 0.998095
1.00694 1.00917 1 0.997794
1.00897 1.01105 1 0.997941
1.0031 1.00081 1.00433 0.997961
0.999987 1.0024 1 0.99759
0.999904 1 1 0.999904
0.999533 1 1 0.999533
0.999285 1 1 0.999285
0.999542 1 1 0.999542
0.999588 1 1 0.999588
0.999346 1 1 0.999346
0.999208 1 1 0.999208
0.999328 1 1 0.999328
0.999592 1 1 0.999592
0.999919 1 1 0.999919
0.999922 1 1 0.999922
1 1 1 1
0.999922 1 1 0.999922
1 1 1 1
1 1 1 1
1 1 1 1
1 1 1 1
1 1 1 1
1 1 1 1
0.999999 1 1 0.999999
1 1 1 1
0.99999 1 1 0.99999
1 1 1 1
1 1 1 1
1.01433 1.01665 1 0.997723
1.01789 1.02022 1 0.99771
1.01952 1.02165 1 0.997916
1.02276 1.0251 0.999901 0.997818
1.01894 1.02135 1 0.997641
1.00591 1.00827 1 0.99766
1.01799 1.02043 1 0.997612
1.02255 1.02491 0.999977 0.997726
1.02147 1.02368 1 0.997847
1.02184 1.02433 0.999659 0.997901
1.01637 1.01857 1 0.997843
1.0198 1.02177 1 0.998073
1.02133 1.02369 1 0.997694
1.02303 1.02582 0.999414 0.99787
1.02221 1.02445 0.999803 0.998007
1.01835 1.02025 1 0.998142
1.01683 1.01924 1 0.997634
1.01641 1.01875 1 0.997696
1.02172 1.02404 1 0.997735
1.017 1.01921 1 0.997834
0.998839 1 1 0.998839
0.998444 1 1 0.998444
1.00293 1.00457 1.00058 0.997792
1.01382 1.01598 1 0.997874
1.01717 1.01911 1 0.998093
1.01203 1.01396 1 0.998098
1.00946 1.01177 1 0.99772
1.01296 1.01486 1 0.998125
0.998744 1 1 0.998744
0.998705 1 1 0.998705
1.00051 1 1.00174 0.998777
0.99968 1 1 0.99968
0.999176 1 1 0.999176
1.02208 1.02443 1 0.99771
1.02172 1.02401 1 0.997771
1.0179 1.02003 0.999904 0.998005
0.998654 1 1 0.998654
0.99874 1.00028 1.00026 0.998204
1.00551 1.0072 1.00076 0.997561
1.01503 1.01699 1 0.99808
1.01016 1.01243 1 0.997761
1.01316 1.01498 1 0.998208
0.999756 1 1 0.999756
0.998703 1 1 0.998703
0.998694 1 1 0.998694
1.00063 1 1.00202 0.998615
0.999273 1 1.00033 0.998947
0.999297 1 1 0.999297
1.02254 1.02494 0.999882 0.997773
1.02188 1.02553 0.998524 0.997919
1.01694 1.0194 0.999483 0.998099
1.01891 1.02085 0.999841 0.998252
0.99854 1 1 0.99854
1.01127 1.01333 1 0.997962
1.00009 1.00067 1.00165 0.997784
1.00462 1.00615 1.00104 0.997433
0.999822 1 1 0.999822
0.999422 1 1 0.999422
0.999071 1 1 0.999071
1.00091 1 1.00222 0.998692
0.998629 1 1 0.998629
0.999195 1 1.00066 0.998535
0.999883 1 1 0.999883
0.99941 1 1 0.99941
1.01414 1.01644 1 0.997744
0.999594 1 1.00064 0.998951
0.998892 1 1.00027 0.998622
0.999949 1 1.00131 0.998639
1.00789 1.01006 1 0.99786
1.01075 1.01283 1 0.997939
1.00082 1 1.00273 0.998091
1.00162 1.00359 1.00027 0.997765
0.999502 1 1 0.999502
0.999087 1 1 0.999087
1.00044 1 1.00198 0.998458
1.00057 1 1.00187 0.998702
0.999067 1 1.00048 0.998591
1.01654 1.01845 1 0.998119
1.0066 1.00882 1 0.997795
1.0098 1.01181 1 0.998016
1.00305 1.00054 1.00458 0.997936
1.00057 1.003 1.00003 0.99755
0.999225 1 1 0.999225
0.999028 1 1.00023 0.998797
1.00208 1 1.00378 0.998305
0.999854 1 1.00141 0.99845
1.02067 1.02479 0.997693 0.998283
1.01411 1.01606 0.999872 0.998208
1.00483 1.00724 1 0.997613
1.00296 1.00112 1.00426 0.997595
0.999548 1 1 0.999548
0.999297 1 1 0.999297
0.999152 1 1 0.999152
0.999588 1 1 0.999588
0.999318 1 1 0.999318
0.999591 1 1 0.999591
0.999189 1 1 0.999189
0.999339 1 1 0.999339
0.999082 1 1 0.999082
0.999173 1 1 0.999173
0.999322 1 1 0.999322
0.999582 1 1 0.999582
0.999914 1 1 0.999914
0.999918 1 1 0.999918
1 1 1 1
0.999922 1 1 0.999922
1 1 1 1
1 1 1 1
1 1 1 1
1 1 1 1
1 1 1 1
1 1 1 1
1 1 1 1
1 1 1 1
0.999998 1 1 0.999998
1 1 1 1
1 1 1 1
1.0158 1.01799 1 0.997843
1.02144 1.02366 1 0.997828
1.01934 1.02127 1 0.998104
1.02144 1.02387 0.999705 0.997913
1.02271 1.02504 1 0.997718
1.01814 1.02059 1 0.997602
1.02131 1.02367 1 0.9977
1.02191 1.02468 0.999432 0.997863
1.02203 1.0244 0.999676 0.998009
1.01973 1.02163 1 0.998141
1.02265 1.02532 0.999583 0.997816
1.02445 1.0292 0.997342 0.99804
1.02401 1.02676 0.999164 0.998149
1.02194 1.02428 1 0.997713
1.02189 1.02417 1 0.997776
1.01778 1.01995 0.999868 0.997999
0.998648 1 1 0.998648
0.998999 1.00058 1.00018 0.998243
1.00503 1.00665 1.00085 0.997551
1.0154 1.01737 1 0.998069
1.01247 1.0143 1 0.998194
1.01029 1.0125 1 0.99782
0.998699 1 1 0.998699
0.998738 1 1 0.998738
1.0004 1 1.0018 0.998603
0.999764 1 1 0.999764
0.999154 1 1.0002 0.998957
0.999273 1 1 0.999273
1.02322 1.0256 0.999901 0.997778
1.02249 1.02562 0.999017 0.997925
1.01701 1.01938 0.999588 0.998089
0.998531 1 1 0.998531
1.00014 1.00088 1.0014 0.997864
1.00433 1.00598 1.0009 0.997458
1.01883 1.02079 0.999807 0.998264
1.01181 1.01389 1 0.997952
0.999854 1 1 0.999854
0.999422 1 1 0.999422
0.998641 1 1 0.998641
0.999586 1 1.001 0.998588
1.0009 1 1.0022 0.998702
0.999051 1 1 0.999051
1.02526 1.02925 0.998158 0.997956
1.01737 1.02379 0.995671 0.998055
1.0181 1.0214 0.998476 0.998284
1.01596 1.01773 0.999962 0.998296
0.999233 1 1.00088 0.99835
1.00384 1.00494 1.0014 0.99751
1.00149 1.00125 1.00264 0.997598
0.999926 1 1 0.999926
0.999618 1 1 0.999618
0.999458 1 1 0.999458
0.999129 1 1 0.999129
0.999358 1 1.00053 0.998832
1.00007 1 1.0015 0.998572
0.998663 1 1 0.998663
1.0076 1 1.00891 0.998699
0.999503 1 1 0.999503
0.999097 1 1 0.999097
1.01642 1.01831 1 0.998143
1.00099 1 1.00229 0.998705
1.00063 1 1.00215 0.998476
0.998671 1 1.00004 0.998635
1.00611 1.00834 1 0.997796
1.01062 1.01255 1 0.99809
1.00308 1.00036 1.00482 0.997911
1.00118 1.00368 1 0.99751
0.999211 1 1 0.999211
0.999338 1 1.00053 0.998807
1.00247 1 1.00415 0.998326
0.999613 1 1.00114 0.998473
1.02148 1.02544 0.997845 0.998289
1.01355 1.01545 0.999949 0.99818
1.00571 1.00808 1 0.997651
1.00251 1.00119 1.00377 0.99756
0.999042 1 1 0.999042
1.02003 1.02576 0.996131 0.998273
1.00013 1 1.00155 0.998584
1.00077 1 1.00268 0.998099
1.01875 1.02174 0.998687 0.998381
1.00623 1.00853 1 0.99772
1.00414 1.00348 1.00323 0.997431
0.99931 1 1 0.99931
0.99915 1 1 0.99915
0.999028 1 1 0.999028
0.999591 1 1 0.999591
0.99935 1 1 0.99935
0.99917 1 1 0.99917
0.999581 1 1 0.999581
0.999323 1 1 0.999323
0.999065 1 1 0.999065
0.999193 1 1 0.999193
0.998983 1 1 0.998983
0.999051 1 1 0.999051
0.999181 1 1 0.999181
0.999317 1 1 0.999317
0.999562 1 1 0.999562
0.999907 1 1 0.999907
0.999913 1 1 0.999913
1 1 1 1
0.999917 1 1 0.999917
1 1 1 1
1 1 1 1
1 1 1 1
1 1 1 1
1 1 1 1
0.99995 1 1 0.99995
1 1 1 1
1 1 1 1
1 1 1 1
1 1 1 1
1 1 1 1
1 1 1 1
1.02111 1.02302 1 0.99814
1.02191 1.02439 0.999572 0.998011
1.02081 1.02359 0.99943 0.997856
1.02129 1.02364 1 0.997706
1.02261 1.02529 0.999553 0.997831
1.02501 1.02955 0.997558 0.998028
1.02396 1.02691 0.99896 0.998162
1.02463 1.03051 0.996274 0.998011
1.02736 1.03277 0.996594 0.99816
1.01255 1.0234 0.991018 0.998361
1.0239 1.02625 0.999921 0.997783
1.02309 1.02578 0.999448 0.997931
1.01707 1.01937 0.99966 0.998079
0.998577 1 1.00006 0.998521
1.00031 1.00111 1.00126 0.997943
1.00381 1.00556 1.00078 0.997484
1.01887 1.02086 0.999777 0.998276
1.01184 1.01392 1 0.997943
0.998653 1 1 0.998653
1.00006 1 1.00142 0.99864
1.00107 1 1.00236 0.998712
0.999885 1 1 0.999885
0.999422 1 1 0.999422
0.999031 1 1 0.999031
1.0245 1.02885 0.997796 0.99797
0.999922 1 1 0.999922
0.9996 1 1 0.9996
1.01749 1.02315 0.99641 0.998055
1.01887 1.02213 0.998547 0.998253
0.999254 1 1.00084 0.998415
1.00202 1.00116 1.0033 0.997567
1.00406 1.00572 1.00084 0.997515
1.01511 1.01687 0.999987 0.998282
0.999509 1 1 0.999509
0.999126 1 1 0.999126
0.99861 1 1 0.99861
1.00452 1 1.00574 0.998789
1.00037 1 1.00181 0.998557
0.99939 1 1.00055 0.998842
1.02617 1.03189 0.996321 0.998124
1.01112 1.02187 0.991274 0.998192
1.01647 1.02057 0.997505 0.998476
1.00509 1.00724 0.999845 0.998018
1.00074 1 1.00234 0.998394
1.00399 1.00112 1.00547 0.997413
0.999618 1 1 0.999618
0.999568 1 1 0.999568
0.999371 1 1 0.999371
0.999138 1 1 0.999138
0.998953 1 1 0.998953
0.999431 1 1.00081 0.998626
1.01259 1 1.0141 0.998508
1.00002 1 1.0012 0.99882
0.999197 1 1 0.999197
0.999378 1 1.00056 0.998817
1.02234 1.02612 0.998012 0.998296
1.01311 1.01499 1 0.998153
0.999358 1 1.00086 0.998497
1.00275 1 1.00441 0.998346
1.00674 1.00904 1.00004 0.99769
1.00204 1.00117 1.00335 0.997525
0.999036 1 1 0.999036
1.02062 1.02728 0.995211 0.998298
1.00003 1 1.00143 0.998598
1.00076 1 1.00269 0.998073
1.01802 1.02109 0.998633 0.998355
1.00686 1.00912 1 0.997759
1.00379 1.00287 1.00348 0.997443
0.999793 1 1.001 0.998795
1.01652 1.02566 0.992486 0.998585
0.999894 1 1.00149 0.998402
1.00218 1.00057 1.00379 0.99783
1.00893 1.01381 0.997124 0.998058
1.00168 1.00194 1.00221 0.997528
1.00476 1.00808 0.998028 0.998672
0.999148 1 1 0.999148
0.999049 1 1.00002 0.999026
0.998912 1 1 0.998912
0.99958 1 1 0.99958
0.999325 1 1 0.999325
0.999214 1 1 0.999214
0.999047 1 1 0.999047
0.999561 1 1 0.999561
0.999307 1 1 0.999307
0.998968 1 1 0.998968
0.99918 1 1 0.99918
0.999067 1 1 0.999067
0.998959 1 1 0.998959
0.999066 1 1 0.999066
0.999176 1 1 0.999176
0.99926 1 1 0.99926
0.999505 1 1 0.999505
0.999353 1 1 0.999353
0.999503 1 1 0.999503
0.999902 1 1 0.999902
0.999906 1 1 0.999906
1 1 1 1
0.999912 1 1 0.999912
1 1 1 1
1 1 1 1
1 1 1 1
1 1 1 1
1 1 1 1
0.999964 1 1 0.999964
0.999947 1 1 0.999947
1 1 1 1
1 1 1 1
1 1 1 1
1 1 1 1
1 1 1 1
1 1 1 1
1.02391 1.02706 0.998752 0.998175
1.02555 1.02992 0.997737 0.998016
1.02257 1.02527 0.999521 0.997847
1.02444 1.03026 0.996329 0.998009
1.02595 1.0312 0.996746 0.998157
1.01307 1.02328 0.99167 0.998346
1.02294 1.03197 0.993009 0.998227
1.00318 1.01596 0.989361 0.998039
1.01215 1.02467 0.98901 0.998759
0.999689 1 1 0.999689
1.02377 1.02843 0.997481 0.997984
1.01786 1.02257 0.997332 0.998054
1.01949 1.02276 0.998573 0.998221
0.9993 1 1.00082 0.99848
1.00278 1.00123 1.00402 0.997536
1.00464 1.00668 1.00045 0.997519
1.01424 1.016 1 0.998268
0.998559 1 1 0.998559
1.00144 1 1.00257 0.99888
1.00052 1 1.00198 0.998542
0.999918 1 1 0.999918
0.999412 1 1.00056 0.998851
0.999561 1 1 0.999561
0.999124 1 1 0.999124
0.999581 1 1 0.999581
1.02532 1.03253 0.994881 0.998132
0.999644 1 1 0.999644
0.999567 1 1 0.999567
0.999334 1 1 0.999334
1.01172 1.02167 0.992056 0.998195
1.01608 1.02007 0.997656 0.998428
1.00005 1 1.00164 0.998413
1.00369 1.00072 1.00555 0.997437
1.00453 1.00645 1.00007 0.998018
0.999165 1 1 0.999165
0.998986 1 1.00005 0.998933
1.00208 1 1.00333 0.99876
1.01022 1 1.01169 0.998545
0.999274 1 1.00063 0.998648
1.01593 1.02589 0.992064 0.99821
1.01112 1.02451 0.988595 0.998312
1.00979 1.01318 0.998437 0.99821
1.00479 1.00376 1.00317 0.997866
1.00325 1 1.00484 0.998415
0.999326 1 1 0.999326
0.999228 1 1 0.999228
0.999124 1 1 0.999124
0.998954 1 1 0.998954
0.999144 1 1.00037 0.998779
1.00902 1 1.0105 0.998542
1.0119 1 1.01346 0.998465
0.99903 1 1 0.99903
1.00002 1 1.00141 0.998612
1.02086 1.02872 0.994029 0.998324
1.01713 1.02034 0.99852 0.998329
1.00727 1.00949 1 0.997798
1.00072 1 1.00268 0.998047
1.00323 1.00218 1.0036 0.997454
0.99972 1 1.00089 0.998828
1.01559 1.02539 0.991837 0.998594
0.999634 1 1.00121 0.998426
1.00219 1.00028 1.00408 0.99784
1.01016 1.01439 0.997695 0.998127
1.00216 1.00196 1.00269 0.997515
1.00459 1.00831 0.998032 0.99828
0.999844 1 1.00117 0.998672
1.00507 1.01651 0.990159 0.998578
1.00033 1 1.00194 0.998387
1.00418 1.00004 1.00636 0.9978
1.0036 1.00475 1.00104 0.997823
0.955683 0.978537 0.988269 0.988237
0.979814 0.98816 0.99709 0.994449
0.981172 0.99986 0.982528 0.99876
0.874149 0.912387 0.971129 0.986572
0.84209 0.914066 0.93543 0.984849
0.999041 1 1.00002 0.999025
0.998934 1 1.00001 0.998926
0.998937 1 1 0.998937
0.999561 1 1 0.999561
0.999297 1 1 0.999297
0.99918 1 1 0.99918
0.999082 1 1 0.999082
0.998953 1 1 0.998953
0.999157 1 1 0.999157
0.999525 1 1 0.999525
0.999273 1 1 0.999273
0.998963 1 1 0.998963
0.999067 1 1 0.999067
0.999074 1 1 0.999074
0.999021 1 1 0.999021
0.999106 1 1 0.999106
0.999232 1 1 0.999232
0.999496 1 1 0.999496
0.999294 1 1 0.999294
0.999194 1 1 0.999194
0.99933 1 1 0.99933
0.999326 1 1 0.999326
0.999554 1 1 0.999554
0.999502 1 1 0.999502
0.999898 1 1 0.999898
0.999901 1 1 0.999901
1 1 1 1
0.999906 1 1 0.999906
1 1 1 1
1 1 1 1
1 1 1 1
1 1 1 1
1 1 1 1
0.999971 1 1 0.999971
0.999962 1 1 0.999962
1 1 1 1
0.999944 1 1 0.999944
1 1 1 1
1 1 1 1
1 1 1 1
1 1 1 1
1 1 1 1
1.02458 1.02966 0.996914 0.998154
1.0242 1.02996 0.996394 0.998007
1.01366 1.02304 0.992489 0.99833
1.00371 1.01572 0.990081 0.998077
1.02162 1.03067 0.992986 0.998225
1.01627 1.02646 0.991368 0.998689
1.02286 1.02923 0.995549 0.998257
0.966307 0.984914 0.987368 0.99366
1.00939 1.01935 0.991805 0.998413
0.999698 1 1 0.999698
0.999688 1 1 0.999688
0.999408 1 1 0.999408
0.999436 1 1 0.999436
1.02421 1.03302 0.993319 0.99814
1.0119 1.02112 0.99276 0.998198
1.01584 1.01957 0.997953 0.998381
0.999202 1 1.00077 0.998431
1.00314 1.00033 1.00536 0.997461
1.00403 1.00589 1.00013 0.998018
1.00401 1 1.00532 0.998698
1.00793 1 1.00937 0.998581
0.999095 1 1.00043 0.99867
0.999566 1 1 0.999566
0.998962 1 1.00005 0.998912
0.999192 1 1 0.999192
0.999669 1 1 0.999669
0.999298 1 1 0.999298
1.01403 1.02473 0.991317 0.998225
0.999365 1 1 0.999365
0.999254 1 1 0.999254
0.999141 1 1 0.999141
1.01325 1.02617 0.989071 0.99832
1.00861 1.01234 0.998103 0.998207
1.00309 1 1.0047 0.998406
1.00476 1.00413 1.00277 0.997867
0.999012 1 1.00006 0.998954
0.998897 1 1.00013 0.99877
1.01232 1 1.01388 0.998465
1.01008 1 1.01158 0.998519
1.01036 1.02659 0.9859 0.998266
1.00185 1.01995 0.983935 0.998294
1.00527 1.00688 1.00048 0.997923
1.00135 1.00024 1.00273 0.998385
0.999045 1 1 0.999045
0.999121 1 1.00012 0.999004
1.00193 1 1.00318 0.998753
1.02177 1 1.02349 0.998318
0.941662 0.97282 0.980041 0.987685
0.99975 1 1.00089 0.998861
0.999531 1 1.00108 0.99845
1.0144 1.02492 0.991124 0.998602
1.01136 1.01487 0.998338 0.998196
1.00291 1.00212 1.0033 0.997501
1.00231 1 1.00447 0.99785
1.00368 1.00828 0.997561 0.99788
0.999823 1 1.00113 0.998697
1.00427 1.01649 0.989396 0.998564
0.999834 1 1.00144 0.998398
1.00393 1.00003 1.00611 0.997801
1.00364 1.00577 1.00004 0.997847
0.953946 0.97951 0.985757 0.987973
0.974604 0.986138 0.995386 0.992885
0.983304 0.998064 0.986398 0.998797
0.877016 0.912038 0.974868 0.98639
0.826313 0.902124 0.931258 0.983578
0.999482 1 1.00067 0.998818
0.894543 0.928036 0.97707 0.986531
0.879918 0.918504 0.971764 0.985826
0.982868 1.00641 0.978085 0.998486
1.00493 1 1.00646 0.998475
1.01045 1.00226 1.01019 0.997997
0.980697 0.993789 0.987881 0.998932
0.955313 0.972348 0.994829 0.987587
0.962721 0.970297 0.999899 0.992293
0.855403 0.912651 0.949902 0.986704
0.883838 0.945971 0.946944 0.986667
0.998984 1 1.00004 0.998939
0.99893 1 1 0.99893
0.999124 1 1 0.999124
0.999546 1 1 0.999546
0.999286 1 1 0.999286
0.999138 1 1 0.999138
0.999067 1 1 0.999067
0.998966 1 1 0.998966
0.999497 1 1 0.999497
0.999071 1 1 0.999071
0.999124 1 1 0.999124
0.999254 1 1 0.999254
0.999018 1 1 0.999018
0.99903 1 1 0.99903
0.999235 1 1.0002 0.999038
0.999093 1 1 0.999093
0.999265 1 1 0.999265
0.999292 1 1 0.999292
0.99918 1 1 0.99918
0.999142 1 1 0.999142
0.999174 1 1 0.999174
0.999116 1 1 0.999116
0.999053 1 1 0.999053
0.99931 1 1 0.99931
0.999329 1 1 0.999329
0.999561 1 1 0.999561
0.999298 1 1 0.999298
0.999537 1 1 0.999537
0.999896 1 1 0.999896
0.9995 1 1 0.9995
0.999898 1 1 0.999898
1 1 1 1
0.999901 1 1 0.999901
1 1 1 1
1 1 1 1
1 1 1 1
1 1 1 1
1 1 1 1
0.999683 1 1 0.999683
0.999971 1 1 0.999971
0.99997 1 1 0.99997
1 1 1 1
0.999959 1 1 0.999959
1 1 1 1
1 1 1 1
1 1 1 1
1 1 1 1
1 1 1 1
1.00484 1.01579 0.991088 0.998117
1.02067 1.02958 0.993117 0.998223
1.02008 1.0285 0.993187 0.998618
0.965823 0.982157 0.988832 0.994475
1.00972 1.01907 0.992328 0.998489
1.02464 1.03171 0.994916 0.998226
1.0167 1.0235 0.995096 0.99825
0.972067 0.984518 0.992316 0.994999
0.955716 0.977439 0.990702 0.986952
0.854475 0.90398 0.959007 0.985641
0.82538 0.891019 0.94089 0.984527
0.999396 1 1 0.999396
0.999698 1 1 0.999698
0.999688 1 1 0.999688
0.999396 1 1 0.999396
0.999216 1 1 0.999216
0.999253 1 1 0.999253
0.999398 1 1 0.999398
0.999417 1 1 0.999417
1.01262 1.02399 0.99064 0.998239
1.01579 1.02852 0.989276 0.998327
1.00741 1.01148 0.997764 0.998204
1.00327 1 1.00488 0.998398
1.00487 1.00428 1.00272 0.997869
1.01253 1 1.01409 0.998465
1.0112 1 1.01272 0.998497
0.998761 1 1 0.998761
0.99928 1 1 0.99928
0.998954 1 1 0.998954
0.999405 1 1 0.999405
0.999157 1 1 0.999157
1.01114 1.02675 0.986524 0.998247
0.999068 1 1 0.999068
0.999016 1 1 0.999016
1.00307 1.01921 0.985871 0.998275
1.00457 1.00678 0.99978 0.998022
1.00321 1.00054 1.00435 0.99833
1.00326 1 1.00454 0.998722
1.0192 1 1.02091 0.998325
1.01003 1.02408 0.988034 0.99823
0.984863 1.00611 0.980542 0.998309
0.998857 1.00039 1.00018 0.998287
1.00726 1 1.00887 0.998409
0.998915 1 1 0.998915
1.00098 1 1.00217 0.998808
1.01711 1 1.01862 0.998514
0.882849 0.931201 0.96064 0.98692
0.951573 0.975173 0.986837 0.988816
0.999611 1 1.00089 0.998722
0.999475 1 1.00107 0.998409
1.0047 1.01697 0.989369 0.998551
1.00377 1.00699 0.998927 0.99787
1.0035 1 1.00571 0.997803
0.953169 0.976811 0.988698 0.98695
0.976887 0.989369 0.993764 0.99358
0.985598 0.996818 0.989901 0.998832
0.871053 0.912766 0.967507 0.98635
0.811902 0.889482 0.929232 0.982296
0.999221 1 1.0004 0.998819
0.887548 0.930813 0.966156 0.98692
0.876286 0.913796 0.973249 0.985309
0.984877 1.00719 0.979338 0.998475
1.00447 1 1.00598 0.998494
1.00954 1.00115 1.0103 0.998101
0.972803 0.989581 0.984033 0.998996
0.959499 0.978099 0.994203 0.986703
0.965243 0.974131 0.99705 0.993807
0.857314 0.907174 0.958912 0.985532
0.883474 0.946932 0.946107 0.986131
1.00107 1 1.00206 0.999007
0.902823 0.92483 0.988809 0.987253
0.959386 0.972252 0.995883 0.990847
0.989171 1.0007 0.989557 0.998911
1.01183 1.00105 1.01188 0.998896
0.99036 0.983513 1.00772 0.99925
0.951508 0.964545 0.991545 0.994895
0.949802 0.960854 1.00192 0.986608
0.875825 0.926319 0.959139 0.985769
0.912112 0.96532 0.955747 0.988629
0.998923 1 1 0.998923
0.999103 1 1 0.999103
0.999717 1 1.00042 0.999296
0.999497 1 1 0.999497
0.999276 1 1 0.999276
0.999142 1 1 0.999142
0.999068 1 1 0.999068
0.999014 1 1 0.999014
0.999265 1 1 0.999265
0.999039 1 1 0.999039
0.999092 1 1 0.999092
0.999301 1 1.00024 0.999056
1.00167 1 1.00244 0.999227
0.999102 1 1.00009 0.999015
0.999091 1 1 0.999091
0.99929 1 1 0.99929
0.999166 1 1 0.999166
0.999141 1 1 0.999141
0.999171 1 1 0.999171
0.999119 1 1 0.999119
0.999132 1 1 0.999132
0.999087 1 1 0.999087
0.999098 1 1 0.999098
0.998902 1 1 0.998902
0.999446 1 1.00082 0.998628
0.998943 1 1 0.998943
0.999051 1 1 0.999051
0.999262 1 1 0.999262
0.999308 1 1 0.999308
0.999554 1 1 0.999554
0.999329 1 1 0.999329
0.999561 1 1 0.999561
0.999897 1 1 0.999897
0.99952 1 1 0.99952
0.999896 1 1 0.999896
1 1 1 1
0.999898 1 1 0.999898
1 1 1 1
1 1 1 1
1 1 1 1
1 1 1 1
1 1 1 1
0.999702 1 1 0.999702
0.999964 1 1 0.999964
0.999683 1 1 0.999683
1 1 1 1
0.999971 1 1 0.999971
0.999968 1 1 0.999968
1 1 1 1
1 1 1 1
1 1 1 1
1 1 1 1
1 1 1 1
0.883427 0.921439 0.971647 0.986724
0.885113 0.920244 0.975082 0.986404
0.967693 0.984479 0.987908 0.99498
1.01125 1.01871 0.994099 0.998565
1.02635 1.0338 0.994586 0.998196
0.967671 0.979595 0.991583 0.996213
1.0166 1.02321 0.995245 0.998287
0.958758 0.980382 0.989595 0.988226
0.868701 0.909997 0.967833 0.986347
0.816005 0.888903 0.933651 0.983228
0.990845 0.999204 0.994355 0.997264
0.955363 0.972414 0.994396 0.988002
0.847641 0.907016 0.947409 0.986415
0.881348 0.939874 0.951446 0.985584
0.999145 1 1 0.999145
0.999414 1 1 0.999414
0.999697 1 1 0.999697
0.999384 1 1 0.999384
0.99924 1 1 0.99924
0.999172 1 1 0.999172
0.999253 1 1 0.999253
0.999286 1 1 0.999286
0.999375 1 1 0.999375
0.999398 1 1 0.999398
1.01151 1.0265 0.987154 0.998229
1.00336 1.0176 0.987724 0.998257
1.00392 1.00683 0.998986 0.998123
1.00475 1.00084 1.00564 0.998274
1.01617 1 1.01787 0.998332
1.00462 1 1.00593 0.998691
0.999028 1 1 0.999028
0.99909 1 1 0.99909
1.00908 1.0243 0.986895 0.998231
0.998905 1 1 0.998905
1.00094 1 1.00216 0.998782
0.985962 1.00508 0.982712 0.99824
0.999062 1.00029 1.00037 0.998407
1.00768 1.00004 1.00934 0.998316
1.01487 1 1.0164 0.99849
1.0004 1.00591 0.996003 0.998516
0.989078 1 0.990189 0.998878
1.01316 1 1.01469 0.998486
0.999218 1 1.00033 0.998889
0.999613 1 1.00086 0.99875
1.00896 1 1.01037 0.9986
0.907791 0.930057 0.987062 0.988853
0.890815 0.930732 0.970163 0.986549
0.947092 0.976463 0.982021 0.987678
0.99882 1 1 0.99882
1.00405 1 1.00554 0.998515
0.987556 1.00771 0.981507 0.998466
1.00872 1 1.01054 0.998203
0.88241 0.926837 0.965176 0.986418
0.958233 0.975805 0.993563 0.988354
0.961767 0.974761 0.994265 0.992361
0.969135 0.986068 0.98375 0.999063
0.859134 0.907839 0.95978 0.986007
0.878089 0.917787 0.971132 0.985187
0.876616 0.943077 0.942681 0.986046
1.00166 1 1.00265 0.999012
0.903935 0.928002 0.986254 0.987642
0.962715 0.974921 0.996657 0.990792
0.991353 1.00038 0.991995 0.99897
1.01123 1.0002 1.01216 0.99888
0.989103 0.983789 1.00636 0.999052
0.952557 0.965225 0.993683 0.99315
0.951583 0.965786 0.998132 0.987139
0.882844 0.934427 0.957621 0.986608
0.903418 0.95788 0.95408 0.988536
1.00237 0.999757 1.00314 0.999478
0.96164 0.974841 0.993512 0.9929
0.953696 0.966421 0.993242 0.993547
1.00663 0.993603 1.0134 0.999715
0.969795 0.96891 1.00398 0.996944
0.957582 0.962645 1.00833 0.98652
0.917651 0.951949 0.976861 0.986805
0.919565 0.976834 0.952734 0.988076
0.999083 1 1 0.999083
0.999652 1 1.00036 0.999297
1.00599 1 1.00655 0.999438
0.999264 1 1 0.999264
0.999092 1 1 0.999092
0.999047 1 1 0.999047
0.999357 1 1.00028 0.999075
0.99909 1 1 0.99909
0.999044 1 1.00003 0.999013
1.00357 1 1.00431 0.99926
1.00742 0.998589 1.0094 0.999446
1.00244 1 1.00328 0.999163
0.999032 1 1 0.999032
0.99914 1 1 0.99914
0.999169 1 1 0.999169
0.999122 1 1 0.999122
0.999091 1 1 0.999091
0.999131 1 1 0.999131
0.999103 1 1 0.999103
0.999038 1 1 0.999038
0.999166 1 1 0.999166
0.998918 1 1 0.998918
0.998922 1 1 0.998922
0.999411 1 1.00069 0.998717
0.999812 1 1.0015 0.998311
0.998913 1 1.00004 0.998869
0.999396 1 1.0007 0.998702
0.998972 1 1 0.998972
0.999149 1 1 0.999149
0.999048 1 1 0.999048
0.99926 1 1 0.99926
0.999526 1 1 0.999526
0.999306 1 1 0.999306
0.999553 1 1 0.999553
0.999895 1 1 0.999895
0.999561 1 1 0.999561
0.999896 1 1 0.999896
1 1 1 1
0.999896 1 1 0.999896
1 1 1 1
1 1 1 1
1 1 1 1
1 1 1 1
1 1 1 1
0.9996 1 1 0.9996
0.999955 1 1 0.999955
0.999658 1 1 0.999658
1 1 1 1
0.999967 1 1 0.999967
0.999683 1 1 0.999683
1 1 1 1
1 1 1 1
0.999972 1 1 0.999972
1 1 1 1
1 1 1 1
1 1 1 1
0.908531 0.929451 0.98895 0.988414
0.885868 0.925899 0.970034 0.986321
0.961404 0.976698 0.993605 0.990676
0.876025 0.913348 0.972896 0.985857
0.964709 0.980826 0.989006 0.994501
1.01535 1.02304 0.994147 0.998324
0.961084 0.980906 0.990216 0.989474
0.869729 0.91352 0.965728 0.98585
0.808984 0.888611 0.927152 0.981924
0.987216 0.99747 0.993073 0.996623
0.956479 0.973686 0.995537 0.986732
0.856453 0.912826 0.952294 0.985246
0.878698 0.939825 0.949172 0.985026
0.975588 0.987968 0.99145 0.995984
0.962819 0.967607 1.00885 0.986325
0.882574 0.936392 0.95568 0.986237
0.909544 0.966433 0.952995 0.987556
0.999008 1 1 0.999008
0.999171 1 1 0.999171
0.999431 1 1 0.999431
0.999264 1 1 0.999264
0.999031 1 1 0.999031
0.999189 1 1 0.999189
0.999252 1 1 0.999252
0.999261 1 1 0.999261
0.99931 1 1 0.99931
0.999353 1 1 0.999353
1.00828 1.0251 0.985339 0.998232
0.988296 1.00465 0.985524 0.998172
0.999198 1 1.00067 0.998526
1.00923 1.00038 1.01063 0.998224
1.01309 1 1.01464 0.998467
1.00071 1 1.00195 0.998756
0.998895 1 1 0.998895
0.999031 1 1.00014 0.998889
0.995499 1.00616 0.990856 0.998531
0.999395 1 1.00063 0.998761
1.0093 1 1.01072 0.998594
0.987786 1.00003 0.988939 0.998803
1.01224 1.00019 1.01359 0.99847
0.969888 0.993358 0.97735 0.999001
1.00567 0.999552 1.00685 0.999277
1.01189 1 1.01323 0.998685
0.998999 1 1.00022 0.998776
1.00609 1 1.0075 0.9986
0.960682 0.970729 0.995666 0.993958
0.910886 0.929928 0.990427 0.988991
0.885019 0.927552 0.96662 0.987094
1.00223 1 1.00322 0.999017
1.01055 0.999347 1.01237 0.998862
0.991575 1 0.992543 0.999025
0.913333 0.93323 0.990288 0.988277
0.960382 0.965556 1.00842 0.986334
0.955486 0.966571 0.994128 0.994371
0.980783 0.981724 1.00021 0.998828
0.884126 0.933583 0.960686 0.98578
0.965703 0.97716 0.997512 0.99074
0.901083 0.956387 0.953027 0.988613
1.00223 0.999534 1.00324 0.999461
0.960533 0.973186 0.993476 0.993479
0.956853 0.969299 0.99356 0.993559
1.00766 0.994959 1.0132 0.99957
0.971162 0.970149 1.00455 0.996507
0.953202 0.96325 1.0038 0.985823
0.921645 0.97921 0.951918 0.988753
0.909763 0.947653 0.973239 0.986415
1.00413 0.995696 1.00876 0.999711
0.949152 0.965636 0.986065 0.99682
0.964319 0.979659 0.9902 0.994083
0.911791 0.967675 0.954095 0.987584
0.993524 0.979736 1.01493 0.999159
0.971847 0.970573 1.01442 0.987081
0.908716 0.936832 0.98298 0.986783
0.999564 1 1.00027 0.999297
1.00496 1 1.00557 0.99939
1.01061 0.998782 1.01229 0.999566
0.999089 1 1 0.999089
0.99901 1 1 0.99901
1.00596 1 1.00668 0.999293
0.99904 1 1 0.99904
1.00251 1 1.00335 0.999166
1.00929 0.998904 1.01099 0.999421
1.00373 0.999184 1.00506 0.999489
1.00185 1 1.00269 0.999161
0.999096 1 1 0.999096
0.999129 1 1 0.999129
0.999108 1 1 0.999108
0.999156 1 1 0.999156
0.999046 1 1 0.999046
0.999441 1 1.00032 0.999116
0.999005 1 1 0.999005
1.00109 1 1.00259 0.998507
0.998943 1 1 0.998943
0.999256 1 1.00056 0.998694
0.99917 1 1.00101 0.998159
0.999541 1 1.00128 0.99826
0.999827 1 1.00111 0.998719
0.999664 1 1.00134 0.998329
0.999053 1 1 0.999053
0.998928 1 1.00008 0.998844
0.999295 1 1.00052 0.998776
0.999001 1 1 0.999001
0.999175 1 1 0.999175
0.999472 1 1 0.999472
0.999259 1 1 0.999259
0.999525 1 1 0.999525
0.999886 1 1 0.999886
0.999552 1 1 0.999552
0.999893 1 1 0.999893
1 1 1 1
0.999896 1 1 0.999896
1 1 1 1
1 1 1 1
1 1 1 1
1 1 1 1
1 1 1 1
0.999471 1 1 0.999471
0.999874 1 1 0.999874
0.999599 1 1 0.999599
1 1 1 1
0.999929 1 1 0.999929
0.999615 1 1 0.999615
1 1 1 1
1 1 1 1
0.999969 1 1 0.999969
1 1 1 1
1 1 1 1
1 1 1 1
0.958537 0.971479 0.993142 0.993491
0.897984 0.927369 0.979938 0.988137
0.887103 0.92345 0.97415 0.986133
0.999185 1 1 0.999185
0.950988 0.96466 0.991641 0.994138
0.964965 0.977409 0.996603 0.990634
0.870672 0.913702 0.966705 0.985726
0.987549 0.997972 0.993657 0.995872
0.960296 0.974509 0.997587 0.987799
0.862737 0.922638 0.948629 0.985714
0.871141 0.934402 0.946548 0.984945
0.977313 0.989287 0.993791 0.994069
0.950095 0.961604 1.00088 0.987166
0.89081 0.938859 0.962261 0.986035
0.907532 0.964038 0.953534 0.98726
0.96238 0.97365 0.995759 0.992635
0.961443 0.959436 1.0169 0.98544
0.910632 0.950381 0.971683 0.986099
0.917433 0.974639 0.952671 0.98807
0.998911 1 1.00003 0.998877
0.99904 1 1.00005 0.998992
0.999196 1 1 0.999196
0.999028 1 1 0.999028
0.999061 1 1 0.999061
0.999207 1 1 0.999207
0.999268 1 1 0.999268
0.999335 1 1 0.999335
0.990092 1.00576 0.985857 0.998544
0.985795 1 0.98705 0.998728
0.998889 1 1 0.998889
1.01064 1.00008 1.01213 0.998453
1.00958 1 1.01101 0.998589
0.99951 1 1.00074 0.998772
0.99909 1 1.00031 0.998784
0.974923 0.995274 0.980513 0.99902
1.00629 1 1.00767 0.998625
1.01016 1 1.01149 0.998687
0.999755 0.999587 1.00087 0.999301
0.999677 1 1.00086 0.998814
0.967296 0.986984 0.980678 0.999363
1.01063 0.997637 1.01358 0.999454
1.01368 1 1.01495 0.998756
1.00146 1 1.00272 0.998745
0.960291 0.967705 0.995002 0.997323
0.960398 0.970034 0.995994 0.994048
0.915077 0.93017 0.994582 0.989134
1.0019 0.999292 1.00317 0.999446
1.00988 0.996387 1.01412 0.999429
0.960198 0.97188 0.993888 0.994055
0.964425 0.96284 1.01491 0.986935
0.966914 0.967517 1.005 0.994401
0.913849 0.950469 0.97548 0.985639
0.958594 0.970988 0.993624 0.993571
0.924682 0.982908 0.950813 0.989428
1.00496 0.996672 1.00864 0.999677
0.949115 0.965155 0.986505 0.996833
0.962255 0.977648 0.989364 0.994837
1.00224 0.986516 1.01607 0.999871
0.909126 0.965677 0.953578 0.98727
0.963818 0.964887 1.01237 0.98669
0.918983 0.951011 0.980198 0.985844
1.00816 0.993906 1.01458 0.999771
0.960608 0.977372 0.98537 0.997441
0.95179 0.965914 0.991159 0.994167
0.881799 0.942242 0.949483 0.985644
0.910781 0.952529 0.969892 0.985854
0.978255 0.974422 1.00519 0.998752
0.97344 0.963115 1.0259 0.9852
1.00342 1 1.00408 0.999342
1.00967 0.998068 1.01208 0.999548
1.00308 0.988121 1.01557 0.999582
0.999048 1 1 0.999048
1.00207 1 1.0029 0.999169
1.0107 0.999691 1.01163 0.999396
1.00039 1 1.00124 0.999153
1.00354 0.999179 1.00488 0.999488
1.00641 0.998388 1.00876 0.999284
0.999146 1 1 0.999146
0.999055 1 1 0.999055
1.00008 1 1.00099 0.999086
1.00652 1 1.00787 0.998664
0.999091 1 1 0.999091
1.00057 1 1.00198 0.998586
1.00217 1 1.00413 0.998053
1.00011 1.00044 1.00188 0.997788
0.999073 1 1.0004 0.998669
0.999191 1 1.00109 0.998098
0.998877 1 1.00053 0.998353
1.00072 1 1.00216 0.998559
0.999542 1 1.00124 0.998308
0.99966 1 1.00072 0.99894
0.999748 1 1.00104 0.998713
0.99958 1 1.00123 0.998347
0.999379 1 1 0.999379
0.999046 1 1 0.999046
0.998987 1 1.00017 0.998819
0.999202 1 1 0.999202
0.99947 1 1 0.99947
0.999867 1 1 0.999867
0.999524 1 1 0.999524
0.999884 1 1 0.999884
1 1 1 1
0.999892 1 1 0.999892
1 1 1 1
1 1 1 1
1 1 1 1
1 1 1 1
1 1 1 1
0.99942 1 1 0.99942
0.99982 1 1 0.99982
0.999496 1 1 0.999496
1 1 1 1
0.99987 1 1 0.99987
0.999597 1 1 0.999597
1 1 1 1
1 1 1 1
0.999903 1 1 0.999903
1 1 1 1
1 1 1 1
1 1 1 1
0.950471 0.964797 0.988279 0.996835
0.959044 0.971988 0.993146 0.993492
0.898034 0.928472 0.978757 0.988209
0.999198 1 1 0.999198
0.999159 1 1 0.999159
0.999061 1 1 0.999061
0.962137 0.978412 0.989248 0.994055
0.952598 0.964627 0.993332 0.994159
0.968677 0.978134 0.999737 0.990592
0.983541 0.990001 0.997958 0.995507
0.950705 0.962442 1.00147 0.98636
0.882276 0.929866 0.962465 0.985823
0.912923 0.968316 0.955076 0.987141
0.962111 0.971616 0.9959 0.994293
0.956335 0.959117 1.01082 0.986423
0.904812 0.939969 0.975039 0.98724
0.919319 0.977569 0.951124 0.988739
0.949607 0.962373 0.993331 0.99336
0.974214 0.968319 1.01966 0.986685
0.909247 0.935371 0.984968 0.986906
0.91119 0.964322 0.955838 0.988559
0.998869 1 1 0.998869
0.99899 1 1.00012 0.998875
0.999061 1 1.00009 0.998976
0.999025 1 1 0.999025
0.999092 1 1 0.999092
0.999274 1 1 0.999274
0.981584 0.997921 0.98458 0.999034
0.99466 0.999626 0.995705 0.999324
0.999023 1 1.00023 0.998792
1.0093 1 1.01062 0.998689
1.00684 1 1.0082 0.99865
0.999561 1 1.00077 0.998793
1.00142 1 1.00267 0.998755
0.979317 0.990784 0.989045 0.999374
1.01388 1 1.01505 0.998843
1.00614 0.993498 1.01326 0.99948
0.999605 1 1.00074 0.998867
0.994631 0.980583 1.01473 0.999606
0.995604 0.989452 1.00669 0.999535
1.01058 1 1.01162 0.998971
0.975305 0.980962 0.996152 0.998075
0.95929 0.96722 0.994252 0.997535
0.960198 0.969227 0.996529 0.994135
1.00645 0.998053 1.00877 0.999643
0.997761 0.988834 1.00952 0.999508
0.949344 0.964934 0.986956 0.996846
0.966281 0.961375 1.01537 0.989887
0.919975 0.948114 0.983081 0.987021
0.961484 0.97581 0.989682 0.995591
0.914264 0.969263 0.955511 0.987175
1.00713 0.994072 1.01335 0.999788
0.960142 0.977384 0.984684 0.997639
0.953778 0.96601 0.993109 0.994188
0.977126 0.970938 1.01009 0.996319
0.877907 0.940788 0.947261 0.985115
0.902916 0.943435 0.969657 0.987001
0.983474 0.969353 1.02841 0.986543
1.00414 0.978083 1.0269 0.999744
0.951264 0.965503 0.98834 0.996876
0.96224 0.977915 0.993144 0.990764
0.823909 0.890208 0.939899 0.984707
0.884841 0.93868 0.955767 0.98627
0.973912 0.9695 1.01833 0.986472
0.952888 0.965308 0.992017 0.995077
1.00928 0.997355 1.01243 0.999529
1.00755 0.99235 1.01573 0.999586
1.01859 0.997389 1.02174 0.999529
0.999145 1 1 0.999145
1.00362 0.998937 1.00521 0.999487
1.00725 0.998937 1.00898 0.999343
1.01734 1 1.01845 0.998907
1.00066 1 1.0016 0.999057
1.00682 1 1.00825 0.998578
1.01457 1 1.01666 0.997939
1.00011 1 1.00145 0.998667
1.00304 1 1.00503 0.998024
1.00408 1.00077 1.00581 0.997506
1.00152 1.00221 1.00191 0.997409
0.999152 1 1.00108 0.998077
1.00014 1.0005 1.00189 0.997759
0.999262 1 1.00123 0.998038
0.999613 1 1.0011 0.998517
0.998911 1 1.00048 0.998432
1.00065 1 1.00192 0.998734
1.00075 1 1.00216 0.998591
0.999508 1 1.00115 0.998356
0.999238 1 1.00001 0.999229
0.999562 1 1.00062 0.998942
0.999645 1 1.00094 0.998707
0.999824 1 1 0.999824
0.999378 1 1 0.999378
0.999038 1 1 0.999038
0.999468 1 1 0.999468
0.999863 1 1 0.999863
1 1 1 1
0.999881 1 1 0.999881
1 1 1 1
1 1 1 1
1 1 1 1
1 1 1 1
1 1 1 1
0.999416 1 1 0.999416
0.999833 1 1 0.999833
0.999436 1 1 0.999436
1 1 1 1
0.999848 1 1 0.999848
0.999521 1 1 0.999521
1 1 1 1
1 1 1 1
0.999865 1 1 0.999865
1 1 1 1
1 1 1 1
1 1 1 1
0.959584 0.976733 0.984981 0.997422
0.949658 0.965173 0.987035 0.99685
0.958462 0.972436 0.992077 0.993501
0.999141 1 1 0.999141
0.999034 1 1 0.999034
0.999211 1 1 0.999211
0.999157 1 1 0.999157
0.999044 1 1 0.999044
0.999055 1 1 0.999055
0.998959 1 1 0.998959
0.95261 0.966109 0.992487 0.993491
0.960584 0.976059 0.989277 0.994813
0.953097 0.9645 0.99396 0.994181
0.922442 0.981569 0.949822 0.989409
0.951351 0.962343 0.995749 0.992798
0.961331 0.961614 1.01234 0.987524
0.909525 0.939333 0.981946 0.98607
0.946855 0.962012 0.991481 0.992701
0.963545 0.961676 1.01615 0.986024
0.921297 0.952298 0.980948 0.986237
0.90288 0.957491 0.953966 0.988467
0.946139 0.961843 0.989262 0.99435
0.967279 0.965847 1.01602 0.985696
0.919761 0.953767 0.977138 0.986907
0.88159 0.944491 0.946173 0.986503
0.998988 1 1.00005 0.998938
0.998898 1 1.00003 0.998869
0.998994 1 1.00012 0.998872
0.999021 1 1 0.999021
0.988674 0.993831 0.995423 0.999386
1.00102 0.990055 1.01157 0.999505
0.998779 1 1.00001 0.998771
1.00115 1 1.00239 0.998764
1.01253 1 1.01361 0.998931
0.99925 1 1.00039 0.998862
1.01139 1 1.01245 0.998957
0.990669 0.978894 1.01298 0.999064
0.997492 0.990356 1.00757 0.999639
1.00463 0.999903 1.00569 0.999046
0.995004 0.976068 1.02042 0.998995
1.01097 0.995148 1.0166 0.999314
0.96048 0.968046 0.994817 0.997354
0.97126 0.979108 0.993704 0.998269
0.958513 0.966836 0.993632 0.997746
1.00511 0.993175 1.01221 0.999805
0.979208 0.971593 1.00903 0.99882
0.959218 0.977101 0.983825 0.997839
0.97345 0.96528 1.02333 0.985469
0.907466 0.941557 0.977679 0.985796
0.954447 0.966081 0.993711 0.99421
0.870953 0.934672 0.945985 0.985035
1.00858 0.980324 1.02904 0.999787
0.950094 0.965648 0.98696 0.996891
0.965466 0.978676 0.995744 0.99072
0.956265 0.96648 0.992308 0.997101
0.816367 0.889007 0.933776 0.983417
0.88884 0.9384 0.960657 0.985977
0.971942 0.965098 1.02091 0.986468
0.999319 0.981299 1.01912 0.999259
0.958725 0.972274 0.99243 0.993586
0.885979 0.921146 0.974901 0.986585
0.849947 0.907567 0.949214 0.986618
0.958107 0.957878 1.01368 0.986742
0.94016 0.960961 0.984848 0.993406
1.01112 0.99606 1.01554 0.99959
1.01874 0.995668 1.02366 0.999522
1.01347 1 1.01411 0.999369
1.00798 0.999445 1.00914 0.999402
1.01691 0.999375 1.01859 0.998973
1.01053 1.00047 1.01185 0.998224
1.0073 1 1.00882 0.998492
1.01365 1 1.01579 0.997891
1.00793 1.00017 1.01033 0.997456
1.00387 1 1.00589 0.997995
1.00394 1.0004 1.0061 0.997454
1.00337 1.00205 1.00407 0.997262
1.00279 1.00538 1 0.997425
1.00239 1.00404 1.00077 0.997592
1.00204 1.00251 1.00218 0.997358
0.998419 1 1.00013 0.998293
0.998865 1 1.00074 0.998124
1.0002 1.00058 1.0019 0.997729
0.999661 1 1.00112 0.998548
0.999592 1 1.00108 0.99851
0.998937 1 1.00043 0.998511
0.99958 1 1.00056 0.99902
1.00047 1 1.00171 0.998766
1.00075 1 1.00213 0.998623
0.999718 1 1 0.999718
0.999271 1 1.00004 0.99923
0.999451 1 1.00051 0.998945
1 1 1 1
0.999818 1 1 0.999818
0.999376 1 1 0.999376
0.999859 1 1 0.999859
1 1 1 1
1 1 1 1
1 1 1 1
1 1 1 1
1 1 1 1
0.999135 1 1 0.999135
0.999374 1 1 0.999374
0.999796 1 1 0.999796
0.999415 1 1 0.999415
1 1 1 1
0.999837 1 1 0.999837
0.999453 1 1 0.999453
1 1 1 1
1 1 1 1
0.999876 1 1 0.999876
1 1 1 1
1 1 1 1
1 1 1 1
0.948959 0.965823 0.985677 0.996817
0.95941 0.976944 0.984392 0.997624
0.948785 0.965568 0.985709 0.996864
0.99915 1 1 0.99915
0.99902 1 1 0.99902
0.998955 1 1 0.998955
0.999022 1 1 0.999022
0.998937 1 1 0.998937
0.999155 1 1 0.999155
0.999027 1 1 0.999027
0.999055 1 1 0.999055
0.998958 1 1 0.998958
0.999004 1 1 0.999003
0.958094 0.971067 0.995877 0.990726
0.955472 0.968756 0.992731 0.993509
0.959955 0.97388 0.990088 0.99557
0.900368 0.956286 0.952426 0.988555
0.919873 0.946447 0.984548 0.987176
0.939831 0.957924 0.98916 0.991864
0.971582 0.96892 1.01646 0.986505
0.94785 0.963354 0.991353 0.992488
0.978548 0.974093 1.0184 0.986421
0.911149 0.948352 0.973713 0.986709
0.882555 0.946196 0.946049 0.985933
0.967202 0.971108 1.00235 0.993645
0.967577 0.967028 1.01391 0.986842
0.873726 0.92605 0.957253 0.98563
0.842691 0.914072 0.936439 0.984484
1.00021 1 1.00094 0.999271
0.999778 1 1.00084 0.99894
0.999318 1 1.00045 0.998868
0.98812 0.977174 1.0127 0.998517
0.999107 0.99025 1.0092 0.999748
0.999448 1 1.00059 0.998857
1.01279 1 1.01386 0.998943
1.00519 0.99995 1.00619 0.999053
1.01161 0.996533 1.01583 0.999305
0.992453 0.973703 1.02024 0.999032
1.01046 0.999738 1.01138 0.999351
0.997201 0.983489 1.01514 0.998816
0.962446 0.972393 0.995858 0.993887
0.959343 0.967354 0.994142 0.997563
0.966874 0.977122 0.991036 0.998463
1.01377 0.983167 1.03131 0.999826
0.956584 0.968373 0.993518 0.994271
0.949094 0.96581 0.985742 0.996906
0.970391 0.968957 1.0171 0.984639
0.883416 0.930608 0.962964 0.985799
0.969188 0.979389 0.998895 0.990678
0.811187 0.889678 0.928374 0.982121
0.997719 0.979522 1.01924 0.999351
0.96029 0.973327 0.992974 0.993587
0.876919 0.914286 0.972708 0.986041
0.942194 0.963343 0.983553 0.994402
0.858745 0.913521 0.953935 0.985431
0.948305 0.956109 1.00619 0.985733
0.976369 0.981357 0.996323 0.99859
0.908843 0.929973 0.988561 0.988586
0.857258 0.90525 0.960589 0.985837
0.961831 0.968153 1.00716 0.986412
0.945901 0.961447 0.989084 0.994688
1.01853 0.99445 1.02471 0.999515
1.01489 0.999162 1.01641 0.999345
0.993664 1.00057 0.994269 0.998817
1.01615 0.998669 1.01848 0.999039
1.01107 1.00064 1.01213 0.998312
1.00237 1.00178 1.00272 0.997873
1.01248 1 1.01467 0.997842
1.00665 1.00031 1.00889 0.997469
0.99943 1.00147 1.00041 0.997555
1.00366 1 1.00627 0.997402
1.00359 1.00299 1.00333 0.99728
1.00498 1.00743 1 0.99757
1.00956 1.01189 1 0.997706
1.00563 1.00818 1.00002 0.997461
1.00262 1.0052 1 0.997439
1 1.00213 1 0.997871
1.00127 1.00266 1.00107 0.997547
1.00253 1.00279 1.00244 0.997307
0.998445 1 1 0.998445
0.998375 1 1.00002 0.998351
0.998488 1 1.00032 0.998171
0.999392 1 1.00058 0.998816
0.999788 1 1.00122 0.998566
0.999597 1 1.0011 0.998503
0.999523 1 1 0.999523
0.999579 1 1.00056 0.999021
1.00033 1 1.00153 0.998798
1 1 1 1
0.999713 1 1 0.999713
0.99932 1 1.00009 0.999231
1 1 1 1
1 1 1 1
0.999812 1 1 0.999812
1 1 1 1
1 1 1 1
1 1 1 1
0.999057 1 1 0.999057
0.999322 1 1 0.999322
0.999124 1 1 0.999124
0.999767 1 1 0.999767
0.999374 1 1 0.999374
1 1 1 1
0.999799 1 1 0.999799
0.999414 1 1 0.999414
1 1 1 1
1 1 1 1
0.99984 1 1 0.99984
1 1 1 1
1 1 1 1
1 1 1 1
0.960696 0.974704 0.991458 0.99412
0.948785 0.965211 0.986105 0.996832
0.959102 0.976949 0.983872 0.997825
0.998951 1 1 0.998951
0.999159 1 1 0.999159
0.999006 1 1 0.999006
0.999036 1 1 0.999036
0.99897 1 1 0.99897
0.998934 1 1 0.998934
0.998862 1 1.00001 0.998853
0.998969 1 1.00006 0.998914
0.999056 1 1 0.999056
0.998956 1 1 0.998956
0.999053 1 1.00006 0.998995
0.999237 1 1.00015 0.999092
0.878618 0.91764 0.971457 0.985608
0.96104 0.973654 0.99634 0.99067
0.957105 0.969889 0.993248 0.993527
0.877487 0.943423 0.94347 0.985838
0.918363 0.954844 0.975283 0.986169
0.967271 0.96498 1.01687 0.985747
0.950376 0.962747 0.993764 0.993344
0.967102 0.969435 1.00238 0.995222
0.827462 0.902735 0.932229 0.983253
0.966714 0.964822 1.01661 0.985593
0.880165 0.933938 0.955446 0.98637
0.958254 0.968914 0.993375 0.995593
0.958364 0.959306 1.01175 0.987411
0.85461 0.912689 0.949526 0.986139
1.00002 1 1.00041 0.999617
0.999914 1 1.00064 0.999272
1.00038 1 1.00144 0.998942
0.991976 0.973761 1.01966 0.999061
1.0133 0.998958 1.01507 0.999295
1.00562 1 1.00656 0.999059
1.01004 0.999952 1.01075 0.99935
0.997019 0.984784 1.01358 0.998862
1.00251 0.99403 1.00939 0.999157
0.908187 0.930959 0.987724 0.987665
0.961521 0.971657 0.994872 0.994669
0.958235 0.966617 0.993542 0.997771
0.996874 0.977776 1.0201 0.999441
0.940487 0.96515 0.979224 0.995121
0.960289 0.974208 0.992068 0.993593
0.956341 0.957872 1.01109 0.987449
0.867605 0.925523 0.950814 0.985915
0.870423 0.914062 0.965866 0.985911
0.976347 0.981788 0.995808 0.998645
0.898057 0.92769 0.979511 0.988306
0.871612 0.910981 0.969815 0.986563
0.946298 0.9602 0.992695 0.992774
0.950501 0.964393 0.998378 0.987196
0.966088 0.98826 0.97836 0.999187
0.884141 0.92245 0.97121 0.986883
0.957891 0.974686 0.994943 0.987764
0.959504 0.973935 0.992557 0.992571
1.01697 0.998109 1.01959 0.999322
0.989851 1.0003 0.990637 0.998908
0.982457 1.00238 0.981634 0.99846
1.01207 1.0009 1.01278 0.9984
1.00322 1.00221 1.00315 0.997864
1.00067 1.00321 0.999428 0.99804
1.00565 1.00049 1.0077 0.997482
0.999547 1.00108 1.0009 0.99757
1.00845 1.01047 1 0.998004
1.00388 1.00395 1.00265 0.997297
1.00481 1.00725 1 0.997576
1.01226 1.01425 1 0.998039
1.01527 1.01727 1 0.998031
1.01007 1.01244 1 0.997654
1.00932 1.01162 1 0.997728
1.00428 1.00662 1 0.997677
1.00503 1.00755 1 0.9975
1.00242 1.00498 1 0.997453
0.998577 1.00037 1 0.99821
1.00053 1.00251 1.00014 0.997888
1.00032 1.00134 1.00148 0.997501
0.998665 1 1 0.998665
0.99844 1 1 0.99844
0.998408 1 1 0.998408
0.999294 1 1 0.999294
0.999304 1 1.00049 0.998818
0.99989 1 1.00131 0.998585
0.999991 1 1 0.999991
0.999519 1 1 0.999519
0.999514 1 1.00049 0.999022
1 1 1 1
0.999999 1 1 0.999999
0.999707 1 1 0.999707
1 1 1 1
1 1 1 1
1 1 1 1
0.999028 1 1 0.999028
0.999058 1 1 0.999058
0.99925 1 1 0.99925
0.999736 1 1 0.999736
0.999322 1 1 0.999322
0.999112 1 1 0.999112
0.999999 1 1 0.999999
0.999769 1 1 0.999769
0.999373 1 1 0.999373
1 1 1 1
1 1 1 1
0.999802 1 1 0.999802
1 1 1 1
1 1 1 1
1 1 1 1
0.901552 0.924081 0.988143 0.987326
0.96039 0.973411 0.992446 0.994132
0.949023 0.965034 0.986519 0.996847
0.998938 1 1 0.998938
0.998887 1 1 0.998887
0.998865 1 1 0.998865
0.99905 1 1 0.99905
0.998985 1 1 0.998985
0.998932 1 1 0.998932
0.998946 1 1.00004 0.998911
0.998891 1 1.00004 0.998854
0.99887 1 1.0001 0.998772
0.999114 1 1 0.999114
0.998987 1 1 0.998987
0.999084 1 1 0.999083
0.869001 0.90895 0.969386 0.986242
0.874025 0.912117 0.97276 0.98507
0.964725 0.97691 0.996878 0.99062
0.811937 0.889083 0.929955 0.982015
0.881151 0.931313 0.959959 0.985602
0.970214 0.968292 1.01425 0.987905
0.967224 0.96641 1.00748 0.993411
0.956297 0.966498 0.995447 0.993971
0.854862 0.906088 0.957669 0.985167
0.950603 0.956643 1.00652 0.987245
0.955429 0.968193 0.992289 0.994485
0.950245 0.966802 0.996082 0.98674
1.00727 1 1.00819 0.999092
0.999833 1 1.00027 0.999567
0.999367 1 1.00009 0.999274
0.993886 0.983106 1.01207 0.998906
1.00948 1 1.01013 0.999349
1.00291 0.994732 1.00918 0.999053
0.994834 0.998341 0.998128 0.998356
0.882343 0.932166 0.959031 0.986987
0.911819 0.931054 0.990857 0.988377
0.961635 0.971234 0.994646 0.995446
0.974906 0.982518 0.993518 0.998726
0.946154 0.960094 0.991791 0.993637
0.898545 0.92889 0.978711 0.988374
0.949056 0.961579 1.0005 0.98648
0.874062 0.916548 0.967143 0.986043
0.969658 0.989132 0.981516 0.998773
0.88754 0.927123 0.970445 0.986461
0.959614 0.976382 0.996082 0.986692
0.964069 0.973883 0.995724 0.994174
0.982907 0.996346 0.987504 0.998995
0.957407 0.979669 0.990314 0.986835
0.97302 0.987537 0.990038 0.995214
0.985958 1 0.986946 0.998999
0.983404 1.00302 0.981981 0.998438
0.984116 1.00589 0.979974 0.998342
1.00366 1.00255 1.00326 0.997856
1.00006 1.00339 0.998648 0.998034
1.01069 1.01508 0.997227 0.998445
0.999526 1.00062 1.00132 0.997584
1.00826 1.01029 1 0.997997
1.01709 1.01879 0.999927 0.998403
1.00452 1.00695 1 0.997581
1.01175 1.01374 1 0.998039
1.01628 1.01799 1 0.998327
1.0139 1.0157 1 0.998226
1.01512 1.01708 1 0.998069
1.01446 1.01655 1 0.997943
1.01 1.01228 1 0.997742
1.01077 1.01314 1 0.997658
1.00909 1.01136 1 0.997751
1.00012 1.00219 1 0.997937
1.00487 1.00717 1 0.997713
1.00443 1.0069 1 0.997539
0.998489 1 1 0.998489
0.998953 1.00075 1 0.998203
1.00092 1.00285 1.00017 0.997904
0.999122 1 1 0.999122
0.998664 1 1 0.998664
0.998435 1 1 0.998435
0.999948 1 1 0.999948
0.999294 1 1 0.999294
0.999262 1 1.00044 0.998821
1 1 1 1
0.999982 1 1 0.999982
0.999515 1 1 0.999515
1 1 1 1
0.999997 1 1 0.999997
1 1 1 1
0.998958 1 1 0.998958
0.999017 1 1 0.999017
0.999172 1 1 0.999172
0.999059 1 1 0.999059
0.99925 1 1 0.99925
0.999682 1 1 0.999682
0.999997 1 1 0.999997
0.999738 1 1 0.999738
0.999322 1 1 0.999322
1 1 1 1
0.999999 1 1 0.999999
0.999772 1 1 0.999772
1 1 1 1
1 1 1 1
1 1 1 1
0.892178 0.926363 0.976252 0.986526
0.902713 0.927215 0.986383 0.987015
0.959617 0.971706 0.993378 0.994143
0.998925 1 1 0.998925
0.99884 1 1 0.99884
0.998917 1 1 0.998917
0.998713 1 1 0.998713
0.998797 1 1 0.998797
0.998909 1 1 0.998908
0.9989 1 1.00005 0.998854
0.998831 1 1.00004 0.998794
0.998672 1 1 0.998672
0.998941 1 1 0.998941
0.998844 1.00034 1.00026 0.998252
0.999438 1 1.00028 0.999159
0.999075 1 1 0.999075
0.954706 0.976631 0.991024 0.986403
0.872732 0.908773 0.973847 0.98613
0.875566 0.915159 0.971346 0.98496
0.854116 0.906508 0.955989 0.98558
0.955131 0.958782 1.01086 0.985495
0.958956 0.965971 0.997002 0.995723
0.956668 0.968588 0.992124 0.995535
0.954261 0.968047 0.998001 0.987733
0.973441 0.989954 0.988723 0.994534
1.0015 1.00132 1.00189 0.998293
1.00573 1 1.00666 0.999073
0.999516 1 1 0.999516
1.00343 0.996462 1.00804 0.998963
0.998168 1.00055 0.999371 0.998251
0.943367 0.974577 0.980056 0.987674
0.890379 0.931793 0.96847 0.986664
0.91611 0.931506 0.994313 0.989097
0.972822 0.989862 0.984416 0.998344
0.958234 0.968362 0.996863 0.992655
0.888557 0.925345 0.973638 0.986244
0.9589 0.973763 0.997057 0.987643
0.981709 0.996272 0.986369 0.999
0.95963 0.981885 0.989184 0.988021
0.974507 0.98833 0.992395 0.993569
1.00016 1.00532 0.996388 0.998476
0.985276 0.996631 0.991871 0.996709
0.984374 1.00377 0.982231 0.99842
0.986111 1.0055 0.982394 0.998295
1.0047 1.02298 0.983677 0.998429
0.999724 1.00358 0.998123 0.998029
1.00982 1.01429 0.997147 0.998435
1.01714 1.02333 0.995346 0.998594
1.00814 1.01017 1 0.99799
1.01699 1.01893 0.999709 0.998388
1.01794 1.01998 0.999507 0.99849
1.01137 1.01336 1 0.998039
1.01657 1.01829 0.999999 0.998313
1.01415 1.01585 1 0.998334
1.01458 1.01634 1 0.998264
1.01363 1.01557 1 0.998091
1.01497 1.0169 1 0.998107
1.01422 1.01632 1 0.997937
1.01177 1.01393 1 0.997871
1.00466 1.00681 1 0.997866
1.00975 1.01204 1 0.997734
1.01143 1.0138 1 0.997662
0.998622 1.00033 1 0.998292
1.00051 1.00255 1 0.997959
1.00546 1.00773 1 0.997748
0.998981 1 1 0.998981
0.998486 1 1 0.998484
0.999332 1.00114 1 0.998197
0.999863 1 1 0.999863
0.999123 1 1 0.999123
0.998663 1 1 0.998663
1 1 1 1
0.99993 1 1 0.99993
0.999294 1 1 0.999294
1 1 1 1
0.999972 1 1 0.999972
1 1 1 1
0.99873 1 1 0.99873
0.998958 1 1 0.998958
0.999052 1 1 0.999052
0.999006 1 1 0.999006
0.999153 1 1 0.999153
0.999577 1 1 0.999577
0.99925 1 1 0.99925
0.999684 1 1 0.999684
0.999994 1 1 0.999994
1 1 1 1
0.999997 1 1 0.999997
0.99974 1 1 0.99974
1 1 1 1
0.999999 1 1 0.999999
1 1 1 1
0.959163 0.980705 0.989735 0.988177
0.884857 0.9284 0.965676 0.986976
0.912036 0.932702 0.990772 0.98695
0.998814 1 1 0.998814
0.998947 1 1 0.998947
0.998808 1 1 0.998808
0.998724 1 1 0.998724
0.998667 1.0002 1.00002 0.998443
0.998725 1 1 0.998725
0.998815 1 1 0.998815
0.998597 1 1 0.998597
0.999178 1 1.00027 0.998905
0.998503 1 1 0.998503
1.00051 1.00213 1 0.998383
0.998514 1.00129 0.999409 0.997819
0.999209 1.00081 1.00006 0.998347
0.999749 1 1.00055 0.999204
0.971424 0.989 0.987456 0.994706
0.956618 0.976993 0.991785 0.987256
0.86724 0.909555 0.966998 0.986017
0.965969 0.974238 1.00511 0.986468
0.954658 0.968066 0.989769 0.996344
0.97793 0.991351 0.99 0.996426
0.993888 1.00391 0.991605 0.998396
0.999155 1.00067 1.00012 0.998363
1.00468 1 1.00563 0.999053
0.997665 1.00112 0.998415 0.99813
0.971986 0.983896 0.993212 0.994647
0.952746 0.976425 0.986819 0.988782
0.883328 0.927958 0.964266 0.987181
0.982303 0.997791 0.985462 0.999002
0.980446 0.990581 0.99495 0.994793
0.962201 0.982501 0.989999 0.989231
0.994042 1.00464 0.990949 0.998486
0.983302 0.995195 0.991912 0.996106
1.00311 1.02234 0.98292 0.998235
1.0064 1.01468 0.993795 0.998033
0.987765 1.0049 0.984675 0.998247
1.00517 1.0227 0.984419 0.99842
1.00849 1.02735 0.983164 0.998449
1.00906 1.01376 0.996939 0.998425
1.01683 1.02298 0.995396 0.998581
1.01375 1.01995 0.995483 0.998428
1.01681 1.01901 0.999467 0.998373
1.01756 1.0198 0.999321 0.998476
1.01566 1.01789 0.999528 0.998283
1.01682 1.01857 0.999983 0.998298
1.01386 1.01556 0.999992 0.998334
1.01379 1.01571 1 0.998105
1.01525 1.01697 1 0.998302
1.01339 1.0153 1 0.99812
1.01247 1.01457 1 0.99793
1.01403 1.01613 1 0.997931
1.01171 1.01388 1 0.997864
1.00659 1.00868 1 0.997928
0.999273 1.00114 1 0.998138
1.00444 1.00657 1 0.997886
1.00954 1.01184 1 0.997726
0.998819 1 1 0.998819
0.998795 1.0005 1 0.998292
1.0009 1.00292 1 0.997981
0.999755 1 1 0.999755
0.998979 1 1 0.998979
0.998499 1.00002 1 0.99848
1 1 1 1
0.999848 1 1 0.999848
0.999124 1 1 0.999124
1 1 1 1
0.999913 1 1 0.999913
1 1 1 1
0.999546 1.00106 1 0.998486
0.998742 1 1 0.998742
0.998889 1 1 0.998889
0.998957 1 1 0.998957
0.999035 1 1 0.999035
0.99943 1 1 0.99943
0.999133 1 1 0.999133
0.999578 1 1 0.999578
0.999985 1 1 0.999985
0.999686 1 1 0.999686
0.999995 1 1 0.999995
1 1 1 1
1 1 1 1
0.999998 1 1 0.999998
1 1 1 1
0.971385 0.986093 0.990046 0.994988
0.954784 0.980182 0.986477 0.987442
0.879631 0.924982 0.964056 0.986427
1.0026 1.0044 1.00007 0.998137
0.998819 1 1 0.998819
0.998735 1 1 0.998735
0.998706 1 1 0.998706
0.998941 1.00039 1.00012 0.998432
0.999402 1.00076 1 0.998645
0.998523 1 1 0.998523
0.999426 1 1.00056 0.998869
0.998547 1 1 0.998547
0.999866 1.0015 1 0.998363
1.00118 1.00334 1 0.997845
1.00324 1.0058 0.999721 0.99773
0.999586 1.00195 0.999859 0.997777
0.999776 1.00134 1 0.998442
0.997854 1.0062 0.992841 0.998851
0.971439 0.989602 0.98764 0.993932
0.959914 0.977932 0.99315 0.988346
0.97308 0.987671 0.990184 0.994994
0.998132 1.00594 0.993564 0.99867
0.999491 1.0002 1.00086 0.998433
1.00099 1.00668 0.996184 0.99815
0.969775 0.979817 0.993908 0.995818
0.947687 0.976466 0.982558 0.987755
0.987255 1.00297 0.985814 0.998493
0.985005 0.995899 0.993646 0.995385
1.00401 1.02315 0.983011 0.998256
1.00544 1.01296 0.994416 0.998148
1.01 1.02784 0.984395 0.998219
1.0169 1.0216 0.997245 0.998146
1.0058 1.02236 0.985375 0.998412
1.01079 1.02843 0.984369 0.998452
1.00673 1.02038 0.988305 0.998295
1.01643 1.02246 0.995519 0.998568
1.01467 1.02044 0.995911 0.998425
1.01552 1.01936 0.998058 0.998169
1.01727 1.01966 0.999198 0.998461
1.01573 1.01782 0.999643 0.998297
1.0152 1.01722 1 0.998011
1.01359 1.01529 0.999998 0.998333
1.01337 1.01529 1 0.998105
1.01441 1.01655 1 0.997903
1.01316 1.01504 1 0.998149
1.01252 1.0146 1 0.997946
1.00784 1.00997 1 0.997892
1.01163 1.0138 1 0.997856
1.00655 1.00866 1 0.997909
1.00072 1.00261 1 0.998115
0.998692 1 1 0.998692
0.999495 1.00133 1 0.998162
1.00419 1.0063 1 0.997906
0.999642 1 1 0.999642
0.998818 1 1 0.998818
0.998976 1.00068 1 0.998292
1 1 1 1
0.999743 1 1 0.999743
0.998977 1 1 0.998977
1 1 1 1
0.999833 1 1 0.999833
1 1 1 1
1.00094 1.00275 1 0.998198
0.999107 1.00061 1 0.998491
0.998694 1 1 0.998694
0.99876 1 1.00001 0.998753
0.998897 1 1 0.998897
0.999278 1 1 0.999278
0.999018 1 1 0.999018
0.99943 1 1 0.99943
0.999959 1 1 0.999959
0.99958 1 1 0.99958
0.999988 1 1 0.999988
1 1 1 1
0.999996 1 1 0.999996
1 1 1 1
1 1 1 1
1.00283 1.01047 0.993606 0.998833
0.968036 0.985348 0.98889 0.993469
0.956848 0.976142 0.991719 0.988419
1.00431 1.00602 1.00001 0.998289
1.00669 1.0088 1 0.997906
1.0025 1.0042 1.00013 0.998174
0.998686 1 1 0.998686
0.999251 1.00059 1.00024 0.99842
0.99986 1.00127 1 0.998593
1.00545 1.0075 1 0.997963
0.998592 1 1 0.998592
0.999111 1.00077 1 0.998343
1.00149 1.0036 1 0.997898
1.00819 1.01065 1 0.997561
1.01179 1.01654 0.997281 0.998049
1.00302 1.00576 0.999567 0.997711
1.00035 1.00262 0.999994 0.997735
1.00123 1.00863 0.993713 0.998945
0.971965 0.989366 0.98933 0.993006
0.999153 1.00732 0.992938 0.998949
1.01348 1.01906 0.995872 0.998653
0.999722 1.00539 0.996131 0.998222
0.968735 0.982571 0.99162 0.994251
1.00514 1.02404 0.983232 0.998277
1.00387 1.01149 0.994186 0.998267
1.00872 1.02771 0.983221 0.998272
1.01916 1.02384 0.997266 0.998157
1.0141 1.02452 0.991649 0.998168
1.02648 1.03146 0.996896 0.998271
1.01291 1.02983 0.985086 0.998455
1.00712 1.01994 0.98911 0.9983
1.01794 1.02461 0.9954 0.998079
1.01552 1.02091 0.996289 0.998423
1.01575 1.01906 0.998588 0.998167
1.0183 1.02047 0.999921 0.997951
1.01569 1.0177 0.999718 0.998312
1.01512 1.01715 1 0.99801
1.01723 1.01945 1 0.997822
1.01291 1.01484 1 0.998106
1.01433 1.01646 1 0.997904
1.00947 1.01167 1 0.997832
1.01256 1.01463 1 0.997961
1.00779 1.00992 1 0.997895
1.00114 1.00309 1 0.998059
1.00653 1.00866 1 0.99789
1.00068 1.00258 1 0.998103
0.998618 1 1 0.998618
0.999563 1 1 0.999563
0.998692 1 1 0.998692
0.999704 1.00152 1 0.998186
1 1 1 1
0.999631 1 1 0.999631
0.998817 1 1 0.998817
1 1 1 1
0.99973 1 1 0.99973
1 1 1 1
1.00074 1.0028 1 0.997949
1.00066 1.00249 1 0.998172
0.998685 1.00025 1 0.998436
0.998671 1.00017 1 0.998497
0.998699 1 1 0.998699
0.999115 1 1 0.999115
0.998905 1 1 0.998905
0.999278 1 1 0.999278
0.999904 1 1 0.999904
0.99943 1 1 0.99943
0.999968 1 1 0.999968
1 1 1 1
0.999991 1 1 0.999991
1 1 1 1
1 1 1 1
1.01237 1.01994 0.994107 0.998461
1.00001 1.00951 0.992023 0.99856
0.965893 0.985264 0.985979 0.99428
1.01059 1.01268 1 0.997932
1.00281 1.00436 1 0.99845
1.01441 1.01667 1 0.997777
1.00648 1.00861 1 0.997891
1.00239 1.00401 1.00018 0.998211
1.01633 1.01877 1 0.997609
1.00034 1.0018 1 0.998541
1.00536 1.00746 1 0.997907
1.02119 1.02368 0.999839 0.997733
1.00166 1.00372 1 0.99795
1.00881 1.01131 1 0.997533
1.01155 1.0156 0.997948 0.99806
1.00243 1.00505 0.999705 0.997689
1.00375 1.0105 0.99427 0.999041
1.02471 1.02916 0.997325 0.99835
1.01319 1.01887 0.995763 0.998654
0.998942 1.00409 0.996576 0.998291
1.00757 1.02727 0.982472 0.998326
1.02018 1.02508 0.997048 0.998168
1.01367 1.0248 0.99094 0.998182
1.02685 1.03255 0.996191 0.998276
1.02664 1.03297 0.995689 0.99817
1.00747 1.01936 0.990018 0.998304
1.01792 1.02422 0.995752 0.998086
1.02164 1.02564 0.998148 0.997948
1.01601 1.01879 0.999103 0.998165
1.01797 1.02013 0.999953 0.997935
1.01957 1.02187 1 0.997748
1.01512 1.01715 1 0.998008
1.01707 1.0193 1 0.997821
1.01218 1.01447 1 0.997748
1.01427 1.01639 1 0.997905
1.00964 1.01183 1 0.997833
1.00177 1.00381 1 0.997971
1.00775 1.00988 1 0.997899
1.00129 1.00324 1 0.998061
0.998544 1 1 0.998544
1.00063 1.00254 1 0.998092
0.998616 1 1 0.998616
0.999593 1 1 0.999593
0.99989 1 1 0.99989
0.999583 1 1 0.999583
0.998692 1 1 0.998692
1 1 1 1
0.99962 1 1 0.99962
1 1 1 1
1.01924 1.02147 1 0.99782
1.00646 1.0086 1 0.997881
1.00068 1.00276 1 0.997932
0.999891 1.00165 1 0.998246
1.00033 1.00219 1 0.998145
0.998579 1.00014 1 0.998441
0.998938 1 1 0.998938
0.998703 1 1 0.998703
0.999118 1 1 0.999118
0.99981 1 1 0.99981
0.999278 1 1 0.999278
0.99992 1 1 0.99992
1 1 1 1
0.999977 1 1 0.999977
1 1 1 1
1 1 1 1
1.02576 1.02862 0.999108 0.998108
1.01598 1.02308 0.994513 0.998546
0.998831 1.00962 0.991016 0.998285
1.01872 1.0211 1 0.997674
1.00949 1.01151 1 0.998007
1.00124 1.00263 1 0.998609
1.01459 1.01683 1 0.997798
1.00629 1.00844 1 0.997876
1.02405 1.0264 1 0.997714
1.01496 1.01743 1 0.997572
1.00538 1.00754 1 0.997851
1.02082 1.02319 0.999959 0.997726
1.01048 1.013 1 0.997505
1.01351 1.01688 0.99861 0.998074
1.03039 1.03396 0.998285 0.998256
1.02637 1.03031 0.997822 0.998356
1.01407 1.01882 0.996672 0.998657
1.01407 1.02593 0.990227 0.998196
1.02781 1.03394 0.995787 0.998281
1.02662 1.03365 0.995004 0.998184
1.02665 1.02984 0.998897 0.998002
1.01782 1.02374 0.996118 0.998094
1.02205 1.02542 0.998776 0.99794
1.02175 1.02406 1 0.99774
1.01764 1.01976 0.999999 0.997919
1.01978 1.02208 1 0.997748
1.01531 1.01768 1 0.997675
1.01689 1.01911 1 0.997819
1.01227 1.01456 1 0.997748
1.0027 1.00484 1 0.997873
1.00979 1.01198 1 0.997835
1.00202 1.00406 1 0.997971
0.99845 1 1 0.99845
1.00145 1.0034 1 0.998063
0.998542 1 1 0.998542
0.999588 1 1 0.999588
0.998614 1 1 0.998614
0.999588 1 1 0.999588
0.999895 1 1 0.999895
0.999946 1 1 0.999946
0.999605 1 1 0.999605
1 1 1 1
1.0208 1.02317 1 0.997679
1.01021 1.01234 1 0.997896
1.01913 1.02126 1 0.997914
1.00108 1.00297 1 0.998115
1.00719 1.00933 1 0.997876
1.00065 1.00274 1 0.997915
0.9994 1.00116 1 0.998245
0.998769 1 1 0.998769
0.998496 1.00005 1 0.998445
0.998941 1 1 0.998941
0.999693 1 1 0.999693
0.999121 1 1 0.999121
0.999827 1 1 0.999827
1 1 1 1
0.999935 1 1 0.999935
1 1 1 1
1 1 1 1
1.02785 1.0301 0.999826 0.997988
1.02558 1.02852 0.999035 0.998105
1.01722 1.02474 0.994024 0.998626
1.02429 1.02668 1 0.997669
1.01814 1.02051 1 0.997677
1.0085 1.01043 1 0.998082
1.0147 1.01691 1 0.99782
1.02399 1.02635 1 0.997697
1.01348 1.01598 1 0.997535
1.01873 1.02106 1 0.99772
1.02954 1.0321 0.999456 0.998062
1.02992 1.03351 0.998302 0.998219
1.02839 1.03209 0.998054 0.998363
1.02509 1.02772 0.999546 0.9979
1.02651 1.03428 0.994277 0.998199
1.02629 1.02978 0.998616 0.997994
1.02341 1.02565 1 0.997809
1.02248 1.02522 0.999387 0.997933
1.02205 1.02436 1 0.997742
1.01781 1.02022 1 0.997636
1.01996 1.02226 1 0.997748
1.01505 1.01741 1 0.997676
1.00409 1.00631 1 0.997791
1.01236 1.01465 1 0.997748
1.00308 1.00522 1 0.997874
0.998354 1 1 0.998354
1.00229 1.00432 1 0.997972
0.998448 1 1 0.998448
0.999568 1 1 0.999568
0.99854 1 1 0.99854
0.999581 1 1 0.999581
0.999898 1 1 0.999898
0.999585 1 1 0.999585
0.999897 1 1 0.999897
1 1 1 1
1.02138 1.02385 1 0.997581
1.01282 1.01513 1 0.997723
1.02129 1.02364 1 0.997701
1.00129 1.00321 1 0.998083
1.01005 1.01218 1 0.997896
1.01909 1.02113 1 0.998007
0.998615 1 1 0.998615
1.00086 1.00275 1 0.998111
1.00803 1.01018 1 0.99787
0.998892 1.00065 1 0.998244
0.99877 1 1 0.99877
0.999589 1 1 0.999589
0.998943 1 1 0.998943
0.999706 1 1 0.999706
1 1 1 1
0.999844 1 1 0.999844
1 1 1 1
1 1 1 1
1.02739 1.02963 0.999969 0.997856
1.02801 1.03032 0.999793 0.997972
1.02605 1.02889 0.999138 0.998102
1.02368 1.02607 1 0.997674
1.01755 1.01992 1 0.99768
1.02391 1.02629 1 0.997681
1.0254 1.02755 1 0.9979
1.02941 1.03203 0.999408 0.998055
1.02889 1.03249 0.998335 0.998181
1.02561 1.028 0.999758 0.997914
1.02238 1.02466 1 0.997769
1.02593 1.0297 0.998344 0.997985
1.02328 1.02556 1 0.997784
1.01905 1.02144 1 0.997663
1.02232 1.02463 1 0.997744
1.0175 1.0199 1 0.997639
1.00584 1.00813 1 0.997724
1.01484 1.01721 1 0.997677
1.00464 1.00686 1 0.997791
0.998296 1.00002 1 0.998277
1.00346 1.0056 1 0.997874
0.998353 1 1 0.998353
0.999529 1 1 0.999529
0.998446 1 1 0.998446
0.999558 1 1 0.999558
0.999888 1 1 0.999888
0.999577 1 1 0.999577
0.999904 1 1 0.999904
0.999897 1 1 0.999897
1.02306 1.02538 1 0.997737
1.01561 1.01807 1 0.997588
1.02166 1.02413 1 0.997589
1.00304 1.00513 1 0.997922
1.01262 1.01492 1 0.99773
1.02168 1.02401 1 0.997725
0.998499 1 1 0.998499
1.00128 1.00325 1 0.998039
1.0098 1.01192 1 0.997897
0.999524 1 1 0.999524
0.998618 1 1 0.998618
1.0006 1.0025 1 0.998107
0.998771 1 1 0.998771
0.999599 1 1 0.999599
1 1 1 1
0.999719 1 1 0.999719
1 1 1 1
1 1 1 1
1.02374 1.02598 1 0.997819
1.02679 1.02906 0.999936 0.997855
1.02847 1.03084 0.999739 0.997956
1.0231 1.02548 1 0.997679
1.02301 1.02534 1 0.997735
1.02583 1.02812 0.999861 0.997909
1.02919 1.03191 0.999321 0.998047
1.02609 1.02826 0.999956 0.997928
1.02223 1.0245 1 0.997777
1.01777 1.02014 1 0.997675
1.02325 1.02555 1 0.997759
1.0188 1.0212 1 0.997654
1.00711 1.00945 1 0.997686
1.01717 1.01958 1 0.997642
1.00627 1.00856 1 0.997726
0.998247 1.00004 1 0.998208
1.00515 1.00738 1 0.997791
0.998298 1.00002 1 0.998276
0.999422 1 1 0.999422
0.998355 1 1 0.998351
0.999492 1 1 0.999492
1 1 1 1
0.99955 1 1 0.99955
0.999896 1 1 0.999896
0.999906 1 1 0.999906
1.02173 1.024 1 0.997779
1.01686 1.01926 1 0.997643
1.02272 1.02504 1 0.997734
1.00551 1.00779 1 0.99774
1.01572 1.01815 1 0.99761
1.02205 1.02451 1 0.997598
0.998316 1 1 0.998316
1.00306 1.00515 1 0.997921
1.01247 1.01477 1 0.997737
0.999492 1 1 0.999492
0.998461 1 1 0.998461
1.00131 1.00332 1 0.997995
1 1 1 1
0.999534 1 1 0.999534
0.99862 1 1 0.99862
0.999609 1 1 0.999609
1 1 1 1
1 1 1 1
1.02233 1.02464 1 0.997743
1.02413 1.02636 1 0.997827
1.02616 1.02845 0.999918 0.997854
1.0188 1.02122 1 0.997626
1.02218 1.0245 1 0.997739
1.02629 1.0287 0.999744 0.997917
1.02208 1.02435 1 0.997785
1.01787 1.02024 1 0.997676
1.00714 1.00944 1 0.99773
1.0185 1.0209 1 0.997644
1.00721 1.00952 1 0.997717
0.99816 1.00008 1 0.998077
1.00672 1.00901 1 0.997728
0.99826 1.00005 1 0.998208
0.999371 1 1 0.999371
0.998304 1.00003 1 0.998276
0.999419 1 1 0.999419
1 1 1 1
0.999449 1 1 0.999449
0.999939 1 1 0.999939
0.999903 1 1 0.999903
1.01958 1.02188 1 0.99775
1.01715 1.01951 1 0.997684
1.0216 1.02387 1 0.997781
1.00644 1.00871 1 0.997745
1.01727 1.01968 1 0.997638
1.02237 1.02469 1 0.997732
0.998318 1.00011 1 0.99821
1.00543 1.00766 1 0.997784
1.01579 1.0182 1 0.997631
0.999465 1 1 0.999465
0.998302 1 1 0.998302
1.00308 1.00517 1 0.997919
1 1 1 1
0.999501 1 1 0.999501
0.998422 1 1 0.998422
1 1 1 1
0.999544 1 1 0.999544
1 1 1 1
1.01897 1.02136 1 0.997662
1.02188 1.02419 1 0.997737
1.02456 1.02678 1 0.997836
1.0064 1.0087 1 0.997712
1.01879 1.02121 1 0.997639
1.0214 1.02371 1 0.997744
1.01798 1.02035 1 0.997676
1.00717 1.00946 1 0.997729
0.998176 1.00014 1 0.998034
1.00733 1.0096 1 0.997748
0.998187 1.00008 1 0.998112
0.999304 1 1 0.999304
0.998264 1.00006 1 0.998208
0.999367 1 1 0.999367
1 1 1 1
0.999416 1 1 0.999416
1 1 1 1
0.99989 1 1 0.99989
1.01713 1.01947 1 0.997704
1.01987 1.02217 1 0.997757
1.00594 1.0082 1 0.997752
1.01702 1.01938 1 0.997684
1.02147 1.02374 1 0.997783
0.998361 1.00014 1 0.998226
1.00636 1.00864 1 0.997742
1.01768 1.02009 1 0.997632
0.999424 1 1 0.999424
0.998334 1.0001 1 0.998237
1.00533 1.00752 1 0.997828
1 1 1 1
0.99947 1 1 0.99947
0.998288 1 1 0.998288
1 1 1 1
0.999509 1 1 0.999509
1 1 1 1
1.00598 1.00825 1 0.997748
1.01887 1.02126 1 0.997659
1.02133 1.02366 1 0.997732
0.998045 1.00001 1 0.998032
1.00644 1.00874 1 0.997712
1.01875 1.02114 1 0.997652
1.00719 1.00948 1 0.997729
0.998175 1.00014 1 0.998037
0.999253 1 1 0.999253
0.998218 1.00007 1 0.998146
0.999301 1 1 0.999301
1 1 1 1
0.999364 1 1 0.999364
1 1 1 1
1 1 1 1
1.00555 1.00782 1 0.997746
1.01675 1.01909 1 0.997709
1.02016 1.02245 1 0.997765
0.998252 1.00005 1 0.998201
1.00617 1.00844 1 0.99775
1.01686 1.01922 1 0.997683
0.999379 1 1 0.999379
0.998371 1.00015 1 0.998224
1.0063 1.00858 1 0.997739
1 1 1 1
0.999428 1 1 0.999428
0.998354 1.00009 1 0.998264
1 1 1 1
0.999476 1 1 0.999476
1 1 1 1
0.998116 1 1 0.998116
1.00598 1.00828 1 0.997713
1.01881 1.0212 1 0.997655
0.999246 1 1 0.999246
0.998048 1.00002 1 0.998031
1.00648 1.00879 1 0.997712
0.998173 1.00013 1 0.998041
0.999252 1 1 0.999252
1 1 1 1
0.999298 1 1 0.999298
1 1 1 1
1 1 1 1
0.998163 1 1 0.998163
1.00562 1.0079 1 0.997739
1.0164 1.01873 1 0.997715
0.99943 1 1 0.99943
0.998296 1.0001 1 0.998199
1.00641 1.00869 1 0.997747
1 1 1 1
0.999381 1 1 0.999381
0.998373 1.00015 1 0.998222
1 1 1 1
0.999432 1 1 0.999432
1 1 1 1
0.999247 1 1 0.999247
0.998087 1 1 0.998087
1.00598 1.00832 1 0.997679
1 1 1 1
0.999245 1 1 0.999245
0.998052 1.00002 1 0.99803
0.999251 1 1 0.999251
1 1 1 1
1 1 1 1
0.999382 1 1 0.999382
0.998187 1.00002 1 0.998163
1.00567 1.00796 1 0.997732
1 1 1 1
0.99934 1 1 0.99934
0.998336 1.00014 1 0.998197
1 1 1 1
0.999382 1 1 0.999382
1 1 1 1
0.999807 1 1 0.999807
0.999313 1 1 0.999313
0.998058 1 1 0.998058
1 1 1 1
0.999246 1 1 0.999246
1 1 1 1
0.999825 1 1 0.999825
0.999343 1 1 0.999343
0.998219 1.00006 1 0.998163
0.999916 1 1 0.999916
0.999338 1 1 0.999338
1 1 1 1
1 1 1 1
0.999266 1 1 0.999266
1 1 1 1
0.999909 1 1 0.999909
0.999299 1 1 0.999299
1 1 1 1
1 1 1 1
1 1 1 1

VECTORS lamdaE float
1.00002 1.00015 0.995307
0.999918 1.00035 0.997773
0.999751 1.00034 0.995466
1.00032 0.999929 0.995093
1.00013 0.999968 0.995351
1.00003 1.00028 0.995121
1.00124 1.00048 0.99256
0.999917 1.00023 0.997799
0.999833 1.00023 0.998022
0.999484 1.00067 0.998054
0.999901 1.00013 0.995544
1.00103 1.00124 0.991654
1.00023 1.00001 0.995042
0.999962 0.999981 0.995311
0.999506 1.00055 0.995598
1.00011 0.999906 0.995304
0.999739 1.00057 0.99526
0.999891 1.00004 0.995528
1.0014 1.00032 0.992495
1.00021 1 0.997661
1.00036 0.999984 0.994962
1.00024 0.999888 0.995263
1.00164 0.999992 0.992375
1.00143 1.00013 0.992592
1.00001 1.0002 0.995132
1.00107 1.00098 0.99238
1.00379 1.00034 0.98839
0.999877 1.00016 0.997854
0.999969 1.00011 0.996616
0.9997 1.00051 0.996626
0.999857 0.999914 0.997968
1.00093 1.00136 0.991661
1.00024 0.999849 0.995147
0.999966 1.00038 0.995217
1.00172 1.00018 0.992789
0.999492 0.9993 0.998532
1.00139 1.00083 0.992771
1.00068 1.00147 0.992048
1.00283 1.00201 0.987722
0.99958 0.998347 0.998843
1.00025 1.00001 0.997621
1.00011 1 0.99647
1.0002 0.999998 0.997646
0.999924 1.00004 0.99534
1.00182 1.00004 0.991448
1.00001 0.99996 0.997939
1.00194 1.00011 0.992516
0.999896 0.999845 0.995515
0.999668 1.00011 0.995692
0.999455 1.00091 0.995384
1.00154 1.00014 0.992442
1.0001 1.00001 0.996491
1.00013 0.999984 0.995181
0.99973 1.00051 0.995276
1.00003 0.999876 0.995457
1.00172 0.999956 0.992291
1.00124 1.00079 0.992309
1.00155 1.00004 0.992524
1.00379 1.00036 0.988377
1.00018 1 0.997666
1.00032 1.00001 0.994993
1.00164 1 0.992981
1.00169 1.00002 0.992264
1.00157 0.999973 0.992515
1.00411 0.999954 0.988134
1.00395 1.00002 0.98815
0.999812 0.999629 0.995827
1.00054 1.00162 0.992482
1.0036 1.00081 0.988254
1.00484 1.00008 0.986068
1.00013 1.00014 0.997745
0.999759 0.999681 0.998151
0.99991 1.00035 0.99776
1.00085 1.00145 0.991665
1.00026 0.999979 0.997703
1.00002 1.00032 0.997761
1.00162 1.00013 0.991629
0.999591 0.999381 0.997405
1.00118 1.00092 0.991623
1.00054 1.00151 0.992788
1.00287 1.00195 0.987707
0.999686 0.998776 0.998577
0.999684 1.00008 0.995214
1.00182 0.999981 0.991481
1.00152 1.00042 0.991626
1.0041 1.0002 0.987261
1.00021 1.00119 0.994273
1.00343 1.00102 0.987636
1.0018 1.00343 0.988208
1.00394 1.00181 0.98582
0.999539 0.997971 0.999039
0.999518 0.998272 0.998929
1.00028 0.999987 0.997642
1.00026 1.00001 0.99762
1.00023 1 0.997642
1.00009 1.00001 0.996484
1.00185 1.00002 0.992074
1.00013 0.999968 0.996506
1.00188 1.00012 0.991944
1.00022 0.999995 0.997652
1.00173 0.999961 0.991638
1.00192 1.00011 0.992556
1.00427 0.999725 0.987459
1.00189 1.00002 0.992637
1.00429 0.999938 0.987218
1.00019 1.00001 0.995125
0.999904 0.999977 0.995404
0.999422 1.00087 0.995434
0.999827 0.999842 0.995647
1.00181 0.999959 0.992207
1.00165 0.999953 0.992462
1.00141 1.00056 0.992246
1.00378 1.00038 0.988365
1.00021 0.999998 0.997657
1.00009 1.00001 0.995212
1.00175 0.999977 0.991939
1.00177 1.00001 0.992169
0.999692 0.999859 0.996942
1.00079 1.00153 0.992607
1.00166 0.999923 0.992441
1.00413 0.999929 0.988031
1.00356 1.00085 0.98828
1.00394 1.00009 0.988225
1.00482 1.00009 0.986091
1.00171 0.999983 0.991677
1.00165 1 0.992314
1.00415 0.999679 0.988109
1.00417 0.999856 0.987919
1.00406 0.999884 0.98806
1.00508 0.99957 0.986444
0.999636 0.99926 0.998432
1.00493 0.999813 0.986173
1.00007 1.0018 0.992622
1.00275 1.00204 0.987788
1.00475 1.00049 0.985892
1.00518 0.999851 0.985681
0.999839 1.00099 0.993902
1.00019 1.00374 0.990616
1.00024 1.00001 0.99772
0.999978 1.0003 0.997764
1.00162 1.00011 0.991629
0.999649 0.999107 0.998487
1.00032 1.00174 0.992275
1.00113 1.00096 0.991631
1.00291 1.0019 0.987691
0.999607 0.998701 0.998679
0.99968 0.999992 0.995259
1.00183 1.00001 0.992108
1.0015 1.00044 0.992226
1.00409 1.00021 0.987259
1.00002 1.00125 0.993431
1.00344 1.001 0.987645
1.00179 1.00338 0.988198
1.00401 1.00176 0.985781
0.999812 1.00071 0.994373
0.999727 0.999404 0.995811
1.00026 1.0027 0.991615
1.00423 1.00007 0.987171
1.0038 1.00053 0.98745
1.00501 1.00007 0.9858
1.00101 1.00373 0.989321
1.0045 1.00075 0.98585
1.00288 1.00361 0.985951
1.00476 1.00117 0.985348
0.999575 0.997691 0.999119
0.999513 0.997917 0.999071
0.99947 0.998185 0.998993
0.99979 1.00055 0.994442
0.999608 0.998916 0.9986
1.00029 0.999975 0.997675
1.00026 1 0.997622
1.00179 1.00013 0.991369
1.00177 1.00003 0.991502
1.00021 1 0.997641
1.00019 0.999998 0.997653
1.00172 0.99997 0.991632
1.00186 1.0001 0.991974
1.00426 0.999723 0.987457
1.0018 1.00004 0.991433
1.00428 0.999937 0.987214
1.0017 0.999957 0.991685
1.00421 0.999662 0.987613
1.00429 0.999825 0.987318
1.00515 0.999104 0.986566
1.00428 1.00001 0.987162
1.00516 0.999484 0.986178
1.00019 0.999996 0.997651
0.999866 1.00002 0.99543
1.00176 0.999969 0.990992
1.00186 1.00001 0.992072
0.999401 1.00004 0.998288
1.0011 1.00133 0.992726
1.00175 0.999897 0.992368
1.00414 0.999888 0.987928
1.00394 1.00016 0.9883
1.00352 1.00092 0.988305
1.00481 1.0001 0.986114
1.0017 0.99997 0.991679
1.00176 1 0.992211
1.00417 0.999661 0.9878
1.00419 0.999894 0.987975
0.999669 0.999341 0.998359
1.0003 1.00162 0.993118
1.00268 1.0022 0.988069
1.00406 0.999915 0.988042
1.00508 0.999455 0.986419
1.00475 1.00053 0.985801
1.00493 0.999866 0.986283
1.00517 0.999846 0.985709
0.999861 1.00101 0.993897
1.00027 1.0036 0.99063
1.00417 0.999657 0.987689
1.00417 0.999783 0.987987
1.00509 0.999195 0.986799
1.00511 0.999232 0.986487
1.00502 0.999591 0.986483
1.00524 0.998688 0.986871
0.999921 1.00139 0.993316
1.0052 0.999339 0.986182
1.00146 1.00345 0.988621
1.00417 1.00159 0.985592
1.00515 1.00053 0.985305
1.00517 0.999204 0.986453
1.00055 1.00367 0.990101
1.0001 1.00307 0.991426
1.00075 1.00463 0.988963
1.00175 0.999992 0.991545
0.999534 0.998609 0.998785
0.999679 0.999896 0.995303
1.00138 1.00049 0.991673
1.00409 1.00022 0.987258
0.999933 1.00132 0.993361
1.00177 1.00336 0.988189
1.00344 1.00099 0.987655
1.00408 1.00171 0.985742
0.999785 1.00066 0.994396
0.99974 0.999306 0.995847
1.00013 1.00285 0.991626
1.00422 1.00009 0.987165
1.00381 1.00052 0.987453
1.00502 1.00006 0.985784
1.00093 1.00378 0.989347
1.00455 1.00079 0.985849
1.00294 1.00367 0.985923
1.00469 1.00102 0.985303
0.999843 0.998879 0.996116
1.00057 1.00327 0.990485
1.00008 1.00187 0.99275
1.00037 1.00427 0.989911
1.00509 0.999853 0.985887
1.00482 1.00038 0.985794
1.00517 0.999677 0.985897
1.00179 1.00449 0.987203
1.00496 1.00039 0.985536
1.00389 1.00296 0.985072
1.00512 1.00061 0.985189
1.00027 1.00024 0.994029
1.00004 0.998342 0.996297
0.999654 0.997453 0.999151
0.999572 0.997649 0.99913
0.999498 0.997864 0.999096
0.999793 1.00001 0.994994
0.999586 0.998572 0.998753
0.999807 1.0006 0.994418
0.999648 0.998966 0.998543
1.00179 1.00007 0.991427
1.0018 1.00009 0.991398
1.00428 0.999939 0.98721
1.00426 0.999722 0.987456
1.00174 0.999978 0.991629
1.00022 0.999999 0.997646
1.00171 0.99996 0.991685
1.00421 0.999667 0.987613
1.00429 0.999831 0.987314
1.00515 0.999111 0.986563
1.00427 1.00002 0.987154
1.00516 0.999484 0.986169
1.00417 0.999657 0.987694
1.00511 0.999005 0.986735
1.00517 0.999279 0.986358
1.00524 0.997879 0.987679
1.00513 0.999665 0.986021
1.00523 0.998493 0.98707
1.00171 0.999958 0.991681
1.00185 0.999984 0.992107
1.00418 0.99963 0.987494
1.00421 0.999929 0.98803
0.999716 0.999434 0.998275
1.00052 1.00154 0.993513
1.0027 1.00232 0.988349
1.00406 0.999935 0.988024
1.00508 0.999338 0.986394
1.00493 0.999922 0.986393
1.00473 1.00055 0.985711
1.00517 0.999838 0.985736
0.999891 1.00101 0.993892
1.00035 1.00349 0.990644
1.00417 0.999612 0.987629
1.00419 0.999765 0.987973
1.00509 0.999095 0.986899
1.00511 0.99935 0.986488
0.999988 1.00138 0.993305
1.00159 1.00337 0.988601
1.00419 1.00163 0.985592
1.00502 0.999652 0.986448
1.00524 0.998537 0.98704
1.00514 1.00052 0.985267
1.00519 0.999331 0.986203
1.00517 0.999173 0.98645
1.0006 1.00358 0.990112
1.00063 1.00452 0.989023
1.00014 1.00306 0.991414
1.00509 0.999099 0.986883
1.0051 0.999156 0.986815
1.00521 0.997981 0.987626
1.00525 0.998313 0.987181
1.0052 0.998769 0.98674
1.00518 0.99729 0.988276
1.00085 1.0036 0.989597
1.00517 0.998337 0.987152
1.00278 1.00327 0.986586
1.00491 1.00131 0.984609
1.00515 1.00033 0.985399
1.00511 0.998381 0.98733
1.00014 1.00225 0.992211
1.00118 1.00376 0.988932
1.00023 1.00483 0.989407
1.0013 1.00396 0.988768
1.00421 1.0001 0.987157
0.999749 0.999219 0.995883
0.999754 1.00062 0.99442
1.00004 1.00297 0.991637
1.00382 1.00051 0.987457
1.00503 1.00005 0.985768
1.00084 1.00383 0.989372
1.00301 1.00378 0.985895
1.0046 1.00083 0.985848
1.00463 1.00088 0.985258
0.999849 0.998834 0.996131
1.00052 1.00336 0.99049
1.00005 1.00185 0.992783
1.00026 1.00442 0.98989
1.00509 0.999856 0.985872
1.00485 1.00036 0.98578
1.00518 0.999684 0.985884
1.00172 1.00457 0.987235
1.00499 1.00045 0.98555
1.00382 1.00288 0.985061
1.00509 1.00058 0.985143
0.999956 0.99854 0.99624
1.00015 1.001 0.9935
1.00102 1.00432 0.988766
1.00009 1.00358 0.991086
1.00056 1.00459 0.989378
1.0052 0.999292 0.986261
1.00511 1.00001 0.985648
1.00514 0.998956 0.986637
1.00237 1.00454 0.98623
1.00512 1.00016 0.985541
1.00421 1.00192 0.984906
1.00027 1.00032 0.99396
1.00023 1.00159 0.992784
1.00025 1.00024 0.994079
1.00026 1.00025 0.994028
1.00007 0.998164 0.996895
1.00002 0.998331 0.99658
0.999807 0.99726 0.99806
0.999662 0.997409 0.999156
0.999573 0.997598 0.99914
0.999828 0.999483 0.995481
0.999593 0.998204 0.998905
0.9998 1.00007 0.994967
0.999627 0.998633 0.998699
0.999826 1.00063 0.994395
0.999684 0.999023 0.998484
1.00426 1.00003 0.987145
1.00428 0.999835 0.987311
1.00516 0.999497 0.986159
1.00515 0.999118 0.98656
1.0042 0.999672 0.987612
1.0017 0.999962 0.991683
1.00417 0.999655 0.987694
1.00511 0.999008 0.986737
1.00517 0.999293 0.98635
1.00524 0.997769 0.987802
1.00513 0.999671 0.98601
1.00523 0.99851 0.987055
1.00509 0.998982 0.986799
1.00522 0.997583 0.988047
1.00525 0.998108 0.98742
1.00524 0.996554 0.988971
1.00521 0.998914 0.986671
1.00517 0.996986 0.988532
1.00417 0.999569 0.987569
1.00422 0.999757 0.987958
1.00509 0.999005 0.986999
1.00511 0.999467 0.986488
1.00007 1.00135 0.993291
1.00161 1.00335 0.988582
1.00422 1.00166 0.985591
1.00502 0.999713 0.986412
1.00524 0.998384 0.987208
1.00519 0.999322 0.986223
1.00512 1.00052 0.985229
1.00517 0.999144 0.986447
1.00065 1.00347 0.990123
1.0006 1.00442 0.989084
1.00018 1.00303 0.991403
1.00509 0.999056 0.98683
1.00511 0.999153 0.986806
1.00521 0.997782 0.987844
1.00524 0.998379 0.987137
1.00091 1.00357 0.989573
1.00286 1.00318 0.986577
1.00478 1.00141 0.984668
1.0052 0.998922 0.986616
1.00518 0.997095 0.988498
1.00515 1.00035 0.985305
1.00517 0.998343 0.987169
1.00511 0.998283 0.987454
1.00125 1.00374 0.988925
1.00124 1.00398 0.988765
1.00016 1.00225 0.992196
1.00019 1.00469 0.989527
1.00521 0.997785 0.987859
1.00523 0.998079 0.987603
1.00517 0.996678 0.988892
1.0052 0.996418 0.989066
1.00516 0.997595 0.987963
1.00514 0.996263 0.989413
1.00178 1.0035 0.988144
1.00511 0.997003 0.988458
1.00346 1.00314 0.985306
1.0051 1.00145 0.984262
1.00512 0.999958 0.985599
1.00508 0.998008 0.987685
1.00013 1.00165 0.992818
1.00014 1.00411 0.990274
1.00171 1.00322 0.988545
1.00045 1.00497 0.989017
1.00157 1.00332 0.98901
0.999851 0.998801 0.996146
1.0051 0.999858 0.985857
1.00002 1.00181 0.992815
1.00044 1.0035 0.990496
1.00016 1.00458 0.989869
1.00487 1.00036 0.985766
1.00518 0.999691 0.985871
1.00174 1.00452 0.987266
1.00376 1.0028 0.98505
1.00502 1.00049 0.985566
1.00507 1.00056 0.9851
0.999959 0.998527 0.996246
1.00014 1.00098 0.993516
1.00101 1.00427 0.988787
0.999993 1.0037 0.991081
1.00045 1.00458 0.989303
1.0052 0.9993 0.986247
1.00512 1 0.985628
1.00514 0.998931 0.986604
1.00229 1.00456 0.986231
1.00515 1.00016 0.985508
1.0044 1.00182 0.984908
1.00024 1.00052 0.993823
1.00014 1.00248 0.992088
1.00135 1.00432 0.988134
1.00009 1.00468 0.990147
1.00095 1.00406 0.989308
1.00515 0.998367 0.987212
1.00513 0.999509 0.986044
1.00511 0.998298 0.987004
1.00265 1.00376 0.986166
1.00495 1.00085 0.984907
1.00026 1.00033 0.993956
1.00024 1.00157 0.992694
1.00019 1.00163 0.992739
1.00019 1.00234 0.992247
1.0002 1.00162 0.992819
1.00021 1.00028 0.994099
1.00024 1.00023 0.99408
1.00011 0.99808 0.996907
1.00026 1.00026 0.994028
1.00007 0.998176 0.996897
0.999905 0.997033 0.998089
1.00002 0.998329 0.996859
0.999774 0.99722 0.998618
0.999672 0.997361 0.999161
0.999882 0.999001 0.995872
0.999824 0.999536 0.995458
0.999615 0.997875 0.999019
0.999621 0.998281 0.99885
0.999806 1.00013 0.99494
0.999667 0.998683 0.998643
1.00513 0.999675 0.985999
1.00516 0.999295 0.986343
1.00523 0.998521 0.987041
1.00524 0.997659 0.987926
1.0051 0.999011 0.986739
1.00417 0.999655 0.987694
1.00509 0.998982 0.986802
1.00522 0.997588 0.988055
1.00525 0.998117 0.987418
1.00523 0.996332 0.98918
1.00521 0.998915 0.986649
1.00517 0.996868 0.988659
1.00521 0.997619 0.988046
1.00522 0.996308 0.98921
1.00521 0.996379 0.989181
1.00522 0.995442 0.990106
1.00517 0.997646 0.987901
1.00516 0.995883 0.989619
1.00509 0.99901 0.986776
1.00512 0.999159 0.986798
1.00521 0.997576 0.988062
1.00524 0.998441 0.987094
1.00099 1.00354 0.989549
1.00296 1.00311 0.986568
1.00467 1.00143 0.984727
1.0052 0.999077 0.986492
1.00518 0.996899 0.988721
1.00518 0.998348 0.987186
1.00515 1.00036 0.985211
1.00511 0.998184 0.987577
1.0012 1.00379 0.988918
1.00105 1.00407 0.988762
1.00019 1.00226 0.99218
1.00015 1.00461 0.989649
1.00521 0.997791 0.987849
1.00522 0.998156 0.987485
1.00517 0.996548 0.989071
1.0052 0.996525 0.98894
1.00174 1.00367 0.988101
1.00344 1.00308 0.985409
1.00511 1.00143 0.984227
1.00517 0.997768 0.987758
1.00513 0.996006 0.989587
1.00512 0.999991 0.985571
1.00511 0.997026 0.988463
1.00509 0.99778 0.987817
1.00178 1.0032 0.988516
1.00153 1.00322 0.989083
1.00044 1.00502 0.988979
1.00014 1.00164 0.992751
1.00009 1.00402 0.990394
1.00517 0.996312 0.989352
1.0052 0.996199 0.989375
1.00515 0.99539 0.990121
1.00512 0.996152 0.989278
1.00214 1.00382 0.987245
1.00513 0.996602 0.989034
1.00388 1.00289 0.984545
1.0051 1.00154 0.98407
1.00509 0.999545 0.985858
1.00008 1.00105 0.993316
1.00011 1.00333 0.991287
1.00036 1.00454 0.989736
1.00202 1.00285 0.988504
1.00069 1.00478 0.988591
1.00187 1.00238 0.988866
0.99996 0.998519 0.996252
1.00012 1.00096 0.993532
1.0052 0.999307 0.986233
0.999892 1.00381 0.991077
1.00092 1.00432 0.988809
1.00034 1.0046 0.989227
1.00514 1 0.985608
1.00514 0.998908 0.986571
1.00219 1.00459 0.986232
1.00455 1.00176 0.984908
1.00517 1.00015 0.985476
1.00023 1.00052 0.993826
1.00008 1.00252 0.992108
1.00136 1.00435 0.988099
0.999962 1.00472 0.990122
1.00085 1.00395 0.989371
1.00515 0.998378 0.987188
1.00513 0.999509 0.986014
1.00511 0.998337 0.987059
1.00273 1.00363 0.986017
1.00494 1.00098 0.984891
1.00022 1.00185 0.992602
0.999833 1.00393 0.990961
1.00191 1.00337 0.988051
1.0001 1.00495 0.989649
1.00141 1.003 0.989243
1.00511 0.996942 0.988408
1.00511 0.99957 0.985958
1.00509 0.998225 0.987012
1.00377 1.00266 0.98562
1.00502 1.00085 0.984837
1.00026 1.00033 0.993953
1.00024 1.00159 0.992721
1.00007 1.00238 0.992175
1.00016 1.00165 0.992694
1.00017 1.00165 0.992817
1.00011 1.0024 0.992186
1.00003 1.00282 0.991968
1.0001 1.00247 0.992041
1.00014 1.00172 0.992819
1.00015 1.00038 0.9941
1.00021 1.00028 0.994099
1.00013 0.998057 0.996897
1.00024 1.00023 0.994081
1.00011 0.998101 0.996905
0.999975 0.996911 0.998089
1.00008 0.998183 0.9969
0.999894 0.997007 0.998096
0.999738 0.997169 0.999186
0.999936 0.998596 0.9962
0.999873 0.999061 0.995846
0.999657 0.997588 0.999101
0.999817 0.999601 0.995436
0.999634 0.997942 0.998985
0.999654 0.998341 0.998797
1.00522 0.998916 0.986627
1.00525 0.998132 0.987415
1.00518 0.996748 0.988787
1.00522 0.996121 0.989389
1.00522 0.997591 0.988062
1.00509 0.998982 0.986804
1.00522 0.997695 0.987953
1.00523 0.996458 0.989103
1.0052 0.996452 0.989102
1.00522 0.995218 0.990265
1.00517 0.997681 0.98789
1.00516 0.995657 0.989807
1.00519 0.996535 0.989131
1.00523 0.994985 0.990504
1.00517 0.995228 0.990291
1.00514 0.995965 0.989552
1.00521 0.997796 0.987839
1.00522 0.998229 0.987368
1.00517 0.996429 0.989249
1.0052 0.996629 0.988813
1.00177 1.00375 0.988059
1.00345 1.00302 0.985512
1.00511 1.00146 0.984192
1.00517 0.997942 0.987553
1.00513 0.995758 0.989759
1.00512 0.997048 0.988466
1.00512 1.00002 0.985542
1.0051 0.997553 0.987948
1.00186 1.00322 0.988488
1.00157 1.00297 0.989154
1.00042 1.00504 0.988941
1.00015 1.00162 0.992685
1.00008 1.00391 0.990514
1.00517 0.996367 0.98935
1.0052 0.996242 0.989329
1.00515 0.995509 0.989999
1.00216 1.00384 0.987215
1.00401 1.00284 0.984644
1.0051 1.00153 0.984028
1.00513 0.996176 0.989268
1.00508 0.999349 0.986152
1.00512 0.996561 0.98888
1.00009 1.00096 0.993411
1.00213 1.00272 0.988458
1.00169 1.00225 0.989392
1.00082 1.00485 0.98853
1.00035 1.00457 0.989751
1.00011 1.00331 0.991226
1.0052 0.995472 0.989944
1.00519 0.995268 0.990241
1.00513 0.995133 0.990176
1.00517 0.995506 0.989883
1.00268 1.0034 0.98667
1.00512 0.997607 0.987768
1.0047 1.0027 0.983389
1.00502 1.00183 0.98378
1.00014 1.00027 0.994026
1.00009 1.00256 0.992089
1.00025 1.00396 0.990525
1.00054 1.00503 0.988849
1.00229 1.00222 0.988312
1.0018 1.0035 0.988125
1.00022 1.00051 0.99383
1.00003 1.00254 0.992128
1.00515 0.998387 0.987164
0.999835 1.00478 0.990097
1.00138 1.00436 0.988064
1.00063 1.00384 0.989436
1.00514 0.999509 0.985984
1.00511 0.998384 0.987112
1.00286 1.00353 0.985866
1.00494 1.00109 0.984875
1.00019 1.00183 0.992615
0.999897 1.00395 0.990949
1.00197 1.00344 0.988044
0.999966 1.00501 0.989652
1.00123 1.00277 0.989677
1.00511 0.996931 0.988605
1.0051 0.999562 0.986027
1.0051 0.998288 0.987025
1.00367 1.0028 0.985418
1.00503 1.00087 0.984719
0.999936 1.0027 0.992
0.999765 1.00489 0.989971
1.00266 1.00246 0.987721
1.00048 1.00405 0.988926
1.00512 0.995513 0.989782
1.00493 0.997563 0.988308
1.00502 0.999769 0.985719
1.00411 1.00145 0.984989
1.00026 1.00159 0.992749
1.00008 1.00238 0.992196
0.999847 1.00306 0.992086
1.00014 1.0017 0.992814
1.00004 1.00244 0.992125
1.00014 1.00172 0.992812
0.999977 1.00281 0.991974
1.00011 1.00246 0.992079
0.999906 1.00292 0.992035
1.00008 1.00292 0.991716
1.00013 1.00256 0.991894
1.00012 1.00181 0.992743
1.0001 1.00047 0.994082
1.00016 1.00036 0.994099
1.00013 0.998066 0.996879
1.00021 1.00027 0.994099
1.00013 0.998084 0.996894
1.00003 0.996831 0.998079
1.00012 0.998121 0.996905
0.999968 0.996877 0.998096
0.999881 0.996985 0.998098
1.00002 0.998212 0.996443
0.999942 0.998622 0.996174
0.999723 0.997269 0.999168
0.999863 0.999123 0.995819
0.999666 0.997639 0.999078
0.999656 0.998002 0.99894
1.00517 0.997715 0.987879
1.00519 0.996524 0.989024
1.00516 0.995433 0.989994
1.00523 0.994978 0.990424
1.00524 0.996604 0.988996
1.00522 0.997775 0.987861
1.0052 0.996523 0.989171
1.00522 0.995119 0.990395
1.00517 0.995252 0.990235
1.00514 0.995898 0.989639
1.0052 0.99533 0.990228
1.00515 0.994962 0.990633
1.00515 0.995099 0.990305
1.00517 0.996421 0.989348
1.00521 0.996286 0.989283
1.00515 0.99563 0.989878
1.00219 1.00387 0.987184
1.00416 1.00279 0.984742
1.00508 1.00153 0.983986
1.00513 0.996195 0.989259
1.0051 0.996517 0.988725
1.00506 0.999151 0.986446
1.00223 1.0026 0.988411
1.00146 1.00216 0.989918
1.00098 1.00494 0.98847
1.0001 1.00088 0.993507
1.0003 1.00457 0.989766
1.00011 1.00328 0.991165
1.00519 0.99555 0.989997
1.0052 0.995187 0.990297
1.00513 0.995175 0.990222
1.00268 1.00348 0.986641
1.00455 1.00263 0.983676
1.00493 1.00165 0.984103
1.00516 0.995562 0.989818
1.00512 0.997537 0.987718
1.00013 1.00024 0.994176
1.00009 1.00257 0.992085
1.00206 1.0022 0.988523
1.00167 1.00356 0.988596
1.00048 1.00494 0.989066
1.00023 1.00399 0.990457
1.00516 0.994977 0.99061
1.00514 0.994928 0.990488
1.00512 0.995107 0.990299
1.00513 0.995589 0.989589
1.00301 1.0027 0.986044
1.0048 1.00058 0.985245
1.00499 1.00308 0.982877
1.0002 0.999843 0.99456
1.0002 1.001 0.993444
1.0001 1.00171 0.992757
1.00003 1.00354 0.991178
1.00009 1.00466 0.989848
1.0002 1.00485 0.989142
1.00252 1.00121 0.988497
1.00176 1.00346 0.989281
1.00015 1.00185 0.992627
0.999956 1.00396 0.990937
1.00511 0.996923 0.988803
1.00003 1.00503 0.989653
1.00199 1.00355 0.988039
1.00101 1.00259 0.990108
1.00509 0.999536 0.986097
1.00511 0.998342 0.98704
1.00357 1.0029 0.985221
1.00505 1.00089 0.984602
0.999953 1.00279 0.991916
0.999844 1.00476 0.990028
1.00257 1.00251 0.987819
1.00082 1.00412 0.989016
1.00513 0.9954 0.989945
1.005 0.99756 0.988111
1.00503 0.999733 0.985751
1.00442 1.0016 0.984842
0.999794 1.0035 0.991501
1.00512 0.995034 0.990277
1.00052 1.005 0.989299
1.00263 1.00289 0.987191
1.00496 0.996035 0.989875
1.00484 0.998734 0.986366
1.0048 1.00114 0.984929
1.00008 1.00243 0.992217
0.999834 1.00302 0.992062
0.99956 1.00347 0.992209
1.00014 1.0017 0.992806
1.00011 1.00246 0.992117
0.999867 1.00284 0.991981
1.00014 1.00179 0.992731
1.00011 1.00256 0.991915
0.999802 1.00299 0.992043
1.00012 1.00285 0.991751
0.999995 1.00274 0.992181
0.999974 1.00298 0.991836
1.00017 1.00308 0.991429
1.00026 1.00259 0.991707
1.00015 1.00191 0.992597
1.00007 1.00058 0.994026
1.0001 1.00048 0.994079
1.00013 0.998114 0.996836
1.00015 1.00037 0.994097
1.00013 0.998099 0.996875
1.00006 0.996774 0.998067
1.00013 0.998112 0.996892
1.00002 0.996795 0.998084
0.999963 0.996846 0.9981
1.00019 0.999784 0.994649
1.00008 0.997966 0.996589
1.00002 0.998235 0.996427
0.999812 0.996987 0.999213
0.999945 0.998659 0.996149
0.999725 0.997347 0.999149
0.999679 0.997703 0.999054
1.00514 0.995832 0.989727
1.00518 0.995268 0.990179
1.00521 0.995264 0.990286
1.00521 0.996504 0.98921
1.00519 0.995239 0.99037
1.00515 0.994948 0.990651
1.00514 0.995136 0.990286
1.00515 0.994941 0.990686
1.00515 0.994943 0.990569
1.00493 0.995042 0.990973
1.00518 0.995627 0.990051
1.0052 0.995102 0.990353
1.00513 0.995222 0.990268
1.00268 1.00354 0.986613
1.00439 1.00259 0.983966
1.00489 1.0015 0.984427
1.00515 0.995625 0.989753
1.00513 0.997476 0.987668
1.00185 1.00223 0.988735
1.0016 1.0036 0.989064
1.00031 1.00489 0.989283
1.00012 1.00018 0.994325
1.00012 1.00255 0.992082
1.00021 1.00406 0.990389
1.00517 0.994961 0.990572
1.00018 0.999864 0.994555
1.00017 1.00103 0.993378
1.00513 0.994929 0.990502
1.00512 0.995107 0.990292
1.00277 1.00292 0.986463
1.00498 1.00289 0.98305
1.00486 1.00045 0.985163
1.00513 0.995746 0.989484
1.00011 1.00169 0.992937
1.00007 1.00351 0.991157
1.00275 1.00161 0.988244
1.00117 1.00347 0.989672
1.00027 1.00475 0.989324
1.00005 1.0047 0.98994
1.00518 0.99495 0.99043
1.0051 0.994875 0.990572
1.00511 0.995052 0.990067
1.00477 0.996504 0.989135
1.00278 1.00246 0.987047
1.00448 1.00313 0.983757
1.00012 1.00112 0.993295
1.00018 1.00112 0.993349
1.00028 1.00173 0.992705
1.0001 1.00291 0.991519
0.999955 1.00424 0.990729
1.00067 1.00442 0.98928
0.999656 1.00501 0.989668
1.00194 1.00095 0.989827
0.999974 1.00284 0.991832
0.999965 1.00469 0.990088
1.00514 0.995279 0.990108
1.00507 0.997589 0.987915
1.00113 1.00418 0.989105
1.00247 1.00251 0.987914
1.00504 0.999706 0.98578
1.00473 1.00178 0.984693
0.999839 1.00352 0.99146
1.00514 0.994952 0.990414
1.0003 1.00494 0.9894
1.00264 1.00276 0.987092
1.005 0.995939 0.989816
1.00477 0.998806 0.986616
1.0048 1.0013 0.984975
0.999882 1.00451 0.990703
1.00451 0.994945 0.991971
1.00164 1.00399 0.988864
1.00327 1.00285 0.986568
1.00486 0.996643 0.989149
1.00412 1.00069 0.985929
0.999298 0.99694 0.991391
0.999788 1.00301 0.992039
0.999446 1.00354 0.9922
0.999723 1.00354 0.992042
1.00013 1.00181 0.992719
1.00009 1.0026 0.991935
1.00018 1.00279 0.991787
0.999735 1.00299 0.992051
1.00015 1.0019 0.992595
1.00023 1.00265 0.991695
0.999953 1.00283 0.992058
1.00014 1.00313 0.991431
1.00005 1.00292 0.991803
1.00004 1.00265 0.992125
1.00026 1.00322 0.991139
1.00021 1.00313 0.991331
1.00035 1.0027 0.99144
1.00019 1.002 0.992334
1.00027 1.00251 0.991926
1.00018 1.00208 0.992217
1.00006 1.00062 0.993976
1.00006 1.00058 0.994024
1.00015 0.998202 0.996224
1.0001 1.00047 0.994076
1.00014 0.998156 0.996548
1.00003 0.996735 0.99917
1.00013 0.998134 0.996872
1.00006 0.996737 0.998072
1.00002 0.996761 0.998087
1.00015 0.999753 0.994729
1.00019 0.999757 0.994655
1.0001 0.997831 0.9967
1.00007 0.997973 0.996842
0.999888 0.996787 0.999246
1.00003 0.998254 0.996411
0.999804 0.997055 0.999202
0.999728 0.997407 0.99913
1.00513 0.995172 0.990267
1.00515 0.994945 0.990669
1.00518 0.995149 0.990513
1.00515 0.99494 0.990683
1.00514 0.994944 0.990563
1.00495 0.995156 0.990631
1.00517 0.99497 0.9905
1.00099 0.994849 0.988076
1.00415 0.994917 0.993457
1.00005 1.00116 0.993505
1.00518 0.994943 0.990534
1.00513 0.994933 0.990516
1.00512 0.995104 0.990284
1.00251 1.00309 0.986879
1.00488 1.00276 0.983221
1.00497 1.00031 0.985086
1.00512 0.995931 0.989378
1.00309 1.00177 0.987993
1.00055 1.00347 0.990068
1.00039 1.00464 0.989507
1.00016 0.999905 0.994551
1.00003 1.0047 0.990032
1.0001 1.00167 0.993116
1.00012 1.00348 0.991136
1.00015 1.00103 0.993313
1.00518 0.994947 0.990433
1.00012 1.00109 0.993393
1.00015 1.00116 0.993345
1.00027 1.00173 0.992624
1.00509 0.994889 0.990555
1.00512 0.99511 0.99003
1.00295 1.0024 0.987088
1.00437 1.00264 0.98427
1.00467 0.996904 0.98905
1.00004 1.00294 0.991644
1.00002 1.00423 0.990548
1.00183 1.00165 0.989649
1.00003 1.00481 0.989711
1.00057 1.00432 0.989349
1.00514 0.995043 0.990546
1.00512 0.994873 0.990488
1.00503 0.996017 0.989332
1.00452 0.998371 0.988591
1.00175 1.0027 0.989045
1.00012 1.00207 0.992333
1.00031 1.00192 0.99216
1.00011 1.0026 0.991851
0.999896 1.00424 0.991043
0.999994 1.00441 0.990224
1.00008 1.00454 0.989657
1.00035 1.00359 0.990255
0.999928 1.00351 0.991416
1.00001 1.00483 0.9895
1.00516 0.994907 0.990547
1.00504 0.995806 0.989755
1.00474 0.998856 0.986865
1.00266 1.00262 0.986995
1.0048 1.00142 0.985022
0.999906 1.00445 0.990817
1.00442 0.994934 0.992087
1.00127 1.00391 0.989007
1.00303 1.0029 0.986584
1.00481 0.99639 0.989487
1.00424 1.00075 0.985901
0.99932 0.996771 0.989357
1.00003 1.00439 0.990599
1.00324 0.996645 0.992117
1.00119 1.00344 0.989314
1.0027 1.00197 0.987422
1.00398 0.997581 0.98853
1.00031 0.995527 0.954197
0.996949 0.994966 0.973332
0.996996 1.0026 0.990416
0.999774 0.996887 0.904853
0.994732 0.997632 0.882479
0.999355 1.0036 0.992192
0.999435 1.00378 0.9921
0.999786 1.00296 0.992321
1.00015 1.0019 0.992593
1.00027 1.00257 0.991682
1.00013 1.00315 0.991433
1.00013 1.00285 0.99177
0.999903 1.00297 0.991935
1.00024 1.00307 0.991288
1.00019 1.00197 0.992406
1.00034 1.0027 0.99146
1.00006 1.00264 0.992043
1.00019 1.00325 0.991229
1.00025 1.00326 0.991225
0.999935 1.00296 0.991749
1.00034 1.00315 0.991095
1.00035 1.00269 0.991394
1.00021 1.00208 0.992201
1.00034 1.00274 0.991496
1.00024 1.00271 0.991707
1.00012 1.0025 0.992044
1.00026 1.00254 0.99186
1.00023 1.00183 0.992547
1.0002 1.0021 0.992205
1.00011 1.00059 0.993944
1.00007 1.00063 0.993974
1.00014 0.99827 0.996199
1.00006 1.0006 0.994021
1.00015 0.998214 0.996222
1.00004 0.996741 0.999163
1.00015 0.998197 0.996261
1.00006 0.996737 0.998605
1.00006 0.996701 0.998076
1.00009 0.999766 0.994807
1.00015 0.999743 0.994731
1.00012 0.997734 0.996775
1.0002 0.99973 0.994661
1.0001 0.997794 0.996954
0.999942 0.99662 0.999275
1.00008 0.998012 0.99656
0.999876 0.99687 0.99923
0.999798 0.997112 0.99919
1.00513 0.994946 0.990557
1.00515 0.994939 0.99068
1.00496 0.995189 0.990289
1.00084 0.994956 0.988184
1.00515 0.994966 0.990492
1.00405 0.995389 0.992987
1.00489 0.996381 0.991228
0.997183 0.995043 0.972083
1.00083 0.996548 0.989491
1.00007 1.00121 0.993442
1.0001 1.00111 0.993499
1.00002 1.00214 0.99257
1.00008 1.00211 0.992534
1.00517 0.99494 0.990436
1.00508 0.994895 0.990539
1.00512 0.995137 0.989993
1.00335 1.00215 0.98713
1.00421 1.00199 0.984778
1.00459 0.99734 0.98896
1.00158 1.00251 0.989472
1.00046 1.00461 0.989752
1.00046 1.00421 0.989417
1.00012 1.00123 0.99334
1.00006 1.00423 0.990365
1.00007 1.00295 0.99177
1.00012 1.00108 0.993491
1.00023 1.00176 0.992541
1.00515 0.995005 0.990537
1.00012 1.00212 0.992443
1.00028 1.00195 0.992324
0.99996 1.0025 0.992204
1.00513 0.994884 0.9904
1.00493 0.995867 0.98937
1.00219 1.00205 0.988955
1.00418 0.998272 0.988981
0.999975 1.00407 0.990939
1.00016 1.00459 0.989778
1.00038 1.00389 0.990226
1.00053 1.00439 0.989585
1.00469 0.994964 0.99138
1.0051 0.995744 0.989958
1.00502 0.996462 0.989219
1.00227 0.999672 0.991185
0.999984 1.00324 0.99147
1.00012 1.00317 0.991275
0.99944 1.00456 0.991089
0.999638 1.00507 0.990103
1.00002 0.994897 0.947729
0.999892 1.00442 0.990932
1.00081 1.00389 0.989148
1.00437 0.994914 0.9922
1.00474 0.996229 0.989826
1.00431 1.00077 0.985869
1.00274 1.00297 0.986597
0.999498 0.996556 0.987267
0.999901 1.00459 0.990688
1.00345 0.996386 0.992135
1.00109 1.0035 0.989349
1.00301 1.00164 0.987386
1.00423 0.99781 0.988578
1.00142 0.99579 0.946137
0.996759 0.99523 0.969127
0.996884 1.00231 0.990168
0.999784 0.997441 0.908065
0.994719 0.997585 0.872759
0.99979 1.0037 0.991649
0.999879 0.995213 0.91408
0.99533 0.996921 0.883962
1.00192 1.00033 0.990865
1.00057 1.00332 0.990303
1.00224 1.00052 0.988877
0.996716 1.00354 0.98994
1.0003 0.997196 0.95146
0.994944 0.996612 0.96701
0.998222 0.9988 0.911938
0.99479 0.998855 0.88008
0.99921 1.00397 0.992157
0.999666 1.00317 0.992253
0.999577 1.00243 0.993571
1.0002 1.00194 0.992478
1.00034 1.00273 0.991479
1.00015 1.00316 0.991247
1.00012 1.00328 0.99132
1.00009 1.00262 0.991961
1.00022 1.00205 0.992212
1.00018 1.00333 0.991183
1.00033 1.00314 0.99111
1.00038 1.00266 0.991453
0.999934 1.00292 0.991837
1.00013 1.00334 0.991411
0.999584 1.00318 0.991946
1.00043 1.00309 0.990952
1.00043 1.00278 0.991296
1.00038 1.00271 0.991476
1.00023 1.00271 0.991732
1.00045 1.00279 0.991297
1.00008 1.00286 0.991791
1.00001 1.0026 0.991864
0.999732 1.00377 0.991396
0.999973 1.00276 0.992031
1.00014 1.0025 0.99204
1.00017 1.00176 0.992711
1.00025 1.00255 0.991795
1.00024 1.00184 0.992481
1.00018 1.0005 0.993934
1.00021 1.00211 0.992193
1.00011 1.0006 0.993946
1.00012 0.998255 0.99679
1.00006 1.00065 0.993971
1.00013 0.998249 0.996493
1.00009 0.996768 0.998001
1.00015 0.998228 0.99622
1.00004 0.996751 0.99916
1.00009 0.996744 0.998039
1.0001 1.00131 0.99328
1.00006 0.999821 0.994815
1.0001 0.999753 0.994809
1.00013 0.997701 0.996796
1.00016 0.99973 0.994732
1.00013 0.997703 0.996776
0.999985 0.996516 0.999288
1.00008 0.9978 0.997188
0.999958 0.996695 0.998765
0.99992 0.996924 0.998198
1.00051 0.995282 0.988316
1.00514 0.994961 0.990487
1.00393 0.996144 0.992513
0.996759 0.995056 0.973473
1.00066 0.996409 0.989748
1.00494 0.995847 0.991028
1.00327 0.997081 0.989118
0.996879 0.996896 0.97601
1.00009 0.995621 0.951961
0.999335 0.998324 0.915227
0.994667 0.997666 0.881216
0.999955 1.00218 0.992499
1.00008 1.00119 0.993441
1.00015 1.00105 0.993493
1.00002 1.00215 0.99254
0.999908 1.00301 0.991923
1.00017 1.00267 0.991857
1.00006 1.00249 0.992229
1.00001 1.00224 0.992462
1.00517 0.994933 0.990525
1.00513 0.994903 0.99031
1.00492 0.995645 0.989411
1.0024 1.00165 0.988869
1.00386 0.998244 0.989375
1.00043 1.00423 0.990196
1.0009 1.00428 0.989514
1.00037 1.00473 0.989333
1.00019 1.00196 0.99249
0.999978 1.00408 0.990836
1.00012 1.00217 0.992554
0.999909 1.00237 0.992556
1.0047 0.994926 0.99146
0.99997 1.00326 0.991548
1.00009 1.00324 0.99143
1.00504 0.995456 0.989891
1.0047 0.996057 0.989525
1.00225 0.999654 0.990908
0.9997 1.00478 0.990614
0.999999 1.00474 0.990183
1.00342 0.996316 0.991899
1.00468 0.996123 0.990564
1.00426 0.995384 0.991236
1.00136 1.00042 0.99137
1.00001 1.00413 0.990551
0.999644 1.00436 0.990908
0.999656 1.00515 0.990444
0.999911 0.994838 0.915319
1.00052 0.995019 0.956548
0.999829 1.00476 0.990777
1.00102 1.00347 0.989386
1.00356 0.995956 0.992156
1.00446 0.998078 0.988626
1.00336 1.00136 0.987355
1.00053 0.995083 0.952605
0.997162 0.995642 0.968377
0.996719 1.00241 0.989889
0.999129 0.99731 0.916847
0.994704 0.997621 0.862809
0.999745 1.00367 0.991664
0.999882 0.995843 0.913026
0.9953 0.996989 0.879058
1.00189 1.00039 0.990921
1.00058 1.00318 0.990361
1.00235 1.00061 0.989345
0.997062 1.00331 0.99056
1.00144 0.997014 0.945423
0.994921 0.996073 0.970892
0.998542 0.999442 0.912396
0.994904 0.998643 0.877892
0.999325 1.00329 0.993173
0.995415 0.996793 0.883662
0.995084 0.998481 0.898033
0.999614 1.00187 0.992972
0.999575 1.00335 0.992301
0.996148 1.00279 0.991027
0.994829 0.999001 0.970216
0.998392 0.999222 0.943377
0.995132 0.999866 0.918073
0.994799 0.995578 0.887135
0.999665 1.00326 0.992187
0.999687 1.00215 0.993523
0.998756 1.00275 0.993865
1.00023 1.00203 0.992224
1.00038 1.00263 0.991512
1.00032 1.00312 0.991124
1.00014 1.00341 0.991142
0.99989 1.00292 0.991926
1.00042 1.0028 0.991291
1.00014 1.00326 0.991349
1.00044 1.00307 0.990968
0.999379 1.00344 0.992069
0.997742 1.00438 0.993762
1.00018 1.00341 0.991166
1.00062 1.00318 0.990632
1.0004 1.00269 0.991456
1.00026 1.00266 0.991758
1.00043 1.00282 0.991274
1.0001 1.00286 0.991768
1.00006 1.00256 0.991968
0.999852 1.00336 0.991621
1.00005 1.00296 0.991569
0.999946 1.00269 0.992036
1.00021 1.00286 0.991545
0.999892 1.00494 0.989557
0.99955 1.00414 0.991133
0.999784 1.00375 0.991388
0.999854 1.00311 0.991872
0.999998 1.00277 0.992024
1.00009 1.00183 0.992748
1.00014 1.00254 0.992036
1.00018 1.00175 0.992717
1.00023 1.00036 0.993951
1.00025 1.00184 0.992416
1.00017 1.00048 0.993942
1.00013 0.998242 0.996791
1.0001 1.0006 0.993948
1.00014 0.998229 0.996502
1.00006 0.996748 0.998021
1.00015 0.998225 0.996204
1.00003 0.996773 0.999154
1.00003 0.99676 0.999157
1.00013 1.00145 0.993309
1.00006 0.999919 0.994724
1.0001 1.00132 0.993284
1.00014 0.997698 0.996785
1.00006 0.999814 0.994818
1.0001 0.99975 0.994811
1.00013 0.997691 0.996794
1.00001 0.996459 0.999289
1.00011 0.997682 0.997254
1 0.996531 0.9988
0.999984 0.996694 0.998282
0.999847 0.996042 0.906834
0.994857 0.996956 0.883031
0.997949 0.994854 0.973748
1.00056 0.995719 0.990024
1.005 0.995119 0.99083
0.996473 0.995884 0.977264
1.00345 0.996311 0.989447
1.00117 0.995986 0.951162
0.999806 0.997605 0.906482
0.994683 0.99753 0.871398
0.998661 0.995091 0.980856
1.00001 0.997885 0.952006
0.998315 0.999062 0.910776
0.994769 0.997554 0.879794
1.00003 1.00318 0.99153
0.999961 1.00218 0.992574
1.00012 1.00115 0.993442
1.00003 1.00212 0.992511
0.999887 1.0029 0.992061
1.00016 1.0032 0.991385
1.00013 1.0027 0.991872
1.00021 1.00278 0.991608
1.00009 1.00245 0.992144
0.99996 1.00235 0.992392
1.00469 0.994932 0.991545
1.00511 0.995202 0.989838
1.00425 0.995769 0.989835
1.00212 0.999786 0.99063
1.00036 1.00444 0.990261
0.999927 1.00496 0.990138
1.00007 1.0032 0.991587
0.999907 1.0033 0.991624
1.00345 0.995702 0.992125
0.999963 1.00431 0.990455
0.999623 1.00445 0.99079
1.00484 0.995863 0.990225
1.0039 0.995383 0.991595
1.00179 1.00037 0.990861
0.999885 1.00514 0.990299
1.00064 0.99757 0.992661
1.00246 0.995739 0.994675
1.00015 1.0026 0.991256
0.999719 1.00471 0.990272
0.999748 1.00484 0.990185
0.999482 1.00512 0.990548
0.994763 0.996626 0.898737
0.999897 0.994866 0.918354
1.00003 0.994912 0.947752
0.999563 1.00384 0.991678
1.0006 1.00301 0.990418
1.00191 1.00002 0.990984
1.0025 1.0008 0.989807
0.999852 0.995469 0.919366
1.00018 0.996977 0.94556
0.994905 0.995521 0.967137
0.997387 1.00219 0.991134
0.998357 0.999074 0.902941
0.995284 0.997001 0.88062
0.994889 0.998396 0.883637
0.999039 1.00326 0.99318
0.995353 0.995799 0.889573
0.995216 0.99867 0.897582
0.999919 1.00172 0.992904
0.999338 1.0035 0.992297
0.995964 1.0001 0.99395
0.994861 0.99826 0.969122
0.99744 0.999161 0.952219
0.997293 0.999886 0.908273
0.994796 0.995643 0.892877
0.997783 1.00386 0.995264
0.99508 0.996675 0.908804
0.994761 0.995476 0.907878
0.995915 1.0022 0.999259
0.994794 0.999922 0.976834
0.99521 0.999977 0.952712
0.994807 0.999924 0.905891
0.994862 0.994786 0.890604
0.999777 1.00188 0.993474
0.998922 1.00279 0.994048
0.997266 1.00423 0.995198
1.00041 1.00283 0.991285
1.00046 1.00306 0.990984
1.00017 1.00314 0.991287
0.999187 1.00368 0.992197
1.00055 1.00326 0.990613
1.00013 1.00349 0.991142
0.99779 1.00429 0.994178
0.99588 1.00522 0.996513
0.99831 1.00444 0.993469
1.00036 1.00346 0.990838
1.00044 1.00284 0.99125
1.00011 1.00287 0.991744
1.00006 1.00257 0.992071
1.00006 1.00291 0.991642
0.999877 1.00336 0.991626
0.999947 1.00274 0.992068
1.00008 1.00298 0.991778
0.999235 1.00265 0.993138
1.00117 1.00058 0.991811
1.00026 1.00273 0.991654
1.00015 1.00389 0.990393
1.0014 1.0049 0.987496
0.999826 1.00476 0.99063
0.99976 1.00492 0.989949
0.999653 1.00411 0.991197
0.999708 1.00349 0.991559
0.999839 1.00374 0.991379
0.999925 1.00305 0.991872
1.00003 1.00208 0.992599
1.00006 1.00273 0.992018
1.00012 1.00182 0.992743
1.00024 1.00036 0.993947
1.0002 1.00173 0.992722
1.00023 1.00039 0.993955
1.00012 0.998226 0.996807
1.00018 1.00048 0.993949
1.00014 0.998222 0.996508
1.00002 0.996832 0.998018
1.00016 0.998204 0.996212
1.00004 0.996769 0.998587
1.00003 0.99677 0.999157
1.00015 1.00178 0.992764
1.00009 1.00003 0.994567
1.0001 1.0015 0.99314
1.00014 0.997739 0.996729
1.00006 0.999911 0.994726
1.00007 1.00137 0.993288
1.00003 0.996436 0.999286
1.00013 0.997695 0.996786
1.00006 0.999797 0.994821
1.00013 0.997681 0.996791
1.00001 0.996472 0.999289
0.999984 0.996521 0.999287
0.994712 0.994985 0.891156
0.999867 0.99564 0.91217
0.9951 0.998781 0.897844
0.995034 0.997095 0.88037
0.996553 0.995377 0.974605
1.0035 0.996233 0.989804
1.00029 0.996544 0.949765
0.999799 0.997263 0.915999
0.994708 0.997628 0.861441
0.998476 0.995675 0.979902
1.00127 0.997671 0.942155
0.998482 0.999362 0.911529
0.994799 0.998196 0.874642
0.995594 0.99625 0.975369
0.997824 0.998922 0.944149
0.995763 0.999839 0.903705
0.99484 0.995359 0.881634
1.00001 1.00396 0.990853
0.999991 1.00314 0.991645
0.999932 1.00223 0.992646
0.999857 1.00279 0.992198
1.00035 1.00345 0.990664
1.00014 1.00311 0.991481
1.00006 1.00275 0.991886
1.00036 1.00284 0.991439
1.00023 1.00277 0.991699
1.00011 1.00243 0.992057
1.00359 0.99543 0.992332
1.00481 0.995521 0.989891
1.00388 0.995277 0.991945
1.00206 1.00016 0.990366
1.00004 1.00511 0.990156
0.999709 1.00456 0.990674
0.999901 1.00448 0.990359
0.999935 1.00472 0.990162
1.00085 0.997443 0.992982
0.999876 1.00487 0.990142
0.999726 1.00512 0.990519
1.00269 0.995745 0.994173
1.00061 1.00249 0.991105
0.998572 0.997073 0.994233
0.998456 0.998201 0.999933
0.998768 1.00441 0.991894
0.999952 1.00492 0.989861
0.99943 1.00506 0.990623
0.994806 0.996487 0.914326
0.994754 0.996661 0.896642
0.999883 0.994847 0.90962
0.998766 1.00324 0.993189
0.999158 1.00355 0.992274
1.00024 1.0016 0.992851
0.995362 0.994914 0.890437
0.997734 0.99894 0.944413
0.994863 0.997419 0.969441
0.996104 0.998788 0.997094
0.995717 0.999899 0.918169
0.99552 0.99889 0.897154
0.994843 0.995476 0.893129
0.997658 1.00378 0.995489
0.995201 0.9958 0.911675
0.994744 0.995428 0.907925
0.996153 1.00244 0.998355
0.994827 0.999656 0.978253
0.99614 0.999939 0.944507
0.994863 0.994827 0.891252
0.994856 0.999955 0.912549
0.995708 1.00509 0.997888
0.994657 0.994718 0.927325
0.994789 0.9948 0.91138
0.994828 0.995632 0.881923
0.995032 1.00052 0.993601
0.99504 0.999855 0.955858
0.994938 0.999992 0.911309
0.999149 1.00285 0.99423
0.997723 1.00434 0.994484
0.995504 1.00515 0.998048
1.00053 1.00328 0.990593
1.00007 1.00353 0.991116
0.997786 1.00421 0.994581
1.00026 1.00339 0.990901
0.998335 1.0043 0.993492
0.996002 1.00475 0.996881
0.995619 1.0051 0.997825
0.998518 1.00359 0.993463
1.00006 1.00287 0.991716
0.999896 1.00336 0.991632
0.999973 1.00278 0.992103
0.9994 1.00285 0.993003
1.00003 1.0029 0.991767
0.99986 1.00225 0.992792
1.00048 1.00106 0.992651
1.00108 1.00246 0.989959
1.00034 1.00257 0.991765
1.00054 1.0038 0.99016
1.00189 1.00362 0.987313
1.00189 1.00422 0.987021
1.00014 1.00493 0.98969
1.00113 1.00485 0.987606
0.999881 1.00409 0.990948
0.999746 1.00483 0.990559
0.999614 1.00494 0.99034
0.999758 1.00407 0.991261
0.999764 1.0034 0.991652
1.00001 1.00236 0.992365
0.999986 1.00298 0.991872
1.00007 1.00205 0.992601
1.00021 1.00051 0.993853
1.00015 1.00181 0.992739
1.00025 1.00036 0.993944
1.00009 0.99824 0.996832
1.00024 1.00038 0.99396
1.00013 0.998206 0.996528
0.999968 0.996915 0.99804
1.00016 0.998174 0.996223
1 0.99684 0.998587
1 0.99681 0.99916
1.00025 1.00199 0.992192
1.00014 1.00028 0.994031
1.00016 1.00178 0.992763
1.00015 0.997837 0.996606
1.00009 1.00004 0.994435
1.00009 1.0015 0.992973
1.00003 0.996481 0.999269
1.00014 0.997736 0.996734
1.00005 0.9999 0.994728
1.00003 0.996445 0.999287
1.00013 0.997691 0.996787
1.00001 0.996475 0.99929
0.994793 0.994842 0.911105
0.994722 0.995691 0.895729
0.999854 0.996031 0.913254
1.00046 1.00294 0.991049
0.99479 0.996696 0.912456
0.995127 0.998079 0.897552
0.995178 0.996798 0.884384
0.998586 0.996198 0.97854
0.999552 0.998218 0.951588
0.998319 0.998761 0.901513
0.994795 0.998643 0.877679
0.996456 0.996119 0.971407
0.997488 0.998823 0.952032
0.997161 0.999904 0.907542
0.994815 0.996094 0.883602
0.99487 0.997262 0.967587
0.995386 0.999958 0.951337
0.994886 0.999969 0.912573
0.994874 0.994814 0.890465
1.0002 1.00427 0.990123
1.00002 1.004 0.990739
0.999992 1.0031 0.991759
1.00031 1.00358 0.990636
1.00031 1.00349 0.990798
1.00014 1.00304 0.991578
1.00038 1.00281 0.991473
1.00024 1.00275 0.991789
1.00089 0.997157 0.993265
1.00285 0.995794 0.993642
1.00003 1.00464 0.990052
1.00132 1.00238 0.990941
0.99999 1.00513 0.99049
0.999939 1.00489 0.990099
0.999944 1.00494 0.989928
0.99812 0.997539 0.994796
0.999641 1.00505 0.990594
0.999419 1.00404 0.991954
0.99853 0.997784 0.999944
0.999947 1.00494 0.989913
0.996638 0.998369 0.994797
0.996062 0.999889 1.00238
0.99864 1.0053 0.991838
0.999786 1.00496 0.990562
0.994646 0.994829 0.932106
0.994795 0.996661 0.914533
0.994744 0.996746 0.894544
0.997489 1.00376 0.995739
0.996105 1.0023 0.997431
0.995206 0.994838 0.914487
0.995297 0.999984 0.953052
0.994837 0.999024 0.97519
0.994859 0.999943 0.911823
0.994692 0.995613 0.907961
0.994853 0.995044 0.891887
0.99602 1.00483 0.997575
0.994646 0.994722 0.927208
0.994769 0.994921 0.915425
0.994892 1.00132 0.996944
0.994808 0.996342 0.883786
0.994926 0.999258 0.95085
0.995028 0.999998 0.915929
0.995091 1.00433 0.998806
0.994685 0.994709 0.931657
0.994764 0.996923 0.912606
0.994755 0.997912 0.879994
0.995916 0.999972 0.911871
0.994918 0.998935 0.984973
0.995312 1.00072 0.943312
0.998228 1.00438 0.993766
0.995658 1.00514 0.997699
0.994929 1.00507 0.999968
1.00015 1.00335 0.990965
0.998337 1.00428 0.993515
0.99615 1.00403 0.997247
0.998691 1.00373 0.993373
0.995793 1.0042 0.997793
0.997671 1.00348 0.995957
0.999598 1.00299 0.992866
0.999923 1.00288 0.991757
0.999958 1.00234 0.992919
0.999613 1.00386 0.991024
0.999758 1.00151 0.993482
1.00088 1.00231 0.990384
1.00209 1.00309 0.987834
1.00408 1.00222 0.985123
1.00094 1.00371 0.989924
1.00227 1.00379 0.98667
1.00281 1.00328 0.987098
1.00061 1.00468 0.98854
1.00187 1.00414 0.987239
0.999822 1.00468 0.990268
1.00018 1.00496 0.989648
1.00087 1.00478 0.987719
0.999993 1.00286 0.99188
0.999836 1.00407 0.990977
0.999671 1.00491 0.990487
0.999823 1.00332 0.991744
1.00005 1.00233 0.992362
1.00017 1.00078 0.993649
1.00011 1.00203 0.992604
1.00021 1.00051 0.993849
1.00004 0.998369 0.996262
1.00026 1.00038 0.993941
1.00011 0.998234 0.996273
0.999842 0.996998 0.999177
1.00014 0.998184 0.996244
0.999947 0.996921 0.998597
0.999964 0.996873 0.999161
1.00028 1.0022 0.991902
1.00021 1.00056 0.993615
1.00024 1.00201 0.992282
1.00016 0.997992 0.996433
1.00015 1.00029 0.99398
1.00016 1.00179 0.992761
1.00002 0.996572 0.999239
1.00015 0.99783 0.996615
1.0001 1.00005 0.994302
1.00004 0.996465 0.999275
1.00014 0.997732 0.996739
1.00003 0.996454 0.999288
0.994671 0.994738 0.92791
0.994797 0.995684 0.910921
0.994724 0.996449 0.89597
1.0004 1.00297 0.991131
1.0004 1.00301 0.990983
1.00044 1.00337 0.990752
0.994746 0.994753 0.911026
0.994736 0.995991 0.91249
0.995224 0.997874 0.897255
0.996191 0.9956 0.973787
0.998453 0.999364 0.942973
0.995262 0.999916 0.917866
0.994818 0.996777 0.880097
0.994913 0.997133 0.9707
0.996226 0.999976 0.948393
0.994829 0.999961 0.912949
0.994863 0.994834 0.890998
0.99487 0.997518 0.966519
0.995174 0.999966 0.95273
0.99494 0.999996 0.911778
0.99482 0.995988 0.886886
1.00035 1.00413 0.990003
1.00019 1.00427 0.990088
1.00008 1.00402 0.990625
1.00038 1.00349 0.990613
1.00024 1.00351 0.990932
1.0004 1.00279 0.991508
0.997654 0.997978 0.995348
0.998254 0.997621 0.99998
0.999983 1.00488 0.989994
1.00001 1.00324 0.992018
0.999766 1.00504 0.990566
1.00003 1.00485 0.989811
0.999445 1.00496 0.990651
0.99631 0.998036 0.995128
0.998662 1.00484 0.992496
0.995949 1.00064 1.00163
0.999782 1.00454 0.990661
0.995293 0.997684 0.995271
0.996417 1.0022 0.998273
0.998609 1.00523 0.992662
0.994663 0.994786 0.937087
0.994656 0.99482 0.933484
0.99479 0.996802 0.914725
0.996319 1.00464 0.997243
0.995019 1.00124 0.994143
0.99468 0.994728 0.927093
0.994865 0.999177 0.953582
0.994937 0.99997 0.906772
0.994764 0.994696 0.91947
0.99481 0.996933 0.880362
0.995208 1.00407 0.9992
0.994699 0.99474 0.933253
0.994726 0.996193 0.912651
0.994945 0.999203 0.98117
0.99478 0.998475 0.874966
0.994819 0.999961 0.912198
0.995035 1.00052 0.952738
0.995017 1.00435 0.996696
0.99467 0.994743 0.928291
0.995085 0.99906 0.898108
0.994652 0.997761 0.881902
0.996058 0.999202 0.903636
0.995957 0.999973 0.951431
0.995272 1.00028 0.974795
0.995946 1.00516 0.997373
0.995186 1.00384 0.999889
0.996511 1.00346 0.998586
0.998813 1.00386 0.993283
0.995953 1.0036 0.997766
0.996774 1.0039 0.996453
0.999711 1.00276 0.993097
1.00007 1.0025 0.993045
1.00065 1.00358 0.990615
1.00147 1.00459 0.987542
1.00068 1.00222 0.990822
1.00234 1.00326 0.987344
1.00391 1.00381 0.98415
1.00502 1.00169 0.983994
1.00362 1.00214 0.985729
1.00408 1.00243 0.984948
1.00264 1.00394 0.986026
1.00231 1.00342 0.987766
1.00251 1.00306 0.987464
1.00016 1.00486 0.989139
1.00075 1.00467 0.988695
1.00186 1.00407 0.987459
0.999905 1.00403 0.990819
0.999957 1.00464 0.990281
1.0002 1.00499 0.989605
1.00013 1.00117 0.993313
1.00005 1.00281 0.991868
0.999793 1.00405 0.991008
1.00009 1.00231 0.992358
1.00018 1.00079 0.993645
0.999956 0.998592 0.996185
1.00022 1.00052 0.993845
1.00005 0.998368 0.996256
0.999776 0.997159 0.999168
1.00011 0.998223 0.99627
0.999874 0.997026 0.998609
0.999909 0.996964 0.999166
1.00034 1.00238 0.9918
1.00028 1.00078 0.993461
1.00031 1.00219 0.991957
1.00017 0.998177 0.996228
1.00021 1.00055 0.993697
1.00026 1.00202 0.992372
1.00001 0.996706 0.9992
1.00016 0.997975 0.996446
1.00016 1.00029 0.99393
1.00003 0.996552 0.999248
1.00015 0.997826 0.996624
1.00004 0.996459 0.999281
0.994682 0.99472 0.931371
0.994668 0.994739 0.927794
0.994804 0.996464 0.910846
1.00028 1.00325 0.990922
1.0003 1.00363 0.990684
1.00036 1.00299 0.991215
1.00037 1.00308 0.990976
1.00034 1.00345 0.990716
1.00029 1.00351 0.990747
1.00046 1.00354 0.990443
0.99474 0.995234 0.907363
0.994765 0.994871 0.915127
0.994682 0.995487 0.912532
0.994834 0.994947 0.891538
0.994876 0.997007 0.968005
0.995222 0.999964 0.946083
0.994866 0.999915 0.918483
0.994862 0.997926 0.965828
0.994915 0.999992 0.945116
0.994987 1 0.916736
0.994793 0.995643 0.892704
0.995347 0.996525 0.969803
0.994931 1.00035 0.944745
0.994789 0.999901 0.906555
0.994787 0.998885 0.87946
0.999766 1.00473 0.990469
1.00028 1.00419 0.990023
1.0002 1.00437 0.990053
1.00046 1.00339 0.99059
0.996179 0.997797 0.995512
0.995842 1.00157 1.00087
1.00002 1.00491 0.989709
0.999412 1.00501 0.99074
0.998981 1.00474 0.993154
0.999718 1.00468 0.99062
0.998381 1.00523 0.992666
0.995192 0.998907 0.992519
0.995807 1.0034 0.998644
0.997893 1.00502 0.993323
0.995176 0.998608 0.991084
0.997458 1.00434 0.996939
0.994658 0.994826 0.932179
0.994654 0.99474 0.93996
0.99465 0.994797 0.934859
0.99506 1.0038 0.999552
0.994939 0.997981 0.985688
0.994686 0.994752 0.934875
0.99636 1.00071 0.943913
0.994853 0.999923 0.917583
0.994687 0.995733 0.912698
0.994778 0.998836 0.878029
0.994975 1.00285 0.997352
0.994671 0.994734 0.928189
0.995196 0.998336 0.897797
0.994921 1.00062 0.975923
0.994676 0.997621 0.87227
0.997231 0.999897 0.907192
0.994905 0.999984 0.944476
0.995473 1.00466 0.991179
0.994905 0.994851 0.911714
0.994972 0.997002 0.883656
0.998693 0.998141 0.91155
0.995293 0.999961 0.951427
0.994888 1.00001 0.968801
0.995404 1.00289 0.999995
0.995758 1.00412 0.998545
0.9978 1.00142 0.996953
0.995945 1.00429 0.996949
0.998534 1.00301 0.993652
1.00293 1.00048 0.989849
1.0017 1.00321 0.990205
1.00185 1.00449 0.987418
1.00287 1.00429 0.984763
1.00263 1.00344 0.986855
1.0042 1.0038 0.983702
1.00447 1.00386 0.982831
1.00503 1.00109 0.984577
1.00511 1.00161 0.984195
1.00496 1.00184 0.98393
1.00321 1.0022 0.986313
1.00369 1.00211 0.985957
1.00406 1.00266 0.984772
1.00171 1.00424 0.98769
1.00217 1.00338 0.987742
1.0022 1.00284 0.987826
1.00011 1.00493 0.98951
1.0002 1.00489 0.989334
1.00091 1.00464 0.988853
1.00003 1.00202 0.992593
1.00004 1.00387 0.990831
1.00008 1.00461 0.990295
0.999866 0.998831 0.996086
1.00015 1.00118 0.993296
1.00012 1.00276 0.991858
1.00019 1.00078 0.993641
0.999955 0.998606 0.996176
0.999684 0.997368 0.999153
1.00005 0.998361 0.996251
0.999767 0.997197 0.999165
0.99984 0.997058 0.99917
1.00029 1.00335 0.990902
1.00041 1.00256 0.991548
1.00033 1.00106 0.993104
1.00035 1.00239 0.991788
1.00015 0.998424 0.996006
1.00028 1.00079 0.993461
1.00028 1.00224 0.992012
0.999975 0.996873 0.999152
1.00016 0.998174 0.996242
1.00022 1.00055 0.993778
1.00001 0.996675 0.999211
1.00016 0.997965 0.996459
1.00003 0.996524 0.999258
0.994669 0.99471 0.926998
0.994686 0.994736 0.932992
0.994665 0.99477 0.927661
1.00035 1.0032 0.990948
1.00021 1.0037 0.990659
1.00011 1.00384 0.990575
1.00015 1.00369 0.990644
1.00031 1.00406 0.990358
1.00035 1.00314 0.990968
1.00028 1.00354 0.99068
1.00032 1.00348 0.990744
1.00039 1.00366 0.99052
1.00012 1.00406 0.990672
0.995109 0.998497 0.897175
0.994747 0.995625 0.90744
0.994795 0.994732 0.919218
0.994811 0.995487 0.892946
0.994942 0.999971 0.907178
0.994879 0.998674 0.964404
0.994916 1.00008 0.952474
0.99489 0.996935 0.966616
0.994991 1.00007 0.952921
0.994845 0.999959 0.91368
0.99493 0.998635 0.87712
0.995016 0.995027 0.971511
0.99493 1.00009 0.953252
0.995663 0.999876 0.917073
0.994742 0.997645 0.880538
0.998774 1.00377 0.992818
0.999836 1.00479 0.990414
1.00026 1.00422 0.990043
0.995001 0.999875 0.989671
0.995467 1.00412 0.999
0.999722 1.00464 0.990577
0.99779 1.00522 0.99267
0.99808 1.00478 0.993351
0.996692 1.00391 0.996958
0.994926 0.998879 0.991258
0.996199 1.00229 0.998149
0.99599 1.00011 0.991417
0.995041 0.996173 0.913865
0.994664 0.994834 0.933534
0.994664 0.994705 0.942838
0.994996 1.00117 0.997706
0.994894 1.0011 0.972195
0.99467 0.994776 0.928067
0.996353 0.999987 0.950076
0.995184 0.999905 0.917441
0.995407 0.99788 0.897498
0.99471 0.997727 0.862495
0.995285 1.00491 0.991615
0.994819 0.995431 0.911554
0.995142 0.997043 0.881026
0.994894 1 0.969816
0.998512 0.999269 0.912121
0.996142 0.999958 0.947206
0.995409 1.00347 0.988558
0.994767 0.994868 0.8919
0.999494 0.99796 0.916194
0.997769 0.99872 0.943992
0.994865 0.99741 0.971543
0.995192 1.00481 0.998487
0.997794 1.00168 0.996847
1.00252 1.0002 0.991944
0.997431 1.00326 0.994129
1.00192 1.00075 0.990181
1.00397 0.999207 0.98816
1.00219 1.00437 0.987293
1.00296 1.00412 0.984845
1.00441 1.00161 0.984909
1.00448 1.00376 0.983256
1.00445 1.00352 0.982907
1.0049 1.00079 0.984982
1.00513 0.999379 0.986019
1.00513 1.00108 0.984378
1.00498 1.00104 0.984649
1.00484 1.00163 0.984589
1.00508 1.00161 0.984142
1.00492 1.00199 0.983867
1.00278 1.00332 0.986568
1.00318 1.00223 0.986545
1.00373 1.00214 0.986186
1.00105 1.0044 0.988439
1.00152 1.00424 0.987819
1.00203 1.00335 0.987716
0.999937 1.0035 0.991244
1.00024 1.00482 0.989526
1.00026 1.00492 0.989529
0.99977 0.999262 0.996404
1.00009 1.00203 0.992557
1.00017 1.00372 0.990845
0.999605 0.997618 0.997952
0.999862 0.998896 0.996345
1.00017 1.00119 0.993279
0.999952 0.998625 0.996167
0.999678 0.997415 0.999145
0.999758 0.997229 0.999161
1.00021 1.00369 0.990668
1.0004 1.00283 0.991289
1.00024 1.00344 0.990869
1.00035 1.00133 0.992802
1.00036 1.00263 0.991541
1.00012 0.998696 0.995793
1.00032 1.00106 0.993105
1.00038 1.00237 0.991775
0.999935 0.997083 0.9991
1.00015 0.998409 0.99602
1.00027 1.0008 0.99346
0.999979 0.996847 0.999166
1.00016 0.998167 0.996256
1.00001 0.996648 0.999223
0.995582 0.99484 0.914933
0.994661 0.994713 0.926898
0.99467 0.994733 0.93463
1.00045 1.00319 0.990762
1.00034 1.00325 0.990974
1.00014 1.00378 0.990634
1.00023 1.00372 0.990668
1.00027 1.00377 0.990618
1.00022 1.00398 0.990469
1.00032 1.0043 0.989923
0.999882 1.00441 0.99024
1.00039 1.00339 0.990741
1.00017 1.00378 0.990595
1.00001 1.0041 0.990635
0.999454 1.00447 0.99189
0.995298 0.997306 0.882905
0.995504 0.998653 0.896714
0.994733 0.995828 0.907505
0.995178 0.998332 0.882938
0.994847 0.999946 0.913433
0.99494 1.00033 0.944752
0.995388 0.99704 0.964584
0.995033 0.99515 0.973153
0.994718 0.997691 0.871217
0.994904 0.999963 0.948808
0.99718 0.999882 0.907441
0.994878 0.996277 0.973775
0.995502 0.999971 0.953292
0.999315 0.998209 0.908241
0.998954 1.00195 0.994922
0.998975 1.00381 0.992765
0.999755 1.00483 0.990358
0.994831 0.99929 0.991491
0.996058 1.00348 0.996971
0.998158 1.00462 0.993378
0.997454 1.00211 0.99796
0.995509 1.00003 0.991517
0.997004 0.99931 0.993935
0.994765 0.997993 0.892637
0.994929 0.995604 0.917757
0.994662 0.994818 0.934889
0.994957 1.00511 0.991938
0.99487 0.999952 0.970071
0.994794 0.996124 0.911476
0.995201 0.999994 0.945381
0.998595 0.99794 0.902427
0.99524 0.996888 0.885192
0.995759 1.00371 0.988524
0.994787 0.995529 0.896499
0.999818 0.996893 0.907689
0.994899 0.997632 0.96759
0.997499 0.998819 0.951751
0.997499 1.00053 0.992079
0.99984 0.995804 0.907586
1.00003 0.998042 0.95172
0.994866 0.996208 0.967169
0.997821 1.00189 0.996841
1.00186 0.999257 0.992401
1.00368 0.999603 0.989498
1.00085 1.00106 0.990518
1.00344 0.999794 0.988135
1.00457 0.998301 0.987799
1.00304 1.00396 0.984926
1.00426 1.00161 0.98488
1.005 0.998232 0.987076
1.00443 1.0032 0.982981
1.00487 1.0006 0.985018
1.00508 0.997714 0.987638
1.00514 0.997731 0.987639
1.00516 0.999779 0.985571
1.00512 0.999259 0.986124
1.00511 1.00092 0.984569
1.0051 1.00103 0.984483
1.00493 1.00097 0.984723
1.0042 1.00183 0.98545
1.00467 1.0016 0.984724
1.00503 1.00152 0.984087
1.00223 1.00358 0.987293
1.00284 1.00324 0.986555
1.00317 1.00221 0.986777
1.00043 1.0041 0.989848
1.00112 1.00442 0.988427
1.00132 1.00422 0.987949
0.999693 1.00004 0.995112
1.00009 1.00334 0.991239
1.0004 1.0047 0.989541
0.99951 0.997853 0.999106
0.999752 0.99936 0.995775
1.00014 1.00202 0.992522
0.999605 0.99762 0.999122
0.999842 0.998948 0.996042
0.999674 0.997469 0.999137
1.00055 1.00339 0.990502
1.00026 1.00367 0.990645
1.0004 1.00315 0.990971
1.00032 1.00164 0.992549
1.00035 1.00287 0.991287
1.00024 1.00344 0.990836
1.00007 0.998958 0.995607
1.00033 1.00135 0.992804
1.00032 1.00268 0.991533
0.999886 0.997301 0.999049
1.00012 0.998672 0.995805
1.00032 1.00108 0.993106
0.999938 0.997041 0.999116
1.00015 0.998397 0.996034
0.999983 0.996804 0.999181
0.995392 0.99642 0.884056
0.995365 0.994843 0.914793
0.994679 0.994717 0.926799
1.00028 1.00341 0.990744
1.00105 1.00288 0.990614
1.00031 1.00363 0.990489
1.00026 1.00377 0.990693
1.00041 1.00368 0.99066
1.00004 1.00398 0.99058
1.00006 1.00434 0.990223
1.00026 1.00429 0.990014
1.00023 1.00466 0.989724
0.999839 1.00114 0.993507
1.00016 1.00395 0.990599
0.999528 1.00417 0.991615
0.999812 0.997394 0.903522
0.995233 0.997346 0.877917
0.995719 0.998864 0.896296
0.994705 0.997819 0.861708
0.996797 0.998878 0.916946
0.994881 0.999981 0.947349
0.995123 0.995048 0.970845
0.994958 0.996388 0.972338
0.998512 0.999362 0.910914
0.99616 0.999969 0.945736
0.994895 0.997826 0.973277
0.998745 0.998834 0.944002
1.00205 0.99818 0.993448
0.999065 1.00192 0.994707
0.999168 1.0039 0.992725
0.99502 1.00015 0.991576
0.998486 1.00195 0.997759
0.997634 0.999477 0.993324
0.999498 0.99892 0.9903
0.999911 0.994838 0.915077
0.994883 0.997098 0.893337
0.994785 0.994872 0.921564
0.995998 1.00398 0.988644
0.99488 0.997663 0.965644
0.994742 0.996046 0.896692
0.998816 0.998555 0.94296
0.99981 0.997423 0.917056
0.997294 0.999911 0.990039
0.999868 0.995472 0.913002
1.00137 0.997449 0.942314
0.994898 0.996038 0.970633
0.998779 0.996483 0.992264
1.00005 0.996105 0.952051
0.996385 0.996051 0.97301
1.0013 0.998114 0.992812
1.00349 0.998608 0.989452
1.00489 0.997431 0.989223
1.00285 1.00033 0.988114
1.00432 0.998479 0.987801
1.00481 0.996834 0.988776
1.00416 1.00162 0.984852
1.00489 0.998459 0.987003
1.00509 0.995974 0.989162
1.00486 1.00043 0.985054
1.00507 0.997693 0.987638
1.00512 0.99612 0.989256
1.00511 0.996795 0.98884
1.00515 0.997559 0.987843
1.00516 0.998474 0.987058
1.00515 1.00013 0.985448
1.00517 0.999823 0.985604
1.0051 0.99914 0.986229
1.00503 1.00075 0.985002
1.00511 1.00094 0.984605
1.00509 1.00096 0.984587
1.00344 1.00255 0.98617
1.00418 1.00191 0.98544
1.00451 1.00164 0.984859
1.00122 1.00365 0.988892
1.00228 1.00356 0.987274
1.00291 1.00318 0.986542
0.999841 1.00089 0.993993
1.00054 1.00394 0.989857
1.00123 1.00439 0.988415
0.999544 0.998142 0.998969
0.999708 1.00014 0.99506
1.00022 1.00323 0.991234
0.999547 0.997878 0.998476
0.999738 0.999451 0.995746
0.999613 0.997677 0.999109
1.00076 1.00294 0.990577
1.00036 1.0035 0.990552
1.00034 1.00349 0.990641
1.00034 1.00365 0.990623
1.00033 1.00322 0.99097
1.00028 1.00199 0.992267
1.00001 0.999224 0.995462
1.00031 1.00163 0.992554
1.00028 1.00295 0.991284
0.999831 0.997505 0.999002
1.00007 0.998941 0.995616
1.00032 1.00136 0.992806
0.999889 0.997261 0.999064
1.00012 0.998654 0.995817
0.999943 0.997007 0.999131
0.999846 0.99524 0.913969
0.995436 0.996581 0.886227
0.995232 0.994844 0.914643
1.00013 1.00362 0.990725
1.00023 1.00389 0.990348
1.00076 1.0029 0.990851
1.00194 1.00316 0.988611
1.0004 1.00391 0.990325
1.0002 1.00434 0.990207
1.00023 1.00425 0.990105
1.0001 1.00452 0.989992
1.00056 1.00345 0.989249
1.0009 1.00016 0.993019
1.00422 0.998043 0.989153
0.999893 1.00103 0.993687
0.999792 1.00368 0.991336
0.99907 0.997619 0.951395
0.999785 0.997833 0.907575
0.995276 0.997012 0.879523
0.99916 0.999586 0.900591
0.995843 0.999955 0.950752
0.994889 0.996321 0.973787
0.994872 0.997829 0.975244
0.997433 0.998649 0.953469
0.995946 0.998219 0.974431
1.00309 0.996155 0.992986
1.00138 0.998811 0.993565
0.999196 1.00197 0.994483
0.998403 0.999419 0.992785
1.00045 0.999113 0.988991
1.00001 0.994891 0.947762
0.999895 0.994868 0.918506
0.994997 0.996395 0.894137
0.996939 0.999629 0.98793
0.994926 0.995921 0.967447
0.999854 0.9958 0.913986
1.00016 0.998264 0.951098
0.998086 0.997747 0.992624
1.00129 0.996145 0.950846
0.996636 0.995507 0.969813
1.00141 0.996299 0.991105
0.999218 0.995826 0.978439
1.00333 0.997753 0.989459
1.00482 0.996679 0.989168
1.00496 0.995922 0.990133
1.00409 0.998668 0.987801
1.0047 0.996932 0.98871
1.00513 0.995262 0.989928
1.00476 0.998667 0.986932
1.00509 0.996057 0.989131
1.00508 0.995038 0.990231
1.00508 0.997678 0.987637
1.00513 0.996118 0.989216
1.00513 0.9958 0.989816
1.00511 0.996563 0.988987
1.00513 0.997458 0.988192
1.00515 0.997384 0.988048
1.00516 0.998494 0.987034
1.00519 0.999257 0.986269
1.00514 1.0003 0.985328
1.00515 1.00018 0.98542
1.00517 0.999868 0.985637
1.00447 1.00105 0.985723
1.00497 1.00083 0.985012
1.0051 1.00096 0.984641
1.0021 1.00292 0.988076
1.00346 1.00253 0.986168
1.00415 1.00198 0.985431
1.00017 1.00135 0.992924
1.00129 1.00359 0.988878
1.00226 1.0036 0.987255
0.999641 0.998631 0.998708
0.999898 1.0009 0.993965
1.00069 1.00375 0.989867
0.999599 0.998241 0.99889
0.99973 1.00024 0.995007
0.999599 0.997911 0.999028
1.00184 1.00342 0.988112
1.00081 1.00281 0.990561
1.00043 1.0035 0.990318
1.00019 1.00357 0.990601
1.00029 1.00355 0.990607
1.00026 1.00242 0.99184
1.00027 1.00327 0.990968
1.00026 1.00199 0.992274
0.999925 0.999516 0.995322
0.999764 0.997712 0.998964
1.00001 0.999199 0.99547
1.0003 1.00162 0.992559
0.999834 0.997482 0.999016
1.00007 0.998929 0.995625
0.999894 0.997217 0.99908
1.00032 0.995236 0.954945
0.999858 0.995439 0.913031
0.995386 0.997072 0.883149
1.00016 1.00418 0.990208
1.00051 1.00285 0.991089
1.00053 1.00381 0.990328
1.00179 1.00312 0.988703
1.00342 1.00268 0.986252
1.00084 1.00345 0.989366
0.999946 1.00442 0.99026
1.00121 1.00351 0.988597
1.00066 1.0005 0.992995
1.0026 1.00034 0.989082
1.00454 0.997042 0.990355
1.00437 0.996798 0.989974
1.00373 0.997876 0.989854
0.999586 1.00128 0.99387
0.996027 0.996315 0.973955
1.00019 0.997155 0.949076
0.998336 0.997749 0.916715
0.998025 0.999336 0.943918
0.994863 0.998164 0.976258
0.9961 0.99815 0.978929
0.999933 0.998165 0.992237
1.00333 0.99586 0.99297
1.001 0.999319 0.993683
1.00209 0.999351 0.987626
0.996686 0.997492 0.974593
1.00034 0.995189 0.956561
0.999882 0.994843 0.909624
0.997476 0.998806 0.99286
0.996711 0.994861 0.972023
1.00027 0.996657 0.949374
1.0011 0.996454 0.991228
0.998718 0.995719 0.977685
1.00378 0.995797 0.991158
1.00301 0.998045 0.988012
1.00473 0.995979 0.989086
1.00487 0.99575 0.990122
1.00514 0.994874 0.990527
1.00461 0.997038 0.988644
1.00513 0.995224 0.989883
1.00508 0.994959 0.990482
1.00509 0.996126 0.989098
1.00508 0.995172 0.990198
1.00513 0.995269 0.990278
1.00513 0.996118 0.989176
1.00513 0.995765 0.98972
1.00512 0.996521 0.988995
1.00512 0.996343 0.989132
1.00513 0.997314 0.988352
1.00519 0.998624 0.986986
1.00517 0.998514 0.987009
1.00519 0.999323 0.98624
1.00519 0.999792 0.985888
1.00481 1.00027 0.985758
1.00513 1.00034 0.985334
1.00515 1.00022 0.985392
1.00315 1.00158 0.987608
1.00447 1.0011 0.985727
1.0049 1.00089 0.985022
1.00049 1.00166 0.992051
1.00212 1.00293 0.988074
1.00346 1.00251 0.986165
0.999802 0.999156 0.99837
1.00025 1.00132 0.992914
1.00137 1.00352 0.988864
0.999727 0.998749 0.998583
0.999945 1.00093 0.993938
0.99967 0.998329 0.99879
1.00317 1.003 0.986119
1.00194 1.00351 0.98811
1.00121 1.00374 0.9888
1.00079 1.00276 0.990546
1.00052 1.00347 0.990225
1.00045 1.00277 0.991227
1.00023 1.00361 0.990573
1.00025 1.00244 0.991845
0.999845 0.999891 0.995088
1.00025 1.00198 0.992282
0.999927 0.999477 0.995334
0.999697 0.997927 0.998925
0.999769 0.997686 0.998976
1.00001 0.999176 0.995479
0.999835 0.997444 0.99903
0.996629 0.995352 0.97559
1.00056 0.995367 0.94653
0.999839 0.995161 0.919361
1.00482 1.00137 0.984786
1.00066 1.0037 0.990329
1.00166 1.00309 0.988796
1.00116 1.00345 0.989126
1.00332 1.00265 0.986263
1.00285 1.00109 0.98809
1.00184 1.00357 0.987948
1.00039 1.00076 0.992977
1.00301 1.00019 0.989064
1.00452 0.99676 0.990039
1.00482 0.997023 0.988534
1.00422 0.995778 0.991452
1.00427 0.996466 0.98984
1.00316 0.997627 0.990556
1.00005 0.997192 0.99311
0.995913 0.99625 0.972287
0.999768 0.996635 0.947395
0.996057 0.997546 0.977098
1.00015 0.997144 0.994311
1.003 0.995541 0.992938
1.00092 0.997166 0.987782
0.996516 0.996199 0.97628
1.00003 0.99491 0.947829
1.00049 0.99698 0.991405
0.998538 0.996184 0.976474
1.00345 0.995535 0.991456
1.00294 0.997617 0.988377
1.00458 0.994951 0.991222
1.00447 0.997412 0.990738
1.0048 0.995564 0.990114
1.00514 0.994881 0.990404
1.00514 0.994886 0.990423
1.00513 0.995193 0.989839
1.00507 0.994957 0.990471
1.00514 0.995063 0.990379
1.00508 0.995301 0.990165
1.00512 0.995256 0.990232
1.00512 0.99602 0.98949
1.00513 0.995726 0.989624
1.00512 0.996536 0.988992
1.00518 0.997859 0.987671
1.00513 0.997167 0.988512
1.00518 0.998499 0.987148
1.00521 0.99946 0.986113
1.00519 0.999388 0.986211
1.00519 0.9998 0.985835
1.00489 1.00007 0.986005
1.0037 1.00056 0.987637
1.00481 1.00034 0.985793
1.00512 1.00039 0.985339
1.001 1.00135 0.991506
1.00309 1.00163 0.987614
1.00449 1.00114 0.985731
0.9999 0.999641 0.998076
1.00066 1.00147 0.992031
1.00213 1.00291 0.988073
0.999868 0.999247 0.99826
1.00036 1.00124 0.992901
0.999812 0.998844 0.998459
1.00453 1.00131 0.985254
1.00319 1.00303 0.986149
1.00234 1.00358 0.987127
1.00203 1.00359 0.988108
1.00127 1.00371 0.988833
1.00072 1.00327 0.990298
1.00062 1.00342 0.990132
1.00032 1.00292 0.991225
0.999812 1.00038 0.994657
1.0002 1.00248 0.991849
0.999846 0.999839 0.995107
0.999646 0.998184 0.998852
0.99993 0.99944 0.995346
0.999699 0.997895 0.998939
0.999773 0.997665 0.998988
1.0009 0.995504 0.991629
0.996852 0.995061 0.971952
1.00001 0.995092 0.955679
1.00396 1.0007 0.986192
1.00511 0.999691 0.985954
1.00473 1.00117 0.984889
1.00145 1.00345 0.988883
1.00319 1.00261 0.986267
1.00324 1.001 0.987895
1.00508 0.997709 0.987796
1.00342 1.00004 0.989042
1.0045 0.996494 0.989715
1.00485 0.997053 0.988771
1.005 0.996144 0.989291
1.00427 0.995423 0.991453
1.00408 0.995927 0.991246
1.00442 0.996249 0.989698
1.00018 0.997346 0.99325
0.995901 0.996395 0.970372
1.00048 0.996764 0.996447
1.00413 0.995681 0.992123
1.00066 0.997561 0.987948
0.996537 0.995615 0.973938
1.00348 0.994884 0.991723
1.00289 0.997719 0.988769
1.00462 0.995085 0.991487
1.00456 0.996672 0.990662
1.00516 0.994932 0.990368
1.00522 0.995047 0.99054
1.00515 0.994902 0.990281
1.00514 0.9949 0.990411
1.00514 0.994979 0.990382
1.00507 0.994957 0.99046
1.00514 0.995034 0.990354
1.00516 0.995556 0.989937
1.00511 0.995254 0.990186
1.00514 0.996032 0.989484
1.00518 0.997367 0.988176
1.00512 0.996552 0.988988
1.00518 0.997873 0.98768
1.00523 0.999136 0.98638
1.00518 0.998371 0.98731
1.0052 0.999408 0.986172
1.00497 0.99991 0.986026
1.00518 0.99981 0.985781
1.00489 1.00006 0.985988
1.00385 1.00024 0.987684
1.00131 1.00079 0.991472
1.00366 1.0006 0.987633
1.00482 1.00041 0.985828
0.99998 1.00007 0.997832
1.00106 1.00128 0.991501
1.00302 1.00172 0.98762
0.99996 0.999758 0.997975
1.00078 1.00137 0.992018
0.999934 0.999354 0.998151
1.00504 1.00047 0.985358
1.00463 1.00125 0.985144
1.00368 1.00218 0.98599
1.0032 1.00305 0.986177
1.00229 1.00364 0.98713
1.0013 1.00352 0.989033
1.0013 1.00367 0.988866
1.00059 1.00339 0.990323
0.999948 1.00095 0.993902
1.00023 1.00305 0.991226
0.999803 1.00033 0.994678
0.999627 0.998547 0.998705
0.999849 0.999789 0.995127
0.999639 0.998138 0.998882
0.999703 0.997868 0.998952
1.00417 0.994904 0.99238
1.00098 0.99533 0.99009
0.996663 0.994884 0.971925
1.00512 0.998484 0.987092
1.00433 1.00029 0.986202
1.00516 0.998444 0.987147
1.00512 0.999672 0.985983
1.00466 1.00095 0.985
1.00512 0.996934 0.988354
1.00362 1.00091 0.987706
1.00507 0.997866 0.987667
1.00514 0.995558 0.989631
1.00487 0.997075 0.989012
1.00497 0.996207 0.989199
1.00425 0.995549 0.991561
1.00374 0.995954 0.99103
1.00025 0.997443 0.993334
1.00517 0.99491 0.990373
1.00415 0.996205 0.992157
1.00044 0.997571 0.988091
1.00465 0.995212 0.991752
1.00459 0.995818 0.990595
1.00517 0.994911 0.990411
1.00521 0.994969 0.990456
1.0052 0.994933 0.990519
1.00514 0.994911 0.9904
1.00514 0.994966 0.990404
1.00518 0.995152 0.990307
1.00514 0.995003 0.99033
1.00516 0.995555 0.989882
1.00518 0.997035 0.988495
1.00515 0.996045 0.989478
1.00518 0.997387 0.988179
1.00524 0.998824 0.986691
1.00518 0.997886 0.987688
1.00523 0.999132 0.986399
1.00504 0.999805 0.986033
1.0052 0.999357 0.98623
1.00497 0.999917 0.98604
1.00398 1.00013 0.987588
1.00488 1.00005 0.985971
1.00385 1.00025 0.987675
1.00136 1.0004 0.993044
1.0002 1.00003 0.995089
1.00136 1.00073 0.992147
1.00363 1.00065 0.987629
1.00003 1.00013 0.99777
1.00117 1.00112 0.991496
1.00002 0.999861 0.997871
1.00521 0.998376 0.987178
1.00517 0.999523 0.986051
1.00507 1.00037 0.98543
1.00462 1.00067 0.985866
1.00474 1.0012 0.985036
1.00373 1.0022 0.985967
1.00231 1.0027 0.98796
1.00225 1.00371 0.987133
1.00121 1.00356 0.989056
1.0003 1.00148 0.992798
1.00046 1.00353 0.990346
0.999873 1.00096 0.993924
0.99965 0.999066 0.99844
0.999796 1.00028 0.994697
0.999602 0.998463 0.998766
0.999636 0.998094 0.998906
1.00515 0.99507 0.990154
1.00448 0.994902 0.992442
1.00132 0.994892 0.988584
1.00513 0.997351 0.98801
1.00512 0.998522 0.986946
1.00471 0.99991 0.986205
1.00515 0.998559 0.987082
1.00512 0.999664 0.986012
1.00515 0.995857 0.989717
1.0051 0.996944 0.988274
1.00506 0.99803 0.987539
1.00512 0.995559 0.989639
1.00498 0.996299 0.989107
1.00429 0.995774 0.991696
1.00521 0.99493 0.990577
1.00517 0.994916 0.990515
1.00421 0.996762 0.992195
1.00517 0.994893 0.990447
1.00521 0.994943 0.990373
1.0052 0.994933 0.990475
1.00519 0.995059 0.99056
1.00513 0.994953 0.990426
1.00517 0.995142 0.990267
1.0052 0.996813 0.988721
1.00516 0.995554 0.989827
1.00518 0.997044 0.988502
1.00525 0.998551 0.986968
1.00518 0.997407 0.988182
1.00524 0.998822 0.986705
1.0051 0.999714 0.986036
1.00522 0.999127 0.986419
1.00504 0.999804 0.986047
1.00407 1.0001 0.987458
1.00497 0.999924 0.986055
1.00398 1.00012 0.987587
1.00149 1.00011 0.993157
1.00385 1.00026 0.987667
1.00151 1.00032 0.992981
1.00015 0.999998 0.995255
1.00002 1.00026 0.996424
1.00152 1.00065 0.992703
1.00004 1.00024 0.997729
1.00517 0.997803 0.98783
1.00523 0.999137 0.986317
1.00521 0.998181 0.987328
1.00491 0.999986 0.986076
1.00518 0.999597 0.985978
1.00511 1.00027 0.985501
1.00465 1.00063 0.985862
1.00331 1.00126 0.98756
1.00378 1.00222 0.985943
1.00233 1.00265 0.987949
1.00074 1.00163 0.991799
1.00111 1.00362 0.98908
1.00013 1.00161 0.99283
0.999726 0.999783 0.99807
0.99979 1.001 0.993944
0.999601 0.998955 0.998549
0.99959 0.998387 0.998817
1.00518 0.995106 0.990219
1.00516 0.995093 0.990139
1.00467 0.994887 0.992471
1.00516 0.996558 0.989003
1.00512 0.997399 0.987994
1.00513 0.998558 0.986796
1.00514 0.998672 0.987018
1.00515 0.99584 0.989599
1.00509 0.996959 0.988194
1.00512 0.995559 0.989647
1.00519 0.995047 0.990548
1.0052 0.994935 0.990561
1.00518 0.994921 0.990657
1.00513 0.995539 0.990103
1.0052 0.994933 0.990431
1.00519 0.995123 0.99043
1.0052 0.99653 0.989197
1.00516 0.995127 0.990228
1.00521 0.996795 0.988725
1.00523 0.998348 0.987214
1.00519 0.997058 0.98851
1.00525 0.998554 0.986972
1.00515 0.999605 0.986084
1.00523 0.99882 0.986719
1.0051 0.999708 0.98605
1.00416 1.00007 0.987314
1.00504 0.999803 0.986062
1.00407 1.00008 0.987463
1.00158 1.00003 0.993097
1.00398 1.0001 0.987585
1.00161 1.00006 0.993067
1.0002 0.999904 0.995295
1.00166 1.00022 0.992928
0.999896 1.00015 0.99541
0.999637 1.00052 0.997997
1.00517 0.997698 0.987819
1.00521 0.998725 0.986862
1.00518 0.997842 0.987698
1.00501 0.999719 0.9864
1.00523 0.99899 0.986429
1.00522 0.99799 0.987478
1.00381 1.00034 0.987586
1.00491 0.999944 0.986057
1.00519 0.999669 0.985904
1.00467 1.00058 0.985859
1.00335 1.00123 0.987554
1.00114 1.00122 0.991432
1.00235 1.00261 0.987939
1.00062 1.00176 0.991817
0.999805 1.00044 0.997784
0.999987 1.00172 0.992858
0.999644 0.999635 0.998217
0.999567 0.998819 0.998644
1.00518 0.995697 0.989758
1.00518 0.995078 0.990238
1.00516 0.995112 0.990123
1.00516 0.996464 0.989068
1.00511 0.997443 0.987978
1.00514 0.995825 0.989482
1.00515 0.995566 0.990164
1.00519 0.995031 0.990551
1.00519 0.994939 0.990544
1.00514 0.995413 0.990277
1.00513 0.996711 0.98902
1.00519 0.995188 0.9903
1.0052 0.996681 0.98896
1.0052 0.998028 0.987656
1.00523 0.996772 0.988728
1.00523 0.998332 0.987213
1.00515 0.999458 0.986232
1.00525 0.998547 0.986975
1.00514 0.9996 0.986095
1.00424 1.00002 0.987213
1.00509 0.999703 0.986065
1.00416 1.00006 0.987322
1.00165 1.0001 0.992901
1.00408 1.00006 0.987468
1.00169 0.999993 0.992986
1.00027 0.999891 0.995207
1.00172 1.00002 0.992986
0.999971 0.999957 0.995474
0.999654 1.00033 0.995548
1.00517 0.997 0.988642
1.00521 0.998636 0.986908
1.00518 0.997523 0.987986
1.00508 0.99941 0.986533
1.0052 0.998805 0.986765
1.00518 0.997881 0.987566
1.00402 0.999958 0.987638
1.00501 0.999616 0.986323
1.00523 0.998843 0.986542
1.00135 1.00065 0.991592
1.00383 1.00033 0.987595
1.00492 0.999905 0.986037
1.00339 1.00119 0.987549
1.00107 1.00131 0.991435
0.999833 1.00072 0.997715
1.00049 1.00187 0.991842
0.999741 1.00028 0.997881
0.999578 0.999454 0.998354
1.00515 0.995825 0.98975
1.00517 0.995735 0.989734
1.00517 0.99505 0.990258
1.00516 0.996374 0.989133
1.00512 0.996873 0.988899
1.00515 0.995565 0.990209
1.0052 0.995018 0.990554
1.00515 0.995293 0.99045
1.00513 0.996596 0.989098
1.00519 0.998031 0.987715
1.00521 0.996835 0.988724
1.0052 0.998195 0.987457
1.00513 0.999164 0.986575
1.00524 0.998326 0.987212
1.00514 0.999455 0.986239
1.00427 0.999954 0.987203
1.00512 0.999599 0.986105
1.00424 1.00002 0.987218
1.00175 1.00015 0.991416
1.00416 1.00005 0.987329
1.00176 1.00007 0.992149
1.00022 0.999939 0.997719
1.0018 0.999969 0.992877
1.00006 0.999879 0.995399
0.999756 1.00001 0.995637
1.00516 0.996716 0.989012
1.0052 0.998328 0.98732
1.00517 0.99708 0.988598
1.00513 0.999238 0.986399
1.0052 0.998628 0.986932
1.00518 0.997344 0.988154
1.00414 0.999715 0.987414
1.00508 0.999418 0.986543
1.0052 0.998883 0.986669
1.0015 1.00015 0.991808
1.00402 0.999913 0.987546
1.00502 0.999506 0.986246
0.999885 1.0006 0.99777
1.00133 1.00066 0.991596
1.00384 1.00031 0.987605
1.001 1.00137 0.991441
0.99983 1.0006 0.997723
0.999647 1.00015 0.998001
1.00512 0.996792 0.988942
1.00514 0.995898 0.989738
1.00517 0.995775 0.989709
1.0052 0.998048 0.987597
1.00512 0.996779 0.988966
1.00515 0.995561 0.990255
1.00513 0.996473 0.989177
1.00519 0.998012 0.987716
1.00513 0.999096 0.98682
1.0052 0.998363 0.987259
1.00513 0.999283 0.986538
1.00429 0.999785 0.987161
1.00514 0.999446 0.986246
1.00427 0.999951 0.987209
1.00179 1.00013 0.991375
1.00424 1.00002 0.987224
1.00176 1.00014 0.991413
1.00024 0.999975 0.997676
1.00178 1.00005 0.991484
1.00014 0.999932 0.996522
0.99986 0.999845 0.995588
1.00514 0.997067 0.98865
1.00519 0.998176 0.987432
1.00515 0.996708 0.989037
1.00514 0.99928 0.986363
1.0052 0.998381 0.987234
1.00517 0.997165 0.988555
1.00426 0.999632 0.98731
1.00514 0.999334 0.986417
1.0052 0.998621 0.986957
1.00164 0.999897 0.991806
1.00414 0.999719 0.987399
1.00507 0.999428 0.986552
1.00002 1.0003 0.997805
1.0015 1.00013 0.991815
1.00402 0.99987 0.987452
0.999896 1.00055 0.997741
1.00131 1.00067 0.991598
0.999781 1.00055 0.997754
1.00519 0.997906 0.987792
1.00513 0.996842 0.988864
1.00513 0.995966 0.989726
1.00512 0.998992 0.986945
1.0052 0.99797 0.987694
1.00513 0.996691 0.989033
1.00519 0.997994 0.987717
1.00513 0.999101 0.986818
1.00428 0.999694 0.987273
1.00512 0.999404 0.9865
1.00429 0.999831 0.987206
1.00181 1.00006 0.991389
1.00428 0.999946 0.987215
1.00178 1.00013 0.991376
1.00025 1.00001 0.997628
1.00176 1.00014 0.991409
1.00024 0.999987 0.997653
1.00021 0.999886 0.995144
1.0052 0.99813 0.987484
1.00514 0.996903 0.98877
1.00514 0.999183 0.986483
1.0052 0.998185 0.987424
1.00514 0.996695 0.989061
1.00429 0.99969 0.987449
1.00514 0.999286 0.986358
1.0052 0.998431 0.987147
1.00176 0.999857 0.991645
1.00426 0.999676 0.987368
1.00514 0.999433 0.986434
1.00018 1.00005 0.997757
1.00165 0.99989 0.991811
1.00414 0.999715 0.987384
0.999995 1.00031 0.997794
1.00151 1.00013 0.991819
0.999896 1.00053 0.997718
1.00507 0.998976 0.987034
1.00519 0.997968 0.987722
1.00514 0.996894 0.988786
1.00421 0.999647 0.987434
1.00512 0.999003 0.986945
1.0052 0.99789 0.987791
1.00513 0.999109 0.986816
1.00429 0.999684 0.987255
1.0018 1.00002 0.991451
1.00428 0.999875 0.98725
1.0018 1.00007 0.991391
1.00027 1.00001 0.997608
1.00178 1.00013 0.991378
1.00025 1.00001 0.997624
1.00025 0.999996 0.997636
1.00511 0.999138 0.986599
1.00519 0.997948 0.987677
1.00515 0.996739 0.98889
1.00426 0.999676 0.987519
1.00514 0.99919 0.986476
1.0052 0.998193 0.987416
1.0018 0.99994 0.991518
1.00428 0.999696 0.987443
1.00514 0.99929 0.986353
1.00027 0.999944 0.997678
1.00176 0.999873 0.991649
1.00425 0.999715 0.987426
1.00013 1.00009 0.997779
1.00165 0.999898 0.991818
0.999997 1.00031 0.997775
1.00415 0.999705 0.987683
1.00507 0.998942 0.986976
1.00519 0.998028 0.987652
1.00176 0.999972 0.991593
1.00423 0.999627 0.987409
1.00512 0.999011 0.986946
1.0043 0.99967 0.987237
1.0018 1.00001 0.991457
1.00028 1.00001 0.997586
1.00179 1.00008 0.991392
1.00027 1.00002 0.997595
1.00024 1.00002 0.997619
1.0042 0.999679 0.987625
1.0051 0.999033 0.986704
1.00519 0.997769 0.98787
1.00186 1 0.992717
1.00425 0.999674 0.987519
1.00513 0.999198 0.986468
1.00029 0.999949 0.997622
1.0018 0.999959 0.991519
1.00427 0.999702 0.987437
1.00025 0.999976 0.997708
1.00176 0.999898 0.991653
1.00011 1.0001 0.997795
1.00177 0.99997 0.991611
1.00416 0.99966 0.987603
1.00507 0.998907 0.986919
1.00024 0.999999 0.997614
1.00175 0.99997 0.991596
1.00425 0.999612 0.987384
1.0018 0.999997 0.99146
1.00027 1.00001 0.997591
1.00028 1.00002 0.997588
1.00187 0.999986 0.992747
1.0042 0.999675 0.987626
1.0051 0.998925 0.986808
0.999943 0.999988 0.99795
1.00178 1.00001 0.991513
1.00425 0.999671 0.987518
1.00028 0.999961 0.997648
1.0018 0.999979 0.99152
1.00022 0.999996 0.997737
1.0002 0.999994 0.995143
1.00179 0.999969 0.992223
1.00417 0.999617 0.987523
1.00025 0.999998 0.997621
1.00175 0.999969 0.991604
1.00029 1 0.997592
0.999867 1 0.995459
1.00181 0.999984 0.992175
1.00419 0.999674 0.987627
1.00009 0.999987 0.996512
1.00178 1.00001 0.991523
1.00027 0.999972 0.997672
1.00021 0.999993 0.99764
1.0017 0.99997 0.991682
1.00021 0.999996 0.99763
1.00004 0.999992 0.996557
1.00174 0.999987 0.991624
1.00026 0.999976 0.997636
1.00021 0.999989 0.997652
1.00022 0.999985 0.997639

TENSORS stress float
0.00167375 -8.69966e-05 0.000168583
-8.69966e-05 0.0006382 -2.23064e-05
0.000168583 -2.23064e-05 0.00061727
0.00525787 -0.000129355 0.000157134
-0.000129355 0.0027746 1.72838e-05
0.000157134 1.72838e-05 0.00274864
0.00148212 -1.61075e-05 7.95389e-05
-1.61075e-05 0.000534494 -8.48534e-06
7.95389e-05 -8.48534e-06 0.00050422
0.00180842 -5.29692e-05 0.000169459
-5.29692e-05 0.000692696 -1.43252e-05
0.000169459 -1.43252e-05 0.0006746
0.0017378 -7.8531e-05 0.000165309
-7.8531e-05 0.000667561 -2.0265e-05
0.000165309 -2.0265e-05 0.000647795
0.00162141 -8.3004e-05 0.000173704
-8.3004e-05 0.000603957 -2.19294e-05
0.000173704 -2.19294e-05 0.000584586
0.00144927 -5.88472e-05 2.47554e-05
-5.88472e-05 0.000436708 -8.94746e-06
2.47554e-05 -8.94746e-06 0.00035744
0.00513062 -0.000119183 -5.97585e-07
-0.000119183 0.00268214 -1.27261e-07
-5.97585e-07 -1.27261e-07 0.00266682
0.00527832 3.59435e-05 6.97213e-05
3.59435e-05 0.00273053 3.79302e-06
6.97213e-05 3.79302e-06 0.00271755
0.00504188 -0.000239126 7.51098e-06
-0.000239126 0.00264746 3.63005e-06
7.51098e-06 3.63005e-06 0.00260721
0.00168683 6.38057e-05 0.000163671
6.38057e-05 0.000643617 1.47954e-05
0.000163671 1.47954e-05 0.000633265
0.000665711 0.000169971 2.11755e-05
0.000169971 -6.08874e-06 1.32381e-05
2.11755e-05 1.32381e-05 -9.28071e-05
0.00163135 -3.14804e-05 0.000180891
-3.14804e-05 0.000583512 2.20447e-06
0.000180891 2.20447e-06 0.000572927
0.00127326 -1.54891e-05 2.93243e-05
-1.54891e-05 0.000395108 1.0779e-06
2.93243e-05 1.0779e-06 0.000359055
0.00135917 -3.20338e-06 -2.51908e-05
-3.20338e-06 0.000463025 4.84189e-06
-2.51908e-05 4.84189e-06 0.000428681
0.00153488 -5.61782e-05 6.12139e-05
-5.61782e-05 0.000544869 -3.48352e-06
6.12139e-05 -3.48352e-06 0.000517815
0.00149224 2.96466e-06 8.65043e-05
2.96466e-06 0.000546443 -7.92292e-06
8.65043e-05 -7.92292e-06 0.000511495
0.00150134 -3.40878e-05 7.09443e-05
-3.40878e-05 0.000533345 -7.76059e-06
7.09443e-05 -7.76059e-06 0.000507636
0.00151727 -0.000101666 -2.97598e-05
-0.000101666 0.000465897 2.75844e-06
-2.97598e-05 2.75844e-06 0.000395366
0.00536611 -0.000107507 0.000210849
-0.000107507 0.00278852 -5.85102e-06
0.000210849 -5.85102e-06 0.00279017
0.00179352 -3.61211e-05 0.000172691
-3.61211e-05 0.000680681 -1.07554e-05
0.000172691 -1.07554e-05 0.000663125
0.00179941 -6.78175e-05 0.000166726
-6.78175e-05 0.000693846 -1.75307e-05
0.000166726 -1.75307e-05 0.000675379
0.00149125 -9.61333e-05 4.53523e-05
-9.61333e-05 0.000428636 -6.85914e-06
4.53523e-05 -6.85914e-06 0.000357076
0.00147206 -7.57649e-05 3.3666e-05
-7.57649e-05 0.000430448 -8.0834e-06
3.3666e-05 -8.0834e-06 0.000358433
0.0014603 -5.34028e-05 0.000161673
-5.34028e-05 0.000503766 -1.8369e-05
0.000161673 -1.8369e-05 0.000487479
0.0014473 -4.40187e-05 1.77392e-05
-4.40187e-05 0.000454851 -9.82901e-06
1.77392e-05 -9.82901e-06 0.000366575
0.00200322 -0.000207301 1.29544e-05
-0.000207301 0.00061719 -5.6276e-06
1.29544e-05 -5.6276e-06 0.000482846
0.00500178 -0.000151359 -0.000144257
-0.000151359 0.00260817 -9.38274e-06
-0.000144257 -9.38274e-06 0.00259132
0.00339591 5.25376e-05 -9.78352e-05
5.25376e-05 0.00163724 -7.31074e-06
-9.78352e-05 -7.31074e-06 0.00161897
0.00328594 -6.2161e-05 -9.13799e-05
-6.2161e-05 0.00160078 -3.63649e-06
-9.13799e-05 -3.63649e-06 0.00157344
0.00474729 -0.000162341 1.01548e-05
-0.000162341 0.00246761 -1.07295e-06
1.01548e-05 -1.07295e-06 0.002448
0.000609862 0.000159566 -2.2289e-06
0.000159566 -3.89945e-05 -5.27906e-07
-2.2289e-06 -5.27906e-07 -0.000122628
0.00156167 5.14993e-05 0.000172955
5.14993e-05 0.000554067 1.28434e-05
0.000172955 1.28434e-05 0.000536854
0.0017344 0.000118345 0.000174877
0.000118345 0.000674496 1.88037e-05
0.000174877 1.88037e-05 0.000653896
0.0025851 0.000164741 0.000106844
0.000164741 0.00107207 1.31832e-05
0.000106844 1.31832e-05 0.00101
0.00372668 -0.000226468 5.68972e-06
-0.000226468 0.00188288 3.29618e-06
5.68972e-06 3.29618e-06 0.0018505
0.00262976 0.000196787 0.000105287
0.000196787 0.001124 1.46528e-05
0.000105287 1.46528e-05 0.00105816
0.000655723 0.000128455 2.35426e-05
0.000128455 -5.05371e-06 1.65807e-05
2.35426e-05 1.65807e-05 -8.13551e-05
0.000915454 0.000168746 9.4551e-06
0.000168746 5.66752e-05 4.60869e-06
9.4551e-06 4.60869e-06 -9.54648e-05
0.00300728 -0.000103739 8.8134e-05
-0.000103739 0.0014335 3.29894e-06
8.8134e-05 3.29894e-06 0.00143675
0.00542104 6.07543e-05 3.7861e-06
6.07543e-05 0.00281018 -1.22021e-06
3.7861e-06 -1.22021e-06 0.0028171
0.00339079 5.00921e-05 -8.04491e-05
5.00921e-05 0.0016266 -2.79583e-06
-8.04491e-05 -2.79583e-06 0.00161168
0.00532066 5.76738e-05 0.000207334
5.76738e-05 0.00275481 2.04163e-06
0.000207334 2.04163e-06 0.00276139
0.00130021 5.71379e-05 3.24438e-05
5.71379e-05 0.000408577 1.76916e-06
3.24438e-05 1.76916e-06 0.000375756
0.000691642 6.81319e-06 1.61519e-05
6.81319e-06 -6.68074e-05 1.54864e-06
1.61519e-05 1.54864e-06 -0.000137066
0.00520352 0.00017776 0.000102156
0.00017776 0.00270642 8.61189e-06
0.000102156 8.61189e-06 0.00268518
0.00266059 5.04558e-05 0.000105685
5.04558e-05 0.00108253 6.06604e-06
0.000105685 6.06604e-06 0.00103192
0.00119638 -7.39344e-05 -4.32626e-05
-7.39344e-05 0.000362682 5.49173e-06
-4.32626e-05 5.49173e-06 0.000324332
0.0012725 -5.04901e-05 -3.69245e-05
-5.04901e-05 0.000408756 5.494e-06
-3.69245e-05 5.494e-06 0.000374938
0.00144403 5.29415e-05 -1.35506e-05
5.29415e-05 0.000521737 5.37847e-06
-1.35506e-05 5.37847e-06 0.000480281
0.00154143 -0.000114622 -9.12818e-05
-0.000114622 0.000472935 1.38919e-05
-9.12818e-05 1.38919e-05 0.000408595
0.00339082 1.42968e-05 -8.56864e-05
1.42968e-05 0.00163335 -1.6133e-06
-8.56864e-05 -1.6133e-06 0.00161567
0.00153399 -4.12723e-05 6.84333e-05
-4.12723e-05 0.000539551 -2.91643e-06
6.84333e-05 -2.91643e-06 0.00051359
0.00139996 2.56429e-05 8.68648e-05
2.56429e-05 0.000495349 -5.8749e-06
8.68648e-05 -5.8749e-06 0.000460018
0.00152616 -4.67487e-05 6.48173e-05
-4.67487e-05 0.000540035 -5.75795e-06
6.48173e-05 -5.75795e-06 0.000515306
0.00154173 -8.18405e-05 -2.39937e-05
-8.18405e-05 0.000452075 9.4883e-07
-2.39937e-05 9.4883e-07 0.000386515
0.00151712 -9.14788e-05 -3.47375e-05
-9.14788e-05 0.000479159 2.74786e-06
-3.47375e-05 2.74786e-06 0.000403072
0.00153089 -0.000102277 -2.51404e-05
-0.000102277 0.000461443 2.04074e-06
-2.51404e-05 2.04074e-06 0.000394323
0.00200368 -0.000205791 -6.37263e-06
-0.000205791 0.000615771 1.69962e-06
-6.37263e-06 1.69962e-06 0.000481657
0.00528987 4.62137e-05 0.000201155
4.62137e-05 0.00273712 -9.85431e-08
0.000201155 -9.85431e-08 0.00274407
0.00177597 -1.85902e-05 0.000173719
-1.85902e-05 0.000671783 -7.31776e-06
0.000173719 -7.31776e-06 0.000655496
0.00239312 2.72875e-05 3.00404e-05
2.72875e-05 0.000943202 -9.83175e-07
3.00404e-05 -9.83175e-07 0.000884475
0.00149748 -7.74333e-05 3.90492e-05
-7.74333e-05 0.000423599 -4.74399e-06
3.90492e-05 -4.74399e-06 0.000354639
0.00148623 -8.75809e-05 4.08265e-05
-8.75809e-05 0.000428182 -7.45037e-06
4.08265e-05 -7.45037e-06 0.00035811
0.00193784 -0.000127014 1.11455e-05
-0.000127014 0.000528583 -2.73955e-06
1.11455e-05 -2.73955e-06 0.0004103
0.00161941 -0.000165109 1.47665e-05
-0.000165109 0.000370941 -5.22387e-06
1.47665e-05 -5.22387e-06 0.000242356
0.00111785 -6.37021e-06 0.000121353
-6.37021e-06 0.000309214 -1.30499e-05
0.000121353 -1.30499e-05 0.000296342
0.00115939 3.99752e-06 9.13384e-06
3.99752e-06 0.000315457 -1.00474e-05
9.13384e-06 -1.00474e-05 0.00022888
0.00198857 -0.000224698 1.23219e-05
-0.000224698 0.000632283 -5.70057e-06
1.23219e-05 -5.70057e-06 0.000488692
0.00123156 -0.000192557 7.8883e-06
-0.000192557 7.47273e-05 -2.36781e-06
7.8883e-06 -2.36781e-06 -8.93579e-05
0.00549588 0.000113219 -0.000210661
0.000113219 0.002857 -1.60458e-05
-0.000210661 -1.60458e-05 0.00285894
0.0044189 -0.000182135 -0.000113961
-0.000182135 0.00227928 -7.10887e-06
-0.000113961 -7.10887e-06 0.00225865
0.00524274 -7.52009e-05 -0.000172159
-7.52009e-05 0.00273015 -1.09813e-05
-0.000172159 -1.09813e-05 0.00272471
0.000532794 0.000157503 -2.18885e-05
0.000157503 -8.19119e-05 -1.35446e-05
-2.18885e-05 -1.35446e-05 -0.000164439
0.00554026 0.000142793 -2.93315e-06
0.000142793 0.00288104 -1.72911e-06
-2.93315e-06 -1.72911e-06 0.00288208
0.00550949 4.13768e-05 -8.52907e-06
4.13768e-05 0.00287194 -8.15555e-07
-8.52907e-06 -8.15555e-07 0.00287108
0.000552743 0.000117234 -2.76106e-07
0.000117234 -0.000112626 -2.31085e-07
-2.76106e-07 -2.31085e-07 -0.000193931
0.0024719 -0.000118055 -5.06181e-05
-0.000118055 0.0011322 -9.6776e-07
-5.06181e-05 -9.6776e-07 0.00111009
0.000549377 0.000167951 -7.43228e-07
0.000167951 -8.37143e-05 -3.01197e-07
-7.43228e-07 -3.01197e-07 -0.000169452
0.00144407 0.000102563 3.34833e-05
0.000102563 0.000466843 5.68036e-07
3.34833e-05 5.68036e-07 0.000400469
0.000903904 0.000164806 3.01274e-07
0.000164806 4.74271e-05 -3.3084e-07
3.01274e-07 -3.3084e-07 -0.000103934
0.00352716 -0.00010696 0.000112771
-0.00010696 0.0017369 5.24061e-06
0.000112771 5.24061e-06 0.00173794
0.000613642 -4.7286e-05 2.00778e-06
-4.7286e-05 2.4202e-05 7.44515e-06
2.00778e-06 7.44515e-06 -1.43585e-05
0.000669356 8.68204e-05 1.71409e-05
8.68204e-05 -6.53462e-05 8.2532e-06
1.71409e-05 8.2532e-06 -0.00014277
0.000703173 0.000139443 2.1847e-05
0.000139443 -1.2301e-05 1.3887e-05
2.1847e-05 1.3887e-05 -9.80595e-05
0.000996846 0.000137097 1.29815e-05
0.000137097 -5.38878e-06 5.13422e-06
1.29815e-05 5.13422e-06 -0.000142701
0.00224237 3.5307e-05 7.01526e-05
3.5307e-05 0.000949797 9.07801e-06
7.01526e-05 9.07801e-06 0.000903184
0.000948935 0.000164313 1.09048e-05
0.000164313 2.91129e-05 5.70559e-06
1.09048e-05 5.70559e-06 -0.000116353
0.000944564 0.000170553 8.36689e-06
0.000170553 0.000144897 5.19473e-06
8.36689e-06 5.19473e-06 -1.05372e-05
0.000911726 0.000199739 4.42881e-06
0.000199739 -9.23213e-06 9.47485e-07
4.42881e-06 9.47485e-07 -0.000194652
0.00263768 -0.00011715 4.71579e-05
-0.00011715 0.00121664 2.32834e-06
4.71579e-05 2.32834e-06 0.00121666
0.00286404 -0.000129725 9.60197e-06
-0.000129725 0.00135476 -4.34524e-07
9.60197e-06 -4.34524e-07 0.00135132
0.00551023 1.32468e-05 -0.000205557
1.32468e-05 0.00285778 -8.28944e-06
-0.000205557 -8.28944e-06 0.00286325
0.00546171 5.1673e-05 -0.000212269
5.1673e-05 0.00283176 -4.72449e-06
-0.000212269 -4.72449e-06 0.00283933
0.00538381 8.04241e-05 -1.81208e-07
8.04241e-05 0.00279753 -2.24872e-06
-1.81208e-07 -2.24872e-06 0.0028
0.00337627 7.2094e-06 -9.50723e-05
7.2094e-06 0.00161615 -3.34485e-06
-9.50723e-05 -3.34485e-06 0.00160394
0.0016602 2.90466e-05 4.51882e-05
2.90466e-05 0.000499536 7.59537e-07
4.51882e-05 7.59537e-07 0.000440214
0.00344668 9.56222e-05 -8.16847e-05
9.56222e-05 0.00166179 -3.96622e-06
-8.16847e-05 -3.96622e-06 0.00164399
0.00168758 6.89323e-05 4.39113e-05
6.89323e-05 0.000519154 1.56213e-06
4.39113e-05 1.56213e-06 0.000455967
0.0053533 0.000141066 0.000210693
0.000141066 0.00279003 4.91821e-06
0.000210693 4.91821e-06 0.00278627
0.000620945 8.45383e-06 1.80086e-05
8.45383e-06 -0.000104202 3.47533e-07
1.80086e-05 3.47533e-07 -0.000172779
0.00268639 1.92221e-05 0.000106381
1.92221e-05 0.00109563 3.98909e-06
0.000106381 3.98909e-06 0.00104711
0.00104983 3.20635e-05 1.23597e-05
3.20635e-05 -1.12766e-05 1.03665e-06
1.23597e-05 1.03665e-06 -0.000129412
0.00257813 9.26401e-05 0.000106825
9.26401e-05 0.00104321 7.61585e-06
0.000106825 7.61585e-06 0.000989526
0.00106115 7.61438e-05 1.20311e-05
7.61438e-05 1.89516e-06 2.50075e-06
1.20311e-05 2.50075e-06 -0.000123398
0.00164387 3.86113e-05 -0.000179076
3.86113e-05 0.000593268 1.44058e-06
-0.000179076 1.44058e-06 0.000583049
0.00125333 4.87792e-06 -2.99214e-05
4.87792e-06 0.000386171 1.6194e-06
-2.99214e-05 1.6194e-06 0.000351267
0.00136364 0.000113361 -1.10366e-06
0.000113361 0.000500463 7.17879e-06
-1.10366e-06 7.17879e-06 0.000445762
0.00121465 -6.79021e-05 -4.4026e-05
-6.79021e-05 0.000373063 5.89894e-06
-4.4026e-05 5.89894e-06 0.000337484
0.0016555 -6.1512e-05 -9.13446e-05
-6.1512e-05 0.000510938 7.59236e-06
-9.13446e-05 7.59236e-06 0.000452301
0.00159324 -9.85915e-05 -9.00841e-05
-9.85915e-05 0.000491787 1.22768e-05
-9.00841e-05 1.22768e-05 0.000430514
0.00152326 -0.000119643 -9.30515e-05
-0.000119643 0.000472865 1.42989e-05
-9.30515e-05 1.42989e-05 0.000404659
0.00200215 -0.000204419 -2.45834e-05
-0.000204419 0.00061388 8.56529e-06
-2.45834e-05 8.56529e-06 0.00047999
0.00535925 -8.3116e-05 2.04158e-06
-8.3116e-05 0.00278399 -1.35302e-06
2.04158e-06 -1.35302e-06 0.00278614
0.00149564 4.44975e-05 7.71615e-05
4.44975e-05 0.000516533 -2.49756e-06
7.71615e-05 -2.49756e-06 0.000492517
0.00112963 4.1246e-07 -4.77004e-05
4.1246e-07 0.000195669 8.18202e-07
-4.77004e-05 8.18202e-07 0.0001352
0.00156071 -4.65743e-05 -2.82031e-05
-4.65743e-05 0.000455743 1.36897e-06
-2.82031e-05 1.36897e-06 0.000392037
0.00276267 5.27046e-05 0.000125915
5.27046e-05 0.0012909 -2.16308e-06
0.000125915 -2.16308e-06 0.00127979
0.00184518 -5.87772e-05 -3.06966e-05
-5.87772e-05 0.000698199 -2.66535e-07
-3.06966e-05 -2.66535e-07 0.000621441
0.00154265 -9.42418e-05 -2.32203e-05
-9.42418e-05 0.000458573 1.3883e-06
-2.32203e-05 1.3883e-06 0.000392908
0.00180285 -0.000119389 -8.27783e-06
-0.000119389 0.000448698 1.429e-06
-8.27783e-06 1.429e-06 0.000329744
0.00197858 -0.000224237 -5.1852e-06
-0.000224237 0.000627552 1.67238e-06
-5.1852e-06 1.67238e-06 0.000483967
0.00183037 -0.000173782 -3.72985e-06
-0.000173782 0.000493454 8.99848e-07
-3.72985e-06 8.99848e-07 0.000365434
0.00123932 -0.000192952 2.80284e-07
-0.000192952 7.77898e-05 -1.08597e-07
2.80284e-07 -1.08597e-07 -8.60946e-05
0.000660414 1.22174e-05 1.84227e-05
1.22174e-05 -8.27739e-05 -1.24921e-06
1.84227e-05 -1.24921e-06 -0.000148569
0.00146563 1.6571e-05 3.03913e-05
1.6571e-05 0.000400795 -2.48027e-06
3.03913e-05 -2.48027e-06 0.000335647
0.00162353 -2.905e-05 1.26945e-05
-2.905e-05 0.000328738 -1.12161e-06
1.26945e-05 -1.12161e-06 0.000219511
0.00163755 -9.38347e-05 1.24509e-05
-9.38347e-05 0.000345851 -2.2649e-06
1.24509e-05 -2.2649e-06 0.000228559
0.00159133 -0.000139215 1.37908e-05
-0.000139215 0.000337331 -4.01933e-06
1.37908e-05 -4.01933e-06 0.000213803
0.00171543 -0.000144523 2.47335e-06
-0.000144523 0.000279298 -7.77268e-07
2.47335e-06 -7.77268e-07 0.000137631
0.00389707 0.000150693 0.000104397
0.000150693 0.00196466 -4.27265e-06
0.000104397 -4.27265e-06 0.00195381
0.00127184 -0.00017609 6.67943e-06
-0.00017609 7.15134e-05 -1.99231e-06
6.67943e-06 -1.99231e-06 -8.46939e-05
0.000384396 -5.48782e-05 1.1163e-05
-5.48782e-05 -0.000138325 -1.19617e-05
1.1163e-05 -1.19617e-05 -0.000201657
0.000836874 -0.000163713 8.27631e-06
-0.000163713 1.66649e-05 -6.57951e-06
8.27631e-06 -6.57951e-06 -0.000134559
0.00132444 -0.000219339 9.18583e-06
-0.000219339 0.000155663 -2.22073e-06
9.18583e-06 -2.22073e-06 -2.02719e-05
0.00145466 -0.000236798 4.18599e-06
-0.000236798 0.000119272 4.03369e-07
4.18599e-06 4.03369e-07 -5.83067e-05
0.00044665 -1.60719e-06 5.87063e-06
-1.60719e-06 -8.48482e-05 -9.66472e-06
5.87063e-06 -9.66472e-06 -0.000134237
0.000633966 -2.09588e-05 1.09767e-06
-2.09588e-05 2.3583e-05 -4.30185e-06
1.09767e-06 -4.30185e-06 -7.92475e-05
0.00554464 0.000155932 -0.000222532
0.000155932 0.00288712 -1.69002e-05
-0.000222532 -1.69002e-05 0.00288662
0.00536926 2.33408e-05 -0.000191468
2.33408e-05 0.00278926 -1.34015e-05
-0.000191468 -1.34015e-05 0.00279126
0.000544814 0.000109335 -1.76612e-05
0.000109335 -0.000118568 -9.65529e-06
-1.76612e-05 -9.65529e-06 -0.000199703
0.00378221 -0.000154799 -9.91627e-05
-0.000154799 0.00189804 -3.99061e-06
-9.91627e-05 -3.99061e-06 0.00188751
0.000442184 8.95436e-05 -1.46392e-05
8.95436e-05 -0.00011755 -1.27444e-05
-1.46392e-05 -1.27444e-05 -0.00018547
0.000502575 0.000152778 -1.98511e-05
0.000152778 -0.000106063 -1.26871e-05
-1.98511e-05 -1.26871e-05 -0.000193499
0.00089823 0.000162279 -1.02568e-05
0.000162279 4.16327e-05 -5.54607e-06
-1.02568e-05 -5.54607e-06 -0.000109156
0.00335927 -0.000125035 6.42082e-06
-0.000125035 0.00164411 -3.4936e-07
6.42082e-06 -3.4936e-07 0.00164159
0.000533644 -5.77586e-05 2.00321e-07
-5.77586e-05 -1.89427e-05 3.99892e-07
2.00321e-07 3.99892e-07 -5.83824e-05
0.00164167 0.000111418 4.37463e-05
0.000111418 0.000505069 2.60972e-06
4.37463e-05 2.60972e-06 0.000436764
0.00157095 0.000156931 4.17445e-05
0.000156931 0.000497236 2.29124e-06
4.17445e-05 2.29124e-06 0.00042144
0.00100575 0.000139675 1.72669e-07
0.000139675 1.15748e-06 -1.60117e-07
1.72669e-07 -1.60117e-07 -0.000136925
0.000619919 3.39647e-05 -6.49153e-07
3.39647e-05 4.46636e-06 1.55483e-07
-6.49153e-07 1.55483e-07 -5.12948e-05
0.000947046 0.000164349 4.67891e-07
0.000164349 2.85482e-05 2.96218e-07
4.67891e-07 2.96218e-07 -0.000116895
0.000847325 0.000155462 5.16133e-07
0.000155462 8.58387e-05 -8.69275e-07
5.16133e-07 -8.69275e-07 -6.70117e-05
0.000986467 0.00020724 -3.29252e-07
0.00020724 3.08584e-05 4.56049e-07
-3.29252e-07 4.56049e-07 -0.000156107
0.000650398 -3.05005e-06 7.65342e-06
-3.05005e-06 3.56327e-05 8.83138e-06
7.65342e-06 8.83138e-06 -1.07713e-05
0.000600744 -6.64232e-05 -8.13831e-07
-6.64232e-05 1.51635e-05 6.18242e-06
-8.13831e-07 6.18242e-06 -1.71796e-05
0.00072976 4.14007e-05 3.09658e-06
4.14007e-05 8.8816e-05 4.20827e-06
3.09658e-06 4.20827e-06 -9.46246e-06
0.00103554 0.00011698 1.26642e-05
0.00011698 1.37041e-06 4.16509e-06
1.26642e-05 4.16509e-06 -0.000131788
0.000972924 0.000154825 1.24323e-05
0.000154825 9.23335e-06 5.6672e-06
1.24323e-05 5.6672e-06 -0.000132489
0.00133375 0.00018891 6.54022e-06
0.00018891 8.91611e-05 1.73537e-06
6.54022e-06 1.73537e-06 -7.64148e-05
0.000910736 0.000147736 6.34036e-06
0.000147736 0.000172721 6.19711e-06
6.34036e-06 6.19711e-06 3.0749e-05
0.000955469 0.000193454 4.92879e-06
0.000193454 -4.20119e-05 2.16047e-06
4.92879e-06 2.16047e-06 -0.00021666
0.000895628 0.000199142 4.70745e-06
0.000199142 6.37632e-05 7.62211e-07
4.70745e-06 7.62211e-07 -0.000136811
0.00161697 0.000271958 3.30238e-07
0.000271958 0.000340922 -2.37275e-07
3.30238e-07 -2.37275e-07 0.000140674
0.00244129 -0.000106082 3.37191e-05
-0.000106082 0.00109531 2.88371e-06
3.37191e-05 2.88371e-06 0.001098
0.0025369 -0.000118666 3.98854e-06
-0.000118666 0.00115876 -3.80541e-07
3.98854e-06 -3.80541e-07 0.00115796
0.00270648 -0.000134294 -4.1931e-05
-0.000134294 0.00126516 -2.42685e-06
-4.1931e-05 -2.42685e-06 0.00125993
0.000456106 1.27134e-05 4.16861e-06
1.27134e-05 -7.57615e-05 -8.21115e-06
4.16861e-06 -8.21115e-06 -0.000119218
0.00356656 0.000135639 9.05176e-05
0.000135639 0.00176645 -3.66917e-06
9.05176e-05 -3.66917e-06 0.00175985
0.00555074 0.000158493 -0.000225657
0.000158493 0.00289194 -1.53599e-05
-0.000225657 -1.53599e-05 0.00289104
0.0054478 5.10922e-05 -0.000208176
5.10922e-05 0.00282202 -6.6788e-06
-0.000208176 -6.6788e-06 0.00282926
0.000647095 7.9629e-05 -1.89542e-05
7.9629e-05 -8.6445e-05 -4.45822e-06
-1.89542e-05 -4.45822e-06 -0.000159632
0.000631725 3.53568e-05 -1.87617e-05
3.53568e-05 -9.68565e-05 -2.09615e-06
-1.87617e-05 -2.09615e-06 -0.000168015
0.00533759 -2.28104e-05 -0.000202986
-2.28104e-05 0.00276174 -1.0139e-06
-0.000202986 -1.0139e-06 0.00276989
0.00530552 1.76701e-05 -6.37128e-07
1.76701e-05 0.00274463 -1.59099e-07
-6.37128e-07 -1.59099e-07 0.00275227
0.000610075 1.2686e-07 -1.04519e-07
1.2686e-07 -0.000112146 -9.17194e-08
-1.04519e-07 -9.17194e-08 -0.000179554
0.00164425 2.77386e-05 4.48528e-05
2.77386e-05 0.000489856 1.37918e-06
4.48528e-05 1.37918e-06 0.000430131
0.00103539 3.59215e-05 4.40042e-08
3.59215e-05 -1.9194e-05 -1.73566e-07
4.40042e-08 -1.73566e-07 -0.000137655
0.000620573 6.8756e-05 -3.75432e-07
6.8756e-05 -9.73015e-05 -2.50536e-07
-3.75432e-07 -2.50536e-07 -0.000172517
0.00103299 7.79765e-05 -7.79005e-08
7.79765e-05 -1.33081e-05 -1.57926e-07
-7.79005e-08 -1.57926e-07 -0.000139091
0.000603023 -2.40655e-05 1.84194e-05
-2.40655e-05 -0.000117347 -7.31674e-07
1.84194e-05 -7.31674e-07 -0.000182782
0.00104258 1.4035e-05 1.21419e-05
1.4035e-05 -1.42391e-05 3.57642e-07
1.21419e-05 3.57642e-07 -0.000130212
0.00104033 5.44911e-05 1.21704e-05
5.44911e-05 -1.44017e-05 1.83043e-06
1.21704e-05 1.83043e-06 -0.000135911
0.00141108 5.24247e-05 3.10121e-06
5.24247e-05 5.47002e-05 5.88511e-08
3.10121e-06 5.88511e-08 -7.40657e-05
0.00105626 9.58415e-05 1.21979e-05
9.58415e-05 4.68363e-06 3.25908e-06
1.21979e-05 3.25908e-06 -0.000124415
0.00141527 0.000109739 3.33676e-06
0.000109739 7.39969e-05 4.71798e-07
3.33676e-06 4.71798e-07 -6.69577e-05
0.00530645 -4.46407e-05 -0.000208998
-4.46407e-05 0.00274767 1.61725e-07
-0.000208998 1.61725e-07 0.0027537
0.00125452 -0.000117641 -3.17639e-05
-0.000117641 0.000392395 3.31525e-06
-3.17639e-05 3.31525e-06 0.000355659
-0.000236184 -1.21439e-06 -1.31521e-05
-1.21439e-06 -0.000599924 2.15303e-06
-1.31521e-05 2.15303e-06 -0.000677519
0.00164453 -4.22577e-05 -9.22332e-05
-4.22577e-05 0.000500066 5.53613e-06
-9.22332e-05 5.53613e-06 0.000441747
0.00420919 0.000280942 5.48187e-07
0.000280942 0.0021888 4.58789e-06
5.48187e-07 4.58789e-06 0.00213931
0.00253634 -0.000149679 -9.1331e-05
-0.000149679 0.00108289 1.40824e-05
-9.1331e-05 1.40824e-05 0.00101643
0.00163812 -8.08917e-05 -9.04668e-05
-8.08917e-05 0.000507373 9.96153e-06
-9.04668e-05 9.96153e-06 0.000448141
0.00163996 -0.000110928 -2.56743e-05
-0.000110928 0.000352328 4.99694e-06
-2.56743e-05 4.99694e-06 0.000232895
0.00202842 -0.000181783 -2.33e-05
-0.000181783 0.00060861 7.1463e-06
-2.33e-05 7.1463e-06 0.000481343
0.00201513 -0.000226703 -2.22818e-05
-0.000226703 0.000650233 8.40607e-06
-2.22818e-05 8.40607e-06 0.000506232
0.00126116 -0.000194342 -6.73719e-06
-0.000194342 8.87882e-05 2.013e-06
-6.73719e-06 2.013e-06 -7.50256e-05
0.000605137 8.14124e-06 -5.55079e-08
8.14124e-06 -0.000113114 -2.59027e-08
-5.55079e-08 -2.59027e-08 -0.00017976
0.00157401 -5.85771e-05 -2.80134e-05
-5.85771e-05 0.000462495 3.15724e-07
-2.80134e-05 3.15724e-07 0.000400407
0.00118657 -2.48616e-05 -6.32995e-06
-2.48616e-05 7.46636e-05 2.98212e-07
-6.32995e-06 2.98212e-07 -3.87407e-05
0.0018279 -9.58321e-05 -4.68309e-06
-9.58321e-05 0.000454556 6.91621e-07
-4.68309e-06 6.91621e-07 0.000338763
0.00399394 0.000141532 -4.52882e-06
0.000141532 0.00201939 -6.51934e-07
-4.52882e-06 -6.51934e-07 0.00201008
0.00143072 -5.4052e-05 -9.83834e-07
-5.4052e-05 0.000476009 3.24975e-07
-9.83834e-07 3.24975e-07 0.000404483
0.00132039 -0.000190305 6.7657e-07
-0.000190305 0.000304532 -1.38044e-06
6.7657e-07 -1.38044e-06 0.000153546
0.00161767 -0.000138773 -5.032e-06
-0.000138773 0.00035229 1.08242e-06
-5.032e-06 1.08242e-06 0.000228794
0.001518 -0.000138509 -2.52398e-06
-0.000138509 0.000162586 5.41822e-07
-2.52398e-06 5.41822e-07 2.08473e-05
0.00123132 -0.000213512 3.34319e-07
-0.000213512 0.000100062 -4.97494e-09
3.34319e-07 -4.97494e-09 -7.65968e-05
0.00150435 -0.000186587 3.20539e-07
-0.000186587 0.000204386 -1.51839e-07
3.20539e-07 -1.51839e-07 4.88871e-05
0.00146658 -0.000236404 5.74364e-07
-0.000236404 0.000129955 -2.90286e-09
5.74364e-07 -2.90286e-09 -4.70042e-05
0.000519562 -7.19644e-06 -7.11274e-07
-7.19644e-06 -4.44859e-05 1.42033e-07
-7.11274e-07 1.42033e-07 -9.4197e-05
0.000659093 -3.83368e-05 -5.49081e-07
-3.83368e-05 3.6919e-05 -5.44387e-08
-5.49081e-07 -5.44387e-08 -6.76723e-05
0.00102505 -1.19517e-05 1.19615e-05
-1.19517e-05 -2.15668e-05 -9.76001e-07
1.19615e-05 -9.76001e-07 -0.000136458
0.00164459 -5.62095e-05 1.21161e-05
-5.62095e-05 0.000343514 -1.57248e-06
1.21161e-05 -1.57248e-06 0.000231263
0.00168515 -4.34441e-05 2.03443e-06
-4.34441e-05 0.000231525 -1.38534e-07
2.03443e-06 -1.38534e-07 0.000107327
0.00138122 -0.000108454 4.03653e-06
-0.000108454 6.90434e-05 -4.73924e-07
4.03653e-06 -4.73924e-07 -6.68305e-05
0.001642 -0.000174129 4.42135e-06
-0.000174129 0.000261533 -1.04656e-06
4.42135e-06 -1.04656e-06 0.000114029
0.00168529 -0.000169826 -5.39687e-07
-0.000169826 0.000153846 4.98794e-07
-5.39687e-07 4.98794e-07 1.63258e-05
0.000395661 -2.99652e-05 8.76533e-06
-2.99652e-05 -0.000121466 -1.08014e-05
8.76533e-06 -1.08014e-05 -0.000176895
0.00151655 -0.000219112 2.36478e-06
-0.000219112 0.000123653 4.20808e-07
2.36478e-06 4.20808e-07 -3.86329e-05
0.00065964 -0.000132886 4.4975e-06
-0.000132886 -5.78732e-06 -6.01958e-06
4.4975e-06 -6.01958e-06 -0.000150598
0.000900748 -0.000207001 7.84321e-06
-0.000207001 -3.06162e-05 -4.54602e-06
7.84321e-06 -4.54602e-06 -0.000220216
0.00177991 -0.000281874 3.4248e-06
-0.000281874 0.000345941 -2.15574e-08
3.4248e-06 -2.15574e-08 0.000149171
0.00180118 -0.000273081 -1.13438e-06
-0.000273081 0.000259866 2.94815e-06
-1.13438e-06 2.94815e-06 8.95845e-05
0.000729965 -7.79165e-05 2.8759e-06
-7.79165e-05 7.65469e-05 -4.17408e-06
2.8759e-06 -4.17408e-06 -4.34601e-05
0.000579273 -1.06329e-05 7.83078e-07
-1.06329e-05 -3.45137e-06 -3.46524e-06
7.83078e-07 -3.46524e-06 -9.4674e-05
0.00101593 -0.000131348 2.93971e-07
-0.000131348 0.000256706 -3.32731e-07
2.93971e-07 -3.32731e-07 0.000101818
0.000584307 8.86475e-05 -1.71529e-05
8.86475e-05 -0.000110126 -7.43777e-06
-1.71529e-05 -7.43777e-06 -0.000187918
0.00318927 -0.000147406 -6.675e-05
-0.000147406 0.00154974 -2.22688e-06
-6.675e-05 -2.22688e-06 0.00154162
0.000447394 -7.03294e-05 2.37461e-06
-7.03294e-05 -6.34693e-05 -7.24578e-06
2.37461e-06 -7.24578e-06 -0.000105254
0.000508244 0.000133774 -1.85272e-05
0.000133774 -0.000119092 -1.17562e-05
-1.85272e-05 -1.17562e-05 -0.000204133
0.00100707 0.000142067 -1.34691e-05
0.000142067 3.37386e-06 -5.46281e-06
-1.34691e-05 -5.46281e-06 -0.00013547
0.000396916 2.56938e-05 -9.31819e-06
2.56938e-05 -0.000122137 -1.06297e-05
-9.31819e-06 -1.06297e-05 -0.000176519
0.000724533 0.000139583 -6.31498e-06
0.000139583 1.28831e-05 -6.79646e-06
-6.31498e-06 -6.79646e-06 -0.000137285
0.000950426 0.00016463 -1.06649e-05
0.00016463 3.12388e-05 -5.21851e-06
-1.06649e-05 -5.21851e-06 -0.000114226
0.00102251 0.000211468 -6.95737e-06
0.000211468 4.87094e-05 -1.06499e-06
-6.95737e-06 -1.06499e-06 -0.000139253
0.000536305 -1.38847e-05 1.53802e-06
-1.38847e-05 -2.86607e-05 3.86669e-07
1.53802e-06 3.86669e-07 -7.42723e-05
0.000540615 -7.20379e-05 -4.64862e-07
-7.20379e-05 -1.80827e-05 2.94787e-07
-4.64862e-07 2.94787e-07 -5.13647e-05
0.000638229 1.48393e-06 6.27964e-07
1.48393e-06 3.02484e-05 3.27911e-07
6.27964e-07 3.27911e-07 -6.02545e-05
0.0010229 0.000118705 4.76211e-08
0.000118705 -4.59067e-06 -2.63442e-07
4.76211e-08 -2.63442e-07 -0.000138474
0.000984346 0.000156903 4.1486e-07
0.000156903 1.68527e-05 -1.99149e-07
4.1486e-07 -1.99149e-07 -0.000125376
0.00131652 0.000187061 1.87231e-07
0.000187061 8.35774e-05 1.84262e-08
1.87231e-07 1.84262e-08 -8.19044e-05
0.000795016 0.000131254 -4.00506e-07
0.000131254 0.000107408 3.56101e-07
-4.00506e-07 3.56101e-07 -3.20636e-05
0.0011281 0.000205404 -1.9556e-07
0.000205404 5.93839e-05 -4.23587e-08
-1.9556e-07 -4.23587e-08 -0.000116813
0.0010894 0.000214518 1.24203e-06
0.000214518 0.000176218 -1.61475e-06
1.24203e-06 -1.61475e-06 -2.6164e-05
0.00118305 0.000241129 -7.94587e-07
0.000241129 8.66524e-05 5.73839e-07
-7.94587e-07 5.73839e-07 -0.000109629
0.000582446 -6.60866e-05 -8.92903e-07
-6.60866e-05 -5.90541e-06 5.13584e-06
-8.92903e-07 5.13584e-06 -3.2638e-05
0.000742466 9.06984e-05 4.5914e-06
9.06984e-05 8.58066e-05 4.08469e-06
4.5914e-06 4.08469e-06 -3.10947e-05
0.000690975 -1.66177e-05 7.76208e-07
-1.66177e-05 5.61983e-05 3.79341e-06
7.76208e-07 3.79341e-06 -1.42264e-05
0.00085528 9.409e-05 1.11541e-06
9.409e-05 0.000182095 7.67186e-07
1.11541e-06 7.67186e-07 4.04832e-05
0.00136785 0.000164105 5.51143e-06
0.000164105 7.79625e-05 9.75956e-07
5.51143e-06 9.75956e-07 -7.89995e-05
0.00123352 0.000203238 6.97859e-06
0.000203238 7.32067e-05 2.25547e-06
6.97859e-06 2.25547e-06 -9.91273e-05
0.00159579 0.000244238 1.40726e-06
0.000244238 0.000156492 3.64922e-08
1.40726e-06 3.64922e-08 -1.82735e-05
0.00103945 0.000183301 2.72821e-06
0.000183301 0.00021804 4.24995e-06
2.72821e-06 4.24995e-06 3.20905e-05
0.0014007 0.000253091 7.90349e-07
0.000253091 0.000156034 4.33556e-07
7.90349e-07 4.33556e-07 -3.25483e-05
0.00152128 0.000272201 2.87132e-06
0.000272201 0.000367963 -1.76735e-06
2.87132e-06 -1.76735e-06 0.000136351
0.00172712 0.000282437 7.79001e-07
0.000282437 0.00033327 1.49393e-07
7.79001e-07 1.49393e-07 0.000133595
0.000653864 -4.91422e-06 2.03655e-06
-4.91422e-06 1.3648e-05 2.18208e-06
2.03655e-06 2.18208e-06 -3.27072e-05
0.000575963 -4.47969e-05 7.00562e-07
-4.47969e-05 -3.22554e-05 4.38347e-06
7.00562e-07 4.38347e-06 -4.99505e-05
0.00234479 -9.24506e-05 2.88113e-05
-9.24506e-05 0.00103027 3.30637e-06
2.88113e-05 3.30637e-06 0.00103636
0.00238788 -0.000104002 2.79396e-06
-0.000104002 0.00106353 -2.78061e-07
2.79396e-06 -2.78061e-07 0.00106662
0.00245598 -0.000116325 -3.57491e-05
-0.000116325 0.0011115 -2.672e-06
-3.57491e-05 -2.672e-06 0.00111112
0.000478217 1.91129e-05 3.1849e-06
1.91129e-05 -6.4987e-05 -6.85369e-06
3.1849e-06 -6.85369e-06 -0.000101273
0.00322585 0.000125087 7.37056e-05
0.000125087 0.0015634 -3.26595e-06
7.37056e-05 -3.26595e-06 0.00155961
0.000537466 1.0655e-05 -3.10274e-07
1.0655e-05 -3.01562e-05 1.52186e-07
-3.10274e-07 1.52186e-07 -7.38958e-05
0.0036603 0.000126418 -3.34332e-06
0.000126418 0.0018186 -4.61326e-07
-3.34332e-06 -4.61326e-07 0.00181414
0.000641811 9.11983e-05 -1.86959e-05
9.11983e-05 -8.35353e-05 -5.87476e-06
-1.86959e-05 -5.87476e-06 -0.000159958
0.000643344 3.16088e-05 -1.81194e-05
3.16088e-05 -9.23489e-05 -3.1202e-06
-1.81194e-05 -3.1202e-06 -0.000163421
0.00101753 7.94397e-05 -1.18503e-05
7.94397e-05 -2.16618e-05 -2.79828e-06
-1.18503e-05 -2.79828e-06 -0.000147826
0.00101865 3.79174e-05 -1.23499e-05
3.79174e-05 -2.85872e-05 -1.36541e-06
-1.23499e-05 -1.36541e-06 -0.000147256
0.000658377 -5.58335e-06 -1.87485e-05
-5.58335e-06 -8.77145e-05 -6.55797e-07
-1.87485e-05 -6.55797e-07 -0.000153214
0.00536254 -9.57067e-05 -0.000216229
-9.57067e-05 0.00278582 3.14263e-06
-0.000216229 3.14263e-06 0.00278885
0.000640709 -5.06791e-07 1.31817e-07
-5.06791e-07 -9.65483e-05 -3.70224e-07
1.31817e-07 -3.70224e-07 -0.000161733
0.00103205 1.86188e-05 -4.96505e-08
1.86188e-05 -1.97811e-05 -8.31032e-08
-4.96505e-08 -8.31032e-08 -0.000135919
0.00103848 5.60438e-05 -4.49175e-08
5.60438e-05 -1.52562e-05 -1.39033e-07
-4.49175e-08 -1.39033e-07 -0.000137039
0.00141046 5.17215e-05 -4.28058e-08
5.17215e-05 5.47178e-05 1.81902e-08
-4.28058e-08 1.81902e-08 -7.41411e-05
0.00103201 9.79188e-05 -8.62796e-08
9.79188e-05 -8.05382e-06 -1.99135e-07
-8.62796e-08 -1.99135e-07 -0.000137902
0.00140732 0.000111245 -5.17744e-09
0.000111245 6.93993e-05 -3.6254e-08
-5.17744e-09 -3.6254e-08 -7.20644e-05
0.00103706 -1.82555e-07 1.20353e-05
-1.82555e-07 -1.51783e-05 -3.00784e-07
1.20353e-05 -3.00784e-07 -0.000130207
0.00140777 2.95839e-05 3.08625e-06
2.95839e-05 5.48202e-05 4.69864e-08
3.08625e-06 4.69864e-08 -7.06316e-05
0.00141474 8.2222e-05 3.13417e-06
8.2222e-05 6.24842e-05 1.79619e-07
3.13417e-06 1.79619e-07 -7.19572e-05
0.00172109 7.5714e-05 -1.24035e-06
7.5714e-05 9.64346e-05 -4.3093e-07
-1.24035e-06 -4.3093e-07 -1.50223e-05
0.00140871 0.000138558 3.97509e-06
0.000138558 8.13218e-05 6.82877e-07
3.97509e-06 6.82877e-07 -6.73016e-05
0.00169159 0.000147006 -6.51943e-07
0.000147006 0.000111275 -9.76527e-07
-6.51943e-07 -9.76527e-07 -1.90768e-05
0.000623596 3.30146e-06 -1.78368e-05
3.30146e-06 -0.000101191 1.00235e-06
-1.78368e-05 1.00235e-06 -0.000169073
0.00164224 -2.08324e-05 -9.23307e-05
-2.08324e-05 0.0004968 3.59533e-06
-9.23307e-05 3.59533e-06 0.000440228
0.000733542 -1.95007e-05 -1.38052e-05
-1.95007e-05 -0.000188575 1.70013e-06
-1.38052e-05 1.70013e-06 -0.000306283
0.00200967 -9.66517e-05 -2.27094e-05
-9.66517e-05 0.000557951 3.52788e-06
-2.27094e-05 3.52788e-06 0.000443827
0.0041303 0.000122141 -0.000129016
0.000122141 0.00209466 6.52201e-06
-0.000129016 6.52201e-06 0.00208872
0.00247613 -8.7577e-05 -7.92691e-05
-8.7577e-05 0.00107539 1.08074e-05
-7.92691e-05 1.08074e-05 0.00101656
0.00194318 -0.000230695 -1.76864e-05
-0.000230695 0.000670277 7.23205e-06
-1.76864e-05 7.23205e-06 0.000517561
0.00162549 -0.00013729 -2.34393e-05
-0.00013729 0.0003562 5.86604e-06
-2.34393e-05 5.86604e-06 0.000232997
0.00131867 -0.000132322 -6.29139e-06
-0.000132322 4.46799e-05 1.36172e-06
-6.29139e-06 1.36172e-06 -9.71061e-05
0.00174086 -0.000197419 -7.42072e-06
-0.000197419 0.000339639 2.03328e-06
-7.42072e-06 2.03328e-06 0.000184805
0.00110125 -0.000205018 -7.52253e-06
-0.000205018 2.3121e-05 2.07738e-06
-7.52253e-06 2.07738e-06 -0.000153877
0.00147452 -0.000235908 -2.77464e-06
-0.000235908 0.00013778 -4.92759e-07
-2.77464e-06 -4.92759e-07 -3.85587e-05
0.00060826 -1.6334e-05 -8.09384e-06
-1.6334e-05 5.82615e-06 9.57979e-06
-8.09384e-06 9.57979e-06 -4.48376e-05
0.000717273 -5.70168e-05 -2.49035e-06
-5.70168e-05 7.16504e-05 3.40183e-06
-2.49035e-06 3.40183e-06 -3.5999e-05
0.000879946 -7.52803e-06 -3.58769e-07
-7.52803e-06 -0.000105494 -1.09873e-07
-3.58769e-07 -1.09873e-07 -0.000221356
0.00165109 -5.71995e-05 -5.25197e-06
-5.71995e-05 0.000345948 5.41271e-07
-5.25197e-06 5.41271e-07 0.000233767
0.00169986 -3.98614e-05 -2.30982e-06
-3.98614e-05 0.000236439 2.89181e-07
-2.30982e-06 2.89181e-07 0.000114106
0.00154573 -0.000111408 9.82058e-08
-0.000111408 0.000164259 2.78008e-08
9.82058e-08 2.78008e-08 2.84182e-05
0.000540053 -4.1204e-05 -5.10127e-09
-4.1204e-05 -4.05037e-05 3.027e-07
-5.10127e-09 3.027e-07 -9.73104e-05
0.000856532 -0.000155788 -5.1208e-07
-0.000155788 0.000105472 -4.02501e-08
-5.1208e-07 -4.02501e-08 -4.27472e-05
0.00099938 -0.000214322 1.56193e-06
-0.000214322 2.66247e-05 -1.2453e-06
1.56193e-06 -1.2453e-06 -0.000163593
0.0016835 -0.000173642 -2.25586e-06
-0.000173642 0.000284198 5.74138e-07
-2.25586e-06 5.74138e-07 0.0001364
0.00172293 -0.00017175 1.87089e-07
-0.00017175 0.000170368 9.62515e-08
1.87089e-07 9.62515e-08 3.5592e-05
0.00168357 -0.000277329 -2.02562e-06
-0.000277329 0.000292407 1.56787e-07
-2.02562e-06 1.56787e-07 9.50977e-05
0.00152068 -0.000219075 4.0545e-07
-0.000219075 0.000126121 -8.22128e-08
4.0545e-07 -8.22128e-08 -3.5813e-05
0.00176587 -0.000272964 6.18614e-07
-0.000272964 0.000235112 5.44145e-07
6.18614e-07 5.44145e-07 6.4581e-05
0.000723569 -8.90274e-05 -1.59794e-07
-8.90274e-05 7.30734e-05 -1.91579e-07
-1.59794e-07 -1.91579e-07 -4.84442e-05
0.000616173 -8.07282e-05 -7.20099e-07
-8.07282e-05 1.45319e-05 -7.21474e-07
-7.20099e-07 -7.21474e-07 -0.000129063
0.000666262 -2.16425e-05 1.50997e-07
-2.16425e-05 4.53777e-05 2.25471e-07
1.50997e-07 2.25471e-07 -4.65081e-05
0.00167827 -1.62304e-05 1.64759e-06
-1.62304e-05 0.000219402 -1.55689e-07
1.64759e-06 -1.55689e-07 9.70973e-05
0.00169807 -7.28621e-05 1.80863e-06
-7.28621e-05 0.000237089 2.15111e-07
1.80863e-06 2.15111e-07 0.00011111
0.00165272 -5.76466e-05 -1.43578e-06
-5.76466e-05 8.0888e-05 8.80341e-07
-1.43578e-06 8.80341e-07 -3.01834e-05
0.00165673 -0.000139703 -1.93765e-06
-0.000139703 0.000103732 1.05848e-06
-1.93765e-06 1.05848e-06 -2.32537e-05
0.00153692 -0.000198655 7.76541e-07
-0.000198655 0.000101424 1.27707e-06
7.76541e-07 1.27707e-06 -4.54132e-05
0.00175684 -0.000193718 -1.99334e-06
-0.000193718 0.000123538 1.34525e-06
-1.99334e-06 1.34525e-06 7.95192e-06
0.000671187 -0.000112256 3.77003e-06
-0.000112256 3.66809e-05 -4.17066e-06
3.77003e-06 -4.17066e-06 -9.63978e-05
0.00163573 -0.000253322 -1.56941e-06
-0.000253322 0.000120016 1.87449e-06
-1.56941e-06 1.87449e-06 -3.15942e-05
0.000983543 -0.000204843 2.25769e-06
-0.000204843 0.00012605 -4.64932e-06
2.25769e-06 -4.64932e-06 -6.21475e-05
0.00123368 -0.000265391 6.11091e-06
-0.000265391 0.000101857 -2.45983e-06
6.11091e-06 -2.45983e-06 -0.000113054
0.00182145 -0.000309029 1.3212e-06
-0.000309029 0.000317766 2.81999e-06
1.3212e-06 2.81999e-06 0.000114904
0.00191981 -0.000300047 -3.01227e-06
-0.000300047 0.00028396 3.79823e-06
-3.01227e-06 3.79823e-06 0.000124541
0.000611935 -1.38425e-05 9.64714e-07
-1.38425e-05 1.27299e-05 -3.04965e-06
9.64714e-07 -3.04965e-06 -6.68235e-05
0.000807978 -0.000131584 1.56662e-06
-0.000131584 0.000104727 5.82746e-07
1.56662e-06 5.82746e-07 -4.31318e-05
0.000591294 -6.36846e-05 2.98874e-08
-6.36846e-05 2.3235e-05 -7.78513e-07
2.98874e-08 -7.78513e-07 -0.000116799
0.00119805 -0.000191569 -1.49071e-06
-0.000191569 0.000344157 1.76143e-06
-1.49071e-06 1.76143e-06 0.000176143
0.00100733 0.000120569 -1.31278e-05
0.000120569 -1.23232e-05 -4.62691e-06
-1.31278e-05 -4.62691e-06 -0.000146937
0.000488989 -7.17762e-05 7.20243e-07
-7.17762e-05 -4.89236e-05 -5.50693e-06
7.20243e-07 -5.50693e-06 -8.15792e-05
0.000427583 -3.13652e-05 -1.79162e-06
-3.13652e-05 -8.73584e-05 -8.92474e-06
-1.79162e-06 -8.92474e-06 -0.000133417
0.00059581 -3.12277e-05 8.39774e-07
-3.12277e-05 9.40974e-06 -4.32357e-06
8.39774e-07 -4.32357e-06 -8.02192e-05
0.000998741 0.000159499 -1.22845e-05
0.000159499 2.61221e-05 -6.20329e-06
-1.22845e-05 -6.20329e-06 -0.000116707
0.00130385 0.000185417 -6.23598e-06
0.000185417 8.06181e-05 -1.70512e-06
-6.23598e-06 -1.70512e-06 -8.47763e-05
0.000660698 0.00011086 -4.16036e-06
0.00011086 3.05803e-05 -4.42191e-06
-4.16036e-06 -4.42191e-06 -0.000105711
0.0013873 0.000238164 -5.40256e-06
0.000238164 0.000349464 -4.83861e-06
-5.40256e-06 -4.83861e-06 0.000144257
0.00131797 0.000218374 -5.79443e-06
0.000218374 0.000171269 -2.17292e-06
-5.79443e-06 -2.17292e-06 -6.59344e-06
0.000761545 0.000211105 -3.87693e-06
0.000211105 -0.000159779 1.97531e-06
-3.87693e-06 1.97531e-06 -0.000352304
0.000554719 -6.21646e-05 -1.58143e-07
-6.21646e-05 -2.41074e-05 1.0186e-07
-1.58143e-07 1.0186e-07 -4.96613e-05
0.000739938 7.93121e-05 3.25299e-07
7.93121e-05 9.0016e-05 -2.24061e-07
3.25299e-07 -2.24061e-07 -2.85677e-05
0.000621021 -3.22968e-05 -6.36262e-07
-3.22968e-05 1.87638e-05 6.83932e-07
-6.36262e-07 6.83932e-07 -5.20506e-05
0.000775599 6.11053e-05 9.95071e-07
6.11053e-05 0.000132488 -6.37703e-07
9.95071e-07 -6.37703e-07 -3.66954e-06
0.00136539 0.000163426 4.35395e-07
0.000163426 7.98053e-05 -1.65086e-07
4.35395e-07 -1.65086e-07 -7.72642e-05
0.00126535 0.000205116 2.4469e-07
0.000205116 9.57687e-05 -2.87848e-09
2.4469e-07 -2.87848e-09 -7.68942e-05
0.00159762 0.000244665 2.45638e-07
0.000244665 0.000156612 1.82169e-07
2.45638e-07 1.82169e-07 -1.84725e-05
0.00101269 0.000182634 8.94895e-07
0.000182634 0.000206895 6.98858e-07
8.94895e-07 6.98858e-07 2.19261e-05
0.00158219 0.000263767 -8.79638e-07
0.000263767 0.000266444 -3.66346e-07
-8.79638e-07 -3.66346e-07 7.69836e-05
0.00118656 0.00024577 4.2551e-07
0.00024577 0.000175672 -2.56912e-06
4.2551e-07 -2.56912e-06 -5.49952e-05
0.00151479 0.000266851 -2.298e-06
0.000266851 0.000216229 2.22281e-07
-2.298e-06 2.22281e-07 1.87925e-05
0.000568825 -5.37735e-05 5.30501e-07
-5.37735e-05 -2.7393e-05 4.51681e-06
5.30501e-07 4.51681e-06 -4.83848e-05
0.000684774 -2.03211e-05 1.30051e-06
-2.03211e-05 4.4811e-05 2.77083e-06
1.30051e-06 2.77083e-06 -1.25239e-05
0.000980459 0.000140074 2.04196e-06
0.000140074 0.000220553 2.06933e-06
2.04196e-06 2.06933e-06 6.36069e-05
0.00080326 5.63415e-05 -4.50141e-07
5.63415e-05 0.000157451 2.46995e-06
-4.50141e-07 2.46995e-06 3.80913e-05
0.00106427 0.000136496 9.18207e-08
0.000136496 0.000304361 -6.60999e-07
9.18207e-08 -6.60999e-07 0.000141671
0.00165238 0.000213827 1.23822e-06
0.000213827 0.000146665 -1.17072e-06
1.23822e-06 -1.17072e-06 -1.22894e-05
0.00149598 0.000260831 1.32984e-06
0.000260831 0.000153094 8.04669e-07
1.32984e-06 8.04669e-07 -3.28253e-05
0.00175753 0.000283087 2.33173e-07
0.000283087 0.000200591 -3.76399e-07
2.33173e-07 -3.76399e-07 3.04293e-05
0.00135415 0.000243954 2.88577e-06
0.000243954 0.000379512 4.855e-06
2.88577e-06 4.855e-06 0.000152654
0.00172865 0.000306448 2.23941e-06
0.000306448 0.000297991 4.4645e-07
2.23941e-06 4.4645e-07 9.96822e-05
0.000805539 0.000225832 2.90356e-06
0.000225832 -0.000119515 -2.01592e-06
2.90356e-06 -2.01592e-06 -0.000340329
0.000649665 -8.89353e-06 2.38652e-06
-8.89353e-06 1.27421e-05 2.18884e-06
2.38652e-06 2.18884e-06 -3.51003e-05
0.000699803 3.70018e-05 2.4252e-07
3.70018e-05 6.75964e-05 1.01644e-06
2.4252e-07 1.01644e-06 -1.03143e-05
0.000669132 4.85227e-06 1.76573e-06
4.85227e-06 2.32934e-05 2.14761e-06
1.76573e-06 2.14761e-06 -2.25522e-05
0.000646757 -2.22953e-05 -4.646e-07
-2.22953e-05 1.14123e-05 1.56792e-08
-4.646e-07 1.56792e-08 -3.59621e-05
0.00125883 -5.14874e-05 1.03624e-06
-5.14874e-05 0.000363695 2.5738e-06
1.03624e-06 2.5738e-06 0.000351685
0.000934287 -5.15754e-05 6.50014e-07
-5.15754e-05 0.000178459 -7.35357e-08
6.50014e-07 -7.35357e-08 0.000162535
0.000906951 -4.76996e-05 2.39535e-05
-4.76996e-05 0.000173245 7.15398e-06
2.39535e-05 7.15398e-06 0.000176369
0.00230718 -9.0393e-05 2.83696e-06
-9.0393e-05 0.00100721 -2.46665e-07
2.83696e-06 -2.46665e-07 0.00101377
0.00232922 -0.000101229 -3.2335e-05
-0.000101229 0.00102842 -3.0526e-06
-3.2335e-05 -3.0526e-06 0.00103211
0.000500355 3.94609e-05 -2.09146e-07
3.94609e-05 -5.34324e-05 -5.8629e-06
-2.09146e-07 -5.8629e-06 -8.50765e-05
0.00292847 0.000122258 4.93064e-05
0.000122258 0.00138482 -3.07181e-06
4.93064e-05 -3.07181e-06 0.00138209
0.000546809 1.80588e-05 -2.70142e-07
1.80588e-05 -2.57111e-05 2.09128e-07
-2.70142e-07 2.09128e-07 -6.24155e-05
0.00334424 0.000117035 -4.18581e-06
0.000117035 0.00163006 -3.65452e-07
-4.18581e-06 -3.65452e-07 0.0016283
0.000607176 7.90288e-06 -4.85726e-06
7.90288e-06 8.58702e-06 8.41104e-06
-4.85726e-06 8.41104e-06 -3.55206e-05
0.00375045 0.000115508 -0.000112005
0.000115508 0.00186844 5.18887e-06
-0.000112005 5.18887e-06 0.00186625
0.00101439 0.000100082 -1.23603e-05
0.000100082 -1.72758e-05 -3.59193e-06
-1.23603e-05 -3.59193e-06 -0.000147799
0.00102566 5.97751e-05 -1.20687e-05
5.97751e-05 -2.18032e-05 -2.08913e-06
-1.20687e-05 -2.08913e-06 -0.000144073
0.00140942 0.000109531 -3.88769e-06
0.000109531 7.05265e-05 -5.96384e-07
-3.88769e-06 -5.96384e-07 -7.10557e-05
0.00141064 5.12114e-05 -3.37777e-06
5.12114e-05 5.53943e-05 1.32918e-08
-3.37777e-06 1.32918e-08 -7.35618e-05
0.00102572 2.20388e-05 -1.22336e-05
2.20388e-05 -2.30207e-05 -5.7165e-07
-1.22336e-05 -5.7165e-07 -0.000139324
0.000608968 2.37727e-05 -1.83679e-05
2.37727e-05 -0.000114148 -8.01636e-09
-1.83679e-05 -8.01636e-09 -0.000179456
0.00103119 2.11937e-06 1.24639e-08
2.11937e-06 -1.85121e-05 -8.51942e-08
1.24639e-08 -8.51942e-08 -0.000133587
0.0014052 3.14016e-05 -6.84717e-08
3.14016e-05 5.28791e-05 4.89037e-08
-6.84717e-08 4.89037e-08 -7.26811e-05
0.00141372 7.96809e-05 3.16534e-08
7.96809e-05 6.29619e-05 -7.28699e-08
3.16534e-08 -7.28699e-08 -7.14472e-05
0.00174805 7.60171e-05 -4.47486e-08
7.60171e-05 0.000108349 2.93763e-07
-4.47486e-08 2.93763e-07 -1.01008e-06
0.00139788 0.000137989 -1.80377e-07
0.000137989 7.68669e-05 -6.01253e-08
-1.80377e-07 -6.01253e-08 -7.19413e-05
0.00169558 0.000145118 -2.39089e-07
0.000145118 0.000117922 7.84585e-08
-2.39089e-07 7.84585e-08 -1.24012e-05
0.00140065 7.13224e-06 3.28402e-06
7.13224e-06 5.3362e-05 -4.62732e-08
3.28402e-06 -4.62732e-08 -7.08601e-05
0.00173626 4.3928e-05 -1.94384e-06
4.3928e-05 0.000102386 2.00841e-07
-1.94384e-06 2.00841e-07 -1.29109e-06
0.0017115 0.000117305 -1.15078e-06
0.000117305 9.87959e-05 -8.45839e-07
-1.15078e-06 -8.45839e-07 -2.11862e-05
0.00182981 8.1236e-05 -8.17361e-07
8.1236e-05 9.30814e-05 1.43305e-07
-8.17361e-07 1.43305e-07 4.46286e-06
0.00168184 0.000175575 -1.93467e-07
0.000175575 0.000136646 -1.13461e-06
-1.93467e-07 -1.13461e-06 -6.05143e-06
0.00171255 0.000168358 -2.52487e-06
0.000168358 6.42798e-05 -1.14429e-06
-2.52487e-06 -1.14429e-06 -4.15208e-05
0.000730455 -4.57091e-06 -1.18727e-05
-4.57091e-06 -0.000191697 6.64982e-07
-1.18727e-05 6.64982e-07 -0.000308592
0.00168293 -5.96577e-05 -2.2421e-05
-5.96577e-05 0.000362979 2.58163e-06
-2.2421e-05 2.58163e-06 0.000250845
0.00172106 -3.3603e-05 -6.57339e-06
-3.3603e-05 0.000245243 4.03415e-07
-6.57339e-06 4.03415e-07 0.000124951
0.00170838 -0.00011458 -4.88327e-06
-0.00011458 0.000258479 8.94681e-07
-4.88327e-06 8.94681e-07 0.000122651
0.000704067 -5.44159e-05 -1.13761e-05
-5.44159e-05 5.31155e-05 1.13291e-05
-1.13761e-05 1.13291e-05 -6.40806e-06
0.000873523 -0.000166031 -7.15354e-06
-0.000166031 0.000115704 6.62419e-06
-7.15354e-06 6.62419e-06 -3.43542e-05
0.00112212 -0.000223664 -4.88603e-06
-0.000223664 9.77467e-05 1.61001e-06
-4.88603e-06 1.61001e-06 -9.34172e-05
0.00172369 -0.000173006 -8.12555e-06
-0.000173006 0.000306078 2.19333e-06
-8.12555e-06 2.19333e-06 0.000158011
0.00175714 -0.000173428 -1.50002e-08
-0.000173428 0.000184911 -7.41071e-07
-1.50002e-08 -7.41071e-07 5.29156e-05
0.00152695 -0.000219175 -1.88084e-06
-0.000219175 0.000129638 -4.98068e-07
-1.88084e-06 -4.98068e-07 -3.19512e-05
0.00160388 -0.000273381 -5.41984e-06
-0.000273381 0.000249366 -8.51336e-08
-5.41984e-06 -8.51336e-08 5.14475e-05
0.00173351 -0.00027248 2.78225e-06
-0.00027248 0.000212215 -2.50732e-06
2.78225e-06 -2.50732e-06 4.15611e-05
0.000728185 -9.64103e-05 -3.95075e-06
-9.64103e-05 7.27963e-05 3.81566e-06
-3.95075e-06 3.81566e-06 -4.83815e-05
0.000494064 -7.06872e-05 -1.58085e-06
-7.06872e-05 -5.48675e-05 -7.47565e-07
-1.58085e-06 -7.47565e-07 -0.000198085
0.00070498 -2.91549e-05 -1.133e-06
-2.91549e-05 6.68492e-05 3.59222e-06
-1.133e-06 3.59222e-06 -2.60375e-05
0.00154784 -1.41119e-05 -2.36767e-06
-1.41119e-05 0.000142263 1.33206e-07
-2.36767e-06 1.33206e-07 1.89819e-05
0.00170883 -8.00552e-05 -2.43e-06
-8.00552e-05 0.000243144 4.11614e-07
-2.43e-06 4.11614e-07 0.000116557
0.00167518 -5.41478e-05 7.12013e-07
-5.41478e-05 9.32187e-05 5.01659e-07
7.12013e-07 5.01659e-07 -1.38611e-05
0.00167527 -0.000136998 -1.36105e-06
-0.000136998 0.000112369 3.66515e-07
-1.36105e-06 3.66515e-07 -1.4997e-05
0.000754462 -0.000128555 4.20058e-07
-0.000128555 8.48917e-05 3.08857e-07
4.20058e-07 3.08857e-07 -5.06103e-05
0.00108455 -0.000213997 -1.22507e-06
-0.000213997 0.000179055 -7.68397e-09
-1.22507e-06 -7.68397e-09 -9.8761e-06
0.00109912 -0.0002505 1.69321e-06
-0.0002505 2.92561e-05 -7.4061e-07
1.69321e-06 -7.4061e-07 -0.000182826
0.00156859 -0.000199577 -5.16223e-07
-0.000199577 0.000120983 4.29754e-07
-5.16223e-07 4.29754e-07 -2.81415e-05
0.00179798 -0.000194527 1.45396e-06
-0.000194527 0.00015017 1.81311e-07
1.45396e-06 1.81311e-07 3.86694e-05
0.00173397 -0.000308329 -7.23784e-07
-0.000308329 0.000265182 5.93296e-07
-7.23784e-07 5.93296e-07 5.98261e-05
0.00166739 -0.000253795 1.27779e-07
-0.000253795 0.000138592 2.91426e-07
1.27779e-07 2.91426e-07 -1.26549e-05
0.00196298 -0.000300175 1.57849e-06
-0.000300175 0.000310164 -4.19989e-07
1.57849e-06 -4.19989e-07 0.000153343
0.000957325 -0.000154175 2.96082e-07
-0.000154175 0.000195352 4.765e-07
2.96082e-07 4.765e-07 4.22804e-05
0.00108634 -0.000189217 -2.88257e-07
-0.000189217 0.000285227 1.33172e-07
-2.88257e-07 1.33172e-07 0.000114971
0.000651327 -2.0257e-05 1.05451e-07
-2.0257e-05 3.51695e-05 1.89301e-07
1.05451e-07 1.89301e-07 -4.51587e-05
0.000440354 -2.84343e-05 -2.36014e-07
-2.84343e-05 -7.29197e-05 -5.63444e-07
-2.36014e-07 -5.63444e-07 -0.000204487
0.00169732 -3.22604e-05 -1.42565e-06
-3.22604e-05 0.00010047 -3.25578e-08
-1.42565e-06 -3.25578e-08 -6.20572e-06
0.00183784 -9.31988e-05 -7.23687e-07
-9.31988e-05 0.000187594 1.18517e-06
-7.23687e-07 1.18517e-06 7.31728e-05
0.00163063 -6.64197e-05 6.78662e-07
-6.64197e-05 6.14075e-07 1.65406e-08
6.78662e-07 1.65406e-08 -8.95148e-05
0.00175442 -0.000165086 -3.72298e-06
-0.000165086 8.46124e-05 9.26852e-07
-3.72298e-06 9.26852e-07 -1.15029e-05
0.00170691 -0.000225143 -3.37338e-06
-0.000225143 0.000125688 2.77545e-06
-3.37338e-06 2.77545e-06 -3.57858e-06
0.0019041 -0.000195698 1.57967e-06
-0.000195698 0.000186445 -2.57487e-07
1.57967e-06 -2.57487e-07 9.19441e-05
0.000880295 -0.000179239 1.20123e-06
-0.000179239 0.000127248 -2.0723e-06
1.20123e-06 -2.0723e-06 -3.98016e-05
0.00161632 -0.000269331 -4.1045e-06
-0.000269331 7.30436e-05 2.88774e-06
-4.1045e-06 2.88774e-06 -5.70846e-05
0.000888744 -0.000225103 1.93985e-06
-0.000225103 2.40809e-05 -5.11899e-06
1.93985e-06 -5.11899e-06 -0.00018796
0.00165627 -0.000330441 3.62725e-06
-0.000330441 0.000297269 -2.26542e-08
3.62725e-06 -2.26542e-08 6.02118e-05
0.00169038 -0.000321005 6.12078e-07
-0.000321005 0.000196515 5.28222e-06
6.12078e-07 5.28222e-06 -7.08507e-06
0.0019278 -0.000291979 8.45805e-08
-0.000291979 0.000273867 1.26882e-06
8.45805e-08 1.26882e-06 0.00012325
0.000588438 -2.10649e-05 1.29139e-06
-2.10649e-05 -2.52586e-06 -2.90484e-06
1.29139e-06 -2.90484e-06 -7.31094e-05
0.000534393 -2.60928e-05 -6.4023e-07
-2.60928e-05 -7.84688e-06 -1.61597e-06
-6.4023e-07 -1.61597e-06 -0.000132323
0.00086196 -0.000187359 -2.92538e-07
-0.000187359 0.000124236 1.31494e-06
-2.92538e-07 1.31494e-06 -4.26158e-05
0.000818802 -0.000133171 1.00062e-06
-0.000133171 0.000163422 1.27171e-06
1.00062e-06 1.27171e-06 -5.2914e-07
0.00134375 -0.000230696 -2.4044e-06
-0.000230696 0.000423234 3.49518e-06
-2.4044e-06 3.49518e-06 0.000250131
0.000534189 -5.80565e-05 -8.4084e-07
-5.80565e-05 -3.78924e-05 -4.61995e-06
-8.4084e-07 -4.61995e-06 -6.23692e-05
0.00136104 0.000162592 -4.74189e-06
0.000162592 8.10001e-05 -1.32544e-06
-4.74189e-06 -1.32544e-06 -7.61643e-05
0.000538384 -4.83939e-05 -1.88291e-07
-4.83939e-05 -2.49866e-05 -3.06744e-06
-1.88291e-07 -3.06744e-06 -9.69839e-05
0.000736099 5.69771e-05 -1.62309e-06
5.69771e-05 8.46767e-05 -4.15017e-06
-1.62309e-06 -4.15017e-06 -2.90925e-05
0.000702478 2.77492e-05 1.52529e-06
2.77492e-05 8.56765e-05 -1.8445e-06
1.52529e-06 -1.8445e-06 -4.4299e-05
0.00129057 0.000206908 -6.57771e-06
0.000206908 0.000113853 -2.23832e-06
-6.57771e-06 -2.23832e-06 -5.92117e-05
0.00160475 0.000245454 -1.95635e-07
0.000245454 0.00015969 4.80165e-07
-1.95635e-07 4.80165e-07 -1.57527e-05
0.00102666 0.000189968 -2.00787e-06
0.000189968 0.000219039 -3.37276e-06
-2.00787e-06 -3.37276e-06 3.25525e-05
0.000906902 0.000224922 -2.35723e-06
0.000224922 1.40521e-05 -2.53848e-06
-2.35723e-06 -2.53848e-06 -0.000216409
0.00172903 0.000272498 -3.3052e-06
0.000272498 0.00035612 -1.40352e-06
-3.3052e-06 -1.40352e-06 0.000165949
0.001352 0.000255429 -5.88801e-06
0.000255429 0.000126696 5.92948e-07
-5.88801e-06 5.92948e-07 -6.90452e-05
0.000568125 -5.13865e-05 5.15714e-08
-5.13865e-05 -2.90149e-05 2.32702e-09
5.15714e-08 2.32702e-09 -4.94538e-05
0.000638499 -2.87404e-05 -6.26725e-07
-2.87404e-05 1.99585e-05 2.98243e-07
-6.26725e-07 2.98243e-07 -3.77787e-05
0.000926059 0.000136185 1.90631e-07
0.000136185 0.000188574 6.64969e-07
1.90631e-07 6.64969e-07 3.29674e-05
0.000720857 6.02509e-06 -4.39811e-07
6.02509e-06 0.000103882 3.81203e-07
-4.39811e-07 3.81203e-07 -8.52233e-06
0.00067081 9.49512e-05 7.3465e-07
9.49512e-05 6.85294e-05 -4.84941e-07
7.3465e-07 -4.84941e-07 -8.66832e-05
0.00164744 0.000214919 1.58609e-07
0.000214919 0.000141358 -6.1257e-07
1.58609e-07 -6.1257e-07 -1.81288e-05
0.00149508 0.000260083 6.5776e-07
0.000260083 0.000153618 4.16971e-07
6.5776e-07 4.16971e-07 -3.23292e-05
0.00168583 0.000280688 1.64804e-06
0.000280688 0.000159409 2.38243e-07
1.64804e-06 2.38243e-07 -1.12676e-05
0.00117457 0.000228265 9.55713e-07
0.000228265 0.000283546 1.58933e-06
9.55713e-07 1.58933e-06 5.61372e-05
0.00175642 0.000309351 3.48778e-07
0.000309351 0.000305145 7.66534e-08
3.48778e-07 7.66534e-08 0.000106169
0.00113668 0.000252027 -2.06269e-06
0.000252027 6.60744e-05 -4.40649e-08
-2.06269e-06 -4.40649e-08 -0.000157235
0.000684457 -1.53305e-05 2.21851e-06
-1.53305e-05 3.66687e-05 2.32899e-06
2.21851e-06 2.32899e-06 -1.41961e-05
0.000779789 3.61284e-05 5.64836e-07
3.61284e-05 0.000125754 2.35344e-06
5.64836e-07 2.35344e-06 3.14378e-05
0.000983458 0.000196555 -1.64414e-06
0.000196555 0.000215435 -5.19645e-08
-1.64414e-06 -5.19645e-08 3.20983e-05
0.00108593 5.54746e-05 1.49478e-07
5.54746e-05 0.000318744 1.00903e-06
1.49478e-07 1.00903e-06 0.000181493
0.0012632 0.000117516 -4.40508e-06
0.000117516 0.000379104 -4.88082e-06
-4.40508e-06 -4.88082e-06 0.000223356
0.00170641 0.0002271 -2.73496e-06
0.0002271 0.0001368 -2.63679e-06
-2.73496e-06 -2.63679e-06 -7.76949e-06
0.00169699 0.000315501 1.77447e-06
0.000315501 0.000215228 2.59524e-07
1.77447e-06 2.59524e-07 2.37757e-05
0.00151568 0.000300593 3.26322e-06
0.000300593 2.99615e-05 -1.01303e-06
3.26322e-06 -1.01303e-06 -0.000137765
0.000975753 0.000225551 -7.66987e-08
0.000225551 0.000138686 2.58553e-06
-7.66987e-08 2.58553e-06 -0.000102971
0.00145519 0.000306031 6.11041e-06
0.000306031 0.000156013 -3.39472e-07
6.11041e-06 -3.39472e-07 -6.18634e-05
0.000651866 -1.72686e-05 -1.79438e-07
-1.72686e-05 1.44603e-05 1.04659e-08
-1.79438e-07 1.04659e-08 -3.35751e-05
0.000566569 1.47268e-05 1.49057e-06
1.47268e-05 -1.95767e-05 1.45913e-06
1.49057e-06 1.45913e-06 -9.35119e-05
0.000582207 1.42369e-06 -5.85106e-07
1.42369e-06 -5.67962e-06 -7.68837e-08
-5.85106e-07 -7.68837e-08 -8.00231e-05
0.000925145 7.49661e-05 5.76375e-07
7.49661e-05 0.000207514 -2.50434e-07
5.76375e-07 -2.50434e-07 0.000115149
0.000703253 5.71284e-05 1.79895e-06
5.71284e-05 6.96074e-05 1.25787e-06
1.79895e-06 1.25787e-06 -6.86342e-06
0.000651663 1.72555e-05 1.75318e-06
1.72555e-05 1.64208e-05 2.19653e-06
1.75318e-06 2.19653e-06 -3.00356e-05
0.000649977 -1.5939e-05 -6.463e-07
-1.5939e-05 1.3769e-05 2.36843e-08
-6.463e-07 2.36843e-08 -3.28673e-05
0.00125567 -3.99013e-05 7.7001e-07
-3.99013e-05 0.00035703 2.47166e-06
7.7001e-07 2.47166e-06 0.000346865
0.000648139 -2.96603e-05 -9.13022e-07
-2.96603e-05 1.25851e-05 -2.21301e-06
-9.13022e-07 -2.21301e-06 -3.48462e-05
0.00129299 -4.82928e-05 -5.12689e-06
-4.82928e-05 0.000383295 -1.35416e-06
-5.12689e-06 -1.35416e-06 0.000371766
0.000874433 -3.83242e-05 2.25234e-05
-3.83242e-05 0.0001456 7.32681e-06
2.25234e-05 7.32681e-06 0.000151551
0.00130538 -5.60646e-05 -9.54666e-06
-5.60646e-05 0.00039709 -3.75065e-06
-9.54666e-06 -3.75065e-06 0.000383357
0.00156273 -6.23957e-05 2.0485e-05
-6.23957e-05 0.000560037 1.93094e-06
2.0485e-05 1.93094e-06 0.000566382
0.00227161 -8.82771e-05 -2.8598e-05
-8.82771e-05 0.000985227 -3.52611e-06
-2.8598e-05 -3.52611e-06 0.000992277
0.000508268 5.58657e-05 -8.79829e-07
5.58657e-05 -5.25316e-05 -4.93233e-06
-8.79829e-07 -4.93233e-06 -7.99782e-05
0.000535892 3.14331e-05 1.77759e-07
3.14331e-05 -3.42734e-05 2.29726e-07
1.77759e-07 2.29726e-07 -6.52706e-05
0.00267152 0.000107839 3.7068e-05
0.000107839 0.00122832 -3.36478e-06
3.7068e-05 -3.36478e-06 0.0012293
0.00303227 0.000110086 -5.99419e-06
0.000110086 0.00144343 -3.28763e-07
-5.99419e-06 -3.28763e-07 0.00144373
0.000616751 1.66307e-05 -3.77408e-06
1.66307e-05 1.4257e-05 7.12533e-06
-3.77408e-06 7.12533e-06 -2.28928e-05
0.00343961 0.000106307 -9.79625e-05
0.000106307 0.00168306 4.53902e-06
-9.79625e-05 4.53902e-06 0.00168376
0.00139093 0.000137764 -4.51849e-06
0.000137764 7.43076e-05 -8.36061e-07
-4.51849e-06 -8.36061e-07 -7.47185e-05
0.00140285 8.00519e-05 -3.52529e-06
8.00519e-05 5.77664e-05 -3.19632e-07
-3.52529e-06 -3.19632e-07 -7.69674e-05
0.00169266 0.000144251 1.25363e-07
0.000144251 0.00012059 1.10271e-06
1.25363e-07 1.10271e-06 -9.84895e-06
0.00177733 7.63454e-05 1.01224e-06
7.63454e-05 0.000121494 7.45213e-07
1.01224e-06 7.45213e-07 1.42475e-05
0.00139927 3.45871e-05 -3.11537e-06
3.45871e-05 4.90077e-05 7.8591e-08
-3.11537e-06 7.8591e-08 -7.67214e-05
0.00103313 6.73433e-06 -1.19706e-05
6.73433e-06 -1.75573e-05 2.55906e-08
-1.19706e-05 2.55906e-08 -0.000132613
0.00139895 1.05654e-05 7.42103e-08
1.05654e-05 5.22027e-05 1.35049e-08
7.42103e-08 1.35049e-08 -7.21222e-05
0.00174155 3.40498e-05 -1.16216e-06
3.40498e-05 0.000106638 -1.17533e-08
-1.16216e-06 -1.17533e-08 3.29843e-06
0.00172466 0.000116103 -1.4636e-07
0.000116103 0.000107401 4.76213e-08
-1.4636e-07 4.76213e-08 -1.2403e-05
0.00179844 8.01394e-05 1.65905e-06
8.01394e-05 7.41096e-05 9.14241e-07
1.65905e-06 9.14241e-07 -1.03088e-05
0.00166769 0.000176322 -2.66746e-07
0.000176322 0.000125802 -8.12141e-08
-2.66746e-07 -8.12141e-08 -1.74777e-05
0.00173504 0.000165939 -3.69595e-07
0.000165939 7.43418e-05 9.92525e-07
-3.69595e-07 9.92525e-07 -2.86999e-05
0.00171986 5.62093e-07 -1.29629e-06
5.62093e-07 0.000106508 7.26862e-08
-1.29629e-06 7.26862e-08 3.49325e-06
0.00168768 4.02981e-05 1.79129e-07
4.02981e-05 2.39357e-05 5.47254e-07
1.79129e-07 5.47254e-07 -5.85618e-05
0.00186906 0.000129623 -3.42285e-06
0.000129623 0.000125695 -9.19414e-07
-3.42285e-06 -9.19414e-07 3.62863e-05
0.0019006 8.65863e-05 2.62943e-06
8.65863e-05 0.000118339 1.86623e-07
2.62943e-06 1.86623e-07 5.31988e-05
0.0016774 0.000180202 -1.4205e-06
0.000180202 7.99108e-05 -2.68347e-06
-1.4205e-06 -2.68347e-06 -4.04099e-05
0.00183208 0.000176522 2.33808e-06
0.000176522 9.17919e-05 2.2059e-07
2.33808e-06 2.2059e-07 6.29046e-06
0.00141329 -1.24215e-05 -5.13291e-06
-1.24215e-05 6.24684e-05 2.42787e-07
-5.13291e-06 2.42787e-07 -6.17973e-05
0.00172749 -8.41959e-05 -6.79025e-06
-8.41959e-05 0.000253697 6.74279e-07
-6.79025e-06 6.74279e-07 0.000126715
0.00168631 -5.18584e-05 1.77221e-06
-5.18584e-05 9.88134e-05 -7.79706e-07
1.77221e-06 -7.79706e-07 -4.3766e-06
0.00168812 -0.000134621 -4.01015e-07
-0.000134621 0.000117695 -1.9451e-07
-4.01015e-07 -1.9451e-07 -1.01091e-05
0.000889867 -0.000151125 -4.9366e-06
-0.000151125 0.00016379 5.68741e-06
-4.9366e-06 5.68741e-06 2.50313e-05
0.00122095 -0.000225781 -4.22063e-06
-0.000225781 0.000253161 4.09238e-06
-4.22063e-06 4.09238e-06 6.30149e-05
0.000892817 -0.000229571 -2.69103e-06
-0.000229571 -8.62905e-05 4.2453e-07
-2.69103e-06 4.2453e-07 -0.000295086
0.00160345 -0.000200637 -1.53835e-06
-0.000200637 0.000142326 1.3038e-07
-1.53835e-06 1.3038e-07 -9.10518e-06
0.0018341 -0.000194964 3.46624e-06
-0.000194964 0.000174089 -1.83609e-06
3.46624e-06 -1.83609e-06 6.67176e-05
0.0016982 -0.000254196 2.18284e-06
-0.000254196 0.000156936 -1.32233e-06
2.18284e-06 -1.32233e-06 6.05627e-06
0.00163479 -0.000308233 -7.29897e-07
-0.000308233 0.000205555 -1.50048e-06
-7.29897e-07 -1.50048e-06 -2.57071e-06
0.00200358 -0.000299857 4.77831e-06
-0.000299857 0.000335405 -6.28088e-06
4.77831e-06 -6.28088e-06 0.000181276
0.000903408 -0.000154056 -8.98847e-07
-0.000154056 0.000165768 6.89526e-07
-8.98847e-07 6.89526e-07 1.26455e-05
0.000709207 -0.000139333 -4.09211e-07
-0.000139333 5.86565e-05 -1.03844e-06
-4.09211e-07 -1.03844e-06 -0.000100256
0.000715236 -2.53347e-05 -1.45e-06
-2.53347e-05 7.07778e-05 3.23554e-06
-1.45e-06 3.23554e-06 -9.85631e-06
0.000407876 -5.29813e-06 5.24037e-07
-5.29813e-06 -9.46908e-05 -7.46686e-07
5.24037e-07 -7.46686e-07 -0.000221174
0.00169568 -3.20766e-05 -1.90358e-08
-3.20766e-05 9.99811e-05 4.33133e-08
-1.90358e-08 4.33133e-08 -6.82179e-06
0.00176519 -9.24635e-05 2.22331e-08
-9.24635e-05 0.000146298 -2.33272e-07
2.22331e-08 -2.33272e-07 2.99466e-05
0.00170134 -6.64421e-05 1.70212e-06
-6.64421e-05 4.16201e-05 -4.13578e-07
1.70212e-06 -4.13578e-07 -4.54179e-05
0.00171143 -0.000161845 -1.46402e-06
-0.000161845 6.75575e-05 6.19523e-07
-1.46402e-06 6.19523e-07 -3.05767e-05
0.000972385 -0.000178801 -4.78353e-07
-0.000178801 0.000180243 9.9992e-07
-4.78353e-07 9.9992e-07 1.34341e-05
0.000907874 -0.000223808 1.42763e-06
-0.000223808 3.48887e-05 -2.18507e-06
1.42763e-06 -2.18507e-06 -0.000174592
0.00161249 -0.000327605 -6.46568e-08
-0.000327605 0.000270196 5.80148e-07
-6.46568e-08 5.80148e-07 3.12454e-05
0.00165484 -0.000222186 -1.48724e-06
-0.000222186 0.000100342 7.16566e-07
-1.48724e-06 7.16566e-07 -3.22704e-05
0.00177945 -0.000193492 2.12259e-06
-0.000193492 0.000110127 -1.10423e-06
2.12259e-06 -1.10423e-06 1.93155e-05
0.00169195 -0.000322442 -8.27096e-07
-0.000322442 0.000199351 9.31376e-07
-8.27096e-07 9.31376e-07 -5.29322e-06
0.00167279 -0.000271981 -4.10463e-07
-0.000271981 0.000105616 1.03655e-06
-4.10463e-07 1.03655e-06 -2.48005e-05
0.00181614 -0.000286203 3.1449e-06
-0.000286203 0.000199199 -4.83303e-06
3.1449e-06 -4.83303e-06 5.26048e-05
0.00100356 -0.000200256 4.08711e-07
-0.000200256 0.000204642 1.22558e-06
4.08711e-07 1.22558e-06 3.5466e-05
0.00119587 -0.000210895 2.49845e-06
-0.000210895 0.00032976 1.00101e-06
2.49845e-06 1.00101e-06 0.000164201
0.000813486 -0.000102983 -2.52838e-07
-0.000102983 0.000156254 -3.74525e-08
-2.52838e-07 -3.74525e-08 -6.45934e-06
0.000499429 -1.84194e-07 -1.06513e-06
-1.84194e-07 -5.44902e-05 2.79248e-07
-1.06513e-06 2.79248e-07 -0.000126503
0.000457829 4.33755e-06 -3.00208e-07
4.33755e-06 -5.49816e-05 -7.10039e-07
-3.00208e-07 -7.10039e-07 -0.000174552
0.00176268 -4.32901e-05 3.04937e-07
-4.32901e-05 7.25496e-05 -6.66434e-07
3.04937e-07 -6.66434e-07 -8.82908e-06
0.00181245 -9.48284e-05 1.14817e-06
-9.48284e-05 9.39438e-05 3.90778e-07
1.14817e-06 3.90778e-07 1.09397e-05
0.00181448 -0.000189646 -2.85734e-07
-0.000189646 9.5044e-05 -9.48889e-07
-2.85734e-07 -9.48889e-07 1.64891e-05
0.00158048 -0.000221331 -6.75197e-07
-0.000221331 1.56713e-05 5.54844e-07
-6.75197e-07 5.54844e-07 -8.67922e-05
0.00105314 -0.000214454 -1.4942e-06
-0.000214454 0.000213661 -2.79872e-06
-1.4942e-06 -2.79872e-06 2.39722e-05
0.00218872 -0.000321716 -2.47793e-06
-0.000321716 0.000347508 1.21831e-06
-2.47793e-06 1.21831e-06 0.000221033
0.000695219 -0.000232087 1.53414e-06
-0.000232087 -0.000124384 -5.4238e-06
1.53414e-06 -5.4238e-06 -0.000352984
0.00173224 -0.000368727 3.25337e-06
-0.000368727 0.000290712 1.62188e-06
3.25337e-06 1.62188e-06 3.62044e-05
0.00157021 -0.00031496 1.92927e-06
-0.00031496 9.54039e-05 4.0196e-06
1.92927e-06 4.0196e-06 -0.000101771
0.000305921 1.42134e-05 6.31842e-07
1.42134e-05 -0.000167475 -3.43714e-06
6.31842e-07 -3.43714e-06 -0.000231049
0.000767543 -2.92056e-05 7.26263e-07
-2.92056e-05 0.000132935 -1.0602e-06
7.26263e-07 -1.0602e-06 2.09087e-05
0.000979926 -6.29283e-05 -9.15818e-07
-6.29283e-05 0.000246278 4.68978e-08
-9.15818e-07 4.68978e-08 0.000105471
0.00111807 -0.000217483 -4.38035e-06
-0.000217483 0.000256311 1.26368e-06
-4.38035e-06 1.26368e-06 8.48815e-05
0.000588136 -0.000118988 2.85086e-06
-0.000118988 1.71303e-05 2.81537e-06
2.85086e-06 2.81537e-06 -0.000160176
0.000555692 -0.000174537 -9.35295e-08
-0.000174537 -7.40638e-05 5.58296e-07
-9.35295e-08 5.58296e-07 -0.000233842
0.000569429 -4.98751e-05 -1.07563e-06
-4.98751e-05 -2.89883e-05 -4.40165e-06
-1.07563e-06 -4.40165e-06 -4.90933e-05
0.000591729 -3.17605e-05 -1.86862e-06
-3.17605e-05 -6.2446e-06 -2.28999e-06
-1.86862e-06 -2.28999e-06 -6.38839e-05
0.00164307 0.000216157 -9.40278e-07
0.000216157 0.000135896 -3.77924e-08
-9.40278e-07 -3.77924e-08 -2.41579e-05
0.000613448 -6.37817e-05 1.48831e-06
-6.37817e-05 3.98218e-05 -2.30672e-06
1.48831e-06 -2.30672e-06 -6.80733e-05
0.000770001 0.000121933 -1.02373e-06
0.000121933 9.80193e-05 -2.12605e-07
-1.02373e-06 -2.12605e-07 -5.36658e-05
0.000308592 5.67688e-05 1.45046e-06
5.67688e-05 -0.000148308 6.88112e-07
1.45046e-06 6.88112e-07 -0.000296865
0.00151382 0.000260335 -8.02273e-07
0.000260335 0.000166512 -1.76027e-07
-8.02273e-07 -1.76027e-07 -1.95059e-05
0.00160873 0.000277631 5.14471e-07
0.000277631 0.000116085 4.28592e-07
5.14471e-07 4.28592e-07 -5.49946e-05
0.000912816 0.000205119 4.3591e-07
0.000205119 0.000141205 -1.68976e-06
4.3591e-07 -1.68976e-06 -8.62647e-05
0.00144326 0.00027573 -1.77675e-06
0.00027573 0.000236847 -4.75857e-07
-1.77675e-06 -4.75857e-07 1.32479e-05
0.0017619 0.000310661 -3.75869e-06
0.000310661 0.000300774 -8.08988e-07
-3.75869e-06 -8.08988e-07 0.000101297
0.000650093 -1.61974e-05 -2.66967e-07
-1.61974e-05 1.73876e-05 9.9333e-08
-2.66967e-07 9.9333e-08 -3.34918e-05
0.000707264 -1.37009e-05 -9.61398e-07
-1.37009e-05 8.23204e-05 3.72159e-07
-9.61398e-07 3.72159e-07 -8.76032e-06
0.00101277 0.000199232 -6.74943e-07
0.000199232 0.000234411 7.74834e-08
-6.74943e-07 7.74834e-08 5.01888e-05
0.000783868 1.61719e-05 2.35224e-07
1.61719e-05 0.000140041 -1.42515e-07
2.35224e-07 -1.42515e-07 8.85022e-06
0.000917867 0.000128942 7.44639e-07
0.000128942 0.000194825 5.79578e-07
7.44639e-07 5.79578e-07 3.21477e-05
0.00169333 0.000229289 -1.79667e-06
0.000229289 0.000128754 -1.30919e-06
-1.79667e-06 -1.30919e-06 -1.69915e-05
0.00166347 0.000312493 1.35583e-06
0.000312493 0.000192669 3.4115e-07
1.35583e-06 3.4115e-07 1.30999e-06
0.00165498 0.000305312 5.01294e-07
0.000305312 0.000110756 2.33555e-07
5.01294e-07 2.33555e-07 -5.60593e-05
0.000800535 0.00021506 7.60538e-08
0.00021506 3.00992e-05 3.05234e-06
7.60538e-08 3.05234e-06 -0.000208927
0.00158928 0.000317357 -1.60839e-06
0.000317357 0.000239957 -6.56935e-07
-1.60839e-06 -6.56935e-07 1.84466e-05
0.000775278 2.7789e-05 8.78826e-07
2.7789e-05 0.000111334 1.70657e-06
8.78826e-07 1.70657e-06 3.0312e-05
0.000484087 -1.43783e-05 -1.31903e-06
-1.43783e-05 -4.08901e-05 2.79786e-06
-1.31903e-06 2.79786e-06 -0.00014864
0.00104235 0.000213551 -3.03554e-06
0.000213551 0.000216453 -1.03716e-06
-3.03554e-06 -1.03716e-06 2.01723e-05
0.00079259 8.48103e-05 -3.56393e-06
8.48103e-05 0.000164421 -3.08245e-06
-3.56393e-06 -3.08245e-06 1.83613e-06
0.000837781 0.000187982 -9.38188e-07
0.000187982 0.000121869 -2.2239e-06
-9.38188e-07 -2.2239e-06 -4.74574e-05
0.00157079 0.000243398 2.62623e-07
0.000243398 -1.38029e-05 -2.40786e-06
2.62623e-07 -2.40786e-06 -0.000135432
0.00186607 0.000354249 3.09032e-06
0.000354249 0.000283831 -1.84707e-06
3.09032e-06 -1.84707e-06 8.11086e-05
0.00150938 0.000312904 3.17417e-06
0.000312904 1.53991e-05 2.67778e-07
3.17417e-06 2.67778e-07 -0.000153445
0.00171396 0.000303351 3.95265e-06
0.000303351 0.000482364 7.25348e-06
3.95265e-06 7.25348e-06 0.000224219
0.00170933 0.000348153 -5.06702e-07
0.000348153 0.000294011 -9.55988e-07
-5.06702e-07 -9.55988e-07 6.35698e-05
0.000637391 -2.61783e-05 -1.38274e-06
-2.61783e-05 7.70238e-06 -2.28799e-06
-1.38274e-06 -2.28799e-06 -4.12437e-05
0.000639936 1.88978e-05 8.2706e-07
1.88978e-05 2.50987e-05 3.66675e-07
8.2706e-07 3.66675e-07 -4.95669e-05
0.000561021 -6.47476e-06 -2.08859e-07
-6.47476e-06 -1.52971e-05 9.12074e-07
-2.08859e-07 9.12074e-07 -9.89808e-05
0.000481463 -3.32376e-05 -7.24977e-07
-3.32376e-05 -6.59482e-05 -1.18575e-06
-7.24977e-07 -1.18575e-06 -0.000139168
0.000684909 2.63294e-05 -2.00446e-07
2.63294e-05 5.76704e-05 3.47695e-08
-2.00446e-07 3.47695e-08 -1.73355e-05
0.000709576 3.34764e-05 -1.93564e-07
3.34764e-05 7.25613e-05 -3.57022e-07
-1.93564e-07 -3.57022e-07 -1.21874e-05
0.000835757 6.24531e-05 -8.91462e-07
6.24531e-05 0.000155267 -1.11921e-06
-8.91462e-07 -1.11921e-06 6.05181e-05
0.000573971 -1.99333e-05 6.60215e-07
-1.99333e-05 4.83256e-06 4.91313e-07
6.60215e-07 4.91313e-07 -8.84752e-05
0.000707215 4.63757e-05 8.31532e-07
4.63757e-05 6.73377e-05 1.31155e-06
8.31532e-07 1.31155e-06 -4.64645e-06
0.000655822 2.38141e-05 1.73495e-06
2.38141e-05 2.2745e-05 2.22645e-06
1.73495e-06 2.22645e-06 -2.46178e-05
0.00065228 -4.78506e-06 -8.82159e-07
-4.78506e-06 1.70885e-05 1.5881e-08
-8.82159e-07 1.5881e-08 -2.95167e-05
0.00126081 -2.84109e-05 8.3689e-07
-2.84109e-05 0.000357273 2.40883e-06
8.3689e-07 2.40883e-06 0.000348086
0.000631667 -3.85616e-05 -4.05327e-07
-3.85616e-05 4.94932e-06 -2.17155e-06
-4.05327e-07 -2.17155e-06 -4.26351e-05
0.00129613 -3.694e-05 -4.4032e-06
-3.694e-05 0.000380544 -1.41846e-06
-4.4032e-06 -1.41846e-06 0.000370619
0.000881291 -3.14979e-05 1.87816e-05
-3.14979e-05 0.000143891 7.64709e-06
1.87816e-05 7.64709e-06 0.000151164
0.00132545 -4.60068e-05 -8.29739e-06
-4.60068e-05 0.000401902 -5.32146e-06
-8.29739e-06 -5.32146e-06 0.000390597
0.000821935 -3.92829e-05 7.00581e-06
-3.92829e-05 0.000114518 2.86001e-06
7.00581e-06 2.86001e-06 0.000119961
0.00220323 -8.28605e-05 -5.16549e-06
-8.28605e-05 0.000937271 -1.84869e-06
-5.16549e-06 -1.84869e-06 0.00094566
0.000540581 4.27777e-05 -1.09885e-07
4.27777e-05 -4.46939e-05 -3.97638e-06
-1.09885e-07 -3.97638e-06 -6.46862e-05
0.000537065 4.72724e-05 -1.76256e-07
4.72724e-05 -3.69287e-05 8.91353e-08
-1.76256e-07 8.91353e-08 -6.37555e-05
0.00248039 9.38034e-05 2.79657e-05
9.38034e-05 0.00110972 -3.64303e-06
2.79657e-05 -3.64303e-06 0.00111432
0.000585098 2.23655e-05 -3.08963e-06
2.23655e-05 -7.12069e-06 5.92973e-06
-3.08963e-06 5.92973e-06 -3.7419e-05
0.00276762 0.000108453 -6.32682e-06
0.000108453 0.00128418 -4.10346e-07
-6.32682e-06 -4.10346e-07 0.00128515
0.00312902 9.97599e-05 -8.09325e-05
9.97599e-05 0.00149778 3.85421e-06
-8.09325e-05 3.85421e-06 0.00150052
0.00165234 0.000176898 -1.33163e-06
0.000176898 0.000114597 7.56044e-07
-1.33163e-06 7.56044e-07 -2.9243e-05
0.00174149 0.000114022 1.25882e-06
0.000114022 0.000118076 1.02316e-06
1.25882e-06 1.02316e-06 -1.43397e-06
0.0017575 0.000163608 2.17413e-06
0.000163608 8.43375e-05 2.32445e-06
2.17413e-06 2.32445e-06 -1.59392e-05
0.00178217 7.92406e-05 2.92957e-06
7.92406e-05 6.35912e-05 7.79384e-07
2.92957e-06 7.79384e-07 -1.63566e-05
0.00174108 2.65815e-05 -6.31964e-07
2.65815e-05 0.000107813 1.40144e-07
-6.31964e-07 1.40144e-07 4.7539e-06
0.00139796 1.33293e-05 -2.97811e-06
1.33293e-05 5.14839e-05 1.00364e-07
-2.97811e-06 1.00364e-07 -7.28807e-05
0.00170684 2.83438e-06 -1.04434e-06
2.83438e-06 9.85942e-05 -2.81998e-08
-1.04434e-06 -2.81998e-08 -6.08935e-06
0.00176124 3.73331e-05 1.21136e-06
3.73331e-05 6.8873e-05 -8.54087e-09
1.21136e-06 -8.54087e-09 -1.5482e-05
0.00183603 0.00012791 -1.43933e-06
0.00012791 0.000107379 -4.87388e-07
-1.43933e-06 -4.87388e-07 1.66611e-05
0.00183522 8.5003e-05 2.32933e-06
8.5003e-05 7.8941e-05 5.30723e-07
2.32933e-06 5.30723e-07 1.70136e-05
0.00169543 0.000178976 -7.34705e-07
0.000178976 9.71255e-05 -2.47756e-07
-7.34705e-07 -2.47756e-07 -2.31968e-05
0.00179904 0.000178377 3.45793e-06
0.000178377 7.12944e-05 1.35053e-06
3.45793e-06 1.35053e-06 -1.0779e-05
0.00174711 -6.75253e-06 -9.94732e-07
-6.75253e-06 7.94004e-05 -1.2418e-07
-9.94732e-07 -1.2418e-07 -4.74101e-06
0.0017673 4.04291e-05 2.99619e-06
4.04291e-05 3.40482e-05 8.87166e-08
2.99619e-06 8.87166e-08 -1.98861e-05
0.00183802 0.000129923 2.00268e-06
0.000129923 7.20525e-05 -3.15325e-08
2.00268e-06 -3.15325e-08 5.73706e-06
0.00186608 0.000217728 5.55351e-07
0.000217728 0.000122036 -1.27014e-06
5.55351e-07 -1.27014e-06 2.9761e-05
0.00169291 -3.18696e-05 6.56219e-07
-3.18696e-05 9.92098e-05 1.47759e-07
6.56219e-07 1.47759e-07 -7.71578e-06
0.00168934 -9.35633e-05 1.43107e-06
-9.35633e-05 0.000103352 -1.1354e-06
1.43107e-06 -1.1354e-06 -1.50622e-05
0.0017875 -6.68569e-05 3.55202e-06
-6.68569e-05 9.20303e-05 -9.72231e-07
3.55202e-06 -9.72231e-07 8.03952e-06
0.00167012 -0.000158398 -2.84375e-08
-0.000158398 5.08914e-05 -7.85422e-08
-2.84375e-08 -7.85422e-08 -4.91946e-05
0.00111646 -0.000191249 -1.38029e-06
-0.000191249 0.000264838 3.82211e-06
-1.38029e-06 3.82211e-06 9.49863e-05
0.000985929 -0.000228226 -1.47405e-07
-0.000228226 7.93069e-05 1.64444e-06
-1.47405e-07 1.64444e-06 -0.000127988
0.00159023 -0.000326048 -3.57075e-06
-0.000326048 0.000256875 1.07744e-06
-3.57075e-06 1.07744e-06 1.56473e-05
0.00160194 -0.000219285 3.28587e-07
-0.000219285 7.48403e-05 -5.6738e-07
3.28587e-07 -5.6738e-07 -6.11284e-05
0.00166765 -0.000191925 3.63841e-06
-0.000191925 4.13601e-05 -2.34916e-06
3.63841e-06 -2.34916e-06 -4.58798e-05
0.00172834 -0.000274675 3.11352e-06
-0.000274675 0.000136983 -7.16313e-07
3.11352e-06 -7.16313e-07 6.25942e-06
0.00170318 -0.000324391 -1.78017e-06
-0.000324391 0.000207091 -2.81954e-06
-1.78017e-06 -2.81954e-06 1.39719e-06
0.00170498 -0.000280516 2.09674e-06
-0.000280516 0.000125941 -1.07741e-05
2.09674e-06 -1.07741e-05 -1.67003e-05
0.001205 -0.000218397 1.85418e-06
-0.000218397 0.000321224 1.03559e-06
1.85418e-06 1.03559e-06 0.000148579
0.00104632 -0.000197579 2.32575e-06
-0.000197579 0.000234276 -2.81989e-06
2.32575e-06 -2.81989e-06 7.41384e-05
0.000727015 -8.22327e-05 9.43105e-07
-8.22327e-05 0.000102133 -1.47606e-06
9.43105e-07 -1.47606e-06 -5.98819e-05
0.000394326 1.28836e-05 -1.40231e-06
1.28836e-05 -0.000115047 2.74832e-06
-1.40231e-06 2.74832e-06 -0.000188973
0.000424929 3.11977e-05 1.08304e-06
3.11977e-05 -7.58518e-05 2.59507e-07
1.08304e-06 2.59507e-07 -0.000192178
0.00183482 -4.76444e-05 2.52596e-07
-4.76444e-05 0.000117085 -1.28288e-07
2.52596e-07 -1.28288e-07 3.53813e-05
0.00182784 -9.88408e-05 1.07656e-06
-9.88408e-05 0.000100769 -6.40664e-07
1.07656e-06 -6.40664e-07 1.65824e-05
0.00179341 -0.000184827 -1.96231e-06
-0.000184827 8.66079e-05 1.72145e-07
-1.96231e-06 1.72145e-07 6.56578e-06
0.00110178 -0.000217236 -6.03495e-07
-0.000217236 0.000239405 9.36121e-07
-6.03495e-07 9.36121e-07 4.93542e-05
0.00113069 -0.000264348 1.33348e-06
-0.000264348 0.000119332 -2.74946e-06
1.33348e-06 -2.74946e-06 -0.000110368
0.00165794 -0.000366486 -3.49328e-07
-0.000366486 0.00025218 7.351e-07
-3.49328e-07 7.351e-07 -5.67764e-06
0.00161085 -0.000222336 3.57733e-07
-0.000222336 2.88649e-05 -2.75326e-07
3.57733e-07 -2.75326e-07 -7.39678e-05
0.00165575 -0.000316362 7.74963e-07
-0.000316362 0.000146692 -2.40395e-06
7.74963e-07 -2.40395e-06 -4.45241e-05
0.00184926 -0.000301699 -4.82923e-07
-0.000301699 0.000164438 -1.10516e-06
-4.82923e-07 -1.10516e-06 3.8058e-05
0.000337756 2.8155e-05 -2.75018e-08
2.8155e-05 -0.00015234 -8.2862e-07
-2.75018e-08 -8.2862e-07 -0.000213021
0.00114349 -0.000218341 -1.75532e-07
-0.000218341 0.000263355 1.0478e-06
-1.75532e-07 1.0478e-06 9.2694e-05
0.000659512 -0.000180537 -3.39668e-07
-0.000180537 -4.74813e-06 3.98743e-07
-3.39668e-07 3.98743e-07 -0.000158931
0.000934862 -0.000147446 -5.91134e-07
-0.000147446 0.000220449 2.57678e-07
-5.91134e-07 2.57678e-07 3.64555e-05
0.00103589 -6.52717e-05 -2.0272e-09
-6.52717e-05 0.000279285 -3.43987e-07
-2.0272e-09 -3.43987e-07 0.000138513
0.000641972 4.47305e-06 -3.72182e-07
4.47305e-06 5.41274e-05 4.08197e-07
-3.72182e-07 4.08197e-07 -5.51759e-05
0.00155646 -5.17593e-05 1.82751e-07
-5.17593e-05 -7.20111e-05 6.93922e-08
1.82751e-07 6.93922e-08 -0.000140966
0.0019864 -0.000139255 1.80509e-06
-0.000139255 0.000127278 -2.39794e-07
1.80509e-06 -2.39794e-07 7.02803e-05
0.00156888 -0.000212185 1.23703e-06
-0.000212185 -5.71025e-05 -6.64449e-07
1.23703e-06 -6.64449e-07 -0.000133337
0.00199199 -0.000280013 -5.91367e-07
-0.000280013 0.000166404 -1.249e-06
-5.91367e-07 -1.249e-06 6.89544e-05
0.00112482 -0.00023494 -3.24546e-06
-0.00023494 0.000217484 -2.889e-06
-3.24546e-06 -2.889e-06 1.799e-05
0.00184147 -0.000336802 2.19203e-06
-0.000336802 0.000180968 4.37683e-06
2.19203e-06 4.37683e-06 2.19166e-05
0.00121604 -0.000315025 -5.18407e-07
-0.000315025 0.000111977 -1.47276e-06
-5.18407e-07 -1.47276e-06 -0.000161367
0.00171221 -0.000384318 -3.50052e-07
-0.000384318 0.000272352 3.26328e-06
-3.50052e-07 3.26328e-06 2.30759e-06
0.000327923 4.7404e-05 -1.43577e-06
4.7404e-05 -0.000162584 -2.45447e-06
-1.43577e-06 -2.45447e-06 -0.000214508
0.000759342 -3.92817e-06 3.31015e-07
-3.92817e-06 0.000119581 -9.37365e-07
3.31015e-07 -9.37365e-07 2.39038e-05
0.000966532 -9.17159e-05 -1.10696e-06
-9.17159e-05 0.000244984 1.29867e-06
-1.10696e-06 1.29867e-06 0.000116398
0.000900275 -2.08527e-05 -1.92393e-06
-2.08527e-05 0.000203567 1.47127e-06
-1.92393e-06 1.47127e-06 3.25445e-05
0.000694871 -0.000197674 -2.0553e-06
-0.000197674 -1.93901e-05 -1.63625e-06
-2.0553e-06 -1.63625e-06 -0.000188838
0.000951366 -0.000205113 -5.39091e-06
-0.000205113 0.000175305 1.61777e-06
-5.39091e-06 1.61777e-06 -9.16377e-06
0.000622063 -2.44107e-05 -2.09165e-06
-2.44107e-05 1.843e-06 -2.20099e-06
-2.09165e-06 -2.20099e-06 -4.91399e-05
0.000622351 -5.1159e-05 1.47105e-07
-5.1159e-05 3.02185e-05 -1.60816e-06
1.47105e-07 -1.60816e-06 -5.6933e-05
0.00168273 0.00023183 -1.82996e-06
0.00023183 0.000121286 -1.69888e-07
-1.82996e-06 -1.69888e-07 -2.56953e-05
0.000497005 -2.01281e-05 6.67638e-07
-2.01281e-05 -3.04402e-05 -1.14124e-06
6.67638e-07 -1.14124e-06 -0.000154674
0.0010214 0.000199957 1.18115e-06
0.000199957 0.000240502 -9.6753e-07
1.18115e-06 -9.6753e-07 5.63628e-05
0.000272751 6.83662e-05 2.30103e-06
6.83662e-05 -0.000185899 1.31002e-06
2.30103e-06 1.31002e-06 -0.000335971
0.00164701 0.000310838 -3.94687e-07
0.000310838 0.000178647 2.27679e-07
-3.94687e-07 2.27679e-07 -1.27856e-05
0.00181812 0.000311632 -2.21234e-06
0.000311632 0.000203076 1.16767e-06
-2.21234e-06 1.16767e-06 3.69241e-05
0.000772597 0.000216306 -1.62201e-06
0.000216306 6.96655e-06 8.12202e-07
-1.62201e-06 8.12202e-07 -0.000230997
0.0017323 0.000328685 -2.56094e-06
0.000328685 0.000329861 1.03363e-06
-2.56094e-06 1.03363e-06 0.000103804
0.000701339 4.35888e-06 -7.85795e-07
4.35888e-06 6.57254e-05 1.8624e-07
-7.85795e-07 1.8624e-07 -1.24336e-05
0.000660304 7.82003e-06 4.99313e-07
7.82003e-06 6.04701e-05 1.20935e-06
4.99313e-07 1.20935e-06 -4.82942e-05
0.00123893 0.00023073 -6.96892e-07
0.00023073 0.000340329 -2.72399e-06
-6.96892e-07 -2.72399e-06 0.000138823
0.000563026 1.66645e-05 -7.17332e-07
1.66645e-05 9.71063e-06 -2.86153e-07
-7.17332e-07 -2.86153e-07 -0.000134792
0.00065305 0.000154793 -1.67367e-06
0.000154793 8.01059e-06 -7.58907e-07
-1.67367e-06 -7.58907e-07 -0.000143114
0.00184956 0.000254378 -2.61922e-06
0.000254378 0.00014582 -1.33696e-06
-2.61922e-06 -1.33696e-06 2.62701e-05
0.00193403 0.000354879 1.49141e-06
0.000354879 0.000325513 -2.34326e-07
1.49141e-06 -2.34326e-07 0.000124531
0.00167355 0.000330261 1.58165e-06
0.000330261 0.000101073 1.99226e-06
1.58165e-06 1.99226e-06 -6.9978e-05
0.0013466 0.00027563 3.19709e-06
0.00027563 0.000282138 4.3266e-06
3.19709e-06 4.3266e-06 1.94899e-05
0.00159938 0.000343973 -3.03904e-06
0.000343973 0.000228776 4.97996e-07
-3.03904e-06 4.97996e-07 -4.30996e-06
0.000443427 -2.48568e-05 -6.20151e-07
-2.48568e-05 -7.29117e-05 2.34719e-06
-6.20151e-07 2.34719e-06 -0.000162868
0.000297753 7.20361e-05 1.14161e-09
7.20361e-05 -0.000123154 1.01568e-06
1.14161e-09 1.01568e-06 -0.000262636
0.00124638 0.000239628 1.85321e-06
0.000239628 0.000304908 3.36527e-06
1.85321e-06 3.36527e-06 8.76448e-05
-0.000516882 5.58195e-05 3.06709e-06
5.58195e-05 -0.000633621 -2.68696e-07
3.06709e-06 -2.68696e-07 -0.000794097
0.00188313 0.000265412 -2.74868e-06
0.000265412 2.64362e-05 -9.79405e-07
-2.74868e-06 -9.79405e-07 -4.60812e-05
0.00213154 0.000314911 5.2487e-07
0.000314911 0.000302446 -1.30964e-07
5.2487e-07 -1.30964e-07 0.000165401
0.00179021 0.000383717 -1.68195e-06
0.000383717 0.000234442 -3.37267e-06
-1.68195e-06 -3.37267e-06 1.67852e-05
0.000145174 0.000202578 -5.58193e-07
0.000202578 -0.000472129 1.76494e-06
-5.58193e-07 1.76494e-06 -0.000733579
0.000700037 4.49073e-05 -8.97232e-07
4.49073e-05 6.51274e-05 -6.05719e-07
-8.97232e-07 -6.05719e-07 -1.24697e-05
0.000641041 2.3988e-05 -6.86417e-08
2.3988e-05 3.67767e-05 4.38357e-07
-6.86417e-08 4.38357e-07 -5.05602e-05
0.000891169 1.14496e-05 -1.37833e-06
1.14496e-05 0.000182861 -9.95829e-07
-1.37833e-06 -9.95829e-07 9.62319e-05
0.000671209 -6.31241e-06 -1.39718e-06
-6.31241e-06 4.27143e-05 -1.15748e-06
-1.39718e-06 -1.15748e-06 -2.69835e-05
0.000497941 -1.39121e-05 -1.52998e-07
-1.39121e-05 -4.81738e-05 -8.2251e-07
-1.52998e-07 -8.2251e-07 -0.000133187
0.00069109 1.68087e-05 2.35231e-08
1.68087e-05 5.97902e-05 -3.20898e-09
2.35231e-08 -3.20898e-09 -1.32361e-05
0.000674972 6.17619e-05 -5.46912e-07
6.17619e-05 7.0974e-05 -3.5523e-07
-5.46912e-07 -3.5523e-07 -2.79235e-05
0.000645472 1.1755e-05 6.3455e-07
1.1755e-05 4.88946e-05 4.01004e-07
6.3455e-07 4.01004e-07 -4.57681e-05
0.000759949 3.26257e-05 7.33923e-07
3.26257e-05 0.000108961 -3.77665e-07
7.33923e-07 -3.77665e-07 1.71229e-05
0.000731021 -2.87614e-05 1.02275e-06
-2.87614e-05 9.8073e-05 -6.36107e-07
1.02275e-06 -6.36107e-07 -3.1408e-06
0.000566415 3.58783e-05 5.49321e-07
3.58783e-05 -2.09088e-07 1.26026e-06
5.49321e-07 1.26026e-06 -9.55348e-05
0.000678803 5.85234e-05 1.09167e-06
5.85234e-05 5.53879e-05 1.67411e-06
1.09167e-06 1.67411e-06 -1.98632e-05
0.000616312 3.39431e-05 1.25242e-06
3.39431e-05 5.07431e-06 2.0606e-06
1.25242e-06 2.0606e-06 -4.42075e-05
0.000630437 -4.1686e-06 -7.67815e-07
-4.1686e-06 8.75735e-06 1.54374e-08
-7.67815e-07 1.54374e-08 -3.91468e-05
0.00126932 -1.75839e-05 6.56751e-07
-1.75839e-05 0.000361058 2.34824e-06
6.56751e-07 2.34824e-06 0.000352239
0.000630806 -3.51381e-05 -1.55063e-07
-3.51381e-05 5.90401e-06 -2.20691e-06
-1.55063e-07 -2.20691e-06 -4.15164e-05
0.00130272 -2.56996e-05 -3.67416e-06
-2.56996e-05 0.000381971 -1.4857e-06
-3.67416e-06 -1.4857e-06 0.000372836
0.000884539 -2.40025e-05 1.57003e-05
-2.40025e-05 0.000141536 7.95303e-06
1.57003e-05 7.95303e-06 0.000149726
0.00133315 -3.4772e-05 -6.88855e-06
-3.4772e-05 0.000402211 -5.33617e-06
-6.88855e-06 -5.33617e-06 0.000392318
0.00082837 -3.18943e-05 5.66669e-06
-3.18943e-05 0.000112211 2.96812e-06
5.66669e-06 2.96812e-06 0.000119286
0.000765096 -3.83629e-05 -1.50015e-06
-3.83629e-05 8.08564e-05 -2.06073e-06
-1.50015e-06 -2.06073e-06 8.63258e-05
0.000561216 3.55596e-05 3.86115e-07
3.55596e-05 -4.29594e-05 -3.48202e-06
3.86115e-07 -3.48202e-06 -5.75158e-05
0.000556607 4.72258e-05 -5.06814e-08
4.72258e-05 -3.42012e-05 1.14974e-07
-5.06814e-08 1.14974e-07 -5.51437e-05
0.00228274 7.82173e-05 2.23001e-05
7.82173e-05 0.000985985 -3.80735e-06
2.23001e-05 -3.80735e-06 0.000994704
0.000564199 3.85383e-05 -1.96133e-06
3.85383e-05 -2.23969e-05 5.15607e-06
-1.96133e-06 5.15607e-06 -4.84059e-05
0.00254483 9.50693e-05 -5.37337e-06
9.50693e-05 0.00114762 -3.64698e-07
-5.37337e-06 -3.64698e-07 0.00115195
0.00284673 9.59262e-05 -6.07639e-05
9.59262e-05 0.00132856 3.37869e-06
-6.07639e-05 3.37869e-06 0.00133256
0.00171051 0.00017772 6.72175e-07
0.00017772 0.000112721 2.24656e-06
6.72175e-07 2.24656e-06 -7.61327e-06
0.00180087 0.000125993 2.16416e-08
0.000125993 8.80199e-05 4.65358e-07
2.16416e-08 4.65358e-07 -3.99358e-06
0.00176822 0.000180183 3.63115e-06
0.000180183 5.21705e-05 1.98297e-06
3.63115e-06 1.98297e-06 -2.64827e-05
0.00173979 8.31634e-05 1.84951e-06
8.31634e-05 2.25614e-05 7.62426e-07
1.84951e-06 7.62426e-07 -3.6452e-05
0.00182655 3.5005e-05 2.7686e-06
3.5005e-05 0.000109289 -1.57205e-07
2.7686e-06 -1.57205e-07 2.28137e-05
0.00170145 1.62331e-06 -6.8043e-07
1.62331e-06 9.4737e-05 -4.96007e-09
-6.8043e-07 -4.96007e-09 -1.15405e-05
0.00180526 -3.13452e-06 -2.26843e-07
-3.13452e-06 0.000113477 -4.00581e-08
-2.26843e-07 -4.00581e-08 2.99722e-05
0.00176632 4.04693e-05 1.78273e-06
4.04693e-05 4.53247e-05 -5.42215e-08
1.78273e-06 -5.42215e-08 -1.09346e-05
0.00182697 0.000134051 4.45137e-07
0.000134051 6.30205e-05 -4.90456e-07
4.45137e-07 -4.90456e-07 -3.48868e-06
0.00190961 0.000214837 1.76121e-07
0.000214837 0.000134789 2.04146e-07
1.76121e-07 2.04146e-07 4.46717e-05
0.00169631 -8.43009e-06 -8.83411e-07
-8.43009e-06 1.32451e-05 -3.59694e-07
-8.83411e-07 -3.59694e-07 -4.68923e-05
0.00191254 8.70306e-05 3.11683e-06
8.70306e-05 5.73236e-05 2.11641e-07
3.11683e-06 2.11641e-07 2.21141e-05
0.00187407 0.000195475 2.06479e-06
0.000195475 4.0227e-05 -2.88868e-07
2.06479e-06 -2.88868e-07 -2.69807e-05
0.00190596 -5.19051e-05 1.71435e-06
-5.19051e-05 0.000160909 4.5751e-07
1.71435e-06 4.5751e-07 7.889e-05
0.00183827 -0.000102618 5.66827e-07
-0.000102618 0.000104935 -7.05797e-07
5.66827e-07 -7.05797e-07 1.95748e-05
0.00176999 -0.000179502 -1.40506e-06
-0.000179502 7.76647e-05 3.18023e-07
-1.40506e-06 3.18023e-07 -3.88033e-06
0.00117975 -0.000222573 4.77118e-08
-0.000222573 0.000281997 4.59019e-06
4.77118e-08 4.59019e-06 9.11858e-05
0.00158248 -0.000297661 -1.55506e-06
-0.000297661 0.000371489 1.33658e-06
-1.55506e-06 1.33658e-06 0.000141069
0.00156999 -0.000364116 -3.16964e-06
-0.000364116 0.000205664 -9.38639e-08
-3.16964e-06 -9.38639e-08 -5.44919e-05
0.00163761 -0.000223191 3.81509e-07
-0.000223191 4.00843e-05 -5.06985e-07
3.81509e-07 -5.06985e-07 -6.30518e-05
0.00151587 -0.000284193 -3.68983e-07
-0.000284193 -1.81642e-05 -3.02353e-06
-3.68983e-07 -3.02353e-06 -0.000144908
0.00172353 -0.00031749 -2.26843e-06
-0.00031749 0.000185768 -8.10805e-06
-2.26843e-06 -8.10805e-06 3.57718e-07
0.001175 -0.000219917 2.57435e-06
-0.000219917 0.000274512 1.97481e-06
2.57435e-06 1.97481e-06 0.000104369
0.000696373 -0.000180162 -6.83247e-06
-0.000180162 2.66946e-05 1.44006e-07
-6.83247e-06 1.44006e-07 -0.000121014
0.00139936 -0.000181113 4.06017e-07
-0.000181113 0.000498996 3.17106e-07
4.06017e-07 3.17106e-07 0.000302933
0.000386864 1.82741e-05 1.15484e-07
1.82741e-05 -0.00012397 1.03578e-06
1.15484e-07 1.03578e-06 -0.000183852
0.000909885 -6.53618e-05 1.2511e-06
-6.53618e-05 0.000202604 1.01311e-07
1.2511e-06 1.01311e-07 6.67125e-05
0.000520016 3.45745e-05 1.78519e-06
3.45745e-05 -2.31998e-05 1.60834e-06
1.78519e-06 1.60834e-06 -0.000129528
0.00172083 -5.27445e-05 -6.93751e-07
-5.27445e-05 2.15876e-05 1.09145e-07
-6.93751e-07 1.09145e-07 -4.71307e-05
0.00195053 -0.000143277 1.59255e-07
-0.000143277 0.000109067 -8.55926e-08
1.59255e-07 -8.55926e-08 4.83977e-05
0.00168935 -0.000214586 -1.67571e-07
-0.000214586 1.3779e-05 4.79266e-07
-1.67571e-07 4.79266e-07 -6.29003e-05
0.00118621 -0.0002375 -4.25603e-07
-0.0002375 0.000250065 1.50974e-06
-4.25603e-07 1.50974e-06 5.04348e-05
0.00110193 -0.000301362 -1.24617e-06
-0.000301362 4.90895e-05 -1.85197e-07
-1.24617e-06 -1.85197e-07 -0.000215057
0.0016728 -0.000377755 -3.29038e-06
-0.000377755 0.000253241 5.07241e-08
-3.29038e-06 5.07241e-08 -9.26891e-06
0.00195155 -0.000284008 9.78637e-07
-0.000284008 0.000145836 -5.59727e-07
9.78637e-07 -5.59727e-07 4.63842e-05
0.00169135 -0.000330754 1.1155e-06
-0.000330754 8.80024e-05 -2.2895e-06
1.1155e-06 -2.2895e-06 -7.09676e-05
0.000484516 3.74581e-05 -8.35774e-08
3.74581e-05 -7.359e-05 -8.76443e-07
-8.35774e-08 -8.76443e-07 -0.000122021
0.000768413 -8.73105e-06 -5.34511e-07
-8.73105e-06 0.000124151 3.10778e-07
-5.34511e-07 3.10778e-07 2.88937e-05
0.000352626 -0.000166397 -2.90581e-06
-0.000166397 -0.000213227 2.87794e-06
-2.90581e-06 2.87794e-06 -0.000374897
0.00138479 -0.000227517 1.84866e-07
-0.000227517 0.000437843 -2.74027e-07
1.84866e-07 -2.74027e-07 0.000254512
0.000932139 -5.64169e-05 -1.62284e-07
-5.64169e-05 0.000228876 -4.03332e-07
-1.62284e-07 -4.03332e-07 5.8065e-05
0.000856841 -6.70353e-05 -4.28118e-07
-6.70353e-05 0.000181332 1.32388e-06
-4.28118e-07 1.32388e-06 5.23969e-05
0.00189946 -7.67368e-05 2.86933e-06
-7.67368e-05 5.76917e-05 9.23421e-08
2.86933e-06 9.23421e-08 1.52755e-05
0.00191954 -0.000202343 8.68897e-07
-0.000202343 4.56288e-05 -1.13135e-06
8.68897e-07 -1.13135e-06 1.24301e-05
0.00185677 -0.000237235 9.53699e-07
-0.000237235 6.72669e-05 -1.05656e-06
9.53699e-07 -1.05656e-06 -6.14465e-07
0.0019469 -0.000375257 5.87504e-06
-0.000375257 0.000114461 -1.43788e-06
5.87504e-06 -1.43788e-06 -1.02693e-05
0.000208236 -0.000181402 -4.03716e-06
-0.000181402 -0.000342817 -3.95184e-06
-4.03716e-06 -3.95184e-06 -0.000553016
0.00164396 -0.00038204 -7.61145e-07
-0.00038204 0.000203404 1.13208e-05
-7.61145e-07 1.13208e-05 -4.28257e-05
0.00200818 -0.000413848 8.40542e-07
-0.000413848 0.000532381 -3.20114e-06
8.40542e-07 -3.20114e-06 0.000223714
0.000648604 3.79718e-05 3.4049e-07
3.79718e-05 1.46591e-05 -1.52878e-06
3.4049e-07 -1.52878e-06 -2.64926e-05
0.00070296 -9.60051e-05 2.39747e-06
-9.60051e-05 8.18969e-05 -1.87572e-06
2.39747e-06 -1.87572e-06 4.12582e-06
0.000480959 3.50266e-05 -1.28421e-06
3.50266e-05 -4.74052e-05 -1.41223e-06
-1.28421e-06 -1.41223e-06 -0.000132021
0.000734753 -4.04666e-05 -1.59301e-07
-4.04666e-05 0.000121452 1.67003e-06
-1.59301e-07 1.67003e-06 1.22404e-06
0.000633886 -1.54606e-05 1.18315e-06
-1.54606e-05 4.52044e-05 -1.21875e-06
1.18315e-06 -1.21875e-06 -8.90675e-05
0.000181513 -0.000100813 4.97186e-07
-0.000100813 -0.000192995 7.91618e-07
4.97186e-07 7.91618e-07 -0.000360917
0.000118678 -0.000160337 -1.2987e-06
-0.000160337 -0.000385614 -2.61396e-06
-1.2987e-06 -2.61396e-06 -0.000538797
0.00250205 -0.000325712 -9.35628e-06
-0.000325712 0.00113877 2.25058e-06
-9.35628e-06 2.25058e-06 0.000882652
0.000659122 -1.55024e-05 -1.10499e-06
-1.55024e-05 3.62608e-05 -9.44445e-07
-1.10499e-06 -9.44445e-07 -3.73872e-05
0.00081905 1.29191e-05 3.90865e-07
1.29191e-05 0.000155891 -1.06715e-06
3.90865e-07 -1.06715e-06 4.32823e-05
0.00212909 0.00026455 -1.33303e-06
0.00026455 0.000307395 6.18622e-08
-1.33303e-06 6.18622e-08 0.000190077
0.0007576 5.18921e-05 -9.35935e-07
5.18921e-05 0.000131118 1.75811e-06
-9.35935e-07 1.75811e-06 -2.29811e-05
0.00144386 0.00024955 1.12867e-06
0.00024955 0.000470833 -2.75817e-06
1.12867e-06 -2.75817e-06 0.000261923
0.000444366 0.000120083 1.86513e-08
0.000120083 -0.000116512 1.11772e-06
1.86513e-08 1.11772e-06 -0.000250444
0.00196233 0.000351818 -2.40336e-06
0.000351818 0.000346166 3.12452e-07
-2.40336e-06 3.12452e-07 0.000147605
0.00182559 0.000346497 -2.29355e-06
0.000346497 0.000179878 3.84985e-06
-2.29355e-06 3.84985e-06 6.91643e-06
0.000960051 0.000248156 -4.83653e-07
0.000248156 6.89816e-05 -6.39072e-07
-4.83653e-07 -6.39072e-07 -0.000197978
0.00150209 0.000341435 -2.24666e-06
0.000341435 0.00016828 2.57549e-06
-2.24666e-06 2.57549e-06 -6.7136e-05
0.000482964 -9.78211e-07 -1.33423e-07
-9.78211e-07 -4.21724e-05 1.05434e-06
-1.33423e-07 1.05434e-06 -0.000138611
0.000387634 8.18578e-05 -5.67299e-07
8.18578e-05 -7.03342e-05 -1.95804e-06
-5.67299e-07 -1.95804e-06 -0.000212736
0.00122352 0.000239667 2.43198e-06
0.000239667 0.000303071 -2.1155e-06
2.43198e-06 -2.1155e-06 8.10098e-05
0.000615095 0.000138995 -1.2177e-06
0.000138995 1.40426e-05 -2.84652e-06
-1.2177e-06 -2.84652e-06 -0.000154159
0.00197846 0.000262702 9.06955e-07
0.000262702 7.72175e-05 -1.08885e-06
9.06955e-07 -1.08885e-06 6.94665e-06
0.00203284 0.000316766 2.97227e-06
0.000316766 0.000250691 7.77726e-07
2.97227e-06 7.77726e-07 0.000109134
0.00179042 0.000377241 -1.23831e-06
0.000377241 0.000228451 2.58494e-08
-1.23831e-06 2.58494e-08 1.35592e-05
0.00103662 0.000280305 5.13321e-07
0.000280305 1.56272e-05 1.01133e-06
5.13321e-07 1.01133e-06 -0.000249611
0.00054058 2.4669e-05 -6.13465e-07
2.4669e-05 -1.6609e-05 2.47483e-06
-6.13465e-07 2.47483e-06 -0.000112673
0.00192222 0.000208259 -2.05757e-06
0.000208259 2.29656e-05 1.0109e-06
-2.05757e-06 1.0109e-06 -1.66071e-05
0.00148372 0.000230891 5.61892e-07
0.000230891 0.000568258 3.02793e-06
5.61892e-07 3.02793e-06 0.000378474
0.00114046 0.000242262 2.92608e-06
0.000242262 0.000228763 4.30885e-06
2.92608e-06 4.30885e-06 4.17947e-06
0.00235008 0.000311178 -1.573e-05
0.000311178 0.000330358 -3.35888e-06
-1.573e-05 -3.35888e-06 0.000238951
0.00110286 0.000348265 -2.71972e-06
0.000348265 -0.000223624 -6.26807e-06
-2.71972e-06 -6.26807e-06 -0.000420394
0.00177366 0.000371048 -2.34549e-06
0.000371048 0.000351064 8.24775e-07
-2.34549e-06 8.24775e-07 8.39732e-05
0.000721817 3.69017e-05 -1.32655e-06
3.69017e-05 8.39999e-05 -3.66225e-07
-1.32655e-06 -3.66225e-07 -2.88398e-06
0.00074923 2.81826e-05 -8.86009e-07
2.81826e-05 0.000104629 -3.58868e-07
-8.86009e-07 -3.58868e-07 1.57192e-05
0.000922108 1.46234e-05 -8.98587e-07
1.46234e-05 0.00021589 3.60566e-07
-8.98587e-07 3.60566e-07 0.000126087
0.000657138 -1.1104e-05 -1.83115e-07
-1.1104e-05 4.20119e-05 -1.67038e-06
-1.83115e-07 -1.67038e-06 -3.24734e-05
0.000692211 3.39414e-05 6.39147e-07
3.39414e-05 7.76162e-05 -2.90464e-09
6.39147e-07 -2.90464e-09 -1.75433e-05
0.000443198 1.92342e-06 -6.87803e-07
1.92342e-06 -5.3601e-05 4.07203e-07
-6.87803e-07 4.07203e-07 -0.000155413
0.00066539 -1.42068e-06 -4.36579e-07
-1.42068e-06 5.32069e-05 -2.77237e-08
-4.36579e-07 -2.77237e-08 -2.60917e-05
0.000549749 -2.47543e-05 -6.5356e-07
-2.47543e-05 -2.97868e-06 3.78166e-07
-6.5356e-07 3.78166e-07 -0.00010194
0.000601924 -1.42801e-05 6.27165e-07
-1.42801e-05 2.09859e-05 -1.43432e-07
6.27165e-07 -1.43432e-07 -6.98803e-05
0.000793999 2.75374e-05 3.89107e-07
2.75374e-05 0.000144448 6.20118e-09
3.89107e-07 6.20118e-09 3.62645e-05
0.000958587 2.06606e-05 2.65238e-07
2.06606e-05 0.000208961 -1.15967e-06
2.65238e-07 -1.15967e-06 0.000123884
0.000739396 -3.61289e-05 1.23242e-06
-3.61289e-05 9.53139e-05 -8.49875e-07
1.23242e-06 -8.49875e-07 6.34836e-07
0.000778597 2.4818e-05 1.85067e-07
2.4818e-05 0.000132082 2.75557e-07
1.85067e-07 2.75557e-07 2.10764e-05
0.000659823 2.86433e-05 1.90199e-06
2.86433e-05 6.23288e-05 1.42839e-06
1.90199e-06 1.42839e-06 -4.391e-05
0.000688792 1.79572e-05 1.30372e-06
1.79572e-05 6.0624e-05 1.74167e-06
1.30372e-06 1.74167e-06 -1.68483e-05
0.000613211 -1.88547e-05 -1.79859e-07
-1.88547e-05 3.30015e-06 1.88511e-06
-1.79859e-07 1.88511e-06 -4.55197e-05
0.000626776 -9.18561e-06 -2.84926e-07
-9.18561e-06 9.36765e-06 4.32843e-08
-2.84926e-07 4.32843e-08 -3.86778e-05
0.0012757 -7.2415e-06 5.4651e-07
-7.2415e-06 0.000364874 2.23718e-06
5.4651e-07 2.23718e-06 0.000355719
0.000639471 -2.57085e-05 5.70368e-07
-2.57085e-05 1.3352e-05 -2.33924e-06
5.70368e-07 -2.33924e-06 -3.4057e-05
0.00130728 -1.51254e-05 -2.75769e-06
-1.51254e-05 0.00038387 -1.54451e-06
-2.75769e-06 -1.54451e-06 0.000374949
0.000877993 -1.64042e-05 1.17303e-05
-1.64042e-05 0.000134753 8.15051e-06
1.17303e-05 8.15051e-06 0.000143515
0.00134467 -2.38837e-05 -4.92774e-06
-2.38837e-05 0.000406832 -5.44291e-06
-4.92774e-06 -5.44291e-06 0.000397557
0.000837441 -2.43451e-05 3.80973e-06
-2.43451e-05 0.000112968 3.07761e-06
3.80973e-06 3.07761e-06 0.000121089
0.000780316 -3.08501e-05 -1.02536e-06
-3.08501e-05 8.31216e-05 -2.03699e-06
-1.02536e-06 -2.03699e-06 9.03898e-05
0.000675949 1.09834e-05 8.5562e-07
1.09834e-05 2.71269e-05 -1.7497e-06
8.5562e-07 -1.7497e-06 -1.07262e-05
0.000576263 2.79525e-05 4.62593e-07
2.79525e-05 -4.13853e-05 -3.538e-06
4.62593e-07 -3.538e-06 -5.23163e-05
0.000582002 3.64733e-05 2.75708e-08
3.64733e-05 -3.05036e-05 9.13903e-08
2.75708e-08 9.13903e-08 -4.53749e-05
0.00216755 6.36488e-05 1.90487e-05
6.36488e-05 0.000909916 -4.01451e-06
1.90487e-05 -4.01451e-06 0.000922294
0.000581042 5.17522e-05 1.54604e-06
5.17522e-05 -1.85517e-05 4.59638e-06
1.54604e-06 4.59638e-06 -4.06775e-05
0.00237436 8.11203e-05 -3.64847e-06
8.11203e-05 0.00104041 -2.5893e-07
-3.64847e-06 -2.5893e-07 0.00104835
0.00263785 9.62736e-05 -3.52049e-05
9.62736e-05 0.00120202 3.56305e-06
-3.52049e-05 3.56305e-06 0.00120611
0.00195282 0.00021193 1.64827e-07
0.00021193 0.000147363 2.1756e-06
1.64827e-07 2.1756e-06 5.94053e-05
0.00180815 0.000138123 -9.91795e-07
0.000138123 4.92634e-05 -8.57971e-08
-9.91795e-07 -8.57971e-08 -1.76059e-05
0.00178456 4.30036e-05 5.80299e-07
4.30036e-05 6.74164e-05 -2.06096e-07
5.80299e-07 -2.06096e-07 9.01458e-06
0.00185629 6.11958e-07 1.13513e-06
6.11958e-07 0.000143296 -2.01683e-07
1.13513e-06 -2.01683e-07 6.04349e-05
0.00174376 -3.6819e-06 -1.29744e-06
-3.6819e-06 4.02488e-05 -4.77603e-08
-1.29744e-06 -4.77603e-08 -1.72383e-05
0.00189453 8.17788e-05 2.78941e-07
8.17788e-05 4.76032e-05 -6.93845e-09
2.78941e-07 -6.93845e-09 1.11144e-05
0.00187854 0.000198834 -6.89049e-07
0.000198834 4.086e-05 -2.88788e-07
-6.89049e-07 -2.88788e-07 -2.52667e-05
0.00188698 2.13609e-06 3.07801e-06
2.13609e-06 3.03555e-05 -8.26448e-08
3.07801e-06 -8.26448e-08 7.45061e-06
0.00196343 0.000121157 2.07201e-06
0.000121157 3.32076e-05 1.79403e-07
2.07201e-06 1.79403e-07 2.08502e-06
0.00191092 6.57966e-05 -4.30195e-06
6.57966e-05 5.58642e-05 2.40098e-06
-4.30195e-06 2.40098e-06 8.04029e-05
0.00189015 -5.38031e-05 -1.81491e-06
-5.38031e-05 0.000117897 -9.34568e-08
-1.81491e-06 -9.34568e-08 4.94252e-05
0.00191747 -0.000148347 -2.87375e-06
-0.000148347 9.07388e-05 6.78363e-07
-2.87375e-06 6.78363e-07 2.68155e-05
0.00181697 -0.00021735 -2.52071e-06
-0.00021735 8.81792e-05 1.1429e-06
-2.52071e-06 1.1429e-06 1.12087e-05
0.00126073 -0.000241572 -1.15363e-07
-0.000241572 0.00028947 6.18726e-06
-1.15363e-07 6.18726e-06 8.91771e-05
0.00102841 -0.00029155 -2.26227e-07
-0.00029155 1.07548e-05 4.85395e-06
-2.26227e-07 4.85395e-06 -0.000246066
0.00178942 -0.000382009 -5.14034e-06
-0.000382009 0.000322657 -3.43367e-06
-5.14034e-06 -3.43367e-06 6.68498e-05
0.00191216 -0.000285796 2.30538e-06
-0.000285796 0.000126572 -3.21538e-07
2.30538e-06 -3.21538e-07 2.55024e-05
0.00153759 -0.000320161 -3.47374e-06
-0.000320161 -2.04551e-07 -6.08687e-06
-3.47374e-06 -6.08687e-06 -0.00015811
0.000138755 -0.000145879 -2.87754e-06
-0.000145879 -0.00033157 5.91864e-06
-2.87754e-06 5.91864e-06 -0.000487471
0.00194608 -0.000264114 1.13324e-05
-0.000264114 0.000776316 -3.12123e-06
1.13324e-05 -3.12123e-06 0.000590672
0.000724909 -1.9618e-05 -2.09549e-08
-1.9618e-05 9.89949e-05 -3.45873e-07
-2.09549e-08 -3.45873e-07 -5.7544e-05
0.000605466 1.51283e-05 -2.46506e-07
1.51283e-05 -4.73008e-06 7.39495e-07
-2.46506e-07 7.39495e-07 -5.00707e-05
0.00081252 1.91102e-05 3.05433e-07
1.91102e-05 0.000147274 1.24897e-06
3.05433e-07 1.24897e-06 5.26689e-05
0.000812784 -3.66378e-05 5.51284e-07
-3.66378e-05 0.000155857 1.84547e-06
5.51284e-07 1.84547e-06 2.63535e-05
0.00186633 -7.7635e-05 2.16657e-07
-7.7635e-05 3.55544e-05 5.28314e-08
2.16657e-07 5.28314e-08 -4.07813e-06
0.00062801 1.4329e-05 1.0455e-06
1.4329e-05 2.84509e-06 1.01644e-07
1.0455e-06 1.01644e-07 -3.80452e-05
0.000573494 -2.89906e-05 -1.58236e-06
-2.89906e-05 -8.64253e-06 -4.33163e-08
-1.58236e-06 -4.33163e-08 -7.67414e-05
0.00190524 -0.000194778 -3.13543e-07
-0.000194778 5.30826e-05 2.52262e-07
-3.13543e-07 2.52262e-07 1.4148e-05
0.00181805 -0.000237737 -1.61895e-06
-0.000237737 4.31219e-05 4.80117e-07
-1.61895e-06 4.80117e-07 -2.57602e-05
0.000472465 -0.00020142 1.40964e-06
-0.00020142 -0.000179498 3.25874e-06
1.40964e-06 3.25874e-06 -0.000387101
0.00195551 -0.000408622 -9.46575e-07
-0.000408622 0.000504847 4.64502e-07
-9.46575e-07 4.64502e-07 0.000193795
0.00149957 -0.000372474 2.43925e-06
-0.000372474 0.000104771 -1.56879e-06
2.43925e-06 -1.56879e-06 -0.000135087
0.00200881 -0.00037635 2.43543e-06
-0.00037635 0.000161886 -1.00965e-06
2.43543e-06 -1.00965e-06 3.45856e-05
0.000741767 -1.71567e-05 9.79228e-07
-1.71567e-05 0.00010752 -1.0266e-06
9.79228e-07 -1.0266e-06 2.32538e-05
0.000758131 -2.65663e-05 2.11073e-07
-2.65663e-05 0.000135371 1.14752e-06
2.11073e-07 1.14752e-06 1.34235e-05
0.000932383 -0.000209598 -2.79329e-06
-0.000209598 8.30367e-05 -6.06781e-07
-2.79329e-06 -6.06781e-07 -7.9996e-05
0.00151408 -0.000244835 1.22143e-05
-0.000244835 0.000562203 -3.31837e-06
1.22143e-05 -3.31837e-06 0.000349391
0.000491338 -8.09201e-05 -2.2986e-06
-8.09201e-05 -2.58674e-05 2.55306e-08
-2.2986e-06 2.55306e-08 -0.000189277
0.000716953 -1.50359e-05 3.50598e-07
-1.50359e-05 0.000101641 -5.02821e-07
3.50598e-07 -5.02821e-07 -3.54632e-05
0.00190536 -8.57276e-05 2.88148e-06
-8.57276e-05 -4.59142e-06 -4.83577e-07
2.88148e-06 -4.83577e-07 -3.22856e-05
0.00183483 -0.000212345 9.02804e-07
-0.000212345 -2.22799e-05 -6.96606e-07
9.02804e-07 -6.96606e-07 -1.35552e-05
0.00200342 -0.000342922 -1.22654e-06
-0.000342922 7.16861e-05 -2.05241e-06
-1.22654e-06 -2.05241e-06 -1.00793e-05
0.00162421 -0.000420334 2.67074e-06
-0.000420334 4.89271e-05 1.1225e-06
2.67074e-06 1.1225e-06 -0.000108134
0.000656523 -0.000180856 -8.8638e-06
-0.000180856 -6.70417e-05 -7.70377e-06
-8.8638e-06 -7.70377e-06 -0.000272687
0.00232558 -0.000475663 -7.55422e-06
-0.000475663 0.000684583 5.62869e-06
-7.55422e-06 5.62869e-06 0.000354662
0.000439224 5.72983e-05 -1.14666e-06
5.72983e-05 -7.81412e-05 -2.47485e-06
-1.14666e-06 -2.47485e-06 -0.000150788
0.000690378 -5.7789e-05 2.75459e-06
-5.7789e-05 6.28908e-05 -1.05879e-06
2.75459e-06 -1.05879e-06 -8.45425e-06
0.000926402 -7.7347e-05 1.59796e-06
-7.7347e-05 0.000212355 5.23114e-07
1.59796e-06 5.23114e-07 0.000118692
0.000473854 1.97231e-05 -1.16293e-06
1.97231e-05 -3.33612e-05 1.92363e-06
-1.16293e-06 1.92363e-06 -0.000149475
0.000941927 -5.4423e-05 -7.59096e-07
-5.4423e-05 0.000230328 8.19623e-07
-7.59096e-07 8.19623e-07 0.000109416
0.00101184 -4.63031e-05 2.63868e-06
-4.63031e-05 0.000237492 5.07682e-07
2.63868e-06 5.07682e-07 8.85073e-05
-0.000273634 -8.81757e-05 6.31951e-06
-8.81757e-05 -0.00033486 5.46184e-07
6.31951e-06 5.46184e-07 -0.000615469
0.000239831 -0.000215072 -1.65786e-05
-0.000215072 -0.000299502 1.81599e-06
-1.65786e-05 1.81599e-06 -0.000460761
0.000494074 3.32042e-05 -9.84146e-08
3.32042e-05 -3.17311e-05 -8.99066e-07
-9.84146e-08 -8.99066e-07 -0.000132462
0.000686823 0.000108621 -3.5869e-06
0.000108621 0.000102973 -3.10955e-06
-3.5869e-06 -3.10955e-06 -4.27834e-05
0.00204723 0.000260121 -2.11938e-06
0.000260121 0.000112374 -8.94165e-07
-2.11938e-06 -8.94165e-07 4.41709e-05
0.00195888 0.000320139 -4.10923e-07
0.000320139 0.00021262 2.04966e-06
-4.10923e-07 2.04966e-06 6.63068e-05
0.00166828 0.000196744 -6.2979e-06
0.000196744 0.000607326 -2.15236e-06
-6.2979e-06 -2.15236e-06 0.000438106
0.00109919 0.000229863 -2.27168e-06
0.000229863 0.000241631 -8.73263e-06
-2.27168e-06 -8.73263e-06 1.70681e-05
0.00182502 0.000373835 8.08274e-07
0.000373835 0.000240965 1.56857e-06
8.08274e-07 1.56857e-06 2.80537e-05
0.00192067 0.000355717 5.69294e-07
0.000355717 0.000502291 -2.48995e-07
5.69294e-07 -2.48995e-07 0.000232586
0.000627836 4.77207e-05 7.50518e-07
4.77207e-05 4.49565e-05 -8.57632e-07
7.50518e-07 -8.57632e-07 -5.99353e-05
0.00196824 0.000201098 -6.81389e-08
0.000201098 3.47061e-05 -1.65539e-07
-6.81389e-08 -1.65539e-07 3.94063e-06
0.000965175 0.000167685 8.63277e-07
0.000167685 0.0002652 1.70485e-06
8.63277e-07 1.70485e-06 8.86241e-05
0.000805964 0.000214752 1.51304e-06
0.000214752 4.07181e-05 -1.61708e-08
1.51304e-06 -1.61708e-08 -0.000183237
0.00219876 0.000304984 2.67453e-06
0.000304984 0.000248296 5.02203e-07
2.67453e-06 5.02203e-07 0.00015698
0.00141179 0.000367797 -7.88982e-07
0.000367797 -5.35982e-05 -2.69257e-06
-7.88982e-07 -2.69257e-06 -0.000249472
0.00206824 0.000395412 -1.24006e-07
0.000395412 0.000530828 3.24859e-07
-1.24006e-07 3.24859e-07 0.00026042
0.00113309 0.000115312 -2.75801e-06
0.000115312 0.000356699 2.97766e-06
-2.75801e-06 2.97766e-06 0.000216136
0.00238423 0.000218724 -3.66902e-05
0.000218724 0.000318581 -7.99705e-06
-3.66902e-05 -7.99705e-06 0.000321336
0.00244284 0.0003549 -4.58895e-06
0.0003549 0.00106309 4.16546e-07
-4.58895e-06 4.16546e-07 0.000851431
0.00212837 0.000358631 -6.97061e-06
0.000358631 0.00071406 1.22531e-06
-6.97061e-06 1.22531e-06 0.00046493
0.00202521 0.000419397 -1.58831e-05
0.000419397 0.000168183 -1.24465e-05
-1.58831e-05 -1.24465e-05 3.88427e-05
0.0012148 0.000358348 -1.156e-05
0.000358348 -1.35058e-05 -1.32813e-06
-1.156e-05 -1.32813e-06 -0.000260572
0.000774892 0.000280102 2.47391e-05
0.000280102 -0.000507658 -1.44862e-05
2.47391e-05 -1.44862e-05 -0.000722088
0.000582225 4.22017e-05 5.82837e-07
4.22017e-05 1.54108e-05 -3.80617e-07
5.82837e-07 -3.80617e-07 -7.68703e-05
0.000710955 2.26141e-05 -4.16961e-08
2.26141e-05 0.000103026 7.68032e-07
-4.16961e-08 7.68032e-07 1.1079e-05
0.00122232 4.4352e-05 1.38299e-08
4.4352e-05 0.000382681 -9.08141e-07
1.38299e-08 -9.08141e-07 0.00028826
0.000646225 -5.70502e-05 -4.06212e-08
-5.70502e-05 4.75832e-05 -2.12409e-06
-4.06212e-08 -2.12409e-06 -3.51887e-05
0.000596445 -4.35556e-05 -1.18626e-06
-4.35556e-05 2.0593e-05 -4.75341e-08
-1.18626e-06 -4.75341e-08 -7.53431e-05
0.000894663 0.000109142 -2.7641e-07
0.000109142 0.000203826 4.7393e-07
-2.7641e-07 4.7393e-07 9.40548e-05
0.00043571 -2.66953e-05 -9.04633e-07
-2.66953e-05 -6.80167e-05 1.81733e-06
-9.04633e-07 1.81733e-06 -0.000161419
0.000661345 -2.33406e-05 -5.00274e-08
-2.33406e-05 5.5152e-05 -2.69517e-08
-5.00274e-08 -2.69517e-08 -2.89283e-05
0.000654351 3.34318e-05 -8.03265e-08
3.34318e-05 4.67532e-05 -3.39123e-07
-8.03265e-08 -3.39123e-07 -5.08495e-05
0.000803118 1.52512e-05 -5.85221e-07
1.52512e-05 0.00012185 -6.05266e-08
-5.85221e-07 -6.05266e-08 3.48356e-05
0.000770518 1.06915e-05 3.41169e-07
1.06915e-05 0.000117052 -4.89534e-08
3.41169e-07 -4.89534e-08 1.37189e-05
0.00080111 -1.4658e-05 -4.68782e-08
-1.4658e-05 0.000129576 -1.80173e-07
-4.68782e-08 -1.80173e-07 3.32551e-05
0.000856923 1.3646e-05 -6.37955e-07
1.3646e-05 0.000147606 -2.10472e-06
-6.37955e-07 -2.10472e-06 6.2261e-05
0.000824643 2.49802e-05 -9.64122e-07
2.49802e-05 0.000136956 -1.61583e-06
-9.64122e-07 -1.61583e-06 3.14849e-05
0.000814465 6.07492e-05 4.79282e-07
6.07492e-05 0.000133804 5.35306e-07
4.79282e-07 5.35306e-07 3.31952e-05
0.000698444 3.73274e-05 2.5715e-07
3.73274e-05 8.39227e-05 1.21038e-06
2.5715e-07 1.21038e-06 -2.79238e-05
0.000528074 -1.799e-05 -1.60607e-07
-1.799e-05 -3.59508e-05 1.9532e-06
-1.60607e-07 1.9532e-06 -0.000116009
0.00088946 -2.02611e-05 1.11737e-07
-2.02611e-05 0.000211749 -8.70381e-07
1.11737e-07 -8.70381e-07 9.80952e-05
0.000472028 -5.71578e-06 -5.82905e-07
-5.71578e-06 -6.35787e-05 2.04819e-06
-5.82905e-07 2.04819e-06 -0.000148132
0.000589219 8.22226e-06 -9.11724e-07
8.22226e-06 -8.12276e-06 1.8454e-06
-9.11724e-07 1.8454e-06 -5.89307e-05
0.000605075 1.71118e-05 8.77353e-07
1.71118e-05 1.22573e-07 -2.81578e-09
8.77353e-07 -2.81578e-09 -4.96318e-05
0.000577217 2.54963e-06 2.02768e-07
2.54963e-06 -4.47566e-05 3.688e-06
2.02768e-07 3.688e-06 -5.86293e-05
0.00061559 -2.54783e-06 -1.11878e-06
-2.54783e-06 4.03113e-06 -2.13505e-06
-1.11878e-06 -2.13505e-06 -4.48933e-05
0.00095354 -4.42e-06 -1.84138e-06
-4.42e-06 0.000176114 -1.62557e-06
-1.84138e-06 -1.62557e-06 0.000164775
0.00231112 -1.25446e-05 7.54503e-06
-1.25446e-05 0.00097574 5.09127e-06
7.54503e-06 5.09127e-06 0.000992408
0.00135074 -1.35647e-05 -2.87681e-06
-1.35647e-05 0.000409923 -5.3891e-06
-2.87681e-06 -5.3891e-06 0.000400755
0.000837103 -1.63965e-05 2.01887e-06
-1.63965e-05 0.000109562 3.14807e-06
2.01887e-06 3.14807e-06 0.000118425
0.000793523 -2.295e-05 -4.70588e-07
-2.295e-05 8.60305e-05 -2.05993e-06
-4.70588e-07 -2.05993e-06 9.44398e-05
0.000638856 8.06954e-06 -3.3865e-07
8.06954e-06 7.99746e-06 -1.73095e-06
-3.3865e-07 -1.73095e-06 -2.93122e-05
0.000654624 -1.86963e-06 8.10157e-07
-1.86963e-06 1.57585e-05 -8.62456e-08
8.10157e-07 -8.62456e-08 -2.28444e-05
0.000602148 2.12528e-05 3.83296e-07
2.12528e-05 -2.9992e-05 -3.48333e-06
3.83296e-07 -3.48333e-06 -3.85974e-05
0.000908743 3.34261e-05 -3.97119e-07
3.34261e-05 0.000154927 5.26537e-08
-3.97119e-07 5.26537e-08 0.000145447
0.00211953 5.07218e-05 1.51072e-05
5.07218e-05 0.000874816 -4.20503e-06
1.51072e-05 -4.20503e-06 0.000889853
0.000590243 3.81158e-05 1.59174e-07
3.81158e-05 -2.50677e-05 3.79254e-06
1.59174e-07 3.79254e-06 -4.03641e-05
0.00222826 6.62263e-05 -2.81695e-06
6.62263e-05 0.000946595 -1.7069e-07
-2.81695e-06 -1.7069e-07 0.000958262
0.00244249 8.33786e-05 -2.4347e-05
8.33786e-05 0.0010809 3.92141e-06
-2.4347e-05 3.92141e-06 0.00108822
0.00188904 0.000202242 -3.78251e-06
0.000202242 4.45766e-05 -1.10333e-06
-3.78251e-06 -1.10333e-06 -2.04347e-05
0.00189397 7.73025e-05 -2.07809e-06
7.73025e-05 4.79069e-05 -1.41669e-07
-2.07809e-06 -1.41669e-07 1.03799e-05
0.00179121 -1.24022e-06 -2.53844e-06
-1.24022e-06 6.72679e-05 -1.7828e-07
-2.53844e-06 -1.7828e-07 1.24432e-05
0.00187752 2.97764e-06 7.17537e-08
2.97764e-06 2.83481e-05 -1.87485e-07
7.17537e-08 -1.87485e-07 5.03168e-06
0.00192432 0.000119348 2.40907e-07
0.000119348 2.55662e-05 -5.8843e-08
2.40907e-07 -5.8843e-08 -7.15826e-06
0.00181533 5.93057e-05 3.33285e-06
5.93057e-05 -8.3666e-06 2.38905e-07
3.33285e-06 2.38905e-07 7.53029e-06
0.0019138 1.2088e-05 5.91301e-07
1.2088e-05 -1.45628e-05 -3.63342e-08
5.91301e-07 -3.63342e-08 -8.12944e-06
0.00267016 0.000256663 2.86606e-05
0.000256663 -0.000154902 1.30592e-06
2.86606e-05 1.30592e-06 -0.000138313
0.00203852 3.1221e-05 -2.80875e-05
3.1221e-05 0.0002641 7.63539e-06
-2.80875e-05 7.63539e-06 0.000315923
0.000642947 7.30046e-05 -8.13992e-07
7.30046e-05 4.08762e-05 -7.68921e-07
-8.13992e-07 -7.68921e-07 -2.70424e-05
0.00182517 -7.82395e-05 -2.69039e-06
-7.82395e-05 9.75715e-06 -1.18808e-07
-2.69039e-06 -1.18808e-07 -2.75043e-05
0.00189069 -0.000187176 -1.23326e-06
-0.000187176 6.18429e-05 1.05254e-06
-1.23326e-06 1.05254e-06 1.57159e-05
0.00177947 -0.000239476 2.91268e-07
-0.000239476 1.91478e-05 1.6131e-06
2.91268e-07 1.6131e-06 -5.04857e-05
0.000633287 -0.000211779 2.40203e-06
-0.000211779 -7.72021e-05 8.14226e-06
2.40203e-06 8.14226e-06 -0.000280214
0.00174092 -0.000389059 1.29e-06
-0.000389059 0.000390758 6.62982e-06
1.29e-06 6.62982e-06 7.85901e-05
0.00151356 -0.000378446 -4.36432e-07
-0.000378446 8.92928e-05 -8.67803e-06
-4.36432e-07 -8.67803e-06 -0.000147754
0.00211427 -0.000382088 -5.29348e-06
-0.000382088 0.000231908 -2.9245e-06
-5.29348e-06 -2.9245e-06 0.000101223
0.00167009 -0.000256302 1.07762e-05
-0.000256302 0.000500852 -2.00624e-06
1.07762e-05 -2.00624e-06 0.000328998
0.00045447 -0.000160676 9.30612e-06
-0.000160676 -5.27905e-05 -4.53085e-06
9.30612e-06 -4.53085e-06 -0.000223204
0.000917729 -9.47108e-05 6.49212e-07
-9.47108e-05 0.000214878 -1.36173e-06
6.49212e-07 -1.36173e-06 5.12449e-05
0.000629562 2.98169e-06 -1.01988e-06
2.98169e-06 3.30207e-06 1.72811e-06
-1.01988e-06 1.72811e-06 -3.67791e-05
0.000801396 -1.69337e-05 1.4227e-06
-1.69337e-05 0.00015954 -4.0671e-07
1.4227e-06 -4.0671e-07 1.84357e-05
0.000946947 -4.30286e-05 1.26348e-06
-4.30286e-05 0.000232326 -2.0214e-07
1.26348e-06 -2.0214e-07 0.000147489
0.000797023 -2.04887e-05 2.25838e-07
-2.04887e-05 0.000155223 -1.6823e-07
2.25838e-07 -1.6823e-07 3.32824e-05
0.000439836 -2.12848e-05 -1.71508e-06
-2.12848e-05 -9.2219e-05 1.28746e-06
-1.71508e-06 1.28746e-06 -0.000157282
0.00193235 -9.71556e-05 -2.10326e-07
-9.71556e-05 -9.20362e-06 1.55462e-07
-2.10326e-07 1.55462e-07 -2.47885e-05
0.000541616 3.62822e-05 5.51994e-08
3.62822e-05 -1.54172e-05 -1.12676e-06
5.51994e-08 -1.12676e-06 -8.87581e-05
0.000680269 -5.34385e-05 5.07069e-07
-5.34385e-05 6.31917e-05 3.76241e-07
5.07069e-07 3.76241e-07 -1.16181e-05
0.000790655 -4.47186e-05 -2.79518e-07
-4.47186e-05 0.000135333 7.81395e-07
-2.79518e-07 7.81395e-07 3.943e-05
0.001847 -0.000216639 1.12073e-06
-0.000216639 -1.09508e-05 -2.7489e-07
1.12073e-06 -2.7489e-07 -1.02957e-05
0.00201238 -0.000340872 -8.95664e-07
-0.000340872 8.96373e-05 -3.86257e-07
-8.95664e-07 -3.86257e-07 5.15244e-06
0.00110245 -0.000236237 4.18742e-06
-0.000236237 0.000172893 1.39958e-07
4.18742e-06 1.39958e-07 -3.24506e-05
0.00196768 -0.000443509 4.8226e-06
-0.000443509 0.000502989 2.08069e-07
4.8226e-06 2.08069e-07 0.000181017
0.00181816 -0.000431938 -1.59013e-07
-0.000431938 0.000169799 1.84629e-06
-1.59013e-07 1.84629e-06 5.94796e-06
0.000543737 -8.38214e-06 -3.4865e-07
-8.38214e-06 9.80993e-06 -1.55713e-07
-3.4865e-07 -1.55713e-07 -0.000104482
0.000830286 -6.57137e-05 -1.56692e-06
-6.57137e-05 0.000171805 4.09222e-07
-1.56692e-06 4.09222e-07 4.25293e-05
0.000700895 -0.000252416 -4.4488e-06
-0.000252416 -2.20462e-05 8.85789e-07
-4.4488e-06 8.85789e-07 -0.000209773
0.000525558 -9.49367e-05 -2.79911e-07
-9.49367e-05 6.82038e-05 -1.30404e-06
-2.79911e-07 -1.30404e-06 -0.000175528
0.00070545 -6.35454e-05 2.25601e-08
-6.35454e-05 6.36198e-05 -3.51384e-07
2.25601e-08 -3.51384e-07 -8.19561e-05
0.0022258 -0.000195839 -2.28971e-06
-0.000195839 0.000144574 -1.44019e-06
-2.28971e-06 -1.44019e-06 0.000141801
0.00174437 -0.000231355 -7.4985e-06
-0.000231355 -0.000109227 1.66577e-06
-7.4985e-06 1.66577e-06 -8.36413e-05
0.00244897 -0.00047507 -5.15247e-06
-0.00047507 0.000354849 -1.37445e-06
-5.15247e-06 -1.37445e-06 0.000217608
0.00274039 -0.000534582 -2.08845e-05
-0.000534582 0.000782886 2.11954e-06
-2.08845e-05 2.11954e-06 0.000556956
0.00120222 -0.000268725 -1.11525e-05
-0.000268725 0.000266332 -4.14298e-06
-1.11525e-05 -4.14298e-06 3.41736e-05
0.000471397 1.26955e-05 1.35722e-06
1.26955e-05 -5.18777e-05 -1.52181e-06
1.35722e-06 -1.52181e-06 -0.000144929
0.000491641 4.74992e-05 6.19073e-07
4.74992e-05 -4.60131e-05 6.9392e-08
6.19073e-07 6.9392e-08 -0.000144896
0.000550341 4.96e-06 6.07484e-07
4.96e-06 -2.19268e-06 -1.07328e-06
6.07484e-07 -1.07328e-06 -0.000108368
0.001227 -0.000135931 -1.12916e-06
-0.000135931 0.000415791 3.21935e-06
-1.12916e-06 3.21935e-06 0.000285647
0.000579859 -5.28266e-05 9.55679e-08
-5.28266e-05 5.47848e-06 3.5987e-06
9.55679e-08 3.5987e-06 -0.000117316
0.000130555 -6.2781e-05 2.30483e-06
-6.2781e-05 -0.000136974 1.81546e-06
2.30483e-06 1.81546e-06 -0.000388523
0.000503835 -0.000288038 3.35777e-06
-0.000288038 5.88722e-05 -2.27241e-06
3.35777e-06 -2.27241e-06 -0.000245499
0.000781395 7.91046e-05 1.24819e-06
7.91046e-05 0.000146605 -4.27881e-06
1.24819e-06 -4.27881e-06 3.02314e-05
0.000191604 7.65391e-05 3.21177e-07
7.65391e-05 -0.00018895 -1.3176e-06
3.21177e-07 -1.3176e-06 -0.000347145
0.00208776 0.000194223 7.27619e-06
0.000194223 8.85631e-05 3.61451e-07
7.27619e-06 3.61451e-07 6.7794e-05
0.00202438 0.000297585 1.14897e-05
0.000297585 0.00015372 2.76048e-06
1.14897e-05 2.76048e-06 6.34682e-05
0.00179262 0.000391161 8.10677e-06
0.000391161 0.000154641 3.24823e-06
8.10677e-06 3.24823e-06 -4.03428e-05
0.00049952 0.000190616 1.00089e-06
0.000190616 -0.000133304 -1.68948e-06
1.00089e-06 -1.68948e-06 -0.000356267
0.00230086 0.000415436 2.91947e-06
0.000415436 0.000674663 1.26265e-06
2.91947e-06 1.26265e-06 0.000402835
0.00127624 9.67683e-05 -1.81069e-07
9.67683e-05 0.000427773 5.36443e-07
-1.81069e-07 5.36443e-07 0.000297202
0.00213885 0.000188203 -2.46029e-06
0.000188203 0.000199379 2.58161e-07
-2.46029e-06 2.58161e-07 0.00021073
0.00151592 0.000253226 -1.66603e-06
0.000253226 0.000529749 -4.21696e-08
-1.66603e-06 -4.21696e-08 0.000338962
0.00153066 0.000307209 -6.2594e-07
0.000307209 0.000400629 1.28192e-06
-6.2594e-07 1.28192e-06 0.000149043
0.0020086 0.000404315 -1.47924e-06
0.000404315 0.000164768 -2.94542e-06
-1.47924e-06 -2.94542e-06 4.22683e-05
0.00158881 0.000393464 -2.27611e-06
0.000393464 0.000194847 3.57605e-06
-2.27611e-06 3.57605e-06 -6.11718e-05
0.00169958 0.000351777 3.00217e-05
0.000351777 -0.000269834 1.95766e-06
3.00217e-05 1.95766e-06 -0.000570196
0.0011841 0.000165867 -3.65674e-06
0.000165867 0.000393231 -5.95119e-07
-3.65674e-06 -5.95119e-07 0.000240981
0.00224819 0.000311549 -4.19278e-05
0.000311549 0.000317613 -2.23677e-05
-4.19278e-05 -2.23677e-05 0.000315147
0.00122852 0.000248076 -4.84977e-06
0.000248076 0.000318351 -4.8051e-07
-4.84977e-06 -4.8051e-07 0.000130964
0.000982777 0.000292935 -3.40962e-06
0.000292935 2.22147e-05 -3.14259e-06
-3.40962e-06 -3.14259e-06 -0.000234279
0.000189109 0.000373455 -1.30887e-05
0.000373455 -0.000686742 -7.46787e-06
-1.30887e-05 -7.46787e-06 -0.000883405
0.00962253 0.000319853 -0.000161335
0.000319853 0.00222736 -3.75504e-05
-0.000161335 -3.75504e-05 0.00131158
0.00508757 0.000666518 0.000128764
0.000666518 0.000623492 -1.52649e-05
0.000128764 -1.52649e-05 0.000172617
0.00158923 0.000501232 2.12381e-05
0.000501232 6.61585e-05 1.25771e-05
2.12381e-05 1.25771e-05 -0.000135751
-0.00483021 -0.000611247 0.000291168
-0.000611247 -0.00138487 1.10779e-05
0.000291168 1.10779e-05 -0.00244632
0.00693962 -0.00188273 -1.42558e-05
-0.00188273 0.00129366 9.2088e-06
-1.42558e-05 9.2088e-06 0.0028138
0.000539609 3.20666e-05 2.32868e-06
3.20666e-05 1.09524e-05 5.29069e-07
2.32868e-06 5.29069e-07 -8.23568e-05
0.000894861 2.44125e-05 7.21596e-07
2.44125e-05 0.000208043 -6.92937e-07
7.21596e-07 -6.92937e-07 0.000114277
0.000914889 7.12031e-05 -2.11042e-06
7.12031e-05 0.000213417 -1.9293e-06
-2.11042e-06 -1.9293e-06 0.000116065
0.000645584 -5.89549e-05 2.51038e-08
-5.89549e-05 5.29825e-05 -1.71413e-06
2.51038e-08 -1.71413e-06 -3.55689e-05
0.000634849 5.61103e-05 -1.151e-06
5.61103e-05 3.84952e-05 -1.33505e-06
-1.151e-06 -1.33505e-06 -6.25462e-05
0.00077657 -3.31206e-05 2.14414e-07
-3.31206e-05 0.000122086 -4.31044e-07
2.14414e-07 -4.31044e-07 1.8203e-05
0.000860412 8.99943e-06 -1.22146e-06
8.99943e-06 0.000161497 1.75087e-06
-1.22146e-06 1.75087e-06 6.41479e-05
0.000685489 6.12625e-06 -5.06054e-07
6.12625e-06 5.68432e-05 8.35286e-07
-5.06054e-07 8.35286e-07 -3.20029e-05
0.000755946 6.93104e-05 -1.30921e-06
6.93104e-05 0.000111055 -4.32743e-07
-1.30921e-06 -4.32743e-07 1.55953e-06
0.000591436 -7.82363e-06 -3.72309e-08
-7.82363e-06 6.64716e-06 7.0256e-07
-3.72309e-08 7.0256e-07 -7.6013e-05
0.000692354 2.12065e-05 9.17156e-08
2.12065e-05 7.75669e-05 4.0683e-08
9.17156e-08 4.0683e-08 -3.18594e-05
0.000779438 1.56714e-05 6.35447e-07
1.56714e-05 0.000101628 3.87037e-07
6.35447e-07 3.87037e-07 1.55644e-05
0.000825532 3.12385e-05 -4.80491e-07
3.12385e-05 0.000136602 -1.67849e-07
-4.80491e-07 -1.67849e-07 3.47815e-05
0.000976444 7.33622e-05 -8.96555e-07
7.33622e-05 0.000224403 -7.8358e-07
-8.96555e-07 -7.8358e-07 0.000121194
0.000480502 3.41809e-05 2.47574e-07
3.41809e-05 -5.89441e-05 -2.18691e-06
2.47574e-07 -2.18691e-06 -0.000151256
0.000851999 6.96421e-05 1.50647e-06
6.96421e-05 0.000151809 8.07826e-07
1.50647e-06 8.07826e-07 4.66262e-05
0.000615997 -1.63658e-05 1.00569e-06
-1.63658e-05 2.0456e-05 2.55915e-07
1.00569e-06 2.55915e-07 -8.21019e-05
0.000505065 -4.78999e-05 -1.15175e-06
-4.78999e-05 -4.31568e-05 1.67645e-06
-1.15175e-06 1.67645e-06 -0.000129383
0.000799741 5.3142e-06 -8.42911e-07
5.3142e-06 0.000138731 -5.8115e-08
-8.42911e-07 -5.8115e-08 3.10418e-05
0.000803478 4.17221e-05 -7.82923e-08
4.17221e-05 0.000140111 -2.05519e-06
-7.82923e-08 -2.05519e-06 3.54473e-05
0.000675044 -1.27624e-05 -9.67198e-07
-1.27624e-05 7.55439e-05 -8.55351e-08
-9.67198e-07 -8.55351e-08 -2.61644e-05
0.000808179 -1.36076e-05 1.06222e-06
-1.36076e-05 0.000148872 -5.44801e-07
1.06222e-06 -5.44801e-07 4.4443e-05
0.000687151 -7.33913e-05 -2.10518e-06
-7.33913e-05 6.19746e-05 1.24127e-06
-2.10518e-06 1.24127e-06 -1.98029e-05
0.000511273 -4.3846e-06 1.25037e-07
-4.3846e-06 -3.814e-05 7.46564e-07
1.25037e-07 7.46564e-07 -0.00012492
0.000622565 -8.16816e-06 -1.18319e-06
-8.16816e-06 6.26355e-06 2.08808e-06
-1.18319e-06 2.08808e-06 -4.3143e-05
0.000612831 -1.23044e-05 7.4879e-07
-1.23044e-05 4.60037e-06 -2.48263e-08
7.4879e-07 -2.48263e-08 -4.57071e-05
0.000607111 6.84977e-06 -3.65512e-07
6.84977e-06 -2.58767e-05 5.33611e-06
-3.65512e-07 5.33611e-06 -4.04714e-05
0.000610044 9.33238e-06 -5.44787e-07
9.33238e-06 2.034e-06 -1.94979e-06
-5.44787e-07 -1.94979e-06 -4.69355e-05
0.000586812 2.38555e-06 3.28594e-07
2.38555e-06 -3.8944e-05 -1.54242e-08
3.28594e-07 -1.54242e-08 -5.29055e-05
0.00232207 -1.44994e-06 -4.0907e-07
-1.44994e-06 0.000981704 5.18124e-06
-4.0907e-07 5.18124e-06 0.000998273
0.000622489 -2.62378e-06 -5.12824e-07
-2.62378e-06 -1.8437e-05 -5.44287e-06
-5.12824e-07 -5.44287e-06 -3.20231e-05
0.00157699 -9.4639e-06 -1.24099e-07
-9.4639e-06 0.000543157 7.82015e-08
-1.24099e-07 7.82015e-08 0.000555887
0.000793553 -1.46505e-05 5.99775e-09
-1.46505e-05 8.27804e-05 -2.05407e-06
5.99775e-09 -2.05407e-06 9.19856e-05
0.00063738 -4.70269e-06 6.51501e-07
-4.70269e-06 8.82849e-06 -1.59266e-06
6.51501e-07 -1.59266e-06 -2.72801e-05
0.000647953 -1.16769e-05 4.50232e-07
-1.16769e-05 1.31092e-05 -1.85719e-08
4.50232e-07 -1.85719e-08 -2.44194e-05
0.000614672 1.42206e-05 3.13056e-07
1.42206e-05 -2.52674e-05 -3.31152e-06
3.13056e-07 -3.31152e-06 -3.22101e-05
0.000632681 -1.41886e-05 -1.62351e-06
-1.41886e-05 2.65228e-06 1.67755e-06
-1.62351e-06 1.67755e-06 -3.58116e-05
0.000892647 2.46637e-05 -8.385e-08
2.46637e-05 0.000140924 -7.166e-07
-8.385e-08 -7.166e-07 0.00013421
0.00205938 3.75743e-05 1.1589e-05
3.75743e-05 0.000834397 -4.34441e-06
1.1589e-05 -4.34441e-06 0.000851641
0.000589553 2.95359e-05 -4.42943e-07
2.95359e-05 -3.24856e-05 3.52072e-06
-4.42943e-07 3.52072e-06 -4.40539e-05
0.0021855 5.23889e-05 -7.34815e-06
5.23889e-05 0.00091562 1.13938e-06
-7.34815e-06 1.13938e-06 0.000929981
0.00228162 6.85578e-05 -1.87593e-05
6.85578e-05 0.000978865 4.04888e-06
-1.87593e-05 4.04888e-06 0.000989899
0.00188213 0.000117607 -2.6514e-06
0.000117607 1.64554e-05 -6.56991e-07
-2.6514e-06 -6.56991e-07 -1.80285e-05
0.00186411 3.26103e-06 -2.53305e-06
3.26103e-06 2.44467e-05 -2.06677e-07
-2.53305e-06 -2.06677e-07 6.71996e-07
0.00158181 4.97758e-05 1.20515e-05
4.97758e-05 -0.000151947 -4.82907e-08
1.20515e-05 -4.82907e-08 -0.000143928
0.00221658 0.000184439 3.1028e-05
0.000184439 -0.000296288 7.50278e-06
3.1028e-05 7.50278e-06 -0.00028214
0.00188963 7.36473e-07 -2.95468e-06
7.36473e-07 -2.19984e-05 -6.05264e-07
-2.95468e-06 -6.05264e-07 -1.52836e-05
0.00180941 4.16406e-05 4.23147e-06
4.16406e-05 0.000142577 -1.80541e-06
4.23147e-06 -1.80541e-06 0.00017756
0.00300593 -6.60249e-06 -2.59474e-05
-6.60249e-06 0.000811886 2.63877e-06
-2.59474e-05 2.63877e-06 0.000791072
0.00236451 -5.18737e-05 9.84162e-05
-5.18737e-05 -0.000813351 -2.02623e-05
9.84162e-05 -2.02623e-05 -0.000808432
0.00258091 4.42948e-05 1.05483e-05
4.42948e-05 0.000119844 1.17113e-05
1.05483e-05 1.17113e-05 0.000183651
0.000664778 6.51168e-05 -8.66905e-08
6.51168e-05 5.67787e-05 -9.15768e-07
-8.66905e-08 -9.15768e-07 -1.42955e-05
0.000682287 -7.78843e-06 6.9168e-07
-7.78843e-06 6.87984e-05 -1.64689e-07
6.9168e-07 -1.64689e-07 -3.84307e-06
0.000653829 -8.44527e-05 -1.2187e-08
-8.44527e-05 5.35994e-05 8.08605e-08
-1.2187e-08 8.08605e-08 -3.26655e-05
0.000691384 -3.50471e-05 -9.58725e-07
-3.50471e-05 9.2577e-05 6.81594e-07
-9.58725e-07 6.81594e-07 -5.86024e-06
0.00195243 -0.000106761 -4.85531e-06
-0.000106761 -1.79449e-05 2.41881e-07
-4.85531e-06 2.41881e-07 -2.02038e-05
0.00183598 -0.000217373 -7.72931e-07
-0.000217373 -9.30818e-06 9.02273e-07
-7.72931e-07 9.02273e-07 -1.58749e-05
0.00196919 -0.000334559 -4.91395e-06
-0.000334559 7.92507e-05 1.43661e-06
-4.91395e-06 1.43661e-06 -8.18417e-06
0.00189526 -0.000329161 5.24005e-06
-0.000329161 0.000604664 5.93404e-06
5.24005e-06 5.93404e-06 0.000394584
0.00122503 -0.000381489 9.02749e-06
-0.000381489 0.000107354 -4.53018e-06
9.02749e-06 -4.53018e-06 -0.000203249
0.00208329 -0.000449379 4.93837e-06
-0.000449379 0.000328232 -3.76695e-06
4.93837e-06 -3.76695e-06 0.000157656
0.0010093 -0.000266578 -4.68384e-06
-0.000266578 0.000169569 1.46444e-06
-4.68384e-06 1.46444e-06 -3.85497e-05
0.00145926 -0.000106172 -2.04601e-07
-0.000106172 0.000546865 -3.97178e-07
-2.04601e-07 -3.97178e-07 0.000338812
0.000339013 -7.58329e-05 -1.15597e-06
-7.58329e-05 -0.000146601 6.00949e-08
-1.15597e-06 6.00949e-08 -0.00028694
0.000702308 -3.20693e-05 -5.80051e-07
-3.20693e-05 7.31342e-05 1.37179e-06
-5.80051e-07 1.37179e-06 8.2476e-07
0.000666982 -7.79213e-05 -1.40155e-07
-7.79213e-05 8.54161e-05 -1.24737e-06
-1.40155e-07 -1.24737e-06 -5.22414e-05
0.000807987 -6.99105e-06 -1.76321e-08
-6.99105e-06 0.000162993 -5.12703e-07
-1.76321e-08 -5.12703e-07 4.95879e-05
0.000678223 7.8135e-06 2.02741e-07
7.8135e-06 6.9617e-05 4.94913e-07
2.02741e-07 4.94913e-07 -5.92965e-06
0.000594219 1.48876e-05 -2.18936e-06
1.48876e-05 2.32228e-05 2.76064e-06
-2.18936e-06 2.76064e-06 -7.39352e-05
0.00218856 -0.000176919 1.12461e-06
-0.000176919 0.000137492 6.78477e-07
1.12461e-06 6.78477e-07 0.000143929
0.000678497 -6.13687e-06 1.033e-06
-6.13687e-06 7.67628e-05 -4.49746e-07
1.033e-06 -4.49746e-07 -1.98794e-05
0.000691942 9.97608e-06 1.75916e-06
9.97608e-06 7.84236e-05 -2.46851e-07
1.75916e-06 -2.46851e-07 -2.29037e-05
0.000513256 5.57583e-05 -6.75887e-08
5.57583e-05 -1.68689e-05 1.53341e-06
-6.75887e-08 1.53341e-06 -0.000118307
0.00175938 -0.000234564 -1.30014e-06
-0.000234564 -0.000121381 -1.41796e-06
-1.30014e-06 -1.41796e-06 -0.000101244
0.00195542 -0.000438452 1.51981e-06
-0.000438452 9.90558e-05 -2.09523e-07
1.51981e-06 -2.09523e-07 -2.88533e-05
0.00134988 -0.000315707 -9.82686e-07
-0.000315707 0.000333778 -1.62158e-06
-9.82686e-07 -1.62158e-06 9.58952e-05
0.00220761 -0.000496912 -5.08884e-06
-0.000496912 0.000499794 2.0203e-06
-5.08884e-06 2.0203e-06 0.000278798
0.00104823 -6.21619e-05 -8.50815e-07
-6.21619e-05 0.000297473 5.69617e-07
-8.50815e-07 5.69617e-07 0.000173739
0.000628533 -7.3887e-05 -3.32965e-07
-7.3887e-05 3.30033e-05 9.93676e-07
-3.32965e-07 9.93676e-07 -9.90797e-05
0.000976942 -0.000325193 2.31375e-06
-0.000325193 0.000325932 -5.19553e-07
2.31375e-06 -5.19553e-07 1.36126e-05
0.00104125 -0.000147314 3.16402e-07
-0.000147314 0.000347643 1.83747e-07
3.16402e-07 1.83747e-07 0.000102214
0.00225824 -0.000194624 -1.81682e-05
-0.000194624 0.000120515 6.96129e-08
-1.81682e-05 6.96129e-08 0.000182875
0.00235391 -0.000366646 -1.92081e-05
-0.000366646 0.000202017 5.62311e-06
-1.92081e-05 5.62311e-06 0.000210212
0.00282211 -0.000581012 -1.12319e-05
-0.000581012 0.000640772 -5.02873e-06
-1.12319e-05 -5.02873e-06 0.000445666
0.00185759 -0.000448262 -2.81743e-06
-0.000448262 0.000500271 3.49698e-06
-2.81743e-06 3.49698e-06 0.000285434
0.000592873 5.85568e-06 -8.25983e-07
5.85568e-06 4.01406e-05 -2.40926e-06
-8.25983e-07 -2.40926e-06 -7.89046e-05
0.000568261 -7.18425e-05 4.27994e-07
-7.18425e-05 2.18807e-05 -3.7056e-06
4.27994e-07 -3.7056e-06 -0.00010311
0.000572936 -9.50293e-05 -1.12084e-06
-9.50293e-05 7.72155e-05 4.15249e-06
-1.12084e-06 4.15249e-06 -7.86424e-05
0.000394201 -0.000125258 1.5695e-06
-0.000125258 0.000146348 -6.46619e-06
1.5695e-06 -6.46619e-06 -0.00023898
0.000724804 -0.000320177 2.97693e-05
-0.000320177 -0.00264495 -5.27837e-06
2.97693e-05 -5.27837e-06 -0.00308659
0.00135844 8.83615e-05 6.9775e-07
8.83615e-05 0.000468164 -3.49488e-06
6.9775e-07 -3.49488e-06 0.000345445
0.00045898 0.000146293 2.79443e-06
0.000146293 -7.16193e-05 3.13786e-07
2.79443e-06 3.13786e-07 -0.000243282
0.00196233 0.000166631 4.02044e-05
0.000166631 0.000119005 6.42439e-06
4.02044e-05 6.42439e-06 0.000135095
0.00208799 0.000394272 1.42408e-05
0.000394272 0.000214352 6.65768e-06
1.42408e-05 6.65768e-06 9.67493e-05
0.001752 0.0004118 5.18378e-06
0.0004118 0.000293094 6.34243e-06
5.18378e-06 6.34243e-06 2.80062e-05
0.00085076 0.000248124 4.74364e-06
0.000248124 4.03375e-05 2.38559e-06
4.74364e-06 2.38559e-06 -0.000213521
0.0028947 0.000437183 5.62796e-05
0.000437183 0.000145319 1.93502e-05
5.62796e-05 1.93502e-05 -0.000269072
0.0012693 0.000147178 1.98507e-06
0.000147178 0.000443689 -1.53458e-07
1.98507e-06 -1.53458e-07 0.0002954
0.00240405 0.00031635 -1.05396e-05
0.00031635 0.000386724 -1.09283e-06
-1.05396e-05 -1.09283e-06 0.000397036
0.00106563 0.000234123 1.09403e-06
0.000234123 0.000241838 9.43489e-08
1.09403e-06 9.43489e-08 5.59511e-05
0.00124266 0.00032825 1.38763e-06
0.00032825 0.00017647 -8.98519e-07
1.38763e-06 -8.98519e-07 -8.72581e-05
0.00133906 0.000459999 -5.32281e-06
0.000459999 -0.000103044 -1.35491e-06
-5.32281e-06 -1.35491e-06 -0.000299123
0.00316908 -0.000219649 -9.66622e-05
-0.000219649 -0.00139387 -3.08966e-05
-9.66622e-05 -3.08966e-05 -0.00235596
0.0052084 0.000545995 -1.31681e-05
0.000545995 0.000456883 -3.11135e-05
-1.31681e-05 -3.11135e-05 -0.000107059
0.000282968 0.000360807 -5.12954e-06
0.000360807 -0.000512022 8.21534e-06
-5.12954e-06 8.21534e-06 -0.000739503
-0.00116161 -0.000450641 0.000134406
-0.000450641 0.000911759 5.37358e-05
0.000134406 5.37358e-05 -0.000320821
6.86567e-05 -0.0018678 -8.56234e-05
-0.0018678 -0.00113976 -0.000103682
-8.56234e-05 -0.000103682 0.000577037
0.00108875 0.00017013 -4.37027e-06
0.00017013 0.000329324 -3.10633e-06
-4.37027e-06 -3.10633e-06 0.000194931
0.000417314 0.0003539 0.000132881
0.0003539 0.00141959 -2.1588e-05
0.000132881 -2.1588e-05 0.000412667
0.00118731 -0.000611134 -8.41658e-05
-0.000611134 0.00206112 -0.000144088
-8.41658e-05 -0.000144088 0.000757839
0.00261922 0.000458697 -2.65985e-05
0.000458697 0.00054831 -1.05885e-05
-2.65985e-05 -1.05885e-05 0.000570648
0.00100834 0.000160546 -1.12586e-05
0.000160546 0.000201526 -1.88827e-06
-1.12586e-05 -1.88827e-06 1.34701e-05
-6.1119e-05 0.000380082 -1.68832e-05
0.000380082 -0.00054095 -1.39292e-05
-1.68832e-05 -1.39292e-05 -0.000819805
0.000163812 0.000411544 3.06081e-05
0.000411544 -0.000604812 6.23884e-05
3.06081e-05 6.23884e-05 -0.000727783
0.0109396 0.000561796 -2.56678e-05
0.000561796 0.0034732 -3.08186e-05
-2.56678e-05 -3.08186e-05 0.00198931
0.00319433 0.000877272 1.07571e-05
0.000877272 0.000671936 9.91419e-06
1.07571e-05 9.91419e-06 -0.000465318
0.00222355 -0.00163749 0.000205664
-0.00163749 -0.000296015 0.000157753
0.000205664 0.000157753 1.70133e-05
0.0042865 -0.000918445 -2.79697e-06
-0.000918445 -0.00105681 0.000205487
-2.79697e-06 0.000205487 0.000275689
0.000671419 1.17547e-05 1.15829e-06
1.17547e-05 9.13699e-05 -6.96252e-07
1.15829e-06 -6.96252e-07 -2.57982e-06
0.00081517 7.09861e-05 1.42936e-06
7.09861e-05 0.000161593 8.0718e-07
1.42936e-06 8.0718e-07 6.28828e-05
0.00141647 0.000128663 -2.4972e-06
0.000128663 0.000519922 -2.77085e-06
-2.4972e-06 -2.77085e-06 0.000430307
0.000652715 4.45941e-06 5.44674e-07
4.45941e-06 5.81808e-05 -4.95599e-07
5.44674e-07 -4.95599e-07 -3.37593e-05
0.000750541 3.15243e-05 -1.70263e-08
3.15243e-05 0.0001098 -1.34226e-06
-1.70263e-08 -1.34226e-06 1.93319e-06
0.000570568 -1.08921e-05 -1.07567e-06
-1.08921e-05 -8.57375e-06 -3.92106e-07
-1.07567e-06 -3.92106e-07 -0.000108157
0.000808627 3.81472e-05 -5.56159e-07
3.81472e-05 0.000126813 7.09815e-07
-5.56159e-07 7.09815e-07 2.81553e-05
0.000710255 1.69854e-05 -5.33642e-08
1.69854e-05 5.95071e-05 9.75252e-07
-5.33642e-08 9.75252e-07 -2.71896e-05
0.000496661 -8.72075e-07 3.06594e-07
-8.72075e-07 -4.47797e-05 7.45336e-07
3.06594e-07 7.45336e-07 -0.000133226
0.000834919 2.86808e-05 1.72223e-07
2.86808e-05 0.000143775 3.19083e-07
1.72223e-07 3.19083e-07 4.13115e-05
0.000824944 2.61727e-05 1.15331e-07
2.61727e-05 0.000137688 3.07941e-07
1.15331e-07 3.07941e-07 3.22352e-05
0.000714058 1.92779e-05 5.66168e-07
1.92779e-05 9.13568e-05 -3.4759e-07
5.66168e-07 -3.4759e-07 -1.98923e-05
0.000542616 3.75662e-05 -2.06655e-07
3.75662e-05 -2.23049e-05 -2.23727e-07
-2.06655e-07 -2.23727e-07 -0.000113935
0.00106789 4.13991e-05 -1.84926e-07
4.13991e-05 0.000274881 -1.29955e-06
-1.84926e-07 -1.29955e-06 0.000178559
0.000169523 4.04616e-05 -1.35675e-06
4.04616e-05 -0.000213125 -3.63919e-06
-1.35675e-06 -3.63919e-06 -0.000309861
0.000775315 -7.25724e-05 -1.04419e-07
-7.25724e-05 0.000109501 3.98044e-07
-1.04419e-07 3.98044e-07 -9.55694e-07
0.000794931 -5.54965e-05 -9.48083e-07
-5.54965e-05 0.000142018 -7.90221e-07
-9.48083e-07 -7.90221e-07 2.53565e-05
0.000817362 -2.27448e-05 -5.48134e-07
-2.27448e-05 0.000154736 -3.57505e-07
-5.48134e-07 -3.57505e-07 4.22071e-05
0.000824905 1.64785e-05 -5.18727e-07
1.64785e-05 0.0001446 -2.86327e-07
-5.18727e-07 -2.86327e-07 4.53639e-05
0.000867554 8.69561e-06 -1.87617e-06
8.69561e-06 0.000187763 -2.19937e-06
-1.87617e-06 -2.19937e-06 6.57443e-05
0.00074357 2.42269e-05 6.48775e-07
2.42269e-05 0.000104894 -8.65987e-07
6.48775e-07 -8.65987e-07 5.06322e-06
0.000311088 -9.863e-06 3.01233e-07
-9.863e-06 -0.000162878 -1.70084e-06
3.01233e-07 -1.70084e-06 -0.000249898
0.000629429 1.66544e-05 8.26037e-07
1.66544e-05 3.81379e-05 2.06987e-07
8.26037e-07 2.06987e-07 -5.97105e-05
0.000673252 -3.26166e-05 -6.07094e-08
-3.26166e-05 5.6799e-05 3.06822e-07
-6.07094e-08 3.06822e-07 -3.03716e-05
0.000723225 -3.14222e-05 -2.26029e-07
-3.14222e-05 9.81972e-05 -1.6531e-08
-2.26029e-07 -1.6531e-08 -8.22062e-07
0.00068318 -3.90007e-05 -1.72004e-06
-3.90007e-05 5.02749e-05 9.87255e-07
-1.72004e-06 9.87255e-07 -2.21849e-05
0.000722953 -2.3633e-05 1.45987e-06
-2.3633e-05 8.24418e-05 -4.03524e-07
1.45987e-06 -4.03524e-07 -1.20851e-05
0.000637523 -6.78772e-05 -1.22171e-08
-6.78772e-05 3.11078e-05 1.65866e-07
-1.22171e-08 1.65866e-07 -5.07247e-05
0.000654119 -6.63528e-06 -1.71047e-06
-6.63528e-06 2.0394e-05 2.24323e-06
-1.71047e-06 2.24323e-06 -2.8546e-05
0.000527855 -4.46948e-06 1.08127e-06
-4.46948e-06 -2.10023e-05 -5.64466e-07
1.08127e-06 -5.64466e-07 -0.000112905
0.000622076 5.46192e-06 9.30087e-07
5.46192e-06 8.1866e-06 -2.0443e-08
9.30087e-07 -2.0443e-08 -4.25427e-05
0.0013737 1.57561e-05 -2.71441e-06
1.57561e-05 0.000425416 5.25295e-06
-2.71441e-06 5.25295e-06 0.000414776
0.000616089 2.59973e-05 -2.80092e-07
2.59973e-05 6.46412e-06 -1.90102e-06
-2.80092e-07 -1.90102e-06 -4.37661e-05
0.000978286 8.04787e-06 -1.58201e-06
8.04787e-06 0.000192277 8.07527e-07
-1.58201e-06 8.07527e-07 0.000179864
0.000849542 3.69488e-06 -3.77386e-06
3.69488e-06 0.000115945 5.01846e-06
-3.77386e-06 5.01846e-06 0.0001244
0.00059726 2.07151e-06 1.00573e-07
2.07151e-06 -3.26112e-05 -3.68213e-06
1.00573e-07 -3.68213e-06 -4.66716e-05
0.00233075 2.0813e-07 4.09863e-06
2.0813e-07 0.00098689 -5.7082e-09
4.09863e-06 -5.7082e-09 0.00100339
0.000864843 -3.39286e-06 -3.95037e-06
-3.39286e-06 0.000124745 -5.08739e-06
-3.95037e-06 -5.08739e-06 0.000133665
0.000667074 6.62983e-05 1.57701e-06
6.62983e-05 6.50484e-05 -2.57761e-07
1.57701e-06 -2.57761e-07 -1.3343e-05
0.000630537 1.81945e-05 -9.43493e-07
1.81945e-05 8.38074e-06 -1.82504e-06
-9.43493e-07 -1.82504e-06 -2.88407e-05
0.000629657 -5.48094e-06 8.21128e-07
-5.48094e-06 5.55161e-06 9.12454e-09
8.21128e-07 9.12454e-09 -3.1472e-05
0.000617271 8.14965e-06 1.5428e-07
8.14965e-06 -2.49233e-05 -3.2589e-06
1.5428e-07 -3.2589e-06 -3.12403e-05
0.000652132 -2.52817e-05 -1.59404e-06
-2.52817e-05 1.64289e-05 1.71905e-06
-1.59404e-06 1.71905e-06 -2.19872e-05
0.000591051 1.41282e-05 1.25259e-08
1.41282e-05 -3.96613e-05 -7.57735e-07
1.25259e-08 -7.57735e-07 -4.6363e-05
0.00203699 2.50423e-05 7.76612e-06
2.50423e-05 0.000817499 -4.50933e-06
7.76612e-06 -4.50933e-06 0.000836138
0.00119779 3.05714e-05 -7.73913e-07
3.05714e-05 0.0003212 1.97422e-06
-7.73913e-07 1.97422e-06 0.000315764
0.00148585 3.23025e-05 1.77443e-07
3.23025e-05 0.000497248 1.42836e-06
1.77443e-07 1.42836e-06 0.000510539
0.000916036 3.56475e-05 -1.45781e-05
3.56475e-05 0.000167391 7.20165e-06
-1.45781e-05 7.20165e-06 0.000174847
0.0016863 0.000111554 6.11775e-05
0.000111554 -0.00049365 1.47002e-05
6.11775e-05 1.47002e-05 -0.000475817
0.00186884 -1.02461e-05 2.06871e-06
-1.02461e-05 -2.78933e-05 2.43335e-07
2.06871e-06 2.43335e-07 -2.24158e-05
0.00194931 5.43011e-05 3.28571e-05
5.43011e-05 0.00023991 -7.37185e-06
3.28571e-05 -7.37185e-06 0.000261365
0.00117755 8.44939e-05 -9.29559e-06
8.44939e-05 -0.00102037 -7.1857e-06
-9.29559e-06 -7.1857e-06 -0.00100446
0.00183915 3.78941e-05 1.62603e-05
3.78941e-05 -0.000196886 1.06229e-06
1.62603e-05 1.06229e-06 -0.000146972
0.00233616 -1.39683e-05 -3.76267e-07
-1.39683e-05 0.000364768 -1.73316e-06
-3.76267e-07 -1.73316e-06 0.00034784
0.00332944 -6.09905e-05 -5.90862e-05
-6.09905e-05 0.000754456 4.24943e-06
-5.90862e-05 4.24943e-06 0.000737449
0.00319659 -7.31086e-05 0.000111139
-7.31086e-05 0.000481366 -4.70003e-06
0.000111139 -4.70003e-06 0.000298644
0.0091779 -0.000358786 8.5097e-06
-0.000358786 0.00221891 2.5715e-05
8.5097e-06 2.5715e-05 0.000873603
0.00793706 0.00148511 0.000287369
0.00148511 0.00384415 -0.000126648
0.000287369 -0.000126648 0.00385372
0.00418526 0.00156191 -3.18137e-06
0.00156191 0.00292481 1.6506e-05
-3.18137e-06 1.6506e-05 0.00365308
0.000427297 -7.78473e-05 2.37878e-06
-7.78473e-05 -7.04761e-05 -2.85079e-07
2.37878e-06 -2.85079e-07 -0.000160182
0.000680837 -9.95934e-06 1.28989e-06
-9.95934e-06 6.80808e-05 -1.51318e-07
1.28989e-06 -1.51318e-07 -4.65556e-06
0.000708433 -7.30783e-05 -1.57174e-06
-7.30783e-05 8.89917e-05 1.40597e-06
-1.57174e-06 1.40597e-06 1.17321e-05
0.000637165 -3.29637e-05 -3.54466e-07
-3.29637e-05 4.59567e-05 2.38067e-07
-3.54466e-07 2.38067e-07 -4.22199e-05
0.000712277 7.00525e-05 -1.64857e-07
7.00525e-05 0.000107167 1.24922e-06
-1.64857e-07 1.24922e-06 1.23539e-07
0.000790458 0.000120798 1.37452e-06
0.000120798 0.000142746 2.09359e-06
1.37452e-06 2.09359e-06 3.51349e-05
0.000777372 -6.90744e-06 1.98413e-06
-6.90744e-06 0.000137695 -1.59875e-06
1.98413e-06 -1.59875e-06 3.90054e-05
0.000616625 -2.88914e-05 -7.11934e-07
-2.88914e-05 4.13547e-05 7.10064e-07
-7.11934e-07 7.10064e-07 -5.13828e-05
0.00210774 -0.000161623 3.94622e-06
-0.000161623 0.000101428 1.53429e-06
3.94622e-06 1.53429e-06 0.00011674
0.00181439 -0.000244213 5.37607e-06
-0.000244213 -0.000121441 -1.83923e-06
5.37607e-06 -1.83923e-06 -0.000105449
0.00161985 -0.00041212 2.2564e-06
-0.00041212 -7.62814e-05 3.24477e-06
2.2564e-06 3.24477e-06 -0.000196097
0.00123459 -0.000330551 8.12603e-06
-0.000330551 0.000259523 3.88497e-06
8.12603e-06 3.88497e-06 1.70977e-05
0.0018415 -0.000472002 4.87768e-06
-0.000472002 0.000310471 -1.52303e-07
4.87768e-06 -1.52303e-07 9.29621e-05
0.00153915 -0.00036899 7.4684e-07
-0.00036899 0.000641422 6.62278e-07
7.4684e-07 6.62278e-07 0.000320714
0.00178442 -0.000221427 -6.0051e-07
-0.000221427 0.000747345 -1.32181e-06
-6.0051e-07 -1.32181e-06 0.000502652
0.000739558 -0.000109974 9.94703e-07
-0.000109974 9.87754e-05 -9.22565e-07
9.94703e-07 -9.22565e-07 -4.62682e-05
0.000722786 -2.28768e-05 -5.71612e-08
-2.28768e-05 0.000101718 2.31153e-06
-5.71612e-08 2.31153e-06 1.56493e-06
0.000923452 -2.69366e-05 2.58674e-08
-2.69366e-05 0.000213618 -4.93978e-06
2.58674e-08 -4.93978e-06 9.65487e-05
0.000943218 -1.84618e-05 1.16405e-06
-1.84618e-05 0.000233322 7.23555e-07
1.16405e-06 7.23555e-07 0.00013613
0.000698049 0.000116596 2.5191e-06
0.000116596 9.76872e-05 3.18014e-06
2.5191e-06 3.18014e-06 -2.57982e-06
0.0018527 -0.000188289 -2.74911e-07
-0.000188289 -5.92985e-05 8.77006e-07
-2.74911e-07 8.77006e-07 -4.0591e-06
0.000701802 2.19812e-05 -1.5241e-06
2.19812e-05 0.000104705 2.6635e-07
-1.5241e-06 2.6635e-07 -1.3558e-05
0.000830666 -7.51592e-05 -1.49729e-06
-7.51592e-05 0.000168537 8.38331e-07
-1.49729e-06 8.38331e-07 5.01437e-05
0.00172186 -0.000346657 1.26101e-06
-0.000346657 -0.000134488 -1.62705e-06
1.26101e-06 -1.62705e-06 -0.000130496
0.00163214 -0.000489954 2.95445e-07
-0.000489954 1.85314e-05 1.72449e-06
2.95445e-07 1.72449e-06 -0.000152338
0.00142177 -0.000412214 -3.32227e-07
-0.000412214 0.000266971 -1.63714e-06
-3.32227e-07 -1.63714e-06 3.7863e-05
0.000891878 -0.000120615 5.27431e-07
-0.000120615 0.000254954 -2.89704e-06
5.27431e-07 -2.89704e-06 8.19312e-05
0.00101602 -0.000174664 -3.91226e-07
-0.000174664 0.000459328 4.49024e-07
-3.91226e-07 4.49024e-07 0.000102134
0.00326058 -0.000303049 -2.63591e-05
-0.000303049 0.000721395 4.81291e-06
-2.63591e-05 4.81291e-06 0.000711376
0.00271178 -0.000488586 -2.95768e-05
-0.000488586 0.000483311 5.2714e-06
-2.95768e-05 5.2714e-06 0.000482223
0.00154011 -0.000525928 -8.66697e-06
-0.000525928 7.77099e-05 1.97065e-06
-8.66697e-06 1.97065e-06 -9.45754e-05
0.000399299 -0.000294391 -6.13698e-06
-0.000294391 -0.000145331 1.70437e-05
-6.13698e-06 1.70437e-05 -0.000382796
0.000660247 -0.000121903 1.75021e-06
-0.000121903 7.96999e-05 -7.11101e-08
1.75021e-06 -7.11101e-08 -5.31944e-05
0.000539832 -9.0411e-05 2.27603e-06
-9.0411e-05 3.75212e-05 -3.62755e-06
2.27603e-06 -3.62755e-06 -0.000107718
0.00105765 -6.45449e-05 3.36325e-07
-6.45449e-05 0.000473347 -6.02534e-06
3.36325e-07 -6.02534e-06 0.000168026
-0.00457032 -5.63503e-05 0.000246541
-5.63503e-05 -0.00295499 1.31176e-06
0.000246541 1.31176e-06 -0.00218398
0.00970566 -0.000124184 -8.14081e-06
-0.000124184 0.00286422 -3.62188e-07
-8.14081e-06 -3.62188e-07 0.00219921
0.00146746 0.000128021 3.90619e-06
0.000128021 0.00055065 -1.47917e-06
3.90619e-06 -1.47917e-06 0.000410238
0.000828498 0.000213528 3.14701e-06
0.000213528 0.000120995 -1.87942e-06
3.14701e-06 -1.87942e-06 -6.23433e-05
0.0020268 0.000288468 3.38131e-05
0.000288468 0.000166341 2.12626e-05
3.38131e-05 2.12626e-05 0.000196241
0.00246883 0.000544588 9.81549e-06
0.000544588 0.000473554 7.14754e-06
9.81549e-06 7.14754e-06 0.000279871
0.00171439 0.000381233 8.01903e-06
0.000381233 0.00044311 1.33176e-06
8.01903e-06 1.33176e-06 0.00017229
0.00976457 0.000459015 4.19526e-05
0.000459015 0.00247704 9.42255e-06
4.19526e-05 9.42255e-06 0.00137726
0.0073443 0.000824193 -0.000144827
0.000824193 0.00116342 -2.98008e-05
-0.000144827 -2.98008e-05 0.000683684
-0.000646428 0.000228392 9.42391e-07
0.000228392 -0.000863957 -1.79919e-05
9.42391e-07 -1.79919e-05 -0.00113743
0.00723261 -0.00120261 -6.32978e-05
-0.00120261 0.00352102 2.53954e-05
-6.32978e-05 2.53954e-05 0.00299269
-0.00747145 -0.00189466 -0.000479165
-0.00189466 -0.003616 -0.000365819
-0.000479165 -0.000365819 -0.00187922
0.000933498 0.000163104 -3.52444e-07
0.000163104 0.000250879 -1.71756e-06
-3.52444e-07 -1.71756e-06 0.000115867
-0.00239666 -0.000558322 0.000104686
-0.000558322 -0.00194297 1.18183e-05
0.000104686 1.18183e-05 -0.00212379
-0.00226775 -0.000461701 -0.000120517
-0.000461701 0.00101325 -5.96086e-05
-0.000120517 -5.96086e-05 -0.000602368
0.00275039 0.000427206 -6.87818e-06
0.000427206 0.000613569 -9.06767e-07
-6.87818e-06 -9.06767e-07 0.000644104
0.000854409 0.000190754 -2.05641e-06
0.000190754 0.000145107 9.19619e-07
-2.05641e-06 9.19619e-07 -5.73196e-05
0.000865172 0.000394421 3.2229e-06
0.000394421 -3.383e-05 1.73294e-06
3.2229e-06 1.73294e-06 -0.00030527
0.00107804 0.000350603 1.3162e-05
0.000350603 -8.70602e-06 1.24122e-05
1.3162e-05 1.24122e-05 -3.52014e-05
0.00787473 0.000421323 -4.55617e-05
0.000421323 0.00133797 -2.54906e-05
-4.55617e-05 -2.54906e-05 -0.000398764
0.0063543 0.00118742 -5.1886e-05
0.00118742 0.00165254 -2.0827e-05
-5.1886e-05 -2.0827e-05 0.000873047
0.00906493 -0.00141582 0.000103588
-0.00141582 0.00424529 -4.41156e-05
0.000103588 -4.41156e-05 0.0041701
0.00355693 -0.00111065 0.000121238
-0.00111065 -0.00163123 0.000254345
0.000121238 0.000254345 -0.000299807
0.00146034 0.000146543 -1.35221e-05
0.000146543 0.000570283 -6.85918e-06
-1.35221e-05 -6.85918e-06 0.00045202
-0.00492022 0.00018208 -8.0481e-05
0.00018208 0.000664842 -4.56157e-05
-8.0481e-05 -4.56157e-05 -0.0015632
0.00280305 0.000225649 -0.000132802
0.000225649 0.00127883 -0.000187121
-0.000132802 -0.000187121 -0.000922045
0.000837492 0.000357103 -1.57128e-05
0.000357103 -0.000130697 4.75518e-06
-1.57128e-05 4.75518e-06 -0.000137662
0.00112429 0.000387815 -4.15151e-05
0.000387815 0.000366117 -1.43121e-05
-4.15151e-05 -1.43121e-05 0.000123841
0.00238832 0.000319968 -6.67526e-05
0.000319968 0.00117329 -6.29408e-06
-6.67526e-05 -6.29408e-06 0.000830513
0.00277441 0.000898468 -4.68092e-05
0.000898468 0.000305057 -1.52939e-05
-4.68092e-05 -1.52939e-05 -1.2285e-05
0.00119831 0.000577551 0.000133242
0.000577551 5.72349e-06 9.9447e-05
0.000133242 9.9447e-05 -0.00249902
0.00941003 -0.00156875 4.60153e-05
-0.00156875 0.00305188 0.000218043
4.60153e-05 0.000218043 0.00267752
0.0035961 -0.00071246 -2.97363e-05
-0.00071246 -0.002038 -3.15333e-05
-2.97363e-05 -3.15333e-05 -0.000784676
0.000858799 8.80505e-05 3.07428e-06
8.80505e-05 0.000192862 3.13508e-06
3.07428e-06 3.13508e-06 8.82309e-05
0.00121952 0.000116091 4.95757e-06
0.000116091 0.000398636 2.63389e-06
4.95757e-06 2.63389e-06 0.000310733
0.000150364 4.71573e-05 2.39556e-06
4.71573e-05 -0.000175633 -3.09929e-06
2.39556e-06 -3.09929e-06 -0.000256544
0.000500608 4.45159e-05 1.1473e-06
4.45159e-05 -4.34784e-05 -1.5603e-07
1.1473e-06 -1.5603e-07 -0.000131344
0.000759754 4.83875e-05 -6.61396e-07
4.83875e-05 0.000123819 -1.23028e-06
-6.61396e-07 -1.23028e-06 9.67259e-06
0.000775601 -6.21545e-06 -3.16636e-07
-6.21545e-06 0.00010919 6.73556e-07
-3.16636e-07 6.73556e-07 4.26679e-06
0.00078364 -1.01068e-06 1.6008e-06
-1.01068e-06 0.000119716 -2.45006e-08
1.6008e-06 -2.45006e-08 1.43967e-05
0.0005657 3.07659e-05 2.33912e-07
3.07659e-05 -7.64307e-06 2.56069e-06
2.33912e-07 2.56069e-06 -9.77e-05
0.000789873 4.15777e-05 -6.84864e-09
4.15777e-05 0.000139737 -7.57237e-07
-6.84864e-09 -7.57237e-07 2.2801e-05
0.000884476 3.45447e-05 -9.19867e-08
3.45447e-05 0.00016762 2.45511e-07
-9.19867e-08 2.45511e-07 7.08627e-05
0.000800742 -3.2735e-05 -3.09391e-07
-3.2735e-05 0.000126498 4.76404e-07
-3.09391e-07 4.76404e-07 1.43668e-05
0.000183308 3.46559e-05 5.12222e-08
3.46559e-05 -0.000194651 4.03114e-07
5.12222e-08 4.03114e-07 -0.000290458
-0.000289484 2.02365e-05 -2.49051e-06
2.02365e-05 -0.000354096 -2.40681e-06
-2.49051e-06 -2.40681e-06 -0.000461197
0.000921877 -3.24747e-06 -2.40411e-06
-3.24747e-06 0.000199254 -2.78079e-06
-2.40411e-06 -2.78079e-06 9.2854e-05
0.000933227 8.93955e-06 -5.21616e-07
8.93955e-06 0.000222259 -1.11194e-06
-5.21616e-07 -1.11194e-06 8.91662e-05
0.000821091 -5.25256e-05 3.8649e-08
-5.25256e-05 0.000160337 -7.24504e-07
3.8649e-08 -7.24504e-07 4.46493e-05
0.000879458 -2.07877e-05 -2.42989e-07
-2.07877e-05 0.000170348 1.0503e-06
-2.42989e-07 1.0503e-06 7.40739e-05
0.000845971 -4.44121e-05 2.3407e-07
-4.44121e-05 0.000165385 -5.60479e-07
2.3407e-07 -5.60479e-07 4.97804e-05
0.000773926 1.84355e-05 -2.5983e-07
1.84355e-05 0.000119235 -1.05904e-07
-2.5983e-07 -1.05904e-07 2.04197e-05
0.000522573 -3.64638e-05 2.07233e-08
-3.64638e-05 -3.8367e-05 7.00433e-07
2.07233e-08 7.00433e-07 -0.000126614
0.000654814 2.53817e-05 7.52736e-07
2.53817e-05 5.32133e-05 6.49646e-07
7.52736e-07 6.49646e-07 -4.32126e-05
0.000479374 -1.20487e-05 -9.01937e-07
-1.20487e-05 -3.90519e-05 -3.15654e-06
-9.01937e-07 -3.15654e-06 -0.000146863
0.000523796 -2.77273e-05 1.4801e-06
-2.77273e-05 -3.53212e-05 -8.64259e-07
1.4801e-06 -8.64259e-07 -0.000122083
0.000798302 -1.50424e-05 3.27241e-06
-1.50424e-05 0.000105161 -4.37529e-06
3.27241e-06 -4.37529e-06 1.0298e-05
0.000153526 -4.18688e-05 9.36293e-07
-4.18688e-05 -0.000223594 5.42805e-07
9.36293e-07 5.42805e-07 -0.000369559
0.000327756 1.86613e-05 -3.84103e-07
1.86613e-05 -0.000124537 -8.62402e-07
-3.84103e-07 -8.62402e-07 -0.000229478
0.000728931 9.74885e-06 2.54127e-07
9.74885e-06 9.42721e-05 3.87574e-07
2.54127e-07 3.87574e-07 -4.95677e-06
0.000660026 2.05623e-06 -1.21123e-07
2.05623e-06 5.01504e-05 4.66078e-07
-1.21123e-07 4.66078e-07 -3.73443e-05
0.000728528 -1.62818e-05 -1.03744e-07
-1.62818e-05 9.99671e-05 -3.42297e-08
-1.03744e-07 -3.42297e-08 4.73817e-06
0.000619325 7.00878e-06 -6.40825e-07
7.00878e-06 1.98238e-05 8.53864e-07
-6.40825e-07 8.53864e-07 -5.43413e-05
0.000770894 -1.35006e-05 3.24464e-07
-1.35006e-05 0.000123895 -7.5894e-08
3.24464e-07 -7.5894e-08 2.60817e-05
0.000693955 -3.62005e-05 -3.56368e-07
-3.62005e-05 6.34226e-05 7.01707e-08
-3.56368e-07 7.01707e-08 -1.36028e-05
0.000606016 4.06622e-05 -7.33576e-07
4.06622e-05 -7.67447e-06 2.17598e-06
-7.33576e-07 2.17598e-06 -5.78783e-05
0.000585247 -5.9162e-05 1.46086e-06
-5.9162e-05 -3.8626e-06 -9.08847e-07
1.46086e-06 -9.08847e-07 -8.4079e-05
0.000630714 7.28428e-06 -2.54361e-07
7.28428e-06 7.09801e-06 -2.33611e-08
-2.54361e-07 -2.33611e-08 -4.19161e-05
0.00137211 2.49901e-05 -4.6864e-06
2.49901e-05 0.000424683 5.33268e-06
-4.6864e-06 5.33268e-06 0.000413735
0.00062154 -1.32999e-05 8.02114e-07
-1.32999e-05 6.85424e-06 -1.93003e-06
8.02114e-07 -1.93003e-06 -4.31644e-05
0.00097061 1.46244e-05 -2.52575e-06
1.46244e-05 0.000187799 7.52326e-07
-2.52575e-06 7.52326e-07 0.000175381
0.00078733 1.45858e-05 -2.69397e-07
1.45858e-05 7.93753e-05 1.97666e-06
-2.69397e-07 1.97666e-06 8.78286e-05
0.00058166 5.77884e-06 4.92429e-07
5.77884e-06 -4.18195e-05 -3.70816e-06
4.92429e-07 -3.70816e-06 -5.60419e-05
0.00234103 1.30858e-05 3.76223e-06
1.30858e-05 0.000993482 4.5205e-08
3.76223e-06 4.5205e-08 0.0010097
0.00233775 1.89643e-06 -4.66691e-07
1.89643e-06 0.000991076 -5.19898e-06
-4.66691e-07 -5.19898e-06 0.00100747
0.000997838 7.11198e-05 -1.27888e-06
7.11198e-05 0.000252154 -1.16377e-06
-1.27888e-06 -1.16377e-06 0.00017676
0.000639605 2.8217e-05 -1.02672e-06
2.8217e-05 1.55245e-05 -2.04874e-06
-1.02672e-06 -2.04874e-06 -2.39302e-05
0.000665299 -5.62521e-06 6.89562e-07
-5.62521e-06 6.2399e-05 8.66671e-07
6.89562e-07 8.66671e-07 -1.47321e-05
0.00061885 2.58694e-06 5.0489e-08
2.58694e-06 -2.46789e-05 -3.38819e-06
5.0489e-08 -3.38819e-06 -3.09465e-05
0.000630411 -8.00501e-06 2.35078e-07
-8.00501e-06 8.33462e-06 -3.06529e-08
2.35078e-07 -3.06529e-08 -2.8944e-05
0.000639395 -2.46526e-05 -1.36595e-06
-2.46526e-05 1.16396e-05 1.53033e-06
-1.36595e-06 1.53033e-06 -2.58368e-05
0.000604631 7.99559e-06 -1.8825e-07
7.99559e-06 -3.24153e-05 -2.33599e-08
-1.8825e-07 -2.33599e-08 -3.86709e-05
0.00203249 1.28779e-05 3.36576e-06
1.28779e-05 0.000812392 -4.66015e-06
3.36576e-06 -4.66015e-06 0.000831782
0.00118247 2.02739e-05 -6.82539e-07
2.02739e-05 0.000308938 1.96937e-06
-6.82539e-07 1.96937e-06 0.000305427
0.0014199 2.15561e-05 1.24656e-06
2.15561e-05 0.000453477 3.97972e-08
1.24656e-06 3.97972e-08 0.000468735
0.000871092 2.55812e-05 -1.33752e-05
2.55812e-05 0.000134689 7.09318e-06
-1.33752e-05 7.09318e-06 0.000145179
-0.00775724 0.000299121 0.000183515
0.000299121 -0.00344745 1.3575e-06
0.000183515 1.3575e-06 -0.00417004
-0.00194958 0.000101179 0.000202349
0.000101179 0.00140589 1.32638e-05
0.000202349 1.32638e-05 0.000123428
0.00401097 0.000210576 -0.000201257
0.000210576 0.000271699 -6.723e-06
-0.000201257 -6.723e-06 0.000385387
0.000485484 3.44996e-05 3.35875e-05
3.44996e-05 -0.000855895 -7.12134e-06
3.35875e-05 -7.12134e-06 -0.000856002
0.00140235 -2.29648e-05 1.85427e-05
-2.29648e-05 -0.000240172 -5.43297e-07
1.85427e-05 -5.43297e-07 -0.000254442
0.000507531 4.89283e-05 2.72992e-06
4.89283e-05 -0.000704093 -5.0794e-06
2.72992e-06 -5.0794e-06 -0.00070365
0.00249076 -9.77168e-05 2.35023e-07
-9.77168e-05 0.000240118 3.5029e-06
2.35023e-07 3.5029e-06 0.000205578
0.0083745 0.000132344 3.98711e-05
0.000132344 0.00148255 -2.9378e-05
3.98711e-05 -2.9378e-05 0.00047091
-0.00341756 0.000858625 -3.14569e-05
0.000858625 -0.000955921 -8.96124e-06
-3.14569e-05 -8.96124e-06 -0.00190911
-0.00160476 0.00167496 -9.70661e-05
0.00167496 -0.000324216 4.57211e-05
-9.70661e-05 4.57211e-05 0.000995111
0.00153237 -0.000206316 5.56623e-05
-0.000206316 -0.000655163 4.01502e-06
5.56623e-05 4.01502e-06 -0.00082927
0.0114528 -0.000188133 7.60756e-05
-0.000188133 0.00337923 -2.95911e-05
7.60756e-05 -2.95911e-05 0.00196309
0.00207989 0.00160249 0.00011524
0.00160249 -9.79356e-05 -0.000214306
0.00011524 -0.000214306 0.000431393
0.00559448 0.0012018 -0.00015209
0.0012018 0.000437593 0.000102498
-0.00015209 0.000102498 0.000778941
0.00070766 7.11466e-05 -1.2437e-06
7.11466e-05 0.000112827 3.9886e-07
-1.2437e-06 3.9886e-07 -8.3132e-06
0.000554913 1.27127e-05 -2.33121e-07
1.27127e-05 1.21969e-07 -7.31613e-07
-2.33121e-07 -7.31613e-07 -8.66546e-05
0.000692966 -8.22394e-05 -1.14502e-06
-8.22394e-05 7.95109e-05 1.04086e-06
-1.14502e-06 1.04086e-06 3.07336e-06
0.000573073 -2.25448e-06 1.86273e-07
-2.25448e-06 1.44648e-05 3.15813e-07
1.86273e-07 3.15813e-07 -7.7983e-05
0.000690722 6.43851e-05 9.19426e-07
6.43851e-05 9.9552e-05 1.47786e-06
9.19426e-07 1.47786e-06 -7.98617e-06
0.000862044 7.50048e-05 -5.92869e-09
7.50048e-05 0.000195371 3.04479e-07
-5.92869e-09 3.04479e-07 7.40217e-05
0.000762357 8.67024e-05 1.6599e-06
8.67024e-05 0.00013311 1.75884e-06
1.6599e-06 1.75884e-06 2.27239e-05
0.000686237 7.26144e-06 1.91091e-06
7.26144e-06 7.43841e-05 -2.60565e-07
1.91091e-06 -2.60565e-07 -3.07539e-05
0.000671964 -1.69272e-05 6.67734e-07
-1.69272e-05 7.84169e-05 -9.88573e-07
6.67734e-07 -9.88573e-07 -2.37251e-05
0.000543837 -8.81842e-06 -6.73956e-07
-8.81842e-06 -8.87919e-06 4.88871e-07
-6.73956e-07 4.88871e-07 -9.60955e-05
0.00148992 -0.000176429 1.53261e-05
-0.000176429 -0.000212071 -9.32977e-07
1.53261e-05 -9.32977e-07 -0.000163195
0.00149849 -0.000341753 1.83387e-05
-0.000341753 -0.000241669 -4.36687e-06
1.83387e-05 -4.36687e-06 -0.000251299
0.000231991 -0.000381153 1.39279e-05
-0.000381153 -0.000719059 2.64887e-06
1.39279e-05 2.64887e-06 -0.000861738
0.000855992 -0.000368718 2.35147e-06
-0.000368718 -2.76105e-05 -2.19837e-07
2.35147e-06 -2.19837e-07 -0.00026432
0.00167176 -0.000211779 2.75682e-07
-0.000211779 0.000789771 8.30449e-06
2.75682e-07 8.30449e-06 0.000462785
0.00107888 -0.000163736 8.09339e-07
-0.000163736 0.000365719 -8.06231e-09
8.09339e-07 -8.06231e-09 0.000170952
0.00094572 -7.24906e-05 -6.86673e-07
-7.24906e-05 0.000223947 1.02771e-07
-6.86673e-07 1.02771e-07 0.000115477
0.000712613 3.25078e-05 -1.49467e-06
3.25078e-05 0.000112257 1.91262e-06
-1.49467e-06 1.91262e-06 -3.54333e-06
0.00174741 -0.000225564 2.43113e-06
-0.000225564 -5.94552e-05 -1.93753e-06
2.43113e-06 -1.93753e-06 -4.47012e-05
0.000656456 -5.45739e-05 -2.87372e-07
-5.45739e-05 8.09812e-05 -2.29077e-07
-2.87372e-07 -2.29077e-07 -5.38385e-05
0.000444924 -7.402e-05 8.11374e-07
-7.402e-05 -1.31649e-05 -1.35934e-06
8.11374e-07 -1.35934e-06 -0.000162111
0.00212921 -0.000460757 5.03949e-06
-0.000460757 0.00018301 -6.13735e-07
5.03949e-06 -6.13735e-07 0.000170598
0.00113121 -0.000492462 8.61548e-07
-0.000492462 -0.00013363 3.90896e-06
8.61548e-07 3.90896e-06 -0.000295927
0.000886546 -0.000366687 9.63828e-06
-0.000366687 0.00011902 -4.12726e-06
9.63828e-06 -4.12726e-06 -0.000141063
0.00145429 -0.000114947 -5.01426e-07
-0.000114947 0.000669921 -3.31373e-06
-5.01426e-07 -3.31373e-06 0.000382464
0.00122003 -0.000314751 -2.00707e-05
-0.000314751 9.5563e-06 1.73101e-06
-2.00707e-05 1.73101e-06 -0.000238248
0.00118495 -0.000367322 -3.16979e-05
-0.000367322 -1.67983e-05 9.73997e-06
-3.16979e-05 9.73997e-06 -6.18818e-05
-8.89606e-05 -0.000216296 -2.16709e-05
-0.000216296 -0.000239635 3.84228e-05
-2.16709e-05 3.84228e-05 -0.000530547
0.000345567 2.70448e-05 1.96402e-07
2.70448e-05 -9.52156e-05 1.51073e-06
1.96402e-07 1.51073e-06 -0.000228162
0.000467614 -0.000105767 2.32716e-06
-0.000105767 -8.60621e-06 -1.14786e-06
2.32716e-06 -1.14786e-06 -0.000157692
0.000724196 -7.88685e-05 2.37275e-06
-7.88685e-05 0.000204992 -6.22315e-06
2.37275e-06 -6.22315e-06 -9.76253e-06
0.000307645 0.000175724 -0.000133814
0.000175724 0.00316219 1.8435e-06
-0.000133814 1.8435e-06 0.00169938
0.00194394 -0.000328684 1.80408e-05
-0.000328684 0.0014457 1.96803e-05
1.80408e-05 1.96803e-05 0.0013373
0.000534607 0.000609855 -6.18467e-05
0.000609855 -0.00284605 1.65849e-05
-6.18467e-05 1.65849e-05 -0.00343068
0.000710287 0.000147743 4.87559e-06
0.000147743 0.000136384 1.12196e-06
4.87559e-06 1.12196e-06 3.46607e-06
0.000688619 0.000220087 5.21237e-06
0.000220087 7.92266e-05 5.75078e-06
5.21237e-06 5.75078e-06 -0.000136044
0.00242126 0.000382838 1.98867e-05
0.000382838 0.000410928 1.10552e-05
1.98867e-05 1.10552e-05 0.00045912
0.00205267 0.000418849 1.72563e-05
0.000418849 0.000606007 1.24171e-05
1.72563e-05 1.24171e-05 0.000339724
0.0064178 -0.000657083 5.47442e-05
-0.000657083 0.00245585 3.39273e-05
5.47442e-05 3.39273e-05 0.00261806
0.00223287 -3.28632e-05 -0.0001259
-3.28632e-05 -0.00148983 -1.0249e-05
-0.0001259 -1.0249e-05 -0.00307383
0.00297625 0.00107172 -8.20732e-05
0.00107172 -0.000338695 -1.78875e-05
-8.20732e-05 -1.78875e-05 -0.00106226
0.000477834 0.000209465 2.61165e-05
0.000209465 -0.000153965 -2.13793e-05
2.61165e-05 -2.13793e-05 -0.000142767
-0.00362769 -0.000742104 -7.38782e-05
-0.000742104 -0.00110009 -0.000103456
-7.38782e-05 -0.000103456 -0.00144848
-0.000373406 -0.00070056 -6.52285e-05
-0.00070056 0.00111422 5.48532e-06
-6.52285e-05 5.48532e-06 -0.000513436
0.00820456 -0.00147762 0.000175181
-0.00147762 0.000796604 0.00013765
0.000175181 0.00013765 0.00219495
0.000652719 0.000109779 5.17049e-06
0.000109779 0.000129537 -2.47996e-06
5.17049e-06 -2.47996e-06 4.61818e-06
-0.00168886 8.84977e-06 -6.93686e-05
8.84977e-06 0.00167082 -2.14411e-05
-6.93686e-05 -2.14411e-05 -0.000221498
0.00317451 0.000254902 -1.50676e-05
0.000254902 0.00140923 -5.78285e-05
-1.50676e-05 -5.78285e-05 -0.000859574
0.00121317 0.000350828 -7.2259e-06
0.000350828 0.000110249 4.15299e-06
-7.2259e-06 4.15299e-06 5.66742e-05
0.000631658 0.000252133 -3.85019e-07
0.000252133 0.000126643 2.09131e-06
-3.85019e-07 2.09131e-06 -0.000109878
-0.000299615 0.000232887 2.89681e-05
0.000232887 -0.000306784 -3.38607e-05
2.89681e-05 -3.38607e-05 -0.000553637
0.0054954 0.00129103 -8.34294e-06
0.00129103 0.00181104 3.92325e-06
-8.34294e-06 3.92325e-06 0.00113747
0.0104525 0.000589807 5.25992e-05
0.000589807 0.00370605 1.99433e-05
5.25992e-05 1.99433e-05 0.0018212
0.00315287 -0.00100805 1.75518e-05
-0.00100805 -0.000692869 -3.34421e-05
1.75518e-05 -3.34421e-05 -0.000940333
0.00829638 -0.000971753 9.09192e-06
-0.000971753 0.00104518 -2.77366e-05
9.09192e-06 -2.77366e-05 0.00223143
0.00118778 0.000204714 -1.38333e-05
0.000204714 0.000488263 -9.08716e-06
-1.38333e-05 -9.08716e-06 0.000363899
0.00252907 2.91382e-05 -9.40313e-05
2.91382e-05 0.000822542 -3.41428e-05
-9.40313e-05 -3.41428e-05 -0.000627983
0.000128797 7.36987e-05 -2.61085e-05
7.36987e-05 0.000224483 -8.45567e-05
-2.61085e-05 -8.45567e-05 -0.00128509
-0.00099791 4.77954e-05 -1.56911e-05
4.77954e-05 -0.000487188 -1.78304e-05
-1.56911e-05 -1.78304e-05 -0.000638998
0.0018745 0.000362795 -3.38846e-05
0.000362795 0.000788282 4.32638e-05
-3.38846e-05 4.32638e-05 0.000117877
0.00946442 0.000911132 3.48461e-05
0.000911132 0.00389219 -7.75416e-07
3.48461e-05 -7.75416e-07 0.00108647
-0.00682251 -0.00149649 -3.92973e-05
-0.00149649 -0.00388638 0.000103083
-3.92973e-05 0.000103083 -0.00570985
0.00668037 0.000347408 8.63375e-06
0.000347408 -0.000793366 -0.000142665
8.63375e-06 -0.000142665 0.000837097
0.000990171 9.50664e-05 2.45095e-06
9.50664e-05 0.000254553 6.33739e-06
2.45095e-06 6.33739e-06 0.000171753
0.000907991 0.000107854 -4.0606e-06
0.000107854 0.000267518 -9.75923e-07
-4.0606e-06 -9.75923e-07 0.000178107
0.000212291 6.13525e-05 -3.35135e-06
6.13525e-05 1.75264e-06 -4.34651e-07
-3.35135e-06 -4.34651e-07 -0.000128598
0.000796127 7.82512e-05 -2.2442e-06
7.82512e-05 0.000133679 -8.90516e-07
-2.2442e-06 -8.90516e-07 2.33509e-05
0.000854039 -3.01246e-05 -6.68208e-07
-3.01246e-05 0.000167142 5.68148e-07
-6.68208e-07 5.68148e-07 4.84011e-05
0.000682697 3.62992e-05 5.8179e-07
3.62992e-05 5.02859e-05 1.3725e-06
5.8179e-07 1.3725e-06 -4.77023e-05
0.00021617 2.99566e-05 1.44434e-06
2.99566e-05 -0.000164651 2.01717e-06
1.44434e-06 2.01717e-06 -0.000259978
0.000841357 -1.76768e-06 9.74941e-07
-1.76768e-06 0.000152894 1.2106e-07
9.74941e-07 1.2106e-07 3.18976e-05
0.000870673 1.85015e-05 9.24522e-08
1.85015e-05 0.000174383 -7.51078e-07
9.24522e-08 -7.51078e-07 6.62262e-05
0.000321284 -7.5675e-07 -3.87868e-07
-7.5675e-07 7.92207e-06 2.07555e-06
-3.87868e-07 2.07555e-06 -0.000108748
-5.71498e-05 1.90861e-05 -5.68711e-06
1.90861e-05 -4.35107e-05 -1.26928e-06
-5.68711e-06 -1.26928e-06 -0.000191631
0.000875138 -1.14586e-05 -2.22253e-06
-1.14586e-05 0.000288019 -7.18581e-06
-2.22253e-06 -7.18581e-06 0.000176816
0.00095809 4.29338e-05 -1.22133e-06
4.29338e-05 0.000233601 -3.19815e-06
-1.22133e-06 -3.19815e-06 0.000111076
0.000865755 -9.38752e-05 1.51329e-06
-9.38752e-05 0.000165828 8.56394e-07
1.51329e-06 8.56394e-07 5.67683e-05
0.000771527 2.0425e-05 -3.82203e-07
2.0425e-05 0.00011471 -8.9663e-08
-3.82203e-07 -8.9663e-08 1.73467e-05
0.000693187 -4.40464e-05 -1.99693e-06
-4.40464e-05 6.17428e-05 2.4788e-06
-1.99693e-06 2.4788e-06 -2.6059e-05
0.000559325 -2.41214e-05 1.30333e-06
-2.41214e-05 -3.17912e-06 1.06239e-06
1.30333e-06 1.06239e-06 -0.00010389
0.000732519 2.15888e-05 3.08642e-07
2.15888e-05 9.89324e-05 1.19139e-07
3.08642e-07 1.19139e-07 9.47927e-07
0.000648751 -1.09367e-05 -7.25723e-07
-1.09367e-05 3.71429e-05 2.88299e-08
-7.25723e-07 2.88299e-08 -4.91665e-05
0.000915236 -4.39151e-06 -2.78708e-07
-4.39151e-06 0.000183862 -2.19235e-06
-2.78708e-07 -2.19235e-06 9.30289e-05
0.000187479 -3.10016e-05 2.80612e-06
-3.10016e-05 -0.000191307 -3.78587e-06
2.80612e-06 -3.78587e-06 -0.00026821
0.000362733 -8.59678e-05 1.44012e-06
-8.59678e-05 -0.000193066 -1.0594e-06
1.44012e-06 -1.0594e-06 -0.000288023
0.000886666 -4.13105e-05 -2.10086e-06
-4.13105e-05 0.00016172 -3.54089e-07
-2.10086e-06 -3.54089e-07 6.22395e-05
0.00047514 -8.24638e-05 4.21769e-06
-8.24638e-05 -5.08272e-05 2.22708e-06
4.21769e-06 2.22708e-06 -0.000186509
0.0011417 -0.000217286 -8.34262e-07
-0.000217286 0.000300771 6.30385e-06
-8.34262e-07 6.30385e-06 9.15034e-05
0.00123761 -9.42571e-05 1.69074e-06
-9.42571e-05 0.000405468 -1.41655e-06
1.69074e-06 -1.41655e-06 0.000278863
0.000333973 -6.37045e-05 -1.84189e-06
-6.37045e-05 -0.000107296 -4.14396e-06
-1.84189e-06 -4.14396e-06 -0.000252048
0.000640949 5.15736e-06 -3.06017e-07
5.15736e-06 4.91976e-05 -2.20826e-07
-3.06017e-07 -2.20826e-07 -5.38649e-05
0.000379292 7.9253e-06 4.75116e-07
7.9253e-06 -0.000102049 5.72095e-08
4.75116e-07 5.72095e-08 -0.000197286
0.000848898 -2.05993e-06 -2.41014e-07
-2.05993e-06 0.000162511 7.42645e-07
-2.41014e-07 7.42645e-07 6.16616e-05
0.000749199 -2.5139e-05 -5.69986e-07
-2.5139e-05 0.00011026 5.42504e-07
-5.69986e-07 5.42504e-07 1.49467e-05
0.000649107 -7.30034e-06 -6.94249e-07
-7.30034e-06 3.37694e-05 8.92729e-07
-6.94249e-07 8.92729e-07 -3.90572e-05
0.00082596 -4.40251e-05 2.34925e-07
-4.40251e-05 0.000167474 -5.04262e-07
2.34925e-07 -5.04262e-07 6.29797e-05
0.000695433 -4.08831e-05 -5.24117e-07
-4.08831e-05 6.53935e-05 -6.03396e-09
-5.24117e-07 -6.03396e-09 -1.08271e-05
0.000624241 3.19639e-05 -1.78076e-06
3.19639e-05 1.45446e-06 1.82134e-06
-1.78076e-06 1.82134e-06 -4.82088e-05
0.00073005 -7.09604e-05 1.63615e-06
-7.09604e-05 8.74724e-05 -1.05356e-06
1.63615e-06 -1.05356e-06 7.97196e-06
0.00066438 -1.62359e-06 -2.76955e-07
-1.62359e-06 2.25214e-05 2.29653e-08
-2.76955e-07 2.29653e-08 -2.55454e-05
0.00136188 3.44141e-05 -7.04449e-06
3.44141e-05 0.000419772 5.28655e-06
-7.04449e-06 5.28655e-06 0.000408478
0.000641764 -2.1175e-05 1.85031e-06
-2.1175e-05 1.41528e-05 -1.9898e-06
1.85031e-06 -1.9898e-06 -3.53459e-05
0.000973479 2.26433e-05 -3.40833e-06
2.26433e-05 0.000189875 7.13358e-07
-3.40833e-06 7.13358e-07 0.000177177
0.000793642 2.28581e-05 -6.33374e-07
2.28581e-05 8.66792e-05 2.01651e-06
-6.33374e-07 2.01651e-06 9.4063e-05
0.000574607 1.17967e-05 4.67186e-07
1.17967e-05 -4.59971e-05 -3.77976e-06
4.67186e-07 -3.77976e-06 -6.02204e-05
0.0015563 2.217e-05 5.39681e-06
2.217e-05 0.000532615 -1.47753e-06
5.39681e-06 -1.47753e-06 0.000544707
0.00233149 1.54564e-05 4.07373e-06
1.54564e-05 0.000988143 -5.09004e-06
4.07373e-06 -5.09004e-06 0.00100433
0.000734695 1.39785e-06 1.0031e-06
1.39785e-06 9.06269e-05 -1.37803e-06
1.0031e-06 -1.37803e-06 1.29555e-05
0.000666401 2.28534e-05 -5.95406e-07
2.28534e-05 2.93055e-05 -2.0846e-06
-5.95406e-07 -2.0846e-06 -1.17786e-05
0.000728133 -2.36918e-06 9.96939e-07
-2.36918e-06 9.29301e-05 2.29252e-07
9.96939e-07 2.29252e-07 1.76995e-05
0.000611324 -3.41495e-06 1.1454e-07
-3.41495e-06 -2.88793e-05 -3.53221e-06
1.1454e-07 -3.53221e-06 -3.58501e-05
0.000631462 1.81656e-05 5.25367e-08
1.81656e-05 9.93861e-06 -1.33258e-08
5.25367e-08 -1.33258e-08 -2.89006e-05
0.000671557 -8.03084e-05 -3.28634e-06
-8.03084e-05 6.08739e-05 1.75422e-06
-3.28634e-06 1.75422e-06 -1.21099e-05
0.00203966 7.50243e-07 -1.2579e-06
7.50243e-07 0.000815325 -4.73942e-06
-1.2579e-06 -4.73942e-06 0.000834993
0.000607779 2.39756e-06 -1.63453e-07
2.39756e-06 -3.0943e-05 -8.31643e-09
-1.63453e-07 -8.31643e-09 -3.71824e-05
0.000617548 -1.74376e-05 -1.24784e-06
-1.74376e-05 2.42733e-07 1.6963e-06
-1.24784e-06 1.6963e-06 -3.67181e-05
0.000592072 7.86538e-06 -3.5273e-07
7.86538e-06 -3.98479e-05 3.31918e-06
-3.5273e-07 3.31918e-06 -4.6056e-05
0.0020472 1.42437e-05 -3.59e-06
1.42437e-05 0.00082121 -4.29977e-08
-3.59e-06 -4.29977e-08 0.000840506
0.00203966 2.57281e-05 -1.00889e-05
2.57281e-05 0.000819145 4.38424e-06
-1.00889e-05 4.38424e-06 0.000837852
-0.00359259 -0.000250308 -3.94924e-05
-0.000250308 0.00106485 1.43234e-05
-3.94924e-05 1.43234e-05 -0.000816254
-0.0010087 0.000421252 -6.02318e-05
0.000421252 -0.000475101 1.4507e-05
-6.02318e-05 1.4507e-05 -0.000930489
0.00352802 -0.000282316 -0.000194303
-0.000282316 0.00106726 0.000147261
-0.000194303 0.000147261 -0.000946201
-0.00280495 0.000139518 0.000277258
0.000139518 0.00146526 -0.000122255
0.000277258 -0.000122255 0.000258305
0.000865687 0.000205814 -4.78881e-05
0.000205814 -0.00087607 1.05319e-05
-4.78881e-05 1.05319e-05 -0.000971016
0.00232348 -0.000146212 9.77469e-05
-0.000146212 8.8679e-05 -9.85505e-06
9.77469e-05 -9.85505e-06 6.93421e-05
0.00152408 -0.000408693 -5.379e-05
-0.000408693 -0.00169292 -5.48574e-05
-5.379e-05 -5.48574e-05 -0.00293685
0.00901841 0.000885629 -8.23459e-05
0.000885629 0.00443151 -1.93703e-05
-8.23459e-05 -1.93703e-05 0.00395823
-0.00757354 0.00185514 -0.000470333
0.00185514 -0.00377652 0.000365855
-0.000470333 0.000365855 -0.00188028
0.00254862 -7.53889e-05 -9.07208e-06
-7.53889e-05 -0.000224835 -4.89837e-06
-9.07208e-06 -4.89837e-06 -0.00038802
0.00436571 -0.000311509 4.02194e-05
-0.000311509 -5.80344e-05 -5.23983e-05
4.02194e-05 -5.23983e-05 -0.00207311
0.00961221 0.00164955 -6.07287e-05
0.00164955 0.0030449 -6.79156e-05
-6.07287e-05 -6.79156e-05 0.00364438
0.00279526 0.00114569 -5.99748e-05
0.00114569 -0.00133334 0.000142558
-5.99748e-05 0.000142558 -0.000877613
0.00261816 -0.000587344 -6.00364e-05
-0.000587344 -0.000553052 1.75266e-05
-6.00364e-05 1.75266e-05 -0.000733183
0.00267029 -0.000729163 0.00017133
-0.000729163 0.00026113 -0.000117411
0.00017133 -0.000117411 -0.00284554
-0.00498695 0.000805515 -5.7637e-05
0.000805515 -0.00440522 -0.000275215
-5.7637e-05 -0.000275215 -0.00441296
0.00271807 0.000706477 -5.75838e-05
0.000706477 -0.00290507 -5.27379e-07
-5.75838e-05 -5.27379e-07 -0.00174096
0.000841532 -1.45129e-05 7.0178e-07
-1.45129e-05 0.000192877 1.05471e-06
7.0178e-07 1.05471e-06 6.03267e-05
0.000717686 5.9804e-05 -1.80152e-06
5.9804e-05 0.000114204 -9.59377e-07
-1.80152e-06 -9.59377e-07 -1.28992e-06
0.000667081 5.64616e-05 6.24367e-08
5.64616e-05 6.24409e-05 -1.05803e-06
6.24367e-08 -1.05803e-06 -2.0755e-05
0.00065164 6.64584e-05 2.7239e-06
6.64584e-05 7.95568e-05 1.50077e-06
2.7239e-06 1.50077e-06 -2.66319e-05
0.000677016 3.84155e-05 6.46198e-08
3.84155e-05 8.34396e-05 5.90593e-07
6.46198e-08 5.90593e-07 -5.08713e-05
0.000815205 7.50234e-05 1.42216e-07
7.50234e-05 0.000168755 1.09119e-06
1.42216e-07 1.09119e-06 4.90028e-05
0.000664402 2.10438e-05 -8.75024e-07
2.10438e-05 7.4107e-05 1.37632e-06
-8.75024e-07 1.37632e-06 -3.25011e-05
0.000890277 0.000115427 4.31269e-07
0.000115427 0.00021443 7.06285e-07
4.31269e-07 7.06285e-07 8.90284e-05
0.000842288 6.6727e-05 -1.59088e-07
6.6727e-05 0.000184724 4.65992e-07
-1.59088e-07 4.65992e-07 6.76593e-05
0.000567642 -5.06477e-06 -2.16115e-06
-5.06477e-06 1.93745e-05 -2.12088e-07
-2.16115e-06 -2.12088e-07 -8.56929e-05
0.00101773 -0.000204505 3.48652e-05
-0.000204505 -0.000421484 -1.56297e-05
3.48652e-05 -1.56297e-05 -0.000389769
0.000880323 -0.000397882 2.92473e-05
-0.000397882 -0.000468683 -5.01888e-06
2.92473e-05 -5.01888e-06 -0.000487619
0.00155484 -0.00052927 1.63035e-05
-0.00052927 9.14265e-05 -1.70063e-06
1.63035e-05 -1.70063e-06 -7.29761e-05
0.00075217 -0.000384352 8.20669e-06
-0.000384352 3.45393e-05 -1.51375e-05
8.20669e-06 -1.51375e-05 -0.000255065
0.00163052 -0.000142455 -1.32164e-06
-0.000142455 0.000734661 1.23501e-05
-1.32164e-06 1.23501e-05 0.000470885
0.000667156 -8.73727e-05 -1.10091e-06
-8.73727e-05 0.000120633 3.89091e-06
-1.10091e-06 3.89091e-06 -3.59175e-05
0.000594969 6.99388e-05 -4.38157e-07
6.99388e-05 5.13691e-05 -1.4187e-06
-4.38157e-07 -1.4187e-06 -8.65048e-05
0.000760772 -5.08246e-05 -5.02665e-07
-5.08246e-05 0.000148729 1.75505e-06
-5.02665e-07 1.75505e-06 5.6075e-06
0.00151805 -0.000293047 -1.41864e-06
-0.000293047 0.000119415 -3.8512e-07
-1.41864e-06 -3.8512e-07 -3.7459e-05
0.000788724 -9.8672e-06 1.8249e-07
-9.8672e-06 0.000173256 6.34021e-07
1.8249e-07 6.34021e-07 2.23257e-05
0.00133561 -0.000119864 -5.44248e-08
-0.000119864 0.000559328 1.22517e-07
-5.44248e-08 1.22517e-07 0.000333779
0.00121712 -0.000376655 -1.40384e-06
-0.000376655 -2.69316e-05 -1.02732e-06
-1.40384e-06 -1.02732e-06 -6.74057e-05
0.000852178 -0.000256105 -1.50554e-05
-0.000256105 0.000252371 4.95131e-06
-1.50554e-05 4.95131e-06 -2.50094e-05
0.000240228 -0.000409747 -1.41158e-05
-0.000409747 -0.00059156 -2.17683e-05
-1.41158e-05 -2.17683e-05 -0.000568232
0.000956788 -0.000193726 -2.03067e-05
-0.000193726 0.000293076 2.30544e-05
-2.03067e-05 2.30544e-05 0.00019646
-0.000272723 -4.59006e-05 -3.32647e-06
-4.59006e-05 -0.000299181 2.70728e-05
-3.32647e-06 2.70728e-05 -0.000537697
0.000665582 5.01589e-06 -1.27723e-07
5.01589e-06 7.57137e-05 -1.45778e-06
-1.27723e-07 -1.45778e-06 -6.10998e-05
0.000602113 2.85622e-05 1.4602e-06
2.85622e-05 0.000137623 -4.58752e-06
1.4602e-06 -4.58752e-06 -6.70431e-05
0.00169813 -4.38742e-05 -1.53289e-05
-4.38742e-05 0.000892936 -5.45942e-06
-1.53289e-05 -5.45942e-06 -0.000452456
-0.0020285 6.61082e-05 -0.000106064
6.61082e-05 0.00227792 -5.02503e-06
-0.000106064 -5.02503e-06 0.000507309
-0.00900181 -0.000444259 -0.000278033
-0.000444259 -0.00471431 5.12671e-06
-0.000278033 5.12671e-06 -0.00459591
-0.000105249 8.48586e-05 5.54883e-06
8.48586e-05 -0.000277926 -2.16544e-06
5.54883e-06 -2.16544e-06 -0.000414624
0.000157743 0.000136491 2.47787e-06
0.000136491 -0.000113361 4.97397e-06
2.47787e-06 4.97397e-06 -0.000342796
0.00175034 0.000341459 1.68189e-05
0.000341459 0.000393186 3.99757e-06
1.68189e-05 3.99757e-06 0.000337208
-0.00347888 0.000305027 -2.46953e-05
0.000305027 0.00093377 1.05459e-05
-2.46953e-05 1.05459e-05 -0.0011186
0.00173152 0.000559917 -7.69086e-05
0.000559917 0.000154654 -7.24679e-05
-7.69086e-05 -7.24679e-05 -0.00289641
0.00293577 0.000969102 0.000120995
0.000969102 0.000371452 2.47816e-05
0.000120995 2.47816e-05 -0.000138239
0.000440097 0.000291209 7.5288e-06
0.000291209 -3.66684e-05 -2.1798e-05
7.5288e-06 -2.1798e-05 -8.76851e-05
0.0115604 -0.00117997 1.48931e-05
-0.00117997 0.00341356 -8.84183e-05
1.48931e-05 -8.84183e-05 0.00322837
0.00373325 0.000278443 0.00011686
0.000278443 0.00168813 6.98416e-05
0.00011686 6.98416e-05 -0.000647288
0.0082857 -0.000860687 4.71539e-05
-0.000860687 0.0012439 7.5657e-06
4.71539e-05 7.5657e-06 0.00250181
0.00104867 0.000188379 3.39478e-06
0.000188379 0.000449067 -1.59383e-06
3.39478e-06 -1.59383e-06 0.000320575
0.00295978 3.59967e-05 6.63698e-06
3.59967e-05 0.001265 -5.18833e-06
6.63698e-06 -5.18833e-06 3.57038e-06
0.000612492 9.96631e-05 1.12256e-05
9.96631e-05 0.000191789 1.26838e-05
1.12256e-05 1.26838e-05 -0.00133705
-0.000235886 0.000177473 -7.64165e-06
0.000177473 -0.000140915 -1.3734e-06
-7.64165e-06 -1.3734e-06 -0.000329134
0.00247276 0.000552936 -6.70539e-05
0.000552936 0.000915339 -3.68491e-05
-6.70539e-05 -3.68491e-05 0.000189867
0.00254045 0.00134248 6.33545e-05
0.00134248 0.000751942 5.05079e-05
6.33545e-05 5.05079e-05 -0.0022904
0.00517427 0.000141038 -9.66858e-06
0.000141038 -0.00220957 -9.58346e-05
-9.66858e-06 -9.58346e-05 -0.000171005
0.00171185 -0.000922909 -2.61996e-05
-0.000922909 0.00016737 -3.25758e-05
-2.61996e-05 -3.25758e-05 -0.00114299
0.000803065 0.000132408 -7.78535e-06
0.000132408 0.000500351 -1.09474e-05
-7.78535e-06 -1.09474e-05 0.000355098
0.000790155 -5.96012e-05 -6.31735e-06
-5.96012e-05 0.000114708 -1.63335e-05
-6.31735e-06 -1.63335e-05 1.7357e-05
0.00253271 2.35654e-06 2.19365e-05
2.35654e-06 0.000323011 -7.24574e-05
2.19365e-05 -7.24574e-05 -0.000805646
0.00291008 0.000744871 6.43515e-05
0.000744871 -0.00276627 1.06478e-06
6.43515e-05 1.06478e-06 -0.00171264
-0.000780293 8.02151e-05 -4.91598e-06
8.02151e-05 -9.97014e-05 -1.82064e-05
-4.91598e-06 -1.82064e-05 -0.000558852
0.0101353 0.00101925 0.000113906
0.00101925 0.00483988 4.68554e-05
0.000113906 4.68554e-05 0.0014566
-0.00910008 -0.000300199 6.35928e-05
-0.000300199 -0.000894319 0.000159838
6.35928e-05 0.000159838 -0.00262739
0.00186234 0.000191623 1.56433e-05
0.000191623 0.00082573 7.06731e-06
1.56433e-05 7.06731e-06 0.000724667
0.000564251 0.000106181 -3.92206e-06
0.000106181 0.000184725 -8.44671e-08
-3.92206e-06 -8.44671e-08 4.59638e-05
0.000349422 7.96943e-05 -5.79818e-06
7.96943e-05 0.0002595 -4.50279e-07
-5.79818e-06 -4.50279e-07 9.62263e-05
0.000793223 0.000128856 9.78771e-07
0.000128856 0.000134071 1.11746e-06
9.78771e-07 1.11746e-06 7.56077e-06
0.000724062 5.23958e-05 8.30997e-07
5.23958e-05 8.58605e-05 1.34572e-06
8.30997e-07 1.34572e-06 -1.82012e-05
0.000778309 8.00522e-08 5.75731e-06
8.00522e-08 0.000286388 6.05276e-06
5.75731e-06 6.05276e-06 0.000157167
0.000696032 4.23196e-05 -1.87926e-07
4.23196e-05 7.53216e-05 -2.05338e-07
-1.87926e-07 -2.05338e-07 -3.94737e-05
0.000757714 -2.5481e-05 -6.94516e-07
-2.5481e-05 0.000224869 -1.41885e-06
-6.94516e-07 -1.41885e-06 0.000110007
0.000171917 2.22192e-05 7.5705e-06
2.22192e-05 8.27607e-05 3.11295e-06
7.5705e-06 3.11295e-06 -7.00228e-05
0.00106343 1.62544e-05 -1.07609e-05
1.62544e-05 0.000546184 -1.03746e-05
-1.07609e-05 -1.03746e-05 0.000460861
0.000150487 -3.35929e-05 -2.81676e-06
-3.35929e-05 -0.000144302 -7.45151e-06
-2.81676e-06 -7.45151e-06 -0.000249155
0.000616337 -3.41796e-05 1.53451e-06
-3.41796e-05 1.82803e-05 3.27629e-06
1.53451e-06 3.27629e-06 -7.4306e-05
0.000788214 2.18673e-05 -3.72876e-07
2.18673e-05 0.000131684 3.90838e-08
-3.72876e-07 3.90838e-08 3.24531e-05
0.000818986 -1.65219e-06 -4.53359e-06
-1.65219e-06 0.000135267 2.99942e-06
-4.53359e-06 2.99942e-06 4.90238e-05
0.000719173 -3.50818e-05 2.30401e-06
-3.50818e-05 0.000108821 2.59822e-07
2.30401e-06 2.59822e-07 3.01657e-05
0.000667959 4.00018e-06 -3.43911e-07
4.00018e-06 4.54912e-05 1.84473e-07
-3.43911e-07 1.84473e-07 -4.69301e-05
0.000748176 -7.97308e-05 2.72811e-06
-7.97308e-05 0.000112025 -3.00418e-07
2.72811e-06 -3.00418e-07 1.78038e-05
0.000485367 -7.33155e-05 -1.941e-06
-7.33155e-05 -9.08772e-05 -1.07835e-06
-1.941e-06 -1.07835e-06 -0.000174835
0.000208778 -0.000150578 7.09953e-06
-0.000150578 -0.000224236 -5.07361e-07
7.09953e-06 -5.07361e-07 -0.000392883
0.00102104 -6.69251e-05 -8.74137e-07
-6.69251e-05 0.000243686 9.76366e-07
-8.74137e-07 9.76366e-07 0.000139372
0.00107056 -0.000137959 -5.00749e-07
-0.000137959 0.000280565 2.24374e-06
-5.00749e-07 2.24374e-06 0.000134927
0.00038386 -0.000176983 -1.50083e-06
-0.000176983 -0.000175308 3.94146e-06
-1.50083e-06 3.94146e-06 -0.000375498
0.000781164 -0.000191901 -4.98858e-06
-0.000191901 5.82425e-05 -3.92842e-08
-4.98858e-06 -3.92842e-08 -0.000148299
0.000958024 -0.000161022 -1.85665e-06
-0.000161022 0.000262505 3.4028e-06
-1.85665e-06 3.4028e-06 9.58661e-05
0.000531667 -0.000157888 1.35515e-06
-0.000157888 -4.69515e-05 7.30462e-08
1.35515e-06 7.30462e-08 -0.000244486
0.000842684 -5.50434e-05 8.61785e-07
-5.50434e-05 0.000165859 1.42706e-07
8.61785e-07 1.42706e-07 5.51883e-05
0.00103597 -8.93686e-05 -1.26406e-06
-8.93686e-05 0.000297779 -6.37406e-07
-1.26406e-06 -6.37406e-07 0.000166614
0.000529258 -8.60959e-05 1.47136e-06
-8.60959e-05 1.74753e-05 -8.19015e-06
1.47136e-06 -8.19015e-06 -0.000125437
0.000963504 -8.28874e-06 -7.50863e-07
-8.28874e-06 0.000227985 -2.69487e-07
-7.50863e-07 -2.69487e-07 0.00012692
0.000526724 7.55444e-07 2.59063e-07
7.55444e-07 -1.51273e-05 -6.01959e-08
2.59063e-07 -6.01959e-08 -0.000112018
0.000642979 5.22709e-06 -3.59701e-07
5.22709e-06 3.25387e-05 6.70236e-07
-3.59701e-07 6.70236e-07 -4.46643e-05
0.000801088 -4.12628e-05 1.80776e-08
-4.12628e-05 0.000148642 2.52691e-07
1.80776e-08 2.52691e-07 4.59104e-05
0.000694571 -2.36771e-05 -2.25309e-07
-2.36771e-05 6.66809e-05 2.41984e-08
-2.25309e-07 2.41984e-08 -1.14121e-05
0.000626078 3.17306e-05 -8.33396e-07
3.17306e-05 6.78516e-06 1.8211e-06
-8.33396e-07 1.8211e-06 -4.55377e-05
0.000744195 -5.73582e-05 7.37317e-07
-5.73582e-05 9.96047e-05 -1.11508e-06
7.37317e-07 -1.11508e-06 1.8718e-05
0.000645143 2.32703e-05 -7.66085e-07
2.32703e-05 1.36178e-05 -4.05793e-08
-7.66085e-07 -4.05793e-08 -3.63918e-05
0.00132877 4.5769e-05 -8.07832e-06
4.5769e-05 0.00040409 3.54292e-06
-8.07832e-06 3.54292e-06 0.0003919
0.000670047 -1.40322e-05 2.12275e-06
-1.40322e-05 2.62456e-05 -2.02751e-06
2.12275e-06 -2.02751e-06 -2.22549e-05
0.000955674 3.1392e-05 -4.30421e-06
3.1392e-05 0.00018091 6.29785e-07
-4.30421e-06 6.29785e-07 0.000167843
0.000808919 3.10939e-05 -1.19586e-06
3.10939e-05 9.98815e-05 2.05441e-06
-1.19586e-06 2.05441e-06 0.000106207
0.000559156 1.84675e-05 7.67185e-07
1.84675e-05 -5.49219e-05 -3.9296e-06
7.67185e-07 -3.9296e-06 -6.92323e-05
0.00155921 3.30178e-05 7.30727e-06
3.30178e-05 0.000537784 -1.35073e-06
7.30727e-06 -1.35073e-06 0.00054886
0.00233072 2.92308e-05 7.9556e-06
2.92308e-05 0.000989953 -4.96081e-06
7.9556e-06 -4.96081e-06 0.00100549
0.000467396 3.02285e-06 5.05081e-07
3.02285e-06 -5.52449e-05 -1.4111e-06
5.05081e-07 -1.4111e-06 -0.000149844
0.000369486 1.0599e-07 -1.74889e-07
1.0599e-07 -0.000144348 -3.16212e-06
-1.74889e-07 -3.16212e-06 -0.000192623
0.000766548 1.26227e-05 9.04277e-08
1.26227e-05 0.000114458 9.48552e-08
9.04277e-08 9.48552e-08 3.30132e-05
0.000606255 -9.33604e-06 1.14943e-07
-9.33604e-06 -3.12364e-05 -3.71448e-06
1.14943e-07 -3.71448e-06 -3.99298e-05
0.000489528 5.30988e-06 9.29548e-07
5.30988e-06 -7.42802e-05 -4.91745e-08
9.29548e-07 -4.91745e-08 -0.000116591
0.000459792 -7.31695e-05 -8.99752e-07
-7.31695e-05 -6.20436e-05 1.38903e-06
-8.99752e-07 1.38903e-06 -0.000140039
0.00208665 -1.17451e-05 -5.62469e-06
-1.17451e-05 0.000843161 -4.79391e-06
-5.62469e-06 -4.79391e-06 0.000862329
0.000609435 -3.4021e-06 -1.19673e-07
-3.4021e-06 -2.99279e-05 -3.29112e-08
-1.19673e-07 -3.29112e-08 -3.68545e-05
0.000614544 -6.34485e-06 -1.24205e-06
-6.34485e-06 -4.59428e-07 1.91746e-06
-1.24205e-06 1.91746e-06 -3.88084e-05
0.00205163 2.04053e-06 -3.63884e-06
2.04053e-06 0.000822453 7.0854e-09
-3.63884e-06 7.0854e-09 0.000842071
0.000595797 2.28062e-06 -1.98671e-07
2.28062e-06 -3.77407e-05 3.36235e-06
-1.98671e-07 3.36235e-06 -4.39506e-05
0.00204748 1.55594e-05 -3.17312e-06
1.55594e-05 0.000821513 4.56634e-06
-3.17312e-06 4.56634e-06 0.000840752
0.000595421 -0.000130567 -8.06641e-05
-0.000130567 -0.000166665 2.66865e-05
-8.06641e-05 2.66865e-05 -0.00149112
0.00151075 0.00014502 -2.07117e-05
0.00014502 0.00294873 -1.02329e-05
-2.07117e-05 -1.02329e-05 0.00179528
0.00128552 -0.000322803 -0.000208571
-0.000322803 0.00188165 -4.58625e-06
-0.000208571 -4.58625e-06 0.00105194
0.000753411 6.96397e-05 8.7859e-07
6.96397e-05 0.000116215 3.30156e-07
8.7859e-07 3.30156e-07 -5.28086e-06
0.00366456 -0.000204377 -2.89278e-05
-0.000204377 0.00215935 8.59566e-05
-2.89278e-05 8.59566e-05 0.00109875
0.00336808 -0.000322692 -6.87065e-05
-0.000322692 0.00111094 7.78476e-06
-6.87065e-05 7.78476e-06 -0.00114803
0.00173037 0.000569758 0.000139195
0.000569758 0.00272889 -0.000138446
0.000139195 -0.000138446 0.00194861
0.00397602 -0.000202394 1.78373e-05
-0.000202394 0.00030664 -3.1019e-05
1.78373e-05 -3.1019e-05 4.85922e-05
0.0108298 -0.000225147 9.67994e-05
-0.000225147 0.00315684 -5.20698e-05
9.67994e-05 -5.20698e-05 0.00148455
-0.00292785 0.00125398 -0.000104892
0.00125398 -0.00374279 0.000123695
-0.000104892 0.000123695 -0.00292925
0.00493462 0.00126808 2.53005e-05
0.00126808 -1.15128e-05 4.2759e-05
2.53005e-05 4.2759e-05 0.000397541
0.00476776 -0.000716936 -8.33965e-05
-0.000716936 0.00032776 -2.97403e-08
-8.33965e-05 -2.97403e-08 -0.00020021
0.00987232 -0.000562836 5.42984e-05
-0.000562836 0.00377254 -1.42719e-05
5.42984e-05 -1.42719e-05 0.00169127
0.00592102 0.000858278 5.34367e-05
0.000858278 0.000363942 -9.82091e-05
5.34367e-05 -9.82091e-05 0.000154533
0.00480977 0.000655821 -1.29334e-05
0.000655821 -0.00156971 1.08408e-05
-1.29334e-05 1.08408e-05 -0.00053312
0.00455393 -0.00119181 8.38551e-06
-0.00119181 0.000648785 -3.13012e-06
8.38551e-06 -3.13012e-06 -0.000284638
0.0108034 -0.0010938 7.30122e-05
-0.0010938 0.00524368 -4.21699e-05
7.30122e-05 -4.21699e-05 0.00166086
0.00291022 -0.00017511 5.83336e-05
-0.00017511 7.63073e-05 -0.000151264
5.83336e-05 -0.000151264 -0.000211832
0.0064736 0.000285076 -2.81582e-05
0.000285076 -0.000768327 7.7198e-05
-2.81582e-05 7.7198e-05 0.000852953
0.000723487 -3.07713e-05 -7.50982e-09
-3.07713e-05 0.000114094 5.92482e-07
-7.50982e-09 5.92482e-07 -2.7353e-05
0.000742682 -4.44613e-05 2.61848e-07
-4.44613e-05 0.000138685 5.51393e-08
2.61848e-07 5.51393e-08 2.29119e-06
0.000824439 8.55901e-05 -9.82976e-07
8.55901e-05 0.000181772 -9.04936e-07
-9.82976e-07 -9.04936e-07 6.42803e-05
0.000737233 3.19871e-05 1.79229e-07
3.19871e-05 9.72375e-05 8.28813e-07
1.79229e-07 8.28813e-07 -2.22183e-05
0.000829918 8.39357e-05 -7.22659e-07
8.39357e-05 0.000177378 6.89762e-07
-7.22659e-07 6.89762e-07 4.27385e-05
0.000848684 6.23036e-05 -3.27643e-08
6.23036e-05 0.000187175 1.58149e-06
-3.27643e-08 1.58149e-06 6.96149e-05
0.000966363 0.000107792 -8.15473e-07
0.000107792 0.000255981 -1.87369e-08
-8.15473e-07 -1.87369e-08 0.000132031
0.000969562 0.000113129 7.84014e-07
0.000113129 0.000267906 2.3739e-06
7.84014e-07 2.3739e-06 0.000145995
0.000953734 -0.000221093 5.04959e-05
-0.000221093 -0.00024823 -1.76978e-05
5.04959e-05 -1.76978e-05 -0.000291047
0.0010665 -0.000366803 7.82958e-06
-0.000366803 -0.000134885 -1.5786e-05
7.82958e-06 -1.5786e-05 -0.000165695
0.000738441 -0.000150147 -1.26667e-06
-0.000150147 0.000142033 -1.60929e-07
-1.26667e-06 -1.60929e-07 -8.80047e-06
0.00241702 -0.000337835 1.24228e-05
-0.000337835 0.00109314 -2.5096e-05
1.24228e-05 -2.5096e-05 0.000827011
0.00201962 -0.000159177 -2.84046e-06
-0.000159177 0.000944784 6.94074e-06
-2.84046e-06 6.94074e-06 0.000715001
0.000925005 -5.99899e-05 -1.82505e-06
-5.99899e-05 0.000242433 -1.96423e-06
-1.82505e-06 -1.96423e-06 9.43575e-05
0.000756083 1.1132e-05 4.05866e-07
1.1132e-05 0.000139133 6.88163e-07
4.05866e-07 6.88163e-07 -3.98051e-06
0.000259081 -0.000418049 -1.00574e-05
-0.000418049 -0.000616568 -6.75907e-07
-1.00574e-05 -6.75907e-07 -0.000591394
0.00113017 4.43493e-05 1.08647e-07
4.43493e-05 0.000442424 1.86194e-06
1.08647e-07 1.86194e-06 0.000229818
0.0010495 -0.000140085 -8.92159e-06
-0.000140085 0.000408644 1.83075e-06
-8.92159e-06 1.83075e-06 0.000179085
0.000435411 -0.000157008 4.56407e-06
-0.000157008 -2.71988e-05 4.00377e-06
4.56407e-06 4.00377e-06 -7.77125e-05
0.000753954 3.79307e-05 1.55689e-06
3.79307e-05 0.00011521 -1.32641e-06
1.55689e-06 -1.32641e-06 -1.40021e-05
0.00138077 -0.000350671 1.45338e-05
-0.000350671 3.31672e-05 -3.34299e-05
1.45338e-05 -3.34299e-05 0.000209324
0.000179507 -0.000114149 -5.9887e-06
-0.000114149 8.76005e-05 2.87387e-05
-5.9887e-06 2.87387e-05 -1.46009e-05
0.000560659 5.36276e-06 -1.00139e-06
5.36276e-06 0.000221181 1.01249e-05
-1.00139e-06 1.01249e-05 -4.18416e-05
0.00137264 0.000184172 1.6333e-06
0.000184172 0.000538337 -3.09037e-06
1.6333e-06 -3.09037e-06 0.000365636
0.00084898 -3.44349e-05 -9.67202e-06
-3.44349e-05 0.000612741 -7.05927e-06
-9.67202e-06 -7.05927e-06 5.6795e-05
0.00138029 -5.51003e-05 6.76916e-05
-5.51003e-05 0.000769278 -5.8187e-06
6.76916e-05 -5.8187e-06 -0.000595371
-0.00438604 -5.85955e-05 -0.00012038
-5.85955e-05 0.00144963 6.11908e-06
-0.00012038 6.11908e-06 -0.000686765
0.000895492 0.000161896 1.32207e-05
0.000161896 0.000412718 9.04452e-07
1.32207e-05 9.04452e-07 0.000278365
-0.000899796 0.000233163 1.122e-05
0.000233163 -0.000522388 1.16554e-05
1.122e-05 1.16554e-05 -0.000767553
0.00319473 2.3556e-05 7.82967e-05
2.3556e-05 0.00159103 6.28779e-07
7.82967e-05 6.28779e-07 0.000489191
0.0077756 0.000528806 0.000129213
0.000528806 0.00350716 6.99163e-05
0.000129213 6.99163e-05 0.000348915
0.00301274 0.000683656 -9.13013e-05
0.000683656 0.00129105 -8.19917e-05
-9.13013e-05 -8.19917e-05 0.000273139
0.00396756 -0.000566766 -1.76133e-06
-0.000566766 0.0010424 -0.000164518
-1.76133e-06 -0.000164518 -0.000189967
0.00108902 0.000122047 4.04045e-05
0.000122047 0.000221288 0.000111441
4.04045e-05 0.000111441 -0.00129952
0.0039326 -1.22752e-05 -2.90823e-06
-1.22752e-05 -0.00365746 -9.22955e-05
-2.90823e-06 -9.22955e-05 -0.00112052
0.000688148 0.000152276 1.08596e-06
0.000152276 0.000429425 -1.57858e-06
1.08596e-06 -1.57858e-06 0.00026889
0.000759387 -5.89709e-05 7.7097e-07
-5.89709e-05 0.000131716 -5.21133e-06
7.7097e-07 -5.21133e-06 1.76705e-05
0.00272877 2.15182e-05 3.43978e-05
2.15182e-05 0.00057757 1.10148e-05
3.43978e-05 1.10148e-05 -0.000263228
-0.000950086 0.00012136 -8.36858e-06
0.00012136 -0.000366403 -5.21109e-06
-8.36858e-06 -5.21109e-06 -0.000738071
0.00509415 0.000752813 1.01314e-05
0.000752813 -0.00152828 -1.07603e-05
1.01314e-05 -1.07603e-05 -0.000509817
0.00519522 0.000872609 0.000101642
0.000872609 0.00283695 4.63346e-05
0.000101642 4.63346e-05 -0.000671096
0.00320938 0.000253488 -5.68424e-05
0.000253488 0.00220668 6.66258e-06
-5.68424e-05 6.66258e-06 0.00117371
0.000359849 0.000165797 -1.51181e-05
0.000165797 0.000296198 -1.59521e-05
-1.51181e-05 -1.59521e-05 6.76511e-05
0.00174881 4.73672e-05 2.32346e-06
4.73672e-05 -6.38573e-05 -1.79003e-05
2.32346e-06 -1.79003e-05 -1.47511e-05
0.00368217 -0.000163542 3.09117e-05
-0.000163542 0.00209989 -8.55796e-05
3.09117e-05 -8.55796e-05 0.00107886
0.00598329 0.00130126 0.000146956
0.00130126 0.000249829 -0.000102293
0.000146956 -0.000102293 0.000788946
0.0060667 -0.000135443 -7.79143e-05
-0.000135443 0.00114397 0.000143655
-7.79143e-05 0.000143655 0.00107213
0.000887797 0.000187269 -1.60924e-05
0.000187269 -3.15484e-05 -5.03588e-05
-1.60924e-05 -5.03588e-05 -6.8826e-05
-0.000547477 0.000836411 0.000115643
0.000836411 0.00239828 3.68546e-05
0.000115643 3.68546e-05 -0.00288343
0.000937285 0.00015194 2.46252e-06
0.00015194 0.00037094 6.49038e-06
2.46252e-06 6.49038e-06 0.000229083
0.000337846 8.90345e-05 4.10055e-06
8.90345e-05 0.000250906 1.96139e-06
4.10055e-06 1.96139e-06 8.50525e-05
0.00125811 3.86235e-05 -2.75295e-05
3.86235e-05 0.000826635 -1.80031e-05
-2.75295e-05 -1.80031e-05 0.000717848
0.000456495 -1.9847e-05 1.01762e-06
-1.9847e-05 -7.53137e-05 3.48531e-06
1.01762e-06 3.48531e-06 -0.00017879
0.000771209 -3.53399e-05 2.10953e-06
-3.53399e-05 0.000232666 4.54604e-06
2.10953e-06 4.54604e-06 0.000119167
6.1468e-05 -2.66818e-06 1.61947e-06
-2.66818e-06 7.98396e-06 4.2779e-06
1.61947e-06 4.2779e-06 -0.00014603
0.0006756 -6.01092e-05 7.84711e-07
-6.01092e-05 0.000142502 -5.48143e-07
7.84711e-07 -5.48143e-07 4.68243e-05
0.000136553 -9.94496e-06 2.48161e-06
-9.94496e-06 1.26153e-05 3.98195e-07
2.48161e-06 3.98195e-07 -7.72886e-05
0.00117258 -0.000179412 8.48023e-06
-0.000179412 0.000586552 -8.15748e-06
8.48023e-06 -8.15748e-06 0.00041793
0.00125837 -5.10368e-05 -1.93863e-06
-5.10368e-05 0.000414109 3.96446e-06
-1.93863e-06 3.96446e-06 0.000332335
0.000327352 1.97086e-05 -8.18479e-07
1.97086e-05 -0.000145033 1.45839e-06
-8.18479e-07 1.45839e-06 -0.000238076
0.00136544 -0.000127812 1.09845e-06
-0.000127812 0.000455947 2.02854e-06
1.09845e-06 2.02854e-06 0.000352813
-0.000104952 -0.000138144 4.84731e-06
-0.000138144 -0.000278789 1.11659e-06
4.84731e-06 1.11659e-06 -0.000497764
0.000426076 -5.2943e-05 -4.54255e-06
-5.2943e-05 -9.24359e-05 9.93897e-07
-4.54255e-06 9.93897e-07 -0.000164794
0.000107747 -0.000136711 1.7806e-06
-0.000136711 -0.000283811 -1.20485e-06
1.7806e-06 -1.20485e-06 -0.000438924
0.0010238 -0.000251511 1.00318e-05
-0.000251511 0.000181925 -1.31883e-06
1.00318e-05 -1.31883e-06 -4.83125e-05
0.00125745 -0.000286241 -3.38477e-06
-0.000286241 0.000172187 4.30711e-06
-3.38477e-06 4.30711e-06 -7.07024e-05
0.00165868 -0.000193893 -2.73976e-06
-0.000193893 0.000608454 3.08262e-07
-2.73976e-06 3.08262e-07 0.000452552
0.000736689 -0.000208816 -7.06741e-07
-0.000208816 6.99167e-06 1.48431e-07
-7.06741e-07 1.48431e-07 -0.000206938
0.00195126 -0.000306874 2.21832e-06
-0.000306874 0.000700446 -1.17114e-06
2.21832e-06 -1.17114e-06 0.000489269
0.00017271 -0.000109808 -2.11585e-06
-0.000109808 -0.000217179 9.18071e-07
-2.11585e-06 9.18071e-07 -0.000400815
0.000914221 -0.000200785 -2.85699e-07
-0.000200785 0.000139723 3.72911e-07
-2.85699e-07 3.72911e-07 -6.4573e-05
0.000570853 -5.08086e-05 1.09562e-07
-5.08086e-05 2.14866e-05 -1.95479e-07
1.09562e-07 -1.95479e-07 -0.000107947
0.00103627 -0.000175833 -3.52964e-06
-0.000175833 0.000309088 2.34009e-06
-3.52964e-06 2.34009e-06 0.000139484
-0.000100163 -9.6761e-05 -2.22551e-06
-9.6761e-05 -0.000406803 -2.73041e-06
-2.22551e-06 -2.73041e-06 -0.000593292
0.000641273 2.82755e-05 6.4497e-07
2.82755e-05 4.19839e-05 1.03875e-06
6.4497e-07 1.03875e-06 -4.88648e-05
0.000733662 -4.04844e-05 8.79907e-07
-4.04844e-05 0.000108128 -1.2355e-07
8.79907e-07 -1.2355e-07 -4.23911e-06
0.000841532 -8.45541e-05 2.58924e-06
-8.45541e-05 0.000194081 -2.7529e-06
2.58924e-06 -2.7529e-06 5.80168e-05
0.0006929 -9.02289e-06 2.94279e-07
-9.02289e-06 8.26473e-05 -1.70381e-07
2.94279e-07 -1.70381e-07 -1.59611e-05
0.000706695 -9.16266e-06 -5.97604e-07
-9.16266e-06 7.62196e-05 -1.33814e-07
-5.97604e-07 -1.33814e-07 -6.76248e-06
0.00062264 3.59105e-05 -9.72881e-07
3.59105e-05 8.24539e-06 2.02927e-06
-9.72881e-07 2.02927e-06 -4.73729e-05
0.000754037 -3.78025e-05 6.63853e-07
-3.78025e-05 0.000106843 -8.0759e-07
6.63853e-07 -8.0759e-07 2.4014e-05
0.00064441 2.77431e-05 -5.96465e-07
2.77431e-05 1.61384e-05 -8.0095e-08
-5.96465e-07 -8.0095e-08 -3.56507e-05
0.000584591 4.31324e-05 -1.08287e-06
4.31324e-05 -2.79114e-05 3.9476e-06
-1.08287e-06 3.9476e-06 -4.58129e-05
0.000693894 -4.45198e-06 2.06623e-06
-4.45198e-06 3.88888e-05 -1.92512e-06
2.06623e-06 -1.92512e-06 -9.49432e-06
0.000586085 3.48212e-05 1.45056e-07
3.48212e-05 -3.37133e-05 1.03223e-08
1.45056e-07 1.03223e-08 -4.95164e-05
0.00221174 6.99502e-05 -4.19538e-06
6.99502e-05 0.000933148 1.83392e-06
-4.19538e-06 1.83392e-06 0.000944251
0.000558629 2.68072e-05 8.92544e-07
2.68072e-05 -5.31599e-05 -3.98442e-06
8.92544e-07 -3.98442e-06 -6.80388e-05
0.00155224 4.35008e-05 8.76489e-06
4.35008e-05 0.000538314 -1.16759e-06
8.76489e-06 -1.16759e-06 0.000548173
0.00232358 4.23741e-05 1.23184e-05
4.23741e-05 0.000989344 -4.73132e-06
1.23184e-05 -4.73132e-06 0.00100387
0.000444737 -1.86362e-06 3.09493e-07
-1.86362e-06 -7.97348e-05 -1.80973e-06
3.09493e-07 -1.80973e-06 -0.000171708
0.000361448 -2.62712e-06 -1.83511e-08
-2.62712e-06 -0.000150217 -2.93365e-06
-1.83511e-08 -2.93365e-06 -0.000204446
0.000611027 1.34525e-05 -4.35929e-07
1.34525e-05 2.73255e-05 -9.42313e-07
-4.35929e-07 -9.42313e-07 -6.49592e-05
0.000603789 -1.54638e-05 1.32493e-07
-1.54638e-05 -3.10515e-05 -3.91298e-06
1.32493e-07 -3.91298e-06 -4.23431e-05
0.00034264 -5.46875e-07 -3.39619e-07
-5.46875e-07 -0.000160078 -1.07163e-06
-3.39619e-07 -1.07163e-06 -0.000209132
0.000779091 2.2688e-05 -1.48087e-07
2.2688e-05 0.000129803 1.65553e-06
-1.48087e-07 1.65553e-06 4.32125e-05
0.00215183 -2.44414e-05 -1.00403e-05
-2.44414e-05 0.000882833 -4.77379e-06
-1.00403e-05 -4.77379e-06 0.000900867
0.000602539 -9.40022e-06 -1.73566e-07
-9.40022e-06 -3.33763e-05 -4.63186e-08
-1.73566e-07 -4.63186e-08 -4.19621e-05
0.000321468 3.61689e-07 5.68562e-07
3.61689e-07 -0.000171676 2.03789e-06
5.68562e-07 2.03789e-06 -0.000215913
0.00207607 -1.03861e-05 -3.47442e-06
-1.03861e-05 0.000836719 4.2637e-08
-3.47442e-06 4.2637e-08 0.000856061
0.000603825 -3.39699e-06 -1.27433e-07
-3.39699e-06 -3.31403e-05 3.48136e-06
-1.27433e-07 3.48136e-06 -4.0001e-05
0.00206402 3.35131e-06 1.32189e-06
3.35131e-06 0.000829821 4.68534e-06
1.32189e-06 4.68534e-06 0.000849348
0.000991128 4.49046e-06 1.59035e-06
4.49046e-06 0.000454476 1.26097e-05
1.59035e-06 1.26097e-05 0.000214116
0.00113594 -9.97829e-05 6.63992e-06
-9.97829e-05 0.000165429 -7.79045e-06
6.63992e-06 -7.79045e-06 -0.00116257
0.00182873 7.39898e-05 2.64932e-05
7.39898e-05 0.00309267 -3.36972e-05
2.64932e-05 -3.36972e-05 0.00210195
0.000773528 7.62641e-05 -1.82484e-07
7.62641e-05 0.000121644 3.26846e-07
-1.82484e-07 3.26846e-07 6.77867e-06
0.000610052 4.86165e-05 7.98442e-07
4.86165e-05 1.08848e-05 3.65911e-08
7.98442e-07 3.65911e-08 -9.5684e-05
0.000934804 0.000106414 1.11538e-06
0.000106414 0.000213428 2.04295e-06
1.11538e-06 2.04295e-06 9.0746e-05
0.00241148 -5.29672e-05 8.71931e-06
-5.29672e-05 0.000217466 0.000140508
8.71931e-06 0.000140508 -0.000831014
0.00320843 -0.000171616 -3.5745e-08
-0.000171616 0.002034 1.68637e-07
-3.5745e-08 1.68637e-07 0.000885533
0.00350817 -0.000361628 5.41661e-05
-0.000361628 0.00134015 -0.000107685
5.41661e-05 -0.000107685 -0.00115776
0.00537962 -0.000805739 -6.88421e-05
-0.000805739 0.00083568 2.38797e-07
-6.88421e-05 2.38797e-07 0.000272829
0.00223086 -0.000665926 -0.000100879
-0.000665926 0.000220503 7.27298e-05
-0.000100879 7.27298e-05 -0.00232326
0.00973907 0.0012111 8.77662e-05
0.0012111 0.00323017 4.87251e-05
8.77662e-05 4.87251e-05 0.00278493
0.00235624 0.000213926 4.1854e-05
0.000213926 -0.00301489 -7.13205e-05
4.1854e-05 -7.13205e-05 -0.00198669
0.00528619 -0.00123199 -1.63398e-05
-0.00123199 0.00127392 3.34295e-06
-1.63398e-05 3.34295e-06 0.00052581
0.0066663 -0.000925442 -6.26069e-06
-0.000925442 0.00304454 1.81697e-05
-6.26069e-06 1.81697e-05 -9.62636e-05
-0.00257015 0.00076637 -2.33646e-05
0.00076637 -0.000295153 -9.64074e-05
-2.33646e-05 -9.64074e-05 -0.00181142
0.00507619 4.6737e-05 -1.36464e-05
4.6737e-05 -0.00225649 3.87956e-05
-1.36464e-05 3.87956e-05 -0.00016084
0.00221324 -0.00081035 -4.07916e-05
-0.00081035 0.000321441 -1.87821e-05
-4.07916e-05 -1.87821e-05 -0.000331926
0.011085 -0.00119026 -3.80552e-05
-0.00119026 0.00503788 4.59386e-05
-3.80552e-05 4.59386e-05 0.00134368
-0.0092452 -9.23356e-05 4.56963e-05
-9.23356e-05 -0.000737765 -0.000176949
4.56963e-05 -0.000176949 -0.0026934
0.00358723 -0.000716091 1.89296e-05
-0.000716091 -0.00191311 -2.61855e-05
1.89296e-05 -2.61855e-05 -0.000672611
0.000743146 4.01472e-05 -4.74356e-07
4.01472e-05 0.000101266 4.03189e-06
-4.74356e-07 4.03189e-06 -3.02095e-05
0.000645224 6.02214e-06 2.09861e-07
6.02214e-06 6.81939e-05 -4.99878e-07
2.09861e-07 -4.99878e-07 -7.34275e-05
0.000759285 -6.41126e-05 6.12871e-07
-6.41126e-05 0.00014834 -6.38326e-07
6.12871e-07 -6.38326e-07 8.12799e-06
0.000744754 5.41496e-05 -5.28436e-07
5.41496e-05 0.000101963 -6.98327e-07
-5.28436e-07 -6.98327e-07 -2.01803e-05
0.000873442 0.000118243 1.03175e-06
0.000118243 0.000204565 6.35194e-07
1.03175e-06 6.35194e-07 7.27382e-05
0.00104957 0.000120228 -1.23804e-06
0.000120228 0.000306799 9.478e-08
-1.23804e-06 9.478e-08 0.000181055
0.000247783 -0.0004182 1.92469e-05
-0.0004182 -0.000636778 7.755e-06
1.92469e-05 7.755e-06 -0.000649332
-0.000643727 -0.000105696 1.89551e-05
-0.000105696 -0.000631619 -2.12914e-05
1.89551e-05 -2.12914e-05 -0.000643147
0.000869326 5.98395e-05 -1.10193e-06
5.98395e-05 0.000212788 -1.02154e-06
-1.10193e-06 -1.02154e-06 6.41039e-05
0.00160903 -0.000190691 2.72266e-05
-0.000190691 0.000677411 -3.25715e-05
2.72266e-05 -3.25715e-05 0.000457575
0.00142481 1.96041e-05 -2.28713e-06
1.96041e-05 0.000603336 7.47933e-07
-2.28713e-06 7.47933e-07 0.000389436
0.000665443 2.45297e-05 -1.95055e-07
2.45297e-05 6.63957e-05 1.11717e-06
-1.95055e-07 1.11717e-06 -6.76826e-05
0.000595596 9.611e-05 3.81433e-07
9.611e-05 8.91334e-05 -3.30242e-07
3.81433e-07 -3.30242e-07 -6.94041e-05
0.0002648 -0.000366423 -2.76108e-06
-0.000366423 -0.000528845 -2.96166e-06
-2.76108e-06 -2.96166e-06 -0.000510839
0.00076428 -1.95458e-05 2.83943e-06
-1.95458e-05 0.000320551 -1.25929e-06
2.83943e-06 -1.25929e-06 8.18351e-05
0.000601406 -7.46063e-05 2.06479e-05
-7.46063e-05 0.000342285 -5.91191e-07
2.06479e-05 -5.91191e-07 0.000228639
0.000862358 6.89617e-05 3.0538e-06
6.89617e-05 0.000191055 -7.36153e-06
3.0538e-06 -7.36153e-06 6.57224e-05
-0.00255841 0.00014449 -7.30943e-05
0.00014449 -0.00111222 -1.29631e-05
-7.30943e-05 -1.29631e-05 -0.00149526
-3.09185e-05 1.01214e-05 8.68042e-06
1.01214e-05 -5.20314e-06 3.32712e-05
8.68042e-06 3.32712e-05 -0.000124319
0.00133553 3.46409e-06 3.51375e-06
3.46409e-06 0.000626584 1.87179e-06
3.51375e-06 1.87179e-06 0.000433691
0.000966223 -3.02531e-05 -1.88584e-07
-3.02531e-05 -5.0999e-05 5.3986e-07
-1.88584e-07 5.3986e-07 -0.000543251
0.000674348 -2.74956e-05 -1.55683e-05
-2.74956e-05 0.000472023 -8.51563e-06
-1.55683e-05 -8.51563e-06 -3.47042e-06
0.00100981 -3.6273e-05 0.000154107
-3.6273e-05 0.00063324 -6.36887e-06
0.000154107 -6.36887e-06 -0.000760057
0.000609338 0.000172406 1.22491e-05
0.000172406 0.000362601 1.31412e-05
1.22491e-05 1.31412e-05 0.000192086
0.00154372 0.000400611 8.89828e-06
0.000400611 0.000473305 -1.29034e-05
8.89828e-06 -1.29034e-05 0.000225969
0.000800722 -5.90365e-05 7.19275e-06
-5.90365e-05 0.000171542 4.94761e-06
7.19275e-06 4.94761e-06 3.90721e-05
-0.00227639 0.000478167 3.94617e-05
0.000478167 9.59351e-05 4.76277e-05
3.94617e-05 4.76277e-05 -0.00346033
-0.0104929 0.000338554 -6.72933e-05
0.000338554 -0.00370051 -0.000195788
-6.72933e-05 -0.000195788 -0.00562499
0.00266238 3.1878e-05 3.55503e-05
3.1878e-05 0.000777903 5.91506e-05
3.55503e-05 5.91506e-05 0.000129186
0.00247989 0.000337433 -4.84872e-05
0.000337433 -0.00294197 6.98244e-05
-4.84872e-05 6.98244e-05 -0.00196947
0.000497176 0.000155369 6.90459e-06
0.000155369 0.00036407 -2.12266e-06
6.90459e-06 -2.12266e-06 0.000165033
0.00159531 -4.46845e-06 1.0917e-05
-4.46845e-06 -0.000166064 -1.83717e-05
1.0917e-05 -1.83717e-05 -5.80592e-05
0.0032547 -0.000123577 -8.01802e-07
-0.000123577 0.00198929 -3.75827e-07
-8.01802e-07 -3.75827e-07 0.000862067
0.0013608 0.0002085 -2.81638e-05
0.0002085 0.000395031 -3.25713e-06
-2.81638e-05 -3.25713e-06 -8.82354e-05
0.00297834 0.00119827 5.61654e-05
0.00119827 -0.00147896 -0.000140829
5.61654e-05 -0.000140829 -0.000825496
-0.00237174 0.000725264 2.02436e-05
0.000725264 -0.00098501 9.49747e-05
2.02436e-05 9.49747e-05 -0.00203903
0.00673724 8.79825e-06 6.20698e-05
8.79825e-06 0.00508246 -2.45215e-05
6.20698e-05 -2.45215e-05 0.000153099
0.00184442 -4.19656e-05 4.26679e-05
-4.19656e-05 0.00137391 -1.95003e-05
4.26679e-05 -1.95003e-05 0.000995721
0.00108979 3.57995e-05 -7.48207e-06
3.57995e-05 0.000467214 -1.22472e-05
-7.48207e-06 -1.22472e-05 0.000230065
0.00351775 -0.000234798 0.000196318
-0.000234798 0.000983132 -0.000148836
0.000196318 -0.000148836 -0.000977358
0.00427064 0.00161938 -6.1761e-07
0.00161938 0.00290728 -1.58965e-05
-6.1761e-07 -1.58965e-05 0.00371373
-0.00463857 0.000801967 4.11504e-05
0.000801967 -0.00447209 0.000266906
4.11504e-05 0.000266906 -0.00445462
0.0125834 -0.00109599 0.000107279
-0.00109599 0.00518601 -9.85371e-05
0.000107279 -9.85371e-05 0.0015867
0.00383064 -0.00039444 -7.96466e-05
-0.00039444 0.00129305 8.78225e-05
-7.96466e-05 8.78225e-05 0.00111424
0.000810543 0.000120394 6.48142e-06
0.000120394 0.000514338 5.73957e-06
6.48142e-06 5.73957e-06 0.00034202
-8.8838e-05 7.84549e-06 -1.28974e-05
7.84549e-06 7.02662e-05 2.01919e-06
-1.28974e-05 2.01919e-06 -7.15382e-05
0.00128676 -0.000254571 1.5351e-05
-0.000254571 0.000830017 -1.2305e-05
1.5351e-05 -1.2305e-05 0.000566767
0.00107126 -7.42714e-05 1.19828e-06
-7.42714e-05 0.000358315 2.92491e-06
1.19828e-06 2.92491e-06 0.000270126
-0.000391505 -2.88314e-05 5.14528e-06
-2.88314e-05 -0.000287702 1.13272e-05
5.14528e-06 1.13272e-05 -0.000385804
0.000156743 -0.000159555 -1.22815e-06
-0.000159555 4.8567e-05 -4.01128e-07
-1.22815e-06 -4.01128e-07 -0.00011171
0.0013652 -0.000277096 2.47938e-05
-0.000277096 0.000623944 -1.56822e-05
2.47938e-05 -1.56822e-05 0.000342422
0.00213912 -0.000179729 -4.89022e-06
-0.000179729 0.000889652 4.20622e-06
-4.89022e-06 4.20622e-06 0.000776731
0.00178598 -0.000310468 2.05477e-06
-0.000310468 0.000716146 -7.64389e-08
2.05477e-06 -7.64389e-08 0.000484185
0.0012468 -0.000293881 9.0652e-06
-0.000293881 0.000442915 1.93903e-06
9.0652e-06 1.93903e-06 6.59437e-05
8.60694e-05 -0.000118523 -1.96788e-06
-0.000118523 -0.00030014 2.8708e-07
-1.96788e-06 2.8708e-07 -0.000439399
0.0013263 -0.000276465 -2.00739e-07
-0.000276465 0.000320697 1.34337e-06
-2.00739e-07 1.34337e-06 7.79345e-05
0.0020552 -0.000394686 7.78684e-07
-0.000394686 0.000636915 2.53402e-06
7.78684e-07 2.53402e-06 0.000313995
0.00175184 -0.00038053 -2.80761e-06
-0.00038053 0.000342921 2.7259e-06
-2.80761e-06 2.7259e-06 6.87293e-05
0.000639154 -0.00021982 3.17513e-07
-0.00021982 -0.00014254 5.96827e-06
3.17513e-07 5.96827e-06 -0.000359069
0.00133187 -0.000295233 -3.01911e-06
-0.000295233 0.000214595 1.84035e-06
-3.01911e-06 1.84035e-06 -3.33804e-05
0.00104269 -0.000236687 -7.16581e-06
-0.000236687 0.000161502 2.57675e-06
-7.16581e-06 2.57675e-06 -6.54446e-05
0.00173287 -0.000278576 4.93423e-06
-0.000278576 0.000607867 -1.92413e-06
4.93423e-06 -1.92413e-06 0.000405243
0.00133973 -0.00025035 2.64824e-06
-0.00025035 0.000351878 -2.79247e-06
2.64824e-06 -2.79247e-06 0.000155852
9.27594e-05 -5.20937e-05 1.45411e-06
-5.20937e-05 -0.000258388 3.35542e-07
1.45411e-06 3.35542e-07 -0.000417365
0.000760479 -0.00016533 1.62678e-06
-0.00016533 0.000125915 -8.38008e-07
1.62678e-06 -8.38008e-07 -6.38098e-05
0.00108582 -0.000213125 5.82509e-06
-0.000213125 0.000243599 -4.36168e-06
5.82509e-06 -4.36168e-06 4.12596e-05
0.000610557 3.0893e-05 1.51412e-06
3.0893e-05 3.27757e-05 1.71293e-06
1.51412e-06 1.71293e-06 -7.60317e-05
0.000880282 -8.15289e-05 -3.89805e-07
-8.15289e-05 0.000206149 4.11191e-07
-3.89805e-07 4.11191e-07 6.87886e-05
0.00107366 -0.000187584 -7.06136e-07
-0.000187584 0.00033269 -5.51783e-07
-7.06136e-07 -5.51783e-07 0.000160585
0.00060506 2.79188e-05 -1.12599e-06
2.79188e-05 1.39539e-06 2.19209e-06
-1.12599e-06 2.19209e-06 -5.92549e-05
0.000721316 -3.30078e-06 -6.94951e-07
-3.30078e-06 8.60624e-05 -2.75748e-07
-6.94951e-07 -2.75748e-07 -5.50816e-06
0.000626503 -2.44114e-05 -1.16294e-08
-2.44114e-05 5.19709e-05 -3.42113e-07
-1.16294e-08 -3.42113e-07 -6.25245e-05
0.000765073 -2.83686e-05 5.02427e-07
-2.83686e-05 0.000112482 -1.07781e-06
5.02427e-07 -1.07781e-06 2.66683e-05
0.000654925 1.49882e-05 -2.77914e-07
1.49882e-05 2.42652e-05 -1.1094e-07
-2.77914e-07 -1.1094e-07 -2.99894e-05
0.000566733 5.17412e-05 -7.34942e-07
5.17412e-05 -2.90596e-05 4.29431e-06
-7.34942e-07 4.29431e-06 -5.04583e-05
0.000671285 4.94003e-06 1.90913e-06
4.94003e-06 2.88387e-05 -1.84265e-06
1.90913e-06 -1.84265e-06 -2.13719e-05
0.000586746 4.45311e-05 -6.6314e-08
4.45311e-05 -2.64629e-05 -2.28435e-08
-6.6314e-08 -2.28435e-08 -4.45617e-05
0.00225794 7.67182e-05 -2.38017e-05
7.67182e-05 0.000967933 3.79153e-06
-2.38017e-05 3.79153e-06 0.000977652
0.000574221 3.55876e-05 9.62229e-07
3.55876e-05 -4.06075e-05 -3.92672e-06
9.62229e-07 -3.92672e-06 -5.64563e-05
0.00153057 5.41439e-05 1.04859e-05
5.41439e-05 0.000531964 -1.01988e-06
1.04859e-05 -1.01988e-06 0.000540181
0.00231893 5.54564e-05 1.62119e-05
5.54564e-05 0.000991671 -4.39908e-06
1.62119e-05 -4.39908e-06 0.00100476
0.000706662 5.72164e-05 -1.10931e-07
5.72164e-05 7.48277e-05 -9.43624e-07
-1.10931e-07 -9.43624e-07 -2.12301e-05
0.000648099 1.69073e-05 -5.46736e-07
1.69073e-05 1.52306e-05 -2.35466e-06
-5.46736e-07 -2.35466e-06 -4.11792e-05
0.000585114 3.48802e-05 -1.10154e-06
3.48802e-05 1.14283e-05 -9.56767e-07
-1.10154e-06 -9.56767e-07 -8.66297e-05
0.000590443 -2.19977e-05 3.0626e-07
-2.19977e-05 -3.63452e-05 -4.2381e-06
3.0626e-07 -4.2381e-06 -5.0853e-05
0.000477142 1.03539e-05 -1.20112e-06
1.03539e-05 -8.26991e-05 -1.08456e-06
-1.20112e-06 -1.08456e-06 -0.000135703
0.000796093 3.51538e-05 9.75779e-08
3.51538e-05 0.000135249 -8.48671e-08
9.75779e-08 -8.48671e-08 4.37115e-05
0.00224117 -3.76256e-05 -1.47196e-05
-3.76256e-05 0.000937853 -4.70381e-06
-1.47196e-05 -4.70381e-06 0.00095418
0.000596229 -1.52989e-05 -2.23071e-07
-1.52989e-05 -3.56656e-05 -5.46687e-08
-2.23071e-07 -5.46687e-08 -4.67654e-05
0.000298035 -1.04801e-06 -6.06774e-07
-1.04801e-06 -0.000186197 1.12904e-06
-6.06774e-07 1.12904e-06 -0.000235912
0.00214491 -2.31916e-05 -3.65062e-06
-2.31916e-05 0.000878398 8.72358e-08
-3.65062e-06 8.72358e-08 0.000896668
0.000601404 -9.52997e-06 -2.00461e-07
-9.52997e-06 -3.39538e-05 3.61672e-06
-2.00461e-07 3.61672e-06 -4.246e-05
0.00208085 -9.01651e-06 5.91441e-06
-9.01651e-06 0.000839364 4.72854e-06
5.91441e-06 4.72854e-06 0.000858765
0.00167397 -3.83898e-05 -6.63006e-06
-3.83898e-05 -9.26959e-05 1.89704e-05
-6.63006e-06 1.89704e-05 -2.28629e-05
0.00105772 -1.10022e-05 7.00973e-07
-1.10022e-05 0.000401866 -2.17398e-06
7.00973e-07 -2.17398e-06 0.000236539
0.00170761 -9.17287e-05 9.69134e-05
-9.17287e-05 0.000449501 -2.15876e-05
9.69134e-05 -2.15876e-05 -0.000800517
0.00059603 9.66546e-06 3.35334e-07
9.66546e-06 -6.49375e-06 -4.75723e-07
3.35334e-07 -4.75723e-07 -0.000105069
0.000873963 3.56177e-05 -4.86994e-07
3.56177e-05 0.000161169 -4.0154e-07
-4.86994e-07 -4.0154e-07 5.13808e-05
0.000812317 8.0221e-05 5.80383e-07
8.0221e-05 0.000141521 2.41133e-07
5.80383e-07 2.41133e-07 3.08277e-05
0.000635039 3.35538e-05 2.11661e-07
3.35538e-05 1.91879e-05 1.58198e-07
2.11661e-07 1.58198e-07 -8.26682e-05
0.000752384 5.28497e-05 5.33173e-08
5.28497e-05 0.000105296 3.89966e-07
5.33173e-08 3.89966e-07 -1.34911e-05
0.000737657 4.32701e-05 2.53198e-07
4.32701e-05 8.82551e-05 8.46457e-09
2.53198e-07 8.46457e-09 -2.27949e-05
0.000780666 0.000151791 1.66733e-06
0.000151791 0.000139843 2.76843e-06
1.66733e-06 2.76843e-06 7.20612e-07
-7.869e-05 2.14988e-05 4.56947e-05
2.14988e-05 6.88531e-05 0.000138214
4.56947e-05 0.000138214 -0.00141164
0.00256591 -4.60936e-05 -8.34561e-06
-4.60936e-05 0.000583988 4.70308e-05
-8.34561e-06 4.70308e-05 -0.000264378
0.00288993 -0.000135918 1.83589e-05
-0.000135918 0.00192477 -6.49981e-05
1.83589e-05 -6.49981e-05 0.000768654
0.00372568 -0.000129743 -2.17531e-05
-0.000129743 -0.00376655 4.18537e-05
-2.17531e-05 4.18537e-05 -0.00116554
0.00333661 -0.00103353 -6.60939e-05
-0.00103353 0.00114483 5.76465e-05
-6.60939e-05 5.76465e-05 0.000170774
-0.00181446 -0.00112429 7.55053e-06
-0.00112429 -0.00047796 7.14872e-05
7.55053e-06 7.14872e-05 -0.00409191
0.00762556 0.00142086 6.60163e-05
0.00142086 0.00424735 -3.60071e-05
6.60163e-05 -3.60071e-05 0.00243931
0.00381009 -0.000960303 -2.20281e-05
-0.000960303 0.00102258 4.62878e-06
-2.20281e-05 4.62878e-06 0.000341781
-6.81379e-05 -0.000437816 3.12648e-05
-0.000437816 0.00115703 1.67174e-05
3.12648e-05 1.67174e-05 -0.00289715
0.00438623 9.27626e-06 -4.65076e-06
9.27626e-06 0.00238301 -7.0953e-06
-4.65076e-06 -7.0953e-06 0.00134441
0.00807489 -0.00098426 -2.93724e-05
-0.00098426 0.000988968 -3.57233e-05
-2.93724e-05 -3.57233e-05 0.00218747
-0.000116615 1.81095e-05 -0.000123908
1.81095e-05 -0.000999657 6.33937e-05
-0.000123908 6.33937e-05 -0.000855974
0.000766353 0.00100897 -2.37402e-05
0.00100897 0.00144938 -9.5454e-05
-2.37402e-05 -9.5454e-05 -0.00257314
-0.00689283 -0.00149533 5.16869e-05
-0.00149533 -0.00404727 -0.000114236
5.16869e-05 -0.000114236 -0.00583394
0.00397311 -0.00092067 1.96574e-05
-0.00092067 -0.00112761 -0.00020437
1.96574e-05 -0.00020437 0.000280666
0.000792578 1.35828e-05 3.27696e-07
1.35828e-05 0.000136502 5.87262e-08
3.27696e-07 5.87262e-08 2.42299e-05
0.000675457 4.19547e-05 3.92384e-07
4.19547e-05 6.80664e-05 -3.64462e-07
3.92384e-07 -3.64462e-07 -6.47393e-05
0.000781199 1.2681e-05 2.65776e-07
1.2681e-05 0.000158662 -1.6853e-06
2.65776e-07 -1.6853e-06 8.62312e-06
0.000778247 4.5145e-05 -5.48994e-07
4.5145e-05 0.000129634 -2.65603e-06
-5.48994e-07 -2.65603e-06 -7.5798e-07
-4.13958e-05 -0.000372871 -1.22151e-06
-0.000372871 -0.000721748 2.47883e-05
-1.22151e-06 2.47883e-05 -0.000785172
0.00134778 -5.78284e-05 -1.10231e-05
-5.78284e-05 0.000771322 -2.7417e-05
-1.10231e-05 -2.7417e-05 0.000665329
0.00061394 2.3645e-05 -1.74017e-06
2.3645e-05 2.10265e-05 -1.92931e-06
-1.74017e-06 -1.92931e-06 -0.000101601
0.000706149 0.000107248 -1.3517e-06
0.000107248 0.000160537 2.35798e-06
-1.3517e-06 2.35798e-06 6.52351e-07
0.00231299 -5.66806e-05 1.10757e-05
-5.66806e-05 0.00117744 -2.39281e-05
1.10757e-05 -2.39281e-05 0.00096859
0.000832574 5.32567e-05 8.18184e-08
5.32567e-05 0.000172181 2.17328e-06
8.18184e-08 2.17328e-06 5.08299e-05
0.000750421 7.6576e-05 -1.99369e-06
7.6576e-05 0.000312725 -2.08681e-06
-1.99369e-06 -2.08681e-06 0.000104159
-0.000164446 3.10289e-05 3.70863e-05
3.10289e-05 3.43473e-05 -1.48663e-05
3.70863e-05 -1.48663e-05 -0.000446386
0.000504357 -3.42208e-07 3.21012e-05
-3.42208e-07 0.000304882 -2.08206e-08
3.21012e-05 -2.08206e-08 0.000213415
0.000351428 0.00012176 -2.95382e-07
0.00012176 4.49028e-05 -4.75176e-06
-2.95382e-07 -4.75176e-06 -0.000102325
0.00015457 -8.7464e-05 -2.62117e-05
-8.7464e-05 0.000645266 -4.08331e-05
-2.62117e-05 -4.08331e-05 -0.00048058
0.00353374 0.000103858 1.81773e-05
0.000103858 0.00189962 2.1128e-05
1.81773e-05 2.1128e-05 0.00171776
0.000876697 -1.49304e-05 6.07736e-06
-1.49304e-05 0.000595327 7.59286e-06
6.07736e-06 7.59286e-06 5.33261e-05
0.00135582 -3.4066e-05 5.39571e-08
-3.4066e-05 0.000177079 3.06789e-07
5.39571e-08 3.06789e-07 -0.000128336
0.000482081 -2.82271e-05 -1.55166e-06
-2.82271e-05 0.000323801 -1.27303e-05
-1.55166e-06 -1.27303e-05 -7.80353e-05
-0.000232624 8.60746e-05 -1.934e-07
8.60746e-05 9.06863e-06 6.60512e-06
-1.934e-07 6.60512e-06 -0.000162907
-0.000497782 0.000248361 3.54926e-05
0.000248361 -0.000682663 3.92777e-05
3.54926e-05 3.92777e-05 -0.000843226
0.00141508 -2.89474e-05 1.45773e-05
-2.89474e-05 -0.000277841 -2.78288e-06
1.45773e-05 -2.78288e-06 -9.87232e-05
0.00384112 -0.000880469 0.000121965
-0.000880469 0.00364585 -0.000125757
0.000121965 -0.000125757 -0.00115878
0.00752238 0.00147662 -6.10236e-05
0.00147662 0.00366984 3.72083e-05
-6.10236e-05 3.72083e-05 0.00210978
0.00301024 -8.85381e-05 -2.23623e-05
-8.85381e-05 0.00190081 6.5236e-05
-2.23623e-05 6.5236e-05 0.000767096
0.00494075 0.00128273 -2.54916e-05
0.00128273 -3.82541e-05 -3.91767e-05
-2.54916e-05 -3.91767e-05 0.000430717
-0.000123939 0.000125631 -9.31106e-06
0.000125631 0.000366006 7.1156e-06
-9.31106e-06 7.1156e-06 -9.54932e-05
0.00112502 1.91943e-05 -1.10141e-06
1.91943e-05 0.000409912 2.27214e-06
-1.10141e-06 2.27214e-06 0.000256764
0.00344462 -0.000285259 6.77779e-05
-0.000285259 0.00103776 -8.12133e-06
6.77779e-05 -8.12133e-06 -0.00113319
0.000290284 -0.000146153 2.69418e-06
-0.000146153 -0.000592243 2.41808e-05
2.69418e-06 2.41808e-05 -0.000532417
-0.00147471 0.00173316 0.000102998
0.00173316 -0.000282656 -4.50998e-05
0.000102998 -4.50998e-05 0.00104177
0.00622793 0.000862693 -4.83737e-05
0.000862693 0.000279444 9.84161e-05
-4.83737e-05 9.84161e-05 0.000241196
-0.00251923 -0.000774957 6.7899e-05
-0.000774957 0.000225739 -6.21199e-05
6.7899e-05 -6.21199e-05 -0.00445128
0.00103705 -9.3737e-05 4.42719e-05
-9.3737e-05 0.000566164 -1.1298e-05
4.42719e-05 -1.1298e-05 0.00032711
0.000814454 -0.000113416 6.62466e-05
-0.000113416 -0.000147686 -2.74536e-05
6.62466e-05 -2.74536e-05 -0.00138734
-0.00179084 0.000149615 -0.00020313
0.000149615 0.00139116 -1.36297e-05
-0.00020313 -1.36297e-05 0.000149493
0.0024471 0.00157916 -0.000132029
0.00157916 6.53769e-05 0.000211223
-0.000132029 0.000211223 0.000475098
0.00789324 -0.000606315 1.72725e-05
-0.000606315 0.00359437 -1.50162e-05
1.72725e-05 -1.50162e-05 0.000457816
0.00334901 -0.000415628 -6.22666e-05
-0.000415628 0.000911073 5.4566e-05
-6.22666e-05 5.4566e-05 0.000611656
-0.000866335 4.05849e-05 2.57531e-05
4.05849e-05 -0.000372006 1.37697e-05
2.57531e-05 1.37697e-05 -0.000534308
8.5145e-05 -0.000165951 -1.10687e-05
-0.000165951 0.000209543 1.40819e-06
-1.10687e-05 1.40819e-06 -5.69391e-05
0.000176208 -0.000224621 2.00985e-05
-0.000224621 -3.15348e-05 -5.7152e-06
2.00985e-05 -5.7152e-06 -0.000187094
-0.000729851 -0.000132959 -4.1981e-06
-0.000132959 -0.000420584 6.68592e-06
-4.1981e-06 6.68592e-06 -0.000568644
-0.000672042 -0.000147051 1.23809e-06
-0.000147051 -0.000443157 -4.29021e-06
1.23809e-06 -4.29021e-06 -0.000727251
0.00299642 -0.000506964 2.69464e-05
-0.000506964 0.00114531 -4.27825e-06
2.69464e-05 -4.27825e-06 0.000863068
0.00358191 -0.000485428 -7.50804e-06
-0.000485428 0.00165249 3.05056e-06
-7.50804e-06 3.05056e-06 0.00140708
0.00203791 -0.000360949 4.15906e-06
-0.000360949 0.000817106 1.05171e-06
4.15906e-06 1.05171e-06 0.000462145
0.00115437 -0.000345125 7.89636e-06
-0.000345125 0.000163517 -4.55548e-06
7.89636e-06 -4.55548e-06 -0.000200505
0.00175586 -0.000313776 -6.47185e-06
-0.000313776 0.000527851 1.47259e-06
-6.47185e-06 1.47259e-06 0.000272253
0.00223049 -0.000416242 1.61122e-06
-0.000416242 0.000701001 2.8207e-07
1.61122e-06 2.8207e-07 0.000374168
0.00197203 -0.000413076 1.09949e-06
-0.000413076 0.000490774 -5.21593e-06
1.09949e-06 -5.21593e-06 0.000164114
0.00182391 -0.000372074 -4.62474e-07
-0.000372074 0.000317227 -2.89313e-06
-4.62474e-07 -2.89313e-06 7.74768e-05
0.00202441 -0.000395499 -3.61062e-06
-0.000395499 0.000494624 4.04686e-06
-3.61062e-06 4.04686e-06 0.000233266
0.00173186 -0.000381122 -9.87734e-07
-0.000381122 0.000333551 -3.83554e-07
-9.87734e-07 -3.83554e-07 5.41414e-05
0.000380987 -0.000183791 5.11281e-06
-0.000183791 -0.000272591 1.43196e-06
5.11281e-06 1.43196e-06 -0.000464587
0.00110687 -0.000255332 1.81385e-06
-0.000255332 0.000121353 -2.84857e-08
1.81385e-06 -2.84857e-08 -9.26052e-05
0.00138774 -0.000302253 -7.18872e-07
-0.000302253 0.000247428 -2.88936e-06
-7.18872e-07 -2.88936e-06 -5.38783e-06
0.00119863 -0.000218486 2.56169e-06
-0.000218486 0.000326748 8.08525e-07
2.56169e-06 8.08525e-07 0.00012932
0.00127799 -0.000236136 -2.01021e-06
-0.000236136 0.00034174 -1.68226e-06
-2.01021e-06 -1.68226e-06 0.000145471
0.000712013 -0.000192384 4.57334e-06
-0.000192384 -5.78165e-06 -4.67655e-06
4.57334e-06 -4.67655e-06 -0.000186476
0.00057144 -4.6552e-05 2.2882e-06
-4.6552e-05 1.90327e-05 1.47564e-06
2.2882e-06 1.47564e-06 -0.000123429
0.000524428 -8.84175e-05 -3.22364e-07
-8.84175e-05 1.2382e-06 9.30076e-07
-3.22364e-07 9.30076e-07 -0.000162731
0.00136267 -0.000222219 2.85285e-06
-0.000222219 0.000477032 -3.17931e-06
2.85285e-06 -3.17931e-06 0.000281133
0.000553024 4.06778e-05 -3.81268e-08
4.06778e-05 -1.74708e-05 2.92414e-06
-3.81268e-08 2.92414e-06 -9.20236e-05
0.000738487 -1.51622e-05 -3.68686e-07
-1.51622e-05 0.000111267 -5.51723e-07
-3.68686e-07 -5.51723e-07 -4.68405e-06
0.00117322 -0.000111023 1.38036e-07
-0.000111023 0.000380098 -4.54133e-07
1.38036e-07 -4.54133e-07 0.000236039
0.000525325 6.07948e-05 -1.19916e-06
6.07948e-05 -4.22838e-05 6.10865e-06
-1.19916e-06 6.10865e-06 -6.79091e-05
0.000644944 2.4846e-05 -2.72511e-07
2.4846e-05 2.30859e-05 -2.82298e-07
-2.72511e-07 -2.82298e-07 -3.75295e-05
0.00079631 -2.4806e-05 -3.02839e-07
-2.4806e-05 0.000131181 -1.47731e-06
-3.02839e-07 -1.47731e-06 3.63565e-05
0.000665402 1.32915e-05 1.50949e-06
1.32915e-05 2.94771e-05 -2.07674e-06
1.50949e-06 -2.07674e-06 -2.46454e-05
0.000570638 5.40572e-05 2.47947e-08
5.40572e-05 -2.57406e-05 -1.64463e-08
2.47947e-08 -1.64463e-08 -4.76691e-05
0.00230087 9.02254e-05 -2.63508e-05
9.02254e-05 0.00100179 3.43284e-06
-2.63508e-05 3.43284e-06 0.00100839
0.000584886 4.61532e-05 4.7979e-07
4.61532e-05 -2.73785e-05 -4.09969e-06
4.7979e-07 -4.09969e-06 -4.57077e-05
0.0022852 7.90121e-05 2.45687e-06
7.90121e-05 0.00098487 2.03989e-07
2.45687e-06 2.03989e-07 0.000994113
0.00228237 6.76475e-05 1.96115e-05
6.76475e-05 0.000976418 -3.98761e-06
1.96115e-05 -3.98761e-06 0.000987861
0.000722383 4.45833e-05 -7.78247e-08
4.45833e-05 9.12625e-05 -6.63254e-07
-7.78247e-08 -6.63254e-07 -2.3902e-05
0.000773041 7.486e-05 -9.70576e-08
7.486e-05 0.000123128 -1.31019e-06
-9.70576e-08 -1.31019e-06 1.54296e-05
0.000656844 8.71164e-06 -6.56621e-07
8.71164e-06 1.95614e-05 -2.53281e-06
-6.56621e-07 -2.53281e-06 -4.16135e-05
0.000725023 6.82823e-05 -1.05085e-07
6.82823e-05 8.52509e-05 2.37041e-08
-1.05085e-07 2.37041e-08 -1.09906e-05
0.000579051 -2.8751e-05 1.70106e-07
-2.8751e-05 -3.83353e-05 -4.68775e-06
1.70106e-07 -4.68775e-06 -5.675e-05
0.000648319 1.67216e-05 -1.04785e-07
1.67216e-05 1.5826e-05 -8.22945e-08
-1.04785e-07 -8.22945e-08 -4.05536e-05
0.000671213 3.73928e-05 -1.33468e-06
3.73928e-05 5.11992e-05 4.61086e-07
-1.33468e-06 4.61086e-07 -3.86761e-05
0.00233809 -5.12121e-05 -1.93204e-05
-5.12121e-05 0.00099844 -4.62147e-06
-1.93204e-05 -4.62147e-06 0.00101257
0.000591706 -2.17862e-05 -2.1731e-07
-2.17862e-05 -3.546e-05 -5.64904e-08
-2.1731e-07 -5.64904e-08 -4.98512e-05
0.000602925 2.01167e-05 -7.92655e-07
2.01167e-05 -9.4128e-06 1.13256e-06
-7.92655e-07 1.13256e-06 -6.12111e-05
0.00222166 -3.63029e-05 -3.77789e-06
-3.63029e-05 0.000925893 1.33744e-07
-3.77789e-06 1.33744e-07 0.000942554
0.000595944 -1.51685e-05 -2.45957e-07
-1.51685e-05 -3.59673e-05 3.76674e-06
-2.45957e-07 3.76674e-06 -4.69058e-05
0.00212829 -2.18741e-05 1.00705e-05
-2.18741e-05 0.000868239 4.69508e-06
1.00705e-05 4.69508e-06 0.000886763
0.000874605 -7.7782e-05 6.1116e-06
-7.7782e-05 0.000104188 1.69205e-05
6.1116e-06 1.69205e-05 2.52962e-05
0.00156427 -5.94105e-05 -1.24681e-05
-5.94105e-05 -0.00018315 1.86217e-05
-1.24681e-05 1.86217e-05 -6.30567e-05
0.00113755 -2.30972e-05 4.98268e-06
-2.30972e-05 0.000351245 -9.49732e-06
4.98268e-06 -9.49732e-06 0.000264558
0.000737637 4.50505e-05 -1.71054e-07
4.50505e-05 9.11989e-05 5.92494e-09
-1.71054e-07 5.92494e-09 -1.89347e-05
0.000704191 2.25227e-05 5.12164e-07
2.25227e-05 6.33222e-05 -1.10478e-08
5.12164e-07 -1.10478e-08 -4.43419e-05
0.00054105 2.47284e-05 -1.8673e-06
2.47284e-05 -3.11621e-05 -2.17986e-06
-1.8673e-06 -2.17986e-06 -0.000138648
0.000501605 -6.42095e-07 -1.20176e-07
-6.42095e-07 -5.17771e-05 -7.0564e-07
-1.20176e-07 -7.0564e-07 -0.000158781
0.00106699 0.000111703 -6.14121e-07
0.000111703 0.000291083 -1.17669e-06
-6.14121e-07 -1.17669e-06 0.000162365
0.000669617 1.51535e-05 -7.26804e-07
1.51535e-05 3.44501e-05 2.60351e-07
-7.26804e-07 2.60351e-07 -6.39473e-05
0.000680261 3.96626e-05 -4.60231e-07
3.96626e-05 5.50829e-05 -1.68553e-06
-4.60231e-07 -1.68553e-06 -5.71582e-05
0.00077108 5.04401e-05 -9.63135e-08
5.04401e-05 0.000109793 -1.04099e-07
-9.63135e-08 -1.04099e-07 -3.74576e-06
0.000912273 8.35839e-05 4.72947e-07
8.35839e-05 0.000197168 3.60658e-07
4.72947e-07 3.60658e-07 7.33596e-05
0.00102142 5.67685e-05 3.2261e-07
5.67685e-05 0.000272216 -2.95798e-07
3.2261e-07 -2.95798e-07 0.000149963
0.00245422 0.000142455 0.000128356
0.000142455 0.00121231 0.000184924
0.000128356 0.000184924 -0.00102689
0.000652383 6.65049e-05 1.0019e-05
6.65049e-05 0.000200124 5.0486e-05
1.0019e-05 5.0486e-05 -0.00128536
0.0025493 -3.1511e-05 -1.37197e-05
-3.1511e-05 0.000877636 -9.21437e-06
-1.37197e-05 -9.21437e-06 0.000193173
0.00812751 -0.000867057 -7.19808e-05
-0.000867057 0.00111553 -8.15252e-05
-7.19808e-05 -8.15252e-05 0.00240927
-0.0107017 0.00062353 -3.97304e-05
0.00062353 -0.00355776 0.000210893
-3.97304e-05 0.000210893 -0.00562915
0.00550976 -0.000988753 -0.000110889
-0.000988753 0.00202265 5.46197e-05
-0.000110889 5.46197e-05 0.00135127
0.0101077 -0.000696297 -5.28707e-05
-0.000696297 0.00423568 -1.64583e-05
-5.28707e-05 -1.64583e-05 0.000968999
0.00235328 -0.000112409 -1.23644e-05
-0.000112409 0.000342195 5.34688e-05
-1.23644e-05 5.34688e-05 2.10085e-05
0.0112718 -0.000137912 1.65732e-05
-0.000137912 0.00547687 -1.60751e-05
1.65732e-05 -1.60751e-05 0.00155489
0.00186812 -0.000902586 4.83616e-05
-0.000902586 0.000179471 5.32207e-05
4.83616e-05 5.32207e-05 -0.00101691
0.00321317 -0.00109181 -0.000110964
-0.00109181 -0.00171066 -0.000244714
-0.000110964 -0.000244714 -0.000372665
0.00341188 0.000136595 -9.85151e-05
0.000136595 0.000713529 2.58734e-05
-9.85151e-05 2.58734e-05 0.000214033
0.00928123 0.000725382 -1.40044e-05
0.000725382 0.0042405 1.955e-05
-1.40044e-05 1.955e-05 0.00112695
0.0103228 -0.00169647 -2.57641e-05
-0.00169647 0.00329113 -0.000196545
-2.57641e-05 -0.000196545 0.00319933
0.00616044 -0.00172578 5.57978e-05
-0.00172578 0.00109217 3.88954e-06
5.57978e-05 3.88954e-06 0.00255836
0.000176746 5.21948e-05 4.63756e-07
5.21948e-05 -0.000147506 -2.76527e-06
4.63756e-07 -2.76527e-06 -0.000255077
0.000970429 1.08647e-05 3.76863e-07
1.08647e-05 0.000249271 2.09059e-06
3.76863e-07 2.09059e-06 0.000124758
0.000694797 4.63943e-05 -2.23971e-07
4.63943e-05 8.12355e-05 -3.06772e-06
-2.23971e-07 -3.06772e-06 -5.34157e-05
0.0012055 -1.43008e-05 -3.98909e-05
-1.43008e-05 0.000698493 1.93819e-05
-3.98909e-05 1.93819e-05 9.06389e-05
0.00100773 -4.19921e-05 -7.16119e-05
-4.19921e-05 0.000611423 -2.95623e-05
-7.16119e-05 -2.95623e-05 0.000536194
0.000720207 -2.63729e-07 -1.77551e-06
-2.63729e-07 0.000108857 3.90489e-06
-1.77551e-06 3.90489e-06 -1.43498e-05
-0.000812351 6.87024e-05 -2.47686e-06
6.87024e-05 -0.000541721 -4.43208e-06
-2.47686e-06 -4.43208e-06 -0.000771954
0.000566707 7.67737e-05 1.66171e-07
7.67737e-05 0.000170963 -2.97626e-06
1.66171e-07 -2.97626e-06 1.22494e-05
0.000621273 8.76538e-05 -3.81216e-06
8.76538e-05 0.000342684 3.79837e-06
-3.81216e-06 3.79837e-06 0.000136358
-0.000314887 -3.22191e-05 0.000110974
-3.22191e-05 0.000621177 -3.92193e-05
0.000110974 -3.92193e-05 -0.000519798
-0.00239917 -3.91415e-06 -2.20492e-05
-3.91415e-06 -0.00132432 1.176e-05
-2.20492e-05 1.176e-05 -0.00148586
0.00226948 0.000247861 -2.53478e-05
0.000247861 0.00132486 -3.8813e-05
-2.53478e-05 -3.8813e-05 0.000579733
0.00187063 1.69305e-06 6.86197e-05
1.69305e-06 0.000865316 9.82066e-06
6.86197e-05 9.82066e-06 -0.000529726
0.000688946 -1.76484e-05 1.62316e-05
-1.76484e-05 0.000465848 9.22146e-06
1.62316e-05 9.22146e-06 -2.80237e-07
0.00178442 -4.85791e-05 -3.19889e-07
-4.85791e-05 0.000423708 -3.87325e-08
-3.19889e-07 -3.87325e-08 0.000298708
-0.00268998 0.000162858 5.50732e-05
0.000162858 -0.000956009 7.78745e-06
5.50732e-05 7.78745e-06 -0.00155023
0.00343288 0.000104048 -1.9751e-05
0.000104048 0.00112217 -4.21237e-06
-1.9751e-05 -4.21237e-06 0.000629462
0.00118676 -2.92876e-06 5.67166e-07
-2.92876e-06 0.000373542 8.31804e-06
5.67166e-07 8.31804e-06 0.000293354
0.0156623 -0.00119234 0.000114504
-0.00119234 0.00687687 -2.31493e-05
0.000114504 -2.31493e-05 0.00317648
0.0093619 0.00126158 -6.96095e-05
0.00126158 0.00301034 -3.98504e-05
-6.96095e-05 -3.98504e-05 0.00248768
0.00358529 -0.000324109 -5.90111e-05
-0.000324109 0.00126029 0.000110365
-5.90111e-05 0.000110365 -0.00115765
-0.00730411 0.00192889 0.000480331
0.00192889 -0.00364562 -0.000366233
0.000480331 -0.000366233 -0.00183063
0.000920658 -0.000112894 2.11891e-07
-0.000112894 0.000651134 -2.07759e-06
2.11891e-07 -2.07759e-06 0.000343185
0.00117284 -9.31208e-05 -6.95605e-06
-9.31208e-05 7.09756e-05 7.75225e-06
-6.95605e-06 7.75225e-06 -0.00122735
-0.0026889 0.000203647 -0.000277994
0.000203647 0.00141369 0.000123235
-0.000277994 0.000123235 0.000246112
0.00187953 -0.000304112 -2.52341e-05
-0.000304112 0.000222734 3.37989e-05
-2.52341e-05 3.37989e-05 -5.61891e-05
0.00984432 0.00172911 6.36474e-05
0.00172911 0.00314084 6.36943e-05
6.36474e-05 6.36943e-05 0.00362839
0.00746878 -0.00113728 7.17515e-05
-0.00113728 0.0031261 -4.76558e-05
7.17515e-05 -4.76558e-05 0.000241038
0.00108399 -0.000239695 1.1629e-05
-0.000239695 0.000232996 2.4383e-05
1.1629e-05 2.4383e-05 0.000301121
-0.00351203 -0.000229417 2.70443e-05
-0.000229417 0.00103443 -1.49072e-05
2.70443e-05 -1.49072e-05 -0.000777162
0.0081663 0.00156164 -0.000290285
0.00156164 0.00393263 0.000134958
-0.000290285 0.000134958 0.00387233
0.00238051 -0.000609192 -0.00015998
-0.000609192 -0.000129087 0.000111405
-0.00015998 0.000111405 -0.0030699
0.0022712 -0.000814299 7.41598e-05
-0.000814299 0.00032286 -2.77328e-05
7.41598e-05 -2.77328e-05 1.29631e-05
-0.000629504 -0.000131058 -2.55477e-05
-0.000131058 -0.000181747 1.29119e-05
-2.55477e-05 1.29119e-05 -0.000434031
0.00041974 -0.000234009 -2.45398e-06
-0.000234009 0.00013302 4.10254e-06
-2.45398e-06 4.10254e-06 -8.62184e-05
0.00395584 -0.000552357 3.12197e-05
-0.000552357 0.00155998 3.65389e-06
3.12197e-05 3.65389e-06 0.00145497
-0.00258926 -3.54471e-05 -5.63452e-06
-3.54471e-05 -0.0014449 9.17686e-06
-5.63452e-06 9.17686e-06 -0.00172921
0.000758734 -0.000303587 2.9606e-06
-0.000303587 1.03361e-05 6.32569e-07
2.9606e-06 6.32569e-07 -0.000278324
0.00211606 -0.000493876 4.91037e-06
-0.000493876 0.0004276 -2.9415e-08
4.91037e-06 -2.9415e-08 0.000192596
0.00264811 -0.000409153 -1.0076e-05
-0.000409153 0.00109407 2.52073e-06
-1.0076e-05 2.52073e-06 0.000763698
0.00128566 -0.000350463 -2.24439e-06
-0.000350463 0.000210417 -3.2105e-06
-2.24439e-06 -3.2105e-06 -0.00013215
0.00207191 -0.000473277 4.70318e-06
-0.000473277 0.000407712 -4.16542e-06
4.70318e-06 -4.16542e-06 0.000143716
0.00234742 -0.000431897 -4.04562e-06
-0.000431897 0.000734699 -2.03473e-06
-4.04562e-06 -2.03473e-06 0.000404465
0.00154327 -0.000378162 -9.32186e-08
-0.000378162 0.000230896 -3.01394e-06
-9.32186e-08 -3.01394e-06 -8.2188e-05
0.00191873 -0.000395695 -2.42038e-07
-0.000395695 0.000304543 -6.28193e-06
-2.42038e-07 -6.28193e-06 7.17141e-05
0.00168785 -0.000314239 -1.82827e-06
-0.000314239 0.000155438 -3.19988e-06
-1.82827e-06 -3.19988e-06 -3.49577e-05
0.00163601 -0.000361049 2.17035e-06
-0.000361049 0.000209324 -1.14126e-06
2.17035e-06 -1.14126e-06 -3.33594e-05
0.00169579 -0.000362205 1.71115e-06
-0.000362205 0.000247375 -1.77747e-06
1.71115e-06 -1.77747e-06 1.01819e-05
0.00164054 -0.000317991 -1.51856e-06
-0.000317991 0.000325552 4.13761e-06
-1.51856e-06 4.13761e-06 9.57152e-05
0.00185475 -0.000381896 -1.81252e-06
-0.000381896 0.0004114 2.31226e-07
-1.81252e-06 2.31226e-07 0.000147582
0.00174328 -0.000384879 4.98885e-07
-0.000384879 0.000341902 -3.21223e-06
4.98885e-07 -3.21223e-06 5.7022e-05
0.00110889 -0.00022865 3.15772e-06
-0.00022865 0.000196567 2.69707e-07
3.15772e-06 2.69707e-07 -1.26235e-06
0.000675014 -0.000205698 -3.56009e-07
-0.000205698 -9.96056e-05 -1.10707e-06
-3.56009e-07 -1.10707e-06 -0.000290399
0.00156058 -0.000290278 5.53076e-06
-0.000290278 0.000378799 -5.08001e-06
5.53076e-06 -5.08001e-06 0.000167737
0.000729271 -0.000147248 -1.46557e-07
-0.000147248 7.57531e-05 -3.83529e-07
-1.46557e-07 -3.83529e-07 -9.21621e-05
0.000884399 -0.000185226 1.6418e-07
-0.000185226 0.000147744 -1.72239e-07
1.6418e-07 -1.72239e-07 -4.3247e-05
0.000824193 -0.000193654 -2.2384e-06
-0.000193654 7.61904e-05 -6.52396e-07
-2.2384e-06 -6.52396e-07 -0.000113815
0.000528616 3.98803e-05 1.13767e-06
3.98803e-05 -2.23185e-05 4.41548e-06
1.13767e-06 4.41548e-06 -0.000118562
0.000782578 -7.06556e-05 9.89746e-07
-7.06556e-05 0.000147326 6.30108e-07
9.89746e-07 6.30108e-07 -3.57202e-06
0.000996617 -0.000129917 -2.14216e-06
-0.000129917 0.000284854 1.0039e-06
-2.14216e-06 1.0039e-06 0.000114947
0.00134717 0.000100335 -1.35322e-05
0.000100335 0.000457882 4.22368e-06
-1.35322e-05 4.22368e-06 0.000426656
0.000647781 1.79884e-05 -5.0907e-07
1.79884e-05 3.313e-05 -6.37444e-07
-5.0907e-07 -6.37444e-07 -4.10401e-05
0.000856891 -5.1925e-05 -1.64456e-06
-5.1925e-05 0.000184181 -1.79352e-06
-1.64456e-06 -1.79352e-06 6.12947e-05
0.000748045 4.7643e-05 -2.69038e-05
4.7643e-05 9.55868e-05 3.46455e-06
-2.69038e-05 3.46455e-06 9.50614e-05
0.000980922 7.79134e-05 -8.0673e-06
7.79134e-05 0.000228341 7.70692e-08
-8.0673e-06 7.70692e-08 0.000202635
0.000681509 2.07915e-05 7.98535e-07
2.07915e-05 4.26464e-05 -2.5948e-06
7.98535e-07 -2.5948e-06 -1.78812e-05
0.000577904 5.80758e-05 -2.65825e-07
5.80758e-05 -1.97642e-05 -4.5155e-06
-2.65825e-07 -4.5155e-06 -4.26228e-05
0.00234424 9.24033e-05 2.84728e-06
9.24033e-05 0.00102812 2.52994e-07
2.84728e-06 2.52994e-07 0.00103424
0.00230391 8.08187e-05 2.28416e-05
8.08187e-05 0.000996847 -3.68788e-06
2.28416e-05 -3.68788e-06 0.0010057
0.00068641 4.07617e-05 1.83099e-07
4.07617e-05 5.84897e-05 -4.24584e-07
1.83099e-07 -4.24584e-07 -5.14843e-05
0.00079134 6.04459e-05 -6.14105e-09
6.04459e-05 0.000130714 -1.68044e-06
-6.14105e-09 -1.68044e-06 2.10375e-05
0.000673567 3.09627e-05 5.15492e-08
3.09627e-05 5.07681e-05 7.07835e-08
5.15492e-08 7.07835e-08 -5.56478e-05
0.000660111 -2.53102e-06 -8.7088e-07
-2.53102e-06 2.23332e-05 -2.71074e-06
-8.7088e-07 -2.71074e-06 -4.31636e-05
0.000734495 4.95308e-05 6.46556e-07
4.95308e-05 8.93826e-05 2.78837e-08
6.46556e-07 2.78837e-08 -9.61518e-06
0.000569142 -3.18371e-05 -4.60426e-07
-3.18371e-05 -3.87795e-05 -5.06095e-06
-4.60426e-07 -5.06095e-06 -6.09915e-05
0.000643595 1.20944e-05 -9.8814e-08
1.20944e-05 1.31657e-05 -7.78517e-08
-9.8814e-08 -7.78517e-08 -4.84516e-05
0.00075065 6.05516e-05 5.82667e-08
6.05516e-05 0.00011467 1.564e-06
5.82667e-08 1.564e-06 8.15264e-06
0.00246527 -6.51064e-05 -2.52471e-05
-6.51064e-05 0.00107797 -4.44826e-06
-2.52471e-05 -4.44826e-06 0.00108947
0.000574789 -2.82039e-05 -3.66918e-07
-2.82039e-05 -4.10934e-05 -3.85096e-08
-3.66918e-07 -3.85096e-08 -5.92963e-05
0.000635511 1.78547e-05 4.89573e-07
1.78547e-05 8.95549e-06 2.48026e-06
4.89573e-07 2.48026e-06 -4.74169e-05
0.00233021 -5.01695e-05 -3.73983e-06
-5.01695e-05 0.000993295 1.87003e-07
-3.73983e-06 1.87003e-07 0.00100771
0.000584221 -2.15806e-05 -2.83203e-07
-2.15806e-05 -3.96985e-05 4.09068e-06
-2.83203e-07 4.09068e-06 -5.39614e-05
0.00221242 -3.50206e-05 1.44851e-05
-3.50206e-05 0.000919939 4.64737e-06
1.44851e-05 4.64737e-06 0.000936865
0.00369562 1.41367e-05 7.81809e-05
1.41367e-05 0.00142315 2.7444e-05
7.81809e-05 2.7444e-05 0.000473608
0.000835086 -7.5174e-05 -5.48395e-07
-7.5174e-05 0.000126424 5.34203e-06
-5.48395e-07 5.34203e-06 3.14881e-05
0.00141811 -6.98529e-05 -1.40703e-05
-6.98529e-05 -0.000279226 2.03136e-06
-1.40703e-05 2.03136e-06 -0.000109593
0.000738823 9.96833e-05 -3.29523e-06
9.96833e-05 8.52742e-05 1.028e-07
-3.29523e-06 1.028e-07 -3.32649e-05
0.000816287 4.78139e-05 -1.0447e-07
4.78139e-05 0.000133144 4.53533e-07
-1.0447e-07 4.53533e-07 2.60761e-05
0.000592405 1.55684e-05 2.26999e-07
1.55684e-05 -1.35936e-06 6.62853e-07
2.26999e-07 6.62853e-07 -0.000107187
0.000802751 2.07627e-05 -9.01882e-08
2.07627e-05 0.000117491 -8.54719e-08
-9.01882e-08 -8.54719e-08 1.16974e-05
0.000900269 6.3227e-05 -4.18399e-07
6.3227e-05 0.00017952 -6.22893e-08
-4.18399e-07 -6.22893e-08 6.6368e-05
0.000852609 8.80137e-05 5.77445e-07
8.80137e-05 0.000164771 7.61972e-07
5.77445e-07 7.61972e-07 4.20384e-05
0.000815427 7.42429e-05 -1.64971e-06
7.42429e-05 0.000134934 -3.72761e-06
-1.64971e-06 -3.72761e-06 6.09562e-06
0.000280449 1.26826e-05 -8.12019e-08
1.26826e-05 -0.000166754 -1.03135e-06
-8.12019e-08 -1.03135e-06 -0.000281488
0.000821682 0.000104011 -7.54585e-07
0.000104011 0.00014709 -5.05409e-08
-7.54585e-07 -5.05409e-08 2.6103e-05
0.000619715 6.39158e-06 1.72878e-07
6.39158e-06 1.16926e-05 -1.89271e-06
1.72878e-07 -1.89271e-06 -9.39554e-05
0.000719773 5.16081e-05 -4.11802e-07
5.16081e-05 9.5946e-05 3.58336e-07
-4.11802e-07 3.58336e-07 -2.22452e-05
0.00167602 0.000127445 5.96329e-06
0.000127445 0.000685889 5.47641e-06
5.96329e-06 5.47641e-06 0.000565407
0.00098173 -0.000652251 7.56028e-05
-0.000652251 0.00203816 0.000152292
7.56028e-05 0.000152292 0.000727978
0.00312324 0.000196014 1.70647e-05
0.000196014 0.00148367 5.71093e-05
1.70647e-05 5.71093e-05 -0.00079547
0.00109476 8.52405e-05 -1.59968e-05
8.52405e-05 0.000322426 -3.82544e-05
-1.59968e-05 -3.82544e-05 -0.00118751
0.00815279 -0.00143319 -0.000194412
-0.00143319 0.000903105 -0.000147755
-0.000194412 -0.000147755 0.00222522
0.00498519 -0.000458598 3.9157e-05
-0.000458598 0.000938643 0.000186635
3.9157e-05 0.000186635 -3.60739e-05
0.000604439 -0.000624481 -9.79379e-05
-0.000624481 0.00137549 9.67618e-05
-9.79379e-05 9.67618e-05 -0.00271783
0.00193191 -0.000229127 -3.25496e-05
-0.000229127 0.000411613 7.83193e-05
-3.25496e-05 7.83193e-05 -0.000127979
0.00318594 -0.000127958 1.65009e-05
-0.000127958 0.000664858 4.85694e-05
1.65009e-05 4.85694e-05 0.000353245
-0.000346588 -0.00176899 7.59502e-05
-0.00176899 -0.00124912 9.2871e-05
7.59502e-05 9.2871e-05 0.000408353
0.00516256 0.000710094 4.9905e-06
0.000710094 0.00330624 -1.29616e-05
4.9905e-06 -1.29616e-05 -0.000529984
0.00217157 -0.000939184 -2.83692e-05
-0.000939184 -0.00119937 3.73537e-05
-2.83692e-05 3.73537e-05 -0.00125055
0.00116682 0.000326563 1.15128e-06
0.000326563 -0.000230457 3.40802e-05
1.15128e-06 3.40802e-05 -0.00030916
0.00807353 0.000538079 -3.0169e-05
0.000538079 0.00394847 1.1102e-06
-3.0169e-05 1.1102e-06 0.00103533
0.00188602 -0.0015153 -0.000114084
-0.0015153 -0.00053395 -0.000136949
-0.000114084 -0.000136949 -0.000171759
0.000793635 0.000262742 4.63635e-06
0.000262742 0.000151815 -1.02544e-05
4.63635e-06 -1.02544e-05 3.18178e-05
0.000697982 7.82422e-05 4.01518e-06
7.82422e-05 0.000143484 -5.33764e-07
4.01518e-06 -5.33764e-07 3.71677e-05
0.000733972 3.36372e-05 -7.16996e-07
3.36372e-05 0.000119706 -9.85143e-07
-7.16996e-07 -9.85143e-07 -1.02629e-05
0.000229667 -2.29292e-05 -0.000156611
-2.29292e-05 0.000939864 -4.4446e-05
-0.000156611 -4.4446e-05 -0.000167605
-0.00194679 0.000101836 7.60004e-06
0.000101836 -0.00106185 -1.29227e-05
7.60004e-06 -1.29227e-05 -0.00128164
0.000592944 0.000115106 -4.31125e-07
0.000115106 0.000188901 1.12903e-06
-4.31125e-07 1.12903e-06 2.09329e-05
0.000574695 0.000258426 9.38529e-06
0.000258426 0.000221204 3.49553e-06
9.38529e-06 3.49553e-06 4.9464e-05
0.000657569 0.000222777 -3.80584e-06
0.000222777 0.000403543 -3.07577e-05
-3.80584e-06 -3.07577e-05 -0.000225947
-0.000150091 0.000399195 2.30006e-05
0.000399195 -0.000493258 8.38914e-07
2.30006e-05 8.38914e-07 -0.000766717
-0.000378366 0.000179804 0.000125382
0.000179804 0.00270428 1.21427e-05
0.000125382 1.21427e-05 0.000851012
0.00193822 -2.59305e-05 -4.59395e-06
-2.59305e-05 0.000914688 1.56782e-05
-4.59395e-06 1.56782e-05 -0.000203926
0.000468708 -2.25159e-05 2.84401e-06
-2.25159e-05 0.000326983 1.26724e-05
2.84401e-06 1.26724e-05 -6.67718e-05
0.000190075 -7.88648e-05 -3.15202e-05
-7.88648e-05 0.000383363 7.21859e-06
-3.15202e-05 7.21859e-06 5.75153e-05
0.000659901 -0.000123855 -4.44879e-05
-0.000123855 -0.000917302 4.81139e-06
-4.44879e-05 4.81139e-06 -0.000731477
0.00170293 -8.56232e-05 -7.98433e-05
-8.56232e-05 0.000312727 2.27346e-05
-7.98433e-05 2.27346e-05 -0.000921665
-0.00143847 -0.00111479 4.86757e-05
-0.00111479 -0.000234542 -7.71581e-05
4.86757e-05 -7.71581e-05 -0.00378806
-0.00247777 0.00128435 0.000114657
0.00128435 -0.00369026 -0.000125784
0.000114657 -0.000125784 -0.00302526
0.00189357 0.000641457 -0.00014042
0.000641457 0.00270675 0.000138838
-0.00014042 0.000138838 0.00202186
0.00209544 -0.000132559 -1.11238e-05
-0.000132559 0.000577163 2.99698e-07
-1.11238e-05 2.99698e-07 0.000783846
0.00159165 0.000159083 2.04078e-05
0.000159083 0.00292637 8.99475e-06
2.04078e-05 8.99475e-06 0.00184073
-0.00367779 0.000928444 2.94891e-05
0.000928444 -0.00102391 1.05138e-05
2.94891e-05 1.05138e-05 -0.00210716
0.00374468 -0.000946939 2.15972e-05
-0.000946939 0.00131086 -5.17132e-06
2.15972e-05 -5.17132e-06 0.000562931
0.0101944 -0.000467861 1.00363e-05
-0.000467861 0.00352518 -9.08375e-06
1.00363e-05 -9.08375e-06 0.00165493
0.00235161 -0.00049851 -3.72829e-06
-0.00049851 0.000609241 2.35476e-05
-3.72829e-06 2.35476e-05 0.000684159
-0.00764235 0.000356529 -0.000180806
0.000356529 -0.00357318 1.48749e-06
-0.000180806 1.48749e-06 -0.00424582
0.0113206 -0.000211594 -6.93707e-05
-0.000211594 0.00337448 2.33973e-05
-6.93707e-05 2.33973e-05 0.00187968
0.00408325 -0.00107078 6.08387e-06
-0.00107078 0.000196233 -1.25858e-05
6.08387e-06 -1.25858e-05 -0.000435341
0.00087469 -0.000249517 -2.2581e-05
-0.000249517 0.000409915 1.55848e-05
-2.2581e-05 1.55848e-05 0.000126423
0.00175136 -0.000405938 -3.1507e-06
-0.000405938 0.000315063 1.27292e-06
-3.1507e-06 1.27292e-06 0.000291322
0.00283766 -0.000459953 1.30611e-05
-0.000459953 0.000701266 -2.96158e-06
1.30611e-05 -2.96158e-06 0.00067192
-0.00157063 -9.366e-05 -3.89225e-06
-9.366e-05 -0.00117123 1.97364e-07
-3.89225e-06 1.97364e-07 -0.00147006
0.00136305 -0.000423757 -4.07061e-06
-0.000423757 6.56038e-05 -1.73871e-06
-4.07061e-06 -1.73871e-06 -0.000176627
0.00219406 -0.000504863 2.7103e-06
-0.000504863 0.000337842 -4.34205e-07
2.7103e-06 -4.34205e-07 0.000142576
0.00139399 -0.000355465 -1.1062e-05
-0.000355465 0.000249448 -2.72537e-06
-1.1062e-05 -2.72537e-06 -7.45976e-05
0.00156802 -0.000427612 8.55573e-08
-0.000427612 0.000149936 3.11015e-07
8.55573e-08 3.11015e-07 -0.00011493
0.0018491 -0.000402526 -1.27767e-06
-0.000402526 0.000148939 -4.9436e-06
-1.27767e-06 -4.9436e-06 -3.74464e-05
0.00110906 -0.000343784 -4.07071e-06
-0.000343784 -3.07151e-05 -1.71019e-07
-4.07071e-06 -1.71019e-07 -0.000330817
0.00161789 -0.000369464 -4.17952e-07
-0.000369464 0.000135664 4.4408e-07
-4.17952e-07 4.4408e-07 -9.22611e-05
0.00174717 -0.000317421 -1.64296e-06
-0.000317421 0.000107651 -5.38957e-06
-1.64296e-06 -5.38957e-06 -4.77932e-05
0.00159651 -0.000252074 -3.51337e-06
-0.000252074 4.21978e-05 -3.39654e-06
-3.51337e-06 -3.39654e-06 -9.92321e-05
0.00150987 -0.00029619 -1.67879e-06
-0.00029619 8.06842e-05 -2.26822e-06
-1.67879e-06 -2.26822e-06 -0.000116413
0.0015877 -0.000300467 8.10284e-07
-0.000300467 0.000102607 1.28824e-06
8.10284e-07 1.28824e-06 -8.32206e-05
0.00138326 -0.000306274 -2.92746e-06
-0.000306274 0.000102787 5.32365e-08
-2.92746e-06 5.32365e-08 -0.00012169
0.00158505 -0.000352874 1.81824e-06
-0.000352874 0.000188748 -2.24578e-07
1.81824e-06 -2.24578e-07 -5.00907e-05
0.00157171 -0.000352457 1.35387e-06
-0.000352457 0.000179776 1.09007e-06
1.35387e-06 1.09007e-06 -5.47653e-05
0.00120563 -0.000250406 -5.81718e-08
-0.000250406 0.000146953 2.89677e-06
-5.81718e-08 2.89677e-06 -5.81203e-05
0.00133055 -0.000294647 2.31423e-06
-0.000294647 0.000151233 -9.75918e-07
2.31423e-06 -9.75918e-07 -7.53555e-05
0.00150163 -0.000352667 -1.52823e-06
-0.000352667 0.000222868 -2.54202e-06
-1.52823e-06 -2.54202e-06 -4.1599e-05
0.000991253 -0.000193456 -9.85038e-07
-0.000193456 0.00016151 1.79966e-06
-9.85038e-07 1.79966e-06 -1.7969e-05
0.00114137 -0.000229806 4.25841e-07
-0.000229806 0.000209127 -5.50187e-07
4.25841e-07 -5.50187e-07 1.21684e-05
0.000941563 -0.000224944 -4.87321e-07
-0.000224944 5.66186e-05 -5.02996e-06
-4.87321e-07 -5.02996e-06 -0.000132993
0.000667407 -5.95675e-05 -9.63978e-07
-5.95675e-05 4.32911e-05 4.72104e-06
-9.63978e-07 4.72104e-06 -7.87314e-05
0.000926223 -0.000149692 1.37801e-07
-0.000149692 0.000188961 2.22824e-08
1.37801e-07 2.22824e-08 1.91313e-05
0.000519196 -0.000147696 -2.87045e-06
-0.000147696 -6.14364e-05 3.93459e-07
-2.87045e-06 3.93459e-07 -0.000245101
0.000424062 6.16057e-05 1.82409e-06
6.16057e-05 -8.04306e-05 7.2515e-06
1.82409e-06 7.2515e-06 -0.00012258
0.000692079 -2.8601e-05 -3.29855e-07
-2.8601e-05 7.1368e-05 -4.06558e-07
-3.29855e-07 -4.06558e-07 -2.95718e-05
0.00105038 -0.000103314 6.98324e-07
-0.000103314 0.000307163 -1.24076e-06
6.98324e-07 -1.24076e-06 0.00014807
0.00249124 0.000128263 -7.84197e-06
0.000128263 0.00113124 1.55571e-06
-7.84197e-06 1.55571e-06 0.00112773
0.000549456 6.71942e-05 -3.37081e-07
6.71942e-05 -1.51571e-05 -2.51863e-07
-3.37081e-07 -2.51863e-07 -4.80743e-05
0.000729293 -2.6788e-06 1.66921e-06
-2.6788e-06 7.81162e-05 -3.91081e-06
1.66921e-06 -3.91081e-06 3.03528e-06
0.00241923 0.000104201 3.03276e-06
0.000104201 0.00107976 2.60211e-07
3.03276e-06 2.60211e-07 0.00108303
0.000574529 6.52024e-05 -9.49461e-07
6.52024e-05 -1.00664e-05 -5.06961e-06
-9.49461e-07 -5.06961e-06 -3.75235e-05
0.00240203 9.46515e-05 2.78648e-05
9.46515e-05 0.00106285 -3.24538e-06
2.78648e-05 -3.24538e-06 0.00106846
0.000897555 0.000104831 -1.65519e-07
0.000104831 0.000178274 1.10499e-06
-1.65519e-07 1.10499e-06 5.59053e-05
0.000762889 5.34016e-05 -1.27389e-07
5.34016e-05 0.000104589 -2.42464e-07
-1.27389e-07 -2.42464e-07 -8.20818e-06
0.000800496 4.23307e-05 -1.35978e-08
4.23307e-05 0.000141264 -2.09135e-06
-1.35978e-08 -2.09135e-06 2.24862e-05
0.000667013 -6.6203e-06 -1.09629e-06
-6.6203e-06 2.99325e-05 -3.15266e-06
-1.09629e-06 -3.15266e-06 -4.02162e-05
0.000727269 3.13686e-05 4.15422e-07
3.13686e-05 8.84254e-05 1.33658e-07
4.15422e-07 1.33658e-07 -1.65761e-05
0.000631502 4.19618e-05 6.93741e-07
4.19618e-05 3.25153e-05 9.5534e-07
6.93741e-07 9.5534e-07 -7.82081e-05
0.000568213 -3.8285e-05 -6.73199e-07
-3.8285e-05 -3.33023e-05 -5.46935e-06
-6.73199e-07 -5.46935e-06 -5.94388e-05
0.00064544 3.9572e-06 -3.50331e-08
3.9572e-06 1.55607e-05 -6.5108e-08
-3.50331e-08 -6.5108e-08 -5.05666e-05
0.000720568 4.7675e-05 9.76321e-07
4.7675e-05 7.76855e-05 1.35656e-06
9.76321e-07 1.35656e-06 -1.80495e-05
0.00258197 -7.85734e-05 -3.20503e-05
-7.85734e-05 0.00115215 -4.16296e-06
-3.20503e-05 -4.16296e-06 0.00116095
0.000560636 -3.32781e-05 -4.80284e-07
-3.32781e-05 -4.38352e-05 -3.7321e-08
-4.80284e-07 -3.7321e-08 -6.6003e-05
0.000643657 1.47956e-05 7.67398e-07
1.47956e-05 1.39895e-05 2.67565e-06
7.67398e-07 2.67565e-06 -4.77811e-05
0.00243532 -6.39907e-05 -4.21654e-06
-6.39907e-05 0.00105978 2.45799e-07
-4.21654e-06 2.45799e-07 0.00107163
0.000572958 -2.75294e-05 -3.46311e-07
-2.75294e-05 -4.23306e-05 4.54456e-06
-3.46311e-07 4.54456e-06 -6.03259e-05
0.00229772 -4.86316e-05 1.88167e-05
-4.86316e-05 0.000973654 4.54092e-06
1.88167e-05 4.54092e-06 0.000988486
-0.00494274 0.000101143 -8.4911e-06
0.000101143 0.000626336 4.71877e-05
-8.4911e-06 4.71877e-05 -0.00151762
0.00340397 -3.18914e-05 4.12573e-07
-3.18914e-05 0.00144553 1.0604e-05
4.12573e-07 1.0604e-05 0.000442217
0.000864678 -7.60811e-05 -5.81711e-06
-7.60811e-05 0.000155206 -5.17461e-06
-5.81711e-06 -5.17461e-06 4.43026e-05
0.000591785 6.26458e-05 -5.47728e-07
6.26458e-05 -2.80271e-06 3.15949e-07
-5.47728e-07 3.15949e-07 -0.000114349
0.00166619 0.000242226 -5.51038e-07
0.000242226 0.00062928 1.48345e-06
-5.51038e-07 1.48345e-06 0.000477342
0.000621286 6.34819e-05 -2.58861e-06
6.34819e-05 1.73424e-05 -2.28912e-07
-2.58861e-06 -2.28912e-07 -0.00010189
0.000999699 2.13854e-05 -1.01048e-07
2.13854e-05 0.00022772 -1.72006e-07
-1.01048e-07 -1.72006e-07 0.000123974
0.00120948 0.000104104 1.61582e-06
0.000104104 0.000358343 5.17639e-07
1.61582e-06 5.17639e-07 0.000241634
0.000561759 3.38637e-05 -1.03918e-06
3.38637e-05 -1.42046e-05 3.20629e-06
-1.03918e-06 3.20629e-06 -0.000123111
0.000613208 5.10981e-05 -1.16376e-06
5.10981e-05 3.25726e-05 5.75814e-07
-1.16376e-06 5.75814e-07 -9.25708e-05
0.000776724 6.00026e-05 -4.55191e-07
6.00026e-05 0.000110833 -1.89613e-07
-4.55191e-07 -1.89613e-07 -1.37387e-05
0.00084975 0.000108866 -6.02848e-08
0.000108866 0.000175207 -2.95724e-06
-6.02848e-08 -2.95724e-06 2.32072e-05
0.000448722 0.000163068 2.32975e-06
0.000163068 -0.000106103 -6.06286e-06
2.32975e-06 -6.06286e-06 -0.000207415
0.000850068 7.52333e-05 -6.80459e-07
7.52333e-05 0.000175575 -7.30097e-07
-6.80459e-07 -7.30097e-07 4.95145e-05
0.00100485 0.00011329 4.58797e-07
0.00011329 0.000300848 2.45773e-06
4.58797e-07 2.45773e-06 0.000177342
-0.00533862 -0.000735258 -0.00030745
-0.000735258 -0.00148394 1.32432e-05
-0.00030745 1.32432e-05 -0.00247936
-0.00258083 -0.000508458 0.000126186
-0.000508458 0.000995482 6.12878e-05
0.000126186 6.12878e-05 -0.000610425
0.00371485 0.000220382 -0.000112964
0.000220382 0.00165283 -6.94246e-05
-0.000112964 -6.94246e-05 -0.000674271
-0.0077115 -0.00182579 0.000385395
-0.00182579 -0.00356904 0.000320257
0.000385395 0.000320257 -0.00187656
0.0114688 -0.00118826 -7.35257e-05
-0.00118826 0.00350737 9.53848e-05
-7.35257e-05 9.53848e-05 0.00342523
-0.000790865 0.000882241 2.76082e-06
0.000882241 0.000112082 -5.23743e-05
2.76082e-06 -5.23743e-05 -0.00364183
0.0029012 -3.48173e-05 -0.000148165
-3.48173e-05 0.000881573 4.82613e-05
-0.000148165 4.82613e-05 6.31442e-05
0.00276108 0.000340918 -1.06587e-05
0.000340918 0.000735508 1.90601e-05
-1.06587e-05 1.90601e-05 0.000470527
0.00825784 -0.0013239 -0.000133372
-0.0013239 0.00400925 4.85434e-05
-0.000133372 4.85434e-05 0.00403561
0.000169999 0.000766967 -6.00736e-06
0.000766967 0.000487498 -1.99426e-05
-6.00736e-06 -1.99426e-05 -0.00249577
0.00133406 0.000590791 -6.06723e-05
0.000590791 0.000191788 -6.81749e-05
-6.06723e-05 -6.81749e-05 -0.000180563
0.00407244 0.00121373 -0.000145821
0.00121373 0.000412423 -8.92605e-05
-0.000145821 -8.92605e-05 -0.00175707
0.00210291 0.00054953 1.61463e-05
0.00054953 0.000529076 -2.19397e-05
1.61463e-05 -2.19397e-05 0.000318847
0.000788442 0.000247256 -4.60603e-06
0.000247256 0.000142945 1.03518e-06
-4.60603e-06 1.03518e-06 2.80551e-05
0.00129985 8.5524e-05 -2.42942e-06
8.5524e-05 0.000476816 1.31581e-06
-2.42942e-06 1.31581e-06 0.000376166
-0.000792508 0.000177771 -3.98892e-05
0.000177771 -0.000325281 -3.97301e-05
-3.98892e-05 -3.97301e-05 -0.000851165
0.00289256 0.000381305 -1.65023e-05
0.000381305 0.00143391 -1.13577e-05
-1.65023e-05 -1.13577e-05 0.00125169
0.00115781 0.000510028 1.38477e-05
0.000510028 0.000113914 -3.88395e-06
1.38477e-05 -3.88395e-06 -0.000169177
0.0032392 0.000830367 8.87002e-05
0.000830367 0.000539307 2.77843e-05
8.87002e-05 2.77843e-05 0.000460705
-0.00439949 -5.03251e-05 -0.000264746
-5.03251e-05 -0.003161 -4.58777e-08
-0.000264746 -4.58777e-08 -0.00225856
-0.00225382 0.00010674 0.000105153
0.00010674 0.00200782 1.81438e-06
0.000105153 1.81438e-06 1.33023e-05
0.0018536 -5.15034e-05 -6.08235e-05
-5.15034e-05 0.000886473 2.25433e-05
-6.08235e-05 2.25433e-05 -5.49202e-06
0.00330118 -0.000265749 -6.17682e-05
-0.000265749 0.00112049 -3.43397e-05
-6.17682e-05 -3.43397e-05 0.00129598
0.00194497 -0.000843522 -4.00115e-05
-0.000843522 0.000159557 6.45442e-06
-4.00115e-05 6.45442e-06 -0.00041506
0.0018056 0.000107575 -1.77266e-05
0.000107575 0.00298123 3.34547e-05
-1.77266e-05 3.34547e-05 0.00200205
0.00213755 -0.000637765 0.000130384
-0.000637765 0.000132351 -0.000106764
0.000130384 -0.000106764 -0.00226612
0.00977294 0.000922265 7.10851e-05
0.000922265 0.00470399 1.22603e-05
7.10851e-05 1.22603e-05 0.0041246
0.00258017 -0.000639671 -1.86843e-05
-0.000639671 0.000573045 6.70534e-06
-1.86843e-05 6.70534e-06 0.000509052
-0.000958797 0.000476789 5.01786e-05
0.000476789 -0.000516835 -1.46204e-05
5.01786e-05 -1.46204e-05 -0.000984565
0.00401691 -0.000215006 -4.08348e-05
-0.000215006 -0.000279558 5.01927e-05
-4.08348e-05 5.01927e-05 -0.00232656
0.00588187 -0.0011299 -3.1007e-05
-0.0011299 0.00134792 1.3391e-05
-3.1007e-05 1.3391e-05 0.000698497
0.000369246 -0.000372365 3.50917e-05
-0.000372365 -0.000469037 -8.06671e-06
3.50917e-05 -8.06671e-06 -0.000684067
0.00939399 -0.000365495 2.03746e-05
-0.000365495 0.00226687 -3.05548e-05
2.03746e-05 -3.05548e-05 0.000946122
0.00413501 -0.000564187 5.65435e-05
-0.000564187 -1.17472e-05 -3.36417e-05
5.65435e-05 -3.36417e-05 -0.000126861
-0.000463088 -0.000263484 -1.91167e-05
-0.000263484 -0.000938654 6.03038e-06
-1.91167e-05 6.03038e-06 -0.000877411
0.000713583 -0.000336161 -7.33047e-06
-0.000336161 -0.000446021 -1.02647e-06
-7.33047e-06 -1.02647e-06 -0.000431101
0.00304505 -0.000482777 2.2715e-05
-0.000482777 0.00065084 -1.61701e-05
2.2715e-05 -1.61701e-05 0.000631274
0.000368849 -0.000332963 -1.01129e-05
-0.000332963 -0.000422385 -4.01153e-06
-1.01129e-05 -4.01153e-06 -0.000665649
0.0016966 -0.000460857 -8.33725e-08
-0.000460857 8.70048e-05 -2.16661e-07
-8.33725e-08 -2.16661e-07 -9.74926e-05
0.0021116 -0.00041902 -3.92477e-06
-0.00041902 0.000171293 -1.32189e-06
-3.92477e-06 -1.32189e-06 4.67767e-05
0.00125534 -0.000396846 -2.37968e-06
-0.000396846 -7.81725e-06 2.85351e-06
-2.37968e-06 2.85351e-06 -0.000274134
0.00179805 -0.000396265 -2.47648e-06
-0.000396265 0.00012476 2.50238e-07
-2.47648e-06 2.50238e-07 -6.2748e-05
0.00179782 -0.00031528 -2.00801e-06
-0.00031528 3.45442e-05 -1.57396e-06
-2.00801e-06 -1.57396e-06 -8.26707e-05
0.00137041 -0.000346843 3.47813e-06
-0.000346843 -2.98303e-06 4.29129e-06
3.47813e-06 4.29129e-06 -0.00022642
0.00169076 -0.000308897 9.87164e-09
-0.000308897 8.22848e-05 7.01059e-07
9.87164e-09 7.01059e-07 -7.12442e-05
0.00180385 -0.000260209 -2.76289e-06
-0.000260209 0.000101382 -2.12537e-06
-2.76289e-06 -2.12537e-06 -6.43963e-06
0.00185342 -0.000236184 -1.92996e-06
-0.000236184 0.000191095 -9.51722e-07
-1.92996e-06 -9.51722e-07 7.78014e-05
0.00164804 -0.00025242 -2.42813e-06
-0.00025242 7.11146e-05 2.90912e-06
-2.42813e-06 2.90912e-06 -6.59588e-05
0.00172199 -0.000260583 -1.00558e-06
-0.000260583 0.000150447 -5.44472e-06
-1.00558e-06 -5.44472e-06 -4.6284e-06
0.00163847 -0.000294017 -3.59956e-06
-0.000294017 0.000182192 -1.67569e-06
-3.59956e-06 -1.67569e-06 -1.6119e-05
0.00161819 -0.000301731 1.19197e-06
-0.000301731 0.000140009 4.83286e-07
1.19197e-06 4.83286e-07 -5.71712e-05
0.00149668 -0.00028708 1.89472e-06
-0.00028708 5.44645e-05 5.74186e-06
1.89472e-06 5.74186e-06 -0.000126791
0.00132103 -0.000263795 -6.28375e-06
-0.000263795 0.000126244 1.89445e-06
-6.28375e-06 1.89445e-06 -7.83269e-05
0.00144638 -0.000311263 -4.77514e-08
-0.000311263 0.000136431 -2.12494e-08
-4.77514e-08 -2.12494e-08 -8.80389e-05
0.00158577 -0.000349331 2.5112e-06
-0.000349331 0.000196507 6.33875e-07
2.5112e-06 6.33875e-07 -3.91853e-05
0.00112719 -0.000218212 -2.73829e-06
-0.000218212 0.000161976 3.02253e-06
-2.73829e-06 3.02253e-06 -2.83483e-05
0.00125283 -0.000253641 6.27087e-07
-0.000253641 0.000171506 7.77567e-07
6.27087e-07 7.77567e-07 -3.42503e-05
0.00117466 -0.000283993 2.74014e-06
-0.000283993 6.60231e-05 -4.22104e-06
2.74014e-06 -4.22104e-06 -0.00015865
0.00072004 -0.000121907 -4.61624e-06
-0.000121907 4.19356e-05 4.02989e-06
-4.61624e-06 4.02989e-06 -9.87675e-05
0.00108154 -0.000202201 6.60599e-07
-0.000202201 0.000211902 -4.27971e-07
6.60599e-07 -4.27971e-07 3.09391e-05
0.00124002 -0.000236674 -8.27237e-08
-0.000236674 0.000260543 -2.34307e-06
-8.27237e-08 -2.34307e-06 6.33985e-05
0.000427049 1.3393e-05 -2.33001e-06
1.3393e-05 -9.50925e-05 9.41542e-06
-2.33001e-06 9.41542e-06 -0.000144413
0.000749244 -8.64526e-05 1.49707e-07
-8.64526e-05 9.45468e-05 4.99861e-07
1.49707e-07 4.99861e-07 -3.37235e-05
0.00116046 -0.000161973 2.6843e-07
-0.000161973 0.000324871 -5.74299e-07
2.6843e-07 -5.74299e-07 0.0001506
0.00280133 0.000135898 -4.32583e-05
0.000135898 0.00131607 2.28673e-06
-4.32583e-05 2.28673e-06 0.00131111
0.000544856 4.74489e-05 -3.92275e-07
4.74489e-05 -1.58661e-05 -6.12779e-07
-3.92275e-07 -6.12779e-07 -5.63659e-05
0.00085994 -7.53784e-05 3.12434e-06
-7.53784e-05 0.00016957 -4.59001e-06
3.12434e-06 -4.59001e-06 6.36388e-05
0.00172456 9.42827e-05 1.96017e-05
9.42827e-05 0.000677453 7.06894e-08
1.96017e-05 7.06894e-08 0.000673885
0.00060532 6.18478e-05 -5.5571e-08
6.18478e-05 1.61599e-05 -6.01156e-06
-5.5571e-08 -6.01156e-06 -1.60926e-05
0.00250659 0.000106878 3.52127e-05
0.000106878 0.00113122 -2.65175e-06
3.52127e-05 -2.65175e-06 0.00113409
0.000926487 0.000115396 2.12949e-06
0.000115396 0.000180796 1.02914e-06
2.12949e-06 1.02914e-06 5.91295e-05
0.000636993 5.79112e-05 -2.75503e-07
5.79112e-05 2.05622e-05 5.39995e-07
-2.75503e-07 5.39995e-07 -9.09843e-05
0.000696638 2.58149e-05 -2.47562e-07
2.58149e-05 6.3615e-05 -1.37189e-06
-2.47562e-07 -1.37189e-06 -4.84934e-05
0.000896699 7.49905e-05 4.6424e-07
7.49905e-05 0.000184457 5.20682e-07
4.6424e-07 5.20682e-07 6.77224e-05
0.00072139 2.00915e-05 1.86527e-07
2.00915e-05 7.88252e-05 4.87911e-08
1.86527e-07 4.87911e-08 -2.70839e-05
0.00067074 -5.72183e-06 -1.27193e-06
-5.72183e-06 3.55239e-05 -3.61874e-06
-1.27193e-06 -3.61874e-06 -4.02777e-05
0.000570155 -4.09442e-05 -1.03667e-06
-4.09442e-05 -2.55037e-05 -6.00575e-06
-1.03667e-06 -6.00575e-06 -5.49568e-05
0.000641808 -4.41642e-06 2.21482e-07
-4.41642e-06 1.64572e-05 -7.89196e-08
2.21482e-07 -7.89196e-08 -5.40804e-05
0.000655282 2.73317e-06 -2.81723e-08
2.73317e-06 3.0699e-05 1.47796e-06
-2.81723e-08 1.47796e-06 -6.2037e-05
0.00266549 -9.11837e-05 -3.9251e-05
-9.11837e-05 0.00120749 -3.77176e-06
-3.9251e-05 -3.77176e-06 0.00121374
0.00054961 -3.37742e-05 -3.1705e-07
-3.37742e-05 -4.4676e-05 -1.52174e-08
-3.1705e-07 -1.52174e-08 -7.02128e-05
0.000633719 1.03219e-05 1.38656e-06
1.03219e-05 1.08119e-05 2.84809e-06
1.38656e-06 2.84809e-06 -5.61983e-05
0.00255381 -7.77804e-05 -4.38556e-06
-7.77804e-05 0.0011351 2.85491e-07
-4.38556e-06 2.85491e-07 0.00114412
0.000552937 -3.32732e-05 -8.53575e-08
-3.32732e-05 -4.85555e-05 5.00005e-06
-8.53575e-08 5.00005e-06 -7.05562e-05
0.00242123 -6.30208e-05 2.32641e-05
-6.30208e-05 0.00105088 4.42681e-06
2.32641e-05 4.42681e-06 0.00106298
0.000363785 0.000306437 -0.000151456
0.000306437 0.00139777 4.84106e-05
-0.000151456 4.84106e-05 0.000427976
-0.00204321 -6.36031e-05 8.0626e-06
-6.36031e-05 0.0014792 1.33472e-05
8.0626e-06 1.33472e-05 -0.000610001
0.00314745 -6.36298e-05 -6.23537e-05
-6.36298e-05 0.00152472 -3.75378e-06
-6.23537e-05 -3.75378e-06 0.000474597
0.000499272 3.0586e-05 1.86564e-06
3.0586e-05 -5.84712e-05 -1.32974e-06
1.86564e-06 -1.32974e-06 -0.000164329
0.000608795 4.08479e-05 1.9328e-06
4.08479e-05 7.33018e-06 3.50455e-07
1.9328e-06 3.50455e-07 -0.000109577
0.00125562 0.000200458 -1.24805e-06
0.000200458 0.000399695 6.92062e-07
-1.24805e-06 6.92062e-07 0.000256753
0.00157757 0.000268464 2.16429e-06
0.000268464 0.000525379 -9.50359e-07
2.16429e-06 -9.50359e-07 0.000342285
0.0010662 0.000158546 -6.36963e-06
0.000158546 0.00030223 -2.35333e-06
-6.36963e-06 -2.35333e-06 0.000152613
0.000975262 0.000103486 1.17219e-06
0.000103486 0.000242761 2.8113e-06
1.17219e-06 2.8113e-06 0.000112444
0.000779104 7.06821e-05 3.10359e-06
7.06821e-05 0.000113945 2.2401e-06
3.10359e-06 2.2401e-06 -9.8089e-06
0.000681103 0.000123062 -3.49926e-06
0.000123062 8.37065e-05 -3.26101e-06
-3.49926e-06 -3.26101e-06 -6.23672e-05
-0.000698639 7.70046e-05 -7.13595e-07
7.70046e-05 -0.000744906 -3.11692e-07
-7.13595e-07 -3.11692e-07 -0.000895391
0.00117826 0.000246769 1.83938e-06
0.000246769 0.00024685 -3.42713e-06
1.83938e-06 -3.42713e-06 0.000131364
0.00220924 0.000489093 3.44849e-06
0.000489093 0.000519123 -1.23282e-05
3.44849e-06 -1.23282e-05 0.000323966
0.00059647 0.000184862 -5.30392e-06
0.000184862 -6.295e-06 -2.62625e-07
-5.30392e-06 -2.62625e-07 -0.000112681
0.000571515 6.37188e-05 9.5572e-07
6.37188e-05 1.92981e-05 -1.35663e-06
9.5572e-07 -1.35663e-06 -9.34287e-05
0.0109267 0.00063813 -7.23244e-05
0.00063813 0.00294878 3.66091e-05
-7.23244e-05 3.66091e-05 0.00159042
-0.000707748 -0.000583962 -0.000150712
-0.000583962 0.00134099 -4.55089e-05
-0.000150712 -4.55089e-05 0.00018802
-0.000870555 -0.000782209 7.37765e-05
-0.000782209 0.00111374 -2.12399e-05
7.37765e-05 -2.12399e-05 -0.00055402
-0.0024542 -0.000675961 -6.78655e-06
-0.000675961 -0.000833887 0.000116333
-6.78655e-06 0.000116333 -0.000899069
0.0107555 0.000690884 4.01555e-06
0.000690884 0.00501583 -5.61763e-06
4.01555e-06 -5.61763e-06 0.00192182
0.000830506 0.000319601 -5.13801e-05
0.000319601 -0.000285559 -1.98659e-05
-5.13801e-05 -1.98659e-05 -0.000398117
0.00145992 0.000611696 -2.06604e-05
0.000611696 0.000203053 -1.08847e-05
-2.06604e-05 -1.08847e-05 -8.22384e-05
0.00942062 0.000646269 3.1865e-05
0.000646269 0.0031558 1.99083e-05
3.1865e-05 1.99083e-05 0.0013224
0.00548899 0.00122451 -3.21406e-05
0.00122451 0.000927479 -3.95222e-05
-3.21406e-05 -3.95222e-05 0.000455931
0.00185822 0.000592545 7.70187e-07
0.000592545 0.000226181 -4.85794e-06
7.70187e-07 -4.85794e-06 6.24124e-05
0.00100076 0.000412498 5.62431e-06
0.000412498 7.42421e-05 -1.80332e-06
5.62431e-06 -1.80332e-06 -0.000126536
0.000912067 0.000233097 -1.66144e-05
0.000233097 0.000221824 1.52637e-05
-1.66144e-05 1.52637e-05 0.000112675
0.00264499 0.000660398 -3.98712e-05
0.000660398 0.00074867 -1.38364e-05
-3.98712e-05 -1.38364e-05 0.000477252
0.00228808 0.000757001 -2.81502e-06
0.000757001 1.82516e-06 1.72127e-05
-2.81502e-06 1.72127e-05 -0.000105548
0.000629684 -0.000305679 -3.04692e-05
-0.000305679 -0.00281143 4.8999e-06
-3.04692e-05 4.8999e-06 -0.00321336
0.0023736 -0.000346242 -1.19949e-06
-0.000346242 0.00134555 -1.85779e-05
-1.19949e-06 -1.85779e-05 0.0013889
-0.00413078 1.64666e-05 0.000130838
1.64666e-05 0.00140572 -9.9886e-06
0.000130838 -9.9886e-06 -0.000739623
0.00229338 -0.000692088 -3.43784e-05
-0.000692088 0.000353158 4.96217e-06
-3.43784e-05 4.96217e-06 0.000210398
0.00336804 -0.0010048 3.43639e-05
-0.0010048 0.000700636 -1.24366e-05
3.43639e-05 -1.24366e-05 -0.000241721
0.0012299 -0.000270094 0.000183097
-0.000270094 0.00167792 5.21026e-06
0.000183097 5.21026e-06 0.000935056
0.0116293 -0.000248837 -0.000112277
-0.000248837 0.00376597 6.02707e-05
-0.000112277 6.02707e-05 0.00213838
0.00073102 -0.000406346 -2.35586e-05
-0.000406346 -0.000357412 -2.79295e-06
-2.35586e-05 -2.79295e-06 -0.000487395
0.00814829 6.70076e-05 -3.89577e-05
6.70076e-05 0.00135472 2.62627e-05
-3.89577e-05 2.62627e-05 0.000364306
0.00442727 -0.000630495 6.73998e-05
-0.000630495 -5.96561e-06 1.87311e-06
6.73998e-05 1.87311e-06 -0.00046349
0.00255042 -0.000405226 3.80338e-05
-0.000405226 0.000552953 -1.07829e-05
3.80338e-05 -1.07829e-05 0.000248564
0.0033471 -0.000215932 -8.51073e-05
-0.000215932 0.000170243 -1.79637e-06
-8.51073e-05 -1.79637e-06 6.05362e-05
-0.00101739 -0.000239019 -1.49574e-05
-0.000239019 -0.00139207 3.70644e-06
-1.49574e-05 3.70644e-06 -0.00133786
0.00155313 -0.000404349 4.94217e-07
-0.000404349 -0.000132682 -7.55894e-07
4.94217e-07 -7.55894e-07 -0.0001425
0.00226577 -0.000336663 1.23237e-05
-0.000336663 0.0001336 -8.66052e-06
1.23237e-05 -8.66052e-06 0.000158458
0.00129521 -0.000426908 -1.58244e-06
-0.000426908 -0.000113361 2.71735e-06
-1.58244e-06 2.71735e-06 -0.000290595
0.00180136 -0.000390112 -2.19691e-06
-0.000390112 2.45931e-05 -4.04276e-08
-2.19691e-06 -4.04276e-08 -9.7414e-05
0.00206703 -0.000302736 -2.50003e-07
-0.000302736 8.31583e-05 1.08499e-06
-2.50003e-07 1.08499e-06 2.94297e-05
0.00165113 -0.000382253 -2.34084e-06
-0.000382253 4.98233e-05 4.82439e-06
-2.34084e-06 4.82439e-06 -0.00013782
0.00184456 -0.000316032 5.01063e-07
-0.000316032 6.19237e-05 1.5173e-06
5.01063e-07 1.5173e-06 -5.45847e-05
0.00173346 -0.000266311 -7.39811e-07
-0.000266311 -5.70886e-07 1.04523e-06
-7.39811e-07 1.04523e-06 -8.35936e-05
0.00165237 -0.000302224 3.77583e-06
-0.000302224 6.56654e-05 5.46748e-06
3.77583e-06 5.46748e-06 -8.62455e-05
0.00174817 -0.000259812 -2.37951e-07
-0.000259812 6.83753e-05 1.15761e-06
-2.37951e-07 1.15761e-06 -4.03965e-05
0.00204763 -0.000257892 -1.29917e-07
-0.000257892 0.000262047 -2.41501e-07
-1.29917e-07 -2.41501e-07 0.000165385
0.00176209 -0.000233861 -3.78281e-06
-0.000233861 0.000129368 3.56046e-06
-3.78281e-06 3.56046e-06 1.94315e-05
0.00181512 -0.000244565 2.08273e-06
-0.000244565 0.000192292 -3.32801e-06
2.08273e-06 -3.32801e-06 6.41141e-05
0.00169599 -0.000253089 1.93867e-06
-0.000253089 9.79801e-05 7.64958e-06
1.93867e-06 7.64958e-06 -3.48408e-05
0.00172693 -0.000262716 4.4798e-07
-0.000262716 0.000153792 -8.04455e-07
4.4798e-07 -8.04455e-07 -2.09852e-06
0.00165709 -0.000254267 -1.55233e-06
-0.000254267 0.000156663 -2.98626e-06
-1.55233e-06 -2.98626e-06 -1.22538e-05
0.00146803 -0.000256801 -5.44812e-06
-0.000256801 0.000148224 1.48435e-07
-5.44812e-06 1.48435e-07 -4.35273e-05
0.00166708 -0.000297209 3.72232e-07
-0.000297209 0.000200942 -4.70618e-07
3.72232e-07 -4.70618e-07 1.3453e-06
0.00172804 -0.000307563 2.8902e-06
-0.000307563 0.000200825 2.89576e-06
2.8902e-06 2.89576e-06 3.47568e-06
0.00109974 -0.000216395 -6.23968e-06
-0.000216395 6.08487e-05 2.9026e-06
-6.23968e-06 2.9026e-06 -0.000123879
0.00127066 -0.00025901 -1.46931e-06
-0.00025901 9.85948e-05 6.49383e-07
-1.46931e-06 6.49383e-07 -0.000105542
0.00150856 -0.000316227 3.44506e-06
-0.000316227 0.000169864 -5.89618e-07
3.44506e-06 -5.89618e-07 -5.47053e-05
0.000789422 -0.000145468 -5.9511e-06
-0.000145468 2.99261e-05 5.6496e-06
-5.9511e-06 5.6496e-06 -0.000119277
0.00113463 -0.000218498 7.96555e-07
-0.000218498 0.000163788 2.99867e-07
7.96555e-07 2.99867e-07 -2.61539e-05
0.00128384 -0.000255775 2.88773e-06
-0.000255775 0.00018679 -1.83394e-06
2.88773e-06 -1.83394e-06 -1.95259e-05
0.00043062 -5.18212e-05 -1.08045e-05
-5.18212e-05 -0.000116504 1.09199e-05
-1.08045e-05 1.09199e-05 -0.000174899
0.000789889 -0.000137359 -4.23938e-07
-0.000137359 8.15688e-05 8.54556e-08
-4.23938e-07 8.54556e-08 -6.13445e-05
0.00106496 -0.000198267 1.30735e-06
-0.000198267 0.00020028 -1.89607e-06
1.30735e-06 -1.89607e-06 2.04289e-05
0.00338935 0.00015798 -6.3632e-05
0.00015798 0.00166169 2.2672e-06
-6.3632e-05 2.2672e-06 0.00165126
0.000559481 -5.87445e-06 7.95761e-07
-5.87445e-06 -2.28142e-05 -3.53285e-07
7.95761e-07 -3.53285e-07 -7.24095e-05
0.000870403 -0.00013493 4.56308e-06
-0.00013493 0.000165469 -3.90575e-06
4.56308e-06 -3.90575e-06 3.19404e-05
0.00297502 0.000133702 6.60259e-06
0.000133702 0.00141503 4.14263e-07
6.60259e-06 4.14263e-07 0.00141104
0.000673738 3.01396e-05 3.85588e-06
3.01396e-05 5.38515e-05 -7.74048e-06
3.85588e-06 -7.74048e-06 1.45702e-05
0.00269243 0.00011673 4.91682e-05
0.00011673 0.00124459 -2.1925e-06
4.91682e-05 -2.1925e-06 0.00124533
0.000930283 0.000191779 3.19602e-06
0.000191779 0.000151208 -3.21841e-06
3.19602e-06 -3.21841e-06 -2.0773e-05
0.000822727 0.000139617 1.05553e-06
0.000139617 0.000129636 -1.24474e-07
1.05553e-06 -1.24474e-07 9.31163e-07
0.000498806 3.64403e-05 -4.17612e-07
3.64403e-05 -5.76911e-05 -6.125e-07
-4.17612e-07 -6.125e-07 -0.000174727
0.000358251 2.10747e-05 3.29641e-07
2.10747e-05 -0.00014159 -7.30279e-08
3.29641e-07 -7.30279e-08 -0.000246912
0.000585 5.32295e-06 -2.39724e-07
5.32295e-06 -4.25767e-06 4.78527e-07
-2.39724e-07 4.78527e-07 -0.000113239
0.00065953 -2.24806e-06 -1.41835e-06
-2.24806e-06 3.08645e-05 -3.73905e-06
-1.41835e-06 -3.73905e-06 -5.29466e-05
0.000641449 1.09428e-06 1.85596e-07
1.09428e-06 2.48683e-05 1.69525e-06
1.85596e-07 1.69525e-06 -7.43371e-05
0.000630937 -1.1108e-05 3.24774e-07
-1.1108e-05 1.39645e-05 -1.87133e-07
3.24774e-07 -1.87133e-07 -6.19695e-05
0.000573026 -4.48717e-05 -1.24322e-06
-4.48717e-05 -1.62252e-05 -6.62581e-06
-1.24322e-06 -6.62581e-06 -4.928e-05
0.0027401 -0.000103726 -4.59559e-05
-0.000103726 0.0012585 -3.27154e-06
-4.59559e-05 -3.27154e-06 0.0012621
0.000544551 -3.90587e-05 8.50138e-08
-3.90587e-05 -4.07655e-05 -3.89176e-09
8.50138e-08 -3.89176e-09 -6.98205e-05
0.000608407 -3.09064e-06 1.62571e-06
-3.09064e-06 -1.73444e-06 3.17064e-06
1.62571e-06 3.17064e-06 -7.25788e-05
0.00266265 -9.10873e-05 -4.40523e-06
-9.10873e-05 0.00120544 3.3389e-07
-4.40523e-06 3.3389e-07 0.00121164
0.000535969 -3.51456e-05 5.94064e-07
-3.51456e-05 -5.22199e-05 5.4444e-06
5.94064e-07 5.4444e-06 -7.78282e-05
0.00252512 -7.68087e-05 2.89363e-05
-7.68087e-05 0.00111759 4.23792e-06
2.89363e-05 4.23792e-06 0.00112687
0.0106342 0.000456079 0.000170012
0.000456079 0.00261277 6.75944e-05
0.000170012 6.75944e-05 0.00166159
-0.00269579 -0.000658072 -0.000103296
-0.000658072 -0.00199005 -1.19282e-05
-0.000103296 -1.19282e-05 -0.00216366
-0.0041738 0.000234221 -4.78756e-05
0.000234221 0.000515162 -3.46591e-05
-4.78756e-05 -3.46591e-05 -0.00196916
0.000670544 1.4619e-05 5.98636e-06
1.4619e-05 3.71126e-05 5.99184e-07
5.98636e-06 5.99184e-07 -7.59581e-05
0.000870392 0.00017061 -1.94034e-06
0.00017061 0.000183889 1.28472e-06
-1.94034e-06 1.28472e-06 4.90382e-05
0.0012681 0.000180685 -2.93545e-07
0.000180685 0.000413529 -3.65484e-07
-2.93545e-07 -3.65484e-07 0.000262064
0.00125155 0.000237955 -3.18887e-06
0.000237955 0.000342339 3.07242e-07
-3.18887e-06 3.07242e-07 0.000165442
0.00155102 0.000295753 1.84789e-05
0.000295753 0.000403818 -1.56266e-07
1.84789e-05 -1.56266e-07 0.000191286
0.000227146 0.000155265 -1.96252e-06
0.000155265 -0.000213618 -2.43071e-06
-1.96252e-06 -2.43071e-06 -0.000374905
0.000507705 0.000123604 -2.19805e-06
0.000123604 -4.30973e-06 -2.48155e-06
-2.19805e-06 -2.48155e-06 -0.000148104
0.000194424 0.000162972 6.42309e-07
0.000162972 -0.000253551 1.43468e-06
6.42309e-07 1.43468e-06 -0.000426469
0.000986751 0.000234648 -8.38125e-08
0.000234648 0.000153254 6.49957e-07
-8.38125e-08 6.49957e-07 3.38336e-05
0.000410124 0.000238824 4.57782e-06
0.000238824 -0.000279341 4.33894e-07
4.57782e-06 4.33894e-07 -0.000441546
0.00332361 0.000537375 -3.21163e-06
0.000537375 0.0011191 -4.66305e-06
-3.21163e-06 -4.66305e-06 0.000943819
0.00207925 0.000504762 -5.59622e-06
0.000504762 0.000349324 2.79663e-06
-5.59622e-06 2.79663e-06 0.000175292
0.00157196 0.000435159 3.56296e-06
0.000435159 0.000193978 -3.38287e-06
3.56296e-06 -3.38287e-06 1.57184e-05
0.000356672 0.000184973 -1.89503e-06
0.000184973 -0.000127044 4.88609e-06
-1.89503e-06 4.88609e-06 -0.000235396
0.0052569 0.000521408 -2.21513e-05
0.000521408 0.000371762 1.0423e-05
-2.21513e-05 1.0423e-05 0.000460725
0.00846948 0.000455335 6.93854e-05
0.000455335 0.00172483 4.0236e-05
6.93854e-05 4.0236e-05 0.000270793
0.00542981 -0.00112686 7.29524e-05
-0.00112686 0.00306522 -6.02437e-05
7.29524e-05 -6.02437e-05 0.0025059
0.00407861 0.00107323 0.000301408
0.00107323 0.000243829 0.000126189
0.000301408 0.000126189 -0.00273823
0.00153621 0.000562216 -1.9477e-05
0.000562216 0.000186229 1.10806e-05
-1.9477e-05 1.10806e-05 0.000210117
0.00332563 0.000949909 -7.54996e-05
0.000949909 -8.1683e-06 -2.42922e-05
-7.54996e-05 -2.42922e-05 -0.000243891
0.00352072 0.000775322 4.0454e-05
0.000775322 0.000587142 2.11948e-05
4.0454e-05 2.11948e-05 0.000576766
0.00291213 0.000676189 5.55313e-06
0.000676189 0.000688785 7.98287e-06
5.55313e-06 7.98287e-06 0.000529798
0.000687319 0.000361015 -8.54081e-06
0.000361015 -3.55982e-05 1.78601e-05
-8.54081e-06 1.78601e-05 -0.000224798
0.00365867 0.000870347 -0.000115002
0.000870347 0.000656998 -2.96306e-05
-0.000115002 -2.96306e-05 0.000467474
0.0029188 -0.000207287 -8.11341e-05
-0.000207287 0.000404287 8.57737e-06
-8.11341e-05 8.57737e-06 0.000109669
0.00995627 -0.000244969 -9.81322e-07
-0.000244969 0.00285757 -2.12869e-07
-9.81322e-07 -2.12869e-07 0.00219438
-0.00865472 -0.000475693 0.000289419
-0.000475693 -0.0048459 -8.19277e-06
0.000289419 -8.19277e-06 -0.00454093
0.000912322 -0.000432484 -4.06738e-05
-0.000432484 -0.000382181 8.70418e-06
-4.06738e-05 8.70418e-06 -0.000442385
0.00628602 -0.000789125 0.00011799
-0.000789125 0.000927894 1.90875e-05
0.00011799 1.90875e-05 0.000513154
0.00127753 -0.000393504 2.21542e-05
-0.000393504 -0.0019794 5.73912e-05
2.21542e-05 5.73912e-05 -0.00321875
0.00145552 -0.000319451 2.02116e-05
-0.000319451 -8.21387e-05 1.16151e-07
2.02116e-05 1.16151e-07 -0.000244406
0.00253839 -9.85871e-05 -3.89537e-06
-9.85871e-05 -0.000350731 6.3195e-06
-3.89537e-06 6.3195e-06 -0.000497985
0.0040447 -0.000335113 1.86374e-05
-0.000335113 0.000993217 -8.19161e-06
1.86374e-05 -8.19161e-06 0.00103412
0.00347436 -8.39312e-05 7.18563e-05
-8.39312e-05 0.000807461 6.76588e-07
7.18563e-05 6.76588e-07 0.000775538
1.41673e-05 -0.000328954 -7.49221e-06
-0.000328954 -0.000941277 7.35832e-06
-7.49221e-06 7.35832e-06 -0.000936447
0.00175212 -0.000318912 -3.00892e-07
-0.000318912 -0.000142178 4.99233e-07
-3.00892e-07 4.99233e-07 -0.00011457
0.00177349 -0.000210258 1.2408e-05
-0.000210258 -0.000164143 -1.7894e-06
1.2408e-05 -1.7894e-06 -8.31958e-05
0.00156757 -0.000367728 1.35188e-06
-0.000367728 -8.76268e-05 1.16795e-06
1.35188e-06 1.16795e-06 -0.000206987
0.00193925 -0.00029803 2.11964e-06
-0.00029803 1.77264e-05 1.06385e-06
2.11964e-06 1.06385e-06 -3.67405e-05
0.00184951 -0.000234368 1.35633e-06
-0.000234368 3.16923e-05 1.51312e-06
1.35633e-06 1.51312e-06 -2.17532e-06
0.00186891 -0.000315247 5.7944e-06
-0.000315247 7.60425e-05 3.89438e-06
5.7944e-06 3.89438e-06 -3.93249e-05
0.00184292 -0.000269203 8.73234e-07
-0.000269203 6.74362e-05 4.88231e-07
8.73234e-07 4.88231e-07 -1.53486e-05
0.00197167 -0.000238404 -1.3002e-06
-0.000238404 0.000182856 1.06674e-06
-1.3002e-06 1.06674e-06 0.000104319
0.00169342 -0.000259008 3.36792e-06
-0.000259008 3.62547e-05 4.05543e-06
3.36792e-06 4.05543e-06 -7.32442e-05
0.00184737 -0.00025015 1.23946e-07
-0.00025015 0.000152558 6.53264e-07
1.23946e-07 6.53264e-07 5.52185e-05
0.00167345 -0.000235536 3.80784e-06
-0.000235536 8.59517e-05 -1.85896e-06
3.80784e-06 -1.85896e-06 -2.50235e-05
0.00168699 -0.00023236 -2.59944e-06
-0.00023236 7.72925e-05 7.70555e-06
-2.59944e-06 7.70555e-06 -2.94139e-05
0.00184809 -0.000243286 -2.10278e-06
-0.000243286 0.000209951 8.71574e-08
-2.10278e-06 8.71574e-08 8.52718e-05
0.00174702 -0.000233346 7.21419e-07
-0.000233346 0.00018986 -1.92452e-06
7.21419e-07 -1.92452e-06 4.09596e-05
0.00173161 -0.000264379 2.05093e-06
-0.000264379 0.000156785 3.50078e-06
2.05093e-06 3.50078e-06 1.96375e-07
0.00170055 -0.000256587 7.04004e-07
-0.000256587 0.000183166 -6.67539e-07
7.04004e-07 -6.67539e-07 1.33127e-05
0.00168524 -0.000237221 -2.80785e-06
-0.000237221 0.000238122 -9.38862e-07
-2.80785e-06 -9.38862e-07 6.63093e-05
0.000959529 -0.000190911 -8.93594e-06
-0.000190911 -6.92132e-05 2.12195e-06
-8.93594e-06 2.12195e-06 -0.000241833
0.00151619 -0.000261014 -1.02112e-06
-0.000261014 0.000179428 -2.23247e-07
-1.02112e-06 -2.23247e-07 -1.31248e-05
0.00168747 -0.000299395 3.68946e-06
-0.000299395 0.000214579 6.76456e-07
3.68946e-06 6.76456e-07 1.39285e-05
0.000967082 -0.000168198 -9.22161e-06
-0.000168198 6.39316e-05 6.03116e-06
-9.22161e-06 6.03116e-06 -8.67398e-05
0.00117353 -0.000220415 1.64476e-07
-0.000220415 0.000102131 5.6029e-07
1.64476e-07 5.6029e-07 -8.28395e-05
0.00119321 -0.000251474 2.53106e-06
-0.000251474 5.50944e-05 -7.11063e-07
2.53106e-06 -7.11063e-07 -0.000148046
0.000439141 -8.69806e-05 -1.50508e-05
-8.69806e-05 -0.000129957 1.21473e-05
-1.50508e-05 1.21473e-05 -0.000198656
0.000865749 -0.000156081 4.36862e-07
-0.000156081 7.46044e-05 2.10253e-07
4.36862e-07 2.10253e-07 -7.63791e-05
0.00111918 -0.000216944 4.60552e-06
-0.000216944 0.000152933 -2.42485e-06
4.60552e-06 -2.42485e-06 -3.64508e-05
0.00408634 0.000165804 -0.000101203
0.000165804 0.00206788 3.61355e-06
-0.000101203 3.61355e-06 0.00205505
0.00058216 -5.9554e-05 6.5302e-07
-5.9554e-05 -3.05525e-05 -2.64435e-07
6.5302e-07 -2.64435e-07 -9.12126e-05
0.000888679 -0.000153241 5.88496e-06
-0.000153241 0.000136831 -4.91971e-06
5.88496e-06 -4.91971e-06 -7.99003e-06
0.00360439 0.00013571 7.09067e-06
0.00013571 0.00178147 3.26111e-07
7.09067e-06 3.26111e-07 0.0017765
0.000694751 -1.55408e-05 8.58551e-06
-1.55408e-05 5.19853e-05 -9.2439e-06
8.58551e-06 -9.2439e-06 1.94928e-06
0.00314162 0.000110569 8.59643e-05
0.000110569 0.00150691 -3.1121e-06
8.59643e-05 -3.1121e-06 0.00150872
0.00106772 0.000228061 -2.60029e-06
0.000228061 0.000139432 -3.94335e-06
-2.60029e-06 -3.94335e-06 -5.99814e-05
0.00130092 0.000223725 2.9811e-07
0.000223725 0.000371152 -2.33514e-08
2.9811e-07 -2.33514e-08 0.000193219
0.000708744 0.000128441 -4.99166e-07
0.000128441 4.2263e-05 -5.08219e-06
-4.99166e-07 -5.08219e-06 -0.000108351
0.000673841 0.000151355 -1.07496e-06
0.000151355 5.34281e-05 2.86845e-07
-1.07496e-06 2.86845e-07 -8.10388e-05
0.000539637 5.22287e-05 -1.11319e-07
5.22287e-05 -3.3415e-05 -3.81194e-07
-1.11319e-07 -3.81194e-07 -0.000154925
0.000757108 6.42597e-05 -2.46531e-06
6.42597e-05 9.7597e-05 -3.6262e-06
-2.46531e-06 -3.6262e-06 -7.88948e-06
0.000478343 -1.11128e-05 3.60265e-07
-1.11128e-05 -6.90745e-05 1.41449e-06
3.60265e-07 1.41449e-06 -0.000174971
0.000643306 -4.20184e-06 2.5457e-07
-4.20184e-06 2.41573e-05 -2.64126e-07
2.5457e-07 -2.64126e-07 -6.05302e-05
0.000575995 -4.1984e-05 -1.74451e-06
-4.1984e-05 -8.96001e-06 -7.32699e-06
-1.74451e-06 -7.32699e-06 -4.59192e-05
0.000595684 -1.41616e-05 1.26929e-06
-1.41616e-05 -5.62239e-06 3.53845e-06
1.26929e-06 3.53845e-06 -8.13508e-05
0.000539339 -4.29176e-05 2.37072e-07
-4.29176e-05 -3.63274e-05 -4.47364e-08
2.37072e-07 -4.47364e-08 -6.8898e-05
0.00282115 -0.000115245 -5.37902e-05
-0.000115245 0.00131344 -2.67203e-06
-5.37902e-05 -2.67203e-06 0.00131449
0.00273281 -0.000103643 -3.36235e-06
-0.000103643 0.00125374 3.3126e-07
-3.36235e-06 3.3126e-07 0.00125722
0.000525574 -3.32514e-05 1.97808e-06
-3.32514e-05 -5.28647e-05 5.92569e-06
1.97808e-06 5.92569e-06 -8.11211e-05
0.00263101 -9.02921e-05 3.53928e-05
-9.02921e-05 0.00118646 3.93237e-06
3.53928e-05 3.93237e-06 0.00119276
0.00298158 -1.77627e-06 7.10785e-06
-1.77627e-06 -0.000289353 1.64065e-05
7.10785e-06 1.64065e-05 -0.000247412
0.00248489 -0.000534521 5.09059e-05
-0.000534521 -0.00177337 2.36677e-05
5.09059e-05 2.36677e-05 -0.00284815
0.00635958 -0.000738939 -5.31217e-05
-0.000738939 0.00243092 -5.89551e-05
-5.31217e-05 -5.89551e-05 0.0026964
0.00142461 0.000297209 8.20449e-06
0.000297209 0.000186325 5.05524e-06
8.20449e-06 5.05524e-06 -3.44592e-05
0.00145699 0.000206811 2.6151e-06
0.000206811 0.000519034 1.43087e-06
2.6151e-06 1.43087e-06 0.000364273
0.000987011 0.000213399 -4.49657e-06
0.000213399 0.000195544 3.25843e-06
-4.49657e-06 3.25843e-06 2.36212e-05
0.000725339 0.000203518 1.18778e-06
0.000203518 6.37402e-05 1.94209e-06
1.18778e-06 1.94209e-06 -0.000108799
0.00124103 0.00027149 -5.05643e-07
0.00027149 0.000229705 -3.29239e-06
-5.05643e-07 -3.29239e-06 1.89706e-05
0.000657213 0.000247408 2.85738e-06
0.000247408 -0.000142829 9.15952e-07
2.85738e-06 9.15952e-07 -0.000318957
0.00103604 0.000245232 -2.62212e-06
0.000245232 0.000209875 -2.12739e-06
-2.62212e-06 -2.12739e-06 1.49117e-05
0.000652777 0.000220604 2.4001e-06
0.000220604 -1.89673e-05 4.38572e-06
2.4001e-06 4.38572e-06 -0.000141624
0.00127821 0.000314983 2.37483e-06
0.000314983 0.000196611 -4.45806e-07
2.37483e-06 -4.45806e-07 2.38685e-05
0.00231883 0.000458138 2.85882e-06
0.000458138 0.000573006 6.76741e-06
2.85882e-06 6.76741e-06 0.000408057
0.00166422 0.000437234 2.07664e-08
0.000437234 0.000116979 -5.95193e-07
2.07664e-08 -5.95193e-07 -6.37592e-05
0.00157777 0.000404856 3.24525e-06
0.000404856 8.21783e-05 8.73308e-06
3.24525e-06 8.73308e-06 -3.84869e-05
0.0011542 0.000437047 -2.29333e-06
0.000437047 -0.000142571 -3.04734e-06
-2.29333e-06 -3.04734e-06 -0.000310261
0.000570167 0.000347889 2.33068e-07
0.000347889 -0.000322095 3.20752e-06
2.33068e-07 3.20752e-06 -0.000477865
0.00115994 0.000301708 2.21064e-05
0.000301708 -0.000275519 2.50302e-05
2.21064e-05 2.50302e-05 -0.000248843
0.00510703 0.000643738 -4.27152e-05
0.000643738 0.000135573 -1.00143e-05
-4.27152e-05 -1.00143e-05 0.000127008
0.00203305 0.000242975 0.000228697
0.000242975 -0.00156087 2.44962e-05
0.000228697 2.44962e-05 -0.00312094
0.000775663 0.000722749 2.09645e-06
0.000722749 -0.00105982 -1.47776e-05
2.09645e-06 -1.47776e-05 -0.0013265
0.00232095 0.000617858 -2.51786e-05
0.000617858 0.00024096 -2.11124e-06
-2.51786e-05 -2.11124e-06 0.000204213
0.00204093 0.000587649 -5.14954e-05
0.000587649 0.000268398 -2.05887e-05
-5.14954e-05 -2.05887e-05 0.000109188
0.0023602 -0.000171317 5.07654e-06
-0.000171317 0.000140256 1.86028e-07
5.07654e-06 1.86028e-07 9.58701e-05
0.00117945 -2.36608e-05 -8.76937e-07
-2.36608e-05 -0.000254429 4.96626e-06
-8.76937e-07 4.96626e-06 -0.000443954
0.000861562 0.000608033 8.34522e-05
0.000608033 -0.00270298 -2.60029e-05
8.34522e-05 -2.60029e-05 -0.00331588
0.000131662 -0.000213635 -1.2711e-05
-0.000213635 -0.000797144 2.64841e-05
-1.2711e-05 2.64841e-05 -0.000815007
0.00306844 -9.62611e-05 -2.5017e-05
-9.62611e-05 -0.000198061 3.40384e-05
-2.5017e-05 3.40384e-05 -0.000512488
0.00206834 -0.000236712 -1.18131e-05
-0.000236712 -1.10868e-05 4.28191e-06
-1.18131e-05 4.28191e-06 5.30318e-05
0.00285656 -0.000115884 -5.45247e-06
-0.000115884 0.000450741 -2.86046e-06
-5.45247e-06 -2.86046e-06 0.000403543
0.00157943 -0.000136197 2.76173e-05
-0.000136197 -0.000266391 -6.08979e-07
2.76173e-05 -6.08979e-07 -0.000179512
0.00297185 -6.26402e-05 2.34207e-05
-6.26402e-05 0.000820398 2.0177e-06
2.34207e-05 2.0177e-06 0.000778928
0.00125671 -0.000301302 -1.42342e-05
-0.000301302 -0.000404506 7.23545e-06
-1.42342e-05 7.23545e-06 -0.000377265
0.00174589 -0.000220117 9.90901e-07
-0.000220117 -0.000195175 2.11623e-06
9.90901e-07 2.11623e-06 -0.000126033
0.00191406 -0.000223805 1.91924e-06
-0.000223805 -2.16892e-05 4.20889e-07
1.91924e-06 4.20889e-07 1.1984e-05
0.0017887 -0.000291594 2.3309e-06
-0.000291594 -5.72469e-05 1.69374e-06
2.3309e-06 1.69374e-06 -0.000112855
0.00184365 -0.000243713 4.43793e-07
-0.000243713 2.44658e-05 9.04502e-08
4.43793e-07 9.04502e-08 -1.51264e-05
0.00190211 -0.000226437 -3.74185e-07
-0.000226437 9.99192e-05 9.27009e-07
-3.74185e-07 9.27009e-07 4.05948e-05
0.00194342 -0.000272535 1.1691e-06
-0.000272535 0.000130641 9.57319e-07
1.1691e-06 9.57319e-07 4.74308e-05
0.00186431 -0.000241587 -6.67417e-07
-0.000241587 0.000123956 5.24461e-08
-6.67417e-07 5.24461e-08 4.26761e-05
0.00169048 -0.000213253 1.30387e-06
-0.000213253 7.0142e-05 1.345e-07
1.30387e-06 1.345e-07 -2.66952e-05
0.001636 -0.000241833 -9.00242e-07
-0.000241833 3.67773e-05 1.87633e-06
-9.00242e-07 1.87633e-06 -6.13032e-05
0.00169408 -0.000236473 5.72811e-07
-0.000236473 0.000100386 -7.37487e-07
5.72811e-07 -7.37487e-07 -1.08038e-05
0.00168138 -0.000221445 2.04141e-06
-0.000221445 0.000118109 -1.88306e-06
2.04141e-06 -1.88306e-06 -1.5515e-05
0.00187574 -0.000241627 -4.96252e-06
-0.000241627 0.000224539 5.0273e-06
-4.96252e-06 5.0273e-06 0.000103412
0.00180291 -0.000234549 -1.05267e-06
-0.000234549 0.000219514 1.68913e-07
-1.05267e-06 1.68913e-07 7.36123e-05
0.00158162 -0.000207131 -1.98292e-06
-0.000207131 0.000154201 -5.08933e-07
-1.98292e-06 -5.08933e-07 -5.71071e-06
0.001743 -0.000259156 2.79744e-06
-0.000259156 0.000209185 1.3708e-06
2.79744e-06 1.3708e-06 3.8323e-05
0.00161729 -0.000234582 1.01105e-06
-0.000234582 0.000198624 -6.07549e-07
1.01105e-06 -6.07549e-07 2.59432e-05
0.00126936 -0.000186819 -7.27027e-06
-0.000186819 8.18014e-05 2.16148e-06
-7.27027e-06 2.16148e-06 -8.09525e-05
0.000983428 -0.000163422 -1.13872e-05
-0.000163422 2.86353e-05 5.30837e-06
-1.13872e-05 5.30837e-06 -0.000113888
0.00112929 -0.000201954 -2.23017e-06
-0.000201954 2.93079e-05 4.07388e-07
-2.23017e-06 4.07388e-07 -0.00014427
0.00156668 -0.000265867 3.64628e-06
-0.000265867 0.000212292 -5.79227e-07
3.64628e-06 -5.79227e-07 1.87482e-05
0.000540467 -0.00015878 -2.02971e-05
-0.00015878 -8.71562e-05 1.31737e-05
-2.02971e-05 1.31737e-05 -0.000170251
0.000901656 -0.000165348 6.89544e-07
-0.000165348 2.85937e-05 5.26482e-07
6.89544e-07 5.26482e-07 -0.000121988
0.001294 -0.000228371 7.04641e-06
-0.000228371 0.000169752 -1.83588e-06
7.04641e-06 -1.83588e-06 -1.59904e-05
0.00461962 0.00018533 -0.000119253
0.00018533 0.00238741 6.49265e-06
-0.000119253 6.49265e-06 0.00236679
0.000598281 -0.000123512 5.55211e-08
-0.000123512 -3.58915e-05 -5.42679e-09
5.55211e-08 -5.42679e-09 -0.000111812
0.000878271 -0.000163202 7.69714e-06
-0.000163202 8.24747e-05 -5.65547e-06
7.69714e-06 -5.65547e-06 -6.99066e-05
0.00423227 0.000143612 6.53143e-06
0.000143612 0.00214868 7.28664e-07
6.53143e-06 7.28664e-07 0.00213953
0.000727544 -7.85199e-05 1.38878e-05
-7.85199e-05 5.23513e-05 -1.13463e-05
1.38878e-05 -1.13463e-05 -1.15872e-05
0.00378457 0.000109162 0.000117039
0.000109162 0.00188046 -5.58268e-06
0.000117039 -5.58268e-06 0.00188023
0.00108636 0.000243819 -5.05154e-06
0.000243819 3.1032e-05 -1.48457e-06
-5.05154e-06 -1.48457e-06 -0.000171219
0.00117255 0.000235967 -6.50769e-07
0.000235967 0.000205735 -1.11994e-07
-6.50769e-07 -1.11994e-07 5.19266e-06
0.00107088 0.000198604 -2.21993e-06
0.000198604 0.000199012 -2.74778e-06
-2.21993e-06 -2.74778e-06 1.82277e-05
0.00165351 0.000253981 -2.14721e-06
0.000253981 0.00058026 2.19303e-06
-2.14721e-06 2.19303e-06 0.000396691
0.000839248 0.000139794 -1.11777e-06
0.000139794 0.000117923 -1.9336e-06
-1.11777e-06 -1.9336e-06 -3.3418e-05
0.000874421 0.000110213 -3.65224e-06
0.000110213 0.000160325 -4.35043e-06
-3.65224e-06 -4.35043e-06 3.64149e-05
0.000590726 7.17516e-05 -4.98759e-08
7.17516e-05 -5.8492e-06 3.06622e-07
-4.98759e-08 3.06622e-07 -0.000130547
0.000660376 2.06041e-05 -5.95423e-07
2.06041e-05 3.50026e-05 -1.15908e-07
-5.95423e-07 -1.15908e-07 -6.23876e-05
0.000583843 -2.76327e-05 -3.79315e-06
-2.76327e-05 -3.58082e-06 -8.02646e-06
-3.79315e-06 -8.02646e-06 -4.58435e-05
0.000580424 -1.94732e-05 1.1071e-06
-1.94732e-05 -1.10604e-05 3.82291e-06
1.1071e-06 3.82291e-06 -9.47581e-05
0.000526323 -4.56088e-05 3.92955e-07
-4.56088e-05 -3.66095e-05 -1.55287e-07
3.92955e-07 -1.55287e-07 -7.37905e-05
0.00295802 -0.000124256 -6.57941e-05
-0.000124256 0.00140016 -2.14977e-06
-6.57941e-05 -2.14977e-06 0.00139904
0.000509078 -4.10097e-05 1.85184e-06
-4.10097e-05 -5.44556e-05 6.46069e-06
1.85184e-06 6.46069e-06 -8.65086e-05
0.0028024 -0.000116101 -2.58219e-06
-0.000116101 0.00130219 3.06183e-07
-2.58219e-06 3.06183e-07 0.00130283
0.00273016 -0.00010327 4.27487e-05
-0.00010327 0.00125178 3.52725e-06
4.27487e-05 3.52725e-06 0.00125521
0.000307017 4.23803e-05 1.37088e-05
4.23803e-05 -0.000837746 7.62137e-06
1.37088e-05 7.62137e-06 -0.000808464
0.00428211 1.86846e-05 4.71498e-05
1.86846e-05 0.000253121 4.32951e-06
4.71498e-05 4.32951e-06 0.000148088
0.00980276 0.000547154 -8.21022e-05
0.000547154 0.00282233 -3.55801e-05
-8.21022e-05 -3.55801e-05 0.00169396
0.000349991 0.000208446 1.69532e-06
0.000208446 -0.000440567 2.25929e-06
1.69532e-06 2.25929e-06 -0.000625801
0.00170775 0.000321464 1.97148e-06
0.000321464 0.000241317 3.12697e-06
1.97148e-06 3.12697e-06 4.57934e-05
0.00109079 0.000276077 -2.8236e-06
0.000276077 -5.47545e-06 4.77536e-07
-2.8236e-06 4.77536e-07 -0.00022257
0.00116148 0.000245878 -5.64578e-07
0.000245878 0.000305237 1.70424e-06
-5.64578e-07 1.70424e-06 0.000122557
0.000861874 0.000240328 -1.48146e-06
0.000240328 1.53224e-05 -1.87953e-07
-1.48146e-06 -1.87953e-07 -0.000192527
0.00132804 0.000309138 7.61273e-06
0.000309138 0.000217003 1.18682e-06
7.61273e-06 1.18682e-06 2.95939e-05
0.00211773 0.000436711 -5.93614e-06
0.000436711 0.000364524 -3.08028e-06
-5.93614e-06 -3.08028e-06 0.000177568
0.00215416 0.000391868 -3.18765e-06
0.000391868 0.000676664 1.3163e-06
-3.18765e-06 1.3163e-06 0.000493239
0.00133476 0.000381202 1.04938e-05
0.000381202 3.45504e-05 1.89153e-05
1.04938e-05 1.89153e-05 -0.000120635
0.00210555 0.000465185 -2.56914e-06
0.000465185 0.000361252 6.41354e-07
-2.56914e-06 6.41354e-07 0.000180277
0.00199639 0.000419516 -1.31772e-05
0.000419516 0.000202944 1.51813e-06
-1.31772e-05 1.51813e-06 4.97525e-05
0.000706832 0.000199686 1.30173e-05
0.000199686 -0.000464907 6.139e-06
1.30173e-05 6.139e-06 -0.000511848
0.00115452 0.000372892 9.27908e-06
0.000372892 -0.000132828 1.58573e-07
9.27908e-06 1.58573e-07 -0.000252785
0.0011127 0.000428019 -6.67155e-06
0.000428019 -0.000173244 -6.90363e-06
-6.67155e-06 -6.90363e-06 -0.000340896
0.00159597 0.000306259 2.86859e-06
0.000306259 -5.54069e-05 5.1836e-06
2.86859e-06 5.1836e-06 -5.45263e-05
0.00514892 0.000420184 3.03915e-05
0.000420184 0.000118464 -1.51109e-05
3.03915e-05 -1.51109e-05 -6.68382e-05
0.00245695 0.000546367 1.16907e-05
0.000546367 0.00055127 -2.36075e-05
1.16907e-05 -2.36075e-05 0.000514756
0.00147991 -4.00649e-05 2.38215e-05
-4.00649e-05 9.2506e-06 4.93812e-07
2.38215e-05 4.93812e-07 -5.79002e-06
0.00212262 -0.000105415 -2.166e-05
-0.000105415 6.463e-05 -7.38414e-07
-2.166e-05 -7.38414e-07 1.92417e-05
0.00130998 0.000158888 2.64493e-05
0.000158888 -0.000671184 -6.60202e-06
2.64493e-05 -6.60202e-06 -0.000910283
0.000426853 -0.000175451 -2.76152e-05
-0.000175451 -0.000850717 2.12844e-05
-2.76152e-05 2.12844e-05 -0.000775935
0.00308638 -0.000170412 -8.93501e-05
-0.000170412 0.00053154 -5.00494e-07
-8.93501e-05 -5.00494e-07 0.000502559
0.00188899 -0.000166513 2.31116e-06
-0.000166513 -6.72028e-05 -2.05848e-06
2.31116e-06 -2.05848e-06 1.57588e-05
0.00228176 -6.56211e-05 -8.40593e-06
-6.56211e-05 0.000377679 2.04926e-07
-8.40593e-06 2.04926e-07 0.000337146
0.00197212 -0.000170559 2.3957e-06
-0.000170559 2.81398e-06 1.38242e-06
2.3957e-06 1.38242e-06 1.04801e-05
0.00218141 -2.84374e-05 4.43538e-06
-2.84374e-05 0.000172557 5.03746e-07
4.43538e-06 5.03746e-07 0.000145347
0.00175353 -0.000232449 -5.95714e-06
-0.000232449 -0.000213545 2.45455e-06
-5.95714e-06 2.45455e-06 -0.000152615
0.00192416 -0.000219278 -1.84083e-06
-0.000219278 -7.83888e-06 -6.23026e-08
-1.84083e-06 -6.23026e-08 1.92468e-05
0.00194933 -0.00018315 -2.05024e-06
-0.00018315 4.10812e-05 4.03877e-07
-2.05024e-06 4.03877e-07 1.2472e-05
0.00186049 -0.000252935 -1.78997e-06
-0.000252935 2.95837e-05 -8.94245e-07
-1.78997e-06 -8.94245e-07 -1.5146e-05
0.00180485 -0.000221352 1.14282e-07
-0.000221352 5.21065e-05 -2.53123e-07
1.14282e-07 -2.53123e-07 -1.17362e-05
0.00186268 -0.00019572 -1.26879e-08
-0.00019572 0.000112727 1.66691e-07
-1.26879e-08 1.66691e-07 3.05444e-05
0.00177061 -0.000244919 -2.29073e-06
-0.000244919 7.31175e-05 -5.97579e-07
-2.29073e-06 -5.97579e-07 -1.05576e-05
0.0017305 -0.000214481 3.14817e-07
-0.000214481 9.1521e-05 -7.60871e-08
3.14817e-07 -7.60871e-08 -5.4032e-06
0.00172396 -0.000200041 1.89901e-06
-0.000200041 0.000104647 -8.22484e-07
1.89901e-06 -8.22484e-07 -1.51882e-05
0.00171564 -0.00023745 -2.19874e-06
-0.00023745 0.000115519 3.3946e-07
-2.19874e-06 3.3946e-07 4.11954e-06
0.00170916 -0.000221873 -6.13625e-08
-0.000221873 0.000135023 -3.53158e-07
-6.13625e-08 -3.53158e-07 1.53411e-06
0.00156805 -0.000191731 -9.1831e-07
-0.000191731 0.000121769 -4.68847e-07
-9.1831e-07 -4.68847e-07 -2.97668e-05
0.00185504 -0.000235645 -1.62929e-06
-0.000235645 0.000246991 3.12939e-06
-1.62929e-06 3.12939e-06 0.000104089
0.00158392 -0.000207782 -5.5519e-07
-0.000207782 0.000155374 -1.3594e-07
-5.5519e-07 -1.3594e-07 -3.67217e-06
0.00127037 -0.000166775 -6.60401e-06
-0.000166775 6.47142e-05 1.92947e-06
-6.60401e-06 1.92947e-06 -9.15124e-05
0.001555 -0.000232256 4.74485e-06
-0.000232256 0.000162191 -2.8407e-07
4.74485e-06 -2.8407e-07 -1.13883e-05
0.00121325 -0.000184455 -6.98093e-08
-0.000184455 4.92138e-05 -2.45783e-08
-6.98093e-08 -2.45783e-08 -0.000113777
0.000997026 -0.000147113 -1.21175e-05
-0.000147113 1.69346e-05 5.71504e-06
-1.21175e-05 5.71504e-06 -0.000118356
0.000472384 -0.000155687 -1.97505e-05
-0.000155687 -0.000137813 1.25051e-05
-1.97505e-05 1.25051e-05 -0.000224279
0.00095164 -0.000160705 1.34583e-07
-0.000160705 1.14899e-05 -1.03335e-07
1.34583e-07 -1.03335e-07 -0.000130852
0.00129403 -0.000212578 5.38739e-06
-0.000212578 0.00012512 -1.66875e-06
5.38739e-06 -1.66875e-06 -4.93642e-05
0.00511121 0.000157758 -0.000141612
0.000157758 0.00266383 7.89866e-06
-0.000141612 7.89866e-06 0.00264708
0.000585364 -0.000149784 -1.95246e-06
-0.000149784 -6.42385e-05 5.15106e-07
-1.95246e-06 5.15106e-07 -0.000147007
0.000851289 -0.000164674 9.71089e-06
-0.000164674 3.04684e-06 -4.93694e-06
9.71089e-06 -4.93694e-06 -0.000147804
0.00480471 0.00016155 1.10636e-05
0.00016155 0.00248979 1.29861e-06
1.10636e-05 1.29861e-06 0.00247259
0.000740642 -0.000128019 1.87315e-05
-0.000128019 4.07685e-05 -1.27498e-05
1.87315e-05 -1.27498e-05 -3.58958e-05
0.00440416 0.000120844 0.000137591
0.000120844 0.00224288 -7.4386e-06
0.000137591 -7.4386e-06 0.00223719
0.00148141 0.000268883 -4.56229e-06
0.000268883 0.00020466 1.29692e-06
-4.56229e-06 1.29692e-06 7.50429e-06
0.0011061 0.000245067 -2.03538e-07
0.000245067 3.82267e-05 1.16103e-06
-2.03538e-07 1.16103e-06 -0.000165284
0.00100426 0.000203462 -5.8375e-06
0.000203462 6.21671e-05 -1.37197e-06
-5.8375e-06 -1.37197e-06 -0.000123806
0.00127494 0.000243881 -6.65469e-07
0.000243881 0.000270471 2.06219e-06
-6.65469e-07 2.06219e-06 6.88363e-05
0.00102559 0.000193768 -1.4228e-06
0.000193768 0.000175714 1.81507e-07
-1.4228e-06 1.81507e-07 -4.60786e-06
0.000925968 0.000151656 -5.59701e-06
0.000151656 0.000163471 -5.29653e-06
-5.59701e-06 -5.29653e-06 1.92066e-05
0.000935042 0.000147719 -2.494e-07
0.000147719 0.000173517 4.25523e-07
-2.494e-07 4.25523e-07 2.19332e-05
0.000739888 8.56764e-05 -2.82027e-07
8.56764e-05 8.46347e-05 -2.08398e-07
-2.82027e-07 -2.08398e-07 -3.62573e-05
0.000675999 1.68284e-05 -8.43718e-06
1.68284e-05 4.2992e-05 -9.62231e-06
-8.43718e-06 -9.62231e-06 -9.24593e-06
0.000603121 -1.00562e-05 1.00587e-06
-1.00562e-05 1.67707e-06 3.75808e-06
1.00587e-06 3.75808e-06 -9.26532e-05
0.000517153 -3.58266e-05 -6.74307e-08
-3.58266e-05 -4.00287e-05 -2.49215e-07
-6.74307e-08 -2.49215e-07 -8.25756e-05
0.00322718 -0.000127367 -8.60444e-05
-0.000127367 0.0015625 -2.25149e-06
-8.60444e-05 -2.25149e-06 0.0015601
0.000486032 -4.67233e-05 1.53116e-06
-4.67233e-05 -5.9588e-05 7.0906e-06
1.53116e-06 7.0906e-06 -9.66093e-05
0.00291573 -0.000128481 -2.45059e-06
-0.000128481 0.001376 3.01223e-07
-2.45059e-06 3.01223e-07 0.00137358
0.00279127 -0.000115833 4.87313e-05
-0.000115833 0.0012953 3.02273e-06
4.87313e-05 3.02273e-06 0.00129584
0.000712106 5.02168e-05 1.39631e-05
5.02168e-05 -0.000465978 -5.13144e-06
1.39631e-05 -5.13144e-06 -0.000453579
0.00191704 7.46997e-06 -6.7948e-06
7.46997e-06 -0.000148281 -1.05762e-07
-6.7948e-06 -1.05762e-07 -0.000114637
0.00422915 1.441e-05 0.00012823
1.441e-05 -2.83498e-05 2.42422e-05
0.00012823 2.42422e-05 0.000167822
0.00192155 0.000367832 -1.73538e-06
0.000367832 0.000274302 1.46831e-06
-1.73538e-06 1.46831e-06 9.18794e-05
0.000825979 0.00026567 1.30176e-06
0.00026567 -0.000177264 -1.51742e-06
1.30176e-06 -1.51742e-06 -0.000369093
0.00191875 0.00032095 -3.63898e-07
0.00032095 0.000253299 3.44985e-06
-3.63898e-07 3.44985e-06 8.28569e-05
0.00172951 0.000322557 1.17347e-06
0.000322557 0.000254853 4.90489e-07
1.17347e-06 4.90489e-07 5.94586e-05
0.000802061 0.000260278 -1.04063e-08
0.000260278 -0.000173404 1.6933e-06
-1.04063e-08 1.6933e-06 -0.000387615
0.00186186 0.000349327 -4.14823e-06
0.000349327 0.000116849 1.55767e-06
-4.14823e-06 1.55767e-06 -3.66835e-05
0.00196784 0.000368564 -2.81839e-06
0.000368564 0.000560389 -4.76646e-07
-2.81839e-06 -4.76646e-07 0.000361985
0.00210608 0.000430827 -1.63988e-08
0.000430827 0.00036427 -1.08847e-06
-1.63988e-08 -1.08847e-06 0.000176213
0.00180746 0.000246235 -9.36835e-06
0.000246235 1.3679e-05 -1.14304e-07
-9.36835e-06 -1.14304e-07 -8.61296e-05
0.00252834 0.000492899 5.00752e-06
0.000492899 0.000596159 3.71605e-06
5.00752e-06 3.71605e-06 0.000414936
0.00194619 0.000418175 -1.43477e-06
0.000418175 0.000169309 3.04625e-07
-1.43477e-06 3.04625e-07 1.42837e-05
0.000890843 0.000213692 2.79772e-06
0.000213692 -0.000331791 2.52167e-06
2.79772e-06 2.52167e-06 -0.000387965
-6.2818e-05 0.000293954 1.03568e-06
0.000293954 -0.000758155 -3.73913e-06
1.03568e-06 -3.73913e-06 -0.000873714
0.00166665 0.000306363 -4.08764e-05
0.000306363 -3.30574e-05 -1.89681e-05
-4.08764e-05 -1.89681e-05 -4.70105e-05
0.00177899 3.32788e-05 1.63887e-06
3.32788e-05 -5.52442e-05 -1.06153e-06
1.63887e-06 -1.06153e-06 -8.78992e-05
0.00208859 -2.71763e-05 4.68381e-07
-2.71763e-05 0.000372275 2.94871e-06
4.68381e-07 2.94871e-06 0.000361769
0.00142063 -1.62396e-05 -5.97223e-05
-1.62396e-05 -0.000239914 -8.46442e-06
-5.97223e-05 -8.46442e-06 -0.000340775
0.00218057 -0.000194638 -2.85369e-05
-0.000194638 0.000119257 8.03633e-07
-2.85369e-05 8.03633e-07 0.000195673
0.00127893 -7.10066e-05 -7.73821e-06
-7.10066e-05 -0.000239708 -4.22788e-07
-7.73821e-06 -4.22788e-07 -0.000277152
0.00190864 -0.000163247 3.30491e-07
-0.000163247 -3.08288e-05 -4.27613e-07
3.30491e-07 -4.27613e-07 -1.72936e-05
0.00201759 -2.88669e-05 -3.52793e-06
-2.88669e-05 5.64628e-05 6.99339e-07
-3.52793e-06 6.99339e-07 3.50904e-05
0.00203105 -6.02264e-05 -5.61878e-06
-6.02264e-05 5.69964e-05 -4.8866e-07
-5.61878e-06 -4.8866e-07 3.74842e-05
0.00192791 -0.000213916 -3.61443e-06
-0.000213916 5.28822e-06 -7.4475e-07
-3.61443e-06 -7.4475e-07 2.50016e-05
0.00191409 -0.000175427 4.87695e-07
-0.000175427 3.15674e-05 -1.4857e-07
4.87695e-07 -1.4857e-07 7.8913e-07
0.00197431 -0.000142284 -4.79254e-07
-0.000142284 0.000100555 -2.99975e-07
-4.79254e-07 -2.99975e-07 4.86207e-05
0.00170906 -0.000216769 -2.96284e-07
-0.000216769 4.57577e-06 -1.06215e-06
-2.96284e-07 -1.06215e-06 -6.37608e-05
0.00178119 -0.000192256 -2.3943e-08
-0.000192256 6.87163e-05 -7.70502e-08
-2.3943e-08 -7.70502e-08 -1.43915e-05
0.00175178 -0.000163364 1.41354e-06
-0.000163364 8.20838e-05 -4.14445e-07
1.41354e-06 -4.14445e-07 -2.49981e-05
0.00177743 -0.000215898 -5.95761e-07
-0.000215898 0.000116164 -2.00118e-07
-5.95761e-07 -2.00118e-07 1.916e-05
0.00175041 -0.000199827 3.33908e-08
-0.000199827 0.000121347 -1.29852e-07
3.33908e-08 -1.29852e-07 1.63361e-06
0.0016315 -0.000173139 4.33483e-08
-0.000173139 0.000123385 -4.76969e-07
4.33483e-08 -4.76969e-07 -1.85203e-05
0.00173735 -0.000222391 -1.66491e-06
-0.000222391 0.000152008 1.051e-06
-1.66491e-06 1.051e-06 1.86402e-05
0.00158305 -0.000192072 -2.07268e-07
-0.000192072 0.000129451 -2.17247e-08
-2.07268e-07 -2.17247e-08 -2.1763e-05
0.00131261 -0.00015041 -5.50304e-06
-0.00015041 7.24934e-05 1.65414e-06
-5.50304e-06 1.65414e-06 -7.9269e-05
0.00158669 -0.000208365 1.59999e-06
-0.000208365 0.000156705 5.12065e-07
1.59999e-06 5.12065e-07 -1.45456e-06
0.0013038 -0.000168209 -2.14222e-07
-0.000168209 8.28206e-05 4.52859e-08
-2.14222e-07 4.52859e-08 -7.32701e-05
0.00102664 -0.000131263 -1.28485e-05
-0.000131263 1.93468e-05 5.27544e-06
-1.28485e-05 5.27544e-06 -0.00011209
0.00115879 -0.000182243 6.58422e-06
-0.000182243 1.76393e-05 -1.83122e-06
6.58422e-06 -1.83122e-06 -0.000145608
0.000999236 -0.000145869 2.35684e-07
-0.000145869 1.76996e-05 4.73598e-08
2.35684e-07 4.73598e-08 -0.000117335
0.00234997 -9.35445e-05 -2.44048e-05
-9.35445e-05 0.000954003 7.77178e-06
-2.44048e-05 7.77178e-06 0.000881029
0.00163125 -3.70723e-05 -0.000164709
-3.70723e-05 0.000595906 1.69501e-05
-0.000164709 1.69501e-05 0.000577762
0.00151038 -0.000131362 -3.44003e-06
-0.000131362 0.000465888 -2.56374e-07
-3.44003e-06 -2.56374e-07 0.000384015
0.000930658 -0.000158876 1.10289e-05
-0.000158876 5.90399e-07 -5.3331e-06
1.10289e-05 -5.3331e-06 -0.000141703
0.00524625 0.000124767 -2.07033e-07
0.000124767 0.00273972 -2.23553e-07
-2.07033e-07 -2.23553e-07 0.00272524
0.000653266 -0.000168505 2.09554e-05
-0.000168505 -2.42957e-05 -1.28707e-05
2.09554e-05 -1.28707e-05 -0.000110904
0.00496649 0.000123075 0.000156735
0.000123075 0.00257757 -1.10043e-05
0.000156735 -1.10043e-05 0.0025646
0.00189011 0.000258877 1.06577e-06
0.000258877 0.000204649 7.51079e-07
1.06577e-06 7.51079e-07 5.32656e-05
0.00157793 0.000268743 4.88578e-07
0.000268743 0.000174063 2.66274e-06
4.88578e-07 2.66274e-06 -6.6167e-06
0.00154294 0.000277864 -4.53256e-07
0.000277864 0.000236838 -3.74729e-07
-4.53256e-07 -3.74729e-07 3.92205e-05
0.00120209 0.000217538 -7.04514e-06
0.000217538 9.02399e-05 -1.50397e-06
-7.04514e-06 -1.50397e-06 -8.86189e-05
0.00115525 0.00024864 3.95712e-06
0.00024864 6.33607e-05 6.61852e-07
3.95712e-06 6.61852e-07 -0.00014181
0.00112111 0.000212503 -7.6176e-07
0.000212503 0.000131092 7.46568e-07
-7.6176e-07 7.46568e-07 -5.65968e-05
0.000877756 0.000163175 -8.22442e-06
0.000163175 6.82736e-05 -4.71029e-06
-8.22442e-06 -4.71029e-06 -8.40866e-05
0.00100721 0.000190969 1.39967e-06
0.000190969 0.000168161 4.24071e-06
1.39967e-06 4.24071e-06 -1.20255e-05
0.000804211 0.000136493 -1.79332e-07
0.000136493 9.43339e-05 -1.82473e-08
-1.79332e-07 -1.82473e-08 -4.73708e-05
0.000784229 9.06109e-05 -1.41561e-05
9.06109e-05 9.21967e-05 -1.19657e-05
-1.41561e-05 -1.19657e-05 2.33593e-05
0.000635199 6.14147e-05 1.76397e-06
6.14147e-05 2.19926e-05 3.29178e-06
1.76397e-06 3.29178e-06 -9.33601e-05
0.000534309 4.71513e-06 -7.25834e-07
4.71513e-06 -3.64811e-05 -4.49668e-07
-7.25834e-07 -4.49668e-07 -8.69057e-05
0.00365825 -0.000122763 -0.000112985
-0.000122763 0.00181835 -4.15323e-06
-0.000112985 -4.15323e-06 0.00181426
0.000442787 -4.40249e-05 1.37761e-06
-4.40249e-05 -7.99006e-05 7.99343e-06
1.37761e-06 7.99343e-06 -0.000123265
0.00312803 -0.000140488 -3.32923e-06
-0.000140488 0.00150691 3.35434e-07
-3.32923e-06 3.35434e-07 0.00150118
0.00288 -0.000129064 5.46103e-05
-0.000129064 0.00135507 2.42569e-06
5.46103e-05 2.42569e-06 0.00135235
0.00178401 0.000135912 -2.76411e-06
0.000135912 -4.75678e-05 -4.72371e-07
-2.76411e-06 -4.72371e-07 -0.000108143
0.00192968 4.20387e-05 1.38268e-05
4.20387e-05 0.000174111 2.33134e-06
1.38268e-05 2.33134e-06 0.00017771
0.00390069 -1.85218e-05 -8.43592e-05
-1.85218e-05 0.000720458 -1.37085e-05
-8.43592e-05 -1.37085e-05 0.000759124
0.0017253 0.000301905 -3.00716e-06
0.000301905 5.76241e-05 1.17175e-06
-3.00716e-06 1.17175e-06 -9.07476e-05
0.00173241 0.000351066 -9.92067e-07
0.000351066 0.000184177 -1.43284e-07
-9.92067e-07 -1.43284e-07 2.48909e-06
0.00135295 0.000326449 -1.78253e-05
0.000326449 0.000115764 -7.07501e-06
-1.78253e-05 -7.07501e-06 -8.2968e-05
0.00193527 0.000311168 2.41293e-06
0.000311168 0.000267629 7.98097e-07
2.41293e-06 7.98097e-07 9.89293e-05
0.00176411 0.000324085 -1.15632e-06
0.000324085 0.000276878 -2.50109e-06
-1.15632e-06 -2.50109e-06 8.15373e-05
0.00216352 0.000243399 -2.51119e-07
0.000243399 0.000230961 1.25527e-06
-2.51119e-07 1.25527e-06 0.000132531
0.00171748 0.000343171 -1.51576e-06
0.000343171 4.5874e-05 8.27493e-07
-1.51576e-06 8.27493e-07 -0.0001089
0.0021093 0.000426146 1.43172e-06
0.000426146 0.000371371 -2.06419e-07
1.43172e-06 -2.06419e-07 0.000182004
0.00179162 0.000249471 -9.44497e-07
0.000249471 1.04794e-05 1.92001e-07
-9.44497e-07 1.92001e-07 -9.09597e-05
0.00205257 0.000427302 1.85411e-05
0.000427302 0.000209933 1.45543e-06
1.85411e-05 1.45543e-06 5.2082e-05
0.0014165 0.000234201 -1.99326e-05
0.000234201 -2.82841e-05 -3.73884e-06
-1.99326e-05 -3.73884e-06 -9.31756e-05
0.00198812 4.48616e-05 -5.49323e-06
4.48616e-05 6.14725e-05 -2.81493e-07
-5.49323e-06 -2.81493e-07 2.19866e-05
0.00188021 4.50311e-05 -2.46914e-06
4.50311e-05 6.73801e-06 3.40858e-07
-2.46914e-06 3.40858e-07 -2.87834e-05
0.00284955 -1.31524e-05 -3.96937e-05
-1.31524e-05 0.000829442 -4.09582e-06
-3.96937e-05 -4.09582e-06 0.000812872
0.00184985 -0.000154759 -7.72593e-06
-0.000154759 -6.80291e-05 -1.83175e-06
-7.72593e-06 -1.83175e-06 -4.86836e-05
0.00193003 -2.88714e-05 4.35804e-06
-2.88714e-05 -1.47114e-05 -2.10744e-07
4.35804e-06 -2.10744e-07 -3.28364e-05
0.00200257 -6.50433e-05 -1.68438e-07
-6.50433e-05 2.55836e-05 1.0734e-07
-1.68438e-07 1.0734e-07 1.16593e-05
0.00195636 -4.46526e-05 -2.06992e-06
-4.46526e-05 0.000100272 -1.87038e-07
-2.06992e-06 -1.87038e-07 5.23169e-05
0.0018732 -0.000166793 2.65295e-06
-0.000166793 2.0096e-05 -8.54039e-07
2.65295e-06 -8.54039e-07 -1.29472e-05
0.00185242 -0.000141211 6.66695e-07
-0.000141211 3.98403e-05 -7.42911e-08
6.66695e-07 -7.42911e-08 -1.84639e-05
0.00182179 -0.000115205 3.51045e-06
-0.000115205 9.50053e-05 -1.22658e-06
3.51045e-06 -1.22658e-06 -1.4127e-06
0.00169423 -0.000188662 3.4032e-07
-0.000188662 2.19867e-05 -2.78461e-08
3.4032e-07 -2.78461e-08 -6.2168e-05
0.00179099 -0.000164404 -8.68213e-09
-0.000164404 0.000103198 -1.50586e-07
-8.68213e-09 -1.50586e-07 -3.82771e-06
0.00169974 -0.00014651 4.36306e-07
-0.00014651 0.000121478 -4.46947e-07
4.36306e-07 -4.46947e-07 -1.05323e-05
0.00177736 -0.000199527 -1.38143e-06
-0.000199527 0.000138508 5.08363e-07
-1.38143e-06 5.08363e-07 1.89372e-05
0.00163754 -0.000172878 -2.54099e-07
-0.000172878 0.000126583 2.34188e-08
-2.54099e-07 2.34188e-08 -1.50581e-05
0.0013581 -0.000130933 -4.72227e-06
-0.000130933 7.94433e-05 1.28443e-06
-4.72227e-06 1.28443e-06 -6.80505e-05
0.00159697 -0.000192374 5.4232e-07
-0.000192374 0.000136691 4.07547e-07
5.4232e-07 4.07547e-07 -1.41991e-05
0.00133373 -0.000151136 -1.28174e-07
-0.000151136 8.24553e-05 9.58593e-08
-1.28174e-07 9.58593e-08 -6.90799e-05
0.0010305 -0.000115279 -1.27119e-05
-0.000115279 1.10392e-05 4.61024e-06
-1.27119e-05 4.61024e-06 -0.000118507
0.00133838 -0.000169754 5.99793e-06
-0.000169754 0.000101537 -1.75623e-06
5.99793e-06 -1.75623e-06 -5.4431e-05
0.00101714 -0.000128891 2.18273e-07
-0.000128891 1.30181e-05 7.68408e-08
2.18273e-07 7.68408e-08 -0.000117853
0.00240335 -0.000103193 -3.18411e-05
-0.000103193 0.000970944 6.96026e-06
-3.18411e-05 6.96026e-06 0.000905212
0.000992502 -0.00014428 1.21368e-05
-0.00014428 1.34754e-05 -5.4693e-06
1.21368e-05 -5.4693e-06 -0.000121301
0.00251619 -0.000140555 3.52202e-05
-0.000140555 0.00104399 -4.14601e-06
3.52202e-05 -4.14601e-06 0.000977423
0.00170802 -7.73922e-05 -0.00016907
-7.73922e-05 0.000648083 2.09267e-05
-0.00016907 2.09267e-05 0.000628901
0.00345358 2.39246e-06 -0.000167312
2.39246e-06 0.00168338 8.81581e-06
-0.000167312 8.81581e-06 0.00166729
0.00260999 -0.000190017 0.000104759
-0.000190017 0.00110156 -1.36694e-05
0.000104759 -1.36694e-05 0.00103734
0.00536421 0.000126597 0.000159661
0.000126597 0.0028254 -1.61531e-05
0.000159661 -1.61531e-05 0.00280135
0.00200332 0.000258678 -1.468e-06
0.000258678 0.000235184 -4.46229e-07
-1.468e-06 -4.46229e-07 9.60834e-05
0.00155721 0.000226599 2.71279e-06
0.000226599 0.000113621 1.09585e-06
2.71279e-06 1.09585e-06 -4.77641e-05
0.00185709 0.000259287 3.37343e-07
0.000259287 0.000182101 -9.80925e-07
3.37343e-07 -9.80925e-07 3.41598e-05
0.00133327 0.000212125 -6.64701e-06
0.000212125 0.000119671 -1.21999e-06
-6.64701e-06 -1.21999e-06 -4.90037e-05
0.00160684 0.000268027 5.77102e-07
0.000268027 0.000185706 3.72927e-07
5.77102e-07 3.72927e-07 4.4276e-06
0.0015993 0.000286609 3.14308e-06
0.000286609 0.000265929 -5.04531e-07
3.14308e-06 -5.04531e-07 6.78772e-05
0.00118882 0.000216176 -2.30228e-08
0.000216176 8.52184e-05 5.23139e-08
-2.30228e-08 5.23139e-08 -9.32789e-05
0.000878862 0.000161154 -1.04748e-05
0.000161154 -4.45522e-06 -4.72654e-06
-1.04748e-05 -4.72654e-06 -0.000152385
0.00123789 0.000221658 5.02952e-06
0.000221658 0.000199685 3.08909e-06
5.02952e-06 3.08909e-06 1.02486e-05
0.000853361 0.000156754 -7.61184e-07
0.000156754 5.21788e-05 5.44743e-07
-7.61184e-07 5.44743e-07 -9.90913e-05
0.000715749 0.000150656 -1.9964e-05
0.000150656 3.25588e-05 -1.27359e-05
-1.9964e-05 -1.27359e-05 -4.99811e-05
0.000663406 0.000118662 3.14845e-06
0.000118662 1.45122e-05 4.54817e-06
3.14845e-06 4.54817e-06 -0.000124364
0.000563495 6.55756e-05 -4.45936e-07
6.55756e-05 -3.13489e-05 -2.27915e-07
-4.45936e-07 -2.27915e-07 -9.62869e-05
0.0043694 -0.000113709 -0.000144458
-0.000113709 0.0022401 -8.70407e-06
-0.000144458 -8.70407e-06 0.00223038
0.000387765 -1.98552e-05 3.2698e-06
-1.98552e-05 -0.000114903 9.15159e-06
3.2698e-06 9.15159e-06 -0.000165681
0.00352795 -0.000151463 -5.84808e-06
-0.000151463 0.00174748 4.19169e-07
-5.84808e-06 4.19169e-07 0.00173787
0.00305873 -0.000144401 6.20576e-05
-0.000144401 0.00146705 1.90163e-06
6.20576e-05 1.90163e-06 0.00146025
0.0018534 0.000142184 -1.70981e-06
0.000142184 2.58161e-06 7.24981e-07
-1.70981e-06 7.24981e-07 -6.56082e-05
0.00183228 0.00013446 6.80331e-07
0.00013446 -1.92431e-05 -3.08568e-07
6.80331e-07 -3.08568e-07 -7.91577e-05
0.0027414 3.55334e-05 -5.44815e-05
3.55334e-05 0.000602312 -5.7579e-06
-5.44815e-05 -5.7579e-06 0.000608023
0.00199183 0.000216139 1.60013e-06
0.000216139 0.000159614 1.24081e-06
1.60013e-06 1.24081e-06 5.09376e-05
0.0017176 0.000296528 -6.0729e-07
0.000296528 6.57706e-05 1.95031e-07
-6.0729e-07 1.95031e-07 -8.19152e-05
0.00154405 0.000334838 -9.4322e-07
0.000334838 9.28671e-05 -3.38183e-06
-9.4322e-07 -3.38183e-06 -8.82151e-05
0.00194824 0.000300766 -4.40033e-07
0.000300766 0.000280309 -2.50708e-06
-4.40033e-07 -2.50708e-06 0.000113492
0.0019761 0.000233744 -9.76118e-07
0.000233744 0.000122615 -2.6331e-07
-9.76118e-07 -2.6331e-07 2.3488e-05
0.0015934 0.000337571 1.12967e-06
0.000337571 -1.35428e-05 -3.44119e-07
1.12967e-06 -3.44119e-07 -0.000169501
0.00180829 0.000249687 1.13379e-05
0.000249687 3.93343e-05 -4.29527e-07
1.13379e-05 -4.29527e-07 -6.25111e-05
0.00190205 3.64106e-05 -9.32006e-07
3.64106e-05 5.70546e-05 5.42887e-07
-9.32006e-07 5.42887e-07 4.44632e-06
0.00194379 4.43885e-05 4.36492e-07
4.43885e-05 4.055e-05 -1.68271e-08
4.36492e-07 -1.68271e-08 2.01425e-07
0.00198482 5.60917e-05 -5.7473e-06
5.60917e-05 6.47681e-05 -6.5129e-07
-5.7473e-06 -6.5129e-07 2.87134e-05
0.00165986 -1.46579e-05 -1.5614e-06
-1.46579e-05 -2.54785e-05 2.21419e-08
-1.5614e-06 2.21419e-08 -8.7538e-05
0.00197586 -7.35217e-05 5.41328e-06
-7.35217e-05 -5.29646e-06 -7.25803e-08
5.41328e-06 -7.25803e-08 -1.33772e-05
0.00187679 -4.66859e-05 -1.17523e-06
-4.66859e-05 4.97205e-05 6.49135e-07
-1.17523e-06 6.49135e-07 1.85856e-06
0.00200308 -5.77384e-05 2.06919e-07
-5.77384e-05 0.000198952 -1.23299e-06
2.06919e-07 -1.23299e-06 0.000114992
0.0017267 -0.000140095 2.09087e-06
-0.000140095 -2.37668e-05 -2.28763e-07
2.09087e-06 -2.28763e-07 -8.82747e-05
0.0018421 -0.000115704 2.19804e-06
-0.000115704 0.000103595 -6.144e-07
2.19804e-06 -6.144e-07 7.37383e-06
0.00174589 -0.000105271 1.46772e-06
-0.000105271 0.000117316 -1.03471e-06
1.46772e-06 -1.03471e-06 -5.15701e-06
0.00183717 -0.000165052 -1.36552e-06
-0.000165052 0.00012845 1.53785e-07
-1.36552e-06 1.53785e-07 2.15635e-05
0.0017008 -0.000144834 -1.54382e-07
-0.000144834 0.000124416 -4.57201e-08
-1.54382e-07 -4.57201e-08 -7.28579e-06
0.00140295 -0.000106639 -4.03715e-06
-0.000106639 8.25289e-05 9.68893e-07
-4.03715e-06 9.68893e-07 -5.99788e-05
0.001643 -0.000172526 -2.73792e-08
-0.000172526 0.000129463 4.27881e-07
-2.73792e-08 4.27881e-07 -1.18992e-05
0.0013592 -0.000130835 -1.40067e-07
-0.000130835 7.7104e-05 6.61982e-08
-1.40067e-07 6.61982e-08 -7.01504e-05
0.00103019 -9.77168e-05 -1.23711e-05
-9.77168e-05 7.31218e-07 3.80563e-06
-1.23711e-05 3.80563e-06 -0.000127448
0.00135527 -0.000151835 5.16283e-06
-0.000151835 9.25748e-05 -1.42613e-06
5.16283e-06 -1.42613e-06 -5.87209e-05
0.00102873 -0.000112713 9.98982e-08
-0.000112713 8.95578e-06 1.82403e-07
9.98982e-08 1.82403e-07 -0.000119871
0.00244815 -0.00011541 -3.94346e-05
-0.00011541 0.00098921 6.58947e-06
-3.94346e-05 6.58947e-06 0.000925823
0.00100237 -0.000126325 1.26817e-05
-0.000126325 3.57224e-06 -5.12942e-06
1.26817e-05 -5.12942e-06 -0.000126692
0.00251235 -0.000136499 3.19252e-05
-0.000136499 0.00103177 -3.56259e-06
3.19252e-05 -3.56259e-06 0.000970026
0.00175262 -6.7733e-05 -0.000165266
-6.7733e-05 0.000670033 1.88574e-05
-0.000165266 1.88574e-05 0.000651448
0.00265606 -0.000160361 0.000104559
-0.000160361 0.00112117 -1.57457e-05
0.000104559 -1.57457e-05 0.00105908
0.00150101 -1.24845e-05 -7.7641e-05
-1.24845e-05 0.000535772 7.95441e-06
-7.7641e-05 7.95441e-06 0.00050706
0.00514834 0.000216433 1.60973e-05
0.000216433 0.00269437 -2.88303e-06
1.60973e-05 -2.88303e-06 0.00265937
0.00180409 0.000206693 1.30576e-06
0.000206693 0.00010473 6.83651e-07
1.30576e-06 6.83651e-07 -2.44196e-05
0.00178696 0.00022528 -5.0617e-08
0.00022528 0.000202416 -5.17204e-07
-5.0617e-08 -5.17204e-07 5.23078e-05
0.00187335 0.000253502 -3.02801e-06
0.000253502 0.000157688 3.9943e-08
-3.02801e-06 3.9943e-08 1.69589e-05
0.00170177 0.000206567 -4.0288e-06
0.000206567 0.000309976 -7.84203e-07
-4.0288e-06 -7.84203e-07 0.000152914
0.00154273 0.000231025 8.28877e-07
0.000231025 0.000101079 -1.01486e-06
8.28877e-07 -1.01486e-06 -5.92897e-05
0.00182758 0.000259937 -2.2266e-06
0.000259937 0.000161411 -2.9516e-06
-2.2266e-06 -2.9516e-06 1.69285e-05
0.000936304 0.000155949 -1.21277e-05
0.000155949 -1.47418e-05 -4.91656e-06
-1.21277e-05 -4.91656e-06 -0.000154937
0.00125106 0.000206598 1.05766e-07
0.000206598 7.27548e-05 1.75285e-07
1.05766e-07 1.75285e-07 -9.53415e-05
0.00163572 0.000267663 2.6567e-06
0.000267663 0.000196345 -1.21898e-06
2.6567e-06 -1.21898e-06 1.43531e-05
0.00115659 0.000213463 6.81362e-06
0.000213463 6.95391e-05 1.34616e-06
6.81362e-06 1.34616e-06 -0.000108427
0.000911246 0.000162834 -6.25207e-07
0.000162834 1.327e-05 1.27936e-07
-6.25207e-07 1.27936e-07 -0.000134762
0.000615908 0.000187817 -2.31017e-05
0.000187817 -4.18344e-05 -1.25478e-05
-2.31017e-05 -1.25478e-05 -0.000130924
0.000821839 0.00015089 6.80193e-06
0.00015089 3.23044e-05 5.89379e-06
6.80193e-06 5.89379e-06 -0.000117908
0.000594472 0.000141094 3.41404e-07
0.000141094 -3.19139e-05 3.78986e-07
3.41404e-07 3.78986e-07 -0.000113722
0.00512524 -0.000114816 -0.000159387
-0.000114816 0.00269749 -1.51951e-05
-0.000159387 -1.51951e-05 0.00267348
0.00039734 5.1114e-05 9.43874e-06
5.1114e-05 -0.000124917 1.10363e-05
9.43874e-06 1.10363e-05 -0.00018619
0.00414995 -0.000164655 -1.07258e-05
-0.000164655 0.00212095 8.98426e-07
-1.07258e-05 8.98426e-07 0.00210418
0.00337782 -0.000163094 7.38141e-05
-0.000163094 0.0016617 1.71497e-06
7.38141e-05 1.71497e-06 0.00164941
0.00179476 0.000115476 4.91385e-07
0.000115476 9.97897e-06 1.70588e-06
4.91385e-07 1.70588e-06 -6.73828e-05
0.00183151 0.000143947 1.76129e-07
0.000143947 -1.2191e-05 2.40543e-07
1.76129e-07 2.40543e-07 -8.01889e-05
0.00185692 0.000138756 3.68049e-06
0.000138756 -9.11365e-06 5.73934e-07
3.68049e-06 5.73934e-07 -7.03349e-05
0.00195074 0.000212207 7.02702e-07
0.000212207 0.000139507 -1.00618e-07
7.02702e-07 -1.00618e-07 3.28642e-05
0.00169951 0.000290566 -4.646e-07
0.000290566 6.84546e-05 -1.29903e-06
-4.646e-07 -1.29903e-06 -7.84983e-05
0.00176243 0.000223292 9.27106e-07
0.000223292 2.45186e-07 -1.25136e-06
9.27106e-07 -1.25136e-06 -9.96185e-05
0.00188473 3.61828e-05 4.33215e-07
3.61828e-05 0.000105433 3.60317e-07
4.33215e-07 3.60317e-07 3.91495e-05
0.00188477 3.64133e-05 7.21895e-07
3.64133e-05 4.81511e-05 -2.26687e-07
7.21895e-07 -2.26687e-07 -4.00912e-06
0.001899 4.46023e-05 4.82865e-06
4.46023e-05 2.38976e-05 4.66839e-07
4.82865e-06 4.66839e-07 -1.74474e-05
0.00175252 -2.0946e-05 -2.14966e-06
-2.0946e-05 2.8251e-05 1.24735e-07
-2.14966e-06 1.24735e-07 -3.2781e-05
0.00171282 -3.15431e-05 1.02035e-06
-3.15431e-05 5.32977e-05 -8.7265e-07
1.02035e-06 -8.7265e-07 -3.32298e-05
0.00179864 -4.86507e-05 6.81628e-07
-4.86507e-05 2.37974e-07 1.01981e-06
6.81628e-07 1.01981e-06 -4.76441e-05
0.0018786 -5.75776e-05 -1.05712e-06
-5.75776e-05 0.000127796 4.54633e-07
-1.05712e-06 4.54633e-07 3.98141e-05
0.00178668 -5.82266e-05 3.26259e-07
-5.82266e-05 0.000133838 -6.28557e-07
3.26259e-07 -6.28557e-07 2.23672e-05
0.00185164 -0.000116465 1.09058e-06
-0.000116465 0.000106434 1.28991e-08
1.09058e-06 1.28991e-08 1.033e-05
0.00172875 -0.000106395 1.09434e-06
-0.000106395 0.000110184 -5.29135e-07
1.09434e-06 -5.29135e-07 -1.24117e-05
0.00142909 -7.32746e-05 -3.63679e-06
-7.32746e-05 7.39227e-05 2.14396e-07
-3.63679e-06 2.14396e-07 -6.26022e-05
0.00169109 -0.000144613 -4.47785e-07
-0.000144613 0.000120826 2.82716e-07
-4.47785e-07 2.82716e-07 -1.07858e-05
0.00138927 -0.000105928 -1.07122e-08
-0.000105928 7.0512e-05 1.56436e-07
-1.07122e-08 1.56436e-07 -7.18408e-05
0.00102139 -7.5966e-05 -1.20824e-05
-7.5966e-05 -1.46607e-05 3.1003e-06
-1.20824e-05 3.1003e-06 -0.000140738
0.00136099 -0.000130691 4.22867e-06
-0.000130691 7.51279e-05 -1.12194e-06
4.22867e-06 -1.12194e-06 -7.18749e-05
0.00103383 -9.508e-05 -5.13792e-08
-9.508e-05 2.00921e-06 1.5387e-07
-5.13792e-08 1.5387e-07 -0.000125508
0.00244012 -0.000131181 -4.32588e-05
-0.000131181 0.000980672 6.04439e-06
-4.32588e-05 6.04439e-06 0.000915715
0.00102499 -0.000110124 1.26203e-05
-0.000110124 5.61257e-06 -4.32271e-06
1.26203e-05 -4.32271e-06 -0.00012247
0.00251548 -0.000125802 3.07995e-05
-0.000125802 0.00102541 -2.72228e-06
3.07995e-05 -2.72228e-06 0.000965461
0.00179382 -5.8445e-05 -0.000165517
-5.8445e-05 0.000687824 1.6281e-05
-0.000165517 1.6281e-05 0.000669546
0.00262042 -0.000139261 0.000103499
-0.000139261 0.00109029 -1.38288e-05
0.000103499 -1.38288e-05 0.00103311
0.00150762 -2.66548e-05 -7.05306e-05
-2.66548e-05 0.000532189 7.24981e-06
-7.05306e-05 7.24981e-06 0.000506906
0.0013526 -2.26964e-07 2.70072e-05
-2.26964e-07 0.00045173 -4.60491e-06
2.70072e-05 -4.60491e-06 0.000417887
0.00191542 0.000121724 5.79167e-07
0.000121724 0.000144532 2.04981e-06
5.79167e-07 2.04981e-06 4.4943e-05
0.00172741 0.000188 -8.97142e-07
0.000188 0.000133447 3.36839e-07
-8.97142e-07 3.36839e-07 -8.34794e-06
0.00181898 0.000207286 -7.47218e-07
0.000207286 0.000107149 -8.14856e-08
-7.47218e-07 -8.14856e-08 -1.90639e-05
0.00169045 0.000185415 -3.66489e-06
0.000185415 0.00026552 -7.86007e-07
-3.66489e-06 -7.86007e-07 0.000116495
0.00173851 0.000221013 7.85057e-07
0.000221013 0.000178588 1.48757e-07
7.85057e-07 1.48757e-07 2.75533e-05
0.00173976 0.000248285 3.18841e-07
0.000248285 7.89224e-05 -1.10417e-07
3.18841e-07 -1.10417e-07 -6.34932e-05
0.00101913 0.00014499 -1.29589e-05
0.00014499 1.04741e-05 -4.76589e-06
-1.29589e-05 -4.76589e-06 -0.000123333
0.00146781 0.000198494 3.27688e-06
0.000198494 0.000171437 7.96596e-07
3.27688e-06 7.96596e-07 1.35991e-05
0.00153024 0.000235547 9.48851e-07
0.000235547 9.00548e-05 -1.87341e-06
9.48851e-07 -1.87341e-06 -6.92839e-05
0.000560097 0.000168587 -2.21568e-05
0.000168587 -8.71079e-05 -1.12111e-05
-2.21568e-05 -1.12111e-05 -0.000173254
0.000970411 0.000158353 -5.5026e-07
0.000158353 5.07061e-06 1.3448e-09
-5.5026e-07 1.3448e-09 -0.000135332
0.00118537 0.000202104 7.56388e-06
0.000202104 3.5608e-05 1.91258e-06
7.56388e-06 1.91258e-06 -0.000132024
0.000956993 0.000165623 1.05442e-05
0.000165623 3.87102e-05 5.24617e-06
1.05442e-05 5.24617e-06 -0.000109613
0.000574471 0.000174191 1.67715e-06
0.000174191 -6.38411e-05 5.08085e-07
1.67715e-06 5.08085e-07 -0.000152562
0.0055145 -6.62852e-05 -0.000167715
-6.62852e-05 0.00291889 -1.87131e-05
-0.000167715 -1.87131e-05 0.00289431
0.000456983 0.000130965 1.64766e-05
0.000130965 -0.000111633 1.26478e-05
1.64766e-05 1.26478e-05 -0.000189002
0.0048689 -0.000140106 -6.88579e-06
-0.000140106 0.00253926 2.78849e-07
-6.88579e-06 2.78849e-07 0.00252106
0.00391019 -0.000186964 9.18155e-05
-0.000186964 0.00198448 2.90559e-06
9.18155e-05 2.90559e-06 0.00196411
0.00174438 8.33213e-05 -2.51889e-07
8.33213e-05 2.8347e-05 7.82163e-07
-2.51889e-07 7.82163e-07 -4.71781e-05
0.0018033 0.000114786 8.90575e-07
0.000114786 2.07392e-05 6.72609e-07
8.90575e-07 6.72609e-07 -5.67812e-05
0.00181833 0.000145772 2.08152e-06
0.000145772 -2.45334e-05 -4.97243e-08
2.08152e-06 -4.97243e-08 -9.21139e-05
0.00191328 0.000208 1.28551e-07
0.000208 0.000121139 -1.03363e-06
1.28551e-07 -1.03363e-06 1.66073e-05
0.00173023 -5.97756e-06 2.46613e-06
-5.97756e-06 6.1999e-05 -5.8393e-08
2.46613e-06 -5.8393e-08 -2.71944e-05
0.00194474 3.02057e-05 4.73616e-07
3.02057e-05 0.000136815 -1.89967e-07
4.73616e-07 -1.89967e-07 7.25547e-05
0.00186647 3.5959e-05 2.3665e-06
3.5959e-05 3.91035e-05 2.5693e-07
2.3665e-06 2.5693e-07 -1.22397e-05
0.00185627 -2.50215e-05 -4.0527e-06
-2.50215e-05 8.84079e-05 -6.94528e-08
-4.0527e-06 -6.94528e-08 2.85397e-05
0.00166175 -2.31098e-05 -1.93518e-06
-2.31098e-05 2.286e-05 -4.04784e-07
-1.93518e-06 -4.04784e-07 -6.18793e-05
0.00178902 -2.475e-05 2.27865e-06
-2.475e-05 0.000152731 -5.17179e-07
2.27865e-06 -5.17179e-07 4.39377e-05
0.00176181 -5.74217e-05 -2.23717e-06
-5.74217e-05 6.03793e-05 1.53037e-06
-2.23717e-06 1.53037e-06 -3.16342e-05
0.00173391 -5.92419e-05 1.84348e-08
-5.92419e-05 0.000106736 3.10998e-07
1.84348e-08 3.10998e-07 -8.19059e-06
0.0014701 -4.04471e-05 -3.50817e-06
-4.04471e-05 8.09794e-05 1.50347e-07
-3.50817e-06 1.50347e-07 -4.74935e-05
0.00172443 -0.000106182 8.2269e-07
-0.000106182 0.000110304 -5.54439e-08
8.2269e-07 -5.54439e-08 -1.22046e-05
0.00141855 -7.14117e-05 1.80802e-07
-7.14117e-05 6.45235e-05 -1.35169e-07
1.80802e-07 -1.35169e-07 -7.17038e-05
0.00101788 -5.07928e-05 -1.21318e-05
-5.07928e-05 -2.45875e-05 2.20181e-06
-1.21318e-05 2.20181e-06 -0.000148106
0.00137747 -0.00010324 3.71368e-06
-0.00010324 5.96159e-05 -6.47469e-07
3.71368e-06 -6.47469e-07 -8.23505e-05
0.00102827 -7.50225e-05 -6.60928e-09
-7.50225e-05 -1.10126e-05 2.4722e-07
-6.60928e-09 2.4722e-07 -0.000136812
0.000623044 -7.25802e-05 -1.88241e-05
-7.25802e-05 -9.85323e-05 4.57788e-06
-1.88241e-05 4.57788e-06 -0.000170145
0.00104089 -9.26341e-05 1.22302e-05
-9.26341e-05 5.11504e-06 -3.5414e-06
1.22302e-05 -3.5414e-06 -0.000121731
0.00157644 -8.27786e-05 4.21137e-05
-8.27786e-05 0.000466357 -2.66593e-06
4.21137e-05 -2.66593e-06 0.000402681
0.00539424 -0.000112249 -0.000207677
-0.000112249 0.00279587 1.24878e-05
-0.000207677 1.24878e-05 0.0027991
0.00260386 -0.00011406 0.000103048
-0.00011406 0.00106963 -1.12582e-05
0.000103048 -1.12582e-05 0.00101535
0.00152394 -4.08501e-05 -6.36124e-05
-4.08501e-05 0.000536864 5.22044e-06
-6.36124e-05 5.22044e-06 0.000511982
0.00127245 -4.61211e-05 3.78751e-05
-4.61211e-05 0.000403428 -5.20862e-06
3.78751e-05 -5.20862e-06 0.000370351
0.00191273 8.71852e-05 1.11111e-06
8.71852e-05 0.000159881 1.4931e-06
1.11111e-06 1.4931e-06 7.07123e-05
0.00181322 0.000128048 6.68019e-07
0.000128048 0.000165841 1.54549e-06
6.68019e-07 1.54549e-06 4.15547e-05
0.00194658 0.000119111 4.2746e-07
0.000119111 0.000169164 2.50918e-08
4.2746e-07 2.50918e-08 6.8787e-05
0.00141568 0.000146242 -4.29661e-06
0.000146242 6.9936e-05 -6.05473e-07
-4.29661e-06 -6.05473e-07 -7.43725e-05
0.00174402 0.000185789 2.44456e-07
0.000185789 0.000142556 2.77051e-09
2.44456e-07 2.77051e-09 1.81688e-06
0.00183246 0.00020818 -7.88391e-07
0.00020818 0.000107875 -6.82406e-07
-7.88391e-07 -6.82406e-07 -1.54699e-05
0.0006768 0.000108285 -1.46927e-05
0.000108285 -0.000206406 -4.52983e-06
-1.46927e-05 -4.52983e-06 -0.000336534
0.00170775 0.000187093 2.08953e-06
0.000187093 0.000276061 5.78582e-07
2.08953e-06 5.78582e-07 0.00012693
0.00169038 0.000216729 9.59436e-07
0.000216729 0.000154823 -1.28489e-07
9.59436e-07 -1.28489e-07 2.85051e-06
0.000541227 0.000126416 -1.91905e-05
0.000126416 -0.000112705 -9.04826e-06
-1.91905e-05 -9.04826e-06 -0.000192772
0.000818144 0.000135442 4.48259e-07
0.000135442 -0.000106529 2.33591e-07
4.48259e-07 2.33591e-07 -0.000241049
0.00122531 0.000189882 9.13969e-06
0.000189882 2.75973e-05 2.01078e-06
9.13969e-06 2.01078e-06 -0.000130937
0.00557378 1.95672e-05 -0.000180692
1.95672e-05 0.00292536 -1.76445e-05
-0.000180692 -1.76445e-05 0.00291506
0.000540644 0.000155319 1.38633e-06
0.000155319 -9.69089e-05 5.4346e-07
1.38633e-06 5.4346e-07 -0.000184101
0.00099116 0.000160117 1.22865e-05
0.000160117 1.73473e-05 5.05058e-06
1.22865e-05 5.05058e-06 -0.000123229
0.000489251 0.000160308 1.98932e-05
0.000160308 -0.000109025 1.26899e-05
1.98932e-05 1.26899e-05 -0.000198496
0.00534819 -7.39422e-05 7.34272e-06
-7.39422e-05 0.00281121 -1.15347e-06
7.34272e-06 -1.15347e-06 0.00279452
0.00459303 -0.000202529 0.000112814
-0.000202529 0.00239402 6.44196e-06
0.000112814 6.44196e-06 0.00236533
0.00179357 5.54484e-05 -9.70149e-07
5.54484e-05 9.05902e-05 -6.43475e-07
-9.70149e-07 -6.43475e-07 1.07868e-06
0.00181435 8.32856e-05 -5.23205e-09
8.32856e-05 6.7108e-05 4.40586e-07
-5.23205e-09 4.40586e-07 -8.7873e-06
0.00181655 0.000114217 8.64377e-07
0.000114217 3.46289e-05 -2.01146e-07
8.64377e-07 -2.01146e-07 -4.31946e-05
0.00166496 2.15069e-06 2.24459e-06
2.15069e-06 7.09696e-05 -4.93522e-07
2.24459e-06 -4.93522e-07 -3.98686e-05
0.00170452 -4.12082e-06 5.26287e-07
-4.12082e-06 5.13381e-05 1.21907e-07
5.26287e-07 1.21907e-07 -3.64066e-05
0.00200126 2.30378e-05 -6.55644e-07
2.30378e-05 0.000166196 -6.03123e-08
-6.55644e-07 -6.03123e-08 0.000103733
0.00160036 -1.59204e-05 -3.267e-06
-1.59204e-05 -1.37927e-05 1.0197e-06
-3.267e-06 1.0197e-06 -9.67449e-05
0.00176002 -1.96891e-05 1.07765e-06
-1.96891e-05 0.000134816 -2.71432e-07
1.07765e-06 -2.71432e-07 2.61689e-05
0.0017293 -1.54181e-05 -1.3604e-06
-1.54181e-05 0.000228954 -2.07548e-07
-1.3604e-06 -2.07548e-07 0.000105858
0.00168033 -6.03763e-05 -8.49092e-07
-6.03763e-05 7.96517e-05 8.70808e-07
-8.49092e-07 8.70808e-07 -3.87315e-05
0.00157314 -4.05822e-05 -1.30381e-08
-4.05822e-05 0.000140965 6.91104e-08
-1.30381e-08 6.91104e-08 1.20043e-05
0.000762809 -2.38772e-05 -1.37947e-05
-2.38772e-05 -0.000178076 1.58249e-06
-1.37947e-05 1.58249e-06 -0.000301065
0.0014063 -7.16341e-05 3.7484e-06
-7.16341e-05 5.4207e-05 -5.15913e-07
3.7484e-06 -5.15913e-07 -8.19555e-05
0.00102232 -4.7842e-05 -4.5404e-08
-4.7842e-05 -2.26973e-05 1.15107e-07
-4.5404e-08 1.15107e-07 -0.000145816
0.000626466 -2.03111e-05 -1.80586e-05
-2.03111e-05 -0.000101302 2.953e-06
-1.80586e-05 2.953e-06 -0.000172291
0.00104741 -7.33902e-05 1.21811e-05
-7.33902e-05 -6.86295e-07 -2.60949e-06
1.21811e-05 -2.60949e-06 -0.000126065
0.000628904 -5.70428e-05 -1.65412e-07
-5.70428e-05 -9.36386e-05 3.56738e-07
-1.65412e-07 3.56738e-07 -0.000166404
0.00543634 -6.78418e-06 -0.000199225
-6.78418e-06 0.00281652 7.70373e-06
-0.000199225 7.70373e-06 0.00282176
0.000661157 -6.34232e-05 1.6162e-05
-6.34232e-05 -7.19263e-05 -6.4558e-06
1.6162e-05 -6.4558e-06 -0.000145833
0.00342068 -7.41844e-05 9.49506e-05
-7.41844e-05 0.00164518 -3.04454e-06
9.49506e-05 -3.04454e-06 0.00162871
0.00121668 -6.73916e-05 4.36581e-05
-6.73916e-05 0.000372766 -5.77002e-06
4.36581e-05 -5.77002e-06 0.000336715
0.0018171 8.23253e-05 -8.89371e-08
8.23253e-05 0.000126611 1.35545e-07
-8.89371e-08 1.35545e-07 3.13085e-05
0.00166842 7.53236e-05 2.12206e-06
7.53236e-05 8.18669e-05 1.96639e-06
2.12206e-06 1.96639e-06 -3.40754e-05
0.00191411 8.44302e-05 -2.28836e-07
8.44302e-05 0.000161672 -3.68467e-07
-2.28836e-07 -3.68467e-07 7.30351e-05
0.00141555 0.000103523 -3.11627e-06
0.000103523 5.68005e-05 -1.79107e-07
-3.11627e-06 -1.79107e-07 -8.08929e-05
0.00177009 0.000126537 5.27625e-07
0.000126537 0.000137558 1.56882e-07
5.27625e-07 1.56882e-07 1.19745e-05
0.00198503 0.000116385 -1.09276e-06
0.000116385 0.00019816 -1.95972e-06
-1.09276e-06 -1.95972e-06 9.70189e-05
0.000722554 8.81847e-05 -1.43444e-05
8.81847e-05 -0.000194828 -3.50035e-06
-1.43444e-05 -3.50035e-06 -0.000321864
0.00157614 0.00015033 -5.36089e-07
0.00015033 0.000165448 7.81465e-08
-5.36089e-07 7.81465e-08 2.14567e-05
0.00176011 0.000183481 8.14723e-07
0.000183481 0.000151675 -4.62601e-07
8.14723e-07 -4.62601e-07 1.20068e-05
0.000555987 9.02166e-05 -1.76885e-05
9.02166e-05 -0.000121818 -6.86117e-06
-1.76885e-05 -6.86117e-06 -0.000196536
0.000647409 0.000107583 -2.76368e-06
0.000107583 -0.000222685 -5.34295e-07
-2.76368e-06 -5.34295e-07 -0.000353259
0.00172434 0.00018894 7.94042e-06
0.00018894 0.000286321 1.99248e-06
7.94042e-06 1.99248e-06 0.000137036
0.00552764 0.000100922 -0.000198666
0.000100922 0.00287945 -1.64834e-05
-0.000198666 -1.64834e-05 0.00287888
0.000537819 0.000119645 5.55134e-07
0.000119645 -0.000114763 3.42938e-07
5.55134e-07 3.42938e-07 -0.000195314
0.000620403 0.000126319 1.27336e-05
0.000126319 -0.000221747 4.67824e-06
1.27336e-05 4.67824e-06 -0.000357037
0.0054852 3.29387e-05 1.2328e-05
3.29387e-05 0.00287312 5.48272e-07
1.2328e-05 5.48272e-07 0.00286457
0.000504369 0.000141682 1.88584e-05
0.000141682 -0.000116328 1.11139e-05
1.88584e-05 1.11139e-05 -0.000204456
0.00518844 -0.000108704 0.000155146
-0.000108704 0.00271081 8.99777e-06
0.000155146 8.99777e-06 0.00269879
0.00177159 3.91298e-05 4.07002e-07
3.91298e-05 0.000125199 -5.23099e-07
4.07002e-07 -5.23099e-07 1.69375e-05
0.00175813 5.33209e-05 -1.19106e-06
5.33209e-05 7.5156e-05 2.90067e-07
-1.19106e-06 2.90067e-07 -1.55117e-05
0.00187891 8.27832e-05 1.32936e-08
8.27832e-05 0.000102505 -4.78885e-08
1.32936e-08 -4.78885e-08 2.62856e-05
0.00171869 -3.56309e-06 -6.25057e-07
-3.56309e-06 0.000228287 -3.52835e-07
-6.25057e-07 -3.52835e-07 0.000107111
0.00169382 1.89177e-07 3.16919e-07
1.89177e-07 8.71442e-05 4.71955e-08
3.16919e-07 4.71955e-08 -2.20175e-05
0.00168646 -7.175e-07 5.71134e-07
-7.175e-07 4.47883e-05 3.51203e-08
5.71134e-07 3.51203e-08 -4.14927e-05
0.00173122 -1.48912e-05 -3.07529e-07
-1.48912e-05 0.000117072 4.60258e-07
-3.07529e-07 4.60258e-07 8.54333e-06
0.00173343 -1.51473e-05 2.49317e-06
-1.51473e-05 0.000231097 -2.20961e-07
2.49317e-06 -2.20961e-07 0.000107985
0.000780177 -8.63915e-06 -1.32152e-05
-8.63915e-06 -0.000170534 7.3517e-07
-1.32152e-05 7.3517e-07 -0.000291602
0.0016769 -4.08221e-05 4.16524e-06
-4.08221e-05 0.000201342 -1.7632e-07
4.16524e-06 -1.7632e-07 7.189e-05
0.000889966 -2.29454e-05 -2.43277e-06
-2.29454e-05 -0.000104472 2.54136e-07
-2.43277e-06 2.54136e-07 -0.000226457
0.00062956 -5.78629e-06 -1.82788e-05
-5.78629e-06 -0.000104241 1.97855e-06
-1.82788e-05 1.97855e-06 -0.000174271
0.00102937 -4.6046e-05 1.17904e-05
-4.6046e-05 -1.91531e-05 -1.95327e-06
1.17904e-05 -1.95327e-06 -0.000141979
0.000612668 -2.79058e-05 6.7525e-07
-2.79058e-05 -0.000110657 -3.71906e-08
6.7525e-07 -3.71906e-08 -0.00018064
0.00542314 -0.000103216 -0.000209569
-0.000103216 0.00281518 7.66194e-06
-0.000209569 7.66194e-06 0.00281775
0.000611402 -4.12519e-05 1.73004e-05
-4.12519e-05 -0.000104325 -3.53934e-06
1.73004e-05 -3.53934e-06 -0.000176737
0.00542536 -4.2273e-05 7.93676e-06
-4.2273e-05 0.00281093 1.56902e-08
7.93676e-06 1.56902e-08 0.00281625
0.00154724 -1.57492e-05 0.000172467
-1.57492e-05 0.000542666 -8.94039e-06
0.000172467 -8.94039e-06 0.000528375
0.00166295 5.88788e-05 1.79426e-06
5.88788e-05 7.92517e-05 3.93528e-07
1.79426e-06 3.93528e-07 -3.42965e-05
0.00179333 8.6563e-05 -2.78267e-06
8.6563e-05 0.000105202 -3.97605e-07
-2.78267e-06 -3.97605e-07 1.1907e-05
0.00142289 6.20895e-05 -2.44025e-06
6.20895e-05 6.13352e-05 1.22987e-07
-2.44025e-06 1.22987e-07 -6.92239e-05
0.00167441 7.42429e-05 5.57854e-07
7.42429e-05 8.61826e-05 6.54818e-08
5.57854e-07 6.54818e-08 -2.98019e-05
0.00191012 8.18126e-05 -1.69029e-06
8.18126e-05 0.000160093 -2.59859e-06
-1.69029e-06 -2.59859e-06 7.19847e-05
0.00106535 7.10816e-05 -1.21727e-05
7.10816e-05 -2.82907e-06 -2.24393e-06
-1.21727e-05 -2.24393e-06 -0.000124067
0.00141887 0.000103531 4.22288e-08
0.000103531 5.93009e-05 1.0162e-07
4.22288e-08 1.0162e-07 -7.85232e-05
0.00172397 0.000124963 -2.11211e-07
0.000124963 0.000107574 -9.66037e-07
-2.11211e-07 -9.66037e-07 -1.9313e-05
0.000577207 6.3402e-05 -1.71905e-05
6.3402e-05 -0.000123933 -4.92638e-06
-1.71905e-05 -4.92638e-06 -0.000195887
0.000852154 9.38706e-05 -3.22168e-06
9.38706e-05 -0.000118688 -3.73599e-07
-3.22168e-06 -3.73599e-07 -0.000245324
0.00174063 0.000154428 4.91592e-06
0.000154428 0.000263375 1.19431e-06
4.91592e-06 1.19431e-06 0.000119713
0.00551118 0.000152596 -0.000218084
0.000152596 0.00286678 -1.5961e-05
-0.000218084 -1.5961e-05 0.00286693
0.000566374 8.84116e-05 5.96151e-08
8.84116e-05 -0.000116242 1.24823e-07
5.96151e-08 1.24823e-07 -0.000191074
0.000619021 0.000107028 8.93282e-06
0.000107028 -0.00023868 3.3541e-06
8.93282e-06 3.3541e-06 -0.000369662
0.0054658 0.000120156 1.04365e-05
0.000120156 0.00285121 2.21913e-06
1.04365e-05 2.21913e-06 0.00284728
0.000539074 0.000111517 1.768e-05
0.000111517 -0.000114706 8.93486e-06
1.768e-05 8.93486e-06 -0.000195301
0.00542206 2.8565e-05 0.000187928
2.8565e-05 0.00282484 1.34719e-05
0.000187928 1.34719e-05 0.00282431
0.0017027 2.69752e-05 -5.47311e-07
2.69752e-05 0.000224519 -2.26222e-07
-5.47311e-07 -2.26222e-07 0.000104305
0.00174086 3.4819e-05 -9.70795e-07
3.4819e-05 0.000110458 1.52491e-07
-9.70795e-07 1.52491e-07 1.14969e-06
0.00172486 5.09719e-05 -1.57998e-06
5.09719e-05 6.16147e-05 3.68802e-07
-1.57998e-06 3.68802e-07 -3.01664e-05
0.000767391 -8.77925e-06 -1.37199e-05
-8.77925e-06 -0.000173427 -2.90525e-07
-1.37199e-05 -2.90525e-07 -0.000292677
0.00173581 2.67043e-06 2.82704e-06
2.67043e-06 0.00023819 -1.39794e-07
2.82704e-06 -1.39794e-07 0.000117016
0.0017195 -1.85781e-06 -5.87476e-07
-1.85781e-06 0.000101684 4.27457e-07
-5.87476e-07 4.27457e-07 -5.79149e-06
0.00174257 -1.52176e-05 6.15644e-06
-1.52176e-05 0.000236156 -1.25924e-07
6.15644e-06 -1.25924e-07 0.000113027
0.000768861 -8.55181e-06 -1.85917e-06
-8.55181e-06 -0.000177675 1.60443e-07
-1.85917e-06 1.60443e-07 -0.000298902
0.000633244 -2.50783e-05 -1.85231e-05
-2.50783e-05 -0.000104199 7.70582e-07
-1.85231e-05 7.70582e-07 -0.00017307
0.00100472 -2.125e-05 9.72142e-06
-2.125e-05 -3.79742e-05 -1.26074e-06
9.72142e-06 -1.26074e-06 -0.000158957
0.000613743 4.3204e-06 2.29073e-07
4.3204e-06 -0.000113625 6.08888e-08
2.29073e-07 6.08888e-08 -0.000183262
0.00546478 -8.12923e-05 -0.000216843
-8.12923e-05 0.0028372 5.27048e-06
-0.000216843 5.27048e-06 0.00284163
0.000617458 -2.79286e-05 1.80452e-05
-2.79286e-05 -0.000106768 -2.39212e-06
1.80452e-05 -2.39212e-06 -0.000177541
0.00545352 3.5344e-06 -3.00938e-06
3.5344e-06 0.00282511 1.25947e-06
-3.00938e-06 1.25947e-06 0.00283224
0.00544124 -6.25088e-05 0.000209686
-6.25088e-05 0.00281824 -6.92645e-06
0.000209686 -6.92645e-06 0.00282491
0.00141244 4.00279e-05 -2.56278e-06
4.00279e-05 6.0998e-05 -3.00533e-08
-2.56278e-06 -3.00533e-08 -6.64281e-05
0.00169598 6.17515e-05 -8.48172e-07
6.17515e-05 9.73489e-05 -9.87998e-07
-8.48172e-07 -9.87998e-07 -1.29847e-05
0.00176998 9.10489e-05 -4.16474e-06
9.10489e-05 8.41763e-05 -4.60249e-07
-4.16474e-06 -4.60249e-07 -7.13203e-06
0.0010671 3.95902e-05 -1.20462e-05
3.95902e-05 -3.0045e-06 -1.5857e-06
-1.20462e-05 -1.5857e-06 -0.000120394
0.00141315 6.23677e-05 1.64029e-07
6.23677e-05 5.41108e-05 3.693e-08
1.64029e-07 3.693e-08 -7.67872e-05
0.00167754 7.30511e-05 -1.15065e-06
7.30511e-05 8.92017e-05 -1.72913e-06
-1.15065e-06 -1.72913e-06 -2.68251e-05
0.000602945 3.84118e-05 -1.68288e-05
3.84118e-05 -0.000115885 -3.63517e-06
-1.68288e-05 -3.63517e-06 -0.000186265
0.00103345 7.21647e-05 2.08771e-07
7.21647e-05 -2.04468e-05 2.1972e-07
2.08771e-07 2.1972e-07 -0.000142136
0.00142278 0.000103561 3.68485e-06
0.000103561 6.19284e-05 4.64133e-07
3.68485e-06 4.64133e-07 -7.60335e-05
0.00548041 0.000154639 -0.000230275
0.000154639 0.00285045 -1.39802e-05
-0.000230275 -1.39802e-05 0.00285039
0.00059969 6.52458e-05 2.89258e-07
6.52458e-05 -0.000110803 1.92967e-07
2.89258e-07 1.92967e-07 -0.000183048
0.000979236 9.95205e-05 9.01477e-06
9.95205e-05 -4.41311e-05 2.86712e-06
9.01477e-06 2.86712e-06 -0.000170326
0.00547455 0.000166024 5.79182e-06
0.000166024 0.0028525 2.30479e-06
5.79182e-06 2.30479e-06 0.00284982
0.000579294 8.73572e-05 1.70007e-05
8.73572e-05 -0.000108818 7.04787e-06
1.70007e-05 7.04787e-06 -0.000183757
0.00543611 0.000140908 0.000205512
0.000140908 0.00283226 1.75728e-05
0.000205512 1.75728e-05 0.00283006
0.00105413 1.23097e-05 -1.26488e-05
1.23097e-05 -4.44899e-06 -9.36567e-07
-1.26488e-05 -9.36567e-07 -0.000119893
0.00156472 2.22543e-05 3.1664e-06
2.22543e-05 0.000144962 1.11617e-07
3.1664e-06 1.11617e-07 2.36828e-05
0.00170643 2.96345e-05 -2.11018e-06
2.96345e-05 9.31136e-05 2.85867e-07
-2.11018e-06 2.85867e-07 -1.72537e-05
0.000662253 2.80573e-05 -1.90191e-05
2.80573e-05 -9.36678e-05 -4.65971e-07
-1.90191e-05 -4.65971e-07 -0.000155919
0.000754483 -3.37626e-06 -2.14372e-06
-3.37626e-06 -0.000182219 5.83336e-08
-2.14372e-06 5.83336e-08 -0.000301686
0.00175076 8.90485e-06 6.32203e-06
8.90485e-06 0.000246778 2.03558e-07
6.32203e-06 2.03558e-07 0.000125599
0.000752292 -8.06853e-06 9.48883e-06
-8.06853e-06 -0.000187891 -4.20659e-07
9.48883e-06 -4.20659e-07 -0.000309266
0.000625581 -3.45135e-06 2.12217e-07
-3.45135e-06 -0.000108767 3.16024e-07
2.12217e-07 3.16024e-07 -0.000177559
0.00547253 4.61222e-05 -0.000223619
4.61222e-05 0.00283781 -7.61234e-07
-0.000223619 -7.61234e-07 0.00284513
0.000595777 1.42791e-05 1.76447e-05
1.42791e-05 -0.000124574 -1.23361e-06
1.76447e-05 -1.23361e-06 -0.000193626
0.00546012 -8.07034e-05 -7.86296e-06
-8.07034e-05 0.00283481 1.41335e-06
-7.86296e-06 1.41335e-06 0.00283892
0.00543126 2.43444e-05 0.000201568
2.43444e-05 0.00281268 -3.0201e-06
0.000201568 -3.0201e-06 0.0028193
0.0010621 2.10308e-05 -1.25334e-05
2.10308e-05 -2.84033e-06 -1.23078e-06
-1.25334e-05 -1.23078e-06 -0.000118345
0.00140167 3.96047e-05 -8.79298e-08
3.96047e-05 5.25524e-05 -8.17633e-08
-8.79298e-08 -8.17633e-08 -7.32428e-05
0.00173457 6.44641e-05 -3.27428e-06
6.44641e-05 0.000118502 -1.64155e-06
-3.27428e-06 -1.64155e-06 1.13934e-05
0.002603 4.34831e-05 -0.000109203
4.34831e-05 0.00104955 -3.27755e-06
-0.000109203 -3.27755e-06 0.00100197
0.00104011 4.14762e-05 2.37646e-07
4.14762e-05 -1.83748e-05 1.87472e-07
2.37646e-07 1.87472e-07 -0.000136066
0.00140512 6.2579e-05 3.32802e-06
6.2579e-05 4.77731e-05 6.51719e-08
3.32802e-06 6.51719e-08 -8.34668e-05
0.00543586 0.000129045 -0.000233321
0.000129045 0.00282447 -1.06415e-05
-0.000233321 -1.06415e-05 0.00282612
0.000635556 5.30837e-05 7.3209e-07
5.30837e-05 -9.53419e-05 2.77965e-07
7.3209e-07 2.77965e-07 -0.000166991
0.00100839 7.34586e-05 1.20825e-05
7.34586e-05 -3.41996e-05 2.649e-06
1.20825e-05 2.649e-06 -0.000156319
0.00550238 0.000166766 1.50005e-06
0.000166766 0.00286606 1.65192e-06
1.50005e-06 1.65192e-06 0.00286479
0.000631364 6.90918e-05 1.74535e-05
6.90918e-05 -9.14792e-05 5.67542e-06
1.74535e-05 5.67542e-06 -0.000164468
0.00544208 0.000189475 0.000216716
0.000189475 0.00284011 1.90585e-05
0.000216716 1.90585e-05 0.0028343
0.000701147 8.53451e-06 -1.64164e-05
8.53451e-06 -5.96801e-05 -1.86017e-06
-1.64164e-05 -1.86017e-06 -0.000128475
0.000890468 9.99269e-06 6.42829e-07
9.99269e-06 -9.92194e-05 1.51321e-07
6.42829e-07 1.51321e-07 -0.000216003
0.00142408 1.73029e-05 6.13619e-06
1.73029e-05 6.38859e-05 2.61608e-07
6.13619e-06 2.61608e-07 -5.84334e-05
0.0053675 -9.29339e-05 -0.000208153
-9.29339e-05 0.00279252 2.36415e-07
-0.000208153 2.36415e-07 0.00279041
0.000621699 7.75255e-06 -3.89744e-07
7.75255e-06 -0.000112111 2.3816e-07
-3.89744e-07 2.3816e-07 -0.000177065
0.000749967 1.74623e-06 9.39134e-06
1.74623e-06 -0.000186223 2.72209e-07
9.39134e-06 2.72209e-07 -0.000305885
0.000592821 2.02449e-05 1.79334e-05
2.02449e-05 -0.000127955 1.3731e-07
1.79334e-05 1.3731e-07 -0.000196344
0.00543811 1.06018e-05 2.66927e-06
1.06018e-05 0.00282161 -5.86832e-07
2.66927e-06 -5.86832e-07 0.00282598
0.00547855 8.28951e-06 0.000212421
8.28951e-06 0.00283698 -1.20493e-06
0.000212421 -1.20493e-06 0.00284525
0.00264646 4.37592e-06 -0.000106192
4.37592e-06 0.00107263 -2.08006e-06
-0.000106192 -2.08006e-06 0.00102621
0.0010515 2.35592e-05 7.80352e-08
2.35592e-05 -8.90236e-06 7.44784e-08
7.80352e-08 7.44784e-08 -0.000124588
0.00138503 3.93539e-05 3.22416e-06
3.93539e-05 4.08543e-05 -1.17133e-07
3.22416e-06 -1.17133e-07 -8.33157e-05
0.00507922 -6.32817e-05 -6.31309e-05
-6.32817e-05 0.00262741 2.70209e-07
-6.31309e-05 2.70209e-07 0.00261278
0.000648119 4.46939e-05 -6.818e-09
4.46939e-05 -8.98104e-05 2.57598e-07
-6.818e-09 2.57598e-07 -0.00015965
0.00102825 4.38834e-05 1.19457e-05
4.38834e-05 -2.53751e-05 1.99505e-06
1.19457e-05 1.99505e-06 -0.000143315
0.00548028 9.66387e-05 -1.11353e-05
9.66387e-05 0.00284575 -8.96116e-07
-1.11353e-05 -8.96116e-07 0.00284943
0.000666256 7.36632e-05 1.89674e-05
7.36632e-05 -7.67846e-05 4.68326e-06
1.89674e-05 4.68326e-06 -0.00014907
0.00549973 0.000190642 0.000227813
0.000190642 0.00287175 1.80832e-05
0.000227813 1.80832e-05 0.00286696
0.00167306 -4.60896e-05 -0.000180729
-4.60896e-05 0.00061045 5.42238e-07
-0.000180729 5.42238e-07 0.000599302
0.00164493 2.31516e-05 -4.38155e-05
2.31516e-05 0.000485605 1.55873e-07
-4.38155e-05 1.55873e-07 0.000431844
0.000731451 1.00113e-05 1.23071e-05
1.00113e-05 -0.000191286 9.36385e-07
1.23071e-05 9.36385e-07 -0.00030944
0.00540131 -3.85111e-05 8.10245e-06
-3.85111e-05 0.00280733 8.34759e-07
8.10245e-06 8.34759e-07 0.00280917
0.000626973 -1.14032e-05 1.83381e-05
-1.14032e-05 -0.000104726 1.02062e-06
1.83381e-05 1.02062e-06 -0.00017216
0.00546892 -5.89972e-05 0.000227783
-5.89972e-05 0.00283986 -1.42877e-06
0.000227783 -1.42877e-06 0.00284501
0.0012703 -7.0723e-07 -3.0715e-05
-7.0723e-07 0.000397914 -6.38339e-07
-3.0715e-05 -6.38339e-07 0.000364019
0.00163944 1.12784e-05 -4.43341e-05
1.12784e-05 0.000486077 -4.67579e-07
-4.43341e-05 -4.67579e-07 0.000429473
0.00102851 2.4608e-05 1.21398e-05
2.4608e-05 -2.18247e-05 1.40758e-06
1.21398e-05 1.40758e-06 -0.000137722
0.00336132 4.3034e-05 8.34153e-05
4.3034e-05 0.00160874 1.83775e-06
8.34153e-05 1.83775e-06 0.00159599
0.000659277 5.33691e-05 1.90117e-05
5.33691e-05 -8.29822e-05 3.71906e-06
1.90117e-05 3.71906e-06 -0.000153086
0.00551803 8.90032e-05 0.000218015
8.90032e-05 0.00286347 1.12039e-05
0.000218015 1.12039e-05 0.00286956
0.00531895 -2.41526e-05 -8.85072e-06
-2.41526e-05 0.00276264 -1.47637e-06
-8.85072e-06 -1.47637e-06 0.00276371
0.000632389 3.92647e-05 1.95463e-05
3.92647e-05 -0.000106188 1.83957e-06
1.95463e-05 1.83957e-06 -0.0001681
0.00532013 5.36494e-05 0.000212428
5.36494e-05 0.0027576 -1.72111e-07
0.000212428 -1.72111e-07 0.00276192
0.00331033 2.64214e-05 9.71341e-05
2.64214e-05 0.00158403 2.6317e-06
9.71341e-05 2.6317e-06 0.00157099
0.00066905 4.65535e-06 1.84638e-05
4.65535e-06 -7.84075e-05 2.50221e-06
1.84638e-05 2.50221e-06 -0.000145675
0.00543939 -3.29978e-05 0.000210093
-3.29978e-05 0.00282071 5.12684e-06
0.000210093 5.12684e-06 0.00282555
0.00533803 -0.000130229 0.000207527
-0.000130229 0.00278 -2.36324e-06
0.000207527 -2.36324e-06 0.00277607
0.00534319 -1.73612e-05 0.000207318
-1.73612e-05 0.00276244 2.53089e-06
0.000207318 2.53089e-06 0.00277056
