# vtk DataFile Version 2.0
Wound Healing Simulation
ASCII
DATASET UNSTRUCTURED_GRID
POINTS 3012 float
69.9759 18.75 4
67.2507 60.3285 4
69.976 18.75 2
73.0099 25.446 4
71.1327 20.9142 4
68.6801 16.6661 4
67.8244 19.9262 3.98013
67.2507 60.3286 2
71.1327 54.0858 4
68.6801 58.3339 4
65.6939 62.2254 4
65.311 59.0006 3.97915
74.6784 42.3946 4
73.7221 47.2057 4
69.9759 18.75 0
73.0099 25.446 2
68.6801 16.6661 2
71.1327 20.9142 2
67.8251 19.9297 2
74.6792 32.6053 4
73.7222 27.7943 4
72.1454 23.1494 4
70.6133 26.221 3.97968
68.8847 21.958 3.98052
67.2507 14.6715 4
66.6358 17.9725 3.97911
65.7936 21.0272 3.96936
67.2507 60.3285 0
71.1327 54.0858 2
68.6801 58.3339 2
65.694 62.2255 2
65.3123 58.9965 2
72.1454 51.8506 4
69.9759 56.25 4
68.8354 53.113 3.9797
64.0165 64.0165 4
66.6096 57.1333 3.97964
63.8841 60.7648 3.97934
63.4969 57.7679 3.97049
60.3285 67.2507 4
74.6792 42.3947 2
73.7222 47.2057 2
74.9194 39.9526 4
74.2788 44.8158 4
72.1676 42.0855 3.9795
73.0099 49.554 4
71.2485 46.598 3.97899
73.0099 25.446 0
71.1327 20.9142 0
68.6801 16.6661 0
67.8244 19.9262 0.0198748
74.6792 32.6053 2
73.7222 27.7943 2
67.2508 14.6715 2
72.1455 23.1494 2
70.6132 26.2215 2
66.6369 17.9769 2
68.885 21.9602 2
65.793 21.0282 2
74.9197 35.0474 4
74.2794 30.1841 4
72.1843 32.9435 3.97974
71.2774 28.4315 3.97928
69.8146 24.0595 3.98028
68.3439 26.9524 3.96865
66.7592 22.9346 3.96897
65.694 12.7746 4
65.3221 16.1046 3.97854
64.7099 19.1982 3.96972
63.873 22.0422 3.966
71.1327 54.0858 0
65.6939 62.2254 0
68.6801 58.3339 0
65.311 59.0006 0.0208487
72.1455 51.8506 2
69.9759 56.25 2
68.8355 53.111 2
64.0165 64.0165 2
66.6105 57.1294 2
63.8859 60.7612 2
63.4963 57.7676 2
62.2254 65.694 4
58.8937 65.4138 3.98897
69.7679 50.9889 3.97942
67.7826 55.1671 3.97969
66.6462 52.2078 3.9683
62.3346 62.4266 3.98287
64.6572 56.0292 3.96954
62.1986 59.3973 3.96917
61.8156 56.6732 3.96579
58.3339 68.6801 4
60.3285 67.2508 2
73.7221 47.2057 0
74.6784 42.3946 0
74.9197 39.9526 2
74.2794 44.8159 2
72.1671 42.0854 2
73.0099 49.554 2
71.2483 46.5977 2
75 37.5 4
72.4049 39.8022 3.98016
71.7818 44.3528 3.97945
69.8017 41.7896 3.96898
70.5742 48.8134 3.97907
68.9093 46.0142 3.96848
74.6792 32.6053 0
73.7222 27.7943 0
67.2507 14.6715 0
72.1454 23.1494 0
70.6133 26.221 0.0203235
68.8847 21.958 0.0194828
66.6358 17.9725 0.0208873
65.7936 21.0272 0.0306357
74.9197 35.0474 2
74.2794 30.1841 2
72.1837 32.9439 2
71.2773 28.4319 2
65.694 12.7745 2
65.3237 16.1093 2
69.8147 24.0607 2
68.3437 26.9531 2
64.7091 19.199 2
66.7588 22.9355 2
63.8727 22.0427 2
72.4127 35.2243 3.98022
71.8033 30.6764 3.97974
69.8377 33.269 3.9691
68.9633 29.039 3.96871
67.6082 24.9131 3.96873
66.1712 27.6405 3.96698
64.0165 10.9835 4
64.738 23.8365 3.9664
63.8883 14.3289 3.9798
63.509 17.4529 3.97017
62.8963 20.3284 3.96535
62.0381 22.9632 3.96696
60.6826 11.0992 3.98434
57.6109 11.4538 3.97593
72.1454 51.8506 0
69.9759 56.25 0
68.8354 53.113 0.0203032
64.0165 64.0165 0
63.8841 60.7648 0.0206647
66.6096 57.1333 0.0203557
63.4969 57.7679 0.0295066
62.2255 65.694 2
58.8952 65.4128 2
69.7679 50.9878 2
67.7831 55.1639 2
66.6457 52.2069 2
62.3367 62.4237 2
64.6566 56.0285 2
62.198 59.3977 2
61.815 56.6731 2
60.6674 63.9761 3.98574
57.0248 66.7346 3.99045
57.5562 63.6873 3.97839
67.5042 50.1755 3.96806
65.6984 54.1716 3.96873
64.5152 51.3779 3.96568
60.7699 60.9307 3.97235
62.8123 55.0615 3.96545
60.6488 58.1469 3.96457
60.3147 55.7711 3.96446
56.25 69.9759 4
58.3339 68.6801 2
60.3285 67.2507 0
58.9203 9.65707 3.98685
62.2254 9.30607 4
73.0099 49.554 0
74.2788 44.8158 0
71.2485 46.598 0.021008
72.1676 42.0855 0.0205013
74.9194 39.9526 0
75 37.5 2
72.4048 39.8024 2
71.7818 44.3524 2
69.8011 41.7893 2
70.5741 48.8131 2
68.9093 46.0135 2
72.4883 37.5121 3.97978
70.0391 39.6575 3.96912
69.4278 43.9072 3.96879
67.5748 41.495 3.96852
68.2628 48.1062 3.96816
66.6795 45.4342 3.96761
74.9197 35.0474 0
74.2794 30.1841 0
72.1843 32.9435 0.0202612
71.2774 28.4315 0.0207166
65.694 12.7746 0
65.3221 16.1046 0.0214618
69.8146 24.0595 0.0197186
68.3439 26.9524 0.0313513
66.7592 22.9346 0.0310276
64.7099 19.1982 0.0302805
63.873 22.0422 0.0339997
72.4127 35.2244 2
71.8032 30.677 2
69.8371 33.2694 2
68.9633 29.0396 2
64.0165 10.9835 2
63.8905 14.3332 2
63.5082 17.4537 2
67.6079 24.9139 2
66.1714 27.6409 2
62.896 20.3288 2
64.7376 23.8371 2
62.0375 22.9637 2
60.6853 11.102 2
57.6122 11.4528 2
70.0558 35.3924 3.96925
69.4646 31.1502 3.96885
67.6362 33.5938 3.96817
66.7484 29.6279 3.96734
65.5014 25.7056 3.96661
64.0623 28.273 3.97036
62.3402 12.6564 3.9825
62.7916 24.6568 3.96827
62.1947 15.7942 3.97031
61.8041 18.6957 3.96583
61.1713 21.3627 3.96522
60.3217 23.7614 3.96938
59.2438 12.7883 3.97325
55.8731 10.2394 3.97835
56.4022 13.1345 3.97281
69.7679 50.9889 0.0205753
62.2254 65.694 0
58.8937 65.4138 0.0110267
67.7826 55.1671 0.0203067
66.6462 52.2078 0.0316968
62.3346 62.4266 0.0171297
62.1986 59.3973 0.0308348
64.6572 56.0292 0.0304586
61.8156 56.6732 0.0342144
60.6694 63.9744 2
57.0259 66.7341 2
57.5564 63.689 2
67.5039 50.1747 2
65.6978 54.1707 2
64.5151 51.3775 2
60.7695 60.9315 2
62.8117 55.0612 2
60.6486 58.1471 2
60.3147 55.7708 2
55.0708 67.9315 3.99154
59.2165 62.3591 3.9734
55.8037 64.9067 3.98243
56.3233 62.076 3.97453
65.3026 49.4006 3.96616
63.6922 53.2857 3.96538
62.3667 50.6308 3.96728
59.3261 59.5436 3.96708
61.0493 54.2931 3.96581
59.2703 56.9931 3.96345
59.2159 55.1627 3.96553
48.1013 68.577 3.98693
50.9486 69.9312 3.99166
54.0858 71.1327 4
56.25 69.976 2
58.3339 68.6801 0
57.0578 8.33682 3.98787
60.3285 7.74928 4
58.9228 9.65873 2
62.2255 9.30602 2
70.5742 48.8134 0.0209286
71.7818 44.3528 0.0205549
68.9093 46.0142 0.0315234
69.8017 41.7896 0.0310217
72.4049 39.8022 0.0198355
75 37.5 0
72.4878 37.5123 2
70.039 39.6574 2
69.4276 43.9067 2
67.5747 41.4948 2
68.2627 48.1055 2
66.6789 45.4338 2
70.1271 37.5218 3.96917
67.8154 39.5113 3.96863
67.1958 43.4657 3.96799
65.4643 41.2015 3.97302
66.0368 47.4109 3.96696
64.5515 44.8321 3.97104
72.4127 35.2243 0.0197838
71.8033 30.6764 0.0202574
69.8377 33.269 0.0308989
68.9633 29.039 0.0312932
64.0165 10.9835 0
63.8883 14.3289 0.0201981
63.509 17.4529 0.029828
67.6082 24.9131 0.0312718
66.1712 27.6405 0.0330185
64.738 23.8365 0.0335969
62.8963 20.3284 0.0346531
62.0381 22.9632 0.0330404
60.6826 11.0992 0.0156578
57.6109 11.4538 0.0240653
70.0558 35.3926 2
69.4645 31.1506 2
67.6363 33.594 2
66.7484 29.6283 2
62.3427 12.6605 2
62.194 15.7942 2
61.8033 18.696 2
65.5013 25.7061 2
64.0609 28.2735 2
61.1703 21.3633 2
62.7909 24.6573 2
60.3212 23.7622 2
59.2452 12.7876 2
56.4029 13.1324 2
55.8742 10.2385 2
67.8545 35.5491 3.96858
67.2436 31.6265 3.96781
65.6172 33.9346 3.97284
64.5772 30.2068 3.97135
63.4639 26.4329 3.96936
62.1128 28.8057 3.97461
60.7722 14.2325 3.97248
60.9276 25.3705 3.97155
60.6016 17.1435 3.96529
60.1852 19.839 3.96321
59.5635 22.2944 3.96616
58.8349 24.3656 3.97209
54.0367 9.14043 3.98057
57.9055 14.3508 3.97277
54.784 12.0244 3.97405
55.3058 14.6749 3.97098
67.5042 50.1755 0.03194
57.0248 66.7346 0.00955435
60.6674 63.9761 0.0142588
57.5562 63.6873 0.021605
65.6984 54.1716 0.0312735
64.5152 51.3779 0.0343208
60.7699 60.9307 0.0276542
60.6488 58.1469 0.0354271
62.8123 55.0615 0.0345494
60.3147 55.7711 0.0355406
55.0716 67.9314 2
59.2168 62.3605 2
55.8036 64.9077 2
56.3226 62.0783 2
65.3025 49.4002 2
63.6921 53.2855 2
62.3665 50.6304 2
59.3253 59.5448 2
61.05 54.293 2
59.271 56.9929 2
59.2171 55.1624 2
53.0428 68.9993 3.99156
53.9661 66.0111 3.98447
57.8756 60.8558 3.97306
54.6818 63.2008 3.97719
55.2049 60.5947 3.97317
63.1057 48.64 3.96859
61.6873 52.5558 3.96653
60.1398 49.9841 3.96921
58.0025 58.2433 3.96503
59.2717 53.9215 3.967
58.0757 55.7851 3.96084
50.1081 67.8555 3.98658
47.4622 66.577 3.98317
46.0551 69.156 3.98714
48.1013 68.5777 2
48.8026 70.7224 3.99177
50.9491 69.9311 2
51.8506 72.1454 4
54.0858 71.1327 2
56.25 69.9759 0
55.1026 7.14119 3.98983
58.3339 6.31992 4
57.0597 8.33788 2
60.3286 7.74926 2
58.9203 9.65707 0.01315
62.2254 9.30607 0
68.2628 48.1062 0.0318373
69.4278 43.9072 0.0312119
66.6795 45.4342 0.0323864
67.5748 41.495 0.0314752
70.0391 39.6575 0.0308783
72.4883 37.5121 0.0202236
70.1266 37.5219 2
67.8151 39.5112 2
67.1965 43.4655 2
65.4629 41.2013 2
66.037 47.4106 2
64.55 44.8316 2
67.9145 37.5224 3.96863
65.7013 39.366 3.97338
65.0825 43.0131 3.97242
63.5992 40.9158 3.9774
63.8652 46.6972 3.96964
62.6418 44.191 3.97525
70.0558 35.3924 0.0307539
69.4646 31.1502 0.0311481
67.6362 33.5938 0.0318318
66.7484 29.6279 0.0326578
62.3402 12.6564 0.0175003
62.1947 15.7942 0.0296936
61.8041 18.6957 0.0341748
65.5014 25.7056 0.0333856
64.0623 28.273 0.0296431
62.7916 24.6568 0.0317339
61.1713 21.3627 0.0347791
60.3217 23.7614 0.0306193
59.2438 12.7883 0.0267519
56.4022 13.1345 0.027191
55.8731 10.2394 0.0216509
67.8541 35.5493 2
67.2441 31.6268 2
65.6157 33.9349 2
64.5759 30.2073 2
60.7722 14.2333 2
60.6012 17.1435 2
60.1865 19.8391 2
63.4629 26.4335 2
62.1104 28.8065 2
59.5648 22.2951 2
60.9269 25.3713 2
58.8339 24.3668 2
57.9059 14.3494 2
55.3064 14.6739 2
54.0375 9.13882 2
54.7849 12.0218 2
65.7939 35.6706 3.97319
65.0964 32.1658 3.97183
64.1536 34.26 3.97742
62.431 30.6604 3.97577
61.5184 27.1033 3.9728
60.6636 29.1768 3.97729
59.3033 15.6855 3.9689
59.1608 25.8423 3.97495
59.1022 18.3787 3.96375
58.6628 20.8903 3.96305
58.1447 23.1409 3.96697
57.8027 24.7185 3.97395
52.1117 8.15647 3.9834
53.0562 11.0274 3.97579
56.6667 15.768 3.9713
53.8045 13.7053 3.97367
54.3632 16.0313 3.97224
55.0708 67.9315 0.00845708
65.3026 49.4006 0.0338444
55.8037 64.9067 0.0175672
59.2165 62.3591 0.0266019
56.3233 62.076 0.0254675
63.6922 53.2857 0.0346152
62.3667 50.6308 0.0327195
59.3261 59.5436 0.0329181
59.2703 56.9931 0.0365547
61.0493 54.2931 0.0341901
59.2159 55.1627 0.03447
53.0434 68.9993 2
53.966 66.012 2
57.8746 60.8573 2
54.6813 63.2017 2
55.2045 60.5965 2
63.1048 48.6395 2
61.6881 52.5556 2
60.1397 49.9834 2
58.0018 58.2445 2
59.274 53.9213 2
58.0737 55.7839 2
52.0694 66.9983 3.9862
52.9524 64.2134 3.98114
56.638 59.4705 3.972
53.6765 61.6095 3.97619
54.2477 59.2965 3.97422
60.827 47.8449 3.97026
59.6038 52.0722 3.96786
57.8454 49.5702 3.97104
56.7475 56.9624 3.96676
57.0387 54.087 3.96497
50.108 67.8558 2
49.3362 65.9178 3.9832
47.4622 66.5775 2
46.8914 64.7298 3.98152
45.5572 67.0936 3.98317
43.9724 69.588 3.98742
46.0551 69.1565 2
46.6091 71.3669 3.99182
48.1013 68.577 0.0130693
48.8031 70.7226 2
49.554 73.0099 4
50.9486 69.9312 0.00833707
51.8506 72.1455 2
54.0858 71.1327 0
53.0644 6.07222 3.99122
55.1042 7.14132 2
56.25 5.02411 4
58.3339 6.3199 2
57.0578 8.33682 0.0121278
60.3285 7.74928 0
66.0368 47.4109 0.0330372
67.1958 43.4657 0.0320076
64.5515 44.8321 0.0289575
65.4643 41.2015 0.0269826
67.8154 39.5113 0.0313664
70.1271 37.5218 0.0308329
67.9145 37.5224 2
65.6999 39.3659 2
65.0807 43.0127 2
63.5964 40.9151 2
63.8638 46.6967 2
62.6393 44.1902 2
65.8075 37.5017 3.97326
63.7487 39.2594 3.97742
63.1631 42.53 3.97667
62.2251 40.6784 3.97711
61.7998 45.8882 3.97268
61.2328 43.6502 3.97707
67.8545 35.5491 0.0314213
67.2436 31.6265 0.0321888
65.6172 33.9346 0.0271611
64.5772 30.2068 0.028652
60.7722 14.2325 0.0275158
60.6016 17.1435 0.0347099
60.1852 19.839 0.0367898
63.4639 26.4329 0.0306391
62.1128 28.8057 0.0253925
60.9276 25.3705 0.0284481
59.5635 22.2944 0.0338405
58.8349 24.3656 0.0279063
57.9055 14.3508 0.0272319
55.3058 14.6749 0.0290211
54.0367 9.14043 0.0194319
54.784 12.0244 0.0259545
65.7924 35.6707 2
65.0949 32.1662 2
64.1517 34.2605 2
62.4295 30.6611 2
59.3023 15.6862 2
59.1026 18.3787 2
58.6678 20.8906 2
61.5168 27.1042 2
60.6623 29.1777 2
58.1426 23.1425 2
59.16 25.8434 2
57.8024 24.7202 2
56.6669 15.7662 2
54.364 16.0325 2
53.8045 13.6991 2
52.1122 8.1554 2
53.057 11.0257 2
63.9511 35.6381 3.97697
62.761 33.0647 3.97645
60.3963 30.6494 3.97643
59.3764 27.955 3.97595
57.9243 17.0081 3.96552
57.5494 25.7834 3.97642
57.6694 19.5094 3.96058
57.2466 21.8915 3.96315
57.0035 24.0083 3.96799
50.1122 7.28701 3.98636
51.2318 10.1318 3.97869
52.168 12.8129 3.97646
55.5196 17.0034 3.96942
52.9692 15.2985 3.97091
53.7398 17.018 3.9776
53.0428 68.9993 0.00844381
53.9661 66.0111 0.0155258
63.1057 48.64 0.0314146
54.6818 63.2008 0.0228117
57.8756 60.8558 0.0269392
55.2049 60.5947 0.0268283
61.6873 52.5558 0.0334728
60.1398 49.9841 0.030791
58.0025 58.2433 0.0349699
58.0757 55.7851 0.0391638
59.2717 53.9215 0.0329986
52.0693 66.999 2
52.9521 64.2143 2
56.6374 59.4717 2
53.6757 61.6094 2
54.2474 59.2985 2
60.8258 47.844 2
59.604 52.0716 2
57.8429 49.5689 2
56.746 56.9665 2
57.0366 54.0858 2
51.1674 65.1245 3.98295
52.0436 62.5309 3.97774
55.4619 58.2284 3.97427
52.8247 60.1108 3.97726
53.6211 58.4467 3.97863
58.065 46.7977 3.97436
57.4263 51.7441 3.96758
56.0279 49.4989 3.97065
55.4232 55.7605 3.9626
55.2476 53.3411 3.96281
50.1081 67.8555 0.0134204
49.3361 65.9179 2
48.6173 64.1174 3.982
47.4622 66.577 0.0168327
45.5573 67.0942 2
46.8914 64.7303 2
46.3809 63.0448 3.98209
45.1317 65.1899 3.98109
43.6305 67.4642 3.98347
41.86 69.8751 3.98712
43.9722 69.5885 2
44.3763 71.8616 3.99182
46.0551 69.156 0.0128642
46.6095 71.3671 2
47.2057 73.7222 4
48.8026 70.7224 0.00823084
49.554 73.0099 2
51.8506 72.1454 0
50.9546 5.13268 3.9919
53.0654 6.07227 2
54.0858 3.86728 4
55.1026 7.14119 0.010166
56.25 5.02406 2
58.3339 6.31992 0
63.8652 46.6972 0.0303584
65.0825 43.0131 0.0275797
62.6418 44.191 0.024749
63.5992 40.9158 0.0225966
65.7013 39.366 0.0266183
67.9145 37.5224 0.0313669
65.8061 37.5016 2
63.746 39.2593 2
63.161 42.5292 2
62.2227 40.6778 2
61.7976 45.8873 2
61.2308 43.6493 2
63.8112 37.4564 3.97714
61.9426 39.3424 3.97706
60.9803 41.9289 3.97693
60.0224 44.7301 3.97674
65.7939 35.6706 0.026813
65.0964 32.1658 0.0281703
64.1536 34.26 0.0225798
62.431 30.6604 0.0242337
59.3033 15.6855 0.0311003
59.1022 18.3787 0.0362537
58.6628 20.8903 0.0369453
61.5184 27.1033 0.0272
60.6636 29.1768 0.0227145
59.1608 25.8423 0.0250484
58.1447 23.1409 0.0330265
57.8027 24.7185 0.0260486
56.6667 15.768 0.0286975
54.3632 16.0313 0.0277642
53.8045 13.7053 0.0263293
52.1117 8.15647 0.0165955
53.0562 11.0274 0.0242148
63.9485 35.6384 2
62.7592 33.0654 2
60.3948 30.6502 2
57.9231 17.0087 2
57.6735 19.5084 2
57.2495 21.8923 2
59.3751 27.956 2
57.0034 24.0102 2
57.5483 25.7852 2
50.1127 7.28533 2
55.5204 17.0029 2
53.74 17.0174 2
52.9696 15.2964 2
52.1689 12.8134 2
51.2325 10.1304 2
61.9795 35.3735 3.97717
60.0314 32.7797 3.97695
58.3626 30.1288 3.97693
57.0514 27.4459 3.97701
56.6098 18.1872 3.96631
56.0826 25.1736 3.97401
56.2812 20.568 3.96022
55.9441 22.9345 3.96225
48.0567 6.52843 3.98851
49.3245 9.33635 3.98121
50.4309 12.0061 3.97579
51.37 14.5212 3.97152
54.3877 17.9571 3.97073
52.344 17.082 3.96702
52.0694 66.9983 0.0138007
52.9524 64.2134 0.018859
60.827 47.8449 0.0297372
53.6765 61.6095 0.0238145
56.638 59.4705 0.0279992
54.2477 59.2965 0.0257814
59.6038 52.0722 0.0321407
57.8454 49.5702 0.0289635
56.7475 56.9624 0.0332418
57.0387 54.087 0.0350282
51.1672 65.1251 2
52.043 62.5318 2
55.4614 58.2299 2
52.8242 60.1142 2
53.6206 58.448 2
58.0636 46.7966 2
57.4249 51.7429 2
56.0249 49.4978 2
55.4225 55.761 2
55.2501 53.3413 2
50.3452 63.3755 3.98177
51.2381 60.9216 3.97657
54.1894 57.2443 3.97493
52.295 58.6048 3.97557
56.3679 44.1164 3.97739
55.2218 47.8321 3.97406
54.8987 51.3382 3.96561
53.928 54.5058 3.96428
49.3362 65.9178 0.0168048
48.6171 64.1174 2
47.9605 62.4674 3.98152
45.5572 67.0936 0.0168272
46.8914 64.7298 0.018479
43.6306 67.4647 2
46.3809 63.0453 2
45.1317 65.1905 2
45.9859 61.5758 3.98442
44.7663 63.4433 3.97985
43.356 65.499 3.98085
41.6629 67.6825 3.98321
39.7021 70.0216 3.98719
41.8598 69.8757 2
42.1107 72.2064 3.99195
43.9724 69.588 0.0125811
44.3767 71.8618 2
44.8159 74.2794 4
46.6091 71.3669 0.00818151
47.2057 73.7222 2
49.554 73.0099 0
48.7854 4.32315 3.99257
50.9553 5.13212 2
51.8506 2.85458 4
53.0644 6.07222 0.0087759
54.0858 3.86728 2
56.25 5.02411 0
61.7998 45.8882 0.0273174
63.1631 42.53 0.0233271
61.2328 43.6502 0.0229262
62.2251 40.6784 0.0228898
63.7487 39.2594 0.0225754
65.8075 37.5017 0.0267383
63.8082 37.4565 2
61.9407 39.3423 2
60.9787 41.9282 2
60.0217 44.7292 2
61.7778 37.4428 3.97729
59.9642 39.8248 3.9771
58.6829 42.8706 3.97682
63.9511 35.6381 0.0230287
62.761 33.0647 0.0235499
60.3963 30.6494 0.0235691
57.9243 17.0081 0.034477
57.6694 19.5094 0.0394241
57.2466 21.8915 0.0368515
59.3764 27.955 0.0240505
57.5494 25.7834 0.0235825
57.0035 24.0083 0.0320096
55.5196 17.0034 0.0305767
53.7398 17.018 0.0223982
52.9692 15.2985 0.029093
50.1122 7.28701 0.0136374
52.168 12.8129 0.0235412
51.2318 10.1318 0.0213092
61.9777 35.3739 2
60.0298 32.7799 2
58.3618 30.1295 2
56.6086 18.1884 2
56.2845 20.5656 2
55.9471 22.9364 2
57.0513 27.4476 2
56.0825 25.1758 2
48.0568 6.52706 2
49.3251 9.3343 2
54.3885 17.957 2
52.3443 17.0816 2
51.3698 14.516 2
50.4318 12.0042 2
59.6054 35.137 3.97705
57.6626 32.3185 3.97636
56.2574 29.4114 3.97751
55.1663 26.6885 3.97715
55.2984 19.2273 3.96052
54.7291 24.1402 3.96395
54.8896 21.6233 3.95966
45.9628 5.88309 3.98897
43.3743 7.47461 3.98582
47.3556 8.62643 3.98414
48.5989 11.3024 3.97793
49.7072 13.7586 3.97571
50.6197 16.1662 3.97493
53.09 18.7071 3.96553
51.2768 18.1083 3.97717
51.1674 65.1245 0.0170512
52.0436 62.5309 0.0222644
58.065 46.7977 0.0256377
52.8247 60.1108 0.022739
55.4619 58.2284 0.0257257
53.6211 58.4467 0.0213702
57.4263 51.7441 0.032421
56.0279 49.4989 0.0293479
55.4232 55.7605 0.0374022
55.2476 53.3411 0.0371924
50.3448 63.3757 2
51.2372 60.9219 2
54.1893 57.246 2
52.2943 58.6057 2
56.3673 44.1155 2
55.221 47.8313 2
54.9007 51.338 2
53.9286 54.5073 2
49.5894 61.7379 3.97986
55.1867 41.665 3.97555
50.5533 59.3084 3.97298
52.146 56.4625 3.97057
53.8105 45.4843 3.97473
53.087 49.263 3.9694
52.5403 52.8057 3.96161
48.6173 64.1174 0.0180029
47.9602 62.4669 2
47.3255 61.0002 3.98559
43.6305 67.4642 0.0165273
45.1317 65.1899 0.0189126
46.3809 63.0448 0.0179084
41.6631 67.6826 2
43.356 65.4999 2
45.9859 61.5763 2
44.7664 63.4439 2
45.7616 60.6201 3.98393
44.4824 61.8215 3.98072
43.1458 63.7148 3.97888
41.5457 65.6361 3.97962
39.6324 67.7613 3.98288
37.5261 70.0462 3.98644
39.7019 70.0221 2
39.8175 72.4032 3.99174
41.86 69.8751 0.0128797
42.111 72.2067 2
42.3947 74.6792 4
44.3763 71.8616 0.0081761
44.8159 74.2794 2
47.2057 73.7222 0
43.852 5.36012 3.98887
46.5713 3.64754 3.99271
48.7857 4.32259 2
49.554 1.99015 4
50.9546 5.13268 0.00810438
51.8506 2.85453 2
54.0858 3.86728 0
60.0224 44.7301 0.0232618
60.9803 41.9289 0.0230663
61.9426 39.3424 0.0229387
63.8112 37.4564 0.0228632
61.7762 37.4427 2
59.9638 39.8248 2
58.6825 42.8696 2
59.4648 37.5655 3.97747
57.6355 40.6231 3.97727
54.6036 39.6817 3.97521
61.9795 35.3735 0.0228267
60.0314 32.7797 0.023055
58.3626 30.1288 0.023068
56.6098 18.1872 0.0336911
56.2812 20.568 0.0397782
55.9441 22.9345 0.0377497
57.0514 27.4459 0.0229893
56.0826 25.1736 0.0259933
54.3877 17.9571 0.0292695
52.344 17.082 0.0329809
51.37 14.5212 0.0284752
48.0567 6.52843 0.0114893
49.3245 9.33635 0.0187882
50.4309 12.0061 0.0242137
59.6053 35.1368 2
45.9627 5.88246 2
43.3742 7.47375 2
57.6627 32.3192 2
56.2562 29.4124 2
55.2971 19.2281 2
54.8973 21.6239 2
54.7284 24.1422 2
55.1637 26.6907 2
47.3559 8.62393 2
48.5998 11.2999 2
53.0912 18.7063 2
51.2779 18.109 2
50.6208 16.1665 2
49.7075 13.7571 2
57.0197 34.7825 3.97734
55.3715 31.5783 3.97674
54.1763 28.5013 3.9775
53.5326 25.6016 3.97606
53.9052 20.1888 3.95854
53.4356 22.7944 3.95465
41.3995 7.08052 3.98592
45.3606 7.99568 3.98663
42.8664 9.418 3.9824
46.6669 10.6581 3.98134
47.7406 13.1138 3.97774
48.9204 15.4228 3.97257
49.9826 17.7306 3.97356
51.6072 19.3868 3.97429
50.3452 63.3755 0.0182327
51.2381 60.9216 0.0234268
56.3679 44.1164 0.0226068
55.2218 47.8321 0.0259386
52.295 58.6048 0.0244267
54.1894 57.2443 0.0250676
54.8987 51.3382 0.0343936
53.928 54.5058 0.0357208
49.5886 61.7377 2
55.1831 41.6633 2
50.5528 59.3097 2
52.146 56.464 2
53.8119 45.484 2
53.0949 49.2631 2
52.5407 52.8052 2
48.8405 60.1933 3.97789
52.0177 42.5521 3.98162
49.7619 57.6018 3.96851
50.5093 54.3972 3.96217
51.4801 47.1922 3.97554
51.026 50.8911 3.95585
47.6846 43.6875 3.98686
47.9605 62.4674 0.0184767
47.3253 60.9996 2
46.6108 59.7876 3.98654
41.6629 67.6825 0.0167939
43.356 65.499 0.01915
44.7663 63.4433 0.0201539
45.9859 61.5758 0.0155812
39.6328 67.762 2
41.5455 65.6358 2
45.7615 60.6207 2
43.1459 63.7156 2
44.4824 61.8222 2
44.6183 60.2791 3.98526
42.9495 62.0675 3.97609
41.5996 63.8071 3.97872
39.6472 65.6025 3.97852
37.5634 67.7424 3.98175
31.6976 65.1216 3.97978
33.3926 67.4808 3.98162
35.3339 69.9564 3.98671
37.5259 70.0472 2
37.5095 72.4577 3.99191
39.7021 70.0216 0.0128106
39.8177 72.4035 2
39.9526 74.9197 4
42.1107 72.2064 0.0080454
42.3947 74.6792 2
44.8159 74.2794 0
41.7365 4.96924 3.98906
43.8521 5.35922 2
44.3265 3.11074 3.99303
46.5715 3.64721 2
47.2057 1.27793 4
48.7854 4.32315 0.00742955
49.554 1.99013 2
51.8506 2.85458 0
58.6829 42.8706 0.0231775
59.9642 39.8248 0.0228994
61.7778 37.4428 0.0227141
59.465 37.5661 2
57.635 40.6233 2
54.601 39.6844 2
56.4053 37.8844 3.97714
49.048 41.2589 3.98449
52.6116 39.3068 3.98377
39.443 6.80441 3.98593
59.6054 35.137 0.022952
57.6626 32.3185 0.0236385
56.2574 29.4114 0.0224872
55.2984 19.2273 0.0394793
54.8896 21.6233 0.0403436
54.7291 24.1402 0.0360532
55.1663 26.6885 0.0228509
53.09 18.7071 0.0344737
51.2768 18.1083 0.022827
50.6197 16.1662 0.0250673
45.9628 5.88309 0.0110315
49.7072 13.7586 0.0242893
47.3556 8.62643 0.0158647
48.5989 11.3024 0.022072
43.3743 7.47461 0.0141776
57.0195 34.7821 2
41.3995 7.07923 2
45.3602 7.99514 2
42.8662 9.41736 2
55.3742 31.5763 2
54.1765 28.502 2
53.9067 20.191 2
53.4346 22.7928 2
53.5312 25.603 2
46.6673 10.6539 2
47.7413 13.11 2
51.6093 19.3878 2
49.9826 17.7282 2
48.9201 15.4236 2
54.4104 33.9799 3.97573
53.111 30.5902 3.97748
52.2684 27.3214 3.97557
51.9621 24.21 3.97752
52.3044 21.1269 3.97221
41.0137 9.05224 3.98203
44.7258 9.99568 3.98476
42.4679 10.9043 3.98758
46.0021 12.7366 3.97692
47.6713 14.5991 3.97243
48.0897 17.006 3.97172
49.7905 19.7382 3.97132
49.5894 61.7379 0.0201385
50.5533 59.3084 0.0270197
55.1867 41.665 0.0244475
53.8105 45.4843 0.0252725
53.087 49.263 0.030598
52.146 56.4625 0.0294256
52.5403 52.8057 0.0383893
48.8398 60.1917 2
52.0331 42.557 2
49.7609 57.6029 2
50.5092 54.399 2
51.4838 47.1917 2
51.0271 50.8897 2
47.6948 43.7115 2
47.9691 58.7258 3.9786
49.6431 45.1973 3.97856
48.5456 55.8953 3.97395
49.0065 52.5573 3.97723
49.4274 48.9807 3.97346
45.4472 39.8308 3.87868
45.9174 42.5544 3.90809
46.1006 45.7159 3.98287
43.2569 41.0782 3.75726
41.7813 41.9578 3.58684
47.3255 61.0002 0.0144055
46.61 59.787 2
45.4558 58.7831 3.98429
39.6324 67.7613 0.0171189
41.5457 65.6361 0.0203761
43.1458 63.7148 0.0211173
44.4824 61.8215 0.0192829
45.7616 60.6201 0.0160729
41.5996 63.8072 2
37.5636 67.7434 2
39.647 65.6032 2
44.6184 60.2796 2
42.9495 62.0682 2
41.7526 62.4781 3.97758
42.4769 59.9612 3.97958
39.8937 63.5391 3.97633
37.6421 65.5001 3.97931
35.4637 67.6521 3.98186
33.5757 65.3338 3.97878
31.9595 63.2891 3.97914
29.8839 64.7133 3.98112
31.6974 65.1222 2
31.3774 67.191 3.9822
33.3927 67.4816 2
33.1573 69.7504 3.98669
35.3337 69.9573 2
35.1952 72.3721 3.99175
37.5261 70.0462 0.013559
37.5095 72.4583 2
37.5 75 4
39.8175 72.4032 0.00826249
39.9526 74.9197 2
42.3947 74.6792 0
39.6242 4.7169 3.98944
41.7366 4.96831 2
42.0629 2.71817 3.99328
43.852 5.36012 0.0111336
44.3267 3.11015 2
44.8158 0.721173 4
46.5713 3.64754 0.00729307
47.2057 1.27779 2
49.554 1.99015 0
57.6355 40.6231 0.0227305
59.4648 37.5655 0.0225304
54.6036 39.6817 0.024792
49.0719 41.2747 2
56.4059 37.884 2
52.6108 39.2877 2
53.4587 36.63 3.97744
46.9723 40.3562 3.91341
49.9894 38.5216 3.9895
37.517 6.67558 3.98583
39.443 6.80288 2
39.2112 8.69518 3.98332
35.9428 8.49517 3.98405
57.0197 34.7825 0.0226566
55.3715 31.5783 0.0232617
54.1763 28.5013 0.0225019
53.9052 20.1888 0.0414591
53.4356 22.7944 0.04535
53.5326 25.6016 0.0239438
51.6072 19.3868 0.0257109
49.9826 17.7306 0.0264387
48.9204 15.4228 0.0274253
45.3606 7.99568 0.0133659
47.7406 13.1138 0.0222637
46.6669 10.6581 0.0186642
41.3995 7.08052 0.0140812
42.8664 9.418 0.0175992
54.4075 33.982 2
41.0139 9.05101 2
44.7248 9.99545 2
42.4677 10.9045 2
53.1077 30.5902 2
52.2772 27.3216 2
52.3088 21.1283 2
51.963 24.2147 2
46.0022 12.73 2
47.6713 14.5949 2
49.7931 19.739 2
48.0885 17.0037 2
51.9457 32.8903 3.98094
50.9069 29.2812 3.97604
50.5311 25.8399 3.97292
49.858 22.3309 3.98376
40.5688 11.6123 3.98088
43.8569 11.9152 3.98001
45.7904 15.4369 3.98276
47.4828 19.3494 3.97755
45.8516 37.4837 3.87325
48.8405 60.1933 0.0221096
49.7619 57.6018 0.0314948
52.0177 42.5521 0.0183844
51.4801 47.1922 0.0244634
51.026 50.8911 0.0441503
50.5093 54.3972 0.0378348
47.6846 43.6875 0.0131405
47.968 58.7278 2
49.6557 45.2077 2
48.5434 55.8978 2
49.0057 52.5618 2
49.4314 48.9777 2
45.4977 39.8466 2
45.9429 42.588 2
46.1078 45.7246 2
43.2832 41.108 2
41.8034 41.9766 2
46.8101 57.3282 3.97966
44.0068 39.3702 3.7559
42.1328 40.8355 3.6345
47.74 47.202 3.97967
47.0911 54.2098 3.96984
47.422 50.7091 3.97111
44.5201 47.3224 3.97687
44.5658 41.8979 3.85608
44.5791 44.4525 3.92362
42.1825 42.5636 3.77387
40.7252 42.2727 3.62042
46.6108 59.7876 0.0134649
45.4557 58.7829 2
43.8603 57.6945 3.98082
37.5634 67.7424 0.0182459
39.6472 65.6025 0.0214751
41.5996 63.8071 0.0212807
42.9495 62.0675 0.0239065
44.6183 60.2791 0.0147359
35.4639 67.653 2
41.7526 62.4785 2
39.8935 63.5395 2
37.642 65.501 2
42.4772 59.9617 2
40.6229 61.6312 3.97908
40.4387 58.1773 3.97958
37.8369 63.1996 3.97738
35.573 65.4227 3.97922
33.5756 65.3344 2
31.9592 63.2897 2
33.6288 63.3272 3.97755
30.379 62.8487 3.98033
32.1242 61.9926 3.9839
26.8719 61.4899 3.97775
28.063 64.1419 3.98061
29.8837 64.714 2
29.407 66.7551 3.98292
31.6976 65.1216 0.0202171
31.3775 67.1917 2
31.0149 69.4154 3.98655
33.3926 67.4808 0.0183825
33.1571 69.7511 2
32.8925 72.1466 3.99182
35.3339 69.9564 0.0132856
35.195 72.3726 2
35.0474 74.9194 4
37.5095 72.4577 0.00809176
37.5 75 2
39.9526 74.9197 0
35.6216 6.72664 3.98548
37.5237 4.61631 3.98957
39.6243 4.71559 2
39.7894 2.47476 3.99324
41.7365 4.96924 0.0109415
42.0629 2.71762 2
42.3946 0.32156 4
44.3265 3.11074 0.00696829
44.8159 0.72056 2
47.2057 1.27793 0
49.048 41.2589 0.0155147
56.4053 37.8844 0.0228616
52.6116 39.3068 0.0162317
46.995 40.3536 2
49.9952 38.5107 2
53.4638 36.639 2
50.7792 35.5779 3.97565
47.6416 37.7581 3.92981
45.452 35.1523 3.87527
43.2642 33.9055 3.7517
41.7825 33.0356 3.5828
37.4585 8.53684 3.98428
37.5169 6.67431 2
39.443 6.80441 0.0140735
39.2116 8.6934 2
38.9764 10.13 3.98352
35.8992 9.77707 3.98111
34.152 8.82613 3.98265
35.9426 8.49354 2
54.4104 33.9799 0.0242712
53.111 30.5902 0.0225206
52.2684 27.3214 0.0244251
52.3044 21.1269 0.0277888
51.9621 24.21 0.0224775
49.7905 19.7382 0.0286849
48.0897 17.006 0.0282806
47.6713 14.5991 0.0275655
44.7258 9.99568 0.0152386
46.0021 12.7366 0.0230823
41.0137 9.05224 0.0179742
42.4679 10.9043 0.0124198
51.9524 32.8899 2
40.5697 11.6122 2
43.8555 11.9163 2
50.9263 29.2807 2
50.5355 25.8419 2
49.8599 22.3285 2
45.7885 15.4216 2
47.4851 19.3552 2
49.496 31.4962 3.98725
48.9482 27.6091 3.97555
49.2197 24.5128 3.97692
47.1403 22.0957 3.98443
38.3023 12.7421 3.97771
42.0987 14.3071 3.97938
44.7863 18.5296 3.97725
44.3709 37.4904 3.76475
45.9265 37.4891 2
47.9691 58.7258 0.0213956
48.5456 55.8953 0.0260459
49.6431 45.1973 0.0214429
49.4274 48.9807 0.0265373
49.0065 52.5573 0.0227699
45.4472 39.8308 0.121325
45.9174 42.5544 0.0919083
46.1006 45.7159 0.017135
43.2569 41.0782 0.242738
41.7813 41.9578 0.413164
46.8082 57.3297 2
44.0449 39.392 2
42.1274 40.8471 2
47.7452 47.2049 2
47.0889 54.214 2
47.4252 50.7135 2
44.5338 47.3007 2
44.5929 41.9232 2
44.6077 44.4714 2
42.2312 42.5977 2
40.743 42.2737 2
45.3556 55.9149 3.98953
42.4595 39.2595 3.64534
40.6054 40.7193 3.74422
45.8661 48.8622 3.99212
45.4227 52.4942 3.98299
43.2329 48.3244 3.99735
43.1597 45.9814 3.90595
43.3189 43.675 3.8526
40.8566 43.6635 3.75231
39.2382 42.5527 3.63303
45.4558 58.7831 0.0157094
43.8598 57.6956 2
42.088 56.2964 3.98367
35.4637 67.6521 0.0181404
37.6421 65.5001 0.0206862
39.8937 63.5391 0.0236679
41.7526 62.4781 0.0224192
42.4769 59.9612 0.0204162
35.573 65.4238 2
40.623 61.6318 2
37.8365 63.2004 2
40.4388 58.1787 2
38.9162 56.4723 3.99098
38.2507 60.3135 3.97902
35.6068 63.1933 3.97647
33.5757 65.3338 0.0212194
31.9595 63.2891 0.0208625
33.6286 63.328 2
30.3788 62.8492 2
32.1246 61.9934 2
28.6826 62.1943 3.98023
33.3457 61.5019 3.9787
31.0701 61.2099 3.97942
27.5771 59.5828 3.98094
23.8036 59.0705 3.97906
25.0385 60.8633 3.97865
26.8723 61.4903 2
26.2304 63.4724 3.97965
28.0629 64.1419 2
27.4638 66.1794 3.98307
29.8839 64.7133 0.0188801
29.407 66.7555 2
28.9074 68.9415 3.98629
31.3774 67.191 0.0178044
31.0147 69.4161 2
30.615 71.7776 3.9915
33.1573 69.7504 0.0133147
32.892 72.147 2
32.6054 74.6784 4
35.1952 72.3721 0.00824739
35.0474 74.9197 2
37.5 75 0
33.7245 6.98216 3.98466
35.4357 4.68657 3.98944
35.6215 6.7256 2
37.515 2.38723 3.99328
37.5238 4.61541 2
39.6242 4.7169 0.0105567
39.7892 2.47406 2
39.9526 0.0806499 4
42.0629 2.71817 0.00671535
42.3947 0.320817 2
44.8158 0.721173 0
44.0174 35.6081 3.75434
42.1357 34.1507 3.6287
46.9723 40.3562 0.0865916
49.9894 38.5216 0.0105033
53.4587 36.63 0.0225563
47.64 37.7529 2
50.7916 35.5724 2
45.4939 35.1274 2
43.2969 33.8734 2
41.8052 33.0155 2
47.8123 34.3063 3.95741
44.5702 33.0699 3.84989
42.1883 32.4282 3.76542
40.7281 32.725 3.61731
37.311 10.6343 3.98101
37.4586 8.53508 2
37.517 6.67558 0.0141719
39.2112 8.69518 0.0166791
38.9777 10.1285 2
34.7551 10.3852 3.98138
35.8997 9.77412 2
32.379 9.37374 3.98007
34.151 8.82375 2
35.9428 8.49517 0.0159454
51.9457 32.8903 0.0190592
50.9069 29.2812 0.0239593
50.5311 25.8399 0.0270814
49.858 22.3309 0.0162436
47.4828 19.3494 0.022449
45.7904 15.4369 0.0172413
43.8569 11.9152 0.0199922
40.5688 11.6123 0.0191205
49.5114 31.4922 2
38.3024 12.7404 2
42.0995 14.3111 2
48.9569 27.6114 2
49.2237 24.5117 2
47.1364 22.0893 2
44.7871 18.5523 2
47.3412 29.6065 3.9842
46.9075 25.2567 3.97824
44.2595 21.4662 3.97869
36.5835 12.9423 3.97573
38.683 14.8254 3.97574
41.7446 17.887 3.97832
42.5839 37.4824 3.66603
44.4088 37.4895 2
45.8516 37.4837 0.126748
46.8101 57.3282 0.0203395
47.0911 54.2098 0.0301633
47.74 47.202 0.0203314
47.422 50.7091 0.0288909
44.0068 39.3702 0.244104
44.5658 41.8979 0.143919
44.5791 44.4525 0.0763836
44.5201 47.3224 0.0231293
42.1825 42.5636 0.226127
42.1328 40.8355 0.365496
40.7252 42.2727 0.379578
45.3537 55.9144 2
42.4511 39.2606 2
40.6104 40.7033 2
45.8687 48.8706 2
45.4213 52.5008 2
43.239 48.3411 2
43.2037 46.0137 2
43.3582 43.7018 2
40.8906 43.7092 2
39.2354 42.555 2
43.6852 54.4046 3.9987
40.7073 39.1293 3.75724
39.1079 40.7882 3.73231
43.5404 50.3905 4.00453
41.8423 47.5216 3.94261
41.7454 45.0795 3.86833
39.3353 44.333 3.74999
37.5066 42.6487 3.65981
43.8603 57.6945 0.01918
42.0876 56.2975 2
40.3998 54.8746 3.98153
35.573 65.4227 0.0207833
37.8369 63.1996 0.0226169
40.6229 61.6312 0.0209191
40.4387 58.1773 0.0204221
35.6065 63.1938 2
38.2509 60.3142 2
38.916 56.4717 2
37.9918 55.1938 3.99202
36.9332 57.611 3.98566
35.3639 60.8988 3.97657
33.6288 63.3272 0.0224512
30.379 62.8487 0.0196657
32.1242 61.9926 0.0160957
33.3464 61.5026 2
28.6828 62.1941 2
31.0706 61.2107 2
29.4086 60.2794 3.97778
32.3618 59.7297 3.988
28.0395 58.3645 3.99255
27.5783 59.5833 2
25.3926 58.5851 3.97748
22.7741 58.224 3.96819
23.4066 60.3392 3.97945
23.8046 59.0714 2
25.0391 60.8637 2
24.4339 62.764 3.97965
26.8719 61.4899 0.0222456
26.2304 63.473 2
25.5482 65.4886 3.98192
28.063 64.1419 0.019389
27.4638 66.1798 2
26.837 68.3299 3.9863
29.407 66.7551 0.0170763
28.9072 68.9415 2
28.37 71.2629 3.99139
31.0149 69.4154 0.0134519
30.6144 71.7778 2
30.1842 74.2788 4
32.8925 72.1466 0.00818195
32.6053 74.6792 2
35.0474 74.9194 0
31.789 7.42226 3.98333
33.3482 4.92617 3.98882
33.7241 6.98044 2
35.2452 2.46326 3.99317
35.4355 4.68594 2
35.6216 6.72664 0.0145221
37.5 0 4
37.5146 2.38675 2
37.5237 4.61631 0.0104285
39.7894 2.47476 0.00675741
39.9526 0.0802889 2
42.3946 0.32156 0
42.4465 35.7102 3.64287
44.0589 35.5848 2
40.6118 34.2741 3.74304
42.127 34.139 2
47.6416 37.7581 0.0701905
50.7792 35.5779 0.0243513
45.452 35.1523 0.124731
43.2642 33.9055 0.248297
41.7825 33.0356 0.417198
47.8297 34.3083 2
44.5993 33.0512 2
42.2417 32.3907 2
40.7464 32.7234 2
45.8501 31.6587 3.9281
43.3198 31.3206 3.85289
40.8599 31.3351 3.75395
39.239 32.4563 3.63133
35.6939 11.7823 3.97941
37.3127 10.6318 2
37.4585 8.53684 0.0157245
38.9764 10.13 0.0164803
33.1 11.2243 3.97649
34.7544 10.3811 2
35.8992 9.77707 0.0188912
30.4841 10.0237 3.97979
32.3781 9.37274 2
34.152 8.82613 0.0173517
49.496 31.4962 0.0127482
48.9482 27.6091 0.0244541
49.2197 24.5128 0.0230792
47.1403 22.0957 0.0155698
44.7863 18.5296 0.0227465
42.0987 14.3071 0.0206228
38.3023 12.7421 0.0222933
36.5821 12.9346 2
47.3572 29.5785 2
38.6814 14.8147 2
41.7415 17.8807 2
46.9145 25.2557 2
44.2546 21.4535 2
45.2368 27.7358 4.00355
43.6847 24.1793 4.01119
41.3203 20.8569 3.9803
35.7739 14.7775 3.97745
38.6816 17.628 3.97863
40.7575 37.4754 3.76953
42.5829 37.4852 2
44.3709 37.4904 0.235246
45.3556 55.9149 0.0104683
45.4227 52.4942 0.0170062
45.8661 48.8622 0.00788143
42.4595 39.2595 0.354659
43.3189 43.675 0.147397
43.1597 45.9814 0.094051
43.2329 48.3244 0.00264955
40.8566 43.6635 0.247688
40.6054 40.7193 0.255785
39.2382 42.5527 0.366968
43.6822 54.404 2
40.6948 39.1252 2
39.1091 40.7713 2
43.5399 50.4073 2
41.8325 47.5452 2
41.7692 45.115 2
37.5037 42.6545 2
39.3508 44.377 2
41.8375 52.9331 3.99516
39.1232 39.1428 3.75287
37.5073 40.8378 3.749
35.7775 42.5606 3.63429
40.8518 49.577 3.99642
39.788 45.9011 3.84481
37.5044 44.5654 3.75401
42.088 56.2964 0.0163349
40.3954 54.8874 2
38.7192 53.7508 3.99637
35.6068 63.1933 0.0235295
38.2507 60.3135 0.0209817
38.9162 56.4723 0.00902247
35.3642 60.8983 2
36.934 57.6115 2
37.9905 55.1836 2
36.3227 55.2694 3.9978
34.4901 58.5042 3.98683
33.3457 61.5019 0.0213024
28.6826 62.1943 0.0197739
31.0701 61.2099 0.0205781
32.3626 59.7311 2
29.4097 60.2791 2
30.3164 57.8068 3.98475
28.0409 58.3647 2
26.9774 56.8185 3.97522
27.5771 59.5828 0.0190577
25.3941 58.5859 2
23.8724 56.7852 3.96152
21.3581 57.3749 3.96655
22.0032 59.6084 3.97676
22.775 58.2257 2
22.7389 62.0143 3.97782
23.4073 60.3399 2
23.8036 59.0705 0.0209359
25.0385 60.8633 0.0213459
24.4341 62.7647 2
23.6825 64.7061 3.98118
26.2304 63.4724 0.0203494
25.5481 65.4896 2
24.8092 67.5911 3.98586
27.4638 66.1794 0.0169329
26.8368 68.3305 2
26.1651 70.6036 3.99142
28.9074 68.9415 0.0137112
28.3694 71.2629 2
27.7943 73.7221 4
30.615 71.7776 0.00850415
30.1841 74.2794 2
32.6054 74.6784 0
29.8117 7.99702 3.98223
31.2536 5.33315 3.98786
31.7886 7.42104 2
32.9811 2.70155 3.99287
33.3478 4.92498 2
33.7245 6.98216 0.0153389
35.0474 0.080333 4
35.2449 2.46298 2
35.4357 4.68657 0.0105557
37.5 0 2
37.515 2.38723 0.00671985
39.9526 0.0806499 0
40.715 35.8368 3.75473
42.4402 35.7132 2
44.0174 35.6081 0.245659
28.5446 10.6989 3.97869
39.1027 34.2194 3.73174
40.6085 34.2895 2
42.1357 34.1507 0.371301
47.8123 34.3063 0.0425902
44.5702 33.0699 0.150107
42.1883 32.4282 0.234575
40.7281 32.725 0.382695
45.8804 31.6379 2
43.3566 31.2884 2
40.8973 31.2868 2
39.2413 32.455 2
44.1354 29.8551 3.92276
41.7414 29.9156 3.86793
39.3408 30.6702 3.74911
37.5109 32.3694 3.65974
34.0951 12.946 3.97543
35.693 11.7752 2
37.311 10.6343 0.018989
31.1884 11.9943 3.97785
33.0998 11.2231 2
34.7551 10.3852 0.0186237
30.4826 10.0208 2
32.379 9.37374 0.0199333
47.3412 29.6065 0.0157982
46.9075 25.2567 0.0217633
36.5835 12.9423 0.024271
44.2595 21.4662 0.0213074
41.7446 17.887 0.021679
38.683 14.8254 0.0242614
35.7749 14.7838 2
45.242 27.7333 2
38.6787 17.6302 2
41.3153 20.8511 2
43.6874 24.1717 2
33.6115 15.8952 3.9772
42.8633 26.5879 3.99122
40.8506 23.43 4.00347
38.4105 20.405 3.98606
35.8522 17.5309 3.97987
39.1289 37.4892 3.77573
40.7459 37.4766 2
42.5839 37.4824 0.333972
43.6852 54.4046 0.00130328
43.5404 50.3905 -0.00453164
40.7073 39.1293 0.242757
41.7454 45.0795 0.131665
41.8423 47.5216 0.0573922
39.3353 44.333 0.25001
39.1079 40.7882 0.267691
37.5066 42.6487 0.340187
41.8335 52.9312 2
39.1151 39.1293 2
37.5064 40.8175 2
40.8512 49.5937 2
35.7745 42.5622 2
39.8073 45.9445 2
37.4967 44.6033 2
39.7773 51.7871 4.00102
37.5036 39.1521 3.78168
35.9098 40.8009 3.7332
34.2871 42.2864 3.61837
35.6747 44.3443 3.74624
38.6667 48.5456 3.95681
37.5166 46.1898 3.86405
40.3998 54.8746 0.0184668
38.7187 53.7412 2
36.7468 53.0821 3.99818
35.3639 60.8988 0.0234325
36.9332 57.611 0.0143362
37.9918 55.1938 0.00797687
34.4906 58.5034 2
36.3224 55.2713 2
33.2482 55.4585 3.9929
32.3618 59.7297 0.0119968
29.4086 60.2794 0.0222181
30.318 57.8063 2
28.7411 55.3047 3.98013
28.0395 58.3645 0.00744945
26.9786 56.8189 2
25.3681 55.1228 3.96606
21.8555 55.3238 3.96352
25.3926 58.5851 0.022522
23.873 56.7879 2
20.245 57.0042 3.96883
20.6587 58.7588 3.97026
21.3584 57.3765 2
21.1716 61.1589 3.97667
22.004 59.6093 2
22.7741 58.224 0.0318141
21.8964 63.8328 3.97982
22.7393 62.0149 2
23.4066 60.3392 0.0205518
24.4339 62.764 0.0203452
23.6825 64.7068 2
22.8376 66.7343 3.98483
25.5482 65.4886 0.0180814
24.8091 67.592 2
24.0093 69.8049 3.9915
26.837 68.3299 0.0137016
26.1644 70.6038 2
25.446 73.0099 4
28.37 71.2629 0.00860643
27.7943 73.7222 2
30.1842 74.2788 0
27.8216 8.65657 3.98195
29.1558 5.8795 3.98661
29.8108 7.99475 2
30.7264 3.09855 3.99258
31.2532 5.33208 2
31.789 7.42226 0.016665
32.6053 0.320823 4
32.9806 2.70099 2
33.3482 4.92617 0.0111841
35.0474 0.0802903 2
35.2452 2.46326 0.00682666
37.5 0 0
39.1201 35.8478 3.75454
40.6983 35.8414 2
42.4465 35.7102 0.35713
28.5433 10.6977 2
26.623 11.3951 3.97866
29.2275 12.6499 3.97902
37.5032 34.1822 3.7476
39.1054 34.2379 2
40.6118 34.2741 0.256956
45.8501 31.6587 0.0719003
43.3198 31.3206 0.147111
40.8599 31.3351 0.246052
39.239 32.4563 0.368674
44.1439 29.8426 2
41.7622 29.8845 2
39.351 30.6258 2
37.5126 32.3629 2
42.1897 28.5268 3.89247
39.7861 29.0932 3.86535
37.512 30.4473 3.75256
35.7831 32.4579 3.63297
31.9187 14.4942 3.97774
34.0956 12.9469 2
35.6939 11.7823 0.0205881
31.1874 11.9902 2
33.1 11.2243 0.0235065
30.4841 10.0237 0.0202082
45.2368 27.7358 -0.00354828
43.6847 24.1793 -0.0111941
35.7739 14.7775 0.0225549
41.3203 20.8569 0.019697
38.6816 17.628 0.0213703
33.6098 15.8898 2
35.8486 17.5345 2
42.8705 26.5882 2
38.4067 20.4069 2
40.8402 23.414 2
33.5556 17.4056 3.97911
40.3013 25.8036 3.9752
38.0641 23.1036 3.99986
35.5829 20.1175 3.98427
37.5022 37.4989 3.79979
39.1208 37.4872 2
40.7575 37.4754 0.230474
41.8375 52.9331 0.00484382
40.8518 49.577 0.00357633
39.1232 39.1428 0.247127
39.788 45.9011 0.155192
37.5044 44.5654 0.245994
37.5073 40.8378 0.250996
35.7775 42.5606 0.365714
39.7762 51.7915 2
37.5044 39.1401 2
35.9079 40.7854 2
38.6782 48.5901 2
34.2696 42.2882 2
35.6559 44.3896 2
37.5171 46.234 2
37.6619 50.8404 4.00039
35.89 39.1599 3.75419
34.4095 40.742 3.74395
33.2288 41.9722 3.58531
34.1436 43.6663 3.75246
35.197 45.9011 3.85863
36.9203 48.1637 3.92469
38.7192 53.7508 0.00362875
36.7456 53.0844 2
34.4077 52.3966 3.99704
34.4901 58.5042 0.0131745
36.3227 55.2694 0.00220085
33.2493 55.4626 2
30.5751 53.3286 3.98886
30.3164 57.8068 0.0152541
28.7423 55.3054 2
26.9686 53.4172 3.97152
26.9774 56.8185 0.0247849
25.3687 55.127 2
23.6697 53.451 3.95864
20.5841 53.1838 3.96111
19.9712 55.8058 3.96468
21.854 55.3255 2
23.8724 56.7852 0.0384847
19.456 57.8656 3.96896
20.2447 57.0057 2
19.7135 60.1847 3.9745
20.6591 58.7593 2
21.3581 57.3749 0.0334502
20.2097 62.8527 3.97694
21.1723 61.1609 2
22.0032 59.6084 0.0232363
20.939 65.7628 3.98346
21.8965 63.8337 2
22.7389 62.0143 0.0221791
23.6825 64.7061 0.0188216
22.8375 66.7347 2
21.9118 68.872 3.99115
24.8092 67.5911 0.0141397
24.0085 69.8049 2
23.1494 72.1454 4
26.1651 70.6036 0.00857934
25.446 73.0099 2
27.7943 73.7221 0
25.8606 9.38551 3.98092
27.0705 6.54353 3.98553
27.8205 8.6555 2
28.4887 3.64456 3.99199
29.1552 5.87802 2
29.8117 7.99702 0.0177734
30.1841 0.720592 4
30.7257 3.09812 2
31.2536 5.33315 0.012135
32.6053 0.320817 2
32.9811 2.70155 0.00713263
35.0474 0.080333 0
37.5029 35.8523 3.78051
39.108 35.8567 2
40.715 35.8368 0.245266
24.7782 12.0813 3.97816
23.7546 14.3716 3.97589
28.5446 10.6989 0.0213112
26.622 11.3947 2
29.2265 12.6487 2
27.2939 13.3832 3.97828
29.7849 14.2118 3.97883
35.904 34.2199 3.73141
37.5059 34.202 2
39.1027 34.2194 0.268264
37.5109 32.3694 0.340263
44.1354 29.8551 0.0772408
41.7414 29.9156 0.132074
39.3408 30.6702 0.250891
42.2121 28.4919 2
39.7995 29.0516 2
37.5151 30.407 2
35.7825 32.4556 2
39.9624 27.7332 3.90026
37.4964 28.8148 3.86305
35.6806 30.6834 3.75269
34.2968 32.7323 3.61796
30.9322 16.8551 3.97879
31.9174 14.4874 2
34.0951 12.946 0.024574
31.1884 11.9943 0.0221466
42.8633 26.5879 0.00877931
40.8506 23.43 -0.00346986
33.6115 15.8952 0.0227962
35.8522 17.5309 0.0201273
38.4105 20.405 0.0139416
33.5511 17.4163 2
35.583 20.1213 2
40.3237 25.7912 2
38.0502 23.0924 2
32.8713 19.8091 3.99225
37.7513 25.4115 3.98775
35.1957 22.8114 3.99572
35.8755 37.503 3.77706
37.5017 37.4992 2
39.1289 37.4892 0.224269
39.7773 51.7871 -0.00102361
38.6667 48.5456 0.0431948
37.5036 39.1521 0.21832
37.5166 46.1898 0.135949
35.6747 44.3443 0.25376
35.9098 40.8009 0.266798
34.2871 42.2864 0.381632
37.6495 50.8626 2
35.9014 39.1478 2
34.4053 40.7273 2
36.8971 48.2092 2
33.2056 41.9899 2
34.1157 43.7119 2
35.181 45.9381 2
35.5194 50.0114 3.98985
34.3069 39.1616 3.75674
32.8737 40.8553 3.63116
32.8229 42.581 3.76801
33.2712 45.0853 3.86431
34.3656 47.2741 3.89932
36.7468 53.0821 0.00181789
34.4013 52.4032 2
32.1005 51.1428 4.0141
33.2482 55.4585 0.00709987
30.5755 53.3313 2
28.5368 51.5515 3.98657
28.7411 55.3047 0.019865
26.9686 53.4207 2
25.2128 51.7022 3.95472
25.3681 55.1228 0.0339401
23.6688 53.4542 2
22.1226 51.7563 3.95375
19.3773 51.5868 3.96195
18.9952 54.276 3.96285
20.5834 53.1832 2
18.4729 56.6995 3.96733
19.9698 55.8074 2
21.8555 55.3238 0.0364788
18.3796 59.0884 3.96824
19.4559 57.8666 2
20.245 57.0042 0.0311683
18.6228 61.7522 3.97399
19.7143 60.1858 2
20.6587 58.7588 0.0297353
19.128 64.6717 3.98183
20.2098 62.8536 2
21.1716 61.1589 0.023328
19.8861 67.8086 3.99097
20.9387 65.7634 2
21.8964 63.8328 0.0201828
22.8376 66.7343 0.0151673
21.9109 68.8716 2
20.9142 71.1327 4
24.0093 69.8049 0.00850444
23.1494 72.1455 2
25.446 73.0099 0
23.0978 12.7973 3.9774
23.9732 10.1743 3.97969
25.0241 7.3143 3.98445
25.8597 9.38489 2
26.2805 4.32864 3.99144
27.0697 6.54272 2
27.8216 8.65657 0.0180475
27.7943 1.27781 4
28.4877 3.64416 2
29.1558 5.8795 0.0133862
30.1841 0.720551 2
30.7264 3.09855 0.00741626
32.6053 0.320823 0
35.8795 35.8495 3.7507
37.5043 35.865 2
39.1201 35.8478 0.245463
24.777 12.0795 2
23.755 14.3724 2
22.4843 15.0499 3.97877
25.3604 13.92 3.97601
24.0332 15.635 3.98027
26.623 11.3951 0.0213419
29.2275 12.6499 0.0209756
27.2939 13.3832 2
29.7827 14.21 2
28.3638 15.9865 3.97855
34.4101 34.2838 3.74265
35.9015 34.2369 2
37.5032 34.1822 0.252402
35.7831 32.4579 0.36703
37.512 30.4473 0.247443
42.1897 28.5268 0.10753
39.7861 29.0932 0.134654
39.9792 27.701 2
37.4979 28.7723 2
35.6647 30.634 2
34.2764 32.7336 2
37.5752 27.4523 3.90983
35.2094 29.1105 3.86432
34.1515 31.3504 3.75251
33.2419 33.0475 3.5844
30.2187 19.3786 3.98087
30.9298 16.8481 2
31.9187 14.4942 0.0222573
40.3013 25.8036 0.0248007
38.0641 23.1036 0.000144827
33.5556 17.4056 0.0208861
35.5829 20.1175 0.0157314
32.868 19.8194 2
35.1869 22.7979 2
37.7689 25.3973 2
32.3276 22.5178 3.99609
35.0269 25.3625 4.00061
34.2506 37.5129 3.77058
35.8835 37.5042 2
37.5022 37.4989 0.200208
37.6619 50.8404 -0.000386372
36.9203 48.1637 0.075308
35.89 39.1599 0.245808
35.197 45.9011 0.141371
34.1436 43.6663 0.247537
34.4095 40.742 0.25605
33.2288 41.9722 0.41469
35.5058 50.0175 2
34.3224 39.1563 2
32.878 40.8644 2
34.3605 47.3156 2
32.7837 42.6148 2
33.2532 45.118 2
33.3429 49.0314 3.98016
32.5524 39.2892 3.64561
31.7407 41.0968 3.75455
31.683 43.6849 3.85466
32.4513 46.2255 3.89914
34.4077 52.3966 0.00295659
32.1024 51.1531 2
30.0252 49.693 3.99695
30.5751 53.3286 0.0111429
28.5355 51.5487 2
26.6843 49.9276 3.96948
26.9686 53.4172 0.0284846
25.2113 51.7011 2
23.5384 50.1256 3.96348
23.6697 53.451 0.0413561
22.1215 51.7545 2
20.6751 50.2558 3.96468
18.1866 50.2809 3.96799
17.9714 52.7516 3.96392
19.3755 51.5861 2
17.4874 55.3134 3.96256
18.9913 54.2763 2
20.5841 53.1838 0.0388906
17.1504 57.8519 3.96563
18.4722 56.7 2
19.9712 55.8058 0.0353204
17.1416 60.5291 3.97106
18.3797 59.0894 2
19.456 57.8656 0.0310378
17.4092 63.4627 3.97716
18.6232 61.7529 2
19.7135 60.1847 0.0254959
17.9426 66.617 3.98978
19.1277 64.6724 2
20.2097 62.8527 0.0230609
18.75 69.9759 4
19.885 67.8081 2
20.939 65.7628 0.016538
21.9118 68.872 0.00884919
20.9142 71.1327 2
23.1494 72.1454 0
21.5896 13.62 3.97709
22.1913 11.0348 3.97845
23.0975 12.798 2
23.0419 8.18085 3.98337
23.9721 10.1728 2
24.1181 5.14346 3.99086
25.0233 7.31353 2
25.8606 9.38551 0.0190758
25.446 1.99014 4
26.2792 4.32868 2
27.0705 6.54353 0.0144654
27.7943 1.27778 2
28.4887 3.64456 0.00801304
30.1841 0.720592 0
34.3047 35.8629 3.75707
35.8882 35.8627 2
37.5029 35.8523 0.219491
21.3132 15.8481 3.98172
24.7782 12.0813 0.0218442
23.7546 14.3716 0.0241061
25.3603 13.9171 2
22.4851 15.05 2
24.0336 15.6372 2
23.2756 16.2653 3.97512
25.3893 16.106 3.97955
27.2939 13.3832 0.0217172
29.7849 14.2118 0.0211679
28.3612 15.9904 2
27.451 18.8305 3.97918
32.8776 34.1665 3.6328
34.4086 34.3004 2
35.904 34.2199 0.268587
34.2968 32.7323 0.382041
35.6806 30.6834 0.24731
37.4964 28.8148 0.136954
39.9624 27.7332 0.0997378
37.5738 27.4159 2
33.2183 33.0307 2
35.2022 29.0614 2
34.1143 31.2989 2
35.1059 27.5619 3.90904
33.2642 29.9287 3.86328
32.8367 32.4323 3.75387
29.6209 21.9802 3.99586
30.2167 19.3885 2
30.9322 16.8551 0.0212139
37.7513 25.4115 0.0122521
35.1957 22.8114 0.00428058
32.8713 19.8091 0.00775325
32.3266 22.5096 2
35.0545 25.3506 2
31.832 25.7506 4.00692
32.4096 37.5137 3.66869
34.2674 37.5113 2
35.8755 37.503 0.22294
35.5194 50.0114 0.010149
34.3656 47.2741 0.10068
34.3069 39.1616 0.243256
33.2712 45.0853 0.135687
32.8229 42.581 0.231989
32.8737 40.8553 0.368844
33.3305 49.0312 2
32.5664 39.2885 2
31.7047 41.125 2
32.4189 46.2596 2
31.649 43.7138 2
31.3528 47.8734 3.98329
30.9916 39.3947 3.75562
30.4343 41.9344 3.85315
30.7164 44.8356 3.91962
32.1005 51.1428 -0.0141032
30.0254 49.7104 2
28.1201 48.1125 3.95894
28.5368 51.5515 0.0134343
26.6828 49.9264 2
24.902 48.392 3.97207
25.2128 51.7022 0.0452844
23.5377 50.1237 2
21.9275 48.7154 3.97017
22.1226 51.7563 0.0462504
20.6727 50.2547 2
19.2658 49.0351 3.97204
17.0777 49.2875 3.97344
16.924 51.3672 3.96705
18.1891 50.2796 2
16.47 53.8406 3.9646
17.9694 52.7514 2
19.3773 51.5868 0.0380518
15.9967 56.4566 3.96438
17.484 55.3141 2
18.9952 54.276 0.0371453
15.7583 59.1925 3.96754
17.1508 57.8525 2
18.4729 56.6995 0.032671
15.791 62.1268 3.97275
17.142 60.5309 2
18.3796 59.0884 0.0317607
16.0896 65.2993 3.98874
17.4087 63.464 2
18.6228 61.7522 0.0260111
16.6661 68.6801 4
17.9413 66.6162 2
19.128 64.6717 0.018167
18.75 69.9759 2
19.8861 67.8086 0.00902803
20.9142 71.1327 0
20.2236 14.6129 3.97587
21.5896 13.6201 2
20.531 12.007 3.97743
21.1446 9.15139 3.98242
22.1906 11.0351 2
23.0978 12.7973 0.0226043
22.0172 6.08263 3.99027
23.0408 8.17972 2
23.9732 10.1743 0.0203147
23.1494 2.85457 4
24.1166 5.14365 2
25.0241 7.3143 0.0155532
25.446 1.99012 2
26.2805 4.32864 0.00856064
27.7943 1.27781 0
32.5405 35.737 3.64508
34.3192 35.8673 2
35.8795 35.8495 0.2493
21.3141 15.8474 2
20.3161 16.9804 3.9792
22.1078 16.653 3.97151
25.3604 13.92 0.0239942
22.4843 15.0499 0.0212319
24.0332 15.635 0.0197273
25.3889 16.1037 2
23.2761 16.2656 2
24.2175 18.4913 3.97298
27.062 21.5038 3.99299
28.3638 15.9865 0.0214486
27.4504 18.8297 2
31.7556 33.935 3.75075
32.8851 34.1551 2
34.4101 34.2838 0.257346
33.2419 33.0475 0.415598
34.1515 31.3504 0.247489
35.2094 29.1105 0.135679
37.5752 27.4523 0.0901731
35.1112 27.5193 2
32.7668 32.3991 2
33.2485 29.9075 2
32.7024 28.2616 3.91948
31.6822 31.3424 3.8542
28.943 24.466 3.98362
29.6151 21.9899 2
30.2187 19.3786 0.0191339
35.0269 25.3625 -0.000613536
32.3276 22.5178 0.00391446
31.8309 25.7285 2
29.857 27.3994 3.97679
30.6205 37.5128 3.76329
32.4216 37.5122 2
34.2506 37.5129 0.229418
33.3429 49.0314 0.0198405
32.4513 46.2255 0.100861
32.5524 39.2892 0.354393
31.683 43.6849 0.145344
31.7407 41.0968 0.24545
31.3486 47.8784 2
30.9441 39.4183 2
30.4056 41.9507 2
30.6907 44.861 2
29.4981 46.4834 3.99955
29.5432 39.8536 3.87753
29.1366 43.0727 3.92057
30.0252 49.693 0.00305275
28.1161 48.107 2
26.2685 46.571 3.9766
26.6843 49.9276 0.0305182
24.9012 48.39 2
23.1386 46.9898 3.97502
23.5384 50.1256 0.0365231
21.9253 48.7144 2
20.2434 47.5532 3.97712
20.6751 50.2558 0.0353159
19.2676 49.0336 2
17.8848 48.1289 3.97669
16.3152 48.6435 3.97625
17.0792 49.2866 2
16.0037 50.1324 3.97081
15.4808 52.3849 3.96666
16.9252 51.3664 2
18.1866 50.2809 0.032007
14.9098 54.957 3.96409
16.4705 53.8403 2
17.9714 52.7516 0.0360834
14.4705 57.7247 3.96648
15.9972 56.4569 2
17.4874 55.3134 0.037438
14.2705 60.6812 3.9714
15.7589 59.1934 2
17.1504 57.8519 0.0343671
14.3351 63.8575 3.98428
15.7908 62.1284 2
17.1416 60.5291 0.0289394
14.6715 67.2507 4
16.0878 65.2982 2
17.4092 63.4627 0.0228352
16.6661 68.6801 2
17.9426 66.617 0.0102199
18.75 69.9759 0
18.9398 15.7994 3.97702
20.2239 14.6124 2
18.982 13.1202 3.97552
21.5896 13.62 0.0229131
20.5307 12.007 2
19.3439 10.2406 3.98129
19.9917 7.14736 3.98961
21.1439 9.15129 2
22.1913 11.0348 0.0215543
20.9142 3.86727 4
22.0153 6.08302 2
23.0419 8.18085 0.0166253
23.1494 2.85451 2
24.1181 5.14346 0.00913828
25.446 1.99014 0
31.0109 35.636 3.75462
32.5529 35.7374 2
34.3047 35.8629 0.24293
21.3132 15.8481 0.0182825
22.1084 16.6531 2
20.3165 16.9787 2
19.27 18.4309 3.97004
21.7958 17.8775 3.98082
25.3893 16.106 0.0204544
23.2756 16.2653 0.0248824
24.2162 18.4938 2
22.321 19.9313 3.96722
24.6441 21.3861 3.98763
26.5519 23.772 3.97394
27.0611 21.4973 2
27.451 18.8305 0.0208185
30.4687 33.1036 3.86587
31.727 33.8949 2
32.8776 34.1665 0.367198
32.8367 32.4323 0.246127
33.2642 29.9287 0.136715
35.1059 27.5619 0.0909634
32.6596 28.2322 2
31.6411 31.3059 2
30.401 29.6674 3.94138
28.1074 26.6114 3.99056
28.9357 24.4805 2
29.6209 21.9802 0.00414011
31.832 25.7506 -0.00692396
29.8491 27.3741 2
29.136 37.5184 3.87408
30.588 37.5132 2
32.4096 37.5137 0.331313
31.3528 47.8734 0.0167139
30.7164 44.8356 0.0803761
30.9916 39.3947 0.244381
30.4343 41.9344 0.146851
29.4979 46.4956 2
29.5045 39.8729 2
29.1067 43.1041 2
27.7069 44.7917 3.97119
27.3138 40.5924 3.94714
28.1201 48.1125 0.0410596
26.2637 46.572 2
24.4074 45.1105 3.97627
24.902 48.392 0.0279303
23.1374 46.9899 2
21.2331 45.82 3.9781
21.9275 48.7154 0.029831
20.2421 47.5518 2
18.5769 46.68 3.97775
19.2658 49.0351 0.0279642
17.8857 48.1278 2
16.5289 47.6713 3.97702
16.3166 48.6426 2
15.3483 48.9805 3.97438
17.0777 49.2875 0.0265642
16.0056 50.1316 2
14.6007 50.9555 3.96903
13.8847 53.4143 3.9656
15.4817 52.3844 2
16.924 51.3672 0.0329467
13.2667 56.1567 3.96559
14.9093 54.9571 2
16.47 53.8406 0.0354021
12.8543 59.1162 3.97009
14.4716 57.7247 2
15.9967 56.4566 0.0356176
12.6809 62.2996 3.98133
14.2709 60.6818 2
15.7583 59.1925 0.0324588
12.7746 65.6939 4
14.333 63.8552 2
15.791 62.1268 0.0272525
14.6714 67.2507 2
16.0896 65.2993 0.0112629
16.6661 68.6801 0
17.6825 17.1776 3.96945
18.9402 15.7985 2
17.5149 14.3862 3.9753
20.2236 14.6129 0.0241261
18.9818 13.1202 2
17.6398 11.4609 3.97938
20.531 12.007 0.0225674
19.3434 10.2404 2
18.0518 8.34051 3.98898
18.75 5.0241 4
19.9897 7.14854 2
21.1446 9.15139 0.0175845
20.9142 3.86727 2
22.0172 6.08263 0.00972785
23.1494 2.85457 0
29.5617 35.1789 3.87886
30.958 35.6129 2
32.5405 35.737 0.35492
22.1078 16.653 0.0284916
20.3161 16.9804 0.0208002
21.7961 17.8756 2
19.2698 18.4293 2
18.0354 19.9713 3.95926
20.9142 19.4082 3.97064
24.2175 18.4913 0.0270242
22.3196 19.9314 2
24.6431 21.387 2
22.4335 21.7652 3.97837
24.8197 23.2133 3.97389
25.6976 26.0047 3.97813
26.5529 23.768 2
27.062 21.5038 0.00700549
28.8473 32.4386 3.92418
30.4275 33.0793 2
31.7556 33.935 0.249251
31.6822 31.3424 0.145803
32.7024 28.2616 0.0805247
30.3908 29.6687 2
27.36 29.1996 4.00752
28.0959 26.6222 2
28.943 24.466 0.0163799
29.857 27.3994 0.0232103
27.4238 37.3679 3.92684
29.0744 37.5076 2
30.6205 37.5128 0.236713
29.4981 46.4834 0.000447147
29.1366 43.0727 0.0794326
29.5432 39.8536 0.122465
27.6963 44.8197 2
27.2927 40.5944 2
25.7399 43.098 3.98826
24.5704 39.4531 3.97453
26.2685 46.571 0.0233972
24.3979 45.1111 2
22.2941 43.8682 3.97761
23.1386 46.9898 0.0249767
21.2301 45.8197 2
19.292 44.9135 3.97737
20.2434 47.5532 0.0228756
18.5771 46.6789 2
16.8581 46.1671 3.97709
17.8848 48.1289 0.0233116
16.5302 47.6705 2
15.0987 47.6356 3.97579
16.3152 48.6435 0.0237548
15.3501 48.9797 2
13.9047 49.5186 3.97129
16.0037 50.1324 0.0291858
14.6016 50.955 2
12.958 51.8552 3.967
12.1586 54.518 3.96549
13.8847 53.4142 2
15.4808 52.3849 0.0333371
11.5401 57.4513 3.9695
13.2673 56.1568 2
14.9098 54.957 0.0359131
11.1356 60.6253 3.97933
12.8553 59.1158 2
14.4705 57.7247 0.0335196
10.9835 64.0165 4
12.6789 62.2963 2
14.2705 60.6812 0.0285986
12.7745 65.694 2
14.3351 63.8575 0.015722
14.6715 67.2507 0
16.4274 18.6733 3.96395
17.6824 17.1764 2
16.1089 15.7972 3.97179
18.9398 15.7994 0.0229799
17.5148 14.3853 2
16.0221 12.8158 3.97683
18.982 13.1202 0.0244772
17.6395 11.4608 2
16.2029 9.6638 3.98821
19.3439 10.2406 0.018713
18.0498 8.34209 2
16.6661 6.31991 4
18.75 5.02404 2
19.9917 7.14736 0.010392
20.9142 3.86727 0
27.9576 34.8158 3.91691
29.5184 35.1576 2
31.0109 35.636 0.24538
16.748 21.4069 3.96534
21.7958 17.8775 0.0191831
19.27 18.4309 0.0299605
20.9136 19.4064 2
18.0353 19.9706 2
19.8079 21.6126 3.96823
22.321 19.9313 0.0327799
24.6441 21.3861 0.0123719
22.4326 21.7656 2
24.819 23.2125 2
23.0356 24.656 3.97369
24.9022 28.5886 3.97887
25.6922 26.0016 2
26.5519 23.772 0.0260568
26.6968 31.787 3.98035
28.819 32.4164 2
30.4687 33.1036 0.134127
30.401 29.6674 0.0586169
27.3796 29.1808 2
28.1074 26.6114 0.00943606
25.254 36.8588 3.97916
27.4121 37.3605 2
29.136 37.5184 0.125917
27.7069 44.7917 0.0288111
27.3138 40.5924 0.0528601
25.7217 43.113 2
24.5524 39.4537 2
23.4639 41.8137 3.98042
22.287 38.522 3.97776
24.4074 45.1105 0.0237277
22.2933 43.8685 2
20.13 42.8497 3.97656
21.2331 45.82 0.0219018
19.2924 44.9136 2
17.2378 44.3353 3.97666
18.5769 46.68 0.0222488
16.8598 46.1664 2
15.044 46.0562 3.97609
16.5289 47.6713 0.0229783
15.1001 47.635 2
13.426 47.9824 3.9731
15.3483 48.9805 0.0256159
13.9059 49.518 2
12.1834 50.2352 3.96827
14.6007 50.9555 0.0309679
12.9583 51.855 2
11.1573 52.829 3.96595
10.3306 55.7065 3.96933
12.159 54.5179 2
13.8847 53.4143 0.0343998
9.70223 58.8477 3.97842
11.5407 57.451 2
13.2667 56.1567 0.0344127
9.30605 62.2254 4
11.134 60.6216 2
12.8543 59.1162 0.0299121
10.9835 64.0165 2
12.6809 62.2996 0.0186739
12.7746 65.6939 0
15.1813 20.2071 3.96355
16.4278 18.6733 2
14.7613 17.3224 3.96523
17.6825 17.1776 0.0305549
16.1091 15.7959 2
14.486 14.3 3.97384
17.5149 14.3862 0.024699
16.0217 12.8155 2
14.4458 11.1154 3.98703
17.6398 11.4609 0.020625
16.2009 9.66591 2
14.6715 7.74927 4
18.0518 8.34051 0.0110194
16.6661 6.31988 2
18.75 5.0241 0
25.9177 34.3096 3.98681
27.9351 34.8244 2
29.5617 35.1789 0.121139
17.9628 22.3599 3.97118
15.626 22.9506 3.96816
16.7481 21.407 2
20.9142 19.4082 0.0293645
18.0354 19.9713 0.0407426
19.8076 21.6121 2
19.8711 24.4364 3.97083
22.4335 21.7652 0.0216326
24.8197 23.2133 0.026105
23.0326 24.6559 2
22.2684 27.8939 3.97335
24.2542 31.2651 3.97666
24.9137 28.59 2
25.6976 26.0047 0.0218719
26.6789 31.7541 2
28.8473 32.4386 0.0758153
27.36 29.1996 -0.00752301
23.0076 36.2883 3.98254
25.2397 36.8631 2
27.4238 37.3679 0.0731588
25.7399 43.098 0.011739
24.5704 39.4531 0.0254663
23.4515 41.813 2
22.2782 38.5196 2
21.1762 40.6333 3.9754
20.5627 37.8033 3.97696
22.2941 43.8682 0.0223911
20.1284 42.8511 2
17.7014 42.064 3.9763
19.292 44.9135 0.0226325
17.2392 44.3355 2
15.0816 44.1665 3.97615
16.8581 46.1671 0.0229114
15.0453 46.0556 2
13.1185 46.2709 3.97424
15.0987 47.6356 0.0242128
13.4273 47.9819 2
11.5644 48.5332 3.96936
13.9047 49.5186 0.0287077
12.1841 50.2348 2
10.2856 51.0739 3.96627
12.958 51.8552 0.032995
11.1578 52.8287 2
9.23932 53.8867 3.96924
8.38563 56.9811 3.97917
10.3312 55.7059 2
12.1586 54.518 0.0345139
7.74927 60.3285 4
9.70097 58.8438 2
11.5401 57.4513 0.0305031
9.306 62.2255 2
11.1356 60.6253 0.0206735
10.9835 64.0165 0
14.0103 21.7734 3.96494
15.1811 20.207 2
13.4625 18.9164 3.96574
16.4274 18.6733 0.0360459
14.762 17.322 2
13.0336 15.8975 3.97099
16.1089 15.7972 0.0282101
14.4853 14.2994 2
12.7836 12.6895 3.98457
16.0221 12.8158 0.0231656
14.4437 11.1179 2
12.7746 9.30605 4
16.2029 9.6638 0.0117898
14.6715 7.74924 2
16.6661 6.31991 0
23.595 33.8478 3.98371
25.8931 34.3015 2
27.9576 34.8158 0.0830907
17.8078 24.0877 3.96992
17.9648 22.3602 2
14.4615 24.4847 3.96989
15.6271 22.9509 2
16.748 21.4069 0.0346601
19.3332 27.2649 3.97226
19.8079 21.6126 0.0317669
19.8668 24.4364 2
21.6135 30.7375 3.97566
23.0356 24.656 0.0263072
22.2754 27.8959 2
24.2325 31.2657 2
24.9022 28.5886 0.0211332
26.6968 31.787 0.0196497
20.6845 35.9552 3.9766
23.0082 36.2877 2
25.254 36.8588 0.0208441
23.4639 41.8137 0.0195797
22.287 38.522 0.0222401
21.1824 40.6335 2
20.5612 37.8016 2
18.4468 39.0027 3.97716
20.13 42.8497 0.0234419
17.7017 42.064 2
15.0663 41.8899 3.9767
17.2378 44.3353 0.0233375
15.0828 44.166 2
12.8803 44.3702 3.97521
15.044 46.0562 0.0239124
13.1201 46.2704 2
11.0765 46.7183 3.97026
13.426 47.9824 0.0268969
11.5653 48.5328 2
9.55181 49.2343 3.96644
12.1834 50.2352 0.0317256
10.286 51.0735 2
8.27212 52.0007 3.96901
11.1573 52.829 0.0340477
9.23991 53.8859 2
7.1946 55.0321 3.97999
6.31991 58.3339 4
8.38472 56.9774 2
10.3306 55.7065 0.0306692
7.74924 60.3285 2
9.70223 58.8477 0.0215757
9.30605 62.2254 0
13.3488 25.3901 3.973
12.9041 23.3032 3.96722
14.0093 21.7733 2
12.2495 20.5617 3.96557
15.1813 20.2071 0.0364457
13.4638 18.9163 2
11.6645 17.5753 3.97042
14.7613 17.3224 0.0347725
13.0342 15.8966 2
11.2219 14.3757 3.97984
14.486 14.3 0.0261587
12.7813 12.6924 2
10.9835 10.9835 4
14.4458 11.1154 0.0129711
12.7745 9.306 2
14.6715 7.74927 0
21.0485 33.4547 3.97577
23.5951 33.8441 2
25.9177 34.3096 0.0131939
16.1299 26.446 3.97235
17.8081 24.0879 2
17.9628 22.3599 0.0288224
14.4618 24.4853 2
15.626 22.9506 0.0318448
18.7203 30.234 3.97486
19.3307 27.2654 2
19.8711 24.4364 0.0291727
21.6191 30.738 2
22.2684 27.8939 0.0266461
24.2542 31.2651 0.0233365
18.0589 35.9866 3.9779
20.686 35.9557 2
23.0076 36.2883 0.0174569
21.1762 40.6333 0.0245964
20.5627 37.8033 0.0230423
18.4448 39.0025 2
14.5723 39.1693 3.97745
17.7014 42.064 0.0237042
15.0671 41.8896 2
12.5749 42.2605 3.97634
15.0816 44.1665 0.0238503
12.8816 44.3697 2
10.6633 44.7892 3.97139
13.1185 46.2709 0.0257605
11.0776 46.718 2
8.93674 47.3139 3.96668
11.5644 48.5332 0.0306356
9.55195 49.234 2
7.43898 50.0345 3.96863
10.2856 51.0739 0.0337334
8.27254 52 2
6.13523 53.0074 3.98037
9.23932 53.8867 0.0307594
7.19406 55.0291 2
5.0241 56.25 4
6.31988 58.3339 2
8.38563 56.9811 0.0208317
7.74927 60.3285 0
13.6157 26.8442 3.97251
12.0144 24.8076 3.9692
13.3482 25.3904 2
11.1639 22.2449 3.96598
12.9046 23.3035 2
14.0103 21.7734 0.0350558
12.2505 20.5618 2
10.3956 19.3265 3.96974
13.4625 18.9164 0.0342618
11.6656 17.5756 2
9.76283 16.1595 3.97846
13.0336 15.8975 0.0290144
11.2199 14.3798 2
9.30607 12.7746 4
12.7836 12.6895 0.0154303
10.9835 10.9835 2
12.7746 9.30605 0
18.2309 33.1623 3.97699
21.0492 33.4564 2
23.595 33.8478 0.0162936
15.7531 29.6794 3.97524
16.1299 26.4466 2
17.8078 24.0877 0.0300803
14.4615 24.4847 0.0301113
18.7194 30.2348 2
19.3332 27.2649 0.0277419
21.6135 30.7375 0.0243367
15.1924 36.036 3.97762
18.0589 35.9865 2
20.6845 35.9552 0.0234001
12.805 37.8306 3.97774
18.4468 39.0027 0.0228392
14.5729 39.169 2
12.0786 40.1323 3.97713
15.0663 41.8899 0.0233035
12.5762 42.2601 2
10.2695 42.7678 3.97148
12.8803 44.3702 0.024789
10.6643 44.789 2
8.41586 45.3164 3.96706
11.0765 46.7183 0.0297409
8.93644 47.3136 2
6.73011 47.9998 3.96838
9.55181 49.2343 0.0335568
7.43924 50.0338 2
5.21203 50.9108 3.98007
8.27212 52.0007 0.0309869
6.13497 53.0054 2
3.86727 54.0858 4
7.1946 55.0321 0.020014
5.02404 56.25 2
6.31991 58.3339 0
13.0937 29.0612 3.97222
11.4587 26.5068 3.9697
13.6154 26.8446 2
10.225 23.9762 3.96672
12.0158 24.808 2
13.3488 25.3901 0.0269967
9.2479 21.1425 3.96913
11.1642 22.2451 2
12.9041 23.3032 0.0327782
12.2495 20.5617 0.0344303
10.3968 19.327 2
8.41845 18.0303 3.97868
11.6645 17.5753 0.0295783
9.76131 16.1641 2
7.74928 14.6715 4
11.2219 14.3757 0.0201563
9.30602 12.7745 2
10.9835 10.9835 0
14.7457 32.8959 3.97701
18.2293 33.1621 2
21.0485 33.4547 0.0242317
15.7546 29.6802 2
16.1299 26.446 0.0276516
18.7203 30.234 0.0251385
13.0973 36.2199 3.97729
15.1922 36.0358 2
18.0589 35.9866 0.0221006
12.807 37.8302 2
11.4222 38.3085 3.9773
14.5723 39.1693 0.0225487
12.0812 40.132 2
9.8532 40.7481 3.97189
12.5749 42.2605 0.0236635
10.2713 42.7675 2
7.96585 43.2662 3.96751
10.6633 44.7892 0.0286077
8.41625 45.3161 2
6.13615 45.9051 3.96826
8.93674 47.3139 0.0333209
6.73033 47.9993 2
4.4235 48.7515 3.97948
7.43898 50.0345 0.0313722
5.21195 50.9097 2
2.85457 51.8506 4
6.13523 53.0074 0.0196276
3.86727 54.0858 2
5.0241 56.25 0
12.2368 31.2794 3.97334
10.8807 28.433 3.96994
13.095 29.0617 2
9.44294 25.8055 3.96707
11.4597 26.5072 2
13.6157 26.8442 0.027491
8.23467 23.0257 3.96904
10.2255 23.9765 2
12.0144 24.8076 0.0307956
7.20053 19.9797 3.97948
9.24898 21.1432 2
11.1639 22.2449 0.0340207
10.3956 19.3265 0.0302556
8.4176 18.0347 2
6.31992 16.6661 4
9.76283 16.1595 0.0215448
7.74926 14.6714 2
9.30607 12.7746 0
12.2637 34.3121 3.97727
14.7469 32.8967 2
18.2309 33.1623 0.0230066
15.7531 29.6794 0.0247594
10.9696 36.6156 3.97691
13.0987 36.2198 2
15.1924 36.036 0.0223794
12.805 37.8306 0.0222608
11.425 38.3083 2
9.43938 38.8214 3.97249
12.0786 40.1323 0.022869
9.85452 40.7479 2
7.57621 41.2091 3.96804
10.2695 42.7678 0.0285202
7.9652 43.266 2
5.64784 43.7681 3.96839
8.41586 45.3164 0.0329394
6.13632 45.9045 2
3.76905 46.5371 3.97909
6.73011 47.9998 0.0316204
4.42363 48.7509 2
1.99014 49.554 4
5.21203 50.9108 0.0199307
2.85451 51.8506 2
3.86727 54.0858 0
11.0593 32.9345 3.9753
10.1957 30.3972 3.97054
12.2386 31.28 2
8.75493 27.7388 3.96717
10.8818 28.4334 2
13.0937 29.0612 0.0277801
7.36002 24.9839 3.9688
9.44302 25.8058 2
11.4587 26.5068 0.0303043
6.11748 22.0027 3.98024
8.23534 23.0263 2
10.225 23.9762 0.0332826
5.02411 18.75 4
7.20016 19.9831 2
9.2479 21.1425 0.0308737
8.41845 18.0303 0.0213189
6.3199 16.6661 2
7.74928 14.6715 0
10.5687 35.0084 3.97609
12.2661 34.3126 2
14.7457 32.8959 0.0229941
9.10125 36.9864 3.97306
10.9722 36.6156 2
13.0973 36.2199 0.0227144
11.4222 38.3085 0.0226993
9.44085 38.8212 2
7.2532 39.1814 3.96839
9.8532 40.7481 0.0281129
7.57635 41.2089 2
5.26276 41.6139 3.96849
7.96585 43.2662 0.0324888
5.64796 43.7677 2
3.2467 44.2818 3.97923
6.13615 45.9051 0.0317443
3.76926 46.5367 2
1.27781 47.2057 4
4.4235 48.7515 0.0205205
1.99012 49.554 2
2.85457 51.8506 0
10.2059 33.8919 3.97627
9.47687 32.1655 3.97141
11.0615 32.9349 2
8.10134 29.7011 3.9676
10.1971 30.3976 2
12.2368 31.2794 0.0266647
6.60349 27.0095 3.96866
8.75454 27.739 2
10.8807 28.433 0.0300624
5.17285 24.0952 3.98018
7.36038 24.9845 2
9.44294 25.8055 0.032932
3.86728 20.9142 4
6.11735 22.0047 2
8.23467 23.0257 0.0309633
5.02406 18.75 2
7.20053 19.9797 0.0205185
6.31992 16.6661 0
8.92203 35.2841 3.9732
10.5707 35.0086 2
12.2637 34.3121 0.0227343
7.03215 37.2066 3.96834
9.1026 36.9864 2
10.9696 36.6156 0.0230949
9.43938 38.8214 0.0275067
7.25371 39.1813 2
4.99034 39.4674 3.96865
7.57621 41.2091 0.0319584
5.26324 41.6136 2
2.85705 42.0021 3.97938
5.64784 43.7681 0.0316143
3.24678 44.2815 2
0.720592 44.8159 4
3.76905 46.5371 0.0209138
1.27778 47.2057 2
1.99014 49.554 0
8.9632 33.7052 3.97271
10.2078 33.8922 2
7.53528 31.6134 3.96795
9.47843 32.1658 2
11.0593 32.9345 0.0247031
5.94835 29.0703 3.96879
8.10081 29.7013 2
10.1957 30.3972 0.0294553
4.36048 26.2476 3.97972
6.60367 27.01 2
8.75493 27.7388 0.0328287
2.85458 23.1494 4
5.17286 24.0961 2
7.36002 24.9839 0.031199
3.86728 20.9142 2
6.11748 22.0027 0.0197569
5.02411 18.75 0
6.98029 35.3078 3.96829
8.92339 35.2842 2
10.5687 35.0084 0.0239077
4.84047 37.3399 3.96899
7.03279 37.2065 2
9.10125 36.9864 0.0269361
7.2532 39.1814 0.0316068
4.99081 39.4673 2
2.60508 39.7137 3.97937
5.26276 41.6139 0.0315072
2.85743 42.002 2
0.320823 42.3947 4
3.2467 44.2818 0.0207716
0.720551 44.8159 2
1.27781 47.2057 0
7.14433 33.4638 3.96814
8.96436 33.7054 2
10.2059 33.8919 0.0237266
5.41892 31.134 3.96906
7.53518 31.6135 2
9.47687 32.1655 0.0285874
3.68207 28.4435 3.97942
5.94852 29.0707 2
8.10134 29.7011 0.0323953
1.99015 25.446 4
4.36058 26.2479 2
6.60349 27.0095 0.0313396
2.85453 23.1494 2
5.17285 24.0952 0.0198248
3.86728 20.9142 0
4.85481 35.2518 3.96904
6.98029 35.3079 2
8.92203 35.2841 0.0267988
2.49652 37.4284 3.98005
4.8405 37.34 2
7.03215 37.2066 0.0316593
4.99034 39.4674 0.0313518
2.60555 39.7141 2
0.080333 39.9526 4
2.85705 42.0021 0.0206233
0.320817 42.3947 2
0.720592 44.8159 0
5.0482 33.1905 3.96908
7.14436 33.4639 2
8.9632 33.7052 0.0272947
3.14625 30.6662 3.9795
5.41909 31.1344 2
7.53528 31.6134 0.0320485
1.27793 27.7943 4
3.6823 28.4437 2
5.94835 29.0703 0.0312128
1.99013 25.446 2
4.36048 26.2476 0.0202818
2.85458 23.1494 0
2.54863 35.159 3.97982
4.85538 35.2521 2
6.98029 35.3078 0.0317064
0 37.5 4
2.49656 37.4288 2
4.84047 37.3399 0.0310102
2.60508 39.7137 0.0206348
0.0802903 39.9526 2
0.320823 42.3947 0
2.76625 32.9057 3.97996
5.04839 33.1909 2
7.14433 33.4638 0.0318588
0.721173 30.1842 4
3.14651 30.6666 2
5.41892 31.134 0.0309398
1.27779 27.7943 2
3.68207 28.4435 0.0205783
1.99015 25.446 0
0.0806499 35.0474 4
2.54918 35.1594 2
4.85481 35.2518 0.0309622
0 37.5 2
2.49652 37.4284 0.0199495
0.080333 39.9526 0
0.32156 32.6054 4
2.76638 32.9063 2
5.0482 33.1905 0.0309203
0.72056 30.1841 2
3.14625 30.6662 0.0205012
1.27793 27.7943 0
0.0802889 35.0474 2
2.54863 35.159 0.0201835
0 37.5 0
0.320817 32.6053 2
2.76625 32.9057 0.0200377
0.721173 30.1842 0
0.0806499 35.0474 0
0.32156 32.6054 0
CELLS 1910 17190
8 18 6 25 56 2 0 5 16
8 57 23 6 18 17 4 0 2
8 78 36 9 29 31 11 1 7
8 31 11 1 7 79 37 10 30
8 110 57 18 50 48 17 2 14
8 50 18 56 111 14 2 16 49
8 116 62 22 55 52 20 3 15
8 56 25 67 118 16 5 24 53
8 119 63 23 57 54 21 4 17
8 55 22 63 119 15 3 21 54
8 58 26 68 121 18 6 25 56
8 122 65 26 58 57 23 6 18
8 73 31 7 27 142 79 30 71
8 143 78 29 72 73 31 7 27
8 83 147 76 34 32 74 28 8
8 84 148 78 36 33 75 29 9
8 76 34 8 28 148 84 33 75
8 37 79 150 86 10 30 77 35
8 151 87 36 78 80 38 11 31
8 80 38 11 31 152 88 37 79
8 175 100 42 94 96 44 12 40
8 44 96 176 101 12 40 95 43
8 101 176 98 46 43 95 41 13
8 46 98 178 103 13 41 97 45
8 178 103 45 97 147 83 32 74
8 189 116 55 109 106 52 15 47
8 111 56 118 191 49 16 53 107
8 192 119 57 110 108 54 17 48
8 109 55 119 192 47 15 54 108
8 194 122 58 112 110 57 18 50
8 112 58 121 195 50 18 56 111
8 115 61 19 51 197 124 59 113
8 115 61 125 198 51 19 60 114
8 198 125 62 116 114 60 20 52
8 200 127 64 120 116 62 22 55
8 118 67 132 202 53 24 66 117
8 121 68 133 203 56 25 67 118
8 120 64 128 204 55 22 63 119
8 204 128 65 122 119 63 23 57
8 206 134 68 121 123 69 26 58
8 123 69 26 58 207 131 65 122
8 226 147 74 138 140 76 28 70
8 229 148 75 139 143 78 29 72
8 140 76 28 70 229 148 75 139
8 142 79 30 71 231 150 77 141
8 144 80 31 73 232 152 79 142
8 233 151 78 143 144 80 31 73
8 150 86 35 77 235 154 81 145
8 235 154 81 145 146 82 39 91
8 146 82 39 91 236 155 90 165
8 238 157 83 147 149 85 34 76
8 239 158 84 148 151 87 36 78
8 149 85 34 76 239 158 84 148
8 152 88 37 79 241 160 86 150
8 242 161 87 151 153 89 38 80
8 153 89 38 80 243 162 88 152
8 171 98 41 92 265 178 97 169
8 265 178 97 169 226 147 74 138
8 172 96 40 93 266 176 95 170
8 266 176 95 170 171 98 41 92
8 269 175 94 173 172 96 40 93
8 271 180 99 174 175 100 42 94
8 197 124 59 113 271 180 99 174
8 272 181 100 175 177 102 44 96
8 273 182 101 176 179 104 46 98
8 177 102 44 96 273 182 101 176
8 179 104 46 98 275 184 103 178
8 275 184 103 178 238 157 83 147
8 188 115 51 105 283 197 113 186
8 188 115 198 284 105 51 114 187
8 284 198 116 189 187 114 52 106
8 286 200 120 193 189 116 55 109
8 191 118 202 288 107 53 117 190
8 195 121 203 289 111 56 118 191
8 193 120 204 290 109 55 119 192
8 290 204 122 194 192 119 57 110
8 196 123 58 112 292 207 122 194
8 293 206 121 195 196 123 58 112
8 199 126 61 115 297 211 124 197
8 298 212 127 200 198 125 62 116
8 199 126 212 298 115 61 125 198
8 205 129 64 120 300 214 127 200
8 301 217 130 201 202 132 66 117
8 209 136 168 264 301 217 130 201
8 302 219 132 202 203 133 67 118
8 303 220 133 203 206 134 68 121
8 205 129 215 304 120 64 128 204
8 304 215 131 207 204 128 65 122
8 306 221 134 206 208 135 69 123
8 208 135 69 123 307 218 131 207
8 210 137 167 263 309 223 136 209
8 328 238 147 226 230 149 76 140
8 228 146 91 166 329 236 165 260
8 231 150 77 141 330 235 145 227
8 330 235 145 227 228 146 91 166
8 332 239 148 229 233 151 78 143
8 230 149 76 140 332 239 148 229
8 232 152 79 142 334 241 150 231
8 234 153 80 144 335 243 152 232
8 336 242 151 233 234 153 80 144
8 236 155 90 165 338 245 164 259
8 241 160 86 150 339 246 154 235
8 339 246 154 235 237 156 82 146
8 237 156 82 146 340 247 155 236
8 342 249 157 238 240 159 85 149
8 343 250 158 239 242 161 87 151
8 240 159 85 149 343 250 158 239
8 243 162 88 152 345 252 160 241
8 244 163 253 346 153 89 161 242
8 244 163 89 153 347 254 162 243
8 311 224 261 371 210 137 167 263
8 263 167 262 372 209 136 168 264
8 267 179 98 171 375 275 178 265
8 375 275 178 265 328 238 147 226
8 376 273 176 266 267 179 98 171
8 268 177 96 172 376 273 176 266
8 379 272 175 269 268 177 96 172
8 380 271 174 270 269 175 94 173
8 283 197 113 186 380 271 174 270
8 381 277 180 271 272 181 100 175
8 297 211 124 197 381 277 180 271
8 382 278 181 272 274 183 102 177
8 274 183 102 177 383 279 182 273
8 383 279 182 273 276 185 104 179
8 385 281 184 275 342 249 157 238
8 276 185 104 179 385 281 184 275
8 285 199 115 188 393 297 197 283
8 394 298 200 286 284 198 116 189
8 285 199 298 394 188 115 198 284
8 291 205 120 193 396 300 200 286
8 397 301 201 287 288 202 117 190
8 295 209 264 374 397 301 201 287
8 398 302 202 288 289 203 118 191
8 399 303 203 289 293 206 121 195
8 291 205 304 400 193 120 204 290
8 400 304 207 292 290 204 122 194
8 294 208 123 196 402 307 207 292
8 403 306 206 293 294 208 123 196
8 296 210 263 373 405 309 209 295
8 408 312 213 299 297 211 126 199
8 299 213 313 409 199 126 212 298
8 409 313 214 300 298 212 127 200
8 305 216 129 205 411 315 214 300
8 412 318 217 301 302 219 132 202
8 309 223 136 209 412 318 217 301
8 413 320 219 302 303 220 133 203
8 306 221 321 414 206 134 220 303
8 307 218 131 207 415 316 215 304
8 305 216 316 415 205 129 215 304
8 417 322 221 306 308 222 135 208
8 308 222 135 208 418 319 218 307
8 310 225 137 210 420 325 223 309
8 423 326 224 311 310 225 137 210
8 329 236 165 260 441 338 259 368
8 442 342 238 328 333 240 149 230
8 331 237 146 228 443 340 236 329
8 334 241 150 231 444 339 235 330
8 444 339 235 330 331 237 146 228
8 446 343 239 332 336 242 151 233
8 333 240 149 230 446 343 239 332
8 335 243 152 232 448 345 241 334
8 337 244 153 234 449 347 243 335
8 337 244 346 450 234 153 242 336
8 338 245 164 259 452 349 258 367
8 340 247 155 236 453 350 245 338
8 345 252 160 241 454 351 246 339
8 454 351 246 339 341 248 156 237
8 341 248 156 237 455 352 247 340
8 240 159 251 344 342 249 354 457
8 242 161 253 346 343 250 355 458
8 343 250 355 458 240 159 251 344
8 347 254 162 243 460 357 252 345
8 348 255 358 461 244 163 253 346
8 348 255 163 244 462 359 254 347
8 473 360 257 365 363 256 364 482
8 452 349 258 367 365 257 366 485
8 422 324 369 488 311 224 261 371
8 371 261 370 490 263 167 262 372
8 407 311 371 491 296 210 263 373
8 373 263 372 492 295 209 264 374
8 493 385 275 375 442 342 238 328
8 377 276 179 267 493 385 275 375
8 378 274 177 268 494 383 273 376
8 494 383 273 376 377 276 179 267
8 497 382 272 379 378 274 177 268
8 498 381 271 380 379 272 175 269
8 393 297 197 283 498 381 271 380
8 499 387 277 381 382 278 181 272
8 408 312 211 297 499 387 277 381
8 500 388 278 382 384 280 183 274
8 501 389 279 383 386 282 185 276
8 384 280 183 274 501 389 279 383
8 386 282 185 276 503 391 281 385
8 503 391 281 385 457 354 249 342
8 511 408 299 395 393 297 199 285
8 395 299 409 512 285 199 298 394
8 512 409 300 396 394 298 200 286
8 401 305 205 291 514 411 300 396
8 515 412 301 397 398 302 202 288
8 405 309 209 295 515 412 301 397
8 516 413 302 398 399 303 203 289
8 403 306 414 517 293 206 303 399
8 402 307 207 292 518 415 304 400
8 401 305 415 518 291 205 304 400
8 404 308 208 294 520 418 307 402
8 521 417 306 403 404 308 208 294
8 406 310 210 296 523 420 309 405
8 526 423 311 407 406 310 210 296
8 410 314 213 299 527 424 312 408
8 528 425 315 411 409 313 214 300
8 410 314 425 528 299 213 313 409
8 416 317 216 305 530 427 315 411
8 531 430 318 412 413 320 219 302
8 420 325 223 309 531 430 318 412
8 532 432 320 413 414 321 220 303
8 417 322 433 533 306 221 321 414
8 418 319 218 307 534 428 316 415
8 416 317 428 534 305 216 316 415
8 419 323 434 536 308 222 322 417
8 419 323 222 308 537 431 319 418
8 421 327 225 310 539 438 325 420
8 421 327 439 541 310 225 326 423
8 543 437 324 422 423 326 224 311
8 441 338 259 368 559 452 367 486
8 443 340 236 329 560 453 338 441
8 333 240 344 447 442 342 457 561
8 445 341 237 331 562 455 340 443
8 448 345 241 334 563 454 339 444
8 563 454 339 444 445 341 237 331
8 336 242 346 450 446 343 458 565
8 446 343 458 565 333 240 344 447
8 449 347 243 335 567 460 345 448
8 451 348 244 337 568 462 347 449
8 451 348 461 569 337 244 346 450
8 570 463 349 452 473 360 257 365
8 453 350 245 338 570 463 349 452
8 455 352 247 340 571 464 350 453
8 460 357 252 345 572 465 351 454
8 572 465 351 454 456 353 248 341
8 456 353 248 341 573 466 352 455
8 344 251 356 459 457 354 468 575
8 458 355 469 576 344 251 356 459
8 346 253 358 461 458 355 469 576
8 462 359 254 347 578 471 357 460
8 348 255 359 462 461 358 472 579
8 591 474 360 473 475 361 256 363
8 475 361 256 363 594 477 362 479
8 363 256 364 482 479 362 480 603
8 590 473 365 484 481 363 482 605
8 482 364 257 365 606 483 366 485
8 559 452 367 486 484 365 485 607
8 542 436 487 609 422 324 369 488
8 525 422 488 611 407 311 371 491
8 488 369 489 612 371 261 370 490
8 491 371 490 613 373 263 372 492
8 495 386 276 377 614 503 385 493
8 614 503 385 493 561 457 342 442
8 615 501 383 494 495 386 276 377
8 496 384 274 378 615 501 383 494
8 618 500 382 497 496 384 274 378
8 619 499 381 498 497 382 272 379
8 511 408 297 393 619 499 381 498
8 620 505 387 499 500 388 278 382
8 527 424 312 408 620 505 387 499
8 502 390 506 621 384 280 388 500
8 622 507 389 501 504 392 282 386
8 502 390 280 384 622 507 389 501
8 504 392 282 386 624 509 391 503
8 624 509 391 503 575 468 354 457
8 513 410 299 395 630 527 408 511
8 631 528 411 514 512 409 300 396
8 513 410 528 631 395 299 409 512
8 519 416 305 401 633 530 411 514
8 634 531 412 515 516 413 302 398
8 523 420 309 405 634 531 412 515
8 635 532 413 516 517 414 303 399
8 521 417 533 636 403 306 414 517
8 520 418 307 402 637 534 415 518
8 519 416 534 637 401 305 415 518
8 522 419 308 404 639 537 418 520
8 522 419 536 640 404 308 417 521
8 524 421 310 406 642 539 420 523
8 524 421 541 644 406 310 423 526
8 646 543 422 525 526 423 311 407
8 529 426 314 410 647 544 424 527
8 528 425 545 648 411 315 427 530
8 529 426 545 648 410 314 425 528
8 535 429 317 416 649 546 427 530
8 650 548 430 531 532 432 320 413
8 539 438 325 420 650 548 430 531
8 533 433 550 651 414 321 432 532
8 536 434 551 652 417 322 433 533
8 537 431 319 418 653 547 428 534
8 535 429 547 653 416 317 428 534
8 538 435 552 654 419 323 434 536
8 538 435 323 419 655 549 431 537
8 540 440 327 421 657 556 438 539
8 540 440 557 659 421 327 439 541
8 541 439 555 660 423 326 437 543
8 661 554 436 542 543 437 324 422
8 676 570 452 559 590 473 365 484
8 560 453 338 441 676 570 452 559
8 562 455 340 443 677 571 453 560
8 447 344 459 566 561 457 575 678
8 564 456 341 445 679 573 455 562
8 567 460 345 448 680 572 454 563
8 680 572 454 563 564 456 341 445
8 565 458 576 682 447 344 459 566
8 450 346 461 569 565 458 576 682
8 568 462 347 449 684 578 460 567
8 451 348 462 568 569 461 579 685
8 686 580 463 570 591 474 360 473
8 571 464 350 453 686 580 463 570
8 573 466 352 455 687 581 464 571
8 572 465 582 688 460 357 471 578
8 574 467 582 688 456 353 465 572
8 574 467 353 456 689 583 466 573
8 459 356 470 577 575 468 585 691
8 576 469 586 692 459 356 470 577
8 461 358 472 579 576 469 586 692
8 462 359 471 578 579 472 588 694
8 704 591 473 590 593 475 363 481
8 595 476 592 705 475 361 474 591
8 593 475 363 481 707 594 479 602
8 594 477 362 479 709 598 478 600
8 595 476 361 475 711 597 477 594
8 479 362 480 603 600 478 601 720
8 481 363 482 605 602 479 603 722
8 603 480 364 482 723 604 483 606
8 605 482 365 484 724 606 485 607
8 656 553 608 726 542 436 487 609
8 645 542 609 728 525 422 488 611
8 609 487 610 729 488 369 489 612
8 611 488 612 730 491 371 490 613
8 616 504 386 495 731 624 503 614
8 731 624 503 614 678 575 457 561
8 732 622 501 615 616 504 386 495
8 617 502 384 496 732 622 501 615
8 617 502 621 735 496 384 500 618
8 736 620 499 619 618 500 382 497
8 630 527 408 511 736 620 499 619
8 621 506 626 737 500 388 505 620
8 647 544 424 527 737 626 505 620
8 623 508 627 738 502 390 506 621
8 623 508 390 502 739 628 507 622
8 625 510 628 739 504 392 507 622
8 740 629 509 624 691 585 468 575
8 625 510 392 504 740 629 509 624
8 632 529 410 513 744 647 527 630
8 631 528 648 745 514 411 530 633
8 632 529 648 745 513 410 528 631
8 638 535 416 519 746 649 530 633
8 747 650 531 634 635 532 413 516
8 642 539 420 523 747 650 531 634
8 636 533 651 748 517 414 532 635
8 640 536 652 749 521 417 533 636
8 639 537 418 520 750 653 534 637
8 638 535 653 750 519 416 534 637
8 641 538 419 522 751 655 537 639
8 641 538 654 752 522 419 536 640
8 643 540 421 524 753 657 539 642
8 643 540 659 755 524 421 541 644
8 644 541 660 757 526 423 543 646
8 758 661 542 645 646 543 422 525
8 529 426 544 647 648 545 662 759
8 530 427 545 648 649 546 663 760
8 535 429 546 649 653 547 664 761
8 762 666 548 650 651 550 432 532
8 657 556 438 539 762 666 548 650
8 652 551 668 763 533 433 550 651
8 654 552 669 764 536 434 551 652
8 655 549 431 537 765 665 547 653
8 538 435 549 655 654 552 667 766
8 661 554 671 768 542 436 553 656
8 658 558 440 540 769 674 556 657
8 658 558 675 770 540 440 557 659
8 659 557 673 771 541 439 555 660
8 660 555 672 772 543 437 554 661
8 788 686 570 676 704 591 473 590
8 677 571 453 560 788 686 570 676
8 679 573 455 562 789 687 571 677
8 566 459 577 683 678 575 691 790
8 681 574 456 564 791 689 573 679
8 680 572 688 792 567 460 578 684
8 681 574 688 792 564 456 572 680
8 682 576 692 794 566 459 577 683
8 569 461 579 685 682 576 692 794
8 568 462 578 684 685 579 694 796
8 687 581 464 571 798 696 580 686
8 798 696 580 686 705 592 474 591
8 689 583 466 573 799 697 581 687
8 688 582 698 800 578 471 588 694
8 690 584 698 800 574 467 582 688
8 690 584 467 574 801 699 583 689
8 693 587 701 803 577 470 585 691
8 693 587 470 577 804 702 586 692
8 695 589 702 804 579 472 586 692
8 695 589 472 579 805 703 588 694
8 708 595 705 813 593 475 591 704
8 710 596 706 814 595 476 592 705
8 707 594 479 602 816 709 600 719
8 708 595 475 593 817 711 594 707
8 709 598 478 600 819 715 599 717
8 711 597 477 594 820 714 598 709
8 710 596 476 595 822 713 597 711
8 600 478 601 720 717 599 718 832
8 602 479 603 722 719 600 720 834
8 720 601 480 603 835 721 604 723
8 722 603 482 605 836 723 606 724
8 767 670 725 839 656 553 608 726
8 756 656 726 841 645 542 609 728
8 726 608 727 842 609 487 610 729
8 728 609 729 843 611 488 612 730
8 844 740 624 731 790 691 575 678
8 733 625 504 616 844 740 624 731
8 734 623 502 617 845 739 622 732
8 733 625 739 845 616 504 622 732
8 734 623 738 846 617 502 621 735
8 735 621 737 847 618 500 620 736
8 744 647 527 630 847 737 620 736
8 621 506 627 738 737 626 741 848
8 647 544 626 737 759 662 741 848
8 623 508 628 739 738 627 742 849
8 740 629 585 691 850 743 700 802
8 625 510 629 740 739 628 743 850
8 632 529 647 744 745 648 759 854
8 633 530 648 745 746 649 760 855
8 638 535 649 746 750 653 761 856
8 857 762 650 747 748 651 532 635
8 753 657 539 642 857 762 650 747
8 749 652 763 858 636 533 651 748
8 752 654 764 859 640 536 652 749
8 751 655 537 639 860 765 653 750
8 641 538 655 751 752 654 766 861
8 754 658 540 643 862 769 657 753
8 754 658 770 863 643 540 659 755
8 755 659 771 864 644 541 660 757
8 758 661 768 866 645 542 656 756
8 757 660 772 867 646 543 661 758
8 759 662 773 868 648 545 663 760
8 649 546 663 760 761 664 774 871
8 765 665 547 653 872 775 664 761
8 873 777 666 762 763 668 550 651
8 769 674 556 657 873 777 666 762
8 764 669 779 874 652 551 668 763
8 654 552 667 766 764 669 778 875
8 655 549 665 765 766 667 776 876
8 768 671 782 877 656 553 670 767
8 772 672 783 878 661 554 671 768
8 658 558 674 769 770 675 786 879
8 659 557 675 770 771 673 785 881
8 882 784 672 772 771 673 555 660
8 789 687 571 677 897 798 686 788
8 897 798 686 788 813 705 591 704
8 791 689 573 679 898 799 687 789
8 795 693 803 900 683 577 691 790
8 793 690 574 681 901 801 689 791
8 792 688 800 902 684 578 694 796
8 793 690 800 902 681 574 688 792
8 795 693 577 683 903 804 692 794
8 797 695 804 903 685 579 692 794
8 797 695 579 685 904 805 694 796
8 905 806 697 799 798 696 581 687
8 814 706 806 905 705 592 696 798
8 689 583 697 799 801 699 808 907
8 800 698 809 908 694 588 703 805
8 690 584 699 801 800 698 809 908
8 803 701 810 909 691 585 700 802
8 693 587 702 804 803 701 811 910
8 695 589 703 805 804 702 812 911
8 818 710 814 919 708 595 705 813
8 821 712 815 920 710 596 706 814
8 816 709 600 719 922 819 717 831
8 817 711 594 707 923 820 709 816
8 818 710 595 708 924 822 711 817
8 819 715 599 717 926 827 716 829
8 820 714 598 709 927 826 715 819
8 929 825 713 822 820 714 597 711
8 821 712 596 710 930 824 713 822
8 717 599 718 832 829 716 830 942
8 719 600 720 834 831 717 832 944
8 832 718 601 720 945 833 721 835
8 834 720 603 722 946 835 723 836
8 869 780 838 950 767 670 725 839
8 865 767 839 952 756 656 726 841
8 839 725 840 953 726 608 727 842
8 841 726 842 954 728 609 729 843
8 844 740 691 790 955 850 802 899
8 733 625 740 844 845 739 850 955
8 734 623 739 845 846 738 849 956
8 735 621 738 846 847 737 848 957
8 744 647 737 847 854 759 848 957
8 738 627 742 849 848 741 851 958
8 848 741 851 958 759 662 773 868
8 850 743 700 802 959 852 807 906
8 849 742 628 739 959 852 743 850
8 854 759 868 965 745 648 760 855
8 746 649 760 855 856 761 871 966
8 860 765 653 750 967 872 761 856
8 968 873 762 857 858 763 651 748
8 862 769 657 753 968 873 762 857
8 859 764 874 969 749 652 763 858
8 752 654 766 861 859 764 875 970
8 751 655 765 860 861 766 876 971
8 754 658 769 862 863 770 879 972
8 755 659 770 863 864 771 881 974
8 976 882 772 867 864 771 660 757
8 866 768 877 977 756 656 767 865
8 867 772 878 978 758 661 768 866
8 760 663 773 868 871 774 883 980
8 870 781 837 948 982 890 780 869
8 982 890 780 869 877 782 670 767
8 761 664 774 871 872 775 884 984
8 876 776 665 765 985 885 775 872
8 873 777 668 763 986 887 779 874
8 769 674 777 873 879 786 887 986
8 764 669 778 875 874 779 888 987
8 766 667 776 876 875 778 886 988
8 878 783 892 989 768 671 782 877
8 878 783 672 772 990 893 784 882
8 880 787 675 770 991 896 786 879
8 880 787 895 992 770 675 785 881
8 881 785 894 993 771 673 784 882
8 1006 905 799 898 897 798 687 789
8 919 814 905 1006 813 705 798 897
8 791 689 799 898 901 801 907 1007
8 900 803 909 1009 790 691 802 899
8 795 693 804 903 900 803 910 1010
8 902 800 908 1011 796 694 805 904
8 793 690 801 901 902 800 908 1011
8 797 695 805 904 903 804 911 1012
8 799 697 806 905 907 808 912 1013
8 920 815 912 1013 814 706 806 905
8 802 700 810 909 906 807 913 1014
8 801 699 808 907 908 809 914 1015
8 805 703 809 908 911 812 915 1016
8 803 701 811 910 909 810 916 1017
8 911 812 917 1018 804 702 811 910
8 925 821 920 1030 818 710 814 919
8 928 823 921 1031 821 712 815 920
8 922 819 717 831 1033 926 829 941
8 923 820 709 816 1034 927 819 922
8 1035 929 822 924 923 820 711 817
8 925 821 710 818 1036 930 822 924
8 1038 933 825 929 927 826 714 820
8 926 827 716 829 1039 935 828 939
8 927 826 715 819 1040 934 827 926
8 928 823 712 821 1041 931 824 930
8 1042 932 824 930 929 825 713 822
8 829 716 830 942 939 828 940 1058
8 831 717 832 944 941 829 942 1060
8 942 830 718 832 1061 943 833 945
8 944 832 720 834 1062 945 835 946
8 981 889 947 1064 870 781 837 948
8 948 837 949 1067 869 780 838 950
8 975 869 950 1069 865 767 839 952
8 950 838 951 1070 839 725 840 953
8 952 839 953 1071 841 726 842 954
8 955 850 802 899 1072 959 906 1008
8 956 849 739 845 1072 959 850 955
8 846 738 849 956 957 848 958 1073
8 957 848 958 1073 854 759 868 965
8 849 742 852 959 958 851 961 1076
8 960 853 961 1076 906 807 852 959
8 958 851 961 1076 868 773 883 980
8 960 853 807 906 1077 963 913 1014
8 855 760 868 965 966 871 980 1085
8 856 761 871 966 967 872 984 1086
8 971 876 765 860 1087 985 872 967
8 968 873 763 858 1088 986 874 969
8 862 769 873 968 972 879 986 1088
8 859 764 875 970 969 874 987 1089
8 861 766 876 971 970 875 988 1090
8 973 880 770 863 1091 991 879 972
8 973 880 992 1092 863 770 881 974
8 974 881 993 1093 864 771 882 976
8 979 870 948 1066 1094 982 869 975
8 1094 982 869 975 977 877 767 865
8 978 878 772 867 1095 990 882 976
8 978 878 989 1096 866 768 877 977
8 871 774 883 980 984 884 994 1099
8 983 891 999 1100 870 781 889 981
8 1101 1000 890 982 989 892 782 877
8 983 891 781 870 1101 1000 890 982
8 872 775 884 984 985 885 995 1103
8 876 776 885 985 988 886 996 1104
8 986 887 779 874 1105 998 888 987
8 879 786 887 986 991 896 998 1105
8 875 778 886 988 987 888 997 1106
8 990 893 1002 1107 878 783 892 989
8 1108 1003 893 990 993 894 784 882
8 880 787 896 991 992 895 1005 1109
8 993 894 785 881 1110 1004 895 992
8 898 799 905 1006 1007 907 1013 1120
8 1030 920 1013 1120 919 814 905 1006
8 901 801 907 1007 1011 908 1015 1121
8 899 802 909 1009 1008 906 1014 1122
8 900 803 910 1010 1009 909 1017 1123
8 1012 911 1018 1124 903 804 910 1010
8 904 805 908 1011 1012 911 1016 1125
8 1013 912 1020 1127 907 808 914 1015
8 1031 921 1020 1127 920 815 912 1013
8 1019 918 962 1075 1128 1021 913 1014
8 1128 1021 913 1014 1017 916 810 909
8 1015 914 1022 1129 908 809 915 1016
8 1016 915 1023 1130 911 812 917 1018
8 1018 917 1024 1131 910 811 916 1017
8 1037 928 1031 1148 925 821 920 1030
8 928 823 931 1041 1031 921 1032 1149
8 1033 926 829 941 1151 1039 939 1057
8 1034 927 819 922 1152 1040 926 1033
8 1153 1038 929 1035 1034 927 820 923
8 1154 1042 930 1036 1035 929 822 924
8 1037 928 821 925 1155 1041 930 1036
8 1039 935 828 939 1156 1047 938 1055
8 1157 1043 932 1042 1038 933 825 929
8 1038 933 826 927 1158 1045 934 1040
8 1040 934 827 926 1159 1046 935 1039
8 930 824 932 1042 1041 931 1044 1160
8 1051 936 1048 1165 1175 1052 937 1053
8 1156 1047 938 1055 1053 937 1054 1178
8 939 828 940 1058 1055 938 1056 1181
8 941 829 942 1060 1057 939 1058 1183
8 942 830 943 1061 1058 940 1059 1184
8 1060 942 832 944 1185 1061 945 1062
8 1082 964 1063 1188 981 889 947 1064
8 1097 981 1064 1190 979 870 948 1066
8 1064 947 1065 1191 948 837 949 1067
8 1066 948 1067 1193 975 869 950 1069
8 1067 949 1068 1194 950 838 951 1070
8 1069 950 1070 1195 952 839 953 1071
8 956 849 959 1072 1073 958 1076 1197
8 1074 960 1076 1197 1008 906 959 1072
8 1073 958 1076 1197 965 868 980 1085
8 1074 960 906 1008 1198 1077 1014 1122
8 1133 1026 1079 1199 1019 918 962 1075
8 1077 963 913 1014 1200 1080 962 1075
8 960 853 963 1077 1076 961 1078 1201
8 980 883 961 1076 1099 994 1078 1201
8 1210 1083 964 1082 1100 999 889 981
8 966 871 980 1085 1086 984 1099 1215
8 967 872 984 1086 1087 985 1103 1216
8 971 876 985 1087 1090 988 1104 1217
8 1088 986 874 969 1218 1105 987 1089
8 972 879 986 1088 1091 991 1105 1218
8 970 875 988 1090 1089 987 1106 1219
8 973 880 991 1091 1092 992 1109 1220
8 1093 993 881 974 1221 1110 992 1092
8 1222 1108 990 1095 1093 993 882 976
8 1223 1101 982 1094 1096 989 877 977
8 1098 983 870 979 1223 1101 982 1094
8 1095 990 1107 1224 978 878 989 1096
8 1098 983 1100 1225 979 870 981 1097
8 984 884 994 1099 1103 995 1111 1227
8 1102 1001 1115 1228 983 891 999 1100
8 1101 1000 892 989 1229 1116 1002 1107
8 1102 1001 891 983 1229 1116 1000 1101
8 985 885 995 1103 1104 996 1112 1230
8 988 886 996 1104 1106 997 1113 1231
8 1105 998 888 987 1232 1114 997 1106
8 991 896 998 1105 1109 1005 1114 1232
8 1108 1003 1117 1233 990 893 1002 1107
8 1108 1003 894 993 1233 1117 1004 1110
8 992 895 1005 1109 1110 1004 1118 1234
8 1120 1013 1127 1244 1007 907 1015 1121
8 1148 1031 1127 1244 1030 920 1013 1120
8 1121 1015 1129 1245 1011 908 1016 1125
8 1126 1019 1075 1196 1246 1128 1014 1122
8 1246 1128 1014 1122 1123 1017 909 1009
8 1124 1018 1131 1247 1010 910 1017 1123
8 1125 1016 1130 1248 1012 911 1018 1124
8 1127 1020 1137 1254 1015 914 1022 1129
8 1031 921 1032 1149 1127 1020 1137 1254
8 1134 1027 918 1019 1257 1140 1021 1128
8 1257 1140 1021 1128 1131 1024 916 1017
8 1129 1022 1141 1258 1016 915 1023 1130
8 1130 1023 1142 1259 1018 917 1024 1131
8 1261 1144 1025 1132 1133 1026 1079 1199
8 1255 1138 1025 1132 1135 1028 1144 1261
8 1133 1026 918 1019 1262 1145 1027 1134
8 1136 1029 1139 1256 1263 1146 1028 1135
8 1037 928 1041 1155 1148 1031 1149 1275
8 1041 931 1044 1160 1149 1032 1150 1276
8 1151 1039 939 1057 1278 1156 1055 1180
8 1152 1040 926 1033 1279 1159 1039 1151
8 1153 1038 927 1034 1280 1158 1040 1152
8 1281 1157 1042 1154 1153 1038 929 1035
8 1036 930 1042 1154 1155 1041 1160 1282
8 1283 1164 1046 1159 1156 1047 935 1039
8 1165 1048 1164 1283 1053 937 1047 1156
8 1157 1043 933 1038 1284 1161 1045 1158
8 1157 1043 1161 1284 1042 932 1044 1160
8 1040 934 1046 1159 1158 1045 1163 1285
8 1166 1049 1167 1292 1051 936 1048 1165
8 1166 1049 936 1051 1293 1168 1050 1172
8 1051 936 1052 1175 1172 1050 1173 1306
8 1174 1051 1165 1290 1308 1175 1053 1177
8 1053 937 1054 1178 1175 1052 1176 1309
8 1278 1156 1055 1180 1177 1053 1178 1311
8 1055 938 1056 1181 1178 1054 1179 1312
8 1057 939 1058 1183 1180 1055 1181 1314
8 1058 940 1059 1184 1181 1056 1182 1315
8 1060 942 1061 1185 1183 1058 1184 1316
8 1208 1081 1187 1321 1082 964 1063 1188
8 1209 1082 1188 1322 1097 981 1064 1190
8 1188 1063 1189 1323 1064 947 1065 1191
8 1190 1064 1191 1325 1066 948 1067 1193
8 1191 1065 1192 1326 1067 949 1068 1194
8 1067 1193 1069 950 1194 1327 1195 1070
8 1250 1133 1199 1330 1126 1019 1075 1196
8 1198 1077 1014 1122 1331 1200 1075 1196
8 1074 960 1077 1198 1197 1076 1201 1332
8 1085 980 1076 1197 1215 1099 1201 1332
8 1199 1079 1203 1333 1075 962 1080 1200
8 1132 1025 1119 1243 1199 1079 1203 1333
8 1201 1078 963 1077 1334 1202 1080 1200
8 1099 994 1078 1201 1227 1111 1202 1334
8 1343 1207 1081 1208 1210 1083 964 1082
8 1214 1084 1186 1319 1343 1207 1081 1208
8 1345 1210 1082 1209 1225 1100 981 1097
8 1346 1211 1083 1210 1228 1115 999 1100
8 1086 984 1099 1215 1216 1103 1227 1352
8 1087 985 1103 1216 1217 1104 1230 1353
8 1090 988 1104 1217 1219 1106 1231 1354
8 1218 1105 987 1089 1355 1232 1106 1219
8 1091 991 1105 1218 1220 1109 1232 1355
8 1092 992 1109 1220 1221 1110 1234 1356
8 1222 1108 1233 1357 1095 990 1107 1224
8 1222 1108 993 1093 1357 1233 1110 1221
8 1223 1101 989 1096 1358 1229 1107 1224
8 1226 1102 983 1098 1358 1229 1101 1223
8 1226 1102 1228 1359 1098 983 1100 1225
8 1103 995 1111 1227 1230 1112 1235 1360
8 1107 1002 1117 1233 1229 1116 1240 1362
8 1102 1001 1116 1229 1228 1115 1240 1362
8 1104 996 1112 1230 1231 1113 1236 1363
8 1364 1237 1114 1232 1231 1113 997 1106
8 1109 1005 1114 1232 1234 1118 1238 1365
8 1110 1004 1118 1234 1233 1117 1241 1366
8 1242 1374 1255 1138 1119 1243 1132 1025
8 1244 1127 1254 1376 1121 1015 1129 1245
8 1148 1031 1149 1275 1244 1127 1254 1376
8 1245 1129 1258 1377 1125 1016 1130 1248
8 1251 1134 1019 1126 1378 1257 1128 1246
8 1378 1257 1128 1246 1247 1131 1017 1123
8 1248 1130 1259 1379 1124 1018 1131 1247
8 1261 1381 1250 1133 1132 1249 1330 1199
8 1255 1380 1252 1135 1132 1249 1381 1261
8 1250 1133 1019 1126 1382 1262 1134 1251
8 1253 1136 1256 1385 1384 1263 1135 1252
8 1254 1137 1265 1387 1129 1022 1141 1258
8 1149 1032 1150 1276 1254 1137 1265 1387
8 1028 1135 1255 1138 1139 1256 1388 1266
8 1136 1029 1147 1264 1256 1139 1267 1389
8 1390 1268 1140 1257 1259 1142 1024 1131
8 1260 1143 1027 1134 1390 1268 1140 1257
8 1258 1141 1269 1391 1130 1023 1142 1259
8 1262 1145 1027 1134 1393 1271 1143 1260
8 1261 1144 1026 1133 1394 1272 1145 1262
8 1135 1028 1144 1261 1263 1146 1272 1394
8 1136 1029 1146 1263 1264 1147 1273 1395
8 1155 1041 1160 1282 1275 1149 1276 1405
8 1276 1150 1044 1160 1406 1277 1162 1286
8 1408 1283 1159 1279 1278 1156 1039 1151
8 1290 1165 1283 1408 1177 1053 1156 1278
8 1152 1040 1159 1279 1280 1158 1285 1409
8 1281 1157 1038 1153 1410 1284 1158 1280
8 1281 1157 1284 1410 1154 1042 1160 1282
8 1159 1046 1164 1283 1285 1163 1289 1412
8 1292 1167 1289 1412 1165 1048 1164 1283
8 1158 1045 1163 1285 1284 1161 1288 1413
8 1284 1161 1288 1413 1160 1044 1162 1286
8 1291 1166 1292 1418 1174 1051 1165 1290
8 1291 1166 1051 1174 1419 1293 1172 1305
8 1294 1169 1296 1421 1166 1049 1167 1292
8 1293 1168 1050 1172 1422 1295 1171 1303
8 1294 1169 1049 1166 1423 1297 1168 1293
8 1422 1295 1171 1303 1301 1170 1302 1435
8 1172 1050 1173 1306 1303 1171 1304 1438
8 1174 1051 1175 1308 1305 1172 1306 1440
8 1175 1052 1176 1309 1306 1173 1307 1441
8 1177 1053 1178 1311 1308 1175 1309 1443
8 1178 1054 1179 1312 1309 1176 1310 1444
8 1180 1055 1181 1314 1311 1178 1312 1446
8 1056 1181 1312 1179 1182 1315 1447 1313
8 1183 1058 1184 1316 1314 1181 1315 1448
8 1319 1186 1084 1214 1451 1317 1213 1350
8 1319 1186 1318 1453 1208 1081 1187 1321
8 1321 1187 1320 1456 1188 1063 1189 1323
8 1344 1208 1321 1457 1209 1082 1188 1322
8 1322 1188 1323 1458 1190 1064 1191 1325
8 1323 1189 1324 1459 1191 1065 1192 1326
8 1191 1325 1193 1067 1326 1460 1327 1194
8 1242 1374 1243 1119 1328 1462 1335 1204
8 1330 1199 1333 1465 1196 1075 1200 1331
8 1132 1249 1330 1199 1243 1375 1465 1333
8 1332 1201 1077 1198 1466 1334 1200 1331
8 1215 1099 1201 1332 1352 1227 1334 1466
8 1119 1243 1333 1203 1204 1335 1470 1338
8 1333 1203 1338 1470 1200 1080 1202 1334
8 1227 1111 1202 1334 1360 1235 1338 1470
8 1328 1462 1335 1204 1205 1336 1471 1339
8 1337 1206 1340 1472 1464 1329 1205 1336
8 1346 1211 1342 1479 1210 1083 1207 1343
8 1346 1211 1115 1228 1479 1342 1239 1361
8 1348 1212 1084 1214 1479 1342 1207 1343
8 1480 1343 1208 1344 1345 1210 1082 1209
8 1351 1214 1319 1454 1480 1343 1208 1344
8 1481 1346 1210 1345 1359 1228 1100 1225
8 1348 1212 1347 1483 1214 1084 1213 1350
8 1216 1103 1227 1352 1353 1230 1360 1488
8 1217 1104 1230 1353 1354 1231 1363 1489
8 1490 1364 1232 1355 1354 1231 1106 1219
8 1220 1109 1232 1355 1356 1234 1365 1491
8 1221 1110 1234 1356 1357 1233 1366 1492
8 1224 1107 1233 1357 1358 1229 1362 1493
8 1226 1102 1229 1358 1359 1228 1362 1493
8 1230 1112 1235 1360 1363 1236 1367 1496
8 1361 1239 1115 1228 1497 1371 1240 1362
8 1366 1241 1372 1498 1233 1117 1240 1362
8 1364 1237 1113 1231 1499 1368 1236 1363
8 1364 1237 1368 1499 1232 1114 1238 1365
8 1234 1118 1238 1365 1366 1241 1369 1500
8 1507 1373 1242 1374 1388 1266 1138 1255
8 1508 1374 1243 1375 1380 1255 1132 1249
8 1376 1254 1387 1509 1245 1129 1258 1377
8 1275 1149 1276 1405 1376 1254 1387 1509
8 1377 1258 1391 1510 1248 1130 1259 1379
8 1511 1390 1257 1378 1379 1259 1131 1247
8 1383 1260 1134 1251 1511 1390 1257 1378
8 1252 1135 1256 1385 1380 1255 1388 1512
8 1261 1381 1513 1394 1133 1250 1382 1262
8 1135 1252 1384 1263 1261 1381 1513 1394
8 1382 1262 1134 1251 1514 1393 1260 1383
8 1253 1136 1263 1384 1386 1264 1395 1516
8 1253 1136 1264 1386 1385 1256 1389 1517
8 1387 1265 1397 1519 1258 1141 1269 1391
8 1276 1150 1277 1406 1387 1265 1397 1519
8 1256 1139 1267 1389 1388 1266 1398 1520
8 1264 1147 1274 1396 1389 1267 1399 1521
8 1392 1270 1143 1260 1522 1400 1268 1390
8 1390 1268 1142 1259 1522 1400 1269 1391
8 1392 1270 1401 1523 1260 1143 1271 1393
8 1272 1394 1524 1402 1145 1262 1393 1271
8 1395 1273 1146 1263 1524 1402 1272 1394
8 1273 1395 1264 1147 1403 1526 1396 1274
8 1405 1276 1160 1282 1534 1406 1286 1411
8 1414 1287 1407 1535 1286 1162 1277 1406
8 1279 1159 1283 1408 1409 1285 1412 1537
8 1418 1292 1412 1537 1290 1165 1283 1408
8 1280 1158 1285 1409 1410 1284 1413 1538
8 1410 1284 1413 1538 1282 1160 1286 1411
8 1285 1163 1289 1412 1413 1288 1417 1540
8 1421 1296 1417 1540 1292 1167 1289 1412
8 1414 1287 1162 1286 1541 1416 1288 1413
8 1420 1294 1421 1545 1291 1166 1292 1418
8 1419 1293 1172 1305 1546 1422 1303 1437
8 1420 1294 1166 1291 1547 1423 1293 1419
8 1294 1169 1297 1423 1421 1296 1425 1548
8 1423 1297 1168 1293 1549 1424 1295 1422
8 1301 1170 1298 1427 1422 1295 1424 1549
8 1432 1300 1428 1554 1301 1170 1298 1427
8 1431 1299 1428 1554 1560 1430 1300 1432
8 1563 1433 1300 1432 1435 1302 1170 1301
8 1546 1422 1303 1437 1434 1301 1435 1565
8 1303 1171 1304 1438 1435 1302 1436 1566
8 1305 1172 1306 1440 1437 1303 1438 1568
8 1306 1173 1307 1441 1438 1304 1439 1569
8 1308 1175 1309 1443 1440 1306 1441 1571
8 1309 1176 1310 1444 1441 1307 1442 1572
8 1311 1178 1312 1446 1443 1309 1444 1574
8 1179 1312 1444 1310 1313 1447 1575 1445
8 1314 1181 1315 1448 1446 1312 1447 1576
8 1350 1213 1349 1486 1451 1317 1449 1579
8 1451 1317 1450 1581 1319 1186 1318 1453
8 1454 1319 1214 1351 1582 1451 1350 1487
8 1453 1318 1452 1584 1321 1187 1320 1456
8 1454 1319 1453 1585 1344 1208 1321 1457
8 1456 1320 1455 1586 1323 1189 1324 1459
8 1457 1321 1456 1587 1322 1188 1323 1458
8 1458 1323 1459 1588 1325 1191 1326 1460
8 1205 1336 1464 1329 1328 1462 1590 1461
8 1507 1373 1461 1590 1374 1242 1328 1462
8 1508 1374 1462 1591 1375 1243 1335 1467
8 1337 1206 1329 1464 1473 1341 1463 1594
8 1375 1243 1335 1467 1465 1333 1470 1596
8 1465 1333 1470 1596 1331 1200 1334 1466
8 1352 1227 1334 1466 1488 1360 1470 1596
8 1591 1462 1336 1468 1467 1335 1471 1597
8 1469 1337 1472 1598 1595 1464 1336 1468
8 1471 1339 1474 1600 1335 1204 1338 1470
8 1600 1474 1367 1496 1470 1338 1235 1360
8 1336 1205 1340 1472 1471 1339 1475 1601
8 1337 1206 1341 1473 1472 1340 1476 1602
8 1495 1370 1478 1609 1361 1239 1342 1479
8 1348 1212 1342 1479 1483 1347 1478 1609
8 1481 1346 1479 1610 1345 1210 1343 1480
8 1481 1346 1228 1359 1610 1479 1361 1494
8 1484 1348 1214 1351 1610 1479 1343 1480
8 1483 1347 1482 1612 1350 1213 1349 1486
8 1484 1348 1483 1613 1351 1214 1350 1487
8 1353 1230 1360 1488 1489 1363 1496 1616
8 1490 1364 1231 1354 1617 1499 1363 1489
8 1490 1364 1499 1617 1355 1232 1365 1491
8 1356 1234 1365 1491 1492 1366 1500 1619
8 1492 1366 1498 1620 1357 1233 1362 1493
8 1494 1361 1228 1359 1621 1497 1362 1493
8 1495 1370 1239 1361 1622 1504 1371 1497
8 1363 1236 1367 1496 1499 1368 1501 1623
8 1497 1371 1240 1362 1624 1505 1372 1498
8 1625 1503 1372 1498 1500 1369 1241 1366
8 1365 1238 1368 1499 1500 1369 1502 1626
8 1520 1398 1506 1633 1388 1266 1373 1507
8 1634 1507 1374 1508 1512 1388 1255 1380
8 1509 1387 1519 1635 1377 1258 1391 1510
8 1405 1276 1406 1534 1509 1387 1519 1635
8 1515 1392 1260 1383 1636 1522 1390 1511
8 1511 1390 1259 1379 1636 1522 1391 1510
8 1385 1256 1389 1517 1512 1388 1520 1637
8 1513 1394 1262 1382 1638 1524 1393 1514
8 1395 1516 1638 1524 1263 1384 1513 1394
8 1515 1392 1523 1639 1383 1260 1393 1514
8 1516 1395 1526 1640 1386 1264 1396 1518
8 1386 1264 1396 1518 1517 1389 1521 1641
8 1519 1397 1527 1643 1391 1269 1400 1522
8 1535 1407 1527 1643 1406 1277 1397 1519
8 1389 1267 1399 1521 1520 1398 1528 1644
8 1645 1529 1399 1521 1525 1404 1274 1396
8 1392 1270 1400 1522 1523 1401 1531 1646
8 1524 1402 1271 1393 1648 1532 1401 1523
8 1403 1526 1648 1532 1273 1395 1524 1402
8 1525 1404 1274 1396 1649 1533 1403 1526
8 1539 1414 1535 1657 1411 1286 1406 1534
8 1542 1415 1536 1658 1414 1287 1407 1535
8 1409 1285 1412 1537 1538 1413 1540 1660
8 1545 1421 1540 1660 1418 1292 1412 1537
8 1539 1414 1286 1411 1661 1541 1413 1538
8 1540 1417 1544 1663 1413 1288 1416 1541
8 1421 1296 1425 1548 1540 1417 1544 1663
8 1542 1415 1287 1414 1664 1543 1416 1541
8 1420 1294 1423 1547 1545 1421 1548 1666
8 1547 1423 1293 1419 1667 1549 1422 1546
8 1434 1301 1427 1553 1546 1422 1549 1667
8 1423 1297 1424 1549 1548 1425 1550 1668
8 1551 1426 1550 1668 1427 1298 1424 1549
8 1551 1426 1298 1427 1671 1552 1428 1554
8 1562 1432 1554 1674 1434 1301 1427 1553
8 1431 1299 1429 1558 1554 1428 1555 1675
8 1431 1299 1430 1560 1558 1429 1557 1680
8 1560 1430 1300 1432 1683 1559 1433 1563
8 1561 1431 1554 1674 1684 1560 1432 1562
8 1685 1563 1432 1562 1565 1435 1301 1434
8 1435 1302 1436 1566 1563 1433 1564 1686
8 1437 1303 1438 1568 1565 1435 1566 1688
8 1438 1304 1439 1569 1566 1436 1567 1689
8 1440 1306 1441 1571 1568 1438 1569 1691
8 1441 1307 1442 1572 1569 1439 1570 1692
8 1443 1309 1444 1574 1571 1441 1572 1694
8 1310 1444 1572 1442 1445 1575 1695 1573
8 1446 1312 1447 1576 1574 1444 1575 1696
8 1486 1349 1485 1614 1579 1449 1577 1699
8 1451 1317 1449 1579 1581 1450 1578 1701
8 1487 1350 1486 1615 1582 1451 1579 1702
8 1581 1450 1580 1704 1453 1318 1452 1584
8 1582 1451 1581 1705 1454 1319 1453 1585
8 1584 1452 1583 1706 1456 1320 1455 1586
8 1585 1453 1584 1707 1457 1321 1456 1587
8 1587 1456 1586 1708 1458 1323 1459 1588
8 1633 1506 1589 1710 1507 1373 1461 1590
8 1464 1329 1461 1590 1594 1463 1589 1710
8 1468 1336 1462 1591 1595 1464 1590 1711
8 1634 1507 1590 1711 1508 1374 1462 1591
8 1473 1341 1463 1594 1603 1477 1593 1716
8 1469 1337 1464 1595 1599 1473 1594 1717
8 1471 1597 1467 1335 1600 1718 1596 1470
8 1718 1600 1496 1616 1596 1470 1360 1488
8 1336 1468 1597 1471 1472 1598 1719 1601
8 1469 1337 1473 1599 1598 1472 1602 1720
8 1722 1604 1501 1623 1600 1474 1367 1496
8 1475 1601 1471 1339 1604 1722 1600 1474
8 1602 1476 1605 1723 1472 1340 1475 1601
8 1476 1602 1724 1606 1341 1473 1603 1477
8 1483 1347 1478 1609 1612 1482 1608 1731
8 1495 1370 1504 1622 1609 1478 1608 1731
8 1618 1495 1609 1732 1494 1361 1479 1610
8 1484 1348 1479 1610 1613 1483 1609 1732
8 1486 1349 1482 1612 1614 1485 1611 1733
8 1613 1483 1612 1734 1487 1350 1486 1615
8 1489 1363 1496 1616 1617 1499 1623 1736
8 1491 1365 1499 1617 1619 1500 1626 1737
8 1618 1495 1361 1494 1738 1622 1497 1621
8 1739 1625 1498 1620 1619 1500 1366 1492
8 1621 1497 1362 1493 1740 1624 1498 1620
8 1742 1631 1504 1622 1624 1505 1371 1497
8 1743 1628 1502 1626 1623 1501 1368 1499
8 1744 1630 1505 1624 1625 1503 1372 1498
8 1745 1629 1503 1625 1626 1502 1369 1500
8 1520 1398 1528 1644 1633 1506 1632 1751
8 1637 1520 1633 1752 1512 1388 1507 1634
8 1635 1519 1643 1753 1510 1391 1522 1636
8 1657 1535 1643 1753 1534 1406 1519 1635
8 1515 1392 1522 1636 1639 1523 1646 1754
8 1517 1389 1521 1641 1637 1520 1644 1755
8 1524 1638 1756 1648 1393 1514 1639 1523
8 1640 1526 1395 1516 1756 1648 1524 1638
8 1642 1525 1396 1518 1757 1649 1526 1640
8 1758 1645 1521 1641 1642 1525 1396 1518
8 1646 1531 1400 1522 1760 1650 1527 1643
8 1535 1407 1536 1658 1643 1527 1650 1760
8 1521 1399 1529 1645 1644 1528 1651 1761
8 1647 1530 1652 1762 1525 1404 1529 1645
8 1401 1523 1648 1532 1531 1646 1763 1655
8 1525 1404 1533 1649 1647 1530 1654 1765
8 1533 1649 1766 1656 1403 1526 1648 1532
8 1662 1542 1658 1774 1539 1414 1535 1657
8 1542 1415 1543 1664 1658 1536 1659 1775
8 1660 1540 1663 1777 1538 1413 1541 1661
8 1545 1421 1548 1666 1660 1540 1663 1777
8 1662 1542 1414 1539 1778 1664 1541 1661
8 1664 1543 1416 1541 1779 1665 1544 1663
8 1548 1425 1550 1668 1663 1544 1665 1779
8 1547 1423 1549 1667 1666 1548 1668 1781
8 1670 1551 1668 1781 1553 1427 1549 1667
8 1551 1426 1552 1671 1668 1550 1669 1782
8 1670 1551 1427 1553 1784 1671 1554 1674
8 1675 1555 1672 1785 1554 1428 1552 1671
8 1678 1556 1673 1789 1558 1429 1555 1675
8 1561 1431 1558 1681 1674 1554 1675 1790
8 1794 1677 1556 1678 1680 1557 1429 1558
8 1560 1430 1559 1683 1680 1557 1679 1797
8 1561 1431 1560 1684 1681 1558 1680 1798
8 1563 1433 1564 1686 1683 1559 1682 1800
8 1684 1560 1432 1562 1801 1683 1563 1685
8 1565 1435 1566 1688 1685 1563 1686 1802
8 1566 1436 1567 1689 1686 1564 1687 1803
8 1568 1438 1569 1691 1688 1566 1689 1805
8 1569 1439 1570 1692 1689 1567 1690 1806
8 1571 1441 1572 1694 1691 1569 1692 1808
8 1442 1572 1692 1570 1573 1695 1809 1693
8 1574 1444 1575 1696 1694 1572 1695 1810
8 1614 1485 1592 1712 1699 1577 1697 1813
8 1579 1449 1577 1699 1701 1578 1698 1815
8 1615 1486 1614 1735 1702 1579 1699 1816
8 1701 1578 1700 1818 1581 1450 1580 1704
8 1582 1451 1579 1702 1705 1581 1701 1819
8 1704 1580 1703 1820 1584 1452 1583 1706
8 1705 1581 1704 1821 1585 1453 1584 1707
8 1707 1584 1706 1822 1587 1456 1586 1708
8 1710 1589 1506 1633 1824 1709 1632 1751
8 1594 1463 1589 1710 1716 1593 1709 1824
8 1752 1633 1710 1825 1634 1507 1590 1711
8 1595 1464 1590 1711 1717 1594 1710 1825
8 1830 1714 1592 1712 1733 1611 1485 1614
8 1603 1477 1593 1716 1725 1607 1715 1834
8 1599 1473 1594 1717 1721 1603 1716 1835
8 1837 1722 1623 1736 1718 1600 1496 1616
8 1719 1601 1722 1837 1597 1471 1600 1718
8 1602 1720 1598 1472 1723 1838 1719 1601
8 1720 1602 1473 1599 1839 1724 1603 1721
8 1723 1605 1726 1840 1601 1475 1604 1722
8 1840 1726 1628 1743 1722 1604 1501 1623
8 1724 1606 1727 1841 1602 1476 1605 1723
8 1725 1607 1728 1842 1603 1477 1606 1724
8 1612 1482 1608 1731 1733 1611 1730 1849
8 1741 1627 1730 1849 1622 1504 1608 1731
8 1613 1483 1609 1732 1734 1612 1731 1850
8 1618 1495 1622 1738 1732 1609 1731 1850
8 1615 1486 1612 1734 1735 1614 1733 1851
8 1852 1743 1626 1737 1736 1623 1499 1617
8 1853 1745 1625 1739 1737 1626 1500 1619
8 1855 1742 1622 1738 1740 1624 1497 1621
8 1856 1744 1624 1740 1739 1625 1498 1620
8 1741 1627 1504 1622 1857 1746 1631 1742
8 1742 1631 1505 1624 1858 1749 1630 1744
8 1859 1747 1629 1745 1743 1628 1502 1626
8 1860 1748 1630 1744 1745 1629 1503 1625
8 1644 1528 1651 1761 1751 1632 1750 1865
8 1637 1520 1644 1755 1752 1633 1751 1866
8 1754 1646 1522 1636 1867 1760 1643 1753
8 1657 1535 1658 1774 1753 1643 1760 1867
8 1639 1523 1646 1754 1756 1648 1763 1868
8 1641 1521 1645 1758 1755 1644 1761 1869
8 1757 1649 1526 1640 1870 1766 1648 1756
8 1642 1525 1649 1757 1759 1647 1765 1871
8 1759 1647 1762 1872 1642 1525 1645 1758
8 1760 1650 1767 1874 1646 1531 1655 1763
8 1658 1536 1659 1775 1760 1650 1767 1874
8 1762 1652 1768 1875 1645 1529 1651 1761
8 1764 1653 1769 1876 1647 1530 1652 1762
8 1656 1766 1877 1773 1532 1648 1763 1655
8 1771 1879 1765 1654 1653 1764 1647 1530
8 1533 1649 1765 1654 1656 1766 1880 1772
8 1662 1542 1664 1778 1774 1658 1775 1887
8 1664 1543 1665 1779 1775 1659 1776 1888
8 1778 1664 1541 1661 1890 1779 1663 1777
8 1666 1548 1668 1781 1777 1663 1779 1890
8 1782 1669 1780 1891 1668 1550 1665 1779
8 1670 1551 1671 1784 1781 1668 1782 1893
8 1671 1552 1672 1785 1782 1669 1783 1894
8 1790 1675 1785 1896 1674 1554 1671 1784
8 1675 1555 1673 1789 1785 1672 1786 1897
8 1792 1676 1788 1903 1678 1556 1673 1789
8 1795 1678 1789 1904 1681 1558 1675 1790
8 1792 1676 1556 1678 1906 1791 1677 1794
8 1680 1557 1679 1797 1794 1677 1793 1909
8 1910 1794 1678 1795 1798 1680 1558 1681
8 1683 1559 1682 1800 1797 1679 1796 1912
8 1684 1560 1683 1801 1798 1680 1797 1913
8 1686 1564 1687 1803 1800 1682 1799 1915
8 1685 1563 1686 1802 1801 1683 1800 1916
8 1688 1566 1689 1805 1802 1686 1803 1917
8 1689 1567 1690 1806 1803 1687 1804 1918
8 1691 1569 1692 1808 1805 1689 1806 1920
8 1692 1570 1693 1809 1806 1690 1807 1921
8 1694 1572 1695 1810 1808 1692 1809 1922
8 1829 1713 1811 1926 1712 1592 1697 1813
8 1813 1697 1812 1928 1699 1577 1698 1815
8 1735 1614 1712 1828 1816 1699 1813 1929
8 1815 1698 1814 1931 1701 1578 1700 1818
8 1702 1579 1699 1816 1819 1701 1815 1932
8 1818 1700 1817 1933 1704 1580 1703 1820
8 1819 1701 1818 1934 1705 1581 1704 1821
8 1821 1704 1820 1935 1707 1584 1706 1822
8 1824 1709 1632 1751 1937 1823 1750 1865
8 1716 1593 1709 1824 1834 1715 1823 1937
8 1825 1710 1633 1752 1938 1824 1751 1866
8 1717 1594 1710 1825 1835 1716 1824 1938
8 1945 1830 1712 1828 1851 1733 1614 1735
8 1830 1714 1831 1946 1712 1592 1713 1829
8 1947 1832 1714 1830 1849 1730 1611 1733
8 1843 1729 1607 1725 1950 1833 1715 1834
8 1721 1603 1716 1835 1836 1725 1834 1951
8 1836 1725 1842 1953 1721 1603 1724 1839
8 1723 1838 1719 1601 1840 1954 1837 1722
8 1954 1840 1743 1852 1837 1722 1623 1736
8 1724 1839 1720 1602 1841 1955 1838 1723
8 1841 1727 1844 1956 1723 1605 1726 1840
8 1956 1844 1747 1859 1840 1726 1628 1743
8 1728 1842 1724 1606 1845 1957 1841 1727
8 1725 1607 1729 1843 1842 1728 1846 1958
8 1741 1627 1746 1857 1849 1730 1848 1965
8 1734 1612 1731 1850 1851 1733 1849 1966
8 1854 1741 1849 1966 1738 1622 1731 1850
8 1967 1859 1745 1853 1852 1743 1626 1737
8 1968 1860 1744 1856 1853 1745 1625 1739
8 1854 1741 1622 1738 1969 1857 1742 1855
8 1855 1742 1624 1740 1970 1858 1744 1856
8 1857 1746 1631 1742 1971 1861 1749 1858
8 1858 1749 1630 1744 1972 1863 1748 1860
8 1859 1747 1862 1973 1745 1629 1748 1860
8 1875 1768 1864 1977 1761 1651 1750 1865
8 1755 1644 1761 1869 1866 1751 1865 1978
8 1867 1760 1874 1979 1754 1646 1763 1868
8 1774 1658 1775 1887 1867 1760 1874 1979
8 1870 1766 1648 1756 1980 1877 1763 1868
8 1872 1762 1875 1981 1758 1645 1761 1869
8 1757 1649 1766 1870 1871 1765 1880 1982
8 1983 1879 1764 1873 1871 1765 1647 1759
8 1873 1764 1876 1984 1759 1647 1762 1872
8 1877 1773 1655 1763 1986 1881 1767 1874
8 1775 1659 1776 1888 1874 1767 1881 1986
8 1876 1769 1882 1987 1762 1652 1768 1875
8 1878 1770 1883 1988 1764 1653 1769 1876
8 1880 1772 1656 1766 1989 1886 1773 1877
8 1878 1770 1653 1764 1990 1884 1771 1879
8 1765 1654 1772 1880 1879 1771 1885 1991
8 1778 1664 1779 1890 1887 1775 1888 1997
8 1998 1889 1776 1888 1891 1780 1665 1779
8 1893 1782 1891 2000 1781 1668 1779 1890
8 1894 1783 1892 2001 1782 1669 1780 1891
8 1784 1671 1785 1896 1893 1782 1894 2003
8 1897 1786 1895 2004 1785 1672 1783 1894
8 1790 1675 1789 1904 1896 1785 1897 2006
8 1901 1787 1898 2007 1789 1673 1786 1897
8 1903 1788 1900 2013 1789 1673 1787 1901
8 1792 1676 1791 1906 1903 1788 1902 2016
8 1907 1792 1903 2017 1795 1678 1789 1904
8 1906 1791 1677 1794 2019 1905 1793 1909
8 1907 1792 1678 1795 2020 1906 1794 1910
8 1797 1679 1796 1912 1909 1793 1908 2022
8 1798 1680 1797 1913 1910 1794 1909 2023
8 1800 1682 1799 1915 1912 1796 1911 2025
8 1801 1683 1800 1916 1913 1797 1912 2026
8 1803 1687 1804 1918 1915 1799 1914 2028
8 1802 1686 1803 1917 1916 1800 1915 2029
8 1805 1689 1806 1920 1917 1803 1918 2030
8 1806 1690 1807 1921 1918 1804 1919 2031
8 1808 1692 1809 1922 1920 1806 1921 2032
8 1939 1826 1924 2037 1829 1713 1811 1926
8 1926 1811 1925 2039 1813 1697 1812 1928
8 1944 1829 1926 2040 1828 1712 1813 1929
8 1928 1812 1927 2042 1815 1698 1814 1931
8 1929 1813 1928 2043 1816 1699 1815 1932
8 1931 1814 1930 2044 1818 1700 1817 1933
8 1932 1815 1931 2045 1819 1701 1818 1934
8 1934 1818 1933 2046 1821 1704 1820 1935
8 2048 1936 1823 1937 1977 1864 1750 1865
8 1950 1833 1715 1834 2048 1936 1823 1937
8 1938 1824 1751 1866 2049 1937 1865 1978
8 1835 1716 1824 1938 1951 1834 1937 2049
8 1939 1826 1713 1829 2053 1942 1831 1946
8 1940 1827 1923 2035 2053 1942 1826 1939
8 1945 1830 1946 2058 1828 1712 1829 1944
8 2059 1947 1830 1945 1966 1849 1733 1851
8 1947 1832 1730 1849 2060 1948 1848 1965
8 1947 1832 1948 2060 1830 1714 1831 1946
8 1959 1847 1729 1843 2063 1949 1833 1950
8 1952 1843 1725 1836 2064 1950 1834 1951
8 1836 1725 1843 1952 1953 1842 1958 2066
8 1953 1842 1957 2067 1839 1724 1841 1955
8 1841 1955 1838 1723 1956 2068 1954 1840
8 2068 1956 1859 1967 1954 1840 1743 1852
8 1956 1844 1960 2069 1859 1747 1862 1973
8 1845 1957 1841 1727 1960 2069 1956 1844
8 1728 1842 1957 1845 1846 1958 2071 1961
8 1962 2072 1959 1847 1846 1958 1843 1729
8 1971 1861 1964 2077 1857 1746 1848 1965
8 1854 1741 1857 1969 1966 1849 1965 2078
8 1967 1859 1973 2079 1853 1745 1860 1968
8 1970 1858 1744 1856 2080 1972 1860 1968
8 1969 1857 1742 1855 2081 1971 1858 1970
8 1971 1861 1749 1858 2082 1974 1863 1972
8 1973 1862 1975 2083 1860 1748 1863 1972
8 1987 1882 1976 2086 1875 1768 1864 1977
8 1981 1875 1977 2087 1869 1761 1865 1978
8 1980 1877 1763 1868 2088 1986 1874 1979
8 1887 1775 1888 1997 1979 1874 1986 2088
8 1880 1982 2089 1989 1766 1870 1980 1877
8 1984 1876 1987 2090 1872 1762 1875 1981
8 1765 1871 1983 1879 1880 1982 2091 1991
8 1985 1878 1764 1873 2092 1990 1879 1983
8 1985 1878 1988 2093 1873 1764 1876 1984
8 2094 1992 1881 1986 1998 1889 1776 1888
8 1986 1881 1992 2094 1877 1773 1886 1989
8 1988 1883 1993 2095 1876 1769 1882 1987
8 1878 1770 1884 1990 1988 1883 1994 2096
8 1991 1885 1772 1880 2097 1996 1886 1989
8 1879 1771 1885 1991 1990 1884 1995 2098
8 2103 1998 1888 1997 2000 1891 1779 1890
8 2104 1999 1889 1998 2001 1892 1780 1891
8 2003 1894 2001 2106 1893 1782 1891 2000
8 2004 1895 2002 2107 1894 1783 1892 2001
8 2006 1897 2004 2109 1896 1785 1894 2003
8 2007 1898 2005 2110 1897 1786 1895 2004
8 2014 1901 2007 2112 1904 1789 1897 2006
8 2011 1899 2008 2113 1901 1787 1898 2007
8 2119 2010 1899 2011 2013 1900 1787 1901
8 2016 1902 2012 2122 1903 1788 1900 2013
8 2017 1903 2013 2123 1904 1789 1901 2014
8 1906 1791 1905 2019 2016 1902 2015 2125
8 1907 1792 1906 2020 2017 1903 2016 2126
8 1909 1793 1908 2022 2019 1905 2018 2128
8 2020 1906 1794 1910 2129 2019 1909 2023
8 1912 1796 1911 2025 2022 1908 2021 2131
8 1913 1797 1912 2026 2023 1909 2022 2132
8 1915 1799 1914 2028 2025 1911 2024 2134
8 1916 1800 1915 2029 2026 1912 2025 2135
8 1918 1804 1919 2031 2028 1914 2027 2136
8 1917 1803 1918 2030 2029 1915 2028 2137
8 1920 1806 1921 2032 2030 1918 2031 2138
8 1940 1827 1941 2054 2035 1923 2033 2140
8 2035 1923 2034 2143 1939 1826 1924 2037
8 2037 1924 2036 2146 1926 1811 1925 2039
8 2051 1939 2037 2147 1944 1829 1926 2040
8 2039 1925 2038 2149 1928 1812 1927 2042
8 2040 1926 2039 2150 1929 1813 1928 2043
8 2042 1927 2041 2151 1931 1814 1930 2044
8 2043 1928 2042 2152 1932 1815 1931 2045
8 2045 1931 2044 2153 1934 1818 1933 2046
8 2155 2047 1936 2048 2086 1976 1864 1977
8 2063 1949 1833 1950 2155 2047 1936 2048
8 2156 2048 1937 2049 2087 1977 1865 1978
8 2064 1950 1834 1951 2156 2048 1937 2049
8 2051 1939 1829 1944 2160 2053 1946 2058
8 2052 1940 2035 2144 2160 2053 1939 2051
8 2053 1942 1831 1946 2163 2057 1948 2060
8 2055 1943 1827 1940 2163 2057 1942 2053
8 2055 1943 2056 2164 1940 1827 1941 2054
8 2059 1947 1849 1966 2167 2060 1965 2078
8 2059 1947 2060 2167 1945 1830 1946 2058
8 2077 1964 2061 2168 1965 1848 1948 2060
8 2070 1963 1847 1959 2170 2062 1949 2063
8 2065 1959 1843 1952 2171 2063 1950 2064
8 2173 2072 1958 2066 2065 1959 1843 1952
8 1953 1842 1958 2066 2067 1957 2071 2174
8 2068 1956 2069 2175 1967 1859 1973 2079
8 2067 1957 2069 2175 1955 1841 1956 2068
8 1845 1957 2069 1960 1961 2071 2176 2073
8 2069 1960 2073 2176 1973 1862 1975 2083
8 2070 1963 2075 2177 1959 1847 1962 2072
8 1846 1958 2071 1961 1962 2072 2178 2074
8 2077 1964 1861 1971 2182 2076 1974 2082
8 2081 1971 2077 2183 1969 1857 1965 2078
8 2079 1973 2083 2184 1968 1860 1972 2080
8 2081 1971 1858 1970 2185 2082 1972 2080
8 2083 1975 2084 2186 1972 1863 1974 2082
8 2086 1976 1882 1987 2189 2085 1993 2095
8 2090 1987 2086 2190 1981 1875 1977 2087
8 2191 2094 1986 2088 2103 1998 1888 1997
8 2088 1986 2094 2191 1980 1877 1989 2089
8 1991 2091 2192 2097 1880 1982 2089 1989
8 2093 1988 2095 2193 1984 1876 1987 2090
8 1879 1983 2092 1990 1991 2091 2194 2098
8 1985 1878 1990 2092 2093 1988 2096 2195
8 2097 1996 1886 1989 2196 2099 1992 2094
8 2196 2099 1992 2094 2104 1999 1889 1998
8 1994 2096 1988 1883 2100 2197 2095 1993
8 2096 1994 1884 1990 2198 2101 1995 2098
8 1995 2098 2199 2102 1885 1991 2097 1996
8 2203 2104 1998 2103 2106 2001 1891 2000
8 2107 2002 2105 2204 2001 1892 1999 2104
8 2109 2004 2107 2206 2003 1894 2001 2106
8 2110 2005 2108 2207 2004 1895 2002 2107
8 2112 2007 2110 2209 2006 1897 2004 2109
8 2113 2008 2111 2210 2007 1898 2005 2110
8 2120 2011 2113 2212 2014 1901 2007 2112
8 2117 2009 2114 2213 2011 1899 2008 2113
8 2219 2116 2009 2117 2119 2010 1899 2011
8 2222 2118 2010 2119 2122 2012 1900 2013
8 2223 2119 2011 2120 2123 2013 1901 2014
8 2016 1902 2015 2125 2122 2012 2121 2225
8 2126 2016 2122 2226 2017 1903 2013 2123
8 2019 1905 2018 2128 2125 2015 2124 2228
8 2020 1906 2019 2129 2126 2016 2125 2229
8 2022 1908 2021 2131 2128 2018 2127 2231
8 2023 1909 2022 2132 2129 2019 2128 2232
8 2025 1911 2024 2134 2131 2021 2130 2234
8 2026 1912 2025 2135 2132 2022 2131 2235
8 1914 2028 2134 2024 2027 2136 2236 2133
8 2029 1915 2028 2137 2135 2025 2134 2237
8 2030 1918 2031 2138 2137 2028 2136 2238
8 2157 2050 2139 2240 2054 1941 2033 2140
8 2052 1940 2054 2161 2144 2035 2140 2242
8 2140 2033 2141 2243 2035 1923 2034 2143
8 2143 2034 2142 2246 2037 1924 2036 2146
8 2144 2035 2143 2247 2051 1939 2037 2147
8 2146 2036 2145 2249 2039 1925 2038 2149
8 2147 2037 2146 2250 2040 1926 2039 2150
8 2149 2038 2148 2251 2042 1927 2041 2151
8 2150 2039 2149 2252 2043 1928 2042 2152
8 2152 2042 2151 2253 2045 1931 2044 2153
8 2255 2154 2047 2155 2189 2085 1976 2086
8 2170 2062 1949 2063 2255 2154 2047 2155
8 2256 2155 2048 2156 2190 2086 1977 2087
8 2171 2063 1950 2064 2256 2155 2048 2156
8 2258 2159 2050 2157 2164 2056 1941 2054
8 2160 2053 1946 2058 2262 2163 2060 2167
8 2162 2055 1940 2052 2262 2163 2053 2160
8 2162 2055 2164 2263 2052 1940 2054 2161
8 2163 2057 1948 2060 2264 2165 2061 2168
8 2055 1943 2057 2163 2164 2056 2165 2264
8 2182 2076 2166 2268 2077 1964 2061 2168
8 2183 2077 2168 2269 2078 1965 2060 2167
8 2070 1963 2062 2170 2177 2075 2169 2271
8 2172 2070 1959 2065 2272 2170 2063 2171
8 2172 2070 2177 2273 2065 1959 2072 2173
8 2066 1958 2072 2173 2174 2071 2178 2274
8 2067 1957 2071 2174 2175 2069 2176 2275
8 2175 2069 2176 2275 2079 1973 2083 2184
8 2071 1961 2074 2178 2176 2073 2179 2276
8 2176 2073 2179 2276 2083 1975 2084 2186
8 2072 1962 2075 2177 2178 2074 2180 2277
8 2182 2076 1974 2082 2280 2181 2084 2186
8 2183 2077 1971 2081 2281 2182 2082 2185
8 2184 2083 2186 2282 2080 1972 2082 2185
8 2189 2085 1993 2095 2285 2188 2100 2197
8 2190 2086 1987 2090 2286 2189 2095 2193
8 2192 2097 1989 2089 2287 2196 2094 2191
8 2287 2196 2094 2191 2203 2104 1998 2103
8 2194 2098 1991 2091 2288 2199 2097 2192
8 2195 2096 2197 2289 2093 1988 2095 2193
8 2096 2195 2290 2198 1990 2092 2194 2098
8 2097 1996 2099 2196 2199 2102 2200 2291
8 2196 2099 1999 2104 2291 2200 2105 2204
8 2100 2197 2292 2201 1994 2096 2198 2101
8 1995 2098 2198 2101 2102 2199 2293 2202
8 2206 2107 2204 2296 2106 2001 2104 2203
8 2207 2108 2205 2297 2107 2002 2105 2204
8 2209 2110 2207 2299 2109 2004 2107 2206
8 2210 2111 2208 2300 2110 2005 2108 2207
8 2212 2113 2210 2302 2112 2007 2110 2209
8 2213 2114 2211 2303 2113 2008 2111 2210
8 2220 2117 2213 2305 2120 2011 2113 2212
8 2216 2115 2214 2306 2117 2009 2114 2213
8 2216 2115 2009 2117 2311 2217 2116 2219
8 2219 2116 2010 2119 2314 2218 2118 2222
8 2315 2219 2117 2220 2223 2119 2011 2120
8 2122 2012 2121 2225 2222 2118 2221 2317
8 2318 2222 2119 2223 2226 2122 2013 2123
8 2125 2015 2124 2228 2225 2121 2224 2320
8 2126 2016 2125 2229 2226 2122 2225 2321
8 2128 2018 2127 2231 2228 2124 2227 2323
8 2129 2019 2128 2232 2229 2125 2228 2324
8 2131 2021 2130 2234 2231 2127 2230 2326
8 2132 2022 2131 2235 2232 2128 2231 2327
8 2134 2024 2133 2236 2234 2130 2233 2328
8 2135 2025 2134 2237 2235 2131 2234 2329
8 2137 2028 2136 2238 2237 2134 2236 2330
8 2157 2050 2158 2259 2240 2139 2239 2332
8 2257 2157 2240 2334 2161 2054 2140 2242
8 2240 2139 2241 2335 2140 2033 2141 2243
8 2242 2140 2243 2337 2144 2035 2143 2247
8 2243 2141 2244 2338 2143 2034 2142 2246
8 2246 2142 2245 2341 2146 2036 2145 2249
8 2247 2143 2246 2342 2147 2037 2146 2250
8 2249 2145 2248 2343 2149 2038 2148 2251
8 2250 2146 2249 2344 2150 2039 2149 2252
8 2252 2149 2251 2345 2152 2042 2151 2253
8 2169 2271 2347 2254 2062 2170 2255 2154
8 2189 2085 2188 2285 2255 2154 2254 2347
8 2348 2255 2155 2256 2286 2189 2086 2190
8 2272 2170 2063 2171 2348 2255 2155 2256
8 2349 2258 2157 2257 2263 2164 2054 2161
8 2258 2159 2261 2351 2157 2050 2158 2259
8 2258 2159 2056 2164 2351 2261 2165 2264
8 2262 2163 2060 2167 2355 2264 2168 2269
8 2162 2055 2163 2262 2263 2164 2264 2355
8 2357 2266 2165 2264 2268 2166 2061 2168
8 2268 2166 2076 2182 2361 2267 2181 2280
8 2281 2182 2268 2362 2183 2077 2168 2269
8 2271 2169 2270 2364 2177 2075 2180 2277
8 2172 2070 2170 2272 2273 2177 2271 2365
8 2072 2173 2274 2178 2177 2273 2366 2277
8 2071 2174 2275 2176 2178 2274 2367 2276
8 2275 2176 2276 2367 2184 2083 2186 2282
8 2283 2187 2084 2186 2368 2278 2179 2276
8 2178 2074 2180 2277 2276 2179 2278 2368
8 2283 2187 2279 2370 2186 2084 2181 2280
8 2281 2182 2082 2185 2371 2280 2186 2282
8 2188 2285 2374 2284 2100 2197 2292 2201
8 2286 2189 2095 2193 2375 2285 2197 2289
8 2192 2097 2196 2287 2288 2199 2291 2376
8 2287 2196 2104 2203 2376 2291 2204 2296
8 2194 2098 2199 2288 2290 2198 2293 2377
8 2289 2197 2096 2195 2378 2292 2198 2290
8 2291 2200 2105 2204 2379 2294 2205 2297
8 2199 2102 2200 2291 2293 2202 2294 2379
8 2198 2101 2202 2293 2292 2201 2295 2380
8 2299 2207 2297 2383 2206 2107 2204 2296
8 2300 2208 2298 2384 2207 2108 2205 2297
8 2302 2210 2300 2386 2209 2110 2207 2299
8 2303 2211 2301 2387 2210 2111 2208 2300
8 2305 2213 2303 2389 2212 2113 2210 2302
8 2306 2214 2304 2390 2213 2114 2211 2303
8 2310 2216 2306 2392 2220 2117 2213 2305
8 2308 2215 2307 2393 2216 2115 2214 2306
8 2308 2215 2115 2216 2396 2309 2217 2311
8 2310 2216 2117 2220 2398 2311 2219 2315
8 2311 2217 2116 2219 2399 2312 2218 2314
8 2314 2218 2118 2222 2402 2313 2221 2317
8 2315 2219 2119 2223 2403 2314 2222 2318
8 2225 2121 2224 2320 2317 2221 2316 2405
8 2226 2122 2225 2321 2318 2222 2317 2406
8 2228 2124 2227 2323 2320 2224 2319 2408
8 2229 2125 2228 2324 2321 2225 2320 2409
8 2231 2127 2230 2326 2323 2227 2322 2411
8 2232 2128 2231 2327 2324 2228 2323 2412
8 2234 2130 2233 2328 2326 2230 2325 2413
8 2235 2131 2234 2329 2327 2231 2326 2414
8 2237 2134 2236 2330 2329 2234 2328 2415
8 2259 2158 2260 2352 2332 2239 2331 2417
8 2257 2157 2259 2350 2334 2240 2332 2419
8 2240 2139 2239 2332 2335 2241 2333 2420
8 2334 2240 2335 2422 2242 2140 2243 2337
8 2335 2241 2336 2423 2243 2141 2244 2338
8 2337 2243 2338 2425 2247 2143 2246 2342
8 2338 2244 2339 2426 2246 2142 2245 2341
8 2341 2245 2340 2428 2249 2145 2248 2343
8 2342 2246 2341 2429 2250 2146 2249 2344
8 2344 2249 2343 2430 2252 2149 2251 2345
8 2188 2285 2347 2254 2284 2374 2432 2346
8 2347 2254 2346 2432 2271 2169 2270 2364
8 2365 2271 2170 2272 2433 2347 2255 2348
8 2286 2189 2285 2375 2348 2255 2347 2433
8 2349 2258 2351 2435 2257 2157 2259 2350
8 2349 2258 2164 2263 2435 2351 2264 2355
8 2259 2158 2261 2351 2352 2260 2354 2437
8 2356 2265 2354 2437 2264 2165 2261 2351
8 2441 2357 2264 2355 2362 2268 2168 2269
8 2356 2265 2165 2264 2442 2358 2266 2357
8 2443 2359 2266 2357 2361 2267 2166 2268
8 2370 2279 2360 2446 2280 2181 2267 2361
8 2362 2268 2182 2281 2447 2361 2280 2371
8 2180 2277 2368 2278 2270 2364 2449 2363
8 2271 2365 2273 2177 2364 2450 2366 2277
8 2372 2283 2186 2282 2451 2368 2276 2367
8 2178 2274 2367 2276 2277 2366 2451 2368
8 2283 2187 2278 2368 2370 2279 2369 2452
8 2372 2283 2370 2453 2282 2186 2280 2371
8 2284 2374 2455 2373 2201 2292 2380 2295
8 2375 2285 2197 2289 2456 2374 2292 2378
8 2376 2291 2204 2296 2457 2379 2297 2383
8 2288 2199 2291 2376 2377 2293 2379 2457
8 2198 2290 2378 2292 2293 2377 2458 2380
8 2293 2202 2294 2379 2380 2295 2381 2459
8 2384 2298 2381 2459 2297 2205 2294 2379
8 2386 2300 2384 2463 2299 2207 2297 2383
8 2387 2301 2385 2464 2300 2208 2298 2384
8 2389 2303 2387 2466 2302 2210 2300 2386
8 2390 2304 2388 2467 2303 2211 2301 2387
8 2392 2306 2390 2469 2305 2213 2303 2389
8 2393 2307 2391 2470 2306 2214 2304 2390
8 2395 2308 2393 2472 2310 2216 2306 2392
8 2308 2215 2309 2396 2393 2307 2394 2473
8 2395 2308 2216 2310 2475 2396 2311 2398
8 2396 2309 2217 2311 2476 2397 2312 2399
8 2398 2311 2219 2315 2478 2399 2314 2403
8 2399 2312 2218 2314 2479 2400 2313 2402
8 2317 2221 2316 2405 2402 2313 2401 2482
8 2403 2314 2222 2318 2483 2402 2317 2406
8 2320 2224 2319 2408 2405 2316 2404 2485
8 2321 2225 2320 2409 2406 2317 2405 2486
8 2323 2227 2322 2411 2408 2319 2407 2488
8 2324 2228 2323 2412 2409 2320 2408 2489
8 2326 2230 2325 2413 2411 2322 2410 2490
8 2327 2231 2326 2414 2412 2323 2411 2491
8 2329 2234 2328 2415 2414 2326 2413 2492
8 2417 2331 2260 2352 2494 2416 2353 2438
8 2350 2259 2352 2436 2419 2332 2417 2496
8 2332 2239 2331 2417 2420 2333 2418 2497
8 2334 2240 2332 2419 2422 2335 2420 2499
8 2420 2333 2421 2500 2335 2241 2336 2423
8 2422 2335 2423 2502 2337 2243 2338 2425
8 2423 2336 2424 2503 2338 2244 2339 2426
8 2425 2338 2426 2505 2342 2246 2341 2429
8 2426 2339 2427 2506 2341 2245 2340 2428
8 2429 2341 2428 2507 2344 2249 2343 2430
8 2432 2346 2284 2374 2509 2431 2373 2455
8 2432 2346 2431 2509 2364 2270 2363 2449
8 2375 2285 2374 2456 2433 2347 2432 2510
8 2347 2433 2365 2271 2432 2510 2450 2364
8 2350 2259 2351 2435 2436 2352 2437 2514
8 2440 2356 2437 2514 2355 2264 2351 2435
8 2352 2260 2354 2437 2438 2353 2439 2516
8 2356 2265 2358 2442 2437 2354 2439 2516
8 2440 2356 2264 2355 2518 2442 2357 2441
8 2519 2443 2357 2441 2447 2361 2268 2362
8 2443 2359 2444 2520 2357 2266 2358 2442
8 2443 2359 2267 2361 2520 2444 2360 2446
8 2446 2360 2279 2370 2523 2445 2369 2452
8 2453 2370 2446 2524 2371 2280 2361 2447
8 2449 2363 2448 2525 2368 2278 2369 2452
8 2366 2277 2364 2450 2451 2368 2449 2526
8 2372 2283 2368 2451 2453 2370 2452 2527
8 2455 2373 2295 2380 2529 2454 2382 2460
8 2456 2374 2292 2378 2530 2455 2380 2458
8 2377 2293 2379 2457 2458 2380 2459 2531
8 2463 2384 2459 2531 2383 2297 2379 2457
8 2533 2461 2382 2460 2459 2381 2295 2380
8 2464 2385 2461 2533 2384 2298 2381 2459
8 2466 2387 2464 2537 2386 2300 2384 2463
8 2467 2388 2465 2538 2387 2301 2385 2464
8 2469 2390 2467 2540 2389 2303 2387 2466
8 2470 2391 2468 2541 2390 2304 2388 2467
8 2472 2393 2470 2543 2392 2306 2390 2469
8 2393 2307 2394 2473 2470 2391 2471 2544
8 2395 2308 2396 2475 2472 2393 2473 2546
8 2396 2309 2397 2476 2473 2394 2474 2547
8 2475 2396 2311 2398 2549 2476 2399 2478
8 2476 2397 2312 2399 2550 2477 2400 2479
8 2478 2399 2314 2403 2552 2479 2402 2483
8 2479 2400 2313 2402 2553 2480 2401 2482
8 2405 2316 2404 2485 2482 2401 2481 2556
8 2406 2317 2405 2486 2483 2402 2482 2557
8 2408 2319 2407 2488 2485 2404 2484 2559
8 2409 2320 2408 2489 2486 2405 2485 2560
8 2411 2322 2410 2490 2488 2407 2487 2561
8 2412 2323 2411 2491 2489 2408 2488 2562
8 2414 2326 2413 2492 2491 2411 2490 2563
8 2513 2434 2493 2565 2438 2353 2416 2494
8 2496 2417 2352 2436 2567 2494 2438 2515
8 2494 2416 2495 2568 2417 2331 2418 2497
8 2419 2332 2417 2496 2499 2420 2497 2570
8 2497 2418 2498 2571 2420 2333 2421 2500
8 2499 2420 2500 2573 2422 2335 2423 2502
8 2500 2421 2501 2574 2423 2336 2424 2503
8 2502 2423 2503 2576 2425 2338 2426 2505
8 2503 2424 2504 2577 2426 2339 2427 2506
8 2505 2426 2506 2578 2429 2341 2428 2507
8 2509 2431 2373 2455 2580 2508 2454 2529
8 2509 2431 2508 2580 2449 2363 2448 2525
8 2432 2510 2581 2509 2374 2456 2530 2455
8 2432 2510 2450 2364 2509 2581 2526 2449
8 2583 2511 2434 2513 2516 2439 2353 2438
8 2436 2352 2437 2514 2515 2438 2516 2588
8 2440 2356 2442 2518 2514 2437 2516 2588
8 2442 2358 2444 2520 2516 2439 2517 2589
8 2519 2443 2520 2591 2441 2357 2442 2518
8 2519 2443 2361 2447 2591 2520 2446 2524
8 2446 2360 2445 2523 2520 2444 2521 2592
8 2525 2448 2522 2593 2452 2369 2445 2523
8 2524 2446 2370 2453 2594 2523 2452 2527
8 2526 2449 2525 2595 2451 2368 2452 2527
8 2534 2462 2528 2597 2460 2382 2454 2529
8 2530 2455 2380 2458 2598 2529 2460 2532
8 2599 2533 2460 2532 2531 2459 2380 2458
8 2537 2464 2533 2599 2463 2384 2459 2531
8 2534 2462 2382 2460 2601 2535 2461 2533
8 2538 2465 2535 2601 2464 2385 2461 2533
8 2540 2467 2538 2604 2466 2387 2464 2537
8 2541 2468 2539 2605 2467 2388 2465 2538
8 2543 2470 2541 2607 2469 2390 2467 2540
8 2470 2391 2471 2544 2541 2468 2542 2608
8 2472 2393 2473 2546 2543 2470 2544 2610
8 2473 2394 2474 2547 2544 2471 2545 2611
8 2475 2396 2476 2549 2546 2473 2547 2613
8 2476 2397 2477 2550 2547 2474 2548 2614
8 2549 2476 2399 2478 2616 2550 2479 2552
8 2479 2400 2480 2553 2550 2477 2551 2617
8 2552 2479 2402 2483 2619 2553 2482 2557
8 2482 2401 2481 2556 2553 2480 2554 2620
8 2485 2404 2484 2559 2556 2481 2555 2623
8 2486 2405 2485 2560 2557 2482 2556 2624
8 2488 2407 2487 2561 2559 2484 2558 2625
8 2489 2408 2488 2562 2560 2485 2559 2626
8 2491 2411 2490 2563 2562 2488 2561 2627
8 2513 2434 2512 2585 2565 2493 2564 2630
8 2586 2513 2565 2632 2515 2438 2494 2567
8 2565 2493 2566 2633 2494 2416 2495 2568
8 2567 2494 2568 2635 2496 2417 2497 2570
8 2568 2495 2569 2636 2497 2418 2498 2571
8 2570 2497 2571 2638 2499 2420 2500 2573
8 2571 2498 2572 2639 2500 2421 2501 2574
8 2573 2500 2574 2641 2502 2423 2503 2576
8 2574 2501 2575 2642 2503 2424 2504 2577
8 2576 2503 2577 2643 2505 2426 2506 2578
8 2597 2528 2579 2645 2529 2454 2508 2580
8 2580 2508 2579 2645 2525 2448 2522 2593
8 2581 2509 2455 2530 2646 2580 2529 2598
8 2581 2509 2580 2646 2526 2449 2525 2595
8 2583 2511 2582 2648 2513 2434 2512 2585
8 2583 2511 2439 2516 2648 2582 2517 2589
8 2649 2583 2513 2586 2588 2516 2438 2515
8 2589 2517 2444 2520 2653 2587 2521 2592
8 2518 2442 2520 2591 2588 2516 2589 2654
8 2593 2522 2590 2655 2523 2445 2521 2592
8 2524 2446 2523 2594 2591 2520 2592 2656
8 2595 2525 2593 2657 2527 2452 2523 2594
8 2602 2536 2596 2659 2534 2462 2528 2597
8 2600 2534 2597 2660 2532 2460 2529 2598
8 2600 2534 2460 2532 2661 2601 2533 2599
8 2604 2538 2601 2661 2537 2464 2533 2599
8 2602 2536 2462 2534 2663 2603 2535 2601
8 2601 2535 2465 2538 2663 2603 2539 2605
8 2607 2541 2605 2665 2540 2467 2538 2604
8 2608 2542 2606 2666 2541 2468 2539 2605
8 2543 2470 2544 2610 2607 2541 2608 2668
8 2544 2471 2545 2611 2608 2542 2609 2669
8 2546 2473 2547 2613 2610 2544 2611 2671
8 2547 2474 2548 2614 2611 2545 2612 2672
8 2549 2476 2550 2616 2613 2547 2614 2674
8 2550 2477 2551 2617 2614 2548 2615 2675
8 2552 2479 2553 2619 2616 2550 2617 2677
8 2553 2480 2554 2620 2617 2551 2618 2678
8 2557 2482 2556 2624 2619 2553 2620 2680
8 2556 2481 2555 2623 2620 2554 2621 2681
8 2559 2484 2558 2625 2623 2555 2622 2683
8 2560 2485 2559 2626 2624 2556 2623 2684
8 2562 2488 2561 2627 2626 2559 2625 2685
8 2690 2629 2564 2630 2650 2584 2512 2585
8 2586 2513 2585 2651 2632 2565 2630 2691
8 2630 2564 2631 2692 2565 2493 2566 2633
8 2632 2565 2633 2694 2567 2494 2568 2635
8 2633 2566 2634 2695 2568 2495 2569 2636
8 2635 2568 2636 2697 2570 2497 2571 2638
8 2636 2569 2637 2698 2571 2498 2572 2639
8 2638 2571 2639 2700 2573 2500 2574 2641
8 2639 2572 2640 2701 2574 2501 2575 2642
8 2641 2574 2642 2702 2576 2503 2577 2643
8 2597 2528 2596 2659 2645 2579 2644 2704
8 2645 2579 2644 2704 2593 2522 2590 2655
8 2660 2597 2645 2705 2598 2529 2580 2646
8 2646 2580 2645 2705 2595 2525 2593 2657
8 2650 2584 2512 2585 2707 2647 2582 2648
8 2648 2582 2517 2589 2707 2647 2587 2653
8 2649 2583 2648 2708 2586 2513 2585 2651
8 2649 2583 2516 2588 2708 2648 2589 2654
8 2655 2590 2652 2710 2592 2521 2587 2653
8 2654 2589 2520 2591 2711 2653 2592 2656
8 2657 2593 2655 2712 2594 2523 2592 2656
8 2602 2536 2603 2663 2659 2596 2658 2714
8 2662 2602 2659 2715 2600 2534 2597 2660
8 2662 2602 2534 2600 2717 2663 2601 2661
8 2661 2601 2538 2604 2717 2663 2605 2665
8 2666 2606 2664 2718 2605 2539 2603 2663
8 2668 2608 2666 2720 2607 2541 2605 2665
8 2608 2542 2609 2669 2666 2606 2667 2721
8 2610 2544 2611 2671 2668 2608 2669 2723
8 2611 2545 2612 2672 2669 2609 2670 2724
8 2613 2547 2614 2674 2671 2611 2672 2726
8 2614 2548 2615 2675 2672 2612 2673 2727
8 2616 2550 2617 2677 2674 2614 2675 2729
8 2617 2551 2618 2678 2675 2615 2676 2730
8 2619 2553 2620 2680 2677 2617 2678 2732
8 2620 2554 2621 2681 2678 2618 2679 2733
8 2624 2556 2623 2684 2680 2620 2681 2735
8 2681 2621 2555 2623 2736 2682 2622 2683
8 2626 2559 2625 2685 2684 2623 2683 2737
8 2688 2628 2584 2650 2740 2686 2647 2707
8 2688 2628 2687 2742 2650 2584 2629 2690
8 2690 2629 2689 2745 2630 2564 2631 2692
8 2746 2690 2630 2691 2709 2650 2585 2651
8 2691 2630 2692 2747 2632 2565 2633 2694
8 2692 2631 2693 2748 2633 2566 2634 2695
8 2694 2633 2695 2750 2635 2568 2636 2697
8 2695 2634 2696 2751 2636 2569 2637 2698
8 2697 2636 2698 2753 2638 2571 2639 2700
8 2698 2637 2699 2754 2639 2572 2640 2701
8 2700 2639 2701 2755 2641 2574 2642 2702
8 2659 2596 2658 2714 2704 2644 2703 2757
8 2704 2644 2703 2757 2655 2590 2652 2710
8 2660 2597 2659 2715 2705 2645 2704 2758
8 2705 2645 2704 2758 2657 2593 2655 2712
8 2759 2706 2647 2707 2710 2652 2587 2653
8 2709 2650 2585 2651 2760 2707 2648 2708
8 2708 2648 2589 2654 2760 2707 2653 2711
8 2712 2655 2710 2761 2656 2592 2653 2711
8 2763 2713 2658 2714 2718 2664 2603 2663
8 2662 2602 2663 2717 2715 2659 2714 2764
8 2720 2666 2718 2767 2665 2605 2663 2717
8 2768 2719 2664 2718 2721 2667 2606 2666
8 2668 2608 2669 2723 2720 2666 2721 2770
8 2669 2609 2670 2724 2721 2667 2722 2771
8 2671 2611 2672 2726 2723 2669 2724 2773
8 2672 2612 2673 2727 2724 2670 2725 2774
8 2674 2614 2675 2729 2726 2672 2727 2776
8 2675 2615 2676 2730 2727 2673 2728 2777
8 2677 2617 2678 2732 2729 2675 2730 2779
8 2678 2618 2679 2733 2730 2676 2731 2780
8 2680 2620 2681 2735 2732 2678 2733 2782
8 2733 2679 2621 2681 2783 2734 2682 2736
8 2735 2681 2623 2684 2784 2736 2683 2737
8 2740 2686 2647 2707 2787 2738 2706 2759
8 2688 2628 2686 2740 2742 2687 2739 2789
8 2743 2688 2650 2709 2790 2740 2707 2760
8 2742 2687 2741 2792 2690 2629 2689 2745
8 2743 2688 2742 2793 2709 2650 2690 2746
8 2745 2689 2744 2795 2692 2631 2693 2748
8 2746 2690 2745 2796 2691 2630 2692 2747
8 2747 2692 2748 2797 2694 2633 2695 2750
8 2748 2693 2749 2798 2695 2634 2696 2751
8 2750 2695 2751 2800 2697 2636 2698 2753
8 2751 2696 2752 2801 2698 2637 2699 2754
8 2753 2698 2754 2802 2700 2639 2701 2755
8 2763 2713 2756 2804 2714 2658 2703 2757
8 2759 2706 2652 2710 2804 2756 2703 2757
8 2715 2659 2714 2764 2758 2704 2757 2805
8 2758 2704 2757 2805 2712 2655 2710 2761
8 2806 2759 2707 2760 2761 2710 2653 2711
8 2765 2716 2762 2808 2718 2664 2713 2763
8 2809 2763 2714 2764 2767 2718 2663 2717
8 2765 2716 2664 2718 2811 2766 2719 2768
8 2813 2768 2718 2767 2770 2721 2666 2720
8 2814 2769 2719 2768 2771 2722 2667 2721
8 2723 2669 2724 2773 2770 2721 2771 2816
8 2724 2670 2725 2774 2771 2722 2772 2817
8 2726 2672 2727 2776 2773 2724 2774 2819
8 2727 2673 2728 2777 2774 2725 2775 2820
8 2729 2675 2730 2779 2776 2727 2777 2822
8 2730 2676 2731 2780 2777 2728 2778 2823
8 2732 2678 2733 2782 2779 2730 2780 2825
8 2780 2731 2679 2733 2826 2781 2734 2783
8 2782 2733 2681 2735 2827 2783 2736 2784
8 2830 2785 2738 2787 2804 2756 2706 2759
8 2789 2739 2686 2740 2832 2786 2738 2787
8 2790 2740 2707 2760 2833 2787 2759 2806
8 2742 2687 2739 2789 2792 2741 2788 2835
8 2743 2688 2740 2790 2793 2742 2789 2836
8 2792 2741 2791 2838 2745 2689 2744 2795
8 2793 2742 2792 2839 2746 2690 2745 2796
8 2795 2744 2794 2841 2748 2693 2749 2798
8 2796 2745 2795 2842 2747 2692 2748 2797
8 2797 2748 2798 2843 2750 2695 2751 2800
8 2798 2749 2799 2844 2751 2696 2752 2801
8 2800 2751 2801 2845 2753 2698 2754 2802
8 2808 2762 2803 2847 2763 2713 2756 2804
8 2809 2763 2804 2848 2764 2714 2757 2805
8 2806 2759 2710 2761 2848 2804 2757 2805
8 2765 2716 2766 2811 2808 2762 2807 2850
8 2810 2765 2808 2851 2767 2718 2763 2809
8 2810 2765 2718 2767 2852 2811 2768 2813
8 2811 2766 2719 2768 2853 2812 2769 2814
8 2855 2814 2768 2813 2816 2771 2721 2770
8 2856 2815 2769 2814 2817 2772 2722 2771
8 2773 2724 2774 2819 2816 2771 2817 2858
8 2774 2725 2775 2820 2817 2772 2818 2859
8 2776 2727 2777 2822 2819 2774 2820 2861
8 2777 2728 2778 2823 2820 2775 2821 2862
8 2779 2730 2780 2825 2822 2777 2823 2864
8 2823 2778 2731 2780 2865 2824 2781 2826
8 2825 2780 2733 2782 2866 2826 2783 2827
8 2869 2828 2785 2830 2847 2803 2756 2804
8 2871 2829 2786 2832 2830 2785 2738 2787
8 2872 2830 2787 2833 2848 2804 2759 2806
8 2789 2739 2786 2832 2835 2788 2831 2874
8 2836 2789 2740 2790 2875 2832 2787 2833
8 2792 2741 2788 2835 2838 2791 2834 2877
8 2793 2742 2789 2836 2839 2792 2835 2878
8 2838 2791 2837 2880 2795 2744 2794 2841
8 2839 2792 2838 2881 2796 2745 2795 2842
8 2841 2794 2840 2882 2798 2749 2799 2844
8 2842 2795 2841 2883 2797 2748 2798 2843
8 2843 2798 2844 2884 2800 2751 2801 2845
8 2886 2846 2803 2847 2850 2807 2762 2808
8 2851 2808 2847 2887 2809 2763 2804 2848
8 2850 2807 2766 2811 2889 2849 2812 2853
8 2810 2765 2811 2852 2851 2808 2850 2890
8 2852 2811 2768 2813 2891 2853 2814 2855
8 2853 2812 2769 2814 2892 2854 2815 2856
8 2894 2856 2814 2855 2858 2817 2771 2816
8 2817 2772 2818 2859 2856 2815 2857 2895
8 2819 2774 2820 2861 2858 2817 2859 2897
8 2820 2775 2821 2862 2859 2818 2860 2898
8 2822 2777 2823 2864 2861 2820 2862 2900
8 2823 2778 2824 2865 2862 2821 2863 2901
8 2864 2823 2780 2825 2902 2865 2826 2866
8 2904 2867 2828 2869 2886 2846 2803 2847
8 2869 2828 2868 2906 2830 2785 2829 2871
8 2907 2869 2830 2872 2887 2847 2804 2848
8 2871 2829 2870 2909 2832 2786 2831 2874
8 2910 2871 2832 2875 2872 2830 2787 2833
8 2835 2788 2831 2874 2877 2834 2873 2912
8 2836 2789 2832 2875 2878 2835 2874 2913
8 2877 2834 2876 2915 2838 2791 2837 2880
8 2839 2792 2835 2878 2881 2838 2877 2916
8 2880 2837 2879 2917 2841 2794 2840 2882
8 2881 2838 2880 2918 2842 2795 2841 2883
8 2883 2841 2882 2919 2843 2798 2844 2884
8 2921 2885 2846 2886 2889 2849 2807 2850
8 2922 2886 2847 2887 2890 2850 2808 2851
8 2889 2849 2812 2853 2924 2888 2854 2892
8 2890 2850 2811 2852 2925 2889 2853 2891
8 2891 2853 2814 2855 2926 2892 2856 2894
8 2892 2854 2815 2856 2927 2893 2857 2895
8 2858 2817 2859 2897 2894 2856 2895 2929
8 2859 2818 2860 2898 2895 2857 2896 2930
8 2861 2820 2862 2900 2897 2859 2898 2932
8 2862 2821 2863 2901 2898 2860 2899 2933
8 2864 2823 2865 2902 2900 2862 2901 2934
8 2904 2867 2846 2886 2936 2903 2885 2921
8 2904 2867 2903 2936 2869 2828 2868 2906
8 2937 2904 2869 2907 2922 2886 2847 2887
8 2906 2868 2905 2939 2871 2829 2870 2909
8 2907 2869 2906 2940 2872 2830 2871 2910
8 2909 2870 2908 2942 2874 2831 2873 2912
8 2910 2871 2909 2943 2875 2832 2874 2913
8 2912 2873 2911 2945 2877 2834 2876 2915
8 2878 2835 2874 2913 2916 2877 2912 2946
8 2915 2876 2914 2947 2880 2837 2879 2917
8 2916 2877 2915 2948 2881 2838 2880 2918
8 2918 2880 2917 2949 2883 2841 2882 2919
8 2921 2885 2849 2889 2951 2920 2888 2924
8 2952 2921 2886 2922 2925 2889 2850 2890
8 2924 2888 2854 2892 2954 2923 2893 2927
8 2925 2889 2853 2891 2955 2924 2892 2926
8 2926 2892 2856 2894 2956 2927 2895 2929
8 2895 2857 2896 2930 2927 2893 2928 2957
8 2897 2859 2898 2932 2929 2895 2930 2959
8 2898 2860 2899 2933 2930 2896 2931 2960
8 2900 2862 2901 2934 2932 2898 2933 2961
8 2936 2903 2885 2921 2963 2935 2920 2951
8 2936 2903 2935 2963 2906 2868 2905 2939
8 2937 2904 2886 2922 2964 2936 2921 2952
8 2937 2904 2936 2964 2907 2869 2906 2940
8 2939 2905 2938 2966 2909 2870 2908 2942
8 2940 2906 2939 2967 2910 2871 2909 2943
8 2942 2908 2941 2969 2912 2873 2911 2945
8 2943 2909 2942 2970 2913 2874 2912 2946
8 2945 2911 2944 2971 2915 2876 2914 2947
8 2946 2912 2945 2972 2916 2877 2915 2948
8 2948 2915 2947 2973 2918 2880 2917 2949
8 2951 2920 2888 2924 2975 2950 2923 2954
8 2952 2921 2889 2925 2976 2951 2924 2955
8 2927 2893 2928 2957 2954 2923 2953 2978
8 2955 2924 2892 2926 2979 2954 2927 2956
8 2929 2895 2930 2959 2956 2927 2957 2980
8 2930 2896 2931 2960 2957 2928 2958 2981
8 2932 2898 2933 2961 2959 2930 2960 2982
8 2951 2920 2950 2975 2963 2935 2962 2984
8 2963 2935 2962 2984 2939 2905 2938 2966
8 2964 2936 2921 2952 2985 2963 2951 2976
8 2964 2936 2963 2985 2940 2906 2939 2967
8 2966 2938 2965 2987 2942 2908 2941 2969
8 2967 2939 2966 2988 2943 2909 2942 2970
8 2969 2941 2968 2989 2945 2911 2944 2971
8 2970 2942 2969 2990 2946 2912 2945 2972
8 2972 2945 2971 2991 2948 2915 2947 2973
8 2954 2923 2953 2978 2975 2950 2974 2993
8 2976 2951 2924 2955 2994 2975 2954 2979
8 2957 2928 2958 2981 2978 2953 2977 2995
8 2956 2927 2957 2980 2979 2954 2978 2996
8 2959 2930 2960 2982 2980 2957 2981 2997
8 2984 2962 2983 2999 2966 2938 2965 2987
8 2975 2950 2974 2993 2984 2962 2983 2999
8 2976 2951 2975 2994 2985 2963 2984 3000
8 2985 2963 2984 3000 2967 2939 2966 2988
8 2987 2965 2986 3001 2969 2941 2968 2989
8 2988 2966 2987 3002 2970 2942 2969 2990
8 2990 2969 2989 3003 2972 2945 2971 2991
8 2978 2953 2977 2995 2993 2974 2992 3004
8 2979 2954 2978 2996 2994 2975 2993 3005
8 2980 2957 2981 2997 2996 2978 2995 3006
8 2974 2993 2999 2983 2992 3004 3007 2998
8 2983 2999 2987 2965 2998 3007 3001 2986
8 3000 2984 2999 3008 2988 2966 2987 3002
8 2994 2975 2993 3005 3000 2984 2999 3008
8 3002 2987 3001 3009 2990 2969 2989 3003
8 2996 2978 2995 3006 3005 2993 3004 3010
8 3005 2993 3004 3010 3008 2999 3007 3011
8 3008 2999 3007 3011 3002 2987 3001 3009

CELL_TYPES 1910
12
12
12
12
12
12
12
12
12
12
12
12
12
12
12
12
12
12
12
12
12
12
12
12
12
12
12
12
12
12
12
12
12
12
12
12
12
12
12
12
12
12
12
12
12
12
12
12
12
12
12
12
12
12
12
12
12
12
12
12
12
12
12
12
12
12
12
12
12
12
12
12
12
12
12
12
12
12
12
12
12
12
12
12
12
12
12
12
12
12
12
12
12
12
12
12
12
12
12
12
12
12
12
12
12
12
12
12
12
12
12
12
12
12
12
12
12
12
12
12
12
12
12
12
12
12
12
12
12
12
12
12
12
12
12
12
12
12
12
12
12
12
12
12
12
12
12
12
12
12
12
12
12
12
12
12
12
12
12
12
12
12
12
12
12
12
12
12
12
12
12
12
12
12
12
12
12
12
12
12
12
12
12
12
12
12
12
12
12
12
12
12
12
12
12
12
12
12
12
12
12
12
12
12
12
12
12
12
12
12
12
12
12
12
12
12
12
12
12
12
12
12
12
12
12
12
12
12
12
12
12
12
12
12
12
12
12
12
12
12
12
12
12
12
12
12
12
12
12
12
12
12
12
12
12
12
12
12
12
12
12
12
12
12
12
12
12
12
12
12
12
12
12
12
12
12
12
12
12
12
12
12
12
12
12
12
12
12
12
12
12
12
12
12
12
12
12
12
12
12
12
12
12
12
12
12
12
12
12
12
12
12
12
12
12
12
12
12
12
12
12
12
12
12
12
12
12
12
12
12
12
12
12
12
12
12
12
12
12
12
12
12
12
12
12
12
12
12
12
12
12
12
12
12
12
12
12
12
12
12
12
12
12
12
12
12
12
12
12
12
12
12
12
12
12
12
12
12
12
12
12
12
12
12
12
12
12
12
12
12
12
12
12
12
12
12
12
12
12
12
12
12
12
12
12
12
12
12
12
12
12
12
12
12
12
12
12
12
12
12
12
12
12
12
12
12
12
12
12
12
12
12
12
12
12
12
12
12
12
12
12
12
12
12
12
12
12
12
12
12
12
12
12
12
12
12
12
12
12
12
12
12
12
12
12
12
12
12
12
12
12
12
12
12
12
12
12
12
12
12
12
12
12
12
12
12
12
12
12
12
12
12
12
12
12
12
12
12
12
12
12
12
12
12
12
12
12
12
12
12
12
12
12
12
12
12
12
12
12
12
12
12
12
12
12
12
12
12
12
12
12
12
12
12
12
12
12
12
12
12
12
12
12
12
12
12
12
12
12
12
12
12
12
12
12
12
12
12
12
12
12
12
12
12
12
12
12
12
12
12
12
12
12
12
12
12
12
12
12
12
12
12
12
12
12
12
12
12
12
12
12
12
12
12
12
12
12
12
12
12
12
12
12
12
12
12
12
12
12
12
12
12
12
12
12
12
12
12
12
12
12
12
12
12
12
12
12
12
12
12
12
12
12
12
12
12
12
12
12
12
12
12
12
12
12
12
12
12
12
12
12
12
12
12
12
12
12
12
12
12
12
12
12
12
12
12
12
12
12
12
12
12
12
12
12
12
12
12
12
12
12
12
12
12
12
12
12
12
12
12
12
12
12
12
12
12
12
12
12
12
12
12
12
12
12
12
12
12
12
12
12
12
12
12
12
12
12
12
12
12
12
12
12
12
12
12
12
12
12
12
12
12
12
12
12
12
12
12
12
12
12
12
12
12
12
12
12
12
12
12
12
12
12
12
12
12
12
12
12
12
12
12
12
12
12
12
12
12
12
12
12
12
12
12
12
12
12
12
12
12
12
12
12
12
12
12
12
12
12
12
12
12
12
12
12
12
12
12
12
12
12
12
12
12
12
12
12
12
12
12
12
12
12
12
12
12
12
12
12
12
12
12
12
12
12
12
12
12
12
12
12
12
12
12
12
12
12
12
12
12
12
12
12
12
12
12
12
12
12
12
12
12
12
12
12
12
12
12
12
12
12
12
12
12
12
12
12
12
12
12
12
12
12
12
12
12
12
12
12
12
12
12
12
12
12
12
12
12
12
12
12
12
12
12
12
12
12
12
12
12
12
12
12
12
12
12
12
12
12
12
12
12
12
12
12
12
12
12
12
12
12
12
12
12
12
12
12
12
12
12
12
12
12
12
12
12
12
12
12
12
12
12
12
12
12
12
12
12
12
12
12
12
12
12
12
12
12
12
12
12
12
12
12
12
12
12
12
12
12
12
12
12
12
12
12
12
12
12
12
12
12
12
12
12
12
12
12
12
12
12
12
12
12
12
12
12
12
12
12
12
12
12
12
12
12
12
12
12
12
12
12
12
12
12
12
12
12
12
12
12
12
12
12
12
12
12
12
12
12
12
12
12
12
12
12
12
12
12
12
12
12
12
12
12
12
12
12
12
12
12
12
12
12
12
12
12
12
12
12
12
12
12
12
12
12
12
12
12
12
12
12
12
12
12
12
12
12
12
12
12
12
12
12
12
12
12
12
12
12
12
12
12
12
12
12
12
12
12
12
12
12
12
12
12
12
12
12
12
12
12
12
12
12
12
12
12
12
12
12
12
12
12
12
12
12
12
12
12
12
12
12
12
12
12
12
12
12
12
12
12
12
12
12
12
12
12
12
12
12
12
12
12
12
12
12
12
12
12
12
12
12
12
12
12
12
12
12
12
12
12
12
12
12
12
12
12
12
12
12
12
12
12
12
12
12
12
12
12
12
12
12
12
12
12
12
12
12
12
12
12
12
12
12
12
12
12
12
12
12
12
12
12
12
12
12
12
12
12
12
12
12
12
12
12
12
12
12
12
12
12
12
12
12
12
12
12
12
12
12
12
12
12
12
12
12
12
12
12
12
12
12
12
12
12
12
12
12
12
12
12
12
12
12
12
12
12
12
12
12
12
12
12
12
12
12
12
12
12
12
12
12
12
12
12
12
12
12
12
12
12
12
12
12
12
12
12
12
12
12
12
12
12
12
12
12
12
12
12
12
12
12
12
12
12
12
12
12
12
12
12
12
12
12
12
12
12
12
12
12
12
12
12
12
12
12
12
12
12
12
12
12
12
12
12
12
12
12
12
12
12
12
12
12
12
12
12
12
12
12
12
12
12
12
12
12
12
12
12
12
12
12
12
12
12
12
12
12
12
12
12
12
12
12
12
12
12
12
12
12
12
12
12
12
12
12
12
12
12
12
12
12
12
12
12
12
12
12
12
12
12
12
12
12
12
12
12
12
12
12
12
12
12
12
12
12
12
12
12
12
12
12
12
12
12
12
12
12
12
12
12
12
12
12
12
12
12
12
12
12
12
12
12
12
12
12
12
12
12
12
12
12
12
12
12
12
12
12
12
12
12
12
12
12
12
12
12
12
12
12
12
12
12
12
12
12
12
12
12
12
12
12
12
12
12
12
12
12
12
12
12
12
12
12
12
12
12
12
12
12
12
12
12
12
12
12
12
12
12
12
12
12
12
12
12
12
12
12
12
12
12
12
12
12
12
12
12
12
12
12
12
12
12
12
12
12
12
12
12
12
12
12
12
12
12
12
12
12
12
12
12
12
12
12
12
12
12
12
12
12
12
12
12
12
12
12
12
12
12
12
12
12
12
12
12
12
12
12
12
12
12
12
12
12
12
12
12
12
12
12
12
12
12
12
12
12
12
12
12
12
12
12
12
12
12
12
12
12
12
12
12
12
12
12
12
12
12
12
12
12
12
12
12
12
12
12
12
12
12
12
12
12
12
12
12
12
12
12
12
12
12
12
12
12
12
12
12
12
12
12
12
12
12
12
12
12
12
12
12
12
12
12
12
12
12
12
12
12
12
12
12
12
12
12
12
12
12
12
12
12
12
12
12
12
12
12
12
12
12
12
12
12
12
12
12
12
12
12
12
12
12
12
12
12
12
12
12
12
12
12
12
12
12
12
12
12
12
12
12
12
12
12
12
12
12
12
12
12
12
12
12
12
12
12
12
12
12
12
12
12
12
12
12
12
12
12
12
12
12
12
12
12
12
12
12
12
12
12
12
12
12
12
12
12
12
12
12
12
12
12
12
12
12
12
12
12
12
12
12
12
12
12
12
12
12
12
12
12
12
12
12
12
12
12
12
12
12
12
12
12
12
12
12
12
12
12
12
12
12
12
12
12
12
12
12
12
12
12
12
12
12
12
12
12
12
12
12
12
12
12
12
12
12
12
12
12
12
12
12
12
12
12
12
12
12
12
12
12
12
12
12
12
12
12
12
12
12
12
12
12
12
12
12
12
12
12
12
12
12
12
12
12
12
12
12
12
12
12
12
12
12
12
12
12
12
12
12
12
12
12
12
12
12
12
12
12
12
12
12
12
12

POINT_DATA 3012
SCALARS Jp_lamdaP float 4
LOOKUP_TABLE default
0.999836 1 1 0.999836
1 1 1 1
0.999841 1 1 0.999841
0.999791 1 1 0.999791
0.999836 1 1 0.999836
0.999829 1 1 0.999829
0.999269 1 1 0.999269
1 1 1 1
1 1 1 1
1 1 1 1
0.999909 1 1 0.999909
0.999423 1 1 0.999423
0.999757 1 1 0.999757
0.999784 1 1 0.999784
0.999841 1 1 0.999841
0.999808 1 1 0.999808
0.999834 1 1 0.999834
0.999845 1 1 0.999845
0.999272 1 1 0.999272
1 1 1 1
0.999771 1 1 0.999771
0.999818 1 1 0.999818
0.999139 1 1 0.999139
0.999239 1 1 0.999239
0.999848 1 1 0.999848
0.9993 1 1 0.9993
0.999604 1.00123 1 0.998376
1 1 1 1
0.999907 1 1 0.999907
0.99992 1 1 0.99992
1 1 1 1
0.999432 1 1 0.999432
0.999808 1 1 0.999808
0.999831 1 1 0.999831
0.999361 1 1 0.999361
1 1 1 1
0.99945 1 1 0.99945
0.999522 1 1 0.999522
0.998409 1 1 0.998409
1 1 1 1
1 1 1 1
0.99989 1 1 0.99989
1 1 1 1
0.999777 1 1 0.999777
0.999067 1 1 0.999067
1 1 1 1
0.999266 1 1 0.999266
0.999822 1 1 0.999822
0.999851 1 1 0.999851
0.999835 1 1 0.999835
0.999277 1 1 0.999277
0.999874 1 1 0.999874
0.999787 1 1 0.999787
0.999858 1 1 0.999858
0.999832 1 1 0.999832
0.999139 1 1 0.999139
0.999304 1 1 0.999304
0.999242 1 1 0.999242
0.99989 1.00153 1 0.998361
1 1 1 1
0.999761 1 1 0.999761
0.999246 1 1 0.999246
0.999103 1 1 0.999103
0.99919 1 1 0.99919
1.00196 1.00389 1 0.998079
1.00047 1.00226 1 0.998211
0.999905 1 1 0.999905
0.999414 1 1 0.999414
0.998829 1.00035 1 0.998479
1.00773 1.01015 1 0.997607
1 1 1 1
1 1 1 1
1 1 1 1
0.99944 1 1 0.99944
1 1 1 1
1 1 1 1
0.999271 1 1 0.999271
0.999977 1 1 0.999977
0.999378 1 1 0.999378
0.999583 1 1 0.999583
0.998406 1 1 0.998406
1 1 1 1
0.999935 1 1 0.999935
0.999209 1 1 0.999209
0.999307 1 1 0.999307
1.00177 1.00379 1 0.997986
0.999741 1 1 0.999741
0.998881 1.00057 1 0.998308
0.998546 1 1 0.998546
0.99868 1.00085 1 0.997831
1 1 1 1
1 1 1 1
1 1 1 1
1 1 1 1
1 1 1 1
0.999885 1 1 0.999885
0.999151 1 1 0.999151
0.999895 1 1 0.999895
0.999215 1 1 0.999215
1 1 1 1
0.999057 1 1 0.999057
0.99924 1 1 0.99924
1.0016 1.00391 1 0.997702
0.999302 1 1 0.999302
1.00315 1.00538 1 0.997783
0.999775 1 1 0.999775
0.999802 1 1 0.999802
0.999867 1 1 0.999867
0.999843 1 1 0.999843
0.99914 1 1 0.99914
0.999246 1 1 0.999246
0.99931 1 1 0.99931
1.00017 1.00182 1 0.998346
1 1 1 1
0.999776 1 1 0.999776
0.999082 1 1 0.999082
0.999101 1 1 0.999101
0.999952 1 1 0.999952
0.999471 1 1 0.999471
0.999192 1 1 0.999192
1.00194 1.00391 1 0.998038
0.999046 1.00059 1 0.998461
1.00068 1.00245 1 0.99824
1.0078 1.01022 1 0.997612
0.999079 1 1 0.999079
0.999082 1 1 0.999082
1.00123 1.00336 1 0.997875
1.00198 1.00403 1 0.997963
1.00168 1.00359 1 0.998094
1.01496 1.01759 1 0.997416
1 1 1 1
1.00998 1.01247 1 0.997541
0.999642 1 1 0.999642
0.998514 1.00001 1 0.998507
1.00566 1.00801 1 0.997673
1.01836 1.02104 1 0.997372
0.999836 1 1 0.999836
0.999964 1 1.00088 0.999089
1 1 1 1
1 1 1 1
0.999277 1 1 0.999277
1 1 1 1
0.999577 1 1 0.999577
0.999383 1 1 0.999383
0.998403 1 1 0.998403
1 1 1 1
0.999951 1 1 0.999951
0.999272 1 1 0.999272
0.999367 1 1 0.999367
1.00129 1.00331 1 0.997988
0.999749 1 1 0.999749
0.998657 1.00035 1 0.998311
0.998545 1 1 0.998545
0.998559 1.00075 1 0.997815
0.999853 1 1 0.999853
0.999983 1 1 0.999983
0.999648 1 1.00036 0.999291
1.0029 1.00503 1 0.997875
1.0002 1.00205 1 0.998149
1.01117 1.0138 1 0.997404
0.998774 1 1 0.998774
1.00267 1.00495 1 0.997727
0.998981 1.00049 1.00057 0.997922
1.00304 1.0054 1 0.997648
1 1 1 1
1 1 1 1
1 1 1 1
0.9999 1 1 0.9999
1 1 1 1
1 1 1 1
1 1 1 1
0.999162 1 1 0.999162
0.999094 1 1 0.999094
1 1 1 1
1 1 1 1
0.999058 1 1 0.999058
0.999189 1 1 0.999189
1.00187 1.00418 1 0.997702
0.99919 1 1 0.99919
1.00322 1.00545 1 0.997783
0.99905 1 1 0.99905
1.00091 1.00326 1 0.997654
1.00246 1.00472 1 0.997752
1.01818 1.02101 1 0.997226
1.0033 1.0055 1 0.997814
1.01869 1.02146 1 0.997289
1 1 1 1
0.999792 1 1 0.999792
0.998904 1 1 0.998904
0.9991 1 1 0.9991
1 1 1 1
0.999528 1 1 0.999528
0.999195 1 1 0.999195
1.0019 1.00391 1 0.997997
1.00091 1.00264 1 0.998269
0.999244 1.0008 1 0.998442
1.00787 1.01028 1 0.997617
0.999076 1 1 0.999076
0.99908 1 1 0.99908
1.00109 1.00332 1 0.997779
1.00201 1.00402 1 0.997991
1 1 1 1
0.999643 1 1 0.999643
0.998648 1.00009 1 0.998562
1.00163 1.00355 1 0.998092
1.01484 1.01751 1 0.997379
1.00547 1.00783 1 0.997662
1.01022 1.01268 1 0.997573
1.01792 1.0206 1 0.997379
0.999826 1 1 0.999826
1.00007 1 1.00098 0.999091
1.00054 1.00287 1 0.997675
1.00169 1.00378 1 0.997924
1.01616 1.01889 1 0.997322
1.01531 1.01805 1 0.997307
1.01234 1.01487 1 0.997509
1.0263 1.02907 1 0.997314
0.99975 1 1 0.99975
1.02019 1.02288 1 0.997371
0.998781 1 1.00011 0.998675
1.00099 1.0032 1 0.997797
1.0161 1.01875 1 0.997405
1.02101 1.02367 1 0.997405
0.999723 1 1.00079 0.998932
0.999438 1 1.00015 0.99929
1.00089 1 1.00236 0.998525
0.999229 1 1 0.999229
1 1 1 1
0.999967 1 1 0.999967
0.999335 1 1 0.999335
1.00081 1.00282 1 0.99799
0.999757 1 1 0.999757
0.998584 1 1.00004 0.998544
0.998455 1.00014 1 0.998314
0.998458 1.00066 1 0.997798
0.999873 1 1 0.999873
0.999989 1 1 0.999989
0.99975 1 1.00046 0.999293
1.0026 1.00473 1 0.997875
0.999723 1.00157 1 0.998154
1.01111 1.01374 1 0.997401
0.998798 1 1.00002 0.998777
1.00232 1.00459 1 0.997737
0.998909 1.00052 1.00047 0.997918
1.00322 1.0056 1 0.997633
0.999998 1 1 0.999998
0.999243 1 1.00022 0.999021
0.999841 1 1.00029 0.999551
0.999933 1 1.00121 0.998722
1.01473 1.01746 1 0.997322
1.00726 1.00971 1 0.997569
1.02057 1.02341 1 0.997223
0.998771 1.00012 1.00047 0.998188
1.00876 1.01124 1 0.997549
1.00473 1.00556 1.00158 0.9976
1.0121 1.01464 1 0.997501
0.999841 1 1 0.999841
1 1 1 1
1 1 1 1
1 1 1 1
1 1 1 1
0.999948 1 1 0.999948
1 1 1 1
0.999888 1 1 0.999888
1 1 1 1
0.999191 1 1 0.999191
0.999132 1 1 0.999132
1.00336 1.00559 1 0.997782
1.00212 1.00443 1 0.997702
0.99906 1 1 0.99906
1 1 1 1
0.999049 1 1 0.999049
1.00108 1.00343 1 0.997654
1.0027 1.00496 1 0.997752
1.01789 1.02072 1 0.997225
1.00326 1.00546 1 0.997813
1.01867 1.02144 1 0.997288
1.00048 1.00284 1 0.997647
1.01722 1.0201 1 0.997183
1.01877 1.02157 1 0.997266
1.0318 1.03461 1 0.997281
1.01776 1.02052 1 0.997299
1.03038 1.03319 1 0.997285
0.999073 1 1 0.999073
0.999077 1 1 0.999077
1.00096 1.00328 1 0.997682
1.00203 1.00402 1 0.998019
1 1 1 1
0.999644 1 1 0.999644
0.998797 1.00018 1 0.998617
1.00159 1.0035 1 0.998091
1.01473 1.01743 1 0.997343
1.01043 1.01286 1 0.997604
1.00528 1.00764 1 0.997651
1.01759 1.02026 1 0.997386
0.999816 1 1 0.999816
1.00004 1 1.00094 0.999093
1.0005 1.00286 1 0.99765
1.00166 1.00374 1 0.997921
1.01636 1.01909 1 0.997322
1.01545 1.01816 1 0.997342
0.99974 1 1 0.99974
0.998707 1 1.00003 0.998672
1.00167 1.00385 1 0.997832
1.01257 1.01511 1 0.997504
1.02657 1.02932 1 0.997328
1.01543 1.01811 1 0.997372
1.02008 1.02276 1 0.997374
1.0214 1.02406 1 0.997404
0.999452 1 1.00052 0.998935
1.00081 1 1.00229 0.998527
0.999724 1 1.00044 0.999288
1.01621 1.01899 1 0.99727
1.01648 1.01918 1 0.997349
1.03036 1.03318 1 0.997265
1.02812 1.03092 1 0.997278
1.02225 1.02495 1 0.997366
1.02741 1.02999 1 0.997495
0.998912 1 1.00009 0.998823
1.02304 1.02565 1 0.997453
0.998716 1.0006 1 0.998113
1.00744 1.01007 1 0.997392
1.01859 1.0214 1 0.997253
1.01953 1.02202 1 0.997569
0.999466 1 1 0.999466
0.99875 1 1.00026 0.998489
1.00151 1 1.00289 0.998622
0.999728 1 1.00138 0.998347
1.00232 1.00445 1 0.997875
0.999994 1 1 0.999994
0.999893 1 1 0.999893
0.999696 1 1.0004 0.999296
0.999219 1.00106 1 0.998158
1.01103 1.01366 1 0.997398
0.998838 1 1.00006 0.998781
0.998754 1.00051 1.00033 0.997913
1.00196 1.00422 1 0.997748
1.00322 1.00562 1 0.997618
0.999999 1 1 0.999999
0.9993 1 1.00028 0.999022
0.999687 1 1.00013 0.999559
1.00023 1 1.00151 0.998717
1.01459 1.01732 1 0.997319
1.00664 1.0091 1 0.99757
1.0205 1.02334 1 0.997221
0.998687 1.00004 1.00045 0.998194
1.00894 1.01141 1 0.997562
1.00446 1.00515 1.00173 0.997589
1.01225 1.01471 1 0.997568
1 1 1 1
0.999712 1 1 0.999712
0.998947 1 1.00046 0.998485
0.999936 1 1.00096 0.998973
0.999868 1 1.00143 0.998438
1.02393 1.02679 1 0.997207
1.01489 1.01757 1 0.997366
1.01952 1.02232 1 0.997254
1.00189 1.00208 1.00199 0.997819
1.01176 1.01431 1 0.997485
1.00821 1.01005 1.00086 0.997317
0.999822 1 1 0.999822
0.99943 1 1 0.99943
0.999854 1 1 0.999854
0.999843 1 1 0.999843
1 1 1 1
1 1 1 1
1 1 1 1
1 1 1 1
1 1 1 1
0.999981 1 1 0.999981
1 1 1 1
0.999936 1 1 0.999936
1 1 1 1
0.999876 1 1 0.999876
1 1 1 1
1.00319 1.00539 1 0.997812
1.00289 1.00515 1 0.997751
1.01847 1.02124 1 0.997286
1.01757 1.02041 1 0.997224
1.0013 1.00365 1 0.997654
0.999048 1 1 0.999048
1.00061 1.00297 1 0.997647
1.01714 1.02001 1 0.997183
1.0184 1.02119 1 0.997265
1.03199 1.03481 0.99998 0.997295
1.01733 1.02009 1 0.997297
1.02993 1.03273 1 0.997283
1.01669 1.01957 1 0.997173
1.03118 1.03405 0.999942 0.99728
1.03181 1.03461 1 0.99729
1.03443 1.03749 0.999593 0.997464
1.0266 1.02943 1 0.997252
1.03092 1.03347 1 0.997533
1.00049 1.00287 1 0.997625
1.00163 1.00372 1 0.997918
1.01657 1.0193 1 0.997322
1.01558 1.01825 1 0.997377
0.999729 1 1 0.999729
0.998669 1 1 0.998669
1.00234 1.00448 1 0.997867
1.01284 1.01537 1 0.9975
1.02686 1.0296 1 0.997343
1.01996 1.02264 1 0.997378
1.01467 1.01738 1 0.997339
1.02176 1.02442 1 0.997404
0.999301 1 1.00036 0.998937
1.00076 1 1.00223 0.99853
0.999977 1 1.00069 0.999285
1.01634 1.01916 1 0.997235
1.0166 1.01931 1 0.997347
1.02995 1.03275 1 0.997283
1.02835 1.03116 1 0.997279
0.998895 1 1.00007 0.998822
0.999366 1.00126 1 0.998106
1.00671 1.00925 1.00003 0.997442
1.02242 1.02513 1 0.997361
1.02705 1.02959 1 0.997534
1.01867 1.02151 1 0.99722
1.02304 1.02565 1 0.997457
1.01926 1.02172 1 0.997595
0.998884 1 1.00039 0.998491
0.999722 1 1.0014 0.998329
0.999461 1 1 0.999461
1.00136 1 1.00271 0.99865
1.03036 1.03321 1 0.99724
1.03037 1.03316 1 0.997295
1.03167 1.03461 0.99977 0.997385
1.02932 1.03222 0.999656 0.997528
1.02467 1.02722 1 0.997517
1.02592 1.0283 1 0.997693
0.998365 1 1 0.998365
1.01991 1.02224 1 0.997723
0.999836 1.00211 1 0.997728
1.01091 1.01361 1.00018 0.997155
1.01991 1.02278 1 0.997192
1.01866 1.02108 1 0.997634
0.999588 1 1 0.999588
0.999544 1 1.00073 0.998818
0.998299 1 1 0.998299
1.00147 1 1.00308 0.998397
0.999083 1 1.00078 0.998303
1 1 1 1
1.01438 1.01711 1 0.997315
0.999566 1 1 0.999566
0.999423 1 1.0004 0.999022
1.00057 1 1.00186 0.998712
1.00608 1.00853 1 0.99757
1.02049 1.02334 1 0.997219
0.998704 1 1.00051 0.998199
1.00453 1.00502 1.00193 0.997579
1.00921 1.01166 1 0.997575
1.01259 1.01499 1 0.997635
1 1 1 1
0.999719 1 1 0.999719
0.998949 1 1.00046 0.998487
1.00009 1 1.00112 0.998973
1.0002 1 1.00179 0.998417
1.02416 1.02704 1 0.997202
1.01522 1.0179 1 0.997365
1.01942 1.02224 1 0.997244
1.00137 1.00142 1.00213 0.997824
1.01432 1.01687 1 0.997494
1.00754 1.00926 1.00096 0.997336
0.999786 1 1 0.999786
0.999261 1 1.00006 0.999201
0.998705 1.00006 1.00048 0.998173
1.00119 1 1.00256 0.998631
0.99969 1 1.00138 0.998309
1.02353 1.02629 1 0.997304
1.01519 1.01789 1 0.997344
1.01742 1.02005 1 0.997426
1.0017 1.00032 1.00379 0.9976
1.00719 1.01001 1 0.997205
0.999824 1 1 0.999824
0.999363 1 1 0.999363
0.999408 1 1 0.999408
0.999192 1 1 0.999192
0.999439 1 1 0.999439
0.999858 1 1 0.999858
0.999855 1 1 0.999855
1 1 1 1
0.999845 1 1 0.999845
1 1 1 1
1 1 1 1
1 1 1 1
1 1 1 1
1 1 1 1
0.999997 1 1 0.999997
0.999972 1 1 0.999972
1 1 1 1
1 1 1 1
0.999925 1 1 0.999925
1 1 1 1
1.01698 1.01974 1 0.997294
1.01819 1.02099 1 0.997263
1.02959 1.03239 1 0.997281
1.03223 1.0351 0.999926 0.99731
1.01698 1.01985 1 0.997183
1.00067 1.00303 1 0.997646
1.01652 1.0194 1 0.997174
1.03119 1.03406 0.999948 0.997274
1.0318 1.0346 1 0.997289
1.03374 1.03702 0.999342 0.997494
1.02714 1.02998 1 0.997246
1.03085 1.03354 0.999841 0.997552
1.03039 1.03325 0.999983 0.997248
1.03266 1.0364 0.998954 0.997431
1.03301 1.03592 0.999633 0.997553
1.0322 1.03671 0.998027 0.99762
1.02774 1.03038 1 0.997439
1.03067 1.03359 0.999433 0.997738
1.01641 1.01927 1 0.9972
1.01671 1.01941 1 0.997345
1.02948 1.03227 1 0.997302
1.02856 1.03136 1 0.997279
0.99889 1 1.00007 0.99882
1.00006 1.00196 1 0.9981
1.00614 1.00849 1.00018 0.997493
1.0226 1.02531 1 0.997355
1.02661 1.02911 1 0.997572
1.02305 1.02566 1 0.99746
1.01879 1.02166 1 0.997187
1.01885 1.02128 1 0.997622
0.999012 1 1.00052 0.998493
0.999691 1 1.00138 0.99831
0.999456 1 1 0.999456
1.00102 1 1.00234 0.998677
1.03019 1.03304 1 0.99724
1.02987 1.03268 1 0.997277
1.03151 1.03444 0.999758 0.997411
1.02935 1.03208 0.999847 0.99751
0.99836 1 1 0.998359
1.00006 1.00226 1.00003 0.997774
1.01109 1.0136 1.00039 0.997146
1.02432 1.0269 1 0.997483
1.02559 1.02795 0.999958 0.997747
1.01894 1.02183 1 0.99718
1.02037 1.02269 1 0.997725
1.01982 1.02219 1 0.997679
0.998297 1 1 0.998297
0.99871 1 1.0004 0.998308
1.00218 1 1.00379 0.998391
0.999553 1 1 0.999553
0.999555 1 1.00071 0.998845
1.03174 1.03576 0.998699 0.997415
1.0321 1.0353 0.999444 0.997462
1.02684 1.03072 0.998502 0.997731
1.02277 1.02527 0.999799 0.997766
0.998323 1.0002 1 0.998123
1.02353 1.0257 1 0.997887
1.00003 1.00226 1.00029 0.997488
1.01049 1.01309 1.00051 0.996924
1.0177 1.02059 1 0.997166
0.999637 1 1 0.999637
0.999167 1 1.0001 0.999067
1.00035 1 1.00177 0.998592
0.998255 1 1 0.998255
1.00237 1 1.00417 0.998209
0.998238 1 1 0.998238
1 1 1 1
0.999726 1 1 0.999726
1.02442 1.0273 1 0.997197
1.00032 1 1.00135 0.998974
0.998847 1 1.00036 0.998489
1.00071 1 1.00232 0.998395
1.01539 1.01808 1 0.997364
1.01916 1.02199 1 0.997234
1.00077 1.00065 1.00229 0.997829
1.00636 1.00825 1.00077 0.997355
1.01669 1.01923 1 0.997503
0.999791 1 1 0.999791
0.99926 1 1.00006 0.999204
0.998617 1.00003 1.00041 0.998177
1.0017 1 1.00307 0.998628
0.999792 1 1.00149 0.998304
1.02346 1.02623 1 0.997297
1.01563 1.01834 1 0.997334
1.01721 1.01981 1 0.997452
1.00151 1.0007 1.00324 0.997566
1.00604 1.00883 1.00006 0.997176
0.999337 1 1 0.999337
1.00041 1 1.00161 0.998809
1.00032 1.0003 1.002 0.998022
1.00166 1 1.0033 0.998367
0.999193 1 1.001 0.998199
1.02388 1.02622 1 0.997717
1.0133 1.01609 1 0.997254
1.01401 1.01657 1 0.997476
1.0036 1.00188 1.00433 0.9974
1.00105 1.00408 1 0.996984
0.999827 1 1 0.999827
0.99938 1 1 0.99938
0.999105 1 1 0.999105
0.999387 1 1 0.999387
0.999439 1 1 0.999439
0.999161 1 1 0.999161
0.999017 1 1 0.999017
0.99913 1 1 0.99913
0.999443 1 1 0.999443
0.999855 1 1 0.999855
0.999858 1 1 0.999858
1 1 1 1
0.999856 1 1 0.999856
1 1 1 1
1 1 1 1
1 1 1 1
1 1 1 1
1 1 1 1
1 1 1 1
0.999994 1 1 0.999994
1 1 1 1
0.999963 1 1 0.999963
1 1 1 1
1 1 1 1
1.02764 1.03048 1 0.997241
1.03161 1.03441 1 0.997289
1.03076 1.03361 0.999668 0.997571
1.03302 1.0365 0.999118 0.997524
1.03123 1.03409 0.999969 0.997268
1.01645 1.01933 1 0.997174
1.03068 1.03356 0.999981 0.99723
1.0329 1.03643 0.999169 0.997422
1.03292 1.03571 0.999778 0.997533
1.03161 1.0364 0.997743 0.997634
1.0271 1.02974 1 0.997439
1.02975 1.03282 0.999243 0.997779
1.03234 1.03573 0.999326 0.997399
1.03219 1.03805 0.996734 0.997612
1.03147 1.03638 0.99752 0.997735
1.02783 1.03074 0.999347 0.997829
1.03008 1.03293 1 0.997241
1.0294 1.03223 1 0.99726
1.0314 1.03429 0.999765 0.997436
1.02944 1.03203 1 0.997493
0.99836 1.00001 1 0.998353
0.999994 1.00218 1 0.99782
1.01124 1.01355 1.00058 0.997137
1.0239 1.02652 1 0.99745
1.02533 1.02765 0.999934 0.997801
1.02094 1.02327 1 0.997727
1.01812 1.02102 1 0.997167
1.02104 1.02337 1 0.997725
0.998295 1 1 0.998295
0.998313 1 1 0.998313
1.00354 1 1.00516 0.998384
0.999519 1 1 0.999519
0.999602 1 1.00073 0.998871
1.03229 1.03593 0.999062 0.997418
1.03221 1.03544 0.999416 0.997463
1.02678 1.0303 0.998854 0.99772
0.998704 1.00059 1 0.998116
1.00122 1.00344 1.00026 0.997533
1.01022 1.01257 1.00076 0.996913
1.02343 1.02593 0.999809 0.997755
1.01767 1.02049 1 0.997244
1.02177 1.02405 0.999911 0.997864
0.999651 1 1 0.999651
0.998408 1.00016 1 0.998246
0.99832 1 1 0.99832
1.00226 1 1.00407 0.998194
1.00033 1 1.00172 0.998604
0.999122 1 1.00008 0.999039
1.03165 1.03743 0.996923 0.997501
1.02983 1.03679 0.995638 0.997645
1.02287 1.0288 0.996404 0.997818
1.02711 1.03071 0.998545 0.997961
0.999077 1.00111 1 0.997964
1.01824 1.02074 1 0.997549
1.00259 1.0039 1.00165 0.997063
1.00623 1.00844 1.00104 0.996775
0.999762 1 1 0.999762
0.999231 1 1 0.999231
0.998946 1 1.00018 0.99877
1.00253 1 1.00424 0.998294
0.998179 1.00003 1 0.998146
1.00097 1 1.0029 0.998077
0.999796 1 1 0.999796
0.999208 1 1 0.999208
1.02358 1.02636 1 0.997291
1.00181 1 1.00319 0.998624
0.99845 1 1.00027 0.998181
0.999778 1 1.00148 0.9983
1.01635 1.01908 1 0.997325
1.01724 1.01981 1 0.997477
1.00147 1.00121 1.00273 0.997533
1.00496 1.00756 1.00027 0.997147
0.99934 1 1 0.99934
1.00017 1 1.00136 0.998815
1.00018 1.00016 1.00198 0.998037
1.00184 1 1.00347 0.998373
0.998746 1 1.00048 0.998271
1.0243 1.02666 0.999953 0.997753
1.01264 1.01543 1 0.99726
1.01541 1.0179 1 0.99755
1.00298 1.00104 1.00458 0.997364
1.00169 1.00474 1.00003 0.996934
0.999029 1 1 0.999029
1.0012 1 1.00273 0.998477
1.00211 1.00046 1.00378 0.997872
0.999629 1 1.00155 0.998078
1.02679 1.0355 0.993604 0.997973
1.01868 1.02103 0.999872 0.997826
1.00742 1.0104 1 0.997051
1.00342 1.00217 1.00426 0.997002
0.999398 1 1 0.999398
0.999118 1 1 0.999118
0.99898 1 1 0.99898
0.999439 1 1 0.999439
0.99913 1 1 0.99913
0.999442 1 1 0.999442
0.999001 1 1 0.999001
0.999143 1 1 0.999143
0.998915 1 1 0.998915
0.99896 1 1 0.99896
0.99911 1 1 0.99911
0.999429 1 1 0.999429
0.999847 1 1 0.999847
0.999854 1 1 0.999854
1 1 1 1
0.999858 1 1 0.999858
1 1 1 1
1 1 1 1
1 1 1 1
1 1 1 1
1 1 1 1
1 1 1 1
1 1 1 1
1 1 1 1
0.99999 1 1 0.99999
1 1 1 1
1 1 1 1
1.02636 1.02899 1 0.997439
1.03292 1.03557 0.999932 0.997513
1.02885 1.03206 0.999066 0.99782
1.03104 1.0361 0.997464 0.997648
1.03311 1.03644 0.999375 0.997414
1.03097 1.03386 1 0.997212
1.03196 1.03567 0.999017 0.997402
1.03164 1.03733 0.996901 0.997603
1.031 1.03598 0.997457 0.997735
1.02945 1.03227 0.999436 0.997834
1.03177 1.03773 0.996696 0.997553
1.032 1.04076 0.993795 0.997778
1.03241 1.03851 0.996252 0.997872
1.03281 1.03609 0.999408 0.99742
1.03232 1.03555 0.999417 0.997464
1.02671 1.02983 0.99926 0.997709
0.999247 1.00114 1 0.998109
1.00245 1.00471 1.00018 0.997577
1.00962 1.0119 1.00085 0.996902
1.02404 1.02655 0.999806 0.997744
1.02002 1.02239 0.99984 0.997841
1.0178 1.02053 1 0.997322
0.998649 1.00041 1 0.998237
0.998402 1 1 0.998402
1.00208 1 1.00391 0.998179
0.999667 1 1 0.999667
0.999778 1 1.00116 0.998616
0.999065 1 1.00005 0.999012
1.03242 1.03772 0.997371 0.997508
1.03007 1.03698 0.995677 0.997653
1.0232 1.02855 0.996976 0.99781
0.999484 1.00153 1 0.997953
1.00209 1.00355 1.0014 0.997149
1.00564 1.00794 1.0009 0.996819
1.02707 1.03039 0.998808 0.99797
1.01864 1.02124 0.99992 0.997536
0.999804 1 1 0.999804
0.999231 1 1 0.999231
0.998239 1.00006 1 0.99818
1.00207 1 1.00392 0.998161
1.00246 1 1.00415 0.998316
0.99891 1 1.00016 0.998747
1.03102 1.03941 0.994217 0.997697
1.02251 1.03403 0.991051 0.997782
1.02285 1.02988 0.995164 0.998008
1.02023 1.02444 0.997896 0.997994
1.00019 1.00161 1.00088 0.997693
1.00534 1.00702 1.0014 0.996934
1.00305 1.00355 1.00264 0.996866
0.9999 1 1 0.9999
0.999524 1 1 0.999524
0.999322 1 1 0.999322
0.998874 1 1 0.998874
0.99982 1 1.00133 0.998489
1.00274 1 1.00456 0.998189
0.998212 1 1 0.998212
1.01618 1 1.01789 0.998319
0.999342 1 1 0.999342
1.00014 1 1.00132 0.998822
1.02462 1.02699 0.999907 0.997788
1.00235 1 1.00397 0.998377
1.0002 1 1.00215 0.998052
0.998378 1 1.00004 0.998343
1.0117 1.01447 1 0.997266
1.01661 1.01904 1 0.997624
1.00256 1.00042 1.00482 0.99733
1.00245 1.00558 1 0.996885
0.999009 1 1 0.999009
1.00137 1 1.00288 0.998491
1.00231 1.00027 1.00415 0.997898
0.999468 1 1.00136 0.998109
1.02816 1.03639 0.994063 0.997987
1.0185 1.02081 0.999949 0.997787
1.00846 1.0114 1 0.997091
1.0036 1.00288 1.00377 0.996958
0.999199 1 1.00038 0.998819
1.0255 1.03843 0.989534 0.997987
1.0011 1 1.00288 0.998224
1.00125 1.00096 1.00268 0.997625
1.02576 1.02966 0.998138 0.998075
1.00872 1.01157 1 0.997183
1.00481 1.00477 1.00323 0.996811
0.999131 1 1 0.999131
0.998976 1 1 0.998976
0.998888 1 1 0.998888
0.999442 1 1 0.999442
0.999155 1 1 0.999155
0.998986 1 1 0.998986
0.999427 1 1 0.999427
0.999114 1 1 0.999114
0.998902 1 1 0.998902
0.998982 1 1 0.998982
0.998849 1 1 0.998849
0.998865 1 1 0.998865
0.998939 1 1 0.998939
0.999092 1 1 0.999092
0.999398 1 1 0.999398
0.999835 1 1 0.999835
0.999845 1 1 0.999845
1 1 1 1
0.999853 1 1 0.999853
1 1 1 1
1 1 1 1
1 1 1 1
1 1 1 1
1 1 1 1
0.999927 1 1 0.999927
1 1 1 1
1 1 1 1
1 1 1 1
1 1 1 1
1 1 1 1
1 1 1 1
1.03113 1.03385 0.999537 0.997839
1.03049 1.03552 0.997409 0.997734
1.0311 1.03663 0.997068 0.997593
1.03156 1.0356 0.998691 0.997404
1.03132 1.03765 0.996323 0.997572
1.03219 1.04063 0.994105 0.997768
1.03183 1.0382 0.99597 0.997883
1.03192 1.04122 0.993294 0.997753
1.03599 1.04578 0.992734 0.99789
1.02109 1.03696 0.986561 0.998112
1.03323 1.03806 0.997823 0.997515
1.03031 1.03725 0.995633 0.997661
1.02343 1.02831 0.997448 0.997803
0.999816 1.00182 1.00006 0.997942
1.00152 1.00303 1.00126 0.997235
1.00525 1.00763 1.00078 0.996864
1.02722 1.03023 0.999095 0.997979
1.01866 1.02137 0.999821 0.997522
0.998215 1 1 0.998215
1.00311 1.00004 1.00483 0.998244
1.00303 1 1.0047 0.998339
0.999845 1 1 0.999845
0.999231 1 1 0.999231
0.999045 1 1.00032 0.998724
1.03095 1.03971 0.993853 0.997709
0.999896 1 1 0.999896
0.999502 1 1 0.999502
1.02208 1.0332 0.991437 0.997782
1.02316 1.03044 0.994949 0.997976
0.999523 1.00091 1.00084 0.99778
1.00335 1.00321 1.0033 0.996844
1.00586 1.00811 1.00084 0.996934
1.01911 1.02342 0.997813 0.997976
0.999385 1 1 0.999385
0.99887 1 1 0.99887
0.998166 1.00003 1 0.998138
1.01205 1 1.01364 0.998434
1.00241 1 1.00423 0.998185
1.00024 1 1.00174 0.998504
1.03536 1.04507 0.992847 0.99785
1.01125 1.0316 0.982316 0.997921
1.01902 1.0278 0.993254 0.998184
1.00493 1.00994 0.997336 0.997697
1.00069 1.00056 1.00235 0.997791
1.00402 1.00183 1.00547 0.996734
0.999511 1 1 0.999511
0.999472 1 1 0.999472
0.999236 1 1 0.999236
0.998921 1 1 0.998921
0.998892 1 1.00023 0.998667
1.0002 1 1.00196 0.998245
1.0233 1 1.02518 0.99816
1.0009 1 1.00244 0.998464
0.998989 1 1 0.998989
1.00121 1 1.00271 0.998505
1.02919 1.03684 0.994609 0.998002
1.01849 1.02079 1 0.997749
0.999244 1 1.00111 0.99814
1.00233 1.00001 1.00441 0.997923
1.00978 1.01265 1.00004 0.99713
1.00364 1.00338 1.00335 0.996914
0.999244 1 1.00043 0.99881
1.02675 1.0404 0.988833 0.99802
1.00096 1 1.00272 0.998242
1.00084 1.00056 1.00269 0.99759
1.02451 1.02888 0.997702 0.998049
1.00893 1.01173 1 0.997239
1.00479 1.00449 1.00348 0.996825
1.00034 1 1.00181 0.998529
1.01777 1.03122 0.988554 0.998385
1.00063 1.00079 1.00184 0.998009
1.00251 1.00143 1.00379 0.9973
1.01222 1.01784 0.996764 0.99771
1.00238 1.00321 1.00221 0.996963
1.00148 1.00693 0.996218 0.998363
0.998972 1 1 0.998972
0.998988 1 1.0001 0.998885
0.998871 1 1.0001 0.998769
0.999426 1 1 0.999426
0.999117 1 1 0.999117
0.999004 1 1 0.999004
0.998889 1 1 0.998889
0.999397 1 1 0.999397
0.999081 1 1 0.999081
0.998829 1 1 0.998829
0.998938 1 1 0.998938
0.998875 1 1 0.998875
0.998809 1 1 0.998809
0.998806 1 1 0.998806
0.998926 1 1 0.998926
0.999015 1 1 0.999015
0.999322 1 1 0.999322
0.999146 1 1 0.999146
0.999313 1 1 0.999313
0.999827 1 1 0.999827
0.999834 1 1 0.999834
1 1 1 1
0.999844 1 1 0.999844
1 1 1 1
1 1 1 1
1 1 1 1
1 1 1 1
1 1 1 1
0.999945 1 1 0.999945
0.999925 1 1 0.999925
1 1 1 1
1 1 1 1
1 1 1 1
1 1 1 1
1 1 1 1
1 1 1 1
1.03132 1.03804 0.995626 0.997895
1.03235 1.04052 0.994376 0.997757
1.03087 1.03757 0.995942 0.997592
1.0318 1.04107 0.993329 0.997751
1.03434 1.04404 0.992802 0.997887
1.0218 1.03661 0.98761 0.998075
1.03504 1.04716 0.990449 0.997953
0.991329 1.01596 0.978305 0.997396
1.00888 1.02869 0.982078 0.99864
0.999595 1 1 0.999595
1.03084 1.03994 0.993518 0.997722
1.02205 1.03245 0.992125 0.997782
1.0236 1.031 0.994867 0.997944
0.999172 1.00049 1.00082 0.997867
1.00359 1.00276 1.00402 0.996822
1.00654 1.00918 1.00045 0.996934
1.01787 1.02225 0.997754 0.997958
0.998065 1 1 0.998065
1.00785 1 1.00932 0.998551
1.00184 1 1.00367 0.998182
0.999891 1 1 0.999891
1.00045 1 1.00193 0.998519
0.999448 1 1 0.999448
0.998867 1 1 0.998867
0.999479 1 1 0.999479
1.03389 1.04546 0.991056 0.997858
0.999542 1 1 0.999542
0.99947 1 1 0.99947
0.999196 1 1 0.999196
1.01283 1.03112 0.984301 0.997923
1.019 1.02791 0.993181 0.998137
1.00008 1.00046 1.00181 0.997812
1.00405 1.00171 1.00556 0.996793
1.00405 1.00843 0.997967 0.997691
0.998957 1 1 0.998957
0.999003 1 1.00037 0.998636
1.00425 1 1.00587 0.998388
1.01896 1 1.0208 0.998199
0.999952 1 1.00168 0.998274
1.02389 1.0382 0.988247 0.99794
1.01021 1.03349 0.979395 0.998041
1.01161 1.01791 0.99591 0.997888
1.00022 1.00397 0.998758 0.997499
1.00318 1 1.00518 0.998003
0.999161 1 1 0.999161
0.999061 1 1 0.999061
0.998943 1 1 0.998943
0.998951 1 1.00024 0.99871
0.999757 1 1.00129 0.998468
1.01676 1 1.01859 0.998198
1.01795 1 1.01984 0.998146
0.999279 1 1.00048 0.998801
1.0008 1 1.00255 0.998259
1.0276 1.04275 0.987393 0.998052
1.02314 1.02818 0.997069 0.998022
1.00866 1.0114 1 0.997294
1.00049 1.00026 1.00268 0.997555
1.00453 1.0041 1.0036 0.99684
1.00026 1 1.0017 0.998568
1.01552 1.03082 0.986734 0.998401
0.999791 1.00041 1.00135 0.998035
1.0022 1.00083 1.00408 0.997309
1.01311 1.01838 0.997022 0.997797
1.00227 1.00264 1.00269 0.996949
1.00039 1.00695 0.995692 0.997778
1.00023 1 1.00183 0.998395
1.00647 1.01873 0.989563 0.998382
1.00014 1.00018 1.00194 0.998021
1.0042 1.0005 1.00636 0.997349
0.998829 1.0058 0.995586 0.997471
0.949338 0.981914 0.982057 0.984489
0.964897 0.984246 0.987878 0.992371
0.984275 0.9967 0.989119 0.998397
0.83462 0.889784 0.959209 0.977893
0.785362 0.88213 0.914769 0.973253
0.998965 1 1.00008 0.998882
0.999112 1 1.00032 0.998789
0.998788 1 1 0.998788
0.999397 1 1 0.999397
0.999071 1 1 0.999071
0.998938 1 1 0.998938
0.998886 1 1 0.998886
0.998808 1 1 0.998808
0.998918 1 1.00001 0.998904
0.999347 1 1 0.999347
0.99903 1 1 0.99903
0.998806 1 1 0.998806
0.998822 1 1.00001 0.998815
0.998855 1 1.00003 0.998822
0.999065 1 1.00026 0.99881
0.998842 1 1 0.998842
0.998987 1 1 0.998987
0.999305 1 1 0.999305
0.999056 1 1 0.999056
0.998979 1 1 0.998979
0.999132 1 1 0.999132
0.999115 1 1 0.999115
0.999387 1 1 0.999387
0.999311 1 1 0.999311
0.999822 1 1 0.999822
0.999826 1 1 0.999826
1 1 1 1
0.999833 1 1 0.999833
1 1 1 1
1 1 1 1
1 1 1 1
1 1 1 1
1 1 1 1
0.999955 1 1 0.999955
0.999942 1 1 0.999942
1 1 1 1
0.999922 1 1 0.999922
1 1 1 1
1 1 1 1
1 1 1 1
1 1 1 1
1 1 1 1
1.03258 1.04221 0.99286 0.997884
1.0317 1.04092 0.993373 0.997749
1.02275 1.03625 0.988907 0.998038
0.994967 1.01578 0.982021 0.997447
1.03284 1.04508 0.990321 0.997951
1.01531 1.03105 0.986168 0.998547
1.02926 1.03672 0.99477 0.998023
0.955102 0.984216 0.978697 0.991543
1.0025 1.01935 0.985528 0.997915
0.999601 1 1 0.999601
0.999593 1 1 0.999593
0.999255 1 1 0.999255
0.999287 1 1 0.999287
1.03229 1.04573 0.989256 0.997866
1.01349 1.03016 0.985868 0.997925
1.0188 1.02787 0.993071 0.998091
0.998897 1.00029 1.00077 0.997833
1.00389 1.00169 1.00536 0.99685
1.00326 1.00729 0.998311 0.997685
1.00745 1 1.00916 0.99831
1.01464 1 1.01643 0.998237
0.999663 1 1.00136 0.998302
0.999469 1 1 0.999469
0.998977 1 1.00037 0.998605
0.998993 1 1 0.998993
0.999573 1 1 0.999573
0.999156 1 1 0.999156
1.02178 1.03764 0.986737 0.997955
0.999206 1 1 0.999206
0.999098 1 1 0.999098
0.998989 1 1 0.998989
1.0129 1.03562 0.979984 0.998044
1.01018 1.01703 0.995376 0.997887
1.00269 1.00001 1.0047 0.997989
1.00092 1.00436 0.999055 0.997526
0.999024 1 1.00032 0.9987
0.999361 1 1.00093 0.998432
1.01949 1 1.02139 0.99814
1.01758 1 1.01945 0.998168
1.0071 1.03288 0.976943 0.998049
1.00353 1.02608 0.979976 0.998002
1.00462 1.00792 0.99913 0.997591
0.996068 1.00034 0.997551 0.998178
0.998838 1 1 0.998838
0.999203 1 1.00041 0.998788
1.00557 1 1.00706 0.99852
1.03111 1 1.03316 0.998021
0.928196 0.972144 0.970906 0.983404
1.00049 1 1.00189 0.998607
0.999172 1.00002 1.00109 0.99806
1.01379 1.03022 0.985614 0.998416
1.0143 1.01919 0.997316 0.997884
1.00263 1.00241 1.0033 0.996934
1.00197 1.0002 1.00447 0.997317
0.999751 1.00684 0.995763 0.997181
1.00024 1 1.00182 0.998429
1.00696 1.01932 0.989491 0.99837
0.99963 1.00016 1.00144 0.998033
1.00385 1.0004 1.00611 0.997348
1.00062 1.00677 0.996386 0.997494
0.948268 0.985343 0.978461 0.983559
0.960344 0.981765 0.987659 0.990404
0.984553 0.994658 0.991408 0.998419
0.836689 0.888404 0.962981 0.977993
0.769731 0.87104 0.910108 0.970975
0.999552 1 1.00095 0.998606
0.860812 0.91089 0.965507 0.978784
0.828681 0.887372 0.958142 0.974657
0.985698 1.00713 0.980428 0.998256
1.00512 1.00037 1.00657 0.998189
1.01133 1.00348 1.01019 0.997658
0.977006 0.990149 0.988151 0.998558
0.944613 0.971461 0.988781 0.983395
0.94513 0.961797 0.993062 0.989537
0.812546 0.889848 0.933166 0.978528
0.843396 0.925097 0.935098 0.97496
0.999508 1 1.0007 0.99881
0.999158 1 1.00038 0.998776
0.999796 1 1.00079 0.999011
0.999372 1 1 0.999372
0.999045 1 1 0.999045
0.998927 1 1.00004 0.998883
0.998825 1 1 0.998823
0.998804 1 1 0.998804
0.999306 1 1 0.999306
0.998843 1 1.00003 0.998816
0.998882 1 1.00002 0.99886
0.999012 1 1 0.999012
0.999101 1 1.00029 0.998811
0.999122 1 1.00032 0.998799
0.999836 1 1.001 0.998841
0.998823 1 1 0.998823
0.999016 1 1 0.999016
0.999053 1 1 0.999053
0.998968 1 1 0.998968
0.998892 1 1 0.998892
0.998967 1 1 0.998967
0.998918 1 1 0.998918
0.998813 1 1 0.998813
0.99911 1 1 0.99911
0.999131 1 1 0.999131
0.999405 1 1 0.999405
0.999083 1 1 0.999083
0.999365 1 1 0.999365
0.999819 1 1 0.999819
0.999308 1 1 0.999308
0.999822 1 1 0.999822
1 1 1 1
0.999826 1 1 0.999826
1 1 1 1
1 1 1 1
1 1 1 1
1 1 1 1
1 1 1 1
0.999575 1 1 0.999575
0.999954 1 1 0.999954
0.999953 1 1 0.999953
1 1 1 1
0.999939 1 1 0.999939
1 1 1 1
1 1 1 1
1 1 1 1
1 1 1 1
1 1 1 1
0.9974 1.01579 0.984354 0.997501
1.03122 1.04303 0.990704 0.997949
1.02022 1.03352 0.98867 0.998453
0.949937 0.978876 0.977788 0.992481
1.00263 1.01907 0.985817 0.99802
1.031 1.03975 0.993588 0.997984
1.01583 1.02456 0.993647 0.997815
0.962 0.981096 0.987172 0.993277
0.949894 0.979939 0.986214 0.982889
0.817589 0.883344 0.946634 0.97774
0.766094 0.854149 0.922046 0.972738
0.999242 1 1 0.999242
0.9996 1 1 0.9996
0.999592 1 1 0.999592
0.999242 1 1 0.999242
0.999028 1 1 0.999028
0.999062 1 1 0.999062
0.999226 1 1 0.999226
0.999262 1 1 0.999262
1.01991 1.03749 0.985056 0.997969
1.01655 1.03872 0.980578 0.998045
1.00909 1.01624 0.995061 0.997885
1.00299 1.00009 1.00493 0.997976
1.00167 1.00444 0.999684 0.997554
1.02087 1 1.02277 0.998135
1.01897 1 1.02087 0.998138
0.999148 1 1.00075 0.998396
0.999136 1 1 0.999136
0.998993 1 1.0003 0.99869
0.999251 1 1 0.999251
0.999034 1 1 0.999034
1.0081 1.03318 0.977651 0.998038
0.998865 1 1 0.998865
0.999006 1 1.0002 0.99881
1.00432 1.02555 0.981277 0.99798
1.00268 1.00749 0.997522 0.997703
0.9981 1.00066 0.999339 0.998101
1.00794 1 1.0095 0.998456
1.02788 1 1.0299 0.998034
1.00415 1.02654 0.980118 0.998032
0.986303 1.00794 0.980457 0.998038
0.992415 1.00062 0.993735 0.998053
1.00339 1.00025 1.00492 0.998237
0.99905 1 1.00041 0.998637
1.00307 1 1.0045 0.99857
1.02644 1 1.02824 0.998255
0.849534 0.916497 0.946393 0.979441
0.942493 0.976754 0.97938 0.985239
0.999857 1 1.0014 0.998463
0.999245 1.00014 1.00107 0.998045
1.00793 1.02022 0.989571 0.99836
1.00223 1.00765 0.997098 0.997518
1.00337 1.00033 1.00571 0.997348
0.944529 0.97762 0.982805 0.983054
0.96436 0.987109 0.985773 0.991054
0.985793 0.993317 0.99398 0.998436
0.831489 0.889662 0.954967 0.978686
0.756503 0.859737 0.908396 0.968656
0.999333 1 1.00073 0.998606
0.854156 0.913994 0.95439 0.979192
0.822035 0.880718 0.958668 0.973611
0.987536 1.00795 0.981463 0.99825
1.00476 1.00039 1.00617 0.998212
1.00998 1.00189 1.0103 0.997797
0.968708 0.984659 0.985121 0.99866
0.950543 0.98008 0.987645 0.981995
0.947141 0.965894 0.989052 0.99144
0.816172 0.884323 0.944515 0.977151
0.841274 0.927195 0.931337 0.974226
1.00104 1 1.00216 0.998875
0.856569 0.897129 0.97792 0.976346
0.925373 0.955708 0.986458 0.981552
0.989374 0.999829 0.990766 0.998766
1.01272 1.002 1.01196 0.998745
0.981705 0.975384 1.00772 0.998773
0.929454 0.950118 0.985656 0.992487
0.932862 0.953953 0.996196 0.981624
0.830438 0.897115 0.946864 0.977624
0.871567 0.949869 0.938621 0.977567
0.999416 1 1.00065 0.998765
0.999456 1 1.00047 0.998987
1.00291 1 1.00372 0.99919
0.999307 1 1 0.999307
0.999038 1 1 0.999038
0.998905 1 1.00003 0.998877
0.998829 1 1.00002 0.99881
0.999182 1 1.00037 0.998813
0.999015 1 1 0.999015
0.998973 1 1.00017 0.998801
0.998824 1 1 0.998824
1.00095 1 1.00208 0.998871
1.01226 0.999976 1.01314 0.999154
0.999181 1 1.00041 0.998771
0.998796 1 1 0.998796
0.99905 1 1 0.99905
0.998957 1 1 0.998957
0.998889 1 1 0.998889
0.998963 1 1 0.998963
0.998935 1 1 0.998935
0.998912 1 1 0.998912
0.998859 1 1 0.998859
0.998922 1 1 0.998922
0.99873 1 1.00004 0.998692
0.999211 1 1.00093 0.998284
0.998821 1 1.00013 0.99869
0.998811 1 1 0.998811
0.999048 1 1 0.999048
0.999108 1 1 0.999108
0.9994 1 1 0.9994
0.999131 1 1 0.999131
0.999406 1 1 0.999406
0.999819 1 1 0.999819
0.999344 1 1 0.999344
0.99982 1 1 0.99982
1 1 1 1
0.999822 1 1 0.999822
1 1 1 1
1 1 1 1
1 1 1 1
1 1 1 1
1 1 1 1
0.999594 1 1 0.999594
0.999943 1 1 0.999943
0.999575 1 1 0.999575
1 1 1 1
0.999955 1 1 0.999955
0.99995 1 1 0.99995
1 1 1 1
1 1 1 1
1 1 1 1
1 1 1 1
1 1 1 1
0.850705 0.904459 0.961373 0.978358
0.831233 0.888805 0.959056 0.975152
0.952549 0.982528 0.976341 0.992981
1.00481 1.01871 0.988203 0.998126
1.03363 1.04262 0.993422 0.997944
0.952454 0.971532 0.985697 0.994588
1.01531 1.02408 0.993542 0.997883
0.954941 0.986245 0.983807 0.984196
0.83074 0.889539 0.955107 0.977797
0.758316 0.854956 0.914008 0.970412
0.980519 0.997852 0.986567 0.996009
0.947241 0.973744 0.988729 0.983872
0.805924 0.884887 0.931209 0.978045
0.832879 0.916102 0.933817 0.973591
0.998931 1 1 0.998931
0.999265 1 1 0.999265
0.999599 1 1 0.999599
0.99923 1 1 0.99923
0.999064 1 1 0.999064
0.999194 1 1.00025 0.998946
0.999059 1 1 0.999059
0.999061 1 1 0.999061
0.999198 1 1 0.999198
0.999238 1 1 0.999238
1.00917 1.03297 0.978896 0.998027
1.00351 1.0238 0.982186 0.99796
1.0008 1.00728 0.995743 0.997815
0.999844 1.00097 1.00085 0.998024
1.02361 1 1.02562 0.998046
1.01055 1 1.01218 0.998393
0.998831 1 1 0.998831
0.998891 1 1 0.998891
1.00353 1.02685 0.979197 0.998051
0.999442 1 1.00082 0.99862
1.00304 1 1.00451 0.998538
0.986275 1.00648 0.98193 0.997958
0.991577 1.00043 0.99297 0.998169
1.00431 1.0008 1.00538 0.998138
1.02343 1 1.02525 0.998228
0.99677 1.0045 0.993949 0.998348
0.985344 1 0.98658 0.998747
1.01337 1.00043 1.01464 0.998318
1.00215 1 1.00355 0.998596
1.00159 1 1.00314 0.998455
1.01572 1 1.0174 0.998346
0.866951 0.905652 0.977226 0.979576
0.858606 0.91552 0.957747 0.979209
0.934129 0.97611 0.973108 0.983437
0.999088 1 1.00048 0.998606
1.00438 1.00035 1.00581 0.998235
0.990145 1.00861 0.983416 0.998244
1.00875 1.00034 1.0105 0.997934
0.846992 0.908429 0.95225 0.979123
0.950718 0.978259 0.987838 0.983812
0.939522 0.964015 0.984817 0.989618
0.964548 0.980096 0.985356 0.998763
0.816509 0.884824 0.94464 0.976873
0.824476 0.885704 0.956095 0.973618
0.830454 0.919646 0.926557 0.974593
1.00171 1 1.00283 0.998881
0.857568 0.900624 0.974308 0.977302
0.931717 0.96098 0.987876 0.981448
0.991536 1.00006 0.992618 0.998849
1.01235 1.00065 1.01298 0.998721
0.979067 0.974318 1.0061 0.998783
0.929993 0.952592 0.985564 0.990577
0.935204 0.958112 0.993142 0.982831
0.843897 0.910888 0.947567 0.977721
0.859864 0.939509 0.935889 0.977923
1.00364 0.999757 1.00443 0.999456
0.930185 0.961003 0.98274 0.984932
0.911085 0.949205 0.974184 0.985276
1.00188 0.988153 1.01418 0.999715
0.94948 0.95278 1.00133 0.995211
0.940304 0.952776 1.00497 0.982031
0.880796 0.929875 0.969002 0.977521
0.879479 0.963636 0.934035 0.977123
0.999236 1 1.00027 0.998964
1.00179 1 1.0026 0.999193
1.0145 1 1.01513 0.999385
0.999014 1 1 0.999014
0.998825 1 1 0.998825
0.998803 1 1 0.998803
1.00161 1 1.00272 0.9989
0.998794 1 1 0.998794
0.999373 1 1.00061 0.998765
1.0144 1 1.01521 0.999206
1.02384 0.99766 1.02681 0.999446
1.01213 1 1.01305 0.999085
0.998755 1 1 0.998755
0.998885 1 1 0.998885
0.998958 1 1 0.998958
0.998952 1 1 0.998952
0.998871 1 1 0.998871
0.998911 1 1 0.998911
0.99893 1 1 0.99893
0.998884 1 1.00005 0.998838
0.999939 1 1.00087 0.999071
0.998732 1 1 0.998732
0.998742 1 1.00002 0.998719
0.999118 1 1.00069 0.998424
0.999352 1 1.00153 0.99783
0.999265 1 1.00067 0.998597
0.999174 1 1.00079 0.998383
0.998782 1 1.00006 0.998721
0.999033 1 1.00012 0.998915
0.998808 1 1 0.998808
0.999046 1 1 0.999046
0.999358 1 1 0.999358
0.999105 1 1 0.999105
0.999399 1 1 0.999399
0.999816 1 1 0.999816
0.999406 1 1 0.999406
0.999819 1 1 0.999819
1 1 1 1
0.99982 1 1 0.99982
1 1 1 1
1 1 1 1
1 1 1 1
1 1 1 1
1 1 1 1
0.999451 1 1 0.999451
0.999925 1 1 0.999925
0.99954 1 1 0.99954
1 1 1 1
0.999946 1 1 0.999946
0.999576 1 1 0.999576
1 1 1 1
1 1 1 1
0.999955 1 1 0.999955
1 1 1 1
1 1 1 1
1 1 1 1
0.858373 0.899754 0.975287 0.978183
0.854905 0.911129 0.959017 0.97839
0.929639 0.962078 0.98471 0.981287
0.823036 0.882141 0.957626 0.974283
0.949838 0.975866 0.980573 0.992611
1.01285 1.0237 0.991427 0.997955
0.959943 0.986111 0.987863 0.985424
0.833277 0.892815 0.954313 0.977997
0.754366 0.858887 0.907283 0.968063
0.977119 0.99504 0.98664 0.995286
0.945509 0.973941 0.988828 0.981775
0.818273 0.892529 0.938607 0.976769
0.832574 0.918662 0.931859 0.972561
0.958903 0.982972 0.981273 0.994131
0.944261 0.959117 1.00326 0.981314
0.843358 0.914522 0.943925 0.976969
0.866332 0.950105 0.934428 0.975813
0.999421 1 1.00067 0.998752
0.998965 1 1 0.998965
0.999287 1 1 0.999287
0.999099 1 1 0.999099
0.99875 1 1.00001 0.998744
0.998974 1 1 0.998971
0.999056 1 1 0.999056
0.999028 1 1 0.999028
0.99909 1 1 0.99909
0.99917 1 1 0.99917
1.00437 1.02803 0.978877 0.99807
0.988275 1.00596 0.984508 0.997879
0.990628 1.00023 0.992101 0.998283
1.00597 1.00138 1.00656 0.998041
1.02022 1 1.02206 0.998202
1.0026 1 1.0041 0.998506
0.999777 1 1.00118 0.998603
1.00138 1 1.0028 0.998585
0.993205 1.00535 0.989539 0.998359
1.00121 1 1.00276 0.998461
1.01533 1 1.01702 0.99834
0.984273 1.00028 0.98531 0.998671
1.01342 1.00099 1.01415 0.998291
0.965927 0.989861 0.976951 0.998843
1.0013 0.997245 1.00481 0.999256
1.02303 1 1.02453 0.998536
1.00051 1 1.00205 0.99847
1.0083 1 1.00996 0.998351
0.932756 0.958159 0.986628 0.986682
0.871056 0.905518 0.982014 0.97956
0.850229 0.910829 0.953388 0.979104
1.00236 1 1.00348 0.998885
1.0121 0.999416 1.01401 0.998695
0.991289 1 0.992353 0.998927
0.866396 0.906144 0.977544 0.978099
0.944164 0.957361 1.00492 0.981387
0.931428 0.952577 0.985802 0.99188
0.968772 0.970105 0.999859 0.998767
0.844753 0.91048 0.948974 0.977698
0.93655 0.964558 0.989413 0.981352
0.860819 0.940514 0.935838 0.978016
1.00319 0.999376 1.00439 0.99943
0.926992 0.958696 0.980834 0.985823
0.913025 0.950902 0.974508 0.985285
1.00343 0.990484 1.01351 0.999568
0.955399 0.957296 1.00321 0.994824
0.927949 0.949587 0.996479 0.980667
0.88249 0.965331 0.934762 0.977986
0.8817 0.930472 0.969329 0.977567
1.00408 0.992436 1.01203 0.999711
0.909397 0.945197 0.970952 0.990908
0.923203 0.96298 0.972225 0.986081
0.86801 0.950913 0.935368 0.975891
0.986808 0.973616 1.01485 0.998723
0.959065 0.963258 1.01307 0.982804
0.894154 0.932749 0.98021 0.977977
1.00137 1 1.00218 0.999195
1.01372 1 1.01442 0.999317
1.01664 0.995511 1.02167 0.999566
0.998792 1 1 0.998792
0.999552 1 1.00079 0.99876
1.01818 1 1.01894 0.999258
0.998766 1 1 0.998766
1.01151 1 1.01242 0.999094
1.02583 0.997697 1.0288 0.999421
1.0123 0.996982 1.01589 0.999489
1.0077 1 1.00862 0.999086
0.998882 1 1 0.998882
0.99891 1 1 0.99891
0.998938 1 1 0.998938
0.999551 1 1.0005 0.999053
0.998865 1 1.00002 0.998846
0.999639 1 1.00065 0.998992
0.998881 1 1 0.998881
1.00077 1 1.00259 0.998183
0.998747 1 1 0.998747
0.998948 1 1.00057 0.998382
0.998663 1 1.00101 0.997653
0.999029 1 1.00129 0.997742
0.999952 1 1.00157 0.998385
0.999233 1 1.00138 0.997853
0.999677 1 1.0009 0.99878
0.999439 1 1.00087 0.998568
0.999126 1 1.00065 0.998481
0.998753 1 1 0.998753
0.999013 1 1.00007 0.998947
0.999284 1 1 0.999284
0.999045 1 1 0.999045
0.999357 1 1 0.999357
0.999799 1 1 0.999799
0.999398 1 1 0.999398
0.999815 1 1 0.999815
1 1 1 1
0.999819 1 1 0.999819
1 1 1 1
1 1 1 1
1 1 1 1
1 1 1 1
1 1 1 1
0.999285 1 1 0.999285
0.999808 1 1 0.999808
0.999449 1 1 0.999449
1 1 1 1
0.999891 1 1 0.999891
0.999486 1 1 0.999486
1 1 1 1
1 1 1 1
0.999949 1 1 0.999949
1 1 1 1
1 1 1 1
1 1 1 1
0.923156 0.956746 0.978886 0.985704
0.84828 0.897795 0.965791 0.978317
0.854474 0.90768 0.962346 0.978216
0.998926 1 1 0.998926
0.913507 0.946321 0.97867 0.986365
0.930145 0.962078 0.985322 0.981211
0.820366 0.884904 0.951315 0.974511
0.980784 0.99647 0.9898 0.994401
0.946564 0.972324 0.989784 0.983554
0.824562 0.904072 0.934032 0.976469
0.826554 0.911077 0.932683 0.972707
0.960024 0.982838 0.984832 0.991831
0.931342 0.953541 0.993809 0.982804
0.853889 0.918111 0.95195 0.976994
0.864635 0.945781 0.937001 0.975668
0.937754 0.95992 0.986864 0.989912
0.938884 0.947791 1.00998 0.98081
0.888324 0.937542 0.969425 0.977387
0.879566 0.962202 0.935534 0.977108
0.999448 1 1.00088 0.998573
0.999778 1 1.00105 0.998726
0.998998 1 1 0.998998
0.998745 1 1 0.998745
0.998909 1 1.00012 0.998785
0.998996 1 1 0.998996
0.999036 1 1 0.999036
0.999119 1 1 0.999119
0.987059 1.00546 0.983299 0.998369
0.98215 1.00015 0.983382 0.998596
1.00061 1 1.00204 0.998574
1.01386 1.00161 1.01399 0.998263
1.01618 1 1.01787 0.998333
1.00121 1 1.00275 0.998466
1.00079 1 1.00232 0.998479
0.970683 0.99164 0.979962 0.998882
1.00936 1 1.011 0.998381
1.01935 1.00022 1.02062 0.998542
0.996333 0.997742 0.999295 0.999292
1.00025 1 1.00174 0.998517
0.961083 0.98087 0.980702 0.999108
1.00743 0.994471 1.01358 0.999454
1.03393 1 1.03535 0.998623
1.00208 1 1.00358 0.998505
0.922267 0.948159 0.980543 0.991994
0.93214 0.957466 0.986573 0.986799
0.876286 0.905524 0.987917 0.979547
1.00206 0.998905 1.00375 0.999406
1.00662 0.99316 1.01414 0.999424
0.925072 0.957582 0.979065 0.986707
0.948163 0.951821 1.01384 0.982562
0.949584 0.955789 1.0012 0.992318
0.886037 0.934373 0.970934 0.976657
0.914154 0.95186 0.974724 0.985292
0.886582 0.968084 0.935603 0.978846
1.00569 0.994894 1.01118 0.999671
0.910255 0.945635 0.971419 0.990907
0.921006 0.961032 0.97064 0.98734
0.995806 0.980293 1.01607 0.999763
0.865533 0.946575 0.93715 0.975707
0.946044 0.953896 1.01002 0.98193
0.904654 0.945715 0.978786 0.977314
1.00633 0.990582 1.01613 0.999771
0.924452 0.960007 0.970745 0.991984
0.914256 0.947313 0.978376 0.986435
0.83186 0.916602 0.932075 0.973685
0.887913 0.938924 0.967882 0.977051
0.969112 0.966398 1.00516 0.997664
0.961914 0.95714 1.02573 0.979776
1.0111 1 1.01186 0.99925
1.01602 0.994907 1.0217 0.999538
1.004 0.983989 1.02076 0.999582
0.998777 1 1 0.998777
1.01034 1 1.01125 0.999102
1.02643 0.998456 1.02864 0.999396
1.00467 1 1.0056 0.999072
1.01248 0.997657 1.01538 0.999488
1.00799 0.996717 1.01207 0.999246
0.999034 1 1 0.999034
0.998854 1 1 0.998854
1.00056 1 1.0016 0.998965
1.00631 1 1.00789 0.99844
0.999029 1 1 0.999029
1.00028 1 1.00199 0.998296
1.00167 1 1.00413 0.997549
1.00086 1.00183 1.00188 0.997168
0.998743 1 1.0004 0.99834
0.998922 1.00029 1.00109 0.997544
0.998692 1.00034 1.00053 0.997833
1.00045 1 1.00232 0.998137
0.999053 1 1.00125 0.997802
1.00119 1 1.00256 0.998628
1.00006 1 1.00169 0.998376
0.999153 1 1.00128 0.997878
0.999156 1 1 0.999156
0.999709 1 1.00093 0.998777
0.999707 1 1.00117 0.998539
0.998983 1 1 0.998979
0.999282 1 1 0.999282
0.99976 1 1 0.99976
0.999356 1 1 0.999356
0.999796 1 1 0.999796
1 1 1 1
0.999813 1 1 0.999813
1 1 1 1
1 1 1 1
1 1 1 1
1 1 1 1
1 1 1 1
0.999215 1 1 0.999215
0.999725 1 1 0.999725
0.999316 1 1 0.999316
1 1 1 1
0.9998 1 1 0.9998
0.999448 1 1 0.999448
1 1 1 1
1 1 1 1
0.999857 1 1 0.999857
1 1 1 1
1 1 1 1
1 1 1 1
0.91216 0.946183 0.972788 0.991009
0.925167 0.956992 0.980777 0.985692
0.848276 0.898993 0.964387 0.97843
0.998945 1 1 0.998945
0.998891 1 1 0.998891
0.998788 1 1 0.998788
0.920238 0.962253 0.969909 0.986007
0.911123 0.945837 0.976596 0.986384
0.931654 0.962176 0.986895 0.981136
0.966067 0.985404 0.986784 0.993507
0.928844 0.953208 0.993019 0.98129
0.843787 0.905419 0.953209 0.977677
0.875265 0.95253 0.942196 0.975259
0.940882 0.961187 0.986835 0.991934
0.935808 0.94748 1.00616 0.981631
0.87502 0.920985 0.970932 0.978536
0.881327 0.964283 0.93458 0.977948
0.928966 0.950786 0.986389 0.990533
0.953174 0.957575 1.01349 0.982152
0.895431 0.931257 0.98299 0.978168
0.872519 0.949541 0.940062 0.977472
0.998563 1 1 0.998563
0.999751 1 1.00119 0.998564
0.999851 1 1.00115 0.9987
0.99874 1 1 0.99874
0.998827 1 1 0.998827
0.999044 1 1 0.999044
0.977636 0.994118 0.984493 0.998911
0.992011 0.998201 0.994472 0.999323
1.00098 1 1.0025 0.998487
1.01486 1.00041 1.01592 0.998548
1.01016 1 1.01177 0.998411
1.00007 1 1.00158 0.998492
1.00169 1 1.00317 0.998523
0.971786 0.983324 0.9891 0.999157
1.02924 1 1.03055 0.998731
1.00659 0.989962 1.01733 0.999477
0.999995 1 1.00135 0.998645
0.985612 0.972193 1.01454 0.999274
1.00242 0.98731 1.01579 0.999521
1.02411 1 1.02529 0.998853
0.938888 0.963925 0.980599 0.993298
0.921973 0.948321 0.979703 0.992358
0.931862 0.956635 0.987021 0.986914
1.00857 0.99765 1.01132 0.999631
0.989747 0.981355 1.00941 0.99915
0.911269 0.946162 0.97196 0.990907
0.944771 0.946774 1.01252 0.985546
0.902653 0.942785 0.979133 0.977837
0.919862 0.9594 0.969845 0.9886
0.876368 0.953142 0.942702 0.975337
1.00389 0.989575 1.01468 0.999788
0.925304 0.960253 0.971002 0.992381
0.912781 0.947219 0.976875 0.986454
0.968431 0.963537 1.01036 0.99477
0.831181 0.918471 0.930359 0.972701
0.87238 0.923171 0.966056 0.978185
0.969745 0.961268 1.02731 0.982
1.0007 0.971448 1.03061 0.999518
0.912875 0.946698 0.972941 0.99109
0.931754 0.963961 0.984874 0.981433
0.764001 0.852032 0.921554 0.97301
0.843837 0.915195 0.943747 0.976987
0.95214 0.956265 1.01419 0.981752
0.947375 0.958897 0.994914 0.993034
1.01618 0.994247 1.02256 0.999509
1.00744 0.988649 1.01943 0.999586
1.01644 0.994187 1.02287 0.999529
1.00168 1 1.00263 0.999057
1.0132 0.997752 1.016 0.999487
1.00965 0.99643 1.01395 0.999324
1.01409 1 1.01529 0.998815
1.00159 1 1.00266 0.998938
1.00658 1 1.00827 0.99833
1.01487 1 1.01743 0.997477
0.999854 1 1.00145 0.998411
1.00313 1.00054 1.00509 0.997507
1.00485 1.00209 1.00596 0.996814
1.00326 1.00461 1.00191 0.996748
0.999232 1.00067 1.00108 0.997487
1.00077 1.00176 1.00189 0.997126
0.999192 1.00052 1.00124 0.997436
0.999158 1.00003 1.0011 0.998032
0.998597 1.00019 1.00048 0.997926
1.00116 1 1.00282 0.998347
1.00055 1 1.00238 0.998179
0.999031 1 1.00117 0.997863
1.00038 1 1.00145 0.99894
1.0007 1 1.00207 0.99863
1.00005 1 1.00168 0.998367
0.99969 1 1 0.99969
0.999194 1 1.00004 0.999154
0.999629 1 1.00086 0.998775
0.99928 1 1 0.99928
0.999756 1 1 0.999756
1 1 1 1
0.999793 1 1 0.999793
1 1 1 1
1 1 1 1
1 1 1 1
1 1 1 1
1 1 1 1
0.999202 1 1 0.999202
0.999728 1 1 0.999728
0.999235 1 1 0.999235
1 1 1 1
0.999759 1 1 0.999759
0.999347 1 1 0.999347
1 1 1 1
1 1 1 1
0.999793 1 1 0.999793
1 1 1 1
1 1 1 1
1 1 1 1
0.924066 0.95942 0.970985 0.991931
0.912495 0.946607 0.972706 0.991012
0.925275 0.957111 0.980769 0.985693
0.998859 1 1 0.998859
0.998736 1 1 0.998736
0.998964 1 1 0.998964
0.998888 1 1 0.998888
0.998769 1 1 0.998769
0.998772 1 1 0.998772
0.998674 1 1 0.998674
0.908572 0.949004 0.971822 0.985155
0.920032 0.960089 0.970629 0.987275
0.908473 0.945124 0.97447 0.986404
0.883664 0.966781 0.933833 0.978791
0.929673 0.951566 0.986723 0.990139
0.937835 0.947513 1.00733 0.982589
0.880033 0.924135 0.973878 0.977821
0.923484 0.95023 0.981881 0.989787
0.944459 0.949483 1.01416 0.980823
0.906995 0.946966 0.979519 0.977817
0.859453 0.939226 0.935805 0.977837
0.930102 0.952105 0.984981 0.991785
0.95273 0.956306 1.01615 0.980422
0.883617 0.932323 0.969345 0.977731
0.841203 0.923831 0.934203 0.974691
1.00092 1 1.00225 0.998674
0.998686 1 1.00012 0.998565
1.00024 1 1.00169 0.998555
0.998734 1 1 0.998734
0.979059 0.984369 0.995389 0.999213
1.00484 0.986376 1.01923 0.999499
0.998542 1 1.00007 0.998467
1.00143 1 1.00289 0.99854
1.02427 1 1.02546 0.998839
0.999462 1 1.00083 0.998636
1.02462 0.9995 1.02632 0.998839
0.982095 0.97083 1.0131 0.998522
1.00517 0.985893 1.01992 0.999632
1.01135 0.998438 1.01399 0.998958
0.985418 0.967859 1.01982 0.998352
1.02157 0.991795 1.03075 0.999296
0.92284 0.948222 0.981044 0.992037
0.934894 0.96226 0.977672 0.99375
0.921375 0.948518 0.978507 0.992721
1.00008 0.987331 1.01311 0.999805
0.97224 0.965925 1.00872 0.997835
0.925242 0.959915 0.970889 0.99278
0.965166 0.961318 1.02432 0.980161
0.875397 0.92383 0.969461 0.977424
0.910385 0.947094 0.97442 0.986475
0.825945 0.910704 0.932241 0.97285
1.00541 0.975134 1.03145 0.999615
0.912667 0.947107 0.972296 0.991095
0.931357 0.963347 0.985161 0.981356
0.949574 0.958473 0.995433 0.995261
0.757955 0.853782 0.914543 0.970716
0.850696 0.916244 0.950429 0.976885
0.949545 0.951095 1.01748 0.981215
1.00023 0.978086 1.02394 0.998732
0.924602 0.957815 0.979152 0.985879
0.831479 0.888594 0.959286 0.975439
0.808984 0.886085 0.933211 0.978328
0.935776 0.944027 1.00929 0.982138
0.926981 0.949582 0.985348 0.990715
1.01049 0.992634 1.0184 0.99959
1.01707 0.992605 1.02514 0.999522
1.00638 0.996322 1.01075 0.999355
1.01153 0.996347 1.01584 0.999402
1.01304 0.997872 1.01632 0.998893
1.00664 1.0008 1.00786 0.997985
1.00707 1 1.00886 0.998218
1.01395 1.00001 1.01656 0.997424
1.00895 1.00017 1.01201 0.996816
1.00468 1.00119 1.00604 0.997465
1.00509 1.00182 1.00656 0.996737
1.00298 1.00209 1.00439 0.996512
1.00643 1.00966 1 0.996799
1.00565 1.00796 1.00077 0.996953
1.00378 1.00492 1.00218 0.996695
0.999129 1.00128 1.00013 0.997729
0.998894 1.00061 1.00074 0.997544
1.00071 1.00174 1.0019 0.997085
0.999167 1 1.00112 0.998054
0.999321 1.00022 1.00108 0.998024
0.998444 1 1.00043 0.998019
1.00146 1 1.00282 0.998653
1.00112 1 1.00273 0.998392
1.00068 1 1.00246 0.998221
0.999535 1 1 0.999535
1.00013 1 1.00119 0.998941
1.00038 1 1.00175 0.998632
0.999998 1 1 0.999998
0.999683 1 1 0.999683
0.999297 1 1.00015 0.999152
0.999751 1 1 0.999751
1 1 1 1
1 1 1 1
1 1 1 1
1 1 1 1
1 1 1 1
0.998852 1 1 0.998852
0.999138 1 1 0.999138
0.999666 1 1 0.999666
0.9992 1 1 0.9992
0.999999 1 1 0.999999
0.999731 1 1 0.999731
0.999256 1 1 0.999256
1 1 1 1
1 1 1 1
0.999792 1 1 0.999792
1 1 1 1
1 1 1 1
1 1 1 1
0.908668 0.945262 0.970149 0.990865
0.924455 0.959707 0.970709 0.992334
0.913104 0.947191 0.972755 0.991013
0.99887 1 1 0.99887
0.998727 1 1 0.998723
0.998674 1 1 0.998674
0.998725 1 1 0.998725
0.999799 1 1.00116 0.998636
0.998884 1 1 0.998884
0.998751 1 1 0.998751
0.998773 1 1 0.998773
0.998676 1 1 0.998676
1.00047 1 1.00175 0.998721
0.923686 0.954388 0.986251 0.981323
0.911901 0.950687 0.973635 0.985176
0.920757 0.958776 0.971479 0.988541
0.858825 0.940106 0.934143 0.977945
0.903764 0.941351 0.981612 0.978056
0.915826 0.94612 0.978976 0.988768
0.952772 0.957272 1.01363 0.981913
0.930817 0.954654 0.985322 0.989556
0.963937 0.965317 1.01704 0.981837
0.884487 0.931721 0.970602 0.978057
0.840736 0.926676 0.93158 0.973894
0.950198 0.960021 0.998621 0.991135
0.954007 0.957302 1.01448 0.982335
0.82949 0.897436 0.94568 0.977379
0.788374 0.883589 0.917364 0.972614
1.00305 1 1.00394 0.999115
1.00237 1 1.0037 0.998672
0.999476 1 1.00091 0.998567
0.981624 0.970808 1.01342 0.997755
1.00813 0.983921 1.02486 0.999748
0.999785 1 1.00116 0.998628
1.02591 0.999164 1.02797 0.998825
1.01267 0.999349 1.01438 0.998965
1.02293 0.99407 1.02976 0.999285
0.982884 0.965841 1.0193 0.998381
1.01756 0.998055 1.02021 0.999345
0.989611 0.97634 1.01538 0.998239
0.934496 0.960018 0.986687 0.986549
0.922595 0.948405 0.980241 0.992394
0.930894 0.960618 0.97471 0.994201
1.01098 0.979784 1.03214 0.999702
0.949369 0.960358 0.996585 0.991945
0.913482 0.947509 0.972748 0.991096
0.952408 0.958515 1.01418 0.979733
0.842096 0.903652 0.953239 0.977594
0.931783 0.962738 0.986309 0.981282
0.755761 0.858935 0.908597 0.968397
0.99943 0.976702 1.02444 0.998861
0.926463 0.958152 0.980788 0.985867
0.823865 0.882919 0.957459 0.974574
0.929661 0.953149 0.983362 0.991861
0.82045 0.8931 0.940252 0.977029
0.923478 0.942097 0.999433 0.980793
0.972608 0.974439 1.00031 0.997814
0.858882 0.900706 0.974549 0.978469
0.81964 0.883924 0.948081 0.978055
0.943357 0.959535 1.00178 0.981388
0.920758 0.947767 0.978999 0.992342
1.01683 0.991148 1.0264 0.999515
1.00835 0.994829 1.01427 0.999328
0.997952 1.001 0.99831 0.998638
1.01165 0.995383 1.01739 0.99897
1.0064 1.00093 1.00739 0.998081
1.00065 1.00199 1.0012 0.997473
1.01275 1.00003 1.01539 0.997371
1.00735 1.00033 1.01021 0.996831
0.999558 1.00147 1.00116 0.996933
1.005 1.00151 1.00685 0.996661
1.00317 1.00301 1.00364 0.996535
1.00696 1.01002 1 0.996966
1.01833 1.02121 1 0.997173
1.01154 1.01472 1.00002 0.996843
1.00593 1.00914 1 0.996819
1.0036 1.00639 1 0.997232
1.00391 1.00594 1.00107 0.996906
1.00435 1.00528 1.00244 0.996642
0.998479 1.0006 1 0.997884
0.998774 1.00096 1.00002 0.997796
0.998499 1.00058 1.00032 0.997602
0.999825 1 1.00145 0.998377
0.999386 1.00002 1.00129 0.998083
0.99954 1.00043 1.0011 0.998015
1.00015 1 1.0009 0.99925
1.00117 1 1.00252 0.998655
1.00102 1 1.00258 0.998438
0.99999 1 1 0.99999
0.999644 1 1.00012 0.999528
0.999832 1 1.00089 0.998943
1 1 1 1
0.999996 1 1 0.999996
0.999677 1 1 0.999677
0.999999 1 1 0.999999
1 1 1 1
1 1 1 1
0.998865 1 1.0001 0.998765
0.999065 1 1 0.999065
0.998838 1 1 0.998838
0.999613 1 1 0.999613
0.999137 1 1 0.999137
0.999993 1 1 0.999993
0.999668 1 1 0.999668
0.999198 1 1 0.999198
1 1 1 1
0.999999 1 1 0.999999
0.999735 1 1 0.999735
1 1 1 1
1 1 1 1
1 1 1 1
0.92829 0.961384 0.978451 0.986842
0.909436 0.945581 0.970639 0.990868
0.92445 0.959347 0.970672 0.992739
0.998682 1 1 0.998682
0.998881 1 1 0.998881
0.99871 1 1 0.99871
0.998738 1 1 0.998738
0.998691 1 1 0.998691
0.999388 1 1.00074 0.998649
1.00155 1 1.00304 0.998517
1.00175 1 1.00314 0.998616
0.998774 1 1 0.998774
0.998677 1 1 0.998677
1.00055 1 1.00184 0.998712
1.00227 1 1.00339 0.998883
0.829423 0.888708 0.957927 0.974281
0.930559 0.960345 0.98753 0.98122
0.91374 0.950892 0.975369 0.985195
0.832596 0.920807 0.928085 0.974268
0.890806 0.938752 0.970815 0.977453
0.954212 0.957098 1.01683 0.980478
0.935648 0.954579 0.989758 0.990311
0.948749 0.956729 0.998726 0.992924
0.772407 0.872385 0.912396 0.970407
0.948508 0.952357 1.01562 0.980641
0.841556 0.910261 0.945916 0.977382
0.940705 0.956013 0.990524 0.993402
0.941392 0.949862 1.00817 0.983051
0.812947 0.890564 0.933862 0.977495
1.0006 1 1.00102 0.999577
1.00284 1 1.00373 0.999119
1.00342 1 1.00476 0.99867
0.979293 0.962724 1.01883 0.998415
1.02521 0.997543 1.02849 0.999273
1.01362 0.999898 1.01476 0.998973
1.01744 0.999168 1.01896 0.999344
0.989678 0.978124 1.01354 0.998291
0.998863 0.990995 1.00917 0.998782
0.869355 0.906649 0.980721 0.977715
0.932373 0.958682 0.9846 0.987769
0.921785 0.948508 0.978923 0.992751
0.999594 0.975068 1.02621 0.998971
0.92408 0.951847 0.978027 0.99264
0.926243 0.958372 0.980331 0.985866
0.932042 0.941721 1.00745 0.982408
0.82833 0.905634 0.936392 0.976772
0.820456 0.885014 0.951009 0.974811
0.974612 0.974887 1.00185 0.997876
0.848907 0.898508 0.965462 0.978594
0.833488 0.890579 0.956805 0.978146
0.92369 0.948683 0.983489 0.990001
0.932056 0.956635 0.991344 0.982814
0.964451 0.984958 0.980289 0.998868
0.850153 0.904424 0.960538 0.978611
0.949207 0.976182 0.988543 0.983637
0.936002 0.961386 0.983636 0.989794
1.01117 0.994017 1.01797 0.9993
0.991084 0.99998 0.992351 0.998743
0.98821 1.0027 0.987427 0.9981
1.00666 1.00108 1.00741 0.998176
1.00265 1.00241 1.00278 0.997463
1.00038 1.00336 0.999428 0.997605
1.00607 1.00052 1.00872 0.996846
0.999576 1.00113 1.0015 0.996945
1.013 1.0155 1 0.997536
1.00357 1.00395 1.00308 0.996558
1.0064 1.00946 1 0.996975
1.01777 1.02021 1 0.997607
1.0234 1.02586 1 0.997608
1.02066 1.02362 1 0.997103
1.01771 1.02056 1 0.997203
1.0111 1.01409 1 0.997056
1.01065 1.01381 1 0.996887
1.00526 1.00844 1 0.996838
1.0018 1.0042 1 0.997604
1.0035 1.00612 1.00014 0.997256
1.00226 1.00394 1.00148 0.996859
0.998151 1 1 0.998151
0.999256 1.00138 1 0.997878
0.998301 1.00044 1 0.997863
0.999936 1 1.00101 0.998929
0.999721 1 1.00134 0.998378
0.999654 1.0001 1.00145 0.998111
0.999954 1 1 0.999954
1.00012 1 1.00087 0.999246
1.00076 1 1.00211 0.998656
1 1 1 1
0.999983 1 1 0.999983
0.999736 1 1.00022 0.99952
1 1 1 1
0.999995 1 1 0.999995
1 1 1 1
0.998789 1 1.00007 0.998723
0.99891 1 1.00015 0.998763
0.998977 1 1.00001 0.99897
0.999561 1 1 0.999561
0.999065 1 1 0.999065
0.998824 1 1 0.998824
0.999983 1 1 0.999983
0.999615 1 1 0.999615
0.999136 1 1 0.999136
1 1 1 1
0.999995 1 1 0.999995
0.999671 1 1 0.999671
1 1 1 1
1 1 1 1
1 1 1 1
0.855381 0.896284 0.977345 0.976486
0.92616 0.959146 0.97848 0.986846
0.910639 0.946282 0.971199 0.990871
0.998927 1 1.00026 0.998666
0.999081 1 1.00049 0.99859
1.00053 1 1.00196 0.998571
0.99876 1 1.00001 0.998751
0.998709 1 1 0.998709
0.999547 1 1.00089 0.998662
1.00166 1 1.00305 0.998609
1.00138 1 1.00286 0.998524
1.00225 1 1.00383 0.998433
0.997958 1 0.998927 0.99903
1.00019 1 1.00149 0.998703
1.00144 1 1.00258 0.998859
0.82936 0.886892 0.956813 0.977339
0.821729 0.880756 0.958667 0.973207
0.93644 0.965092 0.988974 0.98113
0.757551 0.859366 0.910506 0.968169
0.842553 0.908319 0.949054 0.977389
0.946973 0.95363 1.01024 0.982958
0.951343 0.956274 1.00405 0.990833
0.939048 0.955579 0.991031 0.991594
0.815063 0.88341 0.944794 0.976544
0.930272 0.944755 1.00246 0.982251
0.932947 0.957783 0.981623 0.992305
0.92942 0.957945 0.98823 0.981779
1.00692 1 1.0079 0.999031
1.00027 1 1.00076 0.999513
1.00231 1 1.00319 0.999122
0.988937 0.97877 1.01207 0.998336
1.01701 1 1.01768 0.999344
0.999189 0.991764 1.00881 0.998685
0.990252 0.995292 0.997031 0.997898
0.850039 0.917922 0.945438 0.97949
0.872769 0.906636 0.98373 0.978567
0.931261 0.957643 0.983289 0.988978
0.975252 0.978056 0.99915 0.997981
0.923088 0.94835 0.982479 0.99072
0.848973 0.899721 0.964134 0.978698
0.928248 0.953186 0.992265 0.981429
0.838625 0.896924 0.955722 0.97832
0.968229 0.985096 0.984586 0.998265
0.855657 0.91181 0.958903 0.978634
0.948482 0.977083 0.988742 0.981781
0.943407 0.964061 0.986706 0.991761
0.976523 0.992955 0.984716 0.998716
0.952625 0.982346 0.986695 0.982821
0.95688 0.983019 0.980145 0.993128
0.984474 0.998719 0.986878 0.998844
0.987769 1.00359 0.986133 0.998077
0.983775 1.00699 0.978926 0.997978
1.00379 1.00278 1.00356 0.997454
0.999712 1.00347 0.998648 0.9976
1.01697 1.02236 0.996635 0.998086
0.999414 1.00071 1.00175 0.996958
1.01292 1.0155 0.999935 0.997524
1.02274 1.02537 0.999374 0.998063
1.0057 1.00875 1 0.996983
1.01717 1.01961 1 0.997606
1.0239 1.02595 1 0.997996
1.02126 1.02343 1 0.997877
1.024 1.02641 1 0.99766
1.02331 1.02588 1 0.997489
1.02006 1.02295 1 0.997179
1.02116 1.02412 1 0.99711
1.0172 1.02002 1 0.997234
1.00816 1.01087 1 0.997328
1.01189 1.01484 1 0.997091
1.00979 1.01289 1 0.996931
0.998663 1.00074 1 0.997921
1.00236 1.00477 1 0.997598
1.00356 1.00612 1.00017 0.997281
0.998771 1 1.00007 0.998699
0.998244 1.00009 1 0.998149
1.00005 1.00218 1 0.997872
0.999851 1 1 0.999851
0.999695 1 1.00077 0.99893
0.999706 1 1.00133 0.99838
1 1 1 1
0.999935 1 1 0.999935
1.00003 1 1.00079 0.999242
1 1 1 1
0.999977 1 1 0.999977
1 1 1 1
0.998658 1 1 0.998658
0.998851 1 1.00013 0.998718
0.998932 1 1.00006 0.998868
0.998928 1 1.00017 0.998762
0.998979 1 1.00001 0.99897
0.999484 1 1 0.999484
0.999974 1 1 0.999974
0.999564 1 1 0.999564
0.999064 1 1 0.999064
1 1 1 1
0.999986 1 1 0.999986
0.999618 1 1 0.999618
1 1 1 1
0.999997 1 1 0.999997
1 1 1 1
0.85757 0.908182 0.964797 0.978726
0.858312 0.90079 0.975966 0.976309
0.924497 0.957553 0.978347 0.986847
0.999001 1 1.00035 0.99865
1.0008 1 1.00229 0.998515
0.99879 1 1.00015 0.998637
0.998238 1 1 0.998238
1.00045 1 1.00196 0.998491
1.00162 1 1.00302 0.998603
1.00082 1 1.00229 0.998532
1.00218 1 1.00371 0.99847
0.998295 1 1 0.998295
0.996165 1.00062 0.996728 0.998814
0.998446 1.00035 1.00015 0.99795
0.999257 1 1.00017 0.999083
1.00094 1 1.00211 0.998834
0.943403 0.974972 0.985166 0.982191
0.832003 0.885163 0.961469 0.977611
0.822544 0.883655 0.956459 0.973218
0.812837 0.884439 0.941508 0.976139
0.936773 0.94934 1.00604 0.980841
0.942029 0.953308 0.994599 0.993535
0.934297 0.956434 0.983179 0.993568
0.936678 0.959643 0.992423 0.983522
0.959057 0.983094 0.982831 0.992591
0.999998 1.00132 1.00045 0.998228
1.00566 1 1.00666 0.999008
0.999831 1 1.00038 0.999449
1.00027 0.993674 1.00804 0.99861
0.995899 0.999395 0.998653 0.997846
0.930233 0.972829 0.972344 0.983411
0.859591 0.916998 0.957173 0.979339
0.87723 0.906734 0.987776 0.979434
0.972148 0.986513 0.987776 0.997634
0.939316 0.960372 0.988038 0.989916
0.856574 0.909293 0.962789 0.978431
0.947083 0.972995 0.989821 0.983379
0.978128 0.992866 0.986389 0.99875
0.956208 0.987056 0.984501 0.983999
0.95734 0.982513 0.983057 0.991173
0.99607 1.00459 0.993339 0.998164
0.975595 0.995558 0.984628 0.995247
0.987904 1.00465 0.985246 0.998061
0.985128 1.0064 0.980894 0.997929
1.00536 1.02847 0.979351 0.998141
0.999289 1.00358 0.998123 0.997596
1.01663 1.02209 0.996578 0.99807
1.02446 1.03342 0.993021 0.998295
1.01289 1.01558 0.999834 0.997512
1.0224 1.02552 0.998909 0.998046
1.02104 1.02512 0.997806 0.998208
1.01674 1.01919 1 0.997605
1.02418 1.02634 0.999918 0.997978
1.02303 1.02505 1 0.998036
1.02186 1.02398 1 0.997924
1.02101 1.02335 1 0.997708
1.02456 1.02691 1 0.997711
1.02324 1.02582 1 0.997482
1.02296 1.02566 1 0.997365
1.01544 1.0182 1 0.997285
1.01993 1.02283 1 0.997169
1.02163 1.02458 1 0.997116
1.00163 1.00393 1 0.997714
1.00764 1.01032 1 0.997348
1.01263 1.01555 1 0.997126
0.998519 1 1 0.998519
0.999465 1.00155 1 0.997917
1.00261 1.00503 1 0.997591
0.999696 1 1 0.999696
0.998727 1 1.00003 0.998699
0.998369 1.00022 1 0.998147
1 1 1 1
0.999828 1 1 0.999828
0.99951 1 1.00058 0.99893
1 1 1 1
0.999916 1 1 0.999916
1 1 1 1
0.99923 1.00098 1 0.998253
0.998656 1 1 0.998656
0.998826 1 1.0001 0.998727
0.99894 1 1.00023 0.998713
0.998913 1 1.00007 0.998847
0.999347 1 1 0.999347
0.998985 1 1.00002 0.998969
0.999487 1 1 0.999487
0.999963 1 1 0.999963
1 1 1 1
0.999977 1 1 0.999977
0.999566 1 1 0.999566
1 1 1 1
0.999989 1 1 0.999989
1 1 1 1
0.951629 0.983186 0.983194 0.984448
0.851049 0.911093 0.953921 0.979218
0.868692 0.906828 0.981537 0.975965
1.00127 1 1.00282 0.998458
0.998683 1 1 0.998683
1.00027 1 1.00178 0.998495
0.99846 1.0002 1 0.99826
1.00273 1.00489 1.00002 0.997833
0.998336 1 1 0.998336
1.00227 1 1.00377 0.998508
0.998174 1 1 0.998174
0.997647 1.00036 0.9985 0.998782
0.998657 1.00053 0.999989 0.998137
0.998371 1.00299 0.997261 0.998128
0.997917 1.00129 0.999068 0.997562
0.997992 1.00082 0.999094 0.998081
1.00066 1 1.00152 0.999136
0.957661 0.984974 0.979369 0.992751
0.946275 0.976355 0.986057 0.982896
0.827525 0.886082 0.95469 0.978239
0.949309 0.966186 1.00112 0.981437
0.934552 0.955183 0.983864 0.994448
0.96302 0.983615 0.984023 0.994958
0.99285 1.00377 0.991012 0.998095
0.997866 1.00067 0.998932 0.998265
1.00461 1 1.00563 0.998986
0.996096 1.00112 0.997199 0.997775
0.960875 0.979875 0.987721 0.992801
0.943194 0.977166 0.979727 0.985207
0.849835 0.911436 0.952224 0.979195
0.98039 0.993347 0.988162 0.99878
0.961546 0.98498 0.983494 0.992593
0.960358 0.986778 0.987868 0.985178
0.989684 1.00367 0.987858 0.99818
0.972925 0.992982 0.985136 0.994585
0.994969 1.02403 0.973605 0.997966
1.00529 1.01551 0.992413 0.997507
0.98604 1.0057 0.982536 0.997876
1.00467 1.02759 0.979521 0.998133
1.00906 1.03751 0.974354 0.998181
1.01651 1.0222 0.996367 0.998055
1.02419 1.03329 0.992901 0.99828
1.01665 1.02691 0.991847 0.998155
1.02204 1.02561 0.998483 0.998028
1.02034 1.02457 0.99767 0.998192
1.02333 1.02747 0.997968 0.998004
1.0244 1.02668 0.99982 0.997961
1.02213 1.02426 0.999889 0.998031
1.02142 1.02371 1 0.997767
1.02247 1.02455 1 0.99797
1.02106 1.02336 1 0.997746
1.02292 1.02551 1 0.997474
1.02323 1.02582 1 0.997474
1.02289 1.0256 1 0.997356
1.01897 1.02165 1 0.997384
1.00565 1.0081 1 0.997566
1.01509 1.01784 1 0.997303
1.01976 1.02267 1 0.99716
0.998468 1.00013 1 0.998342
1.00258 1.00487 1 0.997715
1.00738 1.01004 1 0.997368
0.999539 1 1 0.999539
0.998518 1 1 0.998518
1.00025 1.00235 1 0.997912
1 1 1 1
0.999681 1 1 0.999681
0.998699 1 1 0.998699
1 1 1 1
0.999804 1 1 0.999804
1 1 1 1
1.00178 1.00389 1 0.997895
0.998781 1.00052 1 0.998266
0.998483 1 1.00003 0.998454
0.998654 1 1 0.998654
0.998793 1 1.00009 0.998703
0.999156 1 1 0.999156
0.998893 1 1.00007 0.998826
0.999349 1 1 0.999349
0.999942 1 1 0.999942
0.999489 1 1 0.999489
0.999967 1 1 0.999967
1 1 1 1
1 1 1 1
0.999979 1 1 0.999979
1 1 1 1
0.958499 0.983576 0.981196 0.993181
0.947059 0.983525 0.979504 0.983072
0.844496 0.906178 0.951837 0.979088
1.00932 1.01177 1.00007 0.997512
0.999923 1 1.00143 0.998499
0.998724 1.00044 1 0.998282
0.998301 1 1 0.998301
1.00235 1.00442 1.00012 0.997822
1.00048 1.00231 1 0.998178
0.998054 1 1 0.998054
0.998977 1.00017 1.00006 0.99875
0.998678 1.00075 0.999752 0.998175
0.996505 1.00204 0.996376 0.998091
1.00143 1.00395 0.999999 0.997485
1.00266 1.00592 0.999219 0.99754
0.998886 1.00195 0.999421 0.997516
0.997615 1.00134 0.998068 0.998212
0.993608 1.00618 0.988893 0.9986
0.956248 0.985252 0.978587 0.991799
0.949815 0.977894 0.987148 0.983932
0.956285 0.979502 0.982908 0.993274
0.996608 1.00581 0.992338 0.998505
0.998721 1.0002 1.00022 0.998299
0.995551 1.00668 0.991389 0.997532
0.955002 0.971798 0.988548 0.994101
0.934254 0.976007 0.973266 0.983514
0.982934 1.00202 0.982727 0.998193
0.977321 0.994396 0.989013 0.993747
0.996804 1.02509 0.974338 0.998013
1.00425 1.01428 0.992435 0.997661
1.00423 1.03267 0.974416 0.997988
1.02633 1.03246 0.996176 0.997885
1.00379 1.0263 0.979904 0.998126
1.01174 1.03874 0.975788 0.998177
1.00961 1.03254 0.979733 0.998016
1.02353 1.03274 0.992801 0.998264
1.01679 1.0269 0.991986 0.998152
1.02221 1.02981 0.994711 0.997894
1.01964 1.02402 0.997543 0.998176
1.02307 1.02698 0.998172 0.998017
1.02412 1.02666 0.999829 0.9977
1.02125 1.02347 0.999808 0.998026
1.02168 1.02397 1 0.997767
1.02463 1.0272 1 0.997496
1.02106 1.02332 1 0.997784
1.02299 1.02556 1 0.9975
1.02082 1.02351 1 0.997371
1.02278 1.0255 1 0.997347
1.01878 1.02147 1 0.997363
1.00884 1.01131 1 0.997554
0.999023 1.00081 1 0.998218
1.00577 1.00819 1 0.997591
1.01471 1.01744 1 0.99732
0.999403 1 1 0.999403
0.998622 1.00028 1 0.998341
1.00346 1.00576 1 0.997715
1 1 1 1
0.999526 1 1 0.999526
0.998516 1 1 0.998516
1 1 1 1
0.999665 1 1 0.999665
1 1 1 1
1.00422 1.00666 1 0.997576
1.00128 1.00338 1 0.9979
0.999419 1.00126 1 0.99816
0.998286 1 1.00001 0.998279
0.998501 1 1.00004 0.99846
0.999176 1 1.00024 0.998935
0.99877 1 1.00009 0.998679
0.999166 1 1.00001 0.999156
0.999896 1 1 0.999896
0.999351 1 1 0.999351
0.999949 1 1 0.999949
1 1 1 1
0.99997 1 1 0.99997
1 1 1 1
1 1 1 1
0.995787 1.01056 0.986817 0.998544
0.952695 0.981325 0.979309 0.991337
0.9447 0.97546 0.983452 0.984762
1.00743 1.00969 1.00001 0.997753
1.01531 1.01798 1 0.997373
1.00783 1.01016 1.00013 0.997556
0.998266 1 1 0.998266
1.00189 1.00384 1.00024 0.997809
1.00133 1.00321 1 0.998124
1.00957 1.01206 1 0.997536
0.998624 1.00093 0.999484 0.998212
0.994546 1.00092 0.995572 0.998053
1.0022 1.00494 0.999728 0.99755
1.0119 1.01489 0.999807 0.997244
1.01 1.01866 0.99364 0.997847
1.00309 1.00649 0.999105 0.997512
0.999534 1.00262 0.999447 0.997469
0.997869 1.00842 0.990788 0.998737
0.9595 0.985993 0.982263 0.990703
0.996928 1.00695 0.991112 0.998927
1.0151 1.02506 0.991802 0.998467
0.994604 1.00539 0.991628 0.997622
0.955668 0.97757 0.985176 0.992305
0.999218 1.02644 0.975376 0.998058
1.00248 1.01336 0.991425 0.997822
1.00371 1.0329 0.973632 0.998062
1.02778 1.03445 0.995649 0.997893
1.02334 1.03843 0.987558 0.997889
1.04097 1.04851 0.994797 0.998004
1.01463 1.04064 0.976793 0.998173
1.0116 1.03236 0.981838 0.998019
1.02525 1.03668 0.991151 0.997799
1.01712 1.02702 0.992199 0.998148
1.0224 1.02933 0.995367 0.997891
1.02772 1.03166 0.998519 0.997661
1.02277 1.02647 0.998358 0.99803
1.02449 1.02697 0.999889 0.997698
1.02724 1.02986 1 0.997451
1.02193 1.02422 1 0.997767
1.02444 1.02702 1 0.997496
1.02327 1.02601 1 0.997335
1.02309 1.02563 1 0.997526
1.02059 1.02327 1 0.997379
1.01054 1.01307 1 0.997502
1.01861 1.02133 1 0.997342
1.00868 1.01116 1 0.997543
0.999933 1.00179 1 0.998144
0.999327 1 1 0.999327
0.999296 1.00108 1 0.998217
1.00593 1.00834 1 0.997616
1 1 1 1
0.999392 1 1 0.999392
0.998785 1.00044 1 0.998341
1 1 1 1
0.999513 1 1 0.999513
1 1 1 1
1.00863 1.0113 1 0.997365
1.00446 1.00692 1 0.99755
1.00191 1.00406 1 0.997862
1.00075 1.00286 1 0.997905
0.999088 1.00092 1 0.998165
0.998791 1 1.0001 0.998695
0.998505 1 1.00004 0.998466
0.999196 1 1.00026 0.998936
0.999838 1 1.00004 0.999794
0.999156 1 1 0.999156
0.999909 1 1 0.999909
1 1 1 1
0.999956 1 1 0.999956
1 1 1 1
1 1 1 1
1.00891 1.02459 0.986366 0.99831
0.993151 1.00952 0.985642 0.998117
0.950908 0.982319 0.975703 0.992131
1.01686 1.01945 1 0.997461
1.00796 1.01006 1 0.997919
1.02717 1.02994 1 0.997315
1.01578 1.01847 1 0.997359
1.0065 1.00874 1.00018 0.997603
1.02381 1.02665 1 0.997227
1.00224 1.00418 1 0.998072
1.0084 1.01095 1 0.997477
1.0285 1.03374 0.997503 0.997428
1.00291 1.0058 0.999504 0.997616
1.01314 1.01609 0.999888 0.997209
1.00979 1.01843 0.993638 0.997865
1.00301 1.0062 0.999339 0.997482
1.00202 1.0103 0.992926 0.998874
1.03201 1.04331 0.991075 0.998073
1.01509 1.02508 0.99177 0.998472
0.994873 1.00409 0.993097 0.997707
1.00339 1.03259 0.973539 0.998136
1.02818 1.03564 0.994876 0.997902
1.02161 1.0385 0.9858 0.997906
1.04107 1.04951 0.993948 0.998004
1.0364 1.0469 0.99205 0.997902
1.01328 1.0319 0.9839 0.998022
1.0251 1.03622 0.991451 0.997807
1.03051 1.03777 0.99532 0.997674
1.02252 1.02885 0.99595 0.997888
1.02734 1.03101 0.998793 0.997642
1.02952 1.0322 1 0.997403
1.02494 1.02737 0.999946 0.997696
1.02705 1.02967 1 0.997449
1.02644 1.02925 1 0.997277
1.02427 1.02684 1 0.997497
1.02322 1.02595 1 0.997337
1.0126 1.01522 1 0.99742
1.02036 1.02303 1 0.997386
1.01068 1.01321 1 0.997505
1.00064 1.00257 1 0.998067
1.0085 1.01099 1 0.997533
1.00013 1.00199 1 0.998142
0.99941 1 1 0.99941
0.999811 1 1 0.999811
0.999368 1 1 0.999368
0.999558 1.00134 1 0.998216
1 1 1 1
0.999381 1 1 0.999381
1 1 1 1
1.03377 1.0365 1 0.997366
1.01937 1.02208 1 0.997349
1.00969 1.01237 1 0.997353
1.0051 1.00744 1 0.997679
1.0047 1.00719 1 0.997525
1.00109 1.00323 1 0.997866
0.998557 1.00008 1 0.998473
0.998791 1.00062 1 0.99817
0.998942 1 1.00024 0.998698
0.99963 1 1 0.99963
0.999204 1 1.00027 0.998938
0.999814 1 1 0.999814
1 1 1 1
0.999923 1 1 0.999923
1 1 1 1
1 1 1 1
1.03119 1.04179 0.991982 0.997826
1.01259 1.02819 0.986414 0.998392
0.990816 1.00962 0.983648 0.997692
1.02723 1.03004 1 0.997266
1.01634 1.01886 1 0.997527
1.00825 1.01018 1 0.998082
1.02653 1.02928 1 0.997334
1.01624 1.01894 1 0.997345
1.03529 1.03915 0.998878 0.997407
1.02115 1.02403 1 0.997188
1.00733 1.00994 1 0.997418
1.02793 1.03308 0.997583 0.997422
1.01543 1.01841 0.999904 0.997174
1.01178 1.02079 0.993268 0.997889
1.03762 1.04749 0.992573 0.997994
1.03388 1.04453 0.991698 0.998089
1.01548 1.02514 0.992084 0.998479
1.02077 1.03942 0.984107 0.997922
1.04199 1.05116 0.993258 0.998004
1.0366 1.04777 0.991407 0.997913
1.0334 1.04085 0.995087 0.997745
1.02486 1.03562 0.991772 0.997815
1.03008 1.03705 0.995609 0.997664
1.03192 1.03489 0.999716 0.997416
1.02693 1.03031 0.99909 0.997624
1.03029 1.03297 1 0.997403
1.02946 1.03232 1 0.997225
1.0268 1.02943 1 0.997448
1.02655 1.02935 1 0.997277
1.01472 1.01744 1 0.99733
1.02317 1.02589 1 0.99734
1.01286 1.01548 1 0.997422
1.00122 1.00326 1 0.997968
1.01082 1.01334 1 0.997508
1.00081 1.00275 1 0.998066
0.999411 1 1 0.999411
1.00033 1.00219 1 0.99814
0.999406 1 1 0.999406
0.999823 1 1 0.999823
0.999908 1 1 0.999908
0.999411 1 1 0.999411
1 1 1 1
1.03162 1.03445 1 0.99727
1.02511 1.0278 1 0.99738
1.03338 1.036 1 0.997471
1.00949 1.01196 1 0.997558
1.02096 1.02368 1 0.997339
1.01085 1.01354 1 0.997341
1.00433 1.00667 1 0.997676
0.99945 1.00116 1 0.998292
1.00025 1.00238 1 0.997869
0.998509 1.00003 1 0.998474
0.999462 1 1 0.999462
0.999124 1 1.00042 0.998702
0.999671 1 1.00002 0.999649
1 1 1 1
0.999833 1 1 0.999833
1 1 1 1
1 1 1 1
1.03618 1.04339 0.995369 0.997709
1.03077 1.04129 0.992057 0.997822
1.01465 1.03015 0.986461 0.998466
1.03479 1.03767 0.999894 0.997326
1.02592 1.02873 1 0.997269
1.01597 1.01842 1 0.997593
1.02575 1.02847 1 0.997353
1.03465 1.03855 0.998864 0.997385
1.01847 1.02139 1 0.997148
1.02557 1.03057 0.997722 0.997416
1.03519 1.04275 0.99493 0.997807
1.03697 1.04646 0.99296 0.997956
1.03564 1.04564 0.992313 0.998106
1.03356 1.0392 0.996939 0.997632
1.03656 1.0484 0.990767 0.997924
1.03316 1.0407 0.995015 0.997732
1.03339 1.03676 0.999244 0.997506
1.02971 1.03639 0.995893 0.997654
1.0329 1.03594 0.999649 0.997418
1.03056 1.03345 1 0.997203
1.03106 1.03374 1 0.997403
1.02914 1.03201 1 0.997227
1.01649 1.01929 1 0.997258
1.02661 1.02942 1 0.997278
1.01497 1.01768 1 0.997331
1.00173 1.00388 1 0.997867
1.01309 1.01571 1 0.997423
1.00139 1.00343 1 0.997967
0.999388 1 1 0.999388
1.00099 1.00293 1 0.998064
0.999403 1 1 0.999403
0.999827 1 1 0.999827
0.999403 1 1 0.999403
0.999827 1 1 0.999827
1 1 1 1
1.03197 1.03489 1 0.997172
1.02632 1.02916 1 0.997246
1.03245 1.03526 1 0.997284
1.01281 1.01531 1 0.997545
1.02552 1.02821 1 0.99739
1.03308 1.03559 1 0.997575
1.00099 1.00286 1 0.998138
1.00934 1.01182 1 0.997552
1.02264 1.02538 1 0.99733
1.00344 1.00578 1 0.997674
0.99903 1.00074 1 0.998294
0.999348 1 1 0.999348
0.998475 1 1 0.998475
0.999475 1 1 0.999475
1 1 1 1
0.999668 1 1 0.999668
1 1 1 1
1 1 1 1
1.03592 1.04018 0.998338 0.997563
1.03614 1.04379 0.99496 0.997694
1.03119 1.04171 0.992062 0.997818
1.0342 1.03703 0.999938 0.997336
1.02453 1.02734 1 0.997271
1.03405 1.03798 0.998845 0.997363
1.03408 1.03952 0.997122 0.997637
1.03553 1.04279 0.995221 0.997799
1.03638 1.04553 0.993313 0.997917
1.0341 1.0397 0.996955 0.997653
1.0343 1.0376 0.999367 0.997449
1.03292 1.04056 0.994935 0.997719
1.03361 1.03696 0.999296 0.997469
1.03047 1.0333 1 0.997261
1.03379 1.03689 0.999583 0.997421
1.03021 1.0331 1 0.997206
1.01777 1.02062 1 0.997204
1.02896 1.03182 1 0.997228
1.01686 1.01965 1 0.997259
1.00211 1.00433 1 0.99779
1.01531 1.01803 1 0.997332
1.00187 1.00401 1 0.997867
0.99934 1 1 0.99934
1.00156 1.00361 1 0.997965
0.999376 1 1 0.999376
0.999812 1 1 0.999812
0.999398 1 1 0.999398
0.999836 1 1 0.999836
0.999827 1 1 0.999827
1.03389 1.03661 1 0.997377
1.02849 1.03146 1 0.997121
1.03254 1.03545 1 0.997191
1.01537 1.01802 1 0.997404
1.02591 1.02874 1 0.997247
1.03323 1.03603 1 0.997299
1.00182 1.00381 1 0.998024
1.01288 1.01542 1 0.9975
1.0258 1.02847 1 0.9974
0.999296 1 1 0.999296
1.00053 1.0024 1 0.998141
1.00928 1.01177 1 0.997546
0.998617 1.00032 1 0.998295
0.999359 1 1 0.999359
1 1 1 1
0.999489 1 1 0.999489
1 1 1 1
1 1 1 1
1.03322 1.03712 0.998701 0.997534
1.03501 1.0396 0.998022 0.997559
1.03603 1.0441 0.994577 0.997679
1.03358 1.03636 0.999975 0.997347
1.03363 1.03671 0.999618 0.997411
1.0348 1.04027 0.997093 0.997647
1.03584 1.04278 0.995546 0.997792
1.03464 1.04022 0.996958 0.997673
1.03366 1.03714 0.999185 0.99746
1.03072 1.03354 1 0.99727
1.03394 1.03729 0.999338 0.997432
1.03029 1.03314 1 0.997235
1.01852 1.02139 1 0.997192
1.02986 1.03275 1 0.99721
1.018 1.02085 1 0.997206
1.00224 1.00452 1 0.997724
1.01705 1.01985 1 0.99726
1.00215 1.00437 1 0.99779
0.999186 1 1 0.999186
1.00196 1.00411 1 0.997866
0.999282 1 1 0.999282
1 1 1 1
0.999365 1 1 0.999365
0.999825 1 1 0.999825
0.999841 1 1 0.999841
1.03267 1.03534 0.999978 0.997447
1.02964 1.03252 1 0.997202
1.03344 1.03617 1 0.997372
1.01777 1.0206 1 0.997226
1.0284 1.03135 1 0.997142
1.0332 1.0361 1 0.99721
1.00243 1.00461 1 0.997835
1.0155 1.01815 1 0.997403
1.02556 1.02839 1 0.997247
0.999276 1 1 0.999276
1.00163 1.00365 1 0.997981
1.01296 1.01554 1 0.997455
1 1 1 1
0.999306 1 1 0.999306
1.00003 1.00189 1 0.998144
0.999369 1 1 0.999369
1 1 1 1
1 1 1 1
1.03213 1.035 0.999806 0.997424
1.03381 1.03767 0.99873 0.997542
1.03408 1.03901 0.997696 0.997555
1.03061 1.03349 1 0.997214
1.03276 1.03592 0.999529 0.997421
1.03546 1.04095 0.997064 0.997657
1.03304 1.03667 0.999022 0.997471
1.03071 1.03353 1 0.997271
1.01781 1.02062 1 0.99725
1.03 1.03289 1 0.99721
1.01847 1.02131 1 0.997217
1.00223 1.00464 1 0.997597
1.01831 1.02116 1 0.997208
1.00229 1.00458 1 0.997725
0.999135 1 1 0.999135
1.00224 1.00446 1 0.99779
0.999183 1 1 0.999183
1 1 1 1
0.999215 1 1 0.999215
0.999899 1 1 0.999899
0.999837 1 1 0.999837
1.03022 1.03299 0.99991 0.997404
1.02972 1.03255 1 0.997253
1.03256 1.03521 0.999991 0.997451
1.01866 1.02149 1 0.997228
1.03021 1.03311 1 0.997191
1.03302 1.03575 1 0.997368
1.00304 1.00532 1 0.99773
1.0177 1.02049 1 0.997267
1.02826 1.03119 1 0.997164
0.99925 1 1 0.99925
1.0024 1.00459 1 0.997821
1.01562 1.01827 1 0.997403
1 1 1 1
0.999285 1 1 0.999285
1.00145 1.00352 1 0.997938
1 1 1 1
0.999317 1 1 0.999317
1 1 1 1
1.03109 1.03392 1 0.997261
1.03149 1.03438 0.999789 0.997413
1.03446 1.0383 0.998757 0.997549
1.0168 1.01961 1 0.99724
1.03069 1.03355 1 0.997233
1.03198 1.03523 0.999432 0.99743
1.0307 1.03352 1 0.997271
1.01786 1.02067 1 0.99725
1.00169 1.00414 1 0.997564
1.01844 1.02125 1 0.997242
1.00221 1.00459 1 0.997632
0.999072 1 1 0.999072
1.0023 1.00458 1 0.997725
0.999132 1 1 0.999132
1 1 1 1
0.999181 1 1 0.999181
1 1 1 1
0.999817 1 1 0.999817
1.03006 1.03288 1 0.997276
1.03003 1.03274 0.999958 0.997421
1.01818 1.02099 1 0.997244
1.02993 1.03277 1 0.997251
1.03244 1.03507 1 0.997456
1.0028 1.00506 1 0.997755
1.0184 1.02123 1 0.997225
1.03076 1.03367 1 0.997181
0.999202 1 1 0.999202
1.00313 1.00538 1 0.99776
1.01762 1.02036 1 0.997309
1 1 1 1
0.999256 1 1 0.999256
1.00236 1.00457 1 0.997807
1 1 1 1
0.999294 1 1 0.999294
1 1 1 1
1.01685 1.01963 1 0.997276
1.03094 1.03378 1 0.997252
1.03077 1.03368 0.999785 0.997401
1.00082 1.00326 1 0.997568
1.01685 1.01966 1 0.99724
1.03074 1.03358 0.999999 0.997252
1.01792 1.02073 1 0.997249
1.00169 1.00414 1 0.997566
0.999028 1 1 0.999028
1.00222 1.00456 1 0.997667
0.999069 1 1 0.999069
1 1 1 1
0.999129 1 1 0.999129
1 1 1 1
1 1 1 1
1.01754 1.02035 1 0.997245
1.02981 1.0326 1 0.997296
1.02981 1.03246 0.999997 0.997438
1.00211 1.00439 1 0.997735
1.01807 1.02089 1 0.997241
1.03012 1.03296 1 0.99725
0.999152 1 1 0.999152
1.00297 1.00523 1 0.997753
1.01818 1.02102 1 0.997222
1 1 1 1
0.999206 1 1 0.999206
1.00322 1.00545 1 0.997789
1 1 1 1
0.999261 1 1 0.999261
1 1 1 1
1.00053 1.00288 1 0.997659
1.01676 1.01957 1 0.997239
1.03082 1.03367 1 0.997243
0.999029 1 1 0.999029
1.00086 1.0033 1 0.997567
1.0169 1.01972 1 0.99724
1.00169 1.00413 1 0.997568
0.999027 1 1 0.999027
1 1 1 1
0.999066 1 1 0.999066
1 1 1 1
1 1 1 1
1.00115 1.00346 1 0.997702
1.01725 1.02006 1 0.997246
1.02959 1.03236 1 0.997316
0.999246 1 1 0.999246
1.00235 1.00462 1 0.997733
1.01797 1.02079 1 0.997238
1 1 1 1
0.999153 1 1 0.999153
1.00311 1.00537 1 0.997751
1 1 1 1
0.99921 1 1 0.99921
1 1 1 1
0.999028 1 1 0.999028
1.00066 1.00304 1 0.997628
1.01668 1.01953 1 0.997203
1 1 1 1
0.999028 1 1 0.999028
1.00089 1.00334 1 0.997565
0.999026 1 1 0.999026
1 1 1 1
1 1 1 1
0.999199 1 1 0.999199
1.00145 1.00375 1 0.997702
1.01691 1.01972 1 0.997248
1 1 1 1
0.999114 1 1 0.999114
1.0026 1.00488 1 0.997732
1 1 1 1
0.999155 1 1 0.999155
1 1 1 1
0.999739 1 1 0.999739
0.999115 1 1 0.999115
1.00078 1.00319 1 0.997596
1 1 1 1
0.999029 1 1 0.999029
1 1 1 1
0.999756 1 1 0.999756
0.999142 1 1 0.999142
1.00176 1.00406 1 0.997703
0.99988 1 1 0.99988
0.999113 1 1 0.999113
1 1 1 1
1 1 1 1
0.999051 1 1 0.999051
1 1 1 1
0.999875 1 1 0.999875
0.99908 1 1 0.99908
1 1 1 1
1 1 1 1
1 1 1 1

VECTORS lamdaE float
1.00048 1.00013 0.994737
1.00025 1.0005 0.997465
1.00013 1.00034 0.994947
1.00073 0.999955 0.994553
1.00058 0.999948 0.994784
1.00044 1.00033 0.994566
1.00177 1.00047 0.991856
1.00027 1.00041 0.997469
1.00017 1.00021 0.9978
0.999739 1.00079 0.997829
1.00026 1.00042 0.99473
1.00157 1.00124 0.990789
1.0005 0.999999 0.994717
1.00024 0.999996 0.994938
0.999808 1.00057 0.995131
1.00047 0.999934 0.99481
1.00005 1.00067 0.994752
1.00029 1.00002 0.995011
1.00195 1.00029 0.991765
1.00052 1.00001 0.997416
1.00073 1.00001 0.994476
1.00068 0.999895 0.994703
1.00207 1.00002 0.991795
1.00194 1.00012 0.991926
1.00045 1.00036 0.994479
1.00156 1.00101 0.991662
1.00449 1.00029 0.987429
1.00027 1.00036 0.997488
1.00033 1.00009 0.996257
1 1.00058 0.996261
1.00026 1.00024 0.997556
1.00146 1.00139 0.990793
1.00062 0.999842 0.994642
1.00034 1.00034 0.994721
1.00221 1.00014 0.992177
0.999718 0.999842 0.998185
1.00189 1.00084 0.992121
1.00125 1.00169 0.990861
1.0037 1.00158 0.986778
0.999802 0.998631 0.998581
1.00052 1 0.997402
1.00042 1.00001 0.996161
1.00047 0.99999 0.99743
1.00015 1.00004 0.995035
1.00215 1 0.991045
1.00033 0.999965 0.997715
1.00236 1.00008 0.99202
1.00021 0.999872 0.995067
1.00001 1.00007 0.995223
0.999675 1.00105 0.994921
1.00212 1.00011 0.991686
1.00037 1.00003 0.996199
1.00046 1.00002 0.994739
1.00004 1.00077 0.99465
1.00042 0.99988 0.994945
1.00218 0.999986 0.991684
1.00178 1.00076 0.991573
1.00208 1.00002 0.991831
1.00447 1.00032 0.987431
1.00045 1 0.99744
1.00065 1.00004 0.994566
1.00196 1 0.992595
1.00207 1.00005 0.991765
1.00204 0.999993 0.991887
1.00454 1.00001 0.987522
1.00454 1.00001 0.987379
1.00026 1.00002 0.994882
1.00109 1.00181 0.991583
1.00435 1.00066 0.987328
1.00521 1.00019 0.985523
1.00054 1.00012 0.997455
1.00015 1.00005 0.997728
1.00026 1.00043 0.997467
1.00139 1.00149 0.99079
1.00066 0.999971 0.997406
1.00042 1.00031 0.997472
1.0021 1.0001 0.990931
0.999871 0.99984 0.996807
1.00167 1.0009 0.990888
1.00115 1.00178 0.991667
1.00375 1.00147 0.986775
0.999996 0.999158 0.998208
0.999832 1.00081 0.994319
1.0023 0.999977 0.990779
1.00204 1.00034 0.990899
1.00458 1.00021 0.986604
1.0007 1.00186 0.993081
1.00412 1.0009 0.986743
1.00279 1.00308 0.986853
1.00485 1.00129 0.985039
0.999686 0.998129 0.998872
0.999697 0.99853 0.998704
1.00063 0.999991 0.997364
1.00055 1 0.997395
1.0005 0.999993 0.99743
1.00036 1.00001 0.99622
1.00218 0.999987 0.991692
1.00048 0.999973 0.996156
1.0023 1.0001 0.991408
1.00048 0.999992 0.997441
1.00204 0.999925 0.991254
1.0023 1.00007 0.992145
1.00456 0.999636 0.987267
1.00234 1.00001 0.992073
1.00464 0.999853 0.986926
1.00048 1.00001 0.994755
1.00017 1.00002 0.995006
0.999633 1.00121 0.994824
1.00016 0.999839 0.995183
1.00229 0.999988 0.991572
1.00221 0.99993 0.991743
1.002 1.00048 0.991493
1.00444 1.00035 0.987433
1.00049 0.999995 0.997439
1.00037 1.00003 0.99483
1.0021 0.999978 0.9915
1.00218 1.00004 0.991644
1.00009 1.00038 0.996224
1.00139 1.00161 0.991726
1.00215 0.999938 0.991786
1.00456 0.99998 0.987477
1.00431 1.0007 0.98733
1.00453 1.0001 0.98742
1.0052 1.00019 0.985548
1.00203 0.99996 0.991267
1.00199 1.00003 0.991888
1.00448 0.999605 0.987879
1.00454 0.999866 0.987524
1.00455 0.999922 0.987432
1.00523 0.999507 0.986456
0.999887 0.999868 0.998022
1.00522 0.999899 0.985807
1.00061 1.00242 0.991079
1.00382 1.00137 0.986749
1.00518 1.00058 0.985264
1.00521 0.999627 0.986055
0.999933 1.002 0.992693
1.00042 1.00479 0.989233
1.00064 0.999999 0.997425
1.00038 1.00031 0.99747
1.00211 1.00008 0.990924
0.999971 0.999537 0.998103
1.00086 1.0021 0.991048
1.00163 1.00093 0.990904
1.00382 1.00137 0.986774
0.999874 0.999082 0.99835
0.999798 1.00072 0.994373
1.00231 1.00001 0.991456
1.00204 1.00037 0.991538
1.00458 1.00022 0.986594
1.00043 1.00197 0.992041
1.00413 1.00086 0.986747
1.00284 1.00302 0.98684
1.0049 1.0012 0.985006
1.00009 1.00154 0.993156
0.999805 0.999942 0.995211
1.00047 1.004 0.990161
1.00464 1.00008 0.986657
1.00442 1.00046 0.986614
1.00522 1.00006 0.985669
1.00176 1.0043 0.987467
1.005 1.00075 0.985246
1.00438 1.00228 0.984982
1.0051 1.00123 0.984653
0.999683 0.99777 0.99903
0.999646 0.99805 0.998939
0.999628 0.9984 0.998809
0.999862 1.00135 0.99353
0.99975 0.999425 0.998303
1.00067 0.999973 0.99738
1.00057 1 0.997372
1.00219 1.00012 0.990812
1.00209 0.999988 0.991108
1.00047 0.999995 0.997428
1.00046 0.999993 0.997438
1.00203 0.999934 0.991249
1.00223 1.00006 0.99153
1.00455 0.999635 0.987268
1.00223 1.00004 0.990784
1.00462 0.999852 0.986921
1.002 0.99993 0.991295
1.00452 0.999575 0.987388
1.0046 0.999728 0.987102
1.00524 0.998604 0.987221
1.00465 0.999969 0.986768
1.00525 0.999095 0.986697
1.00046 0.999993 0.997435
1.00009 1.00006 0.995093
1.00211 0.999973 0.990516
1.00229 1.00003 0.99152
0.9996 1.00077 0.997887
1.00177 1.00129 0.991868
1.00227 0.999909 0.991687
1.00457 0.999932 0.987432
1.00452 1.00017 0.987461
1.00427 1.00077 0.987333
1.00519 1.00019 0.985573
1.00201 0.999947 0.991269
1.00212 1.00003 0.991762
1.00451 0.999588 0.98756
1.00456 0.999921 0.987529
0.99996 0.99994 0.997918
1.00086 1.00216 0.991761
1.0037 1.00165 0.987002
1.00456 0.999961 0.987403
1.00523 0.999337 0.986552
1.00513 1.00057 0.985285
1.00522 0.999943 0.985892
1.00522 0.999624 0.986082
1.00002 1.00202 0.992675
1.00052 1.00458 0.989249
1.00448 0.999607 0.987414
1.00451 0.99976 0.987701
1.00525 0.998861 0.98709
1.00522 0.998976 0.986868
1.00523 0.999536 0.986368
1.00522 0.998104 0.987702
1.00024 1.00236 0.991813
1.00521 0.998968 0.986746
1.00264 1.00318 0.986961
1.00503 1.00097 0.984931
1.00521 1.00047 0.985375
1.00518 0.998499 0.987353
1.00085 1.0049 0.988386
1.0003 1.00408 0.990154
1.00135 1.00471 0.987953
1.00221 0.999996 0.990853
0.999745 0.998971 0.998497
0.999775 1.00061 0.994427
1.0019 1.00041 0.990943
1.00458 1.00022 0.986583
1.00033 1.00207 0.991964
1.00285 1.00295 0.986826
1.00414 1.00083 0.986752
1.00492 1.0011 0.984972
1.00002 1.00151 0.993185
0.999812 0.99981 0.995253
1.00027 1.00412 0.990153
1.00463 1.00009 0.986642
1.00443 1.00045 0.986609
1.00523 1.00007 0.985651
1.00173 1.00435 0.98748
1.00506 1.00077 0.985207
1.00438 1.00222 0.984978
1.00514 1.00113 0.984646
0.999899 0.999236 0.995707
1.00106 1.00439 0.988622
1.00019 1.0029 0.991594
1.00082 1.00477 0.988827
1.00524 0.999728 0.985999
1.00517 1.0004 0.985384
1.0052 0.999274 0.986462
1.00314 1.00365 0.985846
1.00521 1.00036 0.985475
1.00487 1.00182 0.984452
1.00525 1.00088 0.984683
1.00027 1.00065 0.993666
1.00015 0.998504 0.995991
0.999742 0.997517 0.999086
0.99967 0.997726 0.999051
0.999619 0.997976 0.998989
0.999882 1.00064 0.99425
0.999696 0.99894 0.998526
0.999895 1.0014 0.993503
0.999848 0.999492 0.998201
1.00223 1.00007 0.99078
1.00216 1.00005 0.99094
1.00461 0.999852 0.986916
1.00454 0.999636 0.987268
1.00204 0.999945 0.991249
1.00049 0.99999 0.997434
1.00202 0.999931 0.991296
1.00451 0.999583 0.987389
1.00459 0.999733 0.9871
1.00523 0.998614 0.987218
1.00464 0.999978 0.986754
1.00525 0.999097 0.986683
1.00448 0.999582 0.987431
1.00523 0.998485 0.987357
1.00524 0.99882 0.986985
1.00524 0.996726 0.989134
1.00525 0.999395 0.986357
1.0052 0.997606 0.988247
1.00202 0.999938 0.991274
1.00224 1 0.991636
1.00454 0.999556 0.987243
1.00458 0.999968 0.987533
1.00005 1.00005 0.997805
1.00113 1.00199 0.992295
1.00368 1.00185 0.987253
1.00456 0.999988 0.987375
1.00523 0.999162 0.986648
1.00522 0.999989 0.985978
1.00508 1.00056 0.985306
1.00522 0.99962 0.986109
1.0001 1.00199 0.992657
1.00063 1.00452 0.989264
1.00449 0.999531 0.987409
1.00453 0.999743 0.987683
1.00524 0.998715 0.987265
1.00522 0.999153 0.986743
1.00033 1.00232 0.991799
1.00271 1.00312 0.986967
1.00499 1.00104 0.984987
1.00523 0.999643 0.986273
1.00522 0.997876 0.987959
1.00521 1.00042 0.98543
1.00521 0.998963 0.986764
1.00518 0.998439 0.987344
1.00095 1.00479 0.988386
1.00119 1.00463 0.987972
1.00036 1.00402 0.990157
1.00523 0.998698 0.987271
1.00523 0.998831 0.987169
1.00526 0.997004 0.988782
1.0052 0.997553 0.988288
1.00522 0.998183 0.987498
1.00517 0.996315 0.989447
1.00164 1.00433 0.987618
1.00517 0.997471 0.988169
1.00429 1.00217 0.985137
1.00519 1.00127 0.984415
1.00517 0.99979 0.98604
1.00513 0.997514 0.988315
1.00019 1.00334 0.99113
1.00189 1.0041 0.987407
1.00063 1.00508 0.988458
1.00228 1.00374 0.987521
1.00463 1.0001 0.986627
0.999822 0.999699 0.995293
0.999933 1.00151 0.993214
1.00012 1.00432 0.990146
1.00444 1.00044 0.986602
1.00523 1.00007 0.985633
1.00167 1.00436 0.987496
1.0044 1.0022 0.984973
1.00512 1.00079 0.985169
1.00516 1.00103 0.984637
0.999919 0.999143 0.995735
1.00093 1.00457 0.988636
1.00012 1.00295 0.991617
1.00067 1.00488 0.988796
1.00524 0.999739 0.985984
1.00519 1.00039 0.985363
1.0052 0.999272 0.986452
1.00312 1.00359 0.985876
1.00521 1.00042 0.985412
1.00496 1.00163 0.984463
1.00525 1.00087 0.98476
1.00006 0.998729 0.995916
1.00028 1.00175 0.992612
1.00178 1.00437 0.987506
1.00035 1.0046 0.989929
1.00146 1.00395 0.98857
1.00521 0.99873 0.987024
1.0052 0.999796 0.985901
1.00515 0.998354 0.987323
1.00404 1.00236 0.985426
1.00519 0.999944 0.985861
1.00465 1.00184 0.984403
1.0003 1.00072 0.99355
1.00031 1.00205 0.992266
1.0002 1.00071 0.99376
1.00026 1.00067 0.993663
1.00016 0.998332 0.996645
1.00014 0.998486 0.996299
0.999902 0.997321 0.997899
0.999748 0.997479 0.999089
0.999663 0.997674 0.999069
0.999828 1.00001 0.994974
0.999687 0.998505 0.998736
0.99989 1.00071 0.994227
0.999757 0.999038 0.998453
0.999939 1.00145 0.993476
0.999926 0.999555 0.998098
1.00463 0.999983 0.986741
1.00458 0.999736 0.987097
1.00525 0.999115 0.986667
1.00523 0.998623 0.987214
1.0045 0.99959 0.98739
1.00201 0.999929 0.991294
1.00448 0.999582 0.987433
1.00523 0.998489 0.987356
1.00524 0.998837 0.986975
1.00523 0.99656 0.989286
1.00525 0.999404 0.986344
1.00521 0.997619 0.988226
1.00523 0.99847 0.987374
1.00526 0.996266 0.989597
1.00521 0.997071 0.988806
1.00514 0.995335 0.990572
1.00522 0.998188 0.987615
1.00521 0.995876 0.989724
1.0045 0.999457 0.987405
1.00456 0.999741 0.987665
1.00524 0.998585 0.987441
1.00522 0.999331 0.986617
1.00045 1.00227 0.991788
1.00265 1.00315 0.986974
1.00494 1.00112 0.985044
1.00524 0.999751 0.986179
1.00521 0.997647 0.988216
1.00521 0.998959 0.986782
1.00522 1.00036 0.985483
1.00518 0.99838 0.987334
1.00105 1.00459 0.988385
1.00115 1.0046 0.987991
1.00042 1.0039 0.990161
1.00523 0.998626 0.987295
1.00524 0.998827 0.987162
1.00526 0.996737 0.989088
1.00519 0.997672 0.988168
1.00164 1.00437 0.987595
1.00434 1.00216 0.985143
1.00517 1.00134 0.984419
1.00522 0.998414 0.987276
1.00519 0.996101 0.989642
1.00517 0.999768 0.985972
1.00517 0.99749 0.988177
1.00514 0.997386 0.988435
1.00205 1.00401 0.98739
1.00217 1.00379 0.987479
1.00024 1.00324 0.991125
1.00053 1.00506 0.988569
1.00527 0.996569 0.989262
1.0052 0.997259 0.98865
1.00518 0.995442 0.990353
1.00518 0.995525 0.990157
1.00517 0.996651 0.988999
1.00518 0.9955 0.99021
1.00323 1.00308 0.986168
1.00515 0.996063 0.989409
1.00498 1.00209 0.984129
1.00515 1.00126 0.984466
1.00516 0.999225 0.986363
1.00516 0.997238 0.988557
1.00013 1.0024 0.992093
1.00025 1.00495 0.989283
1.00292 1.00311 0.986667
1.00093 1.00504 0.988185
1.00263 1.00311 0.987572
0.999931 0.999063 0.995762
1.00524 0.999749 0.985968
1.00007 1.00297 0.99164
1.00079 1.00478 0.988649
1.00053 1.00494 0.988764
1.00521 1.00039 0.985341
1.00519 0.999271 0.986441
1.00324 1.00332 0.985905
1.00511 1.00145 0.984475
1.00522 1.00046 0.985351
1.00526 1.00086 0.984837
1.00007 0.998702 0.995932
1.00022 1.00178 0.99264
1.0018 1.00429 0.987518
1.00016 1.0046 0.989917
1.00125 1.00393 0.988597
1.00521 0.998724 0.987012
1.0052 0.999789 0.985887
1.00515 0.998326 0.987297
1.00409 1.0023 0.985459
1.00519 0.999977 0.985722
1.00491 1.0018 0.984389
1.00032 1.00103 0.993257
1.00023 1.00347 0.991162
1.00276 1.00277 0.987396
1.00048 1.00498 0.989413
1.00182 1.00268 0.989181
1.00517 0.99763 0.988068
1.00515 0.99906 0.986561
1.00515 0.997577 0.987711
1.00373 1.0017 0.986154
1.00494 1.0009 0.984918
1.00031 1.00072 0.993547
1.00031 1.00199 0.992223
1.00022 1.00215 0.992224
1.00036 1.00263 0.991753
1.00022 1.00218 0.992283
1.00012 1.00078 0.993812
1.00019 1.0007 0.993761
1.00016 0.998296 0.996678
1.00026 1.00069 0.99366
1.00016 0.998362 0.996649
0.999993 0.997106 0.997929
1.00013 0.998486 0.996603
0.999861 0.997286 0.998502
0.999758 0.997423 0.999092
0.99987 0.999283 0.99564
0.999835 1.00007 0.994944
0.99966 0.998041 0.99894
0.999727 0.998579 0.998657
0.999893 1.00078 0.994202
0.999836 0.99909 0.998369
1.00525 0.999412 0.986331
1.00524 0.998838 0.986965
1.00522 0.997625 0.988206
1.00522 0.996406 0.989437
1.00522 0.998493 0.987355
1.00448 0.999583 0.987434
1.00523 0.998472 0.987375
1.00526 0.996246 0.989607
1.00521 0.997074 0.988797
1.00516 0.995177 0.990691
1.00522 0.998181 0.987594
1.00519 0.995833 0.989818
1.00527 0.996248 0.989599
1.00517 0.995218 0.990683
1.00517 0.995274 0.990504
1.00516 0.994929 0.990917
1.00519 0.996787 0.988922
1.00519 0.995149 0.990381
1.00523 0.998549 0.987319
1.00524 0.998831 0.987155
1.00525 0.996463 0.989393
1.00519 0.997788 0.988048
1.00168 1.00436 0.987572
1.0044 1.00214 0.985147
1.00512 1.00134 0.984423
1.00522 0.998647 0.987054
1.0052 0.995893 0.989838
1.00517 0.997508 0.988185
1.00518 0.999759 0.985905
1.00515 0.997257 0.988555
1.00203 1.00403 0.987373
1.0019 1.00385 0.987436
1.0003 1.00322 0.991121
1.00042 1.00502 0.988681
1.00527 0.996576 0.989257
1.0052 0.997368 0.988514
1.00518 0.995244 0.990597
1.00519 0.995552 0.990114
1.00305 1.00346 0.986138
1.00484 1.00207 0.984168
1.00515 1.00122 0.984434
1.00517 0.996864 0.988791
1.00517 0.99532 0.990357
1.00514 0.99928 0.986334
1.00516 0.996083 0.989404
1.00515 0.996955 0.988721
1.00307 1.00297 0.986654
1.00256 1.00306 0.98765
1.00093 1.00505 0.988164
1.00014 1.00241 0.99203
1.00016 1.00483 0.989408
1.00518 0.995008 0.990902
1.00514 0.995298 0.990601
1.00521 0.995008 0.99052
1.00516 0.995436 0.990094
1.00408 1.00271 0.985205
1.00517 0.995702 0.989905
1.00509 1.00226 0.98359
1.00509 1.0011 0.984575
1.00512 0.998996 0.986505
1.00002 1.0015 0.992987
1.00008 1.00434 0.990351
1.00059 1.00504 0.988917
1.00347 1.00255 0.986528
1.0012 1.00485 0.987599
1.00291 1.0023 0.987254
1.00007 0.998684 0.995948
1.00017 1.0018 0.992668
1.0052 0.998717 0.987001
0.999954 1.00459 0.989904
1.00166 1.00441 0.987532
1.00107 1.00388 0.988623
1.00521 0.999783 0.985873
1.00515 0.998298 0.98727
1.0041 1.00222 0.985491
1.00514 1.0018 0.984373
1.00521 1 0.985584
1.0003 1.00102 0.993266
1.00009 1.00352 0.991172
1.0028 1.0028 0.987287
1.00028 1.00501 0.989383
1.00172 1.00244 0.989317
1.00517 0.997622 0.988048
1.00515 0.99907 0.986535
1.00515 0.997619 0.987748
1.00393 1.00167 0.985957
1.00497 1.001 0.984941
1.00028 1.00242 0.992003
0.999752 1.00462 0.990364
1.00334 1.00089 0.988098
1.00048 1.00434 0.989642
1.00246 1.00094 0.989473
1.00515 0.996267 0.989145
1.00514 0.999098 0.986427
1.00514 0.997527 0.987662
1.00414 1.00126 0.985931
1.00483 1.00075 0.985183
1.00031 1.0007 0.993544
1.00031 1.00201 0.992249
1.00012 1.00262 0.991869
1.00015 1.00222 0.992182
1.00017 1.00226 0.992275
1.00021 1.00275 0.991723
1.00014 1.00284 0.991822
1.00011 1.00307 0.991417
1.00011 1.00236 0.992293
1.00006 1.00092 0.993787
1.00011 1.00078 0.993811
1.00014 0.998319 0.996699
1.00018 1.00069 0.993762
1.00017 0.998321 0.99668
1.00005 0.99699 0.997944
1.00017 0.998377 0.996655
0.999981 0.997078 0.997936
0.999816 0.997245 0.999118
0.999921 0.998738 0.996112
0.999856 0.999377 0.9956
0.999677 0.997686 0.999071
0.999844 1.00014 0.994914
0.999697 0.998158 0.998875
0.999775 0.998666 0.998589
1.00522 0.998174 0.987572
1.0052 0.997083 0.988788
1.00518 0.995795 0.989912
1.00518 0.995008 0.99081
1.00526 0.996221 0.989617
1.00523 0.998474 0.987377
1.00527 0.996374 0.989473
1.00517 0.995223 0.990707
1.00518 0.995235 0.990556
1.00515 0.994932 0.990903
1.00518 0.996798 0.98892
1.00519 0.995078 0.990456
1.00518 0.994989 0.990952
1.00513 0.994975 0.990947
1.00521 0.994934 0.99071
1.00519 0.995424 0.990107
1.00527 0.996584 0.989251
1.00521 0.99747 0.988378
1.00518 0.995026 0.99084
1.0052 0.995589 0.990071
1.003 1.0037 0.986109
1.00477 1.00204 0.984209
1.00515 1.00122 0.984402
1.00516 0.997072 0.988582
1.00515 0.995107 0.990502
1.00517 0.996104 0.989399
1.00513 0.999322 0.986305
1.00515 0.996673 0.988885
1.00319 1.00286 0.986641
1.00254 1.00273 0.987726
1.00087 1.00507 0.988142
1.00017 1.00236 0.991969
1.00014 1.00474 0.989533
1.00519 0.994982 0.990896
1.00514 0.995377 0.990501
1.00521 0.995015 0.990518
1.00391 1.0029 0.985201
1.00489 1.00227 0.98366
1.00507 1.00104 0.984566
1.00516 0.99547 0.990065
1.00514 0.998728 0.986837
1.00516 0.995705 0.989764
1.00005 1.00134 0.99313
1.00362 1.00225 0.986453
1.0026 1.00197 0.988073
1.00137 1.005 0.987558
1.00059 1.00505 0.989035
1.00008 1.00432 0.990277
1.00513 0.994936 0.990986
1.00517 0.994979 0.990691
1.00518 0.994926 0.990534
1.00514 0.995065 0.9905
1.00462 1.00237 0.98476
1.0051 0.996873 0.988589
1.00493 1.00272 0.983135
1.00499 1.00137 0.984349
1.00012 1.00037 0.994002
1.00003 1.00316 0.991617
1.0003 1.0049 0.989578
1.00111 1.00504 0.987962
1.00379 1.00229 0.985719
1.00259 1.00384 0.986537
1.00027 1.001 0.993276
0.999963 1.00356 0.991183
1.00517 0.997615 0.988029
1.00005 1.00505 0.989355
1.00286 1.00282 0.987178
1.00139 1.00235 0.989457
1.00515 0.99908 0.986509
1.00515 0.997665 0.987782
1.00408 1.00169 0.985759
1.00505 1.00109 0.984963
1.00022 1.00246 0.992017
0.999868 1.00467 0.99024
1.00354 1.00089 0.988001
1.00024 1.00455 0.989678
1.00233 1.00067 0.989848
1.00516 0.996221 0.989317
1.00514 0.999048 0.986545
1.00514 0.997671 0.987632
1.00423 1.00145 0.985807
1.00489 1.00082 0.985018
0.999848 1.0032 0.991532
0.999753 1.00504 0.989653
1.00371 0.99998 0.988093
1.00139 1.00233 0.989171
1.00521 0.995167 0.990036
1.00512 0.996696 0.989036
1.005 0.999696 0.985854
1.0045 1.00075 0.985439
1.00033 1.00198 0.992275
1.00016 1.00263 0.991875
0.999817 1.00306 0.992236
1.00011 1.00235 0.992266
1.00005 1.00287 0.991693
1.00008 1.0024 0.992283
1.00004 1.00282 0.991923
1.00014 1.00307 0.991442
0.999994 1.00228 0.992598
1.00005 1.0034 0.991307
1.00011 1.0034 0.991102
1.00008 1.00249 0.992203
1 1.00107 0.993684
1.00005 1.0009 0.993785
1.0001 0.998367 0.996714
1.0001 1.00077 0.993811
1.00014 0.998349 0.9967
1.00006 0.996943 0.997955
1.00017 0.998348 0.996685
1.00004 0.996962 0.997951
0.999964 0.997058 0.997938
1.00002 0.998288 0.996408
0.999929 0.998787 0.996073
0.999729 0.997342 0.999155
0.999841 0.999475 0.995558
0.999694 0.997739 0.999037
0.999739 0.998238 0.998786
1.00518 0.996809 0.988918
1.00519 0.995196 0.990608
1.00519 0.995 0.990532
1.00514 0.994933 0.990889
1.00517 0.99523 0.99073
1.00527 0.996491 0.989346
1.00518 0.995102 0.990816
1.00514 0.994969 0.990964
1.0052 0.994934 0.990707
1.00519 0.995344 0.990194
1.00513 0.994977 0.991019
1.0052 0.994937 0.990783
1.00522 0.994932 0.990543
1.00519 0.994964 0.99089
1.00514 0.995448 0.990402
1.0052 0.99503 0.990516
1.00372 1.00309 0.985197
1.00483 1.00229 0.983724
1.00508 1.00098 0.984557
1.00516 0.99552 0.990038
1.00513 0.995676 0.989623
1.00514 0.998448 0.987169
1.00373 1.00205 0.986374
1.00227 1.00186 0.988887
1.00166 1.00505 0.987518
1.00007 1.00122 0.993274
1.00041 1.00505 0.989152
1.00007 1.0043 0.990203
1.00513 0.994937 0.990998
1.00517 0.994948 0.990694
1.00518 0.994949 0.990549
1.00431 1.00265 0.984749
1.00487 1.00271 0.983101
1.00499 1.00115 0.984679
1.00514 0.995022 0.990448
1.00509 0.996844 0.988521
1.00011 1.00033 0.994174
1.00004 1.00315 0.991619
1.00345 1.00212 0.986147
1.00242 1.00386 0.987142
1.001 1.00504 0.988211
1.00025 1.00491 0.989556
1.00516 0.994929 0.990857
1.0052 0.994916 0.990512
1.00514 0.994898 0.990611
1.00507 0.995041 0.990274
1.00476 1.00306 0.982947
1.00483 1.00017 0.985764
1.00484 1.00323 0.982971
1.00022 0.999852 0.994571
1.00025 1.00097 0.993461
1.00007 1.00179 0.992781
1.00003 1.00423 0.990501
1.00045 1.00497 0.988893
1.00081 1.00463 0.988077
1.00328 1.00212 0.986281
1.00251 1.00393 0.98784
1.00014 1.00254 0.99203
0.999982 1.00476 0.990117
1.00516 0.996169 0.989489
1.0003 1.00457 0.98971
1.00376 1.00092 0.987907
1.00217 1.00046 0.990218
1.00513 0.99898 0.986665
1.00513 0.997796 0.987603
1.0043 1.00159 0.985686
1.00493 1.00086 0.984854
0.999901 1.00332 0.991409
0.999902 1.00504 0.989695
1.00392 1 0.988154
1.00168 1.00248 0.989283
1.0052 0.995127 0.990138
1.00512 0.996693 0.988865
1.00502 0.999634 0.985896
1.00474 1.00079 0.985271
0.99971 1.0039 0.991102
1.00525 0.994895 0.99031
1.00111 1.00463 0.988831
1.00379 1.00047 0.987638
1.00517 0.995612 0.990097
1.00509 0.998376 0.986117
1.00487 1.00142 0.984736
1.00017 1.00267 0.991882
0.999774 1.00301 0.992189
0.999444 1.00282 0.993146
1.00008 1.00238 0.992273
1.00016 1.00307 0.991467
0.999741 1.00299 0.992024
1.00006 1.0025 0.992189
1.00004 1.00345 0.991137
0.999703 1.00244 0.992729
1.00016 1.00329 0.991306
0.999949 1.00168 0.993567
0.999854 1.00294 0.992112
1.00011 1.00414 0.990465
1.0003 1.00351 0.990777
1.00007 1.00273 0.991967
0.999961 1.00128 0.993546
0.999982 1.00113 0.993675
1.00005 0.998493 0.996691
1.00003 1.00093 0.993782
1.0001 0.998415 0.99671
1.00005 0.996931 0.997975
1.00015 0.998382 0.996703
1.00006 0.996915 0.997958
1.00004 0.996936 0.997953
1.0002 0.999895 0.994595
1.00009 0.998032 0.996555
1.00002 0.998326 0.996388
0.999819 0.997042 0.999206
0.999931 0.998845 0.996035
0.999738 0.997425 0.999133
0.999719 0.997826 0.999004
1.0052 0.995265 0.99028
1.00518 0.994936 0.990703
1.00515 0.994965 0.990981
1.00518 0.995231 0.990678
1.00513 0.994972 0.991007
1.00519 0.994942 0.990797
1.00522 0.99493 0.990507
1.00518 0.994949 0.990856
1.00525 0.994939 0.990597
1.00528 0.99493 0.990979
1.00513 0.994937 0.99101
1.00517 0.994921 0.990698
1.00518 0.994958 0.990563
1.00392 1.00288 0.984742
1.00498 1.00272 0.983075
1.00493 1.00096 0.985009
1.00514 0.994978 0.990396
1.00509 0.996865 0.988453
1.00324 1.00202 0.986582
1.0023 1.00394 0.987746
1.00073 1.00505 0.988459
1.00009 1.00023 0.994345
1.00011 1.0031 0.991622
1.00023 1.00498 0.989531
1.00517 0.994931 0.990838
1.00019 0.999879 0.994566
1.0002 1.00103 0.993378
1.0052 0.994912 0.99053
1.00513 0.994894 0.990613
1.00464 1.0032 0.983195
1.00483 1.00304 0.983095
1.00485 1.00001 0.98569
1.00508 0.995194 0.990201
1.00007 1.00179 0.992967
1.0001 1.00419 0.990471
1.00358 1.00268 0.985871
1.00182 1.00382 0.988358
1.00091 1.00467 0.988298
1.00041 1.00503 0.988995
1.00524 0.994932 0.990568
1.00519 0.994813 0.990558
1.0051 0.994901 0.9903
1.00472 0.995675 0.990009
1.00412 1.00381 0.983471
1.00427 1.00353 0.983802
1.0001 1.00133 0.993151
1.00022 1.001 0.993459
1.00049 1.00135 0.992822
1.00022 1.00287 0.991419
1.00008 1.00482 0.989945
1.00145 1.00432 0.988224
1.00005 1.00504 0.9887
1.00258 1.00123 0.988067
0.999952 1.00342 0.991288
1.00012 1.00503 0.989741
1.00519 0.995092 0.990239
1.00512 0.996716 0.988695
1.00196 1.00263 0.989395
1.00413 0.999981 0.988213
1.00503 0.999598 0.985935
1.00503 1.00085 0.985101
0.999857 1.0039 0.991046
1.00525 0.994898 0.990452
1.00091 1.00457 0.988868
1.004 1.00053 0.987278
1.00518 0.995487 0.9901
1.00508 0.998511 0.986392
1.00483 1.00136 0.984768
0.999972 1.00469 0.990428
1.00455 0.994963 0.991505
1.00251 1.0029 0.988173
1.0043 1.0014 0.986041
1.00487 0.996691 0.989292
1.0037 1.00147 0.985647
0.998505 0.997686 0.989651
0.99968 1.00304 0.992142
0.999229 1.00298 0.993123
0.999652 1.00272 0.993226
1.00002 1.00256 0.992175
1.00002 1.00349 0.991173
1.00033 1.00311 0.991306
0.99953 1.00246 0.992861
1.00006 1.00273 0.991971
1.00023 1.0036 0.990769
0.999892 1.00168 0.993476
1.0001 1.00417 0.990479
1 1.00286 0.99197
0.999802 1.00217 0.993184
1.00031 1.00438 0.989993
1.00017 1.00437 0.990248
1.00039 1.00373 0.990418
1.00011 1.00289 0.991603
1.00023 1.00349 0.991112
1.00011 1.00294 0.991482
0.999961 1.0013 0.993508
0.999967 1.00128 0.993539
1.00002 0.998607 0.996078
0.999992 1.00111 0.993665
1.00006 0.998547 0.996382
1.00002 0.996978 0.99913
1.0001 0.998458 0.996707
1.00006 0.996894 0.997979
1.00007 0.996888 0.997957
1.00013 0.999894 0.994655
1.00021 0.999832 0.994607
1.0001 0.997926 0.996662
1.00007 0.998041 0.996813
0.999892 0.996864 0.999237
1.00002 0.998362 0.996368
0.99981 0.997121 0.999193
0.999748 0.99747 0.999112
1.00522 0.994928 0.990471
1.00519 0.994945 0.990811
1.00513 0.994968 0.990994
1.00518 0.994951 0.990858
1.00524 0.994939 0.990603
1.00528 0.994937 0.990598
1.00529 0.994937 0.990582
1.00112 0.994874 0.985545
1.00447 0.994884 0.992992
1.00002 1.00134 0.993409
1.00517 0.994935 0.990819
1.00519 0.994909 0.990548
1.00513 0.994888 0.990615
1.00423 1.00326 0.983435
1.0049 1.00295 0.983218
1.00489 0.999906 0.985622
1.00508 0.995352 0.990126
1.00412 1.00277 0.985463
1.00107 1.00373 0.988879
1.00105 1.00472 0.988522
1.00016 0.99994 0.994561
1.00044 1.00503 0.989097
1.00004 1.00177 0.993149
1.00022 1.00412 0.990443
1.00019 1.001 0.993294
1.00523 0.994919 0.990567
1.00011 1.00128 0.993254
1.00017 1.00108 0.993457
1.00043 1.00136 0.992812
1.00519 0.994839 0.990532
1.00511 0.994896 0.990329
1.00419 1.00375 0.983517
1.00432 1.00275 0.984418
1.00465 0.996211 0.989896
1.00004 1.00299 0.99157
1.00022 1.00472 0.98978
1.00252 1.00227 0.987798
1.0006 1.00484 0.98871
1.00127 1.00419 0.988362
1.00523 0.994949 0.990678
1.00513 0.994774 0.990729
1.00506 0.995368 0.989887
1.00445 0.998124 0.989144
1.00214 1.00374 0.987355
1.00005 1.00231 0.992243
1.0005 1.00148 0.992338
1.00008 1.00217 0.992217
0.999952 1.00438 0.991066
1.00016 1.00472 0.989686
1.00032 1.00459 0.989025
1.00103 1.00291 0.989192
1.00008 1.00382 0.990987
1.00059 1.00452 0.988903
1.00526 0.994891 0.990586
1.00519 0.995403 0.9901
1.00508 0.998677 0.986666
1.00416 1.00056 0.986919
1.0048 1.00124 0.984802
1.00013 1.00455 0.990521
1.00452 0.995077 0.991628
1.00243 1.00284 0.988022
1.0042 1.00145 0.985915
1.005 0.996094 0.989557
1.00391 1.00164 0.985665
0.99851 0.997791 0.98745
1.00033 1.0043 0.990165
1.00254 0.998584 0.991431
1.00248 1.002 0.988311
1.00253 1.00161 0.987634
1.00351 0.997652 0.989727
1.00003 0.994922 0.951405
0.996981 0.994877 0.97011
0.99625 1.00139 0.989067
0.999786 0.995868 0.888441
0.994737 0.995107 0.859999
0.99904 1.00315 0.993101
0.999138 1.00306 0.99341
0.999526 1.00303 0.993
1.00004 1.00274 0.991974
1.00031 1.00346 0.990759
1.00008 1.00419 0.990492
1.00016 1.00277 0.991826
0.999795 1.00168 0.993385
1.00022 1.00432 0.990194
1.0001 1.00288 0.991675
1.00038 1.00371 0.990451
0.999876 1.00198 0.99303
1.0002 1.00436 0.990173
1.00023 1.00467 0.990142
0.999641 1.00432 0.990883
1.00022 1.00445 0.990012
1.00035 1.00363 0.990495
1.00017 1.00286 0.99151
1.00031 1.00375 0.9906
1.00014 1.00377 0.990944
1.00006 1.00344 0.991266
1.00019 1.00354 0.991028
1.00019 1.00266 0.991852
1.00014 1.00294 0.991474
1.00002 1.00123 0.993513
0.999975 1.0013 0.993508
1.00002 0.998673 0.996058
0.999955 1.00131 0.993533
1.00002 0.998626 0.996074
1.00001 0.996969 0.999136
1.00005 0.998607 0.996075
1.00003 0.99697 0.998541
1.00007 0.996858 0.997981
1.00006 0.999925 0.994756
1.00015 0.999885 0.994659
1.00011 0.997834 0.996752
1.00022 0.99978 0.994619
1.0001 0.997877 0.99692
0.99994 0.996696 0.999269
1.00008 0.998084 0.996531
0.999881 0.996936 0.999223
0.999807 0.997186 0.999181
1.00524 0.994938 0.990609
1.00518 0.994954 0.99086
1.00528 0.994944 0.990222
1.00083 0.994941 0.985672
1.00528 0.994935 0.990582
1.00433 0.995226 0.992588
1.00506 0.996245 0.991162
0.99646 0.99491 0.96927
1.00046 0.996828 0.987666
1.00005 1.00133 0.993389
1.00009 1.00128 0.993397
0.999986 1.00237 0.992431
0.999961 1.00222 0.992623
1.00523 0.994915 0.990566
1.00519 0.994866 0.990507
1.00512 0.994894 0.990359
1.00481 1.00355 0.983559
1.00421 1.00156 0.985026
1.00458 0.996742 0.989778
1.00217 1.00358 0.987531
1.00131 1.00462 0.988718
1.0011 1.00396 0.988499
1.00011 1.00121 0.993454
1.00027 1.00471 0.989613
1.00005 1.00305 0.991722
1.00012 1.00128 0.993357
1.00031 1.00141 0.992797
1.00524 0.994938 0.990684
1.00011 1.00231 0.992306
1.0005 1.00148 0.99252
0.99974 1.00211 0.992883
1.00513 0.99479 0.990627
1.00495 0.995416 0.989907
1.00278 1.00294 0.987274
1.0041 0.997774 0.989605
1.00008 1.0041 0.990855
1.0003 1.00486 0.989206
1.0012 1.00368 0.989062
1.0011 1.00431 0.988836
1.0045 0.994897 0.991636
1.00505 0.995423 0.990564
1.005 0.996062 0.98968
1.00212 0.999387 0.991713
0.999744 1.00335 0.991776
1.00027 1.00259 0.991607
0.999106 1.00465 0.991526
0.999443 1.00488 0.990126
0.999996 0.994914 0.941998
1.00022 1.00442 0.990613
1.00226 1.00289 0.98787
1.00448 0.994982 0.991759
1.00508 0.995624 0.989819
1.00403 1.00172 0.985671
1.00406 1.00161 0.985782
0.998611 0.997628 0.985179
1.0002 1.00443 0.990371
1.00258 0.998003 0.99146
1.00244 1.00212 0.98833
1.00313 1.00117 0.987606
1.00381 0.997685 0.989637
1.00098 0.994956 0.9407
0.996911 0.994888 0.965761
0.996341 1.00202 0.988945
0.999772 0.994944 0.89221
0.994744 0.995158 0.848873
1.00004 1.00384 0.991217
0.999809 0.994851 0.899115
0.994689 0.995075 0.858375
1.00134 1.00004 0.99138
1.00127 1.00192 0.99018
1.00177 1.00064 0.990268
0.996105 1.00226 0.989584
1.00069 0.996228 0.947288
0.994904 0.995471 0.96335
0.997237 0.998258 0.899762
0.994798 0.995069 0.85283
0.998769 1.00333 0.993591
0.999332 1.0031 0.992892
0.999424 1.0034 0.992912
1.00014 1.00282 0.991746
1.00037 1.00374 0.990484
0.999966 1.00455 0.990141
1.00008 1.00435 0.990354
0.999999 1.00177 0.992876
1.00016 1.00287 0.991514
1.00003 1.00481 0.990094
1.00022 1.00447 0.990002
1.00042 1.00355 0.990549
0.999624 1.00429 0.991016
0.999795 1.0049 0.990584
0.998786 1.00501 0.991517
1.00039 1.004 0.990184
1.00037 1.00366 0.990585
1.00034 1.00373 0.990585
1.00007 1.00377 0.991027
1.00038 1.00392 0.990296
0.999969 1.00378 0.991121
0.999547 1.00388 0.991258
0.999728 1.0046 0.990574
0.999927 1.0037 0.991217
1.00011 1.00339 0.991268
1.00012 1.00256 0.992047
1.00016 1.00357 0.990945
1.00019 1.00266 0.99178
1.00009 1.00118 0.993465
1.00017 1.00293 0.991466
1 1.00125 0.993518
1.00007 0.998602 0.996641
0.999958 1.00133 0.993508
1.00003 0.998631 0.996361
1.00003 0.996984 0.997947
1.00002 0.99864 0.996071
1.00001 0.996984 0.999136
1.00005 0.996978 0.99795
1.0001 1.0014 0.99322
0.999998 0.999971 0.994796
1.00006 0.99991 0.994758
1.0001 0.997811 0.996786
1.00016 0.999855 0.994662
1.00012 0.997793 0.996755
0.999979 0.996599 0.999285
1.00009 0.997872 0.997154
0.999957 0.996789 0.998749
0.999925 0.996994 0.998179
1.00048 0.995215 0.985818
1.00526 0.994939 0.990582
1.00409 0.99599 0.992177
0.996671 0.99489 0.97035
1.00042 0.996525 0.987985
1.00508 0.99579 0.991036
1.00305 0.997326 0.988036
0.996517 0.996747 0.973249
1.00003 0.995142 0.948482
0.999514 0.997205 0.902968
0.994687 0.995138 0.857975
0.999904 1.00231 0.992516
1.00008 1.00131 0.993383
1.00016 1.00121 0.993385
1 1.00236 0.992431
0.999718 1.00331 0.991948
1.00027 1.00236 0.991915
1.00003 1.00274 0.992192
0.999989 1.00227 0.992503
1.00525 0.994873 0.990686
1.00514 0.994803 0.990524
1.00484 0.995303 0.989928
1.00293 1.00252 0.987201
1.0038 0.997658 0.990074
1.0014 1.00446 0.988926
1.00179 1.00415 0.988647
1.0006 1.00502 0.988729
1.00036 1.00149 0.992704
1.00006 1.00414 0.990642
1.00017 1.00233 0.992371
0.99957 1.00203 0.993546
1.00453 0.994825 0.991798
0.999751 1.00337 0.991837
1.00022 1.00275 0.991818
1.00493 0.995203 0.990528
1.0048 0.995605 0.98983
1.00205 0.999368 0.991322
0.999623 1.00496 0.990817
1.0002 1.00454 0.990221
1.00326 0.995124 0.992
1.00441 0.996789 0.990642
1.00471 0.995106 0.991039
1.00131 0.999283 0.992731
0.999918 1.00447 0.990444
0.999488 1.00418 0.991348
0.999408 1.0052 0.991009
0.999835 0.99485 0.900661
1.0004 0.994922 0.952651
1.00013 1.00453 0.990579
1.00246 1.00207 0.988355
1.00254 0.997525 0.991497
1.00417 0.997824 0.98955
1.00384 1.00074 0.987594
1.00001 0.994946 0.949968
0.997182 0.994898 0.965005
0.996425 1.00255 0.988775
0.999649 0.996146 0.904102
0.994757 0.995386 0.837307
1.00008 1.00364 0.991166
0.999836 0.995216 0.898187
0.994687 0.995163 0.85252
1.00138 1.00004 0.991434
1.00143 1.00176 0.990239
1.00192 1.0004 0.990831
0.996224 1.00258 0.990221
1.00173 0.996226 0.940314
0.994916 0.995015 0.967086
0.998291 0.998646 0.899247
0.994801 0.994947 0.851421
0.999615 1.00347 0.992703
0.994683 0.995327 0.854717
0.994816 0.99483 0.86926
0.99899 1.00164 0.994209
0.999631 1.00249 0.993619
0.995492 1.00245 0.989704
0.994876 0.997273 0.966673
0.997467 0.998589 0.937337
0.994715 0.999754 0.904496
0.994827 0.994801 0.854842
0.999281 1.00309 0.992788
0.9996 1.00315 0.992734
0.998313 1.00416 0.993072
1.00017 1.00287 0.991518
1.00045 1.0035 0.990604
1.00024 1.00446 0.989991
0.999898 1.00493 0.990047
0.99949 1.00433 0.991149
1.00037 1.00366 0.990584
0.999824 1.00474 0.99045
1.00041 1.00396 0.990207
0.998522 1.00502 0.991781
0.996814 1.00516 0.994311
0.999854 1.00438 0.990878
1.00056 1.00412 0.989893
1.00036 1.00371 0.990571
1.00009 1.00367 0.991109
1.00037 1.00401 0.990247
1.00003 1.00374 0.991073
0.99947 1.00378 0.991705
0.999731 1.00431 0.990884
0.999699 1.00429 0.990787
0.99934 1.00373 0.991821
1.00033 1.00261 0.991636
1.00057 1.00384 0.989324
0.99958 1.00469 0.990559
0.999827 1.00453 0.990582
0.999783 1.0042 0.990931
0.999954 1.00371 0.991207
1.00002 1.00269 0.992038
1.0001 1.00344 0.99127
1.00013 1.00255 0.992055
1.00016 1.00104 0.993429
1.00019 1.00267 0.991708
1.00008 1.00115 0.993477
1.00012 0.998582 0.996573
1 1.00124 0.993522
1.00007 0.998575 0.99633
1.00005 0.996914 0.99794
1.00004 0.998603 0.996066
1.00001 0.996986 0.999133
1.00001 0.996979 0.999137
1.00013 1.00166 0.993181
0.999984 1.0001 0.994703
1.00009 1.00144 0.993227
1.0001 0.997815 0.996782
0.999999 0.999976 0.994798
1.00007 0.999917 0.994761
1.0001 0.9978 0.996782
1.00001 0.996539 0.999288
1.0001 0.997765 0.997231
0.999996 0.996607 0.998794
0.999977 0.9968 0.998261
0.999835 0.995245 0.889592
0.994693 0.995198 0.854903
0.99804 0.994884 0.970158
1.00048 0.995458 0.988328
1.00514 0.995029 0.99091
0.996162 0.995839 0.974084
1.00336 0.996238 0.988425
1.00117 0.995503 0.946865
0.999811 0.995958 0.891009
0.994728 0.995181 0.846907
0.998596 0.994871 0.977973
1.00001 0.996804 0.947889
0.997959 0.998461 0.897367
0.994801 0.994845 0.853444
1.00006 1.00327 0.991503
0.999905 1.00225 0.99261
1.00012 1.00127 0.993379
0.999982 1.00236 0.99243
0.999721 1.00313 0.992127
1.00003 1.00355 0.991251
1.0002 1.00274 0.991802
1.00028 1.00318 0.991083
1.00006 1.00267 0.992085
0.999977 1.00238 0.992384
1.00458 0.994808 0.991955
1.0049 0.994996 0.990505
1.00447 0.995319 0.989978
1.00184 0.999454 0.990932
1.00071 1.00456 0.990318
0.999763 1.00514 0.990108
1.00024 1.00267 0.992035
0.999725 1.00344 0.991895
1.00314 0.995287 0.992293
0.999899 1.00462 0.990308
0.999372 1.0043 0.991268
1.00454 0.996159 0.990571
1.00458 0.995221 0.990739
1.00114 0.99929 0.992864
0.999548 1.00514 0.990957
1.0006 0.996541 0.992481
1.00277 0.996484 0.993731
1.00023 1.0013 0.993047
0.999271 1.00472 0.990214
0.999539 1.00498 0.990244
0.999254 1.00509 0.991072
0.994745 0.995686 0.872675
0.999835 0.994872 0.904411
0.999986 0.994903 0.942365
0.999919 1.00363 0.99111
1.00156 1.00169 0.99029
1.00142 1.00004 0.991488
1.00206 1.00013 0.991389
0.999823 0.994844 0.906799
0.999997 0.996082 0.939896
0.994888 0.994856 0.963561
0.996313 1.00223 0.990835
0.997325 0.998356 0.887659
0.994704 0.995123 0.855471
0.994778 0.994786 0.859147
0.999344 1.00329 0.992615
0.994688 0.995119 0.862205
0.994826 0.994945 0.868876
0.998861 1.00143 0.994377
0.999371 1.0022 0.993621
0.995463 0.999545 0.992454
0.994884 0.997086 0.965633
0.997424 0.999619 0.947631
0.996678 0.99991 0.891667
0.994802 0.994793 0.863063
0.997511 1.00339 0.995823
0.994816 0.995413 0.877587
0.994777 0.994777 0.87028
0.995501 1.0021 0.999712
0.994815 0.999263 0.973201
0.9949 0.999953 0.948418
0.994903 0.998957 0.886829
0.994882 0.994823 0.862389
0.999768 1.00278 0.992551
0.998602 1.00411 0.993371
0.996997 1.00491 0.995179
1.00032 1.00373 0.990583
1.00046 1.0039 0.99023
0.999898 1.00453 0.990317
0.998252 1.00509 0.992052
1.00046 1.00419 0.989893
0.999807 1.0044 0.990825
0.996956 1.00512 0.994761
0.995153 1.00529 0.997276
0.997409 1.00494 0.994476
1.00031 1.00406 0.990352
1.00038 1.00409 0.990197
1.00005 1.00372 0.991025
0.999317 1.00375 0.992145
0.999736 1.0042 0.99089
0.999778 1.00428 0.990908
0.999354 1.00396 0.991881
0.999948 1.00362 0.991511
0.997966 1.00433 0.993518
1.00168 0.999289 0.992277
1.00034 1.00245 0.99178
1.00076 1.00295 0.990247
1.00259 1.00377 0.98661
1.00008 1.00457 0.99055
1.00036 1.004 0.989774
0.999776 1.0046 0.990554
0.99963 1.0045 0.990679
0.999923 1.00445 0.99059
0.999905 1.00406 0.990935
0.99999 1.00306 0.991726
1.00008 1.00361 0.991197
1.0001 1.00263 0.992031
1.0002 1.00104 0.993379
1.00018 1.00249 0.992063
1.00018 1.00106 0.993436
1.00016 0.998572 0.996515
1.00009 1.00114 0.99349
1.00013 0.998569 0.996253
1.00005 0.996996 0.997873
1.00009 0.998556 0.996029
1.00003 0.996942 0.998538
1.00001 0.996966 0.999133
1.00016 1.00215 0.992406
1.00005 1.00023 0.994502
1.0001 1.00168 0.993003
1.0001 0.99788 0.996718
0.999991 1.00008 0.994705
1.00006 1.00149 0.993233
1.00003 0.996517 0.999285
1.00009 0.997816 0.996782
1 0.999972 0.994801
1.00011 0.997787 0.996778
1.00001 0.99656 0.999288
0.999979 0.996593 0.999285
0.994672 0.994811 0.860104
0.999857 0.995256 0.897444
0.99482 0.995306 0.867413
0.994708 0.995176 0.852688
0.995897 0.995622 0.971557
1.00344 0.995924 0.98885
1.00006 0.995791 0.944753
0.999822 0.996427 0.90352
0.994776 0.995871 0.835542
0.998249 0.99557 0.977228
1.00152 0.996753 0.936243
0.99818 0.998996 0.897893
0.994807 0.995338 0.847871
0.995473 0.995533 0.971616
0.997577 0.998559 0.937567
0.995321 0.99972 0.886298
0.994811 0.994808 0.850329
1.00012 1.00411 0.990834
1.00003 1.00311 0.991635
0.999897 1.00226 0.992701
0.999725 1.00298 0.992307
1.00043 1.00397 0.990045
0.999976 1.00347 0.991397
1.00002 1.00303 0.991689
1.00055 1.00302 0.990999
1.00033 1.00322 0.991163
1.00009 1.00257 0.991978
1.00309 0.994831 0.992576
1.00461 0.995459 0.990516
1.00464 0.995396 0.990438
1.00113 0.999006 0.993009
1.00002 1.00482 0.990906
0.99948 1.00445 0.991191
0.999828 1.00476 0.990173
0.999947 1.00489 0.98997
1.00042 0.996191 0.992782
0.999855 1.00492 0.990131
0.99956 1.00508 0.991051
1.00291 0.99604 0.993814
1.0009 1.00034 0.992892
0.998101 0.996986 0.993387
0.998134 0.999336 0.999406
0.998587 1.00352 0.993108
0.999998 1.00468 0.990153
0.999253 1.00496 0.991219
0.994841 0.995685 0.882096
0.99474 0.995571 0.869775
0.999818 0.994855 0.892587
0.999147 1.00308 0.992534
0.999147 1.00176 0.993608
0.998858 1.00133 0.994555
0.994681 0.994825 0.862155
0.997381 0.99844 0.938535
0.99485 0.996924 0.965908
0.995751 0.997683 0.995433
0.994786 0.999825 0.905223
0.994814 0.995124 0.868641
0.994808 0.994804 0.863352
0.997528 1.00319 0.996202
0.994805 0.995081 0.88034
0.994772 0.994775 0.870429
0.995619 1.00222 0.998681
0.994852 0.99894 0.974826
0.995871 0.999688 0.938215
0.994875 0.994819 0.86131
0.994878 0.999893 0.89443
0.995542 1.00492 0.998451
0.994741 0.994804 0.886492
0.99484 0.994781 0.873755
0.994803 0.9948 0.851036
0.995047 0.999984 0.992003
0.994949 0.999398 0.951854
0.995026 0.999375 0.896828
0.999028 1.00411 0.993667
0.997577 1.00505 0.994285
0.995143 1.00512 0.998389
1.00043 1.0042 0.989894
0.999706 1.00444 0.99077
0.996918 1.00494 0.995197
1.00014 1.00418 0.990351
0.997496 1.00478 0.994495
0.995359 1.00529 0.99715
0.995147 1.00525 0.998179
0.997505 1.00466 0.994226
0.999741 1.00419 0.990998
0.999828 1.00425 0.990931
0.999408 1.00417 0.991949
0.998283 1.00444 0.993375
0.999802 1.00361 0.991451
0.999512 1.00259 0.993146
1.00067 0.9998 0.993579
1.00156 1.00152 0.989631
1.00034 1.00231 0.991927
1.0013 1.00293 0.989871
1.00339 1.00259 0.986205
1.00354 1.00272 0.985785
1.00064 1.00456 0.989324
1.00223 1.00364 0.986779
0.999925 1.00485 0.990201
0.999928 1.00463 0.990523
1.0001 1.00414 0.990224
0.999963 1.00451 0.990549
0.999697 1.00441 0.990738
1.00002 1.00343 0.991317
1.00001 1.00393 0.99094
1.00006 1.00299 0.991731
1.00019 1.00127 0.993174
1.00014 1.00261 0.992025
1.00022 1.00104 0.993372
1.00014 0.998571 0.996511
1.00019 1.00104 0.993443
1.00016 0.998554 0.996203
1.00003 0.997071 0.997851
1.00015 0.998528 0.995953
1.00003 0.996997 0.998497
1.00001 0.996969 0.99912
1.00035 1.0023 0.991769
1.0001 1.00055 0.993857
1.0002 1.00213 0.992404
1.00012 0.997971 0.996582
1.00004 1.00024 0.994357
1.0001 1.00167 0.992828
1.00003 0.996572 0.999266
1.0001 0.997865 0.996724
0.999995 1.00006 0.994707
1.00002 0.996533 0.999286
1.00009 0.997819 0.996781
1 0.996554 0.999288
0.994837 0.99481 0.875847
0.994684 0.995131 0.867965
0.999843 0.995231 0.897845
1.00068 1.00306 0.990628
0.994757 0.994807 0.876815
0.994803 0.995044 0.867284
0.994735 0.994853 0.859682
0.998514 0.995898 0.976057
0.999676 0.99717 0.946756
0.997842 0.998291 0.88556
0.994784 0.995374 0.851847
0.9966 0.995108 0.968119
0.997429 0.999081 0.94692
0.996438 0.999896 0.890364
0.994806 0.994813 0.854215
0.994886 0.995306 0.963742
0.995173 0.999757 0.946465
0.994861 0.999981 0.895728
0.994889 0.994829 0.862079
1.00011 1.00462 0.990063
1.00009 1.00414 0.990635
1.00009 1.00298 0.991766
1.00048 1.00372 0.990258
1.00032 1.00404 0.990264
1 1.00343 0.99154
1.00059 1.00303 0.99101
1.00033 1.00324 0.99124
0.999865 0.997017 0.992991
1.00311 0.995621 0.993851
1.00012 1.00502 0.989726
1.00139 0.999869 0.992731
0.999827 1.00509 0.991027
1.00001 1.00501 0.990017
0.999878 1.0047 0.990124
0.997296 0.997258 0.99406
0.999482 1.00473 0.991355
0.999155 1.0033 0.99319
0.997993 0.99908 0.99948
0.999994 1.00466 0.990444
0.996021 0.999713 0.991586
0.995107 1.00324 1.00042
0.997474 1.00504 0.993615
0.999516 1.00443 0.991585
0.994756 0.994776 0.891931
0.994849 0.995563 0.881453
0.994733 0.995513 0.866853
0.997485 1.00316 0.996605
0.995422 1.00192 0.997642
0.994805 0.994819 0.882981
0.994892 0.999968 0.94848
0.994864 0.998574 0.972097
0.994827 0.999952 0.893878
0.994786 0.994773 0.870518
0.994861 0.99482 0.860239
0.995828 1.00476 0.998097
0.994759 0.99481 0.886289
0.994828 0.994781 0.877079
0.994884 1.00074 0.995439
0.994799 0.99481 0.854691
0.994923 0.998619 0.945792
0.994993 0.999577 0.900861
0.994955 1.0041 0.998339
0.994777 0.994818 0.890444
0.994735 0.994804 0.877388
0.994785 0.995171 0.853802
0.995448 0.999986 0.895465
0.994897 1.0001 0.980571
0.99501 0.999613 0.938506
0.998294 1.00504 0.993398
0.995521 1.00514 0.997933
0.99492 1.0051 0.999316
0.999966 1.00425 0.99035
0.997546 1.00478 0.994517
0.995812 1.00526 0.997035
0.997696 1.00459 0.994138
0.995239 1.00478 0.998183
0.997615 1.00294 0.996786
0.998594 1.0045 0.993225
0.999561 1.00367 0.991393
0.999536 1.00275 0.993356
0.999108 1.00336 0.991864
0.999655 1.00028 0.994854
1.00149 1.00124 0.990306
1.00361 1.00262 0.985621
1.00479 1.00175 0.984471
1.00183 1.00291 0.989486
1.00372 1.0027 0.985444
1.00478 1.00153 0.985702
1.0018 1.00378 0.987397
1.00347 1.00273 0.98597
0.999995 1.00505 0.989588
1.00066 1.00457 0.989264
1.00185 1.00352 0.986949
1.00001 1.00399 0.990688
0.999763 1.00486 0.990307
0.999805 1.00465 0.990494
0.999774 1.00434 0.990797
1.00008 1.00337 0.991324
1.00021 1.00162 0.992768
1.00013 1.00295 0.991736
1.0002 1.00127 0.993164
1.00011 0.9987 0.995861
1.00024 1.00107 0.993366
1.00017 0.998568 0.995892
0.999922 0.997118 0.999094
1.00017 0.998545 0.995896
1.00001 0.997073 0.998469
1.00001 0.997023 0.999096
1.00037 1.0025 0.991496
1.00022 1.00088 0.99334
1.00031 1.00235 0.991881
1.00015 0.998128 0.996383
1.00013 1.00056 0.993794
1.00019 1.00214 0.992401
1.00004 0.996621 0.999236
1.00012 0.997954 0.996594
1.00005 1.00025 0.994213
1.00004 0.996544 0.999273
1.0001 0.997848 0.99673
1.00002 0.996551 0.999287
0.994771 0.994809 0.88855
0.994828 0.995202 0.875781
0.99468 0.995557 0.86813
1.00059 1.0031 0.99074
1.00053 1.0033 0.990498
1.00066 1.00332 0.99054
0.994854 0.994778 0.873173
0.994767 0.994785 0.876909
0.994787 0.995088 0.867159
0.996546 0.99487 0.970219
0.998062 0.998698 0.93625
0.995053 0.99993 0.904133
0.994827 0.994833 0.850004
0.994906 0.995868 0.96726
0.995761 0.999953 0.942894
0.994817 0.999721 0.894637
0.994881 0.994823 0.860882
0.994922 0.9961 0.963169
0.994878 0.99938 0.948336
0.99513 0.999744 0.896502
0.994834 0.994806 0.854826
1.00034 1.00399 0.990162
1.00023 1.00451 0.989905
1.00026 1.00402 0.990436
1.00057 1.0036 0.990226
1.00015 1.00412 0.990486
1.0006 1.00307 0.991022
0.996714 0.997419 0.994727
0.997577 0.998741 0.999598
1.00001 1.00444 0.990095
0.999714 1.00258 0.993268
0.999515 1.00467 0.991492
0.999854 1.0046 0.990365
0.999157 1.0045 0.991744
0.99568 0.99972 0.991737
0.997566 1.00512 0.994253
0.995421 1.00273 0.99957
0.999374 1.00387 0.992233
0.995461 1.0002 0.989944
0.995908 1.00326 0.997058
0.997693 1.00506 0.994464
0.994761 0.994772 0.89496
0.994748 0.994777 0.892613
0.994856 0.995391 0.880804
0.995981 1.00461 0.997716
0.994842 1.00086 0.99211
0.994765 0.994818 0.886092
0.994848 0.999232 0.946881
0.995006 0.99937 0.888735
0.994816 0.994778 0.880389
0.994828 0.994831 0.850663
0.995083 1.00392 0.998846
0.994771 0.994818 0.891806
0.994768 0.994786 0.877493
0.994913 0.999688 0.977464
0.994791 0.995562 0.848348
0.994882 0.999974 0.893984
0.994924 0.999598 0.949636
0.995087 1.00491 0.993854
0.994773 0.99481 0.88883
0.994848 0.995458 0.867997
0.994664 0.995701 0.858674
0.995689 0.99893 0.886108
0.995516 0.999945 0.946853
0.994929 1.00052 0.971417
0.995988 1.00519 0.997483
0.995222 1.00436 0.999232
0.997037 1.00286 0.997908
0.997852 1.00461 0.994052
0.995476 1.00434 0.998189
0.996505 1.00413 0.99697
0.999466 0.999013 0.997568
0.999586 1.0029 0.993563
1.00079 1.00262 0.991447
1.00223 1.00356 0.987406
1.00138 1.00101 0.991011
1.00357 1.00265 0.985806
1.00421 1.00395 0.983299
1.00481 1.00191 0.984094
1.00481 1.00136 0.984888
1.00477 1.00192 0.984303
1.00413 1.00276 0.984684
1.00428 1.00189 0.986238
1.00451 1.0014 0.985839
1.00096 1.00445 0.988083
1.00193 1.00383 0.987581
1.00344 1.00276 0.986155
1.00002 1.00472 0.98968
1.00019 1.00504 0.989559
1.00065 1.00462 0.989202
1.00021 1.00223 0.992206
1.00014 1.00393 0.99069
0.999617 1.00486 0.990413
1.00014 1.00329 0.99133
1.00024 1.00163 0.99276
1.00004 0.998941 0.995739
1.00023 1.00126 0.993155
1.00012 0.998706 0.99585
0.999881 0.997253 0.99908
1.00017 0.99857 0.995888
0.999961 0.997143 0.998468
0.999978 0.997099 0.999085
1.00039 1.00287 0.991306
1.00031 1.00111 0.993148
1.00041 1.00247 0.991564
1.00018 0.998321 0.996122
1.00021 1.00088 0.993424
1.00031 1.00236 0.991995
1.00004 0.996731 0.99919
1.00015 0.998099 0.996399
1.00015 1.00055 0.99373
1.00004 0.996619 0.999245
1.00012 0.99794 0.996606
1.00004 0.996548 0.99928
0.99478 0.994822 0.89008
0.994772 0.994817 0.88835
0.994817 0.995472 0.875825
1.00039 1.00394 0.99005
1.00078 1.00399 0.98968
1.00051 1.00316 0.990855
1.00047 1.00345 0.990451
1.00046 1.00344 0.990545
1.00034 1.00377 0.990399
1.00042 1.0035 0.990554
0.994796 0.994769 0.869757
0.994844 0.994782 0.87656
0.994773 0.994773 0.877015
0.994872 0.994819 0.859732
0.994906 0.995966 0.964171
0.995044 0.99996 0.939379
0.994874 0.999249 0.903723
0.994989 0.996647 0.962186
0.99488 0.999752 0.938427
0.994963 0.999476 0.901025
0.994813 0.994792 0.863098
0.99573 0.99633 0.965944
0.994916 0.999869 0.938828
0.99497 0.999447 0.887361
0.994809 0.995285 0.852199
0.999401 1.00492 0.991098
1.00019 1.00422 0.990212
1.00029 1.00463 0.989746
1.00067 1.00355 0.990195
0.99537 1.00016 0.99207
0.995421 1.00343 0.998679
0.999756 1.00498 0.990288
0.99911 1.00442 0.991902
0.997868 1.00512 0.994879
0.999354 1.00392 0.992144
0.997485 1.00505 0.994451
0.995497 1.00155 0.987019
0.995125 1.00446 0.997642
0.997199 1.00447 0.995486
0.994771 1.00029 0.987164
0.996668 1.00399 0.99781
0.99475 0.994778 0.892057
0.994772 0.994772 0.897762
0.994741 0.994769 0.893291
0.99497 1.00376 0.999293
0.994933 0.998492 0.981314
0.994767 0.994809 0.893212
0.995683 0.999051 0.939213
0.994896 0.999536 0.903164
0.994801 0.994771 0.877599
0.994757 0.995555 0.852318
0.994905 1.00408 0.994575
0.994771 0.994807 0.888647
0.9948 0.995295 0.867888
0.994942 1.00064 0.971985
0.994707 0.995524 0.847714
0.996487 0.99991 0.889866
0.994891 0.999877 0.937889
0.99552 1.00475 0.988353
0.994827 0.99481 0.876517
0.994668 0.99539 0.855755
0.998377 0.997261 0.89807
0.994942 0.999932 0.946499
0.995003 1.00001 0.964817
0.995246 1.00379 0.999412
0.996169 1.00365 0.997964
0.997036 1.00021 0.999615
0.995458 1.00515 0.997143
0.998132 0.999741 0.997798
1.00232 0.998758 0.992999
1.0025 1.00177 0.991031
1.0027 1.0033 0.987315
1.0032 1.00421 0.984305
1.00345 1.00268 0.985993
1.00446 1.0039 0.983016
1.00426 1.00448 0.982652
1.00496 1.00113 0.984761
1.00501 1.00124 0.984619
1.00477 1.00209 0.984055
1.00477 1.00117 0.985281
1.0048 1.00125 0.985031
1.00472 1.00215 0.984135
1.0032 1.00328 0.986173
1.00398 1.00184 0.986192
1.0042 1.00125 0.985975
1.00063 1.00499 0.988467
1.00099 1.00453 0.988329
1.00207 1.00383 0.987769
1.00014 1.00317 0.991269
1.00024 1.00469 0.989701
1.00036 1.00504 0.989531
0.99996 0.999251 0.995555
1.00025 1.00218 0.992191
1.00026 1.00388 0.990692
1.00026 1.00163 0.992753
1.00004 0.998971 0.995721
0.999808 0.997443 0.99906
1.00013 0.998707 0.995839
0.999875 0.997283 0.999076
0.999932 0.997162 0.999085
1.00033 1.00434 0.98991
1.00053 1.00317 0.990815
1.00035 1.00151 0.992699
1.00041 1.00283 0.991296
1.00019 0.998587 0.995841
1.0003 1.00114 0.993146
1.00037 1.00253 0.99163
1.00004 0.996876 0.999129
1.00017 0.998316 0.99614
1.0002 1.00089 0.993508
1.00004 0.996707 0.999204
1.00015 0.99808 0.996416
1.00004 0.996588 0.999255
0.994742 0.994798 0.886072
0.994769 0.994817 0.891485
0.994778 0.994828 0.88813
1.00046 1.00398 0.990071
1.00058 1.00401 0.989749
1.00025 1.00338 0.990388
1.00019 1.00435 0.989863
1.00069 1.00423 0.989984
1.00049 1.00354 0.990403
1.00039 1.00356 0.990551
1.00041 1.00372 0.990407
1.00046 1.0036 0.990602
0.999951 1.00451 0.990576
0.994819 0.99518 0.86872
0.994779 0.994773 0.86998
0.994834 0.99478 0.879913
0.994811 0.994798 0.863391
0.995111 0.999739 0.888628
0.995046 0.997658 0.960614
0.994895 0.999784 0.94814
0.995291 0.99638 0.962752
0.994915 0.998791 0.948958
0.994851 0.999914 0.89568
0.994811 0.995213 0.850521
0.994828 0.995741 0.967458
0.994888 0.99998 0.948766
0.995082 0.999827 0.903207
0.994744 0.995499 0.857453
0.998487 1.004 0.993172
0.999488 1.00476 0.991027
1.00019 1.0042 0.990264
0.995427 1.00183 0.983885
0.995058 1.00458 0.998231
0.999278 1.00384 0.992054
0.996872 1.00513 0.994448
0.997234 1.00407 0.995483
0.996028 1.0036 0.997937
0.994983 1.00004 0.986879
0.995879 1.00203 0.999024
0.995908 0.999709 0.989727
0.994832 0.995391 0.881584
0.994748 0.994781 0.892712
0.994781 0.994785 0.900568
0.99493 1.00288 0.994902
0.99495 1.0006 0.96883
0.994772 0.994826 0.888435
0.995533 0.999959 0.946191
0.994839 0.999925 0.903444
0.994751 0.995489 0.867807
0.994763 0.995909 0.83644
0.995526 1.00465 0.988971
0.99482 0.99498 0.876453
0.994696 0.995451 0.85353
0.994945 0.999991 0.965788
0.998253 0.9987 0.898489
0.995786 0.99992 0.941753
0.99499 1.00472 0.986375
0.994674 0.994812 0.861067
0.999778 0.996634 0.903915
0.997423 0.998295 0.93765
0.994838 0.997379 0.967929
0.995551 1.00446 0.998008
0.996751 1.00055 0.999565
0.999871 1.00265 0.994277
0.996787 1.0006 0.99798
1.00117 0.999243 0.993374
1.00354 0.999452 0.989008
1.00311 1.00299 0.98722
1.00322 1.00417 0.984274
1.00423 1.00188 0.984711
1.00473 1.00393 0.982734
1.00428 1.00409 0.982758
1.00475 1.00104 0.985144
1.00516 0.9989 0.986458
1.00511 1.00046 0.985043
1.00491 1.00102 0.984849
1.00509 1.00139 0.98454
1.00502 1.00128 0.984584
1.00473 1.00223 0.984016
1.0045 1.0019 0.98523
1.00456 1.00119 0.985425
1.0048 1.00115 0.985174
1.00201 1.00412 0.987128
1.00296 1.00328 0.986347
1.00366 1.00183 0.986144
1.00015 1.00446 0.989752
1.00079 1.00499 0.988471
1.00107 1.00461 0.988573
0.999898 0.999859 0.995744
1.00025 1.00313 0.991248
1.00045 1.00467 0.989722
0.999746 0.997706 0.997677
0.999955 0.999367 0.995793
1.0003 1.00213 0.992176
1.00003 0.999003 0.995703
0.999805 0.997474 0.99905
0.999868 0.997294 0.999072
1.00021 1.00461 0.989912
1.00043 1.00381 0.990338
1.00027 1.00439 0.989868
1.00038 1.00192 0.992242
1.0004 1.00335 0.990811
1.00016 0.998909 0.995564
1.00035 1.00149 0.992704
1.00049 1.00274 0.991284
1.00002 0.99708 0.999064
1.00019 0.998566 0.995857
1.00028 1.00116 0.993144
1.00003 0.996865 0.999148
1.00016 0.998301 0.996157
1.00004 0.996691 0.999218
0.994814 0.99482 0.883881
0.994764 0.994807 0.885874
0.994763 0.994812 0.892922
1.00051 1.00302 0.990651
1.00035 1.00418 0.990092
1.0005 1.00397 0.989818
1.00039 1.00441 0.9898
1.00063 1.00323 0.990427
1.00048 1.00398 0.990392
1.00121 1.00353 0.989254
0.999528 1.00482 0.990293
1.00046 1.00366 0.990416
1.00018 1.00365 0.990649
0.999822 1.00442 0.990556
0.999057 1.00511 0.991835
0.994707 0.995593 0.857408
0.994839 0.995154 0.868372
0.994789 0.994774 0.870148
0.994797 0.994998 0.858318
0.994833 0.999934 0.895434
0.995082 0.999527 0.938854
0.995046 0.99619 0.962007
0.994905 0.995813 0.968713
0.99476 0.995762 0.846712
0.994885 0.999311 0.943006
0.996592 0.999929 0.890528
0.994876 0.996133 0.970247
0.994892 0.999946 0.949176
0.998792 0.998437 0.894241
0.999052 1.0015 0.99535
0.9986 1.0041 0.993141
0.99941 1.00466 0.990955
0.994999 1.00031 0.986993
0.995429 1.00329 0.998053
0.997295 1.00369 0.995483
0.99696 1.00191 0.998911
0.995344 0.999431 0.989845
0.996942 0.998535 0.993045
0.994753 0.995752 0.867292
0.994832 0.995108 0.884506
0.994745 0.994767 0.893358
0.995372 1.00457 0.989287
0.994855 0.999985 0.965842
0.99481 0.995141 0.876504
0.994839 0.99995 0.938689
0.998239 0.997248 0.88635
0.994732 0.995165 0.86047
0.994932 1.00457 0.986413
0.994686 0.994969 0.868817
0.99981 0.995601 0.891991
0.994888 0.996882 0.963963
0.997441 0.998785 0.94701
0.995512 1.00322 0.991032
0.999816 0.995164 0.890181
1 0.996503 0.948327
0.994875 0.995028 0.963294
0.996407 1.00064 0.999608
0.999336 1.00167 0.994233
1.00252 1.00246 0.989146
1.00011 0.999778 0.993752
1.00296 1.00013 0.988916
1.00443 0.998714 0.987943
1.00325 1.00412 0.984243
1.00415 1.00195 0.984694
1.00497 0.997554 0.987558
1.00429 1.00365 0.982864
1.00467 1.00084 0.985187
1.00515 0.997149 0.988112
1.00514 0.997091 0.988436
1.00517 0.999145 0.986249
1.00515 0.998777 0.986603
1.00514 1.0005 0.984995
1.0051 1.00046 0.985143
1.00488 1.00092 0.984938
1.00511 1.00121 0.984757
1.00498 1.00132 0.984659
1.00502 1.00129 0.984547
1.00368 1.00249 0.985967
1.00441 1.00191 0.985222
1.0044 1.00118 0.985568
1.00088 1.00488 0.988264
1.00213 1.00413 0.987102
1.00267 1.00325 0.986521
0.999795 1.00085 0.994133
1.00045 1.00425 0.989755
1.00099 1.00498 0.988474
0.999653 0.998067 0.998921
0.999888 0.999967 0.994967
1.00037 1.00306 0.991228
0.999752 0.99769 0.99901
0.99993 0.999452 0.995445
0.999805 0.997524 0.999039
1.00085 1.00385 0.989619
1.00026 1.00458 0.989824
1.00043 1.00436 0.989822
1.00029 1.00253 0.991793
1.00039 1.00383 0.99033
1.00033 1.0043 0.989827
1.00014 0.999235 0.99528
1.00034 1.00196 0.992249
1.0003 1.00349 0.990806
0.999983 0.997302 0.998994
1.00017 0.998862 0.995578
1.00035 1.00148 0.99271
1.00002 0.997041 0.999083
1.00018 0.998548 0.995873
1.00003 0.996827 0.999166
0.994701 0.995209 0.856191
0.994821 0.994816 0.883872
0.994772 0.994816 0.885682
1.00036 1.00328 0.990591
1.00195 1.00305 0.989659
1.00061 1.00353 0.990194
1.00042 1.00453 0.989737
1.00099 1.00307 0.990464
1.00006 1.00358 0.990797
0.999833 1.00478 0.990171
1.00088 1.00377 0.989441
1.0006 1.00457 0.98933
0.999828 1.0007 0.994071
1.00009 1.00436 0.990535
0.999175 1.00499 0.991508
0.999807 0.997073 0.886068
0.994704 0.995611 0.851547
0.994824 0.995296 0.868195
0.994773 0.996198 0.835593
0.996294 0.999156 0.903555
0.994852 0.999876 0.940071
0.995165 0.995567 0.966268
0.994862 0.996059 0.968877
0.998249 0.999195 0.896728
0.995855 0.99982 0.939122
0.994882 0.997428 0.9705
0.998201 0.998481 0.937461
1.00168 0.997561 0.99515
0.998964 1.00172 0.995265
0.998673 1.00424 0.99312
0.994861 0.9992 0.989933
0.997721 1.00182 0.998777
0.997486 0.998678 0.992685
0.998569 0.997625 0.990787
0.999844 0.994863 0.900222
0.994735 0.995426 0.866678
0.994848 0.994822 0.887328
0.994903 1.00467 0.986647
0.994863 0.996487 0.962021
0.994684 0.995111 0.86894
0.998479 0.997841 0.936797
0.999821 0.995679 0.904598
0.995382 1.00236 0.988469
0.999841 0.995128 0.898147
1.00136 0.996426 0.937066
0.994889 0.995133 0.966606
0.998044 0.997882 0.990142
1.00002 0.99518 0.949151
0.996044 0.995379 0.969344
0.998751 1.00076 0.994116
1.00224 1.00076 0.989144
1.00485 0.998392 0.988689
1.00233 1.00072 0.988834
1.00412 0.998849 0.987963
1.00493 0.996224 0.989352
1.00417 1.00199 0.984678
1.00492 0.997914 0.987475
1.00514 0.99549 0.989626
1.00461 1.00063 0.985228
1.00515 0.997169 0.988082
1.00515 0.995593 0.989798
1.00514 0.996173 0.98964
1.00515 0.996917 0.988653
1.00514 0.997734 0.987981
1.00518 0.999543 0.986074
1.00517 0.999213 0.986312
1.00515 0.998651 0.98675
1.00518 1.00079 0.984976
1.00516 1.00053 0.984965
1.0051 1.00044 0.985244
1.0047 1.0013 0.985402
1.00503 1.00124 0.984758
1.00485 1.0013 0.98478
1.002 1.004 0.987348
1.00366 1.00258 0.985959
1.00438 1.00193 0.985214
0.999988 1.00183 0.992744
1.00102 1.00477 0.988268
1.0023 1.00404 0.987077
0.999706 0.998405 0.998751
0.999831 1.00094 0.994083
1.00069 1.00422 0.989758
0.999701 0.998075 0.998178
0.999882 1.00005 0.994959
0.999767 0.997777 0.998962
1.00142 1.00287 0.989593
1.00049 1.00403 0.989793
1.00035 1.00481 0.989322
1.00036 1.00456 0.989736
1.00031 1.00448 0.989811
1.00027 1.0031 0.991256
1.00007 0.99967 0.994983
1.00029 1.00249 0.991798
1.0003 1.00393 0.990322
0.999936 0.997534 0.998917
1.00013 0.999225 0.995293
1.00031 1.00199 0.992256
0.999984 0.99726 0.999016
1.00018 0.998831 0.995592
1.00002 0.997021 0.999102
0.999814 0.994872 0.898591
0.994701 0.995118 0.859649
0.994823 0.994809 0.883818
1.00021 1.00368 0.990532
1.00063 1.00423 0.989435
1.00147 1.00309 0.989942
1.00317 1.00343 0.986094
1.00056 1.00412 0.989865
1 1.00484 0.990054
1.00069 1.00406 0.989629
1.00031 1.00457 0.989588
1.00138 1.00298 0.988523
1.00154 0.999742 0.992717
1.00419 0.996183 0.991009
1.00023 1.00016 0.9941
0.999725 1.00415 0.991179
0.998621 0.996976 0.947609
0.999792 0.997073 0.891147
0.994716 0.995513 0.854302
0.998762 0.99943 0.884053
0.995256 0.999953 0.946593
0.994825 0.995886 0.969798
0.994876 0.997332 0.972139
0.997414 0.998846 0.948627
0.995857 0.996857 0.971711
1.00174 0.995947 0.995596
1.00099 0.998266 0.995201
0.998887 1.00204 0.995175
0.998216 0.998212 0.992429
0.998961 0.997555 0.99087
0.999978 0.994999 0.942071
0.999836 0.99489 0.904314
0.994702 0.995118 0.866172
0.994917 1.00176 0.985829
0.994966 0.994886 0.963584
0.999832 0.995219 0.898596
1.00026 0.996537 0.947025
0.997083 0.998826 0.990603
1.00097 0.995455 0.947042
0.996624 0.994957 0.966491
1.00137 0.996192 0.989404
0.998966 0.995199 0.975746
1.00213 0.998848 0.989237
1.00477 0.997125 0.988647
1.00499 0.995905 0.990343
1.00379 0.999011 0.987981
1.00473 0.996393 0.989269
1.00518 0.994939 0.990227
1.0048 0.998336 0.987393
1.00514 0.995591 0.989569
1.00512 0.994957 0.99044
1.00516 0.997177 0.988052
1.00515 0.995643 0.989752
1.00516 0.995228 0.990324
1.00513 0.995951 0.989758
1.00513 0.996619 0.989196
1.00516 0.996745 0.98887
1.00515 0.997743 0.98796
1.00519 0.998551 0.987115
1.0052 1.00012 0.985618
1.00519 0.999592 0.986053
1.00516 0.99928 0.986375
1.00506 1.00073 0.985262
1.00515 1.00083 0.984914
1.00517 1.00055 0.984934
1.00314 1.00242 0.986876
1.0046 1.00142 0.985408
1.00494 1.00129 0.984758
1.00053 1.00216 0.991544
1.00201 1.00396 0.987349
1.00352 1.00277 0.98595
0.999841 0.999071 0.998405
1.00009 1.00187 0.992721
1.00122 1.00456 0.988271
0.999779 0.998564 0.998644
0.999884 1.00105 0.994032
0.999773 0.99812 0.998825
1.00313 1.00293 0.986252
1.00152 1.00272 0.989535
1.00059 1.00442 0.989048
1.00017 1.00411 0.989968
1.00029 1.00481 0.989334
1.00032 1.00371 0.990554
1.00021 1.00456 0.9898
1.00023 1.00311 0.991265
1.00001 1.00012 0.994653
0.999868 0.997858 0.998834
1.00006 0.999626 0.994997
1.00028 1.00246 0.991803
0.999938 0.997518 0.998943
1.00011 0.999208 0.995305
0.999989 0.997215 0.999037
1.00004 0.99505 0.951561
0.999865 0.994877 0.89755
0.994697 0.995001 0.855727
1.00065 1.00479 0.988677
1.0011 1.00288 0.99023
1.00094 1.00391 0.989618
1.00304 1.00349 0.986354
1.00428 1.00255 0.984325
1.00159 1.00347 0.987881
1.00003 1.00454 0.989841
1.00217 1.00278 0.987708
1.00137 0.999635 0.992779
1.00315 0.999441 0.989078
1.00479 0.995498 0.991084
1.00398 0.996055 0.991545
1.00374 0.996223 0.991419
1.00002 1.00024 0.99413
0.995994 0.99567 0.970794
0.999934 0.996835 0.944317
0.998173 0.996923 0.903213
0.99741 0.999272 0.937463
0.994868 0.99767 0.972598
0.995638 0.997163 0.976769
0.999552 0.99743 0.992169
1.00214 0.995655 0.995408
1.00052 0.998931 0.995255
1.00009 0.998302 0.990956
0.996523 0.997246 0.971699
1.00011 0.995013 0.952589
0.999823 0.99488 0.892388
0.996263 0.999475 0.990887
0.996787 0.994869 0.968258
1.00004 0.996141 0.944758
1.00076 0.996173 0.98951
0.998418 0.99563 0.975162
1.00359 0.995422 0.990498
1.00275 0.998122 0.986647
1.00462 0.996025 0.988569
1.00484 0.995674 0.990381
1.00517 0.994876 0.990636
1.0046 0.996556 0.989188
1.00518 0.994943 0.990187
1.00515 0.994943 0.990495
1.00515 0.995654 0.989513
1.00512 0.995021 0.990406
1.00518 0.994996 0.990499
1.00516 0.995704 0.989707
1.00515 0.995256 0.990266
1.00515 0.995655 0.989916
1.00513 0.995736 0.989875
1.00514 0.996474 0.989325
1.00516 0.997797 0.988031
1.00515 0.997752 0.987939
1.00519 0.998611 0.987088
1.00521 0.999511 0.986304
1.00518 1.00035 0.985401
1.00521 1.0002 0.985535
1.00519 0.999641 0.986032
1.00399 1.0011 0.986717
1.00502 1.00078 0.985277
1.00512 1.00086 0.984852
1.00101 1.00203 0.990849
1.0031 1.00252 0.986882
1.00452 1.00153 0.985415
1.00011 0.999654 0.997962
1.00064 1.00207 0.991532
1.00202 1.00391 0.987349
0.999979 0.999193 0.998232
1.00016 1.00188 0.992699
0.999889 0.998652 0.998508
1.00436 1.00236 0.984697
1.00345 1.00287 0.986291
1.00217 1.00396 0.986973
1.0015 1.0027 0.989478
1.00074 1.00433 0.988903
1.00072 1.00402 0.989607
1.00022 1.00481 0.989347
1.0003 1.00371 0.990552
0.99995 1.00064 0.994234
1.0002 1.00311 0.991274
0.99999 1.00007 0.994674
0.999798 0.998195 0.99874
0.999873 0.997796 0.998862
1.00006 0.999592 0.995011
0.999936 0.997465 0.998967
0.996854 0.994853 0.972285
1.00002 0.995457 0.941213
0.999843 0.99501 0.906192
1.00515 1.00075 0.98469
1.00135 1.00381 0.989372
1.00291 1.00359 0.986615
1.00207 1.00331 0.987715
1.00436 1.00276 0.984294
1.0039 1.00071 0.986898
1.00292 1.00276 0.986895
1.00115 0.999548 0.992847
1.00353 0.999383 0.988905
1.00482 0.995617 0.990464
1.00481 0.996042 0.989595
1.00411 0.99552 0.992139
1.00388 0.995693 0.991548
1.00327 0.996281 0.991829
0.999814 0.996897 0.99161
0.9958 0.995447 0.969079
0.999319 0.996123 0.941537
0.995166 0.996974 0.975455
0.999684 0.996629 0.994301
1.002 0.995097 0.995203
1.00061 0.997504 0.985728
0.996434 0.996031 0.972934
0.999976 0.994902 0.942137
0.999893 0.996684 0.989687
0.998481 0.995906 0.974145
1.00303 0.995475 0.990852
1.00285 0.997515 0.987193
1.00437 0.99485 0.991111
1.00464 0.997464 0.990618
1.00472 0.995431 0.990415
1.00517 0.994877 0.990528
1.00522 0.994865 0.990407
1.00517 0.994944 0.990146
1.00514 0.994934 0.990488
1.00521 0.994925 0.990475
1.00511 0.99509 0.990372
1.00518 0.994971 0.990486
1.00519 0.995301 0.990263
1.00514 0.995261 0.990208
1.00516 0.995668 0.989901
1.00517 0.996839 0.988891
1.00514 0.99633 0.989454
1.00517 0.997649 0.988211
1.00521 0.998988 0.986839
1.00519 0.99867 0.987062
1.0052 0.999506 0.986302
1.00521 1.00015 0.985621
1.00434 1.00046 0.986749
1.00516 1.00043 0.985366
1.00521 1.00027 0.985452
1.00154 1.00139 0.990627
1.00395 1.00117 0.98671
1.00499 1.00082 0.985292
1.00026 1.00007 0.997653
1.0012 1.00178 0.990843
1.00306 1.00255 0.986889
1.0002 0.999737 0.997833
1.0008 1.00191 0.991524
1.00011 0.99932 0.998062
1.00513 1.00129 0.98444
1.00454 1.00227 0.984681
1.00399 1.00262 0.985435
1.00381 1.0028 0.98633
1.00229 1.00397 0.986916
1.00129 1.00437 0.988351
1.00093 1.00423 0.988757
1.00052 1.00426 0.989608
0.999969 1.00126 0.99359
1.00022 1.00376 0.990552
0.99993 1.00058 0.994262
0.999748 0.998589 0.998615
0.999975 1.00003 0.994694
0.999799 0.998134 0.998775
0.999878 0.99776 0.998889
1.00103 0.994866 0.989664
0.996678 0.994871 0.968991
0.999998 0.994914 0.951898
1.00507 0.999504 0.986264
1.00519 0.999078 0.986539
1.00512 1.00064 0.984875
1.00252 1.00305 0.987544
1.00446 1.00298 0.984258
1.00404 1.00053 0.987026
1.005 0.997143 0.988217
1.00394 0.999272 0.988733
1.00483 0.995791 0.989837
1.00483 0.996284 0.989709
1.00504 0.995247 0.990215
1.00415 0.995443 0.991699
1.00378 0.995672 0.992082
1.00403 0.995398 0.991549
1.00016 0.996694 0.991739
0.995795 0.995327 0.967425
0.999995 0.996387 0.996518
1.00429 0.995456 0.991677
1.00055 0.997504 0.985922
0.996325 0.995702 0.970743
1.00284 0.994886 0.99118
1.00291 0.997287 0.987773
1.00443 0.994963 0.991538
1.00466 0.996709 0.990621
1.00526 0.994934 0.990468
1.00532 0.994971 0.990661
1.00518 0.994874 0.990422
1.00523 0.994889 0.990389
1.00522 0.994916 0.990417
1.00514 0.994929 0.990481
1.00521 0.994924 0.990481
1.00521 0.995057 0.990465
1.00517 0.994957 0.990473
1.00519 0.995284 0.990247
1.00517 0.996182 0.989526
1.00517 0.995682 0.989885
1.00516 0.996862 0.988888
1.00522 0.998447 0.987311
1.00517 0.997497 0.988391
1.00521 0.998928 0.986907
1.00522 0.999938 0.985804
1.0052 0.999502 0.9863
1.00521 1.00011 0.985661
1.00447 1.0002 0.986807
1.0018 1.00075 0.990755
1.00433 1.0005 0.98674
1.00512 1.00051 0.98533
1.00035 1.00032 0.99747
1.00158 1.00131 0.990625
1.00388 1.0013 0.986704
1.00031 1.00015 0.997569
1.00131 1.00165 0.990838
1.00028 0.999852 0.997716
1.00524 1.0001 0.985439
1.00514 1.0012 0.984537
1.00492 1.00115 0.985074
1.00469 1.00216 0.984667
1.00392 1.00259 0.985452
1.00229 1.0036 0.987299
1.00235 1.004 0.986861
1.00104 1.00462 0.988374
1.00021 1.00203 0.992472
1.00036 1.00447 0.989609
0.999925 1.00122 0.993619
0.999763 0.999078 0.998397
0.999915 1.00053 0.994289
0.999733 0.998501 0.998665
0.9998 0.998068 0.998806
1.00415 0.994843 0.992426
1.00101 0.994888 0.987832
0.996556 0.994879 0.968178
1.00512 0.998275 0.987586
1.0051 0.999085 0.986533
1.00524 0.997727 0.987796
1.0052 0.99905 0.986534
1.0051 1.00051 0.985062
1.00515 0.996137 0.989078
1.0042 1.00038 0.987155
1.00498 0.997399 0.988203
1.00521 0.994912 0.990284
1.00486 0.996475 0.989825
1.005 0.995335 0.990094
1.00415 0.995536 0.991845
1.00326 0.995772 0.992021
1.00046 0.996355 0.991765
1.00529 0.994925 0.990481
1.00423 0.996221 0.991772
1.00061 0.997157 0.98611
1.00446 0.995134 0.991955
1.00466 0.996016 0.990627
1.00525 0.994923 0.990509
1.00533 0.994994 0.990594
1.00525 0.994951 0.990651
1.00523 0.994911 0.990372
1.00522 0.994921 0.990434
1.00518 0.994932 0.990654
1.00521 0.994921 0.990487
1.00521 0.995034 0.990437
1.00517 0.995668 0.990037
1.00519 0.995269 0.99023
1.00518 0.996208 0.989515
1.00523 0.997914 0.987853
1.00516 0.996884 0.988885
1.00522 0.998455 0.987327
1.00524 0.999726 0.98602
1.0052 0.998866 0.986975
1.00522 0.999933 0.985824
1.00452 1.00011 0.986816
1.00521 1.00007 0.985701
1.00447 1.00021 0.986806
1.00186 1.00038 0.992432
1.00058 1.0001 0.994568
1.00185 1.00072 0.991472
1.00432 1.00054 0.986731
1.00037 1.00037 0.997437
1.00171 1.00113 0.99062
1.00035 1.00025 0.997491
1.00525 0.997618 0.988011
1.00526 0.999104 0.986523
1.00525 1.00011 0.985564
1.00506 1.00056 0.985363
1.00517 1.00113 0.984631
1.00496 1.0011 0.985054
1.00344 1.00188 0.986894
1.00388 1.00251 0.985467
1.00228 1.00353 0.987299
1.00075 1.0023 0.991219
1.00085 1.00484 0.988395
1.00008 1.0021 0.992499
0.999905 0.999758 0.99798
0.999886 1.00118 0.993647
0.999707 0.998964 0.998488
0.999727 0.998424 0.998709
1.00528 0.994842 0.990488
1.00448 0.994843 0.992288
1.00118 0.9949 0.98605
1.00517 0.996694 0.988694
1.00512 0.998197 0.987428
1.00512 0.998687 0.986799
1.00523 0.997872 0.987763
1.00521 0.999016 0.98653
1.00524 0.99532 0.990146
1.00512 0.996151 0.989041
1.00496 0.997679 0.988187
1.00521 0.994901 0.990291
1.005 0.995437 0.989973
1.00415 0.995657 0.992009
1.00524 0.994918 0.990742
1.00529 0.994924 0.990659
1.00415 0.996971 0.991872
1.00524 0.994915 0.990543
1.00534 0.994966 0.99053
1.00525 0.994948 0.990598
1.00514 0.994958 0.99092
1.00522 0.994928 0.99045
1.00519 0.994931 0.990618
1.00519 0.995298 0.990459
1.00521 0.99501 0.990409
1.00518 0.995683 0.990032
1.00522 0.997495 0.988302
1.00518 0.996235 0.989504
1.00523 0.997923 0.987864
1.00525 0.999507 0.986253
1.00522 0.998462 0.987344
1.00524 0.999717 0.986038
1.00455 1.0001 0.986786
1.00522 0.999926 0.985844
1.00453 1.0001 0.986822
1.00197 1.0001 0.992543
1.00447 1.00021 0.986805
1.00203 1.00029 0.992347
1.00057 0.999988 0.994723
1.00036 1.00035 0.996038
1.00202 1.00066 0.992052
1.00036 1.00044 0.997419
1.00519 0.996922 0.988834
1.00525 0.998719 0.986865
1.00524 0.997425 0.988211
1.00519 1.00004 0.985699
1.00526 0.999183 0.986483
1.00525 1.00012 0.985689
1.00512 1.00053 0.985327
1.00411 1.00082 0.986807
1.00501 1.00107 0.985034
1.00355 1.00171 0.986882
1.00132 1.00182 0.990606
1.00224 1.0035 0.9873
1.00058 1.00247 0.991227
1.00006 1.00049 0.99757
0.999916 1.00217 0.992524
0.999775 0.999637 0.998154
0.999679 0.998844 0.998564
1.00524 0.994881 0.990561
1.00526 0.994843 0.990471
1.00475 0.994854 0.99212
1.00519 0.995825 0.989768
1.00516 0.996787 0.988674
1.00512 0.998126 0.987274
1.00521 0.998019 0.98773
1.00523 0.995319 0.990099
1.00509 0.996178 0.989003
1.0052 0.994898 0.990297
1.00517 0.994925 0.990922
1.00524 0.994919 0.990736
1.00528 0.994926 0.990835
1.0051 0.994957 0.991041
1.00526 0.994944 0.990546
1.00515 0.994955 0.990905
1.00519 0.995141 0.990717
1.00519 0.994928 0.990582
1.00517 0.995319 0.990462
1.00522 0.997261 0.988573
1.00519 0.995702 0.990027
1.00522 0.997506 0.98831
1.00525 0.999273 0.986514
1.00523 0.997932 0.987875
1.00525 0.999495 0.98627
1.00458 1.00007 0.986774
1.00524 0.999707 0.986056
1.00456 1.00009 0.986798
1.00204 1.00005 0.99249
1.00454 1.00009 0.986827
1.00211 1.00004 0.992431
1.00063 0.999887 0.994758
1.00219 1.00018 0.99227
1.00026 1.00015 0.994928
0.999896 1.00065 0.99778
1.00518 0.996845 0.98884
1.00522 0.998125 0.987603
1.0052 0.996989 0.988686
1.00526 0.99969 0.986126
1.00526 0.998502 0.987058
1.00523 0.997238 0.98841
1.00444 1.00023 0.986813
1.00521 1.00003 0.985667
1.00526 0.999261 0.986441
1.00518 1.00051 0.985291
1.00414 1.00074 0.986811
1.00162 1.00123 0.990648
1.00363 1.00152 0.986871
1.0012 1.00198 0.990611
1.0001 1.00089 0.997412
1.00044 1.00261 0.991241
0.999962 1.00032 0.997717
0.999681 0.999448 0.998302
1.00516 0.995229 0.990548
1.00524 0.99488 0.990558
1.00526 0.994841 0.990454
1.00519 0.995711 0.989897
1.00514 0.99687 0.988654
1.00522 0.995307 0.990053
1.00516 0.994928 0.990996
1.00517 0.994933 0.990931
1.00523 0.994921 0.99073
1.0051 0.994957 0.991071
1.00519 0.995355 0.990566
1.00515 0.994952 0.99089
1.00517 0.995317 0.990558
1.00525 0.996794 0.989067
1.00515 0.995336 0.990466
1.00523 0.997237 0.988577
1.00525 0.999021 0.986781
1.00521 0.997506 0.988319
1.00525 0.999259 0.986523
1.0046 0.999995 0.986823
1.00525 0.999483 0.986287
1.00458 1.00007 0.986787
1.00208 1.00012 0.992343
1.00457 1.00007 0.98681
1.00217 1 0.992359
1.00069 0.99989 0.994665
1.00224 0.999994 0.992328
1.00035 0.999938 0.994986
0.999954 1.00033 0.995117
1.00519 0.996212 0.989594
1.00523 0.997904 0.987813
1.00519 0.996655 0.989002
1.00526 0.999223 0.986623
1.00522 0.998224 0.98749
1.00521 0.997054 0.988537
1.00458 0.999914 0.986895
1.00527 0.999543 0.986164
1.00526 0.998286 0.987252
1.00181 1.00061 0.9909
1.00444 1.00021 0.986814
1.00523 1.00002 0.985634
1.00417 1.00067 0.986817
1.00156 1.00131 0.990655
1.00013 1.00095 0.997422
1.00108 1.00215 0.990617
1.00009 1.00077 0.997455
0.999828 1.00019 0.997884
1.00516 0.995033 0.990798
1.00516 0.995249 0.99049
1.00524 0.99488 0.990556
1.00518 0.995608 0.990026
1.00517 0.995387 0.990511
1.00514 0.994935 0.991008
1.00517 0.99494 0.990941
1.00509 0.994958 0.9911
1.00519 0.995346 0.990565
1.00528 0.996823 0.989017
1.00516 0.995492 0.990398
1.00526 0.997057 0.988767
1.00524 0.998588 0.987259
1.00523 0.997224 0.988581
1.00525 0.999017 0.98678
1.00459 0.999886 0.98694
1.00525 0.999254 0.986531
1.0046 0.999991 0.986831
1.00214 1.00018 0.990825
1.00459 1.00006 0.9868
1.0022 1.00009 0.991522
1.00059 0.999947 0.997427
1.0023 0.999973 0.992229
1.00044 0.999879 0.994904
1.00009 0.99998 0.995196
1.0052 0.995775 0.990071
1.00524 0.997527 0.988277
1.00519 0.996272 0.989556
1.00525 0.998938 0.986797
1.00523 0.997912 0.987795
1.0052 0.996462 0.989164
1.00462 0.999684 0.986904
1.00526 0.999222 0.986632
1.00521 0.99832 0.987378
1.00198 1.00009 0.991104
1.00457 0.999863 0.986852
1.00527 0.999387 0.986203
1.00023 1.00069 0.997489
1.00181 1.0006 0.990906
1.00445 1.00018 0.986814
1.0015 1.00136 0.990666
1.00014 1.00086 0.99741
1.00003 1.00069 0.997518
1.00518 0.995271 0.99058
1.00517 0.995067 0.990763
1.00516 0.995268 0.990432
1.00523 0.996974 0.988888
1.00518 0.995259 0.990631
1.00513 0.994942 0.991021
1.0052 0.995334 0.990565
1.00528 0.9968 0.989021
1.00523 0.998564 0.987453
1.00526 0.997322 0.988466
1.00524 0.998782 0.98711
1.00456 0.99964 0.987115
1.00526 0.999003 0.98678
1.00459 0.999883 0.986945
1.00214 1.00013 0.990877
1.0046 0.99999 0.98684
1.00215 1.00016 0.990827
1.00059 0.999991 0.997395
1.00223 1.00007 0.990808
1.00049 0.999944 0.996149
1.00019 0.999846 0.995141
1.0052 0.995817 0.989989
1.00522 0.997372 0.988489
1.0052 0.995709 0.990138
1.00524 0.998994 0.98676
1.00524 0.997589 0.988199
1.00519 0.996334 0.989518
1.00463 0.99961 0.986986
1.00525 0.999089 0.986709
1.00522 0.997922 0.987777
1.00211 0.999863 0.991123
1.00461 0.999677 0.986911
1.00526 0.999223 0.98664
1.00041 1.00031 0.997515
1.002 1.00007 0.991107
1.00457 0.999812 0.986807
1.00024 1.00065 0.99746
1.00181 1.00059 0.990912
1.00012 1.00082 0.997415
1.00523 0.996854 0.989054
1.00518 0.995396 0.990471
1.00517 0.995093 0.990729
1.00523 0.998457 0.98756
1.00523 0.996827 0.989008
1.0052 0.995136 0.990751
1.00527 0.996777 0.989024
1.00523 0.998563 0.987448
1.00453 0.999541 0.987277
1.00524 0.998978 0.986961
1.00457 0.999711 0.987094
1.00213 1.00004 0.990985
1.0046 0.999878 0.98695
1.00212 1.00014 0.990882
1.00056 1.00002 0.997369
1.00215 1.00015 0.990827
1.00058 1 0.99738
1.00057 0.999903 0.994654
1.00523 0.997268 0.988542
1.00519 0.995604 0.990174
1.00524 0.998862 0.986938
1.00523 0.99738 0.988472
1.00521 0.99565 0.990205
1.00461 0.999691 0.987114
1.00524 0.999005 0.986755
1.00524 0.997651 0.98812
1.00218 0.999855 0.991031
1.00462 0.999666 0.986999
1.00525 0.999244 0.98662
1.00056 1.00005 0.997471
1.00212 0.999857 0.991124
1.0046 0.999664 0.986917
1.00038 1.00033 0.997507
1.00201 1.00006 0.991108
1.00024 1.00063 0.997435
1.00524 0.998454 0.98752
1.00523 0.996938 0.988952
1.00518 0.995515 0.990362
1.00451 0.999495 0.987359
1.00523 0.998461 0.987558
1.00524 0.996677 0.989127
1.00523 0.998566 0.987443
1.00454 0.999531 0.987257
1.00208 1 0.991113
1.00457 0.999782 0.987073
1.00211 1.00005 0.990989
1.00056 1.00001 0.997374
1.00212 1.00014 0.990888
1.00056 1.00003 0.997375
1.00058 1.00001 0.997371
1.00525 0.998731 0.987063
1.00523 0.997015 0.988807
1.00518 0.9954 0.990358
1.00457 0.999673 0.987217
1.00523 0.99887 0.986927
1.00524 0.997386 0.988456
1.00217 0.999943 0.990986
1.00459 0.999699 0.987108
1.00524 0.999014 0.986751
1.00062 0.999952 0.997405
1.00218 0.999872 0.991031
1.00461 0.999717 0.987013
1.00052 1.00009 0.997491
1.00213 0.999868 0.991125
1.00039 1.00033 0.997491
1.00451 0.999627 0.987345
1.00524 0.998378 0.987535
1.00522 0.997024 0.98885
1.00205 0.999941 0.991241
1.00451 0.999477 0.98735
1.00523 0.998463 0.987555
1.00456 0.999517 0.987238
1.00208 0.999983 0.991119
1.00054 1.00001 0.997376
1.00209 1.00006 0.990993
1.00055 1.00002 0.99737
1.00053 1.00004 0.997378
1.00453 0.999645 0.987298
1.00524 0.998579 0.987223
1.00524 0.996762 0.989073
1.00222 0.999997 0.992297
1.00455 0.999675 0.987218
1.00523 0.99888 0.986916
1.0006 0.999959 0.99737
1.00217 0.999964 0.990986
1.00458 0.999707 0.987102
1.00061 0.999981 0.997431
1.00218 0.999897 0.991031
1.00051 1.0001 0.997504
1.00211 0.999939 0.991168
1.00451 0.999551 0.987348
1.00524 0.998301 0.98755
1.00049 0.999992 0.997412
1.00204 0.999939 0.991238
1.00452 0.999461 0.987341
1.00208 0.999965 0.991121
1.00052 1.00001 0.997386
1.00054 1.00003 0.997371
1.00224 0.999972 0.992333
1.00453 0.999645 0.987298
1.00524 0.998423 0.987384
1.00018 0.999997 0.99778
1.00212 1 0.991052
1.00454 0.999673 0.987221
1.00061 0.999971 0.997388
1.00217 0.999986 0.990985
1.0006 1 0.997454
1.00048 0.999971 0.994798
1.00214 0.999939 0.991815
1.00451 0.999477 0.98735
1.00051 0.999993 0.997415
1.00204 0.999941 0.991241
1.00054 1 0.997392
1.00008 0.999997 0.995181
1.00216 0.999963 0.99175
1.00452 0.999649 0.987298
1.00035 0.999991 0.996247
1.00211 1 0.991064
1.00061 0.999981 0.997406
1.0005 0.999983 0.997412
1.00204 0.999935 0.991254
1.00048 0.999992 0.997415
1.0003 0.99998 0.996301
1.00208 0.999959 0.991185
1.00057 0.999984 0.99739
1.00051 0.999982 0.997423
1.0005 0.999983 0.99741

TENSORS stress float
0.00183885 -0.000110292 0.000199827
-0.000110292 0.000769737 -2.94327e-05
0.000199827 -2.94327e-05 0.000747487
0.00574628 -6.19218e-05 0.000204731
-6.19218e-05 0.00314588 2.13954e-05
0.000204731 2.13954e-05 0.00313373
0.00158493 -4.17939e-05 8.97932e-05
-4.17939e-05 0.000621368 -1.16464e-05
8.97932e-05 -1.16464e-05 0.000589733
0.00193574 -6.46077e-05 0.000198308
-6.46077e-05 0.000803233 -1.79659e-05
0.000198308 -1.79659e-05 0.000786155
0.00189689 -9.84727e-05 0.000195949
-9.84727e-05 0.000795401 -2.62976e-05
0.000195949 -2.62976e-05 0.000775243
0.00177871 -0.000108684 0.000205743
-0.000108684 0.000733235 -2.97083e-05
0.000205743 -2.97083e-05 0.000712151
0.00155952 -8.93197e-05 3.40338e-05
-8.93197e-05 0.000524065 -1.0686e-05
3.40338e-05 -1.0686e-05 0.000434283
0.00568041 -6.95359e-05 -6.97976e-06
-6.95359e-05 0.00309586 -3.78413e-08
-6.97976e-06 -3.78413e-08 0.00308888
0.00564251 0.000108571 9.7886e-05
0.000108571 0.00304577 6.98197e-06
9.7886e-05 6.98197e-06 0.00302945
0.00546222 -0.000158642 3.37901e-05
-0.000158642 0.00296422 2.5174e-06
3.37901e-05 2.5174e-06 0.00293599
0.00171702 0.000121991 0.000204151
0.000121991 0.00068939 2.0831e-05
0.000204151 2.0831e-05 0.000682207
0.000611584 0.000209683 2.45231e-05
0.000209683 -2.87319e-05 1.57155e-05
2.45231e-05 1.57155e-05 -0.000130469
0.00167095 -3.40391e-05 0.000204651
-3.40391e-05 0.000639865 2.91252e-06
0.000204651 2.91252e-06 0.000634328
0.00131226 -6.7669e-06 4.27498e-05
-6.7669e-06 0.000446587 1.22803e-06
4.27498e-05 1.22803e-06 0.000407494
0.00138869 -3.66898e-05 -3.68892e-05
-3.66898e-05 0.000507017 6.56799e-06
-3.68892e-05 6.56799e-06 0.000467413
0.00162341 -6.785e-05 6.80912e-05
-6.785e-05 0.000629642 -3.93274e-06
6.80912e-05 -3.93274e-06 0.000600604
0.00158215 -2.57224e-05 9.71131e-05
-2.57224e-05 0.000627253 -1.15983e-05
9.71131e-05 -1.15983e-05 0.000591554
0.0016016 -5.574e-05 7.99961e-05
-5.574e-05 0.000620643 -9.73532e-06
7.99961e-05 -9.73532e-06 0.00059287
0.00162319 -0.000129068 -3.3452e-05
-0.000129068 0.000555265 3.82138e-06
-3.3452e-05 3.82138e-06 0.000474056
0.00563227 -0.000117166 0.000252448
-0.000117166 0.00304761 -8.39242e-06
0.000252448 -8.39242e-06 0.00305541
0.0019008 -4.55633e-05 0.000199793
-4.55633e-05 0.000780178 -1.33892e-05
0.000199793 -1.33892e-05 0.000764356
0.00194213 -8.32954e-05 0.000196574
-8.32954e-05 0.000813073 -2.23798e-05
0.000196574 -2.23798e-05 0.000794973
0.00157689 -0.000112653 5.53776e-05
-0.000112653 0.000510724 -8.44456e-06
5.53776e-05 -8.44456e-06 0.000430141
0.00157477 -0.000102387 4.33273e-05
-0.000102387 0.000516982 -9.91282e-06
4.33273e-05 -9.91282e-06 0.000434473
0.001717 -8.20359e-05 0.000201
-8.20359e-05 0.00068795 -2.61009e-05
0.000201 -2.61009e-05 0.000670321
0.00154062 -7.90107e-05 2.66874e-05
-7.90107e-05 0.000532212 -1.1568e-05
2.66874e-05 -1.1568e-05 0.000432842
0.00200956 -0.000235851 1.49129e-05
-0.000235851 0.000644323 -6.62083e-06
1.49129e-05 -6.62083e-06 0.000488436
0.00563699 -8.36341e-05 -0.00020194
-8.36341e-05 0.00306087 -1.29131e-05
-0.00020194 -1.29131e-05 0.0030584
0.00363959 9.36733e-05 -0.000115222
9.36733e-05 0.00184568 -1.0569e-05
-0.000115222 -1.0569e-05 0.00182667
0.00352243 -1.11167e-05 -0.00010986
-1.11167e-05 0.00179503 -6.90208e-06
-0.00010986 -6.90208e-06 0.00177214
0.00550264 -0.000136342 -1.75651e-06
-0.000136342 0.00300368 6.18376e-07
-1.75651e-06 6.18376e-07 0.00298864
0.000563475 0.000195145 -2.04989e-06
0.000195145 -5.60013e-05 -7.7066e-07
-2.04989e-06 -7.7066e-07 -0.000156117
0.00163777 5.68462e-05 0.000202237
5.68462e-05 0.000629119 1.643e-05
0.000202237 1.643e-05 0.000613861
0.0017784 0.000134817 0.000205185
0.000134817 0.000739378 2.48564e-05
0.000205185 2.48564e-05 0.000717041
0.00266231 0.000183179 0.000124851
0.000183179 0.00116507 1.65266e-05
0.000124851 1.65266e-05 0.00109573
0.00447968 -0.000311996 -9.3455e-06
-0.000311996 0.00243734 6.43644e-06
-9.3455e-06 6.43644e-06 0.00238018
0.00275665 0.000236917 0.000126038
0.000236917 0.00125168 1.93902e-05
0.000126038 1.93902e-05 0.0011747
0.000565763 0.000171164 2.75729e-05
0.000171164 -5.09539e-05 1.98933e-05
2.75729e-05 1.98933e-05 -0.000147458
0.000889442 0.000191014 1.0799e-05
0.000191014 4.25026e-05 5.97918e-06
1.0799e-05 5.97918e-06 -0.000129418
0.00349767 -0.000104748 0.000120531
-0.000104748 0.00179483 5.98505e-06
0.000120531 5.98505e-06 0.00179853
0.00562909 7.17811e-05 3.5936e-06
7.17811e-05 0.00303637 -1.4735e-06
3.5936e-06 -1.4735e-06 0.00304942
0.00356839 6.87011e-05 -9.57012e-05
6.87011e-05 0.00179742 -3.67597e-06
-9.57012e-05 -3.67597e-06 0.00178412
0.00551718 6.02665e-05 0.000246547
6.02665e-05 0.00297193 3.11309e-06
0.000246547 3.11309e-06 0.00298505
0.00130681 7.70478e-05 4.59589e-05
7.70478e-05 0.000441741 2.68005e-06
4.59589e-05 2.68005e-06 0.00040731
0.000639071 9.63334e-06 1.61372e-05
9.63334e-06 -8.06036e-05 1.73089e-06
1.61372e-05 1.73089e-06 -0.000155985
0.00554612 0.000199423 0.00013123
0.000199423 0.00301193 1.17497e-05
0.00013123 1.17497e-05 0.00298891
0.00271882 6.22074e-05 0.000121027
6.22074e-05 0.00116534 7.2872e-06
0.000121027 7.2872e-06 0.0011122
0.00125182 -7.48098e-05 -5.66005e-05
-7.48098e-05 0.0004222 7.01616e-06
-5.66005e-05 7.01616e-06 0.000379928
0.00130033 -7.58985e-05 -4.9087e-05
-7.58985e-05 0.000454235 7.79656e-06
-4.9087e-05 7.79656e-06 0.000413234
0.00145746 1.28397e-05 -2.52164e-05
1.28397e-05 0.000553875 6.34384e-06
-2.52164e-05 6.34384e-06 0.000510767
0.00165623 -0.000136948 -0.000108188
-0.000136948 0.000567973 1.80431e-05
-0.000108188 1.80431e-05 0.000494552
0.00352864 4.196e-06 -0.000100577
4.196e-06 0.00178056 -1.96491e-06
-0.000100577 -1.96491e-06 0.00176529
0.00161255 -5.14501e-05 7.44176e-05
-5.14501e-05 0.000617962 -3.29814e-06
7.44176e-05 -3.29814e-06 0.000591485
0.00153591 -1.9311e-06 0.000100343
-1.9311e-06 0.000602136 -9.57689e-06
0.000100343 -9.57689e-06 0.000565312
0.00161909 -6.321e-05 7.2715e-05
-6.321e-05 0.000626287 -6.70883e-06
7.2715e-05 -6.70883e-06 0.000599044
0.0016352 -9.29633e-05 -2.6883e-05
-9.29633e-05 0.000537719 1.36648e-06
-2.6883e-05 1.36648e-06 0.000465281
0.0016094 -0.000123771 -3.88824e-05
-0.000123771 0.000559915 4.01369e-06
-3.88824e-05 4.01369e-06 0.000472832
0.00163153 -0.000124638 -2.8538e-05
-0.000124638 0.000549184 2.73521e-06
-2.8538e-05 2.73521e-06 0.000472329
0.00200833 -0.000235106 -7.69575e-06
-0.000235106 0.000640703 2.07144e-06
-7.69575e-06 2.07144e-06 0.000484959
0.00549448 3.30729e-05 0.000241436
3.30729e-05 0.00295732 -4.17154e-07
0.000241436 -4.17154e-07 0.0029714
0.00186472 -2.53688e-05 0.000198839
-2.53688e-05 0.000761077 -9.19083e-06
0.000198839 -9.19083e-06 0.000747275
0.00242553 1.18938e-05 3.96874e-05
1.18938e-05 0.00100794 -9.44993e-07
3.96874e-05 -9.44993e-07 0.000945871
0.00157421 -9.13202e-05 4.8804e-05
-9.13202e-05 0.000500667 -5.69084e-06
4.8804e-05 -5.69084e-06 0.000425066
0.0015764 -0.000109268 5.07755e-05
-0.000109268 0.000511462 -9.3533e-06
5.07755e-05 -9.3533e-06 0.000431031
0.00189449 -0.000148036 1.16054e-05
-0.000148036 0.00051691 -3.04706e-06
1.16054e-05 -3.04706e-06 0.000383967
0.00170324 -0.000196059 1.6187e-05
-0.000196059 0.000433123 -5.75435e-06
1.6187e-05 -5.75435e-06 0.000285543
0.00131893 -4.04174e-05 0.000167009
-4.04174e-05 0.000449841 -1.90618e-05
0.000167009 -1.90618e-05 0.000436
0.00140292 -3.64775e-05 1.78096e-05
-3.64775e-05 0.000471399 -1.15542e-05
1.78096e-05 -1.15542e-05 0.000371829
0.00202184 -0.000256821 1.41657e-05
-0.000256821 0.000680432 -7.27963e-06
1.41657e-05 -7.27963e-06 0.000514514
0.00131914 -0.000256014 7.37833e-06
-0.000256014 9.53048e-05 -2.0795e-06
7.37833e-06 -2.0795e-06 -9.94733e-05
0.00592565 0.000173997 -0.000258344
0.000173997 0.00321677 -2.33987e-05
-0.000258344 -2.33987e-05 0.00322006
0.00521493 -0.000160312 -0.000161638
-0.000160312 0.00283284 -1.05751e-05
-0.000161638 -1.05751e-05 0.00281791
0.00570366 -7.28059e-06 -0.000219346
-7.28059e-06 0.0030892 -1.57762e-05
-0.000219346 -1.57762e-05 0.00309387
0.000514528 0.00018806 -2.43377e-05
0.00018806 -8.03193e-05 -1.59103e-05
-2.43377e-05 -1.59103e-05 -0.000181938
0.00593044 0.000182164 -2.83745e-06
0.000182164 0.00321827 -1.98767e-06
-2.83745e-06 -1.98767e-06 0.00322205
0.00594058 0.000109257 -8.84116e-06
0.000109257 0.00322565 -1.66147e-06
-8.84116e-06 -1.66147e-06 0.00322949
0.000495875 0.000123788 -8.34852e-08
0.000123788 -0.000136808 -2.425e-07
-8.34852e-08 -2.425e-07 -0.000229324
0.00287742 -0.000132527 -6.72119e-05
-0.000132527 0.00143602 -2.93469e-06
-6.72119e-05 -2.93469e-06 0.00140447
0.000497419 0.000187488 -3.49198e-07
0.000187488 -9.88873e-05 -4.26506e-07
-3.49198e-07 -4.26506e-07 -0.000201024
0.0016033 0.000158071 4.18419e-05
0.000158071 0.000578434 1.50665e-06
4.18419e-05 1.50665e-06 0.00049759
0.00086471 0.000187062 -1.54163e-08
0.000187062 2.43353e-05 2.69242e-07
-1.54163e-08 2.69242e-07 -0.00014646
0.00421457 -0.000112842 0.000150335
-0.000112842 0.00222559 9.51206e-06
0.000150335 9.51206e-06 0.00222505
0.000668855 -1.34098e-05 6.22835e-06
-1.34098e-05 7.27014e-05 9.50121e-06
6.22835e-06 9.50121e-06 2.67393e-05
0.000607162 9.37943e-05 1.6755e-05
9.37943e-05 -9.07824e-05 9.03939e-06
1.6755e-05 9.03939e-06 -0.000178391
0.000651026 0.000149879 2.17142e-05
0.000149879 -3.10266e-05 1.56766e-05
2.17142e-05 1.56766e-05 -0.000129452
0.000991528 0.00016267 1.39491e-05
0.00016267 -9.01743e-06 5.5234e-06
1.39491e-05 5.5234e-06 -0.000164892
0.00263133 9.44658e-05 9.7691e-05
9.44658e-05 0.00121827 1.29673e-05
9.7691e-05 1.29673e-05 0.00115896
0.000943872 0.00018661 1.23805e-05
0.00018661 3.65456e-05 6.68046e-06
1.23805e-05 6.68046e-06 -0.000129412
0.000848185 0.000197788 1.04667e-05
0.000197788 8.18644e-05 5.14997e-06
1.04667e-05 5.14997e-06 -9.98418e-05
0.00110314 0.000244907 5.21514e-06
0.000244907 0.00010236 2.04533e-06
5.21514e-06 2.04533e-06 -0.000107684
0.00289827 -0.000120862 7.00785e-05
-0.000120862 0.00143304 2.55423e-06
7.00785e-05 2.55423e-06 0.00143311
0.00326592 -0.000140408 1.28032e-05
-0.000140408 0.00166176 -2.55343e-07
1.28032e-05 -2.55343e-07 0.00165639
0.0058474 3.25686e-05 -0.000250856
3.25686e-05 0.0031589 -1.09162e-05
-0.000250856 -1.09162e-05 0.00317069
0.00569486 6.20524e-05 -0.000252945
6.20524e-05 0.00307282 -6.67243e-06
-0.000252945 -6.67243e-06 0.00308678
0.00559576 8.43123e-05 -1.17829e-07
8.43123e-05 0.00302481 -2.93082e-06
-1.17829e-07 -2.93082e-06 0.00303403
0.00351122 1.79838e-05 -0.000109079
1.79838e-05 0.00176152 -4.70108e-06
-0.000109079 -4.70108e-06 0.00175201
0.00164465 3.42831e-05 5.18974e-05
3.42831e-05 0.000524425 1.11615e-06
5.18974e-05 1.11615e-06 0.000462148
0.00366245 0.000118076 -9.76042e-05
0.000118076 0.0018582 -5.07134e-06
-9.76042e-05 -5.07134e-06 0.00183969
0.00168542 8.0883e-05 5.15269e-05
8.0883e-05 0.000548965 2.13094e-06
5.15269e-05 2.13094e-06 0.000480592
0.00556299 0.000136589 0.000249439
0.000136589 0.00301519 6.2717e-06
0.000249439 6.2717e-06 0.00301844
0.000562045 1.06032e-05 1.86857e-05
1.06032e-05 -0.000122757 6.03671e-07
1.86857e-05 6.03671e-07 -0.000196122
0.00273145 2.87789e-05 0.00012073
2.87789e-05 0.00117253 4.88169e-06
0.00012073 4.88169e-06 0.00112288
0.00102566 3.97548e-05 1.24647e-05
3.97548e-05 -2.10799e-05 1.20875e-06
1.24647e-05 1.20875e-06 -0.000145684
0.00264088 0.000104604 0.000123686
0.000104604 0.00112614 9.3717e-06
0.000123686 9.3717e-06 0.00106858
0.00105744 9.41122e-05 1.22157e-05
9.41122e-05 -7.17278e-06 2.54095e-06
1.22157e-05 2.54095e-06 -0.000142476
0.00168532 4.27433e-05 -0.000203327
4.27433e-05 0.000649299 1.92183e-06
-0.000203327 1.92183e-06 0.000644224
0.00128899 -2.84037e-06 -4.36058e-05
-2.84037e-06 0.000435765 1.89329e-06
-4.36058e-05 1.89329e-06 0.000397349
0.00143916 5.23481e-05 -1.66562e-05
5.23481e-05 0.000550837 6.60765e-06
-1.66562e-05 6.60765e-06 0.000503922
0.00125535 -8.25055e-05 -5.72629e-05
-8.25055e-05 0.000426472 8.16728e-06
-5.72629e-05 8.16728e-06 0.00038467
0.00175288 -7.28952e-05 -0.000106161
-7.28952e-05 0.000599916 9.32732e-06
-0.000106161 9.32732e-06 0.000535975
0.00170714 -0.00011639 -0.000106201
-0.00011639 0.000586752 1.54908e-05
-0.000106201 1.54908e-05 0.000518076
0.0016156 -0.000144843 -0.000110136
-0.000144843 0.000554423 1.90017e-05
-0.000110136 1.90017e-05 0.000476265
0.00200789 -0.000234442 -2.85753e-05
-0.000234442 0.000638039 1.00245e-05
-2.85753e-05 1.00245e-05 0.000482544
0.00558486 -8.84535e-05 2.05714e-06
-8.84535e-05 0.00301939 -1.55605e-06
2.05714e-06 -1.55605e-06 0.00302793
0.001544 4.21882e-05 8.25919e-05
4.21882e-05 0.000574871 -3.30234e-06
8.25919e-05 -3.30234e-06 0.000552486
0.00113375 -3.28566e-06 -5.50588e-05
-3.28566e-06 0.000222466 1.12686e-06
-5.50588e-05 1.12686e-06 0.000158617
0.00163431 -5.67753e-05 -3.06622e-05
-5.67753e-05 0.00053169 1.91117e-06
-3.06622e-05 1.91117e-06 0.000462469
0.003381 3.3033e-05 0.00017917
3.3033e-05 0.00171677 -5.42803e-06
0.00017917 -5.42803e-06 0.0017039
0.00206961 -0.000109724 -3.45442e-05
-0.000109724 0.000853101 1.30921e-06
-3.45442e-05 1.30921e-06 0.000766256
0.00163837 -0.000111215 -2.62537e-05
-0.000111215 0.000545147 1.85051e-06
-2.62537e-05 1.85051e-06 0.000471011
0.0018404 -0.000143325 -9.12252e-06
-0.000143325 0.000481685 1.62542e-06
-9.12252e-06 1.62542e-06 0.000348813
0.00200915 -0.000257124 -6.54963e-06
-0.000257124 0.00067143 1.89499e-06
-6.54963e-06 1.89499e-06 0.000505054
0.00186405 -0.0002029 -5.16605e-06
-0.0002029 0.000529106 1.31172e-06
-5.16605e-06 1.31172e-06 0.000381863
0.00133365 -0.000256618 3.66706e-07
-0.000256618 0.00010414 -1.21829e-07
3.66706e-07 -1.21829e-07 -9.02506e-05
0.000601411 1.26353e-05 1.92899e-05
1.26353e-05 -0.000102103 -1.08734e-06
1.92899e-05 -1.08734e-06 -0.000172303
0.00150729 1.22465e-05 3.98708e-05
1.22465e-05 0.00045527 -2.60877e-06
3.98708e-05 -2.60877e-06 0.000386275
0.00167003 -3.7828e-05 1.25803e-05
-3.7828e-05 0.000369039 -9.78031e-07
1.25803e-05 -9.78031e-07 0.000253931
0.00167964 -0.000112279 1.2424e-05
-0.000112279 0.000379023 -2.33214e-06
1.2424e-05 -2.33214e-06 0.000251066
0.00168156 -0.000167927 1.46192e-05
-0.000167927 0.000397053 -4.27681e-06
1.46192e-05 -4.27681e-06 0.000257195
0.0017376 -0.000188808 1.27506e-06
-0.000188808 0.000244203 -5.88417e-07
1.27506e-06 -5.88417e-07 8.85394e-05
0.00470603 0.000180589 0.000133695
0.000180589 0.00254555 -9.2384e-06
0.000133695 -9.2384e-06 0.00252494
0.00136529 -0.000237854 6.06713e-06
-0.000237854 8.67214e-05 -1.7432e-06
6.06713e-06 -1.7432e-06 -9.57457e-05
0.000346163 -0.000116667 1.85634e-05
-0.000116667 -0.000171553 -1.56352e-05
1.85634e-05 -1.56352e-05 -0.000250952
0.000881223 -0.000194553 1.10898e-05
-0.000194553 3.19509e-05 -6.84427e-06
1.10898e-05 -6.84427e-06 -0.000140307
0.00137177 -0.000279634 8.27736e-06
-0.000279634 0.000168963 -3.28886e-06
8.27736e-06 -3.28886e-06 -4.01792e-05
0.00162555 -0.000330393 3.26954e-06
-0.000330393 0.000158988 7.72839e-07
3.26954e-06 7.72839e-07 -4.61444e-05
0.000312223 -5.01075e-05 1.06682e-05
-5.01075e-05 -0.000148225 -1.27394e-05
1.06682e-05 -1.27394e-05 -0.000210858
0.000636248 -5.25812e-05 5.33583e-07
-5.25812e-05 5.46965e-05 -4.69687e-06
5.33583e-07 -4.69687e-06 -7.9193e-05
0.00594972 0.000199928 -0.000269697
0.000199928 0.00323464 -2.36536e-05
-0.000269697 -2.36536e-05 0.00323595
0.00582931 9.16747e-05 -0.000239528
9.16747e-05 0.00315738 -1.99414e-05
-0.000239528 -1.99414e-05 0.00316446
0.000491402 0.000117962 -1.84572e-05
0.000117962 -0.000141311 -1.08972e-05
-1.84572e-05 -1.08972e-05 -0.000233729
0.00454798 -0.000185533 -0.000128718
-0.000185533 0.0024467 -8.12937e-06
-0.000128718 -8.12937e-06 0.00242815
0.000440241 0.000141699 -2.14257e-05
0.000141699 -0.000122659 -1.531e-05
-2.14257e-05 -1.531e-05 -0.000205852
0.000465461 0.000171993 -2.05252e-05
0.000171993 -0.000114412 -1.51717e-05
-2.05252e-05 -1.51717e-05 -0.000217946
0.000868501 0.00018661 -1.20979e-05
0.00018661 2.32842e-05 -5.60643e-06
-1.20979e-05 -5.60643e-06 -0.000146954
0.00400036 -0.000138832 1.01725e-05
-0.000138832 0.00210509 -6.82748e-07
1.01725e-05 -6.82748e-07 0.00209953
0.000526877 -2.49375e-05 4.53334e-07
-2.49375e-05 -7.74256e-06 5.90723e-07
4.53334e-07 5.90723e-07 -5.36415e-05
0.00166095 0.000124714 5.21266e-05
0.000124714 0.00054572 3.69603e-06
5.21266e-05 3.69603e-06 0.000469247
0.00161681 0.000177467 5.09406e-05
0.000177467 0.000553257 3.59601e-06
5.09406e-05 3.59601e-06 0.000466055
0.000973107 0.000162524 9.78986e-08
0.000162524 -1.5295e-05 -2.1833e-07
9.78986e-08 -2.1833e-07 -0.000171663
0.000586349 9.06419e-05 -3.20569e-07
9.06419e-05 -1.16813e-05 -3.11574e-08
-3.20569e-07 -3.11574e-08 -8.26449e-05
0.000921388 0.000185098 6.69576e-07
0.000185098 2.48805e-05 3.30831e-09
6.69576e-07 3.30831e-09 -0.000140809
0.000845927 0.000188085 4.38904e-07
0.000188085 7.65659e-05 -1.2404e-06
4.38904e-07 -1.2404e-06 -0.0001031
0.00103631 0.000242282 -4.56039e-07
0.000242282 5.96955e-05 1.04452e-08
-4.56039e-07 1.04452e-08 -0.000150484
0.000698755 4.35305e-05 1.36303e-05
4.35305e-05 7.6343e-05 1.16201e-05
1.36303e-05 1.16201e-05 1.69132e-05
0.000618881 -4.96111e-05 1.70068e-06
-4.96111e-05 4.87249e-05 7.38966e-06
1.70068e-06 7.38966e-06 1.10594e-05
0.000933572 9.38534e-05 2.97288e-06
9.38534e-05 0.00024826 5.01169e-06
2.97288e-06 5.01169e-06 0.000117563
0.00102738 0.000142356 1.33149e-05
0.000142356 -9.78233e-06 4.3878e-06
1.33149e-05 4.3878e-06 -0.000158982
0.000945633 0.000177627 1.37403e-05
0.000177627 -2.58399e-06 6.3114e-06
1.37403e-05 6.3114e-06 -0.00016445
0.0014313 0.000253986 5.46386e-06
0.000253986 0.000117356 1.35954e-06
5.46386e-06 1.35954e-06 -7.30386e-05
0.000813969 0.000195622 7.93525e-06
0.000195622 0.000129885 6.77417e-06
7.93525e-06 6.77417e-06 -5.00493e-05
0.00111557 0.000255247 5.31452e-06
0.000255247 4.95738e-05 1.67837e-06
5.31452e-06 1.67837e-06 -0.000156547
0.00121899 0.000263746 6.0156e-06
0.000263746 0.000223181 1.41669e-06
6.0156e-06 1.41669e-06 -4.88277e-06
0.00132043 0.00029643 -1.56319e-06
0.00029643 0.000171219 -9.34556e-07
-1.56319e-06 -9.34556e-07 -5.84498e-05
0.00259647 -0.000123995 3.60352e-05
-0.000123995 0.00124795 2.96727e-06
3.60352e-05 2.96727e-06 0.00124673
0.00277862 -0.00013921 9.34859e-06
-0.00013921 0.00136508 -7.39876e-07
9.34859e-06 -7.39876e-07 0.00135971
0.00305465 -0.0001597 -5.21609e-05
-0.0001597 0.00153935 -2.53196e-06
-5.21609e-05 -2.53196e-06 0.00152814
0.000382365 -2.64546e-05 8.01548e-06
-2.64546e-05 -9.97607e-05 -1.02211e-05
8.01548e-06 -1.02211e-05 -0.000153088
0.00412286 0.00015463 0.000113801
0.00015463 0.00218869 -7.12466e-06
0.000113801 -7.12466e-06 0.00217579
0.00593911 0.000182128 -0.00027214
0.000182128 0.00322635 -2.05312e-05
-0.00027214 -2.05312e-05 0.00323016
0.00571773 7.13653e-05 -0.000251022
7.13653e-05 0.00308436 -9.26654e-06
-0.000251022 -9.26654e-06 0.00309748
0.000577719 9.12995e-05 -1.97169e-05
9.12995e-05 -0.000115011 -4.97124e-06
-1.97169e-05 -4.97124e-06 -0.000195281
0.000562518 4.10228e-05 -1.933e-05
4.10228e-05 -0.000121551 -2.42615e-06
-1.933e-05 -2.42615e-06 -0.000197777
0.0055358 -1.18811e-05 -0.000242345
-1.18811e-05 0.00297948 -1.65508e-06
-0.000242345 -1.65508e-06 0.00299438
0.00550085 1.63613e-05 -5.60446e-07
1.63613e-05 0.00295992 -5.57467e-07
-5.60446e-07 -5.57467e-07 0.00297454
0.000544256 8.57781e-07 -1.36136e-07
8.57781e-07 -0.000135849 -5.87756e-09
-1.36136e-07 -5.87756e-09 -0.000207472
0.00163131 3.32986e-05 5.19502e-05
3.32986e-05 0.000513689 1.92264e-06
5.19502e-05 1.92264e-06 0.000450643
0.00100037 4.3422e-05 -2.76647e-08
4.3422e-05 -3.70806e-05 -1.27065e-07
-2.76647e-08 -1.27065e-07 -0.000162165
0.000544985 7.65989e-05 -4.19273e-07
7.65989e-05 -0.000130522 -3.10981e-07
-4.19273e-07 -3.10981e-07 -0.000214948
0.00101279 9.53795e-05 -1.37306e-07
9.53795e-05 -3.30786e-05 -1.40993e-07
-1.37306e-07 -1.40993e-07 -0.000169045
0.000537818 -2.8506e-05 1.92061e-05
-2.8506e-05 -0.000141554 -8.48485e-07
1.92061e-05 -8.48485e-07 -0.000210768
0.00100076 1.69501e-05 1.22672e-05
1.69501e-05 -3.09579e-05 5.47768e-07
1.22672e-05 5.47768e-07 -0.000153237
0.00102479 6.68172e-05 1.21792e-05
6.68172e-05 -2.51016e-05 1.91204e-06
1.21792e-05 1.91204e-06 -0.000154297
0.00152088 6.82642e-05 8.96897e-07
6.82642e-05 6.08347e-05 4.9196e-08
8.96897e-07 4.9196e-08 -6.462e-05
0.00105447 0.000118547 1.26211e-05
0.000118547 -5.03408e-06 3.33155e-06
1.26211e-05 3.33155e-06 -0.000147091
0.00155845 0.000150737 2.04488e-06
0.000150737 9.11951e-05 1.33074e-07
2.04488e-06 1.33074e-07 -5.39021e-05
0.00550774 -4.86475e-05 -0.000248259
-4.86475e-05 0.00296764 9.90447e-07
-0.000248259 9.90447e-07 0.00298015
0.00126156 -0.000139995 -4.57958e-05
-0.000139995 0.000425533 4.88083e-06
-4.57958e-05 4.88083e-06 0.000386645
-0.000273068 -2.43428e-06 -1.2776e-05
-2.43428e-06 -0.000619226 2.10868e-06
-1.2776e-05 2.10868e-06 -0.000703606
0.00172918 -5.05181e-05 -0.000106104
-5.05181e-05 0.000583192 6.68272e-06
-0.000106104 6.68272e-06 0.000520835
0.00511011 0.000358455 1.30962e-05
0.000358455 0.00283576 7.67104e-06
1.30962e-05 7.67104e-06 0.00276278
0.00273315 -0.000196491 -0.000111657
-0.000196491 0.00124132 1.91562e-05
-0.000111657 1.91562e-05 0.00116112
0.00174251 -9.49118e-05 -0.000105943
-9.49118e-05 0.000598755 1.23679e-05
-0.000105943 1.23679e-05 0.000533285
0.00175867 -0.00013743 -2.80431e-05
-0.00013743 0.000429629 5.48631e-06
-2.80431e-05 5.48631e-06 0.000297069
0.00200614 -0.000208537 -2.704e-05
-0.000208537 0.000613682 8.38383e-06
-2.704e-05 8.38383e-06 0.000467099
0.00202159 -0.000258775 -2.61152e-05
-0.000258775 0.000678539 1.05735e-05
-2.61152e-05 1.05735e-05 0.00051148
0.00134731 -0.00025716 -6.05618e-06
-0.00025716 0.000112575 1.73247e-06
-6.05618e-06 1.73247e-06 -8.14361e-05
0.000540464 6.89092e-06 -6.28951e-08
6.89092e-06 -0.000136622 1.44275e-07
-6.28951e-08 1.44275e-07 -0.000207772
0.00163281 -7.03111e-05 -2.98694e-05
-7.03111e-05 0.00053126 3.30547e-07
-2.98694e-05 3.30547e-07 0.000465075
0.00125452 -3.32816e-05 -7.79631e-06
-3.32816e-05 0.000120497 4.26592e-07
-7.79631e-06 4.26592e-07 9.03643e-07
0.00182733 -0.000113589 -6.02614e-06
-0.000113589 0.000466329 9.21369e-07
-6.02614e-06 9.21369e-07 0.000339358
0.00484565 0.000162179 -7.0884e-06
0.000162179 0.00262298 -1.05442e-06
-7.0884e-06 -1.05442e-06 0.00260617
0.00156019 -0.000105656 -1.29647e-06
-0.000105656 0.000570884 6.51967e-08
-1.29647e-06 6.51967e-08 0.0004786
0.00132754 -0.000220656 1.36736e-06
-0.000220656 0.000308295 -8.55152e-07
1.36736e-06 -8.55152e-07 0.000135487
0.00171651 -0.000168783 -6.28237e-06
-0.000168783 0.000417982 1.441e-06
-6.28237e-06 1.441e-06 0.000277905
0.0016424 -0.000187138 -2.14106e-06
-0.000187138 0.000184726 4.00029e-07
-2.14106e-06 4.00029e-07 3.04807e-05
0.00127869 -0.000273963 1.90012e-07
-0.000273963 0.000116361 -1.36163e-07
1.90012e-07 -1.36163e-07 -9.23085e-05
0.00154126 -0.000245432 4.11486e-07
-0.000245432 0.00019157 -1.3204e-07
4.11486e-07 -1.3204e-07 1.00638e-05
0.00165607 -0.000330834 6.45627e-07
-0.000330834 0.000181801 6.39089e-09
6.45627e-07 6.39089e-09 -2.272e-05
0.000524033 -5.79504e-05 -1.08821e-06
-5.79504e-05 -2.62404e-05 2.37067e-07
-1.08821e-06 2.37067e-07 -8.99175e-05
0.000621054 -7.76845e-05 -1.13637e-08
-7.76845e-05 4.55849e-05 1.89372e-07
-1.13637e-08 1.89372e-07 -9.18584e-05
0.000984777 -1.60233e-05 1.22238e-05
-1.60233e-05 -3.48792e-05 -7.78921e-07
1.22238e-05 -7.78921e-07 -0.000156723
0.00170925 -7.03673e-05 1.17547e-05
-7.03673e-05 0.000392236 -1.58904e-06
1.17547e-05 -1.58904e-06 0.000272317
0.00169363 -6.20183e-05 2.88749e-07
-6.20183e-05 0.000183906 1.17592e-07
2.88749e-07 1.17592e-07 5.79906e-05
0.00155274 -0.000149727 2.16193e-06
-0.000149727 0.000115476 -7.31125e-08
2.16193e-06 -7.31125e-08 -2.63952e-05
0.0016934 -0.000228036 3.02293e-06
-0.000228036 0.000247726 -6.51869e-07
3.02293e-06 -6.51869e-07 8.11599e-05
0.00181602 -0.000228528 -3.51001e-07
-0.000228528 0.000158285 5.27602e-07
-3.51001e-07 5.27602e-07 1.62855e-05
0.000353627 -9.13532e-05 1.62687e-05
-9.13532e-05 -0.000144532 -1.44534e-05
1.62687e-05 -1.44534e-05 -0.000215566
0.001684 -0.000303195 1.39454e-06
-0.000303195 0.000156018 8.11019e-07
1.39454e-06 8.11019e-07 -2.54043e-05
0.000722719 -0.000177549 6.80353e-06
-0.000177549 1.7369e-05 -7.39471e-06
6.80353e-06 -7.39471e-06 -0.000160616
0.000998614 -0.000259351 9.90739e-06
-0.000259351 1.15084e-05 -3.26484e-06
9.90739e-06 -3.26484e-06 -0.000205512
0.00180415 -0.000373359 2.95834e-06
-0.000373359 0.000320056 1.34747e-07
2.95834e-06 1.34747e-07 8.63821e-05
0.00197632 -0.000365576 -1.66362e-06
-0.000365576 0.000316746 3.24428e-06
-1.66362e-06 3.24428e-06 0.000128922
0.000684429 -0.000129957 1.46372e-06
-0.000129957 8.96378e-05 -5.37936e-06
1.46372e-06 -5.37936e-06 -7.35062e-05
0.0006107 -4.03097e-05 1.95131e-07
-4.03097e-05 4.126e-05 -4.40258e-06
1.95131e-07 -4.40258e-06 -7.30776e-05
0.00105916 -0.000185031 -9.54581e-07
-0.000185031 0.000328188 1.03738e-06
-9.54581e-07 1.03738e-06 0.000122628
0.000523017 9.72645e-05 -1.78415e-05
9.72645e-05 -0.000136089 -8.37217e-06
-1.78415e-05 -8.37217e-06 -0.000224374
0.00372822 -0.000167073 -9.1499e-05
-0.000167073 0.00194778 -3.8633e-06
-9.1499e-05 -3.8633e-06 0.00193509
0.00036952 -3.71929e-05 -8.73645e-07
-3.71929e-05 -9.59786e-05 -8.7217e-06
-8.73645e-07 -8.7217e-06 -0.000142923
0.00047375 0.000146676 -1.96353e-05
0.000146676 -0.000130552 -1.36243e-05
-1.96353e-05 -1.36243e-05 -0.000229096
0.000955162 0.000162625 -1.45424e-05
0.000162625 -2.13779e-05 -5.92319e-06
-1.45424e-05 -5.92319e-06 -0.00017826
0.000361394 8.34177e-05 -1.77601e-05
8.34177e-05 -0.000146059 -1.3492e-05
-1.77601e-05 -1.3492e-05 -0.000213482
0.00074439 0.000174595 -8.57723e-06
0.000174595 1.35429e-05 -7.09738e-06
-8.57723e-06 -7.09738e-06 -0.000164001
0.000898032 0.000183391 -1.20396e-05
0.000183391 1.26218e-05 -7.06331e-06
-1.20396e-05 -7.06331e-06 -0.000152775
0.000914278 0.000234895 -6.73146e-06
0.000234895 -1.57484e-05 -1.80417e-06
-6.73146e-06 -1.80417e-06 -0.000225299
0.000529599 3.27244e-05 2.42224e-06
3.27244e-05 -2.27643e-05 4.64674e-07
2.42224e-06 4.64674e-07 -7.97875e-05
0.000498513 -6.06495e-05 3.16694e-07
-6.06495e-05 -1.91071e-05 2.63481e-07
3.16694e-07 2.63481e-07 -5.84942e-05
0.000600053 4.09121e-05 4.86392e-07
4.09121e-05 3.65971e-05 6.31696e-07
4.86392e-07 6.31696e-07 -8.03526e-05
0.00100277 0.000142779 -6.53342e-09
0.000142779 -2.11107e-05 -2.7049e-07
-6.53342e-09 -2.7049e-07 -0.000171017
0.000945266 0.00017779 3.46373e-07
0.00017779 1.22851e-06 -2.11606e-07
3.46373e-07 -2.11606e-07 -0.000160894
0.00143136 0.000254144 1.31465e-07
0.000254144 0.000117259 -2.34093e-08
1.31465e-07 -2.34093e-08 -7.35149e-05
0.00081224 0.00017884 -5.25667e-07
0.00017884 0.000129113 -4.47054e-08
-5.25667e-07 -4.47054e-08 -4.86935e-05
0.00121176 0.000259269 3.28384e-07
0.000259269 0.00010859 1.41724e-08
3.28384e-07 1.41724e-08 -9.78195e-05
0.00110456 0.000254375 3.45421e-07
0.000254375 0.000154945 -1.1046e-06
3.45421e-07 -1.1046e-06 -7.13442e-05
0.00129413 0.000304342 -7.54962e-07
0.000304342 0.000149383 3.95434e-08
-7.54962e-07 3.95434e-08 -8.29764e-05
0.000543604 -6.5863e-05 -1.74154e-06
-6.5863e-05 1.35814e-07 6.32922e-06
-1.74154e-06 6.32922e-06 -3.25469e-05
0.000799154 0.000135018 5.49354e-06
0.000135018 0.000146884 5.10428e-06
5.49354e-06 5.10428e-06 -8.96646e-06
0.000678818 1.4614e-05 1.98594e-06
1.4614e-05 7.87869e-05 4.25088e-06
1.98594e-06 4.25088e-06 -1.11109e-05
0.0010303 0.000123651 1.46808e-06
0.000123651 0.00033296 -9.74609e-08
1.46808e-06 -9.74609e-08 0.000146431
0.00150501 0.000226283 4.03895e-06
0.000226283 0.000112045 3.09752e-07
4.03895e-06 3.09752e-07 -6.28683e-05
0.00132868 0.000267556 6.09032e-06
0.000267556 0.000112635 1.82982e-06
6.09032e-06 1.82982e-06 -8.95934e-05
0.00178409 0.000331204 1.24488e-06
0.000331204 0.000212526 -1.09756e-07
1.24488e-06 -1.09756e-07 1.67208e-05
0.00117591 0.000236872 4.2968e-06
0.000236872 0.000279159 3.18748e-06
4.2968e-06 3.18748e-06 6.10195e-05
0.00176455 0.000375716 -1.42008e-06
0.000375716 0.000348643 -6.78377e-07
-1.42008e-06 -6.78377e-07 0.000116579
0.00126284 0.000300416 6.4862e-07
0.000300416 0.00018234 -6.68357e-07
6.4862e-07 -6.68357e-07 -7.48643e-05
0.00147258 0.00034245 4.85761e-07
0.00034245 0.000156026 -8.55514e-08
4.85761e-07 -8.55514e-08 -8.36093e-05
0.00060513 1.38102e-05 2.55348e-06
1.38102e-05 1.90912e-05 2.50169e-06
2.55348e-06 2.50169e-06 -3.42742e-05
0.000521247 -4.26832e-05 7.7678e-07
-4.26832e-05 -3.96988e-05 4.87086e-06
7.7678e-07 4.87086e-06 -6.08045e-05
0.00245838 -0.000108104 2.8933e-05
-0.000108104 0.0011563 3.31952e-06
2.8933e-05 3.31952e-06 0.00115909
0.00253054 -0.000122579 3.79029e-06
-0.000122579 0.0012082 -4.11489e-07
3.79029e-06 -4.11489e-07 0.00120713
0.00267402 -0.000140267 -3.61719e-05
-0.000140267 0.00130307 -2.80488e-06
-3.61719e-05 -2.80488e-06 0.00129705
0.000433262 -1.48608e-05 6.10157e-06
-1.48608e-05 -7.06154e-05 -8.73398e-06
6.10157e-06 -8.73398e-06 -0.00011478
0.00360433 0.00013412 9.69297e-05
0.00013412 0.00186882 -5.42014e-06
9.69297e-05 -5.42014e-06 0.00186216
0.000502174 -2.92557e-05 -2.94153e-07
-2.92557e-05 -3.09132e-05 4.18533e-07
-2.94153e-07 4.18533e-07 -8.48243e-05
0.00432117 0.000140689 -7.37698e-06
0.000140689 0.00230226 -1.02814e-06
-7.37698e-06 -1.02814e-06 0.00229272
0.000571277 0.000101118 -1.92866e-05
0.000101118 -0.000112943 -6.61881e-06
-1.92866e-05 -6.61881e-06 -0.000198919
0.000582009 3.33327e-05 -1.84856e-05
3.33327e-05 -0.000114509 -3.34429e-06
-1.84856e-05 -3.34429e-06 -0.000191141
0.000987323 9.65518e-05 -1.20829e-05
9.65518e-05 -4.86701e-05 -2.81202e-06
-1.20829e-05 -2.81202e-06 -0.000185173
0.000974593 4.54397e-05 -1.23473e-05
4.54397e-05 -5.33746e-05 -1.43122e-06
-1.23473e-05 -1.43122e-06 -0.000178796
0.000597116 -6.87711e-06 -1.93967e-05
-6.87711e-06 -0.000107865 -7.68421e-07
-1.93967e-05 -7.68421e-07 -0.000177493
0.00558114 -9.46696e-05 -0.000255188
-9.46696e-05 0.00301697 3.96059e-06
-0.000255188 3.96059e-06 0.00302663
0.000583334 -7.67805e-07 1.26919e-07
-7.67805e-07 -0.000114933 -5.30649e-07
1.26919e-07 -5.30649e-07 -0.000184249
0.000989002 2.18304e-05 -5.38265e-08
2.18304e-05 -3.8422e-05 -6.04268e-08
-5.38265e-08 -6.04268e-08 -0.000160941
0.00101262 6.85858e-05 -1.06196e-07
6.85858e-05 -3.35396e-05 -1.04918e-07
-1.06196e-07 -1.04918e-07 -0.000163177
0.00151533 6.7145e-05 -6.40852e-08
6.7145e-05 5.99201e-05 1.19122e-07
-6.40852e-08 1.19122e-07 -6.56401e-05
0.00101856 0.000120018 -1.64134e-07
0.000120018 -2.4902e-05 -2.19916e-07
-1.64134e-07 -2.19916e-07 -0.000167872
0.00153877 0.000150836 -7.86827e-08
0.000150836 7.95872e-05 2.73896e-08
-7.86827e-08 2.73896e-08 -6.60536e-05
0.00098374 -1.13541e-06 1.22206e-05
-1.13541e-06 -3.615e-05 -3.0533e-07
1.22206e-05 -3.0533e-07 -0.000157821
0.00150654 3.50301e-05 1.11139e-06
3.50301e-05 5.78722e-05 1.33764e-07
1.11139e-06 1.33764e-07 -6.33521e-05
0.00153425 0.000108396 1.09953e-06
0.000108396 6.94942e-05 -6.28177e-08
1.09953e-06 -6.28177e-08 -6.42129e-05
0.00184643 9.68969e-05 -1.79667e-06
9.68969e-05 0.000106845 -4.0732e-07
-1.79667e-06 -4.0732e-07 1.16959e-05
0.00155287 0.000192065 3.01962e-06
0.000192065 0.000103413 2.76431e-07
3.01962e-06 2.76431e-07 -5.59501e-05
0.00183137 0.000193916 -1.96409e-07
0.000193916 0.000123994 -1.45254e-06
-1.96409e-07 -1.45254e-06 -1.25934e-06
0.000564423 2.37222e-07 -1.85593e-05
2.37222e-07 -0.000119985 1.10365e-06
-1.85593e-05 1.10365e-06 -0.000192969
0.00171613 -2.78512e-05 -0.000105421
-2.78512e-05 0.000575118 4.40671e-06
-0.000105421 4.40671e-06 0.000515652
0.000809219 -2.75197e-05 -1.51035e-05
-2.75197e-05 -0.000145301 1.72452e-06
-1.51035e-05 1.72452e-06 -0.000269627
0.00195753 -0.000113678 -2.50696e-05
-0.000113678 0.000542775 3.97091e-06
-2.50696e-05 3.97091e-06 0.000416973
0.00508928 0.00013872 -0.000169247
0.00013872 0.00276329 1.31334e-05
-0.000169247 1.31334e-05 0.00275014
0.00277507 -0.000156407 -0.000109781
-0.000156407 0.00128869 1.51895e-05
-0.000109781 1.51895e-05 0.00121675
0.00193106 -0.000263703 -2.11984e-05
-0.000263703 0.000674969 9.06166e-06
-2.11984e-05 9.06166e-06 0.000498811
0.00173079 -0.000168272 -2.66815e-05
-0.000168272 0.000426196 6.81821e-06
-2.66815e-05 6.81821e-06 0.000286225
0.00154369 -0.000185344 -5.17348e-06
-0.000185344 0.000122856 8.60974e-07
-5.17348e-06 8.60974e-07 -2.99628e-05
0.0017179 -0.000253114 -6.32848e-06
-0.000253114 0.000297152 1.87154e-06
-6.32848e-06 1.87154e-06 0.000116583
0.00118656 -0.000268853 -7.17716e-06
-0.000268853 6.40593e-05 2.06889e-06
-7.17716e-06 2.06889e-06 -0.000144306
0.00168789 -0.000331685 -1.62043e-06
-0.000331685 0.000204347 -8.87966e-07
-1.62043e-06 -8.87966e-07 3.44163e-07
0.000666772 -6.84123e-05 -1.39556e-05
-6.84123e-05 5.67653e-05 1.28465e-05
-1.39556e-05 1.28465e-05 -9.12059e-06
0.000808361 -0.000102644 -1.07528e-06
-0.000102644 0.000159408 4.17727e-06
-1.07528e-06 4.17727e-06 1.76072e-05
0.00088848 -1.10416e-05 -1.71906e-07
-1.10416e-05 -9.34698e-05 -5.48295e-09
-1.71906e-07 -5.48295e-09 -0.000215381
0.00171852 -7.1568e-05 -6.47647e-06
-7.1568e-05 0.000396511 6.98716e-07
-6.47647e-06 6.98716e-07 0.000276683
0.00173475 -5.85061e-05 -1.59676e-06
-5.85061e-05 0.000205326 2.24767e-07
-1.59676e-06 2.24767e-07 8.27097e-05
0.00161132 -0.00015004 -8.71022e-07
-0.00015004 0.000152491 3.0633e-07
-8.71022e-07 3.0633e-07 8.80756e-06
0.000508519 -0.000101631 5.02251e-07
-0.000101631 -5.24403e-05 3.66802e-07
5.02251e-07 3.66802e-07 -0.000127328
0.000843321 -0.000191793 -8.08025e-07
-0.000191793 8.6476e-05 -5.74152e-07
-8.08025e-07 -5.74152e-07 -9.27924e-05
0.00106361 -0.000265379 2.74467e-06
-0.000265379 5.06835e-05 -8.29952e-07
2.74467e-06 -8.29952e-07 -0.000166891
0.00170948 -0.000226817 -2.98249e-06
-0.000226817 0.000257066 7.71427e-07
-2.98249e-06 7.71427e-07 8.92676e-05
0.00186493 -0.00023284 1.08786e-06
-0.00023284 0.000181263 -3.01137e-07
1.08786e-06 -3.01137e-07 4.32499e-05
0.00183519 -0.000380784 -1.45959e-06
-0.000380784 0.000340334 1.76371e-07
-1.45959e-06 1.76371e-07 0.000105148
0.00170649 -0.000304051 5.22388e-07
-0.000304051 0.000170643 1.90358e-09
5.22388e-07 1.90358e-09 -1.05062e-05
0.00190196 -0.000362926 7.89603e-07
-0.000362926 0.000265204 6.42906e-07
7.89603e-07 6.42906e-07 7.73998e-05
0.000745842 -0.000139377 -2.05696e-07
-0.000139377 0.000123873 -2.6012e-07
-2.05696e-07 -2.6012e-07 -3.941e-05
0.00055398 -0.000118692 -5.18802e-07
-0.000118692 1.02404e-05 -4.8919e-07
-5.18802e-07 -4.8919e-07 -0.000178321
0.000682193 -5.52106e-05 -1.23801e-08
-5.52106e-05 8.33013e-05 1.2905e-07
-1.23801e-08 1.2905e-07 -3.38931e-05
0.00167224 -2.53265e-05 4.19078e-08
-2.53265e-05 0.000167601 9.5613e-08
4.19078e-08 9.5613e-08 4.6078e-05
0.00176506 -0.000101696 -2.64739e-07
-0.000101696 0.000227064 5.4181e-07
-2.64739e-07 5.4181e-07 9.85942e-05
0.00174824 -8.20408e-05 -1.54431e-06
-8.20408e-05 6.16947e-05 1.19093e-06
-1.54431e-06 1.19093e-06 -3.75929e-05
0.00179763 -0.000188309 -2.50986e-06
-0.000188309 0.000117729 1.33497e-06
-2.50986e-06 1.33497e-06 -5.58401e-06
0.00167168 -0.000273339 -2.39281e-07
-0.000273339 0.000110293 1.63983e-06
-2.39281e-07 1.63983e-06 -4.74632e-05
0.00189664 -0.000255283 -1.34481e-08
-0.000255283 0.000148991 6.62866e-07
-1.34481e-08 6.62866e-07 3.55349e-05
0.000744262 -0.000171053 4.04224e-06
-0.000171053 9.47934e-05 -6.12036e-06
4.04224e-06 -6.12036e-06 -8.09568e-05
0.00176805 -0.000330532 -1.71335e-06
-0.000330532 0.000139611 1.8136e-06
-1.71335e-06 1.8136e-06 -2.1251e-05
0.000991504 -0.000249891 4.80401e-06
-0.000249891 9.6922e-05 -5.45003e-06
4.80401e-06 -5.45003e-06 -0.000123135
0.00144652 -0.000377895 3.77443e-06
-0.000377895 0.000205747 -1.10096e-06
3.77443e-06 -1.10096e-06 -5.80918e-05
0.00193698 -0.00041564 1.5583e-06
-0.00041564 0.000341761 3.25655e-06
1.5583e-06 3.25655e-06 0.000107458
0.00204637 -0.000385603 -2.76498e-06
-0.000385603 0.00033388 3.45437e-06
-2.76498e-06 3.45437e-06 0.000160688
0.000633045 -3.65865e-05 1.83704e-07
-3.65865e-05 6.24098e-05 -4.09113e-06
1.83704e-07 -4.09113e-06 -3.8448e-05
0.000761675 -0.000179155 -1.47075e-07
-0.000179155 9.94735e-05 2.08581e-08
-1.47075e-07 2.08581e-08 -8.88669e-05
0.000474361 -0.000103186 -1.13996e-06
-0.000103186 -6.4345e-07 1.9709e-06
-1.13996e-06 1.9709e-06 -0.000190126
0.00141877 -0.000252033 -3.76299e-06
-0.000252033 0.000499472 2.82125e-06
-3.76299e-06 2.82125e-06 0.000286523
0.000974327 0.000143342 -1.39331e-05
0.000143342 -3.48562e-05 -4.86715e-06
-1.39331e-05 -4.86715e-06 -0.000185489
0.000415077 -6.43981e-05 2.02026e-06
-6.43981e-05 -6.73237e-05 -7.27127e-06
2.02026e-06 -7.27127e-06 -0.000107117
0.000341452 1.30819e-05 -7.27269e-06
1.30819e-05 -0.000129763 -1.12405e-05
-7.27269e-06 -1.12405e-05 -0.000185726
0.000507718 2.21397e-06 -3.02123e-07
2.21397e-06 -1.63411e-05 -4.97499e-06
-3.02123e-07 -4.97499e-06 -0.000129768
0.000932731 0.000177384 -1.38615e-05
0.000177384 -1.85184e-06 -6.82874e-06
-1.38615e-05 -6.82874e-06 -0.000164199
0.00143416 0.00025437 -5.30855e-06
0.00025437 0.000118903 -1.349e-06
-5.30855e-06 -1.349e-06 -7.22346e-05
0.000699041 0.000158594 -5.23334e-06
0.000158594 6.10328e-05 -5.01115e-06
-5.23334e-06 -5.01115e-06 -0.000113475
0.00113145 0.000257571 -6.61238e-06
0.000257571 0.000171407 -3.89081e-06
-6.61238e-06 -3.89081e-06 -5.48534e-05
0.00133019 0.000265062 -5.5337e-06
0.000265062 0.000181068 -2.32373e-06
-5.5337e-06 -2.32373e-06 -2.592e-05
0.00122583 0.000307633 -2.91496e-06
0.000307633 0.000104449 -2.07957e-07
-2.91496e-06 -2.07957e-07 -0.000129796
0.00049555 -6.49621e-05 -6.6519e-07
-6.49621e-05 -2.97856e-05 3.15966e-07
-6.6519e-07 3.15966e-07 -6.18291e-05
0.00074958 0.000130134 4.21158e-07
0.000130134 0.00012771 -5.66976e-07
4.21158e-07 -5.66976e-07 -3.07208e-05
0.000620465 -6.10858e-06 -8.85404e-08
-6.10858e-06 4.67934e-05 5.57255e-07
-8.85404e-08 5.57255e-07 -4.16776e-05
0.000768086 0.00010217 1.26014e-06
0.00010217 0.000173255 -7.52823e-07
1.26014e-06 -7.52823e-07 -8.25329e-06
0.00149817 0.000225754 -1.75697e-07
0.000225754 0.000108763 -4.94298e-07
-1.75697e-07 -4.94298e-07 -6.64456e-05
0.0013342 0.000267153 1.8473e-07
0.000267153 0.000120068 -4.649e-08
1.8473e-07 -4.649e-08 -8.22982e-05
0.00175707 0.000329199 2.75071e-07
0.000329199 0.000196843 1.76477e-07
2.75071e-07 1.76477e-07 1.11395e-06
0.00105141 0.000230307 1.76196e-06
0.000230307 0.000207953 1.06797e-08
1.76196e-06 1.06797e-08 -9.04485e-06
0.00175664 0.000369251 -9.72008e-07
0.000369251 0.000344949 -7.68659e-08
-9.72008e-07 -7.68659e-08 0.000114009
0.00125435 0.000301541 4.51226e-08
0.000301541 0.00017346 -1.31211e-06
4.51226e-08 -1.31211e-06 -8.46306e-05
0.00157057 0.000348206 -3.77149e-06
0.000348206 0.000214645 9.18827e-07
-3.77149e-06 9.18827e-07 -2.35463e-05
0.000514465 -5.6152e-05 -4.2263e-07
-5.6152e-05 -3.26668e-05 5.37812e-06
-4.2263e-07 5.37812e-06 -5.84162e-05
0.000668477 -3.12019e-06 1.48364e-06
-3.12019e-06 6.52185e-05 3.7376e-06
1.48364e-06 3.7376e-06 -6.16826e-06
0.0010362 0.000201241 8.80903e-07
0.000201241 0.000274351 1.89183e-06
8.80903e-07 1.89183e-06 7.9888e-05
0.00118054 7.85175e-05 -9.12745e-07
7.85175e-05 0.000432357 2.32226e-06
-9.12745e-07 2.32226e-06 0.000272543
0.00115246 0.000195269 -9.16839e-07
0.000195269 0.000376877 -2.12792e-06
-9.16839e-07 -2.12792e-06 0.000177262
0.00183199 0.000291787 8.25241e-07
0.000291787 0.000191229 -1.60768e-06
8.25241e-07 -1.60768e-06 2.00978e-05
0.00170212 0.000362303 6.73269e-07
0.000362303 0.000232376 -2.47651e-08
6.73269e-07 -2.47651e-08 1.36156e-05
0.00186102 0.000365775 5.76852e-08
0.000365775 0.000223199 -1.59542e-07
5.76852e-08 -1.59542e-07 3.45547e-05
0.00120576 0.000295491 3.33603e-06
0.000295491 0.00023797 4.01345e-06
3.33603e-06 4.01345e-06 -1.58466e-05
0.00200873 0.000439283 4.85683e-07
0.000439283 0.000426578 -5.67182e-07
4.85683e-07 -5.67182e-07 0.000184757
0.000884418 0.00029449 4.95614e-06
0.00029449 -0.000107417 -1.62585e-06
4.95614e-06 -1.62585e-06 -0.000366864
0.000604834 8.3443e-06 2.81263e-06
8.3443e-06 1.87609e-05 2.57185e-06
2.81263e-06 2.57185e-06 -3.64984e-05
0.000677587 5.38303e-05 1.85314e-07
5.38303e-05 9.2486e-05 1.28712e-06
1.85314e-07 1.28712e-06 5.59805e-07
0.000623967 2.41548e-05 2.37627e-06
2.41548e-05 3.5166e-05 2.53375e-06
2.37627e-06 2.53375e-06 -1.82083e-05
0.000589545 -1.15492e-05 -5.5904e-07
-1.15492e-05 1.18295e-05 -5.18143e-09
-5.5904e-07 -5.18143e-09 -4.24239e-05
0.00124456 -5.04438e-05 1.12443e-06
-5.04438e-05 0.000392939 2.79436e-06
1.12443e-06 2.79436e-06 0.000377829
0.000906681 -5.05805e-05 4.83301e-07
-5.05805e-05 0.000193166 -1.01037e-07
4.83301e-07 -1.01037e-07 0.000173991
0.000889156 -5.29997e-05 2.39019e-05
-5.29997e-05 0.000194301 7.68702e-06
2.39019e-05 7.68702e-06 0.000194862
0.00242238 -0.000105504 4.2417e-06
-0.000105504 0.00113351 -3.82668e-07
4.2417e-06 -3.82668e-07 0.00113685
0.00246211 -0.000118598 -3.36313e-05
-0.000118598 0.00116628 -3.03757e-06
-3.36313e-05 -3.03757e-06 0.00116613
0.000433757 9.09681e-06 1.97144e-06
9.09681e-06 -6.75068e-05 -6.95715e-06
1.97144e-06 -6.95715e-06 -0.000103695
0.00325327 0.000135882 6.55684e-05
0.000135882 0.00165067 -3.55959e-06
6.55684e-05 -3.55959e-06 0.00164439
0.000526957 -1.53465e-05 -5.59522e-07
-1.53465e-05 -1.51221e-05 1.58559e-07
-5.59522e-07 1.58559e-07 -6.01365e-05
0.00379788 0.00012429 -6.61386e-06
0.00012429 0.00198228 -6.19633e-07
-6.61386e-06 -6.19633e-07 0.00197787
0.00066617 -3.24424e-05 -8.77408e-06
-3.24424e-05 6.43176e-05 1.07865e-05
-8.77408e-06 1.07865e-05 9.40945e-06
0.00446322 0.000124374 -0.000147605
0.000124374 0.00238177 1.01068e-05
-0.000147605 1.01068e-05 0.00237577
0.000987175 0.000121483 -1.28618e-05
0.000121483 -4.21217e-05 -3.72542e-06
-1.28618e-05 -3.72542e-06 -0.000185915
0.00098547 7.21642e-05 -1.21089e-05
7.21642e-05 -4.98908e-05 -2.10396e-06
-1.21089e-05 -2.10396e-06 -0.000180218
0.00153802 0.000147837 -2.93436e-06
0.000147837 8.00388e-05 -1.69447e-07
-2.93436e-06 -1.69447e-07 -6.56141e-05
0.00150887 6.61698e-05 -1.30014e-06
6.61698e-05 5.86242e-05 2.32678e-07
-1.30014e-06 2.32678e-07 -6.70506e-05
0.000982521 2.57759e-05 -1.23114e-05
2.57759e-05 -4.32463e-05 -7.10316e-07
-1.23114e-05 -7.10316e-07 -0.000166012
0.000547689 2.80677e-05 -1.91981e-05
2.80677e-05 -0.000136484 -2.14633e-07
-1.91981e-05 -2.14633e-07 -0.00020531
0.000982719 1.56863e-06 -6.50453e-09
1.56863e-06 -3.76568e-05 -1.36624e-07
-6.50453e-09 -1.36624e-07 -0.00015937
0.00150345 3.63174e-05 -6.90695e-08
3.63174e-05 5.70358e-05 7.52344e-08
-6.90695e-08 7.52344e-08 -6.432e-05
0.00153347 0.000105756 -4.96473e-09
0.000105756 7.11819e-05 -1.09746e-08
-4.96473e-09 -1.09746e-08 -6.25031e-05
0.00181822 9.50184e-05 1.31595e-07
9.50184e-05 8.4524e-05 3.28997e-07
1.31595e-07 3.28997e-07 -7.61295e-06
0.0015376 0.000190827 -2.68419e-07
0.000190827 9.72347e-05 -6.80435e-08
-2.68419e-07 -6.80435e-08 -6.22999e-05
0.00183146 0.000191832 -3.95463e-07
0.000191832 0.00012773 2.22797e-08
-3.95463e-07 2.22797e-08 2.53393e-06
0.00149674 3.92327e-06 1.33234e-06
3.92327e-06 5.58961e-05 4.59545e-08
1.33234e-06 4.59545e-08 -6.43276e-05
0.00184149 4.86657e-05 -3.22886e-06
4.86657e-05 0.000104661 -2.94261e-08
-3.22886e-06 -2.94261e-08 2.20413e-05
0.00185126 0.000148636 -1.19009e-06
0.000148636 0.000115396 -9.28884e-07
-1.19009e-06 -9.28884e-07 7.72674e-06
0.00181586 9.63119e-05 4.59247e-06
9.63119e-05 3.49028e-05 8.90668e-07
4.59247e-06 8.90668e-07 -3.07219e-05
0.00185403 0.000243386 1.95275e-07
0.000243386 0.000171815 -1.33879e-06
1.95275e-07 -1.33879e-06 2.51638e-05
0.00179067 0.000212663 7.19007e-07
0.000212663 3.8101e-05 -9.72427e-07
7.19007e-07 -9.72427e-07 -6.01856e-05
0.000795434 -7.55799e-06 -1.21865e-05
-7.55799e-06 -0.000150163 6.91163e-07
-1.21865e-05 6.91163e-07 -0.000272203
0.0017507 -7.40143e-05 -2.45924e-05
-7.40143e-05 0.000414522 2.94559e-06
-2.45924e-05 2.94559e-06 0.000294732
0.00180159 -5.29452e-05 -4.65902e-06
-5.29452e-05 0.000241738 -7.08238e-08
-4.65902e-06 -7.08238e-08 0.000122691
0.00167343 -0.000150392 -3.76919e-06
-0.000150392 0.000191749 9.31585e-07
-3.76919e-06 9.31585e-07 4.62573e-05
0.000730624 -0.000120701 -1.93343e-05
-0.000120701 7.8414e-05 1.51956e-05
-1.93343e-05 1.51956e-05 -3.54305e-07
0.000728843 -0.00019092 -9.1439e-06
-0.00019092 2.04268e-05 6.78358e-06
-9.1439e-06 6.78358e-06 -0.000158496
0.00113748 -0.000271575 -5.13118e-06
-0.000271575 9.56784e-05 2.61925e-06
-5.13118e-06 2.61925e-06 -0.000122419
0.00172597 -0.000225469 -7.62331e-06
-0.000225469 0.000266534 2.15434e-06
-7.62331e-06 2.15434e-06 9.7534e-05
0.00191531 -0.000237124 6.21817e-07
-0.000237124 0.000204806 -1.33497e-06
6.21817e-07 -1.33497e-06 7.08152e-05
0.0017272 -0.000304789 -8.00702e-07
-0.000304789 0.000184226 -6.97605e-07
-8.00702e-07 -6.97605e-07 3.36174e-06
0.00185469 -0.000386754 -4.18651e-06
-0.000386754 0.000354395 -9.49447e-07
-4.18651e-06 -9.49447e-07 0.000118049
0.00182775 -0.000359216 3.03279e-06
-0.000359216 0.000214178 -2.55435e-06
3.03279e-06 -2.55435e-06 2.67297e-05
0.000731623 -0.000140695 -3.26509e-06
-0.000140695 0.000107201 5.40179e-06
-3.26509e-06 5.40179e-06 -5.33596e-05
0.000437903 -0.000102041 2.98618e-07
-0.000102041 -5.88171e-05 -1.61519e-06
2.98618e-07 -1.61519e-06 -0.000245748
0.000658691 -6.47698e-05 -1.16144e-06
-6.47698e-05 6.86397e-05 3.86253e-06
-1.16144e-06 3.86253e-06 -5.11668e-05
0.00160597 -2.27977e-05 -1.81564e-06
-2.27977e-05 0.00012626 1.50104e-07
-1.81564e-06 1.50104e-07 4.96184e-06
0.00176217 -0.000109703 -2.90882e-06
-0.000109703 0.000224093 4.33305e-07
-2.90882e-06 4.33305e-07 9.46122e-05
0.00180388 -7.95576e-05 2.04921e-06
-7.95576e-05 9.54993e-05 4.86582e-07
2.04921e-06 4.86582e-07 2.0231e-06
0.00178147 -0.000183817 -1.87084e-06
-0.000183817 0.000107476 6.08138e-07
-1.87084e-06 6.08138e-07 -1.72721e-05
0.000777008 -0.000180334 3.06717e-07
-0.000180334 0.000116186 -1.73137e-08
3.06717e-07 -1.73137e-08 -6.15557e-05
0.00112912 -0.000264488 -1.47115e-06
-0.000264488 0.000172178 -6.6348e-07
-1.47115e-06 -6.6348e-07 -5.02568e-05
0.0014713 -0.00037488 2.24787e-06
-0.00037488 0.000230983 -5.02729e-08
2.24787e-06 -5.02729e-08 -3.18475e-05
0.00167302 -0.000271856 -1.1392e-06
-0.000271856 0.000113921 6.89988e-07
-1.1392e-06 6.89988e-07 -4.76111e-05
0.00191829 -0.000257092 1.77737e-06
-0.000257092 0.00015944 -2.44176e-07
1.77737e-06 -2.44176e-07 4.98945e-05
0.00184943 -0.000416214 -6.2325e-07
-0.000416214 0.000284601 4.17106e-07
-6.2325e-07 4.17106e-07 4.76441e-05
0.00179371 -0.00033098 9.6286e-08
-0.00033098 0.000155023 4.01944e-07
9.6286e-08 4.01944e-07 -5.69482e-06
0.00206518 -0.000381052 1.9938e-06
-0.000381052 0.000341937 -2.94438e-07
1.9938e-06 -2.94438e-07 0.000172803
0.00101029 -0.000208517 3.78049e-07
-0.000208517 0.000249725 8.00918e-07
3.78049e-07 8.00918e-07 5.35534e-05
0.00116272 -0.00023704 -3.3314e-07
-0.00023704 0.000352472 2.78403e-07
-3.3314e-07 2.78403e-07 0.000138457
0.000612576 -4.36704e-05 -1.31915e-07
-4.36704e-05 4.77424e-05 1.63113e-07
-1.31915e-07 1.63113e-07 -5.34485e-05
0.00035043 -5.20416e-05 -1.46531e-07
-5.20416e-05 -8.83476e-05 -8.04791e-07
-1.46531e-07 -8.04791e-07 -0.000263022
0.00181995 -4.32528e-05 -2.26439e-06
-4.32528e-05 0.000101557 3.68512e-07
-2.26439e-06 3.68512e-07 1.25168e-05
0.00183597 -0.000130913 -2.35137e-07
-0.000130913 0.000120205 1.3251e-06
-2.35137e-07 1.3251e-06 1.24519e-05
0.0017066 -8.72812e-05 3.41414e-06
-8.72812e-05 -4.94757e-06 -4.2456e-07
3.41414e-06 -4.2456e-07 -7.47514e-05
0.00185332 -0.000209899 -2.44084e-06
-0.000209899 7.78008e-05 5.03574e-07
-2.44084e-06 5.03574e-07 -9.71257e-06
0.00174704 -0.000293828 -2.93731e-06
-0.000293828 9.40867e-05 2.21023e-06
-2.93731e-06 2.21023e-06 -3.91204e-05
0.00195735 -0.000266363 3.77323e-06
-0.000266363 0.000168754 -1.38878e-06
3.77323e-06 -1.38878e-06 7.04555e-05
0.000948717 -0.000232676 1.12525e-06
-0.000232676 0.000150328 -4.65826e-06
1.12525e-06 -4.65826e-06 -5.95702e-05
0.00168421 -0.000341141 -4.01879e-06
-0.000341141 7.17357e-05 1.98301e-06
-4.01879e-06 1.98301e-06 -6.63842e-05
0.00147672 -0.000358361 2.98736e-06
-0.000358361 0.000337429 -3.28131e-06
2.98736e-06 -3.28131e-06 7.03914e-05
0.00172515 -0.000455268 -1.7752e-06
-0.000455268 0.000312259 1.83484e-06
-1.7752e-06 1.83484e-06 2.36296e-05
0.0017925 -0.000422647 2.42657e-06
-0.000422647 0.000205446 4.82513e-06
2.42657e-06 4.82513e-06 -2.56601e-05
0.00214134 -0.000376907 5.18426e-07
-0.000376907 0.000373482 2.96368e-07
5.18426e-07 2.96368e-07 0.000209494
0.00051427 -4.34255e-05 4.95809e-07
-4.34255e-05 -9.32409e-06 -3.70924e-06
4.95809e-07 -3.70924e-06 -9.56204e-05
0.000480351 -5.46866e-05 -2.84363e-06
-5.46866e-05 1.80088e-06 -7.3291e-07
-2.84363e-06 -7.3291e-07 -0.000153759
0.000910642 -0.000236291 -1.92569e-06
-0.000236291 0.000149368 5.01391e-07
-1.92569e-06 5.01391e-07 -6.07009e-05
0.000823413 -0.000166281 -8.79277e-07
-0.000166281 0.000211845 4.12491e-06
-8.79277e-07 4.12491e-06 1.57096e-06
0.00150709 -0.00029337 -6.40018e-06
-0.00029337 0.000539934 4.06473e-06
-6.40018e-06 4.06473e-06 0.000321234
0.00044891 -6.29289e-05 -2.61366e-07
-6.29289e-05 -5.92478e-05 -5.44027e-06
-2.61366e-07 -5.44027e-06 -9.02476e-05
0.00148892 0.000224927 -4.39627e-06
0.000224927 0.000104566 -1.23477e-06
-4.39627e-06 -1.23477e-06 -7.0898e-05
0.000527485 -2.50006e-05 -2.49252e-07
-2.50006e-05 -4.9373e-06 -3.90441e-06
-2.49252e-07 -3.90441e-06 -9.29232e-05
0.000697592 0.000106832 -1.84477e-06
0.000106832 9.17754e-05 -5.08688e-06
-1.84477e-06 -5.08688e-06 -5.9183e-05
0.000456601 8.07291e-05 1.27729e-06
8.07291e-05 -1.6997e-05 -7.04726e-08
1.27729e-06 -7.04726e-08 -0.000193001
0.00134102 0.000267046 -5.91644e-06
0.000267046 0.00012779 -1.89665e-06
-5.91644e-06 -1.89665e-06 -7.47944e-05
0.00172874 0.000327252 -3.53568e-09
0.000327252 0.000179851 6.26599e-07
-3.53568e-09 6.26599e-07 -1.58409e-05
0.000986888 0.000232521 -1.97572e-06
0.000232521 0.000171418 -4.03318e-06
-1.97572e-06 -4.03318e-06 -4.77021e-05
0.00141708 0.000320849 -2.74263e-06
0.000320849 0.000264023 -1.84558e-06
-2.74263e-06 -1.84558e-06 1.38349e-06
0.00173528 0.000361932 -1.24613e-06
0.000361932 0.000332336 1.1372e-07
-1.24613e-06 1.1372e-07 0.000102651
0.00168183 0.000357097 -3.4499e-06
0.000357097 0.000281341 5.41205e-06
-3.4499e-06 5.41205e-06 4.36543e-05
0.000522102 -5.06898e-05 6.63694e-09
-5.06898e-05 -3.08746e-05 4.32227e-09
6.63694e-09 4.32227e-09 -5.51281e-05
0.000624456 -1.25175e-05 -6.68279e-07
-1.25175e-05 4.23815e-05 3.97537e-07
-6.68279e-07 3.97537e-07 -2.91243e-05
0.000978336 0.000200078 -1.03815e-07
0.000200078 0.000240761 1.02228e-06
-1.03815e-07 1.02228e-06 4.6266e-05
0.000677662 3.44929e-05 -5.22653e-07
3.44929e-05 0.000121532 -6.9399e-08
-5.22653e-07 -6.9399e-08 -2.62151e-05
0.000634074 0.000135325 6.9707e-07
0.000135325 5.52039e-05 -4.49749e-07
6.9707e-07 -4.49749e-07 -0.000129884
0.00180514 0.000291751 -4.82241e-07
0.000291751 0.000172658 -1.0165e-06
-4.82241e-07 -1.0165e-06 1.11412e-06
0.00167441 0.000361166 5.34839e-07
0.000361166 0.00021318 1.31129e-07
5.34839e-07 1.31129e-07 -5.76697e-06
0.00178404 0.000362077 1.7287e-06
0.000362077 0.000179689 2.38217e-07
1.7287e-06 2.38217e-07 -9.22183e-06
0.00127611 0.000300409 1.56152e-06
0.000300409 0.000289338 6.63935e-07
1.56152e-06 6.63935e-07 3.333e-05
0.0018726 0.000426392 1.31164e-06
0.000426392 0.000327737 1.07103e-07
1.31164e-06 1.07103e-07 8.65432e-05
0.00148534 0.000347566 -1.74224e-06
0.000347566 0.000251236 2.20496e-07
-1.74224e-06 2.20496e-07 -1.56043e-05
0.000680893 1.70332e-06 2.0613e-06
1.70332e-06 6.62079e-05 2.81463e-06
2.0613e-06 2.81463e-06 5.88027e-06
0.000975185 7.75965e-05 8.39864e-07
7.75965e-05 0.000288356 2.62159e-06
8.39864e-07 2.62159e-06 0.000168261
0.00115847 0.000262166 -3.43857e-06
0.000262166 0.000295622 -1.19453e-06
-3.43857e-06 -1.19453e-06 8.53826e-05
0.00137011 0.000104801 -2.1834e-07
0.000104801 0.000543386 3.51387e-07
-2.1834e-07 3.51387e-07 0.000359737
0.00116194 0.000162292 -6.08097e-06
0.000162292 0.000319524 -6.49532e-06
-6.08097e-06 -6.49532e-06 0.000151112
0.00182044 0.000302258 -2.71386e-06
0.000302258 0.000151602 -2.52811e-06
-2.71386e-06 -2.52811e-06 -2.31125e-06
0.00185158 0.000415972 1.01286e-06
0.000415972 0.000264223 3.23819e-07
1.01286e-06 3.23819e-07 4.29206e-05
0.00159261 0.000386412 3.68375e-06
0.000386412 3.91578e-05 -5.15952e-07
3.68375e-06 -5.15952e-07 -0.00014792
0.00064514 0.000261716 -1.51782e-06
0.000261716 -7.69266e-05 2.69885e-06
-1.51782e-06 2.69885e-06 -0.00033826
0.00139181 0.000385194 6.9476e-06
0.000385194 0.000118568 -1.46114e-06
6.9476e-06 -1.46114e-06 -0.000138945
0.000610762 1.06904e-06 -1.92537e-07
1.06904e-06 2.11847e-05 3.47924e-08
-1.92537e-07 3.47924e-08 -3.35188e-05
0.000536162 3.00219e-05 1.51027e-06
3.00219e-05 -3.79182e-06 1.84005e-06
1.51027e-06 1.84005e-06 -8.96957e-05
0.000527251 2.26275e-05 -6.03276e-07
2.26275e-05 -6.21793e-06 -1.32892e-07
-6.03276e-07 -1.32892e-07 -9.09594e-05
0.000940955 0.000104573 3.34108e-07
0.000104573 0.000254699 -6.5986e-07
3.34108e-07 -6.5986e-07 0.000147392
0.000672887 8.02467e-05 2.06096e-06
8.02467e-05 9.20409e-05 1.70075e-06
2.06096e-06 1.70075e-06 1.03356e-06
0.000595688 3.61907e-05 2.4801e-06
3.61907e-05 2.46039e-05 2.61606e-06
2.4801e-06 2.61606e-06 -3.00353e-05
0.000593172 -3.89174e-06 -6.15119e-07
-3.89174e-06 1.77301e-05 -2.11372e-08
-6.15119e-07 -2.11372e-08 -3.59351e-05
0.00124591 -3.71934e-05 9.77173e-07
-3.71934e-05 0.000390991 2.65139e-06
9.77173e-07 2.65139e-06 0.000377737
0.000601182 -8.44124e-06 -1.57489e-06
-8.44124e-06 1.6633e-05 -2.56722e-06
-1.57489e-06 -2.56722e-06 -3.60529e-05
0.00130023 -4.71431e-05 -5.66915e-06
-4.71431e-05 0.000426287 -1.43055e-06
-5.66915e-06 -1.43055e-06 0.000411696
0.000849443 -4.10294e-05 2.42516e-05
-4.10294e-05 0.000161941 7.80001e-06
2.42516e-05 7.80001e-06 0.000165869
0.00131924 -5.64234e-05 -9.88298e-06
-5.64234e-05 0.000443205 -4.00594e-06
-9.88298e-06 -4.00594e-06 0.00042636
0.00159738 -7.06552e-05 2.16949e-05
-7.06552e-05 0.000624259 1.87664e-06
2.16949e-05 1.87664e-06 0.000628096
0.00236983 -0.000102201 -2.96429e-05
-0.000102201 0.00110048 -3.61253e-06
-2.96429e-05 -3.61253e-06 0.00110453
0.000434809 6.90967e-05 -3.17017e-06
6.90967e-05 -5.9778e-05 -5.63452e-06
-3.17017e-06 -5.63452e-06 -9.45318e-05
0.000493693 1.1757e-05 4.37497e-07
1.1757e-05 -2.99232e-05 4.09661e-07
4.37497e-07 4.09661e-07 -6.82296e-05
0.00280702 0.000130316 3.13259e-05
0.000130316 0.0013773 -3.69508e-06
3.13259e-05 -3.69508e-06 0.00137252
0.00334843 0.00011138 -7.72624e-06
0.00011138 0.0017051 -5.19563e-07
-7.72624e-06 -5.19563e-07 0.00170473
0.000610352 -1.7413e-05 -6.99012e-06
-1.7413e-05 3.40269e-05 8.84507e-06
-6.99012e-06 8.84507e-06 -1.17426e-05
0.00395028 0.00010649 -0.000129788
0.00010649 0.0020685 8.22708e-06
-0.000129788 8.22708e-06 0.00206819
0.00152293 0.000189951 -3.69235e-06
0.000189951 9.06958e-05 -3.94141e-07
-3.69235e-06 -3.94141e-07 -6.90823e-05
0.00151731 0.000105964 -1.7961e-06
0.000105964 6.29387e-05 1.39218e-08
-1.7961e-06 1.39218e-08 -7.11973e-05
0.00182479 0.000190851 -6.33565e-07
0.000190851 0.000126767 1.48005e-06
-6.33565e-07 1.48005e-06 1.4269e-06
0.00180972 9.35163e-05 9.13997e-07
9.35163e-05 7.34744e-05 7.06833e-07
9.13997e-07 7.06833e-07 -1.53583e-05
0.00149393 3.89499e-05 -1.23376e-06
3.89499e-05 5.31303e-05 5.35193e-08
-1.23376e-06 5.35193e-08 -6.84188e-05
0.000987596 6.19957e-06 -1.20789e-05
6.19957e-06 -3.54156e-05 -7.36206e-08
-1.20789e-05 -7.36206e-08 -0.000157096
0.00149342 7.53671e-06 6.88559e-08
7.53671e-06 5.59832e-05 3.64078e-08
6.88559e-08 3.64078e-08 -6.43181e-05
0.00182215 4.00832e-05 -2.02934e-06
4.00832e-05 9.27893e-05 -7.69331e-08
-2.02934e-06 -7.69331e-08 1.0563e-05
0.00183849 0.000146921 -3.41617e-07
0.000146921 0.00010732 2.49996e-07
-3.41617e-07 2.49996e-07 -2.1491e-07
0.00182702 9.47408e-05 2.40455e-06
9.47408e-05 3.82857e-05 6.1941e-07
2.40455e-06 6.1941e-07 -2.20982e-05
0.00182608 0.000243951 -2.87853e-07
0.000243951 0.000150234 -1.54168e-07
-2.87853e-07 -1.54168e-07 2.92243e-06
0.00182274 0.00020928 -3.89099e-07
0.00020928 5.70125e-05 7.13281e-07
-3.89099e-07 7.13281e-07 -3.75379e-05
0.00180587 6.9066e-07 -2.35706e-06
6.9066e-07 9.18295e-05 9.62322e-08
-2.35706e-06 9.62322e-08 9.96968e-06
0.00180525 4.36152e-05 4.98916e-06
4.36152e-05 3.51673e-05 2.65754e-07
4.98916e-06 2.65754e-07 -1.89018e-05
0.0018573 0.000153645 1.2262e-06
0.000153645 5.6888e-05 5.57572e-08
1.2262e-06 5.57572e-08 -1.57943e-05
0.00190337 9.92224e-05 6.40515e-06
9.92224e-05 5.95926e-05 1.07275e-06
6.40515e-06 1.07275e-06 1.59106e-05
0.00181794 0.000242895 2.94513e-07
0.000242895 0.000102617 -2.00798e-06
2.94513e-07 -2.00798e-06 -1.78634e-05
0.00183847 0.000215314 4.17947e-06
0.000215314 2.82097e-05 1.18574e-06
4.17947e-06 1.18574e-06 -5.08232e-05
0.00152814 -2.04246e-05 -3.11963e-06
-2.04246e-05 7.85672e-05 -2.88898e-08
-3.11963e-06 -2.88898e-08 -4.25171e-05
0.00177276 -0.000115232 -5.64061e-06
-0.000115232 0.000228999 6.06147e-07
-5.64061e-06 6.06147e-07 9.87964e-05
0.00184176 -7.81997e-05 3.06413e-06
-7.81997e-05 0.000119197 -1.44533e-06
3.06413e-06 -1.44533e-06 3.13591e-05
0.00175394 -0.000179606 -4.06549e-07
-0.000179606 9.09183e-05 -1.00363e-07
-4.06549e-07 -1.00363e-07 -3.53579e-05
0.000823362 -0.000203631 -5.89974e-06
-0.000203631 0.000147245 7.61603e-06
-5.89974e-06 7.61603e-06 -3.47082e-05
0.00126983 -0.00027934 -7.20338e-06
-0.00027934 0.00024884 3.78367e-06
-7.20338e-06 3.78367e-06 2.39941e-05
0.00132662 -0.000356508 8.18129e-08
-0.000356508 0.000155239 8.5644e-07
8.18129e-08 8.5644e-07 -0.000104699
0.00167787 -0.000270559 -1.08279e-06
-0.000270559 0.000119595 1.06974e-07
-1.08279e-06 1.06974e-07 -4.57425e-05
0.00194385 -0.000258547 1.91649e-06
-0.000258547 0.000173244 -1.52826e-06
1.91649e-06 -1.52826e-06 6.76512e-05
0.00182189 -0.000331629 2.10932e-06
-0.000331629 0.000171814 -9.8428e-07
2.10932e-06 -9.8428e-07 1.12121e-05
0.00178301 -0.000419678 -7.96706e-07
-0.000419678 0.0002395 -1.94231e-06
-7.96706e-07 -1.94231e-06 -7.95989e-07
0.0020683 -0.000375974 5.55686e-06
-0.000375974 0.00034219 -6.08065e-06
5.55686e-06 -6.08065e-06 0.000177072
0.00097408 -0.00020837 7.37299e-07
-0.00020837 0.000228383 1.73741e-06
7.37299e-07 1.73741e-06 3.1273e-05
0.000497027 -0.000161382 1.58025e-06
-0.000161382 -5.54e-05 -5.6556e-07
1.58025e-06 -5.6556e-07 -0.000254149
0.00072631 -5.2102e-05 -9.07092e-07
-5.2102e-05 0.000112965 3.78218e-06
-9.07092e-07 3.78218e-06 1.13827e-05
0.000169213 -2.31445e-05 1.71367e-06
-2.31445e-05 -0.000204138 -3.17676e-06
1.71367e-06 -3.17676e-06 -0.000367207
0.00182102 -4.32394e-05 3.163e-08
-4.32394e-05 0.00010372 1.8147e-07
3.163e-08 1.8147e-07 1.45712e-05
0.00179802 -0.000130562 9.31839e-07
-0.000130562 0.000101015 -3.57998e-07
9.31839e-07 -3.57998e-07 -9.03782e-06
0.00176045 -8.62487e-05 2.50266e-06
-8.62487e-05 2.75155e-05 -5.96729e-07
2.50266e-06 -5.96729e-07 -3.77439e-05
0.00182571 -0.000206918 -2.00388e-06
-0.000206918 6.65585e-05 6.42782e-07
-2.00388e-06 6.42782e-07 -2.32117e-05
0.00100845 -0.000230482 -1.30717e-06
-0.000230482 0.000190923 4.7138e-07
-1.30717e-06 4.7138e-07 -1.85704e-05
0.00110643 -0.000316683 2.05454e-06
-0.000316683 0.000117771 -1.64242e-06
2.05454e-06 -1.64242e-06 -0.000139463
0.00163889 -0.000453973 -5.45447e-08
-0.000453973 0.000259015 7.797e-07
-5.45447e-08 7.797e-07 -3.3002e-05
0.00172654 -0.000290968 -1.57422e-06
-0.000290968 8.87914e-05 7.91942e-07
-1.57422e-06 7.91942e-07 -4.80846e-05
0.00187927 -0.000264187 1.77248e-06
-0.000264187 0.000122568 -8.99065e-07
1.77248e-06 -8.99065e-07 2.78342e-05
0.00178059 -0.000425246 -4.13574e-07
-0.000425246 0.000206586 5.94033e-07
-4.13574e-07 5.94033e-07 -2.64102e-05
0.00173905 -0.000345019 -7.20051e-07
-0.000345019 9.79666e-05 1.06821e-06
-7.20051e-07 1.06821e-06 -4.08218e-05
0.00195526 -0.000363913 3.7653e-06
-0.000363913 0.000252858 -5.68362e-06
3.7653e-06 -5.68362e-06 9.50491e-05
0.00108577 -0.000254204 4.81123e-07
-0.000254204 0.000247836 1.52676e-06
4.81123e-07 1.52676e-06 3.52009e-05
0.00135746 -0.000272927 4.59806e-06
-0.000272927 0.000442261 1.69956e-06
4.59806e-06 1.69956e-06 0.000232768
0.000796618 -0.00013408 -1.29189e-07
-0.00013408 0.000193818 -2.51712e-07
-1.29189e-07 -2.51712e-07 -1.86577e-05
0.00045043 -1.53261e-05 -1.58655e-06
-1.53261e-05 -4.77072e-05 5.43324e-07
-1.58655e-06 5.43324e-07 -0.000135424
0.00027203 -1.65229e-05 -3.11339e-07
-1.65229e-05 -0.000127539 -4.72333e-07
-3.11339e-07 -4.72333e-07 -0.000275453
0.00185034 -5.38326e-05 3.25394e-06
-5.38326e-05 6.19966e-05 -9.34761e-07
3.25394e-06 -9.34761e-07 1.3378e-05
0.00188124 -0.000127882 4.11068e-06
-0.000127882 8.14209e-05 -4.33248e-07
4.11068e-06 -4.33248e-07 1.51469e-05
0.00190758 -0.000252043 2.33421e-06
-0.000252043 7.83669e-05 -1.88125e-06
2.33421e-06 -1.88125e-06 4.57973e-06
0.00173296 -0.00029279 3.88263e-07
-0.00029279 5.58121e-05 -6.58724e-07
3.88263e-07 -6.58724e-07 -5.06953e-05
0.0013348 -0.000299282 -1.64623e-06
-0.000299282 0.000337908 -4.95441e-06
-1.64623e-06 -4.95441e-06 9.93872e-05
0.00220648 -0.00041504 -1.80792e-06
-0.00041504 0.000306715 -5.33768e-07
-1.80792e-06 -5.33768e-07 0.000165566
0.00147914 -0.000413696 2.28102e-06
-0.000413696 0.000314876 -4.79121e-06
2.28102e-06 -4.79121e-06 1.43058e-05
0.00180061 -0.000508488 -4.76817e-07
-0.000508488 0.000316312 1.76012e-06
-4.76817e-07 1.76012e-06 9.21516e-06
0.0017255 -0.000412325 1.76198e-06
-0.000412325 0.0001522 3.61157e-06
1.76198e-06 3.61157e-06 -7.22617e-05
0.00019589 7.95453e-06 -3.78628e-07
7.95453e-06 -0.000199665 -3.6864e-06
-3.78628e-07 -3.6864e-06 -0.000272643
0.000700568 -5.3388e-05 2.64969e-08
-5.3388e-05 0.000142302 -7.69368e-07
2.64969e-08 -7.69368e-07 4.74414e-06
0.00100389 -8.40848e-05 -1.75514e-06
-8.40848e-05 0.000313718 1.14666e-06
-1.75514e-06 1.14666e-06 0.000134514
0.00141054 -0.000298488 -9.07103e-06
-0.000298488 0.000420384 -4.48135e-07
-9.07103e-06 -4.48135e-07 0.000198135
0.000415422 -0.000134881 2.60441e-06
-0.000134881 -5.05809e-05 5.77665e-06
2.60441e-06 5.77665e-06 -0.00027373
0.000660112 -0.000230728 -3.12549e-06
-0.000230728 -1.21616e-05 -2.87026e-07
-3.12549e-06 -2.87026e-07 -0.000214659
0.000528753 -4.87961e-05 -1.13324e-06
-4.87961e-05 -2.82319e-05 -4.85349e-06
-1.13324e-06 -4.85349e-06 -5.18913e-05
0.000571537 -1.66244e-05 -1.65344e-06
-1.66244e-05 1.35555e-05 -3.17362e-06
-1.65344e-06 -3.17362e-06 -5.78954e-05
0.00177822 0.00029174 -1.76379e-06
0.00029174 0.000153869 -4.31729e-07
-1.76379e-06 -4.31729e-07 -1.80933e-05
0.000122255 -4.43531e-05 1.19026e-06
-4.43531e-05 -0.000213947 -2.52576e-06
1.19026e-06 -2.52576e-06 -0.000353637
0.000804012 0.000186073 -9.14186e-07
0.000186073 0.000140291 4.4097e-08
-9.14186e-07 4.4097e-08 -5.07427e-05
0.000129625 7.69672e-05 1.89726e-06
7.69672e-05 -0.000257271 1.51093e-06
1.89726e-06 1.51093e-06 -0.000429354
0.00165065 0.000359945 4.07058e-07
0.000359945 0.000197508 3.26946e-07
4.07058e-07 3.26946e-07 -2.15482e-05
0.00170772 0.00035798 4.88978e-07
0.00035798 0.000137937 1.15544e-07
4.88978e-07 1.15544e-07 -5.11184e-05
0.00119796 0.000290097 1.5017e-06
0.000290097 0.000252549 -1.33514e-06
1.5017e-06 -1.33514e-06 -3.01837e-06
0.00205211 0.000395564 -1.43888e-06
0.000395564 0.000588718 -9.2705e-07
-1.43888e-06 -9.2705e-07 0.000317374
0.00173724 0.000413514 -1.96064e-06
0.000413514 0.000230517 7.40771e-07
-1.96064e-06 7.40771e-07 -1.00518e-05
0.000603556 1.93591e-06 -4.09831e-07
1.93591e-06 2.09285e-05 3.58916e-07
-4.09831e-07 3.58916e-07 -3.91052e-05
0.000703356 1.27793e-05 -7.79337e-07
1.27793e-05 0.000121916 4.3221e-07
-7.79337e-07 4.3221e-07 9.14279e-06
0.00113292 0.000260107 -9.94861e-07
0.000260107 0.000282087 -3.84879e-08
-9.94861e-07 -3.84879e-08 7.07549e-05
0.000835396 5.51429e-05 3.57353e-07
5.51429e-05 0.000216917 1.09842e-07
3.57353e-07 1.09842e-07 4.34415e-05
0.000753422 0.000169154 2.32348e-06
0.000169154 9.41667e-05 1.34564e-06
2.32348e-06 1.34564e-06 -8.057e-05
0.00179352 0.000303384 -2.07551e-06
0.000303384 0.000137734 -1.60232e-06
-2.07551e-06 -1.60232e-06 -1.72595e-05
0.00181277 0.000412393 1.6551e-06
0.000412393 0.000240275 4.25064e-07
1.6551e-06 4.25064e-07 1.92268e-05
0.00170715 0.000388748 4.53395e-07
0.000388748 0.000107699 -1.6036e-07
4.53395e-07 -1.6036e-07 -7.81065e-05
0.000841502 0.000290177 1.20222e-06
0.000290177 3.00452e-05 3.44772e-06
1.20222e-06 3.44772e-06 -0.000235822
0.00164865 0.000407993 -2.45027e-06
0.000407993 0.000282817 -1.32955e-06
-2.45027e-06 -1.32955e-06 2.01689e-05
0.000770516 4.00613e-05 6.13286e-07
4.00613e-05 0.000150787 2.23271e-06
6.13286e-07 2.23271e-06 5.29817e-05
0.000333801 -9.76316e-06 -1.35213e-06
-9.76316e-06 -8.14926e-05 1.85526e-06
-1.35213e-06 1.85526e-06 -0.000218509
0.00104402 0.000269492 -3.93686e-06
0.000269492 0.000183323 -2.34534e-06
-3.93686e-06 -2.34534e-06 -2.65634e-05
0.000756198 0.000143717 -5.58997e-06
0.000143717 0.000182533 -4.94027e-06
-5.58997e-06 -4.94027e-06 -1.11705e-05
0.000736309 0.00022671 -1.4005e-06
0.00022671 4.24987e-05 -3.34702e-06
-1.4005e-06 -3.34702e-06 -0.000132893
0.00170465 0.000325239 -3.79943e-07
0.000325239 2.10346e-05 -1.97399e-06
-3.79943e-07 -1.97399e-06 -0.000111971
0.00195588 0.0004516 3.70361e-06
0.0004516 0.000309294 -1.73379e-06
3.70361e-06 -1.73379e-06 7.48713e-05
0.00159991 0.000403689 2.54469e-06
0.000403689 3.50979e-05 1.67352e-07
2.54469e-06 1.67352e-07 -0.000155485
0.00091328 0.000305295 8.23823e-07
0.000305295 3.1584e-05 7.99994e-06
8.23823e-07 7.99994e-06 -0.000248141
0.0014941 0.00042422 -9.90621e-07
0.00042422 0.000204375 -7.25235e-07
-9.90621e-07 -7.25235e-07 -6.42265e-05
0.000591413 -8.74877e-06 -1.86219e-06
-8.74877e-06 9.90251e-06 -2.66232e-06
-1.86219e-06 -2.66232e-06 -4.49661e-05
0.000592384 3.48581e-05 1.09741e-06
3.48581e-05 3.17947e-05 3.88661e-07
1.09741e-06 3.88661e-07 -5.47376e-05
0.000500125 1.70119e-05 1.08434e-07
1.70119e-05 -2.58888e-05 1.15392e-06
1.08434e-07 1.15392e-06 -0.000115901
0.000400955 -2.49577e-05 -8.20305e-07
-2.49577e-05 -8.0564e-05 -1.69102e-06
-8.20305e-07 -1.69102e-06 -0.000165009
0.000645092 4.27778e-05 -2.90203e-07
4.27778e-05 7.4813e-05 2.68816e-09
-2.90203e-07 2.68816e-09 -1.45985e-05
0.000680271 5.85498e-05 -4.90807e-07
5.85498e-05 8.69406e-05 -3.18744e-07
-4.90807e-07 -3.18744e-07 -9.20155e-06
0.000803674 9.17693e-05 -1.3679e-06
9.17693e-05 0.000171151 -2.36601e-06
-1.3679e-06 -2.36601e-06 6.67227e-05
0.000453957 -5.04258e-06 1.10603e-06
-5.04258e-06 -3.07384e-05 1.27917e-07
1.10603e-06 1.27917e-07 -0.000139011
0.000681527 6.89309e-05 1.05215e-06
6.89309e-05 9.39743e-05 1.88892e-06
1.05215e-06 1.88892e-06 7.84829e-06
0.000614369 4.35843e-05 2.74376e-06
4.35843e-05 4.06703e-05 2.63875e-06
2.74376e-06 2.63875e-06 -1.58105e-05
0.00059502 5.61783e-06 -1.48033e-06
5.61783e-06 2.38112e-05 -7.62967e-09
-1.48033e-06 -7.62967e-09 -3.04992e-05
0.00125171 -2.44963e-05 1.09784e-06
-2.44963e-05 0.000394286 2.59013e-06
1.09784e-06 2.59013e-06 0.000381967
0.00054872 -4.97395e-05 1.27029e-07
-4.97395e-05 -4.15975e-06 -2.60587e-06
1.27029e-07 -2.60587e-06 -6.03575e-05
0.00129981 -3.38483e-05 -4.92003e-06
-3.38483e-05 0.000423209 -1.48921e-06
-4.92003e-06 -1.48921e-06 0.000410316
0.000837146 -3.27138e-05 2.06194e-05
-3.27138e-05 0.000149713 8.18835e-06
2.06194e-05 8.18835e-06 0.000155241
0.00134392 -4.48316e-05 -8.87164e-06
-4.48316e-05 0.000452373 -5.68437e-06
-8.87164e-06 -5.68437e-06 0.000438006
0.000797215 -4.22249e-05 7.45305e-06
-4.22249e-05 0.000129735 3.0595e-06
7.45305e-06 3.0595e-06 0.000132985
0.00230137 -9.56593e-05 -4.22854e-06
-9.56593e-05 0.00105075 -2.06976e-06
-4.22854e-06 -2.06976e-06 0.00105621
0.00046685 4.78478e-05 -1.23841e-06
4.78478e-05 -5.66004e-05 -3.96518e-06
-1.23841e-06 -3.96518e-06 -7.94078e-05
0.000486607 3.89799e-05 -1.7607e-06
3.89799e-05 -3.57637e-05 -4.00604e-08
-1.7607e-06 -4.00604e-08 -6.67802e-05
0.00252003 0.000109608 2.36e-05
0.000109608 0.00119714 -3.74661e-06
2.36e-05 -3.74661e-06 0.00119801
0.000583217 -6.47265e-06 -5.26373e-06
-6.47265e-06 1.8996e-05 7.35377e-06
-5.26373e-06 7.35377e-06 -1.76682e-05
0.00297577 0.000125129 -2.11303e-05
0.000125129 0.00147762 -8.86902e-07
-2.11303e-05 -8.86902e-07 0.00147439
0.00349764 9.78398e-05 -0.000107547
9.78398e-05 0.00179214 6.28511e-06
-0.000107547 6.28511e-06 0.00179489
0.001798 0.000244353 -1.96999e-06
0.000244353 0.000128978 7.60584e-07
-1.96999e-06 7.60584e-07 -1.89571e-05
0.00182455 0.00014404 9.48682e-07
0.00014404 9.96676e-05 1.51797e-06
9.48682e-07 1.51797e-06 -7.56733e-06
0.00186556 0.000206338 1.30694e-08
0.000206338 8.20414e-05 1.99423e-06
1.30694e-08 1.99423e-06 -8.69172e-06
0.00182157 9.27759e-05 -2.48129e-07
9.27759e-05 3.19126e-05 1.01019e-07
-2.48129e-07 1.01019e-07 -2.34276e-05
0.00179992 3.3583e-05 -9.63555e-07
3.3583e-05 7.91778e-05 1.82285e-07
-9.63555e-07 1.82285e-07 -2.83207e-06
0.0014956 1.04594e-05 -1.06465e-06
1.04594e-05 5.83926e-05 5.42385e-08
-1.06465e-06 5.42385e-08 -6.19119e-05
0.00180406 1.70056e-06 -2.01114e-06
1.70056e-06 9.00401e-05 4.35273e-08
-2.01114e-06 4.35273e-08 5.79635e-06
0.00182938 4.22463e-05 2.32349e-06
4.22463e-05 5.38309e-05 9.66555e-08
2.32349e-06 9.66555e-08 -1.97781e-06
0.00189966 0.000153465 -1.00911e-06
0.000153465 8.45605e-05 -3.15217e-07
-1.00911e-06 -3.15217e-07 1.15987e-05
0.0018853 0.00010038 1.21031e-06
0.00010038 4.64362e-05 2.4977e-07
1.21031e-06 2.4977e-07 5.21883e-06
0.00181109 0.000240572 -8.50367e-07
0.000240572 0.000106466 -3.11273e-07
-8.50367e-07 -3.11273e-07 -1.36419e-05
0.00186269 0.000219481 3.31616e-06
0.000219481 4.33377e-05 1.38488e-06
3.31616e-06 1.38488e-06 -3.28007e-05
0.0018232 -6.81212e-06 3.64969e-06
-6.81212e-06 5.89242e-05 -1.59507e-07
3.64969e-06 -1.59507e-07 6.5529e-06
0.00185656 4.56375e-05 5.79873e-06
4.56375e-05 2.04146e-05 2.30635e-07
5.79873e-06 2.30635e-07 -8.16006e-06
0.00193551 0.000155871 4.59765e-06
0.000155871 5.4635e-05 1.3591e-06
4.59765e-06 1.3591e-06 7.91406e-06
0.00194895 0.000279249 3.75339e-07
0.000279249 0.000107229 1.23922e-07
3.75339e-07 1.23922e-07 1.34703e-05
0.00183045 -4.33279e-05 1.31523e-06
-4.33279e-05 0.0001105 3.32026e-08
1.31523e-06 3.32026e-08 2.127e-05
0.00175249 -0.000131379 2.34622e-06
-0.000131379 7.72006e-05 -1.18349e-06
2.34622e-06 -1.18349e-06 -3.52931e-05
0.00179068 -8.46939e-05 2.27265e-06
-8.46939e-05 4.52876e-05 -1.55221e-06
2.27265e-06 -1.55221e-06 -1.55151e-05
0.00182272 -0.000204263 -2.4375e-06
-0.000204263 6.865e-05 7.43304e-07
-2.4375e-06 7.43304e-07 -2.30355e-05
0.00120881 -0.000248015 -2.37296e-06
-0.000248015 0.000316057 4.82859e-06
-2.37296e-06 4.82859e-06 0.000102003
0.000921691 -0.000292454 -8.25472e-07
-0.000292454 8.76763e-06 1.88402e-06
-8.25472e-07 1.88402e-06 -0.0002411
0.00161678 -0.000458662 1.91593e-06
-0.000458662 0.000244651 -1.03289e-06
1.91593e-06 -1.03289e-06 -5.19409e-05
0.00169528 -0.000287846 -5.71815e-07
-0.000287846 7.7473e-05 -1.25778e-07
-5.71815e-07 -1.25778e-07 -6.30484e-05
0.0017539 -0.000260629 1.0996e-06
-0.000260629 4.76482e-05 -6.11738e-08
1.0996e-06 -6.11738e-08 -4.34966e-05
0.00180561 -0.000349752 2.66191e-06
-0.000349752 0.000129818 1.74521e-07
2.66191e-06 1.74521e-07 -9.73066e-06
0.00176383 -0.000425923 -2.82305e-06
-0.000425923 0.000203445 -2.39786e-06
-2.82305e-06 -2.39786e-06 -3.08027e-05
0.00179167 -0.000351832 1.86259e-06
-0.000351832 0.000145197 -1.09332e-05
1.86259e-06 -1.09332e-05 -6.49261e-06
0.00124097 -0.00027002 3.67622e-06
-0.00027002 0.000335581 1.96199e-06
3.67622e-06 1.96199e-06 0.00012053
0.000965274 -0.000232204 6.71179e-06
-0.000232204 0.000188906 -1.362e-06
6.71179e-06 -1.362e-06 -4.72283e-06
0.000638455 -0.000108496 2.84079e-06
-0.000108496 9.98756e-05 -5.56322e-06
2.84079e-06 -5.56322e-06 -0.000116481
0.000351392 4.25247e-06 -4.89984e-07
4.25247e-06 -0.000106803 3.40932e-06
-4.89984e-07 3.40932e-06 -0.000196647
0.00028168 1.75049e-05 2.2727e-06
1.75049e-05 -0.000124609 -6.23562e-08
2.2727e-06 -6.23562e-08 -0.000268711
0.00182258 -5.94609e-05 -4.2269e-07
-5.94609e-05 4.57381e-05 -1.28976e-07
-4.2269e-07 -1.28976e-07 -6.48035e-06
0.00185494 -0.000128728 1.48727e-06
-0.000128728 6.41345e-05 -6.23456e-07
1.48727e-06 -6.23456e-07 -3.9959e-06
0.00186668 -0.000244507 -1.7242e-06
-0.000244507 6.48919e-05 3.04575e-07
-1.7242e-06 3.04575e-07 -1.14681e-05
0.0011996 -0.000285063 -1.75641e-06
-0.000285063 0.000258487 -3.52092e-07
-1.75641e-06 -3.52092e-07 2.17961e-05
0.00104921 -0.000361841 8.3629e-07
-0.000361841 5.35694e-05 -1.64426e-06
8.3629e-07 -1.64426e-06 -0.000233394
0.00166702 -0.00049981 -3.39681e-07
-0.00049981 0.000241809 -1.03897e-07
-3.39681e-07 -1.03897e-07 -6.73347e-05
0.0017362 -0.000292736 5.58737e-07
-0.000292736 5.28761e-05 -2.47456e-07
5.58737e-07 -2.47456e-07 -5.43465e-05
0.0018394 -0.000419015 9.27688e-07
-0.000419015 0.000218443 -2.72485e-06
9.27688e-07 -2.72485e-06 3.34173e-07
0.00192984 -0.000393242 -4.7755e-07
-0.000393242 0.000163974 -1.0428e-06
-4.7755e-07 -1.0428e-06 2.4488e-05
0.000259365 3.92034e-05 -6.61238e-07
3.92034e-05 -0.000168134 -8.83492e-07
-6.61238e-07 -8.83492e-07 -0.000236309
0.00122967 -0.000279844 -6.31225e-07
-0.000279844 0.000294992 5.84072e-07
-6.31225e-07 5.84072e-07 7.85104e-05
0.000538881 -0.000215007 1.06266e-06
-0.000215007 -7.82763e-05 1.62547e-06
1.06266e-06 1.62547e-06 -0.000266069
0.00102539 -0.000190973 -5.62006e-07
-0.000190973 0.00031943 5.64898e-07
-5.62006e-07 5.64898e-07 8.46907e-05
0.00116062 -8.94273e-05 6.77548e-07
-8.94273e-05 0.000408201 -1.84876e-06
6.77548e-07 -1.84876e-06 0.000230011
0.000575701 -6.91482e-06 -6.60091e-07
-6.91482e-06 5.91044e-05 6.43224e-07
-6.60091e-07 6.43224e-07 -7.44124e-05
0.00186463 -6.99525e-05 4.65431e-06
-6.99525e-05 3.18392e-05 -7.04653e-07
4.65431e-06 -7.04653e-07 -1.86149e-07
0.00197953 -0.000169658 2.65516e-06
-0.000169658 5.30413e-05 -3.36507e-07
2.65516e-06 -3.36507e-07 2.0196e-05
0.00184894 -0.000287562 2.46625e-06
-0.000287562 2.96253e-05 -2.03009e-06
2.46625e-06 -2.03009e-06 -3.21231e-05
0.00208923 -0.000364795 1.0492e-06
-0.000364795 0.00016986 -2.89899e-06
1.0492e-06 -2.89899e-06 6.90518e-05
0.00174989 -0.000368015 -4.32222e-06
-0.000368015 0.000543006 -4.78459e-06
-4.32222e-06 -4.78459e-06 0.000282785
0.00188077 -0.000441892 2.25912e-06
-0.000441892 0.000170691 3.28246e-06
2.25912e-06 3.28246e-06 -1.20201e-05
0.00144619 -0.000469362 -3.43287e-06
-0.000469362 0.000252841 1.47862e-06
-3.43287e-06 1.47862e-06 -9.15069e-05
0.00182417 -0.000531373 -4.57215e-06
-0.000531373 0.000334486 2.16612e-06
-4.57215e-06 2.16612e-06 1.04399e-05
0.000271051 5.6213e-05 -2.47118e-06
5.6213e-05 -0.000165496 -2.06326e-06
-2.47118e-06 -2.06326e-06 -0.000221733
0.000684871 2.22315e-06 -9.69222e-07
2.22315e-06 0.000120078 -3.59547e-07
-9.69222e-07 -3.59547e-07 9.13999e-06
0.000997052 -0.000116933 -2.72488e-06
-0.000116933 0.000315577 2.47103e-06
-2.72488e-06 2.47103e-06 0.000158095
0.000963237 -3.00719e-05 -2.75164e-06
-3.00719e-05 0.000277676 4.98821e-06
-2.75164e-06 4.98821e-06 6.39877e-05
0.000819571 -0.000273131 -5.42285e-06
-0.000273131 2.88987e-05 -5.66556e-06
-5.42285e-06 -5.66556e-06 -0.000201948
0.0010416 -0.00025975 -9.27649e-06
-0.00025975 0.000263366 1.73226e-06
-9.27649e-06 1.73226e-06 1.78715e-05
0.000532779 -5.32123e-06 -2.35899e-06
-5.32123e-06 -2.11402e-05 -2.58503e-06
-2.35899e-06 -2.58503e-06 -8.04528e-05
0.000464265 -2.61443e-05 8.08229e-07
-2.61443e-05 -3.0809e-05 -1.94342e-06
8.08229e-07 -1.94342e-06 -0.000133003
0.00176957 0.000305152 -2.59682e-06
0.000305152 0.000124113 -8.37349e-07
-2.59682e-06 -8.37349e-07 -3.20903e-05
0.000277912 6.83256e-06 4.39858e-07
6.83256e-06 -0.000124092 -1.69873e-07
4.39858e-07 -1.69873e-07 -0.000284864
0.00114715 0.000261695 1.97786e-06
0.000261695 0.000292847 -6.4568e-10
1.97786e-06 -6.4568e-10 8.02417e-05
-3.26387e-05 7.90408e-05 3.63552e-06
7.90408e-05 -0.000388501 3.6929e-06
3.63552e-06 3.6929e-06 -0.000539287
0.00177691 0.000409508 5.83756e-08
0.000409508 0.000215808 1.14115e-07
5.83756e-08 1.14115e-07 -5.15084e-06
0.00183016 0.00039207 -2.70481e-06
0.00039207 0.000178617 8.55061e-07
-2.70481e-06 8.55061e-07 -6.1424e-06
0.000985358 0.000312199 -1.20593e-06
0.000312199 0.000109396 5.46574e-07
-1.20593e-06 5.46574e-07 -0.000160613
0.00200152 0.000439158 -2.7072e-06
0.000439158 0.00050359 8.30409e-07
-2.7072e-06 8.30409e-07 0.000233579
0.00068703 1.6388e-05 -9.84552e-07
1.6388e-05 9.68376e-05 2.11407e-07
-9.84552e-07 2.11407e-07 3.69635e-06
0.000526913 2.97536e-05 9.28731e-07
2.97536e-05 3.38187e-05 6.99223e-07
9.28731e-07 6.99223e-07 -0.000107256
0.00138366 0.000302616 -5.8789e-07
0.000302616 0.000395139 -2.53421e-06
-5.8789e-07 -2.53421e-06 0.000175876
0.000546302 5.24565e-05 -1.19126e-06
5.24565e-05 2.44606e-05 -3.11365e-07
-1.19126e-06 -3.11365e-07 -0.000139396
0.000557128 0.000192873 -1.36636e-06
0.000192873 -7.67592e-05 -5.97162e-07
-1.36636e-06 -5.97162e-07 -0.000232165
0.00191005 0.000336904 -2.97274e-06
0.000336904 0.00013674 -1.23894e-06
-2.97274e-06 -1.23894e-06 5.72724e-06
0.00203866 0.000452057 2.0867e-06
0.000452057 0.000362262 -3.20689e-07
2.0867e-06 -3.20689e-07 0.000131014
0.00177181 0.000422641 1.70506e-06
0.000422641 0.000124594 2.59647e-06
1.70506e-06 2.59647e-06 -6.99744e-05
0.00123946 0.000341748 4.52682e-06
0.000341748 0.000233926 4.58874e-06
4.52682e-06 4.58874e-06 -5.49068e-05
0.001526 0.000436082 -3.44472e-06
0.000436082 0.000217627 5.52939e-07
-3.44472e-06 5.52939e-07 -5.78499e-05
0.000173526 -1.54099e-05 -1.17636e-06
-1.54099e-05 -0.000200047 3.14066e-06
-1.17636e-06 3.14066e-06 -0.000301362
-6.92801e-05 8.31174e-05 8.63697e-07
8.31174e-05 -0.000284427 2.53354e-08
8.63697e-07 2.53354e-08 -0.000464118
0.000713218 0.000245772 1.79305e-06
0.000245772 -2.72037e-05 2.36518e-06
1.79305e-06 2.36518e-06 -0.000251583
-0.0004033 9.79718e-05 4.27916e-06
9.79718e-05 -0.000600027 -1.19194e-06
4.27916e-06 -1.19194e-06 -0.000766689
0.00199004 0.000343193 -4.45238e-07
0.000343193 -9.85669e-06 3.09884e-07
-4.45238e-07 3.09884e-07 -6.29354e-05
0.00243694 0.000430627 1.29574e-06
0.000430627 0.00044209 -9.60263e-07
1.29574e-06 -9.60263e-07 0.000286374
0.0018584 0.000487195 -3.1387e-06
0.000487195 0.000273774 -3.87456e-06
-3.1387e-06 -3.87456e-06 1.34743e-05
0.000738924 0.000340039 -7.14406e-07
0.000340039 -0.000127548 1.93096e-06
-7.14406e-07 1.93096e-06 -0.000427482
0.00064866 6.78243e-05 -1.12149e-06
6.78243e-05 7.02392e-05 -1.04295e-06
-1.12149e-06 -1.04295e-06 -1.93665e-05
0.000615067 4.61123e-05 -2.51835e-07
4.61123e-05 5.25444e-05 1.76638e-07
-2.51835e-07 1.76638e-07 -4.43788e-05
0.000942408 4.20548e-05 -2.80002e-06
4.20548e-05 0.00024708 -1.62392e-06
-2.80002e-06 -1.62392e-06 0.000158075
0.000633569 1.74982e-05 -1.55077e-06
1.74982e-05 5.51007e-05 -1.76967e-06
-1.55077e-06 -1.76967e-06 -2.48849e-05
0.00041665 6.42165e-06 -6.68486e-07
6.42165e-06 -6.8366e-05 -6.20849e-07
-6.68486e-07 -6.20849e-07 -0.000162379
0.000648953 3.31703e-05 -1.08399e-07
3.31703e-05 7.71248e-05 2.43006e-08
-1.08399e-07 2.43006e-08 -1.00432e-05
0.000659476 9.05224e-05 -8.63596e-07
9.05224e-05 9.63872e-05 -8.07569e-08
-8.63596e-07 -8.07569e-08 -1.14438e-05
0.000571609 2.92201e-05 9.11925e-07
2.92201e-05 4.30222e-05 3.16775e-07
9.11925e-07 3.16775e-07 -6.8038e-05
0.000771761 6.37282e-05 1.19808e-06
6.37282e-05 0.000140018 -1.59466e-06
1.19808e-06 -1.59466e-06 5.15373e-05
0.000666542 -8.50096e-06 2.88511e-06
-8.50096e-06 9.68617e-05 -2.34569e-06
2.88511e-06 -2.34569e-06 -1.58421e-05
0.000487096 5.44707e-05 1.05699e-06
5.44707e-05 -6.31859e-06 1.68719e-06
1.05699e-06 1.68719e-06 -0.000121415
0.000662009 8.09503e-05 1.62159e-06
8.09503e-05 8.91371e-05 2.36181e-06
1.62159e-06 2.36181e-06 -1.72709e-06
0.000550852 5.24766e-05 2.34478e-06
5.24766e-05 9.13589e-06 2.47336e-06
2.34478e-06 2.47336e-06 -5.10583e-05
0.000560668 -5.18843e-07 -1.34279e-06
-5.18843e-07 1.00851e-05 -4.56678e-08
-1.34279e-06 -4.56678e-08 -4.71461e-05
0.00124646 -1.17171e-05 9.58669e-07
-1.17171e-05 0.000392835 2.45848e-06
9.58669e-07 2.45848e-06 0.000380834
0.000553445 -4.73622e-05 1.11601e-07
-4.73622e-05 2.28113e-06 -2.56824e-06
1.11601e-07 -2.56824e-06 -5.3908e-05
0.00130444 -2.12387e-05 -4.21103e-06
-2.12387e-05 0.000426223 -1.57306e-06
-4.21103e-06 -1.57306e-06 0.000414057
0.000830012 -2.41335e-05 1.75682e-05
-2.41335e-05 0.000143222 8.46509e-06
1.75682e-05 8.46509e-06 0.000149695
0.00134915 -3.15624e-05 -7.58168e-06
-3.15624e-05 0.000453108 -5.71327e-06
-7.58168e-06 -5.71327e-06 0.000440257
0.000791764 -3.34744e-05 6.12162e-06
-3.34744e-05 0.000121382 3.16539e-06
6.12162e-06 3.16539e-06 0.000126505
0.000736896 -4.09429e-05 -1.07448e-06
-4.09429e-05 9.27233e-05 -2.27731e-06
-1.07448e-06 -2.27731e-06 9.60043e-05
0.000502397 3.78025e-05 1.29767e-07
3.78025e-05 -4.82416e-05 -3.27342e-06
1.29767e-07 -3.27342e-06 -6.41005e-05
0.000499007 5.77338e-05 1.79953e-08
5.77338e-05 -3.39908e-05 1.60862e-07
1.79953e-08 1.60862e-07 -5.92463e-05
0.0022712 9.00691e-05 1.88003e-05
9.00691e-05 0.00103879 -3.78525e-06
1.88003e-05 -3.78525e-06 0.00104492
0.0005326 3.32008e-05 -3.03496e-06
3.32008e-05 -7.6444e-06 6.08559e-06
-3.03496e-06 6.08559e-06 -3.92306e-05
0.00259111 0.000112117 -6.56747e-06
0.000112117 0.00124008 -5.44701e-07
-6.56747e-06 -5.44701e-07 0.00124036
0.00306746 8.95282e-05 -8.55279e-05
8.95282e-05 0.00152843 4.9631e-06
-8.55279e-05 4.9631e-06 0.00153358
0.00179899 0.000237818 -7.4936e-07
0.000237818 0.000108252 1.8356e-06
-7.4936e-07 1.8356e-06 -1.14395e-05
0.00194274 0.000153287 -2.9033e-06
0.000153287 0.000112157 5.6348e-08
-2.9033e-06 5.6348e-08 3.88436e-05
0.00187697 0.000223076 5.47966e-07
0.000223076 5.25142e-05 8.89702e-08
5.47966e-07 8.89702e-08 -2.07766e-05
0.00186712 0.000101839 -5.27482e-06
0.000101839 3.31638e-05 -1.08783e-06
-5.27482e-06 -1.08783e-06 -5.69136e-06
0.00185742 4.16062e-05 -8.15368e-07
4.16062e-05 7.49311e-05 -1.34755e-07
-8.15368e-07 -1.34755e-07 1.74231e-05
0.00178619 -3.27965e-07 -6.51624e-07
-3.27965e-07 7.83806e-05 5.04464e-08
-6.51624e-07 5.04464e-08 -8.37045e-06
0.00178742 -3.56705e-06 -5.11463e-07
-3.56705e-06 3.60518e-05 3.15449e-08
-5.11463e-07 3.15449e-08 -1.58533e-05
0.00187977 4.64343e-05 9.08802e-07
4.64343e-05 4.24328e-05 1.79968e-07
9.08802e-07 1.79968e-07 1.23302e-05
0.00192279 0.000160213 5.09566e-07
0.000160213 4.78806e-05 -5.45943e-10
5.09566e-07 -5.45943e-10 9.19759e-07
0.00197581 0.000275994 3.85156e-07
0.000275994 0.000109623 2.07959e-07
3.85156e-07 2.07959e-07 1.77373e-05
0.00186334 -8.80279e-06 4.15934e-06
-8.80279e-06 3.77369e-05 -2.76204e-07
4.15934e-06 -2.76204e-07 1.10009e-05
0.00196628 9.25696e-05 2.95455e-06
9.25696e-05 1.36037e-05 2.37279e-08
2.95455e-06 2.37279e-08 7.95837e-06
0.00207589 0.000239684 3.13141e-06
0.000239684 7.45694e-05 1.26143e-06
3.13141e-06 1.26143e-06 2.49487e-05
0.00180293 -6.52676e-05 -2.12079e-06
-6.52676e-05 3.45336e-05 5.92472e-07
-2.12079e-06 5.92472e-07 -2.11572e-05
0.00181903 -0.000129573 -1.1351e-06
-0.000129573 4.14467e-05 -5.34608e-07
-1.1351e-06 -5.34608e-07 -2.87701e-05
0.00183436 -0.000237281 -3.04918e-06
-0.000237281 5.7849e-05 1.42767e-06
-3.04918e-06 1.42767e-06 -2.15986e-05
0.000992303 -0.000264169 -1.44831e-06
-0.000264169 0.000134765 4.14982e-06
-1.44831e-06 4.14982e-06 -9.88288e-05
0.000989019 -0.000347374 2.63732e-06
-0.000347374 1.07912e-05 1.09139e-06
2.63732e-06 1.09139e-06 -0.000269488
0.00161216 -0.000500555 1.62331e-06
-0.000500555 0.00021101 -1.05975e-06
1.62331e-06 -1.05975e-06 -0.000100597
0.00176242 -0.000293516 -9.36131e-07
-0.000293516 6.37165e-05 6.25781e-07
-9.36131e-07 6.25781e-07 -4.41828e-05
0.00159876 -0.000370047 -4.60312e-07
-0.000370047 -1.23511e-05 -1.72228e-06
-4.60312e-07 -1.72228e-06 -0.000150263
0.00191109 -0.000424254 -2.65162e-06
-0.000424254 0.000259001 -7.71837e-06
-2.65162e-06 -7.71837e-06 4.7088e-05
0.00112296 -0.000269813 3.02361e-06
-0.000269813 0.000219306 5.17921e-06
3.02361e-06 5.17921e-06 5.54126e-06
0.000701861 -0.000225432 -7.49422e-06
-0.000225432 3.3329e-05 3.65657e-06
-7.49422e-06 3.65657e-06 -0.000146311
0.00175029 -0.000247009 1.7939e-06
-0.000247009 0.000764553 -1.70428e-06
1.7939e-06 -1.70428e-06 0.000511125
0.000343131 3.19761e-05 1.11575e-06
3.19761e-05 -0.000119575 6.20194e-07
1.11575e-06 6.20194e-07 -0.000185692
0.000880139 -9.35166e-05 2.52926e-06
-9.35166e-05 0.000234213 -1.05053e-06
2.52926e-06 -1.05053e-06 6.93553e-05
0.000403578 3.22401e-05 3.58961e-06
3.22401e-05 -5.1786e-05 1.68161e-06
3.58961e-06 1.68161e-06 -0.000180794
0.0018706 -6.99492e-05 -3.87211e-07
-6.99492e-05 3.76959e-05 1.60106e-07
-3.87211e-07 1.60106e-07 1.85598e-06
0.00194294 -0.000176026 2.17967e-07
-0.000176026 2.86216e-05 -1.58154e-07
2.17967e-07 -1.58154e-07 -5.23674e-06
0.00189187 -0.000287368 -3.59952e-07
-0.000287368 6.15429e-05 4.40279e-07
-3.59952e-07 4.40279e-07 -4.65921e-06
0.00136361 -0.000330282 -2.01057e-06
-0.000330282 0.000317003 7.41343e-07
-2.01057e-06 7.41343e-07 6.20508e-05
0.00118402 -0.000439333 2.39096e-07
-0.000439333 9.9657e-05 -1.1979e-06
2.39096e-07 -1.1979e-06 -0.000236038
0.00194679 -0.000534769 -4.06915e-06
-0.000534769 0.000405747 5.95215e-07
-4.06915e-06 5.95215e-07 8.99509e-05
0.00196198 -0.000364166 6.57225e-07
-0.000364166 9.86883e-05 -2.90415e-07
6.57225e-07 -2.90415e-07 -5.80759e-06
0.00171571 -0.000431962 1.28473e-06
-0.000431962 6.82672e-05 -3.09678e-06
1.28473e-06 -3.09678e-06 -0.000113337
0.000434104 5.0188e-05 -5.19768e-07
5.0188e-05 -7.07672e-05 -1.02916e-06
-5.19768e-07 -1.02916e-06 -0.000122746
0.000699916 -9.92009e-06 -6.55053e-07
-9.92009e-06 0.000126902 3.38012e-07
-6.55053e-07 3.38012e-07 1.70326e-05
0.000318431 -0.00022269 -4.69213e-06
-0.00022269 -0.000265267 6.24794e-06
-4.69213e-06 6.24794e-06 -0.000480342
0.00149745 -0.000282638 1.39293e-06
-0.000282638 0.000549994 -8.35002e-07
1.39293e-06 -8.35002e-07 0.000301149
0.00102956 -8.18314e-05 -1.90248e-07
-8.18314e-05 0.000329684 -1.73914e-06
-1.90248e-07 -1.73914e-06 0.000115089
0.00084321 -8.92982e-05 -7.28743e-07
-8.92982e-05 0.000224233 1.16387e-06
-7.28743e-07 1.16387e-06 6.74167e-05
0.00192188 -8.64396e-05 1.45135e-06
-8.64396e-05 6.49567e-06 1.37738e-07
1.45135e-06 1.37738e-07 -1.7583e-06
0.00202409 -0.00025115 3.43111e-07
-0.00025115 1.86155e-05 2.50883e-07
3.43111e-07 2.50883e-07 1.41453e-05
0.00198286 -0.000313114 1.77907e-06
-0.000313114 7.72214e-05 -2.0889e-06
1.77907e-06 -2.0889e-06 2.39646e-05
0.00196354 -0.000479501 4.6507e-06
-0.000479501 7.57882e-05 -2.56121e-06
4.6507e-06 -2.56121e-06 -5.44345e-05
0.00083209 -0.000335686 -3.77411e-06
-0.000335686 -3.06045e-05 -7.2021e-06
-3.77411e-06 -7.2021e-06 -0.000333493
0.00190496 -0.000541133 -2.32076e-06
-0.000541133 0.000334986 1.24204e-05
-2.32076e-06 1.24204e-05 3.7456e-05
0.00197122 -0.000557049 -3.76658e-06
-0.000557049 0.000526489 -8.23113e-07
-3.76658e-06 -8.23113e-07 0.000147989
0.000603412 5.10026e-05 6.71196e-08
5.10026e-05 2.14778e-05 -1.15401e-06
6.71196e-08 -1.15401e-06 -2.22778e-05
0.000671459 -0.000113703 3.09883e-06
-0.000113703 0.000103068 -1.68475e-06
3.09883e-06 -1.68475e-06 1.79327e-05
0.000439939 5.81111e-05 -3.03141e-06
5.81111e-05 -3.90823e-05 -5.2342e-07
-3.03141e-06 -5.2342e-07 -0.000128371
0.000635909 -4.84954e-05 -2.02198e-06
-4.84954e-05 0.000106953 3.49923e-06
-2.02198e-06 3.49923e-06 -3.38175e-05
0.000508899 -4.13801e-05 4.96428e-07
-4.13801e-05 -3.23802e-06 2.92904e-07
4.96428e-07 2.92904e-07 -0.000165584
-0.000219695 -6.5756e-05 -1.36287e-06
-6.5756e-05 -0.000412247 1.57255e-06
-1.36287e-06 1.57255e-06 -0.000626784
0.000100607 -0.000230502 -6.7117e-06
-0.000230502 -0.000384182 -8.18135e-06
-6.7117e-06 -8.18135e-06 -0.000599928
0.00294192 -0.000423756 -1.4468e-05
-0.000423756 0.001483 3.00461e-06
-1.4468e-05 3.00461e-06 0.00111546
0.000638794 -2.78485e-06 -1.15844e-06
-2.78485e-06 6.18521e-05 -1.0816e-06
-1.15844e-06 -1.0816e-06 -2.50448e-05
0.000751149 5.95849e-05 3.11504e-07
5.95849e-05 0.000171199 -1.19343e-06
3.11504e-07 -1.19343e-06 2.30953e-05
0.00210285 0.000347451 -1.71732e-06
0.000347451 0.000246294 -7.65775e-07
-1.71732e-06 -7.65775e-07 0.000117514
0.000762183 9.17656e-05 -1.57719e-06
9.17656e-05 0.000166813 3.48035e-06
-1.57719e-06 3.48035e-06 -9.71168e-06
0.0018155 0.000346356 2.59755e-06
0.000346356 0.00066163 -6.67261e-07
2.59755e-06 -6.67261e-07 0.000429723
0.000373471 0.00015816 -8.53505e-07
0.00015816 -0.000194901 2.13578e-06
-8.53505e-07 2.13578e-06 -0.000331652
0.00209112 0.000448659 -3.10703e-06
0.000448659 0.000400743 -2.60174e-07
-3.10703e-06 -2.60174e-07 0.000173561
0.00191872 0.000439779 -1.94119e-06
0.000439779 0.000201108 5.82008e-06
-1.94119e-06 5.82008e-06 3.01631e-06
0.00149929 0.000375 -9.99294e-07
0.000375 0.000394788 -5.12805e-07
-9.99294e-07 -5.12805e-07 9.68513e-05
0.00145565 0.000439494 -2.68494e-07
0.000439494 0.00016936 1.26441e-06
-2.68494e-07 1.26441e-06 -0.000111082
0.000292008 1.58765e-05 -1.09517e-07
1.58765e-05 -0.000122803 1.21968e-06
-1.09517e-07 1.21968e-06 -0.000231211
0.00036058 0.000119186 -6.89125e-07
0.000119186 -2.505e-05 -2.26693e-06
-6.89125e-07 -2.26693e-06 -0.000211306
0.0013864 0.000317389 4.33188e-06
0.000317389 0.00037388 -1.80336e-06
4.33188e-06 -1.80336e-06 0.000136144
0.000716671 0.000186164 -2.65364e-06
0.000186164 6.48774e-05 -2.81321e-06
-2.65364e-06 -2.81321e-06 -0.000112426
0.00205275 0.000334119 9.47747e-07
0.000334119 2.55167e-05 -8.46458e-07
9.47747e-07 -8.46458e-07 -2.69846e-05
0.00218183 0.000423517 3.08165e-06
0.000423517 0.000301442 6.23042e-07
3.08165e-06 6.23042e-07 0.000141544
0.00185248 0.000479624 -7.96828e-07
0.000479624 0.000263808 3.6954e-07
-7.96828e-07 3.6954e-07 7.16663e-06
0.00123116 0.000390638 -1.02091e-07
0.000390638 0.000135802 6.53515e-07
-1.02091e-07 6.53515e-07 -0.00016713
0.000253356 3.94023e-05 -1.28655e-06
3.94023e-05 -0.000150499 3.05592e-06
-1.28655e-06 3.05592e-06 -0.000260921
0.00202554 0.000274572 1.42028e-06
0.000274572 -4.84835e-05 2.49539e-06
1.42028e-06 2.49539e-06 -4.34548e-05
0.00167907 0.000303427 2.71474e-06
0.000303427 0.000737346 4.40998e-06
2.71474e-06 4.40998e-06 0.000501974
0.00116046 0.000309107 6.45823e-06
0.000309107 0.000209152 3.28062e-06
6.45823e-06 3.28062e-06 -2.79787e-05
0.00246575 0.000419419 -1.75812e-05
0.000419419 0.00034743 -5.50225e-06
-1.75812e-05 -5.50225e-06 0.000237755
0.0010243 0.000446452 -6.19554e-06
0.000446452 -0.00030467 -8.08106e-06
-6.19554e-06 -8.08106e-06 -0.000543941
0.0020434 0.000497846 -9.85952e-07
0.000497846 0.000532356 2.67386e-06
-9.85952e-07 2.67386e-06 0.000209068
0.000695361 6.20392e-05 -1.53904e-06
6.20392e-05 0.000100147 -8.42956e-07
-1.53904e-06 -8.42956e-07 3.77069e-06
0.000676307 5.70121e-05 -1.80965e-06
5.70121e-05 9.67641e-05 -6.34653e-07
-1.80965e-06 -6.34653e-07 3.82506e-06
0.000974285 4.73727e-05 -2.05411e-06
4.73727e-05 0.000279253 4.91884e-07
-2.05411e-06 4.91884e-07 0.000197369
0.000598265 -2.35937e-06 2.5789e-08
-2.35937e-06 4.98687e-05 -2.47464e-06
2.5789e-08 -2.47464e-06 -3.91387e-05
0.000658018 5.65698e-05 7.50234e-07
5.65698e-05 9.66529e-05 -6.02315e-08
7.50234e-07 -6.02315e-08 -1.58086e-05
0.000295815 3.33347e-05 -1.43662e-06
3.33347e-05 -0.000108057 2.04672e-06
-1.43662e-06 2.04672e-06 -0.000214295
0.000612688 6.62402e-06 -7.45733e-07
6.62402e-06 6.74349e-05 7.75765e-09
-7.45733e-07 7.75765e-09 -2.79547e-05
0.000416836 -1.62497e-05 -5.74525e-07
-1.62497e-05 -3.87172e-05 3.8659e-07
-5.74525e-07 3.8659e-07 -0.000157385
0.000458157 1.64603e-05 2.37939e-07
1.64603e-05 -3.92695e-05 5.0892e-07
2.37939e-07 5.0892e-07 -0.000122574
0.000751367 5.42189e-05 6.9282e-07
5.42189e-05 0.000159733 -5.27943e-07
6.9282e-07 -5.27943e-07 3.66678e-05
0.00120689 6.20608e-05 6.95846e-07
6.20608e-05 0.000386342 -1.08752e-06
6.95846e-07 -1.08752e-06 0.000314833
0.000675553 -7.17601e-06 3.57267e-06
-7.17601e-06 8.91336e-05 -3.03253e-06
3.57267e-06 -3.03253e-06 -4.69452e-06
0.000662997 5.81046e-05 5.30881e-07
5.81046e-05 0.000113022 8.6363e-07
5.30881e-07 8.6363e-07 -2.21955e-05
0.000635816 3.93569e-05 2.66141e-06
3.93569e-05 9.50203e-05 2.08655e-06
2.66141e-06 2.08655e-06 -3.64776e-05
0.00065068 2.40126e-05 1.79846e-06
2.40126e-05 8.38514e-05 2.4041e-06
1.79846e-06 2.4041e-06 -1.06549e-05
0.000556582 -3.54934e-05 -6.54886e-08
-3.54934e-05 1.1428e-05 2.33095e-06
-6.54886e-08 2.33095e-06 -4.85615e-05
0.000569445 -5.31764e-06 -3.77915e-07
-5.31764e-06 1.70369e-05 -3.77884e-08
-3.77915e-07 -3.77884e-08 -4.08307e-05
0.00128504 2.98544e-08 1.15684e-06
2.98544e-08 0.000419075 2.38064e-06
1.15684e-06 2.38064e-06 0.000406239
0.000574872 -2.40043e-05 6.31785e-07
-2.40043e-05 1.59382e-05 -2.69216e-06
6.31785e-07 -2.69216e-06 -3.93687e-05
0.00131041 -8.4686e-06 -3.25203e-06
-8.4686e-06 0.0004319 -1.60544e-06
-3.25203e-06 -1.60544e-06 0.000419737
0.000817048 -1.60259e-05 1.32018e-05
-1.60259e-05 0.000135135 8.48106e-06
1.32018e-05 8.48106e-06 0.000142095
0.00136286 -1.90138e-05 -5.54833e-06
-1.90138e-05 0.000461701 -5.84704e-06
-5.54833e-06 -5.84704e-06 0.000449411
0.000805029 -2.51502e-05 4.08621e-06
-2.51502e-05 0.000126493 3.27311e-06
4.08621e-06 3.27311e-06 0.000132673
0.00076053 -3.25317e-05 -7.17867e-07
-3.25317e-05 0.000100906 -2.26781e-06
-7.17867e-07 -2.26781e-06 0.000106171
0.000650203 1.01474e-05 1.28927e-06
1.01474e-05 4.53031e-05 -1.39899e-06
1.28927e-06 -1.39899e-06 5.00019e-06
0.000520627 2.87152e-05 4.00079e-07
2.87152e-05 -4.53251e-05 -3.38618e-06
4.00079e-07 -3.38618e-06 -5.71696e-05
0.000527326 3.91168e-05 2.31083e-07
3.91168e-05 -3.23184e-05 1.49876e-07
2.31083e-07 1.49876e-07 -4.8698e-05
0.00213399 7.22492e-05 1.74356e-05
7.22492e-05 0.000946827 -3.93696e-06
1.74356e-05 -3.93696e-06 0.000957524
0.000535032 6.15462e-05 3.87305e-06
6.15462e-05 -1.07928e-05 5.1834e-06
3.87305e-06 5.1834e-06 -3.76519e-05
0.00238552 9.44201e-05 -4.71932e-06
9.44201e-05 0.00110849 -3.91866e-07
-4.71932e-06 -3.91866e-07 0.00111356
0.00273321 0.000117468 -2.47218e-05
0.000117468 0.00132606 4.21919e-06
-2.47218e-05 4.21919e-06 0.001325
0.00200208 0.000273064 -5.85936e-07
0.000273064 0.000111487 5.82914e-07
-5.85936e-07 5.82914e-07 2.1313e-05
0.00191027 0.000164367 -3.838e-06
0.000164367 4.18325e-05 -8.32677e-07
-3.838e-06 -8.32677e-07 -5.47471e-06
0.00190273 4.90215e-05 -5.03051e-06
4.90215e-05 6.44175e-05 -3.39426e-07
-5.03051e-06 -3.39426e-07 3.28065e-05
0.00177658 -3.7025e-07 -2.47475e-06
-3.7025e-07 2.85988e-05 5.51832e-08
-2.47475e-06 5.51832e-08 -2.27212e-05
0.00185047 -4.84792e-06 -8.22739e-07
-4.84792e-06 2.62889e-05 -4.9355e-09
-8.22739e-07 -4.9355e-09 3.0542e-06
0.00194949 8.7262e-05 6.64102e-08
8.7262e-05 9.60152e-06 1.83326e-08
6.64102e-08 1.83326e-08 1.81555e-06
0.00202111 0.000242092 -7.12046e-07
0.000242092 4.13729e-05 -6.32782e-08
-7.12046e-07 -6.32782e-08 -6.49857e-06
0.00194086 -2.72663e-06 1.49926e-06
-2.72663e-06 6.39372e-07 -5.34265e-07
1.49926e-06 -5.34265e-07 3.68612e-06
0.0020809 0.000135267 3.19769e-06
0.000135267 7.83664e-06 -2.95487e-07
3.19769e-06 -2.95487e-07 6.76672e-06
0.002294 8.92766e-05 -2.39221e-06
8.92766e-05 0.000181943 6.59645e-06
-2.39221e-06 6.59645e-06 0.000228182
0.00187483 -7.00926e-05 -5.05061e-06
-7.00926e-05 4.21947e-05 3.45292e-07
-5.05061e-06 3.45292e-07 2.49204e-06
0.00191851 -0.00018354 -3.59163e-06
-0.00018354 9.7105e-06 7.00869e-07
-3.59163e-06 7.00869e-07 -2.46243e-05
0.00191626 -0.000286278 -3.36697e-06
-0.000286278 8.16205e-05 1.89211e-06
-3.36697e-06 1.89211e-06 1.18575e-05
0.000669485 -0.000260294 1.25283e-06
-0.000260294 -9.07547e-05 5.96855e-06
1.25283e-06 5.96855e-06 -0.0003341
0.0014389 -0.000460277 1.344e-06
-0.000460277 0.000247955 -7.83548e-07
1.344e-06 -7.83548e-07 -8.85995e-05
0.00197772 -0.000526205 -2.14282e-06
-0.000526205 0.000429113 -1.4107e-06
-2.14282e-06 -1.4107e-06 0.000123402
0.00182198 -0.000361023 9.88381e-07
-0.000361023 2.08217e-05 1.5844e-06
9.88381e-07 1.5844e-06 -8.69973e-05
0.00162889 -0.000423485 -4.65623e-06
-0.000423485 1.69005e-05 -5.72968e-06
-4.65623e-06 -5.72968e-06 -0.000163239
0.000249971 -0.000212325 -1.49477e-06
-0.000212325 -0.000302683 1.23373e-05
-1.49477e-06 1.23373e-05 -0.000509269
0.00217109 -0.00033071 1.62811e-05
-0.00033071 0.00097177 -3.31053e-06
1.62811e-05 -3.31053e-06 0.000714481
0.00073097 -3.34874e-05 1.06944e-06
-3.34874e-05 0.000140947 -9.78711e-07
1.06944e-06 -9.78711e-07 -5.6179e-05
0.000514216 1.56511e-05 3.4006e-07
1.56511e-05 -2.45234e-05 2.9477e-07
3.4006e-07 2.9477e-07 -7.27976e-05
0.000799571 3.06676e-05 2.53255e-06
3.06676e-05 0.000182694 6.12447e-07
2.53255e-06 6.12447e-07 7.32427e-05
0.000863356 -5.93528e-05 1.06112e-06
-5.93528e-05 0.000238445 1.66759e-06
1.06112e-06 1.66759e-06 7.94282e-05
0.00193859 -8.92145e-05 2.97888e-07
-8.92145e-05 8.18322e-06 -2.06571e-08
2.97888e-07 -2.06571e-08 2.54102e-06
0.000570267 1.85538e-05 1.04429e-06
1.85538e-05 7.15705e-07 1.37241e-07
1.04429e-06 1.37241e-07 -4.19852e-05
0.000514579 -4.62438e-05 -1.77595e-06
-4.62438e-05 -1.14166e-05 -5.03591e-08
-1.77595e-06 -5.03591e-08 -8.35596e-05
0.00200645 -0.000241098 -1.4354e-07
-0.000241098 2.36842e-05 2.44899e-07
-1.4354e-07 2.44899e-07 1.69289e-05
0.00192781 -0.000309855 -1.3389e-06
-0.000309855 4.22373e-05 1.44333e-07
-1.3389e-06 1.44333e-07 -8.68125e-06
0.0010515 -0.000355485 -2.4346e-06
-0.000355485 0.000104155 1.36734e-06
-2.4346e-06 1.36734e-06 -0.000197384
0.0018417 -0.000545288 4.30918e-07
-0.000545288 0.00045717 6.69023e-07
4.30918e-07 6.69023e-07 7.58745e-05
0.00160866 -0.00051636 3.54572e-06
-0.00051636 0.000153465 -1.81679e-06
3.54572e-06 -1.81679e-06 -0.000135888
0.00208694 -0.000484017 2.38361e-06
-0.000484017 0.000156321 -8.78291e-07
2.38361e-06 -8.78291e-07 2.40466e-05
0.000705365 -6.61763e-06 7.40507e-07
-6.61763e-06 0.000126685 -1.21127e-06
7.40507e-07 -1.21127e-06 3.58423e-05
0.000712264 -3.04476e-05 2.66474e-07
-3.04476e-05 0.000153629 1.40072e-06
2.66474e-07 1.40072e-06 9.94104e-06
0.00109405 -0.000299861 -3.13789e-06
-0.000299861 0.000194782 -1.77688e-06
-3.13789e-06 -1.77688e-06 -3.59947e-05
0.00174469 -0.000309256 1.5881e-05
-0.000309256 0.000768552 -3.24744e-06
1.5881e-05 -3.24744e-06 0.000458891
0.00040514 -7.75139e-05 -2.94806e-06
-7.75139e-05 -4.97575e-05 -5.24689e-07
-2.94806e-06 -5.24689e-07 -0.000258774
0.000655687 -3.44906e-05 6.43627e-07
-3.44906e-05 9.90531e-05 -7.46319e-07
6.43627e-07 -7.46319e-07 -7.18668e-05
0.00196235 -0.000104694 1.48165e-06
-0.000104694 -5.87248e-05 -1.09983e-06
1.48165e-06 -1.09983e-06 -5.79545e-05
0.00193955 -0.000290375 -2.87459e-07
-0.000290375 -9.36072e-05 6.7039e-07
-2.87459e-07 6.7039e-07 -2.01719e-05
0.00204855 -0.00042603 -4.61292e-06
-0.00042603 3.62024e-05 -1.24384e-06
-4.61292e-06 -1.24384e-06 -3.13365e-05
0.00155185 -0.000549795 7.27806e-07
-0.000549795 -3.106e-05 -1.11206e-06
7.27806e-07 -1.11206e-06 -0.000199855
0.000991195 -0.000332996 -7.83728e-06
-0.000332996 9.73785e-05 -8.1719e-06
-7.83728e-06 -8.1719e-06 -0.000209018
0.00240767 -0.000644286 -9.52699e-06
-0.000644286 0.000741671 9.41256e-06
-9.52699e-06 9.41256e-06 0.000333959
0.000357673 5.18972e-05 -1.24718e-06
5.18972e-05 -9.45899e-05 -2.07242e-06
-1.24718e-06 -2.07242e-06 -0.000173139
0.000645946 -5.76999e-05 3.56693e-06
-5.76999e-05 6.73188e-05 -6.91768e-07
3.56693e-06 -6.91768e-07 -4.96938e-06
0.000939057 -9.99014e-05 1.3531e-06
-9.99014e-05 0.000254147 2.5955e-06
1.3531e-06 2.5955e-06 0.000154938
0.000464506 1.93283e-05 -2.40843e-06
1.93283e-05 -5.44221e-06 4.21037e-06
-2.40843e-06 4.21037e-06 -0.000133805
0.000876153 -7.4658e-05 -3.04927e-06
-7.4658e-05 0.000231281 4.35067e-06
-3.04927e-06 4.35067e-06 8.77573e-05
0.00118004 -5.36904e-05 1.75005e-06
-5.36904e-05 0.000362175 2.32565e-07
1.75005e-06 2.32565e-07 0.000177703
-0.000688826 -0.000114584 5.4193e-06
-0.000114584 -0.000492433 4.05146e-07
5.4193e-06 4.05146e-07 -0.000903418
-0.000222712 -0.00027613 -2.45699e-05
-0.00027613 -0.000563345 1.55567e-06
-2.45699e-05 1.55567e-06 -0.000790944
0.000387297 4.87362e-05 -3.91974e-07
4.87362e-05 -5.84864e-05 -8.78965e-07
-3.91974e-07 -8.78965e-07 -0.000174621
0.000986947 0.00016607 -6.34857e-06
0.00016607 0.000345936 -3.04455e-06
-6.34857e-06 -3.04455e-06 0.000154979
0.0021101 0.000325756 -4.25464e-06
0.000325756 6.10997e-05 -1.98456e-06
-4.25464e-06 -1.98456e-06 8.23775e-06
0.00195878 0.000417847 -9.43019e-07
0.000417847 0.000178597 1.53442e-06
-9.43019e-07 1.53442e-06 1.43398e-05
0.00183679 0.000251192 -8.00231e-06
0.000251192 0.000715335 -1.12413e-06
-8.00231e-06 -1.12413e-06 0.000536563
0.00201244 0.000382481 -5.12708e-06
0.000382481 0.000745998 -8.67486e-06
-5.12708e-06 -8.67486e-06 0.000497892
0.00188453 0.000475891 1.68416e-06
0.000475891 0.000273485 2.0368e-06
1.68416e-06 2.0368e-06 1.93879e-05
0.00184801 0.000451111 -2.30025e-07
0.000451111 0.000474456 -1.54224e-06
-2.30025e-07 -1.54224e-06 0.000166536
0.000531555 7.15587e-05 7.32056e-07
7.15587e-05 2.84566e-05 -1.02597e-06
7.32056e-07 -1.02597e-06 -9.54415e-05
0.00210378 0.000259929 -1.20993e-06
0.000259929 -6.45056e-06 -8.59667e-07
-1.20993e-06 -8.59667e-07 3.99878e-06
0.00113161 0.000220286 1.251e-06
0.000220286 0.000396683 1.57282e-06
1.251e-06 1.57282e-06 0.00018233
0.00126211 0.000320845 1.31186e-06
0.000320845 0.000273118 -1.04194e-06
1.31186e-06 -1.04194e-06 2.76107e-05
0.00229647 0.000412731 2.46067e-06
0.000412731 0.000254642 5.877e-07
2.46067e-06 5.877e-07 0.000148022
0.00162124 0.000487502 -1.39998e-06
0.000487502 2.88588e-05 -3.9831e-06
-1.39998e-06 -3.9831e-06 -0.000211697
0.00190454 0.000483168 -1.69584e-07
0.000483168 0.000462313 2.8021e-07
-1.69584e-07 2.8021e-07 0.000139732
0.00113812 0.000172168 -3.75015e-06
0.000172168 0.000414021 3.4939e-06
-3.75015e-06 3.4939e-06 0.000244138
0.00239327 0.000302295 -5.02841e-05
0.000302295 0.000220516 -1.35844e-05
-5.02841e-05 -1.35844e-05 0.000249894
0.00197366 0.000388976 -5.52746e-06
0.000388976 0.00080988 6.82854e-07
-5.52746e-06 6.82854e-07 0.000565977
0.00195697 0.00043723 -7.71944e-06
0.00043723 0.000585036 -8.97768e-07
-7.71944e-06 -8.97768e-07 0.000296663
0.00220232 0.000547762 -2.57695e-05
0.000547762 0.000244221 -1.32286e-05
-2.57695e-05 -1.32286e-05 7.16071e-05
0.000802256 0.000410356 -1.93145e-05
0.000410356 -0.000209938 -1.94811e-06
-1.93145e-05 -1.94811e-06 -0.000505383
0.00115378 0.000427088 3.56981e-05
0.000427088 -0.000431817 -2.29426e-05
3.56981e-05 -2.29426e-05 -0.00067129
0.000396589 7.09967e-05 1.06932e-06
7.09967e-05 -5.73975e-05 -7.12184e-07
1.06932e-06 -7.12184e-07 -0.000155219
0.000609405 5.57468e-05 -9.81731e-08
5.57468e-05 7.94337e-05 1.08735e-06
-9.81731e-08 1.08735e-06 -6.40756e-06
0.00148364 9.1483e-05 8.79755e-07
9.1483e-05 0.00057529 1.30644e-07
8.79755e-07 1.30644e-07 0.000487801
0.000559959 -6.33872e-05 3.29709e-07
-6.33872e-05 4.37637e-05 -3.01529e-06
3.29709e-07 -3.01529e-06 -5.57205e-05
0.000489481 -3.93812e-05 -1.49068e-06
-3.93812e-05 -2.68523e-07 -2.34667e-07
-1.49068e-06 -2.34667e-07 -0.00011486
0.000926169 0.000140555 -4.67862e-07
0.000140555 0.000265521 9.43085e-07
-4.67862e-07 9.43085e-07 0.000136982
0.000226629 6.76099e-07 -2.1741e-06
6.76099e-07 -0.000165778 5.03521e-06
-2.1741e-06 5.03521e-06 -0.000249757
0.000608299 -2.24834e-05 -2.10872e-07
-2.24834e-05 7.12652e-05 -2.72236e-08
-2.10872e-07 -2.72236e-08 -3.08689e-05
0.000599422 4.73002e-05 1.65179e-08
4.73002e-05 5.69701e-05 -4.99679e-07
1.65179e-08 -4.99679e-07 -6.25881e-05
0.000925886 5.38554e-05 -1.27016e-06
5.38554e-05 0.000221439 9.15083e-07
-1.27016e-06 9.15083e-07 0.000149168
0.00070016 3.55423e-05 9.43528e-07
3.55423e-05 0.000120812 1.14354e-07
9.43528e-07 1.14354e-07 -4.91241e-06
0.000731324 1.66591e-05 -7.57885e-07
1.66591e-05 0.000118875 -5.7916e-07
-7.57885e-07 -5.7916e-07 2.1775e-05
0.000987379 5.54834e-05 1.2137e-06
5.54834e-05 0.000263545 -4.06037e-06
1.2137e-06 -4.06037e-06 0.000186111
0.000867567 6.56326e-05 -1.80871e-06
6.56326e-05 0.000204241 -2.24255e-06
-1.80871e-06 -2.24255e-06 7.43342e-05
0.000837166 8.61339e-05 9.82175e-07
8.61339e-05 0.000194247 7.45566e-07
9.82175e-07 7.45566e-07 6.93663e-05
0.000667998 4.39723e-05 4.69001e-07
4.39723e-05 0.000114051 1.69927e-06
4.69001e-07 1.69927e-06 -2.42764e-05
0.000451589 -2.41228e-05 -2.32535e-07
-2.41228e-05 -3.90283e-05 2.57226e-06
-2.32535e-07 2.57226e-06 -0.000136829
0.000922292 -3.47329e-05 3.8567e-07
-3.47329e-05 0.000290476 -6.65275e-07
3.8567e-07 -6.65275e-07 0.000150152
0.000352712 -2.10796e-05 -9.85551e-07
-2.10796e-05 -9.54594e-05 2.57789e-06
-9.85551e-07 2.57789e-06 -0.00019677
0.000526649 4.03826e-06 -1.48043e-06
4.03826e-06 -3.42107e-06 2.40444e-06
-1.48043e-06 2.40444e-06 -6.58456e-05
0.000547852 2.56394e-05 1.66096e-06
2.56394e-05 8.18587e-06 -3.48051e-08
1.66096e-06 -3.48051e-08 -5.32985e-05
0.000501283 1.13533e-05 9.20089e-07
1.13533e-05 -5.01266e-05 3.91351e-06
9.20089e-07 3.91351e-06 -6.80035e-05
0.000549092 1.42828e-06 -2.27478e-06
1.42828e-06 7.31269e-06 -2.54522e-06
-2.27478e-06 -2.54522e-06 -5.24679e-05
0.000926723 4.52801e-06 -2.2669e-06
4.52801e-06 0.000204095 -1.66049e-06
-2.2669e-06 -1.66049e-06 0.000188841
0.00244304 -1.30721e-05 9.15227e-06
-1.30721e-05 0.00111593 5.28873e-06
9.15227e-06 5.28873e-06 0.00113058
0.0013705 -6.25588e-06 -3.85862e-06
-6.25588e-06 0.000468677 -5.73172e-06
-3.85862e-06 -5.73172e-06 0.000456204
0.000797739 -1.63078e-05 2.42842e-06
-1.63078e-05 0.000121349 3.29145e-06
2.42842e-06 3.29145e-06 0.000128333
0.000776574 -2.3719e-05 -1.30919e-07
-2.3719e-05 0.000107436 -2.28584e-06
-1.30919e-07 -2.28584e-06 0.000113849
0.000577862 1.40658e-05 -8.31705e-07
1.40658e-05 4.67334e-06 -1.33597e-06
-8.31705e-07 -1.33597e-06 -3.4944e-05
0.000602481 -3.96817e-06 1.11172e-06
-3.96817e-06 1.79352e-05 -1.48661e-07
1.11172e-06 -1.48661e-07 -2.32888e-05
0.000553875 2.20191e-05 3.47078e-07
2.20191e-05 -2.8386e-05 -3.31178e-06
3.47078e-07 -3.31178e-06 -3.80792e-05
0.000855088 3.54026e-05 -3.35858e-07
3.54026e-05 0.000158071 5.34485e-08
-3.35858e-07 5.34485e-08 0.000147577
0.00210522 5.79143e-05 1.36101e-05
5.79143e-05 0.000922485 -4.16375e-06
1.36101e-05 -4.16375e-06 0.000936065
0.000539017 4.31966e-05 1.30067e-06
4.31966e-05 -2.3337e-05 3.76496e-06
1.30067e-06 3.76496e-06 -4.07555e-05
0.00220994 7.61195e-05 -2.87708e-06
7.61195e-05 0.000993963 -2.01684e-07
-2.87708e-06 -2.01684e-07 0.00100365
0.00244372 9.73194e-05 -1.85378e-05
9.73194e-05 0.00114403 4.10432e-06
-1.85378e-05 4.10432e-06 0.00114836
0.00197473 0.000245027 -3.85124e-06
0.000245027 1.14608e-05 -1.98584e-06
-3.85124e-06 -1.98584e-06 -3.41797e-05
0.00193111 8.28556e-05 -1.82389e-06
8.28556e-05 4.25281e-06 3.28287e-07
-1.82389e-06 3.28287e-07 -5.36002e-06
0.00183762 -2.35678e-06 -4.99324e-06
-2.35678e-06 1.48039e-05 2.05084e-08
-4.99324e-06 2.05084e-08 -4.81341e-06
0.00193348 -8.94882e-07 1.47747e-07
-8.94882e-07 -1.21293e-06 -2.00639e-07
1.47747e-07 -2.00639e-07 1.68016e-06
0.00206483 0.000136452 -4.20257e-08
0.000136452 1.35597e-05 2.21827e-07
-4.20257e-08 2.21827e-07 1.12399e-05
0.00199041 7.48019e-05 5.99965e-06
7.48019e-05 -1.23514e-05 -2.34201e-06
5.99965e-06 -2.34201e-06 2.79365e-05
0.00207203 3.1035e-06 -1.07416e-06
3.1035e-06 -2.25568e-05 -1.24559e-06
-1.07416e-06 -1.24559e-06 4.81938e-06
0.00324221 0.000394945 3.70851e-05
0.000394945 -0.000388501 5.83006e-06
3.70851e-05 5.83006e-06 -6.52761e-05
0.00232352 4.86258e-05 -3.0433e-05
4.86258e-05 0.000345236 1.95758e-05
-3.0433e-05 1.95758e-05 0.00044766
0.000564361 8.74891e-05 -9.26138e-07
8.74891e-05 3.37239e-05 -2.40581e-08
-9.26138e-07 -2.40581e-08 -4.21617e-05
0.00195459 -9.12731e-05 -1.61488e-06
-9.12731e-05 1.06485e-05 -1.86986e-07
-1.61488e-06 -1.86986e-07 7.41356e-06
0.00198152 -0.000231126 -2.35512e-07
-0.000231126 2.6294e-05 5.80132e-08
-2.35512e-07 5.80132e-08 1.48257e-05
0.00188136 -0.000309386 -1.13381e-06
-0.000309386 1.22717e-05 2.14217e-06
-1.13381e-06 2.14217e-06 -3.78396e-05
0.000406423 -0.000289753 -3.31145e-06
-0.000289753 -0.000267956 9.17102e-06
-3.31145e-06 9.17102e-06 -0.000553341
0.00208307 -0.00056775 3.68093e-06
-0.00056775 0.000598099 4.8395e-06
3.68093e-06 4.8395e-06 0.000211734
0.00151422 -0.000513008 9.36713e-07
-0.000513008 7.97549e-05 -8.68641e-06
9.36713e-07 -8.68641e-06 -0.00020604
0.00222032 -0.00049015 -2.49806e-06
-0.00049015 0.000243396 -1.3825e-06
-2.49806e-06 -1.3825e-06 0.000108326
0.00201368 -0.000365036 1.8755e-05
-0.000365036 0.000716496 -1.98562e-07
1.8755e-05 -1.98562e-07 0.000472756
0.00037889 -0.000181374 1.41597e-05
-0.000181374 -3.98636e-05 -4.61457e-06
1.41597e-05 -4.61457e-06 -0.000293478
0.00117831 -0.000113933 2.59816e-06
-0.000113933 0.000401336 -2.25574e-06
2.59816e-06 -2.25574e-06 0.000196372
0.000571146 5.62688e-06 -4.07628e-07
5.62688e-06 8.64244e-07 1.38064e-06
-4.07628e-07 1.38064e-06 -4.08369e-05
0.000863115 -2.07752e-05 2.61545e-06
-2.07752e-05 0.000234646 -1.73167e-06
2.61545e-06 -1.73167e-06 5.59949e-05
0.000871569 -3.32838e-05 2.73313e-06
-3.32838e-05 0.000234657 -9.90416e-07
2.73313e-06 -9.90416e-07 0.000142135
0.000862647 -2.86868e-05 2.00757e-06
-2.86868e-05 0.000240127 -1.67341e-06
2.00757e-06 -1.67341e-06 9.43355e-05
0.00034722 -3.09076e-05 -2.41584e-06
-3.09076e-05 -0.000118439 7.04808e-07
-2.41584e-06 7.04808e-07 -0.000187381
0.00199038 -0.000119079 -3.47001e-07
-0.000119079 -6.501e-05 1.97436e-07
-3.47001e-07 1.97436e-07 -4.93483e-05
0.000463985 3.6328e-05 -7.41242e-08
3.6328e-05 -2.42369e-05 -1.48129e-06
-7.41242e-08 -1.48129e-06 -0.000105894
0.000626084 -5.39005e-05 1.12857e-06
-5.39005e-05 6.628e-05 5.27588e-07
1.12857e-06 5.27588e-07 -1.16834e-05
0.000790327 -7.03641e-05 3.52192e-07
-7.03641e-05 0.000162659 7.42127e-07
3.52192e-07 7.42127e-07 6.60825e-05
0.00197379 -0.000293557 1.34731e-06
-0.000293557 -5.74149e-05 -2.24311e-07
1.34731e-06 -2.24311e-07 -3.37071e-06
0.00208404 -0.000428601 1.3846e-07
-0.000428601 6.21643e-05 -5.77539e-07
1.3846e-07 -5.77539e-07 -5.70669e-06
0.00114797 -0.000352598 8.18194e-06
-0.000352598 0.000180534 -6.52707e-07
8.18194e-06 -6.52707e-07 -0.000123833
0.00221557 -0.000626854 7.14276e-06
-0.000626854 0.000639748 -1.70954e-07
7.14276e-06 -1.70954e-07 0.000243909
0.00198116 -0.000578227 -1.25095e-06
-0.000578227 0.000228076 1.59796e-06
-1.25095e-06 1.59796e-06 4.49972e-05
0.000406328 -1.62354e-05 -5.35351e-07
-1.62354e-05 -3.67265e-05 -3.79292e-07
-5.35351e-07 -3.79292e-07 -0.000160323
0.000848592 -8.48756e-05 -1.88881e-06
-8.48756e-05 0.000223285 6.31927e-07
-1.88881e-06 6.31927e-07 6.77818e-05
0.000733998 -0.000363141 -7.01798e-06
-0.000363141 -3.73666e-06 -4.70154e-07
-7.01798e-06 -4.70154e-07 -0.000278593
0.000514936 -0.000122203 -4.12911e-08
-0.000122203 0.000119449 -1.93842e-06
-4.12911e-08 -1.93842e-06 -0.000220131
0.000725999 -6.90788e-05 -9.09959e-09
-6.90788e-05 9.10402e-05 5.18512e-07
-9.09959e-09 5.18512e-07 -8.41457e-05
0.00237454 -0.000237678 -3.86171e-06
-0.000237678 0.000144153 -1.53252e-06
-3.86171e-06 -1.53252e-06 0.00016461
0.00179936 -0.000311203 -1.29972e-05
-0.000311203 -0.000185162 2.61238e-06
-1.29972e-05 2.61238e-06 -9.30927e-05
0.0023627 -0.000586783 -1.12818e-05
-0.000586783 0.000261249 -9.71742e-07
-1.12818e-05 -9.71742e-07 0.000114898
0.00297335 -0.000706007 -2.3472e-05
-0.000706007 0.000893505 4.27187e-07
-2.3472e-05 4.27187e-07 0.000642885
0.0011974 -0.000404283 -2.44597e-05
-0.000404283 0.00025119 -2.72601e-06
-2.44597e-05 -2.72601e-06 -6.30996e-05
0.000387516 -4.30195e-06 1.36133e-06
-4.30195e-06 -6.94175e-05 2.46598e-07
1.36133e-06 2.46598e-07 -0.000167511
0.000451668 3.31118e-05 5.37682e-07
3.31118e-05 -5.05219e-05 1.89464e-06
5.37682e-07 1.89464e-06 -0.000149069
0.000234709 -9.25828e-06 -2.76564e-07
-9.25828e-06 -0.000159426 -1.0552e-06
-2.76564e-07 -1.0552e-06 -0.000264774
0.00151138 -0.000183351 -4.79134e-06
-0.000183351 0.000639577 8.21715e-06
-4.79134e-06 8.21715e-06 0.000489808
0.000554938 -6.52746e-05 -2.64283e-06
-6.52746e-05 2.20452e-05 9.06061e-06
-2.64283e-06 9.06061e-06 -0.000123198
-0.000313505 -9.10557e-05 7.57521e-07
-9.10557e-05 -0.00025732 5.02757e-06
7.57521e-07 5.02757e-06 -0.000641787
-0.000212582 -0.00042272 -1.37269e-07
-0.00042272 -0.000294363 -7.38683e-07
-1.37269e-07 -7.38683e-07 -0.00073794
0.000899058 0.000118152 2.42803e-07
0.000118152 0.000261535 -4.6895e-06
2.42803e-07 -4.6895e-06 0.000120831
0.000308408 0.000106207 -2.86965e-06
0.000106207 -0.000109473 -1.47175e-06
-2.86965e-06 -1.47175e-06 -0.000296117
0.0021722 0.00024122 7.40703e-06
0.00024122 2.3799e-05 3.27118e-07
7.40703e-06 3.27118e-07 4.53388e-05
0.00219275 0.000408672 1.46638e-05
0.000408672 0.000200231 4.05798e-06
1.46638e-05 4.05798e-06 9.80506e-05
0.00227731 0.000531892 1.37646e-05
0.000531892 0.000398342 3.93419e-06
1.37646e-05 3.93419e-06 0.000156182
0.0012023 0.000317155 -7.08219e-07
0.000317155 0.000240168 -1.20621e-06
-7.08219e-07 -1.20621e-06 -1.06539e-05
0.00167326 0.000460085 1.33854e-06
0.000460085 0.000338839 1.58767e-06
1.33854e-06 1.58767e-06 1.93479e-05
0.00148445 0.000157907 2.80645e-08
0.000157907 0.000595775 1.1152e-07
2.80645e-08 1.1152e-07 0.000439596
0.00241153 0.000269292 -2.62022e-06
0.000269292 0.000263496 9.00578e-07
-2.62022e-06 9.00578e-07 0.000299627
0.00142137 0.000308505 -2.01566e-06
0.000308505 0.000470594 1.06678e-06
-2.01566e-06 1.06678e-06 0.000245736
0.0015355 0.000397332 8.58831e-07
0.000397332 0.000372956 2.10808e-06
8.58831e-07 2.10808e-06 7.78598e-05
0.00206951 0.000531579 -1.42677e-06
0.000531579 0.000163323 -2.6913e-06
-1.42677e-06 -2.6913e-06 6.41294e-06
0.00165782 0.000493251 -3.7407e-06
0.000493251 0.000270714 5.26008e-06
-3.7407e-06 5.26008e-06 -4.06653e-05
0.00243476 0.000561832 5.0996e-05
0.000561832 -9.02599e-05 4.31507e-06
5.0996e-05 4.31507e-06 -0.000393524
0.0010958 0.000218063 -5.56315e-06
0.000218063 0.000385101 -1.60688e-07
-5.56315e-06 -1.60688e-07 0.000202221
0.00327563 0.000476959 -6.57818e-05
0.000476959 0.000870948 -2.84236e-05
-6.57818e-05 -2.84236e-05 0.000823554
0.00109925 0.000308347 -3.70122e-06
0.000308347 0.000191081 -1.80577e-06
-3.70122e-06 -1.80577e-06 -2.89505e-05
0.000266288 0.000297609 -1.21454e-06
0.000297609 -0.000352837 -6.55591e-06
-1.21454e-06 -6.55591e-06 -0.000637389
0.00053244 0.000491296 -2.27891e-05
0.000491296 -0.000507156 -5.25814e-06
-2.27891e-05 -5.25814e-06 -0.000697686
0.0115623 0.000415197 -0.000250151
0.000415197 0.00237411 -5.82566e-05
-0.000250151 -5.82566e-05 0.00149738
0.0060743 0.00099592 0.000114885
0.00099592 0.000649784 -4.50897e-05
0.000114885 -4.50897e-05 0.000561622
-0.000103987 0.000661535 9.45456e-06
0.000661535 -0.000874832 4.82748e-06
9.45456e-06 4.82748e-06 -0.00118504
-0.00361801 -0.000989515 0.000573346
-0.000989515 -0.000273697 9.70754e-05
0.000573346 9.70754e-05 -0.00205515
0.0111439 -0.0036171 -2.66609e-05
-0.0036171 0.00292202 2.84562e-05
-2.66609e-05 2.84562e-05 0.00374671
0.000338107 6.36039e-05 4.40198e-06
6.36039e-05 -6.76526e-05 7.50949e-07
4.40198e-06 7.50949e-07 -0.000156147
0.000924854 6.29271e-05 1.36279e-06
6.29271e-05 0.000269232 -1.02837e-06
1.36279e-06 -1.02837e-06 0.00018323
0.00126377 0.000140504 -1.40023e-06
0.000140504 0.000476531 -7.96081e-08
-1.40023e-06 -7.96081e-08 0.00036842
0.00057685 -6.22135e-05 -2.72573e-07
-6.22135e-05 6.1078e-05 -2.17375e-06
-2.72573e-07 -2.17375e-06 -4.59792e-05
0.000575602 5.89657e-05 -1.48875e-06
5.89657e-05 4.5569e-05 -2.06895e-06
-1.48875e-06 -2.06895e-06 -7.79676e-05
0.00071819 -2.20345e-05 -3.23609e-07
-2.20345e-05 0.00013375 -5.87382e-07
-3.23609e-07 -5.87382e-07 7.26755e-06
0.000786342 3.97072e-05 -2.92825e-06
3.97072e-05 0.000147528 3.97901e-06
-2.92825e-06 3.97901e-06 4.73592e-05
0.00053686 4.01401e-05 -1.44264e-06
4.01401e-05 -6.34439e-06 3.22339e-06
-1.44264e-06 3.22339e-06 -7.88646e-05
0.000796552 9.23693e-05 -1.86579e-06
9.23693e-05 0.00018648 -5.98392e-07
-1.86579e-06 -5.98392e-07 4.90894e-05
0.000516033 -1.0038e-05 6.38321e-08
-1.0038e-05 6.52894e-06 7.47336e-07
6.38321e-08 7.47336e-07 -9.4501e-05
0.000647033 1.86433e-05 2.70812e-07
1.86433e-05 9.73445e-05 2.15744e-07
2.70812e-07 2.15744e-07 -3.7405e-05
0.000667049 5.15918e-05 6.8347e-07
5.15918e-05 6.95728e-05 -7.71729e-07
6.8347e-07 -7.71729e-07 -8.68495e-06
0.000814109 6.72353e-05 -1.11841e-06
6.72353e-05 0.000172817 -2.14507e-07
-1.11841e-06 -2.14507e-07 4.7779e-05
0.00130544 0.000121466 -1.57038e-06
0.000121466 0.000475854 -1.28544e-06
-1.57038e-06 -1.28544e-06 0.000343445
0.000367363 6.15988e-05 6.22165e-07
6.15988e-05 -7.30148e-05 -3.18665e-06
6.22165e-07 -3.18665e-06 -0.0001896
0.000742492 8.55657e-05 1.8439e-06
8.55657e-05 0.000138565 8.53115e-07
1.8439e-06 8.53115e-07 8.8804e-06
0.000549773 -2.52665e-05 1.34274e-06
-2.52665e-05 2.49626e-05 8.0922e-08
1.34274e-06 8.0922e-08 -9.98936e-05
0.000405067 -5.70352e-05 -1.19739e-06
-5.70352e-05 -6.25356e-05 2.28919e-06
-1.19739e-06 2.28919e-06 -0.000165947
0.000761608 -9.66282e-06 -4.15579e-07
-9.66282e-06 0.000163809 1.95182e-07
-4.15579e-07 1.95182e-07 3.41559e-05
0.000880481 3.07831e-05 1.76812e-07
3.07831e-05 0.000239504 -3.86711e-06
1.76812e-07 -3.86711e-06 0.000112309
0.000646215 -3.18827e-05 -6.11772e-07
-3.18827e-05 0.000106429 2.99576e-07
-6.11772e-07 2.99576e-07 -1.66363e-05
0.000790187 -2.97958e-05 1.31162e-06
-2.97958e-05 0.000190104 -6.48511e-07
1.31162e-06 -6.48511e-07 6.28697e-05
0.00066483 -9.4498e-05 -2.4234e-06
-9.4498e-05 9.53722e-05 1.77379e-06
-2.4234e-06 1.77379e-06 -5.30706e-06
0.000404887 -1.49982e-05 1.69272e-07
-1.49982e-05 -6.1904e-05 9.2427e-07
1.69272e-07 9.2427e-07 -0.00016543
0.000563876 -2.85446e-05 -1.70628e-06
-2.85446e-05 1.09697e-05 2.70317e-06
-1.70628e-06 2.70317e-06 -4.79756e-05
0.000561016 -2.39434e-05 1.25587e-06
-2.39434e-05 1.52712e-05 3.1609e-08
1.25587e-06 3.1609e-08 -4.637e-05
0.000550562 5.64879e-06 4.47637e-07
5.64879e-06 -1.98305e-05 5.75585e-06
4.47637e-07 5.75585e-06 -3.82103e-05
0.000561475 2.61615e-05 -1.20547e-06
2.61615e-05 1.30918e-05 -2.46218e-06
-1.20547e-06 -2.46218e-06 -4.61997e-05
0.000515107 7.47371e-06 4.41774e-07
7.47371e-06 -4.15518e-05 1.56823e-08
4.41774e-07 1.56823e-08 -5.95229e-05
0.00241019 -1.45052e-06 -7.87696e-07
-1.45052e-06 0.00109643 5.33164e-06
-7.87696e-07 5.33164e-06 0.00111115
0.000567386 8.39609e-06 -1.35398e-06
8.39609e-06 -1.23232e-05 -5.95673e-06
-1.35398e-06 -5.95673e-06 -3.01721e-05
0.00162609 -9.81778e-06 -9.88401e-09
-9.81778e-06 0.00062188 9.49345e-08
-9.88401e-09 9.49345e-08 0.000632414
0.000773516 -1.45921e-05 2.84496e-07
-1.45921e-05 0.00010451 -2.16612e-06
2.84496e-07 -2.16612e-06 0.000111833
0.0005777 -1.60601e-05 9.92668e-07
-1.60601e-05 7.45413e-06 -1.2198e-06
9.92668e-07 -1.2198e-06 -3.10081e-05
0.000607636 -2.47043e-05 3.79417e-07
-2.47043e-05 2.34837e-05 -5.36221e-08
3.79417e-07 -5.36221e-08 -1.72092e-05
0.000570406 1.39773e-05 5.59864e-07
1.39773e-05 -2.06298e-05 -3.03506e-06
5.59864e-07 -3.03506e-06 -2.84737e-05
0.000576662 -1.87966e-05 -1.38586e-06
-1.87966e-05 9.67002e-07 1.1637e-06
-1.38586e-06 1.1637e-06 -3.95467e-05
0.000837262 2.60247e-05 -5.0589e-08
2.60247e-05 0.000143029 -7.16046e-07
-5.0589e-08 -7.16046e-07 0.000135304
0.00202614 4.30381e-05 1.01122e-05
4.30381e-05 0.000869723 -4.27972e-06
1.01122e-05 -4.27972e-06 0.00088587
0.00053955 3.10159e-05 -3.91998e-07
3.10159e-05 -3.238e-05 3.35753e-06
-3.91998e-07 3.35753e-06 -4.49489e-05
0.00215971 6.03445e-05 -7.00885e-06
6.03445e-05 0.000957666 1.10881e-06
-7.00885e-06 1.10881e-06 0.000970546
0.00228079 7.99643e-05 -1.43828e-05
7.99643e-05 0.00103794 4.12125e-06
-1.43828e-05 4.12125e-06 0.00104667
0.00204232 0.000137948 -2.71331e-06
0.000137948 1.60422e-05 -7.15542e-07
-2.71331e-06 -7.15542e-07 1.26226e-05
0.00192913 -7.54866e-08 -1.37027e-06
-7.54866e-08 -1.38408e-06 2.32253e-07
-1.37027e-06 2.32253e-07 1.26973e-06
0.0017045 6.00035e-05 7.57347e-06
6.00035e-05 -0.000199274 1.18189e-06
7.57347e-06 1.18189e-06 -0.000164365
0.00227624 0.000283394 4.55313e-05
0.000283394 -0.000690848 1.00826e-05
4.55313e-05 1.00826e-05 -0.000477884
0.00203205 -1.28854e-05 -2.14841e-06
-1.28854e-05 -3.29495e-05 -1.03299e-06
-2.14841e-06 -1.03299e-06 -4.85773e-06
0.00193959 5.6426e-05 3.39636e-06
5.6426e-05 0.000124787 -4.52331e-06
3.39636e-06 -4.52331e-06 0.000203656
0.00297453 -2.01135e-05 -2.88318e-05
-2.01135e-05 0.000780559 4.44082e-06
-2.88318e-05 4.44082e-06 0.000762532
0.00186821 -3.27417e-06 3.4792e-05
-3.27417e-06 -0.00165752 -3.18525e-05
3.4792e-05 -3.18525e-05 -0.00132389
0.00248371 0.000107978 4.81738e-05
0.000107978 -0.000241985 2.79673e-05
4.81738e-05 2.79673e-05 -2.0037e-05
0.00060726 7.29585e-05 1.55804e-07
7.29585e-05 6.26612e-05 -3.75778e-07
1.55804e-07 -3.75778e-07 -1.62712e-05
0.000628499 -8.01275e-06 5.47965e-07
-8.01275e-06 7.78119e-05 -1.9586e-07
5.47965e-07 -1.9586e-07 -3.41611e-06
0.000590723 -9.81471e-05 -1.28174e-06
-9.81471e-05 5.57447e-05 1.34937e-06
-1.28174e-06 1.34937e-06 -4.0272e-05
0.000570708 -4.34644e-05 -1.39043e-06
-4.34644e-05 6.58116e-05 1.15261e-06
-1.39043e-06 1.15261e-06 -4.02194e-05
0.00203282 -0.000132315 -3.35658e-06
-0.000132315 -6.15005e-05 3.64593e-07
-3.35658e-06 3.64593e-07 -3.09759e-05
0.00200252 -0.000291572 8.05023e-07
-0.000291572 -2.11696e-05 -6.66518e-07
8.05023e-07 -6.66518e-07 1.76111e-05
0.00210788 -0.000427327 -1.97538e-06
-0.000427327 8.26446e-05 1.67204e-06
-1.97538e-06 1.67204e-06 1.56244e-05
0.00262426 -0.000512398 1.25254e-05
-0.000512398 0.00101027 2.07992e-06
1.25254e-05 2.07992e-06 0.000689857
0.00099123 -0.000514682 1.17954e-05
-0.000514682 -3.28719e-05 -3.42899e-06
1.17954e-05 -3.42899e-06 -0.000408375
0.00236797 -0.000603239 7.73133e-06
-0.000603239 0.000460447 -3.31587e-06
7.73133e-06 -3.31587e-06 0.000265788
0.00134557 -0.000408832 -3.28327e-06
-0.000408832 0.000359604 3.50809e-06
-3.28327e-06 3.50809e-06 5.08819e-05
0.00210042 -0.000160116 2.17409e-06
-0.000160116 0.000950994 -4.30667e-07
2.17409e-06 -4.30667e-07 0.000682078
0.0001495 -6.55747e-05 6.32488e-07
-6.55747e-05 -0.000258151 -1.35252e-06
6.32488e-07 -1.35252e-06 -0.000420035
0.000671374 -4.34736e-05 -1.06091e-08
-4.34736e-05 9.36403e-05 9.37403e-07
-1.06091e-08 9.37403e-07 1.6643e-05
0.000682056 -9.41182e-05 1.23198e-06
-9.41182e-05 0.000135377 -4.03351e-06
1.23198e-06 -4.03351e-06 -3.026e-05
0.000738569 -5.52141e-06 1.32986e-06
-5.52141e-06 0.000165479 -1.87432e-06
1.32986e-06 -1.87432e-06 4.09713e-05
0.000631062 6.20314e-06 1.24966e-07
6.20314e-06 8.25941e-05 -3.24619e-07
1.24966e-07 -3.24619e-07 -2.09238e-06
0.000539784 -9.6862e-06 -4.05652e-06
-9.6862e-06 1.07187e-05 2.31995e-06
-4.05652e-06 2.31995e-06 -8.18126e-05
0.00235695 -0.000221754 1.44376e-06
-0.000221754 0.00014119 7.7853e-07
1.44376e-06 7.7853e-07 0.000175841
0.000625546 -1.6484e-05 1.02732e-06
-1.6484e-05 8.5925e-05 -9.89493e-08
1.02732e-06 -9.89493e-08 -2.08881e-05
0.000712033 -2.60892e-06 2.99047e-06
-2.60892e-06 0.000116867 -3.24044e-07
2.99047e-06 -3.24044e-07 1.25904e-05
0.000259527 2.06635e-05 3.41374e-07
2.06635e-05 -0.000143488 1.16924e-06
3.41374e-07 1.16924e-06 -0.00023263
0.00179179 -0.000315427 -6.58325e-07
-0.000315427 -0.000215825 -1.53392e-06
-6.58325e-07 -1.53392e-06 -0.000128528
0.00211613 -0.000560767 1.72304e-06
-0.000560767 0.0001409 -5.43972e-07
1.72304e-06 -5.43972e-07 4.10539e-06
0.00171588 -0.000489521 -1.63571e-06
-0.000489521 0.000534072 6.63187e-07
-1.63571e-06 6.63187e-07 0.000208786
0.00214836 -0.000640969 -5.98593e-06
-0.000640969 0.000448065 1.884e-06
-5.98593e-06 1.884e-06 0.000203049
0.00111675 -8.64486e-05 -1.0081e-06
-8.64486e-05 0.000381492 6.21827e-07
-1.0081e-06 6.21827e-07 0.000242564
0.000442413 -6.92438e-05 8.28235e-07
-6.92438e-05 -4.86694e-05 9.7005e-07
8.28235e-07 9.7005e-07 -0.000199572
0.00117257 -0.00051469 4.26528e-06
-0.00051469 0.000488077 -1.62573e-06
4.26528e-06 -1.62573e-06 2.8204e-05
0.00116904 -0.000218785 -2.50454e-07
-0.000218785 0.000485523 -5.32529e-07
-2.50454e-07 -5.32529e-07 0.000152918
0.00249199 -0.000275739 -2.57375e-05
-0.000275739 0.000123178 -1.51336e-06
-2.57375e-05 -1.51336e-06 0.00026586
0.00238013 -0.00045573 -3.23612e-05
-0.00045573 0.000180713 7.22572e-06
-3.23612e-05 7.22572e-06 0.000204093
0.00280097 -0.000718658 -1.24768e-05
-0.000718658 0.000616311 -4.97277e-06
-1.24768e-05 -4.97277e-06 0.000386865
0.00171345 -0.000555407 -1.16231e-05
-0.000555407 0.000399547 2.09892e-06
-1.16231e-05 2.09892e-06 0.000168643
0.000488374 -1.99577e-05 -1.22147e-06
-1.99577e-05 2.12269e-05 -1.81027e-06
-1.22147e-06 -1.81027e-06 -0.00010084
0.000456654 -8.21623e-05 -1.38103e-06
-8.21623e-05 -1.11065e-05 -5.16887e-06
-1.38103e-06 -5.16887e-06 -0.000145482
0.000370677 -0.000129694 -4.26122e-06
-0.000129694 5.74428e-05 1.46567e-05
-4.26122e-06 1.46567e-05 -0.000152256
-0.000500847 -0.000267907 -5.02999e-06
-0.000267907 -0.000191387 -8.42129e-06
-5.02999e-06 -8.42129e-06 -0.000753106
0.00119597 -0.000453081 2.90303e-05
-0.000453081 -0.00354599 -3.4827e-06
2.90303e-05 -3.4827e-06 -0.00373105
0.00163344 0.000147094 4.10336e-07
0.000147094 0.000670592 -4.15911e-06
4.10336e-07 -4.15911e-06 0.000522836
0.000829901 0.000235171 1.93018e-06
0.000235171 0.00012047 2.48445e-06
1.93018e-06 2.48445e-06 -9.23248e-05
0.00210918 0.000237214 5.76473e-05
0.000237214 0.000109474 1.21322e-05
5.76473e-05 1.21322e-05 0.000151476
0.00200058 0.000517614 1.93696e-05
0.000517614 0.00011773 6.43116e-06
1.93696e-05 6.43116e-06 -2.58098e-05
0.00207838 0.000535921 8.70032e-06
0.000535921 0.000519026 8.83751e-06
8.70032e-06 8.83751e-06 0.000194785
0.00115341 0.000361175 6.23596e-06
0.000361175 0.0001798 4.72303e-06
6.23596e-06 4.72303e-06 -0.000122272
0.00350339 0.000679458 8.33647e-05
0.000679458 0.00016985 3.45546e-05
8.33647e-05 3.45546e-05 -0.000239189
0.0012648 0.00020355 4.23679e-06
0.00020355 0.000486575 7.40603e-07
4.23679e-06 7.40603e-07 0.000307618
0.00248985 0.000429622 -9.78082e-06
0.000429622 0.000414062 -7.20819e-07
-9.78082e-06 -7.20819e-07 0.000394079
0.001129 0.000312058 1.41872e-06
0.000312058 0.000230788 8.46232e-07
1.41872e-06 8.46232e-07 8.12318e-06
0.00118173 0.0004051 1.94146e-06
0.0004051 0.000162286 -3.11102e-06
1.94146e-06 -3.11102e-06 -0.000139163
0.00133471 0.000553041 -5.82016e-06
0.000553041 -9.06906e-05 -1.12463e-06
-5.82016e-06 -1.12463e-06 -0.000290885
0.00274248 -0.000376442 -0.000139349
-0.000376442 -0.00307333 -4.19395e-05
-0.000139349 -4.19395e-05 -0.00409598
0.00638028 0.000859448 -3.20206e-05
0.000859448 0.000649616 -5.34734e-05
-3.20206e-05 -5.34734e-05 0.000319041
0.000727997 0.000609788 -8.04951e-06
0.000609788 -0.00033411 7.20735e-06
-8.04951e-06 7.20735e-06 -0.000685066
-0.00244884 -0.000786472 0.000242827
-0.000786472 0.00115397 0.000104032
0.000242827 0.000104032 -0.000807122
0.00303148 -0.00360101 -0.000184362
-0.00360101 0.000337261 -0.000191784
-0.000184362 -0.000191784 0.00130857
0.00129822 0.000234736 -7.88787e-06
0.000234736 0.000479854 -2.11257e-06
-7.88787e-06 -2.11257e-06 0.000314602
0.000750399 0.000494902 0.000298226
0.000494902 0.00241913 5.39924e-06
0.000298226 5.39924e-06 0.00109285
0.00107814 -0.00106811 -0.000134721
-0.00106811 0.00308395 -0.000197514
-0.000134721 -0.000197514 0.000430144
0.00268736 0.000670818 -3.49755e-05
0.000670818 0.000501095 -1.03614e-05
-3.49755e-05 -1.03614e-05 0.000499894
0.000672413 0.000186924 -1.55684e-05
0.000186924 -2.13689e-05 -4.66677e-06
-1.55684e-05 -4.66677e-06 -0.000223656
0.000540086 0.000446185 -2.77706e-05
0.000446185 -0.000174093 -1.86173e-05
-2.77706e-05 -1.86173e-05 -0.000466444
0.000215839 0.000638575 3.67562e-05
0.000638575 -0.00066382 7.6529e-05
3.67562e-05 7.6529e-05 -0.000852754
0.0136538 0.00112326 -8.26627e-06
0.00112326 0.00371324 -5.22788e-05
-8.26627e-06 -5.22788e-05 0.00223346
0.00251544 0.00119018 9.08463e-06
0.00119018 0.000283839 -1.01019e-06
9.08463e-06 -1.01019e-06 -0.000736969
0.00485369 -0.00319277 0.000473802
-0.00319277 0.000445504 0.000310921
0.000473802 0.000310921 0.000218313
0.00741128 -0.001622 -4.94954e-05
-0.001622 0.000277831 0.000317018
-4.94954e-05 0.000317018 0.000596132
0.000621949 4.8211e-05 2.67837e-06
4.8211e-05 0.0001099 -2.85891e-06
2.67837e-06 -2.85891e-06 2.30477e-05
0.000707889 0.000105971 4.50119e-06
0.000105971 0.000151757 8.38357e-07
4.50119e-06 8.38357e-07 4.53891e-05
0.00141051 0.000186486 -8.9975e-07
0.000186486 0.000579749 -2.57036e-06
-8.9975e-07 -2.57036e-06 0.000453588
0.00060684 6.15581e-06 8.48161e-07
6.15581e-06 7.95644e-05 -5.46263e-07
8.48161e-07 -5.46263e-07 -3.29679e-05
0.000724559 3.76383e-05 -4.69853e-08
3.76383e-05 0.000141588 -2.02856e-06
-4.69853e-08 -2.02856e-06 8.74763e-06
0.000440591 3.30599e-06 -1.88503e-06
3.30599e-06 -3.87915e-05 -9.19597e-08
-1.88503e-06 -9.19597e-08 -0.000161987
0.000756392 6.9977e-05 -3.25564e-06
6.9977e-05 0.000139872 1.22072e-06
-3.25564e-06 1.22072e-06 1.92493e-05
0.000445548 4.88216e-05 -2.56784e-06
4.88216e-05 -6.86104e-05 -3.20741e-07
-2.56784e-06 -3.20741e-07 -0.000147395
0.000416389 -5.98722e-06 2.14908e-07
-5.98722e-06 -5.06346e-05 7.99585e-07
2.14908e-07 7.99585e-07 -0.000157081
0.000922443 5.5037e-05 6.59483e-07
5.5037e-05 0.000249647 6.33298e-07
6.59483e-07 6.33298e-07 0.000121203
0.000758089 3.43784e-05 4.80119e-07
3.43784e-05 0.000149825 4.90563e-07
4.80119e-07 4.90563e-07 1.8912e-05
0.000682066 1.87891e-05 7.71959e-07
1.87891e-05 0.000120112 -2.8235e-07
7.71959e-07 -2.8235e-07 -1.57498e-05
0.000472837 6.61903e-05 -3.04106e-07
6.61903e-05 -8.07557e-06 -1.07132e-06
-3.04106e-07 -1.07132e-06 -0.000124783
0.0011735 7.78479e-05 -1.23406e-06
7.78479e-05 0.000404791 -2.83932e-06
-1.23406e-06 -2.83932e-06 0.000283302
0.00011216 4.7452e-05 -3.26645e-06
4.7452e-05 -0.000169543 -5.18492e-06
-3.26645e-06 -5.18492e-06 -0.000292371
0.000765078 -8.61017e-05 -2.12016e-07
-8.61017e-05 0.000154407 -2.3815e-07
-2.12016e-07 -2.3815e-07 2.117e-05
0.000752943 -5.90161e-05 -3.76068e-07
-5.90161e-05 0.000170499 -2.54987e-07
-3.76068e-07 -2.54987e-07 3.12683e-05
0.000778246 -2.8776e-05 -3.10749e-07
-2.8776e-05 0.000185287 -3.46032e-07
-3.10749e-07 -3.46032e-07 4.75445e-05
0.000824596 -3.03843e-06 -1.72428e-06
-3.03843e-06 0.000196686 -2.09712e-07
-1.72428e-06 -2.09712e-07 7.79096e-05
0.000735599 3.15142e-05 -3.41181e-06
3.15142e-05 0.000165738 -2.14354e-06
-3.41181e-06 -2.14354e-06 1.67603e-05
0.000736026 -8.01957e-07 1.62117e-06
-8.01957e-07 0.00014533 -2.2439e-06
1.62117e-06 -2.2439e-06 2.83954e-05
1.87282e-05 -2.35825e-05 -3.16548e-07
-2.35825e-05 -0.000283392 -2.47579e-06
-3.16548e-07 -2.47579e-06 -0.000387042
0.000577274 -1.19647e-05 8.02131e-07
-1.19647e-05 3.42232e-05 -8.46469e-08
8.02131e-07 -8.46469e-08 -7.75053e-05
0.000640136 -5.90626e-05 4.11236e-07
-5.90626e-05 7.73758e-05 7.46106e-07
4.11236e-07 7.46106e-07 -2.80776e-05
0.00071195 -5.6924e-05 -2.68198e-07
-5.6924e-05 0.00013883 -3.27951e-08
-2.68198e-07 -3.27951e-08 1.84361e-05
0.000645192 -6.10712e-05 -2.0758e-06
-6.10712e-05 7.02103e-05 1.45461e-06
-2.0758e-06 1.45461e-06 -1.80319e-05
0.000632873 -4.40244e-05 1.40699e-06
-4.40244e-05 7.41406e-05 -7.22586e-07
1.40699e-06 -7.22586e-07 -3.97773e-05
0.000576283 -8.63673e-05 8.45452e-08
-8.63673e-05 3.96412e-05 2.34227e-07
8.45452e-08 2.34227e-07 -6.05154e-05
0.000608949 -2.73829e-05 -2.12606e-06
-2.73829e-05 3.42353e-05 2.96493e-06
-2.12606e-06 2.96493e-06 -2.48249e-05
0.000469234 -5.3805e-06 1.21641e-06
-5.3805e-06 -1.23814e-05 -8.73154e-07
1.21641e-06 -8.73154e-07 -0.000123884
0.000562307 1.87889e-06 1.46405e-06
1.87889e-06 1.52411e-05 4.29323e-09
1.46405e-06 4.29323e-09 -4.65223e-05
0.00139977 5.31515e-06 -3.66049e-06
5.31515e-06 0.000489553 5.69095e-06
-3.66049e-06 5.69095e-06 0.000475633
0.000555522 4.16229e-05 -8.63369e-07
4.16229e-05 1.24268e-05 -2.50765e-06
-8.63369e-07 -2.50765e-06 -4.90521e-05
0.000938164 3.56368e-07 -2.07901e-06
3.56368e-07 0.000213635 8.01344e-07
-2.07901e-06 8.01344e-07 0.000197655
0.000822137 2.90076e-06 -4.24168e-06
2.90076e-06 0.000138532 5.07175e-06
-4.24168e-06 5.07175e-06 0.000145013
0.000520273 -7.45194e-07 7.58742e-07
-7.45194e-07 -3.82078e-05 -3.98098e-06
7.58742e-07 -3.98098e-06 -5.6249e-05
0.00242958 2.43931e-07 4.87662e-06
2.43931e-07 0.00110823 -8.29327e-09
4.87662e-06 -8.29327e-09 0.00112286
0.000853539 -2.40671e-06 -4.44972e-06
-2.40671e-06 0.000156479 -5.20822e-06
-4.44972e-06 -5.20822e-06 0.000163035
0.000567785 6.34997e-05 2.12972e-06
6.34997e-05 4.4735e-05 3.39718e-07
2.12972e-06 3.39718e-07 -4.12135e-05
0.000552046 3.29592e-05 -1.57367e-06
3.29592e-05 -2.06072e-06 -1.70805e-06
-1.57367e-06 -1.70805e-06 -4.23287e-05
0.00056623 -6.17596e-06 1.09849e-06
-6.17596e-06 3.51262e-06 1.84082e-08
1.09849e-06 1.84082e-08 -3.68839e-05
0.000568665 8.29891e-06 4.88331e-07
8.29891e-06 -2.19993e-05 -2.98267e-06
4.88331e-07 -2.98267e-06 -2.91711e-05
0.000598887 -3.9088e-05 -1.70764e-06
-3.9088e-05 2.04375e-05 1.29707e-06
-1.70764e-06 1.29707e-06 -2.20459e-05
0.000538016 1.40322e-05 2.62504e-08
1.40322e-05 -4.07787e-05 -7.55187e-07
2.62504e-08 -7.55187e-07 -4.82987e-05
0.0020069 2.90857e-05 6.82982e-06
2.90857e-05 0.000854457 -4.43563e-06
6.82982e-06 -4.43563e-06 0.000872214
0.0011318 3.27753e-05 -5.97936e-07
3.27753e-05 0.000322031 1.76859e-06
-5.97936e-07 1.76859e-06 0.000315566
0.00147155 3.71837e-05 3.15622e-08
3.71837e-05 0.000534329 1.38733e-06
3.15622e-08 1.38733e-06 0.000546346
0.000882248 4.04563e-05 -1.24745e-05
4.04563e-05 0.000182924 7.1636e-06
-1.24745e-05 7.1636e-06 0.000189021
0.00151691 0.00019379 7.99477e-05
0.00019379 -0.000959182 1.63338e-05
7.99477e-05 1.63338e-05 -0.000774477
0.0019925 -2.64192e-05 1.73771e-06
-2.64192e-05 -3.80344e-05 1.98974e-06
1.73771e-06 1.98974e-06 -1.42611e-05
0.00190019 6.86798e-05 3.60343e-05
6.86798e-05 0.000117056 -1.32816e-05
3.60343e-05 -1.32816e-05 0.000187319
0.00170828 0.000169776 -2.42852e-05
0.000169776 -0.00131304 -1.63594e-05
-2.42852e-05 -1.63594e-05 -0.00075131
0.00192139 7.24041e-05 2.24434e-05
7.24041e-05 -0.000432739 -3.7315e-07
2.24434e-05 -3.7315e-07 -0.000237733
0.00238657 -2.36631e-05 1.39574e-06
-2.36631e-05 0.000373226 -4.06676e-06
1.39574e-06 -4.06676e-06 0.000363693
0.00370693 -0.000120862 -5.92793e-05
-0.000120862 0.000895728 -5.92887e-07
-5.92793e-05 -5.92887e-07 0.000866886
0.00307137 -8.15275e-05 6.66729e-05
-8.15275e-05 0.000309298 8.64664e-06
6.66729e-05 8.64664e-06 0.00032292
0.0108729 -0.000557801 1.50483e-05
-0.000557801 0.00238937 4.30838e-05
1.50483e-05 4.30838e-05 0.000803973
0.01128 0.00250047 0.000581507
0.00250047 0.0049095 -0.000249526
0.000581507 -0.000249526 0.00439855
0.00716152 0.0027675 -3.14778e-05
0.0027675 0.0054286 1.73139e-05
-3.14778e-05 1.73139e-05 0.00521172
0.000404376 -9.30764e-05 1.59949e-06
-9.30764e-05 -4.69038e-05 -1.10999e-07
1.59949e-06 -1.10999e-07 -0.00014503
0.00062342 -1.17075e-05 1.34196e-06
-1.17075e-05 7.41732e-05 -1.67625e-07
1.34196e-06 -1.67625e-07 -6.59407e-06
0.00067975 -8.22406e-05 -1.61061e-06
-8.22406e-05 0.000115157 9.8674e-07
-1.61061e-06 9.8674e-07 2.77948e-05
0.00061172 -4.55521e-05 -1.11471e-07
-4.55521e-05 7.00163e-05 2.97378e-07
-1.11471e-07 2.97378e-07 -2.75165e-05
0.000605304 5.85394e-05 -1.75412e-06
5.85394e-05 8.92714e-05 2.16176e-06
-1.75412e-06 2.16176e-06 -2.56823e-05
0.000555658 0.000118061 1.52395e-06
0.000118061 3.26614e-05 4.67944e-06
1.52395e-06 4.67944e-06 -7.81778e-05
0.000886864 -1.54699e-05 3.08096e-06
-1.54699e-05 0.000254568 8.89896e-07
3.08096e-06 8.89896e-07 0.000140847
0.000546589 -2.77412e-05 -1.22256e-06
-2.77412e-05 3.82656e-05 1.04726e-06
-1.22256e-06 1.04726e-06 -6.2138e-05
0.00226541 -0.000208253 6.41154e-06
-0.000208253 8.81619e-05 2.11982e-06
6.41154e-06 2.11982e-06 0.000139172
0.00181859 -0.000329479 1.07847e-05
-0.000329479 -0.000237891 -2.95462e-06
1.07847e-05 -2.95462e-06 -0.000157414
0.00161618 -0.000517094 7.67896e-06
-0.000517094 -0.000119063 2.31442e-06
7.67896e-06 2.31442e-06 -0.000245303
0.00145786 -0.000484696 1.79392e-05
-0.000484696 0.000376551 -7.2241e-08
1.79392e-05 -7.2241e-08 4.8177e-05
0.00180449 -0.000619448 6.58484e-06
-0.000619448 0.000266534 3.50303e-06
6.58484e-06 3.50303e-06 2.35727e-05
0.00264867 -0.000613818 1.12865e-05
-0.000613818 0.00132343 -2.16985e-06
1.12865e-05 -2.16985e-06 0.000840926
0.00256396 -0.000347678 2.39569e-06
-0.000347678 0.00120749 -3.32984e-06
2.39569e-06 -3.32984e-06 0.000905342
0.000742947 -0.000137003 6.16287e-06
-0.000137003 0.000140652 -6.73602e-06
6.16287e-06 -6.73602e-06 -3.14842e-05
0.000637422 -3.14352e-05 3.24809e-07
-3.14352e-05 7.20816e-05 2.45234e-06
3.24809e-07 2.45234e-06 -2.61179e-05
0.000833985 -5.61318e-05 3.18442e-06
-5.61318e-05 0.000194121 -9.88099e-06
3.18442e-06 -9.88099e-06 6.61416e-05
0.000915251 -2.44128e-05 1.92865e-06
-2.44128e-05 0.000263079 -3.29846e-07
1.92865e-06 -3.29846e-07 0.000152806
0.000690069 8.05284e-05 2.05043e-06
8.05284e-05 0.000117866 1.53013e-06
2.05043e-06 1.53013e-06 3.76269e-05
0.00205171 -0.000260833 -7.51579e-07
-0.000260833 -5.56278e-05 2.31954e-06
-7.51579e-07 2.31954e-06 6.96724e-05
0.000627603 4.52564e-06 -1.67353e-06
4.52564e-06 0.00010551 -1.40266e-07
-1.67353e-06 -1.40266e-07 -1.67214e-05
0.000876676 -0.00010341 -3.2223e-06
-0.00010341 0.000230429 2.45315e-06
-3.2223e-06 2.45315e-06 0.000105887
0.00169913 -0.000430109 2.59203e-06
-0.000430109 -0.000192907 -1.81752e-06
2.59203e-06 -1.81752e-06 -0.000164692
0.00161822 -0.000611135 3.76934e-07
-0.000611135 -1.75038e-05 -2.99247e-07
3.76934e-07 -2.99247e-07 -0.000207598
0.000969735 -0.000486576 -1.12101e-06
-0.000486576 -7.2748e-06 -2.0086e-06
-1.12101e-06 -2.0086e-06 -0.000245682
0.00118492 -0.000187178 2.59759e-07
-0.000187178 0.000506138 -7.06494e-06
2.59759e-07 -7.06494e-06 0.00027544
0.00121161 -0.000341632 -2.18413e-06
-0.000341632 0.000714079 1.76953e-06
-2.18413e-06 1.76953e-06 0.000208795
0.00307282 -0.000397567 -3.69794e-05
-0.000397567 0.000442858 5.20881e-06
-3.69794e-05 5.20881e-06 0.000502745
0.00295247 -0.000629718 -3.99256e-05
-0.000629718 0.000640388 7.42803e-06
-3.99256e-05 7.42803e-06 0.000589845
0.0020095 -0.000699946 -1.30807e-05
-0.000699946 0.000277559 -5.31226e-07
-1.30807e-05 -5.31226e-07 8.19993e-05
0.000398365 -0.00034589 -1.65784e-05
-0.00034589 -0.000148561 1.52342e-05
-1.65784e-05 1.52342e-05 -0.000359012
0.000655801 -0.000140949 1.65783e-06
-0.000140949 0.000128294 2.92648e-06
1.65783e-06 2.92648e-06 -2.37971e-05
0.000434689 -0.00012095 3.08302e-06
-0.00012095 4.03934e-05 1.2519e-06
3.08302e-06 1.2519e-06 -0.000135148
0.00119456 -0.000134895 -1.45098e-06
-0.000134895 0.000701831 -4.25073e-06
-1.45098e-06 -4.25073e-06 0.000286901
-0.00554463 -0.000144686 0.000306421
-0.000144686 -0.00410162 1.87738e-06
0.000306421 1.87738e-06 -0.00286919
0.0104271 -0.000169992 2.15942e-05
-0.000169992 0.00251277 1.33418e-06
2.15942e-05 1.33418e-06 0.00199958
0.00156558 0.000184547 6.62999e-06
0.000184547 0.000649862 -4.54957e-06
6.62999e-06 -4.54957e-06 0.000484446
0.00107936 0.000307861 1.66369e-06
0.000307861 0.000223101 -8.11706e-07
1.66369e-06 -8.11706e-07 -8.58625e-07
0.00157737 0.000358993 5.02699e-05
0.000358993 -9.87274e-05 2.56599e-05
5.02699e-05 2.56599e-05 -9.05146e-05
0.00251511 0.000648968 1.74598e-05
0.000648968 0.000525933 6.08528e-06
1.74598e-05 6.08528e-06 0.000311947
0.00241854 0.000544473 1.24223e-05
0.000544473 0.000846162 1.63905e-06
1.24223e-05 1.63905e-06 0.00052609
0.0119392 0.00067978 6.00897e-05
0.00067978 0.00296767 3.1421e-05
6.00897e-05 3.1421e-05 0.00186167
0.00780136 0.00121394 -0.000177626
0.00121394 0.000756548 -6.62641e-06
-0.000177626 -6.62641e-06 0.000518242
0.00127228 0.00056753 3.38748e-06
0.00056753 5.44325e-05 -2.05544e-05
3.38748e-06 -2.05544e-05 -0.000362628
0.011282 -0.00195838 -0.000171314
-0.00195838 0.00502978 5.44356e-06
-0.000171314 5.44356e-06 0.00403662
-0.00611092 -0.00366829 -0.00099183
-0.00366829 -0.00235611 -0.000749127
-0.00099183 -0.000749127 -0.00154622
0.00100219 0.000221529 -5.7171e-07
0.000221529 0.000319402 -9.59659e-07
-5.7171e-07 -9.59659e-07 0.000151768
-0.00244673 -0.00106536 0.000193454
-0.00106536 -0.00244412 3.09014e-05
0.000193454 3.09014e-05 -0.00292604
-0.00327844 -0.000751887 -0.000224101
-0.000751887 0.00221884 -0.000110902
-0.000224101 -0.000110902 -0.00077177
0.00293327 0.000614898 -1.3505e-05
0.000614898 0.000641432 -1.13419e-06
-1.3505e-05 -1.13419e-06 0.00064392
0.000928353 0.000266152 -4.54127e-06
0.000266152 0.000154453 1.73221e-06
-4.54127e-06 1.73221e-06 -7.45203e-05
0.00128258 0.000537381 5.82507e-06
0.000537381 0.000228236 2.29053e-06
5.82507e-06 2.29053e-06 -8.08942e-05
0.00123929 0.000572071 2.34587e-05
0.000572071 3.22682e-05 1.84896e-05
2.34587e-05 1.84896e-05 -3.20908e-05
0.0104681 0.000913705 -8.06435e-05
0.000913705 0.00144628 -3.89881e-05
-8.06435e-05 -3.89881e-05 -0.000474323
0.00579415 0.00172612 -6.87769e-05
0.00172612 0.00119073 -3.50529e-05
-6.87769e-05 -3.50529e-05 0.000514355
0.0125411 -0.00239561 0.000197015
-0.00239561 0.00538623 -4.39595e-05
0.000197015 -4.39595e-05 0.00475959
0.00723404 -0.00205605 0.000178802
-0.00205605 -0.000522395 0.000407883
0.000178802 0.000407883 -0.000100386
0.0017609 0.000225481 -1.7336e-05
0.000225481 0.000767094 -9.66841e-06
-1.7336e-05 -9.66841e-06 0.000618999
-0.00759619 0.000525075 -9.50005e-05
0.000525075 0.00145052 -7.33472e-05
-9.50005e-05 -7.33472e-05 -0.00220437
0.00354504 0.000436548 -0.000223657
0.000436548 0.00227091 -0.000280133
-0.000223657 -0.000280133 -0.00123349
0.00187735 0.000527239 -2.08575e-05
0.000527239 0.000331414 7.72306e-06
-2.08575e-05 7.72306e-06 0.000333351
0.00178593 0.000486248 -5.67372e-05
0.000486248 0.000706686 -1.99946e-05
-5.67372e-05 -1.99946e-05 0.000451018
0.00225461 0.000483595 -6.08981e-05
0.000483595 0.00131685 -5.98832e-06
-6.08981e-05 -5.98832e-06 0.000844915
0.000957979 0.00111246 -5.06422e-05
0.00111246 -0.000137243 -1.87819e-05
-5.06422e-05 -1.87819e-05 -0.000352434
-6.36206e-05 0.00115077 0.000192666
0.00115077 -0.000880904 0.000126522
0.000192666 0.000126522 -0.00381201
0.0115988 -0.00284592 0.00015036
-0.00284592 0.00443864 0.000369221
0.00015036 0.000369221 0.00334339
0.00584942 -0.00107335 -6.76083e-05
-0.00107335 -0.002051 -7.21832e-05
-6.76083e-05 -7.21832e-05 -0.000853145
0.000404551 0.000114859 2.62593e-06
0.000114859 -1.35463e-05 -8.59294e-07
2.62593e-06 -8.59294e-07 -0.000130561
0.00123317 0.000170338 6.95575e-06
0.000170338 0.000463524 3.5666e-06
6.95575e-06 3.5666e-06 0.000341385
-0.000150327 6.10511e-05 4.07416e-06
6.10511e-05 -0.00027593 -9.00061e-06
4.07416e-06 -9.00061e-06 -0.000408217
0.000428882 4.75386e-05 1.4865e-06
4.75386e-05 -4.34482e-05 -5.82346e-07
1.4865e-06 -5.82346e-07 -0.000149686
0.000746506 5.28735e-05 -3.4783e-07
5.28735e-05 0.000165173 -1.22674e-06
-3.4783e-07 -1.22674e-06 2.53917e-05
0.000775526 -9.055e-06 -6.33094e-07
-9.055e-06 0.000160087 1.54501e-06
-6.33094e-07 1.54501e-06 2.88623e-05
0.00070207 1.12812e-05 3.35987e-06
1.12812e-05 0.000128226 3.86057e-07
3.35987e-06 3.86057e-07 -3.31459e-06
0.000376425 5.3741e-05 -7.08718e-07
5.3741e-05 -6.0138e-05 2.26009e-06
-7.08718e-07 2.26009e-06 -0.000175367
0.000756311 4.71434e-05 3.42289e-08
4.71434e-05 0.000173168 -8.39627e-07
3.42289e-08 -8.39627e-07 3.35453e-05
0.000824153 5.41462e-05 1.95149e-07
5.41462e-05 0.000193059 1.33828e-07
1.95149e-07 1.33828e-07 7.23782e-05
0.000777904 -4.441e-05 -7.33465e-07
-4.441e-05 0.000163666 8.35249e-07
-7.33465e-07 8.35249e-07 2.91803e-05
-0.000169154 3.09397e-05 8.36523e-07
3.09397e-05 -0.00031515 5.81539e-07
8.36523e-07 5.81539e-07 -0.000444356
-0.000761963 1.67956e-05 -6.68646e-07
1.67956e-05 -0.000470788 -9.53524e-07
-6.68646e-07 -9.53524e-07 -0.000689588
0.000978873 -1.93499e-06 -4.1513e-06
-1.93499e-06 0.000299001 -5.71785e-06
-4.1513e-06 -5.71785e-06 0.000172797
0.000916649 4.9164e-06 1.95773e-08
4.9164e-06 0.000270901 -5.37391e-08
1.95773e-08 -5.37391e-08 0.00011298
0.000776995 -5.73658e-05 -5.85131e-07
-5.73658e-05 0.000189824 -1.03498e-06
-5.85131e-07 -1.03498e-06 4.80769e-05
0.000855532 -5.09504e-05 2.98521e-07
-5.09504e-05 0.000208115 1.59523e-06
2.98521e-07 1.59523e-06 9.38485e-05
0.000794056 -4.89258e-05 5.54881e-07
-4.89258e-05 0.000189342 -7.21121e-07
5.54881e-07 -7.21121e-07 4.7011e-05
0.000759608 -1.30988e-05 -3.59028e-07
-1.30988e-05 0.00015279 6.00231e-08
-3.59028e-07 6.00231e-08 3.76113e-05
0.000324849 -5.4115e-05 5.81818e-07
-5.4115e-05 -9.05866e-05 1.69128e-06
5.81818e-07 1.69128e-06 -0.000193969
0.000587317 -3.5467e-06 7.49712e-07
-3.5467e-06 4.99666e-05 1.11243e-06
7.49712e-07 1.11243e-06 -6.08895e-05
0.000301408 -2.39309e-06 -3.60995e-06
-2.39309e-06 -8.99274e-05 -3.53465e-06
-3.60995e-06 -3.53465e-06 -0.000219125
8.00204e-05 -4.43959e-05 2.49216e-06
-4.43959e-05 -0.000234861 -1.12371e-06
2.49216e-06 -1.12371e-06 -0.000335096
0.000766159 -4.92119e-05 3.47045e-06
-4.92119e-05 0.000107249 -6.96121e-06
3.47045e-06 -6.96121e-06 1.03115e-05
-8.63343e-05 -4.4596e-05 -3.63034e-07
-4.4596e-05 -0.000385856 1.92129e-06
-3.63034e-07 1.92129e-06 -0.000536164
0.000306638 -5.65643e-06 -1.57747e-06
-5.65643e-06 -0.000117487 -8.59567e-07
-1.57747e-06 -8.59567e-07 -0.000234016
0.000734362 -2.13123e-05 2.07532e-07
-2.13123e-05 0.000125255 1.19134e-07
2.07532e-07 1.19134e-07 1.12825e-05
0.000623479 -2.26145e-05 2.67066e-07
-2.26145e-05 6.44158e-05 9.33241e-07
2.67066e-07 9.33241e-07 -4.03413e-05
0.000713047 -4.15385e-05 -1.59852e-07
-4.15385e-05 0.000135081 -4.44576e-08
-1.59852e-07 -4.44576e-08 1.94998e-05
0.000547449 -3.82826e-06 -3.90842e-07
-3.82826e-06 1.88606e-05 1.30115e-06
-3.90842e-07 1.30115e-06 -7.1684e-05
0.000766358 -3.72949e-05 -2.0896e-07
-3.72949e-05 0.00016845 -2.93936e-07
-2.0896e-07 -2.93936e-07 4.99975e-05
0.000653799 -5.36465e-05 -5.71639e-07
-5.36465e-05 8.5058e-05 1.15086e-07
-5.71639e-07 1.15086e-07 -9.38457e-06
0.000534022 4.01983e-05 -6.51088e-07
4.01983e-05 -1.18345e-05 2.78903e-06
-6.51088e-07 2.78903e-06 -7.22804e-05
0.000495856 -7.57898e-05 1.84099e-06
-7.57898e-05 -1.39761e-05 -1.3524e-06
1.84099e-06 -1.3524e-06 -0.000111802
0.00057682 -1.05412e-05 -4.28508e-07
-1.05412e-05 1.40393e-05 1.7241e-08
-4.28508e-07 1.7241e-08 -4.41246e-05
0.00139591 1.70197e-05 -5.20016e-06
1.70197e-05 0.000484996 5.92226e-06
-5.20016e-06 5.92226e-06 0.000470444
0.000567432 -3.38348e-05 1.19584e-06
-3.38348e-05 1.55812e-05 -2.49724e-06
1.19584e-06 -2.49724e-06 -4.44712e-05
0.000932462 4.30029e-06 -2.99849e-06
4.30029e-06 0.000207338 7.25423e-07
-2.99849e-06 7.25423e-07 0.000191511
0.000759128 1.45181e-05 1.72648e-07
1.45181e-05 9.70544e-05 2.07527e-06
1.72648e-07 2.07527e-06 0.000103669
0.000514369 -4.94121e-06 1.03763e-06
-4.94121e-06 -4.32619e-05 -3.98416e-06
1.03763e-06 -3.98416e-06 -6.10193e-05
0.00243252 1.39396e-05 4.82799e-06
1.39396e-05 0.00111008 6.28646e-08
4.82799e-06 6.28646e-08 0.00112459
0.00242154 1.94e-06 -5.54879e-07
1.94e-06 0.0011034 -5.2717e-06
-5.54879e-07 -5.2717e-06 0.00111803
0.000990199 7.2648e-05 -8.81222e-07
7.2648e-05 0.000294137 -3.43553e-07
-8.81222e-07 -3.43553e-07 0.000209083
0.000573803 4.24084e-05 -1.35691e-06
4.24084e-05 1.48286e-05 -2.00084e-06
-1.35691e-06 -2.00084e-06 -2.87324e-05
0.000615945 -1.10356e-05 5.36175e-07
-1.10356e-05 7.3558e-05 8.65212e-07
5.36175e-07 8.65212e-07 -1.19959e-05
0.000569528 3.71788e-06 4.6973e-07
3.71788e-06 -2.16332e-05 -3.22168e-06
4.6973e-07 -3.22168e-06 -2.87364e-05
0.000564923 -1.55935e-05 1.62351e-07
-1.55935e-05 6.31816e-06 -2.17514e-08
1.62351e-07 -2.17514e-08 -3.44065e-05
0.000594755 -3.93664e-05 -1.45843e-06
-3.93664e-05 2.20045e-05 1.135e-06
-1.45843e-06 1.135e-06 -1.95209e-05
0.000552351 7.76565e-06 -2.73569e-07
7.76565e-06 -3.19023e-05 -2.01865e-08
-2.73569e-07 -2.01865e-08 -3.90018e-05
0.0019926 1.59763e-05 2.23808e-06
1.59763e-05 0.000843399 -4.58348e-06
2.23808e-06 -4.58348e-06 0.000862086
0.00112123 2.13598e-05 -7.00758e-07
2.13598e-05 0.000312747 1.74589e-06
-7.00758e-07 1.74589e-06 0.000308383
0.00137352 2.4585e-05 4.06188e-07
2.4585e-05 0.000470137 -8.72697e-09
4.06188e-07 -8.72697e-09 0.000484577
0.000851016 2.92924e-05 -1.20104e-05
2.92924e-05 0.000158389 6.96715e-06
-1.20104e-05 6.96715e-06 0.000167555
-0.00898788 0.000583537 0.000261659
0.000583537 -0.00381375 -4.2804e-07
0.000261659 -4.2804e-07 -0.00511519
-0.00225441 -5.10197e-05 0.00038819
-5.10197e-05 0.0029804 -5.07516e-05
0.00038819 -5.07516e-05 0.000804174
0.00444349 0.000250319 -0.000227952
0.000250319 -0.000103481 -1.74584e-05
-0.000227952 -1.74584e-05 0.000591276
0.000508262 4.51475e-05 2.6645e-05
4.51475e-05 -0.00111923 -1.98533e-05
2.6645e-05 -1.98533e-05 -0.000992526
0.00146372 -3.35327e-05 1.72923e-05
-3.35327e-05 -0.000242076 2.53453e-06
1.72923e-05 2.53453e-06 -0.000249421
-0.000307078 4.89709e-05 -3.14268e-05
4.89709e-05 -0.000922077 -1.05471e-05
-3.14268e-05 -1.05471e-05 -0.000702153
0.00286174 -0.000161678 -3.22191e-06
-0.000161678 0.000308436 4.77864e-06
-3.22191e-06 4.77864e-06 0.000282667
0.00986574 8.78177e-05 7.8801e-05
8.78177e-05 0.000981185 -3.6384e-05
7.8801e-05 -3.6384e-05 -7.80697e-05
-0.00271652 0.00154633 -1.44951e-05
0.00154633 -0.000523257 -2.44237e-05
-1.44951e-05 -2.44237e-05 -0.00225997
0.000644656 0.00305333 -0.000200581
0.00305333 0.00170816 0.000108513
-0.000200581 0.000108513 0.00207154
0.00194429 -0.000329321 6.78182e-05
-0.000329321 -0.00090833 -1.13297e-05
6.78182e-05 -1.13297e-05 -0.000753026
0.0134453 -0.000735275 0.000131125
-0.000735275 0.00309631 -3.48159e-05
0.000131125 -3.48159e-05 0.00151193
0.00558744 0.00294855 0.000196534
0.00294855 0.000917881 -0.000341927
0.000196534 -0.000341927 0.000893934
0.00911209 0.00209841 -0.000265598
0.00209841 0.00172918 0.000166561
-0.000265598 0.000166561 0.00122024
0.000765611 0.000104861 -2.40866e-06
0.000104861 0.000192215 2.03723e-06
-2.40866e-06 2.03723e-06 5.65561e-05
0.000460242 2.01245e-05 -9.94392e-08
2.01245e-05 -1.95256e-05 -8.04928e-07
-9.94392e-08 -8.04928e-07 -0.000112733
0.000648258 -9.09987e-05 -7.92513e-07
-9.09987e-05 9.48628e-05 7.41427e-07
-7.92513e-07 7.41427e-07 9.43049e-06
0.000550255 -8.25612e-06 1.52393e-06
-8.25612e-06 4.12562e-05 -8.40033e-07
1.52393e-06 -8.40033e-07 -6.07371e-05
0.000608555 5.71707e-05 1.09962e-06
5.71707e-05 9.67212e-05 1.38834e-06
1.09962e-06 1.38834e-06 -1.92982e-05
0.000724171 4.70403e-05 3.61065e-07
4.70403e-05 0.000167356 4.01063e-06
3.61065e-07 4.01063e-06 3.05144e-05
0.000748952 9.10855e-05 1.40213e-06
9.10855e-05 0.000162938 2.05751e-06
1.40213e-06 2.05751e-06 4.32017e-05
0.000580291 2.77133e-05 3.81001e-06
2.77133e-05 4.71142e-05 7.28576e-07
3.81001e-06 7.28576e-07 -7.24994e-05
0.000714435 -2.87428e-05 1.66424e-06
-2.87428e-05 0.000151306 -9.59044e-07
1.66424e-06 -9.59044e-07 3.55314e-05
0.000514467 -8.68823e-06 -3.29403e-08
-8.68823e-06 7.26258e-06 -8.29858e-07
-3.29403e-08 -8.29858e-07 -8.71167e-05
0.00173768 -0.000243224 2.26278e-05
-0.000243224 -0.000153664 5.38816e-08
2.26278e-05 5.38816e-08 -5.22524e-05
0.00124741 -0.00040814 3.00067e-05
-0.00040814 -0.000430071 -5.13115e-06
3.00067e-05 -5.13115e-06 -0.000399943
0.000291664 -0.000485836 1.65395e-05
-0.000485836 -0.000729232 2.93556e-06
1.65395e-05 2.93556e-06 -0.000871263
-4.05722e-05 -0.000396218 8.42981e-06
-0.000396218 -0.000547612 -3.86636e-07
8.42981e-06 -3.86636e-07 -0.000782079
0.00280142 -0.000408062 5.83362e-06
-0.000408062 0.00155443 8.6312e-06
5.83362e-06 8.6312e-06 0.00111032
0.000803855 -0.000233624 5.83272e-06
-0.000233624 0.000284699 -3.25082e-06
5.83272e-06 -3.25082e-06 1.9371e-05
0.00113418 -0.000121702 3.38564e-07
-0.000121702 0.000369551 -8.90567e-07
3.38564e-07 -8.90567e-07 0.000257223
0.000739259 -2.87034e-06 -1.93056e-06
-2.87034e-06 0.000171364 1.61496e-06
-1.93056e-06 1.61496e-06 5.09827e-05
0.00221023 -0.00033771 7.57442e-06
-0.00033771 4.90798e-05 -4.4354e-06
7.57442e-06 -4.4354e-06 0.000127503
0.000631052 -6.69712e-05 -1.88011e-07
-6.69712e-05 0.0001177 -2.02704e-07
-1.88011e-07 -2.02704e-07 -3.98997e-05
0.000192676 -0.00010478 1.00877e-06
-0.00010478 -9.64952e-05 -2.2131e-06
1.00877e-06 -2.2131e-06 -0.000273726
0.00202157 -0.00056558 7.8723e-06
-0.00056558 0.000149237 -1.49534e-06
7.8723e-06 -1.49534e-06 0.000107786
0.00157609 -0.000672374 4.72323e-07
-0.000672374 2.47471e-06 3.05428e-06
4.72323e-07 3.05428e-06 -0.000161475
0.000272341 -0.000380316 9.36941e-06
-0.000380316 -0.000212047 -5.56525e-06
9.36941e-06 -5.56525e-06 -0.000446854
0.00143966 -0.00019943 -1.20364e-06
-0.00019943 0.000817442 -5.99759e-06
-1.20364e-06 -5.99759e-06 0.000423023
0.00240017 -0.000537633 -4.09636e-05
-0.000537633 0.000558856 8.21922e-06
-4.09636e-05 8.21922e-06 0.000262803
0.00168667 -0.000538959 -4.5024e-05
-0.000538959 0.000228535 7.17045e-06
-4.5024e-05 7.17045e-06 0.000140533
0.000700005 -0.000316795 -4.09598e-05
-0.000316795 0.000222786 3.51948e-05
-4.09598e-05 3.51948e-05 -6.56642e-05
-0.000971202 -5.68299e-05 -2.46398e-07
-5.68299e-05 -0.000817257 3.78666e-06
-2.46398e-07 3.78666e-06 -0.000978268
0.000125253 -0.00011165 3.23009e-06
-0.00011165 -0.000140135 3.44178e-06
3.23009e-06 3.44178e-06 -0.00032665
0.000788618 -8.97679e-05 4.69177e-06
-8.97679e-05 0.000337723 2.05288e-06
4.69177e-06 2.05288e-06 6.14795e-05
-0.000473107 0.000460811 -0.000204233
0.000460811 0.00472972 6.97072e-06
-0.000204233 6.97072e-06 0.00225477
0.00146456 -0.000618357 1.26561e-05
-0.000618357 0.00147083 2.63413e-05
1.26561e-05 2.63413e-05 0.0014455
0.00136549 0.000859964 -6.6623e-05
0.000859964 -0.00354492 -4.38512e-06
-6.6623e-05 -4.38512e-06 -0.00388887
0.000449487 0.000173032 5.66831e-06
0.000173032 4.26783e-06 2.1684e-06
5.66831e-06 2.1684e-06 -0.000156285
0.00119579 0.000346456 8.21557e-06
0.000346456 0.000333976 1.26382e-05
8.21557e-06 1.26382e-05 7.97099e-05
0.00316417 0.000544091 3.67751e-05
0.000544091 0.00078982 1.37283e-05
3.67751e-05 1.37283e-05 0.000786016
0.00194127 0.000594674 1.84718e-05
0.000594674 0.000589287 1.51841e-05
1.84718e-05 1.51841e-05 0.000269261
0.00825421 -0.00122024 8.97169e-05
-0.00122024 0.00285707 4.51298e-05
8.97169e-05 4.51298e-05 0.0030356
0.00357697 0.000292156 -0.000197283
0.000292156 -0.00223864 -5.83945e-06
-0.000197283 -5.83945e-06 -0.00411057
0.00324538 0.00157854 -4.85518e-05
0.00157854 -0.000312533 -7.39105e-06
-4.85518e-05 -7.39105e-06 -0.000820979
0.00113642 0.000414849 2.96004e-05
0.000414849 0.000208211 -2.68974e-05
2.96004e-05 -2.68974e-05 0.000197782
-0.00293526 -0.00146613 -0.000177363
-0.00146613 -0.000430539 -0.000188449
-0.000177363 -0.000188449 -0.00135637
-0.000840502 -0.0012507 -0.000185755
-0.0012507 0.00228194 -5.13226e-05
-0.000185755 -5.13226e-05 -0.000744151
0.0121311 -0.00259763 0.000309697
-0.00259763 0.00207254 0.000208976
0.000309697 0.000208976 0.00260883
0.000651441 0.000158756 8.68274e-06
0.000158756 0.000139629 -2.69061e-06
8.68274e-06 -2.69061e-06 -1.28232e-05
-0.00275712 0.000191115 -0.000111867
0.000191115 0.00286376 -2.76134e-05
-0.000111867 -2.76134e-05 -0.000194631
0.0039561 0.000501905 -2.63305e-05
0.000501905 0.00216217 -0.000102778
-2.63305e-05 -0.000102778 -0.00149399
0.00133744 0.000493037 -3.48866e-06
0.000493037 9.80491e-05 4.8461e-06
-3.48866e-06 4.8461e-06 6.26886e-05
0.00055034 0.000341563 6.26683e-06
0.000341563 8.79506e-05 2.89237e-06
6.26683e-06 2.89237e-06 -0.000175194
-0.000356408 0.000398428 4.83873e-06
0.000398428 -0.000174509 -4.34313e-05
4.83873e-06 -4.34313e-05 -0.000518902
0.00474075 0.00176496 -6.45368e-06
0.00176496 0.00164328 7.98348e-06
-6.45368e-06 7.98348e-06 0.00113035
0.0137231 0.00141793 7.19269e-05
0.00141793 0.00451445 2.5043e-05
7.19269e-05 2.5043e-05 0.00241669
0.00523922 -0.00184242 4.0084e-05
-0.00184242 0.000405766 -5.52496e-05
4.0084e-05 -5.52496e-05 -0.000895761
0.0109194 -0.00151362 -1.61699e-06
-0.00151362 0.00144153 -4.50719e-05
-1.61699e-06 -4.50719e-05 0.00271194
0.000475764 0.000224028 -7.23346e-06
0.000224028 8.58827e-05 -1.26544e-05
-7.23346e-06 -1.26544e-05 -6.23994e-05
0.00295356 0.000136261 -0.00016634
0.000136261 0.00129404 -2.90503e-05
-0.00016634 -2.90503e-05 -0.00104437
4.81259e-05 0.000177583 -3.37668e-05
0.000177583 -4.43634e-05 -0.000111617
-3.37668e-05 -0.000111617 -0.00156817
-0.00095926 0.000115778 -7.97982e-06
0.000115778 -0.000428178 -1.76764e-05
-7.97982e-06 -1.76764e-05 -0.000606938
0.000879606 0.000364234 -5.91148e-05
0.000364234 0.000991052 3.53184e-05
-5.91148e-05 3.53184e-05 0.000257682
0.0106392 0.0019092 4.80455e-05
0.0019092 0.00406438 -4.01954e-07
4.80455e-05 -4.01954e-07 0.00074208
-0.00653408 -0.00266305 -3.62391e-05
-0.00266305 -0.00308577 0.000160601
-3.62391e-05 0.000160601 -0.0057792
0.00886532 0.000535171 2.96636e-05
0.000535171 -0.00119286 -0.000219418
2.96636e-05 -0.000219418 0.00110952
0.000861886 0.000132632 1.01712e-06
0.000132632 0.000224402 8.5661e-06
1.01712e-06 8.5661e-06 0.000112261
0.000963074 0.000158575 -6.29531e-06
0.000158575 0.000380661 -1.35143e-06
-6.29531e-06 -1.35143e-06 0.000241249
0.000408912 0.000101159 -1.28211e-06
0.000101159 0.000219023 -6.99043e-06
-1.28211e-06 -6.99043e-06 1.0463e-06
0.000737968 8.05768e-05 -2.50178e-06
8.05768e-05 0.000151 -1.56351e-06
-2.50178e-06 -1.56351e-06 1.97412e-05
0.000842505 -3.11548e-05 -7.2386e-07
-3.11548e-05 0.000211836 2.02049e-06
-7.2386e-07 2.02049e-06 7.02191e-05
0.00050402 3.91422e-05 1.69649e-06
3.91422e-05 -2.16559e-06 2.28663e-06
1.69649e-06 2.28663e-06 -0.00012259
-0.000372733 2.11576e-05 1.45694e-06
2.11576e-05 -0.000414844 4.25971e-06
1.45694e-06 4.25971e-06 -0.000548457
0.000782981 -9.78816e-06 1.11999e-06
-9.78816e-06 0.000171007 1.52869e-07
1.11999e-06 1.52869e-07 2.83896e-05
0.000799293 2.5102e-05 1.27282e-07
2.5102e-05 0.000196999 -1.28062e-06
1.27282e-07 -1.28062e-06 6.79147e-05
0.00021256 -5.74625e-06 9.43685e-07
-5.74625e-06 9.87021e-05 2.25383e-06
9.43685e-07 2.25383e-06 -0.000118736
-0.000869979 1.68125e-05 -1.30429e-06
1.68125e-05 -0.000290645 3.00885e-06
-1.30429e-06 3.00885e-06 -0.000620711
0.000744024 3.25514e-06 -2.41008e-06
3.25514e-06 0.000360866 -6.11716e-06
-2.41008e-06 -6.11716e-06 0.000168832
0.000886147 3.24234e-05 -1.42349e-06
3.24234e-05 0.00024076 -3.75327e-06
-1.42349e-06 -3.75327e-06 0.000100167
0.000877542 -0.000117439 1.04372e-06
-0.000117439 0.000226607 5.06958e-07
1.04372e-06 5.06958e-07 9.12019e-05
0.00072111 -1.47809e-05 -1.66129e-07
-1.47809e-05 0.000122982 -2.72508e-07
-1.66129e-07 -2.72508e-07 1.06593e-05
0.00053075 -6.38467e-05 -8.5264e-07
-6.38467e-05 4.10937e-05 4.09156e-06
-8.5264e-07 4.09156e-06 -5.8981e-05
0.000424046 -2.69029e-05 2.06646e-06
-2.69029e-05 -2.92684e-05 2.01705e-06
2.06646e-06 2.01705e-06 -0.000150458
0.000693196 -1.04319e-05 2.4538e-07
-1.04319e-05 0.000112889 -1.8889e-07
2.4538e-07 -1.8889e-07 3.64414e-07
0.000553084 -3.92468e-05 -1.83122e-08
-3.92468e-05 4.33276e-05 -4.83802e-07
-1.83122e-08 -4.83802e-07 -5.5087e-05
0.00103646 -4.1595e-05 -2.08277e-06
-4.1595e-05 0.000296084 -3.80974e-06
-2.08277e-06 -3.80974e-06 0.000195627
-9.6478e-05 -3.77106e-05 4.22956e-06
-3.77106e-05 -0.000258167 -4.92727e-06
4.22956e-06 -4.92727e-06 -0.000355097
0.000348582 -0.000117036 2.63973e-08
-0.000117036 -0.000202437 4.63093e-08
2.63973e-08 4.63093e-08 -0.000296683
0.000761269 -8.35416e-05 -3.58247e-06
-8.35416e-05 0.000112655 -4.61203e-07
-3.58247e-06 -4.61203e-07 9.81491e-06
0.000410513 -0.000110417 5.37562e-06
-0.000110417 -9.51282e-05 3.76926e-06
5.37562e-06 3.76926e-06 -0.000239031
0.00122515 -0.000270842 -1.92126e-06
-0.000270842 0.000333453 9.0195e-06
-1.92126e-06 9.0195e-06 9.44891e-05
0.00141493 -0.000142531 7.03154e-07
-0.000142531 0.000549386 -9.92385e-07
7.03154e-07 -9.92385e-07 0.000403288
0.00022463 -8.3839e-05 -2.91648e-06
-8.3839e-05 -0.000180309 -5.31747e-06
-2.91648e-06 -5.31747e-06 -0.000333617
0.000674739 -2.53517e-05 -8.90327e-08
-2.53517e-05 8.93989e-05 3.32877e-07
-8.90327e-08 3.32877e-07 -2.58502e-05
0.000297973 -1.34641e-05 -2.77944e-07
-1.34641e-05 -0.000117922 -7.65808e-08
-2.77944e-07 -7.65808e-08 -0.000231092
0.000876747 -3.72438e-05 -7.61217e-07
-3.72438e-05 0.000208229 8.70827e-07
-7.61217e-07 8.70827e-07 9.1673e-05
0.000722619 -5.2097e-05 -6.18421e-07
-5.2097e-05 0.000135436 6.61615e-07
-6.18421e-07 6.61615e-07 1.93572e-05
0.000589416 -3.07178e-05 -4.42878e-07
-3.07178e-05 3.56608e-05 1.34145e-06
-4.42878e-07 1.34145e-06 -5.35698e-05
0.000856048 -7.37997e-05 -4.66966e-07
-7.37997e-05 0.000234726 -1.20659e-06
-4.66966e-07 -1.20659e-06 0.000106199
0.000668245 -6.28321e-05 -5.93445e-07
-6.28321e-05 9.21671e-05 -3.60418e-08
-5.93445e-07 -3.60418e-08 -1.37879e-06
0.000561158 2.70883e-05 -2.02488e-06
2.70883e-05 2.7891e-06 2.25467e-06
-2.02488e-06 2.25467e-06 -5.8184e-05
0.00070083 -9.44025e-05 1.92436e-06
-9.44025e-05 0.000116169 -1.59094e-06
1.92436e-06 -1.59094e-06 1.85097e-05
0.000626603 -2.21324e-05 -2.4904e-07
-2.21324e-05 3.93687e-05 6.19233e-08
-2.4904e-07 6.19233e-08 -1.89741e-05
0.00139206 2.7956e-05 -8.10636e-06
2.7956e-05 0.000481531 5.98195e-06
-8.10636e-06 5.98195e-06 0.000466141
0.000595121 -4.06144e-05 2.10181e-06
-4.06144e-05 2.84605e-05 -2.57524e-06
2.10181e-06 -2.57524e-06 -3.20099e-05
0.000942436 1.42712e-05 -4.06938e-06
1.42712e-05 0.000210992 7.04157e-07
-4.06938e-06 7.04157e-07 0.000194425
0.000769348 2.34371e-05 -1.89313e-08
2.34371e-05 0.000104888 2.28066e-06
-1.89313e-08 2.28066e-06 0.000109899
0.000521675 1.64892e-06 5.75001e-07
1.64892e-06 -4.19391e-05 -4.12386e-06
5.75001e-07 -4.12386e-06 -5.96858e-05
0.00158383 2.35241e-05 6.31055e-06
2.35241e-05 0.000597015 -1.49622e-06
6.31055e-06 -1.49622e-06 0.000607401
0.00240598 1.6232e-05 4.82537e-06
1.6232e-05 0.001094 -5.19795e-06
4.82537e-06 -5.19795e-06 0.00110856
0.000666666 1.79241e-05 1.58342e-06
1.79241e-05 8.84944e-05 -1.10939e-06
1.58342e-06 -1.10939e-06 -2.28686e-08
0.000629989 3.89111e-05 -8.113e-07
3.89111e-05 4.54091e-05 -1.78503e-06
-8.113e-07 -1.78503e-06 -1.62763e-07
0.00067305 -3.5404e-06 1.24148e-06
-3.5404e-06 0.000100484 4.09953e-07
1.24148e-06 4.09953e-07 1.62671e-05
0.000555322 -1.42392e-06 6.5275e-07
-1.42392e-06 -2.90656e-05 -3.46011e-06
6.5275e-07 -3.46011e-06 -3.70638e-05
0.00056818 3.14045e-05 9.55466e-08
3.14045e-05 8.999e-06 -3.79102e-08
9.55466e-08 -3.79102e-08 -3.31211e-05
0.000633342 -9.72185e-05 -3.55174e-06
-9.72185e-05 7.79672e-05 1.17127e-06
-3.55174e-06 1.17127e-06 -3.19392e-06
0.0020083 2.98412e-06 -2.59723e-06
2.98412e-06 0.000851415 -4.71323e-06
-2.59723e-06 -4.71323e-06 0.000870472
0.000549682 3.07801e-06 -1.81687e-07
3.07801e-06 -3.30471e-05 2.17828e-09
-1.81687e-07 2.17828e-09 -4.01585e-05
0.000571136 -1.96686e-05 -1.62095e-06
-1.96686e-05 8.06453e-06 1.54359e-06
-1.62095e-06 1.54359e-06 -3.14793e-05
0.000533289 7.30979e-06 -7.61557e-07
7.30979e-06 -4.34826e-05 3.06973e-06
-7.61557e-07 3.06973e-06 -5.05273e-05
0.00202074 1.75084e-05 -4.20612e-06
1.75084e-05 0.000860593 -5.74498e-08
-4.20612e-06 -5.74498e-08 0.000879107
0.00199805 2.99793e-05 -8.76823e-06
2.99793e-05 0.000849106 4.31191e-06
-8.76823e-06 4.31191e-06 0.000866985
-0.00530849 -0.000639172 -7.14384e-05
-0.000639172 0.00239154 2.72337e-05
-7.14384e-05 2.72337e-05 -0.000366341
5.59121e-05 0.000650322 -0.000121367
0.000650322 -0.000197601 2.93335e-05
-0.000121367 2.93335e-05 -0.00100569
0.00327678 -0.000542939 -0.000355523
-0.000542939 0.00115566 0.000189433
-0.000355523 0.000189433 -0.00222702
-0.00305836 6.23006e-05 0.000515426
6.23006e-05 0.00300907 -0.000209134
0.000515426 -0.000209134 0.000768657
0.000492835 0.000324502 -1.37674e-05
0.000324502 -0.00128403 -2.95029e-06
-1.37674e-05 -2.95029e-06 -0.00108088
0.00250112 -0.000219929 0.00010175
-0.000219929 1.22141e-05 -6.58758e-06
0.00010175 -6.58758e-06 1.97156e-05
0.00110018 -0.000387629 3.50338e-05
-0.000387629 -0.00259565 -7.45187e-05
3.50338e-05 -7.45187e-05 -0.00432894
0.0124994 0.00150686 -0.00023321
0.00150686 0.00592399 -2.18952e-06
-0.00023321 -2.18952e-06 0.00482355
-0.00611193 0.00347611 -0.000918861
0.00347611 -0.0023365 0.000712889
-0.000918861 0.000712889 -0.00147274
0.00313662 -0.000207065 -1.95128e-07
-0.000207065 -0.000265966 -2.08891e-06
-1.95128e-07 -2.08891e-06 -0.000209282
0.00606363 -0.000775887 7.37788e-05
-0.000775887 -0.000313442 -6.87851e-05
7.37788e-05 -6.87851e-05 -0.00258438
0.0134339 0.00271118 -0.00013123
0.00271118 0.00395642 -9.36343e-05
-0.00013123 -9.36343e-05 0.0039796
0.00606589 0.00210013 -8.12194e-05
0.00210013 -0.000398684 0.000220047
-8.12194e-05 0.000220047 -0.000896586
0.00228168 -0.000861604 -7.99807e-05
-0.000861604 -0.00137927 2.38663e-05
-7.99807e-05 2.38663e-05 -0.00108539
0.00320055 -0.00139968 0.000233206
-0.00139968 -6.25546e-05 -0.000157365
0.000233206 -0.000157365 -0.00361099
-0.00268825 0.00169072 -6.97921e-05
0.00169072 -0.00325048 -0.000421169
-6.97921e-05 -0.000421169 -0.00405595
0.00525961 0.00102791 -0.00010893
0.00102791 -0.0029676 6.94468e-06
-0.00010893 6.94468e-06 -0.001671
0.00118542 -4.76431e-05 1.28325e-06
-4.76431e-05 0.000466274 6.58807e-06
1.28325e-06 6.58807e-06 0.000299155
0.000632514 8.74239e-05 -1.7297e-06
8.74239e-05 0.000101287 -1.51174e-06
-1.7297e-06 -1.51174e-06 -2.38192e-05
0.00060109 7.45378e-05 2.29557e-07
7.45378e-05 5.97707e-05 -1.70439e-06
2.29557e-07 -1.70439e-06 -2.90266e-05
0.000650093 6.0629e-05 4.2303e-06
6.0629e-05 0.000124508 5.04066e-07
4.2303e-06 5.04066e-07 9.25395e-06
0.000615731 5.83689e-05 2.22087e-06
5.83689e-05 8.93444e-05 2.26208e-06
2.22087e-06 2.26208e-06 -6.59887e-05
0.000684422 5.76775e-05 -2.38067e-07
5.76775e-05 0.000140508 1.61964e-06
-2.38067e-07 1.61964e-06 9.86593e-06
0.000566574 3.6863e-05 7.87042e-07
3.6863e-05 5.58173e-05 -7.82164e-07
7.87042e-07 -7.82164e-07 -6.16303e-05
0.000874208 0.000138299 1.88139e-06
0.000138299 0.00024795 2.72256e-06
1.88139e-06 2.72256e-06 0.000103632
0.000841539 9.01942e-05 -9.91543e-08
9.01942e-05 0.000230546 3.4274e-07
-9.91543e-08 3.4274e-07 9.32793e-05
0.000480257 -1.39219e-05 -3.69399e-06
-1.39219e-05 6.72255e-06 -2.69183e-06
-3.69399e-06 -2.69183e-06 -0.000108335
0.000674808 -0.000255271 4.93755e-05
-0.000255271 -0.00074801 -1.92372e-05
4.93755e-05 -1.92372e-05 -0.000647482
0.000887486 -0.000502788 3.80948e-05
-0.000502788 -0.00045925 -5.1675e-06
3.80948e-05 -5.1675e-06 -0.000496521
0.00171075 -0.000690824 1.6059e-05
-0.000690824 5.42974e-05 6.33723e-06
1.6059e-05 6.33723e-06 -0.000100185
0.000175479 -0.000422491 1.09974e-05
-0.000422491 -0.000262726 -1.32379e-05
1.09974e-05 -1.32379e-05 -0.000537322
0.00217192 -0.000243354 -2.70205e-06
-0.000243354 0.00116371 1.91215e-05
-2.70205e-06 1.91215e-05 0.000823066
0.000573484 -0.000103325 -1.49895e-06
-0.000103325 0.000133584 5.56271e-07
-1.49895e-06 5.56271e-07 -5.06373e-05
0.000454838 8.33286e-05 -7.54656e-07
8.33286e-05 1.75579e-05 -5.72995e-06
-7.54656e-07 -5.72995e-06 -0.000143477
0.000658049 -7.15571e-05 -7.04946e-07
-7.15571e-05 0.000153536 4.29065e-06
-7.04946e-07 4.29065e-06 -3.0246e-05
0.00126303 -0.000415254 -5.46591e-08
-0.000415254 -0.000128312 -2.12213e-06
-5.46591e-08 -2.12213e-06 -0.00028279
0.000692621 -3.08826e-05 1.80295e-07
-3.08826e-05 0.000176933 2.18142e-06
1.80295e-07 2.18142e-06 -6.83497e-06
0.00154604 -0.000168579 -1.92305e-07
-0.000168579 0.000779043 -1.02604e-06
-1.92305e-07 -1.02604e-06 0.00049585
0.00170871 -0.000548776 7.36136e-07
-0.000548776 0.000203024 3.02302e-06
7.36136e-07 3.02302e-06 0.000129205
0.000884068 -0.000390017 -1.42288e-05
-0.000390017 0.00028433 5.00474e-06
-1.42288e-05 5.00474e-06 -5.87527e-06
0.00133285 -0.00072811 1.77409e-06
-0.00072811 -0.000126524 -2.33272e-05
1.77409e-06 -2.33272e-05 -0.00015338
0.00129345 -0.000315936 -1.41417e-05
-0.000315936 0.00048733 1.30973e-05
-1.41417e-05 1.30973e-05 0.000362578
-0.000528062 -5.35331e-05 1.30515e-07
-5.35331e-05 -0.000315435 1.56726e-05
1.30515e-07 1.56726e-05 -0.00065951
0.000742911 1.28514e-05 -1.0484e-06
1.28514e-05 0.000174661 -3.92012e-06
-1.0484e-06 -3.92012e-06 1.14538e-05
0.000822614 4.09135e-05 3.96906e-06
4.09135e-05 0.000338565 8.98725e-07
3.96906e-06 8.98725e-07 0.000100323
0.00175262 -3.29516e-05 -2.31626e-05
-3.29516e-05 0.00149474 -1.07735e-05
-2.31626e-05 -1.07735e-05 -0.000805944
-0.00355477 0.000171476 -0.000169539
0.000171476 0.00388068 -6.68398e-06
-0.000169539 -6.68398e-06 0.000907261
-0.0108012 -0.00092768 -0.000369418
-0.00092768 -0.00560578 -4.32853e-06
-0.000369418 -4.32853e-06 -0.00535971
-0.000315288 0.000116044 6.564e-06
0.000116044 -0.000397525 -1.56537e-06
6.564e-06 -1.56537e-06 -0.000563205
-0.000792602 0.000219747 2.24638e-08
0.000219747 -0.000604626 6.46146e-06
2.24638e-08 6.46146e-06 -0.00087727
0.0013882 0.000500591 2.65706e-05
0.000500591 0.000112702 9.00385e-06
2.65706e-05 9.00385e-06 8.88604e-05
-0.00437204 0.000768317 -1.21817e-05
0.000768317 0.00249757 2.71142e-05
-1.21817e-05 2.71142e-05 -0.000498696
0.00193397 0.00122559 -0.000113915
0.00122559 -2.43865e-05 -0.000118933
-0.000113915 -0.000118933 -0.00366519
0.00284333 0.00130665 0.000226383
0.00130665 0.000612393 5.80807e-05
0.000226383 5.80807e-05 0.000285267
-7.5025e-05 0.000414119 7.7175e-06
0.000414119 -0.000178088 -3.48349e-05
7.7175e-06 -3.48349e-05 -0.00026129
0.0146509 -0.00195421 -3.51257e-05
-0.00195421 0.00427906 -0.000162128
-3.51257e-05 -0.000162128 0.00349091
0.00436879 0.000564276 0.000214756
0.000564276 0.00221154 8.21347e-05
0.000214756 8.21347e-05 -0.0016227
0.0109683 -0.00133498 7.09824e-05
-0.00133498 0.00167224 2.24624e-05
7.09824e-05 2.24624e-05 0.00298408
0.000753743 0.000243825 2.63084e-06
0.000243825 0.000306821 -2.39087e-06
2.63084e-06 -2.39087e-06 0.000148737
0.00372253 0.00017547 1.10059e-05
0.00017547 0.0018842 7.28227e-06
1.10059e-05 7.28227e-06 5.90187e-05
0.000675798 0.000201204 2.55594e-05
0.000201204 3.43465e-05 1.03314e-05
2.55594e-05 1.03314e-05 -0.0015439
-0.000452159 0.000255193 -4.47023e-06
0.000255193 -0.000233596 -1.94291e-06
-4.47023e-06 -1.94291e-06 -0.000459364
0.00173856 0.00070073 -8.70904e-05
0.00070073 0.00109374 -4.08871e-05
-8.70904e-05 -4.08871e-05 0.000132353
0.00262363 0.00215068 0.000102454
0.00215068 0.00100447 6.67053e-05
0.000102454 6.67053e-05 -0.00250106
0.00680139 0.000190528 -1.23981e-05
0.000190528 -0.0028672 -0.000143246
-1.23981e-05 -0.000143246 -0.000239372
0.00282021 -0.00159642 -4.5362e-05
-0.00159642 0.00107654 -6.73915e-05
-4.5362e-05 -6.73915e-05 -0.00127577
0.000977485 0.000199495 -4.80798e-06
0.000199495 0.000644519 -1.37915e-05
-4.80798e-06 -1.37915e-05 0.000457824
-0.00037574 -2.31213e-05 2.94271e-07
-2.31213e-05 -7.47134e-05 -2.26807e-06
2.94271e-07 -2.26807e-06 3.60039e-06
0.00306108 3.05335e-05 4.14908e-05
3.05335e-05 7.81949e-05 -0.00010725
4.14908e-05 -0.00010725 -0.000983505
0.00535678 0.00107763 0.00011703
0.00107763 -0.00284048 -1.38218e-05
0.00011703 -1.38218e-05 -0.00166633
-0.00106534 0.000114639 4.88625e-06
0.000114639 -4.68081e-05 -2.16382e-05
4.88625e-06 -2.16382e-05 -0.000639702
0.0109629 0.0016928 0.00015474
0.0016928 0.00521321 5.2278e-05
0.00015474 5.2278e-05 0.0011862
-0.00782579 -0.000456413 7.83311e-05
-0.000456413 -4.26409e-05 0.000250288
7.83311e-05 0.000250288 -0.00235048
0.00248791 0.000290998 1.93978e-05
0.000290998 0.00129005 1.52746e-05
1.93978e-05 1.52746e-05 0.00113055
0.000829269 0.000163683 -5.54242e-06
0.000163683 0.000445259 -2.80971e-06
-5.54242e-06 -2.80971e-06 0.000210857
-0.000208456 7.16584e-05 -1.73571e-06
7.16584e-05 6.65312e-05 7.50871e-07
-1.73571e-06 7.50871e-07 -0.000192578
0.000708982 0.000142559 1.40649e-07
0.000142559 0.000140235 1.59016e-07
1.40649e-07 1.59016e-07 -9.77801e-06
0.00052485 6.24098e-05 1.26316e-06
6.24098e-05 3.0138e-05 2.36847e-06
1.26316e-06 2.36847e-06 -9.49783e-05
0.000471597 9.29965e-06 7.59033e-06
9.29965e-06 0.000281434 4.61625e-06
7.59033e-06 4.61625e-06 3.9895e-05
0.000627615 4.35853e-05 -1.84334e-07
4.35853e-05 8.29298e-05 -4.83584e-07
-1.84334e-07 -4.83584e-07 -5.02864e-05
0.000741619 -1.42781e-05 -2.38462e-06
-1.42781e-05 0.000360007 -2.2546e-06
-2.38462e-06 -2.2546e-06 0.000166726
-0.000412969 3.87586e-05 4.08808e-06
3.87586e-05 -3.42536e-05 5.17213e-06
4.08808e-06 5.17213e-06 -0.00036703
0.000475185 5.15744e-07 -6.25441e-06
5.15744e-07 0.000346872 -5.22665e-06
-6.25441e-06 -5.22665e-06 0.000165876
0.000211651 -3.73613e-05 -2.23525e-06
-3.73613e-05 2.04855e-05 -7.19074e-06
-2.23525e-06 -7.19074e-06 -0.000144323
0.000583916 -5.67488e-05 2.38811e-06
-5.67488e-05 5.28942e-05 4.52761e-06
2.38811e-06 4.52761e-06 -5.90765e-05
0.000816888 -1.28885e-05 -1.06152e-06
-1.28885e-05 0.000185483 -2.80844e-07
-1.06152e-06 -2.80844e-07 7.17367e-05
0.00111681 -4.12654e-05 -8.93801e-06
-4.12654e-05 0.000374881 5.9632e-06
-8.93801e-06 5.9632e-06 0.000277457
0.000684425 -5.3654e-05 4.39476e-06
-5.3654e-05 0.000184911 -5.66336e-07
4.39476e-06 -5.66336e-07 9.07848e-05
0.000560474 -3.14231e-05 -1.44455e-06
-3.14231e-05 2.16607e-05 -2.63328e-09
-1.44455e-06 -2.63328e-09 -7.98355e-05
0.000777257 -0.000105903 2.04031e-06
-0.000105903 0.000183423 -2.01696e-07
2.04031e-06 -2.01696e-07 7.90304e-05
0.000350245 -0.000101366 -3.22758e-06
-0.000101366 -0.00015823 -8.53175e-07
-3.22758e-06 -8.53175e-07 -0.000235504
-0.000501788 -0.000163026 7.52835e-06
-0.000163026 -0.000629531 3.75964e-06
7.52835e-06 3.75964e-06 -0.000818301
0.000796413 -0.000117945 8.18572e-07
-0.000117945 0.000141931 9.996e-07
8.18572e-07 9.996e-07 3.31358e-05
0.00123597 -0.000198431 -8.40361e-07
-0.000198431 0.000382315 3.62308e-06
-8.40361e-07 3.62308e-06 0.000219035
0.00112106 -0.000300272 -5.18413e-06
-0.000300272 0.000229146 5.24991e-06
-5.18413e-06 5.24991e-06 -1.80111e-05
0.000975072 -0.000261741 -4.99603e-06
-0.000261741 0.000131341 8.23454e-08
-4.99603e-06 8.23454e-08 -0.000109623
0.0010602 -0.000208082 -2.82988e-06
-0.000208082 0.000354306 6.29735e-06
-2.82988e-06 6.29735e-06 0.000159294
0.000302515 -0.000172011 2.88559e-06
-0.000172011 -0.000211004 -1.57277e-07
2.88559e-06 -1.57277e-07 -0.000428202
0.000896259 -9.07754e-05 9.89296e-07
-9.07754e-05 0.000242902 -9.80244e-07
9.89296e-07 -9.80244e-07 0.000104477
0.0010665 -0.000133111 -1.87911e-06
-0.000133111 0.000356077 -4.01928e-07
-1.87911e-06 -4.01928e-07 0.000204347
0.000405069 -0.000111091 5.33585e-06
-0.000111091 -5.44113e-05 -1.29877e-05
5.33585e-06 -1.29877e-05 -0.000207348
0.00102415 -4.57986e-05 4.94458e-07
-4.57986e-05 0.000285399 9.31208e-08
4.94458e-07 9.31208e-08 0.000171562
0.000419501 -2.35778e-05 4.46835e-07
-2.35778e-05 -4.33902e-05 -1.91075e-07
4.46835e-07 -1.91075e-07 -0.000159143
0.000616675 -2.0176e-05 -1.93272e-07
-2.0176e-05 4.9951e-05 1.0651e-06
-1.93272e-07 1.0651e-06 -4.4901e-05
0.000791117 -7.23647e-05 -4.55169e-07
-7.23647e-05 0.000187652 -1.68275e-07
-4.55169e-07 -1.68275e-07 6.11216e-05
0.000666594 -4.57293e-05 -8.28747e-08
-4.57293e-05 9.10666e-05 3.38012e-08
-8.28747e-08 3.38012e-08 -5.98324e-06
0.000569704 2.61819e-05 -1.05334e-08
2.61819e-05 1.21142e-05 2.43108e-06
-1.05334e-08 2.43108e-06 -5.35618e-05
0.000730194 -7.86738e-05 4.3745e-07
-7.86738e-05 0.000137691 -1.67805e-06
4.3745e-07 -1.67805e-06 3.74498e-05
0.000586302 1.78148e-05 -1.17369e-06
1.78148e-05 1.87146e-05 -8.50137e-08
-1.17369e-06 -8.50137e-08 -4.33156e-05
0.00135478 4.26359e-05 -9.10238e-06
4.26359e-05 0.000461657 4.02393e-06
-9.10238e-06 4.02393e-06 0.000445131
0.000628997 -3.36384e-05 2.36963e-06
-3.36384e-05 4.25936e-05 -2.63628e-06
2.36963e-06 -2.63628e-06 -1.70378e-05
0.000929582 2.48853e-05 -5.06944e-06
2.48853e-05 0.000202362 6.29499e-07
-5.06944e-06 6.29499e-07 0.000184958
0.000802023 3.26395e-05 -6.99212e-07
3.26395e-05 0.00012696 2.40544e-06
-6.99212e-07 2.40544e-06 0.000130511
0.000512414 1.03697e-05 7.80496e-07
1.03697e-05 -5.03782e-05 -4.45035e-06
7.80496e-07 -4.45035e-06 -6.87366e-05
0.0016034 3.56159e-05 8.66608e-06
3.56159e-05 0.000610312 -1.34656e-06
8.66608e-06 -1.34656e-06 0.000619412
0.00240116 3.16667e-05 8.26007e-06
3.16667e-05 0.00109187 -5.21014e-06
8.26007e-06 -5.21014e-06 0.00110584
0.000412319 8.14096e-06 1.04039e-06
8.14096e-06 -5.33555e-05 -2.23443e-07
1.04039e-06 -2.23443e-07 -0.000162154
0.000287746 7.76722e-06 -1.01796e-08
7.76722e-06 -0.00016108 -3.1589e-06
-1.01796e-08 -3.1589e-06 -0.000214994
0.000710847 2.68756e-05 4.44424e-09
2.68756e-05 0.000121594 1.29685e-07
4.44424e-09 1.29685e-07 2.79047e-05
0.000550999 -5.30671e-06 5.37457e-07
-5.30671e-06 -3.17176e-05 -3.58765e-06
5.37457e-07 -3.58765e-06 -4.1407e-05
0.0004171 1.32456e-06 1.28728e-06
1.32456e-06 -8.46712e-05 -5.73032e-08
1.28728e-06 -5.73032e-08 -0.000130256
0.000409018 -8.6482e-05 -1.63674e-06
-8.6482e-05 -5.76719e-05 4.85753e-07
-1.63674e-06 4.85753e-07 -0.000144438
0.0020803 -1.04713e-05 -7.10152e-06
-1.04713e-05 0.000894895 -4.75659e-06
-7.10152e-06 -4.75659e-06 0.000913403
0.000549744 -1.6141e-06 -9.78204e-08
-1.6141e-06 -3.27355e-05 -4.84013e-08
-9.78204e-08 -4.84013e-08 -4.06086e-05
0.000542019 -1.88575e-05 -1.83707e-06
-1.88575e-05 -8.82247e-06 1.84064e-06
-1.83707e-06 1.84064e-06 -4.94948e-05
0.0020255 4.40313e-06 -4.06268e-06
4.40313e-06 0.000862027 1.60249e-08
-4.06268e-06 1.60249e-08 0.000880973
0.000532579 2.70853e-06 -6.54914e-07
2.70853e-06 -4.28039e-05 3.20163e-06
-6.54914e-07 3.20163e-06 -4.99365e-05
0.00200961 1.88845e-05 -1.80179e-06
1.88845e-05 0.000853953 4.51204e-06
-1.80179e-06 4.51204e-06 0.000872443
0.000267976 -0.000266519 -0.000128043
-0.000266519 -0.000265513 3.28998e-05
-0.000128043 3.28998e-05 -0.00205522
0.0012875 0.000219717 -4.17039e-05
0.000219717 0.00428443 -3.58512e-06
-4.17039e-05 -3.58512e-06 0.00237161
0.00106045 -0.000339093 -0.000371245
-0.000339093 0.00238772 3.26906e-05
-0.000371245 3.26906e-05 0.00122728
0.000746521 9.17693e-05 2.47064e-06
9.17693e-05 0.000147664 1.278e-06
2.47064e-06 1.278e-06 1.00236e-05
0.00355114 -0.000352194 -1.77844e-05
-0.000352194 0.0025517 0.000119166
-1.77844e-05 0.000119166 0.00103383
0.0037098 -0.000625598 -0.000146232
-0.000625598 0.0013846 9.9865e-06
-0.000146232 9.9865e-06 -0.0020532
0.00354544 0.00101522 0.00025082
0.00101522 0.0042019 -0.000192447
0.00025082 -0.000192447 0.00243336
0.0047964 -0.000352901 4.64648e-05
-0.000352901 0.000512971 -3.70991e-05
4.64648e-05 -3.70991e-05 0.000280097
0.0120654 -0.000789773 0.000150388
-0.000789773 0.00255169 -7.32963e-05
0.000150388 -7.32963e-05 0.000947485
-6.46984e-05 0.00230524 -0.000218655
0.00230524 -0.00309667 0.000209112
-0.000218655 0.000209112 -0.00288328
0.00707269 0.00220478 3.52574e-05
0.00220478 0.000994293 7.19805e-05
3.52574e-05 7.19805e-05 8.94823e-05
0.00531189 -0.00103919 -0.000101948
-0.00103919 0.000209836 -2.63178e-06
-0.000101948 -2.63178e-06 1.52497e-05
0.0124725 -0.00134362 5.54236e-05
-0.00134362 0.00410726 -1.71704e-05
5.54236e-05 -1.71704e-05 0.00192286
0.00770227 0.00145709 9.37627e-05
0.00145709 0.00100215 -0.000163575
9.37627e-05 -0.000163575 -3.00028e-06
0.00707133 0.000957647 5.70226e-06
0.000957647 -0.00144638 1.42025e-05
5.70226e-06 1.42025e-05 -0.000547142
0.00268212 -0.00142226 8.43589e-06
-0.00142226 -0.000169145 1.31435e-05
8.43589e-06 1.31435e-05 -0.000785971
0.0116618 -0.00196665 0.00011114
-0.00196665 0.0052843 -6.07576e-05
0.00011114 -6.07576e-05 0.00144838
0.0044921 -7.00552e-05 9.25478e-05
-7.00552e-05 0.0011413 -0.000245191
9.25478e-05 -0.000245191 0.000149529
0.0085568 0.000519384 -6.28102e-05
0.000519384 -0.00109365 0.000138743
-6.28102e-05 0.000138743 0.00100089
0.000792709 -2.09616e-05 2.45895e-06
-2.09616e-05 0.000216854 2.96393e-06
2.45895e-06 2.96393e-06 4.90281e-05
0.000860271 -7.532e-05 -4.45756e-07
-7.532e-05 0.000274328 -3.84757e-08
-4.45756e-07 -3.84757e-08 0.000103468
0.000770309 0.000111168 -2.55072e-07
0.000111168 0.00018885 -3.30647e-06
-2.55072e-07 -3.30647e-06 6.06643e-05
0.000716303 6.21199e-05 1.26732e-06
6.21199e-05 0.000118278 3.89276e-06
1.26732e-06 3.89276e-06 -1.61155e-05
0.000759775 0.000107761 -3.6685e-07
0.000107761 0.000185201 7.42741e-07
-3.6685e-07 7.42741e-07 2.89684e-05
0.000898291 6.5646e-05 -2.91219e-06
6.5646e-05 0.000267977 -1.38754e-06
-2.91219e-06 -1.38754e-06 0.00013877
0.000999109 0.000132091 -1.04242e-06
0.000132091 0.00032171 -7.92071e-08
-1.04242e-06 -7.92071e-08 0.000177191
0.000994889 0.000141178 6.88032e-07
0.000141178 0.000335242 2.06256e-06
6.88032e-07 2.06256e-06 0.000190743
0.000543724 -0.00031434 6.34241e-05
-0.00031434 -0.000575488 -2.61335e-05
6.34241e-05 -2.61335e-05 -0.000566637
0.00186658 -0.000569715 1.15805e-05
-0.000569715 0.000241126 -9.13188e-06
1.15805e-05 -9.13188e-06 0.000190491
0.000935063 -0.000191486 -8.68723e-07
-0.000191486 0.000326921 -6.89751e-06
-8.68723e-07 -6.89751e-06 0.000132051
0.00131252 -0.000460435 1.98159e-05
-0.000460435 0.000501623 -1.91927e-05
1.98159e-05 -1.91927e-05 0.000207828
0.00224801 -0.00025541 -6.68999e-06
-0.00025541 0.00117591 1.72876e-06
-6.68999e-06 1.72876e-06 0.000890437
0.0010655 -8.79305e-05 -1.85154e-06
-8.79305e-05 0.000387182 -9.66234e-06
-1.85154e-06 -9.66234e-06 0.000203093
0.00042788 -1.97335e-05 1.07773e-06
-1.97335e-05 -7.38103e-06 3.47774e-06
1.07773e-06 3.47774e-06 -0.000171485
0.000244227 -0.000640852 -3.59339e-06
-0.000640852 -0.000724651 -1.15113e-06
-3.59339e-06 -1.15113e-06 -0.000698017
0.00126748 4.27466e-05 1.24452e-07
4.27466e-05 0.000602352 6.56425e-07
1.24452e-07 6.56425e-07 0.000353476
0.000870678 -0.000189302 -8.0834e-06
-0.000189302 0.000419572 2.81864e-06
-8.0834e-06 2.81864e-06 0.000109959
0.000503169 -0.000241306 1.80336e-05
-0.000241306 2.64062e-05 2.4961e-06
1.80336e-05 2.4961e-06 -4.90718e-05
0.00114519 8.73615e-05 1.34919e-06
8.73615e-05 0.000384385 -1.80334e-06
1.34919e-06 -1.80334e-06 0.00024581
0.00122809 -0.000580009 1.20544e-05
-0.000580009 2.83271e-05 -3.77751e-05
1.20544e-05 -3.77751e-05 0.000122682
0.000211821 -0.000165807 3.30108e-06
-0.000165807 0.000140277 1.8005e-05
3.30108e-06 1.8005e-05 -8.19651e-06
-0.00051962 4.92123e-05 6.19474e-06
4.92123e-05 -0.000125043 5.99604e-06
6.19474e-06 5.99604e-06 -0.000585655
0.00128316 0.000202663 2.40985e-06
0.000202663 0.000551338 -4.34929e-06
2.40985e-06 -4.34929e-06 0.000368397
8.85851e-06 9.02466e-06 6.29874e-06
9.02466e-06 0.000776378 -6.57188e-06
6.29874e-06 -6.57188e-06 0.000147999
0.00114065 -4.01335e-05 9.56319e-05
-4.01335e-05 0.00114687 -1.60713e-05
9.56319e-05 -1.60713e-05 -0.00116844
-0.00677607 -9.29598e-05 -0.000171914
-9.29598e-05 0.00314079 1.06559e-05
-0.000171914 1.06559e-05 -0.000406026
0.0011488 0.000263593 1.4667e-05
0.000263593 0.000609435 4.37521e-06
1.4667e-05 4.37521e-06 0.000441536
-0.00151831 0.00032076 2.79719e-06
0.00032076 -0.000836169 9.60636e-06
2.79719e-06 9.60636e-06 -0.00113903
0.00449894 0.000174836 0.000125076
0.000174836 0.00238727 1.20174e-05
0.000125076 1.20174e-05 0.0010709
0.00776997 0.00131338 0.000186195
0.00131338 0.00345009 9.69557e-05
0.000186195 9.69557e-05 -0.000343734
0.00339401 0.00110119 -0.000105925
0.00110119 0.00175364 -8.75949e-05
-0.000105925 -8.75949e-05 0.000626476
0.00495621 -0.00110886 -4.95452e-05
-0.00110886 0.00201724 -0.000270537
-4.95452e-05 -0.000270537 3.7495e-05
0.00123145 0.000219696 6.56557e-05
0.000219696 0.000111099 0.000138823
6.56557e-05 0.000138823 -0.00144937
0.00490811 -8.69199e-05 -2.12538e-05
-8.69199e-05 -0.00461698 -0.000149919
-2.12538e-05 -0.000149919 -0.0015544
0.000788044 0.000227095 -9.41396e-07
0.000227095 0.000536059 -2.75587e-06
-9.41396e-07 -2.75587e-06 0.000329794
-0.000328523 -3.5582e-05 4.71041e-07
-3.5582e-05 -8.50072e-05 -9.10693e-07
4.71041e-07 -9.10693e-07 -4.74579e-05
0.00307198 6.35266e-05 5.0678e-05
6.35266e-05 0.000208215 1.99293e-05
5.0678e-05 1.99293e-05 -0.000390654
-0.00105118 0.000202381 -8.74416e-06
0.000202381 -0.000346867 -6.24153e-06
-8.74416e-06 -6.24153e-06 -0.000832245
0.00716323 0.00105322 -4.32198e-06
0.00105322 -0.0014375 -1.27259e-05
-4.32198e-06 -1.27259e-05 -0.000582712
0.00467685 0.00114455 0.00013815
0.00114455 0.0032321 7.50069e-05
0.00013815 7.50069e-05 -0.00104515
0.00407114 0.000524478 -9.48248e-05
0.000524478 0.00263102 6.30774e-06
-9.48248e-05 6.30774e-06 0.000914966
0.000190868 0.000222629 -1.20894e-05
0.000222629 0.000225323 -1.76816e-05
-1.20894e-05 -1.76816e-05 -7.77825e-05
0.00154666 8.70516e-05 1.28522e-05
8.70516e-05 -0.00031511 -1.7456e-05
1.28522e-05 -1.7456e-05 -5.03385e-05
0.00348786 -0.000302766 2.32581e-05
-0.000302766 0.00248509 -0.000122496
2.32581e-05 -0.000122496 0.00102009
0.0092799 0.00222817 0.000249101
0.00222817 0.00157893 -0.000165016
0.000249101 -0.000165016 0.00124587
0.00637589 -0.000145486 -9.95912e-05
-0.000145486 0.00181864 0.000245701
-9.95912e-05 0.000245701 0.000932611
0.000962748 0.000194512 4.33525e-06
0.000194512 0.000317343 -8.17386e-05
4.33525e-06 -8.17386e-05 0.000103249
-0.000325072 0.00121811 0.000145036
0.00121811 0.00306539 3.05048e-05
0.000145036 3.05048e-05 -0.00330861
0.00142661 0.00024928 3.66507e-06
0.00024928 0.000746023 2.00591e-05
3.66507e-06 2.00591e-05 0.00051306
0.000285165 0.000116924 2.74153e-06
0.000116924 0.000337727 6.69214e-07
2.74153e-06 6.69214e-07 7.65799e-05
0.000790157 -4.22295e-06 -1.04541e-05
-4.22295e-06 0.000678323 -1.09091e-05
-1.04541e-05 -1.09091e-05 0.00049874
0.000303258 -2.78125e-05 9.25553e-07
-2.78125e-05 -0.000124164 3.88822e-06
9.25553e-07 3.88822e-06 -0.000243858
0.0008946 -8.34866e-06 2.24399e-06
-8.34866e-06 0.000445976 3.79854e-06
2.24399e-06 3.79854e-06 0.000256524
0.000623146 -6.62742e-06 2.58706e-06
-6.62742e-06 0.000517643 -5.93419e-06
2.58706e-06 -5.93419e-06 0.000209833
0.000476277 -5.32072e-05 5.22003e-07
-5.32072e-05 0.0001412 -1.69411e-07
5.22003e-07 -1.69411e-07 2.94964e-06
1.30218e-05 -1.66678e-05 1.11513e-06
-1.66678e-05 8.11421e-05 1.91613e-06
1.11513e-06 1.91613e-06 -0.000108856
0.00136638 -0.000237528 6.40624e-06
-0.000237528 0.000767478 -1.11882e-05
6.40624e-06 -1.11882e-05 0.000558972
0.00135845 -7.57956e-05 -2.40419e-06
-7.57956e-05 0.000566633 4.71538e-06
-2.40419e-06 4.71538e-06 0.000475086
-6.08117e-05 -1.32696e-05 -4.48381e-07
-1.32696e-05 -0.000336325 1.94482e-06
-4.48381e-07 1.94482e-06 -0.000437712
0.0014376 -0.00017348 1.89463e-06
-0.00017348 0.000560352 2.13297e-06
1.89463e-06 2.13297e-06 0.000441543
-0.00107082 -0.000124015 6.35703e-06
-0.000124015 -0.000787093 2.48309e-06
6.35703e-06 2.48309e-06 -0.00101751
0.000283263 -8.22242e-05 -3.62141e-06
-8.22242e-05 -0.000155464 7.76385e-07
-3.62141e-06 7.76385e-07 -0.000215652
-9.27316e-05 -0.000179517 3.27742e-06
-0.000179517 -0.000400492 -1.23516e-06
3.27742e-06 -1.23516e-06 -0.000574658
0.00115745 -0.000340134 8.96047e-06
-0.000340134 0.000217336 -5.15176e-06
8.96047e-06 -5.15176e-06 -7.38979e-05
0.00138795 -0.000379425 -4.2685e-06
-0.000379425 0.00024622 2.08723e-06
-4.2685e-06 2.08723e-06 -4.38582e-05
0.00205245 -0.000286096 -1.24389e-06
-0.000286096 0.000855357 1.92443e-07
-1.24389e-06 1.92443e-07 0.00067224
0.00107277 -0.000295846 3.28874e-07
-0.000295846 0.000174899 2.87668e-07
3.28874e-07 2.87668e-07 -8.16978e-05
0.00231557 -0.000409482 2.87199e-06
-0.000409482 0.000884204 -1.81264e-06
2.87199e-06 -1.81264e-06 0.000629625
0.000175679 -0.000146328 -1.66773e-06
-0.000146328 -0.000240994 3.49473e-06
-1.66773e-06 3.49473e-06 -0.000453393
0.00103991 -0.000263091 -6.23022e-07
-0.000263091 0.000177983 -5.6236e-07
-6.23022e-07 -5.6236e-07 -6.01173e-05
0.000484564 -8.14916e-05 3.47041e-07
-8.14916e-05 1.16219e-05 -1.65657e-06
3.47041e-07 -1.65657e-06 -0.00015288
0.00105751 -0.000223268 -4.42079e-06
-0.000223268 0.000357908 2.5955e-06
-4.42079e-06 2.5955e-06 0.00015652
-0.000608387 -7.47751e-05 -2.43624e-06
-7.47751e-05 -0.000746564 -4.48939e-06
-2.43624e-06 -4.48939e-06 -0.00094358
0.000500782 -4.45772e-06 9.87137e-07
-4.45772e-06 -1.16907e-05 1.42677e-06
9.87137e-07 1.42677e-06 -0.000121103
0.000642918 -7.25072e-05 3.51682e-07
-7.25072e-05 0.000102239 -3.11583e-08
3.51682e-07 -3.11583e-08 -3.65523e-05
0.000749245 -0.000125875 5.06121e-06
-0.000125875 0.000180363 -3.12385e-06
5.06121e-06 -3.12385e-06 2.19993e-05
0.000601259 -3.46394e-05 3.54793e-07
-3.46394e-05 6.67966e-05 -2.91553e-07
3.54793e-07 -2.91553e-07 -5.1716e-05
0.000686835 -3.13505e-05 -6.56091e-07
-3.13505e-05 0.000103351 -7.35244e-08
-6.56091e-07 -7.35244e-08 -7.19699e-07
0.000543396 3.02282e-05 1.48466e-07
3.02282e-05 -3.71029e-06 3.14559e-06
1.48466e-07 3.14559e-06 -7.45311e-05
0.000772725 -5.89804e-05 2.73641e-07
-5.89804e-05 0.0001631 -1.12544e-06
2.73641e-07 -1.12544e-06 5.87121e-05
0.00059025 2.33015e-05 -1.07565e-06
2.33015e-05 2.28377e-05 -1.8255e-07
-1.07565e-06 -1.8255e-07 -4.2322e-05
0.000523037 3.9303e-05 -9.08577e-07
3.9303e-05 -3.59573e-05 4.70327e-06
-9.08577e-07 4.70327e-06 -5.88587e-05
0.000668588 -2.58302e-05 2.16429e-06
-2.58302e-05 6.31715e-05 -2.48407e-06
2.16429e-06 -2.48407e-06 3.52196e-06
0.000530832 2.86902e-05 1.94145e-07
2.86902e-05 -3.77445e-05 2.09622e-09
1.94145e-07 2.09622e-09 -5.81719e-05
0.00234888 8.02934e-05 -3.72194e-06
8.02934e-05 0.00106978 2.0738e-06
-3.72194e-06 2.0738e-06 0.00107821
0.000512703 2.02629e-05 9.19651e-07
2.02629e-05 -5.02399e-05 -4.60664e-06
9.19651e-07 -4.60664e-06 -6.97342e-05
0.00161867 4.78586e-05 1.029e-05
4.78586e-05 0.00062259 -1.14006e-06
1.029e-05 -1.14006e-06 0.000630037
0.00242567 4.68008e-05 1.34198e-05
4.68008e-05 0.00110876 -5.09488e-06
1.34198e-05 -5.09488e-06 0.00112147
0.000360452 7.48991e-06 8.74874e-07
7.48991e-06 -9.97743e-05 -1.51816e-06
8.74874e-07 -1.51816e-06 -0.000203146
0.000309349 3.33737e-06 3.40928e-07
3.33737e-06 -0.000150777 -2.73555e-06
3.40928e-07 -2.73555e-06 -0.00021223
0.000544826 1.89004e-05 -4.57075e-07
1.89004e-05 2.5372e-05 -1.12055e-06
-4.57075e-07 -1.12055e-06 -8.03246e-05
0.000556906 -1.05671e-05 8.52455e-07
-1.05671e-05 -2.73237e-05 -3.87598e-06
8.52455e-07 -3.87598e-06 -3.9715e-05
0.000272307 6.34054e-06 -5.15143e-07
6.34054e-06 -0.000170813 -1.36093e-06
-5.15143e-07 -1.36093e-06 -0.000225805
0.000712355 3.60273e-05 -3.22965e-07
3.60273e-05 0.000131868 1.39286e-06
-3.22965e-07 1.39286e-06 3.23153e-05
0.0021238 -2.37027e-05 -1.20848e-05
-2.37027e-05 0.000921573 -4.67869e-06
-1.20848e-05 -4.67869e-06 0.000939291
0.000546508 -6.05237e-06 -2.78935e-07
-6.05237e-06 -3.46143e-05 -5.32352e-08
-2.78935e-07 -5.32352e-08 -4.41064e-05
0.000232577 6.2002e-06 8.28682e-07
6.2002e-06 -0.00019373 1.65936e-06
8.28682e-07 1.65936e-06 -0.000242207
0.00205161 -8.94642e-06 -3.75467e-06
-8.94642e-06 0.000877308 4.51233e-08
-3.75467e-06 4.51233e-08 0.000896085
0.000540312 -1.77498e-06 -6.70656e-07
-1.77498e-06 -3.86345e-05 3.40659e-06
-6.70656e-07 3.40659e-06 -4.63376e-05
0.00204726 5.90242e-06 2.9225e-06
5.90242e-06 0.000875413 4.65639e-06
2.9225e-06 4.65639e-06 0.000894172
0.000618606 -4.71001e-06 2.77178e-05
-4.71001e-06 0.000605898 5.29496e-06
2.77178e-05 5.29496e-06 0.000538507
0.000479848 -0.000179005 -7.88836e-06
-0.000179005 6.9689e-05 -1.44886e-05
-7.88836e-06 -1.44886e-05 -0.00195271
0.00115484 0.000127451 2.99026e-05
0.000127451 0.00421022 -2.50847e-05
2.99026e-05 -2.50847e-05 0.00248499
0.000742333 9.86575e-05 -1.12144e-07
9.86575e-05 0.000137702 3.56196e-07
-1.12144e-07 3.56196e-07 8.64063e-06
0.000532599 6.84327e-05 2.32568e-06
6.84327e-05 -3.91804e-06 7.18194e-08
2.32568e-06 7.18194e-08 -0.00012426
0.000964528 0.000140581 3.47644e-06
0.000140581 0.00027088 3.3864e-06
3.47644e-06 3.3864e-06 0.000133061
0.00319043 -6.33516e-05 3.48337e-09
-6.33516e-05 -9.52648e-05 0.000187053
3.48337e-09 0.000187053 -0.000912059
0.00352766 -0.000313551 2.7702e-05
-0.000313551 0.00245724 -6.87868e-06
2.7702e-05 -6.87868e-06 0.00119073
0.00414465 -0.000694704 7.42458e-05
-0.000694704 0.00170166 -0.00014046
7.42458e-05 -0.00014046 -0.00189403
0.00676822 -0.00129502 -8.35936e-05
-0.00129502 0.000849305 -1.00999e-05
-8.35936e-05 -1.00999e-05 0.00073087
0.00204513 -0.0012799 -0.000168115
-0.0012799 -0.000423941 9.45839e-05
-0.000168115 9.45839e-05 -0.00314632
0.0140089 0.00206249 0.000122245
0.00206249 0.00511527 5.73522e-05
0.000122245 5.73522e-05 0.00380113
0.0038247 0.000245996 0.000110243
0.000245996 -0.00314719 -0.000125961
0.000110243 -0.000125961 -0.00259037
0.00528245 -0.00168952 -2.41395e-05
-0.00168952 0.00105115 7.56867e-06
-2.41395e-05 7.56867e-06 0.000561464
0.00671753 -0.0016472 -4.3942e-05
-0.0016472 0.00299748 2.38873e-05
-4.3942e-05 2.38873e-05 -0.000654547
-0.00325416 0.00170621 -4.76142e-05
0.00170621 0.00072306 -0.000168772
-4.76142e-05 -0.000168772 -0.00184731
0.00670359 0.00016309 -2.52743e-05
0.00016309 -0.00289509 7.18714e-05
-2.52743e-05 7.18714e-05 -0.000268716
0.0010821 -0.000925562 -4.92831e-05
-0.000925562 0.00010247 -7.36271e-06
-4.92831e-05 -7.36271e-06 -0.000362246
0.0115211 -0.00182494 -0.00010663
-0.00182494 0.00516036 8.05679e-05
-0.00010663 8.05679e-05 0.00113378
-0.00784413 -0.000103741 3.77636e-05
-0.000103741 0.000239422 -0.000235479
3.77636e-05 -0.000235479 -0.00237403
0.00551789 -0.00109148 5.26754e-05
-0.00109148 -0.00199218 -1.14644e-06
5.26754e-05 -1.14644e-06 -0.000945354
0.000602096 6.68571e-05 1.92025e-06
6.68571e-05 6.09247e-05 9.13003e-06
1.92025e-06 9.13003e-06 -8.12082e-05
0.000705948 -1.0664e-05 1.4875e-06
-1.0664e-05 0.00016128 -1.25001e-06
1.4875e-06 -1.25001e-06 -1.08863e-05
0.000841538 -9.59366e-05 3.82011e-08
-9.59366e-05 0.000246448 -4.11538e-06
3.82011e-08 -4.11538e-06 7.70503e-05
0.000710164 8.04681e-05 -1.0426e-06
8.04681e-05 0.000115111 -2.81622e-07
-1.0426e-06 -2.81622e-07 -2.2385e-05
0.000760839 0.000119692 4.04417e-07
0.000119692 0.000188821 -1.71095e-06
4.04417e-07 -1.71095e-06 3.90967e-05
0.00110597 0.000144361 -2.7386e-06
0.000144361 0.000390549 -1.53227e-06
-2.7386e-06 -1.53227e-06 0.00024268
-0.000274118 -0.000604079 1.90998e-05
-0.000604079 -0.00102735 7.83932e-06
1.90998e-05 7.83932e-06 -0.0010183
-0.00108162 -0.000178434 1.88328e-05
-0.000178434 -0.00087343 -1.43145e-05
1.88328e-05 -1.43145e-05 -0.000903874
0.000324142 3.34985e-05 -2.28309e-06
3.34985e-05 -6.42907e-05 -3.9384e-06
-2.28309e-06 -3.9384e-06 -0.000235492
0.00149853 -0.000302649 4.13012e-05
-0.000302649 0.00072343 -2.83637e-05
4.13012e-05 -2.83637e-05 0.000431453
0.00147965 1.72858e-06 -4.70835e-06
1.72858e-06 0.000719236 -5.15584e-06
-4.70835e-06 -5.15584e-06 0.000473416
0.000560601 6.62874e-05 3.8919e-07
6.62874e-05 5.27003e-05 2.4753e-06
3.8919e-07 2.4753e-06 -9.15798e-05
0.000701592 0.000129737 4.18687e-07
0.000129737 0.000206858 -1.87769e-06
4.18687e-07 -1.87769e-06 4.18143e-05
0.000321645 -0.000614102 -5.89408e-07
-0.000614102 -0.000435723 -5.32133e-06
-5.89408e-07 -5.32133e-06 -0.000497125
0.000679585 -1.01188e-05 -1.34579e-06
-1.01188e-05 0.000476365 6.317e-07
-1.34579e-06 6.317e-07 0.000123326
0.000134321 -0.000137844 9.34908e-07
-0.000137844 0.000153574 -3.24818e-06
9.34908e-07 -3.24818e-06 -4.19113e-05
0.00103881 0.00011636 2.92225e-06
0.00011636 0.000359086 -7.69312e-06
2.92225e-06 -7.69312e-06 0.000231989
-0.00224039 -5.38363e-05 -5.46163e-05
-5.38363e-05 -0.000762938 -2.01916e-05
-5.46163e-05 -2.01916e-05 -0.00129265
-0.00025646 -1.3911e-05 1.37549e-05
-1.3911e-05 -1.96011e-05 1.65878e-05
1.37549e-05 1.65878e-05 -0.000205719
0.00113209 3.61944e-05 8.36706e-06
3.61944e-05 0.000681416 3.57948e-06
8.36706e-06 3.57948e-06 0.00040466
0.000625666 1.21037e-06 -1.18182e-06
1.21037e-06 -0.000326995 1.11675e-06
-1.18182e-06 1.11675e-06 -0.00077946
-0.00023837 1.13651e-05 -8.52003e-06
1.13651e-05 0.00051019 -1.40979e-05
-8.52003e-06 -1.40979e-05 2.35875e-06
0.000387118 -4.784e-05 0.000208982
-4.784e-05 0.000778798 -5.41257e-06
0.000208982 -5.41257e-06 -0.00159646
0.000208419 0.000214106 4.87131e-06
0.000214106 0.000198008 1.78466e-05
4.87131e-06 1.78466e-05 -2.97502e-05
0.000915662 0.000489457 4.45396e-06
0.000489457 0.000221966 -1.05868e-05
4.45396e-06 -1.05868e-05 -0.000144718
-0.000304705 -4.12359e-05 1.09275e-05
-4.12359e-05 -0.00010599 -4.97367e-07
1.09275e-05 -4.97367e-07 -0.000115979
-0.0032813 0.000600588 4.47106e-05
0.000600588 0.000703786 9.24374e-05
4.47106e-05 9.24374e-05 -0.00351681
-0.00914468 0.000728425 -0.00011156
0.000728425 -0.00355584 -0.000296432
-0.00011156 -0.000296432 -0.00613529
0.00290218 8.05501e-05 4.61135e-05
8.05501e-05 0.000329105 7.71736e-05
4.61135e-05 7.71736e-05 9.25497e-05
0.00385495 0.000320088 -0.000115191
0.000320088 -0.00307177 0.000127376
-0.000115191 0.000127376 -0.00258032
0.000534391 0.000210074 5.21665e-06
0.000210074 0.000426979 -1.02752e-06
5.21665e-06 -1.02752e-06 0.000167325
0.00131407 1.73172e-05 1.77009e-05
1.73172e-05 -0.000437098 -2.85668e-05
1.77009e-05 -2.85668e-05 -0.000143257
0.00347023 -0.000232938 -2.72523e-05
-0.000232938 0.00240867 6.72672e-06
-2.72523e-05 6.72672e-06 0.00113966
0.000934777 0.000293865 -6.37502e-05
0.000293865 0.000716029 -5.0104e-06
-6.37502e-05 -5.0104e-06 -6.8778e-05
0.00595069 0.00217294 7.36786e-05
0.00217294 -0.000546502 -0.00021533
7.36786e-05 -0.00021533 -0.000866026
-0.00252045 0.00146795 4.58097e-05
0.00146795 0.00029278 0.000165969
4.58097e-05 0.000165969 -0.00189217
0.00727976 0.000173135 5.47102e-05
0.000173135 0.00608542 -2.57502e-05
5.47102e-05 -2.57502e-05 0.000321124
0.00140764 -5.12166e-05 5.2146e-05
-5.12166e-05 0.00136983 -2.09876e-05
5.2146e-05 -2.09876e-05 0.00079208
0.000674824 1.78513e-05 -2.70768e-05
1.78513e-05 0.000599127 -9.90623e-07
-2.70768e-05 -9.90623e-07 0.000532656
0.00313672 -0.000495455 0.000371751
-0.000495455 0.0010227 -0.000188109
0.000371751 -0.000188109 -0.00234566
0.00727876 0.00286656 6.12895e-06
0.00286656 0.00559267 -4.10141e-06
6.12895e-06 -4.10141e-06 0.00543452
-0.00239209 0.00166644 2.14631e-05
0.00166644 -0.0032597 0.000417576
2.14631e-05 0.000417576 -0.00400998
0.0129542 -0.00181079 0.000144306
-0.00181079 0.0054632 -0.000132099
0.000144306 -0.000132099 0.00130605
0.00306585 -0.000512492 -6.23625e-05
-0.000512492 0.00156294 6.40098e-05
-6.23625e-05 6.40098e-05 0.00109696
0.00112157 0.000181568 8.45524e-06
0.000181568 0.000803967 4.64067e-06
8.45524e-06 4.64067e-06 0.000540844
0.000192281 -5.20244e-06 -2.44065e-05
-5.20244e-06 0.000288206 6.92406e-07
-2.44065e-05 6.92406e-07 9.77495e-05
0.00150591 -0.000321087 2.3916e-05
-0.000321087 0.00096557 -8.82395e-06
2.3916e-05 -8.82395e-06 0.000630933
0.000788056 -7.93639e-05 1.19863e-06
-7.93639e-05 0.000296408 3.06245e-06
1.19863e-06 3.06245e-06 0.000181168
-6.33623e-06 -4.08558e-05 -1.52118e-06
-4.08558e-05 6.8586e-05 2.7978e-06
-1.52118e-06 2.7978e-06 -0.000130907
0.000508875 -0.000217183 -1.38242e-06
-0.000217183 0.000334942 -7.65681e-07
-1.38242e-06 -7.65681e-07 0.000128748
0.00145513 -0.000379763 2.46972e-05
-0.000379763 0.000661505 -1.9164e-05
2.46972e-05 -1.9164e-05 0.000443861
0.00214882 -0.000242846 -5.14741e-06
-0.000242846 0.000967221 4.11446e-06
-5.14741e-06 4.11446e-06 0.000831307
0.00189067 -0.000413016 6.4337e-06
-0.000413016 0.000800952 -1.02581e-06
6.4337e-06 -1.02581e-06 0.000542393
0.00156875 -0.000410262 1.36006e-05
-0.000410262 0.000621399 1.67218e-06
1.36006e-05 1.67218e-06 0.000191881
0.000350499 -0.000184252 -2.74062e-06
-0.000184252 -0.000155822 -1.92755e-06
-2.74062e-06 -1.92755e-06 -0.000310146
0.0014482 -0.000366476 -2.68765e-06
-0.000366476 0.000356962 1.0918e-06
-2.68765e-06 1.0918e-06 6.03936e-05
0.00187503 -0.000485414 -8.97472e-07
-0.000485414 0.000543026 1.54249e-06
-8.97472e-07 1.54249e-06 0.000155416
0.00165218 -0.000492516 -3.87166e-06
-0.000492516 0.000308081 2.71882e-06
-3.87166e-06 2.71882e-06 -2.35258e-05
0.00128962 -0.000356275 -1.36428e-06
-0.000356275 0.000215327 2.86892e-06
-1.36428e-06 2.86892e-06 -5.23155e-05
0.00138134 -0.000381851 -2.732e-06
-0.000381851 0.000241186 1.51691e-06
-2.732e-06 1.51691e-06 -5.32015e-05
0.0011624 -0.000306302 -6.37031e-06
-0.000306302 0.000197687 1.83641e-06
-6.37031e-06 1.83641e-06 -7.05911e-05
0.00224209 -0.000389279 5.43287e-06
-0.000389279 0.000880422 -1.37913e-06
5.43287e-06 -1.37913e-06 0.000631873
0.00158687 -0.000337351 3.05641e-06
-0.000337351 0.000452082 -2.65565e-06
3.05641e-06 -2.65565e-06 0.000214071
-6.5333e-05 -7.41119e-05 1.40555e-06
-7.41119e-05 -0.000359883 1.50561e-06
1.40555e-06 1.50561e-06 -0.000547753
0.000826067 -0.000217316 2.36454e-06
-0.000217316 0.000156572 -1.56852e-06
2.36454e-06 -1.56852e-06 -6.71392e-05
0.00121443 -0.000275619 6.10676e-06
-0.000275619 0.000290097 -5.31342e-06
6.10676e-06 -5.31342e-06 5.31069e-05
0.000163114 -4.6412e-06 8.07546e-07
-4.6412e-06 -0.000200857 1.72377e-06
8.07546e-07 1.72377e-06 -0.000339474
0.000936129 -0.000127375 -5.39466e-07
-0.000127375 0.000287194 5.511e-08
-5.39466e-07 5.511e-08 0.000112509
0.00100158 -0.000231706 -1.19727e-06
-0.000231706 0.000330117 -1.74982e-06
-1.19727e-06 -1.74982e-06 0.000124551
0.000638619 8.96496e-06 -9.25707e-07
8.96496e-06 5.33575e-05 3.62891e-06
-9.25707e-07 3.62891e-06 -2.47693e-05
0.000757954 -4.49362e-05 -2.76776e-07
-4.49362e-05 0.000140951 -2.69446e-07
-2.76776e-07 -2.69446e-07 2.767e-05
0.000419662 -5.25914e-05 2.69755e-07
-5.25914e-05 -2.14623e-05 5.6544e-07
2.69755e-07 5.6544e-07 -0.000160118
0.000743073 -5.03611e-05 2.48533e-07
-5.03611e-05 0.000140663 -1.34636e-06
2.48533e-07 -1.34636e-06 3.22462e-05
0.000624423 -7.49771e-06 -2.31629e-07
-7.49771e-06 3.92596e-05 -2.37931e-07
-2.31629e-07 -2.37931e-07 -2.91524e-05
0.000518734 4.73539e-05 -2.70226e-08
4.73539e-05 -3.03038e-05 5.44714e-06
-2.70226e-08 5.44714e-06 -5.70107e-05
0.00063356 -1.60881e-05 1.64102e-06
-1.60881e-05 4.31289e-05 -2.49827e-06
1.64102e-06 -2.49827e-06 -1.93492e-05
0.000536454 4.14835e-05 -4.15168e-07
4.14835e-05 -2.75974e-05 -6.37002e-08
-4.15168e-07 -6.37002e-08 -5.08884e-05
0.00241635 8.82966e-05 -2.64739e-05
8.82966e-05 0.00111778 4.03713e-06
-2.64739e-05 4.03713e-06 0.0011249
0.000531047 2.95952e-05 1.00615e-06
2.95952e-05 -3.74928e-05 -4.58035e-06
1.00615e-06 -4.58035e-06 -5.80426e-05
0.00159787 6.03277e-05 1.23384e-05
6.03277e-05 0.000615119 -9.52717e-07
1.23384e-05 -9.52717e-07 0.000620764
0.00244765 6.25306e-05 1.75611e-05
6.25306e-05 0.0011259 -4.76446e-06
1.75611e-05 -4.76446e-06 0.00113688
0.000696881 7.11546e-05 1.07076e-06
7.11546e-05 0.000109785 -7.59618e-07
1.07076e-06 -7.59618e-07 -1.90682e-06
0.000594191 3.05445e-05 3.11924e-08
3.05445e-05 1.87033e-05 -2.34466e-06
3.11924e-08 -2.34466e-06 -4.59206e-05
0.000533105 4.2242e-05 -1.1892e-06
4.2242e-05 1.65753e-05 -1.19534e-06
-1.1892e-06 -1.19534e-06 -9.53396e-05
0.000541298 -1.39097e-05 6.4577e-07
-1.39097e-05 -3.56623e-05 -4.41477e-06
6.4577e-07 -4.41477e-06 -5.14973e-05
0.000415327 2.24908e-05 -1.66544e-06
2.24908e-05 -8.63903e-05 -1.35582e-06
-1.66544e-06 -1.35582e-06 -0.000146769
0.000744802 4.94719e-05 -5.40753e-07
4.94719e-05 0.000145817 -1.11719e-06
-5.40753e-07 -1.11719e-06 4.10688e-05
0.00222081 -3.80673e-05 -1.67886e-05
-3.80673e-05 0.000981597 -4.65698e-06
-1.67886e-05 -4.65698e-06 0.000997701
0.000541073 -1.09918e-05 -1.69361e-07
-1.09918e-05 -3.72044e-05 -8.46368e-08
-1.69361e-07 -8.46368e-08 -4.93184e-05
0.000214645 5.1044e-06 -1.01998e-06
5.1044e-06 -0.000205751 6.13313e-07
-1.01998e-06 6.13313e-07 -0.000261589
0.00213684 -2.26273e-05 -4.36057e-06
-2.26273e-05 0.000929269 1.01397e-07
-4.36057e-06 1.01397e-07 0.000947072
0.000541092 -7.07625e-06 -8.98748e-07
-7.07625e-06 -3.79877e-05 3.43487e-06
-8.98748e-07 3.43487e-06 -4.73306e-05
0.00207322 -7.46392e-06 7.6804e-06
-7.46392e-06 0.000890235 4.71058e-06
7.6804e-06 4.71058e-06 0.000908981
0.00140349 -6.05465e-05 -1.71968e-05
-6.05465e-05 -0.000330876 2.13268e-05
-1.71968e-05 2.13268e-05 -9.51921e-05
0.00058618 -6.22566e-05 1.73283e-05
-6.22566e-05 0.000554169 -1.47756e-06
1.73283e-05 -1.47756e-06 0.000495115
0.000734416 -0.000168207 0.000120826
-0.000168207 0.000248039 -4.55663e-05
0.000120826 -4.55663e-05 -0.0018009
0.00049701 3.13944e-05 1.46768e-06
3.13944e-05 -3.78408e-05 6.95495e-08
1.46768e-06 6.95495e-08 -0.000152624
0.00103857 6.9578e-05 -3.24131e-07
6.9578e-05 0.000277252 1.82555e-06
-3.24131e-07 1.82555e-06 0.000147266
0.000781848 0.000109023 -7.64808e-07
0.000109023 0.000160783 -5.28641e-07
-7.64808e-07 -5.28641e-07 3.5795e-05
0.000551513 5.36321e-05 2.79894e-07
5.36321e-05 -7.08227e-07 3.92358e-07
2.79894e-07 3.92358e-07 -0.000114843
0.000659897 7.08911e-05 1.56564e-07
7.08911e-05 8.3647e-05 2.60073e-07
1.56564e-07 2.60073e-07 -4.5406e-05
0.000623188 6.39612e-05 1.91458e-06
6.39612e-05 5.24121e-05 -9.81051e-07
1.91458e-06 -9.81051e-07 -6.90165e-05
0.00065135 0.000156376 4.98616e-06
0.000156376 0.000107455 3.90156e-06
4.98616e-06 3.90156e-06 -4.09135e-05
0.000144323 0.000133417 6.8631e-05
0.000133417 -0.000205672 0.000183326
6.8631e-05 0.000183326 -0.00152677
0.00293009 -4.10384e-05 -1.4934e-05
-4.10384e-05 0.000202407 5.38329e-05
-1.4934e-05 5.38329e-05 -0.000433895
0.00340807 -0.000233657 4.95125e-05
-0.000233657 0.00234687 -7.41876e-05
4.95125e-05 -7.41876e-05 0.00133129
0.00484206 -0.000129441 -8.08462e-06
-0.000129441 -0.00473198 8.03847e-05
-8.08462e-06 8.03847e-05 -0.00151351
0.00310735 -0.00139745 -9.26956e-05
-0.00139745 0.000927541 6.7949e-05
-9.26956e-05 6.7949e-05 0.000239839
-0.00187269 -0.00174405 -4.83022e-05
-0.00174405 6.45578e-06 9.21041e-05
-4.83022e-05 9.21041e-05 -0.00428248
0.0101303 0.00227526 8.38828e-05
0.00227526 0.00519743 -7.7578e-05
8.38828e-05 -7.7578e-05 0.00281221
0.00310769 -0.00124382 -3.12242e-05
-0.00124382 0.000727721 7.37979e-06
-3.12242e-05 7.37979e-06 0.000408636
-0.000870584 -0.000536658 2.00225e-05
-0.000536658 0.00189424 3.39065e-05
2.00225e-05 3.39065e-05 -0.00306343
0.00500261 0.000238872 4.7822e-05
0.000238872 0.00259392 -1.23758e-05
4.7822e-05 -1.23758e-05 0.000820592
0.010638 -0.00151775 -3.49344e-05
-0.00151775 0.00139179 -3.67832e-05
-3.49344e-05 -3.67832e-05 0.00267011
-0.000510447 -0.000159749 -0.000110027
-0.000159749 -0.000691202 8.21122e-05
-0.000110027 8.21122e-05 -0.000432234
0.0011527 0.0015831 -8.02028e-05
0.0015831 0.00249476 -8.27574e-05
-8.02028e-05 -8.27574e-05 -0.00254541
-0.00587499 -0.00254827 5.16531e-05
-0.00254827 -0.00304957 -0.000163382
5.16531e-05 -0.000163382 -0.00566552
0.00701093 -0.00160443 7.04279e-05
-0.00160443 0.000189222 -0.000322434
7.04279e-05 -0.000322434 0.00061431
0.000967023 2.8631e-05 6.9638e-06
2.8631e-05 0.000303638 1.52336e-06
6.9638e-06 1.52336e-06 0.000173087
0.000648154 8.80583e-05 -4.64125e-07
8.80583e-05 9.54434e-05 -1.11278e-06
-4.64125e-07 -1.11278e-06 -4.71487e-05
0.000800887 -1.31362e-05 -4.87041e-08
-1.31362e-05 0.000231845 -2.84382e-06
-4.87041e-08 -2.84382e-06 4.49897e-05
0.000825478 7.27096e-05 -2.0466e-06
7.27096e-05 0.000199096 -5.36814e-06
-2.0466e-06 -5.36814e-06 4.89031e-05
0.00043657 -0.00049246 -5.61993e-06
-0.00049246 -0.000341243 3.58672e-05
-5.61993e-06 3.58672e-05 -0.000453941
0.000951285 -0.000124738 -1.66081e-05
-0.000124738 0.000709161 -1.85765e-05
-1.66081e-05 -1.85765e-05 0.000464203
0.000772107 5.354e-05 -3.6074e-06
5.354e-05 0.000157876 -6.15177e-06
-3.6074e-06 -6.15177e-06 3.37432e-05
0.000691499 0.000173284 -1.08122e-06
0.000173284 0.000212345 3.94277e-06
-1.08122e-06 3.94277e-06 4.26912e-05
0.00228796 8.25706e-06 4.98351e-06
8.25706e-06 0.00132328 -1.73287e-05
4.98351e-06 -1.73287e-05 0.001064
0.000947049 7.84112e-05 4.13085e-06
7.84112e-05 0.000287132 3.61286e-06
4.13085e-06 3.61286e-06 0.000172913
0.000548849 0.000123599 -2.24524e-06
0.000123599 0.00037716 -9.04503e-07
-2.24524e-06 -9.04503e-07 7.06579e-05
0.000817658 -0.000143129 4.85431e-06
-0.000143129 0.000768412 -4.01512e-06
4.85431e-06 -4.01512e-06 0.000109102
8.03032e-05 4.47803e-06 2.29618e-05
4.47803e-06 0.000238413 -1.96377e-06
2.29618e-05 -1.96377e-06 2.98507e-05
0.000768741 0.000140559 8.6104e-07
0.000140559 0.000431076 -4.41198e-06
8.6104e-07 -4.41198e-06 0.000227548
-0.000135733 -3.07762e-05 -3.31283e-05
-3.07762e-05 0.000837828 -4.30468e-05
-3.31283e-05 -4.30468e-05 -0.00048154
0.00309733 0.000179315 1.89284e-05
0.000179315 0.00180974 2.25361e-05
1.89284e-05 2.25361e-05 0.00151934
-1.65328e-05 2.34284e-05 -1.16908e-05
2.34284e-05 0.00080724 1.46207e-05
-1.16908e-05 1.46207e-05 0.000143518
0.00116974 -2.05243e-05 1.25948e-07
-2.05243e-05 -8.01359e-05 4.48731e-07
1.25948e-07 4.48731e-07 -0.000188774
-0.000423742 7.14669e-06 4.32854e-06
7.14669e-06 0.000232754 -2.3533e-05
4.32854e-06 -2.3533e-05 -0.000118884
0.000125675 0.000130156 -3.00013e-06
0.000130156 0.00026632 6.22431e-06
-3.00013e-06 6.22431e-06 5.64256e-05
-0.00127744 0.00038937 7.06262e-05
0.00038937 -0.00080884 6.03854e-05
7.06262e-05 6.03854e-05 -0.00116092
0.00114384 -1.58772e-05 2.40309e-05
-1.58772e-05 -0.000507923 -6.46843e-06
2.40309e-05 -6.46843e-06 -0.000153569
0.00257003 -0.00139564 0.000134031
-0.00139564 0.00362215 -0.00013089
0.000134031 -0.00013089 -0.0024824
0.0107969 0.00221383 -9.35148e-05
0.00221383 0.00497578 7.33076e-05
-9.35148e-05 7.33076e-05 0.00289263
0.00352125 -0.000167785 -5.56738e-05
-0.000167785 0.00229664 7.92317e-05
-5.56738e-05 7.92317e-05 0.00130697
0.00679374 0.00222397 -2.54734e-05
0.00222397 0.000927663 -6.90559e-05
-2.54734e-05 -6.90559e-05 7.38791e-05
0.000160396 0.000121955 -4.39123e-05
0.000121955 0.000646057 1.1601e-05
-4.39123e-05 1.1601e-05 2.51857e-05
0.000704802 -1.43248e-05 -2.01903e-05
-1.43248e-05 0.000532967 1.78068e-06
-2.01903e-05 1.78068e-06 0.000523542
0.00366532 -0.000585023 0.000143782
-0.000585023 0.00132408 -1.23969e-05
0.000143782 -1.23969e-05 -0.00206793
-0.000423086 -0.000195786 1.59961e-05
-0.000195786 -0.000342876 2.62624e-05
1.59961e-05 2.62624e-05 -0.00052458
0.000500805 0.00312096 0.000207718
0.00312096 0.00182296 -0.000102342
0.000207718 -0.000102342 0.00217011
0.00770868 0.00141611 -8.70573e-05
0.00141611 0.000880504 0.00016341
-8.70573e-05 0.00016341 2.67425e-05
-0.00306956 -0.000817934 7.85272e-05
-0.000817934 0.00110547 -8.62255e-05
7.85272e-05 -8.62255e-05 -0.00445121
0.000388009 -0.000230336 4.08737e-05
-0.000230336 0.000499375 -1.10712e-05
4.08737e-05 -1.10712e-05 -2.75e-05
0.000417204 -0.000251389 0.000118491
-0.000251389 -0.00027582 -3.2542e-05
0.000118491 -3.2542e-05 -0.00206102
-0.00224491 2.03761e-05 -0.000377813
2.03761e-05 0.00302633 5.88702e-05
-0.000377813 5.88702e-05 0.000868929
0.00585468 0.00294689 -0.000293379
0.00294689 0.000948228 0.000356237
-0.000293379 0.000356237 0.000799468
0.00794125 -0.00128861 -3.94363e-05
-0.00128861 0.00358591 1.18537e-05
-3.94363e-05 1.18537e-05 8.68863e-05
0.00290143 -0.000715066 -5.71515e-05
-0.000715066 0.00131376 3.8875e-05
-5.71515e-05 3.8875e-05 0.000903113
-0.000513635 1.93433e-05 2.1749e-05
1.93433e-05 -0.000136935 8.94972e-06
2.1749e-05 8.94972e-06 -0.000338696
0.00033331 -0.0002326 -1.42896e-07
-0.0002326 0.00035192 4.97783e-07
-1.42896e-07 4.97783e-07 2.30814e-05
0.00100127 -0.000402069 1.55581e-05
-0.000402069 0.000415647 -2.8338e-06
1.55581e-05 -2.8338e-06 0.000271859
-0.000468147 -0.00018809 -5.75588e-06
-0.00018809 -0.000165211 7.13013e-06
-5.75588e-06 7.13013e-06 -0.000368224
-0.000709857 -0.000209578 -7.16422e-08
-0.000209578 -0.000468099 -2.82844e-06
-7.16422e-08 -2.82844e-06 -0.000687551
0.00302174 -0.000601384 3.59339e-05
-0.000601384 0.00121648 -3.59176e-06
3.59339e-05 -3.59176e-06 0.000949197
0.00476229 -0.000709604 -1.04877e-05
-0.000709604 0.0023331 3.88726e-06
-1.04877e-05 3.88726e-06 0.00204436
0.00245657 -0.000503103 7.7764e-06
-0.000503103 0.00103401 1.00502e-07
7.7764e-06 1.00502e-07 0.000626432
0.00133913 -0.000470128 8.83894e-06
-0.000470128 0.000270133 -7.74022e-06
8.83894e-06 -7.74022e-06 -0.000168378
0.00155871 -0.000375281 -8.84661e-06
-0.000375281 0.000393831 1.90756e-06
-8.84661e-06 1.90756e-06 9.47218e-05
0.00213747 -0.000521316 1.12465e-06
-0.000521316 0.000659568 4.69602e-07
1.12465e-06 4.69602e-07 0.000263439
0.00209196 -0.000547252 2.11721e-06
-0.000547252 0.00059113 -6.34067e-06
2.11721e-06 -6.34067e-06 0.000192703
0.00198151 -0.000502972 -1.64544e-06
-0.000502972 0.00040163 -3.37129e-06
-1.64544e-06 -3.37129e-06 0.000109919
0.00180549 -0.000501666 -8.42713e-07
-0.000501666 0.000374519 2.51801e-06
-8.42713e-07 2.51801e-06 6.48928e-05
0.00176441 -0.000507599 -1.30993e-06
-0.000507599 0.000371022 -3.37153e-08
-1.30993e-06 -3.37153e-08 3.20576e-05
0.00131335 -0.000337346 5.96195e-06
-0.000337346 0.00023792 1.69545e-07
5.96195e-06 1.69545e-07 -6.62183e-06
0.00127003 -0.000346753 1.86147e-06
-0.000346753 0.000202464 5.70894e-08
1.86147e-06 5.70894e-08 -5.60172e-05
0.00134608 -0.000380311 1.08455e-06
-0.000380311 0.000222178 -9.76776e-07
1.08455e-06 -9.76776e-07 -7.6038e-05
0.0013188 -0.000279537 3.26089e-06
-0.000279537 0.000378429 2.34495e-06
3.26089e-06 2.34495e-06 0.000142461
0.00134448 -0.000300812 -2.18319e-06
-0.000300812 0.000339928 -1.2886e-06
-2.18319e-06 -1.2886e-06 0.000106747
0.000769531 -0.000256089 7.12522e-06
-0.000256089 -3.21278e-05 -4.22224e-06
7.12522e-06 -4.22224e-06 -0.000251788
0.000375811 -0.000107581 2.20604e-06
-0.000107581 -6.19716e-05 7.45694e-07
2.20604e-06 7.45694e-07 -0.000252359
0.000472303 -0.000127955 -9.02395e-07
-0.000127955 -2.06851e-05 1.35404e-06
-9.02395e-07 1.35404e-06 -0.000219603
0.00145674 -0.000287117 3.51894e-06
-0.000287117 0.000542207 -5.7287e-06
3.51894e-06 -5.7287e-06 0.000307036
0.000468801 9.39435e-06 2.73561e-07
9.39435e-06 -4.5142e-05 4.32551e-06
2.73561e-07 4.32551e-06 -0.00013676
0.000694718 -4.60527e-05 -4.58456e-07
-4.60527e-05 0.000124965 -7.82802e-08
-4.58456e-07 -7.82802e-08 -2.4916e-05
0.00129625 -0.000177495 8.01998e-07
-0.000177495 0.00050924 -5.92017e-07
8.01998e-07 -5.92017e-07 0.000324272
0.000495722 4.6542e-05 -1.68227e-06
4.6542e-05 -3.70363e-05 7.83735e-06
-1.68227e-06 7.83735e-06 -6.71473e-05
0.000638249 4.41327e-06 -3.2955e-07
4.41327e-06 5.01744e-05 -2.69961e-07
-3.2955e-07 -2.69961e-07 -2.76241e-05
0.000979552 -7.13618e-05 -1.71975e-07
-7.13618e-05 0.000279266 -1.47534e-06
-1.71975e-07 -1.47534e-06 0.000157972
0.000662807 -8.2107e-06 1.19834e-06
-8.2107e-06 6.13681e-05 -3.08002e-06
1.19834e-06 -3.08002e-06 -7.21736e-06
0.00052906 4.76436e-05 3.77063e-07
4.76436e-05 -2.36258e-05 1.42262e-08
3.77063e-07 1.42262e-08 -5.06431e-05
0.00247945 0.000105704 -2.79435e-05
0.000105704 0.0011642 3.70393e-06
-2.79435e-05 3.70393e-06 0.00116748
0.000547546 4.45293e-05 -3.54362e-07
4.45293e-05 -2.07153e-05 -5.05281e-06
-3.54362e-07 -5.05281e-06 -4.4539e-05
0.00244065 9.14578e-05 2.98994e-06
9.14578e-05 0.0011333 2.95829e-07
2.98994e-06 2.95829e-07 0.0011398
0.00241994 7.72703e-05 2.11057e-05
7.72703e-05 0.00111446 -4.28712e-06
2.11057e-05 -4.28712e-06 0.00112358
0.000697096 6.80439e-05 1.78783e-07
6.80439e-05 0.000121308 -1.03864e-06
1.78783e-07 -1.03864e-06 -1.92411e-05
0.00076731 9.22166e-05 1.38687e-06
9.22166e-05 0.000162671 -1.24782e-06
1.38687e-06 -1.24782e-06 3.38861e-05
0.000624112 2.25657e-05 2.3212e-07
2.25657e-05 3.67905e-05 -2.72599e-06
2.3212e-07 -2.72599e-06 -3.43258e-05
0.000683374 8.41893e-05 8.63193e-09
8.41893e-05 9.98927e-05 -8.86794e-08
8.63193e-09 -8.86794e-08 -1.13455e-05
0.000531553 -1.55543e-05 -3.51601e-07
-1.55543e-05 -3.83398e-05 -5.13376e-06
-3.51601e-07 -5.13376e-06 -5.82859e-05
0.000603291 3.18613e-05 7.82875e-08
3.18613e-05 2.47726e-05 -9.9903e-08
7.82875e-08 -9.9903e-08 -3.98992e-05
0.000612395 4.44813e-05 -2.44881e-06
4.44813e-05 5.29018e-05 4.30071e-08
-2.44881e-06 4.30071e-08 -4.99554e-05
0.00232836 -5.27271e-05 -2.20188e-05
-5.27271e-05 0.00104902 -4.62927e-06
-2.20188e-05 -4.62927e-06 0.00106295
0.000539817 -1.59691e-05 -4.01641e-07
-1.59691e-05 -3.60482e-05 -7.38178e-08
-4.01641e-07 -7.38178e-08 -5.18329e-05
0.00052909 3.54452e-05 -1.67645e-06
3.54452e-05 -1.73959e-05 6.65336e-07
-1.67645e-06 6.65336e-07 -7.66617e-05
0.00220682 -3.6785e-05 -4.24094e-06
-3.6785e-05 0.000972863 1.71125e-07
-4.24094e-06 1.71125e-07 0.000989237
0.000540375 -1.09108e-05 -9.6218e-07
-1.09108e-05 -3.78987e-05 3.64447e-06
-9.6218e-07 3.64447e-06 -4.97684e-05
0.00211177 -2.13453e-05 1.18627e-05
-2.13453e-05 0.000913789 4.65806e-06
1.18627e-05 4.65806e-06 0.000931835
-0.000169661 -5.74546e-05 -2.57805e-06
-5.74546e-05 -7.76238e-05 3.42673e-06
-2.57805e-06 3.42673e-06 5.74115e-05
0.00134964 -9.87743e-05 -1.73617e-05
-9.87743e-05 -0.000415168 2.78026e-05
-1.73617e-05 2.78026e-05 -0.000110386
0.000619247 -9.4379e-05 1.00704e-05
-9.4379e-05 0.000528185 -1.76945e-05
1.00704e-05 -1.76945e-05 0.000458373
0.000735092 6.96012e-05 -2.44417e-07
6.96012e-05 0.000129337 1.55125e-07
-2.44417e-07 1.55125e-07 -2.68065e-06
0.000680837 5.55865e-05 1.56322e-06
5.55865e-05 6.61585e-05 -4.2389e-07
1.56322e-06 -4.2389e-07 -5.90427e-05
-0.000153468 3.05146e-05 -4.27752e-06
3.05146e-05 -0.000425617 -4.70843e-06
-4.27752e-06 -4.70843e-06 -0.000538216
0.000322948 1.81569e-05 1.44226e-06
1.81569e-05 -0.000128386 2.97403e-06
1.44226e-06 2.97403e-06 -0.000251693
0.00161695 0.00019352 -6.79632e-07
0.00019352 0.000668243 -1.24533e-07
-6.79632e-07 -1.24533e-07 0.000502686
0.000655044 3.35624e-05 -2.23858e-06
3.35624e-05 5.38098e-05 1.99642e-08
-2.23858e-06 1.99642e-08 -5.68737e-05
0.00065647 6.01332e-05 -2.91281e-06
6.01332e-05 7.29205e-05 -3.68288e-06
-2.91281e-06 -3.68288e-06 -4.89843e-05
0.000754699 6.82843e-05 -7.64259e-08
6.82843e-05 0.000132427 -2.18995e-07
-7.64259e-08 -2.18995e-07 8.07191e-06
0.000979834 0.000112047 1.15802e-07
0.000112047 0.000280213 -2.24015e-07
1.15802e-07 -2.24015e-07 0.000145507
0.000980932 8.76688e-05 3.37683e-06
8.76688e-05 0.000314599 -2.0138e-06
3.37683e-06 -2.0138e-06 0.000164799
0.00338199 0.000320676 0.000212691
0.000320676 0.00235733 0.000276938
0.000212691 0.000276938 -0.00118225
0.00068101 0.0001501 1.01885e-05
0.0001501 -1.97831e-05 7.19546e-05
1.01885e-05 7.19546e-05 -0.0015347
0.0027153 -4.80739e-05 -1.22457e-05
-4.80739e-05 0.000431046 -8.45785e-06
-1.22457e-05 -8.45785e-06 2.45868e-06
0.0108642 -0.00132129 -0.000114191
-0.00132129 0.00149437 -0.000117275
-0.000114191 -0.000117275 0.00300579
-0.00909379 0.00110145 -7.93283e-06
0.00110145 -0.003177 0.000289939
-7.93283e-06 0.000289939 -0.00601862
0.00494364 -0.00139196 -0.000119749
-0.00139196 0.00181496 3.05322e-05
-0.000119749 3.05322e-05 0.00152383
0.0110281 -0.0011468 -8.44697e-05
-0.0011468 0.00498635 -2.69122e-06
-8.44697e-05 -2.69122e-06 0.0012314
0.00199127 -0.000326301 -2.7846e-05
-0.000326301 0.000482312 7.22489e-05
-2.7846e-05 7.22489e-05 0.000336656
0.0113529 -0.000156345 -2.7504e-05
-0.000156345 0.00598607 -1.16969e-05
-2.7504e-05 -1.16969e-05 0.00119121
0.00285752 -0.00157725 6.28894e-05
-0.00157725 0.00108881 8.69189e-05
6.28894e-05 8.69189e-05 -0.00120374
0.00671053 -0.00198091 -0.000157552
-0.00198091 -0.00059978 -0.000389434
-0.000157552 -0.000389434 -0.000196428
0.00282148 0.000132849 -0.000117276
0.000132849 0.00104982 5.95457e-05
-0.000117276 5.95457e-05 0.000476748
0.0104994 0.00132328 -6.74364e-05
0.00132328 0.00493785 1.55522e-05
-6.74364e-05 1.55522e-05 0.00109938
0.0120294 -0.00278114 -0.000107439
-0.00278114 0.00441813 -0.000343097
-0.000107439 -0.000343097 0.00361661
0.0100751 -0.00329599 8.5846e-05
-0.00329599 0.00271726 -9.51184e-06
8.5846e-05 -9.51184e-06 0.00339662
0.000204316 8.12567e-05 6.99419e-06
8.12567e-05 -6.00547e-05 -2.53818e-06
6.99419e-06 -2.53818e-06 -0.000210513
0.000836016 2.94112e-05 1.35994e-06
2.94112e-05 0.000246635 2.62576e-06
1.35994e-06 2.62576e-06 9.468e-05
0.000681955 0.000100712 -3.52464e-06
0.000100712 0.000117443 -6.746e-06
-3.52464e-06 -6.746e-06 -2.82323e-05
0.00170115 -0.000240735 -2.78871e-05
-0.000240735 0.00105787 2.63988e-05
-2.78871e-05 2.63988e-05 0.000262055
0.000752875 -3.07024e-05 -4.84452e-05
-3.07024e-05 0.00064253 -2.19232e-05
-4.84452e-05 -2.19232e-05 0.000453226
0.000499633 7.38995e-06 -5.92427e-06
7.38995e-06 1.94327e-05 1.65003e-06
-5.92427e-06 1.65003e-06 -9.15487e-05
-0.000934831 8.75153e-05 -8.46386e-06
8.75153e-05 -0.00042168 -4.0393e-06
-8.46386e-06 -4.0393e-06 -0.000772347
0.000284928 9.89206e-05 4.7015e-07
9.89206e-05 0.000135829 -1.82253e-06
4.7015e-07 -1.82253e-06 -7.35897e-05
0.000681214 0.00016279 2.34329e-06
0.00016279 0.000511318 2.54524e-06
2.34329e-06 2.54524e-06 0.000176443
-0.000731562 -7.45914e-05 0.000125993
-7.45914e-05 0.000681564 -3.60476e-05
0.000125993 -3.60476e-05 -0.000652019
-0.00202103 4.82818e-05 -1.80636e-05
4.82818e-05 -0.00104577 1.26365e-05
-1.80636e-05 1.26365e-05 -0.0012958
0.00265171 0.000397704 -7.30265e-05
0.000397704 0.00172826 -5.10463e-05
-7.30265e-05 -5.10463e-05 0.000820516
0.00195473 7.36347e-05 9.79865e-05
7.36347e-05 0.00134584 2.37721e-05
9.79865e-05 2.37721e-05 -0.00102494
-0.000253069 2.15784e-05 9.70309e-06
2.15784e-05 0.000544667 1.58562e-05
9.70309e-06 1.58562e-05 -4.12229e-06
0.00172316 -8.15343e-05 -1.29666e-07
-8.15343e-05 0.000175627 -7.21666e-08
-1.29666e-07 -7.21666e-08 0.00039156
-0.00169057 0.000327056 0.000110157
0.000327056 -0.000374384 6.93588e-06
0.000110157 6.93588e-06 -0.00110758
0.00269937 0.00017833 -3.65396e-05
0.00017833 0.0014837 2.47427e-05
-3.65396e-05 2.47427e-05 0.000632006
0.000642643 -6.14318e-05 -1.08504e-05
-6.14318e-05 0.000513711 1.24144e-05
-1.08504e-05 1.24144e-05 0.000458511
0.0159565 -0.0020487 0.000141087
-0.0020487 0.0070953 -4.44688e-05
0.000141087 -4.44688e-05 0.00268737
0.012584 0.00213953 -6.70161e-05
0.00213953 0.00471934 -5.69143e-05
-6.70161e-05 -5.69143e-05 0.00332786
0.00431201 -0.000637588 -9.42412e-05
-0.000637588 0.00176232 0.000140494
-9.42412e-05 0.000140494 -0.00172913
-0.00622603 0.00354087 0.000955454
0.00354087 -0.00227736 -0.000731365
0.000955454 -0.000731365 -0.00150248
0.000709792 -0.000229 1.37944e-05
-0.000229 0.000766799 -4.33468e-06
1.37944e-05 -4.33468e-06 0.000156855
0.000591237 -0.000187394 6.65369e-06
-0.000187394 -1.39177e-06 1.40885e-05
6.65369e-06 1.40885e-05 -0.00199477
-0.00285378 0.000156155 -0.000520335
0.000156155 0.00300649 0.000210086
-0.000520335 0.000210086 0.000828148
0.00115547 -0.000409763 -2.09551e-05
-0.000409763 0.00043363 3.50261e-05
-2.09551e-05 3.50261e-05 7.34967e-05
0.0136524 0.00280472 0.000138206
0.00280472 0.00401956 8.49468e-05
0.000138206 8.49468e-05 0.00394669
0.0079165 -0.0019716 0.000103713
-0.0019716 0.00323628 -5.95233e-05
0.000103713 -5.95233e-05 4.25664e-05
0.00231942 -0.000580805 2.37009e-06
-0.000580805 0.00109205 2.42309e-05
2.37009e-06 2.42309e-05 0.000892831
-0.00501902 -0.000617575 5.00476e-05
-0.000617575 0.00236551 -3.13683e-05
5.00476e-05 -3.13683e-05 -0.000252056
0.0115866 0.00258004 -0.000594566
0.00258004 0.00506017 0.000274915
-0.000594566 0.000274915 0.00452193
0.0024722 -0.00127924 -0.000242467
-0.00127924 -0.000512838 0.000153578
-0.000242467 0.000153578 -0.00391759
0.00251164 -0.00111381 0.000114837
-0.00111381 0.000563027 -5.75577e-05
0.000114837 -5.75577e-05 0.00071232
-0.000219021 -0.000209804 -5.35936e-05
-0.000209804 3.58878e-05 1.59037e-05
-5.35936e-05 1.59037e-05 -0.000274024
0.000641171 -0.000350503 -6.89046e-06
-0.000350503 0.000292093 1.00212e-05
-6.89046e-06 1.00212e-05 7.68087e-05
0.0037709 -0.000650014 2.75188e-05
-0.000650014 0.00166012 4.81343e-07
2.75188e-05 4.81343e-07 0.00146388
-0.00278462 -6.43681e-05 -1.0839e-06
-6.43681e-05 -0.00153424 9.93859e-06
-1.0839e-06 9.93859e-06 -0.00175681
0.00082561 -0.00036873 4.90556e-06
-0.00036873 8.61538e-05 1.43911e-06
4.90556e-06 1.43911e-06 -0.000173025
0.0022434 -0.000603742 6.03809e-06
-0.000603742 0.00053908 -2.46775e-08
6.03809e-06 -2.46775e-08 0.00027309
0.00308029 -0.00056554 -1.70833e-05
-0.00056554 0.00130404 6.02716e-06
-1.70833e-05 6.02716e-06 0.000921966
0.00131436 -0.000454536 -2.44406e-06
-0.000454536 0.000230969 -4.02961e-06
-2.44406e-06 -4.02961e-06 -0.000185065
0.00172076 -0.000578925 5.44877e-06
-0.000578925 0.000232044 -7.6962e-06
5.44877e-06 -7.6962e-06 -9.81785e-05
0.00255095 -0.000570768 -3.52344e-06
-0.000570768 0.000862331 7.60688e-09
-3.52344e-06 7.60688e-09 0.000458165
0.00172432 -0.000515992 4.07945e-07
-0.000515992 0.000364061 -3.97586e-06
4.07945e-07 -3.97586e-06 -1.82642e-05
0.00217567 -0.000522214 1.2695e-06
-0.000522214 0.000452548 -7.19765e-06
1.2695e-06 -7.19765e-06 0.000170654
0.00167256 -0.000392845 -4.10811e-06
-0.000392845 9.87525e-05 -3.36581e-06
-4.10811e-06 -3.36581e-06 -0.000117188
0.00164353 -0.000484273 1.54983e-06
-0.000484273 0.000185136 -8.87695e-07
1.54983e-06 -8.87695e-07 -0.000100613
0.00181692 -0.000487165 2.05302e-06
-0.000487165 0.000310177 -2.56059e-06
2.05302e-06 -2.56059e-06 2.29016e-05
0.00174667 -0.000431073 6.4967e-07
-0.000431073 0.000399984 1.41304e-06
6.4967e-07 1.41304e-06 0.00012046
0.00183245 -0.000504823 -2.02943e-06
-0.000504823 0.000407204 1.33544e-07
-2.02943e-06 1.33544e-07 9.23954e-05
0.00183356 -0.000520016 1.17149e-06
-0.000520016 0.000408588 -3.45725e-06
1.17149e-06 -3.45725e-06 6.28454e-05
0.00141986 -0.00031138 2.74983e-06
-0.00031138 0.000340152 6.35429e-07
2.74983e-06 6.35429e-07 0.000104315
0.000974509 -0.000300871 4.62595e-07
-0.000300871 4.43368e-05 -3.96688e-07
4.62595e-07 -3.96688e-07 -0.000189884
0.0013016 -0.000343354 3.85344e-06
-0.000343354 0.000218078 -2.29677e-06
3.85344e-06 -2.29677e-06 -3.17127e-05
0.000731974 -0.000216517 -4.72615e-07
-0.000216517 8.87977e-05 8.66663e-07
-4.72615e-07 8.66663e-07 -0.000122311
0.000950207 -0.000239648 1.50372e-07
-0.000239648 0.000161521 3.16366e-08
1.50372e-07 3.16366e-08 -6.57083e-05
0.000437727 -0.000211684 -2.06025e-06
-0.000211684 -0.000204951 -7.65954e-07
-2.06025e-06 -7.65954e-07 -0.000422893
0.000213842 7.40932e-07 -2.84656e-07
7.40932e-07 -0.000190663 5.38946e-06
-2.84656e-07 5.38946e-06 -0.000312837
0.000778566 -0.000127703 1.38943e-06
-0.000127703 0.000184677 3.5431e-07
1.38943e-06 3.5431e-07 -1.4201e-05
0.00112963 -0.000185076 -2.33473e-06
-0.000185076 0.000389291 -1.21734e-07
-2.33473e-06 -1.21734e-07 0.000178277
0.00148457 8.2343e-05 -1.98114e-05
8.2343e-05 0.000572345 5.23952e-06
-1.98114e-05 5.23952e-06 0.000537097
0.000679536 -2.13368e-05 2.42432e-07
-2.13368e-05 7.64471e-05 -6.05267e-07
2.42432e-07 -6.05267e-07 -1.70564e-05
0.0012406 -8.33131e-05 -2.07479e-06
-8.33131e-05 0.000459301 -1.95254e-06
-2.07479e-06 -1.95254e-06 0.000298418
0.000737429 4.96814e-05 -3.0731e-05
4.96814e-05 0.000115401 3.97033e-06
-3.0731e-05 3.97033e-06 0.000111993
0.000991796 6.22782e-05 -9.60381e-06
6.22782e-05 0.000265046 -2.22658e-07
-9.60381e-06 -2.22658e-07 0.000235074
0.000647852 -1.70691e-06 8.25968e-07
-1.70691e-06 5.25333e-05 -3.9734e-06
8.25968e-07 -3.9734e-06 -2.47974e-05
0.000537006 5.03772e-05 1.23865e-08
5.03772e-05 -1.76782e-05 -5.78216e-06
1.23865e-08 -5.78216e-06 -4.54095e-05
0.00250208 0.000107468 4.6882e-06
0.000107468 0.0011786 4.26548e-07
4.6882e-06 4.26548e-07 0.00118156
0.00243298 9.33431e-05 2.31235e-05
9.33431e-05 0.00112956 -4.05178e-06
2.31235e-05 -4.05178e-06 0.00113569
0.000817589 7.80596e-05 1.0821e-06
7.80596e-05 0.000178523 1.91218e-06
1.0821e-06 1.91218e-06 4.70395e-05
0.000790345 8.49649e-05 1.06253e-06
8.49649e-05 0.000178632 -2.20059e-06
1.06253e-06 -2.20059e-06 4.36851e-05
0.000587488 5.39744e-05 -4.92491e-07
5.39744e-05 3.49513e-05 6.4373e-07
-4.92491e-07 6.4373e-07 -9.1531e-05
0.000632183 1.18838e-05 5.23145e-08
1.18838e-05 4.17576e-05 -3.15302e-06
5.23145e-08 -3.15302e-06 -3.57058e-05
0.000724241 7.09809e-05 5.53482e-07
7.09809e-05 0.00012494 3.07601e-08
5.53482e-07 3.07601e-08 6.96686e-06
0.000530704 -1.60788e-05 -1.00612e-06
-1.60788e-05 -3.42533e-05 -5.73782e-06
-1.00612e-06 -5.73782e-06 -5.86373e-05
0.000595301 2.48429e-05 -3.13354e-08
2.48429e-05 2.07236e-05 -1.56847e-07
-3.13354e-08 -1.56847e-07 -5.08733e-05
0.00072566 6.8797e-05 -1.06659e-06
6.8797e-05 0.000142373 1.44611e-06
-1.06659e-06 1.44611e-06 1.81591e-05
0.00248233 -6.83954e-05 -2.87921e-05
-6.83954e-05 0.00114599 -4.49635e-06
-2.87921e-05 -4.49635e-06 0.00115714
0.000521765 -1.80447e-05 -5.8781e-07
-1.80447e-05 -4.41232e-05 -6.16811e-08
-5.8781e-07 -6.16811e-08 -6.39491e-05
0.000593043 3.49878e-05 2.77957e-07
3.49878e-05 1.94505e-05 2.49618e-06
2.77957e-07 2.49618e-06 -4.52405e-05
0.002338 -5.21536e-05 -4.67209e-06
-5.21536e-05 0.00105462 2.55965e-07
-4.67209e-06 2.55965e-07 0.00106868
0.000522419 -1.72915e-05 -1.3639e-06
-1.72915e-05 -4.62035e-05 4.24135e-06
-1.3639e-06 4.24135e-06 -6.18739e-05
0.00220901 -3.54482e-05 1.6914e-05
-3.54482e-05 0.000973879 4.56375e-06
1.6914e-05 4.56375e-06 0.000990446
0.0053267 0.000159175 0.000139334
0.000159175 0.00227762 2.4466e-05
0.000139334 2.4466e-05 0.000994085
-0.000150525 -6.1701e-05 -7.51334e-07
-6.1701e-05 -8.91004e-05 -1.33622e-06
-7.51334e-07 -1.33622e-06 3.68883e-06
0.00123993 -6.99103e-05 -2.05988e-05
-6.99103e-05 -0.000449329 3.57984e-06
-2.05988e-05 3.57984e-06 -9.18592e-05
0.000345948 0.000103741 -6.32588e-06
0.000103741 -0.000115367 -2.14922e-06
-6.32588e-06 -2.14922e-06 -0.000242308
0.000806034 6.89666e-05 -1.79229e-06
6.89666e-05 0.000167494 -3.70419e-07
-1.79229e-06 -3.70419e-07 4.13772e-05
0.000499837 4.5953e-05 3.07711e-07
4.5953e-05 -4.43697e-05 -7.33993e-07
3.07711e-07 -7.33993e-07 -0.000164826
0.000830609 4.729e-05 2.7049e-07
4.729e-05 0.000164474 -3.18321e-07
2.7049e-07 -3.18321e-07 4.05668e-05
0.000628422 8.27755e-05 -1.00078e-06
8.27755e-05 3.54828e-05 2.53168e-07
-1.00078e-06 2.53168e-07 -8.47223e-05
0.00131316 0.000161026 6.00489e-07
0.000161026 0.000482332 -1.32376e-06
6.00489e-07 -1.32376e-06 0.000333335
0.000882605 0.000123807 -1.08691e-06
0.000123807 0.00019804 -7.52903e-06
-1.08691e-06 -7.52903e-06 2.356e-05
-5.1816e-05 2.99513e-05 1.16243e-06
2.99513e-05 -0.000287807 2.41394e-06
1.16243e-06 2.41394e-06 -0.000443298
0.000780927 0.00012098 -1.99875e-06
0.00012098 0.000162544 4.48093e-07
-1.99875e-06 4.48093e-07 2.76683e-05
0.000420062 2.93346e-05 -3.55257e-06
2.93346e-05 -7.98644e-05 -2.98608e-06
-3.55257e-06 -2.98608e-06 -0.00018894
0.000491529 6.06086e-05 -5.3104e-08
6.06086e-05 1.88442e-05 9.17524e-07
-5.3104e-08 9.17524e-07 -0.000124579
0.00143634 0.000179825 1.06593e-05
0.000179825 0.000641428 6.44659e-06
1.06593e-05 6.44659e-06 0.000470672
0.00111524 -0.00112076 0.00013656
-0.00112076 0.00300369 0.000215207
0.00013656 0.000215207 0.000309901
0.00390694 0.000419243 2.9986e-05
0.000419243 0.00220679 0.000103388
2.9986e-05 0.000103388 -0.00147394
0.00104479 0.000138164 -2.39191e-05
0.000138164 0.000233869 -4.75386e-05
-2.39191e-05 -4.75386e-05 -0.00146172
0.011671 -0.00247499 -0.000327845
-0.00247499 0.00205199 -0.000222897
-0.000327845 -0.000222897 0.00241905
0.00597118 -0.000895345 9.58842e-05
-0.000895345 0.00179957 0.000290341
9.58842e-05 0.000290341 9.44278e-05
0.00121622 -0.000907664 -0.000109865
-0.000907664 0.00237004 8.95193e-05
-0.000109865 8.95193e-05 -0.00275902
0.000975598 -0.000392608 1.69582e-05
-0.000392608 0.000366773 4.89226e-05
1.69582e-05 4.89226e-05 -0.000177753
0.00205138 -0.000108783 2.14891e-05
-0.000108783 0.00078426 5.10107e-05
2.14891e-05 5.10107e-05 0.000435562
0.00242986 -0.00337667 0.000165487
-0.00337667 0.000275316 0.000174077
0.000165487 0.000174077 0.00107301
0.00426462 0.00104192 -2.50148e-05
0.00104192 0.00372453 -3.53405e-05
-2.50148e-05 -3.53405e-05 -0.00108717
0.00383727 -0.00168376 -5.28012e-05
-0.00168376 -0.000172926 6.28023e-05
-5.28012e-05 6.28023e-05 -0.00127977
0.000608912 0.000364603 -1.7736e-05
0.000364603 0.000248238 5.59159e-05
-1.7736e-05 5.59159e-05 0.000125717
0.00833318 0.00143445 -4.75415e-05
0.00143445 0.00375712 -2.67184e-05
-4.75415e-05 -2.67184e-05 0.000410743
0.00553766 -0.00283917 -0.000337854
-0.00283917 0.000617987 -0.000272221
-0.000337854 -0.000272221 0.000356839
0.000838054 0.000358158 7.03614e-06
0.000358158 0.000188351 -1.07153e-05
7.03614e-06 -1.07153e-05 2.87022e-05
0.000629602 9.70978e-05 2.92973e-06
9.70978e-05 0.000180457 -8.78066e-08
2.92973e-06 -8.78066e-08 3.57843e-05
0.000373032 4.51018e-05 -4.74153e-06
4.51018e-05 -2.05941e-05 -2.7975e-06
-4.74153e-06 -2.7975e-06 -0.000180769
-0.000530794 -0.000133888 -0.00014015
-0.000133888 0.000956845 -4.17256e-05
-0.00014015 -4.17256e-05 -0.000334318
-0.00152824 0.000156796 1.67574e-06
0.000156796 -0.000730771 -1.71744e-05
1.67574e-06 -1.71744e-05 -0.00108242
-0.000116496 8.90476e-05 -7.44028e-06
8.90476e-05 -9.04007e-05 2.7005e-06
-7.44028e-06 2.7005e-06 -0.000320685
0.000606474 0.000351589 1.3544e-05
0.000351589 0.000316664 3.08749e-06
1.3544e-05 3.08749e-06 3.88383e-05
0.000547569 0.000293098 8.90068e-06
0.000293098 0.000575626 -3.39535e-05
8.90068e-06 -3.39535e-05 -0.000211718
4.38198e-05 0.00061531 3.55311e-05
0.00061531 -0.000393327 6.07461e-06
3.55311e-05 6.07461e-06 -0.000813277
-0.00225974 0.000452299 0.000182448
0.000452299 0.0037835 5.34572e-06
0.000182448 5.34572e-06 0.000365484
0.00222468 -1.38207e-05 -4.72977e-06
-1.38207e-05 0.00148152 3.02502e-05
-4.72977e-06 3.02502e-05 -0.000348944
-0.000509373 -1.83877e-05 -2.47793e-06
-1.83877e-05 0.000234183 1.99451e-05
-2.47793e-06 1.99451e-05 -0.000146661
3.10509e-05 -0.000153192 -5.8608e-05
-0.000153192 0.000521196 5.99394e-06
-5.8608e-05 5.99394e-06 -9.84353e-05
-0.000716973 -0.000130867 -6.92854e-05
-0.000130867 -0.000996298 2.79616e-05
-6.92854e-05 2.79616e-05 -0.000712726
0.000898654 -0.000145782 -0.000105396
-0.000145782 0.000133675 4.4004e-05
-0.000105396 4.4004e-05 -0.0018578
-0.00256415 -0.00172321 9.67363e-05
-0.00172321 0.000204694 -0.00011193
9.67363e-05 -0.00011193 -0.00420201
0.000449793 0.00233979 0.000269356
0.00233979 -0.00293784 -0.000229918
0.000269356 -0.000229918 -0.00288351
0.00347866 0.00107982 -0.000259784
0.00107982 0.00418933 0.000179869
-0.000259784 0.000179869 0.00248176
0.00136746 -0.000307104 -3.86504e-06
-0.000307104 0.000660241 -3.08376e-06
-3.86504e-06 -3.08376e-06 0.000521173
0.00140877 0.000227675 4.31089e-05
0.000227675 0.00420302 4.29316e-06
4.31089e-05 4.29316e-06 0.002362
-0.00284035 0.0016275 2.31429e-05
0.0016275 -0.000533351 2.21239e-05
2.31429e-05 2.21239e-05 -0.00238344
0.00337968 -0.00130677 5.80814e-05
-0.00130677 0.00119458 -1.69452e-05
5.80814e-05 -1.69452e-05 0.000763785
0.0127818 -0.0012346 1.99905e-05
-0.0012346 0.00378919 -1.26742e-05
1.99905e-05 -1.26742e-05 0.00188405
0.00304308 -0.000825218 -1.38461e-05
-0.000825218 0.00103615 2.2496e-05
-1.38461e-05 2.2496e-05 0.000990963
-0.00874083 0.000608042 -0.00025985
0.000608042 -0.003825 1.41204e-05
-0.00025985 1.41204e-05 -0.00502915
0.013449 -0.000758953 -0.000127261
-0.000758953 0.00313876 3.8824e-05
-0.000127261 3.8824e-05 0.00156713
0.00317135 -0.00147002 2.8195e-05
-0.00147002 -0.00024325 -3.13027e-05
2.8195e-05 -3.13027e-05 -0.000585568
-8.81056e-05 -0.000245253 -1.43852e-05
-0.000245253 -2.96982e-05 1.5548e-05
-1.43852e-05 1.5548e-05 -0.000314325
0.00151338 -0.000491788 -3.80028e-06
-0.000491788 0.00033775 6.74915e-07
-3.80028e-06 6.74915e-07 0.000267358
0.00368015 -0.000624602 1.46914e-05
-0.000624602 0.00127088 -3.75154e-06
1.46914e-05 -3.75154e-06 0.00112055
-0.00104851 -0.000172854 -6.97187e-06
-0.000172854 -0.000866494 4.36971e-06
-6.97187e-06 4.36971e-06 -0.00112647
0.00138509 -0.000516245 -6.29333e-06
-0.000516245 0.000124863 -2.65562e-06
-6.29333e-06 -2.65562e-06 -0.000155008
0.00246932 -0.000661323 4.1905e-06
-0.000661323 0.000495749 -2.16232e-06
4.1905e-06 -2.16232e-06 0.000243782
0.0012925 -0.000441764 -1.7299e-05
-0.000441764 0.000197489 -2.13062e-08
-1.7299e-05 -2.13062e-08 -0.000199091
0.00156414 -0.000552745 -9.05104e-08
-0.000552745 0.000157454 4.19219e-07
-9.05104e-08 4.19219e-07 -0.000175576
0.00153899 -0.000480876 2.31454e-06
-0.000480876 -5.19704e-05 -6.11748e-06
2.31454e-06 -6.11748e-06 -0.000267133
0.00125528 -0.000476294 -5.16901e-06
-0.000476294 8.17363e-05 -5.38372e-08
-5.16901e-06 -5.38372e-08 -0.00028516
0.00167303 -0.000472479 -4.59849e-07
-0.000472479 0.000177677 6.87637e-07
-4.59849e-07 6.87637e-07 -9.50315e-05
0.00178211 -0.000387543 -1.55239e-06
-0.000387543 0.000101978 -5.3476e-06
-1.55239e-06 -5.3476e-06 -7.21029e-05
0.00166969 -0.000309186 -4.79546e-06
-0.000309186 5.51586e-05 -2.73086e-06
-4.79546e-06 -2.73086e-06 -9.40857e-05
0.00154189 -0.000383504 -4.0024e-06
-0.000383504 4.24284e-05 -2.23288e-06
-4.0024e-06 -2.23288e-06 -0.000178949
0.00165604 -0.00038324 1.19864e-06
-0.00038324 9.73827e-05 1.79273e-06
1.19864e-06 1.79273e-06 -0.000113239
0.00144789 -0.000414573 -2.50056e-06
-0.000414573 0.000118729 -1.42875e-06
-2.50056e-06 -1.42875e-06 -0.000145796
0.00175239 -0.000487074 1.77702e-06
-0.000487074 0.000258831 -4.07824e-07
1.77702e-06 -4.07824e-07 -2.41993e-05
0.00172475 -0.000477178 1.84004e-06
-0.000477178 0.000259693 3.27244e-07
1.84004e-06 3.27244e-07 -2.3806e-05
0.00147892 -0.000348357 -2.04807e-06
-0.000348357 0.000293331 1.43228e-06
-2.04807e-06 1.43228e-06 4.50103e-05
0.0015376 -0.000413355 1.03583e-06
-0.000413355 0.000280051 -5.21984e-07
1.03583e-06 -5.21984e-07 3.73587e-06
0.00180418 -0.000501994 -2.78399e-06
-0.000501994 0.000407708 -1.44123e-06
-2.78399e-06 -1.44123e-06 8.82634e-05
0.00101907 -0.000239795 -2.2003e-06
-0.000239795 0.000152686 2.51713e-06
-2.2003e-06 2.51713e-06 -5.67796e-05
0.00119105 -0.000290211 1.3653e-06
-0.000290211 0.000196911 2.13182e-08
1.3653e-06 2.13182e-08 -3.50111e-05
0.000740922 -0.000273717 -1.45112e-07
-0.000273717 -8.62755e-05 -3.28015e-06
-1.45112e-07 -3.28015e-06 -0.000312267
0.000550936 -0.00011569 -1.89289e-06
-0.00011569 -5.0124e-07 4.73091e-06
-1.89289e-06 4.73091e-06 -0.000161391
0.00101715 -0.000220199 1.64066e-08
-0.000220199 0.000252413 3.09741e-08
1.64066e-08 3.09741e-08 4.07908e-05
0.000390808 -0.000183673 -3.34932e-06
-0.000183673 -0.00016946 -3.57628e-07
-3.34932e-06 -3.57628e-07 -0.000384912
0.000361031 2.6239e-05 -1.75301e-06
2.6239e-05 -0.000104494 8.92657e-06
-1.75301e-06 8.92657e-06 -0.000153424
0.000679125 -7.52735e-05 -3.82157e-07
-7.52735e-05 8.77059e-05 -2.21586e-07
-3.82157e-07 -2.21586e-07 -4.45115e-05
0.00129642 -0.000148816 9.73613e-07
-0.000148816 0.000497586 -2.16904e-06
9.73613e-07 -2.16904e-06 0.000290816
0.00280145 0.000156881 -5.41259e-06
0.000156881 0.00137841 2.31607e-06
-5.41259e-06 2.31607e-06 0.00136703
0.00051157 3.99904e-05 -2.5039e-07
3.99904e-05 -2.08776e-05 -1.092e-07
-2.5039e-07 -1.092e-07 -5.92723e-05
0.000841033 -4.69396e-05 2.64165e-06
-4.69396e-05 0.00017219 -5.04973e-06
2.64165e-06 -5.04973e-06 7.46307e-05
0.00262497 0.000122005 4.56852e-06
0.000122005 0.00126018 3.63174e-07
4.56852e-06 3.63174e-07 0.00125976
0.000561585 4.43649e-05 6.65546e-07
4.43649e-05 4.04647e-06 -6.50556e-06
6.65546e-07 -6.50556e-06 -2.76183e-05
0.00255922 0.000109527 3.05193e-05
0.000109527 0.00121377 -3.46346e-06
3.05193e-05 -3.46346e-06 0.00121635
0.00091528 0.000140338 2.04156e-06
0.000140338 0.000225354 2.84431e-06
2.04156e-06 2.84431e-06 7.78133e-05
0.000766256 8.39805e-05 2.56501e-07
8.39805e-05 0.000151174 3.37351e-07
2.56501e-07 3.37351e-07 1.54052e-05
0.000847677 7.63268e-05 8.65495e-07
7.63268e-05 0.000219005 -2.82873e-06
8.65495e-07 -2.82873e-06 7.1358e-05
0.000653203 1.25795e-05 -5.1133e-07
1.25795e-05 6.10197e-05 -4.11012e-06
-5.1133e-07 -4.11012e-06 -2.4412e-05
0.000707657 5.22919e-05 2.49098e-07
5.22919e-05 0.000119021 2.77089e-07
2.49098e-07 2.77089e-07 -8.28925e-06
0.000537008 7.17915e-05 4.69679e-07
7.17915e-05 1.23089e-05 1.35954e-06
4.69679e-07 1.35954e-06 -0.000120909
0.000539697 -1.45564e-05 -1.81132e-06
-1.45564e-05 -2.53606e-05 -6.44067e-06
-1.81132e-06 -6.44067e-06 -5.40165e-05
0.000615989 1.86129e-05 -2.45878e-08
1.86129e-05 3.59103e-05 -1.07181e-07
-2.45878e-08 -1.07181e-07 -4.28718e-05
0.000670433 6.68994e-05 -3.42334e-07
6.68994e-05 8.89889e-05 1.31379e-06
-3.42334e-07 1.31379e-06 -2.37509e-05
0.00262288 -8.34627e-05 -3.70015e-05
-8.34627e-05 0.00123616 -4.21429e-06
-3.70015e-05 -4.21429e-06 0.0012444
0.000503995 -1.92256e-05 6.06658e-07
-1.92256e-05 -5.05042e-05 -1.11846e-07
6.06658e-07 -1.11846e-07 -7.46736e-05
0.000600318 2.81221e-05 7.14419e-09
2.81221e-05 2.45269e-05 2.80463e-06
7.14419e-09 2.80463e-06 -4.74222e-05
0.00245623 -6.7529e-05 -5.0974e-06
-6.7529e-05 0.00112977 3.27694e-07
-5.0974e-06 3.27694e-07 0.00114116
0.000512839 -2.03396e-05 -1.11083e-06
-2.03396e-05 -4.93076e-05 4.96153e-06
-1.11083e-06 4.96153e-06 -6.90472e-05
0.00230737 -5.07915e-05 2.09507e-05
-5.07915e-05 0.00103582 4.48834e-06
2.09507e-05 4.48834e-06 0.00105022
-0.00691072 0.000414939 -2.26851e-05
0.000414939 0.00177805 5.34937e-05
-2.26851e-05 5.34937e-05 -0.00171848
0.00507316 6.94211e-05 -6.73303e-06
6.94211e-05 0.00242148 7.83646e-07
-6.73303e-06 7.83646e-07 0.00117716
-0.00010066 -6.84657e-05 -8.59688e-06
-6.84657e-05 -0.000113837 -5.65515e-06
-8.59688e-06 -5.65515e-06 -7.25066e-05
0.000283372 7.18769e-05 -1.58843e-06
7.18769e-05 -0.000157056 1.66302e-06
-1.58843e-06 1.66302e-06 -0.000278804
0.00267515 0.000392724 1.63069e-06
0.000392724 0.00128047 4.76156e-06
1.63069e-06 4.76156e-06 0.00106936
0.000708268 8.13248e-05 -3.74381e-06
8.13248e-05 0.000100972 -1.64597e-07
-3.74381e-06 -1.64597e-07 -4.40915e-05
0.00101427 5.10032e-05 -1.81477e-06
5.10032e-05 0.000268744 -3.38028e-06
-1.81477e-06 -3.38028e-06 0.000146678
0.00137562 0.000146345 2.59129e-06
0.000146345 0.000475002 -2.60334e-07
2.59129e-06 -2.60334e-07 0.000347714
0.000236383 5.52825e-05 -3.75089e-06
5.52825e-05 -0.000173869 2.40607e-06
-3.75089e-06 2.40607e-06 -0.000294071
0.00048998 7.28236e-05 -1.17582e-06
7.28236e-05 3.33086e-05 1.63527e-06
-1.17582e-06 1.63527e-06 -0.000131676
0.000642207 9.54223e-05 -2.29278e-06
9.54223e-05 6.33627e-05 -2.76837e-06
-2.29278e-06 -2.76837e-06 -0.000103334
0.00103203 0.000183566 3.53314e-06
0.000183566 0.00033925 -5.7097e-06
3.53314e-06 -5.7097e-06 0.000122974
0.000644297 0.000276606 2.14532e-06
0.000276606 3.48636e-06 -1.07764e-06
2.14532e-06 -1.07764e-06 -0.000113878
0.00104984 8.64587e-05 -3.61377e-06
8.64587e-05 0.000355794 6.62424e-07
-3.61377e-06 6.62424e-07 0.000202077
0.001052 0.000153921 1.0971e-06
0.000153921 0.000419028 3.14158e-06
1.0971e-06 3.14158e-06 0.000249009
-0.00433053 -0.0011445 -0.000561669
-0.0011445 -0.000534437 -5.72153e-05
-0.000561669 -5.72153e-05 -0.0022739
-0.00337143 -0.000839224 0.00022794
-0.000839224 0.0021925 0.000110651
0.00022794 0.000110651 -0.00084493
0.00451302 0.000487371 -0.000205482
0.000487371 0.00221214 -7.96816e-05
-0.000205482 -7.96816e-05 -0.00163651
-0.00655061 -0.003482 0.000820302
-0.003482 -0.00219679 0.000647585
0.000820302 0.000647585 -0.00158254
0.0158939 -0.00189622 -3.73261e-05
-0.00189622 0.00491783 0.000179889
-3.73261e-05 0.000179889 0.00427289
-0.00172167 0.0012048 -4.82944e-06
0.0012048 0.00065245 -9.97774e-05
-4.82944e-06 -9.97774e-05 -0.00383796
0.00193925 2.36934e-05 -0.000148822
2.36934e-05 0.00108945 1.63386e-05
-0.000148822 1.63386e-05 0.000135275
0.00194403 0.000475878 1.13411e-05
0.000475878 0.000816033 2.87652e-05
1.13411e-05 2.87652e-05 0.000592864
0.0114176 -0.00214227 -0.000239202
-0.00214227 0.00520272 5.31984e-05
-0.000239202 5.31984e-05 0.00455514
-0.00038399 0.00140239 -2.64652e-05
0.00140239 0.000594934 -3.71617e-05
-2.64652e-05 -3.71617e-05 -0.00308576
0.00209823 0.00100121 -2.55328e-05
0.00100121 0.000423881 -6.0736e-05
-2.55328e-05 -6.0736e-05 0.000581812
0.00414547 0.00206747 -0.000217154
0.00206747 -0.000152316 -0.000125439
-0.000217154 -0.000125439 -0.00264014
0.00236172 0.000725837 1.89021e-05
0.000725837 0.000692616 -1.82189e-05
1.89021e-05 -1.82189e-05 0.000432464
0.000846004 0.000338278 -4.77919e-06
0.000338278 0.000197164 4.45012e-07
-4.77919e-06 4.45012e-07 4.66713e-05
0.00102912 0.000108746 -7.85658e-06
0.000108746 0.000405665 2.10342e-06
-7.85658e-06 2.10342e-06 0.000270138
-0.00126768 0.000213358 -4.21104e-05
0.000213358 -0.000462928 -5.18439e-05
-4.21104e-05 -5.18439e-05 -0.00115348
0.00228302 0.000556553 -2.6716e-05
0.000556553 0.00116017 -1.68439e-05
-2.6716e-05 -1.68439e-05 0.000873672
0.00138577 0.000743447 1.43076e-05
0.000743447 0.000233425 -4.60426e-06
1.43076e-05 -4.60426e-06 -0.000181482
0.00258751 0.00110598 0.000110608
0.00110598 0.000172 3.24853e-05
0.000110608 3.24853e-05 -3.98812e-06
-0.00511787 -0.000137361 -0.000325271
-0.000137361 -0.00420336 9.76349e-06
-0.000325271 9.76349e-06 -0.0029289
-0.00432703 0.000245021 0.000169174
0.000245021 0.0033071 3.72303e-06
0.000169174 3.72303e-06 -0.000192024
0.00247764 -6.57698e-05 -8.22008e-05
-6.57698e-05 0.00164009 3.0535e-05
-8.22008e-05 3.0535e-05 0.000283816
0.00183968 -0.000378442 -5.27809e-05
-0.000378442 0.00067297 -4.1016e-05
-5.27809e-05 -4.1016e-05 0.000536894
0.00105529 -0.00110454 -3.29531e-06
-0.00110454 -0.000190718 1.72377e-05
-3.29531e-06 1.72377e-05 -0.000429283
0.00125885 0.000192689 -1.60392e-05
0.000192689 0.00405539 2.84715e-05
-1.60392e-05 2.84715e-05 0.00235539
0.00293778 -0.00130046 0.000223726
-0.00130046 -0.000153651 -0.00014064
0.000223726 -0.00014064 -0.00268896
0.0121814 0.00157863 0.000229686
0.00157863 0.00556489 -1.99178e-05
0.000229686 -1.99178e-05 0.00433911
0.00282751 -0.000987659 -2.60576e-05
-0.000987659 0.00078177 7.67782e-06
-2.60576e-05 7.67782e-06 0.000526529
1.64825e-05 0.000679438 0.000117182
0.000679438 -0.000332324 -2.90828e-05
0.000117182 -2.90828e-05 -0.0010962
0.00572896 -0.000696354 -7.62632e-05
-0.000696354 -0.000623806 6.82615e-05
-7.62632e-05 6.82615e-05 -0.00283072
0.00543325 -0.00161716 -3.5595e-05
-0.00161716 0.000887152 1.96671e-05
-3.5595e-05 1.96671e-05 0.000472289
0.00193261 -0.000711109 5.79247e-05
-0.000711109 0.000246779 -1.33108e-05
5.79247e-05 -1.33108e-05 -8.13423e-06
0.0112787 -0.000509905 -3.41321e-06
-0.000509905 0.00263999 -2.17468e-05
-3.41321e-06 -2.17468e-05 0.00103187
0.00328573 -0.000874033 8.72161e-05
-0.000874033 -0.00110021 -5.3668e-05
8.72161e-05 -5.3668e-05 -0.000752213
-0.000860883 -0.000313408 -2.33664e-05
-0.000313408 -0.0010205 1.63245e-05
-2.33664e-05 1.63245e-05 -0.000983139
0.000330806 -0.000375622 -1.46711e-05
-0.000375622 -0.000553426 -3.41225e-07
-1.46711e-05 -3.41225e-07 -0.000615479
0.00382546 -0.00066349 3.70413e-05
-0.00066349 0.00105986 -1.82743e-05
3.70413e-05 -1.82743e-05 0.000980001
0.000229448 -0.000397641 -1.58802e-05
-0.000397641 -0.000449325 -7.58302e-06
-1.58802e-05 -7.58302e-06 -0.000730349
0.00175835 -0.000589617 2.93531e-07
-0.000589617 0.000135673 -1.09435e-06
2.93531e-07 -1.09435e-06 -0.000100194
0.00233926 -0.000548856 8.81898e-08
-0.000548856 0.000234341 -1.93242e-06
8.81898e-08 -1.93242e-06 8.51281e-05
0.00168884 -0.000553145 -3.45461e-06
-0.000553145 0.000226998 5.47829e-06
-3.45461e-06 5.47829e-06 -0.000110596
0.00184622 -0.000505324 -1.77631e-06
-0.000505324 0.000112071 1.02484e-06
-1.77631e-06 1.02484e-06 -0.000108626
0.00187013 -0.000389508 1.13635e-06
-0.000389508 4.14606e-05 -8.25407e-07
1.13635e-06 -8.25407e-07 -8.75349e-05
0.00124328 -0.000428292 3.08993e-06
-0.000428292 -5.74556e-05 4.99121e-06
3.08993e-06 4.99121e-06 -0.000321674
0.00175415 -0.000378541 -3.99617e-07
-0.000378541 9.29763e-05 1.16664e-06
-3.99617e-07 1.16664e-06 -7.9167e-05
0.00178483 -0.000323407 -3.15068e-06
-0.000323407 5.97825e-05 -7.63549e-07
-3.15068e-06 -7.63549e-07 -5.93245e-05
0.00202045 -0.000310005 -3.34675e-06
-0.000310005 0.000265968 -3.18816e-07
-3.34675e-06 -3.18816e-07 0.000144367
0.00174882 -0.000312053 -2.5446e-06
-0.000312053 9.52564e-05 3.26159e-06
-2.5446e-06 3.26159e-06 -4.94782e-05
0.00179226 -0.00032925 -1.85742e-06
-0.00032925 0.000159639 -5.43144e-06
-1.85742e-06 -5.43144e-06 -5.43489e-06
0.0017113 -0.000387283 -4.54697e-06
-0.000387283 0.000178164 -2.06607e-06
-4.54697e-06 -2.06607e-06 -4.64977e-05
0.00170598 -0.000395803 1.29426e-06
-0.000395803 0.00013987 4.99719e-07
1.29426e-06 4.99719e-07 -8.25743e-05
0.00163975 -0.000373789 4.56392e-06
-0.000373789 9.4853e-05 6.25793e-06
4.56392e-06 6.25793e-06 -0.000110452
0.00156284 -0.000375934 -6.58818e-06
-0.000375934 0.000254856 7.65998e-07
-6.58818e-06 7.65998e-07 5.17958e-06
0.00147464 -0.00041906 -6.78598e-07
-0.00041906 0.000127855 3.00682e-07
-6.78598e-07 3.00682e-07 -0.000137876
0.00184103 -0.000488964 2.95004e-06
-0.000488964 0.000320188 3.94537e-07
2.95004e-06 3.94537e-07 3.98489e-05
0.00119316 -0.000264547 -5.63036e-06
-0.000264547 0.000181738 2.7032e-06
-5.63036e-06 2.7032e-06 -3.15201e-05
0.0013328 -0.00033649 5.35316e-07
-0.00033649 0.000202853 4.06484e-07
5.35316e-07 4.06484e-07 -4.38834e-05
0.00134751 -0.000397924 1.85887e-06
-0.000397924 0.000168646 -1.31653e-06
1.85887e-06 -1.31653e-06 -0.000104281
0.000817094 -0.000174257 -5.96151e-06
-0.000174257 0.000111882 5.02659e-06
-5.96151e-06 5.02659e-06 -6.46626e-05
0.00109911 -0.000247258 9.89554e-07
-0.000247258 0.000202009 1.58968e-07
9.89554e-07 1.58968e-07 -9.33824e-06
0.00113779 -0.000286649 9.28191e-07
-0.000286649 0.000157966 -1.25679e-06
9.28191e-07 -1.25679e-06 -7.34903e-05
0.000270334 -3.60255e-05 -8.11422e-06
-3.60255e-05 -0.000177598 1.22609e-05
-8.11422e-06 1.22609e-05 -0.000238435
0.000738042 -0.000123403 7.45957e-07
-0.000123403 0.000120156 7.31773e-07
7.45957e-07 7.31773e-07 -4.9879e-05
0.00130288 -0.000240824 3.63571e-07
-0.000240824 0.000419261 -1.42355e-06
3.63571e-07 -1.42355e-06 0.000202971
0.00317589 0.000160582 -5.52055e-05
0.000160582 0.00160765 2.57678e-06
-5.52055e-05 2.57678e-06 0.00159662
0.000509166 1.04363e-05 -1.1299e-07
1.04363e-05 -2.18724e-05 -7.96073e-07
-1.1299e-07 -7.96073e-07 -7.02223e-05
0.00124548 -0.000112239 1.74375e-06
-0.000112239 0.000430821 -5.93465e-06
1.74375e-06 -5.93465e-06 0.000287699
0.00187053 0.000106804 2.74128e-05
0.000106804 0.000810504 6.44548e-07
2.74128e-05 6.44548e-07 0.000801754
0.000611182 3.30704e-05 3.00326e-06
3.30704e-05 3.66701e-05 -7.77396e-06
3.00326e-06 -7.77396e-06 -1.11082e-06
0.00272163 0.0001224 4.32607e-05
0.0001224 0.00131834 -2.93138e-06
4.32607e-05 -2.93138e-06 0.00131794
0.000909587 0.000154713 4.93491e-06
0.000154713 0.000187846 2.82379e-07
4.93491e-06 2.82379e-07 4.1776e-05
0.000522226 8.30249e-05 -8.54489e-08
8.30249e-05 -1.45953e-05 -2.96227e-07
-8.54489e-08 -2.96227e-07 -0.000146271
0.000621137 7.19767e-05 -2.3013e-09
7.19767e-05 5.80862e-05 -1.16804e-06
-2.3013e-09 -1.16804e-06 -8.0291e-05
0.000868173 0.000101496 -1.3787e-08
0.000101496 0.000214575 1.11824e-07
-1.3787e-08 1.11824e-07 7.33544e-05
0.000712548 5.0288e-05 1.79352e-07
5.0288e-05 0.000116474 3.45971e-08
1.79352e-07 3.45971e-08 -1.39413e-05
0.0006854 2.00302e-05 -9.65662e-07
2.00302e-05 8.20623e-05 -5.0016e-06
-9.65662e-07 -5.0016e-06 -1.2311e-05
0.000558666 -1.50644e-05 -2.63791e-06
-1.50644e-05 -7.42099e-06 -7.46419e-06
-2.63791e-06 -7.46419e-06 -4.12584e-05
0.00060438 1.16155e-05 2.80968e-07
1.16155e-05 3.34218e-05 -8.38353e-08
2.80968e-07 -8.38353e-08 -5.27668e-05
0.000623986 2.72558e-05 -9.20635e-07
2.72558e-05 4.61195e-05 2.03763e-06
-9.20635e-07 2.03763e-06 -6.43065e-05
0.00273041 -9.70669e-05 -4.68757e-05
-9.70669e-05 0.00130757 -3.93761e-06
-4.68757e-05 -3.93761e-06 0.00131303
0.000506305 -1.44939e-05 1.02705e-07
-1.44939e-05 -4.3919e-05 -1.14174e-07
1.02705e-07 -1.14174e-07 -7.26196e-05
0.000576048 2.12057e-05 2.404e-07
2.12057e-05 1.63618e-05 3.21511e-06
2.404e-07 3.21511e-06 -6.40603e-05
0.00259522 -8.3269e-05 -5.4618e-06
-8.3269e-05 0.00121904 3.81766e-07
-5.4618e-06 3.81766e-07 0.00122732
0.000494656 -2.38439e-05 -2.23894e-08
-2.38439e-05 -5.55926e-05 5.62312e-06
-2.23894e-08 5.62312e-06 -7.98954e-05
0.00246059 -6.69334e-05 2.6239e-05
-6.69334e-05 0.00113198 4.44521e-06
2.6239e-05 4.44521e-06 0.00114347
1.08936e-06 0.0003088 -0.000315237
0.0003088 0.00211423 1.25369e-05
-0.000315237 1.25369e-05 0.000772223
-0.00353648 5.39648e-05 2.53259e-05
5.39648e-05 0.00241763 1.30451e-05
2.53259e-05 1.30451e-05 -0.00112323
0.00480442 -1.35282e-05 -9.42142e-05
-1.35282e-05 0.0024882 -1.62766e-05
-9.42142e-05 -1.62766e-05 0.00129611
0.000401616 4.72194e-05 2.15484e-06
4.72194e-05 -8.91519e-05 -2.73868e-06
2.15484e-06 -2.73868e-06 -0.000206218
0.000696372 6.15354e-05 3.1548e-06
6.15354e-05 9.02865e-05 1.36132e-06
3.1548e-06 1.36132e-06 -6.3462e-05
0.00191801 0.000311972 -1.78e-06
0.000311972 0.0008371 1.52324e-06
-1.78e-06 1.52324e-06 0.000646569
0.00140952 0.000323871 4.26303e-06
0.000323871 0.00042484 -2.55937e-06
4.26303e-06 -2.55937e-06 0.000181137
0.00101674 0.000225855 -4.99364e-06
0.000225855 0.000343285 2.68679e-07
-4.99364e-06 2.68679e-07 0.000142172
0.000845014 0.00012156 -4.24485e-07
0.00012156 0.00024678 2.54716e-06
-4.24485e-07 2.54716e-06 7.37611e-05
0.000846584 0.000120481 5.54615e-06
0.000120481 0.000197949 3.74483e-06
5.54615e-06 3.74483e-06 3.25765e-05
0.000623035 0.00018632 -5.1562e-06
0.00018632 0.000115526 -3.39806e-06
-5.1562e-06 -3.39806e-06 -9.71374e-05
-0.000350931 0.000181563 2.29175e-06
0.000181563 -0.000552872 -7.68923e-07
2.29175e-06 -7.68923e-07 -0.000751135
0.00183347 0.000408296 4.86734e-06
0.000408296 0.000597799 -2.15094e-06
4.86734e-06 -2.15094e-06 0.000456767
0.00195668 0.000603511 9.8598e-06
0.000603511 0.00038115 -5.04058e-06
9.8598e-06 -5.04058e-06 0.000166341
0.000865873 0.000306155 -5.85148e-06
0.000306155 0.000143759 -8.5905e-07
-5.85148e-06 -8.5905e-07 9.24875e-06
0.000788586 0.000114793 -3.7178e-06
0.000114793 0.000207089 -1.68277e-06
-3.7178e-06 -1.68277e-06 5.29622e-05
0.0121829 0.00113546 -9.78897e-05
0.00113546 0.00271156 4.44677e-05
-9.78897e-05 4.44677e-05 0.00122416
-0.000122164 -0.000910995 -0.000257839
-0.000910995 0.00245362 -9.02375e-05
-0.000257839 -9.02375e-05 0.000645896
-0.00129236 -0.00136482 0.000180854
-0.00136482 0.00232714 2.45767e-05
0.000180854 2.45767e-05 -0.000756516
-2.14603e-05 -0.00121555 6.69876e-05
-0.00121555 0.000354669 0.000205309
6.69876e-05 0.000205309 -0.000334266
0.0114573 0.00171779 -1.18172e-05
0.00171779 0.00486753 1.15044e-06
-1.18172e-05 1.15044e-06 0.00142572
-0.000839666 0.000265167 -1.61996e-05
0.000265167 -0.000450765 -2.96194e-05
-1.61996e-05 -2.96194e-05 -0.000649366
0.00167411 0.000895724 -2.59279e-05
0.000895724 0.000357559 -1.19065e-05
-2.59279e-05 -1.19065e-05 0.000471777
0.0119769 0.00152421 2.35835e-05
0.00152421 0.00364445 2.50995e-05
2.35835e-05 2.50995e-05 0.0015698
0.00614051 0.00185403 -4.20034e-05
0.00185403 0.000912237 -6.39047e-05
-4.20034e-05 -6.39047e-05 0.000552805
0.00153734 0.000720631 7.28465e-06
0.000720631 0.000112267 -5.69276e-06
7.28465e-06 -5.69276e-06 -6.81488e-05
0.00116559 0.000559789 5.72022e-06
0.000559789 0.000184022 -3.27702e-07
5.72022e-06 -3.27702e-07 -5.66835e-05
0.000983291 0.000315888 -1.88826e-05
0.000315888 0.000296696 1.42623e-05
-1.88826e-05 1.42623e-05 0.000156815
0.00263893 0.000906496 -5.14632e-05
0.000906496 0.000768844 -1.81897e-05
-5.14632e-05 -1.81897e-05 0.000366618
0.00186639 0.00103368 5.80456e-06
0.00103368 -0.000325699 1.89103e-05
5.80456e-06 1.89103e-05 -0.000497989
0.00121529 -0.000388029 -5.14667e-05
-0.000388029 -0.00341978 2.95579e-05
-5.14667e-05 2.95579e-05 -0.00366635
0.00185006 -0.000671543 3.74685e-07
-0.000671543 0.00129796 -2.42987e-05
3.74685e-07 -2.42987e-05 0.00132609
-0.00668392 -1.22039e-06 0.000190191
-1.22039e-06 0.00291439 -7.66284e-06
0.000190191 -7.66284e-06 -0.000707679
0.00147101 -0.000981841 -2.38667e-05
-0.000981841 -1.52197e-05 5.22479e-06
-2.38667e-05 5.22479e-06 -0.000387504
0.00320756 -0.00146135 4.32148e-05
-0.00146135 0.000358238 1.54443e-07
4.32148e-05 1.54443e-07 -0.000359039
0.00129754 -0.000303079 0.000361136
-0.000303079 0.00241656 -4.54031e-05
0.000361136 -4.54031e-05 0.0012788
0.0128664 -0.000856661 -0.000165315
-0.000856661 0.00307026 7.45672e-05
-0.000165315 7.45672e-05 0.00149873
0.00119243 -0.000681447 -3.30231e-05
-0.000681447 -0.000179992 -1.8993e-06
-3.30231e-05 -1.8993e-06 -0.000374249
0.00904973 4.63214e-05 -9.02274e-05
4.63214e-05 0.000660154 3.46488e-05
-9.02274e-05 3.46488e-05 -0.000435564
0.00511182 -0.000967936 8.57345e-05
-0.000967936 -0.000122154 7.60917e-06
8.57345e-05 7.60917e-06 -0.000196345
0.00383326 -0.000678756 6.21004e-05
-0.000678756 0.00106705 -1.72454e-05
6.21004e-05 -1.72454e-05 0.000718033
0.00298993 -0.000356245 -7.85853e-05
-0.000356245 -0.000463344 6.98344e-06
-7.85853e-05 6.98344e-06 -0.000288479
-0.0026565 -0.000163763 -1.5127e-05
-0.000163763 -0.00221156 5.49732e-06
-1.5127e-05 5.49732e-06 -0.00218422
0.00154686 -0.000516365 -1.76379e-06
-0.000516365 -0.000168555 -2.59332e-07
-1.76379e-06 -2.59332e-07 -0.000204145
0.00260469 -0.000466394 2.06543e-05
-0.000466394 0.00025272 -9.56957e-06
2.06543e-05 -9.56957e-06 0.000284865
0.00102952 -0.000521001 -3.34874e-06
-0.000521001 -0.000231049 4.78415e-06
-3.34874e-06 4.78415e-06 -0.000453353
0.00182609 -0.000500821 -2.13355e-06
-0.000500821 -1.67115e-05 6.86419e-07
-2.13355e-06 6.86419e-07 -0.000161475
0.00208988 -0.000401609 2.85597e-06
-0.000401609 1.77537e-05 4.76336e-07
2.85597e-06 4.76336e-07 -3.39236e-05
0.00201331 -0.000514681 -5.77647e-06
-0.000514681 0.000206834 7.38539e-06
-5.77647e-06 7.38539e-06 -1.72809e-05
0.00191363 -0.000390848 3.1814e-07
-0.000390848 6.66332e-05 1.72055e-06
3.1814e-07 1.72055e-06 -5.99694e-05
0.00192666 -0.000356164 -2.31912e-07
-0.000356164 8.29109e-05 1.92588e-06
-2.31912e-07 1.92588e-06 -6.11632e-06
0.00171354 -0.000369794 3.50164e-06
-0.000369794 7.54308e-05 5.85269e-06
3.50164e-06 5.85269e-06 -9.48717e-05
0.00178889 -0.000326842 -2.81683e-07
-0.000326842 6.03643e-05 1.5318e-06
-2.81683e-07 1.5318e-06 -5.99681e-05
0.00196255 -0.000334859 -1.37905e-06
-0.000334859 0.000169762 7.13149e-07
-1.37905e-06 7.13149e-07 5.96654e-05
0.00187969 -0.000304945 -4.09402e-06
-0.000304945 0.000175069 3.47573e-06
-4.09402e-06 3.47573e-06 5.67409e-05
0.00192069 -0.000313672 8.20089e-07
-0.000313672 0.000229377 -2.99101e-06
8.20089e-07 -2.99101e-06 9.56949e-05
0.0018325 -0.000315826 3.41837e-06
-0.000315826 0.000138385 8.02226e-06
3.41837e-06 8.02226e-06 -2.06974e-06
0.00179676 -0.000329911 3.56634e-07
-0.000329911 0.000160718 -8.71418e-07
3.56634e-07 -8.71418e-07 -4.74572e-06
0.00171492 -0.000332608 -1.82511e-06
-0.000332608 0.000139357 -3.47286e-06
-1.82511e-06 -3.47286e-06 -4.42581e-05
0.0016587 -0.000354463 -4.97331e-06
-0.000354463 0.000219871 -1.50286e-06
-4.97331e-06 -1.50286e-06 -4.13945e-06
0.00175974 -0.00039213 1.735e-07
-0.00039213 0.000208086 -2.12956e-07
1.735e-07 -2.12956e-07 -1.81776e-05
0.00186805 -0.00040777 5.37436e-06
-0.00040777 0.000236995 2.9844e-06
5.37436e-06 2.9844e-06 1.3539e-05
0.00120187 -0.000267551 -7.43897e-06
-0.000267551 0.000121016 3.08396e-06
-7.43897e-06 3.08396e-06 -8.98645e-05
0.00144237 -0.000362303 -1.17056e-06
-0.000362303 0.000189107 2.48939e-07
-1.17056e-06 2.48939e-07 -5.88136e-05
0.00150166 -0.000422709 2.85706e-06
-0.000422709 0.000137791 1.0719e-06
2.85706e-06 1.0719e-06 -0.000128942
0.000790052 -0.000177754 -8.3571e-06
-0.000177754 2.08789e-05 6.24897e-06
-8.3571e-06 6.24897e-06 -0.000152334
0.00112979 -0.000260748 4.73574e-07
-0.000260748 0.000141746 3.58845e-08
4.73574e-07 3.58845e-08 -7.17832e-05
0.00115506 -0.000320003 3.7142e-06
-0.000320003 9.65694e-05 -9.8698e-07
3.7142e-06 -9.8698e-07 -0.000147559
0.00039539 -0.000110357 -1.84205e-05
-0.000110357 -0.000134018 1.39152e-05
-1.84205e-05 1.39152e-05 -0.000208245
0.000790456 -0.000183032 -3.28415e-07
-0.000183032 9.61327e-05 4.4464e-07
-3.28415e-07 4.4464e-07 -8.10664e-05
0.00102869 -0.000235554 3.32548e-06
-0.000235554 0.000160758 -1.46604e-06
3.32548e-06 -1.46604e-06 -4.79843e-05
0.00398531 0.000182701 -8.71825e-05
0.000182701 0.00209925 3.64301e-06
-8.71825e-05 3.64301e-06 0.00208268
0.000550799 -5.61111e-05 1.20799e-06
-5.61111e-05 -1.36026e-05 -3.8912e-07
1.20799e-06 -3.8912e-07 -7.70527e-05
0.000956973 -0.000173138 4.78035e-06
-0.000173138 0.000252068 -4.73002e-06
4.78035e-06 -4.73002e-06 7.54207e-05
0.00343602 0.000149613 1.05929e-05
0.000149613 0.00176039 2.8901e-07
1.05929e-05 2.8901e-07 0.00175298
0.000742508 -8.05559e-06 8.27948e-06
-8.05559e-06 0.000112578 -1.00542e-05
8.27948e-06 -1.00542e-05 6.37311e-05
0.00303582 0.000127492 6.97153e-05
0.000127492 0.00151179 -2.30857e-06
6.97153e-05 -2.30857e-06 0.00151078
0.000671256 0.000221381 4.56564e-06
0.000221381 -2.62553e-05 -4.38042e-06
4.56564e-06 -4.38042e-06 -0.000237069
0.000862414 0.000176507 1.46975e-06
0.000176507 0.000168777 -3.48368e-07
1.46975e-06 -3.48368e-07 1.41428e-05
0.000257237 7.03978e-05 1.67834e-06
7.03978e-05 -0.000171962 -6.56557e-07
1.67834e-06 -6.56557e-07 -0.000314781
8.57917e-05 3.62583e-05 -1.21472e-06
3.62583e-05 -0.000272191 -1.97773e-06
-1.21472e-06 -1.97773e-06 -0.000394245
0.000484736 3.69702e-05 -2.84752e-07
3.69702e-05 -2.79026e-05 9.28158e-07
-2.84752e-07 9.28158e-07 -0.000161377
0.000698936 3.39409e-05 -1.46461e-06
3.39409e-05 8.70003e-05 -4.96149e-06
-1.46461e-06 -4.96149e-06 -1.8161e-05
0.000577848 2.52159e-05 -4.63575e-07
2.52159e-05 2.50379e-05 2.49236e-06
-4.63575e-07 2.49236e-06 -9.5556e-05
0.000599433 1.20329e-05 3.18389e-07
1.20329e-05 3.32304e-05 -2.69921e-07
3.18389e-07 -2.69921e-07 -6.11999e-05
0.000577855 -1.68256e-05 -3.37987e-06
-1.68256e-05 9.48313e-06 -8.5463e-06
-3.37987e-06 -8.5463e-06 -2.97831e-05
0.00290894 -0.000112206 -5.79791e-05
-0.000112206 0.00142391 -3.55444e-06
-5.79791e-05 -3.55444e-06 0.00142592
0.000497492 -1.69614e-05 3.81905e-07
-1.69614e-05 -4.33628e-05 -8.15086e-08
3.81905e-07 -8.15086e-08 -7.70392e-05
0.000560743 1.30957e-05 7.04365e-07
1.30957e-05 8.48949e-06 4.15707e-06
7.04365e-07 4.15707e-06 -7.8069e-05
0.00274947 -9.90747e-05 -6.00176e-06
-9.90747e-05 0.00131896 4.69538e-07
-6.00176e-06 4.69538e-07 0.00132383
0.000456573 -2.7571e-05 -1.76944e-07
-2.7571e-05 -7.15791e-05 6.34984e-06
-1.76944e-07 6.34984e-06 -0.000100898
0.00257478 -8.27214e-05 3.24499e-05
-8.27214e-05 0.00120597 4.2951e-06
3.24499e-05 4.2951e-06 0.00121441
0.0122124 0.000550475 0.000253335
0.000550475 0.00258233 7.25223e-05
0.000253335 7.25223e-05 0.00171615
-0.00318148 -0.00123154 -0.000188188
-0.00123154 -0.00269046 -2.99461e-05
-0.000188188 -2.99461e-05 -0.00320773
-0.00642883 0.000603093 -8.59055e-05
0.000603093 0.0014014 -5.48166e-05
-8.59055e-05 -5.48166e-05 -0.00271725
0.000464778 2.95189e-05 1.17933e-05
2.95189e-05 -5.39279e-05 1.55065e-06
1.17933e-05 1.55065e-06 -0.000215595
0.00106423 0.000224676 -6.47536e-06
0.000224676 0.000327516 1.53712e-06
-6.47536e-06 1.53712e-06 0.000160632
0.00135553 0.000254176 -1.68599e-06
0.000254176 0.000521381 -1.59713e-06
-1.68599e-06 -1.59713e-06 0.000316173
0.00151779 0.000330694 -3.97367e-06
0.000330694 0.00050207 1.09661e-06
-3.97367e-06 1.09661e-06 0.000259675
0.000727956 0.000299138 1.30889e-05
0.000299138 -0.000119469 3.55598e-06
1.30889e-05 3.55598e-06 -0.000378781
1.15287e-05 0.000200149 4.21473e-06
0.000200149 -0.000349004 -1.74129e-06
4.21473e-06 -1.74129e-06 -0.000555881
0.000199903 0.000162152 -4.94545e-06
0.000162152 -0.000114216 -2.64271e-06
-4.94545e-06 -2.64271e-06 -0.000323606
0.000306911 0.000256037 1.93692e-06
0.000256037 -0.000201288 1.68937e-06
1.93692e-06 1.68937e-06 -0.000422948
0.00136187 0.000381022 -8.31089e-07
0.000381022 0.000342177 1.26122e-06
-8.31089e-07 1.26122e-06 0.000190892
0.000546137 0.000361396 6.60101e-06
0.000361396 -0.000225178 2.48691e-06
6.60101e-06 2.48691e-06 -0.000430411
0.0027418 0.000636142 2.67835e-07
0.000636142 0.000778926 -1.52773e-06
2.67835e-07 -1.52773e-06 0.000588465
0.00200431 0.00063497 1.44255e-06
0.00063497 0.000334234 6.34462e-06
1.44255e-06 6.34462e-06 0.000130171
0.00129447 0.00054151 4.02332e-06
0.00054151 3.29321e-05 -4.153e-06
4.02332e-06 -4.153e-06 -0.000157445
0.000424338 0.000283357 -3.84308e-06
0.000283357 -8.95435e-05 -5.54429e-07
-3.84308e-06 -5.54429e-07 -0.00023225
0.00590406 0.000848813 -6.50793e-06
0.000848813 0.000177951 1.07317e-05
-6.50793e-06 1.07317e-05 0.000617511
0.0104531 0.00105405 0.00013314
0.00105405 0.00177129 6.47704e-05
0.00013314 6.47704e-05 7.00627e-05
0.0068074 -0.00189022 0.000151144
-0.00189022 0.00362293 -5.18785e-05
0.000151144 -5.18785e-05 0.00249004
0.00366956 0.0019382 0.00037508
0.0019382 -0.000281113 0.000198778
0.00037508 0.000198778 -0.0040261
0.000595776 0.000660513 -6.03445e-05
0.000660513 2.56726e-05 -7.47764e-06
-6.03445e-05 -7.47764e-06 0.00026709
0.0034119 0.00139107 -9.51861e-05
0.00139107 -0.000150283 -2.92843e-05
-9.51861e-05 -2.92843e-05 -0.000227425
0.00450585 0.00117073 4.94539e-05
0.00117073 0.000871337 1.8309e-05
4.94539e-05 1.8309e-05 0.000775383
0.00330657 0.000901389 1.16672e-05
0.000901389 0.000907149 4.13736e-06
1.16672e-05 4.13736e-06 0.00071185
0.000693088 0.000485013 -1.37299e-05
0.000485013 -1.3201e-05 1.61488e-05
-1.37299e-05 1.61488e-05 -0.000235662
0.00481769 0.00130065 -0.000142315
0.00130065 0.00107037 -1.95151e-05
-0.000142315 -1.95151e-05 0.000836371
0.0030369 -0.000260415 -4.41678e-05
-0.000260415 0.00037594 6.62019e-06
-4.41678e-05 6.62019e-06 0.000309159
0.0102435 -0.000333149 -1.52159e-05
-0.000333149 0.00232663 5.47779e-06
-1.52159e-05 5.47779e-06 0.00178937
-0.0102567 -0.000976133 0.000379266
-0.000976133 -0.00559037 -5.66102e-06
0.000379266 -5.66102e-06 -0.00528572
0.000183024 -0.000619594 -4.8968e-05
-0.000619594 -0.000775157 1.32559e-05
-4.8968e-05 1.32559e-05 -0.000911381
0.00748736 -0.00127941 9.3304e-05
-0.00127941 0.000879846 4.53503e-05
9.3304e-05 4.53503e-05 0.000950556
0.00169547 -0.000332082 -5.31056e-05
-0.000332082 -0.00231732 6.00516e-05
-5.31056e-05 6.00516e-05 -0.00404523
0.0016499 -0.000491744 1.46779e-05
-0.000491744 -0.000172268 1.93059e-06
1.46779e-05 1.93059e-06 -0.000310903
0.0033561 -0.000234216 -1.20475e-05
-0.000234216 -0.000295693 3.94828e-06
-1.20475e-05 3.94828e-06 -0.000212752
0.00446443 -0.000485173 2.89406e-05
-0.000485173 0.0010057 -1.39668e-05
2.89406e-05 -1.39668e-05 0.00112485
0.00378116 -0.000132263 7.2748e-05
-0.000132263 0.000862249 2.53799e-06
7.2748e-05 2.53799e-06 0.000814326
-0.000753804 -0.00037479 -7.70684e-06
-0.00037479 -0.00141114 6.88317e-06
-7.70684e-06 6.88317e-06 -0.00139481
0.00182597 -0.000424061 -6.5405e-07
-0.000424061 -0.000170086 4.35658e-07
-6.5405e-07 4.35658e-07 -0.000117043
0.00189992 -0.000304051 1.5982e-05
-0.000304051 -0.000215657 -3.56283e-06
1.5982e-05 -3.56283e-06 -7.56157e-05
0.00153129 -0.000471358 -1.01022e-06
-0.000471358 -0.000162161 3.58348e-06
-1.01022e-06 3.58348e-06 -0.000304175
0.00203436 -0.000400918 1.69335e-06
-0.000400918 -9.93748e-06 7.00399e-07
1.69335e-06 7.00399e-07 -6.23677e-05
0.0019775 -0.00033505 1.06317e-06
-0.00033505 3.18321e-05 8.18854e-07
1.06317e-06 8.18854e-07 9.64239e-06
0.00190518 -0.00038887 2.0292e-06
-0.00038887 6.12732e-05 3.88707e-06
2.0292e-06 3.88707e-06 -6.26152e-05
0.00191203 -0.000350509 6.14878e-07
-0.000350509 8.38833e-05 3.63186e-07
6.14878e-07 3.63186e-07 -3.79854e-06
0.00196389 -0.000317163 -2.85389e-06
-0.000317163 0.000116162 1.52946e-06
-2.85389e-06 1.52946e-06 3.49799e-05
0.00180624 -0.000330384 4.47431e-06
-0.000330384 6.8793e-05 3.34082e-06
4.47431e-06 3.34082e-06 -5.25958e-05
0.00185908 -0.000329588 1.50771e-07
-0.000329588 0.000119562 3.36366e-07
1.50771e-07 3.36366e-07 9.546e-06
0.00174333 -0.000303875 2.23322e-06
-0.000303875 8.77324e-05 -1.23732e-06
2.23322e-06 -1.23732e-06 -2.82237e-05
0.0017404 -0.000299931 -1.3718e-06
-0.000299931 8.53629e-05 6.16981e-06
-1.3718e-06 6.16981e-06 -2.97323e-05
0.00192132 -0.000309986 -2.22469e-06
-0.000309986 0.000225389 2.72696e-07
-2.22469e-06 2.72696e-07 9.54703e-05
0.00186882 -0.000310001 4.18563e-07
-0.000310001 0.00021648 -2.04028e-06
4.18563e-07 -2.04028e-06 5.97201e-05
0.00179908 -0.000329772 3.19127e-06
-0.000329772 0.00016043 3.75294e-06
3.19127e-06 3.75294e-06 -5.20574e-06
0.00176591 -0.000336921 4.10666e-07
-0.000336921 0.000170964 -5.46694e-07
4.10666e-07 -5.46694e-07 -1.40123e-05
0.00176313 -0.000317853 -1.80549e-06
-0.000317853 0.000233363 -1.83246e-06
-1.80549e-06 -1.83246e-06 3.88619e-05
0.00127011 -0.000266435 -8.97133e-06
-0.000266435 9.77158e-05 2.04392e-06
-8.97133e-06 2.04392e-06 -0.000105743
0.00165935 -0.000355759 -1.00263e-06
-0.000355759 0.000223791 -3.81851e-07
-1.00263e-06 -3.81851e-07 -2.14152e-06
0.00180338 -0.000396707 4.14589e-06
-0.000396707 0.000235741 1.28255e-06
4.14589e-06 1.28255e-06 7.89959e-06
0.000865227 -0.000186887 -1.09861e-05
-0.000186887 6.25544e-06 6.41495e-06
-1.09861e-05 6.41495e-06 -0.000163112
0.0011954 -0.00026937 1.60401e-07
-0.00026937 0.000111649 2.73667e-07
1.60401e-07 2.73667e-07 -9.99185e-05
0.00128753 -0.000346318 2.59754e-06
-0.000346318 0.000101055 5.37836e-08
2.59754e-06 5.37836e-08 -0.00014479
0.00043832 -0.000135459 -1.97804e-05
-0.000135459 -0.00013117 1.50603e-05
-1.97804e-05 1.50603e-05 -0.000216346
0.000837425 -0.000183769 4.10714e-07
-0.000183769 5.20186e-05 2.70609e-07
4.10714e-07 2.70609e-07 -0.000122585
0.00109434 -0.000259619 6.67732e-06
-0.000259619 0.000117981 -2.57701e-06
6.67732e-06 -2.57701e-06 -9.62104e-05
0.00486223 0.000195562 -0.000131109
0.000195562 0.00262904 7.62894e-06
-0.000131109 7.62894e-06 0.00260761
0.000545069 -0.000114735 -9.32994e-07
-0.000114735 -4.44763e-05 -3.03584e-07
-9.32994e-07 -3.03584e-07 -0.000123287
0.000747325 -0.000192655 7.27571e-06
-0.000192655 6.98757e-05 -5.29002e-06
7.27571e-06 -5.29002e-06 -0.000107646
0.00425939 0.000150467 1.1872e-05
0.000150467 0.00225633 6.99364e-07
1.1872e-05 6.99364e-07 0.00224726
0.000740773 -6.68145e-05 1.46397e-05
-6.68145e-05 9.6431e-05 -1.21821e-05
1.46397e-05 -1.21821e-05 3.12548e-05
0.00364422 0.000111234 0.000117974
0.000111234 0.00187751 -5.65971e-06
0.000117974 -5.65971e-06 0.00187927
0.000950033 0.000276459 -3.65501e-06
0.000276459 3.94972e-05 -3.66595e-06
-3.65501e-06 -3.66595e-06 -0.000199738
0.00143631 0.000293101 1.24869e-06
0.000293101 0.000437288 7.33717e-07
1.24869e-06 7.33717e-07 0.000213769
0.000694798 0.000177765 5.75613e-07
0.000177765 3.5166e-05 -6.0539e-06
5.75613e-07 -6.0539e-06 -0.000154993
0.000692651 0.000183767 -3.36399e-06
0.000183767 8.07374e-05 -3.7187e-07
-3.36399e-06 -3.7187e-07 -8.11998e-05
0.000305793 8.0383e-05 7.8794e-07
8.0383e-05 -0.000145286 -6.25958e-07
7.8794e-07 -6.25958e-07 -0.00029304
0.00079467 0.000118797 -2.49695e-06
0.000118797 0.000152083 -5.47808e-06
-2.49695e-06 -5.47808e-06 1.61015e-05
0.000335672 1.37341e-05 -4.04493e-07
1.37341e-05 -0.000123232 1.55847e-06
-4.04493e-07 1.55847e-06 -0.000250602
0.000634756 3.11907e-05 -9.33457e-08
3.11907e-05 5.08648e-05 -2.34615e-07
-9.33457e-08 -2.34615e-07 -5.46696e-05
0.000592807 -1.00834e-05 -4.67099e-06
-1.00834e-05 2.16721e-05 -9.65673e-06
-4.67099e-06 -9.65673e-06 -2.34657e-05
0.0005333 7.88832e-06 6.9642e-07
7.88832e-06 -5.4688e-06 4.94129e-06
6.9642e-07 4.94129e-06 -9.91194e-05
0.000500849 -1.40731e-05 3.02506e-07
-1.40731e-05 -3.57498e-05 -1.23284e-07
3.02506e-07 -1.23284e-07 -7.44909e-05
0.00308598 -0.000124462 -7.12546e-05
-0.000124462 0.00153958 -3.17333e-06
-7.12546e-05 -3.17333e-06 0.00153861
0.00287197 -0.000113926 -5.05583e-06
-0.000113926 0.00140122 4.87267e-07
-5.05583e-06 4.87267e-07 0.00140258
0.000459399 -6.30375e-06 3.39946e-06
-6.30375e-06 -6.66756e-05 7.41208e-06
3.39946e-06 7.41208e-06 -9.94599e-05
0.00270006 -9.85006e-05 3.98473e-05
-9.85006e-05 0.0012888 4.02597e-06
3.98473e-05 4.02597e-06 0.00129367
0.00378784 6.81363e-05 4.76221e-05
6.81363e-05 -0.000381884 1.51249e-05
4.76221e-05 1.51249e-05 4.5155e-05
0.00341175 -0.000636184 8.23444e-05
-0.000636184 -0.00260129 3.9084e-05
8.23444e-05 3.9084e-05 -0.00370808
0.00849028 -0.00129101 -0.000112763
-0.00129101 0.0031483 -6.50727e-05
-0.000112763 -6.50727e-05 0.00334427
0.00112171 0.000373008 7.2038e-06
0.000373008 -1.88696e-05 5.03167e-06
7.2038e-06 5.03167e-06 -0.000279269
0.00191107 0.000307702 -8.77159e-07
0.000307702 0.000834 2.37523e-06
-8.77159e-07 2.37523e-06 0.000619568
0.00168581 0.000344475 -6.04935e-06
0.000344475 0.000615823 7.05143e-06
-6.04935e-06 7.05143e-06 0.00037287
0.000806631 0.000285974 1.97733e-06
0.000285974 0.00010794 2.43814e-06
1.97733e-06 2.43814e-06 -0.000117997
0.00121082 0.000345864 -1.60153e-06
0.000345864 0.000181961 -8.35832e-07
-1.60153e-06 -8.35832e-07 -8.96008e-05
0.00117409 0.000419853 1.05859e-05
0.000419853 0.000114478 7.68533e-06
1.05859e-05 7.68533e-06 -0.000133141
0.00110609 0.000343334 -1.11544e-05
0.000343334 0.000239473 -4.58738e-06
-1.11544e-05 -4.58738e-06 -8.89466e-06
0.000752819 0.000346036 3.83618e-06
0.000346036 1.03663e-05 2.62386e-06
3.83618e-06 2.62386e-06 -0.00014696
0.001234 0.000432645 1.99754e-06
0.000432645 0.00015198 -1.24722e-06
1.99754e-06 -1.24722e-06 -6.49641e-05
0.00204005 0.000572928 2.51468e-06
0.000572928 0.000383698 5.74314e-06
2.51468e-06 5.74314e-06 0.000212086
0.00171195 0.000576742 6.41461e-06
0.000576742 0.000136862 7.74915e-07
6.41461e-06 7.74915e-07 -7.90189e-05
0.00173382 0.000538225 1.01715e-05
0.000538225 0.000166742 5.81577e-06
1.01715e-05 5.81577e-06 1.75042e-05
0.00119785 0.00056525 -3.38499e-06
0.00056525 -9.62018e-05 -2.53839e-06
-3.38499e-06 -2.53839e-06 -0.000287125
0.000581281 0.00046956 -4.46199e-06
0.00046956 -0.000336854 -2.2125e-06
-4.46199e-06 -2.2125e-06 -0.000500023
0.00162691 0.000469345 3.54148e-05
0.000469345 -0.000321473 3.55198e-05
3.54148e-05 3.55198e-05 -0.000233285
0.0054277 0.000937566 -6.15369e-05
0.000937566 -0.00035736 -1.72112e-05
-6.15369e-05 -1.72112e-05 8.76552e-05
0.00262019 0.000669354 0.000333765
0.000669354 -0.00247051 4.93361e-05
0.000333765 4.93361e-05 -0.00434742
0.000213173 0.00100755 -4.19109e-05
0.00100755 -0.00144505 -2.61249e-05
-4.19109e-05 -2.61249e-05 -0.00140455
0.0031119 0.000942102 -2.83068e-05
0.000942102 0.000460134 -4.38627e-06
-2.83068e-05 -4.38627e-06 0.000366045
0.00285268 0.00085534 -7.89979e-05
0.00085534 0.000662285 -2.49491e-05
-7.89979e-05 -2.49491e-05 0.000463948
0.00243594 -0.00021432 -2.50939e-05
-0.00021432 -4.96714e-05 -1.07313e-05
-2.50939e-05 -1.07313e-05 1.20149e-05
0.000658635 -0.000107784 2.51825e-05
-0.000107784 -0.000279432 7.48694e-06
2.51825e-05 7.48694e-06 -0.000303045
0.00134408 0.000792856 0.000111458
0.000792856 -0.00361892 -1.92485e-05
0.000111458 -1.92485e-05 -0.00395055
-0.000392637 -0.000321621 -2.35758e-05
-0.000321621 -0.00130983 3.55732e-05
-2.35758e-05 3.55732e-05 -0.00123605
0.00434261 -0.000210673 -6.02477e-05
-0.000210673 0.000225525 4.03533e-05
-6.02477e-05 4.03533e-05 -1.03719e-05
0.00229786 -0.000354303 -1.90993e-05
-0.000354303 -0.000115416 7.09543e-06
-1.90993e-05 7.09543e-06 4.31428e-05
0.00337476 -0.000181008 4.41438e-07
-0.000181008 0.000581226 -3.90829e-06
4.41438e-07 -3.90829e-06 0.000539511
0.00166266 -0.000201455 3.60461e-05
-0.000201455 -0.000406996 -2.86707e-06
3.60461e-05 -2.86707e-06 -0.000213842
0.00331937 -5.36825e-05 2.8667e-05
-5.36825e-05 0.000991533 5.58143e-07
2.8667e-05 5.58143e-07 0.000952291
0.0010847 -0.00037895 -1.95952e-05
-0.00037895 -0.000559378 8.62837e-06
-1.95952e-05 8.62837e-06 -0.000491225
0.00185897 -0.000314635 7.89058e-08
-0.000314635 -0.000256614 2.12324e-06
7.89058e-08 2.12324e-06 -0.000128277
0.00206255 -0.00029892 2.62574e-06
-0.00029892 -8.11146e-05 -1.08095e-06
2.62574e-06 -1.08095e-06 1.14547e-05
0.00195488 -0.000396119 -1.11947e-06
-0.000396119 -4.61755e-05 2.31556e-06
-1.11947e-06 2.31556e-06 -9.89823e-05
0.00197774 -0.000338593 3.73546e-07
-0.000338593 3.2803e-05 -2.36324e-08
3.73546e-07 -2.36324e-08 7.33408e-06
0.0019934 -0.000293194 -1.79161e-06
-0.000293194 6.68988e-05 3.94464e-07
-1.79161e-06 3.94464e-07 2.20005e-05
0.00190465 -0.000345446 1.57022e-07
-0.000345446 8.95284e-05 1.88786e-07
1.57022e-07 1.88786e-07 2.91469e-06
0.00189879 -0.000320441 -6.34915e-07
-0.000320441 8.4184e-05 4.20975e-08
-6.34915e-07 4.20975e-08 -2.71329e-07
0.00185311 -0.000282712 -6.08008e-07
-0.000282712 0.000110493 6.87219e-07
-6.08008e-07 6.87219e-07 1.02831e-05
0.00172444 -0.000322696 3.2695e-07
-0.000322696 5.14068e-05 5.39351e-07
3.2695e-07 5.39351e-07 -5.85156e-05
0.0017669 -0.000305533 8.88357e-07
-0.000305533 9.80823e-05 -7.26183e-07
8.88357e-07 -7.26183e-07 -1.83372e-05
0.00179119 -0.000292164 1.63401e-06
-0.000292164 0.000132684 -2.05885e-06
1.63401e-06 -2.05885e-06 -2.629e-06
0.00192282 -0.000306188 -4.07006e-06
-0.000306188 0.000222444 4.71302e-06
-4.07006e-06 4.71302e-06 9.63097e-05
0.00192472 -0.000310853 -1.5486e-06
-0.000310853 0.000246075 4.33517e-07
-1.5486e-06 4.33517e-07 9.30077e-05
0.00177744 -0.000290533 -1.1715e-06
-0.000290533 0.000210894 -1.44138e-06
-1.1715e-06 -1.44138e-06 3.59292e-05
0.00181879 -0.000341711 2.60136e-06
-0.000341711 0.000203546 2.1223e-06
2.60136e-06 2.1223e-06 1.70972e-05
0.00175662 -0.000319665 8.13475e-07
-0.000319665 0.000230221 -5.87827e-07
8.13475e-07 -5.87827e-07 3.48548e-05
0.00137684 -0.000247433 -7.06161e-06
-0.000247433 0.000116444 1.56693e-06
-7.06161e-06 1.56693e-06 -7.32635e-05
0.000898384 -0.000179784 -1.25237e-05
-0.000179784 -1.08992e-05 6.26681e-06
-1.25237e-05 6.26681e-06 -0.000172939
0.00125123 -0.000264542 -1.26733e-06
-0.000264542 8.87567e-05 2.08611e-07
-1.26733e-06 2.08611e-07 -0.000115112
0.00166245 -0.000357423 3.01088e-06
-0.000357423 0.000229108 1.47734e-07
3.01088e-06 1.47734e-07 1.16016e-06
0.000511796 -0.00018724 -2.21392e-05
-0.00018724 -9.11908e-05 1.56885e-05
-2.21392e-05 1.56885e-05 -0.000193616
0.000863924 -0.000188045 4.8351e-07
-0.000188045 6.29769e-06 1.66012e-07
4.8351e-07 1.66012e-07 -0.000163604
0.00122147 -0.000273725 6.8971e-06
-0.000273725 0.0001221 -2.10443e-06
6.8971e-06 -2.10443e-06 -9.05265e-05
0.00541563 0.000164222 -0.000165625
0.000164222 0.00294636 9.76094e-06
-0.000165625 9.76094e-06 0.00293065
0.000544091 -0.000175501 -1.30162e-06
-0.000175501 -6.34235e-05 2.00236e-07
-1.30162e-06 2.00236e-07 -0.000157175
0.000813733 -0.00018783 9.71219e-06
-0.00018783 4.09665e-05 -6.10707e-06
9.71219e-06 -6.10707e-06 -0.000135016
0.00504223 0.000152342 7.0051e-06
0.000152342 0.00272399 8.87495e-07
7.0051e-06 8.87495e-07 0.00271131
0.000699537 -0.000134702 1.96837e-05
-0.000134702 4.69513e-05 -1.47502e-05
1.96837e-05 -1.47502e-05 -3.67845e-05
0.00452306 0.000114798 0.000154747
0.000114798 0.00240549 -1.0125e-05
0.000154747 -1.0125e-05 0.00240258
0.00119679 0.000320973 -2.94177e-06
0.000320973 9.63878e-05 7.50257e-07
-2.94177e-06 7.50257e-07 -0.000149792
0.00125522 0.00030551 -2.36041e-06
0.00030551 0.000222903 -7.72505e-07
-2.36041e-06 -7.72505e-07 -2.15053e-05
0.00126249 0.000261856 -5.31946e-06
0.000261856 0.000274512 -2.19236e-06
-5.31946e-06 -2.19236e-06 5.6367e-05
0.00230287 0.000374169 -2.19259e-06
0.000374169 0.000961812 3.31493e-06
-2.19259e-06 3.31493e-06 0.000723972
0.000903945 0.000196177 -1.57964e-06
0.000196177 0.000161162 -2.28416e-06
-1.57964e-06 -2.28416e-06 -3.29114e-05
0.000957019 0.000178296 -4.51187e-06
0.000178296 0.000240686 -6.35418e-06
-4.51187e-06 -6.35418e-06 7.34053e-05
0.000434827 9.46427e-05 -1.01651e-06
9.46427e-05 -7.22701e-05 -2.3905e-07
-1.01651e-06 -2.3905e-07 -0.000225156
0.000664352 6.39786e-05 -5.22928e-07
6.39786e-05 6.5016e-05 -3.54351e-07
-5.22928e-07 -3.54351e-07 -5.92966e-05
0.000619804 1.12972e-05 -7.68161e-06
1.12972e-05 3.491e-05 -1.09957e-05
-7.68161e-06 -1.09957e-05 -1.81952e-05
0.000512336 9.14597e-06 7.89203e-07
9.14597e-06 -2.03706e-05 5.45925e-06
7.89203e-07 5.45925e-06 -0.000124561
0.000497612 -1.36672e-05 3.69079e-07
-1.36672e-05 -3.31115e-05 -1.82945e-07
3.69079e-07 -1.82945e-07 -7.80531e-05
0.00335253 -0.000133004 -8.98057e-05
-0.000133004 0.0017083 -3.15761e-06
-8.98057e-05 -3.15761e-06 0.00170505
0.000429289 -1.17491e-05 3.67587e-06
-1.17491e-05 -7.7838e-05 8.35615e-06
3.67587e-06 8.35615e-06 -0.000116074
0.00305155 -0.000129632 -4.29599e-06
-0.000129632 0.00151909 4.57075e-07
-4.29599e-06 4.57075e-07 0.00151652
0.00287176 -0.000114971 4.92979e-05
-0.000114971 0.00140069 3.72538e-06
4.92979e-05 3.72538e-06 0.00140166
0.000425259 6.72978e-05 1.51514e-05
6.72978e-05 -0.00110155 1.17477e-05
1.51514e-05 1.17477e-05 -0.000923499
0.0049423 4.16828e-05 5.55561e-05
4.16828e-05 0.00018849 1.42388e-06
5.55561e-05 1.42388e-06 0.000526104
0.0115347 0.000710978 -7.05649e-05
0.000710978 0.00299809 -1.78972e-05
-7.05649e-05 -1.78972e-05 0.00208155
0.00167466 0.000479629 4.13736e-06
0.000479629 0.000263964 2.94238e-06
4.13736e-06 2.94238e-06 7.74608e-06
0.00182124 0.000473984 2.93025e-06
0.000473984 0.000261088 2.19925e-06
2.93025e-06 2.19925e-06 1.97717e-05
0.00120374 0.000387007 9.2382e-07
0.000387007 3.94846e-05 -2.32984e-06
9.2382e-07 -2.32984e-06 -0.000222002
0.00138605 0.000350545 -3.41204e-06
0.000350545 0.000435738 3.14397e-06
-3.41204e-06 3.14397e-06 0.00019548
0.00171892 0.000393637 -2.23569e-06
0.000393637 0.000498681 -1.5831e-06
-2.23569e-06 -1.5831e-06 0.000214881
0.00152173 0.000453939 7.25888e-06
0.000453939 0.000294922 1.31823e-06
7.25888e-06 1.31823e-06 4.46908e-05
0.00168326 0.00053608 -5.80439e-07
0.00053608 9.79862e-05 -1.56162e-06
-5.80439e-07 -1.56162e-06 -0.000128331
0.00193049 0.00050479 -9.14949e-06
0.00050479 0.000529323 2.69853e-07
-9.14949e-06 2.69853e-07 0.000300885
0.00138358 0.000515037 7.55396e-06
0.000515037 1.24808e-05 1.45691e-05
7.55396e-06 1.45691e-05 -0.000142647
0.00223482 0.000619806 -2.59949e-06
0.000619806 0.00042568 1.20407e-06
-2.59949e-06 1.20407e-06 0.00020556
0.00201024 0.000540745 -8.5673e-06
0.000540745 0.000182533 -4.90965e-07
-8.5673e-06 -4.90965e-07 4.70238e-06
0.000726768 0.000277704 1.76592e-05
0.000277704 -0.000498104 8.96116e-06
1.76592e-05 8.96116e-06 -0.000523679
0.000950533 0.000475788 1.08531e-05
0.000475788 -0.000232734 7.45545e-08
1.08531e-05 7.45545e-08 -0.000375803
0.00120642 0.000557843 -1.62821e-05
0.000557843 -9.7486e-05 -1.00277e-05
-1.62821e-05 -1.00277e-05 -0.000284706
0.00216998 0.000491088 4.19687e-06
0.000491088 -3.95412e-05 7.86955e-06
4.19687e-06 7.86955e-06 -9.32523e-06
0.00544368 0.000621991 1.87873e-05
0.000621991 -0.000262235 -2.29034e-05
1.87873e-05 -2.29034e-05 -0.000199246
0.00314304 0.000818157 5.95792e-07
0.000818157 0.000761007 -3.35352e-05
5.95792e-07 -3.35352e-05 0.000689767
0.0015135 -4.84119e-05 2.56608e-05
-4.84119e-05 -5.61951e-05 -1.55888e-06
2.56608e-05 -1.55888e-06 -3.85539e-05
0.00220887 -0.000142875 -3.08552e-05
-0.000142875 -0.000111088 5.52366e-07
-3.08552e-05 5.52366e-07 -6.8222e-05
0.0016727 0.0002264 2.23229e-05
0.0002264 -0.000559279 -9.16823e-06
2.23229e-05 -9.16823e-06 -0.000648427
0.000178472 -0.000245396 -3.51936e-05
-0.000245396 -0.00122207 2.79537e-05
-3.51936e-05 2.79537e-05 -0.00104605
0.003433 -0.000257274 -9.89049e-05
-0.000257274 0.000523741 -1.69053e-06
-9.89049e-05 -1.69053e-06 0.000532443
0.00197937 -0.000230797 4.93181e-06
-0.000230797 -0.000164603 -3.13641e-06
4.93181e-06 -3.13641e-06 7.67347e-06
0.0023911 -6.21565e-05 -8.42754e-06
-6.21565e-05 0.000401508 4.24577e-07
-8.42754e-06 4.24577e-07 0.000369254
0.00212822 -0.000197827 5.62276e-06
-0.000197827 4.34977e-06 8.12669e-07
5.62276e-06 8.12669e-07 3.83585e-05
0.00205735 -2.13175e-05 7.02074e-06
-2.13175e-05 1.15332e-05 1.18201e-06
7.02074e-06 1.18201e-06 2.2903e-06
0.001845 -0.000330594 -9.49549e-06
-0.000330594 -0.000293292 3.35239e-06
-9.49549e-06 3.35239e-06 -0.000173744
0.0020877 -0.000299561 -1.95423e-06
-0.000299561 -5.40472e-05 1.7019e-07
-1.95423e-06 1.7019e-07 2.06532e-05
0.00204766 -0.000224561 -1.14773e-06
-0.000224561 -2.62434e-08 -5.77455e-07
-1.14773e-06 -5.77455e-07 -9.28533e-07
0.00198533 -0.000342835 -2.20497e-06
-0.000342835 3.69804e-05 -3.98773e-07
-2.20497e-06 -3.98773e-07 7.74655e-06
0.00197689 -0.000288942 3.8686e-08
-0.000288942 6.82382e-05 3.62573e-08
3.8686e-08 3.62573e-08 1.81238e-05
0.00197099 -0.000255515 -1.75137e-06
-0.000255515 0.000100223 6.11422e-07
-1.75137e-06 6.11422e-07 2.43736e-05
0.0018497 -0.000324429 -5.24206e-07
-0.000324429 6.15741e-05 -1.48856e-06
-5.24206e-07 -1.48856e-06 -2.60771e-05
0.00180621 -0.000280141 5.50756e-07
-0.000280141 7.93754e-05 -2.07911e-07
5.50756e-07 -2.07911e-07 -2.11933e-05
0.00179038 -0.000260828 7.96298e-07
-0.000260828 9.14599e-05 -7.73693e-07
7.96298e-07 -7.73693e-07 -2.35775e-05
0.00179031 -0.000307246 -3.31865e-07
-0.000307246 0.000108279 -2.00281e-07
-3.31865e-07 -2.00281e-07 -8.60499e-06
0.00181324 -0.000292665 5.04665e-09
-0.000292665 0.000146777 -4.05279e-07
5.04665e-09 -4.05279e-07 1.13702e-05
0.0017183 -0.000266178 -1.80724e-07
-0.000266178 0.000141408 -1.24748e-06
-1.80724e-07 -1.24748e-06 -1.82107e-05
0.00197872 -0.000311675 -1.87828e-06
-0.000311675 0.000274172 3.71527e-06
-1.87828e-06 3.71527e-06 0.000124805
0.00178589 -0.000291453 -6.1652e-07
-0.000291453 0.000216815 -1.23898e-07
-6.1652e-07 -1.23898e-07 4.28615e-05
0.00138353 -0.000224561 -6.13495e-06
-0.000224561 9.24319e-05 1.3847e-06
-6.13495e-06 1.3847e-06 -8.63101e-05
0.00175171 -0.000321496 3.7713e-06
-0.000321496 0.000227969 7.80446e-07
3.7713e-06 7.80446e-07 3.17444e-05
0.00138285 -0.000248872 -2.709e-07
-0.000248872 0.000120563 -3.25583e-08
-2.709e-07 -3.25583e-08 -6.89062e-05
0.000939813 -0.000166075 -1.36417e-05
-0.000166075 -1.10062e-05 6.09855e-06
-1.36417e-05 6.09855e-06 -0.000165629
0.000437979 -0.000173037 -2.02797e-05
-0.000173037 -0.000145196 1.46778e-05
-2.02797e-05 1.46778e-05 -0.000247448
0.000923736 -0.000181634 1.80184e-07
-0.000181634 2.67804e-06 8.95031e-08
1.80184e-07 8.95031e-08 -0.000159814
0.00122175 -0.000261798 5.69697e-06
-0.000261798 7.33962e-05 -1.54161e-06
5.69697e-06 -1.54161e-06 -0.000130778
0.00575589 9.19582e-05 -0.000197425
9.19582e-05 0.00312652 1.10098e-05
-0.000197425 1.10098e-05 0.00312318
0.000527645 -0.000183628 -1.6145e-06
-0.000183628 -8.89735e-05 8.63428e-07
-1.6145e-06 8.63428e-07 -0.000187833
0.00087078 -0.000189919 1.14359e-05
-0.000189919 1.21608e-05 -6.04001e-06
1.14359e-05 -6.04001e-06 -0.000158396
0.00554786 0.000139347 -7.05777e-07
0.000139347 0.00302305 -2.74558e-07
-7.05777e-07 -2.74558e-07 0.00300917
0.000632171 -0.000178404 2.28204e-05
-0.000178404 -1.38866e-05 -1.56699e-05
2.28204e-05 -1.56699e-05 -0.000109342
0.00522643 0.000136114 0.000173173
0.000136114 0.00283313 -1.33409e-05
0.000173173 -1.33409e-05 0.00282089
0.00144598 0.000379854 -1.96339e-06
0.000379854 0.000159053 2.19247e-06
-1.96339e-06 2.19247e-06 -8.17377e-05
0.00125622 0.000329735 -2.91092e-08
0.000329735 0.000129349 5.21808e-07
-2.91092e-08 5.21808e-07 -0.00011753
0.0011079 0.000258192 -7.04912e-06
0.000258192 8.38132e-05 -1.97151e-06
-7.04912e-06 -1.97151e-06 -0.000129597
0.00145075 0.000323995 -4.95847e-07
0.000323995 0.000340843 2.31112e-06
-4.95847e-07 2.31112e-06 9.33068e-05
0.00107041 0.000242383 -2.05989e-06
0.000242383 0.000162203 1.02676e-06
-2.05989e-06 1.02676e-06 -5.20327e-05
0.000922175 0.00019727 -7.60303e-06
0.00019727 0.000161269 -5.06239e-06
-7.60303e-06 -5.06239e-06 -1.7189e-05
0.00103559 0.0002069 -1.28489e-06
0.0002069 0.000241648 1.00441e-06
-1.28489e-06 1.00441e-06 4.49015e-05
0.00073156 0.000145057 -7.42812e-08
0.000145057 0.000111469 -3.63314e-08
-7.42812e-08 -3.63314e-08 -5.14288e-05
0.00074948 7.46195e-05 -1.45338e-05
7.46195e-05 0.000102645 -1.35493e-05
-1.45338e-05 -1.35493e-05 3.24097e-05
0.000561075 2.63814e-05 1.14071e-06
2.63814e-05 1.84927e-06 5.33388e-06
1.14071e-06 5.33388e-06 -0.000116495
0.000492526 2.33996e-06 -3.45047e-07
2.33996e-06 -3.77427e-05 -3.60372e-07
-3.45047e-07 -3.60372e-07 -9.02781e-05
0.00378911 -0.000134781 -0.000117318
-0.000134781 0.0019768 -4.60319e-06
-0.000117318 -4.60319e-06 0.00197192
0.00041362 -1.39889e-05 3.99875e-06
-1.39889e-05 -8.21019e-05 9.31206e-06
3.99875e-06 9.31206e-06 -0.000126537
0.00326001 -0.000143369 -4.29423e-06
-0.000143369 0.00165416 4.42859e-07
-4.29423e-06 4.42859e-07 0.00164789
0.00300185 -0.000130794 5.81322e-05
-0.000130794 0.00148889 3.36534e-06
5.81322e-05 3.36534e-06 0.00148573
0.000591204 7.84557e-05 2.1552e-05
7.84557e-05 -0.000606291 7.11688e-06
2.1552e-05 7.11688e-06 -0.000524494
0.00212605 5.54196e-05 -9.21836e-06
5.54196e-05 -0.000403666 -1.98239e-06
-9.21836e-06 -1.98239e-06 -0.000202446
0.00416627 7.17517e-05 0.000153283
7.17517e-05 -0.000662984 4.15754e-05
0.000153283 4.15754e-05 9.36372e-05
0.00235004 0.000540688 -2.05148e-06
0.000540688 0.000486983 -3.99287e-08
-2.05148e-06 -3.99287e-08 0.000255194
0.00159595 0.000491126 -2.68905e-06
0.000491126 0.00020334 -3.56585e-06
-2.68905e-06 -3.56585e-06 -5.03407e-05
0.00198055 0.00041382 -4.19734e-07
0.00041382 0.00021463 3.22935e-06
-4.19734e-07 3.22935e-06 2.12388e-05
0.00181117 0.000467476 8.39305e-07
0.000467476 0.000252491 2.69472e-07
8.39305e-07 2.69472e-07 1.30068e-05
0.00128603 0.000401408 1.19171e-06
0.000401408 9.53536e-05 -7.30212e-06
1.19171e-06 -7.30212e-06 -0.000167285
0.00183056 0.000432903 -1.44064e-07
0.000432903 5.57819e-05 8.07986e-07
-1.44064e-07 8.07986e-07 -0.000116224
0.00192681 0.000494615 -4.8473e-06
0.000494615 0.000510955 -2.24385e-06
-4.8473e-06 -2.24385e-06 0.000256513
0.00194827 0.000548753 1.15149e-07
0.000548753 0.000265397 -8.45036e-08
1.15149e-07 -8.45036e-08 3.66918e-05
0.00182334 0.000319301 -5.59719e-06
0.000319301 -4.8747e-05 -7.45008e-07
-5.59719e-06 -7.45008e-07 -0.000137739
0.00271898 0.000660465 4.84317e-07
0.000660465 0.000690489 1.98113e-06
4.84317e-07 1.98113e-06 0.000466647
0.00196237 0.000541359 -1.82147e-06
0.000541359 0.000146511 1.43836e-08
-1.82147e-06 1.43836e-08 -3.47124e-05
0.000891218 0.000290196 5.38282e-06
0.000290196 -0.000370736 3.2973e-06
5.38282e-06 3.2973e-06 -0.000405288
-0.000503233 0.000366435 -8.23858e-06
0.000366435 -0.000979456 -2.56875e-06
-8.23858e-06 -2.56875e-06 -0.00111085
0.00228369 0.000511027 -6.43092e-05
0.000511027 6.03008e-06 -2.94324e-05
-6.43092e-05 -2.94324e-05 -1.48455e-05
0.00191348 4.7769e-05 2.47535e-07
4.7769e-05 -9.25075e-05 -5.25783e-07
2.47535e-07 -5.25783e-07 -7.19816e-05
0.00223591 -4.35001e-05 1.61287e-06
-4.35001e-05 0.000399826 1.08945e-06
1.61287e-06 1.08945e-06 0.000416157
0.00175498 -9.30784e-05 -5.8305e-05
-9.30784e-05 -0.000244486 7.96614e-07
-5.8305e-05 7.96614e-07 -0.000309706
0.00230991 -0.000259885 -4.04411e-05
-0.000259885 8.37966e-05 3.49863e-06
-4.04411e-05 3.49863e-06 0.000228923
0.00148588 -8.11571e-05 -1.07198e-05
-8.11571e-05 -0.000170823 6.11825e-07
-1.07198e-05 6.11825e-07 -0.000194855
0.00205128 -0.000192042 -5.026e-09
-0.000192042 -4.42421e-05 -8.5404e-07
-5.026e-09 -8.5404e-07 2.99305e-06
0.0021206 -2.24531e-05 -1.39818e-06
-2.24531e-05 2.6802e-05 1.49843e-06
-1.39818e-06 1.49843e-06 2.39496e-05
0.002126 -7.0458e-05 -1.36431e-06
-7.0458e-05 2.31422e-05 -2.61512e-07
-1.36431e-06 -2.61512e-07 3.36879e-05
0.00209963 -0.00029765 -4.48489e-06
-0.00029765 -3.0702e-05 7.48796e-07
-4.48489e-06 7.48796e-07 2.66983e-05
0.00202458 -0.000216126 4.17883e-07
-0.000216126 -1.88854e-06 -2.03476e-07
4.17883e-07 -2.03476e-07 -4.34236e-06
0.00200777 -0.000176128 -1.80227e-06
-0.000176128 4.04122e-05 -8.56913e-08
-1.80227e-06 -8.56913e-08 9.98504e-06
0.0019595 -0.000285011 1.1156e-06
-0.000285011 6.83639e-05 -9.30391e-07
1.1156e-06 -9.30391e-07 1.35567e-05
0.00188832 -0.000249897 2.42253e-07
-0.000249897 5.88889e-05 8.04732e-08
2.42253e-07 8.04732e-08 -1.91258e-05
0.00181765 -0.000206319 -1.4401e-07
-0.000206319 6.82556e-05 -3.8733e-07
-1.4401e-07 -3.8733e-07 -2.54668e-05
0.0017643 -0.000277891 1.31027e-06
-0.000277891 5.03087e-05 -9.30854e-07
1.31027e-06 -9.30854e-07 -5.06115e-05
0.00183221 -0.000261966 1.18047e-07
-0.000261966 0.000116575 -1.4882e-07
1.18047e-07 -1.4882e-07 1.38142e-06
0.00177301 -0.000235557 5.56475e-07
-0.000235557 0.000132158 -1.04027e-06
5.56475e-07 -1.04027e-06 -9.45826e-06
0.00183079 -0.000292975 -8.97286e-07
-0.000292975 0.000158185 1.07171e-06
-8.97286e-07 1.07171e-06 2.26879e-05
0.00175037 -0.000267257 -3.08489e-07
-0.000267257 0.000161439 -9.18101e-08
-3.08489e-07 -9.18101e-08 2.04608e-06
0.00143103 -0.000204682 -4.45619e-06
-0.000204682 9.2535e-05 1.03462e-06
-4.45619e-06 1.03462e-06 -7.66123e-05
0.00179371 -0.000292266 6.53194e-07
-0.000292266 0.000222203 1.34947e-06
6.53194e-07 1.34947e-06 4.92949e-05
0.00140633 -0.000225707 -2.64681e-07
-0.000225707 0.000105132 6.64267e-08
-2.64681e-07 6.64267e-08 -7.32852e-05
0.000955987 -0.00014889 -1.39671e-05
-0.00014889 -1.80793e-05 5.61779e-06
-1.39671e-05 5.61779e-06 -0.000167044
0.00138819 -0.000250309 6.1954e-06
-0.000250309 0.000124264 -1.21842e-06
6.1954e-06 -1.21842e-06 -6.49732e-05
0.000957197 -0.000166144 1.75694e-07
-0.000166144 -2.70573e-06 7.1022e-08
1.75694e-07 7.1022e-08 -0.000157114
0.0024891 -0.00012849 -3.4003e-05
-0.00012849 0.00107535 9.22758e-06
-3.4003e-05 9.22758e-06 0.000992823
0.00178753 -5.85678e-05 -0.000195877
-5.85678e-05 0.000723133 2.26591e-05
-0.000195877 2.26591e-05 0.000705387
0.00154768 -0.000161786 -7.09222e-06
-0.000161786 0.000516634 -3.83601e-07
-7.09222e-06 -3.83601e-07 0.000421565
0.000947705 -0.000183331 1.26261e-05
-0.000183331 1.56775e-05 -5.94314e-06
1.26261e-05 -5.94314e-06 -0.000147275
0.00583389 7.53293e-05 -6.55838e-06
7.53293e-05 0.00317987 -2.68643e-07
-6.55838e-06 -2.68643e-07 0.00317325
0.000578522 -0.00020779 2.41324e-05
-0.00020779 -5.97105e-05 -1.5259e-05
2.41324e-05 -1.5259e-05 -0.000161115
0.0056741 0.000119724 0.000191146
0.000119724 0.00310343 -1.70757e-05
0.000191146 -1.70757e-05 0.00308727
0.00196996 0.000323432 3.20262e-07
0.000323432 0.000178454 2.12238e-07
3.20262e-07 2.12238e-07 1.84146e-05
0.00176193 0.000386791 1.61203e-06
0.000386791 0.000219192 3.19947e-06
1.61203e-06 3.19947e-06 4.41831e-06
0.00169633 0.000404604 5.3936e-08
0.000404604 0.000296945 1.54248e-07
5.3936e-08 1.54248e-07 5.3444e-05
0.00117692 0.000274827 -6.93376e-06
0.000274827 6.74223e-05 -1.4181e-06
-6.93376e-06 -1.4181e-06 -0.000142655
0.00135324 0.000342529 4.73911e-06
0.000342529 0.000185106 1.17856e-06
4.73911e-06 1.17856e-06 -6.33879e-05
0.00112841 0.000256041 -9.43841e-08
0.000256041 9.92578e-05 2.01078e-08
-9.43841e-08 2.01078e-08 -0.000112972
0.0008154 0.000184848 -1.01891e-05
0.000184848 1.33848e-05 -5.49491e-06
-1.01891e-05 -5.49491e-06 -0.000157476
0.000863186 0.000221948 2.60293e-06
0.000221948 3.92718e-05 4.89216e-06
2.60293e-06 4.89216e-06 -0.000170722
0.000777483 0.000183179 -1.13653e-08
0.000183179 7.48811e-05 8.8211e-07
-1.13653e-08 8.8211e-07 -0.000102752
0.000723009 0.000160959 -2.19126e-05
0.000160959 6.65412e-05 -1.5046e-05
-2.19126e-05 -1.5046e-05 -2.38729e-05
0.000595796 0.000110351 1.41114e-06
0.000110351 2.73675e-05 4.98993e-06
1.41114e-06 4.98993e-06 -0.000127489
0.000549992 6.11202e-05 -1.82241e-06
6.11202e-05 -1.4257e-05 -6.68204e-07
-1.82241e-06 -6.68204e-07 -8.0162e-05
0.00453372 -0.000129688 -0.000156409
-0.000129688 0.00242751 -9.18869e-06
-0.000156409 -9.18869e-06 0.00241887
0.000368173 -5.77393e-06 4.81317e-06
-5.77393e-06 -0.000107901 1.05439e-05
4.81317e-06 1.05439e-05 -0.000160358
0.00361285 -0.000156671 -5.76483e-06
-0.000156671 0.00187539 4.50646e-07
-5.76483e-06 4.50646e-07 0.00186507
0.00319689 -0.000147855 6.82918e-05
-0.000147855 0.00161665 2.87691e-06
6.82918e-05 2.87691e-06 0.00160893
0.00199646 0.000166707 -2.34993e-07
0.000166707 -4.3076e-05 -5.31728e-07
-2.34993e-07 -5.31728e-07 -4.23297e-05
0.00192941 5.69497e-05 1.90354e-05
5.69497e-05 9.42807e-05 -1.40367e-06
1.90354e-05 -1.40367e-06 0.000163616
0.00441853 7.25157e-05 -0.000103065
7.25157e-05 0.000570577 -1.52238e-05
-0.000103065 -1.52238e-05 0.000822824
0.00182319 0.00037189 -3.1961e-06
0.00037189 6.56736e-05 1.08121e-06
-3.1961e-06 1.08121e-06 -9.61969e-05
0.00195432 0.000503886 -2.80587e-06
0.000503886 0.00027366 -6.72969e-08
-2.80587e-06 -6.72969e-08 4.59978e-05
0.00152221 0.000502614 -1.01696e-05
0.000502614 0.000147538 -7.85096e-06
-1.01696e-05 -7.85096e-06 -0.000103195
0.00206105 0.00040677 2.84563e-06
0.00040677 0.000276079 1.13002e-06
2.84563e-06 1.13002e-06 8.49541e-05
0.00178311 0.000460059 -1.82342e-06
0.000460059 0.00023424 -2.85444e-06
-1.82342e-06 -2.85444e-06 -3.4094e-06
0.00222414 0.000314675 -8.18081e-08
0.000314675 0.00018396 1.19062e-07
-8.18081e-08 1.19062e-07 8.39657e-05
0.00173039 0.000427495 -2.24329e-07
0.000427495 1.99413e-05 7.57129e-07
-2.24329e-07 7.57129e-07 -0.000152734
0.00226612 0.000566303 -4.73884e-06
0.000566303 0.000461404 -5.56957e-07
-4.73884e-06 -5.56957e-07 0.00022931
0.00185548 0.000322863 -1.00368e-06
0.000322863 -2.55775e-05 -4.63477e-07
-1.00368e-06 -4.63477e-07 -0.000115549
0.00206071 0.000552082 1.64036e-05
0.000552082 0.000180322 3.30255e-06
1.64036e-05 3.30255e-06 -4.74328e-06
0.00112217 0.000291304 -3.0539e-05
0.000291304 -0.000219535 -6.9654e-06
-3.0539e-05 -6.9654e-06 -0.000260838
0.00207665 5.56851e-05 -1.21031e-06
5.56851e-05 6.18318e-06 4.36649e-07
-1.21031e-06 4.36649e-07 1.55333e-05
0.00202069 5.74888e-05 -1.87303e-06
5.74888e-05 -1.80932e-05 1.84465e-07
-1.87303e-06 1.84465e-07 -1.52685e-06
0.0029268 -3.44136e-05 -3.94066e-05
-3.44136e-05 0.000842553 3.14434e-06
-3.94066e-05 3.14434e-06 0.000853563
0.00196807 -0.000184801 -1.04665e-05
-0.000184801 -0.000100574 -3.63963e-07
-1.04665e-05 -3.63963e-07 -4.06667e-05
0.00212252 -2.11692e-05 -3.97042e-06
-2.11692e-05 1.16745e-07 -2.62195e-06
-3.97042e-06 -2.62195e-06 3.03343e-06
0.00208826 -7.45989e-05 -3.21175e-07
-7.45989e-05 -1.57163e-05 9.08242e-08
-3.21175e-07 9.08242e-08 7.95662e-09
0.00192094 -5.83791e-05 -2.32729e-06
-5.83791e-05 1.06204e-05 2.96498e-07
-2.32729e-06 2.96498e-07 -3.04768e-06
0.00200233 -0.000206607 1.38679e-06
-0.000206607 -1.51521e-06 1.69089e-07
1.38679e-06 1.69089e-07 -5.64748e-06
0.00194681 -0.000177251 7.349e-08
-0.000177251 1.432e-05 -4.03965e-09
7.349e-08 -4.03965e-09 -1.95149e-05
0.00187395 -0.000139763 1.68477e-06
-0.000139763 7.25694e-05 -1.2436e-06
1.68477e-06 -1.2436e-06 -8.74431e-08
0.00180162 -0.000243904 2.00995e-06
-0.000243904 1.59909e-05 -5.14639e-07
2.00995e-06 -5.14639e-07 -6.43637e-05
0.0018593 -0.000208663 -8.78678e-08
-0.000208663 8.6059e-05 -1.19485e-08
-8.78678e-08 -1.19485e-08 -7.95402e-06
0.0018207 -0.000193598 6.26875e-07
-0.000193598 0.000118025 -9.24484e-07
6.26875e-07 -9.24484e-07 -6.25866e-06
0.00187752 -0.000263128 1.73813e-07
-0.000263128 0.000144098 3.93358e-07
1.73813e-07 3.93358e-07 2.8772e-05
0.00179751 -0.000236465 -2.44942e-07
-0.000236465 0.000146339 4.02611e-08
-2.44942e-07 4.02611e-08 4.80867e-06
0.0014823 -0.000179534 -3.32099e-06
-0.000179534 9.39149e-05 6.2524e-07
-3.32099e-06 6.2524e-07 -6.50655e-05
0.00178233 -0.00026836 -2.61356e-07
-0.00026836 0.000181479 1.00144e-06
-2.61356e-07 1.00144e-06 2.23036e-05
0.00145135 -0.000205605 -2.10585e-07
-0.000205605 0.000102745 8.43406e-08
-2.10585e-07 8.43406e-08 -6.60443e-05
0.000968465 -0.000132419 -1.3578e-05
-0.000132419 -2.33979e-05 4.8318e-06
-1.3578e-05 4.8318e-06 -0.000168842
0.00142783 -0.000226792 5.25375e-06
-0.000226792 0.00011711 -1.17075e-06
5.25375e-06 -1.17075e-06 -6.098e-05
0.000977783 -0.000148505 1.02201e-07
-0.000148505 -7.54893e-06 1.19687e-07
1.02201e-07 1.19687e-07 -0.000155991
0.00252421 -0.000132843 -4.18205e-05
-0.000132843 0.00108425 8.51488e-06
-4.18205e-05 8.51488e-06 0.00100907
0.000970177 -0.000166256 1.36416e-05
-0.000166256 3.09432e-06 -5.89629e-06
1.36416e-05 -5.89629e-06 -0.000151142
0.00264151 -0.000171886 3.96207e-05
-0.000171886 0.00116347 -5.33382e-06
3.96207e-05 -5.33382e-06 0.00108727
0.00184214 -9.78352e-05 -0.000198794
-9.78352e-05 0.000762663 2.70457e-05
-0.000198794 2.70457e-05 0.000743104
0.00374297 -4.02421e-05 -0.000195243
-4.02421e-05 0.00191775 1.43549e-05
-0.000195243 1.43549e-05 0.00190666
0.00271997 -0.00022611 0.000124797
-0.00022611 0.00121836 -1.79585e-05
0.000124797 -1.79585e-05 0.00114352
0.00589478 6.09843e-05 0.000207374
6.09843e-05 0.00322586 -2.00442e-05
0.000207374 -2.00442e-05 0.00321482
0.0021 0.000316736 -2.34619e-06
0.000316736 0.000241815 -1.02662e-06
-2.34619e-06 -1.02662e-06 9.98819e-05
0.00163743 0.000305246 2.72823e-06
0.000305246 8.79309e-05 1.01613e-06
2.72823e-06 1.01613e-06 -9.23076e-05
0.00196891 0.000319843 3.82256e-07
0.000319843 0.000177809 -1.35829e-06
3.82256e-07 -1.35829e-06 2.32388e-05
0.00134381 0.00027934 -5.90417e-06
0.00027934 0.000101369 -6.68907e-07
-5.90417e-06 -6.68907e-07 -9.92076e-05
0.00182598 0.000389623 5.86524e-07
0.000389623 0.000247116 3.98799e-07
5.86524e-07 3.98799e-07 3.17182e-05
0.00194666 0.000429724 1.75308e-06
0.000429724 0.000434152 -1.6073e-06
1.75308e-06 -1.6073e-06 0.000187862
0.00122339 0.000276325 -2.71215e-07
0.000276325 9.87769e-05 2.46028e-07
-2.71215e-07 2.46028e-07 -0.000111448
0.000921201 0.000190104 -1.21577e-05
0.000190104 1.83474e-05 -6.12846e-06
-1.21577e-05 -6.12846e-06 -0.000148087
0.00116407 0.000255079 7.86859e-06
0.000255079 0.000124151 2.19961e-06
7.86859e-06 2.19961e-06 -8.71465e-05
0.000831293 0.00018274 -2.95029e-07
0.00018274 1.72847e-05 4.38515e-08
-2.95029e-07 4.38515e-08 -0.000152364
0.000574936 0.00020271 -2.40442e-05
0.00020271 -4.41339e-05 -1.58014e-05
-2.40442e-05 -1.58014e-05 -0.00014519
0.000629135 0.000171452 4.51078e-06
0.000171452 -1.03477e-05 5.60539e-06
4.51078e-06 5.60539e-06 -0.000188425
0.000531317 0.00013153 3.65737e-07
0.00013153 -4.67816e-05 2.72196e-07
3.65737e-07 2.72196e-07 -0.000131702
0.00539589 -0.00013515 -0.000182096
-0.00013515 0.00295864 -1.63242e-05
-0.000182096 -1.63242e-05 0.00293692
0.000272752 3.11591e-05 8.3555e-06
3.11591e-05 -0.000172277 1.24801e-05
8.3555e-06 1.24801e-05 -0.000236231
0.00427992 -0.000175681 -1.07022e-05
-0.000175681 0.00228678 7.70308e-07
-1.07022e-05 7.70308e-07 0.00226914
0.00347759 -0.000166137 8.04536e-05
-0.000166137 0.00179576 2.70547e-06
8.04536e-05 2.70547e-06 0.00178284
0.00205399 0.000185147 -1.24652e-06
0.000185147 1.4649e-05 3.06092e-07
-1.24652e-06 3.06092e-07 -1.82635e-05
0.00193485 0.000168154 9.49612e-07
0.000168154 -7.49475e-05 -1.51914e-07
9.49612e-07 -1.51914e-07 -7.49768e-05
0.00305857 4.1951e-05 -7.43673e-05
4.1951e-05 0.000691233 -8.44902e-06
-7.43673e-05 -8.44902e-06 0.000754101
0.00200918 0.000274723 5.27116e-07
0.000274723 0.000114256 3.65726e-07
5.27116e-07 3.65726e-07 2.60893e-06
0.00185103 0.000370127 -1.78428e-07
0.000370127 0.000102389 3.57034e-07
-1.78428e-07 3.57034e-07 -5.96239e-05
0.00157558 0.000467908 -2.35047e-07
0.000467908 6.8814e-05 -1.92819e-06
-2.35047e-07 -1.92819e-06 -0.000154775
0.002142 0.000399326 -4.02839e-07
0.000399326 0.00033834 -2.22128e-06
-4.02839e-07 -2.22128e-06 0.000149627
0.00210273 0.000303913 -7.21277e-07
0.000303913 0.0001183 -3.02931e-08
-7.21277e-07 -3.02931e-08 1.90971e-05
0.00162559 0.000421651 -3.7469e-06
0.000421651 -1.82329e-05 4.65903e-07
-3.7469e-06 4.65903e-07 -0.000191561
0.00182313 0.000322779 8.1673e-06
0.000322779 -2.25967e-05 9.0891e-07
8.1673e-06 9.0891e-07 -0.000113716
0.0019501 5.17297e-05 -6.80026e-07
5.17297e-05 1.20326e-05 5.41925e-07
-6.80026e-07 5.41925e-07 9.34253e-07
0.00204171 5.51351e-05 5.8935e-08
5.51351e-05 -2.41321e-06 -1.26857e-07
5.8935e-08 -1.26857e-07 3.09652e-06
0.00210005 6.83558e-05 -8.44928e-06
6.83558e-05 4.16452e-05 -3.77367e-07
-8.44928e-06 -3.77367e-07 5.47471e-05
0.00182604 -1.12886e-05 -4.66045e-06
-1.12886e-05 2.55627e-06 4.59874e-07
-4.66045e-06 4.59874e-07 -2.54349e-05
0.00204956 -8.31673e-05 1.49058e-06
-8.31673e-05 -5.43367e-05 -5.78299e-07
1.49058e-06 -5.78299e-07 -3.37523e-05
0.00193531 -6.13688e-05 -6.72076e-07
-6.13688e-05 1.70216e-05 2.6e-07
-6.72076e-07 2.6e-07 3.15164e-06
0.00187353 -8.20723e-05 -2.86937e-06
-8.20723e-05 6.52999e-05 5.52815e-08
-2.86937e-06 5.52815e-08 7.98713e-06
0.00188802 -0.000178388 2.53316e-06
-0.000178388 -1.12115e-05 -2.56903e-07
2.53316e-06 -2.56903e-07 -4.83871e-05
0.00186652 -0.000139688 2.06425e-06
-0.000139688 6.02662e-05 -7.64446e-07
2.06425e-06 -7.64446e-07 -1.20078e-05
0.00184005 -0.000137106 2.99397e-06
-0.000137106 0.000110768 -1.05787e-06
2.99397e-06 -1.05787e-06 6.61893e-07
0.00190991 -0.000210776 7.1962e-07
-0.000210776 0.000109075 3.14258e-07
7.1962e-07 3.14258e-07 1.48577e-05
0.00183268 -0.00019228 -1.52337e-07
-0.00019228 0.000128153 -2.51685e-07
-1.52337e-07 -2.51685e-07 4.21576e-06
0.00152048 -0.000145888 -2.48733e-06
-0.000145888 9.02872e-05 2.64305e-07
-2.48733e-06 2.64305e-07 -5.75147e-05
0.00182194 -0.000237233 -5.29246e-07
-0.000237233 0.000160801 9.98335e-07
-5.29246e-07 9.98335e-07 1.93884e-05
0.00148702 -0.000179151 -2.09217e-07
-0.000179151 9.5023e-05 1.03879e-07
-2.09217e-07 1.03879e-07 -6.34843e-05
0.000980718 -0.000113757 -1.30074e-05
-0.000113757 -2.81177e-05 3.86738e-06
-1.30074e-05 3.86738e-06 -0.000169989
0.00147036 -0.000206366 3.89058e-06
-0.000206366 0.000112296 -8.60188e-07
3.89058e-06 -8.60188e-07 -5.61065e-05
0.000992392 -0.000131338 1.5023e-09
-0.000131338 -1.16942e-05 2.12447e-07
1.5023e-09 2.12447e-07 -0.000156387
0.00254299 -0.000137943 -4.9606e-05
-0.000137943 0.00109029 8.29403e-06
-4.9606e-05 8.29403e-06 0.00101755
0.00100049 -0.000148236 1.38552e-05
-0.000148236 3.28219e-06 -5.41875e-06
1.38552e-05 -5.41875e-06 -0.000144608
0.00262279 -0.000161289 3.61428e-05
-0.000161289 0.0011423 -4.3678e-06
3.61428e-05 -4.3678e-06 0.00107186
0.00188818 -8.47893e-05 -0.000194657
-8.47893e-05 0.000784607 2.40577e-05
-0.000194657 2.40577e-05 0.000766406
0.00277429 -0.000186097 0.00012287
-0.000186097 0.00123912 -1.96425e-05
0.00012287 -1.96425e-05 0.00116903
0.00159189 -3.62612e-05 -8.65251e-05
-3.62612e-05 0.000617394 1.05896e-05
-8.65251e-05 1.05896e-05 0.000587863
0.00558141 0.000135576 4.37023e-05
0.000135576 0.00302539 -2.20315e-06
4.37023e-05 -2.20315e-06 0.0030008
0.00190114 0.000262476 4.81994e-07
0.000262476 0.000110669 1.80204e-07
4.81994e-07 1.80204e-07 -1.87203e-05
0.00189694 0.000291159 -2.05102e-07
0.000291159 0.000199148 -8.46513e-07
-2.05102e-07 -8.46513e-07 3.92338e-05
0.00200175 0.000313518 -3.5986e-06
0.000313518 0.000178965 1.71129e-08
-3.5986e-06 1.71129e-08 3.47832e-05
0.00167214 0.000265882 -3.09425e-06
0.000265882 0.000246502 -5.72334e-07
-3.09425e-06 -5.72334e-07 6.39181e-05
0.00166946 0.000312015 1.45373e-07
0.000312015 9.63723e-05 -1.62055e-06
1.45373e-07 -1.62055e-06 -8.17094e-05
0.00197547 0.000316823 -2.98952e-06
0.000316823 0.000181716 -3.53482e-06
-2.98952e-06 -3.53482e-06 3.2544e-05
0.00096839 0.000185524 -1.36076e-05
0.000185524 2.82751e-06 -5.77796e-06
-1.36076e-05 -5.77796e-06 -0.000157919
0.00133656 0.000279254 2.28357e-07
0.000279254 9.6408e-05 2.6831e-07
2.28357e-07 2.6831e-07 -0.00010463
0.0018883 0.000392214 2.78456e-06
0.000392214 0.000273328 -2.09387e-06
2.78456e-06 -2.09387e-06 5.73305e-05
0.00128333 0.000278554 7.91272e-06
0.000278554 0.000139038 2.44176e-06
7.91272e-06 2.44176e-06 -7.13848e-05
0.000876847 0.000185887 -6.05849e-07
0.000185887 -6.35817e-06 -2.62085e-08
-6.05849e-07 -2.62085e-08 -0.000171705
0.000521473 0.00021837 -2.5128e-05
0.00021837 -8.30857e-05 -1.54737e-05
-2.5128e-05 -1.54737e-05 -0.000188005
0.000751203 0.000175796 9.79322e-06
0.000175796 -3.55738e-05 5.74196e-06
9.79322e-06 5.74196e-06 -0.000203379
0.00050852 0.000193156 2.19473e-06
0.000193156 -7.97589e-05 5.19311e-07
2.19473e-06 5.19311e-07 -0.000179838
0.00586219 -8.73328e-05 -0.00019834
-8.73328e-05 0.00323564 -2.17412e-05
-0.00019834 -2.17412e-05 0.00321175
0.00040027 0.000118646 1.81179e-05
0.000118646 -0.000128442 1.4833e-05
1.81179e-05 1.4833e-05 -0.000206292
0.00512273 -0.000163046 -7.87668e-06
-0.000163046 0.00278886 3.43143e-07
-7.87668e-06 3.43143e-07 0.00276997
0.00398316 -0.00019202 9.6851e-05
-0.00019202 0.00211228 3.70171e-06
9.6851e-05 3.70171e-06 0.00209109
0.00196571 0.000148575 -1.61166e-06
0.000148575 5.93284e-05 8.87231e-07
-1.61166e-06 8.87231e-07 5.47715e-07
0.0020636 0.00018853 5.06172e-07
0.00018853 1.26868e-05 3.94631e-07
5.06172e-07 3.94631e-07 -1.70594e-05
0.00192906 0.00017194 7.5237e-07
0.00017194 -8.45258e-05 5.76925e-07
7.5237e-07 5.76925e-07 -8.51465e-05
0.0020063 0.000269394 4.39929e-07
0.000269394 0.000118198 3.53054e-08
4.39929e-07 3.53054e-08 9.81497e-06
0.00186279 0.000367109 -1.07946e-06
0.000367109 0.000130719 -6.22992e-07
-1.07946e-06 -6.22992e-07 -3.12687e-05
0.00199014 0.000293074 2.22805e-07
0.000293074 5.71447e-05 -3.87129e-07
2.22805e-07 -3.87129e-07 -4.10435e-05
0.00193181 5.79301e-05 -2.73856e-06
5.79301e-05 5.61294e-05 1.42163e-07
-2.73856e-06 1.42163e-07 2.47089e-05
0.00195785 4.8987e-05 3.35501e-07
4.8987e-05 2.13757e-05 -1.30106e-07
3.35501e-07 -1.30106e-07 7.75822e-06
0.00202079 5.49772e-05 1.27759e-06
5.49772e-05 -3.67982e-06 -1.35804e-07
1.27759e-06 -1.35804e-07 -1.7806e-06
0.00185984 -1.48749e-05 -1.63047e-06
-1.48749e-05 1.95789e-05 8.62261e-08
-1.63047e-06 8.62261e-08 -7.99713e-06
0.00184057 -3.55848e-05 -3.59013e-06
-3.55848e-05 5.46795e-05 2.48302e-08
-3.59013e-06 2.48302e-08 -4.50833e-06
0.00194992 -6.43238e-05 1.8876e-06
-6.43238e-05 2.3462e-05 5.88663e-10
1.8876e-06 5.88663e-10 9.44272e-06
0.00184653 -8.03675e-05 -2.02658e-06
-8.03675e-05 5.15095e-05 6.17609e-07
-2.02658e-06 6.17609e-07 -9.49171e-06
0.00186291 -8.24427e-05 -2.61406e-07
-8.24427e-05 0.000124802 -4.87671e-07
-2.61406e-07 -4.87671e-07 2.99824e-05
0.00184692 -0.000139637 3.27182e-06
-0.000139637 4.16715e-05 -3.73087e-07
3.27182e-06 -3.73087e-07 -3.03054e-05
0.00182628 -0.000137956 2.64427e-06
-0.000137956 0.000105492 -6.89087e-07
2.64427e-06 -6.89087e-07 -4.67987e-06
0.00153624 -0.000104463 -1.04939e-06
-0.000104463 7.75731e-05 -2.73606e-07
-1.04939e-06 -2.73606e-07 -5.96222e-05
0.00182928 -0.000192212 -1.00968e-06
-0.000192212 0.00012831 4.11412e-07
-1.00968e-06 4.11412e-07 4.43378e-06
0.00151644 -0.000145757 -1.23676e-07
-0.000145757 8.49049e-05 3.28085e-08
-1.23676e-07 3.28085e-08 -6.26529e-05
0.000985224 -9.03796e-05 -1.25356e-05
-9.03796e-05 -3.68214e-05 2.9576e-06
-1.25356e-05 2.9576e-06 -0.000173933
0.00149559 -0.000179015 2.73613e-06
-0.000179015 9.7601e-05 -4.30457e-07
2.73613e-06 -4.30457e-07 -6.04547e-05
0.00100201 -0.000112109 -1.43621e-07
-0.000112109 -1.74364e-05 2.16733e-07
-1.43621e-07 2.16733e-07 -0.000158562
0.002516 -0.000148215 -5.30465e-05
-0.000148215 0.001071 7.42397e-06
-5.30465e-05 7.42397e-06 0.000998392
0.0010164 -0.000130332 1.34816e-05
-0.000130332 -1.45173e-07 -4.48714e-06
1.34816e-05 -4.48714e-06 -0.000144067
0.00261011 -0.000143507 3.47674e-05
-0.000143507 0.00112674 -3.30839e-06
3.47674e-05 -3.30839e-06 0.00105934
0.00192153 -7.20435e-05 -0.000194507
-7.20435e-05 0.000797989 2.05493e-05
-0.000194507 2.05493e-05 0.000780504
0.00272065 -0.000159148 0.00012103
-0.000159148 0.00119537 -1.69479e-05
0.00012103 -1.69479e-05 0.00113173
0.0015966 -4.65413e-05 -7.85532e-05
-4.65413e-05 0.00061392 8.97228e-06
-7.85532e-05 8.97228e-06 0.000587206
0.00138618 -3.09436e-05 3.96077e-05
-3.09436e-05 0.000499288 -6.05174e-06
3.96077e-05 -6.05174e-06 0.000460844
0.00195898 0.000159909 -1.44304e-06
0.000159909 0.000123482 1.36803e-06
-1.44304e-06 1.36803e-06 2.96165e-05
0.00187272 0.000244879 -1.17061e-06
0.000244879 0.000153561 1.91744e-07
-1.17061e-06 1.91744e-07 9.15772e-06
0.00191746 0.000263879 -6.36108e-07
0.000263879 0.000111031 -6.99523e-08
-6.36108e-07 -6.99523e-08 -1.54104e-05
0.00178599 0.000246744 -2.38207e-06
0.000246744 0.000266921 -3.803e-07
-2.38207e-06 -3.803e-07 0.000100135
0.00184045 0.000286558 6.92646e-08
0.000286558 0.000172023 -1.00848e-07
6.92646e-08 -1.00848e-07 1.08781e-05
0.00189939 0.000310325 8.03906e-07
0.000310325 0.000113941 3.00412e-07
8.03906e-07 3.00412e-07 -3.25562e-05
0.00100245 0.000170108 -1.42229e-05
0.000170108 -3.97919e-06 -5.30112e-06
-1.42229e-05 -5.30112e-06 -0.00015681
0.00154964 0.000263832 3.10225e-06
0.000263832 0.000167363 5.33694e-07
3.10225e-06 5.33694e-07 -1.51335e-05
0.00170718 0.000319152 7.8881e-08
0.000319152 0.000108665 -2.35628e-06
7.8881e-08 -2.35628e-06 -6.72744e-05
0.000469818 0.000180319 -2.26552e-05
0.000180319 -0.000125493 -1.34632e-05
-2.26552e-05 -1.34632e-05 -0.000226055
0.000940122 0.000182602 -5.7507e-07
0.000182602 -1.08115e-05 1.4437e-07
-5.7507e-07 1.4437e-07 -0.000170996
0.001325 0.000279117 7.39891e-06
0.000279117 8.8293e-05 1.55376e-06
7.39891e-06 1.55376e-06 -0.00011327
0.000860987 0.000183819 1.21286e-05
0.000183819 -1.42101e-05 6.47115e-06
1.21286e-05 6.47115e-06 -0.00017881
0.000505531 0.000200081 1.37935e-06
0.000200081 -8.8868e-05 6.75209e-07
1.37935e-06 6.75209e-07 -0.000195206
0.00604396 8.17171e-06 -0.000213275
8.17171e-06 0.00332344 -2.45738e-05
-0.000213275 -2.45738e-05 0.0033083
0.000470419 0.000178198 2.17171e-05
0.000178198 -0.000100743 1.53696e-05
2.17171e-05 1.53696e-05 -0.000198869
0.0057202 -0.000110558 5.11585e-06
-0.000110558 0.00313816 -9.73917e-07
5.11585e-06 -9.73917e-07 0.00312153
0.00482509 -0.000217306 0.000123543
-0.000217306 0.00262695 6.89045e-06
0.000123543 6.89045e-06 0.00259641
0.00188474 0.000103468 -4.35906e-06
0.000103468 5.26664e-05 8.0083e-07
-4.35906e-06 8.0083e-07 -1.4873e-08
0.00192105 0.000148615 1.26525e-06
0.000148615 3.39464e-05 7.26739e-07
1.26525e-06 7.26739e-07 -2.28524e-05
0.00205962 0.000191991 -7.02235e-08
0.000191991 3.71285e-06 -2.91543e-07
-7.02235e-08 -2.91543e-07 -2.31087e-05
0.00201851 0.000264289 2.69151e-06
0.000264289 0.000131346 8.53719e-08
2.69151e-06 8.53719e-08 2.62858e-05
0.00172402 5.60352e-06 -1.19353e-06
5.60352e-06 -3.83357e-06 2.95563e-07
-1.19353e-06 2.95563e-07 -6.64747e-05
0.00190804 4.98463e-05 2.34043e-07
4.98463e-05 3.761e-05 7.7993e-08
2.34043e-07 7.7993e-08 6.88322e-06
0.00196571 4.63247e-05 1.55587e-06
4.63247e-05 3.15786e-05 -2.29762e-07
1.55587e-06 -2.29762e-07 1.51275e-05
0.00189284 -1.64268e-05 1.89894e-06
-1.64268e-05 3.59905e-05 -7.11377e-07
1.89894e-06 -7.11377e-07 8.85705e-06
0.0018395 -2.917e-05 -2.18151e-06
-2.917e-05 5.55499e-05 1.84725e-07
-2.18151e-06 1.84725e-07 -1.72675e-06
0.00183592 -3.26064e-05 2.22029e-06
-3.26064e-05 0.000112086 -9.6072e-07
2.22029e-06 -9.6072e-07 1.97962e-05
0.0018178 -7.87757e-05 -4.61894e-07
-7.87757e-05 3.55416e-05 9.91626e-07
-4.61894e-07 9.91626e-07 -2.90557e-05
0.00182398 -8.23827e-05 -3.78951e-07
-8.23827e-05 0.000105057 3.08879e-07
-3.78951e-07 3.08879e-07 4.9601e-06
0.00158778 -6.14655e-05 -2.2135e-06
-6.14655e-05 9.38395e-05 -2.37752e-07
-2.2135e-06 -2.37752e-07 -3.05534e-05
0.00183145 -0.000137816 1.97436e-06
-0.000137816 0.000111199 -2.43208e-07
1.97436e-06 -2.43208e-07 1.22412e-06
0.00154098 -0.000102593 8.14444e-07
-0.000102593 7.81325e-05 -2.64861e-07
8.14444e-07 -2.64861e-07 -5.86142e-05
0.000984598 -6.34893e-05 -1.23116e-05
-6.34893e-05 -4.53212e-05 2.08406e-06
-1.23116e-05 2.08406e-06 -0.000177375
0.00152046 -0.000143604 2.22858e-06
-0.000143604 8.53375e-05 -2.46648e-07
2.22858e-06 -2.46648e-07 -6.16325e-05
0.000995722 -8.96951e-05 -6.83609e-08
-8.96951e-05 -3.11935e-05 2.00503e-07
-6.83609e-08 2.00503e-07 -0.000167937
0.000556602 -8.346e-05 -1.98526e-05
-8.346e-05 -0.000125098 5.09401e-06
-1.98526e-05 5.09401e-06 -0.000204187
0.00102244 -0.000110393 1.28527e-05
-0.000110393 -7.05768e-06 -3.48521e-06
1.28527e-05 -3.48521e-06 -0.000147407
0.00158214 -9.55665e-05 4.96576e-05
-9.55665e-05 0.000498647 -3.38117e-06
4.96576e-05 -3.38117e-06 0.000428033
0.00576873 -0.000127709 -0.000252729
-0.000127709 0.00311811 1.64494e-05
-0.000252729 1.64494e-05 0.00312675
0.00269524 -0.000129624 0.000119901
-0.000129624 0.00116925 -1.3642e-05
0.000119901 -1.3642e-05 0.00110956
0.00161098 -5.45338e-05 -7.08714e-05
-5.45338e-05 0.000619543 6.07142e-06
-7.08714e-05 6.07142e-06 0.000592708
0.00130599 -6.86582e-05 5.09222e-05
-6.86582e-05 0.000452956 -7.22517e-06
5.09222e-05 -7.22517e-06 0.000413622
0.00191548 0.000113595 -2.02825e-06
0.000113595 0.000111866 1.6778e-06
-2.02825e-06 1.6778e-06 3.3673e-05
0.00190892 0.000174223 2.95604e-08
0.000174223 0.000158875 1.37851e-06
2.95604e-08 1.37851e-06 3.7956e-05
0.0019693 0.000156778 4.73211e-07
0.000156778 0.000136344 1.36412e-07
4.73211e-07 1.36412e-07 4.18734e-05
0.00161511 0.000198799 -2.65717e-06
0.000198799 0.000127279 -1.32989e-07
-2.65717e-06 -1.32989e-07 -2.6256e-05
0.00183736 0.00024113 4.06403e-07
0.00024113 0.00013337 1.20289e-08
4.06403e-07 1.20289e-08 -1.05109e-05
0.0019295 0.000265558 5.34957e-07
0.000265558 0.000108156 1.59015e-07
5.34957e-07 1.59015e-07 -1.54314e-05
0.000803847 0.000139771 -1.57017e-05
0.000139771 -0.000145615 -4.58937e-06
-1.57017e-05 -4.58937e-06 -0.000291895
0.00179568 0.000247255 2.57461e-06
0.000247255 0.000272362 6.5583e-07
2.57461e-06 6.5583e-07 0.000105718
0.00177614 0.000281387 1.12341e-07
0.000281387 0.000140333 -3.66553e-07
1.12341e-07 -3.66553e-07 -2.20046e-05
0.00045946 0.000131332 -1.95728e-05
0.000131332 -0.000152107 -1.03542e-05
-1.95728e-05 -1.03542e-05 -0.000243508
0.000845682 0.000162311 3.94212e-07
0.000162311 -9.75914e-05 3.09812e-07
3.94212e-07 3.09812e-07 -0.000250729
0.00141578 0.000261003 8.72814e-06
0.000261003 8.11931e-05 1.30164e-06
8.72814e-06 1.30164e-06 -0.000101078
0.00604233 9.29336e-05 -0.000225687
9.29336e-05 0.00329932 -2.41782e-05
-0.000225687 -2.41782e-05 0.00329449
0.000471753 0.000168609 9.46159e-07
0.000168609 -0.000124364 6.84712e-07
9.46159e-07 6.84712e-07 -0.000225756
0.000903196 0.000179207 1.36976e-05
0.000179207 -2.91875e-05 6.30638e-06
1.36976e-05 6.30638e-06 -0.000188775
0.000440319 0.000183513 2.09683e-05
0.000183513 -0.000123899 1.52694e-05
2.09683e-05 1.52694e-05 -0.000231317
0.0059261 -2.00441e-06 9.4375e-06
-2.00441e-06 0.00324334 -3.07152e-07
9.4375e-06 -3.07152e-07 0.00323538
0.00555496 -0.000145148 0.000175324
-0.000145148 0.00303405 9.0778e-06
0.000175324 9.0778e-06 0.00301927
0.00181836 6.42804e-05 -4.02245e-06
6.42804e-05 5.37274e-05 -3.68441e-07
-4.02245e-06 -3.68441e-07 -1.10362e-05
0.00188986 0.000102665 5.40913e-07
0.000102665 5.16959e-05 6.55365e-07
5.40913e-07 6.55365e-07 -1.64609e-06
0.00187311 0.000148646 2.364e-06
0.000148646 6.67017e-06 3.76637e-07
2.364e-06 3.76637e-07 -4.80497e-05
0.00172431 5.03939e-06 2.5028e-06
5.03939e-06 4.99158e-05 -7.3445e-07
2.5028e-06 -7.3445e-07 -4.50893e-05
0.00176107 9.37604e-06 2.98498e-07
9.37604e-06 2.10839e-05 2.58361e-07
2.98498e-07 2.58361e-07 -3.8352e-05
0.00188464 4.04102e-05 2.56444e-06
4.04102e-05 1.96384e-05 -2.75157e-07
2.56444e-06 -2.75157e-07 -1.03491e-05
0.00183623 -2.38548e-05 -7.85298e-07
-2.38548e-05 5.51483e-05 7.64524e-07
-7.85298e-07 7.64524e-07 -3.50187e-07
0.0017999 -2.98432e-05 9.85785e-07
-2.98432e-05 8.98795e-05 -1.5175e-07
9.85785e-07 -1.5175e-07 -2.21667e-06
0.00177128 -2.36996e-05 1.9796e-08
-2.36996e-05 0.000211984 -5.9265e-07
1.9796e-08 -5.9265e-07 9.34605e-05
0.00178429 -8.21302e-05 -2.22511e-06
-8.21302e-05 8.57995e-05 1.03889e-06
-2.22511e-06 1.03889e-06 -1.95763e-05
0.00164719 -6.22205e-05 9.61705e-08
-6.22205e-05 0.000132074 5.4941e-08
9.61705e-08 5.4941e-08 5.3913e-06
0.000822944 -3.23837e-05 -1.36636e-05
-3.23837e-05 -0.000149153 1.25491e-06
-1.36636e-05 1.25491e-06 -0.000276845
0.00153357 -0.00010268 2.70266e-06
-0.00010268 7.12464e-05 -3.35651e-07
2.70266e-06 -3.35651e-07 -6.53906e-05
0.000994295 -6.04754e-05 -6.20392e-08
-6.04754e-05 -4.06958e-05 1.36745e-07
-6.20392e-08 1.36745e-07 -0.000172237
0.00056313 -2.11802e-05 -1.85697e-05
-2.11802e-05 -0.000124816 3.19195e-06
-1.85697e-05 3.19195e-06 -0.000201715
0.00102225 -8.84884e-05 1.24465e-05
-8.84884e-05 -1.69628e-05 -2.5554e-06
1.24465e-05 -2.5554e-06 -0.000153174
0.000561672 -6.69783e-05 -2.05143e-07
-6.69783e-05 -0.000120071 3.87183e-07
-2.05143e-07 3.87183e-07 -0.000200535
0.0057689 -2.2394e-05 -0.000243949
-2.2394e-05 0.00311423 9.97341e-06
-0.000243949 9.97341e-06 0.00312559
0.000595928 -6.94248e-05 1.57945e-05
-6.94248e-05 -9.80584e-05 -6.98798e-06
1.57945e-05 -6.98798e-06 -0.000181211
0.00363499 -8.38304e-05 0.000111766
-8.38304e-05 0.00183788 -4.55945e-06
0.000111766 -4.55945e-06 0.00182199
0.00126702 -7.60166e-05 5.71763e-05
-7.60166e-05 0.000430797 -7.6298e-06
5.71763e-05 -7.6298e-06 0.000389716
0.00182292 9.76923e-05 -2.65665e-06
9.76923e-05 7.627e-05 9.55377e-08
-2.65665e-06 9.55377e-08 -1.59362e-06
0.00180884 0.000110779 2.12228e-06
0.000110779 0.000105097 2.39731e-06
2.12228e-06 2.39731e-06 -2.59061e-06
0.00192046 0.000109208 1.50259e-07
0.000109208 0.000115264 -2.54106e-07
1.50259e-07 -2.54106e-07 3.85987e-05
0.00155555 0.000143104 -1.52141e-06
0.000143104 7.83172e-05 6.56246e-08
-1.52141e-06 6.56246e-08 -6.47143e-05
0.00189112 0.000173403 5.35858e-07
0.000173403 0.000143738 2.01287e-07
5.35858e-07 2.01287e-07 2.15895e-05
0.00198379 0.000153448 1.17548e-06
0.000153448 0.000151572 -1.3204e-06
1.17548e-06 -1.3204e-06 5.65468e-05
0.000843914 0.000115893 -1.46977e-05
0.000115893 -0.000137278 -3.4495e-06
-1.46977e-05 -3.4495e-06 -0.000276901
0.00168443 0.000199245 2.56588e-07
0.000199245 0.000172988 3.31482e-07
2.56588e-07 3.31482e-07 1.84008e-05
0.00180577 0.000237452 7.19402e-07
0.000237452 0.000115691 -3.69226e-07
7.19402e-07 -3.69226e-07 -2.76452e-05
0.000474447 9.32563e-05 -1.80423e-05
9.32563e-05 -0.000161883 -7.52684e-06
-1.80423e-05 -7.52684e-06 -0.000245975
0.000772699 0.000138292 -2.57637e-06
0.000138292 -0.000163285 -2.82155e-07
-2.57637e-06 -2.82155e-07 -0.000309577
0.00180962 0.000248206 7.6504e-06
0.000248206 0.000280315 1.82401e-06
7.6504e-06 1.82401e-06 0.000113736
0.00596667 0.000166335 -0.000243743
0.000166335 0.00324228 -2.32602e-05
-0.000243743 -2.32602e-05 0.00324329
0.000473971 0.000126746 2.763e-07
0.000126746 -0.000144497 4.00328e-07
2.763e-07 4.00328e-07 -0.000236328
0.000697696 0.000155397 1.39541e-05
0.000155397 -0.000186246 5.23522e-06
1.39541e-05 5.23522e-06 -0.0003398
0.00595745 0.000107196 1.29748e-05
0.000107196 0.00325124 1.73011e-06
1.29748e-05 1.73011e-06 0.0032466
0.00046033 0.000156414 1.96174e-05
0.000156414 -0.000131144 1.33162e-05
1.96174e-05 1.33162e-05 -0.000233215
0.00582978 -3.46334e-05 0.000209148
-3.46334e-05 0.00317488 1.38882e-05
0.000209148 1.38882e-05 0.0031737
0.0018565 4.5836e-05 5.67791e-07
4.5836e-05 0.000118639 -5.21857e-07
5.67791e-07 -5.21857e-07 2.55718e-05
0.00182634 6.28125e-05 -1.80771e-06
6.28125e-05 6.70339e-05 2.38804e-07
-1.80771e-06 2.38804e-07 4.79047e-07
0.00188325 0.000101432 3.96682e-06
0.000101432 4.30752e-05 2.52099e-07
3.96682e-06 2.52099e-07 -1.08682e-05
0.00176436 -2.00941e-06 1.05221e-06
-2.00941e-06 0.000214708 -4.53896e-07
1.05221e-06 -4.53896e-07 9.84075e-05
0.00169686 4.69217e-06 -6.52328e-08
4.69217e-06 3.0246e-05 -2.27761e-08
-6.52328e-08 -2.27761e-08 -6.24605e-05
0.00180508 1.45577e-05 3.23203e-06
1.45577e-05 4.95902e-05 3.06753e-07
3.23203e-06 3.06753e-07 -6.6059e-06
0.00176316 -2.75203e-05 -3.79737e-07
-2.75203e-05 6.74529e-05 7.4449e-07
-3.79737e-07 7.4449e-07 -2.44693e-05
0.00176345 -2.35161e-05 2.80824e-06
-2.35161e-05 0.000206424 -2.81818e-07
2.80824e-06 -2.81818e-07 8.78466e-05
0.000832788 -1.10212e-05 -1.31702e-05
-1.10212e-05 -0.000140075 5.55689e-07
-1.31702e-05 5.55689e-07 -0.000264635
0.00171086 -6.31996e-05 2.36746e-06
-6.31996e-05 0.000172717 1.01586e-07
2.36746e-06 1.01586e-07 4.37359e-05
0.000912092 -3.22471e-05 -2.00787e-06
-3.22471e-05 -9.50441e-05 1.54568e-07
-2.00787e-06 1.54568e-07 -0.000222615
0.000564196 -6.80181e-06 -1.88078e-05
-6.80181e-06 -0.000126572 2.03985e-06
-1.88078e-05 2.03985e-06 -0.000201643
0.00100769 -5.86301e-05 1.19497e-05
-5.86301e-05 -3.34036e-05 -1.79322e-06
1.19497e-05 -1.79322e-06 -0.000164547
0.000542072 -3.24342e-05 8.79074e-07
-3.24342e-05 -0.000138665 -8.451e-08
8.79074e-07 -8.451e-08 -0.00021434
0.00569678 -0.000120108 -0.000251791
-0.000120108 0.00308068 1.06877e-05
-0.000251791 1.06877e-05 0.00308836
0.000535073 -5.02055e-05 1.79235e-05
-5.02055e-05 -0.000135994 -3.92926e-06
1.79235e-05 -3.92926e-06 -0.000216223
0.00574317 -5.87204e-05 7.68045e-06
-5.87204e-05 0.00309995 -5.86154e-08
7.68045e-06 -5.86154e-08 0.00311146
0.00161191 -2.33794e-05 0.000200225
-2.33794e-05 0.000611515 -1.14727e-05
0.000200225 -1.14727e-05 0.000599208
0.00170648 7.77004e-05 2.12915e-06
7.77004e-05 4.01104e-05 4.65681e-07
2.12915e-06 4.65681e-07 -6.3303e-05
0.00178923 0.000100521 -3.2975e-06
0.000100521 5.29873e-05 -1.00789e-06
-3.2975e-06 -1.00789e-06 -2.21447e-05
0.00155008 9.10402e-05 -5.65399e-07
9.10402e-05 7.50237e-05 2.73458e-07
-5.65399e-07 2.73458e-07 -5.70877e-05
0.00181629 0.000110045 7.00178e-07
0.000110045 0.000107383 2.00127e-07
7.00178e-07 2.00127e-07 -4.26758e-07
0.0019384 0.000105199 1.16444e-06
0.000105199 0.000126515 -2.87476e-06
1.16444e-06 -2.87476e-06 5.13678e-05
0.00105188 8.86148e-05 -1.2571e-05
8.86148e-05 -1.36822e-05 -2.36498e-06
-1.2571e-05 -2.36498e-06 -0.000145538
0.00155338 0.000142575 1.29907e-07
0.000142575 7.93189e-05 5.64049e-08
1.29907e-07 5.64049e-08 -6.38543e-05
0.00187006 0.000172464 6.39533e-07
0.000172464 0.00012692 -8.47562e-07
6.39533e-07 -8.47562e-07 3.53961e-06
0.000504225 6.65983e-05 -1.76181e-05
6.65983e-05 -0.000156365 -5.3961e-06
-1.76181e-05 -5.3961e-06 -0.000236403
0.00090878 0.000118478 -2.73912e-06
0.000118478 -9.63608e-05 -2.0296e-07
-2.73912e-06 -2.0296e-07 -0.000235947
0.0017577 0.000199618 3.78733e-06
0.000199618 0.000221375 1.02757e-06
3.78733e-06 1.02757e-06 6.57664e-05
0.00589818 0.00020503 -0.000262056
0.00020503 0.00320463 -2.22854e-05
-0.000262056 -2.22854e-05 0.00320468
0.000502369 9.33534e-05 -7.16535e-09
9.33534e-05 -0.000146343 1.69517e-07
-7.16535e-09 1.69517e-07 -0.00023066
0.000741983 0.000136868 9.95907e-06
0.000136868 -0.000180972 3.78497e-06
9.95907e-06 3.78497e-06 -0.000327214
0.0059244 0.000187073 1.08846e-05
0.000187073 0.00322716 3.30726e-06
1.08846e-05 3.30726e-06 0.0032235
0.000491861 0.000120527 1.85027e-05
0.000120527 -0.000135427 1.0417e-05
1.85027e-05 1.0417e-05 -0.000227241
0.00591027 0.000103172 0.000233865
0.000103172 0.00321226 2.0467e-05
0.000233865 2.0467e-05 0.00321502
0.00174533 3.23891e-05 2.06936e-06
3.23891e-05 0.000201265 -3.3564e-08
2.06936e-06 -3.3564e-08 8.41693e-05
0.00180326 4.1576e-05 -1.7849e-06
4.1576e-05 9.03504e-05 9.55797e-08
-1.7849e-06 9.55797e-08 -4.32442e-06
0.00182607 6.08616e-05 -7.40646e-08
6.08616e-05 7.58923e-05 -1.35297e-08
-7.40646e-08 -1.35297e-08 7.51966e-06
0.000831771 -7.28427e-06 -1.37055e-05
-7.28427e-06 -0.000133114 -1.29413e-07
-1.37055e-05 -1.29413e-07 -0.000256337
0.00176518 3.97072e-06 3.28892e-06
3.97072e-06 0.00021501 -2.13283e-07
3.28892e-06 -2.13283e-07 9.86294e-05
0.00166498 4.17243e-06 -1.28803e-06
4.17243e-06 7.89303e-06 6.52724e-07
-1.28803e-06 6.52724e-07 -8.24799e-05
0.00176169 -2.37034e-05 5.38924e-06
-2.37034e-05 0.000204564 8.63447e-08
5.38924e-06 8.63447e-08 8.5931e-05
0.000826376 -1.12824e-05 -1.4446e-06
-1.12824e-05 -0.000144784 9.55441e-08
-1.4446e-06 9.55441e-08 -0.000269524
0.000565712 -3.01576e-05 -1.91971e-05
-3.01576e-05 -0.000126393 8.83054e-07
-1.91971e-05 8.83054e-07 -0.000199183
0.000982807 -3.12561e-05 1.04665e-05
-3.12561e-05 -5.18015e-05 -1.20057e-06
1.04665e-05 -1.20057e-06 -0.000179276
0.000544335 4.22873e-06 3.291e-07
4.22873e-06 -0.000138931 4.07384e-08
3.291e-07 4.07384e-08 -0.000213244
0.00569299 -9.57815e-05 -0.00025684
-9.57815e-05 0.00307666 7.66011e-06
-0.00025684 7.66011e-06 0.00308671
0.000551771 -3.72032e-05 1.87625e-05
-3.72032e-05 -0.000131002 -2.64625e-06
1.87625e-05 -2.64625e-06 -0.000207788
0.00571703 -1.4139e-05 -3.04787e-06
-1.4139e-05 0.00308328 1.86019e-06
-3.04787e-06 1.86019e-06 0.0030967
0.00574288 -7.58168e-05 0.000251539
-7.58168e-05 0.00309885 -9.45105e-06
0.000251539 -9.45105e-06 0.00311134
0.00151479 5.42164e-05 -4.05168e-07
5.42164e-05 5.9376e-05 7.33029e-08
-4.05168e-07 7.33029e-08 -6.70862e-05
0.00176586 8.04202e-05 -1.90966e-06
8.04202e-05 7.27007e-05 -1.33971e-06
-1.90966e-06 -1.33971e-06 -2.59489e-05
0.00176466 0.000103882 -3.20106e-06
0.000103882 3.55065e-05 -1.99076e-06
-3.20106e-06 -1.99076e-06 -3.68957e-05
0.0010518 5.27616e-05 -1.22882e-05
5.27616e-05 -1.06884e-05 -1.83617e-06
-1.22882e-05 -1.83617e-06 -0.000136846
0.00153699 9.04922e-05 2.02599e-07
9.04922e-05 6.83198e-05 -1.23679e-08
2.02599e-07 -1.23679e-08 -6.41652e-05
0.00182303 0.000109225 -5.22316e-07
0.000109225 0.000109434 -1.78223e-06
-5.22316e-07 -1.78223e-06 1.51158e-06
0.000531125 4.24052e-05 -1.72548e-05
4.24052e-05 -0.000144725 -3.87428e-06
-1.72548e-05 -3.87428e-06 -0.000222152
0.00101923 8.98549e-05 2.73164e-07
8.98549e-05 -3.31216e-05 2.3091e-07
2.73164e-07 2.3091e-07 -0.000165617
0.00155146 0.000142084 2.16922e-06
0.000142084 8.00548e-05 9.92321e-08
2.16922e-06 9.92321e-08 -6.32777e-05
0.00580955 0.000188894 -0.000273349
0.000188894 0.00315354 -1.90732e-05
-0.000273349 -1.90732e-05 0.00315562
0.000532701 7.03597e-05 3.39527e-07
7.03597e-05 -0.000139321 1.62127e-07
3.39527e-07 1.62127e-07 -0.000220016
0.000971546 0.000121027 9.97361e-06
0.000121027 -5.69171e-05 3.14827e-06
9.97361e-06 3.14827e-06 -0.000196425
0.00589205 0.000218795 6.37388e-06
0.000218795 0.00320744 2.90565e-06
6.37388e-06 2.90565e-06 0.00320484
0.000533613 9.49695e-05 1.78303e-05
9.49695e-05 -0.000128039 7.97951e-06
1.78303e-05 7.97951e-06 -0.00021285
0.00590876 0.000211415 0.000251803
0.000211415 0.00321937 2.59072e-05
0.000251803 2.59072e-05 0.00321529
0.00100163 1.58641e-05 -1.28888e-05
1.58641e-05 -2.72215e-05 -7.26128e-07
-1.28888e-05 -7.26128e-07 -0.000150134
0.0016563 2.81036e-05 3.77362e-06
2.81036e-05 0.000148041 8.23057e-08
3.77362e-06 8.23057e-08 3.10371e-05
0.0017531 3.68605e-05 -4.48577e-06
3.68605e-05 6.36662e-05 2.4261e-07
-4.48577e-06 2.4261e-07 -3.26527e-05
0.000597764 3.05736e-05 -1.97551e-05
3.05736e-05 -0.000115127 -5.18522e-07
-1.97551e-05 -5.18522e-07 -0.000180903
0.00080858 -1.59169e-06 -1.66037e-06
-1.59169e-06 -0.00014783 5.96799e-08
-1.66037e-06 5.96799e-08 -0.000271192
0.00176328 1.06602e-05 5.5452e-06
1.06602e-05 0.000213603 1.70334e-07
5.5452e-06 1.70334e-07 9.71232e-05
0.000816689 -1.11203e-05 1.03489e-05
-1.11203e-05 -0.000151573 -4.27326e-07
1.03489e-05 -4.27326e-07 -0.000276476
0.000561646 -4.83574e-06 2.90427e-07
-4.83574e-06 -0.000128611 3.48065e-07
2.90427e-07 3.48065e-07 -0.00020166
0.00565119 3.45428e-05 -0.000261453
3.45428e-05 0.00304688 -1.90946e-07
-0.000261453 -1.90946e-07 0.0030613
0.000522114 1.57645e-05 1.82991e-05
1.57645e-05 -0.00015337 -1.23626e-06
1.82991e-05 -1.23626e-06 -0.000226572
0.00566781 -9.44232e-05 -7.79081e-06
-9.44232e-05 0.00306256 1.62238e-06
-7.79081e-06 1.62238e-06 0.00307221
0.00567047 5.16508e-06 0.000241571
5.16508e-06 0.00305583 -4.35148e-06
0.000241571 -4.35148e-06 0.00306901
0.0010244 2.86237e-05 -1.26845e-05
2.86237e-05 -1.92674e-05 -1.41929e-06
-1.26845e-05 -1.41929e-06 -0.000142708
0.0015277 5.31436e-05 -1.8316e-07
5.31436e-05 6.73405e-05 -9.71181e-08
-1.8316e-07 -9.71181e-08 -5.63622e-05
0.00182559 8.28697e-05 -4.53993e-06
8.28697e-05 0.000105333 -2.16845e-06
-4.53993e-06 -2.16845e-06 1.1467e-05
0.00263204 5.33586e-05 -0.000124502
5.33586e-05 0.00111621 -4.1066e-06
-0.000124502 -4.1066e-06 0.00106726
0.00101434 5.46352e-05 2.91903e-07
5.46352e-05 -3.3633e-05 1.06308e-07
2.91903e-07 1.06308e-07 -0.000160268
0.00152383 8.98645e-05 1.90538e-06
8.98645e-05 6.15485e-05 -1.46737e-07
1.90538e-06 -1.46737e-07 -7.13233e-05
0.00572151 0.000145187 -0.000274564
0.000145187 0.00309763 -1.40132e-05
-0.000274564 -1.40132e-05 0.00310472
0.000566611 6.01834e-05 8.32843e-07
6.01834e-05 -0.000121484 3.60622e-07
8.32843e-07 3.60622e-07 -0.000200596
0.000989418 9.11805e-05 1.24589e-05
9.11805e-05 -5.07863e-05 2.77207e-06
1.24589e-05 2.77207e-06 -0.0001839
0.00585948 0.000201205 1.83671e-06
0.000201205 0.00318514 1.65822e-06
1.83671e-06 1.65822e-06 0.0031862
0.000571957 7.6943e-05 1.81129e-05
7.6943e-05 -0.000114717 6.26154e-06
1.81129e-05 6.26154e-06 -0.000196703
0.00588435 0.000247546 0.000263819
0.000247546 0.00321242 2.72628e-05
0.000263819 2.72628e-05 0.00320468
0.000647414 9.93845e-06 -1.63191e-05
9.93845e-06 -7.49293e-05 -1.82186e-06
-1.63191e-05 -1.82186e-06 -0.000149138
0.000898454 1.4405e-05 6.17858e-07
1.4405e-05 -9.06988e-05 2.56809e-07
6.17858e-07 2.56809e-07 -0.000213824
0.00156669 2.30946e-05 4.65779e-06
2.30946e-05 9.42507e-05 1.27261e-07
4.65779e-06 1.27261e-07 -2.26119e-05
0.00552851 -9.50718e-05 -0.000245695
-9.50718e-05 0.0029898 1.65178e-06
-0.000245695 1.65178e-06 0.00299427
0.000557375 8.14678e-06 -5.40405e-07
8.14678e-06 -0.000134689 9.59215e-08
-5.40405e-07 9.59215e-08 -0.000203074
0.000800861 3.31874e-06 1.02601e-05
3.31874e-06 -0.00015354 1.12629e-07
1.02601e-05 1.12629e-07 -0.000276991
0.000521886 2.07048e-05 1.85178e-05
2.07048e-05 -0.000153117 1.59227e-07
1.85178e-05 1.59227e-07 -0.000225465
0.00560643 -1.21514e-06 2.39454e-06
-1.21514e-06 0.00302472 -1.07261e-06
2.39454e-06 -1.07261e-06 0.00303559
0.00567407 -1.14067e-05 0.000250413
-1.14067e-05 0.00305636 -2.4728e-06
0.000250413 -2.4728e-06 0.00307101
0.00271 9.71777e-06 -0.000120855
9.71777e-06 0.00115988 -2.51045e-06
-0.000120855 -2.51045e-06 0.00111258
0.00101514 3.1674e-05 5.42851e-08
3.1674e-05 -2.65444e-05 8.22958e-08
5.42851e-08 8.22958e-08 -0.000150326
0.00153379 5.2238e-05 1.6798e-06
5.2238e-05 7.15268e-05 -2.47026e-07
1.6798e-06 -2.47026e-07 -4.94101e-05
0.00529788 -5.13083e-05 -9.19998e-05
-5.13083e-05 0.00285453 5.25433e-07
-9.19998e-05 5.25433e-07 0.00284117
0.00058319 5.26229e-05 7.72223e-08
5.26229e-05 -0.000112706 2.08486e-07
7.72223e-08 2.08486e-07 -0.00018844
0.000994021 5.70698e-05 1.21755e-05
5.70698e-05 -4.69467e-05 2.07946e-06
1.21755e-05 2.07946e-06 -0.000173998
0.00577757 0.000117028 -1.07183e-05
0.000117028 0.00312651 -1.35663e-06
-1.07183e-05 -1.35663e-06 0.00313519
0.000598685 8.27665e-05 1.95508e-05
8.27665e-05 -0.000101714 5.22639e-06
1.95508e-05 5.22639e-06 -0.000181556
0.00588134 0.000225385 0.00027442
0.000225385 0.00320551 2.46161e-05
0.00027442 2.46161e-05 0.00320313
0.0016891 -5.12055e-05 -0.000204226
-5.12055e-05 0.00065336 8.49015e-07
-0.000204226 8.49015e-07 0.000646755
0.0016444 2.71601e-05 -5.07899e-05
2.71601e-05 0.000517275 2.0389e-07
-5.07899e-05 2.0389e-07 0.000461165
0.000791686 1.54436e-05 1.24752e-05
1.54436e-05 -0.000155969 9.64935e-07
1.24752e-05 9.64935e-07 -0.000279375
0.0055966 -4.18404e-05 7.56329e-06
-4.18404e-05 0.00302481 1.65369e-06
7.56329e-06 1.65369e-06 0.00303379
0.000573885 -1.25524e-05 1.90837e-05
-1.25524e-05 -0.000119175 8.02036e-07
1.90837e-05 8.02036e-07 -0.000191022
0.00564757 -6.78234e-05 0.000264786
-6.78234e-05 0.00305085 -2.67191e-06
0.000264786 -2.67191e-06 0.00306213
0.00127446 1.45592e-05 -4.45642e-05
1.45592e-05 0.000428775 -7.43466e-07
-4.45642e-05 -7.43466e-07 0.000394176
0.00163252 1.39987e-05 -5.1167e-05
1.39987e-05 0.000513897 -8.01029e-07
-5.1167e-05 -8.01029e-07 0.000454512
0.000995449 3.33571e-05 1.24138e-05
3.33571e-05 -3.98136e-05 1.63252e-06
1.24138e-05 1.63252e-06 -0.000163963
0.00350247 5.48346e-05 9.73882e-05
5.48346e-05 0.00175844 2.43553e-06
9.73882e-05 2.43553e-06 0.00174808
0.00059085 6.30895e-05 1.98177e-05
6.30895e-05 -0.000108076 4.02748e-06
1.98177e-05 4.02748e-06 -0.000183826
0.00583629 0.000105889 0.00026243
0.000105889 0.00315561 1.48403e-05
0.00026243 1.48403e-05 0.00316744
0.00554965 -2.10789e-05 -8.92e-06
-2.10789e-05 0.00299931 -2.27347e-06
-8.92e-06 -2.27347e-06 0.00300734
0.000573739 4.55431e-05 2.05329e-05
4.55431e-05 -0.000128393 2.10425e-06
2.05329e-05 2.10425e-06 -0.000193867
0.00551291 4.71406e-05 0.000252132
4.71406e-05 0.00297129 1.40277e-07
0.000252132 1.40277e-07 0.0029833
0.00343482 2.76861e-05 0.00011079
2.76861e-05 0.00172174 3.6744e-06
0.00011079 3.6744e-06 0.00171205
0.000603521 5.83254e-06 1.90038e-05
5.83254e-06 -0.000101943 2.69317e-06
1.90038e-05 2.69317e-06 -0.000174267
0.00569905 -1.87872e-05 0.000252737
-1.87872e-05 0.00307569 6.48918e-06
0.000252737 6.48918e-06 0.00308751
0.0055858 -0.000124833 0.000248495
-0.000124833 0.00302625 -3.32579e-06
0.000248495 -3.32579e-06 0.00302952
0.00557111 -5.21664e-06 0.000248234
-5.21664e-06 0.00299741 3.50084e-06
0.000248234 3.50084e-06 0.00301242
