# vtk DataFile Version 2.0
Wound Healing Simulation
ASCII
DATASET UNSTRUCTURED_GRID
POINTS 3012 float
69.9759 18.75 4
67.2507 60.3285 4
69.976 18.75 2
73.0099 25.446 4
71.1327 20.9142 4
68.6801 16.6661 4
67.823 19.9266 3.97633
67.2507 60.3286 2
71.1327 54.0858 4
68.6801 58.3339 4
65.6939 62.2254 4
65.3098 58.9999 3.97564
74.6784 42.3946 4
73.7221 47.2057 4
69.9759 18.75 0
73.0099 25.446 2
68.6801 16.6661 2
71.1327 20.9142 2
67.8234 19.9301 2
74.6792 32.6053 4
73.7222 27.7943 4
72.1454 23.1494 4
70.6122 26.2215 3.97631
68.8833 21.9583 3.97681
67.2507 14.6715 4
66.6343 17.9731 3.97521
65.7899 21.0288 3.96513
67.2507 60.3285 0
71.1327 54.0858 2
68.6801 58.3339 2
65.694 62.2255 2
65.311 58.995 2
72.1454 51.8506 4
69.9759 56.25 4
68.8338 53.1131 3.97603
64.0165 64.0165 4
66.6081 57.1328 3.97603
63.8828 60.7638 3.97555
63.494 57.7647 3.96664
60.3285 67.2507 4
74.6792 42.3947 2
73.7222 47.2057 2
74.9194 39.9526 4
74.2788 44.8158 4
72.1668 42.0858 3.97729
73.0099 49.554 4
71.2473 46.598 3.97595
73.0099 25.446 0
71.1327 20.9142 0
68.6801 16.6661 0
67.823 19.9266 0.0236651
74.6792 32.6053 2
73.7222 27.7943 2
67.2508 14.6715 2
72.1455 23.1494 2
70.6119 26.2221 2
66.6352 17.9777 2
68.8834 21.9605 2
65.789 21.03 2
74.9197 35.0474 4
74.2794 30.1841 4
72.1835 32.9441 3.97747
71.2765 28.4322 3.97629
69.8133 24.0599 3.97672
68.3411 26.9542 3.96534
66.7557 22.9361 3.96493
65.694 12.7746 4
65.3206 16.1055 3.97431
64.7061 19.2003 3.96551
63.8184 22.0622 3.96449
71.1327 54.0858 0
65.6939 62.2254 0
68.6801 58.3339 0
65.3098 58.9999 0.0243575
72.1455 51.8506 2
69.9759 56.25 2
68.8338 53.1109 2
64.0165 64.0165 2
66.609 57.1285 2
63.8846 60.7588 2
63.4926 57.7643 2
62.2254 65.694 4
58.8923 65.413 3.9849
69.7665 50.989 3.97581
67.7811 55.167 3.97625
66.6423 52.2072 3.96488
62.333 62.4244 3.97797
64.6536 56.0272 3.96609
62.1968 59.3925 3.96685
61.7882 56.6593 3.96247
58.3339 68.6801 4
60.3285 67.2508 2
73.7221 47.2057 0
74.6784 42.3946 0
74.9197 39.9526 2
74.2794 44.8159 2
72.1661 42.0854 2
73.0099 49.554 2
71.247 46.5975 2
75 37.5 4
72.4041 39.8026 3.97816
71.7808 44.3529 3.9769
69.7995 41.79 3.9673
70.5729 48.8135 3.97564
68.9063 46.0141 3.96591
74.6792 32.6053 0
73.7222 27.7943 0
67.2507 14.6715 0
72.1454 23.1494 0
70.6122 26.2215 0.0236929
68.8833 21.9583 0.0231929
66.6343 17.9731 0.0247937
65.7899 21.0288 0.0348742
74.9197 35.0474 2
74.2794 30.1841 2
72.1827 32.9445 2
71.2761 28.4326 2
65.694 12.7745 2
65.322 16.1107 2
69.8132 24.0611 2
68.3407 26.9551 2
64.705 19.2014 2
66.7551 22.9372 2
63.8185 22.0627 2
72.412 35.2248 3.97819
71.8024 30.6771 3.97717
69.8356 33.2708 3.96716
68.9608 29.0409 3.96584
67.6051 24.9146 3.96508
66.1119 27.6559 3.9679
64.0165 10.9835 4
64.6801 23.8556 3.96574
63.8866 14.3303 3.975
63.5054 17.4562 3.96604
62.8441 20.3493 3.96291
61.9448 22.9986 3.96787
60.6815 11.1013 3.97955
57.6069 11.469 3.97047
72.1454 51.8506 0
69.9759 56.25 0
68.8338 53.1131 0.0239678
64.0165 64.0165 0
63.8828 60.7638 0.0244493
66.6081 57.1328 0.0239694
63.494 57.7647 0.0333603
62.2255 65.694 2
58.8947 65.41 2
69.7663 50.9878 2
67.7815 55.1636 2
66.6416 52.2063 2
62.3354 62.4202 2
64.6524 56.0266 2
62.1949 59.3924 2
61.7892 56.6596 2
60.6664 63.974 3.98094
57.0234 66.734 3.98756
57.5541 63.6808 3.97188
67.5006 50.1752 3.96483
65.6947 54.1706 3.9654
64.4492 51.3597 3.96566
60.7677 60.9192 3.96852
62.766 55.0449 3.96379
60.6376 58.1358 3.96131
60.2474 55.7439 3.96449
56.25 69.9759 4
58.3339 68.6801 2
60.3285 67.2507 0
58.9188 9.65876 3.98111
62.2254 9.30607 4
73.0099 49.554 0
74.2788 44.8158 0
71.2473 46.598 0.0240513
72.1668 42.0858 0.0227086
74.9194 39.9526 0
75 37.5 2
72.4039 39.8024 2
71.7806 44.3522 2
69.7987 41.7896 2
70.5726 48.8129 2
68.9061 46.0134 2
72.4875 37.5126 3.97776
70.0371 39.6583 3.96769
69.4252 43.9073 3.96665
67.5146 41.4906 3.97082
68.2595 48.106 3.96527
66.6131 45.4231 3.96945
74.9197 35.0474 0
74.2794 30.1841 0
72.1835 32.9441 0.0225305
71.2765 28.4322 0.0237072
65.694 12.7746 0
65.3206 16.1055 0.0256905
69.8133 24.0599 0.0232834
68.3411 26.9542 0.0346648
66.7557 22.9361 0.0350653
64.7061 19.2003 0.0344867
63.8184 22.0622 0.0355058
72.4118 35.2249 2
71.8022 30.6777 2
69.8348 33.2714 2
68.9606 29.0417 2
64.0165 10.9835 2
63.8886 14.3353 2
63.5041 17.4572 2
67.6046 24.9157 2
66.1115 27.6566 2
62.8443 20.3496 2
64.6796 23.8562 2
61.9439 22.9994 2
60.684 11.1053 2
57.6079 11.462 2
70.0539 35.3939 3.96761
69.4624 31.1521 3.96647
67.5815 33.601 3.9702
66.6891 29.641 3.96858
65.4419 25.7231 3.96666
63.958 28.2995 3.97389
62.3385 12.6589 3.97746
62.693 24.6901 3.97013
62.1918 15.7999 3.96733
61.7658 18.715 3.96178
61.0808 21.4004 3.96525
60.2001 23.8098 3.97174
59.2405 12.8082 3.96835
55.8699 10.2482 3.9734
56.3953 13.1656 3.96855
69.7665 50.989 0.0241919
62.2254 65.694 0
58.8923 65.413 0.0150998
67.7811 55.167 0.0237481
66.6423 52.2072 0.035119
62.333 62.4244 0.0220266
62.1968 59.3925 0.0331548
64.6536 56.0272 0.03391
61.7882 56.6593 0.0375306
60.6686 63.9711 2
57.0255 66.7326 2
57.5548 63.6825 2
67.5001 50.1743 2
65.6938 54.1697 2
64.4492 51.3593 2
60.7668 60.9208 2
62.7664 55.0449 2
60.6406 58.137 2
60.247 55.7437 2
55.0692 67.9312 3.98908
59.2136 62.3405 3.96984
55.8017 64.902 3.97723
56.3178 62.0505 3.9704
65.2334 49.3839 3.96689
63.6309 53.2672 3.96457
62.2515 50.5992 3.96902
59.3203 59.5303 3.9644
60.9552 54.2621 3.96658
59.221 56.9673 3.96234
59.1206 55.1269 3.96724
48.1003 68.5754 3.98517
50.9471 69.9313 3.99043
54.0858 71.1327 4
56.25 69.976 2
58.3339 68.6801 0
57.0559 8.33824 3.98288
60.3285 7.74928 4
58.9215 9.66291 2
62.2255 9.30602 2
70.5729 48.8135 0.0243568
71.7808 44.3529 0.0231049
68.9063 46.0141 0.0340913
69.7995 41.79 0.0326988
72.4041 39.8026 0.0218365
75 37.5 0
72.4868 37.5125 2
70.0368 39.6581 2
69.4249 43.9068 2
67.5134 41.4903 2
68.2591 48.1051 2
66.6113 45.4225 2
70.1252 37.523 3.96769
67.759 39.5099 3.97134
67.1323 43.458 3.97007
65.3582 41.1918 3.97709
65.9676 47.3967 3.96831
64.4338 44.8122 3.97485
72.412 35.2248 0.0218081
71.8024 30.6771 0.0228326
69.8356 33.2708 0.0328384
68.9608 29.0409 0.0341624
64.0165 10.9835 0
63.8866 14.3303 0.0249995
63.5054 17.4562 0.0339645
67.6051 24.9146 0.0349208
66.1119 27.6559 0.0320995
64.6801 23.8556 0.0342644
62.8441 20.3493 0.0370865
61.9448 22.9986 0.0321309
60.6815 11.1013 0.0204512
57.6069 11.469 0.0295254
70.0536 35.3942 2
69.4621 31.1528 2
67.5804 33.6013 2
66.6881 29.6416 2
62.341 12.6634 2
62.1903 15.8005 2
61.7663 18.7148 2
65.4415 25.7238 2
63.9558 28.3004 2
61.0794 21.4012 2
62.6916 24.691 2
60.1992 23.8109 2
59.2411 12.8081 2
56.3964 13.1631 2
55.8718 10.2476 2
67.7988 35.5535 3.97094
67.189 31.6365 3.96942
65.5148 33.9463 3.97711
64.4734 30.2292 3.97549
63.3611 26.4633 3.97215
61.9727 28.8464 3.97613
60.7691 14.2455 3.96826
60.7976 25.4168 3.97438
60.5855 17.1591 3.96158
60.0979 19.8786 3.96221
59.4456 22.346 3.96761
58.6889 24.4268 3.9743
54.0347 9.14603 3.97471
57.8984 14.3741 3.96717
54.7777 12.056 3.97005
55.2956 14.71 3.96737
67.5006 50.1752 0.0351716
57.0234 66.734 0.0124382
60.6664 63.974 0.0190568
57.5541 63.6808 0.0281183
65.6947 54.1706 0.0346044
64.4492 51.3597 0.0343396
60.7677 60.9192 0.031483
60.6376 58.1358 0.038695
62.766 55.0449 0.0362139
60.2474 55.7439 0.0355132
55.0709 67.9302 2
59.2139 62.3416 2
55.802 64.9023 2
56.3163 62.0513 2
65.2329 49.3833 2
63.6311 53.267 2
62.2511 50.5987 2
59.32 59.5316 2
60.9556 54.2619 2
59.2253 56.9681 2
59.1233 55.1269 2
53.0413 68.9993 3.99017
53.9644 66.0064 3.97985
57.8691 60.836 3.96885
54.677 63.1874 3.9721
55.1948 60.5678 3.96845
62.9885 48.6114 3.97102
61.5821 52.5239 3.96772
59.9874 49.9406 3.97137
57.9864 58.2241 3.96232
59.1535 53.8815 3.96854
57.9836 55.7461 3.96288
50.1069 67.8534 3.98431
47.4614 66.573 3.98042
46.0541 69.1546 3.9859
48.1005 68.5758 2
48.8009 70.7226 3.9908
50.9483 69.9308 2
51.8506 72.1454 4
54.0858 71.1327 2
56.25 69.9759 0
55.1009 7.14221 3.98698
58.3339 6.31992 4
57.059 8.34132 2
60.3286 7.74926 2
58.9188 9.65876 0.0188883
62.2254 9.30607 0
68.2595 48.106 0.0347339
69.4252 43.9073 0.0333465
66.6131 45.4231 0.0305479
67.5146 41.4906 0.0291766
70.0371 39.6583 0.0323136
72.4875 37.5126 0.0222389
70.1244 37.5231 2
67.7574 39.5098 2
67.1318 43.4577 2
65.3552 41.1909 2
65.9672 47.3962 2
64.4317 44.8112 2
67.86 37.5239 3.97133
65.5965 39.3624 3.97693
64.9748 42.9984 3.97652
63.4616 40.9041 3.97689
63.7444 46.6721 3.97284
62.4875 44.1595 3.97656
70.0539 35.3939 0.0323903
69.4624 31.1521 0.0335345
67.5815 33.601 0.0297978
66.6891 29.641 0.0314231
62.3385 12.6589 0.0225447
62.1918 15.7999 0.0326652
61.7658 18.715 0.0382245
65.4419 25.7231 0.0333395
63.958 28.2995 0.0261146
62.693 24.6901 0.0298735
61.0808 21.4004 0.0347462
60.2001 23.8098 0.0282646
59.2405 12.8082 0.0316473
56.3953 13.1656 0.031449
55.8699 10.2482 0.0265995
67.797 35.5537 2
67.1888 31.6369 2
65.5113 33.9472 2
64.4711 30.2302 2
60.7688 14.2459 2
60.585 17.1587 2
60.0963 19.8794 2
63.3593 26.4643 2
61.9703 28.8475 2
59.4471 22.3466 2
60.7958 25.4179 2
58.688 24.428 2
57.8972 14.3739 2
55.2958 14.7082 2
54.0364 9.14565 2
54.7783 12.0534 2
65.6948 35.6778 3.97706
64.995 32.1827 3.97638
64.0244 34.2751 3.97695
62.2905 30.6939 3.97616
61.381 27.1473 3.97563
60.5006 29.2257 3.97639
59.2955 15.7034 3.96315
59.0064 25.9037 3.97604
59.0439 18.4142 3.96108
58.5495 20.9443 3.96343
58.0067 23.2047 3.96916
57.6487 24.7874 3.97501
52.1098 8.16155 3.97814
53.0508 11.0464 3.97137
56.6547 15.798 3.96353
53.7933 13.7451 3.96625
54.3415 16.0734 3.9608
55.0692 67.9312 0.0109231
65.2334 49.3839 0.0331077
55.8017 64.902 0.0227666
59.2136 62.3405 0.0301555
56.3178 62.0505 0.0296003
63.6309 53.2672 0.0354306
62.2515 50.5992 0.0309798
59.3203 59.5303 0.0356018
59.221 56.9673 0.037656
60.9552 54.2621 0.0334225
59.1206 55.1269 0.0327587
53.0428 68.9988 2
53.9648 66.0069 2
57.8674 60.8369 2
54.6764 63.1887 2
55.1927 60.5682 2
62.9873 48.6106 2
61.5821 52.5235 2
59.9883 49.94 2
57.9837 58.2249 2
59.157 53.8815 2
57.9803 55.7445 2
52.0682 66.9956 3.98301
52.9494 64.2057 3.97693
56.628 59.4491 3.96886
53.667 61.5808 3.97211
54.2333 59.2721 3.97543
60.6657 47.8032 3.9728
59.4693 52.0296 3.96938
57.6617 49.5137 3.97313
56.7053 56.9321 3.96401
56.9047 54.0365 3.96638
50.1071 67.8535 2
49.3352 65.9132 3.9804
47.4615 66.5732 2
46.8897 64.7236 3.97909
45.5568 67.0903 3.9809
43.9716 69.5866 3.98664
46.0545 69.1549 2
46.6073 71.367 3.9911
48.1003 68.5754 0.0148307
48.8021 70.7224 2
49.554 73.0099 4
50.9471 69.9313 0.00956927
51.8506 72.1455 2
54.0858 71.1327 0
53.0632 6.07307 3.98939
55.1039 7.14345 2
56.25 5.02411 4
58.3339 6.3199 2
57.0559 8.33824 0.0171236
60.3285 7.74928 0
65.9676 47.3967 0.031694
67.1323 43.458 0.0299333
64.4338 44.8122 0.0251528
65.3582 41.1918 0.022907
67.759 39.5099 0.0286621
70.1252 37.523 0.0323089
67.8589 37.5239 2
65.5932 39.362 2
64.9715 42.9975 2
63.4599 40.9037 2
63.7426 46.6712 2
62.4855 44.1585 2
65.7049 37.5039 3.97689
63.6113 39.2556 3.97682
63.018 42.5102 3.97662
62.0658 40.6653 3.97661
61.6329 45.8513 3.97495
61.0496 43.6165 3.97637
67.7988 35.5535 0.0290615
67.189 31.6365 0.0305775
65.5148 33.9463 0.022886
64.4734 30.2292 0.024515
60.7691 14.2455 0.0317383
60.5855 17.1591 0.038417
60.0979 19.8786 0.0377859
63.3611 26.4633 0.0278497
61.9727 28.8464 0.0238746
60.7976 25.4168 0.0256244
59.4456 22.346 0.032388
58.6889 24.4268 0.0257047
57.8984 14.3741 0.0328331
55.2956 14.71 0.032628
54.0347 9.14603 0.0252942
54.7777 12.056 0.0299521
65.6915 35.6785 2
64.9918 32.1837 2
64.0223 34.2757 2
62.2885 30.6944 2
59.2939 15.7031 2
59.0478 18.4131 2
58.5506 20.945 2
61.3795 27.1484 2
60.4996 29.2261 2
58.0007 23.2068 2
59.0052 25.905 2
57.6526 24.7893 2
56.6527 15.7974 2
54.3446 16.0714 2
53.7922 13.7369 2
52.1114 8.16114 2
53.0518 11.0443 2
63.8194 35.6471 3.97673
62.6125 33.0878 3.9765
60.2187 30.6929 3.9761
59.2037 28.0155 3.97618
57.9019 17.0374 3.96035
57.3701 25.8592 3.97598
57.5729 19.5627 3.96044
57.1117 21.9588 3.9636
56.8412 24.0832 3.97011
50.1109 7.29053 3.98328
51.2277 10.1416 3.97439
52.1577 12.8448 3.97229
55.4968 17.0441 3.96049
52.9503 15.3414 3.96539
53.7122 17.0687 3.961
53.0413 68.9993 0.00982604
53.9644 66.0064 0.0201528
62.9885 48.6114 0.0289804
54.677 63.1874 0.0278971
57.8691 60.836 0.0311495
55.1948 60.5678 0.0315531
61.5821 52.5239 0.0322786
59.9874 49.9406 0.0286277
57.9864 58.2241 0.0376847
57.9836 55.7461 0.0371177
59.1535 53.8815 0.031464
52.0685 66.9961 2
52.9489 64.2062 2
56.6264 59.45 2
53.6653 61.5832 2
54.2308 59.273 2
60.6652 47.8024 2
59.4699 52.029 2
57.6592 49.5125 2
56.7018 56.9353 2
56.9017 54.035 2
51.1656 65.1184 3.97901
52.0364 62.5195 3.97375
55.4407 58.203 3.96425
52.8084 60.0733 3.97175
53.6011 58.42 3.96809
57.8529 46.7377 3.97575
57.2634 51.6897 3.96965
55.8161 49.4327 3.97217
55.356 55.7208 3.96476
55.098 53.2863 3.96307
50.1069 67.8534 0.0156919
49.3351 65.9131 2
48.6145 64.1106 3.97914
47.4614 66.573 0.0195844
45.5568 67.0908 2
46.8903 64.7233 2
46.3768 63.0371 3.98221
45.1308 65.1845 3.97872
43.6302 67.4618 3.98223
41.8593 69.8735 3.98627
43.9718 69.587 2
44.3746 71.8616 3.99131
46.0541 69.1546 0.0140958
46.6083 71.3669 2
47.2057 73.7222 4
48.8009 70.7226 0.00919701
49.554 73.0099 2
51.8506 72.1454 0
50.954 5.13352 3.99088
53.0655 6.07393 2
54.0858 3.86728 4
55.1009 7.14221 0.0130195
56.25 5.02406 2
58.3339 6.31992 0
63.7444 46.6721 0.0271572
64.9748 42.9984 0.0234813
62.4875 44.1595 0.0234432
63.4616 40.9041 0.0231065
65.5965 39.3624 0.0230709
67.86 37.5239 0.0286678
65.7014 37.5041 2
63.6099 39.2555 2
63.0165 42.5096 2
62.0658 40.665 2
61.6312 45.8503 2
61.0484 43.6161 2
63.6749 37.458 3.97677
61.7767 39.3364 3.97681
60.7945 41.9047 3.97666
59.8172 44.6799 3.97669
65.6948 35.6778 0.0229413
64.995 32.1827 0.0236191
64.0244 34.2751 0.023051
62.2905 30.6939 0.0238388
59.2955 15.7034 0.0368484
59.0439 18.4142 0.0389231
58.5495 20.9443 0.0365681
61.381 27.1473 0.0243709
60.5006 29.2257 0.0236145
59.0064 25.9037 0.0239599
58.0067 23.2047 0.0308395
57.6487 24.7874 0.0249853
56.6547 15.798 0.0364728
54.3415 16.0734 0.0392009
53.7933 13.7451 0.0337469
52.1098 8.16155 0.0218615
53.0508 11.0464 0.0286348
63.8179 35.6472 2
62.6119 33.0883 2
60.2188 30.6931 2
57.8985 17.0377 2
57.5833 19.5597 2
57.1069 21.9608 2
59.2024 28.0163 2
56.8541 24.0846 2
57.3703 25.8622 2
50.1124 7.28893 2
55.4958 17.0435 2
53.7145 17.0618 2
52.9499 15.3356 2
52.1585 12.8492 2
51.229 10.1399 2
61.8184 35.3808 3.97645
59.8419 32.8082 3.97623
58.1507 30.1812 3.97602
56.8564 27.5245 3.97666
56.5608 18.2324 3.9611
55.9 25.2579 3.97522
56.1698 20.6334 3.96083
55.7899 23.0126 3.96366
48.0561 6.53033 3.9874
49.3221 9.34312 3.97773
50.423 12.028 3.97414
51.3533 14.56 3.96622
54.3455 18.0117 3.95979
52.3201 17.14 3.95913
52.0682 66.9956 0.0169855
52.9494 64.2057 0.0230701
60.6657 47.8032 0.0272033
53.667 61.5808 0.0278925
56.628 59.4491 0.0311386
54.2333 59.2721 0.0245721
59.4693 52.0296 0.0306213
57.6617 49.5137 0.0268714
56.7053 56.9321 0.0359884
56.9047 54.0365 0.0336181
51.1654 65.1191 2
52.0351 62.5211 2
55.4392 58.2037 2
52.8069 60.0767 2
53.5995 58.4218 2
57.8519 46.7367 2
57.2604 51.6883 2
55.8097 49.4308 2
55.3538 55.7206 2
55.0992 53.2863 2
50.3408 63.3675 3.97983
51.2251 60.8938 3.97467
54.1573 57.2123 3.96794
52.2634 58.5711 3.97068
56.095 44.0509 3.97674
54.9775 47.7588 3.97447
54.6942 51.2719 3.96559
53.8305 54.4608 3.96558
49.3352 65.9132 0.0195973
48.6148 64.1099 2
47.9538 62.4589 3.98009
45.5568 67.0903 0.0191005
46.8897 64.7236 0.0209109
43.6301 67.4623 2
46.3769 63.0371 2
45.1314 65.1847 2
45.9796 61.5671 3.98868
44.7638 63.4357 3.97791
43.356 65.4954 3.9791
41.6625 67.68 3.98181
39.7017 70.0193 3.98579
41.8594 69.8741 2
42.1091 72.2061 3.9917
43.9716 69.5866 0.0133618
44.3754 71.8616 2
44.8159 74.2794 4
46.6073 71.367 0.00889923
47.2057 73.7222 2
49.554 73.0099 0
48.7852 4.32375 3.99193
50.9556 5.13336 2
51.8506 2.85458 4
53.0632 6.07307 0.0106089
54.0858 3.86728 2
56.25 5.02411 0
61.6329 45.8513 0.0250547
63.018 42.5102 0.0233844
61.0496 43.6165 0.0236281
62.0658 40.6653 0.0233935
63.6113 39.2556 0.0231769
65.7049 37.5039 0.0231056
63.6735 37.458 2
61.7772 39.3366 2
60.7953 41.9045 2
59.817 44.679 2
61.6068 37.4441 3.9769
59.7585 39.8119 3.97685
58.4501 42.8342 3.97629
63.8194 35.6471 0.0232725
62.6125 33.0878 0.0235027
60.2187 30.6929 0.023902
57.9019 17.0374 0.0396477
57.5729 19.5627 0.0395641
57.1117 21.9588 0.0363993
59.2037 28.0155 0.0238192
57.3701 25.8592 0.0240171
56.8412 24.0832 0.0298901
55.4968 17.0441 0.0395103
53.7122 17.0687 0.0390023
52.9503 15.3414 0.034609
50.1109 7.29053 0.0167214
52.1577 12.8448 0.0277103
51.2277 10.1416 0.0256067
61.8191 35.381 2
59.842 32.8082 2
58.1516 30.1806 2
56.5632 18.2315 2
56.1815 20.6279 2
55.7949 23.0176 2
56.856 27.526 2
55.9001 25.2621 2
48.057 6.52923 2
49.3234 9.3416 2
54.3518 18.0097 2
52.316 17.1309 2
51.3506 14.5585 2
50.4244 12.0273 2
59.396 35.1509 3.97657
57.4299 32.3557 3.97568
56.0233 29.4798 3.97637
54.9606 26.785 3.97571
55.2332 19.2858 3.9618
54.568 24.2285 3.96928
54.764 21.6982 3.96005
45.9626 5.88459 3.98879
43.3742 7.47778 3.98455
47.3546 8.63022 3.982
48.5935 11.3139 3.97416
49.6922 13.7848 3.97055
50.5946 16.2084 3.9658
53.0376 18.7752 3.96119
51.2433 18.188 3.96605
51.1656 65.1184 0.0209906
52.0364 62.5195 0.0262467
57.8529 46.7377 0.0242453
52.8084 60.0733 0.0282529
55.4407 58.203 0.0357465
53.6011 58.42 0.0319112
57.2634 51.6897 0.0303487
55.8161 49.4327 0.0278329
55.356 55.7208 0.0352395
55.098 53.2863 0.0369342
50.3405 63.3666 2
51.2232 60.8922 2
54.1562 57.2134 2
52.2614 58.5725 2
56.0958 44.0501 2
54.9744 47.7574 2
54.6935 51.271 2
53.83 54.4622 2
49.5798 61.7297 3.97663
54.8569 41.6413 3.97413
50.5285 59.2814 3.96964
52.0883 56.4263 3.96814
53.5152 45.399 3.97419
52.8448 49.1886 3.96962
52.3871 52.7497 3.96085
48.6145 64.1106 0.0208618
47.9532 62.4573 2
47.3147 60.9897 3.98807
43.6302 67.4618 0.0177705
45.1308 65.1845 0.0212771
46.3768 63.0371 0.0177894
41.6628 67.6798 2
43.3565 65.496 2
45.9784 61.5676 2
44.7641 63.436 2
45.7504 60.6125 3.98628
44.4783 61.8116 3.97959
43.1447 63.7098 3.97857
41.5457 65.633 3.97775
39.6321 67.7573 3.98116
37.5259 70.0435 3.98456
39.7017 70.0196 2
39.8163 72.4026 3.99152
41.8593 69.8735 0.0137282
42.1098 72.2063 2
42.3947 74.6792 4
44.3746 71.8616 0.00868726
44.8159 74.2794 2
47.2057 73.7222 0
43.8519 5.36171 3.98794
46.5713 3.64819 3.99227
48.7862 4.32351 2
49.554 1.99015 4
50.954 5.13352 0.0091245
51.8506 2.85453 2
54.0858 3.86728 0
59.8172 44.6799 0.0233112
60.7945 41.9047 0.0233393
61.7767 39.3364 0.0231903
63.6749 37.458 0.0232285
61.6073 37.4441 2
59.7593 39.8117 2
58.4505 42.8338 2
59.25 37.5656 3.97722
57.3824 40.599 3.97715
54.2589 39.6544 3.97511
61.8184 35.3808 0.0235512
59.8419 32.8082 0.0237674
58.1507 30.1812 0.023979
56.5608 18.2324 0.0389042
56.1698 20.6334 0.0391675
55.7899 23.0126 0.0363408
56.8564 27.5245 0.023338
55.9 25.2579 0.0247806
54.3455 18.0117 0.040207
52.3201 17.14 0.0408709
51.3533 14.56 0.0337768
48.0561 6.53033 0.0126044
49.3221 9.34312 0.0222741
50.423 12.028 0.0258587
59.3969 35.1505 2
45.9631 5.88335 2
43.3745 7.47609 2
57.431 32.3561 2
56.023 29.4792 2
55.2231 19.2892 2
54.7858 21.7006 2
54.562 24.2326 2
54.9584 26.7877 2
47.3557 8.62774 2
48.5949 11.3127 2
53.0447 18.7569 2
51.2488 18.1847 2
50.5932 16.2093 2
49.6912 13.787 2
56.7616 34.8037 3.97709
55.0945 31.6332 3.97567
53.9436 28.5865 3.97712
53.3388 25.7025 3.97513
53.8262 20.2533 3.96129
53.3053 22.8869 3.95593
41.3997 7.08277 3.98391
45.3603 7.99728 3.98729
42.8663 9.42284 3.97954
46.6647 10.664 3.98025
47.7281 13.128 3.97521
48.8984 15.4569 3.96919
49.9464 17.7731 3.96051
51.5506 19.4701 3.96982
50.3408 63.3675 0.0201686
51.2251 60.8938 0.0253306
56.095 44.0509 0.0232556
54.9775 47.7588 0.0255276
52.2634 58.5711 0.0293196
54.1573 57.2123 0.0320569
54.6942 51.2719 0.0344125
53.8305 54.4608 0.0344249
49.5781 61.7285 2
54.8474 41.6371 2
50.5263 59.2822 2
52.0908 56.429 2
53.5115 45.3969 2
52.8469 49.1874 2
52.3879 52.7494 2
48.8227 60.1823 3.97618
51.6303 42.509 3.98327
49.7212 57.5784 3.96669
50.4124 54.3555 3.96206
51.189 47.1067 3.97487
50.8355 50.8267 3.95484
47.3107 43.5875 3.97562
47.9538 62.4589 0.0199115
47.313 60.9884 2
46.5941 59.7787 3.99371
41.6625 67.68 0.018193
43.356 65.4954 0.0209026
44.7638 63.4357 0.0220903
45.9796 61.5671 0.0113155
39.6325 67.7579 2
41.5461 65.6315 2
45.7495 60.6126 2
43.145 63.71 2
44.4769 61.8126 2
44.6068 60.2697 3.99466
42.9463 62.062 3.97476
41.5998 63.8028 3.9777
39.6471 65.5972 3.97676
37.5632 67.7375 3.97914
31.6979 65.1139 3.9768
33.3927 67.4754 3.97902
35.3339 69.9539 3.98468
37.5257 70.0447 2
37.509 72.4569 3.99198
39.7017 70.0193 0.0142108
39.8168 72.4027 2
39.9526 74.9197 4
42.1091 72.2061 0.00829667
42.3947 74.6792 2
44.8159 74.2794 0
41.7365 4.97003 3.98835
43.8522 5.36027 2
44.3268 3.11132 3.99265
46.5719 3.64779 2
47.2057 1.27793 4
48.7852 4.32375 0.00806667
49.554 1.99013 2
51.8506 2.85458 0
58.4501 42.8342 0.0237123
59.7585 39.8119 0.023151
61.6068 37.4441 0.0230951
59.2513 37.5665 2
57.382 40.6004 2
54.25 39.6604 2
56.1214 37.8784 3.97678
48.6581 41.2279 3.97421
52.2238 39.2947 3.98345
39.4434 6.80597 3.98505
59.396 35.1509 0.0234342
57.4299 32.3557 0.0243185
56.0233 29.4798 0.0236266
55.2332 19.2858 0.0381953
54.764 21.6982 0.039948
54.568 24.2285 0.0307204
54.9606 26.785 0.0242892
53.0376 18.7752 0.0388128
51.2433 18.188 0.0339488
50.5946 16.2084 0.0341975
45.9626 5.88459 0.0112108
49.6922 13.7848 0.0294523
47.3546 8.63022 0.0180031
48.5935 11.3139 0.0258427
43.3742 7.47778 0.0154527
56.7612 34.8046 2
41.4 7.08277 2
45.3607 7.99558 2
42.867 9.4214 2
55.0969 31.6312 2
53.9423 28.5866 2
53.8292 20.2685 2
53.2958 22.8851 2
53.3359 25.703 2
46.6658 10.6599 2
47.7282 13.1244 2
51.5657 19.4702 2
49.9462 17.7735 2
48.8936 15.4667 2
54.0815 34.0011 3.97499
52.8085 30.6808 3.97581
52.0489 27.4325 3.97491
51.8163 24.323 3.97871
52.2216 21.2122 3.97322
41.0132 9.05657 3.97799
44.7263 9.99725 3.98605
42.463 10.9069 3.99858
45.9908 12.7405 3.9718
47.6531 14.6297 3.9687
48.0534 17.034 3.96505
49.7497 19.8532 3.97427
49.5798 61.7297 0.0233736
50.5285 59.2814 0.0303631
54.8569 41.6413 0.0258655
53.5152 45.399 0.0258096
52.8448 49.1886 0.0303828
52.0883 56.4263 0.0318604
52.3871 52.7497 0.0391481
48.8197 60.1798 2
51.6465 42.5216 2
49.7193 57.5787 2
50.4121 54.3571 2
51.191 47.1053 2
50.8375 50.8262 2
47.3256 43.6207 2
47.9413 58.7057 3.98009
49.2942 45.1242 3.98087
48.4825 55.8674 3.9604
48.875 52.5099 3.97606
49.2006 48.9076 3.97108
45.0574 39.7962 3.85709
45.544 42.4973 3.8949
45.8009 45.5896 3.98277
42.884 41.0161 3.68474
41.5872 41.8212 3.48814
47.3147 60.9897 0.0119347
46.5919 59.7761 2
45.4339 58.7812 3.99511
39.6321 67.7573 0.0188401
41.5457 65.633 0.0222538
43.1447 63.7098 0.0214323
44.4783 61.8116 0.0204145
45.7504 60.6125 0.0137222
41.5999 63.8017 2
37.5634 67.7387 2
39.6476 65.5981 2
44.6069 60.2702 2
42.9448 62.0622 2
41.7495 62.4695 3.9771
42.4688 59.9546 3.98062
39.8945 63.5338 3.97617
37.6421 65.4928 3.97599
35.4636 67.6471 3.9789
33.5759 65.3258 3.97534
31.9604 63.2777 3.97608
29.8854 64.7052 3.9804
31.6978 65.1144 2
31.3777 67.186 3.97944
33.3926 67.4765 2
33.1575 69.7474 3.98476
35.3335 69.9549 2
35.1956 72.3714 3.99199
37.5259 70.0435 0.0154381
37.5091 72.4574 2
37.5 75 4
39.8163 72.4026 0.00848283
39.9526 74.9197 2
42.3947 74.6792 0
39.6245 4.71781 3.98939
41.7368 4.96975 2
42.0632 2.71838 3.99304
43.8519 5.36171 0.0120641
44.327 3.11057 2
44.8158 0.721173 4
46.5713 3.64819 0.00773103
47.2057 1.27779 2
49.554 1.99015 0
57.3824 40.599 0.0228545
59.25 37.5656 0.022782
54.2589 39.6544 0.0248912
48.6843 41.24 2
56.1214 37.8754 2
52.22 39.2596 2
53.0836 36.6167 3.978
46.5873 40.3109 3.89809
49.6042 38.5075 3.98448
37.5174 6.67617 3.9855
39.4442 6.80451 2
39.2109 8.69746 3.98212
35.9432 8.49655 3.98408
56.7616 34.8037 0.0229125
55.0945 31.6332 0.0243265
53.9436 28.5865 0.0228779
53.8262 20.2533 0.0387058
53.3053 22.8869 0.0440667
53.3388 25.7025 0.0248662
51.5506 19.4701 0.0301792
49.9464 17.7731 0.0394939
48.8984 15.4569 0.0308056
45.3603 7.99728 0.0127134
47.7281 13.128 0.0247861
46.6647 10.664 0.0197477
41.3997 7.08277 0.0160886
42.8663 9.42284 0.020464
54.0803 34.0004 2
41.0146 9.05841 2
44.7266 9.9959 2
42.4642 10.9076 2
52.804 30.6785 2
52.0554 27.4326 2
52.2224 21.218 2
51.8082 24.3279 2
45.9908 12.7342 2
47.6478 14.6081 2
49.7643 19.8447 2
48.0497 17.0395 2
51.5913 32.9125 3.98241
50.635 29.3923 3.97752
50.3452 25.936 3.97072
49.7821 22.4489 3.98488
40.5647 11.6186 3.98236
43.8471 11.9113 3.97997
45.77 15.4673 3.98752
47.4509 19.4636 3.97873
45.5167 37.4802 3.85343
48.8227 60.1823 0.0238176
49.7212 57.5784 0.0333089
51.6303 42.509 0.01673
51.189 47.1067 0.0251281
50.8355 50.8267 0.045164
50.4124 54.3555 0.0379374
47.3107 43.5875 0.0243837
47.9387 58.7085 2
49.3113 45.1386 2
48.4781 55.8697 2
48.874 52.5131 2
49.2031 48.9087 2
45.1414 39.8124 2
45.5751 42.5279 2
45.8088 45.6051 2
42.9259 41.0601 2
41.6218 41.8464 2
46.7704 57.3116 3.97827
43.6112 39.349 3.68506
41.9573 40.744 3.50801
47.469 47.1531 3.98323
47.0042 54.1769 3.96088
47.2585 50.6553 3.97855
44.3184 47.2177 3.97957
44.1949 41.8357 3.85342
44.2934 44.328 3.89502
41.896 42.4453 3.72451
40.5982 42.118 3.47975
46.5941 59.7787 0.00629248
45.4336 58.7785 2
43.8417 57.6714 3.98225
37.5632 67.7375 0.0208615
39.6471 65.5972 0.023237
41.5998 63.8028 0.0222955
42.9463 62.062 0.02524
44.6068 60.2697 0.00534463
35.4637 67.6481 2
41.7485 62.4723 2
39.894 63.5345 2
37.6423 65.4939 2
42.4706 59.9523 2
40.6202 61.6123 3.98047
40.433 58.1346 3.98233
37.8377 63.1895 3.97338
35.5731 65.4152 3.97622
33.576 65.3269 2
31.9611 63.2797 2
33.6296 63.317 3.97459
30.3798 62.8397 3.98047
32.128 61.9806 3.98644
26.8797 61.4641 3.97826
28.066 64.1343 3.97856
29.8848 64.7063 2
29.4077 66.7496 3.98032
31.6979 65.1139 0.0231979
31.3775 67.1865 2
31.0153 69.4129 3.98464
33.3927 67.4754 0.0209841
33.1569 69.7483 2
32.8936 72.1458 3.99145
35.3339 69.9539 0.015321
35.1953 72.3721 2
35.0474 74.9194 4
37.509 72.4569 0.00801677
37.5 75 2
39.9526 74.9197 0
35.622 6.72762 3.98502
37.5243 4.61691 3.98967
39.6247 4.71641 2
39.7897 2.47512 3.99309
41.7365 4.97003 0.0116547
42.0632 2.7181 2
42.3946 0.32156 4
44.3268 3.11132 0.00735315
44.8159 0.72056 2
47.2057 1.27793 0
48.6581 41.2279 0.0257947
56.1214 37.8784 0.0232154
52.2238 39.2947 0.0165452
46.6111 40.3121 2
49.604 38.5044 2
53.082 36.641 2
50.4082 35.566 3.97412
47.2546 37.7639 3.90913
45.0789 35.1771 3.85602
42.9209 33.9402 3.68186
41.6191 33.1403 3.48648
37.4585 8.53696 3.98461
37.518 6.67547 2
39.4434 6.80597 0.0149512
39.213 8.69565 2
38.9758 10.1337 3.9838
35.8995 9.77928 3.97969
34.1533 8.82894 3.98206
35.9441 8.49373 2
54.0815 34.0011 0.0250067
52.8085 30.6808 0.0241901
52.0489 27.4325 0.0250893
52.2216 21.2122 0.0267843
51.8163 24.323 0.0212933
49.7497 19.8532 0.0257304
48.0534 17.034 0.0349461
47.6531 14.6297 0.0312967
44.7263 9.99725 0.0139484
45.9908 12.7405 0.0282025
41.0132 9.05657 0.0220052
42.463 10.9069 0.00141947
51.6009 32.9107 2
40.5671 11.623 2
43.8457 11.9103 2
50.6543 29.3898 2
50.3414 25.9387 2
49.775 22.4453 2
45.7603 15.4209 2
47.4534 19.4908 2
49.1723 31.5414 3.98681
48.7257 27.7044 3.9775
49.0804 24.5878 3.97761
47.089 22.2254 3.98988
38.2998 12.7486 3.97694
42.086 14.3124 3.97943
44.7621 18.595 3.97618
44.0323 37.4851 3.69658
45.6112 37.4845 2
47.9413 58.7057 0.0199072
48.4825 55.8674 0.0395999
49.2942 45.1242 0.0191281
49.2006 48.9076 0.0289184
48.875 52.5099 0.0239418
45.0574 39.7962 0.142914
45.544 42.4973 0.105097
45.8009 45.5896 0.0172268
42.884 41.0161 0.315255
41.5872 41.8212 0.511862
46.7673 57.3142 2
43.6749 39.3753 2
41.9623 40.7583 2
47.4758 47.151 2
46.999 54.1805 2
47.2584 50.6623 2
44.3515 47.208 2
44.2409 41.8696 2
44.3408 44.3561 2
41.9502 42.4973 2
40.6284 42.1305 2
45.3057 55.8948 3.99874
42.3011 39.2123 3.51818
40.4861 40.6224 3.62383
45.6741 48.7979 4.00281
45.3003 52.4431 3.98295
43.0594 48.2109 3.9946
42.9641 45.8553 3.88715
43.0568 43.6003 3.83452
40.7033 43.4634 3.70376
39.1772 42.3768 3.5206
45.4339 58.7812 0.00489429
43.8391 57.6767 2
42.0662 56.2589 3.98635
35.4636 67.6471 0.0211008
37.6421 65.4928 0.0240067
39.8945 63.5338 0.0238316
41.7495 62.4695 0.0228976
42.4688 59.9546 0.019379
35.5735 65.4162 2
40.6206 61.6116 2
37.8379 63.1897 2
40.433 58.1377 2
38.91 56.4084 3.99347
38.2483 60.2968 3.98009
35.6075 63.1835 3.9735
33.5759 65.3258 0.0246587
31.9604 63.2777 0.02392
33.6304 63.3184 2
30.3803 62.8409 2
32.1292 61.9823 2
28.6875 62.1763 3.97997
33.3479 61.487 3.97795
31.0764 61.2046 3.98087
27.5903 59.5555 3.9799
23.824 59.0402 3.9914
25.0487 60.8354 3.97718
26.8804 61.4643 2
26.235 63.4632 3.97673
28.0656 64.1326 2
27.4647 66.174 3.97988
29.8854 64.7052 0.019604
29.4072 66.7497 2
28.9079 68.9385 3.98409
31.3777 67.186 0.0205573
31.0146 69.4132 2
30.6165 71.7773 3.99094
33.1575 69.7474 0.0152422
32.8929 72.1462 2
32.6054 74.6784 4
35.1956 72.3714 0.0080121
35.0474 74.9197 2
37.5 75 0
33.7252 6.98403 3.98374
35.4364 4.68714 3.98939
35.6225 6.72619 2
37.5155 2.38749 3.99322
37.5245 4.61625 2
39.6245 4.71781 0.0106146
39.7896 2.47436 2
39.9526 0.0806499 4
42.0632 2.71838 0.00695702
42.3947 0.320817 2
44.8158 0.721173 0
43.6257 35.6219 3.6885
41.977 34.2131 3.49751
46.5873 40.3109 0.101914
49.6042 38.5075 0.0155185
53.0836 36.6167 0.0220014
47.2496 37.7361 2
50.4165 35.5596 2
45.1525 35.155 2
42.9621 33.8968 2
41.647 33.1148 2
47.4486 34.3362 3.94481
44.2418 33.1243 3.83667
41.9425 32.5192 3.72301
40.6255 32.8541 3.47894
37.3114 10.6343 3.98106
37.4602 8.53629 2
37.5174 6.67617 0.0144978
39.2109 8.69746 0.0178776
38.9792 10.1321 2
34.7562 10.3892 3.98065
35.9012 9.77367 2
32.3802 9.37526 3.97796
34.1523 8.82417 2
35.9432 8.49655 0.0159244
51.5913 32.9125 0.0175927
50.635 29.3923 0.0224796
50.3452 25.936 0.0292799
49.7821 22.4489 0.0151221
47.4509 19.4636 0.0212713
45.77 15.4673 0.012477
43.8471 11.9113 0.0200344
40.5647 11.6186 0.0176377
49.1917 31.5308 2
38.3005 12.7441 2
42.0906 14.3239 2
48.7303 27.7075 2
49.0751 24.5879 2
47.0745 22.2183 2
44.7645 18.6566 2
47.0764 29.6938 3.98476
46.7619 25.3153 3.96953
44.2185 21.5994 3.9795
36.5858 12.961 3.97388
38.6808 14.8594 3.97452
41.7308 17.9343 3.97908
42.459 37.4681 3.55435
44.088 37.4852 2
45.5167 37.4802 0.146569
46.7704 57.3116 0.0217301
47.0042 54.1769 0.0391208
47.469 47.1531 0.0167682
47.2585 50.6553 0.0214475
43.6112 39.349 0.314936
44.1949 41.8357 0.146578
44.2934 44.328 0.104977
44.3184 47.2177 0.0204256
41.896 42.4453 0.275486
41.9573 40.744 0.491993
40.5982 42.118 0.52025
45.3018 55.8964 2
42.3022 39.2181 2
40.5151 40.6074 2
45.6728 48.8158 2
45.2953 52.4447 2
43.0918 48.2287 2
43.0191 45.9024 2
43.1068 43.6327 2
40.7434 43.5261 2
39.175 42.391 2
43.6307 54.3593 3.99387
40.5906 39.0615 3.64165
39.0711 40.696 3.59375
43.3887 50.2963 4.00361
41.6945 47.3675 3.9279
41.6072 44.9508 3.84652
39.3396 44.1167 3.6697
37.4989 42.4865 3.55952
43.8417 57.6714 0.0177458
42.068 56.2521 2
40.3787 54.8216 3.99478
35.5731 65.4152 0.0237773
37.8377 63.1895 0.0266239
40.6202 61.6123 0.0195292
40.433 58.1346 0.0176728
35.608 63.183 2
38.2479 60.2988 2
38.9113 56.3968 2
37.9852 55.0927 3.99514
36.9324 57.5923 3.99152
35.3652 60.888 3.97901
33.6296 63.317 0.0254111
30.3798 62.8397 0.019534
32.128 61.9806 0.0135562
33.3489 61.4872 2
28.688 62.1793 2
31.0777 61.2073 2
29.4194 60.257 3.97587
32.3679 59.706 3.99082
28.0598 58.3401 4.00831
27.5923 59.5552 2
25.412 58.5578 3.98033
22.8074 58.1949 3.96825
23.4184 60.3055 3.97879
23.8261 59.0402 2
25.0498 60.8344 2
24.4405 62.7475 3.97711
26.8797 61.4641 0.0217404
26.2355 63.4639 2
25.5498 65.4818 3.97849
28.066 64.1343 0.0214439
27.4644 66.1739 2
26.8376 68.327 3.98415
29.4077 66.7496 0.0196759
28.9072 68.9382 2
28.3717 71.2626 3.99027
31.0153 69.4129 0.0153617
30.6155 71.7772 2
30.1842 74.2788 4
32.8936 72.1458 0.0085452
32.6053 74.6792 2
35.0474 74.9194 0
31.7897 7.42323 3.98216
33.349 4.9271 3.98836
33.7249 6.9811 2
35.2459 2.46344 3.99323
35.4364 4.68644 2
35.622 6.72762 0.0149761
37.5 0 4
37.5151 2.38711 2
37.5243 4.61691 0.0103328
39.7897 2.47512 0.00690585
39.9526 0.0802889 2
42.3946 0.32156 0
42.2951 35.7224 3.50748
43.7007 35.5909 2
40.521 34.341 3.62372
41.9753 34.1961 2
47.2546 37.7639 0.0908721
50.4082 35.566 0.0258767
45.0789 35.1771 0.143982
42.9209 33.9402 0.318139
41.6191 33.1403 0.513523
47.4731 34.3573 2
44.2812 33.0969 2
41.995 32.465 2
40.6533 32.841 2
45.5503 31.7466 3.90657
43.1 31.3626 3.82894
40.7429 31.5057 3.70219
39.1974 32.6115 3.51623
35.6954 11.7866 3.97667
37.3151 10.632 2
37.4585 8.53696 0.015386
38.9758 10.1337 0.0162035
33.1013 11.2277 3.97254
34.755 10.381 2
35.8995 9.77928 0.0203091
30.4858 10.0273 3.97738
32.3797 9.37447 2
34.1533 8.82894 0.0179419
49.1723 31.5414 0.013187
48.7257 27.7044 0.0224998
49.0804 24.5878 0.0223889
47.089 22.2254 0.0101195
44.7621 18.595 0.0238225
42.086 14.3124 0.0205728
38.2998 12.7486 0.0230567
36.5822 12.9395 2
47.0872 29.6408 2
38.6776 14.8369 2
41.7225 17.9347 2
46.7657 25.3158 2
44.2033 21.5729 2
45.0363 27.8354 4.00418
43.5947 24.2402 4.02837
41.292 20.9492 3.98583
35.7722 14.802 3.97662
38.6702 17.666 3.98241
40.647 37.4545 3.65671
42.4692 37.4724 2
44.0323 37.4851 0.303423
45.3057 55.8948 0.00126263
45.3003 52.4431 0.0170486
45.6741 48.7979 -0.00280713
42.3011 39.2123 0.481816
43.0568 43.6003 0.165485
42.9641 45.8553 0.112846
43.0594 48.2109 0.00539834
40.7033 43.4634 0.296237
40.4861 40.6224 0.37617
39.1772 42.3768 0.479396
43.6282 54.3562 2
40.5959 39.0609 2
39.0722 40.6892 2
43.3802 50.3101 2
41.6978 47.4018 2
41.632 44.9948 2
37.4952 42.5062 2
39.3551 44.1792 2
41.7838 52.8361 3.99818
39.0813 39.0943 3.60541
37.5032 40.7518 3.62284
35.8273 42.3873 3.51991
40.819 49.4436 3.99474
39.7312 45.7021 3.81903
37.4988 44.3777 3.70148
42.0662 56.2589 0.0136487
40.377 54.8301 2
38.7236 53.6437 3.99611
35.6075 63.1835 0.0265011
38.2483 60.2968 0.0199099
38.91 56.4084 0.0065264
35.3654 60.8852 2
36.933 57.5922 2
37.9861 55.0923 2
36.3222 55.1613 3.99745
34.4965 58.4939 3.99497
33.3479 61.487 0.0220467
28.6875 62.1763 0.0200308
31.0764 61.2046 0.0191296
32.369 59.7095 2
29.4207 60.2558 2
30.3326 57.7801 3.98444
28.0627 58.3389 2
27.0214 56.7912 3.967
27.5903 59.5555 0.0201039
25.4148 58.5574 2
23.9278 56.753 3.95935
21.4149 57.3401 3.95932
22.0191 59.5761 3.97581
22.8097 58.1959 2
22.7468 61.9971 3.97338
23.4195 60.3049 2
23.824 59.0402 0.00860363
25.0487 60.8354 0.022819
24.4413 62.7507 2
23.6854 64.698 3.97601
26.235 63.4632 0.0232697
25.5493 65.4833 2
24.8102 67.5877 3.98293
27.4647 66.174 0.0201169
26.8368 68.3277 2
26.1669 70.6035 3.99022
28.9079 68.9385 0.015914
28.3707 71.2623 2
27.7943 73.7221 4
30.6165 71.7773 0.0090619
30.1841 74.2794 2
32.6054 74.6784 0
29.8126 7.99939 3.98019
31.2545 5.33363 3.9874
31.7892 7.42197 2
32.9819 2.70175 3.99281
33.3486 4.92539 2
33.7252 6.98403 0.0162571
35.0474 0.080333 4
35.2454 2.4632 2
35.4364 4.68714 0.0106108
37.5 0 2
37.5155 2.38749 0.00677833
39.9526 0.0806499 0
40.6301 35.8697 3.6435
42.2983 35.7238 2
43.6257 35.6219 0.311502
28.5463 10.7026 3.97713
39.0813 34.2915 3.59195
40.5296 34.3514 2
41.977 34.2131 0.502494
47.4486 34.3362 0.0551877
44.2418 33.1243 0.163335
41.9425 32.5192 0.276987
40.6255 32.8541 0.52106
45.5838 31.7271 2
43.1439 31.329 2
40.7845 31.4421 2
39.2014 32.5987 2
43.9084 29.9562 3.90056
41.6248 30.0098 3.84806
39.3679 30.8615 3.66842
37.5294 32.5122 3.55825
34.098 12.9526 3.97342
35.6948 11.7726 2
37.3114 10.6343 0.0189418
31.191 11.9997 3.97729
33.1016 11.2279 2
34.7562 10.3892 0.0193537
30.4844 10.0234 2
32.3802 9.37526 0.0220363
47.0764 29.6938 0.0152438
46.7619 25.3153 0.0304658
36.5858 12.961 0.0261241
44.2185 21.5994 0.020504
41.7308 17.9343 0.0209197
38.6808 14.8594 0.0254782
35.7761 14.8131 2
45.0346 27.8325 2
38.6684 17.6702 2
41.2754 20.9402 2
43.5856 24.2244 2
33.6143 15.9086 3.98287
42.7523 26.6736 3.98459
40.786 23.5458 3.99614
38.3975 20.4325 3.99349
35.8478 17.5594 3.9811
39.0991 37.4864 3.62019
40.6454 37.4574 2
42.459 37.4681 0.445646
43.6307 54.3593 0.00612735
43.3887 50.2963 -0.00361427
40.5906 39.0615 0.358346
41.6072 44.9508 0.153481
41.6945 47.3675 0.0720978
39.3396 44.1167 0.330303
39.0711 40.696 0.406255
37.4989 42.4865 0.440482
41.7749 52.8371 2
39.0748 39.081 2
37.5006 40.7401 2
40.8059 49.4634 2
35.8245 42.3996 2
39.7479 45.76 2
37.491 44.4365 2
39.7302 51.6373 4.00298
37.507 39.0993 3.6413
35.9423 40.7114 3.59444
34.4022 42.1358 3.481
35.6595 44.1351 3.6591
38.6651 48.3495 3.9408
37.526 45.9923 3.84856
40.3787 54.8216 0.00522497
38.7244 53.6319 2
36.7541 52.9451 3.99655
35.3652 60.888 0.0209881
36.9324 57.5923 0.0084783
37.9852 55.0927 0.00485896
34.4959 58.4901 2
36.325 55.1501 2
33.2621 55.3549 3.99258
32.3679 59.706 0.00918133
29.4194 60.257 0.0241284
30.335 57.7767 2
28.809 55.2819 3.98638
28.0598 58.3401 -0.00830894
27.0247 56.7901 2
25.4492 55.0824 3.95854
21.9559 55.2745 3.95971
25.412 58.5578 0.0196733
23.9304 56.7546 2
20.2861 56.9719 3.96291
20.6781 58.7308 3.96884
21.4172 57.3416 2
21.1814 61.1289 3.97438
22.0202 59.5766 2
22.8074 58.1949 0.0317473
21.9007 63.8207 3.97567
22.748 61.9987 2
23.4184 60.3055 0.021213
24.4405 62.7475 0.0228944
23.685 64.6977 2
22.8387 66.7301 3.98044
25.5498 65.4818 0.0215102
24.8092 67.5885 2
24.0111 69.8049 3.99008
26.8376 68.327 0.0158473
26.1655 70.6035 2
25.446 73.0099 4
28.3717 71.2626 0.00972733
27.7943 73.7222 2
30.1842 74.2788 0
27.8225 8.65953 3.9802
29.1567 5.88057 3.98551
29.8115 7.99639 2
30.7275 3.0985 3.99255
31.2539 5.33238 2
31.7897 7.42323 0.0178394
32.6053 0.320823 4
32.9811 2.7011 2
33.349 4.9271 0.0116362
35.0474 0.0802903 2
35.2459 2.46344 0.00677251
37.5 0 0
39.0714 35.8886 3.61347
40.6128 35.8699 2
42.2951 35.7224 0.492517
28.545 10.6999 2
26.6249 11.3988 3.97765
29.2318 12.6527 3.9809
37.5204 34.2519 3.62158
39.0947 34.3081 2
40.521 34.341 0.376281
45.5503 31.7466 0.0934289
43.1 31.3626 0.171061
40.7429 31.5057 0.297805
39.1974 32.6115 0.483772
43.9411 29.9229 2
41.6553 29.9692 2
39.3749 30.8 2
37.5297 32.4929 2
42.0514 28.6477 3.87115
39.7263 29.2666 3.84076
37.5232 30.6232 3.70049
35.8473 32.6163 3.52222
31.9256 14.4995 3.97965
34.0994 12.9593 2
35.6954 11.7866 0.0233287
31.1901 11.9938 2
33.1013 11.2277 0.027463
30.4858 10.0273 0.0226172
45.0363 27.8354 -0.00418174
43.5947 24.2402 -0.0283704
35.7722 14.802 0.0233812
41.292 20.9492 0.0141725
38.6702 17.666 0.0175922
33.6106 15.899 2
35.8409 17.5676 2
42.7812 26.656 2
38.3813 20.4993 2
40.7751 23.5215 2
33.552 17.4433 3.98146
40.2091 25.9442 3.95579
38.0344 23.2753 3.99891
35.5726 20.1772 3.99443
37.512 37.4906 3.65703
39.0893 37.4798 2
40.647 37.4545 0.343285
41.7838 52.8361 0.00181874
40.819 49.4436 0.0052645
39.0813 39.0943 0.394595
39.7312 45.7021 0.180967
37.4988 44.3777 0.298523
37.5032 40.7518 0.377161
35.8273 42.3873 0.480085
39.7166 51.6451 2
37.5086 39.0942 2
35.9398 40.7004 2
38.6799 48.4066 2
34.3755 42.1487 2
35.6381 44.1962 2
37.5221 46.0482 2
37.6778 50.6506 3.99618
35.9467 39.1079 3.61249
34.5236 40.6486 3.62635
33.4075 41.8419 3.49054
34.2964 43.4764 3.69908
35.2349 45.7203 3.83675
36.924 47.959 3.90554
38.7236 53.6437 0.00388844
36.7592 52.9319 2
34.4446 52.276 3.9978
34.4965 58.4939 0.00503099
36.3222 55.1613 0.00255307
33.2674 55.3647 2
30.6473 53.2619 3.99331
30.3326 57.7801 0.0155614
28.8114 55.278 2
27.0793 53.3698 3.95802
27.0214 56.7912 0.0329963
25.4526 55.0843 2
23.8005 53.3915 3.95605
20.7447 53.1188 3.95844
20.0501 55.7632 3.9621
21.9542 55.2769 2
23.9278 56.753 0.0406488
19.4812 57.8392 3.96456
20.2836 56.974 2
19.724 60.1539 3.97226
20.6767 58.7324 2
21.4149 57.3401 0.0406781
20.215 62.8367 3.97211
21.1823 61.1298 2
22.0191 59.5761 0.0241889
20.9409 65.7563 3.97779
21.9008 63.8236 2
22.7468 61.9971 0.0266162
23.6854 64.698 0.0239893
22.8378 66.7301 2
21.9138 68.872 3.98942
24.8102 67.5877 0.017071
24.0093 69.8044 2
23.1494 72.1454 4
26.1669 70.6035 0.00978085
25.446 73.0099 2
27.7943 73.7221 0
25.8617 9.38855 3.97944
27.0715 6.54505 3.98408
27.8209 8.65758 2
28.4899 3.64452 3.99164
29.1557 5.87869 2
29.8126 7.99939 0.0198066
30.1841 0.720592 4
30.7262 3.09816 2
31.2545 5.33363 0.0125973
32.6053 0.320817 2
32.9819 2.70175 0.00719143
35.0474 0.080333 0
37.5098 35.8878 3.63766
39.0566 35.8867 2
40.6301 35.8697 0.356502
24.7817 12.0875 3.97611
23.7631 14.3843 3.97512
28.5463 10.7026 0.0228713
26.6235 11.3963 2
29.2301 12.6505 2
27.2996 13.3853 3.97889
29.7926 14.2134 3.98136
35.9489 34.2952 3.59423
37.5278 34.2633 2
39.0813 34.2915 0.408052
37.5294 32.5122 0.441754
43.9084 29.9562 0.0994358
41.6248 30.0098 0.151937
39.3679 30.8615 0.331577
42.0825 28.5929 2
39.7468 29.2115 2
37.5256 30.5652 2
35.8478 32.603 2
39.8883 27.9023 3.88162
37.4869 29.0002 3.84171
35.6851 30.8805 3.67206
34.4228 32.8681 3.48274
30.9403 16.8578 3.98607
31.923 14.4894 2
34.098 12.9526 0.0265823
31.191 11.9997 0.0227118
42.7523 26.6736 0.0154142
40.786 23.5458 0.00386071
33.6143 15.9086 0.0171306
35.8478 17.5594 0.0188977
38.3975 20.4325 0.00651357
33.5478 17.4554 2
35.5882 20.163 2
40.2819 25.9299 2
38.0155 23.2348 2
32.8795 19.8416 3.9946
37.6531 25.5847 3.9691
35.2267 22.9301 4.00027
35.9269 37.49 3.62238
37.5061 37.4905 2
39.0991 37.4864 0.379815
39.7302 51.6373 -0.00298148
38.6651 48.3495 0.0592012
37.507 39.0993 0.358698
37.526 45.9923 0.151444
35.6595 44.1351 0.340902
35.9423 40.7114 0.405562
34.4022 42.1358 0.519001
37.6649 50.6838 2
35.962 39.0955 2
34.4948 40.6392 2
36.9078 48.0174 2
33.3737 41.868 2
34.2584 43.5364 2
35.2139 45.7717 2
35.559 49.8375 3.98685
34.4175 39.1032 3.64261
33.0469 40.77 3.50263
33.0946 42.4614 3.72786
33.4183 44.9589 3.83858
34.4527 47.1011 3.87784
36.7541 52.9451 0.00344522
34.4408 52.287 2
32.21 51.065 4.01348
33.2621 55.3549 0.00741709
30.651 53.2648 2
28.6714 51.4839 3.98906
28.809 55.2819 0.0136184
27.0814 53.3689 2
25.3707 51.6318 3.95394
25.4492 55.0824 0.0414568
23.8006 53.3966 2
22.3064 51.684 3.95128
19.5871 51.512 3.96107
19.136 54.2198 3.96127
20.7455 53.118 2
18.5291 56.6639 3.96332
20.0476 55.765 2
21.9559 55.2745 0.0402949
18.3911 59.0665 3.96695
19.4792 57.8406 2
20.2861 56.9719 0.0370855
18.6298 61.725 3.97201
19.7243 60.1562 2
20.6781 58.7308 0.0311575
19.1301 64.6664 3.97684
20.2155 62.8387 2
21.1814 61.1289 0.0256185
19.8881 67.8082 3.9876
20.9396 65.7558 2
21.9007 63.8207 0.0243333
22.8387 66.7301 0.0195591
21.9117 68.8709 2
20.9142 71.1327 4
24.0111 69.8049 0.00992045
23.1494 72.1455 2
25.446 73.0099 0
23.1038 12.8048 3.97726
23.9749 10.1781 3.97734
25.0251 7.31593 3.98284
25.8598 9.38695 2
26.2818 4.32866 3.99075
27.0701 6.54386 2
27.8225 8.65953 0.0198032
27.7943 1.27781 4
28.4881 3.64427 2
29.1567 5.88057 0.0144859
30.1841 0.720551 2
30.7275 3.0985 0.00744547
32.6053 0.320823 0
35.9345 35.8801 3.60403
37.5245 35.8969 2
39.0714 35.8886 0.386535
24.7786 12.082 2
23.7634 14.389 2
22.4954 15.0708 3.97945
25.3675 13.9281 3.97221
24.0486 15.6451 3.98451
26.6249 11.3988 0.0223461
29.2318 12.6527 0.0191039
27.2995 13.3831 2
29.7884 14.2104 2
28.3759 15.9832 3.98332
34.539 34.361 3.62276
35.9459 34.3012 2
37.5204 34.2519 0.378419
35.8473 32.6163 0.477775
37.5232 30.6232 0.299507
42.0514 28.6477 0.128847
39.7263 29.2666 0.159244
39.9236 27.8597 2
37.4842 28.9437 2
35.6686 30.8123 2
34.3919 32.8582 2
37.6147 27.6335 3.87875
35.2784 29.2852 3.83911
34.3059 31.5261 3.69831
33.4264 33.1587 3.48825
30.2262 19.4252 3.98294
30.9358 16.8468 2
31.9256 14.4995 0.0203493
40.2091 25.9442 0.0442125
38.0344 23.2753 0.00109357
33.552 17.4433 0.0185367
35.5726 20.1772 0.0055702
32.8789 19.864 2
35.2289 22.9125 2
37.7128 25.5609 2
32.3995 22.5764 3.99753
35.0997 25.5034 3.99113
34.3712 37.5079 3.65931
35.9289 37.4968 2
37.512 37.4906 0.342965
37.6778 50.6506 0.00381555
36.924 47.959 0.0944574
35.9467 39.1079 0.387509
35.2349 45.7203 0.163251
34.2964 43.4764 0.300917
34.5236 40.6486 0.373654
33.4075 41.8419 0.509462
35.5441 49.8484 2
34.4175 39.1 2
33.0431 40.7835 2
34.4401 47.1496 2
33.0529 42.5147 2
33.3921 45.002 2
33.3975 48.9141 3.97512
32.7182 39.2526 3.51096
32.1015 41.0403 3.68406
31.9313 43.6172 3.83401
32.6106 46.0823 3.88066
34.4446 52.276 0.00220309
32.2161 51.0774 2
30.1988 49.6428 4.00178
30.6473 53.2619 0.00669289
28.6725 51.4774 2
26.8752 49.8535 3.97202
27.0793 53.3698 0.0419847
25.3699 51.6335 2
23.7498 50.0427 3.96174
23.8005 53.3915 0.0439477
22.3065 51.6822 2
20.9081 50.1735 3.96466
18.3793 50.2118 3.96937
18.1484 52.6874 3.96357
19.586 51.5112 2
17.6027 55.2651 3.96229
19.1338 54.2197 2
20.7447 53.1188 0.0415592
17.1776 57.8271 3.96114
18.525 56.6652 2
20.0501 55.7632 0.0378985
17.1477 60.5081 3.96661
18.3907 59.0673 2
19.4812 57.8392 0.0354354
17.4122 63.452 3.97004
18.6304 61.7263 2
19.724 60.1539 0.0277376
17.9444 66.6159 3.98601
19.1294 64.6645 2
20.215 62.8367 0.0278851
18.75 69.9759 4
19.8859 67.8063 2
20.9409 65.7563 0.0222113
21.9138 68.872 0.0105769
20.9142 71.1327 2
23.1494 72.1454 0
21.5984 13.6316 3.97523
22.1943 11.0411 3.97399
23.1017 12.8096 2
23.0429 8.18269 3.98079
23.972 10.176 2
24.1195 5.14345 3.99007
25.0233 7.31512 2
25.8617 9.38855 0.0205576
25.446 1.99014 4
26.2794 4.329 2
27.0715 6.54505 0.0159234
27.7943 1.27778 2
28.4899 3.64452 0.0083636
30.1841 0.720592 0
34.4349 35.9081 3.64036
35.9443 35.8954 2
37.5098 35.8878 0.362339
21.3295 15.8784 3.98234
24.7817 12.0875 0.0238889
23.7631 14.3843 0.0248789
25.3666 13.9182 2
22.4969 15.0673 2
24.0519 15.6514 2
23.296 16.2784 3.97026
25.4052 16.1154 3.98309
27.2996 13.3853 0.02111
29.7926 14.2134 0.0186415
28.3714 15.9898 2
27.4681 18.8468 3.98212
33.0585 34.2382 3.50948
34.5101 34.3755 2
35.9489 34.2952 0.405774
34.4228 32.8681 0.517259
35.6851 30.8805 0.327944
37.4869 29.0002 0.15829
39.8883 27.9023 0.118381
37.5887 27.5952 2
33.3961 33.1353 2
35.2792 29.2222 2
34.2641 31.4611 2
35.1786 27.7325 3.89246
33.417 30.036 3.84003
33.1198 32.5368 3.72248
29.7114 22.0254 4.00437
30.2287 19.4289 2
30.9403 16.8578 0.0139328
37.6531 25.5847 0.0309003
35.2267 22.9301 -0.000270953
32.8795 19.8416 0.0053992
32.4068 22.5681 2
35.1306 25.4926 2
31.9673 25.8352 4.00657
32.5507 37.5066 3.55426
34.3838 37.5031 2
35.9269 37.49 0.377622
35.559 49.8375 0.0131536
34.4527 47.1011 0.122158
34.4175 39.1032 0.357388
33.4183 44.9589 0.161418
33.0946 42.4614 0.272145
33.0469 40.77 0.49737
33.3848 48.9146 2
32.7276 39.2582 2
32.0625 41.0801 2
32.575 46.1305 2
31.8865 43.6488 2
31.5429 47.7618 3.97935
31.3951 39.3666 3.68866
30.7865 41.8642 3.84226
30.9889 44.7181 3.89393
32.21 51.065 -0.0134839
30.2046 49.6706 2
28.3428 48.0285 3.96271
28.6714 51.4839 0.0109391
26.8743 49.8546 2
25.148 48.2997 3.96649
25.3707 51.6318 0.0460638
23.7503 50.0414 2
22.1873 48.6235 3.97101
22.3064 51.684 0.0487188
20.9062 50.1726 2
19.4894 48.9575 3.97336
17.259 49.2245 3.97452
17.0976 51.3062 3.96831
18.3818 50.2103 2
16.6089 53.7885 3.96492
18.147 52.6869 2
19.5871 51.512 0.03893
16.0682 56.4218 3.9625
17.6009 55.2656 2
19.136 54.2198 0.0387279
15.7631 59.1777 3.9652
17.1746 57.8286 2
18.5291 56.6639 0.0366843
15.7934 62.1067 3.96851
17.1486 60.5102 2
18.3911 59.0665 0.0330455
16.0914 65.2985 3.98416
17.4111 63.4566 2
18.6298 61.725 0.0279933
16.6661 68.6801 4
17.942 66.6141 2
19.1301 64.6664 0.0231563
18.75 69.9759 2
19.8881 67.8082 0.0123966
20.9142 71.1327 0
20.2329 14.6426 3.96961
21.5969 13.642 2
20.5354 12.0192 3.97491
21.1461 9.15487 3.97875
22.1914 11.0401 2
23.1038 12.8048 0.0227439
22.0187 6.08229 3.98968
23.0403 8.18159 2
23.9749 10.1781 0.0226636
23.1494 2.85457 4
24.1166 5.14428 2
25.0251 7.31593 0.0171596
25.446 1.99012 2
26.2818 4.32866 0.00924615
27.7943 1.27781 0
32.7095 35.7647 3.51776
34.4284 35.9086 2
35.9345 35.8801 0.395967
21.332 15.8718 2
20.3401 17.0063 3.97013
22.1282 16.6763 3.96778
25.3675 13.9281 0.0277908
22.4954 15.0708 0.0205461
24.0486 15.6451 0.0154863
25.4079 16.1067 2
23.2999 16.2768 2
24.2437 18.5462 3.96787
27.1452 21.6313 3.9946
28.3759 15.9832 0.0166753
27.4642 18.894 2
32.1385 33.9688 3.67931
33.0583 34.2208 2
34.539 34.361 0.37724
33.4264 33.1587 0.511754
34.3059 31.5261 0.301686
35.2784 29.2852 0.160894
37.6147 27.6335 0.121245
35.1826 27.6836 2
33.0458 32.4864 2
33.3886 29.9967 2
32.8605 28.3865 3.90178
31.9405 31.3872 3.82522
29.0941 24.5199 4.00011
29.7084 22.0394 2
30.2262 19.4252 0.0170604
35.0997 25.5034 0.00887143
32.3995 22.5764 0.00247108
31.9595 25.8077 2
30.0727 27.4849 3.97819
30.9803 37.4998 3.69361
32.5568 37.5055 2
34.3712 37.5079 0.340693
33.3975 48.9141 0.0248803
32.6106 46.0823 0.119335
32.7182 39.2526 0.489036
31.9313 43.6172 0.165985
32.1015 41.0403 0.315935
31.4961 47.7844 2
31.3227 39.3909 2
30.7483 41.8913 2
30.9445 44.7574 2
29.7595 46.3707 3.99272
29.9368 39.8171 3.8589
29.4711 42.9764 3.90073
30.1988 49.6428 -0.00178346
28.3371 48.0243 2
26.5523 46.4703 3.9829
26.8752 49.8535 0.0279807
25.1489 48.2979 2
23.4292 46.8887 3.97386
23.7498 50.0427 0.0382564
22.1857 48.6234 2
20.4885 47.468 3.97656
20.9081 50.1735 0.0353435
19.4902 48.9559 2
18.0867 48.059 3.977
16.4923 48.5843 3.97656
17.2604 49.2234 2
16.1674 50.0767 3.97265
15.6226 52.3348 3.96819
17.0992 51.3052 2
18.3793 50.2118 0.0306332
15.0151 54.9164 3.96369
16.6106 53.788 2
18.1484 52.6874 0.0364303
14.4874 57.7091 3.9622
16.0685 56.4221 2
17.6027 55.2651 0.0377136
14.2714 60.6704 3.9681
15.7653 59.1786 2
17.1776 57.8271 0.0388626
14.336 63.8557 3.97989
15.7938 62.1089 2
17.1477 60.5081 0.0333866
14.6715 67.2507 4
16.0885 65.2953 2
17.4122 63.452 0.0299578
16.6661 68.6801 2
17.9444 66.6159 0.0139909
18.75 69.9759 0
18.9524 15.8259 3.97591
20.2339 14.6398 2
18.9885 13.1405 3.9741
21.5984 13.6316 0.0247652
20.5339 12.0214 2
19.3463 10.2454 3.97649
19.9936 7.14732 3.98821
21.1428 9.15468 2
22.1943 11.0411 0.0260082
20.9142 3.86727 4
22.0151 6.08358 2
23.0429 8.18269 0.019213
23.1494 2.85451 2
24.1195 5.14345 0.00993199
25.446 1.99014 0
31.4186 35.6404 3.68459
32.715 35.7573 2
34.4349 35.9081 0.359642
21.3295 15.8784 0.0176619
22.131 16.6704 2
20.3423 17.0008 2
19.3242 18.4686 3.95657
21.82 17.9269 3.97929
25.4052 16.1154 0.0169126
23.296 16.2784 0.0297368
24.2362 18.5692 2
22.4025 19.9913 3.96712
24.7273 21.5055 3.98619
26.7114 23.8072 3.97981
27.1547 21.561 2
27.4681 18.8468 0.0178783
30.8414 33.1505 3.85018
32.1005 33.9182 2
33.0585 34.2382 0.49052
33.1198 32.5368 0.277518
33.417 30.036 0.159973
35.1786 27.7325 0.107542
32.8223 28.3578 2
31.8841 31.3472 2
30.6794 29.7749 3.92896
28.3351 26.6741 3.99651
29.0798 24.5264 2
29.7114 22.0254 -0.00436589
31.9673 25.8352 -0.00656592
30.065 27.462 2
29.4876 37.4993 3.85434
30.9219 37.4984 2
32.5507 37.5066 0.445742
31.5429 47.7618 0.0206462
30.9889 44.7181 0.106066
31.3951 39.3666 0.311342
30.7865 41.8642 0.157744
29.7641 46.3688 2
29.8661 39.8305 2
29.4405 43.0131 2
28.0204 44.6961 3.971
27.6973 40.5442 3.93422
28.3428 48.0285 0.0372927
26.5496 46.4677 2
24.7309 45.0046 3.9788
25.148 48.2997 0.0335108
23.4276 46.8885 2
21.507 45.7422 3.97787
22.1873 48.6235 0.0289868
20.4888 47.4668 2
18.8125 46.6086 3.97684
19.4894 48.9575 0.0266386
18.0874 48.0577 2
16.7266 47.6076 3.97657
16.4939 48.5833 2
15.5122 48.9278 3.9757
17.259 49.2245 0.0254805
16.1695 50.0757 2
14.7378 50.9099 3.97152
13.9889 53.3765 3.96625
15.624 52.3341 2
17.0976 51.3062 0.0316882
13.3138 56.1354 3.9624
15.0154 54.9163 2
16.6089 53.7885 0.0350844
12.857 59.1095 3.96697
14.491 57.7089 2
16.0682 56.4218 0.0374996
12.682 62.2972 3.97676
14.2728 60.6705 2
15.7631 59.1777 0.0348022
12.7746 65.6939 4
14.3336 63.8519 2
15.7934 62.1067 0.0314878
14.6714 67.2507 2
16.0914 65.2985 0.0158364
16.6661 68.6801 0
17.7066 17.2019 3.96428
18.9525 15.8236 2
17.5242 14.4102 3.96992
20.2329 14.6426 0.0303922
18.9877 13.1443 2
17.6425 11.4651 3.97378
20.5354 12.0192 0.0250861
19.3429 10.2467 2
18.0538 8.34037 3.98617
18.75 5.0241 4
19.9893 7.14954 2
21.1461 9.15487 0.0212453
20.9142 3.86727 2
22.0187 6.08229 0.0103189
23.1494 2.85457 0
29.9645 35.1987 3.85768
31.3497 35.617 2
32.7095 35.7647 0.482237
22.1282 16.6763 0.0322213
20.3401 17.0063 0.0298726
21.8191 17.9265 2
19.3208 18.4631 2
18.1516 20.0222 3.96168
20.9857 19.4626 3.96607
24.2437 18.5462 0.0321301
22.3967 19.9987 2
24.7355 21.489 2
22.5641 21.8357 3.98189
24.9847 23.2467 3.97308
25.9363 26.0522 3.97894
26.7097 23.7998 2
27.1452 21.6313 0.00539744
29.2307 32.4972 3.90156
30.7784 33.1151 2
32.1385 33.9688 0.320689
31.9405 31.3872 0.174777
32.8605 28.3865 0.0982186
30.6567 29.765 2
27.6801 29.2547 4.01449
28.3217 26.6844 2
29.0941 24.5199 -0.000108693
30.0727 27.4849 0.0218059
27.8298 37.3588 3.90512
29.4168 37.4912 2
30.9803 37.4998 0.306392
29.7595 46.3707 0.0072799
29.4711 42.9764 0.0992687
29.9368 39.8171 0.141099
28.0145 44.7527 2
27.6676 40.5374 2
26.0983 43.0429 3.98882
24.9623 39.4456 3.97262
26.5523 46.4703 0.0171045
24.7207 45.0067 2
22.6405 43.7821 3.97683
23.4292 46.8887 0.0261359
21.5038 45.7434 2
19.5727 44.8465 3.97649
20.4885 47.468 0.0234381
18.8125 46.6091 2
17.0794 46.1047 3.97645
18.0867 48.059 0.0229955
16.7279 47.6067 2
15.2745 47.5818 3.97625
16.4923 48.5843 0.0234353
15.5142 48.9269 2
14.0467 49.4759 3.97397
16.1674 50.0767 0.0273465
14.7391 50.9092 2
13.06 51.8209 3.96849
12.2186 54.4957 3.96369
13.9895 53.3761 2
15.6226 52.3348 0.0318088
11.5436 57.4471 3.96593
13.3142 56.1354 2
15.0151 54.9164 0.0363137
11.1369 60.6231 3.97485
12.8585 59.1089 2
14.4874 57.7091 0.0378038
10.9835 64.0165 4
12.6802 62.2927 2
14.2714 60.6704 0.0318971
12.7745 65.694 2
14.336 63.8557 0.0201143
14.6715 67.2507 0
16.4994 18.7082 3.96146
17.7061 17.1997 2
16.1189 15.8178 3.96669
18.9524 15.8259 0.0240932
17.5234 14.4069 2
16.0264 12.8319 3.97182
18.9885 13.1405 0.0259015
17.6407 11.4701 2
16.2047 9.66452 3.98414
19.3463 10.2454 0.0235131
18.0492 8.3444 2
16.6661 6.31991 4
18.75 5.02404 2
19.9936 7.14732 0.0117924
20.9142 3.86727 0
28.3581 34.8421 3.90098
29.886 35.1672 2
31.4186 35.6404 0.315407
16.8838 21.4581 3.96699
21.82 17.9269 0.0207063
19.3242 18.4686 0.0434299
20.981 19.4595 2
18.1486 20.0194 2
19.9595 21.6746 3.97114
22.4025 19.9913 0.0328779
24.7273 21.5055 0.0138132
22.5596 21.8421 2
24.9794 23.2476 2
23.2543 24.716 3.97226
25.2284 28.6505 3.98322
25.9287 26.0559 2
26.7114 23.8072 0.0201946
27.0831 31.8533 3.98193
29.1968 32.4767 2
30.8414 33.1505 0.149824
30.6794 29.7749 0.0710381
27.6916 29.2342 2
28.3351 26.6741 0.00349164
25.6558 36.8521 3.97011
27.8129 37.3653 2
29.4876 37.4993 0.145663
28.0204 44.6961 0.0289954
27.6973 40.5442 0.0657784
26.076 43.0636 2
24.9398 39.4502 2
23.8483 41.7924 3.9824
22.6824 38.5231 3.9789
24.7309 45.0046 0.0211953
22.6388 43.782 2
20.4454 42.7954 3.9756
21.507 45.7422 0.0221259
19.5731 44.8472 2
17.4834 44.2833 3.97589
18.8125 46.6086 0.0231567
17.0803 46.1048 2
15.2344 46.0038 3.97602
16.7266 47.6076 0.0234309
15.2762 47.581 2
13.5755 47.9414 3.97553
15.5122 48.9278 0.0242979
14.0483 49.4751 2
12.2903 50.2033 3.9704
14.7378 50.9099 0.0284779
13.0609 51.8203 2
11.2164 52.8087 3.96503
10.3347 55.7037 3.96548
12.2189 54.4954 2
13.9889 53.3765 0.0337522
9.70362 58.8461 3.97439
11.5444 57.4465 2
13.3138 56.1354 0.0376034
9.30605 62.2254 4
11.1354 60.6189 2
12.857 59.1095 0.0330304
10.9835 64.0165 2
12.682 62.2972 0.0232353
12.7746 65.6939 0
15.2853 20.247 3.96349
16.4991 18.7075 2
14.7746 17.3379 3.96364
17.7066 17.2019 0.0357188
16.1202 15.8161 2
14.4899 14.3197 3.96774
17.5242 14.4102 0.0300811
16.0254 12.8275 2
14.4473 11.1164 3.98169
17.6425 11.4651 0.0262198
16.2006 9.66978 2
14.6715 7.74927 4
18.0538 8.34037 0.0138311
16.6661 6.31988 2
18.75 5.0241 0
26.3187 34.3482 3.97706
28.34 34.8496 2
29.9645 35.1987 0.142319
18.1299 22.4207 3.97378
15.784 23.0023 3.97038
16.885 21.4575 2
20.9857 19.4626 0.0339275
18.1516 20.0222 0.03832
19.9575 21.6723 2
20.0688 24.5109 3.97211
22.5641 21.8357 0.0181076
24.9847 23.2467 0.0269203
23.2507 24.7166 2
22.5914 27.9776 3.97165
24.6475 31.3397 3.98132
25.2333 28.6435 2
25.9363 26.0522 0.0210615
27.0591 31.8167 2
29.2307 32.4972 0.0984395
27.6801 29.2547 -0.0144878
23.4091 36.2901 3.98326
25.6387 36.8511 2
27.8298 37.3588 0.0948797
26.0983 43.0429 0.0111829
24.9623 39.4456 0.0273811
23.8294 41.7915 2
22.6712 38.5206 2
21.537 40.6102 3.97499
20.8952 37.8031 3.97719
22.6405 43.7821 0.0231725
20.4441 42.7966 2
17.9603 42.0301 3.97581
19.5727 44.8465 0.0235055
17.4835 44.2838 2
15.2825 44.1225 3.97574
17.0794 46.1047 0.0235492
15.2353 46.0036 2
13.2737 46.2311 3.97584
15.2745 47.5818 0.0237543
13.5772 47.9407 2
11.6796 48.5034 3.9722
14.0467 49.4759 0.0260298
12.2917 50.2026 2
10.3473 51.0551 3.96616
13.06 51.8209 0.0315116
11.2171 52.808 2
9.24347 53.885 3.96526
8.3872 56.9801 3.97521
10.3355 55.7028 2
12.2186 54.4957 0.0363129
7.74927 60.3285 4
9.70245 58.8418 2
11.5436 57.4471 0.0340679
9.306 62.2255 2
11.1369 60.6231 0.02515
10.9835 64.0165 0
14.117 21.8107 3.96662
15.2834 20.2461 2
13.4989 18.9347 3.96336
16.4994 18.7082 0.0385414
14.7756 17.3366 2
13.0347 15.9064 3.96986
16.1189 15.8178 0.0333124
14.4908 14.3178 2
12.785 12.6919 3.9788
16.0264 12.8319 0.0281806
14.4444 11.123 2
12.7746 9.30605 4
16.2047 9.66452 0.0158566
14.6715 7.74924 2
16.6661 6.31991 0
23.9936 33.8793 3.98182
26.2979 34.3438 2
28.3581 34.8421 0.0990172
18.0002 24.1528 3.9721
18.1372 22.421 2
14.6215 24.5332 3.97244
15.7863 23.0022 2
16.8838 21.4581 0.0330079
19.5866 27.3475 3.97426
19.9595 21.6746 0.0288622
20.0652 24.5103 2
21.9583 30.8094 3.97477
23.2543 24.716 0.0277368
22.5913 27.9793 2
24.6171 31.3351 2
25.2284 28.6505 0.0167808
27.0831 31.8533 0.0180744
21.019 35.9653 3.97645
23.4096 36.2904 2
25.6558 36.8521 0.0298886
23.8483 41.7924 0.0176007
22.6824 38.5231 0.0210962
21.5407 40.6116 2
20.8957 37.8012 2
18.7172 38.9909 3.97701
20.4454 42.7954 0.0244021
17.9594 42.0304 2
15.2684 41.8686 3.97618
17.4834 44.2833 0.0241056
15.2824 44.1226 2
13.0387 44.3345 3.97602
15.2344 46.0038 0.0239751
13.2752 46.2304 2
11.1954 46.6918 3.974
13.5755 47.9414 0.0244708
11.6814 48.5026 2
9.61789 49.2171 3.96709
12.2903 50.2033 0.0295957
10.3478 51.0545 2
8.27609 51.9995 3.96508
11.2164 52.8087 0.0349746
9.2442 53.8839 2
7.19623 55.0316 3.97625
6.31991 58.3339 4
8.38632 56.976 2
10.3347 55.7037 0.0345151
7.74924 60.3285 2
9.70362 58.8461 0.0256097
9.30605 62.2254 0
13.4885 25.4302 3.97552
13.0191 23.3384 3.96961
14.1159 21.8102 2
12.3082 20.5825 3.96397
15.2853 20.247 0.0365095
13.4996 18.9336 2
11.6671 17.5803 3.96801
14.7746 17.3379 0.0363612
13.0375 15.9057 2
11.2232 14.3781 3.97503
14.4899 14.3197 0.0322615
12.7827 12.6973 2
10.9835 10.9835 4
14.4473 11.1164 0.018315
12.7745 9.306 2
14.6715 7.74927 0
21.372 33.4874 3.97615
23.9967 33.866 2
26.3187 34.3482 0.0229414
16.3324 26.5074 3.97381
18.0045 24.1532 2
18.1299 22.4207 0.0262198
14.6209 24.5333 2
15.784 23.0023 0.0296222
18.9877 30.3072 3.97478
19.5871 27.3476 2
20.0688 24.5109 0.0278902
21.9737 30.8099 2
22.5914 27.9776 0.0283459
24.6475 31.3397 0.0186814
18.326 35.9962 3.97757
21.021 35.9656 2
23.4091 36.2901 0.0167424
21.537 40.6102 0.0250078
20.8952 37.8031 0.0228127
18.7152 38.9899 2
14.7659 39.1622 3.97704
17.9603 42.0301 0.0241881
15.2677 41.8683 2
12.7355 42.2383 3.97648
15.2825 44.1225 0.0242617
13.0398 44.3341 2
10.7807 44.767 3.97567
13.2737 46.2311 0.0241649
11.1976 46.6911 2
9.00403 47.2989 3.96816
11.6796 48.5034 0.0277958
9.61841 49.2165 2
7.44253 50.0334 3.9651
10.3473 51.0551 0.0338386
8.27656 51.9984 2
6.13684 53.0072 3.97666
9.24347 53.885 0.0347446
7.19571 55.0284 2
5.0241 56.25 4
6.31988 58.3339 2
8.3872 56.9801 0.0247923
7.74927 60.3285 0
13.7658 26.8862 3.97561
12.13 24.8388 3.97213
13.4873 25.4302 2
11.2348 22.266 3.96551
13.0197 23.3386 2
14.117 21.8107 0.0333766
12.3091 20.582 2
10.3997 19.3292 3.96681
13.4989 18.9347 0.0366431
11.6696 17.5801 2
9.76383 16.1612 3.97465
13.0347 15.9064 0.0301437
11.2216 14.3835 2
9.30607 12.7746 4
12.785 12.6919 0.0211969
10.9835 10.9835 2
12.7746 9.30605 0
18.4854 33.1839 3.97627
21.3713 33.4905 2
23.9936 33.8793 0.0181787
15.9546 29.7395 3.97561
16.3319 26.5076 2
18.0002 24.1528 0.0279021
14.6215 24.5332 0.0275569
18.9861 30.3073 2
19.5866 27.3475 0.0257411
21.9583 30.8094 0.0252256
15.3974 36.0362 3.97721
18.3252 35.9967 2
21.019 35.9653 0.023546
12.9658 37.8294 3.97712
18.7172 38.9909 0.0229943
14.7654 39.1621 2
12.2375 40.121 3.97687
15.2684 41.8686 0.0238179
12.7363 42.2378 2
10.3815 42.7514 3.97636
13.0387 44.3345 0.0239787
10.7828 44.7662 2
8.4825 45.3042 3.96886
11.1954 46.6918 0.0259995
9.00434 47.2983 2
6.7333 47.9988 3.96522
9.61789 49.2171 0.0329089
7.4429 50.0324 2
5.21351 50.9108 3.97648
8.27609 51.9995 0.034922
6.13663 53.005 2
3.86727 54.0858 4
7.19623 55.0316 0.0237513
5.02404 56.25 2
6.31991 58.3339 0
13.2498 29.099 3.97527
11.577 26.5349 3.97283
13.7647 26.8863 2
10.2917 23.9942 3.96721
12.1317 24.8393 2
13.4885 25.4302 0.0244818
9.25232 21.1431 3.96585
11.2357 22.266 2
13.0191 23.3384 0.0303925
12.3082 20.5825 0.0360297
10.4018 19.3292 2
8.41984 18.0317 3.9748
11.6671 17.5803 0.0319854
9.76277 16.1663 2
7.74928 14.6715 4
11.2232 14.3781 0.0249694
9.30602 12.7745 2
10.9835 10.9835 0
14.9435 32.9196 3.97651
18.484 33.1831 2
21.372 33.4874 0.0238468
15.9555 29.7398 2
16.3324 26.5074 0.0261855
18.9877 30.3072 0.0252159
13.2646 36.2214 3.97678
15.3964 36.0361 2
18.326 35.9962 0.0224326
12.966 37.8292 2
11.5678 38.3057 3.97719
14.7659 39.1622 0.022964
12.239 40.1207 2
9.9612 40.7382 3.97697
12.7355 42.2383 0.0235232
10.385 42.7506 2
8.02985 43.2572 3.96936
10.7807 44.767 0.0243349
8.48428 45.3036 2
6.13897 45.904 3.96554
9.00403 47.2989 0.0318362
6.7337 47.9979 2
4.42482 48.7514 3.97606
7.44253 50.0334 0.0349031
5.21351 50.9094 2
2.85457 51.8506 4
6.13684 53.0072 0.0233428
3.86727 54.0858 2
5.0241 56.25 0
12.3804 31.3038 3.97605
10.9903 28.4555 3.97384
13.2501 29.0993 2
9.50902 25.8209 3.96795
11.5786 26.5353 2
13.7658 26.8862 0.0243921
8.23921 23.0254 3.96551
10.2923 23.9943 2
12.13 24.8388 0.0278684
7.20218 19.9803 3.97598
9.25592 21.144 2
11.2348 22.266 0.0344856
10.3997 19.3292 0.0331938
8.41937 18.0361 2
6.31992 16.6661 4
9.76383 16.1612 0.0253484
7.74926 14.6714 2
9.30607 12.7746 0
12.419 34.3224 3.9765
14.9431 32.9203 2
18.4854 33.1839 0.0237296
15.9546 29.7395 0.0243898
11.1056 36.6188 3.97691
13.2646 36.2214 2
15.3974 36.0362 0.0227867
12.9658 37.8294 0.0228756
11.5697 38.3053 2
9.5432 38.8174 3.97696
12.2375 40.121 0.0231329
9.96437 40.7376 2
7.63672 41.2032 3.96992
10.3815 42.7514 0.0236378
8.03002 43.2568 2
5.65028 43.7671 3.96616
8.4825 45.3042 0.0311386
6.13927 45.9033 2
3.77019 46.5369 3.97603
6.7333 47.9988 0.0347813
4.42508 48.7506 2
1.99014 49.554 4
5.21351 50.9108 0.0235214
2.85451 51.8506 2
3.86727 54.0858 0
11.1947 32.9509 3.97664
10.2952 30.4139 3.97499
12.3814 31.3044 2
8.81776 27.7514 3.9685
10.9922 28.456 2
13.2498 29.099 0.0247346
7.36366 24.9833 3.96529
9.50945 25.8212 2
11.577 26.5349 0.0271683
6.11907 22.0026 3.97678
8.24044 23.0262 2
10.2917 23.9942 0.0327922
5.02411 18.75 4
7.20188 19.9834 2
9.25232 21.1431 0.0341514
8.41984 18.0317 0.0251989
6.3199 16.6661 2
7.74928 14.6715 0
10.6942 35.0151 3.97672
12.4192 34.3227 2
14.9435 32.9196 0.0234868
9.20215 36.9871 3.9769
11.1077 36.6188 2
13.2646 36.2214 0.0232195
11.5678 38.3057 0.022812
9.54634 38.8172 2
7.31165 39.1784 3.97042
9.9612 40.7382 0.0230289
7.63776 41.2028 2
5.26506 41.6132 3.96656
8.02985 43.2572 0.0306387
5.65056 43.7665 2
3.24767 44.2816 3.97657
6.13897 45.904 0.0344552
3.77054 46.5362 2
1.27781 47.2057 4
4.42482 48.7514 0.0239448
1.99012 49.554 2
2.85457 51.8506 0
10.3298 33.902 3.97651
9.57406 32.177 3.97584
11.1969 32.9514 2
8.15925 29.7107 3.96906
10.2976 30.4144 2
12.3804 31.3038 0.0239542
6.60657 27.0092 3.96547
8.81833 27.7517 2
10.9903 28.4555 0.0261643
5.17432 24.0948 3.97672
7.36415 24.984 2
9.50902 25.8209 0.0320526
3.86728 20.9142 4
6.11912 22.0045 2
8.23921 23.0254 0.0344938
5.02406 18.75 2
7.20218 19.9803 0.0240225
6.31992 16.6661 0
9.01723 35.2884 3.977
10.6966 35.0153 2
12.419 34.3224 0.0235035
7.08759 37.2063 3.97044
9.20527 36.9871 2
11.1056 36.6188 0.0230893
9.5432 38.8174 0.02304
7.31321 39.1782 2
4.99237 39.467 3.96705
7.63672 41.2032 0.0300809
5.26574 41.6127 2
2.85794 42.0019 3.97692
5.65028 43.7671 0.033844
3.24787 44.2811 2
0.720592 44.8159 4
3.77019 46.5369 0.0239742
1.27778 47.2057 2
1.99014 49.554 0
9.05788 33.7128 3.9767
10.3328 33.9023 2
7.5894 31.6202 3.96963
9.57688 32.1775 2
11.1947 32.9509 0.0233577
5.951 29.0704 3.96592
8.15971 29.711 2
10.2952 30.4139 0.0250122
4.36171 26.2473 3.97645
6.60693 27.0098 2
8.81776 27.7514 0.0314961
2.85458 23.1494 4
5.17455 24.0957 2
7.36366 24.9833 0.0347057
3.86728 20.9142 2
6.11907 22.0026 0.0232184
5.02411 18.75 0
7.03497 35.3099 3.97028
9.02057 35.2885 2
10.6942 35.0151 0.0232842
4.84247 37.3399 3.96739
7.08949 37.2061 2
9.20215 36.9871 0.0230999
7.31165 39.1784 0.0295815
4.99306 39.4668 2
2.60586 39.7135 3.9772
5.26506 41.6132 0.0334397
2.85846 42.0016 2
0.320823 42.3947 4
3.24767 44.2816 0.0234327
0.720551 44.8159 2
1.27781 47.2057 0
7.19848 33.4683 3.96998
9.06102 33.7131 2
10.3298 33.902 0.023486
5.42121 31.1343 3.96665
7.59036 31.6204 2
9.57406 32.177 0.0241643
3.68311 28.4434 3.97644
5.95136 29.0709 2
8.15925 29.7107 0.0309448
1.99015 25.446 4
4.362 26.2477 2
6.60657 27.0092 0.0345283
2.85453 23.1494 2
5.17432 24.0948 0.0232835
3.86728 20.9142 0
4.85679 35.2521 3.96725
7.0361 35.3099 2
9.01723 35.2884 0.022999
2.49729 37.4282 3.97802
4.84264 37.34 2
7.08759 37.2063 0.0295598
4.99237 39.467 0.0329494
2.6065 39.7138 2
0.080333 39.9526 4
2.85794 42.0019 0.0230781
0.320817 42.3947 2
0.720592 44.8159 0
5.05024 33.1909 3.96706
7.19969 33.4684 2
9.05788 33.7128 0.023298
3.14715 30.6662 3.97692
5.42157 31.1349 2
7.5894 31.6202 0.0303732
1.27793 27.7943 4
3.68353 28.4437 2
5.951 29.0704 0.0340805
1.99013 25.446 2
4.36171 26.2473 0.0235549
2.85458 23.1494 0
2.54939 35.1589 3.97773
4.85757 35.2524 2
7.03497 35.3099 0.02972
0 37.5 4
2.49744 37.4286 2
4.84247 37.3399 0.0326121
2.60586 39.7135 0.0227992
0.0802903 39.9526 2
0.320823 42.3947 0
2.76706 32.9058 3.97779
5.05055 33.1913 2
7.19848 33.4683 0.0300157
0.721173 30.1842 4
3.14759 30.6667 2
5.42121 31.1343 0.0333548
1.27779 27.7943 2
3.68311 28.4434 0.0235556
1.99015 25.446 0
0.0806499 35.0474 4
2.55012 35.1594 2
4.85679 35.2521 0.0327465
0 37.5 2
2.49729 37.4282 0.0219791
0.080333 39.9526 0
0.32156 32.6054 4
2.76729 32.9064 2
5.05024 33.1909 0.0329357
0.72056 30.1841 2
3.14715 30.6662 0.0230805
1.27793 27.7943 0
0.0802889 35.0474 2
2.54939 35.1589 0.0222733
0 37.5 0
0.320817 32.6053 2
2.76706 32.9058 0.0222108
0.721173 30.1842 0
0.0806499 35.0474 0
0.32156 32.6054 0
CELLS 1910 17190
8 18 6 25 56 2 0 5 16
8 57 23 6 18 17 4 0 2
8 78 36 9 29 31 11 1 7
8 31 11 1 7 79 37 10 30
8 110 57 18 50 48 17 2 14
8 50 18 56 111 14 2 16 49
8 116 62 22 55 52 20 3 15
8 56 25 67 118 16 5 24 53
8 119 63 23 57 54 21 4 17
8 55 22 63 119 15 3 21 54
8 58 26 68 121 18 6 25 56
8 122 65 26 58 57 23 6 18
8 73 31 7 27 142 79 30 71
8 143 78 29 72 73 31 7 27
8 83 147 76 34 32 74 28 8
8 84 148 78 36 33 75 29 9
8 76 34 8 28 148 84 33 75
8 37 79 150 86 10 30 77 35
8 151 87 36 78 80 38 11 31
8 80 38 11 31 152 88 37 79
8 175 100 42 94 96 44 12 40
8 44 96 176 101 12 40 95 43
8 101 176 98 46 43 95 41 13
8 46 98 178 103 13 41 97 45
8 178 103 45 97 147 83 32 74
8 189 116 55 109 106 52 15 47
8 111 56 118 191 49 16 53 107
8 192 119 57 110 108 54 17 48
8 109 55 119 192 47 15 54 108
8 194 122 58 112 110 57 18 50
8 112 58 121 195 50 18 56 111
8 115 61 19 51 197 124 59 113
8 115 61 125 198 51 19 60 114
8 198 125 62 116 114 60 20 52
8 200 127 64 120 116 62 22 55
8 118 67 132 202 53 24 66 117
8 121 68 133 203 56 25 67 118
8 120 64 128 204 55 22 63 119
8 204 128 65 122 119 63 23 57
8 206 134 68 121 123 69 26 58
8 123 69 26 58 207 131 65 122
8 226 147 74 138 140 76 28 70
8 229 148 75 139 143 78 29 72
8 140 76 28 70 229 148 75 139
8 142 79 30 71 231 150 77 141
8 144 80 31 73 232 152 79 142
8 233 151 78 143 144 80 31 73
8 150 86 35 77 235 154 81 145
8 235 154 81 145 146 82 39 91
8 146 82 39 91 236 155 90 165
8 238 157 83 147 149 85 34 76
8 239 158 84 148 151 87 36 78
8 149 85 34 76 239 158 84 148
8 152 88 37 79 241 160 86 150
8 242 161 87 151 153 89 38 80
8 153 89 38 80 243 162 88 152
8 171 98 41 92 265 178 97 169
8 265 178 97 169 226 147 74 138
8 172 96 40 93 266 176 95 170
8 266 176 95 170 171 98 41 92
8 269 175 94 173 172 96 40 93
8 271 180 99 174 175 100 42 94
8 197 124 59 113 271 180 99 174
8 272 181 100 175 177 102 44 96
8 273 182 101 176 179 104 46 98
8 177 102 44 96 273 182 101 176
8 179 104 46 98 275 184 103 178
8 275 184 103 178 238 157 83 147
8 188 115 51 105 283 197 113 186
8 188 115 198 284 105 51 114 187
8 284 198 116 189 187 114 52 106
8 286 200 120 193 189 116 55 109
8 191 118 202 288 107 53 117 190
8 195 121 203 289 111 56 118 191
8 193 120 204 290 109 55 119 192
8 290 204 122 194 192 119 57 110
8 196 123 58 112 292 207 122 194
8 293 206 121 195 196 123 58 112
8 199 126 61 115 297 211 124 197
8 298 212 127 200 198 125 62 116
8 199 126 212 298 115 61 125 198
8 205 129 64 120 300 214 127 200
8 301 217 130 201 202 132 66 117
8 209 136 168 264 301 217 130 201
8 302 219 132 202 203 133 67 118
8 303 220 133 203 206 134 68 121
8 205 129 215 304 120 64 128 204
8 304 215 131 207 204 128 65 122
8 306 221 134 206 208 135 69 123
8 208 135 69 123 307 218 131 207
8 210 137 167 263 309 223 136 209
8 328 238 147 226 230 149 76 140
8 228 146 91 166 329 236 165 260
8 231 150 77 141 330 235 145 227
8 330 235 145 227 228 146 91 166
8 332 239 148 229 233 151 78 143
8 230 149 76 140 332 239 148 229
8 232 152 79 142 334 241 150 231
8 234 153 80 144 335 243 152 232
8 336 242 151 233 234 153 80 144
8 236 155 90 165 338 245 164 259
8 241 160 86 150 339 246 154 235
8 339 246 154 235 237 156 82 146
8 237 156 82 146 340 247 155 236
8 342 249 157 238 240 159 85 149
8 343 250 158 239 242 161 87 151
8 240 159 85 149 343 250 158 239
8 243 162 88 152 345 252 160 241
8 244 163 253 346 153 89 161 242
8 244 163 89 153 347 254 162 243
8 311 224 261 371 210 137 167 263
8 263 167 262 372 209 136 168 264
8 267 179 98 171 375 275 178 265
8 375 275 178 265 328 238 147 226
8 376 273 176 266 267 179 98 171
8 268 177 96 172 376 273 176 266
8 379 272 175 269 268 177 96 172
8 380 271 174 270 269 175 94 173
8 283 197 113 186 380 271 174 270
8 381 277 180 271 272 181 100 175
8 297 211 124 197 381 277 180 271
8 382 278 181 272 274 183 102 177
8 274 183 102 177 383 279 182 273
8 383 279 182 273 276 185 104 179
8 385 281 184 275 342 249 157 238
8 276 185 104 179 385 281 184 275
8 285 199 115 188 393 297 197 283
8 394 298 200 286 284 198 116 189
8 285 199 298 394 188 115 198 284
8 291 205 120 193 396 300 200 286
8 397 301 201 287 288 202 117 190
8 295 209 264 374 397 301 201 287
8 398 302 202 288 289 203 118 191
8 399 303 203 289 293 206 121 195
8 291 205 304 400 193 120 204 290
8 400 304 207 292 290 204 122 194
8 294 208 123 196 402 307 207 292
8 403 306 206 293 294 208 123 196
8 296 210 263 373 405 309 209 295
8 408 312 213 299 297 211 126 199
8 299 213 313 409 199 126 212 298
8 409 313 214 300 298 212 127 200
8 305 216 129 205 411 315 214 300
8 412 318 217 301 302 219 132 202
8 309 223 136 209 412 318 217 301
8 413 320 219 302 303 220 133 203
8 306 221 321 414 206 134 220 303
8 307 218 131 207 415 316 215 304
8 305 216 316 415 205 129 215 304
8 417 322 221 306 308 222 135 208
8 308 222 135 208 418 319 218 307
8 310 225 137 210 420 325 223 309
8 423 326 224 311 310 225 137 210
8 329 236 165 260 441 338 259 368
8 442 342 238 328 333 240 149 230
8 331 237 146 228 443 340 236 329
8 334 241 150 231 444 339 235 330
8 444 339 235 330 331 237 146 228
8 446 343 239 332 336 242 151 233
8 333 240 149 230 446 343 239 332
8 335 243 152 232 448 345 241 334
8 337 244 153 234 449 347 243 335
8 337 244 346 450 234 153 242 336
8 338 245 164 259 452 349 258 367
8 340 247 155 236 453 350 245 338
8 345 252 160 241 454 351 246 339
8 454 351 246 339 341 248 156 237
8 341 248 156 237 455 352 247 340
8 240 159 251 344 342 249 354 457
8 242 161 253 346 343 250 355 458
8 343 250 355 458 240 159 251 344
8 347 254 162 243 460 357 252 345
8 348 255 358 461 244 163 253 346
8 348 255 163 244 462 359 254 347
8 473 360 257 365 363 256 364 482
8 452 349 258 367 365 257 366 485
8 422 324 369 488 311 224 261 371
8 371 261 370 490 263 167 262 372
8 407 311 371 491 296 210 263 373
8 373 263 372 492 295 209 264 374
8 493 385 275 375 442 342 238 328
8 377 276 179 267 493 385 275 375
8 378 274 177 268 494 383 273 376
8 494 383 273 376 377 276 179 267
8 497 382 272 379 378 274 177 268
8 498 381 271 380 379 272 175 269
8 393 297 197 283 498 381 271 380
8 499 387 277 381 382 278 181 272
8 408 312 211 297 499 387 277 381
8 500 388 278 382 384 280 183 274
8 501 389 279 383 386 282 185 276
8 384 280 183 274 501 389 279 383
8 386 282 185 276 503 391 281 385
8 503 391 281 385 457 354 249 342
8 511 408 299 395 393 297 199 285
8 395 299 409 512 285 199 298 394
8 512 409 300 396 394 298 200 286
8 401 305 205 291 514 411 300 396
8 515 412 301 397 398 302 202 288
8 405 309 209 295 515 412 301 397
8 516 413 302 398 399 303 203 289
8 403 306 414 517 293 206 303 399
8 402 307 207 292 518 415 304 400
8 401 305 415 518 291 205 304 400
8 404 308 208 294 520 418 307 402
8 521 417 306 403 404 308 208 294
8 406 310 210 296 523 420 309 405
8 526 423 311 407 406 310 210 296
8 410 314 213 299 527 424 312 408
8 528 425 315 411 409 313 214 300
8 410 314 425 528 299 213 313 409
8 416 317 216 305 530 427 315 411
8 531 430 318 412 413 320 219 302
8 420 325 223 309 531 430 318 412
8 532 432 320 413 414 321 220 303
8 417 322 433 533 306 221 321 414
8 418 319 218 307 534 428 316 415
8 416 317 428 534 305 216 316 415
8 419 323 434 536 308 222 322 417
8 419 323 222 308 537 431 319 418
8 421 327 225 310 539 438 325 420
8 421 327 439 541 310 225 326 423
8 543 437 324 422 423 326 224 311
8 441 338 259 368 559 452 367 486
8 443 340 236 329 560 453 338 441
8 333 240 344 447 442 342 457 561
8 445 341 237 331 562 455 340 443
8 448 345 241 334 563 454 339 444
8 563 454 339 444 445 341 237 331
8 336 242 346 450 446 343 458 565
8 446 343 458 565 333 240 344 447
8 449 347 243 335 567 460 345 448
8 451 348 244 337 568 462 347 449
8 451 348 461 569 337 244 346 450
8 570 463 349 452 473 360 257 365
8 453 350 245 338 570 463 349 452
8 455 352 247 340 571 464 350 453
8 460 357 252 345 572 465 351 454
8 572 465 351 454 456 353 248 341
8 456 353 248 341 573 466 352 455
8 344 251 356 459 457 354 468 575
8 458 355 469 576 344 251 356 459
8 346 253 358 461 458 355 469 576
8 462 359 254 347 578 471 357 460
8 348 255 359 462 461 358 472 579
8 591 474 360 473 475 361 256 363
8 475 361 256 363 594 477 362 479
8 363 256 364 482 479 362 480 603
8 590 473 365 484 481 363 482 605
8 482 364 257 365 606 483 366 485
8 559 452 367 486 484 365 485 607
8 542 436 487 609 422 324 369 488
8 525 422 488 611 407 311 371 491
8 488 369 489 612 371 261 370 490
8 491 371 490 613 373 263 372 492
8 495 386 276 377 614 503 385 493
8 614 503 385 493 561 457 342 442
8 615 501 383 494 495 386 276 377
8 496 384 274 378 615 501 383 494
8 618 500 382 497 496 384 274 378
8 619 499 381 498 497 382 272 379
8 511 408 297 393 619 499 381 498
8 620 505 387 499 500 388 278 382
8 527 424 312 408 620 505 387 499
8 502 390 506 621 384 280 388 500
8 622 507 389 501 504 392 282 386
8 502 390 280 384 622 507 389 501
8 504 392 282 386 624 509 391 503
8 624 509 391 503 575 468 354 457
8 513 410 299 395 630 527 408 511
8 631 528 411 514 512 409 300 396
8 513 410 528 631 395 299 409 512
8 519 416 305 401 633 530 411 514
8 634 531 412 515 516 413 302 398
8 523 420 309 405 634 531 412 515
8 635 532 413 516 517 414 303 399
8 521 417 533 636 403 306 414 517
8 520 418 307 402 637 534 415 518
8 519 416 534 637 401 305 415 518
8 522 419 308 404 639 537 418 520
8 522 419 536 640 404 308 417 521
8 524 421 310 406 642 539 420 523
8 524 421 541 644 406 310 423 526
8 646 543 422 525 526 423 311 407
8 529 426 314 410 647 544 424 527
8 528 425 545 648 411 315 427 530
8 529 426 545 648 410 314 425 528
8 535 429 317 416 649 546 427 530
8 650 548 430 531 532 432 320 413
8 539 438 325 420 650 548 430 531
8 533 433 550 651 414 321 432 532
8 536 434 551 652 417 322 433 533
8 537 431 319 418 653 547 428 534
8 535 429 547 653 416 317 428 534
8 538 435 552 654 419 323 434 536
8 538 435 323 419 655 549 431 537
8 540 440 327 421 657 556 438 539
8 540 440 557 659 421 327 439 541
8 541 439 555 660 423 326 437 543
8 661 554 436 542 543 437 324 422
8 676 570 452 559 590 473 365 484
8 560 453 338 441 676 570 452 559
8 562 455 340 443 677 571 453 560
8 447 344 459 566 561 457 575 678
8 564 456 341 445 679 573 455 562
8 567 460 345 448 680 572 454 563
8 680 572 454 563 564 456 341 445
8 565 458 576 682 447 344 459 566
8 450 346 461 569 565 458 576 682
8 568 462 347 449 684 578 460 567
8 451 348 462 568 569 461 579 685
8 686 580 463 570 591 474 360 473
8 571 464 350 453 686 580 463 570
8 573 466 352 455 687 581 464 571
8 572 465 582 688 460 357 471 578
8 574 467 582 688 456 353 465 572
8 574 467 353 456 689 583 466 573
8 459 356 470 577 575 468 585 691
8 576 469 586 692 459 356 470 577
8 461 358 472 579 576 469 586 692
8 462 359 471 578 579 472 588 694
8 704 591 473 590 593 475 363 481
8 595 476 592 705 475 361 474 591
8 593 475 363 481 707 594 479 602
8 594 477 362 479 709 598 478 600
8 595 476 361 475 711 597 477 594
8 479 362 480 603 600 478 601 720
8 481 363 482 605 602 479 603 722
8 603 480 364 482 723 604 483 606
8 605 482 365 484 724 606 485 607
8 656 553 608 726 542 436 487 609
8 645 542 609 728 525 422 488 611
8 609 487 610 729 488 369 489 612
8 611 488 612 730 491 371 490 613
8 616 504 386 495 731 624 503 614
8 731 624 503 614 678 575 457 561
8 732 622 501 615 616 504 386 495
8 617 502 384 496 732 622 501 615
8 617 502 621 735 496 384 500 618
8 736 620 499 619 618 500 382 497
8 630 527 408 511 736 620 499 619
8 621 506 626 737 500 388 505 620
8 647 544 424 527 737 626 505 620
8 623 508 627 738 502 390 506 621
8 623 508 390 502 739 628 507 622
8 625 510 628 739 504 392 507 622
8 740 629 509 624 691 585 468 575
8 625 510 392 504 740 629 509 624
8 632 529 410 513 744 647 527 630
8 631 528 648 745 514 411 530 633
8 632 529 648 745 513 410 528 631
8 638 535 416 519 746 649 530 633
8 747 650 531 634 635 532 413 516
8 642 539 420 523 747 650 531 634
8 636 533 651 748 517 414 532 635
8 640 536 652 749 521 417 533 636
8 639 537 418 520 750 653 534 637
8 638 535 653 750 519 416 534 637
8 641 538 419 522 751 655 537 639
8 641 538 654 752 522 419 536 640
8 643 540 421 524 753 657 539 642
8 643 540 659 755 524 421 541 644
8 644 541 660 757 526 423 543 646
8 758 661 542 645 646 543 422 525
8 529 426 544 647 648 545 662 759
8 530 427 545 648 649 546 663 760
8 535 429 546 649 653 547 664 761
8 762 666 548 650 651 550 432 532
8 657 556 438 539 762 666 548 650
8 652 551 668 763 533 433 550 651
8 654 552 669 764 536 434 551 652
8 655 549 431 537 765 665 547 653
8 538 435 549 655 654 552 667 766
8 661 554 671 768 542 436 553 656
8 658 558 440 540 769 674 556 657
8 658 558 675 770 540 440 557 659
8 659 557 673 771 541 439 555 660
8 660 555 672 772 543 437 554 661
8 788 686 570 676 704 591 473 590
8 677 571 453 560 788 686 570 676
8 679 573 455 562 789 687 571 677
8 566 459 577 683 678 575 691 790
8 681 574 456 564 791 689 573 679
8 680 572 688 792 567 460 578 684
8 681 574 688 792 564 456 572 680
8 682 576 692 794 566 459 577 683
8 569 461 579 685 682 576 692 794
8 568 462 578 684 685 579 694 796
8 687 581 464 571 798 696 580 686
8 798 696 580 686 705 592 474 591
8 689 583 466 573 799 697 581 687
8 688 582 698 800 578 471 588 694
8 690 584 698 800 574 467 582 688
8 690 584 467 574 801 699 583 689
8 693 587 701 803 577 470 585 691
8 693 587 470 577 804 702 586 692
8 695 589 702 804 579 472 586 692
8 695 589 472 579 805 703 588 694
8 708 595 705 813 593 475 591 704
8 710 596 706 814 595 476 592 705
8 707 594 479 602 816 709 600 719
8 708 595 475 593 817 711 594 707
8 709 598 478 600 819 715 599 717
8 711 597 477 594 820 714 598 709
8 710 596 476 595 822 713 597 711
8 600 478 601 720 717 599 718 832
8 602 479 603 722 719 600 720 834
8 720 601 480 603 835 721 604 723
8 722 603 482 605 836 723 606 724
8 767 670 725 839 656 553 608 726
8 756 656 726 841 645 542 609 728
8 726 608 727 842 609 487 610 729
8 728 609 729 843 611 488 612 730
8 844 740 624 731 790 691 575 678
8 733 625 504 616 844 740 624 731
8 734 623 502 617 845 739 622 732
8 733 625 739 845 616 504 622 732
8 734 623 738 846 617 502 621 735
8 735 621 737 847 618 500 620 736
8 744 647 527 630 847 737 620 736
8 621 506 627 738 737 626 741 848
8 647 544 626 737 759 662 741 848
8 623 508 628 739 738 627 742 849
8 740 629 585 691 850 743 700 802
8 625 510 629 740 739 628 743 850
8 632 529 647 744 745 648 759 854
8 633 530 648 745 746 649 760 855
8 638 535 649 746 750 653 761 856
8 857 762 650 747 748 651 532 635
8 753 657 539 642 857 762 650 747
8 749 652 763 858 636 533 651 748
8 752 654 764 859 640 536 652 749
8 751 655 537 639 860 765 653 750
8 641 538 655 751 752 654 766 861
8 754 658 540 643 862 769 657 753
8 754 658 770 863 643 540 659 755
8 755 659 771 864 644 541 660 757
8 758 661 768 866 645 542 656 756
8 757 660 772 867 646 543 661 758
8 759 662 773 868 648 545 663 760
8 649 546 663 760 761 664 774 871
8 765 665 547 653 872 775 664 761
8 873 777 666 762 763 668 550 651
8 769 674 556 657 873 777 666 762
8 764 669 779 874 652 551 668 763
8 654 552 667 766 764 669 778 875
8 655 549 665 765 766 667 776 876
8 768 671 782 877 656 553 670 767
8 772 672 783 878 661 554 671 768
8 658 558 674 769 770 675 786 879
8 659 557 675 770 771 673 785 881
8 882 784 672 772 771 673 555 660
8 789 687 571 677 897 798 686 788
8 897 798 686 788 813 705 591 704
8 791 689 573 679 898 799 687 789
8 795 693 803 900 683 577 691 790
8 793 690 574 681 901 801 689 791
8 792 688 800 902 684 578 694 796
8 793 690 800 902 681 574 688 792
8 795 693 577 683 903 804 692 794
8 797 695 804 903 685 579 692 794
8 797 695 579 685 904 805 694 796
8 905 806 697 799 798 696 581 687
8 814 706 806 905 705 592 696 798
8 689 583 697 799 801 699 808 907
8 800 698 809 908 694 588 703 805
8 690 584 699 801 800 698 809 908
8 803 701 810 909 691 585 700 802
8 693 587 702 804 803 701 811 910
8 695 589 703 805 804 702 812 911
8 818 710 814 919 708 595 705 813
8 821 712 815 920 710 596 706 814
8 816 709 600 719 922 819 717 831
8 817 711 594 707 923 820 709 816
8 818 710 595 708 924 822 711 817
8 819 715 599 717 926 827 716 829
8 820 714 598 709 927 826 715 819
8 929 825 713 822 820 714 597 711
8 821 712 596 710 930 824 713 822
8 717 599 718 832 829 716 830 942
8 719 600 720 834 831 717 832 944
8 832 718 601 720 945 833 721 835
8 834 720 603 722 946 835 723 836
8 869 780 838 950 767 670 725 839
8 865 767 839 952 756 656 726 841
8 839 725 840 953 726 608 727 842
8 841 726 842 954 728 609 729 843
8 844 740 691 790 955 850 802 899
8 733 625 740 844 845 739 850 955
8 734 623 739 845 846 738 849 956
8 735 621 738 846 847 737 848 957
8 744 647 737 847 854 759 848 957
8 738 627 742 849 848 741 851 958
8 848 741 851 958 759 662 773 868
8 850 743 700 802 959 852 807 906
8 849 742 628 739 959 852 743 850
8 854 759 868 965 745 648 760 855
8 746 649 760 855 856 761 871 966
8 860 765 653 750 967 872 761 856
8 968 873 762 857 858 763 651 748
8 862 769 657 753 968 873 762 857
8 859 764 874 969 749 652 763 858
8 752 654 766 861 859 764 875 970
8 751 655 765 860 861 766 876 971
8 754 658 769 862 863 770 879 972
8 755 659 770 863 864 771 881 974
8 976 882 772 867 864 771 660 757
8 866 768 877 977 756 656 767 865
8 867 772 878 978 758 661 768 866
8 760 663 773 868 871 774 883 980
8 870 781 837 948 982 890 780 869
8 982 890 780 869 877 782 670 767
8 761 664 774 871 872 775 884 984
8 876 776 665 765 985 885 775 872
8 873 777 668 763 986 887 779 874
8 769 674 777 873 879 786 887 986
8 764 669 778 875 874 779 888 987
8 766 667 776 876 875 778 886 988
8 878 783 892 989 768 671 782 877
8 878 783 672 772 990 893 784 882
8 880 787 675 770 991 896 786 879
8 880 787 895 992 770 675 785 881
8 881 785 894 993 771 673 784 882
8 1006 905 799 898 897 798 687 789
8 919 814 905 1006 813 705 798 897
8 791 689 799 898 901 801 907 1007
8 900 803 909 1009 790 691 802 899
8 795 693 804 903 900 803 910 1010
8 902 800 908 1011 796 694 805 904
8 793 690 801 901 902 800 908 1011
8 797 695 805 904 903 804 911 1012
8 799 697 806 905 907 808 912 1013
8 920 815 912 1013 814 706 806 905
8 802 700 810 909 906 807 913 1014
8 801 699 808 907 908 809 914 1015
8 805 703 809 908 911 812 915 1016
8 803 701 811 910 909 810 916 1017
8 911 812 917 1018 804 702 811 910
8 925 821 920 1030 818 710 814 919
8 928 823 921 1031 821 712 815 920
8 922 819 717 831 1033 926 829 941
8 923 820 709 816 1034 927 819 922
8 1035 929 822 924 923 820 711 817
8 925 821 710 818 1036 930 822 924
8 1038 933 825 929 927 826 714 820
8 926 827 716 829 1039 935 828 939
8 927 826 715 819 1040 934 827 926
8 928 823 712 821 1041 931 824 930
8 1042 932 824 930 929 825 713 822
8 829 716 830 942 939 828 940 1058
8 831 717 832 944 941 829 942 1060
8 942 830 718 832 1061 943 833 945
8 944 832 720 834 1062 945 835 946
8 981 889 947 1064 870 781 837 948
8 948 837 949 1067 869 780 838 950
8 975 869 950 1069 865 767 839 952
8 950 838 951 1070 839 725 840 953
8 952 839 953 1071 841 726 842 954
8 955 850 802 899 1072 959 906 1008
8 956 849 739 845 1072 959 850 955
8 846 738 849 956 957 848 958 1073
8 957 848 958 1073 854 759 868 965
8 849 742 852 959 958 851 961 1076
8 960 853 961 1076 906 807 852 959
8 958 851 961 1076 868 773 883 980
8 960 853 807 906 1077 963 913 1014
8 855 760 868 965 966 871 980 1085
8 856 761 871 966 967 872 984 1086
8 971 876 765 860 1087 985 872 967
8 968 873 763 858 1088 986 874 969
8 862 769 873 968 972 879 986 1088
8 859 764 875 970 969 874 987 1089
8 861 766 876 971 970 875 988 1090
8 973 880 770 863 1091 991 879 972
8 973 880 992 1092 863 770 881 974
8 974 881 993 1093 864 771 882 976
8 979 870 948 1066 1094 982 869 975
8 1094 982 869 975 977 877 767 865
8 978 878 772 867 1095 990 882 976
8 978 878 989 1096 866 768 877 977
8 871 774 883 980 984 884 994 1099
8 983 891 999 1100 870 781 889 981
8 1101 1000 890 982 989 892 782 877
8 983 891 781 870 1101 1000 890 982
8 872 775 884 984 985 885 995 1103
8 876 776 885 985 988 886 996 1104
8 986 887 779 874 1105 998 888 987
8 879 786 887 986 991 896 998 1105
8 875 778 886 988 987 888 997 1106
8 990 893 1002 1107 878 783 892 989
8 1108 1003 893 990 993 894 784 882
8 880 787 896 991 992 895 1005 1109
8 993 894 785 881 1110 1004 895 992
8 898 799 905 1006 1007 907 1013 1120
8 1030 920 1013 1120 919 814 905 1006
8 901 801 907 1007 1011 908 1015 1121
8 899 802 909 1009 1008 906 1014 1122
8 900 803 910 1010 1009 909 1017 1123
8 1012 911 1018 1124 903 804 910 1010
8 904 805 908 1011 1012 911 1016 1125
8 1013 912 1020 1127 907 808 914 1015
8 1031 921 1020 1127 920 815 912 1013
8 1019 918 962 1075 1128 1021 913 1014
8 1128 1021 913 1014 1017 916 810 909
8 1015 914 1022 1129 908 809 915 1016
8 1016 915 1023 1130 911 812 917 1018
8 1018 917 1024 1131 910 811 916 1017
8 1037 928 1031 1148 925 821 920 1030
8 928 823 931 1041 1031 921 1032 1149
8 1033 926 829 941 1151 1039 939 1057
8 1034 927 819 922 1152 1040 926 1033
8 1153 1038 929 1035 1034 927 820 923
8 1154 1042 930 1036 1035 929 822 924
8 1037 928 821 925 1155 1041 930 1036
8 1039 935 828 939 1156 1047 938 1055
8 1157 1043 932 1042 1038 933 825 929
8 1038 933 826 927 1158 1045 934 1040
8 1040 934 827 926 1159 1046 935 1039
8 930 824 932 1042 1041 931 1044 1160
8 1051 936 1048 1165 1175 1052 937 1053
8 1156 1047 938 1055 1053 937 1054 1178
8 939 828 940 1058 1055 938 1056 1181
8 941 829 942 1060 1057 939 1058 1183
8 942 830 943 1061 1058 940 1059 1184
8 1060 942 832 944 1185 1061 945 1062
8 1082 964 1063 1188 981 889 947 1064
8 1097 981 1064 1190 979 870 948 1066
8 1064 947 1065 1191 948 837 949 1067
8 1066 948 1067 1193 975 869 950 1069
8 1067 949 1068 1194 950 838 951 1070
8 1069 950 1070 1195 952 839 953 1071
8 956 849 959 1072 1073 958 1076 1197
8 1074 960 1076 1197 1008 906 959 1072
8 1073 958 1076 1197 965 868 980 1085
8 1074 960 906 1008 1198 1077 1014 1122
8 1133 1026 1079 1199 1019 918 962 1075
8 1077 963 913 1014 1200 1080 962 1075
8 960 853 963 1077 1076 961 1078 1201
8 980 883 961 1076 1099 994 1078 1201
8 1210 1083 964 1082 1100 999 889 981
8 966 871 980 1085 1086 984 1099 1215
8 967 872 984 1086 1087 985 1103 1216
8 971 876 985 1087 1090 988 1104 1217
8 1088 986 874 969 1218 1105 987 1089
8 972 879 986 1088 1091 991 1105 1218
8 970 875 988 1090 1089 987 1106 1219
8 973 880 991 1091 1092 992 1109 1220
8 1093 993 881 974 1221 1110 992 1092
8 1222 1108 990 1095 1093 993 882 976
8 1223 1101 982 1094 1096 989 877 977
8 1098 983 870 979 1223 1101 982 1094
8 1095 990 1107 1224 978 878 989 1096
8 1098 983 1100 1225 979 870 981 1097
8 984 884 994 1099 1103 995 1111 1227
8 1102 1001 1115 1228 983 891 999 1100
8 1101 1000 892 989 1229 1116 1002 1107
8 1102 1001 891 983 1229 1116 1000 1101
8 985 885 995 1103 1104 996 1112 1230
8 988 886 996 1104 1106 997 1113 1231
8 1105 998 888 987 1232 1114 997 1106
8 991 896 998 1105 1109 1005 1114 1232
8 1108 1003 1117 1233 990 893 1002 1107
8 1108 1003 894 993 1233 1117 1004 1110
8 992 895 1005 1109 1110 1004 1118 1234
8 1120 1013 1127 1244 1007 907 1015 1121
8 1148 1031 1127 1244 1030 920 1013 1120
8 1121 1015 1129 1245 1011 908 1016 1125
8 1126 1019 1075 1196 1246 1128 1014 1122
8 1246 1128 1014 1122 1123 1017 909 1009
8 1124 1018 1131 1247 1010 910 1017 1123
8 1125 1016 1130 1248 1012 911 1018 1124
8 1127 1020 1137 1254 1015 914 1022 1129
8 1031 921 1032 1149 1127 1020 1137 1254
8 1134 1027 918 1019 1257 1140 1021 1128
8 1257 1140 1021 1128 1131 1024 916 1017
8 1129 1022 1141 1258 1016 915 1023 1130
8 1130 1023 1142 1259 1018 917 1024 1131
8 1261 1144 1025 1132 1133 1026 1079 1199
8 1255 1138 1025 1132 1135 1028 1144 1261
8 1133 1026 918 1019 1262 1145 1027 1134
8 1136 1029 1139 1256 1263 1146 1028 1135
8 1037 928 1041 1155 1148 1031 1149 1275
8 1041 931 1044 1160 1149 1032 1150 1276
8 1151 1039 939 1057 1278 1156 1055 1180
8 1152 1040 926 1033 1279 1159 1039 1151
8 1153 1038 927 1034 1280 1158 1040 1152
8 1281 1157 1042 1154 1153 1038 929 1035
8 1036 930 1042 1154 1155 1041 1160 1282
8 1283 1164 1046 1159 1156 1047 935 1039
8 1165 1048 1164 1283 1053 937 1047 1156
8 1157 1043 933 1038 1284 1161 1045 1158
8 1157 1043 1161 1284 1042 932 1044 1160
8 1040 934 1046 1159 1158 1045 1163 1285
8 1166 1049 1167 1292 1051 936 1048 1165
8 1166 1049 936 1051 1293 1168 1050 1172
8 1051 936 1052 1175 1172 1050 1173 1306
8 1174 1051 1165 1290 1308 1175 1053 1177
8 1053 937 1054 1178 1175 1052 1176 1309
8 1278 1156 1055 1180 1177 1053 1178 1311
8 1055 938 1056 1181 1178 1054 1179 1312
8 1057 939 1058 1183 1180 1055 1181 1314
8 1058 940 1059 1184 1181 1056 1182 1315
8 1060 942 1061 1185 1183 1058 1184 1316
8 1208 1081 1187 1321 1082 964 1063 1188
8 1209 1082 1188 1322 1097 981 1064 1190
8 1188 1063 1189 1323 1064 947 1065 1191
8 1190 1064 1191 1325 1066 948 1067 1193
8 1191 1065 1192 1326 1067 949 1068 1194
8 1067 1193 1069 950 1194 1327 1195 1070
8 1250 1133 1199 1330 1126 1019 1075 1196
8 1198 1077 1014 1122 1331 1200 1075 1196
8 1074 960 1077 1198 1197 1076 1201 1332
8 1085 980 1076 1197 1215 1099 1201 1332
8 1199 1079 1203 1333 1075 962 1080 1200
8 1132 1025 1119 1243 1199 1079 1203 1333
8 1201 1078 963 1077 1334 1202 1080 1200
8 1099 994 1078 1201 1227 1111 1202 1334
8 1343 1207 1081 1208 1210 1083 964 1082
8 1214 1084 1186 1319 1343 1207 1081 1208
8 1345 1210 1082 1209 1225 1100 981 1097
8 1346 1211 1083 1210 1228 1115 999 1100
8 1086 984 1099 1215 1216 1103 1227 1352
8 1087 985 1103 1216 1217 1104 1230 1353
8 1090 988 1104 1217 1219 1106 1231 1354
8 1218 1105 987 1089 1355 1232 1106 1219
8 1091 991 1105 1218 1220 1109 1232 1355
8 1092 992 1109 1220 1221 1110 1234 1356
8 1222 1108 1233 1357 1095 990 1107 1224
8 1222 1108 993 1093 1357 1233 1110 1221
8 1223 1101 989 1096 1358 1229 1107 1224
8 1226 1102 983 1098 1358 1229 1101 1223
8 1226 1102 1228 1359 1098 983 1100 1225
8 1103 995 1111 1227 1230 1112 1235 1360
8 1107 1002 1117 1233 1229 1116 1240 1362
8 1102 1001 1116 1229 1228 1115 1240 1362
8 1104 996 1112 1230 1231 1113 1236 1363
8 1364 1237 1114 1232 1231 1113 997 1106
8 1109 1005 1114 1232 1234 1118 1238 1365
8 1110 1004 1118 1234 1233 1117 1241 1366
8 1242 1374 1255 1138 1119 1243 1132 1025
8 1244 1127 1254 1376 1121 1015 1129 1245
8 1148 1031 1149 1275 1244 1127 1254 1376
8 1245 1129 1258 1377 1125 1016 1130 1248
8 1251 1134 1019 1126 1378 1257 1128 1246
8 1378 1257 1128 1246 1247 1131 1017 1123
8 1248 1130 1259 1379 1124 1018 1131 1247
8 1261 1381 1250 1133 1132 1249 1330 1199
8 1255 1380 1252 1135 1132 1249 1381 1261
8 1250 1133 1019 1126 1382 1262 1134 1251
8 1253 1136 1256 1385 1384 1263 1135 1252
8 1254 1137 1265 1387 1129 1022 1141 1258
8 1149 1032 1150 1276 1254 1137 1265 1387
8 1028 1135 1255 1138 1139 1256 1388 1266
8 1136 1029 1147 1264 1256 1139 1267 1389
8 1390 1268 1140 1257 1259 1142 1024 1131
8 1260 1143 1027 1134 1390 1268 1140 1257
8 1258 1141 1269 1391 1130 1023 1142 1259
8 1262 1145 1027 1134 1393 1271 1143 1260
8 1261 1144 1026 1133 1394 1272 1145 1262
8 1135 1028 1144 1261 1263 1146 1272 1394
8 1136 1029 1146 1263 1264 1147 1273 1395
8 1155 1041 1160 1282 1275 1149 1276 1405
8 1276 1150 1044 1160 1406 1277 1162 1286
8 1408 1283 1159 1279 1278 1156 1039 1151
8 1290 1165 1283 1408 1177 1053 1156 1278
8 1152 1040 1159 1279 1280 1158 1285 1409
8 1281 1157 1038 1153 1410 1284 1158 1280
8 1281 1157 1284 1410 1154 1042 1160 1282
8 1159 1046 1164 1283 1285 1163 1289 1412
8 1292 1167 1289 1412 1165 1048 1164 1283
8 1158 1045 1163 1285 1284 1161 1288 1413
8 1284 1161 1288 1413 1160 1044 1162 1286
8 1291 1166 1292 1418 1174 1051 1165 1290
8 1291 1166 1051 1174 1419 1293 1172 1305
8 1294 1169 1296 1421 1166 1049 1167 1292
8 1293 1168 1050 1172 1422 1295 1171 1303
8 1294 1169 1049 1166 1423 1297 1168 1293
8 1422 1295 1171 1303 1301 1170 1302 1435
8 1172 1050 1173 1306 1303 1171 1304 1438
8 1174 1051 1175 1308 1305 1172 1306 1440
8 1175 1052 1176 1309 1306 1173 1307 1441
8 1177 1053 1178 1311 1308 1175 1309 1443
8 1178 1054 1179 1312 1309 1176 1310 1444
8 1180 1055 1181 1314 1311 1178 1312 1446
8 1056 1181 1312 1179 1182 1315 1447 1313
8 1183 1058 1184 1316 1314 1181 1315 1448
8 1319 1186 1084 1214 1451 1317 1213 1350
8 1319 1186 1318 1453 1208 1081 1187 1321
8 1321 1187 1320 1456 1188 1063 1189 1323
8 1344 1208 1321 1457 1209 1082 1188 1322
8 1322 1188 1323 1458 1190 1064 1191 1325
8 1323 1189 1324 1459 1191 1065 1192 1326
8 1191 1325 1193 1067 1326 1460 1327 1194
8 1242 1374 1243 1119 1328 1462 1335 1204
8 1330 1199 1333 1465 1196 1075 1200 1331
8 1132 1249 1330 1199 1243 1375 1465 1333
8 1332 1201 1077 1198 1466 1334 1200 1331
8 1215 1099 1201 1332 1352 1227 1334 1466
8 1119 1243 1333 1203 1204 1335 1470 1338
8 1333 1203 1338 1470 1200 1080 1202 1334
8 1227 1111 1202 1334 1360 1235 1338 1470
8 1328 1462 1335 1204 1205 1336 1471 1339
8 1337 1206 1340 1472 1464 1329 1205 1336
8 1346 1211 1342 1479 1210 1083 1207 1343
8 1346 1211 1115 1228 1479 1342 1239 1361
8 1348 1212 1084 1214 1479 1342 1207 1343
8 1480 1343 1208 1344 1345 1210 1082 1209
8 1351 1214 1319 1454 1480 1343 1208 1344
8 1481 1346 1210 1345 1359 1228 1100 1225
8 1348 1212 1347 1483 1214 1084 1213 1350
8 1216 1103 1227 1352 1353 1230 1360 1488
8 1217 1104 1230 1353 1354 1231 1363 1489
8 1490 1364 1232 1355 1354 1231 1106 1219
8 1220 1109 1232 1355 1356 1234 1365 1491
8 1221 1110 1234 1356 1357 1233 1366 1492
8 1224 1107 1233 1357 1358 1229 1362 1493
8 1226 1102 1229 1358 1359 1228 1362 1493
8 1230 1112 1235 1360 1363 1236 1367 1496
8 1361 1239 1115 1228 1497 1371 1240 1362
8 1366 1241 1372 1498 1233 1117 1240 1362
8 1364 1237 1113 1231 1499 1368 1236 1363
8 1364 1237 1368 1499 1232 1114 1238 1365
8 1234 1118 1238 1365 1366 1241 1369 1500
8 1507 1373 1242 1374 1388 1266 1138 1255
8 1508 1374 1243 1375 1380 1255 1132 1249
8 1376 1254 1387 1509 1245 1129 1258 1377
8 1275 1149 1276 1405 1376 1254 1387 1509
8 1377 1258 1391 1510 1248 1130 1259 1379
8 1511 1390 1257 1378 1379 1259 1131 1247
8 1383 1260 1134 1251 1511 1390 1257 1378
8 1252 1135 1256 1385 1380 1255 1388 1512
8 1261 1381 1513 1394 1133 1250 1382 1262
8 1135 1252 1384 1263 1261 1381 1513 1394
8 1382 1262 1134 1251 1514 1393 1260 1383
8 1253 1136 1263 1384 1386 1264 1395 1516
8 1253 1136 1264 1386 1385 1256 1389 1517
8 1387 1265 1397 1519 1258 1141 1269 1391
8 1276 1150 1277 1406 1387 1265 1397 1519
8 1256 1139 1267 1389 1388 1266 1398 1520
8 1264 1147 1274 1396 1389 1267 1399 1521
8 1392 1270 1143 1260 1522 1400 1268 1390
8 1390 1268 1142 1259 1522 1400 1269 1391
8 1392 1270 1401 1523 1260 1143 1271 1393
8 1272 1394 1524 1402 1145 1262 1393 1271
8 1395 1273 1146 1263 1524 1402 1272 1394
8 1273 1395 1264 1147 1403 1526 1396 1274
8 1405 1276 1160 1282 1534 1406 1286 1411
8 1414 1287 1407 1535 1286 1162 1277 1406
8 1279 1159 1283 1408 1409 1285 1412 1537
8 1418 1292 1412 1537 1290 1165 1283 1408
8 1280 1158 1285 1409 1410 1284 1413 1538
8 1410 1284 1413 1538 1282 1160 1286 1411
8 1285 1163 1289 1412 1413 1288 1417 1540
8 1421 1296 1417 1540 1292 1167 1289 1412
8 1414 1287 1162 1286 1541 1416 1288 1413
8 1420 1294 1421 1545 1291 1166 1292 1418
8 1419 1293 1172 1305 1546 1422 1303 1437
8 1420 1294 1166 1291 1547 1423 1293 1419
8 1294 1169 1297 1423 1421 1296 1425 1548
8 1423 1297 1168 1293 1549 1424 1295 1422
8 1301 1170 1298 1427 1422 1295 1424 1549
8 1432 1300 1428 1554 1301 1170 1298 1427
8 1431 1299 1428 1554 1560 1430 1300 1432
8 1563 1433 1300 1432 1435 1302 1170 1301
8 1546 1422 1303 1437 1434 1301 1435 1565
8 1303 1171 1304 1438 1435 1302 1436 1566
8 1305 1172 1306 1440 1437 1303 1438 1568
8 1306 1173 1307 1441 1438 1304 1439 1569
8 1308 1175 1309 1443 1440 1306 1441 1571
8 1309 1176 1310 1444 1441 1307 1442 1572
8 1311 1178 1312 1446 1443 1309 1444 1574
8 1179 1312 1444 1310 1313 1447 1575 1445
8 1314 1181 1315 1448 1446 1312 1447 1576
8 1350 1213 1349 1486 1451 1317 1449 1579
8 1451 1317 1450 1581 1319 1186 1318 1453
8 1454 1319 1214 1351 1582 1451 1350 1487
8 1453 1318 1452 1584 1321 1187 1320 1456
8 1454 1319 1453 1585 1344 1208 1321 1457
8 1456 1320 1455 1586 1323 1189 1324 1459
8 1457 1321 1456 1587 1322 1188 1323 1458
8 1458 1323 1459 1588 1325 1191 1326 1460
8 1205 1336 1464 1329 1328 1462 1590 1461
8 1507 1373 1461 1590 1374 1242 1328 1462
8 1508 1374 1462 1591 1375 1243 1335 1467
8 1337 1206 1329 1464 1473 1341 1463 1594
8 1375 1243 1335 1467 1465 1333 1470 1596
8 1465 1333 1470 1596 1331 1200 1334 1466
8 1352 1227 1334 1466 1488 1360 1470 1596
8 1591 1462 1336 1468 1467 1335 1471 1597
8 1469 1337 1472 1598 1595 1464 1336 1468
8 1471 1339 1474 1600 1335 1204 1338 1470
8 1600 1474 1367 1496 1470 1338 1235 1360
8 1336 1205 1340 1472 1471 1339 1475 1601
8 1337 1206 1341 1473 1472 1340 1476 1602
8 1495 1370 1478 1609 1361 1239 1342 1479
8 1348 1212 1342 1479 1483 1347 1478 1609
8 1481 1346 1479 1610 1345 1210 1343 1480
8 1481 1346 1228 1359 1610 1479 1361 1494
8 1484 1348 1214 1351 1610 1479 1343 1480
8 1483 1347 1482 1612 1350 1213 1349 1486
8 1484 1348 1483 1613 1351 1214 1350 1487
8 1353 1230 1360 1488 1489 1363 1496 1616
8 1490 1364 1231 1354 1617 1499 1363 1489
8 1490 1364 1499 1617 1355 1232 1365 1491
8 1356 1234 1365 1491 1492 1366 1500 1619
8 1492 1366 1498 1620 1357 1233 1362 1493
8 1494 1361 1228 1359 1621 1497 1362 1493
8 1495 1370 1239 1361 1622 1504 1371 1497
8 1363 1236 1367 1496 1499 1368 1501 1623
8 1497 1371 1240 1362 1624 1505 1372 1498
8 1625 1503 1372 1498 1500 1369 1241 1366
8 1365 1238 1368 1499 1500 1369 1502 1626
8 1520 1398 1506 1633 1388 1266 1373 1507
8 1634 1507 1374 1508 1512 1388 1255 1380
8 1509 1387 1519 1635 1377 1258 1391 1510
8 1405 1276 1406 1534 1509 1387 1519 1635
8 1515 1392 1260 1383 1636 1522 1390 1511
8 1511 1390 1259 1379 1636 1522 1391 1510
8 1385 1256 1389 1517 1512 1388 1520 1637
8 1513 1394 1262 1382 1638 1524 1393 1514
8 1395 1516 1638 1524 1263 1384 1513 1394
8 1515 1392 1523 1639 1383 1260 1393 1514
8 1516 1395 1526 1640 1386 1264 1396 1518
8 1386 1264 1396 1518 1517 1389 1521 1641
8 1519 1397 1527 1643 1391 1269 1400 1522
8 1535 1407 1527 1643 1406 1277 1397 1519
8 1389 1267 1399 1521 1520 1398 1528 1644
8 1645 1529 1399 1521 1525 1404 1274 1396
8 1392 1270 1400 1522 1523 1401 1531 1646
8 1524 1402 1271 1393 1648 1532 1401 1523
8 1403 1526 1648 1532 1273 1395 1524 1402
8 1525 1404 1274 1396 1649 1533 1403 1526
8 1539 1414 1535 1657 1411 1286 1406 1534
8 1542 1415 1536 1658 1414 1287 1407 1535
8 1409 1285 1412 1537 1538 1413 1540 1660
8 1545 1421 1540 1660 1418 1292 1412 1537
8 1539 1414 1286 1411 1661 1541 1413 1538
8 1540 1417 1544 1663 1413 1288 1416 1541
8 1421 1296 1425 1548 1540 1417 1544 1663
8 1542 1415 1287 1414 1664 1543 1416 1541
8 1420 1294 1423 1547 1545 1421 1548 1666
8 1547 1423 1293 1419 1667 1549 1422 1546
8 1434 1301 1427 1553 1546 1422 1549 1667
8 1423 1297 1424 1549 1548 1425 1550 1668
8 1551 1426 1550 1668 1427 1298 1424 1549
8 1551 1426 1298 1427 1671 1552 1428 1554
8 1562 1432 1554 1674 1434 1301 1427 1553
8 1431 1299 1429 1558 1554 1428 1555 1675
8 1431 1299 1430 1560 1558 1429 1557 1680
8 1560 1430 1300 1432 1683 1559 1433 1563
8 1561 1431 1554 1674 1684 1560 1432 1562
8 1685 1563 1432 1562 1565 1435 1301 1434
8 1435 1302 1436 1566 1563 1433 1564 1686
8 1437 1303 1438 1568 1565 1435 1566 1688
8 1438 1304 1439 1569 1566 1436 1567 1689
8 1440 1306 1441 1571 1568 1438 1569 1691
8 1441 1307 1442 1572 1569 1439 1570 1692
8 1443 1309 1444 1574 1571 1441 1572 1694
8 1310 1444 1572 1442 1445 1575 1695 1573
8 1446 1312 1447 1576 1574 1444 1575 1696
8 1486 1349 1485 1614 1579 1449 1577 1699
8 1451 1317 1449 1579 1581 1450 1578 1701
8 1487 1350 1486 1615 1582 1451 1579 1702
8 1581 1450 1580 1704 1453 1318 1452 1584
8 1582 1451 1581 1705 1454 1319 1453 1585
8 1584 1452 1583 1706 1456 1320 1455 1586
8 1585 1453 1584 1707 1457 1321 1456 1587
8 1587 1456 1586 1708 1458 1323 1459 1588
8 1633 1506 1589 1710 1507 1373 1461 1590
8 1464 1329 1461 1590 1594 1463 1589 1710
8 1468 1336 1462 1591 1595 1464 1590 1711
8 1634 1507 1590 1711 1508 1374 1462 1591
8 1473 1341 1463 1594 1603 1477 1593 1716
8 1469 1337 1464 1595 1599 1473 1594 1717
8 1471 1597 1467 1335 1600 1718 1596 1470
8 1718 1600 1496 1616 1596 1470 1360 1488
8 1336 1468 1597 1471 1472 1598 1719 1601
8 1469 1337 1473 1599 1598 1472 1602 1720
8 1722 1604 1501 1623 1600 1474 1367 1496
8 1475 1601 1471 1339 1604 1722 1600 1474
8 1602 1476 1605 1723 1472 1340 1475 1601
8 1476 1602 1724 1606 1341 1473 1603 1477
8 1483 1347 1478 1609 1612 1482 1608 1731
8 1495 1370 1504 1622 1609 1478 1608 1731
8 1618 1495 1609 1732 1494 1361 1479 1610
8 1484 1348 1479 1610 1613 1483 1609 1732
8 1486 1349 1482 1612 1614 1485 1611 1733
8 1613 1483 1612 1734 1487 1350 1486 1615
8 1489 1363 1496 1616 1617 1499 1623 1736
8 1491 1365 1499 1617 1619 1500 1626 1737
8 1618 1495 1361 1494 1738 1622 1497 1621
8 1739 1625 1498 1620 1619 1500 1366 1492
8 1621 1497 1362 1493 1740 1624 1498 1620
8 1742 1631 1504 1622 1624 1505 1371 1497
8 1743 1628 1502 1626 1623 1501 1368 1499
8 1744 1630 1505 1624 1625 1503 1372 1498
8 1745 1629 1503 1625 1626 1502 1369 1500
8 1520 1398 1528 1644 1633 1506 1632 1751
8 1637 1520 1633 1752 1512 1388 1507 1634
8 1635 1519 1643 1753 1510 1391 1522 1636
8 1657 1535 1643 1753 1534 1406 1519 1635
8 1515 1392 1522 1636 1639 1523 1646 1754
8 1517 1389 1521 1641 1637 1520 1644 1755
8 1524 1638 1756 1648 1393 1514 1639 1523
8 1640 1526 1395 1516 1756 1648 1524 1638
8 1642 1525 1396 1518 1757 1649 1526 1640
8 1758 1645 1521 1641 1642 1525 1396 1518
8 1646 1531 1400 1522 1760 1650 1527 1643
8 1535 1407 1536 1658 1643 1527 1650 1760
8 1521 1399 1529 1645 1644 1528 1651 1761
8 1647 1530 1652 1762 1525 1404 1529 1645
8 1401 1523 1648 1532 1531 1646 1763 1655
8 1525 1404 1533 1649 1647 1530 1654 1765
8 1533 1649 1766 1656 1403 1526 1648 1532
8 1662 1542 1658 1774 1539 1414 1535 1657
8 1542 1415 1543 1664 1658 1536 1659 1775
8 1660 1540 1663 1777 1538 1413 1541 1661
8 1545 1421 1548 1666 1660 1540 1663 1777
8 1662 1542 1414 1539 1778 1664 1541 1661
8 1664 1543 1416 1541 1779 1665 1544 1663
8 1548 1425 1550 1668 1663 1544 1665 1779
8 1547 1423 1549 1667 1666 1548 1668 1781
8 1670 1551 1668 1781 1553 1427 1549 1667
8 1551 1426 1552 1671 1668 1550 1669 1782
8 1670 1551 1427 1553 1784 1671 1554 1674
8 1675 1555 1672 1785 1554 1428 1552 1671
8 1678 1556 1673 1789 1558 1429 1555 1675
8 1561 1431 1558 1681 1674 1554 1675 1790
8 1794 1677 1556 1678 1680 1557 1429 1558
8 1560 1430 1559 1683 1680 1557 1679 1797
8 1561 1431 1560 1684 1681 1558 1680 1798
8 1563 1433 1564 1686 1683 1559 1682 1800
8 1684 1560 1432 1562 1801 1683 1563 1685
8 1565 1435 1566 1688 1685 1563 1686 1802
8 1566 1436 1567 1689 1686 1564 1687 1803
8 1568 1438 1569 1691 1688 1566 1689 1805
8 1569 1439 1570 1692 1689 1567 1690 1806
8 1571 1441 1572 1694 1691 1569 1692 1808
8 1442 1572 1692 1570 1573 1695 1809 1693
8 1574 1444 1575 1696 1694 1572 1695 1810
8 1614 1485 1592 1712 1699 1577 1697 1813
8 1579 1449 1577 1699 1701 1578 1698 1815
8 1615 1486 1614 1735 1702 1579 1699 1816
8 1701 1578 1700 1818 1581 1450 1580 1704
8 1582 1451 1579 1702 1705 1581 1701 1819
8 1704 1580 1703 1820 1584 1452 1583 1706
8 1705 1581 1704 1821 1585 1453 1584 1707
8 1707 1584 1706 1822 1587 1456 1586 1708
8 1710 1589 1506 1633 1824 1709 1632 1751
8 1594 1463 1589 1710 1716 1593 1709 1824
8 1752 1633 1710 1825 1634 1507 1590 1711
8 1595 1464 1590 1711 1717 1594 1710 1825
8 1830 1714 1592 1712 1733 1611 1485 1614
8 1603 1477 1593 1716 1725 1607 1715 1834
8 1599 1473 1594 1717 1721 1603 1716 1835
8 1837 1722 1623 1736 1718 1600 1496 1616
8 1719 1601 1722 1837 1597 1471 1600 1718
8 1602 1720 1598 1472 1723 1838 1719 1601
8 1720 1602 1473 1599 1839 1724 1603 1721
8 1723 1605 1726 1840 1601 1475 1604 1722
8 1840 1726 1628 1743 1722 1604 1501 1623
8 1724 1606 1727 1841 1602 1476 1605 1723
8 1725 1607 1728 1842 1603 1477 1606 1724
8 1612 1482 1608 1731 1733 1611 1730 1849
8 1741 1627 1730 1849 1622 1504 1608 1731
8 1613 1483 1609 1732 1734 1612 1731 1850
8 1618 1495 1622 1738 1732 1609 1731 1850
8 1615 1486 1612 1734 1735 1614 1733 1851
8 1852 1743 1626 1737 1736 1623 1499 1617
8 1853 1745 1625 1739 1737 1626 1500 1619
8 1855 1742 1622 1738 1740 1624 1497 1621
8 1856 1744 1624 1740 1739 1625 1498 1620
8 1741 1627 1504 1622 1857 1746 1631 1742
8 1742 1631 1505 1624 1858 1749 1630 1744
8 1859 1747 1629 1745 1743 1628 1502 1626
8 1860 1748 1630 1744 1745 1629 1503 1625
8 1644 1528 1651 1761 1751 1632 1750 1865
8 1637 1520 1644 1755 1752 1633 1751 1866
8 1754 1646 1522 1636 1867 1760 1643 1753
8 1657 1535 1658 1774 1753 1643 1760 1867
8 1639 1523 1646 1754 1756 1648 1763 1868
8 1641 1521 1645 1758 1755 1644 1761 1869
8 1757 1649 1526 1640 1870 1766 1648 1756
8 1642 1525 1649 1757 1759 1647 1765 1871
8 1759 1647 1762 1872 1642 1525 1645 1758
8 1760 1650 1767 1874 1646 1531 1655 1763
8 1658 1536 1659 1775 1760 1650 1767 1874
8 1762 1652 1768 1875 1645 1529 1651 1761
8 1764 1653 1769 1876 1647 1530 1652 1762
8 1656 1766 1877 1773 1532 1648 1763 1655
8 1771 1879 1765 1654 1653 1764 1647 1530
8 1533 1649 1765 1654 1656 1766 1880 1772
8 1662 1542 1664 1778 1774 1658 1775 1887
8 1664 1543 1665 1779 1775 1659 1776 1888
8 1778 1664 1541 1661 1890 1779 1663 1777
8 1666 1548 1668 1781 1777 1663 1779 1890
8 1782 1669 1780 1891 1668 1550 1665 1779
8 1670 1551 1671 1784 1781 1668 1782 1893
8 1671 1552 1672 1785 1782 1669 1783 1894
8 1790 1675 1785 1896 1674 1554 1671 1784
8 1675 1555 1673 1789 1785 1672 1786 1897
8 1792 1676 1788 1903 1678 1556 1673 1789
8 1795 1678 1789 1904 1681 1558 1675 1790
8 1792 1676 1556 1678 1906 1791 1677 1794
8 1680 1557 1679 1797 1794 1677 1793 1909
8 1910 1794 1678 1795 1798 1680 1558 1681
8 1683 1559 1682 1800 1797 1679 1796 1912
8 1684 1560 1683 1801 1798 1680 1797 1913
8 1686 1564 1687 1803 1800 1682 1799 1915
8 1685 1563 1686 1802 1801 1683 1800 1916
8 1688 1566 1689 1805 1802 1686 1803 1917
8 1689 1567 1690 1806 1803 1687 1804 1918
8 1691 1569 1692 1808 1805 1689 1806 1920
8 1692 1570 1693 1809 1806 1690 1807 1921
8 1694 1572 1695 1810 1808 1692 1809 1922
8 1829 1713 1811 1926 1712 1592 1697 1813
8 1813 1697 1812 1928 1699 1577 1698 1815
8 1735 1614 1712 1828 1816 1699 1813 1929
8 1815 1698 1814 1931 1701 1578 1700 1818
8 1702 1579 1699 1816 1819 1701 1815 1932
8 1818 1700 1817 1933 1704 1580 1703 1820
8 1819 1701 1818 1934 1705 1581 1704 1821
8 1821 1704 1820 1935 1707 1584 1706 1822
8 1824 1709 1632 1751 1937 1823 1750 1865
8 1716 1593 1709 1824 1834 1715 1823 1937
8 1825 1710 1633 1752 1938 1824 1751 1866
8 1717 1594 1710 1825 1835 1716 1824 1938
8 1945 1830 1712 1828 1851 1733 1614 1735
8 1830 1714 1831 1946 1712 1592 1713 1829
8 1947 1832 1714 1830 1849 1730 1611 1733
8 1843 1729 1607 1725 1950 1833 1715 1834
8 1721 1603 1716 1835 1836 1725 1834 1951
8 1836 1725 1842 1953 1721 1603 1724 1839
8 1723 1838 1719 1601 1840 1954 1837 1722
8 1954 1840 1743 1852 1837 1722 1623 1736
8 1724 1839 1720 1602 1841 1955 1838 1723
8 1841 1727 1844 1956 1723 1605 1726 1840
8 1956 1844 1747 1859 1840 1726 1628 1743
8 1728 1842 1724 1606 1845 1957 1841 1727
8 1725 1607 1729 1843 1842 1728 1846 1958
8 1741 1627 1746 1857 1849 1730 1848 1965
8 1734 1612 1731 1850 1851 1733 1849 1966
8 1854 1741 1849 1966 1738 1622 1731 1850
8 1967 1859 1745 1853 1852 1743 1626 1737
8 1968 1860 1744 1856 1853 1745 1625 1739
8 1854 1741 1622 1738 1969 1857 1742 1855
8 1855 1742 1624 1740 1970 1858 1744 1856
8 1857 1746 1631 1742 1971 1861 1749 1858
8 1858 1749 1630 1744 1972 1863 1748 1860
8 1859 1747 1862 1973 1745 1629 1748 1860
8 1875 1768 1864 1977 1761 1651 1750 1865
8 1755 1644 1761 1869 1866 1751 1865 1978
8 1867 1760 1874 1979 1754 1646 1763 1868
8 1774 1658 1775 1887 1867 1760 1874 1979
8 1870 1766 1648 1756 1980 1877 1763 1868
8 1872 1762 1875 1981 1758 1645 1761 1869
8 1757 1649 1766 1870 1871 1765 1880 1982
8 1983 1879 1764 1873 1871 1765 1647 1759
8 1873 1764 1876 1984 1759 1647 1762 1872
8 1877 1773 1655 1763 1986 1881 1767 1874
8 1775 1659 1776 1888 1874 1767 1881 1986
8 1876 1769 1882 1987 1762 1652 1768 1875
8 1878 1770 1883 1988 1764 1653 1769 1876
8 1880 1772 1656 1766 1989 1886 1773 1877
8 1878 1770 1653 1764 1990 1884 1771 1879
8 1765 1654 1772 1880 1879 1771 1885 1991
8 1778 1664 1779 1890 1887 1775 1888 1997
8 1998 1889 1776 1888 1891 1780 1665 1779
8 1893 1782 1891 2000 1781 1668 1779 1890
8 1894 1783 1892 2001 1782 1669 1780 1891
8 1784 1671 1785 1896 1893 1782 1894 2003
8 1897 1786 1895 2004 1785 1672 1783 1894
8 1790 1675 1789 1904 1896 1785 1897 2006
8 1901 1787 1898 2007 1789 1673 1786 1897
8 1903 1788 1900 2013 1789 1673 1787 1901
8 1792 1676 1791 1906 1903 1788 1902 2016
8 1907 1792 1903 2017 1795 1678 1789 1904
8 1906 1791 1677 1794 2019 1905 1793 1909
8 1907 1792 1678 1795 2020 1906 1794 1910
8 1797 1679 1796 1912 1909 1793 1908 2022
8 1798 1680 1797 1913 1910 1794 1909 2023
8 1800 1682 1799 1915 1912 1796 1911 2025
8 1801 1683 1800 1916 1913 1797 1912 2026
8 1803 1687 1804 1918 1915 1799 1914 2028
8 1802 1686 1803 1917 1916 1800 1915 2029
8 1805 1689 1806 1920 1917 1803 1918 2030
8 1806 1690 1807 1921 1918 1804 1919 2031
8 1808 1692 1809 1922 1920 1806 1921 2032
8 1939 1826 1924 2037 1829 1713 1811 1926
8 1926 1811 1925 2039 1813 1697 1812 1928
8 1944 1829 1926 2040 1828 1712 1813 1929
8 1928 1812 1927 2042 1815 1698 1814 1931
8 1929 1813 1928 2043 1816 1699 1815 1932
8 1931 1814 1930 2044 1818 1700 1817 1933
8 1932 1815 1931 2045 1819 1701 1818 1934
8 1934 1818 1933 2046 1821 1704 1820 1935
8 2048 1936 1823 1937 1977 1864 1750 1865
8 1950 1833 1715 1834 2048 1936 1823 1937
8 1938 1824 1751 1866 2049 1937 1865 1978
8 1835 1716 1824 1938 1951 1834 1937 2049
8 1939 1826 1713 1829 2053 1942 1831 1946
8 1940 1827 1923 2035 2053 1942 1826 1939
8 1945 1830 1946 2058 1828 1712 1829 1944
8 2059 1947 1830 1945 1966 1849 1733 1851
8 1947 1832 1730 1849 2060 1948 1848 1965
8 1947 1832 1948 2060 1830 1714 1831 1946
8 1959 1847 1729 1843 2063 1949 1833 1950
8 1952 1843 1725 1836 2064 1950 1834 1951
8 1836 1725 1843 1952 1953 1842 1958 2066
8 1953 1842 1957 2067 1839 1724 1841 1955
8 1841 1955 1838 1723 1956 2068 1954 1840
8 2068 1956 1859 1967 1954 1840 1743 1852
8 1956 1844 1960 2069 1859 1747 1862 1973
8 1845 1957 1841 1727 1960 2069 1956 1844
8 1728 1842 1957 1845 1846 1958 2071 1961
8 1962 2072 1959 1847 1846 1958 1843 1729
8 1971 1861 1964 2077 1857 1746 1848 1965
8 1854 1741 1857 1969 1966 1849 1965 2078
8 1967 1859 1973 2079 1853 1745 1860 1968
8 1970 1858 1744 1856 2080 1972 1860 1968
8 1969 1857 1742 1855 2081 1971 1858 1970
8 1971 1861 1749 1858 2082 1974 1863 1972
8 1973 1862 1975 2083 1860 1748 1863 1972
8 1987 1882 1976 2086 1875 1768 1864 1977
8 1981 1875 1977 2087 1869 1761 1865 1978
8 1980 1877 1763 1868 2088 1986 1874 1979
8 1887 1775 1888 1997 1979 1874 1986 2088
8 1880 1982 2089 1989 1766 1870 1980 1877
8 1984 1876 1987 2090 1872 1762 1875 1981
8 1765 1871 1983 1879 1880 1982 2091 1991
8 1985 1878 1764 1873 2092 1990 1879 1983
8 1985 1878 1988 2093 1873 1764 1876 1984
8 2094 1992 1881 1986 1998 1889 1776 1888
8 1986 1881 1992 2094 1877 1773 1886 1989
8 1988 1883 1993 2095 1876 1769 1882 1987
8 1878 1770 1884 1990 1988 1883 1994 2096
8 1991 1885 1772 1880 2097 1996 1886 1989
8 1879 1771 1885 1991 1990 1884 1995 2098
8 2103 1998 1888 1997 2000 1891 1779 1890
8 2104 1999 1889 1998 2001 1892 1780 1891
8 2003 1894 2001 2106 1893 1782 1891 2000
8 2004 1895 2002 2107 1894 1783 1892 2001
8 2006 1897 2004 2109 1896 1785 1894 2003
8 2007 1898 2005 2110 1897 1786 1895 2004
8 2014 1901 2007 2112 1904 1789 1897 2006
8 2011 1899 2008 2113 1901 1787 1898 2007
8 2119 2010 1899 2011 2013 1900 1787 1901
8 2016 1902 2012 2122 1903 1788 1900 2013
8 2017 1903 2013 2123 1904 1789 1901 2014
8 1906 1791 1905 2019 2016 1902 2015 2125
8 1907 1792 1906 2020 2017 1903 2016 2126
8 1909 1793 1908 2022 2019 1905 2018 2128
8 2020 1906 1794 1910 2129 2019 1909 2023
8 1912 1796 1911 2025 2022 1908 2021 2131
8 1913 1797 1912 2026 2023 1909 2022 2132
8 1915 1799 1914 2028 2025 1911 2024 2134
8 1916 1800 1915 2029 2026 1912 2025 2135
8 1918 1804 1919 2031 2028 1914 2027 2136
8 1917 1803 1918 2030 2029 1915 2028 2137
8 1920 1806 1921 2032 2030 1918 2031 2138
8 1940 1827 1941 2054 2035 1923 2033 2140
8 2035 1923 2034 2143 1939 1826 1924 2037
8 2037 1924 2036 2146 1926 1811 1925 2039
8 2051 1939 2037 2147 1944 1829 1926 2040
8 2039 1925 2038 2149 1928 1812 1927 2042
8 2040 1926 2039 2150 1929 1813 1928 2043
8 2042 1927 2041 2151 1931 1814 1930 2044
8 2043 1928 2042 2152 1932 1815 1931 2045
8 2045 1931 2044 2153 1934 1818 1933 2046
8 2155 2047 1936 2048 2086 1976 1864 1977
8 2063 1949 1833 1950 2155 2047 1936 2048
8 2156 2048 1937 2049 2087 1977 1865 1978
8 2064 1950 1834 1951 2156 2048 1937 2049
8 2051 1939 1829 1944 2160 2053 1946 2058
8 2052 1940 2035 2144 2160 2053 1939 2051
8 2053 1942 1831 1946 2163 2057 1948 2060
8 2055 1943 1827 1940 2163 2057 1942 2053
8 2055 1943 2056 2164 1940 1827 1941 2054
8 2059 1947 1849 1966 2167 2060 1965 2078
8 2059 1947 2060 2167 1945 1830 1946 2058
8 2077 1964 2061 2168 1965 1848 1948 2060
8 2070 1963 1847 1959 2170 2062 1949 2063
8 2065 1959 1843 1952 2171 2063 1950 2064
8 2173 2072 1958 2066 2065 1959 1843 1952
8 1953 1842 1958 2066 2067 1957 2071 2174
8 2068 1956 2069 2175 1967 1859 1973 2079
8 2067 1957 2069 2175 1955 1841 1956 2068
8 1845 1957 2069 1960 1961 2071 2176 2073
8 2069 1960 2073 2176 1973 1862 1975 2083
8 2070 1963 2075 2177 1959 1847 1962 2072
8 1846 1958 2071 1961 1962 2072 2178 2074
8 2077 1964 1861 1971 2182 2076 1974 2082
8 2081 1971 2077 2183 1969 1857 1965 2078
8 2079 1973 2083 2184 1968 1860 1972 2080
8 2081 1971 1858 1970 2185 2082 1972 2080
8 2083 1975 2084 2186 1972 1863 1974 2082
8 2086 1976 1882 1987 2189 2085 1993 2095
8 2090 1987 2086 2190 1981 1875 1977 2087
8 2191 2094 1986 2088 2103 1998 1888 1997
8 2088 1986 2094 2191 1980 1877 1989 2089
8 1991 2091 2192 2097 1880 1982 2089 1989
8 2093 1988 2095 2193 1984 1876 1987 2090
8 1879 1983 2092 1990 1991 2091 2194 2098
8 1985 1878 1990 2092 2093 1988 2096 2195
8 2097 1996 1886 1989 2196 2099 1992 2094
8 2196 2099 1992 2094 2104 1999 1889 1998
8 1994 2096 1988 1883 2100 2197 2095 1993
8 2096 1994 1884 1990 2198 2101 1995 2098
8 1995 2098 2199 2102 1885 1991 2097 1996
8 2203 2104 1998 2103 2106 2001 1891 2000
8 2107 2002 2105 2204 2001 1892 1999 2104
8 2109 2004 2107 2206 2003 1894 2001 2106
8 2110 2005 2108 2207 2004 1895 2002 2107
8 2112 2007 2110 2209 2006 1897 2004 2109
8 2113 2008 2111 2210 2007 1898 2005 2110
8 2120 2011 2113 2212 2014 1901 2007 2112
8 2117 2009 2114 2213 2011 1899 2008 2113
8 2219 2116 2009 2117 2119 2010 1899 2011
8 2222 2118 2010 2119 2122 2012 1900 2013
8 2223 2119 2011 2120 2123 2013 1901 2014
8 2016 1902 2015 2125 2122 2012 2121 2225
8 2126 2016 2122 2226 2017 1903 2013 2123
8 2019 1905 2018 2128 2125 2015 2124 2228
8 2020 1906 2019 2129 2126 2016 2125 2229
8 2022 1908 2021 2131 2128 2018 2127 2231
8 2023 1909 2022 2132 2129 2019 2128 2232
8 2025 1911 2024 2134 2131 2021 2130 2234
8 2026 1912 2025 2135 2132 2022 2131 2235
8 1914 2028 2134 2024 2027 2136 2236 2133
8 2029 1915 2028 2137 2135 2025 2134 2237
8 2030 1918 2031 2138 2137 2028 2136 2238
8 2157 2050 2139 2240 2054 1941 2033 2140
8 2052 1940 2054 2161 2144 2035 2140 2242
8 2140 2033 2141 2243 2035 1923 2034 2143
8 2143 2034 2142 2246 2037 1924 2036 2146
8 2144 2035 2143 2247 2051 1939 2037 2147
8 2146 2036 2145 2249 2039 1925 2038 2149
8 2147 2037 2146 2250 2040 1926 2039 2150
8 2149 2038 2148 2251 2042 1927 2041 2151
8 2150 2039 2149 2252 2043 1928 2042 2152
8 2152 2042 2151 2253 2045 1931 2044 2153
8 2255 2154 2047 2155 2189 2085 1976 2086
8 2170 2062 1949 2063 2255 2154 2047 2155
8 2256 2155 2048 2156 2190 2086 1977 2087
8 2171 2063 1950 2064 2256 2155 2048 2156
8 2258 2159 2050 2157 2164 2056 1941 2054
8 2160 2053 1946 2058 2262 2163 2060 2167
8 2162 2055 1940 2052 2262 2163 2053 2160
8 2162 2055 2164 2263 2052 1940 2054 2161
8 2163 2057 1948 2060 2264 2165 2061 2168
8 2055 1943 2057 2163 2164 2056 2165 2264
8 2182 2076 2166 2268 2077 1964 2061 2168
8 2183 2077 2168 2269 2078 1965 2060 2167
8 2070 1963 2062 2170 2177 2075 2169 2271
8 2172 2070 1959 2065 2272 2170 2063 2171
8 2172 2070 2177 2273 2065 1959 2072 2173
8 2066 1958 2072 2173 2174 2071 2178 2274
8 2067 1957 2071 2174 2175 2069 2176 2275
8 2175 2069 2176 2275 2079 1973 2083 2184
8 2071 1961 2074 2178 2176 2073 2179 2276
8 2176 2073 2179 2276 2083 1975 2084 2186
8 2072 1962 2075 2177 2178 2074 2180 2277
8 2182 2076 1974 2082 2280 2181 2084 2186
8 2183 2077 1971 2081 2281 2182 2082 2185
8 2184 2083 2186 2282 2080 1972 2082 2185
8 2189 2085 1993 2095 2285 2188 2100 2197
8 2190 2086 1987 2090 2286 2189 2095 2193
8 2192 2097 1989 2089 2287 2196 2094 2191
8 2287 2196 2094 2191 2203 2104 1998 2103
8 2194 2098 1991 2091 2288 2199 2097 2192
8 2195 2096 2197 2289 2093 1988 2095 2193
8 2096 2195 2290 2198 1990 2092 2194 2098
8 2097 1996 2099 2196 2199 2102 2200 2291
8 2196 2099 1999 2104 2291 2200 2105 2204
8 2100 2197 2292 2201 1994 2096 2198 2101
8 1995 2098 2198 2101 2102 2199 2293 2202
8 2206 2107 2204 2296 2106 2001 2104 2203
8 2207 2108 2205 2297 2107 2002 2105 2204
8 2209 2110 2207 2299 2109 2004 2107 2206
8 2210 2111 2208 2300 2110 2005 2108 2207
8 2212 2113 2210 2302 2112 2007 2110 2209
8 2213 2114 2211 2303 2113 2008 2111 2210
8 2220 2117 2213 2305 2120 2011 2113 2212
8 2216 2115 2214 2306 2117 2009 2114 2213
8 2216 2115 2009 2117 2311 2217 2116 2219
8 2219 2116 2010 2119 2314 2218 2118 2222
8 2315 2219 2117 2220 2223 2119 2011 2120
8 2122 2012 2121 2225 2222 2118 2221 2317
8 2318 2222 2119 2223 2226 2122 2013 2123
8 2125 2015 2124 2228 2225 2121 2224 2320
8 2126 2016 2125 2229 2226 2122 2225 2321
8 2128 2018 2127 2231 2228 2124 2227 2323
8 2129 2019 2128 2232 2229 2125 2228 2324
8 2131 2021 2130 2234 2231 2127 2230 2326
8 2132 2022 2131 2235 2232 2128 2231 2327
8 2134 2024 2133 2236 2234 2130 2233 2328
8 2135 2025 2134 2237 2235 2131 2234 2329
8 2137 2028 2136 2238 2237 2134 2236 2330
8 2157 2050 2158 2259 2240 2139 2239 2332
8 2257 2157 2240 2334 2161 2054 2140 2242
8 2240 2139 2241 2335 2140 2033 2141 2243
8 2242 2140 2243 2337 2144 2035 2143 2247
8 2243 2141 2244 2338 2143 2034 2142 2246
8 2246 2142 2245 2341 2146 2036 2145 2249
8 2247 2143 2246 2342 2147 2037 2146 2250
8 2249 2145 2248 2343 2149 2038 2148 2251
8 2250 2146 2249 2344 2150 2039 2149 2252
8 2252 2149 2251 2345 2152 2042 2151 2253
8 2169 2271 2347 2254 2062 2170 2255 2154
8 2189 2085 2188 2285 2255 2154 2254 2347
8 2348 2255 2155 2256 2286 2189 2086 2190
8 2272 2170 2063 2171 2348 2255 2155 2256
8 2349 2258 2157 2257 2263 2164 2054 2161
8 2258 2159 2261 2351 2157 2050 2158 2259
8 2258 2159 2056 2164 2351 2261 2165 2264
8 2262 2163 2060 2167 2355 2264 2168 2269
8 2162 2055 2163 2262 2263 2164 2264 2355
8 2357 2266 2165 2264 2268 2166 2061 2168
8 2268 2166 2076 2182 2361 2267 2181 2280
8 2281 2182 2268 2362 2183 2077 2168 2269
8 2271 2169 2270 2364 2177 2075 2180 2277
8 2172 2070 2170 2272 2273 2177 2271 2365
8 2072 2173 2274 2178 2177 2273 2366 2277
8 2071 2174 2275 2176 2178 2274 2367 2276
8 2275 2176 2276 2367 2184 2083 2186 2282
8 2283 2187 2084 2186 2368 2278 2179 2276
8 2178 2074 2180 2277 2276 2179 2278 2368
8 2283 2187 2279 2370 2186 2084 2181 2280
8 2281 2182 2082 2185 2371 2280 2186 2282
8 2188 2285 2374 2284 2100 2197 2292 2201
8 2286 2189 2095 2193 2375 2285 2197 2289
8 2192 2097 2196 2287 2288 2199 2291 2376
8 2287 2196 2104 2203 2376 2291 2204 2296
8 2194 2098 2199 2288 2290 2198 2293 2377
8 2289 2197 2096 2195 2378 2292 2198 2290
8 2291 2200 2105 2204 2379 2294 2205 2297
8 2199 2102 2200 2291 2293 2202 2294 2379
8 2198 2101 2202 2293 2292 2201 2295 2380
8 2299 2207 2297 2383 2206 2107 2204 2296
8 2300 2208 2298 2384 2207 2108 2205 2297
8 2302 2210 2300 2386 2209 2110 2207 2299
8 2303 2211 2301 2387 2210 2111 2208 2300
8 2305 2213 2303 2389 2212 2113 2210 2302
8 2306 2214 2304 2390 2213 2114 2211 2303
8 2310 2216 2306 2392 2220 2117 2213 2305
8 2308 2215 2307 2393 2216 2115 2214 2306
8 2308 2215 2115 2216 2396 2309 2217 2311
8 2310 2216 2117 2220 2398 2311 2219 2315
8 2311 2217 2116 2219 2399 2312 2218 2314
8 2314 2218 2118 2222 2402 2313 2221 2317
8 2315 2219 2119 2223 2403 2314 2222 2318
8 2225 2121 2224 2320 2317 2221 2316 2405
8 2226 2122 2225 2321 2318 2222 2317 2406
8 2228 2124 2227 2323 2320 2224 2319 2408
8 2229 2125 2228 2324 2321 2225 2320 2409
8 2231 2127 2230 2326 2323 2227 2322 2411
8 2232 2128 2231 2327 2324 2228 2323 2412
8 2234 2130 2233 2328 2326 2230 2325 2413
8 2235 2131 2234 2329 2327 2231 2326 2414
8 2237 2134 2236 2330 2329 2234 2328 2415
8 2259 2158 2260 2352 2332 2239 2331 2417
8 2257 2157 2259 2350 2334 2240 2332 2419
8 2240 2139 2239 2332 2335 2241 2333 2420
8 2334 2240 2335 2422 2242 2140 2243 2337
8 2335 2241 2336 2423 2243 2141 2244 2338
8 2337 2243 2338 2425 2247 2143 2246 2342
8 2338 2244 2339 2426 2246 2142 2245 2341
8 2341 2245 2340 2428 2249 2145 2248 2343
8 2342 2246 2341 2429 2250 2146 2249 2344
8 2344 2249 2343 2430 2252 2149 2251 2345
8 2188 2285 2347 2254 2284 2374 2432 2346
8 2347 2254 2346 2432 2271 2169 2270 2364
8 2365 2271 2170 2272 2433 2347 2255 2348
8 2286 2189 2285 2375 2348 2255 2347 2433
8 2349 2258 2351 2435 2257 2157 2259 2350
8 2349 2258 2164 2263 2435 2351 2264 2355
8 2259 2158 2261 2351 2352 2260 2354 2437
8 2356 2265 2354 2437 2264 2165 2261 2351
8 2441 2357 2264 2355 2362 2268 2168 2269
8 2356 2265 2165 2264 2442 2358 2266 2357
8 2443 2359 2266 2357 2361 2267 2166 2268
8 2370 2279 2360 2446 2280 2181 2267 2361
8 2362 2268 2182 2281 2447 2361 2280 2371
8 2180 2277 2368 2278 2270 2364 2449 2363
8 2271 2365 2273 2177 2364 2450 2366 2277
8 2372 2283 2186 2282 2451 2368 2276 2367
8 2178 2274 2367 2276 2277 2366 2451 2368
8 2283 2187 2278 2368 2370 2279 2369 2452
8 2372 2283 2370 2453 2282 2186 2280 2371
8 2284 2374 2455 2373 2201 2292 2380 2295
8 2375 2285 2197 2289 2456 2374 2292 2378
8 2376 2291 2204 2296 2457 2379 2297 2383
8 2288 2199 2291 2376 2377 2293 2379 2457
8 2198 2290 2378 2292 2293 2377 2458 2380
8 2293 2202 2294 2379 2380 2295 2381 2459
8 2384 2298 2381 2459 2297 2205 2294 2379
8 2386 2300 2384 2463 2299 2207 2297 2383
8 2387 2301 2385 2464 2300 2208 2298 2384
8 2389 2303 2387 2466 2302 2210 2300 2386
8 2390 2304 2388 2467 2303 2211 2301 2387
8 2392 2306 2390 2469 2305 2213 2303 2389
8 2393 2307 2391 2470 2306 2214 2304 2390
8 2395 2308 2393 2472 2310 2216 2306 2392
8 2308 2215 2309 2396 2393 2307 2394 2473
8 2395 2308 2216 2310 2475 2396 2311 2398
8 2396 2309 2217 2311 2476 2397 2312 2399
8 2398 2311 2219 2315 2478 2399 2314 2403
8 2399 2312 2218 2314 2479 2400 2313 2402
8 2317 2221 2316 2405 2402 2313 2401 2482
8 2403 2314 2222 2318 2483 2402 2317 2406
8 2320 2224 2319 2408 2405 2316 2404 2485
8 2321 2225 2320 2409 2406 2317 2405 2486
8 2323 2227 2322 2411 2408 2319 2407 2488
8 2324 2228 2323 2412 2409 2320 2408 2489
8 2326 2230 2325 2413 2411 2322 2410 2490
8 2327 2231 2326 2414 2412 2323 2411 2491
8 2329 2234 2328 2415 2414 2326 2413 2492
8 2417 2331 2260 2352 2494 2416 2353 2438
8 2350 2259 2352 2436 2419 2332 2417 2496
8 2332 2239 2331 2417 2420 2333 2418 2497
8 2334 2240 2332 2419 2422 2335 2420 2499
8 2420 2333 2421 2500 2335 2241 2336 2423
8 2422 2335 2423 2502 2337 2243 2338 2425
8 2423 2336 2424 2503 2338 2244 2339 2426
8 2425 2338 2426 2505 2342 2246 2341 2429
8 2426 2339 2427 2506 2341 2245 2340 2428
8 2429 2341 2428 2507 2344 2249 2343 2430
8 2432 2346 2284 2374 2509 2431 2373 2455
8 2432 2346 2431 2509 2364 2270 2363 2449
8 2375 2285 2374 2456 2433 2347 2432 2510
8 2347 2433 2365 2271 2432 2510 2450 2364
8 2350 2259 2351 2435 2436 2352 2437 2514
8 2440 2356 2437 2514 2355 2264 2351 2435
8 2352 2260 2354 2437 2438 2353 2439 2516
8 2356 2265 2358 2442 2437 2354 2439 2516
8 2440 2356 2264 2355 2518 2442 2357 2441
8 2519 2443 2357 2441 2447 2361 2268 2362
8 2443 2359 2444 2520 2357 2266 2358 2442
8 2443 2359 2267 2361 2520 2444 2360 2446
8 2446 2360 2279 2370 2523 2445 2369 2452
8 2453 2370 2446 2524 2371 2280 2361 2447
8 2449 2363 2448 2525 2368 2278 2369 2452
8 2366 2277 2364 2450 2451 2368 2449 2526
8 2372 2283 2368 2451 2453 2370 2452 2527
8 2455 2373 2295 2380 2529 2454 2382 2460
8 2456 2374 2292 2378 2530 2455 2380 2458
8 2377 2293 2379 2457 2458 2380 2459 2531
8 2463 2384 2459 2531 2383 2297 2379 2457
8 2533 2461 2382 2460 2459 2381 2295 2380
8 2464 2385 2461 2533 2384 2298 2381 2459
8 2466 2387 2464 2537 2386 2300 2384 2463
8 2467 2388 2465 2538 2387 2301 2385 2464
8 2469 2390 2467 2540 2389 2303 2387 2466
8 2470 2391 2468 2541 2390 2304 2388 2467
8 2472 2393 2470 2543 2392 2306 2390 2469
8 2393 2307 2394 2473 2470 2391 2471 2544
8 2395 2308 2396 2475 2472 2393 2473 2546
8 2396 2309 2397 2476 2473 2394 2474 2547
8 2475 2396 2311 2398 2549 2476 2399 2478
8 2476 2397 2312 2399 2550 2477 2400 2479
8 2478 2399 2314 2403 2552 2479 2402 2483
8 2479 2400 2313 2402 2553 2480 2401 2482
8 2405 2316 2404 2485 2482 2401 2481 2556
8 2406 2317 2405 2486 2483 2402 2482 2557
8 2408 2319 2407 2488 2485 2404 2484 2559
8 2409 2320 2408 2489 2486 2405 2485 2560
8 2411 2322 2410 2490 2488 2407 2487 2561
8 2412 2323 2411 2491 2489 2408 2488 2562
8 2414 2326 2413 2492 2491 2411 2490 2563
8 2513 2434 2493 2565 2438 2353 2416 2494
8 2496 2417 2352 2436 2567 2494 2438 2515
8 2494 2416 2495 2568 2417 2331 2418 2497
8 2419 2332 2417 2496 2499 2420 2497 2570
8 2497 2418 2498 2571 2420 2333 2421 2500
8 2499 2420 2500 2573 2422 2335 2423 2502
8 2500 2421 2501 2574 2423 2336 2424 2503
8 2502 2423 2503 2576 2425 2338 2426 2505
8 2503 2424 2504 2577 2426 2339 2427 2506
8 2505 2426 2506 2578 2429 2341 2428 2507
8 2509 2431 2373 2455 2580 2508 2454 2529
8 2509 2431 2508 2580 2449 2363 2448 2525
8 2432 2510 2581 2509 2374 2456 2530 2455
8 2432 2510 2450 2364 2509 2581 2526 2449
8 2583 2511 2434 2513 2516 2439 2353 2438
8 2436 2352 2437 2514 2515 2438 2516 2588
8 2440 2356 2442 2518 2514 2437 2516 2588
8 2442 2358 2444 2520 2516 2439 2517 2589
8 2519 2443 2520 2591 2441 2357 2442 2518
8 2519 2443 2361 2447 2591 2520 2446 2524
8 2446 2360 2445 2523 2520 2444 2521 2592
8 2525 2448 2522 2593 2452 2369 2445 2523
8 2524 2446 2370 2453 2594 2523 2452 2527
8 2526 2449 2525 2595 2451 2368 2452 2527
8 2534 2462 2528 2597 2460 2382 2454 2529
8 2530 2455 2380 2458 2598 2529 2460 2532
8 2599 2533 2460 2532 2531 2459 2380 2458
8 2537 2464 2533 2599 2463 2384 2459 2531
8 2534 2462 2382 2460 2601 2535 2461 2533
8 2538 2465 2535 2601 2464 2385 2461 2533
8 2540 2467 2538 2604 2466 2387 2464 2537
8 2541 2468 2539 2605 2467 2388 2465 2538
8 2543 2470 2541 2607 2469 2390 2467 2540
8 2470 2391 2471 2544 2541 2468 2542 2608
8 2472 2393 2473 2546 2543 2470 2544 2610
8 2473 2394 2474 2547 2544 2471 2545 2611
8 2475 2396 2476 2549 2546 2473 2547 2613
8 2476 2397 2477 2550 2547 2474 2548 2614
8 2549 2476 2399 2478 2616 2550 2479 2552
8 2479 2400 2480 2553 2550 2477 2551 2617
8 2552 2479 2402 2483 2619 2553 2482 2557
8 2482 2401 2481 2556 2553 2480 2554 2620
8 2485 2404 2484 2559 2556 2481 2555 2623
8 2486 2405 2485 2560 2557 2482 2556 2624
8 2488 2407 2487 2561 2559 2484 2558 2625
8 2489 2408 2488 2562 2560 2485 2559 2626
8 2491 2411 2490 2563 2562 2488 2561 2627
8 2513 2434 2512 2585 2565 2493 2564 2630
8 2586 2513 2565 2632 2515 2438 2494 2567
8 2565 2493 2566 2633 2494 2416 2495 2568
8 2567 2494 2568 2635 2496 2417 2497 2570
8 2568 2495 2569 2636 2497 2418 2498 2571
8 2570 2497 2571 2638 2499 2420 2500 2573
8 2571 2498 2572 2639 2500 2421 2501 2574
8 2573 2500 2574 2641 2502 2423 2503 2576
8 2574 2501 2575 2642 2503 2424 2504 2577
8 2576 2503 2577 2643 2505 2426 2506 2578
8 2597 2528 2579 2645 2529 2454 2508 2580
8 2580 2508 2579 2645 2525 2448 2522 2593
8 2581 2509 2455 2530 2646 2580 2529 2598
8 2581 2509 2580 2646 2526 2449 2525 2595
8 2583 2511 2582 2648 2513 2434 2512 2585
8 2583 2511 2439 2516 2648 2582 2517 2589
8 2649 2583 2513 2586 2588 2516 2438 2515
8 2589 2517 2444 2520 2653 2587 2521 2592
8 2518 2442 2520 2591 2588 2516 2589 2654
8 2593 2522 2590 2655 2523 2445 2521 2592
8 2524 2446 2523 2594 2591 2520 2592 2656
8 2595 2525 2593 2657 2527 2452 2523 2594
8 2602 2536 2596 2659 2534 2462 2528 2597
8 2600 2534 2597 2660 2532 2460 2529 2598
8 2600 2534 2460 2532 2661 2601 2533 2599
8 2604 2538 2601 2661 2537 2464 2533 2599
8 2602 2536 2462 2534 2663 2603 2535 2601
8 2601 2535 2465 2538 2663 2603 2539 2605
8 2607 2541 2605 2665 2540 2467 2538 2604
8 2608 2542 2606 2666 2541 2468 2539 2605
8 2543 2470 2544 2610 2607 2541 2608 2668
8 2544 2471 2545 2611 2608 2542 2609 2669
8 2546 2473 2547 2613 2610 2544 2611 2671
8 2547 2474 2548 2614 2611 2545 2612 2672
8 2549 2476 2550 2616 2613 2547 2614 2674
8 2550 2477 2551 2617 2614 2548 2615 2675
8 2552 2479 2553 2619 2616 2550 2617 2677
8 2553 2480 2554 2620 2617 2551 2618 2678
8 2557 2482 2556 2624 2619 2553 2620 2680
8 2556 2481 2555 2623 2620 2554 2621 2681
8 2559 2484 2558 2625 2623 2555 2622 2683
8 2560 2485 2559 2626 2624 2556 2623 2684
8 2562 2488 2561 2627 2626 2559 2625 2685
8 2690 2629 2564 2630 2650 2584 2512 2585
8 2586 2513 2585 2651 2632 2565 2630 2691
8 2630 2564 2631 2692 2565 2493 2566 2633
8 2632 2565 2633 2694 2567 2494 2568 2635
8 2633 2566 2634 2695 2568 2495 2569 2636
8 2635 2568 2636 2697 2570 2497 2571 2638
8 2636 2569 2637 2698 2571 2498 2572 2639
8 2638 2571 2639 2700 2573 2500 2574 2641
8 2639 2572 2640 2701 2574 2501 2575 2642
8 2641 2574 2642 2702 2576 2503 2577 2643
8 2597 2528 2596 2659 2645 2579 2644 2704
8 2645 2579 2644 2704 2593 2522 2590 2655
8 2660 2597 2645 2705 2598 2529 2580 2646
8 2646 2580 2645 2705 2595 2525 2593 2657
8 2650 2584 2512 2585 2707 2647 2582 2648
8 2648 2582 2517 2589 2707 2647 2587 2653
8 2649 2583 2648 2708 2586 2513 2585 2651
8 2649 2583 2516 2588 2708 2648 2589 2654
8 2655 2590 2652 2710 2592 2521 2587 2653
8 2654 2589 2520 2591 2711 2653 2592 2656
8 2657 2593 2655 2712 2594 2523 2592 2656
8 2602 2536 2603 2663 2659 2596 2658 2714
8 2662 2602 2659 2715 2600 2534 2597 2660
8 2662 2602 2534 2600 2717 2663 2601 2661
8 2661 2601 2538 2604 2717 2663 2605 2665
8 2666 2606 2664 2718 2605 2539 2603 2663
8 2668 2608 2666 2720 2607 2541 2605 2665
8 2608 2542 2609 2669 2666 2606 2667 2721
8 2610 2544 2611 2671 2668 2608 2669 2723
8 2611 2545 2612 2672 2669 2609 2670 2724
8 2613 2547 2614 2674 2671 2611 2672 2726
8 2614 2548 2615 2675 2672 2612 2673 2727
8 2616 2550 2617 2677 2674 2614 2675 2729
8 2617 2551 2618 2678 2675 2615 2676 2730
8 2619 2553 2620 2680 2677 2617 2678 2732
8 2620 2554 2621 2681 2678 2618 2679 2733
8 2624 2556 2623 2684 2680 2620 2681 2735
8 2681 2621 2555 2623 2736 2682 2622 2683
8 2626 2559 2625 2685 2684 2623 2683 2737
8 2688 2628 2584 2650 2740 2686 2647 2707
8 2688 2628 2687 2742 2650 2584 2629 2690
8 2690 2629 2689 2745 2630 2564 2631 2692
8 2746 2690 2630 2691 2709 2650 2585 2651
8 2691 2630 2692 2747 2632 2565 2633 2694
8 2692 2631 2693 2748 2633 2566 2634 2695
8 2694 2633 2695 2750 2635 2568 2636 2697
8 2695 2634 2696 2751 2636 2569 2637 2698
8 2697 2636 2698 2753 2638 2571 2639 2700
8 2698 2637 2699 2754 2639 2572 2640 2701
8 2700 2639 2701 2755 2641 2574 2642 2702
8 2659 2596 2658 2714 2704 2644 2703 2757
8 2704 2644 2703 2757 2655 2590 2652 2710
8 2660 2597 2659 2715 2705 2645 2704 2758
8 2705 2645 2704 2758 2657 2593 2655 2712
8 2759 2706 2647 2707 2710 2652 2587 2653
8 2709 2650 2585 2651 2760 2707 2648 2708
8 2708 2648 2589 2654 2760 2707 2653 2711
8 2712 2655 2710 2761 2656 2592 2653 2711
8 2763 2713 2658 2714 2718 2664 2603 2663
8 2662 2602 2663 2717 2715 2659 2714 2764
8 2720 2666 2718 2767 2665 2605 2663 2717
8 2768 2719 2664 2718 2721 2667 2606 2666
8 2668 2608 2669 2723 2720 2666 2721 2770
8 2669 2609 2670 2724 2721 2667 2722 2771
8 2671 2611 2672 2726 2723 2669 2724 2773
8 2672 2612 2673 2727 2724 2670 2725 2774
8 2674 2614 2675 2729 2726 2672 2727 2776
8 2675 2615 2676 2730 2727 2673 2728 2777
8 2677 2617 2678 2732 2729 2675 2730 2779
8 2678 2618 2679 2733 2730 2676 2731 2780
8 2680 2620 2681 2735 2732 2678 2733 2782
8 2733 2679 2621 2681 2783 2734 2682 2736
8 2735 2681 2623 2684 2784 2736 2683 2737
8 2740 2686 2647 2707 2787 2738 2706 2759
8 2688 2628 2686 2740 2742 2687 2739 2789
8 2743 2688 2650 2709 2790 2740 2707 2760
8 2742 2687 2741 2792 2690 2629 2689 2745
8 2743 2688 2742 2793 2709 2650 2690 2746
8 2745 2689 2744 2795 2692 2631 2693 2748
8 2746 2690 2745 2796 2691 2630 2692 2747
8 2747 2692 2748 2797 2694 2633 2695 2750
8 2748 2693 2749 2798 2695 2634 2696 2751
8 2750 2695 2751 2800 2697 2636 2698 2753
8 2751 2696 2752 2801 2698 2637 2699 2754
8 2753 2698 2754 2802 2700 2639 2701 2755
8 2763 2713 2756 2804 2714 2658 2703 2757
8 2759 2706 2652 2710 2804 2756 2703 2757
8 2715 2659 2714 2764 2758 2704 2757 2805
8 2758 2704 2757 2805 2712 2655 2710 2761
8 2806 2759 2707 2760 2761 2710 2653 2711
8 2765 2716 2762 2808 2718 2664 2713 2763
8 2809 2763 2714 2764 2767 2718 2663 2717
8 2765 2716 2664 2718 2811 2766 2719 2768
8 2813 2768 2718 2767 2770 2721 2666 2720
8 2814 2769 2719 2768 2771 2722 2667 2721
8 2723 2669 2724 2773 2770 2721 2771 2816
8 2724 2670 2725 2774 2771 2722 2772 2817
8 2726 2672 2727 2776 2773 2724 2774 2819
8 2727 2673 2728 2777 2774 2725 2775 2820
8 2729 2675 2730 2779 2776 2727 2777 2822
8 2730 2676 2731 2780 2777 2728 2778 2823
8 2732 2678 2733 2782 2779 2730 2780 2825
8 2780 2731 2679 2733 2826 2781 2734 2783
8 2782 2733 2681 2735 2827 2783 2736 2784
8 2830 2785 2738 2787 2804 2756 2706 2759
8 2789 2739 2686 2740 2832 2786 2738 2787
8 2790 2740 2707 2760 2833 2787 2759 2806
8 2742 2687 2739 2789 2792 2741 2788 2835
8 2743 2688 2740 2790 2793 2742 2789 2836
8 2792 2741 2791 2838 2745 2689 2744 2795
8 2793 2742 2792 2839 2746 2690 2745 2796
8 2795 2744 2794 2841 2748 2693 2749 2798
8 2796 2745 2795 2842 2747 2692 2748 2797
8 2797 2748 2798 2843 2750 2695 2751 2800
8 2798 2749 2799 2844 2751 2696 2752 2801
8 2800 2751 2801 2845 2753 2698 2754 2802
8 2808 2762 2803 2847 2763 2713 2756 2804
8 2809 2763 2804 2848 2764 2714 2757 2805
8 2806 2759 2710 2761 2848 2804 2757 2805
8 2765 2716 2766 2811 2808 2762 2807 2850
8 2810 2765 2808 2851 2767 2718 2763 2809
8 2810 2765 2718 2767 2852 2811 2768 2813
8 2811 2766 2719 2768 2853 2812 2769 2814
8 2855 2814 2768 2813 2816 2771 2721 2770
8 2856 2815 2769 2814 2817 2772 2722 2771
8 2773 2724 2774 2819 2816 2771 2817 2858
8 2774 2725 2775 2820 2817 2772 2818 2859
8 2776 2727 2777 2822 2819 2774 2820 2861
8 2777 2728 2778 2823 2820 2775 2821 2862
8 2779 2730 2780 2825 2822 2777 2823 2864
8 2823 2778 2731 2780 2865 2824 2781 2826
8 2825 2780 2733 2782 2866 2826 2783 2827
8 2869 2828 2785 2830 2847 2803 2756 2804
8 2871 2829 2786 2832 2830 2785 2738 2787
8 2872 2830 2787 2833 2848 2804 2759 2806
8 2789 2739 2786 2832 2835 2788 2831 2874
8 2836 2789 2740 2790 2875 2832 2787 2833
8 2792 2741 2788 2835 2838 2791 2834 2877
8 2793 2742 2789 2836 2839 2792 2835 2878
8 2838 2791 2837 2880 2795 2744 2794 2841
8 2839 2792 2838 2881 2796 2745 2795 2842
8 2841 2794 2840 2882 2798 2749 2799 2844
8 2842 2795 2841 2883 2797 2748 2798 2843
8 2843 2798 2844 2884 2800 2751 2801 2845
8 2886 2846 2803 2847 2850 2807 2762 2808
8 2851 2808 2847 2887 2809 2763 2804 2848
8 2850 2807 2766 2811 2889 2849 2812 2853
8 2810 2765 2811 2852 2851 2808 2850 2890
8 2852 2811 2768 2813 2891 2853 2814 2855
8 2853 2812 2769 2814 2892 2854 2815 2856
8 2894 2856 2814 2855 2858 2817 2771 2816
8 2817 2772 2818 2859 2856 2815 2857 2895
8 2819 2774 2820 2861 2858 2817 2859 2897
8 2820 2775 2821 2862 2859 2818 2860 2898
8 2822 2777 2823 2864 2861 2820 2862 2900
8 2823 2778 2824 2865 2862 2821 2863 2901
8 2864 2823 2780 2825 2902 2865 2826 2866
8 2904 2867 2828 2869 2886 2846 2803 2847
8 2869 2828 2868 2906 2830 2785 2829 2871
8 2907 2869 2830 2872 2887 2847 2804 2848
8 2871 2829 2870 2909 2832 2786 2831 2874
8 2910 2871 2832 2875 2872 2830 2787 2833
8 2835 2788 2831 2874 2877 2834 2873 2912
8 2836 2789 2832 2875 2878 2835 2874 2913
8 2877 2834 2876 2915 2838 2791 2837 2880
8 2839 2792 2835 2878 2881 2838 2877 2916
8 2880 2837 2879 2917 2841 2794 2840 2882
8 2881 2838 2880 2918 2842 2795 2841 2883
8 2883 2841 2882 2919 2843 2798 2844 2884
8 2921 2885 2846 2886 2889 2849 2807 2850
8 2922 2886 2847 2887 2890 2850 2808 2851
8 2889 2849 2812 2853 2924 2888 2854 2892
8 2890 2850 2811 2852 2925 2889 2853 2891
8 2891 2853 2814 2855 2926 2892 2856 2894
8 2892 2854 2815 2856 2927 2893 2857 2895
8 2858 2817 2859 2897 2894 2856 2895 2929
8 2859 2818 2860 2898 2895 2857 2896 2930
8 2861 2820 2862 2900 2897 2859 2898 2932
8 2862 2821 2863 2901 2898 2860 2899 2933
8 2864 2823 2865 2902 2900 2862 2901 2934
8 2904 2867 2846 2886 2936 2903 2885 2921
8 2904 2867 2903 2936 2869 2828 2868 2906
8 2937 2904 2869 2907 2922 2886 2847 2887
8 2906 2868 2905 2939 2871 2829 2870 2909
8 2907 2869 2906 2940 2872 2830 2871 2910
8 2909 2870 2908 2942 2874 2831 2873 2912
8 2910 2871 2909 2943 2875 2832 2874 2913
8 2912 2873 2911 2945 2877 2834 2876 2915
8 2878 2835 2874 2913 2916 2877 2912 2946
8 2915 2876 2914 2947 2880 2837 2879 2917
8 2916 2877 2915 2948 2881 2838 2880 2918
8 2918 2880 2917 2949 2883 2841 2882 2919
8 2921 2885 2849 2889 2951 2920 2888 2924
8 2952 2921 2886 2922 2925 2889 2850 2890
8 2924 2888 2854 2892 2954 2923 2893 2927
8 2925 2889 2853 2891 2955 2924 2892 2926
8 2926 2892 2856 2894 2956 2927 2895 2929
8 2895 2857 2896 2930 2927 2893 2928 2957
8 2897 2859 2898 2932 2929 2895 2930 2959
8 2898 2860 2899 2933 2930 2896 2931 2960
8 2900 2862 2901 2934 2932 2898 2933 2961
8 2936 2903 2885 2921 2963 2935 2920 2951
8 2936 2903 2935 2963 2906 2868 2905 2939
8 2937 2904 2886 2922 2964 2936 2921 2952
8 2937 2904 2936 2964 2907 2869 2906 2940
8 2939 2905 2938 2966 2909 2870 2908 2942
8 2940 2906 2939 2967 2910 2871 2909 2943
8 2942 2908 2941 2969 2912 2873 2911 2945
8 2943 2909 2942 2970 2913 2874 2912 2946
8 2945 2911 2944 2971 2915 2876 2914 2947
8 2946 2912 2945 2972 2916 2877 2915 2948
8 2948 2915 2947 2973 2918 2880 2917 2949
8 2951 2920 2888 2924 2975 2950 2923 2954
8 2952 2921 2889 2925 2976 2951 2924 2955
8 2927 2893 2928 2957 2954 2923 2953 2978
8 2955 2924 2892 2926 2979 2954 2927 2956
8 2929 2895 2930 2959 2956 2927 2957 2980
8 2930 2896 2931 2960 2957 2928 2958 2981
8 2932 2898 2933 2961 2959 2930 2960 2982
8 2951 2920 2950 2975 2963 2935 2962 2984
8 2963 2935 2962 2984 2939 2905 2938 2966
8 2964 2936 2921 2952 2985 2963 2951 2976
8 2964 2936 2963 2985 2940 2906 2939 2967
8 2966 2938 2965 2987 2942 2908 2941 2969
8 2967 2939 2966 2988 2943 2909 2942 2970
8 2969 2941 2968 2989 2945 2911 2944 2971
8 2970 2942 2969 2990 2946 2912 2945 2972
8 2972 2945 2971 2991 2948 2915 2947 2973
8 2954 2923 2953 2978 2975 2950 2974 2993
8 2976 2951 2924 2955 2994 2975 2954 2979
8 2957 2928 2958 2981 2978 2953 2977 2995
8 2956 2927 2957 2980 2979 2954 2978 2996
8 2959 2930 2960 2982 2980 2957 2981 2997
8 2984 2962 2983 2999 2966 2938 2965 2987
8 2975 2950 2974 2993 2984 2962 2983 2999
8 2976 2951 2975 2994 2985 2963 2984 3000
8 2985 2963 2984 3000 2967 2939 2966 2988
8 2987 2965 2986 3001 2969 2941 2968 2989
8 2988 2966 2987 3002 2970 2942 2969 2990
8 2990 2969 2989 3003 2972 2945 2971 2991
8 2978 2953 2977 2995 2993 2974 2992 3004
8 2979 2954 2978 2996 2994 2975 2993 3005
8 2980 2957 2981 2997 2996 2978 2995 3006
8 2974 2993 2999 2983 2992 3004 3007 2998
8 2983 2999 2987 2965 2998 3007 3001 2986
8 3000 2984 2999 3008 2988 2966 2987 3002
8 2994 2975 2993 3005 3000 2984 2999 3008
8 3002 2987 3001 3009 2990 2969 2989 3003
8 2996 2978 2995 3006 3005 2993 3004 3010
8 3005 2993 3004 3010 3008 2999 3007 3011
8 3008 2999 3007 3011 3002 2987 3001 3009

CELL_TYPES 1910
12
12
12
12
12
12
12
12
12
12
12
12
12
12
12
12
12
12
12
12
12
12
12
12
12
12
12
12
12
12
12
12
12
12
12
12
12
12
12
12
12
12
12
12
12
12
12
12
12
12
12
12
12
12
12
12
12
12
12
12
12
12
12
12
12
12
12
12
12
12
12
12
12
12
12
12
12
12
12
12
12
12
12
12
12
12
12
12
12
12
12
12
12
12
12
12
12
12
12
12
12
12
12
12
12
12
12
12
12
12
12
12
12
12
12
12
12
12
12
12
12
12
12
12
12
12
12
12
12
12
12
12
12
12
12
12
12
12
12
12
12
12
12
12
12
12
12
12
12
12
12
12
12
12
12
12
12
12
12
12
12
12
12
12
12
12
12
12
12
12
12
12
12
12
12
12
12
12
12
12
12
12
12
12
12
12
12
12
12
12
12
12
12
12
12
12
12
12
12
12
12
12
12
12
12
12
12
12
12
12
12
12
12
12
12
12
12
12
12
12
12
12
12
12
12
12
12
12
12
12
12
12
12
12
12
12
12
12
12
12
12
12
12
12
12
12
12
12
12
12
12
12
12
12
12
12
12
12
12
12
12
12
12
12
12
12
12
12
12
12
12
12
12
12
12
12
12
12
12
12
12
12
12
12
12
12
12
12
12
12
12
12
12
12
12
12
12
12
12
12
12
12
12
12
12
12
12
12
12
12
12
12
12
12
12
12
12
12
12
12
12
12
12
12
12
12
12
12
12
12
12
12
12
12
12
12
12
12
12
12
12
12
12
12
12
12
12
12
12
12
12
12
12
12
12
12
12
12
12
12
12
12
12
12
12
12
12
12
12
12
12
12
12
12
12
12
12
12
12
12
12
12
12
12
12
12
12
12
12
12
12
12
12
12
12
12
12
12
12
12
12
12
12
12
12
12
12
12
12
12
12
12
12
12
12
12
12
12
12
12
12
12
12
12
12
12
12
12
12
12
12
12
12
12
12
12
12
12
12
12
12
12
12
12
12
12
12
12
12
12
12
12
12
12
12
12
12
12
12
12
12
12
12
12
12
12
12
12
12
12
12
12
12
12
12
12
12
12
12
12
12
12
12
12
12
12
12
12
12
12
12
12
12
12
12
12
12
12
12
12
12
12
12
12
12
12
12
12
12
12
12
12
12
12
12
12
12
12
12
12
12
12
12
12
12
12
12
12
12
12
12
12
12
12
12
12
12
12
12
12
12
12
12
12
12
12
12
12
12
12
12
12
12
12
12
12
12
12
12
12
12
12
12
12
12
12
12
12
12
12
12
12
12
12
12
12
12
12
12
12
12
12
12
12
12
12
12
12
12
12
12
12
12
12
12
12
12
12
12
12
12
12
12
12
12
12
12
12
12
12
12
12
12
12
12
12
12
12
12
12
12
12
12
12
12
12
12
12
12
12
12
12
12
12
12
12
12
12
12
12
12
12
12
12
12
12
12
12
12
12
12
12
12
12
12
12
12
12
12
12
12
12
12
12
12
12
12
12
12
12
12
12
12
12
12
12
12
12
12
12
12
12
12
12
12
12
12
12
12
12
12
12
12
12
12
12
12
12
12
12
12
12
12
12
12
12
12
12
12
12
12
12
12
12
12
12
12
12
12
12
12
12
12
12
12
12
12
12
12
12
12
12
12
12
12
12
12
12
12
12
12
12
12
12
12
12
12
12
12
12
12
12
12
12
12
12
12
12
12
12
12
12
12
12
12
12
12
12
12
12
12
12
12
12
12
12
12
12
12
12
12
12
12
12
12
12
12
12
12
12
12
12
12
12
12
12
12
12
12
12
12
12
12
12
12
12
12
12
12
12
12
12
12
12
12
12
12
12
12
12
12
12
12
12
12
12
12
12
12
12
12
12
12
12
12
12
12
12
12
12
12
12
12
12
12
12
12
12
12
12
12
12
12
12
12
12
12
12
12
12
12
12
12
12
12
12
12
12
12
12
12
12
12
12
12
12
12
12
12
12
12
12
12
12
12
12
12
12
12
12
12
12
12
12
12
12
12
12
12
12
12
12
12
12
12
12
12
12
12
12
12
12
12
12
12
12
12
12
12
12
12
12
12
12
12
12
12
12
12
12
12
12
12
12
12
12
12
12
12
12
12
12
12
12
12
12
12
12
12
12
12
12
12
12
12
12
12
12
12
12
12
12
12
12
12
12
12
12
12
12
12
12
12
12
12
12
12
12
12
12
12
12
12
12
12
12
12
12
12
12
12
12
12
12
12
12
12
12
12
12
12
12
12
12
12
12
12
12
12
12
12
12
12
12
12
12
12
12
12
12
12
12
12
12
12
12
12
12
12
12
12
12
12
12
12
12
12
12
12
12
12
12
12
12
12
12
12
12
12
12
12
12
12
12
12
12
12
12
12
12
12
12
12
12
12
12
12
12
12
12
12
12
12
12
12
12
12
12
12
12
12
12
12
12
12
12
12
12
12
12
12
12
12
12
12
12
12
12
12
12
12
12
12
12
12
12
12
12
12
12
12
12
12
12
12
12
12
12
12
12
12
12
12
12
12
12
12
12
12
12
12
12
12
12
12
12
12
12
12
12
12
12
12
12
12
12
12
12
12
12
12
12
12
12
12
12
12
12
12
12
12
12
12
12
12
12
12
12
12
12
12
12
12
12
12
12
12
12
12
12
12
12
12
12
12
12
12
12
12
12
12
12
12
12
12
12
12
12
12
12
12
12
12
12
12
12
12
12
12
12
12
12
12
12
12
12
12
12
12
12
12
12
12
12
12
12
12
12
12
12
12
12
12
12
12
12
12
12
12
12
12
12
12
12
12
12
12
12
12
12
12
12
12
12
12
12
12
12
12
12
12
12
12
12
12
12
12
12
12
12
12
12
12
12
12
12
12
12
12
12
12
12
12
12
12
12
12
12
12
12
12
12
12
12
12
12
12
12
12
12
12
12
12
12
12
12
12
12
12
12
12
12
12
12
12
12
12
12
12
12
12
12
12
12
12
12
12
12
12
12
12
12
12
12
12
12
12
12
12
12
12
12
12
12
12
12
12
12
12
12
12
12
12
12
12
12
12
12
12
12
12
12
12
12
12
12
12
12
12
12
12
12
12
12
12
12
12
12
12
12
12
12
12
12
12
12
12
12
12
12
12
12
12
12
12
12
12
12
12
12
12
12
12
12
12
12
12
12
12
12
12
12
12
12
12
12
12
12
12
12
12
12
12
12
12
12
12
12
12
12
12
12
12
12
12
12
12
12
12
12
12
12
12
12
12
12
12
12
12
12
12
12
12
12
12
12
12
12
12
12
12
12
12
12
12
12
12
12
12
12
12
12
12
12
12
12
12
12
12
12
12
12
12
12
12
12
12
12
12
12
12
12
12
12
12
12
12
12
12
12
12
12
12
12
12
12
12
12
12
12
12
12
12
12
12
12
12
12
12
12
12
12
12
12
12
12
12
12
12
12
12
12
12
12
12
12
12
12
12
12
12
12
12
12
12
12
12
12
12
12
12
12
12
12
12
12
12
12
12
12
12
12
12
12
12
12
12
12
12
12
12
12
12
12
12
12
12
12
12
12
12
12
12
12
12
12
12
12
12
12
12
12
12
12
12
12
12
12
12
12
12
12
12
12
12
12
12
12
12
12
12
12
12
12
12
12
12
12
12
12
12
12
12
12
12
12
12
12
12
12
12
12
12
12
12
12
12
12
12
12
12
12
12
12
12
12
12
12
12
12
12
12
12
12
12
12
12
12
12
12
12
12
12
12
12
12
12
12
12
12
12
12
12
12
12
12
12
12
12
12
12
12
12
12
12
12
12
12
12
12
12
12
12
12
12
12
12
12
12
12
12
12
12
12
12
12
12
12
12
12
12
12
12
12
12
12
12
12
12
12
12
12
12
12
12
12
12
12
12
12
12
12
12
12
12
12
12
12
12
12
12
12
12
12
12
12
12
12
12
12
12
12
12
12
12
12
12
12
12
12
12
12
12
12
12
12
12
12
12
12
12
12
12
12
12
12
12
12
12
12
12
12
12
12
12
12
12
12
12
12
12
12
12
12
12
12
12
12
12
12
12
12
12
12
12
12
12
12
12
12
12
12
12
12
12
12
12
12
12
12
12
12
12
12
12
12
12
12
12
12
12
12
12
12
12
12
12
12
12
12
12
12
12
12
12
12
12
12
12
12
12
12
12
12
12
12
12
12
12
12
12
12
12
12
12
12
12
12
12
12
12
12
12
12
12
12
12
12
12
12
12
12
12
12
12
12
12
12
12
12
12
12
12
12
12
12
12
12
12
12
12
12
12
12
12
12
12
12
12
12

POINT_DATA 3012
SCALARS Jp_lamdaP float 4
LOOKUP_TABLE default
0.999698 1 1 0.999698
1 1 1 1
0.999707 1 1 0.999707
0.999644 1 1 0.999644
0.9997 1 1 0.9997
0.999681 1 1 0.999681
0.998908 1 1 0.998908
1 1 1 1
1 1 1 1
1 1 1 1
0.999773 1 1 0.999773
0.999026 1 1 0.999026
0.999634 1 1 0.999634
0.999646 1 1 0.999646
0.999708 1 1 0.999708
0.999669 1 1 0.999669
0.999687 1 1 0.999687
0.999715 1 1 0.999715
0.998909 1 1 0.998909
1 1 1 1
0.999625 1 1 0.999625
0.999677 1 1 0.999677
0.998782 1 1 0.998782
0.998884 1 1 0.998884
0.999689 1 1 0.999689
0.998925 1 1 0.998925
1.01052 1.01286 1 0.997697
1 1 1 1
0.99984 1 1 0.99984
0.999853 1 1 0.999853
1 1 1 1
0.999035 1 1 0.999035
0.999672 1 1 0.999672
0.999699 1 1 0.999699
0.999052 1 1 0.999047
1 1 1 1
0.999132 1 1 0.999132
0.999127 1 1 0.999127
1.00415 1.00648 1 0.997684
1 1 1 1
1 1 1 1
0.999823 1 1 0.999823
1 1 1 1
0.999649 1 1 0.999649
0.99871 1 1 0.99871
1 1 1 1
0.998949 1 1 0.998949
0.999691 1 1 0.999691
0.999726 1 1 0.999726
0.999689 1 1 0.999689
0.998915 1 1 0.998915
0.999807 1 1 0.999807
0.999648 1 1 0.999648
0.999702 1 1 0.999702
0.999699 1 1 0.999699
0.998779 1 1 0.998779
0.998929 1 1 0.998929
0.998886 1 1 0.998886
1.01094 1.01329 1 0.997682
1 1 1 1
0.999623 1 1 0.999623
0.998968 1 1 0.998968
0.99875 1 1 0.99875
0.998835 1 1 0.998835
1.01391 1.01653 1 0.997424
1.01202 1.01451 1 0.99754
0.999753 1 1 0.999753
0.99903 1 1 0.99903
1.00799 1.01022 1 0.99779
1.0287 1.03199 1 0.996816
1 1 1 1
1 1 1 1
1 1 1 1
0.999043 1 1 0.999043
1 1 1 1
1 1 1 1
0.998888 1 1 0.998884
0.999918 1 1 0.999918
0.998989 1 1 0.998989
0.999248 1 1.00001 0.999233
1.00299 1.00532 1 0.99768
1 1 1 1
1.00102 1 1.00122 0.999798
0.998809 1 1 0.998809
0.998918 1 1 0.998918
1.01485 1.01764 1 0.997258
0.999796 1 1.00032 0.999472
1.0086 1.01105 1 0.997583
1.0005 1.00268 1 0.997831
1.01077 1.01383 1 0.99698
1 1 1 1
1 1 1 1
1 1 1 1
1 1 1 1
1 1 1 1
0.999823 1 1 0.999823
0.998831 1 1 0.998831
0.999825 1 1 0.999825
0.998862 1 1 0.998862
1 1 1 1
0.99872 1 1 0.99872
0.998937 1 1 0.998937
1.01375 1.01674 1 0.997052
0.998984 1 1 0.998984
1.01629 1.01925 1 0.997095
0.999656 1 1 0.999656
0.999669 1 1 0.999669
0.999712 1 1 0.999712
0.999718 1 1 0.999718
0.998778 1 1 0.998778
0.998889 1 1 0.998889
0.998935 1 1 0.998935
1.01134 1.01371 1 0.997668
1 1 1 1
0.999645 1 1 0.999645
0.998747 1 1 0.998747
0.998745 1 1 0.998745
0.999877 1 1 0.999877
0.999104 1 1 0.999104
0.998836 1 1 0.998836
1.01388 1.01653 1 0.997385
1.00868 1.01093 1 0.997773
1.0123 1.01476 1 0.997569
1.02863 1.03191 1 0.996823
0.998742 1 1 0.998742
0.998743 1 1 0.998743
1.01248 1.01524 1 0.997284
1.01385 1.01657 1 0.997326
1.0137 1.01631 1 0.997436
1.03758 1.04098 1 0.99673
1 1 1 1
1.03166 1.03499 1 0.996784
0.999477 1 1.00024 0.999242
1.00371 1.00594 1 0.997777
1.02518 1.02842 1 0.996848
1.03567 1.03912 1 0.996671
1.00129 1 1.00173 0.999554
1.00646 1 1.00795 0.998519
1 1 1 1
1 1 1 1
0.998893 1 1 0.99889
1 1 1 1
0.999311 1 1.00012 0.999194
0.998995 1 1 0.998995
1.00189 1.00422 1 0.997677
1 1 1 1
1.00058 1 1.00076 0.999821
0.998921 1.00001 1 0.998913
0.999015 1 1 0.999015
1.01424 1.01703 1 0.997258
1.00004 1 1.00062 0.999427
1.00734 1.00978 1 0.997585
0.999827 1.002 1 0.99783
1.01169 1.01477 1 0.996966
1.0011 1 1.00148 0.999621
0.99991 1 1 0.99991
1.00304 1 1.00424 0.998801
1.01637 1.01927 1 0.997154
1.01237 1.01499 1 0.99742
1.03491 1.03839 1 0.996649
0.999329 1.00069 1.00054 0.998106
1.02048 1.02363 1 0.996915
1.00731 1.00969 1.00057 0.997071
1.02023 1.0235 1 0.996804
1 1 1 1
1 1 1 1
1 1 1 1
1.00043 1 1.00075 0.999688
1 1 1 1
1 1 1 1
1 1 1 1
0.998775 1 1 0.998775
0.998742 1 1 0.998742
1 1 1 1
1 1 1 1
0.998721 1 1 0.998721
0.998851 1 1 0.998851
1.01422 1.01721 1 0.997052
0.998794 1 1 0.998794
1.01649 1.01945 1 0.997095
0.998717 1 1 0.998717
1.01253 1.01556 1 0.997017
1.01517 1.01814 1 0.997085
1.04216 1.04567 1 0.996641
1.01672 1.01967 1 0.997107
1.04362 1.04713 1 0.996652
1 1 1 1
0.999668 1 1 0.999668
0.998505 1 1 0.998505
0.998741 1 1 0.998741
1 1 1 1
0.999181 1 1 0.999181
0.998837 1 1 0.998837
1.01382 1.01651 1 0.997346
1.0126 1.01504 1 0.997597
1.00938 1.01165 1 0.997755
1.02854 1.03181 1 0.99683
0.99874 1 1 0.99874
0.998738 1 1 0.998738
1.01236 1.01525 1 0.997162
1.01387 1.01657 1 0.99735
1 1 1 1
0.999382 1 1.0001 0.99928
1.00503 1.00719 1 0.997851
1.01365 1.01626 1 0.997431
1.03739 1.04082 1 0.996711
1.02458 1.02783 1 0.99684
1.03188 1.03517 1 0.99682
1.03529 1.03874 1 0.99668
1.0012 1 1.00166 0.999542
1.00477 1 1.00626 0.998521
1.0121 1.0151 1 0.997038
1.01276 1.01549 1 0.997312
1.03929 1.04272 1 0.996713
1.03782 1.04128 1 0.99668
1.03476 1.03807 1 0.996809
1.04572 1.0491 1 0.996778
1.00053 1 1.00113 0.9994
1.03809 1.04149 1 0.996739
1.00015 1.00209 1.00011 0.99796
1.01768 1.02081 1 0.996935
1.0332 1.03669 1 0.996628
1.03644 1.03973 1 0.996837
1.00309 1.0001 1.00471 0.998298
1.00302 1 1.00423 0.998796
1.0033 1 1.00546 0.997849
0.998845 1.00001 1 0.998836
1 1 1 1
1.0001 1 1.00025 0.999844
0.998951 1 1 0.998951
1.01362 1.0164 1 0.997259
1.00017 1 1.00074 0.999431
0.998928 1.00106 1.00004 0.997829
1.0061 1.00853 1 0.997588
1.01271 1.0158 1 0.996953
1.0009 1 1.00126 0.999642
0.999926 1 1 0.999926
1.00357 1 1.00477 0.998802
1.016 1.0189 1 0.997152
1.01139 1.014 1 0.997424
1.03503 1.03851 1 0.996645
0.998867 1.00029 1.00047 0.99811
1.02163 1.02479 1 0.99692
1.00644 1.00893 1.00047 0.997066
1.02096 1.02424 1 0.996796
0.999963 1 1 0.999963
1.00123 1.00003 1.00277 0.998428
1.00159 1 1.00242 0.999179
1.00355 1 1.00543 0.998131
1.03921 1.04275 1 0.996608
1.02908 1.0324 1 0.996779
1.03982 1.0434 1 0.996566
1.00276 1.00489 1.00049 0.997394
1.02765 1.03095 1 0.996798
1.01639 1.0181 1.00158 0.996743
1.02866 1.03207 1 0.996702
0.999705 1 1 0.999705
0.999995 1 1 0.999995
1 1 1 1
1 1 1 1
1 1 1 1
0.999809 1 1 0.999808
1 1 1 1
1.00101 1 1.00134 0.999674
1 1 1 1
0.998801 1.00001 1 0.998795
0.998762 1 1 0.998762
1.01679 1.01976 1 0.997094
1.01466 1.01766 1 0.997053
0.998723 1 1 0.998723
1 1 1 1
0.998716 1 1 0.998716
1.01285 1.01588 1 0.997017
1.01557 1.01854 1 0.997085
1.04151 1.04503 1 0.996639
1.01678 1.01973 1 0.997105
1.04371 1.04722 1 0.996649
1.01196 1.01499 1 0.997013
1.04096 1.0445 1 0.99661
1.04289 1.04639 1 0.996659
1.04972 1.05422 0.998839 0.996892
1.04313 1.04666 1 0.996625
1.05154 1.05517 0.999747 0.996806
0.998737 1 1 0.998737
0.998732 1 1 0.998732
1.01226 1.01526 1 0.99704
1.01392 1.01659 1 0.997374
1 1 1 1
0.999317 1 1 0.999317
1.00629 1.00838 1 0.997926
1.01359 1.01621 1 0.997427
1.03726 1.0407 1 0.996691
1.03206 1.03531 1 0.996855
1.024 1.02726 1 0.996833
1.03506 1.0385 1 0.996688
1.00132 1 1.00179 0.999531
1.00392 1 1.0054 0.998523
1.012 1.01503 1 0.997018
1.01279 1.01552 1 0.997307
1.03923 1.04264 1 0.996731
1.03789 1.04133 1 0.996696
1.00024 1 1.00085 0.999389
1.0012 1.00318 1.00007 0.997958
1.01738 1.02047 1 0.996969
1.03505 1.03838 1 0.996795
1.04598 1.04932 0.999997 0.996816
1.03275 1.03627 1 0.996606
1.03802 1.04141 1 0.996744
1.03666 1.03995 1 0.996835
1.00273 1.00013 1.0043 0.998301
1.0039 1.00012 1.00594 0.997852
1.00365 1 1.00486 0.998794
1.0392 1.04267 1 0.996677
1.03859 1.04198 1 0.996747
1.04969 1.05387 0.999194 0.996836
1.04716 1.05075 0.999779 0.996802
1.04108 1.04442 1 0.996807
1.04249 1.04758 0.998044 0.997092
0.999144 1.0004 1.0006 0.998143
1.03881 1.04198 1 0.996955
1.00698 1.00975 1 0.997249
1.02436 1.02793 1 0.996527
1.03282 1.03638 1 0.996565
1.03162 1.03465 1 0.997078
1.00099 1 1.00193 0.999058
0.999002 1.00057 1.00067 0.997758
1.00799 1 1.01 0.998008
1.00174 1.00148 1.00266 0.99761
1.01565 1.01856 1 0.99715
0.999942 1 1 0.999942
1.00082 1 1.00115 0.999664
1.00434 1 1.00555 0.998803
1.01041 1.01301 1 0.997427
1.03515 1.03864 1 0.99664
0.99855 1.00003 1.00041 0.998115
1.00554 1.00817 1.00033 0.997061
1.02276 1.02592 1 0.996926
1.02103 1.02432 1 0.996788
0.999971 1 1 0.999971
1.00209 1.00001 1.00366 0.998429
1.00107 1 1.00188 0.999188
1.00418 1 1.00607 0.998125
1.03909 1.04263 1 0.996603
1.02928 1.03261 1 0.996777
1.03945 1.04304 1 0.996563
1.00131 1.00347 1.00045 0.9974
1.02738 1.03067 1 0.996801
1.01616 1.01774 1.00173 0.996732
1.02846 1.03178 1 0.99678
0.999987 1 1 0.999987
0.999795 1 1.00035 0.999444
1.00062 1.00098 1.00184 0.997796
1.00395 1 1.00548 0.998479
1.00104 1.00011 1.00312 0.997821
1.04432 1.04787 1 0.996608
1.03374 1.03721 1 0.996653
1.03547 1.03892 1 0.996675
1.00663 1.00764 1.00199 0.99701
1.02626 1.02957 1 0.996784
1.01635 1.01905 1.00086 0.996494
0.999666 1 1 0.999666
0.999168 1 1 0.999168
0.999734 1 1 0.999734
0.999707 1 1 0.999707
0.999998 1 1 0.999998
0.999996 1 1 0.999996
1 1 1 1
1 1 1 1
1 1 1 1
0.99991 1 1 0.99991
1 1 1 1
1.00002 1 1.00023 0.999792
1 1 1 1
1.00112 1 1.00146 0.99966
1 1 1 1
1.01677 1.01973 1 0.997102
1.01592 1.01889 1 0.997084
1.04353 1.04704 1 0.996646
1.04086 1.04438 1 0.996637
1.01324 1.01627 1 0.997017
0.998715 1 1 0.998715
1.01211 1.01514 1 0.997013
1.04064 1.04418 1 0.99661
1.0425 1.04599 1 0.996656
1.04998 1.05477 0.998545 0.99691
1.04245 1.04599 1 0.996621
1.0511 1.05468 0.999807 0.996803
1.03968 1.04323 1 0.996602
1.04876 1.05416 0.99796 0.996915
1.05133 1.05535 0.999324 0.996865
1.0468 1.05444 0.995607 0.997127
1.04759 1.05104 1 0.996712
1.04823 1.05455 0.996856 0.997144
1.01195 1.015 1 0.996998
1.01283 1.01557 1 0.997303
1.0392 1.04259 1 0.996749
1.03792 1.04135 1 0.996711
0.999933 1 1.00055 0.999378
1.00218 1.00421 1.00002 0.997956
1.01737 1.02043 1 0.997002
1.03536 1.03871 1 0.99678
1.04624 1.04954 1 0.996853
1.03801 1.04139 1 0.996748
1.03214 1.03568 1 0.996583
1.03686 1.04016 1 0.996832
1.00203 1.00019 1.00355 0.998303
1.00438 1.00025 1.00628 0.997856
1.004 1 1.00521 0.998792
1.0393 1.04279 1 0.996649
1.03881 1.04221 1 0.996745
1.04914 1.05348 0.999 0.996876
1.0474 1.05104 0.999749 0.996789
0.999712 1.00084 1.00074 0.998141
1.00826 1.01104 1 0.997244
1.02309 1.02658 1.00003 0.996571
1.04125 1.04461 1 0.99678
1.04224 1.04753 0.997803 0.997142
1.03336 1.03696 1 0.996527
1.0387 1.04187 1 0.996958
1.03235 1.03534 1 0.997112
1.00006 1.00113 1.00117 0.997759
1.00181 1.00146 1.00277 0.997581
1.00157 1 1.00251 0.999054
1.00743 1 1.0094 0.998046
1.04917 1.0536 0.998925 0.996863
1.04941 1.05355 0.999225 0.996836
1.04346 1.05094 0.995823 0.997041
1.04255 1.05047 0.995282 0.997165
1.04049 1.04411 0.999452 0.99708
1.03898 1.0465 0.995472 0.997325
1.00063 1.00309 1 0.997556
1.03343 1.03728 0.998977 0.99731
1.01239 1.01563 1 0.996808
1.02269 1.02629 1.00018 0.99632
1.0343 1.0379 1 0.99654
1.0331 1.03606 1 0.997148
0.999572 1 1.0003 0.999269
1.00664 1 1.00837 0.998282
1.00024 1.00275 1 0.997494
1.00418 1 1.00645 0.997745
1.00182 1.00215 1.00217 0.997511
0.999979 1 1 0.999979
1.0389 1.04245 1 0.996597
1.00033 1 1.00114 0.999197
1.00289 1 1.00446 0.99843
1.00481 1 1.0067 0.998119
1.02949 1.03282 1 0.996776
1.03912 1.04271 1 0.99656
0.999988 1.00208 1.00051 0.997407
1.0171 1.01847 1.00193 0.99672
1.02723 1.03053 1 0.996804
1.02876 1.03201 1 0.996857
0.999989 1 1 0.999989
0.999623 1 1.00017 0.999454
0.999788 1.00065 1.00134 0.997798
1.00493 1 1.00646 0.998478
1.00147 1.00008 1.0036 0.997805
1.04423 1.04779 1 0.996602
1.03366 1.03713 1 0.996651
1.03548 1.03895 1 0.996663
1.0065 1.00737 1.00213 0.997014
1.02866 1.03198 1 0.99678
1.01652 1.0191 1.00096 0.996515
0.999592 1 1 0.999592
1.00074 1 1.00192 0.998818
1.00075 1.00283 1.00048 0.997459
1.00596 1 1.00786 0.998109
1.00084 1.00106 1.00203 0.997755
1.04099 1.04434 1 0.99679
1.02993 1.03334 1 0.996698
1.03471 1.03795 1 0.99688
1.00298 1.00237 1.00379 0.996827
1.01481 1.01844 1 0.996437
0.999669 1 1 0.999669
0.999092 1 1 0.999092
0.999143 1 1 0.999143
0.998895 1 1 0.998895
0.999186 1 1 0.999186
0.999749 1 1 0.999749
0.999736 1 1 0.999736
1 1 1 1
0.999708 1 1 0.999708
0.999999 1 1 0.999999
1 1 1 1
0.999997 1 1 0.999997
1 1 1 1
1 1 1 1
0.999975 1 1 0.999975
0.999892 1 1 0.999892
1 1 1 1
1 1 1 1
1.00038 1 1.00061 0.999776
1 1 1 1
1.0419 1.04543 1 0.996617
1.04231 1.04581 1 0.996654
1.05087 1.05438 0.999868 0.996801
1.0503 1.05537 0.998261 0.996928
1.04022 1.04376 1 0.99661
1.01217 1.0152 1 0.997013
1.03963 1.04317 1 0.996602
1.04869 1.05402 0.99803 0.996909
1.05148 1.0554 0.999418 0.996865
1.046 1.05418 0.99507 0.997159
1.04832 1.05178 1 0.996705
1.04812 1.05448 0.996797 0.997166
1.04882 1.05378 0.998405 0.996883
1.04465 1.05274 0.995202 0.997102
1.04683 1.05506 0.994978 0.997203
1.04475 1.05535 0.992647 0.997284
1.04655 1.05037 0.999372 0.996993
1.0451 1.05479 0.993424 0.997375
1.03928 1.0428 1 0.996622
1.03899 1.04239 1 0.996743
1.04857 1.05306 0.998811 0.996916
1.04755 1.05124 0.99971 0.996776
1.00033 1.00133 1.00086 0.998139
1.00906 1.01185 1 0.997239
1.0216 1.02489 1.00018 0.996616
1.04137 1.04477 1 0.996753
1.04197 1.04749 0.997537 0.997191
1.03851 1.04168 1 0.996961
1.03387 1.03752 1 0.99649
1.03247 1.03543 1 0.997146
1.00111 1.00156 1.00179 0.99776
1.00171 1.00126 1.0029 0.997553
1.002 1 1.00295 0.99905
1.00642 1 1.00835 0.998085
1.04894 1.05335 0.998943 0.996863
1.04903 1.05306 0.999356 0.996815
1.04365 1.05123 0.995701 0.997073
1.04301 1.05048 0.995732 0.997147
1.0016 1.00406 1 0.997548
1.0109 1.01406 1.00003 0.996852
1.02308 1.02647 1.00039 0.99631
1.04033 1.04379 0.99965 0.997032
1.03796 1.0458 0.995112 0.997382
1.03131 1.0349 1 0.996525
1.0344 1.03818 0.999048 0.997311
1.03365 1.03655 1 0.997205
1.00029 1.0028 1 0.997492
1.00163 1.00267 1.00146 0.997511
1.00486 1.00015 1.00699 0.997738
0.999921 1 1.00069 0.999233
1.00613 1 1.00782 0.998319
1.04342 1.05192 0.994811 0.997089
1.04357 1.05231 0.994562 0.99712
1.03866 1.05021 0.991613 0.997369
1.03483 1.04247 0.995269 0.99739
1.00352 1.0063 1 0.997236
1.03838 1.04229 0.998756 0.997488
1.00694 1.01013 1.00029 0.996553
1.02006 1.02353 1.00051 0.99611
1.02872 1.03231 1 0.996522
0.999419 1 1 0.999419
1.00278 1 1.00417 0.998623
1.00564 1 1.00762 0.998034
1.00188 1.00449 1 0.997395
1.00386 1 1.0064 0.997475
1.00132 1.0029 1.00105 0.997371
0.999992 1 1 0.999992
0.999467 1 1 0.999463
1.04415 1.04771 1 0.996596
1.00601 1 1.00755 0.998478
0.998777 1.00024 1.00074 0.9978
1.00168 1 1.0039 0.997789
1.03344 1.03692 1 0.99665
1.03536 1.03884 1 0.996652
1.00581 1.00652 1.00229 0.997019
1.01572 1.01846 1.00077 0.996536
1.03097 1.0343 1 0.996777
0.999598 1 1 0.999598
1.00056 1 1.00174 0.998822
1.00042 1.00256 1.00041 0.997456
1.00711 1 1.00902 0.998103
1.00065 1.00116 1.00174 0.997757
1.04097 1.04433 1 0.996783
1.03032 1.03374 1 0.996687
1.03457 1.03778 1 0.996907
1.00392 1.00389 1.00324 0.996789
1.01368 1.01727 1.00006 0.996408
0.999037 1 1 0.999037
1.00628 1 1.00791 0.998386
1.0022 1.00289 1.002 0.99733
1.00565 1.00128 1.0065 0.997873
1.00337 1.00475 1.001 0.997636
1.04039 1.04471 0.998589 0.997272
1.0293 1.03281 1 0.996598
1.03124 1.03444 1 0.996907
1.00563 1.00465 1.00433 0.996652
1.00527 1.00909 1 0.99622
0.999672 1 1 0.999672
0.99911 1 1 0.99911
0.998816 1 1 0.998816
0.999119 1 1 0.999119
0.999185 1 1 0.999185
0.998865 1 1 0.998865
0.998758 1 1 0.998758
0.99881 1 1 0.99881
0.9992 1 1 0.9992
0.999743 1 1 0.999743
0.999749 1 1 0.999749
1 1 1 1
0.999738 1 1 0.999738
1 1 1 1
1 1 1 1
0.999999 1 1 0.999999
1 1 1 1
1 1 1 1
0.999997 1 1 0.999997
0.999961 1 1 0.999961
1 1 1 1
0.999964 1 1.00009 0.999873
1 1 1 1
1 1 1 1
1.04901 1.05248 1 0.996698
1.05142 1.05525 0.999507 0.996865
1.04799 1.05437 0.996752 0.997188
1.04515 1.05388 0.994512 0.99719
1.04867 1.05391 0.99812 0.996903
1.03971 1.04326 1 0.996603
1.04878 1.05364 0.99852 0.996864
1.04519 1.05287 0.995605 0.997094
1.0465 1.05468 0.995043 0.997187
1.0438 1.05492 0.992145 0.997296
1.04608 1.04971 0.999548 0.996993
1.04336 1.05379 0.992676 0.997415
1.04531 1.05266 0.995931 0.997076
1.04505 1.05643 0.991935 0.99728
1.04497 1.05699 0.991225 0.997386
1.04081 1.05083 0.993004 0.997444
1.04877 1.05316 0.998962 0.996862
1.04875 1.05267 0.999485 0.996793
1.04386 1.05152 0.995601 0.997106
1.04356 1.05058 0.996176 0.997129
1.00288 1.00534 1 0.99754
1.00989 1.01303 1 0.996895
1.02343 1.02663 1.00058 0.9963
1.04021 1.0435 0.999864 0.996984
1.03688 1.04504 0.994742 0.997439
1.03568 1.0394 0.99911 0.997312
1.02902 1.03262 1 0.99651
1.03558 1.03842 1 0.997263
1.00076 1.00328 1 0.99749
1.00174 1.00355 1.00069 0.997511
1.0063 1.00026 1.00832 0.997732
1.00023 1 1.00103 0.999196
1.00594 1 1.0076 0.998356
1.04397 1.0524 0.994884 0.997091
1.04396 1.05269 0.994578 0.997115
1.03845 1.04946 0.992134 0.99736
1.00383 1.00662 1 0.99723
1.00748 1.01066 1.00026 0.996597
1.01875 1.02196 1.00076 0.996099
1.03539 1.04277 0.995536 0.997376
1.03103 1.03452 1 0.996626
1.03494 1.03913 0.998511 0.997457
0.99945 1 1 0.99945
1.00243 1.00506 1 0.997385
1.00014 1.00213 1.00051 0.9975
1.00497 1.00025 1.00728 0.997465
1.00586 1 1.00782 0.998057
1.00278 1 1.0042 0.998588
1.0434 1.05461 0.992173 0.99717
1.0418 1.05643 0.988829 0.997292
1.03238 1.04775 0.987846 0.997453
1.03404 1.04555 0.991376 0.997594
1.00457 1.00756 1 0.997039
1.0299 1.03317 0.999763 0.997065
1.0038 1.00603 1.00165 0.996135
1.01057 1.01362 1.00104 0.995945
0.999663 1 1 0.999663
0.999779 1 1.00088 0.9989
1.00387 1 1.00559 0.998288
1.00577 1 1.00815 0.997635
1.00253 1.00428 1.00105 0.997211
1.00679 1.00124 1.00838 0.997189
0.999603 1 1 0.999603
1.00033 1 1.00151 0.998826
1.04118 1.04455 1 0.996777
1.00822 1 1.01014 0.998097
1.0001 1.00238 1.00027 0.997453
1.0001 1.00082 1.00152 0.997758
1.03095 1.03439 1 0.996675
1.03475 1.03793 1 0.996933
1.00516 1.00569 1.00273 0.996749
1.0126 1.016 1.00027 0.99638
0.99904 1 1 0.99904
1.00628 1 1.00791 0.99838
1.00261 1.0033 1.00198 0.997339
1.00488 1.00074 1.00626 0.997882
1.00334 1.00516 1.00048 0.997716
1.04133 1.04582 0.99839 0.997318
1.02886 1.03235 1 0.996617
1.03283 1.03596 1 0.996979
1.0055 1.00432 1.00458 0.996617
1.00564 1.00949 1.00003 0.996153
0.999325 1 1.00062 0.998709
1.00687 1 1.00888 0.998003
1.00631 1.00532 1.00378 0.997209
1.00296 1.00385 1.00161 0.997517
1.03833 1.05856 0.98328 0.997572
1.03444 1.03802 0.999191 0.997356
1.01764 1.02139 1 0.996323
1.00771 1.00723 1.00426 0.996235
0.999129 1 1 0.999129
0.998829 1 1 0.998829
0.998748 1 1 0.998748
0.999184 1 1 0.999184
0.998835 1 1 0.998835
0.999198 1 1 0.999198
0.998757 1 1 0.998757
0.998825 1 1 0.998822
0.998763 1 1 0.998763
0.998714 1 1.00007 0.998648
0.998772 1 1 0.998772
0.99918 1 1 0.99918
0.999719 1 1 0.999719
0.999742 1 1 0.999742
1 1 1 1
0.99975 1 1 0.99975
1 1 1 1
1 1 1 1
1 1 1 1
1 1 1 1
1 1 1 1
1 1 1 1
0.999993 1 1 0.999993
1 1 1 1
0.999947 1 1 0.999947
1 1 1 1
1 1 1 1
1.04551 1.04894 0.999737 0.996994
1.04623 1.05438 0.995083 0.997171
1.0417 1.05286 0.991928 0.997456
1.04293 1.05456 0.991642 0.997308
1.04574 1.053 0.996002 0.997087
1.04865 1.05343 0.998607 0.996844
1.04507 1.05257 0.995787 0.997076
1.0449 1.05609 0.992119 0.997271
1.04391 1.05618 0.990976 0.997385
1.04223 1.05191 0.993335 0.997453
1.046 1.05648 0.992837 0.997224
1.04669 1.06268 0.987493 0.997435
1.04579 1.06165 0.98753 0.997508
1.04449 1.05287 0.994936 0.997093
1.04428 1.05301 0.994588 0.99711
1.03835 1.04873 0.992738 0.997351
1.00368 1.00648 1 0.997225
1.00742 1.01064 1.00018 0.996639
1.01719 1.02032 1.00085 0.996087
1.03593 1.04305 0.995801 0.997362
1.03091 1.03537 0.998266 0.997425
1.0321 1.03549 1 0.99673
1.00146 1.00409 1 0.997374
0.99828 1.00065 1 0.99763
1.00594 1.0006 1.0079 0.997455
0.999481 1 1 0.999481
1.00513 1 1.00707 0.998079
1.00281 1 1.00426 0.998553
1.04416 1.05512 0.992411 0.997177
1.04126 1.05619 0.988534 0.997299
1.03254 1.04733 0.988412 0.997445
1.00246 1.00545 1 0.99703
1.00385 1.00626 1.0014 0.996215
1.0109 1.01403 1.0009 0.996018
1.03419 1.04526 0.991795 0.997599
1.02802 1.03175 0.999336 0.997046
0.99972 1 1 0.99972
0.999749 1 1.00085 0.998898
1.00009 1.00282 1.00002 0.99726
1.00891 1.00108 1.01051 0.997334
1.00551 1 1.00785 0.997678
1.00379 1 1.00554 0.998256
1.0443 1.06004 0.987768 0.997355
1.03368 1.05636 0.981077 0.997409
1.02959 1.04729 0.985425 0.997642
1.02416 1.03425 0.992624 0.997608
1.00218 1.00424 1.00124 0.996713
1.00996 1.01236 1.0014 0.996238
1.00373 1.00519 1.00264 0.995924
0.99986 1 1 0.99986
0.999386 1 1 0.999386
0.999127 1 1 0.999127
1.00049 1 1.00204 0.99845
1.00486 1 1.00694 0.997935
1.00859 1 1.01114 0.99748
0.999233 1.00192 1 0.997319
1.03143 1.00088 1.03305 0.997558
0.999043 1 1 0.999043
1.00664 1 1.00828 0.998375
1.04225 1.04687 0.998216 0.997363
1.00488 1.00075 1.00624 0.997891
1.00327 1.00378 1.00215 0.997349
1.00316 1.00534 1.00004 0.997796
1.02804 1.03151 1 0.996636
1.03424 1.0373 1 0.997052
1.00535 1.00396 1.00482 0.996582
1.00595 1.0099 1 0.996086
0.999668 1 1.00099 0.998677
1.00654 1 1.00854 0.998017
1.00747 1.00609 1.00415 0.997238
1.00263 1.00367 1.00142 0.997554
1.04063 1.06058 0.983562 0.997591
1.03482 1.0382 0.999439 0.997306
1.01821 1.02193 1 0.996369
1.00878 1.00884 1.00377 0.996183
1.00076 1 1.0023 0.998465
1.04014 1.06432 0.979642 0.997597
1.00193 1 1.00427 0.997671
1.00634 1.00671 1.00268 0.996968
1.03462 1.04826 0.989269 0.997689
1.0158 1.01941 1 0.996464
1.00688 1.00767 1.00323 0.995993
0.998842 1 1 0.998842
0.998737 1 1 0.998737
0.998768 1 1 0.998768
0.999197 1 1 0.999197
0.998834 1 1 0.998834
0.998756 1 1 0.998756
0.999177 1 1 0.999177
0.998778 1 1 0.998778
0.998767 1 1 0.998767
0.998688 1 1.00002 0.998667
0.998815 1 1 0.998815
0.998712 1 1.00004 0.998671
0.998799 1 1.00025 0.998551
0.998725 1 1 0.998725
0.999122 1 1 0.999122
0.999686 1 1 0.999686
0.999716 1 1 0.999716
1 1 1 1
0.999741 1 1 0.999741
1 1 1 1
1 1 1 1
1 1 1 1
1 1 1 1
1 1 1 1
0.999885 1 1 0.999885
1 1 1 1
1 1 1 1
1 1 1 1
0.999988 1 1 0.999988
1 1 1 1
1 1 1 1
1.04362 1.05299 0.993623 0.997463
1.04282 1.05527 0.990798 0.997384
1.04469 1.05569 0.992303 0.997262
1.04485 1.05247 0.995671 0.997075
1.04564 1.05639 0.992555 0.997243
1.04658 1.06215 0.987893 0.997425
1.04395 1.05993 0.987379 0.997517
1.04636 1.06254 0.987329 0.997414
1.05474 1.07232 0.986041 0.99753
1.0441 1.06572 0.981886 0.997788
1.04491 1.0556 0.992662 0.997185
1.04072 1.05598 0.988209 0.997306
1.0326 1.04691 0.988864 0.997437
1.00222 1.00516 1.00006 0.997022
1.00446 1.00692 1.00126 0.996295
1.01268 1.01587 1.00078 0.996091
1.03439 1.045 0.992229 0.997604
1.02644 1.0306 0.998937 0.997027
1.00015 1.00285 1 0.99731
1.01143 1.00132 1.01265 0.997478
1.00626 1 1.00856 0.99772
0.999778 1 1 0.999778
0.999639 1 1.00074 0.998897
1.00397 1 1.00575 0.998224
1.04421 1.06032 0.987413 0.997367
0.999855 1 1 0.999855
0.999355 1 1 0.999355
1.03404 1.05556 0.982155 0.99741
1.02836 1.04663 0.984904 0.997611
1.00242 1.00406 1.00157 0.996801
1.00421 1.005 1.00332 0.995912
1.01065 1.01362 1.00084 0.996231
1.02306 1.03358 0.992218 0.997584
0.999205 1 1 0.999205
1.00038 1 1.00194 0.998443
1.00067 1.00171 1.00175 0.997219
1.02653 1.00083 1.02802 0.997725
1.00673 1.00002 1.00924 0.997497
1.00491 1 1.00697 0.997953
1.05262 1.07095 0.985362 0.997488
1.0159 1.05365 0.966544 0.997548
1.01966 1.03998 0.982627 0.997797
1.00511 1.01579 0.992161 0.997301
1.00319 1.00159 1.00475 0.996861
1.00399 1.00265 1.0055 0.995865
0.999333 1 1 0.999333
0.999344 1 1 0.999344
0.999058 1 1 0.999058
0.998607 1 1 0.998607
1.00244 1 1.00425 0.998203
1.00412 1.00016 1.00636 0.997618
1.04343 1 1.04604 0.9975
1.002 1.00049 1.00373 0.997782
0.999883 1 1.00124 0.998647
1.00581 1 1.00779 0.998031
1.04216 1.06156 0.984078 0.99761
1.03494 1.03817 0.999635 0.997257
1.00233 1.00359 1.00115 0.997591
1.00876 1.00709 1.00441 0.997267
1.01913 1.02276 1.00004 0.996415
1.00999 1.01052 1.00335 0.996131
1.00102 1 1.00257 0.99845
1.04242 1.06724 0.979048 0.997647
1.00233 1 1.00464 0.997694
1.00547 1.00588 1.00269 0.996913
1.03326 1.04739 0.988825 0.997663
1.01542 1.01895 1 0.99654
1.00761 1.00813 1.00348 0.99601
1.00286 1 1.00474 0.99813
1.01582 1.04266 0.976138 0.998071
1.00315 1.00288 1.00287 0.997404
1.00395 1.00366 1.00379 0.996514
1.01667 1.02566 0.993961 0.997254
1.00189 1.00349 1.00221 0.996195
0.984178 1.00409 0.982477 0.997647
0.998727 1 1 0.998727
0.999224 0.999964 1.00049 0.998766
0.998855 1 1.00018 0.998673
0.999174 1 1 0.999174
0.998784 1 1 0.998783
0.998687 1 1 0.998687
0.998772 1 1 0.998772
0.999121 1 1 0.999121
0.998716 1 1 0.998716
0.998781 1 1 0.998781
0.998651 1 1.0001 0.998552
0.998692 1 1.00003 0.998662
0.99877 1 1 0.99877
0.998826 1 1.00045 0.998374
0.999368 1 1.00084 0.998531
0.998613 1 1 0.998613
0.998998 1 1 0.998998
0.998947 1 1.00017 0.998782
0.998975 1 1 0.998975
0.999669 1 1 0.999669
0.999684 1 1 0.999684
1 1 1 1
0.999714 1 1 0.999714
1 1 1 1
1 1 1 1
1 1 1 1
1 1 1 1
1 1 1 1
0.999908 1 1 0.999908
0.999885 1 1 0.999885
1 1 1 1
1 1 1 1
1 1 1 1
1 1 1 1
1 1 1 1
1 1 1 1
1.04235 1.05856 0.987128 0.997526
1.0464 1.06167 0.988174 0.997415
1.04532 1.05635 0.992276 0.997261
1.0464 1.06251 0.987388 0.997412
1.05242 1.07015 0.98587 0.997528
1.04373 1.06437 0.982842 0.997721
1.0556 1.07629 0.983145 0.997595
0.978825 1.01605 0.96708 0.996152
1.01162 1.03973 0.974465 0.998456
0.999453 1 1 0.999453
1.04413 1.06061 0.987055 0.997378
1.03456 1.0548 0.983351 0.997411
1.02719 1.04602 0.984377 0.99758
1.00024 1.00254 1.00082 0.996888
1.00399 1.00409 1.00402 0.9959
1.01095 1.01432 1.00045 0.996225
1.02198 1.0329 0.991847 0.99756
0.998826 1.00165 1.00006 0.99712
1.01988 1 1.02204 0.997893
1.00478 1 1.00729 0.997515
0.99985 1 1 0.99985
1.00571 1 1.00775 0.997971
0.999282 1 1 0.999282
1.00032 1 1.00188 0.998436
0.999324 1 1 0.999324
1.04965 1.07122 0.982324 0.997495
0.999373 1 1 0.999373
0.999343 1 1 0.999343
0.999023 1 1 0.999023
1.01974 1.05379 0.970066 0.997547
1.02032 1.04052 0.982791 0.997751
1.00083 1.00149 1.00246 0.996887
1.00563 1.00412 1.00556 0.995972
1.00455 1.01381 0.993571 0.997286
0.998677 1 1.00002 0.998656
1.00265 1 1.0045 0.998159
1.00725 1.00031 1.00927 0.997686
1.03465 1 1.03721 0.997532
1.00314 1 1.00549 0.997661
1.0337 1.06071 0.976882 0.997596
1.00302 1.04674 0.960451 0.997692
1.0125 1.02523 0.990096 0.997465
0.993226 1.00543 0.990794 0.997045
1.00349 1 1.00613 0.997381
0.998918 1 1 0.998918
0.998848 1 1 0.998848
0.999485 1 1.00074 0.998745
1.00162 1 1.00324 0.998387
1.00478 1 1.00678 0.998018
1.03234 1 1.03477 0.997655
1.0277 1.00076 1.02935 0.997637
1.00102 1 1.00259 0.998434
1.0027 1 1.005 0.997718
1.04394 1.07101 0.976969 0.997695
1.03232 1.04716 0.988164 0.997636
1.01503 1.01847 1 0.996616
1.00438 1.00485 1.00268 0.996859
1.00803 1.00842 1.0036 0.996027
1.00273 1 1.00457 0.998171
1.01447 1.04273 0.97474 0.998102
1.00113 1.00188 1.00184 0.997419
1.00329 1.0027 1.00408 0.99652
1.01617 1.02593 0.993108 0.997363
1.00204 1.00314 1.00273 0.996186
0.983988 1.00408 0.983159 0.996778
1.00275 1.00064 1.00413 0.997992
1.0058 1.02253 0.985569 0.998048
1.00065 1.00137 1.00195 0.997341
1.00444 1.00131 1.00644 0.996703
0.993647 1.00604 0.990559 0.997095
0.929047 0.980107 0.969051 0.978177
0.930461 0.974528 0.965555 0.988842
0.974946 0.987291 0.989754 0.99772
0.765359 0.855233 0.931694 0.960522
0.692488 0.827508 0.88147 0.949363
0.999476 0.999933 1.00078 0.998765
0.99955 0.999967 1.00086 0.998723
0.999058 1 1.00035 0.998712
0.99912 1 1 0.99912
0.998707 1 1 0.998707
0.998553 1 1 0.998553
0.998652 1 1 0.998652
0.998747 1 1 0.998747
1.00008 1 1.00157 0.998506
0.99903 1 1 0.99903
0.998632 1 1 0.998632
0.998738 1 1 0.998738
0.999122 1 1.00072 0.998406
1.00119 1 1.00277 0.998417
1.00162 1 1.00315 0.998477
1.00036 1 1.00193 0.998435
0.998667 1 1.00011 0.998556
0.998968 1 1 0.998968
0.998637 1 1 0.998637
0.998704 1 1.0001 0.998607
0.998802 1 1.00001 0.998789
0.998891 1 1.00015 0.998744
0.99908 1 1 0.99908
0.998972 1 1 0.998972
0.999664 1 1 0.999664
0.999669 1 1 0.999669
1 1 1 1
0.999682 1 1 0.999682
1 1 1 1
1 1 1 1
1 1 1 1
1 1 1 1
1 1 1 1
0.999929 1 1 0.999929
0.999905 1 1 0.999905
1 1 1 1
0.999884 1 1 0.999884
1 1 1 1
1 1 1 1
1 1 1 1
1 1 1 1
1 1 1 1
1.0498 1.0677 0.985676 0.997525
1.04644 1.06246 0.98748 0.99741
1.04397 1.06342 0.984012 0.997655
0.981237 1.01587 0.969575 0.996221
1.05253 1.0736 0.982736 0.997594
1.02263 1.04291 0.982194 0.998333
1.03984 1.05293 0.989827 0.997713
0.937228 0.981524 0.966499 0.987968
0.995648 1.01935 0.979744 0.99694
0.999466 1 1 0.999466
0.999449 1 1 0.999449
0.999028 1 1 0.999028
0.999097 1 1 0.999097
1.04747 1.07151 0.980009 0.997502
1.02309 1.05348 0.973538 0.997547
1.02075 1.04082 0.982974 0.997704
1 1.00073 1.00237 0.996913
1.00729 1.00586 1.00536 0.996079
1.00357 1.01186 0.994513 0.997271
1.01524 1 1.01769 0.99759
1.02728 1.00003 1.02975 0.997563
1.00175 1 1.00405 0.997705
0.999342 1 1 0.999342
1.00167 1 1.00356 0.998115
0.998706 1 1 0.998706
0.999414 1 1 0.999414
0.998987 1 1 0.998987
1.03131 1.0605 0.974804 0.997611
0.998962 1 1 0.998962
0.998901 1 1 0.998901
0.998912 1 1.00004 0.998873
1.00732 1.04917 0.96234 0.997686
1.01167 1.02504 0.989466 0.997464
1.00336 1.00016 1.00585 0.997364
0.9953 1.00562 0.992609 0.997109
1.00044 1 1.0021 0.998348
1.00381 1 1.00589 0.997933
1.03284 1.00091 1.03436 0.99762
1.03261 1.00009 1.035 0.997595
0.998006 1.04064 0.961168 0.997778
0.995846 1.03091 0.968242 0.99767
1.00422 1.00987 0.997256 0.997141
0.987427 1.00086 0.98862 0.997933
0.998649 1 1.00005 0.998602
1.0003 1 1.00178 0.998526
1.01145 1 1.01317 0.998297
1.05094 1 1.05344 0.997626
0.904402 0.969316 0.956179 0.975791
1.00313 1 1.00493 0.998212
0.99935 1.00083 1.00109 0.997434
1.01435 1.04247 0.974841 0.998135
1.01596 1.02601 0.992722 0.997471
1.00237 1.00292 1.0033 0.996175
1.00304 1.00206 1.00447 0.996524
0.984775 1.00493 0.983985 0.995888
1.00168 1.00029 1.00335 0.998049
1.00583 1.02371 0.98447 0.998036
1.00024 1.00137 1.00152 0.997356
1.00449 1.00169 1.00611 0.996704
0.996797 1.0069 0.992846 0.997098
0.927764 0.986221 0.964023 0.975835
0.924671 0.971707 0.964831 0.98628
0.977781 0.987348 0.992553 0.99774
0.764252 0.851839 0.933343 0.961253
0.677871 0.816682 0.877954 0.945415
1.00039 1.00013 1.00202 0.998248
0.794481 0.874021 0.943723 0.963201
0.732284 0.832978 0.924681 0.950724
0.989416 1.00663 0.984886 0.997982
1.00714 1.00135 1.00806 0.997738
1.01253 1.00466 1.01046 0.997397
0.969678 0.981206 0.990262 0.99797
0.917179 0.965101 0.97323 0.976486
0.900048 0.945558 0.966469 0.984894
0.751533 0.853383 0.914311 0.963185
0.752784 0.878427 0.902707 0.949333
1.00045 0.999928 1.00175 0.998773
1.00027 0.99998 1.0016 0.998689
1.00157 1 1.00271 0.998859
0.999062 1 1 0.999062
0.998652 1 1 0.998652
1.0004 1 1.00193 0.998482
0.999636 1 1.0012 0.998437
0.998705 1 1 0.998705
0.998969 1 1 0.998969
1.00115 1 1.00275 0.998408
1.00076 1 1.00232 0.998449
0.998619 1 1.00003 0.998591
1.00143 1 1.00294 0.998495
1.00338 1 1.00494 0.998446
1.00711 1 1.00854 0.998581
0.998928 1 1.00054 0.99839
0.998672 1 1.00007 0.998602
0.998635 1 1 0.998634
0.998784 1 1.00018 0.998607
0.998722 1 1.00027 0.998454
0.99917 1 1.00054 0.998627
0.999668 1 1.00107 0.998598
1.00276 1 1.00434 0.998425
0.999505 1 1.00076 0.99875
0.998918 1 1.00013 0.998789
0.999113 1 1 0.999113
0.99879 1 1.00008 0.998705
0.999053 1 1 0.999053
0.999654 1 1 0.999654
0.998969 1 1 0.998969
0.999665 1 1 0.999665
1 1 1 1
0.999669 1 1 0.999669
1 1 1 1
1 1 1 1
1 1 1 1
1 1 1 1
1 1 1 1
0.999426 1 1 0.999426
0.999931 1 1 0.999931
0.999926 1 1 0.999926
1 1 1 1
0.999901 1 1 0.999901
1 1 1 1
1 1 1 1
1 1 1 1
1 1 1 1
1 1 1 1
0.983704 1.01575 0.972051 0.996295
1.05011 1.07062 0.983206 0.997594
1.02886 1.04591 0.985459 0.998209
0.930788 0.974986 0.965234 0.989054
0.995614 1.01907 0.97983 0.997094
1.04016 1.05649 0.986846 0.997668
1.00845 1.02678 0.985029 0.997076
0.945076 0.975891 0.977933 0.990276
0.926563 0.978439 0.970126 0.976142
0.75992 0.852075 0.926227 0.962881
0.663295 0.790813 0.884202 0.948596
0.999043 1 1 0.999043
0.999464 1 1 0.999464
0.999446 1 1 0.999446
0.999018 1 1 0.999018
0.998782 1 1 0.998782
0.998808 1 1 0.998808
0.99899 1 1 0.99899
0.99906 1 1 0.99906
1.02762 1.06056 0.97125 0.997625
1.01225 1.05264 0.963862 0.997679
1.01121 1.02497 0.989086 0.997463
1.00261 1.00071 1.00456 0.997347
0.997687 1.00565 0.994892 0.997173
1.03572 1.00044 1.03776 0.997602
1.03244 1.00006 1.03494 0.997535
1.00427 1 1.00644 0.997849
0.998956 1 1 0.998956
1.00035 1 1.00205 0.998307
0.999006 1 1 0.999006
0.999002 1 1 0.999002
0.997486 1.04136 0.959998 0.997786
0.998936 1 1.00031 0.998628
1.00012 1 1.00155 0.99857
0.995095 1.02972 0.968659 0.997645
1.00147 1.00998 0.994289 0.997271
0.989764 1.00118 0.990757 0.997821
1.01857 1.00002 1.02045 0.998138
1.0467 1.0006 1.04853 0.997652
0.985637 1.02696 0.96192 0.997756
0.985168 1.00949 0.978172 0.997681
0.981671 1.00166 0.9823 0.997705
0.991162 1.00118 0.991911 0.998072
1.00332 1 1.00506 0.998262
1.00815 1 1.00987 0.998299
1.04705 1 1.0492 0.997947
0.791802 0.883155 0.929411 0.964654
0.922078 0.976089 0.964829 0.979102
1.00022 1 1.00212 0.998106
0.99965 1.00114 1.00115 0.997372
1.00595 1.02518 0.983193 0.998024
0.999398 1.00802 0.994327 0.997102
1.00467 1.00227 1.00571 0.996707
0.92244 0.975525 0.968328 0.976511
0.930007 0.978389 0.963167 0.9869
0.978488 0.985983 0.994632 0.997755
0.765887 0.853543 0.93093 0.963879
0.665173 0.806096 0.876587 0.941354
1.00022 0.999983 1.00199 0.998247
0.791716 0.879625 0.933796 0.963873
0.720888 0.822103 0.924364 0.948633
0.98933 1.00745 0.983998 0.99798
1.00724 1.00176 1.00773 0.997762
1.01082 1.00299 1.01028 0.997549
0.962212 0.97547 0.988265 0.998121
0.925405 0.975823 0.97343 0.974219
0.898889 0.946978 0.961457 0.987271
0.755982 0.850279 0.924807 0.961389
0.751162 0.883388 0.896564 0.948421
1.00265 1 1.00398 0.998677
0.764719 0.844852 0.950713 0.952076
0.837623 0.915182 0.954115 0.959269
0.989137 0.997724 0.992706 0.998678
1.01437 1.00244 1.01329 0.998624
0.971863 0.966658 1.00749 0.997914
0.900508 0.932982 0.9765 0.988421
0.889381 0.936235 0.976192 0.973122
0.760337 0.847535 0.93239 0.962169
0.794951 0.919551 0.907726 0.952379
1.00123 0.999813 1.00275 0.998667
1.00121 1 1.00239 0.998823
1.00518 0.999981 1.00612 0.999083
0.99897 1 1 0.99897
0.998626 1 1 0.998626
1.00142 1 1.00296 0.998462
1.00152 1 1.00312 0.998398
1.00106 1 1.00255 0.998514
0.998625 1 1.00002 0.9986
1.00201 1 1.00358 0.998433
0.998971 1 1.00058 0.998392
1.0076 0.999969 1.00901 0.998635
1.02491 0.999119 1.02674 0.999099
1.00326 1 1.00481 0.998453
0.998392 1 1.00004 0.998353
0.99863 1 1 0.99863
0.998977 1 1.00037 0.998608
0.999003 1 1.00056 0.998448
0.999428 1 1.00081 0.998618
0.999293 1 1.00063 0.998665
1.00192 1 1.00337 0.998554
0.999916 1 1.00141 0.998505
1.00152 1 1.00286 0.998671
0.999056 1 1.00062 0.998433
0.998797 1 1.00093 0.99787
1.00217 1 1.00386 0.998319
1.00243 1 1.00401 0.998424
1.00206 1 1.00341 0.998652
1.00016 1 1.00142 0.998747
0.999096 1 1 0.999096
0.999231 1 1.00044 0.99879
0.999114 1 1 0.999114
0.999648 1 1 0.999648
0.999027 1 1 0.999027
0.999656 1 1 0.999656
0.999998 1 1 0.999998
0.999665 1 1 0.999665
1 1 1 1
1 1 1 1
1 1 1 1
1 1 1 1
1 1 1 1
0.999437 1 1 0.999437
0.999913 1 1 0.999913
0.999427 1 1 0.999427
1 1 1 1
0.999932 1 1 0.999932
0.999923 1 1 0.999923
1 1 1 1
1 1 1 1
1 1 1 1
1 1 1 1
1 1 1 1
0.787208 0.870628 0.94045 0.961437
0.727587 0.830022 0.922265 0.950472
0.932285 0.979099 0.962232 0.989561
0.996961 1.01871 0.981343 0.997254
1.04347 1.06034 0.986434 0.997623
0.926861 0.960293 0.973292 0.991671
1.0086 1.02622 0.985588 0.997203
0.937549 0.989715 0.969287 0.977308
0.761924 0.855006 0.927241 0.961058
0.6619 0.79777 0.878345 0.944603
0.959609 0.996248 0.969264 0.993767
0.925574 0.971515 0.975156 0.976984
0.748463 0.851371 0.913374 0.962504
0.737122 0.868342 0.895334 0.948121
0.999777 1 1.00113 0.998644
0.999075 1 1 0.999075
0.999463 1 1 0.999463
0.999008 1 1 0.999008
0.998832 1 1 0.998832
0.999707 1 1.00109 0.998622
0.99879 1 1 0.99879
0.998713 1 1 0.998713
0.998952 1 1 0.998952
0.999023 1 1 0.999023
0.998213 1.04157 0.960496 0.997794
0.992524 1.02729 0.968464 0.997623
0.998862 1.01036 0.991198 0.997402
0.991722 1.00128 0.992732 0.997709
1.04151 1.00182 1.04204 0.997678
1.02607 1.00002 1.02813 0.997979
0.998791 1 1.00018 0.998616
0.999134 1 1.00048 0.998653
0.986383 1.02725 0.962322 0.997812
1.00423 1 1.00601 0.998231
1.00788 1 1.00964 0.998257
0.983382 1.00774 0.978162 0.997613
0.979636 1.00126 0.980568 0.997797
0.993628 1.00199 0.993643 0.997996
1.04103 1 1.04321 0.997907
0.98374 1.00398 0.981707 0.998097
0.974859 1.00005 0.976296 0.99848
1.01371 1.00091 1.01461 0.998205
1.00846 1 1.01029 0.99819
1.0075 1 1.00945 0.998069
1.02554 1 1.02754 0.998045
0.787273 0.859595 0.955204 0.958816
0.800661 0.882039 0.94093 0.964724
0.910841 0.972731 0.959513 0.975885
1.00022 0.999959 1.00202 0.998245
1.00698 1.00171 1.00748 0.997786
0.991757 1.0085 0.985386 0.997979
1.00924 1.0016 1.00996 0.997697
0.786302 0.874608 0.931755 0.964881
0.920644 0.971859 0.970688 0.975908
0.893801 0.943424 0.961831 0.984998
0.959418 0.971683 0.98909 0.998269
0.751961 0.8498 0.922336 0.959378
0.721695 0.824214 0.92247 0.949208
0.740712 0.873407 0.892417 0.950309
1.00299 0.999887 1.00444 0.998674
0.766332 0.847791 0.947151 0.954352
0.848109 0.924548 0.956484 0.959058
0.989725 0.996052 0.994876 0.998766
1.01419 1.00139 1.01422 0.998584
0.969236 0.965751 1.00536 0.998258
0.895496 0.936651 0.969451 0.986188
0.900477 0.942881 0.978862 0.975651
0.781661 0.870217 0.935278 0.960396
0.782142 0.907554 0.903332 0.954038
1.00703 0.999043 1.00856 0.999432
0.86024 0.92885 0.959989 0.964735
0.832077 0.918548 0.940276 0.9634
0.989803 0.975649 1.0148 0.999715
0.921445 0.932797 0.995619 0.992177
0.907476 0.934374 0.996619 0.974507
0.821076 0.895533 0.956128 0.958928
0.815584 0.942316 0.90791 0.9533
1.00118 1 1.0024 0.998787
1.00496 0.999722 1.00617 0.999079
1.02262 0.998678 1.02463 0.999354
0.998674 1 1.00008 0.998599
0.998954 1 1.00056 0.998394
1.00031 1 1.00189 0.99842
1.00789 0.999887 1.00933 0.99869
0.998541 1 1.00019 0.998352
1.00343 1 1.00499 0.998445
1.02971 0.999714 1.03085 0.999175
1.04187 0.996644 1.04596 0.999446
1.03162 0.999589 1.03301 0.999068
0.99852 1 1.00011 0.998406
0.999254 1 1.00081 0.998441
0.999282 1 1.00067 0.998609
0.998731 1 1 0.998731
0.999523 1 1.001 0.998521
1.0013 1 1.00275 0.998555
1.00197 1 1.00329 0.998686
1.00092 1 1.00238 0.998547
1.00653 0.999783 1.00778 0.998973
0.997985 1.00012 0.999343 0.998525
0.999598 1.00039 1.00075 0.998456
0.998765 1 1.00069 0.998072
1.00027 1.00161 1.00153 0.997143
1.00184 1 1.00363 0.998219
0.998849 1 1.00079 0.998058
1.00185 1 1.00352 0.998339
1.00333 1 1.00484 0.998499
1.00185 1 1.00343 0.998424
1.00173 1 1.00308 0.998651
0.999148 1 1.00014 0.99901
1.00033 1 1.00159 0.998745
0.999093 1 1 0.999093
0.999636 1 1 0.999636
0.999115 1 1 0.999115
0.999649 1 1 0.999649
0.999994 1 1 0.999994
0.999658 1 1 0.999658
0.999997 1 1 0.999997
1 1 1 1
0.999999 1 1 0.999999
1 1 1 1
1 1 1 1
0.999221 1 1 0.999221
0.999879 1 1 0.999879
0.999368 1 1 0.999368
1 1 1 1
0.999917 1 1 0.999917
0.999428 1 1 0.999428
1 1 1 1
1 1 1 1
0.999933 1 1 0.999933
1 1 1 1
1 1 1 1
1 1 1 1
0.761488 0.844992 0.94383 0.95481
0.792864 0.877888 0.938079 0.962765
0.843488 0.924011 0.952203 0.958677
0.72272 0.826253 0.921517 0.94919
0.927704 0.969302 0.967423 0.989313
1.00637 1.02577 0.983709 0.997339
0.943502 0.987623 0.976519 0.978298
0.770374 0.858617 0.931606 0.963096
0.664708 0.808173 0.874478 0.940541
0.957959 0.991501 0.973044 0.992936
0.920612 0.971701 0.973491 0.973222
0.761073 0.859827 0.921204 0.960859
0.739263 0.873413 0.894556 0.946175
0.936959 0.978425 0.96651 0.990803
0.904069 0.940482 0.988355 0.972608
0.783028 0.877777 0.930429 0.95876
0.788835 0.917793 0.904946 0.94977
1.00144 1 1.00305 0.998394
0.999152 1 1.00046 0.998687
0.999107 1 1 0.999107
0.998881 1 1 0.998881
0.99871 1 1.0004 0.998309
0.999012 1 1.00035 0.998662
0.998772 1 1 0.998772
0.99868 1 1 0.99868
0.998756 1 1.00001 0.998749
0.998914 1 1 0.998914
0.987713 1.02849 0.962404 0.997867
0.984076 1.00684 0.979792 0.997549
0.977912 1.00129 0.97872 0.997888
0.99814 1.00324 0.996984 0.997922
1.03381 1 1.03602 0.997868
1.00705 1 1.00885 0.998217
1.00474 1 1.00655 0.9982
1.00737 1 1.00924 0.998156
0.981243 1.00431 0.978892 0.998102
1.00618 1 1.00813 0.998064
1.02645 1 1.02847 0.998032
0.973144 1.00033 0.974332 0.998447
1.01111 1.00196 1.01099 0.998164
0.955248 0.984557 0.971658 0.998532
0.988941 0.994072 0.995603 0.999231
1.03796 0.999668 1.03995 0.998415
1.00386 1 1.0058 0.998073
1.01558 1 1.01752 0.998092
0.869043 0.933287 0.962187 0.967757
0.789594 0.859259 0.958851 0.95836
0.789397 0.876193 0.935648 0.962905
1.00344 0.999978 1.0048 0.998671
1.01451 1.00037 1.01562 0.998542
0.986933 0.993972 0.994057 0.998854
0.770957 0.850855 0.948606 0.955188
0.902679 0.940385 0.986697 0.972845
0.897957 0.934602 0.9728 0.987655
0.960622 0.962334 0.999633 0.998587
0.780319 0.870792 0.931052 0.962462
0.854949 0.929785 0.95892 0.958904
0.786827 0.911088 0.905083 0.95418
1.00563 0.998964 1.00729 0.99939
0.857041 0.927459 0.956494 0.966106
0.832466 0.918878 0.940339 0.96344
0.992654 0.97971 1.01367 0.999554
0.93244 0.94196 0.997967 0.991909
0.884791 0.927172 0.982081 0.971702
0.816887 0.942453 0.908514 0.95405
0.834958 0.90309 0.963192 0.959888
1.00464 0.98373 1.02155 0.999711
0.840097 0.913562 0.945613 0.972474
0.85269 0.938638 0.941546 0.964831
0.788797 0.916934 0.905564 0.949966
0.969183 0.957503 1.01428 0.997944
0.931555 0.947009 1.00823 0.975648
0.872946 0.931821 0.974636 0.961197
1.00512 0.999412 1.00664 0.999074
1.02235 0.998406 1.02473 0.999271
1.02281 0.987085 1.03664 0.999566
0.998609 1 1.00026 0.998351
1.0034 1 1.00498 0.998436
1.03516 0.999937 1.036 0.999251
0.998658 1 1.00025 0.998412
1.03099 0.999692 1.03226 0.999079
1.0428 0.996567 1.047 0.999421
1.03156 0.993751 1.03858 0.999489
1.02153 0.999504 1.023 0.999058
0.999371 1 1.00083 0.998538
1.00113 1 1.00258 0.998556
1.00259 1 1.0039 0.998702
1.00577 0.999941 1.00689 0.998947
1.00038 1 1.00184 0.998547
1.00259 1 1.00372 0.998869
0.998426 1.00003 0.999619 0.998777
1.00158 1.00005 1.00385 0.997693
1.00003 1.00076 1.00078 0.998483
0.999087 1.00053 1.00057 0.997995
0.998422 1.0005 1.00101 0.996911
1.01042 1.01226 1.00129 0.9969
1.00164 1.00099 1.00276 0.997894
0.999656 1.00109 1.00138 0.997187
1.00597 1 1.00767 0.998317
1.00269 1.00017 1.00432 0.998205
0.99889 1 1.00065 0.998246
1.00165 1 1.0033 0.99836
1.00285 1 1.00432 0.998534
0.999392 1 1.0005 0.998894
1.00159 1 1.00295 0.99865
0.999202 1 1.00019 0.999011
0.999589 1 1 0.999589
0.999091 1 1 0.999091
0.999634 1 1 0.999634
0.99999 1 1 0.99999
0.999649 1 1 0.999649
0.999993 1 1 0.999993
1 1 1 1
0.999995 1 1 0.999995
1 1 1 1
1 1 1 1
0.998997 1 1 0.998997
0.999706 1 1 0.999706
0.999219 1 1 0.999219
1 1 1 1
0.999833 1 1 0.999833
0.999299 1 1 0.999299
1 1 1 1
1 1 1 1
0.999921 1 1 0.999921
1 1 1 1
1 1 1 1
1 1 1 1
0.855701 0.930307 0.952785 0.965386
0.757508 0.844378 0.938066 0.95635
0.790054 0.87407 0.939182 0.962411
0.99856 1 1 0.99856
0.837731 0.916226 0.946989 0.965511
0.842198 0.923568 0.951331 0.958547
0.724899 0.83209 0.916313 0.950744
0.965289 0.994087 0.97898 0.991881
0.919608 0.966228 0.974752 0.976403
0.766017 0.871604 0.916654 0.958769
0.734501 0.862934 0.898657 0.947155
0.935138 0.975743 0.970023 0.988002
0.89923 0.93942 0.981335 0.975425
0.793614 0.881287 0.938913 0.959106
0.785022 0.911926 0.905929 0.950229
0.899367 0.941244 0.969807 0.985256
0.898097 0.926658 0.996113 0.972961
0.848392 0.915377 0.965313 0.960126
0.816118 0.941514 0.909332 0.953243
1.00109 1 1.00292 0.998166
1.00266 1 1.00431 0.998352
0.998751 1 1.00002 0.998731
0.998376 1 1.00002 0.99836
0.998934 1 1.00056 0.998372
0.998701 1 1 0.998701
0.998686 1 1 0.998686
0.998809 1 1.00003 0.998784
0.977358 1.00496 0.974386 0.998103
0.970677 1.00072 0.971516 0.99842
1.00666 1 1.00855 0.998122
1.00911 1.00297 1.00802 0.998121
1.02834 1 1.03038 0.998018
1.00553 1 1.00749 0.998058
1.00413 1 1.00606 0.998083
0.960557 0.985794 0.975747 0.998619
1.01386 1 1.01577 0.998126
1.02742 1.00032 1.02869 0.998444
0.985726 0.994614 0.991774 0.999284
1.00495 1 1.00678 0.998188
0.955075 0.973555 0.982555 0.998435
1.00249 0.990364 1.01279 0.999468
1.04639 0.99732 1.05073 0.99854
1.00424 1 1.00597 0.998283
0.851108 0.916793 0.952363 0.974789
0.868278 0.933047 0.961595 0.967749
0.793459 0.858908 0.964404 0.957898
1.00367 0.998648 1.00568 0.999351
0.996284 0.983141 1.01398 0.999396
0.855746 0.927799 0.953372 0.96745
0.910331 0.930743 1.00295 0.975197
0.92239 0.939241 0.99315 0.988833
0.835663 0.904867 0.963338 0.958666
0.833198 0.919855 0.940138 0.963467
0.819223 0.943524 0.90936 0.954801
1.00796 0.989263 1.01924 0.999669
0.841658 0.914744 0.946173 0.972446
0.851493 0.936575 0.940401 0.966775
0.97816 0.963249 1.01598 0.999508
0.78434 0.910748 0.906202 0.950344
0.911273 0.931712 1.00439 0.973791
0.880488 0.940199 0.974776 0.960724
1.00536 0.980322 1.02579 0.999759
0.86236 0.933146 0.948421 0.9744
0.83573 0.914038 0.946807 0.965696
0.734862 0.866892 0.893906 0.948307
0.847718 0.915599 0.964752 0.959689
0.955992 0.954855 1.00561 0.995607
0.937649 0.94403 1.0234 0.970535
1.01957 0.998691 1.02174 0.999189
1.02517 0.988532 1.03754 0.999534
1.01026 0.976978 1.0345 0.999582
0.99867 1 1.00025 0.998418
1.03236 0.999769 1.03354 0.999091
1.04352 0.997878 1.04637 0.999396
1.01618 0.999571 1.01758 0.999045
1.03161 0.995443 1.03686 0.999488
1.01243 0.991584 1.02181 0.999236
1.00446 1 1.00555 0.99892
0.999836 1 1.00129 0.998548
1.00456 1 1.00571 0.998849
1.00886 1 1.01069 0.998197
0.999028 1 1 0.999028
1.00026 1.00009 1.0023 0.997868
1.00158 1.00073 1.00419 0.996672
1.00533 1.00722 1.00188 0.996253
0.999437 1.00112 1.0004 0.997915
0.998773 1.00094 1.00109 0.996742
1.01168 1.01419 1.00053 0.996992
1.00623 1.00617 1.00261 0.997457
1.00967 1.01146 1.00125 0.996983
1.00655 1 1.00845 0.998118
1.00331 1.00214 1.0033 0.997874
0.998758 1.00025 1.00128 0.997231
1.00126 1 1.00254 0.998719
1.00551 1 1.00719 0.998327
1.00351 1.00027 1.00505 0.998191
1.00263 1 1.00407 0.998568
0.999686 1 1.00079 0.998893
0.999499 1 1 0.999499
0.999358 1 1.00035 0.999011
0.999585 1 1 0.999585
0.999987 1 1 0.999987
0.999631 1 1 0.999631
0.99999 1 1 0.99999
1 1 1 1
0.999992 1 1 0.999992
1 1 1 1
1 1 1 1
0.998912 1 1 0.998912
0.999575 1 1 0.999575
0.999038 1 1 0.999038
1 1 1 1
0.999692 1 1 0.999692
0.999217 1 1 0.999217
1 1 1 1
1 1 1 1
0.999787 1 1 0.999787
1 1 1 1
1 1 1 1
1 1 1 1
0.845703 0.916104 0.948631 0.973141
0.858539 0.930018 0.956259 0.965369
0.757733 0.844661 0.937874 0.95651
0.998591 1 1 0.998591
0.998521 1 1 0.998521
0.998448 1 1 0.998448
0.851684 0.939907 0.939348 0.964645
0.834466 0.915746 0.94375 0.965554
0.841831 0.92304 0.951583 0.958424
0.939271 0.979218 0.968943 0.98995
0.889991 0.935883 0.977851 0.972504
0.782717 0.864256 0.941209 0.962224
0.797647 0.921209 0.912289 0.949118
0.902438 0.944884 0.96684 0.987834
0.901797 0.929644 0.996506 0.973447
0.826906 0.891921 0.964658 0.961073
0.816123 0.942499 0.907722 0.953942
0.895767 0.93376 0.97314 0.985789
0.91688 0.935444 1.00589 0.974418
0.87253 0.929958 0.975918 0.961399
0.798613 0.921998 0.909549 0.952314
0.998745 1 1.00053 0.998213
1.00181 1 1.00368 0.998141
1.00264 1 1.00434 0.998309
0.998362 1 1.00001 0.998351
0.998772 1 1.00034 0.998434
0.998693 1 1 0.998693
0.964749 0.984534 0.98119 0.998689
0.981334 0.993976 0.987952 0.999322
1.00443 1 1.00635 0.998093
1.01928 1.00052 1.02031 0.998471
1.01474 1 1.01662 0.998159
1.00649 1 1.00833 0.998168
1.00509 1 1.00679 0.998308
0.961609 0.973753 0.988986 0.998527
1.04535 0.997242 1.04963 0.998681
1.00656 0.986286 1.02117 0.999402
1.00606 1 1.00762 0.998457
0.978463 0.964606 1.01604 0.99835
1.00671 0.979943 1.0279 0.999425
1.03417 0.993848 1.04183 0.998798
0.875001 0.937746 0.955367 0.976682
0.852167 0.917172 0.952667 0.975287
0.867711 0.932759 0.961274 0.967739
1.01269 0.994989 1.01817 0.999627
0.967222 0.960309 1.00877 0.998446
0.843291 0.915824 0.946918 0.972418
0.906308 0.920187 1.00731 0.977774
0.875114 0.937139 0.973204 0.959525
0.851398 0.934968 0.940023 0.968718
0.798771 0.920652 0.913926 0.949326
1.00095 0.977477 1.02424 0.999784
0.863533 0.933102 0.949066 0.97511
0.835695 0.915813 0.944887 0.965742
0.952578 0.950614 1.01009 0.992055
0.737494 0.87186 0.893741 0.946455
0.82224 0.890911 0.960926 0.960448
0.947025 0.949139 1.02383 0.974553
1.00168 0.963317 1.04081 0.999046
0.846428 0.915633 0.949804 0.973273
0.849409 0.928241 0.954203 0.958992
0.661892 0.788358 0.884618 0.949091
0.778005 0.873283 0.929246 0.958731
0.914486 0.932506 1.00709 0.97377
0.931403 0.946113 0.994852 0.989548
1.02907 0.989936 1.04005 0.999501
1.01388 0.983313 1.03151 0.999586
1.0129 0.9884 1.02528 0.999521
1.01065 0.999761 1.01187 0.999032
1.03036 0.996622 1.03438 0.999487
1.01568 0.989884 1.02676 0.999319
1.00863 1 1.00982 0.998819
1.00672 1 1.0079 0.998829
1.00768 1.00002 1.00965 0.998036
1.01738 1.00081 1.01983 0.996795
0.998844 1.00004 1.00076 0.998045
1.00308 1.00115 1.0053 0.996655
1.00425 1.00249 1.00596 0.995809
1.00498 1.00726 1.00191 0.995833
1.00695 1.0093 1.00108 0.9966
1.00513 1.00706 1.00189 0.996204
0.998991 1.00118 1.00124 0.996574
1.00477 1.00641 1.0011 0.997278
1.01173 1.01421 1.00048 0.997077
1.00236 1 1.00464 0.997738
1.00722 1.00697 1.00274 0.997518
1.00952 1.01131 1.00117 0.997066
1.00584 1 1.00742 0.998431
1.00563 1 1.00752 0.998117
1.00512 1.00347 1.0038 0.997854
0.999391 1 1.00002 0.999373
1.00101 1 1.0023 0.998717
1.00476 1 1.00644 0.998338
0.999525 1 1.00063 0.998892
0.999494 1 1 0.999494
0.999975 1 1 0.999975
0.999581 1 1 0.999581
0.999984 1 1 0.999984
1 1 1 1
0.999989 1 1 0.999989
1 1 1 1
1 1 1 1
0.998881 1 1 0.998881
0.999561 1 1 0.999561
0.998937 1 1 0.998937
0.999999 1 1 0.999999
0.999615 1 1 0.999615
0.99908 1 1 0.99908
1 1 1 1
1 1 1 1
0.999679 1 1 0.999679
1 1 1 1
1 1 1 1
1 1 1 1
0.861966 0.933113 0.94816 0.974259
0.84741 0.91677 0.949876 0.973119
0.859847 0.929223 0.958526 0.965378
0.99904 1 1.00061 0.99843
0.999132 1 1.00084 0.99829
0.998622 1 1 0.998622
0.998511 1 1 0.998511
0.998436 1 1 0.998436
0.998429 1 1 0.998429
0.99838 1 1 0.99838
0.831996 0.920711 0.938185 0.963184
0.85288 0.937695 0.940968 0.96661
0.832282 0.914519 0.942498 0.965601
0.816715 0.943625 0.906619 0.954655
0.894877 0.938825 0.967156 0.985557
0.90166 0.926564 0.999145 0.973955
0.836067 0.902573 0.963079 0.961826
0.888025 0.934167 0.965194 0.984887
0.913783 0.928828 1.01258 0.971585
0.879826 0.939837 0.973796 0.961337
0.783778 0.909224 0.903611 0.953983
0.909161 0.937849 0.981826 0.987355
0.925097 0.937348 1.01616 0.971236
0.826349 0.899602 0.957582 0.959262
0.753501 0.880539 0.901669 0.949048
1.01038 1 1.01196 0.99844
0.999855 1 1.00163 0.998224
1.00296 1 1.00485 0.998116
0.998342 1 1 0.998342
0.967737 0.973735 0.995189 0.998644
1.00848 0.98393 1.02564 0.999331
1.00557 1 1.00744 0.998149
1.00513 1 1.00681 0.998333
1.03843 0.996047 1.04378 0.998821
1.00481 1 1.00637 0.998451
1.03439 0.993484 1.04245 0.998785
0.97642 0.963974 1.01576 0.997191
1.00475 0.971675 1.03449 0.999564
1.01329 0.993454 1.02107 0.998912
0.957447 0.936899 1.02512 0.996891
1.01826 0.973829 1.04636 0.999296
0.851945 0.916452 0.953581 0.974864
0.872861 0.937027 0.952809 0.977658
0.852779 0.917259 0.952776 0.975784
0.995289 0.972869 1.02325 0.999805
0.959002 0.955449 1.00784 0.995908
0.862932 0.932122 0.948705 0.975826
0.944964 0.952413 1.02168 0.971125
0.826892 0.897249 0.958754 0.961233
0.834832 0.917131 0.942513 0.965785
0.733785 0.861506 0.899017 0.947419
1.00351 0.965811 1.03985 0.999206
0.846853 0.917398 0.948471 0.973254
0.844611 0.924794 0.952478 0.958864
0.933893 0.946005 0.995153 0.992005
0.661611 0.796554 0.878791 0.945152
0.786466 0.875324 0.937045 0.958851
0.913459 0.928917 1.01177 0.971924
0.99678 0.971023 1.02887 0.997718
0.856567 0.931341 0.952425 0.965655
0.727681 0.829223 0.922766 0.950994
0.75032 0.852878 0.913574 0.962976
0.889381 0.917493 0.994919 0.974311
0.900999 0.929991 0.982409 0.986174
1.017 0.987273 1.03053 0.99959
1.01325 0.985586 1.02857 0.999518
0.988084 0.983485 1.00535 0.999333
1.0195 0.988417 1.03207 0.999402
1.00648 0.99383 1.01385 0.998901
1.00193 1.0008 1.00331 0.997834
1.00682 1.00002 1.00894 0.997875
1.01551 1.00073 1.01812 0.996705
1.00877 1.00044 1.01248 0.995895
1.00468 1.00184 1.00621 0.996638
1.00474 1.00227 1.00677 0.99572
1.00213 1.00219 1.00447 0.995491
1.01648 1.0206 1 0.995964
1.01099 1.01418 1.00077 0.996099
1.00537 1.00743 1.00218 0.995777
1.00347 1.00647 1.00013 0.996892
1.00586 1.00848 1.00074 0.996663
1.00489 1.00686 1.0019 0.996155
1.00127 1.00284 1.00112 0.997322
1.00489 1.00657 1.00108 0.997257
1.01152 1.01397 1.00043 0.997162
1.0054 1 1.00736 0.998051
1.00261 1.00022 1.0046 0.997797
1.00801 1.00755 1.00288 0.997579
1.0003 1 1.00116 0.999136
1.00484 1 1.00642 0.998434
1.00472 1 1.00662 0.998116
0.999956 1 1 0.999956
0.999635 1 1.00027 0.999366
1.0011 1 1.00239 0.998716
0.999585 1 1.0001 0.999489
0.99997 1 1 0.99997
1 1 1 1
0.999981 1 1 0.999981
1 1 1 1
1 1 1 1
1.00047 1 1.00205 0.998416
0.99876 1 1 0.99876
0.999456 1 1 0.999456
0.998878 1 1 0.998878
0.999992 1 1 0.999992
0.999564 1 1 0.999564
0.998963 1 1 0.998963
1 1 1 1
1 1 1 1
0.999656 1 1 0.999656
1 1 1 1
1 1 1 1
1 1 1 1
0.839241 0.913588 0.94474 0.972353
0.860856 0.931683 0.947688 0.974982
0.84833 0.918538 0.949104 0.973092
0.99896 1 1.00052 0.998442
0.999771 1 1.00149 0.998288
0.999862 1 1.00154 0.99832
0.998687 1 1.00039 0.998298
1.00439 1 1.00616 0.998244
0.998501 1 1 0.998501
0.998424 1 1 0.998424
0.99843 1 1 0.99843
0.998384 1 1 0.998384
1.00626 1 1.00784 0.998435
0.837909 0.916553 0.9533 0.958981
0.833248 0.920657 0.939587 0.96325
0.854215 0.936736 0.941499 0.968568
0.786146 0.911985 0.90345 0.954139
0.875869 0.936035 0.9749 0.959814
0.880956 0.928939 0.96417 0.983588
0.921929 0.936752 1.01035 0.974091
0.906002 0.9402 0.978779 0.98452
0.935057 0.947164 1.01344 0.974127
0.838232 0.904052 0.965147 0.960677
0.752663 0.885852 0.89621 0.948048
0.919565 0.933755 0.998095 0.986684
0.919094 0.931899 1.01184 0.974717
0.762178 0.849589 0.932735 0.961809
0.692125 0.827327 0.881989 0.948515
1.01027 1 1.01129 0.998988
1.0116 1 1.01318 0.998445
1.00197 1 1.00374 0.998237
0.977675 0.966499 1.01564 0.99599
1.00739 0.966073 1.04307 0.999712
1.00474 1 1.0063 0.998446
1.03634 0.993292 1.04462 0.998772
1.01452 0.996128 1.01956 0.99892
1.02319 0.979818 1.04501 0.999285
0.963387 0.946617 1.02092 0.996858
1.01857 0.994346 1.02503 0.999345
0.975348 0.961634 1.01715 0.997156
0.867485 0.93283 0.961243 0.967445
0.853678 0.917412 0.954041 0.975354
0.870737 0.936168 0.950412 0.978637
1.00589 0.971237 1.03635 0.999347
0.93121 0.944945 0.99742 0.988014
0.849541 0.919212 0.94963 0.973228
0.917607 0.937674 1.00726 0.971547
0.774351 0.856683 0.93965 0.961947
0.840359 0.921306 0.951381 0.958753
0.664359 0.807115 0.874607 0.94114
0.9959 0.969792 1.02907 0.997913
0.858132 0.929689 0.955882 0.965632
0.722916 0.826276 0.921216 0.949733
0.907476 0.936985 0.980718 0.987548
0.762228 0.8605 0.921487 0.961269
0.882048 0.921216 0.98475 0.97231
0.959911 0.959882 1.00364 0.996402
0.76167 0.845812 0.942704 0.955251
0.759652 0.851858 0.925651 0.963385
0.90059 0.940177 0.98478 0.972698
0.879648 0.926468 0.960687 0.988318
1.0119 0.98296 1.02994 0.999515
0.992261 0.982526 1.01061 0.999307
0.996712 0.994953 1.00329 0.998487
1.00421 0.987098 1.01837 0.998979
1.00127 1.00086 1.00249 0.997917
0.998083 1.00199 0.999119 0.996984
1.01359 1.00067 1.01635 0.996613
1.00744 1.00062 1.01096 0.995902
0.999153 1.0017 1.00137 0.996088
1.00495 1.00195 1.0074 0.995632
1.00228 1.00308 1.0037 0.995522
1.01517 1.01907 1 0.996174
1.03575 1.03939 1 0.996504
1.02561 1.02967 1.00002 0.996039
1.01643 1.02052 1 0.995991
1.01181 1.01549 1 0.99638
1.00951 1.01243 1.00107 0.996048
1.00587 1.00774 1.00244 0.995722
1.00407 1.00704 1 0.997053
1.00206 1.00508 1.00002 0.996966
1.00456 1.00754 1.00032 0.996727
1.0003 1.00055 1.00208 0.997679
1.00162 1.00297 1.0013 0.997356
1.00514 1.00683 1.0011 0.997236
1.00508 1 1.00636 0.998729
1.00527 1.00005 1.00718 0.998054
1.00286 1.00036 1.00466 0.997855
0.999915 1 1 0.999915
1.00108 1 1.00196 0.999128
1.00422 1 1.00579 0.998438
1 1 1 1
0.999947 1 1 0.999947
0.999789 1 1.00043 0.999359
0.999965 1 1 0.999965
1 1 1 1
1 1 1 1
1.00336 1 1.00504 0.998332
0.999503 1 1.00087 0.99863
1.00078 1 1.00238 0.998399
0.999352 1 1 0.999352
0.99888 1 1.00012 0.998758
0.999973 1 1 0.999973
0.99946 1 1 0.99946
0.998875 1 1 0.998875
1 1 1 1
0.999994 1 1 0.999994
0.999567 1 1 0.999567
1 1 1 1
1 1 1 1
1 1 1 1
0.856103 0.929192 0.952034 0.96776
0.842117 0.915562 0.945956 0.97233
0.860907 0.929873 0.948881 0.975709
0.998715 1 1.00038 0.998331
0.999428 1 1.00098 0.998453
1.00007 1 1.00179 0.998286
0.99878 1 1.00048 0.998297
0.99973 1 1.00139 0.998341
1.00258 1 1.00428 0.998313
1.01037 1 1.01237 0.998019
1.01217 1 1.01392 0.99827
0.998432 1 1 0.998432
0.998389 1 1 0.998389
1.00585 1 1.00744 0.998421
1.01856 0.999826 1.02013 0.998633
0.732995 0.832631 0.926439 0.950237
0.8479 0.925855 0.955179 0.958775
0.83421 0.920478 0.940807 0.9633
0.7435 0.877178 0.892294 0.949916
0.841067 0.909203 0.963743 0.959862
0.928218 0.939876 1.01678 0.971298
0.907792 0.934127 0.986381 0.985225
0.918099 0.932974 0.995357 0.988647
0.678742 0.818177 0.87816 0.944679
0.912931 0.929119 1.01086 0.972022
0.781048 0.870196 0.93504 0.95991
0.917035 0.940303 0.9855 0.989605
0.904935 0.930107 0.997125 0.975742
0.751561 0.854535 0.914604 0.961616
0.998938 1 0.999395 0.999542
1.00984 1 1.01086 0.998995
1.01166 1 1.01324 0.998448
0.961625 0.946647 1.01899 0.996887
1.02798 0.985576 1.04378 0.999273
1.01492 0.99796 1.01808 0.998927
1.01848 0.995707 1.02354 0.999344
0.972486 0.960764 1.01504 0.997201
0.993978 0.987504 1.00848 0.998088
0.788685 0.859683 0.959698 0.955941
0.864927 0.932078 0.957439 0.969206
0.853314 0.917754 0.952806 0.975839
0.996856 0.968529 1.03125 0.998053
0.897638 0.93224 0.974182 0.988401
0.85726 0.928064 0.956578 0.965638
0.886923 0.913793 0.996968 0.973547
0.769081 0.874316 0.916991 0.959265
0.725391 0.832279 0.916228 0.951261
0.960792 0.957831 1.00664 0.996473
0.757701 0.844886 0.937336 0.956763
0.762774 0.85516 0.927597 0.961589
0.881248 0.92734 0.964489 0.985285
0.897749 0.94183 0.977166 0.97547
0.95124 0.967538 0.984886 0.998243
0.783868 0.867945 0.939023 0.961778
0.927251 0.973939 0.974618 0.976856
0.892697 0.941029 0.963034 0.985053
0.996168 0.9812 1.01598 0.999285
0.988763 0.994722 0.995419 0.998584
0.994087 1.0016 0.994806 0.997678
1.00127 1.00097 1.0023 0.998
1.00138 1.00242 1.002 0.996967
1.00019 1.00378 0.999428 0.996994
1.00612 1.0008 1.00944 0.99591
0.999034 1.00128 1.00167 0.996099
1.02036 1.02411 0.9994 0.996939
1.0027 1.00398 1.00319 0.995554
1.01418 1.01806 1 0.996185
1.03629 1.03952 0.999817 0.997073
1.03931 1.04233 1 0.997108
1.03838 1.04211 1 0.996421
1.03577 1.03936 1 0.996545
1.02653 1.03039 1 0.996257
1.0242 1.02822 1 0.996094
1.01619 1.02025 1 0.996018
1.01526 1.01858 1 0.996736
1.01197 1.01548 1.00014 0.996407
1.00817 1.01073 1.00148 0.995996
1.00073 1.00336 1 0.997371
1.00446 1.00743 1 0.997047
1.00078 1.00375 1 0.99704
1.00316 1.00006 1.00481 0.998305
1.00125 1.00124 1.00234 0.997677
1.00173 1.00291 1.00145 0.99739
1.00024 1 1.00043 0.999806
1.00367 1 1.00495 0.998725
1.00452 1.00015 1.00633 0.998057
1 1 1 1
0.999899 1 1 0.999899
1.00129 1 1.00217 0.99912
1 1 1 1
0.999939 1 1 0.999939
1 1 1 1
0.999682 1 1.00145 0.998239
1.00224 1 1.00393 0.998321
1.00228 1 1.00379 0.998496
0.999709 1 1.00047 0.999242
0.999831 1 1.0012 0.998628
1.00026 1 1.00188 0.998381
0.999947 1 1 0.999947
0.999356 1 1 0.999356
0.998775 1 1.00002 0.998756
1 1 1 1
0.999979 1 1 0.999979
0.999464 1 1 0.999464
1 1 1 1
0.999997 1 1 0.999997
1 1 1 1
0.76443 0.844878 0.9499 0.952502
0.856343 0.929313 0.952169 0.967769
0.845328 0.917853 0.947214 0.972308
1.00118 1 1.00288 0.998311
1.00424 1.00134 1.00486 0.998055
1.00873 1 1.01058 0.998171
0.999591 1 1.0013 0.998297
0.999485 1 1.00113 0.998362
1.00261 1 1.00424 0.998382
1.01063 1 1.01241 0.998243
1.00983 1 1.0118 0.998055
1.01136 1.00008 1.01338 0.997932
0.989659 1.00058 0.9901 0.998977
1.00448 1 1.00608 0.998408
1.01481 0.999836 1.0164 0.998603
0.762334 0.851331 0.933062 0.959703
0.720158 0.821039 0.925112 0.948133
0.854843 0.931491 0.957316 0.958632
0.666552 0.807857 0.877053 0.940749
0.782296 0.870256 0.93447 0.961963
0.9029 0.924951 1.00215 0.974063
0.924897 0.9391 0.998718 0.98614
0.908528 0.934452 0.98458 0.987484
0.752634 0.848111 0.923982 0.960434
0.888215 0.920179 0.99155 0.973488
0.899402 0.940163 0.967677 0.9886
0.888528 0.94169 0.969557 0.973173
1.0039 1 1.00488 0.999021
0.998531 1 0.999045 0.999485
1.00961 1 1.01062 0.999
0.970774 0.961069 1.01289 0.997247
1.01836 0.997016 1.02208 0.999344
0.994813 0.988523 1.00836 0.99802
0.982748 0.992546 0.992976 0.997132
0.792509 0.885048 0.928271 0.964635
0.789552 0.858624 0.96117 0.956704
0.865608 0.933088 0.955446 0.97094
0.963123 0.964146 1.00233 0.996618
0.883441 0.927458 0.966217 0.985844
0.758323 0.845651 0.937125 0.956898
0.886175 0.934958 0.974343 0.972782
0.77261 0.861133 0.931066 0.963629
0.955233 0.970043 0.987388 0.997311
0.792542 0.877458 0.937826 0.963106
0.92371 0.974631 0.973655 0.973397
0.897712 0.94325 0.963771 0.987498
0.960786 0.985879 0.976371 0.998132
0.930437 0.980569 0.972013 0.976195
0.934643 0.978611 0.965182 0.989525
0.979686 0.993315 0.987595 0.998668
0.990795 1.00192 0.991221 0.997651
0.981644 1.00749 0.976745 0.997544
1.00328 1.00278 1.00356 0.99695
0.999538 1.00391 0.998648 0.996991
1.02174 1.03187 0.992546 0.997615
0.9987 1.00073 1.00186 0.99611
1.01962 1.02396 0.998837 0.996921
1.03445 1.04202 0.9951 0.997633
1.01316 1.01703 1 0.996196
1.03551 1.03912 0.999456 0.997068
1.03933 1.04344 0.998472 0.997588
1.0367 1.03937 0.999972 0.997465
1.04023 1.04319 0.999987 0.997176
1.03896 1.04213 1 0.996962
1.0396 1.04327 1 0.996486
1.03848 1.0422 1 0.996435
1.03593 1.03948 1 0.996587
1.02712 1.03072 1 0.996509
1.02814 1.03197 1 0.996288
1.02277 1.02672 1 0.99615
1.00877 1.01172 1 0.997087
1.01423 1.01756 1 0.996732
1.01207 1.01552 1.00017 0.996434
0.99867 1.00039 1.00026 0.998016
1.00234 1.00498 1 0.997368
1.00516 1.00814 1 0.997041
1.00109 1 1.0015 0.999592
1.00257 1.00015 1.00412 0.998306
1.00258 1.002 1.00291 0.997676
1 1 1 1
1.00082 1 1.00104 0.999782
1.00318 1 1.00447 0.998722
0.999999 1 1 0.999999
1.00002 1 1.00014 0.999884
1 1 1 1
0.998476 1.00034 1 0.998141
1.00082 1 1.00258 0.998253
1.00301 1 1.00465 0.998365
1.00071 1 1.0024 0.998309
1.00237 1 1.00388 0.998496
1.00084 1 1.00174 0.999101
0.999914 1 1 0.999914
0.999576 1 1.00033 0.999244
1.00051 1 1.00188 0.998626
1 1 1 1
0.999955 1 1 0.999955
0.99936 1 1 0.99936
1 1 1 1
0.999985 1 1 0.999985
1 1 1 1
0.792793 0.873405 0.942542 0.963037
0.767261 0.847751 0.949797 0.952893
0.855842 0.929121 0.951807 0.967771
1.00386 1 1.00558 0.998292
1.01099 1 1.01298 0.998035
1.00245 1.00083 1.0035 0.998128
1.00031 1.00226 1.00072 0.997335
1.01083 1.00085 1.01197 0.998025
1.00961 1 1.01142 0.998217
1.00803 1 1.00996 0.998091
1.01458 1.00031 1.01629 0.997998
0.998774 1.00106 1 0.997718
0.979525 1.00102 0.979889 0.998614
0.980109 1.00035 0.981985 0.997739
0.989944 1.00051 0.990413 0.999019
1.00921 1 1.01065 0.998574
0.913609 0.966515 0.969382 0.975117
0.76014 0.847715 0.933367 0.960707
0.719997 0.822655 0.922554 0.948683
0.750664 0.850337 0.921228 0.958269
0.899776 0.931012 0.993223 0.973043
0.911689 0.930501 0.989979 0.9897
0.900509 0.939268 0.968251 0.990172
0.902733 0.94449 0.978884 0.976406
0.927381 0.972192 0.964242 0.989283
0.995295 1.00132 0.995758 0.998218
1.00368 1 1.00468 0.998999
0.998364 1 0.998935 0.999428
0.996281 0.990733 1.00763 0.997986
0.988442 0.996076 0.995043 0.997279
0.906404 0.967695 0.95988 0.975812
0.801128 0.883469 0.93987 0.964813
0.789961 0.856322 0.963457 0.957496
0.961602 0.975394 0.989492 0.99633
0.900172 0.945833 0.966006 0.985215
0.791575 0.874483 0.940227 0.962737
0.919263 0.966401 0.974288 0.976326
0.968836 0.985697 0.984662 0.998205
0.939105 0.989627 0.971129 0.97716
0.931181 0.975065 0.967434 0.987141
0.983119 1.00418 0.981383 0.997595
0.956242 0.993797 0.969246 0.992741
0.991949 1.00452 0.989819 0.997644
0.981253 1.00714 0.976745 0.997495
0.9981 1.03321 0.968128 0.997819
0.999024 1.00393 0.998123 0.996986
1.02236 1.03215 0.992913 0.99759
1.03246 1.04986 0.985488 0.997907
1.01884 1.02383 0.998219 0.996903
1.03392 1.04218 0.994447 0.997611
1.03058 1.04234 0.990868 0.997829
1.03463 1.03867 0.999047 0.997063
1.03933 1.04393 0.998029 0.997568
1.037 1.04212 0.997424 0.997661
1.03719 1.03986 0.999908 0.997519
1.03556 1.03846 0.999929 0.997277
1.04107 1.04399 0.99996 0.997243
1.03888 1.04205 1 0.996953
1.04099 1.04437 1 0.996771
1.03655 1.04015 1 0.99654
1.03941 1.04309 1 0.996474
1.03858 1.04228 1 0.99645
1.02068 1.02388 1 0.99687
1.02662 1.03021 1 0.996521
1.0298 1.0336 1 0.99632
1.00015 1.00235 1 0.997801
1.00958 1.01253 1 0.997084
1.01309 1.01642 1 0.996728
1.00021 1 1.00087 0.999341
0.999345 1.00086 1.00047 0.998017
1.00381 1.00646 1 0.997364
1 1 1 1
1.0011 1 1.00154 0.999568
1.00169 1.00024 1.00315 0.998308
1 1 1 1
1.00118 1 1.00142 0.999758
1 1 1 1
1.00186 1.00443 1 0.997444
0.99857 1.00044 1 0.998131
1.00014 1 1.00198 0.998169
1.0024 1 1.00414 0.998266
1.00251 1 1.00418 0.998336
1.00207 1 1.00319 0.99889
1.00271 1 1.00423 0.998495
1.00039 1 1.00129 0.999102
0.99987 1 1 0.99987
1 1 1 1
0.999923 1 1 0.999923
0.999395 1 1.00015 0.999247
1 1 1 1
0.999962 1 1 0.999962
1 1 1 1
0.930712 0.981739 0.969239 0.978112
0.791165 0.87908 0.93382 0.963775
0.773553 0.851784 0.954114 0.951831
1.01253 1 1.01466 0.9979
1.00038 1.00038 1.0018 0.998201
1.00883 1.00072 1.01013 0.997993
1.00173 1.00333 1.001 0.997407
1.00967 1.01262 1.00016 0.996922
0.999159 1.00153 1 0.997634
1.01885 1.00062 1.02019 0.998064
0.999038 1.00152 1 0.997521
0.985322 1.00126 0.985465 0.998595
0.995392 1.00107 0.996607 0.99771
0.976586 1.00314 0.975621 0.99786
0.995574 1.00129 0.996943 0.997341
0.981387 1.00082 0.982675 0.997872
0.993802 1.00034 0.994401 0.999063
0.931827 0.977476 0.963572 0.989338
0.918258 0.970801 0.969725 0.975407
0.762692 0.849113 0.9325 0.963241
0.907784 0.948404 0.984021 0.972713
0.904622 0.938254 0.97278 0.991133
0.930686 0.969941 0.966829 0.992449
0.988052 1.00377 0.986733 0.997579
0.993197 1.00067 0.99432 0.998203
1.00348 1 1.00451 0.998978
0.99004 0.998612 0.993993 0.997407
0.942545 0.974318 0.97756 0.989597
0.921844 0.974384 0.96631 0.979063
0.78912 0.877371 0.934027 0.962943
0.968841 0.981775 0.988536 0.99827
0.933661 0.978837 0.964677 0.988773
0.944277 0.988184 0.97699 0.978073
0.975154 1.00248 0.975051 0.997634
0.954931 0.989964 0.972397 0.991994
0.976699 1.02432 0.955841 0.997564
0.997351 1.01654 0.984471 0.9966
0.980192 1.00678 0.976088 0.997439
0.996566 1.03181 0.967959 0.997813
1.00482 1.05177 0.957425 0.997837
1.02352 1.03297 0.993274 0.997565
1.03224 1.04966 0.985481 0.997888
1.02695 1.04589 0.984078 0.99778
1.03374 1.04254 0.993959 0.997588
1.03023 1.04166 0.991193 0.99781
1.03631 1.04719 0.991956 0.997631
1.03947 1.04445 0.997677 0.997547
1.03509 1.04024 0.997386 0.997653
1.03692 1.04119 0.998512 0.997381
1.0377 1.04036 0.999867 0.997571
1.03591 1.03874 0.999948 0.997322
1.03945 1.04262 1 0.996962
1.03885 1.04204 1 0.996945
1.04099 1.04437 1 0.99676
1.0391 1.04253 1 0.996707
1.02861 1.03196 1 0.996762
1.03658 1.04017 1 0.996546
1.03916 1.04285 1 0.996463
1.00471 1.00712 1 0.997608
1.01991 1.02311 1 0.996873
1.02613 1.0297 1 0.996533
0.9992 1 1.00007 0.999132
1.00138 1.00359 1 0.997799
1.01019 1.01315 1 0.997081
1 1 1 1
0.999969 1 1.00065 0.999324
0.999912 1.00128 1.00062 0.998017
1 1 1 1
1.00121 1 1.00167 0.999543
1 1 1 1
1.01117 1.0142 1 0.99702
1.0032 1.00575 1 0.997468
1.00329 1.00491 1.00066 0.997728
0.998652 1.00053 1 0.99812
1.00001 1 1.00189 0.998128
1.00139 1 1.00279 0.998607
1.00206 1 1.00376 0.998308
1.00192 1 1.00303 0.998891
1.00047 1 1.00066 0.999804
1.00005 1 1.00095 0.999103
0.99988 1 1 0.99988
1 1 1 1
1 1 1 1
0.999933 1 1 0.999933
1 1 1 1
0.933769 0.977649 0.964793 0.98997
0.922888 0.981168 0.96441 0.975312
0.783687 0.8721 0.931469 0.964735
1.02399 1.02731 1.00007 0.996703
1.00698 1.00046 1.00858 0.997962
1.00324 1.00446 1.00131 0.997478
0.99887 1.00126 1 0.997612
1.00926 1.01197 1.00042 0.996904
1.00231 1.00487 0.99992 0.997534
0.999145 1.00183 1 0.997325
0.987542 1.00108 0.98788 0.998576
0.99332 1.0013 0.99429 0.997724
0.970674 1.00212 0.970785 0.997768
1.00159 1.00848 0.996092 0.997068
1.00087 1.00686 0.996685 0.997352
0.996405 1.00195 0.997152 0.997302
0.981829 1.00134 0.982479 0.998006
0.986503 1.00613 0.982389 0.998074
0.927653 0.976088 0.961807 0.988118
0.920385 0.972447 0.96962 0.976117
0.924192 0.96418 0.967871 0.990345
0.990917 1.00543 0.987315 0.998224
0.993204 1.0002 0.994814 0.998182
0.987058 1.00668 0.984117 0.99633
0.928756 0.960672 0.975535 0.991023
0.909178 0.971164 0.959263 0.97593
0.971102 1.00048 0.972895 0.997673
0.962122 0.991912 0.978767 0.991009
0.980164 1.02537 0.958158 0.997658
0.998656 1.01614 0.985909 0.996838
0.993891 1.03838 0.959386 0.997671
1.04142 1.05246 0.991962 0.997527
0.993988 1.02982 0.967331 0.997807
1.00849 1.05312 0.959706 0.997825
1.01586 1.05599 0.964273 0.997638
1.03125 1.04894 0.985239 0.997869
1.02551 1.04493 0.983609 0.997776
1.03512 1.0526 0.98584 0.997517
1.02959 1.04086 0.991368 0.997792
1.03517 1.04614 0.991852 0.997644
1.03911 1.04647 0.995626 0.997329
1.03315 1.03838 0.997312 0.997645
1.03747 1.04167 0.998585 0.997379
1.04156 1.0448 0.999847 0.997055
1.03623 1.039 0.999967 0.997368
1.0398 1.04292 1 0.997002
1.04103 1.04442 1 0.996753
1.04096 1.04435 1 0.996749
1.03888 1.04233 1 0.996688
1.03165 1.03498 1 0.996781
1.00965 1.0122 1 0.997487
1.02789 1.03121 1 0.99678
1.0366 1.04019 1 0.996552
0.998986 1 1 0.998986
1.00626 1.00867 1 0.997608
1.01935 1.02254 1 0.996876
1 1 1 1
0.999119 1 1 0.999119
1.00276 1.00497 1 0.997797
1 1 1 1
0.999654 1 1.00035 0.999308
1 1 1 1
1.02267 1.02605 1 0.996709
1.01236 1.01539 1 0.99702
1.01015 1.01285 1 0.997337
1.00447 1.00698 1.00001 0.997492
1.00206 1.00379 1.00056 0.997722
1.00104 1.00092 1.00183 0.9983
0.999752 1 1.00167 0.998088
1.0023 1 1.0037 0.998608
1.00096 1 1.00127 0.999688
1.00135 1 1.00246 0.998893
0.99998 1 1.00017 0.999814
1 1 1 1
0.99989 1 1 0.99989
1 1 1 1
1 1 1 1
0.982157 1.01057 0.973951 0.997882
0.928181 0.974667 0.964221 0.987643
0.919678 0.97128 0.967714 0.978463
1.01652 1.01947 1.00001 0.997092
1.03356 1.03695 1 0.996733
1.02188 1.02506 1.00013 0.996767
0.998724 1.00114 1 0.99759
1.00886 1.01127 1.00073 0.996885
1.00307 1.00651 0.999077 0.997504
1.01789 1.02234 0.998621 0.997022
0.992166 1.00188 0.992548 0.997738
0.9671 1.00151 0.967896 0.997675
1.00294 1.01023 0.995618 0.99715
1.02113 1.0283 0.99614 0.996867
1.00755 1.02436 0.985958 0.997599
1.00318 1.00862 0.997285 0.997317
0.997651 1.00262 0.997772 0.997261
0.990791 1.008 0.984603 0.998294
0.931116 0.978062 0.964748 0.986787
0.990924 1.00593 0.986177 0.998889
1.02176 1.04035 0.983966 0.998142
0.985438 1.00539 0.983647 0.996449
0.932777 0.971132 0.971291 0.988895
0.98324 1.02678 0.959756 0.997748
0.999867 1.01616 0.986836 0.997088
0.992513 1.039 0.957365 0.997795
1.04122 1.05382 0.990484 0.997541
1.03575 1.06252 0.977224 0.997531
1.06604 1.07968 0.989687 0.997662
1.01245 1.05528 0.961524 0.997812
1.02085 1.05679 0.96827 0.997639
1.03838 1.06146 0.98079 0.99742
1.02441 1.04413 0.983307 0.997772
1.03494 1.0518 0.986423 0.997515
1.03957 1.05197 0.990891 0.997295
1.03408 1.04509 0.991781 0.997657
1.03961 1.04695 0.995659 0.997326
1.04435 1.04871 0.998788 0.997055
1.03798 1.04211 0.998656 0.997377
1.04185 1.04507 0.999872 0.997054
1.04401 1.0474 1 0.996768
1.04014 1.04323 1 0.997042
1.04058 1.04396 1 0.996767
1.03408 1.03744 1 0.996757
1.03869 1.04216 1 0.996669
1.03156 1.03489 1 0.996777
1.01187 1.01449 1 0.997419
0.998922 1 1 0.998921
1.01027 1.01282 1 0.997486
1.02719 1.03049 1 0.996798
1 1 1 1
0.998974 1 1 0.998974
1.00772 1.01014 1 0.997608
1 1 1 1
0.999106 1 1 0.999106
1 1 1 1
1.03118 1.03468 1 0.996618
1.0226 1.02599 1 0.996697
1.01612 1.01914 1 0.997033
1.01331 1.01634 1 0.99702
1.00874 1.01142 1 0.997344
1.00185 1.0035 1.00035 0.998014
1.00066 1.00249 1.00046 0.997717
1.00124 1.00054 1.00241 0.998302
1.0005 1 1.00101 0.999492
1.0038 1 1.0052 0.99861
1.00083 1 1.00112 0.999704
1 1 1 1
0.999825 1 1 0.999825
1 1 1 1
1 1 1 1
1.00681 1.03633 0.97339 0.998079
0.979436 1.00952 0.972941 0.997183
0.928102 0.976448 0.961681 0.988361
1.02937 1.03257 1 0.996905
1.01772 1.02049 1 0.997282
1.04881 1.0522 1 0.996779
1.03422 1.03763 1 0.996718
1.01995 1.023 1.00018 0.996833
1.04097 1.04563 0.998764 0.996773
1.00367 1.00822 0.998014 0.997474
1.01737 1.02135 0.999143 0.99696
1.03987 1.05645 0.987232 0.997042
1.00326 1.01175 0.994355 0.997233
1.02157 1.02886 0.996085 0.996814
1.00869 1.02587 0.985587 0.997632
1.0036 1.00893 0.997428 0.997278
0.995516 1.00984 0.987293 0.998502
1.05186 1.07153 0.983897 0.997711
1.02247 1.03997 0.984977 0.998162
0.983847 1.00409 0.983218 0.996563
0.991911 1.03897 0.956701 0.997918
1.04003 1.05418 0.988996 0.997556
1.03159 1.06174 0.973987 0.997553
1.06676 1.08155 0.988643 0.997657
1.05562 1.07426 0.985064 0.997548
1.0254 1.05722 0.972194 0.99764
1.03904 1.06084 0.981966 0.99743
1.04099 1.05724 0.987277 0.997318
1.0347 1.05098 0.986972 0.997514
1.03942 1.05167 0.991054 0.997276
1.04466 1.05199 0.995983 0.997038
1.04015 1.04745 0.995694 0.997323
1.04445 1.04876 0.998833 0.997052
1.04721 1.05061 1 0.996768
1.04217 1.04536 0.999897 0.997053
1.04377 1.04716 1 0.996771
1.03742 1.04085 1 0.996706
1.04013 1.04349 1 0.99678
1.0342 1.03756 1 0.996762
1.01289 1.01559 1 0.997346
1.03142 1.03476 1 0.996772
1.01207 1.0147 1 0.997417
0.999103 1.00001 1 0.999097
0.999663 1 1 0.999663
0.998998 1 1 0.998998
1.01088 1.01343 1 0.997485
1 1 1 1
0.998962 1 1 0.998962
1 1 1 1
1.05508 1.05841 1 0.996862
1.04058 1.04402 1 0.996707
1.03213 1.03563 1 0.99662
1.02341 1.02662 1 0.996879
1.02284 1.02624 1 0.996684
1.01692 1.01995 1 0.997032
1.00556 1.00781 1 0.997776
1.0075 1.01017 1 0.997352
1.00106 1.00258 1.00047 0.998017
0.999364 1 1.00012 0.999243
1.00136 1.00024 1.00282 0.998304
1.0006 1 1.00108 0.999511
1 1 1 1
1.00024 1 1.00052 0.99972
1 1 1 1
1 1 1 1
1.04623 1.07006 0.980219 0.99746
1.0111 1.0416 0.972522 0.998139
0.976917 1.00962 0.971016 0.996493
1.04592 1.04943 0.999859 0.996796
1.0272 1.03034 1 0.996958
1.01863 1.02121 1 0.997468
1.0475 1.05086 1 0.996796
1.03487 1.0383 1 0.996702
1.04928 1.06406 0.98906 0.997022
1.03747 1.04243 0.998504 0.996732
1.0169 1.02015 0.999911 0.996897
1.03871 1.05513 0.987363 0.997037
1.02445 1.03147 0.996422 0.996762
1.01335 1.03128 0.984915 0.997671
1.05558 1.07244 0.986608 0.997646
1.05473 1.07345 0.984785 0.997743
1.02303 1.03983 0.985638 0.998183
1.02874 1.06209 0.970959 0.997573
1.06838 1.08421 0.987722 0.997652
1.05555 1.0752 0.984132 0.997556
1.04679 1.05916 0.990897 0.997409
1.03963 1.06015 0.983158 0.997439
1.04119 1.05691 0.987789 0.997306
1.04571 1.05473 0.994368 0.997071
1.03929 1.05139 0.991215 0.997257
1.04512 1.05244 0.995992 0.997037
1.04964 1.05339 0.999666 0.996764
1.04453 1.0488 0.998878 0.997049
1.0475 1.05089 1 0.996769
1.0401 1.0436 1 0.996648
1.04354 1.04692 1 0.996775
1.03768 1.0411 1 0.99671
1.01418 1.01698 1 0.99725
1.03433 1.03768 1 0.996767
1.01323 1.01593 1 0.997345
0.999108 1 1 0.999107
1.01229 1.01491 1 0.997415
0.999093 1 1 0.999092
0.999684 1 1 0.999684
0.999838 1 1 0.999838
0.999082 1 1 0.999082
1 1 1 1
1.05023 1.05366 0.999898 0.996847
1.04588 1.04927 1 0.996768
1.05409 1.05728 1 0.996983
1.03338 1.0367 1 0.996801
1.04262 1.04607 1 0.996696
1.03305 1.03655 1 0.996621
1.02439 1.02761 1 0.996873
1.01072 1.01317 1 0.997584
1.01768 1.02071 1 0.997032
1.00421 1.00645 1 0.997777
0.999043 1 1 0.999043
1.00011 1.00157 1.00052 0.99802
0.999634 1 1.00037 0.999261
1 1 1 1
1.00085 1 1.00132 0.999532
1 1 1 1
1 1 1 1
1.04728 1.06693 0.984186 0.997349
1.04426 1.06793 0.980331 0.997455
1.01374 1.04437 0.972433 0.99819
1.04992 1.05834 0.995088 0.996936
1.04357 1.04723 0.999707 0.996797
1.02527 1.02834 1 0.997013
1.04599 1.04934 1 0.996814
1.04785 1.06242 0.989251 0.996998
1.03384 1.03907 0.998269 0.996692
1.03364 1.0497 0.987625 0.997032
1.05001 1.0627 0.990564 0.997471
1.05424 1.07093 0.986781 0.997607
1.05737 1.07506 0.985738 0.997774
1.04549 1.05473 0.993915 0.997306
1.05512 1.07582 0.983149 0.997564
1.0467 1.05925 0.990729 0.997395
1.04728 1.05565 0.994879 0.997172
1.04146 1.0566 0.98835 0.997293
1.04583 1.05486 0.99435 0.997073
1.05055 1.05471 0.999276 0.996776
1.04551 1.05283 0.996005 0.997036
1.04971 1.05349 0.999652 0.996766
1.04115 1.04469 1 0.996608
1.0477 1.0511 1 0.99677
1.04028 1.04378 1 0.996651
1.01506 1.01796 1 0.997156
1.03792 1.04134 1 0.996714
1.01443 1.01723 1 0.99725
0.999082 1 1 0.999082
1.01357 1.01627 1 0.997344
0.9991 1 1 0.999097
0.999689 1 1 0.999689
0.99909 1 1 0.99909
0.999691 1 1 0.999691
1 1 1 1
1.04988 1.05453 0.998838 0.996749
1.04774 1.0512 1 0.996706
1.05193 1.05539 0.999873 0.996847
1.03946 1.04277 1 0.996823
1.04707 1.05044 1 0.996798
1.05325 1.05631 1 0.997103
1.01431 1.01692 1 0.997427
1.03338 1.03671 1 0.996792
1.04483 1.04831 1 0.996684
1.02525 1.02848 1 0.996867
1.00917 1.01161 1 0.997585
0.998946 1.00001 1 0.998938
1.00283 1.00506 1 0.997778
0.999057 1 1 0.999057
1 1 1 1
0.999864 1 1.00058 0.99928
1 1 1 1
1 1 1 1
1.04594 1.0586 0.990797 0.997217
1.04721 1.06715 0.983942 0.997332
1.04431 1.06804 0.980282 0.997451
1.0491 1.05767 0.994934 0.996952
1.04094 1.04476 0.999545 0.996798
1.0473 1.06171 0.989418 0.996974
1.04685 1.05676 0.993298 0.997306
1.05037 1.06284 0.990781 0.997464
1.05294 1.06953 0.986888 0.997568
1.04593 1.05506 0.994005 0.997327
1.04733 1.05443 0.996136 0.997118
1.04659 1.05937 0.990525 0.997381
1.04757 1.05567 0.995188 0.997131
1.05038 1.05508 0.99868 0.996862
1.04594 1.055 0.994328 0.997075
1.05046 1.05469 0.999208 0.996779
1.04112 1.04469 1 0.99658
1.05 1.05379 0.999635 0.996767
1.04148 1.04503 1 0.996609
1.01527 1.01823 1 0.997091
1.04061 1.0441 1 0.996654
1.01513 1.01803 1 0.997157
0.999027 1 1 0.999027
1.0147 1.0175 1 0.99725
0.999066 1 1 0.999066
0.999668 1 1 0.999668
0.99909 1 1 0.99909
0.999705 1 1 0.999705
0.999694 1 1 0.999694
1.04935 1.05651 0.996207 0.997003
1.04994 1.05352 1 0.996608
1.05041 1.05582 0.99809 0.996777
1.04156 1.04497 1 0.996738
1.04692 1.05039 1 0.996696
1.05357 1.05706 0.99985 0.996847
1.01564 1.01837 1 0.997319
1.03929 1.04264 1 0.99679
1.04808 1.05142 1 0.996828
0.999072 1.00017 1 0.998906
1.01375 1.01636 1 0.99743
1.03351 1.03684 1 0.996783
1.00777 1.01021 1 0.997587
0.999011 1.00006 1 0.99895
1 1 1 1
0.999072 1 1 0.999072
1 1 1 1
1 1 1 1
1.0442 1.05393 0.993546 0.997201
1.04598 1.05858 0.990857 0.99721
1.04674 1.06688 0.98376 0.997316
1.04833 1.05702 0.994794 0.996968
1.04752 1.05347 0.997274 0.997076
1.04717 1.05686 0.993497 0.997317
1.05078 1.06295 0.991068 0.997457
1.04639 1.05539 0.994114 0.997347
1.04728 1.05451 0.996009 0.997128
1.05033 1.05497 0.998742 0.996854
1.04793 1.05571 0.995522 0.99709
1.05041 1.05491 0.998911 0.996816
1.04115 1.04469 1 0.99662
1.05029 1.05457 0.999151 0.996781
1.04144 1.04501 1 0.996583
1.01485 1.01786 1 0.997041
1.04153 1.04507 1 0.996611
1.01512 1.01808 1 0.997092
0.998799 1 1 0.998799
1.01514 1.01803 1 0.997157
0.998931 1 1 0.998931
1 1 1 1
0.999052 1 1 0.999052
0.99969 1 1 0.99969
0.999714 1 1 0.999714
1.04715 1.05377 0.996615 0.997093
1.04974 1.05381 0.999404 0.996733
1.04971 1.05634 0.996721 0.996993
1.04166 1.04522 1 0.996593
1.04897 1.05276 0.999772 0.996626
1.05098 1.05716 0.997339 0.996805
1.01591 1.01882 1 0.997142
1.04176 1.04517 1 0.996738
1.04615 1.04963 1 0.996685
0.999 1.0001 1 0.998905
1.01544 1.01821 1 0.997277
1.03912 1.0425 1 0.996756
1 1 1 1
0.999005 1.00009 1 0.998917
1.01292 1.01553 1 0.997432
0.998984 1.00002 1 0.998962
1 1 1 1
1 1 1 1
1.04628 1.05225 0.997232 0.997089
1.04455 1.05417 0.993651 0.997208
1.04593 1.05853 0.990866 0.997202
1.05043 1.0545 0.99935 0.996791
1.04686 1.05312 0.996957 0.997089
1.04748 1.05695 0.993688 0.997328
1.04719 1.05458 0.99584 0.997138
1.04999 1.05474 0.998636 0.996855
1.04028 1.04375 1 0.996682
1.05033 1.05468 0.999106 0.996769
1.04117 1.0447 0.999995 0.996622
1.01424 1.01735 1 0.996944
1.04192 1.04549 1 0.996585
1.01472 1.01773 1 0.997042
0.998758 1 1 0.998758
1.01508 1.01804 1 0.997092
0.998797 1 1 0.998797
1 1 1 1
0.99882 1 1 0.99882
0.999826 1 1 0.999826
0.999708 1 1 0.999708
1.04718 1.05276 0.997653 0.997045
1.05053 1.05417 0.999754 0.996798
1.04732 1.05387 0.996671 0.9971
1.04146 1.04502 1 0.99659
1.05049 1.0543 0.999668 0.996717
1.05008 1.05618 0.997238 0.996983
1.0155 1.01851 1 0.997049
1.04151 1.04505 1 0.996619
1.04797 1.05199 0.999539 0.996644
0.998881 1 1 0.998881
1.01586 1.01879 1 0.997129
1.04195 1.04536 1 0.996738
1 1 1 1
0.999043 1.00013 1 0.998914
1.01536 1.01817 1 0.997235
1 1 1 1
0.999105 1.00018 1 0.998928
1 1 1 1
1.05039 1.05453 0.999229 0.996839
1.04576 1.05168 0.997287 0.997073
1.04486 1.05435 0.993767 0.997214
1.03973 1.04319 1 0.996678
1.05003 1.05435 0.999088 0.996814
1.0462 1.05277 0.996648 0.997102
1.04971 1.05452 0.998581 0.996856
1.04031 1.0438 0.999976 0.996682
1.01342 1.01654 1 0.996928
1.0412 1.04473 1 0.996624
1.01417 1.01725 1 0.996971
0.998708 1 1 0.998708
1.01452 1.01753 1 0.997043
0.998755 1 1 0.998755
1 1 1 1
0.998794 1 1 0.998794
1 1 1 1
0.999683 1 1 0.999683
1.05178 1.05561 0.999549 0.996818
1.04654 1.0526 0.997161 0.997068
1.04087 1.04439 1 0.996624
1.05085 1.05441 0.99983 0.996797
1.04753 1.05404 0.99671 0.997107
1.01453 1.01751 1 0.997077
1.04098 1.04455 1 0.996586
1.05122 1.05476 0.999943 0.996701
0.998829 1 1 0.998829
1.01574 1.01872 1 0.997074
1.04134 1.04484 1 0.996644
1 1 1 1
0.998915 1.00003 1 0.998887
1.01583 1.01877 1 0.997116
1 1 1 1
0.999027 1.0001 1 0.998923
1 1 1 1
1.03967 1.04311 1 0.996707
1.0504 1.0544 0.999381 0.996826
1.04525 1.05112 0.997346 0.997058
1.01241 1.01552 1 0.996941
1.03972 1.04319 0.999994 0.996678
1.04962 1.05418 0.998834 0.996836
1.04032 1.04385 0.999932 0.996682
1.01346 1.01659 1 0.996928
0.998678 1 1 0.998678
1.01411 1.01716 1 0.996998
0.998705 1 1 0.998705
1 1 1 1
0.998753 1 1 0.998753
1 1 1 1
1 1 1 1
1.04053 1.04404 1 0.996641
1.05135 1.05529 0.999414 0.996858
1.04584 1.05239 0.996677 0.997091
1.01367 1.01665 1 0.997072
1.04053 1.04406 1 0.996621
1.05116 1.05464 0.999905 0.996796
0.99878 1 1 0.99878
1.01491 1.01789 1 0.997075
1.04055 1.04412 1 0.996583
1 1 1 1
0.998833 1 1 0.998833
1.01599 1.01894 1 0.997099
1 1 1 1
0.998933 1.00004 1 0.998893
1 1 1 1
1.01231 1.01534 1 0.997017
1.03958 1.04305 1 0.996678
1.05042 1.05428 0.999529 0.996813
0.998692 1 1 0.998692
1.01252 1.01563 1 0.996938
1.0397 1.0432 0.999969 0.996678
1.01351 1.01664 1 0.996927
0.998678 1 1 0.998678
1 1 1 1
0.998702 1 1 0.998702
1 1 1 1
1 1 1 1
1.01289 1.01588 1 0.997053
1.04025 1.04374 1 0.996658
1.05095 1.05498 0.999281 0.996898
0.998955 1 1 0.998955
1.01395 1.01693 1 0.99707
1.04019 1.04372 1 0.996617
1 1 1 1
0.998781 1 1 0.998781
1.01527 1.01825 1 0.997073
1 1 1 1
0.998836 1 1 0.998836
1 1 1 1
0.998683 1 1 0.998683
1.01245 1.01551 1 0.996992
1.03951 1.04301 1 0.996648
1 1 1 1
0.998691 1 1 0.998691
1.01263 1.01574 1 0.996935
0.998676 1 1 0.998676
1 1 1 1
1 1 1 1
0.998914 1 1 0.998914
1.01314 1.01613 1 0.997053
1.03994 1.04341 1 0.996676
1 1 1 1
0.998752 1 1 0.998752
1.01423 1.01721 1 0.997069
1 1 1 1
0.998782 1 1 0.998782
1 1 1 1
0.999625 1 1 0.999625
0.998807 1 1 0.998807
1.01258 1.01566 1 0.996966
1 1 1 1
0.998692 1 1 0.998692
1 1 1 1
0.99964 1 1 0.99964
0.998826 1 1 0.998826
1.01342 1.01641 1 0.997053
0.999819 1 1 0.999819
0.998752 1 1 0.998752
1 1 1 1
1 1 1 1
0.998714 1 1 0.998714
1 1 1 1
0.999818 1 1 0.999818
0.998735 1 1 0.998735
1 1 1 1
1 1 1 1
1 1 1 1

VECTORS lamdaE float
1.00129 1.00013 0.993728
1.00086 1.00074 0.996951
1.00085 1.00034 0.994024
1.0014 1.00003 0.993666
1.00136 0.999971 0.993795
1.00123 1.00037 0.99354
1.00267 1.00044 0.990719
1.00087 1.00067 0.996953
1.00084 1.00016 0.997387
1.00032 1.00092 0.997427
1.00073 1.00083 0.993762
1.00232 1.00131 0.989542
1.00098 0.999973 0.994168
1.00075 1.00002 0.994282
1.00045 1.00054 0.994292
1.00107 1.00002 0.993997
1.00074 1.00073 0.993811
1.001 1.00002 0.994103
1.00288 1.00026 0.990586
1.00101 1.00002 0.997046
1.00134 1.00008 0.993688
1.0014 0.999961 0.993755
1.00275 1.00014 0.990885
1.00278 1.00015 0.990831
1.0012 1.00052 0.993397
1.00247 1.00096 0.990507
1.00514 1.00068 0.986172
1.00087 1.00063 0.99697
1.00105 1.00005 0.995598
1.00063 1.00065 0.995617
1.0008 1.00067 0.99702
1.00221 1.00146 0.989555
1.00134 0.999821 0.993742
1.00108 1.00023 0.993843
1.0031 1.00006 0.991085
0.999925 1.00093 0.997677
1.00276 1.00077 0.991043
1.002 1.00184 0.989533
1.00443 1.00147 0.985826
1.00011 0.999435 0.998045
1.00101 0.999988 0.997045
1.00097 1.00002 0.995622
1.00093 0.999975 0.997093
1.00059 1.00004 0.994488
1.00267 0.999932 0.990381
1.00093 0.99997 0.997323
1.00307 1.00006 0.99115
1.00075 0.999954 0.994328
1.00065 1.00005 0.994396
1.00026 1.00112 0.994062
1.00308 1.00008 0.990467
1.00082 1.00004 0.995758
1.00099 1.0001 0.994021
1.00067 1.00098 0.993643
1.00107 0.999935 0.994074
1.00289 1.0001 0.990728
1.00274 1.0007 0.990378
1.00295 1.00005 0.990692
1.00511 1.00068 0.986189
1.00091 1 0.99709
1.0012 1.00007 0.993881
1.00243 1 0.992038
1.00267 1.00015 0.990999
1.00278 1.00009 0.990876
1.00501 1.00024 0.986733
1.00511 1.00026 0.986476
1.00098 1.00047 0.993683
1.00196 1.0019 0.990361
1.00508 1.00098 0.986002
1.00529 1.0003 0.985519
1.00131 1.00008 0.996935
1.00072 1.0006 0.997154
1.00096 1.00053 0.996953
1.00213 1.00156 0.989563
1.00139 0.99995 0.996882
1.00118 1.00027 0.996961
1.00296 1.00001 0.989676
1.00018 1.00071 0.995986
1.00251 1.00081 0.989647
1.00188 1.00209 0.99037
1.00451 1.00132 0.985813
1.00038 1.00009 0.997597
1.00023 1.00183 0.992623
1.00313 0.999954 0.989525
1.00294 1.00018 0.98965
1.00517 1.00028 0.98582
1.00137 1.00252 0.991641
1.00484 1.00081 0.985798
1.00364 1.00269 0.985946
1.00525 1.00134 0.984474
0.999946 0.998601 0.998469
0.999964 0.999219 0.998224
1.00128 0.999995 0.996887
1.00107 0.999986 0.99702
1.00097 0.99998 0.997091
1.00085 0.999996 0.995761
1.00272 0.999923 0.991052
1.00111 0.99998 0.995543
1.003 1.00008 0.990461
1.00094 0.999987 0.997105
1.00251 0.999852 0.990662
1.00292 1.00003 0.991432
1.00493 0.999377 0.987231
1.00312 1.00001 0.991077
1.00512 0.999746 0.986534
1.00096 0.999999 0.99419
1.00063 1.00011 0.994357
1.00014 1.00149 0.99389
1.00074 0.999885 0.99439
1.00303 1.00011 0.99057
1.00311 0.999976 0.99056
1.003 1.0004 0.990259
1.00509 1.00068 0.986205
1.00096 0.999988 0.997097
1.00086 1.00007 0.99421
1.00261 0.999962 0.99089
1.00281 1.00013 0.990832
1.00074 1.00088 0.995323
1.00232 1.00169 0.990443
1.00293 1.00004 0.99073
1.00503 1.00011 0.986845
1.00503 1.00099 0.986022
1.00511 1.00041 0.986397
1.00529 1.00029 0.985554
1.00251 0.999899 0.99065
1.00253 1.00005 0.991268
1.00484 0.999267 0.98797
1.00497 0.999808 0.98719
1.00506 1.00008 0.986743
1.00529 0.998875 0.987212
1.00036 1.00067 0.997389
1.00529 0.999713 0.986112
1.00144 1.00279 0.989375
1.00467 1.00136 0.98552
1.00529 1.00095 0.984922
1.00523 0.998625 0.987158
1.00068 1.00291 0.9907
1.00157 1.00479 0.987241
1.0014 0.999974 0.996896
1.00114 1.0003 0.996953
1.00297 0.999998 0.98967
1.00035 1.00042 0.997492
1.00154 1.0024 0.989672
1.0025 1.00081 0.989664
1.00461 1.00119 0.9858
1.0002 0.999996 0.997762
1.00009 1.00201 0.992657
1.00315 0.999991 0.990287
1.00295 1.00023 0.990366
1.00516 1.00029 0.985798
1.001 1.00272 0.99033
1.00488 1.00076 0.985783
1.00385 1.00236 0.985947
1.00528 1.00125 0.984582
1.00052 1.00251 0.991341
1.00005 1.00108 0.993772
1.00145 1.00475 0.988081
1.00519 1.00013 0.985963
1.00507 1.00046 0.985779
1.00532 0.999522 0.986332
1.00307 1.00326 0.986372
1.0053 1.00052 0.985358
1.00501 1.00182 0.984379
1.0053 1.00057 0.985114
0.999905 0.998122 0.998732
0.999881 0.998542 0.998578
0.999859 0.999058 0.99838
1.00042 1.00267 0.991378
1.00016 1.00033 0.997651
1.00138 0.999967 0.996867
1.00115 0.999992 0.996947
1.00286 1.00011 0.989825
1.00261 0.999921 0.990437
1.00095 0.999979 0.997083
1.00091 0.999981 0.997103
1.0025 0.999864 0.990655
1.00284 1.00001 0.99075
1.00491 0.999378 0.987231
1.00299 1.00004 0.989636
1.00509 0.999757 0.986531
1.00247 0.999863 0.990712
1.00484 0.999278 0.987454
1.00503 0.999534 0.98689
1.00537 0.997204 0.988838
1.00517 0.999957 0.986217
1.00534 0.997921 0.988095
1.00092 0.999987 0.997096
1.0005 1.00012 0.994539
1.00263 0.99996 0.989881
1.00295 1.00013 0.990663
1.00007 1.00139 0.997369
1.00279 1.0013 0.990529
1.00308 1.00001 0.990585
1.00505 0.999972 0.986958
1.00511 1.00053 0.986317
1.00498 1.00103 0.986042
1.00529 1.00029 0.985589
1.00249 0.999893 0.990654
1.00267 1.00007 0.991099
1.00487 0.999255 0.987671
1.005 0.999941 0.987061
1.0005 1.00071 0.99728
1.00168 1.00253 0.990204
1.0045 1.00171 0.985759
1.00507 1.00013 0.986702
1.00529 0.998541 0.98754
1.0053 1.00087 0.984994
1.00529 0.999818 0.986102
1.00523 0.998641 0.987179
1.00075 1.00281 0.990686
1.00169 1.00475 0.987243
1.00482 0.999351 0.987418
1.00491 0.999562 0.987591
1.00536 0.997725 0.988328
1.0053 0.997817 0.988231
1.00531 0.999009 0.986917
1.00524 0.996447 0.989599
1.00099 1.00302 0.989976
1.00522 0.99763 0.98822
1.00387 1.00234 0.985764
1.0053 1.00143 0.984292
1.00523 0.99996 0.98597
1.0052 0.996918 0.98903
1.0026 1.00384 0.986555
1.00096 1.00509 0.98806
1.00323 1.00321 0.986307
1.00303 0.99998 0.989614
1.00001 0.999829 0.997949
0.99998 1.00204 0.99269
1.00279 1.00026 0.989709
1.00516 1.0003 0.985775
1.00093 1.00294 0.990278
1.00399 1.00198 0.985948
1.00491 1.00072 0.985768
1.00529 1.00115 0.98469
1.00049 1.00264 0.99135
1 1.00094 0.993817
1.00112 1.00491 0.988051
1.00518 1.00015 0.985941
1.00508 1.00045 0.98576
1.00532 0.999528 0.986307
1.00317 1.00306 0.986387
1.0053 1.0006 0.985277
1.00511 1.00179 0.984357
1.0053 1.00035 0.985271
1.00003 1.00022 0.994587
1.00232 1.00411 0.987055
1.00077 1.00428 0.989443
1.0023 1.00405 0.987165
1.00533 0.99894 0.986953
1.00531 1.00009 0.985735
1.00526 0.997856 0.987922
1.00459 1.00188 0.985067
1.00526 0.999308 0.986591
1.00525 1.0013 0.98473
1.00527 0.999656 0.986048
1.00022 1.00158 0.992918
1.00026 0.999024 0.99537
0.999937 0.997697 0.998885
0.999882 0.998021 0.998792
0.999842 0.998407 0.998669
1.00009 1.00227 0.992277
1.00007 0.999921 0.997891
1.0005 1.0026 0.991348
1.00026 1.00043 0.997557
1.00298 1.00008 0.989639
1.00275 0.999997 0.990127
1.00506 0.99977 0.986528
1.0049 0.999383 0.987231
1.00252 0.999879 0.990654
1.00096 0.999971 0.9971
1.00249 0.999859 0.990716
1.00483 0.999288 0.987453
1.00501 0.999546 0.986891
1.00535 0.997212 0.988844
1.00514 0.999977 0.9862
1.00534 0.997915 0.988081
1.00481 0.999283 0.987492
1.00534 0.99701 0.989066
1.00536 0.997522 0.988502
1.00522 0.994984 0.991207
1.00534 0.998393 0.987566
1.00525 0.995715 0.990332
1.00249 0.999891 0.990663
1.00283 1.00005 0.990931
1.0049 0.999223 0.987375
1.00503 1.00006 0.986932
1.00062 1.00077 0.99716
1.00202 1.00233 0.990839
1.00447 1.002 0.985994
1.00508 1.00016 0.986661
1.00528 0.998202 0.987867
1.0053 0.999925 0.986093
1.0053 1.00078 0.985067
1.00523 0.998655 0.987201
1.00079 1.00273 0.990673
1.00176 1.00466 0.987243
1.00483 0.999185 0.987543
1.00493 0.999541 0.987569
1.00536 0.997501 0.988581
1.00529 0.99818 0.987873
1.00107 1.00293 0.989977
1.00382 1.00254 0.985777
1.00528 1.00153 0.98422
1.00531 0.999208 0.986758
1.00524 0.996136 0.98986
1.00524 0.999766 0.986159
1.00521 0.997648 0.988229
1.0052 0.996864 0.988975
1.00256 1.00392 0.986538
1.00303 1.00318 0.986293
1.00104 1.00504 0.988085
1.00534 0.997478 0.988631
1.00535 0.997683 0.988425
1.00521 0.995425 0.99079
1.00523 0.995541 0.990464
1.00522 0.99659 0.989212
1.00526 0.995192 0.990663
1.00328 1.00309 0.986125
1.00519 0.995779 0.989922
1.0052 1.00216 0.983912
1.00524 1.00092 0.984765
1.00519 0.998484 0.987398
1.00518 0.996151 0.989744
1.00058 1.00483 0.98895
1.00432 1.00221 0.985476
1.00209 1.00448 0.986628
1.0047 1.00197 0.98546
1.00516 1.00017 0.985919
0.999981 1.00091 0.993862
1.00033 1.00281 0.991366
1.00076 1.00511 0.988021
1.00509 1.00044 0.985741
1.00532 0.999535 0.986282
1.00322 1.00291 0.986403
1.00521 1.00183 0.98433
1.00531 1.00068 0.985196
1.00529 1.00014 0.985428
1.00003 1.00012 0.994623
1.00218 1.00409 0.987054
1.00058 1.00442 0.989452
1.00219 1.00408 0.98714
1.00533 0.998945 0.986932
1.00532 1.0001 0.985708
1.00526 0.997844 0.987916
1.0047 1.00182 0.985085
1.00525 0.999445 0.986415
1.00523 1.00118 0.984702
1.00526 0.999559 0.986198
1.00016 0.999489 0.995099
1.00045 1.0034 0.990789
1.00355 1.00248 0.986264
1.00144 1.00502 0.988092
1.00356 1.00206 0.987168
1.00528 0.99707 0.988742
1.00525 0.998601 0.987129
1.00523 0.996715 0.988906
1.00476 1.00148 0.985006
1.00524 0.998446 0.987299
1.00498 1.00063 0.985572
1.00032 1.00182 0.992538
1.00031 1.00312 0.99127
1.00012 1.00146 0.993226
1.0002 1.00159 0.992915
1.00024 0.998771 0.996223
1.00024 0.998981 0.995739
1.00012 0.997351 0.99759
0.999938 0.997638 0.998911
0.999871 0.997934 0.99884
0.999876 1.0014 0.993516
0.999914 0.999385 0.998257
1.00018 1.00223 0.992263
1.00014 0.999993 0.997799
1.00057 1.00251 0.991323
1.00038 1.00049 0.997463
1.00512 0.999994 0.986184
1.00499 0.999553 0.986891
1.00535 0.997933 0.988066
1.00534 0.997221 0.98885
1.00482 0.999299 0.987452
1.00248 0.999849 0.990715
1.00481 0.999284 0.987496
1.00534 0.997016 0.989071
1.00535 0.997535 0.988498
1.00523 0.994975 0.991185
1.00534 0.998395 0.987549
1.00526 0.995678 0.990335
1.00533 0.997002 0.989095
1.00525 0.99495 0.991217
1.00522 0.995225 0.990919
1.00517 0.99495 0.99126
1.00528 0.996359 0.989564
1.00525 0.994948 0.990824
1.00484 0.999021 0.987671
1.00496 0.999534 0.987548
1.00536 0.997305 0.988833
1.00529 0.998548 0.987515
1.00115 1.00286 0.989982
1.00362 1.00287 0.985794
1.00527 1.00166 0.984146
1.00531 0.999408 0.986599
1.00525 0.995822 0.990122
1.00521 0.997665 0.988237
1.00525 0.999579 0.986347
1.0052 0.996809 0.988921
1.00256 1.00406 0.986518
1.00299 1.00307 0.986279
1.00115 1.00489 0.988111
1.00534 0.99732 0.988797
1.00534 0.997658 0.988427
1.00522 0.995214 0.990989
1.00522 0.995762 0.990249
1.00321 1.00326 0.986116
1.00516 1.00214 0.983951
1.00524 1.00107 0.984634
1.00522 0.996906 0.988922
1.00526 0.995082 0.990702
1.0052 0.998407 0.987354
1.00521 0.995808 0.989902
1.00519 0.99604 0.989807
1.00421 1.00243 0.985437
1.00463 1.00196 0.98524
1.00074 1.00466 0.98897
1.0019 1.00451 0.986717
1.00522 0.994955 0.991297
1.00525 0.995623 0.990403
1.00512 0.99495 0.991324
1.00524 0.994918 0.990891
1.0052 0.995202 0.990483
1.00527 0.994927 0.990722
1.00511 1.00202 0.984394
1.00524 0.995059 0.990431
1.00518 1.00211 0.983743
1.00519 1.0003 0.985335
1.00521 0.997688 0.987915
1.00521 0.996145 0.989688
1.00037 1.00416 0.990025
1.0011 1.00509 0.987563
1.00506 1.00224 0.984264
1.00345 1.00378 0.985837
1.00505 1.00316 0.983646
1.00003 1.00002 0.994658
1.00533 0.998949 0.986911
1.00039 1.00454 0.989462
1.00211 1.00406 0.987052
1.0021 1.00403 0.987115
1.00532 1.0001 0.985681
1.00525 0.997833 0.987911
1.00506 1.00147 0.985105
1.00522 1.00107 0.984676
1.00525 0.999578 0.986241
1.00527 0.999473 0.986348
1.00016 0.999421 0.99513
1.00033 1.00351 0.990812
1.00381 1.00226 0.986282
1.00103 1.00507 0.988072
1.00326 1.00201 0.987307
1.00527 0.997051 0.988741
1.00525 0.998585 0.987123
1.00523 0.99667 0.988896
1.00495 1.00149 0.984955
1.00523 0.99853 0.987146
1.00505 1.00062 0.985663
1.00038 1.00241 0.991858
1.00078 1.00469 0.9894
1.00458 1.00108 0.985917
1.00184 1.00435 0.987889
1.00413 1.00033 0.988119
1.00525 0.996001 0.989683
1.00523 0.997497 0.988031
1.00524 0.996024 0.989217
1.00485 1.00109 0.985221
1.00505 0.999278 0.986426
1.00031 1.0018 0.992541
1.00034 1.00312 0.991038
1.00013 1.00328 0.99123
1.00048 1.00342 0.990909
1.00019 1.0031 0.99151
1.00004 1.00134 0.993451
1.0001 1.00144 0.993235
1.00021 0.998657 0.996361
1.0002 1.00161 0.992912
1.00025 0.998759 0.996244
1.00019 0.997096 0.997691
1.00023 0.998956 0.9961
1.00005 0.997358 0.99828
0.999945 0.997546 0.998934
0.999801 1.00036 0.994677
0.999906 1.00144 0.993499
0.999768 0.998662 0.998666
1.00003 0.999464 0.998105
1.00028 1.00219 0.992245
1.00021 1.00013 0.997708
1.00534 0.998395 0.987532
1.00534 0.997525 0.988494
1.00527 0.995636 0.990338
1.00524 0.994962 0.991164
1.00534 0.997023 0.989075
1.0048 0.999286 0.9875
1.00533 0.997008 0.989092
1.00525 0.994948 0.991221
1.00523 0.995189 0.990927
1.00517 0.99495 0.99122
1.00528 0.996316 0.989561
1.00525 0.994956 0.990829
1.00524 0.994953 0.991245
1.00518 0.994947 0.991291
1.00521 0.994935 0.991064
1.00525 0.994942 0.991068
1.00526 0.995367 0.990342
1.00527 0.994887 0.99084
1.00534 0.997158 0.988963
1.00534 0.997645 0.988429
1.00523 0.994988 0.991189
1.00521 0.995982 0.990033
1.00315 1.0034 0.986109
1.00514 1.00212 0.983986
1.00522 1.00114 0.984503
1.00521 0.997225 0.988632
1.00526 0.994975 0.99074
1.00522 0.995843 0.989881
1.0052 0.998325 0.987312
1.00518 0.995896 0.989875
1.00389 1.00282 0.9854
1.00445 1.00199 0.985019
1.00089 1.00458 0.988992
1.00181 1.00457 0.986808
1.00522 0.994953 0.991287
1.00524 0.995617 0.99045
1.00512 0.99495 0.991316
1.00524 0.99492 0.99088
1.00484 1.00232 0.98439
1.00517 1.00216 0.983678
1.00518 1.00028 0.985314
1.00521 0.995322 0.990381
1.00527 0.994921 0.9907
1.00516 0.997744 0.987908
1.00523 0.995067 0.990413
1.0052 0.995944 0.989806
1.00493 1.00229 0.984308
1.00497 1.00332 0.983432
1.00324 1.00371 0.985862
1.00037 1.00398 0.990061
1.00097 1.00509 0.987712
1.00516 0.994952 0.991251
1.0052 0.99494 0.99109
1.00527 0.994919 0.990661
1.00526 0.994912 0.990647
1.00512 1.00286 0.983438
1.00524 0.995089 0.990379
1.00502 1.00177 0.983933
1.00515 0.999745 0.985771
1.00514 0.99739 0.988104
0.999888 1.00306 0.991592
1.00064 1.00508 0.988829
1.00158 1.00504 0.987335
1.005 1.0036 0.983008
1.00393 1.00354 0.984769
1.0051 1.00324 0.982834
1.00015 0.999369 0.995162
1.00023 1.00363 0.990835
1.00527 0.997034 0.988739
1.00062 1.00511 0.988049
1.0038 1.00231 0.9863
1.00303 1.00211 0.987447
1.00525 0.99857 0.987117
1.00524 0.996626 0.988886
1.00513 1.00148 0.984902
1.00508 1.00065 0.985755
1.00523 0.998599 0.986992
1.00032 1.00247 0.991868
1.00042 1.00483 0.989411
1.00475 1.00095 0.985965
1.00155 1.00458 0.987839
1.00392 0.999904 0.988096
1.00525 0.995956 0.989691
1.00523 0.997511 0.988009
1.00525 0.996069 0.989205
1.00483 1.00112 0.985253
1.00506 0.999379 0.986417
1.00047 1.00386 0.990525
1.00003 1.0051 0.989097
1.00496 1.00085 0.985634
1.00194 1.00216 0.988418
1.00523 0.99935 0.987466
1.00524 0.995205 0.990164
1.00526 0.997498 0.987813
1.00529 0.996299 0.988732
1.00482 1.00019 0.986024
1.00512 0.999314 0.986357
1.00031 1.00179 0.992543
1.00034 1.00323 0.991043
1.00004 1.00361 0.990973
1.00001 1.00338 0.991192
1.00009 1.00322 0.9915
1.00013 1.00367 0.990951
0.999984 1.00325 0.991744
1 1.00391 0.990749
1.00007 1.00303 0.991777
1.00002 1.00141 0.993428
1.00004 1.00133 0.993452
1.00014 0.998648 0.996477
1.00009 1.00139 0.993243
1.00022 0.998652 0.99638
1.0002 0.996976 0.997768
1.00026 0.998738 0.996269
1.00016 0.997105 0.997693
0.999966 0.997351 0.99899
0.999844 0.999455 0.995533
0.999824 1.00045 0.99463
0.999712 0.998152 0.998906
0.99998 1.00145 0.993484
0.999856 0.998849 0.99852
1.00011 0.999587 0.997969
1.00528 0.996274 0.989558
1.00525 0.995161 0.990935
1.00524 0.994966 0.990834
1.00516 0.99495 0.991179
1.00525 0.994946 0.991225
1.00534 0.997013 0.98909
1.00524 0.994952 0.991264
1.00518 0.994947 0.991303
1.0052 0.994926 0.991099
1.00525 0.994935 0.991037
1.00527 0.995359 0.990365
1.00526 0.994883 0.990791
1.00518 0.994948 0.991295
1.00526 0.994933 0.991112
1.00526 0.994927 0.990906
1.00526 0.994903 0.99062
1.00523 0.994952 0.991277
1.00523 0.995605 0.990497
1.00511 0.994952 0.991309
1.00526 0.994922 0.99087
1.00469 1.00245 0.984386
1.00519 1.00222 0.983617
1.00518 1.00033 0.985293
1.00523 0.995437 0.99028
1.00526 0.994914 0.990679
1.00522 0.995077 0.990394
1.00514 0.997762 0.987899
1.00522 0.995752 0.989922
1.00474 1.00239 0.984352
1.00511 1.00312 0.983218
1.00287 1.00381 0.985888
1.00039 1.00378 0.990106
1.00092 1.00509 0.987865
1.00516 0.99495 0.991252
1.00521 0.99494 0.991087
1.00527 0.994921 0.990684
1.00504 1.00285 0.983488
1.00507 1.00191 0.98387
1.00512 0.999847 0.985761
1.00526 0.994917 0.990643
1.00519 0.997197 0.988373
1.00523 0.995125 0.990318
0.99993 1.00282 0.991829
1.00496 1.00336 0.983081
1.0049 1.0039 0.982754
1.00405 1.00346 0.984886
1.00165 1.00504 0.987434
1.00051 1.00509 0.988793
1.00525 0.994945 0.991095
1.00528 0.994912 0.990811
1.00527 0.994909 0.99059
1.00523 0.994882 0.990583
1.00508 1.00287 0.983319
1.00521 0.995541 0.989822
1.00502 1.00152 0.984339
1.00506 1.00002 0.985817
1.00001 1.00109 0.993388
1 1.00461 0.99032
1.00111 1.00505 0.988582
1.00236 1.00506 0.985846
1.00482 1.00389 0.983076
1.00498 1.00343 0.983218
1.00026 1.00251 0.991879
1.00007 1.00488 0.989423
1.00525 0.995911 0.9897
1.00123 1.0047 0.987789
1.00493 1.00079 0.986013
1.00356 0.999753 0.988061
1.00524 0.997526 0.987987
1.00525 0.996109 0.98919
1.00485 1.0012 0.985281
1.00511 0.999495 0.986408
1.00031 1.00388 0.990529
1.00043 1.00511 0.988896
1.00503 1.00073 0.985626
1.00225 1.00222 0.988365
1.00501 0.999482 0.987117
1.00526 0.995213 0.990232
1.00527 0.99741 0.987998
1.00528 0.996408 0.98877
1.0048 1.00022 0.986098
1.00509 0.99952 0.986127
0.999647 1.00418 0.990517
1.00045 1.00483 0.988728
1.00494 1.00014 0.986255
1.00391 0.999858 0.9874
1.00532 0.99486 0.990304
1.00525 0.995903 0.989729
1.0052 0.998516 0.986701
1.00514 0.999483 0.986106
1.0004 1.00321 0.991048
1.00018 1.00356 0.990967
0.999548 1.00386 0.992084
0.999995 1.00336 0.991491
0.999756 1.00392 0.990994
1.00004 1.00305 0.991767
0.999703 1.00328 0.992023
1.00005 1.004 0.990707
0.999574 1.00188 0.993675
0.999774 1.00424 0.991085
0.999931 1.00405 0.990698
1.00016 1.00294 0.991729
0.999978 1.00167 0.99317
0.999983 1.00141 0.993421
1.00003 0.998713 0.996567
1.00003 1.0013 0.993455
1.00014 0.998663 0.99649
1.00014 0.99699 0.997834
1.00023 0.998653 0.996401
1.00018 0.99698 0.997769
1.00013 0.997123 0.997688
0.99998 0.998717 0.996087
0.999845 0.999576 0.995466
0.999717 0.997694 0.999057
0.999813 1.00056 0.99458
0.999754 0.998222 0.998847
0.999975 0.998915 0.998357
1.00527 0.995349 0.990388
1.00519 0.994916 0.991134
1.00525 0.99488 0.990743
1.00525 0.994929 0.991005
1.00518 0.994947 0.991314
1.00524 0.994952 0.991284
1.00518 0.994949 0.991303
1.00526 0.994935 0.991113
1.00526 0.994918 0.990902
1.00525 0.994895 0.990652
1.00526 0.994944 0.991141
1.00528 0.994921 0.990994
1.00529 0.994865 0.990732
1.00515 0.994948 0.991252
1.00522 0.99494 0.991084
1.00526 0.994924 0.990707
1.00497 1.00284 0.983537
1.0051 1.00198 0.983802
1.00506 0.999836 0.98575
1.00525 0.994923 0.990639
1.00521 0.995176 0.990257
1.00521 0.996977 0.988638
1.00493 1.00331 0.983151
1.00463 1.00405 0.982682
1.00414 1.00333 0.985001
0.999978 1.00264 0.992071
1.00165 1.005 0.987532
1.00031 1.00509 0.988749
1.00525 0.994944 0.991102
1.00528 0.994913 0.990782
1.00527 0.994911 0.990584
1.00498 1.00296 0.983359
1.0049 1.00144 0.984269
1.00507 0.999644 0.986168
1.00523 0.994883 0.990537
1.00517 0.995638 0.989767
1.00001 1.00106 0.993616
0.999966 1.00464 0.990293
1.00482 1.00321 0.982997
1.00454 1.00368 0.983598
1.00262 1.00489 0.986025
1.00092 1.00506 0.9884
1.00529 0.994914 0.990976
1.00532 0.99488 0.99051
1.00528 0.994885 0.99055
1.00519 0.995012 0.990317
1.00438 1.00264 0.983829
1.00515 0.997798 0.987842
1.00488 1.00188 0.984335
1.00019 1.00023 0.994326
1.00036 1.00129 0.993087
0.999747 1.00275 0.992315
1.00036 1.00504 0.989305
1.0011 1.00511 0.987504
1.00308 1.00425 0.984525
1.00417 1.00376 0.983986
1.00405 1.00424 0.984533
1.00013 1.00409 0.990533
1.00067 1.00511 0.988695
1.00527 0.995224 0.990299
1.00256 1.00197 0.988319
1.00505 1.00057 0.985622
1.00491 0.999685 0.986781
1.00527 0.997296 0.988187
1.00527 0.996504 0.988812
1.00485 1.0002 0.986171
1.00506 0.999667 0.985899
0.99994 1.00408 0.990367
1.00062 1.00482 0.988612
1.0051 1.00004 0.98622
1.00431 1.00019 0.987411
1.00533 0.994848 0.990327
1.00527 0.995822 0.989638
1.00516 0.998466 0.986819
1.00514 0.999569 0.986063
0.999885 1.00413 0.990303
1.00535 0.994904 0.990315
1.00238 1.00401 0.987925
1.00485 0.999483 0.986847
1.00527 0.995123 0.990522
1.00515 0.997588 0.986756
1.005 1.00073 0.985481
1.00026 1.00359 0.990961
0.999527 1.00367 0.991995
0.99879 1.00316 0.99438
1.00004 1.003 0.991758
1.0001 1.0041 0.990664
0.998986 1.00377 0.9923
1.00013 1.00292 0.991721
0.999873 1.00417 0.990707
0.998901 1.00236 0.993986
0.999924 1.00411 0.991005
0.999159 1.00048 0.996452
0.999116 1.00299 0.993241
0.999705 1.00478 0.990329
1.00036 1.00397 0.990292
1.00018 1.00325 0.99132
0.999909 1.00209 0.992869
0.999916 1.0018 0.993151
0.99991 0.998954 0.996581
0.999948 1.00149 0.993413
1.00004 0.998767 0.996563
1.00005 0.997072 0.99791
1.00015 0.998671 0.996506
1.00015 0.996984 0.997831
1.00018 0.996986 0.997765
1.00019 1.00034 0.994273
1.00007 0.998337 0.996338
0.999977 0.998792 0.996045
0.9998 0.997321 0.999144
0.999842 0.999695 0.995401
0.999746 0.997808 0.999019
0.999812 0.998351 0.998761
1.00524 0.994887 0.990683
1.00526 0.994908 0.990898
1.00526 0.994938 0.991114
1.00518 0.994949 0.99131
1.00526 0.994945 0.991139
1.00528 0.99492 0.991008
1.00527 0.994874 0.990705
1.00528 0.994926 0.991036
1.00533 0.994921 0.990808
1.00542 0.994997 0.991127
1.00525 0.994943 0.99111
1.00527 0.994912 0.990754
1.00527 0.994912 0.990577
1.00487 1.00308 0.983401
1.00487 1.00186 0.984217
1.0049 0.999357 0.986519
1.00523 0.994887 0.990491
1.00506 0.99582 0.989711
1.00468 1.00336 0.982922
1.00423 1.00428 0.983959
1.00258 1.00465 0.986203
0.999988 1.00098 0.993843
1.00003 1.00464 0.990267
1.00085 1.00506 0.988216
1.00529 0.994913 0.99096
1.00016 1.00024 0.994315
1.00027 1.00137 0.992957
1.00532 0.994889 0.990523
1.00526 0.994888 0.99056
1.00482 1.00282 0.983736
1.00466 1.00185 0.984523
1.00512 0.997524 0.987743
1.0052 0.994934 0.990242
0.999767 1.00283 0.992483
1.00039 1.00503 0.989264
1.00428 1.00374 0.983799
1.0037 1.004 0.984546
1.00342 1.0045 0.984594
1.00125 1.00508 0.987441
1.00536 0.994889 0.990717
1.00532 0.994851 0.990443
1.00521 0.994868 0.990386
1.00517 0.994982 0.990302
1.00406 1.00262 0.984837
1.00443 1.00151 0.985677
1.00007 1.00208 0.992392
1.00012 1.00138 0.993311
1.00128 1.00036 0.992784
1.00033 1.0035 0.990742
1.00057 1.00508 0.988861
1.00237 1.00451 0.986423
1.00219 1.005 0.984821
1.00338 1.00073 0.987162
1.00035 1.00396 0.99022
1.00097 1.00483 0.988494
1.00534 0.994838 0.99035
1.00528 0.995786 0.989548
1.00472 1.00045 0.987418
1.00518 0.999977 0.986182
1.00511 0.998435 0.986933
1.00515 0.999673 0.986023
1.00032 1.00396 0.990216
1.00537 0.994913 0.990545
1.00189 1.00397 0.988081
1.005 0.999645 0.98663
1.00526 0.995103 0.990538
1.00513 0.997771 0.986967
1.00491 1.00056 0.985476
1.00005 1.00487 0.990238
1.00491 0.994816 0.990962
1.00288 1.00257 0.987675
1.00472 1.00126 0.985088
1.00501 0.99579 0.989742
1.00374 1.00117 0.986046
0.998813 0.995675 0.986691
0.999362 1.00366 0.991909
0.998274 1.00335 0.994369
0.998871 1.00225 0.995503
1.00004 1.00301 0.991713
0.999825 1.00435 0.990717
1.00026 1.00375 0.990928
0.998498 1.00252 0.994307
1.00011 1.00333 0.99132
1.00025 1.00404 0.990331
0.999196 1.00053 0.995934
0.999819 1.00477 0.990339
0.999472 1.00291 0.992862
0.998515 1.00123 0.996843
1.00027 1.00446 0.990057
1.00014 1.00466 0.990165
1.00065 1.00409 0.98988
1.00013 1.00377 0.990664
1.00033 1.00435 0.990241
1.00012 1.00398 0.990431
0.999913 1.0022 0.99274
0.999932 1.00207 0.992849
0.999789 0.999104 0.996004
0.999919 1.00179 0.993129
0.999901 0.99901 0.996257
1 0.997243 0.999109
1.00005 0.998817 0.996561
1.00007 0.997043 0.99791
1.00016 0.996976 0.997823
1.00008 1.00034 0.994359
1.0002 1.00024 0.994305
1.0001 0.998184 0.996478
1.00006 0.998342 0.99661
0.999872 0.997086 0.999192
0.999968 0.998883 0.996002
0.999801 0.997404 0.999123
0.999776 0.99786 0.998983
1.00526 0.994882 0.990678
1.00527 0.994918 0.991022
1.00525 0.994947 0.991137
1.00528 0.994925 0.991035
1.00533 0.994916 0.990797
1.00541 0.994949 0.9908
1.00539 0.9949 0.990818
1.00134 0.994886 0.982453
1.00463 0.994897 0.992479
1.00006 1.00164 0.993083
1.00529 0.994911 0.990945
1.00532 0.994897 0.990536
1.00524 0.994887 0.990571
1.00478 1.0024 0.983625
1.00487 1.0015 0.984697
1.00513 0.997364 0.987649
1.00522 0.994918 0.990168
1.0046 1.00344 0.983635
1.00376 1.00365 0.984592
1.00343 1.00455 0.984666
1.00015 1.00028 0.994306
1.00162 1.00511 0.987378
0.999775 1.00286 0.992639
1.00038 1.00503 0.989219
1.00026 1.00134 0.992828
1.00536 0.994875 0.990714
1.00004 1.00214 0.992522
1.00009 1.00142 0.993323
1.00102 1.00032 0.993055
1.00533 0.994859 0.990411
1.0052 0.994864 0.990354
1.00335 1.00338 0.98492
1.00468 1.00039 0.986208
1.00516 0.994987 0.990217
1.00009 1.00357 0.990922
1.00077 1.00508 0.988675
1.0034 1.00215 0.986738
1.00288 1.00473 0.984667
1.00252 1.0043 0.986634
1.00531 0.994839 0.990922
1.00521 0.994797 0.990761
1.00516 0.994979 0.989939
1.00495 0.997105 0.989966
1.00198 1.0024 0.988419
0.999569 1.00348 0.991765
1.00104 1.00077 0.992437
1.0001 1.00022 0.993101
1.00024 1.00451 0.990831
1.00031 1.00519 0.989273
1.00087 1.00454 0.987673
1.00247 1.00017 0.989521
1.00097 1.00371 0.990127
1.00118 1.0039 0.988239
1.0054 0.994898 0.990764
1.00527 0.995043 0.990546
1.00512 0.997906 0.987179
1.00507 0.999761 0.986411
1.00485 1.0004 0.985475
1.00047 1.00465 0.990236
1.00466 0.994829 0.991163
1.00296 1.0023 0.987594
1.00481 1.00133 0.984966
1.00505 0.995669 0.989985
1.004 1.00105 0.986129
0.998601 0.996751 0.98481
0.99987 1.00431 0.990731
1.00303 0.996418 0.991084
1.00348 1.00234 0.985921
1.00308 1.00111 0.986915
1.00327 0.997566 0.990743
0.999956 0.994875 0.945579
0.995431 0.99481 0.966337
0.995593 1.00011 0.988221
0.999396 0.99479 0.865353
0.994716 0.994819 0.828844
0.997891 1.00349 0.994362
0.998008 1.00275 0.9958
0.998033 1.00276 0.996467
1.00008 1.00336 0.991321
1.0003 1.00381 0.99037
0.999961 1.00468 0.990351
0.999723 1.0029 0.992471
0.999199 1.00057 0.995409
1.00014 1.0045 0.990171
1.00014 1.00375 0.990752
1.00056 1.00406 0.989928
0.99874 1.00058 0.996269
0.999963 1.00453 0.990395
1.00037 1.00452 0.990412
0.998906 1.00464 0.991841
1.00013 1.00463 0.990202
1.00051 1.00456 0.989331
1.00023 1.00386 0.990443
1.00041 1.00479 0.98947
1.00049 1.00401 0.990423
0.999713 1.00463 0.990754
1.00021 1.00445 0.990176
1.00026 1.00365 0.990837
1.00017 1.00397 0.990418
0.999936 1.00219 0.992736
0.999925 1.0022 0.992743
0.999761 0.999194 0.996007
0.999906 1.00215 0.992831
0.99978 0.999144 0.995995
0.999954 0.997254 0.999134
0.999885 0.999078 0.995935
0.999986 0.997241 0.998509
1.00009 0.997018 0.997907
0.999947 1.00023 0.994658
1.00007 1.00038 0.994363
1.0001 0.998057 0.996626
1.00021 1.00013 0.994337
1.00009 0.998131 0.996755
0.999927 0.996845 0.999234
1.00008 0.998377 0.996308
0.999869 0.997181 0.999174
0.999809 0.997493 0.999104
1.00533 0.994912 0.990785
1.00528 0.994925 0.991035
1.00539 0.99496 0.990484
1.00078 0.994838 0.982585
1.00539 0.994899 0.990831
1.00453 0.995011 0.992195
1.00509 0.996244 0.991252
0.996305 0.994892 0.965509
1.00117 0.995802 0.984718
1.0001 1.0014 0.993332
1.00005 1.00176 0.993047
0.999502 1.00363 0.991921
0.999861 1.00228 0.992737
1.00536 0.99487 0.990712
1.00534 0.994873 0.990379
1.0052 0.994872 0.990322
1.00429 1.00366 0.985005
1.00459 0.998621 0.986751
1.00515 0.995007 0.990129
1.00302 1.00308 0.986301
1.00419 1.00484 0.984506
1.00258 1.00312 0.986837
1.00002 1.00156 0.993337
1.00078 1.005 0.988496
1.00005 1.0036 0.991104
0.999951 1.00235 0.992649
1.00056 1.00059 0.993307
1.00532 0.994843 0.990928
0.999867 1.0034 0.991644
1.00116 1.00043 0.992663
0.998863 1.00113 0.995004
1.00521 0.994818 0.990668
1.00516 0.995053 0.98995
1.00314 1.00118 0.988395
1.00463 0.996232 0.99035
1.00042 1.00442 0.990253
1.00056 1.005 0.988596
1.00214 1.00197 0.989395
1.00231 1.00385 0.987122
1.00435 0.995027 0.991706
1.00506 0.994918 0.991151
1.00497 0.996021 0.989583
1.00321 0.997337 0.992535
0.99847 1.00447 0.992667
1.00088 1.00113 0.992169
0.998226 1.00489 0.992736
0.999245 1.00457 0.990724
0.999976 0.994897 0.933031
1.00065 1.00452 0.99023
1.00297 1.00235 0.98751
1.00434 0.994863 0.991393
1.0051 0.995602 0.990224
1.00415 1.00093 0.986195
1.00464 1.00145 0.984841
0.998495 0.997342 0.982795
1.00004 1.00425 0.991125
1.00294 0.996542 0.991014
1.0034 1.00255 0.985983
1.0036 1.00106 0.986999
1.00372 0.997632 0.990453
1.00013 0.994871 0.933285
0.99584 0.994794 0.962705
0.995592 1.00066 0.988358
0.998497 0.994768 0.870072
0.994721 0.994826 0.818857
0.999688 1.00414 0.991263
0.999789 0.994826 0.876449
0.994716 0.994802 0.821966
1.00033 0.999836 0.992463
1.00167 1.00207 0.989379
1.00142 0.999414 0.992548
0.995127 0.999544 0.990498
0.998055 0.99483 0.944048
0.994913 0.994767 0.958902
0.9967 0.994856 0.886387
0.994726 0.994806 0.812955
0.997343 1.00314 0.996106
0.997723 1.00218 0.996308
0.997995 1.00434 0.994914
1.00021 1.00368 0.99084
1.00051 1.00404 0.989977
0.999685 1.00484 0.990177
0.999731 1.00458 0.990731
0.999141 0.999746 0.995699
1.00024 1.00386 0.990449
1.00011 1.00473 0.990333
1.00001 1.00474 0.990087
1.00066 1.00439 0.98946
0.998845 1.00453 0.992122
0.999512 1.00477 0.991413
0.997842 1.00508 0.992847
1.00018 1.00498 0.989521
1.00053 1.0046 0.989487
1.00047 1.00472 0.989459
1.00031 1.00375 0.990649
1.0004 1.00494 0.989561
0.99989 1.00398 0.991159
0.999465 1.00299 0.991528
0.999407 1.00505 0.990695
0.999581 1.00473 0.990637
0.999867 1.00436 0.990781
1.00012 1.00358 0.991032
1.0001 1.00445 0.990112
1.00025 1.00363 0.990781
1.00001 1.00217 0.992663
1.00025 1.00392 0.990405
0.99994 1.00217 0.992747
0.999924 0.999165 0.996463
0.999904 1.00222 0.992746
0.999799 0.999164 0.996271
0.999906 0.997254 0.997974
0.999772 0.999162 0.995987
0.99995 0.997272 0.999141
0.999985 0.997264 0.997906
1.00019 1.00138 0.993144
0.999924 1.00014 0.994799
0.999956 1.00025 0.994651
1.00006 0.997999 0.996724
1.00005 1.00042 0.994366
1.0001 0.99802 0.996626
0.999969 0.996745 0.999262
1.00008 0.998124 0.996999
0.999936 0.996987 0.998681
0.999905 0.997231 0.998065
1.00026 0.994819 0.982705
1.00539 0.994898 0.990844
1.00424 0.9958 0.991901
0.996495 0.994884 0.966175
1.00119 0.995488 0.985079
1.00513 0.995664 0.991219
1.00345 0.996439 0.986751
0.997117 0.995171 0.968915
0.999975 0.994873 0.943362
0.998599 0.994828 0.887743
0.994659 0.994788 0.82767
0.999758 1.0024 0.992615
1.00014 1.00133 0.993317
1.00016 1.00167 0.99301
0.999796 1.00315 0.992024
0.999362 1.00399 0.992131
1.00053 1.00196 0.991896
1.00011 1.00291 0.992058
1.00007 1.00212 0.992581
1.00532 0.994833 0.990928
1.00523 0.994825 0.990578
1.00515 0.995039 0.989958
1.00311 1.00133 0.988372
1.00444 0.995725 0.990737
1.00213 1.00275 0.989251
1.00378 1.00406 0.986578
1.00109 1.00517 0.987927
1.00112 1.0001 0.992888
1.00048 1.00449 0.98965
1.0004 1.003 0.991537
0.998163 1.00115 0.996877
1.00429 0.994827 0.99197
0.998892 1.00401 0.992642
1.00068 1.00153 0.992509
1.00484 0.994904 0.991116
1.0048 0.99571 0.989858
1.00271 0.997205 0.992201
0.999463 1.00517 0.99125
1.00063 1.00346 0.990937
1.00324 0.994788 0.991614
1.004 0.998403 0.990523
1.00478 0.995526 0.990597
1.00097 0.998425 0.993601
0.999483 1.00491 0.990585
0.999026 1.0042 0.992194
0.999283 1.00516 0.991826
0.999795 0.994906 0.879174
1.00028 0.994873 0.946253
1.00034 1.00393 0.991517
1.00357 1.00262 0.986053
1.00283 0.997131 0.990938
1.0041 0.99772 0.990173
1.00404 1.00117 0.987102
0.999991 0.994893 0.943999
0.996 0.994765 0.962247
0.995715 1.00133 0.988532
0.997982 0.994818 0.886889
0.994721 0.994821 0.808315
0.999842 1.00401 0.99123
0.99981 0.994854 0.875889
0.99468 0.994787 0.815266
1.00048 0.999843 0.992465
1.00163 1.00219 0.989367
1.00138 0.999564 0.992933
0.99514 1.0005 0.99119
0.998808 0.99546 0.937968
0.994842 0.994788 0.960809
0.996235 0.996398 0.885714
0.994748 0.994797 0.811565
0.998802 1.00402 0.994013
0.994711 0.99481 0.813718
0.994745 0.994783 0.824161
0.99736 1.00208 0.99663
0.999804 1.00215 0.99418
0.995166 0.999813 0.988633
0.995019 0.994904 0.961916
0.995837 0.994784 0.932839
0.994759 0.997723 0.8904
0.994833 0.994833 0.816606
0.997645 1.00179 0.996152
0.99839 1.00355 0.994705
0.997204 1.00371 0.995194
1.00021 1.00389 0.990453
1.00079 1.00421 0.989588
1.00002 1.00483 0.989969
0.999854 1.00477 0.990256
0.998461 1.00444 0.992404
1.00049 1.00467 0.989479
0.999561 1.00454 0.991131
1.00034 1.00491 0.989526
0.997408 1.00502 0.993247
0.995916 1.00522 0.996227
0.998957 1.00499 0.99163
1.00048 1.00498 0.989409
1.00055 1.00463 0.989448
1.00027 1.00337 0.990869
1.00035 1.0049 0.989515
0.999977 1.00388 0.991075
0.999341 1.00302 0.992284
0.999079 1.00497 0.991106
0.999121 1.00483 0.991187
0.999002 1.00361 0.992549
1.00049 1.00182 0.992423
1.00181 1.00028 0.990886
0.999117 1.00489 0.990996
0.999561 1.00486 0.99074
0.999636 1.00501 0.990077
0.999641 1.00487 0.990636
1.00003 1.00382 0.990901
0.99987 1.00443 0.990805
1.00015 1.00359 0.991048
1.00004 1.00214 0.992564
1.00025 1.00366 0.990724
0.999993 1.00216 0.99268
1.00004 0.999133 0.996284
0.999934 1.00216 0.992758
0.999903 0.999143 0.996121
1 0.997197 0.997848
0.999791 0.999156 0.99598
0.999956 0.997247 0.999147
0.999948 0.99727 0.999148
1.00023 1.00182 0.992996
0.999932 1.0003 0.994654
1.00011 1.00155 0.993154
1.00006 0.997966 0.996762
0.999923 1.00014 0.9948
0.999962 1.00028 0.994644
1.00007 0.997993 0.996713
0.999995 0.996664 0.999275
1.00008 0.998032 0.997112
0.999982 0.996742 0.998748
0.999956 0.997003 0.998171
0.999808 0.994828 0.864361
0.994684 0.994765 0.8141
0.996675 0.994876 0.966544
1.00114 0.995039 0.985521
1.0052 0.994858 0.991191
0.996768 0.995335 0.968813
1.00355 0.995549 0.987258
1.00096 0.994886 0.940339
0.998921 0.994788 0.870085
0.994695 0.994807 0.817876
0.998192 0.994862 0.974251
0.999083 0.994867 0.943168
0.996715 0.994861 0.886292
0.994737 0.994789 0.818653
1.00017 1.00328 0.99151
0.999884 1.00216 0.992754
1.00013 1.00137 0.993304
0.999936 1.00289 0.992126
0.999237 1.00394 0.99236
1.00011 1.00375 0.990823
1.00031 1.00277 0.991682
1.0004 1.00371 0.990393
1.00009 1.00289 0.991937
0.999996 1.00238 0.992418
1.00411 0.994803 0.99222
1.0047 0.994843 0.991083
1.00457 0.995503 0.990132
1.00234 0.997651 0.991863
1.0011 1.00336 0.991151
0.999503 1.00527 0.989781
1.00034 1.0019 0.992899
0.999046 1.00394 0.992606
1.00254 0.994887 0.992034
0.999578 1.00503 0.990368
0.998717 1.00448 0.992
1.00385 0.99706 0.990764
1.00461 0.995608 0.990586
1.00106 0.998433 0.993997
0.999143 1.00514 0.991667
1.00033 0.995044 0.991714
1.00157 0.998568 0.993222
0.999369 1.00133 0.994758
0.998515 1.00505 0.989894
0.99883 1.0051 0.990646
0.998583 1.00511 0.992114
0.994728 0.994843 0.836543
0.999794 0.994884 0.884073
0.999988 0.994878 0.933336
0.999609 1.00397 0.991183
1.00184 1.00229 0.989336
1.00056 0.999701 0.992464
1.00129 0.999735 0.993326
0.999812 0.99487 0.887553
0.998402 0.994837 0.933397
0.994849 0.994862 0.958983
0.994885 1.00138 0.991806
0.9969 0.994826 0.871521
0.994655 0.994789 0.820416
0.994769 0.994808 0.824964
0.998601 1.00343 0.993727
0.994704 0.994817 0.823438
0.994771 0.994786 0.823633
0.997135 1.00086 0.99731
0.999411 1.00214 0.994051
0.995057 0.99865 0.991137
0.995455 0.994857 0.960552
0.996558 0.997871 0.943637
0.99475 0.997619 0.87462
0.99493 0.994824 0.826713
0.997174 1.00419 0.996108
0.994789 0.994832 0.832472
0.994813 0.994787 0.820891
0.995011 1.00248 0.999906
0.995343 0.997107 0.96905
0.994855 0.999405 0.942974
0.995306 0.996413 0.8665
0.995124 0.994872 0.83279
0.998768 1.00268 0.994458
0.997491 1.00415 0.995369
0.995745 1.0042 0.997661
1.00043 1.00471 0.98947
1.00047 1.00487 0.989532
0.999701 1.00427 0.990849
0.997176 1.00495 0.993647
1.0003 1.00501 0.989421
0.998951 1.00498 0.991621
0.995792 1.00517 0.996618
0.995061 1.00502 0.998235
0.995825 1.00498 0.996852
0.999475 1.00472 0.991199
1.0003 1.00492 0.989467
1.00001 1.00371 0.99099
0.999078 1.00323 0.993022
0.999123 1.00481 0.991232
0.99924 1.00497 0.991126
0.998973 1.00384 0.992662
0.998972 1.00465 0.991731
0.996875 1.00497 0.995131
1.00241 0.997483 0.992931
1.00018 1.0016 0.992879
1.00106 1.00113 0.991572
1.00447 1.00068 0.986975
1.00129 1.00263 0.990721
1.0008 1.00028 0.992636
0.999632 1.00463 0.990745
0.999679 1.00513 0.989706
0.999772 1.00462 0.990786
0.999887 1.00502 0.990086
1.00004 1.00447 0.990255
1 1.00471 0.990636
1.00023 1.00365 0.990885
1.00012 1.00222 0.992404
1.00032 1.00335 0.991065
1.00012 1.0021 0.992572
1.00015 0.999149 0.996094
1.00003 1.0021 0.992698
1.00003 0.999134 0.995914
1.00009 0.997222 0.997712
0.999905 0.999121 0.995825
0.99999 0.997212 0.998495
0.999965 0.997232 0.999131
1.00018 1.0025 0.992019
1.00007 1.00043 0.994361
1.00015 1.00183 0.992817
1.00005 0.998033 0.996707
0.999951 1.00025 0.99466
1.00011 1.00153 0.993163
1.00002 0.996628 0.999283
1.00005 0.997966 0.996762
0.999929 1.00015 0.994801
1.00008 0.997978 0.996703
0.999996 0.996699 0.999272
0.999966 0.996734 0.99926
0.994685 0.994782 0.817813
0.999804 0.994842 0.875745
0.994757 0.99477 0.821505
0.994704 0.994769 0.812938
0.996733 0.994898 0.966734
1.00347 0.994885 0.987773
0.999946 0.994873 0.936668
0.999211 0.994818 0.887675
0.994729 0.994823 0.80775
0.998521 0.99488 0.973474
1.0002 0.996037 0.929612
0.996458 0.997311 0.884272
0.994722 0.994787 0.81167
0.995312 0.994847 0.966369
0.996517 0.996941 0.931355
0.994818 0.997389 0.867267
0.994816 0.994851 0.81465
1.00076 1.0046 0.990258
0.9999 1.00328 0.991623
1.00001 1.00192 0.992891
0.998995 1.00371 0.992591
1.00074 1.00423 0.98925
1.00007 1.00359 0.991041
0.999932 1.00329 0.991476
1.00085 1.00326 0.990408
1.00047 1.0038 0.990501
1.00012 1.00272 0.991818
1.00213 0.994807 0.992451
1.00381 0.995986 0.991028
1.00435 0.995711 0.99058
1.00093 0.997376 0.994415
1.00011 1.00508 0.991497
0.999093 1.00489 0.991817
0.999709 1.00495 0.990145
1.00011 1.00506 0.989623
0.999883 0.995095 0.992111
0.999681 1.00509 0.990419
0.999276 1.0051 0.991997
1.00159 0.997991 0.994025
1.00004 1.00028 0.994557
0.996617 0.998411 0.99196
0.996809 0.99886 1.00083
0.997547 1.00324 0.995151
0.999718 1.00506 0.990371
0.998072 1.00513 0.99308
0.994818 0.994816 0.838257
0.994721 0.994826 0.832748
0.999799 0.994888 0.868004
0.998519 1.00288 0.993494
0.999141 1.00193 0.993909
0.997249 1.00012 0.99799
0.994681 0.994801 0.82228
0.996725 0.996943 0.932629
0.995617 0.994891 0.960614
0.994898 0.997376 0.993884
0.994808 0.997334 0.892286
0.994781 0.994788 0.823631
0.995038 0.994836 0.827621
0.997455 1.00418 0.995963
0.994795 0.994827 0.83537
0.994806 0.994787 0.821612
0.995224 1.00184 0.999028
0.995305 0.996395 0.971001
0.994866 0.997045 0.931618
0.995002 0.994861 0.829361
0.994974 0.998914 0.874354
0.995013 1.00492 0.999545
0.994795 0.994825 0.829606
0.994865 0.994828 0.82788
0.994806 0.994845 0.815362
0.994806 0.999041 0.990543
0.994867 0.998832 0.94653
0.99674 0.997029 0.881837
0.997887 1.00479 0.99557
0.995978 1.00468 0.997479
0.995055 1.00498 0.999129
1.0002 1.00502 0.989432
0.998909 1.00496 0.99161
0.995631 1.00517 0.997005
0.99919 1.00492 0.991149
0.995988 1.00501 0.996842
0.995189 1.00496 0.998239
0.994978 1.00518 0.998415
0.995961 1.00484 0.996752
0.999075 1.0048 0.991287
0.999345 1.00502 0.991145
0.999001 1.00414 0.992798
0.997143 1.00485 0.994987
0.999013 1.00483 0.991612
0.999137 1.0023 0.993836
1.00016 0.998083 0.996105
1.00252 1.00054 0.988887
0.999869 1.00142 0.993304
1.0016 1.00122 0.991075
1.00431 1.00189 0.985943
1.00506 1.00198 0.984284
1.00297 1.00053 0.989499
1.00372 1.00065 0.987311
1.0007 1.00511 0.988918
1.00079 1.0028 0.991089
0.999812 1.00034 0.994364
1.00015 1.00441 0.990495
0.99983 1.00512 0.989747
1.00019 1.00488 0.989532
1.00009 1.00507 0.990096
1.00019 1.00429 0.990272
1.00013 1.00267 0.991893
1.00031 1.00361 0.990868
1.00014 1.00218 0.992394
1.00017 0.999183 0.995998
1.00014 1.00207 0.99258
1.00014 0.999148 0.995729
1.00016 0.997267 0.997573
1.00004 0.999134 0.995595
1.00007 0.997218 0.998399
1.00002 0.997202 0.999079
1.0005 1.00277 0.991087
1.00008 1.00082 0.993634
1.00031 1.00239 0.99201
1.0001 0.998093 0.996551
1.00003 1.00045 0.994212
1.00013 1.00182 0.992642
1.00004 0.996662 0.999266
1.00006 0.997998 0.996717
0.999973 1.00018 0.994666
1.00002 0.996646 0.999281
1.00004 0.997977 0.996762
0.999997 0.996673 0.99927
0.994823 0.994822 0.829086
0.994695 0.994811 0.829783
0.9998 0.994825 0.875053
1.00107 1.00281 0.990348
0.994818 0.994798 0.827816
0.994757 0.994771 0.821468
0.994734 0.994778 0.824571
0.999106 0.994889 0.972585
0.998696 0.994855 0.941949
0.996495 0.994863 0.869018
0.994699 0.994802 0.819533
0.996507 0.994854 0.963714
0.996628 0.999089 0.941918
0.994758 0.997663 0.870345
0.99482 0.994838 0.818959
0.994848 0.994917 0.958595
0.994845 0.997464 0.940582
0.995363 0.999969 0.877425
0.995123 0.994881 0.832458
0.99982 1.00502 0.990033
1.00027 1.00443 0.990121
1.00006 1.0033 0.991738
1.00058 1.00349 0.990301
1.00051 1.00458 0.989557
1.00007 1.00384 0.991257
1.00085 1.00338 0.990369
1.00045 1.00385 0.990602
0.998814 0.996367 0.992336
1.00138 0.99733 0.994739
1.00042 1.00507 0.989349
1.00069 0.999862 0.994365
0.999502 1.00509 0.99188
1.0001 1.0051 0.990203
0.999359 1.00493 0.990497
0.996022 0.997839 0.992671
0.998371 1.00509 0.993099
0.99795 1.00315 0.995415
0.996472 0.999611 1.001
0.999074 1.00486 0.991807
0.994798 1.00063 0.988423
0.995341 1.0025 0.999451
0.996194 1.005 0.996389
0.998249 1.00526 0.993551
0.994784 0.994805 0.835251
0.994823 0.994818 0.836212
0.99471 0.994817 0.828875
0.997718 1.00422 0.995798
0.995431 1.00079 0.998148
0.994807 0.994825 0.8381
0.994829 0.99912 0.943328
0.995551 0.99618 0.968364
0.995016 0.998954 0.872866
0.994806 0.994787 0.82216
0.994875 0.994851 0.825973
0.995416 1.00472 0.999222
0.994798 0.994822 0.829594
0.99486 0.994834 0.829395
0.994773 0.999546 0.994269
0.994812 0.994832 0.819368
0.994852 0.996444 0.93902
0.995849 0.997647 0.883881
0.994779 1.00343 0.998579
0.994832 0.994848 0.835134
0.994802 0.994804 0.82871
0.994732 0.994793 0.819075
0.995244 0.999972 0.876877
0.994922 1.00041 0.976138
0.995451 0.998031 0.93204
0.996333 1.00494 0.997306
0.995104 1.00506 0.999106
0.994873 1.00523 0.998472
0.99893 1.00506 0.9911
0.995948 1.00515 0.996836
0.995061 1.00512 0.998235
0.996083 1.0047 0.99668
0.994931 1.00519 0.998467
0.99784 1.00192 0.997409
0.997372 1.0046 0.994834
0.999016 1.00502 0.991507
0.999014 1.00259 0.994451
0.998915 1.00263 0.992345
0.998013 0.998633 0.999155
1.00232 1.0001 0.990019
1.00425 1.00404 0.983066
1.0048 1.00276 0.983601
1.00212 1.00128 0.990543
1.00427 1.00219 0.985203
1.00512 1.00205 0.984197
1.00449 1.00019 0.986737
1.00481 1.00181 0.984663
1.00122 1.0038 0.988741
1.0028 1.00098 0.98929
1.00305 1.00059 0.98766
1.00031 1.00514 0.988854
1.00026 1.00509 0.989176
1.00033 1.00288 0.99146
0.999916 1.00511 0.989788
1.00027 1.00492 0.989547
1.00018 1.00359 0.990956
1.00034 1.00424 0.990288
1.00017 1.00271 0.991874
1.00013 0.999393 0.995159
1.00021 1.00221 0.992385
1.0002 0.999183 0.995289
1.00007 0.997249 0.998965
1.00014 0.999174 0.995397
1.00012 0.997262 0.99829
1.00008 0.997217 0.999014
1.00051 1.00285 0.990966
1.00024 1.00132 0.992908
1.00044 1.00284 0.991234
1.00016 0.998269 0.996299
1.00016 1.00081 0.993552
1.00033 1.00239 0.991997
1.00007 0.996659 0.999232
1.00011 0.998074 0.996566
1.00003 1.00045 0.994063
1.00004 0.996634 0.999272
1.00007 0.997962 0.996727
1.00001 0.996681 0.999279
0.994799 0.994831 0.835503
0.99482 0.994822 0.82931
0.994687 0.994825 0.829771
1.00095 1.00286 0.99053
1.00079 1.00298 0.99044
1.00105 1.00226 0.991147
0.99487 0.994829 0.827095
0.994817 0.99479 0.828401
0.994756 0.994761 0.821495
0.996804 0.994855 0.96477
0.996474 0.994806 0.93043
0.994787 0.999345 0.890589
0.994818 0.994832 0.813592
0.994981 0.99486 0.96154
0.994884 0.998656 0.937029
0.995277 0.998495 0.873764
0.995032 0.99487 0.828836
0.995632 0.994991 0.958251
0.994882 0.997406 0.941597
0.996557 0.997345 0.881584
0.994842 0.994834 0.817355
0.999904 1.00346 0.991332
1.00035 1.00452 0.989822
1.00045 1.00399 0.989982
1.00077 1.00335 0.990238
1.00018 1.00473 0.989866
1.00083 1.00357 0.990332
0.995846 0.996486 0.993493
0.996259 1.00027 1.0013
0.999694 1.00429 0.990617
0.998707 1.00252 0.995613
0.998472 1.0051 0.993112
0.998658 1.00456 0.992204
0.997661 1.00526 0.99364
0.995001 1.0008 0.98833
0.995972 1.00514 0.996853
0.995907 1.00252 0.998672
0.997822 1.00492 0.994052
0.994916 1.00265 0.985098
0.99552 1.00438 0.995711
0.995654 1.00514 0.997434
0.994836 0.994832 0.835018
0.994786 0.994815 0.834768
0.994827 0.994814 0.834195
0.995693 1.00418 0.998864
0.994768 0.999943 0.990373
0.994798 0.99482 0.829594
0.994843 0.998362 0.938766
0.996345 0.997035 0.869155
0.994859 0.994832 0.83089
0.994811 0.99483 0.814415
0.994785 1.00325 0.999035
0.994825 0.994849 0.835667
0.994818 0.994802 0.829326
0.99488 0.999511 0.973505
0.994717 0.994793 0.812413
0.995762 0.999653 0.871496
0.995177 0.995712 0.945167
0.994863 1.0051 0.991313
0.994792 0.994843 0.835677
0.994778 0.994789 0.822609
0.994662 0.994798 0.829038
0.99479 0.997393 0.866785
0.994865 0.999092 0.940376
0.994889 1.00084 0.967687
0.995168 1.00493 0.999071
0.994896 1.00524 0.99848
0.996765 1.00313 0.997573
0.996294 1.00463 0.996608
0.994925 1.00515 0.998482
0.996447 1.00375 0.99748
0.999394 0.997972 0.998595
0.998868 1.00301 0.995053
1.0012 1.00201 0.991545
1.00226 1.00471 0.985932
1.00196 0.999727 0.991321
1.00425 1.00381 0.983565
1.00434 1.00479 0.98232
1.00501 1.00176 0.983898
1.00506 1.0019 0.984152
1.00473 1.00284 0.983543
1.00452 1.00237 0.98448
1.0051 1.00128 0.985128
1.00512 1.00204 0.984157
1.00318 1.00151 0.987636
1.00438 1.00028 0.987026
1.00443 1.00165 0.985046
1.00061 1.00515 0.988148
1.00144 1.00397 0.988694
1.00251 1.00155 0.98907
1.00029 1.00438 0.990053
1.00058 1.00511 0.988862
0.999978 1.00505 0.989434
1.00041 1.00486 0.989562
1.00028 1.00345 0.990959
1.00005 0.999933 0.994742
1.00026 1.00261 0.991855
1.00015 0.999433 0.995134
1.00007 0.997387 0.998931
1.0002 0.999207 0.995282
1.00013 0.997282 0.998249
1.00011 0.997256 0.998966
1.00058 1.00323 0.990764
1.00037 1.00159 0.992641
1.00061 1.00275 0.991023
1.00022 0.998535 0.995922
1.00024 1.00133 0.992993
1.00042 1.00285 0.991384
1.0001 0.996746 0.999173
1.00016 0.998221 0.99632
1.00019 1.00079 0.99347
1.00007 0.99668 0.999242
1.00011 0.99805 0.996581
1.00004 0.996643 0.999279
0.994833 0.994842 0.834448
0.994802 0.994844 0.835497
0.994816 0.994834 0.829597
1.00033 1.00431 0.989654
1.00121 1.00405 0.989692
1.00075 1.00298 0.990717
1.0007 1.00322 0.990342
1.0006 1.00245 0.991308
1.0004 1.00291 0.991203
1.00036 1.00199 0.992209
0.994831 0.994803 0.821011
0.994872 0.994837 0.828723
0.994812 0.994811 0.829001
0.994882 0.994863 0.825313
0.995114 0.994845 0.958859
0.994864 0.999542 0.932266
0.995447 0.996079 0.887476
0.995341 0.994931 0.957255
0.99486 0.999017 0.929482
0.995479 0.997849 0.88398
0.994899 0.994829 0.827308
0.995917 0.996325 0.96078
0.995076 0.999669 0.93076
0.995432 0.99666 0.866449
0.994736 0.994812 0.813737
0.998207 1.00484 0.99327
0.999715 1.0039 0.991569
1.00041 1.00481 0.989613
1.00088 1.00352 0.990181
0.995222 1.00107 0.988451
0.996162 1.00308 0.997752
0.998423 1.00508 0.992603
0.997421 1.00521 0.993737
0.995841 1.00517 0.99735
0.997683 1.00458 0.994048
0.995725 1.00508 0.997426
0.996034 1.0026 0.981687
0.995023 1.0051 0.996036
0.996098 1.00411 0.996983
0.994831 1.0048 0.981093
0.995383 1.00351 0.998536
0.99478 0.994818 0.835583
0.994835 0.994833 0.837976
0.99479 0.994828 0.83427
0.994791 1.00314 0.999462
0.994848 0.999137 0.976934
0.994818 0.994847 0.836248
0.995364 0.997513 0.932971
0.995833 0.997071 0.88624
0.994828 0.994818 0.829893
0.994695 0.994808 0.820141
0.994878 1.00441 0.99213
0.994807 0.994842 0.835694
0.994761 0.994785 0.822621
0.994901 0.999934 0.96767
0.9947 0.994812 0.819372
0.994743 0.997765 0.869052
0.995324 0.998771 0.928792
0.995008 1.00479 0.986073
0.994832 0.994822 0.829297
0.994677 0.994773 0.815566
0.99649 0.994865 0.887714
0.994801 0.998753 0.940154
0.994841 0.999987 0.960657
0.994918 1.00531 0.998796
0.995851 1.00386 0.997667
0.996994 0.999706 0.999537
0.995339 1.00506 0.99754
0.997783 0.999753 0.998818
1.00191 0.998646 0.994091
1.00355 1.00127 0.990755
1.00315 1.00473 0.985209
1.00358 1.00442 0.983475
1.004 1.00384 0.98406
1.00447 1.00465 0.982263
1.00435 1.0043 0.982744
1.00518 1.00016 0.985248
1.00512 1.00112 0.984803
1.00501 1.00197 0.983866
1.00509 1.00169 0.984547
1.00505 1.00178 0.984156
1.00457 1.00304 0.983484
1.00506 1.00106 0.98564
1.00495 1.00151 0.984974
1.00511 1.00203 0.984121
1.00207 1.00412 0.987337
1.00313 1.00164 0.987835
1.00426 1.00029 0.987315
1.00046 1.00479 0.988979
1.00098 1.00504 0.988195
1.00153 1.00415 0.988647
1.00007 1.00047 0.994147
1.00038 1.00418 0.990058
1.00079 1.0051 0.98887
1.00031 1.00341 0.990961
1.00006 0.999996 0.994709
1.00001 0.997643 0.998867
1.00017 0.999465 0.995109
1.00007 0.997409 0.998919
1.0001 0.997266 0.998945
1.00008 1.00506 0.9898
1.00073 1.00386 0.989955
1.00047 1.00203 0.992054
1.0006 1.00313 0.99075
1.00026 0.998865 0.995523
1.00036 1.00162 0.992632
1.00063 1.00275 0.991081
1.00011 0.996913 0.999081
1.00022 0.998513 0.995945
1.00024 1.00134 0.993075
1.00009 0.99673 0.999192
1.00017 0.998195 0.996341
1.00007 0.996653 0.999253
0.994796 0.994835 0.829554
0.994815 0.994838 0.835018
0.994812 0.994833 0.835483
1.00047 1.00457 0.989637
1.00075 1.00355 0.989856
1.00009 1.00275 0.990383
0.999955 1.00447 0.989873
1.00156 1.00341 0.990271
1.00078 1.00336 0.990242
1.00041 1.0026 0.991469
1.00048 1.00289 0.991222
1.00039 1.00222 0.99223
0.999124 1.00396 0.992502
0.994751 0.99478 0.824401
0.994816 0.994799 0.821781
0.994872 0.994828 0.830279
0.995038 0.994841 0.828158
0.996093 0.99735 0.869409
0.995116 0.995585 0.955857
0.994888 0.998185 0.941278
0.995377 0.996881 0.957175
0.99489 0.996288 0.942403
0.994967 0.999259 0.875027
0.994755 0.994802 0.812346
0.994866 0.998946 0.960761
0.994828 1.00071 0.942351
0.994772 0.998555 0.889815
0.994703 0.994822 0.829616
0.998292 1.00256 0.995557
0.997879 1.00472 0.993466
0.999661 1.00378 0.991813
0.996811 1.00222 0.977966
0.994932 1.00511 0.996432
0.997463 1.00458 0.99404
0.995458 1.00505 0.997419
0.996388 1.00408 0.996989
0.99525 1.00328 0.998833
0.99494 1.00248 0.980368
0.995799 1.00136 0.999871
0.995758 1.00063 0.986343
0.994817 0.994821 0.83723
0.994789 0.994827 0.835116
0.994831 0.994834 0.840964
0.994884 1.00385 0.992512
0.99486 0.99956 0.965104
0.99482 0.994845 0.835693
0.994864 0.999433 0.940306
0.994765 0.999339 0.888975
0.994745 0.994766 0.822755
0.994729 0.994824 0.809345
0.995375 1.00455 0.986774
0.994816 0.994828 0.829435
0.994702 0.994775 0.814502
0.995039 0.999431 0.96164
0.996291 0.996725 0.88529
0.994854 0.99851 0.935069
0.995133 1.00336 0.983942
0.994685 0.994787 0.818548
0.99857 0.994836 0.888912
0.99638 0.996996 0.931617
0.994862 0.996653 0.963175
0.995497 1.00492 0.997751
0.9965 1.00046 0.999523
0.998928 1.00212 0.995877
0.996128 1.00155 0.999007
1.00082 0.999139 0.994613
1.00343 0.999421 0.98979
1.00401 1.00447 0.984468
1.00358 1.00438 0.983349
1.0042 1.00155 0.98503
1.00475 1.00445 0.982209
1.00443 1.00388 0.98283
1.00493 1.0002 0.985783
1.00526 0.997604 0.987525
1.00523 0.999645 0.985594
1.00516 1.00007 0.985335
1.00518 1.00098 0.985005
1.00512 1.00115 0.984716
1.00501 1.00213 0.983833
1.00515 1.00199 0.984471
1.00496 1.00161 0.984578
1.00504 1.00169 0.984161
1.00413 1.00193 0.986185
1.00454 1.00147 0.985703
1.00482 1.00178 0.984821
1.00088 1.00513 0.987539
1.00207 1.00406 0.987342
1.00318 1.00178 0.988032
1.00009 1.00131 0.994251
1.00068 1.00473 0.988984
1.00132 1.00492 0.988244
1.00003 0.998105 0.996874
1.00008 1.00067 0.994482
1.0005 1.00403 0.990062
1.00008 1.00008 0.994675
1.00002 0.997712 0.998824
1.00007 0.997419 0.998904
1.00039 1.00512 0.989334
1.00074 1.00487 0.989178
0.999834 1.00508 0.989689
1.00052 1.00276 0.991268
1.00052 1.00419 0.989933
1.00022 0.999238 0.995199
1.00046 1.00202 0.992064
1.00072 1.00304 0.990733
1.00012 0.997157 0.998989
1.00025 0.998846 0.99554
1.00035 1.00166 0.992622
1.00011 0.9969 0.99911
1.00021 0.998478 0.995969
1.00009 0.996731 0.99921
0.994787 0.994825 0.838777
0.994805 0.994838 0.829553
0.994802 0.994853 0.835613
1.00123 1.00194 0.990166
1.0001 1.00495 0.989619
1.0006 1.00335 0.990029
1.00054 1.00463 0.989626
1.00093 1.00244 0.990443
1.00079 1.00317 0.991253
1.00282 1.00221 0.988084
0.998669 1.00491 0.991224
1.00059 1.0028 0.99124
1.00007 1.00215 0.99225
0.998978 1.00381 0.992419
0.99812 1.00515 0.993078
0.994709 0.994798 0.822075
0.994774 0.994785 0.823912
0.994815 0.994796 0.822403
0.994774 0.994809 0.825265
0.994921 0.999202 0.874014
0.995476 0.998493 0.930871
0.995009 0.99611 0.957033
0.994888 0.999075 0.960052
0.994715 0.994824 0.819566
0.994854 0.996971 0.934855
0.99477 0.998945 0.87383
0.99492 0.996558 0.965444
0.994876 0.999642 0.94329
0.996293 0.995149 0.88647
0.999396 0.996608 0.99908
0.998223 1.00236 0.995502
0.997844 1.00454 0.993651
0.994933 1.00163 0.980145
0.994889 1.00292 0.999097
0.996835 1.00394 0.996976
0.996884 1.00101 0.999996
0.995251 0.99943 0.986526
0.996533 0.998053 0.992404
0.994717 0.99485 0.831162
0.994815 0.994813 0.838829
0.994797 0.994827 0.834585
0.995031 1.00432 0.987102
0.994872 0.999983 0.96141
0.994801 0.994836 0.829743
0.994839 0.999593 0.93092
0.996373 0.994862 0.870372
0.994739 0.994791 0.825845
0.994793 1.00439 0.983938
0.994696 0.994819 0.830339
0.998588 0.994799 0.871169
0.994871 0.995904 0.958916
0.996412 0.998621 0.942365
0.99487 1.00297 0.989667
0.999797 0.994841 0.864545
0.998921 0.994886 0.944138
0.994851 0.994852 0.958089
0.995999 1.00087 0.99957
0.998247 1.0012 0.995554
1.00148 1.00333 0.99111
0.999757 0.999568 0.995142
1.00272 1.00011 0.989622
1.00418 0.99965 0.987808
1.0036 1.00452 0.983222
1.00419 1.00167 0.984963
1.00503 0.997033 0.987955
1.00443 1.00336 0.982918
1.00478 1.00004 0.985801
1.00527 0.996095 0.988982
1.00524 0.995999 0.989523
1.00526 0.997814 0.987411
1.00527 0.997527 0.987645
1.00526 0.999461 0.985799
1.00522 0.999615 0.985775
1.00515 1 0.985423
1.00525 1.00127 0.984477
1.00518 1.00089 0.984967
1.00512 1.00115 0.984628
1.00512 1.00123 0.985077
1.00499 1.0019 0.984494
1.00481 1.0015 0.984608
1.00239 1.00403 0.986615
1.00392 1.00221 0.986114
1.00398 1.00185 0.985768
1.00011 1.00221 0.99226
1.00141 1.00505 0.987554
1.00208 1.0041 0.987343
0.999838 0.998803 0.998519
1.00012 1.00134 0.993214
1.0009 1.00472 0.98899
1.00002 0.998085 0.998672
1.00007 1.00072 0.994016
1.00004 0.997772 0.998776
1.00231 1.00352 0.988341
1.00043 1.00509 0.989169
1.00082 1.00508 0.988795
1.00048 1.00368 0.990409
1.00053 1.00488 0.989154
1.00003 1.00506 0.989581
1.00016 0.999735 0.994833
1.00048 1.00278 0.991291
1.00031 1.00431 0.989908
1.00009 0.997378 0.998918
1.00024 0.99918 0.995214
1.00046 1.00199 0.992073
1.00011 0.997121 0.999015
1.00024 0.998832 0.995555
1.0001 0.996854 0.999139
0.994713 0.994812 0.815945
0.994806 0.994827 0.839033
0.994812 0.994841 0.829571
1.00107 1.00257 0.990125
1.00444 1.00172 0.987252
1.00165 1.00347 0.989264
1.00055 1.00454 0.989377
1.00198 1.00219 0.990498
0.999636 1.00251 0.992216
0.999405 1.00472 0.990858
1.00195 1.00271 0.98873
1.00199 1.00344 0.988636
0.999361 0.9999 0.995567
0.999638 1.00371 0.992329
0.998491 1.00503 0.99295
0.999096 0.994817 0.864688
0.994679 0.994789 0.815648
0.994785 0.994788 0.823941
0.994729 0.994817 0.808981
0.994813 0.997685 0.891343
0.99483 0.998896 0.930404
0.995022 0.996747 0.958453
0.994895 0.996763 0.963416
0.996527 0.997924 0.88467
0.994861 0.99817 0.93162
0.99489 0.997068 0.966579
0.996237 0.995603 0.931565
1.00052 0.995726 1.00007
0.999246 0.997816 0.999028
0.998078 1.00224 0.995468
0.994958 0.998965 0.986822
0.997671 1.00044 1.00014
0.997014 0.998074 0.992083
0.997021 0.995701 0.991
0.999793 0.994914 0.878168
0.994707 0.994836 0.828918
0.994822 0.994812 0.840286
0.994819 1.00465 0.984253
0.994863 0.994893 0.957396
0.994691 0.994832 0.830186
0.996326 0.994802 0.93173
0.998979 0.994834 0.889049
0.994874 1.00095 0.986487
0.999798 0.994858 0.876036
0.999502 0.995582 0.931011
0.994853 0.994818 0.96028
0.997035 0.997992 0.988152
0.999954 0.994889 0.944152
0.99534 0.994833 0.964655
0.997951 1.00021 0.995194
1.0005 1.00131 0.991206
1.00373 0.999555 0.990697
1.00207 1.00102 0.989468
1.00403 0.999538 0.987804
1.00514 0.996238 0.989209
1.00429 1.00181 0.984901
1.00498 0.997504 0.98789
1.00524 0.995123 0.989941
1.00467 0.99988 0.985816
1.00527 0.996184 0.988929
1.00523 0.995077 0.990354
1.00523 0.99533 0.990364
1.00524 0.995909 0.989689
1.00522 0.996413 0.989351
1.00529 0.998149 0.987361
1.00526 0.997873 0.987532
1.00529 0.997443 0.987766
1.00529 1.00014 0.985504
1.00526 0.999506 0.985764
1.00521 0.999564 0.985956
1.00524 1.00155 0.984507
1.00525 1.00129 0.984514
1.00518 1.00084 0.98493
1.00344 1.00274 0.986224
1.005 1.00136 0.985057
1.0048 1.00185 0.984516
1.00053 1.00287 0.990962
1.00246 1.00402 0.986609
1.00388 1.00226 0.986046
0.999992 0.999124 0.99826
1.00027 1.00215 0.992221
1.00182 1.00484 0.987568
0.999958 0.998762 0.997481
1.00016 1.00148 0.993213
1.00004 0.998301 0.998574
1.00368 1.00112 0.987979
1.00159 1.00347 0.988531
1.00073 1.00508 0.98843
1.00041 1.00506 0.988999
1.00055 1.00508 0.988822
1.00067 1.00437 0.989525
1.00013 1.00044 0.994227
1.00041 1.0038 0.990398
1.00022 1.00502 0.989132
1.00007 0.997643 0.998814
1.00015 0.999677 0.994856
1.00042 1.00281 0.991314
1.00009 0.997348 0.998938
1.00025 0.999133 0.995234
1.00011 0.997093 0.999042
0.999794 0.994833 0.875743
0.994701 0.994822 0.821395
0.994816 0.994825 0.83929
1.00089 1.00285 0.990086
1.00156 1.0038 0.988449
1.00369 1.00235 0.987366
1.00505 1.0036 0.983118
1.00161 1.00301 0.988729
0.999693 1.00482 0.99052
1.00139 1.00313 0.989373
1.00112 1.00356 0.989184
1.00409 0.998182 0.988411
1.00184 0.999724 0.992585
1.00312 0.995678 0.993432
1.00016 0.999417 0.995419
0.99935 1.00404 0.992833
0.998214 0.994873 0.941884
0.999251 0.99478 0.869417
0.994655 0.99479 0.820603
0.996599 0.995637 0.871168
0.994873 0.999511 0.940457
0.994907 0.995553 0.964683
0.994906 0.996828 0.968249
0.996869 0.999026 0.943439
0.995725 0.994807 0.967806
0.999917 0.995917 0.999197
0.999883 0.99612 1.0001
0.999016 0.999044 0.998956
0.997634 0.997701 0.991877
0.997766 0.99636 0.991215
0.999975 0.994896 0.9329
0.999795 0.994889 0.883528
0.994692 0.99482 0.826785
0.994881 0.999629 0.983036
0.995038 0.994812 0.958247
0.999801 0.994831 0.875477
0.998645 0.994855 0.942967
0.996727 0.997979 0.988387
1.00062 0.994892 0.940577
0.996341 0.994856 0.962328
1.00058 0.994821 0.988377
0.998493 0.994867 0.972324
0.999255 0.999369 0.991375
1.00317 0.997765 0.990722
1.0049 0.995126 0.991645
1.00388 0.999207 0.987794
1.00507 0.99612 0.989075
1.00524 0.994876 0.990364
1.00482 0.997959 0.987827
1.00524 0.995175 0.98989
1.00523 0.994876 0.990492
1.00526 0.996265 0.988876
1.00523 0.995112 0.99032
1.00524 0.994923 0.990605
1.00523 0.995236 0.990433
1.00521 0.995546 0.990323
1.00524 0.995821 0.989855
1.00522 0.9964 0.989348
1.00523 0.997009 0.988697
1.0053 0.999071 0.986649
1.00529 0.998212 0.98734
1.00525 0.99793 0.987653
1.00531 1.00113 0.984623
1.00529 1.00021 0.985378
1.00526 0.99955 0.985729
1.00406 1.00199 0.985879
1.0051 1.0016 0.984547
1.00524 1.00132 0.984551
1.00111 1.00297 0.989917
1.00329 1.00296 0.986226
1.00471 1.00163 0.985038
1.00011 0.999885 0.997862
1.00067 1.0027 0.990958
1.00266 1.00403 0.986603
1.00008 0.999273 0.998126
1.00046 1.00196 0.992181
1.00008 0.998715 0.998344
1.00495 1.00256 0.98424
1.00355 1.00108 0.987853
1.00183 1.00374 0.987654
1.00091 1.00352 0.988734
1.0008 1.00503 0.988263
1.00092 1.00489 0.988573
1.00042 1.00509 0.988844
1.00046 1.00455 0.989493
1.00019 1.00116 0.993393
1.00004 0.998068 0.998617
1.00009 1.00039 0.994247
1.00031 1.00392 0.990388
1.00005 0.997617 0.998852
1.00015 0.999612 0.99487
1.00009 0.997324 0.998958
0.999975 0.994881 0.945433
0.999813 0.994856 0.875413
0.99468 0.994813 0.815851
1.00134 1.00456 0.987628
1.00303 1.00277 0.987485
1.00266 1.00286 0.988195
1.0046 1.00335 0.983736
1.00515 1.00125 0.984471
1.0035 1.00051 0.986844
1.00036 1.00381 0.98971
1.00438 0.998391 0.987827
1.00186 0.999425 0.992742
1.0037 0.996467 0.990274
1.00418 0.996463 0.991794
1.00284 0.996536 0.993047
1.00269 0.995926 0.993543
0.999687 0.999907 0.995268
0.995961 0.994865 0.965891
0.999175 0.996125 0.937701
0.998098 0.994837 0.885493
0.996347 0.99708 0.931231
0.994938 0.996696 0.968722
0.995467 0.995675 0.973673
0.99924 0.995079 0.99291
1.00055 0.995368 0.998776
0.999251 0.996305 1.00016
0.998822 0.998185 0.991463
0.997217 0.995887 0.967017
1.00009 0.99488 0.946042
0.999798 0.994891 0.867342
0.996157 0.998014 0.98869
0.996797 0.99486 0.963096
0.99992 0.994878 0.93669
1.00005 0.995143 0.988652
0.998567 0.994878 0.971633
1.00291 0.994985 0.990501
1.00313 0.997164 0.9852
1.00234 0.996083 0.990728
1.00444 0.99514 0.991659
1.00514 0.994784 0.990997
1.00499 0.996168 0.988941
1.00523 0.994876 0.990314
1.00526 0.994897 0.990512
1.00524 0.995244 0.989837
1.00523 0.994885 0.990471
1.00526 0.994901 0.990546
1.00523 0.995149 0.990284
1.00523 0.994926 0.990594
1.00524 0.994973 0.99062
1.00523 0.995143 0.990501
1.00521 0.995441 0.990363
1.00522 0.99619 0.989711
1.00522 0.996393 0.989344
1.00523 0.997051 0.988683
1.00527 0.998276 0.987572
1.00532 1.00034 0.985424
1.0053 0.999223 0.986447
1.00528 0.998276 0.987318
1.00477 1.00101 0.985646
1.00529 1.00114 0.984662
1.0053 1.00029 0.985253
1.0016 1.00262 0.989329
1.00393 1.00224 0.985875
1.00497 1.00163 0.984585
1.00045 1.0005 0.997384
1.00117 1.00282 0.989914
1.00313 1.00318 0.986227
1.00028 1.00005 0.997668
1.00071 1.00256 0.990963
1.00021 0.999426 0.997959
1.00494 1.00185 0.984414
1.00499 1.00232 0.984441
1.00415 1.00211 0.985588
1.00325 1.00157 0.987724
1.0019 1.00369 0.987452
1.0018 1.00467 0.987491
1.00077 1.00491 0.988099
1.0008 1.00498 0.988576
1.00026 1.00197 0.992491
1.00034 1.0048 0.989462
1.0001 1.00123 0.993423
0.999998 0.998732 0.998365
1.00001 0.998033 0.998692
1.00004 1.00038 0.994271
1.00004 0.997563 0.998883
0.996931 0.994877 0.967377
0.999963 0.99487 0.932339
0.99981 0.994862 0.886871
1.00523 0.999131 0.986235
1.00382 1.00278 0.987673
1.00415 1.00311 0.984354
1.0043 1.00032 0.987056
1.00512 1.00145 0.984425
1.00475 0.998189 0.988103
1.00475 0.999815 0.987245
1.00164 0.998697 0.992903
1.00431 0.997083 0.990072
1.004 0.996595 0.990989
1.00479 0.99603 0.989729
1.0033 0.995091 0.994053
1.00286 0.996148 0.993103
1.00251 0.996182 0.993646
0.998872 0.995056 0.991233
0.995857 0.994873 0.964255
0.998832 0.994851 0.933017
0.995088 0.996211 0.972432
0.99888 0.995012 0.995539
1.0006 0.994933 0.998302
1.00176 0.995914 0.982327
0.997254 0.995286 0.967314
0.999979 0.994895 0.932939
0.999399 0.994989 0.988949
0.998912 0.994892 0.970868
1.00206 0.994846 0.991002
1.00302 0.996415 0.986012
1.00397 0.994961 0.991254
1.00463 0.997217 0.99086
1.00408 0.995001 0.991661
1.00511 0.994802 0.990889
1.00531 0.994847 0.990456
1.00524 0.994868 0.990265
1.00525 0.99489 0.990508
1.0053 0.994895 0.990482
1.00523 0.994894 0.990449
1.00526 0.994899 0.990555
1.00527 0.994902 0.990666
1.00522 0.994927 0.990584
1.00524 0.994955 0.990606
1.00524 0.995313 0.990436
1.00522 0.995336 0.990403
1.00522 0.996055 0.989845
1.00527 0.997457 0.988481
1.00524 0.99709 0.988668
1.00527 0.998217 0.987633
1.00531 0.999953 0.985933
1.00506 1.00056 0.985638
1.00532 1.00046 0.985293
1.0053 0.999371 0.986244
1.00234 1.00156 0.989204
1.00468 1.00115 0.985656
1.00528 1.00115 0.9847
1.00076 1.00073 0.997056
1.00184 1.00231 0.98932
1.0038 1.00242 0.985874
1.00058 1.00057 0.997244
1.0013 1.00268 0.989911
1.00044 1.00022 0.997487
1.00529 1.00049 0.985095
1.00512 1.00189 0.984308
1.00509 1.0013 0.984928
1.00514 1.00203 0.984641
1.00435 1.00201 0.985529
1.00277 1.00384 0.986671
1.00212 1.00335 0.987249
1.00154 1.00482 0.987505
1.00048 1.00256 0.991487
1.00064 1.005 0.988577
1.00014 1.00202 0.992518
0.999979 0.999431 0.998073
1.00001 1.00121 0.993452
0.999977 0.998607 0.998458
0.999988 0.997946 0.998758
1.00057 0.99488 0.987197
0.996727 0.994888 0.963938
0.999978 0.994879 0.945245
1.00509 0.997693 0.988052
1.00528 0.997249 0.988219
1.00523 0.998904 0.986502
1.00506 0.999707 0.987262
1.00509 1.00172 0.98438
1.00481 0.998023 0.988392
1.00514 0.995633 0.989385
1.00484 0.997008 0.989879
1.0039 0.997102 0.990188
1.00462 0.996555 0.990126
1.00507 0.995176 0.990705
1.0037 0.995098 0.992907
1.00297 0.995305 0.993767
1.00315 0.995723 0.993172
0.999552 0.99507 0.991331
0.995765 0.994862 0.962768
0.998853 0.99501 0.998285
1.00452 0.994904 0.990864
1.00162 0.996237 0.982465
0.997341 0.994865 0.965603
1.0017 0.99479 0.991465
1.00288 0.99566 0.986847
1.00398 0.994921 0.991912
1.00466 0.996414 0.99096
1.0053 0.994824 0.990874
1.0054 0.994899 0.991109
1.00506 0.994821 0.990783
1.00533 0.994853 0.990427
1.00533 0.994873 0.990503
1.00523 0.994881 0.990504
1.00529 0.994896 0.990504
1.00526 0.994896 0.990667
1.00525 0.994898 0.990564
1.00527 0.994902 0.99066
1.00526 0.995002 0.990765
1.00524 0.99494 0.990592
1.00524 0.995318 0.990411
1.00527 0.996673 0.989191
1.00523 0.995916 0.989978
1.00527 0.997387 0.988535
1.00532 0.999466 0.986399
1.00527 0.99816 0.987695
1.00531 0.99987 0.986036
1.00513 1.00041 0.985705
1.00271 1.00072 0.989365
1.00504 1.00061 0.985645
1.00532 1.00059 0.985161
1.00096 1.00075 0.996888
1.00237 1.0015 0.989196
1.00456 1.00137 0.985667
1.00083 1.00079 0.996973
1.00198 1.0021 0.989312
1.00069 1.00071 0.997116
1.00529 0.998742 0.986778
1.00527 1.00036 0.985287
1.00526 1.00089 0.985025
1.00518 1.00188 0.984203
1.00515 1.00124 0.98493
1.00348 1.00253 0.986517
1.00454 1.00194 0.985473
1.00268 1.00359 0.986673
1.00083 1.00292 0.990428
1.00122 1.00491 0.98752
1.00038 1.00265 0.99152
1.00007 1.00024 0.997725
1.00007 1.0021 0.992545
0.99994 0.999308 0.998186
0.999939 0.998508 0.998546
1.00434 0.994809 0.992205
1.00076 0.994871 0.985015
0.996584 0.994907 0.963313
1.00519 0.996605 0.989173
1.00508 0.997259 0.988348
1.00526 0.996082 0.989476
1.00528 0.997276 0.988189
1.00523 0.998652 0.986765
1.00527 0.99494 0.990034
1.00492 0.998029 0.988671
1.00516 0.995979 0.989393
1.00526 0.994848 0.990503
1.00451 0.996899 0.990521
1.00505 0.995244 0.990392
1.00344 0.995156 0.993164
1.00238 0.995707 0.993485
1.00002 0.995025 0.991253
1.00535 0.994888 0.990851
1.00449 0.995917 0.9911
1.00146 0.99669 0.982658
1.00387 0.994792 0.992552
1.00465 0.995614 0.991065
1.00529 0.994819 0.990934
1.00541 0.994898 0.99105
1.00537 0.994878 0.990882
1.00535 0.994861 0.990401
1.00533 0.994877 0.990515
1.00525 0.994905 0.990802
1.00529 0.994898 0.990527
1.00527 0.994899 0.990662
1.00523 0.994905 0.990953
1.00527 0.994901 0.990654
1.00526 0.994989 0.990737
1.00526 0.995948 0.989979
1.00525 0.995324 0.990387
1.00527 0.996704 0.989187
1.00534 0.998956 0.986952
1.00526 0.997315 0.988588
1.00532 0.999469 0.986423
1.00512 1.00036 0.985796
1.00531 0.999784 0.986139
1.00514 1.00041 0.985715
1.00278 1.00032 0.991299
1.00133 1.00025 0.99354
1.00274 1.00072 0.990186
1.00501 1.00067 0.985652
1.001 1.00076 0.996865
1.0025 1.0013 0.989183
1.00089 1.00083 0.996902
1.00523 0.995974 0.989872
1.00526 0.997574 0.988195
1.0053 0.998734 0.986963
1.00531 1.00029 0.985505
1.00526 1.00024 0.98548
1.00528 1.00092 0.984962
1.00416 1.00135 0.986375
1.0052 1.0012 0.98493
1.00363 1.0021 0.986508
1.00147 1.00274 0.989579
1.00267 1.00335 0.986671
1.0008 1.00302 0.990417
1.00033 1.00084 0.997295
1.00026 1.00271 0.99155
0.999979 0.999973 0.997865
0.999898 0.999167 0.998289
1.00535 0.994841 0.990789
1.00442 0.994786 0.991948
1.00121 0.994853 0.982894
1.00528 0.995372 0.990043
1.00513 0.996571 0.98905
1.0051 0.996829 0.988648
1.00526 0.996247 0.989443
1.00528 0.997303 0.988158
1.00535 0.994836 0.990515
1.00529 0.994962 0.990059
1.00518 0.996304 0.9894
1.00524 0.994852 0.990537
1.00506 0.995296 0.990077
1.0033 0.995036 0.993423
1.00534 0.994919 0.990938
1.00537 0.994892 0.99104
1.00449 0.996609 0.991335
1.00529 0.994814 0.990978
1.00542 0.9949 0.990995
1.00537 0.994879 0.990846
1.00526 0.994934 0.991054
1.00533 0.994883 0.990527
1.00526 0.994907 0.990772
1.00517 0.994932 0.991118
1.00527 0.994902 0.990658
1.00523 0.994906 0.990937
1.00526 0.995398 0.990607
1.00526 0.994976 0.99071
1.00526 0.995971 0.989969
1.00533 0.998483 0.987488
1.00528 0.996735 0.989183
1.00533 0.998959 0.986975
1.0051 1.00029 0.985933
1.00532 0.999471 0.986448
1.00515 1.00033 0.985812
1.00286 1.00007 0.991428
1.00516 1.0004 0.985725
1.00298 1.00021 0.991175
1.00139 0.999986 0.993734
1.00106 1.00053 0.99527
1.00294 1.00067 0.990837
1.001 1.0008 0.996854
1.00524 0.995185 0.990681
1.00525 0.997226 0.988557
1.00523 0.995823 0.990033
1.00532 0.999589 0.986214
1.00526 0.997626 0.988183
1.00529 0.998719 0.987148
1.00531 1.00033 0.985448
1.00486 1.00043 0.986094
1.0053 1.00095 0.984899
1.00431 1.00108 0.986369
1.0021 1.00191 0.989255
1.00372 1.00172 0.986503
1.00128 1.00291 0.989572
1.00055 1.00124 0.996966
1.00064 1.00317 0.990424
1.00017 1.0007 0.997467
0.999925 0.999833 0.997994
1.00531 0.994892 0.990742
1.00531 0.99484 0.990803
1.00438 0.994773 0.991685
1.00528 0.994868 0.990663
1.00526 0.995431 0.990023
1.00505 0.996545 0.988934
1.00526 0.996411 0.98941
1.00534 0.994846 0.990517
1.0053 0.994981 0.990084
1.00519 0.994857 0.990571
1.00528 0.99496 0.991037
1.00532 0.994919 0.990922
1.00538 0.994895 0.991227
1.00522 0.994961 0.99118
1.00537 0.994878 0.99081
1.00526 0.994936 0.991046
1.00515 0.994958 0.991213
1.00526 0.994909 0.990742
1.00518 0.994931 0.991115
1.00526 0.995076 0.991006
1.00524 0.994906 0.990921
1.00524 0.995414 0.990602
1.00533 0.99808 0.987928
1.00527 0.995996 0.989958
1.00533 0.998486 0.987507
1.00507 1.00017 0.986125
1.00533 0.998962 0.986997
1.00512 1.00026 0.985954
1.00286 1.00007 0.991424
1.00518 1.0003 0.985827
1.00302 1.00001 0.991282
1.00145 0.999865 0.993777
1.00317 1.00009 0.99106
1.00097 1.00015 0.994018
1.00048 1.00088 0.99734
1.00525 0.994983 0.990745
1.00529 0.996402 0.989475
1.00524 0.995259 0.990557
1.00535 0.999231 0.986631
1.00526 0.996908 0.988812
1.00523 0.995668 0.990194
1.00516 1.00003 0.986018
1.00532 0.999587 0.986171
1.00527 0.997677 0.988172
1.00531 1.00036 0.98539
1.00491 1.00034 0.986085
1.00251 1.00105 0.989372
1.00445 1.00081 0.986364
1.00195 1.00211 0.989277
1.0007 1.00129 0.996862
1.00124 1.00303 0.989554
1.00047 1.0011 0.997081
1.00004 1.00048 0.99763
1.00526 0.9949 0.990951
1.00531 0.994894 0.990711
1.0053 0.994839 0.990818
1.00529 0.994873 0.990692
1.00524 0.995493 0.990005
1.00533 0.994856 0.990519
1.00524 0.994975 0.991093
1.00528 0.994956 0.991044
1.00531 0.994919 0.990907
1.00522 0.994961 0.991174
1.00513 0.994959 0.991396
1.00526 0.994938 0.991038
1.00515 0.994957 0.991253
1.00525 0.994953 0.991148
1.00519 0.99493 0.991113
1.00524 0.995089 0.991001
1.00536 0.997733 0.988261
1.00522 0.995421 0.990596
1.00534 0.998073 0.987938
1.00504 0.999992 0.986379
1.00532 0.998488 0.987528
1.00509 1.00015 0.986141
1.00279 1.00017 0.991384
1.00515 1.00023 0.985974
1.003 1.00002 0.991265
1.00147 0.999893 0.993719
1.00317 0.99995 0.991145
1.00108 0.999917 0.994083
1.00058 1.00033 0.994287
1.00527 0.994901 0.99098
1.00526 0.995837 0.990083
1.00525 0.994946 0.990774
1.00536 0.998422 0.987465
1.00529 0.996482 0.989358
1.00525 0.995335 0.990432
1.00523 0.999934 0.986058
1.00534 0.99891 0.98689
1.00527 0.996599 0.989069
1.00278 1.00028 0.989654
1.00518 1.00001 0.986007
1.00532 0.999584 0.986127
1.00497 1.00026 0.986078
1.00246 1.00113 0.989389
1.00085 1.00108 0.996896
1.00179 1.00232 0.989298
1.00068 1.00122 0.996892
1.00034 1.00101 0.997219
1.00523 0.994961 0.991059
1.00527 0.994904 0.990925
1.0053 0.994895 0.99068
1.0053 0.994878 0.990721
1.00514 0.994977 0.991358
1.00523 0.994972 0.991103
1.00528 0.994953 0.991051
1.00521 0.994962 0.991168
1.00513 0.994962 0.991375
1.00523 0.995402 0.990789
1.00516 0.994958 0.991293
1.00524 0.995203 0.990943
1.00539 0.997047 0.988953
1.00521 0.995102 0.990996
1.00538 0.99773 0.988261
1.005 0.999781 0.986674
1.00535 0.998082 0.987947
1.00506 0.999972 0.986383
1.00279 1.00023 0.989814
1.00511 1.00013 0.986158
1.00294 1.00014 0.990446
1.00127 0.999965 0.996925
1.00315 0.999984 0.991108
1.00113 0.999879 0.994033
1.00073 0.999953 0.994373
1.00524 0.994951 0.991076
1.00525 0.995546 0.990525
1.00527 0.99491 0.990968
1.0053 0.997822 0.988171
1.00525 0.99596 0.989935
1.00525 0.99491 0.990802
1.0052 0.999634 0.986393
1.00536 0.998398 0.98748
1.00529 0.996555 0.989241
1.00291 0.999864 0.989876
1.00522 0.999796 0.986155
1.00534 0.99858 0.987149
1.00101 1.00062 0.996982
1.0028 1.00026 0.989664
1.00519 0.999979 0.985993
1.00241 1.00118 0.989407
1.00084 1.00103 0.996874
1.00063 1.00117 0.996936
1.00514 0.994978 0.99126
1.00523 0.994961 0.991063
1.00528 0.994908 0.9909
1.00522 0.995434 0.990828
1.00514 0.994976 0.991334
1.00523 0.994969 0.991113
1.00514 0.994963 0.991354
1.00523 0.995423 0.990791
1.00538 0.997231 0.988864
1.00524 0.995459 0.990737
1.00539 0.997426 0.988579
1.00494 0.999287 0.987249
1.00539 0.997713 0.988261
1.00501 0.99977 0.986674
1.00272 1.00015 0.990017
1.00508 0.999956 0.986388
1.0028 1.00021 0.989823
1.00121 1.00002 0.996919
1.00297 1.00012 0.989644
1.00112 0.999968 0.995504
1.0008 0.999847 0.994345
1.00517 0.994966 0.991237
1.00521 0.995416 0.990792
1.00522 0.994949 0.991093
1.00528 0.998002 0.988054
1.00525 0.995499 0.990536
1.00527 0.99492 0.990956
1.00512 0.999563 0.986621
1.0053 0.998153 0.987844
1.00524 0.996081 0.989788
1.00294 0.999774 0.989919
1.00518 0.999621 0.986411
1.00536 0.998382 0.987495
1.00118 1.00019 0.99701
1.00293 0.999825 0.98988
1.00521 0.999656 0.986251
1.00103 1.00063 0.996945
1.00279 1.00025 0.989676
1.0008 1.00102 0.996876
1.00521 0.995475 0.990742
1.00514 0.994977 0.991278
1.00523 0.994961 0.991068
1.00537 0.997197 0.988921
1.00522 0.995445 0.990807
1.00515 0.994975 0.991309
1.00523 0.995427 0.990792
1.00537 0.997212 0.988872
1.00488 0.999124 0.987517
1.0054 0.997808 0.988206
1.00496 0.999434 0.987084
1.00266 1.00003 0.99024
1.00502 0.999755 0.986675
1.0027 1.00016 0.990027
1.00113 1.00003 0.996936
1.00279 1.0002 0.989829
1.00118 1.00003 0.996919
1.00122 0.999931 0.993808
1.0052 0.995637 0.990578
1.00516 0.994964 0.991203
1.0053 0.997782 0.9883
1.00523 0.995354 0.990796
1.00521 0.994948 0.99111
1.00504 0.999786 0.986582
1.00528 0.998011 0.988051
1.00526 0.995448 0.990548
1.0029 0.999895 0.989913
1.00509 0.999731 0.986486
1.0053 0.998488 0.987517
1.00128 0.999971 0.996971
1.00296 0.999773 0.989918
1.00515 0.999599 0.986428
1.00117 1.00023 0.997003
1.00296 0.999798 0.989883
1.00104 1.00063 0.996907
1.00535 0.997282 0.988828
1.00521 0.995484 0.990763
1.00515 0.994974 0.991297
1.00486 0.999072 0.987599
1.00536 0.997189 0.988923
1.00522 0.995445 0.990785
1.00537 0.997215 0.988881
1.0049 0.999111 0.987486
1.00256 0.99997 0.990461
1.00496 0.999579 0.986919
1.00264 1.00004 0.990249
1.00108 1.00002 0.996978
1.00269 1.00017 0.990039
1.0011 1.00005 0.996956
1.00116 1.00004 0.996927
1.00532 0.997587 0.98848
1.00521 0.995401 0.990776
1.00516 0.994962 0.99117
1.00496 0.999671 0.98686
1.00529 0.997793 0.988299
1.00525 0.995295 0.990801
1.0028 1 0.990003
1.00501 0.999814 0.98658
1.00528 0.998019 0.988049
1.00126 0.999936 0.996926
1.0029 0.999909 0.989908
1.00507 0.999892 0.986351
1.00127 1.00002 0.996987
1.00297 0.999789 0.989916
1.00121 1.00024 0.996986
1.00487 0.999422 0.987251
1.00535 0.997112 0.988977
1.0052 0.99549 0.990784
1.00252 0.999896 0.990632
1.00487 0.99905 0.987593
1.00536 0.997187 0.988926
1.00492 0.999094 0.987456
1.00257 0.999944 0.990469
1.00102 1.00002 0.997007
1.00262 1.00005 0.990257
1.00105 1.00003 0.996983
1.00105 1.00007 0.996971
1.00491 0.999533 0.987103
1.00532 0.997374 0.988712
1.00522 0.995168 0.990975
1.0028 1.00002 0.991559
1.00493 0.999683 0.986865
1.00528 0.997805 0.988299
1.00118 0.999966 0.99693
1.0028 1.00002 0.989997
1.00498 0.999842 0.986577
1.00128 0.999957 0.996943
1.00291 0.999929 0.989903
1.00127 1.00003 0.997
1.00262 0.999895 0.990527
1.00487 0.999262 0.98739
1.00535 0.996944 0.989126
1.00095 0.999983 0.997066
1.00251 0.999892 0.990627
1.00488 0.999033 0.987587
1.00257 0.99992 0.990473
1.00099 1.00001 0.997027
1.00103 1.00004 0.996995
1.00278 0.999962 0.991707
1.00489 0.999538 0.987104
1.00532 0.997155 0.988945
1.00062 1.00001 0.997477
1.00268 1.00003 0.990211
1.00491 0.999692 0.98687
1.00121 0.999973 0.996933
1.00281 1.00004 0.989991
1.00129 0.999972 0.996959
1.00094 0.999947 0.994272
1.00264 0.999899 0.991209
1.00486 0.999102 0.987527
1.00097 0.999986 0.997072
1.00252 0.999892 0.990629
1.00101 0.999996 0.997042
1.00047 0.999995 0.994715
1.00268 0.999946 0.991076
1.00487 0.999549 0.987105
1.00084 0.999996 0.995775
1.00267 1.00003 0.990227
1.00123 0.999978 0.996939
1.00097 0.999972 0.997065
1.00252 0.99989 0.990624
1.00094 0.999986 0.99707
1.00074 0.999968 0.995894
1.00258 0.999938 0.990484
1.00112 0.999989 0.996963
1.00098 0.999973 0.997072
1.00101 0.999979 0.997028

TENSORS stress float
0.00213291 -0.000145144 0.000247727
-0.000145144 0.000996657 -4.08776e-05
0.000247727 -4.08776e-05 0.000970833
0.0066504 3.58215e-05 0.000278384
3.58215e-05 0.00382487 3.10241e-05
0.000278384 3.10241e-05 0.00382745
0.00181505 -7.64585e-05 0.000104879
-7.64585e-05 0.000796947 -1.63048e-05
0.000104879 -1.63048e-05 0.000760207
0.00216469 -8.28521e-05 0.000240424
-8.28521e-05 0.00099205 -2.37859e-05
0.000240424 -2.37859e-05 0.000975499
0.00218341 -0.000128114 0.000242471
-0.000128114 0.00101791 -3.59437e-05
0.000242471 -3.59437e-05 0.000995636
0.00208512 -0.00014712 0.000255832
-0.00014712 0.000968355 -4.23363e-05
0.000255832 -4.23363e-05 0.000942862
0.00181096 -0.000132392 4.75558e-05
-0.000132392 0.00070667 -1.29034e-05
4.75558e-05 -1.29034e-05 0.000598094
0.00659296 2.56695e-05 -7.30453e-06
2.56695e-05 0.00377994 -1.19633e-06
-7.30453e-06 -1.19633e-06 0.00378708
0.00642057 0.000197311 0.000140037
0.000197311 0.00366504 1.30301e-05
0.000140037 1.30301e-05 0.00364058
0.00635068 -5.12835e-05 7.38685e-05
-5.12835e-05 0.00361434 3.59651e-06
7.38685e-05 3.59651e-06 0.00359374
0.00185551 0.0001879 0.000259361
0.0001879 0.000824896 3.22205e-05
0.000259361 3.22205e-05 0.000818015
0.000484344 0.000248419 2.61647e-05
0.000248419 -8.66004e-05 1.95571e-05
2.61647e-05 1.95571e-05 -0.000216483
0.00177508 -3.38775e-05 0.000237859
-3.38775e-05 0.000747294 3.93462e-06
0.000237859 3.93462e-06 0.000747351
0.00145724 1.03193e-06 6.00777e-05
1.03193e-06 0.000571411 1.78392e-06
6.00777e-05 1.78392e-06 0.000526228
0.0015498 -7.58677e-05 -5.42117e-05
-7.58677e-05 0.000639632 9.41866e-06
-5.42117e-05 9.41866e-06 0.000588026
0.00180974 -8.30455e-05 7.93313e-05
-8.30455e-05 0.000787944 -4.81841e-06
7.93313e-05 -4.81841e-06 0.000754687
0.00182806 -6.35651e-05 0.000113861
-6.35651e-05 0.000811655 -1.73836e-05
0.000113861 -1.73836e-05 0.00077116
0.00182399 -8.51728e-05 9.3489e-05
-8.51728e-05 0.000795608 -1.26528e-05
9.3489e-05 -1.26528e-05 0.000762169
0.00186427 -0.000168299 -3.97176e-05
-0.000168299 0.000737606 5.5864e-06
-3.97176e-05 5.5864e-06 0.000638221
0.00607193 -0.000139846 0.000307225
-0.000139846 0.00345848 -1.27103e-05
0.000307225 -1.27103e-05 0.00347463
0.00210547 -6.06469e-05 0.000239114
-6.06469e-05 0.000954466 -1.77139e-05
0.000239114 -1.77139e-05 0.000940533
0.00219794 -0.000106516 0.000240848
-0.000106516 0.00101812 -3.0059e-05
0.000240848 -3.0059e-05 0.000999253
0.00175991 -0.000134237 6.81627e-05
-0.000134237 0.000665653 -1.03918e-05
6.81627e-05 -1.03918e-05 0.000570335
0.00180349 -0.000139346 5.71515e-05
-0.000139346 0.000691935 -1.23838e-05
5.71515e-05 -1.23838e-05 0.000590972
0.00201413 -0.000123639 0.000254271
-0.000123639 0.000916712 -3.89206e-05
0.000254271 -3.89206e-05 0.000894839
0.00180712 -0.00012772 3.96727e-05
-0.00012772 0.000721653 -1.35859e-05
3.96727e-05 -1.35859e-05 0.000602063
0.00208472 -0.000310219 1.65114e-05
-0.000310219 0.000667192 -7.05887e-06
1.65114e-05 -7.05887e-06 0.000464649
0.00655153 1.1331e-05 -0.00027611
1.1331e-05 0.0037445 -2.15061e-05
-0.00027611 -2.15061e-05 0.00375649
0.00416165 0.000147658 -0.000141492
0.000147658 0.00225427 -1.55983e-05
-0.000141492 -1.55983e-05 0.00223225
0.00406892 5.677e-05 -0.000138799
5.677e-05 0.00220823 -1.27584e-05
-0.000138799 -1.27584e-05 0.00218687
0.00649501 -4.49387e-05 -3.91473e-06
-4.49387e-05 0.00373056 -2.92568e-07
-3.91473e-06 -2.92568e-07 0.00373318
0.000466009 0.00023165 -1.42367e-06
0.00023165 -9.53204e-05 -1.08266e-06
-1.42367e-06 -1.08266e-06 -0.000224988
0.00183003 6.72693e-05 0.000246551
6.72693e-05 0.000782882 2.22716e-05
0.000246551 2.22716e-05 0.000769785
0.00196487 0.00015642 0.000252817
0.00015642 0.000899505 3.46385e-05
0.000252817 3.46385e-05 0.000875168
0.00281182 0.000206076 0.000151936
0.000206076 0.00131172 2.15091e-05
0.000151936 2.15091e-05 0.00123132
0.00571359 -0.000315102 4.29353e-06
-0.000315102 0.00331417 5.67278e-06
4.29353e-06 5.67278e-06 0.00325356
0.00293307 0.00028089 0.000155873
0.00028089 0.00142788 2.6632e-05
0.000155873 2.6632e-05 0.00133274
0.000460687 0.000214751 2.68936e-05
0.000214751 -9.68528e-05 2.55768e-05
2.68936e-05 2.55768e-05 -0.000224571
0.000892892 0.000243471 1.27733e-05
0.000243471 3.1214e-05 6.30465e-06
1.27733e-05 6.30465e-06 -0.000179151
0.00447846 -0.00010605 0.000170106
-0.00010605 0.00251625 1.41867e-05
0.000170106 1.41867e-05 0.00251606
0.00604742 8.08209e-05 3.36691e-06
8.08209e-05 0.00343073 -1.78767e-06
3.36691e-06 -1.78767e-06 0.00345388
0.00394112 8.81065e-05 -0.000118124
8.81065e-05 0.00211464 -5.17381e-06
-0.000118124 -5.17381e-06 0.00210288
0.00590504 5.81737e-05 0.000298403
5.81737e-05 0.00334498 4.16772e-06
0.000298403 4.16772e-06 0.00336869
0.00141113 8.71786e-05 6.25611e-05
8.71786e-05 0.000545005 4.20913e-06
6.25611e-05 4.20913e-06 0.000504786
0.000533504 1.12189e-05 1.5382e-05
1.12189e-05 -0.000126734 2.013e-06
1.5382e-05 2.013e-06 -0.000210759
0.00621114 0.000228805 0.000170476
0.000228805 0.00355993 1.62835e-05
0.000170476 1.62835e-05 0.00353466
0.00281584 7.49488e-05 0.000142794
7.49488e-05 0.00128501 9.19913e-06
0.000142794 9.19913e-06 0.00122696
0.00140878 -8.48074e-05 -7.42566e-05
-8.48074e-05 0.000556003 9.33047e-06
-7.42566e-05 9.33047e-06 0.00050532
0.00145179 -0.000105543 -6.69035e-05
-0.000105543 0.00058503 1.12782e-05
-6.69035e-05 1.12782e-05 0.000531169
0.00162841 -3.26117e-05 -4.23572e-05
-3.26117e-05 0.000687838 8.30615e-06
-4.23572e-05 8.30615e-06 0.000635564
0.00189749 -0.000170965 -0.000133453
-0.000170965 0.000751022 2.39858e-05
-0.000133453 2.39858e-05 0.000662444
0.00380103 -1.63359e-05 -0.00012026
-1.63359e-05 0.00203725 -1.79648e-06
-0.00012026 -1.79648e-06 0.00202496
0.00177791 -6.47441e-05 8.44983e-05
-6.47441e-05 0.000764196 -3.90054e-06
8.44983e-05 -3.90054e-06 0.000734769
0.00178125 -4.08635e-05 0.00011797
-4.08635e-05 0.000785683 -1.58221e-05
0.00011797 -1.58221e-05 0.000744178
0.00182077 -8.49847e-05 8.47899e-05
-8.49847e-05 0.000792449 -8.26753e-06
8.47899e-05 -8.26753e-06 0.000759842
0.00183324 -0.000112508 -3.18391e-05
-0.000112508 0.000700939 2.11923e-06
-3.18391e-05 2.11923e-06 0.000616664
0.00185461 -0.000169888 -4.59534e-05
-0.000169888 0.000743209 6.32041e-06
-4.59534e-05 6.32041e-06 0.00063658
0.00185871 -0.00015669 -3.42522e-05
-0.00015669 0.000725815 3.95914e-06
-3.42522e-05 3.95914e-06 0.000632428
0.00206248 -0.000309401 -9.39391e-06
-0.000309401 0.00064872 2.52321e-06
-9.39391e-06 2.52321e-06 0.000446596
0.00589366 9.87219e-06 0.000294408
9.87219e-06 0.00333592 -1.90946e-06
0.000294408 -1.90946e-06 0.00336089
0.00204203 -3.6814e-05 0.000235134
-3.6814e-05 0.000918633 -1.22094e-05
0.000235134 -1.22094e-05 0.000908155
0.0024519 -5.75955e-06 5.03306e-05
-5.75955e-06 0.00108423 -9.62809e-07
5.03306e-05 -9.62809e-07 0.00101679
0.00173162 -0.000109295 6.08854e-05
-0.000109295 0.000641581 -6.91793e-06
6.08854e-05 -6.91793e-06 0.000554045
0.00177628 -0.000138288 6.42216e-05
-0.000138288 0.000674286 -1.17846e-05
6.42216e-05 -1.17846e-05 0.000576712
0.00189319 -0.000199216 1.10749e-05
-0.000199216 0.000476906 -2.79789e-06
1.10749e-05 -2.79789e-06 0.000315837
0.00188527 -0.000270303 1.63474e-05
-0.000270303 0.00050384 -5.32549e-06
1.63474e-05 -5.32549e-06 0.00031803
0.00180017 -8.08576e-05 0.000230752
-8.08576e-05 0.000784796 -3.06009e-05
0.000230752 -3.06009e-05 0.00076754
0.00172029 -9.37254e-05 3.04281e-05
-9.37254e-05 0.000685977 -1.31163e-05
3.04281e-05 -1.31163e-05 0.000564637
0.00209947 -0.000335249 1.67435e-05
-0.000335249 0.000719655 -8.15216e-06
1.67435e-05 -8.15216e-06 0.000503053
0.00162524 -0.000395028 5.9874e-06
-0.000395028 0.000168278 -5.14854e-07
5.9874e-06 -5.14854e-07 -8.11654e-05
0.00676763 0.000253988 -0.000331589
0.000253988 0.0038816 -3.60459e-05
-0.000331589 -3.60459e-05 0.00388653
0.00641131 -7.0994e-05 -0.000248058
-7.0994e-05 0.00367995 -1.71799e-05
-0.000248058 -1.71799e-05 0.00368414
0.0065979 8.87755e-05 -0.000292254
8.87755e-05 0.00376553 -2.60621e-05
-0.000292254 -2.60621e-05 0.0037801
0.000424629 0.00022241 -2.48275e-05
0.00022241 -0.000115209 -1.98873e-05
-2.48275e-05 -1.98873e-05 -0.000247107
0.00668224 0.000233152 -2.44306e-06
0.000233152 0.00382453 -2.34301e-06
-2.44306e-06 -2.34301e-06 0.00383347
0.00677301 0.000200851 -9.03583e-06
0.000200851 0.00387839 -2.77475e-06
-9.03583e-06 -2.77475e-06 0.00388629
0.000374903 0.000130333 2.08611e-07
0.000130333 -0.000209024 -3.18566e-07
2.08611e-07 -3.18566e-07 -0.00032003
0.00356214 -0.000103719 -0.000114213
-0.000103719 0.00194057 -4.01953e-06
-0.000114213 -4.01953e-06 0.00190623
0.000376915 0.000207083 2.87068e-07
0.000207083 -0.00016082 -4.66677e-07
2.87068e-07 -4.66677e-07 -0.000288757
0.00174154 0.000220543 5.51773e-05
0.000220543 0.000704146 3.1033e-06
5.51773e-05 3.1033e-06 0.000597653
0.000838804 0.000237167 3.68327e-07
0.000237167 2.15259e-06 -5.85499e-09
3.68327e-07 -5.85499e-09 -0.000206147
0.00544328 -0.000129328 0.000202898
-0.000129328 0.00312669 2.07203e-05
0.000202898 2.07203e-05 0.00311576
0.000565667 4.46919e-05 1.35157e-05
4.46919e-05 2.81198e-05 1.3114e-05
1.35157e-05 1.3114e-05 -4.25227e-05
0.000472946 9.99617e-05 1.5404e-05
9.99617e-05 -0.00016729 1.00078e-05
1.5404e-05 1.00078e-05 -0.000272257
0.000506003 0.000159157 2.00422e-05
0.000159157 -0.000113893 1.76837e-05
2.00422e-05 1.76837e-05 -0.000232094
0.00112892 0.00023215 1.50079e-05
0.00023215 6.83486e-06 5.40037e-06
1.50079e-05 5.40037e-06 -0.000185391
0.00296546 0.000192005 0.000138518
0.000192005 0.00148104 1.89733e-05
0.000138518 1.89733e-05 0.00140371
0.000962017 0.000253201 1.43114e-05
0.000253201 6.43614e-06 6.62456e-06
1.43114e-05 6.62456e-06 -0.000201139
0.000817246 0.000239675 1.19768e-05
0.000239675 6.63643e-05 6.01764e-06
1.19768e-05 6.01764e-06 -0.000148779
0.00117723 0.00037835 1.86851e-06
0.00037835 0.000110037 -8.93402e-07
1.86851e-06 -8.93402e-07 -0.000171196
0.00348731 -0.000122103 0.000105597
-0.000122103 0.00188778 6.10267e-06
0.000105597 6.10267e-06 0.00188693
0.00407078 -0.00016034 2.14987e-05
-0.00016034 0.00227048 -4.56969e-07
2.14987e-05 -4.56969e-07 0.0022578
0.00648605 5.81071e-05 -0.000315479
5.81071e-05 0.0036888 -1.54996e-05
-0.000315479 -1.54996e-05 0.00371063
0.0061494 7.19471e-05 -0.000309099
7.19471e-05 0.00348996 -9.49174e-06
-0.000309099 -9.49174e-06 0.00351433
0.005994 8.37968e-05 -3.46207e-08
8.37968e-05 0.00340542 -3.69905e-06
-3.46207e-08 -3.69905e-06 0.00342581
0.00381919 3.09049e-05 -0.000129466
3.09049e-05 0.00203834 -6.61053e-06
-0.000129466 -6.61053e-06 0.00203176
0.00160497 3.81577e-05 6.14337e-05
3.81577e-05 0.000541122 1.64958e-06
6.14337e-05 1.64958e-06 0.000473695
0.00410714 0.00014582 -0.000120829
0.00014582 0.00222264 -7.04398e-06
-0.000120829 -7.04398e-06 0.00220322
0.00166766 9.17881e-05 6.28341e-05
9.17881e-05 0.000574259 3.0442e-06
6.28341e-05 3.0442e-06 0.000496374
0.0059517 0.000123849 0.000301304
0.000123849 0.0033882 7.21108e-06
0.000301304 7.21108e-06 0.00340345
0.000439245 1.05801e-05 1.85825e-05
1.05801e-05 -0.000179992 1.00955e-06
1.85825e-05 1.00955e-06 -0.000261
0.00279933 3.8494e-05 0.000140661
3.8494e-05 0.0012774 6.22467e-06
0.000140661 6.22467e-06 0.00122509
0.00111 6.11153e-05 1.20375e-05
6.11153e-05 -3.04028e-05 9.49988e-07
1.20375e-05 9.49988e-07 -0.000162751
0.00274998 0.000119035 0.000147887
0.000119035 0.00124869 1.20562e-05
0.000147887 1.20562e-05 0.00118417
0.00119268 0.000138664 1.22241e-05
0.000138664 4.15482e-06 2.15543e-06
1.22241e-05 2.15543e-06 -0.000149729
0.00180086 4.265e-05 -0.000237229
4.265e-05 0.000761886 2.86432e-06
-0.000237229 2.86432e-06 0.000763552
0.00141293 -1.53508e-05 -6.08567e-05
-1.53508e-05 0.000550027 2.70658e-06
-6.08567e-05 2.70658e-06 0.000504915
0.00162819 4.11917e-06 -3.41585e-05
4.11917e-06 0.000692376 7.94732e-06
-3.41585e-05 7.94732e-06 0.000638554
0.00140693 -9.97621e-05 -7.52082e-05
-9.97621e-05 0.00055724 1.12593e-05
-7.52082e-05 1.12593e-05 0.000505085
0.00195635 -9.16253e-05 -0.000127712
-9.16253e-05 0.000767393 1.18518e-05
-0.000127712 1.18518e-05 0.00069421
0.00194255 -0.00014406 -0.000130294
-0.00014406 0.00076786 2.01611e-05
-0.000130294 2.01611e-05 0.000686226
0.00185841 -0.000185273 -0.000136826
-0.000185273 0.000738033 2.58182e-05
-0.000136826 2.58182e-05 0.000642747
0.0020322 -0.000307582 -3.22501e-05
-0.000307582 0.000625559 1.09908e-05
-3.22501e-05 1.09908e-05 0.000424256
0.00599025 -0.000103505 2.29927e-06
-0.000103505 0.00340744 -1.83748e-06
2.29927e-06 -1.83748e-06 0.00342506
0.00168772 3.14103e-05 9.16634e-05
3.14103e-05 0.000702347 -4.40229e-06
9.16634e-05 -4.40229e-06 0.000680916
0.00115382 -9.67884e-06 -6.46611e-05
-9.67884e-06 0.000266104 1.85238e-06
-6.46611e-05 1.85238e-06 0.0001973
0.00180526 -7.34475e-05 -3.50852e-05
-7.34475e-05 0.000680115 2.746e-06
-3.50852e-05 2.746e-06 0.00060175
0.00421887 -2.59726e-05 0.000237568
-2.59726e-05 0.00231059 -1.45625e-05
0.000237568 -1.45625e-05 0.00230242
0.00238994 -0.000173486 -4.12288e-05
-0.000173486 0.00108952 3.30372e-06
-4.12288e-05 3.30372e-06 0.000980602
0.00184896 -0.00013609 -3.14913e-05
-0.00013609 0.000714354 2.78302e-06
-3.14913e-05 2.78302e-06 0.00062606
0.00194462 -0.000198866 -9.92779e-06
-0.000198866 0.000504693 1.85371e-06
-9.92779e-06 1.85371e-06 0.000346324
0.00205051 -0.000335307 -8.1625e-06
-0.000335307 0.000683683 2.40273e-06
-8.1625e-06 2.40273e-06 0.000466511
0.00196766 -0.000273842 -7.86828e-06
-0.000273842 0.00055608 2.08067e-06
-7.86828e-06 2.08067e-06 0.00036923
0.001662 -0.00039708 6.81456e-07
-0.00039708 0.000192357 -1.94159e-07
6.81456e-07 -1.94159e-07 -5.66252e-05
0.00047931 1.01398e-05 1.93883e-05
1.01398e-05 -0.000159124 -7.04345e-07
1.93883e-05 -7.04345e-07 -0.000236872
0.00164814 -1.37987e-06 5.14713e-05
-1.37987e-06 0.000580778 -2.70635e-06
5.14713e-05 -2.70635e-06 0.000505227
0.00179525 -6.42064e-05 1.09695e-05
-6.42064e-05 0.000402382 -4.59952e-07
1.09695e-05 -4.59952e-07 0.000282639
0.00180567 -0.000156658 1.09376e-05
-0.000156658 0.0004105 -1.70505e-06
1.09376e-05 -1.70505e-06 0.000265354
0.0018558 -0.000233671 1.3921e-05
-0.000233671 0.000458567 -3.59584e-06
1.3921e-05 -3.59584e-06 0.000288086
0.00186044 -0.00027666 2.60253e-07
-0.00027666 0.000194727 2.12877e-10
2.60253e-07 2.12877e-10 2.2465e-05
0.00595879 0.000120948 0.000204331
0.000120948 0.00342438 -1.5432e-05
0.000204331 -1.5432e-05 0.00341622
0.00163354 -0.000363872 4.5784e-06
-0.000363872 0.000125998 -4.1033e-07
4.5784e-06 -4.1033e-07 -9.81957e-05
0.00027988 -0.000171579 2.05874e-05
-0.000171579 -0.000215216 -1.96513e-05
2.05874e-05 -1.96513e-05 -0.000327288
0.00090057 -0.000254828 1.33603e-05
-0.000254828 3.06723e-05 -8.53961e-06
1.33603e-05 -8.53961e-06 -0.000186376
0.00169267 -0.000438409 7.52839e-06
-0.000438409 0.000271775 -1.24342e-06
7.52839e-06 -1.24342e-06 -9.43534e-06
0.00187305 -0.000468536 2.53109e-06
-0.000468536 0.00021195 2.00422e-06
2.53109e-06 2.00422e-06 -2.9892e-05
0.000473958 -0.000134238 2.20058e-05
-0.000134238 -5.76022e-05 -1.57878e-05
2.20058e-05 -1.57878e-05 -0.000152495
0.000439819 -0.000110834 -2.60769e-07
-0.000110834 -1.61082e-05 -8.11256e-07
-2.60769e-07 -8.11256e-07 -0.000250693
0.00675262 0.00025635 -0.000341564
0.00025635 0.00387394 -3.45643e-05
-0.000341564 -3.45643e-05 0.00387968
0.00671256 0.000186272 -0.000314405
0.000186272 0.00383902 -3.22845e-05
-0.000314405 -3.22845e-05 0.00385047
0.000375977 0.000127964 -1.83991e-05
0.000127964 -0.000210223 -1.2414e-05
-1.83991e-05 -1.2414e-05 -0.000321522
0.00570739 -0.000143541 -0.000193626
-0.000143541 0.00327727 -1.38335e-05
-0.000193626 -1.38335e-05 0.00326772
0.000381713 0.000194145 -2.3686e-05
0.000194145 -0.000146761 -1.93869e-05
-2.3686e-05 -1.93869e-05 -0.000259936
0.00038033 0.000194457 -2.09185e-05
0.000194457 -0.000157157 -1.81732e-05
-2.09185e-05 -1.81732e-05 -0.000286361
0.000847369 0.000234605 -1.38241e-05
0.000234605 1.09988e-05 -7.06011e-06
-1.38241e-05 -7.06011e-06 -0.000195721
0.00510207 -0.000131251 3.70369e-06
-0.000131251 0.00290804 3.02888e-07
3.70369e-06 3.02888e-07 0.0029007
0.000521135 3.28191e-05 1.39352e-06
3.28191e-05 5.21761e-06 4.87983e-07
1.39352e-06 4.87983e-07 -6.14195e-05
0.00167825 0.000140685 6.48058e-05
0.000140685 0.000587442 5.49663e-06
6.48058e-05 5.49663e-06 0.000497117
0.00165505 0.000201774 6.49921e-05
0.000201774 0.000608246 6.07543e-06
6.49921e-05 6.07543e-06 0.000503455
0.00109031 0.000230301 6.91413e-08
0.000230301 -1.05178e-05 -3.02514e-07
6.91413e-08 -3.02514e-07 -0.000203398
0.000455544 0.000166561 3.72178e-08
0.000166561 -8.3765e-05 -4.29681e-07
3.72178e-08 -4.29681e-07 -0.000183726
0.000950594 0.000248883 7.46177e-07
0.000248883 7.66484e-06 6.06668e-08
7.46177e-07 6.06668e-08 -0.000198669
0.000831408 0.000231241 7.73391e-08
0.000231241 6.76615e-05 -6.38894e-07
7.73391e-08 -6.38894e-07 -0.000143285
0.00131215 0.000398871 -1.4072e-07
0.000398871 0.000182516 -3.42084e-07
-1.4072e-07 -3.42084e-07 -0.000102283
0.000422663 0.000115498 1.81581e-05
0.000115498 -7.30233e-05 1.58954e-05
1.81581e-05 1.58954e-05 -0.000165506
0.000670542 -3.02781e-06 7.25019e-06
-3.02781e-06 0.000100741 1.10031e-05
7.25019e-06 1.10031e-05 5.06297e-05
0.00127132 0.000168928 4.89963e-06
0.000168928 0.000503714 5.83052e-06
4.89963e-06 5.83052e-06 0.000298727
0.00117368 0.000206075 1.3985e-05
0.000206075 6.30131e-06 4.13062e-06
1.3985e-05 4.13062e-06 -0.00017417
0.00106722 0.000250811 1.51495e-05
0.000250811 1.2231e-05 6.33922e-06
1.51495e-05 6.33922e-06 -0.000189713
0.00181786 0.000391106 3.9375e-06
0.000391106 0.000214157 1.43202e-07
3.9375e-06 1.43202e-07 -1.45383e-05
0.000751716 0.000219382 9.52816e-06
0.000219382 8.04296e-05 6.06201e-06
9.52816e-06 6.06201e-06 -0.000130881
0.00166373 0.000441784 3.62132e-06
0.000441784 0.000289371 -3.74704e-07
3.62132e-06 -3.74704e-07 1.42549e-05
0.00101862 0.000346946 1.3509e-06
0.000346946 8.57608e-05 -4.92344e-07
1.3509e-06 -4.92344e-07 -0.000200414
0.00151405 0.000491011 -5.99173e-06
0.000491011 0.000211275 -3.56268e-06
-5.99173e-06 -3.56268e-06 -9.74581e-05
0.00307628 -0.000130549 6.45051e-05
-0.000130549 0.00162556 3.64158e-06
6.45051e-05 3.64158e-06 0.00162257
0.00340367 -0.000156384 1.32428e-05
-0.000156384 0.00184191 -8.449e-07
1.32428e-05 -8.449e-07 0.00183167
0.00381064 -0.000191968 -7.85819e-05
-0.000191968 0.0021127 -5.32851e-06
-7.85819e-05 -5.32851e-06 0.0020916
0.000448857 -0.000111519 1.99668e-05
-0.000111519 -5.69576e-05 -1.43353e-05
1.99668e-05 -1.43353e-05 -0.000137087
0.00533705 0.000165404 0.000163916
0.000165404 0.00306828 -1.62528e-05
0.000163916 -1.62528e-05 0.00304772
0.00666785 0.00021676 -0.000340239
0.00021676 0.00381626 -2.87363e-05
-0.000340239 -2.87363e-05 0.00382793
0.00626002 9.30307e-05 -0.000311524
9.30307e-05 0.00355499 -1.33515e-05
-0.000311524 -1.33515e-05 0.00357785
0.000447755 9.77459e-05 -1.95082e-05
9.77459e-05 -0.000183371 -5.73986e-06
-1.95082e-05 -5.73986e-06 -0.000277337
0.000440479 4.34644e-05 -1.91875e-05
4.34644e-05 -0.000180369 -2.87286e-06
-1.91875e-05 -2.87286e-06 -0.000265217
0.00593948 -6.79392e-06 -0.000295649
-6.79392e-06 0.0033625 -2.51575e-06
-0.000295649 -2.51575e-06 0.0033877
0.00588705 7.14638e-06 -1.60719e-07
7.14638e-06 0.00333128 -9.57804e-07
-1.60719e-07 -9.57804e-07 0.00335654
0.000420752 8.84319e-07 -1.03635e-07
8.84319e-07 -0.000194262 1.27618e-07
-1.03635e-07 1.27618e-07 -0.000273451
0.00160179 3.95739e-05 6.23359e-05
3.95739e-05 0.000532986 2.71553e-06
6.23359e-05 2.71553e-06 0.000463185
0.0010768 6.45923e-05 -9.24886e-08
6.45923e-05 -5.38739e-05 -7.31208e-08
-9.24886e-08 -7.31208e-08 -0.000187056
0.000411318 8.36664e-05 -4.86522e-07
8.36664e-05 -0.000205258 -4.00207e-07
-4.86522e-07 -4.00207e-07 -0.000305537
0.001117 0.000138935 -2.47449e-07
0.000138935 -4.27911e-05 -1.53819e-07
-2.47449e-07 -1.53819e-07 -0.000197848
0.000414358 -3.13119e-05 1.918e-05
-3.13119e-05 -0.000199744 -7.19233e-07
1.918e-05 -7.19233e-07 -0.000276404
0.00106274 2.62905e-05 1.17361e-05
2.62905e-05 -4.94622e-05 5.34315e-07
1.17361e-05 5.34315e-07 -0.000176769
0.00113543 9.96857e-05 1.19258e-05
9.96857e-05 -2.50035e-05 1.53407e-06
1.19258e-05 1.53407e-06 -0.000166787
0.0018169 0.000105059 -8.29828e-08
0.000105059 9.0166e-05 -4.07314e-07
-8.29828e-08 -4.07314e-07 -1.94535e-05
0.00119469 0.000173486 1.28886e-05
0.000173486 7.2916e-06 3.00973e-06
1.28886e-05 3.00973e-06 -0.000159755
0.00186811 0.000231944 8.17864e-07
0.000231944 0.000127767 -5.44452e-07
8.17864e-07 -5.44452e-07 -1.71052e-05
0.00590604 -6.47267e-05 -0.00030027
-6.47267e-05 0.00334939 2.79095e-06
-0.00030027 2.79095e-06 0.00337101
0.00135058 -0.000154742 -6.19161e-05
-0.000154742 0.000526351 7.38333e-06
-6.19161e-05 7.38333e-06 0.000477303
-0.000262893 -5.76913e-06 -1.2065e-05
-5.76913e-06 -0.000611459 1.80083e-06
-1.2065e-05 1.80083e-06 -0.000705264
0.00191768 -6.53579e-05 -0.000126151
-6.53579e-05 0.000743304 8.39372e-06
-0.000126151 8.39372e-06 0.000674062
0.00631658 0.000278531 -2.31518e-05
0.000278531 0.00365386 4.06941e-06
-2.31518e-05 4.06941e-06 0.00360089
0.00303309 -0.000260058 -0.000140652
-0.000260058 0.00148598 2.68227e-05
-0.000140652 2.68227e-05 0.00138227
0.001962 -0.000117436 -0.000128652
-0.000117436 0.000773346 1.58468e-05
-0.000128652 1.58468e-05 0.000696836
0.00197137 -0.000197098 -3.00658e-05
-0.000197098 0.000516977 5.49568e-06
-3.00658e-05 5.49568e-06 0.00036158
0.00202407 -0.00027548 -3.13405e-05
-0.00027548 0.000591486 9.44374e-06
-3.13405e-05 9.44374e-06 0.000404077
0.00202106 -0.000336319 -3.00666e-05
-0.000336319 0.000660837 1.17943e-05
-3.00666e-05 1.17943e-05 0.00044297
0.00170078 -0.00039929 -4.35733e-06
-0.00039929 0.000217866 2.23306e-07
-4.35733e-06 2.23306e-07 -3.06881e-05
0.000418567 4.92056e-06 -4.73178e-08
4.92056e-06 -0.00019471 2.91808e-07
-4.73178e-08 2.91808e-07 -0.000273456
0.00178161 -8.44854e-05 -3.38846e-05
-8.44854e-05 0.000669344 4.54167e-07
-3.38846e-05 4.54167e-07 0.000595461
0.00143325 -5.97468e-05 -1.02098e-05
-5.97468e-05 0.000177597 6.39129e-07
-1.02098e-05 6.39129e-07 5.34034e-05
0.00189072 -0.000157225 -8.6137e-06
-0.000157225 0.000462901 1.35709e-06
-8.6137e-06 1.35709e-06 0.000316789
0.00620241 0.000119763 5.4692e-06
0.000119763 0.00357897 7.25806e-07
5.4692e-06 7.25806e-07 0.00356866
0.0016835 -0.000172387 3.74497e-06
-0.000172387 0.000671195 5.59782e-07
3.74497e-06 5.59782e-07 0.000549333
0.00136768 -0.000289305 1.34629e-06
-0.000289305 0.000323179 -1.07876e-06
1.34629e-06 -1.07876e-06 0.000102812
0.00190038 -0.000236454 -8.61494e-06
-0.000236454 0.000485786 2.1399e-06
-8.61494e-06 2.1399e-06 0.000314701
0.00186646 -0.000279729 -7.6894e-07
-0.000279729 0.000194241 4.09294e-08
-7.6894e-07 4.09294e-08 2.68876e-05
0.00169133 -0.000437122 1.157e-06
-0.000437122 0.000274632 -3.34553e-07
1.157e-06 -3.34553e-07 -4.98376e-06
0.00176401 -0.000369287 5.72507e-07
-0.000369287 0.000209814 -1.49761e-07
5.72507e-07 -1.49761e-07 -1.45376e-05
0.00190674 -0.000469475 7.48593e-07
-0.000469475 0.000237235 4.07645e-08
7.48593e-07 4.07645e-08 -4.30011e-06
0.000477189 -0.000141606 1.82408e-06
-0.000141606 -5.81615e-05 5.78905e-07
1.82408e-06 5.78905e-07 -0.000154836
0.000716871 -0.00014741 5.04149e-07
-0.00014741 0.000137064 1.26205e-07
5.04149e-07 1.26205e-07 -8.41377e-05
0.00106309 -2.9417e-05 1.1908e-05
-2.9417e-05 -4.34478e-05 -5.20315e-07
1.1908e-05 -5.20315e-07 -0.000171272
0.00185334 -0.000106856 9.94789e-06
-0.000106856 0.000440016 -9.4733e-07
9.94789e-06 -9.4733e-07 0.000310165
0.00181349 -0.000107618 -3.49178e-07
-0.000107618 0.000115554 3.37757e-07
-3.49178e-07 3.37757e-07 -1.82108e-06
0.00179214 -0.000225779 -4.24766e-07
-0.000225779 0.000125482 8.68087e-07
-4.24766e-07 8.68087e-07 -1.60726e-05
0.0017875 -0.000330428 9.89255e-07
-0.000330428 0.000178709 4.37663e-07
9.89255e-07 4.37663e-07 -1.54783e-05
0.00206591 -0.000325321 1.61051e-06
-0.000325321 0.000201204 -9.08918e-08
1.61051e-06 -9.08918e-08 6.1499e-05
0.000384657 -0.000156483 2.01711e-05
-0.000156483 -0.000127308 -1.87343e-05
2.01711e-05 -1.87343e-05 -0.000235211
0.00192732 -0.000431431 1.00086e-06
-0.000431431 0.000199716 1.68983e-06
1.00086e-06 1.68983e-06 -4.01204e-06
0.000593572 -0.000224987 9.43596e-06
-0.000224987 -7.61125e-05 -7.89391e-06
9.43596e-06 -7.89391e-06 -0.000290218
0.00137633 -0.000440224 1.02791e-05
-0.000440224 0.000172021 -1.93458e-06
1.02791e-05 -1.93458e-06 -0.000134422
0.00206532 -0.000528952 2.78501e-06
-0.000528952 0.000396148 1.24048e-06
2.78501e-06 1.24048e-06 0.000104426
0.00219168 -0.000506655 -1.64389e-06
-0.000506655 0.000365939 4.26484e-06
-1.64389e-06 4.26484e-06 0.000152183
0.000646934 -0.000203827 2.12077e-06
-0.000203827 7.35256e-05 -3.54073e-06
2.12077e-06 -3.54073e-06 -0.000168862
0.000547013 -0.000110832 7.74781e-07
-0.000110832 4.34443e-05 -2.64296e-06
7.74781e-07 -2.64296e-06 -0.000138514
0.000966641 -0.00026348 -1.41341e-06
-0.00026348 0.000290365 1.97944e-06
-1.41341e-06 1.97944e-06 3.46567e-06
0.000398692 0.000106171 -1.78349e-05
0.000106171 -0.000208299 -9.47481e-06
-1.78349e-05 -9.47481e-06 -0.000314425
0.00467696 -0.000196901 -0.000126482
-0.000196901 0.00266559 -1.08429e-05
-0.000126482 -1.08429e-05 0.00264128
0.000334729 2.16533e-05 -8.46058e-06
2.16533e-05 -0.000105824 -1.2552e-05
-8.46058e-06 -1.2552e-05 -0.000168509
0.000365015 0.000159996 -1.97505e-05
0.000159996 -0.00019386 -1.55449e-05
-1.97505e-05 -1.55449e-05 -0.000313447
0.00105245 0.000228685 -1.56197e-05
0.000228685 -2.74917e-05 -6.0162e-06
-1.56197e-05 -6.0162e-06 -0.000221038
0.000533633 0.000155955 -2.31222e-05
0.000155955 -3.67761e-05 -1.78546e-05
-2.31222e-05 -1.78546e-05 -0.000135002
0.00060722 0.000212189 -1.05341e-05
0.000212189 -7.27201e-05 -6.93668e-06
-1.05341e-05 -6.93668e-06 -0.000278779
0.000934215 0.000244326 -1.43929e-05
0.000244326 5.73667e-06 -7.04292e-06
-1.43929e-05 -7.04292e-06 -0.000199347
0.0014053 0.000415414 -3.57195e-06
0.000415414 0.000228173 6.77835e-08
-3.57195e-06 6.77835e-08 -5.93995e-05
0.000534097 0.000107139 4.71295e-07
0.000107139 -9.3771e-06 1.18906e-06
4.71295e-07 1.18906e-06 -9.56043e-05
0.000405218 -2.31316e-05 2.35673e-07
-2.31316e-05 -5.48805e-05 5.39785e-07
2.35673e-07 5.39785e-07 -0.000107224
0.000663844 0.000103289 2.44345e-06
0.000103289 0.000113545 -5.82707e-07
2.44345e-06 -5.82707e-07 -7.49357e-05
0.00113021 0.000205417 -1.71892e-07
0.000205417 -1.60351e-05 -3.32426e-07
-1.71892e-07 -3.32426e-07 -0.000197561
0.00102937 0.00024656 2.71759e-07
0.00024656 -2.89474e-06 -1.82274e-07
2.71759e-07 -1.82274e-07 -0.000204472
0.00179101 0.000389391 -1.36633e-07
0.000389391 0.000195981 -1.18738e-07
-1.36633e-07 -1.18738e-07 -3.29563e-05
0.000707045 0.000220853 -3.87654e-07
0.000220853 5.41581e-05 -2.71429e-07
-3.87654e-07 -2.71429e-07 -0.00015641
0.00165924 0.00043965 -2.33941e-07
0.00043965 0.000280931 -3.03507e-07
-2.33941e-07 -3.03507e-07 5.16526e-06
0.00116649 0.000360946 8.95041e-07
0.000360946 0.000182239 -9.52748e-07
8.95041e-07 -9.52748e-07 -0.000105914
0.00148864 0.000500339 -3.97836e-07
0.000500339 0.000179653 1.42066e-06
-3.97836e-07 1.42066e-06 -0.000129875
0.000547489 -3.06585e-05 1.70623e-06
-3.06585e-05 2.88333e-05 8.84203e-06
1.70623e-06 8.84203e-06 -1.27572e-05
0.00105263 0.000177409 5.1926e-06
0.000177409 0.00032691 5.01224e-06
5.1926e-06 5.01224e-06 0.000110911
0.000888313 6.86071e-05 1.42713e-06
6.86071e-05 0.000239988 6.13317e-06
1.42713e-06 6.13317e-06 0.000101464
0.00106732 0.000166423 2.00217e-06
0.000166423 0.000397056 1.90275e-07
2.00217e-06 1.90275e-07 0.000128235
0.00187503 0.000348791 1.76388e-06
0.000348791 0.000190557 -1.19231e-06
1.76388e-06 -1.19231e-06 -8.90168e-06
0.00172676 0.00042258 4.43896e-06
0.00042258 0.000233226 3.48629e-07
4.43896e-06 3.48629e-07 -2.27539e-05
0.00203438 0.00046103 4.60931e-07
0.00046103 0.000248835 -7.2958e-07
4.60931e-07 -7.2958e-07 2.84442e-05
0.000867856 0.000277138 2.45342e-06
0.000277138 4.70374e-05 2.32166e-06
2.45342e-06 2.32166e-06 -0.00020447
0.00215395 0.000571519 -3.37165e-06
0.000571519 0.000471892 -1.43887e-06
-3.37165e-06 -1.43887e-06 0.000178341
0.0017251 0.000517553 -3.39368e-06
0.000517553 0.000448337 -4.45017e-06
-3.39368e-06 -4.45017e-06 9.84638e-05
0.00176962 0.000545751 -8.52651e-07
0.000545751 0.000257474 -8.59423e-07
-8.52651e-07 -8.59423e-07 -4.71395e-05
0.000563535 3.97762e-05 2.57395e-06
3.97762e-05 4.46653e-05 3.84967e-06
2.57395e-06 3.84967e-06 -2.5042e-05
0.000482059 -2.47175e-05 1.68494e-06
-2.47175e-05 -3.03579e-05 6.56598e-06
1.68494e-06 6.56598e-06 -5.75166e-05
0.00275761 -0.000121331 4.0934e-05
-0.000121331 0.00141863 3.83804e-06
4.0934e-05 3.83804e-06 0.00141793
0.00295961 -0.000142866 7.88469e-06
-0.000142866 0.00155523 -7.87487e-07
7.88469e-06 -7.87487e-07 0.00154855
0.00324252 -0.000170152 -5.19327e-05
-0.000170152 0.00174402 -3.71831e-06
-5.19327e-05 -3.71831e-06 0.00172932
0.000354817 -8.78219e-05 1.41536e-05
-8.78219e-05 -9.55927e-05 -1.41659e-05
1.41536e-05 -1.41659e-05 -0.000163603
0.00486361 0.000174762 0.000136384
0.000174762 0.00277767 -1.46238e-05
0.000136384 -1.46238e-05 0.00275594
0.000498398 -0.00010982 1.21566e-07
-0.00010982 -2.57489e-05 3.20285e-07
1.21566e-07 3.20285e-07 -0.000111876
0.00559351 0.000140134 1.94373e-06
0.000140134 0.00321798 4.61883e-07
1.94373e-06 4.61883e-07 0.00320297
0.000439773 0.000109295 -1.91846e-05
0.000109295 -0.000185086 -7.576e-06
-1.91846e-05 -7.576e-06 -0.000287387
0.000458578 3.49568e-05 -1.81882e-05
3.49568e-05 -0.000176777 -3.66322e-06
-1.81882e-05 -3.66322e-06 -0.000263896
0.0010705 0.00013939 -1.20896e-05
0.00013939 -7.33793e-05 -2.41588e-06
-1.20896e-05 -2.41588e-06 -0.000229439
0.00104899 6.68708e-05 -1.20011e-05
6.68708e-05 -7.38282e-05 -1.01027e-06
-1.20011e-05 -1.01027e-06 -0.000207651
0.000475005 -7.61809e-06 -1.92732e-05
-7.61809e-06 -0.000163875 -9.91479e-07
-1.92732e-05 -9.91479e-07 -0.000241253
0.00597963 -9.94804e-05 -0.000307098
-9.94804e-05 0.00340002 5.25224e-06
-0.000307098 5.25224e-06 0.00341939
0.000461818 -2.13589e-06 7.97835e-08
-2.13589e-06 -0.000171098 -6.57874e-07
7.97835e-08 -6.57874e-07 -0.000247698
0.00104892 3.16189e-05 -7.85698e-08
3.16189e-05 -5.96262e-05 4.72921e-08
-7.85698e-08 4.72921e-08 -0.000187389
0.00110952 0.000101445 -2.03983e-07
0.000101445 -4.36559e-05 -9.40208e-08
-2.03983e-07 -9.40208e-08 -0.000186287
0.00179914 0.000103049 -8.53032e-08
0.000103049 8.4116e-05 1.6375e-07
-8.53032e-08 1.6375e-07 -2.54319e-05
0.00113984 0.000174387 -3.54879e-07
0.000174387 -2.55818e-05 -2.38932e-07
-3.54879e-07 -2.38932e-07 -0.000194074
0.00184664 0.000230841 -1.90458e-07
0.000230841 0.000113334 1.24192e-07
-1.90458e-07 1.24192e-07 -3.18226e-05
0.00104323 -3.31283e-06 1.17575e-05
-3.31283e-06 -5.57284e-05 -1.78201e-07
1.17575e-05 -1.78201e-07 -0.000182191
0.00176499 4.8741e-05 4.42379e-07
4.8741e-05 6.22805e-05 -4.94837e-08
4.42379e-07 -4.94837e-08 -3.90981e-05
0.00183039 0.000165944 -2.52922e-07
0.000165944 0.000101729 -5.82712e-07
-2.52922e-07 -5.82712e-07 -2.24587e-05
0.00195483 0.000131375 3.1073e-06
0.000131375 5.58758e-05 1.13494e-06
3.1073e-06 1.13494e-06 -4.20287e-06
0.00190267 0.000296586 1.56738e-06
0.000296586 0.000162531 -6.82682e-07
1.56738e-06 -6.82682e-07 -8.42228e-06
0.00204501 0.000265569 2.41196e-06
0.000265569 0.00012252 -5.49166e-07
2.41196e-06 -5.49166e-07 1.41805e-05
0.000446157 -2.33308e-06 -1.84234e-05
-2.33308e-06 -0.00017431 8.74171e-07
-1.84234e-05 8.74171e-07 -0.000255249
0.00187728 -4.03387e-05 -0.000124028
-4.03387e-05 0.000719713 5.59385e-06
-0.000124028 5.59385e-06 0.000655758
0.00103437 -5.43686e-05 -1.75408e-05
-5.43686e-05 -6.97337e-05 1.60385e-06
-1.75408e-05 1.60385e-06 -0.000198753
0.00195574 -0.000156856 -2.78864e-05
-0.000156856 0.000502253 4.18265e-06
-2.78864e-05 4.18265e-06 0.000355316
0.0064067 9.99509e-05 -0.000236725
9.99509e-05 0.00370024 2.27367e-05
-0.000236725 2.27367e-05 0.00369185
0.00313493 -0.000243986 -0.000147719
-0.000243986 0.0015657 2.19878e-05
-0.000147719 2.19878e-05 0.00147204
0.00204949 -0.000344618 -2.54413e-05
-0.000344618 0.000745537 1.07056e-05
-2.54413e-05 1.07056e-05 0.000517887
0.00192448 -0.00023764 -3.05496e-05
-0.00023764 0.000499872 7.52353e-06
-3.05496e-05 7.52353e-06 0.000328564
0.00186787 -0.000282649 -2.62801e-06
-0.000282649 0.000190083 -3.61452e-07
-2.62801e-06 -3.61452e-07 2.76525e-05
0.00189586 -0.00037478 -3.8866e-06
-0.00037478 0.00029511 6.67523e-07
-3.8866e-06 6.67523e-07 7.05796e-05
0.00167498 -0.000434662 -6.37921e-06
-0.000434662 0.000266929 4.36068e-07
-6.37921e-06 4.36068e-07 -1.08194e-05
0.00194308 -0.000471104 -7.35267e-07
-0.000471104 0.000262717 -2.02146e-06
-7.35267e-07 -2.02146e-06 2.13178e-05
0.000449272 -0.000148756 -1.98416e-05
-0.000148756 -7.01267e-05 1.72624e-05
-1.98416e-05 1.72624e-05 -0.00017301
0.000759235 -0.000176312 -8.73889e-07
-0.000176312 0.000160832 5.37796e-07
-8.73889e-07 5.37796e-07 -5.85019e-05
0.0010286 -2.43199e-05 2.11655e-07
-2.43199e-05 -6.73123e-05 6.24184e-08
2.11655e-07 6.24184e-08 -0.00019285
0.00185572 -0.000107415 -8.78e-06
-0.000107415 0.000439648 1.0222e-06
-8.78e-06 1.0222e-06 0.000310018
0.00184838 -0.000104615 -4.76037e-08
-0.000104615 0.000135273 -1.06454e-07
-4.76037e-08 -1.06454e-07 2.29479e-05
0.00176985 -0.000224585 -2.37329e-06
-0.000224585 0.000116984 7.37573e-07
-2.37329e-06 7.37573e-07 -3.06171e-05
0.000447767 -0.000177698 7.04917e-08
-0.000177698 -9.09167e-05 1.00194e-07
7.04917e-08 1.00194e-07 -0.000199359
0.000804559 -0.000238306 -3.76292e-07
-0.000238306 4.70758e-05 -5.79679e-08
-3.76292e-07 -5.79679e-08 -0.000169496
0.00136101 -0.000437252 1.79405e-06
-0.000437252 0.000168132 -4.08365e-07
1.79405e-06 -4.08365e-07 -0.000138668
0.00183136 -0.000331196 -3.15356e-06
-0.000331196 0.000207789 8.85875e-07
-3.15356e-06 8.85875e-07 1.07727e-05
0.00203187 -0.000326633 2.07594e-06
-0.000326633 0.000169458 -1.04808e-06
2.07594e-06 -1.04808e-06 3.4642e-05
0.00211144 -0.000537405 -6.89281e-07
-0.000537405 0.000421189 -5.20077e-07
-6.89281e-07 -5.20077e-07 0.000130214
0.00193831 -0.000432241 6.03654e-07
-0.000432241 0.000207705 4.21679e-08
6.03654e-07 4.21679e-08 3.80379e-06
0.00206764 -0.000501087 8.0012e-07
-0.000501087 0.000282065 8.21561e-07
8.0012e-07 8.21561e-07 6.79668e-05
0.000651513 -0.000195962 2.94823e-07
-0.000195962 7.72584e-05 -3.79531e-07
2.94823e-07 -3.79531e-07 -0.000161739
0.000407254 -0.000174552 4.78599e-07
-0.000174552 -8.08382e-05 1.77099e-07
4.78599e-07 1.77099e-07 -0.000345293
0.000708637 -0.000127584 7.09769e-07
-0.000127584 0.000147634 -2.89863e-08
7.09769e-07 -2.89863e-08 -4.30365e-05
0.00180122 -4.80584e-05 -3.16169e-07
-4.80584e-05 0.000105243 1.80203e-07
-3.16169e-07 1.80203e-07 -2.72468e-06
0.0019105 -0.000163053 -2.55929e-06
-0.000163053 0.000185823 9.64134e-07
-2.55929e-06 9.64134e-07 6.27913e-05
0.00193442 -0.000124671 4.80794e-06
-0.000124671 5.36074e-05 -8.09539e-07
4.80794e-06 -8.09539e-07 -1.64611e-05
0.00194639 -0.000265602 1.84532e-07
-0.000265602 8.99667e-05 7.2839e-07
1.84532e-07 7.2839e-07 -1.61489e-05
0.00182287 -0.000383819 -9.35527e-07
-0.000383819 8.55083e-05 1.77402e-06
-9.35527e-07 1.77402e-06 -8.15935e-05
0.00218554 -0.000357931 3.52238e-06
-0.000357931 0.000211044 -1.23416e-06
3.52238e-06 -1.23416e-06 0.000106647
0.000664273 -0.000233685 6.08445e-06
-0.000233685 3.0171e-05 -6.56197e-06
6.08445e-06 -6.56197e-06 -0.000189971
0.00190861 -0.000459259 -7.05257e-07
-0.000459259 0.0001307 1.71791e-06
-7.05257e-07 1.71791e-06 -4.69424e-05
0.00131496 -0.000403864 7.77388e-06
-0.000403864 0.000272881 -3.7773e-06
7.77388e-06 -3.7773e-06 -3.31259e-05
0.00177187 -0.000588022 6.83234e-06
-0.000588022 0.000310534 1.25039e-06
6.83234e-06 1.25039e-06 -4.44199e-05
0.00219363 -0.000569214 3.741e-06
-0.000569214 0.000423082 4.27803e-06
3.741e-06 4.27803e-06 0.000145794
0.00225576 -0.000529606 -2.38009e-06
-0.000529606 0.000405198 2.6429e-06
-2.38009e-06 2.6429e-06 0.000201331
0.000496553 -9.64277e-05 -1.86895e-07
-9.64277e-05 2.29203e-05 -6.25943e-06
-1.86895e-07 -6.25943e-06 -0.000130782
0.00109957 -0.000282652 1.28495e-06
-0.000282652 0.00025842 -1.32756e-06
1.28495e-06 -1.32756e-06 1.36204e-05
0.000377213 -0.000171836 8.44696e-07
-0.000171836 -7.57239e-07 2.88021e-06
8.44696e-07 2.88021e-06 -0.000306655
0.00168432 -0.000365355 -1.54866e-06
-0.000365355 0.000644706 1.14204e-06
-1.54866e-06 1.14204e-06 0.000356092
0.00108175 0.000204779 -1.4668e-05
0.000204779 -4.1753e-05 -4.72559e-06
-1.4668e-05 -4.72559e-06 -0.00022434
0.000368563 -4.7619e-05 3.07611e-06
-4.7619e-05 -6.32321e-05 -1.15728e-05
3.07611e-06 -1.15728e-05 -0.000122294
0.000414819 8.76923e-05 -1.84164e-05
8.76923e-05 -8.25526e-05 -1.43176e-05
-1.84164e-05 -1.43176e-05 -0.000162551
2.41195e-05 7.38291e-05 -1.4965e-06
7.38291e-05 -0.000270526 -5.98422e-06
-1.4965e-06 -5.98422e-06 -0.000459567
0.000992826 0.000242734 -1.54517e-05
0.000242734 -1.71757e-05 -6.83093e-06
-1.54517e-05 -6.83093e-06 -0.000218479
0.00177122 0.000388103 -3.93257e-06
0.000388103 0.000182079 -1.51559e-07
-3.93257e-06 -1.51559e-07 -4.7125e-05
0.000627143 0.000214017 -5.97134e-06
0.000214017 4.285e-06 -4.83721e-06
-5.97134e-06 -4.83721e-06 -0.00020383
0.00141799 0.000384917 -4.04165e-06
0.000384917 0.000344831 -3.23704e-06
-4.04165e-06 -3.23704e-06 5.27204e-05
0.00166592 0.000438629 -3.74214e-06
0.000438629 0.000279841 -4.38074e-08
-3.74214e-06 -4.38074e-08 3.20696e-06
0.00144727 0.000505858 2.61226e-06
0.000505858 0.000143595 4.40005e-06
2.61226e-06 4.40005e-06 -0.000165614
0.000454873 -4.42167e-05 -3.57739e-06
-4.42167e-05 -2.1252e-05 9.44111e-07
-3.57739e-06 9.44111e-07 -6.62988e-05
0.000657287 0.000193067 -1.04565e-06
0.000193067 9.72135e-05 -6.15498e-07
-1.04565e-06 -6.15498e-07 -0.00012735
0.000629701 4.98844e-05 -1.83907e-08
4.98844e-05 8.21066e-05 5.38903e-07
-1.83907e-08 5.38903e-07 -4.96576e-05
0.000794576 0.000152925 1.26638e-06
0.000152925 0.000220007 -8.72559e-07
1.26638e-06 -8.72559e-07 -4.35141e-05
0.00184737 0.000346685 -1.02962e-06
0.000346685 0.000173753 -9.19335e-07
-1.02962e-06 -9.19335e-07 -2.58287e-05
0.00170446 0.000422041 -1.94234e-07
0.000422041 0.000218038 -1.87454e-07
-1.94234e-07 -1.87454e-07 -3.86547e-05
0.00200084 0.000457113 3.07286e-07
0.000457113 0.000231253 2.1095e-07
3.07286e-07 2.1095e-07 1.15931e-05
0.00103342 0.000295456 2.55047e-06
0.000295456 0.000164965 5.29153e-07
2.55047e-06 5.29153e-07 -8.90902e-05
0.00204398 0.000552843 -3.15085e-07
0.000552843 0.000412914 2.49161e-07
-3.15085e-07 2.49161e-07 0.000121451
0.00149897 0.000498738 -1.05956e-06
0.000498738 0.000306645 -1.74151e-06
-1.05956e-06 -1.74151e-06 -4.23651e-05
0.00180773 0.0005412 -3.87464e-06
0.0005412 0.00028585 1.71916e-06
-3.87464e-06 1.71916e-06 -1.25302e-05
0.000521313 -3.16909e-05 1.39744e-06
-3.16909e-05 3.16974e-06 7.53801e-06
1.39744e-06 7.53801e-06 -2.98138e-05
0.000724732 4.36277e-05 2.29903e-06
4.36277e-05 0.000143629 5.6514e-06
2.29903e-06 5.6514e-06 4.00372e-05
0.000680599 0.000225091 2.01669e-06
0.000225091 2.83748e-05 2.14984e-06
2.01669e-06 2.14984e-06 -0.000204619
0.00167051 0.000159437 -1.92854e-07
0.000159437 0.000803894 2.70948e-06
-1.92854e-07 2.70948e-06 0.000555657
0.00139063 0.000344067 -7.14918e-07
0.000344067 0.000528154 -3.31286e-06
-7.14918e-07 -3.31286e-06 0.000261291
0.00209023 0.00041272 -1.40821e-07
0.00041272 0.000219862 -2.56851e-06
-1.40821e-07 -2.56851e-06 3.72476e-05
0.00199442 0.000514109 -3.17694e-07
0.000514109 0.000293968 -8.1338e-07
-3.17694e-07 -8.1338e-07 3.42125e-05
0.0020334 0.000500223 -1.5796e-06
0.000500223 0.000228679 -8.45602e-07
-1.5796e-06 -8.45602e-07 1.53759e-05
0.000973723 0.000401451 4.76755e-06
0.000401451 9.85438e-05 2.09787e-06
4.76755e-06 2.09787e-06 -0.000225324
0.00223196 0.000619738 -1.80814e-06
0.000619738 0.000471673 -7.48586e-07
-1.80814e-06 -7.48586e-07 0.000176554
0.0015861 0.00056003 6.10939e-06
0.00056003 0.000293049 -2.72631e-06
6.10939e-06 -2.72631e-06 -5.79964e-05
0.000600774 3.63215e-05 2.58349e-06
3.63215e-05 6.63405e-05 4.15202e-06
2.58349e-06 4.15202e-06 -8.91195e-06
0.000631361 8.33467e-05 -3.04587e-09
8.33467e-05 0.000124179 2.22393e-06
-3.04587e-09 2.22393e-06 4.53861e-06
0.000588784 4.97229e-05 2.57401e-06
4.97229e-05 6.5858e-05 3.77241e-06
2.57401e-06 3.77241e-06 -1.5493e-06
0.000537609 5.86368e-06 -6.25005e-07
5.86368e-06 2.93812e-05 -1.67546e-08
-6.25005e-07 -1.67546e-08 -4.04323e-05
0.00129135 -3.98431e-05 1.31158e-06
-3.98431e-05 0.000474435 3.75042e-06
1.31158e-06 3.75042e-06 0.000454014
0.000895313 -3.63038e-05 3.38264e-07
-3.63038e-05 0.000229379 -1.57148e-07
3.38264e-07 -1.57148e-07 0.000204166
0.000857976 -5.16556e-05 3.10983e-05
-5.16556e-05 0.000212065 8.88179e-06
3.10983e-05 8.88179e-06 0.000210585
0.0027106 -0.000121518 6.56377e-06
-0.000121518 0.00138873 -6.28672e-07
6.56377e-06 -6.28672e-07 0.00138792
0.00287567 -0.00014295 -4.20754e-05
-0.00014295 0.00150273 -3.70503e-06
-4.20754e-05 -3.70503e-06 0.00149597
0.000332363 -4.75022e-05 7.14374e-06
-4.75022e-05 -9.78268e-05 -1.11425e-05
7.14374e-06 -1.11425e-05 -0.00015156
0.00424703 0.000163467 9.87207e-05
0.000163467 0.00237964 -8.61723e-06
9.87207e-05 -8.61723e-06 0.00236327
0.000493165 -8.7414e-05 -1.91188e-06
-8.7414e-05 -1.23556e-05 4.46216e-07
-1.91188e-06 4.46216e-07 -8.28587e-05
0.00500407 0.000149461 -1.12451e-05
0.000149461 0.00285857 -1.42867e-06
-1.12451e-05 -1.42867e-06 0.00284196
0.000523207 -0.000116854 -1.9478e-05
-0.000116854 -1.49606e-05 1.50023e-05
-1.9478e-05 1.50023e-05 -0.000102536
0.00583128 0.000148659 -0.000199008
0.000148659 0.00337527 2.25398e-05
-0.000199008 2.25398e-05 0.00335531
0.00108505 0.00017502 -1.32211e-05
0.00017502 -5.80909e-05 -3.42052e-06
-1.32211e-05 -3.42052e-06 -0.000227898
0.00106018 0.00010451 -1.19093e-05
0.00010451 -7.57157e-05 -1.63924e-06
-1.19093e-05 -1.63924e-06 -0.000219522
0.0018586 0.000227067 -2.0681e-06
0.000227067 0.000121246 6.98603e-07
-2.0681e-06 6.98603e-07 -2.34488e-05
0.00177752 0.000101233 -1.26281e-07
0.000101233 7.57946e-05 7.95791e-07
-1.26281e-07 7.95791e-07 -3.37386e-05
0.00103741 3.64004e-05 -1.18527e-05
3.64004e-05 -6.89263e-05 -4.59689e-07
-1.18527e-05 -4.59689e-07 -0.000197164
0.000425563 2.89732e-05 -1.91688e-05
2.89732e-05 -0.000195269 -6.68615e-07
-1.91688e-05 -6.68615e-07 -0.000270604
0.00103477 3.12194e-07 -6.14427e-08
3.12194e-07 -6.15584e-05 -7.35947e-08
-6.14427e-08 -7.35947e-08 -0.000188078
0.00177135 4.9535e-05 -1.09839e-07
4.9535e-05 6.95291e-05 2.31145e-07
-1.09839e-07 2.31145e-07 -3.18888e-05
0.00182581 0.00016309 -4.52916e-08
0.00016309 0.000100271 5.64775e-08
-4.52916e-08 5.64775e-08 -2.36769e-05
0.00195314 0.000129949 -1.36845e-07
0.000129949 4.4866e-05 1.70284e-07
-1.36845e-07 1.70284e-07 -1.22663e-05
0.00187826 0.000293792 -4.30324e-07
0.000293792 0.000151598 -5.37987e-08
-4.30324e-07 -5.37987e-08 -1.91958e-05
0.00201059 0.000262756 -5.42236e-07
0.000262756 0.00010461 1.06339e-07
-5.42236e-07 1.06339e-07 -3.62651e-06
0.00174767 -8.46176e-07 4.84244e-07
-8.46176e-07 6.08732e-05 1.96539e-07
4.84244e-07 1.96539e-07 -3.87607e-05
0.00194307 6.1503e-05 2.53035e-06
6.1503e-05 3.91764e-05 5.74014e-07
2.53035e-06 5.74014e-07 -5.1219e-06
0.00196586 0.000194696 3.03694e-06
0.000194696 6.36976e-05 3.76638e-07
3.03694e-06 3.76638e-07 -1.57915e-05
0.00202079 0.000122636 6.90547e-06
0.000122636 5.00056e-05 1.1314e-06
6.90547e-06 1.1314e-06 2.39196e-05
0.00212269 0.000351062 1.01106e-06
0.000351062 0.000202248 -1.12187e-06
1.01106e-06 -1.12187e-06 5.64049e-05
0.00202171 0.000281666 2.99381e-06
0.000281666 3.10654e-05 1.09741e-06
2.99381e-06 1.09741e-06 -4.00164e-05
0.000992965 -2.0462e-05 -1.2136e-05
-2.0462e-05 -9.18763e-05 5.66693e-07
-1.2136e-05 5.66693e-07 -0.000215228
0.00187983 -0.000108699 -2.72972e-05
-0.000108699 0.000452917 2.98037e-06
-2.72972e-05 2.98037e-06 0.000323429
0.00192565 -0.000100222 -2.18191e-06
-0.000100222 0.000181306 -4.41925e-07
-2.18191e-06 -4.41925e-07 7.44048e-05
0.00175326 -0.000223076 -2.54969e-06
-0.000223076 0.000112613 5.93305e-07
-2.54969e-06 5.93305e-07 -4.09669e-05
0.000546725 -0.000201449 -2.50561e-05
-0.000201449 -2.96053e-05 1.87737e-05
-2.50561e-05 1.87737e-05 -0.000140451
0.000841311 -0.000241256 -1.1322e-05
-0.000241256 7.00753e-05 7.79725e-06
-1.1322e-05 7.79725e-06 -0.000148214
0.00138782 -0.000439426 -5.64162e-06
-0.000439426 0.000189333 1.41694e-06
-5.64162e-06 1.41694e-06 -0.000119142
0.00187601 -0.000331916 -5.45233e-06
-0.000331916 0.00023733 1.1152e-06
-5.45233e-06 1.1152e-06 3.75116e-05
0.00199653 -0.000327949 1.59037e-07
-0.000327949 0.000136924 -1.29893e-06
1.59037e-07 -1.29893e-06 6.96175e-06
0.00194791 -0.000433037 -5.44325e-07
-0.000433037 0.000214387 -1.32774e-06
-5.44325e-07 -1.32774e-06 1.0309e-05
0.00216198 -0.00054537 -3.00955e-06
-0.00054537 0.000451151 -3.2944e-06
-3.00955e-06 -3.2944e-06 0.000161135
0.00193473 -0.000492143 2.4815e-06
-0.000492143 0.000193521 -2.99563e-06
2.4815e-06 -2.99563e-06 -1.98832e-05
0.000823652 -0.000194811 -5.17343e-06
-0.000194811 0.000174499 4.19774e-06
-5.17343e-06 4.19774e-06 -5.50212e-05
0.000114433 -0.000141835 -1.46526e-07
-0.000141835 -0.000267319 -1.53189e-06
-1.46526e-07 -1.53189e-06 -0.000528669
0.000819344 -0.000153807 -6.71759e-07
-0.000153807 0.000210326 2.51496e-06
-6.71759e-07 2.51496e-06 1.8038e-05
0.00181324 -4.52924e-05 -1.47868e-07
-4.52924e-05 0.000110472 3.88256e-08
-1.47868e-07 3.88256e-08 5.2786e-06
0.00187766 -0.00016967 -3.0376e-06
-0.00016967 0.000163796 4.55976e-07
-3.0376e-06 4.55976e-07 3.94192e-05
0.00196445 -0.000122328 2.88473e-06
-0.000122328 6.82976e-05 -4.10343e-07
2.88473e-06 -4.10343e-07 4.71525e-06
0.00191395 -0.00025838 -1.10609e-06
-0.00025838 6.9468e-05 5.77154e-07
-1.10609e-06 5.77154e-07 -3.90889e-05
0.00073239 -0.000234177 7.5938e-07
-0.000234177 7.18161e-05 -3.3035e-07
7.5938e-07 -3.3035e-07 -0.000150029
0.00126497 -0.000402894 -1.22452e-06
-0.000402894 0.000230941 -2.63346e-07
-1.22452e-06 -2.63346e-07 -7.4675e-05
0.00174106 -0.00058024 1.05525e-06
-0.00058024 0.000307072 6.37486e-07
1.05525e-06 6.37486e-07 -4.85341e-05
0.00181929 -0.000381335 -1.37441e-06
-0.000381335 8.84263e-05 1.0335e-06
-1.37441e-06 1.0335e-06 -8.39235e-05
0.00210536 -0.000356449 1.09888e-06
-0.000356449 0.000153812 -4.14996e-07
1.09888e-06 -4.14996e-07 5.33186e-05
0.00207728 -0.000566982 -2.72704e-07
-0.000566982 0.000340869 5.37833e-07
-2.72704e-07 5.37833e-07 6.16392e-05
0.00195321 -0.000461508 -1.66188e-07
-0.000461508 0.000158099 6.29337e-07
-1.66188e-07 6.29337e-07 -1.99907e-05
0.00219286 -0.000515468 1.10607e-06
-0.000515468 0.000357417 -5.69584e-07
1.10607e-06 -5.69584e-07 0.000159658
0.00107745 -0.000284744 -2.03352e-07
-0.000284744 0.000252885 9.4825e-07
-2.03352e-07 9.4825e-07 -8.25191e-07
0.00119729 -0.000324874 -1.03211e-06
-0.000324874 0.00034082 1.27967e-06
-1.03211e-06 1.27967e-06 5.27844e-05
0.000659415 -0.000116959 -4.61834e-07
-0.000116959 0.000122011 -4.58161e-07
-4.61834e-07 -4.58161e-07 -3.69407e-05
6.59862e-05 -0.00010007 6.26037e-07
-0.00010007 -0.000214161 -2.16105e-06
6.26037e-07 -2.16105e-06 -0.000495513
0.00196857 -6.3662e-05 3.72796e-06
-6.3662e-05 7.14603e-05 -8.28756e-07
3.72796e-06 -8.28756e-07 1.82874e-05
0.00190576 -0.00019722 2.89836e-06
-0.00019722 3.30477e-05 -6.40246e-07
2.89836e-06 -6.40246e-07 -5.36985e-05
0.00193481 -0.000116595 6.84477e-06
-0.000116595 2.84427e-05 -1.20478e-06
6.84477e-06 -1.20478e-06 1.21704e-06
0.00206698 -0.000291994 1.23088e-06
-0.000291994 7.21542e-05 -6.66065e-07
1.23088e-06 -6.66065e-07 1.49069e-05
0.00186599 -0.000409962 -1.17515e-06
-0.000409962 6.0112e-05 3.13652e-07
-1.17515e-06 3.13652e-07 -8.10679e-05
0.0020649 -0.00036709 4.43198e-06
-0.00036709 9.16116e-05 -1.51507e-06
4.43198e-06 -1.51507e-06 1.36933e-05
0.00130956 -0.000353542 5.66873e-06
-0.000353542 0.000346003 -5.15905e-06
5.66873e-06 -5.15905e-06 6.78356e-05
0.00193966 -0.000485293 -2.60711e-06
-0.000485293 0.000130736 2.27267e-07
-2.60711e-06 2.27267e-07 -2.96557e-05
0.00149975 -0.00056531 1.10429e-06
-0.00056531 0.000311547 1.58702e-06
1.10429e-06 1.58702e-06 -6.99616e-05
0.00196169 -0.000650648 5.04981e-06
-0.000650648 0.000381287 2.58572e-06
5.04981e-06 2.58572e-06 1.42799e-05
0.00203306 -0.00057624 9.99152e-07
-0.00057624 0.000267444 4.82232e-06
9.99152e-07 4.82232e-06 -2.75889e-06
0.00228248 -0.00054418 -6.95013e-06
-0.00054418 0.000384455 -1.51272e-06
-6.95013e-06 -1.51272e-06 0.00017911
0.000521472 -9.50601e-05 -9.29061e-07
-9.50601e-05 4.00819e-05 -6.53606e-06
-9.29061e-07 -6.53606e-06 -8.73973e-05
0.000142579 -0.000123848 -3.75472e-06
-0.000123848 -0.000113337 -1.70912e-06
-3.75472e-06 -1.70912e-06 -0.000388014
0.00137286 -0.000384852 1.62715e-06
-0.000384852 0.000404625 -4.05481e-06
1.62715e-06 -4.05481e-06 0.000106292
0.00166924 -0.000314474 -3.37312e-06
-0.000314474 0.000731896 6.24381e-06
-3.37312e-06 6.24381e-06 0.00042668
0.00181302 -0.000426145 -9.47203e-06
-0.000426145 0.000716523 4.46364e-06
-9.47203e-06 4.46364e-06 0.000379153
0.000326111 -4.98638e-05 -3.47072e-07
-4.98638e-05 -0.000100137 -8.39368e-06
-3.47072e-07 -8.39368e-06 -0.000144384
0.00181623 0.00034412 -3.59736e-06
0.00034412 0.000155265 -5.01435e-07
-3.59736e-06 -5.01435e-07 -4.43625e-05
0.0003495 2.13796e-05 -6.61358e-07
2.13796e-05 -8.49613e-05 -5.86244e-06
-6.61358e-07 -5.86244e-06 -0.000212094
0.0004662 0.000189697 -5.55774e-06
0.000189697 -3.88899e-05 -3.12536e-06
-5.55774e-06 -3.12536e-06 -0.000253903
0.000489135 0.000147247 7.40026e-08
0.000147247 2.14449e-05 1.82916e-08
7.40026e-08 1.82916e-08 -0.000236823
0.0016783 0.000421302 -4.44221e-06
0.000421302 0.000200366 -4.20487e-07
-4.44221e-06 -4.20487e-07 -5.70443e-05
0.00197049 0.000453547 7.63513e-07
0.000453547 0.000215319 1.29106e-06
7.63513e-07 1.29106e-06 -3.67863e-06
0.00140292 0.000340245 -2.92852e-06
0.000340245 0.000408899 -3.37621e-06
-2.92852e-06 -3.37621e-06 0.000144438
0.00134446 0.000493355 7.55687e-08
0.000493355 0.000200767 1.46335e-06
7.55687e-08 1.46335e-06 -0.000151532
0.00193575 0.000534132 1.50894e-06
0.000534132 0.00035377 2.38166e-06
1.50894e-06 2.38166e-06 6.44721e-05
0.00188788 0.000545069 2.3251e-06
0.000545069 0.0003381 7.64013e-06
2.3251e-06 7.64013e-06 4.32553e-05
0.000468734 -2.84186e-05 -8.49933e-07
-2.84186e-05 -2.97672e-05 2.40488e-07
-8.49933e-07 2.40488e-07 -6.19357e-05
0.000613234 2.83207e-05 -4.13502e-08
2.83207e-05 7.86714e-05 3.11995e-07
-4.13502e-08 3.11995e-07 -2.32769e-05
0.00100391 0.00026507 6.09721e-07
0.00026507 0.000229198 1.16139e-06
6.09721e-07 1.16139e-06 -8.26301e-06
0.000699446 9.60799e-05 -4.20197e-07
9.60799e-05 0.000193541 -6.70499e-07
-4.20197e-07 -6.70499e-07 -4.01904e-05
0.000802613 0.000257927 -6.81269e-07
0.000257927 0.000132544 1.24773e-06
-6.81269e-07 1.24773e-06 -0.000102175
0.00206012 0.000411431 -1.45863e-06
0.000411431 0.000201206 -1.67426e-06
-1.45863e-06 -1.67426e-06 1.86283e-05
0.00195942 0.000511023 5.64783e-07
0.000511023 0.000274026 1.86601e-07
5.64783e-07 1.86601e-07 1.47819e-05
0.00197475 0.000496952 1.69138e-06
0.000496952 0.000194322 1.75801e-07
1.69138e-06 1.75801e-07 -1.89458e-05
0.00134383 0.000438948 2.25801e-06
0.000438948 0.000337146 7.85624e-07
2.25801e-06 7.85624e-07 3.10261e-06
0.00210753 0.000605208 2.1216e-06
0.000605208 0.000382684 2.79105e-07
2.1216e-06 2.79105e-07 8.85926e-05
0.00191737 0.000592249 -3.21699e-06
0.000592249 0.000498597 -1.02515e-07
-3.21699e-06 -1.02515e-07 0.000143034
0.000640668 3.18059e-05 1.16388e-06
3.18059e-05 9.15727e-05 4.62523e-06
1.16388e-06 4.62523e-06 5.95567e-06
0.00141704 0.000163745 9.01675e-07
0.000163745 0.000626569 2.80137e-06
9.01675e-07 2.80137e-06 0.000445562
0.000952132 0.000325635 -2.4046e-06
0.000325635 0.000138151 3.76218e-06
-2.4046e-06 3.76218e-06 -0.000123443
0.00142631 0.000194286 4.3301e-07
0.000194286 0.000640825 -3.31263e-06
4.3301e-07 -3.31263e-06 0.000366142
0.00181664 0.000299151 -4.70489e-06
0.000299151 0.000672642 4.99e-07
-4.70489e-06 4.99e-07 0.000459582
0.0020469 0.000430704 -3.95266e-06
0.000430704 0.000172515 -2.33396e-06
-3.95266e-06 -2.33396e-06 4.82022e-06
0.00203098 0.000564654 -8.57811e-07
0.000564654 0.000280599 -7.44075e-08
-8.57811e-07 -7.44075e-08 2.16053e-05
0.00185503 0.0005383 6.29571e-06
0.0005383 8.05544e-05 4.10386e-08
6.29571e-06 4.10386e-08 -0.000138087
0.00125127 0.000508949 8.56338e-06
0.000508949 0.000292724 -1.60146e-06
8.56338e-06 -1.60146e-06 -8.85312e-05
0.00156181 0.000586447 1.04885e-05
0.000586447 0.000176086 -5.27125e-07
1.04885e-05 -5.27125e-07 -0.000148293
0.00057272 2.95134e-05 -3.27866e-07
2.95134e-05 4.64218e-05 1.9803e-07
-3.27866e-07 1.9803e-07 -2.71332e-05
0.000371176 5.37066e-05 5.64478e-07
5.37066e-05 -5.4651e-05 2.61697e-06
5.64478e-07 2.61697e-06 -0.000167507
0.000387441 5.17708e-05 -5.9781e-07
5.17708e-05 -4.33399e-05 -2.3959e-07
-5.9781e-07 -2.3959e-07 -0.000149552
0.000998186 0.000146665 -1.43855e-06
0.000146665 0.000355332 -9.08906e-07
-1.43855e-06 -9.08906e-07 0.000218271
0.000676567 0.000109317 1.87305e-06
0.000109317 0.000154337 2.5638e-06
1.87305e-06 2.5638e-06 3.84957e-05
0.000543902 5.93074e-05 2.82097e-06
5.93074e-05 4.38651e-05 3.52097e-06
2.82097e-06 3.52097e-06 -2.29489e-05
0.000534108 1.20881e-05 -6.79226e-07
1.20881e-05 3.19285e-05 -3.31463e-08
-6.79226e-07 -3.31463e-08 -3.50193e-05
0.00126036 -2.50673e-05 1.15479e-06
-2.50673e-05 0.000453558 3.38354e-06
1.15479e-06 3.38354e-06 0.000436107
0.000550287 1.99937e-05 -1.85014e-06
1.99937e-05 3.23615e-05 -3.94066e-06
-1.85014e-06 -3.94066e-06 -3.42719e-05
0.0013233 -3.51804e-05 -7.64892e-06
-3.51804e-05 0.00049394 -1.53681e-06
-7.64892e-06 -1.53681e-06 0.000474766
0.000804538 -3.76483e-05 3.11988e-05
-3.76483e-05 0.000170486 8.78171e-06
3.11988e-05 8.78171e-06 0.000173519
0.00134752 -4.29571e-05 -1.34669e-05
-4.29571e-05 0.000514048 -5.09712e-06
-1.34669e-05 -5.09712e-06 0.000491862
0.00168797 -7.53318e-05 3.00437e-05
-7.53318e-05 0.000735544 1.55849e-06
3.00437e-05 1.55849e-06 0.000736912
0.00262606 -0.000117158 -3.66249e-05
-0.000117158 0.00133426 -4.08318e-06
-3.66249e-05 -4.08318e-06 0.00133448
0.000298182 8.15216e-05 -6.55532e-06
8.15216e-05 -9.07451e-05 -9.15277e-06
-6.55532e-06 -9.15277e-06 -0.000145817
0.000438264 -2.97204e-05 3.43826e-07
-2.97204e-05 -2.66105e-05 7.86003e-07
3.43826e-07 7.86003e-07 -8.59246e-05
0.0034395 0.000181134 1.06249e-05
0.000181134 0.00187021 -6.90143e-06
1.06249e-05 -6.90143e-06 0.00184963
0.00442157 0.0001292 -1.4677e-05
0.0001292 0.00248408 -1.28463e-06
-1.4677e-05 -1.28463e-06 0.00247548
0.000651752 -8.85689e-05 -1.45527e-05
-8.85689e-05 8.24551e-05 1.33491e-05
-1.45527e-05 1.33491e-05 8.63719e-06
0.00526016 0.000129438 -0.000175534
0.000129438 0.00301298 1.92346e-05
-0.000175534 1.92346e-05 0.00300031
0.00185116 0.00029131 -2.55227e-06
0.00029131 0.000137949 6.26091e-07
-2.55227e-06 6.26091e-07 -3.27958e-05
0.00179102 0.000162576 -6.97673e-07
0.000162576 7.89487e-05 6.70025e-07
-6.97673e-07 6.70025e-07 -4.54137e-05
0.001972 0.000261215 -2.24654e-06
0.000261215 8.29219e-05 1.0822e-06
-2.24654e-06 1.0822e-06 -2.5504e-05
0.0019501 0.000128258 -2.90671e-06
0.000128258 3.25626e-05 -2.20781e-07
-2.90671e-06 -2.20781e-07 -2.16473e-05
0.0017795 5.16327e-05 -3.41513e-07
5.16327e-05 7.87972e-05 5.08507e-07
-3.41513e-07 5.08507e-07 -2.26644e-05
0.00103483 5.1381e-06 -1.14629e-05
5.1381e-06 -6.17428e-05 -6.15749e-08
-1.14629e-05 -6.15749e-08 -0.000188221
0.00176242 2.68269e-06 6.82665e-08
2.68269e-06 7.17066e-05 1.96161e-07
6.82665e-08 1.96161e-07 -2.79786e-05
0.00193483 5.29508e-05 -6.62509e-07
5.29508e-05 3.56854e-05 -2.11503e-08
-6.62509e-07 -2.11503e-08 -8.84493e-06
0.0019732 0.000194268 -4.97424e-07
0.000194268 6.71917e-05 2.93649e-07
-4.97424e-07 2.93649e-07 -1.25056e-05
0.00197102 0.00012003 4.54817e-07
0.00012003 1.23891e-05 -3.94928e-08
4.54817e-07 -3.94928e-08 -8.33645e-06
0.00207455 0.000350713 -4.41773e-07
0.000350713 0.00016531 -1.27901e-07
-4.41773e-07 -1.27901e-07 1.92499e-05
0.00201382 0.000275847 6.77104e-08
0.000275847 2.66721e-05 3.49434e-07
6.77104e-08 3.49434e-07 -4.20201e-05
0.00193122 -5.05399e-06 3.28947e-06
-5.05399e-06 4.04648e-05 -3.00212e-07
3.28947e-06 -3.00212e-07 -6.11881e-06
0.00196993 5.1419e-05 6.08746e-06
5.1419e-05 3.28341e-05 1.96756e-07
6.08746e-06 1.96756e-07 1.71159e-05
0.00203759 0.000195329 3.36116e-06
0.000195329 3.39671e-05 7.77263e-07
3.36116e-06 7.77263e-07 1.05983e-06
0.00206696 0.000120663 3.59313e-06
0.000120663 2.6559e-05 4.65954e-07
3.59313e-06 4.65954e-07 2.75903e-05
0.00197852 0.000343823 1.34616e-06
0.000343823 6.56764e-05 -2.70036e-07
1.34616e-06 -2.70036e-07 -5.40323e-05
0.0021977 0.000284115 3.55104e-06
0.000284115 8.37867e-05 1.39537e-06
3.55104e-06 1.39537e-06 4.73745e-05
0.00181829 -4.25509e-05 -1.32621e-06
-4.25509e-05 0.000112219 -4.05443e-07
-1.32621e-06 -4.05443e-07 9.81724e-06
0.00186474 -0.000174778 -3.43284e-06
-0.000174778 0.000153523 6.43367e-08
-3.43284e-06 6.43367e-08 2.8163e-05
0.00197138 -0.000120788 -1.07007e-07
-0.000120788 6.85084e-05 5.92005e-08
-1.07007e-07 5.92005e-08 1.11697e-05
0.00187152 -0.000251469 -2.06632e-06
-0.000251469 4.37178e-05 3.0404e-07
-2.06632e-06 3.0404e-07 -6.73532e-05
0.000792316 -0.000233954 -9.05634e-06
-0.000233954 0.000106307 7.65782e-06
-9.05634e-06 7.65782e-06 -0.000116611
0.0012591 -0.000404505 -7.92142e-06
-0.000404505 0.000219173 2.44783e-06
-7.92142e-06 2.44783e-06 -8.61789e-05
0.00157682 -0.000558817 3.7678e-07
-0.000558817 0.000223655 -1.24402e-06
3.7678e-07 -1.24402e-06 -0.000130478
0.00181719 -0.000378794 -1.26617e-06
-0.000378794 9.24777e-05 -3.33695e-08
-1.26617e-06 -3.33695e-08 -8.51134e-05
0.00202344 -0.000354124 -7.72256e-07
-0.000354124 9.55362e-05 4.98243e-07
-7.72256e-07 4.98243e-07 -6.58274e-07
0.00200838 -0.000464468 3.67843e-07
-0.000464468 0.000192611 -4.40916e-07
3.67843e-07 -4.40916e-07 1.39474e-05
0.00195388 -0.000567396 -2.652e-06
-0.000567396 0.000253742 -3.56029e-06
-2.652e-06 -3.56029e-06 -2.84812e-05
0.00206096 -0.000501578 7.38871e-06
-0.000501578 0.00027253 -4.68589e-06
7.38871e-06 -4.68589e-06 7.98979e-05
0.000806075 -0.000257352 -1.5446e-06
-0.000257352 9.49408e-05 2.30534e-06
-1.5446e-06 2.30534e-06 -0.000160965
0.00048742 -0.000234877 1.08155e-06
-0.000234877 -0.000122874 7.21448e-07
1.08155e-06 7.21448e-07 -0.000391828
0.000953938 -0.000123603 -7.91784e-07
-0.000123603 0.000302792 5.6877e-06
-7.91784e-07 5.6877e-06 0.000138864
7.55922e-05 -6.78898e-05 2.12956e-06
-6.78898e-05 -0.000227524 -3.92788e-06
2.12956e-06 -3.92788e-06 -0.000486399
0.00196626 -6.32854e-05 -2.06294e-07
-6.32854e-05 7.18925e-05 1.60212e-07
-2.06294e-07 1.60212e-07 1.84865e-05
0.00192549 -0.000196992 2.83913e-06
-0.000196992 5.15112e-05 -8.60969e-07
2.83913e-06 -8.60969e-07 -3.59872e-05
0.00193155 -0.000116068 9.81766e-07
-0.000116068 2.11449e-05 -2.77708e-07
9.81766e-07 -2.77708e-07 -4.57737e-06
0.0020445 -0.000289348 -1.09671e-06
-0.000289348 6.50752e-05 2.56015e-07
-1.09671e-06 2.56015e-07 3.87815e-06
0.00111045 -0.000323863 -2.38919e-06
-0.000323863 0.000211463 2.46154e-07
-2.38919e-06 2.46154e-07 -5.85325e-05
0.00142897 -0.000546023 2.37498e-06
-0.000546023 0.00028192 -6.82025e-07
2.37498e-06 -6.82025e-07 -9.37221e-05
0.00186553 -0.000651372 -2.23292e-07
-0.000651372 0.000318301 4.05859e-07
-2.23292e-07 4.05859e-07 -5.34034e-05
0.00190078 -0.00040845 -1.25098e-06
-0.00040845 8.93259e-05 6.41004e-07
-1.25098e-06 6.41004e-07 -5.55182e-05
0.00202833 -0.000367702 1.28271e-06
-0.000367702 6.98141e-05 -1.84373e-07
1.28271e-06 -1.84373e-07 -4.74831e-06
0.00199337 -0.000576592 -2.13895e-07
-0.000576592 0.000265779 4.0752e-07
-2.13895e-07 4.0752e-07 -6.33728e-06
0.00190306 -0.000484894 -9.81176e-07
-0.000484894 0.000101432 9.47576e-07
-9.81176e-07 9.47576e-07 -6.00735e-05
0.00213459 -0.000527794 3.56751e-06
-0.000527794 0.000290525 -4.98259e-06
3.56751e-06 -4.98259e-06 9.24949e-05
0.00122421 -0.000367518 -8.46451e-07
-0.000367518 0.000312622 2.44554e-07
-8.46451e-07 2.44554e-07 1.86448e-05
0.00157882 -0.000394522 -9.43718e-08
-0.000394522 0.00054953 1.43877e-06
-9.43718e-08 1.43877e-06 0.000224233
0.00109345 -0.000258667 2.31735e-07
-0.000258667 0.000369062 1.64459e-07
2.31735e-07 1.64459e-07 7.06298e-05
0.000318545 -6.50222e-05 -2.2851e-06
-6.50222e-05 -8.81998e-05 8.33419e-07
-2.2851e-06 8.33419e-07 -0.000215746
5.311e-05 -7.21315e-05 -7.00944e-07
-7.21315e-05 -0.000185877 -7.92468e-07
-7.00944e-07 -7.92468e-07 -0.000441375
0.00190344 -6.25449e-05 5.26558e-06
-6.25449e-05 -9.35317e-06 -5.13042e-07
5.26558e-06 -5.13042e-07 -2.25794e-05
0.00198585 -0.000177686 4.36061e-06
-0.000177686 1.81847e-05 -1.03159e-06
4.36061e-06 -1.03159e-06 -7.34545e-06
0.00208944 -0.000338461 1.25178e-06
-0.000338461 2.4875e-05 -4.4632e-07
1.25178e-06 -4.4632e-07 -9.09716e-06
0.00203633 -0.000426203 2.15094e-06
-0.000426203 0.000101357 -1.66541e-06
2.15094e-06 -1.66541e-06 5.62802e-06
0.00149867 -0.000463745 2.65508e-06
-0.000463745 0.000444717 -2.86115e-06
2.65508e-06 -2.86115e-06 9.88202e-05
0.00221538 -0.000584169 -2.11703e-06
-0.000584169 0.000205789 -4.38189e-06
-2.11703e-06 -4.38189e-06 2.40148e-05
0.00121173 -0.000607867 -8.78343e-06
-0.000607867 0.000131593 4.67413e-06
-8.78343e-06 4.67413e-06 -0.000276984
0.0019877 -0.000714495 4.1152e-06
-0.000714495 0.000350598 7.8369e-07
4.1152e-06 7.8369e-07 -3.4702e-05
0.00182082 -0.000544878 -9.56688e-06
-0.000544878 0.000151993 1.28259e-06
-9.56688e-06 1.28259e-06 -0.00010479
6.07388e-07 -1.13496e-05 -2.55318e-06
-1.13496e-05 -0.000274156 -6.0206e-06
-2.55318e-06 -6.0206e-06 -0.000374341
0.000804188 -0.000137781 -2.10277e-06
-0.000137781 0.000288108 -6.34915e-07
-2.10277e-06 -6.34915e-07 6.81284e-05
0.000971553 -0.00019687 -1.60205e-06
-0.00019687 0.000380049 -3.61904e-06
-1.60205e-06 -3.61904e-06 0.000100391
0.00161684 -0.000453573 -6.05432e-06
-0.000453573 0.000542506 1.98216e-06
-6.05432e-06 1.98216e-06 0.000196201
0.00113626 -0.000255836 -1.68105e-06
-0.000255836 0.000343369 8.17747e-06
-1.68105e-06 8.17747e-06 3.83801e-05
0.00116624 -0.000394975 -7.60529e-06
-0.000394975 0.00026756 1.22409e-05
-7.60529e-06 1.22409e-05 -7.25032e-05
0.0004243 -2.67457e-05 -2.04172e-06
-2.67457e-05 -5.75942e-05 -6.83923e-06
-2.04172e-06 -6.83923e-06 -8.90928e-05
0.000583476 1.95139e-05 -9.67763e-07
1.95139e-05 6.4745e-05 -5.57399e-06
-9.67763e-07 -5.57399e-06 -3.66188e-05
0.00202917 0.00041005 -2.25858e-06
0.00041005 0.000182239 -6.0997e-07
-2.25858e-06 -6.0997e-07 -2.93646e-07
-0.000301812 3.29837e-06 9.01071e-08
3.29837e-06 -0.000425491 -2.30398e-06
9.01071e-08 -2.30398e-06 -0.000651304
0.001082 0.000270112 -2.55416e-06
0.000270112 0.000277186 -7.5707e-07
-2.55416e-06 -7.5707e-07 4.52269e-05
0.000605757 0.000207457 9.02731e-07
0.000207457 -1.64621e-05 1.16088e-06
9.02731e-07 1.16088e-06 -0.000225451
0.00191935 0.000507128 1.27536e-06
0.000507128 0.000252126 1.10758e-06
1.27536e-06 1.10758e-06 -6.41448e-06
0.00192254 0.00049383 1.9218e-06
0.00049383 0.00016475 5.84592e-07
1.9218e-06 5.84592e-07 -4.84365e-05
0.00166748 0.000468946 -7.46136e-07
0.000468946 0.000551349 -1.29236e-06
-7.46136e-07 -1.29236e-06 0.000208438
0.00215394 0.000608764 -4.27496e-06
0.000608764 0.000651175 1.82441e-06
-4.27496e-06 1.82441e-06 0.000297346
0.00197043 0.000589977 2.9928e-07
0.000589977 0.000285845 1.48493e-06
2.9928e-07 1.48493e-06 -7.16037e-06
0.000583056 3.02655e-05 -4.32956e-07
3.02655e-05 5.87438e-05 5.47464e-07
-4.32956e-07 5.47464e-07 -2.69992e-05
0.00075871 8.35806e-05 -8.80582e-07
8.35806e-05 0.000209552 2.70641e-07
-8.80582e-07 2.70641e-07 4.55946e-05
0.00120393 0.000350401 2.19267e-07
0.000350401 0.000294815 4.74933e-07
2.19267e-07 4.74933e-07 3.04746e-05
0.000983763 0.000142483 1.48028e-06
0.000142483 0.000356184 1.69428e-07
1.48028e-06 1.69428e-07 9.28049e-05
0.000631489 0.00021692 2.25335e-06
0.00021692 -5.87007e-05 3.89818e-07
2.25335e-06 3.89818e-07 -0.000256838
0.00199593 0.000430581 -2.34974e-06
0.000430581 0.000143666 -1.62765e-06
-2.34974e-06 -1.62765e-06 -2.4775e-05
0.00203743 0.00056471 1.87204e-06
0.00056471 0.000283458 6.57987e-07
1.87204e-06 6.57987e-07 2.43546e-05
0.0019317 0.000539362 7.85185e-07
0.000539362 0.000126017 4.88005e-08
7.85185e-07 4.88005e-08 -9.1603e-05
0.00129941 0.000523966 2.31102e-06
0.000523966 0.000305587 1.73454e-06
2.31102e-06 1.73454e-06 -7.54229e-05
0.00173864 0.000608055 -2.19221e-06
0.000608055 0.000295948 -1.95848e-06
-2.19221e-06 -1.95848e-06 -3.59156e-05
0.00103604 0.000108406 1.26737e-06
0.000108406 0.000376282 2.86704e-06
1.26737e-06 2.86704e-06 0.00023971
-0.000223465 -4.06991e-06 -2.06077e-06
-4.06991e-06 -0.000342777 1.38519e-06
-2.06077e-06 1.38519e-06 -0.00056766
0.00140144 0.000419394 -1.46243e-06
0.000419394 0.000400596 -1.60683e-06
-1.46243e-06 -1.60683e-06 9.16284e-05
-0.000653947 9.93794e-05 4.46491e-06
9.93794e-05 -0.000730017 -5.54658e-07
4.46491e-06 -5.54658e-07 -0.000953295
0.00240702 0.000434649 -2.51903e-06
0.000434649 0.000957919 -1.86151e-06
-2.51903e-06 -1.86151e-06 0.000712666
0.0019483 0.00046485 9.99746e-07
0.00046485 3.24085e-05 -5.82172e-07
9.99746e-07 -5.82172e-07 -0.000114506
0.00210999 0.000625513 8.10488e-06
0.000625513 0.000298285 -1.44236e-06
8.10488e-06 -1.44236e-06 1.38659e-05
0.00192727 0.000569121 8.41804e-06
0.000569121 9.96207e-05 1.55535e-06
8.41804e-06 1.55535e-06 -0.000133759
0.00124056 0.000540487 9.65229e-06
0.000540487 0.000225287 1.85359e-06
9.65229e-06 1.85359e-06 -0.00015656
0.00195802 0.000687188 1.89492e-06
0.000687188 0.000433347 1.12549e-07
1.89492e-06 1.12549e-07 7.3532e-05
0.00053304 2.16772e-05 -2.11296e-06
2.16772e-05 2.02631e-05 -4.12181e-06
-2.11296e-06 -4.12181e-06 -5.20342e-05
0.000540302 6.69212e-05 1.34028e-06
6.69212e-05 5.47485e-05 4.45308e-07
1.34028e-06 4.45308e-07 -6.07013e-05
0.000292834 5.24179e-05 -4.88403e-07
5.24179e-05 -0.000107934 1.5749e-06
-4.88403e-07 1.5749e-06 -0.000218398
0.000177542 -2.10546e-05 -1.9812e-07
-2.10546e-05 -0.00016812 -2.89555e-06
-1.9812e-07 -2.89555e-06 -0.000275616
0.000600373 6.07216e-05 -3.89599e-07
6.07216e-05 0.000106295 5.68489e-08
-3.89599e-07 5.68489e-08 -6.97682e-06
0.000582992 8.95109e-05 -6.90074e-07
8.95109e-05 8.42892e-05 -1.04385e-07
-6.90074e-07 -1.04385e-07 -3.55138e-05
0.000762266 0.000130821 -3.39836e-06
0.000130821 0.000213074 -4.05665e-06
-3.39836e-06 -4.05665e-06 8.9042e-05
0.000318151 1.03279e-05 -6.73931e-07
1.03279e-05 -6.24591e-05 -1.15655e-07
-6.73931e-07 -1.15655e-07 -0.000192829
0.00067484 9.44706e-05 9.9189e-07
9.44706e-05 0.000144492 2.71421e-06
9.9189e-07 2.71421e-06 3.96183e-05
0.000568228 6.755e-05 3.46807e-06
6.755e-05 6.21959e-05 3.469e-06
3.46807e-06 3.469e-06 -6.78517e-06
0.000529426 2.05235e-05 -2.33424e-06
2.05235e-05 3.29e-05 5.95233e-09
-2.33424e-06 5.95233e-09 -3.2715e-05
0.00123781 -9.80504e-06 1.56285e-06
-9.80504e-06 0.000441933 3.08271e-06
1.56285e-06 3.08271e-06 0.000425992
0.000442265 -6.25179e-05 1.74634e-06
-6.25179e-05 -1.83449e-05 -3.71065e-06
1.74634e-06 -3.71065e-06 -8.90045e-05
0.00130091 -2.0359e-05 -6.69501e-06
-2.0359e-05 0.000478504 -1.59944e-06
-6.69501e-06 -1.59944e-06 0.000461954
0.000766323 -2.77086e-05 2.71773e-05
-2.77086e-05 0.000143643 8.97929e-06
2.71773e-05 8.97929e-06 0.000148787
0.00135226 -3.2087e-05 -1.19529e-05
-3.2087e-05 0.000511591 -6.80063e-06
-1.19529e-05 -6.80063e-06 0.000493083
0.00076385 -4.13245e-05 1.06933e-05
-4.13245e-05 0.000144731 3.33297e-06
1.06933e-05 3.33297e-06 0.000145983
0.00248542 -0.000110342 -2.18912e-06
-0.000110342 0.00123769 -2.67941e-06
-2.18912e-06 -2.67941e-06 0.00123906
0.000335677 6.0146e-05 -4.0103e-06
6.0146e-05 -8.74716e-05 -5.83389e-06
-4.0103e-06 -5.83389e-06 -0.000123225
0.000428163 1.68679e-05 -3.37941e-06
1.68679e-05 -2.94973e-05 5.3191e-08
-3.37941e-06 5.3191e-08 -7.51589e-05
0.00290941 0.00014512 8.97389e-06
0.00014512 0.00153012 -5.69011e-06
8.97389e-06 -5.69011e-06 0.00152011
0.000630608 -6.13391e-05 -9.51905e-06
-6.13391e-05 8.34217e-05 1.15078e-05
-9.51905e-06 1.15078e-05 2.62178e-05
0.00371359 0.000137426 -3.3083e-05
0.000137426 0.00203329 -3.4155e-07
-3.3083e-05 -3.4155e-07 0.00202408
0.00460626 0.00010391 -0.000155296
0.00010391 0.0025933 1.54093e-05
-0.000155296 1.54093e-05 0.00258979
0.00202934 0.000350336 -2.40271e-06
0.000350336 0.000130596 9.01857e-07
-2.40271e-06 9.01857e-07 -1.56455e-05
0.00198453 0.000192726 -2.34114e-06
0.000192726 7.45528e-05 4.91786e-07
-2.34114e-06 4.91786e-07 -5.0943e-06
0.0020047 0.000269371 -1.62517e-06
0.000269371 2.19351e-05 3.86962e-07
-1.62517e-06 3.86962e-07 -4.43722e-05
0.00192081 0.000117625 -3.68136e-06
0.000117625 -2.54956e-05 -6.06681e-07
-3.68136e-06 -6.06681e-07 -4.07215e-05
0.00192411 4.59861e-05 -4.2046e-06
4.59861e-05 3.07155e-05 -1.87726e-07
-4.2046e-06 -1.87726e-07 -1.42991e-05
0.00177841 5.49246e-06 -4.08039e-07
5.49246e-06 8.19693e-05 1.65445e-07
-4.08039e-07 1.65445e-07 -1.77101e-05
0.00194248 -5.43603e-06 -3.60291e-07
-5.43603e-06 5.13311e-05 -6.30494e-08
-3.60291e-07 -6.30494e-08 3.72692e-06
0.00197955 5.19647e-05 1.29165e-06
5.19647e-05 4.31479e-05 6.33443e-08
1.29165e-06 6.33443e-08 2.36376e-05
0.00203795 0.000192966 1.67328e-08
0.000192966 3.75942e-05 3.09801e-08
1.67328e-08 3.09801e-08 4.81262e-06
0.00202887 0.0001216 6.6935e-07
0.0001216 -1.97137e-06 1.66415e-07
6.6935e-07 1.66415e-07 3.7121e-06
0.00198603 0.000342991 -5.77644e-07
0.000342991 7.98388e-05 2.79411e-08
-5.77644e-07 2.79411e-08 -4.07714e-05
0.00212599 0.00028482 3.08385e-06
0.00028482 3.59842e-05 4.5879e-07
3.08385e-06 4.5879e-07 6.12331e-06
0.0019317 -1.06899e-05 5.40298e-06
-1.06899e-05 1.93612e-05 1.55585e-08
5.40298e-06 1.55585e-08 -2.21297e-06
0.00202282 5.78564e-05 1.79508e-06
5.78564e-05 -9.03143e-06 -3.11306e-07
1.79508e-06 -3.11306e-07 4.40564e-06
0.00209503 0.00018973 1.17749e-06
0.00018973 -2.049e-06 5.37002e-07
1.17749e-06 5.37002e-07 1.5323e-06
0.00212075 0.00037796 -1.86825e-07
0.00037796 4.47926e-05 9.98695e-07
-1.86825e-07 9.98695e-07 -1.30411e-05
0.00196518 -6.27502e-05 -4.10589e-06
-6.27502e-05 7.2578e-05 1.09268e-06
-4.10589e-06 1.09268e-06 1.89421e-05
0.00193747 -0.000197536 7.38735e-07
-0.000197536 6.46867e-05 -7.64361e-07
7.38735e-07 -7.64361e-07 -2.37153e-05
0.00192924 -0.000115538 -5.0426e-06
-0.000115538 1.50029e-05 1.23508e-06
-5.0426e-06 1.23508e-06 -9.47198e-06
0.00203272 -0.000287298 -5.23403e-06
-0.000287298 6.32869e-05 1.27402e-06
-5.23403e-06 1.27402e-06 -1.85037e-06
0.000942581 -0.000309213 -6.14172e-06
-0.000309213 9.90668e-05 3.54263e-06
-6.14172e-06 3.54263e-06 -0.000169389
0.0014326 -0.000535659 2.46065e-06
-0.000535659 0.000293173 -1.62624e-06
2.46065e-06 -1.62624e-06 -7.79603e-05
0.00189962 -0.000666104 -3.34549e-06
-0.000666104 0.000334039 -2.07034e-06
-3.34549e-06 -2.07034e-06 -4.55839e-05
0.00192964 -0.000407091 -2.38214e-06
-0.000407091 0.000114514 7.78505e-07
-2.38214e-06 7.78505e-07 -3.41846e-05
0.00199141 -0.000368899 -1.09206e-06
-0.000368899 4.82545e-05 9.82918e-07
-1.09206e-06 9.82918e-07 -2.30388e-05
0.00188157 -0.000486354 6.94982e-07
-0.000486354 7.79055e-05 1.50082e-06
6.94982e-07 1.50082e-06 -8.49395e-05
0.00194215 -0.000567118 -1.31e-06
-0.000567118 0.000252934 -3.27209e-06
-1.31e-06 -3.27209e-06 -1.75127e-05
0.00207346 -0.000516016 1.12023e-05
-0.000516016 0.000238067 -6.42229e-06
1.12023e-05 -6.42229e-06 4.70404e-05
0.000952795 -0.000338786 -1.29985e-06
-0.000338786 0.000141824 2.21396e-06
-1.29985e-06 2.21396e-06 -0.000145929
0.00136698 -0.000379247 6.02967e-06
-0.000379247 0.000386709 -1.15878e-06
6.02967e-06 -1.15878e-06 6.98917e-05
0.000323946 -0.000180194 2.2652e-06
-0.000180194 -9.73627e-05 -6.81316e-06
2.2652e-06 -6.81316e-06 -0.00039477
0.00014008 -4.64689e-05 1.35198e-07
-4.64689e-05 -0.000199062 5.43355e-06
1.35198e-07 5.43355e-06 -0.000328456
0.000137251 -2.70433e-05 3.60659e-06
-2.70433e-05 -0.000144999 5.3016e-07
3.60659e-06 5.3016e-07 -0.000388424
0.00189654 -7.05321e-05 -6.08174e-08
-7.05321e-05 -1.72048e-05 -1.73524e-07
-6.08174e-08 -1.73524e-07 -3.16936e-05
0.00201472 -0.000178873 1.19567e-06
-0.000178873 3.39196e-05 -1.83563e-07
1.19567e-06 -1.83563e-07 7.59456e-06
0.0020777 -0.000332673 -7.19504e-07
-0.000332673 3.26552e-05 1.0379e-07
-7.19504e-07 1.0379e-07 -5.02776e-06
0.00137972 -0.000454256 -1.64043e-06
-0.000454256 0.000365477 -8.35677e-07
-1.64043e-06 -8.35677e-07 2.19059e-05
0.00144949 -0.000619953 2.96665e-06
-0.000619953 0.000271063 -1.03467e-06
2.96665e-06 -1.03467e-06 -0.000136871
0.00202969 -0.000722739 -3.93164e-08
-0.000722739 0.000384557 -1.09447e-07
-3.93164e-08 -1.09447e-07 -6.83275e-06
0.00201189 -0.00042277 2.13924e-07
-0.00042277 8.71982e-05 2.07071e-07
2.13924e-07 2.07071e-07 -1.03741e-05
0.00206431 -0.000582716 1.11589e-06
-0.000582716 0.000274248 -3.50126e-06
1.11589e-06 -3.50126e-06 1.53348e-05
0.00211506 -0.000565451 -1.27409e-06
-0.000565451 0.000176105 -3.55854e-07
-1.27409e-06 -3.55854e-07 -1.1544e-06
0.000105423 4.4467e-05 -1.86298e-06
4.4467e-05 -0.000218474 -8.10057e-07
-1.86298e-06 -8.10057e-07 -0.000310985
0.00128709 -0.000419241 1.70686e-07
-0.000419241 0.000325104 -1.42958e-06
1.70686e-07 -1.42958e-06 -1.09362e-05
0.00150874 -0.000437145 -6.51617e-08
-0.000437145 0.000490034 1.50753e-06
-6.51617e-08 1.50753e-06 0.000140264
0.00146621 -0.000327683 -7.23982e-07
-0.000327683 0.000568698 1.31652e-06
-7.23982e-07 1.31652e-06 0.000237978
0.00126385 -0.000198806 1.44352e-06
-0.000198806 0.000555293 -2.93772e-06
1.44352e-06 -2.93772e-06 0.000278035
0.000446516 -5.59768e-05 -7.9888e-07
-5.59768e-05 5.55223e-05 1.32656e-06
-7.9888e-07 1.32656e-06 -0.000154722
0.00201502 -9.07943e-05 2.52167e-06
-9.07943e-05 1.99042e-06 -1.7805e-07
2.52167e-06 -1.7805e-07 9.54941e-06
0.00214888 -0.000231822 6.78062e-07
-0.000231822 -1.49148e-06 -1.28258e-07
6.78062e-07 -1.28258e-07 1.53905e-05
0.00214395 -0.000405903 1.25288e-06
-0.000405903 3.02335e-05 -3.71115e-07
1.25288e-06 -3.71115e-07 1.31998e-05
0.00219977 -0.000505419 2.19077e-06
-0.000505419 0.00010531 -2.44915e-06
2.19077e-06 -2.44915e-06 2.42962e-05
0.00156299 -0.000553841 -5.90664e-06
-0.000553841 0.000438686 2.45783e-06
-5.90664e-06 2.45783e-06 5.17247e-05
0.00210061 -0.000642333 1.98336e-06
-0.000642333 0.000210717 -3.80558e-06
1.98336e-06 -3.80558e-06 -2.25363e-05
0.00187275 -0.000738921 -2.09801e-05
-0.000738921 0.000488038 4.67312e-06
-2.09801e-05 4.67312e-06 3.49868e-05
0.00237493 -0.000791412 -1.30109e-05
-0.000791412 0.000600905 -1.50516e-07
-1.30109e-05 -1.50516e-07 0.00018744
1.80883e-05 5.43012e-05 -5.16971e-06
5.43012e-05 -0.000279051 -2.89874e-06
-5.16971e-06 -2.89874e-06 -0.000348849
0.000724246 2.524e-06 -2.04066e-06
2.524e-06 0.000215355 -1.48096e-06
-2.04066e-06 -1.48096e-06 6.06342e-05
0.00159504 -0.000222851 -4.75631e-06
-0.000222851 0.000790344 3.70699e-07
-4.75631e-06 3.70699e-07 0.000534581
0.000828271 -0.000106899 -2.60212e-07
-0.000106899 0.000235466 -3.05599e-06
-2.60212e-07 -3.05599e-06 -5.63795e-05
0.00201381 -0.000550276 -7.44028e-06
-0.000550276 0.000750384 8.29398e-06
-7.44028e-06 8.29398e-06 0.000363214
0.00167591 -0.00044456 -8.30778e-06
-0.00044456 0.000641037 2.00231e-05
-8.30778e-06 2.00231e-05 0.000234543
0.000502281 2.05391e-05 -1.79274e-06
2.05391e-05 9.52492e-06 -4.47949e-06
-1.79274e-06 -4.47949e-06 -7.50026e-05
2.16966e-06 2.18107e-05 1.19577e-06
2.18107e-05 -0.000276398 -1.74946e-06
1.19577e-06 -1.74946e-06 -0.000418152
0.00194707 0.000431264 -1.98894e-06
0.000431264 0.000114077 -1.05656e-06
-1.98894e-06 -1.05656e-06 -5.52988e-05
0.000278032 7.42366e-05 -2.15013e-08
7.42366e-05 -9.36809e-05 1.59193e-06
-2.15013e-08 1.59193e-06 -0.000341766
0.00148179 0.000378032 -3.53672e-06
0.000378032 0.000466542 -2.13988e-06
-3.53672e-06 -2.13988e-06 0.000199949
-0.000512215 0.000101811 -3.10179e-07
0.000101811 -0.000781514 3.7261e-06
-3.10179e-07 3.7261e-06 -0.000946511
0.00204095 0.000564941 1.8513e-06
0.000564941 0.00028285 8.03255e-07
1.8513e-06 8.03255e-07 2.35377e-05
0.00198804 0.000538754 -6.75725e-06
0.000538754 0.000156723 2.72745e-08
-6.75725e-06 2.72745e-08 -5.96422e-05
0.00152718 0.000559131 -3.98385e-06
0.000559131 0.000428286 2.63197e-06
-3.98385e-06 2.63197e-06 4.23867e-05
0.00201384 0.000639642 -5.94706e-06
0.000639642 0.000476036 -7.91531e-08
-5.94706e-06 -7.91531e-08 0.000133531
0.000700347 6.12871e-05 -7.67579e-07
6.12871e-05 0.000159182 1.02632e-07
-7.67579e-07 1.02632e-07 3.2887e-05
0.000466464 6.22598e-05 1.23541e-06
6.22598e-05 8.30786e-05 3.57431e-07
1.23541e-06 3.57431e-07 -0.000154847
0.00132699 0.000408391 -2.4697e-06
0.000408391 0.000352143 -1.48773e-06
-2.4697e-06 -1.48773e-06 4.6946e-05
0.000144439 0.000116843 1.61163e-07
0.000116843 -0.000268552 -2.27658e-06
1.61163e-07 -2.27658e-06 -0.000480499
0.00155816 0.000349727 2.79706e-06
0.000349727 0.000421998 -3.05664e-06
2.79706e-06 -3.05664e-06 0.000195631
0.00210446 0.000477614 -2.84938e-06
0.000477614 0.000116077 -1.08238e-06
-2.84938e-06 -1.08238e-06 -2.9637e-05
0.00224569 0.00062668 2.75289e-06
0.00062668 0.000383129 -4.33318e-07
2.75289e-06 -4.33318e-07 0.000104282
0.0021326 0.000594183 2.85043e-06
0.000594183 0.000211573 2.90216e-06
2.85043e-06 2.90216e-06 -2.68017e-05
0.00137492 0.000558733 3.879e-06
0.000558733 0.000311276 1.55373e-06
3.879e-06 1.55373e-06 -7.65251e-05
0.00185786 0.00069638 -4.60422e-06
0.00069638 0.000373693 7.39339e-08
-4.60422e-06 7.39339e-08 2.79875e-06
-0.000474464 7.12141e-06 -2.25446e-06
7.12141e-06 -0.000560123 5.18072e-06
-2.25446e-06 5.18072e-06 -0.000684336
-0.000134555 0.000183294 1.8848e-06
0.000183294 -0.000226288 2.16514e-06
1.8848e-06 2.16514e-06 -0.000522291
0.00133944 0.000436295 2.8993e-06
0.000436295 0.000343641 -9.64652e-07
2.8993e-06 -9.64652e-07 1.79808e-05
-0.000267053 0.000153985 1.74277e-06
0.000153985 -0.00066538 -8.61369e-07
1.74277e-06 -8.61369e-07 -0.000862138
0.00227093 0.00048176 4.0653e-06
0.00048176 -6.05224e-05 2.23328e-06
4.0653e-06 2.23328e-06 -5.789e-05
0.00274123 0.000603062 7.35967e-06
0.000603062 0.000507856 1.03175e-06
7.35967e-06 1.03175e-06 0.000312127
0.00209835 0.000705626 2.39732e-06
0.000705626 0.000322668 -3.17071e-06
2.39732e-06 -3.17071e-06 -1.6051e-05
0.00164291 0.000665221 1.95282e-06
0.000665221 0.000354551 8.50627e-07
1.95282e-06 8.50627e-07 -5.87714e-05
0.000672175 0.000105555 -9.28826e-07
0.000105555 0.000145224 -1.8428e-06
-9.28826e-07 -1.8428e-06 2.34586e-05
0.000552122 9.20672e-05 -6.26974e-07
9.20672e-05 6.64822e-05 -3.8839e-07
-6.26974e-07 -3.8839e-07 -5.56077e-05
0.00111622 9.18532e-05 -6.46322e-06
9.18532e-05 0.000417408 -2.6189e-06
-6.46322e-06 -2.6189e-06 0.000312258
0.000563859 4.11937e-05 -1.30003e-06
4.11937e-05 6.18704e-05 -2.84668e-06
-1.30003e-06 -2.84668e-06 -3.58597e-05
9.88276e-05 3.71957e-05 6.03047e-08
3.71957e-05 -0.000215236 -9.2359e-07
6.03047e-08 -9.2359e-07 -0.000325933
0.000609895 4.93662e-05 -5.21349e-07
4.93662e-05 0.000106139 1.46508e-07
-5.21349e-07 1.46508e-07 6.50168e-07
0.000520444 0.000121764 -6.42136e-07
0.000121764 8.10065e-05 6.75798e-07
-6.42136e-07 6.75798e-07 -4.37423e-05
0.000501499 4.981e-05 9.86578e-07
4.981e-05 5.77245e-05 9.86928e-08
9.86578e-07 9.86928e-08 -7.85808e-05
0.00060223 9.52053e-05 3.44705e-06
9.52053e-05 9.50418e-05 -1.83953e-06
3.44705e-06 -1.83953e-06 7.93228e-06
0.000751351 8.42819e-06 3.18446e-06
8.42819e-06 0.000211955 -4.52202e-06
3.18446e-06 -4.52202e-06 8.09312e-05
0.000274639 6.51011e-05 1.13233e-07
6.51011e-05 -8.5361e-05 2.03673e-06
1.13233e-07 2.03673e-06 -0.000217694
0.000670736 0.000107512 2.47824e-06
0.000107512 0.000144927 3.39726e-06
2.47824e-06 3.39726e-06 3.53875e-05
0.000473142 7.40664e-05 3.36662e-06
7.40664e-05 1.03403e-05 3.46332e-06
3.36662e-06 3.46332e-06 -6.52586e-05
0.000473505 1.32281e-05 -1.53562e-06
1.32281e-05 2.55724e-06 -2.79443e-07
-1.53562e-06 -2.79443e-07 -6.51802e-05
0.0012046 5.47256e-06 1.57809e-06
5.47256e-06 0.000426916 2.79867e-06
1.57809e-06 2.79867e-06 0.000411073
0.000469737 -4.3747e-05 -7.42942e-08
-4.3747e-05 -5.0728e-06 -3.08129e-06
-7.42942e-08 -3.08129e-06 -6.98278e-05
0.00129315 -7.11568e-06 -6.18102e-06
-7.11568e-06 0.000476515 -1.66651e-06
-6.18102e-06 -1.66651e-06 0.000461086
0.000752939 -1.7772e-05 2.4641e-05
-1.7772e-05 0.000136718 9.02215e-06
2.4641e-05 9.02215e-06 0.000142757
0.00134132 -2.02907e-05 -1.03423e-05
-2.02907e-05 0.000503904 -6.53128e-06
-1.03423e-05 -6.53128e-06 0.000487737
0.000751981 -3.08431e-05 9.30118e-06
-3.08431e-05 0.000133382 3.39537e-06
9.30118e-06 3.39537e-06 0.000137247
0.000717467 -4.1725e-05 1.81893e-08
-4.1725e-05 0.000115295 -2.94253e-06
1.81893e-08 -2.94253e-06 0.000115936
0.000406832 4.14936e-05 -1.51252e-06
4.14936e-05 -6.46047e-05 -3.97696e-06
-1.51252e-06 -3.97696e-06 -8.68353e-05
0.000416228 7.26044e-05 -2.76783e-07
7.26044e-05 -3.20897e-05 3.20892e-07
-2.76783e-07 3.20892e-07 -7.21222e-05
0.0024753 0.000112868 1.03423e-05
0.000112868 0.00124861 -4.79113e-06
1.03423e-05 -4.79113e-06 0.00124757
0.000498945 2.01178e-05 -4.91592e-06
2.01178e-05 1.91716e-05 9.65056e-06
-4.91592e-06 9.65056e-06 -3.04719e-05
0.00302586 0.000150208 -8.58867e-06
0.000150208 0.00160292 -9.58441e-07
-8.58867e-06 -9.58441e-07 0.00159152
0.00385532 8.33161e-05 -0.000128342
8.33161e-05 0.00211632 1.14088e-05
-0.000128342 1.14088e-05 0.00211994
0.00198882 0.000341778 -1.0118e-06
0.000341778 9.21101e-05 7.46493e-07
-1.0118e-06 7.46493e-07 -2.94652e-05
0.00204282 0.000191153 -5.14024e-06
0.000191153 4.31569e-05 -9.82081e-07
-5.14024e-06 -9.82081e-07 1.06455e-05
0.00205833 0.000285825 -5.08191e-07
0.000285825 -9.81323e-06 -4.89294e-07
-5.08191e-07 -4.89294e-07 -3.31805e-05
0.00199092 0.000122725 -1.93114e-06
0.000122725 -3.09501e-05 -4.12311e-07
-1.93114e-06 -4.12311e-07 -2.06272e-05
0.00198969 5.28578e-05 -5.04901e-06
5.28578e-05 5.36073e-05 -4.50394e-07
-5.04901e-06 -4.50394e-07 3.03702e-05
0.00195346 -7.98536e-06 -5.06344e-06
-7.98536e-06 6.20679e-05 5.91581e-07
-5.06344e-06 5.91581e-07 1.3727e-05
0.00193563 -8.58135e-06 -1.44814e-07
-8.58135e-06 2.2067e-05 -7.34312e-08
-1.44814e-07 -7.34312e-08 1.78602e-06
0.00202696 6.05675e-05 1.12638e-06
6.05675e-05 -1.26301e-06 1.98071e-07
1.12638e-06 1.98071e-07 1.01363e-05
0.00209785 0.000195826 1.04785e-06
0.000195826 1.34025e-06 2.13806e-07
1.04785e-06 2.13806e-07 5.91713e-06
0.00212437 0.00036984 6.5701e-07
0.00036984 3.96785e-05 2.24678e-07
6.5701e-07 2.24678e-07 -1.78983e-05
0.0020036 -1.47919e-05 9.33175e-07
-1.47919e-05 -5.89439e-06 -1.93316e-07
9.33175e-07 -1.93316e-07 7.52173e-07
0.00215685 0.000111025 -1.10839e-07
0.000111025 -3.40737e-05 -5.72613e-07
-1.10839e-07 -5.72613e-07 1.52926e-05
0.00230758 0.000297912 2.44908e-06
0.000297912 2.38933e-05 8.76622e-07
2.44908e-06 8.76622e-07 3.77464e-05
0.0018886 -7.85951e-05 -4.94176e-06
-7.85951e-05 -2.60026e-05 5.91987e-07
-4.94176e-06 5.91987e-07 -4.15592e-05
0.00204055 -0.000179612 -3.42272e-06
-0.000179612 4.82546e-05 5.1332e-07
-3.42272e-06 5.1332e-07 2.12603e-05
0.00206334 -0.000326367 -2.78505e-06
-0.000326367 3.95093e-05 6.34645e-07
-2.78505e-06 6.34645e-07 -2.51307e-06
0.00125625 -0.000441752 -4.75906e-06
-0.000441752 0.000286264 9.94766e-07
-4.75906e-06 9.94766e-07 -5.36694e-05
0.00147866 -0.000604562 1.26286e-05
-0.000604562 0.000291689 -4.93385e-06
1.26286e-05 -4.93385e-06 -0.000108163
0.0018451 -0.00070715 -3.47889e-06
-0.00070715 0.000291834 4.75388e-07
-3.47889e-06 4.75388e-07 -9.99003e-05
0.00199013 -0.000419341 -1.84474e-06
-0.000419341 7.46228e-05 1.36637e-06
-1.84474e-06 1.36637e-06 -2.47059e-05
0.00201812 -0.000545299 3.19183e-06
-0.000545299 0.000152611 2.08405e-06
3.19183e-06 2.08405e-06 -1.99468e-05
0.00217397 -0.000609749 9.97934e-06
-0.000609749 0.000327253 -7.19926e-06
9.97934e-06 -7.19926e-06 6.7522e-05
0.00122133 -0.000406514 8.11406e-08
-0.000406514 0.000288477 -9.92673e-07
8.11406e-08 -9.92673e-07 -4.1975e-05
0.000936107 -0.000378016 -3.54127e-07
-0.000378016 0.000148929 -9.3391e-06
-3.54127e-07 -9.3391e-06 -0.000185702
0.00165944 -0.000391736 -7.07457e-07
-0.000391736 0.00071823 -6.91924e-06
-7.07457e-07 -6.91924e-06 0.000361702
0.000303561 4.5089e-05 3.17357e-06
4.5089e-05 -9.82457e-05 2.27689e-06
3.17357e-06 2.27689e-06 -0.000187416
0.00137062 -0.000210977 3.13861e-06
-0.000210977 0.000597358 3.60494e-06
3.13861e-06 3.60494e-06 0.000338612
-8.80177e-05 1.78454e-05 5.37269e-06
1.78454e-05 -0.000288312 1.24261e-06
5.37269e-06 1.24261e-06 -0.000485921
0.00202543 -8.93595e-05 -5.07227e-07
-8.93595e-05 7.52632e-06 1.29272e-07
-5.07227e-07 1.29272e-07 1.31617e-05
0.00211558 -0.000238487 1.12347e-07
-0.000238487 -2.46037e-05 -8.5457e-08
1.12347e-07 -8.5457e-08 -6.47477e-06
0.00212995 -0.000399173 -6.92203e-07
-0.000399173 2.88309e-05 2.7892e-07
-6.92203e-07 2.7892e-07 8.29388e-06
0.00150192 -0.000540538 -9.39409e-07
-0.000540538 0.000417067 4.8474e-07
-9.39409e-07 4.8474e-07 3.4063e-05
0.00128758 -0.000665899 3.19666e-06
-0.000665899 0.000151371 -1.84682e-06
3.19666e-06 -1.84682e-06 -0.000284475
0.00235474 -0.000778183 -4.83656e-06
-0.000778183 0.000581682 1.54524e-07
-4.83656e-06 1.54524e-07 0.000182735
0.0021474 -0.000511857 5.38949e-07
-0.000511857 7.59918e-05 -5.59025e-07
5.38949e-07 -5.59025e-07 -1.1476e-05
0.00203572 -0.000628321 1.90175e-06
-0.000628321 0.000183161 -2.2056e-06
1.90175e-06 -2.2056e-06 -4.43097e-05
0.000291877 5.91115e-05 -1.39286e-06
5.91115e-05 -0.000110733 -1.2196e-06
-1.39286e-06 -1.2196e-06 -0.000176498
0.000638229 -1.93327e-05 -8.33758e-07
-1.93327e-05 0.000156303 4.96378e-07
-8.33758e-07 4.96378e-07 6.10184e-06
0.000902721 -0.000428917 -3.78427e-06
-0.000428917 7.08908e-05 2.25883e-06
-3.78427e-06 2.25883e-06 -0.000280421
0.00140344 -0.000385924 -3.38995e-07
-0.000385924 0.000498059 -7.89187e-07
-3.38995e-07 -7.89187e-07 9.78847e-05
0.00148512 -0.000184376 -4.55962e-07
-0.000184376 0.000643005 -2.18003e-06
-4.55962e-07 -2.18003e-06 0.000343772
0.000877338 -0.000161058 -6.12827e-07
-0.000161058 0.000336843 1.32252e-06
-6.12827e-07 1.32252e-06 8.98094e-05
0.00210654 -0.000123416 -1.46578e-06
-0.000123416 -4.07057e-05 2.87781e-07
-1.46578e-06 2.87781e-07 4.89138e-06
0.00224384 -0.00034127 -1.80851e-06
-0.00034127 -5.69646e-05 1.03813e-06
-1.80851e-06 1.03813e-06 6.37214e-06
0.00222249 -0.000476897 2.6397e-06
-0.000476897 3.78712e-05 -3.80947e-07
2.6397e-06 -3.80947e-07 2.73215e-05
0.00239229 -0.00067415 7.70237e-06
-0.00067415 0.000222949 -3.31538e-06
7.70237e-06 -3.31538e-06 7.07116e-05
0.000576673 -0.000485223 -9.08177e-07
-0.000485223 -0.000143979 -6.34705e-06
-9.08177e-07 -6.34705e-06 -0.000534606
0.0025499 -0.000842099 2.31993e-06
-0.000842099 0.000609897 7.34462e-06
2.31993e-06 7.34462e-06 0.000232547
0.00228072 -0.000845824 -2.35724e-05
-0.000845824 0.000670752 -4.00927e-06
-2.35724e-05 -4.00927e-06 0.000175138
0.000556022 4.63704e-05 -1.2821e-08
4.63704e-05 3.62039e-05 -3.09135e-07
-1.2821e-08 -3.09135e-07 -1.30282e-05
0.000676794 -0.000139506 4.03735e-06
-0.000139506 0.000163918 -1.46104e-06
4.03735e-06 -1.46104e-06 5.9805e-05
0.000256604 7.38798e-05 -7.33318e-06
7.38798e-05 -9.4916e-05 -8.30928e-07
-7.33318e-06 -8.30928e-07 -0.000201126
0.000769327 -5.20768e-05 -3.29811e-06
-5.20768e-05 0.000261128 2.08314e-06
-3.29811e-06 2.08314e-06 6.09325e-05
0.00016691 -0.000108421 2.50976e-06
-0.000108421 -0.000147422 -6.40139e-06
2.50976e-06 -6.40139e-06 -0.000392129
-0.000455247 -7.79213e-05 4.27442e-06
-7.79213e-05 -0.000519146 -1.72429e-06
4.27442e-06 -1.72429e-06 -0.000887468
0.00154077 -0.000527452 -2.60213e-05
-0.000527452 0.000463079 1.92332e-05
-2.60213e-05 1.92332e-05 0.000101785
0.00258488 -0.000493773 -2.50518e-05
-0.000493773 0.00138054 1.43379e-05
-2.50518e-05 1.43379e-05 0.000770071
0.000576753 2.72443e-05 -5.51149e-07
2.72443e-05 7.40398e-05 -1.74974e-06
-5.51149e-07 -1.74974e-06 -4.21146e-05
0.00079192 0.000177549 -8.35335e-07
0.000177549 0.000277731 2.66753e-07
-8.35335e-07 2.66753e-07 3.1813e-05
0.00226018 0.000490476 -3.07267e-06
0.000490476 0.000200454 -1.76603e-06
-3.07267e-06 -1.76603e-06 5.57428e-05
0.000464596 0.000191213 -4.5331e-06
0.000191213 -4.9416e-05 2.64869e-06
-4.5331e-06 2.64869e-06 -0.000285947
0.00113473 0.000385844 -3.18726e-06
0.000385844 0.000229605 3.48983e-07
-3.18726e-06 3.48983e-07 -7.11816e-05
0.00113392 0.000299428 -5.72079e-06
0.000299428 0.000147232 -7.69984e-06
-5.72079e-06 -7.69984e-06 -6.77508e-05
0.00235646 0.00062351 -6.70998e-06
0.00062351 0.000456293 -7.3011e-07
-6.70998e-06 -7.3011e-07 0.000184365
0.00232585 0.000617595 -1.1379e-05
0.000617595 0.000318567 4.47739e-06
-1.1379e-05 4.47739e-06 7.5769e-05
0.00163348 0.000595437 -3.42542e-06
0.000595437 0.000467388 7.57495e-07
-3.42542e-06 7.57495e-07 7.12398e-05
0.00167525 0.000698129 -3.7977e-06
0.000698129 0.000263254 -8.72574e-07
-3.7977e-06 -8.72574e-07 -0.000116424
-0.000117427 5.96363e-05 4.7483e-07
5.96363e-05 -0.000334725 1.3927e-06
4.7483e-07 1.3927e-06 -0.000473169
9.66188e-05 0.000207422 -5.14597e-07
0.000207422 -8.99524e-05 -3.09356e-06
-5.14597e-07 -3.09356e-06 -0.000383666
0.00157615 0.000472971 1.52972e-06
0.000472971 0.000473374 -1.66198e-07
1.52972e-06 -1.66198e-07 0.000137876
0.00121952 0.000298069 -2.08947e-06
0.000298069 0.000265695 1.56372e-06
-2.08947e-06 1.56372e-06 4.208e-05
0.00229757 0.000465227 7.16512e-07
0.000465227 -5.91051e-05 -7.10977e-07
7.16512e-07 -7.10977e-07 -5.11471e-05
0.00256451 0.000600286 3.40111e-06
0.000600286 0.000405318 2.74761e-07
3.40111e-06 2.74761e-07 0.000204231
0.00204537 0.000688048 -1.14149e-06
0.000688048 0.000300654 2.6976e-07
-1.14149e-06 2.6976e-07 -3.07217e-05
0.00174711 0.000673492 8.27239e-07
0.000673492 0.000398419 3.49767e-07
8.27239e-07 3.49767e-07 -1.07039e-05
-0.00023526 4.49913e-05 -1.4588e-06
4.49913e-05 -0.00040968 4.88744e-06
-1.4588e-06 4.88744e-06 -0.00055564
0.00220777 0.000361372 1.01785e-05
0.000361372 -0.000165025 3.63052e-06
1.01785e-05 3.63052e-06 -9.72019e-05
0.00243079 0.000467432 7.11101e-06
0.000467432 0.00128609 8.21402e-06
7.11101e-06 8.21402e-06 0.000962875
0.00131251 0.00046091 2.15031e-06
0.00046091 0.000255119 -4.39003e-07
2.15031e-06 -4.39003e-07 -5.72124e-05
0.00259809 0.000581949 -1.54748e-05
0.000581949 0.000265338 -7.90346e-06
-1.54748e-05 -7.90346e-06 0.000179104
0.00116939 0.000639069 -3.21407e-07
0.000639069 -0.000300445 -8.20067e-06
-3.21407e-07 -8.20067e-06 -0.000612021
0.0025732 0.000788791 9.71197e-07
0.000788791 0.000815753 4.14596e-06
9.71197e-07 4.14596e-06 0.000377934
0.000800267 0.000110125 -1.27364e-06
0.000110125 0.000220379 -1.98076e-06
-1.27364e-06 -1.98076e-06 9.67293e-05
0.000640864 0.000104227 -3.18012e-06
0.000104227 0.000137614 -1.15828e-06
-3.18012e-06 -1.15828e-06 2.59666e-05
0.00156563 0.000111605 -3.76808e-06
0.000111605 0.000716156 -1.47167e-06
-3.76808e-06 -1.47167e-06 0.00063188
0.000512518 6.73532e-06 2.97491e-07
6.73532e-06 4.79554e-05 -3.45092e-06
2.97491e-07 -3.45092e-06 -5.86136e-05
0.00070859 8.27169e-05 2.07869e-06
8.27169e-05 0.000190531 -6.74315e-07
2.07869e-06 -6.74315e-07 4.95462e-05
-0.000108207 6.78972e-05 -1.72033e-06
6.78972e-05 -0.000287998 4.38892e-06
-1.72033e-06 4.38892e-06 -0.000403074
0.000558893 2.07755e-05 -1.33288e-06
2.07755e-05 8.23738e-05 5.64598e-09
-1.33288e-06 5.64598e-09 -3.07158e-05
0.000322456 -1.52848e-05 -1.00278e-06
-1.52848e-05 -4.20708e-05 -1.05829e-08
-1.00278e-06 -1.05829e-08 -0.000181346
9.19762e-05 4.41003e-05 3.19146e-07
4.41003e-05 -0.000200415 9.53411e-07
3.19146e-07 9.53411e-07 -0.000277398
0.000800166 8.69029e-05 9.32805e-07
8.69029e-05 0.000255945 -1.12102e-06
9.32805e-07 -1.12102e-06 0.000112218
0.001576 0.000119564 -4.73822e-07
0.000119564 0.000689086 -2.33513e-06
-4.73822e-07 -2.33513e-06 0.000637804
0.000463311 1.79765e-05 9.3803e-06
1.79765e-05 2.21958e-05 -5.57342e-06
9.3803e-06 -5.57342e-06 -6.64863e-05
0.000269058 9.42276e-05 3.76465e-07
9.42276e-05 -6.74247e-05 2.09071e-06
3.76465e-07 2.09071e-06 -0.000217427
0.000585161 4.75263e-05 1.88649e-06
4.75263e-05 0.000119227 3.1622e-06
1.88649e-06 3.1622e-06 -3.56497e-05
0.00058305 3.4886e-05 2.77545e-06
3.4886e-05 8.95452e-05 3.0671e-06
2.77545e-06 3.0671e-06 -2.50875e-05
0.000480443 -5.42348e-05 -2.3579e-07
-5.42348e-05 1.31679e-05 3.19883e-06
-2.3579e-07 3.19883e-06 -6.37853e-05
0.000498713 8.70031e-06 1.32484e-07
8.70031e-06 1.88584e-05 -3.23056e-07
1.32484e-07 -3.23056e-07 -5.13359e-05
0.00128498 2.45905e-05 3.00908e-06
2.45905e-05 0.000485346 2.96114e-06
3.00908e-06 2.96114e-06 0.000466955
0.000500913 -1.51895e-06 -1.02553e-08
-1.51895e-06 1.15073e-05 -3.2016e-06
-1.02553e-08 -3.2016e-06 -5.07407e-05
0.00130045 8.88461e-06 -5.61173e-06
8.88461e-06 0.000486973 -1.68466e-06
-5.61173e-06 -1.68466e-06 0.000470909
0.000747763 -9.93677e-06 1.97639e-05
-9.93677e-06 0.00013774 8.75707e-06
1.97639e-05 8.75707e-06 0.000143728
0.00134625 -1.00682e-05 -7.95423e-06
-1.00682e-05 0.000509533 -6.45319e-06
-7.95423e-06 -6.45319e-06 0.000494344
0.000775498 -2.13981e-05 7.08101e-06
-2.13981e-05 0.000147985 3.45365e-06
7.08101e-06 3.45365e-06 0.000152986
0.000749452 -3.18997e-05 2.68041e-08
-3.18997e-05 0.000129745 -2.76522e-06
2.68041e-08 -2.76522e-06 0.000133205
0.000648714 -7.52868e-06 1.55764e-06
-7.52868e-06 8.91799e-05 -1.60544e-06
1.55764e-06 -1.60544e-06 4.21601e-05
0.000436392 2.82196e-05 -1.74124e-07
2.82196e-05 -5.75209e-05 -3.57214e-06
-1.74124e-07 -3.57214e-06 -7.32888e-05
0.000447441 4.57331e-05 4.33475e-07
4.57331e-05 -3.6875e-05 2.54495e-07
4.33475e-07 2.54495e-07 -6.06442e-05
0.00225739 8.7942e-05 1.32024e-05
8.7942e-05 0.00110143 -4.36329e-06
1.32024e-05 -4.36329e-06 0.00110728
0.000494699 6.65068e-05 5.81568e-06
6.65068e-05 1.23572e-05 7.58086e-06
5.81568e-06 7.58086e-06 -2.63089e-05
0.0026555 0.000121635 -5.33953e-06
0.000121635 0.00136263 -5.7142e-07
-5.33953e-06 -5.7142e-07 0.00135949
0.00323384 0.000120287 -4.4209e-05
0.000120287 0.00172413 5.41523e-06
-4.4209e-05 5.41523e-06 0.00171921
0.00212617 0.000362217 -1.72102e-07
0.000362217 3.29331e-05 -5.44462e-07
-1.72102e-07 -5.44462e-07 -2.40767e-05
0.00209875 0.000201675 -1.9415e-06
0.000201675 4.88564e-06 -4.5106e-07
-1.9415e-06 -4.5106e-07 9.82698e-06
0.0020286 6.44086e-05 -1.84033e-06
6.44086e-05 5.60653e-06 -5.84121e-09
-1.84033e-06 -5.84121e-09 1.49649e-05
0.00193908 -6.396e-06 -5.00167e-06
-6.396e-06 2.4791e-05 -3.01048e-08
-5.00167e-06 -3.01048e-08 5.58547e-06
0.00200147 -9.79868e-06 -9.17546e-07
-9.79868e-06 -9.24376e-06 -3.21662e-08
-9.17546e-07 -3.21662e-08 1.46013e-07
0.00213346 0.000103972 -8.64199e-08
0.000103972 -3.90456e-05 1.71818e-07
-8.64199e-08 1.71818e-07 7.57775e-06
0.00224332 0.000304204 -1.18404e-06
0.000304204 -5.5034e-06 5.07955e-08
-1.18404e-06 5.07955e-08 8.55775e-06
0.00211141 -1.06287e-05 -1.37807e-06
-1.06287e-05 -5.54282e-05 -4.94334e-07
-1.37807e-06 -4.94334e-07 1.10648e-06
0.0023206 0.000157387 5.38749e-06
0.000157387 -4.68203e-05 -9.71299e-07
5.38749e-06 -9.71299e-07 1.10305e-05
0.00250057 0.000109231 9.71227e-06
0.000109231 0.000143613 1.22883e-05
9.71227e-06 1.22883e-05 0.000217485
0.00203481 -8.83338e-05 -2.25303e-06
-8.83338e-05 1.27438e-05 3.02331e-07
-2.25303e-06 3.02331e-07 1.63378e-05
0.00208751 -0.000246607 -1.02907e-06
-0.000246607 -4.53023e-05 6.09206e-08
-1.02907e-06 6.09206e-08 -2.60064e-05
0.00211793 -0.000391978 -9.04018e-07
-0.000391978 2.83158e-05 -6.25887e-08
-9.04018e-07 -6.25887e-08 5.3081e-06
0.00147794 -0.000540284 2.6586e-06
-0.000540284 0.000402227 -1.31434e-06
2.6586e-06 -1.31434e-06 1.80072e-05
0.00170691 -0.000707605 1.38129e-05
-0.000707605 0.000395667 -4.11302e-07
1.38129e-05 -4.11302e-07 -4.84671e-05
0.00192619 -0.000714134 3.66669e-06
-0.000714134 0.000342897 -5.08358e-07
3.66669e-06 -5.08358e-07 -3.32081e-05
0.00206982 -0.0005155 -3.19968e-07
-0.0005155 3.29276e-05 2.90755e-06
-3.19968e-07 2.90755e-06 -6.03952e-05
0.00190745 -0.000608076 -2.29486e-06
-0.000608076 0.000123696 5.34167e-07
-2.29486e-06 5.34167e-07 -9.76644e-05
0.000663427 -0.000399584 1.24323e-06
-0.000399584 -7.37275e-05 -1.27869e-05
1.24323e-06 -1.27869e-05 -0.000419362
0.00195423 -0.000421976 1.73294e-05
-0.000421976 0.000883527 -1.41191e-05
1.73294e-05 -1.41191e-05 0.000461865
0.00129621 -0.000118846 -1.31753e-06
-0.000118846 0.000496147 3.13055e-06
-1.31753e-06 3.13055e-06 0.000220536
0.000459861 1.83717e-05 2.58186e-06
1.83717e-05 -7.33495e-06 9.22551e-07
2.58186e-06 9.22551e-07 -6.88497e-05
0.000754132 3.59674e-05 5.92544e-06
3.59674e-05 0.000224821 2.15334e-06
5.92544e-06 2.15334e-06 7.50095e-05
0.000436023 -0.000108668 7.29381e-07
-0.000108668 5.27342e-05 5.74523e-06
7.29381e-07 5.74523e-06 -0.000189007
0.00211594 -0.000126316 5.90737e-07
-0.000126316 -4.32882e-05 -6.45292e-08
5.90737e-07 -6.45292e-08 4.59789e-06
0.000498324 1.13138e-05 1.66211e-06
1.13138e-05 5.05092e-07 2.86167e-07
1.66211e-06 2.86167e-07 -4.85018e-05
0.000409882 -7.10287e-05 -2.15347e-06
-7.10287e-05 -3.22331e-05 -5.4902e-07
-2.15347e-06 -5.4902e-07 -0.000117266
0.00222446 -0.000331059 -2.10566e-07
-0.000331059 -4.73599e-05 1.62611e-07
-2.10566e-07 1.62611e-07 7.78946e-06
0.00216767 -0.000466318 -1.72327e-06
-0.000466318 1.10926e-05 2.40883e-07
-1.72327e-06 2.40883e-07 7.70782e-06
0.00184468 -0.000638019 -1.44259e-06
-0.000638019 0.000590289 1.67234e-06
-1.44259e-06 1.67234e-06 0.000164578
0.00186324 -0.000792323 5.39456e-06
-0.000792323 0.00045758 1.14946e-06
5.39456e-06 1.14946e-06 -3.35038e-05
0.00194373 -0.000776679 3.81125e-06
-0.000776679 0.000259658 -4.56805e-06
3.81125e-06 -4.56805e-06 -0.000101009
0.00221916 -0.00065787 2.94007e-06
-0.00065787 0.000128023 -1.22057e-06
2.94007e-06 -1.22057e-06 -1.81979e-05
0.000648974 7.88919e-06 -7.05578e-07
7.88919e-06 0.000161017 -1.09519e-06
-7.05578e-07 -1.09519e-06 4.95736e-05
0.000764365 -4.63501e-05 7.97344e-07
-4.63501e-05 0.000259228 1.89593e-06
7.97344e-07 1.89593e-06 5.79334e-05
0.00150819 -0.000509099 3.66679e-06
-0.000509099 0.000457685 3.257e-06
3.66679e-06 3.257e-06 8.44676e-05
0.00128139 -0.000375716 1.11955e-05
-0.000375716 0.000560858 -6.8374e-06
1.11955e-05 -6.8374e-06 4.10616e-05
0.00086158 -0.000117866 -1.65504e-06
-0.000117866 0.000226058 -1.22337e-06
-1.65504e-06 -1.22337e-06 -9.99009e-05
0.000380897 -7.99936e-05 7.72103e-07
-7.99936e-05 -6.11219e-06 -1.79014e-06
7.72103e-07 -1.79014e-06 -0.000261468
0.00213474 -0.000146339 1.47764e-06
-0.000146339 -0.000160004 -1.01972e-06
1.47764e-06 -1.01972e-06 -9.45292e-05
0.00221583 -0.000424115 -1.17139e-06
-0.000424115 -0.000195354 3.0889e-06
-1.17139e-06 3.0889e-06 -1.09614e-05
0.00239025 -0.00063951 -3.3098e-06
-0.00063951 8.21469e-05 3.49648e-07
-3.3098e-06 3.49648e-07 4.26622e-05
0.00242384 -0.000856832 1.02504e-05
-0.000856832 0.000330595 -3.84251e-06
1.02504e-05 -3.84251e-06 0.000103339
0.0011828 -0.000597741 -7.48428e-07
-0.000597741 0.000246189 -1.64514e-05
-7.48428e-07 -1.64514e-05 -0.000189268
0.00281228 -0.000984217 -7.55575e-06
-0.000984217 0.000896624 1.03632e-05
-7.55575e-06 1.03632e-05 0.000366158
0.000158266 4.84237e-05 -2.40197e-06
4.84237e-05 -0.000179447 -4.8211e-06
-2.40197e-06 -4.8211e-06 -0.000272582
0.000574258 -4.81541e-05 4.41799e-06
-4.81541e-05 7.55057e-05 4.6323e-07
4.41799e-06 4.6323e-07 -5.8646e-06
0.00117779 -0.000149198 -1.36075e-06
-0.000149198 0.000427168 1.04811e-05
-1.36075e-06 1.04811e-05 0.000318088
0.000521718 2.23425e-05 -3.78726e-06
2.23425e-05 8.48723e-05 3.60445e-06
-3.78726e-06 3.60445e-06 -7.2295e-05
0.000739945 -8.88494e-05 -3.49319e-06
-8.88494e-05 0.000222291 6.86568e-06
-3.49319e-06 6.86568e-06 1.10461e-05
0.000861828 -5.49883e-05 8.64236e-06
-5.49883e-05 0.000206455 -1.00167e-05
8.64236e-06 -1.00167e-05 -3.76237e-05
-0.00102497 -0.000246197 2.0444e-06
-0.000246197 -0.000524295 -1.85732e-06
2.0444e-06 -1.85732e-06 -0.00127037
9.15843e-06 -0.000493893 -4.63007e-05
-0.000493893 -0.000490612 1.69403e-05
-4.63007e-05 1.69403e-05 -0.000830277
0.000480981 6.65098e-05 -8.57523e-07
6.65098e-05 5.10704e-05 -1.697e-06
-8.57523e-07 -1.697e-06 -0.000110942
0.000838296 0.000237312 -1.02212e-05
0.000237312 0.000345475 -5.87491e-06
-1.02212e-05 -5.87491e-06 5.99741e-05
0.00231655 0.000448447 -8.07566e-06
0.000448447 -5.42302e-05 -3.58452e-06
-8.07566e-06 -3.58452e-06 -4.3346e-05
0.00243924 0.00060041 -7.87734e-06
0.00060041 0.000335373 -5.72064e-07
-7.87734e-06 -5.72064e-07 0.000128511
0.00263193 0.000406376 -6.93672e-06
0.000406376 0.00112303 -1.20145e-06
-6.93672e-06 -1.20145e-06 0.000889153
0.00166836 0.000490529 -4.61302e-06
0.000490529 0.00051984 -4.32212e-06
-4.61302e-06 -4.32212e-06 0.000178054
0.0020166 0.00067377 -3.6457e-06
0.00067377 0.000291168 1.37801e-06
-3.6457e-06 1.37801e-06 -3.40588e-05
0.00188152 0.000682475 -3.41383e-06
0.000682475 0.000461833 -1.71295e-06
-3.41383e-06 -1.71295e-06 5.62205e-05
0.000432084 9.86314e-05 1.00888e-06
9.86314e-05 2.41859e-05 -1.25531e-06
1.00888e-06 -1.25531e-06 -0.000151776
0.00237217 0.000345614 -2.43142e-06
0.000345614 -6.25543e-05 -1.84338e-06
-2.43142e-06 -1.84338e-06 9.75903e-06
0.00141324 0.000314795 1.13571e-06
0.000314795 0.000633338 1.88871e-06
1.13571e-06 1.88871e-06 0.000352017
0.00155245 0.000483044 2.41331e-06
0.000483044 0.000426195 1.06251e-06
2.41331e-06 1.06251e-06 0.000103282
0.00256878 0.000577566 1.83336e-06
0.000577566 0.000260908 4.14855e-07
1.83336e-06 4.14855e-07 0.000175059
0.00165118 0.000679226 -1.64919e-06
0.000679226 -1.75385e-05 -4.67263e-06
-1.64919e-06 -4.67263e-06 -0.000332829
0.00208265 0.000727301 3.60192e-07
0.000727301 0.000547654 5.3854e-07
3.60192e-07 5.3854e-07 0.000120281
0.00118943 0.000253319 -3.84104e-06
0.000253319 0.000551094 4.1607e-06
-3.84104e-06 4.1607e-06 0.000313976
0.00337999 0.000484805 -7.72955e-05
0.000484805 0.00055114 -2.11415e-05
-7.72955e-05 -2.11415e-05 0.000666815
0.00152412 0.000470401 -4.68906e-06
0.000470401 0.000613625 3.92463e-06
-4.68906e-06 3.92463e-06 0.000294455
0.00155673 0.000565105 -1.685e-06
0.000565105 0.000352792 -4.50266e-06
-1.685e-06 -4.50266e-06 -3.36853e-05
0.00205234 0.000739145 -3.08777e-05
0.000739145 6.35042e-05 -1.85487e-05
-3.08777e-05 -1.85487e-05 -0.000149452
0.00111732 0.000642214 -2.12076e-05
0.000642214 -5.21051e-05 -2.1315e-06
-2.12076e-05 -2.1315e-06 -0.000447166
0.000390536 0.000726016 2.57206e-05
0.000726016 -0.00160063 -3.87897e-05
2.57206e-05 -3.87897e-05 -0.00136439
6.55848e-05 0.000117421 2.71357e-06
0.000117421 -0.000192511 -9.75725e-07
2.71357e-06 -9.75725e-07 -0.000312412
0.000531878 0.000115299 -3.36916e-07
0.000115299 0.000123925 1.21499e-06
-3.36916e-07 1.21499e-06 2.99321e-05
0.00207878 0.000167914 1.63406e-06
0.000167914 0.00102826 -1.60252e-06
1.63406e-06 -1.60252e-06 0.000945553
0.000444971 -6.3964e-05 3.90686e-07
-6.3964e-05 2.06114e-05 -3.90859e-06
3.90686e-07 -3.90859e-06 -9.61273e-05
0.000478925 -4.33315e-05 -7.8959e-07
-4.33315e-05 5.27374e-05 -1.01986e-06
-7.8959e-07 -1.01986e-06 -8.39376e-05
0.000990926 0.000176926 5.02567e-08
0.000176926 0.000378513 1.10767e-06
5.02567e-08 1.10767e-06 0.000222891
-0.000206863 1.84234e-05 -5.14314e-06
1.84234e-05 -0.000363869 1.2158e-05
-5.14314e-06 1.2158e-05 -0.000439032
0.000537432 -1.44985e-05 -3.78256e-07
-1.44985e-05 7.75698e-05 -9.27756e-08
-3.78256e-07 -9.27756e-08 -4.57904e-05
0.000491993 6.46118e-05 1.4159e-07
6.46118e-05 4.24103e-05 -6.46136e-07
1.4159e-07 -6.46136e-07 -9.72007e-05
0.000985744 9.90123e-05 2.76618e-06
9.90123e-05 0.000323287 4.43879e-06
2.76618e-06 4.43879e-06 0.000268889
0.000562669 6.12603e-05 1.55541e-06
6.12603e-05 9.83255e-05 7.82397e-07
1.55541e-06 7.82397e-07 -4.46381e-05
0.000674282 4.38749e-05 -1.46507e-06
4.38749e-05 0.000144849 -2.06485e-06
-1.46507e-06 -2.06485e-06 4.78363e-05
0.0016362 0.000124231 -1.95763e-06
0.000124231 0.000743885 -1.11948e-05
-1.95763e-06 -1.11948e-05 0.000691959
0.000847114 0.000128669 -2.37498e-06
0.000128669 0.000241432 -2.41334e-06
-2.37498e-06 -2.41334e-06 9.67497e-05
0.000949042 0.000127995 1.56438e-06
0.000127995 0.00032774 1.25461e-06
1.56438e-06 1.25461e-06 0.000176758
0.000879488 8.52779e-05 3.7384e-07
8.52779e-05 0.00030411 1.72187e-06
3.7384e-07 1.72187e-06 0.00013498
0.000297951 -2.41969e-05 6.69697e-08
-2.41969e-05 -8.95354e-05 2.99866e-06
6.69697e-08 2.99866e-06 -0.000210356
0.00100987 -6.70729e-05 9.70629e-08
-6.70729e-05 0.000418506 -1.39481e-06
9.70629e-08 -1.39481e-06 0.000240413
0.000226561 -3.87178e-05 -1.5475e-06
-3.87178e-05 -0.000130398 3.07044e-06
-1.5475e-06 3.07044e-06 -0.000256183
0.000466608 3.74137e-06 -1.85351e-06
3.74137e-06 9.93546e-06 3.29925e-06
-1.85351e-06 3.29925e-06 -7.21486e-05
0.000484462 3.69853e-05 2.44133e-06
3.69853e-05 1.83866e-05 -1.48629e-07
2.44133e-06 -1.48629e-07 -6.10319e-05
0.000391737 2.15513e-05 3.76911e-07
2.15513e-05 -6.60516e-05 4.43475e-06
3.76911e-07 4.43475e-06 -8.89051e-05
0.000447826 7.03252e-06 -3.04357e-06
7.03252e-06 -5.32182e-06 -3.54345e-06
-3.04357e-06 -3.54345e-06 -8.04379e-05
0.000885037 1.61105e-05 -3.31439e-06
1.61105e-05 0.000235546 -1.55513e-06
-3.31439e-06 -1.55513e-06 0.000215822
0.00259355 -6.18192e-06 1.75584e-05
-6.18192e-06 0.00129173 5.46653e-06
1.75584e-05 5.46653e-06 0.0013048
0.00138775 1.82932e-05 -9.04225e-06
1.82932e-05 0.000542309 -6.47245e-06
-9.04225e-06 -6.47245e-06 0.00052569
0.000769682 -1.16426e-05 5.99085e-06
-1.16426e-05 0.000147951 3.38209e-06
5.99085e-06 3.38209e-06 0.000153557
0.000788363 -2.2022e-05 5.00392e-07
-2.2022e-05 0.00015289 -2.62036e-06
5.00392e-07 -2.62036e-06 0.000157741
0.000507581 1.41083e-05 -2.09512e-06
1.41083e-05 8.90737e-06 -2.42277e-06
-2.09512e-06 -2.42277e-06 -3.89875e-05
0.000557911 -2.12754e-05 8.56412e-07
-2.12754e-05 3.54736e-05 -3.36017e-07
8.56412e-07 -3.36017e-07 -1.28115e-05
0.000509128 2.29371e-05 4.72678e-08
2.29371e-05 -1.67987e-05 -3.56879e-06
4.72678e-08 -3.56879e-06 -2.98182e-05
0.000801153 3.74947e-05 -1.53137e-07
3.74947e-05 0.000172181 9.96706e-08
-1.53137e-07 9.96706e-08 0.000157659
0.00215901 6.91339e-05 1.03064e-05
6.91339e-05 0.00103175 -4.41352e-06
1.03064e-05 -4.41352e-06 0.00104192
0.000494637 5.35388e-05 4.60642e-06
5.35388e-05 -3.25273e-06 5.34123e-06
4.60642e-06 5.34123e-06 -2.97595e-05
0.00235055 9.38791e-05 -2.89168e-06
9.38791e-05 0.0011611 -2.75046e-07
-2.89168e-06 -2.75046e-07 0.00116546
0.00275047 0.000128376 4.23862e-08
0.000128376 0.00142311 6.5707e-06
4.23862e-08 6.5707e-06 0.00141833
0.00219131 0.000310836 -2.42923e-06
0.000310836 -3.02916e-05 -1.06749e-06
-2.42923e-06 -1.06749e-06 -1.51831e-05
0.00210684 9.85584e-05 1.40491e-06
9.85584e-05 -4.7417e-05 6.65798e-07
1.40491e-06 6.65798e-07 -2.46064e-06
0.00200279 -5.61653e-06 -1.12229e-06
-5.61653e-06 -1.08214e-05 -7.60019e-09
-1.12229e-06 -7.60019e-09 1.30154e-06
0.0021019 -7.28616e-06 1.39358e-07
-7.28616e-06 -6.02895e-05 -2.13632e-07
1.39358e-07 -2.13632e-07 -3.95878e-06
0.00230274 0.000162518 -3.92496e-07
0.000162518 -4.22095e-05 4.41515e-07
-3.92496e-07 4.41515e-07 1.47927e-05
0.00219237 8.60009e-05 8.06914e-06
8.60009e-05 -6.40632e-05 -5.18488e-06
8.06914e-06 -5.18488e-06 5.96707e-06
0.00233534 -4.46477e-06 1.73081e-06
-4.46477e-06 -8.44578e-05 -1.39874e-06
1.73081e-06 -1.39874e-06 8.96446e-06
0.00441119 0.000744966 5.08523e-05
0.000744966 -0.000390336 1.03719e-05
5.08523e-05 1.03719e-05 0.000198493
0.00262099 6.51723e-05 -2.55905e-05
6.51723e-05 0.000362923 2.96923e-05
-2.55905e-05 2.96923e-05 0.000553378
0.000487988 0.000106409 -2.67783e-06
0.000106409 3.75114e-05 -1.24203e-06
-2.67783e-06 -1.24203e-06 -5.40474e-05
0.00212247 -0.000127345 6.6045e-07
-0.000127345 -4.74992e-05 -2.4468e-07
6.6045e-07 -2.4468e-07 2.87306e-06
0.00219689 -0.000320317 1.87856e-06
-0.000320317 -4.29878e-05 -8.12385e-07
1.87856e-06 -8.12385e-07 3.37973e-06
0.00212107 -0.000458331 -5.14643e-07
-0.000458331 -1.26367e-05 2.63336e-07
-5.14643e-07 2.63336e-07 -9.39719e-06
0.000942628 -0.000540313 -6.63666e-06
-0.000540313 6.12575e-05 8.0347e-06
-6.63666e-06 8.0347e-06 -0.000339935
0.00220062 -0.000826622 1.38675e-05
-0.000826622 0.000641541 8.56806e-06
1.38675e-05 8.56806e-06 0.000147618
0.00161199 -0.000742245 -9.9758e-06
-0.000742245 6.25578e-05 -6.8208e-06
-9.9758e-06 -6.8208e-06 -0.000287801
0.00217471 -0.000653393 -5.66506e-06
-0.000653393 0.000106022 1.13117e-06
-5.66506e-06 1.13117e-06 -3.78727e-05
0.00168261 -0.000504504 3.10631e-05
-0.000504504 0.000512576 -2.69798e-05
3.10631e-05 -2.69798e-05 0.000162756
0.000952939 -0.000342005 2.41446e-05
-0.000342005 0.000327431 -2.31091e-05
2.41446e-05 -2.31091e-05 -0.000127661
0.00105646 -8.05608e-05 1.19771e-06
-8.05608e-05 0.000309378 4.94809e-06
1.19771e-06 4.94809e-06 1.60537e-05
0.000499194 9.75427e-06 1.68611e-06
9.75427e-06 1.49324e-06 1.05899e-06
1.68611e-06 1.05899e-06 -4.78342e-05
0.00124448 -8.27631e-05 7.28979e-07
-8.27631e-05 0.000535767 5.99757e-06
7.28979e-07 5.99757e-06 0.000260824
0.000931791 -2.56289e-05 6.70988e-06
-2.56289e-05 0.000352062 -1.00068e-06
6.70988e-06 -1.00068e-06 0.000234377
0.000700163 -4.24011e-05 2.38245e-06
-4.24011e-05 0.000210636 -7.85912e-07
2.38245e-06 -7.85912e-07 1.43276e-05
0.000152502 -4.26619e-05 -3.55606e-06
-4.26619e-05 -0.000200884 9.91868e-08
-3.55606e-06 9.91868e-08 -0.00028186
0.00220036 -0.000163633 -5.00545e-07
-0.000163633 -0.000151579 -3.20583e-08
-5.00545e-07 -3.20583e-08 -6.0996e-05
0.000349874 2.5445e-05 3.19805e-07
2.5445e-05 -4.66964e-05 -2.30363e-06
3.19805e-07 -2.30363e-06 -0.000145856
0.000584195 -5.59341e-05 2.52813e-06
-5.59341e-05 9.65097e-05 9.80155e-07
2.52813e-06 9.80155e-07 6.27358e-06
0.000882456 -0.000121723 2.99968e-06
-0.000121723 0.00024076 2.02491e-07
2.99968e-06 2.02491e-07 0.00014124
0.00223524 -0.000435011 1.97977e-06
-0.000435011 -0.000163518 -6.77828e-07
1.97977e-06 -6.77828e-07 -1.50774e-05
0.00229581 -0.000634468 4.77083e-07
-0.000634468 2.97443e-05 -9.54245e-07
4.77083e-07 -9.54245e-07 -9.82274e-06
0.000450977 -0.000449359 7.13834e-06
-0.000449359 -0.000174336 1.60633e-08
7.13834e-06 1.60633e-08 -0.000550779
0.00257133 -0.000965122 1.54374e-05
-0.000965122 0.000748707 2.33672e-07
1.54374e-05 2.33672e-07 0.00023619
0.00230411 -0.000847158 -1.05632e-06
-0.000847158 0.000281988 2.2189e-06
-1.05632e-06 2.2189e-06 4.38661e-05
0.000290822 -3.06562e-05 -1.05126e-06
-3.06562e-05 -5.97401e-05 -4.65212e-08
-1.05126e-06 -4.65212e-08 -0.000206922
0.000974197 -0.000109438 -9.54458e-07
-0.000109438 0.000383282 3.05665e-06
-9.54458e-07 3.05665e-06 0.000151614
0.00152316 -0.000667262 -2.8436e-06
-0.000667262 0.00040633 1.78079e-06
-2.8436e-06 1.78079e-06 -1.30063e-05
0.000193217 -0.000190752 -5.99886e-07
-0.000190752 -2.025e-06 4.80534e-07
-5.99886e-07 4.80534e-07 -0.00058156
0.00120033 -0.000112816 1.13121e-06
-0.000112816 0.000428573 5.34384e-06
1.13121e-06 5.34384e-06 0.000179747
0.00264301 -0.000309279 -5.89237e-06
-0.000309279 0.000109444 -1.2718e-07
-5.89237e-06 -1.2718e-07 0.000208477
0.00200999 -0.000479475 -1.6468e-05
-0.000479475 -0.000277257 7.72159e-06
-1.6468e-05 7.72159e-06 -6.25901e-05
0.00215563 -0.000771725 -6.7057e-06
-0.000771725 5.96688e-05 9.24691e-07
-6.7057e-06 9.24691e-07 -0.00011199
0.00417357 -0.00111449 -1.17334e-05
-0.00111449 0.00145414 -1.63681e-06
-1.17334e-05 -1.63681e-06 0.00111967
0.000370106 -0.000583888 -2.16466e-05
-0.000583888 -0.000249838 -6.40055e-06
-2.16466e-05 -6.40055e-06 -0.000666679
9.7805e-05 -2.80502e-05 4.60894e-07
-2.80502e-05 -0.000198873 -5.92593e-07
4.60894e-07 -5.92593e-07 -0.000306509
0.000707346 1.79367e-05 -2.19031e-06
1.79367e-05 0.000120013 8.81042e-06
-2.19031e-06 8.81042e-06 2.03193e-05
-0.00140632 -0.000102348 -4.66801e-06
-0.000102348 -0.0011767 -1.36976e-06
-4.66801e-06 -1.36976e-06 -0.00125243
0.00194596 -0.000262065 -1.70207e-05
-0.000262065 0.000988265 1.99197e-05
-1.70207e-05 1.99197e-05 0.000789603
0.00086952 -9.01426e-05 -5.0554e-06
-9.01426e-05 0.000295481 2.22368e-05
-5.0554e-06 2.22368e-05 8.09576e-05
-0.00148406 -0.00011273 4.63277e-06
-0.00011273 -0.000596331 -2.7959e-08
4.63277e-06 -2.7959e-08 -0.00132153
0.000174463 -0.000754629 -1.56951e-05
-0.000754629 -5.91455e-05 4.36076e-06
-1.56951e-05 4.36076e-06 -0.000704913
0.00154713 0.000194847 -2.48814e-06
0.000194847 0.000723161 -7.04444e-06
-2.48814e-06 -7.04444e-06 0.000517184
-0.000245267 9.36134e-05 -4.54123e-06
9.36134e-05 -0.000416406 -2.38778e-06
-4.54123e-06 -2.38778e-06 -0.000640336
0.00249487 0.0003208 3.20267e-06
0.0003208 4.17778e-06 1.12031e-06
3.20267e-06 1.12031e-06 9.20023e-05
0.00250352 0.000571263 1.3662e-05
0.000571263 0.000229502 6.1625e-06
1.3662e-05 6.1625e-06 0.000148246
0.00209847 0.00071554 8.94131e-06
0.00071554 0.000245463 3.32967e-06
8.94131e-06 3.32967e-06 -7.23662e-05
0.00154308 0.000478008 -1.87134e-06
0.000478008 0.00044177 3.48908e-07
-1.87134e-06 3.48908e-07 0.000115039
0.00167581 0.000676696 7.294e-07
0.000676696 0.000327247 1.92235e-06
7.294e-07 1.92235e-06 -9.05085e-05
0.00192951 0.000268138 3.5399e-07
0.000268138 0.000954963 -1.14036e-07
3.5399e-07 -1.14036e-07 0.000737253
0.00268732 0.000393909 4.2432e-06
0.000393909 0.000188002 2.38668e-06
4.2432e-06 2.38668e-06 0.000331868
0.00121046 0.00038357 -3.23859e-06
0.00038357 0.000392699 2.12887e-06
-3.23859e-06 2.12887e-06 0.000109489
0.00169026 0.000585351 3.26042e-06
0.000585351 0.000468244 -2.0718e-07
3.26042e-06 -2.0718e-07 6.4409e-05
0.00223308 0.000737676 -3.26137e-06
0.000737676 0.000174998 -3.42914e-06
-3.26137e-06 -3.42914e-06 -2.27858e-05
0.00178939 0.000725271 -4.47653e-06
0.000725271 0.00032983 5.06194e-06
-4.47653e-06 5.06194e-06 -8.40849e-05
0.00308842 0.00101765 4.5487e-05
0.00101765 -0.000440809 7.23964e-06
4.5487e-05 7.23964e-06 -0.000373111
0.000662719 0.000270006 -4.15801e-06
0.000270006 0.000236149 2.96996e-06
-4.15801e-06 2.96996e-06 -4.16229e-06
0.00289336 0.000724214 -8.43572e-05
0.000724214 0.000415415 -3.70647e-05
-8.43572e-05 -3.70647e-05 0.000371131
0.000795869 0.000395369 -6.22575e-06
0.000395369 -1.39453e-05 2.85805e-06
-6.22575e-06 2.85805e-06 -0.00032217
7.9463e-06 0.000437342 1.07644e-06
0.000437342 -0.000528489 -1.38775e-05
1.07644e-06 -1.38775e-05 -0.000905899
0.00106534 0.000756356 -3.3958e-05
0.000756356 -0.000261749 -1.12343e-05
-3.3958e-05 -1.12343e-05 -0.000509685
0.0142818 0.000365723 -0.000453509
0.000365723 0.0023471 -5.37488e-05
-0.000453509 -5.37488e-05 0.00172991
0.00402857 0.00158552 -3.92315e-05
0.00158552 -0.0015587 -8.03046e-05
-3.92315e-05 -8.03046e-05 -0.000540348
9.01175e-05 0.00113714 4.49219e-06
0.00113714 -0.000948051 -7.10854e-07
4.49219e-06 -7.10854e-07 -0.00120618
0.000982836 -0.00198262 0.00134809
-0.00198262 0.00149068 0.000289381
0.00134809 0.000289381 -0.0015593
0.0200576 -0.00767329 -2.20026e-05
-0.00767329 0.00733619 7.75043e-05
-2.20026e-05 7.75043e-05 0.00557333
-0.000253043 0.000108818 7.61e-06
0.000108818 -0.000322126 1.9071e-06
7.61e-06 1.9071e-06 -0.000424104
0.00106879 0.00011956 -1.52153e-07
0.00011956 0.000455477 -2.54381e-06
-1.52153e-07 -2.54381e-06 0.000373975
0.00207991 0.000251508 9.97524e-07
0.000251508 0.00109241 -3.04969e-07
9.97524e-07 -3.04969e-07 0.00098051
0.000503589 -5.58467e-05 -9.13073e-07
-5.58467e-05 6.59416e-05 -2.81168e-06
-9.13073e-07 -2.81168e-06 -6.24481e-05
0.000350931 6.29908e-05 -1.1966e-06
6.29908e-05 -4.5755e-05 -2.84834e-06
-1.1966e-06 -2.84834e-06 -0.000185647
0.000794595 -1.61355e-05 4.38233e-08
-1.61355e-05 0.000241983 -8.88048e-07
4.38233e-08 -8.88048e-07 9.54192e-05
0.000714633 6.89267e-05 -4.13561e-06
6.89267e-05 0.000163163 9.45252e-06
-4.13561e-06 9.45252e-06 6.07736e-05
0.000280656 7.18439e-05 3.55941e-06
7.18439e-05 -0.000112506 9.07311e-06
3.55941e-06 9.07311e-06 -0.000168926
0.000696542 0.000133719 -1.63649e-06
0.000133719 0.00019642 -4.41538e-07
-1.63649e-06 -4.41538e-07 2.77305e-05
0.000416645 -8.10283e-06 4.42267e-07
-8.10283e-06 -6.89127e-06 9.55482e-07
4.42267e-07 9.55482e-07 -0.000132332
0.000696647 4.81379e-05 -5.93271e-07
4.81379e-05 0.000182806 -3.04874e-08
-5.93271e-07 -3.04874e-08 2.17768e-05
0.000405659 8.30476e-05 -1.35047e-06
8.30476e-05 -1.73794e-05 -7.82196e-07
-1.35047e-06 -7.82196e-07 -6.86439e-05
0.000673013 0.000111207 -1.39356e-06
0.000111207 0.000147486 -1.95326e-07
-1.39356e-06 -1.95326e-07 5.75521e-06
0.00166843 0.000201077 -1.62945e-06
0.000201077 0.000790136 -1.01494e-06
-1.62945e-06 -1.01494e-06 0.000610171
0.000280062 9.94449e-05 5.39575e-07
9.94449e-05 -2.57954e-05 -2.92177e-06
5.39575e-07 -2.92177e-06 -0.000180706
0.000909059 0.000106624 3.0176e-06
0.000106624 0.000314567 4.20493e-08
3.0176e-06 4.20493e-08 0.000153726
0.000450427 -2.20915e-05 1.4488e-06
-2.20915e-05 1.33753e-05 4.61463e-07
1.4488e-06 4.61463e-07 -0.000143539
0.000341736 -7.00761e-05 -1.03052e-06
-7.00761e-05 -5.56215e-05 2.57673e-06
-1.03052e-06 2.57673e-06 -0.000185833
0.000742235 -3.1062e-05 -9.07102e-07
-3.1062e-05 0.000209872 -6.88798e-07
-9.07102e-07 -6.88798e-07 4.76567e-05
0.00119226 5.85731e-06 9.47519e-08
5.85731e-06 0.000481377 -9.15214e-06
9.47519e-08 -9.15214e-06 0.000326566
0.000668278 -4.38356e-05 -1.43655e-06
-4.38356e-05 0.000199508 -5.15356e-07
-1.43655e-06 -5.15356e-07 4.61244e-05
0.000771886 -6.18734e-05 1.9142e-06
-6.18734e-05 0.000243279 -6.33301e-07
1.9142e-06 -6.33301e-07 8.4503e-05
0.000661268 -0.000120947 -2.09715e-06
-0.000120947 0.000149244 2.59375e-06
-2.09715e-06 2.59375e-06 1.96651e-05
0.000307361 -2.403e-05 1.08458e-07
-2.403e-05 -7.66505e-05 1.14304e-06
1.08458e-07 1.14304e-06 -0.000206003
0.000506079 -5.28072e-05 -2.01607e-06
-5.28072e-05 2.49474e-05 3.69008e-06
-2.01607e-06 3.69008e-06 -5.19013e-05
0.000505743 -3.62322e-05 1.90241e-06
-3.62322e-05 3.17223e-05 8.27125e-08
1.90241e-06 8.27125e-08 -4.90885e-05
0.000455705 3.29334e-06 2.50039e-06
3.29334e-06 -2.33336e-05 6.39969e-06
2.50039e-06 6.39969e-06 -4.75581e-05
0.000522229 4.865e-05 -1.91169e-06
4.865e-05 3.61283e-05 -3.50807e-06
-1.91169e-06 -3.50807e-06 -3.95594e-05
0.000416194 3.02039e-05 3.94122e-07
3.02039e-05 -4.91952e-05 7.18856e-08
3.94122e-07 7.18856e-08 -7.29799e-05
0.00252511 3.7607e-06 4.11771e-06
3.7607e-06 0.00125114 5.37075e-06
4.11771e-06 5.37075e-06 0.00126383
0.0004824 3.57722e-05 -3.36447e-06
3.57722e-05 -1.30103e-05 -7.07115e-06
-3.36447e-06 -7.07115e-06 -3.70395e-05
0.00170277 -5.99987e-06 -2.77909e-06
-5.99987e-06 0.000734685 1.59038e-07
-2.77909e-06 1.59038e-07 0.000743082
0.000801226 -1.18668e-05 5.24734e-07
-1.18668e-05 0.000163404 -2.30385e-06
5.24734e-07 -2.30385e-06 0.000169124
0.000460013 2.13589e-06 -2.54748e-07
2.13589e-06 -2.31132e-05 -1.75764e-06
-2.54748e-07 -1.75764e-06 -6.3735e-05
0.000545932 -3.66575e-05 8.90227e-08
-3.66575e-05 3.58461e-05 -6.2676e-09
8.90227e-08 -6.2676e-09 -1.40801e-05
0.000530608 1.26153e-05 7.67325e-07
1.26153e-05 -5.4935e-06 -3.34226e-06
7.67325e-07 -3.34226e-06 -1.57926e-05
0.00048204 -3.48426e-05 -1.59343e-06
-3.48426e-05 -1.12569e-05 5.88471e-07
-1.59343e-06 5.88471e-07 -5.9745e-05
0.000799744 2.74008e-05 -1.68496e-07
2.74008e-05 0.000165673 -7.23996e-07
-1.68496e-07 -7.23996e-07 0.000154774
0.00200114 5.11023e-05 6.7746e-06
5.11023e-05 0.000926651 -4.51552e-06
6.7746e-06 -4.51552e-06 0.00094058
0.000469593 3.29381e-05 7.8082e-07
3.29381e-05 -3.54813e-05 3.64937e-06
7.8082e-07 3.64937e-06 -5.21998e-05
0.00226277 7.40695e-05 -5.97193e-06
7.40695e-05 0.00109943 1.13318e-06
-5.97193e-06 1.13318e-06 0.00110838
0.00247325 0.000101279 -3.8231e-06
0.000101279 0.0012398 5.35246e-06
-3.8231e-06 5.35246e-06 0.00124241
0.00227249 0.00016919 -3.1547e-06
0.00016919 -4.37706e-05 -9.88364e-07
-3.1547e-06 -9.88364e-07 1.27262e-05
0.00209559 -6.61071e-06 1.55683e-06
-6.61071e-06 -6.26845e-05 5.05163e-08
1.55683e-06 5.05163e-08 -6.89276e-06
0.00199439 6.24937e-05 -4.28296e-06
6.24937e-05 -0.000210699 2.17464e-06
-4.28296e-06 2.17464e-06 -0.000144239
0.00252944 0.000551483 8.65624e-05
0.000551483 -0.0013068 1.86864e-05
8.65624e-05 1.86864e-05 -0.000686238
0.00231991 -3.06208e-05 -6.76706e-07
-3.06208e-05 -7.25731e-05 -2.67046e-06
-6.76706e-07 -2.67046e-06 2.08574e-05
0.002205 6.30401e-05 6.26289e-07
6.30401e-05 0.000124111 -9.18625e-06
6.26289e-07 -9.18625e-06 0.000254892
0.00327528 -3.88408e-05 -2.48626e-05
-3.88408e-05 0.000875515 1.09682e-06
-2.48626e-05 1.09682e-06 0.000892933
0.00314088 5.5694e-05 -1.26907e-05
5.5694e-05 -0.001786 -2.90584e-05
-1.26907e-05 -2.90584e-05 -0.00083023
0.00260048 0.00019359 0.000116254
0.00019359 -0.000725734 5.27874e-05
0.000116254 5.27874e-05 -0.000237416
0.000587121 8.58453e-05 -3.99859e-07
8.58453e-05 0.000101239 -6.75947e-07
-3.99859e-07 -6.75947e-07 1.03982e-05
0.000580778 -3.92157e-06 5.11528e-07
-3.92157e-06 0.00010703 -1.12083e-07
5.11528e-07 -1.12083e-07 7.79401e-06
0.000384044 -9.32319e-05 -6.00714e-06
-9.32319e-05 -4.84484e-06 3.37146e-07
-6.00714e-06 3.37146e-07 -0.000118858
0.000444715 -5.45629e-05 -3.77273e-06
-5.45629e-05 4.04763e-05 2.21761e-06
-3.77273e-06 2.21761e-06 -7.52361e-05
0.00228235 -0.000183066 -3.48451e-06
-0.000183066 -0.000125795 3.63681e-07
-3.48451e-06 3.63681e-07 -1.77905e-05
0.0022398 -0.000440911 1.15507e-06
-0.000440911 -0.00013431 -2.47094e-06
1.15507e-06 -2.47094e-06 -2.02983e-05
0.00220891 -0.000626729 -3.63363e-06
-0.000626729 -1.59229e-05 3.99034e-07
-3.63363e-06 3.99034e-07 -5.51621e-05
0.00355323 -0.000800856 1.39414e-05
-0.000800856 0.00160402 1.16478e-05
1.39414e-05 1.16478e-05 0.00116549
0.000470333 -0.000739194 -1.04286e-06
-0.000739194 -0.000420404 -2.07234e-06
-1.04286e-06 -2.07234e-06 -0.000888835
0.00218027 -0.000836696 1.50138e-06
-0.000836696 0.000229115 -2.79064e-06
1.50138e-06 -2.79064e-06 -1.62247e-05
0.00127216 -0.000685726 1.41258e-05
-0.000685726 0.000238748 -1.50971e-05
1.41258e-05 -1.50971e-05 -0.000217868
0.00362633 -0.000291457 8.61737e-06
-0.000291457 0.00179149 -3.2582e-06
8.61737e-06 -3.2582e-06 0.00140496
-2.70098e-05 -1.95402e-05 -5.00482e-06
-1.95402e-05 -0.000388066 5.54027e-06
-5.00482e-06 5.54027e-06 -0.000588598
0.000641257 -5.2043e-05 3.24462e-06
-5.2043e-05 0.000131787 -3.06908e-07
3.24462e-06 -3.06908e-07 4.24919e-05
0.000601255 -0.000122418 -2.48193e-06
-0.000122418 0.000164943 -1.02994e-05
-2.48193e-06 -1.02994e-05 -7.22279e-05
0.000519531 -2.85582e-05 4.80091e-06
-2.85582e-05 8.35412e-05 -5.53972e-07
4.80091e-06 -5.53972e-07 -6.18536e-05
0.000621695 1.25245e-06 5.81024e-07
1.25245e-06 0.000148058 1.94017e-06
5.81024e-07 1.94017e-06 3.6434e-05
0.000549643 -6.39963e-05 -7.69497e-06
-6.39963e-05 3.26925e-05 3.07474e-07
-7.69497e-06 3.07474e-07 -5.34848e-05
0.00259297 -0.000292046 1.87839e-06
-0.000292046 9.03758e-05 1.32015e-06
1.87839e-06 1.32015e-06 0.00020556
0.000515529 -2.56838e-05 -5.28582e-07
-2.56838e-05 7.9465e-05 1.54427e-06
-5.28582e-07 1.54427e-06 -4.77164e-05
0.000839152 -3.55145e-05 6.19406e-06
-3.55145e-05 0.000214902 -1.26406e-07
6.19406e-06 -1.26406e-07 0.0001054
-0.000341884 -2.87927e-05 2.82111e-06
-2.87927e-05 -0.000470367 2.56483e-07
2.82111e-06 2.56483e-07 -0.000531146
0.00199818 -0.000490627 5.80367e-07
-0.000490627 -0.000309582 -1.21958e-06
5.80367e-07 -1.21958e-06 -0.000106571
0.00224128 -0.000777459 2.16567e-06
-0.000777459 0.000103996 -1.26154e-06
2.16567e-06 -1.26154e-06 -6.10154e-05
0.00182959 -0.000789523 -3.56966e-06
-0.000789523 0.000558988 3.68433e-09
-3.56966e-06 3.68433e-09 0.000108719
0.0025742 -0.000963531 -6.19821e-06
-0.000963531 0.000580802 1.72459e-06
-6.19821e-06 1.72459e-06 0.00026264
0.00141447 -0.000143484 1.68116e-06
-0.000143484 0.000637088 -1.74793e-06
1.68116e-06 -1.74793e-06 0.000450337
0.000250012 -3.2991e-05 6.67492e-06
-3.2991e-05 -0.0001116 6.72351e-06
6.67492e-06 6.72351e-06 -0.000318863
0.00172321 -0.000950283 3.04598e-06
-0.000950283 0.000869951 -2.60221e-06
3.04598e-06 -2.60221e-06 0.000166095
0.000982169 -0.000363185 -5.89869e-06
-0.000363185 0.000406369 -1.01367e-06
-5.89869e-06 -1.01367e-06 -8.37393e-05
0.00329197 -0.000423718 -3.96723e-05
-0.000423718 0.000399955 2.25952e-06
-3.96723e-05 2.25952e-06 0.000648165
0.00249547 -0.000635197 -4.16259e-05
-0.000635197 0.000168251 1.36452e-05
-4.16259e-05 1.36452e-05 0.000229609
0.00246765 -0.000903881 1.45669e-06
-0.000903881 0.000408959 -5.88491e-06
1.45669e-06 -5.88491e-06 0.00010284
0.00286977 -0.000941657 -1.25186e-06
-0.000941657 0.000951817 3.34307e-06
-1.25186e-06 3.34307e-06 0.00062847
0.000185117 -4.5406e-05 -1.6884e-06
-4.5406e-05 -7.66074e-05 -7.4781e-06
-1.6884e-06 -7.4781e-06 -0.00019854
0.000491958 -0.000124106 -9.43844e-06
-0.000124106 6.25311e-05 -6.77575e-06
-9.43844e-06 -6.77575e-06 -0.000106297
9.10303e-05 -0.000171022 -5.65546e-06
-0.000171022 8.44669e-05 4.39026e-05
-5.65546e-06 4.39026e-05 -0.000231924
-0.000893218 -0.000737031 -4.30806e-06
-0.000737031 -5.69378e-06 -2.67185e-05
-4.30806e-06 -2.67185e-05 -0.00101221
0.00232049 -0.000470741 5.16689e-05
-0.000470741 -0.00502316 -1.14197e-05
5.16689e-05 -1.14197e-05 -0.00506165
0.00216147 0.000257468 -1.06762e-06
0.000257468 0.00107856 -4.80177e-06
-1.06762e-06 -4.80177e-06 0.000864687
0.00117011 0.000332847 -1.02315e-06
0.000332847 0.00035855 -6.22902e-07
-1.02315e-06 -6.22902e-07 9.57297e-05
0.00191302 0.000325046 6.13641e-05
0.000325046 -0.000239643 1.8573e-05
6.13641e-05 1.8573e-05 -7.45179e-05
0.0025308 0.000747562 2.40913e-05
0.000747562 0.000348499 9.77755e-06
2.40913e-05 9.77755e-06 0.000160905
0.00211422 0.000766181 8.31935e-06
0.000766181 0.000524626 1.07937e-05
8.31935e-06 1.07937e-05 9.8062e-05
0.00122217 0.000534864 5.27597e-06
0.000534864 0.000224877 6.37524e-06
5.27597e-06 6.37524e-06 -0.000181698
0.00524116 0.00129776 0.000120503
0.00129776 0.000384698 4.0238e-05
0.000120503 4.0238e-05 0.000248228
0.00159105 0.000305669 5.0482e-06
0.000305669 0.000781464 -1.29883e-07
5.0482e-06 -1.29883e-07 0.000551807
0.00258352 0.000678378 -2.19597e-05
0.000678378 0.000238497 6.95657e-07
-2.19597e-05 6.95657e-07 0.000223942
0.000914959 0.000411019 -4.24622e-06
0.000411019 9.46494e-05 3.19055e-06
-4.24622e-06 3.19055e-06 -0.000222242
0.00143334 0.000621739 1.08612e-06
0.000621739 0.000297218 -6.03456e-06
1.08612e-06 -6.03456e-06 -0.000116774
0.00209956 0.000845266 -1.13009e-05
0.000845266 0.000289676 -4.41618e-07
-1.13009e-05 -4.41618e-07 1.19871e-05
0.00450583 -0.000645155 -0.000160921
-0.000645155 -0.00444253 -7.72868e-05
-0.000160921 -7.72868e-05 -0.00537075
0.00713661 0.00160633 -0.000126828
0.00160633 -6.34118e-05 -6.14734e-05
-0.000126828 -6.14734e-05 0.000700578
0.000941567 0.00112881 -4.52205e-06
0.00112881 -0.000458773 6.87647e-06
-4.52205e-06 6.87647e-06 -0.000809717
0.000136274 -0.00176354 0.000486229
-0.00176354 0.00263755 0.000198035
0.000486229 0.000198035 -0.000167686
0.0117673 -0.00772324 -0.000446118
-0.00772324 0.00537987 -0.000411441
-0.000446118 -0.000411441 0.00348488
0.0010001 0.000265823 -1.48189e-05
0.000265823 0.000345346 1.06079e-06
-1.48189e-05 1.06079e-06 0.000139761
0.000967726 0.000542735 0.000682259
0.000542735 0.00387771 7.4236e-05
0.000682259 7.4236e-05 0.00195187
0.00307756 -0.00268373 -0.000172526
-0.00268373 0.00521246 -0.000226415
-0.000172526 -0.000226415 0.000531336
0.00280082 0.00105684 -4.98829e-05
0.00105684 0.000480014 -1.34888e-05
-4.98829e-05 -1.34888e-05 0.000319181
0.00083537 0.000326958 -2.5027e-05
0.000326958 5.93415e-05 -4.22434e-06
-2.5027e-05 -4.22434e-06 -0.000219013
0.000634891 0.000631896 -2.81902e-05
0.000631896 -8.03742e-05 -2.65241e-05
-2.81902e-05 -2.65241e-05 -0.000429237
2.22658e-05 0.00106489 4.72653e-05
0.00106489 -0.000737552 9.43044e-05
4.72653e-05 9.43044e-05 -0.00111062
0.0122963 0.00223454 5.21558e-05
0.00223454 0.00151367 -3.19643e-05
5.21558e-05 -3.19643e-05 0.000413059
0.00432996 0.00234605 -3.04798e-05
0.00234605 -6.21084e-05 -5.25307e-05
-3.04798e-05 -5.25307e-05 0.000224345
0.0135946 -0.00611745 0.000955701
-0.00611745 0.00409827 0.000508317
0.000955701 0.000508317 0.00107424
0.0121772 -0.00283887 -7.03045e-05
-0.00283887 0.00302336 0.000580708
-7.03045e-05 0.000580708 0.00173472
0.000424231 0.000108457 6.37691e-06
0.000108457 9.66348e-05 -2.40973e-06
6.37691e-06 -2.40973e-06 1.19517e-05
0.000202266 0.00012454 8.35769e-06
0.00012454 -3.96158e-05 6.74149e-07
8.35769e-06 6.74149e-07 -0.00014047
0.00193366 0.000289269 3.29082e-06
0.000289269 0.00102272 -7.25802e-07
3.29082e-06 -7.25802e-07 0.000854821
0.000577776 9.52246e-06 7.60618e-07
9.52246e-06 0.000117328 -6.63609e-07
7.60618e-07 -6.63609e-07 -2.34215e-05
0.000624313 6.70618e-05 -9.49429e-07
6.70618e-05 0.000131146 -1.99861e-06
-9.49429e-07 -1.99861e-06 -2.36065e-05
9.90884e-05 3.188e-05 -1.71085e-06
3.188e-05 -0.000189649 8.76044e-07
-1.71085e-06 8.76044e-07 -0.000337123
0.000659622 0.000105359 -7.32763e-06
0.000105359 0.000155917 1.74235e-06
-7.32763e-06 1.74235e-06 1.17902e-05
-0.000660249 4.78293e-05 -3.90803e-06
4.78293e-05 -0.000685598 4.21593e-07
-3.90803e-06 4.21593e-07 -0.00073542
0.000362223 -1.39803e-05 2.18096e-07
-1.39803e-05 -3.62441e-05 9.75454e-07
2.18096e-07 9.75454e-07 -0.000170595
0.00123751 0.000131201 1.59078e-06
0.000131201 0.000510086 -1.92484e-09
1.59078e-06 -1.92484e-09 0.000344491
0.000610507 5.47587e-05 2.98998e-07
5.47587e-05 0.000139135 2.15961e-07
2.98998e-07 2.15961e-07 -2.70034e-05
0.000743116 3.41381e-05 1.23863e-06
3.41381e-05 0.000219104 -4.73652e-07
1.23863e-06 -4.73652e-07 4.5338e-05
0.000375183 0.000102914 -3.68998e-07
0.000102914 3.16507e-05 -2.40814e-06
-3.68998e-07 -2.40814e-06 -0.00011971
0.00139218 0.000126204 -2.05491e-06
0.000126204 0.000631655 -2.72289e-06
-2.05491e-06 -2.72289e-06 0.000466506
-0.000296229 5.16204e-05 -5.68979e-06
5.16204e-05 -0.000268555 -5.46034e-06
-5.68979e-06 -5.46034e-06 -0.000471248
0.000559438 -8.98523e-05 3.51762e-08
-8.98523e-05 0.000100757 -4.66372e-07
3.51762e-08 -4.66372e-07 -6.41033e-05
0.000770989 -7.85068e-05 -9.80095e-07
-7.85068e-05 0.000244011 -1.37793e-07
-9.80095e-07 -1.37793e-07 6.87612e-05
0.000762591 -4.98292e-05 -1.97925e-07
-4.98292e-05 0.00023632 -5.38846e-07
-1.97925e-07 -5.38846e-07 6.39115e-05
0.00073195 -2.37069e-05 -3.36607e-06
-2.37069e-05 0.000179867 2.57984e-07
-3.36607e-06 2.57984e-07 4.24641e-05
0.00106394 6.07711e-07 -5.81707e-06
6.07711e-07 0.000451127 -5.05256e-06
-5.81707e-06 -5.05256e-06 0.000257766
0.000766102 -5.09599e-05 1.97511e-06
-5.09599e-05 0.000220238 -8.18013e-06
1.97511e-06 -8.18013e-06 8.4585e-05
-0.00119044 -5.25643e-06 -2.94749e-06
-5.25643e-06 -0.000991616 -5.48876e-06
-2.94749e-06 -5.48876e-06 -0.00110725
0.00051368 -4.46791e-05 1.54069e-06
-4.46791e-05 8.48402e-05 -1.69286e-06
1.54069e-06 -1.69286e-06 -7.99468e-05
0.000345387 -7.57778e-05 1.69397e-06
-7.57778e-05 -3.64467e-05 6.49861e-07
1.69397e-06 6.49861e-07 -0.000170112
0.000693613 -9.42348e-05 -1.22536e-06
-9.42348e-05 0.00019983 -1.48209e-07
-1.22536e-06 -1.48209e-07 5.13316e-05
0.000518894 -8.18682e-05 -1.62829e-06
-8.18682e-05 4.31988e-05 2.03949e-06
-1.62829e-06 2.03949e-06 -6.97246e-05
0.000424467 -7.52515e-05 3.48017e-06
-7.52515e-05 -4.99708e-06 5.02768e-07
3.48017e-06 5.02768e-07 -0.000141219
0.000542954 -0.000110753 4.40738e-08
-0.000110753 7.24059e-05 2.0976e-07
4.40738e-08 2.0976e-07 -5.58207e-05
0.000543398 -5.21689e-05 -2.15826e-06
-5.21689e-05 4.54676e-05 4.28931e-06
-2.15826e-06 4.28931e-06 -3.20513e-05
0.000405103 -1.09515e-05 1.13148e-06
-1.09515e-05 -1.41669e-06 -8.44009e-07
1.13148e-06 -8.44009e-07 -0.000141966
0.000500026 1.14874e-06 2.1057e-06
1.14874e-06 2.87482e-05 1.03197e-07
2.1057e-06 1.03197e-07 -5.27251e-05
0.00144729 -2.49686e-05 -8.37524e-06
-2.49686e-05 0.000588122 6.66534e-06
-8.37524e-06 6.66534e-06 0.000567927
0.000493909 6.44294e-05 -1.76006e-06
6.44294e-05 2.4752e-05 -3.40065e-06
-1.76006e-06 -3.40065e-06 -5.57806e-05
0.000875954 -1.4089e-05 -3.61114e-06
-1.4089e-05 0.000238151 7.27119e-07
-3.61114e-06 7.27119e-07 0.000216005
0.000780264 3.33192e-06 -3.07718e-06
3.33192e-06 0.0001649 4.85978e-06
-3.07718e-06 4.85978e-06 0.00016961
0.000411219 -1.40449e-05 2.98726e-06
-1.40449e-05 -5.28983e-05 -4.87052e-06
2.98726e-06 -4.87052e-06 -7.61062e-05
0.00255315 3.1357e-06 6.48515e-06
3.1357e-06 0.00126893 -1.30319e-08
6.48515e-06 -1.30319e-08 0.00128154
0.000891005 1.85822e-06 -7.95842e-06
1.85822e-06 0.000229635 -5.33673e-06
-7.95842e-06 -5.33673e-06 0.000233884
0.000491002 6.25044e-05 2.05544e-06
6.25044e-05 4.38899e-05 1.14662e-06
2.05544e-06 1.14662e-06 -5.29411e-05
0.000468739 4.98866e-05 -2.52354e-06
4.98866e-05 -7.02312e-06 -2.17537e-06
-2.52354e-06 -2.17537e-06 -5.23944e-05
0.000490222 -5.42624e-06 1.59338e-06
-5.42624e-06 6.65683e-06 9.89858e-08
1.59338e-06 9.89858e-08 -4.10369e-05
0.00049477 8.84927e-06 6.87029e-07
8.84927e-06 -2.69079e-05 -3.11068e-06
6.87029e-07 -3.11068e-06 -3.58716e-05
0.00055927 -5.93852e-05 -1.72353e-06
-5.93852e-05 5.14077e-05 2.22036e-06
-1.72353e-06 2.22036e-06 -2.62633e-06
0.000487548 1.33519e-05 7.42801e-08
1.33519e-05 -3.27063e-05 -7.16258e-07
7.42801e-08 -7.16258e-07 -4.27758e-05
0.00199827 3.54099e-05 4.64374e-06
3.54099e-05 0.000920713 -4.59778e-06
4.64374e-06 -4.59778e-06 0.000936771
0.00108979 3.51001e-05 -1.77219e-07
3.51001e-05 0.000348835 1.65694e-06
-1.77219e-07 1.65694e-06 0.000339139
0.0014531 4.40994e-05 -2.14451e-07
4.40994e-05 0.000584004 1.41946e-06
-2.14451e-07 1.41946e-06 0.000593281
0.000862934 4.75773e-05 -7.66839e-06
4.75773e-05 0.0002199 7.81067e-06
-7.66839e-06 7.81067e-06 0.000222163
0.000832602 0.000376261 8.33476e-05
0.000376261 -0.00211947 1.58896e-05
8.33476e-05 1.58896e-05 -0.00148305
0.00228152 -4.93987e-05 -4.20741e-06
-4.93987e-05 -6.43413e-05 5.37663e-06
-4.20741e-06 5.37663e-06 2.18869e-05
0.00220954 7.07901e-05 3.27543e-05
7.07901e-05 0.000155127 -1.40804e-05
3.27543e-05 -1.40804e-05 0.000266827
0.00257934 0.000335839 -4.84597e-05
0.000335839 -0.00166885 -3.20935e-05
-4.84597e-05 -3.20935e-05 -0.000488968
0.00225711 0.00010929 3.93799e-05
0.00010929 -0.000702116 -1.92401e-06
3.93799e-05 -1.92401e-06 -0.000334197
0.00257994 -4.79153e-05 3.47365e-06
-4.79153e-05 0.000373875 -9.01786e-06
3.47365e-06 -9.01786e-06 0.000417704
0.00465611 -0.000312109 -5.46028e-05
-0.000312109 0.00111975 -1.64573e-05
-5.46028e-05 -1.64573e-05 0.00120461
0.00285707 -0.000189725 2.43076e-05
-0.000189725 -0.000326817 1.34959e-05
2.43076e-05 1.34959e-05 0.000118337
0.0151238 -0.000794517 3.42442e-05
-0.000794517 0.0026636 -1.3531e-06
3.42442e-05 -1.3531e-06 0.00149214
0.014912 0.00498862 0.00128857
0.00498862 0.00586083 -0.000445866
0.00128857 -0.000445866 0.00329765
0.0169889 0.0057914 2.67872e-05
0.0057914 0.0110358 8.52545e-06
2.67872e-05 8.52545e-06 0.00864953
0.000199202 -9.93987e-05 -4.58769e-07
-9.93987e-05 -0.000122244 -6.94762e-07
-4.58769e-07 -6.94762e-07 -0.000231506
0.000555929 -9.0668e-06 1.45078e-06
-9.0668e-06 8.12646e-05 -1.35542e-07
1.45078e-06 -1.35542e-07 -1.01503e-05
0.0006365 -8.80132e-05 -6.02014e-09
-8.80132e-05 0.000148222 3.29462e-06
-6.02014e-09 3.29462e-06 4.23026e-05
0.000547404 -3.51335e-05 5.93805e-07
-3.51335e-05 8.74332e-05 5.21721e-07
5.93805e-07 5.21721e-07 -2.6618e-05
0.000879116 0.000100413 -4.72861e-06
0.000100413 0.000331919 7.11816e-07
-4.72861e-06 7.11816e-07 0.000197602
0.000419913 0.000123158 8.63833e-07
0.000123158 -1.84049e-05 8.26555e-06
8.63833e-07 8.26555e-06 -0.000136204
0.000980663 -1.31862e-05 2.85656e-06
-1.31862e-05 0.000378398 4.17594e-06
2.85656e-06 4.17594e-06 0.000242417
0.000503266 -2.84199e-05 -1.54991e-06
-2.84199e-05 5.77374e-05 1.4207e-06
-1.54991e-06 1.4207e-06 -5.38333e-05
0.00252843 -0.000275714 1.01627e-05
-0.000275714 4.57669e-05 1.71914e-07
1.01627e-05 1.71914e-07 0.000190961
0.00203113 -0.00051221 1.50271e-05
-0.00051221 -0.000327395 -7.44294e-06
1.50271e-05 -7.44294e-06 -0.000137394
0.00219965 -0.00077462 5.33237e-07
-0.00077462 7.68761e-05 1.13337e-06
5.33237e-07 1.13337e-06 -8.13055e-05
0.00200041 -0.000781077 1.782e-05
-0.000781077 0.000629435 6.6235e-06
1.782e-05 6.6235e-06 0.00020484
0.00187461 -0.000915014 -1.17081e-05
-0.000915014 0.000191949 4.15667e-06
-1.17081e-05 4.15667e-06 -0.000125583
0.00259461 -0.00104964 3.18777e-05
-0.00104964 0.00142049 -7.74233e-06
3.18777e-05 -7.74233e-06 0.000645969
0.00462788 -0.000705603 6.19753e-06
-0.000705603 0.00232036 2.58867e-06
6.19753e-06 2.58867e-06 0.00193335
0.000808294 -0.000186541 6.87345e-06
-0.000186541 0.000284821 -3.44007e-05
6.87345e-06 -3.44007e-05 1.92399e-05
0.000604019 -7.08289e-05 2.75243e-06
-7.08289e-05 5.4416e-05 1.61161e-06
2.75243e-06 1.61161e-06 -4.25585e-05
0.000797917 -8.31885e-05 8.97273e-06
-8.31885e-05 0.000218065 -1.63481e-05
8.97273e-06 -1.63481e-05 5.20015e-05
0.00108816 -4.96998e-05 3.50061e-06
-4.96998e-05 0.000427121 2.18888e-06
3.50061e-06 2.18888e-06 0.000289975
0.000713156 2.61804e-05 5.63371e-06
2.61804e-05 0.000194266 -3.43355e-06
5.63371e-06 -3.43355e-06 0.000156891
0.00237046 -0.000378705 -6.22915e-07
-0.000378705 -7.01663e-05 3.25607e-06
-6.22915e-07 3.25607e-06 0.000192084
0.000498376 -7.45254e-05 -2.99792e-06
-7.45254e-05 0.000107438 -2.85537e-07
-2.99792e-06 -2.85537e-07 -2.1864e-05
0.0010894 -0.000160344 -7.3228e-06
-0.000160344 0.000413258 5.15729e-06
-7.3228e-06 5.15729e-06 0.000264015
0.00175484 -0.000598282 6.78926e-06
-0.000598282 -0.000263926 -3.2583e-06
6.78926e-06 -3.2583e-06 -0.000165247
0.0017449 -0.000803071 1.13077e-06
-0.000803071 6.06396e-07 -5.12966e-07
1.13077e-06 -5.12966e-07 -0.000237902
0.000880012 -0.000716643 -2.40816e-07
-0.000716643 -0.000184416 -3.12632e-06
-2.40816e-07 -3.12632e-06 -0.000463093
0.00163643 -0.000326958 4.05689e-07
-0.000326958 0.000907582 -2.29324e-05
4.05689e-07 -2.29324e-05 0.00055106
0.0016277 -0.000635934 2.5292e-06
-0.000635934 0.00123509 3.22531e-06
2.5292e-06 3.22531e-06 0.000426006
0.00476696 -0.000741485 -4.87502e-05
-0.000741485 0.00109728 1.96083e-05
-4.87502e-05 1.96083e-05 0.00127895
0.0041756 -0.00092711 -5.09119e-05
-0.00092711 0.00135275 1.47828e-05
-5.09119e-05 1.47828e-05 0.00117556
0.00206368 -0.000922731 3.91419e-06
-0.000922731 0.000273278 -2.06135e-06
3.91419e-06 -2.06135e-06 1.8241e-05
-0.000600348 -0.000442345 -8.65798e-06
-0.000442345 -0.000734151 1.68663e-05
-8.65798e-06 1.68663e-05 -0.000880068
0.00028614 -0.000132073 1.69142e-06
-0.000132073 1.66662e-05 8.9557e-06
1.69142e-06 8.9557e-06 -0.000198606
0.000412655 -0.000173383 5.22805e-06
-0.000173383 0.000150875 -3.03527e-07
5.22805e-06 -3.03527e-07 -9.57227e-05
0.00181343 -0.000252925 -4.65186e-06
-0.000252925 0.00132818 -2.22609e-05
-4.65186e-06 -2.22609e-05 0.000676092
-0.00654782 -0.000327242 0.000508109
-0.000327242 -0.00439342 -2.06659e-05
0.000508109 -2.06659e-05 -0.00376131
0.0114908 -0.000317007 6.10414e-05
-0.000317007 0.00147172 1.39846e-05
6.10414e-05 1.39846e-05 0.00139879
0.00249307 0.000325906 7.82364e-06
0.000325906 0.00128344 -7.93656e-06
7.82364e-06 -7.93656e-06 0.00108205
0.00149467 0.000480393 -3.73945e-06
0.000480393 0.000476504 3.76308e-06
-3.73945e-06 3.76308e-06 0.00013952
0.00280621 0.000638039 9.53834e-05
0.000638039 0.000388613 4.11147e-05
9.53834e-05 4.11147e-05 0.00038956
0.00297937 0.000927969 2.2876e-05
0.000927969 0.000757286 9.6372e-06
2.2876e-05 9.6372e-06 0.000457872
0.0028703 0.000803339 1.57646e-05
0.000803339 0.00112384 4.30766e-06
1.57646e-05 4.30766e-06 0.000676527
0.0152651 0.000702473 7.75162e-05
0.000702473 0.00307493 -4.45574e-05
7.75162e-05 -4.45574e-05 0.00227359
0.00858431 0.00211759 -0.000201815
0.00211759 -0.000242372 2.65448e-06
-0.000201815 2.65448e-06 0.000694487
0.00225419 0.00118937 5.34769e-06
0.00118937 0.000334616 -3.01779e-05
5.34769e-06 -3.01779e-05 -0.000136549
0.0127095 -0.0038551 -0.000459032
-0.0038551 0.0054121 -1.39561e-05
-0.000459032 -1.39561e-05 0.0030063
0.00180518 -0.00798665 -0.00222566
-0.00798665 0.00323887 -0.00141875
-0.00222566 -0.00141875 0.000882537
0.00102362 0.000304077 1.5357e-06
0.000304077 0.000418225 -4.19632e-07
1.5357e-06 -4.19632e-07 0.000184086
-0.00189479 -0.00226515 0.000423595
-0.00226515 -0.00269021 7.17105e-05
0.000423595 7.17105e-05 -0.00430517
-0.00281109 -0.00202116 -0.00045083
-0.00202116 0.00492033 -0.000191458
-0.00045083 -0.000191458 -2.31558e-05
0.00336345 0.00101667 -1.6371e-05
0.00101667 0.000748119 1.27365e-06
-1.6371e-05 1.27365e-06 0.000626001
0.000837627 0.000395645 -7.78515e-06
0.000395645 0.000113206 7.88442e-06
-7.78515e-06 7.88442e-06 -0.000210674
0.00121891 0.000739222 5.77029e-06
0.000739222 0.000229399 2.04547e-06
5.77029e-06 2.04547e-06 -0.000154113
0.00144888 0.00107277 5.12363e-05
0.00107277 0.000234844 3.2168e-05
5.12363e-05 3.2168e-05 -4.6757e-05
0.013645 0.00230451 -0.000142568
0.00230451 0.00110721 -8.56573e-05
-0.000142568 -8.56573e-05 -0.000716566
0.00467514 0.00276419 -5.14233e-05
0.00276419 -0.000308994 -4.50613e-05
-5.14233e-05 -4.50613e-05 0.000277985
0.0167986 -0.00463984 0.000497195
-0.00463984 0.00677489 -1.07894e-05
0.000497195 -1.07894e-05 0.00357445
0.0143795 -0.00392353 0.000175193
-0.00392353 0.00223459 0.000680819
0.000175193 0.000680819 0.000717033
0.0022839 0.000381061 -1.98894e-05
0.000381061 0.00115445 -1.20521e-05
-1.98894e-05 -1.20521e-05 0.00094792
-0.0104223 0.00115917 -0.000141876
0.00115917 0.00330452 -0.000133491
-0.000141876 -0.000133491 -0.00281775
0.00472441 0.000782276 -0.000345799
0.000782276 0.00372946 -0.000464063
-0.000345799 -0.000464063 -0.000889619
0.00305464 0.000792644 -2.77791e-05
0.000792644 0.000892365 8.23536e-07
-2.77791e-05 8.23536e-07 0.000847695
0.00220557 0.000755815 -6.72508e-05
0.000755815 0.000920917 -2.5817e-05
-6.72508e-05 -2.5817e-05 0.000554456
0.000892511 0.000758824 -9.76295e-05
0.000758824 0.000771811 -2.20371e-05
-9.76295e-05 -2.20371e-05 7.2457e-05
-0.0023135 0.00155689 -4.05908e-05
0.00155689 -0.00110143 -3.9911e-05
-4.05908e-05 -3.9911e-05 -0.00131798
-2.78061e-05 0.00271276 0.000359198
0.00271276 -0.00203356 0.000125492
0.000359198 0.000125492 -0.00461011
0.0183649 -0.0056056 0.000238346
-0.0056056 0.00900489 0.000662046
0.000238346 0.000662046 0.00524998
0.00852742 -0.00107566 -0.000159568
-0.00107566 -0.00203194 -0.000139821
-0.000159568 -0.000139821 -0.000961694
-0.000833699 0.000104482 3.45651e-06
0.000104482 -0.00062584 -8.10752e-06
3.45651e-06 -8.10752e-06 -0.000750983
0.00148761 0.000265387 1.09367e-05
0.000265387 0.000735405 2.77514e-06
1.09367e-05 2.77514e-06 0.00057376
-0.000732797 5.14015e-05 4.89829e-07
5.14015e-05 -0.000529327 -2.3744e-06
4.89829e-07 -2.3744e-06 -0.000682763
0.000337557 5.33153e-05 1.75584e-06
5.33153e-05 -5.12442e-05 -6.04451e-07
1.75584e-06 -6.04451e-07 -0.000184946
0.000957017 8.52377e-05 -1.16745e-06
8.52377e-05 0.000360331 -1.88466e-06
-1.16745e-06 -1.88466e-06 0.000180055
0.000586545 9.8502e-06 -1.93974e-06
9.8502e-06 0.00013214 1.92098e-06
-1.93974e-06 1.92098e-06 -4.24158e-05
0.000555506 8.34058e-05 5.1313e-06
8.34058e-05 9.79547e-05 4.1845e-06
5.1313e-06 4.1845e-06 -6.81193e-05
-0.000309763 5.80934e-05 -4.3468e-06
5.80934e-05 -0.000375773 3.45664e-07
-4.3468e-06 3.45664e-07 -0.000516636
0.000767842 4.54384e-05 1.15876e-07
4.54384e-05 0.000244568 -9.6919e-07
1.15876e-07 -9.6919e-07 6.86954e-05
0.000759774 8.22139e-05 8.15751e-07
8.22139e-05 0.000232726 -1.8381e-07
8.15751e-07 -1.8381e-07 7.63125e-05
0.000844854 -5.13999e-05 -9.48093e-07
-5.13999e-05 0.000280985 1.95325e-06
-9.48093e-07 1.95325e-06 0.000109693
-0.000896998 1.6255e-05 2.65729e-06
1.6255e-05 -0.00061525 3.00651e-07
2.65729e-06 3.00651e-07 -0.000813618
-0.000164781 3.8186e-05 -2.10045e-06
3.8186e-05 4.72706e-05 4.41526e-06
-2.10045e-06 4.41526e-06 -0.000278599
0.000622354 -3.57518e-05 -2.50054e-06
-3.57518e-05 0.00021341 -8.6353e-06
-2.50054e-06 -8.6353e-06 3.74495e-05
0.00111138 -2.54704e-05 -5.65003e-08
-2.54704e-05 0.000477887 -5.72935e-07
-5.65003e-08 -5.72935e-07 0.000283498
0.000798437 -7.8276e-05 -2.71529e-07
-7.8276e-05 0.000265209 -8.95298e-07
-2.71529e-07 -8.95298e-07 8.66936e-05
0.000384524 -7.3138e-05 3.93321e-06
-7.3138e-05 -4.67526e-05 5.73416e-06
3.93321e-06 5.73416e-06 -0.000174115
0.000826677 -8.40915e-05 7.50518e-07
-8.40915e-05 0.000287 -1.43638e-06
7.50518e-07 -1.43638e-06 0.000104478
0.000723573 -5.18025e-05 -1.73095e-06
-5.18025e-05 0.000185475 1.0443e-07
-1.73095e-06 1.0443e-07 5.0776e-05
-0.000353063 -5.91457e-05 2.01449e-06
-5.91457e-05 -0.00046705 3.35501e-06
2.01449e-06 3.35501e-06 -0.000578939
0.000162956 -4.36987e-05 1.79286e-07
-4.36987e-05 -0.000114971 -1.67319e-06
1.79286e-07 -1.67319e-06 -0.000267261
0.000131548 -2.76436e-05 -6.84621e-06
-2.76436e-05 -9.84321e-05 -4.14028e-06
-6.84621e-06 -4.14028e-06 -0.000264058
4.23612e-05 -8.11627e-05 3.116e-06
-8.11627e-05 -0.000189247 -3.87886e-06
3.116e-06 -3.87886e-06 -0.000323919
0.00102441 -0.000109835 7.97676e-06
-0.000109835 0.000293208 -1.46531e-05
7.97676e-06 -1.46531e-05 0.000191222
-6.82733e-06 -9.71598e-05 3.03932e-07
-9.71598e-05 -0.000369185 4.07831e-06
3.03932e-07 4.07831e-06 -0.000510193
-5.65469e-06 -5.45811e-05 -6.16934e-06
-5.45811e-05 -0.000226228 -2.50375e-06
-6.16934e-06 -2.50375e-06 -0.000385362
0.000684754 -5.9988e-05 1.05931e-06
-5.9988e-05 0.0001846 -9.66538e-07
1.05931e-06 -9.66538e-07 1.94601e-05
9.50325e-05 -3.764e-05 9.82331e-07
-3.764e-05 -0.000181243 -1.42587e-06
9.82331e-07 -1.42587e-06 -0.000340198
0.000690564 -0.000101471 1.05693e-07
-0.000101471 0.000201549 -1.44236e-07
1.05693e-07 -1.44236e-07 4.71836e-05
0.000475301 -2.3325e-05 9.27577e-07
-2.3325e-05 2.2504e-05 1.56775e-06
9.27577e-07 1.56775e-06 -9.48809e-05
0.000845984 -9.574e-05 -1.32106e-06
-9.574e-05 0.000288293 7.55288e-07
-1.32106e-06 7.55288e-07 0.000141726
0.000633167 -7.96987e-05 -9.16489e-07
-7.96987e-05 0.00012826 1.06777e-07
-9.16489e-07 1.06777e-07 5.70531e-06
0.000432377 3.17923e-05 -3.09203e-07
3.17923e-05 -2.48686e-05 3.94371e-06
-3.09203e-07 3.94371e-06 -0.000103107
0.000509886 -0.000102909 1.5803e-06
-0.000102909 4.60199e-05 -1.3163e-06
1.5803e-06 -1.3163e-06 -7.94208e-05
0.000522472 -3.51847e-05 -3.62742e-07
-3.51847e-05 2.92855e-05 1.17697e-07
-3.62742e-07 1.17697e-07 -4.57018e-05
0.00142536 8.06309e-06 -7.25713e-06
8.06309e-06 0.000567589 6.99714e-06
-7.25713e-06 6.99714e-06 0.000547372
0.000497149 -5.69932e-05 1.31741e-06
-5.69932e-05 2.22045e-05 -3.37621e-06
1.31741e-06 -3.37621e-06 -5.60484e-05
0.000881726 -1.46025e-05 -6.23593e-06
-1.46025e-05 0.000235502 7.89505e-07
-6.23593e-06 7.89505e-07 0.000213461
0.000760836 1.2703e-05 8.94451e-07
1.2703e-05 0.000144286 2.18197e-06
8.94451e-07 2.18197e-06 0.000148211
0.000439668 -1.23504e-05 2.35898e-06
-1.23504e-05 -3.6903e-05 -4.60237e-06
2.35898e-06 -4.60237e-06 -5.97896e-05
0.00253928 1.3266e-05 6.77505e-06
1.3266e-05 0.00126005 3.87345e-08
6.77505e-06 3.87345e-08 0.00127286
0.0025559 2.11474e-06 4.75382e-07
2.11474e-06 0.00127064 -5.10015e-06
4.75382e-07 -5.10015e-06 0.00128326
0.0010203 7.80442e-05 -7.32042e-07
7.80442e-05 0.000373812 1.17593e-06
-7.32042e-07 1.17593e-06 0.000273015
0.00051754 5.86794e-05 -1.81797e-06
5.86794e-05 2.76177e-05 -2.20168e-06
-1.81797e-06 -2.20168e-06 -2.26399e-05
0.000549 -1.56628e-05 -2.97399e-08
-1.56628e-05 8.37265e-05 7.85995e-07
-2.97399e-08 7.85995e-07 -1.36452e-05
0.000495764 6.47066e-06 7.33262e-07
6.47066e-06 -2.64513e-05 -3.3111e-06
7.33262e-07 -3.3111e-06 -3.47862e-05
0.000475099 -1.33881e-05 8.20121e-07
-1.33881e-05 -4.05339e-06 -1.55597e-07
8.20121e-07 -1.55597e-07 -4.88604e-05
0.000548534 -5.71959e-05 -1.19269e-06
-5.71959e-05 4.56286e-05 2.14072e-06
-1.19269e-06 2.14072e-06 -4.1594e-06
0.00049311 7.25578e-06 -4.35081e-07
7.25578e-06 -2.83799e-05 -8.62391e-09
-4.35081e-07 -8.62391e-09 -3.73028e-05
0.00196229 2.13817e-05 -5.16272e-07
2.13817e-05 0.000895548 -4.67186e-06
-5.16272e-07 -4.67186e-06 0.000913017
0.00112386 2.33354e-05 -5.25883e-07
2.33354e-05 0.00036738 2.05703e-06
-5.25883e-07 2.05703e-06 0.000360142
0.00130657 2.873e-05 -1.06606e-06
2.873e-05 0.000485972 2.52678e-08
-1.06606e-06 2.52678e-08 0.000498736
0.000809045 3.43521e-05 -9.14635e-06
3.43521e-05 0.000179598 7.30655e-06
-9.14635e-06 7.30655e-06 0.000185915
-0.00895669 0.0010997 0.000468732
0.0010997 -0.00321003 -3.12367e-05
0.000468732 -3.12367e-05 -0.00576875
-0.00137586 9.67058e-05 0.000983732
9.67058e-05 0.00573023 -0.0002512
0.000983732 -0.0002512 0.00227757
0.00245292 0.00031012 -0.000160303
0.00031012 -0.00204036 -2.70239e-05
-0.000160303 -2.70239e-05 -0.000572285
0.00163185 2.34723e-05 1.72821e-05
2.34723e-05 -0.000985653 -3.33473e-05
1.72821e-05 -3.33473e-05 -0.000587573
0.00167037 -7.14865e-05 6.05549e-06
-7.14865e-05 -0.000259829 1.63024e-05
6.05549e-06 1.63024e-05 -0.000214308
-0.00116201 3.87511e-05 -8.83686e-05
3.87511e-05 -0.00144707 -2.43392e-05
-8.83686e-05 -2.43392e-05 -0.000509736
0.00378701 -0.000361762 3.51652e-06
-0.000361762 0.000448984 5.5723e-06
3.51652e-06 5.5723e-06 0.000562912
0.0118785 -6.07197e-05 0.000171989
-6.07197e-05 -0.000376946 -6.79384e-05
0.000171989 -6.79384e-05 -0.00117313
0.000828145 0.00330173 -2.72316e-06
0.00330173 0.00068907 -6.00917e-05
-2.72316e-06 -6.00917e-05 -0.00245958
0.0106719 0.00656221 -0.000464207
0.00656221 0.00746024 0.000238514
-0.000464207 0.000238514 0.00530785
0.00197211 -0.000696617 4.27311e-05
-0.000696617 -0.00197674 -4.05953e-05
4.27311e-05 -4.05953e-05 -0.000965978
0.0151162 -0.00205325 0.000207722
-0.00205325 0.00194211 -7.4567e-05
0.000207722 -7.4567e-05 0.000426738
0.0141167 0.00588583 0.000370058
0.00588583 0.00425013 -0.00051943
0.000370058 -0.00051943 0.00127993
0.017878 0.00392374 -0.000315159
0.00392374 0.00514325 0.000256172
-0.000315159 0.000256172 0.00338536
0.000910796 0.000163388 -2.78901e-06
0.000163388 0.000354576 4.54852e-06
-2.78901e-06 4.54852e-06 0.000185112
0.000363256 3.54972e-05 2.86609e-07
3.54972e-05 -3.46841e-05 -1.01634e-06
2.86609e-07 -1.01634e-06 -0.000136395
0.00057102 -9.60026e-05 1.51659e-06
-9.60026e-05 9.98155e-05 1.38951e-06
1.51659e-06 1.38951e-06 2.73333e-06
0.000642056 1.10087e-05 6.64422e-06
1.10087e-05 0.000151183 1.30071e-08
6.64422e-06 1.30071e-08 3.21393e-05
0.000825419 8.27699e-05 2.25066e-06
8.27699e-05 0.000312379 1.35602e-06
2.25066e-06 1.35602e-06 0.0001755
0.000455557 9.52419e-07 -1.0676e-07
9.52419e-07 5.77535e-05 7.89818e-06
-1.0676e-07 7.89818e-06 -0.000104649
0.000744027 9.19909e-05 1.16778e-06
9.19909e-05 0.000209822 3.28299e-06
1.16778e-06 3.28299e-06 7.66758e-05
0.000469413 6.10906e-05 4.79921e-06
6.10906e-05 2.34951e-05 5.47149e-07
4.79921e-06 5.47149e-07 -0.000116003
0.000729877 -4.00179e-05 2.88322e-06
-4.00179e-05 0.000222148 -1.26855e-06
2.88322e-06 -1.26855e-06 8.65982e-05
0.000474634 -1.57347e-05 1.9286e-06
-1.57347e-05 2.90084e-05 -3.11505e-06
1.9286e-06 -3.11505e-06 -7.61536e-05
0.001413 -0.000324936 3.11346e-05
-0.000324936 -0.000543032 -3.739e-06
3.11346e-05 -3.739e-06 -0.000283542
0.00114021 -0.000553972 3.24769e-05
-0.000553972 -0.000602988 -1.06525e-05
3.24769e-05 -1.06525e-05 -0.000472022
0.00101908 -0.000700024 3.91389e-06
-0.000700024 -0.000412293 1.24489e-06
3.91389e-06 1.24489e-06 -0.000579389
4.662e-05 -0.000629509 -8.23793e-06
-0.000629509 -0.000632751 1.8158e-06
-8.23793e-06 1.8158e-06 -0.000897654
0.00319102 -0.00050798 8.56866e-06
-0.00050798 0.00196203 3.33325e-05
8.56866e-06 3.33325e-05 0.00132439
-0.000112952 -0.000463688 -8.70653e-07
-0.000463688 -0.000143657 -3.88222e-06
-8.70653e-07 -3.88222e-06 -0.00060398
0.001382 -0.000216084 4.83173e-06
-0.000216084 0.000584456 -1.41891e-06
4.83173e-06 -1.41891e-06 0.000459015
0.000718578 -4.37591e-05 -8.37037e-07
-4.37591e-05 0.000239488 3.41786e-06
-8.37037e-07 3.41786e-06 0.000105972
0.00234195 -0.000541755 9.92475e-06
-0.000541755 -0.000173649 -8.27701e-06
9.92475e-06 -8.27701e-06 5.90941e-05
0.000373208 -4.72072e-05 4.33596e-07
-4.72072e-05 7.66021e-05 1.49506e-06
4.33596e-07 1.49506e-06 -0.000152615
-0.000220657 -0.000165803 -8.0636e-07
-0.000165803 -0.000225017 -5.20294e-06
-8.0636e-07 -5.20294e-06 -0.000471054
0.00185679 -0.000733378 1.90494e-05
-0.000733378 3.5515e-05 -2.7822e-06
1.90494e-05 -2.7822e-06 -2.0691e-05
0.00188525 -0.000918266 -6.16602e-07
-0.000918266 9.77484e-05 3.80404e-06
-6.16602e-07 3.80404e-06 -9.24874e-05
0.000287878 -0.000664937 1.9416e-05
-0.000664937 -0.000205977 -1.28701e-05
1.9416e-05 -1.28701e-05 -0.000461057
0.0012167 -0.000343143 3.36798e-06
-0.000343143 0.000989391 -1.72053e-05
3.36798e-06 -1.72053e-05 0.000332536
0.0028377 -0.000905746 -5.92598e-05
-0.000905746 0.000501701 3.39105e-05
-5.92598e-05 3.39105e-05 0.000236075
0.000875399 -0.000639733 -3.77152e-05
-0.000639733 -0.000257607 7.4625e-06
-3.77152e-05 7.4625e-06 -0.000289734
0.000713351 -0.000636432 -7.35757e-05
-0.000636432 0.000405519 5.03982e-05
-7.35757e-05 5.03982e-05 -1.32498e-05
-0.00293404 -0.000269018 -6.44932e-06
-0.000269018 -0.00193227 1.00755e-05
-6.44932e-06 1.00755e-05 -0.00217325
-0.00100104 -5.45584e-05 3.79725e-06
-5.45584e-05 -0.00068649 8.50295e-06
3.79725e-06 8.50295e-06 -0.000959827
0.00053564 -6.84914e-05 8.85024e-06
-6.84914e-05 0.000334631 -1.29785e-05
8.85024e-06 -1.29785e-05 -3.41144e-05
-0.00219457 0.0011576 -0.000373842
0.0011576 0.00675727 1.8658e-05
-0.000373842 1.8658e-05 0.00227152
0.000454172 -0.0013551 -8.42128e-06
-0.0013551 0.00216847 1.70268e-05
-8.42128e-06 1.70268e-05 0.00143952
0.00219082 0.00102653 -0.000113239
0.00102653 -0.00505273 -3.63521e-05
-0.000113239 -3.63521e-05 -0.00531127
0.000195738 0.000234991 1.11162e-05
0.000234991 -5.27554e-05 -4.74236e-06
1.11162e-05 -4.74236e-06 -0.000282379
0.00144536 0.000537656 9.93755e-06
0.000537656 0.000514337 1.81399e-05
9.93755e-06 1.81399e-05 0.000131215
0.00350202 0.00090597 6.40974e-05
0.00090597 0.000812868 2.04805e-05
6.40974e-05 2.04805e-05 0.000724995
0.00167741 0.000816061 1.41622e-05
0.000816061 0.000495301 2.17398e-05
1.41622e-05 2.17398e-05 7.81936e-05
0.0121194 -0.00261377 0.000194353
-0.00261377 0.00440849 5.90293e-05
0.000194353 5.90293e-05 0.00361437
0.00377726 0.00118412 -0.000360376
0.00118412 -0.00398046 -6.28461e-05
-0.000360376 -6.28461e-05 -0.00571903
0.0051012 0.00262372 5.64937e-06
0.00262372 0.000172414 2.96449e-05
5.64937e-06 2.96449e-05 0.000554023
0.00209299 0.000999349 4.77034e-05
0.000999349 0.000780451 -1.75268e-05
4.77034e-05 -1.75268e-05 0.000568707
0.00556161 -0.0030225 -0.000376144
-0.0030225 0.00283992 -0.000350208
-0.000376144 -0.000350208 -0.000169029
-0.000463384 -0.002998 -0.000602923
-0.002998 0.00538024 -0.000197678
-0.000602923 -0.000197678 0.000314152
0.0219635 -0.00496791 0.000637876
-0.00496791 0.00593238 0.00035096
0.000637876 0.00035096 0.00420927
0.000457118 0.000228274 1.66802e-05
0.000228274 8.77689e-05 -4.09048e-06
1.66802e-05 -4.09048e-06 -0.000111407
-0.00412969 0.000432053 -0.000174354
0.000432053 0.00514559 -3.58829e-05
-0.000174354 -3.58829e-05 -1.93199e-05
0.00536196 0.00105792 -0.000109454
0.00105792 0.00312627 -0.000162915
-0.000109454 -0.000162915 -0.00191811
0.00161455 0.000776877 1.17146e-05
0.000776877 0.000228338 3.79307e-06
1.17146e-05 3.79307e-06 0.000131681
0.000702547 0.000575869 1.1468e-05
0.000575869 0.000196218 4.19797e-06
1.1468e-05 4.19797e-06 -0.000179511
0.00058755 0.000858058 -4.84698e-05
0.000858058 0.000409755 -6.03911e-05
-4.84698e-05 -6.03911e-05 -0.000140413
0.00398775 0.00286891 2.37413e-05
0.00286891 0.00118859 2.45606e-05
2.37413e-05 2.45606e-05 0.00095441
0.0166876 0.00369639 5.61436e-05
0.00369639 0.00403204 1.46312e-05
5.61436e-05 1.46312e-05 0.00190137
0.00703541 -0.00343186 8.09031e-05
-0.00343186 0.0026519 -7.88187e-05
8.09031e-05 -7.88187e-05 -0.00169622
0.0146192 -0.00219523 -5.98942e-06
-0.00219523 0.00207731 -6.6529e-05
-5.98942e-06 -6.6529e-05 0.00330873
0.00080831 0.00042895 -1.38766e-05
0.00042895 0.000322372 -8.0888e-06
-1.38766e-05 -8.0888e-06 5.28955e-05
0.00202656 0.000201684 -0.000313634
0.000201684 0.00201765 -7.13365e-05
-0.000313634 -7.13365e-05 -0.00230676
0.000749541 0.000650261 -0.000112818
0.000650261 -0.000187315 -0.000166476
-0.000112818 -0.000166476 -0.00174827
-0.000719702 0.000264935 -2.39642e-06
0.000264935 -0.000194907 -2.07648e-05
-2.39642e-06 -2.07648e-05 -0.000438128
-0.000687928 0.000567001 -0.000173792
0.000567001 0.00101058 -7.06342e-06
-0.000173792 -7.06342e-06 0.000202894
0.0141881 0.004394 9.43909e-05
0.004394 0.0045859 -3.89992e-05
9.43909e-05 -3.89992e-05 0.000437689
-0.00256038 -0.00479123 3.61887e-06
-0.00479123 -0.000443438 0.000226154
3.61887e-06 0.000226154 -0.00494417
0.0114198 0.000411589 5.56106e-05
0.000411589 -0.00154547 -0.000315858
5.56106e-05 -0.000315858 0.00102795
0.000841744 0.000175258 -5.18423e-06
0.000175258 0.000303412 1.34173e-05
-5.18423e-06 1.34173e-05 0.000172678
0.000911752 0.000214903 -9.99948e-06
0.000214903 0.000478447 -5.02861e-06
-9.99948e-06 -5.02861e-06 0.000290527
-0.000525965 8.38593e-05 2.04424e-06
8.38593e-05 -0.000184286 -3.32155e-07
2.04424e-06 -3.32155e-07 -0.000478505
0.00066316 8.64741e-05 -1.7726e-06
8.64741e-05 0.000162508 -2.0692e-06
-1.7726e-06 -2.0692e-06 -1.30997e-06
0.00109401 -3.77825e-05 -1.68942e-06
-3.77825e-05 0.000443944 4.29702e-06
-1.68942e-06 4.29702e-06 0.000264159
0.000299465 7.16847e-05 2.77083e-06
7.16847e-05 -6.29164e-05 2.37626e-06
2.77083e-06 2.37626e-06 -0.000211333
-0.00102094 2.42439e-05 1.56942e-06
2.42439e-05 -0.000673549 2.6243e-06
1.56942e-06 2.6243e-06 -0.000871482
0.000736587 -2.73178e-05 1.23397e-06
-2.73178e-05 0.000214531 1.76955e-07
1.23397e-06 1.76955e-07 4.38201e-05
0.000580053 1.70137e-05 6.54595e-08
1.70137e-05 0.000183102 -2.38599e-06
6.54595e-08 -2.38599e-06 9.39182e-06
-3.00443e-06 2.19414e-05 1.81261e-06
2.19414e-05 0.000180772 3.03483e-06
1.81261e-06 3.03483e-06 -0.000172311
-0.000298933 5.68845e-05 -4.0092e-06
5.68845e-05 0.000185691 1.20382e-05
-4.0092e-06 1.20382e-05 -0.000289745
0.00024218 -5.92149e-07 -3.08887e-06
-5.92149e-07 0.000352805 -1.30027e-06
-3.08887e-06 -1.30027e-06 -2.22702e-05
0.000865446 1.48847e-05 -1.86181e-06
1.48847e-05 0.000331036 -5.98593e-06
-1.86181e-06 -5.98593e-06 0.000175669
0.000665255 -0.000139454 2.23953e-06
-0.000139454 0.000171062 1.67523e-06
2.23953e-06 1.67523e-06 -1.02497e-06
0.000448402 -3.01208e-05 1.1864e-06
-3.01208e-05 3.33459e-06 2.29916e-06
1.1864e-06 2.29916e-06 -0.00012462
0.000386554 -9.11667e-05 8.89348e-07
-9.11667e-05 -6.25133e-06 1.11425e-05
8.89348e-07 1.11425e-05 -0.000107257
0.000184761 -3.7369e-05 2.48742e-06
-3.7369e-05 -8.87634e-05 3.53709e-06
2.48742e-06 3.53709e-06 -0.00023776
0.000591817 -4.44705e-05 8.10944e-08
-4.44705e-05 0.000140761 5.49004e-07
8.10944e-08 5.49004e-07 -8.48167e-06
0.000486593 -4.86149e-05 -3.36076e-08
-4.86149e-05 8.03903e-05 -2.07155e-06
-3.36076e-08 -2.07155e-06 -5.18336e-05
0.000330143 -5.05362e-05 -8.02691e-06
-5.05362e-05 -2.38006e-05 -4.60852e-06
-8.02691e-06 -4.60852e-06 -0.000157229
0.000484603 -6.95544e-05 8.54754e-06
-6.95544e-05 0.000234717 -6.42003e-06
8.54754e-06 -6.42003e-06 6.89492e-05
0.000405506 -0.000175646 5.41448e-07
-0.000175646 -0.000179642 3.8044e-06
5.41448e-07 3.8044e-06 -0.000271469
0.000641675 -0.000135041 -1.01273e-05
-0.000135041 8.13054e-05 -6.82749e-07
-1.01273e-05 -6.82749e-07 -2.95009e-05
0.000321436 -0.000170499 7.09748e-06
-0.000170499 -0.000128996 7.37022e-06
7.09748e-06 7.37022e-06 -0.000279503
0.00189142 -0.000482212 1.0292e-06
-0.000482212 0.000723969 1.97648e-05
1.0292e-06 1.97648e-05 0.000414874
0.0017422 -0.000228497 3.13558e-06
-0.000228497 0.00078088 -7.29774e-06
3.13558e-06 -7.29774e-06 0.00059178
-5.17388e-05 -0.0001028 -9.56353e-06
-0.0001028 -0.000353283 -5.50688e-06
-9.56353e-06 -5.50688e-06 -0.000477644
0.000533596 -7.58558e-05 2.3839e-08
-7.58558e-05 7.72863e-05 -5.94687e-07
2.3839e-08 -5.94687e-07 -8.03398e-05
-0.000159192 -4.93871e-05 -9.05487e-07
-4.93871e-05 -0.000325652 -2.81985e-06
-9.05487e-07 -2.81985e-06 -0.000505585
0.000920106 -7.48503e-05 -3.4041e-07
-7.48503e-05 0.000322337 1.4058e-06
-3.4041e-07 1.4058e-06 0.000157729
0.000734333 -0.000117111 -5.65571e-07
-0.000117111 0.000222835 5.75282e-07
-5.65571e-07 5.75282e-07 5.09745e-05
0.000535984 -5.90771e-05 5.60499e-07
-5.90771e-05 4.839e-05 1.66336e-06
5.60499e-07 1.66336e-06 -7.15955e-05
0.0013312 -0.000174057 -1.44865e-06
-0.000174057 0.000618149 -6.05062e-07
-1.44865e-06 -6.05062e-07 0.000439679
0.00067152 -9.93012e-05 -4.99395e-07
-9.93012e-05 0.000145599 2.03908e-08
-4.99395e-07 2.03908e-08 2.22467e-05
0.000506338 1.04117e-05 -1.63288e-06
1.04117e-05 1.69249e-05 3.27433e-06
-1.63288e-06 3.27433e-06 -6.22113e-05
0.000723988 -0.000127117 1.16012e-06
-0.000127117 0.000185436 -2.15905e-06
1.16012e-06 -2.15905e-06 5.85655e-05
0.000591993 -5.14616e-05 -1.99605e-07
-5.14616e-05 7.03347e-05 1.71693e-07
-1.99605e-07 1.71693e-07 -7.1985e-06
0.00143974 1.25299e-05 -1.18551e-05
1.25299e-05 0.000571811 7.26901e-06
-1.18551e-05 7.26901e-06 0.000550275
0.000545038 -6.51477e-05 2.04566e-06
-6.51477e-05 5.07909e-05 -3.85787e-06
2.04566e-06 -3.85787e-06 -2.93426e-05
0.000877552 -8.75331e-06 -7.47966e-06
-8.75331e-06 0.00022645 6.96408e-07
-7.47966e-06 6.96408e-07 0.000203536
0.000798423 2.207e-05 9.40787e-07
2.207e-05 0.000164928 2.74272e-06
9.40787e-07 2.74272e-06 0.00016715
0.00044173 -2.57292e-05 2.19572e-06
-2.57292e-05 -4.06552e-05 -4.9061e-06
2.19572e-06 -4.9061e-06 -6.47686e-05
0.00165506 2.18531e-05 1.00033e-05
2.18531e-05 0.000705955 -1.48779e-06
1.00033e-05 -1.48779e-06 0.000714268
0.00251702 1.3174e-05 1.00116e-05
1.3174e-05 0.00124563 -5.16648e-06
1.00116e-05 -5.16648e-06 0.00125848
0.000504862 4.81409e-05 1.63817e-06
4.81409e-05 3.28077e-05 -1.46019e-06
1.63817e-06 -1.46019e-06 -6.69668e-05
0.000606068 5.90877e-05 -1.16911e-06
5.90877e-05 7.68138e-05 -1.58287e-06
-1.16911e-06 -1.58287e-06 2.36582e-05
0.000593527 -7.55051e-07 1.08092e-06
-7.55051e-07 0.000101384 7.43113e-07
1.08092e-06 7.43113e-07 4.59382e-06
0.000482569 2.954e-06 1.38672e-06
2.954e-06 -3.33048e-05 -3.54219e-06
1.38672e-06 -3.54219e-06 -4.24285e-05
0.00050103 4.89225e-05 1.02282e-07
4.89225e-05 1.26339e-05 -1.54642e-07
1.02282e-07 -1.54642e-07 -3.48963e-05
0.000549972 -0.00011232 -2.69986e-06
-0.00011232 7.53731e-05 4.34651e-07
-2.69986e-06 4.34651e-07 -1.66007e-05
0.00198346 7.75041e-06 -5.62457e-06
7.75041e-06 0.000906841 -4.726e-06
-5.62457e-06 -4.726e-06 0.000925076
0.000472967 4.95328e-06 -2.39304e-07
4.95328e-06 -4.02185e-05 2.4636e-08
-2.39304e-07 2.4636e-08 -4.85382e-05
0.000505547 -1.48761e-05 -1.56591e-06
-1.48761e-05 1.24737e-05 2.06725e-06
-1.56591e-06 2.06725e-06 -3.08857e-05
0.000479242 5.90402e-06 -1.14457e-06
5.90402e-06 -3.76505e-05 3.36256e-06
-1.14457e-06 3.36256e-06 -4.6541e-05
0.00201121 2.29465e-05 -5.15524e-06
2.29465e-05 0.000926369 -1.01785e-07
-5.15524e-06 -1.01785e-07 0.000943527
0.00197208 3.64356e-05 -5.73159e-06
3.64356e-05 0.000904434 4.58395e-06
-5.73159e-06 4.58395e-06 0.000920561
-0.00654816 -0.00156964 -0.000164496
-0.00156964 0.00509873 5.30615e-05
-0.000164496 5.30615e-05 0.00109497
0.00156761 0.00125335 -0.000239091
0.00125335 0.00045059 7.25043e-05
-0.000239091 7.25043e-05 -0.00141757
0.00293616 -0.000944279 -0.000580047
-0.000944279 0.00122296 0.000253528
-0.000580047 0.000253528 -0.00330415
-0.000964717 0.000492669 0.00101343
0.000492669 0.00567494 -0.000326733
0.00101343 -0.000326733 0.00180723
0.00200511 0.000532896 -3.44646e-05
0.000532896 -0.00118088 -9.58837e-06
-3.44646e-05 -9.58837e-06 -0.000390038
0.00264475 -0.000427494 8.77629e-05
-0.000427494 -0.000288542 6.19248e-06
8.77629e-05 6.19248e-06 -0.000184458
0.000703897 -0.000362816 0.000255376
-0.000362816 -0.00454194 -6.44392e-05
0.000255376 -6.44392e-05 -0.00632026
0.0197869 0.00296753 -0.00071218
0.00296753 0.00884417 6.04972e-05
-0.00071218 6.04972e-05 0.00622305
0.00292797 0.00757703 -0.0021258
0.00757703 0.00313396 0.00140524
-0.0021258 0.00140524 0.000875386
0.00447567 -0.000565025 2.45773e-05
-0.000565025 -0.000395171 7.59047e-06
2.45773e-05 7.59047e-06 0.000229276
0.00895116 -0.00194581 0.000145464
-0.00194581 -0.00118842 -0.000126715
0.000145464 -0.000126715 -0.00348878
0.0196568 0.00507874 -0.000296269
0.00507874 0.00608968 -0.000105691
-0.000296269 -0.000105691 0.00324042
0.0133713 0.00405013 -3.61729e-05
0.00405013 0.002249 0.0003768
-3.61729e-05 0.0003768 0.000260909
0.00172979 -0.00156761 -0.000109238
-0.00156761 -0.00287123 2.47516e-05
-0.000109238 2.47516e-05 -0.00189821
0.00574211 -0.00322628 0.000380194
-0.00322628 -0.000160882 -0.000216064
0.000380194 -0.000216064 -0.00398852
0.0046347 0.00319806 9.49221e-05
0.00319806 0.000490527 -0.000748303
9.49221e-05 -0.000748303 -0.00291697
0.00831239 0.000930948 -0.000254887
0.000930948 -0.00245052 4.45505e-06
-0.000254887 4.45505e-06 -0.00143268
0.00248733 -9.28649e-05 1.50203e-06
-9.28649e-05 0.00140011 1.64182e-05
1.50203e-06 1.64182e-05 0.0011348
0.000409456 0.00011286 -1.6615e-06
0.00011286 2.12125e-05 -2.39377e-06
-1.6615e-06 -2.39377e-06 -0.000120937
0.000523465 9.72437e-05 2.81552e-06
9.72437e-05 5.32491e-05 -1.39559e-06
2.81552e-06 -1.39559e-06 -4.25928e-05
0.000249301 1.79111e-05 7.26539e-06
1.79111e-05 -5.72107e-05 -8.18301e-07
7.26539e-06 -8.18301e-07 -0.000174727
0.000434791 9.27185e-05 3.33436e-06
9.27185e-05 2.19875e-05 2.26258e-06
3.33436e-06 2.26258e-06 -0.000162473
0.000446082 3.12656e-05 -2.97103e-07
3.12656e-05 3.8544e-05 2.53463e-06
-2.97103e-07 2.53463e-06 -0.000109462
0.000293006 3.49202e-05 1.46362e-06
3.49202e-05 -6.59803e-05 -3.99573e-06
1.46362e-06 -3.99573e-06 -0.000195419
0.00091952 0.000175455 3.16654e-06
0.000175455 0.000338246 6.41393e-06
3.16654e-06 6.41393e-06 0.000164796
0.000912094 0.000127069 -1.08132e-07
0.000127069 0.000341554 -1.18841e-07
-1.08132e-07 -1.18841e-07 0.000172685
0.000402755 -2.21435e-05 -4.35526e-06
-2.21435e-05 5.19041e-06 -6.72393e-06
-4.35526e-06 -6.72393e-06 -0.000123948
0.000455711 -0.000422014 7.71808e-05
-0.000422014 -0.00117788 -3.82404e-05
7.71808e-05 -3.82404e-05 -0.000902704
0.000313991 -0.000616954 2.00603e-05
-0.000616954 -0.000836551 -9.68889e-06
2.00603e-05 -9.68889e-06 -0.000832133
0.00145351 -0.000875451 -9.12665e-06
-0.000875451 -0.000192143 1.31414e-05
-9.12665e-06 1.31414e-05 -0.000310573
-0.000943043 -0.000648948 4.75151e-06
-0.000648948 -0.000861791 -1.13933e-05
4.75151e-06 -1.13933e-05 -0.00120725
0.00350357 -0.000449535 -2.23421e-05
-0.000449535 0.00214992 6.15498e-05
-2.23421e-05 6.15498e-05 0.00165258
0.00105115 -0.000201527 -3.41117e-06
-0.000201527 0.000566956 6.42097e-06
-3.41117e-06 6.42097e-06 0.000298109
0.000274285 0.000130046 -3.83323e-06
0.000130046 -3.4826e-07 -1.53482e-05
-3.83323e-06 -1.53482e-05 -0.000225643
0.000682977 -9.0606e-05 -2.41887e-06
-9.0606e-05 0.000271404 9.88897e-06
-2.41887e-06 9.88897e-06 -5.84364e-07
0.00168919 -0.000747056 -3.04237e-06
-0.000747056 -0.000206853 -4.77425e-06
-3.04237e-06 -4.77425e-06 -0.000258337
0.0008127 -6.95008e-05 1.24526e-06
-6.95008e-05 0.000366042 5.22638e-06
1.24526e-06 5.22638e-06 0.00010819
0.00212441 -0.000279928 1.81321e-06
-0.000279928 0.00127934 -1.39838e-06
1.81321e-06 -1.39838e-06 0.000891951
0.00144516 -0.00070167 6.35652e-06
-0.00070167 3.89725e-05 5.48491e-06
6.35652e-06 5.48491e-06 -3.98758e-06
0.000669055 -0.000639943 -2.49935e-05
-0.000639943 0.000305186 6.75648e-06
-2.49935e-05 6.75648e-06 -7.52372e-05
0.00208841 -0.00126166 2.30784e-05
-0.00126166 3.19459e-05 -1.19574e-05
2.30784e-05 -1.19574e-05 6.5599e-05
-0.000336507 -0.000430971 -7.3835e-06
-0.000430971 -0.000496405 2.24338e-05
-7.3835e-06 2.24338e-05 -0.000522238
-0.00094521 -9.56389e-05 1.39898e-05
-9.56389e-05 -0.000376024 -1.43716e-06
1.39898e-05 -1.43716e-06 -0.000850021
0.000795959 -4.57833e-06 -4.369e-06
-4.57833e-06 0.000315216 -5.12612e-06
-4.369e-06 -5.12612e-06 9.05996e-05
0.000729343 -7.12636e-06 7.07701e-06
-7.12636e-06 0.000438624 -7.86018e-06
7.07701e-06 -7.86018e-06 0.000134363
0.0013129 0.000101581 -3.68894e-05
0.000101581 0.0018084 -1.45923e-05
-3.68894e-05 -1.45923e-05 -0.00196438
-0.00618828 0.000400244 -0.000324937
0.000400244 0.00609558 -1.73197e-05
-0.000324937 -1.73197e-05 0.00127205
-0.0129628 -0.00219791 -0.0006438
-0.00219791 -0.00548197 -1.2462e-05
-0.0006438 -1.2462e-05 -0.00603634
-0.000946075 0.000138189 8.40106e-06
0.000138189 -0.000700903 -6.50091e-06
8.40106e-06 -6.50091e-06 -0.000916876
-0.000697632 0.000430236 -3.97434e-06
0.000430236 -0.000509203 8.85778e-06
-3.97434e-06 8.85778e-06 -0.000893264
0.00183699 0.00087666 2.82299e-05
0.00087666 0.000369619 2.42078e-05
2.82299e-05 2.42078e-05 0.000244858
-0.00557296 0.00175432 5.92816e-05
0.00175432 0.00553699 5.31897e-05
5.92816e-05 5.31897e-05 0.00112285
0.00656454 0.0031677 -0.000258077
0.0031677 0.000214616 -0.00014985
-0.000258077 -0.00014985 -0.0032751
0.00220541 0.00201736 0.00038585
0.00201736 0.000532737 0.000138929
0.00038585 0.000138929 0.000343824
0.000135572 0.000846114 2.45988e-05
0.000846114 -7.02916e-06 -4.17488e-05
2.45988e-05 -4.17488e-05 -0.000257896
0.0246761 -0.00347667 -0.000161892
-0.00347667 0.00793338 -0.000328343
-0.000161892 -0.000328343 0.00507815
0.00592401 0.00135648 0.000477
0.00135648 0.00299705 0.000174805
0.000477 0.000174805 -0.00245256
0.0136829 -0.00190283 0.00015887
-0.00190283 0.00229447 3.21323e-05
0.00015887 3.21323e-05 0.00363079
0.00126091 0.000472311 2.74235e-06
0.000472311 0.000650699 -1.91559e-06
2.74235e-06 -1.91559e-06 0.000367383
0.00378719 0.00048563 -4.40923e-06
0.00048563 0.00290815 1.456e-05
-4.40923e-06 1.456e-05 -0.000330751
0.0014661 0.00060143 6.01385e-05
0.00060143 6.1635e-05 3.64604e-06
6.01385e-05 3.64604e-06 -0.00153159
-0.000423053 0.000441814 -2.99379e-06
0.000441814 -0.000155013 -5.17782e-06
-2.99379e-06 -5.17782e-06 -0.000462122
0.000402019 0.00112515 -0.000116345
0.00112515 0.000908559 -5.5254e-05
-0.000116345 -5.5254e-05 -0.000288996
0.000895968 0.00403236 0.000183787
0.00403236 0.000500889 0.000102344
0.000183787 0.000102344 -0.00381986
0.0090992 8.5722e-05 -7.72605e-06
8.5722e-05 -0.00337308 -0.000204314
-7.72605e-06 -0.000204314 -0.000537258
0.00481221 -0.00248866 -6.93401e-05
-0.00248866 0.00301964 -0.00015498
-6.93401e-05 -0.00015498 -0.00146107
0.000953054 0.000372949 -6.84692e-06
0.000372949 0.000761538 -1.48593e-05
-6.84692e-06 -1.48593e-05 0.000428914
-0.00260322 0.000161119 1.07931e-05
0.000161119 -5.7045e-05 1.70983e-05
1.07931e-05 1.70983e-05 -0.000318977
0.00454666 -9.67231e-05 9.6929e-05
-9.67231e-05 -0.000227332 -0.000153395
9.6929e-05 -0.000153395 -0.00137199
0.00822578 0.00113962 0.000265013
0.00113962 -0.00214001 -1.81184e-05
0.000265013 -1.81184e-05 -0.00126218
-0.0023042 0.000130167 2.67876e-05
0.000130167 -0.0001033 -3.19856e-05
2.67876e-05 -3.19856e-05 -0.000884733
0.0131346 0.00316249 0.00027901
0.00316249 0.00612357 6.40823e-05
0.00027901 6.40823e-05 0.00107802
5.87292e-05 -0.000492731 5.65083e-05
-0.000492731 0.00232193 0.000372619
5.65083e-05 0.000372619 -0.00110459
0.00314538 0.00043794 2.48673e-05
0.00043794 0.00185995 1.03216e-05
2.48673e-05 1.03216e-05 0.00161827
0.000428785 0.000196249 -5.86109e-06
0.000196249 0.000412169 -1.68438e-06
-5.86109e-06 -1.68438e-06 7.75519e-05
0.000225213 0.000156997 4.9377e-07
0.000156997 0.000474251 1.94277e-06
4.9377e-07 1.94277e-06 5.39157e-05
0.000524223 0.000145264 1.32143e-06
0.000145264 9.64383e-05 6.79267e-07
1.32143e-06 6.79267e-07 -7.98521e-05
0.000438299 5.88038e-05 1.19575e-06
5.88038e-05 7.958e-05 3.40272e-06
1.19575e-06 3.40272e-06 -8.30752e-05
0.000179426 -2.69706e-05 5.7158e-06
-2.69706e-05 0.000319634 -2.18091e-06
5.7158e-06 -2.18091e-06 -5.45133e-05
0.000399319 1.82033e-05 3.56828e-07
1.82033e-05 3.25414e-05 -6.00523e-07
3.56828e-07 -6.00523e-07 -0.000109646
0.000662425 -3.47657e-05 -1.30764e-06
-3.47657e-05 0.00060458 -2.41849e-06
-1.30764e-06 -2.41849e-06 0.000231238
0.000139208 5.40097e-05 -8.61615e-08
5.40097e-05 0.000438792 -1.36284e-06
-8.61615e-08 -1.36284e-06 -2.79943e-05
3.27329e-05 2.54101e-06 -8.23564e-06
2.54101e-06 0.000318911 6.79912e-06
-8.23564e-06 6.79912e-06 -6.72289e-05
0.000301833 -2.0377e-05 2.25788e-07
-2.0377e-05 0.000323146 -4.23399e-06
2.25788e-07 -4.23399e-06 1.89944e-05
0.000157608 -6.40321e-05 2.35335e-06
-6.40321e-05 -0.00013222 8.54725e-06
2.35335e-06 8.54725e-06 -0.000262689
0.000963752 -5.24191e-05 -7.0969e-07
-5.24191e-05 0.00036455 2.50794e-06
-7.0969e-07 2.50794e-06 0.000215941
0.0012053 -5.28589e-05 -1.21861e-05
-5.28589e-05 0.000522761 9.5586e-06
-1.21861e-05 9.5586e-06 0.000387794
0.000782592 -8.15998e-05 3.13164e-06
-8.15998e-05 0.000393551 -5.19017e-07
3.13164e-06 -5.19017e-07 0.000236501
0.000531546 -5.14976e-05 -8.11622e-07
-5.14976e-05 9.577e-05 -7.01941e-07
-8.11622e-07 -7.01941e-07 -3.60133e-05
0.000317082 -0.000161344 -1.04498e-07
-0.000161344 -2.50902e-05 2.17013e-06
-1.04498e-07 2.17013e-06 -0.0001679
0.000129623 -0.000145621 -1.11479e-05
-0.000145621 -0.000245309 -1.55114e-06
-1.11479e-05 -1.55114e-06 -0.000306417
-0.000667987 -0.000294684 9.6954e-06
-0.000294684 -0.00067518 1.80254e-05
9.6954e-06 1.80254e-05 -0.000959463
0.000229517 -0.000169723 5.7159e-06
-0.000169723 -0.000148577 -1.13464e-06
5.7159e-06 -1.13464e-06 -0.000265495
0.00114926 -0.000270117 -3.47798e-06
-0.000270117 0.00036445 1.05442e-05
-3.47798e-06 1.05442e-05 0.000185213
0.00196665 -0.000525284 -8.20773e-06
-0.000525284 0.000788917 1.37731e-05
-8.20773e-06 1.37731e-05 0.000443157
0.00150608 -0.000474779 -6.57654e-06
-0.000474779 0.00037935 4.35392e-07
-6.57654e-06 4.35392e-07 2.97976e-05
0.00115188 -0.000311614 8.53478e-07
-0.000311614 0.00037496 3.17889e-06
8.53478e-07 3.17889e-06 0.000140344
0.000422945 -0.000301256 9.95796e-06
-0.000301256 -0.000170566 -4.21174e-06
9.95796e-06 -4.21174e-06 -0.000431764
0.00121784 -0.000155849 2.49103e-06
-0.000155849 0.000513274 -3.64213e-06
2.49103e-06 -3.64213e-06 0.000283736
0.00126407 -0.000216032 -7.735e-06
-0.000216032 0.000526687 3.1321e-07
-7.735e-06 3.1321e-07 0.00032458
1.71735e-05 -0.000122347 1.06534e-05
-0.000122347 -0.000271908 -1.6261e-05
1.06534e-05 -1.6261e-05 -0.000382164
0.00116026 -0.000102203 -6.88119e-07
-0.000102203 0.000434568 2.18057e-06
-6.88119e-07 2.18057e-06 0.000277021
0.000262765 -8.2574e-05 8.23559e-07
-8.2574e-05 -6.95767e-05 -6.69593e-07
8.23559e-07 -6.69593e-07 -0.000249289
0.000464253 -5.06895e-05 1.43705e-06
-5.06895e-05 -2.17906e-06 6.78963e-07
1.43705e-06 6.78963e-07 -0.0001339
0.00132412 -0.00019701 -1.11663e-06
-0.00019701 0.000599202 9.60632e-07
-1.11663e-06 9.60632e-07 0.000412666
0.000647109 -8.9277e-05 -3.74085e-07
-8.9277e-05 0.000130334 -1.55759e-07
-3.74085e-07 -1.55759e-07 -2.06518e-06
0.000450126 1.47558e-05 2.35177e-06
1.47558e-05 -7.66886e-06 4.11635e-06
2.35177e-06 4.11635e-06 -9.98665e-05
0.000785498 -0.000126199 -2.01406e-07
-0.000126199 0.000229019 -2.34676e-06
-2.01406e-07 -2.34676e-06 9.51534e-05
0.000498283 8.13571e-06 -2.05204e-06
8.13571e-06 1.88844e-05 -2.07001e-07
-2.05204e-06 -2.07001e-07 -6.53312e-05
0.0014062 1.3931e-05 -1.53198e-05
1.3931e-05 0.000551281 5.01351e-06
-1.53198e-05 5.01351e-06 0.000528558
0.000588557 -6.01919e-05 2.38746e-06
-6.01919e-05 7.1839e-05 -3.995e-06
2.38746e-06 -3.995e-06 -8.10802e-06
0.000889978 -4.24425e-06 -7.65593e-06
-4.24425e-06 0.000229223 5.95073e-07
-7.65593e-06 5.95073e-07 0.00020515
0.000839214 3.22073e-05 1.84866e-07
3.22073e-05 0.000188567 2.9748e-06
1.84866e-07 2.9748e-06 0.000188615
0.000456626 -1.76719e-05 2.20319e-06
-1.76719e-05 -3.84439e-05 -5.598e-06
2.20319e-06 -5.598e-06 -6.37707e-05
0.00170597 3.39492e-05 1.30311e-05
3.39492e-05 0.00073542 -1.27705e-06
1.30311e-05 -1.27705e-06 0.000742523
0.00253088 2.76327e-05 1.46157e-05
2.76327e-05 0.00125243 -5.38913e-06
1.46157e-05 -5.38913e-06 0.00126487
0.00031536 1.59728e-05 1.10835e-06
1.59728e-05 -6.86873e-05 4.90954e-07
1.10835e-06 4.90954e-07 -0.000198928
0.000156265 1.86532e-05 1.61009e-07
1.86532e-05 -0.000205638 -3.65484e-06
1.61009e-07 -3.65484e-06 -0.000266859
0.000631726 4.8141e-05 5.83533e-08
4.8141e-05 0.000122532 8.26649e-08
5.83533e-08 8.26649e-08 1.26841e-05
0.000481466 2.20886e-06 1.24501e-06
2.20886e-06 -3.57249e-05 -3.65862e-06
1.24501e-06 -3.65862e-06 -4.64189e-05
0.000336943 5.3061e-06 1.57278e-06
5.3061e-06 -9.53741e-05 -2.18829e-08
1.57278e-06 -2.18829e-08 -0.000146517
0.000286112 -9.42656e-05 -1.38819e-06
-9.42656e-05 -9.18047e-05 -1.13159e-06
-1.38819e-06 -1.13159e-06 -0.000189319
0.00205241 -6.14702e-06 -1.03644e-05
-6.14702e-06 0.000949391 -4.74341e-06
-1.03644e-05 -4.74341e-06 0.000967403
0.00047652 2.19884e-06 -1.16847e-08
2.19884e-06 -3.80075e-05 -7.35804e-08
-1.16847e-08 -7.35804e-08 -4.68399e-05
0.000452414 -1.63404e-05 -2.36654e-06
-1.63404e-05 -2.2535e-05 2.06211e-06
-2.36654e-06 2.06211e-06 -6.71475e-05
0.00199928 9.11222e-06 -4.52986e-06
9.11222e-06 0.000917058 9.09351e-09
-4.52986e-06 9.09351e-09 0.000935105
0.000466193 4.14147e-06 -1.03528e-06
4.14147e-06 -4.38953e-05 3.24927e-06
-1.03528e-06 3.24927e-06 -5.22682e-05
0.00197183 2.39455e-05 6.48797e-07
2.39455e-05 0.00090163 4.73301e-06
6.48797e-07 4.73301e-06 0.00091886
-0.000159858 -0.000668624 -0.00022213
-0.000668624 -0.000149356 7.88007e-05
-0.00022213 7.88007e-05 -0.00306428
0.00158879 0.000512174 -9.68256e-05
0.000512174 0.00693191 1.51858e-05
-9.68256e-05 1.51858e-05 0.0032185
0.00188032 -0.000104704 -0.000746
-0.000104704 0.00358592 0.000140429
-0.000746 0.000140429 0.00180156
0.000707045 0.000122638 3.9285e-06
0.000122638 0.00016913 5.78474e-06
3.9285e-06 5.78474e-06 1.29829e-05
0.00469196 -0.000789772 -6.72932e-05
-0.000789772 0.00308738 0.000214219
-6.72932e-05 0.000214219 0.00109696
0.00401361 -0.00116282 -0.000253939
-0.00116282 0.00164928 2.2008e-05
-0.000253939 2.2008e-05 -0.00284226
0.00937542 0.00272749 0.000340247
0.00272749 0.00705819 -0.000309066
0.000340247 -0.000309066 0.00339197
0.0068362 -0.000893487 0.000105203
-0.000893487 0.000811661 -2.35038e-05
0.000105203 -2.35038e-05 0.000995098
0.0128057 -0.00200616 0.000245612
-0.00200616 0.0010939 -0.000114136
0.000245612 -0.000114136 -0.000238559
0.00618775 0.00436415 -0.000559324
0.00436415 -0.000437318 0.000394364
-0.000559324 0.000394364 -0.00309107
0.0128631 0.00397329 7.75281e-05
0.00397329 0.00408805 0.000202947
7.75281e-05 0.000202947 0.00171597
0.00692054 -0.00194594 -0.000124046
-0.00194594 0.000166615 -7.11822e-06
-0.000124046 -7.11822e-06 0.00047386
0.0172481 -0.0034764 4.08086e-05
-0.0034764 0.00442874 -3.0417e-05
4.08086e-05 -3.0417e-05 0.00200039
0.00808656 0.00261126 0.000154243
0.00261126 0.00232199 -0.000319801
0.000154243 -0.000319801 -0.00128122
0.0111338 0.00122036 1.40047e-05
0.00122036 -0.000658881 3.70106e-05
1.40047e-05 3.70106e-05 -0.000212969
0.00310637 -0.00227288 -4.80506e-05
-0.00227288 -1.25045e-05 6.39211e-05
-4.80506e-05 6.39211e-05 -0.000199722
0.0114313 -0.00389214 0.000144371
-0.00389214 0.00477424 -0.000101197
0.000144371 -0.000101197 0.000469602
0.00895863 -0.000194585 0.00013127
-0.000194585 0.00400672 -0.000417392
0.00013127 -0.000417392 0.00148236
0.0114103 0.000574599 -0.000116705
0.000574599 -0.00136414 0.000224666
-0.000116705 0.000224666 0.000942456
0.000470085 5.23915e-05 2.95457e-06
5.23915e-05 0.000124457 5.89903e-06
2.95457e-06 5.89903e-06 -9.68879e-05
0.000811081 -0.000133726 4.51865e-07
-0.000133726 0.000352394 -4.76144e-07
4.51865e-07 -4.76144e-07 0.000107017
0.000991318 0.000155798 1.12062e-06
0.000155798 0.000402318 -5.55718e-06
1.12062e-06 -5.55718e-06 0.000246086
0.000490943 0.00012014 7.89617e-09
0.00012014 2.42948e-05 8.49952e-06
7.89617e-09 8.49952e-06 -0.00012133
0.000813275 0.00018117 6.94196e-07
0.00018117 0.00028483 1.12103e-06
6.94196e-07 1.12103e-06 9.05383e-05
0.00111571 9.41543e-05 -5.60841e-06
9.41543e-05 0.000469251 -4.82903e-06
-5.60841e-06 -4.82903e-06 0.00031454
0.00103739 0.000165796 -1.43623e-06
0.000165796 0.000413077 -1.70238e-07
-1.43623e-06 -1.70238e-07 0.000238052
0.00106841 0.000178366 1.36988e-06
0.000178366 0.000456327 3.12767e-06
1.36988e-06 3.12767e-06 0.000278109
0.000135562 -0.000514693 0.000102091
-0.000514693 -0.00108085 -5.99288e-05
0.000102091 -5.99288e-05 -0.000944026
0.00108987 -0.000696597 -1.34807e-05
-0.000696597 -0.000237373 -8.08622e-06
-1.34807e-05 -8.08622e-06 -0.000214156
0.00106311 -0.000237763 8.49676e-07
-0.000237763 0.000521102 -2.61221e-05
8.49676e-07 -2.61221e-05 0.000230482
0.00153223 -0.000684268 1.79594e-05
-0.000684268 0.000748218 -2.74893e-05
1.79594e-05 -2.74893e-05 0.000400632
0.00260066 -0.000431382 -1.87252e-05
-0.000431382 0.00150539 1.87361e-05
-1.87252e-05 1.87361e-05 0.00113081
0.00155036 -0.000145653 8.42118e-07
-0.000145653 0.000803363 -2.16924e-05
8.42118e-07 -2.16924e-05 0.000535597
-9.41198e-05 -6.25159e-05 3.36e-06
-6.25159e-05 -0.00024356 7.65595e-06
3.36e-06 7.65595e-06 -0.000450534
0.000340237 -0.00104013 -2.51523e-06
-0.00104013 -0.00078777 -2.59372e-06
-2.51523e-06 -2.59372e-06 -0.000772478
0.00138768 3.548e-05 -6.99792e-07
3.548e-05 0.000836768 -2.41755e-06
-6.99792e-07 -2.41755e-06 0.000527741
0.000470411 -0.000227091 4.18085e-06
-0.000227091 0.000369328 2.96412e-06
4.18085e-06 2.96412e-06 -5.38019e-05
1.83098e-05 -0.000369033 2.11634e-05
-0.000369033 -0.000296036 1.91174e-06
2.11634e-05 1.91174e-06 -0.000279819
0.00100338 0.000117389 -1.00559e-06
0.000117389 0.000434551 -1.99598e-06
-1.00559e-06 -1.99598e-06 0.000248007
-0.000575109 -0.00085975 -4.34764e-05
-0.00085975 -0.000738596 -2.71923e-05
-4.34764e-05 -2.71923e-05 -0.000871203
-0.000791276 -0.000370778 -1.10659e-05
-0.000370778 -0.000474195 3.12642e-05
-1.10659e-05 3.12642e-05 -0.000685538
-9.54921e-06 0.000149615 2.07649e-05
0.000149615 0.000371014 -2.9863e-05
2.07649e-05 -2.9863e-05 -0.000180217
0.00199882 0.000308321 -4.70503e-06
0.000308321 0.00115847 -5.04237e-06
-4.70503e-06 -5.04237e-06 0.000927217
-0.00107919 8.3104e-05 8.81089e-05
8.3104e-05 0.00127801 1.43685e-05
8.81089e-05 1.43685e-05 0.000478184
0.000567797 -2.18391e-05 0.00014302
-2.18391e-05 0.00125885 -3.14445e-05
0.00014302 -3.14445e-05 -0.00249927
-0.0106516 -0.000304543 -0.000243362
-0.000304543 0.00556789 2.43696e-05
-0.000243362 2.43696e-05 0.000261888
0.0016664 0.000497711 1.91469e-05
0.000497711 0.000967109 2.69936e-06
1.91469e-05 2.69936e-06 0.00067484
-0.000787972 0.000611385 1.14557e-05
0.000611385 -0.000394034 1.26279e-05
1.14557e-05 1.26279e-05 -0.000809406
0.00533482 0.000630403 0.00027055
0.000630403 0.0035172 4.84689e-05
0.00027055 4.84689e-05 0.0013081
0.0105185 0.0033877 0.000274731
0.0033877 0.00360113 0.000185135
0.000274731 0.000185135 -0.000477583
0.00390303 0.00206555 -7.40233e-05
0.00206555 0.00230391 -8.62052e-05
-7.40233e-05 -8.62052e-05 0.000960871
0.00498149 -0.00213806 -0.000172281
-0.00213806 0.00387761 -0.000422555
-0.000172281 -0.000422555 0.000375465
0.00245445 0.000515068 0.000121999
0.000515068 0.000295284 0.000182899
0.000121999 0.000182899 -0.00126748
0.00701261 -0.000179585 -4.48139e-05
-0.000179585 -0.00530605 -0.000227284
-4.48139e-05 -0.000227284 -0.00204408
0.000936786 0.000433411 6.52875e-06
0.000433411 0.000718716 1.90562e-06
6.52875e-06 1.90562e-06 0.000364203
-0.00224248 6.32479e-05 -2.41282e-06
6.32479e-05 -3.42593e-06 1.02143e-06
-2.41282e-06 1.02143e-06 -0.000389026
0.00409941 -8.79917e-06 0.000100106
-8.79917e-06 -0.000247401 2.41778e-05
0.000100106 2.41778e-05 -0.000747723
-0.00170532 0.000374679 -1.25953e-05
0.000374679 -0.000346162 -9.90588e-06
-1.25953e-05 -9.90588e-06 -0.00102998
0.0108627 0.00134303 -6.41706e-06
0.00134303 -0.000567171 -3.62726e-05
-6.41706e-06 -3.62726e-05 -0.000219688
0.00253433 0.00172241 0.000196164
0.00172241 0.0035452 0.000125606
0.000196164 0.000125606 -0.00195527
0.00642728 0.000647386 -0.000159751
0.000647386 0.00307923 2.5638e-06
-0.000159751 2.5638e-06 -0.000296217
0.000440585 0.000388442 -2.59088e-06
0.000388442 0.000525396 -2.40178e-05
-2.59088e-06 -2.40178e-05 3.60008e-05
0.00133316 -4.0665e-06 9.82297e-06
-4.0665e-06 4.79774e-05 -1.99126e-05
9.82297e-06 -1.99126e-05 -0.000139833
0.00382565 -0.000939191 5.30354e-05
-0.000939191 0.00304455 -0.000217541
5.30354e-05 -0.000217541 0.00126212
0.0177049 0.00427253 0.000296556
0.00427253 0.00500155 -0.000256865
0.000296556 -0.000256865 0.00328193
0.00818134 -8.58085e-05 -0.000104357
-8.58085e-05 0.00400138 0.00042413
-0.000104357 0.00042413 0.00122901
0.000476223 0.000399503 -1.43048e-05
0.000399503 0.000633124 -0.000127899
-1.43048e-05 -0.000127899 6.53144e-05
0.0036851 0.00151291 0.00024896
0.00151291 0.0056079 3.30667e-05
0.00024896 3.30667e-05 -0.00228592
0.00143598 0.000323563 7.6037e-06
0.000323563 0.000988438 1.04402e-05
7.6037e-06 1.04402e-05 0.000646015
0.000626097 0.000222718 3.93207e-06
0.000222718 0.000694108 6.35584e-07
3.93207e-06 6.35584e-07 0.000285362
0.000327065 -2.63522e-05 -1.46228e-05
-2.63522e-05 0.000629449 -1.78239e-06
-1.46228e-05 -1.78239e-06 0.000291176
-8.5788e-05 -5.03894e-05 1.25718e-06
-5.03894e-05 -0.000281322 5.3711e-06
1.25718e-06 5.3711e-06 -0.000408249
0.000738562 -1.41382e-05 4.63193e-06
-1.41382e-05 0.000651211 -3.55616e-06
4.63193e-06 -3.55616e-06 0.00027478
0.000128516 5.3475e-05 4.93476e-06
5.3475e-05 0.000427433 -4.46231e-06
4.93476e-06 -4.46231e-06 -3.31491e-05
0.000316861 -3.10466e-05 7.57559e-07
-3.10466e-05 0.000268943 -3.34943e-08
7.57559e-07 -3.34943e-08 2.16475e-05
-7.33009e-06 -1.74788e-05 4.09322e-06
-1.74788e-05 0.00029447 6.40538e-07
4.09322e-06 6.40538e-07 -9.56202e-05
0.00114935 -0.00030307 1.62476e-06
-0.00030307 0.000771503 -1.21084e-05
1.62476e-06 -1.21084e-05 0.000452649
0.000770772 -8.35918e-05 -5.8602e-06
-8.35918e-05 0.000358801 7.34357e-06
-5.8602e-06 7.34357e-06 0.000216495
0.00066333 -1.54927e-05 -1.16904e-06
-1.54927e-05 0.000173136 1.61597e-06
-1.16904e-06 1.61597e-06 4.38189e-05
0.00138092 -0.000256134 1.50244e-06
-0.000256134 0.000612503 5.12159e-06
1.50244e-06 5.12159e-06 0.000442383
-0.00224829 -0.000161935 1.75382e-05
-0.000161935 -0.00140503 1.63255e-05
1.75382e-05 1.63255e-05 -0.0017253
-9.96239e-05 -0.000116455 7.95722e-06
-0.000116455 -0.000298905 -2.87898e-06
7.95722e-06 -2.87898e-06 -0.000330407
-8.8305e-05 -0.000322126 -9.19173e-07
-0.000322126 -0.000370426 -4.25631e-06
-9.19173e-07 -4.25631e-06 -0.00062098
0.00127981 -0.000507835 -6.84353e-08
-0.000507835 0.000323525 -1.15653e-06
-6.84353e-08 -1.15653e-06 -0.000101038
0.00165143 -0.000592874 -5.45726e-06
-0.000592874 0.000427519 -5.99653e-07
-5.45726e-06 -5.99653e-07 1.32553e-05
0.00179815 -0.000356162 5.08678e-06
-0.000356162 0.000748762 -3.2085e-06
5.08678e-06 -3.2085e-06 0.000543032
0.00127577 -0.000446698 1.42369e-06
-0.000446698 0.000350076 6.81631e-07
1.42369e-06 6.81631e-07 1.12337e-05
0.00163515 -0.000494614 4.06597e-06
-0.000494614 0.000441115 -3.12579e-06
4.06597e-06 -3.12579e-06 9.57783e-05
0.000651613 -0.000297693 -2.19944e-06
-0.000297693 -6.57878e-05 5.69849e-06
-2.19944e-06 5.69849e-06 -0.000330754
0.0011249 -0.00042464 2.18462e-06
-0.00042464 0.000161416 -5.40418e-06
2.18462e-06 -5.40418e-06 -0.000170126
0.000339989 -0.000134683 5.26124e-07
-0.000134683 -3.4131e-05 -4.47527e-06
5.26124e-07 -4.47527e-06 -0.000281082
0.00110454 -0.000326899 -6.38007e-06
-0.000326899 0.000359233 4.3214e-06
-6.38007e-06 4.3214e-06 0.000106477
-0.000889027 -0.000137649 -5.21637e-07
-0.000137649 -0.000965276 -9.69763e-06
-5.21637e-07 -9.69763e-06 -0.00118216
0.000145606 -5.23039e-05 7.77531e-07
-5.23039e-05 -0.000187878 -1.31926e-06
7.77531e-07 -1.31926e-06 -0.000348938
0.000451993 -0.000130211 2.22458e-07
-0.000130211 6.45437e-05 4.03235e-07
2.22458e-07 4.03235e-07 -0.000162199
0.000787539 -0.000213393 8.30781e-06
-0.000213393 0.000275967 -9.43562e-07
8.30781e-06 -9.43562e-07 5.73962e-05
0.000522518 -0.000116134 4.17975e-07
-0.000116134 8.80329e-05 3.09605e-06
4.17975e-07 3.09605e-06 -9.15002e-05
0.000717046 -9.74883e-05 -1.19949e-07
-9.74883e-05 0.000172002 3.59488e-07
-1.19949e-07 3.59488e-07 2.51894e-05
0.000573285 4.04605e-07 1.59158e-06
4.04605e-07 6.05525e-05 5.52908e-06
1.59158e-06 5.52908e-06 -3.95468e-05
0.000959327 -0.000125904 -1.44568e-06
-0.000125904 0.000338044 -1.01665e-06
-1.44568e-06 -1.01665e-06 0.000191909
0.000578907 -1.46923e-06 -1.19104e-06
-1.46923e-06 6.34855e-05 -3.25544e-07
-1.19104e-06 -3.25544e-07 -2.45154e-05
0.000421267 4.24771e-05 1.24288e-06
4.24771e-05 -5.62457e-05 6.49777e-06
1.24288e-06 6.49777e-06 -8.99759e-05
0.000687312 -5.84044e-05 1.41659e-06
-5.84044e-05 0.000129115 -3.61508e-06
1.41659e-06 -3.61508e-06 4.74923e-05
0.000464439 6.93132e-06 -9.43739e-07
6.93132e-06 -3.93503e-05 -5.28233e-08
-9.43739e-07 -5.28233e-08 -6.74462e-05
0.00255139 8.9503e-05 -2.55135e-06
8.9503e-05 0.00126803 2.50751e-06
-2.55135e-06 2.50751e-06 0.00127339
0.000475666 -8.55534e-06 2.40964e-06
-8.55534e-06 -3.13366e-05 -5.79905e-06
2.40964e-06 -5.79905e-06 -5.80473e-05
0.0017418 4.7471e-05 1.57275e-05
4.7471e-05 0.000757462 -1.05115e-06
1.57275e-05 -1.05115e-06 0.000762588
0.00258922 4.35483e-05 2.13502e-05
4.35483e-05 0.00128797 -5.53922e-06
2.13502e-05 -5.53922e-06 0.00129938
0.000279943 1.93822e-05 8.60308e-07
1.93822e-05 -0.000109889 3.8892e-07
8.60308e-07 3.8892e-07 -0.000230324
0.000225113 1.04501e-05 1.20739e-06
1.04501e-05 -0.000163989 -3.06552e-06
1.20739e-06 -3.06552e-06 -0.000237053
0.000472379 3.59163e-05 -5.91941e-07
3.59163e-05 2.5776e-05 -1.19057e-06
-5.91941e-07 -1.19057e-06 -9.87949e-05
0.000505994 6.33268e-07 1.66018e-06
6.33268e-07 -2.05734e-05 -4.20545e-06
1.66018e-06 -4.20545e-06 -3.43406e-05
0.000205299 1.44899e-05 -5.64402e-07
1.44899e-05 -0.00017563 -1.7784e-06
-5.64402e-07 -1.7784e-06 -0.000239071
0.000669381 5.60583e-05 -2.4281e-07
5.60583e-05 0.000158278 1.82596e-06
-2.4281e-07 1.82596e-06 4.00399e-05
0.00207074 -1.94827e-05 -1.56252e-05
-1.94827e-05 0.00095986 -4.64964e-06
-1.56252e-05 -4.64964e-06 0.000977603
0.00048331 3.73339e-07 -5.85905e-07
3.73339e-07 -3.4832e-05 -6.35304e-08
-5.85905e-07 -6.35304e-08 -4.52436e-05
0.000127167 1.3212e-05 1.24724e-06
1.3212e-05 -0.000222959 1.43858e-06
1.24724e-06 1.43858e-06 -0.000277788
0.00202307 -4.86118e-06 -4.00538e-06
-4.86118e-06 0.000930793 4.19189e-08
-4.00538e-06 4.19189e-08 0.000949031
0.000465249 1.76363e-06 -1.28936e-06
1.76363e-06 -4.57303e-05 3.39744e-06
-1.28936e-06 3.39744e-06 -5.42053e-05
0.0020415 1.06498e-05 6.04667e-06
1.06498e-05 0.00094387 4.80118e-06
6.04667e-06 4.80118e-06 0.000961536
0.000412526 -3.58371e-05 0.000108853
-3.58371e-05 0.00181499 3.71613e-05
0.000108853 3.71613e-05 0.00133035
-0.000158586 -0.000342137 -4.29598e-05
-0.000342137 0.000340839 -1.24354e-05
-4.29598e-05 -1.24354e-05 -0.00317631
0.000249583 0.000491911 -9.32806e-06
0.000491911 0.00659819 -4.06082e-05
-9.32806e-06 -4.06082e-05 0.00283029
0.000761713 0.000129963 3.98548e-07
0.000129963 0.000195308 1.03249e-07
3.98548e-07 1.03249e-07 4.90295e-05
0.000431867 9.21083e-05 4.98298e-06
9.21083e-05 -2.669e-05 4.60868e-06
4.98298e-06 4.60868e-06 -0.000159866
0.00105204 0.000186014 6.43817e-06
0.000186014 0.00037578 7.33332e-06
6.43817e-06 7.33332e-06 0.00022783
0.00533577 -0.000204003 -6.33082e-05
-0.000204003 -0.000412303 0.00022739
-6.33082e-05 0.00022739 -0.00133676
0.00462931 -0.00086855 8.01438e-05
-0.00086855 0.00280121 1.10375e-06
8.01438e-05 1.10375e-06 0.00137923
0.00457282 -0.00151425 0.000165738
-0.00151425 0.00194394 -0.000233439
0.000165738 -0.000233439 -0.00265502
0.00835792 -0.00235788 -3.73689e-05
-0.00235788 0.00043347 -3.08867e-05
-3.73689e-05 -3.08867e-05 0.000966694
0.000474256 -0.00275776 -0.000354931
-0.00275776 -0.00193331 9.94955e-05
-0.000354931 9.94955e-05 -0.00487265
0.0245266 0.00373754 0.000188892
0.00373754 0.00983669 0.000149836
0.000188892 0.000149836 0.00585748
0.00675787 -3.11666e-05 0.000255299
-3.11666e-05 -0.00289298 -0.000212492
0.000255299 -0.000212492 -0.0029026
0.00460845 -0.00258142 -3.34339e-05
-0.00258142 0.000199566 1.6586e-05
-3.34339e-05 1.6586e-05 0.000375954
0.00721819 -0.00358076 -0.000100584
-0.00358076 0.00275292 2.1628e-05
-0.000100584 2.1628e-05 -0.00179435
-0.00274131 0.00343289 -8.64825e-05
0.00343289 0.00331469 -0.000288899
-8.64825e-05 -0.000288899 -0.00119326
0.0093006 0.000184483 -6.6436e-05
0.000184483 -0.00355821 0.00012978
-6.6436e-05 0.00012978 -0.000582952
0.00161018 -0.00173674 -0.000121545
-0.00173674 0.000819585 4.6838e-05
-0.000121545 4.6838e-05 0.000458387
0.0103383 -0.00273128 -0.000270472
-0.00273128 0.00549041 0.000164998
-0.000270472 0.000164998 0.00051961
-0.00111453 -5.74121e-05 4.04852e-05
-5.74121e-05 0.00218371 -0.00034139
4.04852e-05 -0.00034139 -0.00135422
0.00857768 -0.00103952 0.000108763
-0.00103952 -0.00199174 5.55557e-05
0.000108763 5.55557e-05 -0.00114719
0.000286621 9.30904e-05 3.78022e-06
9.30904e-05 -5.86955e-05 1.52432e-05
3.78022e-06 1.52432e-05 -0.000210089
0.000750775 -1.90129e-05 2.76864e-06
-1.90129e-05 0.000277395 -3.31126e-06
2.76864e-06 -3.31126e-06 4.76279e-05
0.000489002 -0.000144607 5.4389e-07
-0.000144607 7.55489e-05 -1.03522e-05
5.4389e-07 -1.03522e-05 -0.000133132
0.000666202 0.000130729 -2.06923e-06
0.000130729 0.000135972 1.23727e-06
-2.06923e-06 1.23727e-06 -1.71579e-05
0.000702731 0.000128912 2.30122e-06
0.000128912 0.000216341 -3.70465e-06
2.30122e-06 -3.70465e-06 3.61279e-05
0.00120004 0.000194329 -3.34289e-06
0.000194329 0.000520018 -3.09549e-06
-3.34289e-06 -3.09549e-06 0.000340822
-0.00101331 -0.000865921 2.76826e-05
-0.000865921 -0.00145155 -1.17234e-05
2.76826e-05 -1.17234e-05 -0.00143624
0.000847618 -0.000348742 2.74217e-05
-0.000348742 0.000176571 -2.55844e-05
2.74217e-05 -2.55844e-05 0.000211616
-2.95875e-05 8.53003e-06 -1.4454e-06
8.53003e-06 -0.000196629 -1.01719e-05
-1.4454e-06 -1.01719e-05 -0.000412219
0.00193209 -0.000439379 5.20336e-05
-0.000439379 0.00115353 -2.23246e-05
5.20336e-05 -2.23246e-05 0.000762108
0.00166831 -9.64316e-05 -4.11614e-06
-9.64316e-05 0.000968019 9.1933e-06
-4.11614e-06 9.1933e-06 0.000684351
8.0474e-05 9.37984e-05 3.44003e-06
9.37984e-05 -8.54526e-05 3.83198e-06
3.44003e-06 3.83198e-06 -0.000287991
0.000723305 0.000137289 7.30449e-07
0.000137289 0.000367494 -3.22989e-06
7.30449e-07 -3.22989e-06 0.000169105
0.000103534 -0.00101278 -6.81384e-06
-0.00101278 -0.000444776 -5.66462e-06
-6.81384e-06 -5.66462e-06 -0.00068619
0.000179911 -2.18677e-05 -6.86013e-06
-2.18677e-05 0.000462223 5.26906e-06
-6.86013e-06 5.26906e-06 -5.71297e-05
0.00140816 -0.000320882 1.53509e-06
-0.000320882 0.000729965 -9.55789e-06
1.53509e-06 -9.55789e-06 0.000459927
0.00124815 0.00017721 -1.61843e-06
0.00017721 0.0006755 -1.22755e-05
-1.61843e-06 -1.22755e-05 0.000481892
-0.00268283 -0.000196154 -7.57944e-05
-0.000196154 -0.000629197 -1.28463e-05
-7.57944e-05 -1.28463e-05 -0.0014575
0.00012178 -0.000157512 -2.05179e-05
-0.000157512 0.000429725 7.62305e-06
-2.05179e-05 7.62305e-06 7.33168e-05
0.000159075 0.00012169 -6.4382e-06
0.00012169 0.000428252 1.27973e-05
-6.4382e-06 1.27973e-05 1.24198e-05
-0.000181916 0.000136514 -7.99447e-06
0.000136514 -0.000611344 1.83683e-06
-7.99447e-06 1.83683e-06 -0.00150603
-0.00159485 0.000133293 3.84687e-05
0.000133293 0.000995205 -1.47527e-05
3.84687e-05 -1.47527e-05 0.000231053
-0.000239801 -0.00014795 0.000306702
-0.00014795 0.000720467 2.05387e-05
0.000306702 2.05387e-05 -0.00304537
-9.68141e-06 0.000390247 -7.32701e-07
0.000390247 0.000149741 1.578e-05
-7.32701e-07 1.578e-05 -0.000223196
0.000650294 0.000760023 -1.39426e-05
0.000760023 0.00045235 -5.25276e-06
-1.39426e-05 -5.25276e-06 -0.000131012
-0.00204591 2.47223e-05 -2.30769e-05
2.47223e-05 2.8245e-05 -1.43302e-05
-2.30769e-05 -1.43302e-05 -0.000488354
-0.00430516 0.000713484 5.60142e-05
0.000713484 0.00228545 0.000171967
5.60142e-05 0.000171967 -0.00291035
-0.00250258 0.0013066 -0.000188869
0.0013066 -0.00206622 -0.000442505
-0.000188869 -0.000442505 -0.00622663
0.0034198 5.11564e-05 7.71213e-05
5.11564e-05 -0.000322406 0.000100829
7.71213e-05 0.000100829 -0.000303807
0.00639004 0.000100172 -0.000257864
0.000100172 -0.00262182 0.000217002
-0.000257864 0.000217002 -0.00288022
0.000269552 0.000313995 1.03372e-06
0.000313995 0.00047928 -1.03845e-06
1.03372e-06 -1.03845e-06 5.49626e-05
0.000991414 -5.93818e-06 2.86549e-05
-5.93818e-06 -3.61549e-05 -2.0878e-05
2.86549e-05 -2.0878e-05 -0.000199084
0.00393589 -0.000692682 -7.97583e-05
-0.000692682 0.00274294 3.94462e-06
-7.97583e-05 3.94462e-06 0.00130334
-3.1182e-05 0.000611289 -0.000117571
0.000611289 0.00106194 -6.2774e-06
-0.000117571 -6.2774e-06 -0.000205574
0.01282 0.00436979 4.25814e-05
0.00436979 0.0021984 -0.000373055
4.25814e-05 -0.000373055 0.000277698
-0.000344907 0.0027096 6.9788e-05
0.0027096 0.00360354 0.000296116
6.9788e-05 0.000296116 -0.000817529
0.00547745 0.000523422 5.33033e-05
0.000523422 0.00589157 -2.34627e-05
5.33033e-05 -2.34627e-05 -0.00115793
0.000792543 -1.59718e-05 3.87232e-05
-1.59718e-05 0.00138869 -2.79423e-05
3.87232e-05 -2.79423e-05 0.000459195
6.90825e-05 -0.000119273 -9.37549e-05
-0.000119273 0.00182808 3.8405e-06
-9.37549e-05 3.8405e-06 0.00123929
0.00219605 -0.000860074 0.000645603
-0.000860074 0.00076687 -0.000245675
0.000645603 -0.000245675 -0.00391068
0.0163811 0.00623028 -5.26236e-05
0.00623028 0.0111296 2.9618e-06
-5.26236e-05 2.9618e-06 0.00863836
0.00391045 0.00337884 -0.000158524
0.00337884 0.000559046 0.000724001
-0.000158524 0.000724001 -0.00274862
0.0119261 -0.00302471 0.00024532
-0.00302471 0.00569904 -0.000204827
0.00024532 -0.000204827 0.000344725
0.00357554 -0.000707261 -7.28839e-05
-0.000707261 0.00288575 4.20339e-05
-7.28839e-05 4.20339e-05 0.00207163
0.000739157 0.000248976 1.72353e-06
0.000248976 0.000780336 2.99062e-06
1.72353e-06 2.99062e-06 0.000357772
4.30871e-05 -4.25703e-05 -8.20732e-06
-4.25703e-05 0.00039035 -2.67007e-06
-8.20732e-06 -2.67007e-06 3.8592e-05
0.00157646 -0.000488641 3.39453e-05
-0.000488641 0.00104874 -1.47695e-05
3.39453e-05 -1.47695e-05 0.000585939
0.000628843 -8.36329e-05 -8.13149e-07
-8.36329e-05 0.000412562 2.69727e-06
-8.13149e-07 2.69727e-06 0.000209162
-1.30308e-05 -2.30181e-05 1.136e-06
-2.30181e-05 0.00026913 -9.68901e-06
1.136e-06 -9.68901e-06 -0.000102916
0.000342728 -0.000259718 -3.89348e-06
-0.000259718 0.000414836 3.01784e-07
-3.89348e-06 3.01784e-07 8.31723e-05
0.000780149 -0.000508689 2.43394e-05
-0.000508689 0.000262384 -2.34683e-05
2.43394e-05 -2.34683e-05 1.89702e-05
0.00252477 -0.000360361 -2.182e-06
-0.000360361 0.00131538 1.82948e-06
-2.182e-06 1.82948e-06 0.00110543
0.00203208 -0.000628713 1.44598e-05
-0.000628713 0.00093601 -3.55923e-06
1.44598e-05 -3.55923e-06 0.000560553
0.0011583 -0.000535192 8.86223e-06
-0.000535192 0.000416767 -1.10754e-07
8.86223e-06 -1.10754e-07 -0.000151287
0.000429518 -0.000320485 -4.75765e-06
-0.000320485 -9.9194e-05 -4.48244e-06
-4.75765e-06 -4.48244e-06 -0.000303678
0.00177207 -0.000564011 -2.11005e-06
-0.000564011 0.000567196 -2.18466e-07
-2.11005e-06 -2.18466e-07 0.000140071
0.00222787 -0.000734387 -3.71317e-06
-0.000734387 0.000749777 5.77199e-07
-3.71317e-06 5.77199e-07 0.000223875
0.00188344 -0.000759504 -9.32279e-06
-0.000759504 0.000412574 1.71925e-06
-9.32279e-06 1.71925e-06 -4.9194e-05
0.00168682 -0.000622345 -1.60826e-06
-0.000622345 0.000438352 -4.73928e-07
-1.60826e-06 -4.73928e-07 3.31088e-05
0.00154145 -0.000583907 -4.89233e-06
-0.000583907 0.000354254 1.50834e-06
-4.89233e-06 1.50834e-06 -5.98356e-05
0.00117951 -0.000440415 -1.59745e-06
-0.000440415 0.000259791 -5.00713e-06
-1.59745e-06 -5.00713e-06 -8.72428e-05
0.00163377 -0.000459327 8.18021e-06
-0.000459327 0.000511595 6.24182e-08
8.18021e-06 6.24182e-08 0.000192551
0.00154671 -0.000490671 5.33988e-06
-0.000490671 0.000389732 -2.79837e-06
5.33988e-06 -2.79837e-06 4.44008e-05
0.000398555 -0.000200178 3.00783e-06
-0.000200178 -0.000111177 7.98572e-07
3.00783e-06 7.98572e-07 -0.000350515
0.00090583 -0.000336095 3.17963e-06
-0.000336095 0.000104059 -1.53474e-06
3.17963e-06 -1.53474e-06 -0.000168707
0.000450643 -0.000341621 -1.1746e-06
-0.000341621 -0.000240582 -8.93343e-06
-1.1746e-06 -8.93343e-06 -0.00054738
-0.000110196 -3.90619e-05 1.19406e-07
-3.90619e-05 -0.000311411 -1.04284e-06
1.19406e-07 -1.04284e-06 -0.000534173
0.00106776 -0.000213536 -5.01519e-07
-0.000213536 0.000425131 -2.62269e-07
-5.01519e-07 -2.62269e-07 0.000166012
0.000914036 -0.000327451 -1.43966e-06
-0.000327451 0.00025739 -2.21062e-06
-1.43966e-06 -2.21062e-06 -1.10989e-05
0.000691686 -3.44756e-05 -1.44593e-07
-3.44756e-05 0.000131501 6.62583e-06
-1.44593e-07 6.62583e-06 1.79907e-05
0.000800991 -0.000108836 -2.97454e-07
-0.000108836 0.00021601 -1.14733e-07
-2.97454e-07 -1.14733e-07 4.81988e-05
6.91967e-05 -0.000105201 1.27395e-06
-0.000105201 -0.000163436 2.97196e-06
1.27395e-06 2.97196e-06 -0.000380417
0.000991106 -0.000119902 1.77095e-07
-0.000119902 0.000351292 -7.4175e-07
1.77095e-07 -7.4175e-07 0.000195391
0.000605024 -4.34604e-05 -1.03758e-07
-4.34604e-05 7.73674e-05 -3.40098e-07
-1.03758e-07 -3.40098e-07 -2.32868e-05
0.000384857 2.8541e-05 1.36629e-06
2.8541e-05 -7.17627e-05 8.37379e-06
1.36629e-06 8.37379e-06 -0.000111506
0.000641436 -4.90158e-05 3.50816e-07
-4.90158e-05 9.80637e-05 -4.25069e-06
3.50816e-07 -4.25069e-06 1.01249e-05
0.000488354 1.88857e-05 -2.25727e-06
1.88857e-05 -1.85806e-05 -2.15447e-07
-2.25727e-06 -2.15447e-07 -5.06686e-05
0.00269296 9.65789e-05 -3.54629e-05
9.65789e-05 0.00136365 4.53156e-06
-3.54629e-05 4.53156e-06 0.00136832
0.000508148 5.18797e-07 2.29509e-06
5.18797e-07 -1.37074e-05 -5.93248e-06
2.29509e-06 -5.93248e-06 -4.13912e-05
0.00172832 6.31293e-05 1.81981e-05
6.31293e-05 0.000751664 -7.78493e-07
1.81981e-05 -7.78493e-07 0.00075467
0.00264756 6.21764e-05 2.64225e-05
6.21764e-05 0.00132564 -5.19243e-06
2.64225e-05 -5.19243e-06 0.0013353
0.00071871 9.40697e-05 3.63912e-06
9.40697e-05 0.000175667 1.025e-06
3.63912e-06 1.025e-06 4.16844e-05
0.000521274 4.66094e-05 1.48812e-06
4.66094e-05 2.04085e-05 -2.30513e-06
1.48812e-06 -2.30513e-06 -5.82826e-05
0.000458326 5.32935e-05 -1.09131e-06
5.32935e-05 1.56219e-05 -1.23842e-06
-1.09131e-06 -1.23842e-06 -0.000115565
0.000499414 1.74919e-06 8.32237e-07
1.74919e-06 -2.40658e-05 -5.12159e-06
8.32237e-07 -5.12159e-06 -4.27019e-05
0.000334852 3.69226e-05 -2.1674e-06
3.69226e-05 -9.4149e-05 -1.79977e-06
-2.1674e-06 -1.79977e-06 -0.000166588
0.000668484 7.47488e-05 -7.95667e-07
7.47488e-05 0.000151644 -2.05169e-06
-7.95667e-07 -2.05169e-06 2.68572e-05
0.00217898 -3.48202e-05 -1.98174e-05
-3.48202e-05 0.00102786 -4.769e-06
-1.98174e-05 -4.769e-06 0.0010441
0.000476128 -3.86648e-06 -3.67163e-08
-3.86648e-06 -3.97679e-05 -1.32822e-07
-3.67163e-08 -1.32822e-07 -5.30969e-05
0.000135968 1.36344e-05 -1.54969e-06
1.36344e-05 -0.000219036 5.21467e-07
-1.54969e-06 5.21467e-07 -0.000283717
0.00211314 -1.88894e-05 -5.25791e-06
-1.88894e-05 0.000986566 1.24528e-07
-5.25791e-06 1.24528e-07 0.00100417
0.00046939 -2.4928e-06 -2.1291e-06
-2.4928e-06 -4.37217e-05 3.45326e-06
-2.1291e-06 3.45326e-06 -5.3892e-05
0.00205377 -3.43918e-06 1.08618e-05
-3.43918e-06 0.000949929 4.78244e-06
1.08618e-05 4.78244e-06 0.000968056
0.00129096 -0.000204934 -4.86821e-05
-0.000204934 -3.28021e-05 3.23843e-05
-4.86821e-05 3.23843e-05 -0.000254794
-0.000437531 -0.000202161 5.43565e-05
-0.000202161 0.00152501 -3.0998e-06
5.43565e-05 -3.0998e-06 0.000931796
-0.00066821 -0.000358968 0.000150717
-0.000358968 0.000535775 -0.000123215
0.000150717 -0.000123215 -0.00334075
0.000156657 4.79614e-05 2.828e-06
4.79614e-05 -0.000199201 3.75703e-06
2.828e-06 3.75703e-06 -0.000334248
0.00203346 0.000102642 1.0571e-06
0.000102642 0.000951634 1.78139e-06
1.0571e-06 1.78139e-06 0.000789331
0.000729464 0.000142184 -2.04138e-06
0.000142184 0.000179079 -4.26491e-06
-2.04138e-06 -4.26491e-06 3.73561e-05
0.00044086 7.769e-05 8.15688e-07
7.769e-05 -3.47503e-05 8.945e-07
8.15688e-07 8.945e-07 -0.000158604
0.000481884 9.52529e-05 3.62562e-07
9.52529e-05 1.10313e-05 -6.05669e-07
3.62562e-07 -6.05669e-07 -0.000116643
0.000508142 8.87148e-05 5.18253e-06
8.87148e-05 1.90629e-05 3.13307e-06
5.18253e-06 3.13307e-06 -0.000100426
0.000499031 0.000161224 9.2657e-06
0.000161224 6.24209e-05 7.12809e-06
9.2657e-06 7.12809e-06 -7.68209e-05
0.00133589 0.000723147 0.000174628
0.000723147 -0.000461423 0.000242105
0.000174628 0.000242105 -0.00173685
0.00443136 -0.000157421 -4.14232e-05
-0.000157421 -0.000218482 5.67351e-05
-4.14232e-05 5.67351e-05 -0.000917219
0.00387134 -0.000618807 0.00016512
-0.000618807 0.00260536 -0.000102284
0.00016512 -0.000102284 0.00146426
0.0072303 -0.000122302 -2.32517e-06
-0.000122302 -0.00576284 0.000162066
-2.32517e-06 0.000162066 -0.00204514
0.00388518 -0.00243219 -0.000101277
-0.00243219 0.000493108 4.52657e-05
-0.000101277 4.52657e-05 0.000494389
0.00125152 -0.00349668 -0.000211861
-0.00349668 0.00145056 7.72812e-05
-0.000211861 7.72812e-05 -0.0039416
0.0141566 0.00391621 0.000102288
0.00391621 0.00683112 -0.000136173
0.000102288 -0.000136173 0.0026968
0.0024331 -0.00205947 -6.41333e-05
-0.00205947 0.000210708 2.49066e-05
-6.41333e-05 2.49066e-05 0.000366579
-0.00121822 -0.000699058 -4.91522e-05
-0.000699058 0.0034871 5.09928e-05
-4.91522e-05 5.09928e-05 -0.00315742
0.0070693 0.000556379 0.000172442
0.000556379 0.00296599 -2.19705e-05
0.000172442 -2.19705e-05 -0.00022214
0.0144667 -0.00209699 -6.99032e-05
-0.00209699 0.0019305 -2.16597e-05
-6.99032e-05 -2.16597e-05 0.00321395
-0.00194131 -0.000381856 -0.000190692
-0.000381856 -0.000334726 0.000138211
-0.000190692 0.000138211 -0.000333812
0.00357036 0.00198083 -0.000172492
0.00198083 0.00503869 -8.66155e-05
-0.000172492 -8.66155e-05 -0.00171388
-0.00248722 -0.00454559 2.13865e-05
-0.00454559 -0.000698027 -0.000232784
2.13865e-05 -0.000232784 -0.0052129
0.0124423 -0.00270782 0.000104394
-0.00270782 0.00284658 -0.000571557
0.000104394 -0.000571557 0.00177177
0.000950275 2.74423e-05 1.0147e-05
2.74423e-05 0.000464175 3.12776e-06
1.0147e-05 3.12776e-06 0.000263125
0.000810272 0.000180191 -1.14483e-06
0.000180191 0.000285709 -2.56439e-06
-1.14483e-06 -2.56439e-06 0.000120968
0.00101693 -2.65973e-05 1.41363e-06
-2.65973e-05 0.000464213 -8.72863e-07
1.41363e-06 -8.72863e-07 0.000207244
0.00109474 0.000160816 -3.30491e-06
0.000160816 0.000430776 -8.09322e-06
-3.30491e-06 -8.09322e-06 0.000253908
0.0011599 -0.000907715 2.58814e-05
-0.000907715 0.000145649 3.19806e-05
2.58814e-05 3.19806e-05 -0.000157662
0.00319486 -0.000317467 -5.47485e-06
-0.000317467 0.00180769 -2.74203e-05
-5.47485e-06 -2.74203e-05 0.00145892
0.000848521 9.27615e-05 -6.36551e-06
9.27615e-05 0.000369477 -1.13111e-05
-6.36551e-06 -1.13111e-05 0.000188792
0.000193159 0.000174669 -2.17384e-06
0.000174669 5.11447e-05 3.69161e-07
-2.17384e-06 3.69161e-07 -0.000150942
0.000500746 4.81117e-05 -6.1524e-06
4.81117e-05 0.000613023 1.90945e-05
-6.1524e-06 1.90945e-05 0.000176005
0.000413022 5.41122e-05 3.88365e-06
5.41122e-05 0.000123884 3.68815e-06
3.88365e-06 3.68815e-06 -3.39531e-05
0.000220214 0.000193169 1.99313e-06
0.000193169 0.000480187 1.30425e-06
1.99313e-06 1.30425e-06 4.37662e-05
0.00137595 -0.000362811 2.81528e-06
-0.000362811 0.00136163 3.99899e-06
2.81528e-06 3.99899e-06 0.000316695
3.93735e-05 -0.000113768 1.37148e-05
-0.000113768 0.000562259 2.24557e-06
1.37148e-05 2.24557e-06 0.000174763
-0.000504215 9.82878e-05 -9.25502e-07
9.82878e-05 -0.000196284 -9.20064e-06
-9.25502e-07 -9.20064e-06 -0.000431642
0.00222042 -5.3722e-05 -6.21349e-05
-5.3722e-05 0.00338826 -3.37538e-05
-6.21349e-05 -3.37538e-05 0.00173264
0.000970773 0.0003339 -2.23467e-05
0.0003339 0.00106359 2.33822e-05
-2.23467e-05 2.33822e-05 0.000544985
-0.00149962 5.88948e-05 -6.5984e-05
5.88948e-05 0.00133285 -3.36388e-06
-6.5984e-05 -3.36388e-06 0.000435426
0.000878049 3.02397e-05 1.03159e-05
3.02397e-05 -0.000156143 3.61614e-06
1.03159e-05 3.61614e-06 -0.000448115
-0.00221461 0.000166461 -7.50206e-06
0.000166461 0.000650188 -5.05576e-05
-7.50206e-06 -5.05576e-05 -4.64065e-05
0.000184278 0.000222986 -1.6564e-05
0.000222986 0.000528468 8.12666e-06
-1.6564e-05 8.12666e-06 0.000188612
-0.00150605 0.000752045 0.000128638
0.000752045 -0.000381313 9.94813e-05
0.000128638 9.94813e-05 -0.00104274
0.000682438 1.12734e-05 5.05105e-05
1.12734e-05 -0.0001227 -5.64027e-06
5.05105e-05 -5.64027e-06 -0.00010903
0.00511064 -0.00188521 0.000198962
-0.00188521 0.00527967 -0.000174895
0.000198962 -0.000174895 -0.00252106
0.0162534 0.0034439 -0.000151899
0.0034439 0.00724256 0.000135103
-0.000151899 0.000135103 0.00334894
0.00337854 -0.000524926 -0.000154235
-0.000524926 0.00220339 0.000110341
-0.000154235 0.000110341 0.00119728
0.0121435 0.0041723 -4.7924e-05
0.0041723 0.00414281 -0.000190826
-4.7924e-05 -0.000190826 0.0016649
0.000362101 0.000182686 -5.75225e-05
0.000182686 0.00103382 1.3333e-05
-5.75225e-05 1.3333e-05 0.000129064
0.000110547 -0.000156573 -6.35262e-05
-0.000156573 0.00150296 1.19761e-06
-6.35262e-05 1.19761e-06 0.00112221
0.00337206 -0.00122747 0.000250486
-0.00122747 0.00149577 -2.96426e-05
0.000250486 -2.96426e-05 -0.00302082
-0.00202805 -0.000134538 3.55354e-05
-0.000134538 -0.000417486 2.99564e-05
3.55354e-05 2.99564e-05 -0.000806541
0.00998712 0.0069341 0.000503641
0.0069341 0.00746813 -0.000238
0.000503641 -0.000238 0.0052631
0.00689421 0.00273665 -0.000160083
0.00273665 0.00212393 0.000326319
-0.000160083 0.000326319 -0.00142134
-0.00261469 -0.00116184 0.000151651
-0.00116184 0.00252821 -0.000127616
0.000151651 -0.000127616 -0.00451035
-0.000362884 -0.00035609 2.32345e-05
-0.00035609 0.000586516 -2.37231e-05
2.32345e-05 -2.37231e-05 -0.00030591
0.000165711 -0.000629124 0.000245921
-0.000629124 -0.00023781 -5.85611e-05
0.000245921 -5.85611e-05 -0.00310008
-0.00144456 0.000256713 -0.000939484
0.000256713 0.00587254 0.000261013
-0.000939484 0.000261013 0.00242455
0.0142637 0.00617288 -0.00053157
0.00617288 0.00418661 0.000525925
-0.00053157 0.000525925 0.00123587
0.00884623 -0.0029924 -0.00012013
-0.0029924 0.00355599 4.69843e-05
-0.00012013 4.69843e-05 -6.09265e-05
0.00288786 -0.00127995 -3.03811e-06
-0.00127995 0.0022598 1.45692e-05
-3.03811e-06 1.45692e-05 0.00155456
0.000376817 -4.78199e-05 8.906e-06
-4.78199e-05 0.000523703 3.79557e-06
8.906e-06 3.79557e-06 0.000170877
0.000126931 -0.000335166 1.92876e-07
-0.000335166 0.000336148 -7.22904e-07
1.92876e-07 -7.22904e-07 -0.000135209
0.000874109 -0.000643499 6.83386e-06
-0.000643499 0.000457836 -4.82125e-06
6.83386e-06 -4.82125e-06 0.00022351
-0.000502876 -0.000205816 2.04462e-06
-0.000205816 2.18168e-05 8.3637e-06
2.04462e-06 8.3637e-06 -0.00031785
-0.000572815 -0.000353668 -1.19298e-06
-0.000353668 -0.000353717 -1.40302e-06
-1.19298e-06 -1.40302e-06 -0.000602056
0.00283625 -0.000784567 3.98393e-05
-0.000784567 0.00115952 -6.71248e-06
3.98393e-05 -6.71248e-06 0.000832053
0.00628986 -0.00111767 -1.37115e-05
-0.00111767 0.00326285 7.67257e-07
-1.37115e-05 7.67257e-07 0.0028228
0.00276793 -0.000739761 9.05696e-06
-0.000739761 0.00121886 -1.38188e-06
9.05696e-06 -1.38188e-06 0.000654794
0.00166028 -0.000731552 9.51079e-06
-0.000731552 0.000415279 -1.19524e-05
9.51079e-06 -1.19524e-05 -0.000159886
0.00192638 -0.000575683 -8.80546e-06
-0.000575683 0.000623222 -6.0719e-06
-8.80546e-06 -6.0719e-06 0.000202603
0.00234458 -0.000757679 2.70933e-06
-0.000757679 0.000792214 -1.09244e-06
2.70933e-06 -1.09244e-06 0.000258156
0.00241535 -0.000820786 3.33608e-07
-0.000820786 0.000751627 -1.041e-05
3.33608e-07 -1.041e-05 0.000221742
0.0021401 -0.000696879 -4.7348e-06
-0.000696879 0.000407091 -5.11075e-06
-4.7348e-06 -5.11075e-06 3.32632e-05
0.00233621 -0.000810786 -6.52792e-06
-0.000810786 0.000646054 1.76726e-06
-6.52792e-06 1.76726e-06 0.000202089
0.0021745 -0.000793925 -2.57299e-06
-0.000793925 0.000572284 -1.25425e-07
-2.57299e-06 -1.25425e-07 0.000100189
0.00179779 -0.000605379 8.58754e-06
-0.000605379 0.000542981 -1.34327e-06
8.58754e-06 -1.34327e-06 0.000164291
0.00143098 -0.000584577 2.2968e-06
-0.000584577 0.000290858 -4.74321e-07
2.2968e-06 -4.74321e-07 -9.96087e-05
0.00132856 -0.000560684 2.34392e-06
-0.000560684 0.000221068 -4.9877e-08
2.34392e-06 -4.9877e-08 -0.000189372
0.00179425 -0.000424069 6.08026e-06
-0.000424069 0.0006481 2.63019e-06
6.08026e-06 2.63019e-06 0.000354624
0.00139578 -0.000431512 -1.0516e-06
-0.000431512 0.000367536 -1.49045e-06
-1.0516e-06 -1.49045e-06 5.19862e-05
0.00146068 -0.000486196 7.33107e-06
-0.000486196 0.000341094 -6.15179e-07
7.33107e-06 -6.15179e-07 -3.70153e-06
0.00086982 -0.000191718 2.6781e-06
-0.000191718 0.000277788 -3.29126e-06
2.6781e-06 -3.29126e-06 2.2869e-06
0.000716348 -0.000234958 -1.83011e-06
-0.000234958 9.89317e-05 1.29702e-06
-1.83011e-06 1.29702e-06 -0.000145358
0.00103205 -0.000354371 3.31109e-06
-0.000354371 0.000190416 -8.57606e-06
3.31109e-06 -8.57606e-06 -8.42228e-05
0.000175754 -4.69162e-05 -6.05484e-07
-4.69162e-05 -0.00019664 5.27742e-06
-6.05484e-07 5.27742e-06 -0.000330038
0.000721308 -9.51873e-05 -5.3932e-07
-9.51873e-05 0.000201208 7.28934e-07
-5.3932e-07 7.28934e-07 -2.81763e-05
0.00147345 -0.000302266 1.87172e-06
-0.000302266 0.000696053 7.98663e-07
1.87172e-06 7.98663e-07 0.00042095
0.000372648 2.47607e-06 -4.6443e-06
2.47607e-06 -8.44113e-05 1.26075e-05
-4.6443e-06 1.26075e-05 -0.0001282
0.000645453 -5.18024e-05 3.69075e-07
-5.18024e-05 9.57063e-05 4.83809e-08
3.69075e-07 4.83809e-08 -1.67481e-05
0.00132083 -0.000176303 -6.81888e-07
-0.000176303 0.000540792 8.60505e-07
-6.81888e-07 8.60505e-07 0.00036295
0.000639223 -5.0105e-05 6.04642e-08
-5.0105e-05 9.70468e-05 -4.979e-06
6.04642e-08 -4.979e-06 -4.02722e-06
0.000463584 1.92228e-05 -2.96066e-07
1.92228e-05 -2.68325e-05 -3.41867e-07
-2.96066e-07 -3.41867e-07 -6.52309e-05
0.00283474 0.000120824 -3.6565e-05
0.000120824 0.00146172 4.37263e-06
-3.6565e-05 4.37263e-06 0.00146071
0.000536084 1.27885e-05 1.36345e-06
1.27885e-05 7.8836e-06 -6.98063e-06
1.36345e-06 -6.98063e-06 -2.31588e-05
0.00270234 9.97444e-05 4.33388e-06
9.97444e-05 0.00137009 4.90495e-07
4.33388e-06 4.90495e-07 0.00137416
0.0026189 8.0277e-05 2.97797e-05
8.0277e-05 0.00131135 -4.70989e-06
2.97797e-05 -4.70989e-06 0.00131905
0.000835634 8.93363e-05 3.2621e-06
8.93363e-05 0.000302626 -4.47724e-06
3.2621e-06 -4.47724e-06 0.000115887
0.000834597 0.000130944 6.17607e-06
0.000130944 0.000266642 7.12475e-07
6.17607e-06 7.12475e-07 0.000105583
0.000580979 3.99351e-05 2.74443e-06
3.99351e-05 5.50066e-05 -3.23653e-06
2.74443e-06 -3.23653e-06 -3.21854e-05
0.000623678 0.000102453 2.37161e-07
0.000102453 0.000111102 -2.26103e-07
2.37161e-07 -2.26103e-07 -1.98155e-05
0.000481384 -1.3372e-06 3.508e-07
-1.3372e-06 -3.29505e-05 -6.22747e-06
3.508e-07 -6.22747e-06 -5.69553e-05
0.00054175 4.94108e-05 1.74444e-07
4.94108e-05 3.35955e-05 -1.29401e-07
1.74444e-07 -1.29401e-07 -4.52113e-05
0.000582796 5.60475e-05 -3.71424e-06
5.60475e-05 7.92489e-05 -1.63095e-06
-3.71424e-06 -1.63095e-06 -4.29951e-05
0.00233522 -5.09787e-05 -2.59337e-05
-5.09787e-05 0.00112735 -4.92428e-06
-2.59337e-05 -4.92428e-06 0.00114112
0.000482461 -3.64268e-06 -7.60357e-07
-3.64268e-06 -3.42792e-05 -1.56129e-07
-7.60357e-07 -1.56129e-07 -5.24671e-05
0.000490077 5.46781e-05 -3.17971e-06
5.46781e-05 3.92763e-06 4.7848e-07
-3.17971e-06 4.7848e-07 -6.80532e-05
0.00217364 -3.40297e-05 -4.68132e-06
-3.40297e-05 0.00102445 2.2485e-07
-4.68132e-06 2.2485e-07 0.00104085
0.000477929 -3.65416e-06 -2.23519e-06
-3.65416e-06 -3.89785e-05 3.86438e-06
-2.23519e-06 3.86438e-06 -5.19662e-05
0.00208873 -1.81035e-05 1.49625e-05
-1.81035e-05 0.000971096 4.65067e-06
1.49625e-05 4.65067e-06 0.000988832
-0.00202764 0.000120281 -1.43087e-05
0.000120281 9.08317e-05 -2.5058e-05
-1.43087e-05 -2.5058e-05 -8.58434e-05
0.00129942 -0.000178455 -1.56682e-05
-0.000178455 7.04254e-05 1.57343e-05
-1.56682e-05 1.57343e-05 6.37961e-06
5.86283e-05 -0.000183542 7.29165e-06
-0.000183542 0.00143529 -3.33775e-05
7.29165e-06 -3.33775e-05 0.000938232
0.000821174 9.93183e-05 -3.34416e-07
9.93183e-05 0.000252511 1.06629e-06
-3.34416e-07 1.06629e-06 8.83142e-05
0.00040662 8.88226e-05 4.49898e-06
8.88226e-05 -5.38339e-05 -1.21477e-06
4.49898e-06 -1.21477e-06 -0.000203117
-0.00163412 -1.55537e-05 -4.15874e-06
-1.55537e-05 -0.00128694 -7.18228e-06
-4.15874e-06 -7.18228e-06 -0.00142108
-0.00020326 3.68018e-05 1.38559e-06
3.68018e-05 -0.00040554 1.14126e-05
1.38559e-06 1.14126e-05 -0.000541427
0.00289394 0.000393223 -3.38883e-06
0.000393223 0.00152119 -9.61259e-07
-3.38883e-06 -9.61259e-07 0.00127557
0.000705462 4.66399e-05 -5.28444e-06
4.66399e-05 0.000119112 -4.69036e-06
-5.28444e-06 -4.69036e-06 -2.10751e-06
0.000469867 9.51716e-05 -5.83285e-06
9.51716e-05 -1.23058e-07 -9.39145e-06
-5.83285e-06 -9.39145e-06 -0.000119719
0.000710175 7.20632e-05 2.11066e-07
7.20632e-05 0.000145564 -4.20467e-07
2.11066e-07 -4.20467e-07 2.42199e-05
0.00095898 0.000157711 -4.23388e-07
0.000157711 0.000327575 -1.77121e-06
-4.23388e-07 -1.77121e-06 0.000197372
0.000766441 0.000118626 6.49811e-06
0.000118626 0.000331864 -1.42867e-05
6.49811e-06 -1.42867e-05 0.000126536
0.00505041 0.000802279 0.000353447
0.000802279 0.00361854 0.00045006
0.000353447 0.00045006 -0.000933703
0.00196266 0.000606042 1.89478e-05
0.000606042 -5.01673e-06 8.68292e-05
1.89478e-05 8.68292e-05 -0.00151741
0.0038629 -0.000116566 2.56743e-05
-0.000116566 -0.000171535 -1.72016e-05
2.56743e-05 -1.72016e-05 -0.00048796
0.0138194 -0.00179448 -0.000243797
-0.00179448 0.00206002 -0.000134788
-0.000243797 -0.000134788 0.00370014
-0.00368328 0.00161716 6.7975e-05
0.00161716 -0.00213157 0.000422948
6.7975e-05 0.000422948 -0.00639508
0.00299119 -0.00211693 -4.96928e-05
-0.00211693 0.000972293 -1.97646e-05
-4.96928e-05 -1.97646e-05 0.00101871
0.0093264 -0.0019853 -0.000123367
-0.0019853 0.00527766 2.20476e-05
-0.000123367 2.20476e-05 0.000387356
0.00127843 -0.00075622 -7.73092e-05
-0.00075622 0.000877069 9.98939e-05
-7.73092e-05 9.98939e-05 0.000589301
0.00930864 -0.000135975 -0.000134496
-0.000135975 0.006104 5.84877e-08
-0.000134496 5.84877e-08 -0.000106888
0.00473388 -0.00246436 0.000100608
-0.00246436 0.0031183 0.000171446
0.000100608 0.000171446 -0.00126758
0.0144889 -0.00375411 -0.000168464
-0.00375411 0.00205334 -0.000669222
-0.000168464 -0.000669222 0.000661938
0.00341662 -4.18762e-05 -0.000119388
-4.18762e-05 0.00298789 0.00010532
-0.000119388 0.00010532 0.0020074
0.013002 0.00241554 -0.000162817
0.00241554 0.0069741 2.11666e-05
-0.000162817 2.11666e-05 0.00209031
0.0185141 -0.00569317 -0.000183952
-0.00569317 0.00879751 -0.0006426
-0.000183952 -0.0006426 0.00515108
0.020116 -0.007289 7.79189e-05
-0.007289 0.00743959 -6.40542e-05
7.79189e-05 -6.40542e-05 0.00567579
0.000925358 0.000258997 1.15849e-05
0.000258997 0.00050678 2.15502e-07
1.15849e-05 2.15502e-07 0.000243828
0.000190776 4.63485e-05 2.93035e-06
4.63485e-05 6.49389e-05 2.33317e-06
2.93035e-06 2.33317e-06 -0.000175231
0.000862794 0.000176455 -8.02164e-06
0.000176455 0.000328249 -1.1443e-05
-8.02164e-06 -1.1443e-05 0.000154956
0.00389481 -0.000557811 -9.6104e-07
-0.000557811 0.00219007 2.67818e-05
-9.6104e-07 2.67818e-05 0.000991954
0.000139206 -9.04628e-05 -1.75646e-07
-9.04628e-05 0.000753004 -3.98658e-05
-1.75646e-07 -3.98658e-05 0.000324919
-0.000125735 1.61727e-05 -5.22206e-06
1.61727e-05 -0.000205289 2.53603e-06
-5.22206e-06 2.53603e-06 -0.000357535
-0.00038417 6.87886e-05 7.88732e-06
6.87886e-05 0.000116922 -7.94709e-06
7.88732e-06 -7.94709e-06 -0.000311243
0.00019688 0.000117502 1.63047e-06
0.000117502 0.000196575 -1.39249e-06
1.63047e-06 -1.39249e-06 -4.96432e-05
0.000528963 0.000338078 9.99959e-06
0.000338078 0.000698471 -9.22017e-07
9.99959e-06 -9.22017e-07 0.000185048
-0.00186463 -0.000107337 0.000265131
-0.000107337 0.000841426 -1.74807e-05
0.000265131 -1.74807e-05 -0.000936667
-0.00146162 0.000265888 -1.59361e-05
0.000265888 -0.000747651 1.46157e-05
-1.59361e-05 1.46157e-05 -0.00109816
0.00304127 0.000845496 -0.000138201
0.000845496 0.00228325 -6.86268e-05
-0.000138201 -6.86268e-05 0.000962654
0.00139385 0.000197167 0.000162837
0.000197167 0.0016659 5.32853e-05
0.000162837 5.32853e-05 -0.00210078
-0.00183849 0.000134712 -4.08865e-05
0.000134712 0.00105246 1.67125e-05
-4.08865e-05 1.67125e-05 0.000143894
0.00208928 -0.000203783 -1.84185e-05
-0.000203783 0.000422042 -1.17403e-06
-1.84185e-05 -1.17403e-06 0.000663353
-0.00056298 0.000467313 0.00012325
0.000467313 0.000397768 1.47517e-05
0.00012325 1.47517e-05 -0.000579468
0.00137615 0.000302501 -8.2036e-05
0.000302501 0.0019902 8.17223e-05
-8.2036e-05 8.17223e-05 0.000711854
-6.29683e-05 -0.000223151 -1.23193e-05
-0.000223151 0.00136884 -3.15415e-07
-1.23193e-05 -3.15415e-07 0.000838852
0.0163846 -0.00363862 0.000206151
-0.00363862 0.00795004 -9.89804e-05
0.000206151 -9.89804e-05 0.00221696
0.0221781 0.00411749 -9.49217e-05
0.00411749 0.00959155 -0.000137859
-9.49217e-05 -0.000137859 0.00563423
0.00478869 -0.00137166 -0.000217083
-0.00137166 0.00235014 0.000226015
-0.000217083 0.000226015 -0.0020681
0.00249182 0.0079168 0.00221243
0.0079168 0.00312584 -0.0014375
0.00221243 -0.0014375 0.000930747
0.00109604 -0.000443327 3.25379e-05
-0.000443327 0.00133675 -9.80178e-06
3.25379e-05 -9.80178e-06 0.000361878
-0.000197168 -0.000455089 3.68052e-05
-0.000455089 0.000291538 1.44274e-05
3.68052e-05 1.44274e-05 -0.00311407
-0.000960615 0.000637967 -0.00103256
0.000637967 0.00564602 0.000327831
-0.00103256 0.000327831 0.00190523
0.000876682 -0.000740302 4.04877e-06
-0.000740302 0.00112649 3.20895e-05
4.04877e-06 3.20895e-05 0.000503619
0.0188598 0.00546641 0.000307513
0.00546641 0.00570172 8.97744e-05
0.000307513 8.97744e-05 0.00283344
0.0074142 -0.00417751 0.000169639
-0.00417751 0.00243767 -7.10908e-05
0.000169639 -7.10908e-05 -0.00132204
0.00183148 -0.00114246 -1.32354e-05
-0.00114246 0.00104344 2.94205e-05
-1.32354e-05 2.94205e-05 0.00036249
-0.00644766 -0.00154289 0.000125685
-0.00154289 0.00487939 -6.82713e-05
0.000125685 -6.82713e-05 0.00111319
0.0152072 0.0051592 -0.00134267
0.0051592 0.00595999 0.000499839
-0.00134267 0.000499839 0.00352133
0.00576427 -0.00305494 -0.000390624
-0.00305494 -0.000389361 0.000181556
-0.000390624 0.000181556 -0.00380712
0.00160668 -0.00183812 0.000188492
-0.00183812 0.00014638 -0.000110138
0.000188492 -0.000110138 0.00101951
0.000737351 -0.000432543 -8.10393e-05
-0.000432543 0.000598151 3.08435e-05
-8.10393e-05 3.08435e-05 0.00017715
0.000748786 -0.000567846 -8.75846e-06
-0.000567846 0.000421226 1.27542e-05
-8.75846e-06 1.27542e-05 0.00012067
0.00331036 -0.000843623 2.37198e-05
-0.000843623 0.00151314 -7.80793e-06
2.37198e-05 -7.80793e-06 0.00117536
-0.00204948 -0.0001928 7.23384e-06
-0.0001928 -0.00102551 1.22986e-05
7.23384e-06 1.22986e-05 -0.00127533
0.00111555 -0.000578192 5.38609e-06
-0.000578192 0.000257949 -1.40054e-06
5.38609e-06 -1.40054e-06 -4.93967e-05
0.00272366 -0.000870919 9.78733e-06
-0.000870919 0.00080961 -3.80214e-07
9.78733e-06 -3.80214e-07 0.000449173
0.00381414 -0.000873562 -2.8068e-05
-0.000873562 0.00172337 3.69504e-06
-2.8068e-05 3.69504e-06 0.00116779
0.00138605 -0.000675199 -1.54708e-07
-0.000675199 0.000249719 -9.64241e-07
-1.54708e-07 -9.64241e-07 -0.000305506
0.00174995 -0.000826536 2.91612e-06
-0.000826536 0.000218695 -1.18871e-05
2.91612e-06 -1.18871e-05 -0.000229518
0.00281571 -0.000825404 -6.52554e-07
-0.000825404 0.00102412 4.29598e-06
-6.52554e-07 4.29598e-06 0.000477774
0.00213774 -0.000794932 4.95739e-07
-0.000794932 0.000572457 -4.88093e-06
4.95739e-07 -4.88093e-06 6.10334e-05
0.00257898 -0.000751015 7.35073e-07
-0.000751015 0.000602628 -9.35098e-06
7.35073e-07 -9.35098e-06 0.00023457
0.00172282 -0.000493051 -5.10396e-06
-0.000493051 1.60079e-05 -3.13003e-06
-5.10396e-06 -3.13003e-06 -0.000227118
0.00184728 -0.00068977 -1.53827e-06
-0.00068977 0.000191412 -1.2071e-06
-1.53827e-06 -1.2071e-06 -0.000179576
0.0020771 -0.000690827 2.85531e-06
-0.000690827 0.000365634 -2.89515e-06
2.85531e-06 -2.89515e-06 -4.86148e-06
0.0021735 -0.000709805 -2.65408e-06
-0.000709805 0.000616109 -3.24669e-07
-2.65408e-06 -3.24669e-07 0.000218133
0.00227808 -0.000803073 -2.69996e-06
-0.000803073 0.000623341 8.56757e-09
-2.69996e-06 8.56757e-09 0.000175642
0.0023897 -0.000820644 5.34688e-06
-0.000820644 0.000687678 -3.46224e-06
5.34688e-06 -3.46224e-06 0.00020668
0.00194086 -0.000525536 6.23683e-06
-0.000525536 0.000685923 1.69805e-06
6.23683e-06 1.69805e-06 0.000342765
0.00134715 -0.000546962 2.40983e-06
-0.000546962 0.000285054 1.53837e-08
2.40983e-06 1.53837e-08 -7.74205e-05
0.00122219 -0.000554296 2.79354e-06
-0.000554296 0.000170721 1.14854e-06
2.79354e-06 1.14854e-06 -0.000206396
0.00126966 -0.000337981 -7.93599e-07
-0.000337981 0.000397 3.15644e-07
-7.93599e-07 3.15644e-07 0.00013366
0.00117976 -0.000350121 4.91333e-07
-0.000350121 0.000278379 -5.8591e-07
4.91333e-07 -5.8591e-07 2.01821e-07
0.00125209 -0.000412754 -6.43017e-06
-0.000412754 0.00028301 -1.60442e-06
-6.43017e-06 -1.60442e-06 -3.12597e-05
-0.000342835 -8.00566e-05 -2.40321e-06
-8.00566e-05 -0.000506046 3.36981e-06
-2.40321e-06 3.36981e-06 -0.00070231
0.000793861 -0.000219049 1.1203e-06
-0.000219049 0.000235397 -3.27237e-07
1.1203e-06 -3.27237e-07 -4.30359e-05
0.00133569 -0.000291109 -3.70691e-06
-0.000291109 0.000497609 1.48523e-06
-3.70691e-06 1.48523e-06 0.000240956
0.00178654 3.75134e-05 -4.10026e-05
3.75134e-05 0.000806055 7.885e-06
-4.10026e-05 7.885e-06 0.000758947
0.00067136 -9.93487e-05 4.25652e-07
-9.93487e-05 0.000103423 -6.17676e-07
4.25652e-07 -6.17676e-07 -3.65937e-05
0.00145262 -0.000147883 -1.48512e-06
-0.000147883 0.000654891 1.04161e-06
-1.48512e-06 1.04161e-06 0.00041677
0.000704462 3.7636e-05 -4.70836e-05
3.7636e-05 0.00012703 5.47889e-06
-4.70836e-05 5.47889e-06 0.000117935
0.00114867 2.3943e-05 -1.55451e-05
2.3943e-05 0.000403258 -5.42128e-07
-1.55451e-05 -5.42128e-07 0.000360389
0.000727681 -6.18122e-05 2.1525e-06
-6.18122e-05 0.000140928 -6.12697e-06
2.1525e-06 -6.12697e-06 2.83101e-05
0.000588226 1.44837e-05 2.10966e-06
1.44837e-05 4.78881e-05 -8.7436e-06
2.10966e-06 -8.7436e-06 9.76434e-06
0.00290018 0.000121904 7.52189e-06
0.000121904 0.00150289 6.81522e-07
7.52189e-06 6.81522e-07 0.00150173
0.00269525 0.000100317 3.33777e-05
0.000100317 0.00136604 -4.51866e-06
3.33777e-05 -4.51866e-06 0.00137008
0.00102234 0.000133463 9.3082e-06
0.000133463 0.00040097 -8.75592e-07
9.3082e-06 -8.75592e-07 0.000198073
0.00124289 0.000152506 4.30455e-06
0.000152506 0.000539967 -2.08926e-06
4.30455e-06 -2.08926e-06 0.000348742
0.000104824 6.16303e-05 5.55305e-08
6.16303e-05 -0.00017766 6.46204e-07
5.55305e-08 6.46204e-07 -0.000342632
0.000628855 3.55014e-05 3.16417e-06
3.55014e-05 8.44334e-05 -4.50427e-06
3.16417e-06 -4.50427e-06 -1.41e-05
0.000806399 0.000107753 6.79925e-07
0.000107753 0.000239313 6.60298e-08
6.79925e-07 6.60298e-08 8.80019e-05
0.000470714 8.9478e-06 -1.73288e-06
8.9478e-06 -3.45187e-05 -7.58184e-06
-1.73288e-06 -7.58184e-06 -6.3735e-05
0.00054722 4.16434e-05 -1.08421e-07
4.16434e-05 3.65343e-05 -3.81955e-07
-1.08421e-07 -3.81955e-07 -5.15172e-05
0.000723245 7.02405e-05 -3.02437e-06
7.02405e-05 0.000196341 -3.10908e-07
-3.02437e-06 -3.10908e-07 4.83535e-05
0.0025574 -6.91793e-05 -3.40701e-05
-6.91793e-05 0.00127023 -4.88384e-06
-3.40701e-05 -4.88384e-06 0.00128075
0.000459594 1.74312e-06 -6.4252e-07
1.74312e-06 -4.57871e-05 -1.3599e-07
-6.4252e-07 -1.3599e-07 -6.95639e-05
0.000559677 5.33818e-05 -7.77681e-07
5.33818e-05 4.60224e-05 2.75472e-06
-7.77681e-07 2.75472e-06 -3.32695e-05
0.00234436 -5.11362e-05 -5.86261e-06
-5.11362e-05 0.00113309 3.44863e-07
-5.86261e-06 3.44863e-07 0.00114687
0.000446734 -1.08137e-05 -3.6243e-06
-1.08137e-05 -5.62489e-05 4.83104e-06
-3.6243e-06 4.83104e-06 -7.41628e-05
0.00219977 -3.28518e-05 2.05408e-05
-3.28518e-05 0.00104079 4.61181e-06
2.05408e-05 4.61181e-06 0.00105728
0.00637625 0.000540295 0.000287029
0.000540295 0.00349156 6.06958e-05
0.000287029 6.06958e-05 0.00142832
-0.00177392 6.84128e-05 -1.92756e-06
6.84128e-05 6.95613e-05 -5.99108e-06
-1.92756e-06 -5.99108e-06 -0.000312438
0.000703706 3.17411e-05 -1.6142e-05
3.17411e-05 0.000136335 -5.11051e-06
-1.6142e-05 -5.11051e-06 5.49387e-05
-0.000311842 0.000106352 -7.3667e-06
0.000106352 -0.000506652 1.44587e-06
-7.3667e-06 1.44587e-06 -0.000653295
0.000465532 7.06254e-05 -5.81547e-06
7.06254e-05 2.13459e-05 -3.60818e-06
-5.81547e-06 -3.60818e-06 -0.000128305
1.87041e-05 6.21338e-05 -6.94177e-09
6.21338e-05 -0.00029257 -2.13348e-06
-6.94177e-09 -2.13348e-06 -0.000437699
0.00112404 6.92753e-05 1.20537e-06
6.92753e-05 0.000399686 -3.51422e-07
1.20537e-06 -3.51422e-07 0.000251487
0.000106186 8.61007e-05 -2.34654e-06
8.61007e-05 -0.000243367 -1.7614e-06
-2.34654e-06 -1.7614e-06 -0.000381572
0.00203548 0.00028585 -1.84405e-06
0.00028585 0.000996397 -3.51778e-06
-1.84405e-06 -3.51778e-06 0.000801174
0.00107899 0.000238355 -8.3268e-06
0.000238355 0.00037351 -1.48983e-05
-8.3268e-06 -1.48983e-05 8.6971e-05
-0.00088058 7.89479e-05 7.26384e-07
7.89479e-05 -0.000580839 1.38365e-07
7.26384e-07 1.38365e-07 -0.000887357
0.000844718 0.000152843 -5.04553e-06
0.000152843 0.000253392 -4.56323e-06
-5.04553e-06 -4.56323e-06 0.000113611
0.000145419 5.30436e-05 -6.81353e-06
5.30436e-05 -0.000216675 -7.78366e-06
-6.81353e-06 -7.78366e-06 -0.000311352
6.76758e-05 5.11954e-05 2.23114e-07
5.11954e-05 -0.000112277 9.48577e-07
2.23114e-07 9.48577e-07 -0.000304158
0.000860723 0.000252576 1.38733e-05
0.000252576 0.000529823 -3.19298e-06
1.38733e-05 -3.19298e-06 0.000177739
0.00261041 -0.00258226 0.000136596
-0.00258226 0.00523915 0.000253648
0.000136596 0.000253648 0.0002981
0.00581863 0.00111446 0.000111567
0.00111446 0.00302178 0.000160604
0.000111567 0.000160604 -0.00188406
0.00268823 0.00040449 -3.04007e-05
0.00040449 0.000488853 -7.99385e-05
-3.04007e-05 -7.99385e-05 -0.00124535
0.021884 -0.00469902 -0.000644201
-0.00469902 0.00564779 -0.000347855
-0.000644201 -0.000347855 0.00404377
0.00593203 -0.00170306 0.000244848
-0.00170306 0.00349407 0.000452141
0.000244848 0.000452141 0.000236083
0.00365453 -0.0014292 -0.000219345
-0.0014292 0.00487004 9.13258e-05
-0.000219345 9.13258e-05 -0.0020035
-0.000878367 -0.000467994 0.000137914
-0.000467994 0.000895761 1.02017e-05
0.000137914 1.02017e-05 -2.40514e-05
-0.000242609 -0.000146218 7.78851e-05
-0.000146218 0.000881784 5.49536e-05
7.78851e-05 5.49536e-05 0.000266859
0.0120435 -0.00755205 0.000414565
-0.00755205 0.00533013 0.000392201
0.000414565 0.000392201 0.00336191
0.00196993 0.00139497 -8.89291e-05
0.00139497 0.00396943 -7.75053e-05
-8.89291e-05 -7.75053e-05 -0.0022134
0.0072457 -0.00338967 -0.000118076
-0.00338967 0.00285372 9.57259e-05
-0.000118076 9.57259e-05 -0.00138138
0.000526638 0.0006313 -2.15205e-05
0.0006313 0.00100369 7.0488e-05
-2.15205e-05 7.0488e-05 0.000717739
0.0115535 0.00344561 -0.0001021
0.00344561 0.00405201 7.16686e-06
-0.0001021 7.16686e-06 0.000369475
0.0126167 -0.00603962 -0.000753761
-0.00603962 0.00357516 -0.000492115
-0.000753761 -0.000492115 0.000332241
-0.000248401 0.000415415 -9.86543e-07
0.000415415 -0.000529417 -4.61381e-06
-9.86543e-07 -4.61381e-06 -0.000668868
0.00044945 0.000134753 7.96405e-06
0.000134753 0.000188196 3.38196e-06
7.96405e-06 3.38196e-06 -2.06667e-05
9.38023e-05 5.96012e-05 -7.12436e-06
5.96012e-05 -8.40983e-06 -4.7548e-06
-7.12436e-06 -4.7548e-06 -0.000239237
-0.00391976 -0.000355432 -0.00013416
-0.000355432 -0.000345916 -6.66421e-05
-0.00013416 -6.66421e-05 -0.00207276
-0.000887325 0.000254647 1.86981e-05
0.000254647 -0.000207538 -2.4481e-05
1.86981e-05 -2.4481e-05 -0.000713037
0.0010876 0.000166412 -4.90645e-06
0.000166412 0.000691799 8.77696e-06
-4.90645e-06 8.77696e-06 0.000438065
0.0010072 0.000591337 1.62837e-05
0.000591337 0.000537684 4.34182e-06
1.62837e-05 4.34182e-06 0.000156277
-0.000426199 0.000448218 4.14189e-05
0.000448218 0.000601579 -2.94721e-05
4.14189e-05 -2.94721e-05 -0.000535839
0.000602546 0.00115646 5.46434e-05
0.00115646 -0.00010377 6.12945e-06
5.46434e-05 6.12945e-06 -0.000832133
-0.0054864 0.00102306 0.000316691
0.00102306 0.00514988 9.073e-06
0.000316691 9.073e-06 -0.00105414
0.00227419 -0.000105557 -7.49596e-06
-0.000105557 0.00190373 5.91089e-05
-7.49596e-06 5.91089e-05 -0.00071945
-0.00221469 -5.26883e-05 -9.95344e-06
-5.26883e-05 0.00060852 4.37453e-05
-9.95344e-06 4.37453e-05 -6.29022e-05
-0.00037894 -0.00024226 -5.52817e-05
-0.00024226 0.000666853 1.4101e-05
-5.52817e-05 1.4101e-05 -0.000355272
-0.00136606 -0.000358699 -5.50975e-05
-0.000358699 -0.000489855 4.18286e-05
-5.50975e-05 4.18286e-05 -0.000221973
-7.39311e-05 -0.000369533 -0.000168833
-0.000369533 0.000620682 0.000102394
-0.000168833 0.000102394 -0.00299076
0.000180384 -0.00341354 0.000242825
-0.00341354 0.00202 -8.49405e-05
0.000242825 -8.49405e-05 -0.00337413
0.0071213 0.00466113 0.000607129
0.00466113 -0.000380948 -0.000416545
0.000607129 -0.000416545 -0.00301035
0.00876153 0.00277649 -0.000378138
0.00277649 0.00686798 0.00028811
-0.000378138 0.00028811 0.00324088
0.00116807 -0.000690771 -1.02542e-05
-0.000690771 0.00109429 -2.38644e-06
-1.02542e-05 -2.38644e-06 0.000454435
0.00163325 0.000454363 0.000105938
0.000454363 0.00670146 -1.51075e-05
0.000105938 -1.51075e-05 0.0031273
3.8931e-05 0.00351475 1.12348e-05
0.00351475 0.000464717 6.28273e-05
1.12348e-05 6.28273e-05 -0.00271628
0.00247936 -0.00228435 8.58692e-05
-0.00228435 0.000689219 -3.71358e-05
8.58692e-05 -3.71358e-05 0.000845358
0.0169057 -0.00332552 2.15489e-05
-0.00332552 0.00371636 -6.75357e-06
2.15489e-05 -6.75357e-06 0.00182711
0.00324452 -0.00143616 1.00386e-05
-0.00143616 0.00129783 2.00327e-05
1.00386e-05 2.00327e-05 0.00101391
-0.0087267 0.00106186 -0.000499635
0.00106186 -0.00290206 7.08123e-05
-0.000499635 7.08123e-05 -0.0053035
0.0156738 -0.00213227 -0.000211841
-0.00213227 0.00231014 7.14982e-05
-0.000211841 7.14982e-05 0.000854955
0.00384111 -0.00249079 9.74189e-05
-0.00249079 -0.000123897 -6.79393e-05
9.74189e-05 -6.79393e-05 0.000227858
0.000149347 -0.000424287 -9.7643e-06
-0.000424287 0.000185694 1.85915e-05
-9.7643e-06 1.85915e-05 -0.000178467
0.000796784 -0.00069562 -2.00349e-06
-0.00069562 4.61712e-05 -4.5825e-07
-2.00349e-06 -4.5825e-07 -0.000162314
0.00588311 -0.00102397 2.6063e-05
-0.00102397 0.00255821 -8.76061e-06
2.6063e-05 -8.76061e-06 0.00218585
-0.000621696 -0.000378719 -8.33886e-06
-0.000378719 -0.00063614 7.01185e-06
-8.33886e-06 7.01185e-06 -0.000935328
0.00133961 -0.000716684 -4.66987e-06
-0.000716684 0.000111593 -1.57993e-06
-4.66987e-06 -1.57993e-06 -0.000254254
0.00274447 -0.000930139 5.66108e-06
-0.000930139 0.000632302 -7.53064e-06
5.66108e-06 -7.53064e-06 0.000260764
0.00148276 -0.000664079 -1.35706e-05
-0.000664079 0.000275649 6.80004e-06
-1.35706e-05 6.80004e-06 -0.000261287
0.0018057 -0.000820444 -1.62646e-06
-0.000820444 0.00025273 1.12475e-07
-1.62646e-06 1.12475e-07 -0.000201391
0.00164751 -0.000671753 5.65605e-07
-0.000671753 -6.95268e-05 -6.37842e-06
5.65605e-07 -6.37842e-06 -0.000352142
0.00147697 -0.000724567 -4.39032e-06
-0.000724567 0.00018709 2.39723e-06
-4.39032e-06 2.39723e-06 -0.000301707
0.00190685 -0.000668082 -8.27978e-07
-0.000668082 0.000241108 1.46808e-06
-8.27978e-07 1.46808e-06 -0.000109338
0.00192886 -0.000509232 -1.07796e-06
-0.000509232 6.77003e-05 -4.20033e-06
-1.07796e-06 -4.20033e-06 -0.000136727
0.00184988 -0.000420226 -5.49677e-06
-0.000420226 7.59733e-05 -1.17344e-06
-5.49677e-06 -1.17344e-06 -9.36889e-05
0.00167005 -0.000504112 -5.76466e-06
-0.000504112 1.61326e-06 -1.91992e-06
-5.76466e-06 -1.91992e-06 -0.000252492
0.0017744 -0.000490854 1.38042e-06
-0.000490854 5.01508e-05 2.69231e-06
1.38042e-06 2.69231e-06 -0.000189042
0.00163131 -0.000595345 -5.61739e-06
-0.000595345 0.000120506 -2.08504e-06
-5.61739e-06 -2.08504e-06 -0.000213368
0.00201375 -0.000696621 2.67802e-06
-0.000696621 0.000307431 -3.77173e-07
2.67802e-06 -3.77173e-07 -5.98165e-05
0.00206585 -0.000689306 4.97767e-06
-0.000689306 0.000354552 1.49751e-06
4.97767e-06 1.49751e-06 -1.33024e-05
0.00156797 -0.00057584 -1.72921e-06
-0.00057584 0.000301576 -1.54145e-06
-1.72921e-06 -1.54145e-06 -6.23249e-05
0.00201332 -0.000697491 1.72825e-06
-0.000697491 0.000517828 -6.25947e-07
1.72825e-06 -6.25947e-07 0.00011979
0.00217951 -0.000789613 7.57538e-07
-0.000789613 0.000577034 -1.70433e-06
7.57538e-07 -1.70433e-06 0.000126419
0.00128073 -0.000344174 -5.85357e-06
-0.000344174 0.000296783 1.55679e-06
-5.85357e-06 1.55679e-06 3.59676e-05
0.00143975 -0.000469442 2.22369e-06
-0.000469442 0.000366391 1.12837e-06
2.22369e-06 1.12837e-06 3.76128e-05
0.000824725 -0.000479522 -4.50459e-06
-0.000479522 -1.68986e-05 8.95005e-07
-4.50459e-06 8.95005e-07 -0.000361374
0.000514248 -0.000191164 -5.73172e-06
-0.000191164 -3.07915e-05 6.92291e-07
-5.73172e-06 6.92291e-07 -0.000251035
0.00106265 -0.000331173 3.57591e-07
-0.000331173 0.000257831 -2.40767e-07
3.57591e-07 -2.40767e-07 1.74831e-06
0.000406697 -0.000263913 -8.73296e-06
-0.000263913 -0.000187583 -6.26051e-07
-8.73296e-06 -6.26051e-07 -0.000447982
0.000275575 -3.62471e-05 -8.84863e-06
-3.62471e-05 -0.000149663 1.27957e-05
-8.84863e-06 1.27957e-05 -0.000217215
0.000875671 -0.000148426 2.0063e-06
-0.000148426 0.000248513 8.99688e-07
2.0063e-06 8.99688e-07 4.02914e-05
0.00089186 -0.00024533 6.16802e-07
-0.00024533 0.000292191 1.04141e-06
6.16802e-07 1.04141e-06 1.85013e-05
0.00360561 0.000214049 1.57773e-06
0.000214049 0.00197643 4.39541e-06
1.57773e-06 4.39541e-06 0.00194689
0.000405616 -1.30907e-05 8.9469e-08
-1.30907e-05 -6.57506e-05 -3.2779e-07
8.9469e-08 -3.2779e-07 -0.000120827
0.0011788 -0.000106221 3.83075e-07
-0.000106221 0.000422895 -6.39838e-06
3.83075e-07 -6.39838e-06 0.000272166
0.00321324 0.000140656 8.05862e-06
0.000140656 0.0017062 6.46021e-07
8.05862e-06 6.46021e-07 0.00170047
0.000536527 2.283e-06 3.88067e-06
2.283e-06 1.80753e-05 -1.00433e-05
3.88067e-06 -1.00433e-05 -2.84117e-05
0.00295027 0.000118689 4.80447e-05
0.000118689 0.00153358 -4.44451e-06
4.80447e-05 -4.44451e-06 0.00153332
0.00200118 0.000291248 6.81384e-06
0.000291248 0.000939298 3.36667e-06
6.81384e-06 3.36667e-06 0.000722253
0.000829088 0.000144746 6.25907e-07
0.000144746 0.000290452 -3.26531e-06
6.25907e-07 -3.26531e-06 8.17003e-05
0.00120125 0.000154139 1.37172e-06
0.000154139 0.00053072 -6.52067e-06
1.37172e-06 -6.52067e-06 0.000307605
0.000638585 5.00345e-05 2.7979e-06
5.00345e-05 9.57942e-05 -5.65637e-06
2.7979e-06 -5.65637e-06 -1.95035e-05
0.000725418 9.55277e-05 1.20703e-07
9.55277e-05 0.000204523 1.33285e-06
1.20703e-07 1.33285e-06 2.70188e-05
0.000385169 0.000109366 -9.17852e-07
0.000109366 1.09328e-05 4.66206e-06
-9.17852e-07 4.66206e-06 -0.000167607
0.000505321 -1.36559e-06 -1.67583e-06
-1.36559e-06 -7.19565e-06 -9.04178e-06
-1.67583e-06 -9.04178e-06 -4.27809e-05
0.000598199 4.0527e-05 -4.02256e-08
4.0527e-05 7.0467e-05 -3.02366e-07
-4.02256e-08 -3.02366e-07 -2.99818e-05
0.000441856 8.40968e-05 -4.49832e-06
8.40968e-05 -1.61014e-06 -2.8171e-07
-4.49832e-06 -2.8171e-07 -0.000137973
0.00272338 -8.64583e-05 -4.27772e-05
-8.64583e-05 0.00137949 -4.61286e-06
-4.27772e-05 -4.61286e-06 0.00138704
0.000432784 -1.8727e-05 2.56112e-06
-1.8727e-05 -5.66803e-05 -1.27388e-07
2.56112e-06 -1.27388e-07 -8.65456e-05
0.000515729 4.61014e-05 -2.01327e-06
4.61014e-05 1.83053e-05 3.32764e-06
-2.01327e-06 3.32764e-06 -7.02199e-05
0.00253331 -6.92711e-05 -6.37962e-06
-6.92711e-05 0.00125498 4.67338e-07
-6.37962e-06 4.67338e-07 0.00126544
0.000446859 -5.84198e-06 -2.16995e-06
-5.84198e-06 -5.34512e-05 5.9846e-06
-2.16995e-06 5.9846e-06 -7.69464e-05
0.00230737 -5.02648e-05 2.31265e-05
-5.02648e-05 0.00110975 4.64383e-06
2.31265e-05 4.64383e-06 0.00112385
-0.0095882 0.000994305 -8.54498e-05
0.000994305 0.00345837 8.04122e-05
-8.54498e-05 8.04122e-05 -0.00240708
0.00599925 0.000365598 -7.2155e-07
0.000365598 0.00341958 -2.19047e-06
-7.2155e-07 -2.19047e-06 0.00145189
-0.0014463 1.71262e-05 3.16892e-05
1.71262e-05 8.15466e-05 1.12983e-05
3.16892e-05 1.12983e-05 -0.000510112
0.000138424 0.000115665 -1.37534e-06
0.000115665 -0.000197657 1.95805e-06
-1.37534e-06 1.95805e-06 -0.000374777
0.00341258 0.000625372 1.14987e-05
0.000625372 0.00174428 1.03156e-05
1.14987e-05 1.03156e-05 0.00140999
0.00159682 0.00018655 -8.62439e-06
0.00018655 0.000776662 7.16056e-07
-8.62439e-06 7.16056e-07 0.000493284
0.000634891 7.19248e-05 -6.81849e-06
7.19248e-05 9.60899e-05 -1.18564e-05
-6.81849e-06 -1.18564e-05 -5.46834e-05
0.00241846 0.00025814 3.56434e-06
0.00025814 0.00115433 -1.231e-06
3.56434e-06 -1.231e-06 0.000997814
-0.000458946 4.64423e-05 -8.00559e-06
4.64423e-05 -0.000529256 8.2327e-06
-8.00559e-06 8.2327e-06 -0.000670243
0.00020392 8.53839e-05 -1.44827e-06
8.53839e-05 -1.29977e-06 5.22621e-06
-1.44827e-06 5.22621e-06 -0.000262814
0.000519797 0.000149699 -2.74411e-06
0.000149699 8.02224e-05 -5.33644e-06
-2.74411e-06 -5.33644e-06 -0.000208057
0.00189844 0.000442799 6.46028e-06
0.000442799 0.000940349 -2.82292e-05
6.46028e-06 -2.82292e-05 0.000531156
0.000243851 0.000436077 -1.50406e-05
0.000436077 -0.000193856 4.46093e-05
-1.50406e-05 4.46093e-05 -0.000342894
0.00143502 3.97857e-05 -1.08425e-05
3.97857e-05 0.000692417 1.39325e-05
-1.08425e-05 1.39325e-05 0.000508198
0.00131376 0.000227948 4.1839e-06
0.000227948 0.000808656 -9.96894e-06
4.1839e-06 -9.96894e-06 0.000467183
-0.00126818 -0.0020831 -0.00133961
-0.0020831 0.00106967 -0.000233952
-0.00133961 -0.000233952 -0.00232157
-0.00292229 -0.00194712 0.000459021
-0.00194712 0.00499868 0.000189652
0.000459021 0.000189652 -0.000126161
0.00653685 0.00139702 -0.000474528
0.00139702 0.00285284 -0.00016753
-0.000474528 -0.00016753 -0.00240603
0.00183806 -0.00791405 0.00216737
-0.00791405 0.00309165 0.00139684
0.00216737 0.00139684 0.000547042
0.0231506 -0.00353914 5.43504e-05
-0.00353914 0.00779393 0.000321272
5.43504e-05 0.000321272 0.00488443
-0.00286259 0.00142785 -1.21343e-05
0.00142785 0.00202328 -0.000181964
-1.21343e-05 -0.000181964 -0.00344316
-0.00255898 0.000175931 -0.000392992
0.000175931 0.000413499 -6.83163e-05
-0.000392992 -6.83163e-05 -0.0011692
0.00117666 0.000683848 6.99836e-05
0.000683848 0.00148071 4.90598e-05
6.99836e-05 4.90598e-05 0.00119077
0.0183643 -0.00442748 -0.000566798
-0.00442748 0.00752041 8.73433e-06
-0.000566798 8.73433e-06 0.00437941
-0.0023367 0.00259796 -9.69569e-05
0.00259796 0.000371822 -4.60159e-05
-9.69569e-05 -4.60159e-05 -0.00419328
0.00282039 0.00187873 4.16229e-06
0.00187873 0.000813102 -7.08665e-05
4.16229e-06 -7.08665e-05 0.00139764
0.00242084 0.00404229 -0.000348594
0.00404229 -0.00199752 -0.000105745
-0.000348594 -0.000105745 -0.00466125
0.0032093 0.00110222 2.14214e-05
0.00110222 0.00116587 -1.23024e-05
2.14214e-05 -1.23024e-05 0.000835186
0.000982718 0.000524917 -6.47677e-06
0.000524917 0.000268662 -1.08258e-06
-6.47677e-06 -1.08258e-06 0.000106889
-9.91131e-05 0.000134417 -3.79456e-06
0.000134417 -0.000137265 -8.73845e-08
-3.79456e-06 -8.73845e-08 -0.000351528
-0.00188871 0.000292838 -6.60063e-05
0.000292838 -0.000177338 -7.39947e-05
-6.60063e-05 -7.39947e-05 -0.00116821
0.00230051 0.0007614 -2.85143e-05
0.0007614 0.00117185 -2.22513e-05
-2.85143e-05 -2.22513e-05 0.00077419
0.00160809 0.00127016 1.19828e-05
0.00127016 0.000345252 -7.72814e-06
1.19828e-05 -7.72814e-06 -0.000374565
-0.000448239 0.00143893 9.79603e-05
0.00143893 -0.00151934 4.32244e-05
9.79603e-05 4.32244e-05 -0.00180869
-0.00600155 -0.000397925 -0.000528102
-0.000397925 -0.00453046 3.82878e-05
-0.000528102 3.82878e-05 -0.00390469
-0.00788546 0.000464468 0.00034076
0.000464468 0.00525197 1.4892e-05
0.00034076 1.4892e-05 -0.000566968
0.00292766 -0.000108673 -0.000112605
-0.000108673 0.00202542 3.38375e-05
-0.000112605 3.38375e-05 0.000312427
0.00227146 -0.000857948 -4.35764e-05
-0.000857948 0.00128008 -4.84025e-05
-4.35764e-05 -4.84025e-05 0.000656917
-0.000451311 -0.00176517 7.58547e-06
-0.00176517 -0.000701458 4.73446e-05
7.58547e-06 4.73446e-05 -0.000468523
0.000636617 0.000518432 3.25098e-05
0.000518432 0.00641632 3.87583e-05
3.25098e-05 3.87583e-05 0.00277579
0.00174564 -0.00283406 0.000415974
-0.00283406 -0.00161601 -0.00012454
0.000415974 -0.00012454 -0.00409038
0.0199716 0.00309416 0.000716783
0.00309416 0.00878758 -9.19044e-05
0.000716783 -9.19044e-05 0.00622479
0.00159283 -0.00146217 -1.62327e-05
-0.00146217 0.000333651 5.4004e-06
-1.62327e-05 5.4004e-06 -0.000188477
0.00158349 0.00127587 0.000230422
0.00127587 0.000411484 -6.91596e-05
0.000230422 -6.91596e-05 -0.00141649
0.00779908 -0.00186394 -0.000144324
-0.00186394 -0.00186335 0.000130514
-0.000144324 0.000130514 -0.0040923
0.00419465 -0.00251382 -1.33324e-05
-0.00251382 -0.000158669 2.64403e-05
-1.33324e-05 2.64403e-05 0.000335131
0.00249862 -0.00125683 7.14729e-05
-0.00125683 0.000221972 -1.76316e-05
7.14729e-05 -1.76316e-05 0.000119041
0.0156102 -0.000780023 -4.8694e-05
-0.000780023 0.00312503 3.4504e-05
-4.8694e-05 3.4504e-05 0.00182875
0.00228939 -0.00156716 0.000116779
-0.00156716 -0.00292816 -8.93306e-05
0.000116779 -8.93306e-05 -0.0018325
-0.000725526 -0.000569953 -3.1929e-05
-0.000569953 -0.000877912 2.73705e-05
-3.1929e-05 2.73705e-05 -0.000957979
0.000178552 -0.000520706 -3.75746e-05
-0.000520706 -0.000576311 3.02815e-06
-3.75746e-05 3.02815e-06 -0.000700806
0.00598011 -0.00105924 6.32109e-05
-0.00105924 0.00225439 -2.08404e-05
6.32109e-05 -2.08404e-05 0.00205423
0.000469462 -0.000608645 -1.79499e-05
-0.000608645 -0.00031391 -3.56852e-06
-1.79499e-05 -3.56852e-06 -0.000685368
0.00210762 -0.000852983 -1.58252e-06
-0.000852983 0.000301652 -3.18931e-06
-1.58252e-06 -3.18931e-06 -4.86246e-05
0.00272422 -0.000786239 1.25725e-06
-0.000786239 0.000338966 -4.73129e-06
1.25725e-06 -4.73129e-06 0.00013935
0.00221863 -0.000854845 -3.45744e-06
-0.000854845 0.000471133 8.14119e-06
-3.45744e-06 8.14119e-06 6.0826e-06
0.00211124 -0.000713169 -6.30504e-07
-0.000713169 0.000182171 1.43295e-06
-6.30504e-07 1.43295e-06 -0.000106352
0.00209719 -0.000533464 3.473e-07
-0.000533464 4.79375e-05 -1.14463e-06
3.473e-07 -1.14463e-06 -8.6624e-05
0.00135698 -0.000598352 5.43133e-06
-0.000598352 -5.50993e-05 7.59717e-06
5.43133e-06 7.59717e-06 -0.000390251
0.00195301 -0.000503743 -4.18871e-07
-0.000503743 8.57837e-05 2.07825e-06
-4.18871e-07 2.07825e-06 -0.000114213
0.00200765 -0.000462299 -2.86438e-06
-0.000462299 8.23703e-05 1.19389e-06
-2.86438e-06 1.19389e-06 -5.77251e-05
0.00203866 -0.000437128 -4.94868e-06
-0.000437128 0.000191118 9.60126e-07
-4.94868e-06 9.60126e-07 4.10489e-05
0.00195033 -0.000426953 -2.96967e-06
-0.000426953 0.000130855 3.35129e-06
-2.96967e-06 3.35129e-06 -3.56263e-05
0.00202206 -0.000442187 -3.12115e-06
-0.000442187 0.000216063 -4.13733e-06
-3.12115e-06 -4.13733e-06 3.29707e-05
0.00195884 -0.000529834 -6.60606e-06
-0.000529834 0.000202145 -2.5241e-06
-6.60606e-06 -2.5241e-06 -5.92436e-05
0.00189147 -0.000520861 1.75907e-06
-0.000520861 0.000141766 8.54271e-07
1.75907e-06 8.54271e-07 -0.00011327
0.0018311 -0.000489205 6.62613e-06
-0.000489205 8.57448e-05 7.54855e-06
6.62613e-06 7.54855e-06 -0.000149545
0.00185067 -0.000583622 -7.4597e-06
-0.000583622 0.000318123 -1.61064e-06
-7.4597e-06 -1.61064e-06 -1.45074e-05
0.00164885 -0.000603162 -4.87614e-07
-0.000603162 0.000118346 1.27047e-07
-4.87614e-07 1.27047e-07 -0.000218498
0.00214831 -0.000701325 7.71212e-06
-0.000701325 0.000403767 6.99415e-07
7.71212e-06 6.99415e-07 4.04999e-05
0.00145865 -0.000423352 -1.00379e-05
-0.000423352 0.000325746 4.35815e-06
-1.00379e-05 4.35815e-06 2.73733e-05
0.00165607 -0.000581695 -6.80373e-07
-0.000581695 0.000359901 7.06264e-07
-6.80373e-07 7.06264e-07 -3.97733e-06
0.00190493 -0.000692075 2.55702e-06
-0.000692075 0.000448961 1.58151e-07
2.55702e-06 1.58151e-07 4.971e-05
0.000725113 -0.000215786 -7.74031e-06
-0.000215786 3.85862e-05 4.76155e-06
-7.74031e-06 4.76155e-06 -0.000168718
0.00115663 -0.00033975 7.57747e-07
-0.00033975 0.000212839 -5.19845e-07
7.57747e-07 -5.19845e-07 -5.01871e-05
0.000940157 -0.000414514 -4.08717e-07
-0.000414514 4.62514e-05 6.65321e-07
-4.08717e-07 6.65321e-07 -0.00026887
0.000430457 -0.000113538 -2.02727e-05
-0.000113538 -8.4105e-05 1.51081e-05
-2.02727e-05 1.51081e-05 -0.000171112
0.000659317 -0.000186004 -1.1675e-06
-0.000186004 7.67154e-05 1.1797e-06
-1.1675e-06 1.1797e-06 -0.000154647
0.000951293 -0.000358879 1.92837e-06
-0.000358879 0.000186523 1.31654e-07
1.92837e-06 1.31654e-07 -7.6586e-05
0.00405715 0.00019779 -8.31585e-05
0.00019779 0.00226071 5.50271e-06
-8.31585e-05 5.50271e-06 0.00223856
0.000530824 -5.22119e-05 8.40601e-07
-5.22119e-05 2.80917e-06 -4.67575e-07
8.40601e-07 -4.67575e-07 -6.97108e-05
0.00163038 -0.000225951 4.55722e-06
-0.000225951 0.000711296 -4.00043e-06
4.55722e-06 -4.00043e-06 0.000493603
0.00234874 0.000124754 4.71437e-05
0.000124754 0.00117544 1.25044e-06
4.71437e-05 1.25044e-06 0.00115585
0.000728261 -2.08315e-05 9.14174e-06
-2.08315e-05 0.000130705 -1.18395e-05
9.14174e-06 -1.18395e-05 7.45426e-05
0.00343489 0.000134392 7.46783e-05
0.000134392 0.00184439 -4.21792e-06
7.46783e-05 -4.21792e-06 0.00184053
0.00148463 0.00030189 4.49498e-06
0.00030189 0.000520619 -2.01086e-06
4.49498e-06 -2.01086e-06 0.000317661
0.000468836 0.000130286 -2.52084e-06
0.000130286 -2.59341e-05 -2.06485e-07
-2.52084e-06 -2.06485e-07 -0.000208656
0.000487486 0.000146167 1.97517e-06
0.000146167 5.5332e-05 -6.9068e-06
1.97517e-06 -6.9068e-06 -0.000157896
0.000485868 0.000122834 -2.49931e-06
0.000122834 6.29237e-05 9.51794e-06
-2.49931e-06 9.51794e-06 -0.000130775
0.000603007 8.8955e-05 7.66019e-07
8.8955e-05 0.000130438 2.05378e-07
7.66019e-07 2.05378e-07 -6.70203e-05
0.000879346 9.25991e-05 1.26061e-06
9.25991e-05 0.000237462 -8.56666e-06
1.26061e-06 -8.56666e-06 0.000102617
0.000584434 2.23037e-05 -4.14293e-06
2.23037e-05 4.45721e-05 -1.1261e-05
-4.14293e-06 -1.1261e-05 3.66991e-07
0.000631119 4.6624e-05 4.09987e-07
4.6624e-05 9.70521e-05 8.71273e-09
4.09987e-07 8.71273e-09 -1.95922e-05
0.00013186 4.11745e-05 -5.64157e-06
4.11745e-05 -0.000190552 1.81652e-06
-5.64157e-06 1.81652e-06 -0.000345759
0.00289265 -0.000100258 -5.80674e-05
-0.000100258 0.00149224 -4.63447e-06
-5.80674e-05 -4.63447e-06 0.00149741
0.000433774 9.61653e-06 8.35182e-07
9.61653e-06 -4.99352e-05 -2.52782e-07
8.35182e-07 -2.52782e-07 -8.55129e-05
0.000532607 4.10792e-05 -3.22136e-06
4.10792e-05 3.60351e-05 4.37145e-06
-3.22136e-06 4.37145e-06 -6.65053e-05
0.00269538 -8.69349e-05 -6.98019e-06
-8.69349e-05 0.00136207 5.56684e-07
-6.98019e-06 5.56684e-07 0.00136923
0.000416066 -1.15316e-05 3.86639e-07
-1.15316e-05 -6.65357e-05 7.21157e-06
3.86639e-07 7.21157e-06 -9.61343e-05
0.00252104 -6.8818e-05 2.93565e-05
-6.8818e-05 0.00124708 4.81189e-06
2.93565e-05 4.81189e-06 0.00125756
0.000816567 0.000138938 -0.000732737
0.000138938 0.00346332 -4.9753e-05
-0.000732737 -4.9753e-05 0.00145775
-0.00565406 0.000177086 3.728e-05
0.000177086 0.00439217 5.82265e-07
3.728e-05 5.82265e-07 -0.0016649
0.00565228 0.000165977 -0.00021045
0.000165977 0.00333783 -5.57427e-05
-0.00021045 -5.57427e-05 0.00150878
6.735e-05 4.47866e-05 2.06376e-06
4.47866e-05 -0.000242288 -8.90588e-06
2.06376e-06 -8.90588e-06 -0.000421886
0.000702073 7.70943e-05 5.88843e-06
7.70943e-05 0.000193328 7.11255e-06
5.88843e-06 7.11255e-06 -8.04999e-05
0.00255602 0.000522208 -3.04526e-06
0.000522208 0.00125096 4.14288e-06
-3.04526e-06 4.14288e-06 0.000936078
0.00219906 0.000622187 1.25476e-05
0.000622187 0.000895889 5.47376e-06
1.25476e-05 5.47376e-06 0.000479625
0.000340506 0.000309158 2.48231e-06
0.000309158 1.72548e-05 -4.42345e-07
2.48231e-06 -4.42345e-07 -0.000323494
0.000580402 0.000122084 -5.79799e-06
0.000122084 0.000227411 9.3797e-06
-5.79799e-06 9.3797e-06 -4.14506e-05
0.00061412 0.000145444 1.07449e-05
0.000145444 0.000166459 1.10904e-05
1.07449e-05 1.10904e-05 -0.000107342
0.000549837 0.000364522 -6.11329e-06
0.000364522 0.000194176 -2.17143e-06
-6.11329e-06 -2.17143e-06 -0.000226749
-0.000383245 0.000466683 8.85622e-06
0.000466683 -0.000701983 -1.25099e-05
8.85622e-06 -1.25099e-05 -0.001009
0.0023652 0.000758119 -9.78409e-06
0.000758119 0.000862977 2.40072e-05
-9.78409e-06 2.40072e-05 0.000658633
0.00135033 0.000810934 2.36527e-05
0.000810934 -1.84581e-05 1.03282e-05
2.36527e-05 1.03282e-05 -0.00015814
0.00138778 0.000586544 -7.29787e-06
0.000586544 0.000505487 -3.66875e-06
-7.29787e-06 -3.66875e-06 0.000280207
0.00197069 0.000311552 -8.22884e-06
0.000311552 0.00107681 3.49841e-05
-8.22884e-06 3.49841e-05 0.000787864
0.0136246 0.00225068 -0.000111174
0.00225068 0.00187013 6.64862e-05
-0.000111174 6.64862e-05 0.000565712
0.00170761 -0.00174345 -0.00050271
-0.00174345 0.00350931 -0.000188134
-0.00050271 -0.000188134 0.000647497
-0.000478091 -0.00302238 0.000644226
-0.00302238 0.00545897 0.000179671
0.000644226 0.000179671 0.000256948
0.00551183 -0.00270108 0.000260543
-0.00270108 0.0025529 0.0003139
0.000260543 0.0003139 -0.000409095
0.0136726 0.00411338 -0.000100274
0.00411338 0.00464074 -4.84925e-05
-0.000100274 -4.84925e-05 0.000730299
-0.00297733 0.000196157 -4.98525e-05
0.000196157 -0.000312095 -5.79615e-05
-4.98525e-05 -5.79615e-05 -0.000642013
0.00225853 0.00170827 -4.51547e-05
0.00170827 0.000594471 -1.75001e-05
-4.51547e-05 -1.75001e-05 0.00123953
0.0171806 0.00391774 1.83073e-05
0.00391774 0.00417396 3.73402e-05
1.83073e-05 3.73402e-05 0.00185145
0.00620911 0.00320057 -6.19608e-05
0.00320057 -2.87575e-05 -9.76441e-05
-6.19608e-05 -9.76441e-05 0.000232628
0.00165729 0.00111054 1.01479e-05
0.00111054 0.000137199 -4.59793e-06
1.01479e-05 -4.59793e-06 -9.77628e-05
0.00157929 0.00086542 8.96301e-06
0.00086542 0.000416297 -3.10361e-06
8.96301e-06 -3.10361e-06 0.000123468
0.0020321 0.000585073 -2.18827e-05
0.000585073 0.000948074 1.91254e-06
-2.18827e-05 1.91254e-06 0.000772889
0.00279839 0.00148079 -6.20752e-05
0.00148079 0.000831832 -2.43393e-05
-6.20752e-05 -2.43393e-05 0.000125217
0.0014346 0.00164767 6.4001e-05
0.00164767 -0.000749826 3.41056e-05
6.4001e-05 3.41056e-05 -0.00110697
0.00197179 -0.000329262 -0.000110673
-0.000329262 -0.00469101 5.19927e-05
-0.000110673 5.19927e-05 -0.00492606
0.0009562 -0.00147437 8.91619e-06
-0.00147437 0.00193502 -4.72798e-06
8.91619e-06 -4.72798e-06 0.00124598
-0.0108328 -0.000219558 0.000282791
-0.000219558 0.00555559 -2.36206e-05
0.000282791 -2.36206e-05 0.000177964
0.00017492 -0.00156142 -5.31229e-05
-0.00156142 -0.000686907 1.27012e-05
-5.31229e-05 1.27012e-05 -0.00140554
0.00492296 -0.0027687 2.54249e-05
-0.0027687 0.000309412 4.06711e-05
2.54249e-05 4.06711e-05 0.000385015
0.00200003 -9.51381e-05 0.000786641
-9.51381e-05 0.00368316 -0.00018002
0.000786641 -0.00018002 0.00188038
0.0135813 -0.00212609 -0.000254176
-0.00212609 0.00159379 0.000127353
-0.000254176 0.000127353 0.000375186
0.00171959 -0.00125845 -3.12922e-05
-0.00125845 -0.000104629 -8.18661e-07
-3.12922e-05 -8.18661e-07 -0.000363014
0.0111483 -7.57344e-05 -0.000179557
-7.57344e-05 -0.000601853 5.71851e-05
-0.000179557 5.71851e-05 -0.00150111
0.00692068 -0.00184554 0.000101527
-0.00184554 -0.000188171 1.35107e-05
0.000101527 1.35107e-05 0.000371428
0.0037387 -0.00109629 6.0724e-05
-0.00109629 0.000550642 -4.09824e-05
6.0724e-05 -4.09824e-05 0.000312896
0.00285953 -0.000712538 -2.79552e-05
-0.000712538 -0.00158288 1.41064e-05
-2.79552e-05 1.41064e-05 -0.000601703
-0.00609704 1.98157e-05 9.78921e-06
1.98157e-05 -0.00396975 5.8911e-06
9.78921e-06 5.8911e-06 -0.00392098
0.00159848 -0.000685476 -1.54063e-05
-0.000685476 -0.000154454 1.75153e-06
-1.54063e-05 1.75153e-06 -0.000178238
0.0034029 -0.00070251 3.36341e-05
-0.00070251 0.000604185 -1.27248e-05
3.36341e-05 -1.27248e-05 0.000658788
0.00115263 -0.000747134 -9.33307e-06
-0.000747134 -0.000196922 7.29916e-06
-9.33307e-06 7.29916e-06 -0.000521468
0.00211168 -0.000728506 -3.53355e-06
-0.000728506 1.73125e-05 3.00472e-06
-3.53355e-06 3.00472e-06 -0.000176
0.00234009 -0.000590797 5.09982e-06
-0.000590797 5.82437e-07 -1.37169e-06
5.09982e-06 -1.37169e-06 -3.63093e-05
0.00224831 -0.00071886 -4.02562e-06
-0.00071886 0.000263137 1.05373e-05
-4.02562e-06 1.05373e-05 -2.4572e-05
0.00207392 -0.000529405 3.25092e-07
-0.000529405 3.22618e-05 1.43322e-06
3.25092e-07 1.43322e-06 -9.70559e-05
0.00220746 -0.000518165 -8.53349e-07
-0.000518165 9.1072e-05 4.40463e-07
-8.53349e-07 4.40463e-07 1.54502e-05
0.00194078 -0.000495156 3.53803e-06
-0.000495156 8.32153e-05 6.33346e-06
3.53803e-06 6.33346e-06 -0.000111553
0.00199634 -0.000463172 -8.44638e-08
-0.000463172 7.19751e-05 1.30063e-06
-8.44638e-08 1.30063e-06 -6.58406e-05
0.00214569 -0.000495042 -2.62147e-06
-0.000495042 0.000157778 1.57786e-06
-2.62147e-06 1.57786e-06 2.62339e-05
0.00200874 -0.000441485 -4.13963e-06
-0.000441485 0.000165133 2.75675e-06
-4.13963e-06 2.75675e-06 1.60898e-05
0.00214346 -0.000444896 -1.45293e-06
-0.000444896 0.000285985 -1.36577e-06
-1.45293e-06 -1.36577e-06 0.000129021
0.00204253 -0.000433643 4.13249e-06
-0.000433643 0.000181613 6.25361e-06
4.13249e-06 6.25361e-06 1.82549e-05
0.00200884 -0.000441526 5.44774e-07
-0.000441526 0.000206441 -6.50949e-07
5.44774e-07 -6.50949e-07 2.34508e-05
0.00190643 -0.000456741 -3.18051e-06
-0.000456741 0.000147787 -3.09579e-06
-3.18051e-06 -3.09579e-06 -5.5953e-05
0.00198655 -0.000507944 -4.82776e-06
-0.000507944 0.000293013 -3.42419e-06
-4.82776e-06 -3.42419e-06 2.43396e-05
0.00202247 -0.000537408 -3.34813e-07
-0.000537408 0.000243459 -7.42318e-08
-3.34813e-07 -7.42318e-08 -2.05468e-05
0.00211579 -0.000537461 8.13772e-06
-0.000537461 0.000284625 3.97573e-06
8.13772e-06 3.97573e-06 2.87447e-05
0.00146534 -0.000455196 -9.59859e-06
-0.000455196 0.000191326 2.1331e-06
-9.59859e-06 2.1331e-06 -0.000111034
0.0017665 -0.000572261 -1.58234e-06
-0.000572261 0.000270333 -1.79575e-07
-1.58234e-06 -1.79575e-07 -6.17306e-05
0.00167019 -0.000610397 5.83043e-06
-0.000610397 0.000118761 1.53357e-06
5.83043e-06 1.53357e-06 -0.000220851
0.000744076 -0.000229415 -1.0255e-05
-0.000229415 -3.89716e-06 6.96508e-06
-1.0255e-05 6.96508e-06 -0.000213787
0.00125482 -0.000408348 1.46674e-06
-0.000408348 0.000195661 3.94587e-07
1.46674e-06 3.94587e-07 -0.00010068
0.00174108 -0.000586308 3.53663e-06
-0.000586308 0.00041798 1.40312e-06
3.53663e-06 1.40312e-06 5.4542e-05
0.000488009 -0.000175117 -2.22459e-05
-0.000175117 -6.46488e-05 1.85043e-05
-2.22459e-05 1.85043e-05 -0.00017537
0.000673397 -0.000219171 -5.98891e-07
-0.000219171 1.44983e-05 3.6669e-07
-5.98891e-07 3.6669e-07 -0.000197272
0.000820544 -0.000304918 5.02185e-06
-0.000304918 -4.27809e-06 -1.56772e-06
5.02185e-06 -1.56772e-06 -0.000261114
0.00488554 0.000189078 -0.000128497
0.000189078 0.00277978 8.86631e-06
-0.000128497 8.86631e-06 0.00275883
0.000525307 -0.000128304 -1.59156e-06
-0.000128304 -2.17608e-05 -8.30361e-07
-1.59156e-06 -8.30361e-07 -0.000116631
0.0011681 -0.0002234 5.30165e-06
-0.0002234 0.000400105 -2.54353e-06
5.30165e-06 -2.54353e-06 0.000159905
0.00429804 0.00017319 2.01884e-05
0.00017319 0.00240734 7.07446e-07
2.01884e-05 7.07446e-07 0.00239163
0.000685932 -7.03908e-05 1.63069e-05
-7.03908e-05 9.2768e-05 -1.38862e-05
1.63069e-05 -1.38862e-05 1.56493e-05
0.00379313 0.000135677 0.000105586
0.000135677 0.00207365 -5.6753e-06
0.000105586 -5.6753e-06 0.00206974
0.00168937 0.000475088 2.66278e-06
0.000475088 0.000591554 -3.86787e-06
2.66278e-06 -3.86787e-06 0.000257483
0.00090403 0.00025466 2.2564e-07
0.00025466 0.000167566 -2.81611e-06
2.2564e-07 -2.81611e-06 -3.21331e-05
0.000176488 0.000139322 4.25112e-06
0.000139322 -0.000215003 3.19499e-06
4.25112e-06 3.19499e-06 -0.000411452
-0.000859677 2.26931e-05 -2.25095e-06
2.26931e-05 -0.00082203 -1.93173e-07
-2.25095e-06 -1.93173e-07 -0.00100358
0.000360571 9.6934e-05 -3.59636e-07
9.6934e-05 -4.81012e-05 2.17867e-06
-3.59636e-07 2.17867e-06 -0.000246601
0.000883978 9.74802e-05 4.74182e-07
9.74802e-05 0.000241239 -8.79237e-06
4.74182e-07 -8.79237e-06 7.74908e-05
0.000320835 5.41461e-05 -2.90748e-06
5.41461e-05 -6.26857e-05 4.48947e-06
-2.90748e-06 4.48947e-06 -0.000245489
0.000557888 7.33408e-05 -2.04122e-08
7.33408e-05 4.61286e-05 1.73236e-08
-2.04122e-08 1.73236e-08 -8.63341e-05
0.000577996 2.59092e-05 -5.65993e-06
2.59092e-05 3.85859e-05 -1.4321e-05
-5.65993e-06 -1.4321e-05 -1.61172e-05
0.00315373 -0.000110059 -7.96239e-05
-0.000110059 0.00166408 -5.77613e-06
-7.96239e-05 -5.77613e-06 0.00166683
0.000442877 7.93237e-06 1.26996e-06
7.93237e-06 -3.88674e-05 -3.60057e-07
1.26996e-06 -3.60057e-07 -8.36574e-05
0.000548815 3.84402e-05 -3.60784e-06
3.84402e-05 5.22233e-05 6.25163e-06
-3.60784e-06 6.25163e-06 -6.50516e-05
0.00286539 -0.000105813 -7.78767e-06
-0.000105813 0.00147618 6.83401e-07
-7.78767e-06 6.83401e-07 0.00147939
0.000347025 -4.77021e-05 -5.53623e-06
-4.77021e-05 -9.71288e-05 8.60368e-06
-5.53623e-06 8.60368e-06 -0.000135939
0.00269394 -8.77938e-05 3.65895e-05
-8.77938e-05 0.00136078 4.82306e-06
3.65895e-05 4.82306e-06 0.00136753
0.0144566 0.000558602 0.000442509
0.000558602 0.00212134 0.000108422
0.000442509 0.000108422 0.00165395
-0.00157411 -0.00253517 -0.000438276
-0.00253517 -0.00260356 -7.52732e-05
-0.000438276 -7.52732e-05 -0.00440172
-0.00918457 0.00133145 -0.000184219
0.00133145 0.00372324 -0.000119132
-0.000184219 -0.000119132 -0.0027315
9.77308e-05 1.6772e-05 1.85326e-05
1.6772e-05 -0.000164762 -3.60227e-06
1.85326e-05 -3.60227e-06 -0.00046149
0.00162586 0.000401484 -1.01801e-05
0.000401484 0.000698273 -2.05599e-07
-1.01801e-05 -2.05599e-07 0.000412951
0.00206815 0.000504277 -9.58841e-06
0.000504277 0.00102354 -2.41172e-06
-9.58841e-06 -2.41172e-06 0.000639203
0.00152282 0.000545145 1.22592e-06
0.000545145 0.000491265 -4.31265e-07
1.22592e-06 -4.31265e-07 9.64888e-05
0.00137051 0.000580983 1.10705e-05
0.000580983 0.000228379 1.76924e-05
1.10705e-05 1.76924e-05 -0.000152037
-0.000747202 0.000364311 2.02694e-05
0.000364311 -0.000902405 3.55806e-06
2.02694e-05 3.55806e-06 -0.00120994
-0.000394149 0.000258883 -9.0331e-06
0.000258883 -0.000277953 1.23698e-05
-9.0331e-06 1.23698e-05 -0.000739619
-9.39019e-05 0.000493798 1.11392e-05
0.000493798 -0.000548896 -3.60772e-07
1.11392e-05 -3.60772e-07 -0.000870028
0.00219999 0.000724998 3.81113e-06
0.000724998 0.00082367 6.69752e-06
3.81113e-06 6.69752e-06 0.000571863
-0.000616954 0.000473099 4.26044e-06
0.000473099 -0.000971303 -2.21822e-06
4.26044e-06 -2.21822e-06 -0.00119467
0.00331719 0.000934837 6.14671e-07
0.000934837 0.00103042 1.47177e-05
6.14671e-07 1.47177e-05 0.000875316
0.00134009 0.000818638 1.74683e-05
0.000818638 6.44043e-07 7.36113e-06
1.74683e-05 7.36113e-06 -0.000267488
0.000656467 0.000723707 3.02007e-06
0.000723707 -0.000427178 2.62473e-08
3.02007e-06 2.62473e-08 -0.000504186
0.000606023 0.000475471 5.57773e-06
0.000475471 5.96975e-05 -4.37816e-05
5.57773e-06 -4.37816e-05 -0.000144843
0.00537268 0.00156166 1.8028e-05
0.00156166 -0.001068 2.25333e-05
1.8028e-05 2.25333e-05 0.000173806
0.0134442 0.00252799 0.000253837
0.00252799 0.00123247 0.000133464
0.000253837 0.000133464 -0.000375208
0.0108684 -0.00371617 0.000441924
-0.00371617 0.00516672 -4.16114e-05
0.000441924 -4.16114e-05 0.00241876
0.00537054 0.004173 0.000493878
0.004173 -0.000907073 0.000290241
0.000493878 0.000290241 -0.00501417
0.000112475 0.00112647 -5.52468e-05
0.00112647 7.26143e-05 -1.17792e-06
-5.52468e-05 -1.17792e-06 0.000664592
0.00396957 0.00233223 -0.000112083
0.00233223 -0.000446981 -5.19084e-05
-0.000112083 -5.19084e-05 0.000108214
0.00584106 0.00198329 7.56274e-05
0.00198329 0.00116909 2.86153e-05
7.56274e-05 2.86153e-05 0.00091951
0.00404647 0.00143057 1.76921e-05
0.00143057 0.00119763 7.49965e-06
1.76921e-05 7.49965e-06 0.000905072
-0.000155782 0.000637126 -2.49042e-05
0.000637126 -0.000471404 1.02729e-05
-2.49042e-05 1.02729e-05 -0.000709483
0.00627138 0.00221354 -0.000172691
0.00221354 0.00148962 -1.92229e-05
-0.000172691 -1.92229e-05 0.00100692
0.00298549 -0.000457566 1.53377e-05
-0.000457566 -0.000274774 8.547e-06
1.53377e-05 8.547e-06 0.000183403
0.0112158 -0.000520499 -3.90149e-05
-0.000520499 0.00149383 -3.92611e-06
-3.90149e-05 -3.92611e-06 0.00130057
-0.0122865 -0.00234907 0.000679439
-0.00234907 -0.00552204 4.16541e-06
0.000679439 4.16541e-06 -0.00607654
0.00038275 -0.00105146 -9.7775e-05
-0.00105146 -0.000680701 2.75817e-05
-9.7775e-05 2.75817e-05 -0.00091442
0.00884692 -0.00231664 2.32774e-05
-0.00231664 0.000218592 8.97649e-05
2.32774e-05 8.97649e-05 0.00108837
0.00101546 -0.000282639 -0.000254252
-0.000282639 -0.00434334 3.45112e-05
-0.000254252 3.45112e-05 -0.00618656
0.00250203 -0.000909523 2.74979e-05
-0.000909523 -0.000168519 1.35906e-06
2.74979e-05 1.35906e-06 -0.000111463
0.00483034 -0.000620953 -4.24092e-05
-0.000620953 -0.00039807 -4.36882e-06
-4.24092e-05 -4.36882e-06 0.000253711
0.0055308 -0.000797606 3.78696e-05
-0.000797606 0.00124903 -3.04419e-05
3.78696e-05 -3.04419e-05 0.001544
0.00538412 -0.000389058 9.81995e-05
-0.000389058 0.00135873 3.63432e-06
9.81995e-05 3.63432e-06 0.00145614
-0.00335088 -0.000312564 5.78659e-06
-0.000312564 -0.00297163 8.32488e-06
5.78659e-06 8.32488e-06 -0.0027264
0.00200028 -0.000610268 -5.39007e-06
-0.000610268 -0.000215675 1.1481e-06
-5.39007e-06 1.1481e-06 -6.77965e-05
0.00225742 -0.000462414 2.30895e-05
-0.000462414 -0.000215658 -5.39293e-06
2.30895e-05 -5.39293e-06 3.37915e-05
0.00169569 -0.00069286 -7.03489e-07
-0.00069286 -0.000202953 7.07621e-06
-7.03489e-07 7.07621e-06 -0.00039552
0.0022794 -0.000587476 1.49129e-06
-0.000587476 -2.8137e-05 1.39075e-06
1.49129e-06 1.39075e-06 -6.69357e-05
0.00229895 -0.00051136 1.81511e-06
-0.00051136 1.59942e-05 -7.13808e-07
1.81511e-06 -7.13808e-07 1.92829e-05
0.00208587 -0.000529594 1.9066e-06
-0.000529594 3.61751e-05 4.89316e-06
1.9066e-06 4.89316e-06 -8.99927e-05
0.00214859 -0.000508517 4.00789e-07
-0.000508517 6.9137e-05 4.29845e-07
4.00789e-07 4.29845e-07 -7.5019e-06
0.00214184 -0.000455059 -2.53583e-06
-0.000455059 5.45429e-05 1.66798e-07
-2.53583e-06 1.66798e-07 -1.19717e-05
0.00200096 -0.000465292 3.86314e-06
-0.000465292 7.07441e-05 1.84763e-06
3.86314e-06 1.84763e-06 -6.56088e-05
0.00207159 -0.000486692 -1.54515e-07
-0.000486692 0.000133191 1.13421e-07
-1.54515e-07 1.13421e-07 2.62361e-06
0.00201124 -0.000442254 -1.59885e-07
-0.000442254 0.000132467 3.63871e-07
-1.59885e-07 3.63871e-07 -6.28074e-07
0.00197762 -0.000445691 2.68482e-07
-0.000445691 0.000138789 2.72229e-06
2.68482e-07 2.72229e-06 -9.39186e-06
0.0020639 -0.000435039 -1.94966e-06
-0.000435039 0.000231357 2.8877e-07
-1.94966e-06 2.8877e-07 7.81684e-05
0.00210606 -0.00043994 -1.32079e-06
-0.00043994 0.000264618 -1.23051e-06
-1.32079e-06 -1.23051e-06 9.23261e-05
0.00199949 -0.000440231 4.95492e-06
-0.000440231 0.000199593 3.04754e-06
4.95492e-06 3.04754e-06 1.69514e-05
0.00196118 -0.000461447 -1.31547e-07
-0.000461447 0.000181803 -2.65067e-07
-1.31547e-07 -2.65067e-07 -2.32747e-05
0.00199506 -0.000451863 -1.45937e-06
-0.000451863 0.000257491 -2.54292e-06
-1.45937e-06 -2.54292e-06 3.3681e-05
0.00163125 -0.000431011 -8.54874e-06
-0.000431011 0.000188759 4.25066e-08
-8.54874e-06 4.25066e-08 -7.95362e-05
0.00192322 -0.000507895 -8.20157e-07
-0.000507895 0.000253743 -9.59042e-07
-8.20157e-07 -9.59042e-07 -1.98034e-05
0.0020852 -0.000545278 5.35344e-06
-0.000545278 0.00028479 2.20911e-06
5.35344e-06 2.20911e-06 1.80409e-05
0.000837558 -0.00024715 -1.30201e-05
-0.00024715 -3.0548e-05 7.54942e-06
-1.30201e-05 7.54942e-06 -0.00024257
0.00150132 -0.00045357 -2.05894e-07
-0.00045357 0.000219524 6.03151e-07
-2.05894e-07 6.03151e-07 -8.07625e-05
0.00167781 -0.000560545 3.28891e-06
-0.000560545 0.000219681 1.39111e-06
3.28891e-06 1.39111e-06 -0.000111751
0.000353705 -0.000181667 -2.02874e-05
-0.000181667 -0.000164773 1.87436e-05
-2.02874e-05 1.87436e-05 -0.000283952
0.000792749 -0.000236298 5.96372e-07
-0.000236298 2.35637e-05 1.74219e-07
5.96372e-07 1.74219e-07 -0.000189446
0.00103587 -0.000390826 1.03057e-05
-0.000390826 5.78565e-05 -2.17987e-06
1.03057e-05 -2.17987e-06 -0.000235746
0.00591906 0.000120442 -0.000200499
0.000120442 0.00339135 1.20467e-05
-0.000200499 1.20467e-05 0.00338558
0.000420528 -0.000180858 -4.50235e-07
-0.000180858 -0.000105899 8.79353e-08
-4.50235e-07 8.79353e-08 -0.000217444
0.000623407 -0.000221404 9.30899e-06
-0.000221404 -9.78745e-06 -5.79956e-06
9.30899e-06 -5.79956e-06 -0.000224589
0.00526345 0.000129864 9.22622e-07
0.000129864 0.00299851 -9.31818e-07
9.22622e-07 -9.31818e-07 0.00299016
0.000426826 -0.000131435 1.83205e-05
-0.000131435 -7.7858e-05 -1.66186e-05
1.83205e-05 -1.66186e-05 -0.00017797
0.00457794 0.000112772 0.000163096
0.000112772 0.00257038 -1.31883e-05
0.000163096 -1.31883e-05 0.00256774
0.00127317 0.000496326 -3.92384e-06
0.000496326 0.000208011 2.21677e-06
-3.92384e-06 2.21677e-06 -0.000137474
0.00170742 0.000473671 -9.35832e-07
0.000473671 0.00059442 -1.58272e-06
-9.35832e-07 -1.58272e-06 0.000265579
0.000743492 0.000277836 -1.58003e-06
0.000277836 7.28455e-06 -2.91848e-06
-1.58003e-06 -2.91848e-06 -0.000241009
0.000698776 0.000250994 -7.05928e-06
0.000250994 6.86816e-05 -3.71417e-06
-7.05928e-06 -3.71417e-06 -0.000141463
-8.71326e-06 0.000136508 1.87125e-06
0.000136508 -0.000326003 -5.35595e-07
1.87125e-06 -5.35595e-07 -0.000527187
0.00118554 0.000247893 -2.37449e-06
0.000247893 0.000443121 -5.04436e-06
-2.37449e-06 -5.04436e-06 0.00022757
-0.000104246 5.11256e-05 -1.55711e-06
5.11256e-05 -0.000350424 2.83907e-06
-1.55711e-06 2.83907e-06 -0.000538
0.000726786 0.000107825 3.58307e-07
0.000107825 0.00015311 -1.70408e-07
3.58307e-07 -1.70408e-07 -1.3115e-05
0.000649115 5.29599e-05 -1.13316e-05
5.29599e-05 7.78223e-05 -1.61901e-05
-1.13316e-05 -1.61901e-05 9.87885e-06
0.000588957 4.76225e-05 -2.64429e-06
4.76225e-05 7.52856e-05 9.59233e-06
-2.64429e-06 9.59233e-06 -5.90097e-05
0.000516231 3.20322e-05 1.83648e-07
3.20322e-05 4.67444e-06 -2.2447e-07
1.83648e-07 -2.2447e-07 -4.95198e-05
0.00365536 -0.000126532 -0.00010413
-0.000126532 0.00198985 -7.27962e-06
-0.00010413 -7.27962e-06 0.00198755
0.00315009 -0.000124827 -9.21529e-06
-0.000124827 0.00166427 8.39727e-07
-9.21529e-06 8.39727e-07 0.00166286
0.00033956 3.21277e-05 4.78501e-06
3.21277e-05 -0.000101662 1.10869e-05
4.78501e-06 1.10869e-05 -0.000145107
0.00280662 -0.000105349 4.47131e-05
-0.000105349 0.00143942 4.68571e-06
4.47131e-05 4.68571e-06 0.0014424
0.00403994 0.000147439 8.61198e-05
0.000147439 -0.00109045 2.56058e-05
8.61198e-05 2.56058e-05 0.000206
0.00477095 -0.000909089 0.000154076
-0.000909089 -0.00402967 7.29166e-05
0.000154076 7.29166e-05 -0.00502816
0.0118043 -0.00271922 -0.000200701
-0.00271922 0.00455183 -9.02216e-05
-0.000200701 -9.02216e-05 0.00371792
0.00134359 0.00056932 9.289e-06
0.00056932 2.53813e-05 8.68993e-06
9.289e-06 8.68993e-06 -0.000300558
0.00421083 0.000735023 -9.49042e-06
0.000735023 0.00227304 3.0033e-06
-9.49042e-06 3.0033e-06 0.00184886
0.000884364 0.000470856 -5.4974e-06
0.000470856 0.000113357 -5.64539e-06
-5.4974e-06 -5.64539e-06 -0.000261376
0.001367 0.000609885 2.1851e-06
0.000609885 0.000360739 -2.04115e-07
2.1851e-06 -2.04115e-07 -1.31179e-06
0.00153764 0.000598796 -1.57429e-06
0.000598796 0.000348459 3.83087e-06
-1.57429e-06 3.83087e-06 -4.16569e-05
0.00159263 0.000688222 2.1562e-05
0.000688222 0.00031714 1.40237e-05
2.1562e-05 1.40237e-05 -2.23831e-05
0.00218677 0.000732165 -3.04022e-05
0.000732165 0.000812319 3.67139e-07
-3.04022e-05 3.67139e-07 0.000421773
0.000737979 0.000585958 2.12857e-05
0.000585958 2.61673e-05 -3.07695e-05
2.12857e-05 -3.07695e-05 -0.000231983
0.00159806 0.00073811 1.67647e-06
0.00073811 0.000284934 -2.64412e-06
1.67647e-06 -2.64412e-06 8.30756e-06
0.00185181 0.000795979 7.67011e-06
0.000795979 0.000138133 5.56906e-07
7.67011e-06 5.56906e-07 0.000106632
0.00193229 0.000821714 1.31221e-05
0.000821714 0.000187562 -1.53016e-06
1.31221e-05 -1.53016e-06 -9.14847e-05
0.00170396 0.000724802 2.29551e-05
0.000724802 0.000150327 1.78795e-05
2.29551e-05 1.78795e-05 -3.48326e-05
0.000841804 0.000768985 -5.42073e-06
0.000768985 -0.000266628 -5.25745e-06
-5.42073e-06 -5.25745e-06 -0.000518167
0.000636822 0.000711248 -1.04462e-05
0.000711248 -0.000427014 -2.46198e-05
-1.04462e-05 -2.46198e-05 -0.000488471
0.00105752 0.000700176 4.80628e-05
0.000700176 -0.00106928 3.53997e-05
4.80628e-05 3.53997e-05 -0.000791872
0.00607267 0.00161529 -8.84862e-05
0.00161529 -0.00102377 -2.60933e-05
-8.84862e-05 -2.60933e-05 0.000215951
0.00401863 0.00165687 0.00051135
0.00165687 -0.00399727 9.25817e-05
0.00051135 9.25817e-05 -0.00579892
0.00145844 0.00177607 -0.000142221
0.00177607 -0.00104873 -5.38222e-05
-0.000142221 -5.38222e-05 -0.000478218
0.00430104 0.00160661 -3.01008e-05
0.00160661 0.00076437 -9.00617e-06
-3.01008e-05 -9.00617e-06 0.000590662
0.00466624 0.00150865 -0.000135841
0.00150865 0.00143753 -3.53326e-05
-0.000135841 -3.53326e-05 0.00112856
0.00250252 -0.000258603 -6.02738e-05
-0.000258603 -0.00053905 -2.18662e-05
-6.02738e-05 -2.18662e-05 -0.000235046
-0.00023368 -0.000256515 7.20743e-05
-0.000256515 -0.00088158 1.54985e-05
7.20743e-05 1.54985e-05 -0.000209433
0.00263504 0.000838956 0.000190349
0.000838956 -0.00482956 -1.14162e-05
0.000190349 -1.14162e-05 -0.00502676
0.000177178 -0.000689145 -4.29756e-05
-0.000689145 -0.00136416 6.88343e-05
-4.29756e-05 6.88343e-05 -0.00112318
0.00643842 -0.000687228 -0.000147093
-0.000687228 0.00054441 4.22807e-05
-0.000147093 4.22807e-05 0.000738422
0.00245522 -0.000581253 -1.70432e-05
-0.000581253 -0.000391461 1.16645e-05
-1.70432e-05 1.16645e-05 -4.14149e-05
0.00421883 -0.000404584 -5.95436e-06
-0.000404584 0.000645244 -3.07115e-06
-5.95436e-06 -3.07115e-06 0.000737603
0.00259417 -0.000341959 5.67822e-05
-0.000341959 -0.000125348 -6.65644e-06
5.67822e-05 -6.65644e-06 0.000202325
0.00359467 -0.000101989 4.16988e-05
-0.000101989 0.00106414 -9.33251e-07
4.16988e-05 -9.33251e-07 0.00105568
0.000638371 -0.00050391 -2.47717e-05
-0.00050391 -0.000975765 1.12682e-05
-2.47717e-05 1.12682e-05 -0.000747522
0.00211067 -0.000477826 -2.02243e-06
-0.000477826 -0.000329624 1.86301e-06
-2.02243e-06 1.86301e-06 -8.483e-05
0.00236556 -0.000414604 5.09373e-06
-0.000414604 -0.00016059 -1.59563e-06
5.09373e-06 -1.59563e-06 3.88088e-05
0.00220273 -0.000578308 -2.18652e-06
-0.000578308 -6.08517e-05 3.79973e-06
-2.18652e-06 3.79973e-06 -9.85118e-05
0.00228804 -0.000503254 9.94676e-08
-0.000503254 2.36451e-05 -2.48532e-07
9.94676e-08 -2.48532e-07 2.93906e-05
0.00222144 -0.000402501 -5.77298e-07
-0.000402501 -3.2769e-06 -6.5723e-07
-5.77298e-07 -6.5723e-07 1.07591e-06
0.00208472 -0.000497429 3.40564e-07
-0.000497429 4.52264e-05 1.001e-06
3.40564e-07 1.001e-06 -3.10346e-05
0.00214109 -0.000461604 -8.88829e-07
-0.000461604 6.37499e-05 1.4194e-07
-8.88829e-07 1.4194e-07 -4.44549e-06
0.00205821 -0.000395885 -1.74873e-06
-0.000395885 8.33184e-05 9.48565e-07
-1.74873e-06 9.48565e-07 -5.91259e-06
0.00199476 -0.000478062 1.04319e-06
-0.000478062 0.000106784 -8.38794e-07
1.04319e-06 -8.38794e-07 -2.2446e-05
0.00197032 -0.00044054 1.06236e-06
-0.00044054 0.000103618 -5.83169e-07
1.06236e-06 -5.83169e-07 -3.00155e-05
0.00197905 -0.000409832 -1.79609e-07
-0.000409832 0.000139207 -9.40517e-07
-1.79609e-07 -9.40517e-07 -6.196e-06
0.00198239 -0.000425079 -1.63965e-06
-0.000425079 0.000175875 2.40158e-06
-1.63965e-06 2.40158e-06 2.64606e-05
0.00211404 -0.000438187 -1.86047e-06
-0.000438187 0.000263157 6.89431e-07
-1.86047e-06 6.89431e-07 9.4677e-05
0.00209424 -0.000428716 -1.10152e-06
-0.000428716 0.000282636 -1.97925e-06
-1.10152e-06 -1.97925e-06 8.86004e-05
0.00201473 -0.000466484 3.12581e-06
-0.000466484 0.000214734 2.66248e-06
3.12581e-06 2.66248e-06 8.21508e-06
0.00201019 -0.000454905 4.75916e-07
-0.000454905 0.000267158 -4.91096e-07
4.75916e-07 -4.91096e-07 4.32866e-05
0.00174161 -0.000388092 -6.47069e-06
-0.000388092 0.000211752 5.13456e-07
-6.47069e-06 5.13456e-07 -2.45959e-05
0.000943227 -0.000252183 -1.40888e-05
-0.000252183 -3.16727e-05 7.15775e-06
-1.40888e-05 7.15775e-06 -0.000239429
0.00160556 -0.000426401 -1.03023e-06
-0.000426401 0.000181077 -3.21192e-07
-1.03023e-06 -3.21192e-07 -8.82599e-05
0.00185704 -0.000507751 2.98038e-06
-0.000507751 0.000212262 1.06464e-06
2.98038e-06 1.06464e-06 -6.61677e-05
0.000413224 -0.000224384 -2.24084e-05
-0.000224384 -0.00013424 1.88751e-05
-2.24084e-05 1.88751e-05 -0.00026972
0.000860728 -0.000253393 7.66527e-07
-0.000253393 -2.35281e-05 5.93815e-08
7.66527e-07 5.93815e-08 -0.000237984
0.00153414 -0.000452529 8.79551e-06
-0.000452529 0.000243986 -9.70903e-07
8.79551e-06 -9.70903e-07 -5.44561e-05
0.00654862 7.49476e-05 -0.000245065
7.49476e-05 0.00376081 1.61099e-05
-0.000245065 1.61099e-05 0.00376196
0.000468275 -0.000230197 -1.1869e-06
-0.000230197 -8.7806e-05 5.66937e-07
-1.1869e-06 5.66937e-07 -0.00021672
0.000763356 -0.000241902 1.19534e-05
-0.000241902 2.75514e-06 -7.02098e-06
1.19534e-05 -7.02098e-06 -0.000213803
0.00613566 0.000102424 -5.40338e-06
0.000102424 0.00352875 -4.50222e-07
-5.40338e-06 -4.50222e-07 0.00352235
0.000534439 -0.000212688 2.44617e-05
-0.000212688 -3.42951e-05 -1.8755e-05
2.44617e-05 -1.8755e-05 -0.000149952
0.00559978 0.000130216 0.000198596
0.000130216 0.00322145 -2.15134e-05
0.000198596 -2.15134e-05 0.00320648
0.00150403 0.000525635 -2.78087e-08
0.000525635 0.000185194 4.98839e-06
-2.78087e-08 4.98839e-06 -0.000142885
0.00162728 0.000539672 -2.69827e-06
0.000539672 0.000419555 1.52542e-08
-2.69827e-06 1.52542e-08 6.19506e-05
0.00117052 0.000380258 -6.78929e-06
0.000380258 0.00016007 -2.77743e-07
-6.78929e-06 -2.77743e-07 -0.000119886
0.00192879 0.000495743 4.58974e-07
0.000495743 0.000719456 1.37845e-06
4.58974e-07 1.37845e-06 0.000390937
0.000977819 0.000292316 -3.30734e-06
0.000292316 0.000157785 -2.10934e-06
-3.30734e-06 -2.10934e-06 -9.0775e-05
0.0012283 0.000239572 -7.98599e-06
0.000239572 0.000409767 -1.99391e-06
-7.98599e-06 -1.99391e-06 0.000189638
-0.000244031 0.000106305 -3.41628e-06
0.000106305 -0.000486634 -2.33059e-06
-3.41628e-06 -2.33059e-06 -0.000683524
0.000769195 0.000141955 -8.71184e-07
0.000141955 0.000171173 -6.48714e-07
-8.71184e-07 -6.48714e-07 -2.96897e-05
0.000600161 9.41453e-05 -1.87878e-05
9.41453e-05 3.1943e-05 -1.71703e-05
-1.87878e-05 -1.71703e-05 -5.00969e-05
0.000365839 7.74281e-05 1.14954e-07
7.74281e-05 -7.83518e-05 8.92214e-06
1.14954e-07 8.92214e-06 -0.000232063
0.000438992 4.75316e-05 -5.57571e-07
4.75316e-05 -4.78603e-05 -4.22e-07
-5.57571e-07 -4.22e-07 -0.000112427
0.00420204 -0.000145711 -0.000125585
-0.000145711 0.00234486 -9.83533e-06
-0.000125585 -9.83533e-06 0.00233536
0.000291431 3.60035e-05 6.13e-06
3.60035e-05 -0.000130042 1.40032e-05
6.13e-06 1.40032e-05 -0.000183619
0.00355739 -0.000143748 -9.34685e-06
-0.000143748 0.00193146 9.41233e-07
-9.34685e-06 9.41233e-07 0.00192458
0.00306169 -0.000128843 5.34214e-05
-0.000128843 0.00160954 4.77111e-06
5.34214e-05 4.77111e-06 0.00160658
0.000415627 0.000127103 7.69686e-07
0.000127103 -0.00173843 1.15768e-05
7.69686e-07 1.15768e-05 -0.0011428
0.00516793 1.85142e-05 6.59234e-05
1.85142e-05 -0.000436425 1.53741e-05
6.59234e-05 1.53741e-05 0.000716237
0.0135492 0.000807854 -3.55885e-05
0.000807854 0.00240817 7.37349e-06
-3.55885e-05 7.37349e-06 0.00200951
0.00186323 0.000690769 1.27671e-06
0.000690769 0.000309984 4.97909e-06
1.27671e-06 4.97909e-06 -1.27803e-05
0.00211685 0.0006777 -3.6842e-08
0.0006777 0.000301199 3.49961e-06
-3.6842e-08 3.49961e-06 4.91778e-06
0.00146285 0.000585626 -3.21649e-07
0.000585626 0.000109992 -3.46565e-06
-3.21649e-07 -3.46565e-06 -0.000215729
0.0027953 0.000779587 -7.48132e-06
0.000779587 0.00120275 5.12092e-06
-7.48132e-06 5.12092e-06 0.000806962
0.00178662 0.000624209 -6.75218e-06
0.000624209 0.000520722 -9.58718e-06
-6.75218e-06 -9.58718e-06 0.000118557
0.00193798 0.000738061 7.21178e-06
0.000738061 0.000480566 2.91923e-06
7.21178e-06 2.91923e-06 0.00014212
0.00177635 0.000748156 -2.74582e-06
0.000748156 5.4326e-05 -3.51577e-06
-2.74582e-06 -3.51577e-06 -0.000226624
0.00263891 0.000870031 -1.70681e-05
0.000870031 0.00083654 5.53751e-06
-1.70681e-05 5.53751e-06 0.000535283
0.00117606 0.000726248 -3.72894e-06
0.000726248 -0.000303282 9.56295e-06
-3.72894e-06 9.56295e-06 -0.000242619
0.00267456 0.000899497 -5.21752e-07
0.000899497 0.000612266 3.06726e-06
-5.21752e-07 3.06726e-06 0.000316337
0.00268673 0.000784361 -4.99939e-06
0.000784361 0.000442118 3.44406e-06
-4.99939e-06 3.44406e-06 0.000213482
0.00115956 0.000382024 3.37241e-05
0.000382024 -0.000329509 1.77549e-05
3.37241e-05 1.77549e-05 -0.00029965
0.000574298 0.000622191 9.5701e-06
0.000622191 -0.00043574 -2.82269e-06
9.5701e-06 -2.82269e-06 -0.000609981
0.00110019 0.000794374 -3.16344e-05
0.000794374 -0.000131959 -7.37383e-06
-3.16344e-05 -7.37383e-06 -0.00039003
0.00287023 0.00083418 3.06934e-06
0.00083418 -0.000106184 7.84593e-06
3.06934e-06 7.84593e-06 5.74304e-05
0.00656284 0.00119754 -1.7286e-05
0.00119754 -0.000736769 -3.8014e-05
-1.7286e-05 -3.8014e-05 0.000140414
0.00400536 0.00134389 -3.62719e-05
0.00134389 0.000985236 -4.9046e-05
-3.62719e-05 -4.9046e-05 0.00088075
0.00132028 -6.41127e-05 2.96515e-05
-6.41127e-05 -0.000423068 2.56521e-06
2.96515e-05 2.56521e-06 -0.000294816
0.00247292 -0.000220083 -5.05534e-05
-0.000220083 -0.000464258 3.14676e-06
-5.05534e-05 3.14676e-06 -0.000191299
0.00304152 0.000325628 1.94362e-05
0.000325628 -0.000483423 -9.6574e-06
1.94362e-05 -9.6574e-06 -3.32285e-05
0.000753078 -0.000478685 -6.0275e-05
-0.000478685 -0.00126521 4.72033e-05
-6.0275e-05 4.72033e-05 -0.000904166
0.00289904 -0.000461663 -9.7284e-05
-0.000461663 -0.000123974 -4.33457e-06
-9.7284e-05 -4.33457e-06 -5.14567e-05
0.00257051 -0.000348189 8.02838e-06
-0.000348189 -4.72273e-05 -3.59737e-06
8.02838e-06 -3.59737e-06 0.000266945
0.00250435 -9.80602e-05 -1.356e-05
-9.80602e-05 0.000351866 5.05134e-07
-1.356e-05 5.05134e-07 0.00036069
0.00234069 -0.000234538 1.26888e-05
-0.000234538 -4.61235e-05 -4.59153e-07
1.26888e-05 -4.59153e-07 6.72905e-05
0.0023046 -1.46381e-06 9.31452e-06
-1.46381e-06 -2.37574e-05 1.55141e-06
9.31452e-06 1.55141e-06 1.58901e-05
0.00193994 -0.000498063 -1.61476e-05
-0.000498063 -0.000472977 4.96182e-06
-1.61476e-05 4.96182e-06 -0.000227633
0.0023775 -0.000426422 -2.63485e-06
-0.000426422 -0.000145044 5.84876e-07
-2.63485e-06 5.84876e-07 1.95789e-05
0.00230043 -0.000298035 1.04334e-06
-0.000298035 -6.97591e-05 -1.26749e-06
1.04334e-06 -1.26749e-06 6.35361e-06
0.00227201 -0.000496185 -3.6197e-06
-0.000496185 2.5766e-05 1.18179e-06
-3.6197e-06 1.18179e-06 3.29906e-05
0.00222304 -0.000399534 -1.32033e-07
-0.000399534 1.02622e-05 -4.99697e-08
-1.32033e-07 -4.99697e-08 9.94782e-06
0.00212374 -0.000334721 -8.3031e-07
-0.000334721 1.86555e-05 2.5477e-07
-8.3031e-07 2.5477e-07 -8.76317e-06
0.00214268 -0.000468462 -3.27547e-08
-0.000468462 7.39672e-05 -7.15268e-07
-3.27547e-08 -7.15268e-07 3.81909e-06
0.00205014 -0.000394292 5.33636e-07
-0.000394292 7.46048e-05 -1.35652e-07
5.33636e-07 -1.35652e-07 -1.44654e-05
0.00204837 -0.000363747 -1.70207e-06
-0.000363747 0.000125602 6.16778e-07
-1.70207e-06 6.16778e-07 1.25477e-05
0.0019325 -0.000438965 2.16751e-06
-0.000438965 7.68653e-05 -1.37935e-06
2.16751e-06 -1.37935e-06 -5.73004e-05
0.00196833 -0.000409364 4.58768e-07
-0.000409364 0.000128914 -6.30213e-07
4.58768e-07 -6.30213e-07 -1.69224e-05
0.00195767 -0.000385035 -6.81497e-07
-0.000385035 0.000157209 -1.56222e-06
-6.81497e-07 -1.56222e-06 -9.49224e-06
0.00211959 -0.000436317 -9.87569e-07
-0.000436317 0.000259916 3.08166e-06
-9.87569e-07 3.08166e-06 9.52682e-05
0.00206543 -0.000427574 -5.66202e-07
-0.000427574 0.000266161 -1.56017e-07
-5.66202e-07 -1.56017e-07 7.31645e-05
0.00170881 -0.000356219 -4.94529e-06
-0.000356219 0.0001516 3.23906e-07
-4.94529e-06 3.23906e-07 -6.29108e-05
0.00202823 -0.000458106 3.10489e-06
-0.000458106 0.000278636 1.88295e-06
3.10489e-06 1.88295e-06 5.46837e-05
0.00177723 -0.000392435 -6.03564e-07
-0.000392435 0.000233905 2.52104e-08
-6.03564e-07 2.52104e-08 -1.7784e-06
0.000998651 -0.000235443 -1.47935e-05
-0.000235443 -3.25862e-05 6.72747e-06
-1.47935e-05 6.72747e-06 -0.000230052
0.000338718 -0.000196025 -1.97128e-05
-0.000196025 -0.000198913 1.73861e-05
-1.97128e-05 1.73861e-05 -0.000328763
0.000986273 -0.000256565 2.18135e-07
-0.000256565 -9.39728e-06 7.08457e-08
2.18135e-07 7.08457e-08 -0.000218088
0.00158222 -0.00042199 5.82739e-06
-0.00042199 0.000174858 -9.478e-07
5.82739e-06 -9.478e-07 -9.55676e-05
0.00684056 -5.37943e-06 -0.00027738
-5.37943e-06 0.00391881 1.94787e-05
-0.00027738 1.94787e-05 0.00392894
0.00039678 -0.000218502 -1.26512e-06
-0.000218502 -0.000152408 1.12829e-06
-1.26512e-06 1.12829e-06 -0.00028286
0.000919823 -0.000260335 1.29534e-05
-0.000260335 6.85287e-06 -6.63315e-06
1.29534e-05 -6.63315e-06 -0.000209995
0.00669761 4.78731e-05 -1.34634e-06
4.78731e-05 0.00385165 4.18801e-07
-1.34634e-06 4.18801e-07 0.00385364
0.00047925 -0.000232611 2.46172e-05
-0.000232611 -8.63345e-05 -1.93648e-05
2.46172e-05 -1.93648e-05 -0.000215179
0.00642568 7.26355e-05 0.000245401
7.26355e-05 0.00370114 -2.15115e-05
0.000245401 -2.15115e-05 0.00369834
0.00174979 0.000585304 -2.11542e-07
0.000585304 0.000191279 5.42526e-06
-2.11542e-07 5.42526e-06 -0.000113615
0.00154791 0.000536597 2.46938e-07
0.000536597 0.000214086 7.41979e-07
2.46938e-07 7.41979e-07 -0.000114667
0.00140589 0.000429338 -7.31277e-06
0.000429338 0.000215797 6.44097e-07
-7.31277e-06 6.44097e-07 -7.27574e-05
0.00161035 0.00054209 2.6832e-07
0.00054209 0.0004031 -1.08811e-06
2.6832e-07 -1.08811e-06 4.27138e-05
0.00121715 0.000377885 -1.62601e-06
0.000377885 0.000197269 8.33019e-08
-1.62601e-06 8.33019e-08 -8.02044e-05
0.000956835 0.000230303 -1.11434e-05
0.000230303 0.000157656 -4.25397e-06
-1.11434e-05 -4.25397e-06 -4.87032e-05
0.00123703 0.000310136 -1.19705e-07
0.000310136 0.000326269 -1.41486e-06
-1.19705e-07 -1.41486e-06 7.62433e-05
0.000627961 0.000200285 5.31705e-07
0.000200285 4.0445e-05 1.56444e-06
5.31705e-07 1.56444e-06 -0.000176971
0.000481845 0.00016813 -2.59553e-05
0.00016813 -5.85238e-05 -1.78345e-05
-2.59553e-05 -1.78345e-05 -0.00015803
0.000147764 8.88759e-05 5.14622e-07
8.88759e-05 -0.000204309 3.76893e-06
5.14622e-07 3.76893e-06 -0.000407265
0.000533915 8.11747e-05 -1.28878e-06
8.11747e-05 -4.87716e-06 -3.72495e-07
-1.28878e-06 -3.72495e-07 -8.44345e-05
0.00509911 -0.000161203 -0.000164868
-0.000161203 0.00291818 -1.40109e-05
-0.000164868 -1.40109e-05 0.00290124
0.000428021 4.47903e-05 9.7916e-06
4.47903e-05 -5.04643e-05 1.64647e-05
9.7916e-06 1.64647e-05 -0.000114186
0.00409206 -0.000167666 -8.48268e-06
-0.000167666 0.00228134 9.79734e-07
-8.48268e-06 9.79734e-07 0.00226654
0.00345011 -0.000153279 7.09046e-05
-0.000153279 0.00186622 5.41445e-06
7.09046e-05 5.41445e-06 0.00185626
0.00121539 0.000142286 2.70862e-05
0.000142286 -0.000437154 1.91557e-05
2.70862e-05 1.91557e-05 -0.000238166
0.00267373 0.000164184 -1.35292e-05
0.000164184 -0.000800848 -2.98316e-06
-1.35292e-05 -2.98316e-06 -0.000160242
0.00400357 0.000242033 0.000203277
0.000242033 -0.00156883 5.9241e-05
0.000203277 5.9241e-05 8.24228e-05
0.00263133 0.000739268 -8.16982e-06
0.000739268 0.000562423 -1.70493e-07
-8.16982e-06 -1.70493e-07 0.000277182
0.00170829 0.000694597 -6.49514e-06
0.000694597 0.000201054 -4.46221e-06
-6.49514e-06 -4.46221e-06 -0.000117095
0.00212379 0.000551565 8.46252e-07
0.000551565 0.000169997 4.4662e-06
8.46252e-07 4.4662e-06 -4.98191e-05
0.00209399 0.000665921 1.27037e-06
0.000665921 0.000288462 3.90987e-07
1.27037e-06 3.90987e-07 -4.6145e-06
0.00152284 0.000595168 7.78542e-08
0.000595168 0.000157062 -1.10115e-05
7.78542e-08 -1.10115e-05 -0.000167007
0.00190344 0.000580205 -3.23597e-06
0.000580205 -3.38464e-05 8.69137e-07
-3.23597e-06 8.69137e-07 -0.000234579
0.00265904 0.000831712 -8.05874e-06
0.000831712 0.000866264 -3.12345e-06
-8.05874e-06 -3.12345e-06 0.000518894
0.00231733 0.000785414 -1.47986e-07
0.000785414 0.000379491 -1.98852e-07
-1.47986e-07 -1.98852e-07 8.6658e-05
0.00203217 0.000410991 -1.14194e-05
0.000410991 -0.000123935 4.37876e-07
-1.14194e-05 4.37876e-07 -0.000149659
0.00333038 0.00097885 -3.0463e-06
0.00097885 0.000973859 5.44873e-06
-3.0463e-06 5.44873e-06 0.000668058
0.00243096 0.000764202 1.8921e-07
0.000764202 0.000298196 -2.71624e-07
1.8921e-07 -2.71624e-07 6.91706e-05
0.000669834 0.000371583 1.35476e-06
0.000371583 -0.000579069 1.91338e-06
1.35476e-06 1.91338e-06 -0.000547895
-0.000990003 0.000484517 -2.33018e-05
0.000484517 -0.00124744 -8.9448e-06
-2.33018e-05 -8.9448e-06 -0.00139818
0.00377714 0.000940832 -0.000115
0.000940832 0.000342654 -3.70023e-05
-0.000115 -3.70023e-05 0.000411361
0.00207795 8.31622e-05 -8.82316e-07
8.31622e-05 -0.000189916 -6.83114e-07
-8.82316e-07 -6.83114e-07 -0.000107924
0.00262149 -7.62544e-05 9.16413e-06
-7.62544e-05 0.0004405 -1.57321e-07
9.16413e-06 -1.57321e-07 0.000533035
0.00269805 -0.000226257 -8.55204e-05
-0.000226257 -0.000276964 8.09345e-06
-8.55204e-05 8.09345e-06 -1.0341e-05
0.00214287 -0.000344966 -6.59313e-05
-0.000344966 -0.000213154 6.12853e-06
-6.59313e-05 6.12853e-06 8.54538e-05
0.00134406 -0.000106154 -1.23875e-05
-0.000106154 -0.000400164 2.4849e-06
-1.23875e-05 2.4849e-06 -0.000374513
0.00234998 -0.000236315 1.04657e-06
-0.000236315 -5.42573e-05 -1.61e-06
1.04657e-06 -1.61e-06 8.03956e-05
0.00234489 -4.96062e-07 -3.11758e-06
-4.96062e-07 -2.96349e-05 1.53451e-06
-3.11758e-06 1.53451e-06 1.72205e-05
0.00234265 -7.529e-05 7.42966e-07
-7.529e-05 -4.84601e-05 -2.52032e-07
7.42966e-07 -2.52032e-07 2.57175e-05
0.00238681 -0.00043477 -6.70163e-06
-0.00043477 -0.00012555 1.13272e-06
-6.70163e-06 1.13272e-06 5.23514e-06
0.00225832 -0.000287401 3.60735e-07
-0.000287401 -7.68262e-05 -2.31085e-07
3.60735e-07 -2.31085e-07 -9.21663e-06
0.00217432 -0.000222247 3.89337e-07
-0.000222247 -1.99376e-05 -2.27263e-07
3.89337e-07 -2.27263e-07 1.23015e-05
0.00222697 -0.000396802 -9.34864e-08
-0.000396802 2.55699e-05 3.88187e-07
-9.34864e-08 3.88187e-07 2.06524e-05
0.00212669 -0.000332204 9.29714e-08
-0.000332204 2.50702e-05 1.4404e-07
9.29714e-08 1.4404e-07 -3.40485e-06
0.00206442 -0.00028672 -2.73169e-06
-0.00028672 7.2238e-05 6.47086e-07
-2.73169e-06 6.47086e-07 8.95552e-06
0.00204295 -0.000392722 2.25986e-06
-0.000392722 6.61614e-05 -1.02045e-06
2.25986e-06 -1.02045e-06 -2.27481e-05
0.00200256 -0.00036019 6.38568e-07
-0.00036019 9.50043e-05 -2.04776e-07
6.38568e-07 -2.04776e-07 -1.80865e-05
0.00196585 -0.000328159 -8.26018e-07
-0.000328159 0.000122276 -1.10365e-06
-8.26018e-07 -1.10365e-06 -1.22633e-05
0.00195762 -0.000409062 1.19794e-06
-0.000409062 0.000118415 -2.9216e-07
1.19794e-06 -2.9216e-07 -2.78948e-05
0.00200401 -0.000387411 -3.46516e-07
-0.000387411 0.000188069 -8.51075e-08
-3.46516e-07 -8.51075e-08 2.1005e-05
0.00177102 -0.000323022 -2.9747e-06
-0.000323022 0.000149592 1.03514e-08
-2.9747e-06 1.03514e-08 -4.24639e-05
0.00203476 -0.000426198 6.47522e-07
-0.000426198 0.00024835 1.73618e-06
6.47522e-07 1.73618e-06 5.64649e-05
0.00174665 -0.000358678 -4.92914e-07
-0.000358678 0.000175285 7.61285e-08
-4.92914e-07 7.61285e-08 -3.90775e-05
0.00101886 -0.000212538 -1.4708e-05
-0.000212538 -4.05381e-05 5.95371e-06
-1.4708e-05 5.95371e-06 -0.000227867
0.00181119 -0.000396594 5.36596e-06
-0.000396594 0.00025502 -2.19085e-07
5.36596e-06 -2.19085e-07 2.00578e-05
0.00104852 -0.000237745 2.67001e-08
-0.000237745 -5.45702e-06 1.05806e-07
2.67001e-08 1.05806e-07 -0.000202555
0.00274257 -0.000175273 -4.73196e-05
-0.000175273 0.00127813 1.15423e-05
-4.73196e-05 1.15423e-05 0.00117717
0.0021242 -9.52456e-05 -0.000248329
-9.52456e-05 0.000974696 3.32382e-05
-0.000248329 3.32382e-05 0.000955164
0.00160014 -0.000200419 -1.25305e-05
-0.000200419 0.0005804 -1.63414e-07
-1.25305e-05 -1.63414e-07 0.000460854
0.00103301 -0.000261245 1.40038e-05
-0.000261245 1.54539e-05 -6.50434e-06
1.40038e-05 -6.50434e-06 -0.000194229
0.00689883 -2.31699e-05 -7.37929e-06
-2.31699e-05 0.00396198 9.76528e-07
-7.37929e-06 9.76528e-07 0.00396867
0.000415011 -0.000244429 2.46799e-05
-0.000244429 -0.000140825 -1.85325e-05
2.46799e-05 -1.85325e-05 -0.000273886
0.00679103 2.57114e-05 0.000270402
2.57114e-05 0.00391442 -2.54377e-05
0.000270402 -2.54377e-05 0.00391382
0.00211891 0.000424264 9.52641e-07
0.000424264 0.000158032 9.33204e-07
9.52641e-07 9.33204e-07 -7.32089e-06
0.00207574 0.000552945 3.43485e-06
0.000552945 0.000282658 5.29372e-06
3.43485e-06 5.29372e-06 2.96002e-05
0.00205054 0.000610381 2.0924e-07
0.000610381 0.000369216 1.95005e-07
2.0924e-07 1.95005e-07 6.32843e-05
0.00162846 0.000463034 -6.82249e-06
0.000463034 0.000244685 1.52104e-06
-6.82249e-06 1.52104e-06 -3.76038e-05
0.00164268 0.000554248 2.69341e-06
0.000554248 0.000272106 -3.55622e-06
2.69341e-06 -3.55622e-06 -5.91244e-05
0.0014059 0.000432435 -1.01869e-07
0.000432435 0.00020833 4.77581e-07
-1.01869e-07 4.77581e-07 -8.22428e-05
0.000858614 0.000246714 -1.30597e-05
0.000246714 1.08788e-05 -5.12581e-06
-1.30597e-05 -5.12581e-06 -0.000194018
0.0012574 0.000375206 6.9388e-06
0.000375206 0.000230648 1.97861e-06
6.9388e-06 1.97861e-06 -4.45081e-05
0.000670987 0.000210125 1.19632e-06
0.000210125 -2.29621e-05 3.75338e-08
1.19632e-06 3.75338e-08 -0.000224185
0.000570428 0.00024189 -2.80642e-05
0.00024189 -1.802e-05 -1.88181e-05
-2.80642e-05 -1.88181e-05 -0.000137692
0.000250607 0.000165511 3.77221e-06
0.000165511 -0.000203557 2.59836e-06
3.77221e-06 2.59836e-06 -0.000413421
0.000538875 0.000151066 3.13051e-07
0.000151066 -2.65692e-05 -7.47887e-07
3.13051e-07 -7.47887e-07 -0.000122236
0.00597374 -0.000150593 -0.000208047
-0.000150593 0.00346453 -2.10624e-05
-0.000208047 -2.10624e-05 0.00344151
0.000358848 7.31343e-05 1.54863e-05
7.31343e-05 -0.000110833 1.70303e-05
1.54863e-05 1.70303e-05 -0.00018471
0.00468883 -0.000187233 -1.00332e-05
-0.000187233 0.00266544 6.98412e-07
-1.00332e-05 6.98412e-07 0.00264298
0.00393363 -0.000179977 9.09402e-05
-0.000179977 0.00218504 6.99186e-06
9.09402e-05 6.99186e-06 0.00216684
0.00220104 0.000211952 -4.71567e-06
0.000211952 -0.000148203 -5.8847e-07
-4.71567e-06 -5.8847e-07 -4.91914e-05
0.0021237 9.61886e-05 2.34899e-05
9.61886e-05 -1.49726e-05 -2.92914e-06
2.34899e-05 -2.92914e-06 0.000200845
0.00569794 0.000252536 -0.000111133
0.000252536 0.000592473 -3.75391e-06
-0.000111133 -3.75391e-06 0.00125158
0.0021254 0.00050383 -3.46647e-06
0.00050383 0.000127631 1.31769e-06
-3.46647e-06 1.31769e-06 -5.63521e-05
0.00216145 0.000685552 -3.32874e-06
0.000685552 0.000319266 -1.8239e-07
-3.32874e-06 -1.8239e-07 4.25773e-05
0.00164866 0.000708194 -5.91637e-06
0.000708194 0.000146824 -9.97606e-06
-5.91637e-06 -9.97606e-06 -0.000168053
0.00225424 0.00054645 3.03784e-06
0.00054645 0.000267342 1.44998e-06
3.03784e-06 1.44998e-06 5.02188e-05
0.00207492 0.000655134 6.25784e-07
0.000655134 0.000278811 -4.54115e-06
6.25784e-07 -4.54115e-06 -1.13855e-05
0.00236906 0.000404687 -4.0697e-07
0.000404687 5.06833e-05 3.86802e-07
-4.0697e-07 3.86802e-07 1.66561e-05
0.00201963 0.000594062 -7.22506e-07
0.000594062 5.27961e-05 3.62367e-07
-7.22506e-07 3.62367e-07 -0.000148795
0.00281928 0.000818418 -3.32968e-06
0.000818418 0.000686402 -1.40685e-06
-3.32968e-06 -1.40685e-06 0.000380257
0.00203151 0.000404077 -1.10359e-07
0.000404077 -0.000108761 -4.86308e-07
-1.10359e-07 -4.86308e-07 -0.00013355
0.00221118 0.000743861 1.24548e-05
0.000743861 0.000163603 1.87765e-06
1.24548e-05 1.87765e-06 -6.62103e-05
0.000242106 0.000345219 -3.8745e-05
0.000345219 -0.000808989 -1.85776e-05
-3.8745e-05 -1.85776e-05 -0.000773348
0.00232852 8.40383e-05 9.57176e-07
8.40383e-05 -2.04657e-05 3.66301e-07
9.57176e-07 3.66301e-07 3.95998e-05
0.00226981 9.41107e-05 -2.08971e-06
9.41107e-05 -5.2074e-05 3.92986e-07
-2.08971e-06 3.92986e-07 2.23359e-05
0.00353729 -7.66095e-05 -4.52447e-05
-7.66095e-05 0.00107687 1.29754e-06
-4.52447e-05 1.29754e-06 0.00113517
0.00234116 -0.000234532 -2.03797e-05
-0.000234532 -7.74991e-05 2.26281e-06
-2.03797e-05 2.26281e-06 7.74976e-05
0.00239665 4.04215e-06 -5.33936e-06
4.04215e-06 -3.27798e-05 -3.57534e-06
-5.33936e-06 -3.57534e-06 2.06763e-05
0.00230666 -8.25946e-05 -4.21923e-07
-8.25946e-05 -8.72182e-05 -9.2304e-08
-4.21923e-07 -9.2304e-08 -5.53339e-06
0.00206392 -6.80281e-05 7.70061e-08
-6.80281e-05 -2.58136e-05 2.14309e-07
7.70061e-08 2.14309e-07 -3.61577e-06
0.00221409 -0.00027591 -8.6026e-07
-0.00027591 -8.39464e-05 5.89601e-07
-8.6026e-07 5.89601e-07 -2.48581e-05
0.00213277 -0.000226568 -1.66829e-07
-0.000226568 -3.80108e-05 -7.62118e-09
-1.66829e-07 -7.62118e-09 -1.16427e-05
0.0020343 -0.000191824 -2.204e-06
-0.000191824 2.46991e-05 7.35235e-08
-2.204e-06 7.35235e-08 -2.16093e-06
0.00212958 -0.000329701 1.09506e-06
-0.000329701 3.14303e-05 1.05688e-07
1.09506e-06 1.05688e-07 1.90562e-06
0.00205747 -0.00028593 3.39455e-07
-0.00028593 6.44593e-05 -9.51302e-09
3.39455e-07 -9.51302e-09 1.07731e-06
0.00203606 -0.000265863 -1.7922e-06
-0.000265863 0.000123374 -5.29444e-07
-1.7922e-06 -5.29444e-07 2.07327e-05
0.0019547 -0.000356312 2.49106e-06
-0.000356312 6.32364e-05 -8.47081e-07
2.49106e-06 -8.47081e-07 -4.98215e-05
0.00199895 -0.000330642 -3.03047e-07
-0.000330642 0.00013996 -7.83175e-08
-3.03047e-07 -7.83175e-08 4.87685e-06
0.00179791 -0.000277109 -2.00112e-06
-0.000277109 0.000131211 -3.10453e-07
-2.00112e-06 -3.10453e-07 -3.73723e-05
0.00204826 -0.000389707 8.5966e-07
-0.000389707 0.000217673 1.11702e-06
8.5966e-07 1.11702e-06 5.0242e-05
0.00179774 -0.000324975 -3.68426e-07
-0.000324975 0.000165313 9.49751e-08
-3.68426e-07 9.49751e-08 -2.65974e-05
0.00104204 -0.000190204 -1.40452e-05
-0.000190204 -4.56284e-05 4.83669e-06
-1.40452e-05 4.83669e-06 -0.000223886
0.00178595 -0.000361306 3.81937e-06
-0.000361306 0.000199767 -2.29307e-07
3.81937e-06 -2.29307e-07 -1.44777e-05
0.00108466 -0.000214961 -1.01321e-07
-0.000214961 -5.16592e-06 2.15159e-07
-1.01321e-07 2.15159e-07 -0.000191742
0.00273934 -0.00017085 -5.54733e-05
-0.00017085 0.00126708 1.10925e-05
-5.54733e-05 1.10925e-05 0.00117474
0.00110253 -0.000240513 1.48902e-05
-0.000240513 2.41357e-05 -6.34401e-06
1.48902e-05 -6.34401e-06 -0.000172653
0.00286249 -0.000213859 4.78544e-05
-0.000213859 0.00135324 -7.37511e-06
4.78544e-05 -7.37511e-06 0.00125995
0.00217535 -0.000132104 -0.000249054
-0.000132104 0.00101263 3.79458e-05
-0.000249054 3.79458e-05 0.000991083
0.00440714 -0.000104765 -0.000244548
-0.000104765 0.00241325 2.42678e-05
-0.000244548 2.42678e-05 0.00240624
0.00294284 -0.000271384 0.000156274
-0.000271384 0.00141922 -2.48832e-05
0.000156274 -2.48832e-05 0.00132528
0.00694756 -3.84164e-05 0.000285557
-3.84164e-05 0.00400097 -2.98605e-05
0.000285557 -2.98605e-05 0.00400357
0.00230506 0.000421019 -1.35591e-06
0.000421019 0.000266811 -2.02254e-07
-1.35591e-06 -2.02254e-07 0.0001231
0.00187295 0.0004269 2.79026e-06
0.0004269 0.000113691 1.76981e-06
2.79026e-06 1.76981e-06 -8.3334e-05
0.00211714 0.000415219 3.76255e-07
0.000415219 0.000163516 -1.641e-06
3.76255e-07 -1.641e-06 5.05264e-06
0.00177789 0.000446995 -5.28686e-06
0.000446995 0.000225353 1.81966e-06
-5.28686e-06 1.81966e-06 -3.00819e-05
0.00214357 0.000559198 6.54457e-07
0.000559198 0.000309973 2.60027e-07
6.54457e-07 2.60027e-07 5.61131e-05
0.00232741 0.000634294 5.5005e-07
0.000634294 0.000532733 -4.65232e-06
5.5005e-07 -4.65232e-06 0.000225873
0.00160012 0.000464387 2.26478e-07
0.000464387 0.000220514 5.3271e-07
2.26478e-07 5.3271e-07 -6.39624e-05
0.000975282 0.0002717 -1.53866e-05
0.0002717 -7.95462e-06 -5.4391e-06
-1.53866e-05 -5.4391e-06 -0.000216551
0.00140784 0.000435481 8.58359e-06
0.000435481 0.000202565 8.59284e-07
8.58359e-06 8.59284e-07 -9.00108e-05
0.000796823 0.000239243 -7.13614e-07
0.000239243 -2.42813e-05 -2.61512e-08
-7.13614e-07 -2.61512e-08 -0.000225805
0.000434905 0.000247003 -2.56274e-05
0.000247003 -0.000112676 -1.9187e-05
-2.56274e-05 -1.9187e-05 -0.000244654
0.000324634 0.00018703 8.69941e-06
0.00018703 -0.000236419 2.20479e-06
8.69941e-06 2.20479e-06 -0.000432514
0.0003473 0.000200713 2.92864e-06
0.000200713 -0.000157394 3.85081e-07
2.92864e-06 3.85081e-07 -0.000271047
0.00665249 -7.18101e-05 -0.000249197
-7.18101e-05 0.00385667 -2.55984e-05
-0.000249197 -2.55984e-05 0.0038437
0.000365022 0.000114821 2.11213e-05
0.000114821 -0.000132364 1.67093e-05
2.11213e-05 1.67093e-05 -0.000222876
0.00564531 -0.000168101 1.37838e-06
-0.000168101 0.00325169 -1.63001e-06
1.37838e-06 -1.63001e-06 0.00323196
0.00453793 -0.000214737 0.000108913
-0.000214737 0.00257987 9.33655e-06
0.000108913 9.33655e-06 0.00255037
0.00235549 0.000246082 7.39901e-08
0.000246082 -1.43621e-05 5.23277e-07
7.39901e-08 5.23277e-07 4.10864e-05
0.0021386 0.000218331 1.59161e-06
0.000218331 -0.00016921 -2.86162e-08
1.59161e-06 -2.86162e-08 -7.15178e-05
0.00271538 5.79345e-05 -8.01136e-05
5.79345e-05 0.000233872 -1.01916e-05
-8.01136e-05 -1.01916e-05 0.000471605
0.00209263 0.000358104 3.46541e-07
0.000358104 8.41689e-06 1.25764e-07
3.46541e-07 1.25764e-07 -7.0358e-05
0.0021167 0.000499709 -8.60122e-07
0.000499709 0.000145933 4.38618e-07
-8.60122e-07 4.38618e-07 -3.63899e-05
0.00166491 0.000627759 6.22283e-06
0.000627759 6.09898e-05 -2.32216e-06
6.22283e-06 -2.32216e-06 -0.000206249
0.00238494 0.00054105 -8.21957e-07
0.00054105 0.000365368 -3.06698e-06
-8.21957e-07 -3.06698e-06 0.000151084
0.00231864 0.000389901 -9.42023e-07
0.000389901 3.5864e-05 3.11585e-08
-9.42023e-07 3.11585e-08 3.45123e-06
0.00213583 0.000608223 -1.23082e-06
0.000608223 0.000139343 -1.0554e-07
-1.23082e-06 -1.0554e-07 -6.33546e-05
0.00193536 0.000391819 1.13193e-05
0.000391819 -0.000118811 -7.10808e-07
1.13193e-05 -7.10808e-07 -0.000142466
0.00214268 6.62612e-05 1.86538e-06
6.62612e-05 -5.87536e-06 4.08309e-07
1.86538e-06 4.08309e-07 1.93174e-05
0.00225464 7.91326e-05 8.61434e-08
7.91326e-05 -5.40601e-05 2.0664e-08
8.61434e-08 2.0664e-08 4.63147e-06
0.00244252 0.000110447 -8.9433e-06
0.000110447 7.6722e-05 -7.22633e-07
-8.9433e-06 -7.22633e-07 0.000143206
0.00200314 -1.17515e-05 -3.38487e-06
-1.17515e-05 1.64366e-05 3.94745e-07
-3.38487e-06 3.94745e-07 1.40485e-05
0.0022725 -9.58379e-05 -1.39117e-07
-9.58379e-05 -0.000123661 -6.39275e-07
-1.39117e-07 -6.39275e-07 -3.43371e-05
0.00208828 -7.10154e-05 -6.98885e-07
-7.10154e-05 -1.51779e-05 3.00344e-07
-6.98885e-07 3.00344e-07 7.38327e-06
0.00194224 -0.000106018 -3.85315e-06
-0.000106018 -2.23919e-05 4.98731e-07
-3.85315e-06 4.98731e-07 -4.00902e-05
0.00208898 -0.000230697 1.50921e-07
-0.000230697 -5.73764e-05 2.11735e-07
1.50921e-07 2.11735e-07 -3.72534e-05
0.00204203 -0.000190904 1.18235e-06
-0.000190904 2.88878e-05 -3.54039e-07
1.18235e-06 -3.54039e-07 2.2707e-06
0.00204741 -0.000190901 4.08677e-08
-0.000190901 0.00010678 -6.3679e-07
4.08677e-08 -6.3679e-07 3.05645e-05
0.00205247 -0.000284719 2.97492e-06
-0.000284719 5.80782e-05 -6.40195e-07
2.97492e-06 -6.40195e-07 -5.31264e-06
0.00200183 -0.00026276 -2.67164e-07
-0.00026276 0.000100457 -2.43022e-07
-2.67164e-07 -2.43022e-07 -1.928e-06
0.00178223 -0.000219514 -1.22552e-06
-0.000219514 9.87917e-05 -2.11924e-07
-1.22552e-06 -2.11924e-07 -4.74875e-05
0.0020358 -0.000333134 1.54233e-06
-0.000333134 0.000160685 6.51598e-07
1.54233e-06 6.51598e-07 2.50898e-05
0.00181084 -0.00027716 -3.46556e-07
-0.00027716 0.000139206 -5.24517e-08
-3.46556e-07 -5.24517e-08 -2.89435e-05
0.00106388 -0.000164374 -1.32054e-05
-0.000164374 -4.80453e-05 3.76947e-06
-1.32054e-05 3.76947e-06 -0.000216476
0.00182433 -0.000326781 2.10507e-06
-0.000326781 0.000181093 1.28747e-07
2.10507e-06 1.28747e-07 -1.06321e-05
0.00110062 -0.000190931 -2.73088e-07
-0.000190931 -1.38125e-05 2.37524e-07
-2.73088e-07 2.37524e-07 -0.000190905
0.0027035 -0.000165581 -6.27197e-05
-0.000165581 0.00124399 1.08042e-05
-6.27197e-05 1.08042e-05 0.00115546
0.00113921 -0.000216757 1.48378e-05
-0.000216757 2.31514e-05 -5.58445e-06
1.48378e-05 -5.58445e-06 -0.00016257
0.00280863 -0.000193167 4.37914e-05
-0.000193167 0.0013106 -5.80099e-06
4.37914e-05 -5.80099e-06 0.00122532
0.00220179 -0.000112637 -0.00024291
-0.000112637 0.0010209 3.31778e-05
-0.00024291 3.31778e-05 0.00100213
0.00296724 -0.000221294 0.000150973
-0.000221294 0.00141388 -2.58625e-05
0.000150973 -2.58625e-05 0.00133015
0.00184407 -6.96789e-05 -0.00010188
-6.96789e-05 0.000807927 1.46311e-05
-0.00010188 1.46311e-05 0.000773952
0.00654369 2.81355e-05 8.51377e-05
2.81355e-05 0.00373003 -3.95874e-06
8.51377e-05 -3.95874e-06 0.0037104
0.00206243 0.000356243 2.96116e-07
0.000356243 8.26111e-05 1.8781e-07
2.96116e-07 1.8781e-07 -3.19546e-05
0.00219585 0.000399913 -1.66219e-07
0.000399913 0.000257804 -2.21524e-07
-1.66219e-07 -2.21524e-07 9.355e-05
0.00222776 0.000419579 -3.83684e-06
0.000419579 0.000208251 -1.31509e-07
-3.83684e-06 -1.31509e-07 6.23023e-05
0.0018649 0.00039257 -2.14455e-06
0.00039257 0.000213561 6.30287e-07
-2.14455e-06 6.30287e-07 -8.07586e-06
0.0018633 0.000433082 -8.08656e-07
0.000433082 8.92523e-05 -2.08439e-06
-8.08656e-07 -2.08439e-06 -0.000104413
0.00209856 0.000405375 -5.08079e-06
0.000405375 0.00015829 -5.01484e-06
-5.08079e-06 -5.01484e-06 6.82142e-06
0.00107338 0.000267298 -1.72572e-05
0.000267298 -8.83575e-06 -5.50705e-06
-1.72572e-05 -5.50705e-06 -0.000211052
0.00170997 0.000442123 8.92802e-07
0.000442123 0.00018204 4.2748e-07
8.92802e-07 4.2748e-07 -7.34833e-05
0.00222504 0.000566048 1.72189e-06
0.000566048 0.000344779 -4.10349e-06
1.72189e-06 -4.10349e-06 9.00976e-05
0.00155715 0.000464229 8.01713e-06
0.000464229 0.000187998 -2.76414e-07
8.01713e-06 -2.76414e-07 -9.83719e-05
0.000919418 0.000262372 -9.86455e-07
0.000262372 -3.25335e-05 -7.85683e-08
-9.86455e-07 -7.85683e-08 -0.000238381
0.000354784 0.000242065 -2.52667e-05
0.000242065 -0.000173019 -1.78255e-05
-2.52667e-05 -1.78255e-05 -0.000306107
0.000707564 0.000228185 1.26016e-05
0.000228185 -7.64194e-05 5.77846e-06
1.26016e-05 5.77846e-06 -0.000273926
0.000388758 0.000235639 2.00736e-06
0.000235639 -0.000135229 8.18895e-07
2.00736e-06 8.18895e-07 -0.000267477
0.00694708 1.78831e-05 -0.000273064
1.78831e-05 0.00402352 -3.22504e-05
-0.000273064 -3.22504e-05 0.00401386
0.000407552 0.00018267 2.42961e-05
0.00018267 -0.000124331 1.89863e-05
2.42961e-05 1.89863e-05 -0.000235407
0.00642163 -0.00011074 3.92002e-06
-0.00011074 0.00371046 -9.32751e-07
3.92002e-06 -9.32751e-07 0.00369871
0.00522669 -0.00020491 0.000144518
-0.00020491 0.00299989 9.79782e-06
0.000144518 9.79782e-06 0.00297285
0.00210518 0.000195394 -4.09548e-07
0.000195394 -9.727e-06 -2.35209e-07
-4.09548e-07 -2.35209e-07 -4.82447e-06
0.00231601 0.000248536 -2.8335e-08
0.000248536 -4.53439e-05 5.73156e-07
-2.8335e-08 5.73156e-07 1.24259e-05
0.00214789 0.000223999 3.2404e-06
0.000223999 -0.000165808 -1.91891e-07
3.2404e-06 -1.91891e-07 -6.87386e-05
0.00214529 0.000356177 -3.34645e-07
0.000356177 4.59055e-05 9.96867e-08
-3.34645e-07 9.96867e-08 -2.9423e-05
0.00210389 0.000494933 8.85374e-07
0.000494933 0.000164075 -6.3077e-07
8.85374e-07 -6.3077e-07 -1.64403e-05
0.00228965 0.000376853 1.95011e-06
0.000376853 2.75645e-05 -3.96902e-07
1.95011e-06 -3.96902e-07 -3.40159e-06
0.00201136 6.23957e-05 -1.27229e-06
6.23957e-05 -6.98612e-06 2.86007e-07
-1.27229e-06 2.86007e-07 -6.52756e-06
0.0021257 6.10709e-05 3.45754e-07
6.10709e-05 -1.35237e-05 -1.0789e-07
3.45754e-07 -1.0789e-07 1.03694e-05
0.00218099 7.43533e-05 -1.02093e-06
7.43533e-05 -8.8935e-05 -3.33423e-07
-1.02093e-06 -3.33423e-07 -3.08709e-05
0.00198884 -1.0736e-05 -9.50585e-07
-1.0736e-05 4.65973e-06 1.95963e-08
-9.50585e-07 1.95963e-08 1.84966e-06
0.00199084 -3.72694e-05 -6.4382e-06
-3.72694e-05 4.49096e-05 6.31159e-07
-6.4382e-06 6.31159e-07 2.21152e-05
0.002114 -7.37082e-05 7.90193e-08
-7.37082e-05 -4.19179e-06 1.72379e-09
7.90193e-08 1.72379e-09 1.90361e-05
0.00198975 -0.000106227 -1.44944e-06
-0.000106227 1.35452e-05 2.22218e-07
-1.44944e-06 2.22218e-07 -7.02883e-06
0.0019265 -0.000119584 -5.18238e-06
-0.000119584 2.20329e-05 6.44547e-07
-5.18238e-06 6.44547e-07 -3.53367e-05
0.00205061 -0.000190443 4.47228e-06
-0.000190443 3.39428e-05 -8.01673e-07
4.47228e-06 -8.01673e-07 7.46173e-06
0.00199194 -0.000189422 2.87098e-06
-0.000189422 7.28322e-05 -8.08e-07
2.87098e-06 -8.08e-07 -3.25473e-06
0.00179715 -0.000160768 1.93312e-06
-0.000160768 9.20282e-05 -7.93383e-07
1.93312e-06 -7.93383e-07 -3.6133e-05
0.00195512 -0.000260849 2.06804e-06
-0.000260849 6.84531e-05 -1.07578e-07
2.06804e-06 -1.07578e-07 -3.39835e-05
0.00180918 -0.000221355 -1.74026e-07
-0.000221355 0.000113255 -6.65906e-08
-1.74026e-07 -6.65906e-08 -3.29231e-05
0.00107898 -0.000132373 -1.25198e-05
-0.000132373 -5.00677e-05 2.75087e-06
-1.25198e-05 2.75087e-06 -0.000207209
0.00182504 -0.000277487 9.83763e-07
-0.000277487 0.000146792 1.84743e-07
9.83763e-07 1.84743e-07 -2.09783e-05
0.00111005 -0.000163422 -3.46338e-07
-0.000163422 -2.18329e-05 2.35858e-07
-3.46338e-07 2.35858e-07 -0.000188991
0.00263029 -0.000167533 -6.50197e-05
-0.000167533 0.00119934 9.49441e-06
-6.50197e-05 9.49441e-06 0.00111311
0.00115683 -0.000191533 1.3986e-05
-0.000191533 1.63302e-05 -4.4984e-06
1.3986e-05 -4.4984e-06 -0.000159557
0.0027608 -0.000166431 4.18384e-05
-0.000166431 0.0012749 -4.44133e-06
4.18384e-05 -4.44133e-06 0.00119491
0.00221059 -9.39049e-05 -0.000240447
-9.39049e-05 0.00101988 2.79093e-05
-0.000240447 2.79093e-05 0.00100277
0.00288062 -0.000185628 0.00014739
-0.000185628 0.00134823 -2.19699e-05
0.00014739 -2.19699e-05 0.00127338
0.00183335 -7.34348e-05 -9.22507e-05
-7.34348e-05 0.000796212 1.16971e-05
-9.22507e-05 1.16971e-05 0.000765028
0.00154854 -6.74579e-05 5.81551e-05
-6.74579e-05 0.000634333 -8.97315e-06
5.81551e-05 -8.97315e-06 0.000584772
0.00208414 0.000233365 -1.49048e-06
0.000233365 5.43213e-05 -1.90559e-07
-1.49048e-06 -1.90559e-07 1.82474e-06
0.00209912 0.000326755 -1.60211e-06
0.000326755 0.000164398 7.98349e-07
-1.60211e-06 7.98349e-07 3.24866e-05
0.00207929 0.000359916 -2.71178e-07
0.000359916 7.38772e-05 -6.07575e-09
-2.71178e-07 -6.07575e-09 -3.35846e-05
0.00198796 0.0003591 -2.0369e-07
0.0003591 0.000238196 8.1576e-07
-2.0369e-07 8.1576e-07 4.71495e-05
0.00211644 0.000392459 -9.68999e-07
0.000392459 0.00021644 -5.25313e-07
-9.68999e-07 -5.25313e-07 5.14702e-05
0.00215947 0.000419036 2.28928e-07
0.000419036 0.000155339 -9.99147e-08
2.28928e-07 -9.99147e-08 6.95504e-06
0.00117079 0.000243369 -1.68662e-05
0.000243369 2.21554e-05 -5.24661e-06
-1.68662e-05 -5.24661e-06 -0.00016807
0.00180848 0.000393713 2.38094e-06
0.000393713 0.000171215 -5.1054e-08
2.38094e-06 -5.1054e-08 -4.69554e-05
0.00186816 0.000440184 -2.36177e-06
0.000440184 7.44623e-05 -4.29215e-06
-2.36177e-06 -4.29215e-06 -0.000115983
0.000306092 0.000186463 -2.26066e-05
0.000186463 -0.000227535 -1.47273e-05
-2.26066e-05 -1.47273e-05 -0.000348978
0.00105384 0.000263459 -7.95495e-07
0.000263459 -1.6167e-05 7.13175e-08
-7.95495e-07 7.13175e-08 -0.000217514
0.00165865 0.000438985 7.24375e-06
0.000438985 0.000147963 -1.03522e-06
7.24375e-06 -1.03522e-06 -0.000107961
0.000911456 0.000257264 1.56827e-05
0.000257264 -2.85366e-05 6.15755e-06
1.56827e-05 6.15755e-06 -0.000232414
0.000366262 0.000226084 6.66584e-07
0.000226084 -0.000163737 9.86387e-07
6.66584e-07 9.86387e-07 -0.000298081
0.00707268 0.00011861 -0.000286277
0.00011861 0.00408289 -3.6582e-05
-0.000286277 -3.6582e-05 0.00407663
0.000347177 0.000218114 2.23019e-05
0.000218114 -0.000158336 1.81621e-05
2.23019e-05 1.81621e-05 -0.000288755
0.0068313 -1.26503e-05 7.27629e-06
-1.26503e-05 0.00393913 -4.74515e-08
7.27629e-06 -4.74515e-08 0.00393678
0.00617962 -0.000142436 0.000201797
-0.000142436 0.00355781 1.15949e-05
0.000201797 1.15949e-05 0.00354556
0.00203204 0.000125361 -3.84217e-06
0.000125361 2.40035e-05 -8.29033e-07
-3.84217e-06 -8.29033e-07 1.542e-05
0.00211543 0.000199614 8.4281e-07
0.000199614 -4.87527e-06 3.31632e-07
8.4281e-07 3.31632e-07 -1.47235e-06
0.00226398 0.000251251 -4.59107e-07
0.000251251 -8.03971e-05 -8.65616e-07
-4.59107e-07 -8.65616e-07 -2.08173e-05
0.00219667 0.000353069 2.53893e-06
0.000353069 8.25882e-05 8.90412e-08
2.53893e-06 8.90412e-08 1.09163e-05
0.00196491 1.57605e-05 -6.06228e-06
1.57605e-05 4.77945e-05 3.97819e-07
-6.06228e-06 3.97819e-07 1.42097e-05
0.00199623 5.28572e-05 -8.94385e-09
5.28572e-05 -1.46101e-05 7.00583e-08
-8.94385e-09 7.00583e-08 -1.51582e-05
0.00210918 5.57605e-05 -1.14382e-06
5.57605e-05 -2.00239e-05 -2.22069e-07
-1.14382e-06 -2.22069e-07 1.89744e-06
0.00197362 -8.59452e-06 8.49655e-07
-8.59452e-06 -7.34051e-06 -6.47346e-07
8.49655e-07 -6.47346e-07 -1.08026e-05
0.00198787 -3.16198e-05 -7.46932e-07
-3.16198e-05 4.03175e-05 -2.1113e-07
-7.46932e-07 -2.1113e-07 1.87317e-05
0.00189831 -5.09108e-05 -3.65602e-06
-5.09108e-05 1.81799e-05 3.55395e-07
-3.65602e-06 3.55395e-07 -4.1108e-05
0.0020393 -0.000106672 3.84301e-06
-0.000106672 5.07223e-05 -3.42662e-07
3.84301e-06 -3.42662e-07 2.70408e-05
0.0019557 -0.000120079 -2.19703e-06
-0.000120079 4.98299e-05 5.99661e-07
-2.19703e-06 5.99661e-07 -1.40718e-05
0.00184845 -0.00010447 -6.70036e-07
-0.00010447 0.000108934 -2.67482e-07
-6.70036e-07 -2.67482e-07 2.11193e-06
0.00193766 -0.000186663 6.20783e-06
-0.000186663 3.94053e-05 -1.04392e-06
6.20783e-06 -1.04392e-06 -3.63213e-05
0.00182625 -0.000159684 2.13461e-06
-0.000159684 0.000107032 -5.37593e-07
2.13461e-06 -5.37593e-07 -2.04936e-05
0.00108249 -9.77306e-05 -1.21919e-05
-9.77306e-05 -5.27868e-05 1.85752e-06
-1.21919e-05 1.85752e-06 -0.000199153
0.0018518 -0.000221307 7.20373e-07
-0.000221307 0.00013939 7.58746e-08
7.20373e-07 7.58746e-08 -6.20202e-06
0.00109731 -0.000131631 -1.67466e-07
-0.000131631 -3.80585e-05 2.00807e-07
-1.67466e-07 2.00807e-07 -0.000194462
0.000426933 -8.94192e-05 -1.98654e-05
-8.94192e-05 -0.000191192 5.90169e-06
-1.98654e-05 5.90169e-06 -0.000285074
0.00115233 -0.00016219 1.31079e-05
-0.00016219 2.46906e-06 -3.40745e-06
1.31079e-05 -3.40745e-06 -0.000163363
0.00158029 -0.000109418 6.13631e-05
-0.000109418 0.000531009 -4.62782e-06
6.13631e-05 -4.62782e-06 0.00044831
0.00647121 -0.000159346 -0.000318698
-0.000159346 0.00368845 2.33379e-05
-0.000318698 2.33379e-05 0.00370514
0.00283478 -0.000149727 0.000144597
-0.000149727 0.00131086 -1.74257e-05
0.000144597 -1.74257e-05 0.00124179
0.00183275 -7.29692e-05 -8.34297e-05
-7.29692e-05 0.000794797 7.59363e-06
-8.34297e-05 7.59363e-06 0.000763885
0.00146586 -9.38777e-05 6.97406e-05
-9.38777e-05 0.000587374 -1.0608e-05
6.97406e-05 -1.0608e-05 0.000536837
0.00203003 0.000167692 -3.7996e-06
0.000167692 5.58888e-05 -7.10868e-07
-3.7996e-06 -7.10868e-07 1.3253e-05
0.00212467 0.000250538 -9.40023e-07
0.000250538 0.000164137 9.69259e-07
-9.40023e-07 9.69259e-07 6.66095e-05
0.00205948 0.000226684 2.57443e-07
0.000226684 4.58693e-05 2.41941e-07
2.57443e-07 2.41941e-07 -1.07451e-05
0.0018936 0.000284404 1.08658e-07
0.000284404 0.000158108 1.4241e-06
1.08658e-07 1.4241e-06 5.6222e-10
0.00203293 0.000321387 1.06558e-06
0.000321387 0.000127013 1.45741e-07
1.06558e-06 1.45741e-07 -4.33637e-06
0.00209531 0.000364127 5.05241e-07
0.000364127 6.42435e-05 3.15799e-07
5.05241e-07 3.15799e-07 -3.6274e-05
0.00114254 0.000212845 -1.58483e-05
0.000212845 -1.75941e-05 -3.72839e-06
-1.58483e-05 -3.72839e-06 -0.00019303
0.00196925 0.000355866 2.34471e-06
0.000355866 0.000225291 6.17386e-07
2.34471e-06 6.17386e-07 3.53055e-05
0.00202087 0.000383771 -1.36481e-06
0.000383771 0.000165419 -1.70426e-06
-1.36481e-06 -1.70426e-06 -9.68973e-08
0.000329082 0.000132834 -1.96714e-05
0.000132834 -0.000236207 -1.10443e-05
-1.96714e-05 -1.10443e-05 -0.000344428
0.00107686 0.000239247 2.68846e-07
0.000239247 -3.67361e-05 3.79648e-07
2.68846e-07 3.79648e-07 -0.000225621
0.00173465 0.000393533 6.56068e-06
0.000393533 0.000117523 -1.23753e-06
6.56068e-06 -1.23753e-06 -9.69257e-05
0.00692233 0.000196435 -0.000294539
0.000196435 0.00397398 -3.62171e-05
-0.000294539 -3.62171e-05 0.00397338
0.000338585 0.000181234 4.3293e-07
0.000181234 -0.000207947 8.50111e-07
4.3293e-07 8.50111e-07 -0.000330525
0.00101616 0.000257696 1.78309e-05
0.000257696 -3.29749e-05 6.3385e-06
1.78309e-05 6.3385e-06 -0.000233051
0.000351631 0.000212633 2.13942e-05
0.000212633 -0.000169764 1.74986e-05
2.13942e-05 1.74986e-05 -0.000305369
0.00693853 0.000108879 1.0285e-05
0.000108879 0.00399328 9.92097e-07
1.0285e-05 9.92097e-07 0.00399386
0.00670144 -4.57742e-05 0.000254879
-4.57742e-05 0.00384955 1.66448e-05
0.000254879 1.66448e-05 0.00385192
0.00194163 6.89028e-05 -8.1308e-06
6.89028e-05 2.86862e-05 -2.30346e-07
-8.1308e-06 -2.30346e-07 -7.89194e-06
0.00202316 0.000122231 1.76181e-07
0.000122231 1.80309e-05 1.21137e-08
1.76181e-07 1.21137e-08 8.91548e-06
0.00212778 0.000203966 8.97055e-07
0.000203966 1.03432e-06 3.63169e-07
8.97055e-07 3.63169e-07 3.34501e-06
0.00193201 5.60762e-06 -4.14701e-06
5.60762e-06 5.39179e-05 -9.87202e-08
-4.14701e-06 -9.87202e-08 -9.98846e-06
0.0019494 2.07825e-05 2.11432e-07
2.07825e-05 3.57299e-05 5.44832e-08
2.11432e-07 5.44832e-08 4.78129e-06
0.00198394 4.2276e-05 5.85974e-07
4.2276e-05 -2.07095e-05 -2.76558e-07
5.85974e-07 -2.76558e-07 -2.21658e-05
0.00198245 -2.6702e-05 3.90874e-06
-2.6702e-05 3.36243e-05 -4.74448e-07
3.90874e-06 -4.74448e-07 1.36773e-05
0.00192214 -4.91244e-05 -1.5276e-06
-4.91244e-05 3.52009e-05 3.26815e-07
-1.5276e-06 3.26815e-07 -2.29304e-05
0.00188607 -4.81813e-05 1.51876e-06
-4.81813e-05 0.000145649 -6.16354e-07
1.51876e-06 -6.16354e-07 4.23885e-05
0.00198919 -0.000120469 2.06373e-07
-0.000120469 8.08953e-05 4.68385e-07
2.06373e-07 4.68385e-07 1.08082e-05
0.00185199 -0.000105819 5.51263e-07
-0.000105819 0.000115878 2.60172e-08
5.51263e-07 2.60172e-08 2.6294e-06
0.00105506 -5.80729e-05 -1.27494e-05
-5.80729e-05 -7.48507e-05 8.93293e-07
-1.27494e-05 8.93293e-07 -0.000207629
0.00183447 -0.000160337 2.24556e-06
-0.000160337 0.000108318 -3.03135e-07
2.24556e-06 -3.03135e-07 -1.90458e-05
0.00109067 -9.39389e-05 -7.49499e-08
-9.39389e-05 -4.72257e-05 9.31038e-08
-7.49499e-08 9.31038e-08 -0.000192704
0.000436829 -2.35318e-05 -1.84803e-05
-2.35318e-05 -0.000188593 3.46909e-06
-1.84803e-05 3.46909e-06 -0.000276604
0.00113928 -0.000130508 1.24385e-05
-0.000130508 -1.30147e-05 -2.41766e-06
1.24385e-05 -2.41766e-06 -0.000168462
0.000433104 -7.3992e-05 -1.78856e-07
-7.3992e-05 -0.000186027 4.62083e-07
-1.78856e-07 4.62083e-07 -0.000280571
0.00640391 -5.1014e-05 -0.000308333
-5.1014e-05 0.00364105 1.44101e-05
-0.000308333 1.44101e-05 0.00366244
0.000474771 -7.58856e-05 1.47177e-05
-7.58856e-05 -0.00016217 -7.80706e-06
1.47177e-05 -7.80706e-06 -0.000261404
0.00406506 -0.000104019 0.00013684
-0.000104019 0.00219127 -6.96803e-06
0.00013684 -6.96803e-06 0.00217536
0.00142804 -8.79219e-05 7.5428e-05
-8.79219e-05 0.000563965 -1.0458e-05
7.5428e-05 -1.0458e-05 0.000514156
0.00202112 0.000129392 -7.62753e-06
0.000129392 7.57231e-05 -6.29028e-07
-7.62753e-06 -6.29028e-07 2.90667e-05
0.00204922 0.000182479 -1.29818e-06
0.000182479 0.000122735 1.07818e-06
-1.29818e-06 1.07818e-06 4.01845e-05
0.0020101 0.000162269 -5.70627e-07
0.000162269 4.31629e-05 -9.50941e-08
-5.70627e-07 -9.50941e-08 1.14729e-06
0.00182843 0.000216399 3.11991e-07
0.000216399 0.000111093 1.08987e-06
3.11991e-07 1.08987e-06 -3.19936e-05
0.00208144 0.00024801 3.4194e-07
0.00024801 0.000133842 1.26525e-07
3.4194e-07 1.26525e-07 3.45797e-05
0.00202975 0.000219681 2.76359e-06
0.000219681 3.41482e-05 5.55878e-07
2.76359e-06 5.55878e-07 -2.6549e-05
0.00113153 0.000172961 -1.43234e-05
0.000172961 -3.06773e-05 -2.57877e-06
-1.43234e-05 -2.57877e-06 -0.000192109
0.00187671 0.000282128 1.55011e-06
0.000282128 0.000154207 6.58083e-07
1.55011e-06 6.58083e-07 -9.0737e-06
0.00196484 0.000315823 3.33859e-07
0.000315823 8.84436e-05 -8.51112e-07
3.33859e-07 -8.51112e-07 -4.22386e-05
0.000352297 9.45499e-05 -1.84056e-05
9.45499e-05 -0.00023715 -7.89496e-06
-1.84056e-05 -7.89496e-06 -0.000336481
0.00109081 0.00020903 -1.11052e-06
0.00020903 -4.82845e-05 2.63716e-07
-1.11052e-06 2.63716e-07 -0.000223175
0.00196007 0.000353372 5.02298e-06
0.000353372 0.00021859 4.29838e-07
5.02298e-06 4.29838e-07 2.95178e-05
0.00674636 0.000254573 -0.000310448
0.000254573 0.00386485 -3.48541e-05
-0.000310448 -3.48541e-05 0.0038663
0.000349118 0.000131194 6.58837e-08
0.000131194 -0.000226045 4.45752e-07
6.58837e-08 4.45752e-07 -0.000334666
0.00100646 0.000237092 1.63934e-05
0.000237092 -8.19653e-05 5.22243e-06
1.63934e-05 5.22243e-06 -0.000269738
0.00692102 0.000214253 1.35264e-05
0.000214253 0.00398038 3.48384e-06
1.35264e-05 3.48384e-06 0.00397795
0.000339498 0.000171314 1.97652e-05
0.000171314 -0.000208582 1.44718e-05
1.97652e-05 1.44718e-05 -0.000331762
0.00683292 7.16876e-05 0.000281009
7.16876e-05 0.00391449 2.42704e-05
0.000281009 2.42704e-05 0.00392294
0.00189558 5.11104e-05 -4.79597e-06
5.11104e-05 2.19206e-05 4.8487e-10
-4.79597e-06 4.8487e-10 -4.29333e-05
0.00195675 7.35012e-05 -8.22942e-07
7.35012e-05 4.60702e-05 -1.83451e-07
-8.22942e-07 -1.83451e-07 8.60022e-06
0.00201115 0.000119297 3.30352e-06
0.000119297 1.07713e-05 5.11272e-07
3.30352e-06 5.11272e-07 1.02244e-06
0.00187872 -4.89593e-06 2.07804e-06
-4.89593e-06 0.000145847 -5.15971e-07
2.07804e-06 -5.15971e-07 4.47415e-05
0.00191776 6.49631e-06 -1.99381e-06
6.49631e-06 4.26368e-05 2.70756e-07
-1.99381e-06 2.70756e-07 -1.88953e-05
0.00193434 2.70552e-05 7.04624e-06
2.70552e-05 2.40675e-05 -5.91734e-08
7.04624e-06 -5.91734e-08 -4.37953e-06
0.00192363 -4.74269e-05 3.89274e-07
-4.74269e-05 3.78194e-05 3.05005e-07
3.89274e-07 3.05005e-07 -1.96283e-05
0.00187092 -4.73775e-05 2.93998e-06
-4.73775e-05 0.000134789 -1.538e-07
2.93998e-06 -1.538e-07 3.2024e-05
0.00104572 -2.38909e-05 -1.23637e-05
-2.38909e-05 -7.37326e-05 1.94903e-07
-1.23637e-05 1.94903e-07 -0.000200153
0.00186333 -0.000107538 -1.41169e-07
-0.000107538 0.000127804 4.04561e-07
-1.41169e-07 4.04561e-07 8.01532e-06
0.00106501 -5.80597e-05 -4.63288e-07
-5.80597e-05 -6.66381e-05 -2.14895e-08
-4.63288e-07 -2.14895e-08 -0.000201612
0.000442709 -8.39259e-06 -1.87443e-05
-8.39259e-06 -0.000185215 2.16866e-06
-1.87443e-05 2.16866e-06 -0.000269909
0.00109916 -9.14283e-05 1.16712e-05
-9.14283e-05 -4.07002e-05 -1.70716e-06
1.16712e-05 -1.70716e-06 -0.000185452
0.000415871 -3.59082e-05 8.5429e-07
-3.59082e-05 -0.000201613 -2.44534e-07
8.5429e-07 -2.44534e-07 -0.000288896
0.00623531 -0.000146596 -0.000311324
-0.000146596 0.00355165 1.56948e-05
-0.000311324 1.56948e-05 0.00356738
0.000401766 -5.73467e-05 1.7889e-05
-5.73467e-05 -0.000205391 -4.47416e-06
1.7889e-05 -4.47416e-06 -0.000299403
0.00634875 -8.73585e-05 7.58771e-06
-8.73585e-05 0.00360971 -1.77295e-08
7.58771e-06 -1.77295e-08 0.00363056
0.00177855 -3.41358e-05 0.000241744
-3.41358e-05 0.000751552 -1.58099e-05
0.000241744 -1.58099e-05 0.000741572
0.00193966 0.000121047 -3.86936e-06
0.000121047 4.5726e-05 4.83652e-08
-3.86936e-06 4.83652e-08 -3.11344e-05
0.00199381 0.000130951 -2.2838e-06
0.000130951 5.04041e-05 -3.59466e-07
-2.2838e-06 -3.59466e-07 7.96919e-06
0.00181604 0.000153516 1.1505e-06
0.000153516 9.84835e-05 1.03199e-06
1.1505e-06 1.03199e-06 -2.71825e-05
0.0020192 0.000181447 9.00892e-07
0.000181447 9.9665e-05 7.10822e-08
9.00892e-07 7.10822e-08 1.6933e-05
0.00199151 0.000156768 4.64305e-06
0.000156768 3.05367e-05 3.31392e-07
4.64305e-06 3.31392e-07 -1.0688e-05
0.00114307 0.000129351 -1.26436e-05
0.000129351 -1.56071e-05 -1.90517e-06
-1.26436e-05 -1.90517e-06 -0.000167919
0.00182887 0.00021518 1.61737e-07
0.00021518 0.000115353 3.60849e-08
1.61737e-07 3.60849e-08 -2.7678e-05
0.002037 0.000245414 1.92056e-06
0.000245414 0.000103014 -1.04441e-06
1.92056e-06 -1.04441e-06 1.94403e-06
0.000389929 6.94549e-05 -1.78977e-05
6.94549e-05 -0.000219697 -5.64049e-06
-1.78977e-05 -5.64049e-06 -0.000314358
0.0011063 0.00017234 -9.33276e-07
0.00017234 -4.32513e-05 2.87824e-07
-9.33276e-07 2.87824e-07 -0.000207211
0.00186493 0.000279904 2.37358e-06
0.000279904 0.000153993 1.78644e-07
2.37358e-06 1.78644e-07 -1.44353e-05
0.00658146 0.000270293 -0.000326313
0.000270293 0.0037727 -3.24657e-05
-0.000326313 -3.24657e-05 0.00377345
0.00038866 9.71962e-05 4.13276e-08
9.71962e-05 -0.00021621 2.09258e-07
4.13276e-08 2.09258e-07 -0.000316123
0.00102319 0.000204223 1.19616e-05
0.000204223 -8.92755e-05 3.94117e-06
1.19616e-05 3.94117e-06 -0.000263434
0.00675681 0.000278084 1.09724e-05
0.000278084 0.00388353 4.71716e-06
1.09724e-05 4.71716e-06 0.00387927
0.000374667 0.000128523 1.86571e-05
0.000128523 -0.000212764 1.12574e-05
1.86571e-05 1.12574e-05 -0.000321491
0.00689624 0.000214518 0.000309638
0.000214518 0.00395619 3.41263e-05
0.000309638 3.41263e-05 0.0039601
0.00183961 4.56558e-05 3.47995e-06
4.56558e-05 0.000122785 1.19075e-08
3.47995e-06 1.19075e-08 1.90763e-05
0.00191462 5.10739e-05 -3.2749e-06
5.10739e-05 3.98382e-05 -4.68876e-08
-3.2749e-06 -4.68876e-08 -2.62816e-05
0.00197139 7.75256e-05 6.87296e-06
7.75256e-05 6.30371e-05 9.06883e-08
6.87296e-06 9.06883e-08 2.47257e-05
0.0010301 -9.5813e-06 -1.26956e-05
-9.5813e-06 -7.4295e-05 -1.42958e-07
-1.26956e-05 -1.42958e-07 -0.00019888
0.00186317 -1.65071e-07 3.25774e-06
-1.65071e-07 0.00013583 -1.15581e-07
3.25774e-06 -1.15581e-07 3.47949e-05
0.0018871 6.85508e-06 2.5865e-07
6.85508e-06 2.06025e-05 4.33854e-07
2.5865e-07 4.33854e-07 -3.86001e-05
0.00188327 -4.70635e-05 4.12789e-06
-4.70635e-05 0.000142177 2.24567e-07
4.12789e-06 2.24567e-07 4.00684e-05
0.00103489 -2.51038e-05 -2.19709e-07
-2.51038e-05 -8.25518e-05 -4.16228e-08
-2.19709e-07 -4.16228e-08 -0.000209275
0.000446186 -3.23022e-05 -1.92694e-05
-3.23022e-05 -0.000181805 9.89322e-07
-1.92694e-05 9.89322e-07 -0.000263254
0.00105324 -5.70386e-05 1.16059e-05
-5.70386e-05 -7.17576e-05 -1.25429e-06
1.16059e-05 -1.25429e-06 -0.000208954
0.000421322 3.04913e-06 3.72946e-07
3.04913e-06 -0.000199334 5.80105e-08
3.72946e-07 5.80105e-08 -0.000282907
0.00615907 -0.000117776 -0.000312409
-0.000117776 0.00350314 1.16271e-05
-0.000312409 1.16271e-05 0.00352186
0.000429675 -4.32048e-05 1.87095e-05
-4.32048e-05 -0.0001906 -3.11784e-06
1.87095e-05 -3.11784e-06 -0.000279034
0.00623064 -4.11671e-05 -3.04785e-06
-4.11671e-05 0.00353672 2.68123e-06
-3.04785e-06 2.68123e-06 0.00355985
0.00631566 -0.000101868 0.000310223
-0.000101868 0.00359007 -1.39399e-05
0.000310223 -1.39399e-05 0.00361117
0.00175922 9.49924e-05 1.13108e-06
9.49924e-05 6.58229e-05 4.8916e-07
1.13108e-06 4.8916e-07 -4.89347e-05
0.00194851 0.000119522 -3.44178e-06
0.000119522 4.54715e-05 -6.93885e-07
-3.44178e-06 -6.93885e-07 -2.56411e-05
0.00197027 0.000133093 5.21735e-06
0.000133093 2.80593e-05 1.63e-07
5.21735e-06 1.63e-07 -1.03282e-05
0.00113509 8.46713e-05 -1.21296e-05
8.46713e-05 -1.54714e-05 -1.3854e-06
-1.21296e-05 -1.3854e-06 -0.000156255
0.00181417 0.000152003 2.54328e-07
0.000152003 0.000100429 -1.13917e-07
2.54328e-07 -1.13917e-07 -2.53075e-05
0.00199505 0.000180513 1.64763e-06
0.000180513 8.05839e-05 -1.28097e-06
1.64763e-06 -1.28097e-06 -2.32988e-06
0.000411667 4.66685e-05 -1.74122e-05
4.66685e-05 -0.000205995 -4.0152e-06
-1.74122e-05 -4.0152e-06 -0.000296693
0.00111075 0.000130893 3.71624e-07
0.000130893 -3.64233e-05 2.87019e-07
3.71624e-07 2.87019e-07 -0.00018989
0.00182736 0.000213886 4.52643e-07
0.000213886 0.000117978 -9.22464e-07
4.52643e-07 -9.22464e-07 -2.50105e-05
0.00641362 0.000228604 -0.000334665
0.000228604 0.00366898 -2.67253e-05
-0.000334665 -2.67253e-05 0.00367637
0.000414415 7.49641e-05 4.62267e-07
7.49641e-05 -0.000204437 1.80871e-07
4.62267e-07 1.80871e-07 -0.000300232
0.00107238 0.000171212 1.16924e-05
0.000171212 -6.14521e-05 3.21469e-06
1.16924e-05 3.21469e-06 -0.000227863
0.00663194 0.000286381 5.75144e-06
0.000286381 0.00380943 3.38375e-06
5.75144e-06 3.38375e-06 0.00380787
0.0004241 0.000101688 1.81412e-05
0.000101688 -0.000194432 8.61322e-06
1.81412e-05 8.61322e-06 -0.00029549
0.00681685 0.000311743 0.000326252
0.000311743 0.00392779 4.07811e-05
0.000326252 4.07811e-05 0.0039199
0.0010549 2.42531e-05 -1.24684e-05
2.42531e-05 -5.21748e-05 -5.759e-07
-1.24684e-05 -5.759e-07 -0.000182426
0.0018176 4.26945e-05 3.50971e-06
4.26945e-05 0.000106312 3.93764e-08
3.50971e-06 3.93764e-08 5.06402e-06
0.00193289 5.11639e-05 -1.36978e-06
5.11639e-05 5.68897e-05 1.11586e-07
-1.36978e-06 1.11586e-07 -1.05057e-05
0.000483127 3.20919e-05 -1.98339e-05
3.20919e-05 -0.000166876 -7.49409e-07
-1.98339e-05 -7.49409e-07 -0.000240199
0.00101018 -3.86612e-06 -3.79066e-07
-3.86612e-06 -8.87884e-05 1.34229e-08
-3.79066e-07 1.34229e-08 -0.000213447
0.0018576 5.90362e-06 4.37479e-06
5.90362e-06 0.000132261 1.60975e-07
4.37479e-06 1.60975e-07 3.14428e-05
0.00102136 -2.58902e-05 1.19606e-05
-2.58902e-05 -9.33375e-05 -5.14905e-07
1.19606e-05 -5.14905e-07 -0.000220338
0.000442167 -5.66615e-06 4.13108e-07
-5.66615e-06 -0.000184362 3.88074e-07
4.13108e-07 3.88074e-07 -0.000265848
0.00606901 1.73302e-05 -0.000314952
1.73302e-05 0.00344027 1.30416e-06
-0.000314952 1.30416e-06 0.00346572
0.0004007 1.47033e-05 1.82377e-05
1.47033e-05 -0.000213698 -1.19941e-06
1.82377e-05 -1.19941e-06 -0.000295889
0.00612158 -0.000115687 -7.78326e-06
-0.000115687 0.00348148 1.94509e-06
-7.78326e-06 1.94509e-06 0.00349971
0.00616419 -2.29513e-05 0.000297624
-2.29513e-05 0.00349577 -7.22537e-06
0.000297624 -7.22537e-06 0.00351895
0.00110335 4.96669e-05 -1.2321e-05
4.96669e-05 -2.74321e-05 -1.16625e-06
-1.2321e-05 -1.16625e-06 -0.000160863
0.00179755 9.22367e-05 -3.37959e-07
9.22367e-05 8.9225e-05 -2.97491e-07
-3.37959e-07 -2.97491e-07 -2.11131e-05
0.0019576 0.000117505 -2.17889e-06
0.000117505 4.53516e-05 -1.45545e-06
-2.17889e-06 -1.45545e-06 -1.99977e-05
0.00268386 6.29205e-05 -0.000145395
6.29205e-05 0.00121053 -5.15668e-06
-0.000145395 -5.15668e-06 0.00115816
0.00108592 8.60872e-05 3.36325e-07
8.60872e-05 -4.65995e-05 9.36143e-08
3.36325e-07 9.36143e-08 -0.000188266
0.00181249 0.00015043 3.36167e-07
0.00015043 0.000102592 -1.12069e-06
3.36167e-07 -1.12069e-06 -2.32282e-05
0.00625869 0.000166977 -0.000332603
0.000166977 0.00356732 -1.91223e-05
-0.000332603 -1.91223e-05 0.00358326
0.000445962 6.60667e-05 8.51169e-07
6.60667e-05 -0.000182548 4.47851e-07
8.51169e-07 4.47851e-07 -0.000275341
0.00108143 0.000132366 1.25999e-05
0.000132366 -5.52672e-05 2.33031e-06
1.25999e-05 2.33031e-06 -0.000209856
0.0065068 0.000244299 1.32614e-06
0.000244299 0.00372801 1.61041e-06
1.32614e-06 1.61041e-06 0.00373402
0.000458209 8.3804e-05 1.84286e-05
8.3804e-05 -0.000176201 6.73602e-06
1.84286e-05 6.73602e-06 -0.000273839
0.00667663 0.000320951 0.00033454
0.000320951 0.00385018 4.05101e-05
0.00033454 4.05101e-05 0.00384166
0.000555533 1.18763e-05 -1.5815e-05
1.18763e-05 -0.000111173 -1.93043e-06
-1.5815e-05 -1.93043e-06 -0.000193794
0.00102117 2.36542e-05 2.58155e-07
2.36542e-05 -7.74999e-05 2.14076e-07
2.58155e-07 2.14076e-07 -0.000205785
0.0017964 3.8578e-05 3.82958e-06
3.8578e-05 9.02455e-05 -9.99205e-08
3.82958e-06 -9.99205e-08 -8.50104e-06
0.00591319 -0.000101332 -0.000297826
-0.000101332 0.00336181 3.69428e-06
-0.000297826 3.69428e-06 0.00337629
0.000437765 9.49521e-06 -5.82303e-07
9.49521e-06 -0.000190535 -7.97321e-08
-5.82303e-07 -7.97321e-08 -0.00026653
0.00100817 6.56603e-07 1.19038e-05
6.56603e-07 -9.22216e-05 -2.49595e-08
1.19038e-05 -2.49595e-08 -0.000216899
0.000397391 2.09635e-05 1.85006e-05
2.09635e-05 -0.00021354 2.63697e-07
1.85006e-05 2.63697e-07 -0.00029389
0.00601133 -1.82626e-05 2.03293e-06
-1.82626e-05 0.00341053 -1.56487e-06
2.03293e-06 -1.56487e-06 0.00343145
0.00611049 -3.73097e-05 0.000303772
-3.73097e-05 0.00346279 -4.98528e-06
0.000303772 -4.98528e-06 0.00348703
0.00277286 1.61527e-05 -0.000140035
1.61527e-05 0.00126444 -2.95385e-06
-0.000140035 -2.95385e-06 0.00121542
0.00107632 5.27875e-05 7.51425e-08
5.27875e-05 -4.5713e-05 -3.37212e-10
7.51425e-08 -3.37212e-10 -0.000179836
0.00183101 8.96871e-05 7.08049e-07
8.96871e-05 0.000109648 -8.56581e-07
7.08049e-07 -8.56581e-07 3.74091e-06
0.00575288 -3.54717e-05 -0.000128903
-3.54717e-05 0.00326524 3.60341e-07
-0.000128903 3.60341e-07 0.00325374
0.000455287 5.82181e-05 1.71757e-07
5.82181e-05 -0.000175305 2.26916e-07
1.71757e-07 2.26916e-07 -0.000262492
0.00105334 8.81778e-05 1.21107e-05
8.81778e-05 -6.80361e-05 1.51915e-06
1.21107e-05 1.51915e-06 -0.000210534
0.00633784 0.000142691 -1.04622e-05
0.000142691 0.00361087 -1.74375e-06
-1.04622e-05 -1.74375e-06 0.00362818
0.000474071 8.9085e-05 1.97173e-05
8.9085e-05 -0.000164503 5.71578e-06
1.97173e-05 5.71578e-06 -0.000258365
0.00656573 0.000268147 0.000341486
0.000268147 0.00377086 3.45259e-05
0.000341486 3.45259e-05 0.0037742
0.00179015 -5.34987e-05 -0.000237349
-5.34987e-05 0.000760358 1.32168e-06
-0.000237349 1.32168e-06 0.000759258
0.00160581 3.12563e-05 -6.00334e-05
3.12563e-05 0.000535712 1.06852e-07
-6.00334e-05 1.06852e-07 0.000475134
0.000984295 2.56776e-05 1.258e-05
2.56776e-05 -0.000104379 7.03593e-07
1.258e-05 7.03593e-07 -0.000230767
0.00598873 -4.79246e-05 6.95134e-06
-4.79246e-05 0.00340212 2.55398e-06
6.95134e-06 2.55398e-06 0.00342204
0.000453401 -1.17793e-05 1.91266e-05
-1.17793e-05 -0.000174339 7.7465e-07
1.91266e-05 7.7465e-07 -0.000254272
0.0060507 -8.17641e-05 0.000316396
-8.17641e-05 0.00343855 -4.73771e-06
0.000316396 -4.73771e-06 0.0034592
0.00135328 2.19304e-05 -6.08892e-05
2.19304e-05 0.000515875 -1.0434e-06
-6.08892e-05 -1.0434e-06 0.000477576
0.00159431 1.86995e-05 -6.07571e-05
1.86995e-05 0.00053156 -1.34969e-06
-6.07571e-05 -1.34969e-06 0.000466618
0.00103968 5.44395e-05 1.22003e-05
5.44395e-05 -6.97769e-05 1.1698e-06
1.22003e-05 1.1698e-06 -0.000204614
0.00380126 6.75427e-05 0.000117621
6.75427e-05 0.00203025 3.48552e-06
0.000117621 3.48552e-06 0.00202251
0.000464445 6.86579e-05 1.99286e-05
6.86579e-05 -0.000169648 4.34072e-06
1.99286e-05 4.34072e-06 -0.000256807
0.00642425 0.000130586 0.000325269
0.000130586 0.00365659 2.0672e-05
0.000325269 2.0672e-05 0.0036776
0.00594269 -2.00064e-05 -8.86317e-06
-2.00064e-05 0.00337677 -3.12943e-06
-8.86317e-06 -3.12943e-06 0.00339543
0.000448157 5.02849e-05 2.07352e-05
5.02849e-05 -0.000188577 2.44886e-06
2.07352e-05 2.44886e-06 -0.000261509
0.00590106 3.78285e-05 0.000304406
3.78285e-05 0.00334332 2.22508e-07
0.000304406 2.22508e-07 0.0033669
0.00368395 3.20301e-05 0.000129703
3.20301e-05 0.00196209 5.05234e-06
0.000129703 5.05234e-06 0.0019563
0.000477289 8.91569e-06 1.90747e-05
8.91569e-06 -0.000161452 2.66697e-06
1.90747e-05 2.66697e-06 -0.000243009
0.00620547 1.98351e-07 0.000312264
1.98351e-07 0.0035225 9.16159e-06
0.000312264 9.16159e-06 0.00354523
0.00599146 -0.000118827 0.000302207
-0.000118827 0.00341131 -4.21173e-06
0.000302207 -4.21173e-06 0.00342553
0.00600599 8.39605e-06 0.000304346
8.39605e-06 0.00339928 5.26347e-06
0.000304346 5.26347e-06 0.00342497
