# vtk DataFile Version 2.0
Wound Healing Simulation
ASCII
DATASET UNSTRUCTURED_GRID
POINTS 3012 float
69.9759 18.75 4
67.2507 60.3285 4
69.976 18.75 2
73.0099 25.446 4
71.1327 20.9142 4
68.6801 16.6661 4
67.8228 19.9266 3.97603
67.2507 60.3286 2
71.1327 54.0858 4
68.6801 58.3339 4
65.6939 62.2254 4
65.3097 58.9998 3.97531
74.6784 42.3946 4
73.7221 47.2057 4
69.9759 18.75 0
73.0099 25.446 2
68.6801 16.6661 2
71.1327 20.9142 2
67.8233 19.93 2
74.6792 32.6053 4
73.7222 27.7943 4
72.1454 23.1494 4
70.612 26.2215 3.97599
68.8831 21.9582 3.97645
67.2507 14.6715 4
66.6342 17.9731 3.97486
65.7895 21.0288 3.96476
67.2507 60.3285 0
71.1327 54.0858 2
68.6801 58.3339 2
65.694 62.2255 2
65.3109 58.9948 2
72.1454 51.8506 4
69.9759 56.25 4
68.8336 53.1132 3.97584
64.0165 64.0165 4
66.608 57.1328 3.97572
63.8827 60.7637 3.97508
63.4937 57.7646 3.96633
60.3285 67.2507 4
74.6792 42.3947 2
73.7222 47.2057 2
74.9194 39.9526 4
74.2788 44.8158 4
72.1667 42.0857 3.97711
73.0099 49.554 4
71.2472 46.598 3.9757
73.0099 25.446 0
71.1327 20.9142 0
68.6801 16.6661 0
67.8228 19.9266 0.0239655
74.6792 32.6053 2
73.7222 27.7943 2
67.2508 14.6715 2
72.1455 23.1494 2
70.6117 26.2222 2
66.6351 17.9777 2
68.8833 21.9605 2
65.7884 21.0301 2
74.9197 35.0474 4
74.2794 30.1841 4
72.1834 32.9442 3.97731
71.2764 28.4322 3.97606
69.8132 24.0598 3.97641
68.3408 26.9543 3.96503
66.7554 22.9361 3.96453
65.694 12.7746 4
65.3204 16.1055 3.97389
64.7057 19.2004 3.96516
63.8138 22.064 3.96443
71.1327 54.0858 0
65.6939 62.2254 0
68.6801 58.3339 0
65.3097 58.9998 0.0246871
72.1455 51.8506 2
69.9759 56.25 2
68.8337 53.1109 2
64.0165 64.0165 2
66.6088 57.1284 2
63.8845 60.7585 2
63.4922 57.7641 2
62.2254 65.694 4
58.892 65.413 3.98438
69.7664 50.9891 3.97555
67.7809 55.167 3.97594
66.6415 52.2072 3.96462
62.3328 62.4244 3.97778
64.6533 56.0271 3.96578
62.1965 59.3922 3.96643
61.7843 56.6575 3.96225
58.3339 68.6801 4
60.3285 67.2508 2
73.7221 47.2057 0
74.6784 42.3946 0
74.9197 39.9526 2
74.2794 44.8159 2
72.166 42.0854 2
73.0099 49.554 2
71.2469 46.5975 2
75 37.5 4
72.4041 39.8026 3.97801
71.7808 44.3529 3.97673
69.7994 41.79 3.96722
70.5728 48.8135 3.97532
68.9061 46.014 3.96572
74.6792 32.6053 0
73.7222 27.7943 0
67.2507 14.6715 0
72.1454 23.1494 0
70.612 26.2215 0.0240119
68.8831 21.9582 0.0235493
66.6342 17.9731 0.0251408
65.7895 21.0288 0.0352405
74.9197 35.0474 2
74.2794 30.1841 2
72.1827 32.9445 2
71.276 28.4327 2
65.694 12.7745 2
65.3219 16.1108 2
69.8131 24.0611 2
68.3404 26.9552 2
64.7046 19.2015 2
66.7548 22.9372 2
63.8136 22.0646 2
72.4119 35.2249 3.97804
71.8023 30.6771 3.97698
69.8355 33.2709 3.9671
68.9606 29.041 3.96564
67.6048 24.9147 3.96477
66.1067 27.6573 3.96799
64.0165 10.9835 4
64.6749 23.8573 3.9657
63.8864 14.3303 3.97457
63.505 17.4563 3.96565
62.8392 20.3513 3.96274
61.937 23.0017 3.96801
60.6814 11.1014 3.97927
57.6066 11.4704 3.97022
72.1454 51.8506 0
69.9759 56.25 0
68.8336 53.1132 0.0241639
64.0165 64.0165 0
63.8827 60.7637 0.0249181
66.608 57.1328 0.0242753
63.4937 57.7646 0.0336748
62.2255 65.694 2
58.8945 65.4099 2
69.7661 50.9878 2
67.7814 55.1636 2
66.6406 52.2061 2
62.3354 62.42 2
64.652 56.0265 2
62.1944 59.3919 2
61.785 56.6579 2
60.6662 63.9739 3.98053
57.0232 66.7339 3.98747
57.5536 63.679 3.97142
67.4995 50.1751 3.96462
65.6944 54.1705 3.96512
64.4434 51.3578 3.96574
60.7677 60.9188 3.96875
62.7613 55.043 3.96372
60.6343 58.134 3.96108
60.2404 55.7407 3.96458
56.25 69.9759 4
58.3339 68.6801 2
60.3285 67.2507 0
58.9186 9.65897 3.98076
62.2254 9.30607 4
73.0099 49.554 0
74.2788 44.8158 0
71.2472 46.598 0.0243047
72.1667 42.0857 0.0228869
74.9194 39.9526 0
75 37.5 2
72.4039 39.8024 2
71.7806 44.3522 2
69.7986 41.7896 2
70.5724 48.813 2
68.9059 46.0133 2
72.4875 37.5126 3.97762
70.0369 39.6583 3.96761
69.4251 43.9072 3.96657
67.5099 41.4901 3.97124
68.2592 48.1059 3.96497
66.6073 45.4219 3.96966
74.9197 35.0474 0
74.2794 30.1841 0
72.1834 32.9442 0.0226878
71.2764 28.4322 0.0239413
65.694 12.7746 0
65.3204 16.1055 0.0261113
69.8132 24.0598 0.0235894
68.3408 26.9543 0.0349673
66.7554 22.9361 0.0354717
64.7057 19.2004 0.0348356
63.8138 22.064 0.035572
72.4118 35.2249 2
71.8022 30.6777 2
69.8347 33.2715 2
68.9604 29.0419 2
64.0165 10.9835 2
63.8885 14.3354 2
63.5036 17.4574 2
67.6044 24.9158 2
66.1062 27.658 2
62.8393 20.3517 2
64.6745 23.858 2
61.9362 23.0027 2
60.6838 11.1054 2
57.6076 11.4631 2
70.0537 35.394 3.96756
69.4622 31.1522 3.96633
67.5765 33.6016 3.97054
66.6834 29.6422 3.9687
65.4368 25.7247 3.96671
63.9498 28.3017 3.97427
62.3383 12.6589 3.97717
62.6846 24.693 3.97028
62.1914 15.8002 3.96689
61.7608 18.7171 3.9615
61.0728 21.4038 3.96529
60.1898 23.8141 3.97196
59.2402 12.8086 3.96806
55.8696 10.2509 3.97333
56.3948 13.1672 3.96869
69.7664 50.9891 0.0244498
62.2254 65.694 0
58.892 65.413 0.0156186
67.7809 55.167 0.0240583
66.6415 52.2072 0.0353765
62.3328 62.4244 0.0222152
62.1965 59.3922 0.0335749
64.6533 56.0271 0.0342221
61.7843 56.6575 0.0377521
60.6685 63.9708 2
57.0254 66.7325 2
57.5545 63.6817 2
67.4997 50.1742 2
65.6934 54.1697 2
64.4433 51.3574 2
60.7668 60.9204 2
62.7617 55.0431 2
60.6379 58.1355 2
60.2398 55.7405 2
55.0691 67.9312 3.98876
59.2133 62.3388 3.9694
55.8015 64.902 3.9767
56.3171 62.048 3.97015
65.2273 49.3821 3.96705
63.6257 53.2653 3.96454
62.2419 50.5961 3.96928
59.3196 59.529 3.96362
60.9472 54.2589 3.96675
59.2137 56.9639 3.96216
59.1109 55.1229 3.96739
48.1001 68.5751 3.98493
50.9469 69.9313 3.99027
54.0858 71.1327 4
56.25 69.976 2
58.3339 68.6801 0
57.0558 8.33838 3.98259
60.3285 7.74928 4
58.9214 9.66312 2
62.2255 9.30602 2
70.5728 48.8135 0.0246775
71.7808 44.3529 0.0232735
68.9061 46.014 0.034284
69.7994 41.79 0.0327846
72.4041 39.8026 0.0219927
75 37.5 0
72.4868 37.5125 2
70.0367 39.6581 2
69.4248 43.9067 2
67.5085 41.4899 2
68.2588 48.1051 2
66.6052 45.4214 2
70.125 37.523 3.96762
67.755 39.5098 3.97172
67.1263 43.4572 3.97029
65.3488 41.1907 3.97699
65.9619 47.3953 3.9685
64.4237 44.81 3.9751
72.4119 35.2249 0.0219589
71.8023 30.6771 0.0230166
69.8355 33.2709 0.0329042
68.9606 29.041 0.0343556
64.0165 10.9835 0
63.8864 14.3303 0.0254264
63.505 17.4563 0.0343486
67.6048 24.9147 0.0352268
66.1067 27.6573 0.0320117
64.6749 23.8573 0.034296
62.8392 20.3513 0.0372625
61.937 23.0017 0.0319896
60.6814 11.1014 0.0207336
57.6066 11.4704 0.0297813
70.0535 35.3943 2
69.4619 31.1529 2
67.5752 33.6019 2
66.6822 29.6428 2
62.3408 12.6635 2
62.1899 15.8008 2
61.7611 18.717 2
65.4363 25.7254 2
63.9477 28.3027 2
61.0717 21.4046 2
62.6834 24.6941 2
60.1889 23.8152 2
59.2408 12.8084 2
56.3961 13.1645 2
55.8714 10.2495 2
67.7944 35.5538 3.97131
67.1837 31.6374 3.96965
65.5051 33.9478 3.97714
64.4645 30.2313 3.97562
63.352 26.4661 3.97236
61.9611 28.8502 3.97615
60.7688 14.2457 3.96796
60.7871 25.4209 3.97455
60.5817 17.161 3.96124
60.0894 19.8824 3.96215
59.4354 22.3506 3.96776
58.6768 24.4322 3.9744
54.0345 9.1465 3.97415
57.898 14.3751 3.9668
54.7771 12.0596 3.96959
55.295 14.712 3.9671
67.4995 50.1751 0.0353805
57.0232 66.7339 0.0125338
60.6662 63.9739 0.0194674
57.5536 63.679 0.028576
65.6944 54.1705 0.0348782
64.4434 51.3578 0.0342552
60.7677 60.9188 0.0312546
60.6343 58.134 0.0389209
62.7613 55.043 0.0362842
60.2404 55.7407 0.0354172
55.0708 67.93 2
59.2136 62.3405 2
55.8019 64.9018 2
56.3158 62.0482 2
65.227 49.3816 2
63.6258 53.2651 2
62.2415 50.5955 2
59.3195 59.5307 2
60.9476 54.2587 2
59.2185 56.9648 2
59.114 55.123 2
53.0412 68.9993 3.99002
53.964 66.006 3.97937
57.8684 60.8347 3.96871
54.6762 63.1846 3.9715
55.1937 60.5657 3.96916
62.9786 48.6086 3.97131
61.5735 52.5207 3.96795
59.9747 49.9364 3.9717
57.982 58.2214 3.96184
59.1434 53.8774 3.96874
57.9733 55.7416 3.96293
50.1067 67.8531 3.98408
47.4612 66.5725 3.9801
46.054 69.1544 3.98568
48.1005 68.5755 2
48.8008 70.7226 3.99067
50.9482 69.9307 2
51.8506 72.1454 4
54.0858 71.1327 2
56.25 69.9759 0
55.1009 7.14248 3.98656
58.3339 6.31992 4
57.0589 8.34166 2
60.3286 7.74926 2
58.9186 9.65897 0.0192361
62.2254 9.30607 0
68.2592 48.1059 0.0350281
69.4251 43.9072 0.0334342
66.6073 45.4219 0.0303358
67.5099 41.4901 0.0287591
70.0369 39.6583 0.0323945
72.4875 37.5126 0.0223802
70.1243 37.5231 2
67.7533 39.5096 2
67.1256 43.4568 2
65.3457 41.1899 2
65.9614 47.3948 2
64.4216 44.8091 2
67.8559 37.524 3.97171
65.5875 39.362 3.97683
64.9646 42.9968 3.97674
63.4509 40.9032 3.97679
63.7344 46.6696 3.97314
62.4745 44.1564 3.97659
70.0537 35.394 0.0324418
69.4622 31.1522 0.0336657
67.5765 33.6016 0.0294581
66.6834 29.6422 0.0312973
62.3383 12.6589 0.02283
62.1914 15.8002 0.033106
61.7608 18.7171 0.0384967
65.4368 25.7247 0.0332857
63.9498 28.3017 0.0257342
62.6846 24.693 0.02972
61.0728 21.4038 0.0347113
60.1898 23.8141 0.0280402
59.2402 12.8086 0.0319407
56.3948 13.1672 0.0313063
55.8696 10.2509 0.026667
67.7924 35.554 2
67.1834 31.6379 2
65.5016 33.9487 2
64.4622 30.2322 2
60.7685 14.2462 2
60.5811 17.1606 2
60.088 19.8831 2
63.3502 26.4671 2
61.9587 28.8512 2
59.4373 22.3511 2
60.7854 25.422 2
58.6762 24.4334 2
57.8969 14.3749 2
55.2956 14.7097 2
54.0365 9.1463 2
54.7778 12.0564 2
65.6859 35.6786 3.97697
64.985 32.1846 3.97651
64.0143 34.2763 3.97687
62.2783 30.6963 3.9762
61.3703 27.1512 3.9758
60.4867 29.2293 3.97641
59.2945 15.7047 3.96241
58.9937 25.9092 3.97609
59.0357 18.418 3.96084
58.5391 20.9492 3.96344
57.9951 23.2102 3.96931
57.6354 24.7934 3.97506
52.1097 8.16191 3.97774
53.0502 11.0488 3.971
56.6533 15.8003 3.96284
53.7921 13.7486 3.96604
54.3402 16.0766 3.96148
55.0691 67.9312 0.011238
65.2273 49.3821 0.0329476
55.8015 64.902 0.0233023
59.2133 62.3388 0.0305984
56.3171 62.048 0.0298504
63.6257 53.2653 0.0354631
62.2419 50.5961 0.0307157
59.3196 59.529 0.0363841
59.2137 56.9639 0.0378446
60.9472 54.2589 0.0332462
59.1109 55.1229 0.0326128
53.0427 68.9987 2
53.9647 66.0062 2
57.8668 60.8355 2
54.6757 63.186 2
55.1915 60.5659 2
62.9775 48.6078 2
61.5736 52.5203 2
59.9757 49.9358 2
57.979 58.222 2
59.147 53.8774 2
57.9699 55.74 2
52.0679 66.9954 3.98272
52.9488 64.2047 3.97635
56.6268 59.4475 3.96843
53.6656 61.5767 3.97153
54.2318 59.2704 3.97504
60.6519 47.7992 3.97303
59.458 52.0254 3.96969
57.6464 49.5083 3.97335
56.6983 56.9282 3.96408
56.8916 54.0313 3.96651
50.1071 67.8531 2
49.3349 65.9128 3.98008
47.4613 66.5727 2
46.8894 64.7227 3.97886
45.5565 67.0898 3.98054
43.9715 69.5863 3.9865
46.0544 69.1546 2
46.6072 71.367 3.991
48.1001 68.5751 0.0150665
48.802 70.7224 2
49.554 73.0099 4
50.9469 69.9313 0.0097312
51.8506 72.1455 2
54.0858 71.1327 0
53.0631 6.07309 3.98917
55.104 7.14381 2
56.25 5.02411 4
58.3339 6.3199 2
57.0558 8.33838 0.0174086
60.3285 7.74928 0
65.9619 47.3953 0.0314998
67.1263 43.4572 0.0297131
64.4237 44.81 0.0249041
65.3488 41.1907 0.0230067
67.755 39.5098 0.0282794
70.125 37.523 0.0323762
67.8545 37.524 2
65.5842 39.3616 2
64.9613 42.9958 2
63.4494 40.9029 2
63.7327 46.6687 2
62.4726 44.1554 2
65.6961 37.5041 3.97682
63.6005 39.2551 3.97679
63.0063 42.5088 3.9766
62.0531 40.6641 3.9766
61.6193 45.8477 3.97514
61.0346 43.614 3.97634
67.7944 35.5538 0.0286897
67.1837 31.6374 0.0303471
65.5051 33.9478 0.0228552
64.4645 30.2313 0.0243843
60.7688 14.2457 0.0320412
60.5817 17.161 0.0387627
60.0894 19.8824 0.037851
63.352 26.4661 0.0276435
61.9611 28.8502 0.0238541
60.7871 25.4209 0.0254511
59.4354 22.3506 0.0322364
58.6768 24.4322 0.0255957
57.898 14.3751 0.0332046
55.295 14.712 0.0328988
54.0345 9.1465 0.0258546
54.7771 12.0596 0.030415
65.6825 35.6791 2
64.9817 32.1855 2
64.0123 34.2769 2
62.2763 30.6967 2
59.293 15.7041 2
59.0414 18.4165 2
58.5398 20.95 2
61.3687 27.1523 2
60.4857 29.2298 2
57.9892 23.2125 2
58.9928 25.9106 2
57.6403 24.7954 2
56.6514 15.7995 2
54.3439 16.0736 2
53.7912 13.7394 2
52.1115 8.16169 2
53.0513 11.0468 2
63.809 35.6479 3.97667
62.6006 33.0893 3.97645
60.2035 30.6962 3.9761
59.189 28.0202 3.97617
57.8969 17.0405 3.96005
57.3551 25.8658 3.97605
57.5625 19.5678 3.96027
57.0992 21.9647 3.96366
56.8274 24.0896 3.97028
50.1108 7.29101 3.98289
51.2273 10.1433 3.97422
52.1568 12.8485 3.97184
55.4927 17.0478 3.95964
52.9485 15.3456 3.9639
53.7084 17.0725 3.95946
53.0412 68.9993 0.00997547
53.964 66.006 0.0206275
62.9786 48.6086 0.0286915
54.6762 63.1846 0.0284952
57.8684 60.8347 0.031287
55.1937 60.5657 0.0308416
61.5735 52.5207 0.0320491
59.9747 49.9364 0.0282996
57.982 58.2214 0.0381626
57.9733 55.7416 0.0370744
59.1434 53.8774 0.0312593
52.0685 66.9959 2
52.9483 64.2054 2
56.6251 59.4483 2
53.6641 61.5793 2
54.2292 59.2711 2
60.6515 47.7983 2
59.4588 52.0248 2
57.6441 49.507 2
56.6949 56.9314 2
56.8886 54.0297 2
51.1653 65.1179 3.97866
52.0354 62.5176 3.97327
55.4375 58.2003 3.96352
52.8056 60.0699 3.97074
53.5991 58.4172 3.96807
57.8346 46.7317 3.97586
57.2494 51.6844 3.96994
55.7987 49.4263 3.97246
55.3474 55.7164 3.9647
55.0828 53.2804 3.96304
50.1067 67.8531 0.0159204
49.3348 65.9126 2
48.614 64.1099 3.97895
47.4612 66.5725 0.0199019
45.5566 67.0902 2
46.8899 64.7225 2
46.3762 63.0361 3.98229
45.1306 65.1835 3.97835
43.63 67.4613 3.98206
41.8593 69.8733 3.98614
43.9718 69.5868 2
44.3744 71.8616 3.99126
46.054 69.1544 0.0143171
46.6082 71.3669 2
47.2057 73.7222 4
48.8008 70.7226 0.00932795
49.554 73.0099 2
51.8506 72.1454 0
50.9539 5.13363 3.99072
53.0655 6.07403 2
54.0858 3.86728 4
55.1009 7.14248 0.013435
56.25 5.02406 2
58.3339 6.31992 0
63.7344 46.6696 0.0268616
64.9646 42.9968 0.0232595
62.4745 44.1564 0.0234088
63.4509 40.9032 0.0232054
65.5875 39.362 0.0231658
67.8559 37.524 0.0282939
65.6925 37.5042 2
63.5992 39.2551 2
63.0049 42.5083 2
62.0533 40.6639 2
61.6176 45.8467 2
61.0335 43.6138 2
63.6642 37.4582 3.97672
61.7632 39.3358 3.9768
60.7799 41.9025 3.97664
59.8 44.675 3.97662
65.6859 35.6786 0.0230274
64.985 32.1846 0.0234947
64.0143 34.2763 0.0231256
62.2783 30.6963 0.0237985
59.2945 15.7047 0.0375884
59.0357 18.418 0.0391601
58.5391 20.9492 0.0365582
61.3703 27.1512 0.0242047
60.4867 29.2293 0.0235852
58.9937 25.9092 0.0239069
57.9951 23.2102 0.0306871
57.6354 24.7934 0.0249371
56.6533 15.8003 0.0371594
54.3402 16.0766 0.0385199
53.7921 13.7486 0.0339634
52.1097 8.16191 0.0222626
53.0502 11.0488 0.0289994
63.8077 35.648 2
62.6002 33.0899 2
60.2037 30.6965 2
57.894 17.0407 2
57.5749 19.5642 2
57.0943 21.967 2
59.1876 28.021 2
56.8428 24.0908 2
57.3559 25.8691 2
50.1125 7.28937 2
55.4926 17.0464 2
53.7131 17.0649 2
52.9483 15.3383 2
52.1577 12.8526 2
51.2287 10.1412 2
61.8053 35.3815 3.97645
59.8261 32.8107 3.97621
58.1326 30.1858 3.97599
56.84 27.5308 3.97663
56.5539 18.2368 3.96087
55.8837 25.265 3.97526
56.1582 20.6391 3.96084
55.7759 23.0193 3.96384
48.056 6.53071 3.98706
49.322 9.34387 3.9772
50.4222 12.0307 3.9738
51.3514 14.5632 3.96567
54.3386 18.0164 3.9598
52.3175 17.1443 3.95926
52.0679 66.9954 0.0172782
52.9488 64.2047 0.0236505
60.6519 47.7992 0.0269702
53.6656 61.5767 0.0284712
56.6268 59.4475 0.0315747
54.2318 59.2704 0.0249606
59.458 52.0254 0.0303124
57.6464 49.5083 0.0266482
56.6983 56.9282 0.0359176
56.8916 54.0313 0.0334851
51.1651 65.1186 2
52.0341 62.5191 2
55.436 58.2008 2
52.8042 60.0734 2
53.5974 58.419 2
57.8337 46.7307 2
57.246 51.6829 2
55.7922 49.4243 2
55.3452 55.7162 2
55.0838 53.2804 2
50.3402 63.3668 3.97975
51.223 60.8904 3.97483
54.1529 57.209 3.96792
52.2577 58.5676 3.9707
56.0729 44.0463 3.97668
54.9568 47.7517 3.97459
54.6761 51.2652 3.96568
53.8191 54.4557 3.96558
49.3349 65.9128 0.0199248
48.6142 64.1091 2
47.9529 62.4581 3.98041
45.5565 67.0898 0.0194573
46.8894 64.7227 0.0211408
43.63 67.462 2
46.3764 63.0359 2
45.1311 65.1837 2
45.9787 61.5659 3.989
44.7633 63.4343 3.97764
43.3559 65.4947 3.97881
41.6624 67.6796 3.98168
39.7016 70.0191 3.98563
41.8595 69.8739 2
42.109 72.206 3.99166
43.9715 69.5863 0.0135037
44.3753 71.8616 2
44.8159 74.2794 4
46.6072 71.367 0.00899848
47.2057 73.7222 2
49.554 73.0099 0
48.7852 4.32385 3.9918
50.9556 5.13346 2
51.8506 2.85458 4
53.0631 6.07309 0.0108344
54.0858 3.86728 2
56.25 5.02411 0
61.6193 45.8477 0.0248607
63.0063 42.5088 0.0233956
61.0346 43.614 0.0236599
62.0531 40.6641 0.023396
63.6005 39.2551 0.0232083
65.6961 37.5041 0.023182
63.663 37.4581 2
61.7639 39.336 2
60.7807 41.9024 2
59.7998 44.6742 2
61.5931 37.4443 3.97691
59.7416 39.811 3.97684
58.4313 42.8313 3.97624
63.809 35.6479 0.0233345
62.6006 33.0893 0.0235466
60.2035 30.6962 0.0238987
57.8969 17.0405 0.039951
57.5625 19.5678 0.0397329
57.0992 21.9647 0.0363449
59.189 28.0202 0.023827
57.3551 25.8658 0.023953
56.8274 24.0896 0.0297176
55.4927 17.0478 0.0403605
53.7084 17.0725 0.0405445
52.9485 15.3456 0.0361023
50.1108 7.29101 0.0171148
52.1568 12.8485 0.028156
51.2273 10.1433 0.0257789
61.8061 35.3817 2
59.8264 32.8106 2
58.1336 30.1852 2
56.5565 18.2356 2
56.1725 20.6335 2
55.7817 23.0247 2
56.8395 27.5322 2
55.8857 25.2697 2
48.057 6.52968 2
49.3233 9.34238 2
54.3485 18.0144 2
52.3116 17.134 2
51.3487 14.5622 2
50.4237 12.0301 2
59.3785 35.1522 3.97657
57.41 32.3594 3.97566
56.0027 29.4854 3.97631
54.9433 26.7929 3.97567
55.2253 19.2906 3.96196
54.5539 24.2353 3.96979
54.7513 21.7046 3.96013
45.9625 5.88496 3.9886
43.3742 7.47827 3.9844
47.3544 8.63098 3.98161
48.5929 11.3158 3.97416
49.6906 13.7874 3.97017
50.5925 16.2129 3.9648
53.0311 18.7809 3.96179
51.2391 18.1925 3.96505
51.1653 65.1179 0.0213388
52.0354 62.5176 0.0267299
57.8346 46.7317 0.0241376
52.8056 60.0699 0.029258
55.4375 58.2003 0.036484
53.5991 58.4172 0.0319332
57.2494 51.6844 0.030058
55.7987 49.4263 0.0275364
55.3474 55.7164 0.0352973
55.0828 53.2804 0.0369619
50.3397 63.3661 2
51.2212 60.889 2
54.1516 57.21 2
52.2559 58.569 2
56.0736 44.0456 2
54.9535 47.7502 2
54.6744 51.264 2
53.8189 54.4572 2
49.5784 61.729 3.9763
54.8299 41.6387 3.97409
50.5244 59.2787 3.96969
52.0799 56.4222 3.96809
53.4896 45.3911 3.97414
52.8243 49.1813 3.96964
52.3709 52.7435 3.96061
48.614 64.1099 0.0210455
47.9524 62.4563 2
47.3135 60.9891 3.9896
43.63 67.4613 0.0179408
45.1306 65.1835 0.0216487
46.3762 63.0361 0.0177123
41.6627 67.6794 2
43.3565 65.4954 2
45.9774 61.5665 2
44.7638 63.4345 2
45.7488 60.6114 3.98749
44.4777 61.8098 3.97957
43.1445 63.709 3.97838
41.5456 65.6325 3.9775
39.632 67.7568 3.98097
37.5259 70.0433 3.98444
39.7017 70.0193 2
39.8163 72.4025 3.9915
41.8593 69.8733 0.0138634
42.1097 72.2063 2
42.3947 74.6792 4
44.3744 71.8616 0.00874315
44.8159 74.2794 2
47.2057 73.7222 0
43.8518 5.36195 3.98778
46.5713 3.64831 3.99216
48.7861 4.32363 2
49.554 1.99015 4
50.9539 5.13363 0.00928113
51.8506 2.85453 2
54.0858 3.86728 0
59.8 44.675 0.0233819
60.7799 41.9025 0.0233585
61.7632 39.3358 0.0232032
63.6642 37.4582 0.0232783
61.5936 37.4443 2
59.7425 39.8108 2
58.4316 42.8311 2
59.2327 37.5656 3.97724
57.362 40.5972 3.97716
54.231 39.6517 3.97515
61.8053 35.3815 0.0235533
59.8261 32.8107 0.0237948
58.1326 30.1858 0.0240106
56.5539 18.2368 0.0391306
56.1582 20.6391 0.0391628
55.7759 23.0193 0.0361638
56.84 27.5308 0.0233704
55.8837 25.265 0.0247406
54.3386 18.0164 0.0402031
52.3175 17.1443 0.0407411
51.3514 14.5632 0.0343252
48.056 6.53071 0.0129385
49.322 9.34387 0.0227976
50.4222 12.0307 0.0261974
59.3794 35.1518 2
45.9631 5.88359 2
43.3746 7.47641 2
57.4111 32.3597 2
56.0025 29.4847 2
55.2158 19.295 2
54.7762 21.7072 2
54.5493 24.2401 2
54.9409 26.7955 2
47.3557 8.62855 2
48.5944 11.315 2
53.0399 18.7594 2
51.2453 18.1894 2
50.5904 16.2133 2
49.6896 13.7896 2
56.7395 34.8056 3.97711
55.0706 31.6383 3.97566
53.9223 28.5929 3.97706
53.3208 25.7105 3.97503
53.8176 20.2587 3.96115
53.2922 22.8935 3.95615
41.3998 7.08309 3.98376
45.3602 7.99796 3.98705
42.8663 9.42366 3.97911
46.6644 10.6652 3.97982
47.7268 13.1296 3.97509
48.8965 15.461 3.96947
49.9428 17.7775 3.95964
51.5442 19.4755 3.97059
50.3402 63.3668 0.0202515
51.223 60.8904 0.0251654
56.0729 44.0463 0.0233213
54.9568 47.7517 0.0254132
52.2577 58.5676 0.0293
54.1529 57.209 0.0320776
54.6761 51.2652 0.034322
53.8191 54.4557 0.0344247
49.5768 61.7278 2
54.8198 41.6344 2
50.5225 59.2796 2
52.0822 56.4247 2
53.4855 45.3887 2
52.8246 49.1798 2
52.372 52.7431 2
48.82 60.181 3.97653
51.5984 42.5061 3.9833
49.7151 57.5756 3.96624
50.4004 54.3508 3.96192
51.1637 47.0983 3.97502
50.8168 50.8198 3.95487
47.2801 43.579 3.97514
47.9529 62.4581 0.0195865
47.3116 60.9876 2
46.592 59.7791 3.99416
41.6624 67.6796 0.0183216
43.3559 65.4947 0.0211878
44.7633 63.4343 0.0223586
45.9787 61.5659 0.0110021
39.6325 67.7575 2
41.5461 65.631 2
45.748 60.6117 2
43.1446 63.7088 2
44.476 61.8113 2
44.6054 60.2679 3.99517
42.9459 62.0609 3.97481
41.5996 63.8022 3.97747
39.6469 65.5966 3.97653
37.5632 67.7371 3.97898
31.698 65.1136 3.97657
33.3928 67.4751 3.97885
35.334 69.9537 3.98458
37.5257 70.0446 2
37.509 72.4568 3.99198
39.7016 70.0191 0.0143736
39.8167 72.4027 2
39.9526 74.9197 4
42.109 72.206 0.00833611
42.3947 74.6792 2
44.8159 74.2794 0
41.7365 4.97018 3.98824
43.8522 5.36044 2
44.3268 3.1114 3.99259
46.572 3.64786 2
47.2057 1.27793 4
48.7852 4.32385 0.00820099
49.554 1.99013 2
51.8506 2.85458 0
58.4313 42.8313 0.0237597
59.7416 39.811 0.0231641
61.5931 37.4443 0.0230939
59.234 37.5665 2
57.3616 40.5987 2
54.2215 39.6582 2
56.0982 37.8776 3.97677
48.6258 41.2268 3.97334
52.1909 39.2914 3.98309
39.4435 6.80626 3.98488
59.3785 35.1522 0.0234256
57.41 32.3594 0.024341
56.0027 29.4854 0.0236946
55.2253 19.2906 0.0380388
54.7513 21.7046 0.0398702
54.5539 24.2353 0.030211
54.9433 26.7929 0.0243325
53.0311 18.7809 0.0382117
51.2391 18.1925 0.034946
50.5925 16.2129 0.0352011
45.9625 5.88496 0.0113987
49.6906 13.7874 0.0298316
47.3544 8.63098 0.0183912
48.5929 11.3158 0.025837
43.3742 7.47827 0.0155986
56.7392 34.8066 2
41.4001 7.08313 2
45.3607 7.99595 2
42.8672 9.42195 2
55.073 31.6364 2
53.921 28.5936 2
53.8213 20.2751 2
53.2813 22.8932 2
53.318 25.7105 2
46.6657 10.6611 2
47.7269 13.1264 2
51.5621 19.476 2
49.9425 17.7789 2
48.8911 15.4715 2
54.0528 34.0038 3.97493
52.7815 30.6877 3.97569
52.029 27.4408 3.97484
51.8015 24.3315 3.97868
52.2129 21.2185 3.9736
41.0133 9.05703 3.97773
44.7262 9.99842 3.98579
42.4625 10.9077 3.99947
45.9895 12.7415 3.97131
47.6517 14.6348 3.96811
48.0501 17.0372 3.9655
49.7456 19.8615 3.97545
49.5784 61.729 0.0237023
50.5244 59.2787 0.030308
54.8299 41.6387 0.0259113
53.4896 45.3911 0.0258603
52.8243 49.1813 0.0303617
52.0799 56.4222 0.0319136
52.3709 52.7435 0.0393862
48.8172 60.1789 2
51.6134 42.5187 2
49.7133 57.5757 2
50.4003 54.3521 2
51.1655 47.0967 2
50.8188 50.8193 2
47.2938 43.6125 2
47.9372 58.7032 3.9814
49.2651 45.1171 3.98082
48.4742 55.8639 3.95991
48.8609 52.5044 3.97609
49.1798 48.8998 3.97075
45.0247 39.7919 3.85524
45.5135 42.4934 3.89376
45.7761 45.58 3.98321
42.8524 41.0116 3.67924
41.5706 41.8093 3.48158
47.3135 60.9891 0.0104038
46.59 59.776 2
45.4309 58.7796 3.99481
39.632 67.7568 0.019027
41.5456 65.6325 0.022498
43.1445 63.709 0.0216247
44.4777 61.8098 0.0204313
45.7488 60.6114 0.0125065
41.5996 63.8009 2
37.5634 67.7385 2
39.6476 65.5975 2
44.6055 60.2689 2
42.944 62.0611 2
41.7491 62.4682 3.97696
42.4675 59.9537 3.98095
39.8943 63.5332 3.97606
37.6419 65.4922 3.97584
35.4636 67.6466 3.97874
33.5759 65.3253 3.97509
31.9604 63.2768 3.97626
29.8856 64.7046 3.98029
31.6977 65.1141 2
31.3778 67.1858 3.97932
33.3925 67.4761 2
33.1576 69.7473 3.98465
35.3335 69.9548 2
35.1957 72.3714 3.99199
37.5259 70.0433 0.015558
37.5091 72.4574 2
37.5 75 4
39.8163 72.4025 0.00850315
39.9526 74.9197 2
42.3947 74.6792 0
39.6245 4.71795 3.98934
41.7368 4.96993 2
42.0633 2.71843 3.99299
43.8518 5.36195 0.0122196
44.327 3.11061 2
44.8158 0.721173 4
46.5713 3.64831 0.00784114
47.2057 1.27779 2
49.554 1.99015 0
57.362 40.5972 0.022841
59.2327 37.5656 0.0227609
54.231 39.6517 0.0248545
48.6509 41.2376 2
56.0984 37.8748 2
52.1865 39.2563 2
53.0508 36.6161 3.97795
46.5555 40.3076 3.89721
49.5709 38.5072 3.98449
37.5174 6.67627 3.98547
39.4443 6.8047 2
39.211 8.69795 3.982
35.9433 8.49681 3.98392
56.7395 34.8056 0.0228918
55.0706 31.6383 0.0243392
53.9223 28.5929 0.0229415
53.8176 20.2587 0.0388543
53.2922 22.8935 0.0438548
53.3208 25.7105 0.0249708
51.5442 19.4755 0.029406
49.9428 17.7775 0.0403571
48.8965 15.461 0.0305301
45.3602 7.99796 0.0129459
47.7268 13.1296 0.0249079
46.6644 10.6652 0.0201836
41.3998 7.08309 0.0162408
42.8663 9.42366 0.0208918
54.052 34.0027 2
41.0147 9.05904 2
44.7268 9.99656 2
42.4639 10.9083 2
52.7765 30.6853 2
52.036 27.4413 2
52.2125 21.2253 2
51.7922 24.3364 2
45.9896 12.7354 2
47.6454 14.6087 2
49.762 19.8501 2
48.0467 17.0443 2
51.5602 32.9162 3.98238
50.61 29.401 3.97752
50.3269 25.9432 3.97058
49.774 22.4573 3.98493
40.5644 11.6191 3.98265
43.8458 11.9123 3.97977
45.7684 15.4735 3.98787
47.4478 19.473 3.97866
45.4851 37.4814 3.85198
48.82 60.181 0.0234697
49.7151 57.5756 0.0337646
51.5984 42.5061 0.0167012
51.1637 47.0983 0.0249751
50.8168 50.8198 0.0451309
50.4004 54.3508 0.0380754
47.2801 43.579 0.0248573
47.935 58.7064 2
49.2821 45.1317 2
48.4701 55.8661 2
48.8599 52.5074 2
49.1822 48.9009 2
45.1112 39.811 2
45.5437 42.52 2
45.7832 45.5961 2
42.898 41.0585 2
41.6064 41.8343 2
46.7651 57.3094 3.97852
43.5779 39.3492 3.67923
41.9428 40.736 3.49886
47.4455 47.147 3.98369
46.9941 54.1724 3.96051
47.242 50.6494 3.97838
44.3012 47.2066 3.98133
44.1636 41.8312 3.85246
44.2685 44.3162 3.89261
41.8742 42.4361 3.72003
40.5876 42.1045 3.46952
46.592 59.7791 0.00584334
45.4312 58.7775 2
43.8386 57.6679 3.98245
37.5632 67.7371 0.0210246
39.6469 65.5966 0.0234746
41.5996 63.8022 0.0225346
42.9459 62.0609 0.025186
44.6054 60.2679 0.00482961
35.4637 67.648 2
41.7478 62.4712 2
39.8937 63.5337 2
37.6423 65.4936 2
42.4695 59.9514 2
40.6198 61.6106 3.98065
40.4315 58.1324 3.98285
37.8375 63.1886 3.97314
35.573 65.4145 3.97621
33.576 65.3264 2
31.9612 63.2791 2
33.6294 63.3165 3.97463
30.38 62.8388 3.98063
32.1283 61.9797 3.98694
26.8804 61.462 3.97865
28.0663 64.1338 3.97873
29.8847 64.706 2
29.4078 66.7493 3.98011
31.698 65.1136 0.0234322
31.3775 67.1863 2
31.0154 69.4129 3.98458
33.3928 67.4751 0.0211451
33.1569 69.7481 2
32.8937 72.1458 3.99143
35.334 69.9537 0.0154181
35.1953 72.3721 2
35.0474 74.9194 4
37.509 72.4568 0.00801606
37.5 75 2
39.9526 74.9197 0
35.622 6.7278 3.98488
37.5243 4.61702 3.98964
39.6248 4.71651 2
39.7898 2.47517 3.99307
41.7365 4.97018 0.0117583
42.0632 2.71816 2
42.3946 0.32156 4
44.3268 3.1114 0.0074129
44.8159 0.72056 2
47.2057 1.27793 0
48.6258 41.2268 0.0266611
56.0982 37.8776 0.0232272
52.1909 39.2914 0.0169062
46.5779 40.3106 2
49.5701 38.5054 2
53.0494 36.6413 2
50.3753 35.5656 3.97397
47.2211 37.7628 3.9073
45.0472 35.1807 3.85425
42.8926 33.9445 3.67669
41.604 33.1522 3.48004
37.4586 8.53697 3.98463
37.5182 6.67561 2
39.4435 6.80626 0.0151197
39.2132 8.69595 2
38.9759 10.1343 3.98404
35.8997 9.77955 3.97972
34.1534 8.82911 3.98193
35.9444 8.49403 2
54.0528 34.0038 0.0250685
52.7815 30.6877 0.024307
52.029 27.4408 0.0251622
52.2129 21.2185 0.0263991
51.8015 24.3315 0.0213198
49.7456 19.8615 0.0245477
48.0501 17.0372 0.034505
47.6517 14.6348 0.0318948
44.7262 9.99842 0.0142108
45.9895 12.7415 0.0286946
41.0133 9.05703 0.0222668
42.4625 10.9077 0.000527896
51.5706 32.9138 2
40.567 11.6238 2
43.8446 11.9103 2
50.6287 29.3993 2
50.3225 25.9466 2
49.7645 22.4519 2
45.7581 15.4241 2
47.45 19.5015 2
49.143 31.5446 3.98665
48.7043 27.7121 3.97719
49.0665 24.5933 3.9786
47.0836 22.2365 3.98986
38.2997 12.7497 3.97699
42.0849 14.3147 3.97929
44.7594 18.601 3.97606
44.0005 37.4855 3.69116
45.5805 37.486 2
47.9372 58.7032 0.0186032
48.4742 55.8639 0.0400915
49.2651 45.1171 0.0191788
49.1798 48.8998 0.0292515
48.8609 52.5044 0.0239128
45.0247 39.7919 0.144759
45.5135 42.4934 0.106243
45.7761 45.58 0.0167923
42.8524 41.0116 0.320761
41.5706 41.8093 0.518421
46.7624 57.3124 2
43.6437 39.3756 2
41.9486 40.7501 2
47.4525 47.143 2
46.989 54.176 2
47.242 50.6558 2
44.3351 47.1998 2
44.214 41.8648 2
44.3182 44.3456 2
41.9301 42.4892 2
40.6189 42.1178 2
45.2994 55.8912 3.99918
42.287 39.2084 3.50914
40.476 40.6145 3.61432
45.6558 48.7903 4.00236
45.2873 52.4372 3.98348
43.0449 48.2014 3.9941
42.9458 45.8458 3.88506
43.037 43.5953 3.8336
40.6955 43.4468 3.69913
39.1735 42.3626 3.51316
45.4309 58.7796 0.0051872
43.8367 57.6743 2
42.0624 56.2554 3.98647
35.4636 67.6466 0.0212625
37.6419 65.4922 0.0241636
39.8943 63.5332 0.0239435
41.7491 62.4682 0.0230438
42.4675 59.9537 0.0190483
35.5735 65.4162 2
40.6198 61.6099 2
37.8377 63.1891 2
40.4317 58.1365 2
38.9087 56.4018 3.99351
38.2479 60.2942 3.98017
35.6073 63.1828 3.9732
33.5759 65.3253 0.0249146
31.9604 63.2768 0.0237409
33.6303 63.3178 2
30.3804 62.8406 2
32.1295 61.9817 2
28.6878 62.176 3.98002
33.348 61.4859 3.97825
31.0771 61.2037 3.98122
27.5918 59.5537 3.97995
23.8262 59.0368 3.99216
25.0498 60.8324 3.97711
26.881 61.4625 2
26.2354 63.4629 3.97656
28.0656 64.1323 2
27.4649 66.1736 3.9797
29.8856 64.7046 0.0197134
29.4071 66.7494 2
28.9081 68.9383 3.98395
31.3778 67.1858 0.0206775
31.0146 69.413 2
30.6166 71.7773 3.99092
33.1576 69.7473 0.0153508
32.8929 72.1462 2
32.6054 74.6784 4
35.1957 72.3714 0.00800549
35.0474 74.9197 2
37.5 75 0
33.7252 6.98416 3.98359
35.4364 4.68724 3.98932
35.6226 6.72637 2
37.5155 2.38753 3.99319
37.5245 4.61635 2
39.6245 4.71795 0.0106648
39.7896 2.47439 2
39.9526 0.0806499 4
42.0633 2.71843 0.00700647
42.3947 0.320817 2
44.8158 0.721173 0
43.5935 35.6219 3.68287
41.9637 34.221 3.48784
46.5555 40.3076 0.102794
49.5709 38.5072 0.0155066
53.0508 36.6161 0.0220544
47.2158 37.737 2
50.3844 35.56 2
45.1224 35.1592 2
42.9344 33.8998 2
41.6321 33.1267 2
47.4171 34.3419 3.94401
44.2137 33.1311 3.8362
41.923 32.5282 3.71855
40.6161 32.8673 3.46866
37.3116 10.6343 3.98114
37.4604 8.53642 2
37.5174 6.67627 0.014529
39.211 8.69795 0.018
38.9795 10.1325 2
34.7564 10.3894 3.98045
35.9016 9.77401 2
32.3803 9.37543 3.97797
34.1526 8.82443 2
35.9433 8.49681 0.0160832
51.5602 32.9162 0.0176248
50.61 29.401 0.0224804
50.3269 25.9432 0.0294219
49.774 22.4573 0.0150654
47.4478 19.473 0.021343
45.7684 15.4735 0.0121301
43.8458 11.9123 0.0202331
40.5644 11.6191 0.0173535
49.1628 31.5328 2
38.3008 12.7446 2
42.0899 14.3264 2
48.7077 27.7148 2
49.0602 24.5945 2
47.0689 22.2328 2
44.762 18.6644 2
47.0519 29.7024 3.98434
46.7487 25.319 3.97057
44.2146 21.6063 3.97959
36.586 12.9626 3.97409
38.68 14.8622 3.97444
41.7286 17.9402 3.97912
42.4472 37.4679 3.54562
44.0577 37.4861 2
45.4851 37.4814 0.148016
46.7651 57.3094 0.0214836
46.9941 54.1724 0.0394911
47.4455 47.147 0.0163051
47.242 50.6494 0.0216201
43.5779 39.3492 0.320766
44.1636 41.8312 0.147536
44.2685 44.3162 0.10739
44.3012 47.2066 0.0186686
41.8742 42.4361 0.279975
41.9428 40.736 0.501139
40.5876 42.1045 0.530477
45.2958 55.8932 2
42.289 39.2146 2
40.5073 40.5998 2
45.6545 48.8076 2
45.2823 52.4392 2
43.0799 48.2184 2
43.0024 45.8934 2
43.0883 43.6277 2
40.7363 43.511 2
39.1711 42.3776 2
43.624 54.3542 3.99383
40.58 39.0564 3.63281
39.0682 40.6887 3.58372
43.3736 50.2876 4.00358
41.6821 47.3549 3.92697
41.5946 44.9399 3.84551
39.3403 44.0994 3.66463
37.4987 42.4746 3.55332
43.8386 57.6679 0.0175478
42.0657 56.2469 2
40.3759 54.8156 3.995
35.573 65.4145 0.0237929
37.8375 63.1886 0.0268589
40.6198 61.6106 0.0193515
40.4315 58.1324 0.017153
35.6078 63.1822 2
38.2469 60.2962 2
38.9107 56.3887 2
37.9837 55.0836 3.99487
36.9314 57.5873 3.99152
35.3648 60.8864 3.9791
33.6294 63.3165 0.0253743
30.38 62.8388 0.0193716
32.1283 61.9797 0.0130587
33.3489 61.4861 2
28.6882 62.1792 2
31.0783 61.2074 2
29.4204 60.2568 3.97591
32.3686 59.7045 3.99202
28.0622 58.3388 4.00977
27.5937 59.5534 2
25.4143 58.5549 3.98043
22.811 58.1914 3.96798
23.4196 60.3019 3.97842
23.8281 59.0368 2
25.0508 60.8314 2
24.4411 62.7462 3.977
26.8804 61.462 0.0213478
26.2357 63.4634 2
25.55 65.4815 3.97835
28.0663 64.1338 0.0212676
27.4643 66.1736 2
26.8378 68.3268 3.98399
29.4078 66.7493 0.0198929
28.9071 68.9381 2
28.3719 71.2626 3.99023
31.0154 69.4129 0.01542
30.6156 71.7772 2
30.1842 74.2788 4
32.8937 72.1458 0.00857329
32.6053 74.6792 2
35.0474 74.9194 0
31.7897 7.42342 3.98207
33.349 4.92717 3.98828
33.725 6.9813 2
35.2459 2.46348 3.99321
35.4365 4.68652 2
35.622 6.7278 0.0151233
37.5 0 4
37.5151 2.38714 2
37.5243 4.61702 0.0103564
39.7898 2.47517 0.00693441
39.9526 0.0802889 2
42.3946 0.32156 0
42.2812 35.7258 3.49729
43.6701 35.591 2
40.5133 34.3479 3.61433
41.9623 34.2039 2
47.2211 37.7628 0.0926992
50.3753 35.5656 0.0260301
45.0472 35.1807 0.145748
42.8926 33.9445 0.323309
41.604 33.1522 0.519964
47.4435 34.3623 2
44.2543 33.1017 2
41.9756 32.4728 2
40.6446 32.8536 2
45.5234 31.754 3.90511
43.0824 31.3682 3.82776
40.7365 31.522 3.69795
39.1942 32.6256 3.50857
35.6956 11.787 3.97633
37.3155 10.6322 2
37.4586 8.53697 0.0153722
38.9759 10.1343 0.0159591
33.1014 11.2279 3.9726
34.7554 10.3813 2
35.8997 9.77955 0.0202814
30.486 10.0275 3.97729
32.3798 9.37443 2
34.1534 8.82911 0.0180697
49.143 31.5446 0.0133519
48.7043 27.7121 0.0228138
49.0665 24.5933 0.021396
47.0836 22.2365 0.0101399
44.7594 18.601 0.0239435
42.0849 14.3147 0.0207121
38.2997 12.7497 0.0230124
36.5826 12.9406 2
47.0618 29.6494 2
38.6774 14.8398 2
41.7202 17.9406 2
46.7507 25.3189 2
44.1997 21.5802 2
45.0172 27.8435 4.00214
43.5868 24.2462 4.02825
41.289 20.9557 3.98682
35.772 14.8036 3.9769
38.6686 17.6702 3.98291
40.6365 37.4532 3.64826
42.4578 37.4723 2
44.0005 37.4855 0.308844
45.2994 55.8912 0.000823181
45.2873 52.4372 0.0165175
45.6558 48.7903 -0.00236356
42.287 39.2084 0.490865
43.037 43.5953 0.166401
42.9458 45.8458 0.11494
43.0449 48.2014 0.00590361
40.6955 43.4468 0.300866
40.476 40.6145 0.385678
39.1735 42.3626 0.486839
43.6215 54.3505 2
40.5869 39.056 2
39.0691 40.6827 2
43.3651 50.3009 2
41.6863 47.39 2
41.6177 44.9845 2
37.4947 42.4952 2
39.3564 44.1633 2
41.7764 52.8279 3.99862
39.0783 39.0909 3.59432
37.5029 40.7445 3.61424
35.8312 42.3729 3.51197
40.812 49.4327 3.99452
39.7255 45.6857 3.81671
37.4985 44.3623 3.6972
42.0624 56.2554 0.0135271
40.3746 54.8238 2
38.7232 53.6331 3.99635
35.6073 63.1828 0.0268005
38.2479 60.2942 0.0198265
38.9087 56.4018 0.0064923
35.3649 60.8824 2
36.9323 57.5887 2
37.9849 55.0832 2
36.3207 55.1561 3.99745
34.4968 58.4913 3.99474
33.348 61.4859 0.0217456
28.6878 62.176 0.0199815
31.0771 61.2037 0.0187826
32.3692 59.708 2
29.4217 60.2558 2
30.3346 57.7799 3.98459
28.065 58.3378 2
27.026 56.7891 3.96727
27.5918 59.5537 0.0200541
25.417 58.5545 2
23.9337 56.7491 3.95911
21.4212 57.3358 3.95897
22.0208 59.5728 3.97685
22.8128 58.1928 2
22.7476 61.9939 3.97331
23.4206 60.3013 2
23.8262 59.0368 0.00784034
25.0498 60.8324 0.0228883
24.4417 62.7494 2
23.6857 64.6976 3.97588
26.2354 63.4629 0.0234445
25.5493 65.483 2
24.8103 67.5877 3.98275
27.4649 66.1736 0.0203021
26.8368 68.3275 2
26.1671 70.6035 3.99014
28.9081 68.9383 0.0160514
28.3707 71.2623 2
27.7943 73.7221 4
30.6166 71.7773 0.00907962
30.1841 74.2794 2
32.6054 74.6784 0
29.8126 7.99956 3.98009
31.2545 5.33376 3.98732
31.7893 7.42203 2
32.982 2.70177 3.99278
33.3487 4.9255 2
33.7252 6.98416 0.0164077
35.0474 0.080333 4
35.2454 2.46322 2
35.4364 4.68724 0.0106831
37.5 0 2
37.5155 2.38753 0.00680672
39.9526 0.0806499 0
40.6226 35.8733 3.63532
42.2854 35.7269 2
43.5935 35.6219 0.317125
28.5465 10.7027 3.97709
39.0794 34.2986 3.58161
40.5225 34.3577 2
41.9637 34.221 0.512159
47.4171 34.3419 0.055994
44.2137 33.1311 0.163802
41.923 32.5282 0.281451
40.6161 32.8673 0.531336
45.5575 31.7353 2
43.1268 31.3339 2
40.7783 31.4573 2
39.1979 32.6116 2
43.8886 29.9686 3.89865
41.6132 30.0207 3.84692
39.3695 30.8783 3.66338
37.5299 32.5232 3.55177
34.0984 12.9526 3.97363
35.6953 11.773 2
37.3116 10.6343 0.0188603
31.1914 11.9999 3.9773
33.1018 11.2276 2
34.7564 10.3894 0.0195473
30.4845 10.0234 2
32.3803 9.37543 0.0220325
47.0519 29.7024 0.0156566
46.7487 25.319 0.0294319
36.586 12.9626 0.0259138
44.2146 21.6063 0.0204138
41.7286 17.9402 0.0208771
38.68 14.8622 0.0255624
35.7756 14.8126 2
45.0145 27.8409 2
38.6668 17.6751 2
41.2723 20.945 2
43.5756 24.2301 2
33.6147 15.9093 3.98356
42.7451 26.6808 3.98495
40.7821 23.5528 3.99577
38.3951 20.4402 3.99356
35.8471 17.5641 3.98088
39.0968 37.487 3.60832
40.6364 37.4565 2
42.4472 37.4679 0.454381
43.624 54.3542 0.00616766
43.3736 50.2876 -0.0035815
40.58 39.0564 0.367191
41.5946 44.9399 0.15449
41.6821 47.3549 0.0730341
39.3403 44.0994 0.335371
39.0682 40.6887 0.416275
37.4987 42.4746 0.44668
41.7675 52.8285 2
39.0716 39.0778 2
37.5 40.7335 2
40.7974 49.4518 2
35.8286 42.386 2
39.7428 45.7436 2
37.4914 44.423 2
39.727 51.6265 4.00304
37.5071 39.0952 3.6311
35.9449 40.704 3.58452
34.4125 42.1221 3.47082
35.6575 44.1175 3.65383
38.6638 48.3338 3.93941
37.5274 45.9761 3.84729
40.3759 54.8156 0.00499994
38.7238 53.6225 2
36.7564 52.938 3.99654
35.3648 60.8864 0.0209031
36.9314 57.5873 0.00847972
37.9837 55.0836 0.00512948
34.4952 58.4874 2
36.3237 55.1451 2
33.2655 55.3527 3.9929
32.3686 59.7045 0.00798383
29.4204 60.2568 0.0240922
30.3368 57.776 2
28.8161 55.2826 3.98681
28.0622 58.3388 -0.00976925
27.0292 56.7881 2
25.4577 55.0781 3.95778
21.9663 55.2689 3.95966
25.4143 58.5549 0.0195668
23.9359 56.7507 2
20.2926 56.9676 3.96281
20.6804 58.7281 3.96796
21.4233 57.3373 2
21.1824 61.125 3.97414
22.0218 59.5737 2
22.811 58.1914 0.0320244
21.9011 63.8195 3.97539
22.7486 61.9956 2
23.4196 60.3019 0.0215795
24.4411 62.7462 0.0229987
23.6851 64.6972 2
22.8389 66.7299 3.98008
25.55 65.4815 0.021652
24.8091 67.5882 2
24.0113 69.8049 3.99001
26.8378 68.3268 0.0160124
26.1655 70.6035 2
25.446 73.0099 4
28.3719 71.2626 0.00976644
27.7943 73.7222 2
30.1842 74.2788 0
27.8225 8.6597 3.98012
29.1567 5.88068 3.98544
29.8115 7.99638 2
30.7275 3.09853 3.99252
31.2539 5.33242 2
31.7897 7.42342 0.0179329
32.6053 0.320823 4
32.9812 2.70113 2
33.349 4.92717 0.0117179
35.0474 0.0802903 2
35.2459 2.46348 0.00679133
37.5 0 0
39.0668 35.8928 3.60303
40.605 35.8733 2
42.2812 35.7258 0.502707
28.545 10.6999 2
26.6251 11.399 3.97768
29.2323 12.6526 3.981
37.5218 34.2589 3.61309
39.0937 34.3151 2
40.5133 34.3479 0.385675
45.5234 31.754 0.0948871
43.0824 31.3682 0.172242
40.7365 31.522 0.302049
39.1942 32.6256 0.491431
43.9209 29.9351 2
41.6433 29.9793 2
39.3769 30.8156 2
37.5308 32.503 2
42.0396 28.6595 3.86877
39.7227 29.2824 3.83873
37.524 30.6375 3.6976
35.8516 32.629 3.51498
31.9263 14.4997 3.97974
34.0995 12.9588 2
35.6956 11.787 0.0236727
31.1902 11.9936 2
33.1014 11.2279 0.0274002
30.486 10.0275 0.0227061
45.0172 27.8435 -0.00213889
43.5868 24.2462 -0.0282452
35.772 14.8036 0.0231005
41.289 20.9557 0.0131753
38.6686 17.6702 0.017093
33.6106 15.8985 2
35.8408 17.5693 2
42.7776 26.662 2
38.3792 20.5068 2
40.7747 23.5285 2
33.5516 17.4471 3.98127
40.2098 25.9579 3.95501
38.0324 23.2875 3.99845
35.5694 20.1902 3.99598
37.5127 37.4902 3.64672
39.0862 37.4799 2
40.6365 37.4532 0.351744
41.7764 52.8279 0.00138449
40.812 49.4327 0.00547843
39.0783 39.0909 0.405676
39.7255 45.6857 0.183289
37.4985 44.3623 0.302798
37.5029 40.7445 0.385762
35.8312 42.3729 0.488031
39.7111 51.6331 2
37.5087 39.0906 2
35.9423 40.6931 2
38.6796 48.3913 2
34.385 42.1355 2
35.6364 44.1795 2
37.5224 46.0334 2
37.6797 50.6356 3.99584
35.9512 39.1037 3.60212
34.5328 40.6405 3.61701
33.4237 41.8295 3.48414
34.3049 43.4599 3.69433
35.2396 45.705 3.8346
36.9237 47.9426 3.90418
38.7232 53.6331 0.00365368
36.7606 52.9212 2
34.449 52.2676 3.99813
34.4968 58.4913 0.00525881
36.3207 55.1561 0.00254742
33.2709 55.362 2
30.6554 53.2593 3.993
30.3346 57.7799 0.0154128
28.8182 55.2784 2
27.0904 53.3662 3.95769
27.026 56.7891 0.0327265
25.461 55.08 2
23.8131 53.3851 3.95558
20.7598 53.1119 3.95838
20.0606 55.7578 3.96198
21.9645 55.2711 2
23.9337 56.7491 0.0408937
19.4857 57.8353 3.96398
20.2896 56.9698 2
19.7249 60.1514 3.97305
20.6788 58.7298 2
21.4212 57.3358 0.0410301
20.2156 62.8333 3.97179
21.1832 61.1262 2
22.0208 59.5728 0.0231489
20.941 65.756 3.97741
21.901 63.8229 2
22.7476 61.9939 0.0266902
23.6857 64.6976 0.0241179
22.8377 66.7298 2
21.914 68.8721 3.98931
24.8103 67.5877 0.0172522
24.0093 69.8043 2
23.1494 72.1454 4
26.1671 70.6035 0.00985876
25.446 73.0099 2
27.7943 73.7221 0
25.8617 9.38876 3.97937
27.0715 6.54518 3.98399
27.8209 8.6576 2
28.49 3.64453 3.99162
29.1558 5.87869 2
29.8126 7.99956 0.0199102
30.1841 0.720592 4
30.7262 3.09816 2
31.2545 5.33376 0.0126801
32.6053 0.320817 2
32.982 2.70177 0.00721522
35.0474 0.080333 0
37.5099 35.8912 3.62711
39.0517 35.8896 2
40.6226 35.8733 0.364679
24.7822 12.088 3.97596
23.7639 14.3862 3.97539
28.5465 10.7027 0.0229051
26.6237 11.3964 2
29.2303 12.6504 2
27.3001 13.3853 3.97874
29.7932 14.2132 3.98144
35.9523 34.3014 3.58451
37.5291 34.2689 2
39.0794 34.2986 0.418394
37.5299 32.5232 0.448232
43.8886 29.9686 0.101353
41.6132 30.0207 0.153079
39.3695 30.8783 0.336624
42.071 28.6014 2
39.7454 29.2274 2
37.5264 30.5777 2
35.8519 32.6158 2
39.8862 27.918 3.88098
37.4865 29.0154 3.83977
35.6846 30.8962 3.66676
34.4333 32.8807 3.47278
30.941 16.8576 3.98683
31.9232 14.4889 2
34.0984 12.9526 0.0263677
31.1914 11.9999 0.0227039
42.7451 26.6808 0.0150526
40.7821 23.5528 0.00422675
33.6147 15.9093 0.0164444
35.8471 17.5641 0.0191189
38.3951 20.4402 0.00644288
33.5472 17.4609 2
35.5847 20.1786 2
40.2821 25.944 2
38.016 23.2459 2
32.8815 19.8447 3.99542
37.655 25.5988 3.96851
35.2317 22.9398 4.00149
35.9311 37.4889 3.61058
37.5061 37.49 2
39.0968 37.487 0.391684
39.727 51.6265 -0.00303854
38.6638 48.3338 0.0605924
37.5071 39.0952 0.368898
37.5274 45.9761 0.152706
35.6575 44.1175 0.346173
35.9449 40.704 0.415475
34.4125 42.1221 0.529176
37.6642 50.6696 2
35.9675 39.0915 2
34.5018 40.632 2
36.908 48.0025 2
33.3893 41.8558 2
34.2664 43.5212 2
35.2187 45.7571 2
35.5631 49.8233 3.98679
34.4268 39.0983 3.63416
33.0612 40.7617 3.49315
33.1157 42.452 3.72353
33.432 44.9479 3.83689
34.4618 47.0874 3.87646
36.7564 52.938 0.0034597
34.4438 52.2788 2
32.2211 51.0605 4.01211
33.2655 55.3527 0.00710362
30.6591 53.2622 2
28.6846 51.478 3.98722
28.8161 55.2826 0.0131944
27.0923 53.3653 2
25.3852 51.6238 3.95358
25.4577 55.0781 0.0422172
23.8135 53.39 2
22.3233 51.6765 3.95134
19.6061 51.5044 3.9611
19.1496 54.2137 3.96123
20.7611 53.111 2
18.5379 56.6591 3.96332
20.0579 55.7597 2
21.9663 55.2689 0.0403442
18.3929 59.0639 3.96645
19.4832 57.8371 2
20.2926 56.9676 0.0371924
18.6303 61.7218 3.97183
19.7249 60.1539 2
20.6804 58.7281 0.0320387
19.1302 64.6664 3.97648
20.2159 62.8363 2
21.1824 61.125 0.0258589
19.8883 67.8083 3.9873
20.9396 65.7551 2
21.9011 63.8195 0.0246096
22.8389 66.7299 0.0199224
21.9116 68.8708 2
20.9142 71.1327 4
24.0113 69.8049 0.00999202
23.1494 72.1455 2
25.446 73.0099 0
23.1044 12.8058 3.97728
23.9751 10.1784 3.97719
25.0251 7.31609 3.98272
25.8598 9.38705 2
26.2819 4.32866 3.99072
27.0701 6.54388 2
27.8225 8.6597 0.019877
27.7943 1.27781 4
28.4881 3.64426 2
29.1567 5.88068 0.0145623
30.1841 0.720551 2
30.7275 3.09853 0.00747502
32.6053 0.320823 0
35.9383 35.8827 3.59321
37.5263 35.9 2
39.0668 35.8928 0.396966
24.7789 12.0825 2
23.7643 14.391 2
22.4966 15.0742 3.97929
25.368 13.9294 3.97192
24.05 15.6467 3.98499
26.6251 11.399 0.0223177
29.2323 12.6526 0.0189957
27.2999 13.3832 2
29.7887 14.2102 2
28.3769 15.9828 3.98365
34.5493 34.3678 3.61318
35.9493 34.307 2
37.5218 34.2589 0.386907
35.8516 32.629 0.485021
37.524 30.6375 0.302404
42.0396 28.6595 0.131235
39.7227 29.2824 0.161273
39.9197 27.8759 2
37.483 28.9581 2
35.6692 30.8275 2
34.4014 32.87 2
37.6196 27.6485 3.87654
35.2868 29.2998 3.83678
34.3136 31.5411 3.69387
33.4429 33.1701 3.48174
30.2279 19.4301 3.98307
30.9363 16.8462 2
31.9263 14.4997 0.0202577
40.2098 25.9579 0.0449897
38.0324 23.2875 0.00155058
33.5516 17.4471 0.0187319
35.5694 20.1902 0.00401634
32.8801 19.8682 2
35.2341 22.9245 2
37.714 25.5749 2
32.4097 22.5796 3.99765
35.108 25.5156 3.99081
34.3815 37.5077 3.65113
35.9327 37.4965 2
37.5127 37.4902 0.353279
37.6797 50.6356 0.00416291
36.9237 47.9426 0.0958206
35.9512 39.1037 0.397883
35.2396 45.705 0.165396
34.3049 43.4599 0.30567
34.5328 40.6405 0.382988
33.4237 41.8295 0.515863
35.5447 49.8353 2
34.4255 39.0954 2
33.0568 40.7752 2
34.4461 47.1371 2
33.0735 42.5068 2
33.4056 44.9918 2
33.4038 48.9046 3.97473
32.7326 39.2486 3.501
32.1309 41.036 3.67891
31.9509 43.6115 3.83289
32.6257 46.0705 3.87896
34.449 52.2676 0.00187077
32.2271 51.0719 2
30.215 49.6354 4.00147
30.6554 53.2593 0.00700149
28.6858 51.472 2
26.8929 49.8463 3.9725
27.0904 53.3662 0.0423052
25.385 51.6256 2
23.7684 50.0344 3.96231
23.8131 53.3851 0.0444173
22.3238 51.6746 2
20.9288 50.1653 3.96452
18.3956 50.205 3.9695
18.1645 52.6808 3.96364
19.6053 51.5035 2
17.6142 55.2599 3.9623
19.1475 54.2136 2
20.7598 53.1119 0.0416161
17.1839 57.8234 3.96097
18.5334 56.6607 2
20.0606 55.7578 0.0380163
17.1478 60.5064 3.967
18.3921 59.0652 2
19.4857 57.8353 0.0360185
17.4127 63.4492 3.96984
18.6309 61.7234 2
19.7249 60.1514 0.0269538
17.9445 66.6158 3.98573
19.1293 64.6638 2
20.2156 62.8333 0.0282146
18.75 69.9759 4
19.8858 67.8061 2
20.941 65.756 0.02259
21.914 68.8721 0.0106874
20.9142 71.1327 2
23.1494 72.1454 0
21.5992 13.6333 3.975
22.1947 11.0418 3.97364
23.1022 12.8109 2
23.0428 8.1829 3.98057
23.9721 10.1763 2
24.1195 5.14346 3.99002
25.0233 7.31519 2
25.8617 9.38876 0.0206336
25.446 1.99014 4
26.2794 4.32899 2
27.0715 6.54518 0.0160129
27.7943 1.27778 2
28.49 3.64453 0.00838406
30.1841 0.720592 0
34.4463 35.9121 3.63153
35.9485 35.8983 2
37.5099 35.8912 0.372886
21.3309 15.8815 3.98184
24.7822 12.088 0.0240438
23.7639 14.3862 0.0246062
25.3672 13.9188 2
22.4981 15.0699 2
24.0535 15.653 2
23.2979 16.2816 3.9695
25.4066 16.1168 3.98334
27.3001 13.3853 0.0212553
29.7932 14.2132 0.0185571
28.3721 15.9901 2
27.4704 18.8507 3.9828
33.0734 34.2454 3.50052
34.518 34.3821 2
35.9523 34.3014 0.415488
34.4333 32.8807 0.527217
35.6846 30.8962 0.333242
37.4865 29.0154 0.160235
39.8862 27.918 0.11902
37.5933 27.6097 2
33.4117 33.1464 2
35.2874 29.2368 2
34.2726 31.4754 2
35.1869 27.7471 3.89117
33.4304 30.0453 3.83823
33.141 32.5456 3.71952
29.7221 22.031 4.00519
30.23 19.4341 2
30.941 16.8576 0.0131665
37.655 25.5988 0.0314896
35.2317 22.9398 -0.00149494
32.8815 19.8447 0.0045822
32.4166 22.572 2
35.139 25.505 2
31.9806 25.8417 4.00589
32.5635 37.5062 3.54529
34.3935 37.5025 2
35.9311 37.4889 0.389417
35.5631 49.8233 0.0132106
34.4618 47.0874 0.123542
34.4268 39.0983 0.365841
33.432 44.9479 0.163107
33.1157 42.452 0.276468
33.0612 40.7617 0.506846
33.3913 48.9056 2
32.7416 39.2548 2
32.0912 41.077 2
32.5916 46.1195 2
31.9048 43.6437 2
31.5588 47.7523 3.97975
31.4282 39.3663 3.68309
30.8159 41.8576 3.84201
31.0119 44.7061 3.89169
32.2211 51.0605 -0.0121099
30.2212 49.6632 2
28.3629 48.0213 3.96341
28.6846 51.478 0.0127775
26.8921 49.8474 2
25.1701 48.2913 3.96629
25.3852 51.6238 0.0464222
23.7695 50.0332 2
22.2101 48.6142 3.97091
22.3233 51.6765 0.0486639
20.9273 50.1645 2
19.5083 48.9498 3.97338
17.2747 49.2184 3.97467
17.1125 51.3002 3.96849
18.3982 50.2035 2
16.622 53.7831 3.965
18.1631 52.6803 2
19.6061 51.5044 0.0388959
16.0764 56.4178 3.96239
17.6126 55.2604 2
19.1496 54.2137 0.0387736
15.764 59.1759 3.9647
17.1802 57.8253 2
18.5379 56.6591 0.0366797
15.7934 62.1052 3.96833
17.1487 60.5086 2
18.3929 59.0639 0.0335529
16.0914 65.2985 3.98379
17.4113 63.4554 2
18.6303 61.7218 0.0281737
16.6661 68.6801 4
17.942 66.6137 2
19.1302 64.6664 0.0235151
18.75 69.9759 2
19.8883 67.8083 0.0127028
20.9142 71.1327 0
20.2337 14.6454 3.96897
21.5975 13.6448 2
20.5358 12.0204 3.97465
21.1461 9.15533 3.97844
22.1916 11.0405 2
23.1044 12.8058 0.0227202
22.0187 6.08229 3.98961
23.0403 8.1818 2
23.9751 10.1784 0.022813
23.1494 2.85457 4
24.1166 5.14431 2
25.0251 7.31609 0.0172786
25.446 1.99012 2
26.2819 4.32866 0.00928447
27.7943 1.27781 0
32.7239 35.7679 3.50884
34.4377 35.9124 2
35.9383 35.8827 0.406789
21.3337 15.8745 2
20.3425 17.0087 3.96946
22.1303 16.6798 3.96734
25.368 13.9294 0.028076
22.4966 15.0742 0.020709
24.05 15.6467 0.0150057
25.4095 16.1078 2
23.302 16.2793 2
24.2474 18.5517 3.96817
27.1562 21.6394 3.99432
28.3769 15.9828 0.0163498
27.466 18.8986 2
32.1693 33.9707 3.67378
33.0723 34.2281 2
34.5493 34.3678 0.386816
33.4429 33.1701 0.518263
34.3136 31.5411 0.306129
35.2868 29.2998 0.163223
37.6196 27.6485 0.123463
35.1891 27.6976 2
33.0668 32.4937 2
33.4011 30.0058 2
32.876 28.3988 3.9005
31.9605 31.3911 3.82398
29.1087 24.5252 4.00168
29.7185 22.0456 2
30.2279 19.4301 0.0169324
35.108 25.5156 0.00919214
32.4097 22.5796 0.0023503
31.9721 25.8141 2
30.0931 27.4934 3.97822
31.0131 37.4985 3.68805
32.5691 37.5052 2
34.3815 37.5077 0.348874
33.4038 48.9046 0.0252699
32.6257 46.0705 0.121043
32.7326 39.2486 0.499
31.9509 43.6115 0.167112
32.1309 41.036 0.321094
31.5118 47.7756 2
31.3545 39.3901 2
30.7764 41.8872 2
30.9674 44.7458 2
29.7825 46.361 3.99198
29.9693 39.8127 3.85717
29.4997 42.969 3.8994
30.215 49.6354 -0.00146749
28.3582 48.0183 2
26.577 46.461 3.98254
26.8929 49.8463 0.0275044
25.171 48.2895 2
23.4548 46.8793 3.97378
23.7684 50.0344 0.0376938
22.2088 48.6144 2
20.5096 47.4596 3.97657
20.9288 50.1653 0.0354816
19.5088 48.9483 2
18.1043 48.052 3.97697
16.5076 48.5785 3.97655
17.2759 49.2172 2
16.181 50.0713 3.97282
15.6349 52.3299 3.9684
17.1141 51.2992 2
18.3956 50.205 0.0305006
15.0246 54.9124 3.96373
16.6237 53.7826 2
18.1645 52.6808 0.0363636
14.4912 57.7071 3.96212
16.0767 56.4182 2
17.6142 55.2599 0.0376973
14.2713 60.6697 3.96807
15.7662 59.1769 2
17.1839 57.8234 0.0390264
14.3361 63.8554 3.97947
15.794 62.1076 2
17.1478 60.5064 0.0330016
14.6715 67.2507 4
16.0886 65.295 2
17.4127 63.4492 0.0301554
16.6661 68.6801 2
17.9445 66.6158 0.0142663
18.75 69.9759 0
18.9534 15.8283 3.9762
20.2348 14.6422 2
18.9891 13.1425 3.97394
21.5992 13.6333 0.024996
20.5342 12.0229 2
19.3463 10.2459 3.97615
19.9937 7.14741 3.98806
21.1428 9.15495 2
22.1947 11.0418 0.0263586
20.9142 3.86727 4
22.0151 6.08365 2
23.0428 8.1829 0.0194324
23.1494 2.85451 2
24.1195 5.14346 0.00997924
25.446 1.99014 0
31.4525 35.6396 3.67887
32.7287 35.7603 2
34.4463 35.9121 0.36847
21.3309 15.8815 0.0181566
22.1331 16.673 2
20.3446 17.0036 2
19.3317 18.473 3.95657
21.8233 17.9305 3.97872
25.4066 16.1168 0.0166636
23.2979 16.2816 0.0304998
24.2389 18.575 2
22.4116 19.9967 3.96876
24.738 21.5117 3.98617
26.7275 23.8113 3.98058
27.1659 21.5654 2
27.4704 18.8507 0.0171971
30.8715 33.1547 3.84876
32.1298 33.9197 2
33.0734 34.2454 0.499478
33.141 32.5456 0.280475
33.4304 30.0453 0.161772
35.1869 27.7471 0.108832
32.8361 28.3682 2
31.9039 31.3504 2
30.7026 29.784 3.9272
28.3565 26.6812 3.99658
29.0936 24.5316 2
29.7221 22.031 -0.00519215
31.9806 25.8417 -0.00589333
30.0852 27.4708 2
29.5203 37.4976 3.85296
30.9529 37.4969 2
32.5635 37.5062 0.454714
31.5588 47.7523 0.0202476
31.0119 44.7061 0.108313
31.4282 39.3663 0.31691
30.8159 41.8576 0.157988
29.787 46.3606 2
29.8975 39.8257 2
29.4686 43.0046 2
28.0475 44.6867 3.97034
27.7292 40.5377 3.93333
28.3629 48.0213 0.0365898
26.5748 46.4593 2
24.7586 44.9943 3.97859
25.1701 48.2913 0.033715
23.453 46.8789 2
21.5305 45.7351 3.97781
22.2101 48.6142 0.0290888
20.5098 47.4586 2
18.8328 46.6022 3.97676
19.5083 48.9498 0.0266243
18.105 48.0508 2
16.7436 47.6016 3.97649
16.5091 48.5775 2
15.5262 48.9226 3.97565
17.2747 49.2184 0.0253342
16.183 50.0703 2
14.7496 50.9055 3.97179
13.9979 53.3729 3.96637
15.6363 52.3292 2
17.1125 51.3002 0.0315105
13.3195 56.1331 3.96218
15.0251 54.9123 2
16.622 53.7831 0.0349976
12.8572 59.1088 3.96665
14.4948 57.7069 2
16.0764 56.4178 0.0376144
12.682 62.2972 3.97662
14.2728 60.6699 2
15.764 59.1759 0.0353009
12.7746 65.6939 4
14.3337 63.8516 2
15.7934 62.1052 0.0316692
14.6714 67.2507 2
16.0914 65.2985 0.0162083
16.6661 68.6801 0
17.7094 17.2048 3.9637
18.9534 15.8259 2
17.525 14.4126 3.96938
20.2337 14.6454 0.0310302
18.9882 13.1467 2
17.6427 11.4657 3.97345
20.5358 12.0204 0.0253535
19.3429 10.247 2
18.054 8.34045 3.98599
18.75 5.0241 4
19.9893 7.14963 2
21.1461 9.15533 0.0215618
20.9142 3.86727 2
22.0187 6.08229 0.0103861
23.1494 2.85457 0
29.9977 35.2005 3.85585
31.3819 35.6159 2
32.7239 35.7679 0.491156
22.1303 16.6798 0.0326617
20.3425 17.0087 0.03054
21.822 17.9298 2
19.3271 18.4672 2
18.1619 20.0271 3.96166
20.9939 19.4678 3.96598
24.2474 18.5517 0.0318348
22.4047 20.004 2
24.7463 21.4943 2
22.5775 21.8416 3.98163
25.0018 23.2501 3.97242
25.9588 26.058 3.97892
26.7252 23.804 2
27.1562 21.6394 0.0056848
29.2612 32.501 3.89996
30.8068 33.1194 2
32.1693 33.9707 0.326219
31.9605 31.3911 0.176021
32.876 28.3988 0.099498
30.6804 29.7736 2
27.7071 29.2599 4.01482
28.343 26.6918 2
29.1087 24.5252 -0.00167621
30.0931 27.4934 0.0217834
27.8649 37.3598 3.90301
29.4486 37.4895 2
31.0131 37.4985 0.311953
29.7825 46.361 0.00802352
29.4997 42.969 0.100595
29.9693 39.8127 0.142832
28.0417 44.7432 2
27.6986 40.5324 2
26.1291 43.0388 3.98871
24.9959 39.4439 3.97232
26.577 46.461 0.0174588
24.7482 44.9964 2
22.6702 43.775 3.97663
23.4548 46.8793 0.0262244
21.5271 45.7365 2
19.5964 44.8401 3.97641
20.5096 47.4596 0.023433
18.8326 46.6026 2
17.0983 46.0992 3.97637
18.1043 48.052 0.0230276
16.7448 47.6008 2
15.2894 47.5764 3.97624
16.5076 48.5785 0.0234469
15.5281 48.9217 2
14.0588 49.4717 3.97421
16.181 50.0713 0.0271828
14.7509 50.9048 2
13.069 51.8176 3.96868
12.2242 54.4936 3.96352
13.9986 53.3725 2
15.6349 52.3299 0.031596
11.544 57.4467 3.96576
13.3199 56.1332 2
15.0246 54.9124 0.0362671
11.137 60.6228 3.97433
12.8591 59.1083 2
14.4912 57.7071 0.0378823
10.9835 64.0165 4
12.6802 62.2925 2
14.2713 60.6697 0.0319329
12.7745 65.694 2
14.3361 63.8554 0.0205305
14.6715 67.2507 0
16.5079 18.7121 3.96166
17.7089 17.2027 2
16.1196 15.8193 3.9666
18.9534 15.8283 0.0238
17.5241 14.4091 2
16.0268 12.8337 3.97162
18.9891 13.1425 0.0260602
17.6408 11.4709 2
16.2049 9.6646 3.98376
19.3463 10.2459 0.0238475
18.0492 8.34453 2
16.6661 6.31991 4
18.75 5.02404 2
19.9937 7.14741 0.0119418
20.9142 3.86727 0
28.3913 34.8443 3.90008
29.9172 35.1679 2
31.4525 35.6396 0.321132
16.8965 21.4634 3.96707
21.8233 17.9305 0.0212829
19.3317 18.473 0.0434273
20.988 19.4643 2
18.1595 20.0244 2
19.9743 21.6808 3.97103
22.4116 19.9967 0.0312391
24.738 21.5117 0.0138298
22.5727 21.8477 2
24.9956 23.2515 2
23.2757 24.7219 3.97201
25.2558 28.6575 3.98364
25.9512 26.0623 2
26.7275 23.8113 0.0194223
27.1137 31.8594 3.98244
29.2263 32.4801 2
30.8715 33.1547 0.151241
30.7026 29.784 0.0727957
27.7188 29.2389 2
28.3565 26.6812 0.00342347
25.6902 36.851 3.97004
27.847 37.365 2
29.5203 37.4976 0.147043
28.0475 44.6867 0.0296639
27.7292 40.5377 0.0666699
26.1063 43.0601 2
24.9725 39.4483 2
23.8806 41.7879 3.98239
22.7158 38.5232 3.97912
24.7586 44.9943 0.0214059
22.6681 43.7749 2
20.4719 42.7899 3.9755
21.5305 45.7351 0.022194
19.5967 44.8407 2
17.504 44.2783 3.97581
18.8328 46.6022 0.0232395
17.099 46.0994 2
15.2507 45.9994 3.97598
16.7436 47.6016 0.0235132
15.2911 47.5756 2
13.5883 47.9374 3.97563
15.5262 48.9226 0.0243537
14.0604 49.471 2
12.2996 50.2003 3.97064
14.7496 50.9055 0.0282107
13.0699 51.817 2
11.2218 52.8067 3.96498
10.3352 55.7036 3.96514
12.2246 54.4932 2
13.9979 53.3729 0.0336307
9.70375 58.8459 3.97402
11.545 57.4463 2
13.3195 56.1331 0.0378194
9.30605 62.2254 4
11.1356 60.6187 2
12.8572 59.1088 0.0333506
10.9835 64.0165 2
12.682 62.2972 0.0233808
12.7746 65.6939 0
15.2948 20.2509 3.96355
16.5077 18.7115 2
14.7778 17.3398 3.96355
17.7094 17.2048 0.036298
16.1209 15.8177 2
14.4903 14.3205 3.9673
17.525 14.4126 0.0306167
16.0258 12.8294 2
14.4474 11.1165 3.98136
17.6427 11.4657 0.0265525
16.2007 9.67012 2
14.6715 7.74927 4
18.054 8.34045 0.0140063
16.6661 6.31988 2
18.75 5.0241 0
26.3518 34.3516 3.97634
28.3735 34.852 2
29.9977 35.2005 0.144145
18.1461 22.427 3.97393
15.7978 23.0075 3.97063
16.8982 21.4629 2
20.9939 19.4678 0.0340177
18.1619 20.0271 0.0383368
19.9722 21.6787 2
20.0861 24.5181 3.97205
22.5775 21.8416 0.0183663
25.0018 23.2501 0.0275825
23.2721 24.7233 2
22.6193 27.9854 3.97173
24.6787 31.3471 3.98192
25.261 28.6503 2
25.9588 26.058 0.0210761
27.0888 31.8218 2
29.2612 32.501 0.100038
27.7071 29.2599 -0.0148191
23.4432 36.2907 3.98305
25.6725 36.8496 2
27.8649 37.3598 0.0969888
26.1291 43.0388 0.0112907
24.9959 39.4439 0.0276845
23.8609 41.7868 2
22.7037 38.5202 2
21.5677 40.6067 3.97493
20.9239 37.8026 3.97716
22.6702 43.775 0.0233691
20.4707 42.7908 2
17.9816 42.0264 3.97575
19.5964 44.8401 0.0235854
17.504 44.2788 2
15.2994 44.119 3.97567
17.0983 46.0992 0.0236257
15.2514 45.9992 2
13.2866 46.2272 3.97579
15.2894 47.5764 0.0237579
13.59 47.9367 2
11.6895 48.5007 3.97241
14.0588 49.4717 0.0257918
12.3009 50.1996 2
10.353 51.0534 3.96616
13.069 51.8176 0.0313244
11.2227 52.8061 2
9.24426 53.8851 3.96489
8.38737 56.98 3.97491
10.3366 55.7029 2
12.2242 54.4936 0.0364762
7.74927 60.3285 4
9.70267 58.8417 2
11.544 57.4467 0.0342444
9.306 62.2255 2
11.137 60.6228 0.0256676
10.9835 64.0165 0
14.1271 21.8144 3.96679
15.2926 20.2501 2
13.504 18.9368 3.96323
16.5079 18.7121 0.0383434
14.7792 17.3387 2
13.0349 15.9068 3.96967
16.1196 15.8193 0.0334044
14.4911 14.3187 2
12.7851 12.6922 3.97839
16.0268 12.8337 0.0283784
14.4444 11.1232 2
12.7746 9.30605 4
16.2049 9.6646 0.0162362
14.6715 7.74924 2
16.6661 6.31991 0
24.0263 33.88 3.98159
26.3312 34.3483 2
28.3913 34.8443 0.0999158
18.0177 24.1594 3.97223
18.153 22.4272 2
14.6342 24.5379 3.97273
15.8001 23.0075 2
16.8965 21.4634 0.0329266
19.6094 27.3556 3.97425
19.9743 21.6808 0.0289712
20.0817 24.5174 2
21.9887 30.8157 3.97467
23.2757 24.7219 0.027985
22.6189 27.9875 2
24.6473 31.3427 2
25.2558 28.6575 0.0163634
27.1137 31.8594 0.0175588
21.0476 35.966 3.97642
23.4435 36.2917 2
25.6902 36.851 0.0299626
23.8806 41.7879 0.017608
22.7158 38.5232 0.0208784
21.5714 40.6081 2
20.9242 37.8006 2
18.7403 38.9894 3.977
20.4719 42.7899 0.0244995
17.9808 42.0267 2
15.2849 41.8663 3.9761
17.504 44.2783 0.0241933
15.2991 44.119 2
13.0521 44.3318 3.97598
15.2507 45.9994 0.0240159
13.2881 46.2265 2
11.2047 46.6895 3.97426
13.5883 47.9374 0.0243671
11.6915 48.4998 2
9.62353 49.2156 3.96714
12.2996 50.2003 0.0293627
10.3533 51.0527 2
8.27692 51.9996 3.9647
11.2218 52.8067 0.0350171
9.2456 53.8838 2
7.19641 55.0317 3.97603
6.31991 58.3339 4
8.38654 56.9761 2
10.3352 55.7036 0.0348604
7.74924 60.3285 2
9.70375 58.8459 0.0259761
9.30605 62.2254 0
13.5001 25.4341 3.97569
13.0293 23.3418 3.96983
14.1258 21.8139 2
12.3144 20.5847 3.96386
15.2948 20.2509 0.0364461
13.5051 18.936 2
11.6675 17.5806 3.9678
14.7778 17.3398 0.0364494
13.0377 15.9062 2
11.2234 14.3782 3.97475
14.4903 14.3205 0.0326953
12.7828 12.6976 2
10.9835 10.9835 4
14.4474 11.1165 0.0186364
12.7745 9.306 2
14.6715 7.74927 0
21.3981 33.4903 3.97622
24.0296 33.8665 2
26.3518 34.3516 0.0236606
16.3488 26.5134 3.97387
18.0215 24.1597 2
18.1461 22.427 0.0260701
14.6337 24.538 2
15.7978 23.0075 0.0293653
19.0109 30.3121 3.97474
19.6094 27.3558 2
20.0861 24.5181 0.0279508
22.0047 30.8165 2
22.6193 27.9854 0.0282689
24.6787 31.3471 0.0180793
18.3485 35.9974 3.97756
21.0496 35.9661 2
23.4432 36.2907 0.0169482
21.5677 40.6067 0.0250721
20.9239 37.8026 0.0228435
18.7383 38.9886 2
14.7819 39.1612 3.97701
17.9816 42.0264 0.024249
15.2842 41.8661 2
12.7488 42.237 3.97645
15.2994 44.119 0.0243345
13.0532 44.3313 2
10.7909 44.7647 3.97591
13.2866 46.2272 0.0242076
11.207 46.6886 2
9.00993 47.2975 3.96831
11.6895 48.5007 0.0275927
9.62422 49.2149 2
7.44285 50.0336 3.96468
10.353 51.0534 0.0338381
8.27717 51.9984 2
6.137 53.0073 3.97631
9.24426 53.8851 0.0351147
7.19583 55.0285 2
5.0241 56.25 4
6.31988 58.3339 2
8.38737 56.98 0.0250945
7.74927 60.3285 0
13.7785 26.8906 3.97553
12.14 24.8418 3.97245
13.4991 25.4342 2
11.2416 22.2681 3.96561
13.03 23.3421 2
14.1271 21.8144 0.0332142
12.3154 20.5843 2
10.4002 19.3293 3.96643
13.504 18.9368 0.0367693
11.6701 17.5805 2
9.76398 16.1613 3.97426
13.0349 15.9068 0.030327
11.2217 14.3837 2
9.30607 12.7746 4
12.7851 12.6922 0.0216078
10.9835 10.9835 2
12.7746 9.30605 0
18.5071 33.1855 3.9762
21.3973 33.4936 2
24.0263 33.88 0.0184129
15.971 29.7441 3.97559
16.348 26.5136 2
18.0177 24.1594 0.0277728
14.6342 24.5379 0.0272691
19.0094 30.3122 2
19.6094 27.3556 0.0257528
21.9887 30.8157 0.0253255
15.4145 36.0365 3.97722
18.3477 35.9979 2
21.0476 35.966 0.0235804
12.9787 37.8292 3.97706
18.7403 38.9894 0.0229967
14.7813 39.1612 2
12.2502 40.1201 3.97676
15.2849 41.8663 0.0238971
12.7495 42.2365 2
10.3934 42.7495 3.97653
13.0521 44.3318 0.0240225
10.7932 44.7639 2
8.48897 45.3031 3.96902
11.2047 46.6895 0.0257382
9.01043 47.2969 2
6.73365 47.9988 3.96485
9.62353 49.2156 0.032855
7.44324 50.0325 2
5.21366 50.9108 3.97612
8.27692 51.9996 0.0352964
6.13684 53.0051 2
3.86727 54.0858 4
7.19641 55.0317 0.0239698
5.02404 56.25 2
6.31991 58.3339 0
13.2619 29.1023 3.97516
11.587 26.5375 3.9733
13.7775 26.8906 2
10.2981 23.996 3.96737
12.1419 24.8424 2
13.5001 25.4341 0.0243053
9.25364 21.1433 3.96558
11.2431 22.2683 2
13.0293 23.3418 0.0301701
12.3144 20.5847 0.0361351
10.4026 19.3293 2
8.42002 18.0319 3.97437
11.6675 17.5806 0.0322024
9.76296 16.1664 2
7.74928 14.6715 4
11.2234 14.3782 0.0252465
9.30602 12.7745 2
10.9835 10.9835 0
14.9599 32.9204 3.97643
18.5058 33.1847 2
21.3981 33.4903 0.0237812
15.9718 29.7444 2
16.3488 26.5134 0.0261293
19.0109 30.3121 0.0252594
13.2784 36.2214 3.97677
15.4137 36.0364 2
18.3485 35.9974 0.0224405
12.9789 37.8291 2
11.5793 38.3054 3.97712
14.7819 39.1612 0.0229896
12.2515 40.1199 2
9.97248 40.7373 3.97685
12.7488 42.237 0.0235496
10.3968 42.7486 2
8.03587 43.2564 3.96965
10.7909 44.7647 0.0240897
8.49099 45.3025 2
6.1392 45.904 3.96531
9.00993 47.2975 0.0316871
6.73404 47.9978 2
4.42495 48.7514 3.97569
7.44285 50.0336 0.0353193
5.21368 50.9095 2
2.85457 51.8506 4
6.137 53.0073 0.0236921
3.86727 54.0858 2
5.0241 56.25 0
12.3925 31.3053 3.97606
10.9989 28.4574 3.97445
13.2623 29.1027 2
9.51464 25.8224 3.96817
11.5887 26.538 2
13.7785 26.8906 0.0244666
8.2409 23.0257 3.96529
10.2989 23.9963 2
12.14 24.8418 0.0275506
7.20238 19.9802 3.9758
9.25892 21.1447 2
11.2416 22.2681 0.0343942
10.4002 19.3293 0.0335677
8.41958 18.0361 2
6.31992 16.6661 4
9.76398 16.1613 0.0257416
7.74926 14.6714 2
9.30607 12.7746 0
12.4311 34.3229 3.97648
14.9595 32.9211 2
18.5071 33.1855 0.0237974
15.971 29.7441 0.0244129
11.1165 36.6189 3.97686
13.2783 36.2214 2
15.4145 36.0365 0.0227849
12.9787 37.8292 0.0229353
11.581 38.3049 2
9.55368 38.8173 3.977
12.2502 40.1201 0.0232428
9.97555 40.7367 2
7.64208 41.2027 3.97041
10.3934 42.7495 0.0234706
8.03623 43.256 2
5.65038 43.767 3.96608
8.48897 45.3031 0.0309803
6.1395 45.9031 2
3.77029 46.5369 3.97576
6.73365 47.9988 0.0351518
4.42523 48.7506 2
1.99014 49.554 4
5.21366 50.9108 0.0238814
2.85451 51.8506 2
3.86727 54.0858 0
11.2053 32.9518 3.97663
10.3035 30.4152 3.97525
12.3934 31.3059 2
8.82304 27.7526 3.9686
11.001 28.458 2
13.2619 29.1023 0.0248436
7.36424 24.9835 3.96511
9.51516 25.8227 2
11.587 26.5375 0.0266959
6.11924 22.0024 3.97654
8.24233 23.0267 2
10.2981 23.996 0.032628
5.02411 18.75 4
7.20186 19.9834 2
9.25364 21.1433 0.0344179
8.42002 18.0319 0.0256308
6.3199 16.6661 2
7.74928 14.6715 0
10.7042 35.0155 3.9767
12.4312 34.3233 2
14.9599 32.9204 0.0235685
9.21194 36.9873 3.97695
11.1185 36.619 2
13.2784 36.2214 0.0232318
11.5793 38.3054 0.0228774
9.55695 38.8172 2
7.3168 39.1783 3.97079
9.97248 40.7373 0.0231452
7.64329 41.2024 2
5.2652 41.6131 3.9665
8.03587 43.2564 0.0303545
5.6507 43.7664 2
3.24772 44.2816 3.9764
6.1392 45.904 0.0346896
3.77064 46.5362 2
1.27781 47.2057 4
4.42495 48.7514 0.0243081
1.99012 49.554 2
2.85457 51.8506 0
10.3394 33.9025 3.97654
9.58216 32.1779 3.97602
11.2074 32.9524 2
8.16436 29.7117 3.96915
10.306 30.4158 2
12.3925 31.3053 0.0239402
6.60682 27.0092 3.96522
8.82395 27.753 2
10.9989 28.4574 0.0255491
5.17446 24.0947 3.97641
7.36443 24.9842 2
9.51464 25.8224 0.0318293
3.86728 20.9142 4
6.11922 22.0046 2
8.2409 23.0257 0.0347075
5.02406 18.75 2
7.20238 19.9802 0.024199
6.31992 16.6661 0
9.02641 35.2887 3.97712
10.7064 35.0158 2
12.4311 34.3229 0.0235213
7.09284 37.2063 3.97072
9.2152 36.9874 2
11.1165 36.6189 0.0231412
9.55368 38.8173 0.022995
7.31845 39.178 2
4.99248 39.467 3.96701
7.64208 41.2027 0.0295879
5.26592 41.6127 2
2.858 42.0018 3.97673
5.65038 43.767 0.0339228
3.24794 44.281 2
0.720592 44.8159 4
3.77029 46.5369 0.0242399
1.27778 47.2057 2
1.99014 49.554 0
9.06662 33.7134 3.97691
10.3424 33.9029 2
7.59415 31.6208 3.96977
9.58517 32.1785 2
11.2053 32.9518 0.023368
5.95124 29.0704 3.96568
8.1651 29.712 2
10.3035 30.4152 0.0247485
4.36185 26.2472 3.97615
6.60722 27.0099 2
8.82304 27.7526 0.0314
2.85458 23.1494 4
5.17468 24.0958 2
7.36424 24.9835 0.0348854
3.86728 20.9142 2
6.11924 22.0024 0.0234573
5.02411 18.75 0
7.04021 35.3102 3.97049
9.02988 35.2891 2
10.7042 35.0155 0.0232991
4.84261 37.3399 3.96732
7.09492 37.2062 2
9.21194 36.9873 0.0230474
7.3168 39.1783 0.0292106
4.9932 39.4668 2
2.60591 39.7134 3.97705
5.2652 41.6131 0.033502
2.85855 42.0016 2
0.320823 42.3947 4
3.24772 44.2816 0.023602
0.720551 44.8159 2
1.27781 47.2057 0
7.20354 33.4687 3.97014
9.06999 33.7138 2
10.3394 33.9025 0.0234595
5.42146 31.1344 3.96641
7.59535 31.6211 2
9.58216 32.1779 0.0239824
3.68321 28.4434 3.97618
5.95161 29.071 2
8.16436 29.7117 0.0308538
1.99015 25.446 4
4.36213 26.2477 2
6.60682 27.0092 0.0347755
2.85453 23.1494 2
5.17446 24.0947 0.0235893
3.86728 20.9142 0
4.85692 35.252 3.96718
7.04154 35.3102 2
9.02641 35.2887 0.0228836
2.49735 37.4281 3.97787
4.84279 37.34 2
7.09284 37.2063 0.0292768
4.99248 39.467 0.0329934
2.60657 39.7138 2
0.080333 39.9526 4
2.858 42.0018 0.0232728
0.320817 42.3947 2
0.720592 44.8159 0
5.0504 33.1909 3.96694
7.20494 33.4688 2
9.06662 33.7134 0.0230876
3.14725 30.6662 3.97668
5.42181 31.135 2
7.59415 31.6208 0.0302311
1.27793 27.7943 4
3.68364 28.4437 2
5.95124 29.0704 0.0343156
1.99013 25.446 2
4.36185 26.2472 0.0238545
2.85458 23.1494 0
2.54945 35.1588 3.97757
4.85772 35.2524 2
7.04021 35.3102 0.0295061
0 37.5 4
2.49751 37.4286 2
4.84261 37.3399 0.0326793
2.60591 39.7134 0.0229472
0.0802903 39.9526 2
0.320823 42.3947 0
2.76713 32.9057 3.97762
5.05072 33.1914 2
7.20354 33.4687 0.0298609
0.721173 30.1842 4
3.14769 30.6667 2
5.42146 31.1344 0.0335871
1.27779 27.7943 2
3.68321 28.4434 0.0238183
1.99015 25.446 0
0.0806499 35.0474 4
2.55019 35.1594 2
4.85692 35.252 0.032822
0 37.5 2
2.49735 37.4281 0.0221306
0.080333 39.9526 0
0.32156 32.6054 4
2.76737 32.9064 2
5.0504 33.1909 0.0330559
0.72056 30.1841 2
3.14725 30.6662 0.0233248
1.27793 27.7943 0
0.0802889 35.0474 2
2.54945 35.1588 0.0224261
0 37.5 0
0.320817 32.6053 2
2.76713 32.9057 0.0223814
0.721173 30.1842 0
0.0806499 35.0474 0
0.32156 32.6054 0
CELLS 1910 17190
8 18 6 25 56 2 0 5 16
8 57 23 6 18 17 4 0 2
8 78 36 9 29 31 11 1 7
8 31 11 1 7 79 37 10 30
8 110 57 18 50 48 17 2 14
8 50 18 56 111 14 2 16 49
8 116 62 22 55 52 20 3 15
8 56 25 67 118 16 5 24 53
8 119 63 23 57 54 21 4 17
8 55 22 63 119 15 3 21 54
8 58 26 68 121 18 6 25 56
8 122 65 26 58 57 23 6 18
8 73 31 7 27 142 79 30 71
8 143 78 29 72 73 31 7 27
8 83 147 76 34 32 74 28 8
8 84 148 78 36 33 75 29 9
8 76 34 8 28 148 84 33 75
8 37 79 150 86 10 30 77 35
8 151 87 36 78 80 38 11 31
8 80 38 11 31 152 88 37 79
8 175 100 42 94 96 44 12 40
8 44 96 176 101 12 40 95 43
8 101 176 98 46 43 95 41 13
8 46 98 178 103 13 41 97 45
8 178 103 45 97 147 83 32 74
8 189 116 55 109 106 52 15 47
8 111 56 118 191 49 16 53 107
8 192 119 57 110 108 54 17 48
8 109 55 119 192 47 15 54 108
8 194 122 58 112 110 57 18 50
8 112 58 121 195 50 18 56 111
8 115 61 19 51 197 124 59 113
8 115 61 125 198 51 19 60 114
8 198 125 62 116 114 60 20 52
8 200 127 64 120 116 62 22 55
8 118 67 132 202 53 24 66 117
8 121 68 133 203 56 25 67 118
8 120 64 128 204 55 22 63 119
8 204 128 65 122 119 63 23 57
8 206 134 68 121 123 69 26 58
8 123 69 26 58 207 131 65 122
8 226 147 74 138 140 76 28 70
8 229 148 75 139 143 78 29 72
8 140 76 28 70 229 148 75 139
8 142 79 30 71 231 150 77 141
8 144 80 31 73 232 152 79 142
8 233 151 78 143 144 80 31 73
8 150 86 35 77 235 154 81 145
8 235 154 81 145 146 82 39 91
8 146 82 39 91 236 155 90 165
8 238 157 83 147 149 85 34 76
8 239 158 84 148 151 87 36 78
8 149 85 34 76 239 158 84 148
8 152 88 37 79 241 160 86 150
8 242 161 87 151 153 89 38 80
8 153 89 38 80 243 162 88 152
8 171 98 41 92 265 178 97 169
8 265 178 97 169 226 147 74 138
8 172 96 40 93 266 176 95 170
8 266 176 95 170 171 98 41 92
8 269 175 94 173 172 96 40 93
8 271 180 99 174 175 100 42 94
8 197 124 59 113 271 180 99 174
8 272 181 100 175 177 102 44 96
8 273 182 101 176 179 104 46 98
8 177 102 44 96 273 182 101 176
8 179 104 46 98 275 184 103 178
8 275 184 103 178 238 157 83 147
8 188 115 51 105 283 197 113 186
8 188 115 198 284 105 51 114 187
8 284 198 116 189 187 114 52 106
8 286 200 120 193 189 116 55 109
8 191 118 202 288 107 53 117 190
8 195 121 203 289 111 56 118 191
8 193 120 204 290 109 55 119 192
8 290 204 122 194 192 119 57 110
8 196 123 58 112 292 207 122 194
8 293 206 121 195 196 123 58 112
8 199 126 61 115 297 211 124 197
8 298 212 127 200 198 125 62 116
8 199 126 212 298 115 61 125 198
8 205 129 64 120 300 214 127 200
8 301 217 130 201 202 132 66 117
8 209 136 168 264 301 217 130 201
8 302 219 132 202 203 133 67 118
8 303 220 133 203 206 134 68 121
8 205 129 215 304 120 64 128 204
8 304 215 131 207 204 128 65 122
8 306 221 134 206 208 135 69 123
8 208 135 69 123 307 218 131 207
8 210 137 167 263 309 223 136 209
8 328 238 147 226 230 149 76 140
8 228 146 91 166 329 236 165 260
8 231 150 77 141 330 235 145 227
8 330 235 145 227 228 146 91 166
8 332 239 148 229 233 151 78 143
8 230 149 76 140 332 239 148 229
8 232 152 79 142 334 241 150 231
8 234 153 80 144 335 243 152 232
8 336 242 151 233 234 153 80 144
8 236 155 90 165 338 245 164 259
8 241 160 86 150 339 246 154 235
8 339 246 154 235 237 156 82 146
8 237 156 82 146 340 247 155 236
8 342 249 157 238 240 159 85 149
8 343 250 158 239 242 161 87 151
8 240 159 85 149 343 250 158 239
8 243 162 88 152 345 252 160 241
8 244 163 253 346 153 89 161 242
8 244 163 89 153 347 254 162 243
8 311 224 261 371 210 137 167 263
8 263 167 262 372 209 136 168 264
8 267 179 98 171 375 275 178 265
8 375 275 178 265 328 238 147 226
8 376 273 176 266 267 179 98 171
8 268 177 96 172 376 273 176 266
8 379 272 175 269 268 177 96 172
8 380 271 174 270 269 175 94 173
8 283 197 113 186 380 271 174 270
8 381 277 180 271 272 181 100 175
8 297 211 124 197 381 277 180 271
8 382 278 181 272 274 183 102 177
8 274 183 102 177 383 279 182 273
8 383 279 182 273 276 185 104 179
8 385 281 184 275 342 249 157 238
8 276 185 104 179 385 281 184 275
8 285 199 115 188 393 297 197 283
8 394 298 200 286 284 198 116 189
8 285 199 298 394 188 115 198 284
8 291 205 120 193 396 300 200 286
8 397 301 201 287 288 202 117 190
8 295 209 264 374 397 301 201 287
8 398 302 202 288 289 203 118 191
8 399 303 203 289 293 206 121 195
8 291 205 304 400 193 120 204 290
8 400 304 207 292 290 204 122 194
8 294 208 123 196 402 307 207 292
8 403 306 206 293 294 208 123 196
8 296 210 263 373 405 309 209 295
8 408 312 213 299 297 211 126 199
8 299 213 313 409 199 126 212 298
8 409 313 214 300 298 212 127 200
8 305 216 129 205 411 315 214 300
8 412 318 217 301 302 219 132 202
8 309 223 136 209 412 318 217 301
8 413 320 219 302 303 220 133 203
8 306 221 321 414 206 134 220 303
8 307 218 131 207 415 316 215 304
8 305 216 316 415 205 129 215 304
8 417 322 221 306 308 222 135 208
8 308 222 135 208 418 319 218 307
8 310 225 137 210 420 325 223 309
8 423 326 224 311 310 225 137 210
8 329 236 165 260 441 338 259 368
8 442 342 238 328 333 240 149 230
8 331 237 146 228 443 340 236 329
8 334 241 150 231 444 339 235 330
8 444 339 235 330 331 237 146 228
8 446 343 239 332 336 242 151 233
8 333 240 149 230 446 343 239 332
8 335 243 152 232 448 345 241 334
8 337 244 153 234 449 347 243 335
8 337 244 346 450 234 153 242 336
8 338 245 164 259 452 349 258 367
8 340 247 155 236 453 350 245 338
8 345 252 160 241 454 351 246 339
8 454 351 246 339 341 248 156 237
8 341 248 156 237 455 352 247 340
8 240 159 251 344 342 249 354 457
8 242 161 253 346 343 250 355 458
8 343 250 355 458 240 159 251 344
8 347 254 162 243 460 357 252 345
8 348 255 358 461 244 163 253 346
8 348 255 163 244 462 359 254 347
8 473 360 257 365 363 256 364 482
8 452 349 258 367 365 257 366 485
8 422 324 369 488 311 224 261 371
8 371 261 370 490 263 167 262 372
8 407 311 371 491 296 210 263 373
8 373 263 372 492 295 209 264 374
8 493 385 275 375 442 342 238 328
8 377 276 179 267 493 385 275 375
8 378 274 177 268 494 383 273 376
8 494 383 273 376 377 276 179 267
8 497 382 272 379 378 274 177 268
8 498 381 271 380 379 272 175 269
8 393 297 197 283 498 381 271 380
8 499 387 277 381 382 278 181 272
8 408 312 211 297 499 387 277 381
8 500 388 278 382 384 280 183 274
8 501 389 279 383 386 282 185 276
8 384 280 183 274 501 389 279 383
8 386 282 185 276 503 391 281 385
8 503 391 281 385 457 354 249 342
8 511 408 299 395 393 297 199 285
8 395 299 409 512 285 199 298 394
8 512 409 300 396 394 298 200 286
8 401 305 205 291 514 411 300 396
8 515 412 301 397 398 302 202 288
8 405 309 209 295 515 412 301 397
8 516 413 302 398 399 303 203 289
8 403 306 414 517 293 206 303 399
8 402 307 207 292 518 415 304 400
8 401 305 415 518 291 205 304 400
8 404 308 208 294 520 418 307 402
8 521 417 306 403 404 308 208 294
8 406 310 210 296 523 420 309 405
8 526 423 311 407 406 310 210 296
8 410 314 213 299 527 424 312 408
8 528 425 315 411 409 313 214 300
8 410 314 425 528 299 213 313 409
8 416 317 216 305 530 427 315 411
8 531 430 318 412 413 320 219 302
8 420 325 223 309 531 430 318 412
8 532 432 320 413 414 321 220 303
8 417 322 433 533 306 221 321 414
8 418 319 218 307 534 428 316 415
8 416 317 428 534 305 216 316 415
8 419 323 434 536 308 222 322 417
8 419 323 222 308 537 431 319 418
8 421 327 225 310 539 438 325 420
8 421 327 439 541 310 225 326 423
8 543 437 324 422 423 326 224 311
8 441 338 259 368 559 452 367 486
8 443 340 236 329 560 453 338 441
8 333 240 344 447 442 342 457 561
8 445 341 237 331 562 455 340 443
8 448 345 241 334 563 454 339 444
8 563 454 339 444 445 341 237 331
8 336 242 346 450 446 343 458 565
8 446 343 458 565 333 240 344 447
8 449 347 243 335 567 460 345 448
8 451 348 244 337 568 462 347 449
8 451 348 461 569 337 244 346 450
8 570 463 349 452 473 360 257 365
8 453 350 245 338 570 463 349 452
8 455 352 247 340 571 464 350 453
8 460 357 252 345 572 465 351 454
8 572 465 351 454 456 353 248 341
8 456 353 248 341 573 466 352 455
8 344 251 356 459 457 354 468 575
8 458 355 469 576 344 251 356 459
8 346 253 358 461 458 355 469 576
8 462 359 254 347 578 471 357 460
8 348 255 359 462 461 358 472 579
8 591 474 360 473 475 361 256 363
8 475 361 256 363 594 477 362 479
8 363 256 364 482 479 362 480 603
8 590 473 365 484 481 363 482 605
8 482 364 257 365 606 483 366 485
8 559 452 367 486 484 365 485 607
8 542 436 487 609 422 324 369 488
8 525 422 488 611 407 311 371 491
8 488 369 489 612 371 261 370 490
8 491 371 490 613 373 263 372 492
8 495 386 276 377 614 503 385 493
8 614 503 385 493 561 457 342 442
8 615 501 383 494 495 386 276 377
8 496 384 274 378 615 501 383 494
8 618 500 382 497 496 384 274 378
8 619 499 381 498 497 382 272 379
8 511 408 297 393 619 499 381 498
8 620 505 387 499 500 388 278 382
8 527 424 312 408 620 505 387 499
8 502 390 506 621 384 280 388 500
8 622 507 389 501 504 392 282 386
8 502 390 280 384 622 507 389 501
8 504 392 282 386 624 509 391 503
8 624 509 391 503 575 468 354 457
8 513 410 299 395 630 527 408 511
8 631 528 411 514 512 409 300 396
8 513 410 528 631 395 299 409 512
8 519 416 305 401 633 530 411 514
8 634 531 412 515 516 413 302 398
8 523 420 309 405 634 531 412 515
8 635 532 413 516 517 414 303 399
8 521 417 533 636 403 306 414 517
8 520 418 307 402 637 534 415 518
8 519 416 534 637 401 305 415 518
8 522 419 308 404 639 537 418 520
8 522 419 536 640 404 308 417 521
8 524 421 310 406 642 539 420 523
8 524 421 541 644 406 310 423 526
8 646 543 422 525 526 423 311 407
8 529 426 314 410 647 544 424 527
8 528 425 545 648 411 315 427 530
8 529 426 545 648 410 314 425 528
8 535 429 317 416 649 546 427 530
8 650 548 430 531 532 432 320 413
8 539 438 325 420 650 548 430 531
8 533 433 550 651 414 321 432 532
8 536 434 551 652 417 322 433 533
8 537 431 319 418 653 547 428 534
8 535 429 547 653 416 317 428 534
8 538 435 552 654 419 323 434 536
8 538 435 323 419 655 549 431 537
8 540 440 327 421 657 556 438 539
8 540 440 557 659 421 327 439 541
8 541 439 555 660 423 326 437 543
8 661 554 436 542 543 437 324 422
8 676 570 452 559 590 473 365 484
8 560 453 338 441 676 570 452 559
8 562 455 340 443 677 571 453 560
8 447 344 459 566 561 457 575 678
8 564 456 341 445 679 573 455 562
8 567 460 345 448 680 572 454 563
8 680 572 454 563 564 456 341 445
8 565 458 576 682 447 344 459 566
8 450 346 461 569 565 458 576 682
8 568 462 347 449 684 578 460 567
8 451 348 462 568 569 461 579 685
8 686 580 463 570 591 474 360 473
8 571 464 350 453 686 580 463 570
8 573 466 352 455 687 581 464 571
8 572 465 582 688 460 357 471 578
8 574 467 582 688 456 353 465 572
8 574 467 353 456 689 583 466 573
8 459 356 470 577 575 468 585 691
8 576 469 586 692 459 356 470 577
8 461 358 472 579 576 469 586 692
8 462 359 471 578 579 472 588 694
8 704 591 473 590 593 475 363 481
8 595 476 592 705 475 361 474 591
8 593 475 363 481 707 594 479 602
8 594 477 362 479 709 598 478 600
8 595 476 361 475 711 597 477 594
8 479 362 480 603 600 478 601 720
8 481 363 482 605 602 479 603 722
8 603 480 364 482 723 604 483 606
8 605 482 365 484 724 606 485 607
8 656 553 608 726 542 436 487 609
8 645 542 609 728 525 422 488 611
8 609 487 610 729 488 369 489 612
8 611 488 612 730 491 371 490 613
8 616 504 386 495 731 624 503 614
8 731 624 503 614 678 575 457 561
8 732 622 501 615 616 504 386 495
8 617 502 384 496 732 622 501 615
8 617 502 621 735 496 384 500 618
8 736 620 499 619 618 500 382 497
8 630 527 408 511 736 620 499 619
8 621 506 626 737 500 388 505 620
8 647 544 424 527 737 626 505 620
8 623 508 627 738 502 390 506 621
8 623 508 390 502 739 628 507 622
8 625 510 628 739 504 392 507 622
8 740 629 509 624 691 585 468 575
8 625 510 392 504 740 629 509 624
8 632 529 410 513 744 647 527 630
8 631 528 648 745 514 411 530 633
8 632 529 648 745 513 410 528 631
8 638 535 416 519 746 649 530 633
8 747 650 531 634 635 532 413 516
8 642 539 420 523 747 650 531 634
8 636 533 651 748 517 414 532 635
8 640 536 652 749 521 417 533 636
8 639 537 418 520 750 653 534 637
8 638 535 653 750 519 416 534 637
8 641 538 419 522 751 655 537 639
8 641 538 654 752 522 419 536 640
8 643 540 421 524 753 657 539 642
8 643 540 659 755 524 421 541 644
8 644 541 660 757 526 423 543 646
8 758 661 542 645 646 543 422 525
8 529 426 544 647 648 545 662 759
8 530 427 545 648 649 546 663 760
8 535 429 546 649 653 547 664 761
8 762 666 548 650 651 550 432 532
8 657 556 438 539 762 666 548 650
8 652 551 668 763 533 433 550 651
8 654 552 669 764 536 434 551 652
8 655 549 431 537 765 665 547 653
8 538 435 549 655 654 552 667 766
8 661 554 671 768 542 436 553 656
8 658 558 440 540 769 674 556 657
8 658 558 675 770 540 440 557 659
8 659 557 673 771 541 439 555 660
8 660 555 672 772 543 437 554 661
8 788 686 570 676 704 591 473 590
8 677 571 453 560 788 686 570 676
8 679 573 455 562 789 687 571 677
8 566 459 577 683 678 575 691 790
8 681 574 456 564 791 689 573 679
8 680 572 688 792 567 460 578 684
8 681 574 688 792 564 456 572 680
8 682 576 692 794 566 459 577 683
8 569 461 579 685 682 576 692 794
8 568 462 578 684 685 579 694 796
8 687 581 464 571 798 696 580 686
8 798 696 580 686 705 592 474 591
8 689 583 466 573 799 697 581 687
8 688 582 698 800 578 471 588 694
8 690 584 698 800 574 467 582 688
8 690 584 467 574 801 699 583 689
8 693 587 701 803 577 470 585 691
8 693 587 470 577 804 702 586 692
8 695 589 702 804 579 472 586 692
8 695 589 472 579 805 703 588 694
8 708 595 705 813 593 475 591 704
8 710 596 706 814 595 476 592 705
8 707 594 479 602 816 709 600 719
8 708 595 475 593 817 711 594 707
8 709 598 478 600 819 715 599 717
8 711 597 477 594 820 714 598 709
8 710 596 476 595 822 713 597 711
8 600 478 601 720 717 599 718 832
8 602 479 603 722 719 600 720 834
8 720 601 480 603 835 721 604 723
8 722 603 482 605 836 723 606 724
8 767 670 725 839 656 553 608 726
8 756 656 726 841 645 542 609 728
8 726 608 727 842 609 487 610 729
8 728 609 729 843 611 488 612 730
8 844 740 624 731 790 691 575 678
8 733 625 504 616 844 740 624 731
8 734 623 502 617 845 739 622 732
8 733 625 739 845 616 504 622 732
8 734 623 738 846 617 502 621 735
8 735 621 737 847 618 500 620 736
8 744 647 527 630 847 737 620 736
8 621 506 627 738 737 626 741 848
8 647 544 626 737 759 662 741 848
8 623 508 628 739 738 627 742 849
8 740 629 585 691 850 743 700 802
8 625 510 629 740 739 628 743 850
8 632 529 647 744 745 648 759 854
8 633 530 648 745 746 649 760 855
8 638 535 649 746 750 653 761 856
8 857 762 650 747 748 651 532 635
8 753 657 539 642 857 762 650 747
8 749 652 763 858 636 533 651 748
8 752 654 764 859 640 536 652 749
8 751 655 537 639 860 765 653 750
8 641 538 655 751 752 654 766 861
8 754 658 540 643 862 769 657 753
8 754 658 770 863 643 540 659 755
8 755 659 771 864 644 541 660 757
8 758 661 768 866 645 542 656 756
8 757 660 772 867 646 543 661 758
8 759 662 773 868 648 545 663 760
8 649 546 663 760 761 664 774 871
8 765 665 547 653 872 775 664 761
8 873 777 666 762 763 668 550 651
8 769 674 556 657 873 777 666 762
8 764 669 779 874 652 551 668 763
8 654 552 667 766 764 669 778 875
8 655 549 665 765 766 667 776 876
8 768 671 782 877 656 553 670 767
8 772 672 783 878 661 554 671 768
8 658 558 674 769 770 675 786 879
8 659 557 675 770 771 673 785 881
8 882 784 672 772 771 673 555 660
8 789 687 571 677 897 798 686 788
8 897 798 686 788 813 705 591 704
8 791 689 573 679 898 799 687 789
8 795 693 803 900 683 577 691 790
8 793 690 574 681 901 801 689 791
8 792 688 800 902 684 578 694 796
8 793 690 800 902 681 574 688 792
8 795 693 577 683 903 804 692 794
8 797 695 804 903 685 579 692 794
8 797 695 579 685 904 805 694 796
8 905 806 697 799 798 696 581 687
8 814 706 806 905 705 592 696 798
8 689 583 697 799 801 699 808 907
8 800 698 809 908 694 588 703 805
8 690 584 699 801 800 698 809 908
8 803 701 810 909 691 585 700 802
8 693 587 702 804 803 701 811 910
8 695 589 703 805 804 702 812 911
8 818 710 814 919 708 595 705 813
8 821 712 815 920 710 596 706 814
8 816 709 600 719 922 819 717 831
8 817 711 594 707 923 820 709 816
8 818 710 595 708 924 822 711 817
8 819 715 599 717 926 827 716 829
8 820 714 598 709 927 826 715 819
8 929 825 713 822 820 714 597 711
8 821 712 596 710 930 824 713 822
8 717 599 718 832 829 716 830 942
8 719 600 720 834 831 717 832 944
8 832 718 601 720 945 833 721 835
8 834 720 603 722 946 835 723 836
8 869 780 838 950 767 670 725 839
8 865 767 839 952 756 656 726 841
8 839 725 840 953 726 608 727 842
8 841 726 842 954 728 609 729 843
8 844 740 691 790 955 850 802 899
8 733 625 740 844 845 739 850 955
8 734 623 739 845 846 738 849 956
8 735 621 738 846 847 737 848 957
8 744 647 737 847 854 759 848 957
8 738 627 742 849 848 741 851 958
8 848 741 851 958 759 662 773 868
8 850 743 700 802 959 852 807 906
8 849 742 628 739 959 852 743 850
8 854 759 868 965 745 648 760 855
8 746 649 760 855 856 761 871 966
8 860 765 653 750 967 872 761 856
8 968 873 762 857 858 763 651 748
8 862 769 657 753 968 873 762 857
8 859 764 874 969 749 652 763 858
8 752 654 766 861 859 764 875 970
8 751 655 765 860 861 766 876 971
8 754 658 769 862 863 770 879 972
8 755 659 770 863 864 771 881 974
8 976 882 772 867 864 771 660 757
8 866 768 877 977 756 656 767 865
8 867 772 878 978 758 661 768 866
8 760 663 773 868 871 774 883 980
8 870 781 837 948 982 890 780 869
8 982 890 780 869 877 782 670 767
8 761 664 774 871 872 775 884 984
8 876 776 665 765 985 885 775 872
8 873 777 668 763 986 887 779 874
8 769 674 777 873 879 786 887 986
8 764 669 778 875 874 779 888 987
8 766 667 776 876 875 778 886 988
8 878 783 892 989 768 671 782 877
8 878 783 672 772 990 893 784 882
8 880 787 675 770 991 896 786 879
8 880 787 895 992 770 675 785 881
8 881 785 894 993 771 673 784 882
8 1006 905 799 898 897 798 687 789
8 919 814 905 1006 813 705 798 897
8 791 689 799 898 901 801 907 1007
8 900 803 909 1009 790 691 802 899
8 795 693 804 903 900 803 910 1010
8 902 800 908 1011 796 694 805 904
8 793 690 801 901 902 800 908 1011
8 797 695 805 904 903 804 911 1012
8 799 697 806 905 907 808 912 1013
8 920 815 912 1013 814 706 806 905
8 802 700 810 909 906 807 913 1014
8 801 699 808 907 908 809 914 1015
8 805 703 809 908 911 812 915 1016
8 803 701 811 910 909 810 916 1017
8 911 812 917 1018 804 702 811 910
8 925 821 920 1030 818 710 814 919
8 928 823 921 1031 821 712 815 920
8 922 819 717 831 1033 926 829 941
8 923 820 709 816 1034 927 819 922
8 1035 929 822 924 923 820 711 817
8 925 821 710 818 1036 930 822 924
8 1038 933 825 929 927 826 714 820
8 926 827 716 829 1039 935 828 939
8 927 826 715 819 1040 934 827 926
8 928 823 712 821 1041 931 824 930
8 1042 932 824 930 929 825 713 822
8 829 716 830 942 939 828 940 1058
8 831 717 832 944 941 829 942 1060
8 942 830 718 832 1061 943 833 945
8 944 832 720 834 1062 945 835 946
8 981 889 947 1064 870 781 837 948
8 948 837 949 1067 869 780 838 950
8 975 869 950 1069 865 767 839 952
8 950 838 951 1070 839 725 840 953
8 952 839 953 1071 841 726 842 954
8 955 850 802 899 1072 959 906 1008
8 956 849 739 845 1072 959 850 955
8 846 738 849 956 957 848 958 1073
8 957 848 958 1073 854 759 868 965
8 849 742 852 959 958 851 961 1076
8 960 853 961 1076 906 807 852 959
8 958 851 961 1076 868 773 883 980
8 960 853 807 906 1077 963 913 1014
8 855 760 868 965 966 871 980 1085
8 856 761 871 966 967 872 984 1086
8 971 876 765 860 1087 985 872 967
8 968 873 763 858 1088 986 874 969
8 862 769 873 968 972 879 986 1088
8 859 764 875 970 969 874 987 1089
8 861 766 876 971 970 875 988 1090
8 973 880 770 863 1091 991 879 972
8 973 880 992 1092 863 770 881 974
8 974 881 993 1093 864 771 882 976
8 979 870 948 1066 1094 982 869 975
8 1094 982 869 975 977 877 767 865
8 978 878 772 867 1095 990 882 976
8 978 878 989 1096 866 768 877 977
8 871 774 883 980 984 884 994 1099
8 983 891 999 1100 870 781 889 981
8 1101 1000 890 982 989 892 782 877
8 983 891 781 870 1101 1000 890 982
8 872 775 884 984 985 885 995 1103
8 876 776 885 985 988 886 996 1104
8 986 887 779 874 1105 998 888 987
8 879 786 887 986 991 896 998 1105
8 875 778 886 988 987 888 997 1106
8 990 893 1002 1107 878 783 892 989
8 1108 1003 893 990 993 894 784 882
8 880 787 896 991 992 895 1005 1109
8 993 894 785 881 1110 1004 895 992
8 898 799 905 1006 1007 907 1013 1120
8 1030 920 1013 1120 919 814 905 1006
8 901 801 907 1007 1011 908 1015 1121
8 899 802 909 1009 1008 906 1014 1122
8 900 803 910 1010 1009 909 1017 1123
8 1012 911 1018 1124 903 804 910 1010
8 904 805 908 1011 1012 911 1016 1125
8 1013 912 1020 1127 907 808 914 1015
8 1031 921 1020 1127 920 815 912 1013
8 1019 918 962 1075 1128 1021 913 1014
8 1128 1021 913 1014 1017 916 810 909
8 1015 914 1022 1129 908 809 915 1016
8 1016 915 1023 1130 911 812 917 1018
8 1018 917 1024 1131 910 811 916 1017
8 1037 928 1031 1148 925 821 920 1030
8 928 823 931 1041 1031 921 1032 1149
8 1033 926 829 941 1151 1039 939 1057
8 1034 927 819 922 1152 1040 926 1033
8 1153 1038 929 1035 1034 927 820 923
8 1154 1042 930 1036 1035 929 822 924
8 1037 928 821 925 1155 1041 930 1036
8 1039 935 828 939 1156 1047 938 1055
8 1157 1043 932 1042 1038 933 825 929
8 1038 933 826 927 1158 1045 934 1040
8 1040 934 827 926 1159 1046 935 1039
8 930 824 932 1042 1041 931 1044 1160
8 1051 936 1048 1165 1175 1052 937 1053
8 1156 1047 938 1055 1053 937 1054 1178
8 939 828 940 1058 1055 938 1056 1181
8 941 829 942 1060 1057 939 1058 1183
8 942 830 943 1061 1058 940 1059 1184
8 1060 942 832 944 1185 1061 945 1062
8 1082 964 1063 1188 981 889 947 1064
8 1097 981 1064 1190 979 870 948 1066
8 1064 947 1065 1191 948 837 949 1067
8 1066 948 1067 1193 975 869 950 1069
8 1067 949 1068 1194 950 838 951 1070
8 1069 950 1070 1195 952 839 953 1071
8 956 849 959 1072 1073 958 1076 1197
8 1074 960 1076 1197 1008 906 959 1072
8 1073 958 1076 1197 965 868 980 1085
8 1074 960 906 1008 1198 1077 1014 1122
8 1133 1026 1079 1199 1019 918 962 1075
8 1077 963 913 1014 1200 1080 962 1075
8 960 853 963 1077 1076 961 1078 1201
8 980 883 961 1076 1099 994 1078 1201
8 1210 1083 964 1082 1100 999 889 981
8 966 871 980 1085 1086 984 1099 1215
8 967 872 984 1086 1087 985 1103 1216
8 971 876 985 1087 1090 988 1104 1217
8 1088 986 874 969 1218 1105 987 1089
8 972 879 986 1088 1091 991 1105 1218
8 970 875 988 1090 1089 987 1106 1219
8 973 880 991 1091 1092 992 1109 1220
8 1093 993 881 974 1221 1110 992 1092
8 1222 1108 990 1095 1093 993 882 976
8 1223 1101 982 1094 1096 989 877 977
8 1098 983 870 979 1223 1101 982 1094
8 1095 990 1107 1224 978 878 989 1096
8 1098 983 1100 1225 979 870 981 1097
8 984 884 994 1099 1103 995 1111 1227
8 1102 1001 1115 1228 983 891 999 1100
8 1101 1000 892 989 1229 1116 1002 1107
8 1102 1001 891 983 1229 1116 1000 1101
8 985 885 995 1103 1104 996 1112 1230
8 988 886 996 1104 1106 997 1113 1231
8 1105 998 888 987 1232 1114 997 1106
8 991 896 998 1105 1109 1005 1114 1232
8 1108 1003 1117 1233 990 893 1002 1107
8 1108 1003 894 993 1233 1117 1004 1110
8 992 895 1005 1109 1110 1004 1118 1234
8 1120 1013 1127 1244 1007 907 1015 1121
8 1148 1031 1127 1244 1030 920 1013 1120
8 1121 1015 1129 1245 1011 908 1016 1125
8 1126 1019 1075 1196 1246 1128 1014 1122
8 1246 1128 1014 1122 1123 1017 909 1009
8 1124 1018 1131 1247 1010 910 1017 1123
8 1125 1016 1130 1248 1012 911 1018 1124
8 1127 1020 1137 1254 1015 914 1022 1129
8 1031 921 1032 1149 1127 1020 1137 1254
8 1134 1027 918 1019 1257 1140 1021 1128
8 1257 1140 1021 1128 1131 1024 916 1017
8 1129 1022 1141 1258 1016 915 1023 1130
8 1130 1023 1142 1259 1018 917 1024 1131
8 1261 1144 1025 1132 1133 1026 1079 1199
8 1255 1138 1025 1132 1135 1028 1144 1261
8 1133 1026 918 1019 1262 1145 1027 1134
8 1136 1029 1139 1256 1263 1146 1028 1135
8 1037 928 1041 1155 1148 1031 1149 1275
8 1041 931 1044 1160 1149 1032 1150 1276
8 1151 1039 939 1057 1278 1156 1055 1180
8 1152 1040 926 1033 1279 1159 1039 1151
8 1153 1038 927 1034 1280 1158 1040 1152
8 1281 1157 1042 1154 1153 1038 929 1035
8 1036 930 1042 1154 1155 1041 1160 1282
8 1283 1164 1046 1159 1156 1047 935 1039
8 1165 1048 1164 1283 1053 937 1047 1156
8 1157 1043 933 1038 1284 1161 1045 1158
8 1157 1043 1161 1284 1042 932 1044 1160
8 1040 934 1046 1159 1158 1045 1163 1285
8 1166 1049 1167 1292 1051 936 1048 1165
8 1166 1049 936 1051 1293 1168 1050 1172
8 1051 936 1052 1175 1172 1050 1173 1306
8 1174 1051 1165 1290 1308 1175 1053 1177
8 1053 937 1054 1178 1175 1052 1176 1309
8 1278 1156 1055 1180 1177 1053 1178 1311
8 1055 938 1056 1181 1178 1054 1179 1312
8 1057 939 1058 1183 1180 1055 1181 1314
8 1058 940 1059 1184 1181 1056 1182 1315
8 1060 942 1061 1185 1183 1058 1184 1316
8 1208 1081 1187 1321 1082 964 1063 1188
8 1209 1082 1188 1322 1097 981 1064 1190
8 1188 1063 1189 1323 1064 947 1065 1191
8 1190 1064 1191 1325 1066 948 1067 1193
8 1191 1065 1192 1326 1067 949 1068 1194
8 1067 1193 1069 950 1194 1327 1195 1070
8 1250 1133 1199 1330 1126 1019 1075 1196
8 1198 1077 1014 1122 1331 1200 1075 1196
8 1074 960 1077 1198 1197 1076 1201 1332
8 1085 980 1076 1197 1215 1099 1201 1332
8 1199 1079 1203 1333 1075 962 1080 1200
8 1132 1025 1119 1243 1199 1079 1203 1333
8 1201 1078 963 1077 1334 1202 1080 1200
8 1099 994 1078 1201 1227 1111 1202 1334
8 1343 1207 1081 1208 1210 1083 964 1082
8 1214 1084 1186 1319 1343 1207 1081 1208
8 1345 1210 1082 1209 1225 1100 981 1097
8 1346 1211 1083 1210 1228 1115 999 1100
8 1086 984 1099 1215 1216 1103 1227 1352
8 1087 985 1103 1216 1217 1104 1230 1353
8 1090 988 1104 1217 1219 1106 1231 1354
8 1218 1105 987 1089 1355 1232 1106 1219
8 1091 991 1105 1218 1220 1109 1232 1355
8 1092 992 1109 1220 1221 1110 1234 1356
8 1222 1108 1233 1357 1095 990 1107 1224
8 1222 1108 993 1093 1357 1233 1110 1221
8 1223 1101 989 1096 1358 1229 1107 1224
8 1226 1102 983 1098 1358 1229 1101 1223
8 1226 1102 1228 1359 1098 983 1100 1225
8 1103 995 1111 1227 1230 1112 1235 1360
8 1107 1002 1117 1233 1229 1116 1240 1362
8 1102 1001 1116 1229 1228 1115 1240 1362
8 1104 996 1112 1230 1231 1113 1236 1363
8 1364 1237 1114 1232 1231 1113 997 1106
8 1109 1005 1114 1232 1234 1118 1238 1365
8 1110 1004 1118 1234 1233 1117 1241 1366
8 1242 1374 1255 1138 1119 1243 1132 1025
8 1244 1127 1254 1376 1121 1015 1129 1245
8 1148 1031 1149 1275 1244 1127 1254 1376
8 1245 1129 1258 1377 1125 1016 1130 1248
8 1251 1134 1019 1126 1378 1257 1128 1246
8 1378 1257 1128 1246 1247 1131 1017 1123
8 1248 1130 1259 1379 1124 1018 1131 1247
8 1261 1381 1250 1133 1132 1249 1330 1199
8 1255 1380 1252 1135 1132 1249 1381 1261
8 1250 1133 1019 1126 1382 1262 1134 1251
8 1253 1136 1256 1385 1384 1263 1135 1252
8 1254 1137 1265 1387 1129 1022 1141 1258
8 1149 1032 1150 1276 1254 1137 1265 1387
8 1028 1135 1255 1138 1139 1256 1388 1266
8 1136 1029 1147 1264 1256 1139 1267 1389
8 1390 1268 1140 1257 1259 1142 1024 1131
8 1260 1143 1027 1134 1390 1268 1140 1257
8 1258 1141 1269 1391 1130 1023 1142 1259
8 1262 1145 1027 1134 1393 1271 1143 1260
8 1261 1144 1026 1133 1394 1272 1145 1262
8 1135 1028 1144 1261 1263 1146 1272 1394
8 1136 1029 1146 1263 1264 1147 1273 1395
8 1155 1041 1160 1282 1275 1149 1276 1405
8 1276 1150 1044 1160 1406 1277 1162 1286
8 1408 1283 1159 1279 1278 1156 1039 1151
8 1290 1165 1283 1408 1177 1053 1156 1278
8 1152 1040 1159 1279 1280 1158 1285 1409
8 1281 1157 1038 1153 1410 1284 1158 1280
8 1281 1157 1284 1410 1154 1042 1160 1282
8 1159 1046 1164 1283 1285 1163 1289 1412
8 1292 1167 1289 1412 1165 1048 1164 1283
8 1158 1045 1163 1285 1284 1161 1288 1413
8 1284 1161 1288 1413 1160 1044 1162 1286
8 1291 1166 1292 1418 1174 1051 1165 1290
8 1291 1166 1051 1174 1419 1293 1172 1305
8 1294 1169 1296 1421 1166 1049 1167 1292
8 1293 1168 1050 1172 1422 1295 1171 1303
8 1294 1169 1049 1166 1423 1297 1168 1293
8 1422 1295 1171 1303 1301 1170 1302 1435
8 1172 1050 1173 1306 1303 1171 1304 1438
8 1174 1051 1175 1308 1305 1172 1306 1440
8 1175 1052 1176 1309 1306 1173 1307 1441
8 1177 1053 1178 1311 1308 1175 1309 1443
8 1178 1054 1179 1312 1309 1176 1310 1444
8 1180 1055 1181 1314 1311 1178 1312 1446
8 1056 1181 1312 1179 1182 1315 1447 1313
8 1183 1058 1184 1316 1314 1181 1315 1448
8 1319 1186 1084 1214 1451 1317 1213 1350
8 1319 1186 1318 1453 1208 1081 1187 1321
8 1321 1187 1320 1456 1188 1063 1189 1323
8 1344 1208 1321 1457 1209 1082 1188 1322
8 1322 1188 1323 1458 1190 1064 1191 1325
8 1323 1189 1324 1459 1191 1065 1192 1326
8 1191 1325 1193 1067 1326 1460 1327 1194
8 1242 1374 1243 1119 1328 1462 1335 1204
8 1330 1199 1333 1465 1196 1075 1200 1331
8 1132 1249 1330 1199 1243 1375 1465 1333
8 1332 1201 1077 1198 1466 1334 1200 1331
8 1215 1099 1201 1332 1352 1227 1334 1466
8 1119 1243 1333 1203 1204 1335 1470 1338
8 1333 1203 1338 1470 1200 1080 1202 1334
8 1227 1111 1202 1334 1360 1235 1338 1470
8 1328 1462 1335 1204 1205 1336 1471 1339
8 1337 1206 1340 1472 1464 1329 1205 1336
8 1346 1211 1342 1479 1210 1083 1207 1343
8 1346 1211 1115 1228 1479 1342 1239 1361
8 1348 1212 1084 1214 1479 1342 1207 1343
8 1480 1343 1208 1344 1345 1210 1082 1209
8 1351 1214 1319 1454 1480 1343 1208 1344
8 1481 1346 1210 1345 1359 1228 1100 1225
8 1348 1212 1347 1483 1214 1084 1213 1350
8 1216 1103 1227 1352 1353 1230 1360 1488
8 1217 1104 1230 1353 1354 1231 1363 1489
8 1490 1364 1232 1355 1354 1231 1106 1219
8 1220 1109 1232 1355 1356 1234 1365 1491
8 1221 1110 1234 1356 1357 1233 1366 1492
8 1224 1107 1233 1357 1358 1229 1362 1493
8 1226 1102 1229 1358 1359 1228 1362 1493
8 1230 1112 1235 1360 1363 1236 1367 1496
8 1361 1239 1115 1228 1497 1371 1240 1362
8 1366 1241 1372 1498 1233 1117 1240 1362
8 1364 1237 1113 1231 1499 1368 1236 1363
8 1364 1237 1368 1499 1232 1114 1238 1365
8 1234 1118 1238 1365 1366 1241 1369 1500
8 1507 1373 1242 1374 1388 1266 1138 1255
8 1508 1374 1243 1375 1380 1255 1132 1249
8 1376 1254 1387 1509 1245 1129 1258 1377
8 1275 1149 1276 1405 1376 1254 1387 1509
8 1377 1258 1391 1510 1248 1130 1259 1379
8 1511 1390 1257 1378 1379 1259 1131 1247
8 1383 1260 1134 1251 1511 1390 1257 1378
8 1252 1135 1256 1385 1380 1255 1388 1512
8 1261 1381 1513 1394 1133 1250 1382 1262
8 1135 1252 1384 1263 1261 1381 1513 1394
8 1382 1262 1134 1251 1514 1393 1260 1383
8 1253 1136 1263 1384 1386 1264 1395 1516
8 1253 1136 1264 1386 1385 1256 1389 1517
8 1387 1265 1397 1519 1258 1141 1269 1391
8 1276 1150 1277 1406 1387 1265 1397 1519
8 1256 1139 1267 1389 1388 1266 1398 1520
8 1264 1147 1274 1396 1389 1267 1399 1521
8 1392 1270 1143 1260 1522 1400 1268 1390
8 1390 1268 1142 1259 1522 1400 1269 1391
8 1392 1270 1401 1523 1260 1143 1271 1393
8 1272 1394 1524 1402 1145 1262 1393 1271
8 1395 1273 1146 1263 1524 1402 1272 1394
8 1273 1395 1264 1147 1403 1526 1396 1274
8 1405 1276 1160 1282 1534 1406 1286 1411
8 1414 1287 1407 1535 1286 1162 1277 1406
8 1279 1159 1283 1408 1409 1285 1412 1537
8 1418 1292 1412 1537 1290 1165 1283 1408
8 1280 1158 1285 1409 1410 1284 1413 1538
8 1410 1284 1413 1538 1282 1160 1286 1411
8 1285 1163 1289 1412 1413 1288 1417 1540
8 1421 1296 1417 1540 1292 1167 1289 1412
8 1414 1287 1162 1286 1541 1416 1288 1413
8 1420 1294 1421 1545 1291 1166 1292 1418
8 1419 1293 1172 1305 1546 1422 1303 1437
8 1420 1294 1166 1291 1547 1423 1293 1419
8 1294 1169 1297 1423 1421 1296 1425 1548
8 1423 1297 1168 1293 1549 1424 1295 1422
8 1301 1170 1298 1427 1422 1295 1424 1549
8 1432 1300 1428 1554 1301 1170 1298 1427
8 1431 1299 1428 1554 1560 1430 1300 1432
8 1563 1433 1300 1432 1435 1302 1170 1301
8 1546 1422 1303 1437 1434 1301 1435 1565
8 1303 1171 1304 1438 1435 1302 1436 1566
8 1305 1172 1306 1440 1437 1303 1438 1568
8 1306 1173 1307 1441 1438 1304 1439 1569
8 1308 1175 1309 1443 1440 1306 1441 1571
8 1309 1176 1310 1444 1441 1307 1442 1572
8 1311 1178 1312 1446 1443 1309 1444 1574
8 1179 1312 1444 1310 1313 1447 1575 1445
8 1314 1181 1315 1448 1446 1312 1447 1576
8 1350 1213 1349 1486 1451 1317 1449 1579
8 1451 1317 1450 1581 1319 1186 1318 1453
8 1454 1319 1214 1351 1582 1451 1350 1487
8 1453 1318 1452 1584 1321 1187 1320 1456
8 1454 1319 1453 1585 1344 1208 1321 1457
8 1456 1320 1455 1586 1323 1189 1324 1459
8 1457 1321 1456 1587 1322 1188 1323 1458
8 1458 1323 1459 1588 1325 1191 1326 1460
8 1205 1336 1464 1329 1328 1462 1590 1461
8 1507 1373 1461 1590 1374 1242 1328 1462
8 1508 1374 1462 1591 1375 1243 1335 1467
8 1337 1206 1329 1464 1473 1341 1463 1594
8 1375 1243 1335 1467 1465 1333 1470 1596
8 1465 1333 1470 1596 1331 1200 1334 1466
8 1352 1227 1334 1466 1488 1360 1470 1596
8 1591 1462 1336 1468 1467 1335 1471 1597
8 1469 1337 1472 1598 1595 1464 1336 1468
8 1471 1339 1474 1600 1335 1204 1338 1470
8 1600 1474 1367 1496 1470 1338 1235 1360
8 1336 1205 1340 1472 1471 1339 1475 1601
8 1337 1206 1341 1473 1472 1340 1476 1602
8 1495 1370 1478 1609 1361 1239 1342 1479
8 1348 1212 1342 1479 1483 1347 1478 1609
8 1481 1346 1479 1610 1345 1210 1343 1480
8 1481 1346 1228 1359 1610 1479 1361 1494
8 1484 1348 1214 1351 1610 1479 1343 1480
8 1483 1347 1482 1612 1350 1213 1349 1486
8 1484 1348 1483 1613 1351 1214 1350 1487
8 1353 1230 1360 1488 1489 1363 1496 1616
8 1490 1364 1231 1354 1617 1499 1363 1489
8 1490 1364 1499 1617 1355 1232 1365 1491
8 1356 1234 1365 1491 1492 1366 1500 1619
8 1492 1366 1498 1620 1357 1233 1362 1493
8 1494 1361 1228 1359 1621 1497 1362 1493
8 1495 1370 1239 1361 1622 1504 1371 1497
8 1363 1236 1367 1496 1499 1368 1501 1623
8 1497 1371 1240 1362 1624 1505 1372 1498
8 1625 1503 1372 1498 1500 1369 1241 1366
8 1365 1238 1368 1499 1500 1369 1502 1626
8 1520 1398 1506 1633 1388 1266 1373 1507
8 1634 1507 1374 1508 1512 1388 1255 1380
8 1509 1387 1519 1635 1377 1258 1391 1510
8 1405 1276 1406 1534 1509 1387 1519 1635
8 1515 1392 1260 1383 1636 1522 1390 1511
8 1511 1390 1259 1379 1636 1522 1391 1510
8 1385 1256 1389 1517 1512 1388 1520 1637
8 1513 1394 1262 1382 1638 1524 1393 1514
8 1395 1516 1638 1524 1263 1384 1513 1394
8 1515 1392 1523 1639 1383 1260 1393 1514
8 1516 1395 1526 1640 1386 1264 1396 1518
8 1386 1264 1396 1518 1517 1389 1521 1641
8 1519 1397 1527 1643 1391 1269 1400 1522
8 1535 1407 1527 1643 1406 1277 1397 1519
8 1389 1267 1399 1521 1520 1398 1528 1644
8 1645 1529 1399 1521 1525 1404 1274 1396
8 1392 1270 1400 1522 1523 1401 1531 1646
8 1524 1402 1271 1393 1648 1532 1401 1523
8 1403 1526 1648 1532 1273 1395 1524 1402
8 1525 1404 1274 1396 1649 1533 1403 1526
8 1539 1414 1535 1657 1411 1286 1406 1534
8 1542 1415 1536 1658 1414 1287 1407 1535
8 1409 1285 1412 1537 1538 1413 1540 1660
8 1545 1421 1540 1660 1418 1292 1412 1537
8 1539 1414 1286 1411 1661 1541 1413 1538
8 1540 1417 1544 1663 1413 1288 1416 1541
8 1421 1296 1425 1548 1540 1417 1544 1663
8 1542 1415 1287 1414 1664 1543 1416 1541
8 1420 1294 1423 1547 1545 1421 1548 1666
8 1547 1423 1293 1419 1667 1549 1422 1546
8 1434 1301 1427 1553 1546 1422 1549 1667
8 1423 1297 1424 1549 1548 1425 1550 1668
8 1551 1426 1550 1668 1427 1298 1424 1549
8 1551 1426 1298 1427 1671 1552 1428 1554
8 1562 1432 1554 1674 1434 1301 1427 1553
8 1431 1299 1429 1558 1554 1428 1555 1675
8 1431 1299 1430 1560 1558 1429 1557 1680
8 1560 1430 1300 1432 1683 1559 1433 1563
8 1561 1431 1554 1674 1684 1560 1432 1562
8 1685 1563 1432 1562 1565 1435 1301 1434
8 1435 1302 1436 1566 1563 1433 1564 1686
8 1437 1303 1438 1568 1565 1435 1566 1688
8 1438 1304 1439 1569 1566 1436 1567 1689
8 1440 1306 1441 1571 1568 1438 1569 1691
8 1441 1307 1442 1572 1569 1439 1570 1692
8 1443 1309 1444 1574 1571 1441 1572 1694
8 1310 1444 1572 1442 1445 1575 1695 1573
8 1446 1312 1447 1576 1574 1444 1575 1696
8 1486 1349 1485 1614 1579 1449 1577 1699
8 1451 1317 1449 1579 1581 1450 1578 1701
8 1487 1350 1486 1615 1582 1451 1579 1702
8 1581 1450 1580 1704 1453 1318 1452 1584
8 1582 1451 1581 1705 1454 1319 1453 1585
8 1584 1452 1583 1706 1456 1320 1455 1586
8 1585 1453 1584 1707 1457 1321 1456 1587
8 1587 1456 1586 1708 1458 1323 1459 1588
8 1633 1506 1589 1710 1507 1373 1461 1590
8 1464 1329 1461 1590 1594 1463 1589 1710
8 1468 1336 1462 1591 1595 1464 1590 1711
8 1634 1507 1590 1711 1508 1374 1462 1591
8 1473 1341 1463 1594 1603 1477 1593 1716
8 1469 1337 1464 1595 1599 1473 1594 1717
8 1471 1597 1467 1335 1600 1718 1596 1470
8 1718 1600 1496 1616 1596 1470 1360 1488
8 1336 1468 1597 1471 1472 1598 1719 1601
8 1469 1337 1473 1599 1598 1472 1602 1720
8 1722 1604 1501 1623 1600 1474 1367 1496
8 1475 1601 1471 1339 1604 1722 1600 1474
8 1602 1476 1605 1723 1472 1340 1475 1601
8 1476 1602 1724 1606 1341 1473 1603 1477
8 1483 1347 1478 1609 1612 1482 1608 1731
8 1495 1370 1504 1622 1609 1478 1608 1731
8 1618 1495 1609 1732 1494 1361 1479 1610
8 1484 1348 1479 1610 1613 1483 1609 1732
8 1486 1349 1482 1612 1614 1485 1611 1733
8 1613 1483 1612 1734 1487 1350 1486 1615
8 1489 1363 1496 1616 1617 1499 1623 1736
8 1491 1365 1499 1617 1619 1500 1626 1737
8 1618 1495 1361 1494 1738 1622 1497 1621
8 1739 1625 1498 1620 1619 1500 1366 1492
8 1621 1497 1362 1493 1740 1624 1498 1620
8 1742 1631 1504 1622 1624 1505 1371 1497
8 1743 1628 1502 1626 1623 1501 1368 1499
8 1744 1630 1505 1624 1625 1503 1372 1498
8 1745 1629 1503 1625 1626 1502 1369 1500
8 1520 1398 1528 1644 1633 1506 1632 1751
8 1637 1520 1633 1752 1512 1388 1507 1634
8 1635 1519 1643 1753 1510 1391 1522 1636
8 1657 1535 1643 1753 1534 1406 1519 1635
8 1515 1392 1522 1636 1639 1523 1646 1754
8 1517 1389 1521 1641 1637 1520 1644 1755
8 1524 1638 1756 1648 1393 1514 1639 1523
8 1640 1526 1395 1516 1756 1648 1524 1638
8 1642 1525 1396 1518 1757 1649 1526 1640
8 1758 1645 1521 1641 1642 1525 1396 1518
8 1646 1531 1400 1522 1760 1650 1527 1643
8 1535 1407 1536 1658 1643 1527 1650 1760
8 1521 1399 1529 1645 1644 1528 1651 1761
8 1647 1530 1652 1762 1525 1404 1529 1645
8 1401 1523 1648 1532 1531 1646 1763 1655
8 1525 1404 1533 1649 1647 1530 1654 1765
8 1533 1649 1766 1656 1403 1526 1648 1532
8 1662 1542 1658 1774 1539 1414 1535 1657
8 1542 1415 1543 1664 1658 1536 1659 1775
8 1660 1540 1663 1777 1538 1413 1541 1661
8 1545 1421 1548 1666 1660 1540 1663 1777
8 1662 1542 1414 1539 1778 1664 1541 1661
8 1664 1543 1416 1541 1779 1665 1544 1663
8 1548 1425 1550 1668 1663 1544 1665 1779
8 1547 1423 1549 1667 1666 1548 1668 1781
8 1670 1551 1668 1781 1553 1427 1549 1667
8 1551 1426 1552 1671 1668 1550 1669 1782
8 1670 1551 1427 1553 1784 1671 1554 1674
8 1675 1555 1672 1785 1554 1428 1552 1671
8 1678 1556 1673 1789 1558 1429 1555 1675
8 1561 1431 1558 1681 1674 1554 1675 1790
8 1794 1677 1556 1678 1680 1557 1429 1558
8 1560 1430 1559 1683 1680 1557 1679 1797
8 1561 1431 1560 1684 1681 1558 1680 1798
8 1563 1433 1564 1686 1683 1559 1682 1800
8 1684 1560 1432 1562 1801 1683 1563 1685
8 1565 1435 1566 1688 1685 1563 1686 1802
8 1566 1436 1567 1689 1686 1564 1687 1803
8 1568 1438 1569 1691 1688 1566 1689 1805
8 1569 1439 1570 1692 1689 1567 1690 1806
8 1571 1441 1572 1694 1691 1569 1692 1808
8 1442 1572 1692 1570 1573 1695 1809 1693
8 1574 1444 1575 1696 1694 1572 1695 1810
8 1614 1485 1592 1712 1699 1577 1697 1813
8 1579 1449 1577 1699 1701 1578 1698 1815
8 1615 1486 1614 1735 1702 1579 1699 1816
8 1701 1578 1700 1818 1581 1450 1580 1704
8 1582 1451 1579 1702 1705 1581 1701 1819
8 1704 1580 1703 1820 1584 1452 1583 1706
8 1705 1581 1704 1821 1585 1453 1584 1707
8 1707 1584 1706 1822 1587 1456 1586 1708
8 1710 1589 1506 1633 1824 1709 1632 1751
8 1594 1463 1589 1710 1716 1593 1709 1824
8 1752 1633 1710 1825 1634 1507 1590 1711
8 1595 1464 1590 1711 1717 1594 1710 1825
8 1830 1714 1592 1712 1733 1611 1485 1614
8 1603 1477 1593 1716 1725 1607 1715 1834
8 1599 1473 1594 1717 1721 1603 1716 1835
8 1837 1722 1623 1736 1718 1600 1496 1616
8 1719 1601 1722 1837 1597 1471 1600 1718
8 1602 1720 1598 1472 1723 1838 1719 1601
8 1720 1602 1473 1599 1839 1724 1603 1721
8 1723 1605 1726 1840 1601 1475 1604 1722
8 1840 1726 1628 1743 1722 1604 1501 1623
8 1724 1606 1727 1841 1602 1476 1605 1723
8 1725 1607 1728 1842 1603 1477 1606 1724
8 1612 1482 1608 1731 1733 1611 1730 1849
8 1741 1627 1730 1849 1622 1504 1608 1731
8 1613 1483 1609 1732 1734 1612 1731 1850
8 1618 1495 1622 1738 1732 1609 1731 1850
8 1615 1486 1612 1734 1735 1614 1733 1851
8 1852 1743 1626 1737 1736 1623 1499 1617
8 1853 1745 1625 1739 1737 1626 1500 1619
8 1855 1742 1622 1738 1740 1624 1497 1621
8 1856 1744 1624 1740 1739 1625 1498 1620
8 1741 1627 1504 1622 1857 1746 1631 1742
8 1742 1631 1505 1624 1858 1749 1630 1744
8 1859 1747 1629 1745 1743 1628 1502 1626
8 1860 1748 1630 1744 1745 1629 1503 1625
8 1644 1528 1651 1761 1751 1632 1750 1865
8 1637 1520 1644 1755 1752 1633 1751 1866
8 1754 1646 1522 1636 1867 1760 1643 1753
8 1657 1535 1658 1774 1753 1643 1760 1867
8 1639 1523 1646 1754 1756 1648 1763 1868
8 1641 1521 1645 1758 1755 1644 1761 1869
8 1757 1649 1526 1640 1870 1766 1648 1756
8 1642 1525 1649 1757 1759 1647 1765 1871
8 1759 1647 1762 1872 1642 1525 1645 1758
8 1760 1650 1767 1874 1646 1531 1655 1763
8 1658 1536 1659 1775 1760 1650 1767 1874
8 1762 1652 1768 1875 1645 1529 1651 1761
8 1764 1653 1769 1876 1647 1530 1652 1762
8 1656 1766 1877 1773 1532 1648 1763 1655
8 1771 1879 1765 1654 1653 1764 1647 1530
8 1533 1649 1765 1654 1656 1766 1880 1772
8 1662 1542 1664 1778 1774 1658 1775 1887
8 1664 1543 1665 1779 1775 1659 1776 1888
8 1778 1664 1541 1661 1890 1779 1663 1777
8 1666 1548 1668 1781 1777 1663 1779 1890
8 1782 1669 1780 1891 1668 1550 1665 1779
8 1670 1551 1671 1784 1781 1668 1782 1893
8 1671 1552 1672 1785 1782 1669 1783 1894
8 1790 1675 1785 1896 1674 1554 1671 1784
8 1675 1555 1673 1789 1785 1672 1786 1897
8 1792 1676 1788 1903 1678 1556 1673 1789
8 1795 1678 1789 1904 1681 1558 1675 1790
8 1792 1676 1556 1678 1906 1791 1677 1794
8 1680 1557 1679 1797 1794 1677 1793 1909
8 1910 1794 1678 1795 1798 1680 1558 1681
8 1683 1559 1682 1800 1797 1679 1796 1912
8 1684 1560 1683 1801 1798 1680 1797 1913
8 1686 1564 1687 1803 1800 1682 1799 1915
8 1685 1563 1686 1802 1801 1683 1800 1916
8 1688 1566 1689 1805 1802 1686 1803 1917
8 1689 1567 1690 1806 1803 1687 1804 1918
8 1691 1569 1692 1808 1805 1689 1806 1920
8 1692 1570 1693 1809 1806 1690 1807 1921
8 1694 1572 1695 1810 1808 1692 1809 1922
8 1829 1713 1811 1926 1712 1592 1697 1813
8 1813 1697 1812 1928 1699 1577 1698 1815
8 1735 1614 1712 1828 1816 1699 1813 1929
8 1815 1698 1814 1931 1701 1578 1700 1818
8 1702 1579 1699 1816 1819 1701 1815 1932
8 1818 1700 1817 1933 1704 1580 1703 1820
8 1819 1701 1818 1934 1705 1581 1704 1821
8 1821 1704 1820 1935 1707 1584 1706 1822
8 1824 1709 1632 1751 1937 1823 1750 1865
8 1716 1593 1709 1824 1834 1715 1823 1937
8 1825 1710 1633 1752 1938 1824 1751 1866
8 1717 1594 1710 1825 1835 1716 1824 1938
8 1945 1830 1712 1828 1851 1733 1614 1735
8 1830 1714 1831 1946 1712 1592 1713 1829
8 1947 1832 1714 1830 1849 1730 1611 1733
8 1843 1729 1607 1725 1950 1833 1715 1834
8 1721 1603 1716 1835 1836 1725 1834 1951
8 1836 1725 1842 1953 1721 1603 1724 1839
8 1723 1838 1719 1601 1840 1954 1837 1722
8 1954 1840 1743 1852 1837 1722 1623 1736
8 1724 1839 1720 1602 1841 1955 1838 1723
8 1841 1727 1844 1956 1723 1605 1726 1840
8 1956 1844 1747 1859 1840 1726 1628 1743
8 1728 1842 1724 1606 1845 1957 1841 1727
8 1725 1607 1729 1843 1842 1728 1846 1958
8 1741 1627 1746 1857 1849 1730 1848 1965
8 1734 1612 1731 1850 1851 1733 1849 1966
8 1854 1741 1849 1966 1738 1622 1731 1850
8 1967 1859 1745 1853 1852 1743 1626 1737
8 1968 1860 1744 1856 1853 1745 1625 1739
8 1854 1741 1622 1738 1969 1857 1742 1855
8 1855 1742 1624 1740 1970 1858 1744 1856
8 1857 1746 1631 1742 1971 1861 1749 1858
8 1858 1749 1630 1744 1972 1863 1748 1860
8 1859 1747 1862 1973 1745 1629 1748 1860
8 1875 1768 1864 1977 1761 1651 1750 1865
8 1755 1644 1761 1869 1866 1751 1865 1978
8 1867 1760 1874 1979 1754 1646 1763 1868
8 1774 1658 1775 1887 1867 1760 1874 1979
8 1870 1766 1648 1756 1980 1877 1763 1868
8 1872 1762 1875 1981 1758 1645 1761 1869
8 1757 1649 1766 1870 1871 1765 1880 1982
8 1983 1879 1764 1873 1871 1765 1647 1759
8 1873 1764 1876 1984 1759 1647 1762 1872
8 1877 1773 1655 1763 1986 1881 1767 1874
8 1775 1659 1776 1888 1874 1767 1881 1986
8 1876 1769 1882 1987 1762 1652 1768 1875
8 1878 1770 1883 1988 1764 1653 1769 1876
8 1880 1772 1656 1766 1989 1886 1773 1877
8 1878 1770 1653 1764 1990 1884 1771 1879
8 1765 1654 1772 1880 1879 1771 1885 1991
8 1778 1664 1779 1890 1887 1775 1888 1997
8 1998 1889 1776 1888 1891 1780 1665 1779
8 1893 1782 1891 2000 1781 1668 1779 1890
8 1894 1783 1892 2001 1782 1669 1780 1891
8 1784 1671 1785 1896 1893 1782 1894 2003
8 1897 1786 1895 2004 1785 1672 1783 1894
8 1790 1675 1789 1904 1896 1785 1897 2006
8 1901 1787 1898 2007 1789 1673 1786 1897
8 1903 1788 1900 2013 1789 1673 1787 1901
8 1792 1676 1791 1906 1903 1788 1902 2016
8 1907 1792 1903 2017 1795 1678 1789 1904
8 1906 1791 1677 1794 2019 1905 1793 1909
8 1907 1792 1678 1795 2020 1906 1794 1910
8 1797 1679 1796 1912 1909 1793 1908 2022
8 1798 1680 1797 1913 1910 1794 1909 2023
8 1800 1682 1799 1915 1912 1796 1911 2025
8 1801 1683 1800 1916 1913 1797 1912 2026
8 1803 1687 1804 1918 1915 1799 1914 2028
8 1802 1686 1803 1917 1916 1800 1915 2029
8 1805 1689 1806 1920 1917 1803 1918 2030
8 1806 1690 1807 1921 1918 1804 1919 2031
8 1808 1692 1809 1922 1920 1806 1921 2032
8 1939 1826 1924 2037 1829 1713 1811 1926
8 1926 1811 1925 2039 1813 1697 1812 1928
8 1944 1829 1926 2040 1828 1712 1813 1929
8 1928 1812 1927 2042 1815 1698 1814 1931
8 1929 1813 1928 2043 1816 1699 1815 1932
8 1931 1814 1930 2044 1818 1700 1817 1933
8 1932 1815 1931 2045 1819 1701 1818 1934
8 1934 1818 1933 2046 1821 1704 1820 1935
8 2048 1936 1823 1937 1977 1864 1750 1865
8 1950 1833 1715 1834 2048 1936 1823 1937
8 1938 1824 1751 1866 2049 1937 1865 1978
8 1835 1716 1824 1938 1951 1834 1937 2049
8 1939 1826 1713 1829 2053 1942 1831 1946
8 1940 1827 1923 2035 2053 1942 1826 1939
8 1945 1830 1946 2058 1828 1712 1829 1944
8 2059 1947 1830 1945 1966 1849 1733 1851
8 1947 1832 1730 1849 2060 1948 1848 1965
8 1947 1832 1948 2060 1830 1714 1831 1946
8 1959 1847 1729 1843 2063 1949 1833 1950
8 1952 1843 1725 1836 2064 1950 1834 1951
8 1836 1725 1843 1952 1953 1842 1958 2066
8 1953 1842 1957 2067 1839 1724 1841 1955
8 1841 1955 1838 1723 1956 2068 1954 1840
8 2068 1956 1859 1967 1954 1840 1743 1852
8 1956 1844 1960 2069 1859 1747 1862 1973
8 1845 1957 1841 1727 1960 2069 1956 1844
8 1728 1842 1957 1845 1846 1958 2071 1961
8 1962 2072 1959 1847 1846 1958 1843 1729
8 1971 1861 1964 2077 1857 1746 1848 1965
8 1854 1741 1857 1969 1966 1849 1965 2078
8 1967 1859 1973 2079 1853 1745 1860 1968
8 1970 1858 1744 1856 2080 1972 1860 1968
8 1969 1857 1742 1855 2081 1971 1858 1970
8 1971 1861 1749 1858 2082 1974 1863 1972
8 1973 1862 1975 2083 1860 1748 1863 1972
8 1987 1882 1976 2086 1875 1768 1864 1977
8 1981 1875 1977 2087 1869 1761 1865 1978
8 1980 1877 1763 1868 2088 1986 1874 1979
8 1887 1775 1888 1997 1979 1874 1986 2088
8 1880 1982 2089 1989 1766 1870 1980 1877
8 1984 1876 1987 2090 1872 1762 1875 1981
8 1765 1871 1983 1879 1880 1982 2091 1991
8 1985 1878 1764 1873 2092 1990 1879 1983
8 1985 1878 1988 2093 1873 1764 1876 1984
8 2094 1992 1881 1986 1998 1889 1776 1888
8 1986 1881 1992 2094 1877 1773 1886 1989
8 1988 1883 1993 2095 1876 1769 1882 1987
8 1878 1770 1884 1990 1988 1883 1994 2096
8 1991 1885 1772 1880 2097 1996 1886 1989
8 1879 1771 1885 1991 1990 1884 1995 2098
8 2103 1998 1888 1997 2000 1891 1779 1890
8 2104 1999 1889 1998 2001 1892 1780 1891
8 2003 1894 2001 2106 1893 1782 1891 2000
8 2004 1895 2002 2107 1894 1783 1892 2001
8 2006 1897 2004 2109 1896 1785 1894 2003
8 2007 1898 2005 2110 1897 1786 1895 2004
8 2014 1901 2007 2112 1904 1789 1897 2006
8 2011 1899 2008 2113 1901 1787 1898 2007
8 2119 2010 1899 2011 2013 1900 1787 1901
8 2016 1902 2012 2122 1903 1788 1900 2013
8 2017 1903 2013 2123 1904 1789 1901 2014
8 1906 1791 1905 2019 2016 1902 2015 2125
8 1907 1792 1906 2020 2017 1903 2016 2126
8 1909 1793 1908 2022 2019 1905 2018 2128
8 2020 1906 1794 1910 2129 2019 1909 2023
8 1912 1796 1911 2025 2022 1908 2021 2131
8 1913 1797 1912 2026 2023 1909 2022 2132
8 1915 1799 1914 2028 2025 1911 2024 2134
8 1916 1800 1915 2029 2026 1912 2025 2135
8 1918 1804 1919 2031 2028 1914 2027 2136
8 1917 1803 1918 2030 2029 1915 2028 2137
8 1920 1806 1921 2032 2030 1918 2031 2138
8 1940 1827 1941 2054 2035 1923 2033 2140
8 2035 1923 2034 2143 1939 1826 1924 2037
8 2037 1924 2036 2146 1926 1811 1925 2039
8 2051 1939 2037 2147 1944 1829 1926 2040
8 2039 1925 2038 2149 1928 1812 1927 2042
8 2040 1926 2039 2150 1929 1813 1928 2043
8 2042 1927 2041 2151 1931 1814 1930 2044
8 2043 1928 2042 2152 1932 1815 1931 2045
8 2045 1931 2044 2153 1934 1818 1933 2046
8 2155 2047 1936 2048 2086 1976 1864 1977
8 2063 1949 1833 1950 2155 2047 1936 2048
8 2156 2048 1937 2049 2087 1977 1865 1978
8 2064 1950 1834 1951 2156 2048 1937 2049
8 2051 1939 1829 1944 2160 2053 1946 2058
8 2052 1940 2035 2144 2160 2053 1939 2051
8 2053 1942 1831 1946 2163 2057 1948 2060
8 2055 1943 1827 1940 2163 2057 1942 2053
8 2055 1943 2056 2164 1940 1827 1941 2054
8 2059 1947 1849 1966 2167 2060 1965 2078
8 2059 1947 2060 2167 1945 1830 1946 2058
8 2077 1964 2061 2168 1965 1848 1948 2060
8 2070 1963 1847 1959 2170 2062 1949 2063
8 2065 1959 1843 1952 2171 2063 1950 2064
8 2173 2072 1958 2066 2065 1959 1843 1952
8 1953 1842 1958 2066 2067 1957 2071 2174
8 2068 1956 2069 2175 1967 1859 1973 2079
8 2067 1957 2069 2175 1955 1841 1956 2068
8 1845 1957 2069 1960 1961 2071 2176 2073
8 2069 1960 2073 2176 1973 1862 1975 2083
8 2070 1963 2075 2177 1959 1847 1962 2072
8 1846 1958 2071 1961 1962 2072 2178 2074
8 2077 1964 1861 1971 2182 2076 1974 2082
8 2081 1971 2077 2183 1969 1857 1965 2078
8 2079 1973 2083 2184 1968 1860 1972 2080
8 2081 1971 1858 1970 2185 2082 1972 2080
8 2083 1975 2084 2186 1972 1863 1974 2082
8 2086 1976 1882 1987 2189 2085 1993 2095
8 2090 1987 2086 2190 1981 1875 1977 2087
8 2191 2094 1986 2088 2103 1998 1888 1997
8 2088 1986 2094 2191 1980 1877 1989 2089
8 1991 2091 2192 2097 1880 1982 2089 1989
8 2093 1988 2095 2193 1984 1876 1987 2090
8 1879 1983 2092 1990 1991 2091 2194 2098
8 1985 1878 1990 2092 2093 1988 2096 2195
8 2097 1996 1886 1989 2196 2099 1992 2094
8 2196 2099 1992 2094 2104 1999 1889 1998
8 1994 2096 1988 1883 2100 2197 2095 1993
8 2096 1994 1884 1990 2198 2101 1995 2098
8 1995 2098 2199 2102 1885 1991 2097 1996
8 2203 2104 1998 2103 2106 2001 1891 2000
8 2107 2002 2105 2204 2001 1892 1999 2104
8 2109 2004 2107 2206 2003 1894 2001 2106
8 2110 2005 2108 2207 2004 1895 2002 2107
8 2112 2007 2110 2209 2006 1897 2004 2109
8 2113 2008 2111 2210 2007 1898 2005 2110
8 2120 2011 2113 2212 2014 1901 2007 2112
8 2117 2009 2114 2213 2011 1899 2008 2113
8 2219 2116 2009 2117 2119 2010 1899 2011
8 2222 2118 2010 2119 2122 2012 1900 2013
8 2223 2119 2011 2120 2123 2013 1901 2014
8 2016 1902 2015 2125 2122 2012 2121 2225
8 2126 2016 2122 2226 2017 1903 2013 2123
8 2019 1905 2018 2128 2125 2015 2124 2228
8 2020 1906 2019 2129 2126 2016 2125 2229
8 2022 1908 2021 2131 2128 2018 2127 2231
8 2023 1909 2022 2132 2129 2019 2128 2232
8 2025 1911 2024 2134 2131 2021 2130 2234
8 2026 1912 2025 2135 2132 2022 2131 2235
8 1914 2028 2134 2024 2027 2136 2236 2133
8 2029 1915 2028 2137 2135 2025 2134 2237
8 2030 1918 2031 2138 2137 2028 2136 2238
8 2157 2050 2139 2240 2054 1941 2033 2140
8 2052 1940 2054 2161 2144 2035 2140 2242
8 2140 2033 2141 2243 2035 1923 2034 2143
8 2143 2034 2142 2246 2037 1924 2036 2146
8 2144 2035 2143 2247 2051 1939 2037 2147
8 2146 2036 2145 2249 2039 1925 2038 2149
8 2147 2037 2146 2250 2040 1926 2039 2150
8 2149 2038 2148 2251 2042 1927 2041 2151
8 2150 2039 2149 2252 2043 1928 2042 2152
8 2152 2042 2151 2253 2045 1931 2044 2153
8 2255 2154 2047 2155 2189 2085 1976 2086
8 2170 2062 1949 2063 2255 2154 2047 2155
8 2256 2155 2048 2156 2190 2086 1977 2087
8 2171 2063 1950 2064 2256 2155 2048 2156
8 2258 2159 2050 2157 2164 2056 1941 2054
8 2160 2053 1946 2058 2262 2163 2060 2167
8 2162 2055 1940 2052 2262 2163 2053 2160
8 2162 2055 2164 2263 2052 1940 2054 2161
8 2163 2057 1948 2060 2264 2165 2061 2168
8 2055 1943 2057 2163 2164 2056 2165 2264
8 2182 2076 2166 2268 2077 1964 2061 2168
8 2183 2077 2168 2269 2078 1965 2060 2167
8 2070 1963 2062 2170 2177 2075 2169 2271
8 2172 2070 1959 2065 2272 2170 2063 2171
8 2172 2070 2177 2273 2065 1959 2072 2173
8 2066 1958 2072 2173 2174 2071 2178 2274
8 2067 1957 2071 2174 2175 2069 2176 2275
8 2175 2069 2176 2275 2079 1973 2083 2184
8 2071 1961 2074 2178 2176 2073 2179 2276
8 2176 2073 2179 2276 2083 1975 2084 2186
8 2072 1962 2075 2177 2178 2074 2180 2277
8 2182 2076 1974 2082 2280 2181 2084 2186
8 2183 2077 1971 2081 2281 2182 2082 2185
8 2184 2083 2186 2282 2080 1972 2082 2185
8 2189 2085 1993 2095 2285 2188 2100 2197
8 2190 2086 1987 2090 2286 2189 2095 2193
8 2192 2097 1989 2089 2287 2196 2094 2191
8 2287 2196 2094 2191 2203 2104 1998 2103
8 2194 2098 1991 2091 2288 2199 2097 2192
8 2195 2096 2197 2289 2093 1988 2095 2193
8 2096 2195 2290 2198 1990 2092 2194 2098
8 2097 1996 2099 2196 2199 2102 2200 2291
8 2196 2099 1999 2104 2291 2200 2105 2204
8 2100 2197 2292 2201 1994 2096 2198 2101
8 1995 2098 2198 2101 2102 2199 2293 2202
8 2206 2107 2204 2296 2106 2001 2104 2203
8 2207 2108 2205 2297 2107 2002 2105 2204
8 2209 2110 2207 2299 2109 2004 2107 2206
8 2210 2111 2208 2300 2110 2005 2108 2207
8 2212 2113 2210 2302 2112 2007 2110 2209
8 2213 2114 2211 2303 2113 2008 2111 2210
8 2220 2117 2213 2305 2120 2011 2113 2212
8 2216 2115 2214 2306 2117 2009 2114 2213
8 2216 2115 2009 2117 2311 2217 2116 2219
8 2219 2116 2010 2119 2314 2218 2118 2222
8 2315 2219 2117 2220 2223 2119 2011 2120
8 2122 2012 2121 2225 2222 2118 2221 2317
8 2318 2222 2119 2223 2226 2122 2013 2123
8 2125 2015 2124 2228 2225 2121 2224 2320
8 2126 2016 2125 2229 2226 2122 2225 2321
8 2128 2018 2127 2231 2228 2124 2227 2323
8 2129 2019 2128 2232 2229 2125 2228 2324
8 2131 2021 2130 2234 2231 2127 2230 2326
8 2132 2022 2131 2235 2232 2128 2231 2327
8 2134 2024 2133 2236 2234 2130 2233 2328
8 2135 2025 2134 2237 2235 2131 2234 2329
8 2137 2028 2136 2238 2237 2134 2236 2330
8 2157 2050 2158 2259 2240 2139 2239 2332
8 2257 2157 2240 2334 2161 2054 2140 2242
8 2240 2139 2241 2335 2140 2033 2141 2243
8 2242 2140 2243 2337 2144 2035 2143 2247
8 2243 2141 2244 2338 2143 2034 2142 2246
8 2246 2142 2245 2341 2146 2036 2145 2249
8 2247 2143 2246 2342 2147 2037 2146 2250
8 2249 2145 2248 2343 2149 2038 2148 2251
8 2250 2146 2249 2344 2150 2039 2149 2252
8 2252 2149 2251 2345 2152 2042 2151 2253
8 2169 2271 2347 2254 2062 2170 2255 2154
8 2189 2085 2188 2285 2255 2154 2254 2347
8 2348 2255 2155 2256 2286 2189 2086 2190
8 2272 2170 2063 2171 2348 2255 2155 2256
8 2349 2258 2157 2257 2263 2164 2054 2161
8 2258 2159 2261 2351 2157 2050 2158 2259
8 2258 2159 2056 2164 2351 2261 2165 2264
8 2262 2163 2060 2167 2355 2264 2168 2269
8 2162 2055 2163 2262 2263 2164 2264 2355
8 2357 2266 2165 2264 2268 2166 2061 2168
8 2268 2166 2076 2182 2361 2267 2181 2280
8 2281 2182 2268 2362 2183 2077 2168 2269
8 2271 2169 2270 2364 2177 2075 2180 2277
8 2172 2070 2170 2272 2273 2177 2271 2365
8 2072 2173 2274 2178 2177 2273 2366 2277
8 2071 2174 2275 2176 2178 2274 2367 2276
8 2275 2176 2276 2367 2184 2083 2186 2282
8 2283 2187 2084 2186 2368 2278 2179 2276
8 2178 2074 2180 2277 2276 2179 2278 2368
8 2283 2187 2279 2370 2186 2084 2181 2280
8 2281 2182 2082 2185 2371 2280 2186 2282
8 2188 2285 2374 2284 2100 2197 2292 2201
8 2286 2189 2095 2193 2375 2285 2197 2289
8 2192 2097 2196 2287 2288 2199 2291 2376
8 2287 2196 2104 2203 2376 2291 2204 2296
8 2194 2098 2199 2288 2290 2198 2293 2377
8 2289 2197 2096 2195 2378 2292 2198 2290
8 2291 2200 2105 2204 2379 2294 2205 2297
8 2199 2102 2200 2291 2293 2202 2294 2379
8 2198 2101 2202 2293 2292 2201 2295 2380
8 2299 2207 2297 2383 2206 2107 2204 2296
8 2300 2208 2298 2384 2207 2108 2205 2297
8 2302 2210 2300 2386 2209 2110 2207 2299
8 2303 2211 2301 2387 2210 2111 2208 2300
8 2305 2213 2303 2389 2212 2113 2210 2302
8 2306 2214 2304 2390 2213 2114 2211 2303
8 2310 2216 2306 2392 2220 2117 2213 2305
8 2308 2215 2307 2393 2216 2115 2214 2306
8 2308 2215 2115 2216 2396 2309 2217 2311
8 2310 2216 2117 2220 2398 2311 2219 2315
8 2311 2217 2116 2219 2399 2312 2218 2314
8 2314 2218 2118 2222 2402 2313 2221 2317
8 2315 2219 2119 2223 2403 2314 2222 2318
8 2225 2121 2224 2320 2317 2221 2316 2405
8 2226 2122 2225 2321 2318 2222 2317 2406
8 2228 2124 2227 2323 2320 2224 2319 2408
8 2229 2125 2228 2324 2321 2225 2320 2409
8 2231 2127 2230 2326 2323 2227 2322 2411
8 2232 2128 2231 2327 2324 2228 2323 2412
8 2234 2130 2233 2328 2326 2230 2325 2413
8 2235 2131 2234 2329 2327 2231 2326 2414
8 2237 2134 2236 2330 2329 2234 2328 2415
8 2259 2158 2260 2352 2332 2239 2331 2417
8 2257 2157 2259 2350 2334 2240 2332 2419
8 2240 2139 2239 2332 2335 2241 2333 2420
8 2334 2240 2335 2422 2242 2140 2243 2337
8 2335 2241 2336 2423 2243 2141 2244 2338
8 2337 2243 2338 2425 2247 2143 2246 2342
8 2338 2244 2339 2426 2246 2142 2245 2341
8 2341 2245 2340 2428 2249 2145 2248 2343
8 2342 2246 2341 2429 2250 2146 2249 2344
8 2344 2249 2343 2430 2252 2149 2251 2345
8 2188 2285 2347 2254 2284 2374 2432 2346
8 2347 2254 2346 2432 2271 2169 2270 2364
8 2365 2271 2170 2272 2433 2347 2255 2348
8 2286 2189 2285 2375 2348 2255 2347 2433
8 2349 2258 2351 2435 2257 2157 2259 2350
8 2349 2258 2164 2263 2435 2351 2264 2355
8 2259 2158 2261 2351 2352 2260 2354 2437
8 2356 2265 2354 2437 2264 2165 2261 2351
8 2441 2357 2264 2355 2362 2268 2168 2269
8 2356 2265 2165 2264 2442 2358 2266 2357
8 2443 2359 2266 2357 2361 2267 2166 2268
8 2370 2279 2360 2446 2280 2181 2267 2361
8 2362 2268 2182 2281 2447 2361 2280 2371
8 2180 2277 2368 2278 2270 2364 2449 2363
8 2271 2365 2273 2177 2364 2450 2366 2277
8 2372 2283 2186 2282 2451 2368 2276 2367
8 2178 2274 2367 2276 2277 2366 2451 2368
8 2283 2187 2278 2368 2370 2279 2369 2452
8 2372 2283 2370 2453 2282 2186 2280 2371
8 2284 2374 2455 2373 2201 2292 2380 2295
8 2375 2285 2197 2289 2456 2374 2292 2378
8 2376 2291 2204 2296 2457 2379 2297 2383
8 2288 2199 2291 2376 2377 2293 2379 2457
8 2198 2290 2378 2292 2293 2377 2458 2380
8 2293 2202 2294 2379 2380 2295 2381 2459
8 2384 2298 2381 2459 2297 2205 2294 2379
8 2386 2300 2384 2463 2299 2207 2297 2383
8 2387 2301 2385 2464 2300 2208 2298 2384
8 2389 2303 2387 2466 2302 2210 2300 2386
8 2390 2304 2388 2467 2303 2211 2301 2387
8 2392 2306 2390 2469 2305 2213 2303 2389
8 2393 2307 2391 2470 2306 2214 2304 2390
8 2395 2308 2393 2472 2310 2216 2306 2392
8 2308 2215 2309 2396 2393 2307 2394 2473
8 2395 2308 2216 2310 2475 2396 2311 2398
8 2396 2309 2217 2311 2476 2397 2312 2399
8 2398 2311 2219 2315 2478 2399 2314 2403
8 2399 2312 2218 2314 2479 2400 2313 2402
8 2317 2221 2316 2405 2402 2313 2401 2482
8 2403 2314 2222 2318 2483 2402 2317 2406
8 2320 2224 2319 2408 2405 2316 2404 2485
8 2321 2225 2320 2409 2406 2317 2405 2486
8 2323 2227 2322 2411 2408 2319 2407 2488
8 2324 2228 2323 2412 2409 2320 2408 2489
8 2326 2230 2325 2413 2411 2322 2410 2490
8 2327 2231 2326 2414 2412 2323 2411 2491
8 2329 2234 2328 2415 2414 2326 2413 2492
8 2417 2331 2260 2352 2494 2416 2353 2438
8 2350 2259 2352 2436 2419 2332 2417 2496
8 2332 2239 2331 2417 2420 2333 2418 2497
8 2334 2240 2332 2419 2422 2335 2420 2499
8 2420 2333 2421 2500 2335 2241 2336 2423
8 2422 2335 2423 2502 2337 2243 2338 2425
8 2423 2336 2424 2503 2338 2244 2339 2426
8 2425 2338 2426 2505 2342 2246 2341 2429
8 2426 2339 2427 2506 2341 2245 2340 2428
8 2429 2341 2428 2507 2344 2249 2343 2430
8 2432 2346 2284 2374 2509 2431 2373 2455
8 2432 2346 2431 2509 2364 2270 2363 2449
8 2375 2285 2374 2456 2433 2347 2432 2510
8 2347 2433 2365 2271 2432 2510 2450 2364
8 2350 2259 2351 2435 2436 2352 2437 2514
8 2440 2356 2437 2514 2355 2264 2351 2435
8 2352 2260 2354 2437 2438 2353 2439 2516
8 2356 2265 2358 2442 2437 2354 2439 2516
8 2440 2356 2264 2355 2518 2442 2357 2441
8 2519 2443 2357 2441 2447 2361 2268 2362
8 2443 2359 2444 2520 2357 2266 2358 2442
8 2443 2359 2267 2361 2520 2444 2360 2446
8 2446 2360 2279 2370 2523 2445 2369 2452
8 2453 2370 2446 2524 2371 2280 2361 2447
8 2449 2363 2448 2525 2368 2278 2369 2452
8 2366 2277 2364 2450 2451 2368 2449 2526
8 2372 2283 2368 2451 2453 2370 2452 2527
8 2455 2373 2295 2380 2529 2454 2382 2460
8 2456 2374 2292 2378 2530 2455 2380 2458
8 2377 2293 2379 2457 2458 2380 2459 2531
8 2463 2384 2459 2531 2383 2297 2379 2457
8 2533 2461 2382 2460 2459 2381 2295 2380
8 2464 2385 2461 2533 2384 2298 2381 2459
8 2466 2387 2464 2537 2386 2300 2384 2463
8 2467 2388 2465 2538 2387 2301 2385 2464
8 2469 2390 2467 2540 2389 2303 2387 2466
8 2470 2391 2468 2541 2390 2304 2388 2467
8 2472 2393 2470 2543 2392 2306 2390 2469
8 2393 2307 2394 2473 2470 2391 2471 2544
8 2395 2308 2396 2475 2472 2393 2473 2546
8 2396 2309 2397 2476 2473 2394 2474 2547
8 2475 2396 2311 2398 2549 2476 2399 2478
8 2476 2397 2312 2399 2550 2477 2400 2479
8 2478 2399 2314 2403 2552 2479 2402 2483
8 2479 2400 2313 2402 2553 2480 2401 2482
8 2405 2316 2404 2485 2482 2401 2481 2556
8 2406 2317 2405 2486 2483 2402 2482 2557
8 2408 2319 2407 2488 2485 2404 2484 2559
8 2409 2320 2408 2489 2486 2405 2485 2560
8 2411 2322 2410 2490 2488 2407 2487 2561
8 2412 2323 2411 2491 2489 2408 2488 2562
8 2414 2326 2413 2492 2491 2411 2490 2563
8 2513 2434 2493 2565 2438 2353 2416 2494
8 2496 2417 2352 2436 2567 2494 2438 2515
8 2494 2416 2495 2568 2417 2331 2418 2497
8 2419 2332 2417 2496 2499 2420 2497 2570
8 2497 2418 2498 2571 2420 2333 2421 2500
8 2499 2420 2500 2573 2422 2335 2423 2502
8 2500 2421 2501 2574 2423 2336 2424 2503
8 2502 2423 2503 2576 2425 2338 2426 2505
8 2503 2424 2504 2577 2426 2339 2427 2506
8 2505 2426 2506 2578 2429 2341 2428 2507
8 2509 2431 2373 2455 2580 2508 2454 2529
8 2509 2431 2508 2580 2449 2363 2448 2525
8 2432 2510 2581 2509 2374 2456 2530 2455
8 2432 2510 2450 2364 2509 2581 2526 2449
8 2583 2511 2434 2513 2516 2439 2353 2438
8 2436 2352 2437 2514 2515 2438 2516 2588
8 2440 2356 2442 2518 2514 2437 2516 2588
8 2442 2358 2444 2520 2516 2439 2517 2589
8 2519 2443 2520 2591 2441 2357 2442 2518
8 2519 2443 2361 2447 2591 2520 2446 2524
8 2446 2360 2445 2523 2520 2444 2521 2592
8 2525 2448 2522 2593 2452 2369 2445 2523
8 2524 2446 2370 2453 2594 2523 2452 2527
8 2526 2449 2525 2595 2451 2368 2452 2527
8 2534 2462 2528 2597 2460 2382 2454 2529
8 2530 2455 2380 2458 2598 2529 2460 2532
8 2599 2533 2460 2532 2531 2459 2380 2458
8 2537 2464 2533 2599 2463 2384 2459 2531
8 2534 2462 2382 2460 2601 2535 2461 2533
8 2538 2465 2535 2601 2464 2385 2461 2533
8 2540 2467 2538 2604 2466 2387 2464 2537
8 2541 2468 2539 2605 2467 2388 2465 2538
8 2543 2470 2541 2607 2469 2390 2467 2540
8 2470 2391 2471 2544 2541 2468 2542 2608
8 2472 2393 2473 2546 2543 2470 2544 2610
8 2473 2394 2474 2547 2544 2471 2545 2611
8 2475 2396 2476 2549 2546 2473 2547 2613
8 2476 2397 2477 2550 2547 2474 2548 2614
8 2549 2476 2399 2478 2616 2550 2479 2552
8 2479 2400 2480 2553 2550 2477 2551 2617
8 2552 2479 2402 2483 2619 2553 2482 2557
8 2482 2401 2481 2556 2553 2480 2554 2620
8 2485 2404 2484 2559 2556 2481 2555 2623
8 2486 2405 2485 2560 2557 2482 2556 2624
8 2488 2407 2487 2561 2559 2484 2558 2625
8 2489 2408 2488 2562 2560 2485 2559 2626
8 2491 2411 2490 2563 2562 2488 2561 2627
8 2513 2434 2512 2585 2565 2493 2564 2630
8 2586 2513 2565 2632 2515 2438 2494 2567
8 2565 2493 2566 2633 2494 2416 2495 2568
8 2567 2494 2568 2635 2496 2417 2497 2570
8 2568 2495 2569 2636 2497 2418 2498 2571
8 2570 2497 2571 2638 2499 2420 2500 2573
8 2571 2498 2572 2639 2500 2421 2501 2574
8 2573 2500 2574 2641 2502 2423 2503 2576
8 2574 2501 2575 2642 2503 2424 2504 2577
8 2576 2503 2577 2643 2505 2426 2506 2578
8 2597 2528 2579 2645 2529 2454 2508 2580
8 2580 2508 2579 2645 2525 2448 2522 2593
8 2581 2509 2455 2530 2646 2580 2529 2598
8 2581 2509 2580 2646 2526 2449 2525 2595
8 2583 2511 2582 2648 2513 2434 2512 2585
8 2583 2511 2439 2516 2648 2582 2517 2589
8 2649 2583 2513 2586 2588 2516 2438 2515
8 2589 2517 2444 2520 2653 2587 2521 2592
8 2518 2442 2520 2591 2588 2516 2589 2654
8 2593 2522 2590 2655 2523 2445 2521 2592
8 2524 2446 2523 2594 2591 2520 2592 2656
8 2595 2525 2593 2657 2527 2452 2523 2594
8 2602 2536 2596 2659 2534 2462 2528 2597
8 2600 2534 2597 2660 2532 2460 2529 2598
8 2600 2534 2460 2532 2661 2601 2533 2599
8 2604 2538 2601 2661 2537 2464 2533 2599
8 2602 2536 2462 2534 2663 2603 2535 2601
8 2601 2535 2465 2538 2663 2603 2539 2605
8 2607 2541 2605 2665 2540 2467 2538 2604
8 2608 2542 2606 2666 2541 2468 2539 2605
8 2543 2470 2544 2610 2607 2541 2608 2668
8 2544 2471 2545 2611 2608 2542 2609 2669
8 2546 2473 2547 2613 2610 2544 2611 2671
8 2547 2474 2548 2614 2611 2545 2612 2672
8 2549 2476 2550 2616 2613 2547 2614 2674
8 2550 2477 2551 2617 2614 2548 2615 2675
8 2552 2479 2553 2619 2616 2550 2617 2677
8 2553 2480 2554 2620 2617 2551 2618 2678
8 2557 2482 2556 2624 2619 2553 2620 2680
8 2556 2481 2555 2623 2620 2554 2621 2681
8 2559 2484 2558 2625 2623 2555 2622 2683
8 2560 2485 2559 2626 2624 2556 2623 2684
8 2562 2488 2561 2627 2626 2559 2625 2685
8 2690 2629 2564 2630 2650 2584 2512 2585
8 2586 2513 2585 2651 2632 2565 2630 2691
8 2630 2564 2631 2692 2565 2493 2566 2633
8 2632 2565 2633 2694 2567 2494 2568 2635
8 2633 2566 2634 2695 2568 2495 2569 2636
8 2635 2568 2636 2697 2570 2497 2571 2638
8 2636 2569 2637 2698 2571 2498 2572 2639
8 2638 2571 2639 2700 2573 2500 2574 2641
8 2639 2572 2640 2701 2574 2501 2575 2642
8 2641 2574 2642 2702 2576 2503 2577 2643
8 2597 2528 2596 2659 2645 2579 2644 2704
8 2645 2579 2644 2704 2593 2522 2590 2655
8 2660 2597 2645 2705 2598 2529 2580 2646
8 2646 2580 2645 2705 2595 2525 2593 2657
8 2650 2584 2512 2585 2707 2647 2582 2648
8 2648 2582 2517 2589 2707 2647 2587 2653
8 2649 2583 2648 2708 2586 2513 2585 2651
8 2649 2583 2516 2588 2708 2648 2589 2654
8 2655 2590 2652 2710 2592 2521 2587 2653
8 2654 2589 2520 2591 2711 2653 2592 2656
8 2657 2593 2655 2712 2594 2523 2592 2656
8 2602 2536 2603 2663 2659 2596 2658 2714
8 2662 2602 2659 2715 2600 2534 2597 2660
8 2662 2602 2534 2600 2717 2663 2601 2661
8 2661 2601 2538 2604 2717 2663 2605 2665
8 2666 2606 2664 2718 2605 2539 2603 2663
8 2668 2608 2666 2720 2607 2541 2605 2665
8 2608 2542 2609 2669 2666 2606 2667 2721
8 2610 2544 2611 2671 2668 2608 2669 2723
8 2611 2545 2612 2672 2669 2609 2670 2724
8 2613 2547 2614 2674 2671 2611 2672 2726
8 2614 2548 2615 2675 2672 2612 2673 2727
8 2616 2550 2617 2677 2674 2614 2675 2729
8 2617 2551 2618 2678 2675 2615 2676 2730
8 2619 2553 2620 2680 2677 2617 2678 2732
8 2620 2554 2621 2681 2678 2618 2679 2733
8 2624 2556 2623 2684 2680 2620 2681 2735
8 2681 2621 2555 2623 2736 2682 2622 2683
8 2626 2559 2625 2685 2684 2623 2683 2737
8 2688 2628 2584 2650 2740 2686 2647 2707
8 2688 2628 2687 2742 2650 2584 2629 2690
8 2690 2629 2689 2745 2630 2564 2631 2692
8 2746 2690 2630 2691 2709 2650 2585 2651
8 2691 2630 2692 2747 2632 2565 2633 2694
8 2692 2631 2693 2748 2633 2566 2634 2695
8 2694 2633 2695 2750 2635 2568 2636 2697
8 2695 2634 2696 2751 2636 2569 2637 2698
8 2697 2636 2698 2753 2638 2571 2639 2700
8 2698 2637 2699 2754 2639 2572 2640 2701
8 2700 2639 2701 2755 2641 2574 2642 2702
8 2659 2596 2658 2714 2704 2644 2703 2757
8 2704 2644 2703 2757 2655 2590 2652 2710
8 2660 2597 2659 2715 2705 2645 2704 2758
8 2705 2645 2704 2758 2657 2593 2655 2712
8 2759 2706 2647 2707 2710 2652 2587 2653
8 2709 2650 2585 2651 2760 2707 2648 2708
8 2708 2648 2589 2654 2760 2707 2653 2711
8 2712 2655 2710 2761 2656 2592 2653 2711
8 2763 2713 2658 2714 2718 2664 2603 2663
8 2662 2602 2663 2717 2715 2659 2714 2764
8 2720 2666 2718 2767 2665 2605 2663 2717
8 2768 2719 2664 2718 2721 2667 2606 2666
8 2668 2608 2669 2723 2720 2666 2721 2770
8 2669 2609 2670 2724 2721 2667 2722 2771
8 2671 2611 2672 2726 2723 2669 2724 2773
8 2672 2612 2673 2727 2724 2670 2725 2774
8 2674 2614 2675 2729 2726 2672 2727 2776
8 2675 2615 2676 2730 2727 2673 2728 2777
8 2677 2617 2678 2732 2729 2675 2730 2779
8 2678 2618 2679 2733 2730 2676 2731 2780
8 2680 2620 2681 2735 2732 2678 2733 2782
8 2733 2679 2621 2681 2783 2734 2682 2736
8 2735 2681 2623 2684 2784 2736 2683 2737
8 2740 2686 2647 2707 2787 2738 2706 2759
8 2688 2628 2686 2740 2742 2687 2739 2789
8 2743 2688 2650 2709 2790 2740 2707 2760
8 2742 2687 2741 2792 2690 2629 2689 2745
8 2743 2688 2742 2793 2709 2650 2690 2746
8 2745 2689 2744 2795 2692 2631 2693 2748
8 2746 2690 2745 2796 2691 2630 2692 2747
8 2747 2692 2748 2797 2694 2633 2695 2750
8 2748 2693 2749 2798 2695 2634 2696 2751
8 2750 2695 2751 2800 2697 2636 2698 2753
8 2751 2696 2752 2801 2698 2637 2699 2754
8 2753 2698 2754 2802 2700 2639 2701 2755
8 2763 2713 2756 2804 2714 2658 2703 2757
8 2759 2706 2652 2710 2804 2756 2703 2757
8 2715 2659 2714 2764 2758 2704 2757 2805
8 2758 2704 2757 2805 2712 2655 2710 2761
8 2806 2759 2707 2760 2761 2710 2653 2711
8 2765 2716 2762 2808 2718 2664 2713 2763
8 2809 2763 2714 2764 2767 2718 2663 2717
8 2765 2716 2664 2718 2811 2766 2719 2768
8 2813 2768 2718 2767 2770 2721 2666 2720
8 2814 2769 2719 2768 2771 2722 2667 2721
8 2723 2669 2724 2773 2770 2721 2771 2816
8 2724 2670 2725 2774 2771 2722 2772 2817
8 2726 2672 2727 2776 2773 2724 2774 2819
8 2727 2673 2728 2777 2774 2725 2775 2820
8 2729 2675 2730 2779 2776 2727 2777 2822
8 2730 2676 2731 2780 2777 2728 2778 2823
8 2732 2678 2733 2782 2779 2730 2780 2825
8 2780 2731 2679 2733 2826 2781 2734 2783
8 2782 2733 2681 2735 2827 2783 2736 2784
8 2830 2785 2738 2787 2804 2756 2706 2759
8 2789 2739 2686 2740 2832 2786 2738 2787
8 2790 2740 2707 2760 2833 2787 2759 2806
8 2742 2687 2739 2789 2792 2741 2788 2835
8 2743 2688 2740 2790 2793 2742 2789 2836
8 2792 2741 2791 2838 2745 2689 2744 2795
8 2793 2742 2792 2839 2746 2690 2745 2796
8 2795 2744 2794 2841 2748 2693 2749 2798
8 2796 2745 2795 2842 2747 2692 2748 2797
8 2797 2748 2798 2843 2750 2695 2751 2800
8 2798 2749 2799 2844 2751 2696 2752 2801
8 2800 2751 2801 2845 2753 2698 2754 2802
8 2808 2762 2803 2847 2763 2713 2756 2804
8 2809 2763 2804 2848 2764 2714 2757 2805
8 2806 2759 2710 2761 2848 2804 2757 2805
8 2765 2716 2766 2811 2808 2762 2807 2850
8 2810 2765 2808 2851 2767 2718 2763 2809
8 2810 2765 2718 2767 2852 2811 2768 2813
8 2811 2766 2719 2768 2853 2812 2769 2814
8 2855 2814 2768 2813 2816 2771 2721 2770
8 2856 2815 2769 2814 2817 2772 2722 2771
8 2773 2724 2774 2819 2816 2771 2817 2858
8 2774 2725 2775 2820 2817 2772 2818 2859
8 2776 2727 2777 2822 2819 2774 2820 2861
8 2777 2728 2778 2823 2820 2775 2821 2862
8 2779 2730 2780 2825 2822 2777 2823 2864
8 2823 2778 2731 2780 2865 2824 2781 2826
8 2825 2780 2733 2782 2866 2826 2783 2827
8 2869 2828 2785 2830 2847 2803 2756 2804
8 2871 2829 2786 2832 2830 2785 2738 2787
8 2872 2830 2787 2833 2848 2804 2759 2806
8 2789 2739 2786 2832 2835 2788 2831 2874
8 2836 2789 2740 2790 2875 2832 2787 2833
8 2792 2741 2788 2835 2838 2791 2834 2877
8 2793 2742 2789 2836 2839 2792 2835 2878
8 2838 2791 2837 2880 2795 2744 2794 2841
8 2839 2792 2838 2881 2796 2745 2795 2842
8 2841 2794 2840 2882 2798 2749 2799 2844
8 2842 2795 2841 2883 2797 2748 2798 2843
8 2843 2798 2844 2884 2800 2751 2801 2845
8 2886 2846 2803 2847 2850 2807 2762 2808
8 2851 2808 2847 2887 2809 2763 2804 2848
8 2850 2807 2766 2811 2889 2849 2812 2853
8 2810 2765 2811 2852 2851 2808 2850 2890
8 2852 2811 2768 2813 2891 2853 2814 2855
8 2853 2812 2769 2814 2892 2854 2815 2856
8 2894 2856 2814 2855 2858 2817 2771 2816
8 2817 2772 2818 2859 2856 2815 2857 2895
8 2819 2774 2820 2861 2858 2817 2859 2897
8 2820 2775 2821 2862 2859 2818 2860 2898
8 2822 2777 2823 2864 2861 2820 2862 2900
8 2823 2778 2824 2865 2862 2821 2863 2901
8 2864 2823 2780 2825 2902 2865 2826 2866
8 2904 2867 2828 2869 2886 2846 2803 2847
8 2869 2828 2868 2906 2830 2785 2829 2871
8 2907 2869 2830 2872 2887 2847 2804 2848
8 2871 2829 2870 2909 2832 2786 2831 2874
8 2910 2871 2832 2875 2872 2830 2787 2833
8 2835 2788 2831 2874 2877 2834 2873 2912
8 2836 2789 2832 2875 2878 2835 2874 2913
8 2877 2834 2876 2915 2838 2791 2837 2880
8 2839 2792 2835 2878 2881 2838 2877 2916
8 2880 2837 2879 2917 2841 2794 2840 2882
8 2881 2838 2880 2918 2842 2795 2841 2883
8 2883 2841 2882 2919 2843 2798 2844 2884
8 2921 2885 2846 2886 2889 2849 2807 2850
8 2922 2886 2847 2887 2890 2850 2808 2851
8 2889 2849 2812 2853 2924 2888 2854 2892
8 2890 2850 2811 2852 2925 2889 2853 2891
8 2891 2853 2814 2855 2926 2892 2856 2894
8 2892 2854 2815 2856 2927 2893 2857 2895
8 2858 2817 2859 2897 2894 2856 2895 2929
8 2859 2818 2860 2898 2895 2857 2896 2930
8 2861 2820 2862 2900 2897 2859 2898 2932
8 2862 2821 2863 2901 2898 2860 2899 2933
8 2864 2823 2865 2902 2900 2862 2901 2934
8 2904 2867 2846 2886 2936 2903 2885 2921
8 2904 2867 2903 2936 2869 2828 2868 2906
8 2937 2904 2869 2907 2922 2886 2847 2887
8 2906 2868 2905 2939 2871 2829 2870 2909
8 2907 2869 2906 2940 2872 2830 2871 2910
8 2909 2870 2908 2942 2874 2831 2873 2912
8 2910 2871 2909 2943 2875 2832 2874 2913
8 2912 2873 2911 2945 2877 2834 2876 2915
8 2878 2835 2874 2913 2916 2877 2912 2946
8 2915 2876 2914 2947 2880 2837 2879 2917
8 2916 2877 2915 2948 2881 2838 2880 2918
8 2918 2880 2917 2949 2883 2841 2882 2919
8 2921 2885 2849 2889 2951 2920 2888 2924
8 2952 2921 2886 2922 2925 2889 2850 2890
8 2924 2888 2854 2892 2954 2923 2893 2927
8 2925 2889 2853 2891 2955 2924 2892 2926
8 2926 2892 2856 2894 2956 2927 2895 2929
8 2895 2857 2896 2930 2927 2893 2928 2957
8 2897 2859 2898 2932 2929 2895 2930 2959
8 2898 2860 2899 2933 2930 2896 2931 2960
8 2900 2862 2901 2934 2932 2898 2933 2961
8 2936 2903 2885 2921 2963 2935 2920 2951
8 2936 2903 2935 2963 2906 2868 2905 2939
8 2937 2904 2886 2922 2964 2936 2921 2952
8 2937 2904 2936 2964 2907 2869 2906 2940
8 2939 2905 2938 2966 2909 2870 2908 2942
8 2940 2906 2939 2967 2910 2871 2909 2943
8 2942 2908 2941 2969 2912 2873 2911 2945
8 2943 2909 2942 2970 2913 2874 2912 2946
8 2945 2911 2944 2971 2915 2876 2914 2947
8 2946 2912 2945 2972 2916 2877 2915 2948
8 2948 2915 2947 2973 2918 2880 2917 2949
8 2951 2920 2888 2924 2975 2950 2923 2954
8 2952 2921 2889 2925 2976 2951 2924 2955
8 2927 2893 2928 2957 2954 2923 2953 2978
8 2955 2924 2892 2926 2979 2954 2927 2956
8 2929 2895 2930 2959 2956 2927 2957 2980
8 2930 2896 2931 2960 2957 2928 2958 2981
8 2932 2898 2933 2961 2959 2930 2960 2982
8 2951 2920 2950 2975 2963 2935 2962 2984
8 2963 2935 2962 2984 2939 2905 2938 2966
8 2964 2936 2921 2952 2985 2963 2951 2976
8 2964 2936 2963 2985 2940 2906 2939 2967
8 2966 2938 2965 2987 2942 2908 2941 2969
8 2967 2939 2966 2988 2943 2909 2942 2970
8 2969 2941 2968 2989 2945 2911 2944 2971
8 2970 2942 2969 2990 2946 2912 2945 2972
8 2972 2945 2971 2991 2948 2915 2947 2973
8 2954 2923 2953 2978 2975 2950 2974 2993
8 2976 2951 2924 2955 2994 2975 2954 2979
8 2957 2928 2958 2981 2978 2953 2977 2995
8 2956 2927 2957 2980 2979 2954 2978 2996
8 2959 2930 2960 2982 2980 2957 2981 2997
8 2984 2962 2983 2999 2966 2938 2965 2987
8 2975 2950 2974 2993 2984 2962 2983 2999
8 2976 2951 2975 2994 2985 2963 2984 3000
8 2985 2963 2984 3000 2967 2939 2966 2988
8 2987 2965 2986 3001 2969 2941 2968 2989
8 2988 2966 2987 3002 2970 2942 2969 2990
8 2990 2969 2989 3003 2972 2945 2971 2991
8 2978 2953 2977 2995 2993 2974 2992 3004
8 2979 2954 2978 2996 2994 2975 2993 3005
8 2980 2957 2981 2997 2996 2978 2995 3006
8 2974 2993 2999 2983 2992 3004 3007 2998
8 2983 2999 2987 2965 2998 3007 3001 2986
8 3000 2984 2999 3008 2988 2966 2987 3002
8 2994 2975 2993 3005 3000 2984 2999 3008
8 3002 2987 3001 3009 2990 2969 2989 3003
8 2996 2978 2995 3006 3005 2993 3004 3010
8 3005 2993 3004 3010 3008 2999 3007 3011
8 3008 2999 3007 3011 3002 2987 3001 3009

CELL_TYPES 1910
12
12
12
12
12
12
12
12
12
12
12
12
12
12
12
12
12
12
12
12
12
12
12
12
12
12
12
12
12
12
12
12
12
12
12
12
12
12
12
12
12
12
12
12
12
12
12
12
12
12
12
12
12
12
12
12
12
12
12
12
12
12
12
12
12
12
12
12
12
12
12
12
12
12
12
12
12
12
12
12
12
12
12
12
12
12
12
12
12
12
12
12
12
12
12
12
12
12
12
12
12
12
12
12
12
12
12
12
12
12
12
12
12
12
12
12
12
12
12
12
12
12
12
12
12
12
12
12
12
12
12
12
12
12
12
12
12
12
12
12
12
12
12
12
12
12
12
12
12
12
12
12
12
12
12
12
12
12
12
12
12
12
12
12
12
12
12
12
12
12
12
12
12
12
12
12
12
12
12
12
12
12
12
12
12
12
12
12
12
12
12
12
12
12
12
12
12
12
12
12
12
12
12
12
12
12
12
12
12
12
12
12
12
12
12
12
12
12
12
12
12
12
12
12
12
12
12
12
12
12
12
12
12
12
12
12
12
12
12
12
12
12
12
12
12
12
12
12
12
12
12
12
12
12
12
12
12
12
12
12
12
12
12
12
12
12
12
12
12
12
12
12
12
12
12
12
12
12
12
12
12
12
12
12
12
12
12
12
12
12
12
12
12
12
12
12
12
12
12
12
12
12
12
12
12
12
12
12
12
12
12
12
12
12
12
12
12
12
12
12
12
12
12
12
12
12
12
12
12
12
12
12
12
12
12
12
12
12
12
12
12
12
12
12
12
12
12
12
12
12
12
12
12
12
12
12
12
12
12
12
12
12
12
12
12
12
12
12
12
12
12
12
12
12
12
12
12
12
12
12
12
12
12
12
12
12
12
12
12
12
12
12
12
12
12
12
12
12
12
12
12
12
12
12
12
12
12
12
12
12
12
12
12
12
12
12
12
12
12
12
12
12
12
12
12
12
12
12
12
12
12
12
12
12
12
12
12
12
12
12
12
12
12
12
12
12
12
12
12
12
12
12
12
12
12
12
12
12
12
12
12
12
12
12
12
12
12
12
12
12
12
12
12
12
12
12
12
12
12
12
12
12
12
12
12
12
12
12
12
12
12
12
12
12
12
12
12
12
12
12
12
12
12
12
12
12
12
12
12
12
12
12
12
12
12
12
12
12
12
12
12
12
12
12
12
12
12
12
12
12
12
12
12
12
12
12
12
12
12
12
12
12
12
12
12
12
12
12
12
12
12
12
12
12
12
12
12
12
12
12
12
12
12
12
12
12
12
12
12
12
12
12
12
12
12
12
12
12
12
12
12
12
12
12
12
12
12
12
12
12
12
12
12
12
12
12
12
12
12
12
12
12
12
12
12
12
12
12
12
12
12
12
12
12
12
12
12
12
12
12
12
12
12
12
12
12
12
12
12
12
12
12
12
12
12
12
12
12
12
12
12
12
12
12
12
12
12
12
12
12
12
12
12
12
12
12
12
12
12
12
12
12
12
12
12
12
12
12
12
12
12
12
12
12
12
12
12
12
12
12
12
12
12
12
12
12
12
12
12
12
12
12
12
12
12
12
12
12
12
12
12
12
12
12
12
12
12
12
12
12
12
12
12
12
12
12
12
12
12
12
12
12
12
12
12
12
12
12
12
12
12
12
12
12
12
12
12
12
12
12
12
12
12
12
12
12
12
12
12
12
12
12
12
12
12
12
12
12
12
12
12
12
12
12
12
12
12
12
12
12
12
12
12
12
12
12
12
12
12
12
12
12
12
12
12
12
12
12
12
12
12
12
12
12
12
12
12
12
12
12
12
12
12
12
12
12
12
12
12
12
12
12
12
12
12
12
12
12
12
12
12
12
12
12
12
12
12
12
12
12
12
12
12
12
12
12
12
12
12
12
12
12
12
12
12
12
12
12
12
12
12
12
12
12
12
12
12
12
12
12
12
12
12
12
12
12
12
12
12
12
12
12
12
12
12
12
12
12
12
12
12
12
12
12
12
12
12
12
12
12
12
12
12
12
12
12
12
12
12
12
12
12
12
12
12
12
12
12
12
12
12
12
12
12
12
12
12
12
12
12
12
12
12
12
12
12
12
12
12
12
12
12
12
12
12
12
12
12
12
12
12
12
12
12
12
12
12
12
12
12
12
12
12
12
12
12
12
12
12
12
12
12
12
12
12
12
12
12
12
12
12
12
12
12
12
12
12
12
12
12
12
12
12
12
12
12
12
12
12
12
12
12
12
12
12
12
12
12
12
12
12
12
12
12
12
12
12
12
12
12
12
12
12
12
12
12
12
12
12
12
12
12
12
12
12
12
12
12
12
12
12
12
12
12
12
12
12
12
12
12
12
12
12
12
12
12
12
12
12
12
12
12
12
12
12
12
12
12
12
12
12
12
12
12
12
12
12
12
12
12
12
12
12
12
12
12
12
12
12
12
12
12
12
12
12
12
12
12
12
12
12
12
12
12
12
12
12
12
12
12
12
12
12
12
12
12
12
12
12
12
12
12
12
12
12
12
12
12
12
12
12
12
12
12
12
12
12
12
12
12
12
12
12
12
12
12
12
12
12
12
12
12
12
12
12
12
12
12
12
12
12
12
12
12
12
12
12
12
12
12
12
12
12
12
12
12
12
12
12
12
12
12
12
12
12
12
12
12
12
12
12
12
12
12
12
12
12
12
12
12
12
12
12
12
12
12
12
12
12
12
12
12
12
12
12
12
12
12
12
12
12
12
12
12
12
12
12
12
12
12
12
12
12
12
12
12
12
12
12
12
12
12
12
12
12
12
12
12
12
12
12
12
12
12
12
12
12
12
12
12
12
12
12
12
12
12
12
12
12
12
12
12
12
12
12
12
12
12
12
12
12
12
12
12
12
12
12
12
12
12
12
12
12
12
12
12
12
12
12
12
12
12
12
12
12
12
12
12
12
12
12
12
12
12
12
12
12
12
12
12
12
12
12
12
12
12
12
12
12
12
12
12
12
12
12
12
12
12
12
12
12
12
12
12
12
12
12
12
12
12
12
12
12
12
12
12
12
12
12
12
12
12
12
12
12
12
12
12
12
12
12
12
12
12
12
12
12
12
12
12
12
12
12
12
12
12
12
12
12
12
12
12
12
12
12
12
12
12
12
12
12
12
12
12
12
12
12
12
12
12
12
12
12
12
12
12
12
12
12
12
12
12
12
12
12
12
12
12
12
12
12
12
12
12
12
12
12
12
12
12
12
12
12
12
12
12
12
12
12
12
12
12
12
12
12
12
12
12
12
12
12
12
12
12
12
12
12
12
12
12
12
12
12
12
12
12
12
12
12
12
12
12
12
12
12
12
12
12
12
12
12
12
12
12
12
12
12
12
12
12
12
12
12
12
12
12
12
12
12
12
12
12
12
12
12
12
12
12
12
12
12
12
12
12
12
12
12
12
12
12
12
12
12
12
12
12
12
12
12
12
12
12
12
12
12
12
12
12
12
12
12
12
12
12
12
12
12
12
12
12
12
12
12
12
12
12
12
12
12
12
12
12
12
12
12
12
12
12
12
12
12
12
12
12
12
12
12
12
12
12
12
12
12
12
12
12
12
12
12
12
12
12
12
12
12
12
12
12
12
12
12
12
12
12
12
12
12
12
12
12
12
12
12
12
12
12
12
12
12
12
12
12
12
12
12
12
12
12
12
12
12
12
12
12
12
12
12
12
12
12
12
12
12
12
12
12
12
12
12
12
12
12
12
12
12
12
12
12
12
12
12
12
12
12
12
12
12
12
12
12
12
12
12
12
12
12
12
12
12
12
12
12
12
12
12
12
12
12
12
12
12
12
12
12
12
12
12
12
12
12
12
12
12
12
12
12
12
12
12
12
12
12
12
12
12
12
12
12
12
12
12
12
12
12
12
12
12
12
12
12
12
12
12
12
12
12
12
12
12
12
12
12
12
12
12
12
12
12
12
12
12
12
12
12
12
12
12
12
12
12
12
12
12
12
12
12
12
12
12
12
12
12
12
12
12
12
12
12
12
12
12
12
12
12
12
12
12
12
12
12
12
12
12
12
12
12
12
12
12
12
12
12
12
12
12
12
12
12
12
12
12
12
12
12
12
12
12
12
12
12
12
12
12
12
12
12
12
12
12
12
12
12
12
12
12
12
12
12
12
12
12
12
12
12
12
12
12
12
12
12
12
12
12
12
12
12
12
12
12
12
12
12
12
12
12
12
12
12
12
12
12
12
12
12
12
12
12
12
12
12
12
12
12
12
12
12
12
12
12
12
12
12
12
12
12
12
12
12
12
12
12
12
12
12
12
12
12
12
12
12

POINT_DATA 3012
SCALARS Jp_lamdaP float 4
LOOKUP_TABLE default
0.999685 1 1 0.999685
1 1 1 1
0.999694 1 1 0.999694
0.999631 1 1 0.999631
0.999687 1 1 0.999687
0.999668 1 1 0.999668
0.998878 1 1 0.998878
1 1 1 1
1 1 1 1
1 1 1 1
0.99976 1 1 0.99976
0.998992 1 1 0.998992
0.999624 1 1 0.999624
0.999634 1 1 0.999634
0.999696 1 1 0.999696
0.999657 1 1 0.999657
0.999674 1 1 0.999674
0.999703 1 1 0.999703
0.998901 1.00002 1 0.998879
1 1 1 1
0.999612 1 1 0.999612
0.999664 1 1 0.999664
0.998753 1 1 0.998753
0.998855 1 1 0.998855
0.999675 1 1 0.999675
0.998894 1 1 0.998894
1.01157 1.01396 1 0.997643
1 1 1 1
0.999834 1 1 0.999834
0.999847 1 1 0.999847
1 1 1 1
0.999001 1 1 0.999001
0.99966 1 1 0.99966
0.999687 1 1 0.999687
0.999147 1.00013 1 0.999021
1 1 1 1
0.999105 1 1 0.999105
0.999093 1 1 0.999093
1.00502 1.00741 1 0.997627
1 1 1 1
1 1 1 1
0.999817 1 1 0.999817
1 1 1 1
0.999638 1 1 0.999638
0.998681 1 1 0.998681
1 1 1 1
0.998923 1 1 0.998923
0.99968 1 1 0.99968
0.999715 1 1 0.999715
0.999676 1 1 0.999676
0.99891 1.00003 1 0.998884
0.999801 1 1 0.999801
0.999636 1 1 0.999636
0.999688 1 1 0.999688
0.999687 1 1 0.999687
0.99875 1 1 0.99875
0.998897 1 1 0.998897
0.998856 1 1 0.998856
1.01196 1.01437 1 0.997628
1 1 1 1
0.999612 1 1 0.999612
0.998946 1 1 0.998946
0.998721 1 1 0.998721
0.998806 1 1 0.998806
1.01498 1.01765 1 0.997373
1.01304 1.01559 1 0.997488
0.999739 1 1 0.999739
0.998998 1 1 0.998998
1.00903 1.01132 1 0.997735
1.03051 1.03386 1 0.996759
1 1 1 1
1 1 1 1
1 1 1 1
0.999009 1 1 0.999009
1 1 1 1
1 1 1 1
0.998934 1.00008 1 0.998851
0.999913 1 1 0.999913
0.998956 1 1 0.998956
0.999226 1 1.00002 0.999203
1.00379 1.00618 1 0.997624
1 1 1 1
1.00113 1 1.00134 0.999783
0.99883 1.00006 1 0.998775
0.998928 1.00004 1 0.998885
1.016 1.01885 1 0.997201
0.999781 1 1.00033 0.999448
1.00962 1.01213 1 0.997526
1.00107 1.0033 1 0.997776
1.01231 1.01544 1 0.996915
1 1 1 1
1 1 1 1
1 1 1 1
1 1 1 1
1 1 1 1
0.999817 1 1 0.999817
0.998806 1 1 0.998806
0.999819 1 1 0.999819
0.998833 1 1 0.998833
1 1 1 1
0.998693 1 1 0.998693
0.998913 1 1 0.998913
1.01472 1.01777 1 0.997005
0.998958 1 1 0.998958
1.01752 1.02054 1 0.997044
0.999646 1 1 0.999646
0.999657 1 1 0.999657
0.999698 1 1 0.999698
0.999706 1 1 0.999706
0.998749 1 1 0.998749
0.99886 1 1 0.99886
0.99891 1.00001 1 0.998903
1.01235 1.01478 1 0.997614
1 1 1 1
0.999634 1 1 0.999634
0.998721 1 1 0.998721
0.998716 1 1 0.998716
0.99987 1 1 0.99987
0.999074 1 1 0.999074
0.998806 1 1 0.998806
1.01496 1.01768 1 0.997335
1.00971 1.01202 1 0.997718
1.01334 1.01586 1 0.997516
1.03043 1.03377 1 0.996766
0.998716 1 1 0.998716
0.998716 1 1 0.998716
1.01355 1.01636 1 0.997241
1.01497 1.01774 1 0.997279
1.01477 1.01743 1 0.997385
1.0394 1.04286 1 0.996683
1 1 1 1
1.0335 1.03689 1 0.99673
0.999451 1 1.00024 0.999207
1.00463 1.00693 1 0.997718
1.02701 1.03032 1 0.996787
1.03712 1.04063 1 0.996624
1.00131 1 1.00179 0.999527
1.00647 1 1.00801 0.998471
1 1 1 1
1 1 1 1
0.998928 1.00007 1 0.998857
1 1 1 1
0.999302 1 1.00014 0.999161
0.998962 1 1 0.998962
1.00267 1.00506 1 0.99762
1 1 1 1
1.00069 1 1.00088 0.999806
0.99899 1.00011 1 0.998883
0.999013 1.00003 1 0.998985
1.01542 1.01827 1 0.997202
1.00006 1 1.00066 0.999399
1.00834 1.01084 1 0.997529
1.00033 1.00255 1.00001 0.997774
1.0134 1.01655 1 0.996903
1.00118 1 1.00159 0.999598
0.999925 1 1.00002 0.999901
1.00336 1 1.00461 0.998758
1.01765 1.02061 1 0.997099
1.01345 1.01613 1 0.997363
1.03688 1.04042 1 0.996597
0.999647 1.00102 1.00057 0.998054
1.02231 1.02553 1 0.996856
1.00847 1.01092 1.00057 0.997006
1.02207 1.0254 1 0.996744
1 1 1 1
1 1 1 1
1 1 1 1
1.00062 1 1.00095 0.999666
1 1 1 1
1 1 1 1
1 1 1 1
0.998746 1 1 0.998743
0.998714 1 1 0.998714
1 1 1 1
1 1 1 1
0.998694 1 1 0.998694
0.998824 1 1 0.998824
1.01525 1.0183 1 0.997005
0.998784 1.00002 1 0.998761
1.0177 1.02072 1 0.997043
0.99869 1 1 0.99869
1.0134 1.01648 1 0.996971
1.01634 1.01936 1 0.997036
1.04443 1.04799 1 0.996604
1.01792 1.02093 1 0.997053
1.04578 1.04934 1 0.99661
1 1 1 1
0.999657 1 1 0.999657
0.998474 1 1 0.998474
0.998712 1 1 0.998712
1 1 1 1
0.999151 1 1 0.999151
0.998808 1 1 0.998808
1.01492 1.01767 1 0.997297
1.01366 1.01616 1 0.997544
1.0104 1.01272 1 0.9977
1.03034 1.03367 1 0.996773
0.998713 1 1 0.998713
0.998711 1 1 0.998711
1.01344 1.01637 1 0.997117
1.01502 1.01776 1 0.997302
1 1 1 1
0.999355 1 1.00011 0.999248
1.00599 1.00821 1 0.997795
1.01472 1.01738 1 0.997381
1.03921 1.04268 1 0.996666
1.02644 1.02976 1 0.996779
1.03374 1.03709 1 0.996766
1.03672 1.04022 1 0.996632
1.00121 1 1.00169 0.999516
1.00486 1 1.00639 0.998473
1.01306 1.01612 1 0.996992
1.01388 1.01665 1 0.997267
1.04155 1.04503 1 0.996672
1.03972 1.04323 1 0.996639
1.03673 1.0401 1 0.99676
1.04725 1.05069 0.999979 0.996746
1.00051 1 1.00114 0.999369
1.03951 1.04295 1 0.996698
1.00065 1.00265 1.00011 0.997904
1.01958 1.02278 1 0.99687
1.03463 1.03818 1 0.996573
1.03767 1.041 1 0.996801
1.00307 1.00013 1.00471 0.998247
1.00356 1 1.00481 0.998754
1.00327 1.00003 1.00546 0.997796
0.998898 1.00009 1 0.998803
1 1 1 1
1.00016 1 1.00033 0.999829
0.998935 1.00002 1 0.998919
1.01478 1.01762 1 0.997203
1.00022 1 1.00081 0.999402
0.999289 1.00148 1.00004 0.997773
1.00705 1.00955 1 0.997532
1.01451 1.01768 1 0.99689
1.00101 1 1.00139 0.99962
0.999918 1 1 0.999918
1.00391 1 1.00516 0.998759
1.01719 1.02015 1 0.997097
1.01247 1.01514 1 0.997367
1.03699 1.04054 1 0.996592
0.999057 1.00052 1.00048 0.998058
1.0235 1.02672 1 0.996861
1.00764 1.01019 1.00047 0.997001
1.02279 1.02614 1 0.996737
0.999958 1 1 0.999958
1.00142 1.00014 1.00291 0.998379
1.00196 1 1.00282 0.999144
1.00377 1 1.0057 0.998083
1.04125 1.04485 1 0.996559
1.031 1.03439 1 0.996722
1.04143 1.04506 1 0.996523
1.00346 1.00565 1.00049 0.997332
1.02922 1.03258 1 0.996748
1.018 1.01978 1.00158 0.996681
1.0304 1.03387 1 0.996647
0.999692 1 1 0.999692
0.999993 1 1 0.999993
1 1 1 1
1 1 1 1
1 1 1 1
0.99989 1 1.0001 0.999791
1 1 1 1
1.00111 1 1.00146 0.999652
1 1 1 1
0.998832 1.00007 1 0.998762
0.998732 1 1 0.998732
1.01799 1.02101 1 0.997042
1.01576 1.01881 1 0.997006
0.998696 1 1 0.998696
1 1 1 1
0.99869 1 1 0.99869
1.01375 1.01683 1 0.996971
1.01677 1.01979 1 0.997035
1.0437 1.04726 1 0.996602
1.01798 1.02099 1 0.997051
1.04589 1.04945 1 0.996607
1.01288 1.01596 1 0.996968
1.04305 1.04664 1 0.996574
1.04519 1.04873 1 0.99662
1.05085 1.05566 0.99857 0.996869
1.04524 1.04883 1 0.99658
1.05299 1.05678 0.99964 0.996778
0.998711 1 1 0.998711
0.998705 1 1 0.998705
1.01335 1.0164 1 0.996994
1.01509 1.01781 1 0.997324
1 1 1 1
0.99929 1 1 0.99929
1.00729 1.00944 1 0.99787
1.01467 1.01734 1 0.997376
1.03906 1.04255 1 0.996648
1.03393 1.03724 1 0.996801
1.02589 1.02921 1 0.996772
1.03646 1.03995 1 0.996641
1.0013 1 1.0018 0.999504
1.00401 1 1.00554 0.998475
1.01296 1.01604 1 0.996972
1.01391 1.01669 1 0.997262
1.04147 1.04493 0.999998 0.996692
1.03977 1.04326 1 0.996652
1.00021 1 1.00086 0.999358
1.00182 1.00385 1.00008 0.997901
1.01914 1.02231 1 0.996903
1.03702 1.0404 1 0.996744
1.04747 1.0509 0.99996 0.996785
1.03423 1.03781 1 0.996552
1.03938 1.04281 1 0.996703
1.0379 1.04124 1 0.996798
1.00275 1.00019 1.00432 0.998249
1.00393 1.0002 1.00594 0.997799
1.00406 1 1.00531 0.998752
1.04131 1.04483 1 0.996638
1.0408 1.04423 1 0.996708
1.05073 1.05521 0.998936 0.996811
1.04858 1.05228 0.999711 0.996774
1.0425 1.04588 1 0.996772
1.04367 1.04923 0.997627 0.997066
0.999249 1.00056 1.0006 0.998089
1.03996 1.04322 0.999946 0.996925
1.00826 1.01111 1 0.997181
1.02584 1.02948 1 0.996464
1.03405 1.03766 1 0.996519
1.03274 1.0358 1 0.997046
1.00148 1 1.00246 0.999021
0.999122 1.00075 1.00067 0.9977
1.00818 1 1.01024 0.997956
1.00195 1.00175 1.00266 0.997552
1.01684 1.0198 1 0.997095
0.999934 1 1 0.999934
1.00097 1 1.00133 0.999642
1.00502 1 1.00626 0.99876
1.0115 1.01416 1 0.997371
1.03713 1.04069 1 0.996587
0.998575 1.00011 1.00041 0.998062
1.00685 1.00955 1.00033 0.996995
1.02467 1.02789 1 0.996866
1.02282 1.02618 1 0.99673
0.999966 1 1 0.999966
1.00228 1.00005 1.00386 0.99838
1.00153 1 1.00238 0.999153
1.00445 1 1.00638 0.998076
1.04113 1.04473 1 0.996554
1.03122 1.03461 1 0.996721
1.04103 1.04467 1 0.99652
1.00194 1.00416 1.00045 0.997339
1.02892 1.03228 1 0.996749
1.01763 1.01927 1.00173 0.996669
1.03016 1.03355 1 0.996726
0.999984 1 1 0.999984
0.999989 1 1.00057 0.999418
1.00095 1.00131 1.0019 0.997742
1.00457 1 1.00615 0.998436
1.0011 1.00017 1.00317 0.997774
1.04605 1.04965 1 0.99657
1.03527 1.03879 1 0.996606
1.03687 1.04037 1 0.996638
1.0072 1.00828 1.00199 0.996948
1.02774 1.03111 1 0.996737
1.01731 1.02007 1.00086 0.996436
0.999651 1 1 0.999651
0.999145 1 1 0.999145
0.999723 1 1 0.999723
0.999694 1 1 0.999694
0.999997 1 1 0.999997
0.999994 1 1 0.999994
1 1 1 1
1 1 1 1
1 1 1 1
0.999901 1 1 0.999901
1 1 1 1
1.00022 1 1.00044 0.999775
1 1 1 1
1.00118 1 1.00155 0.999638
1 1 1 1
1.01794 1.02096 1 0.997048
1.01714 1.02017 1 0.997035
1.04571 1.04928 1 0.996605
1.04295 1.04651 1 0.9966
1.01415 1.01723 1 0.996971
0.998689 1 1 0.998689
1.013 1.01608 1 0.996967
1.04272 1.0463 1 0.996574
1.04473 1.04828 1 0.996617
1.05115 1.05625 0.998278 0.996887
1.04456 1.04815 1 0.996576
1.05264 1.05635 0.999707 0.996775
1.04171 1.04529 1 0.996566
1.05005 1.05578 0.997672 0.996892
1.0525 1.05676 0.999128 0.996841
1.04757 1.05556 0.995311 0.997105
1.04933 1.05282 1 0.996679
1.0492 1.05613 0.996309 0.997118
1.0129 1.016 1 0.996953
1.01396 1.01675 1 0.997257
1.0414 1.04484 0.999998 0.996711
1.03978 1.04326 1 0.996666
0.999908 1 1.00056 0.999347
1.00293 1.00501 1.00003 0.997899
1.01906 1.0222 1 0.996936
1.03733 1.04073 1 0.996729
1.04772 1.05111 0.999945 0.996824
1.0393 1.04273 1 0.996707
1.03369 1.03729 1 0.99653
1.03812 1.04145 1 0.996796
1.00209 1.00027 1.00358 0.998251
1.00445 1.00038 1.00629 0.997802
1.00431 1 1.00557 0.99875
1.0414 1.04494 1 0.996612
1.04099 1.04444 1 0.996705
1.05025 1.05489 0.998746 0.996852
1.0487 1.05248 0.99965 0.99676
0.999932 1.00111 1.00074 0.998086
1.00946 1.01232 1 0.997177
1.02457 1.02812 1.00003 0.996508
1.04263 1.04604 1 0.996743
1.0434 1.0492 0.997349 0.997116
1.03462 1.03827 1 0.996481
1.03994 1.04319 0.999955 0.996928
1.03351 1.03653 0.999998 0.997081
1.00034 1.00147 1.00117 0.9977
1.00206 1.00177 1.00277 0.997522
1.00202 1 1.00301 0.999017
1.00758 1 1.00961 0.997995
1.05022 1.05503 0.998601 0.99684
1.05084 1.05516 0.999096 0.996808
1.04389 1.05174 0.995503 0.997018
1.04341 1.05193 0.994743 0.99714
1.0416 1.04543 0.99928 0.997052
1.04012 1.04816 0.995018 0.997299
1.00127 1.00379 1 0.997491
1.0346 1.03879 0.998684 0.997282
1.01349 1.0168 1 0.996739
1.02394 1.0276 1.00018 0.996261
1.03558 1.03922 1 0.996497
1.03434 1.03733 1 0.997116
0.999737 1 1.0005 0.999238
1.00722 1 1.009 0.998237
1.00055 1.00313 1 0.997428
1.00413 1 1.00645 0.997688
1.0023 1.0027 1.00217 0.997441
0.999975 1 1 0.999975
1.04093 1.04454 1 0.996548
1.00065 1 1.00149 0.999162
1.00308 1.00006 1.00465 0.998381
1.00497 1 1.00691 0.99807
1.03143 1.03483 1 0.996719
1.04068 1.04431 1 0.996517
1.0006 1.00276 1.00051 0.997346
1.01851 1.01996 1.00193 0.996657
1.02875 1.03211 1 0.996751
1.03047 1.03378 1 0.996805
0.999987 1 1 0.999987
0.999745 1 1.00032 0.999428
0.999997 1.00091 1.00134 0.997745
1.0056 1 1.00717 0.998435
1.00149 1.00012 1.00362 0.997758
1.04594 1.04955 1 0.996564
1.03518 1.03871 1 0.996604
1.0369 1.04041 1 0.996627
1.00721 1.00814 1.00213 0.996953
1.03014 1.03352 1 0.996733
1.01755 1.02019 1.00096 0.996458
0.999573 1 1 0.999573
1.00111 1 1.00233 0.998783
1.00089 1.00301 1.00048 0.997403
1.00625 1.00002 1.00819 0.998065
1.00121 1.00147 1.00203 0.997713
1.04258 1.04597 1 0.996758
1.03131 1.03477 1 0.996656
1.03621 1.03949 1 0.996845
1.00311 1.00256 1.00379 0.996767
1.01586 1.01954 1 0.996385
0.999653 1 1 0.999653
0.999067 1 1 0.999067
0.99912 1 1 0.99912
0.99887 1 1 0.99887
0.999165 1 1 0.999165
0.99974 1 1 0.99974
0.999725 1 1 0.999725
0.999999 1 1 0.999999
0.999695 1 1 0.999695
0.999998 1 1 0.999998
1 1 1 1
0.999996 1 1 0.999996
1 1 1 1
1 1 1 1
0.999971 1 1 0.999971
0.999938 1 1.00006 0.999881
1 1 1 1
1 1 1 1
1.00057 1 1.00081 0.999758
1 1 1 1
1.044 1.04759 1 0.996572
1.0445 1.04804 1 0.996615
1.05249 1.05614 0.999777 0.996773
1.05151 1.0569 0.997993 0.996905
1.04229 1.04587 1 0.996575
1.01305 1.01613 1 0.996967
1.04168 1.04527 1 0.996567
1.04996 1.05563 0.997737 0.996886
1.05274 1.05691 0.999206 0.996841
1.04676 1.05529 0.994768 0.997136
1.05008 1.05359 1 0.996672
1.04915 1.05602 0.99634 0.997141
1.05007 1.05537 0.998111 0.996861
1.04546 1.05393 0.99487 0.997079
1.04769 1.0564 0.994565 0.997179
1.04594 1.05698 0.992277 0.99726
1.04806 1.05206 0.999228 0.996965
1.04603 1.05654 0.992688 0.99735
1.04138 1.04495 1 0.996586
1.04115 1.0446 1 0.996703
1.04974 1.05454 0.998551 0.996893
1.04871 1.05258 0.999584 0.996746
1.00066 1.0017 1.00088 0.998084
1.01006 1.01293 1 0.997172
1.02298 1.02634 1.00018 0.996552
1.04271 1.04615 1 0.996714
1.0431 1.04917 0.997047 0.997165
1.03985 1.04309 0.999964 0.996931
1.03515 1.03884 1 0.996444
1.0336 1.03659 1 0.997115
1.00149 1.002 1.00179 0.997701
1.002 1.00161 1.0029 0.997492
1.00245 1 1.00344 0.999013
1.00658 1 1.00857 0.998035
1.05003 1.05482 0.99861 0.99684
1.05038 1.05458 0.999228 0.996787
1.04406 1.05201 0.995379 0.997051
1.04395 1.052 0.995217 0.997122
1.00216 1.00469 1 0.997483
1.01198 1.01521 1.00003 0.996782
1.02423 1.02769 1.00039 0.996251
1.04152 1.04517 0.999501 0.997004
1.03905 1.04744 0.994619 0.997356
1.03232 1.03597 1 0.996482
1.03552 1.03962 0.998767 0.997283
1.0349 1.03783 1 0.997174
1.00054 1.00312 1 0.997426
1.00203 1.00314 1.00146 0.99744
1.00497 1.00025 1.00706 0.997682
1.00013 1 1.00093 0.999202
1.00671 1 1.00845 0.998274
1.04415 1.05302 0.994497 0.997066
1.0444 1.05355 0.994197 0.997096
1.03976 1.05189 0.991098 0.997342
1.03587 1.04414 0.994707 0.997364
1.00425 1.00711 1 0.997165
1.03951 1.04377 0.998449 0.99746
1.00743 1.01069 1.00029 0.996486
1.02097 1.02449 1.00051 0.996054
1.02954 1.03318 1 0.99648
0.999398 1 1 0.999398
1.00332 1 1.00474 0.998585
1.00583 1 1.00786 0.997987
1.00207 1.00476 1 0.997322
1.0038 1 1.0064 0.997412
1.00244 1.00383 1.00132 0.997296
0.99999 1 1 0.99999
0.999514 1 1.00008 0.999437
1.04583 1.04944 1 0.996558
1.00678 1 1.00836 0.998435
0.998859 1.00037 1.00074 0.997747
1.00164 1 1.0039 0.997743
1.03495 1.03848 1 0.996602
1.03681 1.04034 1 0.996615
1.00659 1.00736 1.00229 0.996957
1.01675 1.01955 1.00077 0.99648
1.03246 1.03585 1 0.996729
0.999578 1 1 0.999578
1.001 1 1.00222 0.998787
1.00069 1.00288 1.00041 0.9974
1.00744 1 1.0094 0.998059
1.00106 1.00162 1.00174 0.997714
1.04256 1.04595 1 0.996752
1.03176 1.03523 1 0.996645
1.03613 1.03938 1 0.996872
1.00408 1.00411 1.00324 0.996729
1.01471 1.01836 1.00006 0.996356
0.999059 1 1.00005 0.999009
1.00687 1 1.00854 0.99835
1.00229 1.00303 1.002 0.997273
1.00617 1.00167 1.00667 0.997832
1.00482 1.00625 1.001 0.99759
1.04158 1.04626 0.998276 0.997243
1.03093 1.03449 1 0.996555
1.03302 1.03627 1 0.996869
1.00599 1.00507 1.00433 0.996598
1.00603 1.0099 1 0.996167
0.999656 1 1 0.999656
0.999086 1 1 0.999086
0.998792 1 1 0.998792
0.999095 1 1 0.999095
0.999163 1 1 0.999163
0.99884 1 1 0.99884
0.998738 1 1 0.998738
0.99881 1 1.00003 0.998784
0.99918 1 1 0.99918
0.999734 1 1 0.999734
0.99974 1 1 0.99974
1 1 1 1
0.999727 1 1 0.999727
1 1 1 1
1 1 1 1
0.999999 1 1 0.999999
1 1 1 1
1 1 1 1
0.999996 1 1 0.999996
0.999956 1 1 0.999956
1 1 1 1
1.00014 1 1.00028 0.999862
1 1 1 1
1 1 1 1
1.0508 1.05431 1 0.996666
1.05275 1.05684 0.999282 0.99684
1.04907 1.05587 0.99639 0.997163
1.04589 1.05497 0.994206 0.997167
1.04992 1.05551 0.997817 0.99688
1.04179 1.04538 1 0.996568
1.05001 1.05521 0.998228 0.996841
1.04602 1.05407 0.995273 0.997072
1.04722 1.05593 0.99457 0.997164
1.04495 1.05655 0.991727 0.997272
1.04763 1.05142 0.999433 0.996966
1.0442 1.05546 0.991916 0.99739
1.04612 1.05386 0.995592 0.997054
1.04621 1.05808 0.991503 0.997256
1.04614 1.05868 0.990767 0.997361
1.04161 1.05253 0.99218 0.997417
1.04989 1.05468 0.998619 0.99684
1.05004 1.05412 0.999363 0.996766
1.04426 1.05228 0.995284 0.997084
1.04459 1.05218 0.995678 0.997104
1.00348 1.00602 1 0.997475
1.01107 1.01429 1 0.996826
1.02451 1.02778 1.00058 0.99624
1.04148 1.04494 0.999738 0.996955
1.03792 1.04668 0.994206 0.997413
1.03675 1.04079 0.998834 0.997285
1.02988 1.03353 1 0.996467
1.037 1.03988 1 0.997232
1.00091 1.0035 1 0.997425
1.00239 1.00427 1.00069 0.997439
1.00644 1.00045 1.00833 0.997676
1.00046 1 1.0013 0.999166
1.0065 1 1.0082 0.998312
1.04464 1.05344 0.994558 0.997068
1.04486 1.05401 0.994209 0.997091
1.03956 1.05113 0.991634 0.997333
1.00445 1.00731 1 0.99716
1.008 1.01126 1.00026 0.996529
1.01962 1.02289 1.00076 0.996043
1.03641 1.04438 0.995003 0.99735
1.0322 1.03573 1 0.996586
1.03604 1.04056 0.998224 0.997429
0.99943 1 1 0.99943
1.00259 1.00529 1 0.997312
1.00095 1.00299 1.00054 0.997425
1.0054 1.00067 1.00734 0.997402
1.00607 1 1.00808 0.99801
1.00333 1 1.00479 0.99855
1.04459 1.05621 0.991823 0.997146
1.04295 1.05824 0.988259 0.997267
1.03342 1.04944 0.987269 0.997426
1.03467 1.04702 0.99062 0.997567
1.00502 1.00808 1 0.996967
1.03113 1.03451 0.999696 0.997034
1.00394 1.00625 1.00165 0.996071
1.0112 1.01431 1.00104 0.99589
0.999652 1 1 0.999652
1 1 1.00113 0.998871
1.00416 1 1.00592 0.998249
1.00602 1 1.00846 0.997579
1.00289 1.00451 1.00125 0.997138
1.00718 1.00169 1.00838 0.997117
0.999584 1 1 0.999584
1.00083 1 1.00204 0.998791
1.04276 1.04616 1 0.996745
1.00862 1 1.01059 0.998053
1.00052 1.00286 1.00027 0.997398
1.00053 1.0013 1.00152 0.997716
1.03244 1.03592 1 0.996633
1.03632 1.03954 1 0.996898
1.0054 1.00599 1.00273 0.99669
1.01362 1.01708 1.00027 0.996327
0.999012 1 1 0.999012
1.00697 1 1.00864 0.998343
1.0028 1.00355 1.00198 0.997282
1.00534 1.00116 1.00635 0.997841
1.00492 1.00679 1.00048 0.997668
1.0426 1.04744 0.998087 0.997289
1.03051 1.03405 1 0.996575
1.03456 1.03774 1 0.996942
1.00592 1.00479 1.00458 0.996563
1.00637 1.01028 1.00003 0.996099
0.999505 1 1.00082 0.998681
1.0073 1 1.00935 0.997965
1.00701 1.00607 1.00378 0.997156
1.00426 1.00519 1.00161 0.997471
1.03938 1.06062 0.982388 0.997543
1.03576 1.0396 0.998984 0.997325
1.01889 1.0227 1 0.996272
1.00855 1.00813 1.00426 0.996181
0.999105 1 1 0.999105
0.998804 1 1 0.998804
0.99873 1 1 0.99873
0.999162 1 1 0.999162
0.99881 1 1 0.99881
0.999178 1 1 0.999178
0.998739 1 1 0.998739
0.998826 1 1.00003 0.998796
0.998754 1 1 0.998754
0.998794 1 1.00017 0.998624
0.998746 1 1 0.998746
0.99916 1 1 0.99916
0.999708 1 1 0.999708
0.999732 1 1 0.999732
1 1 1 1
0.99974 1 1 0.99974
1 1 1 1
1 1 1 1
1 1 1 1
1 1 1 1
1 1 1 1
1 1 1 1
0.999991 1 1 0.999991
1 1 1 1
0.999941 1 1 0.999941
1 1 1 1
1 1 1 1
1.04711 1.05067 0.999646 0.996966
1.04682 1.05556 0.99455 0.997148
1.04245 1.05447 0.991147 0.99743
1.04402 1.05619 0.991172 0.997283
1.04658 1.05422 0.99567 0.997064
1.04986 1.05498 0.99832 0.996822
1.04588 1.05376 0.995459 0.997053
1.04608 1.05775 0.991699 0.997247
1.04499 1.05786 0.990447 0.99736
1.04296 1.05353 0.992518 0.997427
1.04723 1.05814 0.992474 0.9972
1.0479 1.06447 0.986987 0.99741
1.04671 1.06355 0.986656 0.997482
1.04511 1.05387 0.9946 0.99707
1.04525 1.0544 0.994217 0.997086
1.03947 1.05039 0.992268 0.997324
1.00418 1.00705 1 0.997154
1.00799 1.01128 1.00018 0.996571
1.01797 1.02116 1.00085 0.996031
1.03694 1.04462 0.995304 0.997336
1.03195 1.03673 0.997992 0.997396
1.03342 1.03685 1 0.996692
1.0015 1.0042 1.00001 0.997301
0.998339 1.00079 1 0.997554
1.00652 1.00115 1.00799 0.997392
0.999463 1 1 0.999463
1.00541 1 1.0074 0.998033
1.0034 1 1.00489 0.998515
1.04536 1.05674 0.992053 0.997154
1.0424 1.05798 0.987963 0.997274
1.0336 1.04903 0.987846 0.997418
1.00269 1.00575 1 0.996959
1.00401 1.00649 1.0014 0.996149
1.01148 1.01467 1.0009 0.995965
1.03485 1.04674 0.991049 0.997571
1.0289 1.0328 0.999212 0.997014
0.999712 1 1 0.999712
0.999999 1 1.00113 0.998869
1.00023 1.00293 1.00012 0.997187
1.00916 1.0014 1.01051 0.997264
1.00563 1 1.00803 0.997622
1.00412 1 1.00591 0.998216
1.04551 1.06189 0.987208 0.997331
1.03481 1.0584 0.980282 0.997381
1.03054 1.04906 0.984689 0.997615
1.02493 1.03548 0.992214 0.99758
1.00231 1.00438 1.00131 0.996646
1.01088 1.01332 1.0014 0.996195
1.00415 1.00567 1.00264 0.995859
0.999855 1 1 0.999855
0.999374 1 1 0.999374
0.99911 1 1 0.99911
1.00074 1 1.00233 0.998415
1.00547 1 1.0076 0.997889
1.00864 1 1.01125 0.997415
0.999215 1.00192 1.00005 0.997253
1.03137 1.00089 1.03305 0.997494
0.999015 1 1 0.999015
1.00738 1 1.00906 0.998336
1.04362 1.04858 0.997926 0.997335
1.00529 1.00121 1.00624 0.997849
1.00356 1.00412 1.00215 0.997291
1.0049 1.00713 1.00004 0.997746
1.02974 1.03325 1 0.996595
1.03593 1.03904 1 0.997014
1.00582 1.00448 1.00482 0.996529
1.00661 1.01062 1 0.996031
0.999887 1 1.00124 0.998649
1.00687 1 1.00891 0.997977
1.00841 1.00707 1.00415 0.997185
1.00379 1.00487 1.00142 0.997508
1.04165 1.0627 0.982584 0.997563
1.03633 1.03991 0.99928 0.997274
1.0193 1.02306 1 0.99632
1.00967 1.00979 1.00377 0.996129
1.00102 1 1.00259 0.998436
1.04168 1.0666 0.979015 0.997568
1.00195 1 1.00434 0.997628
1.00738 1.00779 1.00268 0.996918
1.03516 1.05 0.988171 0.997662
1.01676 1.02042 1 0.996414
1.00727 1.00813 1.00323 0.995935
0.998817 1 1 0.998817
0.998719 1 1 0.998719
0.998762 1 1 0.998762
0.999176 1 1 0.999176
0.998808 1 1 0.998808
0.99874 1 1 0.99874
0.999157 1 1 0.999157
0.998779 1 1.00003 0.998751
0.998761 1 1 0.998761
0.998682 1 1.00004 0.998643
0.998815 1 1 0.998815
0.998713 1 1.00005 0.99866
0.998872 1 1.00035 0.998522
0.998696 1 1 0.998696
0.999099 1 1 0.999099
0.999673 1 1 0.999673
0.999705 1 1 0.999705
1 1 1 1
0.999731 1 1 0.999731
1 1 1 1
1 1 1 1
1 1 1 1
1 1 1 1
1 1 1 1
0.999881 1 1 0.999881
1 1 1 1
1 1 1 1
1 1 1 1
0.999986 1 1 0.999986
1 1 1 1
1 1 1 1
1.04427 1.05454 0.99281 0.997436
1.04382 1.05694 0.990198 0.997359
1.0459 1.05737 0.991897 0.997238
1.04566 1.05365 0.995351 0.997053
1.04687 1.05804 0.992202 0.997219
1.04776 1.06392 0.987381 0.997401
1.0448 1.0617 0.986563 0.997491
1.0476 1.06433 0.986852 0.99739
1.05627 1.07448 0.985516 0.997505
1.04638 1.06848 0.981502 0.997764
1.04611 1.05723 0.992297 0.997161
1.04182 1.05775 0.987627 0.99728
1.03367 1.04863 0.988297 0.99741
1.0023 1.0053 1.00006 0.996951
1.00463 1.00717 1.00126 0.99623
1.01353 1.01677 1.00078 0.996039
1.03503 1.04643 0.991509 0.997576
1.02701 1.03138 0.998772 0.996995
1.00035 1.00308 1.00005 0.997236
1.01188 1.0018 1.01269 0.99741
1.00637 1.00006 1.00866 0.997666
0.999771 1 1 0.999771
0.999909 1 1.00104 0.998868
1.00428 1 1.00611 0.998182
1.04541 1.06217 0.986841 0.997342
0.99985 1 1 0.99985
0.999343 1 1 0.999343
1.03524 1.0576 0.981418 0.997383
1.02923 1.04829 0.984197 0.997584
1.00266 1.00424 1.0017 0.996733
1.00455 1.0054 1.00332 0.995848
1.01164 1.01466 1.00084 0.996187
1.02376 1.0349 0.991661 0.997555
0.999203 1 1.00001 0.999189
1.00063 1 1.00223 0.998408
1.00094 1.00176 1.00204 0.997151
1.02681 1.0009 1.02828 0.997661
1.0068 1.00002 1.00937 0.997433
1.00529 1 1.0074 0.997906
1.05409 1.07328 0.984617 0.997462
1.01684 1.05572 0.965559 0.99752
1.02013 1.04138 0.981781 0.997768
1.00577 1.01692 0.991739 0.997272
1.0037 1.00181 1.0051 0.9968
1.00426 1.00297 1.0055 0.995809
0.999317 1 1 0.999317
0.999333 1 1 0.999333
0.999044 1 1 0.999044
0.998586 1 1.00001 0.99858
1.0029 1 1.00474 0.998165
1.00486 1.00016 1.00715 0.997566
1.04412 1 1.04681 0.997437
1.00192 1.00049 1.0037 0.997735
1.00016 1 1.00154 0.998617
1.00605 1 1.00807 0.997991
1.04315 1.06374 0.983021 0.997582
1.0366 1.03999 0.999518 0.997224
1.00333 1.00464 1.00115 0.997545
1.0099 1.00828 1.00441 0.997213
1.02005 1.02373 1.00004 0.996366
1.01094 1.01153 1.00335 0.996077
1.00126 1 1.00285 0.998421
1.04407 1.06964 0.978421 0.99762
1.00245 1 1.00481 0.997652
1.00631 1.00677 1.00269 0.996862
1.0338 1.04909 0.987763 0.997636
1.01624 1.01981 1 0.996491
1.00809 1.00868 1.00348 0.995952
1.00331 1 1.00522 0.998101
1.01549 1.04368 0.9749 0.998045
1.00332 1.00296 1.00301 0.99736
1.00406 1.00383 1.00379 0.996454
1.01686 1.02631 0.993551 0.997222
1.00199 1.00365 1.00221 0.996141
0.982683 1.00395 0.981189 0.997583
0.998709 1 1 0.998709
0.999205 0.999902 1.00054 0.998761
0.998986 1 1.00032 0.99867
0.999154 1 1 0.999154
0.998879 1 1.00012 0.998756
0.998662 1 1 0.998662
0.998768 1 1 0.998768
0.999098 1 1 0.999098
0.998687 1 1 0.998687
0.998781 1 1 0.998781
0.998712 1 1.00019 0.998523
0.998703 1 1.00005 0.998648
0.99877 1 1 0.99877
0.99881 1 1.00047 0.998344
0.999484 1 1.00098 0.998501
0.998582 1 1 0.998582
0.998971 1 1 0.998971
0.998969 1 1.00022 0.998753
0.998947 1 1 0.998947
0.999655 1 1 0.999655
0.999671 1 1 0.999671
1 1 1 1
0.999702 1 1 0.999702
1 1 1 1
1 1 1 1
1 1 1 1
1 1 1 1
1 1 1 1
0.999904 1 1 0.999904
0.99988 1 1 0.99988
1 1 1 1
1 1 1 1
1 1 1 1
0.999999 1 1 0.999999
1 1 1 1
1 1 1 1
1.04315 1.06022 0.986368 0.9975
1.04753 1.0634 0.987652 0.997391
1.04656 1.058 0.991932 0.997238
1.04763 1.06431 0.986909 0.997388
1.05393 1.0723 0.985329 0.997502
1.04593 1.06704 0.982476 0.997696
1.05736 1.07884 0.982477 0.99757
0.977758 1.01605 0.966129 0.996045
1.01198 1.04094 0.9737 0.99844
0.999441 1 1 0.999441
1.04531 1.06246 0.986471 0.997353
1.03581 1.05685 0.982664 0.997384
1.02795 1.04758 0.98367 0.997553
1.0002 1.00257 1.00082 0.996818
1.00411 1.00427 1.00402 0.995837
1.01171 1.01514 1.00045 0.99618
1.02273 1.03438 0.991187 0.99753
0.998894 1.00179 1.00006 0.997051
1.01998 1 1.0222 0.997829
1.00489 1 1.00746 0.997451
0.999846 1 1 0.999846
1.0062 1 1.00829 0.997924
0.999292 1 1.00002 0.999267
1.00057 1 1.00217 0.998401
0.999311 1 1 0.999311
1.05102 1.07355 0.981498 0.997469
0.999358 1 1 0.999358
0.999332 1 1 0.999332
0.999009 1 1 0.999009
1.0208 1.05593 0.969138 0.997519
1.02071 1.04187 0.981925 0.997722
1.00099 1.00161 1.00256 0.996826
1.00631 1.00484 1.00556 0.995919
1.00522 1.01489 0.993194 0.997257
0.998675 1 1.00004 0.998631
1.00314 1 1.00503 0.99812
1.00717 1.00031 1.00924 0.997637
1.03503 1 1.03766 0.997468
1.00375 1 1.00615 0.997611
1.03454 1.06275 0.97583 0.997571
1.00289 1.0481 0.959104 0.997666
1.01297 1.02628 0.989569 0.997435
0.993081 1.00587 0.990238 0.997015
1.00351 1 1.00618 0.997342
0.998898 1 1 0.998898
0.998832 1 1 0.998832
0.999627 1 1.0009 0.998733
1.00223 1 1.00387 0.998362
1.00573 1 1.00777 0.997983
1.03319 1 1.03567 0.997611
1.02806 1.00105 1.02945 0.997605
1.00126 1 1.00286 0.998405
1.00291 1 1.00525 0.997677
1.04568 1.07355 0.976312 0.99767
1.0329 1.04887 0.987134 0.997609
1.01579 1.01929 1 0.996569
1.00504 1.00557 1.00268 0.996806
1.00861 1.00906 1.0036 0.995969
1.00311 1 1.00498 0.998142
1.01427 1.04379 0.973591 0.998078
1.00122 1.00193 1.00192 0.997375
1.00339 1.00287 1.00408 0.996458
1.01632 1.02662 0.99262 0.997332
1.00221 1.00336 1.00273 0.996132
0.982515 1.00394 0.981902 0.996693
1.00328 1.00065 1.00467 0.997967
1.00532 1.02287 0.984785 0.998023
1.00065 1.00137 1.002 0.997286
1.00443 1.00136 1.00644 0.996654
0.993242 1.00605 0.990167 0.997069
0.926664 0.979573 0.967615 0.977649
0.92733 0.973468 0.963635 0.988553
0.97374 0.986623 0.98925 0.997667
0.759533 0.852471 0.929102 0.958967
0.685301 0.823043 0.879055 0.947201
0.999412 0.999797 1.00086 0.998759
0.999745 0.999899 1.00113 0.998722
0.999129 1 1.00042 0.99871
0.999098 1 1 0.999098
0.998678 1 1 0.998678
0.998526 1 1 0.998524
0.998636 1 1 0.998636
0.998747 1 1 0.998747
1.00019 1 1.00172 0.998477
0.999004 1 1 0.999004
0.998601 1 1 0.998601
0.998735 1 1 0.998735
0.999118 1 1.00074 0.998378
1.00127 1 1.00288 0.998389
1.0018 1 1.00335 0.998458
1.00055 1 1.00215 0.998406
0.99869 1 1.00017 0.998521
0.99894 1 1 0.99894
0.998604 1 1 0.998604
0.998712 1 1.00013 0.998579
0.998776 1 1.00001 0.998763
0.99891 1 1.0002 0.998714
0.999054 1 1 0.999054
0.998944 1 1 0.998944
0.99965 1 1 0.99965
0.999655 1 1 0.999655
1 1 1 1
0.999668 1 1 0.999668
1 1 1 1
1 1 1 1
1 1 1 1
1 1 1 1
1 1 1 1
0.999927 1 1 0.999927
0.999901 1 1 0.999901
1 1 1 1
0.99988 1 1 0.99988
1 1 1 1
1 1 1 1
1 1 1 1
1 1 1 1
1 1 1 1
1.05126 1.06982 0.985116 0.997499
1.04768 1.06426 0.987001 0.997386
1.0461 1.06598 0.983675 0.997628
0.979787 1.01587 0.968245 0.996115
1.05428 1.07614 0.98207 0.997569
1.02339 1.0442 0.981724 0.998316
1.04073 1.05453 0.989196 0.99769
0.935708 0.981324 0.965416 0.987674
0.994988 1.01935 0.979181 0.996852
0.999455 1 1 0.999455
0.999437 1 1 0.999437
0.999009 1 1 0.999009
0.999083 1 1 0.999083
1.04881 1.07385 0.979153 0.997476
1.0243 1.05567 0.972702 0.997518
1.02113 1.04211 0.982144 0.997676
1.00024 1.00078 1.00262 0.996853
1.00857 1.0072 1.00536 0.996029
1.00423 1.0129 0.99418 0.997241
1.01573 1 1.01824 0.997538
1.02774 1.00003 1.03029 0.997499
1.00201 1 1.00436 0.997655
0.999331 1 1 0.999331
1.00188 1 1.00381 0.998075
0.998711 1 1.00003 0.998682
0.999399 1 1 0.999399
0.998973 1 1 0.998973
1.03218 1.06255 0.97376 0.997586
0.998941 1 1 0.998941
0.998887 1 1 0.998887
0.998979 1 1.00011 0.998868
1.00742 1.05061 0.961147 0.99766
1.01219 1.02607 0.989005 0.997433
1.00353 1.00025 1.00597 0.997324
0.995305 1.00604 0.992224 0.99708
1.00089 1 1.00258 0.998319
1.00462 1 1.00674 0.997894
1.03355 1.00111 1.0349 0.997587
1.03343 1.00014 1.03583 0.997547
0.997692 1.04139 0.960188 0.997758
0.995693 1.03162 0.967448 0.997647
1.0044 1.01021 0.997134 0.997108
0.986872 1.00088 0.988059 0.997919
0.998774 1 1.00019 0.998588
1.00048 1 1.00197 0.998509
1.01187 1 1.01361 0.998283
1.05193 1 1.05446 0.9976
0.902407 0.969024 0.954996 0.975138
1.00347 1 1.0053 0.998183
0.999341 1.00086 1.00109 0.997389
1.01433 1.04356 0.973832 0.998112
1.01601 1.02661 0.992206 0.997442
1.00254 1.00314 1.0033 0.996121
1.0031 1.00219 1.00447 0.996462
0.983275 1.00495 0.982577 0.99578
1.00216 1.0003 1.00384 0.998025
1.0053 1.02408 0.983616 0.99801
1.00028 1.00138 1.0016 0.997301
1.00451 1.00176 1.00611 0.996655
0.996561 1.00694 0.992603 0.997071
0.925411 0.98589 0.962544 0.975182
0.921308 0.970665 0.962678 0.985948
0.977047 0.986933 0.992277 0.997688
0.758081 0.848867 0.930497 0.959756
0.670818 0.812272 0.875654 0.943128
1.00066 1.00013 1.00231 0.998222
0.7886 0.870815 0.94156 0.961796
0.724712 0.828639 0.922045 0.948522
0.98914 1.00652 0.984735 0.997967
1.00729 1.00139 1.00821 0.997704
1.01267 1.00473 1.01055 0.997382
0.968634 0.980372 0.990078 0.997928
0.913444 0.963716 0.971213 0.97593
0.896179 0.944464 0.963802 0.984513
0.746484 0.850381 0.912635 0.961856
0.745132 0.87431 0.899991 0.946955
1.00078 0.999805 1.00221 0.998773
1.00038 0.999938 1.00176 0.998686
1.00207 1 1.00322 0.998854
0.999037 1 1 0.999037
0.998621 1 1 0.998621
1.00056 1 1.00211 0.998452
0.999653 1 1.00124 0.998411
0.998701 1 1 0.998701
0.998941 1 1 0.998941
1.00133 1 1.00296 0.998379
1.00096 1 1.00254 0.998419
0.998596 1 1.00004 0.998557
1.00168 1 1.00321 0.998478
1.00361 1 1.00519 0.998424
1.00791 1 1.00935 0.998568
0.999215 1 1.00086 0.998357
0.99869 1 1.00012 0.998568
0.998607 1 1.00001 0.9986
0.998821 1 1.00024 0.998581
0.998824 1 1.0004 0.998421
0.999147 1 1.00054 0.998604
0.999737 1 1.00116 0.998577
1.00324 1 1.00485 0.998399
0.999514 1 1.00079 0.998723
0.998894 1 1.00013 0.998763
0.999088 1 1 0.999088
0.998789 1 1.00011 0.998675
0.999027 1 1 0.999027
0.99964 1 1 0.99964
0.99894 1 1 0.99894
0.999651 1 1 0.999651
1 1 1 1
0.999655 1 1 0.999655
1 1 1 1
1 1 1 1
1 1 1 1
1 1 1 1
1 1 1 1
0.999414 1 1 0.999414
0.99993 1 1 0.99993
0.999923 1 1 0.999923
1 1 1 1
0.999897 1 1 0.999897
1 1 1 1
1 1 1 1
1 1 1 1
1 1 1 1
1 1 1 1
0.982139 1.01574 0.970616 0.99619
1.05185 1.07315 0.982544 0.997568
1.0298 1.04724 0.985134 0.99819
0.92924 0.974828 0.964062 0.98877
0.994885 1.01907 0.979195 0.997011
1.04089 1.05815 0.986009 0.997645
1.00752 1.02697 0.984 0.997014
0.943471 0.975686 0.976727 0.990023
0.924384 0.978173 0.968662 0.975584
0.75491 0.849526 0.924125 0.961585
0.655161 0.785453 0.881343 0.946418
0.999028 1 1 0.999028
0.999454 1 1 0.999454
0.999434 1 1 0.999434
0.998999 1 1 0.998999
0.998764 1 1 0.998764
0.998789 1 1 0.998789
0.998972 1 1 0.998972
0.999045 1 1 0.999045
1.02844 1.06264 0.970149 0.9976
1.01251 1.05417 0.962739 0.997653
1.0117 1.02597 0.988624 0.997432
1.00271 1.00093 1.00448 0.997307
0.997692 1.00601 0.994566 0.997147
1.03643 1.0006 1.03833 0.997568
1.03302 1.00017 1.03545 0.997484
1.00522 1 1.00743 0.997805
0.998942 1 1 0.998942
1.00084 1 1.00257 0.998274
0.998985 1 1 0.998985
0.999002 1 1 0.999002
0.997021 1.04211 0.958871 0.997767
0.999077 1 1.00047 0.998612
1.00037 1 1.00182 0.998554
0.99467 1.03033 0.967687 0.997622
1.00172 1.01045 0.994109 0.99724
0.989106 1.00118 0.990114 0.997804
1.01956 1.00007 1.02142 0.998115
1.04786 1.00082 1.04948 0.997628
0.98424 1.02703 0.96051 0.997733
0.98553 1.00974 0.978321 0.997654
0.980754 1.00166 0.981408 0.997679
0.990352 1.00118 0.991109 0.998062
1.00378 1 1.00555 0.998236
1.00886 1 1.01059 0.998282
1.04788 1 1.05005 0.997928
0.786996 0.880066 0.928287 0.96333
0.920093 0.975976 0.963372 0.978586
1.00059 1 1.00251 0.998083
0.999756 1.00119 1.00125 0.997317
1.00539 1.0256 0.982257 0.997998
0.999291 1.00815 0.994125 0.997073
1.00472 1.00236 1.00571 0.996659
0.920638 0.975399 0.967104 0.975963
0.926198 0.977331 0.960585 0.986567
0.977844 0.985599 0.994415 0.997704
0.760368 0.85058 0.928696 0.962576
0.65807 0.801698 0.874227 0.938937
1.00033 0.999942 1.00217 0.998222
0.786441 0.87668 0.932025 0.962493
0.712642 0.817215 0.921484 0.946341
0.988953 1.00738 0.983712 0.997964
1.00736 1.0018 1.00785 0.997727
1.01094 1.00307 1.01034 0.997534
0.96127 0.974726 0.98809 0.998083
0.92218 0.9746 0.971875 0.973596
0.894424 0.944969 0.959061 0.986915
0.751262 0.847392 0.923466 0.960032
0.743691 0.879572 0.893751 0.946029
1.0028 1 1.00414 0.998666
0.757001 0.840584 0.948157 0.949807
0.829765 0.911545 0.951079 0.957106
0.989056 0.99749 0.99286 0.998675
1.01448 1.00245 1.01341 0.998617
0.970671 0.965987 1.00702 0.997845
0.898173 0.931896 0.975439 0.988081
0.88445 0.934193 0.973596 0.972429
0.755218 0.843828 0.931468 0.960838
0.788757 0.917062 0.905318 0.950043
1.00125 0.999732 1.00286 0.998664
1.00148 1 1.00267 0.998817
1.00533 0.999895 1.00637 0.99908
0.998942 1 1 0.998942
0.998593 1 1 0.998593
1.00162 1 1.00319 0.998431
1.00175 1 1.00338 0.998369
1.0013 1 1.00281 0.998498
0.998621 1 1.00006 0.998566
1.00221 1 1.0038 0.998409
0.999245 1 1.00089 0.998358
1.00825 0.999934 1.00971 0.998624
1.0262 0.999063 1.02809 0.999098
1.00383 1 1.00541 0.998433
0.998611 1 1.00029 0.998319
0.998596 1 1 0.998596
0.999071 1 1.00049 0.998583
0.999106 1 1.00069 0.998415
0.999435 1 1.00084 0.998594
0.99931 1 1.00066 0.998649
1.00215 1 1.00362 0.99853
1.00008 1 1.0016 0.998482
1.00159 1 1.00294 0.998657
0.999103 1 1.00069 0.998417
0.998772 1 1.00093 0.997845
1.00259 1 1.00431 0.998295
1.00282 1 1.00443 0.998399
1.0024 1 1.00379 0.998622
1.00022 1 1.0015 0.998721
0.999071 1 1 0.999071
0.999205 1 1.00044 0.998764
0.99909 1 1 0.99909
0.999633 1 1 0.999633
0.999 1 1 0.999
0.999642 1 1 0.999642
0.999998 1 1 0.999998
0.999652 1 1 0.999652
0.999999 1 1 0.999999
1 1 1 1
1 1 1 1
1 1 1 1
1 1 1 1
0.999424 1 1 0.999424
0.99991 1 1 0.99991
0.999415 1 1 0.999415
1 1 1 1
0.99993 1 1 0.99993
0.99992 1 1 0.99992
1 1 1 1
1 1 1 1
1 1 1 1
1 1 1 1
1 1 1 1
0.781496 0.867642 0.938338 0.959902
0.719173 0.825278 0.919067 0.94817
0.930601 0.978792 0.961065 0.989282
0.996349 1.01876 0.980767 0.997175
1.0441 1.06206 0.985452 0.9976
0.925203 0.959826 0.97227 0.99142
1.00781 1.02639 0.984709 0.997147
0.935722 0.989715 0.967973 0.976728
0.756133 0.852212 0.924645 0.959567
0.654392 0.792969 0.875773 0.942302
0.958208 0.996244 0.968037 0.993578
0.923198 0.971078 0.973651 0.976421
0.743605 0.848538 0.911737 0.961172
0.729445 0.864334 0.892304 0.945798
0.999874 1 1.00125 0.998623
0.999062 1 1 0.999062
0.999452 1 1 0.999452
0.99899 1 1 0.99899
0.998816 1 1 0.998816
0.999682 1 1.00109 0.998597
0.99877 1 1 0.99877
0.998685 1 1 0.998685
0.998933 1 1 0.998933
0.999008 1 1 0.999008
0.99756 1.04231 0.959203 0.997777
0.991966 1.02783 0.967434 0.9976
0.999293 1.01096 0.991059 0.997373
0.991129 1.00128 0.992155 0.99769
1.04276 1.00222 1.0429 0.997655
1.02765 1.0001 1.02966 0.997947
0.998986 1 1.00039 0.9986
0.999283 1 1.00065 0.998636
0.985049 1.02733 0.960966 0.997792
1.00471 1 1.00652 0.998203
1.00847 1 1.01025 0.998239
0.983502 1.00798 0.978074 0.997588
0.978815 1.00127 0.979755 0.997771
0.992429 1.002 0.992445 0.997988
1.04173 1 1.04394 0.997887
0.98262 1.00394 0.980658 0.998072
0.973465 0.999782 0.975181 0.998458
1.01369 1.00091 1.01459 0.9982
1.00856 1 1.01042 0.998159
1.00815 1 1.01013 0.998043
1.02618 1 1.02821 0.998028
0.780352 0.855638 0.95313 0.95686
0.795545 0.878937 0.939484 0.963424
0.908752 0.972574 0.958104 0.975237
1.00029 0.999877 1.0022 0.99822
1.00708 1.00176 1.00757 0.997749
0.991439 1.00844 0.985149 0.997963
1.00936 1.00167 1.01002 0.997682
0.781314 0.871662 0.9302 0.963611
0.917217 0.970753 0.968832 0.975247
0.890225 0.941526 0.960284 0.984618
0.958381 0.970798 0.988955 0.998235
0.746628 0.84708 0.920194 0.957856
0.713199 0.818974 0.919603 0.946979
0.733832 0.869898 0.889777 0.948086
1.00311 0.999863 1.00459 0.998661
0.758693 0.843414 0.944704 0.952204
0.840565 0.921277 0.9535 0.956886
0.989151 0.995399 0.994952 0.998764
1.01435 1.00144 1.01433 0.998576
0.968098 0.964944 1.00506 0.998214
0.892561 0.935494 0.967827 0.985823
0.897418 0.941416 0.977635 0.975071
0.776138 0.866383 0.934248 0.958885
0.776118 0.905174 0.900821 0.951826
1.00716 0.999004 1.00874 0.999431
0.853785 0.925956 0.957745 0.962738
0.825263 0.915932 0.937353 0.961227
0.989003 0.974778 1.01488 0.999715
0.919185 0.931575 0.994732 0.991925
0.904189 0.932321 0.995826 0.973891
0.816973 0.893553 0.955086 0.957294
0.810683 0.940744 0.906012 0.951143
1.00146 1 1.00268 0.99878
1.00524 0.999608 1.00656 0.999076
1.02282 0.998258 1.02527 0.999354
0.998704 1 1.00014 0.998565
0.999206 1 1.00085 0.99836
1.00046 1 1.00207 0.998395
1.0085 0.99983 1.01 0.99868
0.998841 1 1.00052 0.998318
1.00391 1 1.00549 0.998425
1.03089 0.99968 1.03208 0.999175
1.04239 0.996627 1.0465 0.999446
1.03229 0.999496 1.03378 0.999068
0.998775 1 1.00039 0.998383
0.999368 1 1.00096 0.998408
0.999311 1 1.00073 0.998584
0.99872 1 1 0.99872
0.999708 1 1.00121 0.998499
1.00148 1 1.00295 0.998532
1.00205 1 1.00338 0.998672
1.00098 1 1.00246 0.998527
1.00649 0.999654 1.00787 0.99897
0.997741 1.00017 0.999062 0.998513
0.999672 1.00043 1.00081 0.99844
0.998745 1 1.00069 0.998051
1.00054 1.00193 1.00153 0.997094
1.00199 1 1.0038 0.998194
0.998835 1 1.00079 0.998044
1.00226 1 1.00396 0.998314
1.00412 1 1.00566 0.998467
1.00213 1 1.00374 0.998398
1.00207 1 1.00346 0.998621
0.999157 1 1.00018 0.998981
1.00045 1 1.00173 0.998718
0.999068 1 1 0.999068
0.99962 1 1 0.99962
0.999091 1 1 0.999091
0.999634 1 1 0.999634
0.999992 1 1 0.999992
0.999644 1 1 0.999644
0.999996 1 1 0.999996
1 1 1 1
0.999999 1 1 0.999999
1 1 1 1
1 1 1 1
0.999203 1 1 0.999203
0.999875 1 1 0.999875
0.999354 1 1 0.999354
1 1 1 1
0.999915 1 1 0.999915
0.999416 1 1 0.999416
1 1 1 1
1 1 1 1
0.999931 1 1 0.999931
1 1 1 1
1 1 1 1
1 1 1 1
0.753227 0.840383 0.940892 0.952597
0.787359 0.874888 0.936126 0.96136
0.835592 0.920554 0.949003 0.956483
0.714558 0.821739 0.918368 0.946863
0.926162 0.969024 0.966363 0.989035
1.00566 1.02593 0.98291 0.997288
0.941349 0.987426 0.975094 0.977686
0.764908 0.855753 0.929352 0.96179
0.65774 0.803921 0.872139 0.938112
0.956538 0.991329 0.971963 0.992738
0.917951 0.971121 0.971967 0.972511
0.756593 0.856985 0.920131 0.959488
0.731313 0.869182 0.891514 0.943767
0.934625 0.977952 0.964842 0.990522
0.899654 0.938456 0.986381 0.971889
0.77811 0.875047 0.92902 0.95716
0.782626 0.915062 0.902769 0.947386
1.00158 1 1.00322 0.998365
0.99922 1 1.00055 0.998667
0.999094 1 1 0.999094
0.998867 1 1 0.998867
0.998675 1 1.0004 0.998274
0.998988 1 1.00035 0.998638
0.99875 1 1 0.99875
0.998652 1 1 0.998652
0.998729 1 1.00001 0.998721
0.998895 1 1 0.998895
0.986392 1.02855 0.961076 0.99785
0.983876 1.00706 0.979406 0.997525
0.976954 1.00129 0.977787 0.997862
0.996698 1.00326 0.995535 0.997917
1.03447 1 1.03671 0.997846
1.00763 1 1.00945 0.998197
1.00517 1 1.00701 0.99817
1.00759 1 1.00949 0.998124
0.980152 1.00422 0.977913 0.998078
1.00679 1 1.00877 0.998036
1.02696 1 1.02901 0.998014
0.971916 1.00013 0.973317 0.99843
1.0108 1.00196 1.01068 0.998159
0.954471 0.98382 0.971625 0.9985
0.987421 0.992893 0.995253 0.999232
1.03828 0.999668 1.04028 0.99841
1.00429 1 1.00626 0.998046
1.01641 1 1.01837 0.998081
0.862909 0.930848 0.959772 0.965868
0.782338 0.855203 0.956544 0.956358
0.78428 0.873132 0.934266 0.961436
1.00343 0.999922 1.00486 0.998657
1.01472 1.00044 1.01576 0.998533
0.986033 0.993202 0.993922 0.998852
0.762844 0.846191 0.945934 0.95303
0.898105 0.938314 0.984576 0.972141
0.895334 0.933396 0.971562 0.987299
0.959751 0.961478 0.999633 0.99857
0.77518 0.867732 0.929447 0.961153
0.847504 0.926634 0.955971 0.956729
0.780881 0.908672 0.902715 0.951978
1.00575 0.998931 1.00744 0.999388
0.850645 0.92464 0.954185 0.964146
0.825572 0.916166 0.937419 0.961274
0.991751 0.978757 1.01373 0.999552
0.930392 0.94097 0.997066 0.991668
0.880794 0.925185 0.980492 0.97096
0.81175 0.940766 0.906498 0.951862
0.831391 0.901187 0.962658 0.958337
1.00411 0.982797 1.02199 0.999711
0.833937 0.910862 0.943358 0.970519
0.846979 0.936765 0.93915 0.962735
0.782403 0.914061 0.903305 0.947591
0.967543 0.955993 1.01423 0.997879
0.928747 0.945227 1.0077 0.975061
0.871011 0.931821 0.973943 0.959749
1.00562 0.999282 1.00728 0.999071
1.02259 0.997982 1.02541 0.999271
1.02272 0.98644 1.03723 0.999566
0.998904 1 1.00059 0.998317
1.00372 1 1.00532 0.998415
1.03614 0.999867 1.03705 0.999251
0.999017 1 1.00063 0.998389
1.03166 0.999575 1.03305 0.999079
1.0435 0.9965 1.04777 0.999421
1.03219 0.993285 1.0397 0.999489
1.02143 0.999272 1.02314 0.999058
0.999559 1 1.00104 0.998516
1.00123 1 1.0027 0.998533
1.00265 1 1.00397 0.998689
1.00583 0.999893 1.007 0.998943
1.00042 1 1.0019 0.998527
1.00241 1 1.00355 0.998863
0.998299 1.00005 0.999475 0.998771
1.00171 1.00012 1.00395 0.997656
1.00013 1.00083 1.00083 0.998465
0.999115 1.00058 1.00057 0.997971
0.998462 1.0006 1.00101 0.996856
1.01116 1.01306 1.00129 0.996834
1.00179 1.00117 1.00276 0.997861
0.999789 1.00127 1.00138 0.99714
1.00663 1 1.00836 0.99828
1.00288 1.00024 1.00447 0.998182
0.998887 1 1.00065 0.998242
1.00209 1 1.00376 0.998333
1.00356 1 1.00507 0.998502
0.999534 1 1.00067 0.998861
1.00194 1 1.00333 0.99862
0.999227 1 1.00025 0.998982
0.999569 1 1 0.999569
0.999066 1 1 0.999066
0.999618 1 1 0.999618
0.999989 1 1 0.999989
0.999634 1 1 0.999634
0.999991 1 1 0.999991
1 1 1 1
0.999994 1 1 0.999994
1 1 1 1
1 1 1 1
0.998973 1 1 0.998973
0.999697 1 1 0.999697
0.999201 1 1 0.999201
1 1 1 1
0.999828 1 1 0.999828
0.999285 1 1 0.999285
1 1 1 1
1 1 1 1
0.999919 1 1 0.999919
1 1 1 1
1 1 1 1
1 1 1 1
0.849567 0.9279 0.950398 0.963365
0.749828 0.83988 0.93555 0.954284
0.784296 0.871009 0.937006 0.960982
0.998531 1 1 0.998531
0.831145 0.913682 0.944203 0.963422
0.834307 0.920112 0.948131 0.95635
0.717302 0.827971 0.91332 0.948558
0.963954 0.993991 0.977927 0.99167
0.916312 0.965077 0.972996 0.975822
0.76104 0.868871 0.915036 0.957224
0.726506 0.85833 0.895828 0.944845
0.932586 0.974979 0.968444 0.987686
0.896297 0.938112 0.9801 0.974825
0.788343 0.877692 0.938039 0.957529
0.77875 0.909232 0.903568 0.9479
0.895799 0.939324 0.968315 0.984869
0.894034 0.924484 0.994596 0.972317
0.844969 0.913575 0.964835 0.958614
0.811406 0.940007 0.907588 0.951083
1.00116 1 1.00303 0.998136
1.0028 1 1.00448 0.998322
0.998791 1 1.00008 0.998711
0.998348 1 1.00002 0.998332
0.998901 1 1.00056 0.998338
0.998678 1 1 0.998678
0.998658 1 1 0.998658
0.998783 1 1.00003 0.998757
0.9764 1.00485 0.973554 0.99808
0.969741 1.00073 0.970582 0.998408
1.00701 1 1.00894 0.998088
1.00835 1.00297 1.00727 0.998115
1.02879 1 1.03085 0.998
1.00615 1 1.00814 0.998029
1.0045 1 1.00646 0.998056
0.959375 0.984719 0.975636 0.998592
1.01467 1 1.01659 0.998113
1.02764 1.00032 1.02891 0.99844
0.984347 0.99362 0.991377 0.999285
1.00599 1 1.00783 0.998169
0.953392 0.971899 0.982555 0.998374
1.00214 0.989337 1.01348 0.999471
1.04707 0.997261 1.05148 0.998539
1.00645 1 1.00819 0.998271
0.844723 0.914006 0.949905 0.972938
0.862218 0.930684 0.959201 0.965839
0.785891 0.854717 0.961946 0.955849
1.00374 0.998648 1.00576 0.999347
0.995155 0.98203 1.01398 0.999393
0.849531 0.92516 0.95104 0.965525
0.906331 0.928384 1.00169 0.974598
0.920174 0.938347 0.991995 0.988546
0.83161 0.902476 0.962798 0.957081
0.826315 0.917163 0.937212 0.961305
0.813839 0.941721 0.907221 0.952583
1.00767 0.9886 1.01962 0.999669
0.835515 0.912097 0.943893 0.970489
0.845874 0.934655 0.938109 0.964719
0.976416 0.961578 1.01595 0.999485
0.777885 0.907923 0.903751 0.94802
0.908021 0.929671 1.0037 0.973116
0.87824 0.939772 0.974194 0.95928
1.00415 0.978798 1.02616 0.999757
0.856928 0.930999 0.946441 0.972527
0.829 0.911253 0.944082 0.96362
0.727175 0.862781 0.890947 0.945989
0.844127 0.913548 0.964353 0.958165
0.954694 0.953715 1.00562 0.99543
0.935371 0.942535 1.02334 0.969768
1.01968 0.998318 1.02223 0.999188
1.02506 0.987834 1.03816 0.999534
1.01075 0.976177 1.03585 0.999582
0.999149 1 1.00076 0.998395
1.03325 0.999631 1.03457 0.999091
1.04454 0.997735 1.04754 0.999396
1.01612 0.99939 1.01771 0.999045
1.03221 0.994954 1.03798 0.999488
1.01203 0.990911 1.0221 0.999235
1.00461 1 1.0057 0.998915
0.999963 1 1.00144 0.998527
1.00451 1 1.00567 0.998843
1.00924 1 1.01108 0.998181
0.999028 1 1 0.999028
1.00019 1.00013 1.00223 0.997835
1.00162 1.00078 1.00426 0.996599
1.00538 1.00734 1.00188 0.996183
0.999528 1.00124 1.0004 0.997888
0.998824 1.00105 1.00109 0.996682
1.01236 1.01495 1.00053 0.996926
1.0067 1.00669 1.00261 0.997406
1.01034 1.01219 1.00125 0.996919
1.00671 1 1.00865 0.99808
1.0036 1.00246 1.0033 0.99784
0.998737 1.00028 1.00128 0.997186
1.00203 1 1.00335 0.998681
1.00611 1 1.00783 0.998292
1.00375 1.0004 1.00519 0.99817
1.00328 1 1.00475 0.998536
0.999961 1 1.0011 0.99886
0.999474 1 1 0.999474
0.999408 1 1.00043 0.998982
0.999565 1 1 0.999565
0.999985 1 1 0.999985
0.999615 1 1 0.999615
0.999988 1 1 0.999988
1 1 1 1
0.99999 1 1 0.99999
1 1 1 1
1 1 1 1
0.998887 1 1 0.998887
0.999562 1 1 0.999562
0.999015 1 1 0.999015
1 1 1 1
0.999683 1 1 0.999683
0.999199 1 1 0.999199
1 1 1 1
1 1 1 1
0.999781 1 1 0.999781
1 1 1 1
1 1 1 1
1 1 1 1
0.839732 0.913497 0.946449 0.971261
0.852363 0.927576 0.953876 0.963349
0.750134 0.840078 0.935552 0.954446
0.998563 1 1 0.998563
0.998493 1 1 0.998493
0.998424 1 1 0.998424
0.84604 0.938087 0.93698 0.962537
0.827794 0.913183 0.940861 0.963471
0.833797 0.919558 0.948247 0.956224
0.937108 0.978819 0.967399 0.98965
0.885319 0.933926 0.975481 0.971781
0.777847 0.860954 0.94024 0.960894
0.791172 0.9185 0.909849 0.946722
0.898608 0.94314 0.964857 0.987487
0.898733 0.92796 0.995612 0.972773
0.823568 0.890209 0.964152 0.959538
0.811141 0.940886 0.90581 0.951749
0.893184 0.932183 0.972364 0.985396
0.913652 0.933717 1.00486 0.973776
0.870652 0.929958 0.975281 0.959956
0.792527 0.919646 0.907144 0.949986
0.99879 1 1.0006 0.998191
1.00183 1 1.00373 0.99811
1.00274 1 1.00447 0.998279
0.998334 1 1.00001 0.998322
0.998741 1 1.00034 0.998403
0.998665 1 1 0.998665
0.962919 0.982899 0.980982 0.998665
0.979741 0.992796 0.98752 0.999322
1.00472 1 1.00667 0.998067
1.0194 1.00052 1.02043 0.998469
1.01549 1 1.01738 0.998144
1.00771 1 1.00957 0.998152
1.0071 0.999974 1.00885 0.998296
0.95996 0.972069 0.989059 0.998467
1.04604 0.997068 1.0505 0.99868
1.00632 0.985358 1.02189 0.999396
1.00717 1 1.00873 0.998448
0.978178 0.963953 1.01652 0.998269
1.00659 0.979401 1.02836 0.999414
1.03467 0.992697 1.04353 0.998796
0.869562 0.935717 0.953269 0.974855
0.845954 0.914444 0.950345 0.973439
0.861655 0.930466 0.958831 0.965809
1.01262 0.994546 1.01856 0.999627
0.965392 0.958595 1.00872 0.998385
0.837126 0.913177 0.944621 0.97046
0.903168 0.918107 1.00677 0.977118
0.872824 0.936828 0.97261 0.957917
0.845842 0.933053 0.937758 0.966702
0.792193 0.917861 0.911448 0.94694
0.999817 0.976014 1.02461 0.999783
0.858073 0.930881 0.947116 0.973256
0.829163 0.913243 0.94216 0.963672
0.951092 0.949388 1.01005 0.991828
0.729585 0.867558 0.890797 0.944058
0.818678 0.88884 0.960562 0.958879
0.944864 0.948031 1.02332 0.973946
1.00171 0.962318 1.04197 0.999004
0.840495 0.912935 0.947761 0.971397
0.841975 0.925071 0.951254 0.956814
0.653902 0.783027 0.881896 0.946932
0.772731 0.870108 0.927869 0.957124
0.911644 0.930555 1.00675 0.973109
0.929862 0.944899 0.994769 0.989261
1.02868 0.989169 1.04047 0.999501
1.0146 0.982649 1.03294 0.999586
1.01288 0.987783 1.0259 0.999519
1.01068 0.999663 1.012 0.999032
1.03066 0.996122 1.03521 0.999487
1.01544 0.989141 1.02729 0.999319
1.00863 1 1.00982 0.998817
1.00672 1 1.00791 0.998822
1.00788 1.00002 1.00986 0.998015
1.01813 1.00082 1.02062 0.99674
0.998583 1.00005 1.00052 0.998018
1.0031 1.00117 1.00537 0.996585
1.00419 1.00251 1.00597 0.995731
1.00524 1.00759 1.00191 0.995765
1.00728 1.0097 1.00108 0.996534
1.00519 1.00719 1.00189 0.996134
0.999062 1.00132 1.00124 0.996509
1.00529 1.00699 1.0011 0.997217
1.01246 1.015 1.00048 0.997011
1.00235 1.00003 1.00464 0.997694
1.00783 1.00763 1.00274 0.997469
1.01012 1.01197 1.00117 0.997005
1.00672 1 1.00835 0.998388
1.00592 1.00007 1.00779 0.998079
1.00558 1.00396 1.0038 0.997818
0.999434 1 1.00009 0.999342
1.00169 1 1.00301 0.99868
1.0053 1 1.00701 0.998304
0.999843 1 1.00099 0.998859
0.999477 1 1.00001 0.999469
0.999972 1 1 0.999972
0.999561 1 1 0.999561
0.999981 1 1 0.999981
1 1 1 1
0.999987 1 1 0.999987
1 1 1 1
1 1 1 1
0.998855 1 1 0.998855
0.999546 1 1 0.999546
0.998913 1 1 0.998913
0.999999 1 1 0.999999
0.999603 1 1 0.999603
0.999058 1 1 0.999058
1 1 1 1
1 1 1 1
0.999669 1 1 0.999669
1 1 1 1
1 1 1 1
1 1 1 1
0.85647 0.930971 0.946111 0.972375
0.841615 0.9142 0.947866 0.971238
0.853756 0.926726 0.956299 0.963361
0.999191 1 1.00079 0.998397
0.999318 1 1.00106 0.998258
0.998596 1 1 0.998596
0.998483 1 1 0.998483
0.998414 1 1 0.998414
0.998406 1 1 0.998406
0.998363 1 1 0.998363
0.825528 0.918324 0.935423 0.96101
0.847466 0.935952 0.938743 0.964544
0.825807 0.911868 0.939905 0.963524
0.81152 0.941904 0.904608 0.952428
0.891773 0.937829 0.965199 0.985176
0.898562 0.924652 0.99851 0.973234
0.83244 0.901023 0.961939 0.960438
0.88511 0.932911 0.963718 0.984481
0.910873 0.926798 1.01237 0.970805
0.8773 0.939145 0.97317 0.959901
0.777894 0.906963 0.901146 0.951778
0.906973 0.936475 0.981264 0.98699
0.922547 0.935484 1.01619 0.970458
0.822188 0.897589 0.95652 0.957633
0.746023 0.876546 0.899032 0.946677
1.01161 1 1.0132 0.99843
1.00007 1 1.00187 0.998204
1.00293 1 1.00486 0.998083
0.998313 1 1 0.998313
0.96656 0.972275 0.995529 0.998587
1.00853 0.983301 1.02636 0.999316
1.00675 1 1.00863 0.998135
1.00684 1 1.00854 0.998322
1.03901 0.995608 1.04483 0.998821
1.00572 1 1.00729 0.998443
1.03508 0.99243 1.04424 0.998783
0.976191 0.96328 1.01638 0.997075
1.0046 0.970887 1.03518 0.999555
1.01293 0.992661 1.02153 0.998911
0.956401 0.935407 1.02577 0.996756
1.01681 0.972071 1.04676 0.999296
0.845647 0.913628 0.951259 0.973018
0.867492 0.934992 0.95074 0.975878
0.846791 0.914602 0.950634 0.973938
0.994343 0.971441 1.02378 0.999805
0.957345 0.954 1.0078 0.995741
0.857398 0.929816 0.946739 0.973993
0.942932 0.951255 1.02151 0.970375
0.82335 0.895477 0.957943 0.959822
0.828634 0.914706 0.940005 0.96372
0.725805 0.85684 0.896261 0.945118
1.00339 0.964776 1.04089 0.999169
0.841082 0.914896 0.946409 0.971377
0.836935 0.921382 0.949476 0.956683
0.932418 0.944938 0.994975 0.991734
0.654218 0.791806 0.876296 0.942872
0.780994 0.871522 0.936141 0.957256
0.910648 0.927209 1.01133 0.971139
0.996339 0.970132 1.02945 0.997632
0.850559 0.929075 0.950035 0.963639
0.71927 0.824363 0.919684 0.948713
0.745554 0.850101 0.911981 0.961662
0.884893 0.914781 0.993489 0.973666
0.898579 0.928085 0.982152 0.985803
1.01818 0.986634 1.03239 0.99959
1.01332 0.984757 1.0295 0.999517
0.987204 0.982455 1.00551 0.999328
1.01949 0.987622 1.03288 0.999402
1.00638 0.993533 1.01405 0.9989
1.00192 1.0008 1.00331 0.997823
1.00681 1.00002 1.00896 0.997849
1.01613 1.00074 1.01879 0.996644
1.00915 1.00044 1.01293 0.995824
1.00474 1.00184 1.00634 0.996571
1.00477 1.00228 1.00687 0.995642
1.00207 1.0022 1.00448 0.995416
1.01762 1.0218 1 0.995905
1.01171 1.01496 1.00077 0.996037
1.0056 1.00774 1.00218 0.99571
1.00399 1.00706 1.00013 0.996829
1.00615 1.00884 1.00074 0.996597
1.00496 1.007 1.0019 0.996085
1.00185 1.00348 1.00112 0.997264
1.00536 1.0071 1.00108 0.997195
1.01228 1.01479 1.00043 0.997096
1.00551 1 1.00752 0.998004
1.00273 1.00038 1.00461 0.997753
1.00875 1.00834 1.00288 0.997533
1.00073 1 1.00163 0.999099
1.00549 1 1.00711 0.998393
1.0051 1.00012 1.00692 0.998078
0.99995 1 1 0.99995
0.999786 1 1.00045 0.999335
1.00173 1 1.00305 0.998678
0.999627 1 1.00016 0.999464
0.999966 1 1 0.999966
1 1 1 1
0.999978 1 1 0.999978
1 1 1 1
1 1 1 1
1.00088 1 1.0025 0.998385
0.998729 1 1 0.998729
0.999438 1 1 0.999438
0.998852 1 1 0.998852
0.99999 1 1 0.99999
0.999549 1 1 0.999549
0.998939 1 1 0.998939
1 1 1 1
0.999999 1 1 0.999999
0.999644 1 1 0.999644
1 1 1 1
1 1 1 1
1 1 1 1
0.833192 0.910911 0.942584 0.970395
0.855169 0.929334 0.945615 0.973119
0.842513 0.916091 0.946945 0.97121
0.999132 1 1.00072 0.998409
1.00004 1 1.00178 0.998257
1.00008 1 1.00179 0.998292
0.998855 1 1.00059 0.998267
1.00481 1 1.00661 0.998215
0.998472 1 1 0.998472
0.998403 1 1 0.998403
0.998407 1 1 0.998407
0.998368 1 1 0.998368
1.0068 1 1.00839 0.99842
0.830077 0.912996 0.950213 0.956817
0.826571 0.918077 0.936785 0.961083
0.848765 0.935025 0.939168 0.966543
0.780342 0.909658 0.901147 0.951943
0.873621 0.935715 0.974353 0.958215
0.878662 0.927863 0.963193 0.983161
0.91951 0.935165 1.01009 0.973439
0.904101 0.939226 0.978152 0.984103
0.932423 0.945615 1.01291 0.973481
0.834729 0.902108 0.964725 0.959143
0.745298 0.882121 0.89344 0.945662
0.917794 0.932241 0.998175 0.986304
0.915849 0.929428 1.01161 0.974082
0.757371 0.846088 0.931981 0.960475
0.684778 0.822655 0.879581 0.946359
1.01115 1 1.01218 0.998984
1.01284 1 1.01443 0.998436
1.00249 1 1.00428 0.998218
0.977267 0.965659 1.01625 0.995836
1.00723 0.965167 1.04389 0.999705
1.00558 1 1.00715 0.998438
1.0374 0.992349 1.04668 0.99877
1.01416 0.995484 1.01987 0.998918
1.02194 0.978341 1.04531 0.999285
0.962426 0.945436 1.02132 0.996718
1.01817 0.993893 1.0251 0.999345
0.974625 0.960935 1.01724 0.997061
0.861388 0.930396 0.958872 0.965539
0.847627 0.914738 0.951847 0.973511
0.865393 0.934089 0.94836 0.976903
1.00564 0.970382 1.03705 0.999313
0.929321 0.943304 0.997451 0.987694
0.84396 0.916887 0.947611 0.97135
0.914669 0.935641 1.00691 0.970872
0.769221 0.853063 0.938706 0.960595
0.83225 0.917653 0.948109 0.95657
0.657393 0.802828 0.872288 0.938734
0.995412 0.968957 1.02953 0.997833
0.851976 0.927194 0.95357 0.963616
0.714798 0.821711 0.918158 0.947429
0.9055 0.935439 0.98055 0.987195
0.757789 0.85771 0.920401 0.959911
0.878288 0.919109 0.98351 0.971608
0.958466 0.958306 1.0039 0.996284
0.753467 0.841203 0.939828 0.95305
0.754738 0.849296 0.923666 0.962105
0.896081 0.938087 0.982757 0.971981
0.876962 0.924795 0.959812 0.987983
1.01205 0.982042 1.03106 0.999515
0.991206 0.98135 1.01075 0.999303
0.996271 0.99434 1.00347 0.998478
1.00392 0.986459 1.01874 0.998979
1.00136 1.00086 1.0026 0.997906
0.998051 1.00199 0.999119 0.996952
1.01397 1.00067 1.01681 0.996548
1.00775 1.00067 1.01129 0.995831
0.999143 1.00176 1.00137 0.996027
1.00501 1.00195 1.00754 0.995553
1.00221 1.00308 1.0037 0.995448
1.01605 1.02001 1 0.996117
1.03739 1.04107 1 0.996458
1.02705 1.03118 1.00002 0.995982
1.01758 1.02174 1 0.995933
1.01291 1.01665 1 0.996319
1.01024 1.01322 1.00107 0.995985
1.0061 1.00803 1.00244 0.995654
1.00503 1.00807 1 0.996989
1.00254 1.00563 1.00002 0.996902
1.00481 1.00786 1.00032 0.996661
1.00047 1.00077 1.00208 0.997625
1.00199 1.0034 1.0013 0.997299
1.00558 1.00732 1.0011 0.997173
1.00584 1 1.00716 0.998683
1.00565 1.00015 1.00751 0.998007
1.00313 1.00061 1.00471 0.997813
0.999905 1 1 0.999905
1.00161 1 1.00252 0.999091
1.00484 1 1.00645 0.998397
1 1 1 1
0.99994 1 1 0.99994
1.00002 1 1.00069 0.999328
0.999961 1 1 0.999961
1 1 1 1
1 1 1 1
1.00403 1 1.00574 0.998297
0.999689 1 1.0011 0.998594
1.00126 1 1.0029 0.998366
0.999329 1 1 0.999329
0.998897 1 1.00017 0.998727
0.999971 1 1 0.999971
0.999442 1 1 0.999442
0.998849 1 1 0.998849
1 1 1 1
0.999994 1 1 0.999994
0.999552 1 1 0.999552
1 1 1 1
1 1 1 1
1 1 1 1
0.849643 0.926299 0.949678 0.965849
0.836207 0.913016 0.943838 0.970371
0.85528 0.927369 0.947014 0.973866
0.998787 1.0001 1.00039 0.998301
0.999605 1 1.00119 0.99842
1.00041 1 1.00215 0.998256
0.998861 1 1.0006 0.998265
0.999933 1 1.00162 0.998313
1.00296 1 1.00468 0.998291
1.0109 1 1.01295 0.997976
1.0129 1 1.01468 0.998247
0.99841 1 1 0.99841
0.998372 1 1 0.998372
1.00639 1 1.008 0.998406
1.01935 0.999717 1.02105 0.998618
0.725226 0.828156 0.923717 0.948031
0.840345 0.922613 0.952153 0.956601
0.827511 0.91791 0.937966 0.961139
0.736624 0.873705 0.889638 0.947693
0.836896 0.906644 0.963232 0.958304
0.925979 0.938542 1.01658 0.970522
0.905285 0.932565 0.98572 0.98481
0.916195 0.931573 0.995165 0.988271
0.671578 0.813658 0.875832 0.942397
0.909855 0.927092 1.01041 0.971294
0.776145 0.866701 0.934397 0.95839
0.915495 0.939373 0.985133 0.989288
0.901722 0.928407 0.996019 0.975139
0.746712 0.851465 0.91324 0.960287
0.998745 1 0.999203 0.999541
1.01072 1 1.01174 0.998991
1.01281 1 1.01439 0.998441
0.960898 0.94586 1.01922 0.996746
1.02695 0.984368 1.04402 0.999273
1.01455 0.997566 1.01812 0.998925
1.01808 0.995114 1.02375 0.999344
0.971696 0.959981 1.01514 0.997106
0.993625 0.987224 1.00847 0.998031
0.781585 0.855562 0.957675 0.953908
0.858771 0.929634 0.954969 0.967333
0.8474 0.915202 0.950636 0.973997
0.996479 0.96791 1.0316 0.997976
0.895634 0.930739 0.973918 0.988053
0.851012 0.925365 0.954365 0.963624
0.88342 0.911597 0.996182 0.972804
0.7642 0.871682 0.915381 0.957738
0.717983 0.828214 0.913402 0.949094
0.959278 0.956122 1.00697 0.996355
0.750112 0.840399 0.934913 0.954706
0.757106 0.852361 0.925146 0.960114
0.878051 0.925693 0.963082 0.984894
0.894684 0.940476 0.975829 0.974874
0.950289 0.96651 0.985 0.99819
0.778217 0.864859 0.93707 0.960248
0.925058 0.973515 0.973288 0.976304
0.888996 0.939148 0.961346 0.98466
0.99478 0.979837 1.01598 0.999281
0.988249 0.994132 0.995503 0.998573
0.994121 1.00142 0.995042 0.997653
1.00149 1.00096 1.00255 0.997989
1.00135 1.00242 1.002 0.996934
1.00021 1.00384 0.999428 0.996951
1.00643 1.00085 1.00978 0.995838
0.999013 1.00132 1.00167 0.996038
1.02106 1.02501 0.999255 0.996896
1.00262 1.00398 1.00319 0.99548
1.01503 1.01898 1 0.996129
1.03791 1.04127 0.999735 0.997037
1.04085 1.0439 1 0.997075
1.04003 1.04381 1 0.996375
1.03749 1.04113 1 0.996501
1.02814 1.03206 1 0.996201
1.02559 1.02967 1 0.996038
1.01736 1.02149 1 0.99596
1.01679 1.02019 1 0.996672
1.01309 1.01667 1.00014 0.996346
1.0089 1.01153 1.00148 0.995933
1.0015 1.0042 1 0.99731
1.00532 1.00836 1 0.996983
1.00121 1.00425 1 0.996976
1.00325 1.00009 1.00491 0.998254
1.00161 1.00165 1.00234 0.997623
1.0019 1.00313 1.00145 0.997333
1.00032 1 1.00053 0.999789
1.00408 1 1.00541 0.99868
1.00492 1.00035 1.00657 0.99801
1 1 1 1
0.999887 1 1 0.999887
1.00178 1 1.00269 0.999083
1 1 1 1
0.999931 1 1 0.999931
1 1 1 1
0.999746 1 1.00155 0.998198
1.00275 1 1.00448 0.998285
1.00274 1 1.00429 0.998458
0.999749 1 1.00054 0.999214
1.00003 1 1.00144 0.998592
1.00074 1 1.0024 0.998348
0.999943 1 1 0.999943
0.999333 1 1 0.999333
0.998781 1 1.00006 0.998725
1 1 1 1
0.999977 1 1 0.999977
0.999446 1 1 0.999446
1 1 1 1
0.999997 1 1 0.999997
1 1 1 1
0.756764 0.840628 0.947357 0.950261
0.850124 0.926666 0.94983 0.965859
0.839521 0.91541 0.945123 0.970349
1.00123 1 1.00295 0.998281
1.00448 1.00158 1.0049 0.998007
1.00894 1 1.01082 0.998135
0.999744 1 1.00148 0.998262
0.999667 1 1.00134 0.998334
1.00307 1 1.00471 0.998366
1.01134 1 1.01315 0.998218
1.01035 1 1.01236 0.998016
1.01202 1.00018 1.01397 0.997893
0.989149 1.00062 0.989549 0.998975
1.00496 1 1.00657 0.998392
1.01554 0.999777 1.0172 0.99859
0.756765 0.84854 0.930813 0.958134
0.711898 0.816111 0.922256 0.94584
0.847418 0.928395 0.954332 0.956457
0.659476 0.803547 0.87464 0.938335
0.777707 0.867284 0.933453 0.960644
0.899406 0.922644 1.00155 0.973304
0.922789 0.937575 0.998468 0.98574
0.906449 0.933079 0.98412 0.987136
0.747771 0.84514 0.922558 0.959062
0.884685 0.918242 0.99044 0.972755
0.896555 0.9388 0.966312 0.988294
0.884546 0.939956 0.967697 0.972464
1.00368 1 1.00466 0.999021
0.998328 1 0.998842 0.999485
1.01047 1 1.01149 0.998996
0.96967 0.960047 1.01291 0.997152
1.01796 0.996181 1.02254 0.999344
0.994459 0.988301 1.00828 0.997964
0.981509 0.992181 0.992153 0.997067
0.787772 0.881944 0.927253 0.9633
0.782168 0.854389 0.958962 0.954648
0.859584 0.930755 0.952984 0.969097
0.961839 0.962628 1.00269 0.996503
0.880387 0.925736 0.96506 0.985444
0.750836 0.84112 0.93488 0.954841
0.881432 0.932963 0.971908 0.972074
0.76729 0.858243 0.92901 0.962341
0.954126 0.969012 0.987373 0.99723
0.787185 0.874449 0.936052 0.961706
0.921147 0.974082 0.972196 0.972702
0.893716 0.941415 0.961705 0.987135
0.960329 0.98546 0.976375 0.998078
0.928431 0.980317 0.970713 0.975646
0.932075 0.978062 0.963364 0.989224
0.979293 0.992845 0.987678 0.998656
0.990784 1.0018 0.991358 0.997625
0.981657 1.00752 0.976757 0.997518
1.00325 1.00278 1.00356 0.996916
0.999575 1.00399 0.998648 0.996947
1.02214 1.03279 0.992093 0.997579
0.998715 1.00081 1.00186 0.996049
1.02028 1.02484 0.998676 0.996878
1.03535 1.04358 0.994492 0.997602
1.01402 1.01795 1 0.99614
1.03709 1.04087 0.999335 0.997031
1.0404 1.04494 0.998092 0.99756
1.03811 1.0409 0.99988 0.997437
1.04176 1.04479 0.999956 0.997144
1.04037 1.04358 1 0.996928
1.04139 1.04511 1 0.996439
1.0401 1.04387 1 0.99639
1.03776 1.04136 1 0.996544
1.02893 1.03259 1 0.996451
1.02978 1.03367 1 0.996232
1.0241 1.02812 1 0.996095
1.0103 1.01331 1 0.997023
1.01581 1.0192 1 0.996668
1.0132 1.01672 1.00017 0.996373
0.99878 1.00056 1.00026 0.997963
1.00312 1.00583 1 0.997307
1.00603 1.00908 1 0.996977
1.00127 1 1.0017 0.999567
1.00278 1.00023 1.00431 0.998255
1.00321 1.0026 1.003 0.997621
1 1 1 1
1.00102 1 1.00126 0.999765
1.00351 1 1.00484 0.998676
0.999998 1 1 0.999998
1.0002 1 1.00032 0.999873
1 1 1 1
0.998549 1.00045 1 0.998098
1.00102 1.00005 1.00276 0.998213
1.00342 1 1.0051 0.998324
1.00098 1 1.00271 0.998272
1.00283 1 1.00438 0.998458
1.00102 1 1.00196 0.999067
0.999907 1 1 0.999907
0.99961 1 1.00039 0.999216
1.00079 1 1.0022 0.99859
1 1 1 1
0.999951 1 1 0.999951
0.999337 1 1 0.999337
1 1 1 1
0.999983 1 1 0.999983
1 1 1 1
0.787039 0.870254 0.940473 0.961621
0.759565 0.843318 0.94738 0.950713
0.849724 0.926598 0.949448 0.965863
1.00396 1 1.00571 0.998261
1.01119 1 1.01322 0.997995
1.00261 1.00097 1.00356 0.998081
1.00086 1.00282 1.00079 0.997263
1.01108 1.00099 1.01212 0.997987
1.01024 1 1.01207 0.99819
1.00847 1 1.01043 0.998056
1.01526 1.00041 1.01692 0.997963
0.999083 1.00141 1 0.997679
0.978963 1.00119 0.979169 0.998598
0.97917 1.00035 0.981053 0.99773
0.989421 1.00057 0.989828 0.999016
1.00987 1 1.01132 0.998562
0.910808 0.965621 0.967887 0.974531
0.754093 0.844732 0.930675 0.959197
0.711491 0.81739 0.919691 0.946451
0.745799 0.847563 0.919721 0.95674
0.896021 0.929235 0.991624 0.972401
0.91004 0.929382 0.989698 0.98938
0.897653 0.937833 0.966931 0.989892
0.899884 0.943295 0.977613 0.975825
0.924413 0.971398 0.96221 0.989006
0.994654 1.00132 0.995118 0.998218
1.00348 1 1.00448 0.998999
0.998161 1 0.998732 0.999428
0.996099 0.990646 1.00759 0.997934
0.98747 0.99573 0.994456 0.997234
0.904403 0.967389 0.958706 0.975159
0.796079 0.880365 0.938509 0.963507
0.782188 0.851891 0.961024 0.955417
0.960138 0.974295 0.989212 0.996217
0.89668 0.944675 0.96382 0.984825
0.785888 0.871423 0.938137 0.961316
0.915992 0.965215 0.972581 0.975757
0.968166 0.985234 0.984495 0.998152
0.937357 0.989632 0.969889 0.976583
0.928593 0.974291 0.965837 0.986809
0.981739 1.00415 0.98009 0.997544
0.954799 0.993726 0.968057 0.992532
0.991809 1.00437 0.98985 0.997619
0.98111 1.00719 0.976575 0.997469
0.997448 1.03363 0.967121 0.997798
0.999046 1.00399 0.998123 0.996943
1.02283 1.03313 0.992458 0.997554
1.03313 1.05141 0.984705 0.997878
1.01943 1.02467 0.998025 0.996859
1.03482 1.04374 0.993863 0.997579
1.03117 1.0438 0.990076 0.997801
1.03611 1.04035 0.998892 0.997026
1.04037 1.04541 0.997636 0.997539
1.038 1.04371 0.996887 0.997634
1.03853 1.04139 0.999766 0.997491
1.03684 1.03981 0.999895 0.997248
1.04255 1.04558 0.999889 0.997212
1.04028 1.04349 1 0.996919
1.04244 1.04585 1 0.996733
1.03841 1.04207 1 0.996489
1.0412 1.04493 1 0.996428
1.04017 1.04393 1 0.996405
1.02263 1.02591 1 0.996807
1.02846 1.03211 1 0.996462
1.03147 1.03534 1 0.996264
1.00063 1.00289 1 0.997745
1.01088 1.0139 1 0.99702
1.01468 1.01807 1 0.996664
1.00023 1 1.00092 0.999309
0.999572 1.00113 1.00048 0.997963
1.00455 1.00726 1 0.997303
1 1 1 1
1.00121 1 1.00166 0.999543
1.00189 1.00035 1.00329 0.998256
1 1 1 1
1.00126 1 1.00152 0.99974
1 1 1 1
1.0022 1.00483 1 0.997378
0.998712 1.00063 1 0.998087
1.00023 1 1.00211 0.998123
1.00272 1 1.0045 0.998228
1.00289 1 1.0046 0.998295
1.00244 1 1.0036 0.99885
1.00321 1 1.00476 0.998457
1.00054 1 1.00148 0.999068
0.99986 1 1 0.99986
1 1 1 1
0.999918 1 1 0.999918
0.999411 1 1.00019 0.999218
1 1 1 1
0.999959 1 1 0.999959
1 1 1 1
0.928583 0.981423 0.967859 0.97758
0.785931 0.876153 0.932084 0.962386
0.765431 0.847104 0.951563 0.949581
1.01263 1 1.01481 0.997854
1.00053 1.00052 1.00185 0.998155
1.00908 1.00087 1.01027 0.997951
1.0023 1.00392 1.00105 0.997338
1.01067 1.01369 1.00016 0.996858
0.999377 1.0018 1 0.997585
1.01969 1.00072 1.02096 0.998032
0.999414 1.00194 1 0.997479
0.984938 1.00147 0.984888 0.99858
0.995376 1.00123 0.996466 0.997681
0.975886 1.00322 0.974863 0.997841
0.995418 1.00129 0.996801 0.997328
0.980617 1.00082 0.981915 0.997862
0.99336 1.00044 0.993855 0.999058
0.929826 0.977068 0.962185 0.98905
0.915905 0.970371 0.968292 0.97478
0.757328 0.846099 0.93052 0.961916
0.903629 0.946608 0.982102 0.971994
0.902182 0.936933 0.971792 0.99086
0.927437 0.968652 0.964942 0.992237
0.987352 1.00377 0.986075 0.997537
0.992578 1.00067 0.993704 0.998199
1.00329 1 1.00432 0.998978
0.989247 0.998212 0.993621 0.997381
0.940911 0.974088 0.976361 0.989326
0.919853 0.974177 0.964939 0.978545
0.784008 0.874282 0.932684 0.961467
0.967977 0.98124 0.988242 0.99822
0.931503 0.978429 0.963162 0.988452
0.942183 0.98799 0.975624 0.977462
0.973938 1.0024 0.973956 0.997586
0.953479 0.989826 0.971266 0.991777
0.975214 1.02436 0.954381 0.997532
0.996231 1.01665 0.983334 0.996525
0.979834 1.00687 0.975669 0.997413
0.995782 1.03216 0.966892 0.997792
1.00454 1.05304 0.956038 0.997813
1.02413 1.03406 0.992852 0.997528
1.0329 1.0512 0.984698 0.997859
1.02791 1.04756 0.983461 0.997752
1.03469 1.0441 0.993413 0.997556
1.03088 1.04313 0.990454 0.997783
1.03732 1.04889 0.99134 0.997604
1.04051 1.04595 0.997273 0.997518
1.03604 1.04176 0.996875 0.997626
1.03807 1.04277 0.99814 0.997354
1.039 1.04188 0.999691 0.997544
1.03721 1.04013 0.999905 0.997294
1.04086 1.04407 1 0.99693
1.04024 1.04347 1 0.996911
1.04244 1.04587 1 0.996721
1.0408 1.04428 1 0.996662
1.03062 1.03403 1 0.996703
1.03844 1.0421 1 0.996494
1.04095 1.04469 1 0.996417
1.00564 1.00811 1 0.997551
1.02178 1.02505 1 0.99681
1.02799 1.03162 1 0.996474
0.999204 1 1.00011 0.999097
1.00199 1.00426 1 0.997743
1.01131 1.01434 1 0.997017
1 1 1 1
0.999985 1 1.00069 0.999293
1.00025 1.00166 1.00063 0.997964
1 1 1 1
1.00128 1 1.00177 0.999518
1 1 1 1
1.01207 1.01516 1 0.996956
1.00381 1.00642 1 0.997403
1.00373 1.00541 1.00066 0.99767
0.998763 1.00069 1 0.998076
1.00007 1 1.00199 0.998082
1.00165 1 1.00309 0.998561
1.00237 1 1.00412 0.998266
1.00233 1 1.00348 0.998852
1.00058 1 1.00079 0.999788
1.00021 1 1.00114 0.999069
0.99987 1 1 0.99987
1 1 1 1
1 1 1 1
0.999928 1 1 0.999928
1 1 1 1
0.931976 0.977212 0.963634 0.989701
0.920491 0.980808 0.962917 0.974646
0.778585 0.869105 0.929827 0.963454
1.02542 1.0288 1.00007 0.99665
1.00724 1.00059 1.00875 0.997917
1.00376 1.00502 1.00134 0.997413
0.999122 1.00156 1 0.997564
1.01007 1.01284 1.00042 0.99684
1.00254 1.00516 0.999899 0.997492
0.999441 1.00217 1 0.997279
0.987053 1.00122 0.987268 0.998561
0.993262 1.00146 0.994103 0.997694
0.969687 1.00217 0.969773 0.997744
1.00222 1.00923 0.996006 0.997035
1.00067 1.00686 0.996493 0.997345
0.996257 1.00195 0.997017 0.99729
0.981189 1.00134 0.98185 0.997993
0.985728 1.00613 0.981658 0.998032
0.925447 0.975401 0.960495 0.987809
0.917711 0.971992 0.967918 0.975449
0.921062 0.962689 0.966324 0.990103
0.9901 1.0054 0.986559 0.998203
0.992577 1.0002 0.994195 0.998173
0.986441 1.00668 0.983607 0.996224
0.926916 0.960151 0.974391 0.990758
0.907219 0.970949 0.958048 0.975279
0.970107 1.00035 0.972071 0.997628
0.960756 0.991797 0.977716 0.990781
0.97872 1.02542 0.956726 0.99763
0.997841 1.01628 0.985034 0.996771
0.993428 1.03893 0.958459 0.997647
1.04208 1.05391 0.991254 0.997501
0.993119 1.0301 0.966241 0.997787
1.00835 1.05438 0.958458 0.997799
1.01677 1.05802 0.963306 0.99761
1.03187 1.05047 0.984417 0.99784
1.02634 1.04651 0.982934 0.997749
1.03629 1.05452 0.985182 0.997489
1.03031 1.04233 0.990687 0.997764
1.03612 1.0478 0.99122 0.997617
1.04014 1.04821 0.99499 0.997303
1.03405 1.03983 0.996816 0.997618
1.03861 1.04325 0.998195 0.997352
1.04302 1.04636 0.999781 0.997027
1.03755 1.04041 0.999914 0.99734
1.04122 1.04438 1 0.996971
1.04274 1.04618 1 0.996714
1.04243 1.04587 1 0.99671
1.04057 1.04407 1 0.996643
1.03361 1.037 1 0.996726
1.01079 1.0134 1 0.997429
1.02991 1.0333 1 0.996721
1.03848 1.04213 1 0.996499
0.99895 1 1 0.99895
1.00724 1.00972 1 0.997551
1.02114 1.0244 1 0.996813
1 1 1 1
0.999084 1 1 0.999084
1.00349 1.00576 1 0.997741
1 1 1 1
0.999632 1 1.00036 0.999276
1 1 1 1
1.02443 1.02788 1 0.996649
1.01339 1.01648 1 0.996955
1.01118 1.01394 1 0.997276
1.00535 1.00794 1.00001 0.997429
1.00249 1.00428 1.00056 0.997664
1.00131 1.00117 1.00189 0.998249
0.999797 1 1.00176 0.99804
1.0026 1 1.00404 0.998562
1.0011 1 1.00143 0.999666
1.00179 1 1.00294 0.998853
1.00007 1 1.00027 0.999799
1 1 1 1
0.99988 1 1 0.99988
1 1 1 1
1 1 1 1
0.981195 1.01057 0.973054 0.997823
0.926424 0.974282 0.963079 0.987332
0.917599 0.971015 0.966315 0.977932
1.0174 1.02039 1.00001 0.99705
1.03532 1.03876 1 0.996692
1.02334 1.02658 1.00013 0.996716
0.999105 1.00157 1 0.997543
1.00955 1.01203 1.00073 0.99682
1.00336 1.0069 0.99902 0.997464
1.01874 1.02335 0.998504 0.996988
0.99218 1.00218 0.992298 0.997708
0.966021 1.00163 0.966722 0.997646
1.0035 1.01096 0.995487 0.99712
1.02176 1.02933 0.995791 0.996841
1.00662 1.02455 0.984876 0.997587
1.00309 1.00866 0.99716 0.997308
0.99756 1.00262 0.997691 0.997251
0.990136 1.00798 0.984008 0.998259
0.928953 0.977553 0.963327 0.98646
0.990065 1.00585 0.985398 0.998889
1.02212 1.04159 0.983162 0.998116
0.984466 1.00539 0.982778 0.996345
0.930923 0.970816 0.96996 0.988606
0.981762 1.02683 0.958288 0.997724
0.999344 1.01635 0.986194 0.997029
0.991825 1.03953 0.95624 0.997775
1.04182 1.0553 0.989685 0.997516
1.03639 1.06445 0.97607 0.997506
1.06777 1.08223 0.988971 0.997638
1.01243 1.0565 0.96041 0.997786
1.02192 1.05895 0.967342 0.997611
1.03961 1.06362 0.979978 0.997393
1.02509 1.04564 0.982565 0.997745
1.0361 1.0537 0.985772 0.997488
1.04054 1.05367 0.990243 0.997269
1.03497 1.04671 0.991136 0.99763
1.04064 1.04868 0.99502 0.9973
1.04561 1.05037 0.99843 0.997029
1.03911 1.04369 0.998249 0.99735
1.04333 1.04665 0.999805 0.997026
1.04573 1.04916 1 0.996733
1.04157 1.0447 1 0.997012
1.04228 1.0457 1 0.996728
1.03611 1.03953 1 0.996705
1.04038 1.04391 1 0.996625
1.03351 1.0369 1 0.996722
1.01298 1.01566 1 0.997362
0.998952 1.00007 1 0.998886
1.01136 1.01397 1 0.997429
1.02922 1.03258 1 0.996738
1 1 1 1
0.998944 1.00001 1 0.998938
1.00876 1.01124 1 0.99755
1 1 1 1
0.999071 1 1 0.999071
1 1 1 1
1.03295 1.03651 1 0.996569
1.02424 1.0277 1 0.996638
1.01774 1.02083 1 0.996972
1.01442 1.01752 1 0.996954
1.00985 1.0126 1 0.997283
1.00253 1.00423 1.00035 0.997962
1.00111 1.003 1.00046 0.997659
1.00141 1.00072 1.00244 0.998251
1.00051 1 1.00105 0.999463
1.00412 1 1.00557 0.998564
1.00095 1 1.00127 0.999683
1 1 1 1
0.999834 1 1.00002 0.99981
1 1 1 1
1 1 1 1
1.00629 1.03707 0.972203 0.998062
0.978354 1.00952 0.971945 0.997102
0.926508 0.976084 0.960692 0.988048
1.03064 1.03388 1 0.996869
1.0187 1.02151 1 0.997241
1.05043 1.05386 1 0.996746
1.03596 1.03942 1 0.996676
1.02139 1.0245 1.00018 0.996783
1.04226 1.04743 0.998314 0.996742
1.00401 1.00866 0.997953 0.997436
1.01843 1.02251 0.999086 0.996925
1.04044 1.05812 0.986235 0.997015
1.0037 1.01244 0.994148 0.997205
1.02222 1.02992 0.995717 0.996787
1.00783 1.0262 0.984446 0.99762
1.00347 1.00895 0.997298 0.997268
0.994972 1.0098 0.986818 0.998474
1.05327 1.07378 0.983173 0.997686
1.02319 1.04118 0.98456 0.998137
0.982869 1.00409 0.982341 0.996462
0.990972 1.03944 0.955372 0.997902
1.04054 1.05564 0.988126 0.997532
1.03213 1.06362 0.972795 0.997528
1.06859 1.08415 0.987985 0.997633
1.0571 1.07667 0.984267 0.997523
1.02665 1.0595 0.971314 0.997612
1.04029 1.06301 0.981183 0.997402
1.04196 1.05891 0.986666 0.997292
1.03586 1.05285 0.986337 0.997487
1.04044 1.0534 0.990426 0.997249
1.04541 1.05342 0.995364 0.997013
1.04116 1.04918 0.995052 0.997296
1.04574 1.05046 0.998475 0.997026
1.04886 1.05231 0.999987 0.996738
1.04367 1.04696 0.999829 0.997026
1.04553 1.04896 1 0.996736
1.03956 1.04305 1 0.996658
1.04181 1.04522 1 0.996741
1.03623 1.03965 1 0.99671
1.014 1.01676 1 0.997289
1.03337 1.03678 1 0.996718
1.01321 1.0159 1 0.99736
0.999184 1.00011 1 0.999071
0.99965 1 1 0.99965
0.999019 1.00005 1 0.998967
1.01191 1.01452 1 0.997428
1 1 1 1
0.998927 1 1 0.998927
1 1 1 1
1.05653 1.05989 1 0.996831
1.04218 1.04567 1 0.996666
1.03392 1.03748 1 0.996571
1.02533 1.0286 1 0.996821
1.02439 1.02786 1 0.996626
1.01868 1.02177 1 0.996971
1.00658 1.00887 1 0.997723
1.00869 1.01143 1 0.99729
1.0016 1.00317 1.00047 0.997965
0.999331 1 1.00012 0.999209
1.00141 1.00034 1.00282 0.998253
1.00063 1 1.00115 0.999483
1 1 1 1
1.0004 1 1.0007 0.999699
1 1 1 1
1 1 1 1
1.04728 1.07229 0.979189 0.997434
1.01059 1.04257 0.971157 0.99812
0.975625 1.00962 0.969832 0.99639
1.04749 1.05125 0.999655 0.996766
1.02828 1.03146 1 0.996922
1.01973 1.02236 1 0.99743
1.04911 1.05251 1 0.996763
1.03662 1.04009 1 0.996661
1.05037 1.06633 0.988002 0.996995
1.03879 1.0443 0.998013 0.996702
1.01808 1.0214 0.999893 0.996862
1.03917 1.05667 0.986388 0.99701
1.0252 1.03263 0.996059 0.996732
1.01271 1.03187 0.98374 0.99766
1.05713 1.07461 0.986073 0.997622
1.05628 1.07583 0.984071 0.997719
1.02385 1.04101 0.985327 0.99816
1.02922 1.06395 0.969734 0.997548
1.07032 1.0869 0.987087 0.997627
1.05704 1.07761 0.983339 0.997531
1.04799 1.06086 0.990464 0.997385
1.04092 1.06231 0.982406 0.997412
1.04221 1.0586 0.987197 0.99728
1.04632 1.05583 0.993926 0.997047
1.04038 1.05316 0.990607 0.99723
1.04592 1.05393 0.995378 0.997012
1.05121 1.05511 0.999561 0.996738
1.04584 1.05052 0.998519 0.997023
1.04917 1.05262 0.999985 0.996738
1.04222 1.04577 1 0.996603
1.04534 1.04876 1 0.996739
1.03979 1.04327 1 0.996661
1.01533 1.01819 1 0.997194
1.03636 1.03977 1 0.996715
1.01439 1.01714 1 0.997289
0.99916 1.00008 1 0.999082
1.0134 1.01609 1 0.997358
0.999165 1.0001 1 0.999066
0.999672 1 1 0.999672
0.999832 1 1 0.999832
0.999105 1.00005 1 0.999054
1 1 1 1
1.05157 1.05523 0.999706 0.996821
1.04744 1.05088 1 0.99673
1.05552 1.05875 1 0.996953
1.03538 1.03876 1 0.996748
1.04421 1.04772 1 0.996654
1.03484 1.0384 1 0.996574
1.02629 1.02957 1 0.996815
1.01183 1.01434 1 0.99753
1.01954 1.02264 1 0.99697
1.00513 1.00743 1 0.997724
0.999008 1 1 0.999008
1.00053 1.00204 1.00052 0.997968
0.999608 1 1.00038 0.999228
1 1 1 1
1.00093 1 1.00143 0.999503
1 1 1 1
1 1 1 1
1.04851 1.06895 0.983508 0.997323
1.04509 1.06994 0.979296 0.99743
1.01326 1.04547 0.970971 0.998169
1.05081 1.06019 0.994224 0.99691
1.04498 1.04893 0.999462 0.996767
1.02619 1.0293 1 0.996976
1.04759 1.05098 1 0.99678
1.04891 1.06461 0.988248 0.996971
1.03521 1.04104 0.997734 0.996662
1.03385 1.05095 0.986679 0.997006
1.05149 1.06451 0.990297 0.997446
1.0557 1.07302 0.986249 0.997582
1.05906 1.07754 0.985068 0.997752
1.04665 1.05621 0.99365 0.997283
1.05657 1.07821 0.982347 0.997539
1.04791 1.06096 0.990306 0.997371
1.04797 1.05668 0.994593 0.997149
1.04251 1.05831 0.987773 0.997267
1.04646 1.056 0.993899 0.997049
1.05191 1.05642 0.99898 0.996752
1.04638 1.05438 0.995396 0.997011
1.05112 1.05505 0.999537 0.996739
1.04327 1.04687 1 0.996565
1.0494 1.05285 0.999983 0.996739
1.04235 1.0459 1 0.996606
1.01625 1.01921 1 0.997102
1.03999 1.04347 1 0.996665
1.01561 1.01847 1 0.997194
0.999094 1.00004 1 0.999056
1.01483 1.01759 1 0.997288
0.999155 1.00008 1 0.999071
0.999676 1 1 0.999676
0.999185 1.00012 1 0.999063
0.999679 1 1 0.999679
1 1 1 1
1.05102 1.05617 0.998399 0.996724
1.04954 1.05305 1 0.996673
1.05327 1.05697 0.99968 0.99682
1.0416 1.04497 1 0.996772
1.04868 1.05209 1 0.996761
1.05465 1.05775 1 0.997074
1.01545 1.01813 1 0.997372
1.03535 1.03874 1 0.996738
1.04646 1.04999 1 0.996643
1.02714 1.03043 1 0.996808
1.01026 1.01276 1 0.997531
0.99902 1.00012 1 0.998904
1.00367 1.00596 1 0.997726
0.999022 1 1 0.999022
1 1 1 1
0.999832 1 1.00059 0.999246
1 1 1 1
1 1 1 1
1.04694 1.06029 0.990189 0.997193
1.04842 1.06914 0.983268 0.997306
1.04502 1.06993 0.979232 0.997425
1.05008 1.05957 0.994099 0.996926
1.04218 1.04633 0.99926 0.996767
1.04839 1.06386 0.988472 0.996947
1.04817 1.05831 0.993113 0.997283
1.05183 1.06466 0.990489 0.99744
1.05433 1.07154 0.98636 0.997543
1.04706 1.05651 0.99374 0.997303
1.04787 1.05529 0.995858 0.997096
1.04781 1.06107 0.990113 0.997357
1.04827 1.0567 0.994899 0.997108
1.05157 1.05669 0.99831 0.996839
1.04662 1.05619 0.993868 0.997052
1.05169 1.05625 0.998928 0.996754
1.04344 1.04706 1 0.99654
1.05124 1.0552 0.99951 0.99674
1.04367 1.04727 1 0.996566
1.01652 1.01954 1 0.997039
1.04263 1.04618 1 0.996608
1.01634 1.0193 1 0.997102
0.999001 1 1 0.999001
1.01589 1.01875 1 0.997194
0.99905 1.00001 1 0.99904
0.999656 1 1 0.999656
0.999099 1.00004 1 0.999063
0.999693 1 1 0.999693
0.999682 1 1 0.999682
1.05039 1.05822 0.995612 0.996978
1.05154 1.05518 0.999968 0.996579
1.05145 1.05746 0.997564 0.996752
1.04382 1.04728 1 0.996693
1.04871 1.05222 1 0.996662
1.05494 1.05867 0.999654 0.99682
1.01716 1.01995 1 0.997264
1.04142 1.04483 1 0.996741
1.04973 1.05311 1 0.996792
0.999387 1.00051 1 0.998873
1.01511 1.01779 1 0.997375
1.03549 1.03889 1 0.996729
1.00894 1.01144 1 0.997532
0.99908 1.00016 1 0.998915
1 1 1 1
0.999037 1 1 0.999037
1 1 1 1
1 1 1 1
1.04542 1.05546 0.993285 0.997177
1.04706 1.06033 0.990274 0.997185
1.04788 1.0688 0.98309 0.997289
1.04939 1.05898 0.993984 0.996942
1.04824 1.05439 0.997103 0.997054
1.04844 1.05839 0.993287 0.997293
1.05222 1.06478 0.990747 0.997433
1.04751 1.05682 0.993851 0.997324
1.04789 1.05542 0.995748 0.997106
1.05166 1.05649 0.998598 0.996829
1.04864 1.05675 0.995242 0.997068
1.05168 1.05653 0.998617 0.996791
1.0435 1.04715 0.999934 0.996583
1.05138 1.05598 0.998879 0.996757
1.04385 1.04747 1 0.996542
1.0161 1.01917 1 0.996991
1.04377 1.04737 1 0.996568
1.01637 1.01939 1 0.997039
0.998767 1 1 0.998767
1.01637 1.01932 1 0.997103
0.998902 1 1 0.998902
1 1 1 1
0.999026 1 1 0.999026
0.999678 1 1 0.999678
0.999703 1 1 0.999703
1.0483 1.05526 0.996324 0.997069
1.05105 1.05539 0.999181 0.996706
1.0508 1.05803 0.996186 0.996968
1.04358 1.04719 1 0.996552
1.05046 1.05439 0.99968 0.996596
1.05193 1.05879 0.99673 0.99678
1.01725 1.02022 1 0.997089
1.04401 1.04747 1 0.996693
1.04793 1.05145 1 0.996651
0.99922 1.00035 1 0.998873
1.01685 1.01968 1 0.997223
1.04122 1.04466 1 0.996709
1 1 1 1
0.999234 1.00035 1 0.998884
1.0143 1.01697 1 0.997377
0.999033 1.00011 1 0.998927
1 1 1 1
1 1 1 1
1.047 1.05315 0.997081 0.997066
1.04575 1.05568 0.9934 0.997184
1.0471 1.06034 0.990311 0.997177
1.05177 1.05594 0.999282 0.996766
1.04759 1.05407 0.996774 0.997066
1.0487 1.05846 0.993455 0.997304
1.04784 1.05554 0.995579 0.997116
1.05129 1.05625 0.998469 0.99683
1.04262 1.04613 1 0.996645
1.05165 1.05628 0.998863 0.996743
1.04355 1.04718 0.999952 0.996583
1.01539 1.01855 1 0.996897
1.04441 1.04803 1 0.996545
1.01595 1.01901 1 0.996991
0.998727 1 1 0.998727
1.01634 1.01936 1 0.99704
0.998765 1 1 0.998765
1 1 1 1
0.998787 1 1 0.998787
0.999819 1 1 0.999819
0.999696 1 1 0.999696
1.04795 1.05377 0.997447 0.997022
1.05173 1.05553 0.99963 0.996773
1.04837 1.05527 0.996374 0.997077
1.04331 1.04692 1 0.996548
1.05188 1.05591 0.999492 0.99669
1.05121 1.05784 0.996763 0.996958
1.01658 1.01964 1 0.996998
1.04342 1.04701 1 0.996576
1.04935 1.05357 0.999384 0.996613
0.998901 1.00005 1 0.99885
1.01715 1.02013 1 0.997076
1.04419 1.04765 1 0.996693
1 1 1 1
0.9993 1.00042 1 0.998882
1.01673 1.0196 1 0.997182
1 1 1 1
0.999319 1.00042 1 0.998896
1 1 1 1
1.05161 1.05585 0.99917 0.996813
1.04648 1.0526 0.997126 0.997051
1.04604 1.05582 0.993524 0.99719
1.04201 1.04553 1 0.996641
1.05131 1.05575 0.998995 0.996788
1.04695 1.05375 0.996456 0.997079
1.05098 1.05601 0.998404 0.996831
1.04259 1.04618 0.999928 0.996645
1.0145 1.01767 1 0.996883
1.04366 1.04724 1 0.996583
1.0153 1.01844 1 0.996923
0.998679 1 1 0.998679
1.01571 1.01878 1 0.996992
0.998725 1 1 0.998725
1 1 1 1
0.998763 1 1 0.998763
1 1 1 1
0.999671 1 1 0.999671
1.05291 1.05689 0.999443 0.996791
1.04724 1.05357 0.996941 0.997045
1.04281 1.04638 1 0.996584
1.05219 1.05589 0.999722 0.996772
1.04849 1.05534 0.996408 0.997084
1.01558 1.01861 1 0.997026
1.04281 1.04643 1 0.996544
1.05269 1.0564 0.999811 0.996674
0.998798 1 1 0.998798
1.01685 1.01989 1 0.997022
1.04323 1.04679 1 0.996599
1 1 1 1
0.998999 1.00014 1 0.998856
1.0171 1.0201 1 0.997063
1 1 1 1
0.999286 1.0004 1 0.998891
1 1 1 1
1.04189 1.04538 1 0.996669
1.0516 1.05571 0.999304 0.9968
1.04598 1.05207 0.997171 0.997035
1.01354 1.0167 1 0.996896
1.04197 1.04551 0.999975 0.996641
1.05084 1.05556 0.998715 0.99681
1.04254 1.04622 0.999837 0.996645
1.01455 1.01773 1 0.996882
0.99865 1 1 0.99865
1.01523 1.01834 1 0.996949
0.998676 1 1 0.998676
1 1 1 1
0.998722 1 1 0.998722
1 1 1 1
1 1 1 1
1.04262 1.04617 1 0.996601
1.05258 1.05665 0.999319 0.996833
1.04651 1.05333 0.996447 0.997067
1.01474 1.01777 1 0.997022
1.04244 1.04601 1 0.99658
1.05265 1.05625 0.999818 0.99677
0.998749 1 1 0.998749
1.01598 1.01901 1 0.997024
1.04235 1.04597 1 0.996541
1 1 1 1
0.998801 1 1 0.998801
1.01711 1.02012 1 0.997046
1 1 1 1
0.999037 1.00018 1 0.998862
1 1 1 1
1.01348 1.01657 1 0.99697
1.0418 1.04531 0.999995 0.996641
1.05161 1.05558 0.999453 0.996787
0.998665 1 1 0.998665
1.01366 1.01682 1 0.996893
1.04192 1.0455 0.999931 0.996642
1.01461 1.01778 1 0.996882
0.99865 1 1 0.99865
1 1 1 1
0.998673 1 1 0.998673
1 1 1 1
1 1 1 1
1.01403 1.01708 1 0.997004
1.04233 1.04587 1 0.99662
1.05226 1.05641 0.999193 0.996874
0.998931 1 1 0.998931
1.015 1.01804 1 0.997021
1.04205 1.04563 1 0.996577
1 1 1 1
0.99875 1 1 0.99875
1.01635 1.01939 1 0.997021
1 1 1 1
0.998826 1.00002 1 0.998805
1 1 1 1
0.998656 1 1 0.998656
1.01362 1.01673 1 0.996945
1.0417 1.04527 0.999975 0.996613
1 1 1 1
0.998664 1 1 0.998664
1.01378 1.01694 1 0.99689
0.998649 1 1 0.998649
1 1 1 1
1 1 1 1
0.998891 1 1 0.998891
1.01425 1.0173 1 0.997004
1.04202 1.04554 1 0.996639
1 1 1 1
0.998722 1 1 0.998722
1.01528 1.01831 1 0.997019
1 1 1 1
0.998751 1 1 0.998751
1 1 1 1
0.999616 1 1 0.999616
0.998783 1 1 0.998783
1.01374 1.01687 1 0.996921
1 1 1 1
0.998665 1 1 0.998665
1 1 1 1
0.999631 1 1 0.999631
0.998801 1 1 0.998801
1.01451 1.01756 1 0.997005
0.999814 1 1 0.999814
0.998723 1 1 0.998723
1 1 1 1
1 1 1 1
0.998687 1 1 0.998687
1 1 1 1
0.999813 1 1 0.999813
0.998707 1 1 0.998707
1 1 1 1
1 1 1 1
1 1 1 1

VECTORS lamdaE float
1.00136 1.00012 0.993648
1.00092 1.00076 0.996904
1.00091 1.00032 0.993951
1.00146 1.00004 0.993586
1.00144 0.999964 0.993704
1.00132 1.00036 0.993451
1.00275 1.00043 0.990623
1.00093 1.0007 0.996903
1.00089 1.00015 0.997362
1.00037 1.00094 0.997392
1.00078 1.00088 0.993663
1.0024 1.00131 0.989413
1.00101 0.999974 0.994126
1.00079 1.00003 0.994227
1.00051 1.00052 0.994225
1.00112 1.00002 0.993922
1.00081 1.00072 0.993727
1.00106 1.00002 0.994019
1.00297 1.00024 0.990487
1.00104 1.00002 0.99702
1.00139 1.00008 0.993628
1.00147 0.999962 0.993673
1.00281 1.00014 0.990799
1.00286 1.00015 0.990724
1.00129 1.00052 0.993292
1.00256 1.00094 0.990405
1.00519 1.00072 0.986063
1.00093 1.00065 0.996916
1.0011 1.00004 0.995558
1.00069 1.00066 0.995561
1.00085 1.00071 0.996966
1.0023 1.00146 0.989426
1.0014 0.999818 0.993678
1.00114 1.00022 0.993773
1.00316 1.00005 0.991014
0.999943 1.00099 0.997651
1.00284 1.00076 0.990947
1.00207 1.00187 0.989387
1.0045 1.00147 0.985718
1.00016 0.999481 0.997991
1.00105 0.999988 0.997017
1.00102 1.00002 0.995579
1.00097 0.999974 0.997068
1.00062 1.00005 0.994451
1.00271 0.999931 0.990332
1.00098 0.999966 0.997288
1.00312 1.00007 0.991082
1.0008 0.99996 0.994259
1.00071 1.00005 0.99432
1.00033 1.00111 0.993984
1.00317 1.00007 0.990365
1.00086 1.00004 0.995727
1.00104 1.0001 0.993964
1.00074 1.00099 0.993545
1.00113 0.999937 0.993998
1.00296 1.00011 0.990638
1.00283 1.00068 0.990272
1.00303 1.00006 0.990581
1.00517 1.00072 0.986078
1.00095 1 0.997064
1.00124 1.00007 0.993833
1.00246 1 0.992004
1.00271 1.00015 0.990942
1.00285 1.0001 0.990787
1.00505 1.00025 0.986656
1.00517 1.00029 0.986386
1.00104 1.00048 0.993585
1.00205 1.00189 0.99024
1.00514 1.001 0.985885
1.0053 1.00029 0.985528
1.00137 1.00007 0.996898
1.00077 1.00064 0.997111
1.00102 1.00054 0.996908
1.00221 1.00156 0.989433
1.00145 0.999944 0.996842
1.00125 1.00026 0.99692
1.00302 0.999996 0.989599
1.00021 1.00076 0.995937
1.00259 1.00079 0.989537
1.00194 1.00211 0.990255
1.00458 1.00132 0.985705
1.00043 1.00012 0.997555
1.00028 1.00194 0.992462
1.00319 0.99996 0.989434
1.00301 1.00015 0.989551
1.00519 1.0003 0.98577
1.00142 1.00255 0.991551
1.0049 1.00081 0.985713
1.00367 1.00273 0.985876
1.00526 1.00137 0.984441
0.999982 0.998628 0.998435
1.00001 0.999258 0.998178
1.00133 0.999996 0.996846
1.0011 0.999987 0.996993
1.001 0.999979 0.997065
1.00089 0.999998 0.995729
1.00275 0.999922 0.991007
1.00117 0.999981 0.995489
1.00305 1.00009 0.990383
1.00097 0.999986 0.997081
1.00255 0.999847 0.990619
1.00296 1.00003 0.991385
1.00494 0.999359 0.987256
1.00318 1 0.990992
1.00516 0.999743 0.986507
1.00099 0.999998 0.994151
1.00067 1.00011 0.994305
1.0002 1.0015 0.993798
1.0008 0.999888 0.99432
1.0031 1.00012 0.990476
1.0032 0.999975 0.990446
1.00309 1.00038 0.99015
1.00514 1.00071 0.986094
1.00099 0.999987 0.997072
1.0009 1.00007 0.994167
1.00264 0.99996 0.990856
1.00286 1.00013 0.990771
1.0008 1.0009 0.995247
1.00242 1.00169 0.990316
1.003 1.00005 0.990636
1.00508 1.00012 0.986784
1.00509 1.00102 0.985908
1.00517 1.00044 0.986292
1.00529 1.00029 0.985564
1.00254 0.999895 0.990611
1.00256 1.00005 0.991231
1.00485 0.999234 0.988018
1.005 0.999788 0.987168
1.0051 1.0001 0.986682
1.0053 0.998808 0.987272
1.00041 1.00069 0.99735
1.0053 0.999679 0.986141
1.00151 1.00281 0.989234
1.00474 1.00138 0.985385
1.0053 1.00098 0.984903
1.00524 0.998519 0.987258
1.00074 1.00292 0.990593
1.00169 1.0047 0.987178
1.00146 0.999966 0.996861
1.00121 1.00029 0.996911
1.00304 0.999975 0.989591
1.00039 1.00045 0.997451
1.0016 1.00242 0.989552
1.00258 1.00079 0.989553
1.00468 1.00119 0.985692
1.00025 1.00004 0.997714
1.00014 1.00211 0.992495
1.00321 0.999993 0.990206
1.00303 1.00021 0.990276
1.00519 1.00031 0.985747
1.00104 1.00275 0.990236
1.00493 1.00077 0.985697
1.00389 1.00238 0.985871
1.00528 1.00128 0.984562
1.0006 1.00253 0.991202
1.00006 1.00123 0.993653
1.00153 1.00479 0.987906
1.00522 1.00014 0.985919
1.00512 1.00046 0.985708
1.00531 0.999475 0.986414
1.0031 1.00323 0.986342
1.0053 1.00051 0.98539
1.00502 1.00191 0.984287
1.0053 1.00051 0.985161
0.999928 0.998165 0.998707
0.999906 0.998587 0.998549
0.999895 0.999108 0.998343
1.00048 1.0027 0.991266
1.0002 1.00038 0.997611
1.00144 0.999966 0.996825
1.00119 0.999994 0.996915
1.00291 1.00011 0.989743
1.00264 0.999921 0.99039
1.00099 0.999978 0.997056
1.00095 0.99998 0.997078
1.00254 0.999859 0.990612
1.00288 1.00001 0.990697
1.00492 0.999359 0.987254
1.00305 1.00005 0.989536
1.00512 0.999755 0.986504
1.0025 0.999857 0.990674
1.00485 0.999256 0.98748
1.00505 0.999519 0.9869
1.00536 0.997071 0.989009
1.00521 0.999952 0.986168
1.00535 0.997805 0.98822
1.00096 0.999987 0.997071
1.00053 1.00012 0.9945
1.00266 0.999958 0.989847
1.00301 1.00013 0.990598
1.00012 1.00142 0.997324
1.00289 1.00129 0.990395
1.00315 1.00002 0.990487
1.0051 0.99997 0.986913
1.00516 1.00057 0.986198
1.00504 1.00105 0.98593
1.00529 1.00029 0.9856
1.00252 0.999888 0.990616
1.00271 1.00007 0.991059
1.00488 0.999219 0.987723
1.00503 0.999929 0.987031
1.00055 1.00073 0.997238
1.00176 1.00254 0.990074
1.00457 1.00174 0.985623
1.00511 1.00014 0.98664
1.0053 0.998458 0.987619
1.0053 1.00089 0.98498
1.00531 0.999791 0.986121
1.00523 0.99854 0.987279
1.0008 1.00282 0.990579
1.00179 1.00465 0.98718
1.00483 0.999329 0.987453
1.00493 0.999531 0.987609
1.00536 0.997623 0.988469
1.00531 0.997712 0.988322
1.00532 0.998952 0.986961
1.00525 0.996299 0.989738
1.00106 1.00303 0.989863
1.00524 0.997501 0.988336
1.00393 1.0024 0.985617
1.00531 1.00147 0.984241
1.00523 0.999898 0.986029
1.0052 0.996788 0.989159
1.00267 1.0038 0.986467
1.00104 1.00508 0.987973
1.0034 1.00293 0.98631
1.00309 0.999976 0.989529
1.00006 0.999874 0.997895
1.00001 1.00211 0.992526
1.00287 1.00024 0.989612
1.0052 1.00031 0.985722
1.00098 1.00296 0.990176
1.00404 1.00199 0.985867
1.00497 1.00073 0.98568
1.00529 1.00117 0.984684
1.00056 1.00266 0.991207
1.00001 1.00104 0.993698
1.0012 1.005 0.98787
1.00521 1.00016 0.985896
1.00513 1.00046 0.98569
1.00531 0.99948 0.986389
1.0032 1.00302 0.986356
1.0053 1.00059 0.985304
1.00514 1.00187 0.984255
1.0053 1.00029 0.985329
1.00005 1.00029 0.994481
1.00242 1.00404 0.986948
1.00085 1.0044 0.989243
1.00251 1.00385 0.987071
1.00532 0.998863 0.987064
1.00531 1.00007 0.985783
1.00526 0.997708 0.988086
1.00469 1.0019 0.984912
1.00525 0.999191 0.986723
1.00528 1.0013 0.984697
1.00529 0.999517 0.986156
1.00022 1.00168 0.992817
1.00027 0.999085 0.995297
0.999957 0.997717 0.99886
0.999904 0.998048 0.998767
0.999864 0.998441 0.998641
1.00012 1.0024 0.992148
1.00009 0.999987 0.997852
1.00055 1.00264 0.991235
1.0003 1.00047 0.997519
1.00303 1.0001 0.989541
1.00279 1 0.990071
1.00509 0.999767 0.986503
1.00491 0.999365 0.987253
1.00255 0.999874 0.990612
1.001 0.99997 0.997076
1.00252 0.999853 0.990677
1.00484 0.999266 0.98748
1.00503 0.999532 0.986899
1.00534 0.997079 0.989018
1.00518 0.999982 0.986151
1.00535 0.997797 0.988208
1.00482 0.99926 0.987523
1.00533 0.996879 0.989247
1.00537 0.997395 0.988645
1.00523 0.99495 0.991236
1.00534 0.998288 0.987688
1.00525 0.995595 0.990473
1.00253 0.999887 0.990625
1.00287 1.00005 0.990887
1.00491 0.999183 0.98743
1.00506 1.00006 0.986893
1.00068 1.00079 0.997114
1.0021 1.00235 0.990717
1.00454 1.00203 0.985858
1.00512 1.00017 0.986598
1.0053 0.998106 0.987964
1.00531 0.999903 0.986102
1.00531 1.00079 0.985058
1.00523 0.99856 0.987299
1.00085 1.00275 0.990565
1.00185 1.00457 0.987181
1.00484 0.999155 0.987592
1.00495 0.99951 0.987587
1.00535 0.997398 0.988709
1.00531 0.998088 0.987952
1.00113 1.00294 0.989863
1.00387 1.0026 0.985635
1.00529 1.00158 0.984159
1.00532 0.999157 0.986799
1.00525 0.996 0.989997
1.00524 0.999693 0.986229
1.00523 0.997519 0.988343
1.0052 0.996743 0.989098
1.00264 1.00389 0.986442
1.00319 1.00296 0.986268
1.0011 1.00501 0.988001
1.00533 0.997367 0.988778
1.00536 0.997587 0.988519
1.00521 0.995387 0.990853
1.00524 0.995422 0.990576
1.00524 0.996437 0.989333
1.00525 0.995147 0.990741
1.00332 1.00315 0.985999
1.0052 0.995671 0.990039
1.00522 1.00225 0.983777
1.00525 1.00088 0.984791
1.0052 0.998365 0.987506
1.00518 0.99607 0.989835
1.00062 1.00489 0.988796
1.0044 1.00224 0.985361
1.00229 1.00427 0.986545
1.00478 1.00191 0.985401
1.0052 1.00018 0.985872
0.999988 1.00102 0.993742
1.0004 1.00284 0.991219
1.00085 1.00511 0.987834
1.00513 1.00046 0.98567
1.00531 0.999487 0.986364
1.00332 1.00281 0.986373
1.00523 1.00189 0.984221
1.00531 1.00068 0.985218
1.00529 1.00006 0.985496
1.00005 1.00021 0.994518
1.00231 1.00398 0.986955
1.00065 1.0045 0.989248
1.00239 1.00384 0.987046
1.00532 0.998864 0.987042
1.00531 1.00008 0.985756
1.00525 0.997698 0.988082
1.00479 1.00184 0.984929
1.00525 0.999335 0.986538
1.00525 1.00118 0.984674
1.00529 0.999413 0.98631
1.00017 0.999564 0.995007
1.00053 1.00351 0.990598
1.00375 1.00232 0.98615
1.0016 1.00495 0.987904
1.00374 1.00166 0.987275
1.00528 0.996914 0.988911
1.00524 0.998471 0.987279
1.00523 0.996546 0.989084
1.00478 1.00158 0.984884
1.00524 0.99828 0.987453
1.00501 1.0005 0.985648
1.00032 1.00193 0.99243
1.00033 1.00322 0.991138
1.00011 1.00157 0.993135
1.0002 1.0017 0.992813
1.00024 0.998834 0.996168
1.00025 0.999039 0.995672
1.00014 0.997362 0.997551
0.999958 0.997661 0.99889
0.999893 0.997964 0.998815
0.999872 1.00156 0.993369
0.999924 0.999481 0.998216
1.0002 1.00232 0.992136
1.00017 1.00006 0.997759
1.00062 1.00255 0.991208
1.00042 1.00052 0.997425
1.00515 1.00001 0.986135
1.00501 0.99954 0.986898
1.00535 0.997816 0.988196
1.00533 0.997088 0.989026
1.00483 0.999276 0.98748
1.00251 0.999843 0.990676
1.00481 0.999261 0.987527
1.00533 0.996885 0.989251
1.00536 0.997408 0.988645
1.00524 0.994951 0.991217
1.00534 0.998291 0.987671
1.00526 0.995558 0.990478
1.00532 0.996875 0.989271
1.00526 0.994958 0.991226
1.00523 0.995129 0.991012
1.00518 0.994957 0.991255
1.00528 0.996208 0.989725
1.00524 0.994912 0.990888
1.00484 0.998984 0.987733
1.00498 0.999504 0.987564
1.00535 0.997202 0.98895
1.00531 0.998466 0.987583
1.00122 1.00288 0.989866
1.00368 1.00292 0.985656
1.00528 1.00172 0.984076
1.00532 0.999363 0.986638
1.00524 0.995697 0.990256
1.00522 0.997537 0.98835
1.00525 0.999495 0.986427
1.0052 0.99669 0.989037
1.00264 1.00407 0.986415
1.00315 1.00293 0.986226
1.00118 1.00491 0.988029
1.00533 0.997201 0.988959
1.00535 0.997562 0.988523
1.00522 0.995178 0.991038
1.00523 0.995666 0.990362
1.00325 1.00332 0.985992
1.00519 1.00225 0.983817
1.00525 1.00104 0.984648
1.00523 0.99676 0.989042
1.00526 0.995039 0.99077
1.00521 0.998287 0.987465
1.00521 0.995698 0.990017
1.00518 0.99596 0.989893
1.00424 1.00249 0.985322
1.00472 1.0019 0.985181
1.00079 1.00476 0.988815
1.00211 1.0043 0.986619
1.00523 0.994948 0.991314
1.00525 0.995562 0.990483
1.00513 0.994949 0.991333
1.00522 0.994913 0.990929
1.00521 0.995115 0.990574
1.00525 0.994932 0.990757
1.00511 1.00221 0.984198
1.00523 0.995028 0.990491
1.00519 1.00213 0.983708
1.00522 1.00021 0.985393
1.00521 0.997583 0.988027
1.00519 0.996099 0.98977
1.00042 1.00424 0.989854
1.00117 1.0051 0.987421
1.00507 1.0024 0.984102
1.00386 1.0036 0.985643
1.00501 1.00317 0.983621
1.00004 1.0001 0.994554
1.00532 0.998864 0.987021
1.00045 1.00465 0.989254
1.00222 1.00397 0.98696
1.00231 1.00378 0.987021
1.00531 1.00009 0.985729
1.00525 0.997687 0.988078
1.00512 1.00155 0.984947
1.00524 1.00107 0.984652
1.00525 0.999475 0.986353
1.00529 0.999321 0.986465
1.00017 0.999497 0.99504
1.00038 1.00362 0.990623
1.00399 1.00206 0.986182
1.00117 1.00505 0.987875
1.00347 1.0016 0.987345
1.00527 0.996891 0.988911
1.00524 0.998453 0.987274
1.00523 0.996501 0.989076
1.00496 1.00161 0.984827
1.00525 0.998364 0.987296
1.00508 1.0005 0.985746
1.00039 1.00255 0.991718
1.00083 1.00485 0.98918
1.00463 1.0011 0.985842
1.00205 1.00411 0.987777
1.00432 1.00022 0.988001
1.00526 0.995853 0.98983
1.00522 0.997322 0.98821
1.00524 0.995893 0.989372
1.00486 1.0011 0.985202
1.00507 0.999137 0.986531
1.00032 1.00191 0.992433
1.00036 1.0032 0.990921
1.00014 1.0034 0.991101
1.00051 1.00349 0.99081
1.00019 1.00324 0.991386
1.00003 1.00142 0.993382
1.0001 1.00155 0.993144
1.00021 0.998719 0.996317
1.00019 1.00173 0.992809
1.00025 0.998821 0.99619
1.0002 0.997108 0.997659
1.00024 0.999016 0.99604
1.00007 0.997372 0.998252
0.999963 0.997565 0.998915
0.999807 1.00048 0.994557
0.999914 1.00158 0.993356
0.999768 0.998745 0.99863
1.00004 0.999547 0.998065
1.0003 1.00226 0.992121
1.00025 1.00019 0.997668
1.00534 0.998291 0.987655
1.00535 0.997398 0.988645
1.00527 0.995516 0.990482
1.00524 0.994953 0.991198
1.00532 0.996891 0.989255
1.00481 0.999263 0.987531
1.00532 0.996879 0.989268
1.00525 0.994957 0.99123
1.00524 0.995109 0.991023
1.00518 0.994956 0.991216
1.00528 0.996165 0.989724
1.00524 0.994928 0.990889
1.00525 0.994955 0.991254
1.00519 0.994948 0.99129
1.00521 0.994938 0.991087
1.00526 0.994943 0.991076
1.00527 0.995267 0.990448
1.00527 0.994886 0.99086
1.00533 0.997029 0.989138
1.00535 0.997547 0.988527
1.00523 0.994953 0.991222
1.00521 0.99591 0.990147
1.00319 1.00345 0.985985
1.00517 1.00223 0.983855
1.00523 1.00112 0.984503
1.00523 0.997085 0.98875
1.00526 0.994935 0.990799
1.00522 0.995726 0.989994
1.00521 0.998202 0.987425
1.00518 0.995823 0.989957
1.00391 1.00291 0.985285
1.00456 1.00193 0.984962
1.00096 1.00464 0.988834
1.00202 1.00429 0.986695
1.00523 0.994947 0.991303
1.00524 0.995553 0.990537
1.00513 0.994948 0.991318
1.00523 0.994917 0.990923
1.00488 1.00247 0.984199
1.00519 1.00218 0.983632
1.0052 1.00019 0.985372
1.00522 0.99523 0.99048
1.00525 0.994926 0.990737
1.00517 0.997628 0.988024
1.00522 0.995033 0.990472
1.0052 0.995887 0.98988
1.00495 1.00246 0.984146
1.005 1.00336 0.983388
1.00353 1.00344 0.985663
1.00042 1.00406 0.989896
1.00105 1.0051 0.987573
1.00518 0.994949 0.99125
1.00519 0.994943 0.991102
1.00526 0.99492 0.990686
1.00525 0.994912 0.990682
1.00514 1.00295 0.983303
1.00523 0.995064 0.990425
1.00503 1.00171 0.983942
1.00515 0.99966 0.985862
1.00513 0.997272 0.988226
0.999895 1.00323 0.991422
1.00071 1.0051 0.988703
1.00171 1.00503 0.987158
1.00497 1.00378 0.9829
1.00439 1.00333 0.984521
1.00508 1.00316 0.982822
1.00016 0.999446 0.995072
1.00026 1.00376 0.990648
1.00527 0.99687 0.988912
1.00075 1.00514 0.987843
1.004 1.00202 0.986215
1.0033 1.00169 0.987418
1.00524 0.998437 0.987268
1.00523 0.996457 0.989068
1.00514 1.00161 0.984768
1.00511 1.00053 0.985846
1.00525 0.998433 0.987139
1.00033 1.0026 0.991729
1.00048 1.00495 0.989192
1.00481 1.00097 0.985863
1.00179 1.00431 0.987735
1.00407 0.999727 0.987972
1.00526 0.995806 0.98984
1.00523 0.997337 0.988188
1.00525 0.995936 0.989356
1.00485 1.00112 0.985232
1.00508 0.999236 0.986519
1.00049 1.004 0.990366
1.00011 1.00511 0.988961
1.00497 1.00099 0.985521
1.00217 1.00192 0.988273
1.00524 0.999444 0.987416
1.00524 0.995132 0.990252
1.00526 0.997346 0.987957
1.00529 0.996192 0.988854
1.00485 1.00013 0.986069
1.00513 0.99923 0.986431
1.00032 1.00188 0.992436
1.00037 1.00331 0.99092
1.00003 1.00363 0.990955
0.999999 1.00351 0.991066
1.00009 1.00336 0.991376
1.00013 1.00376 0.990865
0.999979 1.00325 0.991752
0.999997 1.00401 0.990637
1.00006 1.00315 0.991691
1.00002 1.00148 0.993372
1.00003 1.00141 0.993385
1.00013 0.998697 0.996447
1.00008 1.0015 0.993152
1.00022 0.998708 0.996338
1.00021 0.996987 0.997745
1.00026 0.998798 0.996216
1.00017 0.99712 0.99766
0.999982 0.997371 0.998973
0.999841 0.999542 0.995448
0.999832 1.00055 0.994511
0.999719 0.998198 0.998883
0.999998 1.00153 0.993344
0.999863 0.99894 0.998481
1.00013 0.999678 0.997928
1.00529 0.996125 0.989723
1.00525 0.995094 0.991034
1.00523 0.994939 0.990891
1.00518 0.994955 0.991177
1.00525 0.994956 0.991234
1.00533 0.996884 0.989266
1.00525 0.994956 0.991273
1.00519 0.994948 0.991301
1.0052 0.994929 0.991119
1.00526 0.994935 0.991049
1.00527 0.995262 0.990472
1.00526 0.994883 0.990808
1.00519 0.994946 0.991294
1.00526 0.994932 0.99113
1.00527 0.994931 0.99092
1.00527 0.99487 0.990644
1.00524 0.994945 0.991294
1.00523 0.995539 0.99059
1.00513 0.994948 0.991304
1.00524 0.994921 0.990918
1.00472 1.00258 0.9842
1.00521 1.00225 0.98356
1.00518 1.00026 0.985353
1.00523 0.995341 0.990387
1.00525 0.99492 0.990717
1.00521 0.995043 0.990454
1.00515 0.997633 0.988018
1.00523 0.995682 0.989987
1.00474 1.00254 0.98419
1.00505 1.00326 0.983156
1.00302 1.00357 0.985683
1.00043 1.00386 0.989947
1.00101 1.0051 0.987727
1.00517 0.994948 0.991251
1.00521 0.994942 0.991106
1.00526 0.994923 0.990711
1.00506 1.00295 0.983358
1.00509 1.00188 0.983868
1.00513 0.999742 0.985854
1.00524 0.994916 0.990682
1.00518 0.997096 0.988489
1.00522 0.9951 0.990368
0.999933 1.00299 0.991657
1.00491 1.00356 0.982985
1.00488 1.00409 0.982565
1.00429 1.00333 0.984582
1.00177 1.00501 0.987262
1.00056 1.0051 0.988683
1.00525 0.994944 0.991107
1.00528 0.99491 0.990828
1.00526 0.99491 0.990605
1.00523 0.994879 0.990595
1.00509 1.00294 0.983232
1.00521 0.995444 0.989921
1.00503 1.00142 0.984421
1.00506 0.999866 0.985947
1.00001 1.00123 0.993244
1.00005 1.00471 0.990174
1.00122 1.00505 0.988467
1.0025 1.00503 0.985591
1.00478 1.00403 0.983133
1.00505 1.00333 0.983191
1.00026 1.00266 0.99174
1.0001 1.00501 0.989206
1.00525 0.995759 0.989851
1.00146 1.0044 0.987691
1.00502 1.00082 0.985884
1.00367 0.999524 0.987931
1.00524 0.997353 0.988167
1.00525 0.995975 0.989338
1.00487 1.00118 0.985258
1.00512 0.999349 0.986506
1.00032 1.00407 0.99037
1.00052 1.00512 0.98874
1.00502 1.00086 0.985506
1.00252 1.00195 0.988168
1.00498 0.999591 0.987095
1.00525 0.99515 0.990307
1.00527 0.997257 0.988152
1.00528 0.996284 0.988909
1.00483 1.00014 0.98614
1.0051 0.999446 0.986193
0.999638 1.0042 0.990448
1.00048 1.00471 0.988746
1.00496 1.00013 0.986262
1.00396 0.999789 0.987393
1.00532 0.99486 0.990324
1.00525 0.99582 0.989807
1.00521 0.998398 0.986794
1.00515 0.999451 0.986127
1.00045 1.00329 0.990918
1.00017 1.00359 0.990943
0.999485 1.00379 0.992297
0.999983 1.00351 0.991366
0.999711 1.00405 0.990922
1.00003 1.00316 0.991681
0.999694 1.00326 0.992057
1.00005 1.00413 0.990585
0.999637 1.00162 0.993848
0.999781 1.00426 0.991047
0.999905 1.00418 0.990597
1.00015 1.00302 0.991667
0.999976 1.00173 0.993115
0.999978 1.00148 0.993364
1.00002 0.998759 0.996546
1.00001 1.00139 0.993389
1.00014 0.998712 0.996462
1.00014 0.997008 0.99782
1.00022 0.998707 0.996362
1.00019 0.996996 0.997745
1.00014 0.997142 0.997654
0.999975 0.998795 0.996019
0.999844 0.999665 0.995381
0.999722 0.997732 0.999041
0.999824 1.00066 0.994461
0.99976 0.998276 0.998819
0.999988 0.999004 0.998315
1.00527 0.99526 0.990495
1.00519 0.994921 0.99115
1.00525 0.994881 0.990756
1.00526 0.994926 0.991021
1.0052 0.994948 0.991311
1.00525 0.994958 0.991291
1.00519 0.994948 0.991302
1.00526 0.994934 0.99113
1.00527 0.994919 0.990916
1.00526 0.994871 0.990671
1.00526 0.994942 0.991158
1.00528 0.994922 0.991016
1.0053 0.994866 0.990741
1.00516 0.994946 0.991251
1.00522 0.994942 0.99111
1.00525 0.994928 0.990735
1.005 1.00294 0.983413
1.0051 1.00197 0.983791
1.00508 0.999712 0.985845
1.00524 0.994922 0.990681
1.00521 0.995149 0.990312
1.00521 0.996888 0.988746
1.00486 1.00354 0.983069
1.00492 1.0041 0.98232
1.00427 1.00324 0.984641
0.999982 1.0028 0.991897
1.00182 1.00494 0.987364
1.00034 1.00511 0.988656
1.00525 0.994943 0.991115
1.00528 0.994908 0.990798
1.00527 0.994911 0.990599
1.00498 1.00304 0.983269
1.0049 1.00135 0.984346
1.00506 0.999506 0.986299
1.00523 0.994882 0.990552
1.00516 0.995565 0.989867
1.00001 1.00119 0.993474
0.999996 1.00474 0.990146
1.00479 1.00322 0.983033
1.00463 1.00361 0.98348
1.00285 1.00485 0.985762
1.001 1.00506 0.988285
1.00529 0.994911 0.991004
1.00532 0.994871 0.990527
1.00528 0.994886 0.99055
1.0052 0.99495 0.990323
1.00442 1.00255 0.983905
1.00516 0.997618 0.988015
1.00489 1.00173 0.984449
1.00018 1.00034 0.994228
1.00034 1.00141 0.993003
0.999737 1.00295 0.992159
1.0004 1.00504 0.989237
1.00115 1.00509 0.987415
1.0033 1.00426 0.984279
1.00396 1.00392 0.984177
1.00395 1.00453 0.98454
1.00012 1.00424 0.990375
1.00079 1.00513 0.988519
1.00527 0.995173 0.990363
1.0029 1.00163 0.988071
1.00504 1.00071 0.985496
1.00485 0.999833 0.986787
1.00527 0.997142 0.988351
1.00527 0.996366 0.988968
1.00488 1.00011 0.98621
1.00507 0.999604 0.985957
0.999973 1.00408 0.99029
1.00067 1.00472 0.988583
1.0051 1.00007 0.98621
1.00442 1.00016 0.987384
1.00533 0.994847 0.990341
1.00527 0.995736 0.989725
1.00517 0.998352 0.986909
1.00515 0.99954 0.986087
0.999824 1.00417 0.990327
1.00536 0.994901 0.990324
1.00248 1.00389 0.98798
1.00485 0.999482 0.986859
1.00528 0.995076 0.990545
1.00517 0.997475 0.98683
1.00501 1.00073 0.985493
1.00027 1.00362 0.990931
0.999452 1.00359 0.992207
0.998709 1.00278 0.994807
1.00002 1.00312 0.991673
1.00008 1.00428 0.990533
0.998929 1.00379 0.992358
1.00012 1.00299 0.99166
0.99986 1.00431 0.990602
0.998899 1.00216 0.994187
0.99991 1.00419 0.990952
0.999193 1.0002 0.996729
0.999086 1.00293 0.993345
0.999673 1.0049 0.990271
1.00035 1.00406 0.990203
1.00018 1.00331 0.991257
0.999907 1.00214 0.992823
0.999911 1.00187 0.993095
0.999899 0.998997 0.996567
0.999941 1.00156 0.993355
1.00003 0.998811 0.996543
1.00004 0.997094 0.9979
1.00015 0.998717 0.996479
1.00016 0.997 0.997816
1.00019 0.997005 0.997739
1.00018 1.00042 0.994206
1.00006 0.998401 0.996287
0.999971 0.998872 0.995976
0.999801 0.997363 0.99913
0.999843 0.999782 0.995316
0.999752 0.997845 0.999002
0.999819 0.998417 0.998727
1.00524 0.994871 0.990698
1.00527 0.994907 0.990912
1.00526 0.994936 0.991129
1.00519 0.99495 0.99131
1.00526 0.994944 0.991158
1.00528 0.994921 0.99103
1.00528 0.994874 0.990713
1.00528 0.994925 0.991063
1.00534 0.994917 0.990832
1.00545 0.995009 0.991105
1.00526 0.994942 0.991124
1.00528 0.994905 0.990769
1.00527 0.99491 0.990592
1.00488 1.00319 0.983309
1.00489 1.00177 0.984291
1.00489 0.999245 0.98665
1.00522 0.994887 0.99051
1.00503 0.995771 0.989814
1.00457 1.00346 0.982934
1.00425 1.00436 0.983741
1.00283 1.00453 0.985932
0.999993 1.00112 0.993703
1.00005 1.00473 0.990118
1.00091 1.00506 0.988099
1.00529 0.994909 0.990987
1.00016 1.00036 0.994216
1.00025 1.0015 0.992867
1.00532 0.99488 0.99054
1.00526 0.99489 0.990562
1.0048 1.00277 0.983813
1.00468 1.0017 0.984644
1.00513 0.997339 0.987918
1.00521 0.994918 0.990253
0.999766 1.003 0.992326
1.00043 1.00503 0.989197
1.00413 1.00376 0.984012
1.00367 1.00411 0.984431
1.00362 1.00451 0.984325
1.00131 1.00505 0.98734
1.00537 0.994879 0.990737
1.00533 0.99484 0.99045
1.00523 0.994864 0.990382
1.00519 0.994943 0.990313
1.00406 1.00251 0.984952
1.00446 1.00134 0.98585
1.00007 1.00216 0.992318
1.00008 1.00156 0.993193
1.00133 1.0004 0.992697
1.00037 1.00361 0.990574
1.00061 1.00507 0.988808
1.00231 1.00449 0.986502
1.00229 1.00504 0.98465
1.00316 1.00082 0.987504
1.00039 1.00395 0.990134
1.00105 1.00476 0.988418
1.00534 0.994833 0.990358
1.00528 0.995694 0.989644
1.00485 1.00046 0.987369
1.00517 1.00004 0.986155
1.00512 0.99832 0.98702
1.00516 0.999644 0.986051
1.00032 1.00395 0.990232
1.00538 0.994914 0.990555
1.00193 1.00388 0.988142
1.005 0.999656 0.986633
1.00527 0.995065 0.990566
1.00515 0.997659 0.987038
1.00492 1.00054 0.985483
0.999935 1.00488 0.990441
1.00493 0.994812 0.990908
1.0028 1.00257 0.987776
1.00474 1.0013 0.985044
1.00505 0.995732 0.989776
1.00371 1.00117 0.986095
0.998794 0.995568 0.986549
0.999268 1.00357 0.992121
0.998185 1.00305 0.994801
0.998768 1.00199 0.995914
1.00003 1.00308 0.991652
0.999815 1.00445 0.990607
1.0003 1.00378 0.990862
0.998472 1.00234 0.99454
1.00011 1.0034 0.991258
1.00025 1.00413 0.990243
0.999234 1.00017 0.996303
0.999808 1.00483 0.990283
0.999466 1.00285 0.99294
0.998426 1.00119 0.997015
1.00031 1.00439 0.990086
1.00015 1.00472 0.990095
1.00066 1.00415 0.989813
1.00012 1.00383 0.990611
1.00035 1.0044 0.990197
1.00012 1.00403 0.990376
0.999907 1.00225 0.992703
0.999928 1.00213 0.992804
0.999775 0.999138 0.995996
0.999911 1.00186 0.993073
0.999888 0.999052 0.996243
1 0.997264 0.999106
1.00004 0.998862 0.996542
1.00006 0.997065 0.9979
1.00017 0.996992 0.997808
1.00007 1.00041 0.994311
1.00019 1.00032 0.994238
1.0001 0.998226 0.996443
1.00005 0.998408 0.996561
0.999871 0.997118 0.999182
0.99996 0.99897 0.995931
0.999803 0.997442 0.99911
0.999782 0.997889 0.998965
1.00526 0.994882 0.990685
1.00527 0.994919 0.991044
1.00526 0.994945 0.991157
1.00528 0.994925 0.991063
1.00534 0.994916 0.990818
1.00543 0.994962 0.990798
1.0054 0.994893 0.990839
1.00135 0.994879 0.982235
1.0047 0.994906 0.992388
1.00008 1.00167 0.993035
1.00529 0.994907 0.990971
1.00532 0.994888 0.990553
1.00525 0.99489 0.990574
1.00475 1.00242 0.983702
1.00488 1.00132 0.984824
1.00512 0.997185 0.987823
1.00523 0.994895 0.990183
1.00452 1.00335 0.983879
1.00394 1.00371 0.984364
1.00354 1.00451 0.984373
1.00015 1.00038 0.994205
1.00175 1.00506 0.987264
0.999779 1.00302 0.99248
1.00042 1.00504 0.989153
1.00023 1.00147 0.992732
1.00537 0.994867 0.990736
1.00004 1.00222 0.992452
1.00007 1.00158 0.993205
1.00103 1.00037 0.992995
1.00534 0.99485 0.990418
1.00522 0.994863 0.99035
1.00333 1.00332 0.985037
1.00472 1.00016 0.98637
1.00518 0.994948 0.990231
1.00013 1.00366 0.990758
1.00084 1.00506 0.988616
1.00322 1.00228 0.987033
1.00292 1.00482 0.984473
1.0026 1.00416 0.98668
1.00533 0.994831 0.990927
1.00522 0.994782 0.990754
1.00517 0.994983 0.989925
1.00497 0.997059 0.990043
1.00194 1.00224 0.988571
0.999534 1.00355 0.991749
1.00108 1.00085 0.992313
1.00008 1.00012 0.993131
1.00034 1.00447 0.990736
1.00033 1.00511 0.98931
1.00091 1.00438 0.987811
1.00235 1.00017 0.989824
1.00102 1.00365 0.990133
1.00114 1.00384 0.988309
1.0054 0.994914 0.990775
1.00527 0.995014 0.990579
1.00514 0.997799 0.987246
1.00507 0.999786 0.986404
1.00486 1.00037 0.985477
1.00036 1.00466 0.990433
1.00467 0.994828 0.991114
1.00292 1.00231 0.98767
1.00481 1.00137 0.984922
1.00506 0.995616 0.990028
1.004 1.00102 0.986178
0.998568 0.996662 0.984682
0.999608 1.00434 0.991079
1.003 0.996336 0.991088
1.00346 1.00238 0.985896
1.00308 1.00111 0.986912
1.00331 0.997575 0.990731
0.999954 0.994875 0.945105
0.995334 0.994808 0.966008
0.995597 0.999851 0.988322
0.999349 0.994789 0.863773
0.994715 0.994826 0.826787
0.997792 1.00327 0.994796
0.997908 1.00245 0.996209
0.997913 1.00289 0.996546
1.00007 1.00344 0.991259
1.0003 1.0039 0.990282
0.999966 1.00473 0.990296
0.999703 1.00291 0.992522
0.999204 1.00008 0.995868
1.00014 1.00457 0.990108
1.00015 1.00381 0.990698
1.00058 1.00412 0.989856
0.99866 1.00053 0.996441
0.99996 1.00451 0.990428
1.00039 1.00455 0.990428
0.998849 1.00459 0.991982
1.00014 1.00465 0.990181
1.00051 1.00459 0.989276
1.00022 1.00392 0.990406
1.00038 1.00487 0.989433
1.00046 1.004 0.990501
0.999687 1.00471 0.990751
1.00019 1.00451 0.990143
1.00027 1.00369 0.990787
1.00016 1.00403 0.990363
0.999929 1.00223 0.992704
0.999919 1.00225 0.992706
0.999746 0.999226 0.996002
0.999899 1.00221 0.992786
0.999764 0.99918 0.995988
0.999951 0.997273 0.999133
0.99987 0.999119 0.995921
0.999981 0.997262 0.998505
1.00009 0.997038 0.997897
0.999939 1.00027 0.99463
1.00006 1.00044 0.994316
1.0001 0.998091 0.996603
1.0002 1.00022 0.994269
1.00009 0.998176 0.996723
0.999926 0.996867 0.999228
1.00007 0.998444 0.996251
0.999869 0.997222 0.999162
0.999812 0.997535 0.99909
1.00533 0.994914 0.990804
1.00528 0.994925 0.991063
1.00541 0.994945 0.990501
1.00077 0.994829 0.982376
1.0054 0.994894 0.990851
1.00458 0.994942 0.992131
1.00513 0.996196 0.991222
0.996286 0.994886 0.965241
1.00123 0.995681 0.984514
1.00012 1.00142 0.993299
1.00005 1.00182 0.992998
0.999436 1.00376 0.991888
0.999878 1.00229 0.992701
1.00537 0.994863 0.990735
1.00534 0.994864 0.990386
1.00521 0.994867 0.990319
1.00426 1.00362 0.985126
1.00465 0.998339 0.986906
1.00518 0.994935 0.990148
1.0028 1.00312 0.986543
1.00427 1.00494 0.984287
1.00276 1.00283 0.986851
1.00001 1.0017 0.993221
1.00083 1.00498 0.988433
1.00007 1.00371 0.990944
0.999935 1.00245 0.992584
1.00054 1.00066 0.993272
1.00533 0.99483 0.990934
0.999838 1.00348 0.991609
1.00122 1.00048 0.992536
0.998729 1.00116 0.995144
1.00523 0.994807 0.990662
1.00517 0.995045 0.989937
1.00314 1.00106 0.988554
1.00466 0.996127 0.990403
1.00049 1.00445 0.990138
1.00064 1.0049 0.98856
1.00205 1.00187 0.989712
1.00233 1.00372 0.987244
1.00433 0.995065 0.991672
1.00509 0.994936 0.991115
1.00499 0.995978 0.989605
1.0033 0.997086 0.992674
0.99832 1.00458 0.992792
1.00089 1.00118 0.992123
0.998207 1.00484 0.99284
0.999284 1.00454 0.990842
0.999978 0.994895 0.932328
1.00058 1.00453 0.99042
1.00292 1.00242 0.98756
1.00433 0.994861 0.991349
1.0051 0.99556 0.990276
1.00416 1.00088 0.986243
1.00463 1.00151 0.984796
0.998464 0.997332 0.982677
0.999838 1.00426 0.991428
1.00294 0.996483 0.991004
1.00339 1.00261 0.985951
1.00359 1.00109 0.987003
1.00374 0.997638 0.990453
1.00006 0.994871 0.932667
0.995745 0.994794 0.96243
0.99557 1.00035 0.988496
0.998401 0.994764 0.868531
0.994721 0.99483 0.817012
0.999584 1.0042 0.991304
0.999788 0.994822 0.874864
0.994719 0.994806 0.819639
1.0003 0.999755 0.992602
1.00163 1.00208 0.989385
1.00143 0.99948 0.992532
0.995115 0.999049 0.990739
0.997945 0.994825 0.943729
0.994917 0.994764 0.958559
0.996606 0.994859 0.885309
0.994727 0.994809 0.810413
0.997286 1.00282 0.996515
0.997641 1.00223 0.996388
0.997883 1.00439 0.995041
1.00021 1.00373 0.990783
1.00053 1.00409 0.989901
0.999675 1.00489 0.990123
0.999717 1.0046 0.990768
0.999104 0.999677 0.995873
1.00023 1.00391 0.990412
1.00013 1.00471 0.990332
1.00001 1.00477 0.990055
1.00066 1.00446 0.989404
0.99879 1.00446 0.992265
0.999512 1.00469 0.991512
0.997716 1.0051 0.99301
1.00016 1.00503 0.989488
1.00054 1.00462 0.989456
1.00047 1.00477 0.989418
1.00027 1.00373 0.990748
1.00037 1.00496 0.989612
0.99987 1.00392 0.991256
0.999381 1.0029 0.991721
0.999333 1.00504 0.990793
0.999563 1.00473 0.990669
0.999856 1.0044 0.990777
1.00012 1.00365 0.990969
1.00008 1.00451 0.99009
1.00026 1.00368 0.990727
1 1.00221 0.992633
1.00024 1.00399 0.990351
0.999937 1.00221 0.992715
0.999918 0.999194 0.996452
0.9999 1.00227 0.99271
0.999787 0.999195 0.996264
0.9999 0.997271 0.997974
0.999755 0.999197 0.99598
0.999946 0.997292 0.99914
0.999979 0.997287 0.997901
1.00021 1.0014 0.993099
0.999923 1.00016 0.994778
0.999948 1.00029 0.994622
1.00006 0.998025 0.996708
1.00004 1.00049 0.994319
1.0001 0.998054 0.996603
0.999968 0.996764 0.999258
1.00007 0.998173 0.996967
0.999933 0.997015 0.998668
0.999902 0.997272 0.998039
1.00024 0.994808 0.982501
1.0054 0.994896 0.990861
1.0043 0.995678 0.991862
0.99648 0.994879 0.965873
1.00129 0.995378 0.98488
1.00516 0.995624 0.991192
1.00347 0.996381 0.98665
0.997161 0.995076 0.968631
0.999975 0.994872 0.942989
0.998411 0.994825 0.886651
0.994661 0.994791 0.825578
0.999744 1.00241 0.992613
1.00015 1.00135 0.993284
1.00015 1.00173 0.99296
0.999769 1.00322 0.992006
0.999311 1.00404 0.99219
1.00056 1.00196 0.991875
1.00014 1.00291 0.992009
1.00009 1.00213 0.992552
1.00533 0.994822 0.990933
1.00525 0.994822 0.990574
1.00517 0.995048 0.989946
1.00309 1.00127 0.988536
1.00447 0.995669 0.990764
1.00195 1.00261 0.989581
1.00379 1.00399 0.986684
1.00123 1.00511 0.987819
1.00121 1.00009 0.992757
1.00054 1.00453 0.989512
1.0004 1.00306 0.991483
0.997964 1.00126 0.997127
1.00429 0.994823 0.99194
0.99879 1.00407 0.992745
1.00069 1.00158 0.99248
1.00485 0.994898 0.991082
1.00477 0.995747 0.989909
1.00273 0.997025 0.992354
0.99947 1.00513 0.991303
1.00058 1.00341 0.991062
1.00326 0.9948 0.991503
1.00396 0.998466 0.990551
1.0047 0.995507 0.990804
1.00094 0.998289 0.993753
0.999455 1.00492 0.990648
0.998958 1.00424 0.992237
0.999325 1.0051 0.991888
0.999793 0.994908 0.877564
1.00027 0.99487 0.945756
1.0002 1.00388 0.991776
1.00354 1.0027 0.986013
1.00285 0.997033 0.990915
1.00409 0.997712 0.990185
1.00403 1.0012 0.987114
0.999991 0.994895 0.943498
0.99595 0.994761 0.961964
0.995609 1.00094 0.98871
0.997879 0.994816 0.885671
0.994723 0.994823 0.806686
0.999793 1.00409 0.99127
0.99981 0.994854 0.874232
0.994682 0.994788 0.812908
1.00043 0.999753 0.992584
1.00162 1.0022 0.989374
1.00137 0.999601 0.992918
0.994956 1.00024 0.991432
0.998701 0.995377 0.937632
0.994848 0.994781 0.960314
0.996135 0.995981 0.884743
0.994746 0.994802 0.808968
0.998718 1.00404 0.994099
0.994713 0.994808 0.811062
0.994746 0.99478 0.821085
0.997058 1.00223 0.996734
0.999814 1.0021 0.994262
0.99504 0.999729 0.988664
0.994995 0.99489 0.961481
0.995692 0.994783 0.9325
0.99476 0.997182 0.889452
0.994829 0.994833 0.814446
0.997609 1.00182 0.996234
0.99829 1.00366 0.994828
0.997076 1.00387 0.995272
1.00021 1.00392 0.990417
1.00079 1.00428 0.989531
1.00002 1.00487 0.989926
0.999865 1.00477 0.990239
0.998384 1.00439 0.992549
1.00049 1.00472 0.989446
0.999555 1.00448 0.991209
1.00035 1.00494 0.989494
0.997318 1.00502 0.993402
0.995929 1.00521 0.996279
0.998932 1.00497 0.991696
1.00049 1.00505 0.989388
1.00055 1.00467 0.989404
1.00019 1.00333 0.99099
1.0003 1.00493 0.989562
0.999974 1.0038 0.991166
0.999232 1.00298 0.992492
0.999037 1.00491 0.991203
0.998988 1.00491 0.991325
0.998901 1.00353 0.992784
1.00046 1.00175 0.992535
1.00201 1.00004 0.990935
0.999082 1.00489 0.991056
0.999503 1.00485 0.990841
0.999615 1.005 0.990083
0.999622 1.00486 0.990669
1.00004 1.00387 0.990847
0.999857 1.00445 0.990801
1.00015 1.00366 0.990989
1.00004 1.00219 0.992518
1.00026 1.00372 0.990667
0.999988 1.0022 0.99265
1.00004 0.999153 0.996273
0.999928 1.00221 0.992727
0.999896 0.999168 0.99611
1 0.997215 0.997842
0.99978 0.999183 0.995973
0.999953 0.997263 0.999147
0.999944 0.997289 0.999148
1.00025 1.00183 0.992945
0.999935 1.00033 0.994624
1.00012 1.00157 0.993109
1.00006 0.997988 0.996749
0.99992 1.00017 0.994779
0.999951 1.00033 0.994614
1.00007 0.99802 0.996697
0.999994 0.99668 0.999272
1.00008 0.998069 0.997091
0.99998 0.996761 0.998739
0.999953 0.997032 0.998156
0.999809 0.994828 0.862526
0.994687 0.994766 0.811346
0.996596 0.994875 0.966267
1.0012 0.994919 0.985333
1.00523 0.994835 0.991169
0.99681 0.995279 0.968422
1.00355 0.99552 0.987161
1.0009 0.994884 0.939834
0.998771 0.994786 0.868617
0.994697 0.99481 0.816018
0.998108 0.994857 0.974024
0.998909 0.994869 0.942944
0.996671 0.994859 0.885243
0.994737 0.994789 0.81644
1.00018 1.00329 0.991538
0.999886 1.00216 0.992751
1.00013 1.00141 0.993272
0.999926 1.00292 0.992123
0.999165 1.004 0.992441
1.00017 1.00368 0.990798
1.00032 1.00276 0.991677
1.00042 1.00366 0.9904
1.00011 1.00289 0.99189
0.999996 1.00241 0.992394
1.00411 0.994794 0.992194
1.00471 0.994834 0.991051
1.0045 0.995579 0.990214
1.00232 0.997512 0.992031
1.00107 1.00321 0.991282
0.999518 1.0052 0.989785
1.00032 1.00198 0.992894
0.998954 1.00399 0.992687
1.00252 0.99491 0.991929
0.999539 1.00503 0.990429
0.998652 1.00458 0.992026
1.00377 0.997205 0.990762
1.00449 0.995568 0.990884
1.00108 0.998316 0.994103
0.999143 1.00508 0.991705
1.00027 0.995149 0.991348
1.00146 0.998585 0.993505
0.999241 1.00136 0.994865
0.998639 1.00492 0.989946
0.998762 1.00513 0.990728
0.998568 1.00507 0.992191
0.994727 0.994842 0.834047
0.999792 0.994882 0.882549
0.999989 0.994875 0.932642
0.999576 1.00401 0.991218
1.00185 1.00234 0.989341
1.00052 0.999557 0.992563
1.00127 0.99977 0.993311
0.999813 0.994872 0.886158
0.998256 0.994837 0.932832
0.994848 0.994858 0.958629
0.994891 1.00114 0.992034
0.996853 0.994826 0.870329
0.994657 0.994789 0.818203
0.99478 0.994813 0.822697
0.998532 1.00345 0.99381
0.994705 0.994817 0.820865
0.994772 0.994785 0.820544
0.997132 1.00078 0.997397
0.99942 1.0021 0.994136
0.995045 0.998578 0.991081
0.995468 0.994851 0.960191
0.996485 0.997548 0.943384
0.99473 0.997389 0.873356
0.99494 0.994828 0.824616
0.997151 1.00413 0.996216
0.994787 0.994831 0.829394
0.994815 0.99479 0.817756
0.99502 1.00247 0.999901
0.995342 0.99707 0.968734
0.994846 0.999048 0.942603
0.995273 0.996247 0.865284
0.995171 0.994873 0.831261
0.998696 1.00269 0.994576
0.997395 1.00427 0.995454
0.995723 1.00423 0.997758
1.00041 1.00475 0.989436
1.00047 1.00492 0.989503
0.999687 1.00419 0.990906
0.99711 1.00491 0.993795
1.00029 1.00503 0.989397
0.998895 1.00499 0.991686
0.995786 1.00517 0.996653
0.995042 1.00501 0.998248
0.995796 1.0051 0.996836
0.999415 1.00488 0.991225
1.00027 1.00495 0.989509
1.00002 1.00359 0.991075
0.998943 1.00323 0.993244
0.998995 1.00488 0.991386
0.999222 1.0049 0.991221
0.99889 1.00373 0.992907
0.998917 1.00462 0.99184
0.996734 1.00496 0.995408
1.00237 0.997437 0.993133
1.00013 1.00153 0.993027
1.00107 1.00101 0.99166
1.00455 1.00059 0.986949
1.00142 1.00237 0.990792
1.00092 0.999994 0.992768
0.999607 1.00462 0.990794
0.999684 1.00513 0.989685
0.999733 1.00461 0.99089
0.999886 1.00502 0.99009
1.00005 1.0045 0.990211
0.999998 1.0047 0.990669
1.00024 1.00368 0.990831
1.00011 1.00229 0.992343
1.00033 1.0034 0.991011
1.00012 1.00216 0.992526
1.00015 0.999171 0.996077
1.00002 1.00215 0.992667
1.00003 0.999155 0.995901
1.00009 0.997236 0.997707
0.999899 0.999145 0.995814
0.999989 0.997226 0.998492
0.999964 0.997243 0.99913
1.00019 1.0025 0.991999
1.00007 1.00046 0.994325
1.00017 1.00186 0.992767
1.00004 0.998053 0.996694
0.999954 1.00028 0.99463
1.00012 1.00155 0.993119
1.00002 0.996642 0.99928
1.00005 0.997988 0.996749
0.999923 1.00018 0.99478
1.00008 0.998006 0.996686
0.999995 0.996716 0.999269
0.999965 0.996754 0.999255
0.994686 0.99478 0.814919
0.999803 0.994843 0.874101
0.994757 0.994769 0.818382
0.994706 0.994769 0.810288
0.996804 0.994893 0.966387
1.00346 0.99488 0.98768
0.999931 0.994867 0.936024
0.999164 0.994819 0.886558
0.994731 0.994825 0.806144
0.998505 0.99488 0.973218
0.999941 0.995983 0.929272
0.996349 0.996902 0.883321
0.994722 0.994787 0.809344
0.995284 0.994835 0.966039
0.996452 0.996719 0.930984
0.994824 0.997387 0.865935
0.994818 0.994852 0.812716
1.00083 1.00455 0.990222
0.999875 1.00328 0.991648
1.00002 1.00191 0.992887
0.998887 1.00376 0.992694
1.00078 1.00412 0.989298
1.00013 1.00353 0.991013
0.999921 1.00328 0.991487
1.00089 1.00321 0.990406
1.0005 1.00374 0.990509
1.00015 1.00272 0.991773
1.00211 0.994797 0.992353
1.00369 0.996209 0.990992
1.00418 0.995679 0.990967
1.00095 0.997301 0.994476
1.0001 1.00508 0.991509
0.99904 1.00499 0.991826
0.999686 1.00495 0.990206
1.00014 1.00495 0.989699
0.99987 0.995253 0.991773
0.999639 1.00511 0.990483
0.999275 1.00506 0.992066
1.00142 0.9981 0.994238
0.999938 1.00034 0.994677
0.996588 0.998675 0.991519
0.996747 0.998936 1.00087
0.997342 1.0033 0.995341
0.99964 1.00502 0.990512
0.997957 1.00513 0.993252
0.994816 0.994816 0.83526
0.994719 0.994825 0.830179
0.999799 0.994889 0.866191
0.998473 1.00298 0.993576
0.999144 1.00183 0.994
0.997259 1.00002 0.998061
0.99468 0.9948 0.819619
0.996639 0.996727 0.932262
0.99562 0.994878 0.960138
0.994889 0.997309 0.993762
0.994802 0.997303 0.891263
0.994777 0.994789 0.820566
0.995055 0.994837 0.825597
0.997444 1.00414 0.996054
0.994793 0.994827 0.832288
0.994806 0.99479 0.818524
0.995226 1.00179 0.999015
0.9953 0.996321 0.970692
0.994867 0.996684 0.931197
0.995027 0.994864 0.827687
0.994991 0.998778 0.873245
0.994998 1.00485 0.999662
0.994795 0.994824 0.825761
0.994865 0.994827 0.82519
0.994811 0.994847 0.813369
0.994814 0.998949 0.990421
0.994872 0.998734 0.946124
0.996917 0.996899 0.880917
0.997818 1.00485 0.995662
0.995904 1.0047 0.997579
0.995088 1.00487 0.999193
1.0002 1.00504 0.989406
0.99886 1.00501 0.991673
0.995629 1.00516 0.997021
0.999129 1.00499 0.991192
0.995976 1.00504 0.996833
0.995218 1.00489 0.99821
0.994986 1.00516 0.998434
0.995891 1.00486 0.996844
0.998935 1.00483 0.991459
0.999351 1.00497 0.991238
0.998925 1.00405 0.993053
0.996967 1.00486 0.995263
0.998952 1.00483 0.991723
0.999149 1.00217 0.993987
1.00004 0.99796 0.996446
1.00249 1.00042 0.989009
0.999782 1.00134 0.993484
1.00162 1.00111 0.991156
1.00434 1.00188 0.985902
1.00504 1.00215 0.984186
1.00316 1.00015 0.989631
1.00379 1.00056 0.987312
1.00073 1.00511 0.988883
1.00084 1.00261 0.991178
0.999846 1.00002 0.994577
1.00014 1.00441 0.990532
0.999853 1.00511 0.989724
1.0002 1.00492 0.989474
1.00012 1.00506 0.990099
1.00021 1.00431 0.990227
1.00013 1.00274 0.991811
1.00033 1.00364 0.990813
1.00015 1.00224 0.992333
1.00017 0.999219 0.99597
1.00013 1.00213 0.992534
1.00014 0.999176 0.995708
1.00016 0.997276 0.997562
1.00004 0.999161 0.995581
1.00007 0.997231 0.998395
1.00002 0.997213 0.999077
1.00052 1.00276 0.991066
1.00009 1.00084 0.993602
1.00033 1.00238 0.99199
1.0001 0.998114 0.996537
1.00004 1.00048 0.994174
1.00014 1.00186 0.992591
1.00004 0.996673 0.999264
1.00006 0.998019 0.996705
0.999974 1.0002 0.994637
1.00002 0.996661 0.999278
1.00004 0.998 0.996749
0.999996 0.996689 0.999266
0.994823 0.994821 0.825953
0.994696 0.994811 0.827138
0.9998 0.994821 0.873331
1.0011 1.00277 0.990362
0.99482 0.994797 0.824627
0.994757 0.994769 0.818345
0.994735 0.994779 0.822231
0.999094 0.994887 0.972344
0.998512 0.994847 0.941796
0.996437 0.994858 0.867789
0.994698 0.994802 0.817506
0.996484 0.994852 0.963432
0.996576 0.998734 0.941665
0.994757 0.997123 0.869057
0.994822 0.994838 0.816969
0.994846 0.994948 0.958149
0.994842 0.996988 0.94028
0.995383 0.999963 0.876457
0.995103 0.994884 0.831035
0.999776 1.00497 0.990112
1.0003 1.00438 0.990118
1.00004 1.00331 0.991759
1.00059 1.00342 0.99035
1.00055 1.00448 0.98959
1.00012 1.00379 0.991224
1.00089 1.00334 0.990368
1.00049 1.00378 0.990611
0.998802 0.996575 0.99203
1.00108 0.997533 0.994883
1.0004 1.005 0.989449
1.00067 0.999815 0.994497
0.999499 1.00503 0.991941
1.00006 1.00511 0.990248
0.99931 1.00491 0.99062
0.996011 0.998114 0.99222
0.998261 1.00513 0.993234
0.997859 1.00309 0.995613
0.996304 0.999732 1.00104
0.998959 1.00489 0.991924
0.994794 1.00071 0.988208
0.995335 1.00258 0.999285
0.996105 1.00497 0.996561
0.998122 1.00541 0.993762
0.994783 0.994805 0.831377
0.994821 0.994817 0.833112
0.994708 0.994814 0.826225
0.997713 1.00422 0.995872
0.995434 1.00077 0.998123
0.994807 0.994826 0.835009
0.994811 0.998724 0.943036
0.995598 0.996164 0.968044
0.99503 0.998778 0.871699
0.994806 0.99479 0.819109
0.994879 0.994855 0.824147
0.995424 1.00466 0.999326
0.994798 0.994822 0.825769
0.99486 0.994834 0.826546
0.994782 0.999499 0.994157
0.994816 0.994833 0.817328
0.994853 0.996348 0.938526
0.995953 0.997521 0.882969
0.994778 1.00336 0.998595
0.994833 0.994844 0.831577
0.9948 0.994802 0.825594
0.994732 0.994794 0.81681
0.995361 0.999973 0.875709
0.994911 1.00049 0.975768
0.995478 0.997938 0.931569
0.996221 1.00504 0.997409
0.995079 1.00506 0.999161
0.994877 1.0052 0.998482
0.998818 1.00509 0.991159
0.995924 1.00512 0.996834
0.995075 1.00519 0.998166
0.995969 1.00479 0.99677
0.994952 1.00516 0.998473
0.997786 1.00206 0.997481
0.99719 1.00464 0.995106
0.998959 1.00494 0.991619
0.999004 1.00242 0.994626
0.998929 1.00234 0.992484
0.997831 0.998441 0.999623
1.00227 1.00002 0.990179
1.00427 1.00418 0.98287
1.00476 1.00283 0.983608
1.00214 1.00114 0.990612
1.0043 1.0022 0.985156
1.00511 1.00215 0.98411
1.00462 1.0001 0.986692
1.00479 1.00194 0.984568
1.00138 1.00353 0.988802
1.00293 1.00064 0.989408
1.00311 1.00048 0.987691
1.00035 1.00512 0.988767
1.00028 1.00507 0.989143
1.00032 1.00274 0.991564
0.999955 1.00511 0.989763
1.00029 1.00493 0.98949
1.00019 1.00371 0.990836
1.00036 1.00427 0.990241
1.00018 1.00278 0.991793
1.00014 0.999431 0.995118
1.00022 1.00226 0.992325
1.0002 0.999218 0.995255
1.00007 0.997265 0.998958
1.00014 0.999206 0.995374
1.00012 0.99727 0.998283
1.00008 0.997225 0.999011
1.00052 1.00285 0.990955
1.00025 1.00134 0.992881
1.00046 1.00283 0.991213
1.00016 0.998285 0.996285
1.00017 1.00083 0.99352
1.00036 1.00238 0.991978
1.00007 0.996669 0.999229
1.00011 0.998092 0.996552
1.00004 1.00048 0.994025
1.00004 0.996647 0.99927
1.00007 0.997982 0.996715
1.00001 0.996697 0.999276
0.9948 0.994829 0.831973
0.99482 0.99482 0.826196
0.994688 0.994825 0.827096
1.00097 1.00282 0.990544
1.00077 1.003 0.990446
1.00107 1.00221 0.991189
0.99487 0.99483 0.824369
0.994818 0.99479 0.825255
0.994756 0.99476 0.81838
0.996785 0.994853 0.964388
0.996301 0.994797 0.930103
0.994786 0.999113 0.889684
0.99482 0.994833 0.811529
0.99499 0.994929 0.960998
0.994891 0.99829 0.93665
0.995293 0.998233 0.872775
0.995052 0.99487 0.827239
0.995704 0.995107 0.957789
0.994866 0.997358 0.941207
0.996523 0.9971 0.88107
0.99484 0.994833 0.815279
0.999869 1.0034 0.991449
1.00035 1.00443 0.989911
1.00045 1.00396 0.99001
1.00079 1.00328 0.990289
1.00023 1.00465 0.989885
1.00086 1.00352 0.990331
0.995865 0.996823 0.99304
0.996133 1.00048 1.00134
0.99968 1.00423 0.990721
0.998655 1.00252 0.995814
0.998416 1.00512 0.993207
0.998533 1.00456 0.992383
0.997462 1.00535 0.993823
0.994941 1.00102 0.988096
0.9959 1.00513 0.997012
0.995859 1.00267 0.998526
0.997593 1.00513 0.994184
0.994929 1.0027 0.984908
0.995543 1.00444 0.995642
0.995533 1.00492 0.997853
0.994839 0.994831 0.830989
0.994786 0.994815 0.830825
0.994824 0.994813 0.830996
0.995731 1.00409 0.998955
0.994785 0.999858 0.990211
0.994796 0.99482 0.825789
0.994842 0.998135 0.938213
0.996462 0.996905 0.868101
0.994859 0.994836 0.827881
0.994817 0.99483 0.812298
0.994785 1.00317 0.99905
0.994826 0.994845 0.832031
0.994815 0.994803 0.826258
0.994872 0.999547 0.973157
0.994718 0.994794 0.81006
0.995794 0.999596 0.870328
0.995116 0.995606 0.944808
0.994856 1.00517 0.991117
0.994792 0.994841 0.83218
0.994775 0.994788 0.81954
0.994663 0.994799 0.826977
0.99479 0.997391 0.865353
0.994858 0.998986 0.939888
0.994879 1.0009 0.96743
0.995113 1.00493 0.999113
0.994915 1.00521 0.998457
0.996496 1.00341 0.9976
0.996132 1.00471 0.996698
0.994963 1.00511 0.99848
0.996411 1.0038 0.997558
0.999409 0.998353 0.998262
0.998825 1.00287 0.995251
1.00123 1.00181 0.991647
1.00227 1.00475 0.985822
1.00189 0.999677 0.991537
1.00425 1.00399 0.983437
1.00432 1.00491 0.982248
1.00503 1.00168 0.983942
1.00507 1.00188 0.984171
1.0047 1.00292 0.983535
1.00451 1.00243 0.984427
1.00509 1.00136 0.985013
1.00512 1.0021 0.984098
1.00342 1.00118 0.987661
1.00445 1.0002 0.987001
1.00444 1.00176 0.984953
1.00068 1.00513 0.988061
1.00156 1.00373 0.988751
1.00257 1.00127 0.989175
1.00032 1.00447 0.989911
1.00064 1.00511 0.988774
1.00001 1.00501 0.989403
1.00045 1.00487 0.989507
1.00029 1.00355 0.99084
1.00004 1.00001 0.994671
1.00028 1.00268 0.991775
1.00015 0.999473 0.995092
1.00008 0.9974 0.998923
1.00021 0.999238 0.995249
1.00013 0.997294 0.998237
1.00011 0.997264 0.99896
1.00059 1.00325 0.990744
1.00037 1.00161 0.992613
1.00063 1.00275 0.991011
1.00023 0.998548 0.995907
1.00025 1.00134 0.992966
1.00044 1.00284 0.991363
1.0001 0.99675 0.999171
1.00017 0.998236 0.996305
1.0002 1.00081 0.99344
1.00007 0.996689 0.99924
1.00011 0.998067 0.996567
1.00004 0.996657 0.999277
0.994834 0.994839 0.830836
0.994802 0.994843 0.831989
0.994816 0.994832 0.826497
1.0003 1.00438 0.98964
1.00118 1.00409 0.989757
1.00077 1.00295 0.990731
1.00068 1.00325 0.990342
1.00061 1.00239 0.991356
1.00036 1.00294 0.991227
1.00031 1.00195 0.992307
0.994831 0.994801 0.817981
0.994875 0.994839 0.825837
0.994812 0.994812 0.825898
0.994884 0.994862 0.823536
0.995144 0.994865 0.958439
0.994856 0.999325 0.931766
0.995434 0.995939 0.886648
0.99537 0.994929 0.956823
0.994847 0.998835 0.92897
0.99549 0.997779 0.883204
0.994888 0.994829 0.825275
0.996036 0.996352 0.960507
0.995047 0.999563 0.930244
0.995336 0.996531 0.865313
0.994734 0.994815 0.811276
0.998112 1.00481 0.993436
0.999669 1.00384 0.991706
1.00041 1.0047 0.989712
1.00089 1.00346 0.990232
0.995169 1.00118 0.988182
0.996008 1.00321 0.997618
0.998282 1.00508 0.992845
0.997274 1.00529 0.993891
0.995749 1.00515 0.997509
0.997498 1.00471 0.994212
0.995593 1.0049 0.997857
0.995927 1.00266 0.981511
0.995055 1.00509 0.995928
0.995923 1.00406 0.997233
0.994821 1.00487 0.980789
0.995273 1.00328 0.998891
0.994779 0.994816 0.831761
0.994837 0.994832 0.833994
0.99479 0.994828 0.830256
0.994788 1.00308 0.999481
0.994842 0.999294 0.976549
0.994818 0.994842 0.832534
0.99531 0.997483 0.932512
0.995954 0.99691 0.8852
0.994825 0.994821 0.826865
0.994695 0.994806 0.818061
0.994873 1.00444 0.991973
0.994807 0.994839 0.83222
0.994759 0.994784 0.819555
0.994887 0.999877 0.967379
0.994702 0.994813 0.817543
0.994743 0.997363 0.867642
0.995236 0.998806 0.928212
0.994976 1.0048 0.985917
0.994833 0.99482 0.826154
0.994678 0.994773 0.812862
0.996438 0.99486 0.886684
0.994796 0.998469 0.939725
0.994827 0.999988 0.960377
0.99494 1.00528 0.998792
0.995737 1.00403 0.997683
0.996942 0.999951 0.999202
0.995313 1.00502 0.997624
0.997759 1.00011 0.998536
1.00196 0.999048 0.993637
1.0036 1.00116 0.990818
1.00316 1.00482 0.985099
1.00365 1.00423 0.983456
1.00398 1.004 0.984001
1.00446 1.0047 0.982192
1.00437 1.00424 0.982774
1.00519 1.00004 0.985324
1.00513 1.00105 0.984859
1.00503 1.0019 0.983912
1.00509 1.00166 0.984532
1.00506 1.00177 0.984174
1.00455 1.00311 0.983461
1.00511 1.00109 0.985554
1.00497 1.0016 0.98486
1.00513 1.00205 0.984089
1.00226 1.0039 0.987355
1.00325 1.00136 0.987924
1.00429 1.00022 0.98731
1.00049 1.00483 0.988856
1.00106 1.00501 0.988112
1.00159 1.00395 0.988699
1.00009 1.00055 0.994034
1.00043 1.00426 0.989916
1.00085 1.0051 0.988781
1.00034 1.00347 0.990843
1.00006 1.00006 0.994637
1.00002 0.997659 0.998854
1.00017 0.999507 0.995067
1.00008 0.997417 0.99891
1.00011 0.997271 0.998938
1.00008 1.00508 0.989808
1.00072 1.00396 0.989901
1.00048 1.00207 0.99201
1.00061 1.00315 0.990729
1.00026 0.998883 0.995505
1.00037 1.00164 0.992603
1.00064 1.00274 0.991067
1.00012 0.996914 0.999078
1.00022 0.998526 0.99593
1.00025 1.00135 0.993048
1.0001 0.996737 0.999189
1.00017 0.998208 0.996326
1.00007 0.996664 0.999251
0.994797 0.994833 0.825795
0.994817 0.994835 0.831327
0.994812 0.994832 0.831999
1.00044 1.00463 0.989617
1.00068 1.00358 0.989927
1.00011 1.00285 0.990261
0.999883 1.00449 0.989902
1.00154 1.00341 0.990309
1.00078 1.00341 0.990237
1.00042 1.00253 0.991522
1.00045 1.00293 0.991248
1.00038 1.00216 0.992317
0.999047 1.00397 0.992657
0.994752 0.994778 0.821364
0.994815 0.994798 0.8188
0.994876 0.994829 0.827234
0.995044 0.994841 0.826198
0.996014 0.997105 0.86861
0.995087 0.995333 0.955491
0.994877 0.997845 0.940845
0.995393 0.996755 0.956852
0.994891 0.996228 0.941939
0.994973 0.999163 0.873885
0.994753 0.994802 0.809847
0.994851 0.998906 0.960361
0.994825 1.00078 0.941827
0.99477 0.998242 0.888941
0.994704 0.994829 0.827786
0.998334 1.0023 0.995789
0.997755 1.00469 0.99367
0.999612 1.00373 0.99197
0.996571 1.00241 0.977826
0.99495 1.00513 0.996271
0.997297 1.00467 0.994237
0.995163 1.00494 0.997859
0.996251 1.00406 0.997224
0.995193 1.00296 0.999182
0.994903 1.00256 0.980078
0.99581 1.00131 0.999969
0.995718 1.00056 0.986269
0.994817 0.99482 0.834243
0.99479 0.994826 0.831226
0.994831 0.994831 0.837034
0.994886 1.00384 0.992318
0.99484 0.999536 0.964873
0.994821 0.994843 0.832245
0.994854 0.999355 0.939831
0.994764 0.999131 0.887898
0.994742 0.994764 0.819702
0.99473 0.994826 0.80776
0.995319 1.0046 0.986646
0.994815 0.994826 0.826305
0.994702 0.994775 0.811898
0.995033 0.999372 0.961384
0.996186 0.996335 0.884328
0.994864 0.998182 0.934605
0.995143 1.00324 0.983679
0.994685 0.994784 0.815683
0.998383 0.994834 0.887857
0.996314 0.996811 0.931209
0.994852 0.996591 0.962812
0.995502 1.00497 0.997762
0.996458 1.00085 0.999172
0.99896 1.00215 0.995718
0.996072 1.00196 0.998778
1.00084 0.999486 0.994253
1.00351 0.999377 0.989725
1.00398 1.00474 0.984359
1.00362 1.00429 0.983337
1.00424 1.00134 0.985156
1.00475 1.0045 0.982137
1.00446 1.00381 0.982861
1.00496 1.0001 0.985831
1.00527 0.997485 0.98762
1.00524 0.99954 0.985676
1.00519 0.999947 0.985408
1.00519 1.0009 0.985073
1.00513 1.00109 0.984771
1.00504 1.00205 0.983881
1.00517 1.00201 0.984417
1.00498 1.00158 0.984563
1.00505 1.00167 0.984176
1.00427 1.00172 0.986243
1.00459 1.00148 0.985645
1.00487 1.00188 0.984708
1.00094 1.00511 0.987464
1.00219 1.00383 0.987357
1.00323 1.00152 0.988185
1.00008 1.00143 0.994141
1.00073 1.0048 0.988862
1.0014 1.00483 0.988166
1.00005 0.998152 0.996807
1.00009 1.00075 0.994381
1.00055 1.00412 0.989919
1.00009 1.00014 0.994602
1.00004 0.997734 0.998808
1.00008 0.997429 0.998895
1.00045 1.0051 0.989241
1.0008 1.00489 0.989083
0.999808 1.00509 0.989693
1.00053 1.00284 0.991189
1.00053 1.00425 0.989877
1.00023 0.999265 0.995173
1.00047 1.00206 0.99202
1.00072 1.00306 0.990712
1.00012 0.997161 0.998984
1.00025 0.998863 0.995522
1.00035 1.00169 0.992593
1.00011 0.996902 0.999107
1.00021 0.998489 0.995953
1.0001 0.996736 0.999207
0.994787 0.994823 0.835707
0.994806 0.994835 0.825818
0.994804 0.99485 0.83184
1.00138 1.00181 0.989987
1.00005 1.00504 0.989593
1.0005 1.00339 0.990109
1.00049 1.00474 0.989643
1.00098 1.00248 0.990327
1.00074 1.0032 0.991349
1.0029 1.00226 0.987893
0.998542 1.00493 0.991366
1.00053 1.00286 0.991268
1.00008 1.00206 0.992325
0.998861 1.00383 0.992571
0.998093 1.00507 0.993254
0.994712 0.9948 0.819804
0.994774 0.994783 0.820865
0.994815 0.994796 0.819461
0.994776 0.994813 0.823089
0.9949 0.999072 0.872802
0.995377 0.998523 0.930386
0.994952 0.996084 0.956877
0.994885 0.999226 0.959577
0.994714 0.994832 0.817902
0.994862 0.996767 0.934225
0.994766 0.998614 0.872686
0.994922 0.996576 0.965125
0.99487 0.99951 0.942851
0.99617 0.994859 0.885864
0.999475 0.996153 0.999417
0.99824 1.00212 0.995725
0.997708 1.00451 0.993892
0.994912 1.0017 0.979848
0.994898 1.0025 0.999438
0.996785 1.00391 0.997201
0.996877 1.0009 1.00013
0.995226 0.999363 0.98645
0.996477 0.998247 0.992236
0.994716 0.994846 0.828678
0.994815 0.994812 0.835754
0.994798 0.994827 0.83062
0.995002 1.00437 0.986934
0.994864 0.999975 0.961114
0.9948 0.994833 0.826632
0.994838 0.999414 0.930306
0.99631 0.99486 0.86916
0.99474 0.99479 0.823536
0.994782 1.00453 0.983657
0.994696 0.994817 0.827711
0.998427 0.994795 0.869733
0.994863 0.995877 0.958556
0.99634 0.998303 0.9421
0.99487 1.00282 0.989572
0.999802 0.99484 0.862717
0.998741 0.994882 0.943957
0.994851 0.99485 0.957691
0.995959 1.00144 0.9992
0.99828 1.00126 0.995433
1.00144 1.00319 0.991192
0.999789 0.999734 0.994875
1.00281 1.00001 0.989551
1.00425 0.999516 0.987864
1.00369 1.00439 0.983217
1.00425 1.00146 0.985083
1.00505 0.996964 0.988023
1.00446 1.00327 0.98295
1.00481 0.999958 0.985843
1.00528 0.996069 0.989009
1.00525 0.995899 0.989614
1.00527 0.997682 0.987531
1.00528 0.997417 0.98774
1.00527 0.999349 0.985889
1.00523 0.999506 0.985861
1.00518 0.999886 0.985493
1.00526 1.00124 0.984498
1.00519 1.00081 0.985032
1.00513 1.0011 0.984681
1.00514 1.00123 0.985045
1.005 1.00194 0.984447
1.00485 1.00148 0.984594
1.00246 1.00393 0.986595
1.00398 1.00207 0.986164
1.00399 1.00185 0.985738
1.00014 1.00232 0.992122
1.00146 1.00504 0.987485
1.00213 1.00395 0.987355
0.999828 0.998914 0.998488
1.00012 1.0015 0.993088
1.00096 1.00475 0.988869
1.00003 0.99812 0.998644
1.00008 1.0008 0.993906
1.00005 0.997784 0.998756
1.00251 1.00343 0.988186
1.0005 1.00507 0.989071
1.0009 1.00508 0.988693
1.00051 1.00375 0.990297
1.00057 1.00493 0.989059
1 1.00509 0.98958
1.00015 0.999793 0.994791
1.00049 1.00285 0.991213
1.00032 1.00435 0.989851
1.0001 0.997385 0.998912
1.00024 0.999208 0.995189
1.00046 1.00204 0.99203
1.00012 0.997124 0.999012
1.00025 0.998848 0.995537
1.00011 0.996857 0.999137
0.994715 0.994809 0.813335
0.994806 0.994824 0.835982
0.994813 0.994836 0.82586
1.00125 1.00249 0.989938
1.00454 1.00166 0.987145
1.00179 1.00338 0.989043
1.0005 1.00461 0.98938
1.00209 1.0022 0.990389
0.999511 1.00253 0.992366
0.999327 1.00471 0.990981
1.00199 1.0028 0.988622
1.00208 1.00313 0.988771
0.999299 0.999922 0.995657
0.999554 1.00373 0.992477
0.998454 1.00493 0.993159
0.998992 0.994815 0.86322
0.994682 0.994792 0.813362
0.994783 0.994786 0.820916
0.994729 0.99482 0.80748
0.994808 0.997395 0.890452
0.994834 0.998714 0.929749
0.994992 0.996901 0.958083
0.994879 0.996859 0.963041
0.996415 0.997688 0.88389
0.994854 0.997831 0.931098
0.99487 0.99723 0.966242
0.996152 0.995286 0.931234
1.00036 0.995685 1.00047
0.99929 0.997428 0.999376
0.998069 1.002 0.995686
0.994933 0.998971 0.986755
0.99765 1.00028 1.00029
0.996957 0.998284 0.991924
0.996909 0.995831 0.990816
0.999792 0.994918 0.876521
0.994707 0.994833 0.826336
0.994822 0.994812 0.837117
0.9948 1.00484 0.983976
0.99486 0.994899 0.957004
0.994691 0.994831 0.827522
0.996164 0.994794 0.931416
0.998925 0.994831 0.887966
0.994875 1.00083 0.986375
0.999789 0.994856 0.87441
0.999203 0.99552 0.930715
0.994856 0.994814 0.959756
0.996964 0.998053 0.987935
0.999949 0.994887 0.943792
0.995302 0.994824 0.964362
0.997908 1.00027 0.995116
1.00045 1.00127 0.991271
1.00372 0.999601 0.990666
1.00214 1.00093 0.989391
1.00406 0.999427 0.987852
1.00515 0.996229 0.989186
1.00432 1.00163 0.985015
1.00498 0.997449 0.98796
1.00525 0.99509 0.989949
1.0047 0.99981 0.985852
1.00528 0.996145 0.988955
1.00524 0.995053 0.990372
1.00524 0.995259 0.990396
1.00525 0.995822 0.989773
1.00523 0.996307 0.989467
1.00529 0.998022 0.987494
1.00526 0.99774 0.987657
1.0053 0.997341 0.987862
1.0053 1.00006 0.985569
1.00527 0.999394 0.985853
1.00522 0.999449 0.986046
1.00526 1.00154 0.984465
1.00526 1.00126 0.984533
1.00519 1.00076 0.984991
1.00346 1.00273 0.986197
1.00503 1.00136 0.985029
1.00481 1.00188 0.984478
1.00059 1.00291 0.990846
1.00253 1.00393 0.986585
1.00388 1.00213 0.986088
1.00001 0.999202 0.998221
1.0003 1.00222 0.992085
1.00188 1.00484 0.987505
0.999964 0.998853 0.997427
1.00019 1.00154 0.993087
1.00005 0.99836 0.998543
1.00386 1.00099 0.987916
1.00172 1.00341 0.988366
1.00079 1.00507 0.988337
1.00047 1.00504 0.988896
1.00061 1.00508 0.988725
1.00071 1.00444 0.989406
1.00013 1.00051 0.994163
1.00044 1.00388 0.990287
1.00023 1.00506 0.989037
1.00007 0.997667 0.998803
1.00015 0.999726 0.994815
1.00043 1.00288 0.991238
1.00009 0.997357 0.998932
1.00025 0.999161 0.99521
1.00011 0.997095 0.999039
0.999793 0.994831 0.874148
0.994702 0.994819 0.818869
0.994815 0.994823 0.836262
1.00102 1.00272 0.989892
1.0017 1.0037 0.988238
1.00385 1.00227 0.987237
1.00505 1.00358 0.983131
1.0017 1.00303 0.988604
0.99967 1.00483 0.990629
1.00142 1.00321 0.989347
1.0012 1.0033 0.989347
1.00421 0.997768 0.988563
1.00192 0.999602 0.99262
1.00296 0.995848 0.993643
1.00016 0.999353 0.995504
0.999347 1.00382 0.993075
0.998107 0.994871 0.941487
0.999132 0.99478 0.867913
0.994657 0.99479 0.818465
0.996492 0.995324 0.870294
0.994869 0.999354 0.940068
0.994894 0.995578 0.964362
0.99488 0.996887 0.967918
0.996788 0.998826 0.943151
0.995729 0.994808 0.967412
0.99974 0.996037 0.999389
0.999719 0.996075 1.0005
0.99902 0.998724 0.999311
0.997537 0.997839 0.991732
0.997675 0.996448 0.991076
0.999977 0.994897 0.932189
0.999793 0.99489 0.881985
0.994691 0.994816 0.824106
0.994872 0.999607 0.982897
0.995062 0.994808 0.957883
0.999799 0.994828 0.873775
0.998462 0.994853 0.942857
0.996678 0.998009 0.988169
1.00055 0.994891 0.940082
0.996286 0.99485 0.962071
1.00054 0.994826 0.988107
0.998407 0.994871 0.97209
0.999265 0.999367 0.991416
1.0031 0.997856 0.990698
1.00494 0.995188 0.991546
1.0039 0.999123 0.987831
1.00509 0.996118 0.989058
1.00525 0.994874 0.99035
1.00481 0.997904 0.987898
1.00525 0.99515 0.989898
1.00523 0.994874 0.990489
1.00527 0.996212 0.988902
1.00524 0.995089 0.990337
1.00525 0.994911 0.990603
1.00524 0.995188 0.990462
1.00522 0.995478 0.990371
1.00525 0.99575 0.989933
1.00523 0.99629 0.989466
1.00523 0.996879 0.988838
1.0053 0.998974 0.986756
1.00529 0.998084 0.987473
1.00526 0.997798 0.987783
1.00532 1.00113 0.984605
1.0053 1.00014 0.985441
1.00527 0.99944 0.985817
1.00411 1.00197 0.985814
1.00514 1.00158 0.984508
1.00527 1.00128 0.984568
1.00113 1.00301 0.98982
1.00331 1.00295 0.986197
1.00474 1.00163 0.985013
1.00013 0.999958 0.997815
1.00072 1.00274 0.990842
1.00272 1.00399 0.986574
1.00009 0.999351 0.998082
1.00048 1.00211 0.992047
1.00009 0.998786 0.998305
1.00504 1.00258 0.984197
1.00361 1.001 0.987793
1.00198 1.00361 0.987574
1.00105 1.00348 0.988562
1.00087 1.00502 0.988158
1.00097 1.00493 0.988461
1.00047 1.00508 0.988752
1.00049 1.00463 0.989371
1.0002 1.00125 0.9933
1.00005 0.9981 0.9986
1.00009 1.00046 0.994184
1.00033 1.004 0.990277
1.00005 0.997633 0.998843
1.00015 0.999654 0.99483
1.00009 0.997332 0.998953
0.999972 0.994879 0.944951
0.999813 0.994857 0.873775
0.994682 0.99481 0.813239
1.00145 1.00459 0.987429
1.00314 1.00271 0.987333
1.00278 1.00287 0.988058
1.00462 1.00332 0.983719
1.00518 1.00114 0.984533
1.00352 1.00043 0.986863
1.0004 1.00355 0.989898
1.00442 0.997894 0.988179
1.00196 0.99925 0.992741
1.00383 0.996216 0.990274
1.0041 0.996698 0.9918
1.00274 0.996635 0.993155
1.00252 0.996084 0.993698
0.999657 0.9999 0.995349
0.995923 0.994862 0.965519
0.999061 0.996113 0.937228
0.997997 0.994838 0.884254
0.996222 0.99695 0.930885
0.994931 0.996772 0.968387
0.995477 0.995675 0.973278
0.999237 0.994887 0.992888
1.00042 0.995469 0.998954
0.999087 0.996251 1.00056
0.998769 0.998282 0.991373
0.997271 0.995753 0.966696
1.00009 0.994877 0.94553
0.999798 0.994894 0.865506
0.99616 0.998035 0.98848
0.996745 0.994858 0.962758
0.999892 0.994874 0.936042
1.00001 0.995246 0.988403
0.998547 0.994878 0.97136
1.00289 0.995002 0.990376
1.00319 0.997047 0.985064
1.00221 0.996264 0.990712
1.00446 0.995166 0.991564
1.00518 0.994781 0.990944
1.005 0.996161 0.988931
1.00525 0.994874 0.990301
1.00527 0.994908 0.990497
1.00525 0.995227 0.989844
1.00523 0.994883 0.990469
1.00527 0.994906 0.990535
1.00524 0.995127 0.990303
1.00524 0.994915 0.990596
1.00525 0.994947 0.990636
1.00524 0.995111 0.990526
1.00522 0.995392 0.990404
1.00523 0.996066 0.989834
1.00522 0.996278 0.989464
1.00523 0.996918 0.988826
1.00527 0.998163 0.987691
1.00532 1.00034 0.985431
1.0053 0.999136 0.986542
1.00529 0.998148 0.987452
1.00487 1.00094 0.985574
1.00531 1.00114 0.984645
1.0053 1.00022 0.985314
1.00165 1.00266 0.989199
1.00397 1.00224 0.985813
1.00502 1.00162 0.984549
1.00048 1.00056 0.997343
1.0012 1.00287 0.989815
1.00315 1.0032 0.986195
1.00031 1.00013 0.997623
1.00076 1.0026 0.990847
1.00022 0.999524 0.997911
1.00499 1.00179 0.984461
1.00503 1.0023 0.984395
1.0042 1.00209 0.985524
1.00332 1.00157 0.987669
1.00201 1.00362 0.987373
1.00191 1.0046 0.987386
1.00085 1.00491 0.987981
1.00084 1.00502 0.988466
1.0003 1.00205 0.992368
1.00037 1.00487 0.989337
1.0001 1.00133 0.993329
1.00001 0.998776 0.998334
1.00002 0.998065 0.998677
1.00004 1.00045 0.994208
1.00004 0.997578 0.998876
0.996899 0.99488 0.967101
0.999953 0.994871 0.931647
0.99981 0.994867 0.885469
1.00524 0.999022 0.986328
1.00397 1.00277 0.987526
1.00416 1.00308 0.984307
1.00432 1.00025 0.987117
1.00515 1.00136 0.98449
1.00485 0.998013 0.988123
1.00479 0.999293 0.987798
1.00177 0.998501 0.992867
1.00444 0.996856 0.99012
1.00393 0.996875 0.990917
1.00478 0.996145 0.989657
1.00326 0.994999 0.994243
1.00275 0.996256 0.993218
1.00237 0.996325 0.993744
0.998795 0.994874 0.991278
0.995845 0.99487 0.963898
0.998747 0.99485 0.932375
0.995116 0.996168 0.972212
0.99886 0.994873 0.995566
1.0005 0.995023 0.998465
1.00187 0.995607 0.982133
0.997313 0.995204 0.966891
0.999985 0.994892 0.932243
0.999325 0.995166 0.988717
0.998894 0.994886 0.970615
1.00204 0.994856 0.99088
1.00306 0.996289 0.985904
1.00395 0.994984 0.991209
1.00469 0.997092 0.990884
1.00408 0.995023 0.99157
1.00514 0.994808 0.990837
1.00533 0.994854 0.990432
1.00525 0.994872 0.990253
1.00525 0.994897 0.990495
1.00531 0.994899 0.990468
1.00523 0.994892 0.990448
1.00526 0.994903 0.990545
1.00527 0.9949 0.990671
1.00523 0.994919 0.990588
1.00525 0.99494 0.990624
1.00525 0.995224 0.990514
1.00522 0.995307 0.990436
1.00523 0.995936 0.989959
1.00528 0.997314 0.988621
1.00524 0.996953 0.988815
1.00527 0.998099 0.98776
1.00531 0.999945 0.985961
1.00513 1.00057 0.985547
1.00533 1.00047 0.985289
1.0053 0.999294 0.986329
1.00244 1.00152 0.98907
1.00476 1.00109 0.985582
1.0053 1.00114 0.984686
1.0008 1.00078 0.997011
1.0019 1.00236 0.989189
1.00383 1.00243 0.985816
1.00061 1.00062 0.997204
1.00133 1.00274 0.989812
1.00046 1.00028 0.997447
1.00528 1.00042 0.985196
1.00515 1.00181 0.984356
1.00509 1.0013 0.984937
1.00515 1.00197 0.984591
1.0044 1.00198 0.985479
1.00289 1.00376 0.986572
1.0022 1.0033 0.987173
1.00165 1.00475 0.987399
1.00052 1.00261 0.991352
1.00068 1.00505 0.988467
1.00016 1.0021 0.992394
0.999995 0.999504 0.998031
1 1.00131 0.993358
0.999987 0.998658 0.998433
0.999992 0.997971 0.998745
1.00049 0.994894 0.987076
0.996705 0.994889 0.963601
0.999979 0.994877 0.944747
1.00513 0.997542 0.988123
1.00528 0.997112 0.988357
1.00524 0.998797 0.986593
1.00506 0.99962 0.987365
1.00513 1.00162 0.984448
1.00488 0.997873 0.988406
1.00517 0.995622 0.989383
1.00491 0.99677 0.989974
1.0038 0.99744 0.990039
1.00459 0.996674 0.990072
1.00506 0.995148 0.990756
1.00367 0.995014 0.993051
1.00291 0.995189 0.993931
1.00303 0.995818 0.993294
0.999484 0.994894 0.991364
0.995776 0.994865 0.962443
0.998812 0.994867 0.998365
1.00457 0.994878 0.990819
1.00175 0.996083 0.982264
0.997422 0.994864 0.965258
1.0017 0.994784 0.991346
1.00292 0.995481 0.986766
1.00396 0.994936 0.991874
1.00472 0.996251 0.99099
1.00531 0.994815 0.990899
1.00541 0.994877 0.991141
1.00509 0.994829 0.990732
1.00535 0.994857 0.990404
1.00535 0.994873 0.990494
1.00524 0.994886 0.990493
1.0053 0.9949 0.990492
1.00527 0.9949 0.99066
1.00526 0.9949 0.990555
1.00527 0.9949 0.990666
1.00526 0.994966 0.9908
1.00525 0.994934 0.990612
1.00525 0.995228 0.99049
1.00528 0.996523 0.989327
1.00523 0.995802 0.990083
1.00528 0.997242 0.988672
1.00533 0.999422 0.986443
1.00527 0.998034 0.987829
1.00531 0.999855 0.986069
1.0052 1.00042 0.985595
1.00279 1.00068 0.989259
1.00511 1.00059 0.985554
1.00533 1.0006 0.985147
1.00103 1.00078 0.996829
1.00247 1.00147 0.989061
1.00465 1.00132 0.98559
1.00088 1.00085 0.99692
1.00204 1.00214 0.989178
1.00072 1.00077 0.997071
1.00528 0.998645 0.986898
1.00526 1.00028 0.98539
1.00527 1.00089 0.985035
1.00518 1.00179 0.98425
1.00515 1.00124 0.984936
1.00352 1.00253 0.986445
1.00459 1.00189 0.985438
1.00279 1.00351 0.98657
1.00088 1.00295 0.990299
1.00132 1.00484 0.987413
1.00043 1.00272 0.991386
1.0001 1.00032 0.997679
1.00008 1.00222 0.99242
0.999957 0.999364 0.998148
0.999944 0.998555 0.998525
1.00434 0.994839 0.992183
1.00068 0.994892 0.984877
0.996569 0.994906 0.963043
1.00522 0.996454 0.989273
1.00512 0.997105 0.988429
1.00526 0.99596 0.989616
1.00528 0.997141 0.988325
1.00524 0.998536 0.986853
1.00529 0.994921 0.990058
1.005 0.997917 0.988679
1.00519 0.99594 0.989395
1.00526 0.994839 0.990536
1.00449 0.997042 0.990484
1.00505 0.995212 0.990441
1.00339 0.995067 0.993314
1.00232 0.995619 0.993624
0.999949 0.994912 0.991266
1.00536 0.994886 0.990862
1.00456 0.99579 0.991051
1.00157 0.996541 0.982455
1.00385 0.994801 0.992521
1.00471 0.99547 0.991103
1.0053 0.994809 0.990956
1.00541 0.994897 0.991077
1.00538 0.994873 0.990899
1.00537 0.994863 0.990378
1.00535 0.994878 0.990507
1.00527 0.994904 0.990797
1.0053 0.994903 0.990515
1.00528 0.994904 0.990656
1.00522 0.994902 0.99097
1.00527 0.994899 0.990661
1.00527 0.994953 0.990771
1.00527 0.995808 0.990114
1.00525 0.995233 0.990465
1.00529 0.996556 0.989319
1.00535 0.998891 0.987017
1.00527 0.99717 0.988723
1.00533 0.999427 0.986468
1.00519 1.00039 0.985681
1.00531 0.999769 0.986177
1.0052 1.00044 0.985608
1.00285 1.00029 0.991222
1.00141 1.00024 0.993462
1.00284 1.00067 0.990087
1.00508 1.00063 0.985561
1.00107 1.00079 0.996811
1.0026 1.00127 0.989048
1.00094 1.00089 0.996845
1.00523 0.995851 0.989997
1.00526 0.997437 0.988346
1.00529 0.998633 0.987088
1.00531 1.00028 0.985531
1.00525 1.00016 0.985585
1.00529 1.00092 0.984971
1.0042 1.00135 0.986304
1.00519 1.00121 0.984933
1.00368 1.00209 0.986435
1.00152 1.00276 0.989465
1.00277 1.00326 0.986565
1.00086 1.00306 0.990289
1.00036 1.00091 0.99725
1.00031 1.00275 0.991416
0.999995 1.00005 0.99782
0.999911 0.999231 0.998256
1.00536 0.994836 0.990804
1.00439 0.994794 0.991924
1.00116 0.99486 0.98274
1.00529 0.995292 0.990115
1.00515 0.996425 0.989151
1.00513 0.996687 0.988739
1.00526 0.996123 0.989577
1.00528 0.997177 0.988292
1.00536 0.994833 0.990522
1.0053 0.994936 0.99008
1.00521 0.996227 0.989407
1.00523 0.994841 0.990574
1.00505 0.995255 0.990125
1.00322 0.994896 0.993579
1.00534 0.994914 0.990956
1.00538 0.994885 0.991048
1.00458 0.996481 0.99128
1.0053 0.994805 0.990995
1.00543 0.994903 0.991017
1.00538 0.994874 0.990863
1.00527 0.99493 0.991061
1.00534 0.994883 0.990519
1.00527 0.994907 0.990766
1.00518 0.994931 0.991121
1.00528 0.994907 0.990652
1.00523 0.994903 0.990954
1.00527 0.995282 0.990733
1.00527 0.994941 0.990743
1.00528 0.995833 0.990101
1.00535 0.998393 0.987579
1.0053 0.996589 0.989312
1.00534 0.998896 0.98704
1.00516 1.00033 0.985816
1.00533 0.999432 0.986493
1.00521 1.00036 0.985699
1.00294 1.00006 0.99133
1.0052 1.00044 0.985619
1.00306 1.00018 0.991094
1.00146 0.999963 0.993673
1.00114 1.00052 0.995212
1.00306 1.00061 0.990744
1.00107 1.00082 0.996805
1.00525 0.995139 0.990712
1.00525 0.997074 0.988721
1.00523 0.995715 0.990156
1.00532 0.999539 0.986288
1.00526 0.997493 0.988336
1.00528 0.998612 0.987279
1.00531 1.00032 0.985472
1.00491 1.00043 0.986001
1.0053 1.00095 0.984907
1.00436 1.00108 0.986297
1.00217 1.00192 0.989126
1.00377 1.00171 0.986431
1.00134 1.00292 0.989456
1.0006 1.00128 0.996919
1.0007 1.00321 0.990297
1.0002 1.00077 0.997421
0.999947 0.999897 0.997951
1.00532 0.994896 0.990746
1.00532 0.994836 0.990824
1.00432 0.994786 0.991661
1.00529 0.994862 0.99067
1.00527 0.995353 0.990093
1.00508 0.996402 0.989035
1.00526 0.996288 0.989539
1.00535 0.994841 0.990526
1.00532 0.994951 0.990102
1.00518 0.994843 0.990613
1.00529 0.994957 0.991052
1.00533 0.994915 0.990939
1.00539 0.994897 0.991231
1.00524 0.994955 0.991183
1.00538 0.994873 0.990827
1.00527 0.994932 0.99105
1.00518 0.994953 0.991201
1.00527 0.99491 0.990735
1.00518 0.994929 0.991121
1.00527 0.995011 0.991092
1.00524 0.994904 0.990939
1.00525 0.995298 0.990727
1.00535 0.997962 0.988048
1.00528 0.995859 0.990089
1.00534 0.998399 0.987597
1.00512 1.00021 0.98603
1.00534 0.998901 0.987062
1.00518 1.0003 0.985838
1.00293 1.00008 0.991312
1.00523 1.00033 0.985716
1.0031 0.999997 0.991177
1.00153 0.999854 0.993686
1.00325 1.00007 0.990976
1.00104 1.00013 0.993963
1.00055 1.00086 0.997306
1.00526 0.994919 0.990808
1.00528 0.996229 0.989654
1.00525 0.9952 0.990616
1.00534 0.999168 0.986718
1.00526 0.996762 0.988975
1.00522 0.995574 0.990314
1.0052 1.00007 0.985948
1.00531 0.999537 0.986245
1.00526 0.997548 0.988327
1.00531 1.00035 0.985413
1.00498 1.00035 0.985992
1.00261 1.00101 0.989243
1.00451 1.00079 0.986291
1.00203 1.00212 0.989149
1.00077 1.00132 0.996807
1.0013 1.00305 0.989436
1.00052 1.00115 0.997037
1.00005 1.00055 0.997584
1.00527 0.994909 0.990953
1.00531 0.994897 0.990713
1.0053 0.994833 0.990846
1.0053 0.994866 0.990701
1.00525 0.995414 0.990071
1.00534 0.994849 0.990529
1.00525 0.994966 0.991107
1.00529 0.994952 0.991061
1.00532 0.994917 0.990923
1.00524 0.994955 0.991174
1.00514 0.994951 0.991396
1.00527 0.994933 0.99104
1.00517 0.994952 0.991242
1.00526 0.994935 0.991179
1.00519 0.994928 0.991122
1.00525 0.995008 0.991084
1.00537 0.99759 0.988426
1.00522 0.995305 0.99072
1.00536 0.997957 0.988055
1.00508 0.999993 0.986337
1.00533 0.998405 0.987617
1.00514 1.00018 0.986046
1.00286 1.00019 0.991281
1.0052 1.00027 0.985859
1.00309 1.00003 0.991149
1.00154 0.999897 0.993624
1.00326 0.999941 0.991034
1.00115 0.999902 0.994002
1.00064 1.00031 0.994238
1.00526 0.99491 0.991011
1.00526 0.995603 0.990335
1.00526 0.99491 0.990817
1.00536 0.998306 0.987594
1.00528 0.996301 0.989553
1.00525 0.995264 0.990519
1.00526 0.999952 0.98602
1.00534 0.998824 0.986995
1.00526 0.996456 0.989229
1.00284 1.00028 0.98957
1.0052 1.00004 0.985937
1.00531 0.999539 0.986201
1.00501 1.00028 0.985986
1.00256 1.00111 0.989262
1.00092 1.00107 0.996852
1.00187 1.00231 0.989172
1.00074 1.00124 0.996841
1.00039 1.00107 0.997173
1.00524 0.994956 0.991073
1.00528 0.994913 0.990927
1.00531 0.994897 0.99068
1.00531 0.994869 0.990732
1.00515 0.994965 0.991372
1.00525 0.994962 0.991116
1.00529 0.994947 0.991069
1.00523 0.994955 0.991166
1.00515 0.994952 0.991377
1.00524 0.995314 0.990862
1.00517 0.994952 0.991282
1.00526 0.995142 0.990993
1.00538 0.996929 0.989117
1.00523 0.995013 0.991076
1.00538 0.997586 0.988422
1.00501 0.999769 0.986683
1.00537 0.997968 0.98806
1.0051 0.999972 0.986341
1.00284 1.00024 0.989722
1.00517 1.00016 0.986063
1.00301 1.00015 0.990331
1.00133 0.999968 0.996874
1.00324 0.999991 0.990988
1.0012 0.99988 0.993945
1.0008 0.999941 0.9943
1.00523 0.994954 0.991107
1.00525 0.99544 0.990662
1.00525 0.994919 0.99101
1.00532 0.997694 0.9883
1.00525 0.995763 0.990136
1.00526 0.994901 0.990826
1.00523 0.999607 0.986393
1.00536 0.99829 0.987612
1.00528 0.996368 0.989453
1.00295 0.999872 0.989799
1.00524 0.999805 0.986129
1.00534 0.998475 0.987273
1.00107 1.0006 0.99695
1.00285 1.00025 0.989578
1.00524 1.00001 0.985921
1.00247 1.00119 0.989281
1.00091 1.00103 0.996823
1.00069 1.00119 0.99689
1.00514 0.994972 0.991281
1.00524 0.994958 0.991076
1.00528 0.994918 0.990902
1.00523 0.99536 0.990907
1.00516 0.994965 0.991344
1.00524 0.994957 0.991125
1.00516 0.994954 0.991358
1.00524 0.995353 0.990862
1.00537 0.997106 0.988994
1.00526 0.99536 0.990807
1.00538 0.997304 0.988743
1.00494 0.999255 0.987321
1.0054 0.997568 0.988418
1.00502 0.999757 0.986685
1.00276 1.00015 0.989958
1.00512 0.999954 0.986345
1.00285 1.00022 0.989734
1.00127 1.00002 0.996875
1.00304 1.00014 0.989519
1.00118 0.999974 0.995438
1.00087 0.999839 0.994265
1.00515 0.994968 0.99129
1.00522 0.995323 0.990907
1.00521 0.994955 0.991125
1.00531 0.997887 0.988139
1.00525 0.995375 0.990677
1.00525 0.994929 0.991009
1.00517 0.999541 0.986597
1.00532 0.99804 0.987948
1.00525 0.995922 0.989936
1.00301 0.999778 0.989823
1.00521 0.999594 0.986409
1.00535 0.998275 0.98763
1.00124 1.00019 0.996972
1.00299 0.999827 0.989803
1.00523 0.999656 0.986236
1.0011 1.00062 0.996911
1.00288 1.00023 0.989589
1.00087 1.00103 0.996823
1.00521 0.995411 0.990819
1.00515 0.994971 0.991304
1.00523 0.994961 0.991079
1.00536 0.997101 0.989029
1.00522 0.995391 0.990882
1.00516 0.994963 0.991316
1.00524 0.995383 0.990861
1.00537 0.997119 0.989001
1.00488 0.999087 0.987583
1.00538 0.997671 0.988371
1.00496 0.999409 0.98714
1.00269 1.00003 0.990193
1.00503 0.999743 0.986688
1.00273 1.00017 0.989969
1.00117 1.00003 0.996903
1.00284 1.00021 0.989743
1.00123 1.00003 0.996879
1.00128 0.999943 0.993722
1.0052 0.995567 0.990688
1.00514 0.994965 0.991252
1.00533 0.997667 0.988391
1.00523 0.99525 0.990912
1.0052 0.994955 0.991142
1.00509 0.99978 0.986531
1.00531 0.997897 0.988139
1.00526 0.995311 0.990691
1.00296 0.999894 0.989813
1.00514 0.99971 0.986449
1.00531 0.998391 0.987596
1.00134 0.999969 0.996928
1.00302 0.999776 0.989822
1.00519 0.999575 0.986425
1.00123 1.00022 0.996968
1.00302 0.999789 0.989805
1.0011 1.00063 0.996865
1.00536 0.997188 0.988922
1.0052 0.995433 0.990846
1.00515 0.99497 0.991329
1.00487 0.999036 0.987649
1.00536 0.997106 0.98903
1.00522 0.995409 0.990858
1.00536 0.997142 0.989008
1.00491 0.999071 0.987553
1.00259 0.999969 0.99042
1.00496 0.99956 0.986957
1.00267 1.00004 0.990202
1.00112 1.00002 0.99695
1.00272 1.00018 0.989982
1.00114 1.00005 0.996926
1.0012 1.00004 0.996892
1.00534 0.997483 0.988583
1.00521 0.995326 0.99088
1.00514 0.994963 0.991214
1.005 0.999661 0.986823
1.00532 0.997677 0.988392
1.00525 0.995178 0.990917
1.00286 1.00001 0.989912
1.00506 0.999812 0.986528
1.0053 0.997905 0.98814
1.00132 0.999933 0.996884
1.00297 0.99991 0.989809
1.00512 0.999872 0.9863
1.00133 1.00001 0.996946
1.00303 0.99979 0.989821
1.00127 1.00023 0.996956
1.00489 0.9994 0.987267
1.00535 0.997023 0.989081
1.0052 0.995443 0.990872
1.00255 0.999891 0.990593
1.00488 0.999012 0.987644
1.00536 0.997121 0.989032
1.00493 0.999053 0.987524
1.0026 0.999942 0.990427
1.00106 1.00002 0.99698
1.00265 1.00005 0.99021
1.00109 1.00003 0.996955
1.00109 1.00007 0.996941
1.00494 0.999516 0.987095
1.00534 0.997265 0.988818
1.00522 0.995083 0.991072
1.00285 1.00003 0.991492
1.00497 0.999675 0.986828
1.00531 0.997689 0.988393
1.00123 0.999965 0.996891
1.00286 1.00003 0.989907
1.00503 0.999845 0.986526
1.00134 0.999954 0.9969
1.00297 0.999933 0.989804
1.00134 1.00003 0.99696
1.00265 0.99989 0.990484
1.00489 0.999233 0.987415
1.00535 0.996867 0.989239
1.00098 0.999982 0.997041
1.00254 0.999888 0.990588
1.00489 0.998992 0.98764
1.0026 0.999917 0.990431
1.00103 1.00001 0.997001
1.00107 1.00005 0.996967
1.00283 0.999958 0.99166
1.00492 0.999521 0.987097
1.00534 0.997047 0.989053
1.00066 1.00001 0.997449
1.00273 1.00003 0.990133
1.00495 0.999685 0.986833
1.00126 0.999972 0.996893
1.00286 1.00005 0.9899
1.00135 0.999968 0.996915
1.00097 0.999944 0.994234
1.00267 0.999894 0.991168
1.00488 0.999067 0.987563
1.00101 0.999985 0.997047
1.00255 0.999889 0.99059
1.00105 0.999996 0.997017
1.0005 0.999992 0.994678
1.00273 0.999942 0.991022
1.0049 0.999531 0.987098
1.00088 0.999995 0.995733
1.00273 1.00003 0.99015
1.00129 0.999976 0.996898
1.001 0.99997 0.997039
1.00255 0.999885 0.99058
1.00097 0.999986 0.997044
1.00077 0.999966 0.995863
1.00263 0.999933 0.990427
1.00117 0.999988 0.996926
1.00102 0.999971 0.997045
1.00105 0.999977 0.996996

TENSORS stress float
0.00216903 -0.000148098 0.000251852
-0.000148098 0.00102207 -4.18926e-05
0.000251852 -4.18926e-05 0.000996055
0.00673873 4.31523e-05 0.000284332
4.31523e-05 0.00388961 3.19517e-05
0.000284332 3.19517e-05 0.00389302
0.0018366 -7.90823e-05 0.000106283
-7.90823e-05 0.000812625 -1.66681e-05
0.000106283 -1.66681e-05 0.00077549
0.00218787 -8.43499e-05 0.000243997
-8.43499e-05 0.00100961 -2.43243e-05
0.000243997 -2.43243e-05 0.000993068
0.0022101 -0.000130465 0.000246349
-0.000130465 0.00103744 -3.68236e-05
0.000246349 -3.68236e-05 0.00101495
0.00211873 -0.000150437 0.000260334
-0.000150437 0.000992144 -4.34287e-05
0.000260334 -4.34287e-05 0.000966368
0.00183696 -0.000136054 4.87136e-05
-0.000136054 0.00072454 -1.31651e-05
4.87136e-05 -1.31651e-05 0.000614328
0.00668226 3.32508e-05 -7.41348e-06
3.32508e-05 0.00384521 -1.28569e-06
-7.41348e-06 -1.28569e-06 0.0038532
0.00646697 0.000202767 0.000142788
0.000202767 0.00370519 1.35127e-05
0.000142788 1.35127e-05 0.00368015
0.00643205 -4.33095e-05 7.70203e-05
-4.33095e-05 0.00367362 3.81272e-06
7.70203e-05 3.81272e-06 0.00365319
0.00188428 0.000191272 0.000264017
0.000191272 0.000847604 3.34855e-05
0.000264017 3.34855e-05 0.000839737
0.000462832 0.000251449 2.62258e-05
0.000251449 -9.95086e-05 1.99774e-05
2.62258e-05 1.99774e-05 -0.000231961
0.00178831 -3.3609e-05 0.000240369
-3.3609e-05 0.000758814 3.97881e-06
0.000240369 3.97881e-06 0.000759241
0.00146803 1.54242e-06 6.12397e-05
1.54242e-06 0.000580774 1.76507e-06
6.12397e-05 1.76507e-06 0.000535034
0.00155882 -7.84637e-05 -5.54355e-05
-7.84637e-05 0.000647523 9.67369e-06
-5.54355e-05 9.67369e-06 0.000594961
0.00182867 -8.43006e-05 8.03631e-05
-8.43006e-05 0.000802626 -4.91751e-06
8.03631e-05 -4.91751e-06 0.000768955
0.00185548 -6.64503e-05 0.000115383
-6.64503e-05 0.000830595 -1.78499e-05
0.000115383 -1.78499e-05 0.000789656
0.00184476 -8.73367e-05 9.46465e-05
-8.73367e-05 0.00081097 -1.29096e-05
9.46465e-05 -1.29096e-05 0.000776989
0.00188086 -0.000171035 -4.02994e-05
-0.000171035 0.000749872 5.72556e-06
-4.02994e-05 5.72556e-06 0.000649043
0.00610135 -0.000141466 0.000310869
-0.000141466 0.00348737 -1.30543e-05
0.000310869 -1.30543e-05 0.00350414
0.00212598 -6.18303e-05 0.000242204
-6.18303e-05 0.000970704 -1.80991e-05
0.000242204 -1.80991e-05 0.00095695
0.00222158 -0.000108319 0.000244389
-0.000108319 0.00103611 -3.07749e-05
0.000244389 -3.07749e-05 0.00101715
0.00177949 -0.000136096 6.91625e-05
-0.000136096 0.00068047 -1.05991e-05
6.91625e-05 -1.05991e-05 0.000583844
0.00182549 -0.000142188 5.82202e-05
-0.000142188 0.000707662 -1.26507e-05
5.82202e-05 -1.26507e-05 0.000604982
0.00204873 -0.000127111 0.000259125
-0.000127111 0.000940912 -4.00752e-05
0.000259125 -4.00752e-05 0.000918632
0.00183633 -0.000131779 4.07464e-05
-0.000131779 0.00074094 -1.37822e-05
4.07464e-05 -1.37822e-05 0.000619591
0.00208091 -0.000316216 1.67639e-05
-0.000316216 0.000660622 -7.15982e-06
1.67639e-05 -7.15982e-06 0.000453838
0.00663954 1.863e-05 -0.000282206
1.863e-05 0.00380869 -2.24014e-05
-0.000282206 -2.24014e-05 0.00382149
0.00420335 0.000151401 -0.000143219
0.000151401 0.00228712 -1.592e-05
-0.000143219 -1.592e-05 0.00226493
0.00412196 6.18841e-05 -0.000141123
6.18841e-05 0.00224732 -1.32373e-05
-0.000141123 -1.32373e-05 0.00222586
0.00658332 -3.7916e-05 -3.91405e-06
-3.7916e-05 0.00379479 -3.63112e-07
-3.91405e-06 -3.63112e-07 0.00379842
0.000455992 0.000234522 -1.37624e-06
0.000234522 -0.000101297 -1.09761e-06
-1.37624e-06 -1.09761e-06 -0.000233659
0.00185074 6.82791e-05 0.000249968
6.82791e-05 0.000798428 2.27976e-05
0.000249968 2.27976e-05 0.000785554
0.00197015 0.00015772 0.000255939
0.00015772 0.000906 3.53899e-05
0.000255939 3.53899e-05 0.000881499
0.00282017 0.000207755 0.000153608
0.000207755 0.00132051 2.19436e-05
0.000153608 2.19436e-05 0.0012393
0.00578934 -0.000308713 7.01923e-06
-0.000308713 0.00336818 5.44893e-06
7.01923e-06 5.44893e-06 0.00330907
0.00294671 0.000283902 0.000158164
0.000283902 0.00144068 2.72869e-05
0.000158164 2.72869e-05 0.00134409
0.000453631 0.000218329 2.67054e-05
0.000218329 -0.000100643 2.62894e-05
2.67054e-05 2.62894e-05 -0.000231495
0.000906485 0.00025013 1.30164e-05
0.00025013 3.40978e-05 6.40221e-06
1.30164e-05 6.40221e-06 -0.00018056
0.00457205 -0.000106316 0.000174424
-0.000106316 0.00258365 1.50762e-05
0.000174424 1.50762e-05 0.00258312
0.00608069 8.1541e-05 3.36494e-06
8.1541e-05 0.0034617 -1.81258e-06
3.36494e-06 -1.81258e-06 0.00348562
0.00396783 8.94904e-05 -0.000119742
8.94904e-05 0.00213798 -5.32314e-06
-0.000119742 -5.32314e-06 0.0021263
0.00593567 5.81341e-05 0.00030204
5.81341e-05 0.00337409 4.22786e-06
0.00030204 4.22786e-06 0.00339861
0.00142007 8.74914e-05 6.36146e-05
8.74914e-05 0.000553781 4.25977e-06
6.36146e-05 4.25977e-06 0.000513077
0.000524515 1.13617e-05 1.53022e-05
1.13617e-05 -0.000130931 1.976e-06
1.53022e-05 1.976e-06 -0.000215658
0.00627352 0.000231259 0.000173529
0.000231259 0.00360902 1.6626e-05
0.000173529 1.6626e-05 0.00358357
0.00282129 7.57697e-05 0.000144287
7.57697e-05 0.00129297 9.2173e-06
0.000144287 9.2173e-06 0.00123444
0.00142373 -8.57672e-05 -7.55918e-05
-8.57672e-05 0.000567885 9.58199e-06
-7.55918e-05 9.58199e-06 0.000516392
0.00146764 -0.00010759 -6.82883e-05
-0.00010759 0.000597425 1.16271e-05
-6.82883e-05 1.16271e-05 0.000542439
0.00164344 -3.58165e-05 -4.36889e-05
-3.58165e-05 0.000698864 8.50194e-06
-4.36889e-05 8.50194e-06 0.000645683
0.00192817 -0.000174283 -0.000135689
-0.000174283 0.000771838 2.45225e-05
-0.000135689 2.45225e-05 0.000682019
0.00382157 -1.78257e-05 -0.000121557
-1.78257e-05 0.00205678 -1.76744e-06
-0.000121557 -1.76744e-06 0.00204471
0.00179221 -6.5712e-05 8.52923e-05
-6.5712e-05 0.000776303 -3.94261e-06
8.52923e-05 -3.94261e-06 0.00074663
0.00180956 -4.38978e-05 0.000119732
-4.38978e-05 0.00080512 -1.63671e-05
0.000119732 -1.63671e-05 0.000763044
0.00183815 -8.65023e-05 8.58689e-05
-8.65023e-05 0.000806165 -8.40342e-06
8.58689e-05 -8.40342e-06 0.000773092
0.00185317 -0.000114206 -3.2308e-05
-0.000114206 0.00071592 2.18428e-06
-3.2308e-05 2.18428e-06 0.000630568
0.00188001 -0.00017376 -4.66489e-05
-0.00017376 0.000760603 6.52292e-06
-4.66489e-05 6.52292e-06 0.000652328
0.00188038 -0.000159215 -3.47608e-05
-0.000159215 0.000741485 4.05968e-06
-3.47608e-05 4.05968e-06 0.00064656
0.0020733 -0.000316419 -9.56526e-06
-0.000316419 0.000650988 2.58168e-06
-9.56526e-06 2.58168e-06 0.000444551
0.00592279 8.2368e-06 0.000298016
8.2368e-06 0.00336402 -2.05927e-06
0.000298016 -2.05927e-06 0.0033898
0.00205688 -3.76753e-05 0.000237707
-3.76753e-05 0.000931552 -1.24776e-05
0.000237707 -1.24776e-05 0.000921346
0.00244974 -6.95909e-06 5.0955e-05
-6.95909e-06 0.00108747 -9.92687e-07
5.0955e-05 -9.92687e-07 0.00101966
0.00174614 -0.000110633 6.17221e-05
-0.000110633 0.00065379 -7.03256e-06
6.17221e-05 -7.03256e-06 0.000565361
0.00179137 -0.00014033 6.51664e-05
-0.00014033 0.000686517 -1.20465e-05
6.51664e-05 -1.20465e-05 0.000587461
0.00189725 -0.000203927 1.1015e-05
-0.000203927 0.000473633 -2.84235e-06
1.1015e-05 -2.84235e-06 0.00030997
0.00190548 -0.000277134 1.6351e-05
-0.000277134 0.000511293 -5.3325e-06
1.6351e-05 -5.3325e-06 0.000321842
0.00181881 -8.39901e-05 0.00023473
-8.39901e-05 0.00079914 -3.16517e-05
0.00023473 -3.16517e-05 0.000781485
0.00175274 -9.86297e-05 3.14823e-05
-9.86297e-05 0.000706711 -1.33242e-05
3.14823e-05 -1.33242e-05 0.000583228
0.00210299 -0.000342569 1.69475e-05
-0.000342569 0.000717561 -8.26857e-06
1.69475e-05 -8.26857e-06 0.000496151
0.00165171 -0.000406912 6.1217e-06
-0.000406912 0.000173886 -5.46628e-07
6.1217e-06 -5.46628e-07 -8.02075e-05
0.00682969 0.000259449 -0.000337161
0.000259449 0.00393159 -3.70754e-05
-0.000337161 -3.70754e-05 0.00393676
0.00649062 -6.41348e-05 -0.000253532
-6.41348e-05 0.00373854 -1.79089e-05
-0.000253532 -1.79089e-05 0.00374386
0.00668333 9.63686e-05 -0.000298525
9.63686e-05 0.00382867 -2.70572e-05
-0.000298525 -2.70572e-05 0.00384385
0.000421536 0.000225172 -2.4949e-05
0.000225172 -0.000117039 -2.02907e-05
-2.4949e-05 -2.02907e-05 -0.000251706
0.00673253 0.00023643 -2.33101e-06
0.00023643 0.0038668 -2.35213e-06
-2.33101e-06 -2.35213e-06 0.00387612
0.00684431 0.000207606 -9.04674e-06
0.000207606 0.00393369 -2.86713e-06
-9.04674e-06 -2.86713e-06 0.00394187
0.0003638 0.000130569 3.32317e-07
0.000130569 -0.000216213 -2.82019e-07
3.32317e-07 -2.82019e-07 -0.000328412
0.00361538 -0.000100023 -0.000116202
-0.000100023 0.00197923 -4.27003e-06
-0.000116202 -4.27003e-06 0.00194523
0.000366973 0.000208468 3.11293e-07
0.000208468 -0.000167086 -4.60854e-07
3.11293e-07 -4.60854e-07 -0.00029711
0.00174459 0.000224812 5.62748e-05
0.000224812 0.000709083 3.16265e-06
5.62748e-05 3.16265e-06 0.000600086
0.000842931 0.000243171 3.30547e-07
0.000243171 -3.21569e-08 5.70812e-09
3.30547e-07 5.70812e-09 -0.000212522
0.00551494 -0.000131674 0.000204903
-0.000131674 0.00318326 2.17805e-05
0.000204903 2.17805e-05 0.00317108
0.000594591 4.9291e-05 1.41453e-05
4.9291e-05 4.64533e-05 1.33085e-05
1.41453e-05 1.33085e-05 -2.66809e-05
0.000471615 0.000100755 1.53268e-05
0.000100755 -0.000168017 1.01684e-05
1.53268e-05 1.01684e-05 -0.000274394
0.000486518 0.000159423 1.9767e-05
0.000159423 -0.000126507 1.78515e-05
1.9767e-05 1.78515e-05 -0.000246168
0.00113098 0.000238124 1.49104e-05
0.000238124 2.17392e-06 5.43433e-06
1.49104e-05 5.43433e-06 -0.000193387
0.00297971 0.000200699 0.000141072
0.000200699 0.00149379 1.96827e-05
0.000141072 1.96827e-05 0.00141536
0.000979199 0.000260628 1.454e-05
0.000260628 1.12621e-05 6.66385e-06
1.454e-05 6.66385e-06 -0.000200502
0.000824471 0.00024608 1.21035e-05
0.00024608 7.10349e-05 6.15918e-06
1.21035e-05 6.15918e-06 -0.000148374
0.00120854 0.000393346 1.78605e-06
0.000393346 0.000121137 -1.25184e-06
1.78605e-06 -1.25184e-06 -0.000167411
0.00355048 -0.000122323 0.000108622
-0.000122323 0.00193401 6.53525e-06
0.000108622 6.53525e-06 0.00193313
0.0041575 -0.000162298 2.30296e-05
-0.000162298 0.00233324 -5.41929e-07
2.30296e-05 -5.41929e-07 0.00231996
0.00653378 6.01362e-05 -0.00032028
6.01362e-05 0.00372886 -1.58618e-05
-0.00032028 -1.58618e-05 0.00375147
0.00617909 7.27125e-05 -0.000312718
7.27125e-05 0.00351889 -9.68947e-06
-0.000312718 -9.68947e-06 0.003544
0.0060256 8.37921e-05 -5.16308e-08
8.37921e-05 0.00343518 -3.74883e-06
-5.16308e-08 -3.74883e-06 0.00345644
0.00383941 3.19458e-05 -0.000130802
3.19458e-05 0.00205775 -6.7585e-06
-0.000130802 -6.7585e-06 0.00205134
0.00159946 3.83701e-05 6.21283e-05
3.83701e-05 0.00054083 1.68898e-06
6.21283e-05 1.68898e-06 0.000472995
0.00414769 0.000147844 -0.000122456
0.000147844 0.00225457 -7.23074e-06
-0.000122456 -7.23074e-06 0.00223504
0.00166273 9.23497e-05 6.36648e-05
9.23497e-05 0.000573874 3.12244e-06
6.36648e-05 3.12244e-06 0.000495127
0.00598041 0.000122868 0.000304902
0.000122868 0.00341604 7.23902e-06
0.000304902 7.23902e-06 0.00343222
0.000428143 1.05348e-05 1.85115e-05
1.05348e-05 -0.000185634 9.82745e-07
1.85115e-05 9.82745e-07 -0.000267237
0.00280118 3.91262e-05 0.000141892
3.91262e-05 0.00128355 6.24316e-06
0.000141892 6.24316e-06 0.00123102
0.00111208 6.27146e-05 1.19074e-05
6.27146e-05 -3.41257e-05 8.94881e-07
1.19074e-05 8.94881e-07 -0.000166847
0.00276767 0.000120428 0.000149808
0.000120428 0.00126322 1.22108e-05
0.000149808 1.22108e-05 0.00119809
0.00120422 0.000142648 1.21994e-05
0.000142648 3.82214e-06 1.95582e-06
1.21994e-05 1.95582e-06 -0.000151706
0.00181078 4.24793e-05 -0.000239609
4.24793e-05 0.000771254 2.96905e-06
-0.000239609 2.96905e-06 0.00077342
0.00142134 -1.63079e-05 -6.20211e-05
-1.63079e-05 0.000557964 2.82089e-06
-6.20211e-05 2.82089e-06 0.000512307
0.00165015 7.96797e-07 -3.55576e-05
7.96797e-07 0.000707525 8.12597e-06
-3.55576e-05 8.12597e-06 0.000652762
0.00142086 -0.000100959 -7.64956e-05
-0.000100959 0.000568516 1.15567e-05
-7.64956e-05 1.15567e-05 0.000515482
0.00197665 -9.32134e-05 -0.000129531
-9.32134e-05 0.000782643 1.21454e-05
-0.000129531 1.21454e-05 0.000708598
0.00196892 -0.000146531 -0.000132287
-0.000146531 0.000786076 2.06332e-05
-0.000132287 2.06332e-05 0.000703241
0.00188115 -0.000188417 -0.000139104
-0.000188417 0.000753841 2.64018e-05
-0.000139104 2.64018e-05 0.000657185
0.00203015 -0.000313742 -3.268e-05
-0.000313742 0.00061974 1.11584e-05
-3.268e-05 1.11584e-05 0.000414235
0.00601923 -0.000104543 2.30726e-06
-0.000104543 0.00343585 -1.8558e-06
2.30726e-06 -1.8558e-06 0.00345417
0.00169898 3.05029e-05 9.23232e-05
3.05029e-05 0.000712387 -4.47834e-06
9.23232e-05 -4.47834e-06 0.000691007
0.00115469 -1.01771e-05 -6.52758e-05
-1.01771e-05 0.000269145 1.91686e-06
-6.52758e-05 1.91686e-06 0.000200044
0.0018203 -7.47377e-05 -3.54892e-05
-7.47377e-05 0.000692519 2.82361e-06
-3.54892e-05 2.82361e-06 0.000613493
0.00427501 -3.13687e-05 0.00024191
-3.13687e-05 0.00235129 -1.53874e-05
0.00024191 -1.53874e-05 0.00234354
0.00241973 -0.00017846 -4.19258e-05
-0.00017846 0.00111016 3.49512e-06
-4.19258e-05 3.49512e-06 0.000999154
0.00186853 -0.000138051 -3.19424e-05
-0.000138051 0.000729239 2.87734e-06
-3.19424e-05 2.87734e-06 0.0006397
0.00195809 -0.000204027 -9.99214e-06
-0.000204027 0.000507456 1.8513e-06
-9.99214e-06 1.8513e-06 0.000346739
0.00205225 -0.000342416 -8.285e-06
-0.000342416 0.00068037 2.44767e-06
-8.285e-06 2.44767e-06 0.000458473
0.00198106 -0.000280331 -8.15836e-06
-0.000280331 0.000559153 2.17467e-06
-8.15836e-06 2.17467e-06 0.000368511
0.00169171 -0.0004093 7.28275e-07
-0.0004093 0.00020038 -1.86616e-07
7.28275e-07 -1.86616e-07 -5.3343e-05
0.000468046 9.9251e-06 1.93387e-05
9.9251e-06 -0.000164689 -7.01117e-07
1.93387e-05 -7.01117e-07 -0.000242987
0.00166019 -2.49271e-06 5.22271e-05
-2.49271e-06 0.000591381 -2.73872e-06
5.22271e-05 -2.73872e-06 0.000515396
0.00181057 -6.62616e-05 1.08057e-05
-6.62616e-05 0.000407337 -4.10848e-07
1.08057e-05 -4.10848e-07 0.000287678
0.00181207 -0.000160526 1.08188e-05
-0.000160526 0.000408347 -1.6539e-06
1.08188e-05 -1.6539e-06 0.000261804
0.00187059 -0.000239414 1.38038e-05
-0.000239414 0.000462615 -3.59255e-06
1.38038e-05 -3.59255e-06 0.000289355
0.0018694 -0.000284375 2.52093e-07
-0.000284375 0.00018901 -3.13248e-08
2.52093e-07 -3.13248e-08 1.52615e-05
0.00604477 0.00011416 0.000210109
0.00011416 0.00348576 -1.59987e-05
0.000210109 -1.59987e-05 0.0034791
0.0016589 -0.000375334 4.43142e-06
-0.000375334 0.000130114 -4.26404e-07
4.43142e-06 -4.26404e-07 -9.7841e-05
0.000266792 -0.000174475 2.04757e-05
-0.000174475 -0.000224004 -2.01169e-05
2.04757e-05 -2.01169e-05 -0.000338871
0.000905937 -0.000261774 1.35386e-05
-0.000261774 2.84322e-05 -8.66251e-06
1.35386e-05 -8.66251e-06 -0.000193668
0.00172863 -0.000451905 7.76221e-06
-0.000451905 0.000284025 -1.27111e-06
7.76221e-06 -1.27111e-06 -3.29196e-06
0.00189516 -0.000479864 2.20391e-06
-0.000479864 0.000216515 2.05429e-06
2.20391e-06 2.05429e-06 -2.81839e-05
0.000467753 -0.000138061 2.21353e-05
-0.000138061 -6.15415e-05 -1.60155e-05
2.21353e-05 -1.60155e-05 -0.000158704
0.000506311 -0.000117764 -2.06413e-07
-0.000117764 2.14903e-05 -2.56292e-07
-2.06413e-07 -2.56292e-07 -0.000214896
0.00681387 0.000260189 -0.000346512
0.000260189 0.00392316 -3.53937e-05
-0.000346512 -3.53937e-05 0.00392932
0.00678906 0.000193358 -0.000320359
0.000193358 0.00389746 -3.33683e-05
-0.000320359 -3.33683e-05 0.00390916
0.000371854 0.000129052 -1.84811e-05
0.000129052 -0.000213369 -1.25866e-05
-1.84811e-05 -1.25866e-05 -0.000325957
0.00578443 -0.000137529 -0.000198795
-0.000137529 0.00333327 -1.43627e-05
-0.000198795 -1.43627e-05 0.00332511
0.000360814 0.000196758 -2.32993e-05
0.000196758 -0.000158734 -2.00086e-05
-2.32993e-05 -2.00086e-05 -0.000274736
0.000369226 0.000195948 -2.08513e-05
0.000195948 -0.000164345 -1.84745e-05
-2.08513e-05 -1.84745e-05 -0.000295604
0.000847462 0.000240228 -1.40241e-05
0.000240228 6.80326e-06 -7.09908e-06
-1.40241e-05 -7.09908e-06 -0.000204055
0.00519441 -0.000129296 1.8733e-06
-0.000129296 0.00297444 4.71756e-07
1.8733e-06 4.71756e-07 0.00296735
0.000536481 3.79433e-05 1.37791e-06
3.79433e-05 1.50696e-05 5.00327e-07
1.37791e-06 5.00327e-07 -5.3881e-05
0.00167697 0.000141668 6.54238e-05
0.000141668 0.000588644 5.61775e-06
6.54238e-05 5.61775e-06 0.000497247
0.00166525 0.00020398 6.62601e-05
0.00020398 0.000616096 6.26475e-06
6.62601e-05 6.26475e-06 0.000509977
0.00110055 0.000236691 1.75566e-07
0.000236691 -1.08301e-05 -2.90272e-07
1.75566e-07 -2.90272e-07 -0.000207039
0.000453247 0.000169868 -3.78331e-08
0.000169868 -8.46001e-05 -4.47653e-07
-3.78331e-08 -4.47653e-07 -0.000186797
0.000959871 0.00025558 7.49174e-07
0.00025558 7.84553e-06 5.49221e-08
7.49174e-07 5.49221e-08 -0.000202576
0.000834661 0.000237222 2.19214e-07
0.000237222 6.9712e-05 -7.40993e-07
2.19214e-07 -7.40993e-07 -0.000145396
0.00134156 0.000414002 -2.19374e-07
0.000414002 0.000191522 -3.60853e-07
-2.19374e-07 -3.60853e-07 -0.000100503
0.000421288 0.000119583 1.82143e-05
0.000119583 -7.50363e-05 1.61689e-05
1.82143e-05 1.61689e-05 -0.000170093
0.000720786 1.93184e-06 7.97626e-06
1.93184e-06 0.000133861 1.12184e-05
7.97626e-06 1.12184e-05 8.24638e-05
0.00125734 0.000180242 5.14388e-06
0.000180242 0.000498671 4.95759e-06
5.14388e-06 4.95759e-06 0.000287177
0.00117489 0.000210595 1.34194e-05
0.000210595 -6.64041e-07 4.10183e-06
1.34194e-05 4.10183e-06 -0.000183703
0.00107002 0.000257258 1.53241e-05
0.000257258 7.59032e-06 6.36861e-06
1.53241e-05 6.36861e-06 -0.000198087
0.001851 0.000403074 3.73609e-06
0.000403074 0.000223861 1.51234e-08
3.73609e-06 1.51234e-08 -8.07756e-06
0.000730246 0.000216764 9.34696e-06
0.000216764 6.61176e-05 6.05061e-06
9.34696e-06 6.05061e-06 -0.000146576
0.00170051 0.000456676 3.53711e-06
0.000456676 0.000301552 -5.86426e-07
3.53711e-06 -5.86426e-07 2.06449e-05
0.00102483 0.000359369 8.36342e-07
0.000359369 8.6513e-05 -1.11586e-06
8.36342e-07 -1.11586e-06 -0.000207905
0.00151666 0.000504438 -6.20117e-06
0.000504438 0.000201159 -3.88121e-06
-6.20117e-06 -3.88121e-06 -0.000113567
0.00314626 -0.000131462 6.73861e-05
-0.000131462 0.00167576 3.68796e-06
6.73861e-05 3.68796e-06 0.00167261
0.00347489 -0.000158053 1.34118e-05
-0.000158053 0.00189374 -8.31694e-07
1.34118e-05 -8.31694e-07 0.00188309
0.00390369 -0.000196309 -8.04419e-05
-0.000196309 0.0021796 -5.7159e-06
-8.04419e-05 -5.7159e-06 0.00215734
0.000462034 -0.000118144 2.05013e-05
-0.000118144 -4.86272e-05 -1.44675e-05
2.05013e-05 -1.44675e-05 -0.000131273
0.00543111 0.000159236 0.00017018
0.000159236 0.00313424 -1.66631e-05
0.00017018 -1.66631e-05 0.00311532
0.00672131 0.000219224 -0.000344811
0.000219224 0.00386032 -2.93449e-05
-0.000344811 -2.93449e-05 0.00387253
0.00629515 9.45265e-05 -0.000315651
9.45265e-05 0.00358735 -1.36447e-05
-0.000315651 -1.36447e-05 0.00361093
0.000436928 9.78483e-05 -1.94704e-05
9.78483e-05 -0.000189319 -5.63896e-06
-1.94704e-05 -5.63896e-06 -0.0002845
0.000428792 4.35107e-05 -1.91179e-05
4.35107e-05 -0.000186309 -2.84981e-06
-1.91179e-05 -2.84981e-06 -0.000271842
0.00597163 -6.37816e-06 -0.000299485
-6.37816e-06 0.00339254 -2.57619e-06
-0.000299485 -2.57619e-06 0.00341855
0.00591632 6.51262e-06 -1.48683e-07
6.51262e-06 0.00335949 -9.81747e-07
-1.48683e-07 -9.81747e-07 0.00338556
0.00040972 8.75315e-07 -9.33294e-08
8.75315e-07 -0.000199908 1.34937e-07
-9.33294e-08 1.34937e-07 -0.000279697
0.00159627 3.99699e-05 6.29896e-05
3.99699e-05 0.00053262 2.79809e-06
6.29896e-05 2.79809e-06 0.000462265
0.00108225 6.62891e-05 -8.352e-08
6.62891e-05 -5.61529e-05 -6.41833e-08
-8.352e-08 -6.41833e-08 -0.000189743
0.000399202 8.39783e-05 -5.58639e-07
8.39783e-05 -0.000212649 -4.36928e-07
-5.58639e-07 -4.36928e-07 -0.000314334
0.00113047 0.000142973 -2.51155e-07
0.000142973 -4.21286e-05 -1.5552e-07
-2.51155e-07 -1.5552e-07 -0.000198852
0.000403302 -3.14375e-05 1.91184e-05
-3.14375e-05 -0.000205299 -7.34976e-07
1.91184e-05 -7.34976e-07 -0.000282514
0.00106505 2.70539e-05 1.16159e-05
2.70539e-05 -5.25004e-05 5.03943e-07
1.16159e-05 5.03943e-07 -0.000179992
0.00114369 0.000102509 1.18255e-05
0.000102509 -2.65258e-05 1.42225e-06
1.18255e-05 1.42225e-06 -0.000169142
0.0018339 0.000107037 2.30096e-07
0.000107037 8.54688e-05 -4.21999e-07
2.30096e-07 -4.21999e-07 -2.22017e-05
0.00119868 0.000177834 1.25764e-05
0.000177834 1.83136e-06 2.8046e-06
1.25764e-05 2.8046e-06 -0.00016742
0.00190713 0.000240479 9.08494e-07
0.000240479 0.000138417 -6.556e-07
9.08494e-07 -6.556e-07 -6.44184e-06
0.00593555 -6.58896e-05 -0.000303861
-6.58896e-05 0.00337798 2.94528e-06
-0.000303861 2.94528e-06 0.00340031
0.00135736 -0.000155544 -6.29625e-05
-0.000155544 0.000533969 7.59215e-06
-6.29625e-05 7.59215e-06 0.000484183
-0.000257673 -6.05861e-06 -1.20401e-05
-6.05861e-06 -0.000607882 1.80178e-06
-1.20401e-05 1.80178e-06 -0.000702261
0.00193318 -6.64935e-05 -0.000127637
-6.64935e-05 0.000756018 8.56308e-06
-0.000127637 8.56308e-06 0.000686286
0.00640651 0.000271736 -2.60358e-05
0.000271736 0.00371603 3.9355e-06
-2.60358e-05 3.9355e-06 0.00366436
0.00306249 -0.000264935 -0.000143277
-0.000264935 0.00150786 2.75221e-05
-0.000143277 2.75221e-05 0.00140205
0.00198497 -0.00011936 -0.000130485
-0.00011936 0.000790262 1.62057e-05
-0.000130485 1.62057e-05 0.000712752
0.00199392 -0.00020267 -3.02539e-05
-0.00020267 0.00052554 5.53947e-06
-3.02539e-05 5.53947e-06 0.000368047
0.00202843 -0.000281504 -3.16301e-05
-0.000281504 0.000589078 9.56249e-06
-3.16301e-05 9.56249e-06 0.00039768
0.00202893 -0.00034387 -3.04692e-05
-0.00034387 0.000661246 1.19348e-05
-3.04692e-05 1.19348e-05 0.000438657
0.00173408 -0.000411899 -4.45764e-06
-0.000411899 0.000228407 3.07438e-07
-4.45764e-06 3.07438e-07 -2.49804e-05
0.000407598 4.76487e-06 -4.20198e-08
4.76487e-06 -0.000200221 2.99353e-07
-4.20198e-08 2.99353e-07 -0.000279513
0.00179326 -8.54563e-05 -3.42124e-05
-8.54563e-05 0.000680174 4.74041e-07
-3.42124e-05 4.74041e-07 0.000605809
0.00145068 -6.18681e-05 -1.04007e-05
-6.18681e-05 0.000183067 6.70257e-07
-1.04007e-05 6.70257e-07 5.89895e-05
0.00189625 -0.000161188 -8.82392e-06
-0.000161188 0.000460235 1.39786e-06
-8.82392e-06 1.39786e-06 0.000312568
0.00628098 0.000112914 5.36717e-06
0.000112914 0.00363583 6.61116e-07
5.36717e-06 6.61116e-07 0.00362703
0.00169663 -0.000176834 4.16843e-06
-0.000176834 0.000680663 5.88769e-07
4.16843e-06 5.88769e-07 0.000556155
0.0013754 -0.000296729 1.36559e-06
-0.000296729 0.000322998 -1.0815e-06
1.36559e-06 -1.0815e-06 9.74288e-05
0.00191737 -0.000242432 -8.81455e-06
-0.000242432 0.000491213 2.20252e-06
-8.81455e-06 2.20252e-06 0.000317303
0.00188681 -0.00028783 -6.43527e-07
-0.00028783 0.000195663 3.37285e-08
-6.43527e-07 3.37285e-08 2.7176e-05
0.00172911 -0.000450774 1.13732e-06
-0.000450774 0.000287535 -3.40659e-07
1.13732e-06 -3.40659e-07 1.92349e-06
0.00178644 -0.000380488 6.01164e-07
-0.000380488 0.000212308 -1.6277e-07
6.01164e-07 -1.6277e-07 -1.59055e-05
0.00192856 -0.000480844 7.81982e-07
-0.000480844 0.000242054 6.92283e-08
7.81982e-07 6.92283e-08 -2.42273e-06
0.00047289 -0.000147209 1.87762e-06
-0.000147209 -6.21149e-05 5.71505e-07
1.87762e-06 5.71505e-07 -0.000160362
0.000709891 -0.000155878 6.81665e-07
-0.000155878 0.000131685 1.53947e-07
6.81665e-07 1.53947e-07 -9.24723e-05
0.0010648 -3.04403e-05 1.18166e-05
-3.04403e-05 -4.72909e-05 -5.05273e-07
1.18166e-05 -5.05273e-07 -0.000175243
0.00186478 -0.000110029 9.81061e-06
-0.000110029 0.000441664 -8.84172e-07
9.81061e-06 -8.84172e-07 0.000311301
0.00182967 -0.000111405 -2.01206e-08
-0.000111405 0.000110883 3.12116e-07
-2.01206e-08 3.12116e-07 -5.33427e-06
0.00180017 -0.000232976 -4.58396e-07
-0.000232976 0.000117573 8.65804e-07
-4.58396e-07 8.65804e-07 -2.43826e-05
0.00179689 -0.000339057 8.10142e-07
-0.000339057 0.000171741 4.94189e-07
8.10142e-07 4.94189e-07 -2.48193e-05
0.00207486 -0.000333239 1.84243e-06
-0.000333239 0.000196578 -2.18494e-07
1.84243e-06 -2.18494e-07 5.7086e-05
0.000372886 -0.000159987 2.01499e-05
-0.000159987 -0.000135395 -1.91194e-05
2.01499e-05 -1.91194e-05 -0.000245595
0.00194587 -0.000442625 7.0934e-07
-0.000442625 0.000201995 1.6357e-06
7.0934e-07 1.6357e-06 -3.81831e-06
0.000593685 -0.000229696 9.61396e-06
-0.000229696 -7.78534e-05 -8.14565e-06
9.61396e-06 -8.14565e-06 -0.000296727
0.00141625 -0.000456871 1.02044e-05
-0.000456871 0.000185721 -1.81734e-06
1.02044e-05 -1.81734e-06 -0.00012901
0.00209008 -0.000540831 2.50383e-06
-0.000540831 0.000403526 1.30125e-06
2.50383e-06 1.30125e-06 0.000107473
0.00221004 -0.00051747 -1.82535e-06
-0.00051747 0.000370594 4.28864e-06
-1.82535e-06 4.28864e-06 0.000154693
0.000633444 -0.000206354 1.95078e-06
-0.000206354 6.50836e-05 -3.33455e-06
1.95078e-06 -3.33455e-06 -0.000180056
0.000590344 -0.000114099 6.68141e-07
-0.000114099 7.4369e-05 -1.77839e-06
6.68141e-07 -1.77839e-06 -0.000115109
0.00096461 -0.000269222 -1.46849e-06
-0.000269222 0.00028552 2.60771e-06
-1.46849e-06 2.60771e-06 -3.12571e-06
0.000379463 0.00010638 -1.77036e-05
0.00010638 -0.000220275 -9.62928e-06
-1.77036e-05 -9.62928e-06 -0.000327703
0.00476874 -0.000191485 -0.000133172
-0.000191485 0.00272882 -1.11249e-05
-0.000133172 -1.11249e-05 0.00270627
0.000275963 2.80712e-05 -9.1027e-06
2.80712e-05 -0.000142676 -1.29357e-05
-9.1027e-06 -1.29357e-05 -0.000207001
0.000354343 0.000160702 -1.97116e-05
0.000160702 -0.000200896 -1.57644e-05
-1.97116e-05 -1.57644e-05 -0.000322071
0.00108626 0.000236229 -1.58742e-05
0.000236229 -1.38836e-05 -6.10773e-06
-1.58742e-05 -6.10773e-06 -0.000210756
0.000505832 0.000159146 -2.30709e-05
0.000159146 -5.30474e-05 -1.83007e-05
-2.30709e-05 -1.83007e-05 -0.00015388
0.00061898 0.000218461 -1.06587e-05
0.000218461 -6.51684e-05 -7.51248e-06
-1.06587e-05 -7.51248e-06 -0.000275296
0.000944162 0.000250882 -1.46469e-05
0.000250882 6.60976e-06 -7.09568e-06
-1.46469e-05 -7.09568e-06 -0.000202522
0.00143808 0.000430953 -3.42434e-06
0.000430953 0.000238658 3.42841e-07
-3.42434e-06 3.42841e-07 -5.60321e-05
0.000527258 0.000112573 1.48158e-07
0.000112573 -1.50449e-05 1.17954e-06
1.48158e-07 1.17954e-06 -0.000103598
0.000384745 -1.80103e-05 2.95011e-07
-1.80103e-05 -6.65456e-05 6.29841e-07
2.95011e-07 6.29841e-07 -0.000119699
0.000724277 0.000109568 3.04382e-06
0.000109568 0.000154186 -7.42858e-07
3.04382e-06 -7.42858e-07 -4.12038e-05
0.00114101 0.00021055 -1.08985e-07
0.00021055 -1.66929e-05 -3.0133e-07
-1.08985e-07 -3.0133e-07 -0.000200884
0.00104823 0.000253936 3.57906e-07
0.000253936 2.45268e-06 -1.71598e-07
3.57906e-07 -1.71598e-07 -0.000202971
0.00181863 0.000400919 -2.02396e-07
0.000400919 0.000202232 -1.37492e-07
-2.02396e-07 -1.37492e-07 -2.98774e-05
0.000670984 0.00021807 -3.45458e-07
0.00021807 3.10214e-05 -2.93259e-08
-3.45458e-07 -2.93259e-08 -0.0001805
0.00169834 0.000454682 -2.65348e-07
0.000454682 0.000294646 -3.29429e-07
-2.65348e-07 -3.29429e-07 1.2976e-05
0.00120048 0.000376973 6.78204e-07
0.000376973 0.000199954 -9.85151e-07
6.78204e-07 -9.85151e-07 -9.74204e-05
0.00150422 0.000514648 -4.28002e-07
0.000514648 0.00017727 1.55283e-06
-4.28002e-07 1.55283e-06 -0.000138119
0.000532833 -2.70509e-05 2.13778e-06
-2.70509e-05 2.10443e-05 9.14858e-06
2.13778e-06 9.14858e-06 -2.14047e-05
0.0010327 0.000180763 5.34195e-06
0.000180763 0.000311666 4.00839e-06
5.34195e-06 4.00839e-06 9.39245e-05
0.000953322 6.65239e-05 6.22556e-07
6.65239e-05 0.000285866 6.40567e-06
6.22556e-07 6.40567e-06 0.000139644
0.00115127 0.000187216 1.78009e-06
0.000187216 0.000447061 3.42383e-07
1.78009e-06 3.42383e-07 0.000172488
0.00189984 0.000358449 1.31518e-06
0.000358449 0.000193961 -1.35114e-06
1.31518e-06 -1.35114e-06 -7.18854e-06
0.00176017 0.000435963 4.31291e-06
0.000435963 0.000243312 1.95918e-07
4.31291e-06 1.95918e-07 -1.73779e-05
0.00205342 0.000471924 1.98606e-07
0.000471924 0.000251164 -8.03588e-07
1.98606e-07 -8.03588e-07 2.92182e-05
0.000898311 0.000288049 2.45997e-06
0.000288049 6.15111e-05 1.74976e-06
2.45997e-06 1.74976e-06 -0.000197169
0.00217796 0.000584913 -3.65506e-06
0.000584913 0.000477431 -1.62252e-06
-3.65506e-06 -1.62252e-06 0.000180028
0.00176798 0.000538604 -3.71842e-06
0.000538604 0.000466393 -5.06254e-06
-3.71842e-06 -5.06254e-06 0.000106364
0.00180875 0.000561089 -1.03394e-06
0.000561089 0.000269675 -1.06122e-06
-1.03394e-06 -1.06122e-06 -3.94912e-05
0.000561572 4.25914e-05 2.46574e-06
4.25914e-05 4.71143e-05 4.08054e-06
2.46574e-06 4.08054e-06 -2.4564e-05
0.000479472 -2.22926e-05 1.83064e-06
-2.22926e-05 -2.9678e-05 6.74349e-06
1.83064e-06 6.74349e-06 -5.75682e-05
0.00278823 -0.000121433 4.27589e-05
-0.000121433 0.00144334 3.94008e-06
4.27589e-05 3.94008e-06 0.00144255
0.00300477 -0.000143805 8.22012e-06
-0.000143805 0.00158959 -8.14205e-07
8.22012e-06 -8.14205e-07 0.00158266
0.00329601 -0.000171847 -5.39655e-05
-0.000171847 0.00178441 -3.82382e-06
-5.39655e-05 -3.82382e-06 0.00176925
0.000402716 -9.66309e-05 1.56536e-05
-9.66309e-05 -6.4645e-05 -1.43065e-05
1.56536e-05 -1.43065e-05 -0.000134795
0.00494942 0.000177723 0.00013891
0.000177723 0.00284314 -1.54909e-05
0.00013891 -1.54909e-05 0.00282004
0.000503639 -0.000116702 3.12507e-07
-0.000116702 -2.26075e-05 3.33609e-07
3.12507e-07 3.33609e-07 -0.00011076
0.00568101 0.000137763 3.41574e-06
0.000137763 0.00328242 6.88836e-07
3.41574e-06 6.88836e-07 0.00326759
0.000422747 0.000109366 -1.90903e-05
0.000109366 -0.000195166 -7.58819e-06
-1.90903e-05 -7.58819e-06 -0.000298953
0.000447363 3.50288e-05 -1.8144e-05
3.50288e-05 -0.000182487 -3.56333e-06
-1.8144e-05 -3.56333e-06 -0.000270446
0.00108077 0.000143254 -1.20706e-05
0.000143254 -7.48943e-05 -2.20492e-06
-1.20706e-05 -2.20492e-06 -0.000232636
0.00105731 6.86998e-05 -1.19419e-05
6.86998e-05 -7.49698e-05 -9.43291e-07
-1.19419e-05 -9.43291e-07 -0.000209239
0.000463816 -7.6122e-06 -1.92025e-05
-7.6122e-06 -0.000169503 -9.54987e-07
-1.92025e-05 -9.54987e-07 -0.000247497
0.00600926 -9.97133e-05 -0.000310755
-9.97133e-05 0.00342874 5.34895e-06
-0.000310755 5.34895e-06 0.00344888
0.000450904 -2.21871e-06 8.14265e-08
-2.21871e-06 -0.00017653 -6.61716e-07
8.14265e-08 -6.61716e-07 -0.000253674
0.00105026 3.23847e-05 -8.06708e-08
3.23847e-05 -6.34221e-05 5.01527e-08
-8.06708e-08 5.01527e-08 -0.000191383
0.00111992 0.000104355 -1.97494e-07
0.000104355 -4.42934e-05 -7.43529e-08
-1.97494e-07 -7.43529e-08 -0.000187799
0.00182227 0.00010509 -1.05967e-07
0.00010509 8.41274e-05 2.07337e-07
-1.05967e-07 2.07337e-07 -2.34124e-05
0.00115374 0.000179024 -3.11535e-07
0.000179024 -2.49044e-05 -2.79176e-07
-3.11535e-07 -2.79176e-07 -0.000195664
0.00187609 0.000238917 -1.7986e-07
0.000238917 0.000117717 1.35771e-07
-1.7986e-07 1.35771e-07 -2.73837e-05
0.00104453 -3.41732e-06 1.1646e-05
-3.41732e-06 -5.957e-05 -1.92785e-07
1.1646e-05 -1.92785e-07 -0.000186147
0.00178615 4.98478e-05 7.81046e-07
4.98478e-05 6.16532e-05 -3.77591e-08
7.81046e-07 -3.77591e-08 -3.74938e-05
0.00185577 0.00017098 1.16513e-08
0.00017098 0.000102335 -7.21886e-07
1.16513e-08 -7.21886e-07 -2.0794e-05
0.0019683 0.00013299 3.44215e-06
0.00013299 5.34108e-05 1.11035e-06
3.44215e-06 1.11035e-06 -4.14513e-06
0.00193409 0.000305949 1.37563e-06
0.000305949 0.000169033 -8.33736e-07
1.37563e-06 -8.33736e-07 -2.69917e-06
0.00204598 0.000271479 2.58046e-06
0.000271479 0.000113127 -5.16389e-07
2.58046e-06 -5.16389e-07 6.2918e-06
0.00043549 -2.49154e-06 -1.83609e-05
-2.49154e-06 -0.000179584 8.74903e-07
-1.83609e-05 8.74903e-07 -0.000261081
0.00188895 -4.12496e-05 -0.000125315
-4.12496e-05 0.000730477 5.71748e-06
-0.000125315 5.71748e-06 0.000666274
0.00105213 -5.65896e-05 -1.77946e-05
-5.65896e-05 -6.49665e-05 1.59425e-06
-1.77946e-05 1.59425e-06 -0.000193847
0.00196063 -0.000160935 -2.80973e-05
-0.000160935 0.000499171 4.2094e-06
-2.80973e-05 4.2094e-06 0.000350514
0.0064896 9.25765e-05 -0.000242779
9.25765e-05 0.00375999 2.34662e-05
-0.000242779 2.34662e-05 0.00375314
0.00316999 -0.000249568 -0.000150515
-0.000249568 0.00159162 2.26948e-05
-0.000150515 2.26948e-05 0.00149574
0.00205654 -0.000352707 -2.57149e-05
-0.000352707 0.000746 1.08591e-05
-2.57149e-05 1.08591e-05 0.000512876
0.00194062 -0.000243688 -3.08488e-05
-0.000243688 0.000504617 7.64518e-06
-3.08488e-05 7.64518e-06 0.000330466
0.0019006 -0.000291185 -2.48975e-06
-0.000291185 0.000199298 -3.62506e-07
-2.48975e-06 -3.62506e-07 3.60736e-05
0.00191562 -0.000385794 -3.741e-06
-0.000385794 0.000296102 6.43929e-07
-3.741e-06 6.43929e-07 6.75998e-05
0.00171033 -0.00044805 -6.44072e-06
-0.00044805 0.000277907 4.31399e-07
-6.44072e-06 4.31399e-07 -5.65743e-06
0.00196233 -0.000482356 -4.16174e-07
-0.000482356 0.000266414 -1.98406e-06
-4.16174e-07 -1.98406e-06 2.20025e-05
0.000447713 -0.000153946 -2.01229e-05
-0.000153946 -7.23243e-05 1.74663e-05
-2.01229e-05 1.74663e-05 -0.000176824
0.000726739 -0.000182004 -7.97971e-07
-0.000182004 0.000141387 -4.94075e-08
-7.97971e-07 -4.94075e-08 -8.16316e-05
0.00104109 -2.5334e-05 2.66439e-07
-2.5334e-05 -6.43909e-05 7.02339e-08
2.66439e-07 7.02339e-08 -0.00018979
0.00186657 -0.000110583 -8.9667e-06
-0.000110583 0.000440867 1.05793e-06
-8.9667e-06 1.05793e-06 0.000310715
0.00185025 -0.000108285 5.05308e-08
-0.000108285 0.000121347 -1.54868e-07
5.05308e-08 -1.54868e-07 1.00657e-05
0.00178528 -0.000231932 -2.43895e-06
-0.000231932 0.000114062 7.50053e-07
-2.43895e-06 7.50053e-07 -3.41562e-05
0.000440866 -0.000180845 1.15387e-07
-0.000180845 -9.53321e-05 1.22267e-07
1.15387e-07 1.22267e-07 -0.000206308
0.00080265 -0.000243799 -4.15094e-07
-0.000243799 4.36396e-05 -1.00714e-07
-4.15094e-07 -1.00714e-07 -0.000177952
0.00139333 -0.000452854 1.87492e-06
-0.000452854 0.000177943 -3.8333e-07
1.87492e-06 -3.8333e-07 -0.000137037
0.00184502 -0.000340269 -3.09615e-06
-0.000340269 0.000203846 8.72086e-07
-3.09615e-06 8.72086e-07 4.30258e-06
0.00203902 -0.000334297 2.14398e-06
-0.000334297 0.000164015 -1.0233e-06
2.14398e-06 -1.0233e-06 2.95062e-05
0.00213715 -0.000549399 -6.7825e-07
-0.000549399 0.000428722 -5.46038e-07
-6.7825e-07 -5.46038e-07 0.000133586
0.0019568 -0.000443213 6.09141e-07
-0.000443213 0.000210313 3.22885e-08
6.09141e-07 3.22885e-08 4.36764e-06
0.00207969 -0.000511681 7.18251e-07
-0.000511681 0.000282635 8.57136e-07
7.18251e-07 8.57136e-07 6.62318e-05
0.000641684 -0.000197795 3.4199e-07
-0.000197795 7.10075e-05 -3.81137e-07
3.4199e-07 -3.81137e-07 -0.000170707
0.000440738 -0.000179608 6.75161e-07
-0.000179608 -6.65644e-05 3.55379e-07
6.75161e-07 3.55379e-07 -0.000331628
0.000694463 -0.000133014 7.07057e-07
-0.000133014 0.000142068 2.3352e-08
7.07057e-07 2.3352e-08 -5.45119e-05
0.00180495 -4.96274e-05 4.58013e-08
-4.96274e-05 9.36827e-05 1.49053e-07
4.58013e-08 1.49053e-07 -1.27175e-05
0.00192121 -0.000168822 -2.38644e-06
-0.000168822 0.000177505 9.20077e-07
-2.38644e-06 9.20077e-07 5.46699e-05
0.00196925 -0.000127008 5.2097e-06
-0.000127008 6.65933e-05 -9.23028e-07
5.2097e-06 -9.23028e-07 -7.50138e-07
0.00194435 -0.000272625 4.18922e-07
-0.000272625 7.84559e-05 4.81726e-07
4.18922e-07 4.81726e-07 -2.70274e-05
0.00182353 -0.000392382 -1.0235e-06
-0.000392382 7.56374e-05 1.73737e-06
-1.0235e-06 1.73737e-06 -9.23277e-05
0.00219992 -0.000365691 3.65192e-06
-0.000365691 0.000208433 -1.27734e-06
3.65192e-06 -1.27734e-06 0.000106534
0.000653384 -0.000234677 6.17128e-06
-0.000234677 2.44844e-05 -6.6908e-06
6.17128e-06 -6.6908e-06 -0.000199068
0.00193107 -0.000469787 -7.44441e-07
-0.000469787 0.000137344 1.62404e-06
-7.44441e-07 1.62404e-06 -4.17036e-05
0.00130392 -0.000417232 7.60901e-06
-0.000417232 0.000261045 -3.34168e-06
7.60901e-06 -3.34168e-06 -5.47282e-05
0.0018005 -0.00060328 6.45668e-06
-0.00060328 0.000318567 1.63373e-06
6.45668e-06 1.63373e-06 -4.33178e-05
0.00221604 -0.000580679 3.42672e-06
-0.000580679 0.000430053 4.34291e-06
3.42672e-06 4.34291e-06 0.000149565
0.00226889 -0.000541132 -2.99422e-06
-0.000541132 0.000408169 2.48824e-06
-2.99422e-06 2.48824e-06 0.00020109
0.000436995 -0.000103146 -2.0973e-07
-0.000103146 -9.14869e-06 -6.09439e-06
-2.0973e-07 -6.09439e-06 -0.000169762
0.00114285 -0.000290073 8.76854e-07
-0.000290073 0.000285948 -1.46819e-06
8.76854e-07 -1.46819e-06 3.65103e-05
0.000436516 -0.000180624 6.02298e-07
-0.000180624 3.19944e-05 4.1028e-06
6.02298e-07 4.1028e-06 -0.000278661
0.00169139 -0.000372118 -2.15724e-06
-0.000372118 0.000650778 2.38503e-06
-2.15724e-06 2.38503e-06 0.000357262
0.00111209 0.000211215 -1.43486e-05
0.000211215 -3.04318e-05 -4.66614e-06
-1.43486e-05 -4.66614e-06 -0.000215846
0.000364411 -4.42228e-05 2.69281e-06
-4.42228e-05 -6.43985e-05 -1.17627e-05
2.69281e-06 -1.17627e-05 -0.00012446
0.000411136 9.29383e-05 -1.90508e-05
9.29383e-05 -8.65645e-05 -1.449e-05
-1.90508e-05 -1.449e-05 -0.000168906
-3.52908e-05 8.68489e-05 -1.98584e-06
8.68489e-05 -0.000306048 -5.05889e-06
-1.98584e-06 -5.05889e-06 -0.000502989
0.00100528 0.000249593 -1.57073e-05
0.000249593 -1.55941e-05 -6.87236e-06
-1.57073e-05 -6.87236e-06 -0.000220748
0.00179828 0.000399536 -3.69883e-06
0.000399536 0.000187876 -2.12975e-08
-3.69883e-06 -2.12975e-08 -4.4469e-05
0.000663543 0.000220062 -6.20374e-06
0.000220062 2.62009e-05 -4.4278e-06
-6.20374e-06 -4.4278e-06 -0.000184201
0.00140175 0.000396981 -3.61314e-06
0.000396981 0.000330335 -2.45058e-06
-3.61314e-06 -2.45058e-06 2.95323e-05
0.00170335 0.000453513 -3.65964e-06
0.000453513 0.000292521 1.85141e-07
-3.65964e-06 1.85141e-07 9.90061e-06
0.00146859 0.000520294 2.98789e-06
0.000520294 0.000144625 5.02799e-06
2.98789e-06 5.02799e-06 -0.000170154
0.000466635 -4.19014e-05 -3.6214e-06
-4.19014e-05 -1.24978e-05 8.76155e-07
-3.6214e-06 8.76155e-07 -5.85168e-05
0.000667854 0.000199182 -1.21041e-06
0.000199182 0.000100533 -6.93163e-07
-1.21041e-06 -6.93163e-07 -0.000126934
0.000606807 5.88683e-05 1.70489e-07
5.88683e-05 7.00342e-05 4.12173e-07
1.70489e-07 4.12173e-07 -6.78663e-05
0.000801075 0.000164199 9.18112e-07
0.000164199 0.000219032 -8.70866e-07
9.18112e-07 -8.70866e-07 -4.80216e-05
0.00187824 0.000356762 -1.12318e-06
0.000356762 0.000180801 -9.54365e-07
-1.12318e-06 -9.54365e-07 -2.04809e-05
0.00173391 0.000435123 -2.1519e-07
0.000435123 0.000225683 -1.9563e-07
-2.1519e-07 -1.9563e-07 -3.57087e-05
0.00201937 0.000467868 2.86352e-07
0.000467868 0.000233552 1.98057e-07
2.86352e-07 1.98057e-07 1.23936e-05
0.00104387 0.000303993 2.72816e-06
0.000303993 0.000168458 3.92752e-07
2.72816e-06 3.92752e-07 -9.21854e-05
0.00207073 0.000566533 -1.93373e-07
0.000566533 0.000420178 3.05859e-07
-1.93373e-07 3.05859e-07 0.000124667
0.00152348 0.000517398 -1.11552e-06
0.000517398 0.000313944 -1.75239e-06
-1.11552e-06 -1.75239e-06 -4.467e-05
0.00183801 0.000555234 -4.02729e-06
0.000555234 0.000292887 1.81684e-06
-4.02729e-06 1.81684e-06 -9.54157e-06
0.000529799 -2.92253e-05 1.53694e-06
-2.92253e-05 1.02602e-05 7.80499e-06
1.53694e-06 7.80499e-06 -2.35991e-05
0.000785631 4.9694e-05 2.28188e-06
4.9694e-05 0.000182925 6.14798e-06
2.28188e-06 6.14798e-06 7.50882e-05
0.000754985 0.000234738 1.58587e-06
0.000234738 6.73721e-05 2.24125e-06
1.58587e-06 2.24125e-06 -0.00016972
0.00167456 0.000168076 8.41533e-08
0.000168076 0.000811337 2.34235e-06
8.41533e-08 2.34235e-06 0.000553238
0.00139473 0.000361859 -9.74656e-07
0.000361859 0.000527665 -2.49665e-06
-9.74656e-07 -2.49665e-06 0.000259653
0.00210908 0.000422417 -4.03485e-07
0.000422417 0.000220706 -2.62462e-06
-4.03485e-07 -2.62462e-06 3.75257e-05
0.00201219 0.000526099 -6.25168e-07
0.000526099 0.000296256 -9.59725e-07
-6.25168e-07 -9.59725e-07 3.37584e-05
0.00204849 0.000511894 -1.81039e-06
0.000511894 0.000229638 -8.755e-07
-1.81039e-06 -8.755e-07 1.47415e-05
0.000984154 0.00041772 4.91204e-06
0.00041772 0.000105883 1.65171e-06
4.91204e-06 1.65171e-06 -0.000228883
0.00225494 0.000632679 -2.05396e-06
0.000632679 0.000476072 -9.53114e-07
-2.05396e-06 -9.53114e-07 0.000177816
0.00159802 0.000577042 6.09678e-06
0.000577042 0.000292424 -3.01607e-06
6.09678e-06 -3.01607e-06 -6.57633e-05
0.000599429 3.92488e-05 2.39902e-06
3.92488e-05 6.91197e-05 4.39197e-06
2.39902e-06 4.39197e-06 -8.20205e-06
0.000627984 8.69805e-05 -6.23199e-08
8.69805e-05 0.00012603 2.28465e-06
-6.23199e-08 2.28465e-06 3.33497e-06
0.00058801 5.2276e-05 2.45932e-06
5.2276e-05 6.95694e-05 3.94391e-06
2.45932e-06 3.94391e-06 1.91345e-07
0.000533281 7.52715e-06 -6.44437e-07
7.52715e-06 3.04651e-05 -3.01801e-08
-6.44437e-07 -3.01801e-08 -4.13122e-05
0.00130158 -3.82164e-05 1.3921e-06
-3.82164e-05 0.000484883 3.86148e-06
1.3921e-06 3.86148e-06 0.000463726
0.000897808 -3.41648e-05 3.18256e-07
-3.41648e-05 0.000233921 -1.68028e-07
3.18256e-07 -1.68028e-07 0.000208004
0.0008543 -5.09713e-05 3.21814e-05
-5.09713e-05 0.000212247 9.02522e-06
3.21814e-05 9.02522e-06 0.00021057
0.00274975 -0.000122724 6.79548e-06
-0.000122724 0.00141896 -6.50321e-07
6.79548e-06 -6.50321e-07 0.00141779
0.00292513 -0.000144903 -4.32876e-05
-0.000144903 0.00153986 -3.79443e-06
-4.32876e-05 -3.79443e-06 0.00153255
0.000342164 -5.17671e-05 7.70013e-06
-5.17671e-05 -8.90105e-05 -1.15012e-05
7.70013e-06 -1.15012e-05 -0.000144853
0.00433952 0.000166481 0.000101227
0.000166481 0.00244836 -9.25392e-06
0.000101227 -9.25392e-06 0.00243071
0.00047516 -9.36924e-05 -1.76966e-06
-9.36924e-05 -2.10836e-05 5.17305e-07
-1.76966e-06 5.17305e-07 -9.45953e-05
0.00510379 0.00014742 -1.01517e-05
0.00014742 0.0029302 -1.17648e-06
-1.01517e-05 -1.17648e-06 0.00291389
0.000506277 -0.000122483 -1.98737e-05
-0.000122483 -2.50578e-05 1.52068e-05
-1.98737e-05 1.52068e-05 -0.000114777
0.00590214 0.000142236 -0.000204153
0.000142236 0.00342707 2.30495e-05
-0.000204153 2.30495e-05 0.00340873
0.00110331 0.000179647 -1.29523e-05
0.000179647 -5.44051e-05 -3.3013e-06
-1.29523e-05 -3.3013e-06 -0.000226531
0.00107295 0.000107488 -1.1885e-05
0.000107488 -7.53485e-05 -1.48627e-06
-1.1885e-05 -1.48627e-06 -0.000220075
0.00188231 0.000234818 -2.15182e-06
0.000234818 0.000121949 8.24642e-07
-2.15182e-06 8.24642e-07 -2.26285e-05
0.00180919 0.000103356 -2.86028e-07
0.000103356 8.20831e-05 9.26291e-07
-2.86028e-07 9.26291e-07 -2.53641e-05
0.0010387 3.72201e-05 -1.17178e-05
3.72201e-05 -7.28924e-05 -4.25564e-07
-1.17178e-05 -4.25564e-07 -0.000201337
0.000414778 2.89644e-05 -1.91112e-05
2.89644e-05 -0.000200786 -6.66687e-07
-1.91112e-05 -6.66687e-07 -0.000276618
0.00103631 2.71564e-07 -6.36888e-08
2.71564e-07 -6.5124e-05 -6.87908e-08
-6.36888e-08 -6.87908e-08 -0.000191751
0.00179349 5.06348e-05 -1.11995e-07
5.06348e-05 6.97711e-05 2.19027e-07
-1.11995e-07 2.19027e-07 -2.94148e-05
0.00185696 0.000168196 -5.82232e-08
0.000168196 0.00010505 2.75235e-08
-5.82232e-08 2.75235e-08 -1.77536e-05
0.00197031 0.000131597 -8.88126e-08
0.000131597 4.50283e-05 9.86215e-08
-8.88126e-08 9.86215e-08 -9.63241e-06
0.00190563 0.000302765 -4.25676e-07
0.000302765 0.00015552 -5.26578e-08
-4.25676e-07 -5.26578e-08 -1.5994e-05
0.00202889 0.000269678 -5.42889e-07
0.000269678 0.000105713 1.02098e-07
-5.42889e-07 1.02098e-07 -1.10908e-06
0.00177162 -7.15086e-07 8.35772e-07
-7.15086e-07 6.26103e-05 1.93998e-07
8.35772e-07 1.93998e-07 -3.48122e-05
0.00195931 6.2608e-05 2.82202e-06
6.2608e-05 3.79463e-05 4.94033e-07
2.82202e-06 4.94033e-07 -4.01773e-06
0.00196831 0.000197627 3.22515e-06
0.000197627 5.50432e-05 5.76569e-07
3.22515e-06 5.76569e-07 -2.19219e-05
0.00202112 0.00012329 6.72053e-06
0.00012329 4.25588e-05 1.0129e-06
6.72053e-06 1.0129e-06 1.88425e-05
0.00213454 0.000359836 9.80737e-07
0.000359836 0.000198443 -1.1012e-06
9.80737e-07 -1.1012e-06 5.25682e-05
0.0020393 0.000286029 3.09159e-06
0.000286029 2.95013e-05 1.11583e-06
3.09159e-06 1.11583e-06 -3.70524e-05
0.00101629 -2.14159e-05 -1.21177e-05
-2.14159e-05 -8.21112e-05 5.83078e-07
-1.21177e-05 5.83078e-07 -0.00020506
0.00188937 -0.000111812 -2.75017e-05
-0.000111812 0.000453294 2.99628e-06
-2.75017e-05 2.99628e-06 0.000323272
0.00191546 -0.000103784 -2.23637e-06
-0.000103784 0.000159735 -4.48341e-07
-2.23637e-06 -4.48341e-07 5.3751e-05
0.00177355 -0.000230461 -2.62398e-06
-0.000230461 0.00011304 6.19721e-07
-2.62398e-06 6.19721e-07 -4.13561e-05
0.00055183 -0.000206586 -2.53461e-05
-0.000206586 -2.72141e-05 1.91532e-05
-2.53461e-05 1.91532e-05 -0.000140185
0.000849083 -0.000248088 -1.14759e-05
-0.000248088 7.18366e-05 7.93053e-06
-1.14759e-05 7.93053e-06 -0.000151812
0.00141876 -0.000454916 -5.76297e-06
-0.000454916 0.000198726 1.43188e-06
-5.76297e-06 1.43188e-06 -0.000118069
0.00189454 -0.000341471 -5.27178e-06
-0.000341471 0.000236799 1.09602e-06
-5.27178e-06 1.09602e-06 3.42908e-05
0.00200268 -0.000335408 2.43704e-07
-0.000335408 0.000131037 -1.15556e-06
2.43704e-07 -1.15556e-06 1.49564e-06
0.00196684 -0.00044385 -3.14348e-07
-0.00044385 0.00021767 -1.28191e-06
-3.14348e-07 -1.28191e-06 1.1566e-05
0.00219061 -0.000557522 -2.52819e-06
-0.000557522 0.000460024 -3.53898e-06
-2.52819e-06 -3.53898e-06 0.000166037
0.00193662 -0.000502035 2.79836e-06
-0.000502035 0.000187505 -2.93393e-06
2.79836e-06 -2.93393e-06 -2.81918e-05
0.000849554 -0.000198529 -5.31651e-06
-0.000198529 0.000190759 4.14842e-06
-5.31651e-06 4.14842e-06 -4.18173e-05
0.000223288 -0.00014869 3.71272e-07
-0.00014869 -0.000208997 -1.99607e-06
3.71272e-07 -1.99607e-06 -0.000470298
0.000783811 -0.000155869 -7.15001e-07
-0.000155869 0.000194311 1.66329e-06
-7.15001e-07 1.66329e-06 -4.31476e-06
0.00182457 -4.67252e-05 4.53028e-08
-4.67252e-05 0.000103766 2.52165e-08
4.53028e-08 2.52165e-08 4.12155e-07
0.00188615 -0.000175382 -2.93882e-06
-0.000175382 0.000154303 4.28984e-07
-2.93882e-06 4.28984e-07 3.01021e-05
0.00198094 -0.000124294 2.77371e-06
-0.000124294 6.86677e-05 -4.04189e-07
2.77371e-06 -4.04189e-07 7.61035e-06
0.0019285 -0.000265422 -1.11775e-06
-0.000265422 6.97603e-05 5.10378e-07
-1.11775e-06 5.10378e-07 -3.79324e-05
0.000741108 -0.000237421 7.7314e-07
-0.000237421 7.81254e-05 -3.23622e-07
7.7314e-07 -3.23622e-07 -0.000147768
0.00130682 -0.000421082 -1.0658e-06
-0.000421082 0.000253001 -2.74681e-07
-1.0658e-06 -2.74681e-07 -6.33054e-05
0.0017663 -0.000595777 9.04968e-07
-0.000595777 0.000312887 7.38033e-07
9.04968e-07 7.38033e-07 -5.00923e-05
0.00183011 -0.00039025 -1.37879e-06
-0.00039025 8.53477e-05 1.03745e-06
-1.37879e-06 1.03745e-06 -8.79512e-05
0.002123 -0.000365054 1.03703e-06
-0.000365054 0.000152332 -4.16565e-07
1.03703e-06 -4.16565e-07 5.43638e-05
0.00209854 -0.000578188 -2.9015e-07
-0.000578188 0.000346687 5.52847e-07
-2.9015e-07 5.52847e-07 6.43451e-05
0.00196523 -0.000471337 -1.76722e-07
-0.000471337 0.000157828 6.22627e-07
-1.76722e-07 6.22627e-07 -2.16717e-05
0.00220133 -0.000526227 8.76142e-07
-0.000526227 0.000357012 -6.1329e-07
8.76142e-07 -6.1329e-07 0.000156267
0.00106754 -0.000288248 -3.10874e-07
-0.000288248 0.000247699 9.89551e-07
-3.10874e-07 9.89551e-07 -1.04557e-05
0.00121025 -0.000330373 -6.81499e-07
-0.000330373 0.000348061 1.71145e-06
-6.81499e-07 1.71145e-06 5.6368e-05
0.000677195 -0.000118289 -4.10814e-07
-0.000118289 0.000139695 -5.6096e-07
-4.10814e-07 -5.6096e-07 -2.71871e-05
0.000109647 -0.000104777 7.76911e-07
-0.000104777 -0.000191976 -2.20634e-06
7.76911e-07 -2.20634e-06 -0.000477495
0.00198483 -6.43593e-05 4.20902e-06
-6.43593e-05 7.12838e-05 -8.36419e-07
4.20902e-06 -8.36419e-07 2.09885e-05
0.00191324 -0.000201917 3.14924e-06
-0.000201917 2.71458e-05 -7.732e-07
3.14924e-06 -7.732e-07 -5.83784e-05
0.00196688 -0.000117776 6.78338e-06
-0.000117776 4.32836e-05 -1.25554e-06
6.78338e-06 -1.25554e-06 1.87616e-05
0.00206393 -0.000297098 1.21407e-06
-0.000297098 5.91253e-05 -7.11043e-07
1.21407e-06 -7.11043e-07 5.5925e-06
0.00188698 -0.000420056 -9.4838e-07
-0.000420056 6.39606e-05 2.35438e-07
-9.4838e-07 2.35438e-07 -7.7432e-05
0.00207992 -0.000375913 4.4022e-06
-0.000375913 8.90697e-05 -1.56044e-06
4.4022e-06 -1.56044e-06 1.29266e-05
0.00130624 -0.000363744 5.48636e-06
-0.000363744 0.00034705 -5.12162e-06
5.48636e-06 -5.12162e-06 5.93562e-05
0.00196082 -0.000497736 -2.97947e-06
-0.000497736 0.000133407 2.53156e-08
-2.97947e-06 2.53156e-08 -2.79668e-05
0.00153581 -0.000586156 -1.016e-06
-0.000586156 0.000328168 2.41385e-06
-1.016e-06 2.41385e-06 -6.44228e-05
0.00199203 -0.000666103 4.87672e-06
-0.000666103 0.000390435 2.79862e-06
4.87672e-06 2.79862e-06 1.71336e-05
0.0020524 -0.000587267 -4.77743e-07
-0.000587267 0.000272605 4.73638e-06
-4.77743e-07 4.73638e-06 -7.04794e-07
0.00228918 -0.000558033 -9.37378e-06
-0.000558033 0.000382919 -1.80156e-06
-9.37378e-06 -1.80156e-06 0.000173249
0.000499919 -0.000102022 -1.17085e-06
-0.000102022 2.91008e-05 -6.77457e-06
-1.17085e-06 -6.77457e-06 -0.000102628
9.20992e-05 -0.000129125 -3.83894e-06
-0.000129125 -0.000137673 -1.24421e-06
-3.83894e-06 -1.24421e-06 -0.000422343
0.00140137 -0.000398925 5.09648e-07
-0.000398925 0.000429153 -3.54284e-06
5.09648e-07 -3.54284e-06 0.000120267
0.00213853 -0.000367942 -2.85522e-06
-0.000367942 0.00101777 7.80994e-06
-2.85522e-06 7.80994e-06 0.000700835
0.00169957 -0.000422089 -9.67567e-06
-0.000422089 0.000648966 5.43149e-06
-9.67567e-06 5.43149e-06 0.000307541
0.000323245 -4.74582e-05 -4.62845e-07
-4.74582e-05 -0.000100724 -8.68831e-06
-4.62845e-07 -8.68831e-06 -0.000145786
0.00184299 0.000353966 -3.25447e-06
0.000353966 0.000159676 -3.73043e-07
-3.25447e-06 -3.73043e-07 -4.16073e-05
0.000323253 2.62975e-05 -8.90463e-07
2.62975e-05 -9.91617e-05 -6.00172e-06
-8.90463e-07 -6.00172e-06 -0.000231616
0.000448093 0.000192838 -6.23232e-06
0.000192838 -5.62873e-05 -2.06953e-06
-6.23232e-06 -2.06953e-06 -0.000271672
0.000479211 0.00015094 -1.71278e-07
0.00015094 5.5684e-06 1.75807e-07
-1.71278e-07 1.75807e-07 -0.000252726
0.00171073 0.00043462 -4.34535e-06
0.00043462 0.000209867 -2.74923e-07
-4.34535e-06 -2.74923e-07 -5.22947e-05
0.00198762 0.000464121 1.02163e-06
0.000464121 0.000217014 1.34536e-06
1.02163e-06 1.34536e-06 -3.42557e-06
0.00142379 0.000351424 -2.63667e-06
0.000351424 0.00042297 -3.33791e-06
-2.63667e-06 -3.33791e-06 0.000150565
0.00136477 0.000511519 3.39801e-07
0.000511519 0.000206191 2.10506e-06
3.39801e-07 2.10506e-06 -0.000155697
0.00196389 0.0005479 1.85263e-06
0.0005479 0.000361909 2.67742e-06
1.85263e-06 2.67742e-06 6.8426e-05
0.00191568 0.000558554 2.81341e-06
0.000558554 0.000343854 8.15232e-06
2.81341e-06 8.15232e-06 4.52499e-05
0.000465441 -2.58114e-05 -9.20425e-07
-2.58114e-05 -2.96912e-05 2.67975e-07
-9.20425e-07 2.67975e-07 -6.2759e-05
0.000607405 3.4658e-05 1.60599e-07
3.4658e-05 7.65329e-05 3.01263e-07
1.60599e-07 3.01263e-07 -2.87785e-05
0.00100329 0.000269111 7.06506e-07
0.000269111 0.000221779 1.42928e-06
7.06506e-07 1.42928e-06 -1.78994e-05
0.000701528 0.000104878 -1.62649e-07
0.000104878 0.000198277 -8.20713e-07
-1.62649e-07 -8.20713e-07 -4.50993e-05
0.000757724 0.000267275 -1.04557e-06
0.000267275 9.61423e-05 1.64111e-06
-1.04557e-06 1.64111e-06 -0.00013758
0.00207932 0.000421095 -1.54243e-06
0.000421095 0.000202237 -1.70424e-06
-1.54243e-06 -1.70424e-06 1.91642e-05
0.00197892 0.000523073 5.76021e-07
0.000523073 0.000277351 1.8373e-07
5.76021e-07 1.8373e-07 1.53967e-05
0.00198787 0.000508401 1.70149e-06
0.000508401 0.000193898 1.52774e-07
1.70149e-06 1.52774e-07 -2.09049e-05
0.00136428 0.000456708 2.39749e-06
0.000456708 0.000351778 6.37838e-07
2.39749e-06 6.37838e-07 6.03513e-06
0.00213574 0.000618672 2.1731e-06
0.000618672 0.000390023 3.21793e-07
2.1731e-06 3.21793e-07 9.2692e-05
0.00193249 0.000610036 -3.23067e-06
0.000610036 0.000500608 -4.40997e-08
-3.23067e-06 -4.40997e-08 0.000137765
0.000645235 3.56908e-05 8.85747e-07
3.56908e-05 9.80467e-05 4.94543e-06
8.85747e-07 4.94543e-06 9.91826e-06
0.00145422 0.000173911 5.49198e-07
0.000173911 0.0006579 2.68355e-06
5.49198e-07 2.68355e-06 0.000468093
0.000953277 0.000334366 -2.54283e-06
0.000334366 0.000142891 4.46047e-06
-2.54283e-06 4.46047e-06 -0.000125168
0.00142751 0.000205825 1.26128e-06
0.000205825 0.0006384 -3.69762e-06
1.26128e-06 -3.69762e-06 0.000358746
0.0019377 0.000306461 -4.77029e-06
0.000306461 0.000739604 5.99188e-07
-4.77029e-06 5.99188e-07 0.000522547
0.00205955 0.000441335 -4.05387e-06
0.000441335 0.000169726 -2.21818e-06
-4.05387e-06 -2.21818e-06 9.17711e-07
0.00204139 0.000576309 -1.06107e-06
0.000576309 0.000278687 -2.39203e-07
-1.06107e-06 -2.39203e-07 1.7519e-05
0.00188263 0.00055129 6.20311e-06
0.00055129 8.84494e-05 1.33538e-07
6.20311e-06 1.33538e-07 -0.000132662
0.00125759 0.000526776 8.85224e-06
0.000526776 0.000299334 -2.05363e-06
8.85224e-06 -2.05363e-06 -9.24391e-05
0.00158211 0.000603554 1.08461e-05
0.000603554 0.000178745 -7.0595e-07
1.08461e-05 -7.0595e-07 -0.000151646
0.00057249 3.26032e-05 -3.50642e-07
3.26032e-05 4.96177e-05 2.06861e-07
-3.50642e-07 2.06861e-07 -2.58856e-05
0.000356852 5.60721e-05 5.07568e-07
5.60721e-05 -6.10361e-05 2.58793e-06
5.07568e-07 2.58793e-06 -0.000176191
0.000375883 5.42547e-05 -5.90062e-07
5.42547e-05 -4.73153e-05 -2.53173e-07
-5.90062e-07 -2.53173e-07 -0.000156072
0.00101457 0.000151335 -1.451e-06
0.000151335 0.000370395 -1.07779e-06
-1.451e-06 -1.07779e-06 0.000230084
0.000684948 0.000112404 1.80954e-06
0.000112404 0.000164697 2.59835e-06
1.80954e-06 2.59835e-06 4.56257e-05
0.000544259 6.14008e-05 2.68981e-06
6.14008e-05 4.79935e-05 3.59397e-06
2.68981e-06 3.59397e-06 -2.04796e-05
0.000531661 1.36351e-05 -6.77249e-07
1.36351e-05 3.43977e-05 -4.39048e-08
-6.77249e-07 -4.39048e-08 -3.44385e-05
0.00127175 -2.33499e-05 1.24335e-06
-2.33499e-05 0.000464955 3.48854e-06
1.24335e-06 3.48854e-06 0.000446811
0.000550274 2.25015e-05 -1.72946e-06
2.25015e-05 3.59135e-05 -4.17525e-06
-1.72946e-06 -4.17525e-06 -3.25703e-05
0.00133382 -3.32559e-05 -7.88512e-06
-3.32559e-05 0.00050458 -1.55589e-06
-7.88512e-06 -1.55589e-06 0.000484741
0.000802096 -3.70472e-05 3.20644e-05
-3.70472e-05 0.000171566 8.92236e-06
3.20644e-05 8.92236e-06 0.00017441
0.00136033 -4.08124e-05 -1.40179e-05
-4.08124e-05 0.000525804 -5.22327e-06
-1.40179e-05 -5.22327e-06 0.000503
0.00170139 -7.5416e-05 3.10691e-05
-7.5416e-05 0.000747908 1.54082e-06
3.10691e-05 1.54082e-06 0.000749025
0.00265983 -0.000118319 -3.75351e-05
-0.000118319 0.001361 -4.15526e-06
-3.75351e-05 -4.15526e-06 0.00136087
0.000305105 8.14232e-05 -6.68852e-06
8.14232e-05 -8.398e-05 -9.46143e-06
-6.68852e-06 -9.46143e-06 -0.000140731
0.000445718 -3.47199e-05 -3.56572e-08
-3.47199e-05 -1.96703e-05 7.58781e-07
-3.56572e-08 7.58781e-07 -8.11389e-05
0.00349901 0.000182857 1.22022e-05
0.000182857 0.00191558 -7.02405e-06
1.22022e-05 -7.02405e-06 0.001894
0.00450513 0.000130855 -1.51733e-05
0.000130855 0.00254705 -1.35815e-06
-1.51733e-05 -1.35815e-06 0.00253747
0.000630267 -9.60118e-05 -1.54033e-05
-9.60118e-05 7.15086e-05 1.35034e-05
-1.54033e-05 1.35034e-05 -5.07531e-06
0.00535456 0.000131341 -0.000178766
0.000131341 0.00308383 2.0245e-05
-0.000178766 2.0245e-05 0.00307006
0.00187628 0.000300001 -2.39192e-06
0.000300001 0.000140398 7.84433e-07
-2.39192e-06 7.84433e-07 -3.10104e-05
0.00182432 0.000167655 -8.15765e-07
0.000167655 8.54619e-05 7.72059e-07
-8.15765e-07 7.72059e-07 -3.76978e-05
0.00200425 0.000269009 -2.35279e-06
0.000269009 9.22789e-05 1.04584e-06
-2.35279e-06 1.04584e-06 -1.48201e-05
0.00197378 0.000130042 -3.20816e-06
0.000130042 3.72118e-05 -4.02547e-07
-3.20816e-06 -4.02547e-07 -1.45817e-05
0.00180057 5.26784e-05 -6.79494e-07
5.26784e-05 7.85379e-05 4.94301e-07
-6.79494e-07 4.94301e-07 -2.0701e-05
0.00103753 5.0744e-06 -1.13425e-05
5.0744e-06 -6.44693e-05 -4.0859e-08
-1.13425e-05 -4.0859e-08 -0.000191045
0.00178436 2.76803e-06 7.17296e-08
2.76803e-06 7.19515e-05 1.91068e-07
7.17296e-08 1.91068e-07 -2.55286e-05
0.00195362 5.39405e-05 -6.57875e-07
5.39405e-05 3.61941e-05 -8.71625e-09
-6.57875e-07 -8.71625e-09 -5.93243e-06
0.00198906 0.00019787 -4.34567e-07
0.00019787 6.69586e-05 3.80637e-07
-4.34567e-07 3.80637e-07 -1.01787e-05
0.00198099 0.000121028 3.69854e-07
0.000121028 1.10104e-05 -7.4546e-08
3.69854e-07 -7.4546e-08 -7.31276e-06
0.00209273 0.000359689 -4.31119e-07
0.000359689 0.000165327 -1.05055e-07
-4.31119e-07 -1.05055e-07 1.92672e-05
0.00202603 0.000279861 1.16509e-07
0.000279861 2.27061e-05 3.09828e-07
1.16509e-07 3.09828e-07 -4.22345e-05
0.00194997 -5.11178e-06 3.66199e-06
-5.11178e-06 4.08758e-05 -1.99835e-07
3.66199e-06 -1.99835e-07 -3.2034e-06
0.00198077 5.21346e-05 5.88162e-06
5.21346e-05 3.09498e-05 1.69226e-07
5.88162e-06 1.69226e-07 1.79955e-05
0.00204162 0.000196788 3.28965e-06
0.000196788 2.70502e-05 7.69095e-07
3.28965e-06 7.69095e-07 -2.40202e-06
0.00207128 0.000122663 3.22339e-06
0.000122663 1.74581e-05 3.58261e-07
3.22339e-06 3.58261e-07 2.15828e-05
0.00199235 0.000351723 1.37353e-06
0.000351723 6.23589e-05 -1.36665e-07
1.37353e-06 -1.36665e-07 -5.67029e-05
0.00221387 0.000287726 3.50613e-06
0.000287726 7.90138e-05 1.2724e-06
3.50613e-06 1.2724e-06 4.8315e-05
0.00183701 -4.38215e-05 -1.54341e-06
-4.38215e-05 0.00011015 -4.03876e-07
-1.54341e-06 -4.03876e-07 9.8674e-06
0.00187167 -0.000180573 -3.41602e-06
-0.000180573 0.000143248 1.24569e-08
-3.41602e-06 1.24569e-08 1.80464e-05
0.00196836 -0.000122353 -3.96066e-07
-0.000122353 5.53618e-05 2.35994e-07
-3.96066e-07 2.35994e-07 4.33139e-07
0.00190659 -0.000258654 -2.25128e-06
-0.000258654 5.8434e-05 3.96645e-07
-2.25128e-06 3.96645e-07 -5.15656e-05
0.000776134 -0.000236882 -9.14379e-06
-0.000236882 9.69939e-05 7.7922e-06
-9.14379e-06 7.7922e-06 -0.000130171
0.00129598 -0.000421165 -7.82048e-06
-0.000421165 0.000239687 2.18878e-06
-7.82048e-06 2.18878e-06 -7.58046e-05
0.00159079 -0.000573738 1.23138e-06
-0.000573738 0.000222897 -1.60917e-06
1.23138e-06 -1.60917e-06 -0.00013884
0.00183963 -0.000388144 -1.20231e-06
-0.000388144 9.71268e-05 8.08762e-09
-1.20231e-06 8.08762e-09 -8.14998e-05
0.0020435 -0.000363524 -1.02441e-06
-0.000363524 9.47483e-05 5.69929e-07
-1.02441e-06 5.69929e-07 1.12438e-06
0.00200201 -0.000473068 3.18957e-07
-0.000473068 0.000180412 -3.6355e-07
3.18957e-07 -3.6355e-07 4.13959e-07
0.00196837 -0.000578188 -2.18162e-06
-0.000578188 0.000255104 -3.76251e-06
-2.18162e-06 -3.76251e-06 -3.01972e-05
0.00207781 -0.000513005 8.42582e-06
-0.000513005 0.000277508 -4.46807e-06
8.42582e-06 -4.46807e-06 8.17154e-05
0.00082153 -0.000262776 -1.08726e-06
-0.000262776 0.000104811 2.21539e-06
-1.08726e-06 2.21539e-06 -0.000155951
0.00056997 -0.000245495 1.79045e-06
-0.000245495 -7.55768e-05 -1.97494e-07
1.79045e-06 -1.97494e-07 -0.000347956
0.000966658 -0.000128237 -7.49422e-07
-0.000128237 0.000315878 5.52181e-06
-7.49422e-07 5.52181e-06 0.000144773
1.05852e-06 -6.82759e-05 2.00816e-06
-6.82759e-05 -0.000279184 -5.0852e-06
2.00816e-06 -5.0852e-06 -0.000541814
0.00198488 -6.41457e-05 -2.36254e-07
-6.41457e-05 7.27802e-05 1.23087e-07
-2.36254e-07 1.23087e-07 2.23438e-05
0.00194447 -0.000202124 2.93849e-06
-0.000202124 5.37173e-05 -8.7911e-07
2.93849e-06 -8.7911e-07 -3.25037e-05
0.00194668 -0.000116625 9.29043e-07
-0.000116625 2.51466e-05 -2.29931e-07
9.29043e-07 -2.29931e-07 2.12889e-06
0.00205839 -0.000295453 -1.02056e-06
-0.000295453 6.24673e-05 2.56864e-07
-1.02056e-06 2.56864e-07 4.65095e-06
0.00113504 -0.000335976 -2.54049e-06
-0.000335976 0.000228089 1.28096e-07
-2.54049e-06 1.28096e-07 -5.11329e-05
0.00145619 -0.000565451 2.11494e-06
-0.000565451 0.000292792 -5.76969e-07
2.11494e-06 -5.76969e-07 -9.35919e-05
0.00189647 -0.000667683 -2.6567e-07
-0.000667683 0.000328417 3.79893e-07
-2.6567e-07 3.79893e-07 -5.00183e-05
0.00191878 -0.000417995 -1.23589e-06
-0.000417995 9.12875e-05 6.31721e-07
-1.23589e-06 6.31721e-07 -5.37629e-05
0.00204392 -0.000376341 1.24475e-06
-0.000376341 6.73599e-05 -1.43869e-07
1.24475e-06 -1.43869e-07 -5.04233e-06
0.00201605 -0.000587605 -2.47029e-07
-0.000587605 0.000274317 3.84142e-07
-2.47029e-07 3.84142e-07 -7.95338e-07
0.00192213 -0.000496981 -9.60294e-07
-0.000496981 0.000103472 9.51792e-07
-9.60294e-07 9.51792e-07 -5.90322e-05
0.002156 -0.000542298 3.52708e-06
-0.000542298 0.000296764 -4.90434e-06
3.52708e-06 -4.90434e-06 9.45046e-05
0.00126658 -0.000382817 -9.73002e-07
-0.000382817 0.000345325 -8.10627e-08
-9.73002e-07 -8.10627e-08 4.07072e-05
0.00162661 -0.00040946 -8.82838e-07
-0.00040946 0.000582867 1.62598e-06
-8.82838e-07 1.62598e-06 0.000249367
0.00112703 -0.000277163 6.82998e-07
-0.000277163 0.000380265 -2.61227e-07
6.82998e-07 -2.61227e-07 7.68291e-05
0.000306649 -7.2207e-05 -2.2598e-06
-7.2207e-05 -9.30901e-05 9.28026e-07
-2.2598e-06 9.28026e-07 -0.000225143
2.47926e-05 -7.625e-05 -7.79068e-07
-7.625e-05 -0.000198084 -8.62515e-07
-7.79068e-07 -8.62515e-07 -0.000462752
0.00191621 -6.31494e-05 5.10334e-06
-6.31494e-05 -9.4587e-06 -4.78162e-07
5.10334e-06 -4.78162e-07 -1.99843e-05
0.00199005 -0.000179902 4.057e-06
-0.000179902 1.18554e-05 -1.09556e-06
4.057e-06 -1.09556e-06 -1.09007e-05
0.0021047 -0.000345668 9.2637e-07
-0.000345668 2.14606e-05 -5.12882e-07
9.2637e-07 -5.12882e-07 -9.67649e-06
0.00205803 -0.000437753 2.21941e-06
-0.000437753 0.000101634 -1.81459e-06
2.21941e-06 -1.81459e-06 7.65698e-06
0.00148049 -0.000478085 1.40643e-06
-0.000478085 0.000433365 -2.10425e-06
1.40643e-06 -2.10425e-06 7.6266e-05
0.00222576 -0.00059883 -3.66567e-06
-0.00059883 0.000201395 -4.93165e-06
-3.66567e-06 -4.93165e-06 1.74746e-05
0.0012111 -0.000624774 -1.24656e-05
-0.000624774 0.000127178 5.61917e-06
-1.24656e-05 5.61917e-06 -0.000290917
0.00201917 -0.000731015 3.04472e-06
-0.000731015 0.000362817 5.74921e-07
3.04472e-06 5.74921e-07 -2.90445e-05
0.0018185 -0.000552294 -1.28365e-05
-0.000552294 0.000147491 9.50833e-07
-1.28365e-05 9.50833e-07 -0.000111222
1.55175e-05 -9.65668e-06 -2.84751e-06
-9.65668e-06 -0.000261349 -6.22104e-06
-2.84751e-06 -6.22104e-06 -0.00036514
0.000813924 -0.000145015 -2.23208e-06
-0.000145015 0.000301404 -6.58073e-07
-2.23208e-06 -6.58073e-07 7.23405e-05
0.000995666 -0.00020272 -1.84376e-06
-0.00020272 0.000396546 -3.76814e-06
-1.84376e-06 -3.76814e-06 0.000110876
0.00162112 -0.000469125 -8.12836e-06
-0.000469125 0.000553505 1.99858e-06
-8.12836e-06 1.99858e-06 0.000195509
0.00162308 -0.000312873 -2.37134e-06
-0.000312873 0.000633649 1.02108e-05
-2.37134e-06 1.02108e-05 0.000316833
0.00097764 -0.000385668 -9.52896e-06
-0.000385668 0.000148185 1.4672e-05
-9.52896e-06 1.4672e-05 -0.000195954
0.000413422 -2.3773e-05 -2.21791e-06
-2.3773e-05 -6.21155e-05 -7.06067e-06
-2.21791e-06 -7.06067e-06 -9.44802e-05
0.000559874 2.47821e-05 -6.72102e-07
2.47821e-05 5.18113e-05 -6.108e-06
-6.72102e-07 -6.108e-06 -5.24722e-05
0.00204834 0.000419654 -2.11132e-06
0.000419654 0.000183275 -5.94367e-07
-2.11132e-06 -5.94367e-07 3.21674e-07
-0.000235885 1.13109e-05 2.92821e-07
1.13109e-05 -0.000383312 -2.21904e-06
2.92821e-07 -2.21904e-06 -0.000619128
0.00102043 0.000270369 -2.16104e-06
0.000270369 0.000231077 -5.84223e-07
-2.16104e-06 -5.84223e-07 -1.56156e-06
0.000586448 0.000218218 5.46464e-08
0.000218218 -4.09018e-05 1.30395e-06
5.46464e-08 1.30395e-06 -0.000248857
0.00194052 0.000519203 1.56489e-06
0.000519203 0.000256487 1.23177e-06
1.56489e-06 1.23177e-06 -4.71911e-06
0.0019356 0.000505232 2.11176e-06
0.000505232 0.000163972 5.48537e-07
2.11176e-06 5.48537e-07 -5.07169e-05
0.00169906 0.000488017 -8.03936e-07
0.000488017 0.000573705 -1.21376e-06
-8.03936e-07 -1.21376e-06 0.000218467
0.00217917 0.000627678 -4.1263e-06
0.000627678 0.0006599 2.12411e-06
-4.1263e-06 2.12411e-06 0.000298701
0.00200361 0.000604073 5.78939e-07
0.000604073 0.000295786 1.75846e-06
5.78939e-07 1.75846e-06 -6.02103e-07
0.00058153 3.31078e-05 -4.55221e-07
3.31078e-05 6.13793e-05 5.7975e-07
-4.55221e-07 5.7975e-07 -2.69093e-05
0.00075234 8.66202e-05 -9.30117e-07
8.66202e-05 0.000211491 2.58481e-07
-9.30117e-07 2.58481e-07 3.91026e-05
0.00124683 0.000364517 3.47699e-07
0.000364517 0.000324996 7.38811e-07
3.47699e-07 7.38811e-07 5.25145e-05
0.00100522 0.000154755 1.82912e-06
0.000154755 0.000364163 -1.57943e-07
1.82912e-06 -1.57943e-07 9.59039e-05
0.000564353 0.000208596 2.41338e-06
0.000208596 -0.000111749 2.71658e-07
2.41338e-06 2.71658e-07 -0.000310486
0.00201189 0.000441316 -2.36611e-06
0.000441316 0.000142922 -1.58747e-06
-2.36611e-06 -1.58747e-06 -2.66053e-05
0.00205485 0.000577091 1.89981e-06
0.000577091 0.000285299 6.3411e-07
1.89981e-06 6.3411e-07 2.38952e-05
0.0019552 0.000552338 9.05287e-07
0.000552338 0.000130857 1.15307e-07
9.05287e-07 1.15307e-07 -8.9269e-05
0.00132923 0.000545043 2.25194e-06
0.000545043 0.000325184 1.36169e-06
2.25194e-06 1.36169e-06 -6.70412e-05
0.00174912 0.000624389 -2.18892e-06
0.000624389 0.000293404 -1.98162e-06
-2.18892e-06 -1.98162e-06 -4.45004e-05
0.00104154 0.000115281 1.17292e-06
0.000115281 0.000384426 2.8906e-06
1.17292e-06 2.8906e-06 0.000243981
-0.000219359 -5.67781e-06 -2.39214e-06
-5.67781e-06 -0.000334796 1.05304e-06
-2.39214e-06 1.05304e-06 -0.00056923
0.00145018 0.000437047 -1.69068e-06
0.000437047 0.000438429 -1.54192e-06
-1.69068e-06 -1.54192e-06 0.000118512
-0.000648218 0.000104605 4.62429e-06
0.000104605 -0.000745297 -9.73415e-07
4.62429e-06 -9.73415e-07 -0.000969099
0.00247916 0.000457951 -2.74264e-06
0.000457951 0.00100184 -2.00168e-06
-2.74264e-06 -2.00168e-06 0.00074645
0.00196147 0.000475487 1.15581e-06
0.000475487 2.89161e-05 -3.26942e-07
1.15581e-06 -3.26942e-07 -0.000117646
0.00212409 0.000638184 8.74981e-06
0.000638184 0.000296498 -1.46404e-06
8.74981e-06 -1.46404e-06 8.80989e-06
0.00196765 0.000583477 9.37435e-06
0.000583477 0.000111687 1.84185e-06
9.37435e-06 1.84185e-06 -0.000125025
0.00129832 0.000565523 9.87763e-06
0.000565523 0.000258016 1.71382e-06
9.87763e-06 1.71382e-06 -0.000134228
0.00198897 0.000708922 2.43778e-06
0.000708922 0.000444467 1.66591e-07
2.43778e-06 1.66591e-07 7.59785e-05
0.00052694 2.47112e-05 -1.9673e-06
2.47112e-05 1.95116e-05 -4.34927e-06
-1.9673e-06 -4.34927e-06 -5.46192e-05
0.000533827 6.99037e-05 1.33381e-06
6.99037e-05 5.35078e-05 4.28598e-07
1.33381e-06 4.28598e-07 -6.44616e-05
0.000290166 5.5667e-05 -4.46587e-07
5.5667e-05 -0.000106851 1.3237e-06
-4.46587e-07 1.3237e-06 -0.000218406
0.000150149 -2.06402e-05 -1.75216e-07
-2.06402e-05 -0.000181905 -2.98246e-06
-1.75216e-07 -2.98246e-06 -0.000291853
0.000597518 6.25506e-05 -3.54234e-07
6.25506e-05 0.000109388 5.46602e-08
-3.54234e-07 5.46602e-08 -6.86515e-06
0.000570788 9.17857e-05 -6.95073e-07
9.17857e-05 8.10671e-05 -8.1311e-08
-6.95073e-07 -8.1311e-08 -4.11456e-05
0.000755271 0.000134157 -3.39048e-06
0.000134157 0.000213394 -4.29659e-06
-3.39048e-06 -4.29659e-06 8.77828e-05
0.000286091 1.40978e-05 -7.02291e-07
1.40978e-05 -7.90737e-05 -2.34571e-07
-7.02291e-07 -2.34571e-07 -0.000211886
0.000679753 9.66864e-05 8.22908e-07
9.66864e-05 0.000152568 2.69162e-06
8.22908e-07 2.69162e-06 4.52799e-05
0.00056665 6.94119e-05 3.40414e-06
6.94119e-05 6.5085e-05 3.49105e-06
3.40414e-06 3.49105e-06 -5.40209e-06
0.000526517 2.184e-05 -2.41258e-06
2.184e-05 3.50652e-05 1.13138e-08
-2.41258e-06 1.13138e-08 -3.21439e-05
0.00124218 -7.88036e-06 1.67755e-06
-7.88036e-06 0.000449077 3.13569e-06
1.67755e-06 3.13569e-06 0.000432566
0.000433155 -6.36349e-05 2.07491e-06
-6.36349e-05 -1.97365e-05 -3.86976e-06
2.07491e-06 -3.86976e-06 -9.23995e-05
0.00130678 -1.83922e-05 -6.86475e-06
-1.83922e-05 0.000486528 -1.62445e-06
-6.86475e-06 -1.62445e-06 0.000469363
0.000757817 -2.69863e-05 2.79013e-05
-2.69863e-05 0.000141184 9.10051e-06
2.79013e-05 9.10051e-06 0.000146186
0.00136176 -3.00016e-05 -1.24181e-05
-3.00016e-05 0.00052163 -6.96361e-06
-1.24181e-05 -6.96361e-06 0.000502496
0.000763437 -4.10211e-05 1.10764e-05
-4.10211e-05 0.000147034 3.375e-06
1.10764e-05 3.375e-06 0.000147974
0.00251583 -0.000111721 -2.03305e-06
-0.000111721 0.00126207 -2.74886e-06
-2.03305e-06 -2.74886e-06 0.00126299
0.000322361 6.10751e-05 -4.19932e-06
6.10751e-05 -9.20844e-05 -6.03398e-06
-4.19932e-06 -6.03398e-06 -0.000129442
0.000423571 1.52287e-05 -3.41514e-06
1.52287e-05 -2.99461e-05 1.07826e-07
-3.41514e-06 1.07826e-07 -7.7225e-05
0.00295113 0.000148743 6.92119e-06
0.000148743 0.00156351 -6.00384e-06
6.92119e-06 -6.00384e-06 0.00155235
0.000579062 -6.59501e-05 -1.00337e-05
-6.59501e-05 5.44724e-05 1.17093e-05
-1.00337e-05 1.17093e-05 -5.69278e-06
0.00379535 0.000138846 -3.3742e-05
0.000138846 0.00209336 -2.88736e-07
-3.3742e-05 -2.88736e-07 0.00208331
0.00471418 0.000105261 -0.000159037
0.000105261 0.00267163 1.62725e-05
-0.000159037 1.62725e-05 0.00266729
0.00205639 0.000359675 -2.35221e-06
0.000359675 0.000135981 9.30037e-07
-2.35221e-06 9.30037e-07 -1.02493e-05
0.00201259 0.000196957 -2.56703e-06
0.000196957 8.19664e-05 4.24095e-07
-2.56703e-06 4.24095e-07 4.92166e-06
0.00200749 0.000272871 -1.66813e-06
0.000272871 1.29098e-05 2.96313e-07
-1.66813e-06 2.96313e-07 -5.04291e-05
0.00194053 0.000118966 -3.4703e-06
0.000118966 -2.06572e-05 -5.65693e-07
-3.4703e-06 -5.65693e-07 -3.34851e-05
0.00194605 4.68698e-05 -4.51498e-06
4.68698e-05 3.33231e-05 -1.89199e-07
-4.51498e-06 -1.89199e-07 -9.18035e-06
0.00179745 5.55897e-06 -7.67914e-07
5.55897e-06 8.01804e-05 1.77176e-07
-7.67914e-07 1.77176e-07 -1.73068e-05
0.00196188 -5.65067e-06 -3.03781e-07
-5.65067e-06 5.23788e-05 -4.11322e-08
-3.03781e-07 -4.11322e-08 7.2432e-06
0.00198856 5.2657e-05 1.28128e-06
5.2657e-05 3.99698e-05 5.33212e-08
1.28128e-06 5.33212e-08 2.32259e-05
0.00204433 0.000194227 4.1763e-09
0.000194227 3.22833e-05 6.55292e-08
4.1763e-09 6.55292e-08 3.50149e-06
0.00204017 0.000123816 6.54433e-07
0.000123816 -7.07479e-06 1.59009e-07
6.54433e-07 1.59009e-07 2.16942e-06
0.00200605 0.000351499 -5.61665e-07
0.000351499 8.05396e-05 6.95417e-08
-5.61665e-07 6.95417e-08 -3.97792e-05
0.00213834 0.000288136 3.00635e-06
0.000288136 2.88785e-05 4.07325e-07
3.00635e-06 4.07325e-07 5.00366e-06
0.00194027 -1.11588e-05 5.21334e-06
-1.11588e-05 1.56301e-05 7.49041e-08
5.21334e-06 7.49041e-08 -3.02819e-06
0.0020392 5.89873e-05 1.41701e-06
5.89873e-05 -1.12858e-05 -3.03503e-07
1.41701e-06 -3.03503e-07 6.04137e-06
0.00210837 0.000191666 9.79353e-07
0.000191666 -6.19015e-06 3.36374e-07
9.79353e-07 3.36374e-07 1.24568e-06
0.00212416 0.000384603 -6.34937e-08
0.000384603 3.05581e-05 9.55846e-07
-6.34937e-08 9.55846e-07 -2.166e-05
0.00198546 -6.3835e-05 -4.53741e-06
-6.3835e-05 7.41034e-05 1.01831e-06
-4.53741e-06 1.01831e-06 2.35171e-05
0.00196576 -0.000202909 3.97556e-07
-0.000202909 7.36626e-05 -6.84201e-07
3.97556e-07 -6.84201e-07 -1.34429e-05
0.0019276 -0.000115511 -5.05131e-06
-0.000115511 8.25526e-06 1.31753e-06
-5.05131e-06 1.31753e-06 -1.35707e-05
0.00206052 -0.000294318 -5.18141e-06
-0.000294318 6.90253e-05 1.27037e-06
-5.18141e-06 1.27037e-06 7.00302e-06
0.000948799 -0.000321749 -6.18064e-06
-0.000321749 0.000104049 3.16972e-06
-6.18064e-06 3.16972e-06 -0.000174005
0.0014587 -0.000554837 5.23445e-06
-0.000554837 0.000302561 -2.48307e-06
5.23445e-06 -2.48307e-06 -7.93493e-05
0.00192777 -0.000682621 -3.05701e-06
-0.000682621 0.000343231 -2.26772e-06
-3.05701e-06 -2.26772e-06 -4.33963e-05
0.00194754 -0.000416221 -2.5999e-06
-0.000416221 0.000116422 7.9397e-07
-2.5999e-06 7.9397e-07 -3.25123e-05
0.00200758 -0.000377378 -1.07714e-06
-0.000377378 4.58615e-05 1.02762e-06
-1.07714e-06 1.02762e-06 -2.28496e-05
0.00189856 -0.000498364 9.64938e-07
-0.000498364 7.9173e-05 1.70108e-06
9.64938e-07 1.70108e-06 -8.47136e-05
0.0019621 -0.000576602 9.4853e-08
-0.000576602 0.000260413 -3.2346e-06
9.4853e-08 -3.2346e-06 -1.24053e-05
0.00209199 -0.000529524 1.3866e-05
-0.000529524 0.000240901 -6.13316e-06
1.3866e-05 -6.13316e-06 4.60388e-05
0.000924271 -0.00034547 -9.43461e-07
-0.00034547 0.000129694 1.64314e-06
-9.43461e-07 1.64314e-06 -0.000166425
0.00132092 -0.000383565 8.52977e-06
-0.000383565 0.000362085 -2.95682e-06
8.52977e-06 -2.95682e-06 3.88293e-05
5.54724e-05 -0.000167275 2.07388e-06
-0.000167275 -0.000273194 -8.52221e-06
2.07388e-06 -8.52221e-06 -0.000571321
0.000116318 -5.50798e-05 3.5538e-07
-5.50798e-05 -0.000211567 5.58036e-06
3.5538e-07 5.58036e-06 -0.000345389
0.000167357 -3.09954e-05 3.9185e-06
-3.09954e-05 -0.00012125 2.56291e-07
3.9185e-06 2.56291e-07 -0.000373858
0.00190649 -7.11837e-05 -2.4319e-08
-7.11837e-05 -1.88073e-05 -1.84659e-07
-2.4319e-08 -1.84659e-07 -3.04967e-05
0.00202601 -0.000181352 1.23364e-06
-0.000181352 3.16596e-05 -1.17251e-07
1.23364e-06 -1.17251e-07 8.19746e-06
0.00209542 -0.000339755 -6.80541e-07
-0.000339755 3.10006e-05 1.0679e-07
-6.80541e-07 1.0679e-07 -3.95202e-06
0.0013955 -0.000472214 -1.61386e-06
-0.000472214 0.000376203 -8.16801e-07
-1.61386e-06 -8.16801e-07 2.06275e-05
0.00147497 -0.000639336 3.0808e-06
-0.000639336 0.000282255 -9.29527e-07
3.0808e-06 -9.29527e-07 -0.000135802
0.00205976 -0.000739598 -3.37064e-08
-0.000739598 0.000395036 -1.41598e-07
-3.37064e-08 -1.41598e-07 -2.92729e-06
0.00203559 -0.000434414 1.98492e-07
-0.000434414 8.93931e-05 2.22898e-07
1.98492e-07 2.22898e-07 -6.60336e-06
0.00207625 -0.000593809 1.17828e-06
-0.000593809 0.000275725 -3.49439e-06
1.17828e-06 -3.49439e-06 1.3651e-05
0.00212926 -0.000579324 -1.50278e-06
-0.000579324 0.000174772 -3.37412e-07
-1.50278e-06 -3.37412e-07 -4.49005e-06
9.32015e-05 4.44171e-05 -1.91496e-06
4.44171e-05 -0.000223524 -8.42847e-07
-1.91496e-06 -8.42847e-07 -0.000318812
0.00128906 -0.000433332 -2.56115e-07
-0.000433332 0.000334883 -1.77697e-06
-2.56115e-07 -1.77697e-06 -1.21633e-05
0.00146075 -0.00044385 -1.35481e-06
-0.00044385 0.000461059 8.81953e-07
-1.35481e-06 8.81953e-07 0.000101073
0.00141555 -0.000334409 -9.24294e-07
-0.000334409 0.000529771 1.97585e-06
-9.24294e-07 1.97585e-06 0.000192064
0.00125295 -0.000210188 1.57777e-06
-0.000210188 0.000551585 -2.94101e-06
1.57777e-06 -2.94101e-06 0.000267719
0.000426622 -6.47206e-05 -8.09263e-07
-6.47206e-05 4.98261e-05 1.30792e-06
-8.09263e-07 1.30792e-06 -0.000168747
0.00202561 -9.22674e-05 2.21152e-06
-9.22674e-05 -3.11897e-06 -1.72293e-07
2.21152e-06 -1.72293e-07 7.46734e-06
0.00216611 -0.000236772 4.03226e-07
-0.000236772 -5.2755e-06 -1.47257e-07
4.03226e-07 -1.47257e-07 1.59411e-05
0.00216208 -0.0004157 1.09011e-06
-0.0004157 2.74397e-05 -4.45121e-07
1.09011e-06 -4.45121e-07 1.28945e-05
0.00221502 -0.00051843 2.24958e-06
-0.00051843 0.000101016 -2.53002e-06
2.24958e-06 -2.53002e-06 2.25699e-05
0.00158255 -0.000573077 -8.11513e-06
-0.000573077 0.000449799 3.98969e-06
-8.11513e-06 3.98969e-06 5.0892e-05
0.00211905 -0.000658584 -9.67178e-07
-0.000658584 0.00021272 -4.85369e-06
-9.67178e-07 -4.85369e-06 -2.47389e-05
0.00189711 -0.000760266 -2.65918e-05
-0.000760266 0.000499723 4.61375e-06
-2.65918e-05 4.61375e-06 3.69473e-05
0.00238227 -0.000808261 -1.61488e-05
-0.000808261 0.000598563 -7.61817e-07
-1.61488e-05 -7.61817e-07 0.000178586
3.00112e-06 5.43587e-05 -5.5925e-06
5.43587e-05 -0.000285531 -3.03933e-06
-5.5925e-06 -3.03933e-06 -0.000357766
0.000763223 9.60699e-07 -2.29778e-06
9.60699e-07 0.00024613 -1.4013e-06
-2.29778e-06 -1.4013e-06 8.47428e-05
0.00166634 -0.000237175 -4.9978e-06
-0.000237175 0.000842042 3.14976e-07
-4.9978e-06 3.14976e-07 0.000578124
0.000752384 -0.000113053 -4.95373e-07
-0.000113053 0.000188888 -3.66583e-06
-4.95373e-07 -3.66583e-06 -0.000109949
0.00218801 -0.000581928 -1.20016e-05
-0.000581928 0.000864591 1.03763e-05
-1.20016e-05 1.03763e-05 0.000464105
0.00164872 -0.000453611 -5.89774e-06
-0.000453611 0.000624398 2.28938e-05
-5.89774e-06 2.28938e-05 0.000210153
0.000512001 2.28499e-05 -1.52925e-06
2.28499e-05 1.92648e-05 -4.78837e-06
-1.52925e-06 -4.78837e-06 -6.78475e-05
-4.81125e-05 2.22366e-05 1.44369e-06
2.22366e-05 -0.000300282 -1.64106e-06
1.44369e-06 -1.64106e-06 -0.000451521
0.00196653 0.000442103 -1.86932e-06
0.000442103 0.000115567 -1.08114e-06
-1.86932e-06 -1.08114e-06 -5.48751e-05
0.000274797 8.33853e-05 1.56807e-07
8.33853e-05 -0.000103553 1.9224e-06
1.56807e-07 1.9224e-06 -0.000355784
0.00153949 0.00039472 -3.70326e-06
0.00039472 0.000504851 -2.85237e-06
-3.70326e-06 -2.85237e-06 0.000229128
-0.000784992 8.03977e-05 -1.24463e-06
8.03977e-05 -0.000961793 3.33384e-06
-1.24463e-06 3.33384e-06 -0.00112502
0.00206358 0.000577881 2.05564e-06
0.000577881 0.000287442 9.10522e-07
2.05564e-06 9.10522e-07 2.57303e-05
0.00200584 0.000551496 -6.98912e-06
0.000551496 0.000157884 -1.37165e-07
-6.98912e-06 -1.37165e-07 -6.09771e-05
0.00152795 0.00057764 -4.09137e-06
0.00057764 0.00042861 2.80336e-06
-4.09137e-06 2.80336e-06 3.20225e-05
0.00200743 0.000654689 -6.29074e-06
0.000654689 0.000464329 3.58273e-08
-6.29074e-06 3.58273e-08 0.0001158
0.00074403 7.08053e-05 -7.60838e-07
7.08053e-05 0.000191047 1.33107e-07
-7.60838e-07 1.33107e-07 6.09714e-05
0.000473705 6.65628e-05 1.20499e-06
6.65628e-05 9.41067e-05 3.33365e-07
1.20499e-06 3.33365e-07 -0.000154369
0.0013191 0.00041908 -2.80291e-06
0.00041908 0.000353594 -1.53046e-06
-2.80291e-06 -1.53046e-06 3.91625e-05
0.000135687 0.000125522 3.82497e-07
0.000125522 -0.000288586 -2.26814e-06
3.82497e-07 -2.26814e-06 -0.000504237
0.00160645 0.000363752 3.19546e-06
0.000363752 0.000448103 -2.67568e-06
3.19546e-06 -2.67568e-06 0.000214765
0.00211614 0.000488754 -2.77627e-06
0.000488754 0.000111297 -1.04669e-06
-2.77627e-06 -1.04669e-06 -3.44429e-05
0.00226188 0.000639378 2.79527e-06
0.000639378 0.00038302 -4.74098e-07
2.79527e-06 -4.74098e-07 0.000101104
0.00216643 0.0006081 2.64057e-06
0.0006081 0.000220866 2.88616e-06
2.64057e-06 2.88616e-06 -2.055e-05
0.00141088 0.000582013 3.99598e-06
0.000582013 0.000330347 1.53214e-06
3.99598e-06 1.53214e-06 -6.76817e-05
0.00188231 0.000718125 -4.7282e-06
0.000718125 0.000381317 1.22238e-07
-4.7282e-06 1.22238e-07 1.34537e-06
-0.000560158 8.30906e-06 -2.69512e-06
8.30906e-06 -0.00061085 5.22837e-06
-2.69512e-06 5.22837e-06 -0.00073775
-0.000200703 0.000199541 1.25239e-06
0.000199541 -0.000257703 1.86013e-06
1.25239e-06 1.86013e-06 -0.00056295
0.00139244 0.000456692 2.90649e-06
0.000456692 0.000376105 -9.87264e-07
2.90649e-06 -9.87264e-07 4.13035e-05
-0.000265531 0.000163854 1.49425e-06
0.000163854 -0.000675082 -1.55974e-06
1.49425e-06 -1.55974e-06 -0.000875474
0.00231318 0.000493261 4.76691e-06
0.000493261 -5.24704e-05 2.47536e-06
4.76691e-06 2.47536e-06 -4.53409e-05
0.00274075 0.000616172 8.24244e-06
0.000616172 0.000496693 1.48031e-06
8.24244e-06 1.48031e-06 0.000299059
0.00211781 0.000721715 4.30003e-06
0.000721715 0.000323673 -2.9419e-06
4.30003e-06 -2.9419e-06 -2.0835e-05
0.00165989 0.000688808 1.75309e-06
0.000688808 0.000358235 9.4407e-07
1.75309e-06 9.4407e-07 -6.6355e-05
0.000701185 0.000110412 -8.62042e-07
0.000110412 0.00016658 -1.93585e-06
-8.62042e-07 -1.93585e-06 4.15373e-05
0.000547117 9.69281e-05 -8.04401e-07
9.69281e-05 6.72632e-05 -5.08366e-07
-8.04401e-07 -5.08366e-07 -5.63614e-05
0.00116344 9.70635e-05 -6.93323e-06
9.70635e-05 0.000452373 -3.26578e-06
-6.93323e-06 -3.26578e-06 0.00034824
0.000557193 4.27239e-05 -1.12958e-06
4.27239e-05 6.17046e-05 -2.95431e-06
-1.12958e-06 -2.95431e-06 -3.84451e-05
6.39279e-05 3.94272e-05 -7.16785e-08
3.94272e-05 -0.00023236 -7.95214e-07
-7.16785e-08 -7.95214e-07 -0.00034501
0.000606602 5.05212e-05 -5.74928e-07
5.05212e-05 0.00010893 1.71831e-07
-5.74928e-07 1.71831e-07 1.13427e-06
0.000508464 0.00012468 -3.9869e-07
0.00012468 7.77511e-05 6.8983e-07
-3.9869e-07 6.8983e-07 -4.81092e-05
0.000492397 5.33593e-05 1.06607e-06
5.33593e-05 5.6622e-05 4.35789e-08
1.06607e-06 4.35789e-08 -8.28986e-05
0.0006185 0.00010015 4.04058e-06
0.00010015 0.000103455 -2.65881e-06
4.04058e-06 -2.65881e-06 1.81516e-05
0.000740032 1.22903e-05 3.21408e-06
1.22903e-05 0.000209424 -4.87144e-06
3.21408e-06 -4.87144e-06 7.57022e-05
0.000250472 6.522e-05 2.87854e-08
6.522e-05 -9.64443e-05 2.12718e-06
2.87854e-08 2.12718e-06 -0.000230901
0.0006713 0.00010935 2.42576e-06
0.00010935 0.000149858 3.40205e-06
2.42576e-06 3.40205e-06 3.82922e-05
0.000470291 7.55974e-05 3.35611e-06
7.55974e-05 1.22026e-05 3.47867e-06
3.35611e-06 3.47867e-06 -6.4902e-05
0.00046793 1.42566e-05 -1.54257e-06
1.42566e-05 2.54814e-06 -2.93655e-07
-1.54257e-06 -2.93655e-07 -6.64975e-05
0.00120744 7.30372e-06 1.71941e-06
7.30372e-06 0.000433284 2.82912e-06
1.71941e-06 2.82912e-06 0.000416886
0.000462244 -4.33248e-05 6.48262e-08
-4.33248e-05 -6.14203e-06 -3.09015e-06
6.48262e-08 -3.09015e-06 -7.22225e-05
0.00129896 -6.05129e-06 -6.50401e-06
-6.05129e-06 0.000484701 -1.68563e-06
-6.50401e-06 -1.68563e-06 0.000468725
0.000750591 -1.71206e-05 2.54011e-05
-1.71206e-05 0.000138423 9.06268e-06
2.54011e-05 9.06268e-06 0.000144319
0.00134703 -2.01205e-05 -1.04632e-05
-2.01205e-05 0.000511874 -6.64847e-06
-1.04632e-05 -6.64847e-06 0.000495129
0.000750389 -3.04392e-05 9.63699e-06
-3.04392e-05 0.000135151 3.43464e-06
9.63699e-06 3.43464e-06 0.000138765
0.000719272 -4.16341e-05 9.26477e-08
-4.16341e-05 0.000118918 -3.01745e-06
9.26477e-08 -3.01745e-06 0.000119172
0.000399514 4.189e-05 -1.67522e-06
4.189e-05 -6.56985e-05 -4.07775e-06
-1.67522e-06 -4.07775e-06 -8.90728e-05
0.000410513 7.28639e-05 -2.46356e-07
7.28639e-05 -3.23888e-05 3.47996e-07
-2.46356e-07 3.47996e-07 -7.37931e-05
0.00250765 0.000115246 9.31669e-06
0.000115246 0.00127508 -4.9559e-06
9.31669e-06 -4.9559e-06 0.00127326
0.000488333 1.78351e-05 -5.04142e-06
1.78351e-05 1.44601e-05 9.95469e-06
-5.04142e-06 9.95469e-06 -3.65028e-05
0.00306865 0.000152318 -1.09135e-05
0.000152318 0.00163683 -1.18312e-06
-1.09135e-05 -1.18312e-06 0.00162458
0.00394309 8.37767e-05 -0.000131382
8.37767e-05 0.00218028 1.20616e-05
-0.000131382 1.20616e-05 0.00218329
0.00201914 0.000351018 -1.02446e-06
0.000351018 9.95146e-05 6.73554e-07
-1.02446e-06 6.73554e-07 -2.21007e-05
0.00205097 0.000192226 -5.07699e-06
0.000192226 3.90434e-05 -9.42669e-07
-5.07699e-06 -9.42669e-07 1.10571e-05
0.00206491 0.000288736 -5.77837e-07
0.000288736 -2.04738e-05 -3.63602e-07
-5.77837e-07 -3.63602e-07 -3.75664e-05
0.00200806 0.000125154 -1.48757e-06
0.000125154 -3.28587e-05 -2.43459e-07
-1.48757e-06 -2.43459e-07 -1.84451e-05
0.00199777 5.34882e-05 -4.83608e-06
5.34882e-05 4.97111e-05 -4.02478e-07
-4.83608e-06 -4.02478e-07 2.92484e-05
0.00197512 -8.33538e-06 -5.53514e-06
-8.33538e-06 6.48343e-05 4.53241e-07
-5.53514e-06 4.53241e-07 1.88982e-05
0.00194818 -9.11612e-06 -9.69993e-08
-9.11612e-06 2.11345e-05 -7.12917e-08
-9.69993e-08 -7.12917e-08 3.64692e-06
0.00203912 6.16953e-05 1.13893e-06
6.16953e-05 -6.26718e-06 1.81585e-07
1.13893e-06 1.81585e-07 8.92883e-06
0.00211261 0.000198155 1.04209e-06
0.000198155 -2.54106e-06 2.23739e-07
1.04209e-06 2.23739e-07 6.45313e-06
0.00213085 0.000375818 6.47503e-07
0.000375818 2.80255e-05 2.06846e-07
6.47503e-07 2.06846e-07 -2.38352e-05
0.0020127 -1.5301e-05 6.47464e-07
-1.5301e-05 -1.25515e-05 -1.7458e-07
6.47464e-07 -1.7458e-07 -2.58065e-06
0.00216934 0.000112116 -3.38126e-07
0.000112116 -3.98951e-05 -6.61006e-07
-3.38126e-07 -6.61006e-07 1.41178e-05
0.00232373 0.000300963 2.56375e-06
0.000300963 1.71298e-05 6.64639e-07
2.56375e-06 6.64639e-07 3.79734e-05
0.00189619 -7.9262e-05 -4.74613e-06
-7.9262e-05 -2.87632e-05 5.51732e-07
-4.74613e-06 5.51732e-07 -4.14299e-05
0.00206077 -0.000182386 -3.33973e-06
-0.000182386 5.1298e-05 5.9686e-07
-3.33973e-06 5.9686e-07 2.72315e-05
0.00208445 -0.000333332 -2.54601e-06
-0.000333332 4.03317e-05 6.6614e-07
-2.54601e-06 6.6614e-07 7.92303e-07
0.00131935 -0.000464884 -3.26616e-06
-0.000464884 0.000326925 3.04693e-07
-3.26616e-06 3.04693e-07 -2.60889e-05
0.00147792 -0.00061988 1.59137e-05
-0.00061988 0.000287571 -5.94301e-06
1.59137e-05 -5.94301e-06 -0.000121463
0.00187685 -0.000724769 -2.5298e-06
-0.000724769 0.000302844 7.36072e-07
-2.5298e-06 7.36072e-07 -9.55288e-05
0.00202513 -0.0004315 -1.85004e-06
-0.0004315 8.43017e-05 1.4829e-06
-1.85004e-06 1.4829e-06 -1.37805e-05
0.00205657 -0.000559957 5.17409e-06
-0.000559957 0.000166114 2.74667e-06
5.17409e-06 2.74667e-06 -8.51226e-06
0.00220565 -0.000625032 1.34251e-05
-0.000625032 0.000338921 -7.03072e-06
1.34251e-05 -7.03072e-06 7.47457e-05
0.00127531 -0.000423917 1.78171e-06
-0.000423917 0.000331895 -2.60623e-06
1.78171e-06 -2.60623e-06 -9.68568e-06
0.00121501 -0.000427029 4.17803e-06
-0.000427029 0.000318528 -1.1257e-05
4.17803e-06 -1.1257e-05 -3.78163e-05
0.00129446 -0.000378743 -1.04328e-06
-0.000378743 0.000483735 -8.94543e-06
-1.04328e-06 -8.94543e-06 0.000124354
0.000286167 4.38879e-05 3.4151e-06
4.38879e-05 -0.000106865 2.41456e-06
3.4151e-06 2.41456e-06 -0.000198411
0.00143546 -0.000225847 3.16753e-06
-0.000225847 0.000640003 3.40499e-06
3.16753e-06 3.40499e-06 0.000373418
-0.000147641 1.11709e-05 5.51879e-06
1.11709e-05 -0.00031935 9.76679e-07
5.51879e-06 9.76679e-07 -0.000524603
0.00203601 -9.06794e-05 -5.06512e-07
-9.06794e-05 2.31569e-06 1.34371e-07
-5.06512e-07 1.34371e-07 1.10717e-05
0.00213308 -0.000243678 9.47527e-08
-0.000243678 -2.82771e-05 -8.18244e-08
9.47527e-08 -8.18244e-08 -5.85463e-06
0.00215101 -0.000408609 -7.26881e-07
-0.000408609 2.7792e-05 2.77225e-07
-7.26881e-07 2.77225e-07 9.70364e-06
0.00151091 -0.000558338 -6.51964e-07
-0.000558338 0.000424559 5.92145e-07
-6.51964e-07 5.92145e-07 2.97412e-05
0.00129128 -0.00068348 3.65974e-06
-0.00068348 0.000151137 -1.88161e-06
3.65974e-06 -1.88161e-06 -0.000293403
0.0023488 -0.000791419 -4.79913e-06
-0.000791419 0.000573893 1.23407e-07
-4.79913e-06 1.23407e-07 0.000169518
0.00217166 -0.000525658 3.90755e-07
-0.000525658 7.69412e-05 -6.402e-07
3.90755e-07 -6.402e-07 -8.21412e-06
0.00206418 -0.000644924 2.06695e-06
-0.000644924 0.000192856 -2.10607e-06
2.06695e-06 -2.10607e-06 -3.83972e-05
0.000283014 5.97267e-05 -1.48924e-06
5.97267e-05 -0.0001129 -1.25929e-06
-1.48924e-06 -1.25929e-06 -0.000181094
0.000630904 -2.15048e-05 -7.47585e-07
-2.15048e-05 0.000157119 6.49509e-07
-7.47585e-07 6.49509e-07 1.22635e-06
0.000902313 -0.0004412 -3.25167e-06
-0.0004412 7.48391e-05 1.97332e-06
-3.25167e-06 1.97332e-06 -0.00028486
0.00137043 -0.0003943 -2.31892e-06
-0.0003943 0.000473112 -7.77609e-07
-2.31892e-06 -7.77609e-07 6.702e-05
0.00160351 -0.000201728 -5.11902e-07
-0.000201728 0.000715064 -1.63108e-06
-5.11902e-07 -1.63108e-06 0.00040785
0.000894937 -0.00017301 -6.82784e-07
-0.00017301 0.00035367 1.40603e-06
-6.82784e-07 1.40603e-06 9.92394e-05
0.00212371 -0.000125884 -1.57591e-06
-0.000125884 -4.4623e-05 3.43423e-07
-1.57591e-06 3.43423e-07 5.97078e-06
0.0022633 -0.000348617 -2.08358e-06
-0.000348617 -6.28392e-05 1.04647e-06
-2.08358e-06 1.04647e-06 6.09113e-06
0.00224034 -0.000490813 2.73832e-06
-0.000490813 3.16369e-05 -6.53123e-07
2.73832e-06 -6.53123e-07 2.37136e-05
0.00236565 -0.000685456 7.54005e-06
-0.000685456 0.000196474 -3.43068e-06
7.54005e-06 -3.43068e-06 4.35661e-05
0.00065555 -0.000509183 -4.06365e-06
-0.000509183 -9.97595e-05 -7.32943e-06
-4.06365e-06 -7.32943e-06 -0.000500236
0.00258768 -0.000860842 4.11364e-07
-0.000860842 0.000625436 5.49902e-06
4.11364e-07 5.49902e-06 0.000242572
0.00228494 -0.000868048 -2.91511e-05
-0.000868048 0.000667496 -4.72627e-06
-2.91511e-05 -4.72627e-06 0.000161836
0.000549382 4.60084e-05 -2.51301e-07
4.60084e-05 3.60193e-05 -2.30409e-07
-2.51301e-07 -2.30409e-07 -1.48945e-05
0.000672488 -0.000140712 3.91869e-06
-0.000140712 0.000167012 -1.27864e-06
3.91869e-06 -1.27864e-06 6.04262e-05
0.000287149 7.78738e-05 -7.69919e-06
7.78738e-05 -7.03853e-05 -8.11755e-07
-7.69919e-06 -8.11755e-07 -0.000180783
0.000770504 -5.73036e-05 -3.38252e-06
-5.73036e-05 0.000267816 1.77661e-06
-3.38252e-06 1.77661e-06 6.21195e-05
8.32027e-05 -0.000118573 2.35708e-06
-0.000118573 -0.00019282 -6.80974e-06
2.35708e-06 -6.80974e-06 -0.000445483
-0.000287393 -0.000103067 5.39022e-06
-0.000103067 -0.000412504 -1.1886e-06
5.39022e-06 -1.1886e-06 -0.000791643
0.00150603 -0.000537286 -2.97292e-05
-0.000537286 0.000453555 2.24183e-05
-2.97292e-05 2.24183e-05 8.54409e-05
0.00272922 -0.000512649 -2.67465e-05
-0.000512649 0.00147692 1.561e-05
-2.67465e-05 1.561e-05 0.000855981
0.000543613 3.34878e-05 -4.09664e-07
3.34878e-05 5.60004e-05 -1.71173e-06
-4.09664e-07 -1.71173e-06 -6.23284e-05
0.000847808 0.00019104 -6.34975e-07
0.00019104 0.000316752 5.32115e-07
-6.34975e-07 5.32115e-07 6.0645e-05
0.00227467 0.000502345 -3.30597e-06
0.000502345 0.000197012 -1.89802e-06
-3.30597e-06 -1.89802e-06 5.18422e-05
0.000443541 0.000205817 -4.36201e-06
0.000205817 -7.2982e-05 2.62767e-06
-4.36201e-06 2.62767e-06 -0.000317931
0.0011104 0.000394295 -2.96154e-06
0.000394295 0.000219351 3.56823e-07
-2.96154e-06 3.56823e-07 -8.99798e-05
0.00120117 0.000306495 -5.41787e-06
0.000306495 0.000182527 -7.12459e-06
-5.41787e-06 -7.12459e-06 -3.6657e-05
0.00237612 0.000636255 -7.26594e-06
0.000636255 0.000458372 -8.17753e-07
-7.26594e-06 -8.17753e-07 0.000183608
0.00235777 0.000631499 -1.20232e-05
0.000631499 0.000327614 4.23746e-06
-1.20232e-05 4.23746e-06 8.19837e-05
0.00164291 0.000616317 -3.59966e-06
0.000616317 0.000469838 8.24279e-07
-3.59966e-06 8.24279e-07 6.3709e-05
0.00171393 0.000721791 -4.55491e-06
0.000721791 0.000279278 -9.14374e-07
-4.55491e-06 -9.14374e-07 -0.000110161
-0.000159462 6.31804e-05 6.21752e-07
6.31804e-05 -0.000357229 1.40084e-06
6.21752e-07 1.40084e-06 -0.000500204
2.31786e-05 0.000219928 -3.92979e-07
0.000219928 -0.000126364 -2.9403e-06
-3.92979e-07 -2.9403e-06 -0.000428831
0.0016119 0.000491763 1.65254e-06
0.000491763 0.000494947 -6.94651e-09
1.65254e-06 -6.94651e-09 0.000149911
0.00138593 0.00032093 -2.40787e-06
0.00032093 0.000361515 1.32547e-06
-2.40787e-06 1.32547e-06 0.000131387
0.00232356 0.000475427 7.16911e-07
0.000475427 -6.25151e-05 -7.46184e-07
7.16911e-07 -7.46184e-07 -4.86928e-05
0.00257637 0.000614056 3.43156e-06
0.000614056 0.000400656 1.84024e-07
3.43156e-06 1.84024e-07 0.000197276
0.00207273 0.000704649 -1.5526e-06
0.000704649 0.000307834 1.56936e-07
-1.5526e-06 1.56936e-07 -2.94032e-05
0.00178125 0.000698285 8.92112e-07
0.000698285 0.000412159 3.08746e-07
8.92112e-07 3.08746e-07 -8.14639e-06
-0.000301872 4.28008e-05 -2.18696e-06
4.28008e-05 -0.000443534 4.5711e-06
-2.18696e-06 4.5711e-06 -0.000593085
0.00222712 0.00036784 1.14263e-05
0.00036784 -0.000170738 3.62105e-06
1.14263e-05 3.62105e-06 -9.9281e-05
0.00256243 0.000490773 6.71837e-06
0.000490773 0.0013773 8.42538e-06
6.71837e-06 8.42538e-06 0.00104595
0.00134242 0.000476417 2.56029e-06
0.000476417 0.000269293 -1.65423e-07
2.56029e-06 -1.65423e-07 -5.05891e-05
0.00259439 0.000594694 -1.45766e-05
0.000594694 0.000246168 -7.48156e-06
-1.45766e-05 -7.48156e-06 0.000164521
0.00118223 0.000654043 1.71403e-06
0.000654043 -0.000303136 -8.03431e-06
1.71403e-06 -8.03431e-06 -0.000620107
0.00264364 0.000816865 1.21254e-06
0.000816865 0.000851787 4.40299e-06
1.21254e-06 4.40299e-06 0.000402093
0.000791896 0.000113817 -1.24152e-06
0.000113817 0.000219647 -1.96726e-06
-1.24152e-06 -1.96726e-06 9.41519e-05
0.000641484 0.000107357 -3.40026e-06
0.000107357 0.000144127 -1.28661e-06
-3.40026e-06 -1.28661e-06 3.35413e-05
0.00143808 0.000111379 -3.73693e-06
0.000111379 0.000642929 -6.48679e-07
-3.73693e-06 -6.48679e-07 0.000563415
0.000505913 7.16471e-06 4.67402e-07
7.16471e-06 4.83975e-05 -3.45219e-06
4.67402e-07 -3.45219e-06 -6.03546e-05
0.000710464 8.44078e-05 2.06607e-06
8.44078e-05 0.00019782 -7.0777e-07
2.06607e-06 -7.0777e-07 5.32194e-05
-0.000140014 7.2698e-05 -1.98109e-06
7.2698e-05 -0.000302609 4.81807e-06
-1.98109e-06 4.81807e-06 -0.000418511
0.000556258 2.1869e-05 -1.40016e-06
2.1869e-05 8.48279e-05 8.95242e-09
-1.40016e-06 8.95242e-09 -3.01596e-05
0.000328968 -1.31612e-05 -1.00653e-06
-1.31612e-05 -3.26251e-05 -3.23399e-08
-1.00653e-06 -3.23399e-08 -0.000175444
9.54656e-05 4.84039e-05 -2.45254e-08
4.84039e-05 -0.000198208 1.23806e-06
-2.45254e-08 1.23806e-06 -0.000272934
0.000807761 9.21184e-05 9.78766e-07
9.21184e-05 0.000266173 -1.21801e-06
9.78766e-07 -1.21801e-06 0.000119786
0.00165677 0.000127893 -4.02378e-07
0.000127893 0.00073927 -2.57086e-06
-4.02378e-07 -2.57086e-06 0.000690476
0.000448012 2.08796e-05 9.95874e-06
2.08796e-05 1.52945e-05 -6.82117e-06
9.95874e-06 -6.82117e-06 -7.26277e-05
0.000280356 0.000101469 5.90953e-07
0.000101469 -5.33363e-05 2.10864e-06
5.90953e-07 2.10864e-06 -0.000207375
0.000567241 4.80308e-05 1.73031e-06
4.80308e-05 0.000112285 3.28605e-06
1.73031e-06 3.28605e-06 -4.48288e-05
0.000579568 3.42935e-05 2.76637e-06
3.42935e-05 9.10591e-05 3.02082e-06
2.76637e-06 3.02082e-06 -2.54383e-05
0.00047783 -5.57479e-05 -2.81479e-07
-5.57479e-05 1.48593e-05 3.10706e-06
-2.81479e-07 3.10706e-06 -6.3377e-05
0.000494415 9.71891e-06 1.93203e-07
9.71891e-06 1.94709e-05 -3.42133e-07
1.93203e-07 -3.42133e-07 -5.19523e-05
0.00128915 2.64465e-05 3.19632e-06
2.64465e-05 0.00049283 3.01428e-06
3.19632e-06 3.01428e-06 0.00047384
0.00049731 3.56824e-07 4.43894e-08
3.56824e-07 1.2247e-05 -3.19794e-06
4.43894e-08 -3.19794e-06 -5.09844e-05
0.00130392 9.97965e-06 -5.9169e-06
9.97965e-06 0.000493861 -1.69597e-06
-5.9169e-06 -1.69597e-06 0.000477255
0.00074627 -9.37068e-06 2.04868e-05
-9.37068e-06 0.0001402 8.79135e-06
2.04868e-05 8.79135e-06 0.000146017
0.00134834 -9.79025e-06 -8.11372e-06
-9.79025e-06 0.000515449 -6.49935e-06
-8.11372e-06 -6.49935e-06 0.000499785
0.00077452 -2.09248e-05 7.40753e-06
-2.09248e-05 0.000150434 3.4796e-06
7.40753e-06 3.4796e-06 0.000155244
0.000751187 -3.16894e-05 7.49783e-08
-3.16894e-05 0.000133563 -2.83052e-06
7.49783e-08 -2.83052e-06 0.000136708
0.000647277 -8.96898e-06 1.43668e-06
-8.96898e-06 9.19739e-05 -1.55868e-06
1.43668e-06 -1.55868e-06 4.37476e-05
0.000427833 2.81117e-05 -2.58099e-07
2.81117e-05 -5.95259e-05 -3.60162e-06
-2.58099e-07 -3.60162e-06 -7.61269e-05
0.000439021 4.63975e-05 4.34431e-07
4.63975e-05 -3.84183e-05 2.60699e-07
4.34431e-07 2.60699e-07 -6.34449e-05
0.00229253 8.98234e-05 1.26975e-05
8.98234e-05 0.00112927 -4.45482e-06
1.26975e-05 -4.45482e-06 0.00113447
0.000493768 6.59762e-05 5.70803e-06
6.59762e-05 1.44171e-05 7.71423e-06
5.70803e-06 7.71423e-06 -2.53149e-05
0.00268847 0.00012436 -5.23364e-06
0.00012436 0.00138989 -5.73782e-07
-5.23364e-06 -5.73782e-07 0.00138589
0.00328927 0.000119968 -4.69033e-05
0.000119968 0.00176593 5.62294e-06
-4.69033e-05 5.62294e-06 0.00176065
0.00213489 0.000367523 -2.38972e-07
0.000367523 2.33704e-05 -5.19859e-07
-2.38972e-07 -5.19859e-07 -2.78666e-05
0.00211619 0.000204473 -1.76713e-06
0.000204473 2.07446e-06 -2.88365e-07
-1.76713e-06 -2.88365e-07 1.19634e-05
0.00203819 6.55247e-05 -1.46665e-06
6.55247e-05 -1.01241e-06 5.79181e-08
-1.46665e-06 5.79181e-08 1.19986e-05
0.0019541 -6.98622e-06 -4.88998e-06
-6.98622e-06 2.56903e-05 -8.04829e-08
-4.88998e-06 -8.04829e-08 9.18196e-06
0.00201459 -1.02317e-05 -9.16559e-07
-1.02317e-05 -1.30729e-05 -3.37562e-08
-9.16559e-07 -3.37562e-08 -4.51504e-07
0.00214802 0.000105158 -1.04825e-07
0.000105158 -4.34313e-05 2.24324e-07
-1.04825e-07 2.24324e-07 7.85178e-06
0.00226185 0.000307572 -1.1897e-06
0.000307572 -9.7249e-06 3.67976e-08
-1.1897e-06 3.67976e-08 1.07489e-05
0.00212733 -1.07863e-05 -1.53032e-06
-1.07863e-05 -5.89941e-05 -4.7947e-07
-1.53032e-06 -4.7947e-07 2.09408e-06
0.0023409 0.000158967 5.4734e-06
0.000158967 -5.03235e-05 -1.20892e-06
5.4734e-06 -1.20892e-06 1.24058e-05
0.00251526 0.000111611 1.10758e-05
0.000111611 0.000135749 1.20493e-05
1.10758e-05 1.20493e-05 0.000212335
0.00204536 -8.95223e-05 -1.99282e-06
-8.95223e-05 7.43962e-06 2.79402e-07
-1.99282e-06 2.79402e-07 1.4248e-05
0.00210471 -0.000252039 -7.26792e-07
-0.000252039 -4.92875e-05 4.47557e-08
-7.26792e-07 4.47557e-08 -2.56489e-05
0.00213608 -0.000400772 -6.1368e-07
-0.000400772 2.53706e-05 -2.29305e-08
-6.1368e-07 -2.29305e-08 4.96847e-06
0.00153092 -0.00056395 4.69792e-06
-0.00056395 0.000437421 -2.31159e-06
4.69792e-06 -2.31159e-06 3.96725e-05
0.00174256 -0.000729831 1.83244e-05
-0.000729831 0.00041378 -3.21759e-07
1.83244e-05 -3.21759e-07 -4.02998e-05
0.00194069 -0.000728169 6.4958e-06
-0.000728169 0.000345548 -1.6884e-07
6.4958e-06 -1.6884e-07 -3.57925e-05
0.00208814 -0.000528784 -1.23071e-07
-0.000528784 3.08256e-05 3.16571e-06
-1.23071e-07 3.16571e-06 -6.03401e-05
0.0018994 -0.00062037 9.59687e-07
-0.00062037 0.000114985 1.70304e-06
9.59687e-07 1.70304e-06 -0.000109085
0.000570856 -0.000400343 6.28335e-06
-0.000400343 -0.00012515 -1.53683e-05
6.28335e-06 -1.53683e-05 -0.000477066
0.00178823 -0.000413046 1.74818e-05
-0.000413046 0.000781454 -1.70951e-05
1.74818e-05 -1.70951e-05 0.000353979
0.00132813 -0.000128904 -1.4766e-06
-0.000128904 0.000511149 2.59595e-06
-1.4766e-06 2.59595e-06 0.000229243
0.000462911 1.9756e-05 2.87695e-06
1.9756e-05 -2.24163e-06 1.03841e-06
2.87695e-06 1.03841e-06 -6.59402e-05
0.000711102 3.25444e-05 6.16401e-06
3.25444e-05 0.000202313 2.23381e-06
6.16401e-06 2.23381e-06 4.78286e-05
0.000403185 -0.000117776 8.49354e-07
-0.000117776 3.61867e-05 6.01592e-06
8.49354e-07 6.01592e-06 -0.000211455
0.00213369 -0.000128806 5.78131e-07
-0.000128806 -4.69551e-05 -8.47369e-08
5.78131e-07 -8.47369e-08 5.98159e-06
0.000493903 1.1064e-05 1.70925e-06
1.1064e-05 1.39023e-06 3.04007e-07
1.70925e-06 3.04007e-07 -4.92281e-05
0.000400453 -7.1798e-05 -2.1738e-06
-7.1798e-05 -3.34774e-05 -5.5303e-07
-2.1738e-06 -5.5303e-07 -0.000120605
0.0022428 -0.000338474 -1.99868e-07
-0.000338474 -5.36393e-05 1.55975e-07
-1.99868e-07 1.55975e-07 6.59892e-06
0.00218965 -0.000479703 -1.76987e-06
-0.000479703 8.67989e-06 2.97573e-07
-1.76987e-06 2.97573e-07 7.75666e-06
0.00184504 -0.000654267 -1.56361e-06
-0.000654267 0.000592875 1.93536e-06
-1.56361e-06 1.93536e-06 0.000157463
0.00188986 -0.000816593 6.32285e-06
-0.000816593 0.000466663 1.01007e-06
6.32285e-06 1.01007e-06 -3.44871e-05
0.00197022 -0.000795814 3.73638e-06
-0.000795814 0.000265466 -4.78101e-06
3.73638e-06 -4.78101e-06 -0.000100601
0.00225417 -0.000674097 3.01875e-06
-0.000674097 0.000135681 -1.15617e-06
3.01875e-06 -1.15617e-06 -1.13272e-05
0.000666554 1.08832e-05 -8.14811e-07
1.08832e-05 0.000177316 -1.11733e-06
-8.14811e-07 -1.11733e-06 6.20244e-05
0.000776212 -5.17374e-05 8.93974e-07
-5.17374e-05 0.000272521 1.90153e-06
8.93974e-07 1.90153e-06 6.5617e-05
0.00145686 -0.000515868 3.51166e-06
-0.000515868 0.000439974 4.26218e-06
3.51166e-06 4.26218e-06 5.89654e-05
0.00118573 -0.00037204 1.06538e-05
-0.00037204 0.000511945 -7.81604e-06
1.06538e-05 -7.81604e-06 -1.78679e-05
0.000976117 -0.000137535 -1.14237e-06
-0.000137535 0.000298911 -1.14445e-06
-1.14237e-06 -1.14445e-06 -3.63663e-05
0.000307103 -9.06725e-05 5.89223e-07
-9.06725e-05 -4.69488e-05 -1.6594e-06
5.89223e-07 -1.6594e-06 -0.00030891
0.00214536 -0.000149223 1.26089e-06
-0.000149223 -0.00017349 -8.94323e-07
1.26089e-06 -8.94323e-07 -0.000101081
0.00223452 -0.000433939 -1.20512e-06
-0.000433939 -0.000204915 3.13053e-06
-1.20512e-06 3.13053e-06 -1.35748e-05
0.00242084 -0.000659746 -3.41461e-06
-0.000659746 8.35572e-05 -6.18794e-07
-3.41461e-06 -6.18794e-07 4.49195e-05
0.00245899 -0.000877903 1.07055e-05
-0.000877903 0.000337554 -3.76907e-06
1.07055e-05 -3.76907e-06 0.000105707
0.00118208 -0.000613316 -2.12192e-06
-0.000613316 0.000248674 -1.83478e-05
-2.12192e-06 -1.83478e-05 -0.000198184
0.00291478 -0.00101801 -7.98568e-06
-0.00101801 0.000947325 8.74417e-06
-7.98568e-06 8.74417e-06 0.000405517
0.000158386 4.96635e-05 -2.57133e-06
4.96635e-05 -0.000176016 -4.87022e-06
-2.57133e-06 -4.87022e-06 -0.000271036
0.000570272 -4.66983e-05 4.15128e-06
-4.66983e-05 7.85932e-05 6.75678e-07
4.15128e-06 6.75678e-07 -5.36593e-06
0.00121294 -0.000153037 -1.97046e-06
-0.000153037 0.000452563 1.15921e-05
-1.97046e-06 1.15921e-05 0.000341064
0.000520681 1.97261e-05 -3.85549e-06
1.97261e-05 8.71583e-05 3.5634e-06
-3.85549e-06 3.5634e-06 -7.35099e-05
0.000736278 -9.00861e-05 -3.45532e-06
-9.00861e-05 0.000226189 6.92373e-06
-3.45532e-06 6.92373e-06 8.68398e-06
0.000751507 -6.5758e-05 9.6662e-06
-6.5758e-05 0.000150157 -1.04231e-05
9.6662e-06 -1.04231e-05 -0.000100385
-0.000980206 -0.00027112 1.27947e-06
-0.00027112 -0.000482378 -2.26209e-06
1.27947e-06 -2.26209e-06 -0.001248
1.83507e-05 -0.000503594 -5.07129e-05
-0.000503594 -0.000472772 1.93162e-05
-5.07129e-05 1.93162e-05 -0.000816731
0.000440494 6.97002e-05 -8.2902e-07
6.97002e-05 3.33398e-05 -1.48353e-06
-8.2902e-07 -1.48353e-06 -0.000135775
0.000791681 0.000247398 -1.01909e-05
0.000247398 0.000325392 -5.69283e-06
-1.01909e-05 -5.69283e-06 3.18001e-05
0.00233124 0.000457433 -8.7732e-06
0.000457433 -6.58344e-05 -3.60989e-06
-8.7732e-06 -3.60989e-06 -4.79884e-05
0.00245711 0.000614573 -8.75009e-06
0.000614573 0.000333744 -1.01577e-06
-8.75009e-06 -1.01577e-06 0.00012428
0.00288787 0.000430977 -6.62414e-06
0.000430977 0.0012733 -1.16474e-06
-6.62414e-06 -1.16474e-06 0.00103383
0.0017048 0.000509566 -4.42957e-06
0.000509566 0.000541915 -4.27617e-06
-4.42957e-06 -4.27617e-06 0.000189848
0.00202261 0.000687776 -4.75685e-06
0.000687776 0.000288516 1.23974e-06
-4.75685e-06 1.23974e-06 -4.20785e-05
0.001919 0.00070703 -3.51397e-06
0.00070703 0.000477506 -1.83383e-06
-3.51397e-06 -1.83383e-06 6.10336e-05
0.000429533 0.000103234 1.08691e-06
0.000103234 3.10346e-05 -1.29652e-06
1.08691e-06 -1.29652e-06 -0.000150677
0.00239081 0.000352159 -2.47363e-06
0.000352159 -6.8286e-05 -1.93823e-06
-2.47363e-06 -1.93823e-06 7.8289e-06
0.00143196 0.000325554 1.10571e-06
0.000325554 0.0006542 1.76144e-06
1.10571e-06 1.76144e-06 0.000367214
0.00157276 0.000497343 2.3358e-06
0.000497343 0.000436829 1.06789e-06
2.3358e-06 1.06789e-06 0.000106388
0.0025817 0.000590099 1.83386e-06
0.000590099 0.000253165 3.56582e-07
1.83386e-06 3.56582e-07 0.00017139
0.00166355 0.000695055 -1.67157e-06
0.000695055 -1.91648e-05 -4.64933e-06
-1.67157e-06 -4.64933e-06 -0.000340204
0.00211005 0.000749343 2.43469e-07
0.000749343 0.000559448 5.71386e-07
2.43469e-07 5.71386e-07 0.000121585
0.00119764 0.000263211 -4.27631e-06
0.000263211 0.000574971 3.3508e-06
-4.27631e-06 3.3508e-06 0.000329891
0.00343545 0.00049948 -7.76312e-05
0.00049948 0.000560857 -2.09485e-05
-7.76312e-05 -2.09485e-05 0.000686531
0.00147408 0.000475301 -5.71074e-06
0.000475301 0.000592989 4.4705e-06
-5.71074e-06 4.4705e-06 0.000267851
0.00159243 0.000583707 -2.00659e-06
0.000583707 0.000374163 -4.42456e-06
-2.00659e-06 -4.42456e-06 -2.22933e-05
0.00216004 0.000766218 -3.07574e-05
0.000766218 0.000110976 -1.83252e-05
-3.07574e-05 -1.83252e-05 -0.000107086
0.00110253 0.000656123 -2.05983e-05
0.000656123 -6.06193e-05 -1.96664e-06
-2.05983e-05 -1.96664e-06 -0.000463491
0.00037572 0.000757437 2.77196e-05
0.000757437 -0.00166967 -3.80162e-05
2.77196e-05 -3.80162e-05 -0.0013909
3.48982e-06 0.000119324 3.18005e-06
0.000119324 -0.000223541 -8.22701e-07
3.18005e-06 -8.22701e-07 -0.000342576
0.000498288 0.000112423 1.33906e-07
0.000112423 0.00010888 1.57485e-06
1.33906e-07 1.57485e-06 1.8835e-05
0.00202561 0.000169886 1.39932e-06
0.000169886 0.00100412 -6.99096e-07
1.39932e-06 -6.99096e-07 0.000924214
0.000430962 -6.38721e-05 4.69465e-07
-6.38721e-05 1.55738e-05 -3.89227e-06
4.69465e-07 -3.89227e-06 -0.000102839
0.000436442 -4.08164e-05 -7.33003e-07
-4.08164e-05 3.05147e-05 -1.16211e-06
-7.33003e-07 -1.16211e-06 -0.000109145
0.00101163 0.000181343 1.51862e-07
0.000181343 0.000395541 1.16167e-06
1.51862e-07 1.16167e-06 0.000237093
-0.000183364 2.38808e-05 -5.88792e-06
2.38808e-05 -0.000349089 1.32072e-05
-5.88792e-06 1.32072e-05 -0.000421659
0.000531189 -1.41591e-05 -3.54021e-07
-1.41591e-05 7.75772e-05 -1.09279e-07
-3.54021e-07 -1.09279e-07 -4.76866e-05
0.000493305 6.61715e-05 1.48605e-07
6.61715e-05 4.7279e-05 -6.48501e-07
1.48605e-07 -6.48501e-07 -9.4844e-05
0.00108597 0.000107648 2.68448e-06
0.000107648 0.000383743 4.4489e-06
2.68448e-06 4.4489e-06 0.000333245
0.000537112 6.43768e-05 1.59182e-06
6.43768e-05 8.69355e-05 7.36687e-07
1.59182e-06 7.36687e-07 -5.85563e-05
0.000674294 4.80273e-05 -1.40782e-06
4.80273e-05 0.000147599 -2.04011e-06
-1.40782e-06 -2.04011e-06 5.04796e-05
0.00161136 0.000128228 -2.22543e-06
0.000128228 0.00073538 -1.22827e-05
-2.22543e-06 -1.22827e-05 0.000683898
0.00085078 0.00013372 -2.01683e-06
0.00013372 0.000245116 -2.62919e-06
-2.01683e-06 -2.62919e-06 9.98732e-05
0.000946338 0.000130818 1.72204e-06
0.000130818 0.000331725 1.3391e-06
1.72204e-06 1.3391e-06 0.000176945
0.000891471 8.73555e-05 2.89672e-07
8.73555e-05 0.000316537 1.69836e-06
2.89672e-07 1.69836e-06 0.000144707
0.000280059 -2.3583e-05 -3.77198e-08
-2.3583e-05 -9.74273e-05 2.64292e-06
-3.77198e-08 2.64292e-06 -0.000219715
0.00103155 -7.29047e-05 3.63093e-07
-7.29047e-05 0.000438387 -1.67259e-06
3.63093e-07 -1.67259e-06 0.000256701
0.000212426 -3.94684e-05 -1.3413e-06
-3.94684e-05 -0.000136369 3.23121e-06
-1.3413e-06 3.23121e-06 -0.000263694
0.000461447 3.81902e-06 -1.76011e-06
3.81902e-06 1.028e-05 3.21058e-06
-1.76011e-06 3.21058e-06 -7.30778e-05
0.000479946 3.77699e-05 2.46707e-06
3.77699e-05 1.91321e-05 -1.495e-07
2.46707e-06 -1.495e-07 -6.16395e-05
0.00038664 2.15544e-05 2.86874e-07
2.15544e-05 -6.59303e-05 4.4449e-06
2.86874e-07 4.4449e-06 -8.9197e-05
0.00044071 7.06655e-06 -2.97162e-06
7.06655e-06 -6.01167e-06 -3.5589e-06
-2.97162e-06 -3.5589e-06 -8.26236e-05
0.000883299 1.62002e-05 -3.38987e-06
1.62002e-05 0.000238555 -1.54761e-06
-3.38987e-06 -1.54761e-06 0.000218393
0.00260555 -5.44369e-06 1.84033e-05
-5.44369e-06 0.00130535 5.49233e-06
1.84033e-05 5.49233e-06 0.00131831
0.00139152 2.06024e-05 -9.58521e-06
2.06024e-05 0.000549611 -6.55016e-06
-9.58521e-06 -6.55016e-06 0.000532421
0.000767973 -1.11619e-05 6.35286e-06
-1.11619e-05 0.000150238 3.39728e-06
6.35286e-06 3.39728e-06 0.000155641
0.000787934 -2.17254e-05 5.29525e-07
-2.17254e-05 0.000155583 -2.63013e-06
5.29525e-07 -2.63013e-06 0.000160219
0.000502978 1.38898e-05 -2.23732e-06
1.38898e-05 9.72672e-06 -2.46794e-06
-2.23732e-06 -2.46794e-06 -3.92945e-05
0.000554906 -2.2732e-05 8.41081e-07
-2.2732e-05 3.73912e-05 -3.31516e-07
8.41081e-07 -3.31516e-07 -1.22047e-05
0.000502817 2.29284e-05 1.77338e-08
2.29284e-05 -1.76469e-05 -3.57963e-06
1.77338e-08 -3.57963e-06 -3.1227e-05
0.000801623 3.77218e-05 -1.40215e-07
3.77218e-05 0.000176339 1.1104e-07
-1.40215e-07 1.1104e-07 0.000160974
0.00217911 7.03485e-05 9.8954e-06
7.03485e-05 0.00104993 -4.46529e-06
9.8954e-06 -4.46529e-06 0.00105965
0.000489168 5.42907e-05 4.8724e-06
5.42907e-05 -2.67731e-06 5.50868e-06
4.8724e-06 5.50868e-06 -3.056e-05
0.00238044 9.58015e-05 -2.87781e-06
9.58015e-05 0.00118581 -2.79913e-07
-2.87781e-06 -2.79913e-07 0.00118952
0.00276883 0.000130849 2.36001e-06
0.000130849 0.00144137 6.93971e-06
2.36001e-06 6.93971e-06 0.0014358
0.00220581 0.0003142 -2.53641e-06
0.0003142 -3.60916e-05 -8.09735e-07
-2.53641e-06 -8.09735e-07 -1.49794e-05
0.00212266 9.98382e-05 1.68428e-06
9.98382e-05 -5.08452e-05 6.86011e-07
1.68428e-06 6.86011e-07 -1.16868e-06
0.00201874 -5.93905e-06 -8.58247e-07
-5.93905e-06 -1.26743e-05 -3.80769e-08
-8.58247e-07 -3.80769e-08 2.60818e-06
0.00211649 -7.26513e-06 1.37914e-07
-7.26513e-06 -6.47695e-05 -2.25108e-07
1.37914e-07 -2.25108e-07 -3.85396e-06
0.00232004 0.000164283 -3.91369e-07
0.000164283 -4.76891e-05 4.58022e-07
-3.91369e-07 4.58022e-07 1.41965e-05
0.00223312 8.84132e-05 8.20939e-06
8.84132e-05 -5.5405e-05 -5.45358e-06
8.20939e-06 -5.45358e-06 1.64226e-05
0.00236022 -3.61925e-06 1.72111e-06
-3.61925e-06 -8.88238e-05 -1.71028e-06
1.72111e-06 -1.71028e-06 1.08278e-05
0.00448163 0.00078184 5.49643e-05
0.00078184 -0.000411304 1.08982e-05
5.49643e-05 1.08982e-05 0.000205849
0.00273454 6.78582e-05 -2.49057e-05
6.78582e-05 0.000415352 2.88759e-05
-2.49057e-05 2.88759e-05 0.000612462
0.000487271 0.000108032 -2.89599e-06
0.000108032 4.0427e-05 -1.22884e-06
-2.89599e-06 -1.22884e-06 -5.26903e-05
0.00214036 -0.000129822 8.15597e-07
-0.000129822 -5.12279e-05 -2.91869e-07
8.15597e-07 -2.91869e-07 4.25434e-06
0.00221567 -0.000327796 2.13623e-06
-0.000327796 -4.87895e-05 -8.09671e-07
2.13623e-06 -8.09671e-07 2.23649e-06
0.00214649 -0.000471235 -4.90858e-07
-0.000471235 -1.19247e-05 4.134e-07
-4.90858e-07 4.134e-07 -6.1516e-06
0.000994447 -0.00056179 -3.30873e-06
-0.00056179 9.67931e-05 9.25348e-06
-3.30873e-06 9.25348e-06 -0.00031464
0.00217977 -0.00084414 1.73496e-05
-0.00084414 0.000625627 9.69994e-06
1.73496e-05 9.69994e-06 0.000123584
0.00161602 -0.000758026 -8.22855e-06
-0.000758026 5.79502e-05 -5.31773e-06
-8.22855e-06 -5.31773e-06 -0.000297028
0.00219705 -0.000669199 -5.72075e-06
-0.000669199 0.000105105 1.23228e-06
-5.72075e-06 1.23228e-06 -3.86908e-05
0.00169986 -0.000515531 3.58837e-05
-0.000515531 0.000524113 -3.06054e-05
3.58837e-05 -3.06054e-05 0.000171561
0.00116437 -0.000379304 2.6333e-05
-0.000379304 0.000455168 -2.56615e-05
2.6333e-05 -2.56615e-05 -9.59636e-06
0.000834301 -6.76691e-05 5.61639e-07
-6.76691e-05 0.000173352 5.38866e-06
5.61639e-07 5.38866e-06 -0.00012646
0.000493473 9.99743e-06 2.07547e-06
9.99743e-06 1.62187e-06 1.02374e-06
2.07547e-06 1.02374e-06 -4.94935e-05
0.00131624 -9.96102e-05 8.94599e-07
-9.96102e-05 0.000585014 6.20459e-06
8.94599e-07 6.20459e-06 0.000301776
0.000938109 -2.52869e-05 7.13008e-06
-2.52869e-05 0.000361641 -1.01667e-06
7.13008e-06 -1.01667e-06 0.000240105
0.000689145 -4.55912e-05 2.41457e-06
-4.55912e-05 0.000209232 -6.84672e-07
2.41457e-06 -6.84672e-07 7.83605e-06
0.00013795 -4.3135e-05 -3.3706e-06
-4.3135e-05 -0.000205742 -1.19264e-07
-3.3706e-06 -1.19264e-07 -0.000288786
0.00221512 -0.000166749 -5.03159e-07
-0.000166749 -0.000162646 -7.32362e-09
-5.03159e-07 -7.32362e-09 -6.44638e-05
0.000344695 2.54833e-05 3.82562e-07
2.54833e-05 -4.62443e-05 -2.38425e-06
3.82562e-07 -2.38425e-06 -0.000147179
0.000583941 -5.61149e-05 2.58691e-06
-5.61149e-05 0.000101613 9.89838e-07
2.58691e-06 9.89838e-07 8.74744e-06
0.000891735 -0.0001241 3.22431e-06
-0.0001241 0.000249736 1.86296e-07
3.22431e-06 1.86296e-07 0.000148475
0.00225677 -0.000445677 2.02344e-06
-0.000445677 -0.000171178 -7.34818e-07
2.02344e-06 -7.34818e-07 -1.70062e-05
0.00232827 -0.000654341 5.01682e-07
-0.000654341 3.23546e-05 -7.51798e-07
5.01682e-07 -7.51798e-07 -6.09359e-06
0.000487629 -0.000467292 7.07341e-06
-0.000467292 -0.000153 -2.29882e-08
7.07341e-06 -2.29882e-08 -0.000537404
0.00261357 -0.0009932 1.6433e-05
-0.0009932 0.000760905 3.30578e-07
1.6433e-05 3.30578e-07 0.000238887
0.00232896 -0.0008679 -9.1479e-07
-0.0008679 0.00028367 2.19929e-06
-9.1479e-07 2.19929e-06 4.03888e-05
0.00029539 -3.07792e-05 -9.49074e-07
-3.07792e-05 -5.35844e-05 8.99315e-08
-9.49074e-07 8.99315e-08 -0.000205054
0.00101456 -0.000116406 -9.43282e-07
-0.000116406 0.00041686 3.58927e-06
-9.43282e-07 3.58927e-06 0.000176472
0.00159783 -0.000688482 -1.96924e-06
-0.000688482 0.000461906 1.90154e-06
-1.96924e-06 1.90154e-06 3.46999e-05
0.000138959 -0.000198946 -8.66896e-07
-0.000198946 -2.44028e-05 1.16593e-06
-8.66896e-07 1.16593e-06 -0.000617672
0.00123834 -0.000120993 1.36562e-06
-0.000120993 0.000460225 5.82195e-06
1.36562e-06 5.82195e-06 0.000204082
0.00266668 -0.000315578 -6.6843e-06
-0.000315578 0.000104902 3.89298e-07
-6.6843e-06 3.89298e-07 0.000211202
0.00202218 -0.000492935 -1.62007e-05
-0.000492935 -0.000290319 7.58857e-06
-1.62007e-05 7.58857e-06 -6.69233e-05
0.00217285 -0.000789988 -6.63778e-06
-0.000789988 5.87274e-05 -2.16596e-08
-6.63778e-06 -2.16596e-08 -0.000116204
0.0042963 -0.00115432 -9.91724e-06
-0.00115432 0.001511 -1.76963e-06
-9.91724e-06 -1.76963e-06 0.00116704
0.000258598 -0.00059401 -2.07622e-05
-0.00059401 -0.000314871 -7.08156e-06
-2.07622e-05 -7.08156e-06 -0.000737872
8.89095e-05 -2.84093e-05 3.32806e-07
-2.84093e-05 -0.000200783 -3.34318e-07
3.32806e-07 -3.34318e-07 -0.000309401
0.00073309 1.67377e-05 -2.96042e-06
1.67377e-05 0.000137616 9.93506e-06
-2.96042e-06 9.93506e-06 3.61603e-05
-0.0015816 -0.000110117 -5.43947e-06
-0.000110117 -0.00128422 -7.68584e-07
-5.43947e-06 -7.68584e-07 -0.00135968
0.00197886 -0.000272171 -1.90405e-05
-0.000272171 0.00101311 2.15604e-05
-1.90405e-05 2.15604e-05 0.000807918
0.000855008 -9.11671e-05 -4.90757e-06
-9.11671e-05 0.000297526 2.43742e-05
-4.90757e-06 2.43742e-05 7.30582e-05
-0.00147359 -0.00011628 5.01241e-06
-0.00011628 -0.00056908 -6.36589e-07
5.01241e-06 -6.36589e-07 -0.00130968
0.000283633 -0.000760404 -1.83809e-05
-0.000760404 1.05511e-06 6.62997e-06
-1.83809e-05 6.62997e-06 -0.000642464
0.00157361 0.000213709 -2.86704e-06
0.000213709 0.000748539 -6.63585e-06
-2.86704e-06 -6.63585e-06 0.000535915
-0.000353585 9.14904e-05 -4.32905e-06
9.14904e-05 -0.000474102 -2.25302e-06
-4.32905e-06 -2.25302e-06 -0.000701633
0.00251726 0.00032732 2.14182e-06
0.00032732 1.13128e-06 1.21805e-06
2.14182e-06 1.21805e-06 9.29045e-05
0.00252506 0.000583154 1.27198e-05
0.000583154 0.000227657 5.86286e-06
1.27198e-05 5.86286e-06 0.000150453
0.00212382 0.000733847 7.18195e-06
0.000733847 0.000251456 2.97226e-06
7.18195e-06 2.97226e-06 -7.2789e-05
0.00157326 0.00049306 -1.77858e-06
0.00049306 0.000460625 9.89558e-08
-1.77858e-06 9.89558e-08 0.000126023
0.00169026 0.000696207 9.01749e-07
0.000696207 0.000331379 1.87464e-06
9.01749e-07 1.87464e-06 -9.61707e-05
0.00194491 0.000282984 5.54403e-07
0.000282984 0.000980315 -3.10486e-07
5.54403e-07 -3.10486e-07 0.000756839
0.00272209 0.00040518 4.94945e-06
0.00040518 0.000185996 2.56274e-06
4.94945e-06 2.56274e-06 0.00034167
0.0012045 0.00039404 -3.51398e-06
0.00039404 0.000399507 2.5998e-06
-3.51398e-06 2.5998e-06 0.000109484
0.00168519 0.000599298 3.30671e-06
0.000599298 0.000466685 -1.79616e-07
3.30671e-06 -1.79616e-07 5.35599e-05
0.00225373 0.000756435 -3.20803e-06
0.000756435 0.000176945 -3.52888e-06
-3.20803e-06 -3.52888e-06 -2.36853e-05
0.0018098 0.000744937 -4.44139e-06
0.000744937 0.000338993 5.15718e-06
-4.44139e-06 5.15718e-06 -8.38956e-05
0.00308316 0.00105786 4.33209e-05
0.00105786 -0.00050551 7.64985e-06
4.33209e-05 7.64985e-06 -0.00039922
0.000549849 0.00027085 -4.3461e-06
0.00027085 0.000191344 2.74377e-06
-4.3461e-06 2.74377e-06 -5.56558e-05
0.00284991 0.000743907 -8.34966e-05
0.000743907 0.000373772 -3.70067e-05
-8.34966e-05 -3.70067e-05 0.000331698
0.000758483 0.000401684 -7.21209e-06
0.000401684 -3.41253e-05 3.46799e-06
-7.21209e-06 3.46799e-06 -0.000348547
-1.95078e-05 0.000448189 9.61383e-07
0.000448189 -0.00054265 -1.39077e-05
9.61383e-07 -1.39077e-05 -0.000927998
0.00117453 0.000787323 -3.47454e-05
0.000787323 -0.000210765 -1.07549e-05
-3.47454e-05 -1.07549e-05 -0.000468124
0.0144513 0.000380542 -0.000471538
0.000380542 0.00230923 -6.47972e-05
-0.000471538 -6.47972e-05 0.00175105
0.00383822 0.00164014 -4.6786e-05
0.00164014 -0.00174225 -7.5596e-05
-4.6786e-05 -7.5596e-05 -0.000622948
0.0002187 0.00119617 7.87949e-06
0.00119617 -0.000905535 2.92462e-07
7.87949e-06 2.92462e-07 -0.00115629
0.00150797 -0.00208708 0.00141243
-0.00208708 0.00165482 0.000298757
0.00141243 0.000298757 -0.00151614
0.020823 -0.00803585 -3.10016e-05
-0.00803585 0.00779281 7.99906e-05
-3.10016e-05 7.99906e-05 0.00571209
-0.000190057 0.000106922 7.86636e-06
0.000106922 -0.000278229 2.23322e-06
7.86636e-06 2.23322e-06 -0.000376605
0.000972525 0.000116766 -3.11313e-07
0.000116766 0.000404845 -2.64912e-06
-3.11313e-07 -2.64912e-06 0.000325359
0.00207481 0.000262952 8.62178e-07
0.000262952 0.0011033 -3.67099e-07
8.62178e-07 -3.67099e-07 0.000985899
0.000498542 -5.57136e-05 -7.96821e-07
-5.57136e-05 6.68853e-05 -2.71776e-06
-7.96821e-07 -2.71776e-06 -6.34418e-05
0.000343999 6.46797e-05 -1.18255e-06
6.46797e-05 -4.62966e-05 -2.9517e-06
-1.18255e-06 -2.9517e-06 -0.00018846
0.000799176 -1.90522e-05 -1.01259e-07
-1.90522e-05 0.000249141 -1.01585e-06
-1.01259e-07 -1.01585e-06 0.000100329
0.000748451 7.36346e-05 -4.23779e-06
7.36346e-05 0.000187658 1.02451e-05
-4.23779e-06 1.02451e-05 8.48118e-05
0.000238232 7.61383e-05 3.12183e-06
7.61383e-05 -0.00013972 9.60356e-06
3.12183e-06 9.60356e-06 -0.000190346
0.000710737 0.000138745 -1.49055e-06
0.000138745 0.000211171 -4.39375e-07
-1.49055e-06 -4.39375e-07 3.84637e-05
0.000411963 -8.93675e-06 4.28415e-07
-8.93675e-06 -6.34065e-06 9.77229e-07
4.28415e-07 9.77229e-07 -0.000133528
0.000703087 5.08112e-05 -6.23632e-07
5.08112e-05 0.000191216 -3.18814e-09
-6.23632e-07 -3.18814e-09 2.76016e-05
0.00038126 8.63623e-05 -1.27587e-06
8.63623e-05 -2.71945e-05 -1.3294e-06
-1.27587e-06 -1.3294e-06 -7.77073e-05
0.000670673 0.000113911 -1.46047e-06
0.000113911 0.000149065 -1.693e-07
-1.46047e-06 -1.693e-07 6.57734e-06
0.00177642 0.000213609 -1.25523e-06
0.000213609 0.000864099 -1.133e-06
-1.25523e-06 -1.133e-06 0.000679935
0.000265377 0.000101208 4.79248e-07
0.000101208 -2.77601e-05 -3.49813e-06
4.79248e-07 -3.49813e-06 -0.000184743
0.000923586 0.000108216 3.2091e-06
0.000108216 0.000329345 -1.38187e-08
3.2091e-06 -1.38187e-08 0.000164966
0.000407575 -1.70799e-05 1.28624e-06
-1.70799e-05 -1.01651e-05 2.01773e-08
1.28624e-06 2.01773e-08 -0.000168865
0.000348025 -7.15362e-05 -8.6541e-07
-7.15362e-05 -4.76428e-05 2.10284e-06
-8.6541e-07 2.10284e-06 -0.000179624
0.000729804 -3.26275e-05 -8.24455e-07
-3.26275e-05 0.000206579 -8.25556e-07
-8.24455e-07 -8.25556e-07 4.30055e-05
0.00122363 -1.07787e-06 3.7093e-07
-1.07787e-06 0.000505971 -9.95012e-06
3.7093e-07 -9.95012e-06 0.000350618
0.000705568 -4.67564e-05 -1.12304e-06
-4.67564e-05 0.000229828 -9.86747e-07
-1.12304e-06 -9.86747e-07 7.35057e-05
0.000765825 -6.74971e-05 1.9011e-06
-6.74971e-05 0.000244883 -6.86208e-07
1.9011e-06 -6.86208e-07 8.37235e-05
0.000662172 -0.000122968 -1.86149e-06
-0.000122968 0.000153687 2.72838e-06
-1.86149e-06 2.72838e-06 2.21762e-05
0.000300609 -2.41522e-05 1.29941e-07
-2.41522e-05 -7.78678e-05 1.1139e-06
1.29941e-07 1.1139e-06 -0.000208734
0.000504234 -5.45871e-05 -1.84743e-06
-5.45871e-05 2.72195e-05 3.77813e-06
-1.84743e-06 3.77813e-06 -5.07277e-05
0.000502655 -3.70755e-05 1.93568e-06
-3.70755e-05 3.33938e-05 9.28938e-08
1.93568e-06 9.28938e-08 -4.8684e-05
0.000448544 3.11456e-06 2.73777e-06
3.11456e-06 -2.41925e-05 6.40666e-06
2.73777e-06 6.40666e-06 -4.89143e-05
0.000518293 5.02246e-05 -1.96699e-06
5.02246e-05 3.71911e-05 -3.41609e-06
-1.96699e-06 -3.41609e-06 -3.97439e-05
0.000410076 3.10679e-05 3.73558e-07
3.10679e-05 -4.94884e-05 7.16503e-08
3.73558e-07 7.16503e-08 -7.37608e-05
0.00253284 4.36435e-06 4.83079e-06
4.36435e-06 0.00126202 5.37537e-06
4.83079e-06 5.37537e-06 0.00127458
0.000475131 3.78063e-05 -3.55351e-06
3.78063e-05 -1.37255e-05 -7.15132e-06
-3.55351e-06 -7.15132e-06 -3.83879e-05
0.00170572 -5.56425e-06 -3.16372e-06
-5.56425e-06 0.000741358 1.61623e-07
-3.16372e-06 1.61623e-07 0.000749586
0.000803464 -1.15412e-05 4.98626e-07
-1.15412e-05 0.000168002 -2.30421e-06
4.98626e-07 -2.30421e-06 0.000173509
0.000450357 3.7468e-06 -3.96926e-07
3.7468e-06 -2.61291e-05 -1.75095e-06
-3.96926e-07 -1.75095e-06 -6.72796e-05
0.000540596 -3.73118e-05 7.88909e-08
-3.73118e-05 3.63789e-05 1.85215e-09
7.88909e-08 1.85215e-09 -1.46955e-05
0.000526939 1.24112e-05 7.88025e-07
1.24112e-05 -4.75901e-06 -3.35986e-06
7.88025e-07 -3.35986e-06 -1.5451e-05
0.0004778 -3.62045e-05 -1.42424e-06
-3.62045e-05 -9.9684e-06 5.14835e-07
-1.42424e-06 5.14835e-07 -5.98788e-05
0.000799332 2.75023e-05 -1.75587e-07
2.75023e-05 0.000168995 -7.2064e-07
-1.75587e-07 -7.2064e-07 0.000157539
0.00201115 5.19037e-05 6.42399e-06
5.19037e-05 0.000938114 -4.55495e-06
6.42399e-06 -4.55495e-06 0.000951755
0.000463201 3.31559e-05 9.4521e-07
3.31559e-05 -3.61317e-05 3.71069e-06
9.4521e-07 3.71069e-06 -5.37707e-05
0.00229536 7.57058e-05 -5.891e-06
7.57058e-05 0.00112572 1.14667e-06
-5.891e-06 1.14667e-06 0.0011341
0.00251066 0.000103698 -2.50107e-06
0.000103698 0.00126955 5.54921e-06
-2.50107e-06 5.54921e-06 0.00127141
0.00229141 0.000171472 -3.19664e-06
0.000171472 -4.81824e-05 -8.32518e-07
-3.19664e-06 -8.32518e-07 1.31406e-05
0.00210925 -6.4996e-06 1.70397e-06
-6.4996e-06 -6.78436e-05 2.38324e-08
1.70397e-06 2.38324e-08 -7.44619e-06
0.00201957 6.40906e-05 -5.90866e-06
6.40906e-05 -0.000211836 2.86814e-06
-5.90866e-06 2.86814e-06 -0.000143406
0.00255428 0.000581636 8.99001e-05
0.000581636 -0.00137301 1.9208e-05
8.99001e-05 1.9208e-05 -0.0007006
0.00234817 -3.06544e-05 -4.97368e-07
-3.06544e-05 -7.39505e-05 -2.72459e-06
-4.97368e-07 -2.72459e-06 2.52575e-05
0.00218934 6.38151e-05 8.07182e-07
6.38151e-05 9.38264e-05 -9.2034e-06
8.07182e-07 -9.2034e-06 0.000230596
0.00327037 -3.98071e-05 -2.48147e-05
-3.98071e-05 0.00085757 9.87195e-08
-2.48147e-05 9.87195e-08 0.000880326
0.00320556 8.73799e-05 -1.38755e-05
8.73799e-05 -0.00182521 -3.37325e-05
-1.38755e-05 -3.37325e-05 -0.000814647
0.00259187 0.000201812 0.000121652
0.000201812 -0.000769244 5.06108e-05
0.000121652 5.06108e-05 -0.000264082
0.000589813 8.68389e-05 -3.93276e-07
8.68389e-05 0.000106436 -7.02049e-07
-3.93276e-07 -7.02049e-07 1.42173e-05
0.000578315 -3.36255e-06 4.88832e-07
-3.36255e-06 0.000109793 -1.12169e-07
4.88832e-07 -1.12169e-07 8.83642e-06
0.00035966 -9.12601e-05 -6.28594e-06
-9.12601e-05 -1.48254e-05 6.34322e-07
-6.28594e-06 6.34322e-07 -0.00012998
0.000435601 -5.24389e-05 -3.96525e-06
-5.24389e-05 3.76575e-05 2.20381e-06
-3.96525e-06 2.20381e-06 -7.93712e-05
0.00229767 -0.000186532 -3.33381e-06
-0.000186532 -0.000136399 1.85444e-07
-3.33381e-06 1.85444e-07 -2.06391e-05
0.00225915 -0.000452167 1.06074e-06
-0.000452167 -0.000143084 -2.43875e-06
1.06074e-06 -2.43875e-06 -2.4499e-05
0.00223631 -0.000645719 -3.55221e-06
-0.000645719 -1.57785e-05 9.42744e-07
-3.55221e-06 9.42744e-07 -5.378e-05
0.00359008 -0.000820183 1.62283e-05
-0.000820183 0.00162698 1.3292e-05
1.62283e-05 1.3292e-05 0.00117816
0.000461653 -0.000762251 -1.79325e-06
-0.000762251 -0.000442648 -3.25629e-07
-1.79325e-06 -3.25629e-07 -0.000919149
0.00219782 -0.000856154 4.08427e-07
-0.000856154 0.000227256 -2.74731e-06
4.08427e-07 -2.74731e-06 -2.31564e-05
0.00106762 -0.000683777 1.74878e-05
-0.000683777 0.000133751 -1.75809e-05
1.74878e-05 -1.75809e-05 -0.000332616
0.00366664 -0.000303621 9.43539e-06
-0.000303621 0.00181355 -3.56195e-06
9.43539e-06 -3.56195e-06 0.0014228
-5.18505e-06 -1.99666e-05 -5.66583e-06
-1.99666e-05 -0.000377732 5.07351e-06
-5.66583e-06 5.07351e-06 -0.000580892
0.000637072 -5.2491e-05 3.6537e-06
-5.2491e-05 0.000134017 -5.53107e-07
3.6537e-06 -5.53107e-07 4.21938e-05
0.000596433 -0.000129035 -3.14651e-06
-0.000129035 0.000169541 -1.17669e-05
-3.14651e-06 -1.17669e-05 -7.44728e-05
0.000482724 -3.01886e-05 5.1394e-06
-3.01886e-05 6.29968e-05 -6.23591e-07
5.1394e-06 -6.23591e-07 -8.5042e-05
0.000612797 1.39365e-06 6.63672e-07
1.39365e-06 0.000147703 1.98668e-06
6.63672e-07 1.98668e-06 3.38419e-05
0.000552684 -6.84606e-05 -7.59751e-06
-6.84606e-05 3.83958e-05 -2.33104e-07
-7.59751e-06 -2.33104e-07 -4.93389e-05
0.00260872 -0.000297924 1.95577e-06
-0.000297924 8.10914e-05 1.35686e-06
1.95577e-06 1.35686e-06 0.000203774
0.000501816 -2.47002e-05 -6.51846e-07
-2.47002e-05 7.57602e-05 1.71392e-06
-6.51846e-07 1.71392e-06 -5.29701e-05
0.000840753 -4.0143e-05 6.38193e-06
-4.0143e-05 0.000217404 -1.01841e-07
6.38193e-06 -1.01841e-07 0.000105809
-0.000428712 -3.36023e-05 3.29475e-06
-3.36023e-05 -0.000517023 8.17339e-08
3.29475e-06 8.17339e-08 -0.000577468
0.00202345 -0.000505288 6.23585e-07
-0.000505288 -0.000313282 -1.23698e-06
6.23585e-07 -1.23698e-06 -0.000103963
0.00225859 -0.0007969 2.1641e-06
-0.0007969 0.000102317 -1.29168e-06
2.1641e-06 -1.29168e-06 -6.63938e-05
0.00186817 -0.000815696 -4.0105e-06
-0.000815696 0.000579468 1.8358e-07
-4.0105e-06 1.8358e-07 0.000117938
0.0025751 -0.000987356 -6.09611e-06
-0.000987356 0.00057218 1.70456e-06
-6.09611e-06 1.70456e-06 0.000246963
0.00144541 -0.00015123 2.48704e-06
-0.00015123 0.00066293 -2.24186e-06
2.48704e-06 -2.24186e-06 0.000468668
0.000223214 -3.29589e-05 7.04914e-06
-3.29589e-05 -0.000121528 8.38244e-06
7.04914e-06 8.38244e-06 -0.000338392
0.00177276 -0.00097991 2.53923e-06
-0.00097991 0.000907231 -2.77221e-06
2.53923e-06 -2.77221e-06 0.000192651
0.000987032 -0.000377731 -6.61058e-06
-0.000377731 0.000410215 -1.04409e-06
-6.61058e-06 -1.04409e-06 -8.50849e-05
0.00334395 -0.000434917 -4.16227e-05
-0.000434917 0.000417426 3.49244e-06
-4.16227e-05 3.49244e-06 0.000670394
0.0025691 -0.000656846 -4.14798e-05
-0.000656846 0.000198298 1.34365e-05
-4.14798e-05 1.34365e-05 0.000258648
0.00250233 -0.000925991 2.42608e-06
-0.000925991 0.000422186 -7.36776e-06
2.42608e-06 -7.36776e-06 0.00010812
0.00295787 -0.000982166 1.99898e-06
-0.000982166 0.000993996 4.60387e-06
1.99898e-06 4.60387e-06 0.00065946
0.000150342 -5.09699e-05 -2.05597e-06
-5.09699e-05 -8.77942e-05 -7.81314e-06
-2.05597e-06 -7.81314e-06 -0.000211138
0.000493898 -0.00012603 -1.04575e-05
-0.00012603 7.14155e-05 -5.65359e-06
-1.04575e-05 -5.65359e-06 -0.00010278
0.000111715 -0.000177783 -5.86202e-06
-0.000177783 0.000106053 4.76029e-05
-5.86202e-06 4.76029e-05 -0.000215976
-0.000682211 -0.000795312 -3.78975e-06
-0.000795312 0.00013777 -2.71433e-05
-3.78975e-06 -2.71433e-05 -0.000895871
0.00245397 -0.000466651 5.50521e-05
-0.000466651 -0.00512723 -1.59064e-05
5.50521e-05 -1.59064e-05 -0.00516972
0.00225325 0.000272046 -1.23505e-07
0.000272046 0.00114846 -4.11498e-06
-1.23505e-07 -4.11498e-06 0.000928716
0.00119519 0.000341518 -6.16822e-07
0.000341518 0.000382544 -8.49715e-07
-6.16822e-07 -8.49715e-07 0.000114759
0.00191102 0.00033266 5.93936e-05
0.00033266 -0.000263106 1.82479e-05
5.93936e-05 1.82479e-05 -8.46901e-05
0.00254598 0.000765681 2.368e-05
0.000765681 0.000349021 9.57405e-06
2.368e-05 9.57405e-06 0.000158946
0.0021465 0.000787814 7.58666e-06
0.000787814 0.000539525 1.06691e-05
7.58666e-06 1.06691e-05 0.00010373
0.00122038 0.000548513 5.79484e-06
0.000548513 0.00022677 6.06184e-06
5.79484e-06 6.06184e-06 -0.00018928
0.00539194 0.00136451 0.00011755
0.00136451 0.000386983 3.70701e-05
0.00011755 3.70701e-05 0.000288171
0.00153606 0.000310037 5.26081e-06
0.000310037 0.000767632 -5.23369e-08
5.26081e-06 -5.23369e-08 0.000532191
0.00261807 0.000702149 -2.28756e-05
0.000702149 0.000237227 7.08342e-07
-2.28756e-05 7.08342e-07 0.000225815
0.000924369 0.000422765 -4.5117e-06
0.000422765 0.000105025 3.38677e-06
-4.5117e-06 3.38677e-06 -0.000220186
0.00144151 0.000638538 8.99842e-07
0.000638538 0.000303698 -6.29861e-06
8.99842e-07 -6.29861e-06 -0.000119697
0.00218149 0.000873721 -1.13455e-05
0.000873721 0.000328056 -5.01347e-07
-1.13455e-05 -5.01347e-07 4.08545e-05
0.00457752 -0.000649964 -0.000161876
-0.000649964 -0.00459574 -8.15551e-05
-0.000161876 -8.15551e-05 -0.00548889
0.00707698 0.00168412 -0.000134321
0.00168412 -0.000194336 -6.0584e-05
-0.000134321 -6.0584e-05 0.00068446
0.000976217 0.00118291 -2.07902e-06
0.00118291 -0.00046458 6.48116e-06
-2.07902e-06 6.48116e-06 -0.000816121
0.000451146 -0.00186629 0.000509651
-0.00186629 0.00274052 0.000203839
0.000509651 0.000203839 -0.000121396
0.0126009 -0.00811927 -0.000464089
-0.00811927 0.00589745 -0.000424925
-0.000464089 -0.000424925 0.00366403
0.000887292 0.000264083 -1.57909e-05
0.000264083 0.000285637 5.47492e-07
-1.57909e-05 5.47492e-07 7.49616e-05
0.00108576 0.000543855 0.000714383
0.000543855 0.00399066 7.26755e-05
0.000714383 7.26755e-05 0.00203733
0.00335764 -0.00286472 -0.000177568
-0.00286472 0.00543271 -0.000228103
-0.000177568 -0.000228103 0.000539995
0.00293285 0.00110468 -5.21877e-05
0.00110468 0.00053736 -1.26807e-05
-5.21877e-05 -1.26807e-05 0.000363331
0.000765998 0.000333214 -2.601e-05
0.000333214 1.95608e-05 -4.18817e-06
-2.601e-05 -4.18817e-06 -0.00026542
0.000734559 0.00065376 -2.95333e-05
0.00065376 -2.65651e-05 -2.5976e-05
-2.95333e-05 -2.5976e-05 -0.000384152
-3.32933e-05 0.00110003 5.29869e-05
0.00110003 -0.000775667 9.47413e-05
5.29869e-05 9.47413e-05 -0.00114843
0.0123978 0.00232774 5.32981e-05
0.00232774 0.00145993 -2.73907e-05
5.32981e-05 -2.73907e-05 0.000461135
0.00458429 0.0024719 -3.64178e-05
0.0024719 -0.000107994 -5.22906e-05
-3.64178e-05 -5.22906e-05 0.00031993
0.014414 -0.00630939 0.00097661
-0.00630939 0.00444761 0.000516843
0.00097661 0.000516843 0.00114574
0.0125582 -0.00291226 -8.07939e-05
-0.00291226 0.0033075 0.000599644
-8.07939e-05 0.000599644 0.00186424
0.000416102 0.000101552 5.90829e-06
0.000101552 9.93712e-05 -3.01376e-06
5.90829e-06 -3.01376e-06 1.48421e-05
0.000179151 0.000127009 8.41252e-06
0.000127009 -4.56128e-05 9.97714e-07
8.41252e-06 9.97714e-07 -0.000149469
0.00190372 0.000292508 2.63176e-06
0.000292508 0.00101578 -1.00087e-06
2.63176e-06 -1.00087e-06 0.000842482
0.000576659 8.9998e-06 8.29636e-07
8.9998e-06 0.000120736 -3.39737e-07
8.29636e-07 -3.39737e-07 -2.21238e-05
0.000615719 6.894e-05 -7.97261e-07
6.894e-05 0.000129264 -2.00165e-06
-7.97261e-07 -2.00165e-06 -2.7646e-05
7.02819e-05 3.40656e-05 -1.88402e-06
3.40656e-05 -0.00020364 8.87164e-07
-1.88402e-06 8.87164e-07 -0.000354111
0.000696274 0.000110958 -7.72429e-06
0.000110958 0.000183387 2.09712e-06
-7.72429e-06 2.09712e-06 3.74443e-05
-0.000603281 5.25738e-05 -3.83041e-06
5.25738e-05 -0.000648553 5.57473e-07
-3.83041e-06 5.57473e-07 -0.000697422
0.000355679 -1.37904e-05 1.75908e-07
-1.37904e-05 -3.67388e-05 9.14988e-07
1.75908e-07 9.14988e-07 -0.000172633
0.00125888 0.000137217 1.74007e-06
0.000137217 0.00052717 8.59019e-08
1.74007e-06 8.59019e-08 0.000358645
0.000593822 5.64159e-05 1.56171e-07
5.64159e-05 0.000134637 1.86077e-07
1.56171e-07 1.86077e-07 -3.52179e-05
0.000749969 3.48367e-05 1.27228e-06
3.48367e-05 0.000229202 -4.34413e-07
1.27228e-06 -4.34413e-07 5.24024e-05
0.000343439 0.000103319 -4.83717e-07
0.000103319 1.97051e-05 -2.60323e-06
-4.83717e-07 -2.60323e-06 -0.000134184
0.0014179 0.000130466 -1.78696e-06
0.000130466 0.000652103 -3.12689e-06
-1.78696e-06 -3.12689e-06 0.000484904
-0.000355689 5.15901e-05 -5.83662e-06
5.15901e-05 -0.000288323 -5.85406e-06
-5.83662e-06 -5.85406e-06 -0.000499455
0.000499557 -8.38879e-05 1.69463e-07
-8.38879e-05 6.88947e-05 -6.51489e-07
1.69463e-07 -6.51489e-07 -9.91685e-05
0.000770795 -8.10723e-05 -1.05969e-06
-8.10723e-05 0.000248821 -6.32602e-07
-1.05969e-06 -6.32602e-07 7.10939e-05
0.000770637 -5.00799e-05 -2.18371e-07
-5.00799e-05 0.000246517 -6.00381e-07
-2.18371e-07 -6.00381e-07 7.16755e-05
0.000725872 -2.58173e-05 -3.57516e-06
-2.58173e-05 0.0001814 3.07329e-07
-3.57516e-06 3.07329e-07 4.3624e-05
0.00107948 1.06013e-06 -6.15713e-06
1.06013e-06 0.000469244 -5.31491e-06
-6.15713e-06 -5.31491e-06 0.000272775
0.0007674 -5.63095e-05 2.41616e-06
-5.63095e-05 0.000224477 -9.19196e-06
2.41616e-06 -9.19196e-06 8.9276e-05
-0.00126142 -3.13727e-06 -3.07917e-06
-3.13727e-06 -0.00103082 -6.37511e-06
-3.07917e-06 -6.37511e-06 -0.00114559
0.000452924 -4.46822e-05 1.91747e-06
-4.46822e-05 5.88658e-05 -1.96892e-06
1.91747e-06 -1.96892e-06 -0.000111769
0.0003476 -7.73698e-05 2.04625e-06
-7.73698e-05 -3.14219e-05 3.41314e-07
2.04625e-06 3.41314e-07 -0.000166064
0.00070473 -9.947e-05 -1.2347e-06
-9.947e-05 0.000211276 -7.21698e-08
-1.2347e-06 -7.21698e-08 6.11494e-05
0.000514617 -8.30332e-05 -1.24463e-06
-8.30332e-05 4.41429e-05 1.99202e-06
-1.24463e-06 1.99202e-06 -7.05103e-05
0.000419191 -7.98616e-05 3.3828e-06
-7.98616e-05 -4.41938e-06 7.74264e-07
3.3828e-06 7.74264e-07 -0.000141985
0.00054355 -0.000112608 1.83072e-08
-0.000112608 7.64729e-05 2.01202e-07
1.83072e-08 2.01202e-07 -5.3686e-05
0.000540982 -5.37602e-05 -1.9846e-06
-5.37602e-05 4.71789e-05 4.44559e-06
-1.9846e-06 4.44559e-06 -3.13551e-05
0.000392285 -1.05312e-05 9.26708e-07
-1.05312e-05 -5.58903e-06 -8.52543e-07
9.26708e-07 -8.52543e-07 -0.000147865
0.000495572 1.01538e-06 2.16589e-06
1.01538e-06 2.94086e-05 1.17667e-07
2.16589e-06 1.17667e-07 -5.32318e-05
0.00145008 -2.7329e-05 -8.74287e-06
-2.7329e-05 0.000594628 6.75717e-06
-8.74287e-06 6.75717e-06 0.000573967
0.000487309 6.56849e-05 -1.94215e-06
6.56849e-05 2.40081e-05 -3.32783e-06
-1.94215e-06 -3.32783e-06 -5.76987e-05
0.000873598 -1.52028e-05 -3.74905e-06
-1.52028e-05 0.000240844 7.28586e-07
-3.74905e-06 7.28586e-07 0.000218196
0.000781453 3.40998e-06 -2.91604e-06
3.40998e-06 0.000169061 4.83594e-06
-2.91604e-06 4.83594e-06 0.000173646
0.000402684 -1.60388e-05 3.1135e-06
-1.60388e-05 -5.47962e-05 -4.88601e-06
3.1135e-06 -4.88601e-06 -7.83973e-05
0.00256193 3.43954e-06 6.70384e-06
3.43954e-06 0.00128053 -1.26603e-08
6.70384e-06 -1.26603e-08 0.00129301
0.000890478 2.31628e-06 -8.48259e-06
2.31628e-06 0.000233047 -5.34858e-06
-8.48259e-06 -5.34858e-06 0.000237104
0.000493107 6.32913e-05 2.00467e-06
6.32913e-05 4.86769e-05 1.08393e-06
2.00467e-06 1.08393e-06 -4.97324e-05
0.000464061 5.10262e-05 -2.60395e-06
5.10262e-05 -6.75782e-06 -2.19713e-06
-2.60395e-06 -2.19713e-06 -5.28275e-05
0.000485432 -4.68279e-06 1.60169e-06
-4.68279e-06 7.07497e-06 1.20584e-07
1.60169e-06 1.20584e-07 -4.1342e-05
0.000488077 8.95834e-06 7.01588e-07
8.95834e-06 -2.81175e-05 -3.10527e-06
7.01588e-07 -3.10527e-06 -3.73798e-05
0.000556144 -6.08298e-05 -1.67552e-06
-6.08298e-05 5.37732e-05 2.23359e-06
-1.67552e-06 2.23359e-06 -1.59822e-06
0.000482593 1.32618e-05 8.23107e-08
1.32618e-05 -3.28131e-05 -7.15589e-07
8.23107e-08 -7.15589e-07 -4.32881e-05
0.00200667 3.60095e-05 4.37478e-06
3.60095e-05 0.000931123 -4.62296e-06
4.37478e-06 -4.62296e-06 0.000946964
0.00109406 3.53638e-05 -1.0085e-07
3.53638e-05 0.000355591 1.65373e-06
-1.0085e-07 1.65373e-06 0.0003453
0.00145872 4.47418e-05 -2.60744e-07
4.47418e-05 0.00059202 1.42527e-06
-2.60744e-07 1.42527e-06 0.000600931
0.000867652 4.82808e-05 -7.12798e-06
4.82808e-05 0.000226635 7.93309e-06
-7.12798e-06 7.93309e-06 0.000228285
0.000840704 0.000398044 8.04026e-05
0.000398044 -0.00219539 1.64188e-05
8.04026e-05 1.64188e-05 -0.00150264
0.00231622 -5.01727e-05 -4.49761e-06
-5.01727e-05 -6.08591e-05 5.85601e-06
-4.49761e-06 5.85601e-06 3.06954e-05
0.00220535 7.03568e-05 3.19918e-05
7.03568e-05 0.000131597 -1.30441e-05
3.19918e-05 -1.30441e-05 0.000248005
0.0026529 0.000355562 -5.04595e-05
0.000355562 -0.00172519 -3.37568e-05
-5.04595e-05 -3.37568e-05 -0.000481696
0.0023698 0.000112372 4.18431e-05
0.000112372 -0.000680494 -1.8071e-06
4.18431e-05 -1.8071e-06 -0.000290026
0.00258339 -4.96411e-05 3.26881e-06
-4.96411e-05 0.000358056 -9.28622e-06
3.26881e-06 -9.28622e-06 0.000409037
0.00469654 -0.000330698 -5.62092e-05
-0.000330698 0.0011001 -1.75383e-05
-5.62092e-05 -1.75383e-05 0.001211
0.00295405 -0.000213999 2.60528e-05
-0.000213999 -0.00037789 8.44822e-06
2.60528e-05 8.44822e-06 0.00014392
0.015565 -0.000817967 4.06407e-05
-0.000817967 0.00271532 -7.81568e-06
4.06407e-05 -7.81568e-06 0.00159308
0.0150654 0.00523552 0.00135282
0.00523552 0.00590498 -0.000452975
0.00135282 -0.000452975 0.00315804
0.0178536 0.00608184 3.40758e-05
0.00608184 0.01155 9.171e-06
3.40758e-05 9.171e-06 0.00892188
0.000172148 -9.89058e-05 -4.8829e-07
-9.89058e-05 -0.000135628 -6.08301e-07
-4.8829e-07 -6.08301e-07 -0.000245747
0.000551624 -8.2228e-06 1.51779e-06
-8.2228e-06 8.19135e-05 -1.24043e-07
1.51779e-06 -1.24043e-07 -1.06554e-05
0.000629287 -8.76443e-05 5.20063e-08
-8.76443e-05 0.00014794 3.33943e-06
5.20063e-08 3.33943e-06 4.0443e-05
0.000544036 -3.33597e-05 6.6148e-07
-3.33597e-05 8.96228e-05 4.89922e-07
6.6148e-07 4.89922e-07 -2.55274e-05
0.00090968 0.000106419 -5.09199e-06
0.000106419 0.000358536 7.65111e-07
-5.09199e-06 7.65111e-07 0.000222367
0.000434678 0.000125488 5.63606e-07
0.000125488 -6.39398e-06 8.1151e-06
5.63606e-07 8.1151e-06 -0.000125453
0.000972784 -9.70985e-06 2.54642e-06
-9.70985e-06 0.000376433 4.12914e-06
2.54642e-06 4.12914e-06 0.000239102
0.000505802 -2.83741e-05 -1.55907e-06
-2.83741e-05 6.24194e-05 1.39676e-06
-1.55907e-06 1.39676e-06 -5.05479e-05
0.00254968 -0.000281542 1.09424e-05
-0.000281542 3.95653e-05 -3.93448e-07
1.09424e-05 -3.93448e-07 0.000192847
0.00206182 -0.000527965 1.49268e-05
-0.000527965 -0.000327475 -7.18404e-06
1.49268e-05 -7.18404e-06 -0.000132162
0.00224401 -0.000796667 3.7104e-07
-0.000796667 9.0223e-05 2.13374e-06
3.7104e-07 2.13374e-06 -7.22123e-05
0.00210879 -0.000812757 1.73685e-05
-0.000812757 0.000685359 7.52952e-06
1.73685e-05 7.52952e-06 0.000251155
0.00193232 -0.000943042 -1.41961e-05
-0.000943042 0.000215576 4.19503e-06
-1.41961e-05 4.19503e-06 -0.000110793
0.00233267 -0.00106457 3.37079e-05
-0.00106457 0.00129478 -9.36678e-06
3.37079e-05 -9.36678e-06 0.000502814
0.00469494 -0.000728465 6.42543e-06
-0.000728465 0.00236739 3.68828e-06
6.42543e-06 3.68828e-06 0.00197071
0.000871717 -0.000201425 6.52287e-06
-0.000201425 0.000337305 -4.09562e-05
6.52287e-06 -4.09562e-05 5.43013e-05
0.000603047 -7.48033e-05 3.18671e-06
-7.48033e-05 5.24379e-05 8.80239e-07
3.18671e-06 8.80239e-07 -4.59852e-05
0.000817762 -8.15867e-05 9.32259e-06
-8.15867e-05 0.000236303 -1.71209e-05
9.32259e-06 -1.71209e-05 6.2708e-05
0.00109153 -5.04804e-05 3.6184e-06
-5.04804e-05 0.000434243 2.20185e-06
3.6184e-06 2.20185e-06 0.000295026
0.00075466 2.47332e-05 6.2389e-06
2.47332e-05 0.000229402 -4.3902e-06
6.2389e-06 -4.3902e-06 0.000193504
0.00239544 -0.000387889 -5.83877e-07
-0.000387889 -7.21034e-05 3.20516e-06
-5.83877e-07 3.20516e-06 0.000198667
0.000487994 -7.8098e-05 -3.09674e-06
-7.8098e-05 0.000110249 -1.16159e-07
-3.09674e-06 -1.16159e-07 -2.11281e-05
0.00112839 -0.000165769 -7.42146e-06
-0.000165769 0.000444878 5.09858e-06
-7.42146e-06 5.09858e-06 0.000290451
0.00174475 -0.000612276 7.18439e-06
-0.000612276 -0.000282858 -3.39293e-06
7.18439e-06 -3.39293e-06 -0.000179162
0.00179779 -0.000823895 1.16291e-06
-0.000823895 2.66255e-05 -7.98706e-08
1.16291e-06 -7.98706e-08 -0.000218775
0.000871327 -0.000740993 -7.56668e-07
-0.000740993 -0.000197363 -4.04814e-06
-7.56668e-07 -4.04814e-06 -0.000480509
0.0016552 -0.000337956 5.07274e-07
-0.000337956 0.000929663 -2.40322e-05
5.07274e-07 -2.40322e-05 0.000561373
0.00158738 -0.000640465 3.96462e-06
-0.000640465 0.00122679 3.41371e-06
3.96462e-06 3.41371e-06 0.000405156
0.00490803 -0.000774524 -5.04214e-05
-0.000774524 0.00115053 2.11146e-05
-5.04214e-05 2.11146e-05 0.00134008
0.00420505 -0.000951669 -4.97454e-05
-0.000951669 0.00136653 1.42504e-05
-4.97454e-05 1.42504e-05 0.00118053
0.00206492 -0.000944033 7.2113e-06
-0.000944033 0.00027388 -2.19167e-06
7.2113e-06 -2.19167e-06 1.63916e-05
-0.000670374 -0.000447047 -6.75652e-06
-0.000447047 -0.000776701 1.59411e-05
-6.75652e-06 1.59411e-05 -0.000918531
0.000305002 -0.000136737 1.10726e-06
-0.000136737 3.96009e-05 9.31563e-06
1.10726e-06 9.31563e-06 -0.000182978
0.00036631 -0.000171977 5.25155e-06
-0.000171977 0.000135507 2.49943e-07
5.25155e-06 2.49943e-07 -0.000119746
0.00191424 -0.000257946 -5.70411e-06
-0.000257946 0.00139663 -2.30072e-05
-5.70411e-06 -2.30072e-05 0.00073424
-0.00663454 -0.000347797 0.000530765
-0.000347797 -0.00434447 -2.56144e-05
0.000530765 -2.56144e-05 -0.00383325
0.0115874 -0.000330712 6.35673e-05
-0.000330712 0.00136029 1.69485e-05
6.35673e-05 1.69485e-05 0.00135221
0.00243863 0.000334881 9.37015e-06
0.000334881 0.00126771 -8.58583e-06
9.37015e-06 -8.58583e-06 0.00106068
0.00150495 0.000492875 -3.17933e-06
0.000492875 0.000489818 3.79554e-06
-3.17933e-06 3.79554e-06 0.000143294
0.00283086 0.000661139 9.70626e-05
0.000661139 0.000376888 4.16473e-05
9.70626e-05 4.16473e-05 0.000383295
0.00295579 0.000946731 2.30009e-05
0.000946731 0.0007411 8.84945e-06
2.30009e-05 8.84945e-06 0.000434058
0.00290676 0.000825518 1.61878e-05
0.000825518 0.00114654 4.2713e-06
1.61878e-05 4.2713e-06 0.000688285
0.0155258 0.000714224 7.95516e-05
0.000714224 0.00305051 -4.17621e-05
7.95516e-05 -4.17621e-05 0.0022765
0.00858845 0.00219924 -0.00020816
0.00219924 -0.000377229 -9.4369e-06
-0.00020816 -9.4369e-06 0.000724776
0.00198148 0.00120785 7.17131e-06
0.00120785 0.000189251 -3.08289e-05
7.17131e-06 -3.08289e-05 -0.00027762
0.0130128 -0.00404488 -0.000468346
-0.00404488 0.00553582 -8.33636e-06
-0.000468346 -8.33636e-06 0.00298738
0.00266392 -0.0084295 -0.00231046
-0.0084295 0.00382789 -0.00146085
-0.00231046 -0.00146085 0.00112495
0.00106584 0.000317056 1.6736e-06
0.000317056 0.000455339 -7.92316e-07
1.6736e-06 -7.92316e-07 0.000213097
-0.00179449 -0.00237767 0.000447657
-0.00237767 -0.00267114 7.50865e-05
0.000447657 7.50865e-05 -0.00441074
-0.00266405 -0.00217138 -0.000477461
-0.00217138 0.00519502 -0.000196414
-0.000477461 -0.000196414 7.24286e-05
0.0033787 0.00105197 -1.60524e-05
0.00105197 0.000740422 1.69787e-06
-1.60524e-05 1.69787e-06 0.000612317
0.000829934 0.000408149 -8.14961e-06
0.000408149 0.000111274 8.05652e-06
-8.14961e-06 8.05652e-06 -0.000220759
0.00122039 0.000757739 5.93088e-06
0.000757739 0.000230467 1.85629e-06
5.93088e-06 1.85629e-06 -0.000163765
0.00120972 0.0010951 5.14522e-05
0.0010951 0.000119434 3.40699e-05
5.14522e-05 3.40699e-05 -0.000160411
0.0138603 0.00242749 -0.000145196
0.00242749 0.00112411 -8.74462e-05
-0.000145196 -8.74462e-05 -0.000660713
0.00456906 0.00283397 -4.71104e-05
0.00283397 -0.000412518 -4.38587e-05
-4.71104e-05 -4.38587e-05 0.000299394
0.0170238 -0.00483023 0.000523532
-0.00483023 0.00689994 -1.14991e-05
0.000523532 -1.14991e-05 0.0034077
0.015026 -0.00407394 0.00016494
-0.00407394 0.00253591 0.000699427
0.00016494 0.000699427 0.000804619
0.00221592 0.000385818 -2.03983e-05
0.000385818 0.00112011 -1.28731e-05
-2.03983e-05 -1.28731e-05 0.000908236
-0.0104588 0.00120002 -0.000143667
0.00120002 0.00346549 -0.000137415
-0.000143667 -0.000137415 -0.0028508
0.00484059 0.000823404 -0.000359275
0.000823404 0.00385432 -0.000477131
-0.000359275 -0.000477131 -0.000830249
0.00268045 0.000796743 -2.85596e-05
0.000796743 0.000694256 -1.12577e-06
-2.85596e-05 -1.12577e-06 0.000653793
0.00224033 0.000777547 -6.87376e-05
0.000777547 0.000937571 -2.58564e-05
-6.87376e-05 -2.58564e-05 0.00056118
0.000773266 0.000770877 -9.96904e-05
0.000770877 0.000710142 -2.37305e-05
-9.96904e-05 -2.37305e-05 1.36694e-05
-0.00254467 0.00160917 -3.79796e-05
0.00160917 -0.00119609 -3.94841e-05
-3.79796e-05 -3.94841e-05 -0.00140621
0.000260721 0.00289242 0.000364989
0.00289242 -0.00205115 0.000130568
0.000364989 0.000130568 -0.00451257
0.0185108 -0.00588588 0.000226986
-0.00588588 0.00926747 0.000683136
0.000226986 0.000683136 0.00522245
0.0086664 -0.000999017 -0.000167852
-0.000999017 -0.00203735 -0.000144657
-0.000167852 -0.000144657 -0.000986792
-0.000770365 0.000114693 3.89501e-06
0.000114693 -0.000579299 -7.34093e-06
3.89501e-06 -7.34093e-06 -0.000708884
0.00155742 0.000278089 1.07542e-05
0.000278089 0.000788595 2.50451e-06
1.07542e-05 2.50451e-06 0.000620774
-0.000726418 5.36973e-05 -1.28885e-06
5.36973e-05 -0.000513896 -8.14546e-07
-1.28885e-06 -8.14546e-07 -0.000672029
0.000332436 5.28335e-05 1.69973e-06
5.28335e-05 -5.14495e-05 -7.88732e-08
1.69973e-06 -7.88732e-08 -0.000186637
0.000983367 8.92814e-05 -1.08203e-06
8.92814e-05 0.000383254 -1.57591e-06
-1.08203e-06 -1.57591e-06 0.00019962
0.000578182 1.13212e-05 -2.08867e-06
1.13212e-05 0.000132998 1.94395e-06
-2.08867e-06 1.94395e-06 -4.57687e-05
0.00054436 8.94331e-05 4.75422e-06
8.94331e-05 9.48059e-05 4.80755e-06
4.75422e-06 4.80755e-06 -7.47469e-05
-0.000382668 5.58637e-05 -4.10053e-06
5.58637e-05 -0.000411923 8.41465e-07
-4.10053e-06 8.41465e-07 -0.000555156
0.000777163 4.48334e-05 1.48507e-07
4.48334e-05 0.000256204 -9.57233e-07
1.48507e-07 -9.57233e-07 7.74921e-05
0.000758542 8.5241e-05 7.6183e-07
8.5241e-05 0.000236441 -1.1543e-07
7.6183e-07 -1.1543e-07 7.78934e-05
0.000855472 -4.90102e-05 -9.83235e-07
-4.90102e-05 0.000295391 2.00165e-06
-9.83235e-07 2.00165e-06 0.000118803
-0.000907002 2.0024e-05 2.39018e-06
2.0024e-05 -0.000607578 3.62991e-07
2.39018e-06 3.62991e-07 -0.000813518
-8.07281e-05 4.24602e-05 -2.65213e-06
4.24602e-05 0.000107083 4.73247e-06
-2.65213e-06 4.73247e-06 -0.000229213
0.000625307 -3.73593e-05 -1.89187e-06
-3.73593e-05 0.000226353 -9.01782e-06
-1.89187e-06 -9.01782e-06 4.34572e-05
0.0011777 -2.14017e-05 -2.09066e-07
-2.14017e-05 0.000530441 -4.28309e-07
-2.09066e-07 -4.28309e-07 0.000329103
0.000797623 -7.95178e-05 -4.3502e-07
-7.95178e-05 0.000269316 -9.69114e-07
-4.3502e-07 -9.69114e-07 8.86691e-05
0.000308554 -7.70761e-05 4.01244e-06
-7.70761e-05 -8.89004e-05 6.79129e-06
4.01244e-06 6.79129e-06 -0.000215909
0.000812514 -8.77202e-05 6.73909e-07
-8.77202e-05 0.000285776 -1.38594e-06
6.73909e-07 -1.38594e-06 0.000100926
0.000723411 -6.08782e-05 -1.77357e-06
-6.08782e-05 0.000187112 3.34786e-08
-1.77357e-06 3.34786e-08 5.32184e-05
-0.000389074 -5.85586e-05 2.0122e-06
-5.85586e-05 -0.000483005 3.61827e-06
2.0122e-06 3.61827e-06 -0.000593908
9.90982e-05 -4.85009e-05 2.89429e-07
-4.85009e-05 -0.000149087 -2.21797e-06
2.89429e-07 -2.21797e-06 -0.000303109
0.000111287 -3.08161e-05 -7.02744e-06
-3.08161e-05 -0.000100655 -4.08916e-06
-7.02744e-06 -4.08916e-06 -0.000268312
1.27187e-05 -8.27437e-05 3.45947e-06
-8.27437e-05 -0.000200832 -4.81022e-06
3.45947e-06 -4.81022e-06 -0.000334985
0.00101005 -0.000111644 8.67048e-06
-0.000111644 0.000288716 -1.54277e-05
8.67048e-06 -1.54277e-05 0.000186659
0.000200647 -0.000127698 6.08e-07
-0.000127698 -0.000242869 4.0803e-06
6.08e-07 4.0803e-06 -0.000390961
-1.93776e-05 -5.53048e-05 -6.1496e-06
-5.53048e-05 -0.000226598 -2.72537e-06
-6.1496e-06 -2.72537e-06 -0.000391042
0.000668735 -5.81527e-05 1.2146e-06
-5.81527e-05 0.000185463 -1.00502e-06
1.2146e-06 -1.00502e-06 1.51812e-05
2.52616e-05 -3.65117e-05 1.58566e-06
-3.65117e-05 -0.000217714 -1.45335e-06
1.58566e-06 -1.45335e-06 -0.00038124
0.000680308 -0.000104571 -1.20776e-10
-0.000104571 0.000199805 -1.94347e-07
-1.20776e-10 -1.94347e-07 4.38798e-05
0.000471236 -2.44887e-05 1.34079e-06
-2.44887e-05 2.30977e-05 1.40504e-06
1.34079e-06 1.40504e-06 -9.59069e-05
0.00082669 -9.94999e-05 -1.57773e-06
-9.94999e-05 0.000279906 1.09501e-06
-1.57773e-06 1.09501e-06 0.000132466
0.000634158 -8.1412e-05 -8.83514e-07
-8.1412e-05 0.000132975 1.2101e-07
-8.83514e-07 1.2101e-07 8.44267e-06
0.000426604 3.17157e-05 3.30702e-08
3.17157e-05 -2.52781e-05 4.03213e-06
3.30702e-08 4.03213e-06 -0.000104696
0.000517509 -0.000105278 1.25896e-06
-0.000105278 5.44788e-05 -1.39308e-06
1.25896e-06 -1.39308e-06 -7.29937e-05
0.000519098 -3.68125e-05 -3.94215e-07
-3.68125e-05 3.03569e-05 1.11407e-07
-3.94215e-07 1.11407e-07 -4.55654e-05
0.00142273 9.70117e-06 -7.27045e-06
9.70117e-06 0.000570153 7.1036e-06
-7.27045e-06 7.1036e-06 0.00054975
0.000491736 -5.87043e-05 1.19328e-06
-5.87043e-05 2.22046e-05 -3.46784e-06
1.19328e-06 -3.46784e-06 -5.71313e-05
0.000875608 -1.5718e-05 -6.56598e-06
-1.5718e-05 0.000235512 8.06029e-07
-6.56598e-06 8.06029e-07 0.00021306
0.000762343 1.25907e-05 1.01705e-06
1.25907e-05 0.000148387 2.22441e-06
1.01705e-06 2.22441e-06 0.000152139
0.000434205 -1.43066e-05 2.382e-06
-1.43066e-05 -3.72216e-05 -4.62194e-06
2.382e-06 -4.62194e-06 -6.04221e-05
0.00254513 1.30674e-05 6.88196e-06
1.30674e-05 0.00126972 3.57152e-08
6.88196e-06 3.57152e-08 0.00128243
0.00256367 2.02486e-06 7.12981e-07
2.02486e-06 0.00128161 -5.0844e-06
7.12981e-07 -5.0844e-06 0.0012941
0.00102182 7.89759e-05 -9.01963e-07
7.89759e-05 0.000378791 1.15212e-06
-9.01963e-07 1.15212e-06 0.000276272
0.000515554 5.98832e-05 -1.91278e-06
5.98832e-05 2.95695e-05 -2.2714e-06
-1.91278e-06 -2.2714e-06 -2.1564e-05
0.000545111 -1.52529e-05 -1.05348e-07
-1.52529e-05 8.47546e-05 7.85083e-07
-1.05348e-07 7.85083e-07 -1.40755e-05
0.000489966 6.72053e-06 7.53127e-07
6.72053e-06 -2.7178e-05 -3.31496e-06
7.53127e-07 -3.31496e-06 -3.57603e-05
0.000468181 -1.31206e-05 8.97942e-07
-1.31206e-05 -5.19093e-06 -1.64723e-07
8.97942e-07 -1.64723e-07 -5.06314e-05
0.000543517 -5.83473e-05 -1.17499e-06
-5.83473e-05 4.64455e-05 2.16307e-06
-1.17499e-06 2.16307e-06 -4.31652e-06
0.000488951 7.23796e-06 -4.45797e-07
7.23796e-06 -2.80272e-05 -6.60122e-09
-4.45797e-07 -6.60122e-09 -3.7257e-05
0.00196675 2.18749e-05 -8.37614e-07
2.18749e-05 0.000903398 -4.69074e-06
-8.37614e-07 -4.69074e-06 0.00092071
0.0011282 2.35952e-05 -4.93394e-07
2.35952e-05 0.0003741 2.07796e-06
-4.93394e-07 2.07796e-06 0.000366438
0.00130645 2.90884e-05 -1.22944e-06
2.90884e-05 0.000489982 2.27501e-08
-1.22944e-06 2.27501e-08 0.000502515
0.000810994 3.48338e-05 -8.85414e-06
3.48338e-05 0.000184312 7.36352e-06
-8.85414e-06 7.36352e-06 0.000190245
-0.00882777 0.00116041 0.000495518
0.00116041 -0.00312771 -3.82051e-05
0.000495518 -3.82051e-05 -0.0057871
-0.00117402 0.000161369 0.00105105
0.000161369 0.00597335 -0.000267889
0.00105105 -0.000267889 0.00239878
0.00233952 0.000326209 -0.000161002
0.000326209 -0.00218116 -2.75803e-05
-0.000161002 -2.75803e-05 -0.000647253
0.00164969 1.83204e-05 1.51139e-05
1.83204e-05 -0.00102714 -3.07176e-05
1.51139e-05 -3.07176e-05 -0.000602641
0.00169755 -7.28557e-05 6.484e-06
-7.28557e-05 -0.00026338 1.78153e-05
6.484e-06 1.78153e-05 -0.000209565
-0.00125146 3.49608e-05 -9.24685e-05
3.49608e-05 -0.00154739 -2.53308e-05
-9.24685e-05 -2.53308e-05 -0.00054263
0.00384125 -0.000380582 3.60965e-06
-0.000380582 0.000444256 5.68829e-06
3.60965e-06 5.68829e-06 0.00057471
0.011991 -7.57994e-05 0.000178974
-7.57994e-05 -0.000507651 -7.19061e-05
0.000178974 -7.19061e-05 -0.00127597
0.00110824 0.00346597 -1.52138e-06
0.00346597 0.000770174 -6.23303e-05
-1.52138e-06 -6.23303e-05 -0.00249599
0.0116106 0.00691497 -0.000488302
0.00691497 0.00802425 0.00024711
-0.000488302 0.00024711 0.00558176
0.00188396 -0.000731643 3.51876e-05
-0.000731643 -0.00211965 -4.04546e-05
3.51876e-05 -4.04546e-05 -0.00104675
0.0152124 -0.00218696 0.000214039
-0.00218696 0.00185878 -7.49477e-05
0.000214039 -7.49477e-05 0.000376664
0.0151532 0.00606232 0.000375069
0.00606232 0.00465111 -0.000528931
0.000375069 -0.000528931 0.00141197
0.018632 0.00408992 -0.000316597
0.00408992 0.00547991 0.000262727
-0.000316597 0.000262727 0.00357998
0.000956218 0.000166203 -3.09567e-06
0.000166203 0.000390789 4.57194e-06
-3.09567e-06 4.57194e-06 0.000217228
0.000359457 3.72294e-05 3.52339e-07
3.72294e-05 -3.38841e-05 -1.0458e-06
3.52339e-07 -1.0458e-06 -0.000136542
0.000562598 -9.56641e-05 1.72483e-06
-9.56641e-05 9.84228e-05 1.3941e-06
1.72483e-06 1.3941e-06 1.50941e-07
0.000652754 1.27985e-05 6.99339e-06
1.27985e-05 0.000162344 -1.96405e-07
6.99339e-06 -1.96405e-07 4.19724e-05
0.000856668 8.70532e-05 2.38927e-06
8.70532e-05 0.00034014 1.3979e-06
2.38927e-06 1.3979e-06 0.000201585
0.00046673 6.5303e-06 -2.92298e-07
6.5303e-06 6.54664e-05 7.9335e-06
-2.92298e-07 7.9335e-06 -9.82741e-05
0.000750309 9.32803e-05 1.08316e-06
9.32803e-05 0.000218389 3.342e-06
1.08316e-06 3.342e-06 8.35676e-05
0.000462236 6.20497e-05 4.70716e-06
6.20497e-05 2.09389e-05 1.02743e-06
4.70716e-06 1.02743e-06 -0.000119103
0.000718778 -3.67502e-05 2.81807e-06
-3.67502e-05 0.000217656 -1.27528e-06
2.81807e-06 -1.27528e-06 8.09619e-05
0.000479371 -1.63847e-05 2.1271e-06
-1.63847e-05 3.56513e-05 -3.06083e-06
2.1271e-06 -3.06083e-06 -7.08e-05
0.00140723 -0.00033153 3.27089e-05
-0.00033153 -0.000566198 -4.76229e-06
3.27089e-05 -4.76229e-06 -0.000293813
0.00113146 -0.000566789 3.13489e-05
-0.000566789 -0.000619651 -1.04033e-05
3.13489e-05 -1.04033e-05 -0.000483357
0.00103615 -0.000714929 2.74054e-06
-0.000714929 -0.000403465 2.32407e-06
2.74054e-06 2.32407e-06 -0.000575831
2.33068e-05 -0.000647263 -1.12534e-05
-0.000647263 -0.000652072 2.51089e-06
-1.12534e-05 2.51089e-06 -0.000920453
0.0030681 -0.000493939 8.91159e-06
-0.000493939 0.00189553 3.42763e-05
8.91159e-06 3.42763e-05 0.00125227
-0.000174095 -0.000480322 -2.32141e-06
-0.000480322 -0.000166671 -5.18252e-06
-2.32141e-06 -5.18252e-06 -0.000648888
0.00142629 -0.000226916 5.21125e-06
-0.000226916 0.000621312 -2.03705e-06
5.21125e-06 -2.03705e-06 0.000490928
0.000688015 -4.68391e-05 -4.19758e-07
-4.68391e-05 0.000228111 3.25604e-06
-4.19758e-07 3.25604e-06 9.31442e-05
0.00238006 -0.000563442 1.02479e-05
-0.000563442 -0.00018214 -8.42672e-06
1.02479e-05 -8.42672e-06 6.60293e-05
0.000357156 -4.92214e-05 5.75194e-07
-4.92214e-05 7.5958e-05 1.73875e-06
5.75194e-07 1.73875e-06 -0.000158969
-0.000208185 -0.000173848 -9.07312e-07
-0.000173848 -0.000204168 -5.4866e-06
-9.07312e-07 -5.4866e-06 -0.000459654
0.00186655 -0.000750981 1.95452e-05
-0.000750981 3.97213e-05 -2.55348e-06
1.95452e-05 -2.55348e-06 -2.17246e-05
0.00187636 -0.000933988 -6.70657e-07
-0.000933988 9.80894e-05 3.37411e-06
-6.70657e-07 3.37411e-06 -9.3627e-05
0.000311353 -0.000687413 1.97039e-05
-0.000687413 -0.000197693 -1.42079e-05
1.97039e-05 -1.42079e-05 -0.000454276
0.00117095 -0.000349807 4.16394e-06
-0.000349807 0.000977997 -1.81902e-05
4.16394e-06 -1.81902e-05 0.000305707
0.00264262 -0.000916268 -6.15306e-05
-0.000916268 0.000381836 3.57403e-05
-6.15306e-05 3.57403e-05 0.000120005
0.00100214 -0.000670636 -3.513e-05
-0.000670636 -0.000189252 7.15055e-06
-3.513e-05 7.15055e-06 -0.000216781
0.000552878 -0.000646805 -7.43858e-05
-0.000646805 0.00032363 4.88943e-05
-7.43858e-05 4.88943e-05 -0.000101477
-0.00274431 -0.000252969 -7.05135e-06
-0.000252969 -0.00181887 1.15115e-05
-7.05135e-06 1.15115e-05 -0.00206271
-0.00100902 -5.30227e-05 3.09163e-06
-5.30227e-05 -0.000680065 9.24996e-06
3.09163e-06 9.24996e-06 -0.000961475
0.000547837 -6.98701e-05 8.71834e-06
-6.98701e-05 0.000351139 -1.32227e-05
8.71834e-06 -1.32227e-05 -2.45914e-05
-0.00229494 0.00120693 -0.000390345
0.00120693 0.00688417 1.90584e-05
-0.000390345 1.90584e-05 0.00223391
0.000367372 -0.00142186 -9.66111e-06
-0.00142186 0.00224805 1.51679e-05
-9.66111e-06 1.51679e-05 0.00144018
0.00234067 0.00102591 -0.000119028
0.00102591 -0.00517808 -3.0955e-05
-0.000119028 -3.0955e-05 -0.00541854
0.000214112 0.000243586 1.24314e-05
0.000243586 -3.26246e-05 -4.4913e-06
1.24314e-05 -4.4913e-06 -0.000269138
0.00153724 0.000561939 1.09192e-05
0.000561939 0.000571825 1.86071e-05
1.09192e-05 1.86071e-05 0.000177751
0.00349346 0.000935177 6.56376e-05
0.000935177 0.000789949 1.97017e-05
6.56376e-05 1.97017e-05 0.00069911
0.00163989 0.000832401 1.43918e-05
0.000832401 0.00047497 2.0923e-05
1.43918e-05 2.0923e-05 4.7162e-05
0.0123985 -0.00274526 0.000209009
-0.00274526 0.00457087 6.68435e-05
0.000209009 6.68435e-05 0.00363446
0.00368262 0.00127823 -0.000362374
0.00127823 -0.00415868 -6.78001e-05
-0.000362374 -6.78001e-05 -0.0058415
0.00517133 0.00270123 1.5644e-05
0.00270123 0.00022003 2.99299e-05
1.5644e-05 2.99299e-05 0.000651669
0.0024038 0.00107206 5.1505e-05
0.00107206 0.000939368 -1.45053e-05
5.1505e-05 -1.45053e-05 0.000715291
0.0066191 -0.00310725 -0.000380349
-0.00310725 0.0031644 -0.000360445
-0.000380349 -0.000360445 -3.26942e-05
-0.000372184 -0.00318597 -0.000641535
-0.00318597 0.00569465 -0.000207412
-0.000641535 -0.000207412 0.000447461
0.0228599 -0.00518875 0.000676062
-0.00518875 0.00628448 0.000362047
0.000676062 0.000362047 0.00430588
0.00042109 0.000234507 1.68819e-05
0.000234507 7.09784e-05 -4.09622e-06
1.68819e-05 -4.09622e-06 -0.00013297
-0.00414475 0.00044566 -0.000178488
0.00044566 0.00533754 -3.56521e-05
-0.000178488 -3.56521e-05 -2.90603e-06
0.00550248 0.00112257 -0.000118504
0.00112257 0.00320184 -0.000167242
-0.000118504 -0.000167242 -0.00193177
0.00173539 0.000808899 1.11519e-05
0.000808899 0.000289512 3.54284e-06
1.11519e-05 3.54284e-06 0.000184312
0.000742609 0.00059791 1.20815e-05
0.00059791 0.000217574 4.33539e-06
1.20815e-05 4.33539e-06 -0.000167801
0.000725602 0.000903694 -5.41965e-05
0.000903694 0.000480781 -6.09321e-05
-5.41965e-05 -6.09321e-05 -7.90106e-05
0.00411186 0.00300266 2.7038e-05
0.00300266 0.0012272 2.72455e-05
2.7038e-05 2.72455e-05 0.00101094
0.0166482 0.00391444 4.84926e-05
0.00391444 0.00388972 1.36463e-05
4.84926e-05 1.36463e-05 0.00174138
0.00741179 -0.00355726 8.334e-05
-0.00355726 0.00300008 -8.31213e-05
8.334e-05 -8.31213e-05 -0.00161496
0.0149096 -0.00221021 -7.76836e-06
-0.00221021 0.0021216 -6.7515e-05
-7.76836e-06 -6.7515e-05 0.00332993
0.000784433 0.00044459 -1.46684e-05
0.00044459 0.000307584 -7.55206e-06
-1.46684e-05 -7.55206e-06 2.87534e-05
0.00197333 0.000208965 -0.000327925
0.000208965 0.00208838 -7.59494e-05
-0.000327925 -7.59494e-05 -0.00239611
0.000841188 0.0007074 -0.000121157
0.0007074 -0.00018744 -0.000169397
-0.000121157 -0.000169397 -0.00175442
-0.000658548 0.00028297 -4.52582e-06
0.00028297 -0.00015517 -2.01922e-05
-4.52582e-06 -2.01922e-05 -0.000406424
-0.000760193 0.000604812 -0.000184599
0.000604812 0.000996432 -9.49444e-06
-0.000184599 -9.49444e-06 0.000200787
0.013994 0.00459943 0.000100281
0.00459943 0.00450576 -4.04705e-05
0.000100281 -4.04705e-05 0.000274202
-0.00222322 -0.00496593 2.93616e-06
-0.00496593 -0.000312898 0.000228203
2.93616e-06 0.000228203 -0.00497548
0.0115992 0.000344778 5.96053e-05
0.000344778 -0.00157293 -0.000321712
5.96053e-05 -0.000321712 0.000988441
0.000836177 0.0001789 -4.32442e-06
0.0001789 0.000307462 1.4433e-05
-4.32442e-06 1.4433e-05 0.000174022
0.000950149 0.000224585 -9.75069e-06
0.000224585 0.000514174 -5.49965e-06
-9.75069e-06 -5.49965e-06 0.000319167
-0.000423892 9.7776e-05 1.05992e-06
9.7776e-05 -0.000116772 1.22558e-07
1.05992e-06 1.22558e-07 -0.000416038
0.000626671 8.7457e-05 -1.76455e-06
8.7457e-05 0.000144476 -1.55044e-06
-1.76455e-06 -1.55044e-06 -2.12599e-05
0.00112039 -3.90839e-05 -2.02818e-06
-3.90839e-05 0.000470024 4.75238e-06
-2.02818e-06 4.75238e-06 0.000284343
0.000230791 7.20562e-05 2.45996e-06
7.20562e-05 -0.000101189 2.63937e-06
2.45996e-06 2.63937e-06 -0.000251547
-0.00103837 2.78717e-05 1.85306e-06
2.78717e-05 -0.00067131 2.92188e-06
1.85306e-06 2.92188e-06 -0.000877257
0.000692192 -2.69281e-05 1.22834e-06
-2.69281e-05 0.00019431 2.10278e-07
1.22834e-06 2.10278e-07 1.90673e-05
0.00055025 2.27148e-05 2.30641e-07
2.27148e-05 0.000174848 -2.33793e-06
2.30641e-07 -2.33793e-06 -4.30016e-06
2.29788e-05 2.5385e-05 1.89237e-06
2.5385e-05 0.000206247 2.91764e-06
1.89237e-06 2.91764e-06 -0.000156734
-0.000358861 5.64972e-05 -4.13821e-06
5.64972e-05 0.000159681 1.23108e-05
-4.13821e-06 1.23108e-05 -0.000323971
0.000338445 -1.37566e-06 -2.88672e-06
-1.37566e-06 0.000419175 -1.59411e-06
-2.88672e-06 -1.59411e-06 3.79786e-05
0.000983279 1.81111e-05 -1.65198e-06
1.81111e-05 0.000417254 -5.32597e-06
-1.65198e-06 -5.32597e-06 0.000255233
0.000687338 -0.000143785 2.41504e-06
-0.000143785 0.000192545 1.79369e-06
2.41504e-06 1.79369e-06 1.7299e-05
0.000417733 -3.80282e-05 1.01646e-06
-3.80282e-05 -1.61422e-05 3.1403e-06
1.01646e-06 3.1403e-06 -0.00014252
0.00037173 -9.19528e-05 9.95243e-07
-9.19528e-05 -7.63642e-06 1.22197e-05
9.95243e-07 1.22197e-05 -0.000107545
0.000193393 -3.94466e-05 2.46453e-06
-3.94466e-05 -7.24835e-05 3.4012e-06
2.46453e-06 3.4012e-06 -0.000223843
0.000574245 -4.63779e-05 8.83067e-09
-4.63779e-05 0.000134793 6.36505e-07
8.83067e-09 6.36505e-07 -1.5937e-05
0.000471257 -5.03604e-05 -1.01714e-07
-5.03604e-05 7.66265e-05 -2.1065e-06
-1.01714e-07 -2.1065e-06 -5.46507e-05
0.000311192 -5.30472e-05 -8.23583e-06
-5.30472e-05 -2.99696e-05 -4.85769e-06
-8.23583e-06 -4.85769e-06 -0.000164017
0.000523918 -7.45686e-05 9.62542e-06
-7.45686e-05 0.000267472 -6.86625e-06
9.62542e-06 -6.86625e-06 0.000102945
0.000520107 -0.000188586 9.85662e-07
-0.000188586 -0.000107405 3.89748e-06
9.85662e-07 3.89748e-06 -0.000197259
0.000609544 -0.000135683 -1.07984e-05
-0.000135683 6.61211e-05 -6.50906e-07
-1.07984e-05 -6.50906e-07 -4.46128e-05
0.00031696 -0.000176098 7.77336e-06
-0.000176098 -0.000130187 7.3021e-06
7.77336e-06 7.3021e-06 -0.000282062
0.00190452 -0.000498216 1.33763e-06
-0.000498216 0.000734475 2.0251e-05
1.33763e-06 2.0251e-05 0.000416701
0.00178731 -0.000238912 3.793e-06
-0.000238912 0.000809327 -8.21117e-06
3.793e-06 -8.21117e-06 0.000617364
1.41934e-05 -0.000116673 -9.47275e-06
-0.000116673 -0.000314583 -5.82809e-06
-9.47275e-06 -5.82809e-06 -0.00044077
0.000532758 -7.7804e-05 -3.44649e-08
-7.7804e-05 8.49005e-05 -7.10019e-07
-3.44649e-08 -7.10019e-07 -7.78758e-05
-0.000198574 -4.82099e-05 -5.25798e-07
-4.82099e-05 -0.000340446 -2.86803e-06
-5.25798e-07 -2.86803e-06 -0.000529834
0.000962209 -7.07709e-05 -3.93354e-07
-7.07709e-05 0.000358299 1.59909e-06
-3.93354e-07 1.59909e-06 0.000189251
0.000734034 -0.000121083 -4.46235e-07
-0.000121083 0.000229303 4.87449e-07
-4.46235e-07 4.87449e-07 5.28352e-05
0.000533911 -6.09178e-05 1.04132e-06
-6.09178e-05 4.98904e-05 1.65462e-06
1.04132e-06 1.65462e-06 -7.17503e-05
0.00134807 -0.000180698 -2.0567e-06
-0.000180698 0.000634287 -3.09546e-07
-2.0567e-06 -3.09546e-07 0.000453589
0.000672856 -0.000101974 -5.03764e-07
-0.000101974 0.000149678 3.25951e-08
-5.03764e-07 3.25951e-08 2.44718e-05
0.000505513 8.68448e-06 -1.23686e-06
8.68448e-06 1.91009e-05 3.3791e-06
-1.23686e-06 3.3791e-06 -6.10551e-05
0.000721687 -0.000128794 7.87819e-07
-0.000128794 0.000187863 -1.98678e-06
7.87819e-07 -1.98678e-06 5.91183e-05
0.000589303 -5.30534e-05 -1.72793e-07
-5.30534e-05 7.22535e-05 1.66441e-07
-1.72793e-07 1.66441e-07 -6.53509e-06
0.00143758 1.20332e-05 -1.19157e-05
1.20332e-05 0.000574766 7.36462e-06
-1.19157e-05 7.36462e-06 0.000552938
0.000540787 -6.62626e-05 1.77303e-06
-6.62626e-05 5.17877e-05 -4.01643e-06
1.77303e-06 -4.01643e-06 -2.94885e-05
0.000872444 -9.9654e-06 -7.83614e-06
-9.9654e-06 0.000226869 6.9467e-07
-7.83614e-06 6.9467e-07 0.00020361
0.000804102 2.1987e-05 1.06331e-06
2.1987e-05 0.000171484 2.80011e-06
1.06331e-06 2.80011e-06 0.000173568
0.000437434 -2.76478e-05 2.21285e-06
-2.76478e-05 -4.02375e-05 -4.99536e-06
2.21285e-06 -4.99536e-06 -6.47785e-05
0.00165793 2.1566e-05 1.03839e-05
2.1566e-05 0.000712274 -1.47957e-06
1.03839e-05 -1.47957e-06 0.000720489
0.00251804 1.2699e-05 1.05529e-05
1.2699e-05 0.00125216 -5.17177e-06
1.05529e-05 -5.17177e-06 0.00126495
0.000501148 4.94312e-05 1.46533e-06
4.94312e-05 3.3153e-05 -1.18155e-06
1.46533e-06 -1.18155e-06 -6.75366e-05
0.000602107 6.05058e-05 -1.2981e-06
6.05058e-05 7.77128e-05 -1.65456e-06
-1.2981e-06 -1.65456e-06 2.35992e-05
0.000591052 2.99393e-07 9.92247e-07
2.99393e-07 0.000102929 7.66492e-07
9.92247e-07 7.66492e-07 4.72939e-06
0.000477732 3.36662e-06 1.42703e-06
3.36662e-06 -3.35114e-05 -3.56627e-06
1.42703e-06 -3.56627e-06 -4.2871e-05
0.000497517 5.02855e-05 7.7089e-08
5.02855e-05 1.35706e-05 -1.63374e-07
7.7089e-08 -1.63374e-07 -3.47654e-05
0.00054117 -0.000112941 -2.61601e-06
-0.000112941 7.29224e-05 5.13857e-07
-2.61601e-06 5.13857e-07 -2.02365e-05
0.0019884 8.18796e-06 -5.96485e-06
8.18796e-06 0.000914982 -4.73986e-06
-5.96485e-06 -4.73986e-06 0.000933094
0.000467185 5.16007e-06 -2.40817e-07
5.16007e-06 -4.0965e-05 2.65422e-08
-2.40817e-07 2.65422e-08 -4.95321e-05
0.000501346 -1.33374e-05 -1.43777e-06
-1.33374e-05 1.25395e-05 2.06104e-06
-1.43777e-06 2.06104e-06 -3.10825e-05
0.00047569 5.76088e-06 -1.17937e-06
5.76088e-06 -3.69865e-05 3.37242e-06
-1.17937e-06 3.37242e-06 -4.6187e-05
0.00201812 2.34558e-05 -5.22974e-06
2.34558e-05 0.000935841 -1.05973e-07
-5.22974e-06 -1.05973e-07 0.000952824
0.00198018 3.70643e-05 -5.40878e-06
3.70643e-05 0.00091464 4.62439e-06
-5.40878e-06 4.62439e-06 0.000930531
-0.00651409 -0.00164523 -0.000172944
-0.00164523 0.00531885 5.47348e-05
-0.000172944 5.47348e-05 0.00123083
0.00174719 0.00131975 -0.000250659
0.00131975 0.000545512 7.69086e-05
-0.000250659 7.69086e-05 -0.00143168
0.00293681 -0.00097101 -0.000594483
-0.00097101 0.0012284 0.000257609
-0.000594483 0.000257609 -0.0033429
-0.000646387 0.000582269 0.00105194
0.000582269 0.00590721 -0.000330548
0.00105194 -0.000330548 0.00188955
0.00223108 0.000560246 -3.91763e-05
0.000560246 -0.00112961 -3.23282e-06
-3.91763e-05 -3.23282e-06 -0.000293096
0.00269901 -0.000447815 8.91373e-05
-0.000447815 -0.000289241 6.9513e-06
8.91373e-05 6.9513e-06 -0.000174602
0.000755912 -0.000365008 0.000267322
-0.000365008 -0.00470105 -6.28618e-05
0.000267322 -6.28618e-05 -0.00642295
0.0205662 0.00310418 -0.000764334
0.00310418 0.00915793 6.35122e-05
-0.000764334 6.35122e-05 0.00638867
0.00388073 0.00799707 -0.00221136
0.00799707 0.00372928 0.00144569
-0.00221136 0.00144569 0.00113103
0.0045853 -0.000598763 2.65986e-05
-0.000598763 -0.000411546 7.01985e-06
2.65986e-05 7.01985e-06 0.000257922
0.00893586 -0.00207101 0.000153159
-0.00207101 -0.00138212 -0.000131629
0.000153159 -0.000131629 -0.00365464
0.0198732 0.00527837 -0.000310796
0.00527837 0.00623778 -0.000108707
-0.000310796 -0.000108707 0.0030609
0.0139615 0.004207 -2.56583e-05
0.004207 0.00254471 0.000388633
-2.56583e-05 0.000388633 0.000416486
0.00175277 -0.00164477 -0.000112871
-0.00164477 -0.00297785 2.56558e-05
-0.000112871 2.56558e-05 -0.00191973
0.00600185 -0.00341438 0.00040083
-0.00341438 -0.000154865 -0.000220073
0.00040083 -0.000220073 -0.00395189
0.00563591 0.00329245 9.8998e-05
0.00329245 0.000885187 -0.000778281
9.8998e-05 -0.000778281 -0.00274121
0.00846827 0.000873112 -0.000269367
0.000873112 -0.00237002 5.31763e-06
-0.000269367 5.31763e-06 -0.00141364
0.00250808 -9.21404e-05 1.2655e-06
-9.21404e-05 0.00141841 1.69044e-05
1.2655e-06 1.69044e-05 0.00114939
0.000374449 0.000107105 -1.60142e-06
0.000107105 3.47414e-06 -2.37609e-06
-1.60142e-06 -2.37609e-06 -0.000139554
0.000517526 9.90074e-05 3.02855e-06
9.90074e-05 5.27907e-05 -1.31703e-06
3.02855e-06 -1.31703e-06 -4.40273e-05
0.000198881 1.14037e-05 7.36196e-06
1.14037e-05 -8.52152e-05 -1.4383e-06
7.36196e-06 -1.4383e-06 -0.00020032
0.000442998 9.57836e-05 3.30083e-06
9.57836e-05 2.87144e-05 3.05662e-06
3.30083e-06 3.05662e-06 -0.000156284
0.000444442 3.50035e-05 -1.82555e-07
3.50035e-05 3.86533e-05 2.43788e-06
-1.82555e-07 2.43788e-06 -0.000110694
0.000262986 3.1817e-05 1.5819e-06
3.1817e-05 -8.16863e-05 -3.91729e-06
1.5819e-06 -3.91729e-06 -0.000211556
0.000924244 0.00017804 3.40724e-06
0.00017804 0.00034485 6.97326e-06
3.40724e-06 6.97326e-06 0.000169834
0.000910761 0.000128745 -1.79366e-07
0.000128745 0.00034396 -1.74067e-07
-1.79366e-07 -1.74067e-07 0.000173946
0.000392388 -2.03881e-05 -4.03042e-06
-2.03881e-05 4.98274e-07 -6.72521e-06
-4.03042e-06 -6.72521e-06 -0.000129731
0.000466598 -0.000439999 8.02994e-05
-0.000439999 -0.00120378 -4.03181e-05
8.02994e-05 -4.03181e-05 -0.000912316
0.00024453 -0.000623811 1.67063e-05
-0.000623811 -0.00087775 -9.33257e-06
1.67063e-05 -9.33257e-06 -0.00087122
0.00143624 -0.00088802 -1.10051e-05
-0.00088802 -0.000194975 1.44856e-05
-1.10051e-05 1.44856e-05 -0.00030945
-0.000963419 -0.000670912 4.69236e-06
-0.000670912 -0.000875948 -7.89438e-06
4.69236e-06 -7.89438e-06 -0.00122437
0.00348679 -0.000455343 -2.39698e-05
-0.000455343 0.00215202 6.40894e-05
-2.39698e-05 6.40894e-05 0.00164569
0.00107202 -0.000209213 -3.50485e-06
-0.000209213 0.000595238 6.29443e-06
-3.50485e-06 6.29443e-06 0.000315695
0.000295713 0.000129549 -3.22076e-06
0.000129549 2.18461e-05 -1.6023e-05
-3.22076e-06 -1.6023e-05 -0.000209264
0.000687061 -8.24552e-05 -2.61521e-06
-8.24552e-05 0.000278129 9.76514e-06
-2.61521e-06 9.76514e-06 2.77931e-06
0.00171806 -0.000774537 -5.16558e-06
-0.000774537 -0.000208855 -4.38561e-06
-5.16558e-06 -4.38561e-06 -0.000258763
0.000816292 -6.69222e-05 1.22509e-06
-6.69222e-05 0.00037962 5.03855e-06
1.22509e-06 5.03855e-06 0.000114635
0.00215365 -0.000287559 1.91522e-06
-0.000287559 0.00130476 -1.46963e-06
1.91522e-06 -1.46963e-06 0.000911583
0.00142852 -0.000717889 6.97317e-06
-0.000717889 3.16468e-05 4.14367e-06
6.97317e-06 4.14367e-06 -5.9592e-06
0.000645659 -0.000644783 -2.81525e-05
-0.000644783 0.000301248 7.29959e-06
-2.81525e-05 7.29959e-06 -8.26821e-05
0.00206064 -0.00131754 2.99133e-05
-0.00131754 1.06727e-05 -1.50182e-05
2.99133e-05 -1.50182e-05 1.74024e-05
-0.000286289 -0.000450089 -6.70446e-06
-0.000450089 -0.000456381 2.3046e-05
-6.70446e-06 2.3046e-05 -0.000487629
-0.00111798 -8.50169e-05 1.60858e-05
-8.50169e-05 -0.000465358 -9.30657e-07
1.60858e-05 -9.30657e-07 -0.000941303
0.000733504 5.97771e-06 -4.43176e-06
5.97771e-06 0.000285573 -2.06598e-06
-4.43176e-06 -2.06598e-06 5.85606e-05
0.000687799 -1.53937e-05 7.1333e-06
-1.53937e-05 0.000426064 -7.94429e-06
7.1333e-06 -7.94429e-06 0.000115374
0.00131008 0.000113662 -3.98747e-05
0.000113662 0.00183531 -1.55642e-05
-3.98747e-05 -1.55642e-05 -0.00203515
-0.00635901 0.000414348 -0.000340607
0.000414348 0.00623916 -1.80753e-05
-0.000340607 -1.80753e-05 0.00129215
-0.0130965 -0.00231542 -0.00067354
-0.00231542 -0.00541564 -1.04346e-05
-0.00067354 -1.04346e-05 -0.00608034
-0.000821074 0.00015917 9.82152e-06
0.00015917 -0.000617772 -6.18532e-06
9.82152e-06 -6.18532e-06 -0.000841954
-0.000748284 0.00044658 -3.79985e-06
0.00044658 -0.000534135 8.48009e-06
-3.79985e-06 8.48009e-06 -0.00092887
0.00197649 0.000916603 2.90271e-05
0.000916603 0.00044034 2.48064e-05
2.90271e-05 2.48064e-05 0.000304873
-0.00557525 0.00183642 6.66828e-05
0.00183642 0.00578131 5.5031e-05
6.66828e-05 5.5031e-05 0.00126635
0.00675081 0.00335717 -0.000270955
0.00335717 0.000178853 -0.000156487
-0.000270955 -0.000156487 -0.00326345
0.00207023 0.00207789 0.000403771
0.00207789 0.00046718 0.000146269
0.000403771 0.000146269 0.000292978
0.000192484 0.000877319 2.41858e-05
0.000877319 4.35771e-05 -4.27548e-05
2.41858e-05 -4.27548e-05 -0.000224751
0.0256087 -0.00358167 -0.00016441
-0.00358167 0.00825872 -0.000345185
-0.00016441 -0.000345185 0.00520912
0.00607769 0.00144747 0.000505386
0.00144747 0.0030577 0.000183538
0.000505386 0.000183538 -0.002497
0.0137588 -0.0019168 0.000166285
-0.0019168 0.00234586 3.19874e-05
0.000166285 3.19874e-05 0.00366511
0.00126305 0.000491206 2.56487e-06
0.000491206 0.000653716 -2.04504e-06
2.56487e-06 -2.04504e-06 0.000360365
0.00379736 0.000522356 -6.70114e-06
0.000522356 0.00299437 1.44371e-05
-6.70114e-06 1.44371e-05 -0.000363957
0.00154272 0.000648853 6.37517e-05
0.000648853 7.12351e-05 2.51349e-06
6.37517e-05 2.51349e-06 -0.00152661
-0.000421229 0.000458219 -3.0087e-06
0.000458219 -0.000143455 -5.30182e-06
-3.0087e-06 -5.30182e-06 -0.000460197
0.000293715 0.00117788 -0.000118923
0.00117788 0.000860331 -5.71569e-05
-0.000118923 -5.71569e-05 -0.000336824
0.000978425 0.00425035 0.000193301
0.00425035 0.000547915 0.000106158
0.000193301 0.000106158 -0.00381893
0.00928853 4.15477e-05 -5.75866e-06
4.15477e-05 -0.00340514 -0.000207287
-5.75866e-06 -0.000207287 -0.000577183
0.00503282 -0.0025461 -7.01934e-05
-0.0025461 0.00318032 -0.000159734
-7.01934e-05 -0.000159734 -0.00147517
0.000956156 0.000389757 -7.14778e-06
0.000389757 0.000767107 -1.42623e-05
-7.14778e-06 -1.42623e-05 0.000424743
-0.0027489 0.000186619 1.17587e-05
0.000186619 -2.52865e-05 2.02376e-05
1.17587e-05 2.02376e-05 -0.000347351
0.00470849 -0.000124702 0.000104442
-0.000124702 -0.000223004 -0.000155201
0.000104442 -0.000155201 -0.00140919
0.00836161 0.0010628 0.00027646
0.0010628 -0.00207719 -1.91383e-05
0.00027646 -1.91383e-05 -0.00123759
-0.00240458 0.000134736 2.95698e-05
0.000134736 -0.000113946 -3.07556e-05
2.95698e-05 -3.07556e-05 -0.000911133
0.0131999 0.00328431 0.000295048
0.00328431 0.00619743 6.93492e-05
0.000295048 6.93492e-05 0.00106515
0.000729656 -0.000516343 4.90917e-05
-0.000516343 0.00248906 0.000378771
4.90917e-05 0.000378771 -0.00103086
0.00317473 0.000449307 2.64621e-05
0.000449307 0.00188986 9.91173e-06
2.64621e-05 9.91173e-06 0.00163989
0.000387698 0.000197917 -5.80911e-06
0.000197917 0.000398613 -1.68585e-06
-5.80911e-06 -1.68585e-06 5.67406e-05
0.000213541 0.000171676 1.24289e-06
0.000171676 0.000472523 1.50409e-06
1.24289e-06 1.50409e-06 4.27282e-05
0.000513838 0.000144951 1.24772e-06
0.000144951 9.63665e-05 4.91529e-07
1.24772e-06 4.91529e-07 -8.4539e-05
0.000471908 6.54502e-05 8.66594e-07
6.54502e-05 0.000108837 3.67208e-06
8.66594e-07 3.67208e-06 -5.79363e-05
0.000182324 -2.11797e-05 6.44702e-06
-2.11797e-05 0.000332034 -2.534e-06
6.44702e-06 -2.534e-06 -5.18806e-05
0.000407293 2.09734e-05 2.07539e-07
2.09734e-05 4.79814e-05 -5.9539e-07
2.07539e-07 -5.9539e-07 -9.94838e-05
0.000656986 -3.48109e-05 -1.19494e-06
-3.48109e-05 0.000610356 -2.43191e-06
-1.19494e-06 -2.43191e-06 0.000229981
6.79855e-05 5.28156e-05 2.01671e-08
5.28156e-05 0.000406617 -1.59072e-06
2.01671e-08 -1.59072e-06 -7.0062e-05
3.26829e-05 -5.46405e-06 -7.6266e-06
-5.46405e-06 0.000332024 7.90118e-06
-7.6266e-06 7.90118e-06 -6.30214e-05
0.000307059 -2.332e-05 3.77404e-07
-2.332e-05 0.000335088 -4.47029e-06
3.77404e-07 -4.47029e-06 2.89962e-05
9.15004e-05 -6.30378e-05 3.0063e-06
-6.30378e-05 -0.000162417 8.86907e-06
3.0063e-06 8.86907e-06 -0.000294573
0.00102346 -5.19147e-05 -8.57756e-07
-5.19147e-05 0.00040597 2.97233e-06
-8.57756e-07 2.97233e-06 0.000256016
0.00125604 -5.77174e-05 -1.34074e-05
-5.77174e-05 0.000559244 1.08904e-05
-1.34074e-05 1.08904e-05 0.000425889
0.000751847 -8.29671e-05 3.61198e-06
-8.29671e-05 0.00038583 -6.42869e-07
3.61198e-06 -6.42869e-07 0.000229153
0.000536281 -5.35926e-05 -7.94148e-07
-5.35926e-05 0.000104369 -8.02613e-07
-7.94148e-07 -8.02613e-07 -2.79448e-05
0.00038287 -0.000170472 9.03853e-08
-0.000170472 1.34451e-05 2.78071e-06
9.03853e-08 2.78071e-06 -0.000126867
0.000139743 -0.000151337 -1.15227e-05
-0.000151337 -0.000233274 -1.53456e-06
-1.15227e-05 -1.53456e-06 -0.00029151
-0.00073592 -0.000296381 1.04882e-05
-0.000296381 -0.000707665 1.86292e-05
1.04882e-05 1.86292e-05 -0.000996748
0.000157138 -0.000168824 5.71742e-06
-0.000168824 -0.000187571 -8.52645e-07
5.71742e-06 -8.52645e-07 -0.000304163
0.00115013 -0.000276553 -3.57974e-06
-0.000276553 0.000366988 1.10163e-05
-3.57974e-06 1.10163e-05 0.000185725
0.001981 -0.000539648 -7.20482e-06
-0.000539648 0.000799573 1.40272e-05
-7.20482e-06 1.40272e-05 0.000445225
0.00155175 -0.000495259 -6.0404e-06
-0.000495259 0.000411952 -8.24246e-08
-6.0404e-06 -8.24246e-08 4.98403e-05
0.00126624 -0.000331156 1.6321e-06
-0.000331156 0.000441823 2.64623e-06
1.6321e-06 2.64623e-06 0.000204327
0.000458144 -0.00031722 9.6954e-06
-0.00031722 -0.00014789 -4.17303e-06
9.6954e-06 -4.17303e-06 -0.000416481
0.00123608 -0.00016259 2.927e-06
-0.00016259 0.000534287 -3.99739e-06
2.927e-06 -3.99739e-06 0.00029563
0.00123738 -0.000218845 -7.94781e-06
-0.000218845 0.000512134 6.60469e-07
-7.94781e-06 6.60469e-07 0.000308488
-4.63183e-05 -0.000121565 1.09495e-05
-0.000121565 -0.000313464 -1.65207e-05
1.09495e-05 -1.65207e-05 -0.000421005
0.00115881 -0.000105153 -1.23133e-06
-0.000105153 0.000442426 2.38841e-06
-1.23133e-06 2.38841e-06 0.000279556
0.000262874 -8.3066e-05 8.25647e-07
-8.3066e-05 -6.05338e-05 -5.52606e-07
8.25647e-07 -5.52606e-07 -0.000249082
0.000450201 -5.23395e-05 1.90017e-06
-5.23395e-05 -7.00135e-06 6.14204e-07
1.90017e-06 6.14204e-07 -0.000141799
0.00137753 -0.000206425 -1.62779e-06
-0.000206425 0.000638475 9.50481e-07
-1.62779e-06 9.50481e-07 0.000447222
0.000647956 -9.24509e-05 -3.83552e-07
-9.24509e-05 0.000134399 -1.31557e-07
-3.83552e-07 -1.31557e-07 -2.00532e-07
0.000437954 1.36784e-05 2.93091e-06
1.36784e-05 -1.21737e-05 4.36016e-06
2.93091e-06 4.36016e-06 -0.000106111
0.000791005 -0.000129725 -6.03258e-07
-0.000129725 0.000236008 -2.24314e-06
-6.03258e-07 -2.24314e-06 0.000100026
0.000493244 7.76766e-06 -2.09119e-06
7.76766e-06 1.91531e-05 -2.08275e-07
-2.09119e-06 -2.08275e-07 -6.65937e-05
0.00141201 1.21726e-05 -1.5673e-05
1.21726e-05 0.000559093 5.15229e-06
-1.5673e-05 5.15229e-06 0.000535959
0.000585928 -6.1596e-05 2.07734e-06
-6.1596e-05 7.39646e-05 -4.0745e-06
2.07734e-06 -4.0745e-06 -7.33162e-06
0.000886375 -5.50605e-06 -7.92559e-06
-5.50605e-06 0.000230421 5.81911e-07
-7.92559e-06 5.81911e-07 0.000206029
0.000839189 3.21193e-05 3.34028e-07
3.21193e-05 0.000191449 3.01885e-06
3.34028e-07 3.01885e-06 0.000191348
0.000452406 -1.9687e-05 2.20872e-06
-1.9687e-05 -3.80261e-05 -5.72939e-06
2.20872e-06 -5.72939e-06 -6.37608e-05
0.00171121 3.36493e-05 1.34047e-05
3.36493e-05 0.000743168 -1.26209e-06
1.34047e-05 -1.26209e-06 0.000750196
0.0025353 2.70199e-05 1.52646e-05
2.70199e-05 0.00126096 -5.40987e-06
1.52646e-05 -5.40987e-06 0.00127337
0.000312958 1.68213e-05 1.08753e-06
1.68213e-05 -6.75452e-05 8.55481e-07
1.08753e-06 8.55481e-07 -0.000198942
0.000156325 1.89824e-05 1.81079e-08
1.89824e-05 -0.000203357 -3.58147e-06
1.81079e-08 -3.58147e-06 -0.000265403
0.000628517 4.92264e-05 9.08873e-08
4.92264e-05 0.000123473 1.12314e-07
9.08873e-08 1.12314e-07 1.26152e-05
0.000476892 2.84618e-06 1.2581e-06
2.84618e-06 -3.57637e-05 -3.67916e-06
1.2581e-06 -3.67916e-06 -4.67066e-05
0.000333976 5.70018e-06 1.58141e-06
5.70018e-06 -9.46571e-05 -1.55268e-09
1.58141e-06 -1.55268e-09 -0.000146599
0.000275143 -9.42649e-05 -1.12827e-06
-9.42649e-05 -9.61029e-05 -1.05325e-06
-1.12827e-06 -1.05325e-06 -0.000194732
0.00205357 -5.7315e-06 -1.07031e-05
-5.7315e-06 0.000955201 -4.75865e-06
-1.07031e-05 -4.75865e-06 0.000973142
0.000471426 2.55654e-06 -5.10333e-09
2.55654e-06 -3.83716e-05 -7.26758e-08
-5.10333e-09 -7.26758e-08 -4.74338e-05
0.000445954 -1.59558e-05 -2.3815e-06
-1.59558e-05 -2.36215e-05 2.11616e-06
-2.3815e-06 2.11616e-06 -6.89197e-05
0.00200386 9.552e-06 -4.57028e-06
9.552e-06 0.000925011 8.46404e-09
-4.57028e-06 8.46404e-09 0.000942929
0.000461522 4.35145e-06 -1.06299e-06
4.35145e-06 -4.39341e-05 3.24393e-06
-1.06299e-06 3.24393e-06 -5.25588e-05
0.00197636 2.44265e-05 9.42306e-07
2.44265e-05 0.000909538 4.76567e-06
9.42306e-07 4.76567e-06 0.0009266
-0.000210923 -0.000709186 -0.000230036
-0.000709186 -0.000145349 8.36429e-05
-0.000230036 8.36429e-05 -0.00315491
0.00166751 0.00055538 -0.000102741
0.00055538 0.00715611 1.74562e-05
-0.000102741 1.74562e-05 0.00328278
0.00201484 -7.46916e-05 -0.000788331
-7.46916e-05 0.00367352 0.000153642
-0.000788331 0.000153642 0.0018531
0.000708108 0.000123803 4.17314e-06
0.000123803 0.000173259 6.2234e-06
4.17314e-06 6.2234e-06 1.61627e-05
0.00481272 -0.00083012 -7.46616e-05
-0.00083012 0.0031322 0.000223107
-7.46616e-05 0.000223107 0.0010935
0.00404667 -0.00120362 -0.000261543
-0.00120362 0.00166917 2.32137e-05
-0.000261543 2.32137e-05 -0.00287589
0.00997626 0.00294158 0.000343453
0.00294158 0.00730402 -0.000321405
0.000343453 -0.000321405 0.0034372
0.00697929 -0.000946236 0.000111227
-0.000946236 0.000803344 -2.32158e-05
0.000111227 -2.32158e-05 0.00103251
0.0129063 -0.00211091 0.000253668
-0.00211091 0.00105182 -0.000121762
0.000253668 -0.000121762 -0.000207558
0.00711409 0.0045054 -0.00059228
0.0045054 -6.7656e-05 0.000405617
-0.00059228 0.000405617 -0.00299938
0.0132147 0.0040931 8.81436e-05
0.0040931 0.0043986 0.00021401
8.81436e-05 0.00021401 0.00192205
0.00710468 -0.00205148 -0.000123404
-0.00205148 0.000167879 -6.60945e-06
-0.000123404 -6.60945e-06 0.000535786
0.0172896 -0.00369461 3.92804e-05
-0.00369461 0.00430781 -3.15373e-05
3.92804e-05 -3.15373e-05 0.00185504
0.00805868 0.00270013 0.000153496
0.00270013 0.00251168 -0.000332363
0.000153496 -0.000332363 -0.00134583
0.0114552 0.00123661 1.31604e-05
0.00123661 -0.000550071 3.8808e-05
1.31604e-05 3.8808e-05 -0.000186338
0.00306138 -0.00232949 -5.35347e-05
-0.00232949 -5.42141e-06 7.20438e-05
-5.35347e-05 7.20438e-05 -0.000147112
0.0112565 -0.00405819 0.000145169
-0.00405819 0.00470885 -0.000103013
0.000145169 -0.000103013 0.000382628
0.00933292 -0.000228921 0.000132451
-0.000228921 0.00426417 -0.000431166
0.000132451 -0.000431166 0.00161145
0.0115988 0.000535739 -0.000123837
0.000535739 -0.00135571 0.000232276
-0.000123837 0.000232276 0.000900106
0.000396098 6.17563e-05 3.28162e-06
6.17563e-05 8.20614e-05 7.59978e-06
3.28162e-06 7.59978e-06 -0.000138992
0.000790962 -0.000133033 5.71258e-07
-0.000133033 0.000342297 -4.157e-07
5.71258e-07 -4.157e-07 9.54032e-05
0.000984167 0.000150432 1.55326e-06
0.000150432 0.000403704 -5.48135e-06
1.55326e-06 -5.48135e-06 0.000245852
0.000486727 0.000122908 4.99299e-07
0.000122908 2.39627e-05 9.2661e-06
4.99299e-07 9.2661e-06 -0.000121848
0.000817093 0.000183368 5.38578e-07
0.000183368 0.000289678 9.85615e-07
5.38578e-07 9.85615e-07 9.43596e-05
0.00110568 9.85168e-05 -5.12726e-06
9.85168e-05 0.000466457 -4.82569e-06
-5.12726e-06 -4.82569e-06 0.000309804
0.00103816 0.000168268 -1.4645e-06
0.000168268 0.000417561 -1.48273e-07
-1.4645e-06 -1.48273e-07 0.000241029
0.00106847 0.000179915 1.46505e-06
0.000179915 0.000460072 2.73101e-06
1.46505e-06 2.73101e-06 0.000280441
0.000288373 -0.000549019 0.000107996
-0.000549019 -0.00102091 -6.19221e-05
0.000107996 -6.19221e-05 -0.000878481
0.000769891 -0.000681884 -2.02661e-05
-0.000681884 -0.000416158 -6.2895e-06
-2.02661e-05 -6.2895e-06 -0.000376239
0.00103715 -0.000235947 1.59389e-06
-0.000235947 0.00051249 -2.78724e-05
1.59389e-06 -2.78724e-05 0.000218175
0.00158588 -0.000683986 1.83558e-05
-0.000683986 0.000782448 -2.65315e-05
1.83558e-05 -2.65315e-05 0.000437265
0.00258747 -0.000445692 -1.97012e-05
-0.000445692 0.0015039 1.92319e-05
-1.97012e-05 1.92319e-05 0.00112299
0.00153612 -0.000148577 1.90467e-06
-0.000148577 0.000806939 -2.23158e-05
1.90467e-06 -2.23158e-05 0.000531194
-7.83705e-05 -5.40437e-05 3.42703e-06
-5.40437e-05 -0.000225596 7.22653e-06
3.42703e-06 7.22653e-06 -0.000436663
0.000356654 -0.0010844 -4.02216e-06
-0.0010844 -0.000764277 -3.36444e-06
-4.02216e-06 -3.36444e-06 -0.00077325
0.0013597 2.17141e-05 -8.69719e-07
2.17141e-05 0.000834582 -1.76079e-06
-8.69719e-07 -1.76079e-06 0.00051848
0.000426988 -0.000231374 3.19499e-06
-0.000231374 0.000353942 3.4922e-06
3.19499e-06 3.4922e-06 -7.28156e-05
-0.000161268 -0.000370124 2.38406e-05
-0.000370124 -0.000390212 1.24811e-06
2.38406e-05 1.24811e-06 -0.000367284
0.000920421 0.000113224 -6.70765e-07
0.000113224 0.000400438 -8.61962e-07
-6.70765e-07 -8.61962e-07 0.000204797
-0.000515537 -0.00091783 -4.7634e-05
-0.00091783 -0.000671445 -2.6372e-05
-4.7634e-05 -2.6372e-05 -0.000835009
-0.000875243 -0.000379427 -1.42313e-05
-0.000379427 -0.00049911 3.15499e-05
-1.42313e-05 3.15499e-05 -0.000727987
-2.65974e-05 0.000147502 1.975e-05
0.000147502 0.000359618 -2.92431e-05
1.975e-05 -2.92431e-05 -0.000186713
0.0021855 0.000328789 -5.22703e-06
0.000328789 0.00130298 -4.04893e-06
-5.22703e-06 -4.04893e-06 0.00105148
-0.00112274 9.06138e-05 9.69297e-05
9.06138e-05 0.00135721 1.72841e-05
9.69297e-05 1.72841e-05 0.000518394
0.000523897 -1.94371e-05 0.000147881
-1.94371e-05 0.00125655 -3.23073e-05
0.000147881 -3.23073e-05 -0.00261049
-0.0109494 -0.000321186 -0.000252473
-0.000321186 0.0057222 2.53461e-05
-0.000252473 2.53461e-05 0.000319793
0.00170817 0.000521591 1.98378e-05
0.000521591 0.000993628 2.47882e-06
1.98378e-05 2.47882e-06 0.000691037
-0.00075386 0.000635382 1.22094e-05
0.000635382 -0.00036121 1.14854e-05
1.22094e-05 1.14854e-05 -0.000788608
0.00539719 0.000684604 0.000286414
0.000684604 0.00359953 5.2641e-05
0.000286414 5.2641e-05 0.00130272
0.0103068 0.00354246 0.000273422
0.00354246 0.00350674 0.000190704
0.000273422 0.000190704 -0.000583514
0.00412508 0.00220049 -7.72279e-05
0.00220049 0.00238888 -9.05827e-05
-7.72279e-05 -9.05827e-05 0.00103676
0.00491903 -0.00218855 -0.000176033
-0.00218855 0.00402325 -0.000433541
-0.000176033 -0.000433541 0.000394983
0.00256089 0.000548863 0.000127062
0.000548863 0.000318089 0.000183846
0.000127062 0.000183846 -0.0012519
0.0072073 -0.000191816 -4.804e-05
-0.000191816 -0.00534054 -0.00023029
-4.804e-05 -0.00023029 -0.00208652
0.000977277 0.000457722 6.15899e-06
0.000457722 0.000744014 1.86395e-06
6.15899e-06 1.86395e-06 0.000378192
-0.00235311 7.7395e-05 -2.57188e-06
7.7395e-05 3.39184e-05 1.40253e-06
-2.57188e-06 1.40253e-06 -0.000415976
0.00420615 -3.517e-05 0.00010458
-3.517e-05 -0.000253011 2.39257e-05
0.00010458 2.39257e-05 -0.000789245
-0.00172614 0.000392614 -1.27412e-05
0.000392614 -0.000320246 -1.02546e-05
-1.27412e-05 -1.02546e-05 -0.00102081
0.0111693 0.00135909 -5.88625e-06
0.00135909 -0.000471499 -3.90853e-05
-5.88625e-06 -3.90853e-05 -0.000195153
0.00251532 0.00178692 0.000204456
0.00178692 0.00363338 0.000129345
0.000204456 0.000129345 -0.00194455
0.00668077 0.000653035 -0.000164032
0.000653035 0.00312208 3.51078e-06
-0.000164032 3.51078e-06 -0.000376372
0.000420116 0.000401309 4.53091e-07
0.000401309 0.000534438 -2.33829e-05
4.53091e-07 -2.33829e-05 3.21548e-05
0.00137929 -9.8958e-06 8.1931e-06
-9.8958e-06 0.000121482 -1.88549e-05
8.1931e-06 -1.88549e-05 -0.0001391
0.00386018 -0.00101133 6.04174e-05
-0.00101133 0.00309551 -0.000225182
6.04174e-05 -0.000225182 0.00127859
0.0184479 0.00445614 0.000298914
0.00445614 0.00534461 -0.000263505
0.000298914 -0.000263505 0.00346031
0.00849808 -0.000107819 -0.000110299
-0.000107819 0.00427466 0.000436799
-0.000110299 0.000436799 0.00135335
0.000353905 0.000407682 -1.66032e-05
0.000407682 0.000635871 -0.000129298
-1.66032e-05 -0.000129298 3.6065e-05
0.0039544 0.00149789 0.00025371
0.00149789 0.00580982 3.07428e-05
0.00025371 3.07428e-05 -0.00221416
0.00140144 0.000329069 9.0472e-06
0.000329069 0.000984185 1.00065e-05
9.0472e-06 1.00065e-05 0.000631155
0.000621249 0.000227368 3.97478e-06
0.000227368 0.000699168 1.00171e-06
3.97478e-06 1.00171e-06 0.000283499
0.000365206 -2.54397e-05 -1.70535e-05
-2.54397e-05 0.000670826 -9.32421e-07
-1.70535e-05 -9.32421e-07 0.000319592
-0.000245661 -4.84411e-05 1.14337e-06
-4.84411e-05 -0.000370298 4.59468e-06
1.14337e-06 4.59468e-06 -0.000501569
0.000635801 -1.32158e-05 4.72516e-06
-1.32158e-05 0.000600955 -3.02482e-06
4.72516e-06 -3.02482e-06 0.000215192
0.000168244 5.05586e-05 5.33123e-06
5.05586e-05 0.000459969 -4.32104e-06
5.33123e-06 -4.32104e-06 -8.05602e-06
0.000311191 -3.30744e-05 5.4492e-07
-3.30744e-05 0.000276469 1.45544e-07
5.4492e-07 1.45544e-07 2.66263e-05
-6.12014e-06 -2.61996e-05 4.16168e-06
-2.61996e-05 0.00030822 6.50446e-07
4.16168e-06 6.50446e-07 -9.15412e-05
0.00129302 -0.000328543 3.16881e-06
-0.000328543 0.000865678 -1.14185e-05
3.16881e-06 -1.14185e-05 0.000543192
0.000782414 -8.70053e-05 -6.55125e-06
-8.70053e-05 0.000378299 7.24152e-06
-6.55125e-06 7.24152e-06 0.000235149
0.000557724 -1.31301e-05 -1.28421e-06
-1.31301e-05 0.000114898 1.86756e-06
-1.28421e-06 1.86756e-06 -1.53824e-05
0.00134914 -0.000263302 1.32221e-06
-0.000263302 0.000594334 5.27584e-06
1.32221e-06 5.27584e-06 0.000423928
-0.00245042 -0.000149892 1.81951e-05
-0.000149892 -0.00152104 1.76694e-05
1.81951e-05 1.76694e-05 -0.00184562
-0.000153805 -0.00011549 8.58963e-06
-0.00011549 -0.000324532 -2.53146e-06
8.58963e-06 -2.53146e-06 -0.000352032
-7.92042e-05 -0.000329669 -9.21742e-07
-0.000329669 -0.000358703 -4.52557e-06
-9.21742e-07 -4.52557e-06 -0.000612798
0.00126276 -0.000517446 1.36155e-07
-0.000517446 0.00031717 -1.17405e-06
1.36155e-07 -1.17405e-06 -0.000118877
0.00166452 -0.000610955 -5.57147e-06
-0.000610955 0.000439555 -5.19126e-07
-5.57147e-06 -5.19126e-07 1.48889e-05
0.00175855 -0.000358028 4.95572e-06
-0.000358028 0.000725934 -3.36472e-06
4.95572e-06 -3.36472e-06 0.000518938
0.0012916 -0.00046101 1.20736e-06
-0.00046101 0.000361948 7.65871e-07
1.20736e-06 7.65871e-07 1.45194e-05
0.00163154 -0.000511542 4.75072e-06
-0.000511542 0.000440432 -3.67672e-06
4.75072e-06 -3.67672e-06 8.37505e-05
0.000770989 -0.000320666 -1.67137e-06
-0.000320666 7.93957e-06 6.1064e-06
-1.67137e-06 6.1064e-06 -0.000265521
0.00112991 -0.00044014 2.20384e-06
-0.00044014 0.000167929 -5.29864e-06
2.20384e-06 -5.29864e-06 -0.000174628
0.000411478 -0.000143858 9.40223e-07
-0.000143858 6.85206e-06 -5.24511e-06
9.40223e-07 -5.24511e-06 -0.000242144
0.00109935 -0.000334777 -6.34156e-06
-0.000334777 0.000351876 4.08945e-06
-6.34156e-06 4.08945e-06 9.7775e-05
-0.000829826 -0.000154076 -6.57574e-07
-0.000154076 -0.000929881 -9.88196e-06
-6.57574e-07 -9.88196e-06 -0.0011527
9.28651e-05 -5.4232e-05 1.17985e-06
-5.4232e-05 -0.000212761 -2.00314e-06
1.17985e-06 -2.00314e-06 -0.00038339
0.000432894 -0.000133327 2.38286e-07
-0.000133327 6.20385e-05 4.70487e-07
2.38286e-07 4.70487e-07 -0.000173781
0.000692096 -0.00021067 8.94478e-06
-0.00021067 0.000221229 -6.6741e-07
8.94478e-06 -6.6741e-07 1.51606e-06
0.000562783 -0.000118931 2.52846e-08
-0.000118931 0.000120885 3.11925e-06
2.52846e-08 3.11925e-06 -6.67213e-05
0.000712491 -0.000104736 -8.36921e-08
-0.000104736 0.000173551 3.44727e-07
-8.36921e-08 3.44727e-07 2.26368e-05
0.00058426 -1.48081e-06 2.1338e-06
-1.48081e-06 7.04229e-05 5.98189e-06
2.1338e-06 5.98189e-06 -3.18407e-05
0.000978643 -0.000131689 -1.91325e-06
-0.000131689 0.000354687 -1.06184e-06
-1.91325e-06 -1.06184e-06 0.000205636
0.000579312 -3.80859e-06 -1.19436e-06
-3.80859e-06 6.61575e-05 -3.41866e-07
-1.19436e-06 -3.41866e-07 -2.31905e-05
0.000415345 4.40254e-05 1.77881e-06
4.40254e-05 -5.69143e-05 6.76395e-06
1.77881e-06 6.76395e-06 -9.15146e-05
0.000685705 -6.0422e-05 1.00942e-06
-6.0422e-05 0.000131529 -3.6955e-06
1.00942e-06 -3.6955e-06 4.84361e-05
0.000459992 5.52867e-06 -1.06097e-06
5.52867e-06 -3.93605e-05 -4.70424e-08
-1.06097e-06 -4.70424e-08 -6.79978e-05
0.00256272 8.9954e-05 -2.38463e-06
8.9954e-05 0.00128085 2.55116e-06
-2.38463e-06 2.55116e-06 0.00128597
0.000472574 -1.06944e-05 2.34727e-06
-1.06944e-05 -3.03525e-05 -5.9217e-06
2.34727e-06 -5.9217e-06 -5.75039e-05
0.00174526 4.71619e-05 1.61783e-05
4.71619e-05 0.000764013 -1.04286e-06
1.61783e-05 -1.04286e-06 0.000769088
0.0025955 4.29316e-05 2.20441e-05
4.29316e-05 0.00129764 -5.5658e-06
2.20441e-05 -5.5658e-06 0.00130906
0.000279094 2.06089e-05 8.56078e-07
2.06089e-05 -0.000107733 7.27501e-07
8.56078e-07 7.27501e-07 -0.000229121
0.000223771 1.07236e-05 1.16074e-06
1.07236e-05 -0.00016242 -2.89962e-06
1.16074e-06 -2.89962e-06 -0.000236309
0.000468059 3.67341e-05 -5.90396e-07
3.67341e-05 2.55615e-05 -1.20236e-06
-5.90396e-07 -1.20236e-06 -9.99499e-05
0.000500935 1.85798e-06 1.56039e-06
1.85798e-06 -2.10058e-05 -4.19841e-06
1.56039e-06 -4.19841e-06 -3.50056e-05
0.00020014 1.50608e-05 -5.71929e-07
1.50608e-05 -0.000176573 -1.77568e-06
-5.71929e-07 -1.77568e-06 -0.00024079
0.000669002 5.63849e-05 -8.64831e-08
5.63849e-05 0.000161146 1.59755e-06
-8.64831e-08 1.59755e-06 4.17137e-05
0.00207516 -1.91109e-05 -1.59981e-05
-1.91109e-05 0.000967678 -4.66282e-06
-1.59981e-05 -4.66282e-06 0.000985359
0.000478299 9.31222e-07 -6.13082e-07
9.31222e-07 -3.52301e-05 -6.72454e-08
-6.13082e-07 -6.72454e-08 -4.58666e-05
0.000121663 1.39756e-05 1.43135e-06
1.39756e-05 -0.000224193 1.4978e-06
1.43135e-06 1.4978e-06 -0.000279855
0.00202777 -4.4752e-06 -4.02613e-06
-4.4752e-06 0.000938797 4.33997e-08
-4.02613e-06 4.33997e-08 0.000956938
0.000459971 2.1043e-06 -1.32402e-06
2.1043e-06 -4.62146e-05 3.40602e-06
-1.32402e-06 3.40602e-06 -5.49145e-05
0.00204784 1.1099e-05 6.39676e-06
1.1099e-05 0.000953009 4.82356e-06
6.39676e-06 4.82356e-06 0.000970531
0.000423229 -3.68459e-05 0.000116445
-3.68459e-05 0.00194686 4.21121e-05
0.000116445 4.21121e-05 0.00140421
-0.000191261 -0.000356321 -4.58514e-05
-0.000356321 0.000360244 -1.18207e-05
-4.58514e-05 -1.18207e-05 -0.00326631
0.000223653 0.000536418 -1.85661e-05
0.000536418 0.00681467 -4.2471e-05
-1.85661e-05 -4.2471e-05 0.00285912
0.000759858 0.000131289 4.56744e-07
0.000131289 0.000197187 7.61691e-08
4.56744e-07 7.61691e-08 5.0284e-05
0.000394784 9.23522e-05 5.27934e-06
9.23522e-05 -4.55252e-05 4.75474e-06
5.27934e-06 4.75474e-06 -0.000179492
0.00105322 0.000188007 7.05517e-06
0.000188007 0.000380454 7.72454e-06
7.05517e-06 7.72454e-06 0.000231924
0.0055451 -0.000254975 -7.34333e-05
-0.000254975 -0.000409291 0.000227434
-7.34333e-05 0.000227434 -0.00137813
0.00475449 -0.000934256 8.49997e-05
-0.000934256 0.00282747 2.68317e-06
8.49997e-05 2.68317e-06 0.00139024
0.00459276 -0.00160296 0.000175462
-0.00160296 0.00194064 -0.000241076
0.000175462 -0.000241076 -0.00270062
0.00842594 -0.00246961 -2.94794e-05
-0.00246961 0.000340582 -3.21965e-05
-2.94794e-05 -3.21965e-05 0.000928248
0.000698404 -0.00292791 -0.000374363
-0.00292791 -0.00196299 9.96824e-05
-0.000374363 9.96824e-05 -0.0048102
0.0252252 0.00389322 0.000199975
0.00389322 0.0101798 0.000159426
0.000199975 0.000159426 0.00593894
0.00693791 -6.71711e-05 0.000270082
-6.71711e-05 -0.0028307 -0.000219832
0.000270082 -0.000219832 -0.00290703
0.00453781 -0.00266274 -3.1939e-05
-0.00266274 0.000136449 1.71297e-05
-3.1939e-05 1.71297e-05 0.000387086
0.0072549 -0.00379936 -0.000106783
-0.00379936 0.00274712 2.0865e-05
-0.000106783 2.0865e-05 -0.00187999
-0.00256585 0.00353523 -8.71316e-05
0.00353523 0.00350477 -0.000296902
-8.71316e-05 -0.000296902 -0.00114244
0.00953956 0.000154171 -7.01324e-05
0.000154171 -0.00354479 0.000134815
-7.01324e-05 0.000134815 -0.000602904
0.00180251 -0.00184871 -0.000117667
-0.00184871 0.000997644 4.92904e-05
-0.000117667 4.92904e-05 0.00059615
0.0105163 -0.0028587 -0.000283096
-0.0028587 0.00560001 0.000168175
-0.000283096 0.000168175 0.000577146
-0.000787344 -6.42464e-05 4.25814e-05
-6.42464e-05 0.00227627 -0.000342412
4.25814e-05 -0.000342412 -0.00135497
0.00875407 -0.000983511 0.000114525
-0.000983511 -0.00197911 5.58746e-05
0.000114525 5.58746e-05 -0.00116457
0.000281725 9.58451e-05 4.72715e-06
9.58451e-05 -5.7683e-05 1.64899e-05
4.72715e-06 1.64899e-05 -0.000209102
0.00074319 -1.16158e-05 2.68328e-06
-1.16158e-05 0.000276153 -3.3373e-06
2.68328e-06 -3.3373e-06 4.58613e-05
0.000457262 -0.000151185 1.12465e-06
-0.000151185 5.71668e-05 -1.103e-05
1.12465e-06 -1.103e-05 -0.000152096
0.000662875 0.000132156 -2.04743e-06
0.000132156 0.000136645 1.31047e-06
-2.04743e-06 1.31047e-06 -1.68033e-05
0.000722522 0.000133573 2.35661e-06
0.000133573 0.000231494 -4.29342e-06
2.35661e-06 -4.29342e-06 4.94923e-05
0.0011851 0.000195206 -3.41406e-06
0.000195206 0.000514032 -3.59644e-06
-3.41406e-06 -3.59644e-06 0.000334088
-0.000826896 -0.000915282 3.0408e-05
-0.000915282 -0.00132478 -1.26846e-05
3.0408e-05 -1.26846e-05 -0.00133291
0.000939546 -0.000355263 2.56136e-05
-0.000355263 0.000236073 -2.5571e-05
2.56136e-05 -2.5571e-05 0.00027638
-6.80824e-06 2.52322e-05 -1.30144e-06
2.52322e-05 -0.000174614 -1.2112e-05
-1.30144e-06 -1.2112e-05 -0.00039501
0.0020686 -0.000452598 5.58947e-05
-0.000452598 0.00124327 -2.39921e-05
5.58947e-05 -2.39921e-05 0.000848596
0.001685 -0.000106608 -2.96224e-06
-0.000106608 0.000992361 8.17144e-06
-2.96224e-06 8.17144e-06 0.000700946
2.80056e-05 9.38121e-05 3.67912e-06
9.38121e-05 -9.86663e-05 4.0728e-06
3.67912e-06 4.0728e-06 -0.000312135
0.000611271 0.000129239 1.02434e-06
0.000129239 0.000329637 -3.07825e-06
1.02434e-06 -3.07825e-06 0.000112444
0.000204764 -0.00106374 -1.50808e-05
-0.00106374 -0.000362783 -3.97466e-06
-1.50808e-05 -3.97466e-06 -0.000629111
0.000205451 -2.89525e-05 -6.5144e-06
-2.89525e-05 0.000484258 5.22621e-06
-6.5144e-06 5.22621e-06 -3.72941e-05
0.00137205 -0.000331877 7.52519e-07
-0.000331877 0.000740998 -9.74789e-06
7.52519e-07 -9.74789e-06 0.000448175
0.00117194 0.000178496 -1.26439e-06
0.000178496 0.000654059 -1.37786e-05
-1.26439e-06 -1.37786e-05 0.000447929
-0.00253648 -0.000223375 -7.05346e-05
-0.000223375 -0.000526871 -1.46879e-05
-7.05346e-05 -1.46879e-05 -0.00137896
0.000297521 -0.000173617 -2.5052e-05
-0.000173617 0.000545545 8.16205e-06
-2.5052e-05 8.16205e-06 0.000179386
0.000121351 0.000110202 -9.3422e-06
0.000110202 0.000442967 1.19102e-05
-9.3422e-06 1.19102e-05 1.23713e-05
-0.000205197 0.000154309 -9.11038e-06
0.000154309 -0.000612431 2.26276e-06
-9.11038e-06 2.26276e-06 -0.00159075
-0.0016706 0.000152822 4.39912e-05
0.000152822 0.00107787 -1.43371e-05
4.39912e-05 -1.43371e-05 0.000260983
-0.000294558 -0.000151184 0.000315787
-0.000151184 0.000697974 2.27904e-05
0.000315787 2.27904e-05 -0.00317347
3.69958e-05 0.000416906 2.24047e-07
0.000416906 0.000178619 1.54158e-05
2.24047e-07 1.54158e-05 -0.000206561
0.000578514 0.000776471 -1.61061e-05
0.000776471 0.000455767 -7.1053e-06
-1.61061e-05 -7.1053e-06 -0.000146818
-0.00214325 3.58046e-05 -2.78626e-05
3.58046e-05 7.15241e-05 -1.64791e-05
-2.78626e-05 -1.64791e-05 -0.000512795
-0.00451856 0.000712447 6.03525e-05
0.000712447 0.00235761 0.000176159
6.03525e-05 0.000176159 -0.00291306
-0.001942 0.00130906 -0.000188825
0.00130906 -0.00192612 -0.000453047
-0.000188825 -0.000453047 -0.00623694
0.00350514 3.53621e-05 7.97504e-05
3.53621e-05 -0.000335973 9.99256e-05
7.97504e-05 9.99256e-05 -0.000342521
0.00652636 7.50388e-05 -0.000271904
7.50388e-05 -0.00257488 0.000224253
-0.000271904 0.000224253 -0.0028942
0.000248065 0.000325694 5.55558e-07
0.000325694 0.000484913 -9.88758e-07
5.55558e-07 -9.88758e-07 4.87584e-05
0.00100686 -2.2327e-06 2.97265e-05
-2.2327e-06 3.90867e-05 -1.88987e-05
2.97265e-05 -1.88987e-05 -0.000197953
0.00401564 -0.000741264 -8.39452e-05
-0.000741264 0.00278084 3.06952e-06
-8.39452e-05 3.06952e-06 0.00131421
-0.000159937 0.000632804 -0.000125319
0.000632804 0.00106817 -5.96442e-06
-0.000125319 -5.96442e-06 -0.000243251
0.0133847 0.00455433 3.30268e-05
0.00455433 0.00251027 -0.000384238
3.30268e-05 -0.000384238 0.000428022
-0.000185931 0.00284239 7.25941e-05
0.00284239 0.0038557 0.000306048
7.25941e-05 0.000306048 -0.000769158
0.00537385 0.00056762 5.57743e-05
0.00056762 0.00586949 -2.32479e-05
5.57743e-05 -2.32479e-05 -0.00126632
0.000806277 -2.12982e-05 4.22686e-05
-2.12982e-05 0.00142926 -2.79169e-05
4.22686e-05 -2.79169e-05 0.000469392
5.0506e-05 -0.000128438 -0.0001012
-0.000128438 0.00198096 3.7232e-06
-0.0001012 3.7232e-06 0.00131605
0.00213015 -0.000879905 0.000666899
-0.000879905 0.000743576 -0.000249385
0.000666899 -0.000249385 -0.00400836
0.0171997 0.00654754 -5.82454e-05
0.00654754 0.0116573 2.15008e-06
-5.82454e-05 2.15008e-06 0.00890458
0.00476765 0.00349723 -0.000162384
0.00349723 0.000950435 0.000750321
-0.000162384 0.000750321 -0.00259422
0.0118999 -0.00313834 0.000255283
-0.00313834 0.00578064 -0.00021233
0.000255283 -0.00021233 0.000302153
0.00363172 -0.000718523 -7.189e-05
-0.000718523 0.00301101 3.99205e-05
-7.189e-05 3.99205e-05 0.00216851
0.000640824 0.000239055 -1.8902e-07
0.000239055 0.000734104 2.55261e-06
-1.8902e-07 2.55261e-06 0.000305408
4.72776e-05 -4.85825e-05 -8.51677e-06
-4.85825e-05 0.000412078 -2.79638e-06
-8.51677e-06 -2.79638e-06 4.23121e-05
0.00133871 -0.000484257 3.48294e-05
-0.000484257 0.000943915 -1.39821e-05
3.48294e-05 -1.39821e-05 0.000463048
0.000484116 -7.76703e-05 -1.32667e-06
-7.76703e-05 0.000337621 2.82354e-06
-1.32667e-06 2.82354e-06 0.000131142
-1.31593e-06 -3.4761e-05 1.24072e-06
-3.4761e-05 0.000286831 -1.06685e-05
1.24072e-06 -1.06685e-05 -9.44096e-05
0.000404905 -0.000273948 -4.05644e-06
-0.000273948 0.00046335 3.5586e-07
-4.05644e-06 3.5586e-07 0.00012647
0.000859694 -0.000536786 2.34962e-05
-0.000536786 0.000307083 -2.21729e-05
2.34962e-05 -2.21729e-05 5.10768e-05
0.00250898 -0.000369636 -2.28096e-06
-0.000369636 0.00131016 1.48503e-06
-2.28096e-06 1.48503e-06 0.00109732
0.0019344 -0.000633326 1.45663e-05
-0.000633326 0.000882552 -3.42715e-06
1.45663e-05 -3.42715e-06 0.000499373
0.00109229 -0.000539587 8.96584e-06
-0.000539587 0.000385687 2.9929e-07
8.96584e-06 2.9929e-07 -0.000199251
0.000499928 -0.00033209 -5.42651e-06
-0.00033209 -5.05893e-05 -4.71169e-06
-5.42651e-06 -4.71169e-06 -0.000257266
0.00185984 -0.000586631 -2.27382e-06
-0.000586631 0.00062387 -3.92115e-07
-2.27382e-06 -3.92115e-07 0.000184107
0.00225099 -0.000755524 -4.60175e-06
-0.000755524 0.000762853 4.6515e-07
-4.60175e-06 4.6515e-07 0.000224314
0.00190171 -0.000782895 -1.00546e-05
-0.000782895 0.000418276 1.77621e-06
-1.00546e-05 1.77621e-06 -5.43347e-05
0.001715 -0.000646145 -1.39542e-06
-0.000646145 0.000454567 -6.75531e-07
-1.39542e-06 -6.75531e-07 3.75913e-05
0.00156608 -0.00060305 -4.93846e-06
-0.00060305 0.000372551 1.46043e-06
-4.93846e-06 1.46043e-06 -5.22994e-05
0.00117781 -0.000452795 -2.00408e-06
-0.000452795 0.000262649 -5.36357e-06
-2.00408e-06 -5.36357e-06 -9.31114e-05
0.00154489 -0.000466706 9.08505e-06
-0.000466706 0.000459415 -9.50495e-07
9.08505e-06 -9.50495e-07 0.000131031
0.00155801 -0.000509833 5.57461e-06
-0.000509833 0.00039744 -2.56671e-06
5.57461e-06 -2.56671e-06 4.06534e-05
0.000513039 -0.000217094 3.16502e-06
-0.000217094 -4.58659e-05 9.12537e-08
3.16502e-06 9.12537e-08 -0.000288231
0.000936175 -0.000349222 3.48583e-06
-0.000349222 0.000121486 -2.21591e-06
3.48583e-06 -2.21591e-06 -0.000157608
0.000490695 -0.000360947 -1.59287e-06
-0.000360947 -0.000213586 -8.78434e-06
-1.59287e-06 -8.78434e-06 -0.000531836
-0.000100948 -4.69876e-05 5.11636e-07
-4.69876e-05 -0.000299941 -2.25879e-06
5.11636e-07 -2.25879e-06 -0.000532749
0.00106485 -0.000219154 -4.60371e-07
-0.000219154 0.000423003 -6.00267e-08
-4.60371e-07 -6.00267e-08 0.000161478
0.000804036 -0.000322683 -2.50029e-06
-0.000322683 0.000183116 -1.96658e-06
-2.50029e-06 -1.96658e-06 -8.4167e-05
0.000690811 -3.83118e-05 3.14745e-07
-3.83118e-05 0.000133002 7.29294e-06
3.14745e-07 7.29294e-06 1.67611e-05
0.000800686 -0.000110294 -3.05453e-07
-0.000110294 0.000223792 -1.41045e-07
-3.05453e-07 -1.41045e-07 4.70962e-05
4.14631e-05 -0.000106999 7.4609e-07
-0.000106999 -0.000172604 3.59608e-06
7.4609e-07 3.59608e-06 -0.000397872
0.00102629 -0.00012626 -3.45838e-07
-0.00012626 0.00037868 -6.252e-07
-3.45838e-07 -6.252e-07 0.000217669
0.000607415 -4.56823e-05 -9.41214e-08
-4.56823e-05 8.18587e-05 -3.53654e-07
-9.41214e-08 -3.53654e-07 -2.11613e-05
0.000372945 2.74437e-05 1.78777e-06
2.74437e-05 -7.62185e-05 8.83494e-06
1.78777e-06 8.83494e-06 -0.000117078
0.000642734 -5.08313e-05 -2.29231e-07
-5.08313e-05 0.000101876 -4.47084e-06
-2.29231e-07 -4.47084e-06 1.22255e-05
0.000484322 1.76521e-05 -2.44283e-06
1.76521e-05 -1.8424e-05 -2.28283e-07
-2.44283e-06 -2.28283e-07 -5.11455e-05
0.00271133 9.68039e-05 -3.61758e-05
9.68039e-05 0.00138099 4.59217e-06
-3.61758e-05 4.59217e-06 0.00138555
0.000503522 -1.74769e-06 2.19419e-06
-1.74769e-06 -1.40156e-05 -6.10331e-06
2.19419e-06 -6.10331e-06 -4.21358e-05
0.0017367 6.31371e-05 1.87609e-05
6.31371e-05 0.000761214 -7.50529e-07
1.87609e-05 -7.50529e-07 0.000764072
0.00265584 6.16984e-05 2.72006e-05
6.16984e-05 0.00133654 -5.22154e-06
2.72006e-05 -5.22154e-06 0.0013462
0.000731547 9.6895e-05 3.77187e-06
9.6895e-05 0.000187936 1.20393e-06
3.77187e-06 1.20393e-06 5.22359e-05
0.000519925 4.75696e-05 1.49695e-06
4.75696e-05 2.26629e-05 -2.14962e-06
1.49695e-06 -2.14962e-06 -5.70181e-05
0.000458049 5.38509e-05 -1.07038e-06
5.38509e-05 1.865e-05 -1.24027e-06
-1.07038e-06 -1.24027e-06 -0.000113716
0.000495646 2.89876e-06 7.96443e-07
2.89876e-06 -2.38073e-05 -5.11739e-06
7.96443e-07 -5.11739e-06 -4.26798e-05
0.000332201 3.77452e-05 -2.20633e-06
3.77452e-05 -9.32443e-05 -1.82825e-06
-2.20633e-06 -1.82825e-06 -0.000166523
0.000663077 7.64578e-05 -7.5016e-07
7.64578e-05 0.000151109 -2.38042e-06
-7.5016e-07 -2.38042e-06 2.53044e-05
0.00217842 -3.44642e-05 -2.00968e-05
-3.44642e-05 0.0010326 -4.77301e-06
-2.00968e-05 -4.77301e-06 0.00104884
0.000471536 -3.39737e-06 -4.08242e-09
-3.39737e-06 -4.00338e-05 -1.35475e-07
-4.08242e-09 -1.35475e-07 -5.3563e-05
0.000132182 1.39709e-05 -1.44693e-06
1.39709e-05 -0.000219331 3.79186e-07
-1.44693e-06 3.79186e-07 -0.000284781
0.00211433 -1.85102e-05 -5.3272e-06
-1.85102e-05 0.000992419 1.24517e-07
-5.3272e-06 1.24517e-07 0.00100998
0.000465543 -2.07724e-06 -2.18943e-06
-2.07724e-06 -4.34869e-05 3.47805e-06
-2.18943e-06 3.47805e-06 -5.38621e-05
0.0020589 -3.04388e-06 1.12202e-05
-3.04388e-06 0.000958278 4.80298e-06
1.12202e-05 4.80298e-06 0.0009763
0.0013414 -0.000219643 -5.25258e-05
-0.000219643 2.93544e-05 3.37288e-05
-5.25258e-05 3.37288e-05 -0.000262252
-0.000524011 -0.000204585 5.79077e-05
-0.000204585 0.00163361 -3.23076e-06
5.79077e-05 -3.23076e-06 0.000961211
-0.000740949 -0.000366189 0.000152599
-0.000366189 0.000571544 -0.000131055
0.000152599 -0.000131055 -0.00344558
0.000150183 4.92579e-05 2.80475e-06
4.92579e-05 -0.000197628 4.0854e-06
2.80475e-06 4.0854e-06 -0.000335573
0.00208894 0.000102334 1.22402e-06
0.000102334 0.000996388 1.97185e-06
1.22402e-06 1.97185e-06 0.000830635
0.000732966 0.000145083 -2.2959e-06
0.000145083 0.000185158 -4.66674e-06
-2.2959e-06 -4.66674e-06 4.22095e-05
0.000416763 7.77818e-05 8.44024e-07
7.77818e-05 -4.55507e-05 9.05701e-07
8.44024e-07 9.05701e-07 -0.000170193
0.000464257 9.55112e-05 3.6961e-07
9.55112e-05 2.17858e-06 -6.57728e-07
3.6961e-07 -6.57728e-07 -0.000125191
0.000488916 8.8552e-05 5.605e-06
8.8552e-05 1.15283e-05 3.02544e-06
5.605e-06 3.02544e-06 -0.000108378
0.000458956 0.000156854 1.00233e-05
0.000156854 4.0645e-05 7.35782e-06
1.00233e-05 7.35782e-06 -9.6989e-05
0.00146783 0.00079959 0.00018794
0.00079959 -0.000461222 0.00024182
0.00018794 0.00024182 -0.00175456
0.00458901 -0.000173936 -4.45417e-05
-0.000173936 -0.000214323 5.64619e-05
-4.45417e-05 5.64619e-05 -0.000975337
0.00392655 -0.000650233 0.000178446
-0.000650233 0.00265557 -0.000104758
0.000178446 -0.000104758 0.00146776
0.00746344 -0.000123937 -8.51853e-07
-0.000123937 -0.005778 0.000168786
-8.51853e-07 0.000168786 -0.00208174
0.00411013 -0.00256789 -0.000108333
-0.00256789 0.000495797 4.21701e-05
-0.000108333 4.21701e-05 0.000561474
0.00130744 -0.00364705 -0.00023193
-0.00364705 0.00149915 7.70678e-05
-0.00023193 7.70678e-05 -0.0039992
0.0146216 0.00401776 0.000110281
0.00401776 0.00697065 -0.000141157
0.000110281 -0.000141157 0.00272106
0.00244433 -0.0021627 -6.18394e-05
-0.0021627 0.000199489 2.42416e-05
-6.18394e-05 2.42416e-05 0.000383613
-0.00126536 -0.00073177 -5.2654e-05
-0.00073177 0.00360306 5.16319e-05
-5.2654e-05 5.16319e-05 -0.00316386
0.00749885 0.000562337 0.000181683
0.000562337 0.00309751 -2.39961e-05
0.000181683 -2.39961e-05 -0.000187346
0.014758 -0.00208043 -7.13109e-05
-0.00208043 0.00195422 -2.01508e-05
-7.13109e-05 -2.01508e-05 0.00322686
-0.00152783 -0.000463566 -0.000192052
-0.000463566 -3.32555e-05 0.000141191
-0.000192052 0.000141191 -5.04715e-05
0.00352358 0.00200317 -0.00017791
0.00200317 0.00515433 -8.75542e-05
-0.00017791 -8.75542e-05 -0.00173355
-0.00221844 -0.00471574 1.33658e-05
-0.00471574 -0.000578435 -0.000238652
1.33658e-05 -0.000238652 -0.00524326
0.0128536 -0.00277076 0.000113233
-0.00277076 0.00313465 -0.000592103
0.000113233 -0.000592103 0.00190567
0.00090281 2.47103e-05 1.12161e-05
2.47103e-05 0.000452562 2.70643e-06
1.12161e-05 2.70643e-06 0.00024116
0.000808725 0.000180863 -1.19443e-06
0.000180863 0.000291087 -2.84805e-06
-1.19443e-06 -2.84805e-06 0.000125134
0.000993834 -2.67017e-05 1.03145e-06
-2.67017e-05 0.000452325 -2.07689e-06
1.03145e-06 -2.07689e-06 0.000195826
0.00108041 0.000159676 -3.62797e-06
0.000159676 0.000424807 -8.77814e-06
-3.62797e-06 -8.77814e-06 0.000248158
0.0010894 -0.000955187 3.05645e-05
-0.000955187 0.000138394 3.25069e-05
3.05645e-05 3.25069e-05 -0.000195434
0.00290045 -0.000320404 -1.88847e-06
-0.000320404 0.0016794 -2.76113e-05
-1.88847e-06 -2.76113e-05 0.00130327
0.000849125 9.54256e-05 -7.49651e-06
9.54256e-05 0.000389229 -1.25357e-05
-7.49651e-06 -1.25357e-05 0.00019899
0.000169497 0.000134843 -2.0747e-06
0.000134843 5.63712e-05 -2.25629e-06
-2.0747e-06 -2.25629e-06 -0.000158385
0.000468221 2.67667e-05 -2.94458e-06
2.67667e-05 0.000611523 1.84836e-05
-2.94458e-06 1.84836e-05 0.000165979
0.000378467 5.41725e-05 3.56205e-06
5.41725e-05 0.000123818 4.16008e-06
3.56205e-06 4.16008e-06 -4.44884e-05
0.000242979 0.000165112 3.115e-06
0.000165112 0.000527778 1.68971e-06
3.115e-06 1.68971e-06 7.75404e-05
0.00125821 -0.000390322 1.16397e-06
-0.000390322 0.00134161 4.22396e-06
1.16397e-06 4.22396e-06 0.000257948
8.51036e-05 -0.000117082 1.21356e-05
-0.000117082 0.000610453 1.91352e-06
1.21356e-05 1.91352e-06 0.000211559
-0.000673462 9.17221e-05 6.88383e-07
9.17221e-05 -0.000286244 -1.06577e-05
6.88383e-07 -1.06577e-05 -0.000521151
0.00215981 -3.38149e-05 -7.23616e-05
-3.38149e-05 0.00344702 -3.19738e-05
-7.23616e-05 -3.19738e-05 0.00174737
0.000918935 0.000325638 -2.68377e-05
0.000325638 0.00106796 2.00237e-05
-2.68377e-05 2.00237e-05 0.000542572
-0.00161704 5.97207e-05 -7.02716e-05
5.97207e-05 0.0014149 -7.15231e-06
-7.02716e-05 -7.15231e-06 0.000469229
0.000888093 3.77489e-05 1.18211e-05
3.77489e-05 -0.000131707 4.24631e-06
1.18211e-05 4.24631e-06 -0.000480903
-0.00236265 0.000194243 -1.00306e-05
0.000194243 0.000719402 -5.37196e-05
-1.00306e-05 -5.37196e-05 -4.94721e-05
0.000182981 0.000235253 -1.94034e-05
0.000235253 0.000545222 7.20636e-06
-1.94034e-05 7.20636e-06 0.000194566
-0.00152471 0.000773372 0.000133138
0.000773372 -0.000313031 0.000100665
0.000133138 0.000100665 -0.00100142
0.000679733 1.54311e-05 5.39977e-05
1.54311e-05 -4.53099e-05 -5.85745e-06
5.39977e-05 -5.85745e-06 -9.6592e-05
0.00527783 -0.00195004 0.000211402
-0.00195004 0.0054169 -0.000175239
0.000211402 -0.000175239 -0.00251406
0.0167899 0.00352492 -0.000154648
0.00352492 0.00745623 0.000140986
-0.000154648 0.000140986 0.0033871
0.00335826 -0.000561009 -0.000165811
-0.000561009 0.00220115 0.000111865
-0.000165811 0.000111865 0.00115319
0.0124583 0.00431097 -5.63141e-05
0.00431097 0.00446446 -0.000201384
-5.63141e-05 -0.000201384 0.0018633
0.000381973 0.000194069 -5.70627e-05
0.000194069 0.0010756 1.3939e-05
-5.70627e-05 1.3939e-05 0.00014557
8.25858e-05 -0.000170946 -6.73566e-05
-0.000170946 0.00161834 1.13736e-06
-6.73566e-05 1.13736e-06 0.00117289
0.00333814 -0.00128315 0.000257562
-0.00128315 0.00151124 -3.17042e-05
0.000257562 -3.17042e-05 -0.00307635
-0.00218575 -0.000133549 3.91064e-05
-0.000133549 -0.000440102 3.0074e-05
3.91064e-05 3.0074e-05 -0.00084192
0.0108939 0.00730751 0.000530138
0.00730751 0.00804063 -0.000246245
0.000530138 -0.000246245 0.00552849
0.00697032 0.00283616 -0.000162234
0.00283616 0.00236628 0.000338027
-0.000162234 0.000338027 -0.00144504
-0.00265023 -0.00118722 0.000157788
-0.00118722 0.0026102 -0.00013041
0.000157788 -0.00013041 -0.0045641
-0.000416494 -0.00037111 2.56186e-05
-0.00037111 0.000603547 -2.58201e-05
2.56186e-05 -2.58201e-05 -0.000317423
0.000192626 -0.000665516 0.000257248
-0.000665516 -0.00022245 -6.16114e-05
0.000257248 -6.16114e-05 -0.00318363
-0.00126223 0.000332609 -0.00100194
0.000332609 0.00613989 0.000277509
-0.00100194 0.000277509 0.00255852
0.0152687 0.00637364 -0.000541405
0.00637364 0.00458462 0.000532257
-0.000541405 0.000532257 0.00135239
0.00870339 -0.00311938 -0.000131553
-0.00311938 0.00351815 4.87116e-05
-0.000131553 4.87116e-05 -9.84497e-05
0.00286948 -0.00133142 4.14437e-06
-0.00133142 0.00235482 1.23473e-05
4.14437e-06 1.23473e-05 0.0016109
0.000392245 -5.21378e-05 7.70543e-06
-5.21378e-05 0.000551588 2.08591e-06
7.70543e-06 2.08591e-06 0.000177495
0.00013508 -0.000349951 -1.858e-08
-0.000349951 0.000359991 -7.29253e-07
-1.858e-08 -7.29253e-07 -0.000129173
0.000628996 -0.000639455 5.15584e-06
-0.000639455 0.000341944 -4.24132e-06
5.15584e-06 -4.24132e-06 9.15395e-05
-0.000526361 -0.000209528 1.61272e-06
-0.000209528 2.36479e-05 7.85121e-06
1.61272e-06 7.85121e-06 -0.000323845
-0.000562952 -0.000363003 -5.10648e-07
-0.000363003 -0.0003431 -1.04648e-06
-5.10648e-07 -1.04648e-06 -0.000602109
0.00288745 -0.000811198 3.95984e-05
-0.000811198 0.00118721 -8.45976e-06
3.95984e-05 -8.45976e-06 0.000843861
0.00635898 -0.00114547 -1.3955e-05
-0.00114547 0.0033065 2.99051e-07
-1.3955e-05 2.99051e-07 0.00285458
0.00276807 -0.000753955 9.42337e-06
-0.000753955 0.00122681 -1.72903e-06
9.42337e-06 -1.72903e-06 0.000645734
0.00158481 -0.00074264 8.55198e-06
-0.00074264 0.000370359 -1.27651e-05
8.55198e-06 -1.27651e-05 -0.000218782
0.002039 -0.0006016 -9.50218e-06
-0.0006016 0.000696446 -6.30015e-06
-9.50218e-06 -6.30015e-06 0.000263476
0.00232245 -0.000774162 2.47165e-06
-0.000774162 0.000779745 -1.12917e-06
2.47165e-06 -1.12917e-06 0.000232921
0.00245408 -0.000848295 -3.61402e-07
-0.000848295 0.000768412 -1.04271e-05
-3.61402e-07 -1.04271e-05 0.000226409
0.00212544 -0.000709497 -5.41767e-06
-0.000709497 0.000389885 -5.07242e-06
-5.41767e-06 -5.07242e-06 1.02667e-05
0.00237587 -0.000836169 -6.92251e-06
-0.000836169 0.000662476 1.63474e-06
-6.92251e-06 1.63474e-06 0.000207579
0.00220573 -0.000819132 -2.72103e-06
-0.000819132 0.000585468 -1.38672e-07
-2.72103e-06 -1.38672e-07 0.000102144
0.0017562 -0.000622657 9.05269e-06
-0.000622657 0.000515185 -2.3822e-06
9.05269e-06 -2.3822e-06 0.000125738
0.00147118 -0.000608558 2.44134e-06
-0.000608558 0.000314675 -5.66694e-07
2.44134e-06 -5.66694e-07 -8.73056e-05
0.001374 -0.000581784 2.52045e-06
-0.000581784 0.000250062 -4.36922e-08
2.52045e-06 -4.36922e-08 -0.000171436
0.00180172 -0.000438512 7.20108e-06
-0.000438512 0.000655295 2.76512e-06
7.20108e-06 2.76512e-06 0.000352677
0.00138537 -0.000447007 -1.1379e-06
-0.000447007 0.000364278 -1.60952e-06
-1.1379e-06 -1.60952e-06 3.77161e-05
0.00149992 -0.000508954 6.49494e-06
-0.000508954 0.000364721 4.94223e-07
6.49494e-06 4.94223e-07 8.1417e-06
0.00103253 -0.000204092 2.75145e-06
-0.000204092 0.000372408 -4.44134e-06
2.75145e-06 -4.44134e-06 9.61443e-05
0.000723161 -0.000242422 -2.11935e-06
-0.000242422 0.000100249 1.51133e-06
-2.11935e-06 1.51133e-06 -0.000144502
0.000998284 -0.000361482 1.7025e-06
-0.000361482 0.000167535 -9.15046e-06
1.7025e-06 -9.15046e-06 -0.000112365
0.000106689 -5.40267e-05 -6.19081e-07
-5.40267e-05 -0.000235581 5.23128e-06
-6.19081e-07 5.23128e-06 -0.000374547
0.000738952 -0.000101239 -3.24654e-07
-0.000101239 0.000217317 8.30777e-07
-3.24654e-07 8.30777e-07 -1.99279e-05
0.00138739 -0.000304165 2.0018e-06
-0.000304165 0.000646005 1.42186e-06
2.0018e-06 1.42186e-06 0.000367856
0.000360948 -1.05453e-06 -4.72896e-06
-1.05453e-06 -9.05734e-05 1.33707e-05
-4.72896e-06 1.33707e-05 -0.000135455
0.000642357 -5.68451e-05 5.31843e-07
-5.68451e-05 9.55938e-05 6.16234e-08
5.31843e-07 6.16234e-08 -2.00498e-05
0.00131944 -0.000182222 -1.37124e-06
-0.000182222 0.000546752 1.58252e-06
-1.37124e-06 1.58252e-06 0.000361358
0.000627238 -5.23682e-05 -4.94951e-07
-5.23682e-05 9.22655e-05 -5.36598e-06
-4.94951e-07 -5.36598e-06 -1.14631e-05
0.000456721 1.72397e-05 -3.54112e-07
1.72397e-05 -2.86843e-05 -3.78254e-07
-3.54112e-07 -3.78254e-07 -6.79834e-05
0.00285282 0.000121399 -3.71306e-05
0.000121399 0.00147925 4.46899e-06
-3.71306e-05 4.46899e-06 0.001478
0.000530553 1.02372e-05 1.26215e-06
1.02372e-05 6.94458e-06 -7.2742e-06
1.26215e-06 -7.2742e-06 -2.45691e-05
0.00271441 9.98156e-05 4.45531e-06
9.98156e-05 0.00138341 5.09025e-07
4.45531e-06 5.09025e-07 0.00138741
0.00262731 8.0002e-05 3.04748e-05
8.0002e-05 0.00132215 -4.7511e-06
3.04748e-05 -4.7511e-06 0.00132985
0.000859408 9.04815e-05 3.49403e-06
9.04815e-05 0.000326692 -4.76077e-06
3.49403e-06 -4.76077e-06 0.000133665
0.000873718 0.000139029 6.38296e-06
0.000139029 0.000298907 8.52519e-07
6.38296e-06 8.52519e-07 0.000133832
0.000582494 4.11861e-05 2.78993e-06
4.11861e-05 5.9161e-05 -3.16711e-06
2.78993e-06 -3.16711e-06 -2.93209e-05
0.000621901 0.000103937 2.44937e-07
0.000103937 0.000114132 -2.31064e-07
2.44937e-07 -2.31064e-07 -1.82923e-05
0.000478307 3.5706e-09 3.26746e-07
3.5706e-09 -3.22806e-05 -6.2501e-06
3.26746e-07 -6.2501e-06 -5.65661e-05
0.000538636 5.02842e-05 1.83209e-07
5.02842e-05 3.48606e-05 -1.31689e-07
1.83209e-07 -1.31689e-07 -4.49509e-05
0.00057903 5.61062e-05 -3.769e-06
5.61062e-05 8.01631e-05 -1.93033e-06
-3.769e-06 -1.93033e-06 -4.31709e-05
0.00233304 -5.06352e-05 -2.62475e-05
-5.06352e-05 0.00113126 -4.93506e-06
-2.62475e-05 -4.93506e-06 0.00114506
0.000478653 -2.36577e-06 -7.61493e-07
-2.36577e-06 -3.41019e-05 -1.60493e-07
-7.61493e-07 -1.60493e-07 -5.24884e-05
0.000483469 5.54198e-05 -3.16747e-06
5.54198e-05 2.63016e-06 3.02042e-07
-3.16747e-06 3.02042e-07 -7.01935e-05
0.00217676 -3.37364e-05 -4.71367e-06
-3.37364e-05 0.00103152 2.2735e-07
-4.71367e-06 2.2735e-07 0.00104788
0.000473713 -3.05029e-06 -2.27576e-06
-3.05029e-06 -3.90777e-05 3.86343e-06
-2.27576e-06 3.86343e-06 -5.22535e-05
0.00209413 -1.77866e-05 1.5291e-05
-1.77866e-05 0.000979552 4.66745e-06
1.5291e-05 4.66745e-06 0.000997216
-0.00213832 0.000145227 -1.41167e-05
0.000145227 0.000151602 -3.06645e-05
-1.41167e-05 -3.06645e-05 -9.50795e-05
0.0013511 -0.000185288 -1.56427e-05
-0.000185288 0.000159478 1.29453e-05
-1.56427e-05 1.29453e-05 3.22681e-05
2.66739e-05 -0.000189838 7.60141e-06
-0.000189838 0.00152509 -3.50872e-05
7.60141e-06 -3.50872e-05 0.000972345
0.000803448 9.99055e-05 -2.63111e-07
9.99055e-05 0.000249562 1.08386e-06
-2.63111e-07 1.08386e-06 8.12466e-05
0.000367064 8.75947e-05 4.88334e-06
8.75947e-05 -6.93122e-05 -1.31066e-06
4.88334e-06 -1.31066e-06 -0.000221828
-0.00161593 -1.4495e-05 -3.95968e-06
-1.4495e-05 -0.001273 -6.99598e-06
-3.95968e-06 -6.99598e-06 -0.0014126
-0.000312168 3.28549e-05 9.09477e-07
3.28549e-05 -0.000465985 1.21856e-05
9.09477e-07 1.21856e-05 -0.000604364
0.00289497 0.000397 -3.19414e-06
0.000397 0.00152969 -4.9882e-07
-3.19414e-06 -4.9882e-07 0.00127886
0.000745444 4.68669e-05 -5.47612e-06
4.68669e-05 0.000148274 -4.84811e-06
-5.47612e-06 -4.84811e-06 2.58064e-05
0.000452165 9.76911e-05 -6.51703e-06
9.76911e-05 -8.38951e-06 -9.79622e-06
-6.51703e-06 -9.79622e-06 -0.000128153
0.000725334 7.03578e-05 2.66463e-07
7.03578e-05 0.000159309 -4.32567e-07
2.66463e-07 -4.32567e-07 3.75988e-05
0.000961312 0.000160794 -5.25344e-07
0.000160794 0.00033352 -1.92047e-06
-5.25344e-07 -1.92047e-06 0.000203129
0.000806454 0.000121074 6.93844e-06
0.000121074 0.000368009 -1.46384e-05
6.93844e-06 -1.46384e-05 0.000157805
0.0052023 0.000854489 0.000369434
0.000854489 0.00373668 0.000461949
0.000369434 0.000461949 -0.000868527
0.00207808 0.000660111 1.95853e-05
0.000660111 2.02582e-05 8.75347e-05
1.95853e-05 8.75347e-05 -0.00150887
0.00400556 -0.000126534 3.01191e-05
-0.000126534 -0.000189973 -1.87131e-05
3.01191e-05 -1.87131e-05 -0.000541943
0.0139085 -0.00180095 -0.000255689
-0.00180095 0.00211418 -0.000129293
-0.000255689 -0.000129293 0.00373904
-0.00353825 0.00156532 7.01912e-05
0.00156532 -0.00216737 0.000424584
7.01912e-05 0.000424584 -0.0065413
0.00253574 -0.00217606 -5.14861e-05
-0.00217606 0.000758351 -2.8145e-05
-5.14861e-05 -2.8145e-05 0.000796858
0.00898469 -0.00203793 -0.000124537
-0.00203793 0.00521282 2.7068e-05
-0.000124537 2.7068e-05 0.000217299
0.00113902 -0.000829272 -8.31339e-05
-0.000829272 0.000846384 0.00010381
-8.31339e-05 0.00010381 0.000538406
0.00938566 -0.000112216 -0.000141376
-0.000112216 0.00622005 1.08421e-06
-0.000141376 1.08421e-06 -8.37289e-05
0.0049485 -0.00253733 0.000100116
-0.00253733 0.00330141 0.00017649
0.000100116 0.00017649 -0.00125946
0.0151626 -0.00389227 -0.000160249
-0.00389227 0.0023597 -0.000688973
-0.000160249 -0.000688973 0.000759663
0.00313883 -3.2415e-05 -0.000125321
-3.2415e-05 0.00293795 0.000109947
-0.000125321 0.000109947 0.00190879
0.0131024 0.0024814 -0.000172067
0.0024814 0.00714754 1.71591e-05
-0.000172067 1.71591e-05 0.00217211
0.0189718 -0.00595819 -0.000177331
-0.00595819 0.00914219 -0.000668903
-0.000177331 -0.000668903 0.00519123
0.0209592 -0.00765477 8.06522e-05
-0.00765477 0.00793688 -6.85572e-05
8.06522e-05 -6.85572e-05 0.00586347
0.000988382 0.000279825 1.28099e-05
0.000279825 0.000554885 -1.51836e-07
1.28099e-05 -1.51836e-07 0.000278184
0.000132911 4.78936e-05 3.01206e-06
4.78936e-05 4.97862e-05 2.54173e-06
3.01206e-06 2.54173e-06 -0.000202807
0.000876953 0.000178231 -9.11158e-06
0.000178231 0.000346807 -1.25421e-05
-9.11158e-06 -1.25421e-05 0.000169429
0.00367205 -0.000577931 1.37306e-05
-0.000577931 0.00213251 2.72646e-05
1.37306e-05 2.72646e-05 0.000895275
0.000106243 -9.3244e-05 5.65408e-06
-9.3244e-05 0.000763171 -4.02459e-05
5.65408e-06 -4.02459e-05 0.000320828
-0.000130727 2.86144e-05 -5.18531e-06
2.86144e-05 -0.000186697 2.48122e-06
-5.18531e-06 2.48122e-06 -0.00035032
-0.000659991 3.8532e-05 1.00485e-05
3.8532e-05 -6.38637e-06 -7.11861e-06
1.00485e-05 -7.11861e-06 -0.00045547
0.000159516 0.000121092 1.18556e-06
0.000121092 0.000185337 -1.17275e-06
1.18556e-06 -1.17275e-06 -6.12334e-05
0.000499149 0.000339306 1.16644e-05
0.000339306 0.000701632 -5.86505e-07
1.16644e-05 -5.86505e-07 0.000179024
-0.00194828 -9.27061e-05 0.000265533
-9.27061e-05 0.000860862 -1.91917e-05
0.000265533 -1.91917e-05 -0.000950312
-0.00134772 0.000293969 -1.30853e-05
0.000293969 -0.000691314 1.32194e-05
-1.30853e-05 1.32194e-05 -0.00104915
0.00301112 0.000882463 -0.000141899
0.000882463 0.00228169 -7.23822e-05
-0.000141899 -7.23822e-05 0.000926493
0.00135008 0.00019792 0.000169452
0.00019792 0.00168314 5.61074e-05
0.000169452 5.61074e-05 -0.00219127
-0.00195187 0.00015108 -4.70307e-05
0.00015108 0.00113677 1.62752e-05
-4.70307e-05 1.62752e-05 0.000160131
0.00217151 -0.000215948 -2.12651e-05
-0.000215948 0.000495603 -1.79689e-06
-2.12651e-05 -1.79689e-06 0.000701739
-0.000636979 0.000488137 0.00012571
0.000488137 0.000382988 1.29695e-05
0.00012571 1.29695e-05 -0.00062056
0.00132735 0.000309104 -8.83845e-05
0.000309104 0.00209037 8.68956e-05
-8.83845e-05 8.68956e-05 0.000775791
-0.00012295 -0.000237622 -1.14343e-05
-0.000237622 0.00145092 -2.45659e-06
-1.14343e-05 -2.45659e-06 0.000850655
0.0164129 -0.00376793 0.000213076
-0.00376793 0.00806802 -0.00010195
0.000213076 -0.00010195 0.00220474
0.0227399 0.00429558 -0.0001032
0.00429558 0.00992239 -0.000145174
-0.0001032 -0.000145174 0.00568812
0.00485367 -0.00144365 -0.000232309
-0.00144365 0.00240525 0.000233952
-0.000232309 0.000233952 -0.00205048
0.00340571 0.00835386 0.00230007
0.00835386 0.00372387 -0.00147778
0.00230007 -0.00147778 0.00118161
0.00108082 -0.000453675 3.56939e-05
-0.000453675 0.00136973 -1.0665e-05
3.56939e-05 -1.0665e-05 0.000365377
-0.000237826 -0.000482737 3.93791e-05
-0.000482737 0.000325733 1.41018e-05
3.93791e-05 1.41018e-05 -0.00319615
-0.000658002 0.000729432 -0.00107262
0.000729432 0.00588892 0.000331172
-0.00107262 0.000331172 0.0019924
0.000815796 -0.000767989 6.49614e-06
-0.000767989 0.00117912 3.22509e-05
6.49614e-06 3.22509e-05 0.000520588
0.0190992 0.0056847 0.000321497
0.0056847 0.00586086 9.20113e-05
0.000321497 9.20113e-05 0.00266019
0.00742658 -0.00439441 0.000178856
-0.00439441 0.00243821 -7.31971e-05
0.000178856 -7.31971e-05 -0.0013843
0.00156353 -0.00116859 -1.26014e-05
-0.00116859 0.000937707 2.94782e-05
-1.26014e-05 2.94782e-05 0.00021401
-0.00641457 -0.00161513 0.000131822
-0.00161513 0.00510204 -7.13836e-05
0.000131822 -7.13836e-05 0.0012492
0.0153994 0.00540764 -0.00140754
0.00540764 0.00603352 0.00050779
-0.00140754 0.00050779 0.00339777
0.00601469 -0.00323299 -0.000408057
-0.00323299 -0.000382882 0.000183097
-0.000408057 0.000183097 -0.00376129
0.0014357 -0.00187818 0.000189418
-0.00187818 0.000106044 -0.000114457
0.000189418 -0.000114457 0.000990962
0.000891246 -0.000461937 -8.78426e-05
-0.000461937 0.000691676 3.16033e-05
-8.78426e-05 3.16033e-05 0.000253721
0.000748325 -0.000575695 -7.04202e-06
-0.000575695 0.000436896 1.22178e-05
-7.04202e-06 1.22178e-05 0.000120706
0.0032757 -0.000863143 2.23485e-05
-0.000863143 0.0014981 -9.30742e-06
2.23485e-05 -9.30742e-06 0.0011457
-0.00196655 -0.000187752 7.18252e-06
-0.000187752 -0.000967956 1.1486e-05
7.18252e-06 1.1486e-05 -0.00122737
0.001151 -0.000598242 4.97926e-06
-0.000598242 0.000280024 -1.87685e-06
4.97926e-06 -1.87685e-06 -4.38752e-05
0.00281433 -0.000902436 9.65952e-06
-0.000902436 0.00085118 -8.03145e-07
9.65952e-06 -8.03145e-07 0.000478948
0.00396945 -0.000905719 -2.85308e-05
-0.000905719 0.00181983 3.3026e-06
-2.85308e-05 3.3026e-06 0.00124742
0.00138121 -0.000692983 -3.03222e-07
-0.000692983 0.000244309 -1.10465e-06
-3.03222e-07 -1.10465e-06 -0.000323754
0.00174219 -0.000848246 2.27692e-06
-0.000848246 0.000207079 -1.19953e-05
2.27692e-06 -1.19953e-05 -0.000249358
0.00280898 -0.000844419 -3.27722e-08
-0.000844419 0.00102191 4.29781e-06
-3.27722e-08 4.29781e-06 0.000461677
0.00216823 -0.00082022 7.37325e-07
-0.00082022 0.000585008 -4.78651e-06
7.37325e-07 -4.78651e-06 6.19352e-05
0.00259562 -0.000767997 3.01955e-07
-0.000767997 0.000604266 -9.61329e-06
3.01955e-07 -9.61329e-06 0.000229041
0.00172457 -0.000499871 -5.38922e-06
-0.000499871 6.4942e-06 -3.06102e-06
-5.38922e-06 -3.06102e-06 -0.00023822
0.00186877 -0.000707034 -1.72217e-06
-0.000707034 0.000192462 -1.31128e-06
-1.72217e-06 -1.31128e-06 -0.000185248
0.00210882 -0.000708881 2.91636e-06
-0.000708881 0.000373039 -2.90932e-06
2.91636e-06 -2.90932e-06 -4.22724e-06
0.00221334 -0.000733194 -2.88267e-06
-0.000733194 0.000632008 -6.08821e-07
-2.88267e-06 -6.08821e-07 0.000224272
0.00232291 -0.000829132 -2.83268e-06
-0.000829132 0.000642667 3.17632e-08
-2.83268e-06 3.17632e-08 0.000183775
0.00244899 -0.000849325 6.25012e-06
-0.000849325 0.000715734 -3.55341e-06
6.25012e-06 -3.55341e-06 0.000222781
0.0019361 -0.000544478 6.90577e-06
-0.000544478 0.000681421 9.15874e-07
6.90577e-06 9.15874e-07 0.00032697
0.00136959 -0.000570322 2.44253e-06
-0.000570322 0.000296298 -1.84741e-07
2.44253e-06 -1.84741e-07 -7.80397e-05
0.00126117 -0.000577331 2.25658e-06
-0.000577331 0.000194173 1.55307e-06
2.25658e-06 1.55307e-06 -0.0001941
0.00137255 -0.00034977 -4.65235e-07
-0.00034977 0.000459114 -3.19024e-07
-4.65235e-07 -3.19024e-07 0.000192875
0.00120045 -0.000364831 7.00636e-07
-0.000364831 0.000294378 -4.85347e-07
7.00636e-07 -4.85347e-07 7.81819e-06
0.00132559 -0.000437024 -6.92597e-06
-0.000437024 0.000331985 -6.74175e-07
-6.92597e-06 -6.74175e-07 4.87463e-06
-0.000342421 -8.62076e-05 -2.18778e-06
-8.62076e-05 -0.00050148 2.21183e-06
-2.18778e-06 2.21183e-06 -0.000706272
0.000748317 -0.000222906 8.4419e-07
-0.000222906 0.00020368 -2.71047e-07
8.4419e-07 -2.71047e-07 -7.59473e-05
0.00127719 -0.000292733 -4.45964e-06
-0.000292733 0.000460825 1.75583e-06
-4.45964e-06 1.75583e-06 0.000205345
0.00177167 3.20571e-05 -4.28754e-05
3.20571e-05 0.000801416 8.38827e-06
-4.28754e-05 8.38827e-06 0.000753462
0.000696112 -0.000103941 3.00859e-07
-0.000103941 0.000124007 -5.68759e-07
3.00859e-07 -5.68759e-07 -2.30616e-05
0.00141043 -0.000153053 -1.59661e-06
-0.000153053 0.000633661 2.47168e-06
-1.59661e-06 2.47168e-06 0.000388647
0.000709587 3.66095e-05 -4.84225e-05
3.66095e-05 0.000132685 5.81652e-06
-4.84225e-05 5.81652e-06 0.000123051
0.00115754 2.10017e-05 -1.60492e-05
2.10017e-05 0.000411512 -5.62478e-07
-1.60492e-05 -5.62478e-07 0.000367588
0.000759232 -6.82621e-05 2.0025e-06
-6.82621e-05 0.00016254 -6.72081e-06
2.0025e-06 -6.72081e-06 4.6274e-05
0.000593544 1.18626e-05 1.9988e-06
1.18626e-05 5.32133e-05 -9.20643e-06
1.9988e-06 -9.20643e-06 1.43023e-05
0.00292808 0.000122519 7.75284e-06
0.000122519 0.00152658 7.05978e-07
7.75284e-06 7.05978e-07 0.00152519
0.00271304 0.000100344 3.4291e-05
0.000100344 0.00138285 -4.57396e-06
3.4291e-05 -4.57396e-06 0.00138685
0.000988626 0.000135997 1.02064e-05
0.000135997 0.000389253 -1.18365e-06
1.02064e-05 -1.18365e-06 0.000176926
0.00127766 0.000158695 4.46661e-06
0.000158695 0.000567997 -2.07073e-06
4.46661e-06 -2.07073e-06 0.000371121
5.53775e-05 5.88846e-05 2.58366e-07
5.88846e-05 -0.000200941 6.00917e-07
2.58366e-07 6.00917e-07 -0.000371333
0.000636095 3.82616e-05 3.12101e-06
3.82616e-05 9.25549e-05 -4.49549e-06
3.12101e-06 -4.49549e-06 -7.8481e-06
0.000804349 0.000110163 6.8388e-07
0.000110163 0.000243264 6.6764e-08
6.8388e-07 6.6764e-08 8.91651e-05
0.000468731 1.01693e-05 -1.84058e-06
1.01693e-05 -3.30327e-05 -7.68082e-06
-1.84058e-06 -7.68082e-06 -6.27057e-05
0.000544296 4.27802e-05 -1.05835e-07
4.27802e-05 3.81312e-05 -3.96872e-07
-1.05835e-07 -3.96872e-07 -5.12371e-05
0.00071764 6.94435e-05 -3.10492e-06
6.94435e-05 0.000197216 -5.12604e-07
-3.10492e-06 -5.12604e-07 4.78089e-05
0.00255847 -6.89236e-05 -3.45207e-05
-6.89236e-05 0.00127658 -4.90096e-06
-3.45207e-05 -4.90096e-06 0.00128712
0.000455865 2.83179e-06 -6.15598e-07
2.83179e-06 -4.54958e-05 -1.41046e-07
-6.15598e-07 -1.41046e-07 -6.95706e-05
0.000555184 5.42583e-05 -7.59199e-07
5.42583e-05 4.65359e-05 2.60938e-06
-7.59199e-07 2.60938e-06 -3.37839e-05
0.00234371 -5.08825e-05 -5.94245e-06
-5.08825e-05 0.00113799 3.51115e-07
-5.94245e-06 3.51115e-07 0.00115178
0.000441357 -1.06229e-05 -3.79014e-06
-1.06229e-05 -5.71144e-05 4.81444e-06
-3.79014e-06 4.81444e-06 -7.52041e-05
0.00220121 -3.25403e-05 2.08776e-05
-3.25403e-05 0.00104684 4.6285e-06
2.08776e-05 4.6285e-06 0.0010633
0.00643192 0.000579785 0.000302115
0.000579785 0.00359392 6.47029e-05
0.000302115 6.47029e-05 0.00145335
-0.00186786 9.06936e-05 -2.22747e-06
9.06936e-05 0.000123106 -6.43265e-06
-2.22747e-06 -6.43265e-06 -0.000342208
0.000664333 5.90369e-05 -1.48486e-05
5.90369e-05 0.000235328 -6.78246e-06
-1.48486e-05 -6.78246e-06 6.82231e-05
-0.000406179 0.000102281 -7.56528e-06
0.000102281 -0.000572073 2.35713e-06
-7.56528e-06 2.35713e-06 -0.000720197
0.000435508 6.71853e-05 -6.07372e-06
6.71853e-05 7.78182e-06 -3.66049e-06
-6.07372e-06 -3.66049e-06 -0.000144066
-6.04752e-05 5.88059e-05 -1.70032e-07
5.88059e-05 -0.0003305 -2.76817e-06
-1.70032e-07 -2.76817e-06 -0.000479822
0.0011667 7.08027e-05 1.30442e-06
7.08027e-05 0.000434507 -2.95191e-07
1.30442e-06 -2.95191e-07 0.000283306
0.000102329 8.78559e-05 -2.46175e-06
8.78559e-05 -0.000242343 -2.19175e-06
-2.46175e-06 -2.19175e-06 -0.000385094
0.00206282 0.000290671 -2.64652e-06
0.000290671 0.00102246 -3.7314e-06
-2.64652e-06 -3.7314e-06 0.000823594
0.00104707 0.000243529 -7.88986e-06
0.000243529 0.000357624 -1.42161e-05
-7.88986e-06 -1.42161e-05 6.28633e-05
-0.000972836 8.5993e-05 5.54218e-07
8.5993e-05 -0.00061607 6.46421e-07
5.54218e-07 6.46421e-07 -0.000935865
0.000817859 0.000151352 -5.42461e-06
0.000151352 0.000242632 -4.54694e-06
-5.42461e-06 -4.54694e-06 0.000102396
0.000132905 5.44323e-05 -7.59434e-06
5.44323e-05 -0.000223415 -8.13017e-06
-7.59434e-06 -8.13017e-06 -0.000317478
2.3857e-05 4.87247e-05 1.55974e-07
4.87247e-05 -0.000126788 1.0391e-06
1.55974e-07 1.0391e-06 -0.000323768
0.000927296 0.000272672 1.55512e-05
0.000272672 0.000583706 -2.64162e-06
1.55512e-05 -2.64162e-06 0.000217495
0.00287342 -0.00276157 0.000133537
-0.00276157 0.00546479 0.000252618
0.000133537 0.000252618 0.000324686
0.0059843 0.00119023 0.000120658
0.00119023 0.00309265 0.000164326
0.000120658 0.000164326 -0.00189084
0.00284056 0.000436799 -3.26845e-05
0.000436799 0.00053227 -7.84212e-05
-3.26845e-05 -7.84212e-05 -0.00122084
0.022791 -0.00490339 -0.00067785
-0.00490339 0.00599737 -0.000356455
-0.00067785 -0.000356455 0.00415313
0.00585675 -0.00171302 0.000256241
-0.00171302 0.00360773 0.000468228
0.000256241 0.000468228 0.000245997
0.00365906 -0.0014984 -0.000230419
-0.0014984 0.00495884 9.29851e-05
-0.000230419 9.29851e-05 -0.00203354
-0.000926682 -0.000499289 0.00013317
-0.000499289 0.000979827 1.32355e-05
0.00013317 1.32355e-05 4.75533e-05
-0.000326781 -0.000151007 8.29428e-05
-0.000151007 0.000934696 5.48047e-05
8.29428e-05 5.48047e-05 0.0002865
0.0129641 -0.00794921 0.000431617
-0.00794921 0.00588214 0.000407216
0.000431617 0.000407216 0.00358137
0.00177554 0.0014126 -9.23119e-05
0.0014126 0.00399938 -7.97541e-05
-9.23119e-05 -7.97541e-05 -0.00228565
0.00762744 -0.00352188 -0.000123819
-0.00352188 0.00319686 9.92537e-05
-0.000123819 9.92537e-05 -0.00134587
0.000551745 0.000663007 -1.84161e-05
0.000663007 0.00105554 7.01426e-05
-1.84161e-05 7.01426e-05 0.000744612
0.0116499 0.00363435 -0.000104975
0.00363435 0.00401862 6.58294e-06
-0.000104975 6.58294e-06 0.000302312
0.0133034 -0.00627863 -0.000781328
-0.00627863 0.00390769 -0.000502343
-0.000781328 -0.000502343 0.000352654
-0.000245931 0.000432064 1.08765e-07
0.000432064 -0.00053128 -4.92664e-06
1.08765e-07 -4.92664e-06 -0.000671777
0.000453749 0.000145264 8.01847e-06
0.000145264 0.000200494 3.56442e-06
8.01847e-06 3.56442e-06 -1.82226e-05
5.55272e-05 5.94277e-05 -8.01408e-06
5.94277e-05 -1.41072e-05 -4.80603e-06
-8.01408e-06 -4.80603e-06 -0.000255199
-0.00395031 -0.000356931 -0.000129195
-0.000356931 -0.000329967 -6.75576e-05
-0.000129195 -6.75576e-05 -0.00208301
-0.000884699 0.000253386 1.9063e-05
0.000253386 -0.000204312 -2.23688e-05
1.9063e-05 -2.23688e-05 -0.000718292
0.00123384 0.00017518 -5.3678e-06
0.00017518 0.000784314 1.04981e-05
-5.3678e-06 1.04981e-05 0.000532352
0.00103102 0.000610909 1.55723e-05
0.000610909 0.000545802 4.01567e-06
1.55723e-05 4.01567e-06 0.000158447
-0.00041106 0.000473038 4.07318e-05
0.000473038 0.000629709 -2.97871e-05
4.07318e-05 -2.97871e-05 -0.000535307
0.000679141 0.00120698 5.95805e-05
0.00120698 -5.36768e-05 6.90857e-06
5.95805e-05 6.90857e-06 -0.00081651
-0.00567543 0.00106166 0.000329637
0.00106166 0.00525248 7.99587e-06
0.000329637 7.99587e-06 -0.00117645
0.00227679 -0.000124026 -7.99225e-06
-0.000124026 0.00193364 6.13789e-05
-7.99225e-06 6.13789e-05 -0.000748645
-0.00232921 -5.26527e-05 -1.08453e-05
-5.26527e-05 0.000676991 4.68816e-05
-1.08453e-05 4.68816e-05 -6.01676e-05
-0.000362274 -0.000261484 -6.19371e-05
-0.000261484 0.00069977 1.57091e-05
-6.19371e-05 1.57091e-05 -0.00035161
-0.00144329 -0.000378811 -5.68141e-05
-0.000378811 -0.000457933 4.43248e-05
-5.68141e-05 4.43248e-05 -0.000206539
-0.000141344 -0.000395184 -0.000175124
-0.000395184 0.000681289 0.000107602
-0.000175124 0.000107602 -0.00306762
0.000164239 -0.00355991 0.000256739
-0.00355991 0.00207009 -8.50404e-05
0.000256739 -8.50404e-05 -0.00343247
0.00806173 0.0048235 0.000637503
0.0048235 -1.40558e-05 -0.000427348
0.000637503 -0.000427348 -0.00292957
0.00933854 0.00298248 -0.000386819
0.00298248 0.00711781 0.000299724
-0.000386819 0.000299724 0.00327077
0.00117014 -0.000726467 -1.07657e-05
-0.000726467 0.00115103 -2.16452e-06
-1.07657e-05 -2.16452e-06 0.000467955
0.001718 0.000488482 0.000113066
0.000488482 0.00692855 -1.72934e-05
0.000113066 -1.72934e-05 0.00318478
0.000290127 0.00369237 1.0199e-05
0.00369237 0.000557673 6.55481e-05
1.0199e-05 6.55481e-05 -0.00276021
0.00246033 -0.00238459 8.60584e-05
-0.00238459 0.000691061 -3.89383e-05
8.60584e-05 -3.89383e-05 0.000867456
0.0168998 -0.0035339 2.01685e-05
-0.0035339 0.0035759 -5.10573e-06
2.01685e-05 -5.10573e-06 0.00168079
0.00316373 -0.00148692 8.65075e-06
-0.00148692 0.00126003 1.96671e-05
8.65075e-06 1.96671e-05 0.000954463
-0.00857928 0.00111585 -0.000528439
0.00111585 -0.00277157 7.88731e-05
-0.000528439 7.88731e-05 -0.00528976
0.0157977 -0.00226939 -0.00021848
-0.00226939 0.00225691 7.02784e-05
-0.00021848 7.02784e-05 0.000821663
0.00385936 -0.00256284 0.000101222
-0.00256284 -0.000108484 -7.05601e-05
0.000101222 -7.05601e-05 0.000303319
0.000394859 -0.000456455 -1.21069e-05
-0.000456455 0.000332775 1.8034e-05
-1.21069e-05 1.8034e-05 -4.9121e-05
0.000893164 -0.000726936 -1.51893e-06
-0.000726936 0.000101828 -1.08643e-06
-1.51893e-06 -1.08643e-06 -0.000122513
0.00577024 -0.00104287 2.53388e-05
-0.00104287 0.00248766 -1.02793e-05
2.53388e-05 -1.02793e-05 0.00211148
-0.000694475 -0.000383578 -7.84479e-06
-0.000383578 -0.000674961 7.12455e-06
-7.84479e-06 7.12455e-06 -0.000989341
0.00136132 -0.00074008 -4.2817e-06
-0.00074008 0.00011455 -1.08992e-06
-4.2817e-06 -1.08992e-06 -0.000261177
0.00284442 -0.000962751 5.41401e-06
-0.000962751 0.000676203 -7.58145e-06
5.41401e-06 -7.58145e-06 0.000294105
0.00156567 -0.000692706 -1.30345e-05
-0.000692706 0.000313619 7.31779e-06
-1.30345e-05 7.31779e-06 -0.000237468
0.0018613 -0.000850436 -1.44669e-06
-0.000850436 0.000273582 4.88737e-07
-1.44669e-06 4.88737e-07 -0.00019035
0.00168828 -0.000691227 4.18112e-08
-0.000691227 -5.71607e-05 -6.83324e-06
4.18112e-08 -6.83324e-06 -0.000344792
0.00150743 -0.000748187 -3.42213e-06
-0.000748187 0.000199607 2.63597e-06
-3.42213e-06 2.63597e-06 -0.000300213
0.00194086 -0.000685813 -9.61121e-07
-0.000685813 0.00025215 1.46633e-06
-9.61121e-07 1.46633e-06 -0.000105385
0.00197139 -0.000521153 -1.05665e-06
-0.000521153 8.19707e-05 -4.35379e-06
-1.05665e-06 -4.35379e-06 -0.000125476
0.00186048 -0.000430156 -5.34844e-06
-0.000430156 7.3099e-05 -1.03557e-06
-5.34844e-06 -1.03557e-06 -9.85216e-05
0.00168537 -0.000513508 -5.93399e-06
-0.000513508 -6.2792e-08 -1.95906e-06
-5.93399e-06 -1.95906e-06 -0.000256203
0.00179288 -0.000499313 1.45896e-06
-0.000499313 5.02577e-05 2.71884e-06
1.45896e-06 2.71884e-06 -0.00019082
0.00165009 -0.000610545 -5.86461e-06
-0.000610545 0.000120261 -2.31624e-06
-5.86461e-06 -2.31624e-06 -0.000219189
0.00203582 -0.000713871 2.7281e-06
-0.000713871 0.000309639 -3.60844e-07
2.7281e-06 -3.60844e-07 -6.42277e-05
0.00210192 -0.000707855 5.59056e-06
-0.000707855 0.000364334 1.47429e-06
5.59056e-06 1.47429e-06 -1.0423e-05
0.00160112 -0.000597127 -1.49616e-06
-0.000597127 0.000312507 -2.03583e-06
-1.49616e-06 -2.03583e-06 -6.12312e-05
0.00204708 -0.000720262 1.89986e-06
-0.000720262 0.000529805 -6.71284e-07
1.89986e-06 -6.71284e-07 0.000122035
0.00222733 -0.000815849 1.12566e-06
-0.000815849 0.000598204 -1.66607e-06
1.12566e-06 -1.66607e-06 0.000136309
0.00127797 -0.000355912 -5.73892e-06
-0.000355912 0.00029531 1.92995e-06
-5.73892e-06 1.92995e-06 2.75313e-05
0.00147053 -0.00049072 2.09987e-06
-0.00049072 0.000384131 1.17585e-06
2.09987e-06 1.17585e-06 4.39914e-05
0.000900895 -0.000507557 -5.27651e-06
-0.000507557 2.75392e-05 1.60253e-06
-5.27651e-06 1.60253e-06 -0.000329555
0.000513811 -0.000199347 -6.454e-06
-0.000199347 -3.58335e-05 -4.04256e-07
-6.454e-06 -4.04256e-07 -0.00025526
0.00106182 -0.000333454 3.14616e-07
-0.000333454 0.000255755 -5.44573e-07
3.14616e-07 -5.44573e-07 -1.86404e-06
0.000381075 -0.000274227 -9.36377e-06
-0.000274227 -0.000198286 -1.54369e-08
-9.36377e-06 -1.54369e-08 -0.000465931
0.000291805 -4.11777e-05 -9.6516e-06
-4.11777e-05 -0.00013926 1.31448e-05
-9.6516e-06 1.31448e-05 -0.000208692
0.000869796 -0.00015793 2.46778e-06
-0.00015793 0.000249067 1.04016e-06
2.46778e-06 1.04016e-06 3.52045e-05
0.000774776 -0.000241515 4.32333e-07
-0.000241515 0.0002192 1.99188e-06
4.32333e-07 1.99188e-06 -5.53299e-05
0.00368733 0.000219547 2.40029e-06
0.000219547 0.0020376 4.66614e-06
2.40029e-06 4.66614e-06 0.00200609
0.00044416 -1.74107e-05 1.64941e-07
-1.74107e-05 -3.99598e-05 -3.91949e-07
1.64941e-07 -3.91949e-07 -9.65185e-05
0.00118548 -0.000105673 -2.77391e-07
-0.000105673 0.000432716 -6.44854e-06
-2.77391e-07 -6.44854e-06 0.000275306
0.00324533 0.000140963 8.35982e-06
0.000140963 0.00173307 6.75953e-07
8.35982e-06 6.75953e-07 0.00172708
0.000523574 -7.1818e-07 3.89945e-06
-7.1818e-07 1.17164e-05 -1.06908e-05
3.89945e-06 -1.06908e-05 -3.60323e-05
0.00295981 0.000117982 4.93969e-05
0.000117982 0.00154552 -4.65153e-06
4.93969e-05 -4.65153e-06 0.00154532
0.00213449 0.00031109 7.2007e-06
0.00031109 0.00102528 3.59961e-06
7.2007e-06 3.59961e-06 0.000799932
0.000819384 0.000150268 6.09229e-07
0.000150268 0.00029269 -3.75503e-06
6.09229e-07 -3.75503e-06 7.47344e-05
0.00123407 0.000161897 1.1955e-06
0.000161897 0.00055797 -6.85378e-06
1.1955e-06 -6.85378e-06 0.000327041
0.000650127 5.42226e-05 2.73035e-06
5.42226e-05 0.000105567 -5.51364e-06
2.73035e-06 -5.51364e-06 -1.23376e-05
0.000735798 0.000100603 1.78698e-07
0.000100603 0.000217409 1.41751e-06
1.78698e-07 1.41751e-06 3.4252e-05
0.000359359 0.000110447 -1.07082e-06
0.000110447 4.82648e-06 4.89902e-06
-1.07082e-06 4.89902e-06 -0.000180576
0.000507374 -8.2186e-07 -1.75673e-06
-8.2186e-07 -2.65877e-06 -9.19907e-06
-1.75673e-06 -9.19907e-06 -3.9068e-05
0.000598311 4.22823e-05 -3.97454e-08
4.22823e-05 7.41325e-05 -3.15393e-07
-3.97454e-08 -3.15393e-07 -2.82029e-05
0.000416781 8.45863e-05 -4.70915e-06
8.45863e-05 -1.37404e-05 -4.15301e-07
-4.70915e-06 -4.15301e-07 -0.000152086
0.00272586 -8.63241e-05 -4.32431e-05
-8.63241e-05 0.00138708 -4.65526e-06
-4.32431e-05 -4.65526e-06 0.00139462
0.000428771 -1.84752e-05 2.66574e-06
-1.84752e-05 -5.63519e-05 -1.27344e-07
2.66574e-06 -1.27344e-07 -8.67078e-05
0.000510233 4.69753e-05 -2.03204e-06
4.69753e-05 1.84736e-05 3.2503e-06
-2.03204e-06 3.2503e-06 -7.13929e-05
0.00253393 -6.91163e-05 -6.48643e-06
-6.91163e-05 0.00126101 4.77215e-07
-6.48643e-06 4.77215e-07 0.00127146
0.000442478 -3.82369e-06 -2.05778e-06
-3.82369e-06 -5.36858e-05 5.98968e-06
-2.05778e-06 5.98968e-06 -7.73891e-05
0.00230888 -5.00768e-05 2.33557e-05
-5.00768e-05 0.00111596 4.65535e-06
2.33557e-05 4.65535e-06 0.00113004
-0.009627 0.00102709 -9.3683e-05
0.00102709 0.00360133 8.05196e-05
-9.3683e-05 8.05196e-05 -0.002454
0.00604919 0.000401337 9.71896e-07
0.000401337 0.00348998 -2.00654e-06
9.71896e-07 -2.00654e-06 0.00145031
-0.00151523 3.27443e-05 3.63821e-05
3.27443e-05 0.000140496 1.54359e-05
3.63821e-05 1.54359e-05 -0.000546513
0.00019737 0.000126396 -1.06925e-06
0.000126396 -0.00016327 1.99364e-06
-1.06925e-06 1.99364e-06 -0.000346341
0.0034059 0.000642826 1.27681e-05
0.000642826 0.00174169 1.05965e-05
1.27681e-05 1.05965e-05 0.0013987
0.00147016 0.000188836 -8.62911e-06
0.000188836 0.000707085 1.57721e-06
-8.62911e-06 1.57721e-06 0.000412412
0.000629984 7.25843e-05 -7.09374e-06
7.25843e-05 0.000100524 -1.26847e-05
-7.09374e-06 -1.26847e-05 -5.33838e-05
0.00252668 0.000271391 3.50466e-06
0.000271391 0.00122651 -1.67206e-06
3.50466e-06 -1.67206e-06 0.00106417
-0.000522979 4.19936e-05 -8.6256e-06
4.19936e-05 -0.00055801 8.64975e-06
-8.6256e-06 8.64975e-06 -0.000702384
0.000170693 9.30956e-05 -1.348e-06
9.30956e-05 -8.77665e-06 5.35473e-06
-1.348e-06 5.35473e-06 -0.000277877
0.000567188 0.000153802 -2.79004e-06
0.000153802 0.000115947 -5.53034e-06
-2.79004e-06 -5.53034e-06 -0.000180777
0.0018619 0.000467443 7.29839e-06
0.000467443 0.000921492 -2.75894e-05
7.29839e-06 -2.75894e-05 0.000498893
0.000195682 0.000448347 -1.54885e-05
0.000448347 -0.000216138 4.72234e-05
-1.54885e-05 4.72234e-05 -0.000370408
0.00146944 3.91956e-05 -1.19986e-05
3.91956e-05 0.000723455 1.43138e-05
-1.19986e-05 1.43138e-05 0.000536289
0.00137302 0.000240082 4.65723e-06
0.000240082 0.000856581 -1.04866e-05
4.65723e-06 -1.04866e-05 0.000505131
-0.000852468 -0.00218786 -0.00141705
-0.00218786 0.00123003 -0.000247123
-0.00141705 -0.000247123 -0.00231205
-0.00274248 -0.00208952 0.000483252
-0.00208952 0.00528712 0.000193426
0.000483252 0.000193426 -1.47256e-05
0.00671937 0.00149863 -0.000504274
0.00149863 0.00290558 -0.000175377
-0.000504274 -0.000175377 -0.00244729
0.00280027 -0.00835275 0.0022644
-0.00835275 0.00369647 0.0014432
0.0022644 0.0014432 0.000810271
0.0238131 -0.00367594 6.18345e-05
-0.00367594 0.00807373 0.000337224
6.18345e-05 0.000337224 0.00492258
-0.00295663 0.00142829 -1.44627e-05
0.00142829 0.00213081 -0.000184558
-1.44627e-05 -0.000184558 -0.00341595
-0.00256657 0.000160719 -0.000392724
0.000160719 0.000558588 -6.75438e-05
-0.000392724 -6.75438e-05 -0.00106412
0.00116088 0.000704761 7.30747e-05
0.000704761 0.00154443 5.02738e-05
7.30747e-05 5.02738e-05 0.00123713
0.0189149 -0.00461744 -0.000594575
-0.00461744 0.0077445 6.8355e-06
-0.000594575 6.8355e-06 0.0043257
-0.00242232 0.00272475 -0.00010419
0.00272475 0.000351749 -4.5695e-05
-0.00010419 -4.5695e-05 -0.00426961
0.00301328 0.00198242 1.05195e-05
0.00198242 0.000894306 -7.04304e-05
1.05195e-05 -7.04304e-05 0.00151425
0.00248327 0.00426603 -0.000368225
0.00426603 -0.00203578 -0.000106491
-0.000368225 -0.000106491 -0.00470196
0.00323386 0.00112836 2.26628e-05
0.00112836 0.00118863 -1.32285e-05
2.26628e-05 -1.32285e-05 0.000849805
0.00100076 0.000543315 -6.15647e-06
0.000543315 0.000279535 -1.20174e-06
-6.15647e-06 -1.20174e-06 0.000116452
-0.000162327 0.000142256 -5.18189e-06
0.000142256 -0.000164483 2.40307e-07
-5.18189e-06 2.40307e-07 -0.000389704
-0.00176987 0.000321055 -7.12783e-05
0.000321055 -8.3528e-05 -7.44866e-05
-7.12783e-05 -7.44866e-05 -0.0010951
0.00226038 0.000773588 -3.06675e-05
0.000773588 0.00114888 -2.111e-05
-3.06675e-05 -2.111e-05 0.00074455
0.00173104 0.0013332 1.14557e-05
0.0013332 0.000409639 -8.08929e-06
1.14557e-05 -8.08929e-06 -0.000342999
-0.000582577 0.00148027 9.87962e-05
0.00148027 -0.00160233 4.43365e-05
9.87962e-05 4.43365e-05 -0.00189306
-0.00609506 -0.000423006 -0.000551825
-0.000423006 -0.00447168 4.15635e-05
-0.000551825 4.15635e-05 -0.00398558
-0.00813198 0.000477226 0.000358246
0.000477226 0.00539639 1.57012e-05
0.000358246 1.57012e-05 -0.000591263
0.00292999 -0.000104195 -0.00011658
-0.000104195 0.00204139 3.37878e-05
-0.00011658 3.37878e-05 0.00030102
0.00234308 -0.000901654 -4.69815e-05
-0.000901654 0.00135787 -4.74981e-05
-4.69815e-05 -4.74981e-05 0.000695794
-0.000502154 -0.00183053 1.93859e-05
-0.00183053 -0.000684502 4.67997e-05
1.93859e-05 4.67997e-05 -0.00044278
0.000637252 0.000559232 4.22247e-05
0.000559232 0.00663923 4.04517e-05
4.22247e-05 4.04517e-05 0.00280484
0.00202786 -0.00300806 0.000436856
-0.00300806 -0.00162818 -0.000121275
0.000436856 -0.000121275 -0.00400514
0.0207315 0.00323765 0.000768249
0.00323765 0.00912201 -9.55637e-05
0.000768249 -9.55637e-05 0.0063936
0.00159022 -0.00152894 -1.64912e-05
-0.00152894 0.000334209 5.07221e-06
-1.64912e-05 5.07221e-06 -0.00021518
0.00175599 0.00134606 0.000242251
0.00134606 0.000520047 -7.30891e-05
0.000242251 -7.30891e-05 -0.00143651
0.00774307 -0.00198367 -0.000152382
-0.00198367 -0.00208221 0.00013545
-0.000152382 0.00013545 -0.00428701
0.00404028 -0.00257623 -1.23449e-05
-0.00257623 -0.000263429 2.66051e-05
-1.23449e-05 2.66051e-05 0.000325646
0.00247895 -0.00130545 7.13396e-05
-0.00130545 0.00020094 -1.84442e-05
7.13396e-05 -1.84442e-05 8.26885e-05
0.0160464 -0.000803996 -5.69039e-05
-0.000803996 0.00319209 4.00229e-05
-5.69039e-05 4.00229e-05 0.00192974
0.00234884 -0.00164062 0.000121637
-0.00164062 -0.00302397 -9.09425e-05
0.000121637 -9.09425e-05 -0.00182309
-0.000761825 -0.000593282 -3.00869e-05
-0.000593282 -0.000891163 2.87895e-05
-3.00869e-05 2.87895e-05 -0.000983572
0.000170553 -0.000539426 -3.91446e-05
-0.000539426 -0.000585626 3.35785e-06
-3.91446e-05 3.35785e-06 -0.000716639
0.00607712 -0.00109185 6.32827e-05
-0.00109185 0.00229658 -2.20375e-05
6.32827e-05 -2.20375e-05 0.00208757
0.000426992 -0.000623295 -1.642e-05
-0.000623295 -0.00034324 -2.44993e-06
-1.642e-05 -2.44993e-06 -0.000723205
0.00210642 -0.00087319 -1.8705e-06
-0.00087319 0.000295097 -3.17077e-06
-1.8705e-06 -3.17077e-06 -6.34305e-05
0.00270697 -0.000800869 1.42962e-06
-0.000800869 0.000319916 -4.76768e-06
1.42962e-06 -4.76768e-06 0.0001176
0.00221679 -0.000879199 -1.88115e-06
-0.000879199 0.000462858 8.68278e-06
-1.88115e-06 8.68278e-06 -1.14687e-05
0.00213742 -0.000730921 -8.12246e-07
-0.000730921 0.000188192 1.24606e-06
-8.12246e-07 1.24606e-06 -0.00010522
0.00210769 -0.00054475 3.54941e-07
-0.00054475 3.99936e-05 -1.47608e-06
3.54941e-07 -1.47608e-06 -9.29949e-05
0.00140136 -0.000616448 5.72166e-06
-0.000616448 -3.89442e-05 7.76414e-06
5.72166e-06 7.76414e-06 -0.000381066
0.00196908 -0.000513613 -4.2148e-07
-0.000513613 8.41053e-05 2.16723e-06
-4.2148e-07 2.16723e-06 -0.000118204
0.00202735 -0.000475155 -2.67789e-06
-0.000475155 8.24202e-05 1.19967e-06
-2.67789e-06 1.19967e-06 -5.81515e-05
0.00201467 -0.000447048 -4.77233e-06
-0.000447048 0.000165637 9.6296e-07
-4.77233e-06 9.6296e-07 1.33904e-05
0.00196995 -0.000437902 -2.99306e-06
-0.000437902 0.000133632 3.33355e-06
-2.99306e-06 3.33355e-06 -3.48665e-05
0.00204644 -0.000452214 -2.96146e-06
-0.000452214 0.000223771 -4.06899e-06
-2.96146e-06 -4.06899e-06 3.89866e-05
0.00198016 -0.000540886 -6.84634e-06
-0.000540886 0.000204354 -2.65045e-06
-6.84634e-06 -2.65045e-06 -5.95271e-05
0.00190836 -0.000530164 1.79012e-06
-0.000530164 0.000141897 8.76593e-07
1.79012e-06 8.76593e-07 -0.000115059
0.00186181 -0.000498941 6.85056e-06
-0.000498941 9.27042e-05 7.55642e-06
6.85056e-06 7.55642e-06 -0.000144714
0.00187505 -0.000600172 -7.67647e-06
-0.000600172 0.000321303 -1.97575e-06
-7.67647e-06 -1.97575e-06 -1.78408e-05
0.00166865 -0.000618829 -5.0033e-07
-0.000618829 0.000118407 1.0949e-07
-5.0033e-07 1.0949e-07 -0.000224202
0.00217385 -0.000718944 8.05508e-06
-0.000718944 0.000408449 8.58819e-07
8.05508e-06 8.58819e-07 3.86054e-05
0.00143688 -0.000437602 -1.01539e-05
-0.000437602 0.000304085 3.99044e-06
-1.01539e-05 3.99044e-06 -2.58249e-06
0.00169541 -0.000604307 -7.1387e-07
-0.000604307 0.00037387 7.25229e-07
-7.1387e-07 7.25229e-07 -1.97868e-07
0.00193694 -0.000714839 2.56899e-06
-0.000714839 0.000459609 4.87157e-07
2.56899e-06 4.87157e-07 5.04791e-05
0.000711852 -0.000216293 -7.96009e-06
-0.000216293 3.13609e-05 4.37589e-06
-7.96009e-06 4.37589e-06 -0.00017756
0.00118276 -0.000354152 9.31084e-07
-0.000354152 0.000228767 -3.34246e-07
9.31084e-07 -3.34246e-07 -4.16542e-05
0.000953408 -0.000432824 -1.1836e-06
-0.000432824 5.23535e-05 1.43424e-06
-1.1836e-06 1.43424e-06 -0.000273077
0.000450725 -0.000118651 -2.10385e-05
-0.000118651 -7.16565e-05 1.52338e-05
-2.10385e-05 1.52338e-05 -0.000161455
0.000652687 -0.000191827 -1.51358e-06
-0.000191827 7.07598e-05 1.16536e-06
-1.51358e-06 1.16536e-06 -0.000161786
0.00082266 -0.000353672 1.50587e-06
-0.000353672 0.000104962 2.89112e-07
1.50587e-06 2.89112e-07 -0.000159096
0.00414812 0.000202186 -8.4684e-05
0.000202186 0.00232757 5.99719e-06
-8.4684e-05 5.99719e-06 0.002304
0.000505807 -5.78116e-05 1.04865e-06
-5.78116e-05 -1.13053e-05 -4.515e-07
1.04865e-06 -4.515e-07 -8.65664e-05
0.00165423 -0.000237935 4.78953e-06
-0.000237935 0.000730292 -2.75145e-06
4.78953e-06 -2.75145e-06 0.000507785
0.0024065 0.000127027 4.86944e-05
0.000127027 0.00121814 1.31573e-06
4.86944e-05 1.31573e-06 0.0011973
0.000682746 -2.58033e-05 9.38745e-06
-2.58033e-05 0.000104783 -1.23835e-05
9.38745e-06 -1.23835e-05 4.62414e-05
0.00349312 0.000134675 7.72898e-05
0.000134675 0.00188826 -4.48062e-06
7.72898e-05 -4.48062e-06 0.00188415
0.00162375 0.000318925 4.55348e-06
0.000318925 0.00060454 -2.36809e-06
4.55348e-06 -2.36809e-06 0.000396698
0.000421416 0.000131248 -2.98911e-06
0.000131248 -5.60935e-05 -1.01162e-07
-2.98911e-06 -1.01162e-07 -0.000243103
0.000477755 0.000151125 2.02699e-06
0.000151125 5.4934e-05 -7.43154e-06
2.02699e-06 -7.43154e-06 -0.000165784
0.000453205 0.000123853 -2.66003e-06
0.000123853 4.65135e-05 1.04742e-05
-2.66003e-06 1.04742e-05 -0.000152716
0.000596175 9.19927e-05 8.24266e-07
9.19927e-05 0.000132467 2.14353e-07
8.24266e-07 2.14353e-07 -7.24694e-05
0.000895694 9.93466e-05 1.14181e-06
9.93466e-05 0.000250044 -8.42551e-06
1.14181e-06 -8.42551e-06 0.000111806
0.000584074 2.5405e-05 -4.45254e-06
2.5405e-05 4.72989e-05 -1.14054e-05
-4.45254e-06 -1.14054e-05 2.07489e-06
0.000639103 5.04243e-05 4.32834e-07
5.04243e-05 0.00010478 2.82727e-08
4.32834e-07 2.82727e-08 -1.44876e-05
6.83996e-05 4.03688e-05 -5.97568e-06
4.03688e-05 -0.000224749 1.75144e-06
-5.97568e-06 1.75144e-06 -0.000385214
0.00291225 -0.000100184 -5.92629e-05
-0.000100184 0.00151105 -4.71979e-06
-5.92629e-05 -4.71979e-06 0.00151616
0.000428269 1.18083e-05 8.58396e-07
1.18083e-05 -5.04443e-05 -2.61944e-07
8.58396e-07 -2.61944e-07 -8.67171e-05
0.000527317 4.30281e-05 -3.25777e-06
4.30281e-05 3.60836e-05 4.35017e-06
-3.25777e-06 4.35017e-06 -6.8276e-05
0.00270064 -8.69351e-05 -7.10232e-06
-8.69351e-05 0.00137139 5.70962e-07
-7.10232e-06 5.70962e-07 0.00137849
0.00040922 -9.80575e-06 4.957e-07
-9.80575e-06 -6.81498e-05 7.26985e-06
4.957e-07 7.26985e-06 -9.80797e-05
0.00252089 -6.87009e-05 2.95708e-05
-6.87009e-05 0.0012526 4.83123e-06
2.95708e-05 4.83123e-06 0.00126306
0.000954122 0.000117863 -0.000774633
0.000117863 0.00357963 -5.41399e-05
-0.000774633 -5.41399e-05 0.0015302
-0.00573351 0.000175616 3.71084e-05
0.000175616 0.0045603 -7.43931e-07
3.71084e-05 -7.43931e-07 -0.00170138
0.00571101 0.000185067 -0.000224494
0.000185067 0.00339362 -5.94134e-05
-0.000224494 -5.94134e-05 0.00149969
-9.31514e-05 4.19842e-05 2.26172e-06
4.19842e-05 -0.000341884 -9.72717e-06
2.26172e-06 -9.72717e-06 -0.000526226
0.000597281 7.84992e-05 5.88578e-06
7.84992e-05 0.000129787 7.50219e-06
5.88578e-06 7.50219e-06 -0.000151113
0.0026241 0.000542653 -3.23967e-06
0.000542653 0.0012941 4.17744e-06
-3.23967e-06 4.17744e-06 0.000969521
0.00218866 0.000641865 1.39822e-05
0.000641865 0.000890442 6.1531e-06
1.39822e-05 6.1531e-06 0.000462004
0.00040486 0.000335779 4.23357e-06
0.000335779 6.15706e-05 8.67925e-07
4.23357e-06 8.67925e-07 -0.000292631
0.000683866 0.000133821 -6.29084e-06
0.000133821 0.000301871 8.98639e-06
-6.29084e-06 8.98639e-06 2.59861e-05
0.000750611 0.000153718 1.06656e-05
0.000153718 0.000257029 1.06014e-05
1.06656e-05 1.06014e-05 -2.26924e-05
0.000591139 0.000388668 -5.83262e-06
0.000388668 0.000223439 -1.70156e-06
-5.83262e-06 -1.70156e-06 -0.000209645
-0.00043212 0.000487671 1.114e-05
0.000487671 -0.000741541 -1.21958e-05
1.114e-05 -1.21958e-05 -0.00105593
0.00242394 0.000785461 -1.02392e-05
0.000785461 0.00089255 2.54535e-05
-1.02392e-05 2.54535e-05 0.000677512
0.00139914 0.000836212 2.58206e-05
0.000836212 1.27905e-05 1.0842e-05
2.58206e-05 1.0842e-05 -0.000131271
0.00139066 0.00060383 -7.30612e-06
0.00060383 0.000509214 -3.61192e-06
-7.30612e-06 -3.61192e-06 0.000278076
0.00198455 0.000327424 -8.69335e-06
0.000327424 0.00109412 3.55326e-05
-8.69335e-06 3.55326e-05 0.000795247
0.0136984 0.00235746 -0.000115595
0.00235746 0.00181699 6.57582e-05
-0.000115595 6.57582e-05 0.000533429
0.00197821 -0.00183866 -0.000525386
-0.00183866 0.00360425 -0.000194937
-0.000525386 -0.000194937 0.000660142
-0.000333289 -0.00320786 0.000689945
-0.00320786 0.00579145 0.000192012
0.000689945 0.000192012 0.000406171
0.00618064 -0.00281655 0.000278047
-0.00281655 0.0028085 0.000319364
0.000278047 0.000319364 -0.000399227
0.0138883 0.00435403 -0.000105315
0.00435403 0.00464139 -4.79569e-05
-0.000105315 -4.79569e-05 0.000713996
-0.00302085 0.000210431 -5.23571e-05
0.000210431 -0.000271818 -5.85099e-05
-5.23571e-05 -5.85099e-05 -0.000626768
0.00225528 0.00177708 -4.86389e-05
0.00177708 0.000586927 -1.92141e-05
-4.86389e-05 -1.92141e-05 0.0012753
0.0172484 0.00415242 1.75443e-05
0.00415242 0.00405155 3.77506e-05
1.75443e-05 3.77506e-05 0.00170414
0.00633278 0.0033457 -6.86153e-05
0.0033457 -6.81707e-05 -9.96504e-05
-6.86153e-05 -9.96504e-05 0.000253625
0.00160532 0.0011373 1.03976e-05
0.0011373 0.000105855 -5.32919e-06
1.03976e-05 -5.32919e-06 -0.000131912
0.00158301 0.000886016 9.24936e-06
0.000886016 0.000425416 -3.45081e-06
9.24936e-06 -3.45081e-06 0.000127224
0.00205425 0.000602367 -2.31434e-05
0.000602367 0.000965467 1.88472e-06
-2.31434e-05 1.88472e-06 0.000788925
0.002722 0.00152524 -6.53597e-05
0.00152524 0.00078739 -2.5112e-05
-6.53597e-05 -2.5112e-05 5.04262e-05
0.00138673 0.00170038 6.71004e-05
0.00170038 -0.00079204 3.50216e-05
6.71004e-05 3.50216e-05 -0.00116101
0.00211754 -0.000319571 -0.000115557
-0.000319571 -0.00478904 5.44756e-05
-0.000115557 5.44756e-05 -0.00502392
0.000879545 -0.00154654 9.49327e-06
-0.00154654 0.00202676 -1.53074e-06
9.49327e-06 -1.53074e-06 0.00124309
-0.0111374 -0.000238419 0.000293195
-0.000238419 0.00575312 -2.3915e-05
0.000293195 -2.3915e-05 0.00027289
0.000294438 -0.00164933 -5.53318e-05
-0.00164933 -0.000620661 1.55842e-05
-5.53318e-05 1.55842e-05 -0.00137011
0.00517902 -0.00290912 2.64666e-05
-0.00290912 0.000326864 4.33894e-05
2.64666e-05 4.33894e-05 0.000488708
0.00214359 -6.4589e-05 0.000833204
-6.4589e-05 0.00378447 -0.000193773
0.000833204 -0.000193773 0.00193494
0.0137454 -0.0022393 -0.000263225
-0.0022393 0.00158696 0.000136289
-0.000263225 0.000136289 0.000439223
0.00172073 -0.00130545 -3.06952e-05
-0.00130545 -0.000115543 -3.85399e-07
-3.06952e-05 -3.85399e-07 -0.000387193
0.0112904 -8.74491e-05 -0.000185459
-8.74491e-05 -0.000717184 6.0557e-05
-0.000185459 6.0557e-05 -0.00159248
0.00704598 -0.00193167 0.000101665
-0.00193167 -0.00022047 1.29345e-05
0.000101665 1.29345e-05 0.00041399
0.0036599 -0.00112931 6.14579e-05
-0.00112931 0.000464601 -4.23095e-05
6.14579e-05 -4.23095e-05 0.00024199
0.00277014 -0.000740902 -2.0684e-05
-0.000740902 -0.00172692 1.21652e-05
-2.0684e-05 1.21652e-05 -0.000679839
-0.00591035 -5.47412e-06 1.08839e-05
-5.47412e-06 -0.00387628 7.7568e-06
1.08839e-05 7.7568e-06 -0.0038321
0.00157597 -0.00070169 -1.61824e-05
-0.00070169 -0.000179277 1.81339e-06
-1.61824e-05 1.81339e-06 -0.000200292
0.00350335 -0.000726359 3.48442e-05
-0.000726359 0.000647188 -1.34709e-05
3.48442e-05 -1.34709e-05 0.000700767
0.001139 -0.000763557 -9.64155e-06
-0.000763557 -0.000208667 7.20439e-06
-9.64155e-06 7.20439e-06 -0.000540791
0.00214702 -0.000747607 -3.59086e-06
-0.000747607 2.54755e-05 3.08212e-06
-3.59086e-06 3.08212e-06 -0.000171269
0.00236234 -0.000606253 5.48933e-06
-0.000606253 -2.93548e-06 -1.42397e-06
5.48933e-06 -1.42397e-06 -3.78345e-05
0.00225277 -0.000733529 -3.9976e-06
-0.000733529 0.000258689 1.09022e-05
-3.9976e-06 1.09022e-05 -3.30861e-05
0.00209085 -0.000541086 3.72248e-07
-0.000541086 2.85342e-05 1.46366e-06
3.72248e-07 1.46366e-06 -9.95329e-05
0.00222938 -0.000531604 -6.52069e-07
-0.000531604 8.95253e-05 3.27916e-07
-6.52069e-07 3.27916e-07 1.64933e-05
0.00193475 -0.000503122 3.60475e-06
-0.000503122 6.82923e-05 6.56151e-06
3.60475e-06 6.56151e-06 -0.000128121
0.00201571 -0.00047569 -6.42113e-08
-0.00047569 7.19679e-05 1.31889e-06
-6.42113e-08 1.31889e-06 -6.61671e-05
0.00216077 -0.00050861 -2.52643e-06
-0.00050861 0.000152484 1.51477e-06
-2.52643e-06 1.51477e-06 2.12619e-05
0.00201413 -0.000453366 -4.16712e-06
-0.000453366 0.000157643 2.64269e-06
-4.16712e-06 2.64269e-06 6.4325e-06
0.00214417 -0.000455605 -1.36008e-06
-0.000455605 0.00027828 -1.31678e-06
-1.36008e-06 -1.31678e-06 0.000118693
0.0020764 -0.000445798 3.9233e-06
-0.000445798 0.000193448 6.11314e-06
3.9233e-06 6.11314e-06 2.80697e-05
0.00202981 -0.000451395 5.91236e-07
-0.000451395 0.000211948 -6.67465e-07
5.91236e-07 -6.67465e-07 2.73159e-05
0.00192508 -0.000467216 -3.25335e-06
-0.000467216 0.000151096 -3.05658e-06
-3.25335e-06 -3.05658e-06 -5.43175e-05
0.0020127 -0.000520511 -4.93818e-06
-0.000520511 0.000298381 -3.67809e-06
-4.93818e-06 -3.67809e-06 2.61899e-05
0.00204477 -0.000548717 -3.81845e-07
-0.000548717 0.000246462 -5.37911e-08
-3.81845e-07 -5.37911e-08 -2.01278e-05
0.00213558 -0.000546806 8.3714e-06
-0.000546806 0.000287426 4.09997e-06
8.3714e-06 4.09997e-06 2.97089e-05
0.00150447 -0.00047339 -9.84807e-06
-0.00047339 0.000203562 2.13043e-06
-9.84807e-06 2.13043e-06 -0.000106954
0.0017939 -0.000589271 -1.66524e-06
-0.000589271 0.00027504 -1.90157e-07
-1.66524e-06 -1.90157e-07 -6.37437e-05
0.00168856 -0.000626315 6.11337e-06
-0.000626315 0.00011766 1.76174e-06
6.11337e-06 1.76174e-06 -0.000227884
0.000735918 -0.000234861 -1.06095e-05
-0.000234861 -1.02932e-05 6.88824e-06
-1.06095e-05 6.88824e-06 -0.000223903
0.0012867 -0.00042694 1.25445e-06
-0.00042694 0.000208452 3.65351e-07
1.25445e-06 3.65351e-07 -9.68254e-05
0.00178841 -0.0006103 3.36152e-06
-0.0006103 0.000436339 1.88325e-06
3.36152e-06 1.88325e-06 6.23633e-05
0.000468347 -0.000179052 -2.23838e-05
-0.000179052 -7.52978e-05 1.87178e-05
-2.23838e-05 1.87178e-05 -0.000188705
0.000651768 -0.000219589 -6.07375e-07
-0.000219589 1.83789e-06 3.00027e-07
-6.07375e-07 3.00027e-07 -0.000211971
0.000872122 -0.000321612 5.37063e-06
-0.000321612 2.73258e-05 -1.38235e-06
5.37063e-06 -1.38235e-06 -0.000237202
0.00495094 0.000183986 -0.000132983
0.000183986 0.00282829 9.12863e-06
-0.000132983 9.12863e-06 0.00280848
0.000510201 -0.000134343 -1.99856e-06
-0.000134343 -3.1214e-05 -7.96645e-07
-1.99856e-06 -7.96645e-07 -0.000128338
0.0011851 -0.000231155 5.45504e-06
-0.000231155 0.00041212 -1.67252e-06
5.45504e-06 -1.67252e-06 0.000169222
0.00436228 0.000175515 2.11795e-05
0.000175515 0.00245795 7.7882e-07
2.11795e-05 7.7882e-07 0.00244111
0.000731565 -7.70756e-05 1.72362e-05
-7.70756e-05 0.000123218 -1.4171e-05
1.72362e-05 -1.4171e-05 4.3769e-05
0.00385288 0.000136636 0.000107459
0.000136636 0.00211958 -6.15709e-06
0.000107459 -6.15709e-06 0.0021151
0.00187742 0.000513106 2.40305e-06
0.000513106 0.000710985 -3.66757e-06
2.40305e-06 -3.66757e-06 0.000361717
0.000837171 0.000255226 -2.02273e-07
0.000255226 0.000125993 -3.06147e-06
-2.02273e-07 -3.06147e-06 -7.64937e-05
0.000217998 0.000147976 4.51426e-06
0.000147976 -0.000190837 3.75515e-06
4.51426e-06 3.75515e-06 -0.000391665
-0.000822086 2.69287e-05 -2.28424e-06
2.69287e-05 -0.000800478 -2.1416e-07
-2.28424e-06 -2.1416e-07 -0.000988912
0.000366266 0.00010212 -3.86294e-07
0.00010212 -4.0924e-05 2.32966e-06
-3.86294e-07 2.32966e-06 -0.000245994
0.000909852 0.000102651 4.33274e-07
0.000102651 0.000260883 -8.92409e-06
4.33274e-07 -8.92409e-06 9.17746e-05
0.000304265 5.57437e-05 -3.07188e-06
5.57437e-05 -6.77695e-05 4.67288e-06
-3.07188e-06 4.67288e-06 -0.000257586
0.00056368 7.71084e-05 1.01935e-07
7.71084e-05 5.25169e-05 4.74207e-08
1.01935e-07 4.74207e-08 -8.35489e-05
0.000587162 2.96581e-05 -6.04774e-06
2.96581e-05 4.64935e-05 -1.45793e-05
-6.04774e-06 -1.45793e-05 -9.49941e-06
0.00318488 -0.000109672 -8.16125e-05
-0.000109672 0.0016906 -5.9753e-06
-8.16125e-05 -5.9753e-06 0.00169338
0.000440339 9.96211e-06 1.32862e-06
9.96211e-06 -3.75523e-05 -3.67311e-07
1.32862e-06 -3.67311e-07 -8.34155e-05
0.000534616 4.03473e-05 -3.70455e-06
4.03473e-05 4.64565e-05 6.13083e-06
-3.70455e-06 6.13083e-06 -7.33772e-05
0.00287348 -0.000106079 -7.94634e-06
-0.000106079 0.00148773 7.02781e-07
-7.94634e-06 7.02781e-07 0.00149078
0.000338779 -4.902e-05 -5.82333e-06
-4.902e-05 -9.90854e-05 8.74122e-06
-5.82333e-06 8.74122e-06 -0.000138831
0.00269675 -8.78243e-05 3.68719e-05
-8.78243e-05 0.00136857 4.85836e-06
3.68719e-05 4.85836e-06 0.00137525
0.0146346 0.000572214 0.000457853
0.000572214 0.00206548 0.00011192
0.000457853 0.00011192 0.00165349
-0.00143262 -0.00266007 -0.000463935
-0.00266007 -0.00255929 -7.8404e-05
-0.000463935 -7.8404e-05 -0.00449324
-0.00929786 0.00138724 -0.000193066
0.00138724 0.00392666 -0.000121511
-0.000193066 -0.000121511 -0.00270389
0.000125267 2.14111e-05 1.80467e-05
2.14111e-05 -0.000148811 -5.15036e-06
1.80467e-05 -5.15036e-06 -0.000450333
0.00159109 0.000412162 -9.86105e-06
0.000412162 0.000678103 -3.9138e-07
-9.86105e-06 -3.9138e-07 0.000383618
0.00220038 0.000537802 -9.92343e-06
0.000537802 0.00110879 -2.37006e-06
-9.92343e-06 -2.37006e-06 0.000708428
0.00153545 0.000566039 1.10578e-06
0.000566039 0.000497709 -5.84625e-07
1.10578e-06 -5.84625e-07 9.06365e-05
0.00140004 0.000603864 1.12974e-05
0.000603864 0.000239248 1.81104e-05
1.12974e-05 1.81104e-05 -0.000151399
-0.000787262 0.000380055 2.30379e-05
0.000380055 -0.00092691 4.54461e-06
2.30379e-05 4.54461e-06 -0.00124419
-0.00039298 0.000271698 -1.02442e-05
0.000271698 -0.000271788 1.20527e-05
-1.02442e-05 1.20527e-05 -0.00074373
-0.00020953 0.000504773 1.11716e-05
0.000504773 -0.000624822 -5.68892e-07
1.11716e-05 -5.68892e-07 -0.000947947
0.00219716 0.000748623 4.53097e-06
0.000748623 0.000817078 6.96958e-06
4.53097e-06 6.96958e-06 0.000555282
-0.000644986 0.000489088 4.71941e-06
0.000489088 -0.000997454 -3.20919e-06
4.71941e-06 -3.20919e-06 -0.00122607
0.00343275 0.000966218 1.56254e-06
0.000966218 0.00110056 1.51135e-05
1.56254e-06 1.51135e-05 0.000933416
0.0013213 0.000836148 1.89454e-05
0.000836148 -7.49344e-06 6.69497e-06
1.89454e-05 6.69497e-06 -0.000282659
0.000610035 0.000738497 2.99106e-06
0.000738497 -0.000452008 9.85665e-08
2.99106e-06 9.85665e-08 -0.00052774
0.000612782 0.000489755 4.49677e-06
0.000489755 6.27112e-05 -4.72033e-05
4.49677e-06 -4.72033e-05 -0.000143273
0.00529242 0.0016269 1.87924e-05
0.0016269 -0.00120316 2.43545e-05
1.87924e-05 2.43545e-05 0.000108302
0.0135872 0.00269109 0.000263586
0.00269109 0.00113271 0.000140135
0.000263586 0.000140135 -0.000459147
0.0111106 -0.00390394 0.000471017
-0.00390394 0.00529005 -4.00672e-05
0.000471017 -4.00672e-05 0.00237577
0.00554935 0.00441349 0.000513373
0.00441349 -0.000922912 0.000300853
0.000513373 0.000300853 -0.00503346
0.000149026 0.00118638 -5.75241e-05
0.00118638 0.000111103 -2.11951e-06
-5.75241e-05 -2.11951e-06 0.000723903
0.00398399 0.00240568 -0.000111809
0.00240568 -0.00049583 -5.30558e-05
-0.000111809 -5.30558e-05 0.00013606
0.00588474 0.00204436 7.54481e-05
0.00204436 0.00115843 2.9976e-05
7.54481e-05 2.9976e-05 0.000902065
0.00413368 0.00147998 1.85307e-05
0.00147998 0.00123381 7.85456e-06
1.85307e-05 7.85456e-06 0.000930917
-0.000163333 0.00065359 -2.66273e-05
0.00065359 -0.000473402 1.09012e-05
-2.66273e-05 1.09012e-05 -0.000713254
0.00645188 0.00230077 -0.00017515
0.00230077 0.00155884 -1.80944e-05
-0.00017515 -1.80944e-05 0.00104801
0.00300259 -0.000477928 1.64253e-05
-0.000477928 -0.000384572 1.06525e-05
1.64253e-05 1.06525e-05 0.000151349
0.0112953 -0.000532976 -4.1829e-05
-0.000532976 0.0013895 -6.05449e-06
-4.1829e-05 -6.05449e-06 0.00125307
-0.0124254 -0.00248016 0.000711458
-0.00248016 -0.00544708 3.56649e-06
0.000711458 3.56649e-06 -0.00612894
0.000532547 -0.00110453 -0.000103039
-0.00110453 -0.000614574 2.98709e-05
-0.000103039 2.98709e-05 -0.000859433
0.0088869 -0.00241426 1.27297e-05
-0.00241426 0.000108797 9.17271e-05
1.27297e-05 9.17271e-05 0.00104387
0.00102343 -0.000281873 -0.000265285
-0.000281873 -0.00451473 3.38586e-05
-0.000265285 3.38586e-05 -0.00631183
0.00259981 -0.000949043 3.02223e-05
-0.000949043 -0.000151635 1.23519e-06
3.02223e-05 1.23519e-06 -8.27953e-05
0.00491962 -0.000657638 -4.40452e-05
-0.000657638 -0.000434611 -3.6664e-06
-4.40452e-05 -3.6664e-06 0.000269397
0.00558324 -0.000825627 3.99772e-05
-0.000825627 0.00124215 -3.14154e-05
3.99772e-05 -3.14154e-05 0.00155539
0.00548775 -0.000412135 0.000101587
-0.000412135 0.00136334 3.13476e-06
0.000101587 3.13476e-06 0.0014933
-0.00337852 -0.000318406 7.15024e-06
-0.000318406 -0.00299713 9.47657e-06
7.15024e-06 9.47657e-06 -0.00274408
0.00201668 -0.000625839 -5.97147e-06
-0.000625839 -0.000222791 1.22628e-06
-5.97147e-06 1.22628e-06 -6.90234e-05
0.00229735 -0.00047623 2.42045e-05
-0.00047623 -0.000211787 -5.49137e-06
2.42045e-05 -5.49137e-06 4.45815e-05
0.00170002 -0.000708894 -6.58109e-07
-0.000708894 -0.000210807 6.8653e-06
-6.58109e-07 6.8653e-06 -0.000406409
0.00230281 -0.000602701 1.46091e-06
-0.000602701 -3.05273e-05 1.39174e-06
1.46091e-06 1.39174e-06 -6.73194e-05
0.00232721 -0.00052568 2.02789e-06
-0.00052568 1.5819e-05 -6.85534e-07
2.02789e-06 -6.85534e-07 2.03214e-05
0.00210855 -0.000541787 1.99089e-06
-0.000541787 3.63419e-05 5.34807e-06
1.99089e-06 5.34807e-06 -8.91378e-05
0.0021728 -0.000522322 3.77752e-07
-0.000522322 6.90108e-05 4.20964e-07
3.77752e-07 4.20964e-07 -5.50624e-06
0.00216573 -0.000467268 -2.34299e-06
-0.000467268 5.36223e-05 1.3539e-07
-2.34299e-06 1.3539e-07 -1.12364e-05
0.00202017 -0.000477655 3.71564e-06
-0.000477655 7.06167e-05 1.84688e-06
3.71564e-06 1.84688e-06 -6.59606e-05
0.00209635 -0.000500613 -1.49753e-07
-0.000500613 0.000134469 8.89003e-08
-1.49753e-07 8.89003e-08 4.02642e-06
0.0020203 -0.000452894 -1.49723e-07
-0.000452894 0.000125506 3.00339e-07
-1.49723e-07 3.00339e-07 -7.58124e-06
0.00200576 -0.000459147 -1.10408e-07
-0.000459147 0.000145087 2.45766e-06
-1.10408e-07 2.45766e-06 -5.29755e-06
0.00207716 -0.000446248 -1.87161e-06
-0.000446248 0.000231282 3.20328e-07
-1.87161e-06 3.20328e-07 7.5364e-05
0.00212813 -0.000451513 -1.3953e-06
-0.000451513 0.000269844 -1.18139e-06
-1.3953e-06 -1.18139e-06 9.56966e-05
0.0020162 -0.000449877 4.93519e-06
-0.000449877 0.000202331 3.01116e-06
4.93519e-06 3.01116e-06 1.81153e-05
0.00197812 -0.000471656 -1.88413e-07
-0.000471656 0.000183941 -2.19718e-07
-1.88413e-07 -2.19718e-07 -2.27016e-05
0.00201255 -0.000463094 -1.40297e-06
-0.000463094 0.000258211 -2.67057e-06
-1.40297e-06 -2.67057e-06 3.19875e-05
0.00166638 -0.00044522 -8.73084e-06
-0.00044522 0.000198846 -1.51097e-07
-8.73084e-06 -1.51097e-07 -7.52129e-05
0.00194582 -0.000520325 -7.97572e-07
-0.000520325 0.000256657 -1.00623e-06
-7.97572e-07 -1.00623e-06 -2.06622e-05
0.00210709 -0.000556756 5.51672e-06
-0.000556756 0.000287689 2.40365e-06
5.51672e-06 2.40365e-06 1.82788e-05
0.00086313 -0.000256096 -1.36732e-05
-0.000256096 -2.21109e-05 7.18924e-06
-1.36732e-05 7.18924e-06 -0.000238168
0.00154574 -0.000471784 -1.96371e-07
-0.000471784 0.00023548 6.38245e-07
-1.96371e-07 6.38245e-07 -7.27636e-05
0.00171088 -0.000578178 3.49571e-06
-0.000578178 0.000227626 1.63902e-06
3.49571e-06 1.63902e-06 -0.000110739
0.000317653 -0.000182821 -1.9907e-05
-0.000182821 -0.000185915 1.90375e-05
-1.9907e-05 1.90375e-05 -0.000308058
0.000799992 -0.000243568 6.90911e-07
-0.000243568 2.64722e-05 2.47544e-07
6.90911e-07 2.47544e-07 -0.000190759
0.00110049 -0.000411853 1.04606e-05
-0.000411853 9.19869e-05 -2.05551e-06
1.04606e-05 -2.05551e-06 -0.000210869
0.00600408 0.000113969 -0.000205972
0.000113969 0.00345347 1.25601e-05
-0.000205972 1.25601e-05 0.00344882
0.00040128 -0.000183739 -7.04452e-07
-0.000183739 -0.000116178 4.75367e-08
-7.04452e-07 4.75367e-08 -0.000230398
0.000631967 -0.000222548 9.51374e-06
-0.000222548 -4.28587e-06 -5.64723e-06
9.51374e-06 -5.64723e-06 -0.000221558
0.00536321 0.000127967 -6.91482e-07
0.000127967 0.00307096 -1.1081e-06
-6.91482e-07 -1.1081e-06 0.00306257
0.000423159 -0.000135531 1.85892e-05
-0.000135531 -7.97193e-05 -1.68698e-05
1.85892e-05 -1.68698e-05 -0.000182495
0.00467909 0.000113453 0.000167095
0.000113453 0.00264423 -1.40012e-05
0.000167095 -1.40012e-05 0.00264086
0.00137651 0.000525617 -4.07278e-06
0.000525617 0.000267733 2.25955e-06
-4.07278e-06 2.25955e-06 -8.92788e-05
0.00170796 0.000491403 -1.03339e-06
0.000491403 0.000594438 -1.55815e-06
-1.03339e-06 -1.55815e-06 0.000255279
0.000724997 0.000285906 -1.57661e-06
0.000285906 -4.56025e-06 -3.14994e-06
-1.57661e-06 -3.14994e-06 -0.000258439
0.000757032 0.000263749 -7.79246e-06
0.000263749 0.000108134 -3.84393e-06
-7.79246e-06 -3.84393e-06 -0.000108148
3.33074e-05 0.000143589 2.02084e-06
0.000143589 -0.000300289 -4.95497e-07
2.02084e-06 -4.95497e-07 -0.000505522
0.00119194 0.000257098 -2.06514e-06
0.000257098 0.00045051 -5.31155e-06
-2.06514e-06 -5.31155e-06 0.000228643
-8.68126e-05 5.47201e-05 -1.52721e-06
5.47201e-05 -0.000337833 2.97017e-06
-1.52721e-06 2.97017e-06 -0.000531253
0.000717664 0.00011319 4.10902e-07
0.00011319 0.00015232 -1.62535e-07
4.10902e-07 -1.62535e-07 -2.01204e-05
0.000672204 5.81833e-05 -1.21936e-05
5.81833e-05 9.30711e-05 -1.64914e-05
-1.21936e-05 -1.64914e-05 2.30529e-05
0.000571383 5.07494e-05 -2.7187e-06
5.07494e-05 6.77937e-05 9.51438e-06
-2.7187e-06 9.51438e-06 -7.04402e-05
0.000512101 3.62451e-05 1.90167e-07
3.62451e-05 4.60609e-06 -2.56405e-07
1.90167e-07 -2.56405e-07 -5.08674e-05
0.00369735 -0.000126178 -0.00010656
-0.000126178 0.00202406 -7.74276e-06
-0.00010656 -7.74276e-06 0.00202167
0.00317665 -0.000125327 -9.58809e-06
-0.000125327 0.00168809 8.65856e-07
-9.58809e-06 8.65856e-07 0.00168646
0.000333498 3.49471e-05 5.0307e-06
3.49471e-05 -0.000102697 1.12503e-05
5.0307e-06 1.12503e-05 -0.000147173
0.0028166 -0.000105715 4.50565e-05
-0.000105715 0.00145203 4.75227e-06
4.50565e-05 4.75227e-06 0.00145484
0.00403015 0.000153388 8.74537e-05
0.000153388 -0.00114438 2.61678e-05
8.74537e-05 2.61678e-05 0.00021165
0.00491862 -0.000919762 0.000161279
-0.000919762 -0.00414179 7.5796e-05
0.000161279 7.5796e-05 -0.00510741
0.0120868 -0.00285622 -0.000209003
-0.00285622 0.00472155 -9.34853e-05
-0.000209003 -9.34853e-05 0.00374628
0.00136863 0.000587487 8.9313e-06
0.000587487 3.10677e-05 8.78866e-06
8.9313e-06 8.78866e-06 -0.000301734
0.00435887 0.000770009 -1.05755e-05
0.000770009 0.00236488 2.18088e-06
-1.05755e-05 2.18088e-06 0.00192493
0.000809648 0.00047916 -6.32629e-06
0.00047916 6.62087e-05 -5.73239e-06
-6.32629e-06 -5.73239e-06 -0.000317658
0.00141658 0.000638249 2.16269e-06
0.000638249 0.000389932 -8.39382e-07
2.16269e-06 -8.39382e-07 1.51141e-05
0.00156305 0.000620968 -1.61296e-06
0.000620968 0.000359033 3.8491e-06
-1.61296e-06 3.8491e-06 -4.12433e-05
0.00166814 0.000716668 2.30965e-05
0.000716668 0.000354947 1.38281e-05
2.30965e-05 1.38281e-05 4.69216e-06
0.002329 0.000773231 -3.41337e-05
0.000773231 0.000892866 -1.07276e-07
-3.41337e-05 -1.07276e-07 0.000494703
0.00074073 0.000606079 2.0857e-05
0.000606079 2.26556e-05 -3.29193e-05
2.0857e-05 -3.29193e-05 -0.000245247
0.00170745 0.000774745 1.41254e-06
0.000774745 0.000339633 -2.4647e-06
1.41254e-06 -2.4647e-06 5.16571e-05
0.00194573 0.000824749 8.27072e-06
0.000824749 0.000191497 8.54518e-08
8.27072e-06 8.54518e-08 0.000152433
0.00198506 0.000846082 1.37206e-05
0.000846082 0.000210266 -2.56063e-06
1.37206e-05 -2.56063e-06 -7.9401e-05
0.00173621 0.000739336 2.29296e-05
0.000739336 0.000168086 1.8235e-05
2.29296e-05 1.8235e-05 -1.93937e-05
0.00083512 0.000786869 -5.52753e-06
0.000786869 -0.000267509 -5.40773e-06
-5.52753e-06 -5.40773e-06 -0.000525674
0.000556736 0.00072324 -1.2281e-05
0.00072324 -0.000471848 -2.52982e-05
-1.2281e-05 -2.52982e-05 -0.000531617
0.00105142 0.000718363 4.93646e-05
0.000718363 -0.00110956 3.55008e-05
4.93646e-05 3.55008e-05 -0.000808392
0.00610624 0.00168215 -8.96653e-05
0.00168215 -0.00107972 -2.65863e-05
-8.96653e-05 -2.65863e-05 0.000214184
0.00409187 0.00177052 0.000527231
0.00177052 -0.0041543 0.000100806
0.000527231 0.000100806 -0.0059276
0.00166345 0.00185228 -0.000149743
0.00185228 -0.000965278 -5.78081e-05
-0.000149743 -5.78081e-05 -0.000343455
0.00440304 0.00166294 -3.01268e-05
0.00166294 0.000789215 -8.97648e-06
-3.01268e-05 -8.97648e-06 0.000613098
0.00484193 0.00157056 -0.000140385
0.00157056 0.00151502 -3.51273e-05
-0.000140385 -3.51273e-05 0.00119388
0.00237865 -0.000251623 -6.20121e-05
-0.000251623 -0.000659996 -2.16748e-05
-6.20121e-05 -2.16748e-05 -0.000337254
-0.000344885 -0.00026848 7.68992e-05
-0.00026848 -0.000998182 1.6473e-05
7.68992e-05 1.6473e-05 -0.000255247
0.00284125 0.000832941 0.000199002
0.000832941 -0.00490353 -1.37544e-05
0.000199002 -1.37544e-05 -0.00510298
0.000294543 -0.000721349 -4.5926e-05
-0.000721349 -0.00132584 7.09194e-05
-4.5926e-05 7.09194e-05 -0.00107435
0.00655302 -0.00073079 -0.000153967
-0.00073079 0.00051893 4.37591e-05
-0.000153967 4.37591e-05 0.000760706
0.00250126 -0.000605181 -1.69947e-05
-0.000605181 -0.000403684 1.17491e-05
-1.69947e-05 1.17491e-05 -3.32268e-05
0.0042683 -0.000424843 -6.50949e-06
-0.000424843 0.000629709 -3.16394e-06
-6.50949e-06 -3.16394e-06 0.000741973
0.00264428 -0.000353009 5.90657e-05
-0.000353009 -0.00011613 -7.04298e-06
5.90657e-05 -7.04298e-06 0.000219571
0.0036395 -0.000104937 4.3909e-05
-0.000104937 0.00107913 -3.9573e-07
4.3909e-05 -3.9573e-07 0.00107626
0.000566836 -0.000511557 -2.46699e-05
-0.000511557 -0.00103556 1.18909e-05
-2.46699e-05 1.18909e-05 -0.000793856
0.00213093 -0.000491569 -2.25067e-06
-0.000491569 -0.000337297 1.91664e-06
-2.25067e-06 1.91664e-06 -8.55729e-05
0.00238297 -0.000423567 5.30841e-06
-0.000423567 -0.000170234 -1.35335e-06
5.30841e-06 -1.35335e-06 3.58007e-05
0.00223013 -0.000593386 -2.48315e-06
-0.000593386 -6.04919e-05 3.87862e-06
-2.48315e-06 3.87862e-06 -9.58437e-05
0.00231274 -0.00051644 7.57849e-08
-0.00051644 2.24427e-05 -2.77464e-07
7.57849e-08 -2.77464e-07 3.00893e-05
0.0022418 -0.000411905 -4.81376e-07
-0.000411905 -7.62563e-06 -5.57666e-07
-4.81376e-07 -5.57666e-07 -1.82912e-07
0.00211039 -0.000511463 5.76404e-08
-0.000511463 4.62163e-05 1.07547e-06
5.76404e-08 1.07547e-06 -2.83666e-05
0.00216167 -0.000473359 -9.06433e-07
-0.000473359 6.12008e-05 1.20382e-07
-9.06433e-07 1.20382e-07 -5.14633e-06
0.00207845 -0.000404977 -1.66089e-06
-0.000404977 8.08727e-05 1.00404e-06
-1.66089e-06 1.00404e-06 -5.43313e-06
0.00202764 -0.000492253 9.05052e-07
-0.000492253 0.000113666 -8.40142e-07
9.05052e-07 -8.40142e-07 -1.55431e-05
0.00199407 -0.000452203 1.02791e-06
-0.000452203 0.00010578 -6.05003e-07
1.02791e-06 -6.05003e-07 -2.78472e-05
0.00199991 -0.000420068 -3.41482e-07
-0.000420068 0.000141806 -8.19958e-07
-3.41482e-07 -8.19958e-07 -4.94169e-06
0.00200979 -0.000436906 -1.56629e-06
-0.000436906 0.000184473 2.30251e-06
-1.56629e-06 2.30251e-06 3.22035e-05
0.00212644 -0.000449212 -1.85418e-06
-0.000449212 0.000262331 7.1036e-07
-1.85418e-06 7.1036e-07 9.19531e-05
0.0021184 -0.000440674 -9.01738e-07
-0.000440674 0.000286564 -2.05571e-06
-9.01738e-07 -2.05571e-06 9.08044e-05
0.00203091 -0.000476473 3.10827e-06
-0.000476473 0.000216291 2.79602e-06
3.10827e-06 2.79602e-06 8.31008e-06
0.00203064 -0.000466301 4.17043e-07
-0.000466301 0.000269753 -4.65956e-07
4.17043e-07 -4.65956e-07 4.35699e-05
0.00177688 -0.000400633 -6.48038e-06
-0.000400633 0.000222612 3.57973e-07
-6.48038e-06 3.57973e-07 -1.80798e-05
0.00098234 -0.000262076 -1.50795e-05
-0.000262076 -1.46072e-05 7.10596e-06
-1.50795e-05 7.10596e-06 -0.000227055
0.0016421 -0.00044076 -9.85079e-07
-0.00044076 0.00019189 -3.55878e-07
-9.85079e-07 -3.55878e-07 -8.34136e-05
0.00187958 -0.000520303 3.13487e-06
-0.000520303 0.000214928 1.24642e-06
3.13487e-06 1.24642e-06 -6.75738e-05
0.000398921 -0.000228129 -2.25977e-05
-0.000228129 -0.000144029 1.8855e-05
-2.25977e-05 1.8855e-05 -0.000282229
0.000852483 -0.000260134 7.75723e-07
-0.000260134 -3.61613e-05 -1.21247e-08
7.75723e-07 -1.21247e-08 -0.000254541
0.00156759 -0.000469363 8.94461e-06
-0.000469363 0.000253567 -8.58871e-07
8.94461e-06 -8.58871e-07 -5.2434e-05
0.00663578 6.83888e-05 -0.000250077
6.83888e-05 0.00382479 1.67587e-05
-0.000250077 1.67587e-05 0.00382683
0.0004691 -0.000234474 -1.23663e-06
-0.000234474 -8.57646e-05 6.48544e-07
-1.23663e-06 6.48544e-07 -0.000217978
0.000756254 -0.00024942 1.24065e-05
-0.00024942 -3.46622e-06 -6.76197e-06
1.24065e-05 -6.76197e-06 -0.000224548
0.00620639 9.60094e-05 -5.31348e-06
9.60094e-05 0.00358232 -4.04009e-07
-5.31348e-06 -4.04009e-07 0.00357694
0.000550451 -0.000219901 2.50751e-05
-0.000219901 -2.32489e-05 -1.90866e-05
2.50751e-05 -1.90866e-05 -0.000141205
0.00567552 0.000133176 0.000200104
0.000133176 0.00328202 -2.25336e-05
0.000200104 -2.25336e-05 0.00326538
0.00152733 0.000542391 1.44562e-07
0.000542391 0.000189596 4.9498e-06
1.44562e-07 4.9498e-06 -0.000144991
0.00167234 0.000563444 -2.41082e-06
0.000563444 0.000442312 1.21489e-07
-2.41082e-06 1.21489e-07 7.42833e-05
0.00119864 0.000396274 -7.23264e-06
0.000396274 0.000175677 -5.77158e-07
-7.23264e-06 -5.77158e-07 -0.00011198
0.00178911 0.000499055 2.66188e-07
0.000499055 0.00062875 1.07457e-06
2.66188e-07 1.07457e-06 0.000293361
0.000963927 0.000298304 -3.39745e-06
0.000298304 0.000148093 -2.1272e-06
-3.39745e-06 -2.1272e-06 -0.000104915
0.00125863 0.000246178 -8.01655e-06
0.000246178 0.000426909 -2.08171e-06
-8.01655e-06 -2.08171e-06 0.000202983
-0.000261216 0.000105687 -3.71553e-06
0.000105687 -0.000498441 -2.25625e-06
-3.71553e-06 -2.25625e-06 -0.000697436
0.000779687 0.000148155 -8.2624e-07
0.000148155 0.000179412 -7.10062e-07
-8.2624e-07 -7.10062e-07 -2.71973e-05
0.000575865 0.000101524 -1.98071e-05
0.000101524 1.65658e-05 -1.74055e-05
-1.98071e-05 -1.74055e-05 -6.7576e-05
0.000367976 7.99749e-05 -2.47779e-08
7.99749e-05 -7.18955e-05 9.02229e-06
-2.47779e-08 9.02229e-06 -0.000232256
0.00042277 5.26438e-05 -5.57997e-07
5.26438e-05 -5.66619e-05 -3.90439e-07
-5.57997e-07 -3.90439e-07 -0.000123164
0.00427426 -0.000147392 -0.000127866
-0.000147392 0.00239976 -1.04837e-05
-0.000127866 -1.04837e-05 0.00238944
0.000281173 3.9703e-05 6.52406e-06
3.9703e-05 -0.000133806 1.42435e-05
6.52406e-06 1.42435e-05 -0.000188759
0.00360753 -0.000144976 -9.7941e-06
-0.000144976 0.00197118 9.93055e-07
-9.7941e-06 9.93055e-07 0.00196383
0.00307722 -0.000129753 5.36733e-05
-0.000129753 0.00162632 4.88458e-06
5.36733e-05 4.88458e-06 0.00162298
0.000392616 0.000135313 -7.10213e-07
0.000135313 -0.00180364 1.07298e-05
-7.10213e-07 1.07298e-05 -0.00116884
0.00514549 2.74174e-05 6.60455e-05
2.74174e-05 -0.000518114 1.63159e-05
6.60455e-05 1.63159e-05 0.000702398
0.0137711 0.000815442 -3.09825e-05
0.000815442 0.00235698 9.06147e-06
-3.09825e-05 9.06147e-06 0.00200971
0.00187075 0.000707312 1.53612e-06
0.000707312 0.000305699 5.02725e-06
1.53612e-06 5.02725e-06 -2.34802e-05
0.00213893 0.000692991 2.23348e-07
0.000692991 0.000303037 3.5747e-06
2.23348e-07 3.5747e-06 2.34981e-06
0.00148358 0.000603321 -2.88646e-07
0.000603321 0.000113253 -3.51287e-06
-2.88646e-07 -3.51287e-06 -0.000219331
0.00281027 0.000805523 -9.27939e-06
0.000805523 0.00121215 4.57062e-06
-9.27939e-06 4.57062e-06 0.000804445
0.00185557 0.000652093 -6.899e-06
0.000652093 0.000557988 -9.76846e-06
-6.899e-06 -9.76846e-06 0.000144272
0.00195165 0.000760795 7.40507e-06
0.000760795 0.000481718 3.03965e-06
7.40507e-06 3.03965e-06 0.000133797
0.00184033 0.000771097 -2.04458e-06
0.000771097 8.17562e-05 -3.79275e-06
-2.04458e-06 -3.79275e-06 -0.000207045
0.00262415 0.000895179 -1.82626e-05
0.000895179 0.000818436 5.73251e-06
-1.82626e-05 5.73251e-06 0.00050965
0.0011372 0.000742763 -6.40769e-06
0.000742763 -0.000332066 1.01997e-05
-6.40769e-06 1.01997e-05 -0.000267217
0.00269792 0.000921179 -1.77518e-08
0.000921179 0.00062055 3.60086e-06
-1.77518e-08 3.60086e-06 0.000314737
0.00270106 0.000800406 -4.52842e-06
0.000800406 0.000442626 3.00895e-06
-4.52842e-06 3.00895e-06 0.00021093
0.00121651 0.000390129 3.54763e-05
0.000390129 -0.000303477 1.74457e-05
3.54763e-05 1.74457e-05 -0.000264785
0.000507394 0.000627609 9.39241e-06
0.000627609 -0.000472494 -3.08916e-06
9.39241e-06 -3.08916e-06 -0.000647402
0.00105181 0.00080829 -3.2753e-05
0.00080829 -0.000153986 -6.39569e-06
-3.2753e-05 -6.39569e-06 -0.000418364
0.00287693 0.000857586 3.44253e-06
0.000857586 -0.000133559 7.67447e-06
3.44253e-06 7.67447e-06 4.59469e-05
0.00674586 0.00127081 -1.96799e-05
0.00127081 -0.000728086 -3.91972e-05
-1.96799e-05 -3.91972e-05 0.00020754
0.00408142 0.00138874 -3.86761e-05
0.00138874 0.00100658 -5.12712e-05
-3.86761e-05 -5.12712e-05 0.000901941
0.00144918 -6.85872e-05 3.11524e-05
-6.85872e-05 -0.000374329 2.57103e-06
3.11524e-05 2.57103e-06 -0.000232198
0.00259293 -0.000225948 -5.24557e-05
-0.000225948 -0.000451622 3.29359e-06
-5.24557e-05 3.29359e-06 -0.000142923
0.00330299 0.00034096 1.9834e-05
0.00034096 -0.000417444 -1.2027e-05
1.9834e-05 -1.2027e-05 9.12566e-05
0.000848914 -0.000505613 -6.39811e-05
-0.000505613 -0.00125126 4.87532e-05
-6.39811e-05 4.87532e-05 -0.000871254
0.00287218 -0.000480452 -9.82807e-05
-0.000480452 -0.00017675 -3.79257e-06
-9.82807e-05 -3.79257e-06 -9.37842e-05
0.0026052 -0.000357492 8.28123e-06
-0.000357492 -4.65417e-05 -3.61113e-06
8.28123e-06 -3.61113e-06 0.000278003
0.00249977 -0.000100496 -1.42518e-05
-0.000100496 0.000331446 5.89137e-07
-1.42518e-05 5.89137e-07 0.000347474
0.00236987 -0.000238228 1.35332e-05
-0.000238228 -4.49621e-05 -3.30101e-07
1.35332e-05 -3.30101e-07 7.71785e-05
0.00232108 1.10007e-07 9.91104e-06
1.10007e-07 -3.2342e-05 1.88607e-06
9.91104e-06 1.88607e-06 1.39728e-05
0.00196484 -0.000512417 -1.69344e-05
-0.000512417 -0.000476117 4.92786e-06
-1.69344e-05 4.92786e-06 -0.000225745
0.00239877 -0.000436467 -2.65141e-06
-0.000436467 -0.000153631 6.14454e-07
-2.65141e-06 6.14454e-07 1.67306e-05
0.0023175 -0.000304231 9.91444e-07
-0.000304231 -7.83147e-05 -1.20168e-06
9.91444e-07 -1.20168e-06 3.80335e-06
0.00229363 -0.000508244 -3.79752e-06
-0.000508244 2.36238e-05 1.14992e-06
-3.79752e-06 1.14992e-06 3.35517e-05
0.00224416 -0.000408858 -1.18839e-07
-0.000408858 6.55068e-06 -7.30796e-08
-1.18839e-07 -7.30796e-08 9.2785e-06
0.0021448 -0.000341637 -7.18676e-07
-0.000341637 1.69797e-05 3.12017e-07
-7.18676e-07 3.12017e-07 -6.63134e-06
0.0021606 -0.000479781 -1.99272e-07
-0.000479781 7.01615e-05 -6.70635e-07
-1.99272e-07 -6.70635e-07 2.02651e-06
0.00207245 -0.000403659 5.22511e-07
-0.000403659 7.3438e-05 -1.24062e-07
5.22511e-07 -1.24062e-07 -1.26937e-05
0.00206316 -0.00037175 -1.85923e-06
-0.00037175 0.000122183 7.41927e-07
-1.85923e-06 7.41927e-07 1.04565e-05
0.00197133 -0.000451645 2.18664e-06
-0.000451645 8.83389e-05 -1.36995e-06
2.18664e-06 -1.36995e-06 -4.58239e-05
0.00198233 -0.000419073 5.17579e-07
-0.000419073 0.000127084 -6.41388e-07
5.17579e-07 -6.41388e-07 -2.00079e-05
0.00197563 -0.000394278 -6.97497e-07
-0.000394278 0.000156441 -1.49407e-06
-6.97497e-07 -1.49407e-06 -1.09589e-05
0.00212072 -0.000446692 -1.04639e-06
-0.000446692 0.000252045 3.01445e-06
-1.04639e-06 3.01445e-06 8.54693e-05
0.00208655 -0.000439252 -5.88653e-07
-0.000439252 0.000268086 -1.83913e-07
-5.88653e-07 -1.83913e-07 7.3392e-05
0.00173757 -0.000367949 -4.66986e-06
-0.000367949 0.000156525 2.18267e-07
-4.66986e-06 2.18267e-07 -6.13764e-05
0.0020487 -0.000469475 3.02581e-06
-0.000469475 0.000281166 2.07232e-06
3.02581e-06 2.07232e-06 5.50388e-05
0.00180786 -0.000404852 -6.68845e-07
-0.000404852 0.000241933 1.37722e-08
-6.68845e-07 1.37722e-08 1.9713e-06
0.00103194 -0.000243457 -1.58086e-05
-0.000243457 -2.03627e-05 6.87612e-06
-1.58086e-05 6.87612e-06 -0.00022198
0.000311003 -0.000195831 -1.96123e-05
-0.000195831 -0.000217338 1.72517e-05
-1.96123e-05 1.72517e-05 -0.000348925
0.00100714 -0.000265336 4.36153e-07
-0.000265336 -4.22173e-06 4.96003e-08
4.36153e-07 4.96003e-08 -0.000217338
0.00162159 -0.000436701 6.11556e-06
-0.000436701 0.000187013 -8.4643e-07
6.11556e-06 -8.4643e-07 -8.95746e-05
0.00695301 -1.2995e-05 -0.000284161
-1.2995e-05 0.00399825 2.03269e-05
-0.000284161 2.03269e-05 0.00400917
0.000390609 -0.000222474 -1.30365e-06
-0.000222474 -0.000157188 1.1607e-06
-1.30365e-06 1.1607e-06 -0.000290339
0.000939056 -0.000268962 1.35057e-05
-0.000268962 1.06883e-05 -6.39816e-06
1.35057e-05 -6.39816e-06 -0.000210424
0.0068052 4.05494e-05 -1.3322e-06
4.05494e-05 0.00392838 4.72457e-07
-1.3322e-06 4.72457e-07 0.00393133
0.00047579 -0.000236296 2.46275e-05
-0.000236296 -8.70289e-05 -1.95837e-05
2.46275e-05 -1.95837e-05 -0.000219189
0.00651431 6.50692e-05 0.000251636
6.50692e-05 0.0037662 -2.22984e-05
0.000251636 -2.22984e-05 0.00376454
0.00178095 0.000601936 -2.1666e-08
0.000601936 0.000199618 5.5081e-06
-2.1666e-08 5.5081e-06 -0.000110677
0.00157537 0.000553555 1.26337e-07
0.000553555 0.000221847 8.13573e-07
1.26337e-07 8.13573e-07 -0.000113351
0.00143764 0.000446128 -7.70232e-06
0.000446128 0.000227077 3.68234e-07
-7.70232e-06 3.68234e-07 -6.89268e-05
0.00156021 0.00055573 3.72364e-07
0.00055573 0.000366298 -1.22541e-06
3.72364e-07 -1.22541e-06 -2.2689e-06
0.00123529 0.00039315 -1.64521e-06
0.00039315 0.000206133 2.15759e-08
-1.64521e-06 2.15759e-08 -7.89598e-05
0.00096241 0.000234425 -1.1227e-05
0.000234425 0.000158256 -4.47874e-06
-1.1227e-05 -4.47874e-06 -5.15929e-05
0.00122861 0.000315244 2.23346e-07
0.000315244 0.000319996 -1.34274e-06
2.23346e-07 -1.34274e-06 6.61871e-05
0.000619035 0.000203393 5.72245e-07
0.000203393 3.25467e-05 1.67098e-06
5.72245e-07 1.67098e-06 -0.000187748
0.000458165 0.000173984 -2.63621e-05
0.000173984 -7.36421e-05 -1.80409e-05
-2.63621e-05 -1.80409e-05 -0.000175342
0.00013086 9.24854e-05 3.5933e-07
9.24854e-05 -0.000213574 3.9554e-06
3.5933e-07 3.9554e-06 -0.000422277
0.000555668 8.7613e-05 -1.37639e-06
8.7613e-05 7.89921e-06 -3.66671e-07
-1.37639e-06 -3.66671e-07 -7.36657e-05
0.0051947 -0.00016219 -0.00016913
-0.00016219 0.00298949 -1.48924e-05
-0.00016913 -1.48924e-05 0.00297165
0.000434055 5.09896e-05 1.06299e-05
5.09896e-05 -4.56857e-05 1.68312e-05
1.06299e-05 1.68312e-05 -0.000110764
0.00414847 -0.000168973 -8.9659e-06
-0.000168973 0.00232604 1.05148e-06
-8.9659e-06 1.05148e-06 0.00231055
0.00348709 -0.00015477 7.20225e-05
-0.00015477 0.00189764 5.63032e-06
7.20225e-05 5.63032e-06 0.00188709
0.00130273 0.00015244 2.83419e-05
0.00015244 -0.000401066 1.90711e-05
2.83419e-05 1.90711e-05 -0.000192603
0.00268973 0.000177887 -1.49293e-05
0.000177887 -0.000849373 -2.70586e-06
-1.49293e-05 -2.70586e-06 -0.000166389
0.00405048 0.000258841 0.000208212
0.000258841 -0.00160935 6.13682e-05
0.000208212 6.13682e-05 0.000107443
0.00264622 0.000753889 -7.59043e-06
0.000753889 0.000561625 -1.05311e-07
-7.59043e-06 -1.05311e-07 0.000271955
0.00172436 0.00071262 -6.28477e-06
0.00071262 0.000201177 -4.53846e-06
-6.28477e-06 -4.53846e-06 -0.00012362
0.00213972 0.000561884 1.0245e-06
0.000561884 0.000171293 4.47836e-06
1.0245e-06 4.47836e-06 -5.04973e-05
0.0021153 0.000680994 1.31285e-06
0.000680994 0.000290032 4.12059e-07
1.31285e-06 4.12059e-07 -7.39003e-06
0.00153295 0.000612084 4.6172e-07
0.000612084 0.000153971 -1.11437e-05
4.6172e-07 -1.11437e-05 -0.000176861
0.00195777 0.000597094 -2.54384e-06
0.000597094 -1.65607e-05 8.64933e-07
-2.54384e-06 8.64933e-07 -0.000218655
0.00271573 0.000862015 -9.07004e-06
0.000862015 0.000892815 -3.20534e-06
-9.07004e-06 -3.20534e-06 0.000533563
0.00235412 0.000805854 4.75182e-08
0.000805854 0.000390532 -3.29174e-08
4.75182e-08 -3.29174e-08 8.99953e-05
0.00204962 0.000416907 -1.17466e-05
0.000416907 -0.000129507 -5.80674e-08
-1.17466e-05 -5.80674e-08 -0.000148102
0.00341894 0.00100797 -3.88998e-06
0.00100797 0.00101984 5.92467e-06
-3.88998e-06 5.92467e-06 0.000701722
0.00244067 0.00078024 3.16497e-07
0.00078024 0.000295534 -2.49036e-07
3.16497e-07 -2.49036e-07 6.35496e-05
0.000676666 0.000378237 7.2025e-07
0.000378237 -0.000586213 1.74831e-06
7.2025e-07 1.74831e-06 -0.00054373
-0.00107191 0.00048664 -2.38863e-05
0.00048664 -0.00129213 -8.78979e-06
-2.38863e-05 -8.78979e-06 -0.0014423
0.00383508 0.000973982 -0.000119302
0.000973982 0.000343008 -3.87273e-05
-0.000119302 -3.87273e-05 0.000421219
0.00209917 8.8091e-05 -8.25616e-07
8.8091e-05 -0.000194126 -5.39584e-07
-8.25616e-07 -5.39584e-07 -0.000106247
0.00262316 -7.78916e-05 9.18858e-06
-7.78916e-05 0.000422489 -4.16122e-07
9.18858e-06 -4.16122e-07 0.000521671
0.00276838 -0.000237373 -8.88668e-05
-0.000237373 -0.000296315 7.45295e-06
-8.88668e-05 7.45295e-06 1.16683e-05
0.00215123 -0.000351724 -6.8775e-05
-0.000351724 -0.000227405 6.40916e-06
-6.8775e-05 6.40916e-06 8.40918e-05
0.00135521 -0.00010822 -1.33562e-05
-0.00010822 -0.000413979 2.15877e-06
-1.33562e-05 2.15877e-06 -0.000379921
0.00237447 -0.00024047 1.18852e-06
-0.00024047 -5.76108e-05 -1.67535e-06
1.18852e-06 -1.67535e-06 8.65744e-05
0.00236868 1.58259e-06 -3.16443e-06
1.58259e-06 -3.25656e-05 1.48248e-06
-3.16443e-06 1.48248e-06 2.03216e-05
0.00236048 -7.60404e-05 9.20911e-07
-7.60404e-05 -5.74516e-05 -4.28984e-07
9.20911e-07 -4.28984e-07 2.41268e-05
0.00241606 -0.000446095 -6.85201e-06
-0.000446095 -0.000130151 9.18081e-07
-6.85201e-06 9.18081e-07 5.197e-06
0.00227824 -0.000293536 3.65645e-07
-0.000293536 -8.3458e-05 -2.46127e-07
3.65645e-07 -2.46127e-07 -1.01342e-05
0.00219377 -0.000226461 4.6637e-07
-0.000226461 -2.19379e-05 -2.8856e-07
4.6637e-07 -2.8856e-07 1.48991e-05
0.00224928 -0.000406069 -2.42448e-07
-0.000406069 2.29378e-05 3.36421e-07
-2.42448e-07 3.36421e-07 2.08919e-05
0.00214606 -0.000338945 1.12053e-07
-0.000338945 2.22342e-05 1.66699e-07
1.12053e-07 1.66699e-07 -2.55996e-06
0.00206815 -0.000291976 -2.80237e-06
-0.000291976 6.24809e-05 7.06654e-07
-2.80237e-06 7.06654e-07 3.45939e-06
0.00206686 -0.000402338 2.15852e-06
-0.000402338 6.59799e-05 -1.06784e-06
2.15852e-06 -1.06784e-06 -1.99742e-05
0.0020246 -0.00036848 6.80577e-07
-0.00036848 9.57919e-05 -1.68733e-07
6.80577e-07 -1.68733e-07 -1.5974e-05
0.0019889 -0.000336456 -1.04655e-06
-0.000336456 0.0001257 -1.00778e-06
-1.04655e-06 -1.00778e-06 -8.73548e-06
0.00196478 -0.000418259 1.27513e-06
-0.000418259 0.000112149 -3.88378e-07
1.27513e-06 -3.88378e-07 -3.53339e-05
0.00202655 -0.00039714 -3.20852e-07
-0.00039714 0.000189914 -6.66529e-08
-3.20852e-07 -6.66529e-08 2.20254e-05
0.00180639 -0.000333618 -2.84909e-06
-0.000333618 0.000157796 -6.71444e-08
-2.84909e-06 -6.71444e-08 -3.6513e-05
0.00205233 -0.000437567 5.0566e-07
-0.000437567 0.000248016 1.75734e-06
5.0566e-07 1.75734e-06 5.4458e-05
0.00178174 -0.000370645 -5.48481e-07
-0.000370645 0.00018432 8.11581e-08
-5.48481e-07 8.11581e-08 -3.34334e-05
0.00106391 -0.000220243 -1.50754e-05
-0.000220243 -2.07462e-05 6.18925e-06
-1.50754e-05 6.18925e-06 -0.000211973
0.00185346 -0.000410031 5.38029e-06
-0.000410031 0.000270494 -8.88291e-08
5.38029e-06 -8.88291e-08 3.11576e-05
0.00107374 -0.000245568 1.7272e-07
-0.000245568 2.5298e-06 7.77415e-08
1.7272e-07 7.77415e-08 -0.000198853
0.00273873 -0.000177694 -4.81285e-05
-0.000177694 0.00127856 1.1647e-05
-4.81285e-05 1.1647e-05 0.0011764
0.00217489 -9.86993e-05 -0.000253574
-9.86993e-05 0.00100882 3.40207e-05
-0.000253574 3.40207e-05 0.000989415
0.00160158 -0.000203832 -1.30084e-05
-0.000203832 0.000581629 -4.83742e-08
-1.30084e-05 -4.83742e-08 0.000460367
0.00100946 -0.000266956 1.48709e-05
-0.000266956 -7.00344e-06 -6.32333e-06
1.48709e-05 -6.32333e-06 -0.00022067
0.00701094 -3.11677e-05 -7.5127e-06
-3.11677e-05 0.0040414 1.07559e-06
-7.5127e-06 1.07559e-06 0.00404898
0.00039799 -0.000248534 2.49223e-05
-0.000248534 -0.000151889 -1.85817e-05
2.49223e-05 -1.85817e-05 -0.000287663
0.00691068 1.79145e-05 0.000277764
1.79145e-05 0.00399876 -2.63423e-05
0.000277764 -2.63423e-05 0.00399913
0.00212594 0.000432452 8.15266e-07
0.000432452 0.000154896 8.56118e-07
8.15266e-07 8.56118e-07 -1.13334e-05
0.00209739 0.000565148 3.3356e-06
0.000565148 0.000286956 5.28267e-06
3.3356e-06 5.28267e-06 3.1215e-05
0.0020771 0.000626342 1.98612e-07
0.000626342 0.000375379 2.02015e-07
1.98612e-07 2.02015e-07 6.42975e-05
0.0016643 0.000479473 -7.32609e-06
0.000479473 0.000255859 1.42016e-06
-7.32609e-06 1.42016e-06 -3.30551e-05
0.00167427 0.000571348 2.72832e-06
0.000571348 0.000283268 -3.3668e-06
2.72832e-06 -3.3668e-06 -5.43552e-05
0.00143842 0.000449708 -1.04844e-07
0.000449708 0.00021926 5.05164e-07
-1.04844e-07 5.05164e-07 -7.89766e-05
0.000860635 0.000254857 -1.3293e-05
0.000254857 7.16781e-06 -5.405e-06
-1.3293e-05 -5.405e-06 -0.000202306
0.0012632 0.000389379 7.57628e-06
0.000389379 0.000231485 2.31623e-06
7.57628e-06 2.31623e-06 -5.11164e-05
0.000663998 0.000212938 1.22938e-06
0.000212938 -3.01474e-05 -1.24254e-08
1.22938e-06 -1.24254e-08 -0.000234308
0.000567315 0.000248459 -2.84531e-05
0.000248459 -2.01192e-05 -1.9081e-05
-2.84531e-05 -1.9081e-05 -0.000141856
0.000212896 0.000165665 3.66263e-06
0.000165665 -0.000230402 2.915e-06
3.66263e-06 2.915e-06 -0.000441981
0.000532713 0.000158299 6.23015e-07
0.000158299 -3.16409e-05 -7.92433e-07
6.23015e-07 -7.92433e-07 -0.000129152
0.00607398 -0.000144584 -0.00021389
-0.000144584 0.00353544 -2.16192e-05
-0.00021389 -2.16192e-05 0.00351373
0.000341103 7.8808e-05 1.62981e-05
7.8808e-05 -0.000122245 1.72084e-05
1.62981e-05 1.72084e-05 -0.000198308
0.0047653 -0.000185964 -8.94663e-06
-0.000185964 0.0027221 4.36011e-07
-8.94663e-06 4.36011e-07 0.00269974
0.00399784 -0.000182831 9.25654e-05
-0.000182831 0.0022349 7.46221e-06
9.25654e-05 7.46221e-06 0.00221566
0.00221157 0.000214606 -4.99922e-06
0.000214606 -0.000161459 -8.62695e-07
-4.99922e-06 -8.62695e-07 -5.33317e-05
0.00211452 0.000103868 2.29132e-05
0.000103868 -4.36067e-05 -2.96495e-06
2.29132e-05 -2.96495e-06 0.000189647
0.00576582 0.000272568 -0.000111966
0.000272568 0.000567258 -2.26817e-06
-0.000111966 -2.26817e-06 0.00127435
0.00215473 0.000514905 -2.9374e-06
0.000514905 0.000133352 1.25645e-06
-2.9374e-06 1.25645e-06 -5.13549e-05
0.00218417 0.000699696 -3.41435e-06
0.000699696 0.000324371 -2.13688e-07
-3.41435e-06 -2.13688e-07 4.35073e-05
0.00168165 0.000728321 -6.60351e-06
0.000728321 0.000156893 -1.02812e-05
-6.60351e-06 -1.02812e-05 -0.000165086
0.00226667 0.000556823 3.02519e-06
0.000556823 0.000266261 1.48311e-06
3.02519e-06 1.48311e-06 4.70849e-05
0.00210419 0.000670466 3.20682e-07
0.000670466 0.000285478 -4.60893e-06
3.20682e-07 -4.60893e-06 -9.07602e-06
0.00238722 0.000412092 -4.00212e-07
0.000412092 4.1279e-05 2.82569e-07
-4.00212e-07 2.82569e-07 1.46199e-05
0.0020588 0.000610444 -6.77871e-07
0.000610444 6.00493e-05 3.37748e-07
-6.77871e-07 3.37748e-07 -0.000142593
0.0028232 0.000835497 -4.67866e-06
0.000835497 0.000677979 -1.52447e-06
-4.67866e-06 -1.52447e-06 0.000364756
0.00203115 0.000408448 -8.02094e-08
0.000408448 -0.000122831 -4.42647e-07
-8.02094e-08 -4.42647e-07 -0.00014029
0.00220401 0.000758653 1.22331e-05
0.000758653 0.000150708 2.56037e-06
1.22331e-05 2.56037e-06 -8.1661e-05
0.000111058 0.000343835 -3.87439e-05
0.000343835 -0.000897917 -1.8693e-05
-3.87439e-05 -1.8693e-05 -0.000847014
0.00235257 8.63041e-05 1.06329e-06
8.63041e-05 -2.18115e-05 3.34782e-07
1.06329e-06 3.34782e-07 4.29332e-05
0.00227994 9.83821e-05 -2.03758e-06
9.83821e-05 -6.34599e-05 3.14784e-07
-2.03758e-06 3.14784e-07 1.66806e-05
0.00358008 -8.03674e-05 -4.67887e-05
-8.03674e-05 0.00108634 1.77123e-06
-4.67887e-05 1.77123e-06 0.00114788
0.00236883 -0.000239139 -2.1572e-05
-0.000239139 -8.1189e-05 2.14127e-06
-2.1572e-05 2.14127e-06 8.40306e-05
0.0024187 6.70716e-06 -6.12663e-06
6.70716e-06 -3.6796e-05 -4.03394e-06
-6.12663e-06 -4.03394e-06 2.21756e-05
0.00232819 -8.36692e-05 -3.72988e-07
-8.36692e-05 -9.34764e-05 -1.73026e-08
-3.72988e-07 -1.73026e-08 -4.52319e-06
0.00208217 -6.92021e-05 2.7884e-07
-6.92021e-05 -2.75827e-05 1.16278e-07
2.7884e-07 1.16278e-07 -1.57847e-06
0.00223301 -0.000281848 -8.14925e-07
-0.000281848 -9.12201e-05 5.00563e-07
-8.14925e-07 5.00563e-07 -2.65725e-05
0.00215072 -0.000230962 -1.85831e-07
-0.000230962 -4.11409e-05 1.27228e-08
-1.85831e-07 1.27228e-08 -1.03967e-05
0.00203969 -0.000194643 -2.18851e-06
-0.000194643 1.94925e-05 1.60483e-07
-2.18851e-06 1.60483e-07 -4.03279e-06
0.00214691 -0.000336261 9.54713e-07
-0.000336261 2.71839e-05 4.26957e-08
9.54713e-07 4.26957e-08 1.21698e-06
0.00207374 -0.000292111 3.33347e-07
-0.000292111 6.21328e-05 -9.37787e-09
3.33347e-07 -9.37787e-09 2.85406e-06
0.00206603 -0.000274722 -2.08024e-06
-0.000274722 0.000131319 -3.16509e-07
-2.08024e-06 -3.16509e-07 2.96506e-05
0.00198601 -0.000365015 2.64369e-06
-0.000365015 6.9541e-05 -8.926e-07
2.64369e-06 -8.926e-07 -4.22016e-05
0.00201584 -0.000338663 -2.95048e-07
-0.000338663 0.000139401 -9.51244e-08
-2.95048e-07 -9.51244e-08 4.39709e-06
0.00182564 -0.00028631 -2.09454e-06
-0.00028631 0.000134968 -3.84443e-07
-2.09454e-06 -3.84443e-07 -3.47695e-05
0.00207711 -0.000400007 9.68562e-07
-0.000400007 0.000223216 1.06958e-06
9.68562e-07 1.06958e-06 5.48317e-05
0.00183115 -0.000335585 -3.81638e-07
-0.000335585 0.000172703 1.14277e-07
-3.81638e-07 1.14277e-07 -2.15079e-05
0.00107021 -0.000196209 -1.41518e-05
-0.000196209 -3.62584e-05 5.03243e-06
-1.41518e-05 5.03243e-06 -0.0002181
0.00181906 -0.000372945 3.58079e-06
-0.000372945 0.000207746 -1.48256e-07
3.58079e-06 -1.48256e-07 -9.83712e-06
0.00109534 -0.000220612 5.34048e-08
-0.000220612 -6.67326e-06 1.97234e-07
5.34048e-08 1.97234e-07 -0.000196961
0.00274556 -0.00017273 -5.63968e-05
-0.00017273 0.00127378 1.13508e-05
-5.63968e-05 1.13508e-05 0.0011801
0.0010853 -0.000245742 1.54682e-05
-0.000245742 6.9271e-06 -6.4106e-06
1.54682e-05 -6.4106e-06 -0.000193988
0.00286978 -0.000215966 4.83678e-05
-0.000215966 0.00136079 -7.51486e-06
4.83678e-05 -7.51486e-06 0.00126644
0.0022116 -0.000134665 -0.000252809
-0.000134665 0.00103819 3.88187e-05
-0.000252809 3.88187e-05 0.00101674
0.00449467 -0.000109808 -0.000248792
-0.000109808 0.00247346 2.51845e-05
-0.000248792 2.51845e-05 0.0024669
0.00298147 -0.000276922 0.000159198
-0.000276922 0.00144555 -2.53204e-05
0.000159198 -2.53204e-05 0.00135027
0.00706883 -4.59597e-05 0.000292389
-4.59597e-05 0.00408601 -3.07717e-05
0.000292389 -3.07717e-05 0.00408948
0.0023061 0.000428488 -1.46119e-06
0.000428488 0.000257845 -3.58076e-07
-1.46119e-06 -3.58076e-07 0.000113742
0.00188938 0.000435996 2.37218e-06
0.000435996 0.00011463 1.65896e-06
2.37218e-06 1.65896e-06 -8.3142e-05
0.00212709 0.000423426 3.45651e-07
0.000423426 0.000162837 -1.59168e-06
3.45651e-07 -1.59168e-06 3.41618e-06
0.0018167 0.000461617 -5.98638e-06
0.000461617 0.000238137 1.68938e-06
-5.98638e-06 1.68938e-06 -2.19189e-05
0.00216656 0.000571638 6.29967e-07
0.000571638 0.00031537 2.48344e-07
6.29967e-07 2.48344e-07 5.87739e-05
0.00234979 0.000649694 3.73284e-07
0.000649694 0.000536988 -4.69642e-06
3.73284e-07 -4.69642e-06 0.000225214
0.00163633 0.000481139 1.92429e-07
0.000481139 0.000232038 5.85249e-07
1.92429e-07 5.85249e-07 -5.92133e-05
0.000950485 0.000278179 -1.63806e-05
0.000278179 -3.03388e-05 -5.61726e-06
-1.63806e-05 -5.61726e-06 -0.000243531
0.00143703 0.000452774 9.01627e-06
0.000452774 0.000210808 1.16925e-06
9.01627e-06 1.16925e-06 -8.95679e-05
0.000792556 0.000246152 -7.52811e-07
0.000246152 -3.16345e-05 -4.97621e-08
-7.52811e-07 -4.97621e-08 -0.000237395
0.00042486 0.000249575 -2.55803e-05
0.000249575 -0.000118216 -1.94829e-05
-2.55803e-05 -1.94829e-05 -0.00025311
0.000308841 0.000188574 8.74591e-06
0.000188574 -0.000248954 2.24456e-06
8.74591e-06 2.24456e-06 -0.00044755
0.000331738 0.000204469 3.02242e-06
0.000204469 -0.000166657 3.73146e-07
3.02242e-06 3.73146e-07 -0.000282907
0.00674621 -6.38121e-05 -0.000255479
-6.38121e-05 0.00392393 -2.64443e-05
-0.000255479 -2.64443e-05 0.00391227
0.000372866 0.000120108 2.17971e-05
0.000120108 -0.00012844 1.68911e-05
2.17971e-05 1.68911e-05 -0.000221207
0.0057496 -0.000165341 2.68958e-06
-0.000165341 0.00332685 -1.86023e-06
2.68958e-06 -1.86023e-06 0.00330733
0.0046081 -0.000217652 0.000111276
-0.000217652 0.00263465 9.99333e-06
0.000111276 9.99333e-06 0.00260386
0.00236993 0.000250162 1.19549e-07
0.000250162 -2.15867e-05 5.2276e-07
1.19549e-07 5.2276e-07 3.91651e-05
0.00215319 0.000221367 1.66204e-06
0.000221367 -0.000177715 -2.93323e-08
1.66204e-06 -2.93323e-08 -7.09977e-05
0.00264688 6.34592e-05 -7.92636e-05
6.34592e-05 0.00016461 -9.45905e-06
-7.92636e-05 -9.45905e-06 0.000425538
0.00211913 0.000366093 5.36468e-07
0.000366093 7.83736e-06 1.46845e-07
5.36468e-07 1.46845e-07 -6.52497e-05
0.00214262 0.000510292 -9.10996e-07
0.000510292 0.000149809 3.73987e-07
-9.10996e-07 3.73987e-07 -3.28547e-05
0.00169721 0.000641805 5.58446e-06
0.000641805 7.26049e-05 -2.41999e-06
5.58446e-06 -2.41999e-06 -0.00019862
0.00239275 0.000551412 -8.58058e-07
0.000551412 0.000361212 -2.90097e-06
-8.58058e-07 -2.90097e-06 0.00014479
0.00233578 0.000396594 -8.85075e-07
0.000396594 2.6646e-05 3.49107e-08
-8.85075e-07 3.49107e-08 1.32923e-06
0.00216457 0.000624723 -2.1639e-06
0.000624723 0.000138914 -7.48813e-08
-2.1639e-06 -7.48813e-08 -6.46223e-05
0.00192733 0.000395334 1.14322e-05
0.000395334 -0.000134435 -1.91863e-07
1.14322e-05 -1.91863e-07 -0.000150813
0.00215795 6.74552e-05 1.95055e-06
6.74552e-05 -8.61082e-06 3.74638e-07
1.95055e-06 3.74638e-07 1.88954e-05
0.00227232 8.10868e-05 7.86035e-08
8.10868e-05 -5.92423e-05 1.66962e-08
7.86035e-08 1.66962e-08 4.18389e-06
0.00245447 0.000114477 -9.1005e-06
0.000114477 6.72437e-05 -7.36263e-07
-9.1005e-06 -7.36263e-07 0.000138846
0.00201834 -1.20512e-05 -3.22002e-06
-1.20512e-05 1.54295e-05 3.6437e-07
-3.22002e-06 3.6437e-07 1.53589e-05
0.00229092 -9.7403e-05 -3.58659e-07
-9.7403e-05 -0.000131764 -6.36062e-07
-3.58659e-07 -6.36062e-07 -3.51114e-05
0.0021014 -7.22191e-05 -7.14376e-07
-7.22191e-05 -2.01395e-05 2.95251e-07
-7.14376e-07 2.95251e-07 6.11519e-06
0.0019616 -0.000106962 -3.65482e-06
-0.000106962 -1.7793e-05 4.27516e-07
-3.65482e-06 4.27516e-07 -3.32741e-05
0.0021058 -0.000235257 7.31195e-08
-0.000235257 -6.14048e-05 2.51305e-07
7.31195e-08 2.51305e-07 -3.70936e-05
0.00204554 -0.000193649 1.11024e-06
-0.000193649 2.21402e-05 -3.22186e-07
1.11024e-06 -3.22186e-07 -1.02772e-06
0.00208068 -0.000196525 -3.22735e-07
-0.000196525 0.000115738 -1.86587e-07
-3.22735e-07 -1.86587e-07 4.23854e-05
0.00208301 -0.000291878 3.0775e-06
-0.000291878 6.42301e-05 -6.90488e-07
3.0775e-06 -6.90488e-07 4.77565e-06
0.00201452 -0.000270431 -2.49709e-07
-0.000270431 9.8458e-05 -2.56566e-07
-2.49709e-07 -2.56566e-07 -2.7757e-06
0.00180094 -0.000226561 -1.36343e-06
-0.000226561 9.6406e-05 -2.46584e-07
-1.36343e-06 -2.46584e-07 -4.97973e-05
0.00204191 -0.000340659 1.82485e-06
-0.000340659 0.000153142 5.01088e-07
1.82485e-06 5.01088e-07 1.76128e-05
0.00183763 -0.00028627 -3.4435e-07
-0.00028627 0.000142865 -7.65313e-08
-3.4435e-07 -7.65313e-08 -2.64594e-05
0.00107705 -0.000169223 -1.32486e-05
-0.000169223 -4.78724e-05 3.84049e-06
-1.32486e-05 3.84049e-06 -0.000219317
0.00185349 -0.000337262 1.98435e-06
-0.000337262 0.000186255 2.11185e-07
1.98435e-06 2.11185e-07 -7.81041e-06
0.00111511 -0.000196314 -1.92666e-07
-0.000196314 -1.26826e-05 2.49201e-07
-1.92666e-07 2.49201e-07 -0.00019332
0.00270128 -0.00016662 -6.35124e-05
-0.00016662 0.00124613 1.09726e-05
-6.35124e-05 1.09726e-05 0.00115611
0.00113015 -0.000221377 1.47856e-05
-0.000221377 8.99101e-06 -5.77556e-06
1.47856e-05 -5.77556e-06 -0.000180358
0.00282014 -0.000195223 4.42033e-05
-0.000195223 0.00132069 -5.89707e-06
4.42033e-05 -5.89707e-06 0.00123415
0.00222567 -0.000114627 -0.000246599
-0.000114627 0.00103851 3.39624e-05
-0.000246599 3.39624e-05 0.00101961
0.00298923 -0.000224421 0.00015308
-0.000224421 0.00143037 -2.63412e-05
0.00015308 -2.63412e-05 0.00134568
0.00185645 -7.19224e-05 -0.000103083
-7.19224e-05 0.000818082 1.48952e-05
-0.000103083 1.48952e-05 0.000783985
0.00662909 2.02086e-05 8.83708e-05
2.02086e-05 0.00379127 -4.14697e-06
8.83708e-05 -4.14697e-06 0.00377191
0.00206872 0.000363317 -2.45058e-07
0.000363317 7.35321e-05 -6.95767e-08
-2.45058e-07 -6.95767e-08 -3.82383e-05
0.00218946 0.000406764 -6.16167e-07
0.000406764 0.000243025 -3.65602e-07
-6.16167e-07 -3.65602e-07 7.91121e-05
0.00224608 0.000427952 -3.77227e-06
0.000427952 0.000210172 -1.42476e-07
-3.77227e-06 -1.42476e-07 6.41563e-05
0.00188714 0.000401932 -2.65093e-06
0.000401932 0.000215024 4.40971e-07
-2.65093e-06 4.40971e-07 -8.91794e-06
0.00188255 0.000442684 -8.48645e-07
0.000442684 9.17762e-05 -2.15604e-06
-8.48645e-07 -2.15604e-06 -0.000102797
0.00211307 0.00041375 -4.83656e-06
0.00041375 0.000161151 -4.62162e-06
-4.83656e-06 -4.62162e-06 8.63684e-06
0.00110722 0.000277453 -1.91145e-05
0.000277453 6.14226e-06 -5.93581e-06
-1.91145e-05 -5.93581e-06 -0.000200858
0.00173876 0.000455443 9.75473e-07
0.000455443 0.000188572 4.10043e-07
9.75473e-07 4.10043e-07 -7.12847e-05
0.00224603 0.000578463 1.85766e-06
0.000578463 0.00034911 -4.10262e-06
1.85766e-06 -4.10262e-06 9.16786e-05
0.00159073 0.000481075 8.59011e-06
0.000481075 0.000197706 -6.89803e-08
8.59011e-06 -6.89803e-08 -9.5521e-05
0.000957048 0.000273427 -1.13619e-06
0.000273427 -1.59938e-05 -5.58218e-08
-1.13619e-06 -5.58218e-08 -0.000227092
0.00033084 0.000244584 -2.51951e-05
0.000244584 -0.000189113 -1.78482e-05
-2.51951e-05 -1.78482e-05 -0.00032462
0.00072931 0.00023645 1.29532e-05
0.00023645 -6.78116e-05 6.03237e-06
1.29532e-05 6.03237e-06 -0.000269537
0.000391373 0.000239759 2.03637e-06
0.000239759 -0.000133309 8.45171e-07
2.03637e-06 8.45171e-07 -0.000268587
0.00706451 2.66917e-05 -0.000280282
2.66917e-05 0.00410585 -3.33596e-05
-0.000280282 -3.33596e-05 0.0040971
0.000400522 0.000186707 2.44514e-05
0.000186707 -0.000128861 1.93026e-05
2.44514e-05 1.93026e-05 -0.000242418
0.00652052 -0.000103632 4.033e-06
-0.000103632 0.00378055 -8.67916e-07
4.033e-06 -8.67916e-07 0.00377014
0.00530454 -0.000199672 0.000149179
-0.000199672 0.00305605 1.00485e-05
0.000149179 1.00485e-05 0.0030303
0.002123 0.000199272 -3.15899e-07
0.000199272 -1.24899e-05 -2.73918e-07
-3.15899e-07 -2.73918e-07 -2.96025e-06
0.00233123 0.00025303 -6.09769e-08
0.00025303 -5.20762e-05 5.58706e-07
-6.09769e-08 5.58706e-07 1.09341e-05
0.00215653 0.000226773 3.19892e-06
0.000226773 -0.0001771 -6.70161e-08
3.19892e-06 -6.70161e-08 -7.07168e-05
0.00216768 0.000363705 -3.52594e-07
0.000363705 4.27672e-05 8.54201e-08
-3.52594e-07 8.54201e-08 -2.70788e-05
0.00212389 0.000504778 3.87652e-07
0.000504778 0.000164745 -6.40088e-07
3.87652e-07 -6.40088e-07 -1.5688e-05
0.00230551 0.00038284 1.84174e-06
0.00038284 1.82301e-05 -2.74055e-07
1.84174e-06 -2.74055e-07 -5.89532e-06
0.00202803 6.28339e-05 -1.14776e-06
6.28339e-05 -6.58906e-06 2.59071e-07
-1.14776e-06 2.59071e-07 -4.49565e-06
0.0021412 6.22458e-05 3.20218e-07
6.22458e-05 -1.64018e-05 -1.11193e-07
3.20218e-07 -1.11193e-07 1.00953e-05
0.00219947 7.5911e-05 -1.1501e-06
7.5911e-05 -9.31076e-05 -2.72069e-07
-1.1501e-06 -2.72069e-07 -3.03622e-05
0.0020031 -1.07718e-05 -9.21711e-07
-1.07718e-05 3.07891e-06 4.33224e-08
-9.21711e-07 4.33224e-08 2.57388e-06
0.00200167 -3.70292e-05 -6.46336e-06
-3.70292e-05 4.57845e-05 5.40789e-07
-6.46336e-06 5.40789e-07 2.54017e-05
0.00212187 -7.49519e-05 -7.48524e-08
-7.49519e-05 -1.23941e-05 1.42161e-07
-7.48524e-08 1.42161e-07 1.43932e-05
0.00199621 -0.000106959 -1.4506e-06
-0.000106959 9.98509e-06 1.98843e-07
-1.4506e-06 1.98843e-07 -8.29731e-06
0.00194937 -0.000121758 -5.36318e-06
-0.000121758 2.40362e-05 7.2206e-07
-5.36318e-06 7.2206e-07 -2.99806e-05
0.00205031 -0.000193046 4.36e-06
-0.000193046 2.44535e-05 -8.29418e-07
4.36e-06 -8.29418e-07 1.54526e-06
0.00200869 -0.000194358 2.91022e-06
-0.000194358 7.16545e-05 -7.3658e-07
2.91022e-06 -7.3658e-07 -1.61867e-06
0.00183231 -0.000166103 1.7804e-06
-0.000166103 9.84676e-05 -9.33304e-07
1.7804e-06 -9.33304e-07 -2.82488e-05
0.00194744 -0.000267236 2.32412e-06
-0.000267236 5.45483e-05 -3.41639e-07
2.32412e-06 -3.41639e-07 -4.65746e-05
0.00183896 -0.000229 -1.52783e-07
-0.000229 0.000117475 -4.51288e-08
-1.52783e-07 -4.51288e-08 -2.86939e-05
0.00109072 -0.000136188 -1.25367e-05
-0.000136188 -5.13861e-05 2.72222e-06
-1.25367e-05 2.72222e-06 -0.00021036
0.00185204 -0.000286578 1.04285e-06
-0.000286578 0.000151112 2.03521e-07
1.04285e-06 2.03521e-07 -1.78582e-05
0.00112143 -0.000168149 -3.17003e-07
-0.000168149 -2.27282e-05 2.51597e-07
-3.17003e-07 2.51597e-07 -0.000192828
0.00263651 -0.000168615 -6.58651e-05
-0.000168615 0.00120703 9.61869e-06
-6.58651e-05 9.61869e-06 0.00111942
0.00115204 -0.000196059 1.3795e-05
-0.000196059 5.88451e-06 -4.61814e-06
1.3795e-05 -4.61814e-06 -0.000173496
0.00277539 -0.000168143 4.23236e-05
-0.000168143 0.0012872 -4.53297e-06
4.23236e-05 -4.53297e-06 0.00120592
0.00223793 -9.56188e-05 -0.000244279
-9.56188e-05 0.00103979 2.85167e-05
-0.000244279 2.85167e-05 0.00102254
0.00291843 -0.000188819 0.000149679
-0.000188819 0.00137429 -2.24813e-05
0.000149679 -2.24813e-05 0.00129834
0.00185808 -7.54053e-05 -9.33229e-05
-7.54053e-05 0.000813662 1.19514e-05
-9.33229e-05 1.19514e-05 0.000782099
0.00156693 -6.93861e-05 5.93135e-05
-6.93861e-05 0.000647882 -9.14334e-06
5.93135e-05 -9.14334e-06 0.000597715
0.00209527 0.000238548 -1.66868e-06
0.000238548 4.80098e-05 -3.74624e-07
-1.66868e-06 -3.74624e-07 -1.42765e-07
0.00210747 0.00033244 -2.10527e-06
0.00033244 0.0001592 5.65036e-07
-2.10527e-06 5.65036e-07 3.00188e-05
0.00210185 0.000367818 -3.68785e-07
0.000367818 7.48784e-05 -4.84579e-08
-3.68785e-07 -4.84579e-08 -2.94762e-05
0.00199356 0.000367083 2.92902e-08
0.000367083 0.000227627 7.89231e-07
2.92902e-08 7.89231e-07 3.56661e-05
0.00212261 0.000399648 -1.05205e-06
0.000399648 0.000209365 -5.55369e-07
-1.05205e-06 -5.55369e-07 4.50148e-05
0.00219775 0.000428453 7.15771e-07
0.000428453 0.000169755 1.4716e-08
7.15771e-07 1.4716e-08 2.16096e-05
0.00118547 0.000248984 -1.78245e-05
0.000248984 2.14677e-05 -5.64168e-06
-1.78245e-05 -5.64168e-06 -0.000171612
0.00182821 0.000403291 2.33175e-06
0.000403291 0.000170702 -7.1788e-08
2.33175e-06 -7.1788e-08 -4.95038e-05
0.00188853 0.000450136 -2.2571e-06
0.000450136 7.75422e-05 -4.3522e-06
-2.2571e-06 -4.3522e-06 -0.000113944
0.000313674 0.000186942 -2.27053e-05
0.000186942 -0.000224402 -1.49325e-05
-2.27053e-05 -1.49325e-05 -0.000347636
0.00105521 0.000271364 -8.58904e-07
0.000271364 -2.29428e-05 1.98007e-08
-8.58904e-07 1.98007e-08 -0.000228796
0.00168781 0.000451963 7.97902e-06
0.000451963 0.000154652 -9.61408e-07
7.97902e-06 -9.61408e-07 -0.00010551
0.00091107 0.000266075 1.67211e-05
0.000266075 -3.48449e-05 6.51687e-06
1.67211e-05 6.51687e-06 -0.000243916
0.000369977 0.000229356 4.50925e-07
0.000229356 -0.000162721 1.03635e-06
4.50925e-07 1.03635e-06 -0.000299679
0.00715492 0.00012713 -0.000291998
0.00012713 0.00414368 -3.75974e-05
-0.000291998 -3.75974e-05 0.00413799
0.00032039 0.000221743 2.22208e-05
0.000221743 -0.000174978 1.84692e-05
2.22208e-05 1.84692e-05 -0.000308095
0.00692796 -4.23878e-06 7.18979e-06
-4.23878e-06 0.00400828 1.49398e-08
7.18979e-06 1.49398e-08 0.00400696
0.00629125 -0.000135375 0.000208644
-0.000135375 0.0036355 1.21089e-05
0.000208644 1.21089e-05 0.00362475
0.00204723 0.000126552 -3.69447e-06
0.000126552 2.32178e-05 -8.69636e-07
-3.69447e-06 -8.69636e-07 1.68633e-05
0.00213122 0.000203557 8.00632e-07
0.000203557 -9.15525e-06 3.34278e-07
8.00632e-07 3.34278e-07 -1.40986e-06
0.00228245 0.000256303 -4.37504e-07
0.000256303 -8.49279e-05 -8.15127e-07
-4.37504e-07 -8.15127e-07 -2.02334e-05
0.0022133 0.000360087 2.45115e-06
0.000360087 7.57565e-05 1.43646e-07
2.45115e-06 1.43646e-07 9.40765e-06
0.00197126 1.70105e-05 -6.18726e-06
1.70105e-05 4.63563e-05 2.7694e-07
-6.18726e-06 2.7694e-07 1.43259e-05
0.00201236 5.33033e-05 -1.58928e-08
5.33033e-05 -1.47514e-05 6.00434e-08
-1.58928e-08 6.00434e-08 -1.34101e-05
0.00212427 5.69091e-05 -1.17941e-06
5.69091e-05 -2.35243e-05 -2.03496e-07
-1.17941e-06 -2.03496e-07 1.33001e-06
0.00198698 -8.43183e-06 6.43219e-07
-8.43183e-06 -9.45102e-06 -5.87286e-07
6.43219e-07 -5.87286e-07 -1.06421e-05
0.00199964 -3.12603e-05 -6.97824e-07
-3.12603e-05 4.14977e-05 -1.92912e-07
-6.97824e-07 -1.92912e-07 2.2219e-05
0.00187985 -5.15709e-05 -4.06668e-06
-5.15709e-05 -5.25416e-06 2.14554e-07
-4.06668e-06 2.14554e-07 -6.2358e-05
0.00203212 -0.000107152 3.77608e-06
-0.000107152 3.85989e-05 -2.98141e-07
3.77608e-06 -2.98141e-07 1.71651e-05
0.00196528 -0.000122305 -2.15757e-06
-0.000122305 4.29802e-05 5.14162e-07
-2.15757e-06 5.14162e-07 -1.78545e-05
0.00187141 -0.000108137 -8.76253e-07
-0.000108137 0.000106548 -3.6156e-07
-8.76253e-07 -3.6156e-07 1.98828e-06
0.00195221 -0.000191324 6.42356e-06
-0.000191324 3.74576e-05 -1.28976e-06
6.42356e-06 -1.28976e-06 -3.54585e-05
0.00185971 -0.000165173 2.07786e-06
-0.000165173 0.000111623 -5.4479e-07
2.07786e-06 -5.4479e-07 -1.4523e-05
0.00109959 -0.00010087 -1.22425e-05
-0.00010087 -4.98767e-05 1.79938e-06
-1.22425e-05 1.79938e-06 -0.000197126
0.00189656 -0.000229672 9.05319e-07
-0.000229672 0.000152783 1.37039e-07
9.05319e-07 1.37039e-07 7.15591e-06
0.00111062 -0.000135519 -1.87609e-07
-0.000135519 -3.82221e-05 2.09998e-07
-1.87609e-07 2.09998e-07 -0.000196429
0.000418135 -8.96495e-05 -1.98839e-05
-8.96495e-05 -0.000196179 5.88684e-06
-1.98839e-05 5.88684e-06 -0.000291379
0.00116664 -0.00016703 1.31508e-05
-0.00016703 3.35871e-06 -3.44429e-06
1.31508e-05 -3.44429e-06 -0.000165349
0.00158181 -0.000110426 6.23577e-05
-0.000110426 0.000533777 -4.72799e-06
6.23577e-05 -4.72799e-06 0.000449775
0.00653833 -0.000162094 -0.000324192
-0.000162094 0.0037404 2.39319e-05
-0.000324192 2.39319e-05 0.00375773
0.00285552 -0.000151527 0.000146736
-0.000151527 0.0013269 -1.77445e-05
0.000146736 -1.77445e-05 0.00125678
0.00185543 -7.43384e-05 -8.45803e-05
-7.43384e-05 0.000811322 7.74914e-06
-8.45803e-05 7.74914e-06 0.00077994
0.00149005 -9.5778e-05 7.13715e-05
-9.5778e-05 0.000604496 -1.09195e-05
7.13715e-05 -1.09195e-05 0.000553069
0.00203338 0.000170031 -3.9016e-06
0.000170031 4.82033e-05 -8.71319e-07
-3.9016e-06 -8.71319e-07 7.82887e-06
0.00215319 0.000256644 -1.234e-06
0.000256644 0.000171917 7.36189e-07
-1.234e-06 7.36189e-07 7.71113e-05
0.00207792 0.000231779 1.82463e-07
0.000231779 4.49914e-05 1.62648e-07
1.82463e-07 1.62648e-07 -7.64584e-06
0.00193738 0.000292398 7.89769e-08
0.000292398 0.000173483 1.38646e-06
7.89769e-08 1.38646e-06 1.54387e-05
0.00203332 0.000326934 1.10177e-06
0.000326934 0.000116303 1.60624e-07
1.10177e-06 1.60624e-07 -1.26329e-05
0.00213224 0.00037272 7.02202e-07
0.00037272 7.42247e-05 3.64674e-07
7.02202e-07 3.64674e-07 -2.28907e-05
0.00116505 0.000218164 -1.55873e-05
0.000218164 -1.24628e-05 -3.92682e-06
-1.55873e-05 -3.92682e-06 -0.000189667
0.00198514 0.000363968 2.30452e-06
0.000363968 0.000221509 6.39547e-07
2.30452e-06 6.39547e-07 3.06899e-05
0.00203835 0.00039127 -1.06287e-06
0.00039127 0.000165319 -1.72916e-06
-1.06287e-06 -1.72916e-06 6.8325e-07
0.000315346 0.000133256 -1.95128e-05
0.000133256 -0.00024511 -1.14312e-05
-1.95128e-05 -1.14312e-05 -0.000354755
0.00109703 0.000245163 3.23917e-07
0.000245163 -3.30461e-05 3.99541e-07
3.23917e-07 3.99541e-07 -0.000224635
0.00175454 0.000403295 6.83314e-06
0.000403295 0.000116974 -1.2137e-06
6.83314e-06 -1.2137e-06 -9.9221e-05
0.0069661 0.000203546 -0.000299155
0.000203546 0.00401226 -3.71972e-05
-0.000299155 -3.71972e-05 0.00401189
0.000298317 0.000180023 2.96755e-07
0.000180023 -0.000233753 8.117e-07
2.96755e-07 8.117e-07 -0.000357817
0.00104884 0.000267229 1.99234e-05
0.000267229 -2.13794e-05 6.79851e-06
1.99234e-05 6.79851e-06 -0.000225972
0.000317574 0.000211746 2.12578e-05
0.000211746 -0.000191095 1.75761e-05
2.12578e-05 1.75761e-05 -0.000328992
0.00703307 0.000117911 1.03257e-05
0.000117911 0.00406204 1.12147e-06
1.03257e-05 1.12147e-06 0.00406314
0.00680192 -3.80514e-05 0.000261071
-3.80514e-05 0.0039207 1.74128e-05
0.000261071 1.74128e-05 0.00392419
0.00194079 6.97634e-05 -8.12734e-06
6.97634e-05 2.36077e-05 -3.73655e-07
-8.12734e-06 -3.73655e-07 -1.16084e-05
0.00203717 0.0001233 1.52318e-07
0.0001233 1.67961e-05 7.7572e-09
1.52318e-07 7.7572e-09 9.81972e-06
0.00214218 0.000207986 8.14294e-07
0.000207986 -4.34374e-06 3.68273e-07
8.14294e-07 3.68273e-07 1.99623e-06
0.0019291 6.09723e-06 -4.71773e-06
6.09723e-06 4.26102e-05 -2.90608e-07
-4.71773e-06 -2.90608e-07 -1.97884e-05
0.00195601 2.20017e-05 2.57054e-07
2.20017e-05 3.40699e-05 6.17121e-08
2.57054e-07 6.17121e-08 4.73764e-06
0.00199822 4.27296e-05 4.71337e-07
4.27296e-05 -2.22069e-05 -2.67259e-07
4.71337e-07 -2.67259e-07 -2.1538e-05
0.0019985 -2.62332e-05 4.01779e-06
-2.62332e-05 3.72181e-05 -3.75024e-07
4.01779e-06 -3.75024e-07 1.96093e-05
0.00193038 -5.01188e-05 -1.52905e-06
-5.01188e-05 2.97311e-05 2.91676e-07
-1.52905e-06 2.91676e-07 -2.60486e-05
0.00186027 -5.0068e-05 1.20939e-06
-5.0068e-05 0.000112468 -6.06805e-07
1.20939e-06 -6.06805e-07 1.05803e-05
0.00199518 -0.000122852 4.96242e-07
-0.000122852 7.15779e-05 1.84575e-07
4.96242e-07 1.84575e-07 4.50175e-06
0.00187068 -0.00010954 4.93513e-07
-0.00010954 0.000111084 2.93714e-08
4.93513e-07 2.93714e-08 -1.57585e-07
0.00109092 -6.04425e-05 -1.26561e-05
-6.04425e-05 -5.8481e-05 8.78316e-07
-1.26561e-05 8.78316e-07 -0.000190962
0.00186327 -0.000165877 2.46977e-06
-0.000165877 0.000109136 -2.2149e-07
2.46977e-06 -2.2149e-07 -1.6928e-05
0.0011018 -9.6863e-05 -6.91457e-08
-9.6863e-05 -4.75984e-05 6.37422e-08
-6.91457e-08 6.37422e-08 -0.000193921
0.000425994 -2.37348e-05 -1.84723e-05
-2.37348e-05 -0.000194173 3.42814e-06
-1.84723e-05 3.42814e-06 -0.000283048
0.00115408 -0.000134429 1.24669e-05
-0.000134429 -1.21228e-05 -2.38362e-06
1.24669e-05 -2.38362e-06 -0.000169337
0.00042184 -7.43285e-05 -1.30782e-07
-7.43285e-05 -0.000192455 4.67907e-07
-1.30782e-07 4.67907e-07 -0.00028826
0.00645871 -5.33297e-05 -0.000313431
-5.33297e-05 0.00368527 1.47942e-05
-0.000313431 1.47942e-05 0.00370746
0.000465565 -7.63872e-05 1.46278e-05
-7.63872e-05 -0.000167836 -7.80386e-06
1.46278e-05 -7.80386e-06 -0.000268773
0.00410611 -0.000105758 0.000138912
-0.000105758 0.00222328 -7.17178e-06
0.000138912 -7.17178e-06 0.00220722
0.00144069 -8.87198e-05 7.68437e-05
-8.87198e-05 0.000573732 -1.06555e-05
7.68437e-05 -1.06555e-05 0.000523127
0.00203654 0.000131001 -7.89094e-06
0.000131001 8.1083e-05 -8.38465e-07
-7.89094e-06 -8.38465e-07 3.63526e-05
0.00208149 0.000188271 -1.81418e-06
0.000188271 0.000134567 8.80502e-07
-1.81418e-06 8.80502e-07 5.38943e-05
0.00201362 0.000164395 -5.86738e-07
0.000164395 3.63386e-05 -1.04306e-07
-5.86738e-07 -1.04306e-07 -3.31991e-06
0.00185267 0.000222782 8.23305e-08
0.000222782 0.000113354 1.02567e-06
8.23305e-08 1.02567e-06 -2.9759e-05
0.0020943 0.000253695 2.72282e-07
0.000253695 0.000131009 1.04406e-07
2.72282e-07 1.04406e-07 3.41769e-05
0.00205606 0.000224736 2.92474e-06
0.000224736 3.90775e-05 6.90273e-07
2.92474e-06 6.90273e-07 -1.79965e-05
0.00116574 0.000178539 -1.42453e-05
0.000178539 -1.65012e-05 -2.77991e-06
-1.42453e-05 -2.77991e-06 -0.000179676
0.00189883 0.000289238 1.76742e-06
0.000289238 0.000155792 6.86178e-07
1.76742e-06 6.86178e-07 -7.84198e-06
0.0019624 0.000321454 7.40936e-07
0.000321454 7.54598e-05 -6.71534e-07
7.40936e-07 -6.71534e-07 -5.31196e-05
0.000349522 9.49372e-05 -1.83609e-05
9.49372e-05 -0.000239321 -8.24178e-06
-1.83609e-05 -8.24178e-06 -0.000339985
0.00112157 0.000214556 -9.80013e-07
0.000214556 -3.77678e-05 2.90201e-07
-9.80013e-07 2.90201e-07 -0.000214389
0.0019777 0.000361154 4.78388e-06
0.000361154 0.00021601 4.85024e-07
4.78388e-06 4.85024e-07 2.62432e-05
0.00679575 0.00026035 -0.000315306
0.00026035 0.00390706 -3.58425e-05
-0.000315306 -3.58425e-05 0.00390853
0.000348669 0.000132198 1.50324e-08
0.000132198 -0.000227346 4.24254e-07
1.50324e-08 4.24254e-07 -0.000337406
0.00102413 0.000243244 1.72907e-05
0.000243244 -7.92801e-05 5.58219e-06
1.72907e-05 5.58219e-06 -0.000269694
0.00699393 0.000221891 1.35499e-05
0.000221891 0.00403662 3.62819e-06
1.35499e-05 3.62819e-06 0.00403432
0.000370463 0.000175506 2.01979e-05
0.000175506 -0.000191279 1.46521e-05
2.01979e-05 1.46521e-05 -0.000316546
0.00693676 8.03105e-05 0.000287764
8.03105e-05 0.00398827 2.52927e-05
0.000287764 2.52927e-05 0.00399734
0.00189164 5.2136e-05 -5.25623e-06
5.2136e-05 1.15588e-05 -2.22441e-07
-5.25623e-06 -2.22441e-07 -5.19348e-05
0.00196781 7.48562e-05 -8.3825e-07
7.48562e-05 4.84853e-05 -1.94039e-07
-8.3825e-07 -1.94039e-07 1.24795e-05
0.00202541 0.000120277 3.15993e-06
0.000120277 1.00002e-05 5.37297e-07
3.15993e-06 5.37297e-07 2.30422e-06
0.0018678 -5.30184e-06 1.76252e-06
-5.30184e-06 0.00012312 -5.67826e-07
1.76252e-06 -5.67826e-07 2.31152e-05
0.00193431 7.03182e-06 -1.98333e-06
7.03182e-06 4.46337e-05 2.70925e-07
-1.98333e-06 2.70925e-07 -1.52214e-05
0.00193938 2.82345e-05 7.04157e-06
2.82345e-05 2.09375e-05 -1.2205e-08
7.04157e-06 -1.2205e-08 -5.84488e-06
0.00196687 -4.86352e-05 7.74356e-07
-4.86352e-05 5.58895e-05 4.06991e-07
7.74356e-07 4.06991e-07 8.43178e-07
0.00188248 -4.94491e-05 2.76394e-06
-4.94491e-05 0.000126376 -1.45216e-07
2.76394e-06 -1.45216e-07 2.53495e-05
0.00106968 -2.51768e-05 -1.22117e-05
-2.51768e-05 -6.4565e-05 1.67329e-07
-1.22117e-05 1.67329e-07 -0.000190597
0.00186243 -0.000111045 1.02483e-08
-0.000111045 0.000110399 4.31173e-07
1.02483e-08 4.31173e-07 -7.80518e-06
0.00108527 -6.02657e-05 -2.37285e-07
-6.02657e-05 -6.01118e-05 -4.28966e-08
-2.37285e-07 -4.28966e-08 -0.000195091
0.000430399 -8.52228e-06 -1.86996e-05
-8.52228e-06 -0.000191386 2.14637e-06
-1.86996e-05 2.14637e-06 -0.000276808
0.001104 -9.41385e-05 1.16024e-05
-9.41385e-05 -4.44975e-05 -1.70303e-06
1.16024e-05 -1.70303e-06 -0.000190058
0.00040447 -3.60568e-05 8.52191e-07
-3.60568e-05 -0.000207416 -2.78203e-07
8.52191e-07 -2.78203e-07 -0.000295597
0.00627346 -0.00014841 -0.000315561
-0.00014841 0.00358598 1.60723e-05
-0.000315561 1.60723e-05 0.00360235
0.000388616 -5.77443e-05 1.78565e-05
-5.77443e-05 -0.000212918 -4.43501e-06
1.78565e-05 -4.43501e-06 -0.000308158
0.00639819 -8.96161e-05 7.55801e-06
-8.96161e-05 0.0036508 -3.97685e-09
7.55801e-06 -3.97685e-09 0.00367236
0.00179625 -3.50032e-05 0.000245093
-3.50032e-05 0.000765074 -1.61361e-05
0.000245093 -1.61361e-05 0.000755051
0.0019702 0.000125 -4.51718e-06
0.000125 5.8184e-05 -1.71737e-07
-4.51718e-06 -1.71737e-07 -1.6812e-05
0.00199819 0.000132226 -2.13765e-06
0.000132226 4.86889e-05 -3.16274e-07
-2.13765e-06 -3.16274e-07 8.27245e-06
0.00184075 0.000159192 9.72812e-07
0.000159192 9.99325e-05 9.96906e-07
9.72812e-07 9.96906e-07 -2.52458e-05
0.00203519 0.000187031 8.87019e-07
0.000187031 9.97873e-05 9.90303e-08
8.87019e-07 9.90303e-08 1.8816e-05
0.001994 0.000158635 4.75927e-06
0.000158635 2.38219e-05 5.44879e-07
4.75927e-06 5.44879e-07 -1.4955e-05
0.00115475 0.000133145 -1.26715e-05
0.000133145 -1.54577e-05 -2.04256e-06
-1.26715e-05 -2.04256e-06 -0.000169554
0.00185351 0.000221475 1.70555e-07
0.000221475 0.000118145 6.00616e-08
1.70555e-07 6.00616e-08 -2.48571e-05
0.00203871 0.000250765 2.22435e-06
0.000250765 9.2544e-05 -6.53486e-07
2.22435e-06 -6.53486e-07 -6.3623e-06
0.000378864 6.96262e-05 -1.79457e-05
6.96262e-05 -0.000226737 -5.86043e-06
-1.79457e-05 -5.86043e-06 -0.000322666
0.00112389 0.000177194 -7.94141e-07
0.000177194 -3.98757e-05 3.09417e-07
-7.94141e-07 3.09417e-07 -0.000205763
0.00186527 0.000286136 2.51356e-06
0.000286136 0.000141755 3.24358e-07
2.51356e-06 3.24358e-07 -2.74539e-05
0.00664827 0.000274994 -0.000331674
0.000274994 0.00382531 -3.33521e-05
-0.000331674 -3.33521e-05 0.00382623
0.00037373 9.72575e-05 9.1647e-08
9.72575e-05 -0.000225935 2.19917e-07
9.1647e-08 2.19917e-07 -0.000327193
0.00105402 0.000209658 1.19129e-05
0.000209658 -7.82596e-05 4.18002e-06
1.19129e-05 4.18002e-06 -0.000254152
0.00680374 0.000284021 1.11357e-05
0.000284021 0.00392439 4.8111e-06
1.11357e-05 4.8111e-06 0.00392011
0.000365026 0.000129382 1.86458e-05
0.000129382 -0.000219971 1.16948e-05
1.86458e-05 1.16948e-05 -0.000330086
0.00695427 0.000222792 0.000316011
0.000222792 0.00400384 3.53661e-05
0.000316011 3.53661e-05 0.00400781
0.00183753 4.71084e-05 3.24719e-06
4.71084e-05 0.000105956 -1.08964e-07
3.24719e-06 -1.08964e-07 3.1728e-06
0.00193553 5.25426e-05 -3.36362e-06
5.25426e-05 4.60504e-05 -7.80299e-08
-3.36362e-06 -7.80299e-08 -1.85148e-05
0.00199301 7.9363e-05 7.13495e-06
7.9363e-05 7.20674e-05 3.17708e-07
7.13495e-06 3.17708e-07 3.53621e-05
0.00105355 -9.88746e-06 -1.26001e-05
-9.88746e-06 -6.61615e-05 -1.61581e-07
-1.26001e-05 -1.61581e-07 -0.000190475
0.00187055 -6.1975e-07 3.12249e-06
-6.1975e-07 0.000125308 -1.06306e-07
3.12249e-06 -1.06306e-07 2.55316e-05
0.0019219 7.41192e-06 6.48717e-07
7.41192e-06 3.49667e-05 5.49877e-07
6.48717e-07 5.49877e-07 -2.23814e-05
0.00191753 -4.93867e-05 4.04134e-06
-4.93867e-05 0.000148877 2.51567e-07
4.04134e-06 2.51567e-07 4.88795e-05
0.0010588 -2.64511e-05 -7.87782e-08
-2.64511e-05 -7.35973e-05 -3.36558e-08
-7.87782e-08 -3.36558e-08 -0.000199899
0.000433483 -3.23547e-05 -1.9219e-05
-3.23547e-05 -0.000188173 9.15401e-07
-1.9219e-05 9.15401e-07 -0.00027027
0.00105289 -5.90351e-05 1.17197e-05
-5.90351e-05 -7.82545e-05 -1.26411e-06
1.17197e-05 -1.26411e-06 -0.000215773
0.000408874 2.90071e-06 3.83154e-07
2.90071e-06 -0.000205651 6.90449e-08
3.83154e-07 6.90449e-08 -0.000289933
0.00619006 -0.000119361 -0.000315956
-0.000119361 0.00353305 1.19257e-05
-0.000315956 1.19257e-05 0.00355238
0.000417933 -4.34991e-05 1.86504e-05
-4.34991e-05 -0.000196489 -3.1304e-06
1.86504e-05 -3.1304e-06 -0.000285817
0.00626458 -4.31115e-05 -3.08699e-06
-4.31115e-05 0.00356836 2.73277e-06
-3.08699e-06 2.73277e-06 0.00359216
0.00635692 -0.000103846 0.000314107
-0.000103846 0.00362632 -1.42773e-05
0.000314107 -1.42773e-05 0.00364801
0.00179339 9.94449e-05 9.7332e-07
9.94449e-05 7.27105e-05 4.67763e-07
9.7332e-07 4.67763e-07 -4.11143e-05
0.00196511 0.00012323 -3.47818e-06
0.00012323 4.79935e-05 -7.14096e-07
-3.47818e-06 -7.14096e-07 -2.13761e-05
0.00196504 0.000134058 5.75375e-06
0.000134058 2.01529e-05 4.52781e-07
5.75375e-06 4.52781e-07 -1.61729e-05
0.00114558 8.76176e-05 -1.21334e-05
8.76176e-05 -1.5982e-05 -1.41428e-06
-1.21334e-05 -1.41428e-06 -0.000158051
0.00184051 0.000157659 2.54596e-07
0.000157659 0.000103256 -1.20241e-07
2.54596e-07 -1.20241e-07 -2.19528e-05
0.00198802 0.000185718 2.11363e-06
0.000185718 6.45667e-05 -1.03766e-06
2.11363e-06 -1.03766e-06 -1.67318e-05
0.000402184 4.70321e-05 -1.7367e-05
4.70321e-05 -0.000211664 -4.15819e-06
-1.7367e-05 -4.15819e-06 -0.000303566
0.00112113 0.000134689 3.47663e-07
0.000134689 -3.69789e-05 2.84106e-07
3.47663e-07 2.84106e-07 -0.000192298
0.0018522 0.000220095 5.67235e-07
0.000220095 0.000121205 -8.65939e-07
5.67235e-07 -8.65939e-07 -2.16992e-05
0.00647065 0.000231433 -0.000339564
0.000231433 0.00371497 -2.73577e-05
-0.000339564 -2.73577e-05 0.00372289
0.000407854 7.55289e-05 5.11099e-07
7.55289e-05 -0.000208659 1.92672e-07
5.11099e-07 1.92672e-07 -0.00030579
0.00108714 0.000175986 1.19366e-05
0.000175986 -6.06043e-05 3.49175e-06
1.19366e-05 3.49175e-06 -0.000229123
0.00669308 0.000290987 5.7104e-06
0.000290987 0.00385859 3.40701e-06
5.7104e-06 3.40701e-06 0.0038572
0.000422263 0.000102718 1.80959e-05
0.000102718 -0.000196361 8.99436e-06
1.80959e-05 8.99436e-06 -0.000298861
0.00688435 0.000318595 0.000331671
0.000318595 0.00398174 4.20041e-05
0.000331671 4.20041e-05 0.00397365
0.00106185 2.50892e-05 -1.24444e-05
2.50892e-05 -5.47868e-05 -6.37595e-07
-1.24444e-05 -6.37595e-07 -0.000185363
0.00182828 4.43606e-05 3.39008e-06
4.43606e-05 9.78574e-05 3.24841e-08
3.39008e-06 3.24841e-08 -2.28586e-06
0.00196537 5.30361e-05 -8.86113e-07
5.30361e-05 7.08705e-05 3.82066e-07
-8.86113e-07 3.82066e-07 5.05201e-06
0.0004714 3.2091e-05 -1.97743e-05
3.2091e-05 -0.000172667 -8.37404e-07
-1.97743e-05 -8.37404e-07 -0.000246569
0.00103137 -4.23147e-06 -2.39019e-07
-4.23147e-06 -8.22185e-05 2.8027e-08
-2.39019e-07 2.8027e-08 -0.000206583
0.00188835 5.46999e-06 4.38921e-06
5.46999e-06 0.000137419 2.11147e-07
4.38921e-06 2.11147e-07 3.8014e-05
0.00104868 -2.72973e-05 1.20978e-05
-2.72973e-05 -8.2378e-05 -5.14232e-07
1.20978e-05 -5.14232e-07 -0.000208923
0.000430536 -5.71302e-06 4.23902e-07
-5.71302e-06 -0.000190156 3.81289e-07
4.23902e-07 3.81289e-07 -0.000272267
0.00609916 1.60223e-05 -0.000318643
1.60223e-05 0.00346928 1.42583e-06
-0.000318643 1.42583e-06 0.00349555
0.000389063 1.45135e-05 1.81814e-05
1.45135e-05 -0.000219605 -1.13904e-06
1.81814e-05 -1.13904e-06 -0.000302491
0.00615331 -0.000117167 -7.8016e-06
-0.000117167 0.00351179 1.97183e-06
-7.8016e-06 1.97183e-06 0.00353067
0.00619734 -2.50232e-05 0.000301456
-2.50232e-05 0.00352682 -7.4671e-06
0.000301456 -7.4671e-06 0.00355073
0.00111228 5.16707e-05 -1.2305e-05
5.16707e-05 -2.89278e-05 -1.20799e-06
-1.2305e-05 -1.20799e-06 -0.000163071
0.00182515 9.65291e-05 -3.53018e-07
9.65291e-05 9.18898e-05 -3.35494e-07
-3.53018e-07 -3.35494e-07 -1.74524e-05
0.00195436 0.000120912 -1.79425e-06
0.000120912 3.39914e-05 -1.23713e-06
-1.79425e-06 -1.23713e-06 -2.96779e-05
0.00269015 6.36789e-05 -0.000147097
6.36789e-05 0.00121855 -5.3113e-06
-0.000147097 -5.3113e-06 0.00116585
0.0010972 8.90403e-05 3.35715e-07
8.90403e-05 -4.66504e-05 1.17331e-07
3.35715e-07 1.17331e-07 -0.000189635
0.00184294 0.000156127 4.8654e-07
0.000156127 0.000108375 -1.11137e-06
4.8654e-07 -1.11137e-06 -1.68676e-05
0.00631035 0.000168681 -0.000337326
0.000168681 0.00360965 -1.95572e-05
-0.000337326 -1.95572e-05 0.00362635
0.000438739 6.6603e-05 9.12323e-07
6.6603e-05 -0.000186725 4.52408e-07
9.12323e-07 4.52408e-07 -0.000280747
0.00109806 0.000136459 1.26587e-05
0.000136459 -5.1961e-05 2.46733e-06
1.26587e-05 2.46733e-06 -0.000208466
0.00656964 0.000247469 1.18291e-06
0.000247469 0.00377771 1.60445e-06
1.18291e-06 1.60445e-06 0.00378425
0.000445269 8.41716e-05 1.83092e-05
8.41716e-05 -0.000184142 6.96557e-06
1.83092e-05 6.96557e-06 -0.000283152
0.00674241 0.000325873 0.000339863
0.000325873 0.00390244 4.1594e-05
0.000339863 4.1594e-05 0.00389402
0.00054756 1.1994e-05 -1.57517e-05
1.1994e-05 -0.000114697 -2.01947e-06
-1.57517e-05 -2.01947e-06 -0.000197923
0.00103524 2.45377e-05 2.20955e-07
2.45377e-05 -7.5864e-05 2.16001e-07
2.20955e-07 2.16001e-07 -0.000204291
0.0018319 4.05074e-05 3.95725e-06
4.05074e-05 9.81998e-05 -4.10763e-08
3.95725e-06 -4.10763e-08 8.65127e-07
0.00594005 -0.000101742 -0.000301307
-0.000101742 0.00338863 3.83016e-06
-0.000301307 3.83016e-06 0.00340389
0.000427167 9.57295e-06 -5.82395e-07
9.57295e-06 -0.000195764 -9.03254e-08
-5.82395e-07 -9.03254e-08 -0.00027233
0.00102839 1.78305e-07 1.20581e-05
1.78305e-07 -8.64617e-05 6.64809e-09
1.20581e-05 6.64809e-09 -0.000210812
0.000386173 2.09124e-05 1.84544e-05
2.09124e-05 -0.000219248 3.3699e-07
1.84544e-05 3.3699e-07 -0.000300189
0.00604101 -1.95348e-05 2.00629e-06
-1.95348e-05 0.00343927 -1.59854e-06
2.00629e-06 -1.59854e-06 0.00346093
0.00614345 -3.9174e-05 0.00030744
-3.9174e-05 0.00349372 -5.18214e-06
0.00030744 -5.18214e-06 0.00351865
0.00277639 1.65851e-05 -0.000141386
1.65851e-05 0.0012713 -3.0463e-06
-0.000141386 -3.0463e-06 0.00122216
0.00108568 5.47889e-05 7.92487e-08
5.47889e-05 -4.6922e-05 -1.78645e-08
7.92487e-08 -1.78645e-08 -0.000181772
0.00185675 9.38565e-05 8.99996e-07
9.38565e-05 0.000111245 -7.99191e-07
8.99996e-07 -7.99191e-07 6.38451e-06
0.00579769 -3.42404e-05 -0.00013164
-3.42404e-05 0.00330274 3.04545e-07
-0.00013164 3.04545e-07 0.00329137
0.000444898 5.8663e-05 1.56477e-07
5.8663e-05 -0.000181231 2.40968e-07
1.56477e-07 2.40968e-07 -0.00026945
0.00106452 9.11047e-05 1.21202e-05
9.11047e-05 -6.8179e-05 1.592e-06
1.21202e-05 1.592e-06 -0.000212031
0.00639128 0.000144658 -1.04354e-05
0.000144658 0.00365436 -1.76493e-06
-1.04354e-05 -1.76493e-06 0.00367239
0.000461409 8.9451e-05 1.9677e-05
8.9451e-05 -0.000171813 5.87248e-06
1.9677e-05 5.87248e-06 -0.000266936
0.00662791 0.000271259 0.000346734
0.000271259 0.00382019 3.5343e-05
0.000346734 3.5343e-05 0.00382406
0.00179853 -5.36412e-05 -0.000239681
-5.36412e-05 0.000768882 1.30922e-06
-0.000239681 1.30922e-06 0.000768196
0.00160104 3.14784e-05 -6.0672e-05
3.14784e-05 0.000535817 1.01555e-07
-6.0672e-05 1.01555e-07 0.000474903
0.00100422 2.66139e-05 1.26452e-05
2.66139e-05 -9.91885e-05 7.28358e-07
1.26452e-05 7.28358e-07 -0.000225542
0.00601791 -4.83782e-05 6.8926e-06
-4.83782e-05 0.00343043 2.61047e-06
6.8926e-06 2.61047e-06 0.00345119
0.000443309 -1.16536e-05 1.90838e-05
-1.16536e-05 -0.000179202 8.51819e-07
1.90838e-05 8.51819e-07 -0.000259722
0.00608104 -8.27688e-05 0.000319983
-8.27688e-05 0.00346787 -4.88417e-06
0.000319983 -4.88417e-06 0.00348924
0.00135925 2.23881e-05 -6.19894e-05
2.23881e-05 0.000522353 -1.12288e-06
-6.19894e-05 -1.12288e-06 0.000483731
0.00159197 1.90464e-05 -6.15001e-05
1.90464e-05 0.000532777 -1.39286e-06
-6.15001e-05 -1.39286e-06 0.000467387
0.00105006 5.64296e-05 1.22057e-05
5.64296e-05 -7.03597e-05 1.16928e-06
1.22057e-05 1.16928e-06 -0.000205935
0.0038287 6.85612e-05 0.000119322
6.85612e-05 0.00205367 3.56502e-06
0.000119322 3.56502e-06 0.00204613
0.000456382 6.90724e-05 1.99191e-05
6.90724e-05 -0.00017413 4.46953e-06
1.99191e-05 4.46953e-06 -0.000262312
0.00648233 0.0001326 0.000330534
0.0001326 0.00370293 2.11895e-05
0.000330534 2.11895e-05 0.00372475
0.00597173 -1.99012e-05 -8.86148e-06
-1.99012e-05 0.00340494 -3.18151e-06
-8.86148e-06 -3.18151e-06 0.00342442
0.000438242 5.05119e-05 2.07055e-05
5.05119e-05 -0.000193562 2.55335e-06
2.07055e-05 2.55335e-06 -0.00026708
0.00592964 3.71459e-05 0.000308003
3.71459e-05 0.00337107 2.32931e-07
0.000308003 2.32931e-07 0.00339553
0.00370538 3.24132e-05 0.00013113
3.24132e-05 0.00198184 5.1336e-06
0.00013113 5.1336e-06 0.00197635
0.000468101 9.17155e-06 1.90641e-05
9.17155e-06 -0.000166277 2.73214e-06
1.90641e-05 2.73214e-06 -0.00024858
0.00625281 1.60706e-06 0.000316876
1.60706e-06 0.00356186 9.41737e-06
0.000316876 9.41737e-06 0.00358546
0.00602376 -0.000118336 0.000306065
-0.000118336 0.00344144 -4.23567e-06
0.000306065 -4.23567e-06 0.00345654
0.0060473 9.43508e-06 0.00030883
9.43508e-06 0.0034348 5.43845e-06
0.00030883 5.43845e-06 0.0034614
