# vtk DataFile Version 2.0
Wound Healing Simulation
ASCII
DATASET UNSTRUCTURED_GRID
POINTS 3012 float
69.9759 18.75 4
67.2507 60.3285 4
69.976 18.75 2
73.0099 25.446 4
71.1327 20.9142 4
68.6801 16.6661 4
67.8272 19.9193 3.99032
67.2507 60.3286 2
71.1327 54.0858 4
68.6801 58.3339 4
65.6939 62.2254 4
65.3136 59.0077 3.99181
74.6784 42.3946 4
73.7221 47.2057 4
69.9759 18.75 0
73.0099 25.446 2
68.6801 16.6661 2
71.1327 20.9142 2
67.8272 19.9193 2
74.6792 32.6053 4
73.7222 27.7943 4
72.1454 23.1494 4
70.6168 26.2189 3.98885
68.8878 21.9526 3.98975
67.2507 14.6715 4
66.6385 17.9646 3.99111
65.8046 21.0143 3.98628
67.2507 60.3285 0
71.1327 54.0858 2
68.6801 58.3339 2
65.694 62.2255 2
65.3136 59.0078 2
72.1454 51.8506 4
69.9759 56.25 4
68.8388 53.1183 3.98981
64.0165 64.0165 4
66.6122 57.1406 3.99127
63.887 60.7714 3.99236
63.5055 57.7853 3.98707
60.3285 67.2507 4
74.6792 42.3947 2
73.7222 47.2057 2
74.9194 39.9526 4
74.2788 44.8158 4
72.1707 42.0859 3.98877
73.0099 49.554 4
71.2522 46.5992 3.98914
73.0099 25.446 0
71.1327 20.9142 0
68.6801 16.6661 0
67.8272 19.9193 0.00968056
74.6792 32.6053 2
73.7222 27.7943 2
67.2508 14.6715 2
72.1455 23.1494 2
70.6168 26.2194 2
66.6385 17.9646 2
68.8879 21.9528 2
65.8046 21.0143 2
74.9197 35.0474 4
74.2794 30.1841 4
72.1872 32.9428 3.98883
71.2808 28.4303 3.98875
69.8181 24.056 3.98927
68.3553 26.9463 3.98446
66.7708 22.9243 3.98587
65.694 12.7746 4
65.3249 16.0967 3.99187
64.7202 19.1817 3.98676
63.9003 22.0189 3.98437
71.1327 54.0858 0
65.6939 62.2254 0
68.6801 58.3339 0
65.3136 59.0077 0.00818935
72.1455 51.8506 2
69.9759 56.25 2
68.8389 53.1183 2
64.0165 64.0165 2
66.6122 57.1407 2
63.887 60.7715 2
63.5056 57.7854 2
62.2254 65.694 4
58.8938 65.4176 3.9928
69.7717 50.9924 3.98931
67.7856 55.1738 3.99059
66.6584 52.2183 3.98608
62.337 62.4319 3.99265
64.6674 56.0441 3.98717
62.2063 59.418 3.98744
61.8323 56.7003 3.98542
58.3339 68.6801 4
60.3285 67.2508 2
73.7221 47.2057 0
74.6784 42.3946 0
74.9197 39.9526 2
74.2794 44.8159 2
72.1706 42.0854 2
73.0099 49.554 2
71.2522 46.5987 2
75 37.5 4
72.4077 39.8023 3.98856
71.7852 44.3535 3.98903
69.8123 41.7913 3.98376
70.5781 48.8156 3.98914
68.9213 46.0189 3.98435
74.6792 32.6053 0
73.7222 27.7943 0
67.2507 14.6715 0
72.1454 23.1494 0
70.6168 26.2189 0.0111505
68.8878 21.9526 0.0102514
66.6385 17.9646 0.00889405
65.8046 21.0143 0.0137245
74.9197 35.0474 2
74.2794 30.1841 2
72.1872 32.9434 2
71.2808 28.4308 2
65.694 12.7745 2
65.325 16.0967 2
69.8181 24.0563 2
68.3552 26.9463 2
64.7202 19.1818 2
66.7707 22.9244 2
63.9002 22.0191 2
72.4156 35.2239 3.98857
71.8064 30.6756 3.98893
69.848 33.2668 3.98376
68.9745 29.0345 3.98386
67.6198 24.905 3.98527
66.2092 27.6256 3.98261
64.0165 10.9835 4
64.7709 23.816 3.98406
63.8911 14.3217 3.99232
63.518 17.4326 3.98726
62.9185 20.3018 3.98471
62.1115 22.9221 3.98348
60.6843 11.0937 3.99255
57.6126 11.4379 3.98784
72.1454 51.8506 0
69.9759 56.25 0
68.8388 53.1183 0.0101924
64.0165 64.0165 0
63.887 60.7714 0.00763529
66.6122 57.1406 0.00872858
63.5055 57.7853 0.0129314
62.2255 65.694 2
58.8939 65.4177 2
69.7718 50.9922 2
67.7857 55.1739 2
66.6585 52.2182 2
62.3371 62.432 2
64.6675 56.0441 2
62.2064 59.4182 2
61.8324 56.7003 2
60.6689 63.9809 3.9927
57.0242 66.7378 3.99296
57.5578 63.6995 3.98814
67.5167 50.184 3.98542
65.7101 54.1843 3.98683
64.5532 51.4 3.98393
60.775 60.95 3.98793
62.8318 55.0863 3.98564
60.665 58.178 3.9854
60.3405 55.8092 3.98464
56.25 69.9759 4
58.3339 68.6801 2
60.3285 67.2507 0
58.9211 9.65231 3.99269
62.2254 9.30607 4
73.0099 49.554 0
74.2788 44.8158 0
71.2522 46.5992 0.0108636
72.1707 42.0859 0.0112331
74.9194 39.9526 0
75 37.5 2
72.4076 39.8021 2
71.7852 44.353 2
69.8121 41.7911 2
70.5781 48.8152 2
68.9213 46.0185 2
72.491 37.512 3.98851
70.0488 39.6581 3.98309
69.4391 43.9103 3.98414
67.6119 41.5013 3.9816
68.2752 48.1127 3.98482
66.7255 45.4475 3.98256
74.9197 35.0474 0
74.2794 30.1841 0
72.1872 32.9428 0.0111718
71.2808 28.4303 0.011252
65.694 12.7746 0
65.3249 16.0967 0.00813069
69.8181 24.056 0.0107311
68.3553 26.9463 0.0155391
66.7708 22.9243 0.0141315
64.7202 19.1817 0.0132439
63.9003 22.0189 0.0156324
72.4154 35.2244 2
71.8064 30.6761 2
69.8478 33.2669 2
68.9743 29.0346 2
64.0165 10.9835 2
63.8911 14.3217 2
63.518 17.4326 2
67.6198 24.9051 2
66.2089 27.6256 2
62.9184 20.302 2
64.7708 23.8161 2
62.1113 22.9224 2
60.6844 11.0937 2
57.6126 11.4377 2
70.0656 35.3912 3.9835
69.4754 31.147 3.98382
67.6696 33.5874 3.98156
66.7867 29.6158 3.98193
65.5388 25.6878 3.98343
64.167 28.2427 3.98197
62.3423 12.6505 3.99249
62.8772 24.6186 3.98335
62.2018 15.7709 3.98759
61.8224 18.6655 3.98533
61.2337 21.3188 3.98345
60.4494 23.7028 3.98331
59.2471 12.7679 3.98774
55.8741 10.2254 3.98825
56.4066 13.1004 3.98509
69.7717 50.9924 0.0106885
62.2254 65.694 0
58.8938 65.4176 0.00719638
67.7856 55.1738 0.00941018
66.6584 52.2183 0.0139151
62.337 62.4319 0.00734699
62.2063 59.418 0.0125576
64.6674 56.0441 0.012831
61.8323 56.7003 0.014583
60.669 63.981 2
57.0244 66.7379 2
57.5578 63.6998 2
67.5168 50.1838 2
65.7102 54.1843 2
64.5533 51.3999 2
60.7751 60.9503 2
62.832 55.0863 2
60.6652 58.1782 2
60.3407 55.8092 2
55.0697 67.9343 3.99315
59.2202 62.3763 3.98803
55.8036 64.9157 3.98836
56.3282 62.1004 3.98556
65.3479 49.4206 3.98336
63.7202 53.3093 3.98498
62.4638 50.6715 3.98281
59.3374 59.5731 3.98577
61.0929 54.332 3.98489
59.2984 57.0352 3.98409
59.2569 55.209 3.9848
48.1017 68.5814 3.98967
50.9477 69.9332 3.99352
54.0858 71.1327 4
56.25 69.976 2
58.3339 68.6801 0
57.0582 8.33255 3.99296
60.3285 7.74928 4
58.9213 9.65227 2
62.2255 9.30602 2
70.5781 48.8156 0.0108596
71.7852 44.3535 0.0109712
68.9213 46.0189 0.0156463
69.8123 41.7913 0.0162402
72.4077 39.8023 0.0114364
75 37.5 0
72.4909 37.5122 2
70.0485 39.6579 2
69.439 43.9099 2
67.6116 41.5012 2
68.2752 48.1125 2
66.7253 45.4474 2
70.1368 37.5215 3.98302
67.8482 39.5141 3.981
67.2389 43.4756 3.98212
65.5769 41.2154 3.98092
66.0848 47.4279 3.98297
64.6745 44.8593 3.9819
72.4156 35.2239 0.0114265
71.8064 30.6756 0.0110746
69.848 33.2668 0.0162422
68.9745 29.0345 0.0161395
64.0165 10.9835 0
63.8911 14.3217 0.00768451
63.518 17.4326 0.0127447
67.6198 24.905 0.0147254
66.2092 27.6256 0.0173914
64.7709 23.816 0.0159415
62.9185 20.3018 0.0152927
62.1115 22.9221 0.0165203
60.6843 11.0937 0.00744624
57.6126 11.4379 0.0121575
70.0653 35.3912 2
69.4752 31.1471 2
67.6692 33.5872 2
66.7863 29.6158 2
62.3424 12.6504 2
62.2019 15.7708 2
61.8225 18.6656 2
65.5386 25.6878 2
64.1666 28.2427 2
61.2336 21.3191 2
62.8768 24.6188 2
60.449 23.7032 2
59.2472 12.7678 2
56.4066 13.1002 2
55.8742 10.2251 2
67.8845 35.5457 3.98144
67.2798 31.6171 3.98181
65.7178 33.9223 3.98083
64.6835 30.1821 3.98091
63.559 26.3983 3.98276
62.2839 28.7618 3.98228
60.7768 14.2111 3.98771
61.0709 25.3154 3.98325
60.6182 17.1098 3.98573
60.2347 19.7934 3.98408
59.6815 22.2324 3.98261
59.0061 24.2932 3.98361
54.037 9.12917 3.98889
57.9124 14.3174 3.98541
54.7873 12.001 3.98508
55.3148 14.6314 3.98397
67.5167 50.184 0.0145845
57.0242 66.7378 0.00703628
60.6689 63.9809 0.00729907
57.5578 63.6995 0.0118641
65.7101 54.1843 0.0131659
64.5532 51.4 0.0160684
60.775 60.95 0.0120654
60.665 58.178 0.0146015
62.8318 55.0863 0.0143606
60.3405 55.8092 0.0153574
55.0698 67.9345 2
59.2202 62.3765 2
55.8036 64.916 2
56.3282 62.1006 2
65.3479 49.4205 2
63.7203 53.3093 2
62.4638 50.6713 2
59.3376 59.5734 2
61.093 54.3319 2
59.2986 57.0352 2
59.257 55.2089 2
53.0417 69.0018 3.99333
53.9655 66.0172 3.98864
57.8832 60.8834 3.98569
54.6838 63.2146 3.98567
55.2138 60.628 3.98436
63.2173 48.6779 3.98248
61.7613 52.5968 3.98401
60.302 50.0426 3.98218
58.0241 58.2803 3.98457
59.3456 53.9734 3.98416
58.1386 55.8388 3.9829
50.108 67.8597 3.98934
47.462 66.5849 3.9868
46.0558 69.1607 3.9899
48.1019 68.5818 2
48.8021 70.7243 3.9937
50.9479 69.9335 2
51.8506 72.1454 4
54.0858 71.1327 2
56.25 69.9759 0
55.1025 7.13736 3.99325
58.3339 6.31992 4
57.0583 8.33245 2
60.3286 7.74926 2
58.9211 9.65231 0.0073088
62.2254 9.30607 0
68.2752 48.1127 0.0151791
69.4391 43.9103 0.0158618
66.7255 45.4475 0.0174368
67.6119 41.5013 0.0183988
70.0488 39.6581 0.0169068
72.491 37.512 0.0114934
70.1364 37.5214 2
67.8477 39.5141 2
67.2386 43.4755 2
65.5763 41.2154 2
66.0847 47.4278 2
64.6741 44.8592 2
67.9443 37.522 3.98079
65.8076 39.3731 3.98052
65.1976 43.0336 3.9813
63.7826 40.9367 3.981
63.9884 46.7305 3.98221
62.8357 44.2298 3.98222
70.0656 35.3912 0.0164989
69.4754 31.147 0.0161831
67.6696 33.5874 0.018441
66.7867 29.6158 0.0180697
62.3423 12.6505 0.0075143
62.2018 15.7709 0.0124077
61.8224 18.6655 0.0146743
65.5388 25.6878 0.0165748
64.167 28.2427 0.01803
62.8772 24.6186 0.0166476
61.2337 21.3188 0.0165548
60.4494 23.7028 0.0166884
59.2471 12.7679 0.0122585
56.4066 13.1004 0.014913
55.8741 10.2254 0.0117499
67.884 35.5456 2
67.2794 31.617 2
65.7173 33.9221 2
64.683 30.182 2
60.7769 14.211 2
60.6183 17.1098 2
60.2347 19.7936 2
63.5586 26.3985 2
62.2832 28.7618 2
59.6812 22.2329 2
61.0704 25.3157 2
59.0056 24.2938 2
57.9125 14.3173 2
55.3148 14.6313 2
54.0371 9.12885 2
54.7873 12.0008 2
65.8965 35.6643 3.98064
65.2068 32.1468 3.98069
64.3089 34.2444 3.9801
62.6218 30.6228 3.98102
61.6781 27.0528 3.98264
60.8816 29.1225 3.98367
59.3138 15.6529 3.98567
59.3619 25.7715 3.98414
59.1311 18.3345 3.98483
58.7555 20.8284 3.98288
58.309 23.0642 3.98194
57.9984 24.6367 3.98441
52.1117 8.14792 3.98945
53.058 11.0078 3.98565
56.6794 15.7258 3.98463
53.811 13.6684 3.9834
54.3791 15.9827 3.98375
55.0697 67.9343 0.00685391
65.3479 49.4206 0.0166408
55.8036 64.9157 0.0116449
59.2202 62.3763 0.011966
56.3282 62.1004 0.0144366
63.7202 53.3093 0.015016
62.4638 50.6715 0.0171908
59.3374 59.5731 0.0142317
59.2984 57.0352 0.0159144
61.0929 54.332 0.015106
59.2569 55.209 0.0151996
53.0418 69.0019 2
53.9656 66.0175 2
57.8833 60.8837 2
54.6839 63.2149 2
55.2139 60.6283 2
63.2171 48.6777 2
61.7614 52.5967 2
60.3019 50.0423 2
58.0242 58.2805 2
59.3458 53.9733 2
58.1389 55.8387 2
52.0689 67.0031 3.98897
52.9525 64.2237 3.98578
56.6521 59.5043 3.98474
53.6822 61.6307 3.98436
54.2632 59.3347 3.98374
61.0239 47.9014 3.98192
59.7344 52.1306 3.98363
58.0597 49.644 3.98262
56.7847 57.0102 3.98305
57.1388 54.1512 3.98247
50.1082 67.86 2
49.3357 65.9251 3.98633
47.462 66.5853 2
46.8914 64.7405 3.98485
45.5572 67.1023 3.98721
43.9731 69.5933 3.99005
46.0559 69.1611 2
46.609 71.3687 3.99383
48.1017 68.5814 0.0103344
48.8022 70.7246 2
49.554 73.0099 4
50.9477 69.9332 0.00647507
51.8506 72.1455 2
54.0858 71.1327 0
53.0636 6.069 3.99357
55.1026 7.13721 2
56.25 5.02411 4
58.3339 6.3199 2
57.0582 8.33255 0.00703609
60.3285 7.74928 0
66.0848 47.4279 0.0170279
67.2389 43.4756 0.0178776
64.6745 44.8593 0.0180965
65.5769 41.2154 0.0190767
67.8482 39.5141 0.0189972
70.1368 37.5215 0.0169765
67.9438 37.5219 2
65.807 39.373 2
65.1972 43.0336 2
63.7819 40.9366 2
63.9882 46.7304 2
62.8352 44.2296 2
65.9102 37.5019 3.98015
63.9263 39.2707 3.98056
63.3568 42.5603 3.98121
62.4634 40.7059 3.98056
61.9973 45.9362 3.98223
61.4855 43.6985 3.98378
67.8845 35.5457 0.018559
67.2798 31.6171 0.0181933
65.7178 33.9223 0.0191735
64.6835 30.1821 0.0190915
60.7768 14.2111 0.0122869
60.6182 17.1098 0.0142718
60.2347 19.7934 0.0159229
63.559 26.3983 0.0172422
62.2839 28.7618 0.0177235
61.0709 25.3154 0.0167452
59.6815 22.2324 0.0173947
59.0061 24.2932 0.0163936
57.9124 14.3174 0.014594
55.3148 14.6314 0.0160278
54.037 9.12917 0.0111107
54.7873 12.001 0.0149209
65.8959 35.6641 2
65.2063 32.1466 2
64.3083 34.2442 2
62.621 30.6228 2
59.3139 15.6528 2
59.1312 18.3346 2
58.7554 20.8288 2
61.6775 27.053 2
60.8808 29.1225 2
58.3086 23.0648 2
59.3613 25.7719 2
57.9978 24.6374 2
56.6795 15.7258 2
54.3791 15.9827 2
53.811 13.6682 2
52.1118 8.14759 2
53.058 11.0075 2
64.1166 35.6294 3.98002
62.9586 33.0375 3.97984
60.6482 30.5961 3.98171
59.6066 27.8883 3.98343
57.9436 16.9648 3.98494
57.7741 25.6986 3.98526
57.7246 19.4529 3.98392
57.3895 21.8131 3.9814
57.2141 23.9183 3.98192
50.112 7.28029 3.98989
51.2322 10.1165 3.98619
52.1729 12.7863 3.98363
55.5409 16.9544 3.98434
52.9797 15.2502 3.98247
53.7613 16.9644 3.98388
53.0417 69.0018 0.00666657
53.9655 66.0172 0.0113572
63.2173 48.6779 0.0175229
54.6838 63.2146 0.014329
57.8832 60.8834 0.0143054
55.2138 60.628 0.0156391
61.7613 52.5968 0.015986
60.302 50.0426 0.0178201
58.0241 58.2803 0.0154343
58.1386 55.8388 0.0171047
59.3456 53.9734 0.0158375
52.069 67.0034 2
52.9525 64.224 2
56.6522 59.5045 2
53.6822 61.631 2
54.2633 59.3349 2
61.0237 47.9011 2
59.7345 52.1304 2
58.0596 49.6434 2
56.7849 57.0104 2
57.1391 54.1509 2
51.1667 65.1321 3.98596
52.0461 62.5443 3.98416
55.4851 58.2669 3.98412
52.8364 60.1448 3.98377
53.6437 58.4854 3.98371
58.3467 46.8723 3.98369
57.5883 51.8152 3.98237
56.2851 49.5822 3.98373
55.4822 55.8186 3.98174
55.3782 53.4114 3.98019
50.108 67.8597 0.0106649
49.3357 65.9255 2
48.6173 64.1266 3.98452
47.462 66.5849 0.0131993
45.5573 67.1028 2
46.8914 64.7409 2
46.3812 63.0577 3.98351
45.1316 65.2024 3.98518
43.6306 67.4734 3.98744
41.8606 69.881 3.99015
43.9732 69.5937 2
44.3765 71.8636 3.99396
46.0558 69.1607 0.0100988
46.609 71.369 2
47.2057 73.7222 4
48.8021 70.7243 0.00630259
49.554 73.0099 2
51.8506 72.1454 0
50.9534 5.12957 3.99373
53.0637 6.06882 2
54.0858 3.86728 4
55.1025 7.13736 0.00674686
56.25 5.02406 2
58.3339 6.31992 0
63.9884 46.7305 0.0177938
65.1976 43.0336 0.0187019
62.8357 44.2298 0.0177754
63.7826 40.9367 0.0190013
65.8076 39.3731 0.0194776
67.9443 37.522 0.0192062
65.9096 37.5018 2
63.9256 39.2706 2
63.3562 42.5602 2
62.4626 40.7058 2
61.9969 45.936 2
61.4849 43.6982 2
63.9863 37.4575 3.98046
62.1923 39.3601 3.9805
61.2548 41.9709 3.98157
60.2876 44.7885 3.9841
65.8965 35.6643 0.0193638
65.2068 32.1468 0.0193085
64.3089 34.2444 0.0198963
62.6218 30.6228 0.0189814
59.3138 15.6529 0.0143271
59.1311 18.3345 0.015174
58.7555 20.8284 0.017124
61.6781 27.0528 0.0173583
60.8816 29.1225 0.0163346
59.3619 25.7715 0.0158625
58.309 23.0642 0.0180563
57.9984 24.6367 0.0155855
56.6794 15.7258 0.0153659
54.3791 15.9827 0.0162533
53.811 13.6684 0.0166034
52.1117 8.14792 0.0105496
53.058 11.0078 0.0143539
64.116 35.6292 2
62.9578 33.0373 2
60.6473 30.596 2
57.9437 16.9648 2
57.7246 19.4532 2
57.3893 21.8137 2
59.6057 27.8886 2
57.2135 23.9191 2
57.7733 25.6992 2
50.1121 7.27999 2
55.541 16.9545 2
53.7614 16.9645 2
52.9798 15.2501 2
52.1729 12.786 2
51.2322 10.1162 2
62.2236 35.355 3.97981
60.3287 32.7339 3.97938
58.6633 30.0556 3.98264
57.3331 27.3551 3.98459
56.6413 18.1361 3.98445
56.3268 25.0735 3.98315
56.3694 20.4975 3.98242
56.1319 22.8412 3.97993
48.0559 6.52377 3.99008
49.3241 9.32463 3.98697
50.4335 11.9847 3.98419
51.3793 14.4869 3.98193
54.4189 17.9034 3.98376
52.3639 17.0222 3.98237
52.0689 67.0031 0.0110284
52.9525 64.2237 0.014216
61.0239 47.9014 0.0180836
53.6822 61.6307 0.0156394
56.6521 59.5043 0.0152621
54.2632 59.3347 0.0162571
59.7344 52.1306 0.0163682
58.0597 49.644 0.0173819
56.7847 57.0102 0.0169467
57.1388 54.1512 0.0175296
51.1667 65.1325 2
52.0462 62.5445 2
55.4853 58.2672 2
52.8364 60.1451 2
53.6438 58.4857 2
58.3462 46.8717 2
57.5884 51.8148 2
56.2849 49.5815 2
55.4825 55.8187 2
55.3784 53.4112 2
50.3457 63.3849 3.98422
51.2449 60.9413 3.98299
54.2247 57.282 3.98312
52.3154 58.6454 3.98304
56.7726 44.2048 3.98534
55.5396 47.9217 3.98304
55.1006 51.4184 3.97995
54.0187 54.571 3.97956
49.3357 65.9251 0.0136714
48.6173 64.1269 2
47.9616 62.4784 3.98339
45.5572 67.1023 0.0127868
46.8914 64.7405 0.0151504
43.6307 67.4739 2
46.3812 63.058 2
45.1316 65.2028 2
45.987 61.5898 3.98258
44.7663 63.4592 3.98368
43.3555 65.5124 3.9854
41.663 67.6928 3.98764
39.7024 70.0284 3.99018
41.8606 69.8815 2
42.1111 72.2085 3.994
43.9731 69.5933 0.00995016
44.3766 71.8639 2
44.8159 74.2794 4
46.609 71.3687 0.00616721
47.2057 73.7222 2
49.554 73.0099 0
48.784 4.32075 3.9939
50.9535 5.12938 2
51.8506 2.85458 4
53.0636 6.069 0.00643196
54.0858 3.86728 2
56.25 5.02411 0
61.9973 45.9362 0.0177741
63.3568 42.5603 0.018786
61.4855 43.6985 0.0162188
62.4634 40.7059 0.0194448
63.9263 39.2707 0.0194389
65.9102 37.5019 0.0198534
63.9856 37.4573 2
62.1914 39.36 2
61.254 41.9707 2
60.287 44.7881 2
62.0315 37.4451 3.98104
60.2932 39.8555 3.98035
59.0416 42.9357 3.98362
64.1166 35.6294 0.019979
62.9586 33.0375 0.0201599
60.6482 30.5961 0.0182873
57.9436 16.9648 0.0150628
57.7246 19.4529 0.0160847
57.3895 21.8131 0.0185999
59.6066 27.8883 0.0165656
57.7741 25.6986 0.014736
57.2141 23.9183 0.0180815
55.5409 16.9544 0.0156616
53.7613 16.9644 0.0161154
52.9797 15.2502 0.0175283
50.112 7.28029 0.0101115
52.1729 12.7863 0.0163703
51.2322 10.1165 0.0138109
62.2228 35.3548 2
60.3277 32.7338 2
58.6621 30.0557 2
56.6414 18.1362 2
56.3694 20.498 2
56.1315 22.842 2
57.332 27.3557 2
56.326 25.0746 2
48.056 6.52344 2
49.3241 9.32432 2
54.419 17.9035 2
52.3639 17.0223 2
51.3794 14.4868 2
50.4335 11.9844 2
59.9396 35.114 3.97992
58.0428 32.2537 3.9802
56.5953 29.3153 3.98408
55.4918 26.5714 3.98558
55.3485 19.1702 3.98356
54.9598 24.0281 3.97961
55.0172 21.5384 3.98059
45.962 5.87907 3.99029
43.3735 7.46844 3.98817
47.3546 8.61879 3.98748
48.6001 11.2862 3.98466
49.715 13.7339 3.98292
50.6354 16.1218 3.98082
53.1292 18.6443 3.98311
51.3061 18.0367 3.98231
51.1667 65.1321 0.0140401
52.0461 62.5443 0.0158362
58.3467 46.8723 0.0163109
52.8364 60.1448 0.0162299
55.4851 58.2669 0.0158778
53.6437 58.4854 0.0162851
57.5883 51.8152 0.0176305
56.2851 49.5822 0.0162735
55.4822 55.8186 0.0182567
55.3782 53.4114 0.0198111
50.3457 63.3852 2
51.2449 60.9415 2
54.2249 57.2823 2
52.3154 58.6458 2
56.7716 44.2041 2
55.5392 47.9208 2
55.1007 51.4178 2
54.0191 54.5711 2
49.5918 61.7482 3.9831
55.7107 41.7245 3.98144
50.5685 59.3348 3.98189
52.1908 56.5044 3.98166
54.2499 45.5852 3.98443
53.3879 49.3557 3.98059
52.6909 52.8785 3.97756
48.6173 64.1266 0.0154845
47.9616 62.4787 2
47.3292 61.0125 3.98261
43.6306 67.4734 0.0125603
45.1316 65.2024 0.0148218
46.3812 63.0577 0.016488
41.6631 67.6933 2
43.3556 65.5128 2
45.9869 61.5901 2
44.7663 63.4596 2
45.7659 60.6337 3.98179
44.4827 61.8396 3.98256
43.1455 63.7322 3.98394
41.5452 65.6507 3.98549
39.6324 67.773 3.98772
37.5261 70.0537 3.99014
39.7025 70.0288 2
39.8179 72.4057 3.99396
41.8606 69.881 0.00984809
42.1111 72.2088 2
42.3947 74.6792 4
44.3765 71.8636 0.00603752
44.8159 74.2794 2
47.2057 73.7222 0
43.8515 5.35619 3.99048
46.5701 3.64543 3.99407
48.7841 4.32055 2
49.554 1.99015 4
50.9534 5.12957 0.00626758
51.8506 2.85453 2
54.0858 3.86728 0
60.2876 44.7885 0.0159038
61.2548 41.9709 0.018432
62.1923 39.3601 0.0194972
63.9863 37.4575 0.0195414
62.0307 37.445 2
60.2922 39.8554 2
59.0407 42.9354 2
59.8146 37.5678 3.98206
58.0604 40.671 3.98096
55.1971 39.7308 3.98225
62.2236 35.355 0.0201869
60.3287 32.7339 0.0206223
58.6633 30.0556 0.0173596
56.6413 18.1361 0.0155464
56.3694 20.4975 0.0175803
56.1319 22.8412 0.020073
57.3331 27.3551 0.0154058
56.3268 25.0735 0.0168533
54.4189 17.9034 0.0162439
52.3639 17.0222 0.017633
51.3793 14.4869 0.018075
48.0559 6.52377 0.00992431
49.3241 9.32463 0.0130292
50.4335 11.9847 0.0158081
59.9387 35.1138 2
45.962 5.87874 2
43.3735 7.46813 2
58.0415 32.2536 2
56.5939 29.3156 2
55.3487 19.1704 2
55.0171 21.5391 2
54.9592 24.0293 2
55.4906 26.5725 2
47.3546 8.61841 2
48.6 11.2859 2
53.1294 18.6445 2
51.3062 18.0368 2
50.6355 16.1218 2
49.715 13.7336 2
57.4591 34.7519 3.98013
55.7876 31.4965 3.98166
54.5704 28.3767 3.98736
53.812 25.4687 3.98158
53.9764 20.1183 3.98274
53.6016 22.684 3.97751
41.3986 7.07371 3.98828
45.3594 7.99032 3.98786
42.8653 9.40961 3.9863
46.6663 10.6471 3.9854
47.7457 13.0943 3.98295
48.9329 15.3918 3.98176
50.0084 17.6912 3.97964
51.6579 19.315 3.98287
50.3457 63.3849 0.0157772
51.2449 60.9413 0.0170122
56.7726 44.2048 0.0146622
55.5396 47.9217 0.0169564
52.3154 58.6454 0.0169608
54.2247 57.282 0.0168805
55.1006 51.4184 0.0200488
54.0187 54.571 0.0204365
49.5918 61.7485 2
55.7091 41.7242 2
50.5684 59.3349 2
52.1911 56.5048 2
54.2489 45.5842 2
53.3877 49.3544 2
52.6913 52.8781 2
48.8494 60.2053 3.98239
52.6235 42.6584 3.98392
49.7919 57.6347 3.98168
50.6081 54.4383 3.97905
51.8892 47.2916 3.98029
51.2528 50.971 3.97623
48.3297 43.7283 3.97497
47.9616 62.4784 0.0166134
47.3292 61.0127 2
46.6187 59.7986 3.98181
41.663 67.6928 0.0123605
43.3555 65.5124 0.0145999
44.7663 63.4592 0.0163249
45.987 61.5898 0.0174222
39.6325 67.7735 2
41.5452 65.6511 2
45.7659 60.6339 2
43.1455 63.7326 2
44.4826 61.8399 2
44.6229 60.2958 3.98152
42.9498 62.0887 3.98243
41.5988 63.8259 3.98383
39.647 65.6195 3.9856
37.5634 67.7556 3.98756
31.698 65.138 3.98544
33.3928 67.4931 3.98747
35.3336 69.9638 3.99009
37.5261 70.0541 2
37.5097 72.4603 3.99393
39.7024 70.0284 0.00982261
39.8179 72.4059 2
39.9526 74.9197 4
42.1111 72.2085 0.00599566
42.3947 74.6792 2
44.8159 74.2794 0
41.7362 4.96533 3.99065
43.8515 5.35587 2
44.3255 3.10878 3.9942
46.5702 3.64522 2
47.2057 1.27793 4
48.784 4.32075 0.00610073
49.554 1.99013 2
51.8506 2.85458 0
59.0416 42.9357 0.0163831
60.2932 39.8555 0.0196476
62.0315 37.4451 0.0189644
59.8138 37.5677 2
58.0591 40.6709 2
55.1956 39.7305 2
56.9036 37.9 3.98257
49.787 41.2949 3.98129
53.2446 39.3146 3.98636
39.4421 6.79729 3.98852
59.9396 35.114 0.0200806
58.0428 32.2537 0.0197984
56.5953 29.3153 0.0159221
55.3485 19.1702 0.0164391
55.0172 21.5384 0.0194066
54.9598 24.0281 0.0203872
55.4918 26.5714 0.0144163
53.1292 18.6443 0.0168895
51.3061 18.0367 0.0176863
50.6354 16.1218 0.0191753
45.962 5.87907 0.00971338
49.715 13.7339 0.0170764
47.3546 8.61879 0.0125209
48.6001 11.2862 0.0153366
43.3735 7.46844 0.0118314
57.4578 34.7518 2
41.3987 7.07337 2
45.3595 7.99004 2
42.8653 9.40931 2
55.7859 31.4964 2
54.5686 28.3775 2
53.9766 20.1187 2
53.6014 22.6851 2
53.811 25.4702 2
46.6663 10.6468 2
47.7457 13.0941 2
51.658 19.3152 2
50.0085 17.6913 2
48.9329 15.3916 2
54.968 33.9561 3.98018
53.5689 30.4588 3.98665
52.6467 27.1713 3.98425
52.1746 24.0601 3.97909
52.4027 21.0556 3.98104
41.0134 9.04288 3.98651
44.7235 9.98976 3.9859
42.468 10.896 3.98474
46.0052 12.7219 3.98348
47.6824 14.5763 3.98231
48.115 16.9794 3.98007
49.821 19.5884 3.9785
49.5918 61.7482 0.0168974
50.5685 59.3348 0.0181106
55.7107 41.7245 0.0185611
54.2499 45.5852 0.0155745
53.3879 49.3557 0.0194137
52.1908 56.5044 0.0183393
52.6909 52.8785 0.022438
48.8494 60.2056 2
52.6215 42.658 2
49.792 57.6348 2
50.6087 54.4388 2
51.8884 47.2897 2
51.2531 50.9693 2
48.3248 43.7287 2
47.9876 58.747 3.98158
50.2138 45.2822 3.9783
48.6041 55.925 3.98106
49.1534 52.6147 3.97869
49.7293 49.0682 3.97575
46.196 39.9105 3.91826
46.5779 42.7716 3.98858
46.6295 45.7246 3.97792
44.0468 41.2513 3.97556
42.101 41.9909 3.97417
47.3292 61.0125 0.0173917
46.6186 59.7987 2
45.4681 58.7941 3.98042
39.6324 67.773 0.0122775
41.5452 65.6507 0.0145145
43.1455 63.7322 0.0160569
44.4827 61.8396 0.0174384
45.7659 60.6337 0.0182073
41.5988 63.8263 2
37.5634 67.7561 2
39.647 65.62 2
44.6229 60.296 2
42.9498 62.0891 2
41.7526 62.5 3.98259
42.4802 59.9872 3.98108
39.8925 63.5612 3.98335
37.642 65.5187 3.98555
35.4637 67.665 3.98752
33.576 65.3517 3.98552
31.9601 63.3098 3.98379
29.8842 64.7285 3.98509
31.698 65.1384 2
31.3776 67.2026 3.98745
33.3927 67.4935 2
33.1566 69.757 3.99
35.3335 69.9642 2
35.1951 72.3747 3.99388
37.5261 70.0537 0.00986299
37.5096 72.4606 2
37.5 75 4
39.8179 72.4057 0.00604323
39.9526 74.9197 2
42.3947 74.6792 0
39.6238 4.71257 3.99072
41.7362 4.965 2
42.0619 2.71642 3.99436
43.8515 5.35619 0.00951874
44.3255 3.10856 2
44.8158 0.721173 4
46.5701 3.64543 0.00593364
47.2057 1.27779 2
49.554 1.99015 0
58.0604 40.671 0.0190428
59.8146 37.5678 0.0179371
55.1971 39.7308 0.0177463
49.7852 41.295 2
56.9025 37.8999 2
53.243 39.314 2
54.0982 36.6234 3.98209
47.7086 40.4566 3.99483
50.7389 38.4814 3.98444
37.516 6.66849 3.98854
39.4421 6.79691 2
39.2111 8.68538 3.98665
35.9415 8.48518 3.98679
57.4591 34.7519 0.0198652
55.7876 31.4965 0.0183446
54.5704 28.3767 0.0126415
53.9764 20.1183 0.0172635
53.6016 22.684 0.0224923
53.812 25.4687 0.0184244
51.6579 19.315 0.0171346
50.0084 17.6912 0.0203632
48.9329 15.3918 0.0182385
45.3594 7.99032 0.0121362
47.7457 13.0943 0.0170547
46.6663 10.6471 0.0146012
41.3986 7.07371 0.0117191
42.8653 9.40961 0.0137016
54.9664 33.9558 2
41.0134 9.04252 2
44.7234 9.98953 2
42.468 10.8957 2
53.5666 30.458 2
52.645 27.1731 2
52.4029 21.0558 2
52.174 24.0615 2
46.0051 12.7217 2
47.6824 14.5761 2
49.8211 19.5888 2
48.1151 16.9793 2
52.5174 32.8489 3.9829
51.4223 29.1311 3.9883
50.839 25.6984 3.97701
49.9523 22.1647 3.97973
40.5689 11.5995 3.98418
43.8578 11.911 3.98402
45.8032 15.4119 3.98171
47.5065 19.2133 3.97922
46.5248 37.5052 3.91742
48.8494 60.2053 0.0176053
49.7919 57.6347 0.0183155
52.6235 42.6584 0.0160823
51.8892 47.2916 0.0197141
51.2528 50.971 0.0237745
50.6081 54.4383 0.0209481
48.3297 43.7283 0.0250295
47.9876 58.7472 2
50.2118 45.2804 2
48.6043 55.925 2
49.1539 52.6156 2
49.7291 49.066 2
46.1985 39.913 2
46.5849 42.7745 2
46.6262 45.7207 2
44.0523 41.2487 2
42.1081 41.9932 2
46.84 57.3488 3.98206
44.8101 39.5083 3.96924
42.4699 40.8663 3.98638
48.1798 47.2622 3.98089
47.1801 54.2569 3.98147
47.6268 50.7763 3.97834
44.8985 47.3382 3.97661
45.2629 42.0298 3.92473
45.038 44.6616 3.98326
42.8378 42.7463 3.9676
40.9532 42.3623 3.97353
46.6187 59.7986 0.0181939
45.468 58.7941 2
43.8757 57.7168 3.97988
37.5634 67.7556 0.0124418
39.647 65.6195 0.0144033
41.5988 63.8259 0.0161685
42.9498 62.0887 0.0175719
44.6229 60.2958 0.0184804
35.4637 67.6655 2
41.7526 62.5003 2
39.8925 63.5616 2
37.642 65.5192 2
42.4802 59.9875 2
40.6223 61.6577 3.98248
40.4436 58.2154 3.97892
37.8362 63.2228 3.98366
35.5732 65.4409 3.98544
33.576 65.3521 2
31.9601 63.3102 2
33.6295 63.3498 3.98394
30.3791 62.8678 3.98349
32.1233 62.0153 3.98245
26.868 61.5098 3.98245
28.063 64.1559 3.98464
29.8842 64.7289 2
29.4074 66.766 3.98718
31.698 65.138 0.0145639
31.3776 67.203 2
31.014 69.4219 3.98988
33.3928 67.4931 0.0125305
33.1565 69.7574 2
32.8922 72.1489 3.99386
35.3336 69.9638 0.00991441
35.1951 72.375 2
35.0474 74.9194 4
37.5097 72.4603 0.0060736
37.5 75 2
39.9526 74.9197 0
35.6206 6.71947 3.9885
37.523 4.61214 3.99072
39.6238 4.71225 2
39.7885 2.47294 3.99442
41.7362 4.96533 0.00935195
42.062 2.71619 2
42.3946 0.32156 4
44.3255 3.10878 0.00580058
44.8159 0.72056 2
47.2057 1.27793 0
49.787 41.2949 0.0187138
56.9036 37.9 0.0174342
53.2446 39.3146 0.0136421
47.7067 40.4528 2
50.7366 38.4814 2
54.0968 36.6233 2
51.5216 35.5655 3.9715
48.3713 37.7585 3.99934
46.1907 35.1015 3.92
44.0381 33.7629 3.9771
42.0868 33.0345 3.97822
37.4578 8.52708 3.98676
37.5159 6.66809 2
39.4421 6.79729 0.0114833
39.211 8.68498 2
38.976 10.1178 3.98582
35.8979 9.76454 3.98587
34.1498 8.81459 3.9866
35.9414 8.48482 2
54.968 33.9561 0.0198169
53.5689 30.4588 0.0133532
52.6467 27.1713 0.01575
52.4027 21.0556 0.0189582
52.1746 24.0601 0.0209149
49.821 19.5884 0.0215015
48.115 16.9794 0.019933
47.6824 14.5763 0.0176859
44.7235 9.98976 0.0140954
46.0052 12.7219 0.0165199
41.0134 9.04288 0.0134859
42.468 10.896 0.0152569
52.5155 32.8478 2
40.5688 11.5993 2
43.8578 11.9108 2
51.4197 29.1335 2
50.8379 25.7006 2
49.9525 22.1657 2
45.8032 15.4118 2
47.5066 19.2133 2
50.1304 31.3813 3.97663
49.3605 27.4563 3.97718
49.4379 24.3798 3.97785
47.1945 21.9166 3.97745
38.3014 12.7247 3.98316
42.1009 14.2959 3.9821
44.8021 18.4496 3.97977
45.0831 37.5066 3.96292
46.5305 37.5065 2
47.9876 58.747 0.0184188
48.6041 55.925 0.0189388
50.2138 45.2822 0.0217012
49.7293 49.0682 0.0242502
49.1534 52.6147 0.021307
46.196 39.9105 0.0817449
46.5779 42.7716 0.0114213
46.6295 45.7246 0.022075
44.0468 41.2513 0.0244412
42.101 41.9909 0.0258301
46.8401 57.349 2
44.8147 39.5051 2
42.472 40.8655 2
48.1786 47.2597 2
47.1802 54.2568 2
47.6271 50.7763 2
44.8985 47.3298 2
45.2662 42.0316 2
45.0498 44.6669 2
42.8492 42.7407 2
40.9599 42.3594 2
45.4006 55.9336 3.97941
42.7989 39.261 3.98909
40.9001 40.816 3.95129
46.1559 48.9386 3.98006
45.5673 52.5551 3.984
43.5282 48.4778 3.9488
43.42 46.2106 4.00105
43.8011 43.8318 3.92156
41.3035 43.9034 3.9856
39.3183 42.6601 3.96325
45.4681 58.7941 0.0195818
43.8756 57.7168 2
42.1063 56.3383 3.97951
35.4637 67.665 0.0124843
37.642 65.5187 0.0144452
39.8925 63.5612 0.0166457
41.7526 62.5 0.0174149
42.4802 59.9872 0.0189173
35.5732 65.4414 2
40.6223 61.658 2
37.8361 63.2232 2
40.4437 58.2156 2
38.9249 56.5027 3.97922
38.2499 60.3406 3.98171
35.6069 63.2163 3.98368
33.576 65.3517 0.014479
31.9601 63.3098 0.0162064
33.6294 63.3502 2
30.3791 62.8681 2
32.1233 62.0156 2
28.6813 62.2123 3.98307
33.3459 61.5277 3.9822
31.066 61.2315 3.98205
27.5657 59.606 3.982
23.7872 59.0989 3.98481
25.0325 60.8835 3.98301
26.868 61.5101 2
26.2293 63.4875 3.98414
28.063 64.1562 2
27.4641 66.1895 3.98678
29.8842 64.7285 0.0149145
29.4073 66.7664 2
28.9065 68.9472 3.98976
31.3776 67.2026 0.0125459
31.0139 69.4222 2
30.6147 71.7799 3.9938
33.1566 69.757 0.0100032
32.8922 72.1492 2
32.6054 74.6784 4
35.1951 72.3747 0.00611947
35.0474 74.9197 2
37.5 75 0
33.7232 6.97401 3.9882
35.4344 4.68252 3.99067
35.6205 6.7191 2
37.5141 2.3856 3.99445
37.523 4.6118 2
39.6238 4.71257 0.00928204
39.7885 2.4727 2
39.9526 0.0806499 4
42.0619 2.71642 0.00563613
42.3947 0.320817 2
44.8158 0.721173 0
44.8118 35.5045 3.96844
42.4613 34.1559 3.98836
47.7086 40.4566 0.00516654
50.7389 38.4814 0.0155617
54.0982 36.6234 0.017914
48.3692 37.7581 2
51.5199 35.5652 2
46.1886 35.0998 2
44.0454 33.7632 2
42.0921 33.0336 2
48.5397 34.2419 4.00618
45.2488 32.9848 3.92248
42.8273 32.2725 3.97072
40.9377 32.6711 3.97636
37.3099 10.6208 3.98509
37.4577 8.52664 2
37.516 6.66849 0.0114627
39.2111 8.68538 0.0133471
38.9759 10.1174 2
34.7531 10.3702 3.98511
35.8978 9.76423 2
32.3765 9.36107 3.98606
34.1498 8.81426 2
35.9415 8.48518 0.0132144
52.5174 32.8489 0.0171019
51.4223 29.1311 0.0117005
50.839 25.6984 0.0229862
49.9523 22.1647 0.0202716
47.5065 19.2133 0.0207788
45.8032 15.4119 0.0182896
43.8578 11.911 0.0159817
40.5689 11.5995 0.0158171
50.1274 31.3815 2
38.3013 12.7244 2
42.1008 14.2957 2
49.3584 27.4585 2
49.4374 24.3811 2
47.1945 21.9185 2
44.8021 18.4495 2
47.9143 29.5904 3.97101
47.1407 25.1063 3.97873
44.2936 21.305 3.9781
36.581 12.921 3.9834
38.6803 14.7955 3.982
41.7504 17.8263 3.9803
42.9251 37.5001 3.99302
45.0909 37.5063 2
46.5248 37.5052 0.0825834
46.84 57.3488 0.0179441
47.1801 54.2569 0.0185307
48.1798 47.2622 0.0191054
47.6268 50.7763 0.0216634
44.8101 39.5083 0.0307636
45.2629 42.0298 0.0752723
45.038 44.6616 0.0167407
44.8985 47.3382 0.0233882
42.8378 42.7463 0.032395
42.4699 40.8663 0.0136156
40.9532 42.3623 0.0264652
45.4008 55.9337 2
42.8015 39.2598 2
40.9005 40.8151 2
46.1563 48.9363 2
45.5677 52.5538 2
43.528 48.4768 2
43.4524 46.2201 2
43.8042 43.8342 2
41.3075 43.8947 2
39.3211 42.6622 2
43.741 54.4412 3.98341
40.9752 39.1873 3.9412
39.2359 40.8796 3.93506
43.7503 50.5305 3.98992
42.03 47.7355 4.02859
41.9431 45.2182 3.92259
39.5159 44.6574 3.97667
37.504 42.7706 3.96446
43.8757 57.7168 0.0201234
42.1063 56.3379 2
40.4203 54.9374 3.97853
35.5732 65.4409 0.0145595
37.8362 63.2228 0.0163384
40.6223 61.6577 0.017524
40.4436 58.2154 0.0210823
35.6069 63.2167 2
38.2499 60.3409 2
38.9248 56.5039 2
37.9994 55.2553 3.97814
36.9343 57.6392 3.97901
35.3634 60.9261 3.98229
33.6295 63.3498 0.016065
30.3791 62.8678 0.0165139
32.1233 62.0153 0.0175485
33.3459 61.528 2
28.6813 62.2126 2
31.066 61.2317 2
29.4015 60.2999 3.98136
32.3552 59.7577 3.98138
28.0174 58.3848 3.98334
27.5657 59.6062 2
25.3743 58.6085 3.98267
22.7493 58.26 3.98213
23.3972 60.3649 3.98371
23.7871 59.0992 2
25.0325 60.8838 2
24.4312 62.7801 3.98425
26.868 61.5098 0.0175468
26.2292 63.4879 2
25.5481 65.4992 3.98625
28.063 64.1559 0.0153618
27.4641 66.1899 2
26.8364 68.3355 3.98959
29.4074 66.766 0.0128197
28.9064 68.9476 2
28.3699 71.2651 3.99373
31.014 69.4219 0.0101172
30.6146 71.7802 2
30.1842 74.2788 4
32.8922 72.1489 0.00614401
32.6053 74.6792 2
35.0474 74.9194 0
31.7876 7.41347 3.98788
33.3464 4.92163 3.99051
33.7231 6.97362 2
35.2444 2.46175 3.99438
35.4344 4.68217 2
35.6206 6.71947 0.0114955
37.5 0 4
37.5141 2.38536 2
37.523 4.61214 0.00927653
39.7885 2.47294 0.0055803
39.9526 0.0802889 2
42.3946 0.32156 0
42.7993 35.7466 3.99035
44.8121 35.5064 2
40.8923 34.216 3.95309
42.4645 34.1541 2
48.3713 37.7585 0.00066071
51.5216 35.5655 0.0285009
46.1907 35.1015 0.0799977
44.0381 33.7629 0.0228987
42.0868 33.0345 0.0217826
48.5378 34.243 2
45.2511 32.9792 2
42.8356 32.2745 2
40.9426 32.6681 2
46.465 31.4856 3.99803
43.7843 31.183 3.92225
41.2936 31.1279 3.98046
39.2996 32.3858 3.97056
35.6914 11.7654 3.98382
37.3098 10.6204 2
37.4578 8.52708 0.0132446
38.976 10.1178 0.0141814
33.0969 11.2067 3.98437
34.753 10.37 2
35.8979 9.76454 0.0141285
30.4812 10.009 3.98561
32.3764 9.36083 2
34.1498 8.81459 0.0133964
50.1304 31.3813 0.0233716
49.3605 27.4563 0.0228151
49.4379 24.3798 0.0221467
47.1945 21.9166 0.0225469
44.8021 18.4496 0.0202311
42.1009 14.2959 0.0178999
38.3014 12.7247 0.0168383
36.581 12.9209 2
47.9107 29.5926 2
38.6802 14.7955 2
41.7502 17.8261 2
47.1398 25.1074 2
44.2935 21.305 2
45.6557 27.8105 3.97418
43.8248 24.039 3.98069
41.3447 20.7049 3.97934
35.7704 14.7461 3.9823
38.681 17.5825 3.98083
41.019 37.4978 3.93902
42.9297 37.5 2
45.0831 37.5066 0.037077
45.4006 55.9336 0.020592
45.5673 52.5551 0.0159966
46.1559 48.9386 0.0199432
42.7989 39.261 0.0109095
43.8011 43.8318 0.0784393
43.42 46.2106 -0.00105038
43.5282 48.4778 0.0511987
41.3035 43.9034 0.0143969
40.9001 40.816 0.0487052
39.3183 42.6601 0.03675
43.7415 54.4412 2
40.976 39.1862 2
39.2358 40.8821 2
43.7496 50.5324 2
42.0315 47.7369 2
41.9494 45.2185 2
37.5046 42.7733 2
39.5222 44.6602 2
41.8899 53.0053 3.98272
39.2304 39.179 3.94056
37.5062 40.9291 3.94672
35.692 42.6816 3.96704
40.9908 49.7508 3.99771
39.8273 46.095 3.92568
37.4984 44.9328 3.97014
42.1063 56.3383 0.0204938
40.42 54.9373 2
38.73 53.8632 3.98127
35.6069 63.2163 0.0163229
38.2499 60.3406 0.018294
38.9249 56.5027 0.0207838
35.3633 60.9263 2
36.9341 57.6394 2
37.9992 55.2552 2
36.3184 55.3936 3.97868
34.4867 58.5345 3.98084
33.3459 61.5277 0.0178007
28.6813 62.2123 0.0169314
31.066 61.2315 0.0179542
32.3552 59.7578 2
29.4015 60.3001 2
30.2934 57.8276 3.98138
28.0174 58.3849 2
26.9353 56.8366 3.98142
27.5657 59.606 0.0179997
25.3741 58.6088 2
23.8278 56.8253 3.98085
21.3237 57.423 3.9834
21.9884 59.6399 3.98434
22.7491 58.2603 2
22.7342 62.0324 3.98431
23.3972 60.3652 2
23.7872 59.0989 0.0151884
25.0325 60.8835 0.0169923
24.4312 62.7804 2
23.6817 64.7174 3.98584
26.2293 63.4875 0.0158628
25.5481 65.4996 2
24.809 67.5967 3.98936
27.4641 66.1895 0.0132174
26.8363 68.3358 2
26.1653 70.6059 3.99363
28.9065 68.9472 0.0102354
28.3698 71.2653 2
27.7943 73.7221 4
30.6147 71.7799 0.00619985
30.1841 74.2794 2
32.6054 74.6784 0
29.8102 7.98649 3.98746
31.2516 5.32854 3.9903
31.7875 7.41316 2
32.9803 2.69982 3.99427
33.3464 4.92125 2
33.7232 6.97401 0.0117962
35.0474 0.080333 4
35.2444 2.46151 2
35.4344 4.68252 0.00933328
37.5 0 2
37.5141 2.3856 0.00554649
39.9526 0.0806499 0
40.9781 35.8204 3.94294
42.7996 35.7465 2
44.8118 35.5045 0.0315635
28.5421 10.6841 3.98512
39.2264 34.1628 3.94005
40.8931 34.2135 2
42.4613 34.1559 0.0116356
48.5397 34.2419 -0.00618457
45.2488 32.9848 0.07752
42.8273 32.2725 0.0292782
40.9377 32.6711 0.0236365
46.4711 31.4825 2
43.7843 31.1789 2
41.3006 31.128 2
39.3027 32.3812 2
44.4655 29.6632 3.99207
41.9269 29.8113 3.92724
39.5017 30.4052 3.97315
37.4823 32.2944 3.96918
34.0911 12.9232 3.9831
35.6914 11.7653 2
37.3099 10.6208 0.0149106
31.185 11.9749 3.98409
33.0969 11.2066 2
34.7531 10.3702 0.0148853
30.4812 10.0087 2
32.3765 9.36107 0.0139428
47.9143 29.5904 0.0289896
47.1407 25.1063 0.0212721
36.581 12.921 0.0165997
44.2936 21.305 0.0218958
41.7504 17.8263 0.019703
38.6803 14.7955 0.0179982
35.7705 14.7464 2
45.6527 27.8161 2
38.6808 17.5832 2
41.3442 20.7043 2
43.8242 24.044 2
33.6059 15.8634 3.98243
43.1259 26.5347 3.97953
40.928 23.2782 3.98079
38.4226 20.3111 3.98068
35.8467 17.496 3.98096
39.2384 37.5019 3.93877
41.0209 37.4965 2
42.9251 37.5001 0.00697895
43.741 54.4412 0.0165858
43.7503 50.5305 0.0100754
40.9752 39.1873 0.0588025
41.9431 45.2182 0.0774086
42.03 47.7355 -0.0285941
39.5159 44.6574 0.0233318
39.2359 40.8796 0.064935
37.504 42.7706 0.0355415
41.8899 53.0063 2
39.2308 39.1801 2
37.5058 40.9324 2
40.9892 49.7503 2
35.6893 42.6832 2
39.8342 46.1002 2
37.5012 44.9289 2
39.829 51.9185 3.98748
37.5021 39.1994 3.9374
35.7792 40.9029 3.93124
34.0575 42.3858 3.97542
35.476 44.6639 3.97104
38.7771 48.8239 4.03827
37.5055 46.4092 3.91816
40.4203 54.9374 0.021472
38.7298 53.8618 2
36.7171 53.2157 3.98269
35.3634 60.9261 0.0177147
36.9343 57.6392 0.020987
37.9994 55.2553 0.0218589
34.4866 58.5345 2
36.3183 55.3933 2
33.2216 55.514 3.9809
32.3552 59.7577 0.01862
29.4015 60.2999 0.0186369
30.2934 57.8278 2
28.6733 55.3198 3.97894
28.0174 58.3848 0.0166633
26.9351 56.8369 2
25.2917 55.1626 3.97981
21.79 55.3736 3.98098
25.3743 58.6085 0.0173347
23.8274 56.8255 2
20.2067 57.0551 3.98459
20.6381 58.8007 3.98462
21.3235 57.4231 2
21.1632 61.1846 3.98512
21.9883 59.6402 2
22.7493 58.26 0.0178735
21.8945 63.8459 3.98576
22.7342 62.0326 2
23.3972 60.3649 0.0162883
24.4312 62.7801 0.0157494
23.6817 64.7178 2
22.8374 66.7406 3.98898
25.5481 65.4992 0.0137483
24.8089 67.5971 2
24.0097 69.8071 3.99352
26.8364 68.3355 0.0104115
26.1652 70.6061 2
25.446 73.0099 4
28.3699 71.2651 0.00626573
27.7943 73.7222 2
30.1842 74.2788 0
27.8201 8.64581 3.98722
29.1537 5.87406 3.99001
29.8101 7.98614 2
30.7256 3.09685 3.99411
31.2516 5.32821 2
31.7876 7.41347 0.0121167
32.6053 0.320823 4
32.9802 2.69957 2
33.3464 4.92163 0.00948513
35.0474 0.0802903 2
35.2444 2.46175 0.00561606
37.5 0 0
39.234 35.8375 3.94178
40.9776 35.8185 2
42.7993 35.7466 0.00964582
28.5421 10.6839 2
26.6211 11.3796 3.98474
29.2239 12.6317 3.98363
37.4947 34.1301 3.95686
39.2268 34.159 2
40.8923 34.216 0.0469072
46.465 31.4856 0.00196565
43.7843 31.183 0.0777529
41.2936 31.1279 0.0195419
39.2996 32.3858 0.0294441
44.4757 29.6561 2
41.9371 29.8076 2
39.5069 30.4021 2
37.4844 32.2877 2
42.3684 28.3554 3.99785
39.8181 28.9535 3.92361
37.474 30.1317 3.96066
35.6695 32.3822 3.97234
31.9125 14.4691 3.98256
34.0911 12.9232 2
35.6914 11.7654 0.0161756
31.185 11.9747 2
33.0969 11.2067 0.0156327
30.4812 10.009 0.0143922
45.6557 27.8105 0.0258155
43.8248 24.039 0.0193069
35.7704 14.7461 0.0177014
41.3447 20.7049 0.0206573
38.681 17.5825 0.0191658
33.6059 15.8637 2
35.8467 17.4964 2
43.124 26.5416 2
38.4221 20.3134 2
40.9277 23.2778 2
33.5477 17.3726 3.98207
40.4912 25.6258 3.98521
38.0846 22.8412 3.98759
35.5824 20.0646 3.9815
37.5025 37.5158 3.93751
39.2397 37.5015 2
41.019 37.4978 0.0609775
41.8899 53.0053 0.0172836
40.9908 49.7508 0.00228641
39.2304 39.179 0.0594379
39.8273 46.095 0.0743247
37.4984 44.9328 0.029864
37.5062 40.9291 0.0532834
35.692 42.6816 0.0329575
39.8295 51.9176 2
37.5027 39.201 2
35.7785 40.9056 2
38.7716 48.8277 2
34.0515 42.3859 2
35.475 44.6629 2
37.5005 46.4194 2
37.667 51.0034 3.97531
35.7783 39.205 3.93667
34.121 40.8434 3.95027
32.9092 42.0177 3.9774
33.6885 43.9301 3.97943
35.1767 46.1095 3.92389
36.9036 48.4317 4.02917
38.73 53.8632 0.0187319
36.7169 53.2151 2
34.3474 52.4839 3.9832
34.4867 58.5345 0.0191614
36.3184 55.3936 0.0213184
33.2215 55.5135 2
30.4977 53.4147 3.98019
30.2934 57.8276 0.0186212
28.6729 55.3201 2
26.8533 53.4635 3.978
26.9353 56.8366 0.0185765
25.2912 55.1627 2
23.5426 53.5102 3.97776
20.4365 53.2604 3.98019
19.9158 55.8605 3.98372
21.7895 55.3736 2
23.8278 56.8253 0.0191462
19.4288 57.9156 3.98442
20.2064 57.0552 2
19.7015 60.2207 3.98502
20.6379 58.8009 2
21.3237 57.423 0.0166035
20.206 62.8687 3.98615
21.1631 61.1848 2
21.9884 59.6399 0.0156566
20.9387 65.7701 3.98874
21.8945 63.8462 2
22.7342 62.0324 0.0156932
23.6817 64.7174 0.0141564
22.8373 66.7409 2
21.9124 68.8744 3.99333
24.809 67.5967 0.0106411
24.0096 69.8073 2
23.1494 72.1454 4
26.1653 70.6059 0.00637142
25.446 73.0099 2
27.7943 73.7221 0
25.8595 9.37398 3.98662
27.0686 6.53787 3.98977
27.8201 8.64555 2
28.4878 3.64265 3.99394
29.1536 5.87372 2
29.8102 7.98649 0.0125385
30.1841 0.720592 4
30.7255 3.09664 2
31.2516 5.32854 0.00970143
32.6053 0.320817 2
32.9803 2.69982 0.00573004
35.0474 0.080333 0
37.5027 35.84 3.94164
39.2335 35.8353 2
40.9781 35.8204 0.0570627
24.7759 12.0629 3.98436
23.7494 14.348 3.98326
28.5421 10.6841 0.0148808
26.6211 11.3795 2
29.2239 12.6316 2
27.2899 13.365 3.98337
29.7785 14.1912 3.98277
35.7682 34.1556 3.94013
37.4951 34.1248 2
39.2264 34.1628 0.0599485
37.4823 32.2944 0.0308226
44.4655 29.6632 0.00792949
41.9269 29.8113 0.0727562
39.5017 30.4052 0.0268529
42.3755 28.3455 2
39.8252 28.9479 2
37.4762 30.1237 2
35.6705 32.3784 2
40.0485 27.5412 4.00959
37.4849 28.6605 3.92053
35.4463 30.4051 3.97128
34.0406 32.6695 3.97581
30.9235 16.8271 3.98202
31.9126 14.4693 2
34.0911 12.9232 0.0168953
31.185 11.9749 0.0159077
43.1259 26.5347 0.020468
40.928 23.2782 0.0192103
33.6059 15.8634 0.017571
35.8467 17.496 0.0190427
38.4226 20.3111 0.0193154
33.5476 17.373 2
35.5824 20.0651 2
40.4889 25.633 2
38.0845 22.846 2
32.8596 19.7812 3.97978
37.7882 25.1382 3.99857
35.2043 22.6247 3.97775
35.7696 37.5239 3.93581
37.504 37.515 2
39.2384 37.5019 0.061227
39.829 51.9185 0.0125245
38.7771 48.8239 -0.0382695
37.5021 39.1994 0.062596
37.5055 46.4092 0.081844
35.476 44.6639 0.0289556
35.7792 40.9029 0.0687552
34.0575 42.3858 0.0245812
37.6675 51.0097 2
35.7791 39.2064 2
34.1195 40.8441 2
36.8996 48.435 2
32.9029 42.0183 2
33.6854 43.9263 2
35.1679 46.114 2
35.4147 50.1542 3.97778
34.0414 39.2198 3.93791
32.5424 40.8943 3.98754
32.1622 42.7759 3.96746
33.07 45.2451 3.92499
34.2806 47.5326 4.00786
36.7171 53.2157 0.017312
34.3471 52.4849 2
31.9621 51.2116 3.97989
33.2216 55.514 0.019097
30.4973 53.4167 2
28.387 51.6448 3.97871
28.6733 55.3198 0.0210585
26.8527 53.4646 2
25.0351 51.8024 3.9761
25.2917 55.1626 0.0201923
23.5419 53.5099 2
21.9216 51.8483 3.97909
19.1617 51.6731 3.98066
18.8979 54.34 3.98191
20.4362 53.2599 2
18.4344 56.7496 3.98482
19.9154 55.8605 2
21.79 55.3736 0.0190221
18.3621 59.1307 3.98469
19.4286 57.9157 2
20.2067 57.0551 0.0154066
18.6158 61.7782 3.98608
19.7014 60.2208 2
20.6381 58.8007 0.0153759
19.1272 64.6819 3.98868
20.2059 62.8689 2
21.1632 61.1846 0.0148757
19.8865 67.8113 3.99317
20.9386 65.7704 2
21.8945 63.8459 0.0142421
22.8374 66.7406 0.0110202
21.9122 68.8746 2
20.9142 71.1327 4
24.0097 69.8071 0.0064813
23.1494 72.1455 2
25.446 73.0099 0
23.0951 12.7778 3.9841
23.9722 10.1606 3.98608
25.0226 7.3078 3.98947
25.8595 9.37371 2
26.2796 4.32674 3.99371
27.0685 6.53759 2
27.8201 8.64581 0.0127844
27.7943 1.27781 4
28.4877 3.64244 2
29.1537 5.87406 0.00999411
30.1841 0.720551 2
30.7256 3.09685 0.00588731
32.6053 0.320823 0
35.7738 35.8455 3.93926
37.5026 35.8368 2
39.234 35.8375 0.0582178
24.776 12.0628 2
23.7495 14.3482 2
22.4774 15.0243 3.98347
25.3559 13.8973 3.98328
24.0218 15.6101 3.98313
26.6211 11.3796 0.0152588
29.2239 12.6317 0.0163659
27.29 13.3649 2
29.7786 14.1913 2
28.3541 15.9663 3.98232
34.1141 34.2157 3.95187
35.7684 34.1526 2
37.4947 34.1301 0.0431395
35.6695 32.3822 0.0276588
37.474 30.1317 0.0393416
42.3684 28.3554 0.00215422
39.8181 28.9535 0.0763931
40.0496 27.5417 2
37.4847 28.6467 2
35.4471 30.3995 2
34.0407 32.6669 2
37.6083 27.2442 4.00938
35.1298 28.9505 3.92358
33.6604 31.1322 3.9798
32.8986 33.046 3.98113
30.203 19.3309 3.98292
30.9236 16.8277 2
31.9125 14.4691 0.0174387
40.4912 25.6258 0.014787
38.0846 22.8412 0.0124084
33.5477 17.3726 0.0179287
35.5824 20.0646 0.0185006
32.8594 19.7822 2
35.2051 22.6253 2
37.7876 25.1476 2
32.3049 22.3984 3.98018
34.9345 25.1563 3.98022
33.9955 37.5296 3.93755
35.7712 37.5236 2
37.5025 37.5158 0.062486
37.667 51.0034 0.024693
36.9036 48.4317 -0.0291743
35.7783 39.205 0.0633339
35.1767 46.1095 0.0761095
33.6885 43.9301 0.020572
34.121 40.8434 0.0497269
32.9092 42.0177 0.0226024
35.4148 50.1589 2
34.042 39.2201 2
32.5387 40.8944 2
34.2726 47.5415 2
32.1534 42.7701 2
33.0593 45.2483 2
33.167 49.1327 3.97849
32.2081 39.2956 3.98928
30.9567 41.2779 3.97613
31.206 43.8605 3.92278
32.2149 46.4754 3.99214
34.3474 52.4839 0.016801
31.9618 51.2151 2
29.7864 49.7376 3.97824
30.4977 53.4147 0.0198132
28.3864 51.6432 2
26.4408 50.0383 3.97488
26.8533 53.4635 0.0220004
25.0344 51.8007 2
23.2812 50.2442 3.98037
23.5426 53.5102 0.0222426
21.9214 51.8474 2
20.4144 50.3579 3.98138
17.9467 50.3657 3.9824
17.8038 52.8249 3.98169
19.1619 51.6722 2
17.4196 55.3679 3.98352
18.8976 54.3397 2
20.4365 53.2604 0.0198068
17.1261 57.895 3.9853
18.4341 56.7496 2
19.9158 55.8605 0.0162787
17.1322 60.5636 3.98574
18.3619 59.1308 2
19.4288 57.9156 0.0155814
17.4068 63.4758 3.98861
18.6158 61.7784 2
19.7015 60.2207 0.0149828
17.9426 66.6202 3.9931
19.1271 64.6821 2
20.206 62.8687 0.0138488
18.75 69.9759 4
19.8864 67.8115 2
20.9387 65.7701 0.0112625
21.9124 68.8744 0.00667095
20.9142 71.1327 2
23.1494 72.1454 0
21.5855 13.5979 3.98406
22.1902 11.02 3.9856
23.0952 12.7778 2
23.0408 8.17302 3.98917
23.9722 10.1604 2
24.1173 5.14132 3.99353
25.0225 7.30754 2
25.8595 9.37398 0.0133762
25.446 1.99014 4
26.2795 4.32658 2
27.0686 6.53787 0.0102267
27.7943 1.27778 2
28.4878 3.64265 0.00606055
30.1841 0.720592 0
34.0355 35.8394 3.93948
35.774 35.8436 2
37.5027 35.84 0.0583622
21.3018 15.819 3.98365
24.7759 12.0629 0.0156415
23.7494 14.348 0.0167391
25.356 13.8973 2
22.4776 15.0245 2
24.022 15.6104 2
23.2604 16.2413 3.98289
25.3771 16.0783 3.98286
27.2899 13.365 0.016629
29.7785 14.1912 0.0172284
28.3543 15.9665 2
27.4343 18.7893 3.98266
32.5449 34.1752 3.99057
34.1133 34.2138 2
35.7682 34.1556 0.0598656
34.0406 32.6695 0.0241892
35.4463 30.4051 0.0287191
37.4849 28.6605 0.0794657
40.0485 27.5412 -0.00959331
37.6085 27.219 2
32.8976 33.0471 2
35.1231 28.9424 2
33.658 31.1319 2
35.0323 27.3468 4.01084
33.0137 29.819 3.92742
32.143 32.2858 3.97467
29.5648 21.9273 3.98562
30.2031 19.3326 2
30.9235 16.8271 0.0179828
37.7882 25.1382 0.00142548
35.2043 22.6247 0.0222464
32.8596 19.7812 0.020221
32.3056 22.4001 2
34.9365 25.1673 2
31.6216 25.6129 3.98094
32.0834 37.5349 3.99201
33.9968 37.5289 2
35.7696 37.5239 0.0641929
35.4147 50.1542 0.0222155
34.2806 47.5326 -0.00785745
34.0414 39.2198 0.0620947
33.07 45.2451 0.0750122
32.1622 42.7759 0.0325449
32.5424 40.8943 0.0124571
33.1674 49.1199 2
32.2073 39.2953 2
30.9487 41.2761 2
32.198 46.4852 2
31.2014 43.8624 2
31.032 47.8876 3.97942
30.1867 39.5332 3.96832
29.7454 42.0523 3.92311
30.3151 45.0644 3.99122
31.9621 51.2116 0.0201108
29.7866 49.7353 2
27.7733 48.2235 3.97733
28.387 51.6448 0.0212889
26.4407 50.0358 2
24.5652 48.5223 3.98281
25.0351 51.8024 0.0239018
23.2812 50.2423 2
21.5834 48.8382 3.9837
21.9216 51.8483 0.0209084
20.4149 50.3564 2
18.9811 49.1309 3.98414
16.8535 49.3634 3.98433
16.7413 51.4389 3.98239
17.947 50.365 2
16.3678 53.8987 3.98288
17.8038 52.8243 2
19.1617 51.6731 0.0193406
15.9651 56.4983 3.9848
17.4193 55.3678 2
18.8979 54.34 0.0180898
15.7445 59.2263 3.98592
17.1258 57.8951 2
18.4344 56.7496 0.0151772
15.7866 62.1477 3.98829
17.1321 60.5639 2
18.3621 59.1307 0.0153068
16.089 65.3032 3.99309
17.4068 63.476 2
18.6158 61.7782 0.0139216
16.6661 68.6801 4
17.9425 66.6203 2
19.1272 64.6819 0.0113158
18.75 69.9759 2
19.8865 67.8113 0.00682691
20.9142 71.1327 0
20.2168 14.5857 3.98408
21.5856 13.5979 2
20.5293 11.9898 3.98534
21.1441 9.14269 3.98874
22.1903 11.0199 2
23.0951 12.7778 0.0158989
22.0164 6.08023 3.99336
23.0407 8.17276 2
23.9722 10.1606 0.0139173
23.1494 2.85457 4
24.1171 5.14117 2
25.0226 7.3078 0.0105293
25.446 1.99012 2
26.2796 4.32674 0.00629134
27.7943 1.27781 0
32.2112 35.7731 3.99121
34.0356 35.8378 2
35.7738 35.8455 0.0607392
21.302 15.8191 2
20.2977 16.9508 3.98451
22.093 16.6246 3.98341
25.3559 13.8973 0.016717
22.4774 15.0243 0.0165326
24.0218 15.6101 0.0168745
25.3773 16.0785 2
23.2607 16.2416 2
24.1986 18.4405 3.98212
27.0004 21.4498 3.98057
28.3541 15.9663 0.0176784
27.4348 18.7898 2
30.9637 33.7904 3.97131
32.5411 34.1745 2
34.1141 34.2157 0.0481327
32.8986 33.046 0.0188712
33.6604 31.1322 0.0202046
35.1298 28.9505 0.0764236
37.6083 27.2442 -0.00937605
35.0265 27.3372 2
32.1432 32.2895 2
33.0149 29.8175 2
32.4446 28.0641 4.01279
31.17 31.2084 3.92911
28.7434 24.3927 3.98643
29.5652 21.9306 2
30.203 19.3309 0.017083
34.9345 25.1563 0.0197817
32.3049 22.3984 0.0198165
31.6231 25.6046 2
29.5412 27.2523 3.98395
29.9177 37.5337 3.96442
32.0832 37.5346 2
33.9955 37.5296 0.0624463
33.167 49.1327 0.0215063
32.2149 46.4754 0.00786498
32.2081 39.2956 0.0107207
31.206 43.8605 0.0772224
30.9567 41.2779 0.023867
31.0348 47.8786 2
30.1845 39.5323 2
29.7416 42.0561 2
30.2998 45.0721 2
29.0355 46.4562 3.97401
28.8041 39.931 3.91783
28.4972 43.2813 3.99571
29.7864 49.7376 0.0217618
27.7743 48.22 2
25.8243 46.7064 3.98415
26.4408 50.0383 0.0251246
24.5659 48.52 2
22.7107 47.1348 3.98919
23.2812 50.2442 0.0196258
21.5843 48.836 2
19.9197 47.6599 3.98711
20.4144 50.3579 0.018624
18.9817 49.1299 2
17.624 48.2116 3.98562
16.105 48.7124 3.98559
16.854 49.3628 2
15.8177 50.1993 3.98362
15.3546 52.4428 3.98294
16.7415 51.4383 2
17.9467 50.3657 0.017599
14.8542 55.0002 3.98399
16.3677 53.8984 2
17.8038 52.8249 0.01831
14.4525 57.7564 3.98581
15.9649 56.4983 2
17.4196 55.3679 0.016479
14.2641 60.7033 3.98793
15.7443 59.2265 2
17.1261 57.895 0.0147004
14.3329 63.8628 3.99298
15.7866 62.1481 2
17.1322 60.5636 0.0142624
14.6715 67.2507 4
16.0889 65.3033 2
17.4068 63.4758 0.0113932
16.6661 68.6801 2
17.9426 66.6202 0.00689801
18.75 69.9759 0
18.9294 15.7706 3.9845
20.2169 14.5857 2
18.9785 13.0997 3.98526
21.5855 13.5979 0.0159398
20.5294 11.9896 2
19.3435 10.2303 3.98829
19.9911 7.14481 3.99315
21.144 9.14248 2
22.1902 11.02 0.0143993
20.9142 3.86727 4
22.0163 6.0801 2
23.0408 8.17302 0.010828
23.1494 2.85451 2
24.1173 5.14132 0.00646898
25.446 1.99014 0
30.1984 35.5369 3.97129
32.2099 35.7723 2
34.0355 35.8394 0.0605237
21.3018 15.819 0.0163508
22.0934 16.6247 2
20.2979 16.9509 2
19.2351 18.3954 3.98437
21.7762 17.8388 3.98367
25.3771 16.0783 0.0171386
23.2604 16.2413 0.0171057
24.1991 18.4411 2
22.2669 19.8787 3.98329
24.576 21.3102 3.98299
26.3733 23.7145 3.98378
27.0017 21.4509 2
27.4343 18.7893 0.0173369
29.7423 33.0127 3.92544
30.9557 33.7916 2
32.5449 34.1752 0.00943199
32.143 32.2858 0.0253259
33.0137 29.819 0.0725775
35.0323 27.3468 -0.0108421
32.4351 28.0605 2
31.1759 31.2119 2
29.9686 29.5015 4.00349
27.7884 26.5435 3.97162
28.7439 24.3992 2
29.5648 21.9273 0.0143812
31.6216 25.6129 0.0190598
29.5379 27.2281 2
28.4745 37.5293 3.92149
29.9154 37.5348 2
32.0834 37.5349 0.00798537
31.032 47.8876 0.0205844
30.3151 45.0644 0.00878186
30.1867 39.5332 0.0316824
29.7454 42.0523 0.0768911
29.0389 46.4529 2
28.8031 39.9313 2
28.4875 43.2842 2
27.1021 44.8246 3.97139
26.5826 40.6723 4.0084
27.7733 48.2235 0.0226664
25.8263 46.7036 2
23.8516 45.2631 3.98659
24.5652 48.5223 0.0171922
22.7124 47.1318 2
20.8413 45.9419 3.98883
21.5834 48.8382 0.0162957
19.9207 47.6588 2
18.2641 46.7715 3.98691
18.9811 49.1309 0.0158562
17.6247 48.2109 2
16.2926 47.7419 3.98538
16.1055 48.7119 2
15.1633 49.042 3.98455
16.8535 49.3634 0.0156665
15.8181 50.1988 2
14.4669 51.0097 3.98341
13.8142 53.4561 3.98368
15.3547 52.4424 2
16.7413 51.4389 0.0176117
13.246 56.1847 3.98528
14.8541 55 2
16.3678 53.8987 0.0171249
12.8459 59.1375 3.98765
14.4523 57.7565 2
15.9651 56.4983 0.0152007
12.6781 62.3056 3.99269
14.264 60.7036 2
15.7445 59.2263 0.0140844
12.7746 65.6939 4
14.3328 63.8629 2
15.7866 62.1477 0.0117084
14.6714 67.2507 2
16.089 65.3032 0.00690863
16.6661 68.6801 0
17.6625 17.1442 3.98457
18.9295 15.7706 2
17.509 14.3623 3.98536
20.2168 14.5857 0.0159243
18.9786 13.0996 2
17.6388 11.4486 3.98797
20.5293 11.9898 0.0146596
19.3435 10.2301 2
18.0514 8.33751 3.99292
18.75 5.0241 4
19.991 7.14474 2
21.1441 9.14269 0.011259
20.9142 3.86727 2
22.0164 6.08023 0.00664238
23.1494 2.85457 0
28.808 35.1311 3.92327
30.1956 35.5406 2
32.2112 35.7731 0.00878942
22.093 16.6246 0.0165936
20.2977 16.9508 0.0154941
21.7766 17.8389 2
19.2353 18.3955 2
17.968 19.925 3.98445
20.8664 19.3639 3.98414
24.1986 18.4405 0.01788
22.2675 19.8786 2
24.5772 21.311 2
22.3383 21.7017 3.98405
24.6598 23.1552 3.98313
25.3828 25.9412 3.97548
26.3745 23.7145 2
27.0004 21.4498 0.0194256
28.1348 32.2776 3.99364
29.7391 33.0121 2
30.9637 33.7904 0.0286937
31.17 31.2084 0.0708853
32.4446 28.0641 -0.0127881
29.9502 29.5013 2
26.8849 29.1416 3.97027
27.785 26.5396 2
28.7434 24.3927 0.0135748
29.5412 27.2523 0.0160503
26.7018 37.376 3.99695
28.4739 37.5276 2
29.9177 37.5337 0.0355824
29.0355 46.4562 0.0259911
28.4972 43.2813 0.00429137
28.8041 39.931 0.0821699
27.1059 44.8229 2
26.5844 40.6727 2
25.0724 43.2194 3.97606
23.8308 39.4475 3.96966
25.8243 46.7064 0.015845
23.8538 45.2625 2
21.8094 43.9937 3.98768
22.7107 47.1348 0.0108149
20.8431 45.9412 2
18.9183 45.0036 3.98524
19.9197 47.6599 0.0128948
18.2651 46.7709 2
16.579 46.2398 3.98428
17.624 48.2116 0.0143817
16.2932 47.7415 2
14.8909 47.6948 3.9843
16.105 48.7124 0.014413
15.1637 49.0416 2
13.7637 49.5687 3.9838
15.8177 50.1993 0.0163759
14.4671 51.0093 2
12.8797 51.8938 3.98366
12.1322 54.543 3.98484
13.8141 53.4558 2
15.3546 52.4428 0.0170589
11.5297 57.4698 3.98715
13.2458 56.1847 2
14.8542 55.0002 0.0160062
11.1326 60.6322 3.99245
12.8458 59.1378 2
14.4525 57.7564 0.0141852
10.9835 64.0165 4
12.678 62.3057 2
14.2641 60.7033 0.0120688
12.7745 65.694 2
14.3329 63.8628 0.00702074
14.6715 67.2507 0
16.3931 18.6359 3.98479
17.6627 17.1442 2
16.0992 15.7698 3.98542
18.9294 15.7706 0.0154967
17.5092 14.3621 2
16.02 12.8009 3.98774
18.9785 13.0997 0.0147363
17.6388 11.4484 2
16.2025 9.66028 3.99275
19.3435 10.2303 0.0117135
18.0512 8.33746 2
16.6661 6.31991 4
18.75 5.02404 2
19.9911 7.14481 0.00684829
20.9142 3.86727 0
27.2085 34.7475 3.9918
28.8052 35.1297 2
30.1984 35.5369 0.0287109
16.6646 21.3577 3.98333
21.7762 17.8388 0.0163263
19.2351 18.3954 0.0156262
20.8669 19.3638 2
17.9683 19.9251 2
19.7061 21.5537 3.98558
22.2669 19.8787 0.0167059
24.576 21.3102 0.0170144
22.3392 21.701 2
24.6603 23.1556 2
22.7967 24.5854 3.97992
24.4364 28.5198 3.97447
25.3805 25.94 2
26.3733 23.7145 0.0162242
25.9717 31.7193 3.97576
28.1269 32.2764 2
29.7423 33.0127 0.0745561
29.9686 29.5015 -0.00349421
26.8894 29.1413 2
27.7884 26.5435 0.0283789
24.516 36.8825 3.97917
26.7028 37.3784 2
28.4745 37.5293 0.0785147
27.1021 44.8246 0.0286071
26.5826 40.6723 -0.00840309
25.0751 43.221 2
23.8323 39.4487 2
22.8532 41.8338 3.98196
21.5894 38.5107 3.98078
23.8516 45.2631 0.0134079
21.8114 43.9943 2
19.6634 42.9176 3.98243
20.8413 45.9419 0.0111716
18.9197 45.0034 2
16.9039 44.4046 3.98246
18.2641 46.7715 0.0130948
16.5799 46.2395 2
14.8091 46.113 3.98287
16.2926 47.7419 0.0146167
14.8914 47.6945 2
13.2692 48.0291 3.98341
15.1633 49.042 0.0154454
13.764 49.5684 2
12.0978 50.2705 3.98367
14.4669 51.0097 0.0165902
12.8798 51.8935 2
11.1269 52.8508 3.98454
10.3195 55.7214 3.98673
12.1321 54.5429 2
13.8142 53.4561 0.0163219
9.69919 58.8554 3.99193
11.5296 57.4699 2
13.246 56.1847 0.0147219
9.30605 62.2254 4
11.1325 60.6323 2
12.8459 59.1375 0.0123464
10.9835 64.0165 2
12.6781 62.3056 0.00731131
12.7746 65.6939 0
15.1356 20.1684 3.98419
16.3934 18.6359 2
14.7438 17.2911 3.98526
17.6625 17.1442 0.0154322
16.0993 15.7697 2
14.4819 14.2816 3.98751
17.509 14.3623 0.0146368
16.02 12.8007 2
14.445 11.1111 3.99259
17.6388 11.4486 0.0120313
16.2024 9.66024 2
14.6715 7.74927 4
18.0514 8.33751 0.00708113
16.6661 6.31988 2
18.75 5.0241 0
25.154 34.2908 3.98387
27.209 34.7497 2
28.808 35.1311 0.0767274
17.8335 22.3026 3.98613
15.5061 22.9 3.98222
16.6648 21.3577 2
20.8664 19.3639 0.0158621
17.968 19.925 0.015551
19.7066 21.5535 2
19.624 24.3592 3.98281
22.3383 21.7017 0.0159485
24.6598 23.1552 0.0168683
22.7953 24.5843 2
21.8261 27.807 3.97575
23.5982 31.1795 3.97752
24.439 28.5228 2
25.3828 25.9412 0.0245214
25.9742 31.7185 2
28.1348 32.2776 0.00635865
26.8849 29.1416 0.0297332
22.2984 36.2737 3.98575
24.5176 36.8832 2
26.7018 37.376 0.00305051
25.0724 43.2194 0.0239442
23.8308 39.4475 0.0303414
22.8549 41.8349 2
21.5905 38.5112 2
20.5784 40.6503 3.97964
19.9557 37.7877 3.9832
21.8094 43.9937 0.0123233
19.6649 42.9177 2
17.2948 42.1205 3.98061
18.9183 45.0036 0.0147555
16.905 44.4046 2
14.808 44.22 3.98095
16.579 46.2398 0.0157239
14.8098 46.1128 2
12.9399 46.3138 3.98211
14.8909 47.6948 0.0156997
13.2696 48.0289 2
11.4682 48.5656 3.98324
13.7637 49.5687 0.0162011
12.0979 50.2703 2
10.2519 51.0929 3.98427
12.8797 51.8938 0.0163434
11.1269 52.8507 2
9.22773 53.8986 3.98644
8.38276 56.9887 3.99116
10.3194 55.7214 2
12.1322 54.543 0.0151639
7.74927 60.3285 4
9.69913 58.8555 2
11.5297 57.4698 0.0128478
9.306 62.2255 2
11.1326 60.6322 0.00755373
10.9835 64.0165 0
13.9455 21.7339 3.98355
15.1358 20.1682 2
13.4432 18.8869 3.98507
16.3931 18.6359 0.0152067
14.744 17.291 2
13.0267 15.8733 3.98719
16.0992 15.7698 0.0145803
14.482 14.2813 2
12.7821 12.6841 3.99239
16.02 12.8009 0.0122581
14.445 11.1111 2
12.7746 9.30605 4
16.2025 9.66028 0.00725086
14.6715 7.74924 2
16.6661 6.31991 0
22.8921 33.7947 3.9847
25.1543 34.2912 2
27.2085 34.7475 0.00820041
17.595 24.0212 3.98345
17.8336 22.3024 2
14.2862 24.4321 3.98093
15.5057 22.8995 2
16.6646 21.3577 0.0166667
18.9707 27.182 3.97634
19.7061 21.5537 0.014418
19.6231 24.3594 2
21.0539 30.6487 3.97786
22.7967 24.5854 0.0200832
21.828 27.8082 2
23.6002 31.1808 2
24.4364 28.5198 0.0255323
25.9717 31.7193 0.0242375
20.0695 35.9195 3.98486
22.2994 36.2746 2
24.516 36.8825 0.0208347
22.8532 41.8338 0.0180448
21.5894 38.5107 0.0192179
20.5798 40.6507 2
19.9566 37.7881 2
17.9586 39.0107 3.98142
19.6634 42.9176 0.0175712
17.296 42.1207 2
14.7526 41.9331 3.97991
16.9039 44.4046 0.0175369
14.8089 44.22 2
12.6785 44.4073 3.98069
14.8091 46.113 0.0171347
12.9404 46.3137 2
10.9691 46.7474 3.98217
13.2692 48.0291 0.0165932
11.4684 48.5655 2
9.51464 49.2512 3.9838
12.0978 50.2705 0.016331
10.252 51.0928 2
8.26028 52.0103 3.98612
11.1269 52.8508 0.0154622
9.22766 53.8985 2
7.19164 55.0387 3.99042
6.31991 58.3339 4
8.3827 56.9887 2
10.3195 55.7214 0.0132706
7.74924 60.3285 2
9.69919 58.8554 0.00807268
9.30605 62.2254 0
13.2068 25.347 3.9843
12.8108 23.2634 3.98269
13.9453 21.7335 2
12.2271 20.5354 3.98484
15.1356 20.1684 0.0158051
13.4433 18.8867 2
11.6558 17.5537 3.987
14.7438 17.2911 0.0147385
13.0268 15.873 2
11.2193 14.3684 3.9921
14.4819 14.2816 0.0124904
12.7821 12.684 2
10.9835 10.9835 4
14.445 11.1111 0.00740737
12.7745 9.306 2
14.6715 7.74927 0
20.4594 33.384 3.98268
22.8925 33.7951 2
25.154 34.2908 0.0161324
15.8633 26.3827 3.97909
17.5944 24.0209 2
17.8335 22.3026 0.0138677
14.2862 24.4325 2
15.5061 22.9 0.0177836
18.3039 30.1565 3.9773
18.9721 27.1828 2
19.624 24.3592 0.0171943
21.0554 30.6492 2
21.8261 27.807 0.0242531
23.5982 31.1795 0.0224813
17.5797 35.9622 3.9845
20.0703 35.9199 2
22.2984 36.2737 0.0142453
20.5784 40.6503 0.0203594
19.9557 37.7877 0.0168029
17.9595 39.011 2
14.2545 39.1843 3.98184
17.2948 42.1205 0.0193946
14.7534 41.9332 2
12.3641 42.2887 3.98053
14.808 44.22 0.0190483
12.6791 44.4073 2
10.5454 44.8141 3.98125
12.9399 46.3138 0.0178946
10.9695 46.7474 2
8.89678 47.3287 3.98293
11.4682 48.5656 0.0167579
9.51475 49.2511 2
7.42697 50.0423 3.98559
10.2519 51.0929 0.0157284
8.26025 52.0102 2
6.132 53.0127 3.98987
9.22773 53.8986 0.0135646
7.19158 55.0388 2
5.0241 56.25 4
6.31988 58.3339 2
8.38276 56.9887 0.00884469
7.74927 60.3285 0
13.4406 26.7997 3.98034
11.9235 24.774 3.98199
13.2071 25.3472 2
11.1288 22.2206 3.98414
12.8108 23.2634 2
13.9455 21.7339 0.0164491
12.227 20.535 2
10.3852 19.3084 3.98689
13.4432 18.8869 0.0149333
11.6559 17.5534 2
9.76013 16.1511 3.99173
13.0267 15.8733 0.0128078
11.2193 14.3683 2
9.30607 12.7746 4
12.7821 12.6841 0.00761225
10.9835 10.9835 2
12.7746 9.30605 0
17.7646 33.1012 3.98098
20.4599 33.3841 2
22.8921 33.7947 0.0152968
15.4458 29.6231 3.97867
15.8641 26.3833 2
17.595 24.0212 0.0165452
14.2862 24.4321 0.0190684
18.305 30.1568 2
18.9707 27.182 0.0236588
21.0539 30.6487 0.0221442
14.844 36.0178 3.98302
17.5804 35.9625 2
20.0695 35.9195 0.0151392
12.5556 37.8333 3.98145
17.9586 39.0107 0.0185774
14.2551 39.1845 2
11.8758 40.1498 3.98194
14.7526 41.9331 0.0200898
12.3648 42.2889 2
10.1439 42.7873 3.98072
12.6785 44.4073 0.0193128
10.5459 44.8142 2
8.37436 45.3291 3.98226
10.9691 46.7474 0.0178289
8.89696 47.3287 2
6.71821 48.0063 3.9848
9.51464 49.2512 0.0162009
7.42697 50.0422 2
5.20851 50.9146 3.98945
8.26028 52.0103 0.0138801
6.13195 53.0126 2
3.86727 54.0858 4
7.19164 55.0387 0.00957633
5.02404 56.25 2
6.31991 58.3339 0
12.8939 29.0216 3.97827
11.3523 26.4759 3.98129
13.4411 26.7997 2
10.1876 23.9564 3.98293
11.9236 24.774 2
13.2068 25.347 0.0156972
9.2366 21.1282 3.98632
11.1288 22.2205 2
12.8108 23.2634 0.017312
12.2271 20.5354 0.0151583
10.3851 19.3081 2
8.41591 18.0216 3.9912
11.6558 17.5537 0.0130048
9.76017 16.1509 2
7.74928 14.6715 4
11.2193 14.3684 0.00789685
9.30602 12.7745 2
10.9835 10.9835 0
14.4346 32.8542 3.98066
17.765 33.1013 2
20.4594 33.384 0.0173247
15.4465 29.6233 2
15.8633 26.3827 0.020909
18.3039 30.1565 0.0227014
12.8426 36.2093 3.98149
14.8446 36.018 2
17.5797 35.9622 0.0154991
12.5561 37.8335 2
11.234 38.3151 3.98097
14.2545 39.1843 0.018159
11.8763 40.15 2
9.72871 40.7616 3.98162
12.3641 42.2887 0.0194694
10.1444 42.7875 2
7.92331 43.2765 3.98176
10.5454 44.8141 0.0187457
8.37464 45.3291 2
6.12432 45.9103 3.9842
8.89678 47.3287 0.0170702
6.71825 48.0062 2
4.41993 48.7541 3.98919
7.42697 50.0423 0.0144059
5.20847 50.9145 2
2.85457 51.8506 4
6.132 53.0127 0.0101289
3.86727 54.0858 2
5.0241 56.25 0
12.0336 31.2479 3.98091
10.764 28.4058 3.97993
12.8943 29.0215 2
9.40206 25.789 3.98225
11.3526 26.4759 2
13.4406 26.7997 0.0196633
8.22351 23.0152 3.98513
10.1876 23.9563 2
11.9235 24.774 0.0180075
7.19784 19.9718 3.99038
9.23657 21.128 2
11.1288 22.2206 0.0158596
10.3852 19.3084 0.0131129
8.4159 18.0213 2
6.31992 16.6661 4
9.76013 16.1511 0.00826726
7.74926 14.6714 2
9.30607 12.7746 0
12.049 34.291 3.98029
14.4349 32.8542 2
17.7646 33.1012 0.0190239
15.4458 29.6231 0.0213287
10.7989 36.6125 3.98057
12.8432 36.2094 2
14.844 36.0178 0.0169764
12.5556 37.8333 0.0185473
11.2345 38.3153 2
9.32386 38.8284 3.98153
11.8758 40.1498 0.0180642
9.72912 40.7618 2
7.53447 41.2164 3.98196
10.1439 42.7873 0.0192763
7.92358 43.2766 2
5.63624 43.7722 3.98403
8.37436 45.3291 0.0177396
6.12445 45.9102 2
3.76553 46.5391 3.98912
6.71821 48.0063 0.0152025
4.41991 48.7539 2
1.99014 49.554 4
5.20851 50.9146 0.0105466
2.85451 51.8506 2
3.86727 54.0858 0
10.8974 32.9136 3.98098
10.0765 30.3751 3.98076
12.0339 31.2477 2
8.70985 27.7249 3.98143
10.7643 28.4057 2
12.8939 29.0216 0.0217285
7.34886 24.9762 3.9844
9.40219 25.7889 2
11.3523 26.4759 0.0187066
6.1146 21.9967 3.98932
8.22346 23.015 2
10.1876 23.9564 0.0170717
5.02411 18.75 4
7.19781 19.9717 2
9.2366 21.1282 0.0136774
8.41591 18.0216 0.0087961
6.3199 16.6661 2
7.74928 14.6715 0
10.4118 34.9986 3.98091
12.0493 34.2911 2
14.4346 32.8542 0.019341
8.99778 36.987 3.98038
10.7995 36.6126 2
12.8426 36.2093 0.018509
11.234 38.3151 0.0190301
9.32425 38.8286 2
7.21532 39.1855 3.98207
9.72871 40.7616 0.0183795
7.53475 41.2166 2
5.25167 41.617 3.9839
7.92331 43.2765 0.0182419
5.63636 43.7721 2
3.24328 44.2837 3.98908
6.12432 45.9103 0.0158025
3.76557 46.5389 2
1.27781 47.2057 4
4.41993 48.7541 0.0108115
1.99012 49.554 2
2.85457 51.8506 0
10.0659 33.8782 3.98083
9.36981 32.1495 3.98132
10.8977 32.9135 2
8.05897 29.6904 3.98148
10.0767 30.375 2
12.0336 31.2479 0.019093
6.59246 27.0039 3.98375
8.71001 27.7248 2
10.764 28.4058 0.0200668
5.16964 24.0914 3.9887
7.34888 24.9761 2
9.40206 25.789 0.0177539
3.86728 20.9142 4
6.11452 21.9968 2
8.22351 23.0152 0.0148683
5.02406 18.75 2
7.19784 19.9718 0.00962347
6.31992 16.6661 0
8.82475 35.2789 3.98092
10.4121 34.9986 2
12.049 34.291 0.019707
7.00042 37.2075 3.98119
8.99823 36.9871 2
10.7989 36.6125 0.0194311
9.32386 38.8284 0.0184677
7.21563 39.1857 2
4.9797 39.4695 3.98375
7.53447 41.2164 0.0180403
5.25181 41.617 2
2.85387 42.0038 3.98884
5.63624 43.7722 0.0159712
3.2433 44.2835 2
0.720592 44.8159 4
3.76553 46.5391 0.0108756
1.27778 47.2057 2
1.99014 49.554 0
8.8668 33.6949 3.98122
10.0662 33.8782 2
7.49643 31.6056 3.98188
9.37004 32.1494 2
10.8974 32.9136 0.0190197
5.93764 29.0664 3.98351
8.05909 29.6902 2
10.0765 30.3751 0.0192373
4.35711 26.2455 3.9885
6.5925 27.0038 2
8.70985 27.7249 0.0185671
2.85458 23.1494 4
5.16957 24.0916 2
7.34886 24.9762 0.0155955
3.86728 20.9142 2
6.1146 21.9967 0.0106786
5.02411 18.75 0
6.95106 35.3059 3.98128
8.82512 35.2789 2
10.4118 34.9986 0.0190892
4.83048 37.3409 3.98332
7.00082 37.2076 2
8.99778 36.987 0.0196163
7.21532 39.1855 0.017928
4.97991 39.4695 2
2.60205 39.7151 3.98855
5.25167 41.617 0.0160971
2.85391 42.0036 2
0.320823 42.3947 4
3.24328 44.2837 0.0109223
0.720551 44.8159 2
1.27781 47.2057 0
7.11073 33.459 3.98172
8.86709 33.6949 2
10.0659 33.8782 0.0191681
5.40846 31.1315 3.9837
7.49657 31.6055 2
9.36981 32.1495 0.0186763
3.67882 28.4424 3.98861
5.93768 29.0664 2
8.05897 29.6904 0.0185152
1.99015 25.446 4
4.35705 26.2459 2
6.59246 27.0039 0.0162452
2.85453 23.1494 2
5.16964 24.0914 0.0113031
3.86728 20.9142 0
4.84501 35.2517 3.98328
6.95141 35.3059 2
8.82475 35.2789 0.0190797
2.49363 37.4292 3.98855
4.83079 37.3411 2
7.00042 37.2075 0.0188095
4.9797 39.4695 0.01625
2.60213 39.7149 2
0.080333 39.9526 4
2.85387 42.0038 0.0111609
0.320817 42.3947 2
0.720592 44.8159 0
5.03818 33.1893 3.98362
7.11096 33.459 2
8.8668 33.6949 0.018785
3.14317 30.6656 3.98881
5.40853 31.1317 2
7.49643 31.6056 0.0181214
1.27793 27.7943 4
3.67878 28.443 2
5.93764 29.0664 0.016493
1.99013 25.446 2
4.35711 26.2455 0.0115018
2.85458 23.1494 0
2.54584 35.1593 3.98856
4.84528 35.2519 2
6.95106 35.3059 0.018715
0 37.5 4
2.49378 37.4293 2
4.83048 37.3409 0.01668
2.60205 39.7151 0.0114529
0.0802903 39.9526 2
0.320823 42.3947 0
2.76335 32.9056 3.98868
5.03834 33.1896 2
7.11073 33.459 0.0182751
0.721173 30.1842 4
3.14315 30.6663 2
5.40846 31.1315 0.0162996
1.27779 27.7943 2
3.67882 28.4424 0.0113896
1.99015 25.446 0
0.0806499 35.0474 4
2.54596 35.1597 2
4.84501 35.2517 0.0167174
0 37.5 2
2.49363 37.4292 0.0114475
0.080333 39.9526 0
0.32156 32.6054 4
2.7634 32.9062 2
5.03818 33.1893 0.0163762
0.72056 30.1841 2
3.14317 30.6656 0.0111879
1.27793 27.7943 0
0.0802889 35.0474 2
2.54584 35.1593 0.0114414
0 37.5 0
0.320817 32.6053 2
2.76335 32.9056 0.011315
0.721173 30.1842 0
0.0806499 35.0474 0
0.32156 32.6054 0
CELLS 1910 17190
8 18 6 25 56 2 0 5 16
8 57 23 6 18 17 4 0 2
8 78 36 9 29 31 11 1 7
8 31 11 1 7 79 37 10 30
8 110 57 18 50 48 17 2 14
8 50 18 56 111 14 2 16 49
8 116 62 22 55 52 20 3 15
8 56 25 67 118 16 5 24 53
8 119 63 23 57 54 21 4 17
8 55 22 63 119 15 3 21 54
8 58 26 68 121 18 6 25 56
8 122 65 26 58 57 23 6 18
8 73 31 7 27 142 79 30 71
8 143 78 29 72 73 31 7 27
8 83 147 76 34 32 74 28 8
8 84 148 78 36 33 75 29 9
8 76 34 8 28 148 84 33 75
8 37 79 150 86 10 30 77 35
8 151 87 36 78 80 38 11 31
8 80 38 11 31 152 88 37 79
8 175 100 42 94 96 44 12 40
8 44 96 176 101 12 40 95 43
8 101 176 98 46 43 95 41 13
8 46 98 178 103 13 41 97 45
8 178 103 45 97 147 83 32 74
8 189 116 55 109 106 52 15 47
8 111 56 118 191 49 16 53 107
8 192 119 57 110 108 54 17 48
8 109 55 119 192 47 15 54 108
8 194 122 58 112 110 57 18 50
8 112 58 121 195 50 18 56 111
8 115 61 19 51 197 124 59 113
8 115 61 125 198 51 19 60 114
8 198 125 62 116 114 60 20 52
8 200 127 64 120 116 62 22 55
8 118 67 132 202 53 24 66 117
8 121 68 133 203 56 25 67 118
8 120 64 128 204 55 22 63 119
8 204 128 65 122 119 63 23 57
8 206 134 68 121 123 69 26 58
8 123 69 26 58 207 131 65 122
8 226 147 74 138 140 76 28 70
8 229 148 75 139 143 78 29 72
8 140 76 28 70 229 148 75 139
8 142 79 30 71 231 150 77 141
8 144 80 31 73 232 152 79 142
8 233 151 78 143 144 80 31 73
8 150 86 35 77 235 154 81 145
8 235 154 81 145 146 82 39 91
8 146 82 39 91 236 155 90 165
8 238 157 83 147 149 85 34 76
8 239 158 84 148 151 87 36 78
8 149 85 34 76 239 158 84 148
8 152 88 37 79 241 160 86 150
8 242 161 87 151 153 89 38 80
8 153 89 38 80 243 162 88 152
8 171 98 41 92 265 178 97 169
8 265 178 97 169 226 147 74 138
8 172 96 40 93 266 176 95 170
8 266 176 95 170 171 98 41 92
8 269 175 94 173 172 96 40 93
8 271 180 99 174 175 100 42 94
8 197 124 59 113 271 180 99 174
8 272 181 100 175 177 102 44 96
8 273 182 101 176 179 104 46 98
8 177 102 44 96 273 182 101 176
8 179 104 46 98 275 184 103 178
8 275 184 103 178 238 157 83 147
8 188 115 51 105 283 197 113 186
8 188 115 198 284 105 51 114 187
8 284 198 116 189 187 114 52 106
8 286 200 120 193 189 116 55 109
8 191 118 202 288 107 53 117 190
8 195 121 203 289 111 56 118 191
8 193 120 204 290 109 55 119 192
8 290 204 122 194 192 119 57 110
8 196 123 58 112 292 207 122 194
8 293 206 121 195 196 123 58 112
8 199 126 61 115 297 211 124 197
8 298 212 127 200 198 125 62 116
8 199 126 212 298 115 61 125 198
8 205 129 64 120 300 214 127 200
8 301 217 130 201 202 132 66 117
8 209 136 168 264 301 217 130 201
8 302 219 132 202 203 133 67 118
8 303 220 133 203 206 134 68 121
8 205 129 215 304 120 64 128 204
8 304 215 131 207 204 128 65 122
8 306 221 134 206 208 135 69 123
8 208 135 69 123 307 218 131 207
8 210 137 167 263 309 223 136 209
8 328 238 147 226 230 149 76 140
8 228 146 91 166 329 236 165 260
8 231 150 77 141 330 235 145 227
8 330 235 145 227 228 146 91 166
8 332 239 148 229 233 151 78 143
8 230 149 76 140 332 239 148 229
8 232 152 79 142 334 241 150 231
8 234 153 80 144 335 243 152 232
8 336 242 151 233 234 153 80 144
8 236 155 90 165 338 245 164 259
8 241 160 86 150 339 246 154 235
8 339 246 154 235 237 156 82 146
8 237 156 82 146 340 247 155 236
8 342 249 157 238 240 159 85 149
8 343 250 158 239 242 161 87 151
8 240 159 85 149 343 250 158 239
8 243 162 88 152 345 252 160 241
8 244 163 253 346 153 89 161 242
8 244 163 89 153 347 254 162 243
8 311 224 261 371 210 137 167 263
8 263 167 262 372 209 136 168 264
8 267 179 98 171 375 275 178 265
8 375 275 178 265 328 238 147 226
8 376 273 176 266 267 179 98 171
8 268 177 96 172 376 273 176 266
8 379 272 175 269 268 177 96 172
8 380 271 174 270 269 175 94 173
8 283 197 113 186 380 271 174 270
8 381 277 180 271 272 181 100 175
8 297 211 124 197 381 277 180 271
8 382 278 181 272 274 183 102 177
8 274 183 102 177 383 279 182 273
8 383 279 182 273 276 185 104 179
8 385 281 184 275 342 249 157 238
8 276 185 104 179 385 281 184 275
8 285 199 115 188 393 297 197 283
8 394 298 200 286 284 198 116 189
8 285 199 298 394 188 115 198 284
8 291 205 120 193 396 300 200 286
8 397 301 201 287 288 202 117 190
8 295 209 264 374 397 301 201 287
8 398 302 202 288 289 203 118 191
8 399 303 203 289 293 206 121 195
8 291 205 304 400 193 120 204 290
8 400 304 207 292 290 204 122 194
8 294 208 123 196 402 307 207 292
8 403 306 206 293 294 208 123 196
8 296 210 263 373 405 309 209 295
8 408 312 213 299 297 211 126 199
8 299 213 313 409 199 126 212 298
8 409 313 214 300 298 212 127 200
8 305 216 129 205 411 315 214 300
8 412 318 217 301 302 219 132 202
8 309 223 136 209 412 318 217 301
8 413 320 219 302 303 220 133 203
8 306 221 321 414 206 134 220 303
8 307 218 131 207 415 316 215 304
8 305 216 316 415 205 129 215 304
8 417 322 221 306 308 222 135 208
8 308 222 135 208 418 319 218 307
8 310 225 137 210 420 325 223 309
8 423 326 224 311 310 225 137 210
8 329 236 165 260 441 338 259 368
8 442 342 238 328 333 240 149 230
8 331 237 146 228 443 340 236 329
8 334 241 150 231 444 339 235 330
8 444 339 235 330 331 237 146 228
8 446 343 239 332 336 242 151 233
8 333 240 149 230 446 343 239 332
8 335 243 152 232 448 345 241 334
8 337 244 153 234 449 347 243 335
8 337 244 346 450 234 153 242 336
8 338 245 164 259 452 349 258 367
8 340 247 155 236 453 350 245 338
8 345 252 160 241 454 351 246 339
8 454 351 246 339 341 248 156 237
8 341 248 156 237 455 352 247 340
8 240 159 251 344 342 249 354 457
8 242 161 253 346 343 250 355 458
8 343 250 355 458 240 159 251 344
8 347 254 162 243 460 357 252 345
8 348 255 358 461 244 163 253 346
8 348 255 163 244 462 359 254 347
8 473 360 257 365 363 256 364 482
8 452 349 258 367 365 257 366 485
8 422 324 369 488 311 224 261 371
8 371 261 370 490 263 167 262 372
8 407 311 371 491 296 210 263 373
8 373 263 372 492 295 209 264 374
8 493 385 275 375 442 342 238 328
8 377 276 179 267 493 385 275 375
8 378 274 177 268 494 383 273 376
8 494 383 273 376 377 276 179 267
8 497 382 272 379 378 274 177 268
8 498 381 271 380 379 272 175 269
8 393 297 197 283 498 381 271 380
8 499 387 277 381 382 278 181 272
8 408 312 211 297 499 387 277 381
8 500 388 278 382 384 280 183 274
8 501 389 279 383 386 282 185 276
8 384 280 183 274 501 389 279 383
8 386 282 185 276 503 391 281 385
8 503 391 281 385 457 354 249 342
8 511 408 299 395 393 297 199 285
8 395 299 409 512 285 199 298 394
8 512 409 300 396 394 298 200 286
8 401 305 205 291 514 411 300 396
8 515 412 301 397 398 302 202 288
8 405 309 209 295 515 412 301 397
8 516 413 302 398 399 303 203 289
8 403 306 414 517 293 206 303 399
8 402 307 207 292 518 415 304 400
8 401 305 415 518 291 205 304 400
8 404 308 208 294 520 418 307 402
8 521 417 306 403 404 308 208 294
8 406 310 210 296 523 420 309 405
8 526 423 311 407 406 310 210 296
8 410 314 213 299 527 424 312 408
8 528 425 315 411 409 313 214 300
8 410 314 425 528 299 213 313 409
8 416 317 216 305 530 427 315 411
8 531 430 318 412 413 320 219 302
8 420 325 223 309 531 430 318 412
8 532 432 320 413 414 321 220 303
8 417 322 433 533 306 221 321 414
8 418 319 218 307 534 428 316 415
8 416 317 428 534 305 216 316 415
8 419 323 434 536 308 222 322 417
8 419 323 222 308 537 431 319 418
8 421 327 225 310 539 438 325 420
8 421 327 439 541 310 225 326 423
8 543 437 324 422 423 326 224 311
8 441 338 259 368 559 452 367 486
8 443 340 236 329 560 453 338 441
8 333 240 344 447 442 342 457 561
8 445 341 237 331 562 455 340 443
8 448 345 241 334 563 454 339 444
8 563 454 339 444 445 341 237 331
8 336 242 346 450 446 343 458 565
8 446 343 458 565 333 240 344 447
8 449 347 243 335 567 460 345 448
8 451 348 244 337 568 462 347 449
8 451 348 461 569 337 244 346 450
8 570 463 349 452 473 360 257 365
8 453 350 245 338 570 463 349 452
8 455 352 247 340 571 464 350 453
8 460 357 252 345 572 465 351 454
8 572 465 351 454 456 353 248 341
8 456 353 248 341 573 466 352 455
8 344 251 356 459 457 354 468 575
8 458 355 469 576 344 251 356 459
8 346 253 358 461 458 355 469 576
8 462 359 254 347 578 471 357 460
8 348 255 359 462 461 358 472 579
8 591 474 360 473 475 361 256 363
8 475 361 256 363 594 477 362 479
8 363 256 364 482 479 362 480 603
8 590 473 365 484 481 363 482 605
8 482 364 257 365 606 483 366 485
8 559 452 367 486 484 365 485 607
8 542 436 487 609 422 324 369 488
8 525 422 488 611 407 311 371 491
8 488 369 489 612 371 261 370 490
8 491 371 490 613 373 263 372 492
8 495 386 276 377 614 503 385 493
8 614 503 385 493 561 457 342 442
8 615 501 383 494 495 386 276 377
8 496 384 274 378 615 501 383 494
8 618 500 382 497 496 384 274 378
8 619 499 381 498 497 382 272 379
8 511 408 297 393 619 499 381 498
8 620 505 387 499 500 388 278 382
8 527 424 312 408 620 505 387 499
8 502 390 506 621 384 280 388 500
8 622 507 389 501 504 392 282 386
8 502 390 280 384 622 507 389 501
8 504 392 282 386 624 509 391 503
8 624 509 391 503 575 468 354 457
8 513 410 299 395 630 527 408 511
8 631 528 411 514 512 409 300 396
8 513 410 528 631 395 299 409 512
8 519 416 305 401 633 530 411 514
8 634 531 412 515 516 413 302 398
8 523 420 309 405 634 531 412 515
8 635 532 413 516 517 414 303 399
8 521 417 533 636 403 306 414 517
8 520 418 307 402 637 534 415 518
8 519 416 534 637 401 305 415 518
8 522 419 308 404 639 537 418 520
8 522 419 536 640 404 308 417 521
8 524 421 310 406 642 539 420 523
8 524 421 541 644 406 310 423 526
8 646 543 422 525 526 423 311 407
8 529 426 314 410 647 544 424 527
8 528 425 545 648 411 315 427 530
8 529 426 545 648 410 314 425 528
8 535 429 317 416 649 546 427 530
8 650 548 430 531 532 432 320 413
8 539 438 325 420 650 548 430 531
8 533 433 550 651 414 321 432 532
8 536 434 551 652 417 322 433 533
8 537 431 319 418 653 547 428 534
8 535 429 547 653 416 317 428 534
8 538 435 552 654 419 323 434 536
8 538 435 323 419 655 549 431 537
8 540 440 327 421 657 556 438 539
8 540 440 557 659 421 327 439 541
8 541 439 555 660 423 326 437 543
8 661 554 436 542 543 437 324 422
8 676 570 452 559 590 473 365 484
8 560 453 338 441 676 570 452 559
8 562 455 340 443 677 571 453 560
8 447 344 459 566 561 457 575 678
8 564 456 341 445 679 573 455 562
8 567 460 345 448 680 572 454 563
8 680 572 454 563 564 456 341 445
8 565 458 576 682 447 344 459 566
8 450 346 461 569 565 458 576 682
8 568 462 347 449 684 578 460 567
8 451 348 462 568 569 461 579 685
8 686 580 463 570 591 474 360 473
8 571 464 350 453 686 580 463 570
8 573 466 352 455 687 581 464 571
8 572 465 582 688 460 357 471 578
8 574 467 582 688 456 353 465 572
8 574 467 353 456 689 583 466 573
8 459 356 470 577 575 468 585 691
8 576 469 586 692 459 356 470 577
8 461 358 472 579 576 469 586 692
8 462 359 471 578 579 472 588 694
8 704 591 473 590 593 475 363 481
8 595 476 592 705 475 361 474 591
8 593 475 363 481 707 594 479 602
8 594 477 362 479 709 598 478 600
8 595 476 361 475 711 597 477 594
8 479 362 480 603 600 478 601 720
8 481 363 482 605 602 479 603 722
8 603 480 364 482 723 604 483 606
8 605 482 365 484 724 606 485 607
8 656 553 608 726 542 436 487 609
8 645 542 609 728 525 422 488 611
8 609 487 610 729 488 369 489 612
8 611 488 612 730 491 371 490 613
8 616 504 386 495 731 624 503 614
8 731 624 503 614 678 575 457 561
8 732 622 501 615 616 504 386 495
8 617 502 384 496 732 622 501 615
8 617 502 621 735 496 384 500 618
8 736 620 499 619 618 500 382 497
8 630 527 408 511 736 620 499 619
8 621 506 626 737 500 388 505 620
8 647 544 424 527 737 626 505 620
8 623 508 627 738 502 390 506 621
8 623 508 390 502 739 628 507 622
8 625 510 628 739 504 392 507 622
8 740 629 509 624 691 585 468 575
8 625 510 392 504 740 629 509 624
8 632 529 410 513 744 647 527 630
8 631 528 648 745 514 411 530 633
8 632 529 648 745 513 410 528 631
8 638 535 416 519 746 649 530 633
8 747 650 531 634 635 532 413 516
8 642 539 420 523 747 650 531 634
8 636 533 651 748 517 414 532 635
8 640 536 652 749 521 417 533 636
8 639 537 418 520 750 653 534 637
8 638 535 653 750 519 416 534 637
8 641 538 419 522 751 655 537 639
8 641 538 654 752 522 419 536 640
8 643 540 421 524 753 657 539 642
8 643 540 659 755 524 421 541 644
8 644 541 660 757 526 423 543 646
8 758 661 542 645 646 543 422 525
8 529 426 544 647 648 545 662 759
8 530 427 545 648 649 546 663 760
8 535 429 546 649 653 547 664 761
8 762 666 548 650 651 550 432 532
8 657 556 438 539 762 666 548 650
8 652 551 668 763 533 433 550 651
8 654 552 669 764 536 434 551 652
8 655 549 431 537 765 665 547 653
8 538 435 549 655 654 552 667 766
8 661 554 671 768 542 436 553 656
8 658 558 440 540 769 674 556 657
8 658 558 675 770 540 440 557 659
8 659 557 673 771 541 439 555 660
8 660 555 672 772 543 437 554 661
8 788 686 570 676 704 591 473 590
8 677 571 453 560 788 686 570 676
8 679 573 455 562 789 687 571 677
8 566 459 577 683 678 575 691 790
8 681 574 456 564 791 689 573 679
8 680 572 688 792 567 460 578 684
8 681 574 688 792 564 456 572 680
8 682 576 692 794 566 459 577 683
8 569 461 579 685 682 576 692 794
8 568 462 578 684 685 579 694 796
8 687 581 464 571 798 696 580 686
8 798 696 580 686 705 592 474 591
8 689 583 466 573 799 697 581 687
8 688 582 698 800 578 471 588 694
8 690 584 698 800 574 467 582 688
8 690 584 467 574 801 699 583 689
8 693 587 701 803 577 470 585 691
8 693 587 470 577 804 702 586 692
8 695 589 702 804 579 472 586 692
8 695 589 472 579 805 703 588 694
8 708 595 705 813 593 475 591 704
8 710 596 706 814 595 476 592 705
8 707 594 479 602 816 709 600 719
8 708 595 475 593 817 711 594 707
8 709 598 478 600 819 715 599 717
8 711 597 477 594 820 714 598 709
8 710 596 476 595 822 713 597 711
8 600 478 601 720 717 599 718 832
8 602 479 603 722 719 600 720 834
8 720 601 480 603 835 721 604 723
8 722 603 482 605 836 723 606 724
8 767 670 725 839 656 553 608 726
8 756 656 726 841 645 542 609 728
8 726 608 727 842 609 487 610 729
8 728 609 729 843 611 488 612 730
8 844 740 624 731 790 691 575 678
8 733 625 504 616 844 740 624 731
8 734 623 502 617 845 739 622 732
8 733 625 739 845 616 504 622 732
8 734 623 738 846 617 502 621 735
8 735 621 737 847 618 500 620 736
8 744 647 527 630 847 737 620 736
8 621 506 627 738 737 626 741 848
8 647 544 626 737 759 662 741 848
8 623 508 628 739 738 627 742 849
8 740 629 585 691 850 743 700 802
8 625 510 629 740 739 628 743 850
8 632 529 647 744 745 648 759 854
8 633 530 648 745 746 649 760 855
8 638 535 649 746 750 653 761 856
8 857 762 650 747 748 651 532 635
8 753 657 539 642 857 762 650 747
8 749 652 763 858 636 533 651 748
8 752 654 764 859 640 536 652 749
8 751 655 537 639 860 765 653 750
8 641 538 655 751 752 654 766 861
8 754 658 540 643 862 769 657 753
8 754 658 770 863 643 540 659 755
8 755 659 771 864 644 541 660 757
8 758 661 768 866 645 542 656 756
8 757 660 772 867 646 543 661 758
8 759 662 773 868 648 545 663 760
8 649 546 663 760 761 664 774 871
8 765 665 547 653 872 775 664 761
8 873 777 666 762 763 668 550 651
8 769 674 556 657 873 777 666 762
8 764 669 779 874 652 551 668 763
8 654 552 667 766 764 669 778 875
8 655 549 665 765 766 667 776 876
8 768 671 782 877 656 553 670 767
8 772 672 783 878 661 554 671 768
8 658 558 674 769 770 675 786 879
8 659 557 675 770 771 673 785 881
8 882 784 672 772 771 673 555 660
8 789 687 571 677 897 798 686 788
8 897 798 686 788 813 705 591 704
8 791 689 573 679 898 799 687 789
8 795 693 803 900 683 577 691 790
8 793 690 574 681 901 801 689 791
8 792 688 800 902 684 578 694 796
8 793 690 800 902 681 574 688 792
8 795 693 577 683 903 804 692 794
8 797 695 804 903 685 579 692 794
8 797 695 579 685 904 805 694 796
8 905 806 697 799 798 696 581 687
8 814 706 806 905 705 592 696 798
8 689 583 697 799 801 699 808 907
8 800 698 809 908 694 588 703 805
8 690 584 699 801 800 698 809 908
8 803 701 810 909 691 585 700 802
8 693 587 702 804 803 701 811 910
8 695 589 703 805 804 702 812 911
8 818 710 814 919 708 595 705 813
8 821 712 815 920 710 596 706 814
8 816 709 600 719 922 819 717 831
8 817 711 594 707 923 820 709 816
8 818 710 595 708 924 822 711 817
8 819 715 599 717 926 827 716 829
8 820 714 598 709 927 826 715 819
8 929 825 713 822 820 714 597 711
8 821 712 596 710 930 824 713 822
8 717 599 718 832 829 716 830 942
8 719 600 720 834 831 717 832 944
8 832 718 601 720 945 833 721 835
8 834 720 603 722 946 835 723 836
8 869 780 838 950 767 670 725 839
8 865 767 839 952 756 656 726 841
8 839 725 840 953 726 608 727 842
8 841 726 842 954 728 609 729 843
8 844 740 691 790 955 850 802 899
8 733 625 740 844 845 739 850 955
8 734 623 739 845 846 738 849 956
8 735 621 738 846 847 737 848 957
8 744 647 737 847 854 759 848 957
8 738 627 742 849 848 741 851 958
8 848 741 851 958 759 662 773 868
8 850 743 700 802 959 852 807 906
8 849 742 628 739 959 852 743 850
8 854 759 868 965 745 648 760 855
8 746 649 760 855 856 761 871 966
8 860 765 653 750 967 872 761 856
8 968 873 762 857 858 763 651 748
8 862 769 657 753 968 873 762 857
8 859 764 874 969 749 652 763 858
8 752 654 766 861 859 764 875 970
8 751 655 765 860 861 766 876 971
8 754 658 769 862 863 770 879 972
8 755 659 770 863 864 771 881 974
8 976 882 772 867 864 771 660 757
8 866 768 877 977 756 656 767 865
8 867 772 878 978 758 661 768 866
8 760 663 773 868 871 774 883 980
8 870 781 837 948 982 890 780 869
8 982 890 780 869 877 782 670 767
8 761 664 774 871 872 775 884 984
8 876 776 665 765 985 885 775 872
8 873 777 668 763 986 887 779 874
8 769 674 777 873 879 786 887 986
8 764 669 778 875 874 779 888 987
8 766 667 776 876 875 778 886 988
8 878 783 892 989 768 671 782 877
8 878 783 672 772 990 893 784 882
8 880 787 675 770 991 896 786 879
8 880 787 895 992 770 675 785 881
8 881 785 894 993 771 673 784 882
8 1006 905 799 898 897 798 687 789
8 919 814 905 1006 813 705 798 897
8 791 689 799 898 901 801 907 1007
8 900 803 909 1009 790 691 802 899
8 795 693 804 903 900 803 910 1010
8 902 800 908 1011 796 694 805 904
8 793 690 801 901 902 800 908 1011
8 797 695 805 904 903 804 911 1012
8 799 697 806 905 907 808 912 1013
8 920 815 912 1013 814 706 806 905
8 802 700 810 909 906 807 913 1014
8 801 699 808 907 908 809 914 1015
8 805 703 809 908 911 812 915 1016
8 803 701 811 910 909 810 916 1017
8 911 812 917 1018 804 702 811 910
8 925 821 920 1030 818 710 814 919
8 928 823 921 1031 821 712 815 920
8 922 819 717 831 1033 926 829 941
8 923 820 709 816 1034 927 819 922
8 1035 929 822 924 923 820 711 817
8 925 821 710 818 1036 930 822 924
8 1038 933 825 929 927 826 714 820
8 926 827 716 829 1039 935 828 939
8 927 826 715 819 1040 934 827 926
8 928 823 712 821 1041 931 824 930
8 1042 932 824 930 929 825 713 822
8 829 716 830 942 939 828 940 1058
8 831 717 832 944 941 829 942 1060
8 942 830 718 832 1061 943 833 945
8 944 832 720 834 1062 945 835 946
8 981 889 947 1064 870 781 837 948
8 948 837 949 1067 869 780 838 950
8 975 869 950 1069 865 767 839 952
8 950 838 951 1070 839 725 840 953
8 952 839 953 1071 841 726 842 954
8 955 850 802 899 1072 959 906 1008
8 956 849 739 845 1072 959 850 955
8 846 738 849 956 957 848 958 1073
8 957 848 958 1073 854 759 868 965
8 849 742 852 959 958 851 961 1076
8 960 853 961 1076 906 807 852 959
8 958 851 961 1076 868 773 883 980
8 960 853 807 906 1077 963 913 1014
8 855 760 868 965 966 871 980 1085
8 856 761 871 966 967 872 984 1086
8 971 876 765 860 1087 985 872 967
8 968 873 763 858 1088 986 874 969
8 862 769 873 968 972 879 986 1088
8 859 764 875 970 969 874 987 1089
8 861 766 876 971 970 875 988 1090
8 973 880 770 863 1091 991 879 972
8 973 880 992 1092 863 770 881 974
8 974 881 993 1093 864 771 882 976
8 979 870 948 1066 1094 982 869 975
8 1094 982 869 975 977 877 767 865
8 978 878 772 867 1095 990 882 976
8 978 878 989 1096 866 768 877 977
8 871 774 883 980 984 884 994 1099
8 983 891 999 1100 870 781 889 981
8 1101 1000 890 982 989 892 782 877
8 983 891 781 870 1101 1000 890 982
8 872 775 884 984 985 885 995 1103
8 876 776 885 985 988 886 996 1104
8 986 887 779 874 1105 998 888 987
8 879 786 887 986 991 896 998 1105
8 875 778 886 988 987 888 997 1106
8 990 893 1002 1107 878 783 892 989
8 1108 1003 893 990 993 894 784 882
8 880 787 896 991 992 895 1005 1109
8 993 894 785 881 1110 1004 895 992
8 898 799 905 1006 1007 907 1013 1120
8 1030 920 1013 1120 919 814 905 1006
8 901 801 907 1007 1011 908 1015 1121
8 899 802 909 1009 1008 906 1014 1122
8 900 803 910 1010 1009 909 1017 1123
8 1012 911 1018 1124 903 804 910 1010
8 904 805 908 1011 1012 911 1016 1125
8 1013 912 1020 1127 907 808 914 1015
8 1031 921 1020 1127 920 815 912 1013
8 1019 918 962 1075 1128 1021 913 1014
8 1128 1021 913 1014 1017 916 810 909
8 1015 914 1022 1129 908 809 915 1016
8 1016 915 1023 1130 911 812 917 1018
8 1018 917 1024 1131 910 811 916 1017
8 1037 928 1031 1148 925 821 920 1030
8 928 823 931 1041 1031 921 1032 1149
8 1033 926 829 941 1151 1039 939 1057
8 1034 927 819 922 1152 1040 926 1033
8 1153 1038 929 1035 1034 927 820 923
8 1154 1042 930 1036 1035 929 822 924
8 1037 928 821 925 1155 1041 930 1036
8 1039 935 828 939 1156 1047 938 1055
8 1157 1043 932 1042 1038 933 825 929
8 1038 933 826 927 1158 1045 934 1040
8 1040 934 827 926 1159 1046 935 1039
8 930 824 932 1042 1041 931 1044 1160
8 1051 936 1048 1165 1175 1052 937 1053
8 1156 1047 938 1055 1053 937 1054 1178
8 939 828 940 1058 1055 938 1056 1181
8 941 829 942 1060 1057 939 1058 1183
8 942 830 943 1061 1058 940 1059 1184
8 1060 942 832 944 1185 1061 945 1062
8 1082 964 1063 1188 981 889 947 1064
8 1097 981 1064 1190 979 870 948 1066
8 1064 947 1065 1191 948 837 949 1067
8 1066 948 1067 1193 975 869 950 1069
8 1067 949 1068 1194 950 838 951 1070
8 1069 950 1070 1195 952 839 953 1071
8 956 849 959 1072 1073 958 1076 1197
8 1074 960 1076 1197 1008 906 959 1072
8 1073 958 1076 1197 965 868 980 1085
8 1074 960 906 1008 1198 1077 1014 1122
8 1133 1026 1079 1199 1019 918 962 1075
8 1077 963 913 1014 1200 1080 962 1075
8 960 853 963 1077 1076 961 1078 1201
8 980 883 961 1076 1099 994 1078 1201
8 1210 1083 964 1082 1100 999 889 981
8 966 871 980 1085 1086 984 1099 1215
8 967 872 984 1086 1087 985 1103 1216
8 971 876 985 1087 1090 988 1104 1217
8 1088 986 874 969 1218 1105 987 1089
8 972 879 986 1088 1091 991 1105 1218
8 970 875 988 1090 1089 987 1106 1219
8 973 880 991 1091 1092 992 1109 1220
8 1093 993 881 974 1221 1110 992 1092
8 1222 1108 990 1095 1093 993 882 976
8 1223 1101 982 1094 1096 989 877 977
8 1098 983 870 979 1223 1101 982 1094
8 1095 990 1107 1224 978 878 989 1096
8 1098 983 1100 1225 979 870 981 1097
8 984 884 994 1099 1103 995 1111 1227
8 1102 1001 1115 1228 983 891 999 1100
8 1101 1000 892 989 1229 1116 1002 1107
8 1102 1001 891 983 1229 1116 1000 1101
8 985 885 995 1103 1104 996 1112 1230
8 988 886 996 1104 1106 997 1113 1231
8 1105 998 888 987 1232 1114 997 1106
8 991 896 998 1105 1109 1005 1114 1232
8 1108 1003 1117 1233 990 893 1002 1107
8 1108 1003 894 993 1233 1117 1004 1110
8 992 895 1005 1109 1110 1004 1118 1234
8 1120 1013 1127 1244 1007 907 1015 1121
8 1148 1031 1127 1244 1030 920 1013 1120
8 1121 1015 1129 1245 1011 908 1016 1125
8 1126 1019 1075 1196 1246 1128 1014 1122
8 1246 1128 1014 1122 1123 1017 909 1009
8 1124 1018 1131 1247 1010 910 1017 1123
8 1125 1016 1130 1248 1012 911 1018 1124
8 1127 1020 1137 1254 1015 914 1022 1129
8 1031 921 1032 1149 1127 1020 1137 1254
8 1134 1027 918 1019 1257 1140 1021 1128
8 1257 1140 1021 1128 1131 1024 916 1017
8 1129 1022 1141 1258 1016 915 1023 1130
8 1130 1023 1142 1259 1018 917 1024 1131
8 1261 1144 1025 1132 1133 1026 1079 1199
8 1255 1138 1025 1132 1135 1028 1144 1261
8 1133 1026 918 1019 1262 1145 1027 1134
8 1136 1029 1139 1256 1263 1146 1028 1135
8 1037 928 1041 1155 1148 1031 1149 1275
8 1041 931 1044 1160 1149 1032 1150 1276
8 1151 1039 939 1057 1278 1156 1055 1180
8 1152 1040 926 1033 1279 1159 1039 1151
8 1153 1038 927 1034 1280 1158 1040 1152
8 1281 1157 1042 1154 1153 1038 929 1035
8 1036 930 1042 1154 1155 1041 1160 1282
8 1283 1164 1046 1159 1156 1047 935 1039
8 1165 1048 1164 1283 1053 937 1047 1156
8 1157 1043 933 1038 1284 1161 1045 1158
8 1157 1043 1161 1284 1042 932 1044 1160
8 1040 934 1046 1159 1158 1045 1163 1285
8 1166 1049 1167 1292 1051 936 1048 1165
8 1166 1049 936 1051 1293 1168 1050 1172
8 1051 936 1052 1175 1172 1050 1173 1306
8 1174 1051 1165 1290 1308 1175 1053 1177
8 1053 937 1054 1178 1175 1052 1176 1309
8 1278 1156 1055 1180 1177 1053 1178 1311
8 1055 938 1056 1181 1178 1054 1179 1312
8 1057 939 1058 1183 1180 1055 1181 1314
8 1058 940 1059 1184 1181 1056 1182 1315
8 1060 942 1061 1185 1183 1058 1184 1316
8 1208 1081 1187 1321 1082 964 1063 1188
8 1209 1082 1188 1322 1097 981 1064 1190
8 1188 1063 1189 1323 1064 947 1065 1191
8 1190 1064 1191 1325 1066 948 1067 1193
8 1191 1065 1192 1326 1067 949 1068 1194
8 1067 1193 1069 950 1194 1327 1195 1070
8 1250 1133 1199 1330 1126 1019 1075 1196
8 1198 1077 1014 1122 1331 1200 1075 1196
8 1074 960 1077 1198 1197 1076 1201 1332
8 1085 980 1076 1197 1215 1099 1201 1332
8 1199 1079 1203 1333 1075 962 1080 1200
8 1132 1025 1119 1243 1199 1079 1203 1333
8 1201 1078 963 1077 1334 1202 1080 1200
8 1099 994 1078 1201 1227 1111 1202 1334
8 1343 1207 1081 1208 1210 1083 964 1082
8 1214 1084 1186 1319 1343 1207 1081 1208
8 1345 1210 1082 1209 1225 1100 981 1097
8 1346 1211 1083 1210 1228 1115 999 1100
8 1086 984 1099 1215 1216 1103 1227 1352
8 1087 985 1103 1216 1217 1104 1230 1353
8 1090 988 1104 1217 1219 1106 1231 1354
8 1218 1105 987 1089 1355 1232 1106 1219
8 1091 991 1105 1218 1220 1109 1232 1355
8 1092 992 1109 1220 1221 1110 1234 1356
8 1222 1108 1233 1357 1095 990 1107 1224
8 1222 1108 993 1093 1357 1233 1110 1221
8 1223 1101 989 1096 1358 1229 1107 1224
8 1226 1102 983 1098 1358 1229 1101 1223
8 1226 1102 1228 1359 1098 983 1100 1225
8 1103 995 1111 1227 1230 1112 1235 1360
8 1107 1002 1117 1233 1229 1116 1240 1362
8 1102 1001 1116 1229 1228 1115 1240 1362
8 1104 996 1112 1230 1231 1113 1236 1363
8 1364 1237 1114 1232 1231 1113 997 1106
8 1109 1005 1114 1232 1234 1118 1238 1365
8 1110 1004 1118 1234 1233 1117 1241 1366
8 1242 1374 1255 1138 1119 1243 1132 1025
8 1244 1127 1254 1376 1121 1015 1129 1245
8 1148 1031 1149 1275 1244 1127 1254 1376
8 1245 1129 1258 1377 1125 1016 1130 1248
8 1251 1134 1019 1126 1378 1257 1128 1246
8 1378 1257 1128 1246 1247 1131 1017 1123
8 1248 1130 1259 1379 1124 1018 1131 1247
8 1261 1381 1250 1133 1132 1249 1330 1199
8 1255 1380 1252 1135 1132 1249 1381 1261
8 1250 1133 1019 1126 1382 1262 1134 1251
8 1253 1136 1256 1385 1384 1263 1135 1252
8 1254 1137 1265 1387 1129 1022 1141 1258
8 1149 1032 1150 1276 1254 1137 1265 1387
8 1028 1135 1255 1138 1139 1256 1388 1266
8 1136 1029 1147 1264 1256 1139 1267 1389
8 1390 1268 1140 1257 1259 1142 1024 1131
8 1260 1143 1027 1134 1390 1268 1140 1257
8 1258 1141 1269 1391 1130 1023 1142 1259
8 1262 1145 1027 1134 1393 1271 1143 1260
8 1261 1144 1026 1133 1394 1272 1145 1262
8 1135 1028 1144 1261 1263 1146 1272 1394
8 1136 1029 1146 1263 1264 1147 1273 1395
8 1155 1041 1160 1282 1275 1149 1276 1405
8 1276 1150 1044 1160 1406 1277 1162 1286
8 1408 1283 1159 1279 1278 1156 1039 1151
8 1290 1165 1283 1408 1177 1053 1156 1278
8 1152 1040 1159 1279 1280 1158 1285 1409
8 1281 1157 1038 1153 1410 1284 1158 1280
8 1281 1157 1284 1410 1154 1042 1160 1282
8 1159 1046 1164 1283 1285 1163 1289 1412
8 1292 1167 1289 1412 1165 1048 1164 1283
8 1158 1045 1163 1285 1284 1161 1288 1413
8 1284 1161 1288 1413 1160 1044 1162 1286
8 1291 1166 1292 1418 1174 1051 1165 1290
8 1291 1166 1051 1174 1419 1293 1172 1305
8 1294 1169 1296 1421 1166 1049 1167 1292
8 1293 1168 1050 1172 1422 1295 1171 1303
8 1294 1169 1049 1166 1423 1297 1168 1293
8 1422 1295 1171 1303 1301 1170 1302 1435
8 1172 1050 1173 1306 1303 1171 1304 1438
8 1174 1051 1175 1308 1305 1172 1306 1440
8 1175 1052 1176 1309 1306 1173 1307 1441
8 1177 1053 1178 1311 1308 1175 1309 1443
8 1178 1054 1179 1312 1309 1176 1310 1444
8 1180 1055 1181 1314 1311 1178 1312 1446
8 1056 1181 1312 1179 1182 1315 1447 1313
8 1183 1058 1184 1316 1314 1181 1315 1448
8 1319 1186 1084 1214 1451 1317 1213 1350
8 1319 1186 1318 1453 1208 1081 1187 1321
8 1321 1187 1320 1456 1188 1063 1189 1323
8 1344 1208 1321 1457 1209 1082 1188 1322
8 1322 1188 1323 1458 1190 1064 1191 1325
8 1323 1189 1324 1459 1191 1065 1192 1326
8 1191 1325 1193 1067 1326 1460 1327 1194
8 1242 1374 1243 1119 1328 1462 1335 1204
8 1330 1199 1333 1465 1196 1075 1200 1331
8 1132 1249 1330 1199 1243 1375 1465 1333
8 1332 1201 1077 1198 1466 1334 1200 1331
8 1215 1099 1201 1332 1352 1227 1334 1466
8 1119 1243 1333 1203 1204 1335 1470 1338
8 1333 1203 1338 1470 1200 1080 1202 1334
8 1227 1111 1202 1334 1360 1235 1338 1470
8 1328 1462 1335 1204 1205 1336 1471 1339
8 1337 1206 1340 1472 1464 1329 1205 1336
8 1346 1211 1342 1479 1210 1083 1207 1343
8 1346 1211 1115 1228 1479 1342 1239 1361
8 1348 1212 1084 1214 1479 1342 1207 1343
8 1480 1343 1208 1344 1345 1210 1082 1209
8 1351 1214 1319 1454 1480 1343 1208 1344
8 1481 1346 1210 1345 1359 1228 1100 1225
8 1348 1212 1347 1483 1214 1084 1213 1350
8 1216 1103 1227 1352 1353 1230 1360 1488
8 1217 1104 1230 1353 1354 1231 1363 1489
8 1490 1364 1232 1355 1354 1231 1106 1219
8 1220 1109 1232 1355 1356 1234 1365 1491
8 1221 1110 1234 1356 1357 1233 1366 1492
8 1224 1107 1233 1357 1358 1229 1362 1493
8 1226 1102 1229 1358 1359 1228 1362 1493
8 1230 1112 1235 1360 1363 1236 1367 1496
8 1361 1239 1115 1228 1497 1371 1240 1362
8 1366 1241 1372 1498 1233 1117 1240 1362
8 1364 1237 1113 1231 1499 1368 1236 1363
8 1364 1237 1368 1499 1232 1114 1238 1365
8 1234 1118 1238 1365 1366 1241 1369 1500
8 1507 1373 1242 1374 1388 1266 1138 1255
8 1508 1374 1243 1375 1380 1255 1132 1249
8 1376 1254 1387 1509 1245 1129 1258 1377
8 1275 1149 1276 1405 1376 1254 1387 1509
8 1377 1258 1391 1510 1248 1130 1259 1379
8 1511 1390 1257 1378 1379 1259 1131 1247
8 1383 1260 1134 1251 1511 1390 1257 1378
8 1252 1135 1256 1385 1380 1255 1388 1512
8 1261 1381 1513 1394 1133 1250 1382 1262
8 1135 1252 1384 1263 1261 1381 1513 1394
8 1382 1262 1134 1251 1514 1393 1260 1383
8 1253 1136 1263 1384 1386 1264 1395 1516
8 1253 1136 1264 1386 1385 1256 1389 1517
8 1387 1265 1397 1519 1258 1141 1269 1391
8 1276 1150 1277 1406 1387 1265 1397 1519
8 1256 1139 1267 1389 1388 1266 1398 1520
8 1264 1147 1274 1396 1389 1267 1399 1521
8 1392 1270 1143 1260 1522 1400 1268 1390
8 1390 1268 1142 1259 1522 1400 1269 1391
8 1392 1270 1401 1523 1260 1143 1271 1393
8 1272 1394 1524 1402 1145 1262 1393 1271
8 1395 1273 1146 1263 1524 1402 1272 1394
8 1273 1395 1264 1147 1403 1526 1396 1274
8 1405 1276 1160 1282 1534 1406 1286 1411
8 1414 1287 1407 1535 1286 1162 1277 1406
8 1279 1159 1283 1408 1409 1285 1412 1537
8 1418 1292 1412 1537 1290 1165 1283 1408
8 1280 1158 1285 1409 1410 1284 1413 1538
8 1410 1284 1413 1538 1282 1160 1286 1411
8 1285 1163 1289 1412 1413 1288 1417 1540
8 1421 1296 1417 1540 1292 1167 1289 1412
8 1414 1287 1162 1286 1541 1416 1288 1413
8 1420 1294 1421 1545 1291 1166 1292 1418
8 1419 1293 1172 1305 1546 1422 1303 1437
8 1420 1294 1166 1291 1547 1423 1293 1419
8 1294 1169 1297 1423 1421 1296 1425 1548
8 1423 1297 1168 1293 1549 1424 1295 1422
8 1301 1170 1298 1427 1422 1295 1424 1549
8 1432 1300 1428 1554 1301 1170 1298 1427
8 1431 1299 1428 1554 1560 1430 1300 1432
8 1563 1433 1300 1432 1435 1302 1170 1301
8 1546 1422 1303 1437 1434 1301 1435 1565
8 1303 1171 1304 1438 1435 1302 1436 1566
8 1305 1172 1306 1440 1437 1303 1438 1568
8 1306 1173 1307 1441 1438 1304 1439 1569
8 1308 1175 1309 1443 1440 1306 1441 1571
8 1309 1176 1310 1444 1441 1307 1442 1572
8 1311 1178 1312 1446 1443 1309 1444 1574
8 1179 1312 1444 1310 1313 1447 1575 1445
8 1314 1181 1315 1448 1446 1312 1447 1576
8 1350 1213 1349 1486 1451 1317 1449 1579
8 1451 1317 1450 1581 1319 1186 1318 1453
8 1454 1319 1214 1351 1582 1451 1350 1487
8 1453 1318 1452 1584 1321 1187 1320 1456
8 1454 1319 1453 1585 1344 1208 1321 1457
8 1456 1320 1455 1586 1323 1189 1324 1459
8 1457 1321 1456 1587 1322 1188 1323 1458
8 1458 1323 1459 1588 1325 1191 1326 1460
8 1205 1336 1464 1329 1328 1462 1590 1461
8 1507 1373 1461 1590 1374 1242 1328 1462
8 1508 1374 1462 1591 1375 1243 1335 1467
8 1337 1206 1329 1464 1473 1341 1463 1594
8 1375 1243 1335 1467 1465 1333 1470 1596
8 1465 1333 1470 1596 1331 1200 1334 1466
8 1352 1227 1334 1466 1488 1360 1470 1596
8 1591 1462 1336 1468 1467 1335 1471 1597
8 1469 1337 1472 1598 1595 1464 1336 1468
8 1471 1339 1474 1600 1335 1204 1338 1470
8 1600 1474 1367 1496 1470 1338 1235 1360
8 1336 1205 1340 1472 1471 1339 1475 1601
8 1337 1206 1341 1473 1472 1340 1476 1602
8 1495 1370 1478 1609 1361 1239 1342 1479
8 1348 1212 1342 1479 1483 1347 1478 1609
8 1481 1346 1479 1610 1345 1210 1343 1480
8 1481 1346 1228 1359 1610 1479 1361 1494
8 1484 1348 1214 1351 1610 1479 1343 1480
8 1483 1347 1482 1612 1350 1213 1349 1486
8 1484 1348 1483 1613 1351 1214 1350 1487
8 1353 1230 1360 1488 1489 1363 1496 1616
8 1490 1364 1231 1354 1617 1499 1363 1489
8 1490 1364 1499 1617 1355 1232 1365 1491
8 1356 1234 1365 1491 1492 1366 1500 1619
8 1492 1366 1498 1620 1357 1233 1362 1493
8 1494 1361 1228 1359 1621 1497 1362 1493
8 1495 1370 1239 1361 1622 1504 1371 1497
8 1363 1236 1367 1496 1499 1368 1501 1623
8 1497 1371 1240 1362 1624 1505 1372 1498
8 1625 1503 1372 1498 1500 1369 1241 1366
8 1365 1238 1368 1499 1500 1369 1502 1626
8 1520 1398 1506 1633 1388 1266 1373 1507
8 1634 1507 1374 1508 1512 1388 1255 1380
8 1509 1387 1519 1635 1377 1258 1391 1510
8 1405 1276 1406 1534 1509 1387 1519 1635
8 1515 1392 1260 1383 1636 1522 1390 1511
8 1511 1390 1259 1379 1636 1522 1391 1510
8 1385 1256 1389 1517 1512 1388 1520 1637
8 1513 1394 1262 1382 1638 1524 1393 1514
8 1395 1516 1638 1524 1263 1384 1513 1394
8 1515 1392 1523 1639 1383 1260 1393 1514
8 1516 1395 1526 1640 1386 1264 1396 1518
8 1386 1264 1396 1518 1517 1389 1521 1641
8 1519 1397 1527 1643 1391 1269 1400 1522
8 1535 1407 1527 1643 1406 1277 1397 1519
8 1389 1267 1399 1521 1520 1398 1528 1644
8 1645 1529 1399 1521 1525 1404 1274 1396
8 1392 1270 1400 1522 1523 1401 1531 1646
8 1524 1402 1271 1393 1648 1532 1401 1523
8 1403 1526 1648 1532 1273 1395 1524 1402
8 1525 1404 1274 1396 1649 1533 1403 1526
8 1539 1414 1535 1657 1411 1286 1406 1534
8 1542 1415 1536 1658 1414 1287 1407 1535
8 1409 1285 1412 1537 1538 1413 1540 1660
8 1545 1421 1540 1660 1418 1292 1412 1537
8 1539 1414 1286 1411 1661 1541 1413 1538
8 1540 1417 1544 1663 1413 1288 1416 1541
8 1421 1296 1425 1548 1540 1417 1544 1663
8 1542 1415 1287 1414 1664 1543 1416 1541
8 1420 1294 1423 1547 1545 1421 1548 1666
8 1547 1423 1293 1419 1667 1549 1422 1546
8 1434 1301 1427 1553 1546 1422 1549 1667
8 1423 1297 1424 1549 1548 1425 1550 1668
8 1551 1426 1550 1668 1427 1298 1424 1549
8 1551 1426 1298 1427 1671 1552 1428 1554
8 1562 1432 1554 1674 1434 1301 1427 1553
8 1431 1299 1429 1558 1554 1428 1555 1675
8 1431 1299 1430 1560 1558 1429 1557 1680
8 1560 1430 1300 1432 1683 1559 1433 1563
8 1561 1431 1554 1674 1684 1560 1432 1562
8 1685 1563 1432 1562 1565 1435 1301 1434
8 1435 1302 1436 1566 1563 1433 1564 1686
8 1437 1303 1438 1568 1565 1435 1566 1688
8 1438 1304 1439 1569 1566 1436 1567 1689
8 1440 1306 1441 1571 1568 1438 1569 1691
8 1441 1307 1442 1572 1569 1439 1570 1692
8 1443 1309 1444 1574 1571 1441 1572 1694
8 1310 1444 1572 1442 1445 1575 1695 1573
8 1446 1312 1447 1576 1574 1444 1575 1696
8 1486 1349 1485 1614 1579 1449 1577 1699
8 1451 1317 1449 1579 1581 1450 1578 1701
8 1487 1350 1486 1615 1582 1451 1579 1702
8 1581 1450 1580 1704 1453 1318 1452 1584
8 1582 1451 1581 1705 1454 1319 1453 1585
8 1584 1452 1583 1706 1456 1320 1455 1586
8 1585 1453 1584 1707 1457 1321 1456 1587
8 1587 1456 1586 1708 1458 1323 1459 1588
8 1633 1506 1589 1710 1507 1373 1461 1590
8 1464 1329 1461 1590 1594 1463 1589 1710
8 1468 1336 1462 1591 1595 1464 1590 1711
8 1634 1507 1590 1711 1508 1374 1462 1591
8 1473 1341 1463 1594 1603 1477 1593 1716
8 1469 1337 1464 1595 1599 1473 1594 1717
8 1471 1597 1467 1335 1600 1718 1596 1470
8 1718 1600 1496 1616 1596 1470 1360 1488
8 1336 1468 1597 1471 1472 1598 1719 1601
8 1469 1337 1473 1599 1598 1472 1602 1720
8 1722 1604 1501 1623 1600 1474 1367 1496
8 1475 1601 1471 1339 1604 1722 1600 1474
8 1602 1476 1605 1723 1472 1340 1475 1601
8 1476 1602 1724 1606 1341 1473 1603 1477
8 1483 1347 1478 1609 1612 1482 1608 1731
8 1495 1370 1504 1622 1609 1478 1608 1731
8 1618 1495 1609 1732 1494 1361 1479 1610
8 1484 1348 1479 1610 1613 1483 1609 1732
8 1486 1349 1482 1612 1614 1485 1611 1733
8 1613 1483 1612 1734 1487 1350 1486 1615
8 1489 1363 1496 1616 1617 1499 1623 1736
8 1491 1365 1499 1617 1619 1500 1626 1737
8 1618 1495 1361 1494 1738 1622 1497 1621
8 1739 1625 1498 1620 1619 1500 1366 1492
8 1621 1497 1362 1493 1740 1624 1498 1620
8 1742 1631 1504 1622 1624 1505 1371 1497
8 1743 1628 1502 1626 1623 1501 1368 1499
8 1744 1630 1505 1624 1625 1503 1372 1498
8 1745 1629 1503 1625 1626 1502 1369 1500
8 1520 1398 1528 1644 1633 1506 1632 1751
8 1637 1520 1633 1752 1512 1388 1507 1634
8 1635 1519 1643 1753 1510 1391 1522 1636
8 1657 1535 1643 1753 1534 1406 1519 1635
8 1515 1392 1522 1636 1639 1523 1646 1754
8 1517 1389 1521 1641 1637 1520 1644 1755
8 1524 1638 1756 1648 1393 1514 1639 1523
8 1640 1526 1395 1516 1756 1648 1524 1638
8 1642 1525 1396 1518 1757 1649 1526 1640
8 1758 1645 1521 1641 1642 1525 1396 1518
8 1646 1531 1400 1522 1760 1650 1527 1643
8 1535 1407 1536 1658 1643 1527 1650 1760
8 1521 1399 1529 1645 1644 1528 1651 1761
8 1647 1530 1652 1762 1525 1404 1529 1645
8 1401 1523 1648 1532 1531 1646 1763 1655
8 1525 1404 1533 1649 1647 1530 1654 1765
8 1533 1649 1766 1656 1403 1526 1648 1532
8 1662 1542 1658 1774 1539 1414 1535 1657
8 1542 1415 1543 1664 1658 1536 1659 1775
8 1660 1540 1663 1777 1538 1413 1541 1661
8 1545 1421 1548 1666 1660 1540 1663 1777
8 1662 1542 1414 1539 1778 1664 1541 1661
8 1664 1543 1416 1541 1779 1665 1544 1663
8 1548 1425 1550 1668 1663 1544 1665 1779
8 1547 1423 1549 1667 1666 1548 1668 1781
8 1670 1551 1668 1781 1553 1427 1549 1667
8 1551 1426 1552 1671 1668 1550 1669 1782
8 1670 1551 1427 1553 1784 1671 1554 1674
8 1675 1555 1672 1785 1554 1428 1552 1671
8 1678 1556 1673 1789 1558 1429 1555 1675
8 1561 1431 1558 1681 1674 1554 1675 1790
8 1794 1677 1556 1678 1680 1557 1429 1558
8 1560 1430 1559 1683 1680 1557 1679 1797
8 1561 1431 1560 1684 1681 1558 1680 1798
8 1563 1433 1564 1686 1683 1559 1682 1800
8 1684 1560 1432 1562 1801 1683 1563 1685
8 1565 1435 1566 1688 1685 1563 1686 1802
8 1566 1436 1567 1689 1686 1564 1687 1803
8 1568 1438 1569 1691 1688 1566 1689 1805
8 1569 1439 1570 1692 1689 1567 1690 1806
8 1571 1441 1572 1694 1691 1569 1692 1808
8 1442 1572 1692 1570 1573 1695 1809 1693
8 1574 1444 1575 1696 1694 1572 1695 1810
8 1614 1485 1592 1712 1699 1577 1697 1813
8 1579 1449 1577 1699 1701 1578 1698 1815
8 1615 1486 1614 1735 1702 1579 1699 1816
8 1701 1578 1700 1818 1581 1450 1580 1704
8 1582 1451 1579 1702 1705 1581 1701 1819
8 1704 1580 1703 1820 1584 1452 1583 1706
8 1705 1581 1704 1821 1585 1453 1584 1707
8 1707 1584 1706 1822 1587 1456 1586 1708
8 1710 1589 1506 1633 1824 1709 1632 1751
8 1594 1463 1589 1710 1716 1593 1709 1824
8 1752 1633 1710 1825 1634 1507 1590 1711
8 1595 1464 1590 1711 1717 1594 1710 1825
8 1830 1714 1592 1712 1733 1611 1485 1614
8 1603 1477 1593 1716 1725 1607 1715 1834
8 1599 1473 1594 1717 1721 1603 1716 1835
8 1837 1722 1623 1736 1718 1600 1496 1616
8 1719 1601 1722 1837 1597 1471 1600 1718
8 1602 1720 1598 1472 1723 1838 1719 1601
8 1720 1602 1473 1599 1839 1724 1603 1721
8 1723 1605 1726 1840 1601 1475 1604 1722
8 1840 1726 1628 1743 1722 1604 1501 1623
8 1724 1606 1727 1841 1602 1476 1605 1723
8 1725 1607 1728 1842 1603 1477 1606 1724
8 1612 1482 1608 1731 1733 1611 1730 1849
8 1741 1627 1730 1849 1622 1504 1608 1731
8 1613 1483 1609 1732 1734 1612 1731 1850
8 1618 1495 1622 1738 1732 1609 1731 1850
8 1615 1486 1612 1734 1735 1614 1733 1851
8 1852 1743 1626 1737 1736 1623 1499 1617
8 1853 1745 1625 1739 1737 1626 1500 1619
8 1855 1742 1622 1738 1740 1624 1497 1621
8 1856 1744 1624 1740 1739 1625 1498 1620
8 1741 1627 1504 1622 1857 1746 1631 1742
8 1742 1631 1505 1624 1858 1749 1630 1744
8 1859 1747 1629 1745 1743 1628 1502 1626
8 1860 1748 1630 1744 1745 1629 1503 1625
8 1644 1528 1651 1761 1751 1632 1750 1865
8 1637 1520 1644 1755 1752 1633 1751 1866
8 1754 1646 1522 1636 1867 1760 1643 1753
8 1657 1535 1658 1774 1753 1643 1760 1867
8 1639 1523 1646 1754 1756 1648 1763 1868
8 1641 1521 1645 1758 1755 1644 1761 1869
8 1757 1649 1526 1640 1870 1766 1648 1756
8 1642 1525 1649 1757 1759 1647 1765 1871
8 1759 1647 1762 1872 1642 1525 1645 1758
8 1760 1650 1767 1874 1646 1531 1655 1763
8 1658 1536 1659 1775 1760 1650 1767 1874
8 1762 1652 1768 1875 1645 1529 1651 1761
8 1764 1653 1769 1876 1647 1530 1652 1762
8 1656 1766 1877 1773 1532 1648 1763 1655
8 1771 1879 1765 1654 1653 1764 1647 1530
8 1533 1649 1765 1654 1656 1766 1880 1772
8 1662 1542 1664 1778 1774 1658 1775 1887
8 1664 1543 1665 1779 1775 1659 1776 1888
8 1778 1664 1541 1661 1890 1779 1663 1777
8 1666 1548 1668 1781 1777 1663 1779 1890
8 1782 1669 1780 1891 1668 1550 1665 1779
8 1670 1551 1671 1784 1781 1668 1782 1893
8 1671 1552 1672 1785 1782 1669 1783 1894
8 1790 1675 1785 1896 1674 1554 1671 1784
8 1675 1555 1673 1789 1785 1672 1786 1897
8 1792 1676 1788 1903 1678 1556 1673 1789
8 1795 1678 1789 1904 1681 1558 1675 1790
8 1792 1676 1556 1678 1906 1791 1677 1794
8 1680 1557 1679 1797 1794 1677 1793 1909
8 1910 1794 1678 1795 1798 1680 1558 1681
8 1683 1559 1682 1800 1797 1679 1796 1912
8 1684 1560 1683 1801 1798 1680 1797 1913
8 1686 1564 1687 1803 1800 1682 1799 1915
8 1685 1563 1686 1802 1801 1683 1800 1916
8 1688 1566 1689 1805 1802 1686 1803 1917
8 1689 1567 1690 1806 1803 1687 1804 1918
8 1691 1569 1692 1808 1805 1689 1806 1920
8 1692 1570 1693 1809 1806 1690 1807 1921
8 1694 1572 1695 1810 1808 1692 1809 1922
8 1829 1713 1811 1926 1712 1592 1697 1813
8 1813 1697 1812 1928 1699 1577 1698 1815
8 1735 1614 1712 1828 1816 1699 1813 1929
8 1815 1698 1814 1931 1701 1578 1700 1818
8 1702 1579 1699 1816 1819 1701 1815 1932
8 1818 1700 1817 1933 1704 1580 1703 1820
8 1819 1701 1818 1934 1705 1581 1704 1821
8 1821 1704 1820 1935 1707 1584 1706 1822
8 1824 1709 1632 1751 1937 1823 1750 1865
8 1716 1593 1709 1824 1834 1715 1823 1937
8 1825 1710 1633 1752 1938 1824 1751 1866
8 1717 1594 1710 1825 1835 1716 1824 1938
8 1945 1830 1712 1828 1851 1733 1614 1735
8 1830 1714 1831 1946 1712 1592 1713 1829
8 1947 1832 1714 1830 1849 1730 1611 1733
8 1843 1729 1607 1725 1950 1833 1715 1834
8 1721 1603 1716 1835 1836 1725 1834 1951
8 1836 1725 1842 1953 1721 1603 1724 1839
8 1723 1838 1719 1601 1840 1954 1837 1722
8 1954 1840 1743 1852 1837 1722 1623 1736
8 1724 1839 1720 1602 1841 1955 1838 1723
8 1841 1727 1844 1956 1723 1605 1726 1840
8 1956 1844 1747 1859 1840 1726 1628 1743
8 1728 1842 1724 1606 1845 1957 1841 1727
8 1725 1607 1729 1843 1842 1728 1846 1958
8 1741 1627 1746 1857 1849 1730 1848 1965
8 1734 1612 1731 1850 1851 1733 1849 1966
8 1854 1741 1849 1966 1738 1622 1731 1850
8 1967 1859 1745 1853 1852 1743 1626 1737
8 1968 1860 1744 1856 1853 1745 1625 1739
8 1854 1741 1622 1738 1969 1857 1742 1855
8 1855 1742 1624 1740 1970 1858 1744 1856
8 1857 1746 1631 1742 1971 1861 1749 1858
8 1858 1749 1630 1744 1972 1863 1748 1860
8 1859 1747 1862 1973 1745 1629 1748 1860
8 1875 1768 1864 1977 1761 1651 1750 1865
8 1755 1644 1761 1869 1866 1751 1865 1978
8 1867 1760 1874 1979 1754 1646 1763 1868
8 1774 1658 1775 1887 1867 1760 1874 1979
8 1870 1766 1648 1756 1980 1877 1763 1868
8 1872 1762 1875 1981 1758 1645 1761 1869
8 1757 1649 1766 1870 1871 1765 1880 1982
8 1983 1879 1764 1873 1871 1765 1647 1759
8 1873 1764 1876 1984 1759 1647 1762 1872
8 1877 1773 1655 1763 1986 1881 1767 1874
8 1775 1659 1776 1888 1874 1767 1881 1986
8 1876 1769 1882 1987 1762 1652 1768 1875
8 1878 1770 1883 1988 1764 1653 1769 1876
8 1880 1772 1656 1766 1989 1886 1773 1877
8 1878 1770 1653 1764 1990 1884 1771 1879
8 1765 1654 1772 1880 1879 1771 1885 1991
8 1778 1664 1779 1890 1887 1775 1888 1997
8 1998 1889 1776 1888 1891 1780 1665 1779
8 1893 1782 1891 2000 1781 1668 1779 1890
8 1894 1783 1892 2001 1782 1669 1780 1891
8 1784 1671 1785 1896 1893 1782 1894 2003
8 1897 1786 1895 2004 1785 1672 1783 1894
8 1790 1675 1789 1904 1896 1785 1897 2006
8 1901 1787 1898 2007 1789 1673 1786 1897
8 1903 1788 1900 2013 1789 1673 1787 1901
8 1792 1676 1791 1906 1903 1788 1902 2016
8 1907 1792 1903 2017 1795 1678 1789 1904
8 1906 1791 1677 1794 2019 1905 1793 1909
8 1907 1792 1678 1795 2020 1906 1794 1910
8 1797 1679 1796 1912 1909 1793 1908 2022
8 1798 1680 1797 1913 1910 1794 1909 2023
8 1800 1682 1799 1915 1912 1796 1911 2025
8 1801 1683 1800 1916 1913 1797 1912 2026
8 1803 1687 1804 1918 1915 1799 1914 2028
8 1802 1686 1803 1917 1916 1800 1915 2029
8 1805 1689 1806 1920 1917 1803 1918 2030
8 1806 1690 1807 1921 1918 1804 1919 2031
8 1808 1692 1809 1922 1920 1806 1921 2032
8 1939 1826 1924 2037 1829 1713 1811 1926
8 1926 1811 1925 2039 1813 1697 1812 1928
8 1944 1829 1926 2040 1828 1712 1813 1929
8 1928 1812 1927 2042 1815 1698 1814 1931
8 1929 1813 1928 2043 1816 1699 1815 1932
8 1931 1814 1930 2044 1818 1700 1817 1933
8 1932 1815 1931 2045 1819 1701 1818 1934
8 1934 1818 1933 2046 1821 1704 1820 1935
8 2048 1936 1823 1937 1977 1864 1750 1865
8 1950 1833 1715 1834 2048 1936 1823 1937
8 1938 1824 1751 1866 2049 1937 1865 1978
8 1835 1716 1824 1938 1951 1834 1937 2049
8 1939 1826 1713 1829 2053 1942 1831 1946
8 1940 1827 1923 2035 2053 1942 1826 1939
8 1945 1830 1946 2058 1828 1712 1829 1944
8 2059 1947 1830 1945 1966 1849 1733 1851
8 1947 1832 1730 1849 2060 1948 1848 1965
8 1947 1832 1948 2060 1830 1714 1831 1946
8 1959 1847 1729 1843 2063 1949 1833 1950
8 1952 1843 1725 1836 2064 1950 1834 1951
8 1836 1725 1843 1952 1953 1842 1958 2066
8 1953 1842 1957 2067 1839 1724 1841 1955
8 1841 1955 1838 1723 1956 2068 1954 1840
8 2068 1956 1859 1967 1954 1840 1743 1852
8 1956 1844 1960 2069 1859 1747 1862 1973
8 1845 1957 1841 1727 1960 2069 1956 1844
8 1728 1842 1957 1845 1846 1958 2071 1961
8 1962 2072 1959 1847 1846 1958 1843 1729
8 1971 1861 1964 2077 1857 1746 1848 1965
8 1854 1741 1857 1969 1966 1849 1965 2078
8 1967 1859 1973 2079 1853 1745 1860 1968
8 1970 1858 1744 1856 2080 1972 1860 1968
8 1969 1857 1742 1855 2081 1971 1858 1970
8 1971 1861 1749 1858 2082 1974 1863 1972
8 1973 1862 1975 2083 1860 1748 1863 1972
8 1987 1882 1976 2086 1875 1768 1864 1977
8 1981 1875 1977 2087 1869 1761 1865 1978
8 1980 1877 1763 1868 2088 1986 1874 1979
8 1887 1775 1888 1997 1979 1874 1986 2088
8 1880 1982 2089 1989 1766 1870 1980 1877
8 1984 1876 1987 2090 1872 1762 1875 1981
8 1765 1871 1983 1879 1880 1982 2091 1991
8 1985 1878 1764 1873 2092 1990 1879 1983
8 1985 1878 1988 2093 1873 1764 1876 1984
8 2094 1992 1881 1986 1998 1889 1776 1888
8 1986 1881 1992 2094 1877 1773 1886 1989
8 1988 1883 1993 2095 1876 1769 1882 1987
8 1878 1770 1884 1990 1988 1883 1994 2096
8 1991 1885 1772 1880 2097 1996 1886 1989
8 1879 1771 1885 1991 1990 1884 1995 2098
8 2103 1998 1888 1997 2000 1891 1779 1890
8 2104 1999 1889 1998 2001 1892 1780 1891
8 2003 1894 2001 2106 1893 1782 1891 2000
8 2004 1895 2002 2107 1894 1783 1892 2001
8 2006 1897 2004 2109 1896 1785 1894 2003
8 2007 1898 2005 2110 1897 1786 1895 2004
8 2014 1901 2007 2112 1904 1789 1897 2006
8 2011 1899 2008 2113 1901 1787 1898 2007
8 2119 2010 1899 2011 2013 1900 1787 1901
8 2016 1902 2012 2122 1903 1788 1900 2013
8 2017 1903 2013 2123 1904 1789 1901 2014
8 1906 1791 1905 2019 2016 1902 2015 2125
8 1907 1792 1906 2020 2017 1903 2016 2126
8 1909 1793 1908 2022 2019 1905 2018 2128
8 2020 1906 1794 1910 2129 2019 1909 2023
8 1912 1796 1911 2025 2022 1908 2021 2131
8 1913 1797 1912 2026 2023 1909 2022 2132
8 1915 1799 1914 2028 2025 1911 2024 2134
8 1916 1800 1915 2029 2026 1912 2025 2135
8 1918 1804 1919 2031 2028 1914 2027 2136
8 1917 1803 1918 2030 2029 1915 2028 2137
8 1920 1806 1921 2032 2030 1918 2031 2138
8 1940 1827 1941 2054 2035 1923 2033 2140
8 2035 1923 2034 2143 1939 1826 1924 2037
8 2037 1924 2036 2146 1926 1811 1925 2039
8 2051 1939 2037 2147 1944 1829 1926 2040
8 2039 1925 2038 2149 1928 1812 1927 2042
8 2040 1926 2039 2150 1929 1813 1928 2043
8 2042 1927 2041 2151 1931 1814 1930 2044
8 2043 1928 2042 2152 1932 1815 1931 2045
8 2045 1931 2044 2153 1934 1818 1933 2046
8 2155 2047 1936 2048 2086 1976 1864 1977
8 2063 1949 1833 1950 2155 2047 1936 2048
8 2156 2048 1937 2049 2087 1977 1865 1978
8 2064 1950 1834 1951 2156 2048 1937 2049
8 2051 1939 1829 1944 2160 2053 1946 2058
8 2052 1940 2035 2144 2160 2053 1939 2051
8 2053 1942 1831 1946 2163 2057 1948 2060
8 2055 1943 1827 1940 2163 2057 1942 2053
8 2055 1943 2056 2164 1940 1827 1941 2054
8 2059 1947 1849 1966 2167 2060 1965 2078
8 2059 1947 2060 2167 1945 1830 1946 2058
8 2077 1964 2061 2168 1965 1848 1948 2060
8 2070 1963 1847 1959 2170 2062 1949 2063
8 2065 1959 1843 1952 2171 2063 1950 2064
8 2173 2072 1958 2066 2065 1959 1843 1952
8 1953 1842 1958 2066 2067 1957 2071 2174
8 2068 1956 2069 2175 1967 1859 1973 2079
8 2067 1957 2069 2175 1955 1841 1956 2068
8 1845 1957 2069 1960 1961 2071 2176 2073
8 2069 1960 2073 2176 1973 1862 1975 2083
8 2070 1963 2075 2177 1959 1847 1962 2072
8 1846 1958 2071 1961 1962 2072 2178 2074
8 2077 1964 1861 1971 2182 2076 1974 2082
8 2081 1971 2077 2183 1969 1857 1965 2078
8 2079 1973 2083 2184 1968 1860 1972 2080
8 2081 1971 1858 1970 2185 2082 1972 2080
8 2083 1975 2084 2186 1972 1863 1974 2082
8 2086 1976 1882 1987 2189 2085 1993 2095
8 2090 1987 2086 2190 1981 1875 1977 2087
8 2191 2094 1986 2088 2103 1998 1888 1997
8 2088 1986 2094 2191 1980 1877 1989 2089
8 1991 2091 2192 2097 1880 1982 2089 1989
8 2093 1988 2095 2193 1984 1876 1987 2090
8 1879 1983 2092 1990 1991 2091 2194 2098
8 1985 1878 1990 2092 2093 1988 2096 2195
8 2097 1996 1886 1989 2196 2099 1992 2094
8 2196 2099 1992 2094 2104 1999 1889 1998
8 1994 2096 1988 1883 2100 2197 2095 1993
8 2096 1994 1884 1990 2198 2101 1995 2098
8 1995 2098 2199 2102 1885 1991 2097 1996
8 2203 2104 1998 2103 2106 2001 1891 2000
8 2107 2002 2105 2204 2001 1892 1999 2104
8 2109 2004 2107 2206 2003 1894 2001 2106
8 2110 2005 2108 2207 2004 1895 2002 2107
8 2112 2007 2110 2209 2006 1897 2004 2109
8 2113 2008 2111 2210 2007 1898 2005 2110
8 2120 2011 2113 2212 2014 1901 2007 2112
8 2117 2009 2114 2213 2011 1899 2008 2113
8 2219 2116 2009 2117 2119 2010 1899 2011
8 2222 2118 2010 2119 2122 2012 1900 2013
8 2223 2119 2011 2120 2123 2013 1901 2014
8 2016 1902 2015 2125 2122 2012 2121 2225
8 2126 2016 2122 2226 2017 1903 2013 2123
8 2019 1905 2018 2128 2125 2015 2124 2228
8 2020 1906 2019 2129 2126 2016 2125 2229
8 2022 1908 2021 2131 2128 2018 2127 2231
8 2023 1909 2022 2132 2129 2019 2128 2232
8 2025 1911 2024 2134 2131 2021 2130 2234
8 2026 1912 2025 2135 2132 2022 2131 2235
8 1914 2028 2134 2024 2027 2136 2236 2133
8 2029 1915 2028 2137 2135 2025 2134 2237
8 2030 1918 2031 2138 2137 2028 2136 2238
8 2157 2050 2139 2240 2054 1941 2033 2140
8 2052 1940 2054 2161 2144 2035 2140 2242
8 2140 2033 2141 2243 2035 1923 2034 2143
8 2143 2034 2142 2246 2037 1924 2036 2146
8 2144 2035 2143 2247 2051 1939 2037 2147
8 2146 2036 2145 2249 2039 1925 2038 2149
8 2147 2037 2146 2250 2040 1926 2039 2150
8 2149 2038 2148 2251 2042 1927 2041 2151
8 2150 2039 2149 2252 2043 1928 2042 2152
8 2152 2042 2151 2253 2045 1931 2044 2153
8 2255 2154 2047 2155 2189 2085 1976 2086
8 2170 2062 1949 2063 2255 2154 2047 2155
8 2256 2155 2048 2156 2190 2086 1977 2087
8 2171 2063 1950 2064 2256 2155 2048 2156
8 2258 2159 2050 2157 2164 2056 1941 2054
8 2160 2053 1946 2058 2262 2163 2060 2167
8 2162 2055 1940 2052 2262 2163 2053 2160
8 2162 2055 2164 2263 2052 1940 2054 2161
8 2163 2057 1948 2060 2264 2165 2061 2168
8 2055 1943 2057 2163 2164 2056 2165 2264
8 2182 2076 2166 2268 2077 1964 2061 2168
8 2183 2077 2168 2269 2078 1965 2060 2167
8 2070 1963 2062 2170 2177 2075 2169 2271
8 2172 2070 1959 2065 2272 2170 2063 2171
8 2172 2070 2177 2273 2065 1959 2072 2173
8 2066 1958 2072 2173 2174 2071 2178 2274
8 2067 1957 2071 2174 2175 2069 2176 2275
8 2175 2069 2176 2275 2079 1973 2083 2184
8 2071 1961 2074 2178 2176 2073 2179 2276
8 2176 2073 2179 2276 2083 1975 2084 2186
8 2072 1962 2075 2177 2178 2074 2180 2277
8 2182 2076 1974 2082 2280 2181 2084 2186
8 2183 2077 1971 2081 2281 2182 2082 2185
8 2184 2083 2186 2282 2080 1972 2082 2185
8 2189 2085 1993 2095 2285 2188 2100 2197
8 2190 2086 1987 2090 2286 2189 2095 2193
8 2192 2097 1989 2089 2287 2196 2094 2191
8 2287 2196 2094 2191 2203 2104 1998 2103
8 2194 2098 1991 2091 2288 2199 2097 2192
8 2195 2096 2197 2289 2093 1988 2095 2193
8 2096 2195 2290 2198 1990 2092 2194 2098
8 2097 1996 2099 2196 2199 2102 2200 2291
8 2196 2099 1999 2104 2291 2200 2105 2204
8 2100 2197 2292 2201 1994 2096 2198 2101
8 1995 2098 2198 2101 2102 2199 2293 2202
8 2206 2107 2204 2296 2106 2001 2104 2203
8 2207 2108 2205 2297 2107 2002 2105 2204
8 2209 2110 2207 2299 2109 2004 2107 2206
8 2210 2111 2208 2300 2110 2005 2108 2207
8 2212 2113 2210 2302 2112 2007 2110 2209
8 2213 2114 2211 2303 2113 2008 2111 2210
8 2220 2117 2213 2305 2120 2011 2113 2212
8 2216 2115 2214 2306 2117 2009 2114 2213
8 2216 2115 2009 2117 2311 2217 2116 2219
8 2219 2116 2010 2119 2314 2218 2118 2222
8 2315 2219 2117 2220 2223 2119 2011 2120
8 2122 2012 2121 2225 2222 2118 2221 2317
8 2318 2222 2119 2223 2226 2122 2013 2123
8 2125 2015 2124 2228 2225 2121 2224 2320
8 2126 2016 2125 2229 2226 2122 2225 2321
8 2128 2018 2127 2231 2228 2124 2227 2323
8 2129 2019 2128 2232 2229 2125 2228 2324
8 2131 2021 2130 2234 2231 2127 2230 2326
8 2132 2022 2131 2235 2232 2128 2231 2327
8 2134 2024 2133 2236 2234 2130 2233 2328
8 2135 2025 2134 2237 2235 2131 2234 2329
8 2137 2028 2136 2238 2237 2134 2236 2330
8 2157 2050 2158 2259 2240 2139 2239 2332
8 2257 2157 2240 2334 2161 2054 2140 2242
8 2240 2139 2241 2335 2140 2033 2141 2243
8 2242 2140 2243 2337 2144 2035 2143 2247
8 2243 2141 2244 2338 2143 2034 2142 2246
8 2246 2142 2245 2341 2146 2036 2145 2249
8 2247 2143 2246 2342 2147 2037 2146 2250
8 2249 2145 2248 2343 2149 2038 2148 2251
8 2250 2146 2249 2344 2150 2039 2149 2252
8 2252 2149 2251 2345 2152 2042 2151 2253
8 2169 2271 2347 2254 2062 2170 2255 2154
8 2189 2085 2188 2285 2255 2154 2254 2347
8 2348 2255 2155 2256 2286 2189 2086 2190
8 2272 2170 2063 2171 2348 2255 2155 2256
8 2349 2258 2157 2257 2263 2164 2054 2161
8 2258 2159 2261 2351 2157 2050 2158 2259
8 2258 2159 2056 2164 2351 2261 2165 2264
8 2262 2163 2060 2167 2355 2264 2168 2269
8 2162 2055 2163 2262 2263 2164 2264 2355
8 2357 2266 2165 2264 2268 2166 2061 2168
8 2268 2166 2076 2182 2361 2267 2181 2280
8 2281 2182 2268 2362 2183 2077 2168 2269
8 2271 2169 2270 2364 2177 2075 2180 2277
8 2172 2070 2170 2272 2273 2177 2271 2365
8 2072 2173 2274 2178 2177 2273 2366 2277
8 2071 2174 2275 2176 2178 2274 2367 2276
8 2275 2176 2276 2367 2184 2083 2186 2282
8 2283 2187 2084 2186 2368 2278 2179 2276
8 2178 2074 2180 2277 2276 2179 2278 2368
8 2283 2187 2279 2370 2186 2084 2181 2280
8 2281 2182 2082 2185 2371 2280 2186 2282
8 2188 2285 2374 2284 2100 2197 2292 2201
8 2286 2189 2095 2193 2375 2285 2197 2289
8 2192 2097 2196 2287 2288 2199 2291 2376
8 2287 2196 2104 2203 2376 2291 2204 2296
8 2194 2098 2199 2288 2290 2198 2293 2377
8 2289 2197 2096 2195 2378 2292 2198 2290
8 2291 2200 2105 2204 2379 2294 2205 2297
8 2199 2102 2200 2291 2293 2202 2294 2379
8 2198 2101 2202 2293 2292 2201 2295 2380
8 2299 2207 2297 2383 2206 2107 2204 2296
8 2300 2208 2298 2384 2207 2108 2205 2297
8 2302 2210 2300 2386 2209 2110 2207 2299
8 2303 2211 2301 2387 2210 2111 2208 2300
8 2305 2213 2303 2389 2212 2113 2210 2302
8 2306 2214 2304 2390 2213 2114 2211 2303
8 2310 2216 2306 2392 2220 2117 2213 2305
8 2308 2215 2307 2393 2216 2115 2214 2306
8 2308 2215 2115 2216 2396 2309 2217 2311
8 2310 2216 2117 2220 2398 2311 2219 2315
8 2311 2217 2116 2219 2399 2312 2218 2314
8 2314 2218 2118 2222 2402 2313 2221 2317
8 2315 2219 2119 2223 2403 2314 2222 2318
8 2225 2121 2224 2320 2317 2221 2316 2405
8 2226 2122 2225 2321 2318 2222 2317 2406
8 2228 2124 2227 2323 2320 2224 2319 2408
8 2229 2125 2228 2324 2321 2225 2320 2409
8 2231 2127 2230 2326 2323 2227 2322 2411
8 2232 2128 2231 2327 2324 2228 2323 2412
8 2234 2130 2233 2328 2326 2230 2325 2413
8 2235 2131 2234 2329 2327 2231 2326 2414
8 2237 2134 2236 2330 2329 2234 2328 2415
8 2259 2158 2260 2352 2332 2239 2331 2417
8 2257 2157 2259 2350 2334 2240 2332 2419
8 2240 2139 2239 2332 2335 2241 2333 2420
8 2334 2240 2335 2422 2242 2140 2243 2337
8 2335 2241 2336 2423 2243 2141 2244 2338
8 2337 2243 2338 2425 2247 2143 2246 2342
8 2338 2244 2339 2426 2246 2142 2245 2341
8 2341 2245 2340 2428 2249 2145 2248 2343
8 2342 2246 2341 2429 2250 2146 2249 2344
8 2344 2249 2343 2430 2252 2149 2251 2345
8 2188 2285 2347 2254 2284 2374 2432 2346
8 2347 2254 2346 2432 2271 2169 2270 2364
8 2365 2271 2170 2272 2433 2347 2255 2348
8 2286 2189 2285 2375 2348 2255 2347 2433
8 2349 2258 2351 2435 2257 2157 2259 2350
8 2349 2258 2164 2263 2435 2351 2264 2355
8 2259 2158 2261 2351 2352 2260 2354 2437
8 2356 2265 2354 2437 2264 2165 2261 2351
8 2441 2357 2264 2355 2362 2268 2168 2269
8 2356 2265 2165 2264 2442 2358 2266 2357
8 2443 2359 2266 2357 2361 2267 2166 2268
8 2370 2279 2360 2446 2280 2181 2267 2361
8 2362 2268 2182 2281 2447 2361 2280 2371
8 2180 2277 2368 2278 2270 2364 2449 2363
8 2271 2365 2273 2177 2364 2450 2366 2277
8 2372 2283 2186 2282 2451 2368 2276 2367
8 2178 2274 2367 2276 2277 2366 2451 2368
8 2283 2187 2278 2368 2370 2279 2369 2452
8 2372 2283 2370 2453 2282 2186 2280 2371
8 2284 2374 2455 2373 2201 2292 2380 2295
8 2375 2285 2197 2289 2456 2374 2292 2378
8 2376 2291 2204 2296 2457 2379 2297 2383
8 2288 2199 2291 2376 2377 2293 2379 2457
8 2198 2290 2378 2292 2293 2377 2458 2380
8 2293 2202 2294 2379 2380 2295 2381 2459
8 2384 2298 2381 2459 2297 2205 2294 2379
8 2386 2300 2384 2463 2299 2207 2297 2383
8 2387 2301 2385 2464 2300 2208 2298 2384
8 2389 2303 2387 2466 2302 2210 2300 2386
8 2390 2304 2388 2467 2303 2211 2301 2387
8 2392 2306 2390 2469 2305 2213 2303 2389
8 2393 2307 2391 2470 2306 2214 2304 2390
8 2395 2308 2393 2472 2310 2216 2306 2392
8 2308 2215 2309 2396 2393 2307 2394 2473
8 2395 2308 2216 2310 2475 2396 2311 2398
8 2396 2309 2217 2311 2476 2397 2312 2399
8 2398 2311 2219 2315 2478 2399 2314 2403
8 2399 2312 2218 2314 2479 2400 2313 2402
8 2317 2221 2316 2405 2402 2313 2401 2482
8 2403 2314 2222 2318 2483 2402 2317 2406
8 2320 2224 2319 2408 2405 2316 2404 2485
8 2321 2225 2320 2409 2406 2317 2405 2486
8 2323 2227 2322 2411 2408 2319 2407 2488
8 2324 2228 2323 2412 2409 2320 2408 2489
8 2326 2230 2325 2413 2411 2322 2410 2490
8 2327 2231 2326 2414 2412 2323 2411 2491
8 2329 2234 2328 2415 2414 2326 2413 2492
8 2417 2331 2260 2352 2494 2416 2353 2438
8 2350 2259 2352 2436 2419 2332 2417 2496
8 2332 2239 2331 2417 2420 2333 2418 2497
8 2334 2240 2332 2419 2422 2335 2420 2499
8 2420 2333 2421 2500 2335 2241 2336 2423
8 2422 2335 2423 2502 2337 2243 2338 2425
8 2423 2336 2424 2503 2338 2244 2339 2426
8 2425 2338 2426 2505 2342 2246 2341 2429
8 2426 2339 2427 2506 2341 2245 2340 2428
8 2429 2341 2428 2507 2344 2249 2343 2430
8 2432 2346 2284 2374 2509 2431 2373 2455
8 2432 2346 2431 2509 2364 2270 2363 2449
8 2375 2285 2374 2456 2433 2347 2432 2510
8 2347 2433 2365 2271 2432 2510 2450 2364
8 2350 2259 2351 2435 2436 2352 2437 2514
8 2440 2356 2437 2514 2355 2264 2351 2435
8 2352 2260 2354 2437 2438 2353 2439 2516
8 2356 2265 2358 2442 2437 2354 2439 2516
8 2440 2356 2264 2355 2518 2442 2357 2441
8 2519 2443 2357 2441 2447 2361 2268 2362
8 2443 2359 2444 2520 2357 2266 2358 2442
8 2443 2359 2267 2361 2520 2444 2360 2446
8 2446 2360 2279 2370 2523 2445 2369 2452
8 2453 2370 2446 2524 2371 2280 2361 2447
8 2449 2363 2448 2525 2368 2278 2369 2452
8 2366 2277 2364 2450 2451 2368 2449 2526
8 2372 2283 2368 2451 2453 2370 2452 2527
8 2455 2373 2295 2380 2529 2454 2382 2460
8 2456 2374 2292 2378 2530 2455 2380 2458
8 2377 2293 2379 2457 2458 2380 2459 2531
8 2463 2384 2459 2531 2383 2297 2379 2457
8 2533 2461 2382 2460 2459 2381 2295 2380
8 2464 2385 2461 2533 2384 2298 2381 2459
8 2466 2387 2464 2537 2386 2300 2384 2463
8 2467 2388 2465 2538 2387 2301 2385 2464
8 2469 2390 2467 2540 2389 2303 2387 2466
8 2470 2391 2468 2541 2390 2304 2388 2467
8 2472 2393 2470 2543 2392 2306 2390 2469
8 2393 2307 2394 2473 2470 2391 2471 2544
8 2395 2308 2396 2475 2472 2393 2473 2546
8 2396 2309 2397 2476 2473 2394 2474 2547
8 2475 2396 2311 2398 2549 2476 2399 2478
8 2476 2397 2312 2399 2550 2477 2400 2479
8 2478 2399 2314 2403 2552 2479 2402 2483
8 2479 2400 2313 2402 2553 2480 2401 2482
8 2405 2316 2404 2485 2482 2401 2481 2556
8 2406 2317 2405 2486 2483 2402 2482 2557
8 2408 2319 2407 2488 2485 2404 2484 2559
8 2409 2320 2408 2489 2486 2405 2485 2560
8 2411 2322 2410 2490 2488 2407 2487 2561
8 2412 2323 2411 2491 2489 2408 2488 2562
8 2414 2326 2413 2492 2491 2411 2490 2563
8 2513 2434 2493 2565 2438 2353 2416 2494
8 2496 2417 2352 2436 2567 2494 2438 2515
8 2494 2416 2495 2568 2417 2331 2418 2497
8 2419 2332 2417 2496 2499 2420 2497 2570
8 2497 2418 2498 2571 2420 2333 2421 2500
8 2499 2420 2500 2573 2422 2335 2423 2502
8 2500 2421 2501 2574 2423 2336 2424 2503
8 2502 2423 2503 2576 2425 2338 2426 2505
8 2503 2424 2504 2577 2426 2339 2427 2506
8 2505 2426 2506 2578 2429 2341 2428 2507
8 2509 2431 2373 2455 2580 2508 2454 2529
8 2509 2431 2508 2580 2449 2363 2448 2525
8 2432 2510 2581 2509 2374 2456 2530 2455
8 2432 2510 2450 2364 2509 2581 2526 2449
8 2583 2511 2434 2513 2516 2439 2353 2438
8 2436 2352 2437 2514 2515 2438 2516 2588
8 2440 2356 2442 2518 2514 2437 2516 2588
8 2442 2358 2444 2520 2516 2439 2517 2589
8 2519 2443 2520 2591 2441 2357 2442 2518
8 2519 2443 2361 2447 2591 2520 2446 2524
8 2446 2360 2445 2523 2520 2444 2521 2592
8 2525 2448 2522 2593 2452 2369 2445 2523
8 2524 2446 2370 2453 2594 2523 2452 2527
8 2526 2449 2525 2595 2451 2368 2452 2527
8 2534 2462 2528 2597 2460 2382 2454 2529
8 2530 2455 2380 2458 2598 2529 2460 2532
8 2599 2533 2460 2532 2531 2459 2380 2458
8 2537 2464 2533 2599 2463 2384 2459 2531
8 2534 2462 2382 2460 2601 2535 2461 2533
8 2538 2465 2535 2601 2464 2385 2461 2533
8 2540 2467 2538 2604 2466 2387 2464 2537
8 2541 2468 2539 2605 2467 2388 2465 2538
8 2543 2470 2541 2607 2469 2390 2467 2540
8 2470 2391 2471 2544 2541 2468 2542 2608
8 2472 2393 2473 2546 2543 2470 2544 2610
8 2473 2394 2474 2547 2544 2471 2545 2611
8 2475 2396 2476 2549 2546 2473 2547 2613
8 2476 2397 2477 2550 2547 2474 2548 2614
8 2549 2476 2399 2478 2616 2550 2479 2552
8 2479 2400 2480 2553 2550 2477 2551 2617
8 2552 2479 2402 2483 2619 2553 2482 2557
8 2482 2401 2481 2556 2553 2480 2554 2620
8 2485 2404 2484 2559 2556 2481 2555 2623
8 2486 2405 2485 2560 2557 2482 2556 2624
8 2488 2407 2487 2561 2559 2484 2558 2625
8 2489 2408 2488 2562 2560 2485 2559 2626
8 2491 2411 2490 2563 2562 2488 2561 2627
8 2513 2434 2512 2585 2565 2493 2564 2630
8 2586 2513 2565 2632 2515 2438 2494 2567
8 2565 2493 2566 2633 2494 2416 2495 2568
8 2567 2494 2568 2635 2496 2417 2497 2570
8 2568 2495 2569 2636 2497 2418 2498 2571
8 2570 2497 2571 2638 2499 2420 2500 2573
8 2571 2498 2572 2639 2500 2421 2501 2574
8 2573 2500 2574 2641 2502 2423 2503 2576
8 2574 2501 2575 2642 2503 2424 2504 2577
8 2576 2503 2577 2643 2505 2426 2506 2578
8 2597 2528 2579 2645 2529 2454 2508 2580
8 2580 2508 2579 2645 2525 2448 2522 2593
8 2581 2509 2455 2530 2646 2580 2529 2598
8 2581 2509 2580 2646 2526 2449 2525 2595
8 2583 2511 2582 2648 2513 2434 2512 2585
8 2583 2511 2439 2516 2648 2582 2517 2589
8 2649 2583 2513 2586 2588 2516 2438 2515
8 2589 2517 2444 2520 2653 2587 2521 2592
8 2518 2442 2520 2591 2588 2516 2589 2654
8 2593 2522 2590 2655 2523 2445 2521 2592
8 2524 2446 2523 2594 2591 2520 2592 2656
8 2595 2525 2593 2657 2527 2452 2523 2594
8 2602 2536 2596 2659 2534 2462 2528 2597
8 2600 2534 2597 2660 2532 2460 2529 2598
8 2600 2534 2460 2532 2661 2601 2533 2599
8 2604 2538 2601 2661 2537 2464 2533 2599
8 2602 2536 2462 2534 2663 2603 2535 2601
8 2601 2535 2465 2538 2663 2603 2539 2605
8 2607 2541 2605 2665 2540 2467 2538 2604
8 2608 2542 2606 2666 2541 2468 2539 2605
8 2543 2470 2544 2610 2607 2541 2608 2668
8 2544 2471 2545 2611 2608 2542 2609 2669
8 2546 2473 2547 2613 2610 2544 2611 2671
8 2547 2474 2548 2614 2611 2545 2612 2672
8 2549 2476 2550 2616 2613 2547 2614 2674
8 2550 2477 2551 2617 2614 2548 2615 2675
8 2552 2479 2553 2619 2616 2550 2617 2677
8 2553 2480 2554 2620 2617 2551 2618 2678
8 2557 2482 2556 2624 2619 2553 2620 2680
8 2556 2481 2555 2623 2620 2554 2621 2681
8 2559 2484 2558 2625 2623 2555 2622 2683
8 2560 2485 2559 2626 2624 2556 2623 2684
8 2562 2488 2561 2627 2626 2559 2625 2685
8 2690 2629 2564 2630 2650 2584 2512 2585
8 2586 2513 2585 2651 2632 2565 2630 2691
8 2630 2564 2631 2692 2565 2493 2566 2633
8 2632 2565 2633 2694 2567 2494 2568 2635
8 2633 2566 2634 2695 2568 2495 2569 2636
8 2635 2568 2636 2697 2570 2497 2571 2638
8 2636 2569 2637 2698 2571 2498 2572 2639
8 2638 2571 2639 2700 2573 2500 2574 2641
8 2639 2572 2640 2701 2574 2501 2575 2642
8 2641 2574 2642 2702 2576 2503 2577 2643
8 2597 2528 2596 2659 2645 2579 2644 2704
8 2645 2579 2644 2704 2593 2522 2590 2655
8 2660 2597 2645 2705 2598 2529 2580 2646
8 2646 2580 2645 2705 2595 2525 2593 2657
8 2650 2584 2512 2585 2707 2647 2582 2648
8 2648 2582 2517 2589 2707 2647 2587 2653
8 2649 2583 2648 2708 2586 2513 2585 2651
8 2649 2583 2516 2588 2708 2648 2589 2654
8 2655 2590 2652 2710 2592 2521 2587 2653
8 2654 2589 2520 2591 2711 2653 2592 2656
8 2657 2593 2655 2712 2594 2523 2592 2656
8 2602 2536 2603 2663 2659 2596 2658 2714
8 2662 2602 2659 2715 2600 2534 2597 2660
8 2662 2602 2534 2600 2717 2663 2601 2661
8 2661 2601 2538 2604 2717 2663 2605 2665
8 2666 2606 2664 2718 2605 2539 2603 2663
8 2668 2608 2666 2720 2607 2541 2605 2665
8 2608 2542 2609 2669 2666 2606 2667 2721
8 2610 2544 2611 2671 2668 2608 2669 2723
8 2611 2545 2612 2672 2669 2609 2670 2724
8 2613 2547 2614 2674 2671 2611 2672 2726
8 2614 2548 2615 2675 2672 2612 2673 2727
8 2616 2550 2617 2677 2674 2614 2675 2729
8 2617 2551 2618 2678 2675 2615 2676 2730
8 2619 2553 2620 2680 2677 2617 2678 2732
8 2620 2554 2621 2681 2678 2618 2679 2733
8 2624 2556 2623 2684 2680 2620 2681 2735
8 2681 2621 2555 2623 2736 2682 2622 2683
8 2626 2559 2625 2685 2684 2623 2683 2737
8 2688 2628 2584 2650 2740 2686 2647 2707
8 2688 2628 2687 2742 2650 2584 2629 2690
8 2690 2629 2689 2745 2630 2564 2631 2692
8 2746 2690 2630 2691 2709 2650 2585 2651
8 2691 2630 2692 2747 2632 2565 2633 2694
8 2692 2631 2693 2748 2633 2566 2634 2695
8 2694 2633 2695 2750 2635 2568 2636 2697
8 2695 2634 2696 2751 2636 2569 2637 2698
8 2697 2636 2698 2753 2638 2571 2639 2700
8 2698 2637 2699 2754 2639 2572 2640 2701
8 2700 2639 2701 2755 2641 2574 2642 2702
8 2659 2596 2658 2714 2704 2644 2703 2757
8 2704 2644 2703 2757 2655 2590 2652 2710
8 2660 2597 2659 2715 2705 2645 2704 2758
8 2705 2645 2704 2758 2657 2593 2655 2712
8 2759 2706 2647 2707 2710 2652 2587 2653
8 2709 2650 2585 2651 2760 2707 2648 2708
8 2708 2648 2589 2654 2760 2707 2653 2711
8 2712 2655 2710 2761 2656 2592 2653 2711
8 2763 2713 2658 2714 2718 2664 2603 2663
8 2662 2602 2663 2717 2715 2659 2714 2764
8 2720 2666 2718 2767 2665 2605 2663 2717
8 2768 2719 2664 2718 2721 2667 2606 2666
8 2668 2608 2669 2723 2720 2666 2721 2770
8 2669 2609 2670 2724 2721 2667 2722 2771
8 2671 2611 2672 2726 2723 2669 2724 2773
8 2672 2612 2673 2727 2724 2670 2725 2774
8 2674 2614 2675 2729 2726 2672 2727 2776
8 2675 2615 2676 2730 2727 2673 2728 2777
8 2677 2617 2678 2732 2729 2675 2730 2779
8 2678 2618 2679 2733 2730 2676 2731 2780
8 2680 2620 2681 2735 2732 2678 2733 2782
8 2733 2679 2621 2681 2783 2734 2682 2736
8 2735 2681 2623 2684 2784 2736 2683 2737
8 2740 2686 2647 2707 2787 2738 2706 2759
8 2688 2628 2686 2740 2742 2687 2739 2789
8 2743 2688 2650 2709 2790 2740 2707 2760
8 2742 2687 2741 2792 2690 2629 2689 2745
8 2743 2688 2742 2793 2709 2650 2690 2746
8 2745 2689 2744 2795 2692 2631 2693 2748
8 2746 2690 2745 2796 2691 2630 2692 2747
8 2747 2692 2748 2797 2694 2633 2695 2750
8 2748 2693 2749 2798 2695 2634 2696 2751
8 2750 2695 2751 2800 2697 2636 2698 2753
8 2751 2696 2752 2801 2698 2637 2699 2754
8 2753 2698 2754 2802 2700 2639 2701 2755
8 2763 2713 2756 2804 2714 2658 2703 2757
8 2759 2706 2652 2710 2804 2756 2703 2757
8 2715 2659 2714 2764 2758 2704 2757 2805
8 2758 2704 2757 2805 2712 2655 2710 2761
8 2806 2759 2707 2760 2761 2710 2653 2711
8 2765 2716 2762 2808 2718 2664 2713 2763
8 2809 2763 2714 2764 2767 2718 2663 2717
8 2765 2716 2664 2718 2811 2766 2719 2768
8 2813 2768 2718 2767 2770 2721 2666 2720
8 2814 2769 2719 2768 2771 2722 2667 2721
8 2723 2669 2724 2773 2770 2721 2771 2816
8 2724 2670 2725 2774 2771 2722 2772 2817
8 2726 2672 2727 2776 2773 2724 2774 2819
8 2727 2673 2728 2777 2774 2725 2775 2820
8 2729 2675 2730 2779 2776 2727 2777 2822
8 2730 2676 2731 2780 2777 2728 2778 2823
8 2732 2678 2733 2782 2779 2730 2780 2825
8 2780 2731 2679 2733 2826 2781 2734 2783
8 2782 2733 2681 2735 2827 2783 2736 2784
8 2830 2785 2738 2787 2804 2756 2706 2759
8 2789 2739 2686 2740 2832 2786 2738 2787
8 2790 2740 2707 2760 2833 2787 2759 2806
8 2742 2687 2739 2789 2792 2741 2788 2835
8 2743 2688 2740 2790 2793 2742 2789 2836
8 2792 2741 2791 2838 2745 2689 2744 2795
8 2793 2742 2792 2839 2746 2690 2745 2796
8 2795 2744 2794 2841 2748 2693 2749 2798
8 2796 2745 2795 2842 2747 2692 2748 2797
8 2797 2748 2798 2843 2750 2695 2751 2800
8 2798 2749 2799 2844 2751 2696 2752 2801
8 2800 2751 2801 2845 2753 2698 2754 2802
8 2808 2762 2803 2847 2763 2713 2756 2804
8 2809 2763 2804 2848 2764 2714 2757 2805
8 2806 2759 2710 2761 2848 2804 2757 2805
8 2765 2716 2766 2811 2808 2762 2807 2850
8 2810 2765 2808 2851 2767 2718 2763 2809
8 2810 2765 2718 2767 2852 2811 2768 2813
8 2811 2766 2719 2768 2853 2812 2769 2814
8 2855 2814 2768 2813 2816 2771 2721 2770
8 2856 2815 2769 2814 2817 2772 2722 2771
8 2773 2724 2774 2819 2816 2771 2817 2858
8 2774 2725 2775 2820 2817 2772 2818 2859
8 2776 2727 2777 2822 2819 2774 2820 2861
8 2777 2728 2778 2823 2820 2775 2821 2862
8 2779 2730 2780 2825 2822 2777 2823 2864
8 2823 2778 2731 2780 2865 2824 2781 2826
8 2825 2780 2733 2782 2866 2826 2783 2827
8 2869 2828 2785 2830 2847 2803 2756 2804
8 2871 2829 2786 2832 2830 2785 2738 2787
8 2872 2830 2787 2833 2848 2804 2759 2806
8 2789 2739 2786 2832 2835 2788 2831 2874
8 2836 2789 2740 2790 2875 2832 2787 2833
8 2792 2741 2788 2835 2838 2791 2834 2877
8 2793 2742 2789 2836 2839 2792 2835 2878
8 2838 2791 2837 2880 2795 2744 2794 2841
8 2839 2792 2838 2881 2796 2745 2795 2842
8 2841 2794 2840 2882 2798 2749 2799 2844
8 2842 2795 2841 2883 2797 2748 2798 2843
8 2843 2798 2844 2884 2800 2751 2801 2845
8 2886 2846 2803 2847 2850 2807 2762 2808
8 2851 2808 2847 2887 2809 2763 2804 2848
8 2850 2807 2766 2811 2889 2849 2812 2853
8 2810 2765 2811 2852 2851 2808 2850 2890
8 2852 2811 2768 2813 2891 2853 2814 2855
8 2853 2812 2769 2814 2892 2854 2815 2856
8 2894 2856 2814 2855 2858 2817 2771 2816
8 2817 2772 2818 2859 2856 2815 2857 2895
8 2819 2774 2820 2861 2858 2817 2859 2897
8 2820 2775 2821 2862 2859 2818 2860 2898
8 2822 2777 2823 2864 2861 2820 2862 2900
8 2823 2778 2824 2865 2862 2821 2863 2901
8 2864 2823 2780 2825 2902 2865 2826 2866
8 2904 2867 2828 2869 2886 2846 2803 2847
8 2869 2828 2868 2906 2830 2785 2829 2871
8 2907 2869 2830 2872 2887 2847 2804 2848
8 2871 2829 2870 2909 2832 2786 2831 2874
8 2910 2871 2832 2875 2872 2830 2787 2833
8 2835 2788 2831 2874 2877 2834 2873 2912
8 2836 2789 2832 2875 2878 2835 2874 2913
8 2877 2834 2876 2915 2838 2791 2837 2880
8 2839 2792 2835 2878 2881 2838 2877 2916
8 2880 2837 2879 2917 2841 2794 2840 2882
8 2881 2838 2880 2918 2842 2795 2841 2883
8 2883 2841 2882 2919 2843 2798 2844 2884
8 2921 2885 2846 2886 2889 2849 2807 2850
8 2922 2886 2847 2887 2890 2850 2808 2851
8 2889 2849 2812 2853 2924 2888 2854 2892
8 2890 2850 2811 2852 2925 2889 2853 2891
8 2891 2853 2814 2855 2926 2892 2856 2894
8 2892 2854 2815 2856 2927 2893 2857 2895
8 2858 2817 2859 2897 2894 2856 2895 2929
8 2859 2818 2860 2898 2895 2857 2896 2930
8 2861 2820 2862 2900 2897 2859 2898 2932
8 2862 2821 2863 2901 2898 2860 2899 2933
8 2864 2823 2865 2902 2900 2862 2901 2934
8 2904 2867 2846 2886 2936 2903 2885 2921
8 2904 2867 2903 2936 2869 2828 2868 2906
8 2937 2904 2869 2907 2922 2886 2847 2887
8 2906 2868 2905 2939 2871 2829 2870 2909
8 2907 2869 2906 2940 2872 2830 2871 2910
8 2909 2870 2908 2942 2874 2831 2873 2912
8 2910 2871 2909 2943 2875 2832 2874 2913
8 2912 2873 2911 2945 2877 2834 2876 2915
8 2878 2835 2874 2913 2916 2877 2912 2946
8 2915 2876 2914 2947 2880 2837 2879 2917
8 2916 2877 2915 2948 2881 2838 2880 2918
8 2918 2880 2917 2949 2883 2841 2882 2919
8 2921 2885 2849 2889 2951 2920 2888 2924
8 2952 2921 2886 2922 2925 2889 2850 2890
8 2924 2888 2854 2892 2954 2923 2893 2927
8 2925 2889 2853 2891 2955 2924 2892 2926
8 2926 2892 2856 2894 2956 2927 2895 2929
8 2895 2857 2896 2930 2927 2893 2928 2957
8 2897 2859 2898 2932 2929 2895 2930 2959
8 2898 2860 2899 2933 2930 2896 2931 2960
8 2900 2862 2901 2934 2932 2898 2933 2961
8 2936 2903 2885 2921 2963 2935 2920 2951
8 2936 2903 2935 2963 2906 2868 2905 2939
8 2937 2904 2886 2922 2964 2936 2921 2952
8 2937 2904 2936 2964 2907 2869 2906 2940
8 2939 2905 2938 2966 2909 2870 2908 2942
8 2940 2906 2939 2967 2910 2871 2909 2943
8 2942 2908 2941 2969 2912 2873 2911 2945
8 2943 2909 2942 2970 2913 2874 2912 2946
8 2945 2911 2944 2971 2915 2876 2914 2947
8 2946 2912 2945 2972 2916 2877 2915 2948
8 2948 2915 2947 2973 2918 2880 2917 2949
8 2951 2920 2888 2924 2975 2950 2923 2954
8 2952 2921 2889 2925 2976 2951 2924 2955
8 2927 2893 2928 2957 2954 2923 2953 2978
8 2955 2924 2892 2926 2979 2954 2927 2956
8 2929 2895 2930 2959 2956 2927 2957 2980
8 2930 2896 2931 2960 2957 2928 2958 2981
8 2932 2898 2933 2961 2959 2930 2960 2982
8 2951 2920 2950 2975 2963 2935 2962 2984
8 2963 2935 2962 2984 2939 2905 2938 2966
8 2964 2936 2921 2952 2985 2963 2951 2976
8 2964 2936 2963 2985 2940 2906 2939 2967
8 2966 2938 2965 2987 2942 2908 2941 2969
8 2967 2939 2966 2988 2943 2909 2942 2970
8 2969 2941 2968 2989 2945 2911 2944 2971
8 2970 2942 2969 2990 2946 2912 2945 2972
8 2972 2945 2971 2991 2948 2915 2947 2973
8 2954 2923 2953 2978 2975 2950 2974 2993
8 2976 2951 2924 2955 2994 2975 2954 2979
8 2957 2928 2958 2981 2978 2953 2977 2995
8 2956 2927 2957 2980 2979 2954 2978 2996
8 2959 2930 2960 2982 2980 2957 2981 2997
8 2984 2962 2983 2999 2966 2938 2965 2987
8 2975 2950 2974 2993 2984 2962 2983 2999
8 2976 2951 2975 2994 2985 2963 2984 3000
8 2985 2963 2984 3000 2967 2939 2966 2988
8 2987 2965 2986 3001 2969 2941 2968 2989
8 2988 2966 2987 3002 2970 2942 2969 2990
8 2990 2969 2989 3003 2972 2945 2971 2991
8 2978 2953 2977 2995 2993 2974 2992 3004
8 2979 2954 2978 2996 2994 2975 2993 3005
8 2980 2957 2981 2997 2996 2978 2995 3006
8 2974 2993 2999 2983 2992 3004 3007 2998
8 2983 2999 2987 2965 2998 3007 3001 2986
8 3000 2984 2999 3008 2988 2966 2987 3002
8 2994 2975 2993 3005 3000 2984 2999 3008
8 3002 2987 3001 3009 2990 2969 2989 3003
8 2996 2978 2995 3006 3005 2993 3004 3010
8 3005 2993 3004 3010 3008 2999 3007 3011
8 3008 2999 3007 3011 3002 2987 3001 3009

CELL_TYPES 1910
12
12
12
12
12
12
12
12
12
12
12
12
12
12
12
12
12
12
12
12
12
12
12
12
12
12
12
12
12
12
12
12
12
12
12
12
12
12
12
12
12
12
12
12
12
12
12
12
12
12
12
12
12
12
12
12
12
12
12
12
12
12
12
12
12
12
12
12
12
12
12
12
12
12
12
12
12
12
12
12
12
12
12
12
12
12
12
12
12
12
12
12
12
12
12
12
12
12
12
12
12
12
12
12
12
12
12
12
12
12
12
12
12
12
12
12
12
12
12
12
12
12
12
12
12
12
12
12
12
12
12
12
12
12
12
12
12
12
12
12
12
12
12
12
12
12
12
12
12
12
12
12
12
12
12
12
12
12
12
12
12
12
12
12
12
12
12
12
12
12
12
12
12
12
12
12
12
12
12
12
12
12
12
12
12
12
12
12
12
12
12
12
12
12
12
12
12
12
12
12
12
12
12
12
12
12
12
12
12
12
12
12
12
12
12
12
12
12
12
12
12
12
12
12
12
12
12
12
12
12
12
12
12
12
12
12
12
12
12
12
12
12
12
12
12
12
12
12
12
12
12
12
12
12
12
12
12
12
12
12
12
12
12
12
12
12
12
12
12
12
12
12
12
12
12
12
12
12
12
12
12
12
12
12
12
12
12
12
12
12
12
12
12
12
12
12
12
12
12
12
12
12
12
12
12
12
12
12
12
12
12
12
12
12
12
12
12
12
12
12
12
12
12
12
12
12
12
12
12
12
12
12
12
12
12
12
12
12
12
12
12
12
12
12
12
12
12
12
12
12
12
12
12
12
12
12
12
12
12
12
12
12
12
12
12
12
12
12
12
12
12
12
12
12
12
12
12
12
12
12
12
12
12
12
12
12
12
12
12
12
12
12
12
12
12
12
12
12
12
12
12
12
12
12
12
12
12
12
12
12
12
12
12
12
12
12
12
12
12
12
12
12
12
12
12
12
12
12
12
12
12
12
12
12
12
12
12
12
12
12
12
12
12
12
12
12
12
12
12
12
12
12
12
12
12
12
12
12
12
12
12
12
12
12
12
12
12
12
12
12
12
12
12
12
12
12
12
12
12
12
12
12
12
12
12
12
12
12
12
12
12
12
12
12
12
12
12
12
12
12
12
12
12
12
12
12
12
12
12
12
12
12
12
12
12
12
12
12
12
12
12
12
12
12
12
12
12
12
12
12
12
12
12
12
12
12
12
12
12
12
12
12
12
12
12
12
12
12
12
12
12
12
12
12
12
12
12
12
12
12
12
12
12
12
12
12
12
12
12
12
12
12
12
12
12
12
12
12
12
12
12
12
12
12
12
12
12
12
12
12
12
12
12
12
12
12
12
12
12
12
12
12
12
12
12
12
12
12
12
12
12
12
12
12
12
12
12
12
12
12
12
12
12
12
12
12
12
12
12
12
12
12
12
12
12
12
12
12
12
12
12
12
12
12
12
12
12
12
12
12
12
12
12
12
12
12
12
12
12
12
12
12
12
12
12
12
12
12
12
12
12
12
12
12
12
12
12
12
12
12
12
12
12
12
12
12
12
12
12
12
12
12
12
12
12
12
12
12
12
12
12
12
12
12
12
12
12
12
12
12
12
12
12
12
12
12
12
12
12
12
12
12
12
12
12
12
12
12
12
12
12
12
12
12
12
12
12
12
12
12
12
12
12
12
12
12
12
12
12
12
12
12
12
12
12
12
12
12
12
12
12
12
12
12
12
12
12
12
12
12
12
12
12
12
12
12
12
12
12
12
12
12
12
12
12
12
12
12
12
12
12
12
12
12
12
12
12
12
12
12
12
12
12
12
12
12
12
12
12
12
12
12
12
12
12
12
12
12
12
12
12
12
12
12
12
12
12
12
12
12
12
12
12
12
12
12
12
12
12
12
12
12
12
12
12
12
12
12
12
12
12
12
12
12
12
12
12
12
12
12
12
12
12
12
12
12
12
12
12
12
12
12
12
12
12
12
12
12
12
12
12
12
12
12
12
12
12
12
12
12
12
12
12
12
12
12
12
12
12
12
12
12
12
12
12
12
12
12
12
12
12
12
12
12
12
12
12
12
12
12
12
12
12
12
12
12
12
12
12
12
12
12
12
12
12
12
12
12
12
12
12
12
12
12
12
12
12
12
12
12
12
12
12
12
12
12
12
12
12
12
12
12
12
12
12
12
12
12
12
12
12
12
12
12
12
12
12
12
12
12
12
12
12
12
12
12
12
12
12
12
12
12
12
12
12
12
12
12
12
12
12
12
12
12
12
12
12
12
12
12
12
12
12
12
12
12
12
12
12
12
12
12
12
12
12
12
12
12
12
12
12
12
12
12
12
12
12
12
12
12
12
12
12
12
12
12
12
12
12
12
12
12
12
12
12
12
12
12
12
12
12
12
12
12
12
12
12
12
12
12
12
12
12
12
12
12
12
12
12
12
12
12
12
12
12
12
12
12
12
12
12
12
12
12
12
12
12
12
12
12
12
12
12
12
12
12
12
12
12
12
12
12
12
12
12
12
12
12
12
12
12
12
12
12
12
12
12
12
12
12
12
12
12
12
12
12
12
12
12
12
12
12
12
12
12
12
12
12
12
12
12
12
12
12
12
12
12
12
12
12
12
12
12
12
12
12
12
12
12
12
12
12
12
12
12
12
12
12
12
12
12
12
12
12
12
12
12
12
12
12
12
12
12
12
12
12
12
12
12
12
12
12
12
12
12
12
12
12
12
12
12
12
12
12
12
12
12
12
12
12
12
12
12
12
12
12
12
12
12
12
12
12
12
12
12
12
12
12
12
12
12
12
12
12
12
12
12
12
12
12
12
12
12
12
12
12
12
12
12
12
12
12
12
12
12
12
12
12
12
12
12
12
12
12
12
12
12
12
12
12
12
12
12
12
12
12
12
12
12
12
12
12
12
12
12
12
12
12
12
12
12
12
12
12
12
12
12
12
12
12
12
12
12
12
12
12
12
12
12
12
12
12
12
12
12
12
12
12
12
12
12
12
12
12
12
12
12
12
12
12
12
12
12
12
12
12
12
12
12
12
12
12
12
12
12
12
12
12
12
12
12
12
12
12
12
12
12
12
12
12
12
12
12
12
12
12
12
12
12
12
12
12
12
12
12
12
12
12
12
12
12
12
12
12
12
12
12
12
12
12
12
12
12
12
12
12
12
12
12
12
12
12
12
12
12
12
12
12
12
12
12
12
12
12
12
12
12
12
12
12
12
12
12
12
12
12
12
12
12
12
12
12
12
12
12
12
12
12
12
12
12
12
12
12
12
12
12
12
12
12
12
12
12
12
12
12
12
12
12
12
12
12
12
12
12
12
12
12
12
12
12
12
12
12
12
12
12
12
12
12
12
12
12
12
12
12
12
12
12
12
12
12
12
12
12
12
12
12
12
12
12
12
12
12
12
12
12
12
12
12
12
12
12
12
12
12
12
12
12
12
12
12
12
12
12
12
12
12
12
12
12
12
12
12
12
12
12
12
12
12
12
12
12
12
12
12
12
12
12
12
12
12
12
12
12
12
12
12
12
12
12
12
12
12
12
12
12
12
12
12
12
12
12
12
12
12
12
12
12
12
12
12
12
12
12
12
12
12
12
12
12
12
12
12
12
12
12
12
12
12
12
12
12
12
12
12
12
12
12
12
12
12
12
12
12
12
12
12
12
12
12
12
12
12
12
12
12
12
12
12
12
12
12
12
12
12
12
12
12
12
12
12
12
12
12
12
12
12
12
12
12
12
12
12
12
12
12
12
12
12
12
12
12
12
12
12
12
12
12
12
12
12
12
12
12
12
12
12
12
12
12
12
12
12
12
12
12
12
12
12
12
12
12
12
12
12
12
12
12
12
12
12
12
12
12
12
12
12
12
12
12
12
12
12
12
12
12
12
12
12
12
12
12
12
12
12
12
12
12
12
12
12
12
12
12
12
12
12
12
12
12
12
12
12
12
12
12
12
12
12
12
12
12
12
12
12
12
12
12
12
12
12
12
12
12
12
12
12
12
12
12
12
12
12
12
12
12
12
12
12
12
12
12
12
12
12
12
12
12
12
12
12
12
12
12
12
12
12
12
12
12
12
12
12
12
12
12
12
12
12
12
12
12
12
12
12
12
12
12
12
12
12
12
12
12
12
12
12
12
12
12
12
12
12
12
12
12
12
12
12
12
12
12
12
12
12
12
12
12
12
12
12
12
12
12
12
12
12
12
12
12
12
12
12
12
12
12
12
12
12
12
12
12
12
12
12
12
12
12
12
12
12
12
12
12
12
12
12
12
12
12
12
12
12
12
12
12
12
12
12

POINT_DATA 3012
SCALARS Jp_lamdaP float 4
LOOKUP_TABLE default
1 1 1 1
1 1 1 1
1 1 1 1
1 1 1 1
1 1 1 1
1 1 1 1
0.999988 1 1 0.999988
1 1 1 1
1 1 1 1
1 1 1 1
1 1 1 1
1 1 1 1
1 1 1 1
1 1 1 1
1 1 1 1
1 1 1 1
1 1 1 1
1 1 1 1
0.999989 1 1 0.999989
1 1 1 1
1 1 1 1
1 1 1 1
0.999971 1 1 0.999971
0.999984 1 1 0.999984
1 1 1 1
0.999991 1 1 0.999991
0.999948 1 1 0.999948
1 1 1 1
1 1 1 1
1 1 1 1
1 1 1 1
1 1 1 1
1 1 1 1
1 1 1 1
0.999997 1 1 0.999997
1 1 1 1
1 1 1 1
1 1 1 1
0.999962 1 1 0.999962
1 1 1 1
1 1 1 1
1 1 1 1
1 1 1 1
1 1 1 1
0.999981 1 1 0.999981
1 1 1 1
0.999988 1 1 0.999988
1 1 1 1
1 1 1 1
1 1 1 1
0.999989 1 1 0.999989
1 1 1 1
1 1 1 1
1 1 1 1
1 1 1 1
0.999972 1 1 0.999972
0.999992 1 1 0.999992
0.999984 1 1 0.999984
0.999947 1 1 0.999947
1 1 1 1
1 1 1 1
0.999981 1 1 0.999981
0.999966 1 1 0.999966
0.999978 1 1 0.999978
0.999906 1 1 0.999906
0.99993 1 1 0.99993
1 1 1 1
0.999995 1 1 0.999995
0.999959 1 1 0.999959
0.999872 1 1 0.999872
1 1 1 1
1 1 1 1
1 1 1 1
1 1 1 1
1 1 1 1
1 1 1 1
0.999997 1 1 0.999997
1 1 1 1
1 1 1 1
1 1 1 1
0.999962 1 1 0.999962
1 1 1 1
1 1 1 1
0.999993 1 1 0.999993
0.999999 1 1 0.999999
0.999923 1 1 0.999923
1 1 1 1
0.999954 1 1 0.999954
0.99997 1 1 0.99997
0.999901 1 1 0.999901
1 1 1 1
1 1 1 1
1 1 1 1
1 1 1 1
1 1 1 1
1 1 1 1
0.999982 1 1 0.999982
1 1 1 1
0.999989 1 1 0.999989
1 1 1 1
0.999979 1 1 0.999979
0.999985 1 1 0.999985
0.999875 1 1 0.999875
0.999991 1 1 0.999991
0.99989 1 1 0.99989
1 1 1 1
1 1 1 1
1 1 1 1
1 1 1 1
0.999972 1 1 0.999972
0.999985 1 1 0.999985
0.999993 1 1 0.999993
0.999946 1 1 0.999946
1 1 1 1
1 1 1 1
0.999972 1 1 0.999972
0.999966 1 1 0.999966
1 1 1 1
0.999997 1 1 0.999997
0.999979 1 1 0.999979
0.999901 1 1 0.999901
0.999958 1 1 0.999958
0.999933 1 1 0.999933
0.999872 1 1 0.999872
0.99998 1 1 0.99998
0.999964 1 1 0.999964
0.999879 1 1 0.999879
0.999887 1 1 0.999887
0.999915 1 1 0.999915
0.999835 1 1 0.999835
1 1 1 1
0.999864 1 1 0.999864
1 1 1 1
0.999965 1 1 0.999965
0.999881 1 1 0.999881
0.999841 1 1 0.999841
1 1 1 1
0.999975 1 1 0.999975
1 1 1 1
1 1 1 1
0.999998 1 1 0.999998
1 1 1 1
1 1 1 1
1 1 1 1
0.999963 1 1 0.999963
1 1 1 1
1 1 1 1
0.999994 1 1 0.999994
0.999999 1 1 0.999999
0.999923 1 1 0.999923
1 1 1 1
0.999954 1 1 0.999954
0.999971 1 1 0.999971
0.999898 1 1 0.999898
1 1 1 1
1 1 1 1
0.999981 1 1 0.999981
0.999909 1 1 0.999909
0.99994 1 1 0.99994
0.999857 1 1 0.999857
0.999977 1 1 0.999977
0.99989 1 1 0.99989
0.999906 1 1 0.999906
0.999872 1 1 0.999872
1 1 1 1
1 1 1 1
1 1 1 1
1 1 1 1
1 1 1 1
1 1 1 1
1 1 1 1
0.99999 1 1 0.99999
0.999983 1 1 0.999983
1 1 1 1
1 1 1 1
0.999979 1 1 0.999979
0.999986 1 1 0.999986
0.999875 1 1 0.999875
0.999991 1 1 0.999991
0.99989 1 1 0.99989
0.999978 1 1 0.999978
0.99987 1 1 0.99987
0.999882 1 1 0.999882
0.99982 1 1 0.99982
0.999898 1 1 0.999898
0.999832 1 1 0.999832
1 1 1 1
1 1 1 1
0.999962 1 1 0.999962
0.999966 1 1 0.999966
1 1 1 1
1 1 1 1
0.999979 1 1 0.999979
0.999896 1 1 0.999896
0.999937 1 1 0.999937
0.999956 1 1 0.999956
0.999873 1 1 0.999873
0.999979 1 1 0.999979
0.999964 1 1 0.999964
0.999869 1 1 0.999869
0.99989 1 1 0.99989
1 1 1 1
1 1 1 1
0.999966 1 1 0.999966
0.999915 1 1 0.999915
0.999829 1 1 0.999829
0.999879 1 1 0.999879
0.999867 1 1 0.999867
0.999842 1 1 0.999842
1 1 1 1
0.999975 1 1 0.999975
0.999869 1 1 0.999869
0.99988 1 1 0.99988
0.999816 1 1 0.999816
0.99981 1 1 0.99981
0.999855 1 1 0.999855
0.999805 1 1 0.999805
1 1 1 1
0.999836 1 1 0.999836
0.999971 1 1 0.999971
0.999891 1 1 0.999891
0.999849 1 1 0.999849
0.999833 1 1 0.999833
0.999975 1 1 0.999975
0.999978 1 1 0.999978
0.999904 1 1 0.999904
0.999995 1 1 0.999995
1 1 1 1
1 1 1 1
1 1 1 1
0.999923 1 1 0.999923
1 1 1 1
0.999971 1 1 0.999971
0.999955 1 1 0.999955
0.999896 1 1 0.999896
1 1 1 1
1 1 1 1
0.999981 1 1 0.999981
0.999908 1 1 0.999908
0.999941 1 1 0.999941
0.999857 1 1 0.999857
0.999978 1 1 0.999978
0.999892 1 1 0.999892
0.999906 1 1 0.999906
0.999868 1 1 0.999868
1 1 1 1
0.99998 1 1 0.99998
0.999982 1 1 0.999982
0.999915 1 1 0.999915
0.999846 1 1 0.999846
0.999877 1 1 0.999877
0.999826 1 1 0.999826
0.999912 1 1 0.999912
0.999861 1 1 0.999861
0.999864 1 1 0.999864
0.999848 1 1 0.999848
0.99999 1 1 0.99999
1 1 1 1
1 1 1 1
1 1 1 1
1 1 1 1
1 1 1 1
1 1 1 1
1 1 1 1
1 1 1 1
0.999992 1 1 0.999992
0.999987 1 1 0.999987
0.99989 1 1 0.99989
0.999875 1 1 0.999875
0.99998 1 1 0.99998
1 1 1 1
0.999978 1 1 0.999978
0.99987 1 1 0.99987
0.999882 1 1 0.999882
0.99982 1 1 0.99982
0.999898 1 1 0.999898
0.999832 1 1 0.999832
0.999869 1 1 0.999869
0.999818 1 1 0.999818
0.999824 1 1 0.999824
0.999801 1 1 0.999801
0.99984 1 1 0.99984
0.999812 1 1 0.999812
0.999979 1 1 0.999979
0.999964 1 1 0.999964
0.99986 1 1 0.99986
0.999893 1 1 0.999893
1 1 1 1
1 1 1 1
0.999967 1 1 0.999967
0.999916 1 1 0.999916
0.999823 1 1 0.999823
0.99987 1 1 0.99987
0.999878 1 1 0.999878
0.999842 1 1 0.999842
1 1 1 1
0.999975 1 1 0.999975
0.999865 1 1 0.999865
0.99988 1 1 0.99988
0.999815 1 1 0.999815
0.999816 1 1 0.999816
1 1 1 1
0.999971 1 1 0.999971
0.999895 1 1 0.999895
0.999856 1 1 0.999856
0.999804 1 1 0.999804
0.999845 1 1 0.999845
0.999836 1 1 0.999836
0.999832 1 1 0.999832
0.999975 1 1 0.999975
0.999902 1 1 0.999902
0.999978 1 1 0.999978
0.99982 1 1 0.99982
0.999811 1 1 0.999811
0.999788 1 1 0.999788
0.999786 1 1 0.999786
0.999826 1 1 0.999826
0.999804 1 1 0.999804
0.999974 1 1 0.999974
0.999831 1 1 0.999831
0.999907 1 1 0.999907
0.999852 1 1 0.999852
0.999825 1 1 0.999825
0.999841 1 1 0.999841
0.999983 1 1 0.999983
0.999908 1 1 0.999908
0.999895 1 1 0.999895
0.999869 1 1 0.999869
0.999908 1 1 0.999908
1 1 1 1
1 1 1 1
0.999981 1 1 0.999981
0.999942 1 1 0.999942
0.999857 1 1 0.999857
0.999978 1 1 0.999978
0.999905 1 1 0.999905
0.999894 1 1 0.999894
0.999865 1 1 0.999865
1 1 1 1
0.99998 1 1 0.99998
0.999982 1 1 0.999982
0.999915 1 1 0.999915
0.999845 1 1 0.999845
0.999877 1 1 0.999877
0.999826 1 1 0.999826
0.999912 1 1 0.999912
0.999864 1 1 0.999864
0.999863 1 1 0.999863
0.999853 1 1 0.999853
1 1 1 1
0.999984 1 1 0.999984
0.999915 1 1 0.999915
0.999915 1 1 0.999915
0.999868 1 1 0.999868
0.99982 1 1 0.99982
0.999844 1 1 0.999844
0.999815 1 1 0.999815
0.999866 1 1 0.999866
0.999844 1 1 0.999844
0.999824 1 1 0.999824
0.999988 1 1 0.999988
0.999927 1 1 0.999927
0.999991 1 1 0.999991
0.99999 1 1 0.99999
1 1 1 1
1 1 1 1
1 1 1 1
1 1 1 1
1 1 1 1
1 1 1 1
1 1 1 1
1 1 1 1
1 1 1 1
1 1 1 1
1 1 1 1
0.999898 1 1 0.999898
0.999882 1 1 0.999882
0.999832 1 1 0.999832
0.999819 1 1 0.999819
0.99987 1 1 0.99987
0.999978 1 1 0.999978
0.999869 1 1 0.999869
0.999818 1 1 0.999818
0.999824 1 1 0.999824
0.999801 1 1 0.999801
0.999839 1 1 0.999839
0.999812 1 1 0.999812
0.999816 1 1 0.999816
0.999804 1 1 0.999804
0.999803 1 1 0.999803
0.999795 1 1 0.999795
0.999819 1 1 0.999819
0.999817 1 1 0.999817
0.999861 1 1 0.999861
0.99988 1 1 0.99988
0.999814 1 1 0.999814
0.999822 1 1 0.999822
1 1 1 1
0.99997 1 1 0.99997
0.999899 1 1 0.999899
0.999856 1 1 0.999856
0.999802 1 1 0.999802
0.999837 1 1 0.999837
0.999841 1 1 0.999841
0.999832 1 1 0.999832
0.999975 1 1 0.999975
0.999899 1 1 0.999899
0.999978 1 1 0.999978
0.999817 1 1 0.999817
0.999811 1 1 0.999811
0.999785 1 1 0.999785
0.999788 1 1 0.999788
0.999974 1 1 0.999974
0.999907 1 1 0.999907
0.999856 1 1 0.999856
0.999828 1 1 0.999828
0.999806 1 1 0.999806
0.999822 1 1 0.999822
0.999831 1 1 0.999831
0.999843 1 1 0.999843
0.999909 1 1 0.999909
0.999865 1 1 0.999865
0.999983 1 1 0.999983
0.999895 1 1 0.999895
0.999791 1 1 0.999791
0.999779 1 1 0.999779
0.999769 1 1 0.999769
0.999784 1 1 0.999784
0.999826 1 1 0.999826
0.999815 1 1 0.999815
0.999911 1 1 0.999911
0.999846 1 1 0.999846
0.999867 1 1 0.999867
0.999825 1 1 0.999825
0.999812 1 1 0.999812
0.999847 1 1 0.999847
0.999987 1 1 0.999987
0.999897 1 1 0.999897
0.999872 1 1 0.999872
0.999854 1 1 0.999854
0.999848 1 1 0.999848
1 1 1 1
0.999845 1 1 0.999845
0.999982 1 1 0.999982
0.99998 1 1 0.99998
0.999914 1 1 0.999914
0.999877 1 1 0.999877
0.999825 1 1 0.999825
0.999913 1 1 0.999913
0.999862 1 1 0.999862
0.999867 1 1 0.999867
0.999859 1 1 0.999859
1 1 1 1
0.999984 1 1 0.999984
0.999915 1 1 0.999915
0.999915 1 1 0.999915
0.999867 1 1 0.999867
0.99982 1 1 0.99982
0.999844 1 1 0.999844
0.999814 1 1 0.999814
0.999866 1 1 0.999866
0.999846 1 1 0.999846
0.999827 1 1 0.999827
0.999986 1 1 0.999986
0.999916 1 1 0.999916
0.999867 1 1 0.999867
0.999866 1 1 0.999866
0.999847 1 1 0.999847
0.999817 1 1 0.999817
0.999828 1 1 0.999828
0.999828 1 1 0.999828
0.999829 1 1 0.999829
0.999806 1 1 0.999806
0.999988 1 1 0.999988
0.999913 1 1 0.999913
0.999922 1 1 0.999922
0.999878 1 1 0.999878
0.99993 1 1 0.99993
0.999993 1 1 0.999993
0.999992 1 1 0.999992
1 1 1 1
0.999991 1 1 0.999991
1 1 1 1
1 1 1 1
1 1 1 1
1 1 1 1
1 1 1 1
1 1 1 1
1 1 1 1
1 1 1 1
1 1 1 1
1 1 1 1
1 1 1 1
0.999839 1 1 0.999839
0.999824 1 1 0.999824
0.999813 1 1 0.999813
0.999801 1 1 0.999801
0.999818 1 1 0.999818
0.999869 1 1 0.999869
0.999816 1 1 0.999816
0.999804 1 1 0.999804
0.999803 1 1 0.999803
0.999793 1 1 0.999793
0.999819 1 1 0.999819
0.999817 1 1 0.999817
0.999801 1 1 0.999801
0.999802 1 1 0.999802
0.999799 1 1 0.999799
0.999787 1 1 0.999787
0.999822 1 1 0.999822
0.999825 1 1 0.999825
0.999814 1 1 0.999814
0.999811 1 1 0.999811
0.999781 1 1 0.999781
0.999789 1 1 0.999789
0.999974 1 1 0.999974
0.999907 1 1 0.999907
0.99986 1 1 0.99986
0.99983 1 1 0.99983
0.999808 1 1 0.999808
0.999831 1 1 0.999831
0.999818 1 1 0.999818
0.999845 1 1 0.999845
0.999909 1 1 0.999909
0.999861 1 1 0.999861
0.999982 1 1 0.999982
0.999895 1 1 0.999895
0.999791 1 1 0.999791
0.99978 1 1 0.99978
0.999766 1 1 0.999766
0.999785 1 1 0.999785
0.999911 1 1 0.999911
0.99987 1 1 0.99987
0.999825 1 1 0.999825
0.999825 1 1 0.999825
0.99982 1 1 0.99982
0.999811 1 1 0.999811
0.999847 1 1 0.999847
0.999852 1 1 0.999852
0.999872 1 1 0.999872
0.999846 1 1 0.999846
0.999853 1 1 0.999853
0.999981 1 1 0.999981
0.999898 1 1 0.999898
0.999779 1 1 0.999779
0.999759 1 1 0.999759
0.999797 1 1 0.999797
0.999838 1 1 0.999838
0.999876 1 1 0.999876
0.999867 1 1 0.999867
0.999842 1 1 0.999842
0.999795 1 1 0.999795
0.999804 1 1 0.999804
0.99998 1 1 0.99998
0.999915 1 1 0.999915
0.99985 1 1 0.99985
0.999853 1 1 0.999853
0.999821 1 1 0.999821
0.99983 1 1 0.99983
1 1 1 1
0.999984 1 1 0.999984
0.999819 1 1 0.999819
0.999915 1 1 0.999915
0.999915 1 1 0.999915
0.999866 1 1 0.999866
0.999844 1 1 0.999844
0.999812 1 1 0.999812
0.999867 1 1 0.999867
0.99983 1 1 0.99983
0.999848 1 1 0.999848
0.999986 1 1 0.999986
0.999916 1 1 0.999916
0.99987 1 1 0.99987
0.999866 1 1 0.999866
0.999844 1 1 0.999844
0.999816 1 1 0.999816
0.999827 1 1 0.999827
0.999829 1 1 0.999829
0.999827 1 1 0.999827
0.999802 1 1 0.999802
0.999917 1 1 0.999917
0.999857 1 1 0.999857
0.999838 1 1 0.999838
0.999834 1 1 0.999834
0.999827 1 1 0.999827
0.999854 1 1 0.999854
0.999805 1 1 0.999805
0.999822 1 1 0.999822
0.999803 1 1 0.999803
0.999764 1 1 0.999764
0.999989 1 1 0.999989
0.999917 1 1 0.999917
0.99986 1 1 0.99986
0.999918 1 1 0.999918
0.99993 1 1 0.99993
0.999872 1 1 0.999872
0.999837 1 1 0.999837
0.999868 1 1 0.999868
0.999933 1 1 0.999933
0.999993 1 1 0.999993
0.999993 1 1 0.999993
1 1 1 1
0.999992 1 1 0.999992
1 1 1 1
1 1 1 1
1 1 1 1
1 1 1 1
1 1 1 1
1 1 1 1
1 1 1 1
1 1 1 1
1 1 1 1
1 1 1 1
1 1 1 1
0.999819 1 1 0.999819
0.999803 1 1 0.999803
0.999817 1 1 0.999817
0.999792 1 1 0.999792
0.999804 1 1 0.999804
0.999816 1 1 0.999816
0.999801 1 1 0.999801
0.999802 1 1 0.999802
0.999797 1 1 0.999797
0.999782 1 1 0.999782
0.999823 1 1 0.999823
0.999828 1 1 0.999828
0.999807 1 1 0.999807
0.999798 1 1 0.999798
0.999794 1 1 0.999794
0.999855 1 1 0.999855
0.999792 1 1 0.999792
0.999781 1 1 0.999781
0.999763 1 1 0.999763
0.999786 1 1 0.999786
0.999911 1 1 0.999911
0.999873 1 1 0.999873
0.999825 1 1 0.999825
0.999824 1 1 0.999824
0.999825 1 1 0.999825
0.999847 1 1 0.999847
0.999809 1 1 0.999809
0.999858 1 1 0.999858
0.999872 1 1 0.999872
0.999843 1 1 0.999843
0.999853 1 1 0.999853
0.999975 1 1 0.999975
0.999899 1 1 0.999899
0.999776 1 1 0.999776
0.999762 1 1 0.999762
0.999799 1 1 0.999799
0.999876 1 1 0.999876
0.999846 1 1 0.999846
0.999794 1 1 0.999794
0.999836 1 1 0.999836
0.999812 1 1 0.999812
0.999866 1 1 0.999866
0.99998 1 1 0.99998
0.999853 1 1 0.999853
0.999832 1 1 0.999832
0.999823 1 1 0.999823
0.999852 1 1 0.999852
0.99991 1 1 0.99991
0.999771 1 1 0.999771
0.999759 1 1 0.999759
0.999821 1 1 0.999821
0.999866 1 1 0.999866
0.999854 1 1 0.999854
0.999835 1 1 0.999835
0.999806 1 1 0.999806
0.999773 1 1 0.999773
0.999985 1 1 0.999985
0.999922 1 1 0.999922
0.999862 1 1 0.999862
0.999805 1 1 0.999805
0.999832 1 1 0.999832
0.999806 1 1 0.999806
0.999986 1 1 0.999986
0.999916 1 1 0.999916
0.999816 1 1 0.999816
0.999865 1 1 0.999865
0.999873 1 1 0.999873
0.999841 1 1 0.999841
0.999826 1 1 0.999826
0.999831 1 1 0.999831
0.999825 1 1 0.999825
0.999798 1 1 0.999798
0.999917 1 1 0.999917
0.99986 1 1 0.99986
0.999842 1 1 0.999842
0.999837 1 1 0.999837
0.999829 1 1 0.999829
0.999857 1 1 0.999857
0.999807 1 1 0.999807
0.999833 1 1 0.999833
0.9998 1 1 0.9998
0.99976 1 1 0.99976
0.999856 1 1 0.999856
0.999818 1 1 0.999818
0.999812 1 1 0.999812
0.999811 1 1 0.999811
0.999864 1 1 0.999864
0.999858 1 1 0.999858
0.999765 1 1 0.999765
0.999745 1 1 0.999745
0.99992 1 1 0.99992
0.999864 1 1 0.999864
0.99983 1 1 0.99983
0.99993 1 1 0.99993
0.999865 1 1 0.999865
0.999933 1 1 0.999933
0.999832 1 1 0.999832
0.99987 1 1 0.99987
0.999807 1 1 0.999807
0.999828 1 1 0.999828
0.999869 1 1 0.999869
0.999934 1 1 0.999934
0.999994 1 1 0.999994
0.999994 1 1 0.999994
1 1 1 1
0.999993 1 1 0.999993
1 1 1 1
1 1 1 1
1 1 1 1
1 1 1 1
1 1 1 1
1 1 1 1
1 1 1 1
1 1 1 1
1 1 1 1
1 1 1 1
1 1 1 1
0.999823 1 1 0.999823
0.999796 1 1 0.999796
0.99983 1 1 0.99983
0.999777 1 1 0.999777
0.999802 1 1 0.999802
0.999801 1 1 0.999801
0.999804 1 1 0.999804
0.999797 1 1 0.999797
0.999798 1 1 0.999798
0.999853 1 1 0.999853
0.999803 1 1 0.999803
0.9998 1 1 0.9998
0.999831 1 1 0.999831
0.999772 1 1 0.999772
0.999766 1 1 0.999766
0.999801 1 1 0.999801
0.999876 1 1 0.999876
0.99985 1 1 0.99985
0.999793 1 1 0.999793
0.999833 1 1 0.999833
0.999865 1 1 0.999865
0.999819 1 1 0.999819
0.999852 1 1 0.999852
0.999834 1 1 0.999834
0.999825 1 1 0.999825
0.99998 1 1 0.99998
0.999854 1 1 0.999854
0.999905 1 1 0.999905
0.999777 1 1 0.999777
0.999758 1 1 0.999758
0.999817 1 1 0.999817
0.999854 1 1 0.999854
0.99981 1 1 0.99981
0.999776 1 1 0.999776
0.999869 1 1 0.999869
0.999834 1 1 0.999834
0.99999 1 1 0.99999
0.999922 1 1 0.999922
0.999832 1 1 0.999832
0.999807 1 1 0.999807
0.999808 1 1 0.999808
0.999858 1 1 0.999858
0.999787 1 1 0.999787
0.999767 1 1 0.999767
0.999872 1 1 0.999872
0.999877 1 1 0.999877
0.999826 1 1 0.999826
0.999773 1 1 0.999773
0.999779 1 1 0.999779
0.999997 1 1 0.999997
0.999948 1 1 0.999948
0.999925 1 1 0.999925
0.999858 1 1 0.999858
0.999811 1 1 0.999811
0.999781 1 1 0.999781
0.999815 1 1 0.999815
0.999787 1 1 0.999787
0.999917 1 1 0.999917
0.999862 1 1 0.999862
0.99986 1 1 0.99986
0.99984 1 1 0.99984
0.999846 1 1 0.999846
0.999831 1 1 0.999831
0.999808 1 1 0.999808
0.999845 1 1 0.999845
0.999797 1 1 0.999797
0.999756 1 1 0.999756
0.999856 1 1 0.999856
0.999822 1 1 0.999822
0.999815 1 1 0.999815
0.999814 1 1 0.999814
0.999865 1 1 0.999865
0.999855 1 1 0.999855
0.99977 1 1 0.99977
0.999744 1 1 0.999744
0.999825 1 1 0.999825
0.999841 1 1 0.999841
0.999796 1 1 0.999796
0.999782 1 1 0.999782
0.999883 1 1 0.999883
0.999755 1 1 0.999755
0.99981 1 1.00009 0.99972
0.999867 1 1 0.999867
0.99983 1 1 0.99983
0.999804 1 1 0.999804
0.999933 1 1 0.999933
0.999873 1 1 0.999873
0.999828 1 1 0.999828
0.999934 1 1 0.999934
0.999869 1 1 0.999869
0.999804 1 1 0.999804
0.999833 1 1 0.999833
0.999786 1 1 0.999786
0.999798 1 1 0.999798
0.999834 1 1 0.999834
0.999873 1 1 0.999873
0.999933 1 1 0.999933
0.999993 1 1 0.999993
0.999994 1 1 0.999994
1 1 1 1
0.999994 1 1 0.999994
1 1 1 1
1 1 1 1
1 1 1 1
1 1 1 1
1 1 1 1
0.999999 1 1 0.999999
1 1 1 1
1 1 1 1
1 1 1 1
1 1 1 1
1 1 1 1
1 1 1 1
0.99985 1 1 0.99985
0.999802 1 1 0.999802
0.999797 1 1 0.999797
0.9998 1 1 0.9998
0.999807 1 1 0.999807
0.999797 1 1 0.999797
0.999838 1 1 0.999838
0.999809 1 1 0.999809
0.999811 1 1 0.999811
0.999873 1 1 0.999873
0.999782 1 1 0.999782
0.999756 1 1 0.999756
0.999813 1 1 0.999813
0.999853 1 1 0.999853
0.999814 1 1 0.999814
0.999779 1 1 0.999779
0.999873 1 1 0.999873
0.999833 1 1 0.999833
0.999832 1 1 0.999832
0.999808 1 1 0.999808
0.999811 1 1 0.999811
0.999994 1 1 0.999994
0.999923 1 1 0.999923
0.999855 1 1 0.999855
0.999783 1 1 0.999783
0.999997 1 1 0.999997
0.999944 1 1 0.999944
0.999769 1 1 0.999769
0.999862 1 1 0.999862
0.999828 1 1 0.999828
0.999776 1 1 0.999776
0.999775 1 1 0.999775
0.999875 1 1 0.999875
0.999935 1 1 0.999935
0.999858 1 1 0.999858
0.999817 1 1 0.999817
0.999791 1 1 0.999791
0.999776 1 1 0.999776
0.999812 1 1 0.999812
0.999764 1 1 0.999764
0.999821 1 1 0.999821
0.999923 1 1 0.999923
0.999813 1 1 0.999813
0.999806 1 1 0.999806
0.999754 1 1.00001 0.999748
0.999947 1 1 0.999947
0.999942 1 1 0.999942
0.999897 1 1 0.999897
0.999858 1 1 0.999858
0.999818 1 1 0.999818
0.999767 1 1 0.999767
0.999751 1 1 0.999751
0.99979 1 1 0.99979
0.999856 1 1 0.999856
0.999827 1 1 0.999827
0.999865 1 1 0.999865
0.999852 1 1 0.999852
0.999816 1 1 0.999816
0.999819 1 1 0.999819
0.999775 1 1 0.999775
0.999743 1 1 0.999743
0.999825 1 1 0.999825
0.999856 1 1 0.999856
0.999796 1 1 0.999796
0.999777 1 1 0.999777
0.99988 1 1 0.99988
0.999757 1 1 0.999757
0.999806 1 1.00009 0.999718
0.999796 1 1 0.999796
0.999867 1 0.999991 0.999876
0.999777 1 1 0.999777
0.99991 1 1.00018 0.999733
0.999759 1 1 0.999759
1.00043 1 1.00074 0.999693
0.984504 1.00295 0.981895 0.999704
0.99983 1 1 0.99983
0.999804 1 1 0.999804
0.999786 1 1 0.999786
0.999934 1 1 0.999934
0.999869 1 1 0.999869
0.999838 1 1 0.999838
0.9998 1 1 0.9998
0.999933 1 1 0.999933
0.99987 1 1 0.99987
0.999785 1 1 0.999785
0.999834 1 1 0.999834
0.999802 1 1 0.999802
0.999772 1 1 0.999772
0.999802 1 1 0.999802
0.999835 1 1 0.999835
0.999863 1 1 0.999863
0.999923 1 1 0.999923
0.999879 1 1 0.999879
0.999923 1 1 0.999923
0.999993 1 1 0.999993
0.999993 1 1 0.999993
1 1 1 1
0.999994 1 1 0.999994
1 1 1 1
1 1 1 1
1 1 1 1
1 1 1 1
1 1 1 1
1 1 1 1
0.999999 1 1 0.999999
1 1 1 1
1 1 1 1
1 1 1 1
1 1 1 1
1 1 1 1
1 1 1 1
0.999846 1 1 0.999846
0.999794 1 1 0.999794
0.999812 1 1 0.999812
0.999809 1 1 0.999809
0.999813 1 1 0.999813
0.999884 1 1 0.999884
0.999819 1 1 0.999819
0.996097 1.00031 0.995863 0.999929
0.999659 1 0.999705 0.999954
0.99996 1 1 0.99996
0.99978 1 1 0.99978
0.999771 1 1 0.999771
0.999853 1 1 0.999853
0.99983 1 1 0.99983
0.999772 1 1 0.999772
0.999777 1 1 0.999777
0.999874 1 1 0.999874
0.999818 1 1 0.999818
0.999796 1 1 0.999796
0.999771 1 1 0.999771
0.999996 1 1 0.999996
0.999813 1 1 0.999813
0.999944 1 1 0.999944
0.999857 1 1 0.999857
0.99994 1 1 0.99994
0.999757 1 1 0.999757
0.999951 1 1 0.999951
0.999942 1 1 0.999942
0.999889 1 1 0.999889
0.999822 1 1 0.999822
0.999844 1 0.999933 0.99991
0.999807 1 1 0.999807
0.999746 1 1 0.999746
0.999815 1 1 0.999815
0.999863 1 1 0.999863
0.999816 1 1 0.999816
0.99979 1 1 0.99979
0.999757 1 1 0.999757
0.999771 1 1 0.999771
0.999787 1 1.00004 0.999742
0.997815 1 0.997905 0.999909
0.999857 1 1 0.999857
0.999754 1 1 0.999754
0.999779 1 1 0.999779
0.99989 1 1 0.99989
0.999871 1 1 0.999871
0.999847 1 1 0.999847
0.999813 1 1 0.999813
0.999782 1 1 0.999782
0.99974 1 1 0.99974
1.00125 1 1.0015 0.999744
0.999825 1 1 0.999825
0.999795 1 1 0.999795
0.99987 1 1 0.99987
0.999876 1 1 0.999876
0.999758 1 1 0.999758
0.999771 1 1 0.999771
0.999715 1 1 0.999715
0.999798 1 1 0.999798
0.99984 1 0.999956 0.999884
0.999776 1 1 0.999776
0.999777 1 1.00005 0.999732
0.999771 1 1 0.999771
1.00092 1 1.00123 0.99969
0.988869 1.00553 0.983696 0.99973
0.999778 1 1 0.999778
0.999731 1 1 0.999731
0.999756 1 1 0.999756
1.00202 1 1.00233 0.999694
1.00051 1 1.00084 0.999672
0.963202 0.964163 1.00004 0.998963
0.98778 1.00143 0.986562 0.999802
0.984779 1.00805 0.977252 0.999652
0.970525 0.976937 0.993547 0.999889
0.976338 1 0.976358 0.999976
0.999804 1 1 0.999804
0.999786 1 1 0.999786
0.999766 1 1 0.999766
0.999933 1 1 0.999933
0.999867 1 1 0.999867
0.999834 1 1 0.999834
0.999806 1 1 0.999806
0.999785 1 1 0.999785
0.999829 1 1 0.999829
0.999928 1 1 0.999928
0.999867 1 1 0.999867
0.999775 1 1 0.999775
0.999801 1 1 0.999801
0.999804 1 1 0.999804
0.999772 1 1 0.999772
0.999818 1 1 0.999818
0.999861 1 1 0.999861
0.999923 1 1 0.999923
0.999874 1 1 0.999874
0.999833 1 1 0.999833
0.999866 1 1 0.999866
0.999871 1 1 0.999871
0.99993 1 1 0.99993
0.999923 1 1 0.999923
0.999993 1 1 0.999993
0.999993 1 1 0.999993
1 1 1 1
0.999993 1 1 0.999993
1 1 1 1
1 1 1 1
1 1 1 1
1 1 1 1
1 1 1 1
1 1 1 1
1 1 1 1
1 1 1 1
0.999998 1 1 0.999998
1 1 1 1
1 1 1 1
1 1 1 1
1 1 1 1
1 1 1 1
0.999814 1 1 0.999814
0.99981 1 1 0.99981
0.999895 1 1 0.999895
0.995596 1 0.995665 0.999926
0.999818 1 1 0.999818
0.999792 1 0.999863 0.999929
0.999827 1 1.00004 0.999789
0.981603 0.985028 0.99692 0.999602
0.999693 1 0.999727 0.999967
0.999963 1 1 0.999963
0.99996 1 1 0.99996
0.999904 1 1 0.999904
0.999914 1 1 0.999914
0.99975 1 1 0.99975
0.999823 1 1 0.999823
0.999868 1 0.99997 0.999898
0.999808 1 1 0.999808
0.999745 1 1 0.999745
0.999817 1 1 0.999817
0.99979 1 1 0.99979
0.999763 1 1 0.999763
0.999774 1 1 0.999774
0.999942 1 1 0.999942
0.999814 1 1 0.999814
0.999869 1 1 0.999869
0.999956 1 1 0.999956
0.999882 1 1 0.999882
0.999785 1 1.00003 0.99975
0.999898 1 1 0.999898
0.999876 1 1 0.999876
0.999849 1 1 0.999849
0.998727 1 0.998818 0.999908
0.999843 1 0.999985 0.999858
0.999825 1 1.00005 0.999779
0.99976 1 1 0.999757
0.999814 1 1 0.999814
0.999785 1 1 0.999785
1.00063 1 1.00088 0.999745
0.99974 1 1 0.99974
0.999835 1 1.00003 0.999805
0.998078 1 0.998173 0.999905
0.999746 1 1 0.999746
1.00001 1 1.00026 0.999749
0.999835 1 1 0.999835
0.999822 1 1 0.999822
0.999757 1 1 0.999757
1.00169 1 1.00199 0.999703
0.961812 0.964676 0.998058 0.998971
0.9998 1 1 0.9998
0.999775 1 1 0.999775
0.999845 1 0.999953 0.999892
0.999783 1 1 0.999783
1.00149 1 1.0018 0.999688
0.999732 1 1 0.999732
0.99347 1.00798 0.985851 0.999756
0.999779 1 1 0.999779
0.999733 1 1 0.999733
0.999757 1 1 0.999757
1.00168 1 1.00199 0.999696
1.00024 1 1.00056 0.999682
0.964666 0.964556 1.00105 0.999069
0.984282 0.998412 0.986318 0.999523
0.987382 1.00998 0.977968 0.999653
0.972844 0.979125 0.99384 0.999743
0.976348 0.998022 0.978304 0.999979
0.99977 1 1 0.99977
0.97623 0.978861 0.997714 0.999597
0.992131 1.00107 0.991085 0.999983
0.999659 1 1 0.999659
1.00118 1 1.00144 0.999741
1.0071 1 1.00742 0.999677
1.0014 1.01017 0.991723 0.999594
0.976621 0.973073 1.00478 0.998871
0.986838 1.00714 0.980333 0.999501
0.966349 0.979932 0.986262 0.999875
0.991069 1.00514 0.986024 0.999982
0.999786 1 1 0.999786
0.999767 1 1 0.999767
0.999749 1 1 0.999749
0.999932 1 1 0.999932
0.99987 1 1 0.99987
0.999824 1 1 0.999824
0.999799 1 1 0.999799
0.999778 1 1 0.999778
0.999923 1 1 0.999923
0.999803 1 1 0.999803
0.999824 1 1 0.999824
0.999865 1 1 0.999865
0.999768 1 1 0.999768
0.999787 1 1 0.999787
0.999945 1 1.0002 0.999748
0.999817 1 1 0.999817
0.999871 1 1 0.999871
0.999874 1 1 0.999874
0.999827 1 1 0.999827
0.999826 1 1 0.999826
0.999821 1 1 0.999821
0.999799 1 1 0.999799
0.999812 1 1 0.999812
0.999859 1 1 0.999859
0.999866 1 1 0.999866
0.999926 1 1 0.999926
0.999864 1 1 0.999864
0.999926 1 1 0.999926
0.999992 1 1 0.999992
0.999923 1 1 0.999923
0.999993 1 1 0.999993
1 1 1 1
0.999993 1 1 0.999993
1 1 1 1
1 1 1 1
1 1 1 1
1 1 1 1
1 1 1 1
0.999962 1 1 0.999962
1 1 1 1
1 1 1 1
1 1 1 1
1 1 1 1
1 1 1 1
1 1 1 1
1 1 1 1
1 1 1 1
1 1 1 1
0.995057 1 0.995134 0.999923
0.999817 1 1 0.999817
0.999904 1 1 0.999904
0.98269 0.984866 0.998027 0.999763
0.999848 1 0.999883 0.999964
0.999809 1 1.00003 0.999776
1.00137 1 1.00159 0.999775
0.988365 0.98712 1.00163 0.999635
0.966644 0.9678 1.00011 0.998692
0.969647 0.976729 0.993171 0.999576
0.981843 0.997173 0.984646 0.999979
0.999904 1 1 0.999904
0.999963 1 1 0.999963
0.999959 1 1 0.999959
0.999902 1 1 0.999902
0.999867 1 1 0.999867
0.999879 1 1 0.999879
0.999908 1 1 0.999908
0.999911 1 1 0.999911
0.999783 1 1.00003 0.999757
0.999452 1 0.999545 0.999907
0.999725 1 0.999867 0.999858
0.999803 1 1.00002 0.999778
0.99976 1 1 0.99976
1.00005 1 1.0003 0.999745
0.99974 1 1 0.99974
0.999788 1 1 0.999788
0.999881 1 1 0.999881
0.999816 1 1 0.999816
0.999905 1 1 0.999905
0.999851 1 1 0.999851
0.999276 1 0.999476 0.9998
0.999837 1 1 0.999837
0.999825 1 1 0.999825
0.997661 1 0.997758 0.999903
0.999752 1 1 0.999752
1.00041 1 1.00067 0.999739
0.999757 1 1 0.999757
1.00167 1 1.00196 0.999705
0.989351 1.00333 0.986234 0.999834
1.00183 1 1.00206 0.999771
0.999712 1 1 0.999712
1.00433 1 1.00465 0.999688
0.999801 1 1 0.999801
0.999777 1 1 0.999777
1.00025 1 1.00054 0.99971
0.974383 0.980518 0.993909 0.999833
0.965215 0.966289 0.99988 0.999008
0.999781 1 1 0.999781
0.999758 1 1 0.999758
0.999875 1.00014 1 0.999734
0.999956 1 1.00026 0.999692
1.00126 1 1.00156 0.999698
0.964199 0.965632 0.999863 0.998653
0.98759 0.998241 0.989468 0.999862
0.990507 1.01227 0.978839 0.999652
0.969834 0.978244 0.991809 0.999591
0.975878 0.995747 0.980064 0.999982
0.999769 1 1 0.999769
0.974894 0.979793 0.995153 0.999846
0.991951 1.00048 0.991489 0.999987
0.999661 1 1 0.999658
1.00045 1 1.00071 0.999743
1.0063 1 1.00661 0.999687
0.999228 1.0076 0.992104 0.999582
0.975401 0.973724 1.00302 0.998708
0.980601 1.00254 0.978272 0.999838
0.966353 0.979847 0.986655 0.999568
0.986888 1.00548 0.981523 0.999982
0.999754 1 1 0.999754
1.00191 1.00333 0.998593 0.999988
1.00252 1.00429 0.998239 0.99999
1.00943 1 1.00978 0.999657
1.00512 1 1.00536 0.999765
1.00441 1.00361 1.00103 0.999776
0.991477 1.00191 0.989656 0.999935
0.979421 0.976785 1.00391 0.998794
0.974698 0.990505 0.984499 0.999535
0.999053 1.00662 0.992495 0.999983
0.999767 1 1 0.999767
0.999748 1 1 0.999748
1.00016 1 1.00042 0.999738
0.999923 1 1 0.999923
0.99987 1 1 0.99987
0.999829 1 1 0.999829
0.999802 1 1 0.999802
0.999764 1 1 0.999764
0.999871 1 1 0.999871
0.99979 1 1 0.99979
0.999817 1 1 0.999817
0.99999 1 1.00024 0.999745
1.00028 1 1.00055 0.999726
0.999857 1 1.00009 0.999771
0.999821 1 1 0.999821
0.999874 1 1 0.999874
0.999821 1 1 0.999821
0.999826 1 1 0.999826
0.999821 1 1 0.999821
0.999799 1 1 0.999799
0.999813 1 1 0.999813
0.999791 1 1 0.999791
0.999783 1 1 0.999783
0.999798 1 1 0.999798
0.999826 1 1 0.999826
0.999822 1 1 0.999822
0.999812 1 1 0.999812
0.999855 1 1 0.999855
0.999859 1 1 0.999859
0.99992 1 1 0.99992
0.999866 1 1 0.999866
0.999926 1 1 0.999926
0.999991 1 1 0.999991
0.999921 1 1 0.999921
0.999992 1 1 0.999992
1 1 1 1
0.999993 1 1 0.999993
1 1 1 1
1 1 1 1
1 1 1 1
1 1 1 1
1 1 1 1
0.999966 1 1 0.999966
1 1 1 1
0.999962 1 1 0.999962
1 1 1 1
1 1 1 1
1 1 1 1
1 1 1 1
1 1 1 1
1 1 1 1
1 1 1 1
1 1 1 1
0.973606 0.978065 0.995571 0.99987
0.995567 1.00147 0.994117 0.999991
0.984628 0.985401 0.99932 0.999896
0.999945 1 0.999984 0.999962
0.999791 1 1.00003 0.999762
0.987687 0.985805 1.00196 0.999953
1.00058 1 1.0008 0.999783
0.970225 0.969906 1.00136 0.998975
0.971408 0.977261 0.994126 0.999884
0.980972 0.996938 0.984002 0.999982
0.999569 0.99506 1.00465 0.999881
0.97594 0.974366 1.00269 0.998928
0.96685 0.978673 0.988039 0.999878
0.986547 1.00534 0.981327 0.999979
0.999854 1 1 0.999854
0.999908 1 1 0.999908
0.999963 1 1 0.999963
0.9999 1 1 0.9999
0.999871 1 1 0.999871
0.999865 1 1 0.999865
0.99988 1 1 0.99988
0.999891 1 1 0.999891
0.999904 1 1 0.999904
0.999908 1 1 0.999908
0.998822 1 0.999025 0.999796
0.997523 1 0.997621 0.999902
0.999758 1 1 0.999758
1.00084 1 1.00111 0.99973
1.00156 1 1.00185 0.999707
0.999758 1 1 0.999758
0.999827 1 1 0.999827
0.999839 1 1 0.999839
0.991452 1.00188 0.989772 0.99982
0.999799 1 1 0.999799
0.999773 1 1 0.999773
1.00025 1 1.00048 0.999775
0.999844 1 1.00014 0.999706
1.00337 1 1.00369 0.99968
1.00083 1 1.00112 0.999705
0.983908 1.01095 0.973502 0.99974
1.00795 1 1.00826 0.999691
1.00433 1 1.00467 0.999664
0.999798 1 1 0.999798
0.999768 1 1 0.999768
0.999731 1 1 0.999731
0.999195 1.00169 0.997539 0.999973
0.975069 0.979795 0.995588 0.999587
0.963186 0.966018 0.998115 0.998951
0.999769 1 1 0.999769
0.999745 1 1 0.999745
0.999657 1 1 0.999657
1.00564 1 1.00595 0.999697
0.97274 0.97891 0.994117 0.999578
0.972537 0.972435 1.00092 0.999189
0.980781 1.00354 0.977761 0.999546
0.997789 1.00518 0.993072 0.999572
0.966636 0.979066 0.987417 0.999886
0.992705 1.00143 0.991307 0.999982
0.987743 1.00616 0.981713 0.99998
0.999753 1 1 0.999753
1.00022 1.00239 0.997859 0.999982
1.00345 1.00535 0.99812 0.999989
1.00973 1 1.01007 0.999658
1.00523 1 1.00546 0.999764
1.00734 1.00315 1.00461 0.999565
0.988041 1.00181 0.986709 0.999541
0.979324 0.978137 1.00243 0.998791
0.978547 0.989734 0.98881 0.999886
0.995386 1.00517 0.990293 0.999978
0.999776 1 1 0.999776
1.00253 1.00269 0.999854 0.999995
1.00022 1.0012 0.999028 0.999998
1.00673 1 1.00688 0.999855
0.998021 0.995381 1.00269 0.999959
0.988591 0.984746 1.00501 0.998896
0.986687 1.00169 0.985165 0.999852
0.998351 1.00432 0.994088 0.999968
0.999747 1 1 0.999747
1.0001 1 1.00036 0.999742
1.00104 1 1.0013 0.999735
0.999871 1 1 0.999871
0.999818 1 1 0.999818
0.999793 1 1 0.999793
1.00002 1 1.00028 0.999741
0.999821 1 1 0.999821
0.999802 1 1.00003 0.999771
1.00066 1 1.00093 0.999724
1.00059 1 1.00086 0.999732
0.999943 1 1.00021 0.99973
0.999783 1 1 0.999783
0.999826 1 1 0.999826
0.999821 1 1 0.999821
0.999798 1 1 0.999798
0.999793 1 1 0.999793
0.999813 1 1 0.999813
0.999785 1 1 0.999785
0.99978 1 1 0.99978
0.999768 1 1 0.999768
0.999782 1 1 0.999782
0.999797 1 1 0.999797
0.999807 1 1 0.999807
0.999817 1 1 0.999817
0.999852 1 1 0.999852
0.999834 1 1 0.999834
0.999825 1 1 0.999825
0.999855 1 1 0.999855
0.999813 1 1 0.999813
0.999855 1 1 0.999855
0.999915 1 1 0.999915
0.999859 1 1 0.999859
0.99992 1 1 0.99992
0.99999 1 1 0.99999
0.999926 1 1 0.999926
0.999991 1 1 0.999991
1 1 1 1
0.999992 1 1 0.999992
1 1 1 1
1 1 1 1
1 1 1 1
1 1 1 1
1 1 1 1
0.99995 1 1 0.99995
1 1 1 1
0.999959 1 1 0.999959
1 1 1 1
1 1 1 1
0.999962 1 1 0.999962
1 1 1 1
1 1 1 1
1 1 1 1
1 1 1 1
1 1 1 1
1 1 1 1
1.00059 1.00192 0.998678 0.999991
0.973794 0.978175 0.995791 0.999729
1.00236 1.00469 0.997692 0.999992
0.994057 0.999717 0.994348 0.99999
0.984625 0.984446 1.00054 0.999643
0.999834 1 1.00004 0.999792
0.970581 0.969556 1.00178 0.999275
0.970352 0.977049 0.993553 0.99959
0.980451 0.996835 0.983578 0.999985
0.996649 0.996505 1.00037 0.999778
0.975006 0.972104 1.00412 0.998871
0.968969 0.98042 0.98875 0.999565
0.984932 1.00483 0.980214 0.999982
0.996781 1.00453 0.992388 0.999894
0.977101 0.973812 1.00461 0.998773
0.976443 0.990932 0.985498 0.999879
0.995465 1.00715 0.988409 0.999985
0.999828 1 1 0.999828
0.99986 1 1 0.99986
0.999912 1 1 0.999912
0.999875 1 1 0.999875
0.99984 1 1 0.99984
0.999868 1 1 0.999868
0.999882 1 1 0.999882
0.999886 1 1 0.999886
0.999896 1 1 0.999896
0.999899 1 1 0.999899
0.993734 1.00063 0.993304 0.999805
0.998688 1 0.998908 0.99978
0.999905 1 1.00021 0.9997
1.00266 1 1.00299 0.999673
1.00146 1 1.00176 0.9997
0.999768 1 1 0.999768
0.999797 1 1 0.999797
0.999799 1 1 0.999799
0.985634 1.00792 0.978146 0.999737
0.99977 1 1 0.99977
0.999819 1 1.00009 0.999728
1.00719 1 1.00751 0.99969
1.00411 1 1.00445 0.999664
0.987613 1.01058 0.977574 0.999694
1.01737 1 1.01768 0.999691
1.00047 1 1.00078 0.999687
0.999773 1 1 0.999773
0.999736 1 1 0.999736
1.00082 1.00094 0.999885 0.999999
0.999917 1.0017 0.998238 0.999982
0.97526 0.980498 0.994805 0.999853
0.999752 1 1 0.999752
1.00515 1 1.00539 0.999764
1.00986 1 1.0102 0.999659
1.0013 1.00269 0.998632 0.999989
0.9792 0.976666 1.00385 0.998745
0.983972 1.00046 0.983587 0.999931
1.00813 1.002 1.00677 0.999348
0.97269 0.987899 0.985045 0.999553
1.00449 1.00653 0.997988 0.999988
0.996748 1.00456 0.992245 0.999975
0.999781 1 1 0.999781
1.00217 1.00224 0.999936 0.999996
1.00015 1.00116 0.998993 0.999999
1.00702 0.999985 1.00724 0.999791
0.997321 0.996636 1.00085 0.999836
0.991436 0.987585 1.00511 0.998799
1.0015 1.00538 0.996161 0.999975
0.988102 0.997773 0.990571 0.999734
0.999805 1 1 0.999805
0.999281 0.999094 1.00019 1
0.998549 0.998776 0.999771 1
0.996423 1.00675 0.989762 0.999985
1.00245 0.997479 1.00506 0.999926
0.986562 0.983839 1.00374 0.999029
0.989136 1.00032 0.989044 0.999775
1.00001 1 1.00027 0.999745
1.00082 1 1.00109 0.999731
1.00318 1 1.00343 0.999748
0.999821 1 1 0.999821
0.999772 1 1 0.999772
1.0011 1 1.00138 0.999723
0.999785 1 1 0.999785
1.00005 1 1.00033 0.99973
1.00099 1 1.00126 0.999727
1.00009 1 1.00035 0.999739
0.999747 1 1 0.999747
0.999794 1 1 0.999794
0.999814 1 1 0.999814
0.999786 1 1 0.999786
0.999768 1 1 0.999768
0.999779 1 1 0.999779
0.999763 1 1 0.999763
0.999794 1 1 0.999794
0.999788 1 1.00003 0.999759
0.999797 1 1 0.999797
0.999807 1 1 0.999807
0.999783 1 1 0.999783
0.999826 1 1 0.999826
0.999856 1 1 0.999856
0.999817 1 1 0.999817
0.999872 1 1 0.999872
0.99985 1 1 0.99985
0.999842 1 1 0.999842
0.999828 1 1 0.999828
0.999857 1 1 0.999857
0.999915 1 1 0.999915
0.999856 1 1 0.999856
0.999916 1 1 0.999916
0.999988 1 1 0.999988
0.99992 1 1 0.99992
0.999989 1 1 0.999989
1 1 1 1
0.99999 1 1 0.99999
1 1 1 1
1 1 1 1
1 1 1 1
1 1 1 1
1 1 1 1
0.999931 1 1 0.999931
0.99999 1 1 0.99999
0.99995 1 1 0.99995
1 1 1 1
0.999996 1 1 0.999996
0.999951 1 1 0.999951
1 1 1 1
1 1 1 1
1 1 1 1
1 1 1 1
1 1 1 1
1 1 1 1
1.00204 1.00216 0.99988 0.999997
0.998624 1.00129 0.997358 0.999976
0.975536 0.978512 0.997351 0.999607
0.999866 1 1 0.999866
1.00059 1.0006 0.99999 0.999999
1.00301 1.00476 0.998262 0.999992
0.992794 0.999431 0.99338 0.999979
0.993962 0.997604 0.99669 0.999658
0.977013 0.972081 1.0062 0.998878
0.971509 0.98123 0.990208 0.999884
0.987051 1.00454 0.982609 0.999978
0.994949 1.00754 0.987928 0.999571
0.979278 0.975878 1.00467 0.998817
0.974218 0.989929 0.984412 0.999714
0.996109 1.00811 0.988117 0.999979
0.979265 1.00125 0.978478 0.999553
0.983508 0.980478 1.00459 0.998503
0.986697 0.995368 0.991725 0.999559
0.998178 1.00489 0.993363 0.99996
0.999799 1 1 0.999799
0.999825 1 1 0.999825
0.999865 1 1 0.999865
0.999832 1 1 0.999832
0.999846 1 1 0.999846
0.999871 1 1 0.999871
0.999888 1 1 0.999888
0.9999 1 1 0.9999
0.987316 1.00482 0.982842 0.999733
1.00631 1 1.00663 0.999688
0.9998 1 1 0.9998
1.00378 1 1.00412 0.999664
0.999892 1 1.00017 0.999725
0.999773 1 1 0.999773
0.999774 1 1 0.999774
0.988568 1.0096 0.979467 0.999691
0.999735 1 1 0.999735
1.00129 1 1.0016 0.999686
1.01756 1 1.01788 0.99969
0.999767 1 1 0.999767
1.00379 1.00289 1.00116 0.999744
1.01334 1 1.01363 0.999712
0.999714 1 1 0.999714
0.999739 1 1 0.999739
0.999034 0.998995 1.00004 1
1.001 1.00111 0.999888 0.999999
1.00047 1.00176 0.998729 0.999991
0.999785 1 1 0.999785
1.00763 0.999979 1.00793 0.999728
1.0018 1.00181 0.999995 0.999996
0.988062 0.982061 1.00733 0.998795
1.00116 1.00072 1.00089 0.999557
0.982764 0.994561 0.98851 0.999623
0.999947 1.00093 0.999024 0.999999
1.00448 1.00633 0.998188 0.999983
0.999803 1 1 0.999803
0.999134 0.998888 1.00025 1
0.998657 0.998356 1.0003 1
0.999914 0.996259 1.00372 0.999948
0.997121 1.00772 0.989502 0.999979
0.987356 0.987701 1.00053 0.999124
0.985071 0.996011 0.989455 0.999556
1.00181 0.998855 1.00312 0.999833
0.999433 0.999068 1.00036 1
1.0008 1.00055 1.00025 0.999998
0.987887 1.00513 0.982866 0.99998
0.985128 0.99293 0.992566 0.999573
0.994866 0.993226 1.00155 1.00011
0.980359 0.983722 0.997502 0.999077
1.00062 1 1.00089 0.999727
1.00232 1 1.00258 0.999745
1.0115 1 1.01177 0.999735
0.999786 1 1 0.999786
1.00009 1 1.00037 0.999729
1.00126 1 1.00154 0.999721
0.999747 1 1 0.999747
1.00017 1 1.00043 0.999738
1.00298 1 1.00325 0.999734
0.999769 1 1 0.999769
0.999778 1 1 0.999778
0.999939 1 1.00018 0.999761
1.00105 1 1.00131 0.999734
0.999806 1 1 0.999806
0.999793 1 1.00003 0.999764
0.999766 1 1.00003 0.99974
0.999783 1 1 0.999783
0.999807 1 1 0.999807
0.99978 1 1 0.99978
0.999842 1 1 0.999842
0.999856 1 1 0.999856
0.99983 1 1 0.99983
0.999881 1 1 0.999881
0.999856 1 1 0.999856
0.999817 1 1 0.999817
0.999919 1 1 0.999919
0.99987 1 1 0.99987
0.999848 1 1 0.999848
0.99986 1 1 0.99986
0.999915 1 1 0.999915
0.999986 1 1 0.999986
0.999916 1 1 0.999916
0.999987 1 1 0.999987
1 1 1 1
0.999989 1 1 0.999989
1 1 1 1
1 1 1 1
1 1 1 1
1 1 1 1
1 1 1 1
0.999921 1 1 0.999921
0.999986 1 1 0.999986
0.999935 1 1 0.999935
1 1 1 1
0.99999 1 1 0.99999
0.999949 1 1 0.999949
1 1 1 1
1 1 1 1
0.999992 1 1 0.999992
1 1 1 1
1 1 1 1
1 1 1 1
0.99958 0.99948 1.0001 1
1.00197 1.00204 0.999928 0.999997
0.999517 1.00186 0.997691 0.999974
0.999869 1 1 0.999869
0.999857 1 1 0.999857
0.999832 1 1 0.999832
0.998317 0.998831 0.999483 1
1.00029 1.00024 1.00005 0.999999
1.00388 1.00485 0.999047 0.999992
0.998174 1.01141 0.987022 0.999886
0.977897 0.974133 1.00507 0.998803
0.973916 0.990155 0.984043 0.999549
1.0007 1.00923 0.991575 0.99998
0.977511 0.999454 0.978172 0.99987
0.987585 0.982555 1.00627 0.998852
0.990175 1.00175 0.988631 0.999814
1.00126 1.00581 0.995513 0.99997
0.977219 0.995053 0.982132 0.999944
0.985527 0.98435 1.00227 0.998928
0.989864 1.00271 0.987469 0.999719
0.996376 1.00636 0.99009 0.999985
0.999791 1 1 0.999791
0.9998 1 1 0.9998
0.999821 1 1 0.999821
0.999831 1 1 0.999831
0.999851 1 1 0.999851
0.999889 1 1 0.999889
0.989319 1.00844 0.981345 0.999687
1.01751 1 1.01783 0.999689
0.999774 1 1 0.999774
1.002 1 1.00231 0.999684
0.999733 1 1 0.999733
0.999766 1 1 0.999766
0.999737 1 1 0.999737
1.00068 1.0039 0.997061 0.999735
0.999716 1 1 0.999716
1.01383 1 1.01412 0.999714
0.999734 1 1 0.999734
1.02121 1 1.02141 0.999801
1.00019 1 1.00044 0.99975
0.999712 1 1 0.999712
0.999789 0.999774 1.00001 1
0.999222 0.99919 1.00003 1
1.0012 1.00128 0.999925 0.999998
0.999802 1 1 0.999802
1.00015 0.995519 1.00467 0.999985
0.998976 0.998681 1.00029 1
0.9917 0.990694 1.00151 0.999501
0.989171 1.00234 0.987062 0.9998
0.998755 0.997975 1.00078 1
1.00119 1.00893 0.992346 0.99998
1.00153 0.9994 1.00229 0.99984
0.999557 0.999317 1.00024 1
1.00043 1.00018 1.00025 0.999999
0.995051 0.99359 1.00161 0.999863
0.986248 1.00459 0.981762 0.999981
0.988291 0.99913 0.989318 0.999832
0.979635 0.982779 0.997733 0.999066
1.00986 1 1.00995 0.999911
0.99948 0.999416 1.00006 1
1.00286 1.00498 0.997903 0.999991
0.981131 0.996975 0.98413 0.999978
0.976935 0.989084 0.987834 0.999882
0.992114 0.986433 1.0068 0.998963
0.982197 0.991987 0.99033 0.999799
1.00141 1 1.00167 0.999742
1.01236 1 1.01262 0.999736
1.019 1 1.01927 0.999731
0.999748 1 1 0.999748
1.00029 1 1.00055 0.999737
1.00244 1 1.0027 0.999734
1.00952 1 1.00983 0.999694
1.00008 1 1.00032 0.999759
1.00144 1 1.00172 0.999728
1.00264 1 1.00294 0.999694
0.999769 1 1 0.999769
0.999905 1 1.00017 0.999738
0.999731 1 1 0.999731
0.99977 1 1 0.99977
0.999821 1 1 0.999821
0.999779 1 1 0.999779
0.999777 1 1 0.999777
0.999863 1 1 0.999863
0.999845 1 1 0.999845
0.99988 1 1 0.99988
0.99986 1 1 0.99986
0.999834 1 1 0.999834
0.999925 1 1 0.999925
0.999881 1 1 0.999881
0.999855 1 1 0.999855
0.999985 1 1 0.999985
0.999919 1 1 0.999919
0.999868 1 1 0.999868
0.999915 1 1 0.999915
0.999986 1 1 0.999986
1 1 1 1
0.999987 1 1 0.999987
1 1 1 1
1 1 1 1
1 1 1 1
1 1 1 1
1 1 1 1
0.999922 1 1 0.999922
0.999992 1 1 0.999992
0.999924 1 1 0.999924
1 1 1 1
0.999991 1 1 0.999991
0.999939 1 1 0.999939
1 1 1 1
1 1 1 1
0.99999 1 1 0.99999
1 1 1 1
1 1 1 1
1 1 1 1
0.999552 0.999122 1.00043 1
0.99945 0.999321 1.00013 1
1.00179 1.00191 0.999886 0.999997
0.999859 1 1 0.999859
0.999843 1 1 0.999843
0.999871 1 1 0.999871
0.999857 1 1 0.999857
0.999827 1 1 0.999827
0.999826 1 1 0.999826
0.999804 1 1 0.999804
0.999777 1.00097 0.998813 0.999999
0.998594 0.998483 1.00011 1
0.99999 0.999876 1.00011 1
1.00436 1.00673 0.997668 0.999981
0.982914 1.00549 0.978012 0.999529
0.988143 0.98217 1.00693 0.99916
0.979941 0.999313 0.981091 0.999515
0.980686 0.994426 0.986433 0.999746
0.989828 0.988764 1.00214 0.998937
0.988618 0.999548 0.989555 0.999505
0.993018 1.00557 0.987542 0.999973
0.992184 0.992463 0.999758 0.999962
0.982938 0.988924 0.994998 0.998943
0.985766 1.00364 0.982375 0.99981
0.990648 1.00439 0.98634 0.999983
0.999776 1 1 0.999776
0.99979 1 1 0.99979
0.9998 1 1 0.9998
0.999831 1 1 0.999831
0.996759 1.00489 0.992177 0.999727
1.01467 1 1.01496 0.999716
0.999765 1 1 0.999765
0.999734 1 1 0.999734
0.999718 1 1 0.999718
0.999739 1 1 0.999739
0.99971 1 1 0.99971
1.01255 0.99858 1.01419 0.999808
1.0002 1 1.00044 0.999761
0.999707 1 1 0.999707
1.02587 0.995671 1.03044 0.9999
1.00361 1 1.00394 0.999669
0.999007 0.998995 1.00001 1
0.999919 0.999927 0.999992 1
0.999396 0.999383 1.00001 1
1.00147 1 1.00162 0.999846
0.995121 0.992671 1.00239 1.00008
0.999697 0.99957 1.00013 1
0.981099 0.98352 0.998497 0.999039
0.980698 0.9974 0.983713 0.999533
1.00008 0.999798 1.00028 1
0.988316 1.00411 0.98429 0.999979
1.01037 0.999722 1.01076 0.9999
0.999342 0.999256 1.00008 1
1.0037 1.00506 0.998659 0.999991
0.9858 0.994451 0.99122 1.00008
0.980362 0.996534 0.98379 0.999981
0.973547 0.987265 0.986386 0.999715
0.99299 0.985676 1.00836 0.999071
1.00333 1 1.00342 0.999907
1.00237 1.00231 1.00006 0.999996
0.995885 1.00176 0.994142 0.999989
0.965749 0.977282 0.988325 0.999873
0.984759 0.979078 1.00698 0.998833
0.976963 0.997271 0.979996 0.999634
1.01334 1 1.01361 0.999738
1.01946 1 1.01974 0.99973
1.0197 1 1.02002 0.999692
1.00194 1 1.00221 0.999735
1.00981 1 1.01012 0.999699
1.00726 1 1.0076 0.999654
1.00202 1 1.0023 0.999723
1.00287 1 1.00318 0.999687
1.00167 1 1.00199 0.999684
1.00015 1 1.00041 0.999736
0.999822 1 1.0001 0.999726
0.999742 1 1 0.999742
0.99978 1 1 0.99978
0.999802 1 1 0.999802
0.999767 1 1 0.999767
0.99985 1 1 0.99985
0.999825 1 1 0.999825
0.999775 1 1 0.999775
0.999879 1 1 0.999879
0.999861 1 1 0.999861
0.999849 1 1 0.999849
0.999925 1 1 0.999925
0.999882 1 1 0.999882
0.999863 1 1 0.999863
0.999986 1 1 0.999986
0.999925 1 1 0.999925
0.999882 1 1 0.999882
1 1 1 1
0.999986 1 1 0.999986
0.99992 1 1 0.99992
0.999986 1 1 0.999986
1 1 1 1
1 1 1 1
1 1 1 1
1 1 1 1
1 1 1 1
0.999865 1 1 0.999865
0.999916 1 1 0.999916
0.999989 1 1 0.999989
0.999922 1 1 0.999922
1 1 1 1
0.999993 1 1 0.999993
0.999928 1 1 0.999928
1 1 1 1
1 1 1 1
0.999996 1 1 0.999996
1 1 1 1
1 1 1 1
1 1 1 1
0.999265 0.999149 1.00011 1
0.999647 0.99935 1.0003 1
0.999319 0.999164 1.00015 1
0.999861 1 1 0.999861
0.999841 1 1 0.999841
0.999843 1 1 0.999843
0.999833 1 1 0.999833
0.999829 1 1 0.999829
0.999856 1 1 0.999856
0.999823 1 1 0.999823
0.999826 1 1 0.999826
0.999805 1 1 0.999805
0.999806 1 1 0.999806
1.00255 1.00323 0.999334 0.99999
0.999663 1.00092 0.998744 1
0.998797 0.998106 1.00069 1
0.993734 1.0047 0.989113 0.99997
0.989351 1.00452 0.985141 0.999756
0.985822 0.994634 0.991553 0.999584
0.984157 0.984679 1.00047 0.999001
0.996185 0.991493 1.00506 0.999673
0.978978 0.985622 0.99429 0.998963
0.988635 1.00034 0.988606 0.999687
0.988311 1.00481 0.983597 0.999984
1.01783 0.988653 1.02982 0.999707
0.988996 0.986862 1.00319 0.998975
0.974344 0.990562 0.984071 0.999549
0.981691 0.999325 0.982372 0.999982
0.999796 1 1 0.999796
0.999779 1 1 0.999779
0.999789 1 1 0.999789
1.00473 0.997146 1.00779 0.999815
1.00018 1 1.00041 0.999771
0.999744 1 1 0.999744
0.999708 1 1 0.999708
0.999742 1 1.00003 0.999709
1.0041 1 1.00444 0.999667
1.02555 0.996917 1.02882 0.999899
1.00392 1 1.00424 0.999689
1.01285 0.999034 1.01406 0.999778
1.00093 1.00093 1 0.999998
0.999203 0.999193 1.00001 1
1.00006 1.00008 0.999983 1
1.01071 0.999387 1.01144 0.99989
0.988555 0.993761 0.994969 0.999791
0.999202 0.999096 1.00011 1
0.985038 0.982455 1.00394 0.998697
0.974859 0.988388 0.986757 0.999549
1.00454 1.00515 0.999401 0.999991
0.980181 0.996386 0.983752 0.999984
1.00435 1 1.00444 0.99991
1.00224 1.00218 1.00007 0.999996
0.994404 1.0001 0.994318 0.999989
0.973249 0.99446 0.978846 0.999821
0.968371 0.979479 0.989092 0.999562
0.987871 0.981275 1.00812 0.998616
0.985075 1.00028 0.984974 0.999821
1.00106 1.00227 0.998803 0.999989
0.96993 0.97718 0.993006 0.999571
0.977209 0.974062 1.00448 0.99876
0.972557 1.00061 0.972095 0.999861
1.01955 1 1.01982 0.999729
1.02092 1 1.02123 0.999692
1.01167 1 1.01201 0.999661
1.00991 1 1.01021 0.999705
1.00686 1 1.00721 0.999657
1.00182 1 1.00215 0.999677
1.00287 1 1.00319 0.99968
1.00114 1 1.00145 0.999687
0.999756 1 1 0.999756
0.999832 1 1.00011 0.999721
0.999746 1 1 0.999746
0.999798 1 1 0.999798
0.999813 1 1 0.999813
0.999794 1 1 0.999794
0.999782 1 1 0.999782
0.999832 1 1 0.999832
0.999797 1 1 0.999797
0.999765 1 1 0.999765
0.999878 1 1 0.999878
0.999854 1 1 0.999854
0.999828 1 1 0.999828
0.999919 1 1 0.999919
0.999878 1 1 0.999878
0.999858 1 1 0.999858
0.999987 1 1 0.999987
0.999924 1 1 0.999924
0.999884 1 1 0.999884
1 1 1 1
0.999987 1 1 0.999987
0.999925 1 1 0.999925
1 1 1 1
1 1 1 1
0.999986 1 1 0.999986
1 1 1 1
1 1 1 1
1 1 1 1
0.999864 1 1 0.999864
0.999913 1 1 0.999913
0.999863 1 1 0.999863
0.999986 1 1 0.999986
0.999916 1 1 0.999916
1 1 1 1
0.99999 1 1 0.99999
0.999922 1 1 0.999922
1 1 1 1
1 1 1 1
0.999994 1 1 0.999994
1 1 1 1
1 1 1 1
1 1 1 1
1.00105 1.00106 1 0.999996
0.999121 0.998956 1.00016 1
0.99976 0.999579 1.00018 1
0.99985 1 1 0.99985
0.999863 1 1 0.999863
0.999838 1 1 0.999838
0.999836 1 1 0.999836
0.999846 1 1 0.999846
0.99983 1 1 0.99983
0.999827 1 1 0.999827
0.999819 1 1 0.999819
0.999826 1 1 0.999826
0.999805 1 1 0.999805
0.999806 1 1 0.999806
0.999804 1 1 0.999804
0.99334 0.999821 0.993534 0.999984
1.00339 1.00417 0.999236 0.99999
0.999563 1.00088 0.998682 1
0.990312 1.00549 0.984931 0.999977
0.985474 0.998233 0.987656 0.999557
0.981089 0.9873 0.994757 0.998946
0.999203 0.989008 1.01031 1
1.02 0.989258 1.03107 1.00001
0.98233 0.997549 0.984759 0.999985
0.990314 0.989536 1.00199 0.998797
0.974159 0.98831 0.985803 0.999877
1.00806 0.995084 1.0131 0.999946
0.988227 0.982716 1.00673 0.998885
0.967499 0.977371 0.99 0.999898
1.00023 1 1.00041 0.999824
0.999797 1 1 0.999797
0.999782 1 1 0.999782
1.02528 0.998321 1.02711 0.999899
1.00473 1 1.00506 0.999665
0.999762 1 1.00005 0.999711
1.00421 1 1.00452 0.999692
1.01186 0.999584 1.0125 0.99978
1.00557 1 1.00578 0.999798
0.999708 1.00232 0.997421 0.999973
1.00054 1.00054 1 0.999999
0.99939 0.999391 0.999998 1
1.00526 1 1.00535 0.999914
0.972967 0.996129 0.976802 0.999945
1.00205 1.00202 1.00003 0.999996
0.991896 0.982526 1.01036 0.999185
0.970697 0.980351 0.990271 0.99988
0.992916 0.999761 0.993176 0.999978
0.983499 1.00103 0.982657 0.999824
0.998933 1.00166 0.997306 0.999975
0.971209 0.977244 0.993941 0.999883
0.973319 1.00128 0.972533 0.999529
0.98018 0.976774 1.00469 0.998802
0.977476 1.00817 0.969851 0.999693
0.974105 0.978906 0.995224 0.999871
0.975183 0.973721 1.00259 0.998915
0.977214 1.00516 0.97265 0.999539
1.02268 1 1.02299 0.999692
1.01124 1 1.01159 0.999657
1.00277 1 1.00305 0.999715
1.00667 1 1.00702 0.999661
1.00171 1 1.00203 0.999679
0.999812 1 1 0.999812
1.00071 1 1.00102 0.99969
0.99976 1 1 0.99976
0.999858 1 1 0.999858
0.999749 1 1 0.999749
0.9998 1 1 0.9998
0.999857 1 1 0.999857
0.999852 1 1 0.999852
0.999814 1 1 0.999814
0.999817 1 1 0.999817
0.999819 1 1 0.999819
0.999798 1 1 0.999798
0.999784 1 1 0.999784
0.999869 1 1 0.999869
0.999831 1 1 0.999831
0.999792 1 1 0.999792
0.999915 1 1 0.999915
0.999878 1 1 0.999878
0.999857 1 1 0.999857
0.999984 1 1 0.999984
0.999919 1 1 0.999919
0.999878 1 1 0.999878
1 1 1 1
0.999986 1 1 0.999986
0.999924 1 1 0.999924
1 1 1 1
1 1 1 1
0.999987 1 1 0.999987
1 1 1 1
1 1 1 1
1 1 1 1
0.999873 1 1 0.999873
0.999865 1 1 0.999865
0.999911 1 1 0.999911
0.999983 1 1 0.999983
0.999913 1 1 0.999913
0.999862 1 1 0.999862
1 1 1 1
0.999986 1 1 0.999986
0.999916 1 1 0.999916
1 1 1 1
1 1 1 1
0.99999 1 1 0.99999
1 1 1 1
1 1 1 1
1 1 1 1
1.00047 1.00221 0.998274 0.999992
1.00122 1.00122 1 0.999996
0.998965 0.998765 1.0002 1
0.999848 1 1 0.999848
0.999855 1 1 0.999855
0.999837 1 1 0.999837
0.999839 1 1 0.999839
0.999849 1 1 0.999849
0.999831 1 1 0.999831
0.99982 1 1 0.99982
0.999829 1 1 0.999829
0.999815 1 1 0.999815
0.999816 1 1 0.999816
0.999806 1 1 0.999806
0.999804 1 1 0.999804
0.972552 0.976956 0.995598 0.999894
0.993254 0.99924 0.994019 0.99999
1.00435 1.0052 0.999163 0.999989
0.983385 0.996107 0.987241 0.999987
0.969787 0.987241 0.982744 0.999568
0.994277 0.991493 1.00359 0.999217
1.02501 0.989702 1.03598 0.999703
1.00872 0.995154 1.014 0.999638
0.967709 0.978615 0.989251 0.9996
0.991379 0.985892 1.00651 0.999059
1.00146 0.995528 1.00637 0.99959
0.981435 0.978469 1.00413 0.998909
1.00491 1 1.00511 0.999795
1.00009 1 1.00027 0.999825
0.999798 1 1 0.999798
1.01067 1 1.01089 0.999781
1.0045 1 1.00481 0.999696
1.00475 1 1.00494 0.999805
1.00021 1 1.00043 0.999784
0.974149 0.981158 0.993015 0.999841
1.00029 1.00205 0.998264 0.999982
1.00017 1.00017 1 0.999999
0.981233 1.00122 0.980207 0.999827
0.972506 0.999957 0.972638 0.999908
0.999533 1.00215 0.99742 0.999973
0.978495 0.974912 1.00489 0.99879
0.97006 0.977112 0.993197 0.999584
0.977201 1.00739 0.970316 0.999708
0.974046 0.978823 0.995394 0.999724
0.975611 0.972497 1.00435 0.998857
0.975206 1.00406 0.971388 0.99987
0.977591 1.01242 0.96592 0.999668
0.966803 0.967827 1.00026 0.998685
0.990796 1.002 0.988919 0.999898
1.0109 1 1.01125 0.999653
1.0025 1 1.00279 0.999712
0.999321 1 0.999471 0.99985
1.00155 1 1.00187 0.999682
0.999751 1 0.999937 0.999814
0.999743 1 0.999797 0.999946
0.999765 1 1 0.999765
0.999859 1 1 0.999859
0.999918 1 1 0.999918
0.999802 1 1 0.999802
0.999856 1 1 0.999856
0.999883 1 1 0.999883
0.999866 1 1 0.999866
0.999855 1 1 0.999855
0.999845 1 1 0.999845
0.999827 1 1 0.999827
0.999815 1 1 0.999815
0.99982 1 1 0.99982
0.99985 1 1 0.99985
0.999823 1 1 0.999823
0.999802 1 1 0.999802
0.999908 1 1 0.999908
0.999868 1 1 0.999868
0.999831 1 1 0.999831
0.999979 1 1 0.999979
0.999915 1 1 0.999915
0.999878 1 1 0.999878
1 1 1 1
0.999984 1 1 0.999984
0.99992 1 1 0.99992
1 1 1 1
1 1 1 1
0.999986 1 1 0.999986
1 1 1 1
1 1 1 1
1 1 1 1
0.999874 1 1 0.999874
0.999869 1 1 0.999869
0.99991 1 1 0.99991
0.999867 1 1 0.999867
0.999911 1 1 0.999911
0.99998 1 1 0.99998
1 1 1 1
0.999983 1 1 0.999983
0.999913 1 1 0.999913
1 1 1 1
1 1 1 1
0.999987 1 1 0.999987
1 1 1 1
1 1 1 1
1 1 1 1
0.976891 0.979935 0.997277 0.999616
0.999466 1.00195 0.997533 0.999986
1.00132 1.00132 1 0.999997
0.999846 1 1 0.999846
0.999837 1 1 0.999837
0.999856 1 1 0.999856
0.999857 1 1 0.999857
0.99984 1 1 0.99984
0.999821 1 1 0.999821
0.999831 1 1 0.999831
0.999815 1 1 0.999815
0.999831 1 1 0.999831
0.999809 1 1 0.999809
1.00004 1 1.00023 0.999809
0.999812 1 1 0.999812
0.999804 1 1 0.999804
0.976591 0.977063 1.00086 0.998654
0.974251 0.978755 0.995646 0.999752
0.992997 0.999577 0.993433 0.999984
0.967694 0.978788 0.988762 0.999902
0.987654 0.982488 1.00673 0.998537
1.01139 0.995917 1.01559 0.999951
1.00207 0.99606 1.00628 0.999755
0.981379 0.978698 1.00381 0.998935
0.997648 0.998087 0.99989 0.999669
1.00283 1.00023 1.00293 0.999669
1.00437 1 1.00459 0.999789
0.999827 1 1 0.999827
1.00337 1 1.00356 0.999812
0.999616 1.00015 0.999609 0.999852
0.963122 0.966131 0.997893 0.998991
0.975294 0.980529 0.995054 0.999605
1.0007 1.00178 0.998933 0.99999
0.976955 1.00691 0.970524 0.999722
0.979019 1.00913 0.970625 0.999526
0.975925 0.979247 0.997005 0.999601
0.977187 0.972046 1.00642 0.998872
0.977408 1.01103 0.967073 0.999663
0.969806 0.969357 1.00149 0.998971
0.987694 1.0044 0.983784 0.999572
0.975166 1.00935 0.966381 0.999746
0.998654 0.993261 1.00554 0.999889
1.002 1 1.00229 0.99971
0.998105 1 0.998256 0.999849
0.99703 1 0.997081 0.999949
0.999577 1 0.999761 0.999816
0.999461 1 0.999517 0.999945
0.999565 1 0.999602 0.999963
0.99986 1 1 0.99986
0.999914 1 1 0.999914
0.999906 1 1 0.999906
0.999856 1 1 0.999856
0.999881 1 1 0.999881
0.999872 1 1 0.999872
0.99987 1 1 0.99987
0.999853 1 1 0.999853
0.999858 1 1 0.999858
0.999844 1 1 0.999844
0.99984 1 1 0.99984
0.999843 1 1 0.999843
0.999826 1 1 0.999826
0.999816 1 1 0.999816
0.999895 1 1 0.999895
0.999852 1 1 0.999852
0.999827 1 1 0.999827
0.999973 1 1 0.999973
0.999908 1 1 0.999908
0.999868 1 1 0.999868
1 1 1 1
0.999979 1 1 0.999979
0.999916 1 1 0.999916
1 1 1 1
1 1 1 1
0.999983 1 1 0.999983
1 1 1 1
1 1 1 1
1 1 1 1
0.999869 1 1 0.999869
0.999874 1 1 0.999874
0.999903 1 1 0.999903
0.999865 1 1 0.999865
0.999907 1 1 0.999907
0.999977 1 1 0.999977
0.999911 1 1 0.999911
0.99998 1 1 0.99998
1 1 1 1
1 1 1 1
1 1 1 1
0.999983 1 1 0.999983
1 1 1 1
1 1 1 1
1 1 1 1
0.970255 0.970919 1.00031 0.999008
0.976066 0.981423 0.994678 0.999862
1.00101 1.00287 0.998149 0.999991
0.999837 1 1 0.999837
0.999858 1 1 0.999858
0.999841 1 1 0.999841
0.999858 1 1 0.999858
0.999854 1 1 0.999854
0.999845 1 1 0.999845
0.999815 1 1 0.999815
0.999831 1 1 0.999831
0.999811 1 1 0.999811
0.999829 1 1 0.999829
0.999812 1 1 0.999812
0.999728 1 1.00003 0.999697
0.999821 1 1.00002 0.999806
0.999808 1 1 0.999808
0.990702 0.993208 0.997549 0.999928
0.973112 0.974025 1.00011 0.998949
0.971365 0.977321 0.994303 0.999601
0.979684 0.977167 1.00371 0.99887
1.00256 0.996181 1.00647 0.999936
0.997197 0.996905 1.00039 0.999906
0.999944 1.00261 0.997692 0.999645
1.00311 1 1.00342 0.999682
1.00403 1 1.00425 0.999783
0.997725 1 0.997805 0.99992
0.988985 0.986941 1.00245 0.999626
0.966893 0.967485 1.00035 0.999038
0.975208 0.980943 0.994291 0.999862
0.977234 1.00946 0.968412 0.999657
0.990206 1.008 0.982456 0.999889
0.970789 0.96889 1.00269 0.99927
0.977406 1.00657 0.971272 0.999743
0.994278 0.994289 1.00021 0.999779
0.983747 1.00231 0.981634 0.999847
1.00222 1 1.00249 0.999735
0.996915 1 0.997066 0.999848
0.996641 1 0.996692 0.999949
0.997505 1 0.997578 0.999927
0.999339 1 0.999395 0.999944
0.999617 1 0.999657 0.99996
0.999893 1 0.999997 0.999896
0.999911 1 1 0.999911
0.999903 1 1 0.999903
0.999858 1 1 0.999858
0.999878 1 1 0.999878
0.999873 1 1 0.999873
0.999844 1 1 0.999844
0.999874 1 1 0.999874
0.999855 1 1 0.999855
0.999841 1 1 0.999841
0.999843 1 1 0.999843
0.999839 1 1 0.999839
0.999849 1 1 0.999849
0.999878 1 1 0.999878
0.999846 1 1 0.999846
0.999825 1 1 0.999825
0.999962 1 1 0.999962
0.999895 1 1 0.999895
0.999855 1 1 0.999855
1 1 1 1
0.999972 1 1 0.999972
0.999908 1 1 0.999908
1 1 1 1
1 1 1 1
0.999979 1 1 0.999979
1 1 1 1
1 1 1 1
1 1 1 1
0.999868 1 1 0.999868
0.999872 1 1 0.999872
0.9999 1 1 0.9999
0.999874 1 1 0.999874
0.999903 1 1 0.999903
0.999975 1 1 0.999975
0.999904 1 1 0.999904
0.999978 1 1 0.999978
1 1 1 1
0.99998 1 1 0.99998
1 1 1 1
1 1 1 1
1 1 1 1
1 1 1 1
1 1 1 1
0.985048 0.986523 0.998582 0.999922
0.966104 0.968158 0.998896 0.998982
0.973836 0.980391 0.99371 0.999601
0.999846 1 1 0.999846
0.999842 1 1 0.999842
0.999858 1 1 0.999858
0.999845 1 1 0.999845
0.999853 1 1 0.999853
0.999855 1 1 0.999855
0.99983 1 1 0.99983
0.999813 1 1 0.999813
0.999831 1 1 0.999831
0.999822 1 1 0.999822
0.999761 1 1 0.999761
0.999602 1 1 0.999602
0.99982 1 1.00011 0.999706
0.999803 1 1 0.999803
0.997535 1.00019 0.997688 0.999659
0.991476 0.994769 0.996917 0.999771
0.974801 0.974841 1.00072 0.999243
0.998535 0.998196 1.00074 0.999604
1.00151 1.00258 0.999359 0.999575
1.00475 1 1.00505 0.999695
0.999917 1 1.00002 0.999897
0.989955 0.986113 1.00397 0.999922
0.964377 0.96736 0.997922 0.998993
0.979555 1.00368 0.976221 0.99974
0.99076 0.994842 0.996243 0.999653
0.98704 1.00103 0.986191 0.999834
1.00118 1 1.00141 0.99977
0.999373 1 0.999591 0.999782
0.999747 1 1 0.999747
0.996216 1 0.996266 0.999949
0.998344 1 0.998418 0.999926
0.999842 1 1 0.999842
0.999628 1 0.999671 0.999957
0.999895 1 1 0.999895
0.99983 1 1 0.99983
0.999901 1 1 0.999901
0.999861 1 1 0.999861
0.999817 1 1 0.999817
0.999873 1 1 0.999873
0.999844 1 1 0.999844
0.999829 1 1 0.999829
0.999858 1 1 0.999858
0.999842 1 1 0.999842
0.999842 1 1 0.999842
0.999838 1 1 0.999838
0.999847 1 1 0.999847
0.999874 1 1 0.999874
0.999949 1 1 0.999949
0.999881 1 1 0.999881
0.999848 1 1 0.999848
1 1 1 1
0.999961 1 1 0.999961
0.999895 1 1 0.999895
1 1 1 1
1 1 1 1
0.999972 1 1 0.999972
1 1 1 1
1 1 1 1
1 1 1 1
0.999859 1 1 0.999859
0.999868 1 1 0.999868
0.999899 1 1 0.999899
0.999875 1 1 0.999875
0.999902 1 1 0.999902
0.99997 1 1 0.99997
0.999903 1 1 0.999903
0.999975 1 1 0.999975
1 1 1 1
0.999978 1 1 0.999978
1 1 1 1
1 1 1 1
1 1 1 1
1 1 1 1
1 1 1 1
0.998072 1 0.998211 0.999861
0.98561 0.98794 0.998008 0.999634
0.967476 0.968744 0.999659 0.999031
0.999848 1 1 0.999848
0.999821 1 1 0.999821
0.999847 1 1 0.999847
0.999844 1 1 0.999844
0.999853 1 1 0.999853
0.999853 1 1 0.999853
0.999779 1 1 0.999779
0.999834 1 1 0.999834
0.999833 1 1 0.999833
0.999759 1 1 0.999759
0.999658 1 1 0.999658
0.999732 1 1 0.999732
0.999612 1 1 0.999612
0.999714 1 1 0.999714
0.998958 1.00128 0.998017 0.999667
0.990579 0.994502 0.996435 0.999619
1.00169 1.00227 0.999916 0.999506
0.999901 1 1 0.999901
1.00106 1 1.00116 0.9999
0.98836 0.985786 1.00298 0.999632
0.990675 1.00007 0.990786 0.999822
1.00015 1 1.00034 0.999806
0.998977 1 0.999187 0.99979
0.999765 1 1 0.999765
0.99977 1 1 0.99977
0.999856 1 1 0.999856
0.999195 1 0.999269 0.999926
0.999845 1 1 0.999845
0.999786 1 1 0.999786
0.999893 1 1 0.999893
0.99983 1 1 0.99983
0.999792 1 1 0.999792
0.999865 1 1 0.999865
0.999818 1 1 0.999818
0.999805 1 1 0.999805
0.999844 1 1 0.999844
0.999829 1 1 0.999829
0.999831 1 1 0.999831
0.999843 1 1 0.999843
0.999842 1 1 0.999842
0.999866 1 1 0.999866
0.999844 1 1 0.999844
0.999872 1 1 0.999872
0.999938 1 1 0.999938
1 1 1 1
0.999949 1 1 0.999949
0.999884 1 1 0.999884
1 1 1 1
1 1 1 1
0.999961 1 1 0.999961
1 1 1 1
1 1 1 1
1 1 1 1
0.999838 1 1 0.999838
0.999856 1 1 0.999856
0.999891 1 1 0.999891
0.999868 1 1 0.999868
0.999899 1 1 0.999899
0.999964 1 1 0.999964
0.999904 1 1 0.999904
0.999971 1 1 0.999971
1 1 1 1
0.999975 1 1 0.999975
1 1 1 1
1 1 1 1
1 1 1 1
1 1 1 1
1 1 1 1
0.999885 1 1 0.999885
0.998196 1 0.998327 0.999868
0.984789 0.986507 0.998319 0.999939
0.999803 1 1 0.999803
0.999857 1 1 0.999857
0.999776 1 1 0.999776
0.999819 1 1 0.999819
0.999847 1 1 0.999847
0.999706 1 1 0.999706
0.999851 1 1 0.999851
0.99978 1 1 0.99978
0.999713 1 1 0.999713
0.999757 1 1 0.999757
0.999646 1 1 0.999646
0.999727 1 1 0.999727
0.999622 1 1 0.999622
1.00022 1.00222 0.998324 0.999676
0.999916 1 1 0.999916
0.9999 1 1 0.9999
1.00215 1 1.00224 0.999903
0.99871 1 0.998911 0.999798
0.999783 1 1 0.999783
0.999767 1 1 0.999767
0.999859 1 1 0.999859
0.999835 1 1 0.999835
0.999848 1 1 0.999848
0.99979 1 1 0.99979
0.999784 1 1 0.999784
0.999831 1 1 0.999831
0.999791 1 1 0.999791
0.999785 1 1 0.999785
0.999818 1 1 0.999818
0.999805 1 1 0.999805
0.999811 1 1 0.999811
0.999829 1 1 0.999829
0.999831 1 1 0.999831
0.999854 1 1 0.999854
0.999842 1 1 0.999842
0.999867 1 1 0.999867
0.999928 1 1 0.999928
0.999871 1 1 0.999871
0.999938 1 1 0.999938
1 1 1 1
1 1 1 1
1 1 1 1
0.999949 1 1 0.999949
1 1 1 1
1 1 1 1
1 1 1 1
0.999784 1 1 0.999784
0.999816 1 1 0.999816
0.999835 1 1 0.999835
0.999881 1 1 0.999881
0.999854 1 1 0.999854
0.999892 1 1 0.999892
0.999958 1 1 0.999958
0.999899 1 1 0.999899
0.999965 1 1 0.999965
1 1 1 1
0.999971 1 1 0.999971
1 1 1 1
1 1 1 1
1 1 1 1
1 1 1 1
1 1 1 1
0.999845 1 1 0.999845
0.999879 1 1 0.999879
0.998696 1.00037 0.998452 0.999875
0.999736 1 1 0.999736
0.999813 1 1 0.999813
0.999867 1 1 0.999867
0.999781 1 1 0.999781
0.999817 1 1 0.999817
0.999702 1 1 0.999702
0.9997 1 1 0.9997
0.999781 1 1 0.999781
0.999709 1 1 0.999709
0.999635 1 1 0.999635
0.999722 1 1 0.999722
0.9999 1 1 0.9999
0.999914 1 1 0.999914
0.999898 1 1 0.999898
0.999763 1 1 0.999763
0.999861 1 1 0.999861
0.999835 1 1 0.999835
0.999832 1 1 0.999832
0.999793 1 1 0.999793
0.99978 1 1 0.99978
0.999793 1 1 0.999793
0.999789 1 1 0.999789
0.999784 1 1 0.999784
0.999793 1 1 0.999793
0.999804 1 1 0.999804
0.999811 1 1 0.999811
0.999836 1 1 0.999836
0.999831 1 1 0.999831
0.999854 1 1 0.999854
0.999914 1 1 0.999914
0.999867 1 1 0.999867
0.999928 1 1 0.999928
0.999998 1 1 0.999998
0.999938 1 1 0.999938
0.999999 1 1 0.999999
1 1 1 1
1 1 1 1
1 1 1 1
1 1 1 1
0.999747 1 1 0.999747
0.999812 1 1 0.999812
0.999799 1 1 0.999799
0.999863 1 1 0.999863
0.999817 1 1 0.999817
0.999833 1 1 0.999833
0.999881 1 1 0.999881
0.999949 1 1 0.999949
0.999892 1 1 0.999892
0.999958 1 1 0.999958
1 1 1 1
0.999965 1 1 0.999965
1 1 1 1
1 1 1 1
1 1 1 1
1 1 1 1
1 1 1 1
0.999809 1 1 0.999809
0.999846 1 1 0.999846
0.999872 1 1 0.999872
0.999721 1 1 0.999721
0.999736 1 1 0.999736
0.999824 1 1 0.999824
0.999786 1 1 0.999786
0.999703 1 1 0.999703
0.999695 1 1 0.999695
0.999706 1 1 0.999706
0.999871 1 1 0.999871
0.999889 1 1 0.999889
0.999911 1 1 0.999911
0.999834 1 1 0.999834
0.999834 1 1 0.999834
0.999831 1 1 0.999831
0.99982 1 1 0.99982
0.999777 1 1 0.999777
0.999794 1 1 0.999794
0.999795 1 1 0.999795
0.999784 1 1 0.999784
0.999793 1 1 0.999793
0.999821 1 1 0.999821
0.999811 1 1 0.999811
0.999836 1 1 0.999836
0.999898 1 1 0.999898
0.999854 1 1 0.999854
0.999914 1 1 0.999914
0.999996 1 1 0.999996
0.999928 1 1 0.999928
0.999998 1 1 0.999998
1 1 1 1
0.999999 1 1 0.999999
1 1 1 1
1 1 1 1
0.999729 1 1 0.999729
0.999772 1 1 0.999772
0.999753 1 1 0.999753
0.99985 1 1 0.99985
0.99981 1 1 0.99981
0.999815 1 1 0.999815
0.999932 1 1 0.999932
0.999863 1 1 0.999863
0.999817 1 1 0.999817
0.999881 1 1 0.999881
0.99995 1 1 0.99995
1 1 1 1
0.999959 1 1 0.999959
1 1 1 1
1 1 1 1
1 1 1 1
1 1 1 1
1 1 1 1
0.999793 1 1 0.999793
0.999801 1 1 0.999801
0.999846 1 1 0.999846
0.999714 1 1 0.999714
0.999737 1 1 0.999737
0.999703 1 1 0.999703
0.999837 1 1 0.999837
0.999874 1 1 0.999874
0.999877 1 1 0.999877
0.99983 1 1 0.99983
0.99982 1 1 0.99982
0.99983 1 1 0.99983
0.99982 1 1 0.99982
0.999816 1 1 0.999816
0.999794 1 1 0.999794
0.999796 1 1 0.999796
0.999816 1 1 0.999816
0.999793 1 1 0.999793
0.999821 1 1 0.999821
0.999884 1 1 0.999884
0.999836 1 1 0.999836
0.999898 1 1 0.999898
0.999993 1 1 0.999993
0.999914 1 1 0.999914
0.999995 1 1 0.999995
1 1 1 1
0.999997 1 1 0.999997
1 1 1 1
1 1 1 1
0.999789 1 1 0.999789
0.999746 1 1 0.999746
0.999727 1 1 0.999727
0.999815 1 1 0.999815
0.999776 1 1 0.999776
0.99976 1 1 0.99976
0.999911 1 1 0.999911
0.999842 1 1 0.999842
0.999808 1 1 0.999808
0.999998 1 1 0.999998
0.999933 1 1 0.999933
0.999862 1 1 0.999862
0.99995 1 1 0.99995
1 1 1 1
1 1 1 1
1 1 1 1
1 1 1 1
1 1 1 1
0.999786 1 1 0.999786
0.99979 1 1 0.99979
0.999793 1 1 0.999793
0.999707 1 1 0.999707
0.999813 1 1 0.999813
0.99984 1 1 0.99984
0.999877 1 1 0.999877
0.999826 1 1 0.999826
0.999822 1 1 0.999822
0.999827 1 1 0.999827
0.99982 1 1 0.99982
0.999816 1 1 0.999816
0.999824 1 1 0.999824
0.999796 1 1 0.999796
0.999816 1 1 0.999816
0.999876 1 1 0.999876
0.99982 1 1 0.99982
0.999884 1 1 0.999884
0.99999 1 1 0.99999
0.999898 1 1 0.999898
0.999992 1 1 0.999992
1 1 1 1
0.999995 1 1 0.999995
1 1 1 1
1 1 1 1
0.99979 1 1 0.99979
0.99978 1 1 0.99978
0.999787 1 1 0.999787
0.999783 1 1 0.999783
0.999753 1 1 0.999753
0.999725 1 1 0.999725
0.999876 1 1 0.999876
0.999815 1 1 0.999815
0.999779 1 1 0.999779
0.999992 1 1 0.999992
0.999905 1 1 0.999905
0.999835 1 1 0.999835
1 1 1 1
0.999998 1 1 0.999998
0.999933 1 1 0.999933
1 1 1 1
1 1 1 1
1 1 1 1
0.999795 1 1 0.999795
0.999794 1 1 0.999794
0.999787 1 1 0.999787
0.999821 1 1 0.999821
0.999813 1 1 0.999813
0.999843 1 1 0.999843
0.999823 1 1 0.999823
0.999828 1 1 0.999828
0.999845 1 1 0.999845
0.999816 1 1 0.999816
0.999828 1 1 0.999828
0.999872 1 1 0.999872
0.999817 1 1 0.999817
0.999876 1 1 0.999876
0.999987 1 1 0.999987
0.999884 1 1 0.999884
0.999989 1 1 0.999989
1 1 1 1
0.999991 1 1 0.999991
1 1 1 1
1 1 1 1
0.999791 1 1 0.999791
0.999798 1 1 0.999798
0.999789 1 1 0.999789
0.999798 1 1 0.999798
0.999782 1 1 0.999782
0.999786 1 1 0.999786
0.999854 1 1 0.999854
0.99979 1 1 0.99979
0.999759 1 1 0.999759
0.999986 1 1 0.999986
0.999873 1 1 0.999873
0.999815 1 1 0.999815
1 1 1 1
0.999994 1 1 0.999994
0.999898 1 1 0.999898
1 1 1 1
0.999999 1 1 0.999999
1 1 1 1
0.999808 1 1 0.999808
0.999796 1 1 0.999796
0.999802 1 1 0.999802
0.999839 1 1 0.999839
0.99982 1 1 0.99982
0.999813 1 1 0.999813
0.999828 1 1 0.999828
0.999846 1 1 0.999846
0.99988 1 1 0.99988
0.999832 1 1 0.999832
0.999875 1 1 0.999875
0.999984 1 1 0.999984
0.999877 1 1 0.999877
0.999986 1 1 0.999986
1 1 1 1
0.999988 1 1 0.999988
1 1 1 1
1 1 1 1
0.999805 1 1 0.999805
0.999786 1 1 0.999786
0.999814 1 1 0.999814
0.999799 1 1 0.999799
0.999788 1 1 0.999788
0.99986 1 1 0.99986
0.999797 1 1 0.999797
0.999785 1 1 0.999785
0.999982 1 1 0.999982
0.999857 1 1 0.999857
0.999797 1 1 0.999797
1 1 1 1
0.999988 1 1 0.999988
0.99987 1 1 0.99987
1 1 1 1
0.999996 1 1 0.999996
1 1 1 1
0.999831 1 1 0.999831
0.999808 1 1 0.999808
0.999796 1 1 0.999796
0.999876 1 1 0.999876
0.999839 1 1 0.999839
0.999819 1 1 0.999819
0.999846 1 1 0.999846
0.99988 1 1 0.99988
0.999983 1 1 0.999983
0.999877 1 1 0.999877
0.999984 1 1 0.999984
1 1 1 1
0.999985 1 1 0.999985
1 1 1 1
1 1 1 1
0.999822 1 1 0.999822
0.999802 1 1 0.999802
0.999782 1 1 0.999782
0.999869 1 1 0.999869
0.999814 1 1 0.999814
0.9998 1 1 0.9998
0.999981 1 1 0.999981
0.99986 1 1 0.99986
0.999796 1 1 0.999796
1 1 1 1
0.999983 1 1 0.999983
0.99986 1 1 0.99986
1 1 1 1
0.99999 1 1 0.99999
1 1 1 1
0.999878 1 1 0.999878
0.999828 1 1 0.999828
0.999809 1 1 0.999809
0.999982 1 1 0.999982
0.999877 1 1 0.999877
0.999839 1 1 0.999839
0.999879 1 1 0.999879
0.999983 1 1 0.999983
1 1 1 1
0.999983 1 1 0.999983
1 1 1 1
1 1 1 1
0.999875 1 1 0.999875
0.999822 1 1 0.999822
0.999799 1 1 0.999799
0.999982 1 1 0.999982
0.999868 1 1 0.999868
0.999814 1 1 0.999814
1 1 1 1
0.999981 1 1 0.999981
0.999859 1 1 0.999859
1 1 1 1
0.999984 1 1 0.999984
1 1 1 1
0.999981 1 1 0.999981
0.999875 1 1 0.999875
0.999825 1 1 0.999825
1 1 1 1
0.999981 1 1 0.999981
0.999877 1 1 0.999877
0.999982 1 1 0.999982
1 1 1 1
1 1 1 1
0.999982 1 1 0.999982
0.999875 1 1 0.999875
0.999821 1 1 0.999821
1 1 1 1
0.999982 1 1 0.999982
0.999868 1 1 0.999868
1 1 1 1
0.999981 1 1 0.999981
1 1 1 1
1 1 1 1
0.999981 1 1 0.999981
0.999872 1 1 0.999872
1 1 1 1
0.999981 1 1 0.999981
1 1 1 1
1 1 1 1
0.999982 1 1 0.999982
0.999875 1 1 0.999875
1 1 1 1
0.999981 1 1 0.999981
1 1 1 1
1 1 1 1
0.999981 1 1 0.999981
1 1 1 1
1 1 1 1
0.999982 1 1 0.999982
1 1 1 1
1 1 1 1
1 1 1 1

VECTORS lamdaE float
0.999151 0.998902 0.997539
0.999319 0.998028 0.999101
0.999138 0.998894 0.997571
0.998899 0.999852 0.997176
0.999039 0.999301 0.997394
0.999253 0.998475 0.99773
0.99948 0.999839 0.995874
0.999339 0.997989 0.999119
0.99897 0.999163 0.998923
0.999219 0.998313 0.999074
0.999426 0.997748 0.998065
0.999509 0.99934 0.996089
0.998871 1.00009 0.99715
0.998775 1.00004 0.997281
0.999123 0.998884 0.997604
0.998881 0.999888 0.997201
0.999242 0.998455 0.997764
0.999025 0.999305 0.997424
0.999486 0.999847 0.995875
0.998853 0.999999 0.998779
0.998876 0.999951 0.997155
0.998945 0.999635 0.997273
0.999636 1.00017 0.995296
0.999512 0.999994 0.995677
0.999352 0.998067 0.997921
0.999444 0.999638 0.99612
1.00015 1.00082 0.993635
0.999359 0.997952 0.999137
0.998989 0.999249 0.998175
0.999233 0.998387 0.998424
0.999419 0.997707 0.999168
0.999495 0.999329 0.996092
0.998904 0.99975 0.997314
0.999103 0.998924 0.997622
0.999547 0.999987 0.995998
0.9995 0.997423 0.999219
0.99949 0.999542 0.996489
0.999548 0.999078 0.996273
0.999907 1.00086 0.993795
0.999669 0.997058 0.999226
0.998866 1.00002 0.998771
0.998792 0.999968 0.998047
0.998927 1.00001 0.998746
0.998775 1.00008 0.997257
0.999765 1.00014 0.994705
0.998811 0.999776 0.998851
0.999655 1.00017 0.995655
0.998861 0.999926 0.997226
0.999011 0.999306 0.997453
0.999229 0.998432 0.997798
0.999494 0.999859 0.995875
0.99885 1.00003 0.997985
0.998856 0.999989 0.997173
0.999342 0.998044 0.997948
0.99893 0.999653 0.997301
0.99965 1.00016 0.995299
0.999452 0.999647 0.996122
0.999524 0.99999 0.995678
1.00018 1.00083 0.993602
0.998888 0.999998 0.998762
0.998844 1 0.997183
0.99976 1.00009 0.995536
0.999701 1.00014 0.995211
0.999557 1.00012 0.995484
1.0008 1.00044 0.992779
1.00033 1.00065 0.993283
0.999478 0.997714 0.99805
0.99945 0.999329 0.996392
0.999947 1.00095 0.993898
1.00067 1.0008 0.99236
0.999014 0.999088 0.998929
0.999442 0.997669 0.999186
0.999258 0.998286 0.999076
0.999481 0.999318 0.996094
0.998899 0.999549 0.998846
0.999093 0.99878 0.998973
0.999506 1.0001 0.995287
0.999516 0.997448 0.998676
0.999477 0.999597 0.995876
0.999544 0.99903 0.996568
0.999894 1.00089 0.993784
0.999588 0.997243 0.999215
0.999808 0.998284 0.996538
0.999588 1.00021 0.995008
0.999498 0.999891 0.995525
1.0003 1.00064 0.993216
0.999628 0.998743 0.99696
0.999979 1.00079 0.993715
0.999873 1.00081 0.99392
1.00022 1.00116 0.992867
0.999735 0.996893 0.999242
0.999683 0.997049 0.999231
0.998808 0.999874 0.998821
0.998835 1 0.998786
0.998912 1 0.99875
0.998798 1.00003 0.998021
0.999756 1.00011 0.995123
0.99883 0.999818 0.998058
0.999635 1.00018 0.995276
0.998932 0.999992 0.998746
0.999834 1.00004 0.994633
0.9997 1.00015 0.995597
1.00108 1.00017 0.99212
0.999624 1.00016 0.995704
1.00085 1.00031 0.992461
0.99887 1.00006 0.997158
0.998835 1.00003 0.997191
0.999331 0.998021 0.997976
0.998914 0.99967 0.99733
0.999664 1.00015 0.995301
0.999536 0.999988 0.995678
0.99946 0.999663 0.996124
1.00021 1.00083 0.993569
0.998904 1 0.998754
0.998829 1.00002 0.997201
0.999768 1.0001 0.994948
0.999715 1.00014 0.995206
0.999448 0.997699 0.998613
0.999464 0.999327 0.996544
0.999572 1.00011 0.995487
1.0008 1.00042 0.992701
0.999982 1.00096 0.99386
1.00036 1.00066 0.99333
1.00067 1.0008 0.992366
0.999818 1.00004 0.99466
0.999709 1.00011 0.995233
1.00111 1.00011 0.992333
1.00095 1.00026 0.992475
1.00056 1.00053 0.992978
1.00139 1.00029 0.991624
0.999547 0.997447 0.999195
1.00086 1.00055 0.992225
0.999555 0.998993 0.99631
0.999818 1.00097 0.99382
1.00046 1.00114 0.992502
1.00094 1.00073 0.9919
0.999746 0.998492 0.996422
1.00005 1.00029 0.994086
0.99892 0.999448 0.998866
0.999132 0.998677 0.999007
0.999456 1.00018 0.995283
0.999533 0.997427 0.99921
0.999537 0.999001 0.996305
0.999439 0.999638 0.995858
0.999882 1.00093 0.993774
0.999605 0.997232 0.999218
0.999812 0.998262 0.99654
0.999559 1.00018 0.995425
0.999464 0.999878 0.995905
1.00031 1.00063 0.993219
0.999637 0.998719 0.996442
0.99997 1.00081 0.993709
0.999853 1.00085 0.993915
1.00023 1.00115 0.992842
0.999729 0.998491 0.996491
0.999867 0.998094 0.996607
1.00004 1.00017 0.994215
1.00053 1.0005 0.992907
1.0001 1.00075 0.993527
1.00082 1.00065 0.992221
0.999919 1.00056 0.994077
1.00037 1.00089 0.992806
1.00011 1.00142 0.992892
1.00033 1.0014 0.992496
0.999786 0.99675 0.999262
0.999745 0.996888 0.999248
0.999697 0.997042 0.999235
0.999809 0.998299 0.996495
0.999626 0.997267 0.999207
0.99885 0.99971 0.998833
0.9988 0.999967 0.99881
0.999619 1.00023 0.994893
0.999743 1.00012 0.994736
0.998898 0.999999 0.998759
0.998933 0.999996 0.998743
0.999834 1.00003 0.994638
0.999677 1.00016 0.995223
1.00108 1.00017 0.992125
0.999598 1.00023 0.994938
1.00084 1.00031 0.992467
0.99986 0.999986 0.994613
1.0012 1.00012 0.991915
1.00096 1.00023 0.992314
1.00165 1.00015 0.991047
1.00071 1.00039 0.992651
1.0014 1.00019 0.991502
0.998919 1.00001 0.998747
0.998811 1.00005 0.997221
0.999765 1.0001 0.994374
0.999729 1.00013 0.995202
0.999416 0.99768 0.999183
0.999479 0.999325 0.996695
0.999587 1.0001 0.99549
1.0008 1.00039 0.992623
1.00038 1.00067 0.993378
1.00002 1.00097 0.993821
1.00066 1.0008 0.992372
0.999818 1.00005 0.994655
0.999727 1.0001 0.995225
1.0011 1.00011 0.992169
1.00097 1.00027 0.992525
0.999527 0.99746 0.99919
0.999553 0.999014 0.996574
0.999855 1.00094 0.993965
1.00056 1.00052 0.992981
1.00137 1.00026 0.991536
1.00042 1.00114 0.992483
1.00088 1.00056 0.992267
1.00094 1.00073 0.991909
0.999739 0.99852 0.996421
1.00005 1.00028 0.994092
1.00118 1.00008 0.992
1.00104 1.00015 0.992405
1.00171 1.00007 0.991197
1.00155 1.00008 0.991212
1.00106 1.00041 0.992039
1.00168 1.00007 0.991188
0.999649 0.998723 0.996375
1.00116 1.00038 0.991811
0.999832 1.00085 0.993942
1.00016 1.00133 0.992699
1.00072 1.00127 0.992017
1.0011 1.00057 0.991802
0.999995 1.00045 0.994027
1.00006 1.0001 0.994259
1.00018 1.00139 0.992757
0.999521 1.00028 0.995057
0.999622 0.997221 0.999221
0.999816 0.99824 0.996543
0.999419 0.999951 0.995583
1.00031 1.00061 0.993222
0.999632 0.998696 0.996438
0.999833 1.00089 0.993911
0.999961 1.00083 0.993703
1.00023 1.00114 0.992817
0.999732 0.998469 0.996492
0.99987 0.998075 0.996611
1.00004 1.00019 0.994213
1.00053 1.00049 0.992909
1.00009 1.00075 0.993528
1.00081 1.00065 0.992222
0.999901 1.00059 0.994076
1.00038 1.00089 0.992842
1.0001 1.00142 0.992885
1.00032 1.00139 0.992456
0.999909 0.997926 0.996692
0.999992 1.00033 0.994162
1.00008 1.00002 0.994305
1.00016 1.00121 0.992974
1.00106 1.00044 0.99192
1.00055 1.00081 0.992604
1.00106 1.00068 0.991711
1.00011 1.00134 0.992968
1.00053 1.00102 0.992437
1.00017 1.00185 0.992335
1.00041 1.00145 0.992169
1.00009 0.999393 0.99489
0.999963 0.997643 0.996865
0.999827 0.996622 0.999283
0.999792 0.996747 0.999268
0.999754 0.996884 0.999254
0.999845 0.99811 0.996616
0.999682 0.997105 0.999228
0.999802 0.998326 0.996491
0.999611 0.997272 0.999203
0.999575 1.00027 0.994945
0.999666 1.00019 0.994832
1.00084 1.00031 0.992472
1.00108 1.00017 0.99213
0.999832 1.00002 0.994643
0.998937 0.999998 0.998743
0.999863 0.999993 0.994609
1.00121 1.00012 0.991919
1.00095 1.00023 0.992318
1.00165 1.00015 0.991045
1.00071 1.00039 0.992656
1.00141 1.00019 0.991504
1.00124 1.00009 0.991883
1.00177 1.00014 0.990813
1.00154 1.00014 0.991288
1.0019 0.999998 0.990725
1.00125 1.00029 0.991705
1.00169 0.999992 0.991145
0.99982 1.00006 0.99465
0.999745 1.0001 0.995216
1.00109 1.0001 0.992004
1.00098 1.00028 0.992575
0.999508 0.997471 0.999186
0.999552 0.999036 0.996835
0.99989 1.00092 0.994109
1.00056 1.00052 0.992985
1.00135 1.00023 0.991448
1.0009 1.00057 0.992309
1.00038 1.00115 0.992465
1.00093 1.00073 0.991919
0.999732 0.998548 0.99642
1.00005 1.00027 0.994097
1.00118 1.00008 0.991933
1.00104 1.00014 0.992408
1.0017 1.00005 0.991164
1.00156 1.00011 0.99131
0.999648 0.99875 0.996373
0.999854 1.00082 0.993945
1.00016 1.00133 0.992758
1.00108 1.00042 0.99204
1.00166 1.00003 0.99117
1.00068 1.00126 0.991951
1.00116 1.00037 0.991813
1.00108 1.00056 0.99179
1 1.00043 0.994033
1.00019 1.00136 0.992723
1.00006 1.0001 0.994259
1.00175 1.00011 0.991056
1.00167 1.00003 0.991203
1.00198 0.99998 0.990655
1.00188 0.999907 0.990844
1.00132 1.00016 0.991614
1.00183 0.99969 0.991235
0.999907 1.00064 0.994008
1.00129 1.00014 0.991766
1.00011 1.00133 0.992953
1.00032 1.00162 0.992114
1.00083 1.00134 0.99161
1.00118 1.00039 0.99195
1.00006 0.999847 0.994517
1.00017 1.0013 0.992859
1.00016 1.00144 0.992633
1.00023 1.00188 0.992296
1.00054 1.00048 0.992912
0.999874 0.998054 0.996615
0.999735 0.998446 0.996494
1.00003 1.0002 0.994211
1.00009 1.00074 0.99353
1.00081 1.00065 0.992223
0.999883 1.00062 0.994075
1.0001 1.00143 0.992878
1.00038 1.00089 0.992879
1.00032 1.00138 0.992415
0.999911 0.997909 0.996697
0.999981 1.00035 0.994159
1.00007 1.00002 0.994304
1.00016 1.00123 0.992969
1.00107 1.00044 0.991915
1.00054 1.00081 0.992612
1.00106 1.00068 0.991712
1.0001 1.00135 0.992969
1.00053 1.00103 0.99248
1.00018 1.00186 0.99232
1.00039 1.0014 0.992269
0.999939 0.997777 0.996783
1.00009 0.999854 0.99443
1.00016 1.00121 0.992994
1.00016 1.00119 0.992997
1.00018 1.00177 0.992363
1.00133 1.00037 0.991457
1.00073 1.00092 0.992141
1.00114 1.00074 0.991491
1.00015 1.00187 0.992368
1.0006 1.00118 0.992153
1.00026 1.0021 0.991732
1.0001 0.999543 0.994736
1.00013 1.00071 0.993546
1.00009 0.999271 0.995011
1.00009 0.999389 0.994893
0.999981 0.997496 0.997409
0.99996 0.997629 0.997108
0.999877 0.996527 0.998375
0.99983 0.996615 0.99929
0.999797 0.996743 0.999275
0.99987 0.997921 0.996762
0.999722 0.996939 0.999258
0.999842 0.998134 0.996608
0.999674 0.99711 0.999221
0.999796 0.998353 0.996487
0.999596 0.997278 0.9992
1.00071 1.00039 0.992661
1.00095 1.00023 0.992323
1.00141 1.00019 0.991505
1.00166 1.00016 0.991044
1.00121 1.00012 0.991923
0.999863 1 0.994607
1.00124 1.00008 0.99188
1.00177 1.00014 0.990813
1.00153 1.00014 0.991291
1.00191 0.999989 0.990709
1.00125 1.00029 0.991701
1.00169 0.999999 0.991146
1.0018 1.00013 0.990763
1.00196 1.00004 0.990523
1.00182 0.999942 0.990913
1.00207 0.999753 0.990684
1.00152 1.00014 0.991325
1.00184 0.999552 0.991309
1.00117 1.00009 0.991866
1.00105 1.00013 0.992411
1.00169 1.00003 0.991132
1.00158 1.00014 0.991408
0.999646 0.998776 0.996372
0.999876 1.00078 0.993947
1.00017 1.00134 0.992818
1.00111 1.00043 0.992041
1.00165 0.999983 0.991151
1.00116 1.00037 0.991815
1.00065 1.00126 0.991884
1.00106 1.00055 0.991779
1.00001 1.00041 0.994039
1.0002 1.00133 0.99269
1.00006 1.0001 0.994259
1.00175 1.00011 0.990979
1.00168 1.00002 0.991203
1.00198 0.999965 0.990602
1.0019 0.999909 0.99086
0.999924 1.00061 0.994013
1.00012 1.00132 0.99295
1.00031 1.00164 0.992179
1.00134 1.0002 0.991637
1.00181 0.999612 0.99128
1.0008 1.00138 0.991546
1.0013 1.00014 0.99177
1.00115 1.00032 0.991981
1.00018 1.00128 0.992867
1.00023 1.00186 0.992244
1.00005 0.999855 0.994513
1.00017 1.00142 0.99265
1.00198 1.00008 0.990497
1.00205 0.999862 0.99065
1.00212 0.999927 0.990346
1.00204 0.999559 0.990823
1.00147 0.999834 0.991668
1.00199 0.999155 0.991489
1.00013 1.00129 0.992964
1.00134 0.999723 0.992078
1.00018 1.00163 0.992408
1.00044 1.00201 0.991626
1.0009 1.00142 0.991318
1.00127 1.00022 0.991975
1.00005 0.999625 0.994742
1.00013 1.00129 0.992808
1.00024 1.00161 0.992426
1.00016 1.00222 0.991994
1.00028 1.00197 0.992077
0.999914 0.997892 0.996702
1.00108 1.00045 0.99191
1.00007 1.00003 0.994303
0.99997 1.00037 0.994157
1.00015 1.00124 0.992964
1.00053 1.00081 0.992619
1.00105 1.00068 0.991712
1.00008 1.00137 0.992969
1.00019 1.00187 0.992305
1.00054 1.00103 0.992523
1.00037 1.00136 0.992368
0.99994 0.997763 0.996788
1.00009 0.999852 0.994429
1.00015 1.00122 0.992991
1.00016 1.0012 0.992991
1.00018 1.00176 0.992353
1.00134 1.00037 0.99145
1.00072 1.00092 0.992143
1.00114 1.00075 0.991471
1.00015 1.00187 0.992375
1.0006 1.00117 0.992186
1.0003 1.00207 0.991785
1.0001 0.999697 0.994576
1.00017 1.00111 0.993057
1.0002 1.00169 0.992393
1.00017 1.00184 0.992329
1.00021 1.00202 0.992113
1.00144 1.00025 0.991327
1.0008 1.00104 0.991866
1.00106 1.00073 0.991539
1.00018 1.00234 0.991818
1.00055 1.00201 0.991416
1.0001 0.999536 0.994739
1.00016 1.00089 0.993191
1.00013 1.00073 0.993465
1.00011 1.00168 0.992742
1.0001 1.00062 0.993688
1.0001 0.999188 0.995093
1.00009 0.999275 0.995013
1.00001 0.997376 0.99747
1.0001 0.999386 0.994897
0.999982 0.997497 0.997419
0.999915 0.996397 0.998424
0.999958 0.997617 0.997349
0.999869 0.996497 0.998844
0.999833 0.996609 0.999296
0.999899 0.997734 0.996897
0.999871 0.997937 0.996753
0.99976 0.996759 0.999291
0.999719 0.996949 0.999248
0.999839 0.998157 0.9966
0.999665 0.997117 0.999214
1.00126 1.0003 0.991698
1.00154 1.00015 0.991294
1.00169 1.00001 0.991147
1.00192 0.999979 0.990693
1.00178 1.00015 0.990814
1.00124 1.00008 0.991876
1.00181 1.00013 0.990765
1.00198 1.00005 0.990497
1.00183 0.999951 0.990915
1.00207 0.999742 0.99068
1.00152 1.00015 0.991316
1.00184 0.999516 0.991323
1.002 1.0001 0.990424
1.00202 0.999988 0.990474
1.00199 0.999483 0.990954
1.00218 0.999681 0.990657
1.00167 0.999778 0.991351
1.00202 0.999047 0.991561
1.00174 1.00011 0.990901
1.00168 1.00001 0.991203
1.00198 0.99995 0.990549
1.00192 0.999909 0.990877
0.999941 1.00058 0.994017
1.00013 1.00132 0.992947
1.0003 1.00166 0.992245
1.00137 1.00024 0.99166
1.00179 0.999533 0.991325
1.0013 1.00014 0.991774
1.00077 1.00142 0.991482
1.00113 1.00025 0.992012
1.00019 1.00125 0.992875
1.00023 1.00183 0.992192
1.00005 0.999862 0.994509
1.00017 1.00141 0.992667
1.00197 1.00008 0.990505
1.00204 0.999866 0.990662
1.00211 0.999946 0.990329
1.00205 0.999567 0.990835
1.00014 1.00127 0.992966
1.00018 1.00162 0.99246
1.00043 1.00205 0.991619
1.0015 0.999891 0.991636
1.00189 0.999106 0.991631
1.00089 1.00147 0.991288
1.00134 0.999738 0.992085
1.00122 1.00005 0.992079
1.00024 1.00161 0.992427
1.00029 1.00193 0.992063
1.00016 1.00225 0.991977
1.00005 0.999627 0.994645
1.00015 1.00125 0.992845
1.0021 1.00007 0.990292
1.00227 0.999742 0.990238
1.00218 0.999047 0.991111
1.00168 0.999148 0.991932
1.00021 1.00154 0.992558
1.00153 0.999208 0.992375
1.00016 1.002 0.992
1.00055 1.00244 0.99101
1.00105 1.00138 0.991095
1.00007 0.999402 0.994758
1.00012 1.001 0.9933
1.0001 1.00221 0.992083
1.00029 1.00169 0.992257
1.00021 1.00263 0.991512
1.00033 1.00198 0.991865
0.999941 0.99775 0.996794
1.00009 0.999852 0.994428
1.00136 1.00037 0.991443
1.00015 1.00121 0.992986
1.00014 1.00124 0.992988
1.00018 1.00175 0.992343
1.00072 1.00092 0.992145
1.00114 1.00075 0.99145
1.00014 1.00186 0.992382
1.00034 1.00203 0.991837
1.0006 1.00117 0.99222
1.0001 0.999692 0.994577
1.00017 1.00112 0.993051
1.0002 1.00168 0.992433
1.00017 1.00186 0.992322
1.0002 1.00203 0.992079
1.00144 1.00029 0.991312
1.00081 1.00103 0.99185
1.0011 1.00071 0.991553
1.00017 1.00233 0.991781
1.00056 1.0021 0.991331
1.00017 1.00101 0.993154
1.00017 1.00188 0.992208
1.00024 1.00207 0.991994
1.0002 1.00213 0.991908
1.00028 1.00212 0.991846
1.00164 0.999284 0.99187
1.00085 1.00161 0.991262
1.00114 1.0005 0.991295
1.00034 1.00267 0.991356
1.00054 1.00256 0.990517
1.0001 0.99953 0.994743
1.00015 1.0009 0.993238
1.00013 1.00183 0.992349
1.00013 1.00074 0.993385
1.0001 1.00062 0.993689
1.00011 1.00169 0.99263
1.00011 1.00234 0.992048
1.0001 1.0016 0.992631
1.00007 1.00055 0.993811
1.0001 0.99914 0.995141
1.0001 0.999193 0.995095
1.00003 0.997267 0.997518
1.00009 0.999278 0.995016
1.00001 0.997379 0.997477
0.999951 0.99628 0.998459
0.999983 0.997497 0.997429
0.999911 0.996367 0.998422
0.999858 0.996462 0.999315
0.999935 0.997565 0.996996
0.999903 0.997743 0.996889
0.999805 0.99658 0.999319
0.999873 0.997953 0.996743
0.999758 0.996778 0.999281
0.999715 0.99696 0.999239
1.00153 1.00015 0.991308
1.00183 0.999961 0.990917
1.00185 0.999477 0.991337
1.00207 0.999729 0.990676
1.00199 1.00007 0.99047
1.00181 1.00013 0.990767
1.002 1.0001 0.990411
1.00202 0.999988 0.99048
1.00203 0.999503 0.990905
1.00213 0.999682 0.990618
1.00166 0.999823 0.991346
1.00197 0.998908 0.991698
1.00201 1.00007 0.990415
1.002 0.999971 0.990545
1.00214 0.999189 0.991048
1.00188 0.998767 0.992004
1.00197 1.00008 0.990513
1.00203 0.99987 0.990673
1.0021 0.999963 0.990313
1.00206 0.999575 0.990846
1.00015 1.00125 0.992969
1.00018 1.00162 0.992512
1.00042 1.00208 0.991613
1.00152 0.999948 0.991604
1.0018 0.999059 0.991773
1.00133 0.999753 0.992091
1.00088 1.00152 0.991259
1.00118 0.999889 0.992182
1.00025 1.00161 0.992428
1.00029 1.00189 0.992049
1.00016 1.00227 0.99196
1.00005 0.99963 0.994547
1.00016 1.00122 0.992883
1.00209 1.00005 0.990284
1.00225 0.999752 0.99029
1.00214 0.999104 0.99115
1.00022 1.00154 0.992553
1.0002 1.00199 0.992077
1.00052 1.00249 0.990991
1.00171 0.999191 0.991886
1.00103 1.00125 0.991242
1.00146 0.999231 0.992346
1.00006 0.999383 0.994783
1.00029 1.00171 0.992247
1.00032 1.00192 0.99193
1.00021 1.00261 0.991528
1.00011 1.00224 0.992111
1.00013 1.001 0.993208
1.00218 0.999999 0.990223
1.0024 0.99949 0.990231
1.00216 0.998533 0.991551
1.00196 0.998275 0.992382
1.00025 1.00175 0.992279
1.00139 1.00015 0.991613
1.00025 1.0026 0.991268
1.00068 1.00283 0.990495
1.00007 0.999224 0.994931
1.00012 1.0007 0.993627
1.0001 1.00201 0.992413
1.00013 1.00299 0.991268
1.0003 1.00192 0.991971
1.0003 1.00252 0.991402
1.0001 0.999685 0.994578
1.00016 1.00113 0.993045
1.00145 1.00034 0.991297
1.00017 1.00187 0.992315
1.0002 1.00166 0.992473
1.00019 1.00204 0.992046
1.00083 1.00102 0.991834
1.00113 1.00069 0.991566
1.00016 1.00233 0.991744
1.00056 1.0022 0.991247
1.00017 1.00102 0.993152
1.00018 1.0019 0.992238
1.00023 1.00205 0.992051
1.0002 1.00214 0.991953
1.00025 1.00212 0.991895
1.00167 0.999328 0.991923
1.00088 1.00155 0.9913
1.00113 1.00055 0.991485
1.00031 1.00268 0.991301
1.00059 1.00271 0.99047
1.00015 1.00189 0.99224
1.00019 1.00241 0.991653
1.00029 1.00242 0.991567
1.00025 1.00232 0.991575
1.00247 0.997709 0.992033
1.00174 0.999067 0.991776
1.00096 1.0022 0.990383
1.00031 1.00358 0.990177
1.00014 1.00092 0.993285
1.00012 1.00185 0.992403
1.00011 1.00242 0.991895
1.0001 1.00061 0.993691
1.00011 1.0017 0.992519
1.00007 1.00055 0.993811
1.00011 1.00234 0.991971
1.0001 1.00161 0.992672
1.00015 1.00272 0.991554
1.00011 1.00229 0.991936
1.00008 1.00151 0.992752
1.00005 1.00051 0.993891
1.0001 0.999126 0.995156
1.0001 0.999138 0.995143
1.00005 0.997191 0.997541
1.0001 0.999198 0.995096
1.00003 0.997274 0.997523
0.999987 0.99617 0.998489
1.00001 0.997381 0.997486
0.999948 0.996249 0.998457
0.999906 0.996339 0.998418
0.99997 0.997417 0.997073
0.99994 0.997571 0.996991
0.999854 0.996419 0.999339
0.999908 0.997753 0.996881
0.999801 0.996601 0.999311
0.999756 0.996796 0.999271
1.00165 0.999866 0.99134
1.00206 0.999526 0.990855
1.00192 0.998776 0.991835
1.00209 0.999689 0.990579
1.00202 0.99999 0.990485
1.002 1.00011 0.990398
1.00201 1.00008 0.990415
1.002 0.999959 0.990548
1.00212 0.999181 0.991078
1.00189 0.998729 0.991982
1.00197 1.00008 0.99048
1.00204 0.999696 0.99082
1.00221 0.99847 0.991567
1.00208 1.00003 0.990276
1.00223 0.999763 0.990342
1.00211 0.999157 0.991189
1.00023 1.00154 0.992547
1.00024 1.00199 0.992154
1.0005 1.00254 0.990972
1.00173 0.999233 0.99184
1.0014 0.999254 0.992317
1.00101 1.00111 0.991388
1.00029 1.00172 0.992238
1.00031 1.00186 0.991995
1.00022 1.0026 0.991543
1.00006 0.999362 0.994809
1.00012 1.00226 0.992138
1.00014 1.00099 0.993116
1.00214 0.999994 0.990265
1.00243 0.999458 0.990215
1.00218 0.998622 0.991469
1.00026 1.00176 0.992268
1.00024 1.00258 0.99136
1.00066 1.00276 0.990558
1.00191 0.998334 0.992435
1.00139 1.00009 0.991603
1.00007 0.999211 0.995027
1.00012 1.00069 0.993632
1.00028 1.00192 0.99197
1.0003 1.00252 0.991414
1.00011 1.00296 0.99134
1.00011 1.00203 0.992341
1.00217 0.999809 0.990405
1.00251 0.999022 0.990507
1.00231 0.997416 0.992427
1.00197 0.998391 0.992421
1.00023 1.00223 0.991756
1.00093 1.00245 0.990308
1.00042 1.00322 0.990659
1.00009 0.999074 0.995217
1.0001 1.00018 0.99413
1.0001 1.00046 0.993711
1.0001 1.0018 0.992562
1.00007 1.00277 0.991572
1.00014 1.0034 0.990862
1.00026 1.00219 0.991669
1.00026 1.0033 0.991012
1.00016 1.00103 0.993149
1.00018 1.00191 0.992268
1.00171 0.999371 0.991976
1.0002 1.00215 0.991998
1.00023 1.00204 0.992107
1.00021 1.00212 0.991944
1.00091 1.00147 0.991338
1.00112 1.0006 0.991674
1.00028 1.00269 0.991246
1.00062 1.00283 0.990423
1.00015 1.00191 0.992225
1.0002 1.00238 0.991714
1.00027 1.00239 0.991628
1.00027 1.00233 0.991618
1.00244 0.997646 0.99209
1.00167 0.999337 0.991741
1.00098 1.00218 0.990482
1.00037 1.00348 0.99015
1.00013 1.0025 0.991783
1.00246 0.998063 0.991482
1.00024 1.00278 0.991341
1.00026 1.00298 0.991044
1.0027 0.997115 0.991979
1.00146 1.00144 0.990102
1.00057 1.00406 0.989628
1.00012 1.00186 0.992456
1.0001 1.00243 0.991898
1.00013 1.0028 0.991482
1.00007 1.00055 0.993812
1.00009 1.00162 0.992714
1.00011 1.00235 0.991894
1.00005 1.00051 0.993892
1.00008 1.00152 0.992741
1.00015 1.00273 0.991493
1.0001 1.00229 0.992026
1.00025 1.00292 0.991172
1.00018 1.00271 0.991405
1.00011 1.00219 0.992119
1.00005 1.0015 0.992901
1.00005 1.0005 0.993917
1.00009 0.999148 0.99514
1.0001 0.999127 0.995156
1.00007 0.99716 0.997534
1.0001 0.999137 0.995145
1.00005 0.997205 0.997541
1.00002 0.996094 0.998498
1.00003 0.997281 0.997528
0.999985 0.996138 0.998488
0.999946 0.996219 0.998454
1.00011 0.99895 0.995312
1.00001 0.997271 0.997146
0.999974 0.997424 0.99707
0.9999 0.996272 0.999358
0.999944 0.997579 0.996986
0.999848 0.996437 0.999334
0.999797 0.99662 0.999303
1.0019 0.998686 0.99196
1.00211 0.999172 0.991108
1.002 0.999944 0.990551
1.00202 1.00008 0.990414
1.00196 1.00009 0.990527
1.00204 0.99974 0.990747
1.00217 0.998431 0.991698
1.00191 0.999985 0.990736
1.00218 0.999195 0.990984
1.00222 0.998371 0.991659
1.00211 0.999988 0.990308
1.00245 0.999429 0.990199
1.0022 0.998711 0.991386
1.00027 1.00176 0.992257
1.00023 1.00254 0.991451
1.00064 1.00268 0.990622
1.00184 0.998388 0.992487
1.0014 1.00003 0.991593
1.00027 1.00193 0.991968
1.0003 1.00252 0.991427
1.0001 1.00293 0.991412
1.00008 0.999197 0.995123
1.00011 1.00069 0.993636
1.00011 1.00205 0.99227
1.00216 0.999787 0.990415
1.00009 0.999072 0.995215
1.00009 1.00018 0.99407
1.00253 0.998987 0.990521
1.00227 0.997593 0.992272
1.00022 1.00217 0.991804
1.0004 1.00326 0.990564
1.00094 1.00226 0.990346
1.0019 0.99839 0.992385
1.0001 1.00046 0.993872
1.0001 1.0018 0.992557
1.00029 1.00221 0.991707
1.00025 1.00303 0.991112
1.00012 1.00348 0.990766
1.00009 1.00274 0.991591
1.00222 0.999503 0.990566
1.00259 0.997953 0.99145
1.00249 0.996505 0.99316
1.00145 1.00059 0.991089
1.00022 1.00271 0.99134
1.00054 1.00392 0.989822
1.00008 1.00009 0.994107
1.00009 1.0003 0.994008
1.00006 1.00119 0.993359
1.00008 1.00156 0.992703
1.00012 1.00251 0.991854
1.00007 1.00333 0.990954
1.00007 1.00408 0.990368
1.00014 1.00313 0.991063
1.00015 1.00193 0.992211
1.00021 1.00234 0.991776
1.0024 0.99758 0.992147
1.00161 0.999607 0.991706
1.0003 1.00235 0.99166
1.00026 1.00236 0.991688
1.00101 1.00219 0.99058
1.00043 1.00339 0.990122
1.00013 1.00249 0.99178
1.00246 0.99791 0.991588
1.00023 1.00274 0.991338
1.00027 1.00296 0.990932
1.00265 0.997189 0.991962
1.00154 1.00141 0.990099
1.00053 1.00408 0.989609
1.00013 1.00295 0.991356
1.00316 0.996404 0.991513
1.00032 1.003 0.991042
1.00036 1.00396 0.990093
1.00245 0.999379 0.989947
1.00073 1.00366 0.989289
1.00414 0.997641 0.98934
1.0001 1.00243 0.991902
1.00012 1.00281 0.991484
1.00022 1.00301 0.991159
1.00005 1.00051 0.993893
1.00008 1.00153 0.992731
1.0001 1.0023 0.992115
1.00015 1.00273 0.991432
1.00005 1.00049 0.993918
1.00006 1.00151 0.992838
1.00025 1.00289 0.991157
1.00011 1.00219 0.992121
1.00017 1.00272 0.991481
1.00033 1.00297 0.990899
1.00018 1.0027 0.991542
1.00011 1.0022 0.992176
1.00006 1.0015 0.992764
1.00005 1.00051 0.993752
1.00006 1.00156 0.992965
1.00006 1.00055 0.993698
1.00009 0.999181 0.995111
1.00009 0.999151 0.995139
1.00009 0.997179 0.997083
1.0001 0.999128 0.995156
1.00008 0.997179 0.997315
1.00001 0.996025 0.999361
1.00005 0.997218 0.997542
1.00002 0.996062 0.998499
0.999983 0.996107 0.998486
1.00012 0.998849 0.995387
1.00011 0.998944 0.995311
1.00004 0.997144 0.997215
1 0.997279 0.997356
0.999941 0.996143 0.999375
0.999978 0.99743 0.997067
0.999895 0.996291 0.999353
0.999843 0.996455 0.999328
1.00214 0.998391 0.99183
1.00204 0.999782 0.990675
1.00195 1.00009 0.990575
1.00191 0.999983 0.990736
1.00211 0.999198 0.991062
1.00215 0.998677 0.991546
1.002 0.999406 0.99117
1.00396 0.996047 0.992561
1.0023 0.997263 0.992384
1.00009 1.00003 0.994295
1.00215 0.999767 0.990425
1.00255 0.998949 0.990536
1.00224 0.997737 0.992117
1.00021 1.00213 0.991853
1.00038 1.00328 0.990469
1.00095 1.00207 0.990383
1.00185 0.99841 0.992348
1.00032 1.00222 0.991746
1.00023 1.00277 0.991211
1.00011 1.00356 0.990671
1.0001 0.999074 0.995213
1.00011 1.0027 0.991609
1.00009 1.00046 0.994033
1.00009 1.0018 0.992552
1.00008 1.00018 0.99401
1.00227 0.999454 0.990515
1.00009 1.00009 0.994171
1.00009 1.00031 0.994004
1.00006 1.00119 0.993235
1.00259 0.99794 0.991463
1.00246 0.996609 0.992952
1.00024 1.00264 0.991369
1.00046 1.00383 0.989781
1.00143 1.00049 0.991123
1.00008 1.00153 0.992791
1.00012 1.00252 0.991815
1.00015 1.00311 0.99105
1.00007 1.004 0.990441
1.00008 1.0033 0.991012
1.00247 0.99889 0.990568
1.00288 0.996177 0.992692
1.00229 0.998336 0.991762
1.00078 1.00331 0.989954
1.00001 1.00366 0.990718
1.00004 1.00106 0.993223
1.00007 1.00135 0.992943
1.00006 1.00192 0.992561
1.00009 1.00237 0.992002
1.00013 1.00296 0.991302
1.00002 1.00393 0.990591
0.999984 1.00439 0.990147
1.00013 1.00248 0.991778
1.00022 1.0027 0.991336
1.00245 0.997748 0.991695
1.00259 0.997273 0.991945
1.00161 1.00136 0.990096
1.00029 1.00293 0.99082
1.00049 1.0041 0.989589
1.00013 1.00292 0.991394
1.00316 0.99632 0.991584
1.00029 1.00295 0.991046
1.00025 1.00402 0.990086
1.00259 0.999123 0.990056
1.00074 1.00373 0.989283
1.00405 0.997728 0.989848
1.00019 1.00313 0.991067
1.00337 0.997591 0.989619
1.00024 1.00349 0.990655
1.00005 1.00475 0.989691
1.00115 1.00228 0.989317
0.996456 1.00257 0.972673
0.999502 0.999929 0.989011
1.00349 0.999071 0.989808
0.994276 0.99885 0.985202
0.99737 0.996606 0.987393
1.00011 1.00282 0.991485
1.00021 1.003 0.99116
1.00036 1.00307 0.990751
1.00005 1.00049 0.993918
1.00006 1.00153 0.992774
1.0001 1.00219 0.992123
1.00016 1.00272 0.991557
1.00025 1.00286 0.991141
1.00012 1.00221 0.992074
1.00005 1.00051 0.993822
1.00005 1.00151 0.992837
1.00031 1.00296 0.990953
1.00018 1.00269 0.991514
1.00018 1.00267 0.991613
1.00022 1.00322 0.990906
1.00013 1.00226 0.991907
1.00005 1.0015 0.992783
1.00005 1.00054 0.99371
1.00006 1.0015 0.992923
1.0001 1.00227 0.992162
1.00007 1.00169 0.99269
1.00006 1.00156 0.992841
1.00007 1.00057 0.993789
1.00006 1.00055 0.993701
1.0001 0.99921 0.995073
1.00009 0.999178 0.995111
1.00009 0.997216 0.997067
1.00009 0.999153 0.995139
1.00009 0.997183 0.997082
1.00002 0.996014 0.999359
1.00008 0.997198 0.997096
1.00002 0.996024 0.998926
1.00002 0.996031 0.998499
1.00013 0.998786 0.99543
1.00013 0.998843 0.995386
1.00006 0.997042 0.997273
1.00011 0.998938 0.995311
1.00003 0.997141 0.997424
0.999974 0.996032 0.999392
1.00001 0.997297 0.997132
0.999934 0.996179 0.999368
0.999889 0.996309 0.999347
1.00204 0.999203 0.991139
1.00191 0.999982 0.990736
1.00207 0.998987 0.991433
1.00385 0.995938 0.992587
1.00199 0.99942 0.991116
1.00223 0.997518 0.992092
1.00238 0.998692 0.990569
0.999589 0.999457 0.98631
1.00271 0.997537 0.993751
1.00009 1 0.994321
1.00009 1.00003 0.994294
1.00005 1.00097 0.993449
1.00007 1.00088 0.993501
1.00232 0.999416 0.990463
1.00259 0.997964 0.991477
1.00243 0.996686 0.992743
1.00027 1.0026 0.991399
1.00038 1.00376 0.989741
1.0014 1.00038 0.991157
1.00017 1.0031 0.991038
1.00007 1.0039 0.990515
1.00009 1.00327 0.991071
1.00009 1.00032 0.994001
1.00013 1.00253 0.991776
1.00007 1.00151 0.992878
1.00009 1.00009 0.994235
1.00006 1.00118 0.99311
1.00249 0.998846 0.990694
1.00004 1.00107 0.993347
1.00007 1.00132 0.99302
1.00006 1.00185 0.992549
1.00281 0.996192 0.992722
1.00225 0.998146 0.991784
1.00005 1.00371 0.990695
1.00072 1.00322 0.99
1.00008 1.00238 0.992036
1.00014 1.0029 0.991318
0.999984 1.0044 0.990157
1.00003 1.00401 0.990527
1.00309 0.996817 0.99104
1.00316 0.996372 0.992097
1.00147 1.00196 0.989752
1.00002 1.00445 0.990054
1.00004 1.00207 0.992317
1.00006 1.00215 0.9922
1.00009 1.00326 0.991067
0.999964 1.00475 0.989865
0.996242 1.00249 0.970073
1.00013 1.00289 0.991432
1.00026 1.00289 0.991051
1.00314 0.996178 0.991655
1.00273 0.998863 0.990167
1.00074 1.00382 0.989277
1.00013 1.00407 0.990079
1.00396 0.99772 0.990356
1.00018 1.00312 0.991092
1.00362 0.997432 0.989578
1.00019 1.00351 0.99066
1.00004 1.0047 0.989726
1.00117 1.00237 0.989348
0.996161 1.00198 0.973479
0.999496 1.00003 0.985249
1.00343 0.998891 0.989944
0.994456 0.999337 0.983767
0.996729 0.997314 0.987351
1.00014 1.00337 0.990882
0.995131 0.999094 0.981144
0.999656 0.995427 0.989456
1.00226 1.00019 0.989743
1.00011 1.00363 0.990514
0.999921 1.00486 0.990152
1.00325 0.99977 0.989211
0.996071 1.00205 0.973017
0.999418 1.00012 0.986029
0.994369 1.00177 0.983002
1.00462 0.99542 0.983387
1.00019 1.00299 0.991162
1.00035 1.00309 0.990762
1.00047 1.00333 0.990325
1.00005 1.00051 0.993892
1.00004 1.00152 0.99291
1.00013 1.00222 0.991973
1.00018 1.00267 0.991485
1.00028 1.00296 0.991007
1.00005 1.00054 0.993713
1.00018 1.00262 0.99158
1.00012 1.00228 0.992018
1.00006 1.0015 0.99285
1.00024 1.00321 0.990803
1.00017 1.00292 0.991273
1.00008 1.00416 0.990284
1.00011 1.00229 0.992013
1.00006 1.00152 0.992898
1.00006 1.0015 0.992922
1.00011 1.00227 0.992056
1.00011 1.00219 0.992114
1.00009 1.00242 0.991915
1.00017 1.0027 0.991542
1.00009 1.00274 0.991589
1.00008 1.00188 0.992481
1.00007 1.00169 0.992689
1.00009 1.00065 0.993679
1.00006 1.00157 0.992717
1.00007 1.00058 0.99372
1.0001 0.999248 0.995025
1.00006 1.00055 0.993703
1.0001 0.999204 0.995074
1.00006 0.997257 0.997493
1.00009 0.999177 0.995111
1.00008 0.997213 0.997286
1.00005 0.996026 0.998471
1.00009 0.997186 0.997081
1.00002 0.996014 0.999358
1.00004 0.996022 0.99849
1.00009 1.00004 0.994283
1.00014 0.998771 0.995435
1.00013 0.998783 0.995429
1.00008 0.996984 0.997307
1.00013 0.998838 0.995385
1.00006 0.997038 0.997276
0.999998 0.995951 0.999405
1.00003 0.997153 0.997621
0.999981 0.996069 0.998964
0.999956 0.996203 0.998513
1.00364 0.995905 0.992613
1.00198 0.999436 0.991063
1.00214 0.99776 0.991801
0.99949 0.99924 0.988859
1.00263 0.997491 0.993864
1.00244 0.998647 0.990484
1.00289 0.998996 0.991929
0.998925 1.0002 0.987918
0.995843 1.00287 0.968203
0.99509 0.998206 0.981081
0.996668 0.996708 0.988555
1.00005 1.00089 0.993384
1.00009 1.00001 0.99432
1.00009 1.00004 0.994293
1.00004 1.00097 0.993406
1.00004 1.00167 0.992843
1.00006 1.00146 0.992975
1.00007 1.00098 0.993419
1.00006 1.0009 0.993453
1.00252 0.998803 0.990821
1.00274 0.996241 0.992752
1.00221 0.997995 0.991805
1.0001 1.00377 0.990672
1.00066 1.00314 0.990047
0.999985 1.0044 0.990167
1.00003 1.00409 0.990463
1.00015 1.00285 0.991335
1.00006 1.0013 0.993098
1.00008 1.00239 0.992071
1.00004 1.00109 0.993472
1.00006 1.00179 0.992537
1.00317 0.997155 0.99091
1.00004 1.00205 0.992358
1.00006 1.00217 0.992213
1.00305 0.996258 0.992108
1.00133 1.00172 0.989852
1.00007 1.00448 0.989925
1.00011 1.00327 0.991051
0.999969 1.00472 0.989891
1.00406 0.995588 0.990256
1.00214 1.00084 0.989958
1.00033 1.00394 0.989428
1.00005 1.00503 0.989553
1.00003 1.00257 0.991842
1.00008 1.00293 0.991408
1.00005 1.0042 0.990312
0.99627 0.998332 0.981134
0.996635 1.00292 0.972346
1.00018 1.00312 0.991118
1.00014 1.00352 0.990666
1.00379 0.997405 0.989537
1.00121 1.00249 0.98938
1.00002 1.00466 0.98976
0.996493 1.0027 0.967222
0.999568 0.999739 0.99026
1.00343 0.99862 0.990066
0.994446 0.999442 0.981757
0.996044 0.998155 0.987312
1.00019 1.00329 0.99087
0.995736 0.997891 0.982962
0.999053 0.995805 0.989835
1.00225 1.00025 0.989718
1.00006 1.00392 0.990528
0.999832 1.00489 0.990193
1.00315 1.00035 0.988992
0.995417 1.00235 0.970756
0.999505 1.00076 0.989669
0.994152 1.00063 0.981374
1.0038 0.996617 0.984297
1.00046 1.00301 0.990499
1.00068 0.995223 0.991069
1.01295 0.996293 0.977885
1.00063 1.00286 0.990054
0.99984 1.00382 0.991492
1.00235 1.00028 0.994779
0.999608 0.9978 0.996342
0.995229 1.00233 0.971883
0.994646 0.999703 0.982365
1.01255 0.991527 0.979636
1.00034 1.00312 0.990773
1.00045 1.00334 0.990293
1.00018 1.00392 0.990099
1.00006 1.00054 0.993716
1.00006 1.00149 0.992917
1.00011 1.00229 0.992128
1.00018 1.00257 0.991548
1.00025 1.00319 0.990701
1.00006 1.00152 0.992896
1.00017 1.00285 0.991336
1.00011 1.00229 0.992013
1.00007 1.00418 0.990212
0.99999 1.00477 0.989838
1.0001 1.0034 0.990981
1.00011 1.00226 0.992066
1.00006 1.0015 0.992921
1.00012 1.00227 0.991951
1.00011 1.00219 0.992113
1.00009 1.00243 0.991913
1.00018 1.00266 0.991508
1.00007 1.00266 0.991703
1.00019 1.00271 0.991484
1.00016 1.00293 0.991189
1.00015 1.0029 0.991328
1.00001 1.00263 0.991747
1.00009 1.00258 0.991698
1.00009 1.00273 0.991601
1.00009 1.00203 0.992306
1.00008 1.00188 0.99248
1.00011 1.00078 0.993495
1.00007 1.00169 0.992689
1.00008 1.00065 0.993675
1.0001 0.999313 0.99496
1.00007 1.00058 0.993652
1.00011 0.999242 0.995024
1.00004 0.99732 0.997471
1.0001 0.999199 0.995074
1.00007 0.997257 0.997267
1.00003 0.996045 0.998462
1.00009 0.997206 0.997064
1.00002 0.996027 0.999354
1.00002 0.996014 0.999357
1.00011 1.00009 0.994358
1.00014 0.998804 0.995401
1.00009 1.00004 0.994283
1.00008 0.996973 0.997311
1.00014 0.998772 0.995435
1.00014 0.998778 0.995428
1.00008 0.996986 0.997306
1.00001 0.995908 0.999411
1.00005 0.997039 0.997679
1.00001 0.995961 0.998992
0.999996 0.996076 0.998554
0.995894 0.996701 0.984815
1.00027 0.994893 0.988631
0.999565 0.998842 0.991273
1.00255 0.997586 0.993976
1.0025 0.998614 0.990397
0.998913 1.00023 0.993056
1.00299 0.998669 0.991805
0.996547 1.00206 0.972583
0.994271 0.998522 0.985634
0.996335 0.996776 0.988774
1.00025 0.999301 0.994602
0.995557 1.00231 0.974196
0.994094 1.00113 0.984078
1.00199 0.994614 0.9868
1.00002 1.00177 0.992637
1.00006 1.00089 0.993431
1.00009 1.00001 0.994318
1.00003 1.00098 0.993364
1.00003 1.0016 0.992892
1.00005 1.0017 0.99276
1.00006 1.00141 0.992995
1.00007 1.00124 0.993133
1.00007 1.001 0.99335
1.00006 1.00091 0.993405
1.00322 0.997426 0.990783
1.00297 0.996046 0.992114
1.00119 1.00148 0.989952
1.00011 1.00447 0.989796
0.999973 1.00468 0.989917
1.00012 1.00328 0.991035
1.00006 1.0022 0.992226
1.00004 1.00203 0.992399
1.00424 0.995667 0.989997
1.00002 1.00259 0.991814
1.0001 1.00296 0.991328
1.00203 1.00058 0.989883
1.00037 1.0041 0.989379
1.00007 1.00502 0.989468
1.00008 1.0042 0.990231
1.00378 0.998431 0.988532
1.00022 1.00467 0.989579
1.00004 1.00473 0.98965
1.00005 1.00259 0.991798
1.00012 1.00302 0.99126
1.00021 1.00348 0.99063
1.00234 0.995915 0.985941
0.995997 0.998773 0.979549
0.996248 1.00261 0.96987
1.00024 1.00321 0.990857
1.00001 1.00417 0.990543
1.00226 1.00031 0.989693
0.999711 1.00488 0.990232
0.99616 0.998552 0.979679
0.995392 1.00179 0.976607
0.999531 1.00003 0.986151
1.00302 1.00081 0.988867
0.993965 1.00029 0.984566
0.999129 0.996029 0.98936
1.00095 0.997881 0.98538
1.00042 1.00325 0.990471
1.00117 0.995379 0.988689
1.01265 0.996284 0.978171
1.00062 1.00299 0.990114
0.99969 1.00365 0.991508
1.00319 1.00218 0.989443
0.999608 0.998712 0.990294
0.995583 1.00219 0.9729
0.996031 0.998709 0.98651
1.01079 0.991877 0.980868
1.00009 1.00296 0.991446
1.01541 0.996064 0.977328
1.02201 0.990034 0.97264
0.998927 1.00351 0.99292
0.999046 0.997713 1.00131
0.995428 0.99923 0.975826
0.997698 0.998922 0.984523
1.01342 0.987901 0.982261
1.00042 1.00334 0.990261
1.00025 1.00381 0.990223
1.00024 1.0038 0.9905
1.00006 1.00152 0.992893
1.00011 1.00229 0.992013
1.00016 1.00279 0.9914
1.00006 1.00421 0.99014
1.00011 1.00226 0.992063
1.00011 1.00336 0.990999
0.999971 1.00475 0.989814
0.999917 1.00484 0.990024
1.00011 1.00421 0.990096
1.00018 1.00286 0.991369
1.00011 1.0022 0.992112
1.00009 1.00243 0.991911
1.0002 1.00261 0.991474
1.00019 1.0027 0.991496
1.00007 1.00267 0.99171
1.00018 1.00289 0.991221
1.00014 1.00312 0.991104
1.00023 1.00307 0.990971
1.00016 1.00311 0.99111
1.00015 1.00291 0.991334
1.00001 1.00289 0.991468
1.00021 1.00258 0.991545
1.00014 1.00215 0.992167
0.999979 1.00251 0.991967
1.0001 1.00257 0.99174
1.00011 1.00204 0.992195
1.0001 1.00272 0.991614
1.00009 1.00202 0.992313
1.00012 1.00097 0.993279
1.00008 1.00188 0.992479
1.00011 1.00079 0.993491
1.0001 0.999412 0.994868
1.00008 1.00067 0.993672
1.0001 0.999311 0.994957
1.00002 0.997404 0.997442
1.00011 0.999236 0.995023
1.00005 0.997324 0.997242
1 0.996119 0.998448
1.00008 0.997249 0.997044
1.00002 0.996055 0.998908
1.00001 0.996035 0.999353
1.00012 1.00025 0.994066
1.00013 0.998871 0.995341
1.0001 1.0001 0.994222
1.00008 0.997009 0.997285
1.00014 0.998806 0.995402
1.00009 1.00004 0.994282
1.00002 0.9959 0.999411
1.00008 0.996972 0.997312
1.00014 0.998771 0.995435
1.00008 0.996989 0.997305
1.00001 0.99591 0.99941
0.999996 0.995954 0.999403
1.00191 0.995422 0.98808
0.995653 0.9977 0.982436
1.01343 0.993968 0.979684
0.999747 0.994921 0.988661
0.998929 1.00084 0.987382
1.0031 0.998334 0.991664
0.996124 1.00117 0.977324
0.994717 0.999244 0.981681
0.996003 0.996853 0.988992
1.00031 0.999405 0.992095
0.995471 1.00196 0.972637
0.994085 1.00099 0.981731
1.00272 0.994373 0.987171
0.999966 0.998699 0.994359
0.995058 1.00158 0.972857
0.995108 0.998527 0.98581
1.01163 0.988409 0.984322
1.00006 1.0022 0.992227
1.00003 1.00175 0.99271
1.00007 1.0009 0.993478
1.00001 1.00153 0.992941
1.00008 1.00197 0.992362
1.00006 1.00165 0.992809
1.00006 1.00136 0.993015
1.0001 1.00136 0.993036
1.00008 1.00123 0.993201
1.00007 1.00103 0.993282
1.00442 0.995805 0.989738
1.00191 1.00032 0.989813
1.00042 1.00434 0.989331
1.00009 1.00502 0.989383
1.0001 1.00421 0.99015
1.00011 1.00298 0.991247
1.00002 1.00262 0.991786
1.00005 1.00258 0.991823
1.00391 0.998217 0.988577
1.0001 1.00304 0.991302
1.00021 1.0036 0.990589
1.0002 1.00482 0.989459
1.00011 1.00473 0.989642
1.00272 1.00041 0.988916
0.999643 1.00498 0.990353
1.0003 1.00365 0.990252
1.00015 1.00282 0.991392
1.0003 1.0032 0.990715
1.01628 0.996965 0.976393
1.00234 0.995607 0.98702
0.996199 0.997802 0.983462
1.00038 1.00353 0.990442
0.999541 1.00359 0.991524
1.00063 1.00298 0.990168
1.00184 0.995946 0.98765
0.995276 1.00155 0.971839
0.999574 0.998313 0.994358
1.00404 1.0044 0.983981
0.994903 0.999001 0.982727
1.01237 0.996288 0.978459
1.011 0.991977 0.980426
1.00008 1.00279 0.991538
1.01617 0.996527 0.975607
1.02228 0.989937 0.972599
0.999173 1.00327 0.992363
0.999241 0.99857 0.997541
0.995184 1.00091 0.974092
1.01426 0.988115 0.981145
0.997583 0.998391 0.983189
0.999864 1.00217 0.992537
1.02363 0.992147 0.969681
1.02584 0.986217 0.973292
1.01135 0.990848 0.982422
0.996766 1.00154 0.997938
0.995253 0.998413 0.978153
0.997805 0.999964 0.98264
1.00033 1.00367 0.990346
1.00027 1.00387 0.99026
0.999807 1.00398 0.991147
1.00011 1.00226 0.992059
1.00012 1.00331 0.991016
0.99996 1.00472 0.989789
1.00019 1.00284 0.991398
1.00012 1.00419 0.990092
0.999963 1.00478 0.989839
0.999877 1.00448 0.990322
1.0003 1.00335 0.990575
1.0002 1.00268 0.991508
1.00006 1.00269 0.991716
1.00019 1.00285 0.991254
1.00024 1.00305 0.990973
1.00015 1.00309 0.991099
1.00003 1.00355 0.990898
1.0001 1.003 0.991315
1.00005 1.00386 0.990604
1.00016 1.00293 0.99134
1.00008 1.00293 0.991459
1.00021 1.00302 0.990905
1.00018 1.00241 0.991742
1.00012 1.00204 0.99226
1.00016 1.00259 0.991562
1.00015 1.00182 0.992412
1.00013 1.00217 0.992145
0.999949 1.00239 0.992186
1.00012 1.00255 0.991782
1.00011 1.00202 0.992239
1.00014 1.00111 0.993115
1.00009 1.00202 0.992319
1.00013 1.00097 0.99328
1.00009 0.999561 0.994738
1.00011 1.0008 0.993487
1.0001 0.999416 0.994863
0.999984 0.997504 0.997396
1.00011 0.999308 0.994953
1.00002 0.997412 0.997208
0.999964 0.996211 0.99843
1.00005 0.997316 0.997018
0.999992 0.996126 0.998898
0.999999 0.996084 0.999348
1.00013 1.0004 0.99371
1.00012 0.99899 0.995071
1.00012 1.00025 0.994063
1.00007 0.997083 0.997231
1.00013 0.998881 0.995255
1.0001 1.00011 0.994086
1.00001 0.995928 0.999402
1.00008 0.997003 0.997287
1.00014 0.998809 0.995403
1.00002 0.995899 0.999411
1.00008 0.996971 0.997312
1.00001 0.995913 0.999408
1.01542 0.995739 0.977319
1.00186 0.995561 0.986682
0.99585 0.997902 0.981134
1.00015 1.00149 0.992728
1.02236 0.988504 0.974792
1.01348 0.99386 0.979997
0.999842 0.99504 0.987706
1.00033 0.998915 0.989689
0.995602 1.00239 0.974525
0.994211 1.00149 0.984932
1.00212 0.993955 0.987378
0.999954 0.998796 0.988765
0.994911 1.00195 0.974127
0.996177 0.99864 0.984138
1.01006 0.990442 0.984696
0.999862 0.998194 0.987816
0.994898 1.00067 0.970478
0.999116 0.997303 0.980176
1.01409 0.985827 0.983432
1.00015 1.0024 0.991764
1.00006 1.00223 0.992179
1.00004 1.00173 0.992782
1.00013 1.00203 0.992208
1.00009 1.00193 0.992444
1.00007 1.0016 0.992858
1.00011 1.00135 0.993065
1.00008 1.00121 0.99327
1.00405 0.997968 0.988618
1.00018 1.00495 0.989339
1.00005 1.00256 0.991848
1.0002 1.00474 0.989635
1.00021 1.00366 0.990547
1.00008 1.00307 0.991345
1.00015 1.00282 0.991404
1.00283 1.0005 0.988951
1.00028 1.00319 0.990743
1.00031 1.00375 0.990209
0.99962 1.00496 0.990285
1.00024 1.00273 0.991372
1.0018 1.00083 0.99124
0.999539 1.00441 0.991136
1.00039 1.00291 0.990797
1.00027 1.00311 0.990961
1.02257 0.994617 0.969755
1.01601 0.99659 0.976456
1.00228 0.995369 0.988099
1.00007 1.00256 0.99163
0.999408 1.00292 0.991802
1.01691 0.996945 0.973886
0.995071 0.999607 0.975666
0.999859 0.999051 0.990496
0.998455 0.998458 0.980781
1.02243 0.989769 0.972559
1.01518 0.988484 0.980029
0.999892 1.00252 0.992325
1.02361 0.992065 0.969657
1.02612 0.985055 0.972324
0.996865 1.00261 0.998293
1.00976 0.992294 0.983133
0.99497 0.998597 0.977634
0.998679 0.999458 0.979242
0.998672 1.00279 0.994711
1.02506 0.991127 0.969315
1.02291 0.990818 0.971386
1.00171 0.995853 0.985859
0.998845 0.998214 0.980204
0.996561 0.999056 1.00453
0.994859 1.00027 0.9733
1.00028 1.00399 0.99002
0.999923 1.00379 0.991048
0.999369 1.00478 0.990281
1.00019 1.0028 0.991427
1.00013 1.00416 0.990088
1.00001 1.00475 0.989653
1.00028 1.00335 0.990591
0.99991 1.00446 0.990238
0.999749 1.00427 0.990762
1.00025 1.00304 0.990975
1.00016 1.00307 0.991093
1.00009 1.00353 0.990873
0.999829 1.00454 0.990312
1.00003 1.0029 0.991519
0.999974 1.00376 0.990707
1.0001 1.00424 0.990108
1.00046 1.00274 0.990889
1.00014 1.00296 0.991451
1.00024 1.00311 0.990832
1.00021 1.00213 0.992111
1.00001 1.00214 0.992286
1.00018 1.00232 0.991826
1.00012 1.00171 0.992586
1.00013 1.00205 0.992244
1.00012 1.0026 0.99158
1.00016 1.00109 0.993091
1.00015 1.00181 0.992389
1.00013 1.00219 0.992123
1.00011 1.00201 0.992283
1.00015 1.00109 0.993121
1.00008 0.999728 0.994587
1.00013 1.00096 0.993282
1.00008 0.999568 0.994733
0.999959 0.997634 0.996876
1.0001 0.99942 0.994858
0.999994 0.997514 0.996933
0.999905 0.996317 0.999326
1.00003 0.997407 0.996981
0.99996 0.996216 0.998886
0.999974 0.996156 0.999341
1.00015 1.00053 0.993527
1.00011 0.999154 0.994914
1.00014 1.00041 0.993786
1.00005 0.997191 0.997159
1.00012 0.99901 0.995053
1.00012 1.00026 0.99406
0.999998 0.995985 0.999389
1.00007 0.997076 0.997234
1.00012 0.998893 0.995169
1.00001 0.995922 0.999405
1.00008 0.996998 0.997288
1.00002 0.995897 0.999412
1.02247 0.992872 0.971081
1.01551 0.995221 0.977366
1.00191 0.995552 0.986674
1.00015 1.00148 0.992749
1.00019 1.00161 0.992471
1.00015 1.00215 0.992161
1.02504 0.983514 0.97715
1.0228 0.987685 0.974746
1.01353 0.993742 0.980311
0.99987 0.998881 0.993399
0.995174 1.00223 0.972525
0.995036 0.99802 0.983101
1.00992 0.99132 0.98441
0.999653 0.998437 0.992261
0.994851 1.00006 0.975177
0.997806 0.998844 0.983456
1.01456 0.986007 0.982851
0.998982 0.99652 0.994557
0.994909 1.00042 0.976169
0.999344 0.999778 0.979964
1.01191 0.988974 0.982568
1.0002 1.00256 0.991578
1.00014 1.00243 0.99176
1.00006 1.00227 0.99213
1.00013 1.00205 0.992204
1.00009 1.00189 0.992526
1.00012 1.00133 0.993093
1.00294 1.00064 0.988985
0.999613 1.00492 0.990216
1.00015 1.00282 0.991416
1.00031 1.00381 0.990165
1.00028 1.00322 0.990772
1.00023 1.00268 0.991395
1.00028 1.00307 0.990913
1.00185 1.00042 0.991135
1.00042 1.00285 0.990915
0.999482 1.00431 0.991514
1.00024 1.00287 0.991053
0.99947 1.00295 0.993392
0.999797 1.00132 0.993334
1.00028 1.00324 0.990674
1.02378 0.993088 0.969225
1.02245 0.994188 0.969685
1.01574 0.996158 0.976519
0.999901 1.00288 0.992114
0.996891 1.0001 0.999414
1.02361 0.991994 0.969634
0.995251 0.998947 0.98719
0.99923 0.99968 0.982179
1.02647 0.983961 0.971355
1.0096 0.993084 0.982944
0.998855 1.00246 0.994361
1.02472 0.991262 0.969186
1.02337 0.990185 0.971305
0.996547 0.999948 0.99675
1.0025 0.995584 0.986331
0.997606 0.999299 0.98326
0.994921 1.00016 0.977207
0.998743 1.00396 0.996434
1.02279 0.994596 0.968724
1.01369 0.995248 0.977872
0.996686 0.997947 0.987796
0.995109 0.99891 0.985064
0.995146 0.999885 0.976253
0.998215 0.996913 0.994766
1.00004 1.00358 0.990951
0.999401 1.00478 0.990374
0.999224 1.00485 0.990752
1.00026 1.00336 0.990607
0.999941 1.00444 0.990154
0.999707 1.00432 0.990744
0.999638 1.00501 0.990179
1.00015 1.0035 0.990849
0.999943 1.00454 0.990203
1.00004 1.00504 0.989458
0.999906 1.00366 0.99081
1.00012 1.00423 0.990081
1.0005 1.00399 0.989807
1.00062 1.00282 0.99061
1.00027 1.0021 0.99173
1.00044 1.00284 0.990797
1.00028 1.0032 0.99076
1.00018 1.00183 0.992442
1.00017 1.00201 0.992204
1.00001 1.00184 0.992601
1.00002 1.00212 0.99234
1.00019 1.00223 0.991909
1.00013 1.00108 0.993165
1.00013 1.00169 0.992591
1.00014 1.00206 0.992229
1.00007 0.999844 0.994482
1.00017 1.00107 0.993099
1.00016 1.00181 0.992365
1.00015 1.00107 0.993126
1.00008 0.999731 0.994586
0.999926 0.997776 0.996796
1.00008 0.999574 0.994729
0.999961 0.997642 0.996872
0.999874 0.996453 0.999314
0.999998 0.997517 0.996933
0.999918 0.996332 0.998867
0.999942 0.996247 0.999332
1.00017 1.00071 0.993444
1.0001 0.999305 0.994954
1.00015 1.00054 0.993589
1.00003 0.997327 0.997073
1.00011 0.999166 0.994991
1.00014 1.00042 0.993862
0.999975 0.996072 0.999371
1.00005 0.997181 0.997163
1.00012 0.999027 0.995034
1 0.995978 0.999393
1.00007 0.997068 0.997237
1.00001 0.995916 0.999408
1.02456 0.989676 0.971755
1.02267 0.992444 0.971121
1.01562 0.994781 0.97741
1.0002 1.00176 0.992292
1.00022 1.00223 0.991893
1.00015 1.00148 0.99277
1.00018 1.00163 0.992444
1.00016 1.00215 0.992075
1.00019 1.00225 0.99191
1.00017 1.00256 0.991635
1.02086 0.98977 0.974843
1.02537 0.982381 0.976104
1.02325 0.986788 0.974701
1.01509 0.986052 0.982272
0.999398 0.998556 0.987901
0.994876 0.999443 0.979473
0.99768 0.999625 0.980229
0.99858 0.996891 0.991974
0.994891 0.999367 0.97343
0.999272 0.998949 0.978465
1.01098 0.990124 0.98256
0.996798 0.997644 0.996215
0.995308 1.00029 0.971828
0.999194 0.998372 0.983369
1.00407 0.994687 0.984838
1.00027 1.00265 0.991358
1.0002 1.00257 0.991561
1.00014 1.00246 0.991757
1.00013 1.00207 0.9922
1.00189 1.00049 0.991029
0.999356 1.00431 0.991894
1.00022 1.00264 0.991419
1.00029 1.00304 0.990864
1.00045 1.0028 0.991034
1.00025 1.00289 0.991071
1.00031 1.00322 0.99061
0.999114 1.00311 0.994281
0.999755 1.00125 0.993682
1.00026 1.00349 0.990618
0.997536 1.00305 0.998288
1.00014 1.00388 0.99065
1.0223 0.996228 0.968644
1.02346 0.99319 0.969089
1.02233 0.993796 0.969615
0.999095 1.00214 0.994026
0.996546 0.998958 1.00391
1.02435 0.991369 0.969058
0.994829 1.00027 0.973181
0.996965 0.999792 0.980548
1.02384 0.989432 0.971225
1.00192 0.995226 0.98649
0.998646 1.00407 0.996231
1.02299 0.99432 0.968697
1.01372 0.995256 0.978196
0.998157 0.996853 1.00171
0.996264 0.997689 0.98811
0.996179 0.999321 0.98337
0.995122 0.999806 0.975888
1.00029 1.00186 0.99554
1.01573 0.997115 0.97547
1.00032 0.995672 0.987914
0.994299 1.00178 0.982949
0.995107 1.00093 0.974696
0.998938 0.995931 0.990099
0.99947 1.00477 0.990466
0.999219 1.00486 0.99074
0.999859 1.00469 0.990181
0.999666 1.00437 0.990725
0.999499 1.00503 0.990283
1.00016 1.00498 0.989289
1.00006 1.00454 0.990095
1.0001 1.00504 0.989343
1.00057 1.00431 0.989157
1.00014 1.0042 0.990054
1.00052 1.00399 0.989678
1.00072 1.00325 0.989964
1.00087 1.00207 0.990749
1.00057 1.00225 0.991308
1.00061 1.00284 0.99055
1.0002 1.00171 0.992266
1.00028 1.00211 0.991795
1.00042 1.00293 0.990704
1.00012 1.00173 0.99259
1.00016 1.00185 0.992418
1.00013 1.00189 0.992297
1.00006 1.0012 0.99316
1.00002 1.00181 0.992627
1.00004 1.00209 0.992394
1.00004 0.999934 0.994444
1.00014 1.00106 0.993171
1.00014 1.00167 0.992595
0.999906 0.99791 0.996728
1.00007 0.999842 0.994486
1.00018 1.00104 0.993108
1.00007 0.999734 0.994585
0.999927 0.997787 0.996791
0.999833 0.996592 0.999296
0.999963 0.99765 0.996867
0.99987 0.996467 0.999309
0.999906 0.996355 0.99932
1.0002 1.00186 0.992253
1.00019 1.00091 0.993203
1.00009 0.999475 0.994806
1.00017 1.00071 0.993446
0.999996 0.99748 0.996979
1.0001 0.999306 0.994956
1.00014 1.00055 0.993651
0.999945 0.996187 0.99935
1.00002 0.997318 0.997077
1.00012 0.999178 0.995067
0.999979 0.996061 0.999376
1.00005 0.997172 0.997167
1 0.995969 0.999397
1.02272 0.99347 0.969759
1.0243 0.989766 0.971309
1.02287 0.992035 0.971161
1.00019 1.00178 0.992313
1.00022 1.00223 0.991855
1.00021 1.00219 0.991877
1.00021 1.00223 0.991807
1.00021 1.00247 0.991678
1.00018 1.00166 0.992417
1.00017 1.00215 0.991989
1.00018 1.00224 0.991916
1.00019 1.00252 0.991617
1.00018 1.00266 0.991515
1.01191 0.997481 0.978475
1.0211 0.98979 0.974776
1.02571 0.981311 0.975059
1.01117 0.989993 0.982215
1.00004 0.999398 0.981159
0.998278 0.996658 0.990082
0.994946 0.999573 0.975673
0.996473 0.997862 0.991165
0.994902 1.00027 0.974992
0.998542 0.998014 0.982025
1.00332 0.996069 0.985595
0.995392 0.999842 0.992304
0.994953 0.999264 0.976384
0.995257 0.99956 0.982363
0.997327 0.995107 0.989201
1.0001 1.00263 0.991662
1.00023 1.00272 0.991356
1.0002 1.00257 0.991544
0.998929 1.00278 0.995169
0.999696 1.00111 0.99403
1.00025 1.00291 0.991089
1.00034 1.00322 0.990546
1.00022 1.00346 0.990668
0.999919 1.00405 0.990527
0.997416 1.00245 0.998317
0.999553 1.00441 0.990614
0.998678 1.00474 0.994419
1.01582 0.998458 0.975643
1.02216 0.99578 0.968656
1.02315 0.993347 0.968952
0.998517 1.00412 0.996048
0.998108 0.996842 0.993111
1.02319 0.994076 0.96867
0.99519 0.999704 0.969999
0.995122 0.998594 0.982389
1.01373 0.995288 0.97852
0.995917 0.997432 0.988424
1.00022 1.00201 0.995735
1.01583 0.996628 0.975471
0.999763 0.995645 0.987956
0.999171 0.995755 0.99334
0.994157 1.00173 0.981068
0.995061 1.00077 0.971839
1.0015 1.00051 0.993046
1.00206 0.996152 0.987204
0.995055 0.998432 0.980638
0.995228 1.0019 0.972407
0.999525 0.998016 0.991207
0.999223 1.00486 0.990729
0.999755 1.00471 0.990151
1.00066 1.00408 0.989447
0.999372 1.00504 0.990387
1.00007 1.00498 0.989327
1.00098 1.00335 0.989269
1.00017 1.00504 0.989227
1.00054 1.00422 0.989191
1.00111 1.00218 0.990308
1.00053 1.00401 0.989549
1.00074 1.00304 0.990021
1.00112 1.00132 0.991004
1.00121 1.00076 0.991339
1.00074 1.0019 0.991112
1.00089 1.00196 0.990782
1.00042 1.00186 0.991895
1.00052 1.00231 0.991198
1.00059 1.00286 0.99049
1.00018 1.0015 0.99265
1.0002 1.00169 0.992336
1.00029 1.00212 0.991861
1.00004 1.00133 0.993084
1.0001 1.00173 0.992593
1.00014 1.00186 0.992394
0.999979 1.0001 0.994394
1.00007 1.0012 0.993159
1.00003 1.00178 0.992653
0.999852 0.998016 0.997181
1.00004 0.999936 0.994447
1.00015 1.00104 0.993178
0.999808 0.996733 0.998291
0.999894 0.997919 0.996968
1.00007 0.999841 0.994489
0.999928 0.997797 0.996787
0.99983 0.996604 0.999291
0.999866 0.996481 0.999304
1.00021 1.0019 0.992168
1.00019 1.00112 0.993002
1.0002 1.00188 0.99222
1.00008 0.999667 0.99464
1.00019 1.00092 0.993202
0.999965 0.99763 0.996888
1.00009 0.99947 0.994811
1.00017 1.00072 0.993447
0.999909 0.996323 0.999327
0.999993 0.99747 0.996983
1.0001 0.999308 0.994958
0.999949 0.996174 0.999356
1.00002 0.997309 0.997081
0.999982 0.996051 0.999382
1.01562 0.99885 0.973419
1.02278 0.993371 0.969797
1.024 0.989822 0.970863
1.00023 1.00202 0.992025
1.00019 1.0018 0.992333
1.00022 1.00224 0.991817
1.00021 1.00225 0.991861
1.00022 1.0022 0.991911
1.00021 1.00242 0.991693
1.00023 1.00241 0.991651
1.00017 1.00257 0.991553
1.00018 1.00224 0.991922
1.0002 1.00249 0.991599
1.00017 1.00268 0.991521
1.00027 1.00289 0.991348
0.999471 0.995028 0.9904
1.01153 0.997621 0.978805
1.0214 0.989805 0.974708
1.00147 0.997316 0.986241
0.998973 0.997945 0.98022
0.995323 1.0003 0.971827
0.995902 0.997905 0.998362
0.99516 0.999786 0.99827
0.996498 0.995765 0.989672
0.994951 1.00022 0.971615
0.996059 0.998169 0.985999
0.996243 0.999896 0.997076
0.994895 0.999029 0.977855
0.994062 0.999751 0.98542
0.999757 1.00261 0.992319
1.00019 1.00255 0.991662
1.00019 1.00282 0.991354
0.997331 1.00184 0.998359
0.999796 1.00416 0.990401
1.00016 1.00346 0.990717
0.999657 1.00446 0.990647
0.998548 1.00471 0.994496
0.999322 1.00229 0.993928
1.00103 0.995696 0.989789
1.01612 0.998626 0.973674
1.02202 0.995338 0.968668
1.00012 1.00219 0.995951
0.999178 0.996216 0.99538
1.01596 0.99622 0.975468
0.995066 0.999518 0.978369
0.994354 1.002 0.984079
0.999773 0.99574 0.987019
1.00148 1.00048 0.993308
1.002 0.996174 0.985867
0.994318 0.998943 0.98512
0.999449 0.997988 0.987572
0.995048 1.0021 0.973727
1.00248 1.00029 0.990066
0.996007 0.996496 0.984727
0.995498 1.00246 0.973905
0.999586 0.999064 0.98697
0.999672 1.00472 0.990121
1.00045 1.00395 0.989446
1.00129 1.00202 0.989691
0.999955 1.00498 0.989364
1.00101 1.00319 0.989294
1.00194 0.999628 0.991297
1.00051 1.00414 0.989226
1.00109 1.00194 0.990384
1.00161 0.999318 0.992077
1.00076 1.00284 0.990079
1.00115 1.00115 0.991037
1.00152 0.999369 0.99211
1.00138 0.99965 0.992132
1.00107 1.00099 0.991429
1.0012 1.00069 0.991413
1.00058 1.00159 0.991615
1.00075 1.00186 0.991187
1.0009 1.00184 0.990815
1.00025 1.00152 0.992499
1.00036 1.00187 0.991887
1.00048 1.00237 0.991088
1.00007 1.0013 0.993069
1.00019 1.00151 0.992643
1.0002 1.00168 0.992405
0.99991 1.00038 0.994272
1.00005 1.00131 0.993091
1.00008 1.00172 0.992596
0.999798 0.998162 0.996662
0.999985 1.0001 0.994392
1.00008 1.0012 0.993159
0.999729 0.996842 0.999271
0.999853 0.998029 0.996684
1.00004 0.999936 0.99445
0.999792 0.996735 0.999275
0.999893 0.997927 0.99672
0.999826 0.996616 0.999285
1.00021 1.00184 0.992307
1.0002 1.00192 0.992185
1.00019 1.00126 0.992872
1.00006 0.999882 0.994452
1.00019 1.00113 0.992998
1.0002 1.0019 0.992186
0.999931 0.997784 0.996797
1.00008 0.999656 0.994645
1.00018 1.00092 0.993202
0.999868 0.996461 0.999307
0.999962 0.99762 0.996893
1.0001 0.99946 0.994816
0.999914 0.996306 0.999334
0.99999 0.99746 0.996987
0.999954 0.996158 0.999363
1.00036 0.995156 0.991866
1.01576 0.99889 0.973463
1.02282 0.993286 0.969835
1.00024 1.00203 0.991998
1.00019 1.00197 0.992262
1.00028 1.0021 0.991861
1.0002 1.00227 0.991915
1.00022 1.00221 0.991946
1.00021 1.00237 0.991707
1.00018 1.00257 0.991575
1.00024 1.00239 0.991675
1.00012 1.0028 0.991476
1.00017 1.00274 0.991392
1.00017 1.00269 0.991528
1.00019 1.00288 0.991372
0.994211 0.998307 0.985815
0.998778 0.994764 0.991186
1.01121 0.997738 0.979135
0.995695 0.99631 0.990146
0.995316 0.998384 0.982812
0.994908 0.999991 0.979778
0.994916 0.999883 0.992253
0.996186 0.999883 0.991289
0.993917 0.999097 0.982832
0.994862 0.999418 0.978141
0.998021 0.996708 0.991663
0.994906 1.00065 0.974773
0.999821 1.00386 0.991391
0.999897 1.00235 0.992317
1.00029 1.00245 0.991662
0.998257 1.00472 0.994593
0.999744 1.00449 0.990681
0.999989 1.00232 0.993826
1.0018 0.999691 0.993137
0.996302 0.997638 0.98184
1.00153 0.995829 0.988746
1.01638 0.998715 0.971706
1.00166 1.00045 0.993526
0.999424 0.998108 0.992429
1.00207 0.996273 0.985867
0.995087 1.00227 0.972226
0.994873 0.999746 0.981142
1.0025 1.0003 0.990635
0.995841 0.997578 0.982202
0.99562 1.00198 0.972433
0.999352 0.999064 0.991541
1.00276 1.00054 0.988871
0.996019 1.00241 0.96822
0.999861 0.998635 0.993971
1.00023 1.00373 0.989446
1.00114 1.00238 0.989599
1.00259 0.997742 0.991209
1.00105 1.00303 0.989318
1.00189 0.999402 0.991307
1.00236 0.996384 0.993564
1.00105 1.00171 0.990461
1.00164 0.999107 0.992084
1.00202 0.997259 0.993217
1.00117 1.00097 0.991069
1.00152 0.999327 0.992107
1.00166 0.998366 0.992762
1.00149 0.999094 0.99256
1.00138 0.999556 0.992221
1.00124 1.00003 0.992028
1.00095 1.00095 0.991704
1.00106 1.001 0.991445
1.0012 1.00061 0.991486
1.00045 1.00135 0.992136
1.0006 1.00161 0.991691
1.00075 1.00182 0.991263
1.00012 1.00126 0.992996
1.00026 1.00152 0.992489
1.00031 1.00188 0.991878
0.99987 1.0006 0.994131
1.00008 1.00127 0.993075
1.0002 1.00151 0.992636
0.999713 0.998389 0.996598
0.999922 1.00035 0.994274
1.00006 1.00129 0.993098
0.999688 0.99699 0.99926
0.999796 0.99818 0.996659
0.999992 1.00011 0.99439
0.99974 0.996848 0.998771
0.999853 0.998043 0.996685
0.999782 0.99674 0.99927
1.00016 1.00178 0.992457
1.00021 1.00183 0.992257
1.00018 1.00132 0.992821
1.0002 1.00194 0.992201
1.00018 1.00127 0.992867
1.00006 1.00007 0.994269
0.999895 0.997954 0.996694
1.00007 0.999869 0.994455
1.00018 1.00114 0.992994
0.999825 0.996605 0.999285
0.999928 0.997774 0.996803
1.00009 0.999647 0.994649
0.999873 0.996448 0.999312
0.999958 0.997611 0.996897
0.999919 0.996291 0.99934
0.995132 0.998377 0.981833
1.00029 0.995284 0.99118
1.01587 0.998929 0.973507
1.00024 1.00203 0.991971
1.00026 1.00212 0.991862
1.00016 1.00195 0.992288
1.00011 1.00199 0.992368
1.00018 1.00218 0.992016
1.00019 1.00256 0.991596
1.00024 1.00236 0.991699
1.00011 1.00277 0.991503
1.00002 1.0023 0.991928
1.00005 1.00285 0.991394
1.00037 1.0034 0.990901
1.00013 1.00296 0.991338
1.00013 1.00288 0.991396
0.995889 1.00122 0.970247
0.994296 0.999245 0.984159
0.998594 0.994928 0.990618
0.993854 0.998513 0.986315
0.994903 0.999288 0.972063
0.996191 0.999929 0.997438
0.998217 0.997033 0.994394
0.994981 0.999853 0.976826
1.00085 0.996482 0.991601
1.00177 1.00277 0.988646
0.999684 1.00377 0.991332
1.00002 1.00208 0.992315
1.00054 1.00232 0.993704
1.0019 0.998914 0.992763
0.996423 1.00128 0.97081
0.996115 0.997877 0.980269
1.002 0.996088 0.987702
1.00253 1.00029 0.991226
0.999111 0.999359 0.987128
0.996045 0.997788 0.98086
0.995506 1.00219 0.974429
1.00295 1.00057 0.98886
0.996778 1.00163 0.972542
0.999746 0.998848 0.988583
1.00376 0.998422 0.988597
1.00027 0.999207 0.994595
1.00101 1.00281 0.989505
1.00258 0.998026 0.991118
1.00327 0.995278 0.992686
1.00182 0.999192 0.991318
1.00225 0.996407 0.99354
1.0025 0.995502 0.993906
1.00168 0.998868 0.99209
1.002 0.997302 0.993158
1.00205 0.997182 0.993196
1.00152 0.999289 0.992103
1.00167 0.998426 0.992718
1.00168 0.998451 0.992699
1.00144 0.998989 0.992658
1.00141 0.9995 0.99231
1.00138 0.999463 0.99231
1.00124 1.00004 0.992011
1.00117 1.00028 0.991932
1.00075 1.00092 0.991986
1.00094 1.00098 0.991687
1.00105 1.00103 0.991461
1.00027 1.00118 0.992793
1.00044 1.00138 0.992182
1.0006 1.00163 0.991767
0.999848 1.00079 0.993977
1.00014 1.00125 0.992992
1.00027 1.00152 0.99248
0.999633 0.998649 0.996487
0.999888 1.00056 0.994136
1.0001 1.00125 0.99308
0.99961 0.997163 0.99925
0.999714 0.998412 0.996592
0.999933 1.00033 0.994277
0.999673 0.996993 0.999258
0.999793 0.998201 0.996655
0.999728 0.996855 0.999263
1.0001 1.00187 0.992458
1.00015 1.00178 0.992461
1.00012 1.00141 0.992785
1.00021 1.00182 0.992206
1.00017 1.00134 0.992782
1.00004 1.00025 0.99413
1.00018 1.00128 0.992861
1.00006 1.00007 0.994268
0.999859 0.998126 0.996589
0.999781 0.996759 0.999261
0.999895 0.997938 0.9967
1.00008 0.999856 0.994457
0.99983 0.996595 0.999292
0.999925 0.997765 0.996809
0.999879 0.996434 0.999318
0.996213 1.00185 0.973937
0.995319 0.998174 0.983777
1.00021 0.995038 0.991946
1.00024 1.00216 0.991863
1.00014 1.00193 0.992314
1.00019 1.00218 0.992029
1.00011 1.00199 0.992364
1.00006 1.00213 0.992325
1.00004 1.00214 0.992206
1.00009 1.00272 0.991529
1.00005 1.0024 0.991892
0.999994 1.00302 0.991396
1.00008 1.00219 0.991887
1.00071 1.00281 0.991193
1.00122 1.00315 0.989158
1.00029 1.00312 0.990895
1.00009 1.00319 0.991284
1.00006 0.998492 0.992817
0.995298 1.00169 0.973901
0.994645 0.998816 0.981421
0.994945 1.00057 0.974893
0.998564 0.997251 0.99726
1.00077 0.996727 0.994748
1.00402 0.997747 0.989883
1.00143 1.00228 0.989107
0.999568 1.00374 0.99127
1.0023 0.998337 0.992397
0.998838 1.00128 0.9875
0.99673 1.00176 0.973184
0.996199 0.997065 0.984088
1.00312 1.00064 0.988855
0.999582 0.998952 0.992825
0.996406 1.00057 0.977123
1.00399 0.998104 0.988672
1.00029 0.99941 0.99199
1.00411 0.995905 0.990093
1.00307 0.999138 0.990861
1.00255 0.998308 0.991031
1.00319 0.995279 0.992717
1.00285 0.996046 0.992836
1.00216 0.99644 0.993516
1.00246 0.995734 0.993853
1.00244 0.996785 0.992789
1.00196 0.997367 0.993099
1.00201 0.997328 0.993141
1.00204 0.998128 0.992355
1.00168 0.998492 0.992675
1.00163 0.998521 0.992718
1.00155 0.999235 0.992172
1.0014 0.998894 0.992756
1.00138 0.999412 0.992366
1.00134 0.999924 0.992016
1.00125 1.00005 0.991993
1.00117 1.0003 0.991917
1.00102 1.00046 0.992065
1.00049 1.00088 0.992515
1.00074 1.00096 0.992029
1.00093 1.001 0.991671
0.999888 1.00091 0.99377
1.00027 1.00118 0.992791
1.00043 1.00142 0.992228
0.999554 0.998936 0.996342
0.999875 1.00075 0.993979
1.00015 1.00124 0.992989
0.999531 0.997383 0.999226
0.999634 0.998677 0.996483
0.999905 1.00053 0.994141
0.999596 0.99718 0.999243
0.999715 0.998433 0.996587
0.999659 0.996997 0.999256
1.00008 1.00195 0.992432
1.00011 1.00186 0.99249
1.00005 1.00156 0.992799
1.00014 1.00178 0.992465
1.00011 1.00143 0.992788
0.999986 1.00047 0.994028
1.00016 1.00135 0.992743
1.00004 1.00026 0.994127
0.999808 0.998314 0.996501
1.00006 1.00006 0.994268
0.999861 0.998106 0.996595
0.999732 0.99691 0.999238
0.999787 0.996748 0.999269
0.999895 0.997921 0.996707
0.999835 0.996583 0.999298
0.999356 0.999662 0.991209
0.995946 1.00149 0.97211
0.995672 0.998671 0.98039
1.00023 1.002 0.992136
1.00018 1.00218 0.992041
1.0001 1.00198 0.99236
1.00007 1.00218 0.992202
1.00004 1.00216 0.992308
0.99999 1.00187 0.992517
1.00009 1.00254 0.991857
0.999986 1.00322 0.991398
1.00017 1.00222 0.991957
1.00047 1.0027 0.991353
1.0012 1.00195 0.990266
1.00272 1.00109 0.98797
1.00123 1.00282 0.989141
1.00028 1.00275 0.990889
1.00427 0.996707 0.989502
0.999978 0.998694 0.990702
0.995271 1.00143 0.977756
1.00064 0.996845 0.989598
1.00401 0.997997 0.988999
1.00093 1.0017 0.989577
1.00254 0.999893 0.992421
0.998869 1.00093 0.992183
0.996431 1.00123 0.971105
1.00429 0.997833 0.988737
1.00031 0.998941 0.989489
1.00429 0.995866 0.989878
1.00307 0.998812 0.991365
1.00332 0.996967 0.990105
1.00233 0.998969 0.989849
1.00312 0.995278 0.992749
1.00279 0.996036 0.992895
1.00252 0.997857 0.991731
1.00243 0.995973 0.9938
1.00243 0.996946 0.992758
1.0023 0.998309 0.99165
1.00198 0.997477 0.993086
1.00195 0.998202 0.99244
1.00186 0.999184 0.991592
1.00157 0.99859 0.992738
1.00154 0.999246 0.992174
1.00147 0.999776 0.991799
1.00136 0.999322 0.992423
1.00132 0.999854 0.992042
1.00118 1.00019 0.991974
1.00117 1.00031 0.991901
1.00101 1.00046 0.992029
1.00076 1.00059 0.992429
1.00003 1.00084 0.993558
1.00048 1.0009 0.992563
1.00072 1.001 0.992072
0.999496 0.999264 0.996118
0.99991 1.00088 0.993773
1.00027 1.00118 0.99279
0.999449 0.997629 0.999194
0.999562 0.99896 0.996336
0.999902 1.0007 0.99398
0.999515 0.997404 0.999217
0.999635 0.998703 0.996478
0.999581 0.997195 0.999236
1.00015 1.00189 0.992273
1.00008 1.00193 0.992437
1.00005 1.00163 0.992796
1.00012 1.00186 0.992521
1.00005 1.00157 0.992823
0.999909 1.00073 0.993922
1.0001 1.00146 0.992792
0.999977 1.00049 0.994024
0.999732 0.99855 0.996421
1.00004 1.00026 0.994124
0.999813 0.99829 0.996506
0.999669 0.997073 0.999219
0.999864 0.998085 0.996601
0.99974 0.996903 0.999245
0.999792 0.996739 0.999276
1.00328 0.99672 0.991576
0.999323 1.0002 0.987143
0.996261 1.00152 0.973565
1.00025 1.00164 0.9923
1.00069 1.00161 0.99162
1.00012 1.00201 0.992181
1.0001 1.00219 0.992199
1.00003 1.00219 0.992291
1.00009 1.00187 0.992466
1.00109 1.00143 0.99092
1.00021 1.00226 0.992027
1.00011 1.00259 0.991512
1.00114 1.00193 0.990316
1.0024 1.00063 0.988863
1.00331 0.998268 0.989477
1.00278 1.00092 0.988045
1.00131 1.00251 0.989125
1.00413 0.996727 0.989655
0.999799 0.999318 0.987957
1.00402 0.998523 0.988099
1.00202 0.998613 0.991785
1.00249 0.999246 0.992584
0.998961 1.00096 0.986833
1.00447 0.995856 0.989664
1.00309 0.998481 0.99185
1.00341 0.997052 0.990242
1.00244 0.999083 0.990151
1.00244 0.999091 0.990562
1.00203 0.999011 0.991468
1.00274 0.995966 0.992953
1.00249 0.997814 0.991772
1.00241 0.999045 0.990716
1.0024 0.997069 0.992727
1.00226 0.998354 0.991674
1.00216 0.999163 0.990962
1.00186 0.998266 0.992526
1.00186 0.999192 0.99159
1.00175 0.999725 0.991284
1.00153 0.999257 0.992177
1.00147 0.999774 0.991798
1.00133 1.00011 0.991749
1.00131 0.999784 0.992067
1.00117 1.00017 0.991978
1.00091 1.00039 0.992302
1.00099 1.00046 0.991992
1.00073 1.00058 0.99241
1.00021 1.00065 0.993384
0.999496 0.999555 0.995861
1.00004 1.00083 0.993564
1.00048 1.00093 0.992611
0.999366 0.997907 0.999147
0.999514 0.999276 0.996111
0.999931 1.00084 0.993776
0.999434 0.997654 0.999182
0.99957 0.998983 0.99633
0.999501 0.997427 0.999208
1.00034 1.00176 0.991872
1.00015 1.00186 0.992228
1.00015 1.00155 0.992687
1.00008 1.0019 0.992442
1.00004 1.00164 0.992795
0.999855 1.00097 0.993801
1.00004 1.00159 0.992848
0.999894 1.00076 0.993919
0.999636 0.998845 0.996323
0.999968 1.00051 0.99402
0.999736 0.998525 0.996424
0.999587 0.997272 0.999199
0.999818 0.998266 0.99651
0.999682 0.997065 0.999225
0.999749 0.996897 0.999252
1.00276 0.997382 0.991489
1.00328 0.997063 0.991926
0.999408 1.00044 0.991918
1.00117 1.00113 0.991342
1.00014 1.00162 0.992548
1.00113 1.00111 0.990824
1.00069 1.00162 0.99158
1 1.00205 0.992226
1.00223 1.00046 0.989641
1.00018 1.00187 0.992415
1.00115 1.00132 0.990911
1.00303 0.998835 0.989565
1.0011 1.00192 0.990366
1.00251 1.00068 0.988761
1.00331 0.998332 0.989431
1.00277 1.00081 0.98812
1.00403 0.99673 0.989807
1.00192 0.998741 0.992133
1.00195 0.998388 0.991759
1.00243 0.998626 0.992756
1.00347 0.997087 0.99038
1.00254 0.999244 0.990451
1.00256 0.998992 0.990526
1.00201 0.999057 0.991533
1.00201 0.999369 0.991145
1.00246 0.997791 0.991813
1.00243 0.99894 0.990762
1.00231 0.999379 0.990551
1.00221 0.998407 0.991697
1.00216 0.99922 0.990943
1.00205 0.999669 0.990753
1.00186 0.999201 0.991588
1.00176 0.999723 0.991274
1.00158 1.00003 0.991334
1.00147 0.999772 0.991797
1.00133 1.0001 0.991746
1.00107 1.0003 0.99206
1.00116 1.00014 0.991982
1.0009 1.00039 0.992305
1.00039 1.00048 0.993208
1.0007 1.00057 0.99239
1.00021 1.00065 0.99339
0.999509 0.999751 0.996239
0.999311 0.998334 0.99777
0.999517 0.999528 0.996159
1.00004 1.00081 0.99357
0.999352 0.997944 0.999126
0.999532 0.999288 0.996104
0.999419 0.997678 0.999169
1.00147 1.00044 0.991021
1.00062 1.00158 0.991491
1.0004 1.00175 0.991818
1.0003 1.00142 0.992516
1.00016 1.00183 0.992183
1.00014 1.00155 0.992694
0.999846 1.0011 0.993698
1.00003 1.00164 0.992794
0.999836 1.001 0.993798
0.999544 0.999163 0.996196
0.999878 1.00079 0.993915
0.999637 0.998817 0.996327
0.999489 0.997518 0.999174
0.99974 0.998499 0.996428
0.999606 0.997257 0.999205
0.999696 0.997059 0.99923
1.00255 0.998279 0.991174
1.00271 0.99751 0.991443
1.00331 0.997398 0.992275
1.00205 1.00028 0.990123
1.00098 1.00115 0.991567
1.00001 1.00158 0.992796
1.00126 1.00106 0.990929
1.0007 1.00163 0.99154
1.00284 0.999346 0.98947
1.00226 1.00051 0.989512
1.00119 1.00125 0.990903
1.00306 0.998851 0.989526
1.00266 1.00067 0.988659
1.00327 0.998393 0.989384
1.00169 0.999239 0.991774
1.00188 0.998724 0.99209
1.00187 0.998105 0.991733
1.00267 0.998904 0.990493
1.00199 0.999081 0.991597
1.00204 0.999343 0.991162
1.00192 0.999655 0.991034
1.00245 0.998839 0.990809
1.00234 0.999332 0.990534
1.00214 0.999552 0.990655
1.00216 0.999274 0.990925
1.00205 0.999669 0.990742
1.00184 0.999929 0.990915
1.00177 0.999722 0.991264
1.00158 1.00003 0.991326
1.00128 1.00022 0.991714
1.00134 1.0001 0.991744
1.00107 1.0003 0.992059
1.00055 1.0004 0.992966
1.0009 1.00039 0.992308
1.00038 1.00049 0.99321
0.999533 0.999924 0.996036
1.0002 1.00065 0.993395
0.999539 0.999739 0.996202
0.999203 0.998781 0.997566
0.999288 0.998304 0.998412
0.999539 0.999506 0.996452
0.999339 0.997982 0.999105
1.00207 0.999997 0.990363
1.00109 1.00098 0.991442
1.00136 1.00032 0.991373
1.00047 1.00139 0.99219
1.00071 1.00157 0.991486
1.00047 1.00173 0.991764
1.00028 1.00145 0.992523
0.999893 1.00114 0.993562
1.00012 1.00154 0.992701
0.999828 1.00112 0.993694
0.999471 0.999476 0.996033
0.999816 1.00103 0.993796
0.999538 0.999139 0.9962
0.999378 0.997805 0.999139
0.999638 0.998788 0.996331
0.999511 0.997492 0.999182
0.999624 0.997242 0.999211
1.00239 0.999032 0.990685
1.00252 0.998335 0.991165
1.00267 0.997671 0.991396
1.00258 0.999444 0.989745
1.00204 1.00031 0.990137
1.00081 1.00117 0.991791
1.00138 1.00098 0.991035
1.00286 0.999359 0.989465
1.0023 1.00054 0.989385
1.0031 0.998866 0.989487
1.00178 0.999606 0.991327
1.00177 0.99929 0.991627
1.00184 0.998724 0.992048
1.00184 0.999974 0.990917
1.00208 0.999313 0.991179
1.00192 0.999673 0.991004
1.00198 0.999698 0.9909
1.00237 0.999289 0.990517
1.00215 0.999546 0.990659
1.00193 0.999871 0.990768
1.00206 0.99967 0.990731
1.00183 0.999933 0.990912
1.0015 1.00012 0.991389
1.00159 1.00002 0.991317
1.00128 1.00022 0.99171
1.00073 1.00035 0.992666
1.00107 1.0003 0.992057
1.00055 1.0004 0.992961
0.999563 1.00004 0.995873
1.00037 1.0005 0.993212
0.999566 0.999905 0.996003
0.999089 0.999174 0.997429
0.999569 0.999729 0.996165
0.999189 0.998764 0.997597
0.999258 0.998267 0.999064
1.00239 0.999846 0.989965
1.00175 1.00025 0.990804
1.00199 1.00007 0.990485
1.00083 1.00107 0.99195
1.00108 1.00093 0.991433
1.00126 1.00022 0.991724
1.00003 1.00118 0.993255
1.00047 1.00139 0.992189
1.00078 1.00157 0.991481
1.00024 1.00148 0.992529
0.999872 1.00117 0.993558
0.99944 0.999782 0.995795
0.999812 1.00114 0.99369
0.999456 0.999468 0.996035
0.999258 0.998141 0.999092
0.999533 0.999115 0.996204
0.999404 0.997768 0.99915
0.999533 0.997466 0.99919
1.00234 0.9993 0.990534
1.00248 0.999017 0.990575
1.00248 0.998387 0.991157
1.00267 0.999396 0.989709
1.00204 1.00036 0.990151
1.0029 0.999374 0.98946
1.00184 0.99992 0.990902
1.00175 0.999657 0.991337
1.00185 0.999341 0.99148
1.00182 0.999988 0.990911
1.00181 1.00016 0.990765
1.00192 0.999692 0.990973
1.00196 0.999709 0.990902
1.00189 0.9999 0.990909
1.00216 0.99954 0.990663
1.00194 0.999854 0.990779
1.0016 1.00008 0.99121
1.00183 0.999935 0.990909
1.0015 1.00013 0.991384
1.00089 1.00027 0.992424
1.00129 1.00022 0.991706
1.00073 1.00035 0.992657
0.999611 1.00009 0.995748
1.00055 1.00041 0.992956
0.999597 1.00003 0.995843
0.998986 0.999504 0.997326
0.9996 0.999886 0.99597
0.999076 0.999166 0.997456
0.999174 0.998745 0.997628
1.00235 0.999314 0.990513
1.00211 0.999979 0.990332
1.00242 0.999793 0.989923
1.0013 1.00053 0.991451
1.00172 1.00029 0.99086
1.00191 1.00014 0.990609
1.0003 1.00097 0.992867
1.00081 1.00104 0.991841
1.00107 1.00086 0.991425
0.999467 1.00009 0.995437
1.00002 1.00117 0.993255
1.00047 1.00139 0.992187
0.999849 1.0012 0.993555
0.999404 0.999811 0.9958
0.999136 0.998539 0.999023
0.99944 0.999461 0.996038
0.999283 0.998089 0.999107
0.999429 0.997731 0.999161
1.00213 0.999725 0.990539
1.00238 0.999288 0.990497
1.00255 0.999001 0.990464
1.00276 0.999343 0.989673
1.0019 1.00012 0.99059
1.00184 0.999911 0.990933
1.00172 0.999703 0.991346
1.0018 0.999999 0.990904
1.00181 1.00015 0.990767
1.00174 1.00017 0.990896
1.00194 0.999719 0.990904
1.00186 0.999908 0.990927
1.00161 1.00008 0.991176
1.00194 0.999838 0.99079
1.0016 1.00008 0.991215
1.00098 1.00021 0.992294
1.0015 1.00013 0.991379
1.00089 1.00027 0.992416
0.999668 1.00012 0.994895
1.00073 1.00035 0.992648
0.999641 1.00011 0.995335
0.998909 0.999623 0.998833
0.999632 1.00001 0.995812
0.998973 0.999512 0.997351
0.999062 0.999157 0.997484
1.00217 0.99962 0.990617
1.00212 0.999633 0.990589
1.00231 0.999358 0.99052
1.00161 1.00016 0.990941
1.00208 0.999967 0.990407
1.00245 0.999742 0.989881
1.00065 1.00059 0.992336
1.00131 1.00053 0.991445
1.00169 1.00034 0.990916
0.999573 1.00025 0.99504
1.00031 1.00095 0.99277
1.0008 1.001 0.991731
0.999042 0.998991 0.998925
0.999417 1.00013 0.99545
1.00001 1.00117 0.993255
0.999366 0.999843 0.995805
0.999158 0.998476 0.999046
0.999312 0.998039 0.999122
1.00199 0.999921 0.990617
1.00211 0.999716 0.990587
1.00241 0.999279 0.99046
1.0019 1.0002 0.990555
1.00191 1.00013 0.990567
1.00185 0.999908 0.990963
1.0018 1.00014 0.990768
1.00174 1.00015 0.9909
1.00155 1.00019 0.991282
1.00184 0.999916 0.990945
1.0016 1.00009 0.991262
1.00102 1.00019 0.992088
1.0016 1.00007 0.991219
1.00098 1.0002 0.992294
0.999692 1.00012 0.994841
1.00089 1.00027 0.992408
0.999679 1.00011 0.99489
0.998877 0.999746 0.998825
0.999667 1.00013 0.99493
0.998905 0.999706 0.998064
0.998959 0.999521 0.997376
1.00203 0.999882 0.990692
1.00201 0.999707 0.990794
1.00215 0.999585 0.990621
1.00172 0.999962 0.991058
1.00209 0.999656 0.990622
1.00228 0.999405 0.990528
1.00095 1.00029 0.992034
1.00164 1.00018 0.991058
1.00206 0.999953 0.990483
0.999691 1.00026 0.994759
1.0007 1.00057 0.992293
1.00131 1.00052 0.99144
0.998988 0.999396 0.998828
0.99952 1.00031 0.995054
1.00032 1.00093 0.992673
0.999051 0.99891 0.998957
0.999365 1.00018 0.995462
0.99918 0.998406 0.999068
1.00191 1.00008 0.99065
1.002 0.999922 0.990609
1.00209 0.999702 0.990636
1.0017 1.00021 0.990972
1.00188 1.00022 0.990574
1.00193 1.00015 0.990543
1.00175 1.00013 0.990904
1.00156 1.00018 0.991287
1.00105 1.00021 0.99199
1.00159 1.00011 0.991348
1.00102 1.00019 0.992164
0.999718 1.00016 0.994756
1.00098 1.0002 0.992294
0.999699 1.00012 0.99484
0.998849 0.999862 0.998815
0.99969 1.0001 0.994885
0.998873 0.99977 0.998821
0.998909 0.999798 0.997277
1.00191 0.999959 0.990843
1.00202 0.999848 0.990679
1.0017 0.999961 0.991126
1.00201 0.999705 0.990796
1.00213 0.999551 0.990626
1.0011 1.00015 0.992104
1.00174 0.999966 0.991048
1.00207 0.999675 0.990655
0.99977 1.00018 0.994647
1.00098 1.0003 0.992094
1.00168 1.0002 0.991175
0.998956 0.999683 0.998771
0.999654 1.0003 0.994769
1.00075 1.00055 0.99225
0.998987 0.99932 0.998858
0.999468 1.00036 0.995067
0.999061 0.998828 0.998988
1.00168 1.00016 0.99106
1.0019 1.00009 0.990668
1.00201 0.999928 0.990601
1.00113 1.00022 0.991814
1.00169 1.00022 0.990973
1.00187 1.00024 0.990593
1.00156 1.00016 0.991292
1.00105 1.00021 0.992011
0.999759 1.00016 0.994669
1.00101 1.00019 0.992239
0.999721 1.00016 0.994755
0.998842 0.999948 0.998794
0.999706 1.00011 0.994839
0.998852 0.999877 0.998808
0.998873 0.999796 0.998818
1.00166 1.0001 0.991107
1.00191 0.999927 0.990817
1.002 0.999808 0.990666
1.0011 1.00012 0.992117
1.0017 0.999964 0.991124
1.002 0.999704 0.990797
0.999788 1.00011 0.994664
1.0011 1.00015 0.992103
1.00175 0.999969 0.991037
0.998929 0.999846 0.998755
0.999748 1.00021 0.994653
1.00101 1.00031 0.992154
0.998953 0.999626 0.998786
0.999619 1.00035 0.994778
0.998984 0.999243 0.998887
1.00114 1.00021 0.991974
1.00169 1.00017 0.990972
1.00189 1.00009 0.990686
0.999787 1.00012 0.99463
1.00113 1.00021 0.991829
1.00169 1.00024 0.990974
1.00105 1.0002 0.992032
0.999759 1.00016 0.994665
0.998864 0.999998 0.998765
0.999725 1.00015 0.994752
0.998853 0.999959 0.998782
0.998854 0.999891 0.9988
1.0011 1.00018 0.992069
1.00166 1.00009 0.991076
1.0019 0.999899 0.990792
0.999784 1.00008 0.995499
1.00111 1.00013 0.992115
1.00171 0.999969 0.991121
0.998896 0.999925 0.998766
0.999784 1.00012 0.994665
1.0011 1.00016 0.992103
0.998928 0.999812 0.998758
0.999728 1.00024 0.994659
0.998949 0.99957 0.998803
0.999793 1.00014 0.994628
1.00114 1.0002 0.991908
1.00169 1.00019 0.990884
0.998887 1.00002 0.99875
0.999792 1.00013 0.994626
1.00113 1.00021 0.991845
0.99976 1.00017 0.994661
0.998876 1.00001 0.998757
0.998863 0.99997 0.99877
0.999796 1.0001 0.995472
1.0011 1.00018 0.992072
1.00167 1.00008 0.991044
0.998831 0.999977 0.998811
0.999773 1.0001 0.994707
1.00111 1.00014 0.992114
0.998899 0.999907 0.998762
0.999778 1.00013 0.994665
0.998925 0.999779 0.998762
0.998887 1.00007 0.997101
0.999801 1.00011 0.99504
1.00114 1.00021 0.991841
0.998889 1.00002 0.998747
0.999792 1.00014 0.994624
0.998884 1.00002 0.998751
0.998837 1.00005 0.997174
0.999783 1.00011 0.995084
1.00111 1.00018 0.992075
0.998855 0.999989 0.99798
0.999778 1.0001 0.994703
0.998902 0.99989 0.998759
0.99889 1.00002 0.998748
0.999795 1.00011 0.99464
0.998896 1.00002 0.998746
0.99886 1.00003 0.997963
0.999777 1.00012 0.994686
0.998874 0.999952 0.998771
0.998883 1.00001 0.998755
0.998868 0.999993 0.99877

TENSORS stress float
0.00117315 2.95704e-05 2.30183e-05
2.95704e-05 0.000191857 -5.45704e-06
2.30183e-05 -5.45704e-06 0.000181372
0.00270219 -4.53625e-05 2.09052e-05
-4.53625e-05 0.000936726 3.28473e-06
2.09052e-05 3.28473e-06 0.000943155
0.00116855 3.22377e-05 8.7319e-06
3.22377e-05 0.000190747 -2.00773e-06
8.7319e-06 -2.00773e-06 0.000180271
0.00125212 2.55085e-05 2.9377e-05
2.55085e-05 0.000259791 -3.89146e-06
2.9377e-05 -3.89146e-06 0.000240599
0.00119779 2.88985e-05 2.48159e-05
2.88985e-05 0.000216731 -5.04059e-06
2.48159e-05 -5.04059e-06 0.000202525
0.0011455 2.9635e-05 2.11375e-05
2.9635e-05 0.00016617 -5.73415e-06
2.11375e-05 -5.73415e-06 0.000160009
0.00114076 1.60072e-05 6.19737e-06
1.60072e-05 0.000152666 -2.32535e-06
6.19737e-06 -2.32535e-06 0.000123413
0.00273185 -4.58542e-05 2.64709e-07
-4.58542e-05 0.000949652 -1.07939e-07
2.64709e-07 -1.07939e-07 0.000956428
0.0030232 -5.89674e-05 9.7435e-06
-5.89674e-05 0.00113529 1.10279e-06
9.7435e-06 1.10279e-06 0.00113199
0.00276751 -5.22525e-05 8.93711e-06
-5.22525e-05 0.000980199 1.25991e-06
8.93711e-06 1.25991e-06 0.000983876
0.00110657 -2.81197e-05 1.69904e-05
-2.81197e-05 0.00012649 3.56016e-06
1.69904e-05 3.56016e-06 0.000128027
0.0008191 -2.45127e-05 4.9617e-06
-2.45127e-05 -1.44498e-05 2.96327e-06
4.9617e-06 2.96327e-06 -3.79153e-05
0.0014836 -1.52499e-05 3.59031e-05
-1.52499e-05 0.000380475 8.67035e-07
3.59031e-05 8.67035e-07 0.000360535
0.00129581 -3.79575e-05 6.59731e-06
-3.79575e-05 0.000294428 1.05689e-06
6.59731e-06 1.05689e-06 0.000273612
0.00115804 3.51391e-05 -6.09754e-06
3.51391e-05 0.000186792 1.48543e-06
-6.09754e-06 1.48543e-06 0.00017631
0.00128507 3.10136e-05 1.16066e-05
3.10136e-05 0.000278315 -1.32895e-06
1.16066e-05 -1.32895e-06 0.000258556
0.00112999 3.18151e-05 7.99243e-06
3.18151e-05 0.000159349 -2.09409e-06
7.99243e-06 -2.09409e-06 0.000153335
0.00120409 3.22094e-05 9.46374e-06
3.22094e-05 0.000221194 -1.79898e-06
9.46374e-06 -1.79898e-06 0.000206846
0.00117531 1.61723e-05 -3.11651e-06
1.61723e-05 0.0001693 4.34526e-07
-3.11651e-06 4.34526e-07 0.000140165
0.00367939 6.66816e-05 3.49572e-05
6.66816e-05 0.00148101 -6.15358e-07
3.49572e-05 -6.15358e-07 0.00147182
0.00129495 2.34613e-05 3.18919e-05
2.34613e-05 0.000283861 -3.06392e-06
3.18919e-05 -3.06392e-06 0.00026409
0.00121686 2.75306e-05 2.67662e-05
2.75306e-05 0.000236733 -4.56143e-06
2.67662e-05 -4.56143e-06 0.000219502
0.00126668 8.93961e-06 7.26303e-06
8.93961e-06 0.000204737 -2.02179e-06
7.26303e-06 -2.02179e-06 0.000168284
0.00118103 1.27483e-05 6.4939e-06
1.27483e-05 0.000171161 -2.15569e-06
6.4939e-06 -2.15569e-06 0.000139198
0.00113331 2.90061e-05 1.97651e-05
2.90061e-05 0.000148611 -5.81484e-06
1.97651e-05 -5.81484e-06 0.00014674
0.00109619 2.26701e-05 5.4887e-06
2.26701e-05 0.000132113 -2.56682e-06
5.4887e-06 -2.56682e-06 0.000106138
0.00141553 -1.80205e-05 2.15825e-06
-1.80205e-05 0.000237668 -1.13803e-06
2.15825e-06 -1.13803e-06 0.000184654
0.00276693 -4.64477e-05 -2.02785e-05
-4.64477e-05 0.000965178 -3.26841e-06
-2.02785e-05 -3.26841e-06 0.000972291
0.00211278 -4.41603e-05 -8.95556e-06
-4.41603e-05 0.000678675 -7.28583e-07
-8.95556e-06 -7.28583e-07 0.000669888
0.0019703 -4.10524e-05 -7.77022e-06
-4.10524e-05 0.000580258 -9.15811e-07
-7.77022e-06 -9.15811e-07 0.00057922
0.00263801 -4.27868e-05 1.73702e-07
-4.27868e-05 0.000893874 -7.87677e-08
1.73702e-07 -7.87677e-08 0.000903046
0.000762339 -2.59096e-05 2.78153e-07
-2.59096e-05 -4.15483e-05 -3.82081e-08
2.78153e-07 -3.82081e-08 -6.50006e-05
0.00132225 -2.88712e-05 2.42781e-05
-2.88712e-05 0.000293867 2.43753e-06
2.42781e-05 2.43753e-06 0.00027625
0.00117924 -3.02587e-05 2.01634e-05
-3.02587e-05 0.000199266 3.02613e-06
2.01634e-05 3.02613e-06 0.000189298
0.00175411 -7.64051e-06 1.2992e-05
-7.64051e-06 0.000454565 2.24371e-06
1.2992e-05 2.24371e-06 0.000425928
0.00254842 -4.26882e-05 7.83508e-06
-4.26882e-05 0.000840217 1.47385e-06
7.83508e-06 1.47385e-06 0.000851478
0.00164349 -2.4869e-05 1.14136e-05
-2.4869e-05 0.000400982 2.44855e-06
1.14136e-05 2.44855e-06 0.000379109
0.000824388 -2.88252e-05 5.70203e-06
-2.88252e-05 -1.68715e-05 4.49926e-06
5.70203e-06 4.49926e-06 -3.73133e-05
0.000922051 9.1096e-06 2.58436e-06
9.1096e-06 1.34811e-05 1.4008e-06
2.58436e-06 1.4008e-06 -3.87172e-05
0.00254996 -3.33786e-05 1.82297e-05
-3.33786e-05 0.000823578 3.95536e-06
1.82297e-05 3.95536e-06 0.0008381
0.00374053 -6.57469e-05 1.14584e-06
-6.57469e-05 0.00151106 -1.5557e-07
1.14584e-06 -1.5557e-07 0.00150175
0.00236657 -4.90867e-05 -1.16021e-05
-4.90867e-05 0.000828283 -2.11317e-07
-1.16021e-05 -2.11317e-07 0.000813773
0.00387809 -5.33268e-05 3.81018e-05
-5.33268e-05 0.00157521 1.57725e-07
3.81018e-05 1.57725e-07 0.00156619
0.00132581 -3.97953e-05 6.38412e-06
-3.97953e-05 0.000310243 9.31185e-07
6.38412e-06 9.31185e-07 0.000288818
0.00075707 -1.50404e-05 9.20422e-06
-1.50404e-05 -6.20507e-05 1.93703e-06
9.20422e-06 1.93703e-06 -0.000101915
0.00332593 -6.7823e-05 1.03531e-05
-6.7823e-05 0.00130498 8.18683e-07
1.03531e-05 8.18683e-07 0.00129683
0.00185527 -2.58104e-05 1.76423e-05
-2.58104e-05 0.000497267 2.33514e-06
1.76423e-05 2.33514e-06 0.000464744
0.00131971 3.74758e-05 -7.04238e-06
3.74758e-05 0.000297848 1.29951e-06
-7.04238e-06 1.29951e-06 0.000277419
0.00120651 3.58753e-05 -6.4487e-06
3.58753e-05 0.000223787 1.42022e-06
-6.4487e-06 1.42022e-06 0.000209268
0.00110747 3.41329e-05 -5.63112e-06
3.41329e-05 0.000149136 1.51258e-06
-5.63112e-06 1.51258e-06 0.000143266
0.00121651 1.60209e-05 -1.26851e-05
1.60209e-05 0.000189208 3.21567e-06
-1.26851e-05 3.21567e-06 0.000160191
0.00254385 5.5191e-05 -1.24528e-05
5.5191e-05 0.000913314 -6.45252e-07
-1.24528e-05 -6.45252e-07 0.000897782
0.00131714 3.06089e-05 1.26704e-05
3.06089e-05 0.000297283 -9.97975e-07
1.26704e-05 -9.97975e-07 0.000276718
0.00110873 3.09341e-05 7.41984e-06
3.09341e-05 0.000137059 -2.0866e-06
7.41984e-06 -2.0866e-06 0.000135333
0.0012405 3.17309e-05 1.0387e-05
3.17309e-05 0.000250084 -1.57093e-06
1.0387e-05 -1.57093e-06 0.000232544
0.00130233 7.86081e-06 -4.25398e-06
7.86081e-06 0.000221173 2.23907e-07
-4.25398e-06 2.23907e-07 0.000185047
0.00113657 2.33703e-05 -2.8634e-06
2.33703e-05 0.000151702 3.97479e-07
-2.8634e-06 3.97479e-07 0.000125791
0.00121413 1.26079e-05 -3.46183e-06
1.26079e-05 0.000186536 4.26156e-07
-3.46183e-06 4.26156e-07 0.000154792
0.00145375 -2.01942e-05 -1.09913e-06
-2.01942e-05 0.000254679 5.40616e-07
-1.09913e-06 5.40616e-07 0.000201338
0.0037619 7.1993e-05 3.48751e-05
7.1993e-05 0.00152019 -1.32964e-07
3.48751e-05 -1.32964e-07 0.00151061
0.00131036 2.2288e-05 3.3546e-05
2.2288e-05 0.000294792 -2.3746e-06
3.3546e-05 -2.3746e-06 0.000275059
0.00188946 3.42264e-05 6.48026e-06
3.42264e-05 0.000505088 -1.13065e-06
6.48026e-06 -1.13065e-06 0.000471369
0.00130771 1.05469e-05 7.85661e-06
1.05469e-05 0.000219495 -1.69145e-06
7.85661e-06 -1.69145e-06 0.00018243
0.00121749 1.0523e-05 6.74181e-06
1.0523e-05 0.000186529 -2.12707e-06
6.74181e-06 -2.12707e-06 0.000152076
0.00161541 -2.63136e-05 2.37109e-06
-2.63136e-05 0.000278595 -1.13135e-06
2.37109e-06 -1.13135e-06 0.000220466
0.00120083 -1.8729e-05 2.70588e-06
-1.8729e-05 0.000113391 -1.3872e-06
2.70588e-06 -1.3872e-06 5.82272e-05
0.00119795 2.8033e-05 1.95116e-05
2.8033e-05 0.000167377 -5.83995e-06
1.95116e-05 -5.83995e-06 0.000169013
0.00106022 3.02815e-05 4.92064e-06
3.02815e-05 0.000111944 -2.72303e-06
4.92064e-06 -2.72303e-06 8.9855e-05
0.00133631 -7.5813e-06 1.87793e-06
-7.5813e-06 0.000217071 -1.21178e-06
1.87793e-06 -1.21178e-06 0.000165404
0.00112772 -3.80088e-05 1.87371e-06
-3.80088e-05 4.90242e-05 -1.24116e-06
1.87371e-06 -1.24116e-06 -1.62863e-05
0.00305971 -5.50243e-05 -2.31255e-05
-5.50243e-05 0.00114898 -2.67084e-06
-2.31255e-05 -2.67084e-06 0.00114674
0.00268249 -4.32295e-05 -1.95021e-05
-4.32295e-05 0.000913825 -3.41847e-06
-1.95021e-05 -3.41847e-06 0.000923353
0.00285367 -4.94045e-05 -2.13027e-05
-4.94045e-05 0.00101951 -3.09408e-06
-2.13027e-05 -3.09408e-06 0.00102382
0.000705591 -2.8787e-05 -4.4582e-06
-2.8787e-05 -6.84253e-05 -3.28146e-06
-4.4582e-06 -3.28146e-06 -9.19872e-05
0.00325731 -5.72916e-05 3.23197e-07
-5.72916e-05 0.00126101 -1.44763e-07
3.23197e-07 -1.44763e-07 0.00125526
0.00291356 -5.14056e-05 2.09238e-07
-5.14056e-05 0.00106711 -1.13543e-07
2.09238e-07 -1.13543e-07 0.00106735
0.000757073 3.19082e-07 2.39587e-08
3.19082e-07 -3.99047e-05 -1.17584e-07
2.39587e-08 -1.17584e-07 -7.45076e-05
0.00184062 -3.43297e-05 -6.9929e-06
-3.43297e-05 0.000484335 -1.05003e-06
-6.9929e-06 -1.05003e-06 0.000491974
0.000782971 -1.98178e-05 7.96478e-10
-1.98178e-05 -2.80035e-05 -3.104e-08
7.96478e-10 -3.104e-08 -5.4732e-05
0.00117295 -3.10349e-05 3.55821e-06
-3.10349e-05 0.000157731 5.09716e-07
3.55821e-06 5.09716e-07 0.000139684
0.00092011 7.36348e-06 1.8775e-08
7.36348e-06 1.37072e-05 -2.06259e-07
1.8775e-08 -2.06259e-07 -3.87353e-05
0.00255103 -3.6516e-05 1.8674e-05
-3.6516e-05 0.000832517 3.73953e-06
1.8674e-05 3.73953e-06 0.000845539
0.000858725 -2.16063e-05 4.27932e-06
-2.16063e-05 -2.88129e-05 3.54243e-06
4.27932e-06 3.54243e-06 -4.1496e-05
0.000753903 8.82924e-06 7.8954e-06
8.82924e-06 -4.75701e-05 3.49295e-06
7.8954e-06 3.49295e-06 -8.51692e-05
0.000764543 -6.42412e-06 7.21875e-06
-6.42412e-06 -3.70492e-05 3.88895e-06
7.21875e-06 3.88895e-06 -6.8305e-05
0.000993961 2.34219e-05 2.67083e-06
2.34219e-05 1.33354e-05 1.66443e-06
2.67083e-06 1.66443e-06 -4.26317e-05
0.00158782 -3.19759e-05 1.01872e-05
-3.19759e-05 0.000355816 3.08811e-06
1.01872e-05 3.08811e-06 0.000342649
0.000939141 1.49564e-05 2.53183e-06
1.49564e-05 1.56065e-05 1.44516e-06
2.53183e-06 1.44516e-06 -3.70307e-05
0.000930367 4.08614e-06 2.52073e-06
4.08614e-06 1.9802e-05 1.79362e-06
2.52073e-06 1.79362e-06 -3.07757e-05
0.000989784 3.30081e-05 1.28518e-06
3.30081e-05 2.23321e-05 4.05374e-07
1.28518e-06 4.05374e-07 -4.05271e-05
0.00253682 -3.01765e-05 1.74921e-05
-3.01765e-05 0.000810139 4.10011e-06
1.74921e-05 4.10011e-06 0.000826047
0.00258701 -3.35101e-05 2.72778e-07
-3.35101e-05 0.000840883 -7.71283e-08
2.72778e-07 -7.71283e-08 0.000855478
0.00341816 -6.26517e-05 -2.85725e-05
-6.26517e-05 0.00135201 -1.50098e-06
-2.85725e-05 -1.50098e-06 0.00134383
0.0036396 -6.77873e-05 -3.23878e-05
-6.77873e-05 0.00146288 -6.3946e-07
-3.23878e-05 -6.3946e-07 0.00145353
0.00382916 -3.86436e-05 1.21048e-06
-3.86436e-05 0.00155043 -1.70592e-07
1.21048e-06 -1.70592e-07 0.00154232
0.00244327 -5.13303e-05 -1.25899e-05
-5.13303e-05 0.000866995 -7.53596e-08
-1.25899e-05 -7.53596e-08 0.000851809
0.00130543 -8.7954e-06 7.56014e-06
-8.7954e-06 0.000212565 -1.16762e-07
7.56014e-06 -1.16762e-07 0.000176502
0.00228113 -4.68765e-05 -1.06806e-05
-4.68765e-05 0.000780797 -3.82372e-07
-1.06806e-05 -3.82372e-07 0.000767395
0.00124807 -6.90446e-06 5.90544e-06
-6.90446e-06 0.000195532 1.93786e-08
5.90544e-06 1.93786e-08 0.000159951
0.00386665 2.53078e-05 3.57711e-05
2.53078e-05 0.00156649 3.56012e-07
3.57711e-05 3.56012e-07 0.00155894
0.000727239 -3.21672e-06 7.38102e-06
-3.21672e-06 -8.45068e-05 6.58568e-07
7.38102e-06 6.58568e-07 -0.000123845
0.00188545 -3.96134e-05 1.92585e-05
-3.96134e-05 0.000509284 1.98289e-06
1.92585e-05 1.98289e-06 0.000475827
0.00111084 -2.29044e-06 4.18632e-06
-2.29044e-06 -8.64568e-07 1.35056e-06
4.18632e-06 1.35056e-06 -6.31072e-05
0.00181691 -2.88999e-06 1.4939e-05
-2.88999e-06 0.000480701 1.89741e-06
1.4939e-05 1.89741e-06 0.000448622
0.00109565 1.51411e-05 3.41332e-06
1.51411e-05 1.38054e-05 1.48411e-06
3.41332e-06 1.48411e-06 -4.63708e-05
0.00144032 2.20004e-05 -3.41302e-05
2.20004e-05 0.000358842 8.26533e-07
-3.41302e-05 8.26533e-07 0.000338838
0.00134529 3.83684e-05 -7.24584e-06
3.83684e-05 0.000313876 1.14921e-06
-7.24584e-06 1.14921e-06 0.000292406
0.00108309 3.2965e-05 -5.25224e-06
3.2965e-05 0.000125093 1.50991e-06
-5.25224e-06 1.50991e-06 0.000123493
0.00126179 3.65891e-05 -6.73567e-06
3.65891e-05 0.000262369 1.36686e-06
-6.73567e-06 1.36686e-06 0.000244457
0.00133329 6.17477e-06 -1.61252e-05
6.17477e-06 0.000235177 2.50652e-06
-1.61252e-05 2.50652e-06 0.000199439
0.00125042 1.21827e-05 -1.36002e-05
1.21827e-05 0.000203475 2.9674e-06
-1.36002e-05 2.9674e-06 0.000171959
0.00118707 2.38209e-05 -1.16036e-05
2.38209e-05 0.000176254 3.35715e-06
-1.16036e-05 3.35715e-06 0.000150412
0.00149159 -2.22667e-05 -4.37379e-06
-2.22667e-05 0.000271444 2.18183e-06
-4.37379e-06 2.18183e-06 0.00021778
0.00380809 7.04123e-05 -1.51505e-06
7.04123e-05 0.0015422 -1.94386e-07
-1.51505e-06 -1.94386e-07 0.00153275
0.00132148 3.05931e-05 1.34412e-05
3.05931e-05 0.000302346 -6.46884e-07
1.34412e-05 -6.46884e-07 0.000281813
0.001062 1.9196e-05 -8.37733e-06
1.9196e-05 9.01791e-05 1.26224e-07
-8.37733e-06 1.26224e-07 5.2297e-05
0.00133922 9.12941e-06 -4.66653e-06
9.12941e-06 0.000233843 1.42529e-07
-4.66653e-06 1.42529e-07 0.000197094
0.00190636 3.54219e-05 1.27288e-05
3.54219e-05 0.000524749 -1.89881e-06
1.27288e-05 -1.89881e-06 0.000530231
0.00132491 3.30433e-05 -2.85283e-06
3.30433e-05 0.00024302 3.64358e-07
-2.85283e-06 3.64358e-07 0.000222351
0.00125346 1.00122e-05 -3.82808e-06
1.00122e-05 0.000202998 3.43285e-07
-3.82808e-06 3.43285e-07 0.000168856
0.00146585 -2.47252e-05 -1.41568e-06
-2.47252e-05 0.000203627 3.83314e-07
-1.41568e-06 3.83314e-07 0.000144824
0.00140972 -1.13686e-05 -9.12473e-07
-1.13686e-05 0.000250843 6.18428e-07
-9.12473e-07 6.18428e-07 0.000198808
0.00135412 -2.16061e-05 -5.07865e-07
-2.16061e-05 0.000188328 2.01639e-07
-5.07865e-07 2.01639e-07 0.000133608
0.0011197 -3.75376e-05 1.55862e-08
-3.75376e-05 4.55291e-05 -3.61351e-08
1.55862e-08 -3.61351e-08 -1.97178e-05
0.00071636 7.09305e-06 7.19541e-06
7.09305e-06 -8.8228e-05 -1.31196e-06
7.19541e-06 -1.31196e-06 -0.000127395
0.00131845 1.83466e-05 7.86711e-06
1.83466e-05 0.00022387 -1.40883e-06
7.86711e-06 -1.40883e-06 0.000187201
0.00144314 1.57932e-05 3.74341e-06
1.57932e-05 0.000162643 -7.02577e-07
3.74341e-06 -7.02577e-07 0.000102385
0.00137167 -1.9067e-05 3.28482e-06
-1.9067e-05 0.000142046 -1.08264e-06
3.28482e-06 -1.08264e-06 8.21973e-05
0.00127332 -2.19029e-05 2.77262e-06
-2.19029e-05 0.000129491 -1.44366e-06
2.77262e-06 -1.44366e-06 7.23291e-05
0.00153852 -3.56811e-05 1.3464e-06
-3.56811e-05 0.000187351 -6.80004e-07
1.3464e-06 -6.80004e-07 0.000119044
0.00269448 4.00637e-05 1.93937e-05
4.00637e-05 0.000909184 -3.63025e-06
1.93937e-05 -3.63025e-06 0.000920466
0.00114443 -3.59173e-05 1.75725e-06
-3.59173e-05 3.93559e-05 -1.06203e-06
1.75725e-06 -1.06203e-06 -2.55115e-05
0.000776193 2.7812e-05 4.55693e-06
2.7812e-05 -4.2274e-05 -3.26699e-06
4.55693e-06 -3.26699e-06 -6.18821e-05
0.000850389 -4.0655e-06 2.31327e-06
-4.0655e-06 -1.43291e-05 -1.88433e-06
2.31327e-06 -1.88433e-06 -6.6872e-05
0.00115973 -3.97133e-05 1.78074e-06
-3.97133e-05 8.63427e-05 -1.56645e-06
1.78074e-06 -1.56645e-06 2.01566e-05
0.00120468 -4.52142e-05 1.48693e-06
-4.52142e-05 6.24742e-05 -8.7406e-07
1.48693e-06 -8.7406e-07 -7.07283e-06
0.000799491 2.23244e-05 4.48028e-06
2.23244e-05 -5.12385e-05 -3.64138e-06
4.48028e-06 -3.64138e-06 -6.62897e-05
0.000952914 -4.49071e-06 2.8146e-06
-4.49071e-06 1.24357e-05 -2.49751e-06
2.8146e-06 -2.49751e-06 -3.32296e-05
0.00320374 -5.76914e-05 -2.4986e-05
-5.76914e-05 0.00123158 -2.35926e-06
-2.4986e-05 -2.35926e-06 0.00122653
0.0029369 -5.22365e-05 -2.19616e-05
-5.22365e-05 0.00107462 -2.8918e-06
-2.19616e-05 -2.8918e-06 0.00107571
0.000706873 -1.60806e-06 -5.34713e-06
-1.60806e-06 -6.02356e-05 -2.85254e-06
-5.34713e-06 -2.85254e-06 -9.52793e-05
0.00264423 -3.99788e-05 -1.92775e-05
-3.99788e-05 0.000885176 -3.61412e-06
-1.92775e-05 -3.61412e-06 0.000896704
0.00072481 -2.71017e-05 -4.54757e-06
-2.71017e-05 -6.62689e-05 -3.3347e-06
-4.54757e-06 -3.3347e-06 -8.59752e-05
0.000700363 -2.04572e-05 -4.99006e-06
-2.04572e-05 -6.56525e-05 -2.99619e-06
-4.99006e-06 -2.99619e-06 -9.27987e-05
0.000915692 5.15708e-06 -2.41691e-06
5.15708e-06 1.27408e-05 -1.74604e-06
-2.41691e-06 -1.74604e-06 -3.99605e-05
0.00259446 -3.6672e-05 2.40413e-07
-3.6672e-05 0.000852658 -8.39962e-08
2.40413e-07 -8.39962e-08 0.00086576
0.000841945 -2.12264e-05 1.17356e-07
-2.12264e-05 -3.76593e-05 -2.94397e-08
1.17356e-07 -2.94397e-08 -5.01736e-05
0.00123916 2.0577e-06 4.86207e-06
2.0577e-06 0.000197428 1.50808e-07
4.86207e-06 1.50808e-07 0.000163146
0.00119851 -1.36371e-05 4.06477e-06
-1.36371e-05 0.000182864 4.1213e-07
4.06477e-06 4.1213e-07 0.00015448
0.000984577 2.39903e-05 4.48229e-08
2.39903e-05 8.36684e-06 -5.08211e-08
4.48229e-08 -5.08211e-08 -4.75011e-05
0.000823655 -2.59878e-05 -4.23041e-08
-2.59878e-05 -2.79319e-05 -2.67056e-08
-4.23041e-08 -2.67056e-08 -4.45483e-05
0.000927587 1.38187e-05 -9.39297e-08
1.38187e-05 1.05715e-05 -2.12954e-08
-9.39297e-08 -2.12954e-08 -4.2151e-05
0.00091982 1.73325e-06 -1.1481e-08
1.73325e-06 1.6475e-05 -7.32668e-08
-1.1481e-08 -7.32668e-08 -3.43412e-05
0.000956156 3.26493e-05 -3.4261e-08
3.26493e-05 4.84549e-06 -1.16482e-07
-3.4261e-08 -1.16482e-07 -5.81948e-05
0.000849446 -2.39106e-05 4.63032e-06
-2.39106e-05 -2.49546e-05 3.3687e-06
4.63032e-06 3.3687e-06 -3.95235e-05
0.000867042 -1.93255e-05 3.82683e-06
-1.93255e-05 -3.13162e-05 3.64668e-06
3.82683e-06 3.64668e-06 -4.20762e-05
0.000953391 1.53686e-06 2.707e-06
1.53686e-06 1.2107e-05 1.99385e-06
2.707e-06 1.99385e-06 -3.16058e-05
0.00102214 2.20555e-05 2.7912e-06
2.20555e-05 6.88762e-06 1.61704e-06
2.7912e-06 1.61704e-06 -5.07702e-05
0.000970139 2.11182e-05 2.55077e-06
2.11182e-05 2.02966e-05 1.68023e-06
2.55077e-06 1.68023e-06 -3.37088e-05
0.00115543 3.83711e-05 1.55086e-06
3.83711e-05 4.91152e-05 1.39464e-06
1.55086e-06 1.39464e-06 -1.65854e-05
0.000941186 4.00258e-07 2.54942e-06
4.00258e-07 1.9358e-05 1.88338e-06
2.54942e-06 1.88338e-06 -2.81127e-05
0.000977429 3.56086e-05 1.12102e-06
3.56086e-05 8.73842e-07 7.12837e-07
1.12102e-06 7.12837e-07 -6.10432e-05
0.00104659 2.94214e-05 1.32305e-06
2.94214e-05 6.18646e-05 6.9817e-07
1.32305e-06 6.9817e-07 -2.11453e-06
0.00113687 4.52565e-05 -2.61043e-08
4.52565e-05 8.75885e-05 -2.60272e-08
-2.61043e-08 -2.60272e-08 1.92559e-05
0.0025147 -2.69941e-05 1.64875e-05
-2.69941e-05 0.000793648 4.17938e-06
1.64875e-05 4.17938e-06 0.000810802
0.00256809 -3.03081e-05 3.07813e-07
-3.03081e-05 0.000824953 -7.01312e-08
3.07813e-07 -7.01312e-08 0.000840912
0.0026263 -3.36798e-05 -1.82074e-05
-3.36798e-05 0.000859314 -3.97132e-06
-1.82074e-05 -3.97132e-06 0.00087397
0.000819591 2.02018e-05 3.94343e-06
2.02018e-05 -4.82126e-05 -3.78423e-06
3.94343e-06 -3.78423e-06 -6.12999e-05
0.00269628 3.68803e-05 1.90692e-05
3.68803e-05 0.000901925 -3.83755e-06
1.90692e-05 -3.83755e-06 0.000914688
0.00332278 -6.02218e-05 -2.68221e-05
-6.02218e-05 0.00129917 -1.95173e-06
-2.68221e-05 -1.95173e-06 0.00129216
0.00351255 -6.51851e-05 -3.02992e-05
-6.51851e-05 0.00140121 -1.06624e-06
-3.02992e-05 -1.06624e-06 0.0013923
0.000711926 5.69074e-06 -6.04777e-06
5.69074e-06 -7.13929e-05 -2.27365e-06
-6.04777e-06 -2.27365e-06 -0.000109914
0.00070848 4.71495e-06 -6.75081e-06
4.71495e-06 -8.52007e-05 -1.73118e-06
-6.75081e-06 -1.73118e-06 -0.000124185
0.00378933 -5.50436e-05 -3.48425e-05
-5.50436e-05 0.00153173 -1.93665e-07
-3.48425e-05 -1.93665e-07 0.00152328
0.00387147 1.45369e-05 -8.69804e-07
1.45369e-05 0.00157093 1.55319e-07
-8.69804e-07 1.55319e-07 0.00156224
0.000715209 -2.15305e-06 1.85091e-09
-2.15305e-06 -9.05723e-05 -1.52737e-07
1.85091e-09 -1.52737e-07 -0.000129787
0.00127149 -1.54583e-05 6.73668e-06
-1.54583e-05 0.000203375 -2.22274e-08
6.73668e-06 -2.22274e-08 0.000167527
0.0011232 2.66805e-07 1.31028e-07
2.66805e-07 5.14494e-06 8.05704e-09
1.31028e-07 8.05704e-09 -5.70045e-05
0.000719423 5.3828e-06 3.33573e-08
5.3828e-06 -6.55393e-05 -1.28224e-07
3.33573e-08 -1.28224e-07 -0.000103832
0.00110175 1.54881e-05 4.45472e-08
1.54881e-05 1.69879e-05 -6.34686e-08
4.45472e-08 -6.34686e-08 -4.31646e-05
0.000696181 -1.28992e-06 7.40441e-06
-1.28992e-06 -0.000102589 -4.05583e-07
7.40441e-06 -4.05583e-07 -0.000141766
0.00113494 -2.53348e-06 4.52267e-06
-2.53348e-06 -5.55504e-07 7.04033e-07
4.52267e-06 7.04033e-07 -6.43528e-05
0.00110475 6.98246e-06 3.75515e-06
6.98246e-06 7.59981e-06 1.41411e-06
3.75515e-06 1.41411e-06 -5.32863e-05
0.00128797 -3.07587e-06 2.47107e-06
-3.07587e-06 3.689e-05 8.84424e-07
2.47107e-06 8.84424e-07 -3.51746e-05
0.0010617 1.89764e-05 3.0309e-06
1.89764e-05 9.77686e-06 1.59928e-06
3.0309e-06 1.59928e-06 -4.93331e-05
0.00125964 1.67417e-05 1.86012e-06
1.67417e-05 4.53696e-05 9.06938e-07
1.86012e-06 9.06938e-07 -2.2984e-05
0.00385697 6.77648e-05 -3.93736e-05
6.77648e-05 0.00156559 -1.90964e-07
-3.93736e-05 -1.90964e-07 0.00155628
0.00133161 3.93076e-05 -7.14214e-06
3.93076e-05 0.000309656 9.51613e-07
-7.14214e-06 9.51613e-07 0.000288232
0.000215678 7.2708e-06 -9.02312e-06
7.2708e-06 -0.000333315 1.92473e-06
-9.02312e-06 1.92473e-06 -0.000375868
0.00136383 7.45619e-06 -1.74056e-05
7.45619e-06 0.000244627 2.09217e-06
-1.74056e-05 2.09217e-06 0.000208261
0.00261163 4.59225e-05 -7.99138e-06
4.59225e-05 0.000880837 1.40289e-06
-7.99138e-06 1.40289e-06 0.000889903
0.00158904 3.7736e-05 -1.08265e-05
3.7736e-05 0.000373896 3.35775e-06
-1.08265e-05 3.35775e-06 0.000354542
0.00128952 8.95786e-06 -1.46739e-05
8.95786e-06 0.000219463 2.75373e-06
-1.46739e-05 2.75373e-06 0.000185663
0.0013163 -2.3045e-05 -5.11459e-06
-2.3045e-05 0.000128677 1.91365e-06
-5.11459e-06 1.91365e-06 6.91997e-05
0.00151208 -2.44295e-05 -3.72864e-06
-2.44295e-05 0.000265499 1.68771e-06
-3.72864e-06 1.68771e-06 0.000211222
0.0014776 -1.4944e-05 -4.0357e-06
-1.4944e-05 0.000281879 2.5136e-06
-4.0357e-06 2.5136e-06 0.000229471
0.00111129 -3.71123e-05 -1.67026e-06
-3.71123e-05 4.18276e-05 1.11335e-06
-1.67026e-06 1.11335e-06 -2.33561e-05
0.000724999 7.52903e-06 -7.98362e-08
7.52903e-06 -8.38677e-05 -1.37448e-07
-7.98362e-08 -1.37448e-07 -0.00012315
0.00134949 1.75146e-05 -5.06961e-06
1.75146e-05 0.000237631 1.12039e-07
-5.06961e-06 1.12039e-07 0.000201299
0.00116475 1.38906e-05 -8.02198e-07
1.38906e-05 2.39574e-05 9.06355e-08
-8.02198e-07 9.06355e-08 -3.77856e-05
0.00150152 -1.95914e-05 -8.1056e-07
-1.95914e-05 0.000205807 6.53292e-08
-8.1056e-07 6.53292e-08 0.0001465
0.00264572 3.98795e-05 -1.93522e-07
3.98795e-05 0.000886574 -8.39748e-08
-1.93522e-07 -8.39748e-08 0.000897751
0.00118871 3.23744e-05 7.69267e-07
3.23744e-05 0.000164622 1.77008e-08
7.69267e-07 1.77008e-08 0.000146631
0.00113734 -2.59941e-06 1.21159e-07
-2.59941e-06 0.000125933 -2.51555e-08
1.21159e-07 -2.51555e-08 7.47047e-05
0.00128158 -2.25217e-05 -6.1098e-07
-2.25217e-05 0.000133343 1.27633e-07
-6.1098e-07 1.27633e-07 7.62554e-05
0.00131128 -3.31384e-05 -6.3268e-07
-3.31384e-05 7.4975e-05 3.18964e-07
-6.3268e-07 3.18964e-07 5.86704e-06
0.00102612 -3.70096e-05 -1.11647e-07
-3.70096e-05 2.26257e-05 -1.02078e-07
-1.11647e-07 -1.02078e-07 -4.37877e-05
0.00128054 -3.72268e-05 3.44544e-08
-3.72268e-05 0.000105693 7.84274e-08
3.44544e-08 7.84274e-08 4.12673e-05
0.00119548 -4.49713e-05 1.02086e-07
-4.49713e-05 5.84842e-05 1.01517e-08
1.02086e-07 1.01517e-08 -1.09658e-05
0.000817616 2.29284e-05 -8.17351e-08
2.29284e-05 -4.13795e-05 -5.35871e-08
-8.17351e-08 -5.35871e-08 -5.66402e-05
0.000950801 -3.97335e-06 -1.3967e-07
-3.97335e-06 1.09845e-05 -6.77036e-08
-1.3967e-07 -6.77036e-08 -3.45283e-05
0.0011375 7.76361e-06 4.43588e-06
7.76361e-06 2.44195e-06 -5.70301e-07
4.43588e-06 -5.70301e-07 -6.0397e-05
0.00139532 2.1101e-06 3.46578e-06
2.1101e-06 0.000144887 -8.67813e-07
3.46578e-06 -8.67813e-07 8.52301e-05
0.00160095 1.12152e-05 1.94101e-06
1.12152e-05 0.000187593 -5.63982e-08
1.94101e-06 -5.63982e-08 0.000117402
0.00112978 -2.22502e-05 2.6681e-06
-2.22502e-05 -3.33359e-05 -8.7793e-07
2.6681e-06 -8.7793e-07 -0.000104178
0.00128743 -3.60189e-05 1.43169e-06
-3.60189e-05 9.22194e-05 -1.05577e-06
1.43169e-06 -1.05577e-06 2.66743e-05
0.00150999 -3.60018e-05 8.93292e-07
-3.60018e-05 0.000144491 -5.40597e-07
8.93292e-07 -5.40597e-07 7.3354e-05
0.000768641 2.48987e-05 4.65995e-06
2.48987e-05 -5.63875e-05 -3.41922e-06
4.65995e-06 -3.41922e-06 -7.35192e-05
0.00123308 -4.19377e-05 1.17795e-06
-4.19377e-05 5.49327e-05 -7.96927e-07
1.17795e-06 -7.96927e-07 -1.29514e-05
0.000896217 -3.03128e-07 2.54529e-06
-3.03128e-07 6.43311e-06 -1.81799e-06
2.54529e-06 -1.81799e-06 -4.41331e-05
0.000814478 -3.08914e-05 1.68421e-06
-3.08914e-05 -5.96615e-05 -1.72872e-06
1.68421e-06 -1.72872e-06 -0.0001252
0.00147276 -5.36382e-05 1.07124e-06
-5.36382e-05 0.000220049 -1.13025e-06
1.07124e-06 -1.13025e-06 0.000148082
0.00131249 -4.91082e-05 1.07281e-06
-4.91082e-05 0.000100611 -2.02321e-07
1.07281e-06 -2.02321e-07 3.10555e-05
0.00093397 -2.63573e-06 3.02872e-06
-2.63573e-06 8.42685e-06 -2.17536e-06
3.02872e-06 -2.17536e-06 -3.87472e-05
0.000958191 -3.60793e-06 2.23268e-06
-3.60793e-06 1.25988e-05 -2.59837e-06
2.23268e-06 -2.59837e-06 -3.02841e-05
0.00104693 -2.66664e-05 1.66127e-06
-2.66664e-05 5.52533e-05 -1.17936e-06
1.66127e-06 -1.17936e-06 -9.56224e-06
0.000718086 6.17765e-06 -5.72944e-06
6.17765e-06 -5.93516e-05 -2.69606e-06
-5.72944e-06 -2.69606e-06 -9.69252e-05
0.00263749 -3.68434e-05 -1.89091e-05
-3.68434e-05 0.000872596 -3.81971e-06
-1.89091e-05 -3.81971e-06 0.000885778
0.000825778 -2.0863e-05 -4.06635e-06
-2.0863e-05 -4.62362e-05 -3.65252e-06
-4.06635e-06 -3.65252e-06 -5.85779e-05
0.000694412 -1.17572e-05 -5.0996e-06
-1.17572e-05 -6.49146e-05 -2.87052e-06
-5.0996e-06 -2.87052e-06 -9.61049e-05
0.000976484 2.46336e-05 -2.57147e-06
2.46336e-05 4.01559e-06 -1.78853e-06
-2.57147e-06 -1.78853e-06 -5.17577e-05
0.000766973 -2.50046e-05 -4.71378e-06
-2.50046e-05 -5.59387e-05 -3.3352e-06
-4.71378e-06 -3.3352e-06 -7.24256e-05
0.000912369 -5.16395e-07 -2.38281e-06
-5.16395e-07 1.4715e-05 -1.99273e-06
-2.38281e-06 -1.99273e-06 -3.6351e-05
0.000912695 1.30384e-05 -2.41946e-06
1.30384e-05 3.81051e-06 -1.321e-06
-2.41946e-06 -1.321e-06 -4.89521e-05
0.000922579 3.22841e-05 -1.39564e-06
3.22841e-05 -1.26072e-05 -6.90197e-07
-1.39564e-06 -6.90197e-07 -7.58308e-05
0.000826443 -2.34112e-05 8.06624e-08
-2.34112e-05 -3.68089e-05 -4.97591e-08
8.06624e-08 -4.97591e-08 -5.1212e-05
0.000854127 -1.90362e-05 1.23989e-07
-1.90362e-05 -3.81746e-05 -8.56117e-09
1.23989e-07 -8.56117e-09 -4.87702e-05
0.000948915 1.85747e-06 8.41145e-08
1.85747e-06 1.0532e-05 -4.16528e-08
8.41145e-08 -4.16528e-08 -3.32975e-05
0.00102902 2.28439e-05 7.12932e-08
2.28439e-05 9.77373e-06 -2.04297e-08
7.12932e-08 -2.04297e-08 -4.78158e-05
0.000947477 2.08033e-05 -3.3963e-08
2.08033e-05 9.3935e-06 2.28888e-08
-3.3963e-08 2.28888e-08 -4.45322e-05
0.00114517 3.84816e-05 8.17342e-08
3.84816e-05 4.44979e-05 3.67048e-08
8.17342e-08 3.67048e-08 -2.12389e-05
0.00092905 -7.93021e-07 -1.228e-07
-7.93021e-07 1.50256e-05 4.25755e-08
-1.228e-07 4.25755e-08 -3.26276e-05
0.00104276 3.71761e-05 -2.0286e-08
3.71761e-05 3.33997e-05 -3.83566e-08
-2.0286e-08 -3.83566e-08 -2.82101e-05
0.00103859 2.97139e-05 6.40186e-08
2.97139e-05 5.8048e-05 -1.61187e-07
6.40186e-08 -1.61187e-07 -6.00192e-06
0.00105296 4.38703e-05 -5.03895e-07
4.38703e-05 4.58907e-05 1.79361e-07
-5.03895e-07 1.79361e-07 -2.27972e-05
0.000873986 -1.71099e-05 3.35676e-06
-1.71099e-05 -3.28188e-05 3.66495e-06
3.35676e-06 3.66495e-06 -4.16986e-05
0.000945648 2.24391e-07 2.76943e-06
2.24391e-07 1.36454e-05 1.81026e-06
2.76943e-06 1.81026e-06 -3.15219e-05
0.000958837 2.88743e-06 2.48093e-06
2.88743e-06 1.07629e-05 2.17718e-06
2.48093e-06 2.17718e-06 -3.11579e-05
0.00103801 1.83286e-05 1.5396e-06
1.83286e-05 5.10894e-05 7.74728e-07
1.5396e-06 7.74728e-07 -1.03084e-05
0.00116801 3.15056e-05 1.87218e-06
3.15056e-05 3.23328e-05 1.22665e-06
1.87218e-06 1.22665e-06 -3.44055e-05
0.00112301 4.01742e-05 1.32615e-06
4.01742e-05 5.75489e-05 1.3505e-06
1.32615e-06 1.3505e-06 -5.82008e-06
0.00121848 4.32088e-05 8.7307e-07
4.32088e-05 5.82329e-05 1.49926e-06
8.7307e-07 1.49926e-06 -1.26323e-05
0.00105556 2.58962e-05 1.31058e-06
2.58962e-05 6.56094e-05 9.61368e-07
1.31058e-06 9.61368e-07 2.98311e-06
0.00111618 4.48989e-05 2.63769e-07
4.48989e-05 5.73506e-05 7.21488e-07
2.63769e-07 7.21488e-07 -9.29215e-06
0.00108121 4.3877e-05 7.23131e-07
4.3877e-05 7.58855e-05 2.31745e-08
7.23131e-07 2.31745e-08 3.40097e-06
0.00100753 4.50177e-05 2.39911e-07
4.50177e-05 1.46005e-05 1.43755e-07
2.39911e-07 1.43755e-07 -5.72915e-05
0.000957211 -1.56533e-06 1.08802e-06
-1.56533e-06 3.97148e-06 2.20551e-06
1.08802e-06 2.20551e-06 -2.88801e-05
0.000882354 -1.31313e-05 2.42147e-06
-1.31313e-05 -3.5612e-05 3.57671e-06
2.42147e-06 3.57671e-06 -4.11081e-05
0.00248378 -2.38638e-05 1.52103e-05
-2.38638e-05 0.000773786 4.2174e-06
1.52103e-05 4.2174e-06 0.000792072
0.00253706 -2.71169e-05 3.60923e-07
-2.71169e-05 0.000804352 -6.1427e-08
3.60923e-07 -6.1427e-08 0.000821546
0.00259909 -3.04597e-05 -1.72165e-05
-3.04597e-05 0.000839682 -4.06255e-06
-1.72165e-05 -4.06255e-06 0.000855685
0.000834128 1.85986e-05 3.32842e-06
1.85986e-05 -4.56029e-05 -3.71067e-06
3.32842e-06 -3.71067e-06 -5.64232e-05
0.00266029 3.3692e-05 1.81112e-05
3.3692e-05 0.000878058 -3.94697e-06
1.81112e-05 -3.94697e-06 0.000892213
0.000832335 2.06149e-05 -1.78263e-07
2.06149e-05 -4.10539e-05 -3.33333e-08
-1.78263e-07 -3.33333e-08 -5.4362e-05
0.00265043 3.67099e-05 -2.22133e-07
3.67099e-05 0.00088033 -8.26841e-08
-2.22133e-07 -8.26841e-08 0.000893048
0.000712442 9.80111e-06 -5.9226e-06
9.80111e-06 -6.68082e-05 -2.48431e-06
-5.9226e-06 -2.48431e-06 -0.000105299
0.000712422 8.27106e-06 -6.32375e-06
8.27106e-06 -7.5772e-05 -2.08182e-06
-6.32375e-06 -2.08182e-06 -0.00011449
0.00110234 1.44551e-05 -3.33886e-06
1.44551e-05 1.74848e-05 -1.64965e-06
-3.33886e-06 -1.64965e-06 -4.26406e-05
0.00113979 1.0754e-06 -4.05673e-06
1.0754e-06 1.32468e-05 -1.31825e-06
-4.05673e-06 -1.31825e-06 -4.88292e-05
0.000699523 1.00049e-06 -7.2401e-06
1.00049e-06 -9.82438e-05 -9.81519e-07
-7.2401e-06 -9.81519e-07 -0.000137388
0.00388723 3.25751e-05 -3.80365e-05
3.25751e-05 0.00157927 2.40373e-07
-3.80365e-05 2.40373e-07 0.00156997
0.00071175 6.1845e-07 4.61514e-09
6.1845e-07 -9.51246e-05 -1.55669e-07
4.61514e-09 -1.55669e-07 -0.00013436
0.00114891 3.61081e-07 4.27134e-08
3.61081e-07 6.10949e-06 -2.07556e-07
4.27134e-08 -2.07556e-07 -5.75936e-05
0.00111017 5.6292e-06 2.37014e-08
5.6292e-06 1.04984e-05 -6.35097e-09
2.37014e-08 -6.35097e-09 -5.03751e-05
0.00131517 -4.10136e-06 5.71714e-08
-4.10136e-06 4.99011e-05 1.59919e-09
5.71714e-08 1.59919e-09 -2.21908e-05
0.00107067 1.99797e-05 8.85139e-08
1.99797e-05 1.42651e-05 -1.93916e-08
8.85139e-08 -1.93916e-08 -4.48295e-05
0.00126864 1.85783e-05 6.84968e-09
1.85783e-05 4.96574e-05 4.67605e-09
6.84968e-09 4.67605e-09 -1.87174e-05
0.00115079 1.19917e-06 4.63131e-06
1.19917e-06 3.89841e-06 -2.0289e-07
4.63131e-06 -2.0289e-07 -5.9917e-05
0.00132035 1.38644e-06 2.63246e-06
1.38644e-06 4.19387e-05 5.47592e-07
2.63246e-06 5.47592e-07 -3.22983e-05
0.00128375 7.40346e-06 2.19533e-06
7.40346e-06 4.49983e-05 8.97519e-07
2.19533e-06 8.97519e-07 -2.48687e-05
0.00140438 -9.16209e-06 1.66871e-06
-9.16209e-06 7.10144e-05 5.62577e-07
1.66871e-06 5.62577e-07 -3.18924e-06
0.00122505 2.55757e-05 1.62634e-06
2.55757e-05 4.28573e-05 9.24855e-07
1.62634e-06 9.24855e-07 -2.455e-05
0.00133686 1.93152e-05 1.07957e-06
1.93152e-05 5.67097e-05 8.23176e-07
1.07957e-06 8.23176e-07 -1.37526e-05
0.000735788 1.08449e-05 -7.27482e-06
1.08449e-05 -7.82699e-05 1.01878e-06
-7.27482e-06 1.01878e-06 -0.000117855
0.00138282 1.71428e-05 -1.82307e-05
1.71428e-05 0.000252524 1.62447e-06
-1.82307e-05 1.62447e-06 0.000216521
0.000890154 1.28542e-05 -4.73249e-06
1.28542e-05 -0.000113039 8.14287e-07
-4.73249e-06 8.14287e-07 -0.0001763
0.00163934 -2.00941e-05 -4.93523e-06
-2.00941e-05 0.000273563 1.38338e-06
-4.93523e-06 1.38338e-06 0.000214776
0.00259603 3.96388e-05 -1.89302e-05
3.96388e-05 0.000863483 3.53396e-06
-1.89302e-05 3.53396e-06 0.000874565
0.00160033 3.52994e-05 -9.89258e-06
3.52994e-05 0.000370948 2.92735e-06
-9.89258e-06 2.92735e-06 0.000354713
0.00142207 -3.07631e-06 -2.64934e-06
-3.07631e-06 0.000265026 1.91177e-06
-2.64934e-06 1.91177e-06 0.000215227
0.00129142 -2.29587e-05 -3.89147e-06
-2.29587e-05 0.000137989 1.68479e-06
-3.89147e-06 1.68479e-06 8.09729e-05
0.00108437 -3.0595e-05 -2.72416e-06
-3.0595e-05 -3.72221e-05 1.33581e-06
-2.72416e-06 1.33581e-06 -0.000107135
0.00141085 -3.85291e-05 -1.75607e-06
-3.85291e-05 0.000169227 1.10932e-06
-1.75607e-06 1.10932e-06 0.000105247
0.000882001 -3.40243e-05 -1.67015e-06
-3.40243e-05 -4.60522e-05 1.34958e-06
-1.67015e-06 1.34958e-06 -0.000112691
0.00118478 -4.46985e-05 -1.15243e-06
-4.46985e-05 5.37865e-05 8.51019e-07
-1.15243e-06 8.51019e-07 -1.55668e-05
0.000836771 2.35361e-05 -4.49916e-06
2.35361e-05 -3.10414e-05 3.47756e-06
-4.49916e-06 3.47756e-06 -4.65092e-05
0.000947173 -3.45389e-06 -2.82488e-06
-3.45389e-06 8.7814e-06 2.17686e-06
-2.82488e-06 2.17686e-06 -3.65742e-05
0.00102285 1.15456e-05 -8.90759e-08
1.15456e-05 -5.42913e-05 1.95652e-08
-8.90759e-08 1.95652e-08 -0.000117922
0.00139673 -8.35607e-07 -8.18143e-07
-8.35607e-07 0.00014514 8.45263e-08
-8.18143e-07 8.45263e-08 8.55755e-05
0.00148102 1.28014e-05 -7.3458e-07
1.28014e-05 0.000128507 1.3053e-07
-7.3458e-07 1.3053e-07 5.80428e-05
0.00136231 -2.4385e-05 3.39478e-07
-2.4385e-05 8.18886e-05 -2.85257e-07
3.39478e-07 -2.85257e-07 1.19887e-05
0.000801483 2.56774e-05 9.69971e-09
2.56774e-05 -3.96525e-05 -3.84702e-08
9.69971e-09 -3.84702e-08 -5.69816e-05
0.000919432 -2.24049e-06 1.11304e-07
-2.24049e-06 1.59568e-05 -1.61167e-08
1.11304e-07 -1.61167e-08 -3.44007e-05
0.000906338 -3.24763e-05 4.1515e-07
-3.24763e-05 -1.35751e-05 -2.70853e-07
4.1515e-07 -2.70853e-07 -7.85677e-05
0.00137983 -3.69454e-05 -3.88832e-07
-3.69454e-05 0.000136382 1.07132e-07
-3.88832e-07 1.07132e-07 7.08624e-05
0.00135917 -3.33314e-05 -1.95948e-07
-3.33314e-05 7.02717e-05 3.82963e-07
-1.95948e-07 3.82963e-07 -8.21194e-07
0.00125366 -4.94778e-05 -4.27832e-07
-4.94778e-05 0.000113643 1.18637e-07
-4.27832e-07 1.18637e-07 4.10146e-05
0.00123437 -4.18488e-05 7.13664e-08
-4.18488e-05 5.55506e-05 1.07679e-07
7.13664e-08 1.07679e-07 -1.22976e-05
0.00122681 -4.74838e-05 2.99028e-07
-4.74838e-05 5.90605e-05 2.79212e-07
2.99028e-07 2.79212e-07 -1.05488e-05
0.000941285 -2.50276e-06 -4.21178e-09
-2.50276e-06 1.11431e-05 -6.26153e-08
-4.21178e-09 -6.26153e-08 -3.58326e-05
0.000988107 -2.50569e-05 -1.46901e-08
-2.50569e-05 2.46758e-05 -1.37561e-07
-1.46901e-08 -1.37561e-07 -4.0269e-05
0.000951821 -3.19163e-06 -1.55004e-07
-3.19163e-06 9.45461e-06 -4.00756e-09
-1.55004e-07 -4.00756e-09 -3.34155e-05
0.00158886 1.73091e-05 2.14843e-06
1.73091e-05 0.000177571 -5.55506e-08
2.14843e-06 -5.55506e-08 0.000105871
0.00143812 -3.52579e-06 2.46718e-06
-3.52579e-06 0.000108995 -1.94432e-07
2.46718e-06 -1.94432e-07 3.89347e-05
0.00152227 1.57688e-05 2.13849e-06
1.57688e-05 0.000122933 2.38048e-07
2.13849e-06 2.38048e-07 4.80255e-05
0.00137121 -1.90699e-05 1.50448e-06
-1.90699e-05 5.59994e-05 -8.95847e-07
1.50448e-06 -8.95847e-07 -1.70049e-05
0.00112355 -3.77992e-05 1.21027e-06
-3.77992e-05 -1.56205e-05 -1.10481e-06
1.21027e-06 -1.10481e-06 -8.38707e-05
0.00149195 -3.30539e-05 2.72771e-07
-3.30539e-05 0.000118268 -2.37657e-07
2.72771e-07 -2.37657e-07 5.0159e-05
0.00091208 -3.99853e-07 2.85422e-06
-3.99853e-07 6.46763e-06 -1.91119e-06
2.85422e-06 -1.91119e-06 -4.21192e-05
0.00124377 -4.37721e-05 7.18849e-07
-4.37721e-05 4.58201e-05 -6.85523e-07
7.18849e-07 -6.85523e-07 -2.11042e-05
0.00101589 -3.05035e-05 1.20735e-06
-3.05035e-05 4.60619e-05 -8.91256e-07
1.20735e-06 -8.91256e-07 -1.68964e-05
0.000889259 -4.31327e-05 1.54201e-06
-4.31327e-05 -3.42229e-05 -2.01132e-06
1.54201e-06 -2.01132e-06 -0.000107709
0.00133746 -5.40668e-05 1.78175e-06
-5.40668e-05 0.00014136 -6.17873e-07
1.78175e-06 -6.17873e-07 6.49724e-05
0.00152741 -5.37186e-05 3.60093e-07
-5.37186e-05 0.00019785 4.74409e-07
3.60093e-07 4.74409e-07 0.000130931
0.000958179 1.96111e-06 1.62086e-06
1.96111e-06 1.10738e-05 -2.45631e-06
1.62086e-06 -2.45631e-06 -2.78992e-05
0.00103281 -2.72575e-05 1.74826e-06
-2.72575e-05 4.86077e-05 -8.40427e-07
1.74826e-06 -8.40427e-07 -1.47737e-05
0.00086712 -1.79977e-05 1.80037e-06
-1.79977e-05 -3.26713e-05 -1.97981e-06
1.80037e-06 -1.97981e-06 -9.89083e-05
0.00124162 -4.51136e-05 5.58632e-07
-4.51136e-05 0.000152299 2.2877e-08
5.58632e-07 2.2877e-08 7.94664e-05
0.00103777 2.38715e-05 -2.91156e-06
2.38715e-05 1.35965e-05 -1.77376e-06
-2.91156e-06 -1.77376e-06 -4.3938e-05
0.00084125 -1.87545e-05 -3.58428e-06
-1.87545e-05 -4.50802e-05 -3.70806e-06
-3.58428e-06 -3.70806e-06 -5.55019e-05
0.000803592 -2.29211e-05 -4.49429e-06
-2.29211e-05 -4.86185e-05 -3.49897e-06
-4.49429e-06 -3.49897e-06 -6.28525e-05
0.00094484 2.29846e-06 -2.6674e-06
2.29846e-06 9.18245e-06 -2.16478e-06
-2.6674e-06 -2.16478e-06 -3.47691e-05
0.000926622 2.05557e-05 -2.28642e-06
2.05557e-05 -6.77459e-07 -1.52791e-06
-2.28642e-06 -1.52791e-06 -5.45225e-05
0.00113314 3.84675e-05 -1.51336e-06
3.84675e-05 3.90225e-05 -1.36709e-06
-1.51336e-06 -1.36709e-06 -2.67437e-05
0.000915227 -2.21619e-06 -2.72921e-06
-2.21619e-06 9.9483e-06 -1.87441e-06
-2.72921e-06 -1.87441e-06 -3.78984e-05
0.00103333 2.99385e-05 -1.25288e-06
2.99385e-05 5.55486e-05 -1.00209e-06
-1.25288e-06 -1.00209e-06 -8.57906e-06
0.00111841 3.89197e-05 -1.15368e-06
3.89197e-05 7.08152e-05 -7.89634e-07
-1.15368e-06 -7.89634e-07 9.51456e-06
0.000969717 4.24901e-05 -1.38562e-06
4.24901e-05 4.58975e-06 -2.61452e-07
-1.38562e-06 -2.61452e-07 -6.4464e-05
0.000863608 -1.68844e-05 1.24099e-07
-1.68844e-05 -3.83375e-05 5.55501e-09
1.24099e-07 5.55501e-09 -4.7063e-05
0.000940238 2.98767e-07 2.20812e-08
2.98767e-07 1.20458e-05 -3.25258e-08
2.20812e-08 -3.25258e-08 -3.32991e-05
0.000955458 2.1717e-06 7.69489e-08
2.1717e-06 9.45622e-06 -1.22627e-08
7.69489e-08 -1.22627e-08 -3.25068e-05
0.00102907 1.76203e-05 1.01996e-07
1.76203e-05 4.72261e-05 -9.07175e-08
1.01996e-07 -9.07175e-08 -1.42694e-05
0.00119526 3.21775e-05 3.06456e-07
3.21775e-05 4.51471e-05 1.65257e-07
3.06456e-07 1.65257e-07 -2.1656e-05
0.00109856 4.00699e-05 4.72288e-08
4.00699e-05 4.64392e-05 1.34927e-08
4.72288e-08 1.34927e-08 -1.69055e-05
0.0012104 4.3076e-05 -5.55603e-09
4.3076e-05 5.45546e-05 2.17051e-07
-5.55603e-09 2.17051e-07 -1.63221e-05
0.00103815 2.50766e-05 -9.49087e-08
2.50766e-05 5.79608e-05 3.29041e-08
-9.49087e-08 3.29041e-08 -4.68625e-06
0.00121128 4.66655e-05 -3.01306e-07
4.66655e-05 0.00010433 -3.27743e-07
-3.01306e-07 -3.27743e-07 3.80696e-05
0.00109517 4.45463e-05 1.54206e-07
4.45463e-05 8.23944e-05 -2.97e-07
1.54206e-07 -2.97e-07 9.67497e-06
0.00102473 4.51838e-05 -1.03425e-06
4.51838e-05 2.48918e-05 -8.21395e-09
-1.03425e-06 -8.21395e-09 -4.57982e-05
0.000882447 -1.50465e-05 2.89595e-06
-1.50465e-05 -3.2397e-05 3.63347e-06
2.89595e-06 3.63347e-06 -3.94933e-05
0.000961609 1.93077e-06 2.19423e-06
1.93077e-06 9.3521e-06 2.27727e-06
2.19423e-06 2.27727e-06 -3.04132e-05
0.00104676 2.29626e-05 1.52559e-06
2.29626e-05 5.60519e-05 7.1501e-07
1.52559e-06 7.1501e-07 -5.31649e-06
0.00103528 1.3959e-05 1.3294e-06
1.3959e-05 4.92976e-05 1.034e-06
1.3294e-06 1.034e-06 -1.16212e-05
0.00103544 3.38734e-05 8.83506e-07
3.38734e-05 5.14183e-05 1.04558e-07
8.83506e-07 1.04558e-07 -1.97021e-05
0.00122009 3.25803e-05 1.3327e-06
3.25803e-05 3.31972e-05 1.06097e-06
1.3327e-06 1.06097e-06 -3.74146e-05
0.00116484 4.61822e-05 6.45066e-07
4.61822e-05 6.25343e-05 1.3437e-06
6.45066e-07 1.3437e-06 -6.16911e-06
0.00126025 4.57118e-05 2.15553e-07
4.57118e-05 7.0555e-05 1.53024e-06
2.15553e-07 1.53024e-06 -2.84031e-06
0.00109526 4.15151e-05 1.34027e-06
4.15151e-05 8.4716e-05 1.28455e-06
1.34027e-06 1.28455e-06 1.26176e-05
0.00116836 4.86213e-05 1.00859e-06
4.86213e-05 7.61438e-05 8.53396e-07
1.00859e-06 8.53396e-07 5.7933e-06
0.000851093 4.32003e-05 9.73712e-07
4.32003e-05 -4.61399e-05 -1.32725e-07
9.73712e-07 -1.32725e-07 -0.000126182
0.000956399 5.14872e-07 1.52562e-06
5.14872e-07 4.52808e-06 2.32576e-06
1.52562e-06 2.32576e-06 -3.06051e-05
0.00103006 1.33556e-05 6.12468e-07
1.33556e-05 4.71996e-05 1.39719e-06
6.12468e-07 1.39719e-06 -6.13998e-06
0.000957537 2.02556e-08 7.89974e-07
2.02556e-08 3.28053e-06 2.05996e-06
7.89974e-07 2.05996e-06 -2.77743e-05
0.000959583 1.26217e-07 1.64928e-07
1.26217e-07 5.13653e-06 3.19135e-08
1.64928e-07 3.19135e-08 -2.76765e-05
0.00151809 -1.41857e-05 2.22038e-06
-1.41857e-05 0.000280407 2.15511e-06
2.22038e-06 2.15511e-06 0.000279657
0.0012063 -1.45043e-05 5.86658e-07
-1.45043e-05 0.000126978 3.50429e-09
5.86658e-07 3.50429e-09 0.000123189
0.0011741 -1.49672e-05 1.31128e-05
-1.49672e-05 0.00011211 6.92222e-06
1.31128e-05 6.92222e-06 0.000125133
0.00249396 -2.39692e-05 4.4157e-07
-2.39692e-05 0.000778564 -5.34827e-08
4.4157e-07 -5.34827e-08 0.000796916
0.00255695 -2.72494e-05 -1.59445e-05
-2.72494e-05 0.000813852 -4.11406e-06
-1.59445e-05 -4.11406e-06 0.00083109
0.000849588 1.74062e-05 2.74404e-06
1.74062e-05 -4.15723e-05 -3.5505e-06
2.74404e-06 -3.5505e-06 -4.99426e-05
0.00258457 3.0499e-05 1.67278e-05
3.0499e-05 0.000835593 -3.96584e-06
1.67278e-05 -3.96584e-06 0.000851218
0.000846885 1.88549e-05 -1.65926e-07
1.88549e-05 -3.87821e-05 9.90952e-09
-1.65926e-07 9.90952e-09 -4.98204e-05
0.00263212 3.35044e-05 -2.7218e-07
3.35044e-05 0.000864673 -7.8972e-08
-2.7218e-07 -7.8972e-08 0.000878769
0.000845813 2.10648e-05 -4.18573e-06
2.10648e-05 -3.35896e-05 3.66144e-06
-4.18573e-06 3.66144e-06 -4.71124e-05
0.00260733 3.65849e-05 -1.87351e-05
3.65849e-05 0.000860108 3.75751e-06
-1.87351e-05 3.75751e-06 0.000872769
0.00108374 2.09663e-05 -3.1336e-06
2.09663e-05 2.07246e-05 -1.75209e-06
-3.1336e-06 -1.75209e-06 -3.8354e-05
0.00112059 7.18856e-06 -3.59003e-06
7.18856e-06 1.5692e-05 -1.41952e-06
-3.59003e-06 -1.41952e-06 -4.51373e-05
0.00127441 1.63999e-05 -1.84478e-06
1.63999e-05 5.25467e-05 -9.21341e-07
-1.84478e-06 -9.21341e-07 -1.5832e-05
0.00134236 -4.76517e-06 -2.53108e-06
-4.76517e-06 6.28957e-05 -8.79308e-07
-2.53108e-06 -8.79308e-07 -9.218e-06
0.00115589 2.71668e-06 -4.57953e-06
2.71668e-06 9.52407e-06 -1.05417e-06
-4.57953e-06 -1.05417e-06 -5.41297e-05
0.000720533 1.3566e-06 -7.42677e-06
1.3566e-06 -9.0674e-05 7.75793e-08
-7.42677e-06 7.75793e-08 -0.000129972
0.00115404 3.16035e-06 -2.05369e-08
3.16035e-06 5.25687e-06 -2.23171e-07
-2.05369e-08 -2.23171e-07 -5.86251e-05
0.00133683 2.51347e-06 -1.26488e-08
2.51347e-06 4.9914e-05 -1.29865e-07
-1.26488e-08 -1.29865e-07 -2.43304e-05
0.00129271 3.69704e-06 7.74553e-08
3.69704e-06 4.95594e-05 3.62716e-09
7.74553e-08 3.62716e-09 -2.02861e-05
0.0014048 -9.92727e-06 5.12481e-09
-9.92727e-06 7.00864e-05 2.24511e-08
5.12481e-09 2.24511e-08 -4.22081e-06
0.0012328 2.56657e-05 -4.81078e-08
2.56657e-05 4.64401e-05 -9.02026e-09
-4.81078e-08 -9.02026e-09 -2.10074e-05
0.00134554 1.86421e-05 -7.48129e-09
1.86421e-05 6.11857e-05 1.09383e-07
-7.48129e-09 1.09383e-07 -9.29591e-06
0.00134225 7.66007e-06 2.98479e-06
7.66007e-06 4.95717e-05 -2.20506e-07
2.98479e-06 -2.20506e-07 -2.50366e-05
0.00134731 -2.43662e-06 1.72237e-06
-2.43662e-06 3.75621e-05 6.5558e-07
1.72237e-06 6.5558e-07 -3.88594e-05
0.00135371 6.10702e-06 1.46139e-06
6.10702e-06 5.24177e-05 6.26814e-07
1.46139e-06 6.26814e-07 -1.97947e-05
0.00152389 -1.50512e-05 2.04147e-06
-1.50512e-05 0.000113413 4.55052e-07
2.04147e-06 4.55052e-07 4.03521e-05
0.00129702 2.39484e-05 8.13026e-07
2.39484e-05 5.2776e-05 6.18483e-07
8.13026e-07 6.18483e-07 -1.71269e-05
0.00140425 1.0627e-05 -4.64728e-07
1.0627e-05 7.28402e-05 1.06428e-06
-4.64728e-07 1.06428e-06 6.9684e-06
0.000910369 1.31771e-05 -4.4599e-06
1.31771e-05 -0.00010985 5.40305e-07
-4.4599e-06 5.40305e-07 -0.000174293
0.00139332 -5.86568e-06 -5.11866e-06
-5.86568e-06 0.000142794 1.07355e-06
-5.11866e-06 1.07355e-06 8.34171e-05
0.00136717 1.78911e-05 -3.50868e-06
1.78911e-05 7.25646e-05 2.64951e-07
-3.50868e-06 2.64951e-07 1.75521e-06
0.001593 -2.65385e-05 -2.11219e-06
-2.65385e-05 0.000196199 3.72448e-07
-2.11219e-06 3.72448e-07 0.000127245
0.000833808 2.64039e-05 -4.49117e-06
2.64039e-05 -2.31807e-05 3.28516e-06
-4.49117e-06 3.28516e-06 -4.07038e-05
0.000943351 -4.06682e-06 -2.54113e-06
-4.06682e-06 2.58809e-05 1.81812e-06
-2.54113e-06 1.81812e-06 -2.4277e-05
0.00101266 -3.43991e-05 -9.2959e-07
-3.43991e-05 3.93651e-05 1.08029e-06
-9.2959e-07 1.08029e-06 -2.50877e-05
0.00147667 -3.78983e-05 -2.14841e-06
-3.78983e-05 0.000182687 1.20643e-06
-2.14841e-06 1.20643e-06 0.000117191
0.00120903 -3.0713e-05 -1.47358e-06
-3.0713e-05 -3.63595e-06 1.24444e-06
-1.47358e-06 1.24444e-06 -7.46857e-05
0.00123466 -4.17476e-05 -1.0734e-06
-4.17476e-05 5.56913e-05 1.02093e-06
-1.0734e-06 1.02093e-06 -1.21208e-05
0.00103623 -4.53703e-05 -1.72949e-06
-4.53703e-05 8.02236e-06 1.41232e-06
-1.72949e-06 1.41232e-06 -6.52675e-05
0.00113225 -4.57129e-05 -6.57436e-07
-4.57129e-05 1.3257e-05 5.30843e-07
-6.57436e-07 5.30843e-07 -5.64003e-05
0.000947601 -2.42408e-06 -2.86769e-06
-2.42408e-06 1.33926e-05 1.93289e-06
-2.86769e-06 1.93289e-06 -3.33873e-05
0.000931486 -2.35313e-05 -1.82281e-06
-2.35313e-05 -4.80116e-06 9.22141e-07
-1.82281e-06 9.22141e-07 -6.98801e-05
0.000948171 -2.82196e-06 -2.44706e-06
-2.82196e-06 7.65424e-06 2.40016e-06
-2.44706e-06 2.40016e-06 -3.51935e-05
0.00144696 1.7589e-05 -7.38742e-07
1.7589e-05 0.000107422 2.31253e-07
-7.38742e-07 2.31253e-07 3.48423e-05
0.00143098 -9.02376e-06 -3.05743e-07
-9.02376e-06 0.000104821 1.11222e-08
-3.05743e-07 1.11222e-08 3.49151e-05
0.00141418 1.79407e-05 -3.59435e-07
1.79407e-05 6.9001e-05 7.46806e-08
-3.59435e-07 7.46806e-08 -6.45743e-06
0.00146394 -1.79471e-05 -3.30281e-08
-1.79471e-05 0.000100485 -3.04403e-07
-3.30281e-08 -3.04403e-07 2.77323e-05
0.000929698 -1.19428e-06 7.13173e-08
-1.19428e-06 1.35513e-05 -4.08933e-08
7.13173e-08 -4.08933e-08 -3.48028e-05
0.00104156 -3.10477e-05 5.97684e-08
-3.10477e-05 5.77675e-05 6.12312e-08
5.97684e-08 6.12312e-08 -5.18922e-06
0.000984716 -4.47344e-05 2.49472e-07
-4.47344e-05 1.43251e-05 -3.52185e-07
2.49472e-07 -3.52185e-07 -5.86131e-05
0.00129025 -3.9888e-05 -4.89925e-08
-3.9888e-05 6.5993e-05 -1.5318e-07
-4.89925e-08 -1.5318e-07 -2.18671e-06
0.0013755 -3.19598e-05 3.03851e-07
-3.19598e-05 6.13676e-05 6.56617e-07
3.03851e-07 6.56617e-07 -5.89529e-06
0.00119539 -5.17074e-05 6.95845e-08
-5.17074e-05 7.34695e-05 1.13113e-07
6.95845e-08 1.13113e-07 -3.82941e-06
0.00125351 -4.33971e-05 4.25553e-08
-4.33971e-05 5.04572e-05 1.83152e-07
4.25553e-08 1.83152e-07 -1.63771e-05
0.00138648 -5.10598e-05 4.89296e-07
-5.10598e-05 0.000129266 3.32846e-07
4.89296e-07 3.32846e-07 6.30468e-05
0.00104592 -2.80225e-05 1.03081e-07
-2.80225e-05 5.41665e-05 -8.618e-08
1.03081e-07 -8.618e-08 -9.0315e-06
0.00113814 -4.2987e-05 -3.54273e-07
-4.2987e-05 0.000100055 1.82539e-07
-3.54273e-07 1.82539e-07 2.68656e-05
0.000948149 7.41763e-07 -1.59327e-07
7.41763e-07 6.57122e-06 6.10166e-08
-1.59327e-07 6.10166e-08 -3.25165e-05
0.000890111 -1.76224e-05 3.36053e-07
-1.76224e-05 -2.18234e-05 -4.75567e-07
3.36053e-07 -4.75567e-07 -8.78012e-05
0.00143704 1.86431e-05 2.5619e-06
1.86431e-05 8.11878e-05 7.42033e-08
2.5619e-06 7.42033e-08 4.06163e-06
0.00157568 -1.41911e-06 1.93048e-06
-1.41911e-06 0.000141768 8.05803e-08
1.93048e-06 8.05803e-08 6.76669e-05
0.00143675 2.03123e-05 1.90275e-06
2.03123e-05 6.68907e-05 3.79142e-07
1.90275e-06 3.79142e-07 -1.09002e-05
0.0013512 -1.3789e-05 7.93258e-07
-1.3789e-05 2.79257e-05 -1.42502e-06
7.93258e-07 -1.42502e-06 -4.29538e-05
0.00120116 -3.90375e-05 3.98981e-07
-3.90375e-05 6.33906e-06 -6.12823e-07
3.98981e-07 -6.12823e-07 -5.92512e-05
0.00156184 -3.12318e-05 1.56064e-06
-3.12318e-05 0.000134507 -5.78983e-07
1.56064e-06 -5.78983e-07 7.248e-05
0.00102055 -2.73212e-05 1.40668e-06
-2.73212e-05 4.65271e-05 -7.07246e-07
1.40668e-06 -7.07246e-07 -1.58871e-05
0.00124008 -4.34899e-05 -6.26642e-08
-4.34899e-05 3.52798e-05 -2.9962e-07
-6.26642e-08 -2.9962e-07 -2.59181e-05
0.000873266 -4.0999e-05 8.65537e-07
-4.0999e-05 -2.92553e-05 -1.43626e-06
8.65537e-07 -1.43626e-06 -9.99231e-05
0.00113009 -5.11678e-05 1.76143e-06
-5.11678e-05 7.68145e-05 -1.91371e-06
1.76143e-06 -1.91371e-06 -3.73302e-06
0.00124549 -5.53196e-05 2.17431e-06
-5.53196e-05 8.8526e-05 4.68302e-07
2.17431e-06 4.68302e-07 8.74042e-06
0.00161215 -5.52072e-05 1.2546e-06
-5.52072e-05 0.000229383 -2.53088e-07
1.2546e-06 -2.53088e-07 0.000163825
0.000944738 8.10565e-06 9.57241e-07
8.10565e-06 3.37719e-06 -2.31205e-06
9.57241e-07 -2.31205e-06 -3.22906e-05
0.000824767 -1.28691e-05 1.39235e-06
-1.28691e-05 -5.24095e-05 -2.2649e-06
1.39235e-06 -2.2649e-06 -0.00011629
0.00106964 -4.20273e-05 8.87082e-07
-4.20273e-05 6.37093e-05 -7.08212e-08
8.87082e-07 -7.08212e-08 -6.41391e-06
0.00108903 -4.10146e-05 1.16106e-06
-4.10146e-05 8.33536e-05 -4.82222e-07
1.16106e-06 -4.82222e-07 5.79676e-06
0.00123136 -4.79116e-05 5.96848e-07
-4.79116e-05 0.000142169 3.37363e-07
5.96848e-07 3.37363e-07 6.65079e-05
0.000854789 -1.66671e-05 -3.11124e-06
-1.66671e-05 -4.31098e-05 -3.69159e-06
-3.11124e-06 -3.69159e-06 -5.16824e-05
0.0012134 3.27339e-05 -1.30044e-06
3.27339e-05 5.36709e-05 -9.2695e-07
-1.30044e-06 -9.2695e-07 -1.32053e-05
0.000948569 3.64931e-06 -2.43546e-06
3.64931e-06 6.52565e-06 -2.3073e-06
-2.43546e-06 -2.3073e-06 -3.55292e-05
0.000934312 2.59761e-07 -2.84167e-06
2.59761e-07 1.02221e-05 -1.96613e-06
-2.84167e-06 -1.96613e-06 -3.53027e-05
0.00101946 1.73185e-05 -1.36701e-06
1.73185e-05 4.30234e-05 -9.66056e-07
-1.36701e-06 -9.66056e-07 -1.85724e-05
0.00107391 3.99722e-05 -1.29933e-06
3.99722e-05 3.51971e-05 -1.35723e-06
-1.29933e-06 -1.35723e-06 -2.81192e-05
0.00120207 4.29196e-05 -8.02447e-07
4.29196e-05 5.07582e-05 -1.04771e-06
-8.02447e-07 -1.04771e-06 -2.01301e-05
0.00101962 2.43758e-05 -1.28462e-06
2.43758e-05 4.97584e-05 -7.47443e-07
-1.28462e-06 -7.47443e-07 -1.29e-05
0.00111246 4.52567e-05 -1.04571e-06
4.52567e-05 9.0507e-05 -9.67549e-07
-1.04571e-06 -9.67549e-07 1.75514e-05
0.00130441 4.84079e-05 -1.13445e-06
4.84079e-05 0.000150288 -1.09466e-06
-1.13445e-06 -1.09466e-06 8.44188e-05
0.00103986 4.53035e-05 -2.13909e-06
4.53035e-05 3.40598e-05 1.88999e-07
-2.13909e-06 1.88999e-07 -3.54095e-05
0.000873624 -1.4884e-05 1.35355e-07
-1.4884e-05 -3.70127e-05 1.21055e-08
1.35355e-07 1.21055e-08 -4.39739e-05
0.00095627 3.64838e-06 5.61375e-08
3.64838e-06 6.82226e-06 5.44292e-09
5.61375e-08 5.44292e-09 -3.29868e-05
0.00103721 2.24025e-05 -5.24876e-08
2.24025e-05 5.21988e-05 -4.24444e-08
-5.24876e-08 -4.24444e-08 -9.2629e-06
0.00102476 1.36832e-05 3.59614e-08
1.36832e-05 4.47373e-05 -4.00164e-08
3.59614e-08 -4.00164e-08 -1.63143e-05
0.00100597 3.27987e-05 6.28232e-08
3.27987e-05 3.65692e-05 -1.2815e-07
6.28232e-08 -1.2815e-07 -3.45616e-05
0.00125963 3.35012e-05 4.3812e-07
3.35012e-05 5.15512e-05 2.71563e-07
4.3812e-07 2.71563e-07 -1.91221e-05
0.00115416 4.62073e-05 1.06926e-07
4.62073e-05 5.78165e-05 -6.3257e-08
1.06926e-07 -6.3257e-08 -1.09195e-05
0.00122732 4.61322e-05 4.71121e-07
4.61322e-05 5.44128e-05 3.57683e-07
4.71121e-07 3.57683e-07 -1.92866e-05
0.00108128 4.18849e-05 4.36226e-07
4.18849e-05 7.85583e-05 3.93635e-07
4.36226e-07 3.93635e-07 6.46405e-06
0.00121814 4.91961e-05 8.9026e-08
4.91961e-05 0.000100984 -2.98129e-07
8.9026e-08 -2.98129e-07 3.09952e-05
0.000997113 4.61145e-05 -7.20558e-07
4.61145e-05 2.32003e-05 -4.03455e-07
-7.20558e-07 -4.03455e-07 -5.60826e-05
0.000958496 2.86486e-06 1.97225e-06
2.86486e-06 6.41496e-06 2.34888e-06
1.97225e-06 2.34888e-06 -3.11203e-05
0.00103357 1.3654e-05 1.26636e-06
1.3654e-05 4.73584e-05 1.19615e-06
1.26636e-06 1.19615e-06 -1.2578e-05
0.00102934 3.77013e-05 6.73327e-07
3.77013e-05 4.64825e-05 2.05145e-07
6.73327e-07 2.05145e-07 -2.42047e-05
0.00105977 3.09442e-05 7.22972e-07
3.09442e-05 6.46557e-05 3.42654e-07
7.22972e-07 3.42654e-07 -6.97424e-06
0.00113042 4.27568e-05 4.227e-08
4.27568e-05 9.81538e-05 -3.28074e-07
4.227e-08 -3.28074e-07 2.26792e-05
0.00122843 3.18534e-05 -3.49134e-07
3.18534e-05 2.50043e-05 2.81533e-07
-3.49134e-07 2.81533e-07 -4.60057e-05
0.00118482 5.05242e-05 9.42653e-07
5.05242e-05 6.48799e-05 1.30757e-06
9.42653e-07 1.30757e-06 -7.38476e-06
0.00106598 4.93259e-05 -5.94332e-08
4.93259e-05 -2.16568e-05 7.28511e-07
-5.94332e-08 7.28511e-07 -9.48191e-05
0.00107656 4.72996e-05 7.43786e-07
4.72996e-05 7.5165e-05 1.53707e-06
7.43786e-07 1.53707e-06 -5.33438e-06
0.00118512 5.23022e-05 1.93625e-06
5.23022e-05 9.30638e-05 4.93881e-07
1.93625e-06 4.93881e-07 1.05581e-05
0.000956667 7.25242e-07 1.71413e-07
7.25242e-07 4.50082e-06 3.02488e-08
1.71413e-07 3.02488e-08 -3.05602e-05
0.000866674 9.29461e-06 1.10229e-06
9.29461e-06 -3.62388e-05 1.95038e-06
1.10229e-06 1.95038e-06 -9.37823e-05
0.00093807 9.80296e-06 -5.44925e-08
9.80296e-06 1.08967e-06 4.54844e-08
-5.44925e-08 4.54844e-08 -5.30529e-05
0.00122147 3.08089e-05 2.97688e-07
3.08089e-05 0.00015081 3.34062e-07
2.97688e-07 3.34062e-07 8.38008e-05
0.00100371 9.43331e-06 4.51398e-07
9.43331e-06 3.60343e-05 1.31324e-06
4.51398e-07 1.31324e-06 -1.53927e-05
0.000965775 3.52661e-06 7.074e-07
3.52661e-06 6.59651e-06 1.94453e-06
7.074e-07 1.94453e-06 -2.32638e-05
0.000965221 -2.82486e-07 1.00767e-07
-2.82486e-07 7.21555e-06 1.95328e-08
1.00767e-07 1.95328e-08 -2.38546e-05
0.00151035 -1.18452e-05 1.75619e-06
-1.18452e-05 0.000273337 2.0856e-06
1.75619e-06 2.0856e-06 0.000273933
0.000962465 1.07933e-06 -1.05212e-06
1.07933e-06 6.54138e-06 -2.13422e-06
-1.05212e-06 -2.13422e-06 -2.62328e-05
0.00153645 -1.34261e-05 -2.20854e-06
-1.34261e-05 0.00028956 -1.29152e-06
-2.20854e-06 -1.29152e-06 0.000288907
0.00117513 -1.29576e-05 1.12838e-05
-1.29576e-05 0.000108268 6.77565e-06
1.12838e-05 6.77565e-06 0.000122622
0.00153488 -1.48769e-05 -6.29607e-06
-1.48769e-05 0.000291882 -3.42057e-06
-6.29607e-06 -3.42057e-06 0.000289848
0.00178923 -1.80192e-05 9.2426e-06
-1.80192e-05 0.000421058 2.45794e-06
9.2426e-06 2.45794e-06 0.000437376
0.00250493 -2.40906e-05 -1.43877e-05
-2.40906e-05 0.000783751 -4.13364e-06
-1.43877e-05 -4.13364e-06 0.000802163
0.000862698 1.63079e-05 2.25835e-06
1.63079e-05 -3.90421e-05 -3.35838e-06
2.25835e-06 -3.35838e-06 -4.50587e-05
0.000862807 1.75255e-05 -1.68159e-07
1.75255e-05 -3.49479e-05 3.08075e-08
-1.68159e-07 3.08075e-08 -4.34862e-05
0.0024881 2.74001e-05 1.49724e-05
2.74001e-05 0.000782766 -3.93012e-06
1.49724e-05 -3.93012e-06 0.000799978
0.00257675 3.03438e-05 -3.11223e-07
3.03438e-05 0.000831992 -6.81916e-08
-3.11223e-07 -6.81916e-08 0.000847504
0.000860198 1.91438e-05 -3.63857e-06
1.91438e-05 -3.17415e-05 3.72051e-06
-3.63857e-06 3.72051e-06 -4.29928e-05
0.00260505 3.34099e-05 -1.8345e-05
3.34099e-05 0.000851912 3.96788e-06
-1.8345e-05 3.96788e-06 0.000865928
0.00124316 2.58946e-05 -1.70435e-06
2.58946e-05 5.12653e-05 -9.70683e-07
-1.70435e-06 -9.70683e-07 -1.62258e-05
0.0013032 3.567e-06 -2.12814e-06
3.567e-06 5.47624e-05 -8.98223e-07
-2.12814e-06 -8.98223e-07 -1.50863e-05
0.00135386 1.89296e-05 -1.03591e-06
1.89296e-05 6.54487e-05 -6.24631e-07
-1.03591e-06 -6.24631e-07 -5.05185e-06
0.0013995 -1.07775e-05 -1.75698e-06
-1.07775e-05 6.64036e-05 -5.71449e-07
-1.75698e-06 -5.71449e-07 -8.00652e-06
0.00135768 5.612e-06 -2.7236e-06
5.612e-06 5.99865e-05 -7.85951e-07
-2.7236e-06 -7.85951e-07 -1.42934e-05
0.00115154 7.58067e-06 -4.59558e-06
7.58067e-06 3.81523e-06 -1.6322e-07
-4.59558e-06 -1.6322e-07 -6.00847e-05
0.00134988 1.19187e-05 4.98345e-08
1.19187e-05 5.33486e-05 -2.70625e-07
4.98345e-08 -2.70625e-07 -2.12969e-05
0.00138174 -9.52893e-06 2.88834e-08
-9.52893e-06 5.33514e-05 6.20779e-08
2.88834e-08 6.20779e-08 -2.33853e-05
0.00137115 4.81576e-06 5.73398e-08
4.81576e-06 6.10781e-05 -7.2542e-08
5.73398e-08 -7.2542e-08 -1.11176e-05
0.00150528 -1.58857e-05 1.04355e-07
-1.58857e-05 0.000103878 -1.90051e-07
1.04355e-07 -1.90051e-07 3.07953e-05
0.00130477 2.47032e-05 -3.873e-08
2.47032e-05 5.63492e-05 1.29989e-08
-3.873e-08 1.29989e-08 -1.36788e-05
0.00139525 1.05791e-05 -6.92053e-08
1.05791e-05 6.73196e-05 6.87678e-07
-6.92053e-08 6.87678e-07 1.81223e-06
0.0014196 2.57462e-06 2.30455e-06
2.57462e-06 7.04059e-05 1.66651e-08
2.30455e-06 1.66651e-08 -7.3471e-06
0.00140109 -2.88362e-06 1.88938e-06
-2.88362e-06 5.84938e-05 2.96456e-07
1.88938e-06 2.96456e-07 -1.81922e-05
0.00125545 -1.76232e-06 1.06284e-06
-1.76232e-06 -1.54434e-05 1.60477e-06
1.06284e-06 1.60477e-06 -8.43772e-05
0.00170826 -2.16118e-05 2.01573e-06
-2.16118e-05 0.000195357 4.21461e-07
2.01573e-06 4.21461e-07 0.000122478
0.00127324 2.03623e-05 -3.51342e-07
2.03623e-05 2.36817e-05 7.20557e-08
-3.51342e-07 7.20557e-08 -4.35236e-05
0.00159794 4.48013e-06 6.08487e-07
4.48013e-06 0.000148755 8.37279e-07
6.08487e-07 8.37279e-07 8.88323e-05
0.00129628 1.6993e-05 -3.57003e-06
1.6993e-05 3.29783e-05 4.09583e-07
-3.57003e-06 4.09583e-07 -4.04566e-05
0.0014236 -1.1162e-05 -3.06804e-06
-1.1162e-05 0.000100755 3.23036e-07
-3.06804e-06 3.23036e-07 3.09372e-05
0.0013108 1.80703e-05 -2.70297e-06
1.80703e-05 1.72904e-05 -1.22637e-07
-2.70297e-06 -1.22637e-07 -5.87011e-05
0.00155135 -1.71417e-05 -1.74301e-06
-1.71417e-05 0.000142354 2.55467e-07
-1.74301e-06 2.55467e-07 6.98725e-05
0.000945407 -1.99089e-06 -2.69831e-06
-1.99089e-06 1.97646e-05 1.77574e-06
-2.69831e-06 1.77574e-06 -2.83658e-05
0.00106787 -3.18305e-05 -1.31785e-06
-3.18305e-05 6.97909e-05 1.13519e-06
-1.31785e-06 1.13519e-06 6.82071e-06
0.00106928 -4.608e-05 -8.16593e-07
-4.608e-05 5.77469e-05 1.26108e-06
-8.16593e-07 1.26108e-06 -1.46449e-05
0.00145748 -4.1925e-05 -1.0906e-06
-4.1925e-05 0.00014786 8.09683e-07
-1.0906e-06 8.09683e-07 7.97538e-05
0.00125919 -3.08138e-05 -5.73743e-07
-3.08138e-05 4.5043e-06 1.13955e-06
-5.73743e-07 1.13955e-06 -6.19055e-05
0.00126491 -4.30781e-05 -4.97058e-07
-4.30781e-05 5.59011e-05 1.00134e-06
-4.97058e-07 1.00134e-06 -1.08473e-05
0.00106078 -4.94813e-05 -1.72973e-06
-4.94813e-05 9.13112e-06 1.11497e-06
-1.72973e-06 1.11497e-06 -6.90824e-05
0.00124445 -4.83888e-05 -1.64293e-07
-4.83888e-05 6.00416e-05 -7.51202e-07
-1.64293e-07 -7.51202e-07 -5.46345e-06
0.00105717 -2.87573e-05 -1.60307e-06
-2.87573e-05 5.8798e-05 7.25442e-07
-1.60307e-06 7.25442e-07 -4.21027e-06
0.0010353 -4.0891e-05 -1.61254e-06
-4.0891e-05 4.8097e-05 3.14683e-07
-1.61254e-06 3.14683e-07 -2.54485e-05
0.000936932 3.97777e-07 -2.01451e-06
3.97777e-07 1.45853e-06 2.44337e-06
-2.01451e-06 2.44337e-06 -3.77456e-05
0.000912819 -1.71508e-05 -1.09761e-06
-1.71508e-05 -1.108e-05 1.05933e-06
-1.09761e-06 1.05933e-06 -7.68206e-05
0.00142802 1.89436e-05 -7.49039e-08
1.89436e-05 7.715e-05 5.0099e-08
-7.49039e-08 5.0099e-08 1.03201e-07
0.00155317 7.24964e-07 -2.33496e-07
7.24964e-07 0.000131858 1.24252e-07
-2.33496e-07 1.24252e-07 5.78294e-05
0.00141419 2.04339e-05 -5.82148e-07
2.04339e-05 5.64786e-05 2.73046e-08
-5.82148e-07 2.73046e-08 -2.16309e-05
0.0014111 -1.45398e-05 -2.11465e-07
-1.45398e-05 5.71054e-05 -1.87589e-07
-2.11465e-07 -1.87589e-07 -1.36619e-05
0.00104187 -2.84259e-05 9.75777e-08
-2.84259e-05 5.5913e-05 -2.76751e-08
9.75777e-08 -2.76751e-08 -6.41369e-06
0.000945585 -4.18042e-05 2.70863e-07
-4.18042e-05 6.9275e-06 -1.48881e-07
2.70863e-07 -1.48881e-07 -6.31827e-05
0.00113543 -5.12075e-05 3.32763e-08
-5.12075e-05 8.05407e-05 -1.10395e-07
3.32763e-08 -1.10395e-07 -2.43182e-07
0.00132046 -4.02242e-05 -4.18354e-07
-4.02242e-05 6.41159e-05 -8.11961e-08
-4.18354e-07 -8.11961e-08 -2.05571e-06
0.00139977 -3.0816e-05 4.18417e-07
-3.0816e-05 6.1731e-05 5.15844e-07
4.18417e-07 5.15844e-07 1.20707e-06
0.00125204 -5.52706e-05 -7.7249e-08
-5.52706e-05 9.27655e-05 3.76401e-07
-7.7249e-08 3.76401e-07 1.23825e-05
0.00126314 -4.34552e-05 2.2227e-08
-4.34552e-05 4.71163e-05 3.91072e-07
2.2227e-08 3.91072e-07 -1.40991e-05
0.00135313 -5.09632e-05 5.03128e-07
-5.09632e-05 0.000103333 -1.43115e-06
5.03128e-07 -1.43115e-06 3.97789e-05
0.00108628 -4.22437e-05 1.19541e-07
-4.22437e-05 7.15287e-05 8.74279e-09
1.19541e-07 8.74279e-09 1.43406e-06
0.00116044 -4.64465e-05 -5.57798e-08
-4.64465e-05 0.000106208 6.39737e-08
-5.57798e-08 6.39737e-08 3.06154e-05
0.00110167 -4.14504e-05 -1.00353e-07
-4.14504e-05 8.98651e-05 2.19386e-07
-1.00353e-07 2.19386e-07 1.19858e-05
0.00080137 1.07234e-05 -3.79698e-07
1.07234e-05 -6.81183e-05 3.07151e-08
-3.79698e-07 3.07151e-08 -0.000104855
0.000862768 -1.0945e-05 3.29966e-07
-1.0945e-05 -3.47134e-05 -5.27941e-07
3.29966e-07 -5.27941e-07 -9.79657e-05
0.00149647 2.53721e-05 2.17912e-06
2.53721e-05 9.97556e-05 4.62714e-07
2.17912e-06 4.62714e-07 2.05575e-05
0.00148118 1.434e-05 2.19084e-06
1.434e-05 7.37099e-05 1.9562e-07
2.19084e-06 1.9562e-07 -3.82875e-06
0.0014422 -1.71086e-05 1.7205e-06
-1.71086e-05 5.66591e-05 -2.1362e-06
1.7205e-06 -2.1362e-06 -7.94627e-06
0.00124984 -3.51053e-05 1.0915e-06
-3.51053e-05 5.16829e-06 -1.20661e-06
1.0915e-06 -1.20661e-06 -5.30916e-05
0.0010666 -4.29828e-05 6.2818e-07
-4.29828e-05 6.44457e-05 -3.64723e-07
6.2818e-07 -3.64723e-07 -4.14773e-06
0.00152311 -4.86569e-05 1.143e-06
-4.86569e-05 0.000153337 -5.17707e-07
1.143e-06 -5.17707e-07 9.84506e-05
0.000755738 -4.12675e-05 1.062e-06
-4.12675e-05 -8.4721e-05 -2.27664e-06
1.062e-06 -2.27664e-06 -0.000161636
0.0012028 -5.59948e-05 2.46876e-06
-5.59948e-05 0.000104515 -1.8275e-06
2.46876e-06 -1.8275e-06 1.54827e-05
0.00134871 -5.84149e-05 2.46031e-06
-5.84149e-05 0.000124169 4.91516e-07
2.46031e-06 4.91516e-07 4.26406e-05
0.000691474 1.11949e-05 8.65372e-07
1.11949e-05 -0.000126113 -2.8336e-06
8.65372e-07 -2.8336e-06 -0.000160558
0.00109352 -3.58128e-06 8.33922e-07
-3.58128e-06 8.12662e-05 -1.48969e-06
8.33922e-07 -1.48969e-06 2.36241e-05
0.00103781 -3.88286e-05 8.31943e-07
-3.88286e-05 6.2374e-05 -9.66392e-07
8.31943e-07 -9.66392e-07 -1.43473e-05
0.00109654 -4.51142e-05 5.36358e-07
-4.51142e-05 7.29557e-05 -2.12372e-08
5.36358e-07 -2.12372e-08 5.17208e-07
0.00115502 -4.64119e-05 1.00386e-06
-4.64119e-05 0.00011356 1.74755e-07
1.00386e-06 1.74755e-07 2.88024e-05
0.0010993 -4.63635e-05 3.42247e-07
-4.63635e-05 7.14453e-05 -1.49363e-07
3.42247e-07 -1.49363e-07 -6.46095e-06
0.000866184 -1.4733e-05 -2.62337e-06
-1.4733e-05 -4.09191e-05 -3.63119e-06
-2.62337e-06 -3.63119e-06 -4.77526e-05
0.000955916 2.94887e-06 -2.21256e-06
2.94887e-06 6.67845e-06 -2.40111e-06
-2.21256e-06 -2.40111e-06 -3.31299e-05
0.00129958 3.45145e-05 -5.87588e-07
3.45145e-05 7.00585e-05 -5.56108e-07
-5.87588e-07 -5.56108e-07 -6.74873e-07
0.00101514 1.31265e-05 -1.31603e-06
1.31265e-05 4.06121e-05 -1.15821e-06
-1.31603e-06 -1.15821e-06 -2.05688e-05
0.00102585 2.16873e-05 -1.49702e-06
2.16873e-05 4.7475e-05 -7.19509e-07
-1.49702e-06 -7.19509e-07 -1.40729e-05
0.000975992 3.16037e-05 -5.91147e-07
3.16037e-05 2.1449e-05 -2.354e-07
-5.91147e-07 -2.354e-07 -4.96784e-05
0.00114313 4.61822e-05 -6.32685e-07
4.61822e-05 5.29498e-05 -1.52643e-06
-6.32685e-07 -1.52643e-06 -1.58176e-05
0.00119586 4.64723e-05 -1.44895e-07
4.64723e-05 3.89767e-05 -9.70239e-07
-1.44895e-07 -9.70239e-07 -3.50199e-05
0.0010624 4.21408e-05 -3.5667e-07
4.21408e-05 6.99312e-05 -4.34488e-07
-3.5667e-07 -4.34488e-07 -2.14122e-06
0.00113798 4.88813e-05 -1.23221e-06
4.88813e-05 9.0087e-05 -5.0308e-07
-1.23221e-06 -5.0308e-07 1.15656e-05
0.0012677 4.978e-05 -1.51937e-06
4.978e-05 0.000125828 -9.93608e-07
-1.51937e-06 -9.93608e-07 5.61872e-05
0.000958358 2.67451e-06 1.64494e-07
2.67451e-06 6.17444e-06 1.56924e-08
1.64494e-07 1.56924e-08 -3.13083e-05
0.00102808 1.36265e-05 -1.21045e-08
1.36265e-05 4.50145e-05 -5.63088e-08
-1.21045e-08 -5.63088e-08 -1.50533e-05
0.00105695 3.85506e-05 -1.37967e-07
3.85506e-05 6.05489e-05 -1.31394e-07
-1.37967e-07 -1.31394e-07 -9.69427e-06
0.00106372 3.18964e-05 -8.65814e-08
3.18964e-05 6.70397e-05 -2.04922e-08
-8.65814e-08 -2.04922e-08 -4.81902e-06
0.00106622 4.17563e-05 -3.06561e-07
4.17563e-05 6.68343e-05 -3.55624e-08
-3.06561e-07 -3.55624e-08 -9.03295e-06
0.00127555 3.37941e-05 -3.17266e-07
3.37941e-05 4.85104e-05 -1.11401e-07
-3.17266e-07 -1.11401e-07 -2.29395e-05
0.00118531 5.03e-05 4.63629e-07
5.03e-05 6.41234e-05 -1.08506e-07
4.63629e-07 -1.08506e-07 -8.22758e-06
0.00116577 4.99594e-05 2.17818e-07
4.99594e-05 2.49311e-05 4.21144e-07
2.17818e-07 4.21144e-07 -4.78682e-05
0.000982298 4.5449e-05 3.83055e-07
4.5449e-05 2.90059e-05 5.73242e-07
3.83055e-07 5.73242e-07 -5.18764e-05
0.00120742 5.29198e-05 -1.84099e-08
5.29198e-05 0.000104356 -1.57525e-07
-1.84099e-08 -1.57525e-07 2.04992e-05
0.00103395 1.45195e-05 1.21989e-06
1.45195e-05 4.70272e-05 1.38106e-06
1.21989e-06 1.38106e-06 -1.15261e-05
0.000936038 3.1342e-05 1.26399e-06
3.1342e-05 3.2346e-06 8.10748e-07
1.26399e-06 8.10748e-07 -6.99813e-05
0.00110738 4.71912e-05 2.16169e-08
4.71912e-05 8.47653e-05 2.92092e-07
2.16169e-08 2.92092e-07 7.52449e-06
0.000968569 3.96769e-05 4.175e-07
3.96769e-05 1.82379e-05 -8.11586e-08
4.175e-07 -8.11586e-08 -5.98432e-05
0.00111218 4.55222e-05 -1.37613e-07
4.55222e-05 8.34018e-05 -2.93935e-07
-1.37613e-07 -2.93935e-07 4.57922e-06
0.00124473 3.5356e-05 2.18089e-07
3.5356e-05 5.22946e-06 3.54179e-07
2.18089e-07 3.54179e-07 -5.42631e-05
0.00130493 5.7382e-05 1.19472e-06
5.7382e-05 0.000121955 6.62847e-07
1.19472e-06 6.62847e-07 4.03864e-05
0.000638716 4.62382e-05 8.97249e-07
4.62382e-05 -0.000245461 8.98832e-07
8.97249e-07 8.98832e-07 -0.000319843
0.00138507 5.55755e-05 1.96732e-06
5.55755e-05 0.000216353 2.29951e-06
1.96732e-06 2.29951e-06 0.000129563
0.000639669 4.55665e-05 5.2391e-07
4.55665e-05 -0.000175679 6.94297e-07
5.2391e-07 6.94297e-07 -0.000270604
0.000958404 1.93179e-06 -1.33884e-06
1.93179e-06 5.19598e-06 -2.3121e-06
-1.33884e-06 -2.3121e-06 -2.98108e-05
0.000935584 1.09991e-05 4.28317e-07
1.09991e-05 -1.06223e-06 5.23833e-07
4.28317e-07 5.23833e-07 -5.82962e-05
0.000934177 2.86483e-05 9.13364e-07
2.86483e-05 5.80475e-06 1.15972e-06
9.13364e-07 1.15972e-06 -6.57212e-05
0.000849479 4.08284e-06 -4.43197e-07
4.08284e-06 -4.34761e-05 -1.44458e-06
-4.43197e-07 -1.44458e-06 -9.83571e-05
0.00100563 1.11552e-05 4.73848e-08
1.11552e-05 3.7016e-05 4.64622e-08
4.73848e-08 4.64622e-08 -1.44642e-05
0.001079 2.64061e-05 -2.32951e-07
2.64061e-05 7.90426e-05 -5.53188e-07
-2.32951e-07 -5.53188e-07 1.11013e-05
0.0011811 3.73496e-05 2.44963e-07
3.73496e-05 0.000133904 1.74064e-07
2.44963e-07 1.74064e-07 5.63238e-05
0.000911243 1.08824e-05 3.05099e-07
1.08824e-05 -5.25128e-06 1.37278e-06
3.05099e-07 1.37278e-06 -7.23092e-05
0.000991504 -1.5582e-06 2.53709e-07
-1.5582e-06 3.19151e-05 1.23017e-06
2.53709e-07 1.23017e-06 -1.78715e-05
0.000977 5.93181e-06 6.20255e-07
5.93181e-06 1.1565e-05 1.85775e-06
6.20255e-07 1.85775e-06 -1.76034e-05
0.000971015 -1.35319e-06 -7.40973e-08
-1.35319e-06 9.38855e-06 1.40915e-08
-7.40973e-08 1.40915e-08 -2.04987e-05
0.00150069 -9.28484e-06 1.30894e-06
-9.28484e-06 0.000265359 2.03099e-06
1.30894e-06 2.03099e-06 0.000267134
0.000972114 -1.61217e-07 -6.28919e-07
-1.61217e-07 1.07171e-05 -1.99217e-06
-6.28919e-07 -1.99217e-06 -2.03415e-05
0.00152437 -1.11885e-05 -1.81645e-06
-1.11885e-05 0.000280469 -1.2782e-06
-1.81645e-06 -1.2782e-06 0.000281119
0.00116914 -1.09022e-05 9.22106e-06
-1.09022e-05 0.000101218 6.70398e-06
9.22106e-06 6.70398e-06 0.000116702
0.00155365 -1.28646e-05 -5.77712e-06
-1.28646e-05 0.000298155 -4.65964e-06
-5.77712e-06 -4.65964e-06 0.000297584
0.00111487 -1.36429e-05 3.68552e-06
-1.36429e-05 7.8208e-05 2.57367e-06
3.68552e-06 2.57367e-06 9.26724e-05
0.00239384 -2.30521e-05 -4.724e-06
-2.30521e-05 0.000724797 -1.71966e-06
-4.724e-06 -1.71966e-06 0.000744317
0.000870967 1.47769e-05 1.90653e-06
1.47769e-05 -3.94259e-05 -3.2855e-06
1.90653e-06 -3.2855e-06 -4.34649e-05
0.000877996 1.63287e-05 -1.32489e-07
1.63287e-05 -3.16985e-05 3.99504e-08
-1.32489e-07 3.99504e-08 -3.78215e-05
0.00240474 2.43181e-05 1.31714e-05
2.43181e-05 0.000735888 -3.91712e-06
1.31714e-05 -3.91712e-06 0.000754658
0.000875652 1.76437e-05 -3.1034e-06
1.76437e-05 -2.85143e-05 3.61106e-06
-3.1034e-06 3.61106e-06 -3.72188e-05
0.00249463 2.72436e-05 -4.08872e-07
2.72436e-05 0.000786326 -5.85563e-08
-4.08872e-07 -5.85563e-08 0.000803363
0.00256641 3.02197e-05 -1.74712e-05
3.02197e-05 0.000827203 4.07966e-06
-1.74712e-05 4.07966e-06 0.0008426
0.0013121 2.54063e-05 -1.1239e-06
2.54063e-05 5.97444e-05 -6.78793e-07
-1.1239e-06 -6.78793e-07 -1.04108e-05
0.00139256 2.71289e-06 -1.24676e-06
2.71289e-06 7.16806e-05 -7.63751e-07
-1.24676e-06 -7.63751e-07 -4.97566e-07
0.00138136 1.05393e-05 3.58959e-07
1.05393e-05 5.93134e-05 -4.07655e-07
3.58959e-07 -4.07655e-07 -5.80747e-06
0.00148228 -1.6765e-05 -1.73001e-06
-1.6765e-05 9.2188e-05 -6.14535e-07
-1.73001e-06 -6.14535e-07 1.90916e-05
0.00141595 -1.40011e-05 -1.85253e-06
-1.40011e-05 6.90767e-05 -4.5354e-07
-1.85253e-06 -4.5354e-07 -7.98889e-06
0.00135283 1.50619e-05 -2.74029e-06
1.50619e-05 5.48911e-05 -2.80862e-07
-2.74029e-06 -2.80862e-07 -1.9781e-05
0.00141716 6.01818e-06 2.30915e-08
6.01818e-06 6.90766e-05 -1.18692e-07
2.30915e-08 -1.18692e-07 -8.82439e-06
0.00140425 -6.64767e-06 2.30032e-07
-6.64767e-06 6.02347e-05 -5.12677e-08
2.30032e-07 -5.12677e-08 -1.63658e-05
0.00133031 -3.20477e-06 -1.41288e-07
-3.20477e-06 1.88011e-05 6.87481e-08
-1.41288e-07 6.87481e-08 -5.06636e-05
0.00151903 -2.07672e-05 -2.34252e-07
-2.07672e-05 0.000104597 -3.11741e-07
-2.34252e-07 -3.11741e-07 3.11334e-05
0.00130718 2.08919e-05 -2.54869e-07
2.08919e-05 4.16048e-05 3.39343e-08
-2.54869e-07 3.39343e-08 -2.5905e-05
0.00143496 5.06703e-06 1.36399e-06
5.06703e-06 7.08471e-05 -3.72744e-07
1.36399e-06 -3.72744e-07 1.29944e-05
0.00140657 1.29379e-05 1.45372e-06
1.29379e-05 6.27454e-05 4.24643e-07
1.45372e-06 4.24643e-07 -1.50958e-05
0.0014256 -1.4234e-05 2.13434e-06
-1.4234e-05 7.20227e-05 1.80639e-07
2.13434e-06 1.80639e-07 -3.92478e-06
0.00143671 -1.09551e-05 1.08908e-06
-1.09551e-05 5.86937e-05 1.76598e-06
1.08908e-06 1.76598e-06 -7.33091e-06
0.00140708 1.79553e-05 1.14587e-07
1.79553e-05 6.25911e-05 5.09699e-07
1.14587e-07 5.09699e-07 8.47986e-06
0.0014193 1.9193e-05 -2.13744e-06
1.9193e-05 7.32487e-05 3.08638e-08
-2.13744e-06 3.08638e-08 -3.71551e-06
0.00153537 1.21961e-06 -2.64182e-06
1.21961e-06 0.000124146 2.15431e-07
-2.64182e-06 2.15431e-07 5.02032e-05
0.00137508 2.03995e-05 -3.1395e-06
2.03995e-05 3.81904e-05 -1.89622e-07
-3.1395e-06 -1.89622e-07 -4.02448e-05
0.00147285 -1.49839e-05 -1.26788e-06
-1.49839e-05 8.71525e-05 7.32846e-07
-1.26788e-06 7.32846e-07 1.64915e-05
0.00106028 -2.9207e-05 -1.36553e-06
-2.9207e-05 6.38634e-05 7.71151e-07
-1.36553e-06 7.71151e-07 1.64965e-06
0.0010339 -4.29361e-05 -3.28418e-07
-4.29361e-05 5.0675e-05 9.16941e-07
-3.28418e-07 9.16941e-07 -1.88762e-05
0.00113831 -5.12048e-05 -1.39538e-06
-5.12048e-05 8.31033e-05 2.08081e-06
-1.39538e-06 2.08081e-06 2.0824e-06
0.00143889 -4.13655e-05 -9.08509e-07
-4.13655e-05 0.000121462 7.64917e-07
-9.08509e-07 7.64917e-07 5.47142e-05
0.00124472 -3.04509e-05 -6.71277e-07
-3.04509e-05 -7.62828e-06 1.73111e-06
-6.71277e-07 1.73111e-06 -6.66599e-05
0.0012741 -4.32924e-05 -1.88158e-07
-4.32924e-05 5.32593e-05 1.12981e-06
-1.88158e-07 1.12981e-06 -7.97915e-06
0.00125972 -5.52216e-05 -2.0699e-06
-5.52216e-05 9.75613e-05 6.18238e-07
-2.0699e-06 6.18238e-07 1.65794e-05
0.00112506 -4.71571e-05 -1.86533e-06
-4.71571e-05 -7.57472e-06 -3.09057e-06
-1.86533e-06 -3.09057e-06 -6.91863e-05
0.00110261 -4.25623e-05 -7.95657e-07
-4.25623e-05 7.92125e-05 2.15723e-07
-7.95657e-07 2.15723e-07 9.13853e-06
0.00108818 -4.49503e-05 -1.3873e-06
-4.49503e-05 6.95315e-05 -2.06846e-07
-1.3873e-06 -2.06846e-07 -5.98249e-06
0.00111279 -4.17443e-05 -1.23358e-06
-4.17443e-05 9.56472e-05 9.82538e-07
-1.23358e-06 9.82538e-07 1.74554e-05
0.000660802 9.08882e-06 -1.4077e-06
9.08882e-06 -0.000138355 2.3398e-06
-1.4077e-06 2.3398e-06 -0.000176079
0.000905792 -8.90598e-06 -5.78741e-07
-8.90598e-06 -1.46206e-05 1.16971e-06
-5.78741e-07 1.16971e-06 -7.72076e-05
0.00142919 2.40641e-05 9.04847e-08
2.40641e-05 6.67451e-05 -1.89927e-07
9.04847e-08 -1.89927e-07 -1.2468e-05
0.0015131 1.3661e-05 -1.74779e-07
1.3661e-05 9.14793e-05 2.43639e-07
-1.74779e-07 2.43639e-07 1.44272e-05
0.00148418 -1.70715e-05 -5.80506e-07
-1.70715e-05 8.0961e-05 1.83262e-07
-5.80506e-07 1.83262e-07 1.63588e-05
0.00109151 -4.29814e-05 5.2487e-08
-4.29814e-05 7.5749e-05 8.657e-08
5.2487e-08 8.657e-08 7.17353e-06
0.000992882 -4.58966e-05 4.51002e-07
-4.58966e-05 3.02019e-05 -3.4227e-07
4.51002e-07 -3.4227e-07 -4.58919e-05
0.00116856 -5.52521e-05 -6.09103e-08
-5.52521e-05 8.99155e-05 2.39691e-08
-6.09103e-08 2.39691e-08 3.97889e-07
0.00132025 -3.56362e-05 1.92493e-07
-3.56362e-05 3.85954e-05 -3.09689e-07
1.92493e-07 -3.09689e-07 -2.03403e-05
0.00130132 -5.62464e-05 -7.18471e-08
-5.62464e-05 0.000101846 -4.71328e-07
-7.18471e-08 -4.71328e-07 2.25452e-05
0.00131177 -4.7585e-05 -4.91823e-07
-4.7585e-05 5.38219e-05 -5.0268e-07
-4.91823e-07 -5.0268e-07 -1.64952e-06
0.000688481 1.59311e-05 -4.4298e-08
1.59311e-05 -0.0001273 -6.5321e-07
-4.4298e-08 -6.5321e-07 -0.00016149
0.00110906 -4.53939e-05 6.91867e-08
-4.53939e-05 7.91604e-05 1.08135e-07
6.91867e-08 1.08135e-07 6.547e-06
0.0010692 -4.56472e-05 -8.91012e-07
-4.56472e-05 5.68146e-05 -7.33924e-08
-8.91012e-07 -7.33924e-08 -2.01104e-05
0.00116308 -4.64033e-05 -4.24137e-07
-4.64033e-05 0.000117425 3.21022e-07
-4.24137e-07 3.21022e-07 3.2913e-05
0.00113589 -4.00213e-05 -1.28576e-07
-4.00213e-05 0.000110828 6.22744e-08
-1.28576e-07 6.22744e-08 3.43207e-05
0.000976388 -6.05376e-06 1.51032e-07
-6.05376e-06 2.16349e-05 2.25729e-07
1.51032e-07 2.25729e-07 -3.66837e-05
0.00155134 2.75331e-05 2.23099e-06
2.75331e-05 0.000119068 1.24919e-06
2.23099e-06 1.24919e-06 3.95687e-05
0.00152179 1.39364e-05 2.52278e-06
1.39364e-05 7.95995e-05 -3.27778e-07
2.52278e-06 -3.27778e-07 3.61445e-06
0.00128131 -2.1979e-05 2.12258e-06
-2.1979e-05 -2.73272e-05 -2.63379e-06
2.12258e-06 -2.63379e-06 -8.44601e-05
0.00153452 -4.24974e-05 1.75962e-06
-4.24974e-05 0.000112009 -1.57295e-06
1.75962e-06 -1.57295e-06 6.39683e-05
0.0010922 -4.60665e-05 5.8318e-07
-4.60665e-05 7.44092e-05 -7.77463e-07
5.8318e-07 -7.77463e-07 1.75588e-06
0.00136801 -5.62171e-05 3.07177e-06
-5.62171e-05 9.35521e-05 7.77122e-07
3.07177e-06 7.77122e-07 2.49179e-05
0.000882943 -4.74216e-05 1.33961e-06
-4.74216e-05 -2.70618e-05 -2.79527e-06
1.33961e-06 -2.79527e-06 -0.000114618
0.00142954 -6.32781e-05 2.16123e-06
-6.32781e-05 0.000207004 -1.01054e-06
2.16123e-06 -1.01054e-06 0.000110831
0.000703799 1.18406e-05 6.28956e-07
1.18406e-05 -0.000121965 -2.54512e-06
6.28956e-07 -2.54512e-06 -0.000153741
0.0011116 -5.2404e-07 7.99634e-07
-5.2404e-07 8.852e-05 -1.54017e-06
7.99634e-07 -1.54017e-06 3.5758e-05
0.00121527 -3.53039e-05 -1.72829e-08
-3.53039e-05 0.000149411 -1.51778e-07
-1.72829e-08 -1.51778e-07 7.74081e-05
0.00106635 -4.26671e-05 7.22856e-07
-4.26671e-05 7.84234e-05 -1.30553e-06
7.22856e-07 -1.30553e-06 -1.06017e-05
0.00104497 -4.5949e-05 3.31317e-07
-4.5949e-05 4.7036e-05 -6.60061e-07
3.31317e-07 -6.60061e-07 -2.95939e-05
0.00109849 -4.67556e-05 1.25832e-06
-4.67556e-05 7.68298e-05 1.50273e-07
1.25832e-06 1.50273e-07 -8.53863e-06
0.000955564 2.51961e-06 -1.76956e-06
2.51961e-06 4.56125e-06 -2.42359e-06
-1.76956e-06 -2.42359e-06 -3.28554e-05
0.00102292 1.36247e-05 -1.2998e-06
1.36247e-05 4.28544e-05 -1.33978e-06
-1.2998e-06 -1.33978e-06 -1.73466e-05
0.00132163 3.58283e-05 -4.05636e-07
3.58283e-05 7.15792e-05 -5.74274e-07
-4.05636e-07 -5.74274e-07 -3.22987e-07
0.00106816 3.21798e-05 -9.75077e-07
3.21798e-05 6.96015e-05 -4.34264e-07
-9.75077e-07 -4.34264e-07 -2.43971e-06
0.00108633 3.94875e-05 -6.26296e-07
3.94875e-05 7.55719e-05 -2.83857e-07
-6.26296e-07 -2.83857e-07 5.75618e-06
0.00100645 4.09158e-05 -6.04283e-07
4.09158e-05 3.77633e-05 -1.50839e-07
-6.04283e-07 -1.50839e-07 -3.85194e-05
0.00118763 5.01209e-05 -7.57125e-07
5.01209e-05 6.42276e-05 -1.62829e-06
-7.57125e-07 -1.62829e-06 -8.21071e-06
0.0012746 5.0815e-05 -2.28132e-07
5.0815e-05 7.5902e-05 -6.77954e-07
-2.28132e-07 -6.77954e-07 3.44377e-06
0.000890725 4.36902e-05 -3.02063e-07
4.36902e-05 -1.58381e-05 -4.81647e-07
-3.02063e-07 -4.81647e-07 -9.71104e-05
0.00123998 5.37658e-05 -1.2685e-06
5.37658e-05 0.000120889 -8.15668e-07
-1.2685e-06 -8.15668e-07 3.56384e-05
0.00102826 1.43522e-05 6.91469e-08
1.43522e-05 4.46459e-05 -4.7422e-08
6.91469e-08 -4.7422e-08 -1.40084e-05
0.00101792 3.34018e-05 4.05738e-07
3.34018e-05 4.41119e-05 2.33736e-07
4.05738e-07 2.33736e-07 -2.89578e-05
0.00114894 4.79677e-05 -1.76592e-07
4.79677e-05 0.000106035 -3.97147e-07
-1.76592e-07 -3.97147e-07 2.9419e-05
0.00103811 4.04171e-05 -2.88907e-07
4.04171e-05 5.35201e-05 1.05058e-08
-2.88907e-07 1.05058e-08 -2.41388e-05
0.00107616 4.48407e-05 -7.17964e-07
4.48407e-05 6.8435e-05 -3.67572e-07
-7.17964e-07 -3.67572e-07 -9.95432e-06
0.00149166 3.6863e-05 -3.70783e-07
3.6863e-05 0.000125665 -3.98214e-07
-3.70783e-07 -3.98214e-07 6.65333e-05
0.0013582 5.81855e-05 7.2372e-07
5.81855e-05 0.000145491 3.2408e-08
7.2372e-07 3.2408e-08 6.47042e-05
0.000957241 5.0451e-05 -6.00617e-07
5.0451e-05 -8.46122e-05 6.06375e-07
-6.00617e-07 6.06375e-07 -0.000157327
0.00123767 5.26917e-05 8.92919e-07
5.26917e-05 0.000145279 7.68428e-07
8.92919e-07 7.68428e-07 5.7811e-05
0.000931489 5.12025e-05 -1.36005e-06
5.12025e-05 -3.33996e-05 -3.52555e-07
-1.36005e-06 -3.52555e-07 -0.000129437
0.000947194 3.39871e-05 1.17114e-06
3.39871e-05 1.06923e-05 1.08538e-06
1.17114e-06 1.08538e-06 -6.24972e-05
0.000982432 4.32155e-05 7.29881e-07
4.32155e-05 2.78608e-05 1.82645e-07
7.29881e-07 1.82645e-07 -5.4518e-05
0.00115301 4.94722e-05 2.29473e-07
4.94722e-05 0.000104559 6.12864e-07
2.29473e-07 6.12864e-07 2.11902e-05
0.000917383 4.29398e-05 9.31907e-07
4.29398e-05 -1.06799e-05 -2.60437e-08
9.31907e-07 -2.60437e-08 -9.33966e-05
0.0017873 2.77865e-05 1.94645e-06
2.77865e-05 0.000187116 1.14634e-06
1.94645e-06 1.14634e-06 0.000140743
0.00111739 4.88897e-05 2.63481e-06
4.88897e-05 -7.21396e-05 1.18101e-06
2.63481e-06 1.18101e-06 -0.000131652
0.00124411 6.13613e-05 1.82738e-06
6.13613e-05 8.4073e-05 -6.14669e-08
1.82738e-06 -6.14669e-08 -9.76417e-06
0.00093101 5.02862e-05 8.63062e-07
5.02862e-05 -4.6547e-06 1.60011e-06
8.63062e-07 1.60011e-06 -0.000108328
0.00100386 1.29877e-05 -3.05058e-07
1.29877e-05 3.38187e-05 -9.93161e-07
-3.05058e-07 -9.93161e-07 -2.31076e-05
0.00101753 3.13198e-05 2.78251e-07
3.13198e-05 4.81562e-05 3.41159e-07
2.78251e-07 3.41159e-07 -2.29889e-05
0.00109456 4.10307e-05 4.58529e-07
4.10307e-05 9.09302e-05 4.0053e-07
4.58529e-07 4.0053e-07 1.1133e-05
0.00100711 1.20845e-05 -4.16075e-07
1.20845e-05 3.77707e-05 -1.31272e-06
-4.16075e-07 -1.31272e-06 -1.37659e-05
0.00093398 2.254e-05 -6.00901e-07
2.254e-05 6.14162e-06 -1.48155e-06
-6.00901e-07 -1.48155e-06 -6.27862e-05
0.000997023 2.1337e-06 2.8219e-07
2.1337e-06 3.46017e-05 3.8687e-08
2.8219e-07 3.8687e-08 -1.52235e-05
0.0010785 3.38292e-05 -1.54329e-07
3.38292e-05 8.23568e-05 -4.26533e-07
-1.54329e-07 -4.26533e-07 4.05211e-06
0.000973869 1.56087e-05 2.40745e-07
1.56087e-05 2.68012e-05 4.46361e-07
2.40745e-07 4.46361e-07 -4.01235e-05
0.00116717 4.16596e-05 4.70206e-07
4.16596e-05 0.000124931 3.30837e-07
4.70206e-07 3.30837e-07 4.02651e-05
0.00094241 1.02336e-05 4.21671e-07
1.02336e-05 1.2864e-05 1.05998e-06
4.21671e-07 1.05998e-06 -6.47642e-05
0.000907184 2.67775e-05 5.38411e-07
2.67775e-05 -5.64294e-06 1.34486e-06
5.38411e-07 1.34486e-06 -7.15762e-05
0.000994318 -1.32853e-05 -1.90563e-07
-1.32853e-05 3.46776e-05 1.16979e-06
-1.90563e-07 1.16979e-06 -1.41811e-05
0.000971676 7.74711e-06 4.60365e-07
7.74711e-06 9.00114e-06 1.76388e-06
4.60365e-07 1.76388e-06 -1.99756e-05
0.00097474 -2.18128e-06 -2.51216e-07
-2.18128e-06 1.05373e-05 2.62272e-08
-2.51216e-07 2.62272e-08 -1.8621e-05
0.00149392 -6.44205e-06 9.16232e-07
-6.44205e-06 0.00025939 1.99475e-06
9.16232e-07 1.99475e-06 0.000261908
0.00097642 -7.18895e-06 -6.43663e-08
-7.18895e-06 1.2237e-05 -1.88949e-06
-6.43663e-08 -1.88949e-06 -1.76624e-05
0.00151487 -8.74975e-06 -1.40171e-06
-8.74975e-06 0.000272697 -1.25615e-06
-1.40171e-06 -1.25615e-06 0.000274459
0.00116112 -8.64875e-06 7.01208e-06
-8.64875e-06 9.32497e-05 6.59662e-06
7.01208e-06 6.59662e-06 0.000109782
0.00153824 -1.07523e-05 -4.40057e-06
-1.07523e-05 0.00028755 -4.59254e-06
-4.40057e-06 -4.59254e-06 0.000288236
0.00111116 -1.1419e-05 2.76029e-06
-1.1419e-05 7.21382e-05 2.54889e-06
2.76029e-06 2.54889e-06 8.77723e-05
0.00105486 -1.39336e-05 -2.14528e-06
-1.39336e-05 4.82555e-05 -1.66694e-06
-2.14528e-06 -1.66694e-06 6.28635e-05
0.000877809 1.29008e-05 1.5724e-06
1.29008e-05 -4.03507e-05 -3.26314e-06
1.5724e-06 -3.26314e-06 -4.27106e-05
0.000888295 1.47939e-05 -9.20153e-08
1.47939e-05 -3.11416e-05 1.73893e-08
-9.20153e-08 1.73893e-08 -3.52479e-05
0.00235258 2.11047e-05 1.15266e-05
2.11047e-05 0.000704319 -3.92685e-06
1.15266e-05 -3.92685e-06 0.000724462
0.00089389 1.63581e-05 -2.5654e-06
1.63581e-05 -2.40475e-05 3.4405e-06
-2.5654e-06 3.4405e-06 -3.02812e-05
0.00241303 2.42121e-05 -4.93327e-07
2.42121e-05 0.000740501 -4.50254e-08
-4.93327e-07 -4.50254e-08 0.000759085
0.00249897 2.71163e-05 -1.61341e-05
2.71163e-05 0.000788802 4.08125e-06
-1.61341e-05 4.08125e-06 0.000805669
0.00134243 2.14831e-05 3.03461e-09
2.14831e-05 6.01211e-05 -5.96329e-08
3.03461e-09 -5.96329e-08 -7.69013e-06
0.00140839 -4.73946e-06 -1.16825e-06
-4.73946e-06 5.46617e-05 -8.14211e-07
-1.16825e-06 -8.14211e-07 -1.53464e-05
0.00129546 5.51847e-06 1.47979e-06
5.51847e-06 4.35574e-06 -2.15401e-06
1.47979e-06 -2.15401e-06 -5.14575e-05
0.00134769 -2.00368e-05 -2.30314e-06
-2.00368e-05 2.25712e-05 -1.22306e-06
-2.30314e-06 -1.22306e-06 -5.15014e-05
0.00140252 -8.98805e-06 -1.6585e-06
-8.98805e-06 5.98217e-05 -4.09117e-07
-1.6585e-06 -4.09117e-07 -1.67558e-05
0.00141639 5.45727e-06 -1.81233e-06
5.45727e-06 6.85454e-05 -3.50363e-07
-1.81233e-06 -3.50363e-07 -9.50264e-06
0.00141654 1.53544e-05 2.28387e-07
1.53544e-05 6.75841e-05 -4.55916e-08
2.28387e-07 -4.55916e-08 -1.02894e-05
0.00141083 -1.78619e-05 -2.19268e-07
-1.78619e-05 6.47094e-05 2.52303e-07
-2.19268e-07 2.52303e-07 -1.11868e-05
0.0014236 -1.03494e-05 5.6397e-07
-1.03494e-05 5.33614e-05 -2.47513e-07
5.6397e-07 -2.47513e-07 -1.23415e-05
0.00135571 1.55566e-05 1.69582e-07
1.55566e-05 3.57111e-05 -3.00524e-07
1.69582e-07 -3.00524e-07 -1.83788e-05
0.00139275 9.61398e-06 1.65464e-06
9.61398e-06 5.91614e-05 1.6515e-07
1.65464e-06 1.6515e-07 -1.82805e-05
0.00155132 -2.75811e-05 2.28258e-06
-2.75811e-05 0.000128494 5.76999e-07
2.28258e-06 5.76999e-07 5.67464e-05
0.00138272 3.26853e-06 9.92605e-07
3.26853e-06 1.79511e-05 2.13853e-06
9.92605e-07 2.13853e-06 -3.82123e-05
0.00136663 2.2923e-05 -2.53669e-06
2.2923e-05 3.59835e-05 -7.63028e-07
-2.53669e-06 -7.63028e-07 -4.32482e-05
0.00154314 1.31524e-05 -2.3037e-06
1.31524e-05 0.000108424 5.63298e-07
-2.3037e-06 5.63298e-07 3.18508e-05
0.00152085 -1.71088e-05 -1.5649e-06
-1.71088e-05 0.000102581 1.73135e-06
-1.5649e-06 1.73135e-06 3.80041e-05
0.00111185 -4.27935e-05 -6.78605e-07
-4.27935e-05 8.4866e-05 6.46153e-07
-6.78605e-07 6.46153e-07 1.63172e-05
0.00123765 -5.06717e-05 -5.1595e-07
-5.06717e-05 0.000148775 1.35242e-06
-5.1595e-07 1.35242e-06 7.34993e-05
0.00113619 -5.45479e-05 -2.05491e-06
-5.45479e-05 7.62546e-05 2.40128e-06
-2.05491e-06 2.40128e-06 -1.37548e-05
0.00138855 -3.62058e-05 -1.07056e-06
-3.62058e-05 7.09323e-05 1.032e-06
-1.07056e-06 1.032e-06 1.13325e-05
0.00111212 -4.65066e-05 -2.19665e-06
-4.65066e-05 -4.02457e-05 2.70587e-07
-2.19665e-06 2.70587e-07 -9.62918e-05
0.00124833 -5.4097e-05 -2.80532e-06
-5.4097e-05 7.67734e-05 -1.27774e-06
-2.80532e-06 -1.27774e-06 -2.82766e-07
0.0011219 -4.56811e-05 -6.4092e-07
-4.56811e-05 8.55469e-05 4.2847e-07
-6.4092e-07 4.2847e-07 1.27555e-05
0.0010361 -4.48769e-05 -2.20752e-06
-4.48769e-05 4.08201e-05 1.11969e-07
-2.20752e-06 1.11969e-07 -3.51308e-05
0.00117033 -4.63832e-05 -1.45826e-06
-4.63832e-05 0.000120907 3.39746e-07
-1.45826e-06 3.39746e-07 3.66423e-05
0.000679614 1.86176e-05 -6.08629e-07
1.86176e-05 -0.000131291 1.43118e-06
-6.08629e-07 1.43118e-06 -0.000165252
0.00123183 -4.1692e-05 -9.08612e-07
-4.1692e-05 0.000158308 1.30623e-06
-9.08612e-07 1.30623e-06 8.19937e-05
0.000856962 -6.14075e-06 -2.85925e-07
-6.14075e-06 -3.88574e-05 1.96461e-06
-2.85925e-07 1.96461e-06 -9.80388e-05
0.00149279 2.72746e-05 -2.80968e-08
2.72746e-05 9.30325e-05 2.22017e-07
-2.80968e-08 2.22017e-07 1.39477e-05
0.00151787 1.25935e-05 4.00656e-07
1.25935e-05 7.53622e-05 9.31127e-08
4.00656e-07 9.31127e-08 -5.62576e-07
0.00135945 -2.21256e-05 -2.33494e-07
-2.21256e-05 1.05756e-05 -2.04003e-07
-2.33494e-07 -2.04003e-07 -4.78795e-05
0.00111696 -4.65707e-05 2.20083e-08
-4.65707e-05 8.58341e-05 2.04186e-07
2.20083e-08 2.04186e-07 1.30568e-05
0.00094407 -4.84894e-05 -1.13539e-07
-4.84894e-05 4.16925e-06 1.2428e-07
-1.13539e-07 1.2428e-07 -8.23204e-05
0.00137837 -6.15997e-05 -9.60377e-07
-6.15997e-05 0.000182463 8.61618e-07
-9.60377e-07 8.61618e-07 8.73037e-05
0.00152174 -4.34086e-05 1.52428e-07
-4.34086e-05 0.000110979 8.5455e-08
1.52428e-07 8.5455e-08 6.29499e-05
0.00127554 -5.46476e-05 1.47312e-07
-5.46476e-05 4.67589e-05 -6.20251e-07
1.47312e-07 -6.20251e-07 -2.16267e-05
0.000828441 1.25932e-05 4.20864e-08
1.25932e-05 -5.96976e-05 -5.96997e-07
4.20864e-08 -5.96997e-07 -9.05006e-05
0.001096 2.64114e-06 -7.25151e-08
2.64114e-06 8.12541e-05 9.32364e-08
-7.25151e-08 9.32364e-08 2.84994e-05
0.0010105 -4.52536e-05 -4.52084e-07
-4.52536e-05 3.07776e-05 3.56057e-07
-4.52084e-07 3.56057e-07 -4.58817e-05
0.00111499 -4.70479e-05 7.8215e-08
-4.70479e-05 8.50869e-05 -6.33439e-08
7.8215e-08 -6.33439e-08 -1.70194e-07
0.00109294 -4.13336e-05 -6.7523e-08
-4.13336e-05 9.23753e-05 -2.50265e-07
-6.7523e-08 -2.50265e-07 4.33782e-06
0.00115677 -3.62227e-05 -5.39621e-07
-3.62227e-05 0.000120085 9.46983e-07
-5.39621e-07 9.46983e-07 4.71279e-05
0.00149203 3.08106e-05 2.50467e-06
3.08106e-05 8.91137e-05 1.63328e-06
2.50467e-06 1.63328e-06 1.24405e-05
0.00158444 5.76376e-06 2.55441e-06
5.76376e-06 9.65543e-05 -1.06544e-06
2.55441e-06 -1.06544e-06 2.64669e-05
0.00143373 -3.20052e-05 1.36018e-06
-3.20052e-05 2.27419e-05 -2.505e-06
1.36018e-06 -2.505e-06 -1.83457e-05
0.00178959 -5.68714e-05 2.54104e-06
-5.68714e-05 0.000235962 -1.18502e-06
2.54104e-06 -1.18502e-06 0.000187021
0.000969744 -4.64228e-05 3.34461e-07
-4.64228e-05 1.67e-05 -1.31739e-06
3.34461e-07 -1.31739e-06 -6.38552e-05
0.00139407 -6.37311e-05 2.69947e-06
-6.37311e-05 0.000162893 1.01156e-06
2.69947e-06 1.01156e-06 6.72493e-05
0.00145804 -6.27142e-05 2.28483e-06
-6.27142e-05 0.000246468 -3.38255e-06
2.28483e-06 -3.38255e-06 0.000149659
0.000967996 9.50707e-06 6.06562e-07
9.50707e-06 7.16039e-06 -1.87206e-06
6.06562e-07 -1.87206e-06 -2.09819e-05
0.00100665 -1.6742e-05 5.77273e-07
-1.6742e-05 3.54287e-05 -1.27098e-06
5.77273e-07 -1.27098e-06 -9.73997e-06
0.000826502 7.04185e-06 2.04213e-07
7.04185e-06 -5.36103e-05 -1.9329e-06
2.04213e-07 -1.9329e-06 -0.000104437
0.00111495 -2.42093e-05 1.11161e-07
-2.42093e-05 9.73606e-05 -7.52953e-07
1.11161e-07 -7.52953e-07 2.83671e-05
0.00100922 -3.65986e-05 2.74644e-07
-3.65986e-05 5.30153e-05 -1.24028e-06
2.74644e-07 -1.24028e-06 -3.16636e-05
0.00112405 -4.55607e-05 1.72456e-06
-4.55607e-05 0.000107514 -6.59456e-08
1.72456e-06 -6.59456e-08 1.22194e-05
0.000884427 -4.45355e-05 8.5488e-07
-4.45355e-05 -2.9047e-05 -7.72694e-07
8.5488e-07 -7.72694e-07 -0.000110277
0.00157911 -5.8128e-05 6.39801e-07
-5.8128e-05 0.00032338 -1.30852e-07
6.39801e-07 -1.30852e-07 0.000230053
0.00101967 1.41619e-05 -1.00819e-06
1.41619e-05 4.08425e-05 -1.48571e-06
-1.00819e-06 -1.48571e-06 -1.79099e-05
0.00109918 3.61845e-05 -6.14926e-07
3.61845e-05 8.4655e-05 -4.11427e-07
-6.14926e-07 -4.11427e-07 1.16921e-05
0.00174535 3.84017e-05 -3.91042e-07
3.84017e-05 0.00024931 -8.80373e-07
-3.91042e-07 -8.80373e-07 0.000190543
0.00111687 4.23263e-05 -9.59844e-07
4.23263e-05 9.32175e-05 3.2953e-08
-9.59844e-07 3.2953e-08 1.591e-05
0.00119068 4.87504e-05 -7.97986e-07
4.87504e-05 0.000127285 -1.08684e-06
-7.97986e-07 -1.08684e-06 5.13071e-05
0.00102233 4.36014e-05 -9.26562e-07
4.36014e-05 4.48039e-05 -4.03662e-07
-9.26562e-07 -4.03662e-07 -3.311e-05
0.00139459 5.86706e-05 -3.87459e-07
5.86706e-05 0.000160661 -8.78587e-07
-3.87459e-07 -8.78587e-07 8.0695e-05
0.00124485 5.42667e-05 -1.03522e-06
5.42667e-05 6.11159e-05 6.99385e-07
-1.03522e-06 6.99385e-07 -9.87516e-06
0.00108659 4.96909e-05 7.66271e-08
4.96909e-05 7.2415e-05 -3.95385e-07
7.66271e-08 -3.95385e-07 -1.57233e-05
0.00115299 5.54294e-05 -3.01173e-06
5.54294e-05 7.4837e-05 -1.21233e-06
-3.01173e-06 -1.21233e-06 -2.22471e-05
0.00094867 3.35962e-05 3.31362e-07
3.35962e-05 1.16919e-05 3.09711e-07
3.31362e-07 3.09711e-07 -6.17151e-05
0.0010544 4.46109e-05 -3.56994e-07
4.46109e-05 6.27487e-05 -4.19917e-07
-3.56994e-07 -4.19917e-07 -1.88218e-05
0.00115654 4.94459e-05 -2.30771e-07
4.94459e-05 0.000107448 -5.76508e-07
-2.30771e-07 -5.76508e-07 2.4812e-05
0.00106793 4.55532e-05 -3.4611e-08
4.55532e-05 6.27928e-05 -2.61088e-07
-3.4611e-08 -2.61088e-07 -1.95172e-05
0.00167313 2.58752e-05 -1.3722e-07
2.58752e-05 0.000132949 -1.05178e-06
-1.3722e-07 -1.05178e-06 8.7464e-05
0.00124996 4.96645e-05 1.25858e-07
4.96645e-05 2.56982e-06 1.176e-07
1.25858e-07 1.176e-07 -5.9045e-05
0.00142715 6.4393e-05 -4.68709e-07
6.4393e-05 0.000172793 -1.27438e-07
-4.68709e-07 -1.27438e-07 8.01831e-05
0.000918367 5.06864e-05 2.07812e-07
5.06864e-05 -1.6476e-05 2.39816e-07
2.07812e-07 2.39816e-07 -0.000119958
0.00111935 4.45951e-05 1.98372e-07
4.45951e-05 0.000102013 1.10937e-07
1.98372e-07 1.10937e-07 2.0489e-05
0.00143867 3.00116e-06 2.9308e-06
3.00116e-06 1.95405e-05 2.64067e-06
2.9308e-06 2.64067e-06 -3.43107e-05
0.00121297 4.94748e-05 9.16507e-07
4.94748e-05 0.000140693 5.53558e-07
9.16507e-07 5.53558e-07 5.31582e-05
0.00114062 5.07515e-05 6.27607e-07
5.07515e-05 0.000102778 9.10279e-07
6.27607e-07 9.10279e-07 1.11218e-05
0.00157542 5.05827e-05 5.4167e-06
5.05827e-05 5.03747e-05 4.94748e-07
5.4167e-06 4.94748e-07 7.3101e-06
0.00129928 6.5664e-05 3.74955e-06
6.5664e-05 5.74467e-05 4.09688e-07
3.74955e-06 4.09688e-07 -3.47218e-05
0.00165076 6.91036e-05 7.61684e-07
6.91036e-05 0.000332875 2.12393e-06
7.61684e-07 2.12393e-06 0.000220767
0.00110064 3.36498e-05 -4.28656e-07
3.36498e-05 9.03205e-05 -4.9903e-07
-4.28656e-07 -4.9903e-07 1.95762e-05
0.00108496 4.09343e-05 -5.37276e-08
4.09343e-05 8.67824e-05 -8.57778e-08
-5.37276e-08 -8.57778e-08 6.98275e-06
0.00109918 4.43725e-05 6.75144e-07
4.43725e-05 9.3759e-05 4.89663e-07
6.75144e-07 4.89663e-07 7.64921e-06
0.00100352 1.04221e-05 -1.65915e-07
1.04221e-05 3.79203e-05 -1.23369e-06
-1.65915e-07 -1.23369e-06 -1.20316e-05
0.0010362 1.98008e-05 5.77704e-08
1.98008e-05 5.85249e-05 -4.9417e-07
5.77704e-08 -4.9417e-07 -8.12187e-06
0.000975119 2.97939e-05 -5.77314e-07
2.97939e-05 3.0397e-05 -1.05073e-06
-5.77314e-07 -1.05073e-06 -4.86138e-05
0.000994305 -9.09701e-06 2.17958e-07
-9.09701e-06 3.47582e-05 3.45228e-08
2.17958e-07 3.45228e-08 -1.42054e-05
0.000900469 1.44129e-05 -9.63179e-08
1.44129e-05 -9.33194e-06 4.35749e-07
-9.63179e-08 4.35749e-07 -7.50638e-05
0.0010839 3.62317e-05 -9.08699e-08
3.62317e-05 8.2997e-05 -3.5955e-07
-9.08699e-08 -3.5955e-07 -2.17283e-06
0.00107223 2.20288e-05 2.19102e-07
2.20288e-05 7.87081e-05 3.39571e-07
2.19102e-07 3.39571e-07 1.61959e-06
0.00121281 4.75979e-05 2.60045e-07
4.75979e-05 0.000140159 1.54508e-07
2.60045e-07 1.54508e-07 5.04084e-05
0.00102571 2.02201e-05 5.22958e-07
2.02201e-05 5.023e-05 7.63686e-07
5.22958e-07 7.63686e-07 -3.49608e-05
0.00108165 3.20624e-05 3.97529e-07
3.20624e-05 8.23717e-05 8.56346e-07
3.97529e-07 8.56346e-07 6.48088e-06
0.00102392 1.70611e-05 5.1318e-07
1.70611e-05 5.54733e-05 9.8527e-07
5.1318e-07 9.8527e-07 -9.24905e-06
0.00100419 -9.87805e-06 -2.37815e-07
-9.87805e-06 3.96639e-05 1.12177e-06
-2.37815e-07 1.12177e-06 -8.93133e-06
0.000965027 1.0095e-05 4.00846e-07
1.0095e-05 6.41179e-06 1.71778e-06
4.00846e-07 1.71778e-06 -2.28823e-05
0.000971893 -6.72197e-07 -2.70447e-07
-6.72197e-07 9.18154e-06 1.6134e-08
-2.70447e-07 1.6134e-08 -1.98022e-05
0.00148758 -3.39282e-06 5.43364e-07
-3.39282e-06 0.000254587 1.95954e-06
5.43364e-07 1.95954e-06 0.000257308
0.000973198 -1.01273e-05 8.72981e-08
-1.01273e-05 9.87162e-06 -1.79386e-06
8.72981e-08 -1.79386e-06 -1.92745e-05
0.00151018 -6.00567e-06 -9.79885e-07
-6.00567e-06 0.000267816 -1.24402e-06
-9.79885e-07 -1.24402e-06 0.000270239
0.00115657 -6.16689e-06 4.82572e-06
-6.16689e-06 8.77083e-05 6.54737e-06
4.82572e-06 6.54737e-06 0.000104879
0.00152783 -8.42989e-06 -3.03546e-06
-8.42989e-06 0.000279431 -4.50621e-06
-3.03546e-06 -4.50621e-06 0.000281171
0.0011069 -8.98515e-06 1.80794e-06
-8.98515e-06 6.59392e-05 2.51454e-06
1.80794e-06 2.51454e-06 8.26596e-05
0.00105378 -1.14973e-05 -1.65484e-06
-1.14973e-05 4.3316e-05 -1.63607e-06
-1.65484e-06 -1.63607e-06 5.91343e-05
0.000973708 7.10691e-06 4.64446e-07
7.10691e-06 7.5574e-06 -1.89037e-06
4.64446e-07 -1.89037e-06 -1.8949e-05
0.000887758 1.07869e-05 1.2253e-06
1.07869e-05 -3.98292e-05 -3.24036e-06
1.2253e-06 -3.24036e-06 -4.05627e-05
0.000897021 1.29352e-05 -9.53895e-08
1.29352e-05 -3.10695e-05 1.49788e-08
-9.53895e-08 1.49788e-08 -3.34894e-05
0.00230774 1.77259e-05 9.85494e-06
1.77259e-05 0.000676783 -3.93454e-06
9.85494e-06 -3.93454e-06 0.00069819
0.000906846 1.48285e-05 -2.14126e-06
1.48285e-05 -2.2196e-05 3.30819e-06
-2.14126e-06 3.30819e-06 -2.63807e-05
0.00235295 2.10814e-05 -5.15657e-07
2.10814e-05 0.000705117 -3.99749e-08
-5.15657e-07 -3.99749e-08 0.000725111
0.00241857 2.40656e-05 -1.4419e-05
2.40656e-05 0.000743705 4.03964e-06
-1.4419e-05 4.03964e-06 0.000762122
0.00129493 1.32218e-05 1.75983e-07
1.32218e-05 4.17257e-06 -7.00062e-07
1.75983e-07 -7.00062e-07 -4.98713e-05
0.00139544 -9.64788e-06 -1.25389e-06
-9.64788e-06 4.09485e-05 -2.01945e-06
-1.25389e-06 -2.01945e-06 -2.44462e-05
0.00138732 -1.76823e-05 -2.02372e-06
-1.76823e-05 5.29253e-05 5.94735e-08
-2.02372e-06 5.94735e-08 -2.27959e-05
0.00143819 1.7729e-05 -1.61565e-06
1.7729e-05 7.78687e-05 -7.92935e-07
-1.61565e-06 -7.92935e-07 3.33066e-08
0.00142636 9.69549e-06 3.15999e-08
9.69549e-06 7.73207e-05 -2.01919e-07
3.15999e-08 -2.01919e-07 3.96016e-07
0.00149784 -2.60442e-05 -6.9637e-09
-2.60442e-05 0.000102522 1.29163e-07
-6.9637e-09 1.29163e-07 2.97919e-05
0.00138764 3.48065e-06 -6.76579e-07
3.48065e-06 2.39321e-05 3.04707e-07
-6.76579e-07 3.04707e-07 -3.07002e-05
0.00144027 2.48362e-06 2.60027e-06
2.48362e-06 8.74505e-05 -4.24904e-07
2.60027e-06 -4.24904e-07 1.27084e-05
0.0015062 -1.88933e-05 2.3129e-06
-1.88933e-05 8.787e-05 1.56825e-06
2.3129e-06 1.56825e-06 2.11426e-05
0.00134972 -1.71212e-05 2.5461e-06
-1.71212e-05 2.7984e-06 3.23617e-07
2.5461e-06 3.23617e-07 -5.15423e-05
0.00143241 2.69793e-05 -1.85769e-06
2.69793e-05 6.61158e-05 -5.60069e-07
-1.85769e-06 -5.60069e-07 -1.25552e-05
0.00152216 1.09864e-05 -2.28868e-06
1.09864e-05 7.51249e-05 7.26328e-07
-2.28868e-06 7.26328e-07 -7.47009e-07
0.0014469 -2.23097e-05 -2.16197e-06
-2.23097e-05 5.28063e-05 1.59402e-06
-2.16197e-06 1.59402e-06 -6.96035e-06
0.00113698 -4.69818e-05 -6.8455e-07
-4.69818e-05 9.50018e-05 1.24964e-06
-6.8455e-07 1.24964e-06 2.21006e-05
0.000993164 -4.93033e-05 -1.11332e-06
-4.93033e-05 2.93736e-05 2.96065e-06
-1.11332e-06 2.96065e-06 -5.60132e-05
0.00130597 -5.94553e-05 -2.69829e-06
-5.94553e-05 0.000147586 2.21252e-06
-2.69829e-06 2.21252e-06 5.34731e-05
0.00145609 -4.39646e-05 3.67997e-07
-4.39646e-05 8.49687e-05 1.37476e-06
3.67997e-07 1.37476e-06 3.69516e-05
0.00119023 -5.32192e-05 -3.69798e-06
-5.32192e-05 3.40589e-06 -1.09857e-06
-3.69798e-06 -1.09857e-06 -6.47372e-05
0.000981555 -4.46506e-05 -1.01274e-06
-4.46506e-05 1.72755e-05 7.76747e-07
-1.01274e-06 7.76747e-07 -5.94291e-05
0.0011279 -4.72671e-05 -1.49732e-06
-4.72671e-05 9.15026e-05 -1.78555e-07
-1.49732e-06 -1.78555e-07 6.37187e-06
0.00111769 -3.95874e-05 -3.54383e-07
-3.95874e-05 0.000105457 5.86442e-07
-3.54383e-07 5.86442e-07 1.84226e-05
0.000955406 1.28466e-05 -6.57422e-07
1.28466e-05 3.52152e-06 1.31087e-06
-6.57422e-07 1.31087e-06 -2.6279e-05
0.00108322 9.74549e-06 -6.88536e-08
9.74549e-06 7.53469e-05 1.76855e-06
-6.88536e-08 1.76855e-06 2.25367e-05
0.00109634 -3.35775e-05 -1.22333e-06
-3.35775e-05 8.94542e-05 2.141e-06
-1.22333e-06 2.141e-06 1.57969e-05
0.00145341 3.03997e-05 1.80997e-07
3.03997e-05 7.03402e-05 3.6415e-07
1.80997e-07 3.6415e-07 -6.16711e-06
0.00096548 9.37176e-06 -2.92116e-08
9.37176e-06 5.78335e-06 2.01025e-09
-2.92116e-08 2.01025e-09 -2.23586e-05
0.000901222 -1.13178e-06 -3.50111e-07
-1.13178e-06 -1.717e-05 3.93175e-09
-3.50111e-07 3.93175e-09 -6.27532e-05
0.00160886 5.48136e-06 1.48368e-07
5.48136e-06 0.000106782 2.43038e-07
1.48368e-07 2.43038e-07 3.70905e-05
0.00133031 -3.2543e-05 -3.21907e-07
-3.2543e-05 -2.32048e-05 -2.8585e-07
-3.21907e-07 -2.8585e-07 -6.71533e-05
0.000936709 -4.55627e-05 -2.45244e-07
-4.55627e-05 6.91261e-07 7.04153e-07
-2.45244e-07 7.04153e-07 -7.91055e-05
0.00129841 -5.97092e-05 -3.57539e-07
-5.97092e-05 0.000169118 2.49887e-07
-3.57539e-07 2.49887e-07 7.10799e-05
0.00120048 -5.93555e-05 4.56308e-07
-5.93555e-05 6.44157e-05 4.50513e-07
4.56308e-07 4.50513e-07 -2.98442e-05
0.00153759 -5.5028e-05 8.89508e-09
-5.5028e-05 0.000116289 -9.40141e-07
8.89508e-09 -9.40141e-07 6.69798e-05
0.00104831 3.20119e-06 4.74765e-07
3.20119e-06 5.73321e-05 -4.93676e-07
4.74765e-07 -4.93676e-07 8.26725e-06
0.00109466 -1.85277e-05 -5.02716e-07
-1.85277e-05 8.8126e-05 5.27714e-07
-5.02716e-07 5.27714e-07 1.87709e-05
0.00106365 -4.79478e-05 4.12427e-07
-4.79478e-05 5.81356e-05 2.84787e-07
4.12427e-07 2.84787e-07 -2.27894e-05
0.00127507 -5.17882e-05 -1.16211e-06
-5.17882e-05 0.000171472 -7.20016e-08
-1.16211e-06 -7.20016e-08 8.04415e-05
0.00104412 -4.15873e-05 4.85804e-07
-4.15873e-05 6.92769e-05 3.29882e-07
4.85804e-07 3.29882e-07 -2.72356e-05
0.00104759 -3.5077e-05 2.57314e-07
-3.5077e-05 7.01859e-05 -2.77656e-07
2.57314e-07 -2.77656e-07 -1.39412e-05
0.001476 3.23629e-05 3.27333e-06
3.23629e-05 7.24378e-05 1.19257e-06
3.27333e-06 1.19257e-06 -1.09412e-06
0.00163566 -6.05259e-06 2.46462e-06
-6.05259e-06 0.000105234 -1.56975e-06
2.46462e-06 -1.56975e-06 5.16343e-05
0.00175065 -5.13238e-05 5.71965e-07
-5.13238e-05 0.000152181 -2.1121e-06
5.71965e-07 -2.1121e-06 0.000124042
0.00148881 -6.68843e-05 3.91671e-06
-6.68843e-05 0.000146304 8.98143e-07
3.91671e-06 8.98143e-07 6.96274e-05
0.0010439 -5.01975e-05 3.82666e-07
-5.01975e-05 5.65692e-05 -2.32883e-06
3.82666e-07 -2.32883e-06 -3.08313e-05
0.00163446 -7.15987e-05 1.97927e-06
-7.15987e-05 0.000325944 -2.23324e-06
1.97927e-06 -2.23324e-06 0.00021703
0.000798663 1.01436e-05 -1.35373e-07
1.01436e-05 -6.85758e-05 -1.71467e-06
-1.35373e-07 -1.71467e-06 -0.000113127
0.000991834 -5.52024e-06 6.47399e-07
-5.52024e-06 2.86613e-05 -1.32221e-06
6.47399e-07 -1.32221e-06 -1.80808e-05
0.00125022 -8.33997e-06 2.99438e-08
-8.33997e-06 0.000166839 -7.26495e-07
2.99438e-08 -7.26495e-07 0.000108213
0.000897648 5.69174e-06 -2.55198e-07
5.69174e-06 -9.67026e-06 -1.2708e-06
-2.55198e-07 -1.2708e-06 -7.68257e-05
0.00117984 -2.95757e-05 1.27042e-07
-2.95757e-05 0.000132087 -7.85469e-07
1.27042e-07 -7.85469e-07 5.21754e-05
0.000947369 -3.22447e-05 7.60527e-08
-3.22447e-05 2.39928e-05 -7.14995e-07
7.60527e-08 -7.14995e-07 -6.96285e-05
0.00119711 -4.39559e-05 1.93663e-06
-4.39559e-05 0.000151921 -9.82548e-07
1.93663e-06 -9.82548e-07 4.84581e-05
0.00102161 -5.07961e-05 9.50714e-07
-5.07961e-05 5.38491e-05 -9.2215e-07
9.50714e-07 -9.2215e-07 -3.85886e-05
0.000955037 3.36482e-05 -4.6466e-07
3.36482e-05 1.52234e-05 -4.96204e-07
-4.6466e-07 -4.96204e-07 -5.84525e-05
0.00111981 4.49209e-05 -1.47319e-06
4.49209e-05 9.449e-05 -7.09093e-07
-1.47319e-06 -7.09093e-07 1.37956e-05
0.00154966 2.3975e-05 -3.48542e-06
2.3975e-05 7.41623e-05 -2.91189e-06
-3.48542e-06 -2.91189e-06 2.95765e-05
0.001393 5.05939e-05 -1.75287e-06
5.05939e-05 8.22218e-05 -1.51581e-07
-1.75287e-06 -1.51581e-07 1.85197e-05
0.00122881 4.85846e-05 -1.08832e-06
4.85846e-05 0.000141253 -2.52636e-07
-1.08832e-06 -2.52636e-07 5.93231e-05
0.00117066 4.95641e-05 -9.34681e-07
4.95641e-05 0.000115486 -1.53825e-06
-9.34681e-07 -1.53825e-06 3.35716e-05
0.00168051 6.87197e-05 -1.37424e-06
6.87197e-05 0.000295903 -5.26774e-07
-1.37424e-06 -5.26774e-07 0.00020443
0.000953404 5.20166e-05 -9.58084e-07
5.20166e-05 -4.97393e-06 -1.51173e-06
-9.58084e-07 -1.51173e-06 -0.00010832
0.00109296 4.44643e-05 -3.43265e-07
4.44643e-05 8.9007e-05 -3.24435e-07
-3.43265e-07 -3.24435e-07 7.47274e-06
0.001339 2.82796e-06 8.04476e-07
2.82796e-06 -3.04991e-05 6.13867e-07
8.04476e-07 6.13867e-07 -8.22615e-05
0.00113163 4.78154e-05 2.9573e-07
4.78154e-05 0.000100358 3.49264e-07
2.9573e-07 3.49264e-07 1.29897e-05
0.000992769 4.7697e-05 2.56946e-07
4.7697e-05 2.75069e-05 -1.1991e-07
2.56946e-07 -1.1991e-07 -6.51976e-05
0.00150476 4.70497e-05 4.84367e-07
4.70497e-05 2.06627e-05 -3.49736e-07
4.84367e-07 -3.49736e-07 -2.31531e-05
0.00148745 7.05647e-05 7.54377e-07
7.05647e-05 0.00014318 -4.20643e-07
7.54377e-07 -4.20643e-07 5.1419e-05
0.00152868 6.69424e-05 2.36869e-07
6.69424e-05 0.000275395 5.74376e-07
2.36869e-07 5.74376e-07 0.000162886
0.00116031 4.66618e-05 3.79781e-07
4.66618e-05 0.000124463 3.64906e-07
3.79781e-07 3.64906e-07 3.62223e-05
0.0014494 3.59569e-05 5.5571e-06
3.59569e-05 -6.76728e-05 -1.98181e-07
5.5571e-06 -1.98181e-07 -0.00010928
0.00136281 5.35533e-05 4.9269e-07
5.35533e-05 0.000208402 2.0597e-07
4.9269e-07 2.0597e-07 0.000116799
0.00151882 6.17013e-05 -8.5175e-07
6.17013e-05 0.000286872 1.75517e-06
-8.5175e-07 1.75517e-06 0.000179432
0.00123805 7.39957e-05 5.77215e-06
7.39957e-05 -8.60189e-05 2.43344e-06
5.77215e-06 2.43344e-06 -0.000166338
0.00110154 6.53595e-05 -1.83685e-07
6.53595e-05 4.18765e-05 2.61899e-06
-1.83685e-07 2.61899e-06 -7.70561e-05
0.00214376 -4.29374e-05 1.92372e-06
-4.29374e-05 0.000115516 -4.36185e-06
1.92372e-06 -4.36185e-06 0.000133817
0.00107692 4.09741e-05 -4.89049e-07
4.09741e-05 8.33724e-05 -5.8944e-07
-4.89049e-07 -5.8944e-07 3.56241e-06
0.00108163 4.39452e-05 2.9255e-08
4.39452e-05 8.60421e-05 2.32851e-08
2.9255e-08 2.32851e-08 -1.18592e-07
0.00123892 4.83293e-05 5.6977e-07
4.83293e-05 0.000155906 3.18908e-07
5.6977e-07 3.18908e-07 6.5526e-05
0.0009932 -8.44508e-06 2.56759e-07
-8.44508e-06 3.42262e-05 -1.15825e-06
2.56759e-07 -1.15825e-06 -1.48029e-05
0.000892893 2.06075e-06 -1.33673e-07
2.06075e-06 -1.34374e-05 -4.70667e-07
-1.33673e-07 -4.70667e-07 -7.89675e-05
0.00120188 3.39391e-05 -2.08275e-07
3.39391e-05 0.000144586 -3.29989e-07
-2.08275e-07 -3.29989e-07 6.7956e-05
0.000998154 3.1922e-05 -7.40813e-07
3.1922e-05 3.99826e-05 -9.83749e-07
-7.40813e-07 -9.83749e-07 -4.57647e-05
0.000997997 -1.37874e-05 -1.11949e-07
-1.37874e-05 3.69774e-05 9.79137e-09
-1.11949e-07 9.79137e-09 -1.19083e-05
0.000963581 1.54818e-05 2.19864e-07
1.54818e-05 2.454e-05 1.35672e-08
2.19864e-07 1.35672e-08 -4.05651e-05
0.00113213 4.56902e-05 -6.58508e-07
4.56902e-05 9.99514e-05 -7.54425e-07
-6.58508e-07 -7.54425e-07 1.02133e-05
0.00107497 2.30766e-05 2.99933e-08
2.30766e-05 7.89923e-05 3.02122e-08
2.99933e-08 3.02122e-08 3.38333e-06
0.00110597 2.35598e-05 3.16836e-08
2.35598e-05 9.15482e-05 -4.29389e-08
3.16836e-08 -4.29389e-08 6.97285e-06
0.00111871 3.61196e-05 4.12556e-07
3.61196e-05 8.58516e-05 9.60924e-07
4.12556e-07 9.60924e-07 -6.24688e-06
0.00122127 3.79155e-05 1.29533e-07
3.79155e-05 0.000148603 2.15345e-07
1.29533e-07 2.15345e-07 6.41829e-05
0.0011829 3.85946e-05 3.08669e-07
3.85946e-05 0.000133563 4.8385e-07
3.08669e-07 4.8385e-07 5.78778e-05
0.000841277 4.97888e-06 -1.09055e-07
4.97888e-06 -3.67315e-05 9.90985e-07
-1.09055e-07 9.90985e-07 -0.000102511
0.000800639 1.91308e-06 2.53915e-07
1.91308e-06 -6.21595e-05 1.54059e-06
2.53915e-07 1.54059e-06 -0.000112703
0.00122061 -2.04509e-06 2.44144e-07
-2.04509e-06 0.000154261 4.05355e-07
2.44144e-07 4.05355e-07 8.95778e-05
0.000808196 -7.60049e-06 -4.48352e-07
-7.60049e-06 -5.94064e-05 1.51698e-06
-4.48352e-07 1.51698e-06 -0.000110357
0.000967813 1.03948e-05 2.81705e-07
1.03948e-05 8.08528e-06 1.73252e-06
2.81705e-07 1.73252e-06 -2.1649e-05
0.000965951 6.88528e-07 -2.81742e-07
6.88528e-07 6.89405e-06 2.76461e-09
-2.81742e-07 2.76461e-09 -2.24036e-05
0.000915657 -8.79671e-08 1.44538e-07
-8.79671e-08 -3.3886e-05 3.17274e-06
1.44538e-07 3.17274e-06 -3.42748e-05
0.000970849 -9.37354e-06 2.22484e-07
-9.37354e-06 8.7433e-06 -1.75383e-06
2.22484e-07 -1.75383e-06 -2.0251e-05
0.00121348 -2.91311e-06 -5.67056e-07
-2.91311e-06 0.000116731 -1.2678e-06
-5.67056e-07 -1.2678e-06 0.000117869
0.00229666 -4.21757e-06 2.63142e-06
-4.21757e-06 0.000659676 4.07538e-06
2.63142e-06 4.07538e-06 0.000683044
0.001526 -5.77886e-06 -1.75997e-06
-5.77886e-06 0.000276033 -4.43749e-06
-1.75997e-06 -4.43749e-06 0.000278353
0.0011087 -6.31785e-06 9.08425e-07
-6.31785e-06 6.34655e-05 2.49233e-06
9.08425e-07 2.49233e-06 8.0866e-05
0.00105341 -8.89054e-06 -1.16628e-06
-8.89054e-06 3.89641e-05 -1.59769e-06
-1.16628e-06 -1.59769e-06 5.58976e-05
0.000979804 4.83e-06 3.33762e-07
4.83e-06 8.5225e-06 -1.88018e-06
3.33762e-07 -1.88018e-06 -1.66705e-05
0.000972862 6.90157e-06 -2.86977e-08
6.90157e-06 6.86416e-06 -7.24371e-09
-2.86977e-08 -7.24371e-09 -1.96019e-05
0.000898311 8.39819e-06 8.69999e-07
8.39819e-06 -3.83226e-05 -3.23767e-06
8.69999e-07 -3.23767e-06 -3.75935e-05
0.00119397 1.16382e-05 -3.69694e-07
1.16382e-05 0.00011415 2.52066e-08
-3.69694e-07 2.52066e-08 0.000114742
0.00227089 1.42525e-05 8.04551e-06
1.42525e-05 0.000653809 -3.9468e-06
8.04551e-06 -3.9468e-06 0.000676338
0.000914149 1.29588e-05 -1.78303e-06
1.29588e-05 -2.28191e-05 3.23552e-06
-1.78303e-06 3.23552e-06 -2.52928e-05
0.00230972 1.77793e-05 -5.91897e-07
1.77793e-05 0.000678391 -3.40845e-08
-5.91897e-07 -3.40845e-08 0.000699638
0.00235537 2.10146e-05 -1.25319e-05
2.10146e-05 0.00070691 3.99336e-06
-1.25319e-05 3.99336e-06 0.000726753
0.00141932 3.44637e-06 -1.89525e-06
3.44637e-06 4.24886e-05 -2.08128e-06
-1.89525e-06 -2.08128e-06 -1.05947e-05
0.00144618 -2.39644e-05 -1.78708e-06
-2.39644e-05 7.72342e-05 6.86925e-08
-1.78708e-06 6.86925e-08 3.56092e-06
0.00146462 6.08598e-06 -1.80593e-06
6.08598e-06 9.78172e-05 -6.65444e-07
-1.80593e-06 -6.65444e-07 2.13126e-05
0.00144214 2.34484e-06 -2.59073e-07
2.34484e-06 8.82856e-05 -7.85898e-07
-2.59073e-07 -7.85898e-07 1.36195e-05
0.00141793 -1.82995e-05 -2.07009e-07
-1.82995e-05 4.98446e-05 6.07297e-07
-2.07009e-07 6.07297e-07 -1.62592e-05
0.00135828 -1.89377e-05 1.23038e-06
-1.89377e-05 1.83093e-05 3.68117e-07
1.23038e-06 3.68117e-07 -3.90974e-05
0.0015057 3.37753e-06 1.8031e-06
3.37753e-06 0.000107414 2.30176e-07
1.8031e-06 2.30176e-07 4.06345e-05
0.00196878 -4.6924e-05 -3.07437e-06
-4.6924e-05 0.000245542 -5.24339e-06
-3.07437e-06 -5.24339e-06 0.000223509
0.0014832 1.12655e-05 2.56263e-06
1.12655e-05 2.62715e-05 5.45992e-07
2.56263e-06 5.45992e-07 -1.05175e-05
0.000999068 -4.24038e-06 2.91564e-07
-4.24038e-06 3.04609e-05 -1.17146e-06
2.91564e-07 -1.17146e-06 -1.17191e-05
0.00141111 2.99544e-05 -2.65705e-06
2.99544e-05 4.99087e-05 -7.87474e-07
-2.65705e-06 -7.87474e-07 -2.6444e-05
0.00162566 4.96798e-06 -2.2031e-06
4.96798e-06 0.000113295 1.17289e-06
-2.2031e-06 1.17289e-06 4.40141e-05
0.00120488 -3.29916e-05 -1.33826e-06
-3.29916e-05 -8.11824e-05 2.18081e-06
-1.33826e-06 2.18081e-06 -0.000127732
0.000908707 -4.48285e-05 -6.62025e-07
-4.48285e-05 -1.27719e-05 2.17969e-06
-6.62025e-07 2.17969e-06 -9.18295e-05
0.00112342 -5.64602e-05 -1.71041e-06
-5.64602e-05 8.40832e-05 4.11633e-06
-1.71041e-06 4.11633e-06 -1.51555e-05
0.0010074 -5.50648e-05 -2.86834e-06
-5.50648e-05 -3.3675e-05 6.63009e-07
-2.86834e-06 6.63009e-07 -0.000126562
0.0013541 -5.36142e-05 -2.73998e-06
-5.36142e-05 2.97196e-05 -1.17072e-06
-2.73998e-06 -1.17072e-06 -2.00922e-05
0.00123189 -5.11876e-05 -1.8865e-07
-5.11876e-05 0.000139687 7.29551e-07
-1.8865e-07 7.29551e-07 5.91154e-05
0.000992115 -4.58733e-05 -3.80325e-06
-4.58733e-05 3.01468e-05 -7.90779e-07
-3.80325e-06 -7.90779e-07 -5.86403e-05
0.000967703 -3.92905e-05 -3.19773e-07
-3.92905e-05 3.28756e-05 1.13282e-06
-3.19773e-07 1.13282e-06 -6.49682e-05
0.000967643 9.37888e-06 -6.75651e-07
9.37888e-06 6.82923e-06 1.90706e-06
-6.75651e-07 1.90706e-06 -2.13406e-05
0.00108768 -3.51151e-05 1.03509e-07
-3.51151e-05 8.8289e-05 5.80241e-07
1.03509e-07 5.80241e-07 4.62497e-06
0.0012679 -9.49004e-06 -1.41443e-07
-9.49004e-06 0.000167839 8.22623e-07
-1.41443e-07 8.22623e-07 0.000120248
0.00107763 -1.24596e-05 -4.4993e-07
-1.24596e-05 8.02617e-05 1.92482e-06
-4.4993e-07 1.92482e-06 1.06606e-05
0.000794381 7.4138e-06 -1.99604e-07
7.4138e-06 -7.08352e-05 1.27645e-06
-1.99604e-07 1.27645e-06 -0.00011658
0.0014892 3.13339e-05 1.72139e-07
3.13339e-05 7.39573e-05 3.69878e-08
1.72139e-07 3.69878e-08 2.79975e-07
0.000910462 -1.65633e-07 2.56377e-07
-1.65633e-07 -1.31464e-05 -4.64307e-07
2.56377e-07 -4.64307e-07 -5.70849e-05
0.000996382 -9.16104e-06 -1.56442e-07
-9.16104e-06 3.13742e-05 3.52155e-08
-1.56442e-07 3.52155e-08 -1.55621e-05
0.0010531 -1.49159e-06 -4.48032e-07
-1.49159e-06 6.82797e-05 4.82436e-07
-4.48032e-07 4.82436e-07 8.46746e-06
0.00165691 -6.31229e-06 7.20773e-07
-6.31229e-06 0.000114747 6.17655e-07
7.20773e-07 6.17655e-07 6.13438e-05
0.00151153 -5.07372e-05 -7.49883e-07
-5.07372e-05 3.60367e-05 -1.2395e-06
-7.49883e-07 -1.2395e-06 5.77117e-06
0.00106701 -5.08668e-05 -4.04489e-08
-5.08668e-05 6.55603e-05 3.84124e-07
-4.04489e-08 3.84124e-07 -2.11897e-05
0.00118996 -6.31148e-05 9.35461e-07
-6.31148e-05 0.000111073 -2.28361e-07
9.35461e-07 -2.28361e-07 1.91041e-06
0.00129468 -6.34869e-05 -1.05917e-07
-6.34869e-05 5.16741e-05 6.10517e-07
-1.05917e-07 6.10517e-07 -2.40215e-05
0.00098279 3.56659e-06 -1.29192e-07
3.56659e-06 3.26838e-05 2.42357e-08
-1.29192e-07 2.42357e-08 -3.31948e-05
0.00116461 -3.01434e-05 9.17012e-08
-3.01434e-05 0.000124096 -3.35819e-09
9.17012e-08 -3.35819e-09 4.35349e-05
0.00101794 -5.05255e-05 -1.05148e-06
-5.05255e-05 5.05998e-05 -4.9991e-08
-1.05148e-06 -4.9991e-08 -4.18295e-05
0.00117842 -4.27499e-05 1.84187e-07
-4.27499e-05 0.000142468 -2.62306e-07
1.84187e-07 -2.62306e-07 4.02323e-05
0.00101221 -3.74085e-05 -2.08231e-07
-3.74085e-05 5.57025e-05 6.01844e-07
-2.08231e-07 6.01844e-07 -3.7376e-05
0.00140045 2.88933e-05 3.53429e-06
2.88933e-05 4.8488e-06 4.49581e-07
3.53429e-06 4.49581e-07 -6.51367e-05
0.00188796 -2.85017e-05 2.42823e-06
-2.85017e-05 0.0001652 -3.65472e-06
2.42823e-06 -3.65472e-06 0.000151696
0.00176042 -7.32452e-05 4.77823e-06
-7.32452e-05 0.000185686 1.02666e-07
4.77823e-06 1.02666e-07 0.000130857
0.00171155 -7.82563e-05 2.61728e-06
-7.82563e-05 0.000334745 -1.95811e-06
2.61728e-06 -1.95811e-06 0.000230516
0.000913516 -5.41269e-05 7.76605e-07
-5.41269e-05 1.27112e-05 -3.14551e-06
7.76605e-07 -3.14551e-06 -8.6376e-05
0.000806775 1.68263e-05 6.25215e-08
1.68263e-05 -5.42958e-05 -1.37086e-06
6.25215e-08 -1.37086e-06 -0.000113461
0.000904695 8.24847e-06 3.77583e-07
8.24847e-06 -6.12273e-06 -1.29404e-06
3.77583e-07 -1.29404e-06 -6.98308e-05
0.00117235 1.63078e-05 2.84025e-07
1.63078e-05 0.000130959 -2.15887e-07
2.84025e-07 -2.15887e-07 6.03314e-05
0.00112547 -3.2789e-05 5.15058e-07
-3.2789e-05 0.000106849 -1.06933e-06
5.15058e-07 -1.06933e-06 2.83232e-05
0.00108122 -3.58507e-05 -1.14637e-07
-3.58507e-05 8.42391e-05 -2.14312e-07
-1.14637e-07 -2.14312e-07 -4.01634e-06
0.00114648 -3.80048e-05 3.27381e-07
-3.80048e-05 0.000129953 -1.67098e-06
3.27381e-07 -1.67098e-06 2.95874e-05
0.00106048 -4.65258e-05 3.05192e-06
-4.65258e-05 0.000103063 -9.41264e-07
3.05192e-06 -9.41264e-07 -1.63993e-05
0.00106423 4.391e-05 -7.41495e-07
4.391e-05 7.48155e-05 -8.22257e-07
-7.41495e-07 -8.22257e-07 -6.69392e-06
0.00104424 4.6052e-05 -2.77584e-07
4.6052e-05 5.71175e-05 -1.09872e-08
-2.77584e-07 -1.09872e-08 -3.00818e-05
0.00123285 2.22561e-06 -2.27341e-06
2.22561e-06 -8.37618e-05 -6.36772e-07
-2.27341e-06 -6.36772e-07 -0.000133366
0.00139685 4.3467e-05 -1.99069e-06
4.3467e-05 -2.56167e-05 -1.42649e-06
-1.99069e-06 -1.42649e-06 -7.02773e-05
0.00163818 7.4867e-05 -2.42616e-06
7.4867e-05 0.000210367 -1.63534e-06
-2.42616e-06 -1.63534e-06 0.000119083
0.000833853 4.44799e-05 -1.24699e-07
4.44799e-05 -5.33066e-05 -1.22038e-06
-1.24699e-07 -1.22038e-06 -0.000147034
0.00139328 6.44561e-05 -3.06457e-07
6.44561e-05 0.000211346 -4.62493e-07
-3.06457e-07 -4.62493e-07 9.90157e-05
0.00116398 4.67457e-05 6.01873e-08
4.67457e-05 0.000126202 8.51036e-08
6.01873e-08 8.51036e-08 3.85174e-05
0.00142485 3.52511e-05 -1.70874e-06
3.52511e-05 -8.08912e-05 9.28921e-08
-1.70874e-06 9.28921e-08 -0.00012096
0.0011989 5.00845e-05 -1.21563e-07
5.00845e-05 0.000128975 -1.77164e-07
-1.21563e-07 -1.77164e-07 3.76246e-05
0.00125586 5.54831e-05 -1.19014e-07
5.54831e-05 0.000165265 3.93781e-07
-1.19014e-07 3.93781e-07 5.82197e-05
0.00143182 7.51178e-05 2.34999e-06
7.51178e-05 -4.00601e-06 -9.38508e-07
2.34999e-06 -9.38508e-07 -8.12424e-05
0.00123845 6.87292e-05 -9.58023e-07
6.87292e-05 0.000112446 7.87224e-07
-9.58023e-07 7.87224e-07 -1.09248e-05
0.00194209 -3.14489e-05 -2.36635e-06
-3.14489e-05 7.69941e-05 -4.74935e-07
-2.36635e-06 -4.74935e-07 8.19546e-05
0.00119244 4.7958e-05 -8.82274e-08
4.7958e-05 0.000135857 -2.37476e-07
-8.82274e-08 -2.37476e-07 4.38045e-05
0.00110394 8.33605e-05 9.64798e-06
8.33605e-05 -0.000258011 3.97115e-06
9.64798e-06 3.97115e-06 -0.000330178
0.00126442 5.23013e-05 -9.97791e-07
5.23013e-05 0.000168382 1.22842e-07
-9.97791e-07 1.22842e-07 7.02682e-05
0.00117012 5.96156e-05 -1.75429e-06
5.96156e-05 0.000153145 1.41312e-06
-1.75429e-06 1.41312e-06 2.17526e-05
0.000488652 7.90855e-05 -4.2671e-07
7.90855e-05 -0.000315926 1.21188e-06
-4.2671e-07 1.21188e-06 -0.000431451
0.00488007 -7.21449e-05 -1.28209e-05
-7.21449e-05 0.00170827 2.28747e-06
-1.28209e-05 2.28747e-06 0.00123435
0.000972089 -0.000104083 4.06715e-05
-0.000104083 -0.000150956 1.67445e-05
4.06715e-05 1.67445e-05 -0.000340927
0.00266835 3.86577e-05 -2.74936e-06
3.86577e-05 0.000436766 1.62482e-06
-2.74936e-06 1.62482e-06 0.000465901
-0.00242533 -8.88041e-05 -5.48315e-05
-8.88041e-05 -0.00142973 -1.89181e-05
-5.48315e-05 -1.89181e-05 -0.00143278
0.00118855 -0.000121719 -5.72618e-06
-0.000121719 -0.000164987 2.60848e-06
-5.72618e-06 2.60848e-06 0.000252352
0.00107036 4.36551e-05 -5.27519e-07
4.36551e-05 8.12756e-05 -4.73717e-07
-5.27519e-07 -4.73717e-07 -4.93275e-06
0.0011931 4.7234e-05 -1.31519e-07
4.7234e-05 0.000134104 -8.85756e-08
-1.31519e-07 -8.85756e-08 4.37613e-05
0.00114924 4.47798e-05 6.44422e-07
4.47798e-05 9.94439e-05 8.75099e-07
6.44422e-07 8.75099e-07 4.90022e-06
0.000993735 -1.64827e-05 1.06544e-07
-1.64827e-05 3.52022e-05 -1.0496e-06
1.06544e-07 -1.0496e-06 -1.39372e-05
0.00090401 2.00606e-05 -1.28823e-07
2.00606e-05 -5.73483e-06 -1.08627e-06
-1.28823e-07 -1.08627e-06 -7.13989e-05
0.00106799 1.45632e-05 -1.02092e-07
1.45632e-05 7.53362e-05 -7.86386e-07
-1.02092e-07 -7.86386e-07 1.13876e-07
0.00118558 2.92332e-05 -4.55985e-07
2.92332e-05 0.000132651 -6.91951e-07
-4.55985e-07 -6.91951e-07 4.86377e-05
0.00106465 4.2504e-05 -1.32833e-06
4.2504e-05 6.59204e-05 -1.41435e-06
-1.32833e-06 -1.41435e-06 -2.36858e-05
0.00107253 3.52004e-05 -2.47705e-07
3.52004e-05 7.74662e-05 -5.0842e-07
-2.47705e-07 -5.0842e-07 8.16533e-07
0.000899971 1.77603e-06 1.36515e-07
1.77603e-06 -1.23966e-05 4.69198e-07
1.36515e-07 4.69198e-07 -6.22825e-05
0.000939769 3.89958e-06 6.62819e-08
3.89958e-06 1.33117e-05 5.8391e-08
6.62819e-08 5.8391e-08 -5.18756e-05
0.00112578 3.78857e-05 9.5882e-08
3.78857e-05 9.13269e-05 1.70788e-08
9.5882e-08 1.70788e-08 -2.61009e-07
0.00114808 3.61893e-05 -2.76864e-07
3.61893e-05 0.000112089 -5.27219e-07
-2.76864e-07 -5.27219e-07 2.74738e-05
0.00126542 4.80495e-05 -1.1654e-07
4.80495e-05 0.000171412 -1.492e-07
-1.1654e-07 -1.492e-07 8.72782e-05
0.00118545 4.24778e-05 2.75665e-07
4.24778e-05 0.000129669 9.60916e-07
2.75665e-07 9.60916e-07 3.59943e-05
0.00093608 2.67914e-05 2.34537e-07
2.67914e-05 8.15274e-06 1.49522e-06
2.34537e-07 1.49522e-06 -7.01307e-05
0.000859459 -3.4288e-06 2.03437e-07
-3.4288e-06 -2.68028e-05 3.52949e-07
2.03437e-07 3.52949e-07 -9.28514e-05
0.000783351 -2.22879e-05 -7.99714e-07
-2.22879e-05 -7.03725e-05 1.53174e-06
-7.99714e-07 1.53174e-06 -0.000121645
0.00108597 2.5012e-06 -6.25705e-11
2.5012e-06 8.55575e-05 7.2752e-07
-6.25705e-11 7.2752e-07 2.10927e-05
0.00122024 1.856e-05 2.08573e-07
1.856e-05 0.00015289 5.6094e-07
2.08573e-07 5.6094e-07 7.70818e-05
0.00102817 -1.47382e-05 -1.01042e-07
-1.47382e-05 5.76601e-05 1.00638e-06
-1.01042e-07 1.00638e-06 -1.02188e-05
0.00105124 -5.27126e-06 2.76905e-07
-5.27126e-06 6.87844e-05 -5.18785e-07
2.76905e-07 -5.18785e-07 3.18195e-06
0.000989792 -1.83671e-05 -6.82641e-07
-1.83671e-05 3.16492e-05 1.08597e-06
-6.82641e-07 1.08597e-06 -1.89293e-05
0.00080684 1.51378e-07 1.23789e-07
1.51378e-07 -5.95039e-05 4.8948e-07
1.23789e-07 4.8948e-07 -0.000110705
0.000972023 8.02263e-06 2.76125e-08
8.02263e-06 9.81026e-06 1.76219e-06
2.76125e-08 1.76219e-06 -2.03475e-05
0.000965415 9.23298e-07 -2.43506e-07
9.23298e-07 6.80331e-06 -5.15227e-09
-2.43506e-07 -5.15227e-09 -2.28942e-05
0.000936199 2.34673e-06 -3.71149e-07
2.34673e-06 -2.29895e-05 4.45582e-06
-3.71149e-07 4.45582e-06 -2.37754e-05
0.000967214 -9.02137e-06 3.83934e-07
-9.02137e-06 7.56653e-06 -1.73041e-06
3.83934e-07 -1.73041e-06 -2.17431e-05
0.000919904 -1.47615e-07 9.53086e-08
-1.47615e-07 -3.17343e-05 -1.16406e-09
9.53086e-08 -1.16406e-09 -3.21536e-05
0.002301 -8.84681e-07 -9.59198e-09
-8.84681e-07 0.000661055 4.08616e-06
-9.59198e-09 4.08616e-06 0.000684492
0.000937356 -2.64676e-06 -4.43779e-07
-2.64676e-06 -2.21289e-05 -4.45913e-06
-4.43779e-07 -4.45913e-06 -2.25803e-05
0.00169986 -3.71896e-06 -9.71072e-08
-3.71896e-06 0.000359042 3.4124e-08
-9.71072e-08 3.4124e-08 0.000379553
0.00106198 -6.0527e-06 -7.05881e-07
-6.0527e-06 3.97536e-05 -1.57889e-06
-7.05881e-07 -1.57889e-06 5.74006e-05
0.000981556 2.5654e-06 1.75975e-07
2.5654e-06 7.92096e-06 -1.88047e-06
1.75975e-07 -1.88047e-06 -1.64784e-05
0.000976893 4.56818e-06 -2.20801e-08
4.56818e-06 6.81539e-06 -1.26719e-08
-2.20801e-08 -1.26719e-08 -1.83379e-05
0.000907537 5.79057e-06 5.60441e-07
5.79057e-06 -3.65825e-05 -3.22695e-06
5.60441e-07 -3.22695e-06 -3.46635e-05
0.000970599 6.73083e-06 -5.58078e-07
6.73083e-06 5.47021e-06 1.88081e-06
-5.58078e-07 1.88081e-06 -2.09517e-05
0.00118799 8.99516e-06 -1.1119e-07
8.99516e-06 0.000107263 -6.10502e-07
-1.1119e-07 -6.10502e-07 0.000109395
0.00223554 1.06963e-05 6.12143e-06
1.06963e-05 0.000632414 -3.94177e-06
6.12143e-06 -3.94177e-06 0.000655917
0.000912607 1.08877e-05 -1.42861e-06
1.08877e-05 -2.74375e-05 3.2293e-06
-1.42861e-06 3.2293e-06 -2.84347e-05
0.00229075 1.39289e-05 -3.04138e-06
1.39289e-05 0.000664696 1.15073e-06
-3.04138e-06 1.15073e-06 0.000686941
0.00231116 1.77961e-05 -1.07819e-05
1.77961e-05 0.000679716 3.99849e-06
-1.07819e-05 3.99849e-06 0.000700808
0.0013064 -1.73431e-05 -2.4974e-06
-1.73431e-05 9.69938e-07 -2.70617e-07
-2.4974e-06 -2.70617e-07 -6.45314e-05
0.00144436 1.65033e-06 -2.5558e-06
1.65033e-06 8.92576e-05 -1.26131e-06
-2.5558e-06 -1.26131e-06 1.46551e-05
0.00138477 -1.97405e-05 2.38797e-06
-1.97405e-05 4.2006e-05 7.3498e-07
2.38797e-06 7.3498e-07 -1.84698e-05
0.00152035 -4.17256e-05 -1.26001e-06
-4.17256e-05 2.72726e-05 -1.95884e-06
-1.26001e-06 -1.95884e-06 1.02282e-05
0.00138222 1.44684e-06 -7.09099e-07
1.44684e-06 4.83603e-05 -5.34228e-07
-7.09099e-07 -5.34228e-07 -1.90648e-05
0.00123265 1.01365e-05 -7.11915e-07
1.01365e-05 -9.04631e-05 -5.42813e-07
-7.11915e-07 -5.42813e-07 -0.000133655
0.001456 3.03969e-05 1.55738e-06
3.03969e-05 6.67005e-06 2.79407e-06
1.55738e-06 2.79407e-06 -6.30978e-05
0.00210461 -0.000105932 0.000122748
-0.000105932 0.000426692 3.76976e-05
0.000122748 3.76976e-05 0.000220612
0.00123716 1.63365e-06 -5.05073e-06
1.63365e-06 6.9594e-05 1.05091e-06
-5.05073e-06 1.05091e-06 4.18141e-05
0.00100118 -4.17345e-07 -1.63032e-07
-4.17345e-07 3.16467e-05 -1.15554e-06
-1.63032e-07 -1.15554e-06 -1.03331e-05
0.0010067 -1.1111e-05 1.52729e-07
-1.1111e-05 3.45553e-05 8.87361e-09
1.52729e-07 8.87361e-09 -7.88878e-06
0.00102666 1.29921e-05 -1.98718e-07
1.29921e-05 5.35779e-05 -7.70254e-07
-1.98718e-07 -7.70254e-07 -2.34672e-06
0.00102747 -9.23019e-06 -2.11813e-07
-9.23019e-06 5.2986e-05 -3.97525e-07
-2.11813e-07 -3.97525e-07 -2.42054e-06
0.00152265 3.06616e-05 -3.14584e-06
3.06616e-05 8.55115e-05 -7.30284e-07
-3.14584e-06 -7.30284e-07 1.16255e-05
0.00172934 -6.74439e-06 7.24515e-08
-6.74439e-06 0.000150093 1.8541e-06
7.24515e-08 1.8541e-06 9.66237e-05
0.00122382 -5.00021e-05 -3.81415e-06
-5.00021e-05 -0.000103441 1.80767e-07
-3.81415e-06 1.80767e-07 -0.000136579
0.00112969 -5.22474e-05 -7.81272e-07
-5.22474e-05 9.41868e-05 2.87503e-06
-7.81272e-07 2.87503e-06 7.99862e-06
0.000781946 -5.5213e-05 -8.2471e-07
-5.5213e-05 -8.55945e-05 2.28648e-06
-8.2471e-07 2.28648e-06 -0.000195106
0.00109302 -6.02165e-05 -3.23398e-06
-6.02165e-05 -4.68399e-05 -3.8461e-07
-3.23398e-06 -3.8461e-07 -0.000121475
0.00102904 -5.05136e-05 -3.1013e-06
-5.05136e-05 5.49657e-05 1.5239e-06
-3.1013e-06 1.5239e-06 -3.75224e-05
0.00113859 -4.03779e-05 -1.17051e-06
-4.03779e-05 0.000122194 7.8273e-07
-1.17051e-06 7.8273e-07 2.12955e-05
0.00107545 -4.24877e-05 -3.93571e-07
-4.24877e-05 8.67939e-05 1.86831e-06
-3.93571e-07 1.86831e-06 -5.77928e-06
0.000996878 -3.43782e-07 -5.4636e-07
-3.43782e-07 3.16766e-05 1.33863e-06
-5.4636e-07 1.33863e-06 -1.52157e-05
0.0011528 -3.29457e-05 -1.42396e-07
-3.29457e-05 0.000117805 9.75306e-07
-1.42396e-07 9.75306e-07 3.65891e-05
0.00106805 -4.97299e-07 -4.00591e-07
-4.97299e-07 7.50667e-05 1.25022e-06
-4.00591e-07 1.25022e-06 1.04566e-05
0.00102386 -6.34746e-06 -1.19836e-07
-6.34746e-06 4.30003e-05 7.12091e-07
-1.19836e-07 7.12091e-07 -3.1091e-07
0.000858915 9.36845e-06 -2.29453e-07
9.36845e-06 -2.86064e-05 1.73316e-06
-2.29453e-07 1.73316e-06 -8.98051e-05
0.00152861 2.88891e-05 1.40729e-07
2.88891e-05 6.92751e-05 1.38524e-06
1.40729e-07 1.38524e-06 1.06857e-06
0.00100924 1.44226e-05 -6.99664e-10
1.44226e-05 4.62917e-05 -4.92921e-07
-6.99664e-10 -4.92921e-07 -1.12761e-05
0.000969537 -2.155e-06 3.23802e-07
-2.155e-06 2.66056e-05 1.14212e-08
3.23802e-07 1.14212e-08 -3.62522e-05
0.00106315 1.89272e-05 3.43664e-09
1.89272e-05 7.54263e-05 9.57556e-07
3.43664e-09 9.57556e-07 5.43698e-06
0.0016603 -2.92976e-05 -2.30974e-06
-2.92976e-05 6.74749e-05 5.61688e-07
-2.30974e-06 5.61688e-07 4.80385e-05
0.00137999 -6.78339e-05 -7.54067e-07
-6.78339e-05 -5.32357e-07 -6.73011e-07
-7.54067e-07 -6.73011e-07 -5.37812e-05
0.0010773 -5.69984e-05 1.57576e-07
-5.69984e-05 9.10654e-05 -3.41505e-07
1.57576e-07 -3.41505e-07 -8.65739e-06
0.00147129 -7.3928e-05 2.58682e-07
-7.3928e-05 0.000219776 5.96446e-07
2.58682e-07 5.96446e-07 0.000116277
0.00116434 -2.78788e-05 -1.17151e-07
-2.78788e-05 0.000126512 6.19001e-08
-1.17151e-07 6.19001e-08 4.86238e-05
0.00105325 -3.70723e-05 -2.85251e-07
-3.70723e-05 6.92288e-05 7.70417e-07
-2.85251e-07 7.70417e-07 -1.86545e-05
0.00108764 -4.72719e-05 1.14377e-06
-4.72719e-05 0.000112073 -1.26321e-07
1.14377e-06 -1.26321e-07 -2.53356e-06
0.00118576 -4.00262e-05 1.73992e-07
-4.00262e-05 0.000149663 -5.56122e-07
1.73992e-07 -5.56122e-07 4.82184e-05
0.000910694 2.07815e-05 4.00651e-06
2.07815e-05 -0.000310254 -1.14745e-06
4.00651e-06 -1.14745e-06 -0.000360362
0.00225937 -7.82855e-05 9.17983e-06
-7.82855e-05 0.000308479 -4.90471e-06
9.17983e-06 -4.90471e-06 0.000285271
0.00153643 -8.29624e-05 6.33112e-06
-8.29624e-05 0.000174019 -9.52126e-07
6.33112e-06 -9.52126e-07 7.53153e-05
0.00113285 -6.92817e-05 1.2562e-06
-6.92817e-05 0.000123036 -2.79946e-06
1.2562e-06 -2.79946e-06 1.06638e-05
0.000978838 1.46163e-05 -2.50226e-07
1.46163e-05 3.63232e-05 -8.54839e-07
-2.50226e-07 -8.54839e-07 -3.72717e-05
0.000994382 -2.78739e-05 5.9089e-07
-2.78739e-05 4.28801e-05 -1.67971e-06
5.9089e-07 -1.67971e-06 -3.26305e-05
0.00106132 -4.28905e-05 3.13179e-07
-4.28905e-05 7.91654e-05 -1.24519e-06
3.13179e-07 -1.24519e-06 -1.35566e-05
0.00112032 -3.24904e-05 -2.07236e-07
-3.24904e-05 0.000138742 -1.20925e-06
-2.07236e-07 -1.20925e-06 1.16467e-05
0.000918108 -4.09944e-06 1.85483e-06
-4.09944e-06 -0.000182506 -8.82919e-07
1.85483e-06 -8.82919e-07 -0.000627978
0.00116182 4.6695e-05 -2.72087e-07
4.6695e-05 0.000125218 -3.47706e-07
-2.72087e-07 -3.47706e-07 3.80872e-05
0.0010277 4.64434e-05 1.30822e-07
4.64434e-05 4.59217e-05 -1.25597e-07
1.30822e-07 -1.25597e-07 -4.51572e-05
0.00131885 3.44309e-05 -6.43597e-06
3.44309e-05 -0.000136188 -7.07999e-08
-6.43597e-06 -7.07999e-08 -0.000174634
0.00165765 7.64674e-05 -4.23371e-06
7.64674e-05 9.26696e-05 -2.96294e-06
-4.23371e-06 -2.96294e-06 1.85678e-05
0.00137186 7.20833e-05 -1.46939e-06
7.20833e-05 0.000182873 -7.21712e-07
-1.46939e-06 -7.21712e-07 5.429e-05
0.000961881 4.87454e-05 1.09542e-06
4.87454e-05 2.89156e-05 -4.50977e-07
1.09542e-06 -4.50977e-07 -7.83199e-05
0.0017863 -1.6932e-05 -2.24493e-06
-1.6932e-05 4.55605e-05 1.23058e-06
-2.24493e-06 1.23058e-06 4.16927e-05
0.00118894 4.79048e-05 -2.90458e-08
4.79048e-05 0.000134822 -1.44203e-07
-2.90458e-08 -1.44203e-07 4.30599e-05
0.00162135 8.80752e-05 1.5151e-06
8.80752e-05 -2.845e-05 -8.50796e-08
1.5151e-06 -8.50796e-08 -9.91992e-05
0.00114596 4.95688e-05 4.01648e-07
4.95688e-05 0.000113869 8.16535e-08
4.01648e-07 8.16535e-08 1.56466e-05
0.00110742 5.81704e-05 -2.91865e-07
5.81704e-05 0.00012167 -1.64882e-07
-2.91865e-07 -1.64882e-07 -7.51623e-06
0.000720286 8.06162e-05 -1.60645e-06
8.06162e-05 -0.000205631 2.78278e-07
-1.60645e-06 2.78278e-07 -0.000317927
0.00145285 -5.88691e-05 -1.25121e-05
-5.88691e-05 0.000234426 -5.71948e-06
-1.25121e-05 -5.71948e-06 -0.000248784
0.00198887 -0.000101399 3.13689e-06
-0.000101399 0.000172866 -2.72572e-06
3.13689e-06 -2.72572e-06 -0.000112746
0.00232411 4.63283e-05 -2.35625e-06
4.63283e-05 0.000275284 -2.41319e-07
-2.35625e-06 -2.41319e-07 0.000303437
-0.000190161 -0.000101453 -1.03689e-05
-0.000101453 -0.000489996 -4.80895e-06
-1.03689e-05 -4.80895e-06 -0.000542019
0.000531039 -0.000122379 -3.67761e-06
-0.000122379 -0.000463137 -2.32037e-06
-3.67761e-06 -2.32037e-06 -0.000107936
0.00111852 4.67746e-05 1.25884e-06
4.67746e-05 0.000103791 9.65798e-08
1.25884e-06 9.65798e-08 8.67762e-06
4.28466e-06 2.20037e-05 -9.61126e-05
2.20037e-05 -0.000336425 -8.5952e-06
-9.61126e-05 -8.5952e-06 -0.000519217
0.00241222 -5.58955e-05 3.7028e-06
-5.58955e-05 0.000943488 3.59277e-07
3.7028e-06 3.59277e-07 0.00106545
0.00156678 0.000112467 7.15938e-06
0.000112467 8.41995e-05 6.95469e-06
7.15938e-06 6.95469e-06 -6.08983e-06
0.000895967 3.55909e-05 -5.58536e-08
3.55909e-05 1.84976e-06 -7.04026e-07
-5.58536e-08 -7.04026e-07 -0.000107949
0.00152626 5.41674e-05 -4.06045e-06
5.41674e-05 0.000374668 1.59143e-06
-4.06045e-06 1.59143e-06 0.000208523
0.00179831 3.86566e-05 -1.54547e-05
3.86566e-05 0.000124363 -1.30425e-05
-1.54547e-05 -1.30425e-05 5.65546e-05
0.00523297 -0.00015138 -6.78502e-05
-0.00015138 0.0015932 -1.55514e-05
-6.78502e-05 -1.55514e-05 0.00095542
0.00158927 -3.25791e-05 2.60658e-05
-3.25791e-05 9.59935e-05 2.68522e-05
2.60658e-05 2.68522e-05 -0.000293957
0.000312267 -0.000170315 -5.54407e-05
-0.000170315 -0.0001315 -2.63595e-05
-5.54407e-05 -2.63595e-05 -4.04544e-05
-0.000964723 -5.89973e-05 3.61851e-07
-5.89973e-05 -0.00125858 9.65929e-06
3.61851e-07 9.65929e-06 -0.0010755
0.00112202 4.55395e-05 -1.08985e-06
4.55395e-05 0.000100256 -8.20511e-07
-1.08985e-06 -8.20511e-07 9.9577e-06
0.00117721 4.57914e-05 -4.59002e-07
4.57914e-05 0.000114277 2.64992e-07
-4.59002e-07 2.64992e-07 1.96751e-05
0.0012597 4.76625e-05 -1.18374e-07
4.76625e-05 0.000146011 3.11434e-07
-1.18374e-07 3.11434e-07 4.59689e-05
0.000997525 2.101e-06 -3.0712e-08
2.101e-06 3.66835e-05 -5.39544e-07
-3.0712e-08 -5.39544e-07 -1.2695e-05
0.00103772 -1.3901e-06 1.60447e-07
-1.3901e-06 6.29191e-05 -1.04886e-06
1.60447e-07 -1.04886e-06 -1.59147e-06
0.000960423 2.96789e-05 -7.24899e-07
2.96789e-05 2.02907e-05 -1.2281e-06
-7.24899e-07 -1.2281e-06 -5.71607e-05
0.00107607 3.53758e-05 -6.35401e-07
3.53758e-05 7.62238e-05 -1.16606e-06
-6.35401e-07 -1.16606e-06 -8.71086e-06
0.00112976 3.72092e-05 -6.26908e-07
3.72092e-05 9.52751e-05 -1.07858e-06
-6.26908e-07 -1.07858e-06 4.24542e-06
0.000792938 -6.58369e-06 2.35167e-07
-6.58369e-06 -6.58398e-05 4.9174e-07
2.35167e-07 4.9174e-07 -0.000117012
0.00114534 4.12401e-05 -3.56752e-07
4.12401e-05 0.00011085 -7.09201e-07
-3.56752e-07 -7.09201e-07 2.6909e-05
0.00108919 1.48639e-05 2.10894e-08
1.48639e-05 8.54953e-05 4.86639e-07
2.10894e-08 4.86639e-07 8.2601e-06
0.000954088 5.00384e-06 1.84952e-07
5.00384e-06 2.02018e-05 -4.24366e-07
1.84952e-07 -4.24366e-07 -4.51317e-05
0.00106144 4.00637e-05 -2.30495e-08
4.00637e-05 6.64124e-05 2.22016e-07
-2.30495e-08 2.22016e-07 -2.8234e-05
0.00111976 3.78587e-05 2.11186e-08
3.78587e-05 9.95425e-05 4.50884e-07
2.11186e-08 4.50884e-07 1.12313e-05
0.00121011 4.17806e-05 2.64753e-07
4.17806e-05 0.000160373 7.64983e-07
2.64753e-07 7.64983e-07 5.43276e-05
0.00106506 -2.62963e-05 -4.26289e-07
-2.62963e-05 7.4109e-05 7.76922e-07
-4.26289e-07 7.76922e-07 -3.16176e-06
0.0010799 -2.01145e-05 -2.10487e-07
-2.01145e-05 8.25597e-05 2.8223e-07
-2.10487e-07 2.8223e-07 1.78141e-05
0.00108268 -8.38288e-06 -1.29206e-07
-8.38288e-06 8.39117e-05 -5.32001e-08
-1.29206e-07 -5.32001e-08 1.95351e-05
0.00108951 2.45815e-06 -8.18153e-08
2.45815e-06 8.6393e-05 -4.32327e-07
-8.18153e-08 -4.32327e-07 9.82336e-06
0.00107746 6.44951e-06 1.23662e-07
6.44951e-06 8.09101e-05 9.30812e-07
1.23662e-07 9.30812e-07 4.29184e-06
0.00106465 -9.65411e-06 -7.13728e-08
-9.65411e-06 7.56982e-05 1.00851e-06
-7.13728e-08 1.00851e-06 -2.87721e-06
0.00117082 -8.68373e-07 2.03748e-08
-8.68373e-07 0.000123276 2.96303e-08
2.03748e-08 2.96303e-08 3.96863e-05
0.00104261 -3.64964e-05 -8.03669e-07
-3.64964e-05 6.81819e-05 6.92412e-07
-8.03669e-07 6.92412e-07 -1.60697e-05
0.00103484 -2.34875e-05 -2.44622e-07
-2.34875e-05 6.07312e-05 1.01761e-06
-2.44622e-07 1.01761e-06 -9.88221e-06
0.00103136 -1.74986e-05 4.08371e-08
-1.74986e-05 5.91532e-05 -1.29103e-08
4.08371e-08 -1.29103e-08 -8.62099e-06
0.000998531 -1.19938e-05 -4.16056e-07
-1.19938e-05 3.49687e-05 1.20327e-06
-4.16056e-07 1.20327e-06 -1.709e-05
0.000881342 -1.00258e-05 3.52345e-07
-1.00258e-05 -1.7023e-05 -1.43807e-06
3.52345e-07 -1.43807e-06 -8.34574e-05
0.000901346 -1.09149e-05 8.97663e-08
-1.09149e-05 -1.29492e-05 -1.92794e-08
8.97663e-08 -1.92794e-08 -6.40049e-05
0.000976312 4.60985e-06 -3.40645e-07
4.60985e-06 1.16408e-05 1.79216e-06
-3.40645e-07 1.79216e-06 -1.91197e-05
0.000807701 8.69358e-07 1.11211e-07
8.69358e-07 -5.91011e-05 -5.40227e-07
1.11211e-07 -5.40227e-07 -0.000110161
0.000969369 -6.67971e-08 -1.46321e-07
-6.67971e-08 8.34194e-06 -1.02534e-08
-1.46321e-07 -1.02534e-08 -2.17997e-05
0.00153518 5.18487e-06 -2.12051e-06
5.18487e-06 0.000280225 4.42628e-06
-2.12051e-06 4.42628e-06 0.000281921
0.00096381 -8.48661e-06 5.20511e-07
-8.48661e-06 5.9773e-06 -1.72392e-06
5.20511e-07 -1.72392e-06 -2.37225e-05
0.00122913 2.51833e-06 -7.16063e-07
2.51833e-06 0.000124566 6.21734e-07
-7.16063e-07 6.21734e-07 0.000125249
0.0011127 1.64262e-06 -1.67217e-06
1.64262e-06 6.24999e-05 3.99325e-06
-1.67217e-06 3.99325e-06 7.99996e-05
0.000924192 -2.08031e-07 5.00811e-08
-2.08031e-07 -2.95607e-05 -3.16281e-06
5.00811e-08 -3.16281e-06 -3.00111e-05
0.00229926 -7.16515e-07 9.52199e-07
-7.16515e-07 0.000660181 1.19576e-11
9.52199e-07 1.19576e-11 0.000683613
0.00110874 -2.71852e-06 -7.72586e-07
-2.71852e-06 6.12334e-05 -3.99095e-06
-7.72586e-07 -3.99095e-06 7.88964e-05
0.00101287 1.46977e-05 1.37394e-07
1.46977e-05 3.72953e-05 -6.52318e-07
1.37394e-07 -6.52318e-07 -5.27837e-06
0.000980945 5.07249e-07 2.64478e-08
5.07249e-07 7.09321e-06 -1.88502e-06
2.64478e-08 -1.88502e-06 -1.71574e-05
0.000980716 2.27731e-06 -3.52258e-08
2.27731e-06 7.33927e-06 -1.44553e-08
-3.52258e-08 -1.44553e-08 -1.70479e-05
0.000914937 2.98522e-06 2.73386e-07
2.98522e-06 -3.46129e-05 -3.244e-06
2.73386e-07 -3.244e-06 -3.20018e-05
0.000974395 4.31239e-06 -4.13037e-07
4.31239e-06 5.32688e-06 1.88716e-06
-4.13037e-07 1.88716e-06 -1.97898e-05
0.000911866 5.82197e-06 4.51417e-08
5.82197e-06 -3.46677e-05 -6.24416e-07
4.51417e-08 -6.24416e-07 -3.26828e-05
0.00220899 7.14197e-06 3.97794e-06
7.14197e-06 0.000616475 -3.95821e-06
3.97794e-06 -3.95821e-06 0.000640696
0.00146873 1.00941e-05 -1.23711e-06
1.00941e-05 0.000248894 1.9919e-06
-1.23711e-06 1.9919e-06 0.000252218
0.00168573 9.56138e-06 1.44903e-07
9.56138e-06 0.000356284 1.21742e-06
1.44903e-07 1.21742e-06 0.000376701
0.00114935 1.11618e-05 -8.64927e-06
1.11618e-05 9.02458e-05 6.47312e-06
-8.64927e-06 6.47312e-06 0.000106693
0.000821011 -3.21996e-05 -4.67685e-06
-3.21996e-05 -0.000306421 9.71718e-07
-4.67685e-06 9.71718e-07 -0.000313254
0.00125025 -1.2685e-06 -2.42167e-06
-1.2685e-06 -1.4379e-05 -7.91296e-07
-2.42167e-06 -7.91296e-07 -8.24953e-05
0.000911419 8.39866e-06 -5.6885e-06
8.39866e-06 -0.00024083 -4.11883e-06
-5.6885e-06 -4.11883e-06 -0.000290271
0.000961007 -8.88934e-05 3.73564e-05
-8.88934e-05 7.23369e-05 5.88138e-06
3.73564e-05 5.88138e-06 -0.000118085
0.00105418 -5.23382e-06 -1.71946e-06
-5.23382e-06 -1.99138e-05 -2.81017e-07
-1.71946e-06 -2.81017e-07 -4.11687e-05
0.00134072 3.23111e-05 -1.49993e-06
3.23111e-05 -5.12581e-05 -1.53937e-06
-1.49993e-06 -1.53937e-06 -0.000121591
0.0012473 4.8642e-05 1.51363e-06
4.8642e-05 6.22676e-05 2.87031e-06
1.51363e-06 2.87031e-06 1.24405e-05
0.000838904 -2.33174e-05 0.000103153
-2.33174e-05 -6.19756e-06 8.38892e-06
0.000103153 8.38892e-06 -0.000224134
0.00441579 5.26428e-05 -1.65038e-05
5.26428e-05 0.00126545 -9.51176e-07
-1.65038e-05 -9.51176e-07 0.000677884
0.0028186 0.00016298 -3.4681e-05
0.00016298 0.00100366 1.81133e-05
-3.4681e-05 1.81133e-05 0.000927167
0.0011762 9.18198e-05 -6.82006e-06
9.18198e-05 3.40021e-05 1.24343e-06
-6.82006e-06 1.24343e-06 0.000293786
0.00082352 -1.06679e-07 5.02333e-07
-1.06679e-07 -4.77048e-05 -1.24677e-06
5.02333e-07 -1.24677e-06 -0.000104407
0.00100496 -4.41874e-06 -8.0598e-08
-4.41874e-06 3.35443e-05 9.62772e-10
-8.0598e-08 9.62772e-10 -8.40725e-06
0.00101609 -1.73282e-05 -4.92994e-07
-1.73282e-05 3.95277e-05 1.15007e-06
-4.92994e-07 1.15007e-06 -3.16597e-06
0.00094764 1.50723e-05 -1.32356e-07
1.50723e-05 1.48984e-05 -1.71252e-08
-1.32356e-07 -1.71252e-08 -4.15392e-05
0.00114861 3.50296e-05 2.02848e-07
3.50296e-05 0.000120135 2.57282e-08
2.02848e-07 2.57282e-08 5.36975e-05
0.00110126 3.7387e-05 1.7934e-07
3.7387e-05 9.36574e-05 -7.26203e-08
1.7934e-07 -7.26203e-08 2.96184e-05
0.00105147 3.484e-06 3.06262e-07
3.484e-06 6.60191e-05 -1.65784e-06
3.06262e-07 -1.65784e-06 8.95386e-06
0.000966565 -1.27175e-05 -1.57871e-07
-1.27175e-05 2.27181e-05 4.85238e-07
-1.57871e-07 4.85238e-07 -3.30685e-05
0.00166153 2.88744e-05 -2.91574e-06
2.88744e-05 0.000136089 5.43873e-07
-2.91574e-06 5.43873e-07 6.96608e-05
0.00148895 -3.00663e-05 -2.60356e-06
-3.00663e-05 -2.98687e-06 1.55869e-06
-2.60356e-06 1.55869e-06 -2.77567e-05
0.001053 -6.27113e-05 -7.60876e-06
-6.27113e-05 -0.000160532 -6.61504e-07
-7.60876e-06 -6.61504e-07 -0.000211586
0.00127012 -6.04962e-05 -5.7357e-07
-6.04962e-05 0.000183383 2.24713e-06
-5.7357e-07 2.24713e-06 8.34804e-05
0.00122847 -6.95353e-05 -1.87818e-06
-6.95353e-05 0.000103609 2.23548e-06
-1.87818e-06 2.23548e-06 8.50661e-07
0.00111816 -4.80119e-05 -5.07478e-07
-4.80119e-05 0.000122901 9.52096e-07
-5.07478e-07 9.52096e-07 1.29485e-05
0.00123704 -4.2564e-05 2.45156e-07
-4.2564e-05 0.000175405 7.78122e-07
2.45156e-07 7.78122e-07 7.28424e-05
0.00101875 -3.84005e-05 -5.96861e-07
-3.84005e-05 5.11433e-05 1.45378e-06
-5.96861e-07 1.45378e-06 -3.63774e-05
0.00103502 -1.03356e-05 -3.11579e-07
-1.03356e-05 5.9841e-05 1.28027e-06
-3.11579e-07 1.28027e-06 -2.27871e-06
0.00120022 -2.14289e-05 -1.8432e-07
-2.14289e-05 0.000144684 1.05869e-06
-1.8432e-07 1.05869e-06 6.7411e-05
0.00121075 8.79166e-06 -3.15565e-07
8.79166e-06 0.000146702 5.14991e-07
-3.15565e-07 5.14991e-07 9.05772e-05
0.000949399 2.07157e-05 1.88569e-07
2.07157e-05 1.77601e-05 2.16359e-06
1.88569e-07 2.16359e-06 -5.15936e-05
0.00173306 3.03515e-05 6.40718e-07
3.03515e-05 7.62885e-05 -2.61498e-06
6.40718e-07 -2.61498e-06 2.69736e-05
0.00101127 1.49356e-05 -2.04442e-07
1.49356e-05 5.24437e-05 2.80554e-07
-2.04442e-07 2.80554e-07 -2.06343e-05
0.00104866 -2.84291e-05 1.43575e-07
-2.84291e-05 7.02577e-05 -4.62224e-07
1.43575e-07 -4.62224e-07 -5.27895e-06
0.00172094 -7.25046e-05 -3.79006e-06
-7.25046e-05 5.07734e-05 -1.0384e-06
-3.79006e-06 -1.0384e-06 3.43756e-05
0.000903522 -7.35971e-05 1.58674e-06
-7.35971e-05 -0.000128961 1.10498e-06
1.58674e-06 1.10498e-06 -0.00022569
0.00113535 -6.99891e-05 -9.59665e-08
-6.99891e-05 0.00012403 -4.3608e-07
-9.59665e-08 -4.3608e-07 6.39695e-06
0.00109841 -3.90244e-05 -2.97821e-08
-3.90244e-05 9.60564e-05 -1.10513e-07
-2.97821e-08 -1.10513e-07 3.38775e-06
0.00114071 -3.44205e-05 -5.00276e-08
-3.44205e-05 0.000147952 2.55611e-07
-5.00276e-08 2.55611e-07 2.1674e-05
0.00131789 -2.93578e-05 -1.17813e-07
-2.93578e-05 -0.000338674 1.02209e-05
-1.17813e-07 1.02209e-05 -0.000287655
0.0024504 -0.000128454 1.20889e-05
-0.000128454 0.000541411 -2.06551e-06
1.20889e-05 -2.06551e-06 0.000438369
0.00045394 -7.33456e-05 1.65248e-06
-7.33456e-05 -0.000251174 -3.17957e-06
1.65248e-06 -3.17957e-06 -0.000366566
0.00133345 -5.27675e-05 6.8872e-07
-5.27675e-05 0.000255085 -1.74986e-06
6.8872e-07 -1.74986e-06 0.000101103
0.000973957 -2.57085e-05 9.32998e-08
-2.57085e-05 3.71838e-05 -1.11734e-06
9.32998e-08 -1.11734e-06 -4.35807e-05
0.00105722 -2.43384e-05 5.51282e-07
-2.43384e-05 7.49072e-05 -1.33376e-06
5.51282e-07 -1.33376e-06 -1.19044e-05
0.001244 -2.09914e-05 -9.63823e-08
-2.09914e-05 0.00017908 -1.00574e-06
-9.63823e-08 -1.00574e-06 7.08666e-05
-0.000600192 -8.31724e-06 -8.88732e-05
-8.31724e-06 -0.000546892 2.32194e-07
-8.88732e-05 2.32194e-07 -0.000547399
0.0047059 -2.10706e-05 -2.18534e-05
-2.10706e-05 0.00155765 -2.69238e-06
-2.18534e-05 -2.69238e-06 0.0010958
0.00120509 4.83204e-05 -2.34575e-07
4.83204e-05 0.000143098 -1.60772e-07
-2.34575e-07 -1.60772e-07 5.16276e-05
0.00100351 4.62653e-05 7.51136e-07
4.62653e-05 4.75015e-05 -1.06902e-06
7.51136e-07 -1.06902e-06 -5.07761e-05
0.00207139 9.14559e-05 -1.01972e-05
9.14559e-05 0.000175573 -2.01802e-06
-1.01972e-05 -2.01802e-06 0.000105205
0.00108974 8.4563e-05 -1.73299e-06
8.4563e-05 -3.00667e-05 -2.85093e-06
-1.73299e-06 -2.85093e-06 -0.000138821
0.00104529 5.65393e-05 1.49321e-06
5.65393e-05 9.05385e-05 -1.49475e-06
1.49321e-06 -1.49475e-06 -3.5871e-05
0.00455811 -2.54518e-05 1.35454e-05
-2.54518e-05 0.00136798 -1.12429e-05
1.35454e-05 -1.12429e-05 0.000777077
0.000707411 -0.000104039 -3.65995e-05
-0.000104039 -0.000124111 -1.59063e-05
-3.65995e-05 -1.59063e-05 -0.000349275
0.00199404 5.47779e-05 1.06282e-05
5.47779e-05 0.000121875 -1.44191e-06
1.06282e-05 -1.44191e-06 0.000143238
0.00269913 -0.000148372 3.3496e-05
-0.000148372 0.00102057 1.09049e-05
3.3496e-05 1.09049e-05 0.000961705
-9.35909e-05 -0.000123969 7.27032e-06
-0.000123969 -0.000742274 9.10407e-06
7.27032e-06 9.10407e-06 -0.000442162
0.00112487 4.70729e-05 3.26211e-07
4.70729e-05 0.000102894 -2.28306e-07
3.26211e-07 -2.28306e-07 8.04214e-06
-0.000597961 -1.58203e-05 -1.73462e-05
-1.58203e-05 -0.000416726 -5.78462e-07
-1.73462e-05 -5.78462e-07 -0.000442974
0.00138842 -5.46134e-05 -1.84151e-06
-5.46134e-05 0.000354235 1.43974e-06
-1.84151e-06 1.43974e-06 0.000466558
0.00159684 0.000114341 1.27118e-06
0.000114341 9.92441e-05 1.52787e-06
1.27118e-06 1.52787e-06 8.82883e-06
0.00115831 4.2117e-05 -6.68883e-08
4.2117e-05 0.00013564 -1.03269e-06
-6.68883e-08 -1.03269e-06 2.9436e-05
0.00138773 5.81415e-05 5.00208e-07
5.81415e-05 0.000306247 7.3053e-08
5.00208e-07 7.3053e-08 0.000143763
0.00188488 3.47992e-05 -2.32019e-05
3.47992e-05 0.000198086 -1.58318e-05
-2.32019e-05 -1.58318e-05 0.000125364
0.00397136 -7.32913e-05 8.62931e-06
-7.32913e-05 0.000929694 7.57392e-06
8.62931e-06 7.57392e-06 0.000236239
0.000828772 -4.20291e-05 -6.19092e-06
-4.20291e-05 -4.32525e-05 -1.38817e-05
-6.19092e-06 -1.38817e-05 -0.000205413
0.00253666 -0.000238078 6.97949e-06
-0.000238078 0.000552314 -2.15448e-06
6.97949e-06 -2.15448e-06 0.000568419
0.000270667 -6.42372e-05 -1.71571e-06
-6.42372e-05 -0.000520633 -3.58959e-06
-1.71571e-06 -3.58959e-06 -0.000313112
0.00103802 2.99853e-05 -7.14936e-07
2.99853e-05 3.26754e-05 -6.22932e-07
-7.14936e-07 -6.22932e-07 -6.3547e-05
0.000433905 -1.06685e-05 8.7821e-06
-1.06685e-05 -8.92249e-05 1.66167e-06
8.7821e-06 1.66167e-06 -8.29012e-05
0.000837275 -6.38142e-06 7.88059e-06
-6.38142e-06 0.000108301 1.18073e-05
7.88059e-06 1.18073e-05 4.46487e-05
0.000929233 5.06076e-05 1.18958e-05
5.06076e-05 9.02481e-06 5.31607e-06
1.18958e-05 5.31607e-06 -0.000180498
0.00170133 3.32323e-05 -5.21573e-06
3.32323e-05 0.00045714 -7.42071e-07
-5.21573e-06 -7.42071e-07 0.000327826
0.00254894 -3.24158e-05 -1.0253e-05
-3.24158e-05 0.000888092 -4.06576e-06
-1.0253e-05 -4.06576e-06 0.000859948
0.000149014 9.2395e-05 -4.73867e-05
9.2395e-05 -0.000117953 -1.92645e-06
-4.73867e-05 -1.92645e-06 -0.000338032
0.00248931 -0.000183724 1.94188e-05
-0.000183724 0.000149542 3.16074e-05
1.94188e-05 3.16074e-05 -0.000560241
0.00331602 -0.000264841 -2.90657e-05
-0.000264841 0.000755974 -1.49137e-05
-2.90657e-05 -1.49137e-05 0.000798043
-0.000174279 -7.67128e-06 -3.00957e-06
-7.67128e-06 -0.000678672 7.81212e-06
-3.00957e-06 7.81212e-06 -0.000657474
0.00121662 4.73892e-05 -7.58316e-07
4.73892e-05 0.00013481 3.17435e-07
-7.58316e-07 3.17435e-07 4.00982e-05
0.00116237 4.50348e-05 3.13321e-07
4.50348e-05 9.90462e-05 4.42273e-07
3.13321e-07 4.42273e-07 -1.35162e-06
0.000921636 4.34588e-05 1.38947e-06
4.34588e-05 7.59359e-06 -3.26156e-07
1.38947e-06 -3.26156e-07 -0.000101715
0.000801915 1.01861e-05 5.37322e-08
1.01861e-05 -6.15738e-05 -5.37672e-07
5.37322e-08 -5.37672e-07 -0.000112648
0.00104701 1.1242e-05 4.44807e-09
1.1242e-05 6.63949e-05 -1.24475e-06
4.44807e-09 -1.24475e-06 1.80425e-06
0.00124201 1.28841e-06 9.90581e-08
1.28841e-06 0.000162744 -1.06668e-07
9.90581e-08 -1.06668e-07 8.65438e-05
0.0010276 3.4879e-05 -2.36237e-07
3.4879e-05 5.1533e-05 -1.39212e-06
-2.36237e-07 -1.39212e-06 -3.22455e-05
0.000929632 3.81891e-05 -3.76119e-07
3.81891e-05 -7.33388e-07 -4.97473e-07
-3.76119e-07 -4.97473e-07 -9.63796e-05
0.00106862 4.57706e-06 2.47354e-07
4.57706e-06 7.7248e-05 -4.95285e-07
2.47354e-07 -4.95285e-07 1.22991e-05
0.0010887 3.27286e-05 -1.10779e-07
3.27286e-05 8.43914e-05 -8.80032e-08
-1.10779e-07 -8.80032e-08 -2.88171e-06
0.0010618 -1.10059e-05 1.5946e-09
-1.10059e-05 7.26675e-05 1.09775e-07
1.5946e-09 1.09775e-07 -4.66475e-06
0.00110131 3.74059e-05 3.44732e-07
3.74059e-05 0.000107119 2.78245e-07
3.44732e-07 2.78245e-07 -1.12126e-07
0.00120031 1.1086e-05 3.64214e-07
1.1086e-05 0.000166187 -6.65809e-07
3.64214e-07 -6.65809e-07 5.09412e-05
0.00118694 1.72089e-05 -4.42896e-07
1.72089e-05 0.000141468 1.21156e-06
-4.42896e-07 1.21156e-06 4.75355e-05
0.00109928 7.81197e-06 2.05627e-07
7.81197e-06 9.15886e-05 6.30186e-07
2.05627e-07 6.30186e-07 1.46428e-05
0.00107633 -1.36082e-05 2.65987e-08
-1.36082e-05 8.1218e-05 -8.40096e-07
2.65987e-08 -8.40096e-07 1.66546e-05
0.00096151 -1.96358e-05 1.73168e-07
-1.96358e-05 2.15983e-05 -1.43953e-06
1.73168e-07 -1.43953e-06 -5.59706e-05
0.00108043 -1.22023e-06 1.79029e-07
-1.22023e-06 8.19601e-05 4.61563e-08
1.79029e-07 4.61563e-08 5.68817e-06
0.00106387 -1.17536e-05 -1.17747e-08
-1.17536e-05 7.56779e-05 2.56875e-08
-1.17747e-08 2.56875e-08 -2.98645e-06
0.0011078 -1.20872e-05 -9.67651e-09
-1.20872e-05 9.03014e-05 -8.02787e-07
-9.67651e-09 -8.02787e-07 6.46348e-06
0.00102759 -2.38433e-05 -4.17e-07
-2.38433e-05 6.06438e-05 1.2926e-06
-4.17e-07 1.2926e-06 -2.13847e-05
0.00116959 4.03951e-06 6.25043e-08
4.03951e-06 0.000121473 2.45164e-07
6.25043e-08 2.45164e-07 3.6712e-05
0.000979427 -2.52809e-05 -1.62257e-07
-2.52809e-05 2.9337e-05 4.58969e-07
-1.62257e-07 4.58969e-07 -5.93084e-05
0.00109706 -3.94854e-05 4.36179e-08
-3.94854e-05 9.03092e-05 -9.90197e-07
4.36179e-08 -9.90197e-07 2.54775e-06
0.000859343 -4.13624e-05 2.27829e-07
-4.13624e-05 -1.67229e-05 2.08719e-07
2.27829e-07 2.08719e-07 -9.95063e-05
0.000961985 -4.04907e-05 -9.54822e-07
-4.04907e-05 2.76899e-05 -4.35157e-07
-9.54822e-07 -4.35157e-07 -5.50218e-05
0.00106578 -3.65597e-05 -2.80942e-07
-3.65597e-05 7.91098e-05 2.05219e-07
-2.80942e-07 2.05219e-07 -4.94823e-06
0.00105071 -3.29209e-05 -9.49845e-07
-3.29209e-05 6.85541e-05 1.331e-06
-9.49845e-07 1.331e-06 -4.68353e-06
0.00104305 -2.54158e-05 1.23069e-08
-2.54158e-05 6.47489e-05 -2.69371e-09
1.23069e-08 -2.69371e-09 -5.90321e-06
0.00100247 -9.83121e-06 -3.80719e-07
-9.83121e-06 3.56741e-05 1.34824e-06
-3.80719e-07 1.34824e-06 -1.87772e-05
0.00103383 -1.95903e-05 3.55611e-07
-1.95903e-05 6.05067e-05 -9.48642e-07
3.55611e-07 -9.48642e-07 -7.32317e-06
0.00100006 -9.28841e-06 9.81281e-08
-9.28841e-06 3.57796e-05 -4.86893e-08
9.81281e-08 -4.86893e-08 -1.6236e-05
0.000970726 5.45034e-06 -5.79014e-07
5.45034e-06 9.47171e-06 1.83754e-06
-5.79014e-07 1.83754e-06 -2.22675e-05
0.000809287 -1.81174e-06 1.68091e-07
-1.81174e-06 -5.932e-05 -1.11303e-06
1.68091e-07 -1.11303e-06 -0.000110852
0.0009711 -2.62898e-07 -1.14806e-07
-2.62898e-07 8.89483e-06 -7.33325e-09
-1.14806e-07 -7.33325e-09 -2.18895e-05
0.00153814 7.8472e-06 -3.34943e-06
7.8472e-06 0.000283831 4.4567e-06
-3.34943e-06 4.4567e-06 0.000284896
0.000965677 -6.8076e-06 6.61388e-07
-6.8076e-06 6.35443e-06 -1.74178e-06
6.61388e-07 -1.74178e-06 -2.37743e-05
0.00122749 5.1758e-06 -1.12273e-06
5.1758e-06 0.000125186 6.185e-07
-1.12273e-06 6.185e-07 0.000125396
0.00106862 5.29696e-06 -7.41971e-07
5.29696e-06 4.20299e-05 1.59007e-06
-7.41971e-07 1.59007e-06 5.93101e-05
0.000921765 2.31555e-06 3.90384e-07
2.31555e-06 -3.04863e-05 -3.17956e-06
3.90384e-07 -3.17956e-06 -3.12099e-05
0.00230798 2.8915e-06 8.91977e-07
2.8915e-06 0.000664791 5.11578e-09
8.91977e-07 5.11578e-09 0.000688101
0.00229765 -5.48146e-07 1.01635e-06
-5.48146e-07 0.00065937 -4.08646e-06
1.01635e-06 -4.08646e-06 0.000682797
0.00125646 1.62795e-05 -5.77966e-07
1.62795e-05 0.000158287 -1.02413e-06
-5.77966e-07 -1.02413e-06 0.000115957
0.000978513 -9.81949e-07 -1.68271e-07
-9.81949e-07 6.13203e-06 -1.89055e-06
-1.68271e-07 -1.89055e-06 -1.86095e-05
0.00100273 5.54766e-06 2.7882e-07
5.54766e-06 3.21718e-05 4.73349e-07
2.7882e-07 4.73349e-07 -1.02593e-05
0.000919969 1.98733e-07 -4.20528e-08
1.98733e-07 -3.2565e-05 -3.24662e-06
-4.20528e-08 -3.24662e-06 -2.98348e-05
0.000982049 2.23818e-07 -3.28648e-08
2.23818e-07 7.64639e-06 -6.05147e-09
-3.28648e-08 -6.05147e-09 -1.66101e-05
0.000977972 1.99469e-06 -2.84968e-07
1.99469e-06 5.78845e-06 1.90327e-06
-2.84968e-07 1.90327e-06 -1.85775e-05
0.00091921 3.06098e-06 -8.20985e-08
3.06098e-06 -3.2499e-05 -3.20277e-09
-8.20985e-08 -3.20277e-09 -2.99081e-05
0.00219707 3.57861e-06 1.7781e-06
3.57861e-06 0.000609007 -3.98032e-06
1.7781e-06 -3.98032e-06 0.000633611
0.00146123 6.95031e-06 -8.62923e-07
6.95031e-06 0.00024214 1.98981e-06
-8.62923e-07 1.98981e-06 0.00024674
0.001653 6.60083e-06 1.12624e-06
6.60083e-06 0.000336649 3.44904e-08
1.12624e-06 3.44904e-08 0.000358096
0.00114805 8.40025e-06 -7.0098e-06
8.40025e-06 8.51287e-05 6.41258e-06
-7.0098e-06 6.41258e-06 0.000102843
-0.00253229 3.22255e-05 -5.55316e-05
3.22255e-05 -0.00154577 1.20842e-05
-5.55316e-05 1.20842e-05 -0.00156392
-0.0010483 4.06363e-05 -4.65083e-06
4.06363e-05 -0.00108419 6.20866e-06
-4.65083e-06 6.20866e-06 -0.00102344
0.000609317 -7.43348e-05 -4.80271e-05
-7.43348e-05 -9.67595e-06 -1.43767e-05
-4.80271e-05 -1.43767e-05 -0.000198579
0.00108866 -1.19235e-05 -2.29021e-06
-1.19235e-05 -2.09728e-07 -4.10952e-07
-2.29021e-06 -4.10952e-07 -1.60778e-05
0.00125297 3.54972e-05 -1.12615e-05
3.54972e-05 -9.56967e-05 -1.71672e-06
-1.12615e-05 -1.71672e-06 -0.000166583
0.000640238 -2.93525e-05 1.91663e-05
-2.93525e-05 9.68387e-05 -4.09147e-07
1.91663e-05 -4.09147e-07 -9.33688e-06
0.00146541 5.34629e-05 2.45032e-06
5.34629e-05 0.000136612 1.86344e-06
2.45032e-06 1.86344e-06 8.22199e-05
0.00422392 7.36682e-05 -2.53512e-05
7.36682e-05 0.00122382 -2.74675e-07
-2.53512e-05 -2.74675e-07 0.000703367
-0.00148638 8.58223e-05 1.01436e-05
8.58223e-05 -0.000838252 -3.55682e-06
1.01436e-05 -3.55682e-06 -0.0008411
0.000622587 0.000101009 1.0568e-06
0.000101009 -0.000282211 6.22466e-07
1.0568e-06 6.22466e-07 -2.94061e-05
0.000849238 4.29484e-05 2.52554e-05
4.29484e-05 0.000247693 -1.32588e-05
2.52554e-05 -1.32588e-05 8.83192e-05
0.00422405 0.000194437 -2.16465e-05
0.000194437 0.00115573 1.77561e-05
-2.16465e-05 1.77561e-05 0.000609072
0.000397697 0.000151172 -5.34735e-05
0.000151172 -3.7435e-05 3.20883e-05
-5.34735e-05 3.20883e-05 5.36228e-05
0.000846892 6.45764e-05 -2.52445e-07
6.45764e-05 -0.0002949 -3.77782e-06
-2.52445e-07 -3.77782e-06 -5.75778e-06
0.000949607 1.99077e-05 -2.60287e-07
1.99077e-05 2.2659e-05 -1.08373e-06
-2.60287e-07 -1.08373e-06 -4.65905e-05
0.000923409 9.2122e-06 -9.63142e-09
9.2122e-06 1.39187e-06 -3.98946e-07
-9.63142e-09 -3.98946e-07 -5.46719e-05
0.00100559 -1.29899e-05 -4.1849e-07
-1.29899e-05 3.40505e-05 1.1584e-06
-4.1849e-07 1.1584e-06 -7.98899e-06
0.000866699 1.6036e-05 -1.02227e-07
1.6036e-05 -2.49895e-05 9.03188e-07
-1.02227e-07 9.03188e-07 -8.1785e-05
0.00107086 3.48242e-05 4.91056e-07
3.48242e-05 8.21101e-05 9.16748e-07
4.91056e-07 9.16748e-07 1.65033e-05
0.00111042 2.39002e-05 -1.52705e-07
2.39002e-05 0.000100582 -8.46353e-07
-1.52705e-07 -8.46353e-07 3.28336e-05
0.00103957 1.94444e-05 5.54557e-07
1.94444e-05 6.26073e-05 9.17625e-07
5.54557e-07 9.17625e-07 -7.74172e-07
0.00104432 6.07831e-06 2.99982e-07
6.07831e-06 6.29588e-05 -7.18348e-07
2.99982e-07 -7.18348e-07 1.8296e-06
0.000984129 -1.75888e-06 1.27995e-07
-1.75888e-06 3.25257e-05 -4.99734e-07
1.27995e-07 -4.99734e-07 -2.53116e-05
0.000895183 -1.28992e-05 -1.90307e-07
-1.28992e-05 -1.28236e-05 1.39081e-06
-1.90307e-07 1.39081e-06 -6.88659e-05
0.00240043 3.86899e-05 -5.9271e-06
3.86899e-05 0.000386607 2.60782e-06
-5.9271e-06 2.60782e-06 0.000338096
0.0011186 -6.7293e-05 -1.33727e-05
-6.7293e-05 -0.000241629 1.8561e-06
-1.33727e-05 1.8561e-06 -0.000252083
0.000246516 -6.37163e-05 -3.66572e-06
-6.37163e-05 -0.000442515 3.09119e-06
-3.66572e-06 3.09119e-06 -0.000537318
0.00105607 -6.89612e-05 -1.47872e-06
-6.89612e-05 8.49421e-05 2.93647e-06
-1.47872e-06 2.93647e-06 -3.80362e-05
0.00114005 -3.59986e-05 1.96497e-07
-3.59986e-05 0.000146246 1.28264e-06
1.96497e-07 1.28264e-06 2.12843e-05
0.00114422 -3.57345e-05 -8.97405e-08
-3.57345e-05 0.000117151 8.26631e-07
-8.97405e-08 8.26631e-07 2.45457e-05
0.00110482 -3.08997e-05 -3.01622e-07
-3.08997e-05 9.8444e-05 6.65754e-07
-3.01622e-07 6.65754e-07 2.29802e-05
0.00104154 1.54451e-05 2.2532e-08
1.54451e-05 6.74631e-05 1.19498e-06
2.2532e-08 1.19498e-06 -5.08771e-06
0.00197254 -3.45275e-05 -3.39213e-06
-3.45275e-05 -1.91164e-05 7.99672e-07
-3.39213e-06 7.99672e-07 8.04655e-07
0.000958569 -1.17969e-05 -1.2631e-07
-1.17969e-05 2.97812e-05 -8.52191e-08
-1.2631e-07 -8.52191e-08 -5.1368e-05
0.00102388 -2.75528e-05 2.78445e-07
-2.75528e-05 5.72365e-05 -5.10858e-07
2.78445e-07 -5.10858e-07 -3.0707e-05
0.00168381 -0.000111935 2.6841e-06
-0.000111935 0.000158857 5.2938e-07
2.6841e-06 5.2938e-07 6.97942e-05
0.000702662 -7.74322e-05 -4.74762e-07
-7.74322e-05 -0.000128108 7.02153e-07
-4.74762e-07 7.02153e-07 -0.000245435
0.00125141 -5.00704e-05 6.24891e-07
-5.00704e-05 0.000207068 -1.78349e-07
6.24891e-07 -1.78349e-07 5.90586e-05
0.00120962 -1.83494e-05 -1.19931e-07
-1.83494e-05 0.000163592 -4.37961e-07
-1.19931e-07 -4.37961e-07 5.03403e-05
0.00211587 -0.000104994 5.01184e-07
-0.000104994 2.17934e-06 1.93107e-06
5.01184e-07 1.93107e-06 7.72686e-05
0.00152272 -0.000109862 2.5309e-06
-0.000109862 0.000322652 -5.56363e-06
2.5309e-06 -5.56363e-06 0.00014992
0.000959649 -2.7158e-06 -6.94246e-07
-2.7158e-06 7.41088e-05 -8.36252e-07
-6.94246e-07 -8.36252e-07 -7.68064e-05
0.00101115 2.65701e-05 8.22775e-08
2.65701e-05 5.39992e-05 -3.31339e-07
8.22775e-08 -3.31339e-07 -2.73515e-05
0.00109265 -3.27215e-05 1.94401e-07
-3.27215e-05 8.98094e-05 -1.42361e-06
1.94401e-07 -1.42361e-06 8.25757e-07
0.00113241 4.20679e-06 -2.72944e-08
4.20679e-06 0.000101403 -7.35187e-07
-2.72944e-08 -7.35187e-07 5.06839e-06
0.000939457 -6.53992e-06 1.315e-05
-6.53992e-06 0.000120729 7.80895e-07
1.315e-05 7.80895e-07 0.000122058
0.00137846 -3.81212e-06 4.33421e-06
-3.81212e-06 0.000279221 -2.90164e-06
4.33421e-06 -2.90164e-06 0.000153178
0.000713592 6.37846e-05 -5.39721e-05
6.37846e-05 -0.000355314 4.21718e-06
-5.39721e-05 4.21718e-06 -0.000813977
0.00113805 4.7521e-05 -3.9792e-07
4.7521e-05 0.000104927 -5.83033e-07
-3.9792e-07 -5.83033e-07 1.03733e-05
0.00142253 4.89828e-05 1.98506e-06
4.89828e-05 0.000268286 -1.19874e-07
1.98506e-06 -1.19874e-07 0.000165965
0.0016631 0.000116656 -1.94397e-06
0.000116656 0.000131027 -4.23856e-06
-1.94397e-06 -4.23856e-06 4.0324e-05
0.00108996 6.09092e-05 3.13932e-06
6.09092e-05 0.000163836 -2.63232e-06
3.13932e-06 -2.63232e-06 2.49918e-06
0.0035512 -9.21305e-05 3.75205e-05
-9.21305e-05 0.00135003 3.92328e-06
3.75205e-05 3.92328e-06 0.00125813
0.000584641 -0.000152132 5.6046e-05
-0.000152132 -0.000382048 3.22422e-05
5.6046e-05 3.22422e-05 -0.000796007
0.0023998 -4.16566e-05 -5.7222e-05
-4.16566e-05 0.000343287 -6.31854e-05
-5.7222e-05 -6.31854e-05 9.38328e-05
0.00182874 2.2566e-05 8.66678e-06
2.2566e-05 0.000212624 -1.4297e-06
8.66678e-06 -1.4297e-06 0.000132747
-0.00207401 -0.000158699 5.72545e-05
-0.000158699 -0.00152457 2.07467e-05
5.72545e-05 2.07467e-05 -0.00142358
0.00260077 -5.67198e-05 1.88489e-06
-5.67198e-05 0.00102765 3.47137e-06
1.88489e-06 3.47137e-06 0.00114145
0.00128278 -7.77711e-05 -6.56073e-06
-7.77711e-05 6.36515e-06 -1.29781e-05
-6.56073e-06 -1.29781e-05 0.000256771
0.00121986 3.83503e-05 -8.1719e-08
3.83503e-05 0.000128162 4.04518e-07
-8.1719e-08 4.04518e-07 3.03846e-05
0.000692315 -1.78258e-05 4.28593e-06
-1.78258e-05 1.54571e-05 7.01787e-07
4.28593e-06 7.01787e-07 2.76058e-05
0.000662301 -1.52381e-06 1.28399e-06
-1.52381e-06 6.58434e-07 2.12443e-06
1.28399e-06 2.12443e-06 -6.10177e-05
0.00121911 6.16744e-05 1.66587e-06
6.16744e-05 0.000156136 2.73816e-06
1.66587e-06 2.73816e-06 -3.8638e-05
0.000974863 2.29041e-05 -1.79888e-08
2.29041e-05 0.000112747 -6.32431e-07
-1.79888e-08 -6.32431e-07 -2.02524e-05
0.00220633 -1.9289e-05 7.55902e-06
-1.9289e-05 0.000589343 9.15814e-06
7.55902e-06 9.15814e-06 0.000457916
0.00259566 0.000127596 -2.21859e-05
0.000127596 0.000655203 -2.81436e-05
-2.21859e-05 -2.81436e-05 0.000280205
0.00542544 -0.000213875 4.61071e-06
-0.000213875 0.00134481 5.46288e-06
4.61071e-06 5.46288e-06 0.000734815
0.000390905 -0.000197888 7.2885e-06
-0.000197888 -0.000290495 1.79785e-05
7.2885e-06 1.79785e-05 -0.000268588
0.00150963 -1.9053e-05 -1.29092e-06
-1.9053e-05 0.000285676 -6.70414e-07
-1.29092e-06 -6.70414e-07 0.000346112
0.00116311 4.28123e-05 2.99551e-07
4.28123e-05 0.000127428 -2.0926e-06
2.99551e-07 -2.0926e-06 4.01034e-05
0.00179414 -8.1889e-09 1.13183e-05
-8.1889e-09 0.000721289 5.38664e-06
1.13183e-05 5.38664e-06 0.000647894
0.000803225 1.39353e-05 2.9978e-06
1.39353e-05 -6.55817e-06 5.61455e-06
2.9978e-06 5.61455e-06 -7.74053e-05
0.00055022 -1.23225e-05 -1.60247e-07
-1.23225e-05 -2.68288e-05 7.08492e-06
-1.60247e-07 7.08492e-06 -0.000158346
0.00068159 9.03978e-05 7.43424e-07
9.03978e-05 0.000363177 3.08691e-05
7.43424e-07 3.08691e-05 0.000229934
0.00507181 -0.000157298 -3.37083e-05
-0.000157298 0.000946474 -1.48764e-05
-3.37083e-05 -1.48764e-05 0.000263383
-0.00126712 -0.00011716 -2.3598e-05
-0.00011716 -0.00166233 -4.55888e-05
-2.3598e-05 -4.55888e-05 -0.00146735
0.00204274 -5.26088e-06 -7.35753e-07
-5.26088e-06 0.000645248 8.71993e-06
-7.35753e-07 8.71993e-06 0.000667478
0.00105362 4.30231e-05 -6.63267e-07
4.30231e-05 4.6714e-05 -7.24912e-07
-6.63267e-07 -7.24912e-07 -5.41076e-05
0.00115117 4.54581e-05 2.44684e-07
4.54581e-05 0.000114759 1.26308e-08
2.44684e-07 1.26308e-08 8.24911e-06
0.00150594 4.71591e-05 -2.01735e-08
4.71591e-05 0.00029826 -1.56703e-06
-2.01735e-08 -1.56703e-06 0.000187971
0.00106314 2.52147e-05 -3.58666e-07
2.52147e-05 7.4354e-05 -1.27359e-06
-3.58666e-07 -1.27359e-06 9.43892e-06
0.00106493 2.53762e-06 3.4077e-08
2.53762e-06 7.42292e-05 -5.62159e-07
3.4077e-08 -5.62159e-07 -3.15184e-06
0.00105509 2.7952e-05 3.94969e-08
2.7952e-05 6.80061e-05 -7.15261e-07
3.94969e-08 -7.15261e-07 -1.82024e-05
0.00100163 3.18835e-05 7.2133e-08
3.18835e-05 5.85118e-05 -3.75685e-07
7.2133e-08 -3.75685e-07 -4.9758e-05
0.00109363 1.29729e-05 1.31984e-07
1.29729e-05 8.82807e-05 1.6738e-08
1.31984e-07 1.6738e-08 1.16513e-05
0.00116398 1.98042e-05 -3.07673e-08
1.98042e-05 0.000128566 4.54248e-07
-3.07673e-08 4.54248e-07 3.55834e-05
0.00106742 1.22587e-05 2.96497e-07
1.22587e-05 0.000104752 -5.84638e-07
2.96497e-07 -5.84638e-07 -1.41513e-05
0.00132382 -8.16811e-07 1.76058e-07
-8.16811e-07 0.00023604 -1.53948e-07
1.76058e-07 -1.53948e-07 0.000120136
0.00113885 -1.65067e-05 -2.36636e-08
-1.65067e-05 0.000119309 9.33719e-07
-2.36636e-08 9.33719e-07 1.20552e-05
0.00120845 2.31606e-05 3.66387e-07
2.31606e-05 0.000142105 6.19098e-07
3.66387e-07 6.19098e-07 5.53179e-05
0.00108259 -9.03351e-06 3.73349e-07
-9.03351e-06 8.28062e-05 -8.09577e-07
3.73349e-07 -8.09577e-07 6.75123e-06
0.00106331 -1.19525e-05 1.44791e-07
-1.19525e-05 7.56609e-05 -9.28486e-07
1.44791e-07 -9.28486e-07 -3.07578e-06
0.0010474 -1.85973e-05 2.89628e-07
-1.85973e-05 5.81081e-05 -1.80709e-06
2.89628e-07 -1.80709e-06 -2.56394e-05
0.00117022 -2.02746e-07 -1.86243e-07
-2.02746e-07 0.000121266 -5.1061e-07
-1.86243e-07 -5.1061e-07 3.68646e-05
0.00105282 -2.08985e-05 -6.18105e-09
-2.08985e-05 7.36549e-05 2.95191e-07
-6.18105e-09 2.95191e-07 -8.48671e-06
0.00101437 -1.849e-05 9.42577e-08
-1.849e-05 4.48742e-05 -1.5421e-07
9.42577e-08 -1.5421e-07 -4.28648e-05
0.0010718 -3.33459e-05 -6.77543e-07
-3.33459e-05 7.86928e-05 1.17943e-07
-6.77543e-07 1.17943e-07 -1.21313e-05
0.00109096 -3.2894e-05 -7.56208e-08
-3.2894e-05 7.94658e-05 3.60452e-07
-7.56208e-08 3.60452e-07 -1.22825e-05
0.00110812 -4.61413e-05 2.62959e-07
-4.61413e-05 9.66959e-05 -1.24751e-07
2.62959e-07 -1.24751e-07 5.16866e-06
0.00114061 -4.07167e-05 -3.88814e-07
-4.07167e-05 0.000111853 -1.0823e-07
-3.88814e-07 -1.0823e-07 2.40397e-05
0.000863764 -4.11309e-05 -1.93532e-07
-4.11309e-05 -1.394e-05 7.47026e-07
-1.93532e-07 7.47026e-07 -0.000100879
0.00110985 -4.91435e-05 -1.01894e-06
-4.91435e-05 9.01736e-05 1.69599e-06
-1.01894e-06 1.69599e-06 5.73922e-06
0.00117742 -4.52824e-05 -6.91636e-08
-4.52824e-05 0.000128822 -8.9045e-07
-6.91636e-08 -8.9045e-07 5.30408e-05
0.00091153 -4.23049e-05 4.42305e-07
-4.23049e-05 1.12858e-05 -9.80499e-07
4.42305e-07 -9.80499e-07 -6.8762e-05
0.001052 -4.22925e-05 3.75787e-07
-4.22925e-05 7.13679e-05 -3.02751e-07
3.75787e-07 -3.02751e-07 -1.08405e-05
0.000944322 -3.4494e-05 -9.52084e-07
-3.4494e-05 1.43385e-05 5.61664e-07
-9.52084e-07 5.61664e-07 -6.01219e-05
0.00108601 -3.71983e-05 8.05516e-08
-3.71983e-05 8.87206e-05 -3.73504e-08
8.05516e-08 -3.73504e-08 4.80215e-06
0.00105243 -3.24495e-05 -2.20135e-07
-3.24495e-05 6.92892e-05 4.53363e-07
-2.20135e-07 4.53363e-07 -3.84572e-06
0.00101485 -1.26214e-05 -5.82451e-07
-1.26214e-05 4.14372e-05 1.47177e-06
-5.82451e-07 1.47177e-06 -1.59865e-05
0.00105122 -2.63061e-05 3.85824e-07
-2.63061e-05 6.86493e-05 -1.01243e-06
3.85824e-07 -1.01243e-06 -1.98415e-06
0.00100669 -1.20359e-05 1.30755e-08
-1.20359e-05 3.80314e-05 -6.28001e-08
1.30755e-08 -6.28001e-08 -1.65595e-05
0.000963568 5.77235e-06 -7.57281e-07
5.77235e-06 7.11526e-06 1.95463e-06
-7.57281e-07 1.95463e-06 -2.60473e-05
0.00100377 -7.68301e-06 4.40956e-07
-7.68301e-06 3.77586e-05 -1.23234e-06
4.40956e-07 -1.23234e-06 -1.42759e-05
0.000967645 6.19088e-07 -1.47666e-07
6.19088e-07 7.81087e-06 -6.35191e-09
-1.47666e-07 -6.35191e-09 -2.39767e-05
0.00154195 1.04013e-05 -4.54412e-06
1.04013e-05 0.000288555 4.48521e-06
-4.54412e-06 4.48521e-06 0.000288783
0.000966659 -6.10763e-06 8.99643e-07
-6.10763e-06 6.52802e-06 -1.81124e-06
8.99643e-07 -1.81124e-06 -2.42757e-05
0.0012264 7.69271e-06 -1.50936e-06
7.69271e-06 0.000126944 6.15234e-07
-1.50936e-06 6.15234e-07 0.000126469
0.00106819 8.19598e-06 -1.20303e-06
8.19598e-06 4.48885e-05 1.59763e-06
-1.20303e-06 1.59763e-06 6.14737e-05
0.000917467 4.80446e-06 7.37806e-07
4.80446e-06 -3.12139e-05 -3.20971e-06
7.37806e-07 -3.20971e-06 -3.24088e-05
0.00170087 6.21374e-06 2.3137e-06
6.21374e-06 0.000360241 -1.2361e-06
2.3137e-06 -1.2361e-06 0.000380391
0.00230886 3.18691e-06 3.21771e-06
3.18691e-06 0.000665517 -4.0834e-06
3.21771e-06 -4.0834e-06 0.000688763
0.001076 -1.07824e-06 -8.32432e-08
-1.07824e-06 6.84083e-05 -1.20405e-06
-8.32432e-08 -1.20405e-06 2.2436e-05
0.000981011 -2.58819e-06 -3.58799e-07
-2.58819e-06 8.19938e-06 -1.87603e-06
-3.58799e-07 -1.87603e-06 -1.74785e-05
0.00104841 6.73148e-06 7.44989e-08
6.73148e-06 5.47122e-05 6.65286e-08
7.44989e-08 6.65286e-08 1.11278e-05
0.000923733 -2.45189e-06 -4.05937e-07
-2.45189e-06 -3.01355e-05 -3.24771e-06
-4.05937e-07 -3.24771e-06 -2.78541e-05
0.000980258 -1.25312e-06 -5.21425e-08
-1.25312e-06 7.10819e-06 2.59668e-09
-5.21425e-08 2.59668e-09 -1.76427e-05
0.000997678 5.21994e-06 5.30671e-08
5.21994e-06 2.96775e-05 1.6533e-06
5.30671e-08 1.6533e-06 -1.26704e-05
0.00219713 9.72508e-08 -6.86139e-07
9.72508e-08 0.000608639 -4.01216e-06
-6.86139e-07 -4.01216e-06 0.000633306
0.000919484 2.72403e-07 -9.69959e-08
2.72403e-07 -3.28411e-05 -7.7078e-09
-9.69959e-08 -7.7078e-09 -3.00989e-05
0.000980996 -7.87375e-08 -1.29374e-07
-7.87375e-08 7.0994e-06 1.87978e-06
-1.29374e-07 1.87978e-06 -1.71525e-05
0.000923778 3.1344e-06 -4.2093e-07
3.1344e-06 -3.02371e-05 3.21488e-06
-4.2093e-07 3.21488e-06 -2.7668e-05
0.00219497 3.69553e-06 -8.98129e-07
3.69553e-06 0.000608091 -7.28455e-09
-8.98129e-07 -7.28455e-09 0.00063267
0.002206 7.06179e-06 -5.30611e-06
7.06179e-06 0.000615142 3.94504e-06
-5.30611e-06 3.94504e-06 0.000639345
-0.000881484 4.23937e-06 9.48417e-06
4.23937e-06 -0.000899581 -4.67645e-07
9.48417e-06 -4.67645e-07 -0.000907454
-0.000146175 5.30983e-05 2.44401e-05
5.30983e-05 -0.000296402 -4.15476e-06
2.44401e-05 -4.15476e-06 -0.000369775
0.00110484 4.7841e-06 1.64632e-05
4.7841e-06 0.000250814 -2.64698e-06
1.64632e-05 -2.64698e-06 0.000203583
-0.00115913 4.55565e-05 -7.93012e-06
4.55565e-05 -0.00113274 2.84703e-06
-7.93012e-06 2.84703e-06 -0.00106058
0.00152893 9.82927e-06 -6.27421e-05
9.82927e-06 0.000338091 -4.26693e-06
-6.27421e-05 -4.26693e-06 0.000153009
0.00147424 5.53487e-05 2.0139e-06
5.53487e-05 0.000117008 -1.91092e-06
2.0139e-06 -1.91092e-06 5.85688e-05
0.000567594 -9.31473e-06 -2.1294e-05
-9.31473e-06 -0.000281053 1.10892e-06
-2.1294e-05 1.10892e-06 -0.000691023
0.00319279 0.000108785 8.8163e-05
0.000108785 0.00135827 -2.84488e-05
8.8163e-05 -2.84488e-05 0.00126714
7.671e-05 0.000110296 5.49882e-06
0.000110296 -0.00059449 -9.92252e-06
5.49882e-06 -9.92252e-06 -0.000350347
0.00114929 3.99206e-05 -3.95615e-06
3.99206e-05 0.000230036 3.57497e-06
-3.95615e-06 3.57497e-06 5.87241e-05
0.002649 9.94566e-05 8.90877e-06
9.94566e-05 0.00047936 -4.62338e-06
8.90877e-06 -4.62338e-06 -0.00022025
0.00285359 0.000219504 8.21404e-07
0.000219504 0.000881476 -4.87918e-07
8.21404e-07 -4.87918e-07 0.000863493
0.00109017 5.52185e-05 -1.31003e-06
5.52185e-05 -7.29265e-05 3.01662e-06
-1.31003e-06 3.01662e-06 0.000183962
0.000691538 4.45073e-05 6.94569e-06
4.45073e-05 0.000213906 4.99231e-07
6.94569e-06 4.99231e-07 -4.72398e-05
0.00290205 0.000167511 3.69375e-05
0.000167511 0.000494013 -1.95984e-05
3.69375e-05 -1.95984e-05 -0.000248885
-0.00244824 0.000170729 -3.57814e-05
0.000170729 -0.00196421 4.56524e-05
-3.57814e-05 4.56524e-05 -0.00183289
0.000189505 -2.03948e-06 6.34462e-07
-2.03948e-06 -0.000499593 -2.35601e-06
6.34462e-07 -2.35601e-06 -0.000404405
0.00109992 -2.45539e-06 5.06395e-07
-2.45539e-06 9.68092e-05 -1.05509e-06
5.06395e-07 -1.05509e-06 2.117e-05
0.00104658 2.55218e-05 -5.30421e-07
2.55218e-05 7.04708e-05 -2.28019e-07
-5.30421e-07 -2.28019e-07 2.13547e-06
0.0010262 1.50014e-05 1.36682e-07
1.50014e-05 5.20213e-05 4.45577e-07
1.36682e-07 4.45577e-07 -3.44647e-06
0.000997466 3.44517e-05 7.1273e-07
3.44517e-05 4.61862e-05 1.67714e-06
7.1273e-07 1.67714e-06 -1.85866e-05
0.00101027 8.36715e-06 -2.15187e-07
8.36715e-06 4.89186e-05 -7.78363e-07
-2.15187e-07 -7.78363e-07 -2.3886e-05
0.00113604 2.1324e-05 9.06021e-08
2.1324e-05 0.000112385 4.72419e-07
9.06021e-08 4.72419e-07 4.55011e-05
0.000993822 5.49729e-06 -1.57376e-07
5.49729e-06 3.93655e-05 1.90238e-06
-1.57376e-07 1.90238e-06 -2.34268e-05
0.00116332 2.62411e-05 -5.55894e-07
2.62411e-05 0.000121336 -9.79556e-07
-5.55894e-07 -9.79556e-07 5.81962e-05
0.00112423 1.48804e-05 2.70008e-08
1.48804e-05 0.000103204 4.55388e-07
2.70008e-08 4.55388e-07 4.25043e-05
0.000920239 -8.34382e-06 -3.77306e-07
-8.34382e-06 6.57781e-07 6.15919e-07
-3.77306e-07 6.15919e-07 -5.79308e-05
0.00268101 -3.95816e-05 -9.25611e-06
-3.95816e-05 0.000331946 9.17198e-07
-9.25611e-06 9.17198e-07 0.000318659
0.000881629 -9.49183e-05 -8.35967e-06
-9.49183e-05 -0.00023987 5.32132e-06
-8.35967e-06 5.32132e-06 -0.000314632
0.00111055 -8.44677e-05 -1.20816e-06
-8.44677e-05 7.24272e-05 4.0702e-06
-1.20816e-06 4.0702e-06 -4.66663e-05
0.00118323 -4.78545e-05 -8.33081e-08
-4.78545e-05 0.000167105 2.26389e-06
-8.33081e-08 2.26389e-06 2.34976e-05
0.00117094 -1.52465e-05 7.48382e-08
-1.52465e-05 0.000146513 7.83656e-07
7.48382e-08 7.83656e-07 2.78633e-05
0.000982391 -3.20599e-05 -4.55827e-08
-3.20599e-05 3.59102e-05 4.39934e-07
-4.55827e-08 4.39934e-07 -5.32906e-05
0.000952651 1.20047e-05 5.97388e-08
1.20047e-05 2.66871e-05 8.06628e-07
5.97388e-08 8.06628e-07 -5.46146e-05
0.00103845 -3.32753e-06 1.50111e-07
-3.32753e-06 6.73863e-05 6.88958e-07
1.50111e-07 6.88958e-07 -1.36918e-05
0.00216968 -0.000109959 7.47312e-07
-0.000109959 6.17347e-05 -1.20312e-08
7.47312e-07 -1.20312e-08 0.000104292
0.00111232 -6.92487e-06 -7.82824e-09
-6.92487e-06 0.000101443 -2.25417e-07
-7.82824e-09 -2.25417e-07 1.30879e-05
0.0012403 -5.31691e-06 -6.54645e-08
-5.31691e-06 0.000157063 1.33118e-07
-6.54645e-08 1.33118e-07 5.87876e-05
0.00151992 -0.000106061 4.69479e-07
-0.000106061 0.000325186 -1.03202e-06
4.69479e-07 -1.03202e-06 0.00015136
0.00117828 -6.95672e-06 -3.4245e-07
-6.95672e-06 0.000173422 3.85451e-08
-3.4245e-07 3.85451e-08 2.585e-05
0.00153063 -0.000140121 -8.72201e-06
-0.000140121 -8.69647e-05 -2.37614e-06
-8.72201e-06 -2.37614e-06 -8.90118e-05
0.00130854 -2.64988e-05 -3.19317e-08
-2.64988e-05 0.000347129 -3.70563e-06
-3.19317e-08 -3.70563e-06 0.000108873
0.00105674 1.25484e-05 -7.75146e-07
1.25484e-05 6.49697e-05 5.30509e-07
-7.75146e-07 5.30509e-07 -4.23939e-05
0.00107085 2.78945e-05 -3.09556e-07
2.78945e-05 7.58339e-05 -1.07985e-06
-3.09556e-07 -1.07985e-06 -1.05836e-05
0.00113134 2.05194e-05 -1.4201e-07
2.05194e-05 9.31154e-05 -1.85634e-06
-1.4201e-07 -1.85634e-06 -1.82042e-06
0.00210375 -4.37452e-06 3.50623e-06
-4.37452e-06 0.000933469 1.25391e-06
3.50623e-06 1.25391e-06 0.000853999
-2.3304e-05 -6.03987e-06 1.2175e-05
-6.03987e-06 -0.000414396 -7.78134e-08
1.2175e-05 -7.78134e-08 -0.000420256
-0.00240437 -7.99371e-06 8.55116e-05
-7.99371e-06 -0.00155062 -1.40587e-06
8.55116e-05 -1.40587e-06 -0.00155858
0.00145267 4.71323e-05 6.30577e-07
4.71323e-05 0.000249503 1.32985e-06
6.30577e-07 1.32985e-06 0.000149986
0.000431505 1.68277e-05 2.08421e-06
1.68277e-05 -0.000142481 -1.14387e-06
2.08421e-06 -1.14387e-06 -0.000277174
0.00133119 6.88368e-05 1.76105e-06
6.88368e-05 0.000210671 -7.32612e-06
1.76105e-06 -7.32612e-06 1.50346e-05
-0.000631109 -1.19647e-05 3.733e-07
-1.19647e-05 -0.000755549 -9.94464e-07
3.733e-07 -9.94464e-07 -0.000766697
0.00229315 -0.000205514 1.95754e-05
-0.000205514 1.09681e-05 9.00137e-06
1.95754e-05 9.00137e-06 -0.000718602
0.000876221 8.75635e-05 1.99997e-05
8.75635e-05 9.31783e-05 -3.62379e-05
1.99997e-05 -3.62379e-05 -9.96026e-05
0.00246142 -5.95047e-06 6.97068e-05
-5.95047e-06 0.000541124 1.42688e-05
6.97068e-05 1.42688e-05 0.000318316
0.00346161 -0.00028112 3.98493e-05
-0.00028112 0.000858926 5.23801e-05
3.98493e-05 5.23801e-05 0.000877388
0.000523588 2.65295e-06 -1.41325e-05
2.65295e-06 -8.45342e-05 -8.11307e-06
-1.41325e-05 -8.11307e-06 -0.000144255
0.00125128 -1.13157e-05 -3.61419e-06
-1.13157e-05 0.000168492 -9.79001e-06
-3.61419e-06 -9.79001e-06 0.000202301
0.00101518 4.35864e-05 9.38787e-07
4.35864e-05 5.39131e-05 2.14736e-07
9.38787e-07 2.14736e-07 -3.18282e-05
0.00136483 1.20133e-06 2.41258e-06
1.20133e-06 0.000460057 1.4933e-06
2.41258e-06 1.4933e-06 0.000377571
0.000922974 1.4138e-05 1.09291e-06
1.4138e-05 7.36804e-05 3.70918e-07
1.09291e-06 3.70918e-07 -2.73345e-07
-4.92477e-06 1.18407e-07 9.93563e-06
1.18407e-07 -0.000308026 8.79975e-07
9.93563e-06 8.79975e-07 -0.000461358
0.00154662 0.000118902 -3.20978e-05
0.000118902 0.000527509 -1.37476e-05
-3.20978e-05 -1.37476e-05 0.000338727
0.00550146 -4.95297e-05 1.22109e-05
-4.95297e-05 0.000934323 8.65812e-06
1.22109e-05 8.65812e-06 0.000226609
0.000948235 -8.66615e-06 -1.44723e-06
-8.66615e-06 8.95783e-06 3.3972e-06
-1.44723e-06 3.3972e-06 6.12928e-06
0.00122031 -0.000185038 1.4628e-06
-0.000185038 -0.000396955 2.04405e-05
1.4628e-06 2.04405e-05 -0.000344211
0.00100928 2.66461e-05 -1.24202e-07
2.66461e-05 5.90856e-05 -7.00972e-06
-1.24202e-07 -7.00972e-06 -1.34866e-05
0.000946329 6.44087e-06 2.7106e-06
6.44087e-06 0.000114765 -1.9085e-06
2.7106e-06 -1.9085e-06 1.80631e-05
0.0022617 -5.16208e-06 5.17041e-06
-5.16208e-06 0.000850525 8.35914e-06
5.17041e-06 8.35914e-06 0.000793931
0.000236623 -1.02229e-05 -2.72631e-06
-1.02229e-05 -0.000440571 8.23881e-06
-2.72631e-06 8.23881e-06 -0.000375256
-0.00102451 4.26794e-05 -8.51799e-06
4.26794e-05 -0.000646707 1.34013e-06
-8.51799e-06 1.34013e-06 -0.000736716
0.00595427 -6.75769e-05 1.34039e-05
-6.75769e-05 0.00127045 1.20295e-05
1.34039e-05 1.20295e-05 0.000763426
-5.99544e-05 2.9066e-06 8.37144e-07
2.9066e-06 -0.000965446 -7.03628e-05
8.37144e-07 -7.03628e-05 -0.000791537
0.00135566 4.90416e-05 3.30456e-07
4.90416e-05 0.000208802 1.35173e-06
3.30456e-07 1.35173e-06 0.000105236
0.00135556 4.44461e-05 -3.39903e-07
4.44461e-05 0.000219482 7.56675e-07
-3.39903e-07 7.56675e-07 0.000108029
0.00141514 3.6714e-05 1.12384e-06
3.6714e-05 0.00029813 -1.04552e-06
1.12384e-06 -1.04552e-06 0.000178202
0.00108399 2.48248e-05 -2.2938e-08
2.48248e-05 8.35318e-05 -6.20391e-07
-2.2938e-08 -6.20391e-07 6.88855e-06
0.00114408 2.55555e-05 2.8591e-08
2.55555e-05 0.000117467 -6.37718e-07
2.8591e-08 -6.37718e-07 2.52247e-05
0.00095106 7.39032e-06 -4.00466e-07
7.39032e-06 5.09906e-05 5.71504e-07
-4.00466e-07 5.71504e-07 -7.18493e-05
0.00122014 1.62608e-05 -5.98134e-08
1.62608e-05 0.000147093 -1.73114e-07
-5.98134e-08 -1.73114e-07 6.10827e-05
0.00112747 -1.69207e-05 2.06362e-08
-1.69207e-05 0.00011363 2.69355e-07
2.06362e-08 2.69355e-07 5.39975e-06
0.00111393 -8.11745e-06 2.45382e-07
-8.11745e-06 0.000130331 4.84045e-07
2.45382e-07 4.84045e-07 9.37143e-06
0.0010411 -5.04799e-06 -2.42205e-07
-5.04799e-06 9.73754e-05 1.13528e-07
-2.42205e-07 1.13528e-07 -1.01362e-05
0.00112211 -3.29071e-05 -7.00379e-07
-3.29071e-05 9.03231e-05 6.84498e-07
-7.00379e-07 6.84498e-07 -6.72881e-06
0.00117742 -4.22509e-06 -4.88873e-07
-4.22509e-06 0.000124169 -1.13753e-06
-4.88873e-07 -1.13753e-06 4.01586e-05
0.00107648 -1.7761e-05 5.82545e-08
-1.7761e-05 8.58915e-05 -4.15058e-07
5.82545e-08 -4.15058e-07 3.67144e-06
0.00104406 -1.48963e-05 6.16014e-09
-1.48963e-05 5.81742e-05 -9.2079e-07
6.16014e-09 -9.2079e-07 -2.88718e-05
0.00108634 -3.39109e-05 1.37868e-07
-3.39109e-05 7.6628e-05 7.6187e-08
1.37868e-07 7.6187e-08 -1.50791e-05
0.00105534 -3.08993e-05 -2.97916e-07
-3.08993e-05 6.95182e-05 3.00026e-07
-2.97916e-07 3.00026e-07 -2.11752e-05
0.00107153 -4.43751e-05 -2.42816e-07
-4.43751e-05 9.03609e-05 8.21526e-07
-2.42816e-07 8.21526e-07 -5.54479e-06
0.0010566 -4.47226e-05 3.06546e-07
-4.47226e-05 7.58812e-05 -5.05317e-07
3.06546e-07 -5.05317e-07 -1.30722e-05
0.00114423 -4.88966e-05 5.93347e-07
-4.88966e-05 0.000127232 9.85467e-07
5.93347e-07 9.85467e-07 2.64183e-05
0.00121016 -4.23866e-05 5.188e-07
-4.23866e-05 0.000145861 -5.64955e-09
5.188e-07 -5.64955e-09 5.79865e-05
0.00110993 -4.63864e-05 5.07957e-08
-4.63864e-05 0.000103434 9.15784e-07
5.07957e-08 9.15784e-07 1.62974e-05
0.000843736 -4.63566e-05 -6.01043e-09
-4.63566e-05 -4.12662e-05 1.96408e-06
-6.01043e-09 1.96408e-06 -0.00013472
0.00106429 -4.78853e-05 -1.33775e-06
-4.78853e-05 6.95144e-05 5.94066e-07
-1.33775e-06 5.94066e-07 -1.21678e-05
0.00108658 -4.4131e-05 -1.21854e-06
-4.4131e-05 8.42569e-05 2.82077e-07
-1.21854e-06 2.82077e-07 9.91443e-06
0.00102155 -4.70858e-05 -4.43324e-07
-4.70858e-05 4.99208e-05 -5.72564e-08
-4.43324e-07 -5.72564e-08 -3.4461e-05
0.00108144 -3.84625e-05 -8.35471e-07
-3.84625e-05 7.82477e-05 3.41175e-07
-8.35471e-07 3.41175e-07 7.05546e-06
0.00116139 -4.51854e-05 -2.20971e-07
-4.51854e-05 0.00012126 -2.22554e-07
-2.20971e-07 -2.22554e-07 4.51181e-05
0.000970924 -4.33136e-05 2.45988e-07
-4.33136e-05 4.28533e-05 -1.44018e-06
2.45988e-07 -1.44018e-06 -3.44737e-05
0.00115021 -4.42546e-05 1.16409e-06
-4.42546e-05 0.000118918 -3.62961e-07
1.16409e-06 -3.62961e-07 3.72159e-05
0.000989407 -3.55767e-05 6.60517e-08
-3.55767e-05 3.67252e-05 1.72557e-09
6.60517e-08 1.72557e-09 -3.72297e-05
0.00102611 -1.64893e-05 -9.62515e-07
-1.64893e-05 4.64357e-05 1.42071e-06
-9.62515e-07 1.42071e-06 -1.32433e-05
0.0010519 -3.10293e-05 4.90268e-07
-3.10293e-05 6.88952e-05 -4.69082e-07
4.90268e-07 -4.69082e-07 -4.12584e-06
0.00101594 -1.37224e-05 9.07097e-08
-1.37224e-05 4.18813e-05 -2.50322e-08
9.07097e-08 -2.50322e-08 -1.55559e-05
0.000959928 4.60886e-06 -1.02849e-06
4.60886e-06 7.19191e-06 2.1089e-06
-1.02849e-06 2.1089e-06 -2.80209e-05
0.0010103 -1.40428e-05 5.46958e-07
-1.40428e-05 4.01575e-05 -1.35752e-06
5.46958e-07 -1.35752e-06 -1.46258e-05
0.000960354 3.82259e-06 -4.05254e-08
3.82259e-06 5.56288e-06 -1.51015e-08
-4.05254e-08 -1.51015e-08 -2.76732e-05
0.00151933 1.28407e-05 -5.04306e-06
1.28407e-05 0.000280906 3.23719e-06
-5.04306e-06 3.23719e-06 0.000280056
0.00096417 -3.58769e-06 9.54379e-07
-3.58769e-06 5.93776e-06 -1.91662e-06
9.54379e-07 -1.91662e-06 -2.58889e-05
0.00122483 1.00761e-05 -1.87521e-06
1.00761e-05 0.000129137 6.07586e-07
-1.87521e-06 6.07586e-07 0.000127757
0.001065 1.09569e-05 -1.65636e-06
1.09569e-05 4.71708e-05 1.61439e-06
-1.65636e-06 1.61439e-06 6.28859e-05
0.000913787 7.17051e-06 1.11268e-06
7.17051e-06 -3.06994e-05 -3.23918e-06
1.11268e-06 -3.23918e-06 -3.25963e-05
0.00171247 9.50345e-06 3.1066e-06
9.50345e-06 0.000368815 -1.22543e-06
3.1066e-06 -1.22543e-06 0.000388343
0.00232566 6.85739e-06 5.40175e-06
6.85739e-06 0.000675675 -4.08133e-06
5.40175e-06 -4.08133e-06 0.000698513
0.000824103 -4.53037e-07 -3.92022e-07
-4.53037e-07 -5.74868e-05 -1.75176e-06
-3.92022e-07 -1.75176e-06 -0.000107862
0.000715965 -4.60945e-06 -5.09298e-07
-4.60945e-06 -0.000122206 -2.53612e-06
-5.09298e-07 -2.53612e-06 -0.000151059
0.00108497 1.45296e-07 2.02389e-08
1.45296e-07 7.27083e-05 1.033e-07
2.02389e-08 1.033e-07 2.67037e-05
0.000925303 -5.01652e-06 -7.42632e-07
-5.01652e-06 -2.79617e-05 -3.25581e-06
-7.42632e-07 -3.25581e-06 -2.66201e-05
0.000852251 -2.8678e-06 -5.39391e-10
-2.8678e-06 -5.56755e-05 -1.11649e-08
-5.39391e-10 -1.11649e-08 -8.22068e-05
0.000839716 -6.53747e-06 -2.92759e-08
-6.53747e-06 -4.93798e-05 1.29809e-06
-2.92759e-08 1.29809e-06 -9.41367e-05
0.00221193 -3.36048e-06 -3.16403e-06
-3.36048e-06 0.000616662 -4.03759e-06
-3.16403e-06 -4.03759e-06 0.000641061
0.000918002 -2.38487e-06 -1.16543e-07
-2.38487e-06 -3.30513e-05 -1.28197e-08
-1.16543e-07 -1.28197e-08 -3.072e-05
0.00098259 -1.54015e-06 1.99388e-08
-1.54015e-06 8.38942e-06 1.8652e-06
1.99388e-08 1.8652e-06 -1.63742e-05
0.00219621 1.78348e-07 -1.01006e-06
1.78348e-07 0.000608173 3.66641e-10
-1.01006e-06 3.66641e-10 0.000632853
0.000919284 3.44228e-07 -1.29156e-07
3.44228e-07 -3.29666e-05 3.23671e-06
-1.29156e-07 3.23671e-06 -3.02153e-05
0.00219327 3.81089e-06 -2.82483e-06
3.81089e-06 0.000607373 3.972e-06
-2.82483e-06 3.972e-06 0.000631925
0.00132394 -5.99416e-06 1.1189e-05
-5.99416e-06 0.000443994 -1.04734e-06
1.1189e-05 -1.04734e-06 0.000370133
0.00106774 1.26408e-05 1.86239e-06
1.26408e-05 0.000204692 3.24062e-07
1.86239e-06 3.24062e-07 0.000215524
0.000526997 -1.5629e-06 0.000109352
-1.5629e-06 -0.000112636 -1.68773e-05
0.000109352 -1.68773e-05 -0.000278678
0.00104591 1.7976e-05 -4.28156e-07
1.7976e-05 5.84289e-05 -1.21548e-06
-4.28156e-07 -1.21548e-06 -8.00703e-06
0.00126569 -1.38997e-05 3.24218e-06
-1.38997e-05 0.000288435 -4.68143e-06
3.24218e-06 -4.68143e-06 0.000232376
0.00125122 2.57713e-06 3.72492e-06
2.57713e-06 0.000347469 -8.39619e-07
3.72492e-06 -8.39619e-07 0.000299916
0.000986657 5.63333e-05 -9.66514e-06
5.63333e-05 8.99622e-05 4.20849e-06
-9.66514e-06 4.20849e-06 0.000190458
0.00107539 5.45377e-05 -4.18413e-05
5.45377e-05 -3.88843e-06 1.59164e-05
-4.18413e-05 1.59164e-05 -0.000218049
0.00544995 0.000195445 7.79685e-06
0.000195445 0.00190234 -1.05714e-05
7.79685e-06 -1.05714e-05 0.00123477
-0.000494386 0.000150479 5.24852e-05
0.000150479 -0.000485407 -3.54854e-05
5.24852e-05 -3.54854e-05 -0.000469597
0.0015069 5.24059e-05 2.14647e-06
5.24059e-05 0.000169247 4.81083e-06
2.14647e-06 4.81083e-06 0.000418952
0.00149234 2.89525e-05 -2.46265e-05
2.89525e-05 0.000286914 9.63831e-06
-2.46265e-05 9.63831e-06 -9.63767e-05
0.00420857 0.000179923 1.64114e-05
0.000179923 0.00102437 -2.09635e-05
1.64114e-05 -2.09635e-05 0.000348401
0.000724373 0.00018982 -4.5825e-06
0.00018982 -0.000547776 1.00986e-05
-4.5825e-06 1.00986e-05 -0.000441532
0.00167922 1.41254e-06 1.25958e-06
1.41254e-06 0.000395469 -2.84677e-07
1.25958e-06 -2.84677e-07 0.000493324
0.00187921 -6.63872e-05 2.62686e-05
-6.63872e-05 0.000378494 -3.1749e-05
2.62686e-05 -3.1749e-05 -3.36653e-05
0.00699384 0.000156204 2.5637e-05
0.000156204 0.00181527 -1.29778e-05
2.5637e-05 -1.29778e-05 0.000991133
0.00191619 0.000184642 5.86323e-06
0.000184642 -0.00020823 6.82604e-05
5.86323e-06 6.82604e-05 -0.000241512
0.0022076 1.33608e-05 -3.22314e-06
1.33608e-05 0.00071802 2.63541e-06
-3.22314e-06 2.63541e-06 0.000754488
0.000994225 -2.1669e-06 7.57489e-08
-2.1669e-06 3.63474e-05 -1.34254e-06
7.57489e-08 -1.34254e-06 -4.44986e-05
0.00106878 -1.09458e-05 1.84245e-07
-1.09458e-05 8.15248e-05 -4.96669e-08
1.84245e-07 -4.96669e-08 5.16825e-06
0.00113715 2.77101e-05 -2.1903e-07
2.77101e-05 0.000115596 8.37342e-07
-2.1903e-07 8.37342e-07 4.78414e-05
0.0010143 8.22189e-06 -1.95365e-07
8.22189e-06 4.59548e-05 -1.75672e-06
-1.95365e-07 -1.75672e-06 -2.77463e-05
0.00109152 2.33674e-05 -1.70521e-07
2.33674e-05 8.86553e-05 4.26584e-07
-1.70521e-07 4.26584e-07 1.69507e-05
0.00115491 1.50815e-05 3.13125e-07
1.50815e-05 0.000120747 1.71003e-06
3.13125e-07 1.71003e-06 5.48214e-05
0.00120601 2.61708e-05 -2.2036e-07
2.61708e-05 0.000141917 4.46442e-08
-2.2036e-07 4.46442e-08 7.91596e-05
0.00120845 2.64039e-05 4.91112e-07
2.64039e-05 0.000145118 1.65283e-06
4.91112e-07 1.65283e-06 8.50832e-05
0.00221049 -0.000113565 1.11463e-06
-0.000113565 0.000110469 -2.80406e-06
1.11463e-06 -2.80406e-06 0.000121791
0.00146287 -0.000100945 -2.46683e-06
-0.000100945 0.000301558 4.21337e-06
-2.46683e-06 4.21337e-06 0.000127134
0.00105424 -4.33283e-05 -4.92832e-07
-4.33283e-05 7.61895e-05 1.47676e-06
-4.92832e-07 1.47676e-06 -5.33941e-06
0.00143655 -1.1376e-05 -1.16077e-07
-1.1376e-05 0.000291094 9.12648e-07
-1.16077e-07 9.12648e-07 0.000147887
0.00127163 -1.14585e-05 -1.61436e-07
-1.14585e-05 0.000173599 7.70085e-07
-1.61436e-07 7.70085e-07 7.38879e-05
0.00115678 2.04661e-06 -1.53508e-07
2.04661e-06 0.0001256 6.1777e-07
-1.53508e-07 6.1777e-07 3.76207e-05
0.00109559 2.1238e-05 7.27218e-08
2.1238e-05 8.84539e-05 1.85153e-07
7.27218e-08 1.85153e-07 1.82827e-06
0.00192436 -0.000147749 7.98225e-07
-0.000147749 9.66217e-05 -7.68779e-07
7.98225e-07 -7.68779e-07 9.96066e-05
0.0010899 1.21346e-05 1.11117e-07
1.21346e-05 7.45594e-05 -1.12611e-07
1.11117e-07 -1.12611e-07 -2.01249e-05
0.00115885 6.56025e-06 -1.93669e-07
6.56025e-06 0.000121196 1.01382e-07
-1.93669e-07 1.01382e-07 7.36145e-06
0.00112333 -2.27429e-05 -3.24659e-07
-2.27429e-05 0.000265906 4.62585e-07
-3.24659e-07 4.62585e-07 1.93738e-05
0.00118934 2.68117e-05 -3.39464e-08
2.68117e-05 0.000125898 -7.3791e-07
-3.39464e-08 -7.3791e-07 4.01657e-05
0.0021395 -0.000131794 -2.8587e-05
-0.000131794 0.000535328 -8.16176e-07
-2.8587e-05 -8.16176e-07 0.000371899
0.00133604 4.08376e-05 -3.93287e-06
4.08376e-05 0.000350638 -1.33883e-06
-3.93287e-06 -1.33883e-06 0.000149489
0.0010503 1.62711e-05 -1.86697e-07
1.62711e-05 4.4787e-05 -1.73288e-06
-1.86697e-07 -1.73288e-06 -4.75272e-05
0.00125553 3.41427e-05 -3.42471e-07
3.41427e-05 0.000158578 -1.35521e-06
-3.42471e-07 -1.35521e-06 6.63963e-05
0.00139872 -2.7206e-06 -3.96076e-07
-2.7206e-06 0.000429822 2.45679e-07
-3.96076e-07 2.45679e-07 0.000327621
0.0016158 -4.05028e-06 -7.30184e-06
-4.05028e-06 0.000631975 1.22476e-07
-7.30184e-06 1.22476e-07 0.000552283
-0.00102087 -5.01734e-06 9.56361e-06
-5.01734e-06 -0.000973562 -6.60362e-08
9.56361e-06 -6.60362e-08 -0.000983268
0.000788708 4.02695e-05 1.04818e-06
4.02695e-05 -5.93095e-05 1.59471e-06
1.04818e-06 1.59471e-06 -0.00014293
-0.000762827 8.02181e-07 -5.55459e-06
8.02181e-07 -0.000677612 4.36887e-06
-5.55459e-06 4.36887e-06 -0.000858911
0.000888364 2.32257e-06 -1.32713e-05
2.32257e-06 0.000169745 -3.15885e-06
-1.32713e-05 -3.15885e-06 7.8217e-05
0.00390493 -0.000242094 2.9452e-05
-0.000242094 0.000702535 7.26055e-06
2.9452e-05 7.26055e-06 -7.87698e-05
0.00286897 0.000141568 -2.82952e-05
0.000141568 0.000686311 -6.26955e-05
-2.82952e-05 -6.26955e-05 0.000320156
0.00254382 -0.00022082 2.20297e-06
-0.00022082 3.36658e-05 9.27381e-05
2.20297e-06 9.27381e-05 0.000140807
0.000879658 1.45872e-05 1.0516e-06
1.45872e-05 5.14799e-05 -4.21098e-06
1.0516e-06 -4.21098e-06 -2.4356e-05
3.25355e-05 -1.16428e-05 1.11723e-06
-1.16428e-05 -0.000514745 -3.56697e-06
1.11723e-06 -3.56697e-06 -0.000541182
0.00126346 3.48882e-05 -1.53139e-06
3.48882e-05 0.00018802 -6.73548e-07
-1.53139e-06 -6.73548e-07 0.000111502
0.000827199 4.90653e-06 -1.1064e-06
4.90653e-06 4.12523e-05 -7.90394e-07
-1.1064e-06 -7.90394e-07 -5.5474e-05
0.00106771 -7.27109e-06 3.13596e-06
-7.27109e-06 9.69622e-05 -7.8536e-07
3.13596e-06 -7.8536e-07 3.94175e-05
-4.90003e-05 3.86855e-05 6.24217e-06
3.86855e-05 -0.000129162 -4.19142e-06
6.24217e-06 -4.19142e-06 -0.000189245
0.00155367 -5.87574e-06 -1.78646e-06
-5.87574e-06 0.000340699 1.31052e-06
-1.78646e-06 1.31052e-06 0.000414788
0.00436007 3.14825e-05 1.99642e-05
3.14825e-05 0.000367946 -1.02355e-06
1.99642e-05 -1.02355e-06 -1.8078e-05
0.00328221 5.67129e-06 -1.51344e-05
5.67129e-06 0.000399198 -1.38494e-06
-1.51344e-05 -1.38494e-06 0.000540054
0.000779889 4.16842e-05 3.25748e-06
4.16842e-05 0.000102635 -6.68738e-06
3.25748e-06 -6.68738e-06 2.26976e-05
0.0014319 -4.49037e-06 -1.1129e-06
-4.49037e-06 0.000390477 -8.48187e-07
-1.1129e-06 -8.48187e-07 0.000296722
0.00119726 -2.08377e-05 -5.64002e-06
-2.08377e-05 0.000240733 6.48529e-06
-5.64002e-06 6.48529e-06 0.000157327
0.000756798 6.04881e-05 -8.1469e-07
6.04881e-05 -0.000321549 7.41332e-06
-8.1469e-07 7.41332e-06 -5.83884e-05
0.00218744 0.000217135 -4.23487e-06
0.000217135 5.28056e-05 -5.83057e-05
-4.23487e-06 -5.83057e-05 1.46565e-06
0.000679309 8.17136e-05 1.13744e-05
8.17136e-05 0.000449531 -6.39326e-06
1.13744e-05 -6.39326e-06 0.000404468
0.00311205 -9.26741e-05 4.17769e-05
-9.26741e-05 -7.4587e-05 2.70473e-05
4.17769e-05 2.70473e-05 -0.000498138
0.00120268 4.05699e-05 -1.07164e-06
4.05699e-05 0.000141395 2.5138e-06
-1.07164e-06 2.5138e-06 2.85216e-05
0.00129551 2.93093e-05 -1.65456e-06
2.93093e-05 0.000226334 2.55652e-07
-1.65456e-06 2.55652e-07 0.000112294
0.000447275 -1.4717e-05 -7.58068e-07
-1.4717e-05 -6.93572e-05 -3.74153e-06
-7.58068e-07 -3.74153e-06 -0.000302407
0.00121562 6.0649e-06 -8.33596e-08
6.0649e-06 0.000143883 -7.01631e-07
-8.33596e-08 -7.01631e-07 5.87857e-05
0.00110361 -1.554e-05 4.17854e-07
-1.554e-05 0.000101236 5.71694e-08
4.17854e-07 5.71694e-08 -7.31197e-06
0.000936816 -8.26297e-06 -9.70173e-07
-8.26297e-06 4.02954e-05 2.13683e-06
-9.70173e-07 2.13683e-06 -8.49371e-05
0.00109585 -3.48904e-05 -1.89887e-07
-3.48904e-05 7.92424e-05 5.03493e-08
-1.89887e-07 5.03493e-08 -1.79014e-05
0.000982955 -1.4303e-05 3.40592e-07
-1.4303e-05 6.59873e-05 1.06131e-06
3.40592e-07 1.06131e-06 -4.30094e-05
0.000998356 -2.69227e-05 6.27393e-07
-2.69227e-05 0.000108758 -7.14634e-07
6.27393e-07 -7.14634e-07 -1.89718e-05
0.00108639 -3.34251e-05 8.62685e-08
-3.34251e-05 7.61652e-05 -3.65127e-07
8.62685e-08 -3.65127e-07 -1.54166e-05
0.00103892 -2.53491e-05 4.83285e-08
-2.53491e-05 6.01212e-05 1.4458e-07
4.83285e-08 1.4458e-07 -3.0231e-05
0.00117982 -4.63637e-05 1.42784e-07
-4.63637e-05 0.000140327 4.52001e-07
1.42784e-07 4.52001e-07 4.30631e-05
0.00104876 -4.86465e-05 -3.01806e-08
-4.86465e-05 0.000110451 1.16783e-06
-3.01806e-08 1.16783e-06 -7.66863e-06
0.000978565 -4.26893e-05 7.84507e-08
-4.26893e-05 4.25956e-05 2.93156e-08
7.84507e-08 2.93156e-08 -4.37947e-05
0.000920149 -4.38413e-05 7.95549e-07
-4.38413e-05 2.11668e-05 -4.66711e-07
7.95549e-07 -4.66711e-07 -7.81894e-05
0.00113161 -5.45155e-05 7.88386e-07
-5.45155e-05 0.000117413 1.46662e-06
7.88386e-07 1.46662e-06 9.51668e-06
0.00121163 -5.64033e-05 -1.93283e-06
-5.64033e-05 0.000117724 2.0778e-06
-1.93283e-06 2.0778e-06 2.57495e-05
0.00132934 -5.10973e-05 3.22254e-07
-5.10973e-05 0.00020788 -1.37113e-07
3.22254e-07 -1.37113e-07 0.000120575
0.000973281 -4.93191e-05 -2.84696e-07
-4.93191e-05 2.07447e-05 -1.01211e-07
-2.84696e-07 -1.01211e-07 -7.38158e-05
0.00127911 -5.16443e-05 1.4507e-07
-5.16443e-05 0.000173418 2.86469e-07
1.4507e-07 2.86469e-07 9.68384e-05
0.000925079 -3.97733e-05 -8.56204e-07
-3.97733e-05 1.40071e-05 2.26904e-07
-8.56204e-07 2.26904e-07 -6.06947e-05
0.00107091 -4.78494e-05 4.63423e-07
-4.78494e-05 7.19698e-05 6.89375e-08
4.63423e-07 6.89375e-08 -8.42465e-06
0.0010712 -3.54463e-05 -1.13289e-06
-3.54463e-05 7.52541e-05 1.02526e-07
-1.13289e-06 1.02526e-07 6.46823e-06
0.00110866 -4.45928e-05 -8.20502e-07
-4.45928e-05 9.44858e-05 5.00416e-07
-8.20502e-07 5.00416e-07 1.99476e-05
0.000930192 -4.5005e-05 -9.74449e-08
-4.5005e-05 8.17476e-06 -8.70157e-07
-9.74449e-08 -8.70157e-07 -7.61504e-05
0.00103671 -1.60751e-05 -1.33904e-06
-1.60751e-05 5.00959e-05 1.17674e-06
-1.33904e-06 1.17674e-06 -9.73831e-06
0.0010446 -3.78198e-05 9.88039e-08
-3.78198e-05 5.95413e-05 1.33347e-07
9.88039e-08 1.33347e-07 -1.18486e-05
0.00113963 -4.49845e-05 1.57158e-06
-4.49845e-05 0.00011098 -3.31363e-07
1.57158e-06 -3.31363e-07 3.4475e-05
0.00103159 -3.65685e-05 9.34791e-07
-3.65685e-05 5.7794e-05 -6.0271e-07
9.34791e-07 -6.0271e-07 -1.56598e-05
0.00102528 -1.60928e-05 1.14189e-07
-1.60928e-05 4.53388e-05 3.74024e-08
1.14189e-07 3.74024e-08 -1.41261e-05
0.00096061 1.75665e-06 -1.44877e-06
1.75665e-06 9.31565e-06 2.27917e-06
-1.44877e-06 2.27917e-06 -2.82479e-05
0.00101804 -1.44786e-05 7.62438e-07
-1.44786e-05 4.27059e-05 -1.31516e-06
7.62438e-07 -1.31516e-06 -1.46747e-05
0.000954216 4.7506e-06 1.03722e-07
4.7506e-06 4.57613e-06 -3.56573e-08
1.03722e-07 -3.56573e-08 -3.07173e-05
0.000873708 1.33509e-05 -2.02643e-06
1.33509e-05 -3.9718e-05 3.37627e-06
-2.02643e-06 3.37627e-06 -4.50725e-05
0.000956919 1.43745e-06 9.93856e-07
1.43745e-06 3.87476e-06 -2.05831e-06
9.93856e-07 -2.05831e-06 -2.94199e-05
0.00089093 1.1453e-05 1.20203e-07
1.1453e-05 -3.5172e-05 6.16763e-09
1.20203e-07 6.16763e-09 -3.91999e-05
0.00234428 1.89332e-05 -3.85123e-06
1.89332e-05 0.000694721 1.6638e-06
-3.85123e-06 1.6638e-06 0.000715488
0.000910884 9.4068e-06 1.49051e-06
9.4068e-06 -2.90855e-05 -3.27692e-06
1.49051e-06 -3.27692e-06 -3.19372e-05
0.00172401 1.26662e-05 3.83714e-06
1.26662e-05 0.000378159 -1.20995e-06
3.83714e-06 -1.20995e-06 0.000396892
0.00234428 1.04222e-05 7.50289e-06
1.04222e-05 0.000687697 -4.07619e-06
7.50289e-06 -4.07619e-06 0.000709938
0.000807673 -2.01364e-06 -3.40483e-07
-2.01364e-06 -6.66371e-05 -1.97763e-06
-3.40483e-07 -1.97763e-06 -0.00011947
0.000698365 -6.18811e-06 -7.41259e-07
-6.18811e-06 -0.000128852 -2.57695e-06
-7.41259e-07 -2.57695e-06 -0.000160126
0.000968215 -1.45152e-06 -1.03217e-07
-1.45152e-06 1.39922e-05 -4.92373e-07
-1.03217e-07 -4.92373e-07 -3.56704e-05
0.000924748 -7.5856e-06 -1.04367e-06
-7.5856e-06 -2.58458e-05 -3.28921e-06
-1.04367e-06 -3.28921e-06 -2.58332e-05
0.000714882 -4.72925e-06 -1.07722e-07
-4.72925e-06 -0.000122514 -6.03113e-07
-1.07722e-07 -6.03113e-07 -0.00015166
0.00109281 -1.48333e-07 1.91045e-07
-1.48333e-07 7.67532e-05 1.40301e-06
1.91045e-07 1.40301e-06 3.05416e-05
0.00223364 -6.86213e-06 -5.39086e-06
-6.86213e-06 0.000629083 -4.05412e-06
-5.39086e-06 -4.05412e-06 0.000652959
0.000915308 -4.97032e-06 -1.01675e-07
-4.97032e-06 -3.29162e-05 -1.01498e-08
-1.01675e-07 -1.01498e-08 -3.15051e-05
0.000723726 -3.09072e-06 1.87133e-07
-3.09072e-06 -0.000119326 1.87083e-06
1.87133e-07 1.87083e-06 -0.000146727
0.00221083 -3.28487e-06 -9.99966e-07
-3.28487e-06 0.000615966 8.27367e-09
-9.99966e-07 8.27367e-09 0.000640426
0.000912396 -2.31741e-06 1.95762e-07
-2.31741e-06 -3.58955e-05 3.26087e-06
1.95762e-07 3.26087e-06 -3.35158e-05
0.00219478 2.6419e-07 -5.95092e-07
2.6419e-07 0.000607436 3.98786e-06
-5.95092e-07 3.98786e-06 0.000632133
0.00111816 -1.07713e-05 8.86182e-07
-1.07713e-05 0.000247158 -5.61084e-07
8.86182e-07 -5.61084e-07 0.000156275
0.00109076 -6.23944e-06 -4.23105e-07
-6.23944e-06 0.00029502 4.31188e-07
-4.23105e-07 4.31188e-07 0.000222366
0.00106018 4.83372e-06 -4.04213e-06
4.83372e-06 0.00019905 2.77655e-06
-4.04213e-06 2.77655e-06 0.000201417
0.00108059 2.433e-05 -1.09976e-07
2.433e-05 7.53485e-05 5.56313e-08
-1.09976e-07 5.56313e-08 9.33965e-06
0.000965318 2.12724e-05 -3.857e-07
2.12724e-05 1.44842e-05 -1.19149e-06
-3.857e-07 -1.19149e-06 -5.43354e-05
0.00121386 2.56851e-05 -1.18995e-07
2.56851e-05 0.000144487 -5.34466e-07
-1.18995e-07 -5.34466e-07 6.93732e-05
0.00209743 1.12258e-05 -5.85252e-06
1.12258e-05 0.000752429 -9.00542e-06
-5.85252e-06 -9.00542e-06 0.000726517
0.00113105 -1.47335e-05 4.27989e-06
-1.47335e-05 0.000195821 6.28687e-07
4.27989e-06 6.28687e-07 0.000143774
0.00138152 4.81798e-08 -8.49805e-06
4.81798e-08 0.000434968 8.0958e-06
-8.49805e-06 8.0958e-06 0.000386364
0.000322447 4.20171e-05 -2.97711e-05
4.20171e-05 -3.83288e-05 1.18998e-05
-2.97711e-05 1.18998e-05 -0.000299276
0.00292529 0.000148957 1.02299e-05
0.000148957 0.000570269 -1.5533e-05
1.02299e-05 -1.5533e-05 -0.00019727
0.00278915 0.000243602 2.84109e-05
0.000243602 0.000473868 -2.3345e-05
2.84109e-05 -2.3345e-05 0.000563285
0.000713109 -8.21154e-06 2.11117e-06
-8.21154e-06 -0.000116647 1.94727e-06
2.11117e-06 1.94727e-06 -6.43087e-05
0.000242149 -2.38037e-05 -1.49819e-05
-2.38037e-05 -8.52057e-05 1.06888e-05
-1.49819e-05 1.06888e-05 -0.000316163
0.00487668 8.30089e-05 3.45497e-05
8.30089e-05 0.000975904 -4.51309e-05
3.45497e-05 -4.51309e-05 0.000213078
0.000288751 0.000102814 1.11892e-06
0.000102814 -0.000725228 1.23678e-05
1.11892e-06 1.23678e-05 -0.000636364
0.00103127 1.2527e-05 1.3242e-06
1.2527e-05 3.90903e-05 -1.69166e-06
1.3242e-06 -1.69166e-06 5.51388e-05
0.00117777 -0.000169912 2.71255e-05
-0.000169912 5.41156e-05 -4.89555e-05
2.71255e-05 -4.89555e-05 -0.000123177
0.00837667 9.24527e-05 2.70851e-05
9.24527e-05 0.00227428 -3.60224e-05
2.70851e-05 -3.60224e-05 0.00176626
0.000212706 -5.08728e-06 -4.86144e-06
-5.08728e-06 -0.00103024 8.09431e-05
-4.86144e-06 8.09431e-05 -0.000834005
-0.00057455 2.49734e-05 -1.14126e-06
2.49734e-05 -0.000968501 9.31178e-07
-1.14126e-06 9.31178e-07 -0.0008863
0.00110816 1.13272e-05 4.08563e-08
1.13272e-05 8.86374e-05 -1.13398e-06
4.08563e-08 -1.13398e-06 6.00381e-06
0.0010132 -1.26156e-06 -3.88025e-08
-1.26156e-06 4.68519e-05 -2.57458e-07
-3.88025e-08 -2.57458e-07 -3.43258e-05
0.00104836 -1.4325e-05 -8.16256e-09
-1.4325e-05 7.11599e-05 1.20349e-06
-8.16256e-09 1.20349e-06 -5.60737e-06
0.00104266 1.56667e-05 -2.7403e-07
1.56667e-05 6.0331e-05 -7.33631e-07
-2.7403e-07 -7.33631e-07 -1.36369e-05
0.00117252 4.14229e-05 8.48201e-07
4.14229e-05 0.000128825 1.53561e-06
8.48201e-07 1.53561e-06 5.79351e-05
0.00124921 2.63739e-05 9.52949e-08
2.63739e-05 0.000162835 1.13122e-06
9.52949e-08 1.13122e-06 0.000100447
0.0023872 -0.000155144 6.73887e-06
-0.000155144 0.000312683 -5.56628e-07
6.73887e-06 -5.56628e-07 0.00032328
0.000969467 -1.06371e-05 -9.28527e-07
-1.06371e-05 0.000193253 6.02751e-06
-9.28527e-07 6.02751e-06 -5.64711e-05
0.00110123 2.30173e-05 4.4534e-07
2.30173e-05 9.10938e-05 1.22396e-06
4.4534e-07 1.22396e-06 4.6805e-06
0.0012067 -3.74446e-06 4.33733e-07
-3.74446e-06 0.000150143 4.30387e-07
4.33733e-07 4.30387e-07 3.01987e-05
0.00113243 4.75999e-06 9.86835e-08
4.75999e-06 9.73583e-05 1.38418e-06
9.86835e-08 1.38418e-06 2.84441e-06
0.00111382 2.32097e-05 3.03446e-07
2.32097e-05 8.91052e-05 2.82425e-07
3.03446e-07 2.82425e-07 3.77916e-06
0.00115423 2.52448e-05 1.13029e-07
2.52448e-05 0.000106215 6.46284e-11
1.13029e-07 6.46284e-11 1.39374e-05
0.00146071 -0.000123886 2.91458e-07
-0.000123886 0.000148555 1.3257e-06
2.91458e-07 1.3257e-06 2.70504e-05
0.00126497 3.779e-06 4.39326e-07
3.779e-06 0.000147058 -1.34865e-06
4.39326e-07 -1.34865e-06 5.64202e-05
0.00148198 4.64701e-05 -1.82945e-06
4.64701e-05 0.000428762 -1.02636e-06
-1.82945e-06 -1.02636e-06 0.00023234
0.000950036 8.37238e-06 -1.00423e-07
8.37238e-06 4.99961e-06 -1.95971e-06
-1.00423e-07 -1.95971e-06 -8.44161e-05
0.000949817 -2.84844e-05 -3.66009e-06
-2.84844e-05 0.000315233 3.03642e-07
-3.66009e-06 3.03642e-07 4.4164e-05
0.000604517 2.78232e-05 -1.41135e-06
2.78232e-05 -0.000142079 1.43345e-07
-1.41135e-06 1.43345e-07 -0.000207472
0.00107734 -2.90359e-06 2.59342e-08
-2.90359e-06 6.62669e-05 -1.71537e-06
2.59342e-08 -1.71537e-06 -2.88541e-05
0.00129301 -4.56876e-06 8.20953e-07
-4.56876e-06 0.00033841 -9.31739e-07
8.20953e-07 -9.31739e-07 0.000237166
0.000940387 -3.90774e-06 2.18141e-07
-3.90774e-06 0.000145174 2.52539e-07
2.18141e-07 2.52539e-07 4.25044e-05
0.00108833 -3.78458e-06 -1.84359e-05
-3.78458e-06 0.000305743 7.3138e-07
-1.84359e-05 7.3138e-07 0.000225853
0.00144964 5.10118e-05 1.73702e-06
5.10118e-05 0.000284902 4.45538e-06
1.73702e-06 4.45538e-06 0.000203924
-0.000318871 4.74271e-05 5.89557e-06
4.74271e-05 -0.000315708 -9.30635e-06
5.89557e-06 -9.30635e-06 -0.000375206
0.000741681 3.40522e-06 1.68757e-07
3.40522e-06 -1.19827e-05 5.56306e-07
1.68757e-07 5.56306e-07 -0.00010867
0.00393394 -2.49855e-05 -1.78315e-05
-2.49855e-05 0.000600811 -1.10352e-05
-1.78315e-05 -1.10352e-05 0.000397859
-0.00129438 1.57332e-05 1.72537e-07
1.57332e-05 -0.00172448 7.21067e-05
1.72537e-07 7.21067e-05 -0.0015208
-1.04766e-05 -9.19093e-06 5.78143e-07
-9.19093e-06 -0.000584772 -5.24374e-06
5.78143e-07 -5.24374e-06 -0.000643885
0.000576997 -1.51941e-05 -5.03686e-07
-1.51941e-05 -0.00018574 -7.66436e-06
-5.03686e-07 -7.66436e-06 -0.000150952
0.000732334 3.13727e-05 3.46016e-06
3.13727e-05 3.79546e-05 3.66095e-07
3.46016e-06 3.66095e-07 -3.87557e-05
0.00110371 -5.17628e-06 2.9015e-07
-5.17628e-06 0.000192038 1.79415e-06
2.9015e-07 1.79415e-06 9.63242e-05
0.00117243 -2.22626e-05 -5.13522e-06
-2.22626e-05 0.000217985 9.20425e-08
-5.13522e-06 9.20425e-08 0.000137547
0.000924407 0.000129786 1.67745e-05
0.000129786 0.000201747 1.2269e-06
1.67745e-05 1.2269e-06 1.54659e-05
0.00109974 5.08314e-05 1.48973e-06
5.08314e-05 -3.40028e-05 -3.34308e-06
1.48973e-06 -3.34308e-06 0.000193205
0.000259023 0.00012447 1.47641e-06
0.00012447 -0.000678199 -1.26878e-05
1.47641e-06 -1.26878e-05 -0.00059601
0.00703577 -9.66834e-06 6.33674e-06
-9.66834e-06 0.00174375 -2.08346e-05
6.33674e-06 -2.08346e-05 0.00149519
-0.000502913 4.12775e-06 -1.50685e-05
4.12775e-06 -0.00010514 -1.18157e-05
-1.50685e-05 -1.18157e-05 -0.000333064
0.00109176 -1.27003e-05 -1.76284e-06
-1.27003e-05 0.000228527 9.41863e-07
-1.76284e-06 9.41863e-07 0.000119217
0.00106915 3.04049e-07 -1.74926e-05
3.04049e-07 0.000225891 4.84821e-06
-1.74926e-05 4.84821e-06 0.000164118
0.00149374 8.99496e-05 7.60666e-06
8.99496e-05 0.000238228 1.17347e-06
7.60666e-06 1.17347e-06 0.000491574
-0.00287379 0.000194708 3.42413e-05
0.000194708 -0.00207405 -4.03676e-05
3.42413e-05 -4.03676e-05 -0.00200815
0.00771916 0.000140067 -3.3815e-06
0.000140067 0.00213819 -7.76098e-06
-3.3815e-06 -7.76098e-06 0.00142427
0.001248 -8.48959e-06 -1.80201e-05
-8.48959e-06 0.000360814 8.94714e-05
-1.80201e-05 8.94714e-05 8.30464e-06
0.00114229 2.18137e-05 1.06098e-07
2.18137e-05 0.000139296 3.11745e-06
1.06098e-07 3.11745e-06 3.08734e-05
0.000649 -9.75255e-06 8.92106e-07
-9.75255e-06 3.04316e-05 -1.75688e-06
8.92106e-07 -1.75688e-06 -0.000202465
0.000681493 -2.58236e-05 -4.07469e-07
-2.58236e-05 0.000116429 -8.86182e-07
-4.07469e-07 -8.86182e-07 -0.000167074
0.00107152 -3.73367e-05 3.26722e-07
-3.73367e-05 6.88016e-05 -8.21749e-07
3.26722e-07 -8.21749e-07 -2.83846e-05
0.000930792 -1.97646e-05 5.75739e-07
-1.97646e-05 3.79085e-05 1.67332e-06
5.75739e-07 1.67332e-06 -7.28484e-05
0.000910473 -2.04157e-05 -1.27211e-07
-2.04157e-05 6.40266e-05 6.15175e-07
-1.27211e-07 6.15175e-07 -5.9043e-05
0.000905288 -5.68419e-05 2.08173e-06
-5.68419e-05 0.000123728 -1.61188e-06
2.08173e-06 -1.61188e-06 -6.83759e-05
0.00129428 -5.0754e-05 3.63473e-08
-5.0754e-05 0.000193096 1.52965e-07
3.63473e-08 1.52965e-07 9.4626e-05
0.0012578 -5.55895e-05 -2.22089e-07
-5.55895e-05 0.000205993 4.63138e-07
-2.22089e-07 4.63138e-07 8.45633e-05
0.00120143 -6.42998e-05 1.12927e-06
-6.42998e-05 0.000179595 1.89031e-06
1.12927e-06 1.89031e-06 3.69583e-05
0.000713281 -3.92679e-05 1.34934e-07
-3.92679e-05 -7.68143e-05 -1.41374e-06
1.34934e-07 -1.41374e-06 -0.000174494
0.001157 -5.47459e-05 -1.93145e-07
-5.47459e-05 0.000128643 -4.83067e-08
-1.93145e-07 -4.83067e-08 1.943e-05
0.0016008 -7.00306e-05 -1.46758e-06
-7.00306e-05 0.000312581 1.52481e-06
-1.46758e-06 1.52481e-06 0.000203106
0.00139867 -6.26343e-05 -1.66957e-06
-6.26343e-05 0.000197411 2.13188e-06
-1.66957e-06 2.13188e-06 0.000102232
0.000874539 -4.58932e-05 -4.18864e-07
-4.58932e-05 -3.53579e-05 1.82389e-06
-4.18864e-07 1.82389e-06 -0.000115624
0.0011342 -5.50941e-05 -3.66615e-07
-5.50941e-05 8.20297e-05 3.08236e-07
-3.66615e-07 3.08236e-07 -1.1473e-05
0.001119 -5.25494e-05 -2.05529e-07
-5.25494e-05 9.08507e-05 -1.10645e-06
-2.05529e-07 -1.10645e-06 -4.86133e-06
0.00123215 -4.83207e-05 3.22819e-07
-4.83207e-05 0.000150969 -7.62287e-08
3.22819e-07 -7.62287e-08 7.94168e-05
0.00112386 -4.82554e-05 9.96461e-07
-4.82554e-05 9.82497e-05 -6.16964e-07
9.96461e-07 -6.16964e-07 2.32106e-05
0.000935326 -3.01035e-05 -4.87312e-07
-3.01035e-05 1.7242e-05 6.03252e-07
-4.87312e-07 6.03252e-07 -5.20179e-05
0.00101832 -4.15203e-05 1.90911e-07
-4.15203e-05 5.89808e-05 -1.01755e-07
1.90911e-07 -1.01755e-07 -1.50281e-05
0.00107869 -4.78139e-05 2.60021e-06
-4.78139e-05 7.49991e-05 -1.46102e-06
2.60021e-06 -1.46102e-06 -4.11209e-06
0.00101552 -8.6158e-06 -1.58096e-06
-8.6158e-06 4.2664e-05 9.09908e-07
-1.58096e-06 9.09908e-07 -1.64886e-05
0.0010841 -3.61354e-05 -2.81359e-07
-3.61354e-05 8.05606e-05 -5.53912e-08
-2.81359e-07 -5.53912e-08 1.19124e-05
0.00112813 -4.5003e-05 4.10191e-07
-4.5003e-05 0.000103518 -1.22037e-07
4.10191e-07 -1.22037e-07 2.87785e-05
0.000956188 -2.31566e-06 -2.12341e-06
-2.31566e-06 8.54596e-06 2.27251e-06
-2.12341e-06 2.27251e-06 -3.07321e-05
0.00103361 -1.75179e-05 1.01331e-07
-1.75179e-05 4.77308e-05 1.30954e-07
1.01331e-07 1.30954e-07 -1.18023e-05
0.00101568 -3.75235e-05 1.33056e-06
-3.75235e-05 4.46345e-05 -1.39256e-07
1.33056e-06 -1.39256e-07 -2.69697e-05
0.00102587 -1.61452e-05 1.18623e-06
-1.61452e-05 4.49368e-05 -1.21911e-06
1.18623e-06 -1.21911e-06 -1.42979e-05
0.00095272 3.46414e-06 2.66604e-07
3.46414e-06 5.6614e-06 -8.66205e-09
2.66604e-07 -8.66205e-09 -3.19322e-05
0.000862857 1.50989e-05 -2.4198e-06
1.50989e-05 -4.11382e-05 3.47618e-06
-2.4198e-06 3.47618e-06 -4.81399e-05
0.000949179 5.10205e-06 1.15795e-06
5.10205e-06 2.26962e-06 -2.18299e-06
1.15795e-06 -2.18299e-06 -3.30928e-05
0.000885742 1.34454e-05 9.69793e-08
1.34454e-05 -3.3851e-05 -1.83014e-08
9.69793e-08 -1.83014e-08 -3.92872e-05
0.00242953 2.05311e-05 -1.20785e-05
2.05311e-05 0.00074123 4.00144e-06
-1.20785e-05 4.00144e-06 0.000760961
0.000906053 1.14989e-05 1.88525e-06
1.14989e-05 -2.79292e-05 -3.32624e-06
1.88525e-06 -3.32624e-06 -3.19652e-05
0.00173541 1.57733e-05 4.51494e-06
1.57733e-05 0.000388372 -1.18627e-06
4.51494e-06 -1.18627e-06 0.000406063
0.00236529 1.38786e-05 9.48098e-06
1.38786e-05 0.000701639 -4.07388e-06
9.48098e-06 -4.07388e-06 0.00072312
0.000999331 1.17957e-05 -5.11856e-07
1.17957e-05 2.90084e-05 -1.5484e-06
-5.11856e-07 -1.5484e-06 -2.56143e-05
0.000952623 -9.52672e-06 -6.9392e-07
-9.52672e-06 3.31869e-07 -2.07483e-06
-6.9392e-07 -2.07483e-06 -3.14805e-05
0.000905502 5.8114e-06 -4.00739e-07
5.8114e-06 -1.7194e-05 -5.63053e-07
-4.00739e-07 -5.63053e-07 -6.95961e-05
0.000919326 -1.00248e-05 -1.32517e-06
-1.00248e-05 -2.52447e-05 -3.32091e-06
-1.32517e-06 -3.32091e-06 -2.68729e-05
0.000835798 -6.45836e-06 -2.29395e-07
-6.45836e-06 -6.02123e-05 -5.84655e-07
-2.29395e-07 -5.84655e-07 -9.08438e-05
0.00111347 -2.48431e-06 2.11708e-07
-2.48431e-06 8.60557e-05 8.1152e-07
2.11708e-07 8.1152e-07 3.71041e-05
0.00226739 -1.04077e-05 -7.36066e-06
-1.04077e-05 0.000648534 -4.05934e-06
-7.36066e-06 -4.05934e-06 0.000671621
0.000910705 -7.52491e-06 -8.73759e-08
-7.52491e-06 -3.28053e-05 -9.00305e-09
-8.73759e-08 -9.00305e-09 -3.26992e-05
0.000711949 -4.80395e-06 2.47422e-07
-4.80395e-06 -0.000123798 1.37374e-06
2.47422e-07 1.37374e-06 -0.000153221
0.00223792 -6.7789e-06 -8.86159e-07
-6.7789e-06 0.000630982 1.77568e-08
-8.86159e-07 1.77568e-08 0.000654925
0.000904698 -4.92e-06 5.53493e-07
-4.92e-06 -3.81718e-05 3.27356e-06
5.53493e-07 3.27356e-06 -3.66916e-05
0.0022107 -3.20764e-06 1.89773e-06
-3.20764e-06 0.000615742 3.99586e-06
1.89773e-06 3.99586e-06 0.00064026
0.00149521 9.2247e-07 2.30865e-06
9.2247e-07 0.000436536 -1.35155e-06
2.30865e-06 -1.35155e-06 0.000361001
0.00106234 -1.05944e-05 6.89471e-07
-1.05944e-05 0.000206718 1.21759e-07
6.89471e-07 1.21759e-07 0.000117879
0.000921183 -6.4259e-06 -1.22845e-05
-6.4259e-06 0.000185277 4.44044e-07
-1.22845e-05 4.44044e-07 0.000114374
0.000973139 2.28514e-05 -5.17845e-07
2.28514e-05 1.82513e-05 -1.14891e-06
-5.17845e-07 -1.14891e-06 -5.299e-05
0.00114711 3.99892e-05 -4.01855e-07
3.99892e-05 0.000107124 -4.70027e-07
-4.01855e-07 -4.70027e-07 2.87077e-05
0.0011122 2.9075e-05 8.22682e-07
2.9075e-05 9.09669e-05 1.19593e-06
8.22682e-07 1.19593e-06 2.52942e-05
0.000948691 2.09498e-05 -3.8413e-08
2.09498e-05 6.85221e-06 7.37016e-09
-3.8413e-08 7.37016e-09 -6.23615e-05
0.00112102 2.00601e-05 3.65909e-08
2.00601e-05 9.66475e-05 3.92818e-07
3.65909e-08 3.92818e-07 2.10105e-05
0.00108793 3.11793e-05 -4.08036e-07
3.11793e-05 7.93478e-05 -9.11863e-07
-4.08036e-07 -9.11863e-07 1.2754e-06
0.00110555 3.71705e-05 -7.58843e-08
3.71705e-05 9.13577e-05 -4.84668e-07
-7.58843e-08 -4.84668e-07 8.44772e-06
0.000758253 3.17571e-05 3.20348e-07
3.17571e-05 -1.12213e-05 -1.11973e-05
3.20348e-07 -1.11973e-05 -6.95191e-05
0.000934932 9.67134e-06 -1.99087e-06
9.67134e-06 1.88775e-05 -1.82167e-06
-1.99087e-06 -1.82167e-06 -8.0622e-06
0.000957423 -1.55248e-05 5.61518e-06
-1.55248e-05 7.87059e-05 2.8793e-06
5.61518e-06 2.8793e-06 3.09243e-05
-0.000175237 1.14768e-05 -1.02568e-06
1.14768e-05 -0.000659542 -3.26669e-06
-1.02568e-06 -3.26669e-06 -0.000664224
0.00141079 -4.31895e-05 -6.40122e-05
-4.31895e-05 0.000132858 6.1064e-05
-6.40122e-05 6.1064e-05 -0.000243825
0.00192871 7.23506e-05 4.99186e-05
7.23506e-05 -6.05504e-05 -6.21632e-05
4.99186e-05 -6.21632e-05 -0.000703315
0.0057222 0.000169587 1.02153e-05
0.000169587 0.00145851 -3.16122e-05
1.02153e-05 -3.16122e-05 0.00164606
0.000800537 -0.000147753 -2.49608e-05
-0.000147753 -0.000224192 2.5063e-05
-2.49608e-05 2.5063e-05 -0.000504749
0.00249019 -5.36364e-05 1.35998e-05
-5.36364e-05 -0.000517757 -5.10869e-05
1.35998e-05 -5.10869e-05 -0.00115819
0.00309055 -3.69072e-06 -5.83327e-06
-3.69072e-06 0.000133739 -7.21362e-07
-5.83327e-06 -7.21362e-07 0.000274115
0.0017068 1.52504e-05 -5.28959e-07
1.52504e-05 0.000358711 4.68977e-06
-5.28959e-07 4.68977e-06 0.000470077
0.00080615 -0.000131917 3.45338e-05
-0.000131917 2.41697e-06 -2.2785e-05
3.45338e-05 -2.2785e-05 -0.000177034
0.00357592 -0.000171795 -2.06274e-05
-0.000171795 -0.000336504 -0.000103685
-2.06274e-05 -0.000103685 -0.000680005
-0.000307545 -7.04644e-05 1.11486e-05
-7.04644e-05 -0.00124094 5.49346e-05
1.11486e-05 5.49346e-05 -0.00104642
-0.00110719 -3.50751e-05 -4.20887e-06
-3.50751e-05 -0.0013354 -3.16082e-07
-4.20887e-06 -3.16082e-07 -0.00114063
0.00115299 1.72957e-05 -7.97691e-07
1.72957e-05 0.000103676 -1.53322e-06
-7.97691e-07 -1.53322e-06 1.87702e-05
0.00109173 1.14045e-05 7.14851e-08
1.14045e-05 8.08849e-05 -2.43016e-07
7.14851e-08 -2.43016e-07 -2.2239e-06
0.00102992 3.75797e-07 -1.75435e-08
3.75797e-07 5.60161e-05 7.94685e-07
-1.75435e-08 7.94685e-07 -2.54609e-05
0.00106773 1.76463e-05 2.92308e-08
1.76463e-05 7.26875e-05 2.96988e-07
2.92308e-08 2.96988e-07 -1.29527e-06
0.00147332 -0.000124728 1.02644e-05
-0.000124728 0.000106055 2.01583e-06
1.02644e-05 2.01583e-06 2.36082e-05
0.00150591 4.34936e-05 1.39583e-06
4.34936e-05 0.000464328 5.22417e-06
1.39583e-06 5.22417e-06 0.000264538
0.00105836 2.40766e-05 3.98812e-07
2.40766e-05 6.22681e-05 1.20571e-06
3.98812e-07 1.20571e-06 -2.28322e-05
0.00105233 1.3526e-05 -2.11752e-07
1.3526e-05 5.44339e-05 1.22931e-06
-2.11752e-07 1.22931e-06 -3.80251e-05
0.00149494 2.1559e-06 -8.29006e-07
2.1559e-06 0.000257305 9.53367e-07
-8.29006e-07 9.53367e-07 0.000168188
0.00103701 1.86185e-05 -8.12945e-07
1.86185e-05 4.8544e-05 -1.64069e-07
-8.12945e-07 -1.64069e-07 -4.11072e-05
0.00104019 -2.3294e-06 -1.03268e-06
-2.3294e-06 4.59118e-05 4.20092e-07
-1.03268e-06 4.20092e-07 -4.99959e-05
0.000781211 -2.1266e-05 1.41261e-05
-2.1266e-05 0.00024292 -3.63792e-07
1.41261e-05 -3.63792e-07 2.85356e-05
0.000916815 1.28947e-05 2.39089e-06
1.28947e-05 1.82041e-05 1.67067e-06
2.39089e-06 1.67067e-06 -4.3076e-05
0.0012367 3.63033e-06 -1.6932e-07
3.63033e-06 0.000152581 -2.50392e-06
-1.6932e-07 -2.50392e-06 5.51068e-05
0.0011001 1.63475e-05 7.93155e-06
1.63475e-05 0.000537774 6.01417e-06
7.93155e-06 6.01417e-06 0.000401461
0.00164263 -3.16397e-05 5.86721e-06
-3.16397e-05 0.000381912 -4.52557e-06
5.86721e-06 -4.52557e-06 0.000252346
0.00143237 -3.34206e-06 -1.05271e-06
-3.34206e-06 0.000461453 -8.33283e-07
-1.05271e-06 -8.33283e-07 0.000348738
0.00096831 -4.80807e-06 2.77963e-07
-4.80807e-06 0.000140295 -6.60849e-07
2.77963e-07 -6.60849e-07 3.70648e-05
0.000504858 -4.99648e-06 6.23186e-07
-4.99648e-06 -0.000125076 5.43116e-07
6.23186e-07 5.43116e-07 -0.000228281
0.000903087 2.27371e-05 -4.19678e-06
2.27371e-05 7.61955e-05 6.4636e-06
-4.19678e-06 6.4636e-06 2.06368e-06
0.00110096 7.14359e-05 -2.51079e-05
7.14359e-05 0.000546024 1.18196e-05
-2.51079e-05 1.18196e-05 0.000532452
0.000720436 -5.8591e-06 7.95812e-08
-5.8591e-06 -3.9994e-05 3.02851e-07
7.95812e-08 3.02851e-07 -0.000137819
0.0029474 0.000151527 1.01563e-05
0.000151527 -0.000114596 -9.16603e-05
1.01563e-05 -9.16603e-05 -0.000605923
0.00467777 0.000180115 -1.04779e-05
0.000180115 0.00108616 2.24131e-05
-1.04779e-05 2.24131e-05 0.00122309
0.00108314 -2.37582e-05 -4.64272e-06
-2.37582e-05 0.000154871 -5.5629e-06
-4.64272e-06 -5.5629e-06 7.75819e-05
0.00153129 4.75241e-05 -7.94522e-07
4.75241e-05 0.000228333 -8.49251e-06
-7.94522e-07 -8.49251e-06 0.000440899
6.85256e-05 -3.68047e-06 7.86997e-06
-3.68047e-06 9.79125e-05 -8.43659e-07
7.86997e-06 -8.43659e-07 -0.000100595
0.00108269 -1.23354e-05 -1.00388e-06
-1.23354e-05 0.000218184 -1.25035e-08
-1.00388e-06 -1.25035e-08 0.00011008
0.00125858 -2.49003e-06 -3.10493e-06
-2.49003e-06 0.000351604 1.24668e-06
-3.10493e-06 1.24668e-06 0.000288382
0.00194375 -2.22081e-05 -7.20753e-06
-2.22081e-05 0.00079072 1.56306e-05
-7.20753e-06 1.56306e-05 0.000683744
0.000714385 9.82037e-05 -1.33549e-06
9.82037e-05 -0.000214676 -1.17172e-06
-1.33549e-06 -1.17172e-06 3.4477e-05
0.000699193 0.000218089 3.01683e-06
0.000218089 -0.000450988 -8.95614e-06
3.01683e-06 -8.95614e-06 -0.000401538
0.00269453 2.3038e-05 1.89178e-05
2.3038e-05 0.000147515 -1.30318e-05
1.89178e-05 -1.30318e-05 -0.000703664
0.000460992 -5.23997e-05 3.19903e-06
-5.23997e-05 0.000257537 -1.99031e-05
3.19903e-06 -1.99031e-05 -2.98877e-05
0.00134888 -7.9638e-06 -1.24227e-05
-7.9638e-06 0.000457657 2.15588e-06
-1.24227e-05 2.15588e-06 0.000369807
-0.000970701 3.98493e-05 5.06637e-06
3.98493e-05 -0.00103638 -4.92637e-06
5.06637e-06 -4.92637e-06 -0.000980431
0.000249859 0.00016251 5.51891e-05
0.00016251 -6.61727e-05 -2.51487e-05
5.51891e-05 -2.51487e-05 -3.28884e-07
0.00591538 0.000281999 2.94067e-05
0.000281999 0.00165484 -4.19552e-05
2.94067e-05 -4.19552e-05 0.000927745
0.00194702 -0.000140825 -4.52637e-05
-0.000140825 0.000161491 0.000102009
-4.52637e-05 0.000102009 -0.000351368
0.000949037 -8.36858e-06 -1.58631e-06
-8.36858e-06 0.000173007 -1.97764e-06
-1.58631e-06 -1.97764e-06 -5.7297e-05
0.000667747 -1.69819e-05 -1.14606e-07
-1.69819e-05 0.000113057 -8.38861e-07
-1.14606e-07 -8.38861e-07 -0.000173691
0.00127894 -7.75396e-05 -1.60143e-07
-7.75396e-05 0.00034257 3.48644e-06
-1.60143e-07 3.48644e-06 7.87215e-05
0.000827905 -1.75879e-05 -1.20291e-07
-1.75879e-05 2.30336e-05 6.16645e-07
-1.20291e-07 6.16645e-07 -9.60004e-05
0.000647619 -4.14628e-05 2.96953e-07
-4.14628e-05 1.2213e-05 1.0597e-07
2.96953e-07 1.0597e-07 -0.000183194
0.00116471 -8.08562e-05 2.40641e-06
-8.08562e-05 0.000180595 4.23627e-06
2.40641e-06 4.23627e-06 8.39604e-07
0.00147381 -6.31116e-05 -1.16095e-06
-6.31116e-05 0.000305412 2.11967e-08
-1.16095e-06 2.11967e-08 0.000179458
0.00124875 -6.5305e-05 -3.44883e-07
-6.5305e-05 0.000197361 7.37279e-07
-3.44883e-07 7.37279e-07 5.27284e-05
0.00135808 -7.73175e-05 -1.30693e-06
-7.73175e-05 0.000194983 6.22308e-07
-1.30693e-06 6.22308e-07 6.08141e-05
0.0011524 -5.45781e-05 -4.83278e-07
-5.45781e-05 0.000125119 -1.21759e-06
-4.83278e-07 -1.21759e-06 1.39136e-05
0.00146841 -6.81239e-05 -4.21299e-07
-6.81239e-05 0.000245785 1.36618e-07
-4.21299e-07 1.36618e-07 0.000134214
0.00141698 -6.8001e-05 -7.76195e-07
-6.8001e-05 0.000197239 3.23592e-07
-7.76195e-07 3.23592e-07 9.33034e-05
0.00128593 -5.84292e-05 -1.32006e-06
-5.84292e-05 0.00011425 3.26058e-07
-1.32006e-06 3.26058e-07 2.49575e-05
0.00144515 -5.93799e-05 -1.61999e-06
-5.93799e-05 0.000222709 2.49347e-06
-1.61999e-06 2.49347e-06 0.000137711
0.00132676 -6.14163e-05 -1.75311e-07
-6.14163e-05 0.000162061 7.09216e-08
-1.75311e-07 7.09216e-08 6.61316e-05
0.000858188 -4.30407e-05 4.24261e-09
-4.30407e-05 -3.89068e-05 3.69942e-07
4.24261e-09 3.69942e-07 -0.000111635
0.00101149 -4.84563e-05 7.38237e-07
-4.84563e-05 3.23479e-05 -2.14454e-07
7.38237e-07 -2.14454e-07 -4.72933e-05
0.00107714 -5.42665e-05 5.28612e-07
-5.42665e-05 5.55493e-05 -1.78108e-06
5.28612e-07 -1.78108e-06 -3.9433e-05
0.0011145 -3.9099e-05 -1.48475e-07
-3.9099e-05 9.65696e-05 3.46039e-07
-1.48475e-07 3.46039e-07 2.7518e-05
0.00115422 -4.66784e-05 2.33867e-08
-4.66784e-05 0.000113834 -1.62805e-07
2.33867e-08 -1.62805e-07 4.19503e-05
0.000964639 -4.48139e-05 1.62394e-06
-4.48139e-05 2.12175e-05 -9.1528e-07
1.62394e-06 -9.1528e-07 -5.22816e-05
0.000965605 -2.9933e-07 -8.13997e-07
-2.9933e-07 2.45108e-05 9.77344e-07
-8.13997e-07 9.77344e-07 -3.5528e-05
0.000970194 -3.0009e-05 -1.50893e-07
-3.0009e-05 3.33328e-05 1.09065e-07
-1.50893e-07 1.09065e-07 -3.54705e-05
0.0011164 -4.33497e-05 7.41845e-07
-4.33497e-05 0.000106259 -5.23919e-07
7.41845e-07 -5.23919e-07 3.29431e-05
0.000930698 4.58695e-06 -2.52779e-06
4.58695e-06 -7.40984e-07 2.11222e-06
-2.52779e-06 2.11222e-06 -4.09464e-05
0.00102382 -9.64155e-06 -3.24683e-07
-9.64155e-06 4.58075e-05 1.54598e-09
-3.24683e-07 1.54598e-09 -1.3152e-05
0.00109439 -3.66924e-05 5.78625e-07
-3.66924e-05 8.45896e-05 -2.41349e-07
5.78625e-07 -2.41349e-07 1.60906e-05
0.000895329 1.68664e-05 -4.04816e-06
1.68664e-05 -2.21303e-05 4.80027e-06
-4.04816e-06 4.80027e-06 -3.06191e-05
0.000950995 3.39921e-06 2.63775e-07
3.39921e-06 6.09436e-06 2.90413e-08
2.63775e-07 2.90413e-08 -3.30979e-05
0.00103047 -1.86478e-05 1.63604e-06
-1.86478e-05 4.53581e-05 -9.13897e-07
1.63604e-06 -9.13897e-07 -1.39037e-05
0.000944972 5.24757e-06 1.64027e-06
5.24757e-06 2.01927e-06 -2.20921e-06
1.64027e-06 -2.20921e-06 -3.5582e-05
0.000873147 1.52506e-05 1.62454e-07
1.52506e-05 -3.59872e-05 -7.77469e-09
1.62454e-07 -7.77469e-09 -4.3091e-05
0.00248058 2.38131e-05 -1.36494e-05
2.38131e-05 0.000771344 3.98411e-06
-1.36494e-05 3.98411e-06 0.000789881
0.000897489 1.35448e-05 2.23372e-06
1.35448e-05 -2.81165e-05 -3.41192e-06
2.23372e-06 -3.41192e-06 -3.36355e-05
0.0024298 2.05309e-05 4.84752e-07
2.05309e-05 0.000741827 3.89074e-08
4.84752e-07 3.89074e-08 0.000761438
0.00239155 1.72298e-05 1.12943e-05
1.72298e-05 0.000718771 -4.06118e-06
1.12943e-05 -4.06118e-06 0.000739344
0.00106207 3.28029e-05 -8.36942e-07
3.28029e-05 6.40969e-05 -1.02452e-06
-8.36942e-07 -1.02452e-06 -8.49774e-06
0.00101625 8.74751e-06 -6.43816e-07
8.74751e-06 3.66312e-05 -1.65283e-06
-6.43816e-07 -1.65283e-06 -2.13503e-05
0.000943332 -1.2975e-05 -9.74226e-07
-1.2975e-05 -1.76539e-06 -2.22849e-06
-9.74226e-07 -2.22849e-06 -3.60053e-05
0.00100794 8.64605e-06 7.90057e-08
8.64605e-06 3.30685e-05 -5.66686e-08
7.90057e-08 -5.66686e-08 -2.142e-05
0.000911824 -1.2183e-05 -1.72272e-06
-1.2183e-05 -2.51468e-05 -3.37722e-06
-1.72272e-06 -3.37722e-06 -2.85963e-05
0.000958151 -1.06542e-05 5.25982e-09
-1.06542e-05 3.14278e-06 -6.39212e-09
5.25982e-09 -6.39212e-09 -2.8691e-05
0.00100172 1.1192e-05 1.75181e-07
1.1192e-05 3.08864e-05 9.40672e-07
1.75181e-07 9.40672e-07 -2.07383e-05
0.00231129 -1.39144e-05 -9.20148e-06
-1.39144e-05 0.000673977 -4.08133e-06
-9.20148e-06 -4.08133e-06 0.00069603
0.000903564 -9.98936e-06 -8.47844e-08
-9.98936e-06 -3.29655e-05 -1.68302e-08
-8.47844e-08 -1.68302e-08 -3.45079e-05
0.00097506 -6.74019e-06 3.89315e-07
-6.74019e-06 9.30836e-06 1.39275e-06
3.89315e-07 1.39275e-06 -2.06852e-05
0.00226935 -1.03244e-05 -7.60702e-07
-1.03244e-05 0.000649139 2.56327e-08
-7.60702e-07 2.56327e-08 0.000672334
0.00089749 -7.46084e-06 8.68762e-07
-7.46084e-06 -3.93482e-05 3.30295e-06
8.68762e-07 3.30295e-06 -3.9151e-05
0.00223841 -6.68788e-06 4.34183e-06
-6.68788e-06 0.000630962 4.01124e-06
4.34183e-06 4.01124e-06 0.000654991
0.000852497 9.80448e-06 -1.3786e-06
9.80448e-06 8.01288e-05 -3.02088e-07
-1.3786e-06 -3.02088e-07 -2.02493e-05
0.00102067 -2.64379e-07 -2.98742e-07
-2.64379e-07 0.000144359 -2.8303e-06
-2.98742e-07 -2.8303e-06 6.51064e-05
0.00101715 -1.04671e-05 3.9063e-07
-1.04671e-05 0.000172892 1.51206e-06
3.9063e-07 1.51206e-06 8.61085e-05
0.0010161 2.52816e-05 -1.87021e-08
2.52816e-05 4.0571e-05 4.09951e-08
-1.87021e-08 4.09951e-08 -3.07303e-05
0.00109236 3.81574e-05 2.03569e-07
3.81574e-05 7.96871e-05 1.99581e-07
2.03569e-07 1.99581e-07 9.35377e-07
0.00104309 3.86781e-05 -1.10791e-06
3.86781e-05 5.5587e-05 -8.07519e-07
-1.10791e-06 -8.07519e-07 -2.28499e-05
0.000998257 3.28046e-05 -6.35221e-07
3.28046e-05 3.27535e-05 -1.10778e-06
-6.35221e-07 -1.10778e-06 -4.62834e-05
0.00116325 4.43043e-05 -4.16606e-07
4.43043e-05 0.000117387 -5.73383e-07
-4.16606e-07 -5.73383e-07 3.52491e-05
0.000935686 2.28902e-05 3.95077e-07
2.28902e-05 1.18577e-06 1.201e-06
3.95077e-07 1.201e-06 -6.85893e-05
0.00102316 1.55378e-05 2.26866e-07
1.55378e-05 4.63523e-05 1.45301e-06
2.26866e-07 1.45301e-06 -2.98191e-05
0.00108022 3.66098e-05 -3.92115e-08
3.66098e-05 7.63404e-05 -1.17517e-08
-3.92115e-08 -1.17517e-08 -2.01849e-06
0.00107418 2.41163e-05 1.52432e-07
2.41163e-05 7.29633e-05 5.04002e-07
1.52432e-07 5.04002e-07 -9.15757e-06
0.00111925 3.42305e-05 -4.19295e-07
3.42305e-05 9.7342e-05 -7.61011e-07
-4.19295e-07 -7.61011e-07 1.30657e-05
0.000804585 -2.73631e-06 -9.75117e-06
-2.73631e-06 0.000125554 -1.02677e-05
-9.75117e-06 -1.02677e-05 5.47723e-05
0.000905124 3.09119e-05 -8.69003e-07
3.09119e-05 8.67647e-05 -4.21143e-06
-8.69003e-07 -4.21143e-06 2.45074e-05
-0.000180295 8.02843e-06 -6.80184e-09
8.02843e-06 -0.000686364 4.85097e-07
-6.80184e-09 4.85097e-07 -0.000713913
0.0013582 1.86706e-05 6.95148e-06
1.86706e-05 0.000175104 7.84042e-06
6.95148e-06 7.84042e-06 0.000268155
-0.000869115 7.64145e-06 8.03039e-07
7.64145e-06 -0.00167768 -7.81048e-05
8.03039e-07 -7.81048e-05 -0.00143925
0.00135365 -0.000191411 -5.75199e-05
-0.000191411 -0.000104325 9.23239e-05
-5.75199e-05 9.23239e-05 -0.000494799
0.00711088 9.28145e-05 -1.18161e-05
9.28145e-05 0.00166008 -4.41319e-05
-1.18161e-05 -4.41319e-05 0.00125655
0.000435158 -0.000172699 -2.99326e-05
-0.000172699 -0.000380604 2.68401e-05
-2.99326e-05 2.68401e-05 -0.000782323
0.00715495 -8.04681e-05 9.19306e-06
-8.04681e-05 0.00133557 4.1208e-06
9.19306e-06 4.1208e-06 0.00120707
0.00117264 -0.000139999 4.39068e-06
-0.000139999 -0.000449529 -1.78162e-05
4.39068e-06 -1.78162e-05 -0.000416655
0.000183608 -3.4418e-05 1.94316e-06
-3.4418e-05 -0.00053003 4.518e-06
1.94316e-06 4.518e-06 -0.000342488
0.00179357 -7.62159e-05 -1.2277e-05
-7.62159e-05 0.000447599 -5.39167e-05
-1.2277e-05 -5.39167e-05 6.5985e-05
0.00676048 -0.000198939 -1.84446e-05
-0.000198939 0.00155193 5.22641e-05
-1.84446e-05 5.22641e-05 0.00102908
0.0043646 -0.000218472 8.79099e-06
-0.000218472 0.00127997 2.35396e-05
8.79099e-06 2.35396e-05 0.00135819
0.0012359 -9.44864e-05 -2.10135e-07
-9.44864e-05 -6.87894e-06 2.5753e-09
-2.10135e-07 2.5753e-09 0.000304204
0.00101497 2.99368e-05 -6.2527e-07
2.99368e-05 5.13772e-05 -2.33782e-06
-6.2527e-07 -2.33782e-06 -3.14248e-05
0.00112562 1.77344e-05 -4.8845e-08
1.77344e-05 9.43184e-05 -7.73071e-08
-4.8845e-08 -7.73071e-08 8.955e-06
0.00107097 6.64712e-06 1.30161e-07
6.64712e-06 7.04049e-05 8.94097e-07
1.30161e-07 8.94097e-07 -1.28863e-05
0.000825743 -1.51016e-05 1.53435e-05
-1.51016e-05 0.000237422 -3.77798e-06
1.53435e-05 -3.77798e-06 8.59021e-05
0.00108985 -2.48692e-06 8.4615e-07
-2.48692e-06 0.000109371 5.63729e-06
8.4615e-07 5.63729e-06 5.21882e-05
0.00108494 1.95782e-05 1.93203e-07
1.95782e-05 7.2544e-05 2.00905e-06
1.93203e-07 2.00905e-06 -1.68775e-05
0.00100904 -1.51951e-06 -8.33081e-08
-1.51951e-06 2.86499e-05 2.58396e-06
-8.33081e-08 2.58396e-06 -6.77854e-05
0.00112882 2.83615e-06 3.87217e-07
2.83615e-06 0.000102841 -3.99837e-08
3.87217e-07 -3.99837e-08 5.66239e-06
0.00103765 -2.56647e-05 7.77943e-07
-2.56647e-05 0.00011079 5.87203e-07
7.77943e-07 5.87203e-07 -2.9278e-05
-2.31017e-05 1.56477e-05 -1.32763e-06
1.56477e-05 1.77519e-05 3.52615e-07
-1.32763e-06 3.52615e-07 -0.000148571
0.000705956 1.9691e-05 -3.47132e-06
1.9691e-05 -2.2125e-05 -1.10603e-07
-3.47132e-06 -1.10603e-07 -0.00016827
0.00100668 2.30362e-05 -5.64579e-06
2.30362e-05 0.000373753 1.12132e-05
-5.64579e-06 1.12132e-05 0.000229125
0.00212825 -8.63582e-06 -1.45556e-05
-8.63582e-06 0.000958723 -5.55426e-07
-1.45556e-05 -5.55426e-07 0.000871202
0.000990896 -3.43277e-06 -2.75006e-07
-3.43277e-06 0.000187969 -5.77109e-07
-2.75006e-07 -5.77109e-07 7.51058e-05
0.000691288 -4.90895e-06 9.06483e-07
-4.90895e-06 -2.77347e-05 -2.63873e-07
9.06483e-07 -2.63873e-07 -0.000133114
-1.0054e-05 1.20257e-05 1.77694e-06
1.20257e-05 2.36517e-05 1.60476e-05
1.77694e-06 1.60476e-05 -0.000149244
0.000217598 2.38711e-05 2.6138e-05
2.38711e-05 -0.00025116 -4.86739e-05
2.6138e-05 -4.86739e-05 -0.000642906
0.00109374 -1.19852e-05 -1.0878e-07
-1.19852e-05 0.000220408 -3.95574e-07
-1.0878e-07 -3.95574e-07 0.000113543
0.00748874 0.000157046 2.91617e-05
0.000157046 0.00184835 -1.75848e-05
2.91617e-05 -1.75848e-05 0.00103366
0.00275577 0.00028042 -2.53688e-05
0.00028042 0.000574987 1.82927e-05
-2.53688e-05 1.82927e-05 0.000568005
0.00145083 -5.65539e-06 1.07337e-05
-5.65539e-06 0.000478879 -1.11874e-05
1.07337e-05 -1.11874e-05 0.000414554
9.89174e-06 0.000106703 -7.55362e-06
0.000106703 -0.000622044 9.94738e-06
-7.55362e-06 9.94738e-06 -0.00038349
6.50299e-05 -1.77152e-05 -3.54724e-06
-1.77152e-05 0.000100982 6.16286e-07
-3.54724e-06 6.16286e-07 -0.000173875
0.00111693 -8.02475e-06 5.36985e-07
-8.02475e-06 0.000309209 8.07967e-08
5.36985e-07 8.07967e-08 0.000222136
-0.00113287 4.50693e-05 8.61994e-06
4.50693e-05 -0.00111855 -3.32664e-06
8.61994e-06 -3.32664e-06 -0.00105069
0.00172554 -8.9401e-05 6.71286e-06
-8.9401e-05 0.000412053 3.53369e-05
6.71286e-06 3.53369e-05 -1.29855e-05
0.00306011 0.000238423 -3.48552e-07
0.000238423 0.0010119 5.16615e-07
-3.48552e-07 5.16615e-07 0.00096654
0.00551568 0.00012247 1.50503e-05
0.00012247 0.00130038 -1.28263e-05
1.50503e-05 -1.28263e-05 0.000321159
0.00134394 -4.7391e-05 7.85603e-06
-4.7391e-05 0.000260826 -3.76821e-06
7.85603e-06 -3.76821e-06 0.000159727
-0.000845365 5.0177e-06 -1.04217e-05
5.0177e-06 -0.000879088 5.72221e-07
-1.04217e-05 5.72221e-07 -0.000893763
0.00244329 0.000164087 3.89239e-05
0.000164087 0.000801971 -1.63302e-05
3.89239e-05 -1.63302e-05 0.000726705
0.00336933 0.000238148 -3.31175e-05
0.000238148 0.000633655 2.77002e-05
-3.31175e-05 2.77002e-05 -0.000113775
0.00119466 -5.65958e-05 2.76261e-06
-5.65958e-05 3.51894e-05 4.2901e-05
2.76261e-06 4.2901e-05 -0.000198412
0.000746226 -8.69493e-06 4.74047e-07
-8.69493e-06 0.000146763 1.60437e-06
4.74047e-07 1.60437e-06 -0.000138868
0.00095313 -7.2517e-05 -3.00027e-07
-7.2517e-05 0.000208048 -1.44034e-07
-3.00027e-07 -1.44034e-07 -7.76608e-05
0.00195393 -0.000128669 -3.28484e-07
-0.000128669 0.000515411 4.90731e-06
-3.28484e-07 4.90731e-06 0.00031036
0.000421273 -2.60998e-05 -1.1895e-06
-2.60998e-05 -8.74064e-05 2.02528e-06
-1.1895e-06 2.02528e-06 -0.000283534
0.000978544 -7.61947e-05 7.11323e-07
-7.61947e-05 9.39733e-05 -1.013e-07
7.11323e-07 -1.013e-07 -8.54426e-05
0.00134701 -9.82738e-05 -2.58063e-06
-9.82738e-05 0.000141423 8.19046e-07
-2.58063e-06 8.19046e-07 1.12691e-05
0.00130499 -6.59052e-05 -1.31098e-06
-6.59052e-05 0.000217412 -4.57999e-07
-1.31098e-06 -4.57999e-07 7.26764e-05
0.0012129 -7.33068e-05 -8.23472e-07
-7.33068e-05 0.000120504 -1.10739e-06
-8.23472e-07 -1.10739e-06 -8.51377e-06
0.00161269 -7.88519e-05 -1.36111e-06
-7.88519e-05 0.000246511 1.74351e-07
-1.36111e-06 1.74351e-07 0.000151939
0.00133786 -6.59105e-05 -1.72778e-07
-6.59105e-05 0.000180044 -1.88351e-06
-1.72778e-07 -1.88351e-06 6.68776e-05
0.00124096 -6.38749e-05 4.35386e-07
-6.38749e-05 0.000107401 -5.49876e-07
4.35386e-07 -5.49876e-07 5.03153e-06
0.00135375 -5.98119e-05 -1.23501e-06
-5.98119e-05 0.000118916 -6.84463e-07
-1.23501e-06 -6.84463e-07 3.68289e-05
0.00128297 -5.29407e-05 -1.12963e-06
-5.29407e-05 7.42784e-05 -1.67127e-07
-1.12963e-06 -1.67127e-07 -9.58723e-07
0.00116657 -5.39141e-05 -1.12174e-06
-5.39141e-05 6.60817e-05 1.13981e-06
-1.12174e-06 1.13981e-06 -1.87312e-05
0.001219 -5.66602e-05 2.45683e-07
-5.66602e-05 7.87635e-05 -5.61662e-07
2.45683e-07 -5.61662e-07 -9.55099e-06
0.00122464 -5.183e-05 -7.29694e-07
-5.183e-05 0.00012547 1.8443e-06
-7.29694e-07 1.8443e-06 4.84082e-05
0.00121291 -5.51906e-05 -2.89799e-07
-5.51906e-05 0.000111348 3.11716e-07
-2.89799e-07 3.11716e-07 2.48424e-05
0.00122252 -5.94916e-05 7.33733e-07
-5.94916e-05 0.000111574 -1.65619e-06
7.33733e-07 -1.65619e-06 1.48669e-05
0.00104523 -4.24059e-05 -3.86978e-07
-4.24059e-05 5.60329e-05 -6.94135e-09
-3.86978e-07 -6.94135e-09 -1.15036e-05
0.000939439 -4.44656e-05 -1.38389e-07
-4.44656e-05 1.41932e-06 -5.46346e-07
-1.38389e-07 -5.46346e-07 -7.05196e-05
0.00115653 -5.11791e-05 1.65621e-06
-5.11791e-05 0.000103956 -2.11593e-06
1.65621e-06 -2.11593e-06 2.49305e-05
0.00098842 -1.03445e-05 -6.79987e-07
-1.03445e-05 3.81344e-05 9.27717e-07
-6.79987e-07 9.27717e-07 -2.33001e-05
0.00104298 -3.68117e-05 1.70599e-07
-3.68117e-05 6.26498e-05 2.29021e-07
1.70599e-07 2.29021e-07 -6.32174e-06
0.00107303 -4.49988e-05 4.69421e-07
-4.49988e-05 7.50817e-05 -1.00447e-07
4.69421e-07 -1.00447e-07 2.87334e-06
0.000907336 1.7363e-05 -2.2568e-06
1.7363e-05 -5.60234e-06 1.96215e-06
-2.2568e-06 1.96215e-06 -4.75842e-05
0.00100662 -2.21588e-06 -8.82755e-08
-2.21588e-06 4.395e-05 -2.12861e-08
-8.82755e-08 -2.12861e-08 -1.6113e-05
0.00100319 -3.02272e-05 8.1951e-08
-3.02272e-05 4.85593e-05 -2.84529e-07
8.1951e-08 -2.84529e-07 -1.9803e-05
0.00154532 2.19536e-05 -8.64623e-06
2.19536e-05 0.000309345 3.30378e-06
-8.64623e-06 3.30378e-06 0.000303125
0.000943516 3.94987e-06 5.62466e-08
3.94987e-06 5.40319e-06 1.21243e-08
5.62466e-08 1.21243e-08 -3.47075e-05
0.00103308 -1.09122e-05 1.03531e-06
-1.09122e-05 4.93912e-05 -9.19643e-07
1.03531e-06 -9.19643e-07 -9.33553e-06
0.00113892 1.80468e-05 -1.27334e-05
1.80468e-05 0.000101975 4.0033e-06
-1.27334e-05 4.0033e-06 0.000112759
0.00122219 1.85734e-05 -2.94408e-06
1.85734e-05 0.000142884 5.79866e-07
-2.94408e-06 5.79866e-07 0.000135967
0.000946663 6.87895e-06 1.99632e-06
6.87895e-06 4.04348e-06 -2.05934e-06
1.99632e-06 -2.05934e-06 -3.50483e-05
0.00088354 1.54132e-05 2.73796e-06
1.54132e-05 -3.0783e-05 -3.47895e-06
2.73796e-06 -3.47895e-06 -3.799e-05
0.00247775 2.37563e-05 4.36695e-07
2.37563e-05 0.000770332 4.8957e-08
4.36695e-07 4.8957e-08 0.000788763
0.00242886 2.05e-05 1.29559e-05
2.05e-05 0.000741804 -4.0682e-06
1.29559e-05 -4.0682e-06 0.000761304
0.00102575 3.27523e-05 -1.1939e-06
3.27523e-05 4.54036e-05 -9.21808e-07
-1.1939e-06 -9.21808e-07 -2.82205e-05
0.00102899 4.9271e-06 -9.11217e-07
4.9271e-06 4.40127e-05 -1.58146e-06
-9.11217e-07 -1.58146e-06 -1.69038e-05
0.00104757 3.03182e-05 -1.26268e-07
3.03182e-05 5.66402e-05 8.14952e-08
-1.26268e-07 8.14952e-08 -1.62708e-05
0.000935513 -1.32363e-05 -1.32701e-06
-1.32363e-05 -3.0417e-06 -2.37589e-06
-1.32701e-06 -2.37589e-06 -3.99464e-05
0.00102083 7.1161e-06 -7.26438e-09
7.1161e-06 3.90767e-05 -3.31333e-08
-7.26438e-09 -3.31333e-08 -1.88837e-05
0.000902203 -1.39721e-05 -2.17143e-06
-1.39721e-05 -2.59905e-05 -3.43606e-06
-2.17143e-06 -3.43606e-06 -3.12222e-05
0.000949036 -1.2089e-05 -1.97934e-07
-1.2089e-05 8.9979e-07 -1.59468e-08
-1.97934e-07 -1.59468e-08 -3.3256e-05
0.0010192 1.03267e-05 5.36946e-07
1.03267e-05 3.89151e-05 1.62718e-06
5.36946e-07 1.62718e-06 -1.57438e-05
0.00236378 -1.73111e-05 -1.1052e-05
-1.73111e-05 0.000704388 -4.08626e-06
-1.1052e-05 -4.08626e-06 0.000725249
0.00089421 -1.21298e-05 -1.20303e-07
-1.21298e-05 -3.3764e-05 -1.31456e-08
-1.20303e-07 -1.31456e-08 -3.71253e-05
0.000965322 -9.6089e-06 7.4099e-07
-9.6089e-06 6.68601e-06 2.01714e-06
7.4099e-07 2.01714e-06 -2.51083e-05
0.00231429 -1.38796e-05 -6.60019e-07
-1.38796e-05 0.000675014 3.17493e-08
-6.60019e-07 3.17493e-08 0.000697197
0.00088757 -9.94989e-06 1.15578e-06
-9.94989e-06 -4.08038e-05 3.3436e-06
1.15578e-06 3.3436e-06 -4.22606e-05
0.00227398 -1.02276e-05 6.49118e-06
-1.02276e-05 0.000651082 4.01578e-06
6.49118e-06 4.01578e-06 0.000674373
0.000476959 -4.93277e-06 -1.37851e-05
-4.93277e-06 -6.22736e-05 -4.69693e-06
-1.37851e-05 -4.69693e-06 -0.000162188
0.000842852 8.54464e-06 1.20258e-06
8.54464e-06 7.35127e-05 -2.67385e-08
1.20258e-06 -2.67385e-08 -2.63441e-05
0.000496687 -1.38297e-06 -2.67676e-07
-1.38297e-06 -0.000178142 1.12883e-07
-2.67676e-07 1.12883e-07 -0.00026122
0.00107395 3.96635e-05 -8.58387e-07
3.96635e-05 6.83682e-05 -4.41718e-08
-8.58387e-07 -4.41718e-08 -7.7307e-06
0.00105748 2.49097e-05 4.03723e-07
2.49097e-05 6.18349e-05 1.20862e-06
4.03723e-07 1.20862e-06 -9.33708e-06
0.00103139 3.62558e-05 7.83499e-07
3.62558e-05 4.93071e-05 1.03737e-06
7.83499e-07 1.03737e-06 -2.97856e-05
0.00108526 3.42692e-05 -6.31074e-08
3.42692e-05 7.69219e-05 -2.46456e-07
-6.31074e-08 -2.46456e-07 -1.66712e-06
0.00111435 4.0579e-05 -2.40293e-07
4.0579e-05 9.10571e-05 -6.58783e-08
-2.40293e-07 -6.58783e-08 1.28929e-05
0.00108593 4.20533e-05 2.89506e-07
4.20533e-05 7.89045e-05 2.32714e-07
2.89506e-07 2.32714e-07 -2.76109e-06
0.00108327 4.35257e-05 -1.15736e-06
4.35257e-05 7.5532e-05 -9.52079e-07
-1.15736e-06 -9.52079e-07 -6.58127e-06
0.00100493 4.01361e-05 -7.7429e-07
4.01361e-05 4.18325e-05 -9.0306e-07
-7.7429e-07 -9.0306e-07 -4.20687e-05
0.00107425 3.99997e-05 5.51443e-07
3.99997e-05 7.39712e-05 8.9885e-07
5.51443e-07 8.9885e-07 -4.53418e-06
0.00105173 1.43954e-05 3.36647e-07
1.43954e-05 5.96358e-05 1.34579e-06
3.36647e-07 1.34579e-06 -2.20155e-05
0.00111798 3.59163e-05 -4.70436e-08
3.59163e-05 9.80182e-05 1.92091e-08
-4.70436e-08 1.92091e-08 1.35379e-05
0.00148527 4.44577e-05 3.09692e-07
4.44577e-05 0.000273918 -1.29433e-06
3.09692e-07 -1.29433e-06 0.000186849
0.00246068 -4.8289e-05 -3.43666e-06
-4.8289e-05 0.00102738 1.19084e-07
-3.43666e-06 1.19084e-07 0.00111336
0.000667903 1.58246e-06 -7.1057e-07
1.58246e-06 4.46376e-05 -1.8212e-06
-7.1057e-07 -1.8212e-06 -2.47562e-05
0.00110201 3.00186e-05 -1.24459e-06
3.00186e-05 0.000215589 2.15695e-06
-1.24459e-06 2.15695e-06 0.00014938
0.00191976 -4.15008e-05 1.06517e-05
-4.15008e-05 0.000484622 8.91232e-06
1.06517e-05 8.91232e-06 0.000668985
0.00242559 -0.000162963 5.21588e-06
-0.000162963 -0.000108781 -9.53661e-05
5.21588e-06 -9.53661e-05 -6.89276e-05
0.00353544 2.93423e-05 -9.13123e-06
2.93423e-05 -0.000289871 0.000104367
-9.13123e-06 0.000104367 -0.000618889
0.000387062 -0.000156872 -5.83631e-05
-0.000156872 -7.21288e-05 5.47606e-05
-5.83631e-05 5.47606e-05 -0.000268133
0.00157734 -4.01516e-05 -8.18234e-06
-4.01516e-05 0.000596614 -1.7402e-06
-8.18234e-06 -1.7402e-06 0.000382357
0.000657266 -9.22477e-05 3.08573e-06
-9.22477e-05 -0.000255099 2.0304e-07
3.08573e-06 2.0304e-07 -5.71637e-06
0.00554277 -8.03087e-05 1.13302e-05
-8.03087e-05 0.000733145 5.35899e-05
1.13302e-05 5.35899e-05 5.86876e-05
-0.000669615 -0.000143299 -6.57814e-06
-0.000143299 -0.000830743 -1.36963e-05
-6.57814e-06 -1.36963e-05 -0.000720693
0.00176204 9.52917e-05 -5.40015e-05
9.52917e-05 0.000546524 -4.63351e-05
-5.40015e-05 -4.63351e-05 0.000329145
0.00624342 -0.000195602 5.62116e-06
-0.000195602 0.00171168 3.21737e-05
5.62116e-06 3.21737e-05 0.00102932
0.000217745 -0.000124207 3.93145e-05
-0.000124207 -3.95461e-05 2.27786e-05
3.93145e-05 2.27786e-05 3.14258e-05
0.000933402 5.57353e-05 -2.63611e-06
5.57353e-05 3.26062e-05 -4.40397e-06
-2.63611e-06 -4.40397e-06 -4.75255e-05
0.00118823 3.41357e-05 1.68965e-06
3.41357e-05 0.000129503 2.03243e-07
1.68965e-06 2.03243e-07 4.71716e-05
0.00113116 2.62895e-05 -3.83685e-08
2.62895e-05 0.000102149 1.38746e-06
-3.83685e-08 1.38746e-06 1.57504e-05
-0.00102143 1.04821e-05 -3.58424e-08
1.04821e-05 -0.000462742 -5.32498e-06
-3.58424e-08 -5.32498e-06 -0.000644124
0.00064701 -1.52532e-05 2.36077e-07
-1.52532e-05 -6.24699e-05 4.77732e-06
2.36077e-07 4.77732e-06 -0.000213673
0.00100877 7.61719e-06 2.37223e-06
7.61719e-06 4.86805e-05 2.97751e-06
2.37223e-06 2.97751e-06 -4.85139e-05
0.00112665 3.19607e-05 -7.2717e-08
3.19607e-05 0.000174374 1.85596e-07
-7.2717e-08 1.85596e-07 3.13049e-05
0.000686332 1.18884e-05 3.2552e-06
1.18884e-05 0.000228943 3.68765e-06
3.2552e-06 3.68765e-06 7.81493e-05
-0.00109905 5.8336e-05 -7.72829e-06
5.8336e-05 -0.000762288 1.54703e-05
-7.72829e-06 1.54703e-05 -0.000892875
0.00257172 -1.10029e-05 -1.42213e-05
-1.10029e-05 0.00113718 -3.69643e-07
-1.42213e-05 -3.69643e-07 0.0011621
0.000886382 -6.69952e-06 -1.3014e-06
-6.69952e-06 0.000194095 -5.23428e-07
-1.3014e-06 -5.23428e-07 9.51381e-05
0.000550123 -3.49942e-06 8.75101e-07
-3.49942e-06 -8.4989e-05 -3.10039e-07
8.75101e-07 -3.10039e-07 -0.00019803
0.000332613 -2.53927e-05 3.456e-06
-2.53927e-05 0.000227215 1.8308e-05
3.456e-06 1.8308e-05 -4.00423e-05
0.00150345 -8.22915e-05 -2.5053e-06
-8.22915e-05 0.000368838 -4.13574e-05
-2.5053e-06 -4.13574e-05 6.5052e-05
0.000962241 -8.14853e-06 1.37941e-05
-8.14853e-06 0.000208596 -2.6171e-07
1.37941e-05 -2.6171e-07 0.000122799
0.0010549 0.000143597 -3.65993e-05
0.000143597 -0.000361834 3.4327e-05
-3.65993e-05 3.4327e-05 -0.00121903
-0.000568948 0.00016208 -5.15618e-05
0.00016208 -0.000495857 2.98997e-05
-5.15618e-05 2.98997e-05 -0.000500666
0.000928756 5.6207e-05 9.5527e-06
5.6207e-05 4.68846e-05 -6.05145e-06
9.5527e-06 -6.05145e-06 0.000150315
0.00151677 -5.85459e-05 4.0858e-06
-5.85459e-05 0.000386683 1.22851e-06
4.0858e-06 1.22851e-06 0.00024895
0.00107518 1.19148e-05 -1.85817e-06
1.19148e-05 0.00020118 -2.35764e-07
-1.85817e-06 -2.35764e-07 0.000210461
-0.00149832 8.98525e-05 -1.00691e-05
8.98525e-05 -0.000851552 2.86656e-06
-1.00691e-05 2.86656e-06 -0.000856082
0.00287812 -0.000110103 -1.39504e-05
-0.000110103 0.000670626 2.6413e-05
-1.39504e-05 2.6413e-05 0.000174264
0.00456241 0.000222138 -4.1811e-06
0.000222138 0.00113687 5.30711e-06
-4.1811e-06 5.30711e-06 0.000442585
0.00151658 -8.76815e-05 1.04732e-05
-8.76815e-05 -5.58716e-05 2.07655e-06
1.04732e-05 2.07655e-06 9.48358e-06
-0.0025236 3.72574e-05 5.52066e-05
3.72574e-05 -0.0016065 -1.33096e-05
5.52066e-05 -1.33096e-05 -0.00161094
0.00418359 0.000205644 2.09436e-05
0.000205644 0.00115907 -1.0009e-05
2.09436e-05 -1.0009e-05 0.000599746
0.00198608 1.24248e-05 -1.23681e-05
1.24248e-05 0.000360639 3.01332e-05
-1.23681e-05 3.01332e-05 -6.00799e-05
0.000683608 -6.52906e-05 -1.20619e-06
-6.52906e-05 0.000105404 -2.42345e-06
-1.20619e-06 -2.42345e-06 -0.000208214
0.00106345 -0.000110787 -1.9184e-07
-0.000110787 0.000105974 1.07634e-06
-1.9184e-07 1.07634e-06 -0.000107702
0.00139225 -0.000137013 -5.57651e-06
-0.000137013 8.81081e-05 4.67367e-06
-5.57651e-06 4.67367e-06 -3.58721e-05
0.000717548 -7.02195e-05 -1.42741e-06
-7.02195e-05 -2.5085e-05 -2.08312e-06
-1.42741e-06 -2.08312e-06 -0.000207032
0.00124295 -9.61173e-05 -1.8231e-06
-9.61173e-05 8.59469e-05 -1.71556e-06
-1.8231e-06 -1.71556e-06 -4.23718e-05
0.00188611 -9.49469e-05 -4.75965e-06
-9.49469e-05 0.000281427 1.97012e-07
-4.75965e-06 1.97012e-07 0.000212455
0.00103155 -6.88081e-05 -1.23469e-07
-6.88081e-05 3.03861e-05 -3.01134e-06
-1.23469e-07 -3.01134e-06 -9.45582e-05
0.00128957 -7.19208e-05 9.40386e-07
-7.19208e-05 8.74917e-05 -6.14713e-07
9.40386e-07 -6.14713e-07 -5.14479e-06
0.00153759 -6.20638e-05 -1.42539e-06
-6.20638e-05 0.000148444 -9.01421e-07
-1.42539e-06 -9.01421e-07 8.96949e-05
0.0011014 -6.04841e-05 1.39251e-06
-6.04841e-05 3.52359e-05 -1.25384e-06
1.39251e-06 -1.25384e-06 -6.55882e-05
0.00123458 -5.69954e-05 2.17218e-08
-5.69954e-05 5.59046e-05 -3.99935e-07
2.17218e-08 -3.99935e-07 -2.48355e-05
0.00133963 -4.99901e-05 -9.43537e-07
-4.99901e-05 6.31099e-05 -9.98446e-07
-9.43537e-07 -9.98446e-07 4.53754e-06
0.00133128 -4.69249e-05 -1.1694e-06
-4.69249e-05 7.61053e-05 -3.49313e-07
-1.1694e-06 -3.49313e-07 1.58771e-05
0.0012903 -5.27777e-05 -1.37875e-06
-5.27777e-05 9.34575e-05 2.89306e-07
-1.37875e-06 2.89306e-07 1.76064e-05
0.00125782 -5.12827e-05 3.63027e-07
-5.12827e-05 6.19313e-05 3.04095e-07
3.63027e-07 3.04095e-07 -1.20923e-05
0.000937801 -4.67171e-05 -1.14226e-06
-4.67171e-05 -3.46981e-05 1.40549e-06
-1.14226e-06 1.40549e-06 -0.00011283
0.00124177 -5.48888e-05 6.22788e-07
-5.48888e-05 0.000102928 -4.55244e-07
6.22788e-07 -4.55244e-07 1.91135e-05
0.00114436 -5.47213e-05 1.36e-06
-5.47213e-05 3.94179e-05 -1.17362e-06
1.36e-06 -1.17362e-06 -4.78841e-05
0.00107369 -4.55519e-05 -3.26077e-07
-4.55519e-05 6.39334e-05 1.00113e-06
-3.26077e-07 1.00113e-06 -5.28109e-06
0.00104772 -4.8379e-05 1.92797e-07
-4.8379e-05 4.20073e-05 -1.25502e-07
1.92797e-07 -1.25502e-07 -3.52439e-05
0.000978657 -5.09637e-05 7.34051e-07
-5.09637e-05 -1.08343e-06 -1.82708e-06
7.34051e-07 -1.82708e-06 -8.90848e-05
0.00101514 -2.4208e-05 -1.1016e-06
-2.4208e-05 4.85345e-05 4.96439e-07
-1.1016e-06 4.96439e-07 -1.28657e-05
0.00107585 -4.25234e-05 -1.53572e-07
-4.25234e-05 7.02454e-05 -2.1516e-07
-1.53572e-07 -2.1516e-07 2.67575e-06
0.00103004 -4.60931e-05 5.42795e-08
-4.60931e-05 4.6422e-05 -1.30223e-06
5.42795e-08 -1.30223e-06 -2.47579e-05
0.000926582 7.79318e-06 -2.25242e-06
7.79318e-06 1.14226e-05 1.92187e-06
-2.25242e-06 1.92187e-06 -3.30561e-05
0.00101071 -1.15779e-05 2.36727e-07
-1.15779e-05 4.81423e-05 1.64926e-07
2.36727e-07 1.64926e-07 -1.31607e-05
0.000971971 -3.43212e-05 6.02475e-07
-3.43212e-05 2.89167e-05 -8.56395e-09
6.02475e-07 -8.56395e-09 -3.99625e-05
0.000830186 2.10906e-05 -3.94946e-06
2.10906e-05 -4.31827e-05 3.33479e-06
-3.94946e-06 3.33479e-06 -5.41068e-05
0.000934223 8.04983e-06 -1.06849e-07
8.04983e-06 6.78477e-06 -2.2258e-08
-1.06849e-07 -2.2258e-08 -3.48954e-05
0.00103958 -4.02058e-06 7.63641e-07
-4.02058e-06 5.94497e-05 -1.04382e-06
7.63641e-07 -1.04382e-06 -6.19031e-07
0.00248377 3.27406e-05 -6.45272e-06
3.27406e-05 0.000783784 1.60532e-06
-6.45272e-06 1.60532e-06 0.000799943
0.000841754 1.89174e-05 1.21455e-07
1.89174e-05 -4.33426e-05 4.94778e-08
1.21455e-07 4.94778e-08 -5.30782e-05
0.000955397 7.87641e-06 2.31331e-06
7.87641e-06 1.1126e-05 -1.98055e-06
2.31331e-06 -1.98055e-06 -2.896e-05
0.0025302 2.69786e-05 3.231e-07
2.69786e-05 0.000800749 5.14855e-08
3.231e-07 5.14855e-08 0.000818061
0.000868012 1.71998e-05 3.28802e-06
1.71998e-05 -3.45006e-05 -3.46297e-06
3.28802e-06 -3.46297e-06 -4.31774e-05
0.00247327 2.37231e-05 1.45005e-05
2.37231e-05 0.000768512 -4.05755e-06
1.45005e-05 -4.05755e-06 0.00078684
0.00113523 3.33399e-05 -7.0366e-07
3.33399e-05 9.96354e-05 -1.32281e-07
-7.0366e-07 -1.32281e-07 2.77971e-05
0.00105763 3.18061e-05 -1.72869e-07
3.18061e-05 6.18761e-05 -1.00172e-07
-1.72869e-07 -1.00172e-07 -1.1584e-05
0.00103535 2.43401e-06 -1.12895e-06
2.43401e-06 4.82198e-05 -1.35066e-06
-1.12895e-06 -1.35066e-06 -1.46625e-05
0.000936945 -5.98095e-06 -1.94766e-06
-5.98095e-06 -3.47141e-08 -2.43297e-06
-1.94766e-06 -2.43297e-06 -3.97705e-05
0.00102526 5.95211e-06 -7.32822e-08
5.95211e-06 4.26832e-05 4.20995e-08
-7.32822e-08 4.20995e-08 -1.84234e-05
0.00102969 3.03209e-05 7.04665e-07
3.03209e-05 4.78231e-05 1.16743e-06
7.04665e-07 1.16743e-06 -2.55723e-05
0.000890202 -1.56019e-05 -2.65215e-06
-1.56019e-05 -2.7834e-05 -3.53252e-06
-2.65215e-06 -3.53252e-06 -3.48727e-05
0.000941992 -9.04193e-06 -1.65968e-07
-9.04193e-06 -4.86997e-07 -3.78822e-08
-1.65968e-07 -3.78822e-08 -3.71502e-05
0.00101887 6.37544e-06 5.51304e-07
6.37544e-06 3.83776e-05 1.72171e-06
5.51304e-07 1.72171e-06 -1.9613e-05
0.00241034 -2.05542e-05 -1.2823e-05
-2.05542e-05 0.000732203 -4.07477e-06
-1.2823e-05 -4.07477e-06 0.000751867
0.000884982 -1.38999e-05 -1.20901e-07
-1.38999e-05 -3.44168e-05 -1.20309e-08
-1.20901e-07 -1.20309e-08 -3.95526e-05
0.000950842 -1.12175e-05 8.27828e-07
-1.12175e-05 1.46435e-06 2.1248e-06
8.27828e-07 2.1248e-06 -3.25326e-05
0.00236445 -1.73203e-05 -6.20402e-07
-1.73203e-05 0.000704186 3.95027e-08
-6.20402e-07 3.95027e-08 0.000725196
0.000875811 -1.20724e-05 1.46762e-06
-1.20724e-05 -4.27752e-05 3.40435e-06
1.46762e-06 3.40435e-06 -4.60437e-05
0.00231396 -1.38028e-05 8.34651e-06
-1.38028e-05 0.000674372 4.01322e-06
8.34651e-06 4.01322e-06 0.000696702
0.000414748 -1.45435e-05 -4.48592e-06
-1.45435e-05 -8.42723e-05 -1.39041e-06
-4.48592e-06 -1.39041e-06 -6.93963e-05
0.000614142 -1.46502e-06 -9.15967e-07
-1.46502e-06 2.59976e-05 -1.58881e-06
-9.15967e-07 -1.58881e-06 -7.35726e-05
0.000825686 7.30048e-06 -2.43089e-07
7.30048e-06 6.24589e-05 1.04407e-07
-2.43089e-07 1.04407e-07 -3.6937e-05
0.00106106 3.93958e-05 1.37299e-07
3.93958e-05 6.16335e-05 9.02564e-08
1.37299e-07 9.02564e-08 -1.47788e-05
0.00119927 4.42473e-05 -8.7809e-07
4.42473e-05 0.000134655 5.12769e-08
-8.7809e-07 5.12769e-08 6.09041e-05
0.00108766 4.49158e-05 -8.62411e-07
4.49158e-05 7.18508e-05 -2.46295e-07
-8.62411e-07 -2.46295e-07 -6.61136e-06
0.00117429 3.53079e-05 1.86242e-07
3.53079e-05 0.000122036 4.99608e-07
1.86242e-07 4.99608e-07 4.39288e-05
0.00119178 4.26316e-05 6.72176e-07
4.26316e-05 0.000129573 5.64466e-07
6.72176e-07 5.64466e-07 5.16664e-05
0.00102908 4.08185e-05 8.43587e-07
4.08185e-05 5.02575e-05 1.08306e-06
8.43587e-07 1.08306e-06 -3.09876e-05
0.00106415 4.11039e-05 -3.31689e-08
4.11039e-05 7.0463e-05 6.53519e-08
-3.31689e-08 6.53519e-08 -1.31682e-05
0.00110999 4.40978e-05 5.24348e-08
4.40978e-05 8.82892e-05 6.36256e-08
5.24348e-08 6.36256e-08 6.51345e-06
0.0010848 4.44739e-05 -1.59355e-06
4.44739e-05 8.69428e-05 -1.00538e-06
-1.59355e-06 -1.00538e-06 8.55157e-07
0.00098783 4.18758e-05 -2.02519e-06
4.18758e-05 3.42977e-05 -1.93394e-06
-2.02519e-06 -1.93394e-06 -5.22074e-05
0.00111927 3.79583e-05 3.22345e-07
3.79583e-05 9.9468e-05 6.36502e-07
3.22345e-07 6.36502e-07 1.48586e-05
0.00126265 4.24208e-05 1.18934e-07
4.24208e-05 0.000169492 -1.96642e-07
1.18934e-07 -1.96642e-07 8.24327e-05
-0.0025291 -7.18795e-05 5.11697e-05
-7.18795e-05 -0.00144081 2.17352e-05
5.11697e-05 2.17352e-05 -0.00147727
0.00119583 -4.78591e-05 -4.17313e-07
-4.78591e-05 0.000294742 -1.81826e-06
-4.17313e-07 -1.81826e-06 0.000373729
0.000576983 6.40703e-06 1.54356e-05
6.40703e-06 -8.33929e-06 6.57292e-06
1.54356e-05 6.57292e-06 -7.64819e-05
4.22823e-05 -8.9395e-05 1.29542e-06
-8.9395e-05 -0.000528271 -6.81991e-06
1.29542e-06 -6.81991e-06 -0.000341127
0.00357415 -0.00022443 -1.33556e-05
-0.00022443 0.000895326 -5.63491e-05
-1.33556e-05 -5.63491e-05 0.00100483
0.00379978 -7.24497e-05 3.41054e-05
-7.24497e-05 0.00032098 2.94881e-05
3.41054e-05 2.94881e-05 -0.000167177
-1.32277e-05 -1.78385e-05 -1.61848e-05
-1.78385e-05 -0.000257162 5.75611e-05
-1.61848e-05 5.75611e-05 -0.000774751
0.00136786 9.37339e-05 -2.86562e-05
9.37339e-05 0.00015099 -3.37826e-05
-2.86562e-05 -3.37826e-05 -0.000293951
0.00207771 -0.000187167 -1.06709e-06
-0.000187167 0.000417366 -2.17144e-06
-1.06709e-06 -2.17144e-06 0.000436876
0.00360362 -8.66806e-05 3.25963e-05
-8.66806e-05 0.000408727 4.52394e-05
3.25963e-05 4.52394e-05 -0.000270599
0.00102883 0.000114389 -6.66185e-05
0.000114389 -0.000198296 -8.41018e-05
-6.66185e-05 -8.41018e-05 -0.000585916
0.00284523 -1.84289e-05 -1.08333e-05
-1.84289e-05 0.000293767 -1.45714e-06
-1.08333e-05 -1.45714e-06 -0.000366132
0.00169622 9.0963e-05 4.16997e-06
9.0963e-05 0.000431132 -6.41359e-06
4.16997e-06 -6.41359e-06 0.000301228
0.000947584 5.31691e-05 -7.49507e-08
5.31691e-05 2.91502e-05 -5.45944e-07
-7.49507e-08 -5.45944e-07 -4.83893e-05
0.00133896 3.6531e-05 1.44251e-06
3.6531e-05 0.000196299 2.15659e-06
1.44251e-06 2.15659e-06 0.00011454
-7.39593e-05 -8.43635e-06 -6.31597e-06
-8.43635e-06 -0.000107149 -7.44759e-07
-6.31597e-06 -7.44759e-07 -0.000268394
0.00151382 4.27339e-05 3.43561e-06
4.27339e-05 0.000354456 -2.46682e-08
3.43561e-06 -2.46682e-08 0.000213301
0.00100334 9.24493e-05 5.00928e-06
9.24493e-05 0.000189634 1.37041e-06
5.00928e-06 1.37041e-06 7.80959e-05
2.35703e-05 8.85296e-05 1.32058e-05
8.85296e-05 -0.000388445 1.47583e-05
1.32058e-05 1.47583e-05 -0.000477151
-0.000557491 -7.77971e-06 7.49954e-05
-7.77971e-06 -0.000575238 -3.9119e-06
7.49954e-05 -3.9119e-06 -0.000536603
0.000743331 -9.06044e-06 -1.24119e-05
-9.06044e-06 6.62506e-05 -3.91463e-08
-1.24119e-05 -3.91463e-08 6.92018e-05
-0.00042854 -4.81522e-06 1.5745e-05
-4.81522e-06 -0.000616004 -8.44794e-07
1.5745e-05 -8.44794e-07 -0.000726547
0.00174183 -5.5044e-05 -1.947e-05
-5.5044e-05 0.000569237 2.57591e-06
-1.947e-05 2.57591e-06 0.000366945
0.000855817 -7.76935e-05 -3.34594e-05
-7.76935e-05 9.63706e-05 7.83466e-07
-3.34594e-05 7.83466e-07 -0.000256244
0.00114624 5.48263e-06 5.48993e-06
5.48263e-06 0.000243186 -3.35734e-06
5.48993e-06 -3.35734e-06 0.000246916
0.00244042 0.000190474 2.09461e-05
0.000190474 0.000254181 -3.54401e-05
2.09461e-05 -3.54401e-05 -0.000506334
0.00357095 0.000123165 -9.13826e-05
0.000123165 0.00150757 2.27098e-05
-9.13826e-05 2.27098e-05 0.00141573
0.00152349 -9.46515e-05 5.03183e-06
-9.46515e-05 7.26986e-05 -1.5819e-06
5.03183e-06 -1.5819e-06 5.77576e-05
-0.000100682 5.70946e-05 -2.90031e-05
5.70946e-05 -0.000334528 4.13884e-06
-2.90031e-05 4.13884e-06 -0.000398251
0.00294624 0.000108499 -1.0384e-05
0.000108499 0.000589006 4.7759e-06
-1.0384e-05 4.7759e-06 -0.00012758
0.000524188 3.28946e-05 1.37355e-06
3.28946e-05 -8.35684e-05 2.84105e-06
1.37355e-06 2.84105e-06 -0.000301059
0.0011368 -7.39853e-05 7.54196e-06
-7.39853e-05 -0.000317278 2.55165e-06
7.54196e-06 2.55165e-06 -0.000240155
0.00436726 8.41264e-05 1.4744e-05
8.41264e-05 0.00121845 7.51063e-06
1.4744e-05 7.51063e-06 0.000625641
0.000879159 6.2162e-05 -1.48681e-06
6.2162e-05 0.000270791 -8.68536e-07
-1.48681e-06 -8.68536e-07 -1.44229e-05
-3.56784e-05 -9.11074e-05 1.6494e-06
-9.11074e-05 -0.000399314 -8.63224e-06
1.6494e-06 -8.63224e-06 -0.000626224
0.00134361 -0.000133587 -2.46354e-08
-0.000133587 8.0756e-05 -4.50866e-07
-2.46354e-08 -4.50866e-07 -4.64908e-05
0.00132697 -0.000118341 -1.66272e-05
-0.000118341 -0.000105071 7.88588e-06
-1.66272e-05 7.88588e-06 -0.000157287
0.00115722 -9.41269e-05 -6.09174e-07
-9.41269e-05 3.87835e-05 -4.03049e-06
-6.09174e-07 -4.03049e-06 -8.71564e-05
0.00139094 -8.70072e-05 -3.1189e-07
-8.70072e-05 4.0741e-05 6.82246e-07
-3.1189e-07 6.82246e-07 -2.62049e-05
0.0017469 -6.56993e-05 -3.92886e-06
-6.56993e-05 0.000155676 2.96645e-06
-3.92886e-06 2.96645e-06 0.000133159
0.000961527 -6.4839e-05 2.57232e-06
-6.4839e-05 -7.34057e-05 -7.94456e-07
2.57232e-06 -7.94456e-07 -0.000164184
0.00133234 -5.88552e-05 -1.29201e-07
-5.88552e-05 4.18898e-05 4.48898e-08
-1.29201e-07 4.48898e-08 -1.53658e-05
0.00145901 -4.784e-05 -5.89515e-07
-4.784e-05 5.78982e-05 5.12731e-07
-5.89515e-07 5.12731e-07 2.44932e-05
0.00109231 -5.39354e-05 1.6539e-06
-5.39354e-05 -1.81308e-05 -1.93892e-07
1.6539e-06 -1.93892e-07 -9.74947e-05
0.00127485 -4.88605e-05 1.01402e-07
-4.88605e-05 3.0465e-05 2.40821e-07
1.01402e-07 2.40821e-07 -2.78532e-05
0.00127531 -4.25081e-05 -5.71598e-07
-4.25081e-05 1.12372e-05 4.17029e-07
-5.71598e-07 4.17029e-07 -3.4271e-05
0.00148314 -4.28377e-05 -7.57676e-07
-4.28377e-05 0.000138743 4.36458e-07
-7.57676e-07 4.36458e-07 8.64501e-05
0.00132085 -4.58102e-05 -4.85284e-07
-4.58102e-05 7.03968e-05 1.03009e-06
-4.85284e-07 1.03009e-06 1.16322e-05
0.00129024 -4.65496e-05 -7.92709e-07
-4.65496e-05 7.23336e-05 -9.33232e-07
-7.92709e-07 -9.33232e-07 8.55526e-06
0.00125786 -4.9698e-05 -1.27354e-06
-4.9698e-05 8.92759e-05 6.07524e-07
-1.27354e-06 6.07524e-07 1.6294e-05
0.00131639 -5.28172e-05 5.10911e-07
-5.28172e-05 0.000107487 -1.19229e-07
5.10911e-07 -1.19229e-07 3.16785e-05
0.00122832 -4.9634e-05 1.74918e-06
-4.9634e-05 4.75064e-05 6.93599e-07
1.74918e-06 6.93599e-07 -2.53053e-05
0.000927117 -4.37448e-05 -1.31835e-06
-4.37448e-05 -2.84364e-05 1.69391e-06
-1.31835e-06 1.69391e-06 -0.000100083
0.00112098 -4.98526e-05 1.01338e-07
-4.98526e-05 5.58681e-05 -6.9088e-08
1.01338e-07 -6.9088e-08 -2.15919e-05
0.00129925 -5.55225e-05 1.89756e-06
-5.55225e-05 0.000131101 -1.82221e-06
1.89756e-06 -1.82221e-06 4.83177e-05
0.00101964 -3.07619e-05 -8.47297e-07
-3.07619e-05 4.64991e-05 6.94658e-07
-8.47297e-07 6.94658e-07 -1.57006e-05
0.00109564 -4.55446e-05 6.62247e-08
-4.55446e-05 7.3841e-05 -8.97079e-08
6.62247e-08 -8.97079e-08 4.58052e-06
0.000895086 -4.54255e-05 4.88549e-07
-4.54255e-05 -3.00636e-05 -2.01388e-06
4.88549e-07 -2.01388e-06 -0.00010749
0.000924541 3.57283e-06 -2.42945e-06
3.57283e-06 1.5499e-05 1.76786e-06
-2.42945e-06 1.76786e-06 -3.17001e-05
0.00103184 -2.50992e-05 -6.79051e-08
-2.50992e-05 5.57424e-05 2.11054e-08
-6.79051e-08 2.11054e-08 -5.55114e-06
0.00110297 -4.25178e-05 4.29239e-07
-4.25178e-05 8.27839e-05 -6.31345e-07
4.29239e-07 -6.31345e-07 1.51859e-05
0.000806644 2.34906e-05 -4.10963e-06
2.34906e-05 -4.57402e-05 3.26361e-06
-4.10963e-06 3.26361e-06 -5.88384e-05
0.000931746 1.05438e-05 2.08425e-08
1.05438e-05 1.29965e-05 1.48271e-08
2.08425e-08 1.48271e-08 -3.14843e-05
0.00103515 -1.32419e-05 1.16135e-06
-1.32419e-05 5.91887e-05 -6.10207e-07
1.16135e-06 -6.10207e-07 -1.98493e-06
0.00255765 3.35457e-05 -1.70217e-05
3.35457e-05 0.000825334 3.73049e-06
-1.70217e-05 3.73049e-06 0.000840516
0.000845733 2.14102e-05 -3.18322e-09
2.14102e-05 -3.50794e-05 2.1801e-08
-3.18322e-09 2.1801e-08 -4.6158e-05
0.000959348 5.17401e-06 2.32874e-06
5.17401e-06 1.8756e-05 -1.97012e-06
2.32874e-06 -1.97012e-06 -2.29394e-05
0.00179783 2.68673e-05 6.38164e-06
2.68673e-05 0.000439025 -1.0705e-06
6.38164e-06 -1.0705e-06 0.000451966
0.00086192 1.92256e-05 3.79451e-06
1.92256e-05 -3.31327e-05 -3.3799e-06
3.79451e-06 -3.3799e-06 -4.29634e-05
0.00249855 2.69521e-05 1.56427e-05
2.69521e-05 0.000785798 -3.9803e-06
1.56427e-05 -3.9803e-06 0.00080306
0.00112093 3.171e-05 -6.9444e-07
3.171e-05 9.60533e-05 1.71258e-07
-6.9444e-07 1.71258e-07 2.59956e-05
0.00105665 3.00479e-05 2.41598e-07
3.00479e-05 6.00033e-05 3.38803e-07
2.41598e-07 3.38803e-07 -1.2172e-05
0.00101806 7.82336e-08 -1.30239e-06
7.82336e-08 4.10315e-05 -1.03858e-06
-1.30239e-06 -1.03858e-06 -2.27414e-05
0.00109429 3.07487e-05 6.88371e-07
3.07487e-05 8.06385e-05 6.74042e-07
6.88371e-07 6.74042e-07 7.34613e-06
0.00102411 2.57842e-06 -1.24491e-08
2.57842e-06 4.32911e-05 9.01543e-08
-1.24491e-08 9.01543e-08 -1.97575e-05
0.000945551 -1.75966e-06 -2.42053e-06
-1.75966e-06 5.63331e-06 -2.31856e-06
-2.42053e-06 -2.31856e-06 -3.68793e-05
0.000876286 -1.72424e-05 -3.18131e-06
-1.72424e-05 -3.03073e-05 -3.63384e-06
-3.18131e-06 -3.63384e-06 -3.93674e-05
0.000944092 -4.35672e-06 -2.30813e-07
-4.35672e-06 2.83762e-06 -3.23256e-08
-2.30813e-07 -3.23256e-08 -3.67776e-05
0.00102363 5.01124e-06 7.89216e-07
5.01124e-06 4.22424e-05 1.73853e-06
7.89216e-07 1.73853e-06 -1.89351e-05
0.00245816 -2.37296e-05 -1.44319e-05
-2.37296e-05 0.000760901 -4.06767e-06
-1.44319e-05 -4.06767e-06 0.000779313
0.000874341 -1.54918e-05 -1.23212e-07
-1.54918e-05 -3.5547e-05 -1.58904e-08
-1.23212e-07 -1.58904e-08 -4.24839e-05
0.000954569 -6.48947e-06 1.29128e-06
-6.48947e-06 5.25111e-06 2.29925e-06
1.29128e-06 2.29925e-06 -3.12887e-05
0.00241565 -2.06188e-05 -5.36097e-07
-2.06188e-05 0.000734344 4.38779e-08
-5.36097e-07 4.38779e-08 0.000754121
0.000867806 -1.38379e-05 1.88697e-06
-1.38379e-05 -4.27609e-05 3.43353e-06
1.88697e-06 3.43353e-06 -4.7809e-05
0.00236809 -1.73216e-05 1.00797e-05
-1.73216e-05 0.000705481 4.01281e-06
1.00797e-05 4.01281e-06 0.000726626
0.000220723 3.24021e-05 9.3455e-05
3.24021e-05 -0.000333653 7.70854e-06
9.3455e-05 7.70854e-06 -0.000490476
0.00155627 -2.09835e-05 2.29247e-06
-2.09835e-05 0.000564976 -7.22463e-07
2.29247e-06 -7.22463e-07 0.000590014
0.00073555 1.94885e-06 1.50365e-05
1.94885e-06 0.000105266 1.36156e-06
1.50365e-05 1.36156e-06 6.12173e-06
0.00103662 3.87798e-05 1.41485e-06
3.87798e-05 4.89859e-05 2.87453e-07
1.41485e-06 2.87453e-07 -2.76784e-05
0.00105407 4.389e-05 7.55827e-07
4.389e-05 5.7e-05 6.26675e-09
7.55827e-07 6.26675e-09 -2.15533e-05
0.0011324 4.33166e-05 1.85847e-08
4.33166e-05 0.000103316 -4.6893e-08
1.85847e-08 -4.6893e-08 2.98691e-05
0.00115186 4.62813e-05 -5.1721e-07
4.62813e-05 0.000117878 -1.14134e-07
-5.1721e-07 -1.14134e-07 4.46752e-05
0.00112554 4.61999e-05 -1.77213e-06
4.61999e-05 9.99683e-05 -6.17782e-08
-1.77213e-06 -6.17782e-08 2.23668e-05
0.00110965 4.20151e-05 7.08673e-07
4.20151e-05 9.25373e-05 9.59767e-07
7.08673e-07 9.59767e-07 9.16777e-06
0.00111065 4.40681e-05 1.38935e-06
4.40681e-05 8.83804e-05 7.66773e-07
1.38935e-06 7.66773e-07 6.98102e-06
0.00102111 4.32309e-05 -3.38253e-07
4.32309e-05 5.65225e-05 -2.14063e-07
-3.38253e-07 -2.14063e-07 -2.9183e-05
0.000688027 3.96822e-05 -1.51231e-06
3.96822e-05 -0.000105246 2.1245e-07
-1.51231e-06 2.1245e-07 -0.0001847
0.000833637 4.53657e-05 -2.16845e-06
4.53657e-05 -3.47654e-05 -1.18685e-06
-2.16845e-06 -1.18685e-06 -0.000122478
0.00187058 7.87206e-05 6.60764e-07
7.87206e-05 0.000455717 -2.03581e-06
6.60764e-07 -2.03581e-06 0.00035916
0.00114087 4.35833e-05 -1.2186e-06
4.35833e-05 0.00011412 1.63016e-07
-1.2186e-06 1.63016e-07 2.60667e-05
0.00110017 3.70287e-05 7.19411e-07
3.70287e-05 9.36373e-05 1.102e-06
7.19411e-07 1.102e-06 6.81143e-06
0.00670535 -4.82712e-05 -1.07766e-05
-4.82712e-05 0.00178918 -1.04081e-05
-1.07766e-05 -1.04081e-05 0.00121112
-0.0001226 -8.88618e-05 9.00019e-06
-8.88618e-05 -0.000430188 4.99031e-06
9.00019e-06 4.99031e-06 -0.00051522
0.0020437 -5.30594e-05 -3.21849e-06
-5.30594e-05 0.00075486 -2.31185e-06
-3.21849e-06 -2.31185e-06 0.000840169
-0.00225273 -0.00012055 -3.41418e-05
-0.00012055 -0.00157155 -2.66792e-05
-3.41418e-05 -2.66792e-05 -0.00145213
0.00685967 -0.000189566 5.76971e-05
-0.000189566 0.00170359 5.45984e-05
5.76971e-05 5.45984e-05 0.000809832
0.00148107 7.38198e-05 2.99048e-05
7.38198e-05 0.000496156 2.69522e-06
2.99048e-05 2.69522e-06 0.000255136
0.00117484 0.000101352 -2.39188e-05
0.000101352 1.22957e-05 -2.5247e-05
-2.39188e-05 -2.5247e-05 -0.000264326
0.00446234 -0.000142718 1.7828e-05
-0.000142718 0.00103901 1.54563e-05
1.7828e-05 1.54563e-05 0.000488563
0.00114229 4.62533e-05 -4.06457e-05
4.62533e-05 -1.23691e-05 -4.64964e-05
-4.06457e-05 -4.64964e-05 -0.000274008
0.00233516 0.000115844 1.62107e-05
0.000115844 0.000542061 6.96833e-06
1.62107e-05 6.96833e-06 0.000406332
0.00100223 7.41244e-05 -8.24715e-07
7.41244e-05 0.000108533 -3.80699e-06
-8.24715e-07 -3.80699e-06 -2.50435e-05
0.000905279 4.70322e-05 1.02071e-06
4.70322e-05 -1.81448e-06 4.32976e-06
1.02071e-06 4.32976e-06 -7.56412e-05
0.00224228 0.000115503 -1.2802e-05
0.000115503 0.000758235 -1.67341e-05
-1.2802e-05 -1.67341e-05 0.000658067
0.000246427 0.000105666 -5.86303e-06
0.000105666 -0.000391585 7.96656e-06
-5.86303e-06 7.96656e-06 -0.000467127
0.000905976 5.00693e-05 -1.01554e-05
5.00693e-05 -0.000308249 -3.78542e-06
-1.01554e-05 -3.78542e-06 -0.000723954
0.0014759 1.13098e-05 7.77091e-07
1.13098e-05 0.00024977 3.85772e-06
7.77091e-07 3.85772e-06 0.000159169
-0.00104461 -7.84026e-06 -5.21557e-06
-7.84026e-06 -0.000981726 2.84996e-07
-5.21557e-06 2.84996e-07 -0.000997653
0.00182421 -0.000104367 -2.51999e-05
-0.000104367 0.000341507 -2.26975e-07
-2.51999e-05 -2.26975e-07 0.00024198
0.00138554 2.57446e-05 2.22077e-05
2.57446e-05 -1.02929e-05 -2.37519e-05
2.22077e-05 -2.37519e-05 -0.000371998
0.000430329 5.56427e-06 -0.000114473
5.56427e-06 -0.0002055 2.04025e-05
-0.000114473 2.04025e-05 -0.000365891
0.00497644 0.000204944 -1.643e-05
0.000204944 0.00167376 4.8549e-06
-1.643e-05 4.8549e-06 0.000997093
0.00170464 -7.93221e-05 1.06617e-06
-7.93221e-05 -4.66412e-05 -1.00008e-06
1.06617e-06 -1.00008e-06 2.48849e-05
0.00439288 0.000119508 2.56529e-05
0.000119508 0.00128628 2.6944e-06
2.56529e-05 2.6944e-06 0.000764219
0.00165487 5.90676e-05 2.54529e-05
5.90676e-05 0.000304175 -1.04211e-05
2.54529e-05 -1.04211e-05 -7.4146e-05
0.00170489 -5.17376e-05 -3.0531e-06
-5.17376e-05 -0.000196063 -1.04276e-06
-3.0531e-06 -1.04276e-06 -8.16223e-05
0.000969612 6.5389e-05 -2.30539e-05
6.5389e-05 0.000343492 1.26898e-05
-2.30539e-05 1.26898e-05 0.000151526
0.00145042 -0.000132032 9.43337e-06
-0.000132032 0.000146691 -7.57734e-06
9.43337e-06 -7.57734e-06 1.74514e-05
0.00166549 -0.000119485 -3.48214e-06
-0.000119485 5.15318e-05 1.86959e-06
-3.48214e-06 1.86959e-06 8.38798e-06
0.00192991 -6.44604e-05 -9.96309e-06
-6.44604e-05 0.00011661 5.34908e-06
-9.96309e-06 5.34908e-06 0.000116948
0.000856331 -7.83928e-05 6.51362e-06
-7.83928e-05 -0.000218068 -9.71402e-07
6.51362e-06 -9.71402e-07 -0.000281986
0.00140042 -6.19549e-05 1.33621e-06
-6.19549e-05 -7.27354e-06 9.14465e-07
1.33621e-06 9.14465e-07 -2.75569e-05
0.00140717 -3.8309e-05 -7.76972e-07
-3.8309e-05 -2.98413e-05 3.78189e-06
-7.76972e-07 3.78189e-06 -4.04341e-05
0.00111812 -5.58471e-05 2.09274e-06
-5.58471e-05 -7.03144e-05 5.65905e-07
2.09274e-06 5.65905e-07 -0.000125831
0.00136109 -4.71892e-05 1.53394e-07
-4.71892e-05 1.18626e-05 1.23047e-06
1.53394e-07 1.23047e-06 -2.23417e-05
0.00138121 -3.69541e-05 5.15608e-07
-3.69541e-05 1.89396e-05 2.46195e-06
5.15608e-07 2.46195e-06 -1.37826e-05
0.00122891 -4.80325e-05 1.73144e-06
-4.80325e-05 6.88796e-06 1.21184e-06
1.73144e-06 1.21184e-06 -5.11992e-05
0.00132274 -4.3611e-05 5.60233e-08
-4.3611e-05 3.47224e-05 8.05301e-07
5.60233e-08 8.05301e-07 -1.1599e-05
0.00135881 -3.79231e-05 -3.99982e-07
-3.79231e-05 5.35032e-05 1.19449e-06
-3.99982e-07 1.19449e-06 7.01244e-06
0.0013254 -4.14448e-05 -8.85895e-07
-4.14448e-05 6.33737e-05 7.77719e-07
-8.85895e-07 7.77719e-07 1.25693e-05
0.00144976 -4.26281e-05 2.74677e-07
-4.26281e-05 0.000133685 -2.54938e-07
2.74677e-07 -2.54938e-07 7.63135e-05
0.00131324 -4.47835e-05 1.35619e-06
-4.47835e-05 6.60388e-05 1.65903e-06
1.35619e-06 1.65903e-06 8.73928e-06
0.00130126 -4.6398e-05 5.98205e-08
-4.6398e-05 7.71716e-05 -3.29434e-07
5.98205e-08 -3.29434e-07 1.31937e-05
0.00128955 -4.50926e-05 -6.50484e-07
-4.50926e-05 8.1335e-05 1.24704e-08
-6.50484e-07 1.24704e-08 1.51008e-05
0.00100944 -4.3227e-05 -1.46956e-06
-4.3227e-05 -1.65504e-05 1.18767e-06
-1.46956e-06 1.18767e-06 -8.66985e-05
0.00125404 -4.9526e-05 3.74244e-08
-4.9526e-05 8.80697e-05 -1.37597e-07
3.74244e-08 -1.37597e-07 1.47579e-05
0.00135354 -5.3067e-05 1.66449e-06
-5.3067e-05 0.000127057 -5.06813e-07
1.66449e-06 -5.06813e-07 5.12548e-05
0.0010574 -3.67593e-05 -1.10533e-06
-3.67593e-05 5.19755e-05 1.17972e-06
-1.10533e-06 1.17972e-06 -1.18031e-05
0.00099977 -4.49893e-05 -3.04286e-07
-4.49893e-05 9.27427e-06 3.11221e-07
-3.04286e-07 3.11221e-07 -6.20988e-05
0.00127521 -5.23782e-05 1.11973e-06
-5.23782e-05 0.000132701 -1.50321e-06
1.11973e-06 -1.50321e-06 5.59156e-05
0.000908346 7.86025e-07 -2.3191e-06
7.86025e-07 1.07992e-05 1.64389e-06
-2.3191e-06 1.64389e-06 -3.90496e-05
0.00104462 -3.14549e-05 -4.42454e-08
-3.14549e-05 5.76442e-05 -5.01876e-08
-4.42454e-08 -5.01876e-08 -4.55211e-06
0.00111974 -4.55782e-05 5.2263e-07
-4.55782e-05 8.48226e-05 -1.19578e-06
5.2263e-07 -1.19578e-06 1.55097e-05
0.000773769 2.52531e-05 -4.29692e-06
2.52531e-05 -5.30021e-05 3.22242e-06
-4.29692e-06 3.22242e-06 -6.88153e-05
0.000934531 2.47965e-06 3.7437e-08
2.47965e-06 1.86613e-05 4.57851e-08
3.7437e-08 4.57851e-08 -2.8269e-05
0.00104771 -2.55997e-05 1.10761e-06
-2.55997e-05 6.25943e-05 -5.67401e-07
1.10761e-06 -5.67401e-07 1.40632e-06
0.00255405 3.68827e-05 -1.72374e-05
3.68827e-05 0.000831528 3.55186e-06
-1.72374e-05 3.55186e-06 0.000845276
0.000833226 2.39185e-05 7.55135e-09
2.39185e-05 -3.22955e-05 4.32183e-10
7.55135e-09 4.32183e-10 -4.55852e-05
0.000941385 4.56802e-06 2.38047e-06
4.56802e-06 1.64111e-05 -1.75296e-06
2.38047e-06 -1.75296e-06 -2.77445e-05
0.00251366 3.34876e-05 1.92362e-07
3.34876e-05 0.00080461 6.40432e-08
1.92362e-07 6.40432e-08 0.000819763
0.000864893 2.17526e-05 4.0424e-06
2.17526e-05 -2.51811e-05 -3.29839e-06
4.0424e-06 -3.29839e-06 -3.64246e-05
0.00248893 3.01768e-05 1.6297e-05
3.01768e-05 0.000786474 -3.82747e-06
1.6297e-05 -3.82747e-06 0.000802771
0.00105683 3.53856e-05 -7.57378e-07
3.53856e-05 7.03006e-05 -2.43099e-07
-7.57378e-07 -2.43099e-07 -6.62782e-07
0.00109151 3.18916e-05 2.13056e-07
3.18916e-05 8.2484e-05 1.39391e-07
2.13056e-07 1.39391e-07 1.23951e-05
0.000918809 1.5829e-06 -1.68243e-06
1.5829e-06 -3.76033e-06 -8.73638e-07
-1.68243e-06 -8.73638e-07 -6.82608e-05
0.0009748 2.69482e-05 1.40979e-06
2.69482e-05 1.87527e-05 7.54413e-07
1.40979e-06 7.54413e-07 -5.37649e-05
0.00096849 3.87065e-07 -7.85542e-08
3.87065e-07 1.6651e-05 1.44024e-07
-7.85542e-08 1.44024e-07 -4.75104e-05
0.000946088 -1.74093e-06 -2.58962e-06
-1.74093e-06 8.75863e-06 -2.07752e-06
-2.58962e-06 -2.07752e-06 -3.61215e-05
0.00101473 2.68313e-06 1.09614e-06
2.68313e-06 3.93028e-05 1.51778e-06
1.09614e-06 1.51778e-06 -2.39203e-05
0.000944322 -8.08226e-07 -1.37279e-07
-8.08226e-07 4.86657e-06 1.08968e-08
-1.37279e-07 1.08968e-08 -3.7636e-05
0.000862038 -1.91202e-05 -3.71569e-06
-1.91202e-05 -3.29169e-05 -3.6261e-06
-3.71569e-06 -3.6261e-06 -4.40256e-05
0.00251059 -2.69608e-05 -1.57747e-05
-2.69608e-05 0.00079206 -4.04763e-06
-1.57747e-05 -4.04763e-06 0.000809128
0.00086143 -1.70226e-05 -1.34306e-07
-1.70226e-05 -3.78143e-05 -1.16564e-08
-1.34306e-07 -1.16564e-08 -4.67149e-05
0.000949077 -3.32634e-06 1.71411e-06
-3.32634e-06 4.67933e-06 2.48916e-06
1.71411e-06 2.48916e-06 -3.48269e-05
0.00246804 -2.38211e-05 -4.47723e-07
-2.38211e-05 0.00076535 5.21409e-08
-4.47723e-07 5.21409e-08 0.000783857
0.000859562 -1.53874e-05 2.35088e-06
-1.53874e-05 -4.27308e-05 3.50525e-06
2.35088e-06 3.50525e-06 -4.95695e-05
0.00242057 -2.06671e-05 1.18772e-05
-2.06671e-05 0.00073626 4.01391e-06
1.18772e-05 4.01391e-06 0.000756156
0.00515862 2.34339e-05 1.61835e-05
2.34339e-05 0.00153574 -1.45718e-06
1.61835e-05 -1.45718e-06 0.00109237
-0.00046099 -6.79598e-06 1.69113e-05
-6.79598e-06 -0.000379098 8.2249e-07
1.69113e-05 8.2249e-07 -0.000388345
0.000543525 -1.60726e-05 7.31044e-06
-1.60726e-05 -2.11194e-05 3.41724e-07
7.31044e-06 3.41724e-07 -6.3698e-06
0.00105662 4.36329e-05 1.96075e-06
4.36329e-05 6.01125e-05 1.04131e-07
1.96075e-06 1.04131e-07 -1.86339e-05
0.00107153 4.24709e-05 9.33777e-07
4.24709e-05 7.49719e-05 1.24642e-07
9.33777e-07 1.24642e-07 1.81184e-06
0.00116165 4.70457e-05 2.61248e-08
4.70457e-05 0.000117478 -3.76272e-08
2.61248e-08 -3.76272e-08 4.00058e-05
0.00112216 4.59784e-05 -1.55006e-07
4.59784e-05 0.000103448 -1.52156e-07
-1.55006e-07 -1.52156e-07 3.02167e-05
0.00111938 4.68185e-05 9.26857e-07
4.68185e-05 0.000106795 3.49562e-07
9.26857e-07 3.49562e-07 3.23091e-05
0.000916768 4.32468e-05 -1.66317e-06
4.32468e-05 6.9609e-06 4.02254e-07
-1.66317e-06 4.02254e-07 -6.88223e-05
0.000945047 4.16676e-05 1.40276e-06
4.16676e-05 1.9601e-05 8.60394e-07
1.40276e-06 8.60394e-07 -6.56384e-05
0.000881063 4.30934e-05 6.68089e-07
4.30934e-05 -1.07905e-05 -1.88626e-07
6.68089e-07 -1.88626e-07 -9.10496e-05
0.000897169 4.70312e-05 7.87268e-07
4.70312e-05 3.19622e-06 2.32568e-07
7.87268e-07 2.32568e-07 -8.53739e-05
0.000658984 4.63329e-05 -7.06373e-07
4.63329e-05 -0.000127684 -2.4465e-08
-7.06373e-07 -2.4465e-08 -0.000207363
0.00255038 9.05756e-05 1.34004e-07
9.05756e-05 0.000758982 -3.95093e-07
1.34004e-07 -3.95093e-07 0.000669893
0.0017638 9.29172e-05 -5.31925e-08
9.29172e-05 0.000310208 -3.41926e-06
-5.31925e-08 -3.41926e-06 0.000197672
0.00122978 6.54769e-05 5.45265e-07
6.54769e-05 0.000141754 2.48948e-08
5.45265e-07 2.48948e-08 4.7341e-05
0.00127781 4.84001e-05 -7.03283e-08
4.84001e-05 0.000187107 6.76727e-07
-7.03283e-08 6.76727e-07 9.7186e-05
0.000186197 -2.96869e-05 -2.28508e-05
-2.96869e-05 -0.000281637 -1.81431e-05
-2.28508e-05 -1.81431e-05 -0.000375454
0.00334153 -5.52555e-05 -1.78512e-05
-5.52555e-05 0.000596378 -2.89023e-06
-1.78512e-05 -2.89023e-06 0.000140304
0.00252777 -0.000118475 -3.51947e-05
-0.000118475 0.000951969 -1.10091e-05
-3.51947e-05 -1.10091e-05 0.000855151
0.00390085 -8.32857e-05 6.58254e-05
-8.32857e-05 0.000726643 2.68368e-05
6.58254e-05 2.68368e-05 9.00761e-05
0.00292745 0.000125747 2.20373e-05
0.000125747 0.000978956 3.81926e-05
2.20373e-05 3.81926e-05 0.000805294
0.00086597 3.72735e-05 -1.08805e-05
3.72735e-05 -4.11667e-06 -2.40148e-06
-1.08805e-05 -2.40148e-06 -0.000123278
0.00107708 4.36377e-05 1.92279e-05
4.36377e-05 -0.000190546 1.15985e-05
1.92279e-05 1.15985e-05 -0.000263862
0.00114633 0.000105357 -5.0061e-07
0.000105357 -1.04037e-05 5.64366e-06
-5.0061e-07 5.64366e-06 -0.000145867
0.000465424 6.18824e-05 -6.89197e-07
6.18824e-05 -0.000144232 5.20847e-06
-6.89197e-07 5.20847e-06 -0.000277486
0.00200226 0.000150081 -3.73737e-05
0.000150081 0.000287435 -5.05462e-05
-3.73737e-05 -5.05462e-05 0.000254484
0.00168077 1.76355e-05 -0.000106867
1.76355e-05 0.00041812 -7.18776e-06
-0.000106867 -7.18776e-06 0.000177994
0.00463642 4.62839e-05 1.47047e-05
4.62839e-05 0.0014523 -5.00652e-08
1.47047e-05 -5.00652e-08 0.00101026
-0.00249077 -8.7167e-06 -7.37476e-05
-8.7167e-06 -0.00164891 4.66795e-06
-7.37476e-05 4.66795e-06 -0.00162499
0.00229814 -8.36577e-05 -4.12725e-06
-8.36577e-05 0.000238398 3.32096e-07
-4.12725e-06 3.32096e-07 0.000305113
0.000268127 7.44853e-05 2.52283e-05
7.44853e-05 -0.000161147 -1.12662e-05
2.52283e-05 -1.12662e-05 -0.00041148
0.000387449 1.41672e-05 2.08808e-05
1.41672e-05 -0.000346213 -3.11548e-06
2.08808e-05 -3.11548e-06 -0.00078297
0.00189773 -6.02182e-05 -1.86507e-06
-6.02182e-05 -7.3626e-05 2.38311e-06
-1.86507e-06 2.38311e-06 4.74186e-06
0.00117764 8.17016e-05 3.80163e-06
8.17016e-05 0.000268149 -4.42196e-06
3.80163e-06 -4.42196e-06 8.14758e-05
0.00148297 4.52319e-07 9.55393e-07
4.52319e-07 -0.000267663 -1.30552e-05
9.55393e-07 -1.30552e-05 -0.000194389
0.0008082 5.82224e-05 1.31895e-06
5.82224e-05 -0.000202183 -2.5598e-06
1.31895e-06 -2.5598e-06 -0.000258298
0.00189725 -0.000118784 9.46916e-06
-0.000118784 0.000159916 -3.48601e-06
9.46916e-06 -3.48601e-06 0.000125309
0.00169349 -6.26573e-05 2.6492e-06
-6.26573e-05 4.52497e-06 -5.23994e-07
2.6492e-06 -5.23994e-07 1.07463e-05
0.00181929 -6.00227e-06 -2.25817e-06
-6.00227e-06 0.000129824 3.84163e-06
-2.25817e-06 3.84163e-06 0.000122604
0.00111459 -5.9406e-05 6.44556e-06
-5.9406e-05 -0.000140967 -1.22153e-06
6.44556e-06 -1.22153e-06 -0.000160351
0.00153366 -3.95912e-05 1.45058e-06
-3.95912e-05 3.90395e-05 4.32427e-07
1.45058e-06 4.32427e-07 2.61018e-05
0.00145227 -1.95048e-05 -3.68437e-07
-1.95048e-05 1.51772e-05 3.04212e-06
-3.68437e-07 3.04212e-06 -1.75716e-05
0.00126337 -4.64829e-05 2.38046e-06
-4.64829e-05 -3.29763e-05 7.33392e-07
2.38046e-06 7.33392e-07 -6.8169e-05
0.00140193 -3.75383e-05 4.09834e-07
-3.75383e-05 3.38867e-05 6.31406e-07
4.09834e-07 6.31406e-07 -4.00076e-07
0.00148437 -2.90181e-05 -6.90967e-07
-2.90181e-05 8.16646e-05 1.88049e-06
-6.90967e-07 1.88049e-06 3.47656e-05
0.00137272 -4.46879e-05 9.86675e-07
-4.46879e-05 5.97057e-05 7.48946e-07
9.86675e-07 7.48946e-07 1.25278e-05
0.00131463 -3.88728e-05 -1.47135e-07
-3.88728e-05 3.7048e-05 1.57308e-09
-1.47135e-07 1.57308e-09 -9.84834e-06
0.00131539 -3.73405e-05 6.05724e-07
-3.73405e-05 5.15014e-05 1.03793e-06
6.05724e-07 1.03793e-06 -5.2816e-06
0.00119318 -4.02717e-05 1.10714e-07
-4.02717e-05 4.57076e-07 8.63347e-07
1.10714e-07 8.63347e-07 -4.89077e-05
0.00133483 -4.08069e-05 -6.3494e-07
-4.08069e-05 7.74686e-05 -4.29679e-07
-6.3494e-07 -4.29679e-07 2.1167e-05
0.00142321 -4.19806e-05 -1.17756e-07
-4.19806e-05 0.000130867 2.08103e-07
-1.17756e-07 2.08103e-07 6.8013e-05
0.00131259 -4.62423e-05 9.09499e-07
-4.62423e-05 8.21422e-05 1.64766e-07
9.09499e-07 1.64766e-07 1.79658e-05
0.00128927 -4.48941e-05 1.24372e-07
-4.48941e-05 8.13107e-05 -2.5377e-07
1.24372e-07 -2.5377e-07 1.48266e-05
0.00129862 -4.33207e-05 -8.21912e-07
-4.33207e-05 0.00010102 5.33828e-07
-8.21912e-07 5.33828e-07 3.49552e-05
0.000904811 -3.5292e-05 -1.92835e-06
-3.5292e-05 -4.58143e-05 1.46426e-06
-1.92835e-06 1.46426e-06 -0.000110371
0.00108748 -4.4538e-05 -2.57175e-07
-4.4538e-05 2.3921e-05 1.42971e-07
-2.57175e-07 1.42971e-07 -4.60483e-05
0.00124864 -4.93314e-05 1.20279e-06
-4.93314e-05 8.60839e-05 -1.01947e-06
1.20279e-06 -1.01947e-06 1.24464e-05
0.000912575 -4.74902e-06 -2.11228e-06
-4.74902e-06 1.04311e-05 1.7766e-06
-2.11228e-06 1.7766e-06 -4.21676e-05
0.00106291 -3.62183e-05 5.334e-08
-3.62183e-05 5.45353e-05 3.84869e-08
5.334e-08 3.84869e-08 -9.23205e-06
0.00108737 -4.65241e-05 4.95751e-07
-4.65241e-05 5.4077e-05 -9.57036e-07
4.95751e-07 -9.57036e-07 -1.70238e-05
0.0007346 2.68887e-05 -4.46443e-06
2.68887e-05 -6.33454e-05 3.10003e-06
-4.46443e-06 3.10003e-06 -8.23176e-05
0.000929703 -1.58754e-06 -9.24422e-08
-1.58754e-06 1.88681e-05 1.46652e-09
-9.24422e-08 1.46652e-09 -3.07258e-05
0.00106904 -3.20366e-05 1.05318e-06
-3.20366e-05 6.85231e-05 -9.46894e-07
1.05318e-06 -9.46894e-07 6.32851e-06
0.00259661 4.02063e-05 -1.77403e-05
4.02063e-05 0.00086122 3.39822e-06
-1.77403e-05 3.39822e-06 0.000873115
0.000811076 2.59137e-05 8.56872e-08
2.59137e-05 -3.42554e-05 3.60643e-08
8.56872e-08 3.60643e-08 -5.02909e-05
0.000939554 1.35153e-06 2.4397e-06
1.35153e-06 1.9462e-05 -1.54855e-06
2.4397e-06 -1.54855e-06 -2.71988e-05
0.00252508 3.67795e-05 1.89861e-07
3.67795e-05 0.000818363 6.87691e-08
1.89861e-07 6.87691e-08 0.000831961
0.000860282 2.43712e-05 4.15392e-06
2.43712e-05 -1.8731e-05 -3.22695e-06
4.15392e-06 -3.22695e-06 -3.22003e-05
0.00247269 3.33807e-05 1.67117e-05
3.33807e-05 0.000785359 -3.66171e-06
1.67117e-05 -3.66171e-06 0.00080048
0.0010761 4.01582e-05 -9.24635e-07
4.01582e-05 8.20522e-05 -6.3062e-07
-9.24635e-07 -6.3062e-07 1.00983e-05
0.00113303 3.71223e-05 1.04237e-07
3.71223e-05 0.000107443 7.62815e-08
1.04237e-07 7.62815e-08 3.68068e-05
0.000944365 1.29117e-05 -1.51523e-06
1.29117e-05 1.576e-05 -7.59423e-07
-1.51523e-06 -7.59423e-07 -4.9428e-05
0.00106365 3.21085e-05 9.60456e-07
3.21085e-05 6.96817e-05 3.45191e-07
9.60456e-07 3.45191e-07 -4.41923e-07
0.000931981 3.43192e-06 -3.4844e-07
3.43192e-06 3.8085e-06 -7.47798e-08
-3.4844e-07 -7.47798e-08 -6.07926e-05
0.000939602 -3.23681e-06 -2.60003e-06
-3.23681e-06 1.17596e-05 -1.82884e-06
-2.60003e-06 -1.82884e-06 -3.54048e-05
0.000918719 -2.66846e-06 1.25348e-06
-2.66846e-06 -7.61043e-06 1.21616e-06
1.25348e-06 1.21616e-06 -7.23384e-05
0.000940915 -1.48216e-06 -2.79364e-08
-1.48216e-06 6.45523e-06 3.70966e-08
-2.79364e-08 3.70966e-08 -3.84868e-05
0.000850388 -2.16662e-05 -4.05211e-06
-2.16662e-05 -3.28057e-05 -3.50958e-06
-4.05211e-06 -3.50958e-06 -4.59769e-05
0.00094285 3.53641e-08 2.32968e-06
3.53641e-08 3.99094e-06 2.50485e-06
2.32968e-06 2.50485e-06 -3.85044e-05
0.000849158 -1.88062e-05 -1.27217e-07
-1.88062e-05 -3.9713e-05 1.58233e-08
-1.27217e-07 1.58233e-08 -5.06354e-05
0.00254595 -3.02774e-05 -1.66914e-05
-3.02774e-05 0.000815082 -3.95612e-06
-1.66914e-05 -3.95612e-06 0.000830814
0.00252306 -2.70182e-05 -3.56455e-07
-2.70182e-05 0.000797748 5.9861e-08
-3.56455e-07 5.9861e-08 0.000814924
0.000847677 -1.68143e-05 2.86437e-06
-1.68143e-05 -4.48251e-05 3.60946e-06
2.86437e-06 3.60946e-06 -5.35611e-05
0.00247337 -2.39039e-05 1.35661e-05
-2.39039e-05 0.000767558 3.9907e-06
1.35661e-05 3.9907e-06 0.000786174
0.000413336 -2.55756e-05 -4.86593e-05
-2.55756e-05 -0.000157571 -1.00657e-05
-4.86593e-05 -1.00657e-05 -0.000263911
0.00173601 -1.09655e-05 -1.16958e-05
-1.09655e-05 4.98616e-05 -5.48666e-06
-1.16958e-05 -5.48666e-06 -0.000376701
0.00321057 -8.93199e-05 -3.33475e-05
-8.93199e-05 0.00114668 -3.44282e-06
-3.33475e-05 -3.44282e-06 0.00107665
0.00119553 5.06685e-05 1.68243e-06
5.06685e-05 0.000128271 1.93877e-07
1.68243e-06 1.93877e-07 5.26904e-05
0.00118274 4.76083e-05 1.44033e-06
4.76083e-05 0.000128195 -4.52806e-08
1.44033e-06 -4.52806e-08 5.0811e-05
0.00108491 4.54173e-05 7.39942e-07
4.54173e-05 8.52903e-05 7.92694e-08
7.39942e-07 7.92694e-08 1.20584e-05
0.00105058 4.6056e-05 -6.3596e-09
4.6056e-05 7.19317e-05 5.36527e-08
-6.3596e-09 5.36527e-08 -4.11007e-06
0.00108634 4.65686e-05 -1.49879e-07
4.65686e-05 9.18544e-05 -1.84893e-07
-1.49879e-07 -1.84893e-07 1.70025e-05
0.000819765 4.53224e-05 -1.49135e-06
4.53224e-05 -3.99073e-05 4.77622e-07
-1.49135e-06 4.77622e-07 -0.000111553
0.00115017 4.82872e-05 2.59777e-06
4.82872e-05 0.000121489 -8.73307e-07
2.59777e-06 -8.73307e-07 4.01996e-05
0.00117279 5.18191e-05 2.00206e-06
5.18191e-05 0.000142176 2.2301e-07
2.00206e-06 2.2301e-07 5.27687e-05
0.00107799 5.47687e-05 -1.8862e-07
5.47687e-05 7.38526e-05 -1.06183e-07
-1.8862e-07 -1.06183e-07 -5.1941e-06
0.00187445 7.79079e-05 2.39513e-07
7.79079e-05 0.000442796 4.91829e-07
2.39513e-07 4.91829e-07 0.000355471
0.00149365 7.71181e-05 1.41565e-07
7.71181e-05 0.000179828 -1.92922e-06
1.41565e-07 -1.92922e-06 8.57025e-05
0.00175488 8.17789e-05 -9.25873e-06
8.17789e-05 0.000156896 -2.96262e-06
-9.25873e-06 -2.96262e-06 4.48527e-05
0.00126277 8.25083e-05 3.02111e-06
8.25083e-05 6.18628e-05 1.23129e-06
3.02111e-06 1.23129e-06 -5.00191e-05
0.000628649 5.35867e-05 -6.05037e-07
5.35867e-05 -0.000158103 3.67456e-06
-6.05037e-07 3.67456e-06 -0.000250937
0.00199387 -2.67479e-05 9.37336e-07
-2.67479e-05 0.000107996 6.56836e-06
9.37336e-07 6.56836e-06 5.26451e-05
0.00124249 -1.17257e-05 1.91616e-06
-1.17257e-05 1.06533e-05 1.1642e-06
1.91616e-06 1.1642e-06 -0.000131716
0.000718509 -6.13292e-05 -3.20946e-05
-6.13292e-05 -0.00041588 -9.59581e-06
-3.20946e-05 -9.59581e-06 -0.000793738
0.00269075 9.46243e-05 1.65315e-05
9.46243e-05 0.000400318 2.34402e-05
1.65315e-05 2.34402e-05 0.000189696
0.00148022 5.1274e-05 4.24241e-06
5.1274e-05 -6.8041e-05 1.88261e-06
4.24241e-06 1.88261e-06 -0.000149608
-0.000674893 7.8473e-05 -2.20389e-06
7.8473e-05 -0.000844313 -1.83859e-06
-2.20389e-06 -1.83859e-06 -0.00099351
0.00212208 1.0039e-05 7.13665e-06
1.0039e-05 0.000549767 -4.40715e-06
7.13665e-06 -4.40715e-06 0.000492737
0.000490881 5.07438e-06 -2.07082e-05
5.07438e-06 4.83005e-05 5.06907e-07
-2.07082e-05 5.06907e-07 -9.84202e-05
0.00123494 0.000110658 6.26869e-05
0.000110658 -0.000243486 -1.55316e-06
6.26869e-05 -1.55316e-06 -0.000655822
0.00238683 -7.38329e-05 -2.03583e-06
-7.38329e-05 0.000185066 6.06808e-06
-2.03583e-06 6.06808e-06 0.000226975
0.00103624 8.67407e-05 4.16297e-05
8.67407e-05 1.064e-05 -1.84584e-05
4.16297e-05 -1.84584e-05 -0.000230891
0.00203391 -9.07419e-06 3.96442e-06
-9.07419e-06 2.18964e-06 -1.10176e-06
3.96442e-06 -1.10176e-06 4.0869e-05
0.00117996 6.58134e-05 6.06554e-07
6.58134e-05 -1.46079e-05 -3.4756e-06
6.06554e-07 -3.4756e-06 -7.27351e-05
0.000984438 4.64923e-05 -7.42694e-06
4.64923e-05 -0.000324313 6.61181e-08
-7.42694e-06 6.61181e-08 -0.000382272
0.000502112 3.94602e-05 -5.13539e-06
3.94602e-05 -0.000455867 -3.98052e-06
-5.13539e-06 -3.98052e-06 -0.000535683
0.00147396 -6.08137e-05 1.10055e-05
-6.08137e-05 -9.96869e-05 -4.14053e-06
1.10055e-05 -4.14053e-06 -8.71105e-05
0.0016352 -8.26164e-06 2.57572e-06
-8.26164e-06 5.24475e-05 -4.32758e-08
2.57572e-06 -4.32758e-08 3.9354e-05
0.00169998 1.57989e-05 -2.17015e-06
1.57989e-05 0.00014258 1.3986e-06
-2.17015e-06 1.3986e-06 9.21735e-05
0.00170726 -4.06923e-05 1.30112e-06
-4.06923e-05 0.000130481 -1.27813e-06
1.30112e-06 -1.27813e-06 0.000115274
0.00158294 -2.01925e-05 -2.25343e-07
-2.01925e-05 8.35721e-05 -4.77143e-08
-2.25343e-07 -4.77143e-08 4.92432e-05
0.00155751 -9.95381e-06 -7.97784e-07
-9.95381e-06 9.57832e-05 2.15647e-06
-7.97784e-07 2.15647e-06 4.15714e-05
0.00145232 -3.83105e-05 -2.995e-08
-3.83105e-05 6.29426e-05 -8.43036e-07
-2.995e-08 -8.43036e-07 2.70674e-05
0.00144208 -3.04094e-05 -8.10371e-07
-3.04094e-05 6.9155e-05 -6.45805e-07
-8.10371e-07 -6.45805e-07 2.24156e-05
0.00134988 -2.92548e-05 -3.51814e-07
-2.92548e-05 4.0782e-05 2.05887e-06
-3.51814e-07 2.05887e-06 -2.06899e-05
0.00126934 -3.97491e-05 -4.01406e-07
-3.97491e-05 1.9973e-05 -1.49291e-06
-4.01406e-07 -1.49291e-06 -2.73117e-05
0.00130223 -3.69983e-05 1.02887e-07
-3.69983e-05 4.59551e-05 -4.32803e-07
1.02887e-07 -4.32803e-07 -1.08685e-05
0.00130556 -3.80657e-05 -1.12145e-07
-3.80657e-05 5.91167e-05 8.87116e-07
-1.12145e-07 8.87116e-07 -4.75284e-06
0.00121666 -3.90221e-05 -7.31765e-07
-3.90221e-05 1.9626e-05 2.55274e-11
-7.31765e-07 2.55274e-11 -3.55956e-05
0.00131327 -3.9841e-05 -1.88731e-07
-3.9841e-05 7.65633e-05 -2.73089e-07
-1.88731e-07 -2.73089e-07 1.43816e-05
0.00125803 -3.83709e-05 -7.91535e-07
-3.83709e-05 6.47211e-05 5.53068e-07
-7.91535e-07 5.53068e-07 -2.05356e-07
0.0012895 -4.47019e-05 9.19502e-07
-4.47019e-05 8.15182e-05 -4.92343e-07
9.19502e-07 -4.92343e-07 1.47848e-05
0.00119361 -4.16971e-05 1.80261e-07
-4.16971e-05 4.98743e-05 -1.45492e-07
1.80261e-07 -1.45492e-07 -1.65803e-05
0.00117238 -3.70961e-05 -1.61921e-06
-3.70961e-05 6.30467e-05 1.11362e-06
-1.61921e-06 1.11362e-06 -1.96105e-07
0.000936404 -1.38304e-05 -2.35268e-06
-1.38304e-05 9.77331e-06 1.73065e-06
-2.35268e-06 1.73065e-06 -4.43209e-05
0.000983831 -3.63047e-05 -4.05229e-07
-3.63047e-05 -5.22115e-06 2.46663e-07
-4.05229e-07 2.46663e-07 -6.9452e-05
0.00115337 -4.56002e-05 8.37976e-07
-4.56002e-05 5.86273e-05 -9.04935e-07
8.37976e-07 -9.04935e-07 -1.11612e-05
0.000707748 2.88445e-05 -4.23389e-06
2.88445e-05 -6.90367e-05 3.14235e-06
-4.23389e-06 3.14235e-06 -9.20598e-05
0.000929684 -7.88528e-06 -1.84121e-08
-7.88528e-06 1.7057e-05 7.92926e-08
-1.84121e-08 7.92926e-08 -3.53773e-05
0.00107228 -3.58553e-05 1.25499e-06
-3.58553e-05 5.89437e-05 -1.1208e-06
1.25499e-06 -1.1208e-06 -4.81967e-06
0.00265585 4.33837e-05 -1.84929e-05
4.33837e-05 0.00089963 3.24371e-06
-1.84929e-05 3.24371e-06 0.000909458
0.000788809 2.79129e-05 -3.98875e-08
2.79129e-05 -3.68268e-05 -2.01599e-08
-3.98875e-08 -2.01599e-08 -5.60108e-05
0.000949965 -4.02806e-06 2.36755e-06
-4.02806e-06 2.64702e-05 -1.65474e-06
2.36755e-06 -1.65474e-06 -2.28856e-05
0.00256706 3.99478e-05 2.31923e-07
3.99478e-05 0.000847893 8.42701e-08
2.31923e-07 8.42701e-08 0.000859603
0.00084631 2.65614e-05 4.36477e-06
2.65614e-05 -1.65634e-05 -3.08471e-06
4.36477e-06 -3.08471e-06 -3.281e-05
0.00249162 3.65649e-05 1.7325e-05
3.65649e-05 0.000802989 -3.54008e-06
1.7325e-05 -3.54008e-06 0.000816456
0.000979 4.29824e-05 -8.13136e-07
4.29824e-05 2.66972e-05 -7.3579e-07
-8.13136e-07 -7.3579e-07 -4.67115e-05
0.0010589 3.98719e-05 -7.282e-08
3.98719e-05 7.32162e-05 -1.70441e-07
-7.282e-08 -1.70441e-07 1.42045e-06
0.00106018 2.48454e-05 -1.29129e-06
2.48454e-05 7.40141e-05 -5.92504e-07
-1.29129e-06 -5.92504e-07 8.16577e-06
0.00121257 3.90605e-05 7.67637e-07
3.90605e-05 0.000146252 1.53714e-07
7.67637e-07 1.53714e-07 7.59233e-05
0.000994248 1.54104e-05 -2.61561e-07
1.54104e-05 4.09087e-05 -9.61116e-08
-2.61561e-07 -9.61116e-08 -2.40668e-05
0.000937924 -2.8974e-06 -2.53808e-06
-2.8974e-06 1.93677e-05 -1.67159e-06
-2.53808e-06 -1.67159e-06 -3.04825e-05
0.000942451 8.54808e-06 1.07923e-06
8.54808e-06 9.78092e-06 6.49133e-07
1.07923e-06 6.49133e-07 -5.47287e-05
0.000933034 -3.59874e-06 1.31668e-08
-3.59874e-06 9.42511e-06 3.62255e-08
1.31668e-08 3.62255e-08 -3.78971e-05
0.000840246 -2.47109e-05 -4.20257e-06
-2.47109e-05 -2.92843e-05 -3.3453e-06
-4.20257e-06 -3.3453e-06 -4.48234e-05
0.000934161 -1.36401e-06 2.68102e-06
-1.36401e-06 3.39781e-06 2.30374e-06
2.68102e-06 2.30374e-06 -4.16051e-05
0.000836772 -2.12206e-05 -5.71655e-08
-2.12206e-05 -4.02044e-05 3.07117e-08
-5.71655e-08 3.07117e-08 -5.31728e-05
0.00256024 -3.36364e-05 -1.72498e-05
-3.36364e-05 0.000828858 -3.80021e-06
-1.72498e-05 -3.80021e-06 0.000843186
0.000836062 -1.85022e-05 3.43815e-06
-1.85022e-05 -4.66543e-05 3.67085e-06
3.43815e-06 3.67085e-06 -5.73847e-05
0.0025729 -3.03261e-05 -2.85225e-07
-3.03261e-05 0.000827775 6.86566e-08
-2.85225e-07 6.86566e-08 0.000843586
0.00253752 -2.71196e-05 1.51408e-05
-2.71196e-05 0.00080448 3.96792e-06
1.51408e-05 3.96792e-06 0.000821745
0.00141752 -4.66691e-05 2.3349e-06
-4.66691e-05 -5.66479e-05 4.91405e-07
2.3349e-06 4.91405e-07 -9.37886e-05
0.00141781 3.63601e-06 -4.6485e-06
3.63601e-06 0.000154662 6.17654e-06
-4.6485e-06 6.17654e-06 -4.17909e-05
0.00392463 3.27e-05 -5.85844e-05
3.27e-05 0.00109425 -1.25811e-05
-5.85844e-05 -1.25811e-05 0.000663318
0.000971593 4.70002e-05 7.81423e-07
4.70002e-05 1.2008e-05 1.54225e-07
7.81423e-07 1.54225e-07 -6.01254e-05
0.00130939 5.59563e-05 1.43125e-06
5.59563e-05 0.000141011 -1.06014e-06
1.43125e-06 -1.06014e-06 6.27959e-05
0.000937748 4.6232e-05 3.018e-07
4.6232e-05 9.17304e-06 -2.64625e-07
3.018e-07 -2.64625e-07 -6.62111e-05
0.00115744 4.83199e-05 1.30113e-06
4.83199e-05 0.000122772 -5.85136e-07
1.30113e-06 -5.85136e-07 4.6636e-05
0.00108315 4.7023e-05 2.89273e-07
4.7023e-05 9.11294e-05 1.15914e-07
2.89273e-07 1.15914e-07 1.58926e-05
0.00104526 5.03714e-05 5.31688e-07
5.03714e-05 6.43167e-05 5.23021e-07
5.31688e-07 5.23021e-07 -7.80396e-06
0.00131933 6.66584e-05 -1.58608e-06
6.66584e-05 0.000103255 -2.68005e-06
-1.58608e-06 -2.68005e-06 1.86106e-05
0.00138136 6.08894e-05 2.08206e-06
6.08894e-05 0.000221542 2.19058e-07
2.08206e-06 2.19058e-07 0.000143004
0.000835167 5.85223e-05 -1.15813e-06
5.85223e-05 -4.40876e-05 2.3689e-06
-1.15813e-06 2.3689e-06 -0.000129864
0.00134369 7.4334e-05 -6.99929e-07
7.4334e-05 0.000111307 -2.09992e-07
-6.99929e-07 -2.09992e-07 1.74563e-05
0.00118989 6.45325e-05 -3.96154e-06
6.45325e-05 -8.45398e-05 -2.53147e-06
-3.96154e-06 -2.53147e-06 -0.000184525
0.0017017 2.59068e-05 -7.90369e-06
2.59068e-05 5.90963e-05 1.8054e-06
-7.90369e-06 1.8054e-06 -1.70929e-05
0.00181395 8.12937e-05 -4.55698e-07
8.12937e-05 0.000179529 1.22128e-06
-4.55698e-07 1.22128e-06 6.95281e-05
0.000977864 7.48025e-05 3.11228e-07
7.48025e-05 -8.57352e-05 4.15093e-06
3.11228e-07 4.15093e-06 -0.000195522
0.00178087 -2.03108e-05 1.23413e-06
-2.03108e-05 1.11937e-05 7.76495e-07
1.23413e-06 7.76495e-07 -4.31807e-05
0.00184063 -7.73968e-06 6.03775e-05
-7.73968e-06 0.000184024 2.60554e-05
6.03775e-05 2.60554e-05 -2.0359e-05
0.00224343 6.81414e-05 -3.72098e-06
6.81414e-05 0.000249941 -3.64332e-06
-3.72098e-06 -3.64332e-06 0.000156283
0.00172592 2.61384e-05 -4.23654e-06
2.61384e-05 0.000183295 -2.98078e-06
-4.23654e-06 -2.98078e-06 0.000127579
0.0012764 6.83543e-07 1.69261e-06
6.83543e-07 0.000120957 -5.09767e-07
1.69261e-06 -5.09767e-07 7.34542e-05
0.000997504 4.40395e-05 5.26528e-05
4.40395e-05 3.51644e-05 3.02506e-06
5.26528e-05 3.02506e-06 -0.000163246
0.00255764 -1.7451e-05 9.01283e-06
-1.7451e-05 0.000264947 -8.67666e-07
9.01283e-06 -8.67666e-07 0.000266673
0.00131154 7.06886e-05 -2.14304e-06
7.06886e-05 6.49424e-05 1.26734e-06
-2.14304e-06 1.26734e-06 6.46293e-06
0.00163938 5.29211e-05 -1.44982e-06
5.29211e-05 -1.2948e-05 4.27845e-06
-1.44982e-06 4.27845e-06 -6.65315e-05
0.00128309 5.07125e-05 1.27226e-07
5.07125e-05 -6.77449e-05 1.37945e-06
1.27226e-07 1.37945e-06 -0.000144362
0.00149902 4.32676e-05 -4.51555e-06
4.32676e-05 6.17005e-05 -9.48075e-07
-4.51555e-06 -9.48075e-07 -9.48678e-06
0.00133457 3.9713e-05 -3.20395e-06
3.9713e-05 2.15663e-05 -1.97953e-06
-3.20395e-06 -1.97953e-06 -4.00654e-05
0.00139045 -1.02424e-05 5.34785e-06
-1.02424e-05 -5.63364e-05 -2.79703e-06
5.34785e-06 -2.79703e-06 -7.49424e-05
0.00161833 1.41852e-05 -9.79677e-07
1.41852e-05 0.000103239 -1.23917e-06
-9.79677e-07 -1.23917e-06 5.34771e-05
0.00159494 2.39452e-05 -1.91546e-06
2.39452e-05 0.00011092 7.30531e-07
-1.91546e-06 7.30531e-07 4.24271e-05
0.00163839 -2.05396e-05 -1.29063e-06
-2.05396e-05 0.000114603 -2.44048e-06
-1.29063e-06 -2.44048e-06 7.90244e-05
0.00151931 -9.89709e-06 -2.02113e-07
-9.89709e-06 8.113e-05 -3.18953e-07
-2.02113e-07 -3.18953e-07 2.67617e-05
0.00134476 -7.35691e-06 -1.13246e-06
-7.35691e-06 1.07202e-05 1.83241e-06
-1.13246e-06 1.83241e-06 -5.61529e-05
0.00138479 -3.15546e-05 -1.71747e-06
-3.15546e-05 4.90736e-05 -2.63054e-06
-1.71747e-06 -2.63054e-06 2.56868e-06
0.00136033 -2.87733e-05 1.83725e-07
-2.87733e-05 4.60529e-05 -9.71364e-08
1.83725e-07 -9.71364e-08 -1.54553e-05
0.00134663 -3.11944e-05 -6.12495e-07
-3.11944e-05 5.41809e-05 1.54186e-06
-6.12495e-07 1.54186e-06 -1.38375e-05
0.00128943 -3.66393e-05 -3.21054e-07
-3.66393e-05 4.05758e-05 -1.9152e-06
-3.21054e-07 -1.9152e-06 -1.62869e-05
0.00130292 -3.75139e-05 2.59843e-08
-3.75139e-05 5.77018e-05 -3.0864e-07
2.59843e-08 -3.0864e-07 -6.13795e-06
0.00127521 -3.72864e-05 -7.66175e-07
-3.72864e-05 5.96353e-05 8.59541e-07
-7.66175e-07 8.59541e-07 -6.81542e-06
0.00120233 -3.77627e-05 8.91577e-08
-3.77627e-05 2.17604e-05 -5.17541e-07
8.91577e-08 -5.17541e-07 -3.9751e-05
0.00119391 -3.7392e-05 -1.3812e-07
-3.7392e-05 3.35679e-05 -1.21697e-07
-1.3812e-07 -1.21697e-07 -3.12128e-05
0.00117574 -3.41118e-05 -1.62786e-06
-3.41118e-05 4.9934e-05 9.8037e-07
-1.62786e-06 9.8037e-07 -1.30818e-05
0.0010953 -4.01853e-05 1.24667e-06
-4.01853e-05 1.93293e-06 -8.81289e-07
1.24667e-06 -8.81289e-07 -6.49157e-05
0.00105958 -3.4986e-05 2.58238e-08
-3.4986e-05 8.58851e-06 1.77287e-08
2.58238e-08 1.77287e-08 -5.48177e-05
0.000972081 -1.88065e-05 -2.61539e-06
-1.88065e-05 1.02436e-05 1.56577e-06
-2.61539e-06 1.56577e-06 -4.41294e-05
0.000760767 2.33627e-05 -4.44712e-06
2.33627e-05 -4.09312e-05 3.11148e-06
-4.44712e-06 3.11148e-06 -6.76042e-05
0.000943323 -1.46253e-05 2.54685e-08
-1.46253e-05 1.27017e-05 1.16631e-07
2.54685e-08 1.16631e-07 -4.1356e-05
0.00107398 -3.75504e-05 9.90932e-07
-3.75504e-05 4.06337e-05 -9.01198e-07
9.90932e-07 -9.01198e-07 -2.32714e-05
0.00273782 4.66767e-05 -1.91092e-05
4.66767e-05 0.000949672 3.10447e-06
-1.91092e-05 3.10447e-06 0.000957115
0.000773492 2.73851e-05 6.53704e-08
2.73851e-05 -3.79238e-05 -3.98085e-08
6.53704e-08 -3.98085e-08 -6.09451e-05
0.000948294 -1.01257e-05 2.3869e-06
-1.01257e-05 2.44594e-05 -1.72099e-06
2.3869e-06 -1.72099e-06 -2.78354e-05
0.0026285 4.31191e-05 1.85067e-07
4.31191e-05 0.000887403 8.00405e-08
1.85067e-07 8.00405e-08 0.000896995
0.000840081 2.88488e-05 4.16613e-06
2.88488e-05 -1.1721e-05 -3.04998e-06
4.16613e-06 -3.04998e-06 -3.11116e-05
0.00254155 3.97427e-05 1.80371e-05
3.97427e-05 0.000836538 -3.37299e-06
1.80371e-05 -3.37299e-06 0.000848052
0.000814828 4.36785e-05 -5.09619e-07
4.36785e-05 -7.35351e-05 -8.09671e-07
-5.09619e-07 -8.09671e-07 -0.000150262
0.000886228 4.14691e-05 -1.84636e-08
4.14691e-05 -2.00899e-05 -9.94044e-08
-1.84636e-08 -9.94044e-08 -9.38281e-05
0.00109251 3.27604e-05 -1.37719e-06
3.27604e-05 8.12675e-05 -5.44371e-07
-1.37719e-06 -5.44371e-07 1.45546e-05
0.00104002 3.95332e-05 5.75355e-07
3.95332e-05 6.34977e-05 1.76194e-07
5.75355e-07 1.76194e-07 -8.12839e-06
0.00102264 2.33845e-05 -1.43371e-08
2.33845e-05 5.62452e-05 -1.46998e-09
-1.43371e-08 -1.46998e-09 -9.56419e-06
0.000941968 -2.55198e-07 -2.5847e-06
-2.55198e-07 2.7759e-05 -1.49116e-06
-2.5847e-06 -1.49116e-06 -2.47262e-05
0.00104579 1.80212e-05 1.12718e-06
1.80212e-05 6.69019e-05 4.79211e-07
1.12718e-06 4.79211e-07 2.13082e-06
0.000925706 -3.87183e-06 4.83062e-08
-3.87183e-06 1.48082e-05 2.28316e-08
4.83062e-08 2.28316e-08 -3.52443e-05
0.000832123 -2.77779e-05 -4.21474e-06
-2.77779e-05 -2.26596e-05 -3.18213e-06
-4.21474e-06 -3.18213e-06 -4.11027e-05
0.000929296 -3.91952e-06 2.71868e-06
-3.91952e-06 8.49896e-06 2.0278e-06
2.71868e-06 2.0278e-06 -3.89905e-05
0.000820615 -2.41422e-05 -1.81813e-08
-2.41422e-05 -3.96274e-05 2.84596e-08
-1.81813e-08 2.84596e-08 -5.49584e-05
0.00256854 -3.69438e-05 -1.77071e-05
-3.69438e-05 0.00084153 -3.61823e-06
-1.77071e-05 -3.61823e-06 0.000854187
0.000823775 -2.07979e-05 3.95487e-06
-2.07979e-05 -4.73206e-05 3.60164e-06
3.95487e-06 3.60164e-06 -6.00848e-05
0.00260014 -3.37432e-05 -2.26542e-07
-3.37432e-05 0.000847566 7.36121e-08
-2.26542e-07 7.36121e-08 0.000861972
0.00259897 -3.04178e-05 1.64695e-05
-3.04178e-05 0.000840077 3.92909e-06
1.64695e-05 3.92909e-06 0.000855961
0.00166753 -1.14121e-05 -1.74893e-06
-1.14121e-05 8.3427e-05 2.88941e-07
-1.74893e-06 2.88941e-07 3.44565e-05
0.00117292 -4.12907e-05 -7.44028e-07
-4.12907e-05 -0.000109262 -1.68194e-06
-7.44028e-07 -1.68194e-06 -0.000145047
-0.000189467 -1.65483e-05 4.06793e-05
-1.65483e-05 -0.00029266 1.6174e-05
4.06793e-05 1.6174e-05 -0.00040183
0.00170525 6.34144e-05 6.43624e-07
6.34144e-05 0.000291953 -2.03042e-06
6.43624e-07 -2.03042e-06 0.000214087
0.000953494 4.74016e-05 -5.44135e-07
4.74016e-05 1.25148e-05 2.3037e-07
-5.44135e-07 2.3037e-07 -5.72807e-05
0.000788057 4.90622e-05 -2.21746e-06
4.90622e-05 -0.000163069 -7.12353e-07
-2.21746e-06 -7.12353e-07 -0.000246226
0.00127626 5.53934e-05 1.07616e-07
5.53934e-05 0.000124343 5.12474e-08
1.07616e-07 5.12474e-08 4.56685e-05
0.000690088 4.17945e-05 -5.39732e-07
4.17945e-05 -0.000104051 8.28759e-07
-5.39732e-07 8.28759e-07 -0.000179366
0.00157605 6.24278e-05 -3.30561e-06
6.24278e-05 0.000123257 -4.11065e-06
-3.30561e-06 -4.11065e-06 3.2901e-05
0.00126799 5.52196e-05 4.38824e-07
5.52196e-05 0.000166947 6.41164e-08
4.38824e-07 6.41164e-08 9.441e-05
0.00131659 6.54865e-05 8.91628e-08
6.54865e-05 9.69823e-05 4.56253e-07
8.91628e-08 4.56253e-07 1.29911e-05
0.00154982 2.34948e-05 -3.06799e-06
2.34948e-05 2.7549e-05 1.98625e-06
-3.06799e-06 1.98625e-06 -5.16274e-05
0.00126525 7.27203e-05 1.45841e-06
7.27203e-05 7.68876e-05 2.71693e-06
1.45841e-06 2.71693e-06 -1.67157e-05
0.00148153 7.0179e-05 -8.93029e-07
7.0179e-05 4.93663e-05 -5.68315e-07
-8.93029e-07 -5.68315e-07 -5.17321e-05
0.00174283 2.45015e-05 -3.61761e-07
2.45015e-05 7.91239e-05 1.01218e-06
-3.61761e-07 1.01218e-06 2.10209e-06
0.00170279 7.69834e-05 4.38491e-06
7.69834e-05 0.000125635 2.72093e-06
4.38491e-06 2.72093e-06 1.72441e-05
0.00166638 -1.29153e-05 -8.77731e-06
-1.29153e-05 -4.13506e-05 -7.5307e-06
-8.77731e-06 -7.5307e-06 -9.42674e-05
0.00163425 2.75378e-06 -2.13085e-06
2.75378e-06 0.000174163 -1.24703e-06
-2.13085e-06 -1.24703e-06 0.000121339
0.00123257 2.02697e-05 1.92737e-06
2.02697e-05 -6.18373e-05 5.6308e-07
1.92737e-06 5.6308e-07 -0.000116764
0.000420299 -6.51843e-06 8.51892e-07
-6.51843e-06 -0.000308111 2.30611e-06
8.51892e-07 2.30611e-06 -0.000347583
0.00217874 5.78434e-05 5.31704e-06
5.78434e-05 0.000241804 -2.47812e-06
5.31704e-06 -2.47812e-06 0.000192093
0.00211708 6.21763e-05 1.37153e-05
6.21763e-05 0.000348094 5.42752e-06
1.37153e-05 5.42752e-06 0.000274459
0.00169988 4.6309e-05 -2.65298e-06
4.6309e-05 0.000148061 -1.01238e-06
-2.65298e-06 -1.01238e-06 7.72416e-05
0.00144946 3.95908e-05 8.62911e-07
3.95908e-05 8.07855e-05 1.66219e-06
8.62911e-07 1.66219e-06 1.96058e-05
0.00145546 3.81507e-05 -3.74644e-06
3.81507e-05 7.9799e-05 -2.54015e-06
-3.74644e-06 -2.54015e-06 1.28407e-05
0.00156163 1.22636e-05 -7.8721e-07
1.22636e-05 7.66005e-05 -2.65348e-06
-7.8721e-07 -2.65348e-06 2.73174e-05
0.00157349 2.28714e-05 1.98619e-08
2.28714e-05 9.7429e-05 -2.71611e-07
1.98619e-08 -2.71611e-07 3.00854e-05
0.00152985 2.52702e-05 -2.88318e-06
2.52702e-05 9.09812e-05 -4.57386e-07
-2.88318e-06 -4.57386e-07 1.86281e-05
0.00148744 -1.00058e-05 -1.18752e-07
-1.00058e-05 6.98685e-05 -2.40983e-06
-1.18752e-07 -2.40983e-06 1.52832e-05
0.00140573 -7.13458e-06 2.78788e-07
-7.13458e-06 4.15676e-05 2.05039e-07
2.78788e-07 2.05039e-07 -2.58012e-05
0.00141822 -7.78381e-06 -1.39639e-06
-7.78381e-06 6.25531e-05 1.15622e-06
-1.39639e-06 1.15622e-06 -9.59644e-06
0.00136824 -2.82291e-05 3.46108e-07
-2.82291e-05 5.01373e-05 -2.2104e-06
3.46108e-07 -2.2104e-06 -1.1408e-05
0.00135534 -3.0447e-05 1.37379e-07
-3.0447e-05 5.77714e-05 -3.25776e-08
1.37379e-07 -3.25776e-08 -1.02938e-05
0.00131421 -3.23121e-05 -1.11631e-06
-3.23121e-05 5.65752e-05 1.18224e-06
-1.11631e-06 1.18224e-06 -1.29707e-05
0.00130051 -3.70171e-05 1.88021e-07
-3.70171e-05 5.63951e-05 -1.49479e-06
1.88021e-07 -1.49479e-06 -7.41686e-06
0.00127354 -3.69685e-05 -7.46079e-09
-3.69685e-05 5.85849e-05 -1.84899e-07
-7.46079e-09 -1.84899e-07 -7.85401e-06
0.00119675 -3.28991e-05 -1.56609e-06
-3.28991e-05 4.54684e-05 1.00968e-06
-1.56609e-06 1.00968e-06 -1.91326e-05
0.00112337 -3.62871e-05 7.32706e-07
-3.62871e-05 -6.66815e-07 -8.06673e-07
7.32706e-07 -8.06673e-07 -6.52966e-05
0.00116356 -3.35385e-05 -2.42785e-08
-3.35385e-05 4.41669e-05 -3.5488e-08
-2.42785e-08 -3.5488e-08 -1.87863e-05
0.00100502 -1.99737e-05 -2.72254e-06
-1.99737e-05 1.0421e-05 1.46236e-06
-2.72254e-06 1.46236e-06 -4.4368e-05
0.000936698 -3.26649e-05 1.49579e-06
-3.26649e-05 -5.06616e-05 -1.02039e-06
1.49579e-06 -1.02039e-06 -0.000114228
0.000966892 -1.88312e-05 -2.06162e-08
-1.88312e-05 8.21753e-06 7.41852e-08
-2.06162e-08 7.41852e-08 -4.61664e-05
0.00164345 2.28485e-05 -5.20268e-06
2.28485e-05 0.000400816 1.65878e-06
-5.20268e-06 1.65878e-06 0.000375443
0.00117895 3.0581e-05 -2.04293e-05
3.0581e-05 0.000176814 5.40212e-06
-2.04293e-05 5.40212e-06 0.00017185
0.00122066 2.49309e-05 -7.04486e-07
2.49309e-05 0.000187141 -4.82682e-10
-7.04486e-07 -4.82682e-10 0.000162774
0.000948663 -1.60294e-05 2.5955e-06
-1.60294e-05 1.47164e-05 -1.62275e-06
2.5955e-06 -1.62275e-06 -3.9252e-05
0.00271765 4.62643e-05 2.02586e-07
4.62643e-05 0.000941047 8.94249e-08
2.02586e-07 8.94249e-08 0.00094813
0.000836618 2.52497e-05 4.54372e-06
2.52497e-05 -8.04965e-06 -3.02391e-06
4.54372e-06 -3.02391e-06 -3.10769e-05
0.00259858 4.27462e-05 1.8821e-05
4.27462e-05 0.000873899 -3.26202e-06
1.8821e-05 -3.26202e-06 0.000883267
0.00116444 5.17468e-05 -8.98523e-07
5.17468e-05 -9.54143e-06 -6.43099e-07
-8.98523e-07 -6.43099e-07 -8.61745e-05
0.00086129 4.65752e-05 3.08608e-07
4.65752e-05 -7.67622e-05 -3.28913e-07
3.08608e-07 -3.28913e-07 -0.000156092
0.000887995 4.53786e-05 -6.84387e-08
4.53786e-05 -4.19391e-05 -7.02314e-08
-6.84387e-08 -7.02314e-08 -0.000119089
0.00111425 3.8278e-05 -1.31278e-06
3.8278e-05 7.82011e-05 -8.11672e-07
-1.31278e-06 -8.11672e-07 1.04639e-05
0.000779484 3.96363e-05 5.07288e-07
3.96363e-05 -7.38041e-05 5.8421e-07
5.07288e-07 5.8421e-07 -0.000147829
0.00104591 3.08574e-05 -7.46721e-08
3.08574e-05 5.91437e-05 -1.331e-08
-7.46721e-08 -1.331e-08 -7.40263e-06
0.00094836 4.06868e-06 -2.55845e-06
4.06868e-06 3.2765e-05 -1.24311e-06
-2.55845e-06 -1.24311e-06 -2.15449e-05
0.000988229 2.19921e-05 1.26184e-06
2.19921e-05 3.99536e-05 5.74511e-07
1.26184e-06 5.74511e-07 -2.58167e-05
0.000917108 -1.95755e-06 1.89216e-08
-1.95755e-06 1.72363e-05 6.21778e-08
1.89216e-08 6.21778e-08 -3.54468e-05
0.000825831 -3.0323e-05 -4.2426e-06
-3.0323e-05 -1.52604e-05 -2.98201e-06
-4.2426e-06 -2.98201e-06 -3.69601e-05
0.000911682 -4.79665e-06 2.63393e-06
-4.79665e-06 9.39756e-06 1.78971e-06
2.63393e-06 1.78971e-06 -4.08605e-05
0.000799131 -2.70436e-05 1.43604e-08
-2.70436e-05 -3.94151e-05 1.80679e-08
1.43604e-08 1.80679e-08 -5.76317e-05
0.0025871 -4.01281e-05 -1.82475e-05
-4.01281e-05 0.000861066 -3.43539e-06
-1.82475e-05 -3.43539e-06 0.000871689
0.000800694 -2.35657e-05 4.24571e-06
-2.35657e-05 -5.01479e-05 3.45831e-06
4.24571e-06 3.45831e-06 -6.52657e-05
0.00261445 -3.71524e-05 -2.09133e-07
-3.71524e-05 0.000862737 7.69052e-08
-2.09133e-07 7.69052e-08 0.000875526
0.00264148 -3.38473e-05 1.74004e-05
-3.38473e-05 0.000867012 3.83435e-06
1.74004e-05 3.83435e-06 0.000881488
0.00157486 -2.23918e-05 -7.52882e-07
-2.23918e-05 7.93031e-05 1.64007e-06
-7.52882e-07 1.64007e-06 2.0653e-05
0.00166124 -1.0776e-05 1.97048e-06
-1.0776e-05 8.42792e-05 -1.35372e-06
1.97048e-06 -1.35372e-06 3.38684e-05
0.00122289 -3.9e-05 -5.12493e-06
-3.9e-05 -3.14902e-05 -5.11034e-06
-5.12493e-06 -5.11034e-06 -6.59472e-05
0.00143941 5.58786e-05 -3.41864e-06
5.58786e-05 7.30565e-05 -2.93787e-06
-3.41864e-06 -2.93787e-06 -1.10861e-05
0.00145827 5.90128e-05 -6.67707e-08
5.90128e-05 0.000186258 3.69956e-07
-6.67707e-08 3.69956e-07 0.000110267
0.000853993 4.66116e-05 -2.53572e-06
4.66116e-05 -2.64502e-05 3.66345e-07
-2.53572e-06 3.66345e-07 -9.38154e-05
0.0012763 5.65152e-05 7.18051e-07
5.65152e-05 6.88026e-05 8.40467e-07
7.18051e-07 8.40467e-07 -1.26731e-05
0.00126288 5.51449e-05 -1.05632e-06
5.51449e-05 0.00011705 9.51648e-07
-1.05632e-06 9.51648e-07 3.79202e-05
0.00161345 2.04822e-05 -2.76431e-06
2.04822e-05 8.01913e-05 8.55767e-07
-2.76431e-06 8.55767e-07 -3.30805e-06
0.00156174 6.35216e-05 -1.29775e-06
6.35216e-05 0.000113243 -1.23043e-06
-1.29775e-06 -1.23043e-06 2.12111e-05
0.0013134 6.456e-05 1.40877e-06
6.456e-05 9.19013e-05 4.2787e-06
1.40877e-06 4.2787e-06 8.36164e-06
0.00163034 2.23445e-05 -2.10283e-07
2.23445e-05 6.42942e-05 6.04383e-07
-2.10283e-07 6.04383e-07 -1.52884e-05
0.00182675 7.66395e-05 3.43662e-06
7.66395e-05 0.000205988 2.18183e-06
3.43662e-06 2.18183e-06 0.000104097
0.00167894 2.24864e-05 7.35849e-06
2.24864e-05 4.95144e-05 6.64103e-09
7.35849e-06 6.64103e-09 -2.84318e-05
0.00118008 2.6836e-06 -1.88053e-06
2.6836e-06 -3.00955e-05 -4.24628e-07
-1.88053e-06 -4.24628e-07 -8.99085e-05
0.00142479 4.00907e-06 -2.72898e-07
4.00907e-06 7.29125e-05 -5.85871e-07
-2.72898e-07 -5.85871e-07 1.9654e-05
0.000609822 1.39337e-05 7.18708e-06
1.39337e-05 -0.000370637 5.20455e-06
7.18708e-06 5.20455e-06 -0.000424466
0.00191701 4.96622e-05 5.19983e-06
4.96622e-05 0.000242894 -9.28423e-07
5.19983e-06 -9.28423e-07 0.000172395
0.00153491 3.94791e-05 6.3186e-06
3.94791e-05 0.000124857 4.84464e-06
6.3186e-06 4.84464e-06 6.42472e-05
0.00153787 3.9003e-05 -1.05494e-06
3.9003e-05 0.000118178 -2.78715e-07
-1.05494e-06 -2.78715e-07 5.15811e-05
0.00141517 3.23775e-05 -1.73792e-06
3.23775e-05 7.19929e-05 -1.03979e-06
-1.73792e-06 -1.03979e-06 2.38301e-06
0.00155421 2.17072e-05 1.94166e-06
2.17072e-05 8.51782e-05 -8.1154e-07
1.94166e-06 -8.1154e-07 1.89679e-05
0.0015202 2.33987e-05 -4.21852e-07
2.33987e-05 8.3376e-05 -1.0701e-07
-4.21852e-07 -1.0701e-07 1.12019e-05
0.00139523 1.70783e-05 -2.60671e-06
1.70783e-05 4.13296e-05 -9.74878e-07
-2.60671e-06 -9.74878e-07 -3.09405e-05
0.00146257 -7.06175e-06 1.02101e-06
-7.06175e-06 7.03057e-05 -1.21694e-06
1.02101e-06 -1.21694e-06 2.45761e-06
0.00141491 -8.24033e-06 4.64319e-08
-8.24033e-06 6.0525e-05 3.30804e-07
4.64319e-08 3.30804e-07 -1.17251e-05
0.00137017 -1.45771e-05 -1.69272e-06
-1.45771e-05 5.99951e-05 8.27176e-07
-1.69272e-06 8.27176e-07 -1.23233e-05
0.00136289 -2.96288e-05 9.63959e-07
-2.96288e-05 6.0818e-05 -1.58975e-06
9.63959e-07 -1.58975e-06 -7.29254e-06
0.00132055 -3.20595e-05 7.28365e-08
-3.20595e-05 5.91037e-05 3.38925e-08
7.28365e-08 3.38925e-08 -1.04948e-05
0.00123576 -2.99467e-05 -1.77148e-06
-2.99467e-05 4.53888e-05 1.11841e-06
-1.77148e-06 1.11841e-06 -2.17398e-05
0.00127177 -3.66905e-05 8.15846e-07
-3.66905e-05 5.74901e-05 -1.22697e-06
8.15846e-07 -1.22697e-06 -8.93936e-06
0.0011978 -3.25836e-05 -1.68697e-08
-3.25836e-05 4.5781e-05 -9.1961e-08
-1.68697e-08 -9.1961e-08 -1.87984e-05
0.00103642 -2.11211e-05 -2.81338e-06
-2.11211e-05 1.12452e-05 1.49925e-06
-2.81338e-06 1.49925e-06 -4.51627e-05
0.00115068 -3.2975e-05 1.46924e-06
-3.2975e-05 3.80589e-05 -1.00547e-06
1.46924e-06 -1.00547e-06 -2.48317e-05
0.00099573 -1.96427e-05 -9.89637e-09
-1.96427e-05 6.58682e-06 2.03656e-09
-9.89637e-09 2.03656e-09 -4.82613e-05
0.00167328 1.64025e-05 -5.50706e-06
1.64025e-05 0.000414894 1.48899e-06
-5.50706e-06 1.48899e-06 0.000386772
0.00096364 -1.90458e-05 2.68835e-06
-1.90458e-05 7.07145e-06 -1.48011e-06
2.68835e-06 -1.48011e-06 -4.73221e-05
0.00166439 1.97974e-05 4.13865e-06
1.97974e-05 0.000408554 -9.15191e-07
4.13865e-06 -9.15191e-07 0.000383104
0.00119932 3.04936e-05 -2.25765e-05
3.04936e-05 0.000199457 5.24273e-06
-2.25765e-05 5.24273e-06 0.000189957
0.00200086 3.97342e-05 -1.38948e-05
3.97342e-05 0.000590133 1.73425e-06
-1.38948e-05 1.73425e-06 0.000589764
0.0016877 2.54125e-05 1.13209e-05
2.54125e-05 0.000418643 -2.54377e-06
1.13209e-05 -2.54377e-06 0.000396692
0.00270103 4.5748e-05 2.00906e-05
4.5748e-05 0.000934137 -3.20743e-06
2.00906e-05 -3.20743e-06 0.000940861
0.00142908 5.0912e-05 -2.78283e-06
5.0912e-05 6.58173e-05 -2.30877e-06
-2.78283e-06 -2.30877e-06 -1.38977e-05
0.00137877 5.38913e-05 1.16728e-06
5.38913e-05 0.000136421 -5.29445e-07
1.16728e-06 -5.29445e-07 6.06725e-05
0.00115976 5.14978e-05 9.05688e-07
5.14978e-05 -2.79715e-06 5.25385e-07
9.05688e-07 5.25385e-07 -7.5331e-05
0.00112106 4.28459e-05 -1.27681e-06
4.28459e-05 6.65796e-05 -1.28713e-06
-1.27681e-06 -1.28713e-06 -4.27918e-06
0.00110978 5.1663e-05 -2.89254e-07
5.1663e-05 3.98142e-05 1.43305e-07
-2.89254e-07 1.43305e-07 -3.94376e-05
0.000995156 4.7824e-05 5.00776e-07
4.7824e-05 5.71456e-06 8.7321e-07
5.00776e-07 8.7321e-07 -7.18527e-05
0.00108706 3.75888e-05 -3.51174e-08
3.75888e-05 6.71637e-05 -1.04269e-07
-3.51174e-08 -1.04269e-07 -7.06157e-07
0.000961077 1.16158e-05 -2.44648e-06
1.16158e-05 3.53742e-05 -1.27743e-06
-2.44648e-06 -1.27743e-06 -2.04873e-05
0.00100207 2.90916e-05 1.07353e-06
2.90916e-05 3.83553e-05 4.41047e-07
1.07353e-06 4.41047e-07 -2.80313e-05
0.00091763 1.90477e-06 2.5396e-08
1.90477e-06 1.9039e-05 7.98122e-08
2.5396e-08 7.98122e-08 -3.54227e-05
0.000818103 -2.82177e-05 -4.5283e-06
-2.82177e-05 -1.06276e-05 -2.73424e-06
-4.5283e-06 -2.73424e-06 -3.55815e-05
0.000894614 -3.50013e-06 2.51469e-06
-3.50013e-06 7.88024e-06 1.60931e-06
2.51469e-06 1.60931e-06 -4.50066e-05
0.000777042 -2.94183e-05 -7.42606e-09
-2.94183e-05 -3.926e-05 9.36301e-09
-7.42606e-09 9.36301e-09 -6.07716e-05
0.00261416 -4.30665e-05 -1.89576e-05
-4.30665e-05 0.000886225 -3.25985e-06
-1.89576e-05 -3.25985e-06 0.000894495
0.000765342 -2.62546e-05 4.36968e-06
-2.62546e-05 -5.65994e-05 3.29149e-06
4.36968e-06 3.29149e-06 -7.45797e-05
0.00263015 -4.04356e-05 -1.87558e-07
-4.04356e-05 0.000880441 7.98288e-08
-1.87558e-07 7.98288e-08 0.000891286
0.00265878 -3.7313e-05 1.78856e-05
-3.7313e-05 0.0008832 3.67302e-06
1.78856e-05 3.67302e-06 0.000896123
0.00149512 -1.98239e-05 -2.34981e-06
-1.98239e-05 6.07999e-05 2.27951e-06
-2.34981e-06 2.27951e-06 -7.74268e-06
0.00154965 -2.11719e-05 3.16828e-07
-2.11719e-05 6.98839e-05 -5.72045e-07
3.16828e-07 -5.72045e-07 1.08014e-05
0.00176261 -1.07175e-05 5.57671e-06
-1.07175e-05 0.000136713 -1.82717e-06
5.57671e-06 -1.82717e-06 8.46593e-05
0.0013203 2.33116e-05 -2.48077e-06
2.33116e-05 -3.96593e-05 2.5725e-07
-2.48077e-06 2.5725e-07 -0.000121106
0.00149137 5.65955e-05 1.29702e-07
5.65955e-05 9.9928e-05 -5.55354e-07
1.29702e-07 -5.55354e-07 1.57001e-05
0.00129968 5.60601e-05 -9.44278e-07
5.60601e-05 0.000122001 1.90611e-06
-9.44278e-07 1.90611e-06 4.79663e-05
0.00171388 6.32418e-05 1.37843e-06
6.32418e-05 0.000275904 1.25492e-06
1.37843e-06 1.25492e-06 0.000196181
0.00168119 2.22601e-05 -4.35645e-08
2.22601e-05 0.000112405 -1.50497e-07
-4.35645e-08 -1.50497e-07 2.88441e-05
0.00154913 6.44728e-05 2.1511e-06
6.44728e-05 0.000103485 1.99637e-06
2.1511e-06 1.99637e-06 9.87603e-06
0.0016993 2.08172e-05 3.27062e-06
2.08172e-05 9.55602e-05 -4.75202e-07
3.27062e-06 -4.75202e-07 1.55638e-05
0.00133648 1.96856e-06 -2.26747e-07
1.96856e-06 4.41163e-05 1.96515e-07
-2.26747e-07 1.96515e-07 -2.21102e-05
0.00129722 4.10068e-06 -3.06607e-09
4.10068e-06 2.15788e-05 -1.29435e-07
-3.06607e-09 -1.29435e-07 -3.98735e-05
0.00124844 5.84027e-06 1.66726e-06
5.84027e-06 -1.18278e-05 9.88702e-07
1.66726e-06 9.88702e-07 -6.56224e-05
0.00144282 3.23102e-05 -9.44478e-07
3.23102e-05 9.67263e-05 -3.1854e-07
-9.44478e-07 -3.1854e-07 2.4045e-05
0.00162227 3.98635e-05 3.55004e-06
3.98635e-05 0.000157381 1.65839e-06
3.55004e-06 1.65839e-06 9.11754e-05
0.00141109 3.25626e-05 3.25649e-07
3.25626e-05 6.95428e-05 1.57002e-07
3.25649e-07 1.57002e-07 -4.88221e-07
0.00145908 2.95751e-05 -1.32344e-06
2.95751e-05 8.91627e-05 -3.83645e-07
-1.32344e-06 -3.83645e-07 1.81203e-05
0.00152798 2.17704e-05 1.98378e-06
2.17704e-05 8.41294e-05 1.59383e-07
1.98378e-06 1.59383e-07 1.21255e-05
0.00143251 1.70292e-05 -6.25072e-07
1.70292e-05 5.88062e-05 -2.43734e-07
-6.25072e-07 -2.43734e-07 -1.33486e-05
0.00137514 1.23229e-05 -2.54087e-06
1.23229e-05 5.29276e-05 -4.25904e-07
-2.54087e-06 -4.25904e-07 -2.0278e-05
0.00141429 -8.08133e-06 2.0437e-06
-8.08133e-06 5.97899e-05 -5.18868e-07
2.0437e-06 -5.18868e-07 -1.25635e-05
0.0013649 -1.33502e-05 4.02029e-08
-1.33502e-05 5.75623e-05 1.27195e-07
4.02029e-08 1.27195e-07 -1.48364e-05
0.00128562 -2.02364e-05 -2.18201e-06
-2.02364e-05 4.98658e-05 8.14464e-07
-2.18201e-06 8.14464e-07 -1.92565e-05
0.0013277 -3.17575e-05 1.42299e-06
-3.17575e-05 6.20171e-05 -1.11978e-06
1.42299e-06 -1.11978e-06 -7.631e-06
0.00124029 -2.97049e-05 2.24896e-08
-2.97049e-05 4.73166e-05 5.8793e-08
2.24896e-08 5.8793e-08 -1.98348e-05
0.00107953 -2.09699e-05 -3.13069e-06
-2.09699e-05 1.68925e-05 1.57358e-06
-3.13069e-06 1.57358e-06 -4.18678e-05
0.0011984 -3.22047e-05 1.58611e-06
-3.22047e-05 4.58772e-05 -1.18401e-06
1.58611e-06 -1.18401e-06 -1.86784e-05
0.00103134 -2.03756e-05 7.00972e-08
-2.03756e-05 8.92495e-06 -5.06111e-08
7.00972e-08 -5.06111e-08 -4.75583e-05
0.00169561 1.15387e-05 -5.54591e-06
1.15387e-05 0.000424442 1.37906e-06
-5.54591e-06 1.37906e-06 0.000394188
0.000987768 -1.93388e-05 2.70509e-06
-1.93388e-05 3.38129e-06 -1.43288e-06
2.70509e-06 -1.43288e-06 -5.15247e-05
0.00169985 1.39161e-05 4.41143e-06
1.39161e-05 0.000425147 -8.2447e-07
4.41143e-06 -8.2447e-07 0.000397014
0.00121892 3.02456e-05 -2.41117e-05
3.02456e-05 0.000221918 4.78206e-06
-2.41117e-05 4.78206e-06 0.000208752
0.00168825 1.68424e-05 1.38476e-05
1.68424e-05 0.000417718 -3.51397e-06
1.38476e-05 -3.51397e-06 0.000392208
0.00117555 3.28074e-05 -8.48939e-06
3.28074e-05 0.000188791 1.95863e-06
-8.48939e-06 1.95863e-06 0.000179367
0.00280937 5.27155e-05 8.73399e-06
5.27155e-05 0.000997315 -1.25787e-06
8.73399e-06 -1.25787e-06 0.00100122
0.001632 3.02077e-05 -2.44875e-06
3.02077e-05 0.000136973 -7.22502e-07
-2.44875e-06 -7.22502e-07 5.54479e-05
0.00143695 4.93877e-05 -1.04406e-06
4.93877e-05 0.000101785 -2.06861e-06
-1.04406e-06 -2.06861e-06 2.48358e-05
0.00147576 5.21166e-05 -1.1007e-06
5.21166e-05 9.6851e-05 8.96362e-07
-1.1007e-06 8.96362e-07 1.77988e-05
0.00142557 4.88586e-05 -8.75444e-07
4.88586e-05 0.000184829 -6.87868e-07
-8.75444e-07 -6.87868e-07 0.00011378
0.00124893 5.23572e-05 4.22484e-07
5.23572e-05 7.22605e-05 -7.46168e-07
4.22484e-07 -7.46168e-07 -3.35775e-06
0.00120058 5.18535e-05 2.33257e-06
5.18535e-05 2.61589e-05 1.59189e-06
2.33257e-06 1.59189e-06 -4.23691e-05
0.000987532 2.2067e-05 -2.47539e-06
2.2067e-05 3.69304e-05 -1.63864e-06
-2.47539e-06 -1.63864e-06 -2.20269e-05
0.00111674 4.30224e-05 -4.93972e-08
4.30224e-05 6.43833e-05 -9.68044e-08
-4.93972e-08 -9.68044e-08 -6.49727e-06
0.00133429 5.62501e-05 1.27388e-06
5.62501e-05 0.000145619 1.39261e-06
1.27388e-06 1.39261e-06 6.63696e-05
0.00104478 3.65147e-05 1.10297e-06
3.65147e-05 4.88708e-05 5.30094e-07
1.10297e-06 5.30094e-07 -1.91171e-05
0.000933619 9.58108e-06 1.11266e-09
9.58108e-06 2.35138e-05 -1.28367e-08
1.11266e-09 -1.28367e-08 -3.25125e-05
0.000820393 -2.20313e-05 -4.89283e-06
-2.20313e-05 -4.75689e-06 -2.66047e-06
-4.89283e-06 -2.66047e-06 -3.34688e-05
0.000889775 -4.47698e-07 2.4182e-06
-4.47698e-07 6.68829e-06 1.31149e-06
2.4182e-06 1.31149e-06 -4.79441e-05
0.000762392 -3.09924e-05 -1.61655e-08
-3.09924e-05 -3.68633e-05 -1.55952e-08
-1.61655e-08 -1.55952e-08 -6.19622e-05
0.0026662 -4.58026e-05 -1.99862e-05
-4.58026e-05 0.000925014 -3.0999e-06
-1.99862e-05 -3.0999e-06 0.000930547
0.000730367 -2.8526e-05 4.37461e-06
-2.8526e-05 -6.22612e-05 3.11951e-06
4.37461e-06 3.11951e-06 -8.35816e-05
0.00265435 -4.3494e-05 -1.9034e-07
-4.3494e-05 0.000903849 8.23632e-08
-1.9034e-07 8.23632e-08 0.000912423
0.00267359 -4.06817e-05 1.82621e-05
-4.06817e-05 0.000900044 3.48079e-06
1.82621e-05 3.48079e-06 0.000911108
0.00149832 -1.15306e-05 -1.08273e-06
-1.15306e-05 7.10684e-05 1.17274e-06
-1.08273e-06 1.17274e-06 -4.4001e-07
0.00160182 -1.94045e-05 -1.283e-07
-1.94045e-05 0.000105373 6.0363e-07
-1.283e-07 6.0363e-07 3.59759e-05
0.00149399 -1.98717e-05 1.76133e-06
-1.98717e-05 4.60411e-05 -2.67784e-06
1.76133e-06 -2.67784e-06 -1.34715e-05
0.00147778 2.3869e-05 1.37729e-07
2.3869e-05 3.03443e-05 -1.65359e-07
1.37729e-07 -1.65359e-07 -5.09864e-05
0.00154915 5.74194e-05 1.85207e-06
5.74194e-05 0.000130082 1.33306e-06
1.85207e-06 1.33306e-06 4.56951e-05
0.00181293 2.37655e-05 2.86514e-06
2.37655e-05 0.000174813 -6.17745e-07
2.86514e-06 -6.17745e-07 9.1256e-05
0.00137387 1.07995e-06 -8.42369e-07
1.07995e-06 5.97631e-05 2.8375e-07
-8.42369e-07 2.8375e-07 -1.25224e-05
0.00132325 3.67964e-06 5.71176e-07
3.67964e-06 4.10483e-05 -1.57954e-07
5.71176e-07 -1.57954e-07 -2.5402e-05
0.00141746 5.30872e-06 1.94165e-06
5.30872e-06 7.47143e-05 2.66058e-07
1.94165e-06 2.66058e-07 1.16138e-05
0.00140567 2.44656e-05 -5.52862e-07
2.44656e-05 7.93111e-05 -6.20414e-08
-5.52862e-07 -6.20414e-08 6.66172e-06
0.00143496 2.27597e-05 -6.14099e-07
2.27597e-05 9.5411e-05 -2.54106e-08
-6.14099e-07 -2.54106e-08 2.02625e-05
0.00139607 3.27417e-05 2.08083e-06
3.27417e-05 6.20787e-05 8.7704e-07
2.08083e-06 8.7704e-07 -8.40301e-06
0.00142255 2.9057e-05 3.66356e-07
2.9057e-05 7.26774e-05 3.42036e-07
3.66356e-07 3.42036e-07 1.55959e-06
0.00148895 2.66753e-05 -1.0245e-06
2.66753e-05 0.000113967 -2.63673e-07
-1.0245e-06 -2.63673e-07 4.18314e-05
0.00146654 1.63414e-05 1.89918e-06
1.63414e-05 7.47726e-05 4.37602e-07
1.89918e-06 4.37602e-07 2.73357e-06
0.00138683 1.10734e-05 -5.08053e-07
1.10734e-05 5.80746e-05 -6.0431e-08
-5.08053e-07 -6.0431e-08 -1.49182e-05
0.0013015 4.36942e-06 -2.95888e-06
4.36942e-06 4.77388e-05 3.20784e-07
-2.95888e-06 3.20784e-07 -2.26968e-05
0.00136043 -1.36067e-05 1.72112e-06
-1.36067e-05 5.5421e-05 -5.54862e-07
1.72112e-06 -5.54862e-07 -1.70359e-05
0.00128284 -1.9545e-05 5.25591e-08
-1.9545e-05 4.84775e-05 5.63758e-08
5.25591e-08 5.63758e-08 -2.07031e-05
0.00110602 -1.455e-05 -3.54006e-06
-1.455e-05 1.52206e-05 1.3185e-06
-3.54006e-06 1.3185e-06 -4.50632e-05
0.00124556 -2.94169e-05 1.95417e-06
-2.94169e-05 4.95928e-05 -9.97834e-07
1.95417e-06 -9.97834e-07 -1.75791e-05
0.00107408 -2.02352e-05 1.30417e-07
-2.02352e-05 1.38142e-05 4.48424e-08
1.30417e-07 4.48424e-08 -4.50009e-05
0.00173751 7.5455e-06 -5.70839e-06
7.5455e-06 0.000441745 1.28586e-06
-5.70839e-06 1.28586e-06 0.000410025
0.0010268 -1.97622e-05 2.85252e-06
-1.97622e-05 6.88559e-06 -1.51874e-06
2.85252e-06 -1.51874e-06 -4.96789e-05
0.00173891 8.80221e-06 4.7253e-06
8.80221e-06 0.000443039 -7.01866e-07
4.7253e-06 -7.01866e-07 0.000412738
0.00123236 2.94157e-05 -2.56435e-05
2.94157e-05 0.000239909 4.18913e-06
-2.56435e-05 4.18913e-06 0.000223836
0.00172809 1.11655e-05 1.45881e-05
1.11655e-05 0.000436186 -3.22089e-06
1.45881e-05 -3.22089e-06 0.000408059
0.00120689 3.30796e-05 -9.08464e-06
3.30796e-05 0.000217127 1.76232e-06
-9.08464e-06 1.76232e-06 0.000203904
0.00114768 3.52827e-05 6.0121e-06
3.52827e-05 0.000176172 -1.3714e-06
6.0121e-06 -1.3714e-06 0.000166809
0.00150246 -1.82995e-06 -1.25299e-06
-1.82995e-06 7.25745e-05 1.11316e-06
-1.25299e-06 1.11316e-06 8.56745e-07
0.0014524 3.26418e-05 -2.3961e-06
3.26418e-05 7.54414e-05 -5.27352e-07
-2.3961e-06 -5.27352e-07 -3.54158e-06
0.0015872 2.98747e-05 -8.23658e-07
2.98747e-05 0.000111313 -6.37436e-07
-8.23658e-07 -6.37436e-07 2.96268e-05
0.00137747 4.56652e-05 -1.71365e-06
4.56652e-05 0.00011544 -1.03796e-06
-1.71365e-06 -1.03796e-06 4.30792e-05
0.00148976 5.00633e-05 6.37725e-07
5.00633e-05 0.000131186 4.50374e-07
6.37725e-07 4.50374e-07 5.45625e-05
0.00148555 5.27406e-05 3.07512e-06
5.27406e-05 0.000110263 2.4242e-06
3.07512e-06 2.4242e-06 3.19013e-05
0.000972398 2.83175e-05 -2.79885e-06
2.83175e-05 3.93234e-06 -1.46027e-06
-2.79885e-06 -1.46027e-06 -5.73756e-05
0.00116304 4.5202e-05 7.07392e-07
4.5202e-05 5.48399e-05 5.0257e-07
7.07392e-07 5.0257e-07 -1.72084e-05
0.0011083 5.06698e-05 1.20675e-06
5.06698e-05 2.3636e-06 1.59726e-06
1.20675e-06 1.59726e-06 -7.3044e-05
0.000831409 -6.46578e-06 -5.43945e-06
-6.46578e-06 9.18518e-08 -2.85005e-06
-5.43945e-06 -2.85005e-06 -3.31175e-05
0.000956719 2.08031e-05 -5.80556e-08
2.08031e-05 2.20303e-05 -8.57276e-08
-5.80556e-08 -8.57276e-08 -3.68133e-05
0.0011178 4.33013e-05 1.27746e-06
4.33013e-05 6.47912e-05 1.10945e-06
1.27746e-06 1.10945e-06 -6.11642e-06
0.00089204 7.53633e-06 2.23193e-06
7.53633e-06 4.74862e-06 1.12029e-06
2.23193e-06 1.12029e-06 -5.13883e-05
0.000759303 -2.19155e-05 -9.59699e-08
-2.19155e-05 -3.20296e-05 -6.15733e-08
-9.59699e-08 -6.15733e-08 -6.08422e-05
0.002768 -4.83069e-05 -2.16821e-05
-4.83069e-05 0.000989284 -3.0053e-06
-2.16821e-05 -3.0053e-06 0.000991586
0.00070538 -3.01571e-05 4.36721e-06
-3.01571e-05 -6.39891e-05 2.91802e-06
4.36721e-06 2.91802e-06 -8.90292e-05
0.00268769 -4.62777e-05 -2.14367e-07
-4.62777e-05 0.000933267 8.47316e-08
-2.14367e-07 8.47316e-08 0.000939218
0.0026959 -4.38776e-05 1.87123e-05
-4.38776e-05 0.000922141 3.2839e-06
1.87123e-05 3.2839e-06 0.000931019
0.00146944 -1.73828e-05 -5.75488e-07
-1.73828e-05 7.92971e-05 -3.052e-07
-5.75488e-07 -3.052e-07 4.87473e-06
0.00152822 -1.18141e-05 -3.27536e-07
-1.18141e-05 8.27385e-05 2.54776e-07
-3.27536e-07 2.54776e-07 1.09277e-05
0.00162489 -1.87283e-05 1.37555e-06
-1.87283e-05 0.000110547 -1.42438e-06
1.37555e-06 -1.42438e-06 4.02122e-05
0.00161042 2.42242e-05 2.92762e-06
2.42242e-05 8.84299e-05 -6.97128e-08
2.92762e-06 -6.97128e-08 7.2209e-06
0.00137445 -1.47048e-06 -9.37152e-07
-1.47048e-06 5.64765e-05 -2.89334e-07
-9.37152e-07 -2.89334e-07 -1.97989e-05
0.00140638 1.17302e-06 -2.46569e-07
1.17302e-06 7.59047e-05 -1.17482e-07
-2.46569e-07 -1.17482e-07 4.03281e-06
0.00131116 5.40456e-06 8.86147e-07
5.40456e-06 3.82404e-05 3.05965e-08
8.86147e-07 3.05965e-08 -2.83966e-05
0.00135675 1.98534e-05 -4.98162e-08
1.98534e-05 5.63567e-05 2.7016e-07
-4.98162e-08 2.7016e-07 -1.63977e-05
0.00139159 2.68701e-05 9.89909e-08
2.68701e-05 7.453e-05 -1.13757e-07
9.89909e-08 -1.13757e-07 -6.72049e-07
0.00140022 2.40889e-05 -1.53233e-06
2.40889e-05 8.49614e-05 1.40945e-07
-1.53233e-06 1.40945e-07 1.10209e-05
0.0013887 2.85488e-05 2.08739e-06
2.85488e-05 5.73803e-05 1.15257e-06
2.08739e-06 1.15257e-06 -1.38019e-05
0.00144898 2.65955e-05 4.07069e-07
2.65955e-05 9.62993e-05 2.14346e-07
4.07069e-07 2.14346e-07 2.42367e-05
0.00127769 2.39538e-05 -2.31625e-06
2.39538e-05 3.48897e-05 -1.89641e-07
-2.31625e-06 -1.89641e-07 -3.60056e-05
0.00139256 1.1288e-05 1.42796e-06
1.1288e-05 6.04823e-05 3.25219e-07
1.42796e-06 3.25219e-07 -1.23236e-05
0.00129885 5.82864e-06 -2.54532e-07
5.82864e-06 4.63245e-05 1.32619e-07
-2.54532e-07 1.32619e-07 -2.40058e-05
0.00111651 1.99813e-06 -3.78945e-06
1.99813e-06 1.15434e-05 8.99984e-07
-3.78945e-06 8.99984e-07 -4.95172e-05
0.00127907 -1.67214e-05 2.22488e-06
-1.67214e-05 4.66638e-05 -6.69695e-07
2.22488e-06 -6.69695e-07 -2.25594e-05
0.00110629 -1.60439e-05 7.90248e-08
-1.60439e-05 1.50097e-05 1.03808e-07
7.90248e-08 1.03808e-07 -4.53604e-05
0.000707357 -6.60767e-07 -6.04469e-06
-6.60767e-07 -7.83948e-05 1.90621e-06
-6.04469e-06 1.90621e-06 -0.000116272
0.00107067 -1.95396e-05 3.23335e-06
-1.95396e-05 1.17394e-05 -1.39808e-06
3.23335e-06 -1.39808e-06 -4.71362e-05
0.00125492 -3.40877e-07 6.13602e-06
-3.40877e-07 0.000197787 -4.71657e-07
6.13602e-06 -4.71657e-07 0.000163278
0.00338161 6.11002e-05 -2.74191e-05
6.11002e-05 0.00132276 1.87903e-06
-2.74191e-05 1.87903e-06 0.00131629
0.00178146 6.15918e-06 1.55034e-05
6.15918e-06 0.000461211 -2.92484e-06
1.55034e-05 -2.92484e-06 0.000430902
0.00123938 3.29659e-05 -9.78536e-06
3.29659e-05 0.000244771 1.51661e-06
-9.78536e-06 1.51661e-06 0.000228457
0.0011925 3.61532e-05 6.36343e-06
3.61532e-05 0.000211221 -1.28531e-06
6.36343e-06 -1.28531e-06 0.000197914
0.00154184 -1.14894e-05 -4.35661e-07
-1.14894e-05 0.000111388 -1.13159e-07
-4.35661e-07 -1.13159e-07 3.8585e-05
0.00135773 5.7156e-06 -1.59635e-06
5.7156e-06 2.41325e-05 7.22032e-07
-1.59635e-06 7.22032e-07 -4.92495e-05
0.00147154 -1.74236e-06 1.13179e-07
-1.74236e-06 6.07299e-05 -5.47491e-08
1.13179e-07 -5.47491e-08 -1.12491e-05
0.0010493 3.20249e-05 -2.63911e-06
3.20249e-05 -7.93675e-05 -8.17543e-07
-2.63911e-06 -8.17543e-07 -0.000153931
0.00147957 3.2791e-05 1.43875e-07
3.2791e-05 9.08483e-05 -7.21108e-09
1.43875e-07 -7.21108e-09 1.27165e-05
0.00153807 2.96573e-05 1.91218e-06
2.96573e-05 8.36851e-05 -3.17895e-07
1.91218e-06 -3.17895e-07 1.82456e-06
0.000721892 2.57455e-05 -4.03518e-06
2.57455e-05 -0.00015452 -1.77469e-06
-4.03518e-06 -1.77469e-06 -0.000218522
0.00138062 4.61007e-05 4.09554e-07
4.61007e-05 0.000116385 1.35364e-08
4.09554e-07 1.35364e-08 4.39978e-05
0.0015474 5.08758e-05 2.09873e-06
5.08758e-05 0.000163308 1.78958e-06
2.09873e-06 1.78958e-06 8.69485e-05
0.000816594 6.16253e-06 -6.13274e-06
6.16253e-06 -1.49602e-05 -2.82471e-06
-6.13274e-06 -2.82471e-06 -5.24889e-05
0.000826237 2.59081e-05 -9.29625e-08
2.59081e-05 -7.0145e-05 9.66507e-08
-9.29625e-08 9.66507e-08 -0.000132274
0.000903039 4.15679e-05 2.27781e-06
4.15679e-05 -7.39739e-05 1.87586e-06
2.27781e-06 1.87586e-06 -0.000147018
0.00299673 -5.08537e-05 -2.48192e-05
-5.08537e-05 0.00111482 -2.93697e-06
-2.48192e-05 -2.93697e-06 0.00111346
0.000759228 -9.01467e-06 -1.42837e-07
-9.01467e-06 -3.12374e-05 -6.81965e-08
-1.42837e-07 -6.81965e-08 -6.46695e-05
0.000929274 1.94616e-05 2.23018e-06
1.94616e-05 8.76247e-06 1.42241e-06
2.23018e-06 1.42241e-06 -4.99739e-05
0.000695425 -2.62817e-05 4.31859e-06
-2.62817e-05 -6.00595e-05 2.78503e-06
4.31859e-06 2.78503e-06 -8.92725e-05
0.0027781 -4.9153e-05 -2.09931e-07
-4.9153e-05 0.000991963 9.56179e-08
-2.09931e-07 9.56179e-08 0.000994764
0.00272647 -4.68082e-05 1.93449e-05
-4.68082e-05 0.000949743 3.09307e-06
1.93449e-05 3.09307e-06 0.000956107
0.00142058 -1.68722e-05 -1.24478e-06
-1.68722e-05 6.93617e-05 -1.24057e-07
-1.24478e-06 -1.24057e-07 -5.55731e-06
0.00145838 -1.71797e-05 -2.79466e-07
-1.71797e-05 7.56389e-05 -3.35972e-07
-2.79466e-07 -3.35972e-07 1.77014e-06
0.00157396 -1.20425e-05 1.14755e-06
-1.20425e-05 0.000102036 -9.27668e-07
1.14755e-06 -9.27668e-07 2.99223e-05
0.00144279 1.26285e-05 -1.2216e-06
1.26285e-05 9.15054e-05 9.15196e-11
-1.2216e-06 9.15196e-11 1.45513e-05
0.00141645 1.83321e-06 -2.40542e-07
1.83321e-06 7.60663e-05 -1.77804e-07
-2.40542e-07 -1.77804e-07 -5.17391e-07
0.00145605 -1.52492e-06 4.32875e-09
-1.52492e-06 0.000100274 3.21434e-08
4.32875e-09 3.21434e-08 2.89028e-05
0.00134978 2.95585e-05 8.72788e-07
2.95585e-05 5.43076e-05 -4.96504e-07
8.72788e-07 -4.96504e-07 -2.08616e-05
0.00139654 2.61003e-05 2.33148e-07
2.61003e-05 8.24951e-05 1.5223e-07
2.33148e-07 1.5223e-07 8.6516e-06
0.00141556 2.01265e-05 -1.80367e-06
2.01265e-05 0.000109371 3.01003e-07
-1.80367e-06 3.01003e-07 3.90552e-05
0.00141418 2.65437e-05 2.0942e-06
2.65437e-05 8.10917e-05 9.60417e-07
2.0942e-06 9.60417e-07 9.10335e-06
0.00137951 2.57421e-05 9.89984e-08
2.57421e-05 8.72656e-05 5.92319e-08
9.89984e-08 5.92319e-08 1.71308e-05
0.000910086 1.86197e-05 -4.54637e-06
1.86197e-05 -9.53034e-05 5.76371e-07
-4.54637e-06 5.76371e-07 -0.000158481
0.00129168 5.02159e-06 2.15043e-06
5.02159e-06 4.27552e-05 -8.84057e-09
2.15043e-06 -8.84057e-09 -2.74977e-05
0.00110917 3.20544e-06 -2.50623e-08
3.20544e-06 7.90228e-06 6.08821e-08
-2.50623e-08 6.08821e-08 -5.31408e-05
0.000711521 5.61834e-06 -6.0777e-06
5.61834e-06 -7.87114e-05 1.58819e-06
-6.0777e-06 1.58819e-06 -0.000116953
0.00110381 -1.56557e-05 3.69194e-06
-1.56557e-05 1.34269e-05 -1.08057e-06
3.69194e-06 -1.08057e-06 -4.70011e-05
0.000721287 2.00628e-06 -8.93932e-08
2.00628e-06 -7.23601e-05 1.10951e-07
-8.93932e-08 1.10951e-07 -0.000110297
0.0034483 6.42839e-05 -2.83025e-05
6.42839e-05 0.00135999 1.39703e-06
-2.83025e-05 1.39703e-06 0.00135255
0.00076351 -8.72027e-06 8.16015e-06
-8.72027e-06 -5.01592e-05 -2.87728e-06
8.16015e-06 -2.87728e-06 -8.78213e-05
0.00235981 4.97665e-05 8.35278e-06
4.97665e-05 0.000812643 5.22327e-07
8.35278e-06 5.22327e-07 0.00079993
0.00124621 3.69431e-05 6.68058e-06
3.69431e-05 0.000249607 -1.17805e-06
6.68058e-06 -1.17805e-06 0.000233002
0.00159359 -1.89342e-05 -8.34529e-07
-1.89342e-05 0.000152349 -6.64553e-09
-8.34529e-07 -6.64553e-09 7.84978e-05
0.0014103 -7.10171e-06 -1.13938e-06
-7.10171e-06 6.15036e-05 3.26009e-08
-1.13938e-06 3.26009e-08 -1.01971e-05
0.0014371 -1.12237e-05 -1.87973e-07
-1.12237e-05 6.05075e-05 4.30004e-08
-1.87973e-07 4.30004e-08 -1.213e-05
0.00127727 1.32115e-05 -2.15743e-06
1.32115e-05 2.32073e-05 1.91869e-07
-2.15743e-06 1.91869e-07 -4.80519e-05
0.00135953 5.20508e-06 4.25471e-07
5.20508e-06 2.75569e-05 -1.88902e-07
4.25471e-07 -1.88902e-07 -4.56243e-05
0.00145152 -1.76928e-06 1.40507e-06
-1.76928e-06 5.4097e-05 -8.28553e-07
1.40507e-06 -8.28553e-07 -1.81463e-05
0.00078272 2.282e-05 -4.50229e-06
2.282e-05 -0.000152785 -1.49621e-06
-4.50229e-06 -1.49621e-06 -0.000217548
0.00136053 3.61317e-05 -5.46184e-07
3.61317e-05 7.35858e-05 -8.58186e-08
-5.46184e-07 -8.58186e-08 1.99212e-07
0.00150407 3.29333e-05 2.50738e-06
3.29333e-05 0.000104936 -1.1143e-07
2.50738e-06 -1.1143e-07 2.7659e-05
0.000783299 1.35854e-05 -6.83262e-06
1.35854e-05 -4.13608e-05 -2.70707e-06
-6.83262e-06 -2.70707e-06 -8.13412e-05
0.000778927 2.70903e-05 -9.9429e-07
2.70903e-05 -0.000130281 -4.00406e-07
-9.9429e-07 -4.00406e-07 -0.000194565
0.00138756 4.66255e-05 2.48576e-06
4.66255e-05 0.000119192 1.21659e-06
2.48576e-06 1.21659e-06 4.6769e-05
0.00328245 -5.30047e-05 -2.86942e-05
-5.30047e-05 0.00126495 -2.69418e-06
-2.86942e-05 -2.69418e-06 0.0012604
0.000754879 4.03335e-06 -2.05586e-07
4.03335e-06 -4.09505e-05 8.96446e-08
-2.05586e-07 8.96446e-08 -7.86827e-05
0.000683965 2.35901e-05 2.57842e-06
2.35901e-05 -0.000142475 1.7963e-06
2.57842e-06 1.7963e-06 -0.000205417
0.0029512 -5.21102e-05 -2.41021e-07
-5.21102e-05 0.00109079 1.20089e-07
-2.41021e-07 1.20089e-07 0.00109004
0.000687288 -1.0899e-05 4.78974e-06
-1.0899e-05 -6.23956e-05 2.90256e-06
4.78974e-06 2.90256e-06 -9.60158e-05
0.00277538 -4.95228e-05 2.00991e-05
-4.95228e-05 0.000988204 2.92734e-06
2.00991e-05 2.92734e-06 0.000991584
0.00144653 -2.99615e-06 -1.23772e-06
-2.99615e-06 9.11714e-05 -2.04721e-07
-1.23772e-06 -2.04721e-07 1.572e-05
0.00143738 -1.60005e-05 2.90324e-07
-1.60005e-05 7.7092e-05 7.2015e-08
2.90324e-07 7.2015e-08 2.1253e-06
0.00143799 -1.67378e-05 2.85287e-07
-1.67378e-05 6.72895e-05 -6.12902e-07
2.85287e-07 -6.12902e-07 -5.98906e-06
0.00143469 1.36038e-06 -2.16112e-06
1.36038e-06 0.000105591 4.16871e-08
-2.16112e-06 4.16871e-08 3.25277e-05
0.00145567 1.26077e-05 1.98945e-07
1.26077e-05 9.94626e-05 -6.57257e-08
1.98945e-07 -6.57257e-08 2.25391e-05
0.00145685 7.48006e-06 1.21263e-06
7.48006e-06 9.50894e-05 1.89676e-08
1.21263e-06 1.89676e-08 1.8061e-05
0.00139682 2.69812e-05 1.56432e-06
2.69812e-05 8.19375e-05 -2.47511e-07
1.56432e-06 -2.47511e-07 8.22422e-06
0.00140955 2.0664e-05 4.1593e-07
2.0664e-05 0.000105893 -4.32841e-08
4.1593e-07 -4.32841e-08 3.57409e-05
0.000902281 1.31273e-05 -4.43661e-06
1.31273e-05 -0.000102409 6.01383e-07
-4.43661e-06 6.01383e-07 -0.000166504
0.00148949 2.75271e-05 2.42393e-06
2.75271e-05 0.000143601 2.03026e-07
2.42393e-06 2.03026e-07 7.42259e-05
0.00101712 2.00854e-05 -6.74581e-07
2.00854e-05 -4.15844e-05 1.53022e-07
-6.74581e-07 1.53022e-07 -0.000104001
0.000721284 9.48833e-06 -6.48499e-06
9.48833e-06 -7.57721e-05 1.34379e-06
-6.48499e-06 1.34379e-06 -0.000115166
0.00110327 2.14587e-06 3.69678e-06
2.14587e-06 4.91904e-06 -7.67292e-07
3.69678e-06 -7.67292e-07 -5.61102e-05
0.000716886 1.26115e-05 1.30704e-07
1.26115e-05 -7.62147e-05 4.64933e-08
1.30704e-07 4.64933e-08 -0.000114732
0.00351639 6.71952e-05 -3.00536e-05
6.71952e-05 0.00139784 9.11499e-07
-3.00536e-05 9.11499e-07 0.0013895
0.00073241 6.67495e-06 5.91918e-06
6.67495e-06 -6.78399e-05 -1.71638e-06
5.91918e-06 -1.71638e-06 -0.0001057
0.00346657 6.35841e-05 1.75091e-07
6.35841e-05 0.0013698 1.28221e-07
1.75091e-07 1.28221e-07 0.00136229
0.00135496 3.00181e-05 2.50833e-05
3.00181e-05 0.000310177 -1.87748e-06
2.50833e-05 -1.87748e-06 0.000291928
0.00154925 -1.37277e-05 -1.21316e-06
-1.37277e-05 0.00014197 -9.96841e-08
-1.21316e-06 -9.96841e-08 6.9209e-05
0.00147962 -1.88237e-05 3.68693e-07
-1.88237e-05 9.64799e-05 1.28854e-07
3.68693e-07 1.28854e-07 2.2567e-05
0.00129807 -6.57656e-06 -1.88802e-06
-6.57656e-06 3.58136e-05 -1.27029e-07
-1.88802e-06 -1.27029e-07 -3.44163e-05
0.00140605 -7.66171e-06 1.9507e-07
-7.66171e-06 5.94696e-05 -1.5946e-07
1.9507e-07 -1.5946e-07 -1.2205e-05
0.00132971 -1.09827e-05 1.21346e-06
-1.09827e-05 8.45892e-06 1.74266e-07
1.21346e-06 1.74266e-07 -6.40255e-05
0.00111327 1.19055e-05 -3.95686e-06
1.19055e-05 -9.77534e-07 -7.7199e-07
-3.95686e-06 -7.7199e-07 -6.35104e-05
0.00131432 1.32371e-05 -2.06022e-08
1.32371e-05 4.03819e-05 1.01918e-07
-2.06022e-08 1.01918e-07 -3.09637e-05
0.00136611 4.74542e-06 1.39205e-06
4.74542e-06 3.308e-05 -8.69599e-07
1.39205e-06 -8.69599e-07 -3.98781e-05
0.000753679 1.47743e-05 -7.27145e-06
1.47743e-05 -6.33473e-05 -2.50548e-06
-7.27145e-06 -2.50548e-06 -0.000103744
0.000969103 2.54354e-05 -1.15218e-06
2.54354e-05 -6.19531e-05 -2.74194e-07
-1.15218e-06 -2.74194e-07 -0.000126082
0.00166928 4.00898e-05 2.08332e-06
4.00898e-05 0.000225255 5.16339e-07
2.08332e-06 5.16339e-07 0.000153065
0.0035226 -5.48121e-05 -3.19392e-05
-5.48121e-05 0.00138959 -2.30861e-06
-3.19392e-05 -2.30861e-06 0.00138289
0.000747976 1.24497e-05 -9.21334e-08
1.24497e-05 -5.55838e-05 1.37052e-07
-9.21334e-08 1.37052e-07 -9.57516e-05
0.000831262 2.84522e-05 2.41404e-06
2.84522e-05 -0.000108339 1.15953e-06
2.41404e-06 1.15953e-06 -0.000172897
0.00321206 -5.48304e-05 -3.9548e-07
-5.48304e-05 0.00122938 1.61184e-07
-3.9548e-07 1.61184e-07 0.00122531
0.000695308 1.92764e-06 5.38797e-06
1.92764e-06 -6.59296e-05 3.10429e-06
5.38797e-06 3.10429e-06 -0.000103861
0.00290858 -5.25499e-05 2.13299e-05
-5.25499e-05 0.001068 2.82277e-06
2.13299e-05 2.82277e-06 0.00106792
0.00144722 1.3432e-06 -1.77181e-06
1.3432e-06 0.0001129 -4.44835e-07
-1.77181e-06 -4.44835e-07 4.0945e-05
0.00144055 -5.4226e-06 1.34611e-07
-5.4226e-06 8.953e-05 1.10403e-07
1.34611e-07 1.10403e-07 1.42623e-05
0.00145951 -1.56775e-05 1.62915e-06
-1.56775e-05 8.75464e-05 3.38453e-07
1.62915e-06 3.38453e-07 1.25013e-05
0.00090878 -1.06133e-05 -4.8661e-06
-1.06133e-05 -0.000106579 1.54265e-07
-4.8661e-06 1.54265e-07 -0.000172358
0.00144774 8.12306e-06 4.29206e-07
8.12306e-06 0.000112593 1.00078e-07
4.29206e-07 1.00078e-07 3.94566e-05
0.00145971 1.27952e-05 1.76962e-06
1.27952e-05 0.00010318 -2.05837e-07
1.76962e-06 -2.05837e-07 2.62978e-05
0.00140564 2.08811e-05 2.53471e-06
2.08811e-05 0.000103463 -1.00148e-07
2.53471e-06 -1.00148e-07 3.34675e-05
0.000915737 1.33145e-05 -5.1078e-07
1.33145e-05 -9.55346e-05 1.11522e-07
-5.1078e-07 1.11522e-07 -0.000159383
0.000714482 1.28109e-05 -6.72825e-06
1.28109e-05 -8.3232e-05 8.64762e-07
-6.72825e-06 8.64762e-07 -0.000123234
0.00112071 2.25196e-05 3.12029e-06
2.25196e-05 1.0435e-05 -4.56485e-07
3.12029e-06 -4.56485e-07 -5.12464e-05
0.000723201 1.80276e-05 1.85812e-07
1.80276e-05 -7.47914e-05 7.2211e-08
1.85812e-07 7.2211e-08 -0.00011441
0.00359136 7.08198e-05 -3.18641e-05
7.08198e-05 0.0014374 4.49013e-07
-3.18641e-05 4.49013e-07 0.00142824
0.000724685 2.04686e-05 6.04962e-06
2.04686e-05 -7.27827e-05 -1.45275e-06
6.04962e-06 -1.45275e-06 -0.000111408
0.00353874 6.65611e-05 3.55569e-07
6.65611e-05 0.00140907 1.26183e-07
3.55569e-07 1.26183e-07 0.00140071
0.00349856 6.28413e-05 3.10079e-05
6.28413e-05 0.00138613 -1.08989e-06
3.10079e-05 -1.08989e-06 0.00137855
0.00134781 -1.06507e-05 -2.07689e-06
-1.06507e-05 6.54219e-05 -4.5943e-07
-2.07689e-06 -4.5943e-07 -5.80376e-06
0.00145543 -1.46203e-05 1.50713e-07
-1.46203e-05 9.50646e-05 2.06828e-07
1.50713e-07 2.06828e-07 2.2131e-05
0.00135354 -1.84693e-05 1.17079e-06
-1.84693e-05 3.45884e-05 1.91613e-07
1.17079e-06 1.91613e-07 -3.93509e-05
0.00111109 -7.19919e-06 -3.82377e-06
-7.19919e-06 -2.62734e-06 -9.22997e-07
-3.82377e-06 -9.22997e-07 -6.47435e-05
0.00131507 -6.94526e-06 1.4394e-07
-6.94526e-06 4.38693e-05 -1.23704e-07
1.4394e-07 -1.23704e-07 -2.63992e-05
0.00140023 -8.1923e-06 1.03962e-06
-8.1923e-06 5.67301e-05 -4.61491e-07
1.03962e-06 -4.61491e-07 -1.49246e-05
0.000724664 7.63953e-06 -7.24243e-06
7.63953e-06 -8.02375e-05 -2.23495e-06
-7.24243e-06 -2.23495e-06 -0.000119835
0.0011347 1.14028e-05 -6.83651e-08
1.14028e-05 9.54203e-06 1.28282e-07
-6.83651e-08 1.28282e-07 -5.30785e-05
0.00134951 1.31902e-05 2.31204e-06
1.31902e-05 5.66846e-05 8.39144e-08
2.31204e-06 8.39144e-08 -1.47516e-05
0.00365492 -5.6931e-05 -3.3892e-05
-5.6931e-05 0.00145929 -1.8413e-06
-3.3892e-05 -1.8413e-06 0.00145145
0.000739047 1.42373e-05 -1.0849e-08
1.42373e-05 -6.86351e-05 1.64233e-07
-1.0849e-08 1.64233e-07 -0.000109167
0.0011642 2.82658e-05 2.89886e-06
2.82658e-05 3.32946e-05 1.0666e-06
2.89886e-06 1.0666e-06 -3.02409e-05
0.0034515 -5.67494e-05 -3.48884e-07
-5.67494e-05 0.00135401 1.66819e-07
-3.48884e-07 1.66819e-07 0.00134758
0.000716316 1.10647e-05 6.20893e-06
1.10647e-05 -6.8186e-05 2.96823e-06
6.20893e-06 2.96823e-06 -0.000108512
0.00313032 -5.57505e-05 2.37246e-05
-5.57505e-05 0.00118833 2.72557e-06
2.37246e-05 2.72557e-06 0.0011848
0.00113959 -5.06075e-06 -4.18347e-06
-5.06075e-06 8.48479e-06 -5.96649e-07
-4.18347e-06 -5.96649e-07 -5.54751e-05
0.00134961 -3.24336e-06 3.95639e-07
-3.24336e-06 6.39644e-05 -6.02113e-08
3.95639e-07 -6.02113e-08 -8.98631e-06
0.00143679 -8.76483e-06 1.75489e-06
-8.76483e-06 8.87755e-05 6.75368e-07
1.75489e-06 6.75368e-07 1.36992e-05
0.000700884 7.38709e-06 -6.93082e-06
7.38709e-06 -9.3266e-05 3.4545e-08
-6.93082e-06 3.4545e-08 -0.000133154
0.000930551 -3.19805e-06 -6.11211e-07
-3.19805e-06 -9.59646e-05 2.59647e-07
-6.11211e-07 2.59647e-07 -0.000161452
0.00146291 1.42063e-05 2.94374e-06
1.42063e-05 0.000120689 -2.09948e-07
2.94374e-06 -2.09948e-07 4.74632e-05
0.000928248 1.37706e-05 3.11995e-06
1.37706e-05 -8.92352e-05 -2.51719e-07
3.11995e-06 -2.51719e-07 -0.000152813
0.000719385 1.49602e-05 1.0563e-07
1.49602e-05 -8.05812e-05 1.40487e-07
1.0563e-07 1.40487e-07 -0.000120767
0.00368997 7.4841e-05 -3.34058e-05
7.4841e-05 0.00148636 -1.44606e-08
-3.34058e-05 -1.44606e-08 0.00147655
0.000726228 2.51455e-05 6.43535e-06
2.51455e-05 -7.32356e-05 -1.13932e-06
6.43535e-06 -1.13932e-06 -0.000113144
0.00362384 6.98596e-05 8.19743e-07
6.98596e-05 0.00145309 1.50486e-07
8.19743e-07 1.50486e-07 0.00144395
0.00355628 6.50215e-05 3.34203e-05
6.50215e-05 0.00141792 -6.3516e-07
3.34203e-05 -6.3516e-07 0.00140961
0.00112736 -1.10861e-05 -4.09471e-06
-1.10861e-05 5.61368e-06 -1.06318e-06
-4.09471e-06 -1.06318e-06 -5.72868e-05
0.00130221 -1.19431e-05 -5.94073e-08
-1.19431e-05 4.20977e-05 -3.99468e-08
-5.94073e-08 -3.99468e-08 -2.94318e-05
0.00136853 -1.55943e-05 1.42372e-06
-1.55943e-05 5.1596e-05 2.53045e-07
1.42372e-06 2.53045e-07 -2.15281e-05
0.00189166 -1.38277e-05 -1.85408e-05
-1.38277e-05 0.000503435 -1.55226e-06
-1.85408e-05 -1.55226e-06 0.000470598
0.00113417 -8.10981e-06 1.28454e-07
-8.10981e-06 8.58298e-06 -1.40092e-08
1.28454e-07 -1.40092e-08 -5.36485e-05
0.0013362 -7.54089e-06 2.1084e-06
-7.54089e-06 5.39333e-05 -9.69535e-08
2.1084e-06 -9.69535e-08 -1.6383e-05
0.00368579 -5.97049e-05 -3.48009e-05
-5.97049e-05 0.0014785 -1.33975e-06
-3.48009e-05 -1.33975e-06 0.00147014
0.000731395 8.39553e-06 -1.72145e-09
8.39553e-06 -7.64068e-05 1.51605e-07
-1.72145e-09 1.51605e-07 -0.000116097
0.00115699 1.01196e-05 4.11705e-06
1.01196e-05 2.05423e-05 1.1095e-06
4.11705e-06 1.1095e-06 -4.22099e-05
0.00360631 -5.8165e-05 -2.45656e-07
-5.8165e-05 0.00143485 1.6477e-07
-2.45656e-07 1.6477e-07 0.00142711
0.000726778 1.40373e-05 6.83744e-06
1.40373e-05 -7.28865e-05 2.75286e-06
6.83744e-06 2.75286e-06 -0.000113556
0.00338306 -5.83278e-05 2.74189e-05
-5.83278e-05 0.00131976 2.48495e-06
2.74189e-05 2.48495e-06 0.0013136
0.00073252 2.62441e-06 -9.59421e-06
2.62441e-06 -7.79188e-05 -1.08566e-06
-9.59421e-06 -1.08566e-06 -0.000117886
0.00103758 -7.50885e-06 7.54641e-08
-7.50885e-06 -4.2671e-05 2.07656e-07
7.54641e-08 2.07656e-07 -0.000107256
0.00124297 -7.51361e-06 2.80264e-06
-7.51361e-06 1.04109e-05 4.75203e-07
2.80264e-06 4.75203e-07 -6.34624e-05
0.00377436 3.33544e-06 -3.33794e-05
3.33544e-06 0.00152542 -4.64756e-07
-3.33794e-05 -4.64756e-07 0.00151693
0.000715272 6.80343e-06 7.08075e-08
6.80343e-06 -8.63204e-05 1.31285e-07
7.08075e-08 1.31285e-07 -0.000126346
0.000944058 3.96345e-06 3.43799e-06
3.96345e-06 -8.92932e-05 8.99731e-08
3.43799e-06 8.99731e-08 -0.000154507
0.000726217 2.11653e-05 6.78835e-06
2.11653e-05 -7.67783e-05 -5.56507e-07
6.78835e-06 -5.56507e-07 -0.000117371
0.00372825 7.28504e-05 1.72445e-06
7.28504e-05 0.00150476 2.03037e-07
1.72445e-06 2.03037e-07 0.00149509
0.00365362 6.75046e-05 3.64702e-05
6.75046e-05 0.0014674 -1.64023e-07
3.64702e-05 -1.64023e-07 0.00145838
0.00192671 -2.40616e-05 -2.18585e-05
-2.40616e-05 0.000520227 -1.58464e-06
-2.18585e-05 -1.58464e-06 0.000486776
0.00113825 -9.97041e-06 -4.74542e-08
-9.97041e-06 1.07176e-05 1.436e-08
-4.74542e-08 1.436e-08 -5.21009e-05
0.00125605 -1.31097e-05 2.03256e-06
-1.31097e-05 1.85293e-05 3.78055e-07
2.03256e-06 3.78055e-07 -5.33024e-05
0.00362651 -7.94581e-05 -1.08831e-05
-7.94581e-05 0.0014562 -5.2944e-07
-1.08831e-05 -5.2944e-07 0.00144592
0.000726494 -3.18506e-06 1.77152e-08
-3.18506e-06 -7.82748e-05 5.70658e-08
1.77152e-08 5.70658e-08 -0.000117506
0.00115891 -7.67612e-06 4.04094e-06
-7.67612e-06 2.04961e-05 8.86274e-07
4.04094e-06 8.86274e-07 -4.17892e-05
0.0036634 -6.00964e-05 -2.09193e-07
-6.00964e-05 0.00146678 1.61333e-07
-2.09193e-07 1.61333e-07 0.00145841
0.000733601 9.61885e-06 7.3196e-06
9.61885e-06 -7.47847e-05 2.47075e-06
7.3196e-06 2.47075e-06 -0.000114561
0.00355614 -5.98256e-05 3.06303e-05
-5.98256e-05 0.00140979 2.10418e-06
3.06303e-05 2.10418e-06 0.00140211
0.00141929 -1.07514e-05 -3.52016e-05
-1.07514e-05 0.00034694 -4.0389e-07
-3.52016e-05 -4.0389e-07 0.000326879
0.00132415 -5.46864e-06 -7.75565e-06
-5.46864e-06 0.000217587 2.53351e-07
-7.75565e-06 2.53351e-07 0.000181049
0.00094348 -6.18516e-06 4.27915e-06
-6.18516e-06 -8.99139e-05 8.38352e-07
4.27915e-06 8.38352e-07 -0.000155074
0.00377701 5.02866e-06 1.54683e-06
5.02866e-06 0.00152849 -2.19548e-07
1.54683e-06 -2.19548e-07 0.00151897
0.000721122 5.53582e-06 7.12271e-06
5.53582e-06 -8.33161e-05 2.3382e-07
7.12271e-06 2.3382e-07 -0.000123408
0.00375679 6.88168e-05 3.70939e-05
6.88168e-05 0.00151862 3.00737e-07
3.70939e-05 3.00737e-07 0.00150911
0.00135204 -4.18648e-05 -6.53758e-06
-4.18648e-05 0.00031825 -8.66077e-07
-6.53758e-06 -8.66077e-07 0.000296233
0.00132564 -8.03616e-06 -7.29643e-06
-8.03616e-06 0.000220039 1.43422e-07
-7.29643e-06 1.43422e-07 0.000183864
0.00114878 -1.13945e-05 3.92391e-06
-1.13945e-05 1.57504e-05 1.0441e-06
3.92391e-06 1.0441e-06 -4.70706e-05
0.00249877 -5.03313e-05 1.33562e-05
-5.03313e-05 0.000889203 4.76418e-08
1.33562e-05 4.76418e-08 0.000874115
0.000740461 1.9397e-06 7.41728e-06
1.9397e-06 -7.19324e-05 2.17331e-06
7.41728e-06 2.17331e-06 -0.000111063
0.00364136 -6.10649e-05 3.28602e-05
-6.10649e-05 0.00145534 1.64487e-06
3.28602e-05 1.64487e-06 0.00144696
0.00378792 -5.69794e-05 -1.13752e-06
-5.69794e-05 0.00153243 1.87944e-07
-1.13752e-06 1.87944e-07 0.00152362
0.000718628 -1.10437e-06 7.3295e-06
-1.10437e-06 -8.49941e-05 1.18455e-06
7.3295e-06 1.18455e-06 -0.000124688
0.00379795 2.62538e-05 3.65215e-05
2.62538e-05 0.00153842 -2.80953e-07
3.65215e-05 -2.80953e-07 0.00152874
0.00254239 -5.40129e-05 1.3885e-05
-5.40129e-05 0.000911794 -5.27468e-08
1.3885e-05 -5.27468e-08 0.000896127
0.000737637 -2.18188e-06 7.23357e-06
-2.18188e-06 -7.35534e-05 1.88528e-06
7.23357e-06 1.88528e-06 -0.00011291
0.00366504 -6.36059e-05 3.37447e-05
-6.36059e-05 0.0014705 1.16517e-06
3.37447e-05 1.16517e-06 0.00146168
0.0037583 -7.11765e-05 3.43818e-05
-7.11765e-05 0.00151901 1.83244e-07
3.43818e-05 1.83244e-07 0.00150932
0.00370492 -6.78584e-05 3.4043e-05
-6.78584e-05 0.00149227 6.86538e-07
3.4043e-05 6.86538e-07 0.00148296
