# vtk DataFile Version 2.0
Wound Healing Simulation
ASCII
DATASET UNSTRUCTURED_GRID
POINTS 3012 float
69.9759 18.75 4
67.2507 60.3285 4
69.976 18.75 2
73.0099 25.446 4
71.1327 20.9142 4
68.6801 16.6661 4
67.8206 19.9257 3.97186
67.2507 60.3286 2
71.1327 54.0858 4
68.6801 58.3339 4
65.6939 62.2254 4
65.3075 58.9988 3.97072
74.6784 42.3946 4
73.7221 47.2057 4
69.9759 18.75 0
73.0099 25.446 2
68.6801 16.6661 2
71.1327 20.9142 2
67.8212 19.9298 2
74.6792 32.6053 4
73.7222 27.7943 4
72.1454 23.1494 4
70.6109 26.2218 3.97211
68.8812 21.9575 3.97222
67.2507 14.6715 4
66.6317 17.9728 3.97069
65.73 21.049 3.96142
67.2507 60.3285 0
71.1327 54.0858 2
68.6801 58.3339 2
65.694 62.2255 2
65.3089 58.9939 2
72.1454 51.8506 4
69.9759 56.25 4
68.8316 53.1145 3.97207
64.0165 64.0165 4
66.6055 57.133 3.97182
63.8801 60.7614 3.96748
63.4593 57.7512 3.95975
60.3285 67.2507 4
74.6792 42.3947 2
73.7222 47.2057 2
74.9194 39.9526 4
74.2788 44.8158 4
72.1656 42.086 3.97407
73.0099 49.554 4
71.2461 46.5985 3.97248
73.0099 25.446 0
71.1327 20.9142 0
68.6801 16.6661 0
67.8206 19.9257 0.0281364
74.6792 32.6053 2
73.7222 27.7943 2
67.2508 14.6715 2
72.1455 23.1494 2
70.6101 26.223 2
66.6329 17.9775 2
68.8813 21.9605 2
65.7296 21.0501 2
74.9197 35.0474 4
74.2794 30.1841 4
72.1824 32.945 3.97421
71.2754 28.4329 3.97249
69.8117 24.0596 3.9723
68.3095 26.9646 3.96426
66.7011 22.9537 3.9625
65.694 12.7746 4
65.3185 16.1061 3.96966
64.6454 19.2213 3.95989
63.6954 22.1112 3.96488
71.1327 54.0858 0
65.6939 62.2254 0
68.6801 58.3339 0
65.3075 58.9988 0.0292848
72.1455 51.8506 2
69.9759 56.25 2
68.8318 53.1112 2
64.0165 64.0165 2
66.6067 57.1281 2
63.881 60.7559 2
63.4497 57.7497 2
62.2254 65.694 4
58.8899 65.4105 3.97719
69.7647 50.9902 3.97209
67.7786 55.1681 3.97213
66.5767 52.1891 3.96268
62.3311 62.4229 3.97128
64.5961 56.0095 3.96093
62.1872 59.3836 3.95781
61.6669 56.608 3.96045
58.3339 68.6801 4
60.3285 67.2508 2
73.7221 47.2057 0
74.6784 42.3946 0
74.9197 39.9526 2
74.2794 44.8159 2
72.1645 42.0851 2
73.0099 49.554 2
71.2453 46.5971 2
75 37.5 4
72.4029 39.8029 3.97498
71.7796 44.3532 3.97353
69.7863 41.7874 3.96635
70.5714 48.8143 3.97209
68.8739 46.0061 3.96546
74.6792 32.6053 0
73.7222 27.7943 0
67.2507 14.6715 0
72.1454 23.1494 0
70.6109 26.2218 0.0278881
68.8812 21.9575 0.0277834
66.6317 17.9728 0.0293075
65.73 21.049 0.0385776
74.9197 35.0474 2
74.2794 30.1841 2
72.1811 32.9451 2
71.2744 28.4337 2
65.694 12.7745 2
65.3194 16.1113 2
69.8114 24.0615 2
68.3132 26.9653 2
64.6392 19.223 2
66.7029 22.9548 2
63.6957 22.1117 2
72.4108 35.2256 3.975
71.8013 30.678 3.97371
69.8258 33.2747 3.96582
68.9376 29.0487 3.96455
67.5603 24.9289 3.96347
65.9991 27.6893 3.97304
64.0165 10.9835 4
64.5556 23.9011 3.96743
63.8833 14.3322 3.96611
63.4619 17.4733 3.95739
62.7206 20.4021 3.96218
61.7682 23.0734 3.97113
60.6793 11.1033 3.9731
57.6034 11.488 3.96333
72.1454 51.8506 0
69.9759 56.25 0
68.8316 53.1145 0.0279324
64.0165 64.0165 0
63.8801 60.7614 0.0325152
66.6055 57.133 0.0281791
63.4593 57.7512 0.0402519
62.2255 65.694 2
58.8928 65.4049 2
69.7645 50.9878 2
67.7793 55.1638 2
66.5781 52.1881 2
62.3328 62.4153 2
64.5906 56.0081 2
62.1815 59.3835 2
61.6647 56.6086 2
60.6643 63.9723 3.97533
57.0208 66.732 3.98072
57.5464 63.654 3.96909
67.4419 50.1597 3.96388
65.6313 54.152 3.96176
64.3102 51.3136 3.96814
60.7646 60.9085 3.96539
62.6375 54.9946 3.9637
60.5325 58.0861 3.95598
60.0775 55.6681 3.96633
56.25 69.9759 4
58.3339 68.6801 2
60.3285 67.2507 0
58.9168 9.6606 3.97573
62.2254 9.30607 4
73.0099 49.554 0
74.2788 44.8158 0
71.2461 46.5985 0.0275195
72.1656 42.086 0.0259285
74.9194 39.9526 0
75 37.5 2
72.4023 39.8023 2
71.779 44.3519 2
69.7889 41.787 2
70.5709 48.8126 2
68.8786 46.0056 2
72.4865 37.5131 3.9748
70.0291 39.6575 3.96645
69.407 43.9026 3.96613
67.4197 41.4802 3.9764
68.2133 48.0943 3.96489
66.5053 45.3985 3.9753
74.9197 35.0474 0
74.2794 30.1841 0
72.1824 32.945 0.0257929
71.2754 28.4329 0.0275136
65.694 12.7746 0
65.3185 16.1061 0.0303445
69.8117 24.0596 0.0277045
68.3095 26.9646 0.0357431
66.7011 22.9537 0.0374966
64.6454 19.2213 0.0401125
63.6954 22.1112 0.0351203
72.4102 35.2253 2
71.8006 30.6787 2
69.8284 33.275 2
68.9425 29.0491 2
64.0165 10.9835 2
63.8848 14.3389 2
63.4598 17.4727 2
67.5632 24.9298 2
65.997 27.6905 2
62.7244 20.4014 2
64.5546 23.902 2
61.7666 23.0744 2
60.6822 11.1087 2
57.603 11.4803 2
70.0469 35.3963 3.96622
69.4469 31.1578 3.96496
67.492 33.613 3.97578
66.5916 29.6666 3.97461
65.3189 25.7637 3.97005
63.7787 28.3562 3.97526
62.3356 12.6608 3.96969
62.5137 24.7601 3.9738
62.1793 15.8097 3.95746
61.6347 18.7724 3.95928
60.9097 21.4793 3.96733
59.9836 23.9088 3.97397
59.2362 12.8221 3.96218
55.8651 10.2778 3.97277
56.3882 13.1936 3.96417
69.7647 50.9902 0.027914
62.2254 65.694 0
58.8899 65.4105 0.0228139
67.7786 55.1681 0.0278661
66.5767 52.1891 0.0373202
62.3311 62.4229 0.0287167
62.1872 59.3836 0.0421934
64.5961 56.0095 0.0390737
61.6669 56.608 0.039551
60.6675 63.9672 2
57.0243 66.7276 2
57.549 63.662 2
67.4439 50.1587 2
65.6299 54.1507 2
64.3081 51.3129 2
60.7598 60.9097 2
62.6376 54.9952 2
60.5235 58.0857 2
60.0771 55.6687 2
55.0667 67.9297 3.98392
59.2119 62.3241 3.96672
55.7929 64.8732 3.97099
56.3135 62.0233 3.97971
65.0961 49.3431 3.97056
63.4937 53.2177 3.96581
62.0503 50.5271 3.973
59.2651 59.4928 3.95568
60.7744 54.1867 3.96964
59.0346 56.883 3.96065
58.9085 55.0333 3.97038
48.0981 68.5691 3.98014
50.9445 69.9306 3.98699
54.0858 71.1327 4
56.25 69.976 2
58.3339 68.6801 0
57.0537 8.34075 3.97528
60.3285 7.74928 4
58.9196 9.66636 2
62.2255 9.30602 2
70.5714 48.8143 0.0279114
71.7796 44.3532 0.0264749
68.8739 46.0061 0.0345353
69.7863 41.7874 0.0336519
72.4029 39.8029 0.0250219
75 37.5 0
72.4853 37.5126 2
70.0315 39.6573 2
69.4093 43.9021 2
67.4164 41.4795 2
68.215 48.0933 2
66.5017 45.3974 2
70.1176 37.5238 3.96647
67.6677 39.5056 3.9763
67.032 43.4409 3.97605
65.2025 41.1799 3.97679
65.845 47.364 3.97359
64.2607 44.7751 3.97609
72.4108 35.2256 0.0249966
71.8013 30.678 0.0262882
69.8258 33.2747 0.0341773
68.9376 29.0487 0.0354492
64.0165 10.9835 0
63.8833 14.3322 0.0338869
63.4619 17.4733 0.0426072
67.5603 24.9289 0.0365341
65.9991 27.6893 0.0269581
64.5556 23.9011 0.0325687
62.7206 20.4021 0.0378242
61.7682 23.0734 0.0288725
60.6793 11.1033 0.0269033
57.6034 11.488 0.0366669
70.0489 35.3964 2
69.4502 31.1582 2
67.4897 33.6136 2
66.5894 29.6677 2
62.3382 12.6677 2
62.1764 15.8096 2
61.6419 18.7709 2
65.3172 25.7648 2
63.7769 28.3568 2
60.9082 21.48 2
62.5123 24.7611 2
59.9828 23.9095 2
59.2353 12.8203 2
56.3883 13.1894 2
55.8661 10.2826 2
67.7127 35.5599 3.97597
67.0962 31.655 3.97544
65.3629 33.9637 3.97688
64.294 30.2738 3.97568
63.1832 26.5283 3.97517
61.7476 28.9135 3.97525
60.7635 14.2562 3.96211
60.5726 25.5149 3.97511
60.4892 17.2096 3.95587
59.915 19.9652 3.96253
59.2305 22.4493 3.97027
58.4396 24.548 3.97421
54.0292 9.17335 3.96797
57.8781 14.4027 3.95502
54.774 12.088 3.96719
55.271 14.7572 3.95548
67.4419 50.1597 0.036116
57.0208 66.732 0.0192819
60.6643 63.9723 0.0246744
57.5464 63.654 0.0309068
65.6313 54.152 0.0382358
64.3102 51.3136 0.0318609
60.7646 60.9085 0.0346054
60.5325 58.0861 0.0440182
62.6375 54.9946 0.0363004
60.0775 55.6681 0.0336727
55.0705 67.926 2
59.2096 62.3281 2
55.7957 64.8702 2
56.3121 62.0256 2
65.0936 49.3421 2
63.4922 53.2175 2
62.049 50.5268 2
59.2816 59.5018 2
60.7742 54.1871 2
59.0439 56.8862 2
58.9175 55.0357 2
53.0384 68.9974 3.98416
53.9591 65.9989 3.97136
57.8515 60.8105 3.95976
54.6621 63.1309 3.96395
55.1814 60.538 3.97754
62.7911 48.5453 3.97451
61.3894 52.449 3.97142
59.7281 49.8384 3.97334
57.8415 58.1504 3.95728
58.9352 53.7858 3.97239
57.7374 55.637 3.96332
50.1038 67.8469 3.97703
47.4557 66.5637 3.97543
46.0527 69.1505 3.98253
48.1009 68.5695 2
48.7986 70.7216 3.9884
50.9479 69.9281 2
51.8506 72.1454 4
54.0858 71.1327 2
56.25 69.9759 0
55.0986 7.14392 3.98148
58.3339 6.31992 4
57.0575 8.34698 2
60.3286 7.74926 2
58.9168 9.6606 0.0242747
62.2254 9.30607 0
68.2133 48.0943 0.0351072
69.407 43.9026 0.0338747
66.5053 45.3985 0.0246988
67.4197 41.4802 0.023602
70.0291 39.6575 0.0335513
72.4865 37.5131 0.0252018
70.1202 37.5238 2
67.6645 39.5052 2
67.0296 43.44 2
65.201 41.1794 2
65.8424 47.3629 2
64.2589 44.7745 2
67.7719 37.5251 3.9761
65.445 39.3567 3.97694
64.8071 42.9732 3.97657
63.2692 40.8863 3.97664
63.5587 46.6177 3.97499
62.2643 44.1208 3.97589
70.0469 35.3963 0.0337849
69.4469 31.1578 0.0350367
67.492 33.613 0.0242151
66.5916 29.6666 0.0253876
62.3356 12.6608 0.0303142
62.1793 15.8097 0.0425372
61.6347 18.7724 0.0407232
65.3189 25.7637 0.0299487
63.7787 28.3562 0.0247373
62.5137 24.7601 0.0261977
60.9097 21.4793 0.0326715
59.9836 23.9088 0.0260342
59.2362 12.8221 0.0378191
56.3882 13.1936 0.0358322
55.8651 10.2778 0.0272319
67.7101 35.5602 2
67.0944 31.6558 2
65.361 33.9643 2
64.2925 30.2744 2
60.7608 14.2562 2
60.4842 17.2108 2
59.9111 19.9663 2
63.1819 26.5292 2
61.7473 28.9136 2
59.2331 22.4492 2
60.572 25.5154 2
58.4374 24.5502 2
57.882 14.4011 2
55.2665 14.7463 2
54.0326 9.16701 2
54.7686 12.0919 2
65.545 35.6873 3.97691
64.8261 32.2102 3.97626
63.8475 34.2937 3.97649
62.0665 30.7427 3.9757
61.1545 27.2294 3.97499
60.2327 29.3024 3.97586
59.2351 15.7449 3.95507
58.7417 26.0204 3.97535
58.8756 18.4994 3.95906
58.3241 21.0545 3.96454
57.7644 23.3271 3.97094
57.3782 24.9207 3.97578
52.1066 8.1666 3.96912
53.0389 11.0938 3.96463
56.6033 15.8543 3.95547
53.7891 13.7811 3.97237
54.2813 16.1389 3.95557
55.0667 67.9297 0.0160817
65.0961 49.3431 0.0294355
55.7929 64.8732 0.0290107
59.2119 62.3241 0.0332848
56.3135 62.0233 0.0202908
63.4937 53.2177 0.0341945
62.0503 50.5271 0.027002
59.2651 59.4928 0.0443159
59.0346 56.883 0.039345
60.7744 54.1867 0.030364
58.9085 55.0333 0.029623
53.0421 68.995 2
53.9617 65.9964 2
57.8536 60.814 2
54.6601 63.1313 2
55.1804 60.5382 2
62.7899 48.5449 2
61.3889 52.4491 2
59.7289 49.8383 2
57.8496 58.1547 2
58.9405 53.7869 2
57.7351 55.636 2
52.0635 66.9853 3.974
52.9364 64.1685 3.97001
56.5643 59.3995 3.95492
53.6337 61.5103 3.96643
54.1947 59.2171 3.96404
60.4101 47.7139 3.97422
59.2308 51.93 3.9727
57.359 49.3839 3.97447
56.5263 56.8383 3.96148
56.6107 53.9078 3.96768
50.1065 67.8441 2
49.3266 65.8908 3.97502
47.4586 66.5567 2
46.8812 64.6912 3.9768
45.5543 67.0818 3.97841
43.9707 69.583 3.98365
46.0555 69.1503 2
46.6057 71.3662 3.98985
48.0981 68.5691 0.0198552
48.8019 70.7209 2
49.554 73.0099 4
50.9445 69.9306 0.0130073
51.8506 72.1455 2
54.0858 71.1327 0
53.0614 6.07455 3.98632
55.1028 7.14589 2
56.25 5.02411 4
58.3339 6.3199 2
57.0537 8.34075 0.0247152
60.3285 7.74928 0
65.845 47.364 0.0264077
67.032 43.4409 0.0239461
64.2607 44.7751 0.0239131
65.2025 41.1799 0.0232083
67.6677 39.5056 0.0237011
70.1176 37.5238 0.0335326
67.7694 37.525 2
65.4435 39.3566 2
64.8051 42.9724 2
63.2693 40.886 2
63.5573 46.617 2
62.2641 44.1207 2
65.5553 37.5056 3.97688
63.4199 39.249 3.97652
62.8146 42.486 3.9763
61.8367 40.6472 3.97659
61.3973 45.787 3.9753
60.7881 43.5747 3.97607
67.7127 35.5599 0.0240318
67.0962 31.655 0.0245591
65.3629 33.9637 0.0231198
64.294 30.2738 0.0243218
60.7635 14.2562 0.0378942
60.4892 17.2096 0.0441301
59.915 19.9652 0.0374698
63.1832 26.5283 0.0248281
61.7476 28.9135 0.0247471
60.5726 25.5149 0.0248945
59.2305 22.4493 0.029727
58.4396 24.548 0.025787
57.8781 14.4027 0.0449761
55.271 14.7572 0.0445188
54.0292 9.17335 0.0320348
54.774 12.088 0.0328108
65.5433 35.6875 2
64.8245 32.211 2
63.8478 34.2939 2
62.0665 30.743 2
59.2529 15.74 2
58.8743 18.4994 2
58.3219 21.0557 2
61.1538 27.2296 2
60.2337 29.3025 2
57.7623 23.3297 2
58.7395 26.0214 2
57.3775 24.9243 2
56.5751 15.8587 2
54.2833 16.1269 2
53.7756 13.7746 2
52.1088 8.16963 2
53.0421 11.0862 2
63.6313 35.6602 3.97638
62.398 33.1203 3.9761
59.9382 30.7601 3.97555
58.9086 28.1139 3.97529
57.7751 17.1124 3.95632
57.0654 25.9995 3.97544
57.3521 19.6739 3.95951
56.8475 22.0903 3.96481
56.5756 24.2207 3.97297
50.1076 7.29605 3.97964
51.2179 10.1763 3.96847
52.1371 12.9072 3.96627
55.3848 17.1253 3.95642
52.9163 15.3843 3.95729
53.6211 17.1447 3.95547
53.0384 68.9974 0.015845
53.9591 65.9989 0.0286402
62.7911 48.5453 0.0254895
54.6621 63.1309 0.036054
57.8515 60.8105 0.0402364
55.1814 60.538 0.0224556
61.3894 52.449 0.02858
59.7281 49.8384 0.0266559
57.8415 58.1504 0.0427247
57.7374 55.637 0.0366755
58.9352 53.7858 0.0276064
52.0662 66.9835 2
52.9362 64.1684 2
56.5622 59.4007 2
53.6323 61.5099 2
54.1899 59.219 2
60.4101 47.7136 2
59.2334 51.9304 2
57.3601 49.3841 2
56.5233 56.842 2
56.609 53.907 2
51.1548 65.0972 3.97113
52.0111 62.4575 3.96582
55.3344 58.1272 3.96158
52.745 59.9996 3.96591
53.5355 58.3476 3.96277
57.5003 46.6198 3.97511
56.9685 51.5601 3.97224
55.4904 49.2827 3.97414
55.1504 55.6112 3.96275
54.7817 53.144 3.96253
50.1038 67.8469 0.0229737
49.3279 65.8947 2
48.6017 64.0804 3.97865
47.4557 66.5637 0.0245657
45.5559 67.0847 2
46.882 64.6926 2
46.3636 62.9954 3.98234
45.124 65.1699 3.97935
43.6291 67.4554 3.98008
41.8586 69.8701 3.98374
43.9725 69.583 2
44.3735 71.8609 3.9903
46.0527 69.1505 0.0174677
46.6081 71.3657 2
47.2057 73.7222 4
48.7986 70.7216 0.0116011
49.554 73.0099 2
51.8506 72.1454 0
50.9527 5.13473 3.98865
53.0642 6.07599 2
54.0858 3.86728 4
55.0986 7.14392 0.0185171
56.25 5.02406 2
58.3339 6.31992 0
63.5587 46.6177 0.0250088
64.8071 42.9732 0.0234275
62.2643 44.1208 0.0241114
63.2692 40.8863 0.0233613
65.445 39.3567 0.0230567
67.7719 37.5251 0.0239007
65.5541 37.5057 2
63.4202 39.2491 2
62.8152 42.4855 2
61.8369 40.6469 2
61.397 45.7867 2
60.7884 43.5746 2
63.4843 37.4614 3.97649
61.5378 39.3265 3.97681
60.5331 41.8714 3.97677
59.5119 44.6139 3.9756
65.545 35.6873 0.0230885
64.8261 32.2102 0.0237368
63.8475 34.2937 0.0235076
62.0665 30.7427 0.0243045
59.2351 15.7449 0.0449262
58.8756 18.4994 0.0409414
58.3241 21.0545 0.0354565
61.1545 27.2294 0.0250085
60.2327 29.3024 0.0241418
58.7417 26.0204 0.0246533
57.7644 23.3271 0.0290602
57.3782 24.9207 0.0242243
56.6033 15.8543 0.0445294
54.2813 16.1389 0.0444336
53.7891 13.7811 0.0276326
52.1066 8.1666 0.0308773
53.0389 11.0938 0.0353749
63.6318 35.6601 2
62.3993 33.1209 2
59.9394 30.7606 2
57.7825 17.1092 2
57.3606 19.6709 2
56.847 22.0932 2
58.9094 28.1131 2
56.5856 24.2231 2
57.0653 25.9981 2
50.1109 7.29271 2
55.3819 17.1278 2
53.6251 17.1354 2
52.9096 15.3885 2
52.1475 12.9001 2
51.2194 10.1732 2
61.5803 35.4004 3.9765
59.5497 32.8566 3.97592
57.8085 30.2747 3.97522
56.5173 27.6497 3.97563
56.3969 18.3295 3.95774
55.5783 25.4144 3.9747
55.9155 20.7622 3.95752
55.5021 23.1599 3.96579
48.0546 6.53549 3.98281
49.315 9.3637 3.97307
50.4064 12.0818 3.96631
51.3167 14.6272 3.96665
54.2162 18.1102 3.96095
52.2477 17.2166 3.95491
52.0635 66.9853 0.0259963
52.9364 64.1685 0.0299904
60.4101 47.7139 0.0257766
53.6337 61.5103 0.0335724
56.5643 59.3995 0.0450811
54.1947 59.2171 0.0359552
59.2308 51.93 0.0272986
57.359 49.3839 0.0255279
56.5263 56.8383 0.0385199
56.6107 53.9078 0.0323229
51.1556 65.0955 2
52.0101 62.4606 2
55.3296 58.1273 2
52.7453 60.0023 2
53.5316 58.3505 2
57.5003 46.6189 2
56.9673 51.5593 2
55.4894 49.2819 2
55.1496 55.6121 2
54.7803 53.1439 2
50.3224 63.3372 3.97293
51.176 60.8269 3.9729
54.0299 57.1223 3.96719
52.1478 58.4821 3.96813
55.6837 43.9651 3.97568
54.5903 47.5957 3.97549
54.3128 51.1075 3.96578
53.5916 54.3355 3.9646
49.3266 65.8908 0.0249796
48.6002 64.0872 2
47.9331 62.4287 3.98842
45.5543 67.0818 0.021594
46.8812 64.6912 0.0231991
43.6299 67.4555 2
46.3633 62.9997 2
45.1263 65.1653 2
45.958 61.5229 3.99412
44.7544 63.4008 3.97491
43.3535 65.485 3.97806
41.6623 67.6736 3.97909
39.7011 70.0169 3.98337
41.8599 69.871 2
42.1085 72.2049 3.99077
43.9707 69.583 0.016349
44.3753 71.8603 2
44.8159 74.2794 4
46.6057 71.3662 0.0101539
47.2057 73.7222 2
49.554 73.0099 0
48.7843 4.32467 3.98944
50.9547 5.13438 2
51.8506 2.85458 4
53.0614 6.07455 0.0136838
54.0858 3.86728 2
56.25 5.02411 0
61.3973 45.787 0.0247038
62.8146 42.486 0.0237005
60.7881 43.5747 0.0239255
61.8367 40.6472 0.0234147
63.4199 39.249 0.0234826
65.5553 37.5056 0.0231176
63.4854 37.4615 2
61.5374 39.3267 2
60.5339 41.8711 2
59.5128 44.6137 2
61.3587 37.4495 3.97666
59.4621 39.797 3.97681
58.1117 42.783 3.97586
63.6313 35.6602 0.0236188
62.398 33.1203 0.0238979
59.9382 30.7601 0.0244468
57.7751 17.1124 0.0436781
57.3521 19.6739 0.0404933
56.8475 22.0903 0.0351907
58.9086 28.1139 0.0247104
57.0654 25.9995 0.0245559
56.5756 24.2207 0.0270295
55.3848 17.1253 0.0435757
53.6211 17.1447 0.0445314
52.9163 15.3843 0.0427136
50.1076 7.29605 0.0203635
52.1371 12.9072 0.0337261
51.2179 10.1763 0.031533
61.5805 35.4006 2
59.5489 32.8566 2
57.8106 30.2749 2
56.397 18.3283 2
55.9415 20.7561 2
55.5111 23.1639 2
56.5195 27.6498 2
55.5833 25.4179 2
48.0549 6.53651 2
49.3154 9.36134 2
54.2193 18.1127 2
52.2375 17.2174 2
51.3192 14.6191 2
50.41 12.082 2
59.086 35.1778 3.97656
57.0601 32.4255 3.97523
55.6253 29.5986 3.97535
54.6003 26.946 3.97471
55.0546 19.395 3.96326
54.2693 24.3815 3.97159
54.4905 21.8445 3.96189
45.9615 5.88957 3.98494
43.373 7.48288 3.98173
47.3505 8.64128 3.97479
48.5797 11.3564 3.96898
49.6647 13.8405 3.96765
50.5307 16.285 3.95291
52.9084 18.8916 3.9632
51.1614 18.3009 3.95788
51.1548 65.0972 0.0288655
52.0111 62.4575 0.034182
57.5003 46.6198 0.024894
52.745 59.9996 0.0340882
55.3344 58.1272 0.038418
53.5355 58.3476 0.0372344
56.9685 51.5601 0.0277565
55.4904 49.2827 0.0258598
55.1504 55.6112 0.0372478
54.7817 53.144 0.037468
50.3199 63.3349 2
51.1755 60.8289 2
54.0244 57.1234 2
52.14 58.4838 2
55.6857 43.9664 2
54.5901 47.596 2
54.3082 51.106 2
53.5862 54.3363 2
49.5455 61.694 3.97432
54.3688 41.5828 3.9739
50.4462 59.2041 3.96458
51.8965 56.3144 3.96572
53.0366 45.2333 3.97304
52.4033 49.002 3.96992
52.069 52.5986 3.95947
48.6017 64.0804 0.0213509
47.9325 62.4287 2
47.2853 60.953 3.99062
43.6291 67.4554 0.0199191
45.124 65.1699 0.0206459
46.3636 62.9954 0.0176621
41.6635 67.6739 2
43.3575 65.486 2
45.9593 61.5274 2
44.7549 63.3979 2
45.7228 60.5676 3.9976
44.4626 61.7685 3.97942
43.1382 63.6833 3.9781
41.5452 65.6236 3.9735
39.6322 67.7526 3.97846
37.5257 70.0414 3.98333
39.702 70.0171 2
39.8162 72.4021 3.99114
41.8586 69.8701 0.016262
42.1098 72.2053 2
42.3947 74.6792 4
44.3735 71.8609 0.0097045
44.8159 74.2794 2
47.2057 73.7222 0
43.8511 5.36406 3.98536
46.5705 3.6495 3.99023
48.7849 4.32551 2
49.554 1.99015 4
50.9527 5.13473 0.0113473
51.8506 2.85453 2
54.0858 3.86728 0
59.5119 44.6139 0.0244005
60.5331 41.8714 0.0232271
61.5378 39.3265 0.0231905
63.4843 37.4614 0.0235122
61.3589 37.4495 2
59.4608 39.7953 2
58.1121 42.7829 2
58.9386 37.5682 3.97704
57.0209 40.5629 3.97749
53.7685 39.6172 3.976
61.5803 35.4004 0.0234958
59.5497 32.8566 0.0240793
57.8085 30.2747 0.0247846
56.3969 18.3295 0.0422557
55.9155 20.7622 0.042477
55.5021 23.1599 0.0342098
56.5173 27.6497 0.0243673
55.5783 25.4144 0.0252967
54.2162 18.1102 0.039047
52.2477 17.2166 0.0450871
51.3167 14.6272 0.0333493
48.0546 6.53549 0.017187
49.315 9.3637 0.0269271
50.4064 12.0818 0.0336859
59.0854 35.1785 2
45.9615 5.88893 2
43.3723 7.4828 2
57.0589 32.4268 2
55.6268 29.5965 2
55.0427 19.3992 2
54.529 21.8417 2
54.2664 24.3875 2
54.603 26.9466 2
47.3498 8.63942 2
48.5825 11.3491 2
52.903 18.8569 2
51.1558 18.3 2
50.5422 16.2829 2
49.6612 13.8506 2
56.3698 34.8466 3.97715
54.6465 31.7429 3.97455
53.5136 28.7299 3.97617
52.9802 25.8669 3.97381
53.6378 20.3817 3.96424
53.0114 23.0377 3.96402
41.399 7.08381 3.98316
45.3576 8.0052 3.98548
42.8649 9.43078 3.97176
46.6551 10.6958 3.97554
47.7026 13.1724 3.96748
48.8453 15.5047 3.9714
49.8703 17.891 3.96908
51.4234 19.5964 3.98671
50.3224 63.3372 0.0270741
51.176 60.8269 0.0271027
55.6837 43.9651 0.0243164
54.5903 47.5957 0.0245096
52.1478 58.4821 0.0318731
54.0299 57.1223 0.0328123
54.3128 51.1075 0.034218
53.5916 54.3355 0.0354038
49.5451 61.689 2
54.368 41.5801 2
50.4435 59.212 2
51.9019 56.3184 2
53.0302 45.2297 2
52.3996 48.9998 2
52.0722 52.5989 2
48.7672 60.1434 3.99644
51.029 42.44 3.9835
49.5962 57.4905 3.9646
50.1706 54.2236 3.95944
50.6976 46.9027 3.97625
50.4609 50.6578 3.95286
46.7657 43.4046 3.96257
47.9331 62.4287 0.0115833
47.2884 60.9544 2
46.5577 59.7359 3.99341
41.6623 67.6736 0.0209109
43.3535 65.485 0.0219444
44.7544 63.4008 0.0250872
45.958 61.5229 0.00588336
39.6335 67.7532 2
41.5478 65.6216 2
45.7224 60.5724 2
43.1372 63.6812 2
44.462 61.7698 2
44.5818 60.2203 3.99325
42.9336 62.0249 3.97648
41.5932 63.7905 3.97838
39.6461 65.5918 3.97515
37.5632 67.7343 3.97702
31.6985 65.1081 3.97353
33.3929 67.4723 3.97747
35.3341 69.9525 3.98358
37.5256 70.0434 2
37.5093 72.4561 3.9917
39.7011 70.0169 0.0166327
39.8171 72.402 2
39.9526 74.9197 4
42.1085 72.2049 0.0092279
42.3947 74.6792 2
44.8159 74.2794 0
41.7359 4.97135 3.98785
43.8509 5.3635 2
44.3263 3.11188 3.99173
46.5712 3.64952 2
47.2057 1.27793 4
48.7843 4.32467 0.0105576
49.554 1.99013 2
51.8506 2.85458 0
58.1117 42.783 0.0241402
59.4621 39.797 0.0231932
61.3587 37.4495 0.0233376
58.9363 37.5695 2
57.0247 40.5621 2
53.7718 39.6181 2
55.7251 37.8791 3.97739
48.0495 41.1517 3.96705
51.5922 39.2278 3.97958
39.4419 6.80898 3.98134
59.086 35.1778 0.023439
57.0601 32.4255 0.0247663
55.6253 29.5986 0.0246475
55.0546 19.395 0.036738
54.4905 21.8445 0.0381059
54.2693 24.3815 0.0284089
54.6003 26.946 0.0252863
52.9084 18.8916 0.0368039
51.1614 18.3009 0.0421203
50.5307 16.285 0.0470882
45.9615 5.88957 0.0150632
49.6647 13.8405 0.0323537
47.3505 8.64128 0.0252077
48.5797 11.3564 0.0310174
43.373 7.48288 0.0182723
56.3717 34.8499 2
41.399 7.08555 2
45.3563 8.00471 2
42.8625 9.43333 2
54.6487 31.7457 2
53.5113 28.7295 2
53.6405 20.3892 2
52.9941 23.0406 2
52.9846 25.8664 2
46.6554 10.6879 2
47.7055 13.17 2
51.4287 19.5955 2
49.8693 17.8898 2
48.8503 15.5362 2
53.5736 34.0727 3.97524
52.299 30.8147 3.9748
51.6417 27.5946 3.975
51.4829 24.4855 3.97281
52.0173 21.3476 3.98431
41.0119 9.05533 3.97781
44.7253 10.0111 3.97889
42.4536 10.9166 4.00437
45.9656 12.7698 3.96611
47.618 14.6987 3.96712
47.9928 17.1069 3.97184
49.6566 20.0012 3.98696
49.5455 61.694 0.0256764
50.4462 59.2041 0.0354241
54.3688 41.5828 0.0260981
53.0366 45.2333 0.0269633
52.4033 49.002 0.0300765
51.8965 56.3144 0.0342785
52.069 52.5986 0.0405323
48.7654 60.1381 2
51.0463 42.4575 2
49.5952 57.4896 2
50.1719 54.2256 2
50.6988 46.902 2
50.4646 50.6575 2
46.7743 43.4498 2
47.8711 58.6328 3.99038
48.7675 44.9526 3.98147
48.3177 55.7624 3.95362
48.5936 52.3651 3.98137
48.7801 48.7231 3.96975
44.4537 39.6991 3.82318
44.9955 42.334 3.86981
45.3238 45.3548 3.98059
42.3373 40.9486 3.59843
41.2979 41.5576 3.3969
47.2853 60.953 0.00938416
46.553 59.743 2
45.3948 58.7271 3.99508
39.6322 67.7526 0.0215449
41.5452 65.6236 0.0264969
43.1382 63.6833 0.0219005
44.4626 61.7685 0.0205768
45.7228 60.5676 0.0024049
41.5954 63.7843 2
37.5639 67.737 2
39.649 65.5926 2
44.5831 60.2224 2
42.9323 62.0257 2
41.7407 62.4375 3.97983
42.4488 59.9182 3.98867
39.889 63.527 3.97777
37.6408 65.4886 3.97412
35.4635 67.6442 3.97652
33.5758 65.3201 3.97398
31.9635 63.2634 3.98057
29.8883 64.6948 3.9793
31.6966 65.1082 2
31.3788 67.1824 3.97808
33.3922 67.4737 2
33.1579 69.7457 3.98342
35.3333 69.9538 2
35.1963 72.3712 3.99188
37.5257 70.0414 0.0166723
37.5096 72.4567 2
37.5 75 4
39.8162 72.4021 0.00885798
39.9526 74.9197 2
42.3947 74.6792 0
39.6241 4.71899 3.98817
41.7358 4.97164 2
42.0629 2.71886 3.99236
43.8511 5.36406 0.0146401
44.3266 3.11158 2
44.8158 0.721173 4
46.5705 3.6495 0.00976857
47.2057 1.27779 2
49.554 1.99015 0
57.0209 40.5629 0.0225064
58.9386 37.5682 0.0229622
53.7685 39.6172 0.024
48.0809 41.1693 2
55.7198 37.8751 2
51.5987 39.2204 2
52.4874 36.6227 3.97708
45.9787 40.2374 3.88458
48.957 38.4886 3.97282
37.5158 6.67803 3.98462
39.4426 6.80934 2
39.2093 8.70343 3.98008
35.9423 8.50064 3.98141
56.3698 34.8466 0.0228537
54.6465 31.7429 0.0254549
53.5136 28.7299 0.0238266
53.6378 20.3817 0.0357623
53.0114 23.0377 0.035983
52.9802 25.8669 0.0261906
51.4234 19.5964 0.0132885
49.8703 17.891 0.0309209
48.8453 15.5047 0.028599
45.3576 8.0052 0.0145179
47.7026 13.1724 0.0325208
46.6551 10.6958 0.0244647
41.399 7.08381 0.01684
42.8649 9.43078 0.0282407
53.5701 34.0704 2
41.0111 9.05957 2
44.7219 10.0103 2
42.4544 10.9261 2
52.2975 30.8111 2
51.65 27.5936 2
52.0206 21.3523 2
51.4702 24.4891 2
45.9695 12.7647 2
47.6113 14.6766 2
49.6712 20.0181 2
47.9919 17.1095 2
51.0046 33.0464 3.97706
50.124 29.5717 3.97661
49.9487 26.092 3.97065
49.5739 22.5802 3.98042
40.5574 11.6134 3.98442
43.8237 11.9298 3.96263
45.7414 15.5819 3.98935
47.3689 19.6063 3.97992
44.8431 37.4901 3.8296
48.7672 60.1434 0.00355935
49.5962 57.4905 0.0354032
51.029 42.44 0.0165002
50.6976 46.9027 0.0237498
50.4609 50.6578 0.0471379
50.1706 54.2236 0.0405627
46.7657 43.4046 0.0374289
47.8657 58.6376 2
48.7814 44.9674 2
48.3143 55.7655 2
48.5937 52.3699 2
48.7847 48.7252 2
44.5799 39.7239 2
45.0289 42.3605 2
45.3321 45.3768 2
42.4034 41.011 2
41.3409 41.5836 2
46.6742 57.2338 3.99022
42.9892 39.3563 3.58966
41.6817 40.5401 3.37937
47.0095 46.9586 3.98788
46.8058 54.0496 3.96122
46.9307 50.5008 3.97545
43.9636 46.984 3.98698
43.6581 41.7029 3.8265
43.8529 44.1128 3.85646
41.5541 42.2229 3.64735
40.4119 41.8365 3.33101
46.5577 59.7359 0.00658671
45.3905 58.7246 2
43.8022 57.5911 3.98762
37.5632 67.7343 0.0229774
39.6461 65.5918 0.0248458
41.5932 63.7905 0.0216152
42.9336 62.0249 0.0235201
44.5818 60.2203 0.00675161
35.4633 67.6462 2
41.7386 62.4395 2
39.8894 63.5292 2
37.6427 65.4924 2
42.4498 59.919 2
40.6113 61.582 3.9843
40.4182 58.1007 3.99083
37.8347 63.1825 3.97332
35.5723 65.4112 3.97503
33.5751 65.3188 2
31.9665 63.2629 2
33.6306 63.3122 3.98054
30.387 62.8204 3.98115
32.1363 61.9667 3.98942
26.8983 61.4124 3.98677
28.0732 64.1184 3.98286
29.8876 64.6923 2
29.4093 66.7445 3.97779
31.6985 65.1081 0.0264675
31.3779 67.1833 2
31.016 69.4108 3.98304
33.3929 67.4723 0.0225295
33.1567 69.7468 2
32.8946 72.1454 3.99108
35.3341 69.9525 0.0164206
35.1957 72.3718 2
35.0474 74.9194 4
37.5093 72.4561 0.00830457
37.5 75 2
39.9526 74.9197 0
35.6202 6.73018 3.98256
37.524 4.61839 3.98887
39.6241 4.71881 2
39.7895 2.4753 3.99258
41.7359 4.97135 0.0121507
42.0628 2.71884 2
42.3946 0.32156 4
44.3263 3.11188 0.00827334
44.8159 0.72056 2
47.2057 1.27793 0
48.0495 41.1517 0.0329482
55.7251 37.8791 0.0226138
51.5922 39.2278 0.0204247
46.0136 40.2392 2
48.972 38.4558 2
52.5054 36.6241 2
49.7788 35.555 3.97782
46.5984 37.7147 3.86464
44.4796 35.2427 3.82624
42.3884 33.9812 3.5998
41.338 33.3713 3.39782
37.4575 8.53857 3.98385
37.5167 6.67825 2
39.4419 6.80898 0.018661
39.2101 8.70472 2
38.9709 10.1389 3.99089
35.898 9.78408 3.98136
34.1525 8.83308 3.97895
35.9432 8.50048 2
53.5736 34.0727 0.0247592
52.299 30.8147 0.0251974
51.6417 27.5946 0.0250041
52.0173 21.3476 0.0156895
51.4829 24.4855 0.0271921
49.6566 20.0012 0.0130351
47.9928 17.1069 0.0281617
47.618 14.6987 0.0328796
44.7253 10.0111 0.021106
45.9656 12.7698 0.0338936
41.0119 9.05533 0.0221901
42.4536 10.9166 -0.00437141
51.0206 33.0315 2
40.5636 11.6251 2
43.8259 11.9239 2
50.1381 29.5724 2
49.953 26.1063 2
49.5606 22.548 2
45.7244 15.5136 2
47.3783 19.6409 2
48.5987 31.612 3.9817
48.2769 27.8671 3.97475
48.77 24.7118 3.97583
46.9434 22.4029 3.9929
38.2978 12.7629 3.97811
42.0669 14.3963 3.9844
44.7 18.6974 3.98793
43.3375 37.4744 3.60251
44.9513 37.4772 2
47.8711 58.6328 0.00961574
48.3177 55.7624 0.0463796
48.7675 44.9526 0.0185338
48.7801 48.7231 0.0302481
48.5936 52.3651 0.0186282
44.4537 39.6991 0.17682
44.9955 42.334 0.13019
45.3238 45.3548 0.0194062
42.3373 40.9486 0.401567
41.2979 41.5576 0.603099
46.6711 57.2384 2
43.0796 39.3773 2
41.7015 40.552 2
47.016 46.961 2
46.8007 54.0534 2
46.9314 50.5122 2
44.0067 46.9943 2
43.729 41.7565 2
43.9099 44.1476 2
41.6121 42.3121 2
40.4664 41.8572 2
45.1921 55.7899 4.00139
42.0125 39.0983 3.38851
40.2853 40.4544 3.45762
45.3157 48.6013 4.00377
45.0483 52.2874 3.99241
42.7721 47.9611 3.98976
42.6299 45.6099 3.86313
42.6927 43.4343 3.81248
40.6445 43.1441 3.60926
39.1299 42.1125 3.41243
45.3948 58.7271 0.00491694
43.7955 57.6064 2
42.0262 56.1382 3.9948
35.4635 67.6442 0.0234803
37.6408 65.4886 0.0258754
39.889 63.527 0.0222328
41.7407 62.4375 0.0201656
42.4488 59.9182 0.0113277
35.5733 65.4147 2
40.6099 61.5794 2
37.8357 63.1824 2
40.4151 58.1063 2
38.9086 56.2849 3.99602
38.2417 60.2685 3.98512
35.6063 63.1781 3.97299
33.5758 65.3201 0.0260166
31.9635 63.2634 0.0194254
33.6332 63.3143 2
30.3894 62.8192 2
32.14 61.9661 2
28.6974 62.153 3.97798
33.3547 61.4754 3.98429
31.0913 61.1871 3.99262
27.6298 59.5093 3.97906
23.8753 58.9676 3.98404
25.0769 60.7717 3.97991
26.8991 61.4141 2
26.2469 63.4422 3.97435
28.073 64.1134 2
27.4684 66.1603 3.97707
29.8883 64.6948 0.0206966
29.4079 66.7452 2
28.9092 68.9354 3.98215
31.3788 67.1824 0.0219202
31.0143 69.4112 2
30.6179 71.7769 3.99043
33.1579 69.7457 0.0165779
32.8932 72.1458 2
32.6054 74.6784 4
35.1963 72.3712 0.00812362
35.0474 74.9197 2
37.5 75 0
33.7233 6.98685 3.9809
35.4362 4.68838 3.9882
35.6214 6.73023 2
37.5154 2.38796 3.99275
37.5239 4.61789 2
39.6241 4.71899 0.0118336
39.7892 2.47512 2
39.9526 0.0806499 4
42.0629 2.71886 0.00763505
42.3947 0.320817 2
44.8158 0.721173 0
43.0192 35.5859 3.59738
41.7167 34.3806 3.36305
45.9787 40.2374 0.115419
48.957 38.4886 0.0271811
52.4874 36.6227 0.0229244
46.607 37.7083 2
49.8047 35.5939 2
44.5889 35.2289 2
42.4452 33.9178 2
41.3634 33.3457 2
46.8632 34.4454 3.92994
43.715 33.2345 3.81943
41.6003 32.7099 3.65054
40.4353 33.1008 3.33014
37.3082 10.6372 3.9812
37.4588 8.53968 2
37.5158 6.67803 0.0153805
39.2093 8.70343 0.0199206
38.9766 10.1423 2
34.7562 10.3957 3.97658
35.903 9.78216 2
32.3807 9.38281 3.97377
34.1525 8.83223 2
35.9423 8.50064 0.0185856
51.0046 33.0464 0.0229353
50.124 29.5717 0.0233882
49.9487 26.092 0.0293473
49.5739 22.5802 0.019576
47.3689 19.6063 0.0200846
45.7414 15.5819 0.0106513
43.8237 11.9298 0.0373667
40.5574 11.6134 0.0155779
48.6188 31.5961 2
38.2999 12.763 2
42.0754 14.3972 2
48.276 27.8658 2
48.772 24.7183 2
46.9347 22.3919 2
44.7097 18.7585 2
46.5675 29.8845 3.97946
46.4596 25.4183 3.97934
44.136 21.7007 3.98388
36.5885 12.9786 3.9776
38.6648 14.901 3.97842
41.6842 18.0226 3.98688
42.1819 37.4466 3.41479
43.4189 37.4756 2
44.8431 37.4901 0.170405
46.6742 57.2338 0.00978099
46.8058 54.0496 0.038782
47.0095 46.9586 0.012124
46.9307 50.5008 0.024549
42.9892 39.3563 0.410338
43.6581 41.7029 0.173496
43.8529 44.1128 0.143543
43.9636 46.984 0.0130189
41.5541 42.2229 0.352654
41.6817 40.5401 0.620626
40.4119 41.8365 0.668987
45.1885 55.7938 2
42.0318 39.1062 2
40.3599 40.4462 2
45.3153 48.625 2
45.0429 52.2904 2
42.8205 47.9851 2
42.7017 45.6761 2
42.737 43.4674 2
40.7099 43.2314 2
39.1056 42.1456 2
43.5107 54.2215 4.00669
40.3593 38.9524 3.48803
39.0283 40.5475 3.43954
43.1037 50.0658 4.0031
41.4539 47.093 3.91456
41.3731 44.6943 3.81043
39.3671 43.7981 3.5906
37.5107 42.259 3.47516
43.8022 57.5911 0.0123758
42.0295 56.1265 2
40.3284 54.7014 3.99648
35.5723 65.4112 0.0249679
37.8347 63.1825 0.0266832
40.6113 61.582 0.0157044
40.4182 58.1007 0.0091748
35.6086 63.1742 2
38.2374 60.2646 2
38.9092 56.2678 2
37.9816 54.9629 3.99527
36.9287 57.5063 3.9921
35.3657 60.8713 3.98589
33.6306 63.3122 0.0194557
30.387 62.8204 0.0188544
32.1363 61.9667 0.0105817
33.3586 61.4737 2
28.6975 62.1614 2
31.0949 61.1878 2
29.447 60.2408 3.98469
32.3734 59.6476 3.99605
28.1162 58.301 4.01776
27.6319 59.5078 2
25.4662 58.4954 3.97813
22.8796 58.1184 3.97229
23.4528 60.2372 3.97414
23.8772 58.9684 2
25.0787 60.7724 2
24.4573 62.7114 3.97407
26.8983 61.4124 0.0132286
26.2469 63.4424 2
25.5558 65.4681 3.97398
28.0732 64.1184 0.0171442
27.4671 66.1612 2
26.8401 68.3228 3.98047
29.4093 66.7445 0.0222074
28.9069 68.9351 2
28.3734 71.2623 3.98914
31.016 69.4108 0.0169577
30.6159 71.7765 2
30.1842 74.2788 4
32.8946 72.1454 0.00891697
32.6053 74.6792 2
35.0474 74.9194 0
31.7879 7.42836 3.97827
33.3486 4.9283 3.9867
33.7242 6.98618 2
35.2459 2.46381 3.9927
35.4358 4.68846 2
35.6202 6.73018 0.0174356
37.5 0 4
37.5147 2.38774 2
37.524 4.61839 0.0111286
39.7895 2.4753 0.00742205
39.9526 0.0802889 2
42.3946 0.32156 0
42.0096 35.7923 3.34937
43.12 35.5637 2
40.3412 34.4556 3.46681
41.727 34.3634 2
46.5984 37.7147 0.135355
49.7788 35.555 0.022176
44.4796 35.2427 0.173756
42.3884 33.9812 0.400205
41.338 33.3713 0.602175
46.9015 34.45 2
43.7744 33.1769 2
41.6512 32.6247 2
40.4783 33.0805 2
45.0247 31.908 3.88347
42.7411 31.496 3.80316
40.69 31.7894 3.61207
39.1346 32.8362 3.41017
35.6974 11.7967 3.97492
37.3164 10.6382 2
37.4575 8.53857 0.0161515
38.9709 10.1389 0.00910602
33.1039 11.2385 3.97299
34.759 10.3911 2
35.898 9.78408 0.0186425
30.4878 10.0361 3.97496
32.3805 9.38286 2
34.1525 8.83308 0.021052
48.5987 31.612 0.0182967
48.2769 27.8671 0.0252524
48.77 24.7118 0.0241662
46.9434 22.4029 0.00710066
44.7 18.6974 0.0120679
42.0669 14.3963 0.0156049
38.2978 12.7629 0.0218905
36.5856 12.9663 2
46.5567 29.8254 2
38.6693 14.8776 2
41.68 18.0196 2
46.4664 25.4054 2
44.1231 21.6885 2
44.642 28.0357 3.99521
43.3916 24.3484 4.01658
41.234 21.047 3.9958
35.7738 14.8146 3.98879
38.6335 17.7613 3.9887
40.4145 37.4096 3.51523
42.2064 37.4526 2
43.3375 37.4744 0.397489
45.1921 55.7899 -0.00138764
45.0483 52.2874 0.00758768
45.3157 48.6013 -0.00376733
42.0125 39.0983 0.611489
42.6927 43.4343 0.187519
42.6299 45.6099 0.136866
42.7721 47.9611 0.0102386
40.6445 43.1441 0.390745
40.2853 40.4544 0.542383
39.1299 42.1125 0.587569
43.5064 54.2182 2
40.3992 38.9559 2
39.0129 40.5512 2
43.0932 50.0884 2
41.4468 47.1205 2
41.396 44.7345 2
37.5045 42.2849 2
39.3862 43.881 2
41.6621 52.6712 4.00158
39.0403 39.0137 3.43035
37.5077 40.59 3.50125
35.8917 42.13 3.40827
40.6651 49.2093 3.99055
39.6131 45.3736 3.77568
37.508 44.0937 3.63867
42.0262 56.1382 0.00519582
40.3273 54.7082 2
38.6978 53.44 3.99706
35.6063 63.1781 0.0270066
38.2417 60.2685 0.0148832
38.9086 56.2849 0.00397619
35.3659 60.8542 2
36.9287 57.5124 2
37.9734 54.9566 2
36.3324 55.0668 3.99681
34.4993 58.4258 3.99519
33.3547 61.4754 0.0157068
28.6974 62.153 0.0220216
31.0913 61.1871 0.00737526
32.3721 59.6516 2
29.4494 60.2456 2
30.3753 57.7364 3.98931
28.1184 58.2986 2
27.1164 56.7326 3.96576
27.6298 59.5093 0.0209394
25.4688 58.4962 2
24.0452 56.6693 3.95984
21.5455 57.2475 3.95816
22.0611 59.5149 3.97281
22.8802 58.1203 2
22.7683 61.9325 3.97258
23.4548 60.2376 2
23.8753 58.9676 0.0159624
25.0769 60.7717 0.0200866
24.4577 62.712 2
23.6929 64.6787 3.97048
26.2469 63.4422 0.025654
25.555 65.4714 2
24.8126 67.5836 3.97689
27.4684 66.1603 0.0229321
26.8375 68.3243 2
26.1689 70.603 3.98856
28.9092 68.9354 0.0178542
28.371 71.2616 2
27.7943 73.7221 4
30.6179 71.7769 0.00957039
30.1841 74.2794 2
32.6054 74.6784 0
29.8112 8.00653 3.97597
31.2539 5.33627 3.98517
31.7886 7.42745 2
32.982 2.70198 3.99208
33.3479 4.92809 2
33.7233 6.98685 0.0190964
35.0474 0.080333 4
35.245 2.46397 2
35.4362 4.68838 0.011802
37.5 0 2
37.5154 2.38796 0.00725428
39.9526 0.0806499 0
40.4649 35.9151 3.51286
42.0407 35.7915 2
43.0192 35.5859 0.402619
28.5499 10.7128 3.97544
39.0328 34.4118 3.42777
40.3547 34.4527 2
41.7167 34.3806 0.636946
46.8632 34.4454 0.0700579
43.715 33.2345 0.180573
41.6003 32.7099 0.349461
40.4353 33.1008 0.669863
45.0561 31.8888 2
42.7891 31.4545 2
40.75 31.7044 2
39.1224 32.7996 2
43.5044 30.1831 3.86667
41.4012 30.2315 3.8118
39.3819 31.1417 3.59416
37.5243 32.7071 3.47307
34.1033 12.9614 3.97838
35.7008 11.7863 2
37.3082 10.6372 0.0187961
31.195 12.0104 3.97589
33.1066 11.2365 2
34.7562 10.3957 0.0234156
30.4852 10.0318 2
32.3807 9.38281 0.0262285
46.5675 29.8845 0.0205365
46.4596 25.4183 0.020657
36.5885 12.9786 0.0224029
44.136 21.7007 0.0161234
41.6842 18.0226 0.0131227
38.6648 14.901 0.0215821
35.7704 14.8268 2
44.6413 28.0367 2
38.6395 17.746 2
41.2211 21.0237 2
43.3891 24.3254 2
33.6306 15.9196 3.9896
42.5375 26.8297 3.97159
40.7499 23.7018 3.99608
38.3656 20.5677 3.9924
35.8336 17.6465 3.98374
39.0587 37.4794 3.42571
40.4393 37.4179 2
42.1819 37.4466 0.585211
43.5107 54.2215 -0.00668803
43.1037 50.0658 -0.00309774
40.3593 38.9524 0.511966
41.3731 44.6943 0.18957
41.4539 47.093 0.0854381
39.3671 43.7981 0.409401
39.0283 40.5475 0.560456
37.5107 42.259 0.524844
41.6514 52.6653 2
39.0206 39.0064 2
37.4993 40.5922 2
40.6452 49.2145 2
35.9108 42.16 2
39.6483 45.4458 2
37.5016 44.175 2
39.6864 51.4241 3.99879
37.512 39.0107 3.48596
36.0097 40.5686 3.43802
34.6088 41.8639 3.3312
35.6489 43.8147 3.58988
38.6061 48.0393 3.9226
37.5084 45.6667 3.80928
40.3284 54.7014 0.00352183
38.6928 53.4567 2
36.7662 52.8064 3.99741
35.3657 60.8713 0.0141067
36.9287 57.5063 0.0078968
37.9816 54.9629 0.00473029
34.4972 58.4398 2
36.3366 55.0584 2
33.3174 55.2654 3.9979
32.3734 59.6476 0.00394809
29.447 60.2408 0.015312
30.3778 57.7286 2
28.931 55.2374 3.99545
28.1162 58.301 -0.0177578
27.1194 56.7297 2
25.616 54.9956 3.95465
22.163 55.1581 3.9589
25.4662 58.4954 0.0218654
24.0465 56.6713 2
20.4351 56.8766 3.96191
20.7473 58.6614 3.95924
21.5474 57.2491 2
21.2054 61.0697 3.96961
22.0617 59.515 2
22.8796 58.1184 0.0277122
21.9121 63.781 3.97154
22.7693 61.9335 2
23.4528 60.2372 0.0258615
24.4573 62.7114 0.025931
23.6923 64.6803 2
22.8408 66.7241 3.97397
25.5558 65.4681 0.0260225
24.8101 67.5812 2
24.0132 69.8045 3.98754
26.8401 68.3228 0.0195312
26.1654 70.6025 2
25.446 73.0099 4
28.3734 71.2623 0.0108553
27.7943 73.7222 2
30.1842 74.2788 0
27.8217 8.66814 3.97619
29.1562 5.88411 3.98232
29.8108 8.00291 2
30.7276 3.09932 3.99142
31.2532 5.33515 2
31.7879 7.42836 0.0217271
32.6053 0.320823 4
32.9807 2.70208 2
33.3486 4.9283 0.0132957
35.0474 0.0802903 2
35.2459 2.46381 0.00730138
37.5 0 0
38.974 35.9498 3.44042
40.4442 35.9109 2
42.0096 35.7923 0.650629
28.5466 10.7088 2
26.6328 11.4119 3.97454
29.2368 12.6634 3.97859
37.5309 34.3807 3.50164
39.0567 34.4232 2
40.3412 34.4556 0.533185
45.0247 31.908 0.116534
42.7411 31.496 0.196843
40.69 31.7894 0.387929
39.1346 32.8362 0.589831
43.533 30.1542 2
41.4397 30.1862 2
39.3967 31.0606 2
37.5322 32.679 2
41.8153 28.9017 3.85365
39.6232 29.5549 3.79791
37.5202 30.8614 3.63962
35.9046 32.8461 3.41545
31.9396 14.5081 3.98375
34.1064 12.9659 2
35.6974 11.7967 0.0250761
31.1957 12.0009 2
33.1039 11.2385 0.0270068
30.4878 10.0361 0.0250356
44.642 28.0357 0.00479053
43.3916 24.3484 -0.0165817
35.7738 14.8146 0.0112111
41.234 21.047 0.00420037
38.6335 17.7613 0.0112983
33.6151 15.9127 2
35.8394 17.5844 2
42.6069 26.7995 2
38.3452 20.6014 2
40.7367 23.7066 2
33.5686 17.4621 3.9911
40.2003 26.1994 3.9652
38.0143 23.4649 3.99698
35.5245 20.3682 3.99566
37.5298 37.4724 3.50401
39.0276 37.4702 2
40.4145 37.4096 0.484771
41.6621 52.6712 -0.00157787
40.6651 49.2093 0.00944661
39.0403 39.0137 0.569648
39.6131 45.3736 0.224322
37.508 44.0937 0.361329
37.5077 40.59 0.498751
35.8917 42.13 0.591727
39.6681 51.4173 2
37.5052 39.0121 2
35.9986 40.5498 2
38.6267 48.1054 2
34.5616 41.8842 2
35.6282 43.8965 2
37.5012 45.7283 2
37.6762 50.3823 3.98977
36.0491 39.0307 3.44412
34.7171 40.4908 3.46868
33.709 41.5914 3.39992
34.3795 43.1724 3.60428
35.3507 45.4325 3.80297
36.9261 47.6608 3.88003
38.6978 53.44 0.0029397
36.7777 52.7516 2
34.5112 52.129 4.00102
34.4993 58.4258 0.00481421
36.3324 55.0668 0.00319155
33.3234 55.2729 2
30.792 53.213 3.99818
30.3753 57.7364 0.0106894
28.9342 55.2376 2
27.2811 53.254 3.95471
27.1164 56.7326 0.0342375
25.6195 54.998 2
24.0505 53.2529 3.95346
21.052 52.9746 3.95884
20.269 55.6487 3.96063
22.1626 55.1587 2
24.0452 56.6693 0.0401621
19.5922 57.7584 3.961
20.4297 56.8801 2
19.7448 60.11 3.96903
20.7387 58.6656 2
21.5455 57.2475 0.0418383
20.2308 62.7778 3.97114
21.2094 61.0712 2
22.0611 59.5149 0.0271865
20.9441 65.7457 3.97166
21.9119 63.7845 2
22.7683 61.9325 0.0274224
23.6929 64.6787 0.0295228
22.839 66.7222 2
21.916 68.8708 3.98575
24.8126 67.5836 0.0231101
24.0095 69.802 2
23.1494 72.1454 4
26.1689 70.603 0.0114366
25.446 73.0099 2
27.7943 73.7221 0
25.862 9.39871 3.97403
27.0712 6.54967 3.98043
27.8198 8.66458 2
28.4901 3.64528 3.99019
29.1548 5.88247 2
29.8112 8.00653 0.024026
30.1841 0.720592 4
30.7255 3.09913 2
31.2539 5.33627 0.0148333
32.6053 0.320817 2
32.982 2.70198 0.00791838
35.0474 0.080333 0
37.5212 35.9402 3.47569
38.953 35.9216 2
40.4649 35.9151 0.487137
24.7934 12.0883 3.97088
23.7848 14.4685 3.9799
28.5499 10.7128 0.0245578
26.6275 11.4084 2
29.237 12.6602 2
27.3033 13.4182 3.97247
29.8101 14.2191 3.99195
36.0012 34.4107 3.44606
37.5459 34.3751 2
39.0328 34.4118 0.572227
37.5243 32.7071 0.526935
43.5044 30.1831 0.133332
41.4012 30.2315 0.1882
39.3819 31.1417 0.405841
41.8466 28.8267 2
39.6534 29.4867 2
37.523 30.7846 2
35.9251 32.8153 2
39.8081 28.1801 3.8533
37.4903 29.2767 3.79759
35.6673 31.1647 3.59242
34.6103 33.1201 3.33555
30.9736 16.8663 3.99663
31.9349 14.4939 2
34.1033 12.9614 0.0216191
31.195 12.0104 0.0241135
42.5375 26.8297 0.028405
40.7499 23.7018 0.00391876
33.6306 15.9196 0.0104015
35.8336 17.6465 0.0162644
38.3656 20.5677 0.00759612
33.5462 17.4847 2
35.5114 20.4085 2
40.224 26.1701 2
38.0282 23.4567 2
32.9649 19.9498 3.99792
37.7331 25.8544 3.96025
35.3524 23.1204 4.0102
36.017 37.469 3.43114
37.5102 37.4719 2
39.0587 37.4794 0.574289
39.6864 51.4241 0.00121186
38.6061 48.0393 0.077405
37.512 39.0107 0.514045
37.5084 45.6667 0.190718
35.6489 43.8147 0.410124
36.0097 40.5686 0.561981
34.6088 41.8639 0.668801
37.6484 50.4191 2
36.0902 39.0168 2
34.661 40.5022 2
36.9286 47.7256 2
33.6668 41.6194 2
34.3155 43.2518 2
35.3204 45.4919 2
35.576 49.5876 3.98102
34.6117 39.0148 3.50761
33.3282 40.5828 3.36683
33.4552 42.254 3.64989
33.6793 44.7118 3.8012
34.635 46.8315 3.85599
36.7662 52.8064 0.00258709
34.4922 52.162 2
32.3559 50.9468 4.00117
33.3174 55.2654 0.00209522
30.7949 53.2088 2
28.9086 51.319 3.98929
28.931 55.2374 0.00454541
27.285 53.2553 2
25.6638 51.4801 3.95315
25.616 54.9956 0.0453475
24.0541 53.2571 2
22.6398 51.528 3.95587
19.9597 51.3531 3.96389
19.4206 54.088 3.96133
21.0564 52.9732 2
18.7163 56.5648 3.96185
20.2667 55.6511 2
22.163 55.1581 0.0410981
18.4461 59.0102 3.95771
19.5905 57.7609 2
20.4351 56.8766 0.0380915
18.6385 61.6883 3.97616
19.7479 60.1134 2
20.7473 58.6614 0.040758
19.1376 64.6366 3.97133
20.2318 62.7807 2
21.2054 61.0697 0.0303941
19.8902 67.8072 3.98342
20.9421 65.7453 2
21.9121 63.781 0.0284565
22.8408 66.7241 0.02603
21.9118 68.8683 2
20.9142 71.1327 4
24.0132 69.8045 0.0124569
23.1494 72.1455 2
25.446 73.0099 0
23.1145 12.8761 3.97722
23.9758 10.1836 3.97438
25.0248 7.32112 3.97762
25.8594 9.39736 2
26.2822 4.32995 3.98895
27.0685 6.54849 2
27.8217 8.66814 0.0238118
27.7943 1.27781 4
28.4871 3.64588 2
29.1562 5.88411 0.0176807
30.1841 0.720551 2
30.7276 3.09932 0.00857616
32.6053 0.320823 0
35.9984 35.9341 3.43473
37.5577 35.9521 2
38.974 35.9498 0.55958
24.7829 12.1223 2
23.7835 14.476 2
22.5284 15.1536 3.98211
25.3792 14.013 3.97313
24.0915 15.7236 4.00011
26.6328 11.4119 0.0254588
29.2368 12.6634 0.0214105
27.3126 13.3976 2
29.8039 14.2183 2
28.4147 15.985 3.99243
34.7396 34.4946 3.459
36.0193 34.4091 2
37.5309 34.3807 0.498357
35.9046 32.8461 0.584555
37.5202 30.8614 0.360377
41.8153 28.9017 0.146354
39.6232 29.5549 0.202086
39.8608 28.1231 2
37.4958 29.226 2
35.6496 31.0811 2
34.5612 33.1006 2
37.6304 27.9029 3.85405
35.4129 29.5765 3.7962
34.371 31.8109 3.61039
33.7163 33.3961 3.39927
30.3072 19.5822 3.98051
30.9464 16.8656 2
31.9396 14.5081 0.01625
40.2003 26.1994 0.034796
38.0143 23.4649 0.00301569
33.5686 17.4621 0.0089044
35.5245 20.3682 0.00433898
32.9765 19.9741 2
35.308 23.1056 2
37.7203 25.8363 2
32.5865 22.7007 4.00248
35.2206 25.73 3.98412
34.5952 37.5052 3.52924
36.0122 37.489 2
37.5298 37.4724 0.495989
37.6762 50.3823 0.0102322
36.9261 47.6608 0.119969
36.0491 39.0307 0.555877
35.3507 45.4325 0.197026
34.3795 43.1724 0.395718
34.7171 40.4908 0.531322
33.709 41.5914 0.600075
35.5537 49.6006 2
34.5905 39.0217 2
33.3115 40.5923 2
34.5692 46.9063 2
33.3985 42.3425 2
33.6356 44.7594 2
33.5505 48.7211 3.97192
33.0139 39.1561 3.35485
32.6498 40.9812 3.59849
32.312 43.4675 3.80857
32.9043 45.836 3.85223
34.5112 52.129 -0.00102246
32.3708 50.9429 2
30.5017 49.46 4.00466
30.792 53.213 0.00181776
28.9163 51.3296 2
27.2234 49.6868 3.97527
27.2811 53.254 0.0452868
25.6668 51.4778 2
24.1231 49.8772 3.96777
24.0505 53.2529 0.0465411
22.6454 51.5253 2
21.3227 50.0029 3.96724
18.6981 50.0707 3.97266
18.4687 52.5474 3.96609
19.9531 51.3534 2
17.8585 55.1494 3.96236
19.4189 54.0884 2
21.052 52.9746 0.0411586
17.3149 57.7508 3.95863
18.7168 56.5658 2
20.269 55.6487 0.0393703
17.1594 60.4801 3.95754
18.4451 59.0127 2
19.5922 57.7584 0.039004
17.4195 63.4168 3.96863
18.6396 61.6913 2
19.7448 60.11 0.0309744
17.9461 66.6144 3.97992
19.1354 64.6342 2
20.2308 62.7778 0.028861
18.75 69.9759 4
19.8862 67.8026 2
20.9441 65.7457 0.0283361
21.916 68.8708 0.0142475
20.9142 71.1327 2
23.1494 72.1454 0
21.6163 13.7085 3.96824
22.1995 11.0682 3.96877
23.1142 12.8716 2
23.0417 8.18867 3.97468
23.9747 10.1955 2
24.1202 5.14447 3.98865
25.021 7.32071 2
25.862 9.39871 0.0259661
25.446 1.99014 4
26.278 4.33091 2
27.0712 6.54967 0.0195691
27.7943 1.27778 2
28.4901 3.64528 0.00981336
30.1841 0.720592 0
34.6736 35.9786 3.49126
36.0233 35.9452 2
37.5212 35.9402 0.524309
21.3757 15.9538 3.96068
24.7934 12.0883 0.029121
23.7848 14.4685 0.0201027
25.3786 13.9889 2
22.5269 15.1413 2
24.0955 15.7326 2
23.3579 16.3626 3.96354
25.4493 16.203 3.98709
27.3033 13.4182 0.0275291
29.8101 14.2191 0.00804725
28.4075 16.0049 2
27.546 18.9972 3.98029
33.3342 34.4107 3.3839
34.6658 34.503 2
36.0012 34.4107 0.553945
34.6103 33.1201 0.664453
35.6673 31.1647 0.407575
37.4903 29.2767 0.202412
39.8081 28.1801 0.146701
37.5902 27.8685 2
33.6794 33.3728 2
35.3979 29.5086 2
34.3174 31.7288 2
35.2924 27.9961 3.86909
33.662 30.2585 3.80446
33.4515 32.7259 3.65342
29.9085 22.194 4.00875
30.3086 19.5727 2
30.9736 16.8663 0.00336629
37.7331 25.8544 0.0397509
35.3524 23.1204 -0.0101967
32.9649 19.9498 0.00207642
32.571 22.6648 2
35.2368 25.7211 2
32.2134 26.0052 4.00976
32.8382 37.4971 3.40793
34.5921 37.4965 2
36.017 37.469 0.568864
35.576 49.5876 0.0189755
34.635 46.8315 0.144006
34.6117 39.0148 0.492389
33.6793 44.7118 0.198796
33.4552 42.254 0.350109
33.3282 40.5828 0.633174
33.5437 48.7094 2
33.0125 39.1643 2
32.5931 41.0432 2
32.8939 45.8955 2
32.268 43.4987 2
31.8739 47.5382 3.98726
32.0203 39.3803 3.59872
31.328 41.7368 3.82159
31.4265 44.4854 3.85828
32.3559 50.9468 -0.00116625
30.5076 49.4876 2
28.7501 47.8771 3.97484
28.9086 51.319 0.0107072
27.2226 49.6891 2
25.5868 48.125 3.9741
25.6638 51.4801 0.0468532
24.1265 49.8745 2
22.6423 48.4374 3.97157
22.6398 51.528 0.0441267
21.3235 50.0007 2
19.8496 48.8018 3.9752
17.5643 49.0958 3.97622
17.3809 51.181 3.97187
18.6996 50.0694 2
16.8798 53.6717 3.967
18.4656 52.5476 2
19.9597 51.3531 0.0361071
16.2783 56.3287 3.96154
17.8563 55.1503 2
19.4206 54.088 0.0386651
15.8191 59.1361 3.95685
17.3115 57.7533 2
18.7163 56.5648 0.0381509
15.7933 62.0893 3.97076
17.163 60.482 2
18.4461 59.0102 0.0422851
16.0934 65.2938 3.97588
17.4171 63.4253 2
18.6385 61.6883 0.0238401
16.6661 68.6801 4
17.9427 66.6096 2
19.1376 64.6366 0.0286704
18.75 69.9759 2
19.8902 67.8072 0.0165847
20.9142 71.1327 0
20.256 14.701 3.97085
21.6174 13.7075 2
20.5463 12.0777 3.97213
21.1456 9.16316 3.9738
22.1944 11.0815 2
23.1145 12.8761 0.0227834
22.0197 6.08338 3.98709
23.0389 8.19203 2
23.9758 10.1836 0.0256156
23.1494 2.85457 4
24.1149 5.14668 2
25.0248 7.32112 0.0223758
25.446 1.99012 2
26.2822 4.32995 0.0110484
27.7943 1.27781 0
32.9968 35.8495 3.3894
34.626 35.9788 2
35.9984 35.9341 0.565274
21.3814 15.9448 2
20.4284 17.0885 3.96074
22.1954 16.7584 3.9565
25.3792 14.013 0.0268655
22.5284 15.1536 0.0178854
24.0915 15.7236 -0.000112852
25.4504 16.2037 2
23.3636 16.3599 2
24.3292 18.6606 3.9827
27.3533 21.7913 3.99424
28.4147 15.985 0.00756613
27.5377 19.0197 2
32.6734 33.9949 3.59621
33.316 34.4017 2
34.7396 34.4946 0.540999
33.7163 33.3961 0.600729
34.371 31.8109 0.389605
35.4129 29.5765 0.203795
37.6304 27.9029 0.145949
35.2785 27.9478 2
33.4019 32.644 2
33.6182 30.2079 2
33.1336 28.6286 3.87793
32.3107 31.5031 3.8049
29.3689 24.6607 4.01573
29.8826 22.1923 2
30.3072 19.5822 0.01949
35.2206 25.73 0.01588
32.5865 22.7007 -0.00248252
32.2036 25.9714 2
30.4579 27.6841 3.98181
31.6868 37.482 3.59678
32.831 37.4973 2
34.5952 37.5052 0.470763
33.5505 48.7211 0.0280754
32.9043 45.836 0.147771
33.0139 39.1561 0.64515
32.312 43.4675 0.191433
32.6498 40.9812 0.401512
31.8203 47.5675 2
31.9251 39.3932 2
31.2643 41.7936 2
31.3652 44.5363 2
30.2037 46.1552 3.98345
30.5546 39.7337 3.82931
30.017 42.8162 3.87731
30.5017 49.46 -0.00465606
28.75 47.8829 2
27.0458 46.2929 3.97904
27.2234 49.6868 0.024735
25.589 48.1224 2
23.9315 46.6987 3.97544
24.1231 49.8772 0.0322277
22.6419 48.436 2
20.9084 47.3041 3.97589
21.3227 50.0029 0.0327638
19.8483 48.8005 2
18.4438 47.922 3.97639
16.805 48.4628 3.97606
17.5636 49.0957 2
16.4292 49.9624 3.97503
15.8653 52.2301 3.97188
17.3827 51.1801 2
18.6981 50.0707 0.0273395
15.2258 54.8258 3.96487
16.8804 53.6713 2
18.4687 52.5474 0.0339076
14.6063 57.653 3.9581
16.278 56.3294 2
17.8585 55.1494 0.0376387
14.2767 60.6567 3.96368
15.8169 59.1386 2
17.3149 57.7508 0.0413698
14.3382 63.8535 3.97382
15.7963 62.091 2
17.1594 60.4801 0.042461
14.6715 67.2507 4
16.0898 65.2895 2
17.4195 63.4168 0.0313672
16.6661 68.6801 2
17.9461 66.6144 0.0200763
18.75 69.9759 0
18.9976 15.8882 3.95924
20.26 14.6921 2
19.0019 13.1979 3.97056
21.6163 13.7085 0.0317648
20.542 12.0788 2
19.3491 10.2608 3.9713
19.9948 7.14839 3.98489
21.142 9.16287 2
22.1995 11.0682 0.0312254
20.9142 3.86727 4
22.0139 6.08689 2
23.0417 8.18867 0.0253157
23.1494 2.85451 2
24.1202 5.14447 0.0113499
25.446 1.99014 0
32.0412 35.5972 3.58824
32.991 35.842 2
34.6736 35.9786 0.508738
21.3757 15.9538 0.03932
22.2019 16.7517 2
20.4357 17.0872 2
19.4931 18.5796 3.95796
21.9101 18.0414 3.98556
25.4493 16.203 0.012914
23.3579 16.3626 0.0364585
24.3228 18.6791 2
22.5934 20.1183 3.97258
24.9442 21.6421 3.99072
27.0033 23.952 3.98481
27.3494 21.7046 2
27.546 18.9972 0.0197127
31.3645 33.2454 3.82082
32.6141 33.9444 2
33.3342 34.4107 0.616098
33.4515 32.7259 0.346583
33.662 30.2585 0.195543
35.2924 27.9961 0.130905
33.0918 28.588 2
32.2511 31.4472 2
31.1145 29.9953 3.89694
28.7431 26.8519 4.00784
29.3565 24.6728 2
29.9085 22.194 -0.00874768
32.2134 26.0052 -0.00975869
30.4463 27.6612 2
30.1755 37.4699 3.829
31.5952 37.4805 2
32.8382 37.4971 0.59207
31.8739 47.5382 0.0127432
31.4265 44.4854 0.141717
32.0203 39.3803 0.401278
31.328 41.7368 0.178407
30.21 46.163 2
30.4543 39.7416 2
29.9862 42.8461 2
28.5506 44.4926 3.96502
28.2997 40.4187 3.92179
28.7501 47.8771 0.0251616
27.0465 46.2915 2
25.2713 44.811 3.98027
25.5868 48.125 0.0258961
23.9309 46.697 2
21.9796 45.6135 3.97731
22.6423 48.4374 0.0284287
20.9088 47.303 2
19.2144 46.4834 3.97583
19.8496 48.8018 0.0247957
18.4441 47.9217 2
17.0669 47.4932 3.97558
16.8064 48.463 2
15.7923 48.8163 3.97537
17.5643 49.0958 0.0237831
16.4308 49.9616 2
14.9697 50.8137 3.97441
14.1823 53.2958 3.96935
15.8664 52.2295 2
17.3809 51.181 0.0281315
13.4649 56.0747 3.96097
15.2257 54.826 2
16.8798 53.6717 0.033003
12.8727 59.0985 3.9565
14.6049 57.6545 2
16.2783 56.3287 0.0384614
12.6839 62.2938 3.96852
14.2803 60.6583 2
15.8191 59.1361 0.0431464
12.7746 65.6939 4
14.3348 63.8471 2
15.7933 62.0893 0.0292436
14.6714 67.2507 2
16.0934 65.2938 0.0241181
16.6661 68.6801 0
17.8396 17.2894 3.95975
18.9996 15.8802 2
17.5419 14.4513 3.96773
20.256 14.701 0.0291456
19.0005 13.1931 2
17.6518 11.507 3.97156
20.5463 12.0777 0.0278653
19.3451 10.273 2
18.0544 8.34157 3.98236
18.75 5.0241 4
19.9883 7.15375 2
21.1456 9.16316 0.0261963
20.9142 3.86727 2
22.0197 6.08338 0.0129082
23.1494 2.85457 0
30.5624 35.2632 3.824
31.9454 35.5758 2
32.9968 35.8495 0.610598
22.1954 16.7584 0.0434971
20.4284 17.0885 0.0392584
21.9147 18.0379 2
19.4856 18.576 2
18.3908 20.1485 3.96345
21.1609 19.5928 3.97346
24.3292 18.6606 0.0173017
22.5894 20.1159 2
24.9559 21.6098 2
22.8378 21.9822 3.97892
25.3158 23.3059 3.98321
26.3658 26.2326 3.98131
27.0061 23.9484 2
27.3533 21.7913 0.00575946
29.7786 32.6134 3.87732
31.2814 33.1987 2
32.6734 33.9949 0.403786
32.3107 31.5031 0.195102
33.1336 28.6286 0.122072
31.0936 29.9746 2
28.1756 29.4638 4.0095
28.7235 26.8657 2
29.3689 24.6607 -0.0157315
30.4579 27.6841 0.0181892
28.51 37.3953 3.8629
30.0856 37.482 2
31.6868 37.482 0.403221
30.2037 46.1552 0.0165539
30.017 42.8162 0.122693
30.5546 39.7337 0.170694
28.5526 44.5496 2
28.2583 40.4277 2
26.6886 42.9571 3.97946
25.6102 39.4108 3.97735
27.0458 46.2929 0.0209619
25.2623 44.8165 2
23.2115 43.6479 3.9753
23.9315 46.6987 0.0245649
21.9773 45.6146 2
20.0343 44.7262 3.97513
20.9084 47.3041 0.0241109
19.2141 46.4842 2
17.4457 45.9985 3.9755
18.4438 47.922 0.0236135
17.0674 47.4934 2
15.5724 47.4845 3.97521
16.805 48.4628 0.0239367
15.7942 48.816 2
14.2868 49.3826 3.97513
16.4292 49.9624 0.0249665
14.9708 50.8131 2
13.2497 51.7476 3.97241
12.3576 54.4415 3.96365
14.1831 53.2955 2
15.8653 52.2301 0.0281239
11.6028 57.4268 3.95899
13.4636 56.0753 2
15.2258 54.8258 0.0351342
11.14 60.6205 3.96761
12.8768 59.0975 2
14.6063 57.653 0.0418971
10.9835 64.0165 4
12.6822 62.2871 2
14.2767 60.6567 0.036324
12.7745 65.694 2
14.3382 63.8535 0.0261813
14.6715 67.2507 0
16.6786 18.8037 3.96084
17.8356 17.2829 2
16.1695 15.8603 3.95601
18.9976 15.8882 0.0407621
17.5439 14.447 2
16.0316 12.8606 3.96596
19.0019 13.1979 0.0294398
17.6461 11.5113 2
16.2062 9.66805 3.97659
19.3491 10.2608 0.0287043
18.0491 8.34868 2
16.6661 6.31991 4
18.75 5.02404 2
19.9948 7.14839 0.0151058
20.9142 3.86727 0
28.963 34.8926 3.8863
30.4489 35.224 2
32.0412 35.5972 0.411758
17.1334 21.5803 3.9698
21.9101 18.0414 0.0144433
19.4931 18.5796 0.0420352
21.1509 19.5876 2
18.3846 20.1452 2
20.2655 21.8335 3.97363
22.5934 20.1183 0.0274184
24.9442 21.6421 0.00927598
22.8385 21.9803 2
25.2953 23.3683 2
23.6747 24.8909 3.97153
25.7439 28.8307 3.9843
26.3536 26.241 2
27.0033 23.952 0.0151942
27.6464 31.9685 3.97858
29.733 32.591 2
31.3645 33.2454 0.179179
31.1145 29.9953 0.103057
28.1908 29.4239 2
28.7431 26.8519 -0.00783649
26.3211 36.8795 3.96215
28.4759 37.3901 2
30.1755 37.4699 0.170999
28.5506 44.4926 0.0349781
28.2997 40.4187 0.0782087
26.665 42.986 2
25.5709 39.4077 2
24.4564 41.652 3.97775
23.3029 38.5125 3.97578
25.2713 44.811 0.019734
23.2106 43.652 2
20.9338 42.6907 3.97479
21.9796 45.6135 0.0226949
20.0359 44.7269 2
17.8695 44.1903 3.97507
19.2144 46.4834 0.0241708
17.446 45.9993 2
15.5443 45.9201 3.97532
17.0669 47.4932 0.0244193
15.573 47.4846 2
13.8218 47.8581 3.9751
15.7923 48.8163 0.0246348
14.2881 49.382 2
12.4867 50.1345 3.97444
14.9697 50.8137 0.0255944
13.2507 51.747 2
11.3489 52.7604 3.96611
10.4072 55.6815 3.96077
12.3575 54.4414 2
14.1823 53.2958 0.0306499
9.70604 58.8456 3.97013
11.6072 57.4256 2
13.4649 56.0747 0.0390306
9.30605 62.2254 4
11.1386 60.6145 2
12.8727 59.0985 0.0434962
10.9835 64.0165 2
12.6839 62.2938 0.0314799
12.7746 65.6939 0
15.4863 20.3421 3.96495
16.6905 18.8026 2
14.8917 17.3965 3.95775
17.8396 17.2894 0.0402513
16.1677 15.8557 2
14.4935 14.3336 3.96683
17.5419 14.4513 0.0322715
16.033 12.8555 2
14.45 11.1207 3.97459
17.6518 11.507 0.0284387
16.2016 9.67604 2
14.6715 7.74927 4
18.0544 8.34157 0.0176372
16.6661 6.31988 2
18.75 5.0241 0
26.9181 34.4122 3.97206
28.9376 34.9015 2
30.5624 35.2632 0.176002
18.4258 22.5665 3.97471
16.0361 23.1193 3.97255
17.1324 21.5786 2
21.1609 19.5928 0.0265363
18.3908 20.1485 0.0365515
20.263 21.831 2
20.424 24.6841 3.97223
22.8378 21.9822 0.0210823
25.3158 23.3059 0.0167857
23.6667 24.8858 2
23.1106 28.1822 3.97127
25.2142 31.4946 3.98313
25.7535 28.7904 2
26.3658 26.2326 0.0186869
27.6129 31.9366 2
29.7786 32.6134 0.122682
28.1756 29.4638 -0.00950299
24.0551 36.3345 3.97776
26.289 36.8702 2
28.51 37.3953 0.137098
26.6886 42.9571 0.0205446
25.6102 39.4108 0.0226452
24.4291 41.6562 2
23.302 38.5101 2
22.0894 40.5305 3.97546
21.3922 37.7865 3.97789
23.2115 43.6479 0.0247004
20.9353 42.69 2
18.3541 41.9639 3.97567
20.0343 44.7262 0.0248725
17.8699 44.1906 2
15.5929 44.0543 3.97527
17.4457 45.9985 0.0245005
15.5439 45.9204 2
13.5226 46.1637 3.97515
15.5724 47.4845 0.0247861
13.8225 47.8579 2
11.876 48.4392 3.97526
14.2868 49.3826 0.0248657
12.4882 50.1337 2
10.4832 51.0107 3.96839
13.2497 51.7476 0.0275936
11.3497 52.7597 2
9.31265 53.8646 3.96201
8.3902 56.9809 3.97111
10.4088 55.6802 2
12.3576 54.4415 0.036353
7.74927 60.3285 4
9.70508 58.8407 2
11.6028 57.4268 0.0410123
9.306 62.2255 2
11.14 60.6205 0.0323922
10.9835 64.0165 0
14.3169 21.8977 3.96971
15.4869 20.3393 2
13.636 18.9947 3.96126
16.6786 18.8037 0.0391616
14.8911 17.3937 2
13.0456 15.9171 3.96137
16.1695 15.8603 0.0439893
14.5 14.3308 2
12.7876 12.6945 3.97106
16.0316 12.8606 0.0340385
14.4461 11.129 2
12.7746 9.30605 4
16.2062 9.66805 0.0234129
14.6715 7.74924 2
16.6661 6.31991 0
24.5906 33.9183 3.98182
26.8935 34.4018 2
28.963 34.8926 0.113698
18.3095 24.3058 3.9729
18.433 22.5668 2
14.8516 24.6338 3.97405
16.0359 23.1177 2
17.1334 21.5803 0.0301996
19.9898 27.4977 3.97325
20.2655 21.8335 0.026366
20.4259 24.6832 2
22.4974 30.9307 3.97398
23.6747 24.8909 0.0284735
23.1078 28.1867 2
25.1681 31.5208 2
25.7439 28.8307 0.0157037
27.6464 31.9685 0.0214219
21.4909 35.9781 3.97753
24.0453 36.3342 2
26.3211 36.8795 0.0378455
24.4564 41.652 0.022249
23.3029 38.5125 0.0242157
22.0936 40.5301 2
21.3958 37.788 2
19.1318 38.9625 3.97706
20.9338 42.6907 0.0252088
18.3539 41.964 2
15.5747 41.8253 3.97587
17.8695 44.1903 0.0249254
15.592 44.0546 2
13.2829 44.285 3.97546
15.5443 45.9201 0.0246775
13.5225 46.1638 2
11.3902 46.6357 3.9753
13.8218 47.8581 0.0249004
11.8779 48.4383 2
9.75378 49.1774 3.97092
12.4867 50.1345 0.0255605
10.4845 51.0097 2
8.33879 51.982 3.96303
11.3489 52.7604 0.0338914
9.31139 53.8635 2
7.19893 55.0333 3.97199
6.31991 58.3339 4
8.389 56.9764 2
10.4072 55.6815 0.0392291
7.74924 60.3285 2
9.70604 58.8456 0.0298671
9.30605 62.2254 0
13.6986 25.5174 3.97597
13.2081 23.4161 3.97352
14.3182 21.8957 2
12.4529 20.6396 3.96419
15.4863 20.3421 0.0350516
13.6317 18.9915 2
11.7003 17.5936 3.95905
14.8917 17.3965 0.0422545
13.0546 15.9148 2
11.2263 14.3812 3.96576
14.4935 14.3336 0.0331731
12.7862 12.7032 2
10.9835 10.9835 4
14.45 11.1207 0.025407
12.7745 9.306 2
14.6715 7.74927 0
21.8594 33.5629 3.9765
24.5925 33.8974 2
26.9181 34.4122 0.0279357
16.6242 26.6213 3.97428
18.3136 24.3056 2
18.4258 22.5665 0.0252855
14.8484 24.6331 2
16.0361 23.1193 0.0274519
19.3904 30.3994 3.9747
19.9933 27.4971 2
20.424 24.6841 0.0277678
22.5149 30.9282 2
23.1106 28.1822 0.0287347
25.2142 31.4946 0.0168734
18.7091 36.0166 3.9778
21.491 35.979 2
24.0551 36.3345 0.0222362
22.0894 40.5305 0.0245367
21.3922 37.7865 0.0221067
19.1324 38.9615 2
15.0569 39.1447 3.97684
18.3541 41.9639 0.0243327
15.574 41.825 2
12.9697 42.2058 3.97595
15.5929 44.0543 0.0247321
13.2823 44.2849 2
10.9738 44.7248 3.97586
13.5226 46.1637 0.0248473
11.3922 46.6351 2
9.12892 47.2662 3.97359
11.876 48.4392 0.0247422
9.75566 49.1764 2
7.49529 50.0194 3.96396
10.4832 51.0107 0.0316093
8.33672 51.9809 2
6.13925 53.0089 3.97214
9.31265 53.8646 0.0379889
7.19833 55.0293 2
5.0241 56.25 4
6.31988 58.3339 2
8.3902 56.9809 0.0288903
7.74927 60.3285 0
13.9987 26.9678 3.97494
12.3152 24.9085 3.97523
13.6965 25.5163 2
11.3757 22.3173 3.96733
13.2101 23.4148 2
14.3169 21.8977 0.0302862
12.4502 20.6373 2
10.4746 19.3513 3.96071
13.636 18.9947 0.0387374
11.7171 17.5946 2
9.76673 16.1624 3.96955
13.0456 15.9171 0.0386276
11.226 14.3871 2
9.30607 12.7746 4
12.7876 12.6945 0.0289422
10.9835 10.9835 2
12.7746 9.30605 0
18.8791 33.2284 3.97563
21.8568 33.5659 2
24.5906 33.9183 0.018178
16.2541 29.8112 3.97518
16.6235 26.621 2
18.3095 24.3058 0.027098
14.8516 24.6338 0.0259534
19.3836 30.3989 2
19.9898 27.4977 0.0267545
22.4974 30.9307 0.0260201
15.7031 36.05 3.97724
18.7085 36.0171 2
21.4909 35.9781 0.0224707
13.2012 37.8269 3.97698
19.1318 38.9625 0.0229403
15.0566 39.1446 2
12.4576 40.1034 3.97645
15.5747 41.8253 0.0241306
12.9687 42.2055 2
10.5668 42.7248 3.9761
13.2829 44.285 0.0245414
10.9753 44.7243 2
8.59576 45.2789 3.97503
11.3902 46.6357 0.0247043
9.13107 47.2651 2
6.77333 47.9886 3.96452
9.75378 49.1774 0.0290819
7.49277 50.0185 2
5.21544 50.9121 3.97213
8.33879 51.982 0.0369668
6.13909 53.0059 2
3.86727 54.0858 4
7.19893 55.0333 0.028011
5.02404 56.25 2
6.31991 58.3339 0
13.4745 29.1548 3.97449
11.7615 26.595 3.97465
13.9974 26.968 2
10.4213 24.0373 3.97045
12.3175 24.9078 2
13.6986 25.5174 0.0240317
9.33186 21.1658 3.9625
11.3749 22.3162 2
13.2081 23.4161 0.0264849
12.4529 20.6396 0.0358142
10.4839 19.3521 2
8.42269 18.0307 3.9711
11.7003 17.5936 0.040951
9.76568 16.1671 2
7.74928 14.6715 4
11.2263 14.3812 0.0342368
9.30602 12.7745 2
10.9835 10.9835 0
15.227 32.9487 3.97622
18.88 33.2294 2
21.8594 33.5629 0.0235
16.253 29.8105 2
16.6242 26.6213 0.0257172
19.3904 30.3994 0.0252971
13.5119 36.2279 3.97664
15.703 36.0499 2
18.7091 36.0166 0.022204
13.2001 37.8268 2
11.7687 38.3009 3.97662
15.0569 39.1447 0.0231553
12.4566 40.1035 2
10.1348 40.7236 3.97655
12.9697 42.2058 0.0240513
10.5683 42.7242 2
8.13804 43.2394 3.97572
10.9738 44.7248 0.0241393
8.59896 45.2779 2
6.17044 45.8967 3.96475
9.12892 47.2662 0.0264122
6.77085 47.9877 2
4.42642 48.7521 3.9719
7.49529 50.0194 0.0360375
5.21564 50.9098 2
2.85457 51.8506 4
6.13925 53.0089 0.0278565
3.86727 54.0858 2
5.0241 56.25 0
12.5948 31.3357 3.97574
11.1688 28.5041 3.97504
13.474 29.1545 2
9.62749 25.8569 3.97309
11.7624 26.5951 2
13.9987 26.9678 0.0250606
8.30146 23.0433 3.96407
10.4234 24.0375 2
12.3152 24.9085 0.0247703
7.20484 19.9783 3.97224
9.33719 21.167 2
11.3757 22.3173 0.0326732
10.4746 19.3513 0.0392876
8.42191 18.0354 2
6.31992 16.6661 4
9.76673 16.1624 0.0304518
7.74926 14.6714 2
9.30607 12.7746 0
12.6326 34.3406 3.97664
15.2267 32.9497 2
18.8791 33.2284 0.0243667
16.2541 29.8112 0.0248164
11.2938 36.6238 3.97656
13.5112 36.2278 2
15.7031 36.05 0.0227633
13.2012 37.8269 0.023015
11.7679 38.3006 2
9.70609 38.8122 3.97685
12.4576 40.1034 0.0235514
10.1358 40.7231 2
7.73859 41.1927 3.97588
10.5668 42.7248 0.0238954
8.14037 43.2384 2
5.67269 43.7623 3.96521
8.59576 45.2789 0.0249711
6.1666 45.8961 2
3.77153 46.5372 3.97223
6.77333 47.9886 0.0354802
4.427 48.7505 2
1.99014 49.554 4
5.21544 50.9121 0.0278711
2.85451 51.8506 2
3.86727 54.0858 0
11.3765 32.9745 3.97647
10.4658 30.4463 3.97566
12.5936 31.3363 2
8.92227 27.7794 3.97405
11.17 28.5045 2
13.4745 29.1548 0.025513
7.41111 24.9967 3.96467
9.63028 25.8574 2
11.7615 26.595 0.0253457
6.12139 22.0004 3.97279
8.30231 23.0442 2
10.4213 24.0373 0.029549
5.02411 18.75 4
7.20433 19.9821 2
9.33186 21.1658 0.0375013
8.42269 18.0307 0.0289001
6.3199 16.6661 2
7.74928 14.6715 0
10.8692 35.0263 3.97639
12.6311 34.3405 2
15.227 32.9487 0.0237809
9.35446 36.9897 3.97684
11.2929 36.6239 2
13.5119 36.2279 0.0233606
11.7687 38.3009 0.0233797
9.70729 38.8118 2
7.40339 39.1744 3.97583
10.1348 40.7236 0.0234503
7.74194 41.1919 2
5.28126 41.6104 3.96563
8.13804 43.2394 0.0242801
5.66993 43.7618 2
3.24891 44.2818 3.97314
6.17044 45.8967 0.0352473
3.77237 46.536 2
1.27781 47.2057 4
4.42642 48.7521 0.0280975
1.99012 49.554 2
2.85457 51.8506 0
10.4907 33.9169 3.97617
9.72655 32.1989 3.97627
11.3762 32.9749 2
8.25278 29.7313 3.9745
10.4671 30.447 2
12.5948 31.3357 0.0242604
6.64108 27.0188 3.96458
8.92544 27.7802 2
11.1688 28.5041 0.0249637
5.17615 24.0933 3.97254
7.40923 24.9974 2
9.62749 25.8569 0.0269074
3.86728 20.9142 4
6.12131 22.0032 2
8.30146 23.0433 0.0359334
5.02406 18.75 2
7.20484 19.9783 0.0277609
6.31992 16.6661 0
9.16173 35.2976 3.97676
10.8686 35.0263 2
12.6326 34.3406 0.0233574
7.17182 37.2073 3.97539
9.35582 36.9897 2
11.2938 36.6238 0.0234388
9.70609 38.8122 0.0231549
7.40644 39.1739 2
5.00313 39.466 3.96602
7.73859 41.1927 0.0241173
5.27915 41.61 2
2.85912 42.002 3.97367
5.67269 43.7623 0.0347942
3.24957 44.2809 2
0.720592 44.8159 4
3.77153 46.5372 0.0277713
1.27778 47.2057 2
1.99014 49.554 0
9.19756 33.727 3.97674
10.4909 33.9172 2
7.67715 31.6345 3.9748
9.72885 32.1997 2
11.3765 32.9745 0.0235293
5.97563 29.0772 3.96468
8.25552 29.7321 2
10.4658 30.4463 0.024338
4.3631 26.2465 3.9724
6.63767 27.0193 2
8.92227 27.7794 0.0259508
2.85458 23.1494 4
5.17645 24.0952 2
7.41111 24.9967 0.0353255
3.86728 20.9142 2
6.12139 22.0004 0.027209
5.02411 18.75 0
7.11489 35.3152 3.97505
9.1638 35.2977 2
10.8692 35.0263 0.0236086
4.84866 37.3404 3.96616
7.17452 37.2071 2
9.35446 36.9897 0.0231585
7.40339 39.1744 0.0241741
5.00111 39.4658 2
2.60698 39.7137 3.97406
5.28126 41.6104 0.0343685
2.86007 42.0015 2
0.320823 42.3947 4
3.24891 44.2818 0.0268639
0.720551 44.8159 2
1.27781 47.2057 0
7.27856 33.4775 3.97494
9.19982 33.7275 2
10.4907 33.9169 0.0238327
5.4352 31.139 3.96522
7.6794 31.6352 2
9.72655 32.1989 0.0237326
3.6842 28.4433 3.97274
5.97127 29.0776 2
8.25278 29.7313 0.0255046
1.99015 25.446 4
4.36368 26.2479 2
6.64108 27.0188 0.035417
2.85453 23.1494 2
5.17615 24.0933 0.0274595
3.86728 20.9142 0
4.86121 35.2538 3.96603
7.11664 35.3153 2
9.16173 35.2976 0.0232357
2.49841 37.4285 3.97492
4.84674 37.3404 2
7.17182 37.2073 0.0246075
5.00313 39.466 0.0339824
2.60808 39.7138 2
0.080333 39.9526 4
2.85912 42.002 0.0263339
0.320817 42.3947 2
0.720592 44.8159 0
5.05652 33.1939 3.96571
7.28014 33.4779 2
9.19756 33.727 0.0232555
3.14817 30.6666 3.97339
5.43095 31.1394 2
7.67715 31.6345 0.0252002
1.27793 27.7943 4
3.68508 28.4444 2
5.97563 29.0772 0.035322
1.99013 25.446 2
4.3631 26.2465 0.027596
2.85458 23.1494 0
2.5504 35.1593 3.97478
4.86066 35.2541 2
7.11489 35.3152 0.0249535
0 37.5 4
2.49902 37.4289 2
4.84866 37.3404 0.0338353
2.60698 39.7137 0.0259369
0.0802903 39.9526 2
0.320823 42.3947 0
2.76814 32.9063 3.97449
5.05476 33.1943 2
7.27856 33.4775 0.0250556
0.721173 30.1842 4
3.14922 30.6675 2
5.4352 31.139 0.0347788
1.27779 27.7943 2
3.6842 28.4433 0.0272571
1.99015 25.446 0
0.0806499 35.0474 4
2.55157 35.1598 2
4.86121 35.2538 0.0339742
0 37.5 2
2.49841 37.4285 0.0250805
0.080333 39.9526 0
0.32156 32.6054 4
2.76883 32.9071 2
5.05652 33.1939 0.0342854
0.72056 30.1841 2
3.14817 30.6666 0.0266084
1.27793 27.7943 0
0.0802889 35.0474 2
2.5504 35.1593 0.0252179
0 37.5 0
0.320817 32.6053 2
2.76814 32.9063 0.025515
0.721173 30.1842 0
0.0806499 35.0474 0
0.32156 32.6054 0
CELLS 1910 17190
8 18 6 25 56 2 0 5 16
8 57 23 6 18 17 4 0 2
8 78 36 9 29 31 11 1 7
8 31 11 1 7 79 37 10 30
8 110 57 18 50 48 17 2 14
8 50 18 56 111 14 2 16 49
8 116 62 22 55 52 20 3 15
8 56 25 67 118 16 5 24 53
8 119 63 23 57 54 21 4 17
8 55 22 63 119 15 3 21 54
8 58 26 68 121 18 6 25 56
8 122 65 26 58 57 23 6 18
8 73 31 7 27 142 79 30 71
8 143 78 29 72 73 31 7 27
8 83 147 76 34 32 74 28 8
8 84 148 78 36 33 75 29 9
8 76 34 8 28 148 84 33 75
8 37 79 150 86 10 30 77 35
8 151 87 36 78 80 38 11 31
8 80 38 11 31 152 88 37 79
8 175 100 42 94 96 44 12 40
8 44 96 176 101 12 40 95 43
8 101 176 98 46 43 95 41 13
8 46 98 178 103 13 41 97 45
8 178 103 45 97 147 83 32 74
8 189 116 55 109 106 52 15 47
8 111 56 118 191 49 16 53 107
8 192 119 57 110 108 54 17 48
8 109 55 119 192 47 15 54 108
8 194 122 58 112 110 57 18 50
8 112 58 121 195 50 18 56 111
8 115 61 19 51 197 124 59 113
8 115 61 125 198 51 19 60 114
8 198 125 62 116 114 60 20 52
8 200 127 64 120 116 62 22 55
8 118 67 132 202 53 24 66 117
8 121 68 133 203 56 25 67 118
8 120 64 128 204 55 22 63 119
8 204 128 65 122 119 63 23 57
8 206 134 68 121 123 69 26 58
8 123 69 26 58 207 131 65 122
8 226 147 74 138 140 76 28 70
8 229 148 75 139 143 78 29 72
8 140 76 28 70 229 148 75 139
8 142 79 30 71 231 150 77 141
8 144 80 31 73 232 152 79 142
8 233 151 78 143 144 80 31 73
8 150 86 35 77 235 154 81 145
8 235 154 81 145 146 82 39 91
8 146 82 39 91 236 155 90 165
8 238 157 83 147 149 85 34 76
8 239 158 84 148 151 87 36 78
8 149 85 34 76 239 158 84 148
8 152 88 37 79 241 160 86 150
8 242 161 87 151 153 89 38 80
8 153 89 38 80 243 162 88 152
8 171 98 41 92 265 178 97 169
8 265 178 97 169 226 147 74 138
8 172 96 40 93 266 176 95 170
8 266 176 95 170 171 98 41 92
8 269 175 94 173 172 96 40 93
8 271 180 99 174 175 100 42 94
8 197 124 59 113 271 180 99 174
8 272 181 100 175 177 102 44 96
8 273 182 101 176 179 104 46 98
8 177 102 44 96 273 182 101 176
8 179 104 46 98 275 184 103 178
8 275 184 103 178 238 157 83 147
8 188 115 51 105 283 197 113 186
8 188 115 198 284 105 51 114 187
8 284 198 116 189 187 114 52 106
8 286 200 120 193 189 116 55 109
8 191 118 202 288 107 53 117 190
8 195 121 203 289 111 56 118 191
8 193 120 204 290 109 55 119 192
8 290 204 122 194 192 119 57 110
8 196 123 58 112 292 207 122 194
8 293 206 121 195 196 123 58 112
8 199 126 61 115 297 211 124 197
8 298 212 127 200 198 125 62 116
8 199 126 212 298 115 61 125 198
8 205 129 64 120 300 214 127 200
8 301 217 130 201 202 132 66 117
8 209 136 168 264 301 217 130 201
8 302 219 132 202 203 133 67 118
8 303 220 133 203 206 134 68 121
8 205 129 215 304 120 64 128 204
8 304 215 131 207 204 128 65 122
8 306 221 134 206 208 135 69 123
8 208 135 69 123 307 218 131 207
8 210 137 167 263 309 223 136 209
8 328 238 147 226 230 149 76 140
8 228 146 91 166 329 236 165 260
8 231 150 77 141 330 235 145 227
8 330 235 145 227 228 146 91 166
8 332 239 148 229 233 151 78 143
8 230 149 76 140 332 239 148 229
8 232 152 79 142 334 241 150 231
8 234 153 80 144 335 243 152 232
8 336 242 151 233 234 153 80 144
8 236 155 90 165 338 245 164 259
8 241 160 86 150 339 246 154 235
8 339 246 154 235 237 156 82 146
8 237 156 82 146 340 247 155 236
8 342 249 157 238 240 159 85 149
8 343 250 158 239 242 161 87 151
8 240 159 85 149 343 250 158 239
8 243 162 88 152 345 252 160 241
8 244 163 253 346 153 89 161 242
8 244 163 89 153 347 254 162 243
8 311 224 261 371 210 137 167 263
8 263 167 262 372 209 136 168 264
8 267 179 98 171 375 275 178 265
8 375 275 178 265 328 238 147 226
8 376 273 176 266 267 179 98 171
8 268 177 96 172 376 273 176 266
8 379 272 175 269 268 177 96 172
8 380 271 174 270 269 175 94 173
8 283 197 113 186 380 271 174 270
8 381 277 180 271 272 181 100 175
8 297 211 124 197 381 277 180 271
8 382 278 181 272 274 183 102 177
8 274 183 102 177 383 279 182 273
8 383 279 182 273 276 185 104 179
8 385 281 184 275 342 249 157 238
8 276 185 104 179 385 281 184 275
8 285 199 115 188 393 297 197 283
8 394 298 200 286 284 198 116 189
8 285 199 298 394 188 115 198 284
8 291 205 120 193 396 300 200 286
8 397 301 201 287 288 202 117 190
8 295 209 264 374 397 301 201 287
8 398 302 202 288 289 203 118 191
8 399 303 203 289 293 206 121 195
8 291 205 304 400 193 120 204 290
8 400 304 207 292 290 204 122 194
8 294 208 123 196 402 307 207 292
8 403 306 206 293 294 208 123 196
8 296 210 263 373 405 309 209 295
8 408 312 213 299 297 211 126 199
8 299 213 313 409 199 126 212 298
8 409 313 214 300 298 212 127 200
8 305 216 129 205 411 315 214 300
8 412 318 217 301 302 219 132 202
8 309 223 136 209 412 318 217 301
8 413 320 219 302 303 220 133 203
8 306 221 321 414 206 134 220 303
8 307 218 131 207 415 316 215 304
8 305 216 316 415 205 129 215 304
8 417 322 221 306 308 222 135 208
8 308 222 135 208 418 319 218 307
8 310 225 137 210 420 325 223 309
8 423 326 224 311 310 225 137 210
8 329 236 165 260 441 338 259 368
8 442 342 238 328 333 240 149 230
8 331 237 146 228 443 340 236 329
8 334 241 150 231 444 339 235 330
8 444 339 235 330 331 237 146 228
8 446 343 239 332 336 242 151 233
8 333 240 149 230 446 343 239 332
8 335 243 152 232 448 345 241 334
8 337 244 153 234 449 347 243 335
8 337 244 346 450 234 153 242 336
8 338 245 164 259 452 349 258 367
8 340 247 155 236 453 350 245 338
8 345 252 160 241 454 351 246 339
8 454 351 246 339 341 248 156 237
8 341 248 156 237 455 352 247 340
8 240 159 251 344 342 249 354 457
8 242 161 253 346 343 250 355 458
8 343 250 355 458 240 159 251 344
8 347 254 162 243 460 357 252 345
8 348 255 358 461 244 163 253 346
8 348 255 163 244 462 359 254 347
8 473 360 257 365 363 256 364 482
8 452 349 258 367 365 257 366 485
8 422 324 369 488 311 224 261 371
8 371 261 370 490 263 167 262 372
8 407 311 371 491 296 210 263 373
8 373 263 372 492 295 209 264 374
8 493 385 275 375 442 342 238 328
8 377 276 179 267 493 385 275 375
8 378 274 177 268 494 383 273 376
8 494 383 273 376 377 276 179 267
8 497 382 272 379 378 274 177 268
8 498 381 271 380 379 272 175 269
8 393 297 197 283 498 381 271 380
8 499 387 277 381 382 278 181 272
8 408 312 211 297 499 387 277 381
8 500 388 278 382 384 280 183 274
8 501 389 279 383 386 282 185 276
8 384 280 183 274 501 389 279 383
8 386 282 185 276 503 391 281 385
8 503 391 281 385 457 354 249 342
8 511 408 299 395 393 297 199 285
8 395 299 409 512 285 199 298 394
8 512 409 300 396 394 298 200 286
8 401 305 205 291 514 411 300 396
8 515 412 301 397 398 302 202 288
8 405 309 209 295 515 412 301 397
8 516 413 302 398 399 303 203 289
8 403 306 414 517 293 206 303 399
8 402 307 207 292 518 415 304 400
8 401 305 415 518 291 205 304 400
8 404 308 208 294 520 418 307 402
8 521 417 306 403 404 308 208 294
8 406 310 210 296 523 420 309 405
8 526 423 311 407 406 310 210 296
8 410 314 213 299 527 424 312 408
8 528 425 315 411 409 313 214 300
8 410 314 425 528 299 213 313 409
8 416 317 216 305 530 427 315 411
8 531 430 318 412 413 320 219 302
8 420 325 223 309 531 430 318 412
8 532 432 320 413 414 321 220 303
8 417 322 433 533 306 221 321 414
8 418 319 218 307 534 428 316 415
8 416 317 428 534 305 216 316 415
8 419 323 434 536 308 222 322 417
8 419 323 222 308 537 431 319 418
8 421 327 225 310 539 438 325 420
8 421 327 439 541 310 225 326 423
8 543 437 324 422 423 326 224 311
8 441 338 259 368 559 452 367 486
8 443 340 236 329 560 453 338 441
8 333 240 344 447 442 342 457 561
8 445 341 237 331 562 455 340 443
8 448 345 241 334 563 454 339 444
8 563 454 339 444 445 341 237 331
8 336 242 346 450 446 343 458 565
8 446 343 458 565 333 240 344 447
8 449 347 243 335 567 460 345 448
8 451 348 244 337 568 462 347 449
8 451 348 461 569 337 244 346 450
8 570 463 349 452 473 360 257 365
8 453 350 245 338 570 463 349 452
8 455 352 247 340 571 464 350 453
8 460 357 252 345 572 465 351 454
8 572 465 351 454 456 353 248 341
8 456 353 248 341 573 466 352 455
8 344 251 356 459 457 354 468 575
8 458 355 469 576 344 251 356 459
8 346 253 358 461 458 355 469 576
8 462 359 254 347 578 471 357 460
8 348 255 359 462 461 358 472 579
8 591 474 360 473 475 361 256 363
8 475 361 256 363 594 477 362 479
8 363 256 364 482 479 362 480 603
8 590 473 365 484 481 363 482 605
8 482 364 257 365 606 483 366 485
8 559 452 367 486 484 365 485 607
8 542 436 487 609 422 324 369 488
8 525 422 488 611 407 311 371 491
8 488 369 489 612 371 261 370 490
8 491 371 490 613 373 263 372 492
8 495 386 276 377 614 503 385 493
8 614 503 385 493 561 457 342 442
8 615 501 383 494 495 386 276 377
8 496 384 274 378 615 501 383 494
8 618 500 382 497 496 384 274 378
8 619 499 381 498 497 382 272 379
8 511 408 297 393 619 499 381 498
8 620 505 387 499 500 388 278 382
8 527 424 312 408 620 505 387 499
8 502 390 506 621 384 280 388 500
8 622 507 389 501 504 392 282 386
8 502 390 280 384 622 507 389 501
8 504 392 282 386 624 509 391 503
8 624 509 391 503 575 468 354 457
8 513 410 299 395 630 527 408 511
8 631 528 411 514 512 409 300 396
8 513 410 528 631 395 299 409 512
8 519 416 305 401 633 530 411 514
8 634 531 412 515 516 413 302 398
8 523 420 309 405 634 531 412 515
8 635 532 413 516 517 414 303 399
8 521 417 533 636 403 306 414 517
8 520 418 307 402 637 534 415 518
8 519 416 534 637 401 305 415 518
8 522 419 308 404 639 537 418 520
8 522 419 536 640 404 308 417 521
8 524 421 310 406 642 539 420 523
8 524 421 541 644 406 310 423 526
8 646 543 422 525 526 423 311 407
8 529 426 314 410 647 544 424 527
8 528 425 545 648 411 315 427 530
8 529 426 545 648 410 314 425 528
8 535 429 317 416 649 546 427 530
8 650 548 430 531 532 432 320 413
8 539 438 325 420 650 548 430 531
8 533 433 550 651 414 321 432 532
8 536 434 551 652 417 322 433 533
8 537 431 319 418 653 547 428 534
8 535 429 547 653 416 317 428 534
8 538 435 552 654 419 323 434 536
8 538 435 323 419 655 549 431 537
8 540 440 327 421 657 556 438 539
8 540 440 557 659 421 327 439 541
8 541 439 555 660 423 326 437 543
8 661 554 436 542 543 437 324 422
8 676 570 452 559 590 473 365 484
8 560 453 338 441 676 570 452 559
8 562 455 340 443 677 571 453 560
8 447 344 459 566 561 457 575 678
8 564 456 341 445 679 573 455 562
8 567 460 345 448 680 572 454 563
8 680 572 454 563 564 456 341 445
8 565 458 576 682 447 344 459 566
8 450 346 461 569 565 458 576 682
8 568 462 347 449 684 578 460 567
8 451 348 462 568 569 461 579 685
8 686 580 463 570 591 474 360 473
8 571 464 350 453 686 580 463 570
8 573 466 352 455 687 581 464 571
8 572 465 582 688 460 357 471 578
8 574 467 582 688 456 353 465 572
8 574 467 353 456 689 583 466 573
8 459 356 470 577 575 468 585 691
8 576 469 586 692 459 356 470 577
8 461 358 472 579 576 469 586 692
8 462 359 471 578 579 472 588 694
8 704 591 473 590 593 475 363 481
8 595 476 592 705 475 361 474 591
8 593 475 363 481 707 594 479 602
8 594 477 362 479 709 598 478 600
8 595 476 361 475 711 597 477 594
8 479 362 480 603 600 478 601 720
8 481 363 482 605 602 479 603 722
8 603 480 364 482 723 604 483 606
8 605 482 365 484 724 606 485 607
8 656 553 608 726 542 436 487 609
8 645 542 609 728 525 422 488 611
8 609 487 610 729 488 369 489 612
8 611 488 612 730 491 371 490 613
8 616 504 386 495 731 624 503 614
8 731 624 503 614 678 575 457 561
8 732 622 501 615 616 504 386 495
8 617 502 384 496 732 622 501 615
8 617 502 621 735 496 384 500 618
8 736 620 499 619 618 500 382 497
8 630 527 408 511 736 620 499 619
8 621 506 626 737 500 388 505 620
8 647 544 424 527 737 626 505 620
8 623 508 627 738 502 390 506 621
8 623 508 390 502 739 628 507 622
8 625 510 628 739 504 392 507 622
8 740 629 509 624 691 585 468 575
8 625 510 392 504 740 629 509 624
8 632 529 410 513 744 647 527 630
8 631 528 648 745 514 411 530 633
8 632 529 648 745 513 410 528 631
8 638 535 416 519 746 649 530 633
8 747 650 531 634 635 532 413 516
8 642 539 420 523 747 650 531 634
8 636 533 651 748 517 414 532 635
8 640 536 652 749 521 417 533 636
8 639 537 418 520 750 653 534 637
8 638 535 653 750 519 416 534 637
8 641 538 419 522 751 655 537 639
8 641 538 654 752 522 419 536 640
8 643 540 421 524 753 657 539 642
8 643 540 659 755 524 421 541 644
8 644 541 660 757 526 423 543 646
8 758 661 542 645 646 543 422 525
8 529 426 544 647 648 545 662 759
8 530 427 545 648 649 546 663 760
8 535 429 546 649 653 547 664 761
8 762 666 548 650 651 550 432 532
8 657 556 438 539 762 666 548 650
8 652 551 668 763 533 433 550 651
8 654 552 669 764 536 434 551 652
8 655 549 431 537 765 665 547 653
8 538 435 549 655 654 552 667 766
8 661 554 671 768 542 436 553 656
8 658 558 440 540 769 674 556 657
8 658 558 675 770 540 440 557 659
8 659 557 673 771 541 439 555 660
8 660 555 672 772 543 437 554 661
8 788 686 570 676 704 591 473 590
8 677 571 453 560 788 686 570 676
8 679 573 455 562 789 687 571 677
8 566 459 577 683 678 575 691 790
8 681 574 456 564 791 689 573 679
8 680 572 688 792 567 460 578 684
8 681 574 688 792 564 456 572 680
8 682 576 692 794 566 459 577 683
8 569 461 579 685 682 576 692 794
8 568 462 578 684 685 579 694 796
8 687 581 464 571 798 696 580 686
8 798 696 580 686 705 592 474 591
8 689 583 466 573 799 697 581 687
8 688 582 698 800 578 471 588 694
8 690 584 698 800 574 467 582 688
8 690 584 467 574 801 699 583 689
8 693 587 701 803 577 470 585 691
8 693 587 470 577 804 702 586 692
8 695 589 702 804 579 472 586 692
8 695 589 472 579 805 703 588 694
8 708 595 705 813 593 475 591 704
8 710 596 706 814 595 476 592 705
8 707 594 479 602 816 709 600 719
8 708 595 475 593 817 711 594 707
8 709 598 478 600 819 715 599 717
8 711 597 477 594 820 714 598 709
8 710 596 476 595 822 713 597 711
8 600 478 601 720 717 599 718 832
8 602 479 603 722 719 600 720 834
8 720 601 480 603 835 721 604 723
8 722 603 482 605 836 723 606 724
8 767 670 725 839 656 553 608 726
8 756 656 726 841 645 542 609 728
8 726 608 727 842 609 487 610 729
8 728 609 729 843 611 488 612 730
8 844 740 624 731 790 691 575 678
8 733 625 504 616 844 740 624 731
8 734 623 502 617 845 739 622 732
8 733 625 739 845 616 504 622 732
8 734 623 738 846 617 502 621 735
8 735 621 737 847 618 500 620 736
8 744 647 527 630 847 737 620 736
8 621 506 627 738 737 626 741 848
8 647 544 626 737 759 662 741 848
8 623 508 628 739 738 627 742 849
8 740 629 585 691 850 743 700 802
8 625 510 629 740 739 628 743 850
8 632 529 647 744 745 648 759 854
8 633 530 648 745 746 649 760 855
8 638 535 649 746 750 653 761 856
8 857 762 650 747 748 651 532 635
8 753 657 539 642 857 762 650 747
8 749 652 763 858 636 533 651 748
8 752 654 764 859 640 536 652 749
8 751 655 537 639 860 765 653 750
8 641 538 655 751 752 654 766 861
8 754 658 540 643 862 769 657 753
8 754 658 770 863 643 540 659 755
8 755 659 771 864 644 541 660 757
8 758 661 768 866 645 542 656 756
8 757 660 772 867 646 543 661 758
8 759 662 773 868 648 545 663 760
8 649 546 663 760 761 664 774 871
8 765 665 547 653 872 775 664 761
8 873 777 666 762 763 668 550 651
8 769 674 556 657 873 777 666 762
8 764 669 779 874 652 551 668 763
8 654 552 667 766 764 669 778 875
8 655 549 665 765 766 667 776 876
8 768 671 782 877 656 553 670 767
8 772 672 783 878 661 554 671 768
8 658 558 674 769 770 675 786 879
8 659 557 675 770 771 673 785 881
8 882 784 672 772 771 673 555 660
8 789 687 571 677 897 798 686 788
8 897 798 686 788 813 705 591 704
8 791 689 573 679 898 799 687 789
8 795 693 803 900 683 577 691 790
8 793 690 574 681 901 801 689 791
8 792 688 800 902 684 578 694 796
8 793 690 800 902 681 574 688 792
8 795 693 577 683 903 804 692 794
8 797 695 804 903 685 579 692 794
8 797 695 579 685 904 805 694 796
8 905 806 697 799 798 696 581 687
8 814 706 806 905 705 592 696 798
8 689 583 697 799 801 699 808 907
8 800 698 809 908 694 588 703 805
8 690 584 699 801 800 698 809 908
8 803 701 810 909 691 585 700 802
8 693 587 702 804 803 701 811 910
8 695 589 703 805 804 702 812 911
8 818 710 814 919 708 595 705 813
8 821 712 815 920 710 596 706 814
8 816 709 600 719 922 819 717 831
8 817 711 594 707 923 820 709 816
8 818 710 595 708 924 822 711 817
8 819 715 599 717 926 827 716 829
8 820 714 598 709 927 826 715 819
8 929 825 713 822 820 714 597 711
8 821 712 596 710 930 824 713 822
8 717 599 718 832 829 716 830 942
8 719 600 720 834 831 717 832 944
8 832 718 601 720 945 833 721 835
8 834 720 603 722 946 835 723 836
8 869 780 838 950 767 670 725 839
8 865 767 839 952 756 656 726 841
8 839 725 840 953 726 608 727 842
8 841 726 842 954 728 609 729 843
8 844 740 691 790 955 850 802 899
8 733 625 740 844 845 739 850 955
8 734 623 739 845 846 738 849 956
8 735 621 738 846 847 737 848 957
8 744 647 737 847 854 759 848 957
8 738 627 742 849 848 741 851 958
8 848 741 851 958 759 662 773 868
8 850 743 700 802 959 852 807 906
8 849 742 628 739 959 852 743 850
8 854 759 868 965 745 648 760 855
8 746 649 760 855 856 761 871 966
8 860 765 653 750 967 872 761 856
8 968 873 762 857 858 763 651 748
8 862 769 657 753 968 873 762 857
8 859 764 874 969 749 652 763 858
8 752 654 766 861 859 764 875 970
8 751 655 765 860 861 766 876 971
8 754 658 769 862 863 770 879 972
8 755 659 770 863 864 771 881 974
8 976 882 772 867 864 771 660 757
8 866 768 877 977 756 656 767 865
8 867 772 878 978 758 661 768 866
8 760 663 773 868 871 774 883 980
8 870 781 837 948 982 890 780 869
8 982 890 780 869 877 782 670 767
8 761 664 774 871 872 775 884 984
8 876 776 665 765 985 885 775 872
8 873 777 668 763 986 887 779 874
8 769 674 777 873 879 786 887 986
8 764 669 778 875 874 779 888 987
8 766 667 776 876 875 778 886 988
8 878 783 892 989 768 671 782 877
8 878 783 672 772 990 893 784 882
8 880 787 675 770 991 896 786 879
8 880 787 895 992 770 675 785 881
8 881 785 894 993 771 673 784 882
8 1006 905 799 898 897 798 687 789
8 919 814 905 1006 813 705 798 897
8 791 689 799 898 901 801 907 1007
8 900 803 909 1009 790 691 802 899
8 795 693 804 903 900 803 910 1010
8 902 800 908 1011 796 694 805 904
8 793 690 801 901 902 800 908 1011
8 797 695 805 904 903 804 911 1012
8 799 697 806 905 907 808 912 1013
8 920 815 912 1013 814 706 806 905
8 802 700 810 909 906 807 913 1014
8 801 699 808 907 908 809 914 1015
8 805 703 809 908 911 812 915 1016
8 803 701 811 910 909 810 916 1017
8 911 812 917 1018 804 702 811 910
8 925 821 920 1030 818 710 814 919
8 928 823 921 1031 821 712 815 920
8 922 819 717 831 1033 926 829 941
8 923 820 709 816 1034 927 819 922
8 1035 929 822 924 923 820 711 817
8 925 821 710 818 1036 930 822 924
8 1038 933 825 929 927 826 714 820
8 926 827 716 829 1039 935 828 939
8 927 826 715 819 1040 934 827 926
8 928 823 712 821 1041 931 824 930
8 1042 932 824 930 929 825 713 822
8 829 716 830 942 939 828 940 1058
8 831 717 832 944 941 829 942 1060
8 942 830 718 832 1061 943 833 945
8 944 832 720 834 1062 945 835 946
8 981 889 947 1064 870 781 837 948
8 948 837 949 1067 869 780 838 950
8 975 869 950 1069 865 767 839 952
8 950 838 951 1070 839 725 840 953
8 952 839 953 1071 841 726 842 954
8 955 850 802 899 1072 959 906 1008
8 956 849 739 845 1072 959 850 955
8 846 738 849 956 957 848 958 1073
8 957 848 958 1073 854 759 868 965
8 849 742 852 959 958 851 961 1076
8 960 853 961 1076 906 807 852 959
8 958 851 961 1076 868 773 883 980
8 960 853 807 906 1077 963 913 1014
8 855 760 868 965 966 871 980 1085
8 856 761 871 966 967 872 984 1086
8 971 876 765 860 1087 985 872 967
8 968 873 763 858 1088 986 874 969
8 862 769 873 968 972 879 986 1088
8 859 764 875 970 969 874 987 1089
8 861 766 876 971 970 875 988 1090
8 973 880 770 863 1091 991 879 972
8 973 880 992 1092 863 770 881 974
8 974 881 993 1093 864 771 882 976
8 979 870 948 1066 1094 982 869 975
8 1094 982 869 975 977 877 767 865
8 978 878 772 867 1095 990 882 976
8 978 878 989 1096 866 768 877 977
8 871 774 883 980 984 884 994 1099
8 983 891 999 1100 870 781 889 981
8 1101 1000 890 982 989 892 782 877
8 983 891 781 870 1101 1000 890 982
8 872 775 884 984 985 885 995 1103
8 876 776 885 985 988 886 996 1104
8 986 887 779 874 1105 998 888 987
8 879 786 887 986 991 896 998 1105
8 875 778 886 988 987 888 997 1106
8 990 893 1002 1107 878 783 892 989
8 1108 1003 893 990 993 894 784 882
8 880 787 896 991 992 895 1005 1109
8 993 894 785 881 1110 1004 895 992
8 898 799 905 1006 1007 907 1013 1120
8 1030 920 1013 1120 919 814 905 1006
8 901 801 907 1007 1011 908 1015 1121
8 899 802 909 1009 1008 906 1014 1122
8 900 803 910 1010 1009 909 1017 1123
8 1012 911 1018 1124 903 804 910 1010
8 904 805 908 1011 1012 911 1016 1125
8 1013 912 1020 1127 907 808 914 1015
8 1031 921 1020 1127 920 815 912 1013
8 1019 918 962 1075 1128 1021 913 1014
8 1128 1021 913 1014 1017 916 810 909
8 1015 914 1022 1129 908 809 915 1016
8 1016 915 1023 1130 911 812 917 1018
8 1018 917 1024 1131 910 811 916 1017
8 1037 928 1031 1148 925 821 920 1030
8 928 823 931 1041 1031 921 1032 1149
8 1033 926 829 941 1151 1039 939 1057
8 1034 927 819 922 1152 1040 926 1033
8 1153 1038 929 1035 1034 927 820 923
8 1154 1042 930 1036 1035 929 822 924
8 1037 928 821 925 1155 1041 930 1036
8 1039 935 828 939 1156 1047 938 1055
8 1157 1043 932 1042 1038 933 825 929
8 1038 933 826 927 1158 1045 934 1040
8 1040 934 827 926 1159 1046 935 1039
8 930 824 932 1042 1041 931 1044 1160
8 1051 936 1048 1165 1175 1052 937 1053
8 1156 1047 938 1055 1053 937 1054 1178
8 939 828 940 1058 1055 938 1056 1181
8 941 829 942 1060 1057 939 1058 1183
8 942 830 943 1061 1058 940 1059 1184
8 1060 942 832 944 1185 1061 945 1062
8 1082 964 1063 1188 981 889 947 1064
8 1097 981 1064 1190 979 870 948 1066
8 1064 947 1065 1191 948 837 949 1067
8 1066 948 1067 1193 975 869 950 1069
8 1067 949 1068 1194 950 838 951 1070
8 1069 950 1070 1195 952 839 953 1071
8 956 849 959 1072 1073 958 1076 1197
8 1074 960 1076 1197 1008 906 959 1072
8 1073 958 1076 1197 965 868 980 1085
8 1074 960 906 1008 1198 1077 1014 1122
8 1133 1026 1079 1199 1019 918 962 1075
8 1077 963 913 1014 1200 1080 962 1075
8 960 853 963 1077 1076 961 1078 1201
8 980 883 961 1076 1099 994 1078 1201
8 1210 1083 964 1082 1100 999 889 981
8 966 871 980 1085 1086 984 1099 1215
8 967 872 984 1086 1087 985 1103 1216
8 971 876 985 1087 1090 988 1104 1217
8 1088 986 874 969 1218 1105 987 1089
8 972 879 986 1088 1091 991 1105 1218
8 970 875 988 1090 1089 987 1106 1219
8 973 880 991 1091 1092 992 1109 1220
8 1093 993 881 974 1221 1110 992 1092
8 1222 1108 990 1095 1093 993 882 976
8 1223 1101 982 1094 1096 989 877 977
8 1098 983 870 979 1223 1101 982 1094
8 1095 990 1107 1224 978 878 989 1096
8 1098 983 1100 1225 979 870 981 1097
8 984 884 994 1099 1103 995 1111 1227
8 1102 1001 1115 1228 983 891 999 1100
8 1101 1000 892 989 1229 1116 1002 1107
8 1102 1001 891 983 1229 1116 1000 1101
8 985 885 995 1103 1104 996 1112 1230
8 988 886 996 1104 1106 997 1113 1231
8 1105 998 888 987 1232 1114 997 1106
8 991 896 998 1105 1109 1005 1114 1232
8 1108 1003 1117 1233 990 893 1002 1107
8 1108 1003 894 993 1233 1117 1004 1110
8 992 895 1005 1109 1110 1004 1118 1234
8 1120 1013 1127 1244 1007 907 1015 1121
8 1148 1031 1127 1244 1030 920 1013 1120
8 1121 1015 1129 1245 1011 908 1016 1125
8 1126 1019 1075 1196 1246 1128 1014 1122
8 1246 1128 1014 1122 1123 1017 909 1009
8 1124 1018 1131 1247 1010 910 1017 1123
8 1125 1016 1130 1248 1012 911 1018 1124
8 1127 1020 1137 1254 1015 914 1022 1129
8 1031 921 1032 1149 1127 1020 1137 1254
8 1134 1027 918 1019 1257 1140 1021 1128
8 1257 1140 1021 1128 1131 1024 916 1017
8 1129 1022 1141 1258 1016 915 1023 1130
8 1130 1023 1142 1259 1018 917 1024 1131
8 1261 1144 1025 1132 1133 1026 1079 1199
8 1255 1138 1025 1132 1135 1028 1144 1261
8 1133 1026 918 1019 1262 1145 1027 1134
8 1136 1029 1139 1256 1263 1146 1028 1135
8 1037 928 1041 1155 1148 1031 1149 1275
8 1041 931 1044 1160 1149 1032 1150 1276
8 1151 1039 939 1057 1278 1156 1055 1180
8 1152 1040 926 1033 1279 1159 1039 1151
8 1153 1038 927 1034 1280 1158 1040 1152
8 1281 1157 1042 1154 1153 1038 929 1035
8 1036 930 1042 1154 1155 1041 1160 1282
8 1283 1164 1046 1159 1156 1047 935 1039
8 1165 1048 1164 1283 1053 937 1047 1156
8 1157 1043 933 1038 1284 1161 1045 1158
8 1157 1043 1161 1284 1042 932 1044 1160
8 1040 934 1046 1159 1158 1045 1163 1285
8 1166 1049 1167 1292 1051 936 1048 1165
8 1166 1049 936 1051 1293 1168 1050 1172
8 1051 936 1052 1175 1172 1050 1173 1306
8 1174 1051 1165 1290 1308 1175 1053 1177
8 1053 937 1054 1178 1175 1052 1176 1309
8 1278 1156 1055 1180 1177 1053 1178 1311
8 1055 938 1056 1181 1178 1054 1179 1312
8 1057 939 1058 1183 1180 1055 1181 1314
8 1058 940 1059 1184 1181 1056 1182 1315
8 1060 942 1061 1185 1183 1058 1184 1316
8 1208 1081 1187 1321 1082 964 1063 1188
8 1209 1082 1188 1322 1097 981 1064 1190
8 1188 1063 1189 1323 1064 947 1065 1191
8 1190 1064 1191 1325 1066 948 1067 1193
8 1191 1065 1192 1326 1067 949 1068 1194
8 1067 1193 1069 950 1194 1327 1195 1070
8 1250 1133 1199 1330 1126 1019 1075 1196
8 1198 1077 1014 1122 1331 1200 1075 1196
8 1074 960 1077 1198 1197 1076 1201 1332
8 1085 980 1076 1197 1215 1099 1201 1332
8 1199 1079 1203 1333 1075 962 1080 1200
8 1132 1025 1119 1243 1199 1079 1203 1333
8 1201 1078 963 1077 1334 1202 1080 1200
8 1099 994 1078 1201 1227 1111 1202 1334
8 1343 1207 1081 1208 1210 1083 964 1082
8 1214 1084 1186 1319 1343 1207 1081 1208
8 1345 1210 1082 1209 1225 1100 981 1097
8 1346 1211 1083 1210 1228 1115 999 1100
8 1086 984 1099 1215 1216 1103 1227 1352
8 1087 985 1103 1216 1217 1104 1230 1353
8 1090 988 1104 1217 1219 1106 1231 1354
8 1218 1105 987 1089 1355 1232 1106 1219
8 1091 991 1105 1218 1220 1109 1232 1355
8 1092 992 1109 1220 1221 1110 1234 1356
8 1222 1108 1233 1357 1095 990 1107 1224
8 1222 1108 993 1093 1357 1233 1110 1221
8 1223 1101 989 1096 1358 1229 1107 1224
8 1226 1102 983 1098 1358 1229 1101 1223
8 1226 1102 1228 1359 1098 983 1100 1225
8 1103 995 1111 1227 1230 1112 1235 1360
8 1107 1002 1117 1233 1229 1116 1240 1362
8 1102 1001 1116 1229 1228 1115 1240 1362
8 1104 996 1112 1230 1231 1113 1236 1363
8 1364 1237 1114 1232 1231 1113 997 1106
8 1109 1005 1114 1232 1234 1118 1238 1365
8 1110 1004 1118 1234 1233 1117 1241 1366
8 1242 1374 1255 1138 1119 1243 1132 1025
8 1244 1127 1254 1376 1121 1015 1129 1245
8 1148 1031 1149 1275 1244 1127 1254 1376
8 1245 1129 1258 1377 1125 1016 1130 1248
8 1251 1134 1019 1126 1378 1257 1128 1246
8 1378 1257 1128 1246 1247 1131 1017 1123
8 1248 1130 1259 1379 1124 1018 1131 1247
8 1261 1381 1250 1133 1132 1249 1330 1199
8 1255 1380 1252 1135 1132 1249 1381 1261
8 1250 1133 1019 1126 1382 1262 1134 1251
8 1253 1136 1256 1385 1384 1263 1135 1252
8 1254 1137 1265 1387 1129 1022 1141 1258
8 1149 1032 1150 1276 1254 1137 1265 1387
8 1028 1135 1255 1138 1139 1256 1388 1266
8 1136 1029 1147 1264 1256 1139 1267 1389
8 1390 1268 1140 1257 1259 1142 1024 1131
8 1260 1143 1027 1134 1390 1268 1140 1257
8 1258 1141 1269 1391 1130 1023 1142 1259
8 1262 1145 1027 1134 1393 1271 1143 1260
8 1261 1144 1026 1133 1394 1272 1145 1262
8 1135 1028 1144 1261 1263 1146 1272 1394
8 1136 1029 1146 1263 1264 1147 1273 1395
8 1155 1041 1160 1282 1275 1149 1276 1405
8 1276 1150 1044 1160 1406 1277 1162 1286
8 1408 1283 1159 1279 1278 1156 1039 1151
8 1290 1165 1283 1408 1177 1053 1156 1278
8 1152 1040 1159 1279 1280 1158 1285 1409
8 1281 1157 1038 1153 1410 1284 1158 1280
8 1281 1157 1284 1410 1154 1042 1160 1282
8 1159 1046 1164 1283 1285 1163 1289 1412
8 1292 1167 1289 1412 1165 1048 1164 1283
8 1158 1045 1163 1285 1284 1161 1288 1413
8 1284 1161 1288 1413 1160 1044 1162 1286
8 1291 1166 1292 1418 1174 1051 1165 1290
8 1291 1166 1051 1174 1419 1293 1172 1305
8 1294 1169 1296 1421 1166 1049 1167 1292
8 1293 1168 1050 1172 1422 1295 1171 1303
8 1294 1169 1049 1166 1423 1297 1168 1293
8 1422 1295 1171 1303 1301 1170 1302 1435
8 1172 1050 1173 1306 1303 1171 1304 1438
8 1174 1051 1175 1308 1305 1172 1306 1440
8 1175 1052 1176 1309 1306 1173 1307 1441
8 1177 1053 1178 1311 1308 1175 1309 1443
8 1178 1054 1179 1312 1309 1176 1310 1444
8 1180 1055 1181 1314 1311 1178 1312 1446
8 1056 1181 1312 1179 1182 1315 1447 1313
8 1183 1058 1184 1316 1314 1181 1315 1448
8 1319 1186 1084 1214 1451 1317 1213 1350
8 1319 1186 1318 1453 1208 1081 1187 1321
8 1321 1187 1320 1456 1188 1063 1189 1323
8 1344 1208 1321 1457 1209 1082 1188 1322
8 1322 1188 1323 1458 1190 1064 1191 1325
8 1323 1189 1324 1459 1191 1065 1192 1326
8 1191 1325 1193 1067 1326 1460 1327 1194
8 1242 1374 1243 1119 1328 1462 1335 1204
8 1330 1199 1333 1465 1196 1075 1200 1331
8 1132 1249 1330 1199 1243 1375 1465 1333
8 1332 1201 1077 1198 1466 1334 1200 1331
8 1215 1099 1201 1332 1352 1227 1334 1466
8 1119 1243 1333 1203 1204 1335 1470 1338
8 1333 1203 1338 1470 1200 1080 1202 1334
8 1227 1111 1202 1334 1360 1235 1338 1470
8 1328 1462 1335 1204 1205 1336 1471 1339
8 1337 1206 1340 1472 1464 1329 1205 1336
8 1346 1211 1342 1479 1210 1083 1207 1343
8 1346 1211 1115 1228 1479 1342 1239 1361
8 1348 1212 1084 1214 1479 1342 1207 1343
8 1480 1343 1208 1344 1345 1210 1082 1209
8 1351 1214 1319 1454 1480 1343 1208 1344
8 1481 1346 1210 1345 1359 1228 1100 1225
8 1348 1212 1347 1483 1214 1084 1213 1350
8 1216 1103 1227 1352 1353 1230 1360 1488
8 1217 1104 1230 1353 1354 1231 1363 1489
8 1490 1364 1232 1355 1354 1231 1106 1219
8 1220 1109 1232 1355 1356 1234 1365 1491
8 1221 1110 1234 1356 1357 1233 1366 1492
8 1224 1107 1233 1357 1358 1229 1362 1493
8 1226 1102 1229 1358 1359 1228 1362 1493
8 1230 1112 1235 1360 1363 1236 1367 1496
8 1361 1239 1115 1228 1497 1371 1240 1362
8 1366 1241 1372 1498 1233 1117 1240 1362
8 1364 1237 1113 1231 1499 1368 1236 1363
8 1364 1237 1368 1499 1232 1114 1238 1365
8 1234 1118 1238 1365 1366 1241 1369 1500
8 1507 1373 1242 1374 1388 1266 1138 1255
8 1508 1374 1243 1375 1380 1255 1132 1249
8 1376 1254 1387 1509 1245 1129 1258 1377
8 1275 1149 1276 1405 1376 1254 1387 1509
8 1377 1258 1391 1510 1248 1130 1259 1379
8 1511 1390 1257 1378 1379 1259 1131 1247
8 1383 1260 1134 1251 1511 1390 1257 1378
8 1252 1135 1256 1385 1380 1255 1388 1512
8 1261 1381 1513 1394 1133 1250 1382 1262
8 1135 1252 1384 1263 1261 1381 1513 1394
8 1382 1262 1134 1251 1514 1393 1260 1383
8 1253 1136 1263 1384 1386 1264 1395 1516
8 1253 1136 1264 1386 1385 1256 1389 1517
8 1387 1265 1397 1519 1258 1141 1269 1391
8 1276 1150 1277 1406 1387 1265 1397 1519
8 1256 1139 1267 1389 1388 1266 1398 1520
8 1264 1147 1274 1396 1389 1267 1399 1521
8 1392 1270 1143 1260 1522 1400 1268 1390
8 1390 1268 1142 1259 1522 1400 1269 1391
8 1392 1270 1401 1523 1260 1143 1271 1393
8 1272 1394 1524 1402 1145 1262 1393 1271
8 1395 1273 1146 1263 1524 1402 1272 1394
8 1273 1395 1264 1147 1403 1526 1396 1274
8 1405 1276 1160 1282 1534 1406 1286 1411
8 1414 1287 1407 1535 1286 1162 1277 1406
8 1279 1159 1283 1408 1409 1285 1412 1537
8 1418 1292 1412 1537 1290 1165 1283 1408
8 1280 1158 1285 1409 1410 1284 1413 1538
8 1410 1284 1413 1538 1282 1160 1286 1411
8 1285 1163 1289 1412 1413 1288 1417 1540
8 1421 1296 1417 1540 1292 1167 1289 1412
8 1414 1287 1162 1286 1541 1416 1288 1413
8 1420 1294 1421 1545 1291 1166 1292 1418
8 1419 1293 1172 1305 1546 1422 1303 1437
8 1420 1294 1166 1291 1547 1423 1293 1419
8 1294 1169 1297 1423 1421 1296 1425 1548
8 1423 1297 1168 1293 1549 1424 1295 1422
8 1301 1170 1298 1427 1422 1295 1424 1549
8 1432 1300 1428 1554 1301 1170 1298 1427
8 1431 1299 1428 1554 1560 1430 1300 1432
8 1563 1433 1300 1432 1435 1302 1170 1301
8 1546 1422 1303 1437 1434 1301 1435 1565
8 1303 1171 1304 1438 1435 1302 1436 1566
8 1305 1172 1306 1440 1437 1303 1438 1568
8 1306 1173 1307 1441 1438 1304 1439 1569
8 1308 1175 1309 1443 1440 1306 1441 1571
8 1309 1176 1310 1444 1441 1307 1442 1572
8 1311 1178 1312 1446 1443 1309 1444 1574
8 1179 1312 1444 1310 1313 1447 1575 1445
8 1314 1181 1315 1448 1446 1312 1447 1576
8 1350 1213 1349 1486 1451 1317 1449 1579
8 1451 1317 1450 1581 1319 1186 1318 1453
8 1454 1319 1214 1351 1582 1451 1350 1487
8 1453 1318 1452 1584 1321 1187 1320 1456
8 1454 1319 1453 1585 1344 1208 1321 1457
8 1456 1320 1455 1586 1323 1189 1324 1459
8 1457 1321 1456 1587 1322 1188 1323 1458
8 1458 1323 1459 1588 1325 1191 1326 1460
8 1205 1336 1464 1329 1328 1462 1590 1461
8 1507 1373 1461 1590 1374 1242 1328 1462
8 1508 1374 1462 1591 1375 1243 1335 1467
8 1337 1206 1329 1464 1473 1341 1463 1594
8 1375 1243 1335 1467 1465 1333 1470 1596
8 1465 1333 1470 1596 1331 1200 1334 1466
8 1352 1227 1334 1466 1488 1360 1470 1596
8 1591 1462 1336 1468 1467 1335 1471 1597
8 1469 1337 1472 1598 1595 1464 1336 1468
8 1471 1339 1474 1600 1335 1204 1338 1470
8 1600 1474 1367 1496 1470 1338 1235 1360
8 1336 1205 1340 1472 1471 1339 1475 1601
8 1337 1206 1341 1473 1472 1340 1476 1602
8 1495 1370 1478 1609 1361 1239 1342 1479
8 1348 1212 1342 1479 1483 1347 1478 1609
8 1481 1346 1479 1610 1345 1210 1343 1480
8 1481 1346 1228 1359 1610 1479 1361 1494
8 1484 1348 1214 1351 1610 1479 1343 1480
8 1483 1347 1482 1612 1350 1213 1349 1486
8 1484 1348 1483 1613 1351 1214 1350 1487
8 1353 1230 1360 1488 1489 1363 1496 1616
8 1490 1364 1231 1354 1617 1499 1363 1489
8 1490 1364 1499 1617 1355 1232 1365 1491
8 1356 1234 1365 1491 1492 1366 1500 1619
8 1492 1366 1498 1620 1357 1233 1362 1493
8 1494 1361 1228 1359 1621 1497 1362 1493
8 1495 1370 1239 1361 1622 1504 1371 1497
8 1363 1236 1367 1496 1499 1368 1501 1623
8 1497 1371 1240 1362 1624 1505 1372 1498
8 1625 1503 1372 1498 1500 1369 1241 1366
8 1365 1238 1368 1499 1500 1369 1502 1626
8 1520 1398 1506 1633 1388 1266 1373 1507
8 1634 1507 1374 1508 1512 1388 1255 1380
8 1509 1387 1519 1635 1377 1258 1391 1510
8 1405 1276 1406 1534 1509 1387 1519 1635
8 1515 1392 1260 1383 1636 1522 1390 1511
8 1511 1390 1259 1379 1636 1522 1391 1510
8 1385 1256 1389 1517 1512 1388 1520 1637
8 1513 1394 1262 1382 1638 1524 1393 1514
8 1395 1516 1638 1524 1263 1384 1513 1394
8 1515 1392 1523 1639 1383 1260 1393 1514
8 1516 1395 1526 1640 1386 1264 1396 1518
8 1386 1264 1396 1518 1517 1389 1521 1641
8 1519 1397 1527 1643 1391 1269 1400 1522
8 1535 1407 1527 1643 1406 1277 1397 1519
8 1389 1267 1399 1521 1520 1398 1528 1644
8 1645 1529 1399 1521 1525 1404 1274 1396
8 1392 1270 1400 1522 1523 1401 1531 1646
8 1524 1402 1271 1393 1648 1532 1401 1523
8 1403 1526 1648 1532 1273 1395 1524 1402
8 1525 1404 1274 1396 1649 1533 1403 1526
8 1539 1414 1535 1657 1411 1286 1406 1534
8 1542 1415 1536 1658 1414 1287 1407 1535
8 1409 1285 1412 1537 1538 1413 1540 1660
8 1545 1421 1540 1660 1418 1292 1412 1537
8 1539 1414 1286 1411 1661 1541 1413 1538
8 1540 1417 1544 1663 1413 1288 1416 1541
8 1421 1296 1425 1548 1540 1417 1544 1663
8 1542 1415 1287 1414 1664 1543 1416 1541
8 1420 1294 1423 1547 1545 1421 1548 1666
8 1547 1423 1293 1419 1667 1549 1422 1546
8 1434 1301 1427 1553 1546 1422 1549 1667
8 1423 1297 1424 1549 1548 1425 1550 1668
8 1551 1426 1550 1668 1427 1298 1424 1549
8 1551 1426 1298 1427 1671 1552 1428 1554
8 1562 1432 1554 1674 1434 1301 1427 1553
8 1431 1299 1429 1558 1554 1428 1555 1675
8 1431 1299 1430 1560 1558 1429 1557 1680
8 1560 1430 1300 1432 1683 1559 1433 1563
8 1561 1431 1554 1674 1684 1560 1432 1562
8 1685 1563 1432 1562 1565 1435 1301 1434
8 1435 1302 1436 1566 1563 1433 1564 1686
8 1437 1303 1438 1568 1565 1435 1566 1688
8 1438 1304 1439 1569 1566 1436 1567 1689
8 1440 1306 1441 1571 1568 1438 1569 1691
8 1441 1307 1442 1572 1569 1439 1570 1692
8 1443 1309 1444 1574 1571 1441 1572 1694
8 1310 1444 1572 1442 1445 1575 1695 1573
8 1446 1312 1447 1576 1574 1444 1575 1696
8 1486 1349 1485 1614 1579 1449 1577 1699
8 1451 1317 1449 1579 1581 1450 1578 1701
8 1487 1350 1486 1615 1582 1451 1579 1702
8 1581 1450 1580 1704 1453 1318 1452 1584
8 1582 1451 1581 1705 1454 1319 1453 1585
8 1584 1452 1583 1706 1456 1320 1455 1586
8 1585 1453 1584 1707 1457 1321 1456 1587
8 1587 1456 1586 1708 1458 1323 1459 1588
8 1633 1506 1589 1710 1507 1373 1461 1590
8 1464 1329 1461 1590 1594 1463 1589 1710
8 1468 1336 1462 1591 1595 1464 1590 1711
8 1634 1507 1590 1711 1508 1374 1462 1591
8 1473 1341 1463 1594 1603 1477 1593 1716
8 1469 1337 1464 1595 1599 1473 1594 1717
8 1471 1597 1467 1335 1600 1718 1596 1470
8 1718 1600 1496 1616 1596 1470 1360 1488
8 1336 1468 1597 1471 1472 1598 1719 1601
8 1469 1337 1473 1599 1598 1472 1602 1720
8 1722 1604 1501 1623 1600 1474 1367 1496
8 1475 1601 1471 1339 1604 1722 1600 1474
8 1602 1476 1605 1723 1472 1340 1475 1601
8 1476 1602 1724 1606 1341 1473 1603 1477
8 1483 1347 1478 1609 1612 1482 1608 1731
8 1495 1370 1504 1622 1609 1478 1608 1731
8 1618 1495 1609 1732 1494 1361 1479 1610
8 1484 1348 1479 1610 1613 1483 1609 1732
8 1486 1349 1482 1612 1614 1485 1611 1733
8 1613 1483 1612 1734 1487 1350 1486 1615
8 1489 1363 1496 1616 1617 1499 1623 1736
8 1491 1365 1499 1617 1619 1500 1626 1737
8 1618 1495 1361 1494 1738 1622 1497 1621
8 1739 1625 1498 1620 1619 1500 1366 1492
8 1621 1497 1362 1493 1740 1624 1498 1620
8 1742 1631 1504 1622 1624 1505 1371 1497
8 1743 1628 1502 1626 1623 1501 1368 1499
8 1744 1630 1505 1624 1625 1503 1372 1498
8 1745 1629 1503 1625 1626 1502 1369 1500
8 1520 1398 1528 1644 1633 1506 1632 1751
8 1637 1520 1633 1752 1512 1388 1507 1634
8 1635 1519 1643 1753 1510 1391 1522 1636
8 1657 1535 1643 1753 1534 1406 1519 1635
8 1515 1392 1522 1636 1639 1523 1646 1754
8 1517 1389 1521 1641 1637 1520 1644 1755
8 1524 1638 1756 1648 1393 1514 1639 1523
8 1640 1526 1395 1516 1756 1648 1524 1638
8 1642 1525 1396 1518 1757 1649 1526 1640
8 1758 1645 1521 1641 1642 1525 1396 1518
8 1646 1531 1400 1522 1760 1650 1527 1643
8 1535 1407 1536 1658 1643 1527 1650 1760
8 1521 1399 1529 1645 1644 1528 1651 1761
8 1647 1530 1652 1762 1525 1404 1529 1645
8 1401 1523 1648 1532 1531 1646 1763 1655
8 1525 1404 1533 1649 1647 1530 1654 1765
8 1533 1649 1766 1656 1403 1526 1648 1532
8 1662 1542 1658 1774 1539 1414 1535 1657
8 1542 1415 1543 1664 1658 1536 1659 1775
8 1660 1540 1663 1777 1538 1413 1541 1661
8 1545 1421 1548 1666 1660 1540 1663 1777
8 1662 1542 1414 1539 1778 1664 1541 1661
8 1664 1543 1416 1541 1779 1665 1544 1663
8 1548 1425 1550 1668 1663 1544 1665 1779
8 1547 1423 1549 1667 1666 1548 1668 1781
8 1670 1551 1668 1781 1553 1427 1549 1667
8 1551 1426 1552 1671 1668 1550 1669 1782
8 1670 1551 1427 1553 1784 1671 1554 1674
8 1675 1555 1672 1785 1554 1428 1552 1671
8 1678 1556 1673 1789 1558 1429 1555 1675
8 1561 1431 1558 1681 1674 1554 1675 1790
8 1794 1677 1556 1678 1680 1557 1429 1558
8 1560 1430 1559 1683 1680 1557 1679 1797
8 1561 1431 1560 1684 1681 1558 1680 1798
8 1563 1433 1564 1686 1683 1559 1682 1800
8 1684 1560 1432 1562 1801 1683 1563 1685
8 1565 1435 1566 1688 1685 1563 1686 1802
8 1566 1436 1567 1689 1686 1564 1687 1803
8 1568 1438 1569 1691 1688 1566 1689 1805
8 1569 1439 1570 1692 1689 1567 1690 1806
8 1571 1441 1572 1694 1691 1569 1692 1808
8 1442 1572 1692 1570 1573 1695 1809 1693
8 1574 1444 1575 1696 1694 1572 1695 1810
8 1614 1485 1592 1712 1699 1577 1697 1813
8 1579 1449 1577 1699 1701 1578 1698 1815
8 1615 1486 1614 1735 1702 1579 1699 1816
8 1701 1578 1700 1818 1581 1450 1580 1704
8 1582 1451 1579 1702 1705 1581 1701 1819
8 1704 1580 1703 1820 1584 1452 1583 1706
8 1705 1581 1704 1821 1585 1453 1584 1707
8 1707 1584 1706 1822 1587 1456 1586 1708
8 1710 1589 1506 1633 1824 1709 1632 1751
8 1594 1463 1589 1710 1716 1593 1709 1824
8 1752 1633 1710 1825 1634 1507 1590 1711
8 1595 1464 1590 1711 1717 1594 1710 1825
8 1830 1714 1592 1712 1733 1611 1485 1614
8 1603 1477 1593 1716 1725 1607 1715 1834
8 1599 1473 1594 1717 1721 1603 1716 1835
8 1837 1722 1623 1736 1718 1600 1496 1616
8 1719 1601 1722 1837 1597 1471 1600 1718
8 1602 1720 1598 1472 1723 1838 1719 1601
8 1720 1602 1473 1599 1839 1724 1603 1721
8 1723 1605 1726 1840 1601 1475 1604 1722
8 1840 1726 1628 1743 1722 1604 1501 1623
8 1724 1606 1727 1841 1602 1476 1605 1723
8 1725 1607 1728 1842 1603 1477 1606 1724
8 1612 1482 1608 1731 1733 1611 1730 1849
8 1741 1627 1730 1849 1622 1504 1608 1731
8 1613 1483 1609 1732 1734 1612 1731 1850
8 1618 1495 1622 1738 1732 1609 1731 1850
8 1615 1486 1612 1734 1735 1614 1733 1851
8 1852 1743 1626 1737 1736 1623 1499 1617
8 1853 1745 1625 1739 1737 1626 1500 1619
8 1855 1742 1622 1738 1740 1624 1497 1621
8 1856 1744 1624 1740 1739 1625 1498 1620
8 1741 1627 1504 1622 1857 1746 1631 1742
8 1742 1631 1505 1624 1858 1749 1630 1744
8 1859 1747 1629 1745 1743 1628 1502 1626
8 1860 1748 1630 1744 1745 1629 1503 1625
8 1644 1528 1651 1761 1751 1632 1750 1865
8 1637 1520 1644 1755 1752 1633 1751 1866
8 1754 1646 1522 1636 1867 1760 1643 1753
8 1657 1535 1658 1774 1753 1643 1760 1867
8 1639 1523 1646 1754 1756 1648 1763 1868
8 1641 1521 1645 1758 1755 1644 1761 1869
8 1757 1649 1526 1640 1870 1766 1648 1756
8 1642 1525 1649 1757 1759 1647 1765 1871
8 1759 1647 1762 1872 1642 1525 1645 1758
8 1760 1650 1767 1874 1646 1531 1655 1763
8 1658 1536 1659 1775 1760 1650 1767 1874
8 1762 1652 1768 1875 1645 1529 1651 1761
8 1764 1653 1769 1876 1647 1530 1652 1762
8 1656 1766 1877 1773 1532 1648 1763 1655
8 1771 1879 1765 1654 1653 1764 1647 1530
8 1533 1649 1765 1654 1656 1766 1880 1772
8 1662 1542 1664 1778 1774 1658 1775 1887
8 1664 1543 1665 1779 1775 1659 1776 1888
8 1778 1664 1541 1661 1890 1779 1663 1777
8 1666 1548 1668 1781 1777 1663 1779 1890
8 1782 1669 1780 1891 1668 1550 1665 1779
8 1670 1551 1671 1784 1781 1668 1782 1893
8 1671 1552 1672 1785 1782 1669 1783 1894
8 1790 1675 1785 1896 1674 1554 1671 1784
8 1675 1555 1673 1789 1785 1672 1786 1897
8 1792 1676 1788 1903 1678 1556 1673 1789
8 1795 1678 1789 1904 1681 1558 1675 1790
8 1792 1676 1556 1678 1906 1791 1677 1794
8 1680 1557 1679 1797 1794 1677 1793 1909
8 1910 1794 1678 1795 1798 1680 1558 1681
8 1683 1559 1682 1800 1797 1679 1796 1912
8 1684 1560 1683 1801 1798 1680 1797 1913
8 1686 1564 1687 1803 1800 1682 1799 1915
8 1685 1563 1686 1802 1801 1683 1800 1916
8 1688 1566 1689 1805 1802 1686 1803 1917
8 1689 1567 1690 1806 1803 1687 1804 1918
8 1691 1569 1692 1808 1805 1689 1806 1920
8 1692 1570 1693 1809 1806 1690 1807 1921
8 1694 1572 1695 1810 1808 1692 1809 1922
8 1829 1713 1811 1926 1712 1592 1697 1813
8 1813 1697 1812 1928 1699 1577 1698 1815
8 1735 1614 1712 1828 1816 1699 1813 1929
8 1815 1698 1814 1931 1701 1578 1700 1818
8 1702 1579 1699 1816 1819 1701 1815 1932
8 1818 1700 1817 1933 1704 1580 1703 1820
8 1819 1701 1818 1934 1705 1581 1704 1821
8 1821 1704 1820 1935 1707 1584 1706 1822
8 1824 1709 1632 1751 1937 1823 1750 1865
8 1716 1593 1709 1824 1834 1715 1823 1937
8 1825 1710 1633 1752 1938 1824 1751 1866
8 1717 1594 1710 1825 1835 1716 1824 1938
8 1945 1830 1712 1828 1851 1733 1614 1735
8 1830 1714 1831 1946 1712 1592 1713 1829
8 1947 1832 1714 1830 1849 1730 1611 1733
8 1843 1729 1607 1725 1950 1833 1715 1834
8 1721 1603 1716 1835 1836 1725 1834 1951
8 1836 1725 1842 1953 1721 1603 1724 1839
8 1723 1838 1719 1601 1840 1954 1837 1722
8 1954 1840 1743 1852 1837 1722 1623 1736
8 1724 1839 1720 1602 1841 1955 1838 1723
8 1841 1727 1844 1956 1723 1605 1726 1840
8 1956 1844 1747 1859 1840 1726 1628 1743
8 1728 1842 1724 1606 1845 1957 1841 1727
8 1725 1607 1729 1843 1842 1728 1846 1958
8 1741 1627 1746 1857 1849 1730 1848 1965
8 1734 1612 1731 1850 1851 1733 1849 1966
8 1854 1741 1849 1966 1738 1622 1731 1850
8 1967 1859 1745 1853 1852 1743 1626 1737
8 1968 1860 1744 1856 1853 1745 1625 1739
8 1854 1741 1622 1738 1969 1857 1742 1855
8 1855 1742 1624 1740 1970 1858 1744 1856
8 1857 1746 1631 1742 1971 1861 1749 1858
8 1858 1749 1630 1744 1972 1863 1748 1860
8 1859 1747 1862 1973 1745 1629 1748 1860
8 1875 1768 1864 1977 1761 1651 1750 1865
8 1755 1644 1761 1869 1866 1751 1865 1978
8 1867 1760 1874 1979 1754 1646 1763 1868
8 1774 1658 1775 1887 1867 1760 1874 1979
8 1870 1766 1648 1756 1980 1877 1763 1868
8 1872 1762 1875 1981 1758 1645 1761 1869
8 1757 1649 1766 1870 1871 1765 1880 1982
8 1983 1879 1764 1873 1871 1765 1647 1759
8 1873 1764 1876 1984 1759 1647 1762 1872
8 1877 1773 1655 1763 1986 1881 1767 1874
8 1775 1659 1776 1888 1874 1767 1881 1986
8 1876 1769 1882 1987 1762 1652 1768 1875
8 1878 1770 1883 1988 1764 1653 1769 1876
8 1880 1772 1656 1766 1989 1886 1773 1877
8 1878 1770 1653 1764 1990 1884 1771 1879
8 1765 1654 1772 1880 1879 1771 1885 1991
8 1778 1664 1779 1890 1887 1775 1888 1997
8 1998 1889 1776 1888 1891 1780 1665 1779
8 1893 1782 1891 2000 1781 1668 1779 1890
8 1894 1783 1892 2001 1782 1669 1780 1891
8 1784 1671 1785 1896 1893 1782 1894 2003
8 1897 1786 1895 2004 1785 1672 1783 1894
8 1790 1675 1789 1904 1896 1785 1897 2006
8 1901 1787 1898 2007 1789 1673 1786 1897
8 1903 1788 1900 2013 1789 1673 1787 1901
8 1792 1676 1791 1906 1903 1788 1902 2016
8 1907 1792 1903 2017 1795 1678 1789 1904
8 1906 1791 1677 1794 2019 1905 1793 1909
8 1907 1792 1678 1795 2020 1906 1794 1910
8 1797 1679 1796 1912 1909 1793 1908 2022
8 1798 1680 1797 1913 1910 1794 1909 2023
8 1800 1682 1799 1915 1912 1796 1911 2025
8 1801 1683 1800 1916 1913 1797 1912 2026
8 1803 1687 1804 1918 1915 1799 1914 2028
8 1802 1686 1803 1917 1916 1800 1915 2029
8 1805 1689 1806 1920 1917 1803 1918 2030
8 1806 1690 1807 1921 1918 1804 1919 2031
8 1808 1692 1809 1922 1920 1806 1921 2032
8 1939 1826 1924 2037 1829 1713 1811 1926
8 1926 1811 1925 2039 1813 1697 1812 1928
8 1944 1829 1926 2040 1828 1712 1813 1929
8 1928 1812 1927 2042 1815 1698 1814 1931
8 1929 1813 1928 2043 1816 1699 1815 1932
8 1931 1814 1930 2044 1818 1700 1817 1933
8 1932 1815 1931 2045 1819 1701 1818 1934
8 1934 1818 1933 2046 1821 1704 1820 1935
8 2048 1936 1823 1937 1977 1864 1750 1865
8 1950 1833 1715 1834 2048 1936 1823 1937
8 1938 1824 1751 1866 2049 1937 1865 1978
8 1835 1716 1824 1938 1951 1834 1937 2049
8 1939 1826 1713 1829 2053 1942 1831 1946
8 1940 1827 1923 2035 2053 1942 1826 1939
8 1945 1830 1946 2058 1828 1712 1829 1944
8 2059 1947 1830 1945 1966 1849 1733 1851
8 1947 1832 1730 1849 2060 1948 1848 1965
8 1947 1832 1948 2060 1830 1714 1831 1946
8 1959 1847 1729 1843 2063 1949 1833 1950
8 1952 1843 1725 1836 2064 1950 1834 1951
8 1836 1725 1843 1952 1953 1842 1958 2066
8 1953 1842 1957 2067 1839 1724 1841 1955
8 1841 1955 1838 1723 1956 2068 1954 1840
8 2068 1956 1859 1967 1954 1840 1743 1852
8 1956 1844 1960 2069 1859 1747 1862 1973
8 1845 1957 1841 1727 1960 2069 1956 1844
8 1728 1842 1957 1845 1846 1958 2071 1961
8 1962 2072 1959 1847 1846 1958 1843 1729
8 1971 1861 1964 2077 1857 1746 1848 1965
8 1854 1741 1857 1969 1966 1849 1965 2078
8 1967 1859 1973 2079 1853 1745 1860 1968
8 1970 1858 1744 1856 2080 1972 1860 1968
8 1969 1857 1742 1855 2081 1971 1858 1970
8 1971 1861 1749 1858 2082 1974 1863 1972
8 1973 1862 1975 2083 1860 1748 1863 1972
8 1987 1882 1976 2086 1875 1768 1864 1977
8 1981 1875 1977 2087 1869 1761 1865 1978
8 1980 1877 1763 1868 2088 1986 1874 1979
8 1887 1775 1888 1997 1979 1874 1986 2088
8 1880 1982 2089 1989 1766 1870 1980 1877
8 1984 1876 1987 2090 1872 1762 1875 1981
8 1765 1871 1983 1879 1880 1982 2091 1991
8 1985 1878 1764 1873 2092 1990 1879 1983
8 1985 1878 1988 2093 1873 1764 1876 1984
8 2094 1992 1881 1986 1998 1889 1776 1888
8 1986 1881 1992 2094 1877 1773 1886 1989
8 1988 1883 1993 2095 1876 1769 1882 1987
8 1878 1770 1884 1990 1988 1883 1994 2096
8 1991 1885 1772 1880 2097 1996 1886 1989
8 1879 1771 1885 1991 1990 1884 1995 2098
8 2103 1998 1888 1997 2000 1891 1779 1890
8 2104 1999 1889 1998 2001 1892 1780 1891
8 2003 1894 2001 2106 1893 1782 1891 2000
8 2004 1895 2002 2107 1894 1783 1892 2001
8 2006 1897 2004 2109 1896 1785 1894 2003
8 2007 1898 2005 2110 1897 1786 1895 2004
8 2014 1901 2007 2112 1904 1789 1897 2006
8 2011 1899 2008 2113 1901 1787 1898 2007
8 2119 2010 1899 2011 2013 1900 1787 1901
8 2016 1902 2012 2122 1903 1788 1900 2013
8 2017 1903 2013 2123 1904 1789 1901 2014
8 1906 1791 1905 2019 2016 1902 2015 2125
8 1907 1792 1906 2020 2017 1903 2016 2126
8 1909 1793 1908 2022 2019 1905 2018 2128
8 2020 1906 1794 1910 2129 2019 1909 2023
8 1912 1796 1911 2025 2022 1908 2021 2131
8 1913 1797 1912 2026 2023 1909 2022 2132
8 1915 1799 1914 2028 2025 1911 2024 2134
8 1916 1800 1915 2029 2026 1912 2025 2135
8 1918 1804 1919 2031 2028 1914 2027 2136
8 1917 1803 1918 2030 2029 1915 2028 2137
8 1920 1806 1921 2032 2030 1918 2031 2138
8 1940 1827 1941 2054 2035 1923 2033 2140
8 2035 1923 2034 2143 1939 1826 1924 2037
8 2037 1924 2036 2146 1926 1811 1925 2039
8 2051 1939 2037 2147 1944 1829 1926 2040
8 2039 1925 2038 2149 1928 1812 1927 2042
8 2040 1926 2039 2150 1929 1813 1928 2043
8 2042 1927 2041 2151 1931 1814 1930 2044
8 2043 1928 2042 2152 1932 1815 1931 2045
8 2045 1931 2044 2153 1934 1818 1933 2046
8 2155 2047 1936 2048 2086 1976 1864 1977
8 2063 1949 1833 1950 2155 2047 1936 2048
8 2156 2048 1937 2049 2087 1977 1865 1978
8 2064 1950 1834 1951 2156 2048 1937 2049
8 2051 1939 1829 1944 2160 2053 1946 2058
8 2052 1940 2035 2144 2160 2053 1939 2051
8 2053 1942 1831 1946 2163 2057 1948 2060
8 2055 1943 1827 1940 2163 2057 1942 2053
8 2055 1943 2056 2164 1940 1827 1941 2054
8 2059 1947 1849 1966 2167 2060 1965 2078
8 2059 1947 2060 2167 1945 1830 1946 2058
8 2077 1964 2061 2168 1965 1848 1948 2060
8 2070 1963 1847 1959 2170 2062 1949 2063
8 2065 1959 1843 1952 2171 2063 1950 2064
8 2173 2072 1958 2066 2065 1959 1843 1952
8 1953 1842 1958 2066 2067 1957 2071 2174
8 2068 1956 2069 2175 1967 1859 1973 2079
8 2067 1957 2069 2175 1955 1841 1956 2068
8 1845 1957 2069 1960 1961 2071 2176 2073
8 2069 1960 2073 2176 1973 1862 1975 2083
8 2070 1963 2075 2177 1959 1847 1962 2072
8 1846 1958 2071 1961 1962 2072 2178 2074
8 2077 1964 1861 1971 2182 2076 1974 2082
8 2081 1971 2077 2183 1969 1857 1965 2078
8 2079 1973 2083 2184 1968 1860 1972 2080
8 2081 1971 1858 1970 2185 2082 1972 2080
8 2083 1975 2084 2186 1972 1863 1974 2082
8 2086 1976 1882 1987 2189 2085 1993 2095
8 2090 1987 2086 2190 1981 1875 1977 2087
8 2191 2094 1986 2088 2103 1998 1888 1997
8 2088 1986 2094 2191 1980 1877 1989 2089
8 1991 2091 2192 2097 1880 1982 2089 1989
8 2093 1988 2095 2193 1984 1876 1987 2090
8 1879 1983 2092 1990 1991 2091 2194 2098
8 1985 1878 1990 2092 2093 1988 2096 2195
8 2097 1996 1886 1989 2196 2099 1992 2094
8 2196 2099 1992 2094 2104 1999 1889 1998
8 1994 2096 1988 1883 2100 2197 2095 1993
8 2096 1994 1884 1990 2198 2101 1995 2098
8 1995 2098 2199 2102 1885 1991 2097 1996
8 2203 2104 1998 2103 2106 2001 1891 2000
8 2107 2002 2105 2204 2001 1892 1999 2104
8 2109 2004 2107 2206 2003 1894 2001 2106
8 2110 2005 2108 2207 2004 1895 2002 2107
8 2112 2007 2110 2209 2006 1897 2004 2109
8 2113 2008 2111 2210 2007 1898 2005 2110
8 2120 2011 2113 2212 2014 1901 2007 2112
8 2117 2009 2114 2213 2011 1899 2008 2113
8 2219 2116 2009 2117 2119 2010 1899 2011
8 2222 2118 2010 2119 2122 2012 1900 2013
8 2223 2119 2011 2120 2123 2013 1901 2014
8 2016 1902 2015 2125 2122 2012 2121 2225
8 2126 2016 2122 2226 2017 1903 2013 2123
8 2019 1905 2018 2128 2125 2015 2124 2228
8 2020 1906 2019 2129 2126 2016 2125 2229
8 2022 1908 2021 2131 2128 2018 2127 2231
8 2023 1909 2022 2132 2129 2019 2128 2232
8 2025 1911 2024 2134 2131 2021 2130 2234
8 2026 1912 2025 2135 2132 2022 2131 2235
8 1914 2028 2134 2024 2027 2136 2236 2133
8 2029 1915 2028 2137 2135 2025 2134 2237
8 2030 1918 2031 2138 2137 2028 2136 2238
8 2157 2050 2139 2240 2054 1941 2033 2140
8 2052 1940 2054 2161 2144 2035 2140 2242
8 2140 2033 2141 2243 2035 1923 2034 2143
8 2143 2034 2142 2246 2037 1924 2036 2146
8 2144 2035 2143 2247 2051 1939 2037 2147
8 2146 2036 2145 2249 2039 1925 2038 2149
8 2147 2037 2146 2250 2040 1926 2039 2150
8 2149 2038 2148 2251 2042 1927 2041 2151
8 2150 2039 2149 2252 2043 1928 2042 2152
8 2152 2042 2151 2253 2045 1931 2044 2153
8 2255 2154 2047 2155 2189 2085 1976 2086
8 2170 2062 1949 2063 2255 2154 2047 2155
8 2256 2155 2048 2156 2190 2086 1977 2087
8 2171 2063 1950 2064 2256 2155 2048 2156
8 2258 2159 2050 2157 2164 2056 1941 2054
8 2160 2053 1946 2058 2262 2163 2060 2167
8 2162 2055 1940 2052 2262 2163 2053 2160
8 2162 2055 2164 2263 2052 1940 2054 2161
8 2163 2057 1948 2060 2264 2165 2061 2168
8 2055 1943 2057 2163 2164 2056 2165 2264
8 2182 2076 2166 2268 2077 1964 2061 2168
8 2183 2077 2168 2269 2078 1965 2060 2167
8 2070 1963 2062 2170 2177 2075 2169 2271
8 2172 2070 1959 2065 2272 2170 2063 2171
8 2172 2070 2177 2273 2065 1959 2072 2173
8 2066 1958 2072 2173 2174 2071 2178 2274
8 2067 1957 2071 2174 2175 2069 2176 2275
8 2175 2069 2176 2275 2079 1973 2083 2184
8 2071 1961 2074 2178 2176 2073 2179 2276
8 2176 2073 2179 2276 2083 1975 2084 2186
8 2072 1962 2075 2177 2178 2074 2180 2277
8 2182 2076 1974 2082 2280 2181 2084 2186
8 2183 2077 1971 2081 2281 2182 2082 2185
8 2184 2083 2186 2282 2080 1972 2082 2185
8 2189 2085 1993 2095 2285 2188 2100 2197
8 2190 2086 1987 2090 2286 2189 2095 2193
8 2192 2097 1989 2089 2287 2196 2094 2191
8 2287 2196 2094 2191 2203 2104 1998 2103
8 2194 2098 1991 2091 2288 2199 2097 2192
8 2195 2096 2197 2289 2093 1988 2095 2193
8 2096 2195 2290 2198 1990 2092 2194 2098
8 2097 1996 2099 2196 2199 2102 2200 2291
8 2196 2099 1999 2104 2291 2200 2105 2204
8 2100 2197 2292 2201 1994 2096 2198 2101
8 1995 2098 2198 2101 2102 2199 2293 2202
8 2206 2107 2204 2296 2106 2001 2104 2203
8 2207 2108 2205 2297 2107 2002 2105 2204
8 2209 2110 2207 2299 2109 2004 2107 2206
8 2210 2111 2208 2300 2110 2005 2108 2207
8 2212 2113 2210 2302 2112 2007 2110 2209
8 2213 2114 2211 2303 2113 2008 2111 2210
8 2220 2117 2213 2305 2120 2011 2113 2212
8 2216 2115 2214 2306 2117 2009 2114 2213
8 2216 2115 2009 2117 2311 2217 2116 2219
8 2219 2116 2010 2119 2314 2218 2118 2222
8 2315 2219 2117 2220 2223 2119 2011 2120
8 2122 2012 2121 2225 2222 2118 2221 2317
8 2318 2222 2119 2223 2226 2122 2013 2123
8 2125 2015 2124 2228 2225 2121 2224 2320
8 2126 2016 2125 2229 2226 2122 2225 2321
8 2128 2018 2127 2231 2228 2124 2227 2323
8 2129 2019 2128 2232 2229 2125 2228 2324
8 2131 2021 2130 2234 2231 2127 2230 2326
8 2132 2022 2131 2235 2232 2128 2231 2327
8 2134 2024 2133 2236 2234 2130 2233 2328
8 2135 2025 2134 2237 2235 2131 2234 2329
8 2137 2028 2136 2238 2237 2134 2236 2330
8 2157 2050 2158 2259 2240 2139 2239 2332
8 2257 2157 2240 2334 2161 2054 2140 2242
8 2240 2139 2241 2335 2140 2033 2141 2243
8 2242 2140 2243 2337 2144 2035 2143 2247
8 2243 2141 2244 2338 2143 2034 2142 2246
8 2246 2142 2245 2341 2146 2036 2145 2249
8 2247 2143 2246 2342 2147 2037 2146 2250
8 2249 2145 2248 2343 2149 2038 2148 2251
8 2250 2146 2249 2344 2150 2039 2149 2252
8 2252 2149 2251 2345 2152 2042 2151 2253
8 2169 2271 2347 2254 2062 2170 2255 2154
8 2189 2085 2188 2285 2255 2154 2254 2347
8 2348 2255 2155 2256 2286 2189 2086 2190
8 2272 2170 2063 2171 2348 2255 2155 2256
8 2349 2258 2157 2257 2263 2164 2054 2161
8 2258 2159 2261 2351 2157 2050 2158 2259
8 2258 2159 2056 2164 2351 2261 2165 2264
8 2262 2163 2060 2167 2355 2264 2168 2269
8 2162 2055 2163 2262 2263 2164 2264 2355
8 2357 2266 2165 2264 2268 2166 2061 2168
8 2268 2166 2076 2182 2361 2267 2181 2280
8 2281 2182 2268 2362 2183 2077 2168 2269
8 2271 2169 2270 2364 2177 2075 2180 2277
8 2172 2070 2170 2272 2273 2177 2271 2365
8 2072 2173 2274 2178 2177 2273 2366 2277
8 2071 2174 2275 2176 2178 2274 2367 2276
8 2275 2176 2276 2367 2184 2083 2186 2282
8 2283 2187 2084 2186 2368 2278 2179 2276
8 2178 2074 2180 2277 2276 2179 2278 2368
8 2283 2187 2279 2370 2186 2084 2181 2280
8 2281 2182 2082 2185 2371 2280 2186 2282
8 2188 2285 2374 2284 2100 2197 2292 2201
8 2286 2189 2095 2193 2375 2285 2197 2289
8 2192 2097 2196 2287 2288 2199 2291 2376
8 2287 2196 2104 2203 2376 2291 2204 2296
8 2194 2098 2199 2288 2290 2198 2293 2377
8 2289 2197 2096 2195 2378 2292 2198 2290
8 2291 2200 2105 2204 2379 2294 2205 2297
8 2199 2102 2200 2291 2293 2202 2294 2379
8 2198 2101 2202 2293 2292 2201 2295 2380
8 2299 2207 2297 2383 2206 2107 2204 2296
8 2300 2208 2298 2384 2207 2108 2205 2297
8 2302 2210 2300 2386 2209 2110 2207 2299
8 2303 2211 2301 2387 2210 2111 2208 2300
8 2305 2213 2303 2389 2212 2113 2210 2302
8 2306 2214 2304 2390 2213 2114 2211 2303
8 2310 2216 2306 2392 2220 2117 2213 2305
8 2308 2215 2307 2393 2216 2115 2214 2306
8 2308 2215 2115 2216 2396 2309 2217 2311
8 2310 2216 2117 2220 2398 2311 2219 2315
8 2311 2217 2116 2219 2399 2312 2218 2314
8 2314 2218 2118 2222 2402 2313 2221 2317
8 2315 2219 2119 2223 2403 2314 2222 2318
8 2225 2121 2224 2320 2317 2221 2316 2405
8 2226 2122 2225 2321 2318 2222 2317 2406
8 2228 2124 2227 2323 2320 2224 2319 2408
8 2229 2125 2228 2324 2321 2225 2320 2409
8 2231 2127 2230 2326 2323 2227 2322 2411
8 2232 2128 2231 2327 2324 2228 2323 2412
8 2234 2130 2233 2328 2326 2230 2325 2413
8 2235 2131 2234 2329 2327 2231 2326 2414
8 2237 2134 2236 2330 2329 2234 2328 2415
8 2259 2158 2260 2352 2332 2239 2331 2417
8 2257 2157 2259 2350 2334 2240 2332 2419
8 2240 2139 2239 2332 2335 2241 2333 2420
8 2334 2240 2335 2422 2242 2140 2243 2337
8 2335 2241 2336 2423 2243 2141 2244 2338
8 2337 2243 2338 2425 2247 2143 2246 2342
8 2338 2244 2339 2426 2246 2142 2245 2341
8 2341 2245 2340 2428 2249 2145 2248 2343
8 2342 2246 2341 2429 2250 2146 2249 2344
8 2344 2249 2343 2430 2252 2149 2251 2345
8 2188 2285 2347 2254 2284 2374 2432 2346
8 2347 2254 2346 2432 2271 2169 2270 2364
8 2365 2271 2170 2272 2433 2347 2255 2348
8 2286 2189 2285 2375 2348 2255 2347 2433
8 2349 2258 2351 2435 2257 2157 2259 2350
8 2349 2258 2164 2263 2435 2351 2264 2355
8 2259 2158 2261 2351 2352 2260 2354 2437
8 2356 2265 2354 2437 2264 2165 2261 2351
8 2441 2357 2264 2355 2362 2268 2168 2269
8 2356 2265 2165 2264 2442 2358 2266 2357
8 2443 2359 2266 2357 2361 2267 2166 2268
8 2370 2279 2360 2446 2280 2181 2267 2361
8 2362 2268 2182 2281 2447 2361 2280 2371
8 2180 2277 2368 2278 2270 2364 2449 2363
8 2271 2365 2273 2177 2364 2450 2366 2277
8 2372 2283 2186 2282 2451 2368 2276 2367
8 2178 2274 2367 2276 2277 2366 2451 2368
8 2283 2187 2278 2368 2370 2279 2369 2452
8 2372 2283 2370 2453 2282 2186 2280 2371
8 2284 2374 2455 2373 2201 2292 2380 2295
8 2375 2285 2197 2289 2456 2374 2292 2378
8 2376 2291 2204 2296 2457 2379 2297 2383
8 2288 2199 2291 2376 2377 2293 2379 2457
8 2198 2290 2378 2292 2293 2377 2458 2380
8 2293 2202 2294 2379 2380 2295 2381 2459
8 2384 2298 2381 2459 2297 2205 2294 2379
8 2386 2300 2384 2463 2299 2207 2297 2383
8 2387 2301 2385 2464 2300 2208 2298 2384
8 2389 2303 2387 2466 2302 2210 2300 2386
8 2390 2304 2388 2467 2303 2211 2301 2387
8 2392 2306 2390 2469 2305 2213 2303 2389
8 2393 2307 2391 2470 2306 2214 2304 2390
8 2395 2308 2393 2472 2310 2216 2306 2392
8 2308 2215 2309 2396 2393 2307 2394 2473
8 2395 2308 2216 2310 2475 2396 2311 2398
8 2396 2309 2217 2311 2476 2397 2312 2399
8 2398 2311 2219 2315 2478 2399 2314 2403
8 2399 2312 2218 2314 2479 2400 2313 2402
8 2317 2221 2316 2405 2402 2313 2401 2482
8 2403 2314 2222 2318 2483 2402 2317 2406
8 2320 2224 2319 2408 2405 2316 2404 2485
8 2321 2225 2320 2409 2406 2317 2405 2486
8 2323 2227 2322 2411 2408 2319 2407 2488
8 2324 2228 2323 2412 2409 2320 2408 2489
8 2326 2230 2325 2413 2411 2322 2410 2490
8 2327 2231 2326 2414 2412 2323 2411 2491
8 2329 2234 2328 2415 2414 2326 2413 2492
8 2417 2331 2260 2352 2494 2416 2353 2438
8 2350 2259 2352 2436 2419 2332 2417 2496
8 2332 2239 2331 2417 2420 2333 2418 2497
8 2334 2240 2332 2419 2422 2335 2420 2499
8 2420 2333 2421 2500 2335 2241 2336 2423
8 2422 2335 2423 2502 2337 2243 2338 2425
8 2423 2336 2424 2503 2338 2244 2339 2426
8 2425 2338 2426 2505 2342 2246 2341 2429
8 2426 2339 2427 2506 2341 2245 2340 2428
8 2429 2341 2428 2507 2344 2249 2343 2430
8 2432 2346 2284 2374 2509 2431 2373 2455
8 2432 2346 2431 2509 2364 2270 2363 2449
8 2375 2285 2374 2456 2433 2347 2432 2510
8 2347 2433 2365 2271 2432 2510 2450 2364
8 2350 2259 2351 2435 2436 2352 2437 2514
8 2440 2356 2437 2514 2355 2264 2351 2435
8 2352 2260 2354 2437 2438 2353 2439 2516
8 2356 2265 2358 2442 2437 2354 2439 2516
8 2440 2356 2264 2355 2518 2442 2357 2441
8 2519 2443 2357 2441 2447 2361 2268 2362
8 2443 2359 2444 2520 2357 2266 2358 2442
8 2443 2359 2267 2361 2520 2444 2360 2446
8 2446 2360 2279 2370 2523 2445 2369 2452
8 2453 2370 2446 2524 2371 2280 2361 2447
8 2449 2363 2448 2525 2368 2278 2369 2452
8 2366 2277 2364 2450 2451 2368 2449 2526
8 2372 2283 2368 2451 2453 2370 2452 2527
8 2455 2373 2295 2380 2529 2454 2382 2460
8 2456 2374 2292 2378 2530 2455 2380 2458
8 2377 2293 2379 2457 2458 2380 2459 2531
8 2463 2384 2459 2531 2383 2297 2379 2457
8 2533 2461 2382 2460 2459 2381 2295 2380
8 2464 2385 2461 2533 2384 2298 2381 2459
8 2466 2387 2464 2537 2386 2300 2384 2463
8 2467 2388 2465 2538 2387 2301 2385 2464
8 2469 2390 2467 2540 2389 2303 2387 2466
8 2470 2391 2468 2541 2390 2304 2388 2467
8 2472 2393 2470 2543 2392 2306 2390 2469
8 2393 2307 2394 2473 2470 2391 2471 2544
8 2395 2308 2396 2475 2472 2393 2473 2546
8 2396 2309 2397 2476 2473 2394 2474 2547
8 2475 2396 2311 2398 2549 2476 2399 2478
8 2476 2397 2312 2399 2550 2477 2400 2479
8 2478 2399 2314 2403 2552 2479 2402 2483
8 2479 2400 2313 2402 2553 2480 2401 2482
8 2405 2316 2404 2485 2482 2401 2481 2556
8 2406 2317 2405 2486 2483 2402 2482 2557
8 2408 2319 2407 2488 2485 2404 2484 2559
8 2409 2320 2408 2489 2486 2405 2485 2560
8 2411 2322 2410 2490 2488 2407 2487 2561
8 2412 2323 2411 2491 2489 2408 2488 2562
8 2414 2326 2413 2492 2491 2411 2490 2563
8 2513 2434 2493 2565 2438 2353 2416 2494
8 2496 2417 2352 2436 2567 2494 2438 2515
8 2494 2416 2495 2568 2417 2331 2418 2497
8 2419 2332 2417 2496 2499 2420 2497 2570
8 2497 2418 2498 2571 2420 2333 2421 2500
8 2499 2420 2500 2573 2422 2335 2423 2502
8 2500 2421 2501 2574 2423 2336 2424 2503
8 2502 2423 2503 2576 2425 2338 2426 2505
8 2503 2424 2504 2577 2426 2339 2427 2506
8 2505 2426 2506 2578 2429 2341 2428 2507
8 2509 2431 2373 2455 2580 2508 2454 2529
8 2509 2431 2508 2580 2449 2363 2448 2525
8 2432 2510 2581 2509 2374 2456 2530 2455
8 2432 2510 2450 2364 2509 2581 2526 2449
8 2583 2511 2434 2513 2516 2439 2353 2438
8 2436 2352 2437 2514 2515 2438 2516 2588
8 2440 2356 2442 2518 2514 2437 2516 2588
8 2442 2358 2444 2520 2516 2439 2517 2589
8 2519 2443 2520 2591 2441 2357 2442 2518
8 2519 2443 2361 2447 2591 2520 2446 2524
8 2446 2360 2445 2523 2520 2444 2521 2592
8 2525 2448 2522 2593 2452 2369 2445 2523
8 2524 2446 2370 2453 2594 2523 2452 2527
8 2526 2449 2525 2595 2451 2368 2452 2527
8 2534 2462 2528 2597 2460 2382 2454 2529
8 2530 2455 2380 2458 2598 2529 2460 2532
8 2599 2533 2460 2532 2531 2459 2380 2458
8 2537 2464 2533 2599 2463 2384 2459 2531
8 2534 2462 2382 2460 2601 2535 2461 2533
8 2538 2465 2535 2601 2464 2385 2461 2533
8 2540 2467 2538 2604 2466 2387 2464 2537
8 2541 2468 2539 2605 2467 2388 2465 2538
8 2543 2470 2541 2607 2469 2390 2467 2540
8 2470 2391 2471 2544 2541 2468 2542 2608
8 2472 2393 2473 2546 2543 2470 2544 2610
8 2473 2394 2474 2547 2544 2471 2545 2611
8 2475 2396 2476 2549 2546 2473 2547 2613
8 2476 2397 2477 2550 2547 2474 2548 2614
8 2549 2476 2399 2478 2616 2550 2479 2552
8 2479 2400 2480 2553 2550 2477 2551 2617
8 2552 2479 2402 2483 2619 2553 2482 2557
8 2482 2401 2481 2556 2553 2480 2554 2620
8 2485 2404 2484 2559 2556 2481 2555 2623
8 2486 2405 2485 2560 2557 2482 2556 2624
8 2488 2407 2487 2561 2559 2484 2558 2625
8 2489 2408 2488 2562 2560 2485 2559 2626
8 2491 2411 2490 2563 2562 2488 2561 2627
8 2513 2434 2512 2585 2565 2493 2564 2630
8 2586 2513 2565 2632 2515 2438 2494 2567
8 2565 2493 2566 2633 2494 2416 2495 2568
8 2567 2494 2568 2635 2496 2417 2497 2570
8 2568 2495 2569 2636 2497 2418 2498 2571
8 2570 2497 2571 2638 2499 2420 2500 2573
8 2571 2498 2572 2639 2500 2421 2501 2574
8 2573 2500 2574 2641 2502 2423 2503 2576
8 2574 2501 2575 2642 2503 2424 2504 2577
8 2576 2503 2577 2643 2505 2426 2506 2578
8 2597 2528 2579 2645 2529 2454 2508 2580
8 2580 2508 2579 2645 2525 2448 2522 2593
8 2581 2509 2455 2530 2646 2580 2529 2598
8 2581 2509 2580 2646 2526 2449 2525 2595
8 2583 2511 2582 2648 2513 2434 2512 2585
8 2583 2511 2439 2516 2648 2582 2517 2589
8 2649 2583 2513 2586 2588 2516 2438 2515
8 2589 2517 2444 2520 2653 2587 2521 2592
8 2518 2442 2520 2591 2588 2516 2589 2654
8 2593 2522 2590 2655 2523 2445 2521 2592
8 2524 2446 2523 2594 2591 2520 2592 2656
8 2595 2525 2593 2657 2527 2452 2523 2594
8 2602 2536 2596 2659 2534 2462 2528 2597
8 2600 2534 2597 2660 2532 2460 2529 2598
8 2600 2534 2460 2532 2661 2601 2533 2599
8 2604 2538 2601 2661 2537 2464 2533 2599
8 2602 2536 2462 2534 2663 2603 2535 2601
8 2601 2535 2465 2538 2663 2603 2539 2605
8 2607 2541 2605 2665 2540 2467 2538 2604
8 2608 2542 2606 2666 2541 2468 2539 2605
8 2543 2470 2544 2610 2607 2541 2608 2668
8 2544 2471 2545 2611 2608 2542 2609 2669
8 2546 2473 2547 2613 2610 2544 2611 2671
8 2547 2474 2548 2614 2611 2545 2612 2672
8 2549 2476 2550 2616 2613 2547 2614 2674
8 2550 2477 2551 2617 2614 2548 2615 2675
8 2552 2479 2553 2619 2616 2550 2617 2677
8 2553 2480 2554 2620 2617 2551 2618 2678
8 2557 2482 2556 2624 2619 2553 2620 2680
8 2556 2481 2555 2623 2620 2554 2621 2681
8 2559 2484 2558 2625 2623 2555 2622 2683
8 2560 2485 2559 2626 2624 2556 2623 2684
8 2562 2488 2561 2627 2626 2559 2625 2685
8 2690 2629 2564 2630 2650 2584 2512 2585
8 2586 2513 2585 2651 2632 2565 2630 2691
8 2630 2564 2631 2692 2565 2493 2566 2633
8 2632 2565 2633 2694 2567 2494 2568 2635
8 2633 2566 2634 2695 2568 2495 2569 2636
8 2635 2568 2636 2697 2570 2497 2571 2638
8 2636 2569 2637 2698 2571 2498 2572 2639
8 2638 2571 2639 2700 2573 2500 2574 2641
8 2639 2572 2640 2701 2574 2501 2575 2642
8 2641 2574 2642 2702 2576 2503 2577 2643
8 2597 2528 2596 2659 2645 2579 2644 2704
8 2645 2579 2644 2704 2593 2522 2590 2655
8 2660 2597 2645 2705 2598 2529 2580 2646
8 2646 2580 2645 2705 2595 2525 2593 2657
8 2650 2584 2512 2585 2707 2647 2582 2648
8 2648 2582 2517 2589 2707 2647 2587 2653
8 2649 2583 2648 2708 2586 2513 2585 2651
8 2649 2583 2516 2588 2708 2648 2589 2654
8 2655 2590 2652 2710 2592 2521 2587 2653
8 2654 2589 2520 2591 2711 2653 2592 2656
8 2657 2593 2655 2712 2594 2523 2592 2656
8 2602 2536 2603 2663 2659 2596 2658 2714
8 2662 2602 2659 2715 2600 2534 2597 2660
8 2662 2602 2534 2600 2717 2663 2601 2661
8 2661 2601 2538 2604 2717 2663 2605 2665
8 2666 2606 2664 2718 2605 2539 2603 2663
8 2668 2608 2666 2720 2607 2541 2605 2665
8 2608 2542 2609 2669 2666 2606 2667 2721
8 2610 2544 2611 2671 2668 2608 2669 2723
8 2611 2545 2612 2672 2669 2609 2670 2724
8 2613 2547 2614 2674 2671 2611 2672 2726
8 2614 2548 2615 2675 2672 2612 2673 2727
8 2616 2550 2617 2677 2674 2614 2675 2729
8 2617 2551 2618 2678 2675 2615 2676 2730
8 2619 2553 2620 2680 2677 2617 2678 2732
8 2620 2554 2621 2681 2678 2618 2679 2733
8 2624 2556 2623 2684 2680 2620 2681 2735
8 2681 2621 2555 2623 2736 2682 2622 2683
8 2626 2559 2625 2685 2684 2623 2683 2737
8 2688 2628 2584 2650 2740 2686 2647 2707
8 2688 2628 2687 2742 2650 2584 2629 2690
8 2690 2629 2689 2745 2630 2564 2631 2692
8 2746 2690 2630 2691 2709 2650 2585 2651
8 2691 2630 2692 2747 2632 2565 2633 2694
8 2692 2631 2693 2748 2633 2566 2634 2695
8 2694 2633 2695 2750 2635 2568 2636 2697
8 2695 2634 2696 2751 2636 2569 2637 2698
8 2697 2636 2698 2753 2638 2571 2639 2700
8 2698 2637 2699 2754 2639 2572 2640 2701
8 2700 2639 2701 2755 2641 2574 2642 2702
8 2659 2596 2658 2714 2704 2644 2703 2757
8 2704 2644 2703 2757 2655 2590 2652 2710
8 2660 2597 2659 2715 2705 2645 2704 2758
8 2705 2645 2704 2758 2657 2593 2655 2712
8 2759 2706 2647 2707 2710 2652 2587 2653
8 2709 2650 2585 2651 2760 2707 2648 2708
8 2708 2648 2589 2654 2760 2707 2653 2711
8 2712 2655 2710 2761 2656 2592 2653 2711
8 2763 2713 2658 2714 2718 2664 2603 2663
8 2662 2602 2663 2717 2715 2659 2714 2764
8 2720 2666 2718 2767 2665 2605 2663 2717
8 2768 2719 2664 2718 2721 2667 2606 2666
8 2668 2608 2669 2723 2720 2666 2721 2770
8 2669 2609 2670 2724 2721 2667 2722 2771
8 2671 2611 2672 2726 2723 2669 2724 2773
8 2672 2612 2673 2727 2724 2670 2725 2774
8 2674 2614 2675 2729 2726 2672 2727 2776
8 2675 2615 2676 2730 2727 2673 2728 2777
8 2677 2617 2678 2732 2729 2675 2730 2779
8 2678 2618 2679 2733 2730 2676 2731 2780
8 2680 2620 2681 2735 2732 2678 2733 2782
8 2733 2679 2621 2681 2783 2734 2682 2736
8 2735 2681 2623 2684 2784 2736 2683 2737
8 2740 2686 2647 2707 2787 2738 2706 2759
8 2688 2628 2686 2740 2742 2687 2739 2789
8 2743 2688 2650 2709 2790 2740 2707 2760
8 2742 2687 2741 2792 2690 2629 2689 2745
8 2743 2688 2742 2793 2709 2650 2690 2746
8 2745 2689 2744 2795 2692 2631 2693 2748
8 2746 2690 2745 2796 2691 2630 2692 2747
8 2747 2692 2748 2797 2694 2633 2695 2750
8 2748 2693 2749 2798 2695 2634 2696 2751
8 2750 2695 2751 2800 2697 2636 2698 2753
8 2751 2696 2752 2801 2698 2637 2699 2754
8 2753 2698 2754 2802 2700 2639 2701 2755
8 2763 2713 2756 2804 2714 2658 2703 2757
8 2759 2706 2652 2710 2804 2756 2703 2757
8 2715 2659 2714 2764 2758 2704 2757 2805
8 2758 2704 2757 2805 2712 2655 2710 2761
8 2806 2759 2707 2760 2761 2710 2653 2711
8 2765 2716 2762 2808 2718 2664 2713 2763
8 2809 2763 2714 2764 2767 2718 2663 2717
8 2765 2716 2664 2718 2811 2766 2719 2768
8 2813 2768 2718 2767 2770 2721 2666 2720
8 2814 2769 2719 2768 2771 2722 2667 2721
8 2723 2669 2724 2773 2770 2721 2771 2816
8 2724 2670 2725 2774 2771 2722 2772 2817
8 2726 2672 2727 2776 2773 2724 2774 2819
8 2727 2673 2728 2777 2774 2725 2775 2820
8 2729 2675 2730 2779 2776 2727 2777 2822
8 2730 2676 2731 2780 2777 2728 2778 2823
8 2732 2678 2733 2782 2779 2730 2780 2825
8 2780 2731 2679 2733 2826 2781 2734 2783
8 2782 2733 2681 2735 2827 2783 2736 2784
8 2830 2785 2738 2787 2804 2756 2706 2759
8 2789 2739 2686 2740 2832 2786 2738 2787
8 2790 2740 2707 2760 2833 2787 2759 2806
8 2742 2687 2739 2789 2792 2741 2788 2835
8 2743 2688 2740 2790 2793 2742 2789 2836
8 2792 2741 2791 2838 2745 2689 2744 2795
8 2793 2742 2792 2839 2746 2690 2745 2796
8 2795 2744 2794 2841 2748 2693 2749 2798
8 2796 2745 2795 2842 2747 2692 2748 2797
8 2797 2748 2798 2843 2750 2695 2751 2800
8 2798 2749 2799 2844 2751 2696 2752 2801
8 2800 2751 2801 2845 2753 2698 2754 2802
8 2808 2762 2803 2847 2763 2713 2756 2804
8 2809 2763 2804 2848 2764 2714 2757 2805
8 2806 2759 2710 2761 2848 2804 2757 2805
8 2765 2716 2766 2811 2808 2762 2807 2850
8 2810 2765 2808 2851 2767 2718 2763 2809
8 2810 2765 2718 2767 2852 2811 2768 2813
8 2811 2766 2719 2768 2853 2812 2769 2814
8 2855 2814 2768 2813 2816 2771 2721 2770
8 2856 2815 2769 2814 2817 2772 2722 2771
8 2773 2724 2774 2819 2816 2771 2817 2858
8 2774 2725 2775 2820 2817 2772 2818 2859
8 2776 2727 2777 2822 2819 2774 2820 2861
8 2777 2728 2778 2823 2820 2775 2821 2862
8 2779 2730 2780 2825 2822 2777 2823 2864
8 2823 2778 2731 2780 2865 2824 2781 2826
8 2825 2780 2733 2782 2866 2826 2783 2827
8 2869 2828 2785 2830 2847 2803 2756 2804
8 2871 2829 2786 2832 2830 2785 2738 2787
8 2872 2830 2787 2833 2848 2804 2759 2806
8 2789 2739 2786 2832 2835 2788 2831 2874
8 2836 2789 2740 2790 2875 2832 2787 2833
8 2792 2741 2788 2835 2838 2791 2834 2877
8 2793 2742 2789 2836 2839 2792 2835 2878
8 2838 2791 2837 2880 2795 2744 2794 2841
8 2839 2792 2838 2881 2796 2745 2795 2842
8 2841 2794 2840 2882 2798 2749 2799 2844
8 2842 2795 2841 2883 2797 2748 2798 2843
8 2843 2798 2844 2884 2800 2751 2801 2845
8 2886 2846 2803 2847 2850 2807 2762 2808
8 2851 2808 2847 2887 2809 2763 2804 2848
8 2850 2807 2766 2811 2889 2849 2812 2853
8 2810 2765 2811 2852 2851 2808 2850 2890
8 2852 2811 2768 2813 2891 2853 2814 2855
8 2853 2812 2769 2814 2892 2854 2815 2856
8 2894 2856 2814 2855 2858 2817 2771 2816
8 2817 2772 2818 2859 2856 2815 2857 2895
8 2819 2774 2820 2861 2858 2817 2859 2897
8 2820 2775 2821 2862 2859 2818 2860 2898
8 2822 2777 2823 2864 2861 2820 2862 2900
8 2823 2778 2824 2865 2862 2821 2863 2901
8 2864 2823 2780 2825 2902 2865 2826 2866
8 2904 2867 2828 2869 2886 2846 2803 2847
8 2869 2828 2868 2906 2830 2785 2829 2871
8 2907 2869 2830 2872 2887 2847 2804 2848
8 2871 2829 2870 2909 2832 2786 2831 2874
8 2910 2871 2832 2875 2872 2830 2787 2833
8 2835 2788 2831 2874 2877 2834 2873 2912
8 2836 2789 2832 2875 2878 2835 2874 2913
8 2877 2834 2876 2915 2838 2791 2837 2880
8 2839 2792 2835 2878 2881 2838 2877 2916
8 2880 2837 2879 2917 2841 2794 2840 2882
8 2881 2838 2880 2918 2842 2795 2841 2883
8 2883 2841 2882 2919 2843 2798 2844 2884
8 2921 2885 2846 2886 2889 2849 2807 2850
8 2922 2886 2847 2887 2890 2850 2808 2851
8 2889 2849 2812 2853 2924 2888 2854 2892
8 2890 2850 2811 2852 2925 2889 2853 2891
8 2891 2853 2814 2855 2926 2892 2856 2894
8 2892 2854 2815 2856 2927 2893 2857 2895
8 2858 2817 2859 2897 2894 2856 2895 2929
8 2859 2818 2860 2898 2895 2857 2896 2930
8 2861 2820 2862 2900 2897 2859 2898 2932
8 2862 2821 2863 2901 2898 2860 2899 2933
8 2864 2823 2865 2902 2900 2862 2901 2934
8 2904 2867 2846 2886 2936 2903 2885 2921
8 2904 2867 2903 2936 2869 2828 2868 2906
8 2937 2904 2869 2907 2922 2886 2847 2887
8 2906 2868 2905 2939 2871 2829 2870 2909
8 2907 2869 2906 2940 2872 2830 2871 2910
8 2909 2870 2908 2942 2874 2831 2873 2912
8 2910 2871 2909 2943 2875 2832 2874 2913
8 2912 2873 2911 2945 2877 2834 2876 2915
8 2878 2835 2874 2913 2916 2877 2912 2946
8 2915 2876 2914 2947 2880 2837 2879 2917
8 2916 2877 2915 2948 2881 2838 2880 2918
8 2918 2880 2917 2949 2883 2841 2882 2919
8 2921 2885 2849 2889 2951 2920 2888 2924
8 2952 2921 2886 2922 2925 2889 2850 2890
8 2924 2888 2854 2892 2954 2923 2893 2927
8 2925 2889 2853 2891 2955 2924 2892 2926
8 2926 2892 2856 2894 2956 2927 2895 2929
8 2895 2857 2896 2930 2927 2893 2928 2957
8 2897 2859 2898 2932 2929 2895 2930 2959
8 2898 2860 2899 2933 2930 2896 2931 2960
8 2900 2862 2901 2934 2932 2898 2933 2961
8 2936 2903 2885 2921 2963 2935 2920 2951
8 2936 2903 2935 2963 2906 2868 2905 2939
8 2937 2904 2886 2922 2964 2936 2921 2952
8 2937 2904 2936 2964 2907 2869 2906 2940
8 2939 2905 2938 2966 2909 2870 2908 2942
8 2940 2906 2939 2967 2910 2871 2909 2943
8 2942 2908 2941 2969 2912 2873 2911 2945
8 2943 2909 2942 2970 2913 2874 2912 2946
8 2945 2911 2944 2971 2915 2876 2914 2947
8 2946 2912 2945 2972 2916 2877 2915 2948
8 2948 2915 2947 2973 2918 2880 2917 2949
8 2951 2920 2888 2924 2975 2950 2923 2954
8 2952 2921 2889 2925 2976 2951 2924 2955
8 2927 2893 2928 2957 2954 2923 2953 2978
8 2955 2924 2892 2926 2979 2954 2927 2956
8 2929 2895 2930 2959 2956 2927 2957 2980
8 2930 2896 2931 2960 2957 2928 2958 2981
8 2932 2898 2933 2961 2959 2930 2960 2982
8 2951 2920 2950 2975 2963 2935 2962 2984
8 2963 2935 2962 2984 2939 2905 2938 2966
8 2964 2936 2921 2952 2985 2963 2951 2976
8 2964 2936 2963 2985 2940 2906 2939 2967
8 2966 2938 2965 2987 2942 2908 2941 2969
8 2967 2939 2966 2988 2943 2909 2942 2970
8 2969 2941 2968 2989 2945 2911 2944 2971
8 2970 2942 2969 2990 2946 2912 2945 2972
8 2972 2945 2971 2991 2948 2915 2947 2973
8 2954 2923 2953 2978 2975 2950 2974 2993
8 2976 2951 2924 2955 2994 2975 2954 2979
8 2957 2928 2958 2981 2978 2953 2977 2995
8 2956 2927 2957 2980 2979 2954 2978 2996
8 2959 2930 2960 2982 2980 2957 2981 2997
8 2984 2962 2983 2999 2966 2938 2965 2987
8 2975 2950 2974 2993 2984 2962 2983 2999
8 2976 2951 2975 2994 2985 2963 2984 3000
8 2985 2963 2984 3000 2967 2939 2966 2988
8 2987 2965 2986 3001 2969 2941 2968 2989
8 2988 2966 2987 3002 2970 2942 2969 2990
8 2990 2969 2989 3003 2972 2945 2971 2991
8 2978 2953 2977 2995 2993 2974 2992 3004
8 2979 2954 2978 2996 2994 2975 2993 3005
8 2980 2957 2981 2997 2996 2978 2995 3006
8 2974 2993 2999 2983 2992 3004 3007 2998
8 2983 2999 2987 2965 2998 3007 3001 2986
8 3000 2984 2999 3008 2988 2966 2987 3002
8 2994 2975 2993 3005 3000 2984 2999 3008
8 3002 2987 3001 3009 2990 2969 2989 3003
8 2996 2978 2995 3006 3005 2993 3004 3010
8 3005 2993 3004 3010 3008 2999 3007 3011
8 3008 2999 3007 3011 3002 2987 3001 3009

CELL_TYPES 1910
12
12
12
12
12
12
12
12
12
12
12
12
12
12
12
12
12
12
12
12
12
12
12
12
12
12
12
12
12
12
12
12
12
12
12
12
12
12
12
12
12
12
12
12
12
12
12
12
12
12
12
12
12
12
12
12
12
12
12
12
12
12
12
12
12
12
12
12
12
12
12
12
12
12
12
12
12
12
12
12
12
12
12
12
12
12
12
12
12
12
12
12
12
12
12
12
12
12
12
12
12
12
12
12
12
12
12
12
12
12
12
12
12
12
12
12
12
12
12
12
12
12
12
12
12
12
12
12
12
12
12
12
12
12
12
12
12
12
12
12
12
12
12
12
12
12
12
12
12
12
12
12
12
12
12
12
12
12
12
12
12
12
12
12
12
12
12
12
12
12
12
12
12
12
12
12
12
12
12
12
12
12
12
12
12
12
12
12
12
12
12
12
12
12
12
12
12
12
12
12
12
12
12
12
12
12
12
12
12
12
12
12
12
12
12
12
12
12
12
12
12
12
12
12
12
12
12
12
12
12
12
12
12
12
12
12
12
12
12
12
12
12
12
12
12
12
12
12
12
12
12
12
12
12
12
12
12
12
12
12
12
12
12
12
12
12
12
12
12
12
12
12
12
12
12
12
12
12
12
12
12
12
12
12
12
12
12
12
12
12
12
12
12
12
12
12
12
12
12
12
12
12
12
12
12
12
12
12
12
12
12
12
12
12
12
12
12
12
12
12
12
12
12
12
12
12
12
12
12
12
12
12
12
12
12
12
12
12
12
12
12
12
12
12
12
12
12
12
12
12
12
12
12
12
12
12
12
12
12
12
12
12
12
12
12
12
12
12
12
12
12
12
12
12
12
12
12
12
12
12
12
12
12
12
12
12
12
12
12
12
12
12
12
12
12
12
12
12
12
12
12
12
12
12
12
12
12
12
12
12
12
12
12
12
12
12
12
12
12
12
12
12
12
12
12
12
12
12
12
12
12
12
12
12
12
12
12
12
12
12
12
12
12
12
12
12
12
12
12
12
12
12
12
12
12
12
12
12
12
12
12
12
12
12
12
12
12
12
12
12
12
12
12
12
12
12
12
12
12
12
12
12
12
12
12
12
12
12
12
12
12
12
12
12
12
12
12
12
12
12
12
12
12
12
12
12
12
12
12
12
12
12
12
12
12
12
12
12
12
12
12
12
12
12
12
12
12
12
12
12
12
12
12
12
12
12
12
12
12
12
12
12
12
12
12
12
12
12
12
12
12
12
12
12
12
12
12
12
12
12
12
12
12
12
12
12
12
12
12
12
12
12
12
12
12
12
12
12
12
12
12
12
12
12
12
12
12
12
12
12
12
12
12
12
12
12
12
12
12
12
12
12
12
12
12
12
12
12
12
12
12
12
12
12
12
12
12
12
12
12
12
12
12
12
12
12
12
12
12
12
12
12
12
12
12
12
12
12
12
12
12
12
12
12
12
12
12
12
12
12
12
12
12
12
12
12
12
12
12
12
12
12
12
12
12
12
12
12
12
12
12
12
12
12
12
12
12
12
12
12
12
12
12
12
12
12
12
12
12
12
12
12
12
12
12
12
12
12
12
12
12
12
12
12
12
12
12
12
12
12
12
12
12
12
12
12
12
12
12
12
12
12
12
12
12
12
12
12
12
12
12
12
12
12
12
12
12
12
12
12
12
12
12
12
12
12
12
12
12
12
12
12
12
12
12
12
12
12
12
12
12
12
12
12
12
12
12
12
12
12
12
12
12
12
12
12
12
12
12
12
12
12
12
12
12
12
12
12
12
12
12
12
12
12
12
12
12
12
12
12
12
12
12
12
12
12
12
12
12
12
12
12
12
12
12
12
12
12
12
12
12
12
12
12
12
12
12
12
12
12
12
12
12
12
12
12
12
12
12
12
12
12
12
12
12
12
12
12
12
12
12
12
12
12
12
12
12
12
12
12
12
12
12
12
12
12
12
12
12
12
12
12
12
12
12
12
12
12
12
12
12
12
12
12
12
12
12
12
12
12
12
12
12
12
12
12
12
12
12
12
12
12
12
12
12
12
12
12
12
12
12
12
12
12
12
12
12
12
12
12
12
12
12
12
12
12
12
12
12
12
12
12
12
12
12
12
12
12
12
12
12
12
12
12
12
12
12
12
12
12
12
12
12
12
12
12
12
12
12
12
12
12
12
12
12
12
12
12
12
12
12
12
12
12
12
12
12
12
12
12
12
12
12
12
12
12
12
12
12
12
12
12
12
12
12
12
12
12
12
12
12
12
12
12
12
12
12
12
12
12
12
12
12
12
12
12
12
12
12
12
12
12
12
12
12
12
12
12
12
12
12
12
12
12
12
12
12
12
12
12
12
12
12
12
12
12
12
12
12
12
12
12
12
12
12
12
12
12
12
12
12
12
12
12
12
12
12
12
12
12
12
12
12
12
12
12
12
12
12
12
12
12
12
12
12
12
12
12
12
12
12
12
12
12
12
12
12
12
12
12
12
12
12
12
12
12
12
12
12
12
12
12
12
12
12
12
12
12
12
12
12
12
12
12
12
12
12
12
12
12
12
12
12
12
12
12
12
12
12
12
12
12
12
12
12
12
12
12
12
12
12
12
12
12
12
12
12
12
12
12
12
12
12
12
12
12
12
12
12
12
12
12
12
12
12
12
12
12
12
12
12
12
12
12
12
12
12
12
12
12
12
12
12
12
12
12
12
12
12
12
12
12
12
12
12
12
12
12
12
12
12
12
12
12
12
12
12
12
12
12
12
12
12
12
12
12
12
12
12
12
12
12
12
12
12
12
12
12
12
12
12
12
12
12
12
12
12
12
12
12
12
12
12
12
12
12
12
12
12
12
12
12
12
12
12
12
12
12
12
12
12
12
12
12
12
12
12
12
12
12
12
12
12
12
12
12
12
12
12
12
12
12
12
12
12
12
12
12
12
12
12
12
12
12
12
12
12
12
12
12
12
12
12
12
12
12
12
12
12
12
12
12
12
12
12
12
12
12
12
12
12
12
12
12
12
12
12
12
12
12
12
12
12
12
12
12
12
12
12
12
12
12
12
12
12
12
12
12
12
12
12
12
12
12
12
12
12
12
12
12
12
12
12
12
12
12
12
12
12
12
12
12
12
12
12
12
12
12
12
12
12
12
12
12
12
12
12
12
12
12
12
12
12
12
12
12
12
12
12
12
12
12
12
12
12
12
12
12
12
12
12
12
12
12
12
12
12
12
12
12
12
12
12
12
12
12
12
12
12
12
12
12
12
12
12
12
12
12
12
12
12
12
12
12
12
12
12
12
12
12
12
12
12
12
12
12
12
12
12
12
12
12
12
12
12
12
12
12
12
12
12
12
12
12
12
12
12
12
12
12
12
12
12
12
12
12
12
12
12
12
12
12
12
12
12
12
12
12
12
12
12
12
12
12
12
12
12
12
12
12
12
12
12
12
12
12
12
12
12
12
12
12
12
12
12
12
12
12
12
12
12
12
12
12
12
12
12
12
12
12
12
12
12
12
12
12
12
12
12
12
12
12
12
12
12
12
12
12
12
12
12
12
12
12
12
12
12
12
12
12
12
12
12
12
12
12
12
12
12
12
12
12
12
12
12
12
12
12
12
12
12
12
12
12
12
12
12
12
12
12
12
12
12
12
12
12
12
12
12
12
12
12
12
12
12
12
12
12
12
12
12
12
12
12
12
12
12
12
12
12
12
12
12
12
12
12
12
12
12
12
12
12
12
12
12
12
12
12
12
12
12
12
12
12
12
12
12
12
12
12
12
12
12
12
12
12
12
12
12
12
12
12
12
12
12
12
12
12
12
12
12
12
12
12
12
12
12
12
12
12
12
12
12
12
12
12
12
12
12
12
12
12
12
12
12
12
12
12
12
12
12
12
12
12
12
12
12
12
12
12
12
12
12
12
12
12
12
12
12
12
12
12
12
12
12
12
12
12
12
12
12
12
12
12
12
12
12
12
12
12
12
12
12
12
12
12
12
12
12
12
12
12
12
12
12
12
12
12
12
12
12
12
12
12
12
12
12
12
12
12
12
12
12
12
12
12
12
12
12
12
12
12
12
12
12
12
12
12
12
12
12
12
12
12
12
12
12
12
12
12
12
12
12
12
12
12
12
12
12
12
12
12
12
12
12
12
12
12
12
12
12
12
12
12
12
12
12
12
12
12
12
12
12
12
12
12
12
12
12
12
12
12
12
12
12
12
12
12
12
12
12
12
12
12
12
12
12
12
12
12
12
12
12
12
12
12
12
12
12
12
12
12
12
12
12
12
12
12
12
12
12
12
12
12
12
12
12
12
12
12

POINT_DATA 3012
SCALARS Jp_lamdaP float 4
LOOKUP_TABLE default
0.999456 1 1 0.999456
1 1 1 1
0.999472 1 1 0.999472
0.999397 1 1 0.999397
0.999458 1 1 0.999458
0.999425 1 1 0.999425
1.01075 1.01241 1 0.998361
1 1 1 1
1 1 1 1
1 1 1 1
0.999505 1 1 0.999505
1.0067 1.00835 1 0.998365
0.999441 1 1 0.999441
0.999424 1 1 0.999424
0.999479 1 1 0.999479
0.999435 1 1 0.999435
0.999436 1 1 0.999436
0.999484 1 1 0.999484
1.01071 1.01237 1 0.998358
1 1 1 1
0.999386 1 1 0.999386
0.999431 1 1 0.999431
1.00456 1.00631 1 0.998266
1.00957 1.01124 1 0.998352
0.999412 1 1 0.999412
1.01042 1.01209 1 0.998346
1.03785 1.04125 1 0.996741
1 1 1 1
0.999728 1 1 0.999728
0.99974 1 1 0.99974
1 1 1 1
1.00501 1.00664 1 0.998374
0.999446 1 1 0.999446
0.999476 1 1 0.999476
1.01107 1.01251 1 0.998571
1 1 1 1
1.01055 1.01193 1 0.998633
1.00142 1.003 1 0.998434
1.02515 1.0286 1 0.996649
1 1 1 1
1 1 1 1
0.999715 1 1 0.999715
1 1 1 1
0.999445 1 1 0.999445
0.999676 1.00149 1 0.99819
1 1 1 1
1.00347 1.00499 1 0.998484
0.999467 1 1 0.999467
0.999504 1 1 0.999504
0.999439 1 1 0.999439
1.01071 1.01237 1 0.998361
0.9997 1 1 0.9997
0.999419 1 1 0.999419
0.999426 1 1 0.999426
0.999466 1 1 0.999466
1.00431 1.00606 1 0.998257
1.01044 1.01212 1 0.998346
1.00938 1.01105 1 0.998349
1.03825 1.04165 1 0.996732
1 1 1 1
0.999404 1 1 0.999404
0.999748 1.00118 1 0.99857
1.00255 1.00431 1 0.998251
1.00741 1.00912 1 0.998311
1.03816 1.04173 1 0.996574
1.03882 1.04231 1 0.996652
0.999446 1 1 0.999446
1.00358 1.00519 1 0.998401
1.03648 1.03983 1 0.996781
1.05816 1.06252 1 0.995892
1 1 1 1
1 1 1 1
1 1 1 1
1.00369 1.00531 1 0.998383
1 1 1 1
1 1 1 1
1.01102 1.01276 1 0.998286
0.999805 1 1 0.999805
1.00942 1.01107 1 0.998368
1.00085 1.00213 1.00009 0.998634
1.02708 1.03054 1 0.996645
1 1 1 1
1.00285 1 1.00342 0.999437
1.00891 1.01073 1 0.998198
1.0113 1.01301 1 0.998311
1.0449 1.04877 1 0.996308
0.999947 1.00021 1.00073 0.999004
1.03475 1.03831 1 0.996572
1.01941 1.0226 1.00007 0.996816
1.04651 1.05084 1 0.995886
1 1 1 1
1 1 1 1
1 1 1 1
1 1 1 1
1 1 1 1
0.999723 1 1 0.999723
1.00022 1.00186 1 0.998368
0.999712 1 1 0.999712
1.00431 1.00598 1 0.998339
1 1 1 1
0.999023 1.00079 1 0.998234
1.00132 1.00282 1 0.998499
1.03422 1.03808 1 0.996279
1.0066 1.00809 1 0.998514
1.04105 1.04495 1 0.996264
0.999467 1 1 0.999467
0.99945 1 1 0.99945
0.999434 1 1 0.999434
0.999495 1 1 0.999495
1.00406 1.00582 1 0.998251
1.0092 1.01087 1 0.998349
1.01031 1.01198 1 0.998349
1.03881 1.04222 1 0.996723
1 1 1 1
0.999434 1 1 0.999434
0.999386 1.00111 1 0.998276
1.0022 1.00396 1 0.99824
0.999728 1 1 0.999728
1.00487 1.00637 1 0.998502
1.00717 1.00888 1 0.998306
1.03817 1.04176 1 0.996558
1.03578 1.03913 1 0.996771
1.03954 1.04302 1 0.996666
1.05785 1.06221 1 0.995902
0.999048 1.00079 1 0.998258
1.00093 1.00266 1 0.998271
1.03075 1.03426 1 0.996603
1.0347 1.03827 1 0.996556
1.04023 1.04379 1 0.996593
1.07244 1.07673 0.999983 0.996037
1 1 1 1
1.0624 1.06673 1 0.995943
0.999893 1.0009 1.00048 0.998517
1.02651 1.02994 1 0.996673
1.05453 1.05894 1 0.995838
1.06183 1.06612 1 0.995973
1.00221 1 1.0032 0.999006
1.00701 1.0001 1.00928 0.99765
1 1 1 1
1 1 1 1
1.01118 1.01292 1 0.99829
1 1 1 1
1.00009 1.00113 1.00043 0.998531
1.00857 1.01021 1 0.998375
1.02815 1.03161 1 0.99664
1 1 1 1
1.00309 1 1.00363 0.999462
1.00973 1.01137 1 0.99837
1.0113 1.01285 1 0.998468
1.04391 1.04778 1 0.996306
1.0003 1.00016 1.00129 0.998856
1.03482 1.03838 1 0.996573
1.01759 1.02073 1.00011 0.996812
1.04678 1.0511 1 0.995892
1.00179 1 1.00264 0.999151
1.0034 1 1.00375 0.999652
1.00772 1.00119 1.0085 0.998048
1.04584 1.04978 1 0.996242
1.04169 1.04542 1 0.996437
1.06655 1.071 1 0.995844
1.01215 1.01378 1.00124 0.997161
1.05319 1.05745 1 0.995967
1.03438 1.03802 1.00057 0.995922
1.05349 1.05789 1 0.995839
1 1 1 1
1 1 1 1
1 1 1 1
1.00266 1 1.00345 0.999216
1 1 1 1
1 1 1 1
1 1 1 1
1.00494 1.00676 1 0.998199
1.0004 1.00217 1 0.99823
1 1 1 1
1 1 1 1
0.999181 1.00095 1 0.998234
1.00174 1.00339 1 0.998357
1.03425 1.03811 1 0.99628
1.00703 1.00885 1 0.998198
1.04 1.0439 1 0.996262
0.998791 1.00055 1 0.998239
1.03178 1.03565 1 0.996262
1.03728 1.04115 1 0.996287
1.07409 1.07931 0.998997 0.996158
1.04385 1.04779 1 0.996236
1.07604 1.08106 0.99926 0.996089
1 1 1 1
0.999466 1 1 0.999466
0.998953 1.00101 1 0.997947
1.00187 1.00364 1 0.99823
1 1 1 1
1.00644 1.00784 1 0.998606
1.00693 1.00864 1 0.998303
1.03813 1.04173 1 0.996542
1.0404 1.04386 1 0.99668
1.03488 1.03824 1 0.996761
1.05726 1.0616 1 0.995912
0.998924 1.00067 1 0.998256
1.00066 1.0024 1 0.99826
1.03119 1.03486 1 0.996455
1.03518 1.03876 1 0.996556
1 1 1 1
1.00124 1.00237 1.00023 0.998632
1.02655 1.02986 1 0.996781
1.04065 1.04421 1 0.996585
1.07228 1.07684 0.999699 0.996058
1.05464 1.05905 1 0.995838
1.06239 1.06669 1 0.995972
1.06137 1.06565 1 0.995982
1.00188 1 1.00289 0.998993
1.00662 1.00063 1.00835 0.997648
1.03023 1.03407 1 0.996283
1.03178 1.03531 1 0.996589
1.07253 1.07751 0.999224 0.996152
1.07162 1.07741 0.998522 0.996105
1.06727 1.07196 0.999556 0.996061
1.07007 1.07809 0.99624 0.996316
1.00055 1 1.00179 0.998761
1.06397 1.06851 0.999592 0.996159
1.01618 1.01925 1.00011 0.996881
1.04948 1.05388 1 0.995818
1.06068 1.06517 1 0.99578
1.06015 1.06449 0.999611 0.99631
1.00498 1.00224 1.00543 0.997319
1.00752 1.00003 1.00948 0.998031
1.00672 1.00389 1.00596 0.996884
1.01021 1.01199 1 0.998235
1 1 1 1
1.00284 1 1.00335 0.999487
1.01096 1.01263 1 0.998348
1.0431 1.04697 1 0.996304
1.00041 1 1.00156 0.998851
1.01727 1.02049 1.00004 0.996809
1.03474 1.0383 1 0.996573
1.04821 1.05253 1 0.995899
1.002 1 1.00283 0.999175
1.00261 1 1.00295 0.99967
1.00726 1.00039 1.00884 0.998047
1.04481 1.04875 1 0.996238
1.04076 1.04448 1 0.996438
1.06684 1.0713 1 0.995837
1.00936 1.01131 1.00091 0.997165
1.05387 1.05815 1 0.995963
1.03921 1.04299 1.00047 0.995911
1.05484 1.05923 1 0.995855
1.00179 1 1.00201 0.999784
1.00733 1.00505 1.00471 0.997569
1.00883 1 1.01034 0.998506
1.00981 1.00583 1.0066 0.997382
1.07147 1.0759 1 0.995888
1.0605 1.06487 1 0.995888
1.06748 1.0721 0.99973 0.99596
1.02303 1.0262 1.00064 0.99627
1.05476 1.05895 1 0.996043
1.05 1.05288 1.00158 0.99569
1.06635 1.07077 1 0.995873
1.00045 1 1.00107 0.999382
0.999913 1 1 0.999913
1 1 1 1
1 1 1 1
1 1 1 1
1.0032 1 1.00378 0.999422
1 1 1 1
1.00282 1 1.00363 0.999196
1 1 1 1
1.00793 1.00975 1 0.998198
1.00228 1.00407 1 0.998217
1.03941 1.04331 1 0.99626
1.03439 1.03825 1 0.996281
0.999385 1.00115 1 0.998236
1 1 1 1
0.998855 1.00062 1 0.998239
1.032 1.03587 1 0.996263
1.03708 1.04095 1 0.996286
1.07381 1.07898 0.999051 0.996157
1.04326 1.04721 1 0.996231
1.07624 1.08116 0.999367 0.996086
1.03037 1.03423 1 0.996265
1.07308 1.07816 0.999143 0.996139
1.0752 1.08042 0.999014 0.996146
1.06959 1.0797 0.994089 0.996528
1.07572 1.08038 0.999688 0.99599
1.0715 1.08224 0.993645 0.996403
0.998885 1.00063 1 0.998254
1.00038 1.00214 1 0.998248
1.03168 1.03551 1 0.996308
1.03567 1.03925 1 0.996556
1 1 1 1
1.00235 1.00356 1.00004 0.998751
1.02648 1.02968 1 0.996887
1.04105 1.04463 1 0.996576
1.07214 1.07703 0.999386 0.996079
1.06221 1.06647 1 0.996001
1.05532 1.05973 1 0.995838
1.06113 1.0654 1 0.995991
1.00171 1 1.00273 0.99898
1.00713 1.00145 1.00805 0.997647
1.03034 1.03418 1 0.996287
1.0324 1.03594 1 0.996583
1.07185 1.07719 0.998859 0.996181
1.07277 1.07802 0.999047 0.996081
1.0003 1.00015 1.00139 0.99875
1.01702 1.02001 1.00019 0.996881
1.05 1.05439 1 0.995836
1.06731 1.07181 0.999764 0.996032
1.06915 1.07782 0.995564 0.996371
1.05999 1.06448 1 0.995782
1.06414 1.06875 0.999529 0.996162
1.06031 1.06469 0.999592 0.996298
1.00631 1.00375 1.00525 0.997317
1.00787 1.00446 1.00653 0.996881
1.00877 1.00014 1.01062 0.998033
1.07213 1.07707 0.999276 0.996137
1.07269 1.07839 0.998528 0.996175
1.07007 1.07904 0.995214 0.996452
1.07015 1.08081 0.993713 0.996399
1.06497 1.0718 0.997314 0.996311
1.06039 1.07472 0.989955 0.996678
1.00582 1.00789 1.00084 0.997108
1.05933 1.068 0.99537 0.996495
1.03777 1.0419 1 0.996028
1.05301 1.05774 1 0.995525
1.05622 1.06059 1 0.995875
1.05224 1.0592 0.996835 0.996586
1.01087 1 1.01255 0.998336
1.0086 1.01036 1.00163 0.996638
1.0094 1.00105 1.0112 0.997176
1.01017 1.00967 1.00401 0.996507
1.04384 1.04779 1 0.996233
1.00211 1 1.00242 0.999688
1.00243 1 1.00323 0.9992
1.00852 1.00011 1.01038 0.998046
1.03997 1.04368 1 0.996439
1.06701 1.07148 1 0.995831
1.00499 1.00719 1.00065 0.997169
1.04077 1.04471 1.00033 0.995899
1.05468 1.05896 1 0.995958
1.05437 1.05874 1 0.995871
1.00111 1 1.00131 0.999798
1.00626 1.00328 1.00541 0.997577
1.00948 1.00009 1.0109 0.99851
1.00893 1.00446 1.00709 0.99738
1.07124 1.07567 1 0.995881
1.06084 1.06523 1 0.995885
1.06691 1.0715 0.999766 0.995958
1.02068 1.02388 1.00061 0.996274
1.05422 1.05843 1 0.996021
1.04665 1.04938 1.00173 0.995676
1.0657 1.07001 1 0.995971
0.999864 1 1 0.999864
1.00641 1 1.00757 0.998853
1.01145 1.01242 1.00219 0.996862
1.01383 1.00294 1.01313 0.997756
1.00834 1.00827 1.00294 0.997147
1.07004 1.07624 0.998143 0.996087
1.061 1.0653 1 0.995959
1.06053 1.06704 0.997732 0.996152
1.02315 1.02534 1.00199 0.995885
1.05663 1.06076 1 0.996112
1.03938 1.04311 1.00086 0.995567
1.00056 1 1.00129 0.99927
1.00255 1 1.00388 0.998677
0.999477 1 1 0.999477
0.999776 1 1.00039 0.999384
0.999945 1 1 0.999945
0.99992 1 1 0.99992
1 1 1 1
1 1 1 1
1 1 1 1
1.00202 1 1.00237 0.999649
1 1 1 1
1.00321 1 1.00381 0.999404
1 1 1 1
1.00244 1 1.00326 0.999177
1 1 1 1
1.04242 1.04637 1 0.996226
1.0366 1.04047 1 0.996285
1.07608 1.08088 0.999478 0.996083
1.07342 1.07853 0.999106 0.996156
1.03219 1.03606 1 0.996264
0.998856 1.00062 1 0.998237
1.03053 1.0344 1 0.996265
1.07266 1.07771 0.999172 0.99614
1.0751 1.08025 0.999082 0.996144
1.06914 1.07988 0.993489 0.996544
1.0748 1.0794 0.999752 0.995986
1.07171 1.08239 0.993706 0.996403
1.07216 1.0772 0.999195 0.996128
1.06869 1.07921 0.993683 0.996552
1.0708 1.08135 0.99373 0.99649
1.06507 1.07849 0.990773 0.996753
1.0697 1.07905 0.995058 0.996262
1.06489 1.08222 0.98721 0.996737
1.03036 1.03419 1 0.996291
1.03304 1.03659 1 0.996576
1.0712 1.07688 0.998503 0.996211
1.07386 1.07858 0.999557 0.996057
1.0001 1.00038 1.00098 0.998739
1.01868 1.0217 1.00016 0.996883
1.05146 1.05584 1 0.995855
1.06734 1.07163 1 0.996003
1.06824 1.07754 0.99493 0.996426
1.06434 1.06901 0.999467 0.996166
1.05897 1.06345 1 0.995784
1.06037 1.06477 0.999581 0.996285
1.00788 1.00563 1.00494 0.997315
1.00729 1.00405 1.00637 0.996878
1.00903 1.00017 1.01085 0.998034
1.07178 1.07673 0.99926 0.996138
1.07208 1.07806 0.998269 0.996174
1.06959 1.07926 0.994517 0.996499
1.07017 1.08025 0.994272 0.996372
1.00963 1.01144 1.00111 0.997108
1.03703 1.04116 1 0.996029
1.05247 1.05714 1.00003 0.995547
1.06568 1.07198 0.99786 0.996261
1.05986 1.07498 0.98917 0.996725
1.05706 1.06148 1 0.995835
1.05963 1.06826 0.995416 0.996495
1.05324 1.05998 0.997009 0.996625
1.00936 1.01088 1.00187 0.996638
1.00852 1.00812 1.00395 0.996456
1.0092 1 1.01088 0.998336
1.00859 1.00069 1.0107 0.99722
1.06941 1.07886 0.994714 0.996503
1.07197 1.082 0.994284 0.996426
1.05997 1.07403 0.990203 0.99667
1.05834 1.07662 0.986228 0.996756
1.05876 1.07198 0.990982 0.996649
1.06013 1.07837 0.986154 0.996894
1.01955 1.02323 1.00008 0.996328
1.0509 1.06518 0.989693 0.996861
1.03813 1.04267 1 0.995651
1.04863 1.0533 1.00018 0.995395
1.05472 1.05906 1 0.995901
1.05681 1.06401 0.99657 0.996652
1.00597 1 1.00735 0.998623
1.01288 1.00125 1.01423 0.997427
1.01385 1.01747 1.0002 0.996245
1.00878 1.00506 1.00686 0.996865
1.01119 1.0079 1.007 0.996285
1.00046 1 1.00065 0.999812
1.07098 1.07541 1 0.995875
1.00919 1.00021 1.01048 0.998514
1.00516 1.00162 1.00596 0.997585
1.00761 1.00301 1.00723 0.997377
1.06115 1.06554 1 0.995881
1.06636 1.0709 0.999803 0.995955
1.02193 1.02523 1.00051 0.996277
1.04634 1.04887 1.00193 0.995662
1.05384 1.05808 1 0.996
1.06588 1.07009 1 0.996069
0.999873 1 1 0.999873
1.00654 1 1.00768 0.998863
1.00914 1.01077 1.00152 0.996871
1.01442 1.00268 1.01399 0.997748
1.00829 1.00797 1.00325 0.997077
1.07013 1.07624 0.998225 0.996083
1.06058 1.06488 1 0.995958
1.06004 1.06666 0.997651 0.996141
1.02416 1.0262 1.00214 0.995882
1.06027 1.06443 1 0.99609
1.03954 1.04312 1.00096 0.995608
1.00198 1 1.00287 0.999108
1.01164 1.00069 1.01284 0.998131
1.00479 1.00784 1.00051 0.996461
1.01683 1.00799 1.0114 0.997395
1.01324 1.0143 1.00203 0.996927
1.06466 1.07619 0.992928 0.996327
1.0563 1.06046 0.999976 0.9961
1.05391 1.06272 0.995319 0.996373
1.00593 1.00637 1.00379 0.995783
1.03612 1.04068 1 0.99562
1.00072 1 1.00145 0.999273
1.00092 1 1.00235 0.998571
1.00287 1 1.00422 0.998654
1.00232 1 1.00391 0.998419
1.00119 1 1.00243 0.998762
0.999535 1 1 0.999535
0.999623 1 1.00014 0.999481
0.999971 1 1 0.999971
0.999854 1 1.00047 0.999386
0.999953 1 1 0.999953
1 1 1 1
0.999927 1 1 0.999927
1 1 1 1
1 1 1 1
1.00034 1 1.00049 0.999849
1.00298 1 1.00335 0.99963
1 1 1 1
1 1 1 1
1.00378 1 1.0044 0.999387
1 1 1 1
1.07408 1.07861 0.999815 0.995981
1.07529 1.08038 0.999146 0.996142
1.07202 1.08264 0.993762 0.996402
1.0688 1.08017 0.992882 0.996561
1.07223 1.07725 0.999202 0.99614
1.03075 1.03462 1 0.996265
1.07186 1.07687 0.999209 0.996128
1.06882 1.07911 0.993894 0.996547
1.07106 1.08167 0.993681 0.99649
1.06426 1.07836 0.990118 0.996782
1.07067 1.08002 0.995065 0.996257
1.06506 1.08234 0.987232 0.99676
1.06907 1.07916 0.994108 0.996522
1.06292 1.0777 0.989516 0.996735
1.06584 1.08051 0.989582 0.996814
1.06599 1.08464 0.985866 0.9969
1.06439 1.0806 0.98839 0.996568
1.06808 1.0882 0.984507 0.996957
1.07143 1.07639 0.999243 0.996138
1.07147 1.07771 0.998029 0.996172
1.06903 1.07944 0.993787 0.996546
1.07019 1.07968 0.994844 0.996345
1.01209 1.01354 1.00146 0.997108
1.03384 1.03797 1 0.996029
1.05133 1.05582 1.00018 0.995569
1.0664 1.0722 0.998366 0.99621
1.05937 1.07523 0.988436 0.996772
1.06006 1.06864 0.995457 0.996495
1.0579 1.06237 1 0.995796
1.0541 1.06064 0.997164 0.996664
1.01153 1.01215 1.00276 0.996638
1.00825 1.00805 1.00381 0.996405
1.0085 1 1.01018 0.998337
1.00797 1.00045 1.01028 0.997264
1.06958 1.07905 0.994703 0.996502
1.07157 1.08159 0.994309 0.996409
1.05983 1.07406 0.990018 0.9967
1.0594 1.07674 0.987112 0.996739
1.02012 1.02318 1.0007 0.996323
1.03675 1.04121 1.00003 0.995682
1.04817 1.05262 1.00039 0.995382
1.05968 1.07216 0.99174 0.996599
1.05838 1.07729 0.985451 0.996949
1.05272 1.05706 1 0.995887
1.05204 1.06641 0.989635 0.996861
1.05626 1.06349 0.99647 0.996723
1.01258 1.01583 1.00055 0.99625
1.00885 1.00796 1.00463 0.996268
1.00804 1.00361 1.00758 0.996863
1.00651 1 1.00792 0.998599
1.01253 1.00055 1.01455 0.997466
1.06168 1.07659 0.989393 0.996716
1.06194 1.07882 0.987582 0.996729
1.05808 1.08242 0.980522 0.996933
1.05321 1.07343 0.98416 0.996951
1.02124 1.02536 1 0.995979
1.05523 1.07067 0.988513 0.997031
1.02326 1.02766 1.00029 0.99543
1.04048 1.04493 1.00051 0.995241
1.05112 1.05581 0.999653 0.995906
1.00189 1 1.00293 0.998968
1.01185 1 1.01401 0.997864
1.00775 1.00012 1.01053 0.99714
1.00982 1.01247 1.00127 0.996118
1.00951 1.00517 1.00794 0.996409
1.00996 1.00772 1.00613 0.996116
0.999882 1 1 0.999882
1.00656 1 1.00769 0.998874
1.07018 1.07621 0.998309 0.996078
1.01558 1.00224 1.01561 0.997741
1.00559 1.00773 1.001 0.996881
1.00855 1.00799 1.00357 0.997007
1.06001 1.06431 1 0.995957
1.05975 1.06645 0.997574 0.99613
1.02347 1.02536 1.00229 0.995879
1.03857 1.0423 1.00077 0.995649
1.06419 1.06839 1 0.996068
1.00139 1 1.00228 0.999114
1.0122 1.00029 1.0138 0.998135
1.00788 1.01098 1.00052 0.996418
1.01708 1.00711 1.01254 0.997394
1.01359 1.01488 1.00182 0.996908
1.06329 1.07481 0.99294 0.996323
1.05855 1.06275 0.999964 0.996086
1.05638 1.06489 0.995603 0.996395
1.00832 1.00934 1.00324 0.995757
1.0341 1.03863 1.00006 0.995586
1.00465 1 1.00622 0.998447
1.01461 1.00062 1.01631 0.997705
1.00496 1.00659 1.00211 0.996284
1.02101 1.01515 1.00873 0.997063
1.02762 1.0299 1.00107 0.996718
1.05436 1.07447 0.984421 0.996817
1.05985 1.06453 0.999651 0.995946
1.06129 1.06926 0.996203 0.996333
1.01053 1.01049 1.00433 0.995726
1.01645 1.02117 1 0.995373
1.00012 1 1.00085 0.999275
1.00063 1 1.00205 0.998582
0.999041 1 1.00064 0.998404
1.00129 1 1.00267 0.99863
1.00051 1 1.00175 0.998759
1.00345 1 1.00506 0.998404
1.00037 1 1.00194 0.99843
1.00388 1 1.00554 0.998346
0.999322 1 1.0005 0.998826
0.999532 1 1 0.999532
0.999535 1 1 0.999535
0.999987 1 1 0.999987
0.999484 1 1 0.999484
0.999976 1 1 0.999976
1 1 1 1
0.999961 1 1 0.999961
1 1 1 1
1 1 1 1
0.999953 1 1 0.999953
1.0007 1 1.00088 0.999823
1 1 1 1
1.00336 1 1.00375 0.999611
1 1 1 1
1 1 1 1
1.07162 1.08098 0.995071 0.996253
1.07113 1.08178 0.993637 0.996491
1.06522 1.08246 0.987248 0.996782
1.06342 1.07818 0.989466 0.99681
1.06898 1.07903 0.994124 0.996542
1.07156 1.07656 0.999222 0.996129
1.06933 1.07918 0.994353 0.996504
1.06344 1.07769 0.99002 0.996728
1.06519 1.0798 0.98964 0.996799
1.06427 1.08378 0.985045 0.996909
1.06435 1.0804 0.988539 0.99657
1.06522 1.08631 0.983544 0.996993
1.0641 1.07795 0.990406 0.996708
1.06577 1.08594 0.984478 0.996902
1.06674 1.08774 0.983666 0.996986
1.0598 1.08547 0.979285 0.997003
1.06979 1.07927 0.994692 0.996501
1.07122 1.08123 0.99433 0.996392
1.05979 1.07416 0.989861 0.99673
1.06047 1.07694 0.987944 0.996722
1.02193 1.02495 1.00074 0.996317
1.03582 1.04027 1 0.995713
1.04771 1.05197 1.00058 0.99537
1.06043 1.07218 0.992461 0.996549
1.05657 1.07623 0.984685 0.997004
1.05299 1.06739 0.989618 0.996861
1.05118 1.05554 1 0.995872
1.05699 1.0638 0.996789 0.996793
1.00724 1.00999 1.00103 0.996255
1.00756 1.00802 1.0033 0.996252
1.00939 1.00315 1.0094 0.99686
1.00632 1 1.00776 0.998576
1.01208 1.00011 1.01449 0.997506
1.06158 1.07646 0.98942 0.996717
1.06263 1.07948 0.98762 0.996726
1.05867 1.08177 0.98166 0.996926
1.02101 1.02513 1 0.995978
1.02319 1.02759 1.00026 0.995464
1.03931 1.0435 1.00076 0.99523
1.05347 1.07328 0.984551 0.996938
1.05405 1.059 0.999284 0.996033
1.05172 1.06737 0.988302 0.996998
1.00225 1 1.00323 0.999025
1.00858 1.00976 1.00273 0.996115
1.00969 1.00557 1.00791 0.996219
1.01353 1.00734 1.00978 0.996401
1.01081 1.00259 1.01107 0.997162
1.01239 1 1.01459 0.997832
1.06452 1.084 0.985203 0.996787
1.06266 1.08907 0.978804 0.996878
1.05177 1.08065 0.976203 0.997006
1.04626 1.07448 0.976522 0.997143
1.01213 1.0161 1.00027 0.995821
1.04812 1.05754 0.994478 0.996587
1.01126 1.01458 1.00165 0.995083
1.02774 1.03173 1.00104 0.995105
0.999746 1 1.00034 0.999403
1.00715 1 1.00883 0.99833
1.01072 1.00085 1.01239 0.997502
1.0123 1.0034 1.0123 0.996621
1.00703 1.00532 1.00567 0.99606
1.01581 1.00613 1.01374 0.995928
1.00115 1 1.00203 0.999119
1.01237 1 1.01426 0.998139
1.062 1.07349 0.99295 0.996318
1.01681 1.00595 1.01344 0.997393
1.01099 1.01434 1.00033 0.996374
1.01283 1.01444 1.00153 0.996889
1.06087 1.0651 0.999951 0.996072
1.05856 1.06682 0.995822 0.996416
1.01124 1.01281 1.00273 0.995729
1.03192 1.03626 1.00027 0.995552
1.00475 1 1.00631 0.998452
1.01479 1.00031 1.01684 0.997675
1.00537 1.00708 1.00202 0.996287
1.02045 1.01539 1.00793 0.997067
1.03068 1.03353 1.00048 0.996765
1.05685 1.0768 0.98456 0.996864
1.05962 1.06425 0.999655 0.995989
1.06244 1.0698 0.996688 0.996416
1.01192 1.01166 1.00458 0.995691
1.01596 1.02074 1.00003 0.995281
1.00445 1 1.00629 0.998169
1.01357 1.00193 1.01432 0.997337
1.01737 1.01733 1.00378 0.996269
1.02569 1.02683 1.00229 0.996614
1.05594 1.09749 0.964928 0.997104
1.05617 1.07147 0.988823 0.996863
1.0432 1.04803 0.999865 0.995525
1.0201 1.02055 1.00426 0.995318
1.00086 1 1.00227 0.998593
0.999568 1 1.00117 0.998402
0.999399 1 1.00087 0.998533
1.00114 1 1.00239 0.998757
1.00533 1 1.00695 0.99839
0.999394 1 1.00057 0.998822
1.0001 1 1.00164 0.998458
1.005 1 1.00665 0.998355
0.998868 1 1.00022 0.998645
1.00436 1 1.00613 0.99824
1.00243 1 1.00413 0.99831
0.998846 1 1.00005 0.998797
0.999488 1 1 0.999488
0.99953 1 1 0.99953
0.999994 1 1 0.999994
0.999536 1 1 0.999536
0.999989 1 1 0.999989
1 1 1 1
0.999981 1 1 0.999981
1 1 1 1
1 1 1 1
0.999987 1 1 0.999987
0.999934 1 1 0.999934
1 1 1 1
1.00144 1 1.00164 0.999797
1 1 1 1
1 1 1 1
1.06423 1.08011 0.988683 0.996573
1.06463 1.07918 0.989701 0.996785
1.06244 1.08446 0.982607 0.997029
1.06258 1.08298 0.984196 0.996919
1.06397 1.07769 0.990508 0.996721
1.06957 1.07919 0.994584 0.996486
1.06374 1.07775 0.990253 0.996708
1.06544 1.08548 0.984599 0.996892
1.06533 1.08683 0.983186 0.996982
1.06012 1.08564 0.979417 0.997014
1.06682 1.08593 0.985516 0.996848
1.06536 1.09221 0.978303 0.997048
1.06762 1.09709 0.975983 0.997082
1.06142 1.07629 0.989429 0.996719
1.06323 1.08005 0.987667 0.996722
1.05935 1.08111 0.982893 0.996919
1.0233 1.02743 1 0.995977
1.02258 1.02702 1.00018 0.995497
1.03801 1.04212 1.00085 0.995218
1.05381 1.07328 0.984892 0.996925
1.04748 1.064 0.98747 0.996964
1.05609 1.06154 0.998704 0.996159
1.00817 1.00815 1.00392 0.99611
1.0048 1.00231 1.00618 0.996324
1.01478 1.00886 1.00951 0.996395
1.00236 1 1.00328 0.999083
1.01149 1.00404 1.01026 0.997184
1.0133 1 1.01553 0.997799
1.06529 1.08444 0.985503 0.996796
1.06177 1.08896 0.978082 0.996882
1.0522 1.08058 0.97667 0.996998
1.01071 1.01487 1.00009 0.995813
1.01073 1.01423 1.0014 0.995159
1.02847 1.03248 1.0009 0.995212
1.04702 1.07447 0.977237 0.997145
1.04326 1.05374 0.993469 0.996563
0.999751 1 1.00027 0.999483
1.00684 1 1.00853 0.998326
1.00373 1.0039 1.00375 0.996093
1.01803 1.00542 1.01649 0.996113
1.01251 1.0047 1.01115 0.996668
1.01015 1.00063 1.0121 0.997454
1.0639 1.09147 0.977708 0.996966
1.05264 1.09337 0.965682 0.996962
1.0477 1.0808 0.972106 0.997187
1.0341 1.05852 0.979732 0.997134
1.00214 1.0052 1.00133 0.995633
1.02831 1.03213 1.00067 0.995636
1.0107 1.01318 1.00264 0.994929
0.999712 1 1 0.999712
0.999116 1 1 0.999116
1.00157 1 1.00281 0.998761
1.0061 1 1.00834 0.997774
1.01012 1 1.01308 0.997083
1.02335 1.00512 1.0219 0.996326
1.00381 1.00192 1.00556 0.996341
1.04261 1.00317 1.04288 0.996578
1.00472 1 1.00628 0.998457
1.01541 1.00001 1.0178 0.997645
1.05962 1.0793 0.984815 0.99691
1.02135 1.01737 1.00686 0.997071
1.00574 1.00721 1.00226 0.996291
1.03313 1.0364 1.00004 0.996812
1.05941 1.06399 0.999659 0.996032
1.06368 1.07041 0.997203 0.996498
1.01277 1.01232 1.00482 0.995656
1.01522 1.02013 1 0.99519
1.0052 1 1.0071 0.998116
1.01227 1.00098 1.01399 0.997318
1.02198 1.02156 1.00415 0.996279
1.02454 1.02615 1.00178 0.996653
1.05736 1.09997 0.96404 0.997123
1.06005 1.07444 0.989763 0.996808
1.04033 1.0452 0.99975 0.995585
1.02183 1.02283 1.00377 0.995269
1.00485 1 1.00684 0.998022
1.06756 1.10786 0.966387 0.997134
1.00794 1.00204 1.00898 0.996935
1.02226 1.02357 1.00268 0.996052
1.03786 1.08163 0.962178 0.997256
1.03499 1.04128 0.998287 0.995667
1.01475 1.01652 1.00323 0.995036
1.00066 1 1.00226 0.998399
0.998463 0.999242 1.0007 0.998525
0.999129 0.99858 1.00183 0.998723
0.999143 1 1.00033 0.998817
1.00522 1 1.00687 0.998364
1.00003 0.999899 1.00165 0.998486
0.998794 1 1 0.998793
1.00263 1 1.00432 0.998319
0.999011 0.99995 1.00038 0.998684
1.00343 1 1.00519 0.998247
0.998815 1 1 0.998815
1.00012 1 1.00164 0.998484
1.00542 1 1.00735 0.998086
0.999065 1 1.00088 0.998189
0.998696 1 1 0.998696
0.999439 1 1 0.999439
0.999483 1 1 0.999483
0.999996 1 1 0.999996
0.999527 1 1 0.999527
0.999995 1 1 0.999995
1 1 1 1
0.999992 1 1 0.999992
1 1 1 1
1 1 1 1
0.999758 1 1 0.999758
0.999997 1 1 0.999997
0.99998 1 1 0.99998
1 1 1 1
0.999915 1 1 0.999915
1 1 1 1
1 1 1 1
1.06043 1.08577 0.979576 0.997026
1.06394 1.08594 0.982716 0.996978
1.06515 1.08503 0.984752 0.996882
1.06339 1.07754 0.990132 0.996709
1.06671 1.08618 0.985162 0.996867
1.0653 1.09188 0.978558 0.997039
1.06429 1.09386 0.975812 0.997087
1.06509 1.09263 0.977693 0.997032
1.078 1.1099 0.974053 0.99713
1.08777 1.12192 0.972097 0.997391
1.0662 1.08498 0.985834 0.996805
1.06083 1.08886 0.977308 0.996885
1.05276 1.08046 0.977297 0.99699
1.00947 1.01367 1.00006 0.995806
1.01163 1.01519 1.00126 0.995239
1.03096 1.03501 1.00078 0.995318
1.0479 1.07418 0.978332 0.997146
1.03852 1.04955 0.992928 0.996539
1.00487 1.00371 1.00505 0.996127
1.02277 1.00574 1.02072 0.996294
1.01472 1.00559 1.01241 0.996715
0.999728 1 1.00017 0.999563
1.00674 1 1.00843 0.998322
1.00982 1.00034 1.01211 0.997407
1.06341 1.09166 0.977079 0.996975
0.999706 1 1 0.999706
0.99907 1 1 0.99907
1.05427 1.09252 0.967925 0.996965
1.04588 1.0791 0.971984 0.997157
1.00326 1.00565 1.00192 0.995714
1.01047 1.01224 1.00332 0.994948
1.02691 1.03192 0.99953 0.995621
1.03323 1.05829 0.97915 0.997104
1.00184 1 1.00299 0.998854
1.00641 1 1.00867 0.997761
1.00416 1.00201 1.00595 0.996222
1.03651 1.00382 1.03603 0.996657
1.0208 1.00331 1.02117 0.99634
1.00994 1.00021 1.01266 0.997101
1.07425 1.11149 0.969332 0.997073
1.03589 1.09167 0.951683 0.997086
1.0319 1.06924 0.967663 0.997333
1.01796 1.03667 0.98509 0.996815
1.00523 1.0028 1.00649 0.995971
1.01131 1.01074 1.0055 0.995088
0.999013 1 1 0.999013
0.999478 1 1.00038 0.999093
0.998942 1.00021 1 0.998736
1.00159 1 1.00353 0.998062
1.01095 1 1.01352 0.997465
1.00921 1.00036 1.01212 0.996764
1.06499 1.00066 1.06807 0.996468
0.99324 1.00049 0.995418 0.99732
1.00565 1 1.0076 0.998063
1.01046 1 1.0132 0.997299
1.05807 1.10141 0.963407 0.997142
1.06344 1.07698 0.990647 0.996753
1.02414 1.02585 1.00164 0.996692
1.02778 1.02708 1.00441 0.996289
1.03781 1.04266 0.999703 0.995644
1.0244 1.02588 1.00335 0.995219
1.00477 0.999832 1.00696 0.998001
1.06998 1.11165 0.965209 0.997207
1.00858 1.00121 1.01039 0.997
1.01911 1.02048 1.00269 0.995985
1.03875 1.08158 0.963063 0.997232
1.03252 1.03912 0.997882 0.995765
1.01604 1.01756 1.00348 0.995049
1.01014 0.998658 1.01375 0.997776
1.00773 1.06272 0.950531 0.99761
1.00514 1.00141 1.00705 0.996704
1.00657 1.00733 1.00379 0.995469
1.01644 1.03888 0.981588 0.996756
1.00324 1.00573 1.00221 0.995323
0.949982 1.00238 0.951209 0.996338
0.997285 0.997954 1.00081 0.998517
0.998926 0.99693 1.00328 0.998728
1.00172 0.999012 1.00405 0.998668
0.998832 1 1.00004 0.998789
1.00396 1 1.00564 0.998327
1.00216 1 1.00391 0.998255
0.999078 1 1.00035 0.998725
0.998721 1 1.00002 0.998696
0.999312 1 1.00112 0.998195
0.998781 1 1 0.998781
1.00547 1 1.0074 0.998086
0.999817 1 1.00137 0.998449
1.00005 1 1.00128 0.99877
1.0009 1 1.00298 0.997924
1.00535 1 1.00732 0.998047
0.998403 1 1.00034 0.99806
0.998519 1 1 0.998519
1.00078 1 1.00252 0.998263
0.998903 1 1.00042 0.998486
0.99942 1 1 0.99942
0.999436 1 1 0.999436
0.999999 1 1 0.999999
0.999479 1 1 0.999479
0.999997 1 1 0.999997
1 1 1 1
0.999995 1 1 0.999995
1 1 1 1
1 1 1 1
0.999809 1 1 0.999809
0.99976 1 1 0.99976
1 1 1 1
0.999995 1 1 0.999995
1 1 1 1
0.999972 1 1 0.999972
1 1 1 1
1 1 1 1
1.06109 1.09083 0.975575 0.997092
1.06527 1.09167 0.978716 0.99703
1.06647 1.08633 0.984781 0.996885
1.06488 1.09254 0.977588 0.99703
1.07458 1.10651 0.97394 0.997123
1.08742 1.12121 0.972485 0.997303
1.08331 1.1217 0.968494 0.997196
0.951513 1.01605 0.942019 0.994119
1.03483 1.07453 0.9649 0.998093
0.999211 1 1 0.999211
1.06298 1.09192 0.976434 0.996984
1.05574 1.0919 0.969828 0.996967
1.0437 1.07753 0.97139 0.997128
1.00033 1.00373 1.00082 0.995792
1.00917 1.01022 1.00402 0.994964
1.0248 1.03071 0.998645 0.995607
1.03253 1.05842 0.978402 0.997074
0.998701 1.002 1.0006 0.996109
1.02996 1.00424 1.02897 0.996745
1.01803 1.00182 1.01989 0.996354
0.9997 1 1 0.9997
1.01034 1.00027 1.01298 0.997119
1.00199 1 1.00304 0.998946
1.00669 1 1.00896 0.997749
0.999162 1 1.00014 0.999025
1.07196 1.112 0.966815 0.99708
0.999073 1 1 0.999073
0.999844 1 1.00075 0.999096
0.99881 1.00057 0.999539 0.998697
1.03986 1.09223 0.954835 0.997083
1.03034 1.06781 0.967539 0.997283
1.0016 1.00217 1.00344 0.996008
1.01585 1.01533 1.0053 0.995236
1.01696 1.03495 0.985774 0.996796
1.00111 1 1.00299 0.998128
1.01005 1 1.01267 0.997415
1.0044 1.00031 1.00698 0.997127
1.0545 1.00135 1.05681 0.996473
1.00886 1.00075 1.01132 0.996818
1.0471 1.10256 0.95239 0.997184
1.01053 1.07666 0.941166 0.99725
1.02268 1.0477 0.979098 0.996959
0.998115 1.01719 0.984623 0.996571
1.00087 1 1.00399 0.996887
0.998594 1 1 0.998594
0.999854 1.00038 1.00103 0.998446
1.00207 1 1.00358 0.998489
1.01282 1 1.01501 0.997845
1.01211 1 1.01473 0.99742
1.04559 0.999932 1.04882 0.996996
1.02793 1.00181 1.0288 0.997354
1.00493 1 1.00696 0.997977
1.00841 1.00007 1.01131 0.997066
1.0717 1.11563 0.963246 0.997278
1.04018 1.08238 0.963701 0.997208
1.03026 1.03729 0.997353 0.995862
1.01457 1.01601 1.00268 0.995919
1.01673 1.01811 1.0036 0.995064
1.0109 0.999521 1.01356 0.99786
1.01 1.06419 0.951303 0.997665
1.00207 1.00115 1.00423 0.99671
1.00494 1.00538 1.00411 0.995467
1.01384 1.03731 0.980424 0.996894
1.0041 1.00608 1.00273 0.995322
0.950292 1.00147 0.953571 0.995095
1.01045 0.99771 1.01506 0.997738
0.98729 1.0268 0.96383 0.997604
1.00092 1.00137 1.00312 0.996435
1.00426 1.00221 1.00615 0.995921
0.991889 1.00731 0.987989 0.996662
0.889135 0.972449 0.944571 0.967979
0.871467 0.957495 0.925667 0.98324
0.951724 0.977841 0.976505 0.996709
0.658688 0.801096 0.884622 0.929474
0.569332 0.739354 0.849751 0.906195
0.998922 0.995832 1.00438 0.998733
1.0025 0.997034 1.00677 0.998721
1.00404 0.999716 1.00563 0.998703
0.998695 1 1 0.998695
0.999214 1 1.00102 0.998201
1.00465 1 1.00657 0.998086
0.999721 1 1.00131 0.998413
0.998747 1 1 0.998747
1.00589 1 1.00787 0.998032
0.998559 1 1 0.998559
0.998411 1 1.00033 0.998078
0.99958 1 1.00088 0.998702
1.0015 1 1.00351 0.997996
1.00713 1 1.00912 0.998024
1.00593 0.999436 1.00822 0.998291
1.00562 1 1.00763 0.998
0.999004 1 1.00106 0.99795
0.99852 1 1.00003 0.998487
0.999245 1 1.00116 0.998089
1.00063 1 1.00244 0.998197
1.00094 1 1.00259 0.998353
1.00056 1 1.00234 0.998227
0.998919 1 1.0003 0.998619
0.999067 1 1.00059 0.998483
0.999413 1 1 0.999413
0.99942 1 1 0.99942
1 1 1 1
0.999432 1 1 0.999432
0.999999 1 1 0.999999
1 1 1 1
0.999998 1 1 0.999998
1 1 1 1
1 1 1 1
0.999868 1 1 0.999868
0.999807 1 1 0.999807
1 1 1 1
0.999763 1 1 0.999763
0.999999 1 1 0.999999
1 1 1 1
0.999993 1 1 0.999993
1 1 1 1
1 1 1 1
1.07124 1.10318 0.973856 0.997117
1.06447 1.09219 0.977525 0.997028
1.0876 1.12061 0.973253 0.997217
0.953701 1.01578 0.944351 0.994209
1.08149 1.11995 0.968373 0.997194
1.04143 1.07704 0.968918 0.997961
1.05856 1.09482 0.969475 0.997326
0.905534 0.973526 0.946769 0.982456
0.980024 1.02151 0.96412 0.995089
0.999258 1 1 0.999258
0.999204 1 1 0.999204
0.9987 1 1 0.9987
0.998832 1 1 0.998832
1.06975 1.11196 0.964846 0.997087
1.04377 1.09224 0.958415 0.997081
1.02922 1.0664 0.967808 0.997233
1.00041 1.00132 1.00306 0.996044
1.02003 1.02012 1.00455 0.995387
1.01546 1.0327 0.986486 0.996777
1.01661 1 1.01974 0.996928
1.04517 1.00199 1.04678 0.996477
1.00864 1.00039 1.0114 0.996871
1.00038 1 1.00128 0.9991
1.00859 1.00042 1.01082 0.997367
1.0008 1 1.00262 0.998194
0.999132 1 1 0.999132
0.999078 1.00099 0.999428 0.998658
1.0457 1.103 0.95071 0.997198
0.998611 1 1 0.998611
0.999528 1.0006 1.00039 0.998536
1.00208 0.999566 1.00377 0.998744
1.01815 1.08035 0.945032 0.997237
1.0232 1.04753 0.979753 0.996959
0.999117 1.00086 1.00139 0.996873
1.00032 1.01606 0.987822 0.996646
1.01159 1 1.01388 0.997737
1.01203 1 1.01482 0.997251
1.03392 1.00247 1.03413 0.997333
1.04529 1.00159 1.0469 0.996879
0.998636 1.06203 0.942787 0.997373
0.997879 1.04975 0.953206 0.997249
1.01013 1.02011 0.993583 0.996607
0.973887 1.00142 0.974695 0.997757
1.00638 1 1.00792 0.99847
1.00639 1 1.00838 0.998023
1.02021 0.999516 1.0226 0.99814
1.0643 1.00094 1.06614 0.997341
0.873693 0.968684 0.936647 0.962944
1.01221 0.999875 1.01442 0.997946
1.00035 1.00091 1.00273 0.996716
1.01136 1.06548 0.951374 0.997725
1.01126 1.03536 0.979632 0.997032
1.005 1.00641 1.0033 0.995316
1.00392 1.00391 1.00457 0.995462
0.95073 1.00198 0.954761 0.993808
1.00863 0.997604 1.01329 0.997796
0.986371 1.02733 0.962459 0.997579
1.00087 1.00148 1.00296 0.996448
1.0052 1.00342 1.00585 0.995936
0.995014 1.00843 0.990019 0.996642
0.880174 0.975476 0.936962 0.963008
0.867344 0.953024 0.928728 0.979939
0.954836 0.9782 0.97928 0.996769
0.652703 0.79532 0.881229 0.93129
0.558853 0.735016 0.844344 0.900494
1.00362 0.997903 1.00786 0.997883
0.687497 0.815207 0.902158 0.934804
0.604334 0.754636 0.883666 0.906258
0.985663 1.00558 0.982414 0.997739
1.00905 1.00156 1.01031 0.997201
1.01446 1.00592 1.01135 0.997165
0.941917 0.965338 0.978458 0.99722
0.847042 0.944999 0.927953 0.965935
0.832411 0.921496 0.923947 0.977682
0.638493 0.783407 0.869684 0.937146
0.620142 0.803597 0.856574 0.900923
1.00272 0.994943 1.00905 0.998773
1.00271 0.99797 1.00608 0.998676
1.01477 0.999437 1.01652 0.998837
0.998598 1 1 0.998598
0.998352 1 1.00026 0.998096
1.00625 1 1.00825 0.998017
1.00252 1 1.00446 0.998068
0.998635 1 1 0.998635
0.998537 1 1.00005 0.998487
1.0078 1 1.00982 0.997994
1.0058 1 1.00782 0.997989
0.99857 1 1.00057 0.997999
1.00715 0.999277 1.00956 0.99834
1.00813 1 1.00993 0.998222
1.02467 0.999097 1.02714 0.998495
1.00306 1 1.00521 0.997863
0.998908 1 1.00087 0.99804
0.998777 1 1.0007 0.998082
1.00083 1 1.0026 0.998235
1.00035 1 1.00236 0.997989
1.00014 1 1.00183 0.998309
1.00622 1 1.00783 0.998401
1.01048 1 1.01241 0.998099
1.00205 1 1.00372 0.998334
1.00064 1 1.00229 0.998356
1.00015 1 1.0015 0.99865
1.00034 1 1.00215 0.998192
0.998969 1 1.00039 0.998584
0.999388 1 1 0.999388
0.99921 1 1.00073 0.99848
0.999415 1 1 0.999415
0.999996 1 1 0.999996
0.99942 1 1 0.99942
0.999999 1 1 0.999999
1 1 1 1
1 1 1 1
1 1 1 1
1 1 1 1
0.999196 1 1 0.999196
0.999885 1 1 0.999885
0.999864 1 1 0.999864
1 1 1 1
0.999804 1 1 0.999804
1 1 1 1
1 1 1 1
0.999999 1 1 0.999999
1 1 1 1
1 1 1 1
0.956441 1.01532 0.947409 0.994302
1.0803 1.1188 0.968304 0.997191
1.05048 1.08013 0.974669 0.997827
0.893529 0.970313 0.936126 0.9837
0.97896 1.02131 0.963043 0.99532
1.05988 1.09803 0.967882 0.997282
0.989144 1.03634 0.958352 0.995938
0.910418 0.975191 0.947454 0.985356
0.886462 0.976311 0.940323 0.965595
0.663123 0.801811 0.882194 0.937471
0.526766 0.6926 0.840291 0.905118
0.99879 1 1 0.99879
0.999255 1 1 0.999255
0.999197 1 1 0.999197
0.998714 1 1 0.998714
0.998994 1 1.00045 0.998544
0.998472 1 1 0.998472
0.998705 1 1.00007 0.998635
0.998784 1 1 0.998784
1.04606 1.10458 0.949671 0.997212
1.02605 1.08476 0.94851 0.997225
1.02319 1.0477 0.97958 0.996958
0.998525 1.00189 0.999783 0.99686
1.00289 1.0155 0.990834 0.996719
1.04232 1.00291 1.0421 0.99731
1.04544 1.00339 1.0453 0.996763
1.01146 1.00027 1.01415 0.997083
0.998345 1.00077 0.998945 0.998626
1.01212 1 1.01454 0.997623
0.99863 1 1 0.99863
1.00099 0.999363 1.00263 0.999002
0.996786 1.06265 0.94045 0.997417
1.0055 0.999809 1.00726 0.99845
1.00823 1 1.01009 0.998164
0.995576 1.04759 0.952993 0.997222
1.00808 1.02138 0.990174 0.99677
0.977426 1.00149 0.978311 0.997611
1.03125 1.00092 1.03257 0.9978
1.05792 1.00219 1.05837 0.997388
0.967086 1.03187 0.939823 0.997231
0.994507 1.01675 0.980835 0.99724
0.974053 1.00224 0.974464 0.997344
0.974577 0.998625 0.977899 0.997976
1.00861 1 1.01073 0.997902
1.02138 1 1.02337 0.998055
1.05446 0.999663 1.05724 0.997711
0.704809 0.824101 0.912114 0.937653
0.88803 0.976004 0.938836 0.969139
1.00637 0.998142 1.01041 0.997855
1.00057 1.00132 1.0028 0.996462
0.986746 1.028 0.962228 0.997553
0.997804 1.00984 0.991427 0.996624
1.00646 1.00481 1.00571 0.995956
0.882385 0.973474 0.938454 0.965875
0.871954 0.963667 0.922773 0.980555
0.955536 0.977033 0.981105 0.996833
0.665703 0.796882 0.890593 0.93801
0.548714 0.731587 0.83841 0.894588
1.00363 0.998852 1.00691 0.997889
0.697722 0.825671 0.90303 0.935779
0.581003 0.733226 0.877975 0.902524
0.984997 1.00668 0.980697 0.997723
1.00911 1.00224 1.00967 0.997206
1.01222 1.00394 1.01097 0.99731
0.936918 0.959786 0.978644 0.997476
0.85751 0.958093 0.930107 0.962274
0.82946 0.917103 0.922581 0.980332
0.649113 0.785188 0.884219 0.934947
0.623668 0.814132 0.851463 0.89969
1.00615 0.999166 1.00848 0.99852
0.624002 0.766843 0.89861 0.905542
0.687992 0.843964 0.89289 0.912981
0.98368 0.990078 0.994902 0.998628
1.01579 1.0025 1.01474 0.998545
0.948807 0.952475 0.99944 0.996707
0.848218 0.90972 0.949472 0.982014
0.797124 0.898675 0.92398 0.959976
0.664664 0.781494 0.908517 0.936146
0.688669 0.875436 0.868886 0.905364
1.00275 0.997836 1.00629 0.99865
1.01217 0.999926 1.01347 0.998787
1.01197 0.998648 1.01428 0.999074
0.998487 1 1 0.998487
0.998217 1 1.00017 0.998048
1.00671 1 1.00875 0.997977
1.00891 1 1.01096 0.997965
1.00783 0.999043 1.01043 0.998388
0.99867 1 1.00063 0.998037
1.00711 1 1.00896 0.998166
1.00278 1 1.00493 0.997866
1.02225 0.997642 1.02615 0.99856
1.0419 0.995763 1.04728 0.999094
1.01466 1 1.01646 0.998223
1.00121 1 1.00339 0.997827
0.998473 1 1.0004 0.998076
1.00094 1 1.00267 0.998273
1.00089 1 1.00291 0.997978
1.00101 1 1.00272 0.99829
1.00408 1 1.00557 0.998523
1.00661 1 1.00837 0.998252
1.01012 1 1.01189 0.99825
1.00536 0.998266 1.00855 0.998569
0.999904 1 1.0017 0.998208
1.00045 1.00209 1.00093 0.997437
1.00801 1 1.01008 0.997954
1.00896 1 1.01088 0.998102
1.00986 1 1.01173 0.998151
1.00364 1 1.00531 0.998335
1.00006 1 1.00145 0.99861
1.00082 1 1.00246 0.998358
0.999792 1 1.00114 0.998656
0.99935 1 1 0.99935
0.998968 1 1.00042 0.99855
0.999391 1 1 0.999391
0.999982 1 1 0.999982
0.999418 1 1 0.999418
0.999993 1 1 0.999993
1 1 1 1
0.999999 1 1 0.999999
1 1 1 1
1 1 1 1
0.999184 1 1 0.999184
0.999848 1 1 0.999848
0.999198 1 1 0.999198
1 1 1 1
0.999886 1 1 0.999886
0.999859 1 1 0.999859
1 1 1 1
1 1 1 1
1 1 1 1
1 1 1 1
1 1 1 1
0.687342 0.816576 0.904913 0.930186
0.588034 0.746851 0.871723 0.903212
0.892886 0.969686 0.935459 0.984329
0.978848 1.02122 0.962774 0.995567
1.05735 1.10014 0.963772 0.997239
0.89964 0.958111 0.951677 0.98665
0.987462 1.03521 0.957549 0.996167
0.897251 0.9858 0.942083 0.966132
0.651029 0.800409 0.873288 0.931388
0.536908 0.712472 0.837853 0.899424
0.920631 0.994029 0.935346 0.990181
0.871027 0.960464 0.938241 0.966576
0.644752 0.789252 0.872331 0.936474
0.61904 0.803885 0.854182 0.901517
1.00084 1 1.00252 0.998318
0.998833 1 1 0.998833
0.999253 1 1 0.999253
0.998734 1 1.00001 0.998729
0.998969 1 1.00032 0.998651
0.999371 1 1.00121 0.998165
0.998532 1 1.00008 0.998451
0.99853 1 1.00032 0.99821
0.99862 1 1.00004 0.998585
0.998735 1 1 0.998735
0.991972 1.06237 0.936115 0.997459
0.992734 1.04488 0.95276 0.997198
1.00746 1.02284 0.987994 0.996934
0.980215 1.00177 0.980966 0.997464
1.04849 1.0036 1.04742 0.997433
1.04292 1.00199 1.04349 0.997465
1.00921 1 1.01092 0.998306
1.00474 0.99948 1.00685 0.998428
0.966668 1.0326 0.938636 0.997354
1.01093 1 1.01311 0.997847
1.02093 0.999995 1.02297 0.998016
0.986519 1.01356 0.976074 0.997177
0.972074 1.00198 0.972638 0.997449
0.975691 0.99981 0.977902 0.997929
1.04745 0.999625 1.05031 0.99765
0.956887 1.00268 0.956794 0.997423
0.963773 0.997167 0.968227 0.998228
1.01186 0.996035 1.01775 0.998168
1.01026 1 1.01253 0.997766
1.01914 0.999949 1.02148 0.997761
1.02969 1 1.03192 0.997839
0.652426 0.780618 0.910532 0.917905
0.704979 0.822349 0.913634 0.938313
0.877623 0.974661 0.934915 0.963125
1.00266 0.998172 1.00662 0.997891
1.00889 1.00244 1.00925 0.997207
0.986263 1.0079 0.980779 0.997706
1.01031 1.00242 1.01045 0.99745
0.701833 0.820753 0.910367 0.939301
0.856194 0.955592 0.930425 0.962983
0.826953 0.914023 0.925286 0.977795
0.937427 0.956978 0.981815 0.997713
0.646869 0.791463 0.879262 0.929538
0.574693 0.727991 0.872745 0.904529
0.627696 0.81505 0.850764 0.905224
1.00541 0.998645 1.0083 0.998482
0.626497 0.766507 0.898122 0.910054
0.703394 0.8596 0.896665 0.912583
0.981928 0.987541 0.995573 0.998737
1.01531 1.00148 1.01534 0.998493
0.946183 0.950855 0.997639 0.997441
0.836908 0.914605 0.934398 0.979292
0.829827 0.914573 0.940405 0.964837
0.672733 0.793113 0.911703 0.930367
0.682313 0.867885 0.864425 0.909483
1.00742 0.997082 1.01094 0.999431
0.728079 0.866456 0.912162 0.921214
0.705867 0.866549 0.888668 0.916622
0.975936 0.958208 1.01879 0.999715
0.883619 0.912175 0.981015 0.987441
0.827199 0.886508 0.969147 0.962804
0.754105 0.867887 0.937333 0.926989
0.732953 0.917543 0.876678 0.911191
1.00982 1 1.0111 0.998736
1.01399 0.998257 1.01672 0.999059
1.02733 0.989435 1.03897 0.999354
0.998867 1 1.00084 0.998033
1.00264 1 1.00478 0.997869
1.00544 1 1.00734 0.998111
1.02055 0.996588 1.02546 0.998624
1.00184 1 1.00402 0.997828
1.01385 0.999889 1.01578 0.998213
1.04662 0.995945 1.05175 0.999173
1.04284 0.987316 1.05682 0.999446
1.04552 0.998653 1.0479 0.999068
1.00893 1 1.01083 0.998119
1.00096 1 1.003 0.997967
1.00131 1 1.00305 0.998271
1.00182 1 1.00318 0.998643
1.00955 1 1.0113 0.998273
1.00468 1 1.00644 0.99825
1.0077 0.99895 1.01017 0.9986
1.00431 0.999274 1.0067 0.998346
1.01553 0.996961 1.01968 0.998962
0.996878 1.00136 0.99714 0.998377
1.00058 1.00069 1.00169 0.99821
0.998647 1.00025 1.00069 0.997704
1.00558 1.0077 1.00153 0.996377
1.00471 1.00145 1.00551 0.997757
0.999662 1.00116 1.00073 0.997775
1.00813 1 1.0102 0.997951
1.0157 1 1.01779 0.997947
1.00667 1 1.00859 0.998104
1.00889 1 1.01075 0.998151
1.00153 1 1.00309 0.998454
1.00384 1 1.00552 0.998335
1.00018 1 1.00158 0.998606
0.999889 1 1.0006 0.999294
0.999521 1 1.00086 0.998663
0.999487 1 1.00014 0.999351
0.99996 1 1 0.99996
0.999395 1 1 0.999395
0.999976 1 1 0.999976
1 1 1 1
0.99999 1 1 0.99999
1 1 1 1
1 1 1 1
0.998863 1 1 0.998863
0.999779 1 1 0.999779
0.999096 1 1 0.999096
1 1 1 1
0.999854 1 1 0.999854
0.9992 1 1 0.9992
1 1 1 1
1 1 1 1
0.999886 1 1 0.999886
1 1 1 1
1 1 1 1
1 1 1 1
0.61095 0.759258 0.885679 0.908531
0.695044 0.823252 0.903685 0.934249
0.697806 0.858562 0.891231 0.911954
0.585013 0.746462 0.869091 0.901763
0.898202 0.96464 0.946357 0.983907
0.988268 1.03447 0.958781 0.996409
0.897445 0.98527 0.942638 0.966291
0.667785 0.802335 0.887848 0.937438
0.548761 0.735627 0.834761 0.893642
0.924743 0.988735 0.945559 0.989128
0.854716 0.954904 0.932512 0.95986
0.657482 0.795707 0.884409 0.934281
0.608925 0.79656 0.851379 0.89789
0.883836 0.963345 0.930989 0.985475
0.801753 0.89291 0.936286 0.959013
0.700731 0.830378 0.910304 0.927019
0.682691 0.869576 0.869705 0.902703
1.00328 1 1.00537 0.99792
1.00008 1 1.0017 0.998374
0.998875 1 1 0.998875
0.99876 1 1 0.99876
0.998551 1 1.00081 0.997746
0.998633 1 1.00041 0.998226
0.998485 1 1.00005 0.998431
0.998188 1 1 0.998188
0.998418 1 1.00017 0.998251
0.998534 1 1 0.998534
0.967623 1.03384 0.938322 0.997474
0.98046 1.01079 0.972794 0.99712
0.968028 1.00129 0.969154 0.997553
0.977353 1.00121 0.978247 0.997884
1.03897 1 1.04148 0.997586
1.0201 1 1.02217 0.997979
1.01249 1 1.01473 0.997792
1.00978 1 1.0121 0.997707
0.957235 1.00298 0.956781 0.9975
1.01624 1 1.01856 0.997724
1.0297 1 1.03195 0.997817
0.96334 0.998461 0.966535 0.998231
1.00616 0.998274 1.0098 0.998124
0.94376 0.973347 0.971796 0.997742
0.962756 0.968991 0.994325 0.999235
1.04407 0.995963 1.05001 0.998377
1.00663 1 1.00882 0.997827
1.02917 0.999931 1.0313 0.998004
0.742189 0.878763 0.91183 0.926252
0.648184 0.779019 0.907933 0.916423
0.696998 0.818937 0.912393 0.932823
1.00509 0.99876 1.0079 0.998448
1.01532 1.00019 1.01671 0.998441
0.977451 0.985032 0.993448 0.998849
0.622038 0.763182 0.895254 0.910422
0.806427 0.898061 0.935872 0.959495
0.84204 0.911721 0.941571 0.980884
0.93547 0.944871 0.99183 0.998205
0.684417 0.806771 0.905809 0.936557
0.712999 0.868004 0.90025 0.91244
0.682806 0.866566 0.865933 0.909937
1.00591 0.997316 1.00924 0.999376
0.728383 0.867734 0.909302 0.923134
0.703904 0.863757 0.888817 0.916874
0.977636 0.962443 1.01628 0.999513
0.896887 0.924672 0.982393 0.987336
0.798073 0.882268 0.944753 0.957467
0.728399 0.913874 0.874945 0.910966
0.771503 0.872879 0.950606 0.929787
0.99653 0.966035 1.03187 0.999711
0.717058 0.857369 0.901615 0.927609
0.744151 0.902004 0.896204 0.920547
0.680369 0.867876 0.868223 0.902933
0.937987 0.928792 1.01326 0.996682
0.882166 0.916344 0.998221 0.964417
0.828175 0.929276 0.954564 0.933624
1.01657 0.997807 1.01978 0.999043
1.02887 0.992207 1.03771 0.99927
1.03556 0.981283 1.05577 0.999566
1.00225 1 1.00443 0.997829
1.01172 0.999707 1.01384 0.998202
1.05096 0.995125 1.0569 0.999251
1.00946 1 1.01136 0.998126
1.04534 0.998397 1.04798 0.999079
1.0486 0.987616 1.06236 0.999421
1.03821 0.983145 1.05655 0.999489
1.02921 0.997276 1.033 0.999058
1.00862 1 1.01033 0.998299
1.00409 1 1.00585 0.998248
1.01041 0.999488 1.01232 0.998633
1.01504 0.997767 1.0184 0.998933
1.00453 0.999516 1.00667 0.998356
1.00359 0.999451 1.00532 0.998827
0.997197 1.00001 0.99848 0.998703
1.00464 1.0003 1.00718 0.997178
1.00093 1.00145 1.00126 0.998222
1.00003 1.00192 1.00054 0.997586
1.00169 1.00344 1.00226 0.996007
1.01825 1.0212 1.00129 0.995824
1.00628 1.00622 1.00276 0.997313
1.00318 1.00537 1.00138 0.996443
1.01276 1.00019 1.01493 0.997676
1.00606 1.00227 1.00602 0.997777
0.998923 1.00029 1.00052 0.99811
1.00844 1 1.01051 0.997948
1.01443 1 1.01649 0.997977
1.00773 1 1.00949 0.99826
1.00861 1 1.01047 0.998152
1.00173 1 1.00328 0.998454
1.00012 1 1.00095 0.999177
1.00004 1 1.00144 0.998602
0.999866 1 1.00058 0.99929
0.99994 1 1 0.99994
0.999666 1 1.00031 0.999352
0.999954 1 1 0.999954
1 1 1 1
0.99997 1 1 0.99997
1 1 1 1
1 1 1 1
0.998549 1 1 0.998549
0.999522 1 1 0.999522
0.998861 1 1 0.998861
1 1 1 1
0.999716 1 1 0.999716
0.999008 1 1 0.999008
1 1 1 1
1 1 1 1
0.999859 1 1 0.999859
1 1 1 1
1 1 1 1
1 1 1 1
0.734455 0.881564 0.904271 0.921324
0.618726 0.760624 0.890676 0.913289
0.684745 0.81662 0.8984 0.933337
0.998081 1 1 0.998081
0.708398 0.862086 0.893037 0.920148
0.697318 0.858195 0.891165 0.911773
0.597831 0.761652 0.865905 0.906465
0.934535 0.992874 0.952782 0.987888
0.84949 0.943321 0.932419 0.965801
0.659106 0.810134 0.876145 0.928586
0.598504 0.777476 0.854162 0.901239
0.881145 0.959014 0.935573 0.982075
0.824376 0.907223 0.942298 0.964324
0.689847 0.811079 0.916614 0.927904
0.682264 0.86789 0.86957 0.904032
0.824223 0.904913 0.931299 0.978022
0.803758 0.875503 0.955522 0.960787
0.782903 0.879976 0.955881 0.93075
0.732713 0.914609 0.879224 0.911168
1.00148 1 1.00372 0.997773
1.00425 1 1.00639 0.997882
0.999685 1 1.00126 0.998431
0.998257 1 1.00034 0.997913
0.998769 1 1.00094 0.997826
0.998468 1 1.00018 0.998287
0.99822 1 1.00003 0.998188
0.99838 1 1.00009 0.998291
0.957744 1.00365 0.956595 0.997556
0.964027 1.00108 0.964684 0.998243
1.0093 1 1.01168 0.997647
0.999881 1.0002 1.00161 0.998079
1.03061 0.999987 1.0329 0.997793
1.01592 1 1.01828 0.997688
1.00888 1 1.01109 0.997821
0.944067 0.971085 0.974227 0.997897
1.02625 0.999975 1.02832 0.998008
1.03316 0.997667 1.03722 0.998422
0.964695 0.973369 0.9918 0.999283
1.00897 1 1.01093 0.998065
0.929927 0.944752 0.986985 0.997287
0.995485 0.971168 1.02558 0.999476
1.06409 0.996391 1.06951 0.998536
1.04074 0.99829 1.04439 0.998211
0.721131 0.856234 0.904013 0.931638
0.741763 0.87878 0.91192 0.92561
0.645124 0.776549 0.908034 0.914897
1.00325 0.9976 1.00634 0.999322
0.98041 0.965759 1.01587 0.999314
0.731918 0.872112 0.907317 0.924977
0.818732 0.873461 0.972413 0.963935
0.885254 0.922945 0.975362 0.983391
0.762741 0.864974 0.950371 0.927857
0.704403 0.864175 0.888831 0.917066
0.727029 0.912831 0.874519 0.910736
1.00362 0.976174 1.02845 0.999669
0.7185 0.859169 0.901536 0.927609
0.746971 0.900777 0.898645 0.922781
0.952454 0.938759 1.0156 0.999004
0.680193 0.866339 0.868352 0.904167
0.849285 0.894364 0.988246 0.960891
0.827006 0.924995 0.958094 0.933171
0.994609 0.96333 1.0328 0.999678
0.753127 0.8909 0.9073 0.931727
0.707799 0.859046 0.894896 0.920707
0.616598 0.802065 0.852598 0.90167
0.778555 0.877415 0.954015 0.930099
0.932004 0.933378 1.00646 0.992116
0.890369 0.917126 1.01566 0.955855
1.02905 0.995746 1.03428 0.999188
1.03347 0.978028 1.05718 0.999534
1.02023 0.961197 1.06186 0.999582
1.01129 1 1.01318 0.998133
1.04833 0.997654 1.05175 0.999091
1.05709 0.988674 1.06985 0.999396
1.02484 0.997645 1.02824 0.999045
1.03655 0.985519 1.05232 0.999488
1.00619 0.984221 1.02311 0.999235
1.01511 0.998634 1.01761 0.998903
1.00467 0.999502 1.00681 0.998368
1.00651 0.99951 1.00821 0.998803
1.01346 0.997855 1.01761 0.998057
0.997841 0.998812 1 0.999028
1.00056 1.00027 1.00289 0.997409
1.00679 1.0021 1.00931 0.995407
1.00583 1.00788 1.00283 0.995148
1.00145 1.0037 1.0003 0.997459
1.00189 1.0041 1.00203 0.995781
1.02007 1.02376 1.00053 0.995878
1.01531 1.01617 1.00261 0.996549
1.01648 1.01935 1.00125 0.995937
1.00977 1.0027 1.00962 0.997464
1.00911 1.00849 1.00335 0.997273
0.999985 1.0022 1.00128 0.996512
1.01392 1 1.01591 0.998036
1.01221 1.00031 1.01423 0.997706
1.00746 1.00308 1.00658 0.997797
1.01314 1 1.01516 0.998007
1.00749 1 1.00925 0.998261
1.00165 1 1.00267 0.998981
1.00225 1 1.0038 0.998453
1.00043 1 1.00126 0.999171
0.99992 1 1 0.99992
0.999963 1 1.00068 0.999287
0.999936 1 1 0.999936
1 1 1 1
0.999948 1 1 0.999948
1 1 1 1
1 1 1 1
0.998458 1 1 0.998458
0.999313 1 1 0.999313
0.998608 1 1 0.998608
0.999997 1 1 0.999997
0.9995 1 1 0.9995
0.998858 1 1 0.998858
1 1 1 1
1 1 1 1
0.999653 1 1 0.999653
1 1 1 1
1 1 1 1
1 1 1 1
0.72391 0.861173 0.90362 0.930268
0.735633 0.879973 0.90733 0.921354
0.619904 0.759293 0.893834 0.913394
0.998388 1 1.00027 0.998122
1.00163 1 1.00362 0.998014
0.998076 1 1 0.998076
0.746783 0.904757 0.89708 0.920092
0.706257 0.86267 0.889504 0.920385
0.695217 0.858211 0.888604 0.911629
0.888165 0.967184 0.93303 0.984212
0.79104 0.892685 0.924065 0.958955
0.694104 0.800412 0.926483 0.935995
0.687084 0.874694 0.87129 0.901553
0.829149 0.911423 0.927251 0.981105
0.82157 0.885925 0.965414 0.960582
0.770575 0.8691 0.951821 0.931516
0.729116 0.913314 0.876469 0.910835
0.845124 0.905796 0.953611 0.978406
0.854973 0.899547 0.987862 0.962127
0.828269 0.925937 0.957697 0.934031
0.69278 0.878192 0.871113 0.905589
0.999089 1 1.0011 0.997988
1.00167 1 1.00395 0.997727
1.00366 1 1.00583 0.997843
0.998104 1 1.00021 0.997897
0.998553 1 1.00065 0.997907
0.998189 1 1 0.998189
0.940866 0.96459 0.977301 0.998061
0.965268 0.973741 0.991986 0.999307
1.00931 1 1.01152 0.997814
1.02565 0.99947 1.02777 0.998466
1.0237 1 1.02574 0.998012
1.00972 0.999668 1.012 0.998083
1.0299 0.994214 1.03771 0.998248
0.935776 0.943433 0.994479 0.997391
1.05869 0.99378 1.06673 0.998678
0.998423 0.963649 1.03683 0.999285
1.01788 0.991898 1.02782 0.998418
0.961784 0.945277 1.02059 0.996934
1.0124 0.967177 1.04762 0.999177
1.03257 0.969869 1.06594 0.998792
0.769503 0.901011 0.914737 0.93365
0.725593 0.858595 0.906726 0.932027
0.740636 0.878835 0.911102 0.924975
1.01099 0.985831 1.0259 0.999627
0.941553 0.93714 1.0075 0.997232
0.718939 0.859493 0.901745 0.927611
0.846613 0.881131 0.995497 0.965173
0.82161 0.927483 0.953781 0.928777
0.748524 0.900754 0.898369 0.925006
0.687118 0.873835 0.87191 0.901841
0.989473 0.958885 1.03216 0.999747
0.751903 0.887797 0.908157 0.932583
0.710563 0.865197 0.891752 0.920966
0.927451 0.929439 1.01038 0.987615
0.60657 0.793497 0.851033 0.898234
0.768739 0.867958 0.951846 0.930494
0.889028 0.917536 1.00617 0.962991
1.00763 0.951145 1.06136 0.998146
0.724919 0.859299 0.906527 0.930603
0.709331 0.866184 0.897356 0.912587
0.529306 0.692156 0.84414 0.905917
0.688531 0.819719 0.90637 0.926729
0.861 0.898122 0.997145 0.961412
0.899955 0.918652 0.995536 0.984039
1.02879 0.976188 1.05441 0.999501
1.02905 0.973601 1.0574 0.99958
1.0102 0.974556 1.03713 0.999464
1.0182 0.998171 1.02105 0.999032
1.03341 0.988282 1.0462 0.999487
1.00998 0.979955 1.03135 0.999319
1.00792 0.994673 1.01457 0.998762
1.00994 0.999774 1.0114 0.998778
1.01086 0.998989 1.01415 0.997772
1.02415 1.00069 1.02768 0.995883
0.996504 0.999866 0.998992 0.997643
1.00793 1.0018 1.01069 0.995477
1.00727 1.00295 1.00981 0.99455
1.01016 1.01353 1.00191 0.994782
1.01193 1.01538 1.00108 0.99553
1.00586 1.0077 1.0031 0.995089
1.00183 1.00461 1.00169 0.995557
1.01609 1.01883 1.0011 0.996211
1.02161 1.02525 1.00048 0.995973
1.00885 1.0073 1.00464 0.99692
1.01746 1.01811 1.00274 0.996636
1.01621 1.01904 1.00117 0.996051
1.01389 1.00098 1.0152 0.997725
1.01086 1.00395 1.00945 0.997454
1.01208 1.01101 1.00383 0.997231
1.00736 1 1.00862 0.998758
1.01254 1 1.01454 0.998034
1.01197 1.00055 1.01371 0.997737
1.00704 1 1.00879 0.998263
1.002 1 1.00303 0.998978
0.999866 1 1 0.999866
1.00031 1 1.00115 0.999166
0.999911 1 1 0.999911
1 1 1 1
0.999932 1 1 0.999932
1 1 1 1
1 1 1 1
0.998387 1 1 0.998387
0.999264 1 1 0.999264
0.998487 1 1 0.998487
0.999981 1 1 0.999981
0.999362 1 1 0.999362
0.998668 1 1 0.998668
1 1 1 1
0.999998 1 1 0.999998
0.999477 1 1 0.999477
1 1 1 1
1 1 1 1
1 1 1 1
0.750666 0.889134 0.906598 0.931247
0.729067 0.862406 0.908744 0.930282
0.737939 0.878818 0.911299 0.921426
1.01564 1 1.01779 0.997881
1.0057 1.00016 1.00771 0.997848
0.998163 1 1 0.998163
1.0019 1 1.00391 0.997994
0.998094 1 1 0.998094
1.00308 1 1.00505 0.998042
0.997831 0.999639 1 0.998191
0.711178 0.873306 0.88844 0.916608
0.750153 0.903366 0.900296 0.922361
0.709477 0.860819 0.895247 0.920627
0.727518 0.913072 0.875089 0.910513
0.831491 0.915338 0.928464 0.978388
0.824525 0.882623 0.973013 0.960086
0.778076 0.883293 0.942145 0.934974
0.829346 0.906305 0.936305 0.977336
0.856465 0.893222 1.00249 0.956466
0.825217 0.922947 0.957421 0.933875
0.684844 0.870853 0.864492 0.909674
0.880046 0.918232 0.977393 0.980581
0.872662 0.90364 1.00985 0.956302
0.757971 0.871117 0.938098 0.927529
0.623393 0.80836 0.856034 0.900878
1.0342 0.999077 1.03684 0.998375
1.0005 0.999845 1.00265 0.998019
1.00253 1 1.00486 0.997681
0.997881 1 1 0.997881
0.94529 0.946247 1.00147 0.99752
0.999171 0.959405 1.0424 0.999088
1.00935 0.99922 1.01206 0.998101
1.02203 0.993633 1.03035 0.998285
1.0463 0.986088 1.06232 0.998821
1.01956 0.99662 1.02464 0.99842
1.0385 0.96988 1.07206 0.998779
0.960683 0.944088 1.02251 0.995173
1.01207 0.958828 1.05622 0.999339
1.01195 0.975772 1.03822 0.998906
0.947049 0.921773 1.03336 0.994253
0.995018 0.944 1.05482 0.999264
0.724786 0.856221 0.908257 0.931999
0.766032 0.897497 0.912227 0.935644
0.731416 0.86116 0.910907 0.932409
0.98385 0.951823 1.03385 0.999805
0.9337 0.933313 1.00788 0.992592
0.74911 0.884079 0.907742 0.933453
0.896636 0.92449 1.01367 0.956792
0.771338 0.877693 0.940855 0.934071
0.716147 0.867261 0.8964 0.921193
0.5974 0.774281 0.855858 0.9015
1.00766 0.952538 1.05956 0.9984
0.729333 0.86484 0.90618 0.930627
0.702179 0.858976 0.895925 0.912421
0.901917 0.918851 0.994681 0.98682
0.540083 0.713767 0.840462 0.900296
0.680211 0.802279 0.914355 0.927264
0.857112 0.895911 0.999645 0.957032
0.991671 0.953958 1.04368 0.996023
0.738627 0.886335 0.904189 0.921655
0.586682 0.742412 0.87407 0.90409
0.645115 0.789215 0.872153 0.937236
0.801144 0.86179 0.966141 0.962206
0.853527 0.892944 0.976031 0.979331
1.03753 0.978922 1.0603 0.99959
1.01299 0.971018 1.04378 0.999474
0.980155 0.971067 1.01013 0.999232
1.01413 0.975552 1.04017 0.999402
1.0059 0.984729 1.02265 0.998873
1.00784 1.0008 1.00944 0.997612
1.00746 1.00003 1.00997 0.997488
1.02371 1.00088 1.02722 0.995716
1.01184 1.00182 1.01529 0.994785
1.00946 1.00186 1.0121 0.995546
1.00807 1.00286 1.0108 0.994456
1.00265 1.00385 1.00448 0.994348
1.04034 1.04548 1 0.995079
1.02234 1.02656 1.00077 0.99513
1.01038 1.01353 1.00218 0.994724
1.01352 1.01763 1.00013 0.995837
1.00996 1.01367 1.00074 0.995593
1.00592 1.00741 1.00351 0.99503
1.0149 1.01757 1.00112 0.996271
1.01552 1.01831 1.00108 0.996183
1.02243 1.02603 1.00043 0.996069
1.00804 1.00265 1.00811 0.997288
1.00957 1.00775 1.0048 0.99702
1.01852 1.01894 1.00288 0.996723
1.01138 1 1.01297 0.998431
1.01329 1.00136 1.01421 0.997733
1.0119 1.00546 1.00898 0.997444
1.00055 1 1.00078 0.999777
1.00701 1 1.00826 0.998754
1.01131 1 1.01331 0.998033
1.0025 1 1.00353 0.998974
0.999938 1 1.00008 0.999853
1 1 1 1
0.999902 1 1 0.999902
1 1 1 1
1 1 1 1
1.01246 1 1.01459 0.997893
1.00514 1 1.00697 0.998177
0.999078 1 1 0.999078
0.999114 1 1.00073 0.998382
0.999952 1 1 0.999952
0.999267 1 1 0.999267
0.998516 1 1 0.998516
1 1 1 1
0.999987 1 1 0.999987
0.999411 1 1 0.999411
1 1 1 1
1 1 1 1
1 1 1 1
0.720332 0.859475 0.903444 0.927681
0.74657 0.885129 0.904872 0.932129
0.729389 0.865936 0.905434 0.930287
1.0176 1 1.01975 0.997887
1.00788 1.00057 1.00946 0.997872
1.00087 1.00073 1.00243 0.997712
1.01766 1 1.01983 0.997873
1.00813 1.00152 1.00876 0.997863
1.00385 1 1.00589 0.997972
0.998645 1 1.00053 0.998112
1.0031 0.999893 1.00517 0.998046
0.998309 1 1.00008 0.998229
1.02058 1 1.02235 0.998271
0.690562 0.848457 0.891651 0.912805
0.709113 0.868433 0.890533 0.916915
0.750084 0.903024 0.898355 0.924618
0.684228 0.870413 0.863723 0.910125
0.82259 0.925029 0.956985 0.92923
0.825191 0.900728 0.938942 0.975713
0.86171 0.895135 1.00118 0.961526
0.869999 0.919884 0.968288 0.976744
0.877072 0.915735 0.99583 0.961791
0.774715 0.872762 0.953525 0.930924
0.626695 0.818214 0.851449 0.89956
0.888635 0.910981 0.995903 0.979484
0.863246 0.889908 1.00778 0.96255
0.673537 0.787139 0.914277 0.935906
0.571052 0.740847 0.851099 0.905664
1.02966 0.99952 1.03126 0.998931
1.03436 0.998808 1.03727 0.998384
1.00342 1 1.00538 0.998052
0.96018 0.943209 1.02484 0.993315
1.01355 0.953365 1.06367 0.999492
1.02066 0.999062 1.02324 0.998422
1.0474 0.968762 1.0825 0.998767
1.01586 0.980456 1.03723 0.998912
1.00149 0.952821 1.05185 0.999268
0.94743 0.925407 1.02975 0.994223
1.0105 0.985453 1.02609 0.999345
0.961319 0.946865 1.02005 0.995312
0.745834 0.881506 0.913948 0.925754
0.73295 0.862444 0.911494 0.932374
0.761462 0.893666 0.908709 0.937666
1.01014 0.962177 1.05132 0.998602
0.897248 0.917695 0.995698 0.981944
0.736738 0.871201 0.908684 0.930641
0.860869 0.898487 0.999269 0.958832
0.681421 0.789377 0.923116 0.935136
0.692236 0.853576 0.888915 0.91233
0.550099 0.735587 0.835973 0.89457
0.98913 0.953113 1.04161 0.996334
0.737181 0.880472 0.908434 0.921647
0.585743 0.744515 0.87158 0.902664
0.866918 0.906715 0.974573 0.981053
0.65708 0.795773 0.883256 0.934851
0.800219 0.874198 0.954611 0.958898
0.940932 0.939392 1.00746 0.994222
0.61312 0.760173 0.88713 0.909172
0.665034 0.802951 0.882807 0.938186
0.80089 0.894402 0.933623 0.959111
0.828249 0.89558 0.941791 0.981978
1.01424 0.969575 1.04661 0.999485
0.983784 0.965698 1.01954 0.999204
0.992408 0.987532 1.00654 0.998404
1.00376 0.973143 1.03252 0.998979
1.00475 0.999292 1.00778 0.997707
0.996275 1.0032 0.996572 0.996513
1.0233 1.00083 1.02702 0.995545
1.01053 1.00231 1.01349 0.994781
1.00062 1.00406 1.00137 0.995216
1.00825 1.0026 1.01133 0.994363
1.00261 1.00455 1.0037 0.994388
1.03593 1.04103 0.999762 0.995339
1.06721 1.07307 0.998677 0.995854
1.05245 1.05753 1.00002 0.99518
1.04066 1.04577 1 0.995112
1.02922 1.03395 1 0.995426
1.02122 1.02517 1.00107 0.995071
1.01135 1.0143 1.00244 0.994666
1.02232 1.02648 1 0.995951
1.01201 1.01614 1.00002 0.995908
1.00778 1.01186 1.00032 0.995657
1.00682 1.00803 1.00208 0.996733
1.01163 1.014 1.00134 0.996329
1.0158 1.01861 1.0011 0.996154
1.01154 1.00024 1.01338 0.997941
1.01039 1.00419 1.00891 0.997287
1.01005 1.00805 1.00488 0.99712
1.00276 1 1.0031 0.999656
1.01115 1.00016 1.01258 0.998427
1.013 1.00166 1.01362 0.997741
0.999953 1 1 0.999953
1.00136 1 1.00159 0.999763
1.0069 1 1.00816 0.99875
1.00018 1 1.00034 0.999841
1 1 1 1
1 1 1 1
1.00874 1.00196 1.00907 0.997716
1.01148 1 1.01354 0.997971
1.01437 1 1.01654 0.997866
1.001 1 1.00213 0.998874
1.00422 1 1.00606 0.998172
0.99991 1 1 0.99991
0.99927 1 1.00019 0.999084
0.999223 1 1.00085 0.998377
1 1 1 1
0.999961 1 1 0.999961
0.999269 1 1 0.999269
1 1 1 1
0.999992 1 1 0.999992
1 1 1 1
0.728793 0.86998 0.904934 0.925717
0.724292 0.863111 0.904567 0.927698
0.747537 0.880006 0.910465 0.933004
1.00138 1.00335 1.00045 0.997596
1.01528 1 1.01743 0.997892
1.00481 1 1.00693 0.9979
1.0114 1 1.0136 0.997832
1.00166 1.00156 1.00236 0.997742
1.00422 1.00011 1.00607 0.998058
1.01459 1.00136 1.01603 0.997229
1.01837 0.998607 1.02176 0.99808
1.00345 0.999829 1.00558 0.998051
0.998267 1 1 0.998267
1.02212 0.999602 1.02431 0.998256
1.03885 1.00167 1.03869 0.998479
0.604167 0.754976 0.88342 0.905851
0.704937 0.863103 0.895141 0.912423
0.709584 0.867013 0.892354 0.917152
0.629945 0.819059 0.849841 0.905003
0.767535 0.868083 0.951222 0.929511
0.875974 0.907214 1.00958 0.956398
0.872095 0.916547 0.973427 0.977476
0.887621 0.911604 0.991855 0.981687
0.561011 0.737125 0.845623 0.900023
0.852841 0.892818 0.997149 0.957955
0.680461 0.797762 0.917193 0.92997
0.886046 0.918399 0.980821 0.983638
0.827607 0.883686 0.971189 0.964323
0.645893 0.787565 0.876321 0.93586
0.991332 1.00116 0.990657 0.999527
1.03108 1.00032 1.03185 0.998938
1.03373 0.999444 1.03598 0.99839
0.950183 0.929615 1.02803 0.994258
1.00909 0.963248 1.04836 0.999273
1.02126 0.988023 1.03476 0.998919
1.00809 0.983736 1.02543 0.999344
0.957298 0.945911 1.01675 0.995365
0.983331 0.979103 1.00735 0.996995
0.650326 0.778527 0.914138 0.91379
0.741798 0.879526 0.909035 0.927804
0.736052 0.866674 0.910554 0.93271
0.990057 0.953182 1.04231 0.996525
0.860511 0.904943 0.96839 0.981939
0.73415 0.874321 0.910978 0.921735
0.816018 0.872354 0.975244 0.959165
0.660456 0.811977 0.875235 0.929342
0.601483 0.761832 0.870239 0.907247
0.938555 0.932036 1.0128 0.994272
0.621049 0.761449 0.892517 0.913836
0.653345 0.80068 0.875417 0.932114
0.824558 0.899307 0.937567 0.977937
0.825664 0.911879 0.938869 0.964408
0.932326 0.949976 0.984038 0.99734
0.686438 0.813828 0.906409 0.930561
0.873341 0.963343 0.937955 0.966542
0.825446 0.911484 0.92635 0.977608
0.987045 0.961418 1.0275 0.999181
0.981633 0.987075 0.995992 0.998489
0.993332 1.00047 0.995479 0.997371
1.00178 0.998184 1.00581 0.997803
0.998103 1.00323 0.998406 0.996475
1.00069 1.00687 0.997478 0.996378
1.00989 1.00329 1.01186 0.994777
1.00047 1.0036 1.00167 0.995217
1.03384 1.04333 0.994579 0.996309
1.00268 1.00509 1.00319 0.994428
1.03439 1.03974 0.999504 0.995348
1.06537 1.07476 0.994727 0.996517
1.06309 1.07171 0.995313 0.996629
1.06898 1.07395 0.99961 0.995766
1.06854 1.07443 0.998607 0.995904
1.05653 1.0614 1 0.995411
1.05041 1.05542 1 0.995255
1.03974 1.04481 1 0.995145
1.0418 1.0463 1 0.995696
1.03006 1.03463 1.00014 0.995447
1.01991 1.02351 1.00148 0.995012
1.02008 1.0239 1 0.996262
1.02007 1.02421 1 0.995949
1.01022 1.0143 1 0.995979
1.00561 1.00222 1.00594 0.997456
1.00931 1.01026 1.00234 0.996725
1.00834 1.01019 1.00178 0.996388
1.00385 1 1.00446 0.999399
1.01015 1.00098 1.01124 0.997938
1.01222 1.00605 1.00887 0.997285
1 1 1 1
1.00329 1 1.0037 0.999596
1.00992 1.0001 1.01142 0.998423
1 1 1 1
1.00192 1 1.00218 0.999739
1 1 1 1
1.00371 1.00438 1.00185 0.997488
1.00709 1.00115 1.00827 0.997682
1.01187 1.00012 1.01398 0.997804
1.00616 1 1.0075 0.998671
1.01324 1 1.0153 0.997968
1.01907 1 1.02127 0.99784
0.999848 1 1 0.999847
1.00043 1 1.00155 0.99888
1.00489 1 1.00673 0.998167
1 1 1 1
0.999922 1 1 0.999922
0.999248 1 1.00016 0.999088
1 1 1 1
0.99997 1 1 0.99997
1 1 1 1
0.623329 0.766273 0.897363 0.906496
0.733139 0.874705 0.905343 0.925788
0.728469 0.867432 0.905224 0.927726
1.00534 1.00197 1.00581 0.997565
1.01214 1.00651 1.00847 0.997154
1.01632 1.00208 1.01684 0.997408
1.01079 1 1.01303 0.99779
1.00309 1.00349 1.00183 0.997772
1.00533 1 1.0071 0.998246
1.01823 0.999578 1.0207 0.997999
1.01556 1.00216 1.01603 0.997383
1.01864 1.0021 1.01908 0.997483
0.978011 1.00169 0.977375 0.998965
1.02128 0.999829 1.02326 0.998239
1.03358 1.00051 1.03465 0.998447
0.662173 0.801725 0.889471 0.928569
0.581783 0.734119 0.878429 0.902169
0.714363 0.871381 0.898623 0.912291
0.552334 0.734639 0.840812 0.894188
0.692684 0.809231 0.914396 0.936114
0.840855 0.886091 0.989031 0.959473
0.888048 0.91153 0.995445 0.978697
0.872595 0.909716 0.977896 0.980877
0.655321 0.788116 0.89032 0.933937
0.807872 0.876888 0.960236 0.959446
0.850407 0.913231 0.947488 0.982817
0.797413 0.906634 0.916333 0.959837
0.996792 1 0.997754 0.999036
0.991225 1.00062 0.991129 0.999475
1.03224 0.999677 1.03367 0.998944
0.948172 0.940037 1.01328 0.995432
1.00369 0.980263 1.02457 0.999344
0.98501 0.981584 1.00656 0.996951
0.967336 0.986875 0.984339 0.995797
0.707526 0.826132 0.913649 0.937376
0.645705 0.775754 0.910835 0.91384
0.744347 0.881833 0.907849 0.929769
0.940662 0.938311 1.00806 0.994488
0.827631 0.896548 0.943601 0.978306
0.622207 0.761018 0.894651 0.913874
0.791825 0.896249 0.920828 0.95945
0.669133 0.802169 0.889106 0.938195
0.933524 0.953972 0.982634 0.995859
0.697177 0.823584 0.905697 0.934656
0.857012 0.956813 0.932815 0.960205
0.82601 0.911851 0.923927 0.980446
0.943206 0.976434 0.968805 0.997073
0.889856 0.976761 0.943344 0.965743
0.881743 0.962572 0.931059 0.983856
0.970714 0.985495 0.986426 0.998555
0.987421 1.00039 0.989672 0.997338
0.983908 1.00912 0.977815 0.997139
0.99932 1.00297 0.999918 0.996439
1.00039 1.00662 0.997431 0.996368
1.02456 1.0489 0.979666 0.997067
0.999959 1.00289 1.00186 0.995219
1.0312 1.04204 0.993288 0.996284
1.04845 1.07422 0.978811 0.997135
1.0336 1.03922 0.999242 0.995355
1.06374 1.07412 0.993803 0.996506
1.05358 1.07239 0.985281 0.997137
1.05736 1.07064 0.990548 0.997021
1.0637 1.07287 0.994731 0.996706
1.06282 1.06858 0.998127 0.996478
1.07014 1.07462 1 0.995827
1.06923 1.07406 0.999703 0.995795
1.07063 1.0766 0.998495 0.995955
1.05984 1.06451 1 0.995612
1.05809 1.06294 1 0.995437
1.04866 1.05358 1 0.995329
1.04163 1.04586 1 0.99596
1.04213 1.04663 1 0.995695
1.03106 1.03557 1.00017 0.995468
1.00523 1.00767 1.00052 0.997062
1.02057 1.0244 1 0.996263
1.01827 1.02241 1 0.995947
1.0029 1 1.00383 0.999079
1.00727 1.00377 1.00605 0.997452
1.01175 1.01202 1.00303 0.996717
1 1 1 1
1.00404 1 1.00467 0.999375
1.01005 1.00183 1.01029 0.997934
0.999964 1 1 0.999964
1.00423 1 1.00465 0.999584
1 1 1 1
1.00335 1.00602 1.00009 0.997258
1.00254 1.00215 1.00289 0.997501
1.00608 1.00054 1.00792 0.997637
1.00395 1 1.00632 0.997648
1.0118 1.0002 1.01382 0.997807
1.01041 1 1.01197 0.998458
1.00072 1 1.00097 0.999754
1.00494 1 1.00627 0.998672
1.01273 1 1.0148 0.997965
1 1 1 1
0.999864 1 1 0.999864
0.999819 1 1.00094 0.998885
1 1 1 1
0.999936 1 1 0.999936
1 1 1 1
0.687166 0.815625 0.901599 0.934454
0.625401 0.765935 0.899058 0.908194
0.73447 0.876852 0.904688 0.925868
1.0082 1.00082 1.00987 0.997534
1.02032 1.00145 1.02173 0.997175
1.00929 1.00575 1.00633 0.997213
1.00852 1.00998 1.00237 0.996196
1.01956 1.00332 1.01881 0.997419
1.01618 1 1.0183 0.997924
1.01453 1.00196 1.01505 0.997536
1.01957 1.00192 1.02006 0.9976
0.9994 1.00627 0.99595 0.997216
0.969175 1.00123 0.969477 0.998458
0.970576 1.00035 0.972501 0.99767
0.982958 1.00156 0.982418 0.998987
1.02928 1.00099 1.02989 0.998416
0.852188 0.947858 0.932636 0.964007
0.653758 0.795258 0.883357 0.930622
0.574749 0.727814 0.87346 0.904097
0.654835 0.797377 0.884418 0.928562
0.813362 0.883706 0.9577 0.961052
0.879567 0.908175 0.984579 0.983669
0.848886 0.911069 0.946078 0.984852
0.834669 0.917684 0.941903 0.965639
0.86926 0.955024 0.925075 0.983918
0.991662 1.00132 0.992124 0.998218
0.997084 0.999948 0.998123 0.999011
0.991128 1.00032 0.991379 0.999424
0.988541 0.985948 1.00568 0.996967
0.975573 0.98955 0.989501 0.996335
0.875535 0.966383 0.940875 0.962924
0.708323 0.824673 0.915473 0.938218
0.639661 0.77068 0.908142 0.91395
0.936418 0.960948 0.98008 0.99428
0.833585 0.923408 0.923158 0.977868
0.689031 0.818457 0.901571 0.933776
0.85331 0.946859 0.933089 0.965825
0.951488 0.977725 0.975922 0.997176
0.899324 0.985994 0.944202 0.966
0.879053 0.959293 0.934181 0.980918
0.95166 1.00211 0.953004 0.996484
0.917831 0.990292 0.937285 0.988843
0.98558 1.00217 0.986079 0.997334
0.978839 1.009 0.972937 0.997094
0.988044 1.04228 0.950394 0.997447
0.999805 1.00628 0.997202 0.996357
1.02732 1.05048 0.980862 0.997034
1.04209 1.07999 0.967382 0.997442
1.02834 1.04058 0.991947 0.996259
1.04867 1.07429 0.978977 0.997108
1.04133 1.07272 0.973299 0.997369
1.06135 1.07273 0.992876 0.996496
1.05325 1.07188 0.985466 0.997114
1.05278 1.07464 0.98239 0.997215
1.05574 1.07001 0.989553 0.997078
1.05757 1.06927 0.992203 0.996831
1.06395 1.07362 0.994188 0.996783
1.06291 1.06854 0.998259 0.99647
1.06375 1.06832 0.999485 0.996239
1.06742 1.07193 1 0.995793
1.07001 1.07451 1 0.995815
1.06939 1.07406 0.999826 0.995824
1.05644 1.06089 1 0.995807
1.06103 1.06572 1 0.995607
1.05982 1.06465 1 0.995463
1.01704 1.02035 1 0.996754
1.04016 1.04438 1 0.995963
1.04198 1.04649 1 0.995693
1.00055 1 1.00184 0.998715
1.00898 1.01113 1.00082 0.997065
1.02118 1.02501 1 0.996265
1 1 1 1
1.00235 1 1.0033 0.999053
1.00873 1.00566 1.00562 0.997449
1 1 1 1
1.00376 1 1.00441 0.999349
1 1 1 1
1.01826 1.02128 1.00073 0.996318
1.00508 1.00753 1.00032 0.997245
1.00272 1.00257 1.00283 0.99733
1.00253 1.00009 1.00493 0.997514
1.0055 1.00022 1.0077 0.997597
1.01014 1.00071 1.01128 0.998165
1.01424 1 1.01646 0.997809
1.01141 1 1.01297 0.998455
1.00381 1 1.00419 0.999618
1 1 1 1
1.00056 1 1.00079 0.999768
1.00504 1 1.00638 0.998672
1 1 1 1
0.999878 1 1 0.999878
1 1 1 1
0.890474 0.975019 0.943638 0.967838
0.697447 0.825377 0.903228 0.935538
0.623033 0.765055 0.899154 0.905701
1.02451 1.00084 1.02679 0.996941
1.00683 1.00554 1.00402 0.997272
1.01613 1.00305 1.01579 0.997297
1.00863 1.01015 1.0022 0.996299
1.02912 1.03315 1.00016 0.995938
1.00226 1.00634 0.999027 0.996918
1.02233 1.00229 1.02234 0.997712
1.0006 1.00754 0.996072 0.99702
0.97696 1.00258 0.975966 0.998442
0.996155 1.00363 0.995273 0.997269
0.972428 1.00345 0.971394 0.997623
0.992916 1.00156 0.994185 0.997168
0.970845 1.00082 0.972219 0.99777
0.987483 1.00029 0.988172 0.999009
0.883233 0.967205 0.928216 0.983802
0.861177 0.958568 0.932527 0.963402
0.667469 0.795911 0.894942 0.93707
0.80992 0.90672 0.931236 0.959199
0.861703 0.913619 0.956637 0.985928
0.872111 0.944971 0.933897 0.988223
0.964288 1.00377 0.963871 0.996678
0.988961 1.00036 0.990466 0.998122
0.996797 0.99938 0.998428 0.998987
0.97804 0.990453 0.990581 0.996857
0.909096 0.973123 0.948976 0.984434
0.888066 0.972908 0.941969 0.969029
0.698414 0.820311 0.912876 0.932659
0.949314 0.973067 0.978242 0.997289
0.882191 0.963928 0.931329 0.982687
0.898469 0.985052 0.94415 0.966058
0.946972 0.999832 0.950368 0.996595
0.921037 0.987235 0.944376 0.987897
0.952117 1.02544 0.931463 0.996817
0.966872 1.02238 0.950199 0.995275
0.972285 1.00885 0.966618 0.997041
0.985102 1.03948 0.950112 0.997447
1.00779 1.07804 0.937259 0.99741
1.03096 1.05273 0.982266 0.997001
1.04125 1.07935 0.967195 0.997418
1.04786 1.08077 0.972155 0.997318
1.04939 1.07475 0.979267 0.99708
1.04254 1.07246 0.974683 0.997349
1.05762 1.0822 0.980058 0.997174
1.05324 1.07167 0.985666 0.997092
1.05129 1.07242 0.983046 0.997208
1.0573 1.07529 0.986292 0.996938
1.05436 1.06963 0.988557 0.997135
1.05711 1.06911 0.991874 0.996877
1.06246 1.07 0.996445 0.996497
1.06306 1.0686 0.998349 0.996462
1.06435 1.06879 0.999611 0.996228
1.06668 1.07097 0.999935 0.996057
1.06087 1.06531 1 0.995826
1.06773 1.07227 1 0.995772
1.06981 1.07432 1 0.995802
1.03239 1.03596 1 0.996551
1.05526 1.0597 1 0.995814
1.06232 1.06702 1 0.995602
1.00024 1.00155 1.00027 0.998425
1.01841 1.02172 1.00001 0.996754
1.03878 1.04299 1 0.995965
1 1 1 1
1.00038 1.00035 1.00134 0.998694
1.01261 1.01448 1.0011 0.997067
1 1 1 1
1.00204 1 1.00301 0.999028
1 1 1 1
1.03527 1.03946 1 0.995964
1.01987 1.02313 1.00047 0.996349
1.0163 1.0187 1.00097 0.996678
1.00664 1.00886 1.00057 0.997233
1.00303 1.0032 1.00257 0.997264
1.00848 1.00494 1.00576 0.997776
1.00405 1 1.00651 0.997558
1.01008 1.00046 1.01146 0.998167
1.00469 1 1.00526 0.999436
1.01086 1 1.01242 0.998453
1.00259 1 1.00296 0.999629
1 1 1 1
1 1 1 1
1.00009 1 1.00031 0.999784
1 1 1 1
0.902334 0.967621 0.946797 0.984929
0.879333 0.971767 0.940455 0.962174
0.699219 0.818363 0.909931 0.938985
1.05169 1.05595 1.00007 0.995902
1.01222 1.00219 1.01287 0.997178
1.00953 1.01113 1.00202 0.996403
1.00287 1.00669 0.999274 0.996931
1.02752 1.03129 1.00042 0.995919
1.01338 1.01697 0.999565 0.996905
1.00199 1.00767 0.997529 0.996825
0.982213 1.00275 0.981065 0.998423
0.994528 1.00442 0.992854 0.997282
0.965608 1.00246 0.965679 0.997474
1.01703 1.01965 1.00088 0.99655
0.987416 1.00753 0.982743 0.99725
0.991541 1.00217 0.992222 0.997148
0.972944 1.00134 0.97372 0.99787
0.955659 1.00585 0.952726 0.997246
0.874165 0.960839 0.926262 0.98222
0.858026 0.960239 0.92779 0.9631
0.871235 0.938259 0.941949 0.985793
0.9672 1.00431 0.965242 0.997732
0.989043 1.0001 0.990915 0.998014
0.969548 1.00892 0.966517 0.994263
0.898723 0.956878 0.952739 0.985815
0.876233 0.971931 0.936104 0.963076
0.947539 0.997815 0.952757 0.996701
0.92871 0.989453 0.951217 0.986746
0.955456 1.02731 0.932864 0.996994
0.972685 1.02303 0.95496 0.995634
0.990786 1.053 0.943564 0.997196
1.05655 1.09581 0.96698 0.997094
0.981141 1.03597 0.949497 0.997445
1.01434 1.07965 0.941966 0.997392
1.04013 1.09615 0.951583 0.997169
1.03987 1.07823 0.966947 0.997394
1.04401 1.07848 0.970635 0.997315
1.05887 1.09094 0.973473 0.997055
1.04344 1.07198 0.975983 0.997329
1.05518 1.08031 0.9795 0.997188
1.06114 1.0807 0.984967 0.996888
1.04973 1.07011 0.98371 0.997202
1.05765 1.07561 0.98632 0.996936
1.0621 1.07453 0.991778 0.996625
1.05655 1.06884 0.99155 0.996923
1.06272 1.07033 0.99633 0.996543
1.06875 1.07321 0.99963 0.996211
1.06497 1.06927 0.999754 0.996218
1.06653 1.0708 0.999963 0.99605
1.06272 1.06708 1 0.995917
1.04015 1.04384 1 0.996464
1.06075 1.0652 1 0.995824
1.06807 1.07262 1 0.995751
1.00617 1.00789 1 0.998294
1.03096 1.03453 1 0.996551
1.05425 1.05868 1 0.995821
1 1 1 1
1.00194 1.00343 1.0001 0.99841
1.01967 1.02299 1 0.996754
1 1 1 1
1.00005 1.00067 1.00071 0.998673
1 1 1 1
1.05111 1.05557 1 0.995772
1.03589 1.04009 1 0.995957
1.03625 1.04015 1 0.996246
1.02143 1.0249 1.00024 0.996381
1.01896 1.0215 1.00086 0.996653
1.01361 1.01357 1.00265 0.997397
1.00281 1.00332 1.0023 0.997198
1.00706 1.00282 1.00646 0.99778
1.00255 1 1.00334 0.999211
1.01053 1.00001 1.01237 0.998166
1.00413 1 1.00468 0.99945
1 1 1 1
1.00191 1 1.00227 0.999641
1 1 1 1
1 1 1 1
0.962428 1.01057 0.955463 0.996758
0.895364 0.966716 0.943424 0.981734
0.878891 0.968154 0.937627 0.968189
1.04554 1.04923 1.00001 0.996468
1.06187 1.06724 0.998825 0.99614
1.05007 1.05421 1.00008 0.995993
1.00355 1.00734 0.999296 0.996942
1.02547 1.02893 1.00073 0.995899
1.01626 1.02065 0.998792 0.996895
1.04093 1.05256 0.992447 0.996477
0.993943 1.00594 0.990756 0.997297
0.961046 1.00189 0.961807 0.997325
1.01891 1.02273 0.999575 0.996683
1.02577 1.05061 0.979835 0.996448
0.989381 1.02932 0.963702 0.997401
0.995392 1.01039 0.987941 0.997185
0.992923 1.0027 0.993101 0.997127
0.957308 1.0073 0.952671 0.997587
0.880859 0.965128 0.930752 0.98059
0.967424 1.0038 0.964893 0.998824
1.03669 1.07212 0.969237 0.997646
0.966846 1.00745 0.96508 0.994419
0.901814 0.965228 0.950098 0.983374
0.958461 1.02961 0.933545 0.997159
0.977301 1.02331 0.95886 0.996015
0.984846 1.05327 0.937491 0.997386
1.05345 1.09486 0.964952 0.99712
1.0526 1.10752 0.95317 0.997113
1.09663 1.13327 0.970314 0.99727
1.02106 1.08231 0.945895 0.997373
1.04646 1.09895 0.954938 0.997169
1.0607 1.10051 0.966751 0.996974
1.04018 1.07632 0.969034 0.997312
1.05881 1.09026 0.974022 0.997056
1.06049 1.08574 0.979828 0.996857
1.05277 1.07844 0.97894 0.997201
1.06203 1.08154 0.985029 0.996884
1.06361 1.0786 0.989431 0.996637
1.05802 1.07597 0.986344 0.996933
1.06278 1.07519 0.991807 0.996623
1.07121 1.07741 0.997946 0.996288
1.06295 1.07066 0.996196 0.99659
1.06833 1.07283 0.999573 0.996224
1.06702 1.07135 1 0.995961
1.06638 1.07062 1 0.996043
1.0625 1.06685 1 0.995925
1.04069 1.04442 1 0.996434
1.01158 1.01332 1 0.99828
1.03965 1.04334 1 0.996465
1.06059 1.06504 1 0.995822
1 1 1 1
1.00768 1.00942 1 0.998283
1.02929 1.03286 1 0.996551
1 1 1 1
1.00346 1.00508 1 0.998394
1 1 1 1
1.06141 1.0658 1 0.995877
1.05043 1.05488 1 0.995782
1.05067 1.05488 1 0.996001
1.03563 1.03985 1 0.995948
1.037 1.04091 1 0.996248
1.02006 1.02263 1.00042 0.997065
1.02129 1.02393 1.0008 0.996629
1.01049 1.01029 1.00281 0.9974
1.00054 1.00012 1.00152 0.998902
1.00624 1.00117 1.0073 0.997785
1.00307 1 1.00385 0.99923
1 1 1 1
1.00355 1 1.00409 0.999463
1 1 1 1
1 1 1 1
0.996071 1.05236 0.948629 0.997764
0.959649 1.0093 0.954969 0.995641
0.897696 0.969038 0.942836 0.982545
1.05564 1.06404 0.99571 0.996382
1.04574 1.04938 0.999844 0.996686
1.07263 1.08151 0.995477 0.996299
1.06165 1.06785 0.998069 0.99612
1.04825 1.05234 1.00003 0.996085
1.06368 1.08543 0.983611 0.996286
1.01917 1.02448 0.997927 0.996885
1.03984 1.05072 0.993206 0.996415
1.04892 1.09116 0.964573 0.996597
1.01656 1.02551 0.994438 0.996816
1.0269 1.05147 0.980194 0.996362
0.988754 1.03387 0.958816 0.997444
1.00015 1.01143 0.991701 0.997116
0.959059 1.00829 0.953188 0.997882
1.08393 1.12424 0.966753 0.997305
1.04266 1.07439 0.97273 0.997672
0.965851 1.00614 0.96519 0.99458
0.979679 1.05307 0.932573 0.997573
1.05088 1.09416 0.963189 0.997148
1.04674 1.1047 0.950252 0.997136
1.10242 1.13809 0.971311 0.997266
1.07862 1.11552 0.969682 0.997152
1.05251 1.10125 0.958459 0.99717
1.06163 1.09957 0.968417 0.996984
1.06086 1.08993 0.976356 0.996902
1.05878 1.08955 0.974626 0.997057
1.06106 1.08589 0.980228 0.996838
1.06297 1.08022 0.98736 0.99663
1.06294 1.08239 0.985099 0.996881
1.06394 1.07893 0.989441 0.996633
1.07257 1.08165 0.995249 0.99634
1.06345 1.07583 0.991837 0.99662
1.07094 1.07716 0.997929 0.996288
1.0723 1.07662 1 0.995993
1.06794 1.0725 0.999508 0.996236
1.06659 1.07091 1 0.995968
1.04134 1.0451 1 0.996394
1.06221 1.06654 1 0.995934
1.04142 1.04515 1 0.996435
1.0126 1.014 1 0.998612
0.999414 1 1 0.999414
1.01198 1.01358 1 0.998419
1.03914 1.04283 1 0.996466
1 1 1 1
1.00954 1.01129 1 0.998271
1 1 1 1
1.0753 1.08364 0.995869 0.996415
1.06713 1.07194 0.999395 0.996121
1.06178 1.06637 0.999795 0.9959
1.05456 1.05886 1 0.995939
1.05064 1.05507 1 0.995792
1.05024 1.05447 1 0.995993
1.02373 1.02704 1 0.996777
1.03819 1.04209 1 0.99625
1.01784 1.02024 1.00059 0.997064
1.00132 1.00265 1.00012 0.998552
1.00696 1.00674 1.00282 0.997402
1.00106 1.00016 1.00198 0.998921
1 1 1 1
1.0033 1 1.00405 0.999249
1 1 1 1
1 1 1 1
1.07078 1.11744 0.961085 0.997045
1.00515 1.06263 0.948013 0.997775
0.956761 1.00956 0.952898 0.994548
1.06595 1.08219 0.988607 0.99634
1.05125 1.06005 0.99526 0.996426
1.04593 1.04947 0.999732 0.996903
1.07125 1.07938 0.996137 0.996313
1.06155 1.06844 0.997436 0.996101
1.06931 1.10439 0.97156 0.996576
1.05886 1.08121 0.983021 0.996244
1.03916 1.04918 0.994073 0.996352
1.04456 1.08651 0.964677 0.996597
1.03256 1.05523 0.98218 0.996275
0.991441 1.04306 0.952893 0.997497
1.07497 1.10653 0.974146 0.997259
1.08532 1.12559 0.966792 0.997343
1.04766 1.07679 0.97519 0.997698
1.04138 1.10241 0.947332 0.997155
1.10832 1.14295 0.972365 0.997262
1.07982 1.11743 0.9691 0.997156
1.06778 1.09102 0.981629 0.997023
1.06248 1.09859 0.970052 0.996995
1.06149 1.08979 0.977075 0.996886
1.06391 1.08136 0.987148 0.996678
1.06165 1.08609 0.980617 0.996818
1.06358 1.08081 0.987388 0.996629
1.07232 1.08356 0.993238 0.996369
1.06432 1.0793 0.989451 0.996628
1.07219 1.08127 0.995242 0.996339
1.07541 1.07989 0.99984 0.996013
1.07066 1.0769 0.997907 0.996289
1.07244 1.07675 1 0.995997
1.04235 1.04619 1 0.996329
1.06615 1.07046 1 0.995975
1.04276 1.04653 1 0.996396
1.01143 1.01282 1 0.998632
1.04232 1.04605 1 0.996435
1.01229 1.0137 1 0.998606
0.999446 1 1 0.999446
0.999722 1 1 0.999722
1.01243 1.01388 1 0.998571
1 1 1 1
1.0665 1.08074 0.990358 0.996432
1.07008 1.07544 0.998782 0.996225
1.0732 1.08217 0.99515 0.996546
1.06323 1.06753 1 0.995971
1.06952 1.07414 0.999585 0.996112
1.06198 1.06687 0.999497 0.995923
1.0551 1.05941 1 0.995928
1.03479 1.03833 1 0.996586
1.05026 1.05449 1 0.995985
1.02633 1.02965 1 0.996778
1.00738 1.00905 1 0.998346
1.01614 1.0186 1.00052 0.997065
1.00097 1.00185 1.00054 0.998575
1 1 1 1
1.00149 1 1.00255 0.998942
1 1 1 1
1 1 1 1
1.06848 1.10228 0.972323 0.996931
1.06293 1.10862 0.961628 0.997046
1.01245 1.06966 0.948623 0.997778
1.06629 1.09031 0.981395 0.996509
1.06322 1.07967 0.988392 0.996336
1.04672 1.05594 0.994783 0.996472
1.06961 1.07715 0.996662 0.996327
1.06844 1.10273 0.972256 0.996551
1.05337 1.07621 0.982512 0.996202
1.0353 1.07617 0.965307 0.996597
1.07115 1.09328 0.982612 0.997089
1.07374 1.10485 0.974551 0.997217
1.08648 1.12652 0.966991 0.997381
1.06667 1.08443 0.986655 0.996929
1.08084 1.11929 0.968398 0.99716
1.06746 1.09079 0.981545 0.997009
1.06582 1.08179 0.988414 0.996792
1.06214 1.08962 0.977837 0.99687
1.06413 1.0816 0.987124 0.996681
1.07202 1.08315 0.993301 0.996398
1.06415 1.08136 0.987419 0.996628
1.0721 1.0833 0.993266 0.996369
1.0764 1.08128 0.999444 0.996039
1.07171 1.0808 0.995238 0.996337
1.07615 1.08065 0.999813 0.996016
1.04134 1.04524 1 0.996267
1.07255 1.07686 1 0.996002
1.04356 1.0474 1 0.996332
1.00949 1.0109 1 0.998606
1.04421 1.04799 1 0.996397
1.01086 1.01226 1 0.998618
0.999447 1 1 0.999447
1.01191 1.01332 1 0.998603
0.999461 1 1 0.999461
1 1 1 1
1.06463 1.08063 0.988807 0.996342
1.07111 1.07965 0.995835 0.996237
1.0684 1.0821 0.990873 0.99643
1.07113 1.07538 1 0.996045
1.07083 1.07703 0.997956 0.996277
1.07133 1.08082 0.994522 0.996676
1.04508 1.04878 1 0.996473
1.06334 1.06765 1 0.995959
1.07199 1.07637 0.999823 0.996104
1.05557 1.05989 1 0.995917
1.03555 1.0391 1 0.996586
1.0129 1.01463 1 0.998296
1.02762 1.03094 1 0.996779
1.0052 1.00685 1 0.998363
1 1 1 1
1.00052 1.001 1.00093 0.998595
1 1 1 1
1 1 1 1
1.06703 1.08958 0.98243 0.996817
1.06914 1.10352 0.971843 0.996908
1.05798 1.10332 0.961747 0.997048
1.06597 1.08991 0.981445 0.996526
1.06038 1.07701 0.988184 0.996332
1.06889 1.10254 0.972865 0.996526
1.06873 1.08587 0.987245 0.996927
1.07111 1.09314 0.982711 0.997084
1.07246 1.10315 0.974941 0.997174
1.06697 1.08445 0.986887 0.99695
1.06459 1.07834 0.990469 0.996753
1.06709 1.09056 0.981431 0.996994
1.06629 1.08174 0.988926 0.996754
1.0712 1.08191 0.993583 0.996491
1.06438 1.08188 0.987101 0.996684
1.07186 1.083 0.993291 0.996401
1.07607 1.08123 0.999163 0.996058
1.07198 1.08316 0.993287 0.996368
1.07681 1.08178 0.99937 0.99604
1.0388 1.04272 1 0.996235
1.077 1.08154 0.999785 0.996019
1.04194 1.04584 1 0.99627
1.00696 1.00842 1 0.998552
1.04481 1.04866 1 0.996335
1.00873 1.01016 1 0.998585
0.999421 1 1 0.999421
1.01028 1.01169 1 0.998607
0.999475 1 1 0.999475
0.999469 1 1 0.999469
1.06627 1.08202 0.988796 0.996609
1.07218 1.08208 0.994631 0.996194
1.06428 1.08154 0.987637 0.996367
1.07514 1.08012 0.999321 0.996072
1.07117 1.07925 0.996279 0.996222
1.07018 1.08339 0.991354 0.996428
1.04648 1.05026 1 0.996404
1.07073 1.07531 0.999695 0.996048
1.07153 1.07865 0.997058 0.996329
1.01337 1.01509 1 0.998309
1.04395 1.04765 1 0.996473
1.06357 1.0679 1 0.995947
1.03654 1.04009 1 0.996586
1.01152 1.01324 1 0.998307
1 1 1 1
1.00351 1.00514 1 0.99838
1 1 1 1
1 1 1 1
1.0659 1.08267 0.987652 0.996817
1.06736 1.08976 0.982581 0.996806
1.06911 1.10403 0.971392 0.996886
1.06587 1.08966 0.981563 0.996543
1.06575 1.07723 0.992605 0.996711
1.06876 1.08604 0.987117 0.996938
1.07115 1.09303 0.982853 0.997078
1.0673 1.08448 0.987145 0.996971
1.06473 1.07879 0.99017 0.996763
1.07207 1.08144 0.994842 0.996473
1.06677 1.08168 0.989465 0.996716
1.07209 1.08211 0.994283 0.996438
1.07435 1.08012 0.998517 0.996136
1.07172 1.08287 0.993283 0.996403
1.07573 1.08097 0.999091 0.99606
1.03645 1.04038 1 0.996215
1.07697 1.08201 0.999298 0.996042
1.03904 1.04297 1 0.996236
1.00428 1.00608 1 0.998212
1.04241 1.04631 1 0.996273
1.00608 1.0077 1 0.998394
1 1 1 1
1.00795 1.0094 1 0.998567
0.999455 1 1 0.999455
0.999494 1 1 0.999494
1.0657 1.07848 0.991411 0.99671
1.07191 1.0823 0.994042 0.996334
1.06666 1.08151 0.989637 0.996601
1.07501 1.08048 0.998909 0.99602
1.07168 1.08168 0.994541 0.996194
1.06401 1.0825 0.986476 0.996393
1.04356 1.04744 1 0.996299
1.07488 1.07983 0.999342 0.996073
1.07131 1.07887 0.996773 0.996207
1.01042 1.01211 1 0.998328
1.04494 1.04874 1 0.99638
1.07007 1.0749 0.999451 0.99605
1 1 1 1
1.01372 1.01543 1 0.998319
1.04272 1.04641 1 0.996473
1.01003 1.01173 1 0.998319
1 1 1 1
1 1 1 1
1.06451 1.07555 0.992997 0.996716
1.06651 1.0829 0.988004 0.996823
1.06752 1.08982 0.982685 0.996795
1.07303 1.08118 0.996031 0.996412
1.06501 1.07696 0.992155 0.996722
1.06879 1.08621 0.986966 0.99695
1.06482 1.07925 0.989831 0.996773
1.07193 1.0814 0.99475 0.996473
1.07364 1.07921 0.998681 0.996151
1.0729 1.08223 0.994973 0.996385
1.07451 1.07998 0.998831 0.996101
1.03438 1.03832 1 0.996204
1.07547 1.08078 0.999017 0.996062
1.03681 1.04075 1 0.996216
1.00251 1.00432 1 0.998197
1.03952 1.04345 1 0.996238
1.00377 1.00557 1 0.998211
1 1 1 1
1.00523 1.00703 1 0.99821
0.999701 1 1 0.999701
0.999484 1 1 0.999484
1.0626 1.07367 0.992993 0.996675
1.07308 1.08134 0.995935 0.996418
1.06528 1.07788 0.991568 0.996718
1.07472 1.07962 0.999445 0.996015
1.07263 1.08279 0.994274 0.996321
1.06697 1.08091 0.990478 0.996594
1.03927 1.04319 1 0.996235
1.07496 1.07997 0.999348 0.996007
1.07118 1.08129 0.994439 0.996195
1.00705 1.00876 1 0.998305
1.0428 1.04668 1 0.996289
1.07454 1.07952 0.999307 0.996073
1 1 1 1
1.01145 1.01313 1 0.998337
1.0437 1.04752 1 0.996356
1 1 1 1
1.0141 1.0158 1 0.99833
1 1 1 1
1.0734 1.08116 0.996361 0.996449
1.06394 1.07504 0.99295 0.996702
1.06709 1.08306 0.988395 0.996829
1.07317 1.07856 0.998857 0.996145
1.07253 1.08104 0.995682 0.996432
1.06427 1.0767 0.991704 0.996732
1.07181 1.08136 0.99467 0.996474
1.07316 1.07878 0.99863 0.996152
1.03195 1.03587 1 0.996213
1.07471 1.07989 0.99914 0.996066
1.03493 1.03887 1 0.996199
1.00102 1.00285 1 0.998174
1.03706 1.041 1 0.996217
1.00202 1.00383 1 0.998195
1 1 1 1
1.00316 1.00496 1 0.998208
1 1 1 1
0.999456 1 1 0.999456
1.07362 1.08116 0.996593 0.996423
1.06183 1.07366 0.992263 0.996692
1.07426 1.07896 0.999569 0.996072
1.07346 1.08176 0.995896 0.996417
1.06491 1.07734 0.991706 0.996726
1.03628 1.0402 1 0.996235
1.07468 1.07947 0.999549 0.996011
1.07345 1.08336 0.994526 0.996307
1.00426 1.00602 1 0.998251
1.03911 1.04303 1 0.996236
1.07488 1.07944 0.999785 0.995994
1 1 1 1
1.00797 1.00968 1 0.998311
1.04209 1.04598 1 0.996279
1 1 1 1
1.01243 1.01411 1 0.998345
1 1 1 1
1.07329 1.0784 0.999097 0.996162
1.07344 1.08104 0.996521 0.996438
1.06337 1.07453 0.992905 0.996688
1.03007 1.03396 1 0.996232
1.07277 1.07819 0.998826 0.996146
1.07201 1.08087 0.995342 0.996451
1.07268 1.07835 0.998588 0.996152
1.03255 1.03648 1 0.996209
0.99986 1.00169 1 0.998173
1.03547 1.03942 1 0.996195
1.00065 1.00248 1 0.998173
1 1 1 1
1.00155 1.00337 1 0.998193
1 1 1 1
1 1 1 1
1.0745 1.07902 0.999703 0.996104
1.07312 1.08111 0.996119 0.996473
1.0611 1.0737 0.991535 0.996709
1.03376 1.03764 1 0.996255
1.07436 1.07899 0.999636 0.996069
1.07378 1.08213 0.995853 0.996416
1.00185 1.00365 1 0.998212
1.03578 1.0397 1 0.996232
1.07457 1.07925 0.999654 0.996008
1 1 1 1
1.00499 1.00675 1 0.998254
1.03895 1.04287 1 0.996238
1 1 1 1
1.00886 1.01056 1 0.998316
1 1 1 1
1.02984 1.03371 1 0.996251
1.07289 1.07808 0.999023 0.996158
1.0735 1.08095 0.996671 0.996427
0.998986 1.00078 1 0.998209
1.03051 1.03441 1 0.996229
1.07238 1.07783 0.998786 0.996147
1.03317 1.0371 1 0.996206
0.999566 1.0014 1 0.998174
1 1 1 1
1.0003 1.00213 1 0.998171
1 1 1 1
1 1 1 1
1.03113 1.035 1 0.996265
1.0738 1.07858 0.999433 0.996135
1.07257 1.08102 0.995648 0.996523
1.00012 1.0016 1 0.998528
1.03318 1.03706 1 0.996254
1.07439 1.07895 0.999705 0.996066
1 1 1 1
1.00252 1.00431 1 0.998213
1.03535 1.03927 1 0.996229
1 1 1 1
1.00571 1.00746 1 0.998257
1 1 1 1
0.998523 1.00033 1 0.99819
1.03001 1.03389 1 0.99625
1.07252 1.07779 0.998954 0.996153
1 1 1 1
0.998805 1.0006 1 0.998207
1.03096 1.03486 1 0.996226
0.999248 1.00108 1 0.998173
1 1 1 1
1 1 1 1
0.999015 1.00051 1 0.998507
1.03122 1.03509 1 0.996266
1.07322 1.07825 0.999161 0.996167
1 1 1 1
1.00045 1.00224 1 0.998211
1.0328 1.03669 1 0.996253
1 1 1 1
1.00315 1.00494 1 0.998214
1 1 1 1
0.99945 1 1 0.99945
0.998686 1.00032 1 0.998369
1.0301 1.03398 1 0.996248
1 1 1 1
0.998618 1.00041 1 0.998209
1 1 1 1
0.999457 1 1 0.999457
0.999159 1.00079 1 0.998368
1.03116 1.03502 1 0.996266
0.999721 1 1 0.999721
1.00099 1.00278 1 0.998213
1 1 1 1
1 1 1 1
0.998592 1.00036 1 0.998231
1 1 1 1
0.999729 1 1 0.999729
0.99937 1.00114 1 0.998231
1 1 1 1
1 1 1 1
1 1 1 1

VECTORS lamdaE float
1.00244 0.999947 0.992592
1.00197 1.00077 0.996252
1.00189 1.00014 0.992996
1.00225 1.00014 0.992598
1.00243 0.999921 0.99263
1.00246 1.00013 0.99242
1.00336 1.00074 0.98969
1.00205 1.00082 0.996171
1.00167 1.00005 0.996935
1.00125 1.00084 0.996945
1.00171 1.00126 0.992005
1.0034 1.00147 0.987618
1.00168 0.99996 0.993387
1.00138 1.00007 0.993605
1.00138 1.00036 0.993372
1.00184 1.00014 0.993031
1.0018 1.00051 0.992796
1.00196 0.999977 0.993045
1.00361 1.00063 0.989472
1.00173 1.00002 0.996523
1.00211 1.00017 0.992708
1.00234 1.00002 0.992627
1.00334 1.00029 0.990227
1.0034 1.00044 0.989938
1.00238 1.00043 0.992185
1.0033 1.00125 0.989237
1.00531 1.0014 0.98526
1.00211 1.00084 0.996079
1.00194 0.999937 0.994913
1.00164 1.00052 0.994868
1.00204 1.00116 0.996028
1.00335 1.00158 0.987591
1.00215 0.999794 0.992872
1.0021 0.999948 0.992877
1.00374 1.00033 0.990121
1.00053 1.00223 0.996945
1.00362 1.00096 0.989789
1.00343 1.00217 0.986897
1.00526 1.00254 0.983643
1.00068 1.00065 0.997189
1.00172 0.99998 0.996531
1.00166 1.00003 0.995014
1.00163 0.999959 0.996596
1.0012 1.00006 0.993818
1.00338 0.999874 0.989482
1.00158 0.999979 0.996911
1.00372 1.00018 0.990357
1.00145 1.00009 0.993463
1.00151 1.00002 0.993447
1.00122 1.00088 0.993153
1.00385 1.00051 0.989269
1.00151 1.00004 0.995134
1.0017 1.00021 0.993142
1.0018 1.00088 0.992502
1.00192 1.00001 0.99305
1.00354 1.00024 0.989996
1.0036 1.00108 0.989025
1.00363 1.00037 0.989715
1.00532 1.00137 0.985363
1.00163 0.999995 0.996577
1.00195 1.0001 0.992979
1.00311 0.999948 0.991302
1.00327 1.00021 0.99039
1.00337 1.00032 0.990115
1.00523 0.999899 0.986953
1.00532 1.00027 0.986322
1.00244 1.00077 0.991693
1.00321 1.00221 0.988387
1.00532 1.00219 0.984372
1.00531 0.999366 0.98658
1.00232 0.999926 0.996342
1.00191 1.00114 0.996184
1.00207 1.00046 0.996294
1.00331 1.00165 0.987565
1.00222 0.999884 0.996321
1.00223 1.00006 0.996359
1.00359 1.0003 0.988555
1.00083 1.00166 0.994786
1.00341 1.0009 0.988212
1.00332 1.00243 0.988031
1.00529 1.00243 0.983621
1.00104 1.00104 0.996768
1.00118 1.00286 0.990073
1.00369 1.00022 0.988551
1.0037 1.00035 0.988397
1.00534 1.0003 0.985828
1.00261 1.0032 0.989551
1.00535 1.00153 0.984494
1.00449 1.00361 0.983534
1.0054 1.00153 0.984193
1.00041 0.999971 0.997614
1.0005 1.00046 0.997356
1.00203 0.999984 0.996345
1.00178 0.999979 0.9965
1.00168 0.999965 0.996589
1.00152 0.999994 0.995163
1.00341 0.999873 0.990218
1.00183 0.999978 0.994923
1.00359 1.00019 0.989637
1.00165 0.999971 0.996609
1.00322 0.999734 0.989796
1.00362 1.00005 0.990636
1.00537 0.998493 0.987762
1.00369 1.00021 0.990295
1.00532 0.998988 0.987329
1.00169 0.999956 0.993392
1.00128 1.00023 0.993579
1.00119 1.0013 0.992805
1.00151 0.999974 0.99347
1.00374 1.00022 0.989767
1.00384 1.00033 0.9895
1.00386 1.00095 0.988822
1.00533 1.00133 0.985462
1.00168 0.999973 0.996592
1.00156 1.00009 0.993406
1.00333 0.999845 0.990128
1.00347 1.00018 0.990159
1.00211 1.00137 0.993796
1.00353 1.00198 0.98861
1.00358 1.00028 0.989887
1.00524 0.999619 0.987275
1.00532 1.00219 0.984502
1.00532 1.00054 0.986142
1.0053 0.999383 0.986599
1.00322 0.999772 0.98977
1.00318 0.999993 0.99069
1.00534 0.998271 0.988585
1.00526 0.999017 0.987906
1.00529 0.999703 0.987073
1.00533 0.996742 0.989531
1.00131 1.00151 0.996444
1.00533 0.998263 0.987611
1.00311 1.00315 0.986397
1.00532 1.00312 0.982727
1.00529 1.00053 0.985509
1.00528 0.99654 0.989224
1.00175 1.00353 0.988311
1.00332 1.00431 0.985456
1.00228 0.999889 0.996323
1.00225 1.00012 0.996346
1.00359 1.0003 0.988533
1.00118 1.00129 0.996664
1.00279 1.00271 0.987208
1.00346 1.00081 0.988199
1.00536 1.00234 0.983591
1.00087 1.00106 0.996941
1.00121 1.00299 0.990073
1.00371 1.00027 0.989359
1.00373 1.00042 0.989171
1.00533 1.00033 0.985792
1.00203 1.0033 0.988002
1.00535 1.00155 0.984459
1.0048 1.00327 0.983505
1.00537 1.00131 0.984471
1.00161 1.00308 0.9891
1.00087 1.0025 0.991145
1.0025 1.0037 0.98698
1.00529 0.999791 0.986466
1.00536 1.00089 0.985174
1.00533 0.997852 0.988167
1.00359 1.00379 0.984752
1.00531 0.999704 0.986309
1.00536 1.00307 0.983014
1.00539 0.999212 0.986217
1.00025 0.999335 0.998043
1.00026 0.999881 0.997799
1.00035 1.00039 0.997534
1.00154 1.0032 0.989162
1.00081 1.00123 0.996869
1.00218 0.999927 0.996315
1.00188 0.999987 0.996412
1.00339 1.00024 0.98897
1.00324 0.999881 0.989578
1.00166 0.999962 0.996574
1.00162 0.999961 0.996608
1.0032 0.999748 0.989793
1.00349 1.00004 0.989922
1.00536 0.998501 0.987771
1.00352 1.00028 0.988752
1.0053 0.999003 0.987321
1.00318 0.999709 0.989858
1.00537 0.998406 0.98785
1.00536 0.998673 0.987586
1.00527 0.995189 0.991453
1.00527 0.999368 0.98698
1.00522 0.995593 0.990952
1.00164 0.999971 0.996598
1.00112 1.00017 0.993833
1.00336 0.999807 0.989124
1.00367 1.00015 0.989926
1.00119 1.00215 0.99646
1.00387 1.00146 0.98884
1.00379 1.00025 0.989662
1.00525 0.999329 0.987598
1.00532 1.00078 0.985958
1.00532 1.00214 0.984636
1.00529 0.999401 0.986618
1.0032 0.999765 0.989773
1.00336 1.00002 0.990462
1.00535 0.998194 0.988399
1.00527 0.999297 0.987556
1.00155 1.00152 0.99627
1.00316 1.00291 0.987525
1.00516 1.00342 0.983152
1.00529 0.999766 0.987025
1.0053 0.996403 0.989918
1.00529 1.00042 0.985595
1.00533 0.998508 0.987489
1.00528 0.996598 0.989212
1.00186 1.00338 0.988304
1.00322 1.00421 0.985375
1.00535 0.998529 0.98775
1.00533 0.998617 0.988252
1.00531 0.995944 0.990498
1.00531 0.995768 0.990641
1.00534 0.997449 0.988556
1.00532 0.99508 0.991014
1.00242 1.00348 0.987193
1.00529 0.995515 0.990325
1.00503 1.00407 0.982705
1.00534 1.00165 0.984054
1.0053 0.998304 0.987576
1.00525 0.995418 0.990483
1.00375 1.0045 0.984163
1.003 1.00387 0.986739
1.00446 1.004 0.983995
1.00355 1.00029 0.988628
1.00061 1.00092 0.997099
1.00106 1.00305 0.99008
1.00356 1.00041 0.988428
1.00533 1.00034 0.985758
1.00207 1.00333 0.987966
1.00504 1.00302 0.983477
1.00534 1.00157 0.984423
1.00535 1.00107 0.98475
1.00147 1.00323 0.989123
1.00066 1.00261 0.991142
1.00245 1.00415 0.986974
1.00529 0.999813 0.986429
1.00534 1.00091 0.985139
1.00533 0.997827 0.988166
1.0039 1.0035 0.984714
1.00532 0.999825 0.986193
1.00539 1.00305 0.982924
1.00539 0.998811 0.986532
1.00054 1.00194 0.992077
1.00315 1.004 0.985979
1.00191 1.00446 0.987369
1.00283 1.00155 0.98774
1.00534 0.996845 0.989249
1.00532 0.998879 0.98708
1.0053 0.995533 0.990234
1.00494 1.00407 0.98259
1.00532 0.997049 0.988807
1.0053 1.00126 0.984847
1.00547 0.997419 0.98789
1.00032 1.00373 0.990839
1.00029 1.00102 0.993482
1.00022 0.998777 0.99827
1.00019 0.999223 0.998134
1.00016 0.999724 0.997959
1.00119 1.00313 0.989904
1.00067 1.00095 0.997075
1.00159 1.00317 0.98909
1.00101 1.00135 0.996718
1.00348 1.00031 0.988754
1.00334 1.00003 0.989275
1.00528 0.999017 0.987319
1.00534 0.998513 0.98778
1.00321 0.999765 0.989796
1.00168 0.999946 0.996605
1.0032 0.999704 0.989863
1.00536 0.998414 0.987858
1.00534 0.998692 0.987592
1.00528 0.995149 0.991454
1.00527 0.999385 0.986954
1.00526 0.995525 0.990951
1.00536 0.998422 0.987843
1.0053 0.995149 0.991478
1.00524 0.995319 0.991301
1.0051 0.99497 0.991785
1.00528 0.996062 0.990255
1.00522 0.994922 0.991471
1.00321 0.999764 0.989783
1.00357 0.999986 0.990233
1.00536 0.998092 0.988222
1.00529 0.999567 0.987205
1.00175 1.00162 0.996082
1.0035 1.00281 0.988388
1.00496 1.00349 0.983567
1.00529 0.999816 0.986977
1.00529 0.996066 0.990303
1.00533 0.998754 0.987369
1.0053 1.00032 0.985681
1.00528 0.996658 0.9892
1.00196 1.00328 0.988299
1.00307 1.004 0.985298
1.00536 0.998219 0.988087
1.00534 0.998589 0.988249
1.0053 0.99594 0.990519
1.00529 0.996111 0.990261
1.00244 1.00348 0.987164
1.0047 1.00402 0.98273
1.00537 1.00187 0.983828
1.00534 0.997587 0.988481
1.00533 0.995002 0.991052
1.0053 0.998058 0.987854
1.00528 0.99556 0.99029
1.00526 0.995409 0.990361
1.00372 1.00457 0.984139
1.00406 1.00392 0.98396
1.00243 1.004 0.986777
1.00533 0.995827 0.990636
1.0053 0.996113 0.990296
1.0051 0.994964 0.991781
1.00526 0.994934 0.991326
1.0053 0.995021 0.990826
1.00529 0.994907 0.99099
1.0044 1.00404 0.983412
1.00526 0.994887 0.990837
1.00539 1.00345 0.982346
1.00536 0.999682 0.985825
1.00527 0.996772 0.989101
1.00529 0.995242 0.990496
1.0019 1.00513 0.986746
1.00512 1.00468 0.982139
1.00303 1.00256 0.986357
1.00514 1.00392 0.982617
1.0053 0.999832 0.986393
1.00054 1.00275 0.991137
1.00134 1.00347 0.989148
1.00202 1.00456 0.986957
1.00534 1.00093 0.985103
1.00533 0.997804 0.988165
1.00424 1.00303 0.984682
1.00539 1.00302 0.982828
1.00532 0.999959 0.986078
1.00538 0.998431 0.986847
1.00043 1.00207 0.992084
1.00306 1.00367 0.986118
1.00173 1.00467 0.98724
1.00325 1.00162 0.987801
1.00532 0.996834 0.989257
1.00532 0.998853 0.987071
1.0053 0.995507 0.990261
1.00515 1.00413 0.982477
1.00531 0.997317 0.988518
1.00528 1.00108 0.984836
1.00548 0.99724 0.988178
1.00044 1.00154 0.992733
1.00174 1.00504 0.987497
1.00352 1.00388 0.984882
1.00341 1.00265 0.987078
1.00322 1.00133 0.988518
1.0053 0.995029 0.99079
1.00531 0.996239 0.98944
1.00533 0.994929 0.990524
1.00516 1.00325 0.983066
1.0054 0.995843 0.989658
1.00523 0.99933 0.986463
1.00068 1.00426 0.989605
1.00023 1.00509 0.989678
1.00016 1.00292 0.991785
1.00017 1.00374 0.990843
1.00021 1.00018 0.995163
1.00026 1.00084 0.99402
1.00037 0.998077 0.996644
1.0002 0.99871 0.998334
1.00016 0.999137 0.998199
1.00036 1.00288 0.991265
1.0003 1.00065 0.997501
1.00121 1.00305 0.98988
1.0007 1.00104 0.997016
1.0016 1.00315 0.989022
1.0012 1.00136 0.996561
1.00526 0.999404 0.986925
1.00532 0.998706 0.987596
1.0053 0.995476 0.990952
1.0053 0.995107 0.991455
1.00535 0.998423 0.987865
1.00319 0.999691 0.989864
1.00536 0.998427 0.987845
1.0053 0.995118 0.991478
1.00527 0.995276 0.991305
1.0051 0.994969 0.991764
1.00529 0.996027 0.99026
1.0052 0.994921 0.991483
1.00532 0.995166 0.991429
1.0051 0.994959 0.991792
1.00514 0.994968 0.99169
1.00523 0.994948 0.991519
1.00529 0.994868 0.991156
1.00526 0.994939 0.991138
1.00536 0.997902 0.988422
1.00534 0.998581 0.988247
1.0053 0.995944 0.990539
1.00526 0.996457 0.989882
1.00248 1.00344 0.987136
1.00442 1.00439 0.982763
1.0054 1.00207 0.983606
1.00534 0.99772 0.988406
1.00533 0.994916 0.99109
1.00528 0.995604 0.990255
1.0053 0.99779 0.988132
1.00526 0.995391 0.990239
1.0036 1.00472 0.984116
1.00392 1.00409 0.983923
1.00218 1.00434 0.98681
1.00532 0.995528 0.990995
1.00529 0.996124 0.990299
1.00511 0.994962 0.991758
1.00526 0.994936 0.991327
1.0042 1.00433 0.983473
1.00538 1.00347 0.982428
1.00538 0.99987 0.985528
1.0053 0.995147 0.990697
1.00529 0.994912 0.990956
1.00525 0.996642 0.989105
1.00527 0.994885 0.990814
1.00528 0.995208 0.990519
1.0047 1.00473 0.982158
1.0051 1.00427 0.98242
1.0021 1.00487 0.986821
1.00337 1.00297 0.986451
1.0051 0.994963 0.991845
1.00515 0.994951 0.991504
1.00521 0.994955 0.991541
1.00527 0.994912 0.991059
1.00529 0.994866 0.990888
1.00532 0.994915 0.990797
1.0053 1.0046 0.98157
1.00532 0.994841 0.99066
1.0053 1.00183 0.983853
1.00534 0.998718 0.986656
1.00524 0.996136 0.989538
1.00531 0.99506 0.990506
1.00184 1.00501 0.987029
1.00353 1.00374 0.985841
1.00516 1.00466 0.981593
1.00399 1.0016 0.986083
1.00509 1.00441 0.981932
1.0003 1.00214 0.992093
1.00531 0.996822 0.989266
1.00194 1.00478 0.987111
1.00295 1.00354 0.986265
1.00345 1.00161 0.987861
1.00533 0.998827 0.987062
1.0053 0.99548 0.990288
1.00527 1.00383 0.982365
1.00529 1.00096 0.984821
1.00532 0.99757 0.988229
1.00548 0.997075 0.988464
1.00038 1.0015 0.99277
1.00148 1.00508 0.987515
1.00387 1.00343 0.984992
1.00313 1.00278 0.986972
1.00363 1.00089 0.987584
1.00531 0.995022 0.990821
1.0053 0.996205 0.989468
1.00533 0.994949 0.990537
1.00515 1.00341 0.983015
1.00541 0.99598 0.989459
1.00523 0.999382 0.986749
1.00124 1.00477 0.988365
1.00298 1.0052 0.986313
1.00351 1.00381 0.98459
1.00396 1.00206 0.986873
1.0047 1.00202 0.98615
1.00533 0.994816 0.99081
1.00533 0.995179 0.990146
1.00529 0.994835 0.990511
1.00499 1.00131 0.984849
1.00523 0.997816 0.98775
1.00058 1.00443 0.989606
1.00047 1.0051 0.989025
0.999698 1.00504 0.989745
1.00048 1.00449 0.990434
1.00027 1.00455 0.99053
1.00003 1.00258 0.992321
1 1.00315 0.991802
1.0001 0.99976 0.995695
1.00005 1.00395 0.990845
1.00019 1.00013 0.995252
1.00029 0.997598 0.997119
1.00024 1.00075 0.994545
1.00022 0.998207 0.997614
1.00017 0.998545 0.998402
0.999911 1.00175 0.993078
1.00058 1.00256 0.99132
1.00001 0.999615 0.998136
1.00054 1.00057 0.9973
1.0013 1.00283 0.989857
1.0008 1.0011 0.996936
1.0053 0.99599 0.990265
1.00529 0.995217 0.991307
1.00519 0.994919 0.991494
1.00509 0.994968 0.991743
1.00531 0.995088 0.991478
1.00536 0.998431 0.987847
1.00532 0.995156 0.991427
1.0051 0.994962 0.991796
1.00513 0.994968 0.991691
1.00522 0.994945 0.991487
1.00528 0.994864 0.991184
1.00525 0.994936 0.991145
1.0051 0.994958 0.991809
1.00524 0.994951 0.991577
1.00523 0.99495 0.991354
1.00528 0.994926 0.991415
1.00529 0.994885 0.991005
1.0053 0.994935 0.991036
1.00531 0.995234 0.991355
1.00529 0.996135 0.990302
1.00512 0.994959 0.991734
1.00527 0.994937 0.991328
1.00393 1.0045 0.983535
1.00538 1.00348 0.982504
1.0054 1.00002 0.985235
1.0053 0.995279 0.990567
1.0053 0.994916 0.990922
1.00529 0.994885 0.99079
1.00524 0.996511 0.989109
1.00527 0.995163 0.990544
1.00442 1.00499 0.982177
1.00456 1.00501 0.982222
1.00209 1.00446 0.986893
1.00315 1.00247 0.986534
1.00511 0.994962 0.991843
1.00515 0.994951 0.991549
1.0052 0.994953 0.991512
1.00527 0.994913 0.99106
1.00522 1.00461 0.981639
1.0053 1.00199 0.983676
1.00533 0.998743 0.986629
1.00529 0.994863 0.990918
1.00531 0.994909 0.9908
1.00524 0.996083 0.98955
1.00531 0.994844 0.99065
1.00529 0.995003 0.990632
1.00508 1.00474 0.981677
1.005 1.00487 0.981853
1.00387 1.00252 0.98618
1.00148 1.00494 0.987303
1.00283 1.00375 0.985751
1.00523 0.994953 0.991504
1.00526 0.994931 0.991308
1.00532 0.994884 0.990804
1.00533 0.99489 0.990687
1.00523 1.0038 0.982311
1.00531 0.994807 0.99058
1.00522 1.00095 0.984225
1.00529 0.998155 0.987221
1.0053 0.995492 0.989722
1.00027 1.00459 0.989613
1.00229 1.00508 0.986166
1.00386 1.0041 0.985884
1.00502 1.00451 0.982178
1.00443 1.00362 0.984262
1.00489 1.00464 0.982404
1.00033 1.00151 0.992804
1.00124 1.00512 0.987533
1.00532 0.995017 0.990853
1.00258 1.00296 0.986866
1.0046 1.00342 0.985106
1.00419 1.00039 0.986659
1.0053 0.996173 0.989496
1.00533 0.99497 0.990549
1.00513 1.00348 0.982978
1.00522 0.99945 0.987039
1.00543 0.996101 0.989259
1.00113 1.00487 0.988374
1.00219 1.0052 0.986337
1.00411 1.00409 0.983728
1.00387 1.00145 0.987021
1.00447 1.00162 0.985968
1.00533 0.994816 0.990821
1.00535 0.995231 0.990134
1.00533 0.994834 0.990448
1.00502 1.00126 0.985076
1.00522 0.997938 0.98764
1.00189 1.00514 0.98755
1.00142 1.00517 0.986809
1.00453 1.00268 0.984815
1.00268 1.00157 0.986423
1.00531 1.0011 0.985992
1.00534 0.994797 0.990661
1.00539 0.995717 0.98929
1.00539 0.995045 0.989814
1.00506 0.999905 0.98638
1.00512 0.998715 0.987187
1.00049 1.0045 0.98961
1.00074 1.00508 0.988887
0.999469 1.00382 0.991423
0.999536 1.00504 0.989797
0.999842 1.00466 0.99051
0.999599 1.00468 0.990671
0.999946 1.0029 0.992073
0.999462 1.00507 0.990589
0.999818 1.00433 0.991025
1.00004 1.00244 0.992441
1.00003 1.00251 0.992316
1.00004 0.999515 0.995985
0.99991 1.00308 0.991813
1.00013 0.999649 0.99575
1.00021 0.99737 0.997451
1.0002 0.999977 0.995344
1.00026 0.997669 0.997092
1.00005 0.998316 0.998609
0.999837 1.00066 0.994345
1.00004 1.00173 0.993021
0.999868 0.998819 0.9986
1.00083 1.00238 0.991373
1.00021 0.999888 0.997895
1.00064 1.00083 0.997156
1.00528 0.994859 0.991212
1.00512 0.994969 0.991694
1.00525 0.994934 0.991153
1.00522 0.99494 0.991455
1.0051 0.994966 0.991799
1.00531 0.995149 0.991424
1.0051 0.994959 0.991838
1.00524 0.994952 0.991576
1.00523 0.994952 0.991372
1.00528 0.994923 0.991393
1.0053 0.994887 0.991008
1.0053 0.994929 0.991007
1.00524 0.994953 0.991536
1.0053 0.994931 0.991442
1.00529 0.994916 0.991293
1.00535 0.994878 0.990747
1.00511 0.994961 0.991841
1.00516 0.99495 0.991593
1.0052 0.994951 0.991484
1.00528 0.994915 0.99106
1.00511 1.00454 0.981709
1.00532 1.00215 0.983496
1.00531 0.998804 0.986602
1.0053 0.99486 0.990949
1.00531 0.994904 0.990803
1.0053 0.994847 0.99064
1.00524 0.996058 0.989561
1.00529 0.994972 0.990759
1.00515 1.00479 0.981755
1.00483 1.00476 0.981777
1.00434 1.0029 0.986266
1.00132 1.00469 0.987598
1.00262 1.00435 0.985674
1.00523 0.994951 0.991499
1.00526 0.994932 0.991321
1.00533 0.994892 0.990823
1.00522 1.00395 0.982329
1.00522 1.00118 0.984146
1.00528 0.998047 0.987231
1.00532 0.994893 0.990703
1.0053 0.995465 0.989906
1.00532 0.994812 0.990593
1.00011 1.00415 0.98991
1.00495 1.00437 0.982237
1.00485 1.00471 0.982048
1.00455 1.00323 0.984078
1.00394 1.0033 0.985914
1.00215 1.00508 0.986205
1.0053 0.99493 0.991391
1.00533 0.994895 0.991074
1.00534 0.994883 0.990638
1.00531 0.994836 0.990552
1.00509 1.00331 0.983212
1.0053 0.994867 0.990413
1.0051 1.00094 0.984827
1.00527 0.997279 0.987634
0.999952 1.00292 0.991462
1.00108 1.00513 0.988411
1.00324 1.00473 0.986096
1.00292 1.00369 0.985712
1.00453 1.0034 0.984367
1.00492 1.00473 0.982169
1.00096 1.005 0.988383
1.00157 1.00518 0.986361
1.00533 0.994816 0.990832
1.00383 1.00084 0.987161
1.00478 1.00445 0.982853
1.00384 1.00207 0.985783
1.00537 0.995282 0.990121
1.00536 0.99483 0.990386
1.00503 1.00125 0.985303
1.00522 0.998061 0.98753
1.00142 1.00512 0.9876
1.00206 1.00513 0.986419
1.00443 1.00289 0.984625
1.00342 1.00256 0.986346
1.0052 1.00139 0.985586
1.00535 0.994798 0.990653
1.0054 0.995576 0.989545
1.00537 0.995136 0.989972
1.00508 0.999797 0.986369
1.00506 0.999067 0.986913
0.999649 1.00496 0.988903
0.999675 1.00487 0.988137
1.00495 1.00049 0.986284
1.00424 1.00087 0.986683
1.00542 0.994768 0.990439
1.00537 0.994788 0.990366
1.00526 0.997577 0.987656
1.00519 0.999363 0.986344
1.00108 1.00503 0.988749
0.999593 1.00441 0.991088
0.998019 1.00418 0.994134
0.999516 1.00486 0.990498
0.998572 1.00502 0.990905
0.999868 1.00429 0.990973
0.999445 1.00344 0.992492
0.999519 1.00509 0.990652
0.999272 1.00059 0.995504
0.999377 1.00488 0.991043
0.99937 1.00502 0.990447
1.00001 1.00423 0.990819
0.999978 1.00253 0.992393
0.999987 1.00247 0.992423
0.999952 0.99943 0.996147
0.99998 1.00258 0.992314
1.00005 0.999463 0.996006
1.00012 0.997341 0.997579
1.00012 0.999573 0.995806
1.00018 0.997422 0.99743
1.00017 0.997772 0.997052
1.00003 0.999804 0.994968
0.999882 1.00082 0.994261
0.999832 0.998174 0.998812
1.00009 1.00186 0.992964
0.999943 0.998916 0.998462
1.00044 0.999864 0.997619
1.00531 0.994888 0.99101
1.00523 0.994953 0.99139
1.0053 0.994923 0.990979
1.00527 0.994921 0.991372
1.00523 0.994953 0.991575
1.00511 0.99496 0.991867
1.00524 0.994952 0.991555
1.0053 0.994928 0.991435
1.00529 0.994921 0.991251
1.00533 0.994878 0.990777
1.00531 0.994929 0.991443
1.00529 0.994904 0.991394
1.00534 0.994887 0.990983
1.00522 0.99495 0.991493
1.00526 0.994933 0.991335
1.00533 0.994897 0.990841
1.00517 1.004 0.982354
1.00521 1.00143 0.984065
1.00528 0.997909 0.987239
1.00532 0.994894 0.990719
1.00532 0.994819 0.990607
1.00529 0.995408 0.99009
1.00489 1.00424 0.982293
1.00504 1.00491 0.981709
1.00455 1.00441 0.983908
1.00024 1.004 0.990206
1.00366 1.00303 0.985921
1.00191 1.00499 0.986228
1.0053 0.994935 0.991402
1.00533 0.994886 0.991036
1.00534 0.994883 0.990643
1.00507 1.00318 0.98317
1.00505 1.00085 0.98495
1.00531 0.997068 0.987953
1.00532 0.994833 0.990526
1.0053 0.994905 0.990375
0.999904 1.00315 0.99168
1.00096 1.00513 0.988378
1.00455 1.00276 0.984086
1.00462 1.00472 0.982579
1.00358 1.00392 0.985187
1.00282 1.00471 0.986122
1.00532 0.994892 0.991329
1.00538 0.994869 0.990691
1.00535 0.994851 0.990506
1.00529 0.994806 0.990325
1.00423 1.00191 0.985166
1.00528 0.99551 0.989609
1.00492 0.999958 0.986098
1.0001 1.00203 0.992749
1.00009 1.00308 0.99191
0.999631 1.00491 0.990066
1.00165 1.00511 0.987123
1.00254 1.0048 0.986461
1.00433 1.00427 0.984066
1.0035 1.00235 0.986468
1.00425 1.00246 0.987248
1.00107 1.00515 0.987655
1.00286 1.00513 0.986029
1.00535 0.994799 0.990644
1.00413 1.00262 0.986273
1.00438 1.00302 0.984436
1.00532 1.00164 0.98519
1.00541 0.995421 0.9898
1.00536 0.995221 0.990128
1.00509 0.99967 0.986357
1.00497 0.999393 0.98664
1.00053 1.00475 0.988523
1.00113 1.00501 0.987607
1.00497 1.00054 0.986027
1.00449 1.00138 0.986515
1.00542 0.994776 0.990443
1.0054 0.994799 0.990354
1.0052 0.997458 0.98779
1.00517 0.999551 0.986373
0.998362 1.00478 0.991634
1.00547 0.994789 0.990636
1.00244 1.00473 0.98782
1.00487 0.99993 0.986544
1.00537 0.994727 0.990715
1.00504 0.997007 0.987515
1.00505 1.0005 0.985923
0.999546 1.00456 0.990755
0.998241 1.00353 0.994217
0.996675 1.00342 0.996642
0.999767 1.00413 0.990921
0.999426 1.00511 0.990713
0.997918 1.00487 0.992933
1.00002 1.00406 0.990804
0.999477 1.00501 0.990527
0.997882 1.00199 0.995965
0.999578 1.00482 0.990912
0.998448 1.00048 0.997881
0.997775 1.00371 0.994143
0.999417 1.00513 0.99075
1.00039 1.00488 0.989435
1.00029 1.00397 0.990489
0.999996 1.00251 0.992385
0.999944 1.00259 0.992373
0.999833 0.999497 0.996305
0.999919 1.00259 0.992406
0.999961 0.999458 0.99616
0.999991 0.997499 0.997699
1.00006 0.999402 0.996032
1.00012 0.997406 0.997572
1.0002 0.997477 0.997403
1.00009 1.0015 0.993292
1 0.999354 0.995421
0.999984 0.999922 0.994934
0.999908 0.9979 0.998907
0.999927 1.00076 0.994178
0.999873 0.998395 0.998767
1.00008 0.999072 0.998304
1.00531 0.994877 0.990807
1.00529 0.994927 0.991209
1.00529 0.994924 0.991428
1.00524 0.99495 0.991573
1.00531 0.994931 0.991436
1.00529 0.994896 0.991393
1.00533 0.994889 0.990925
1.00531 0.994898 0.991389
1.00533 0.994865 0.991342
1.00559 0.994784 0.991201
1.0053 0.994938 0.991413
1.00533 0.994884 0.990998
1.00534 0.994889 0.990649
1.00514 1.00305 0.983131
1.0049 1.00091 0.98509
1.00534 0.996853 0.988261
1.00533 0.994825 0.990498
1.00529 0.994924 0.990336
1.00444 1.00313 0.9838
1.00439 1.00452 0.982955
1.00396 1.00322 0.984662
0.999992 1.00301 0.991903
1.00056 1.00514 0.988347
1.00268 1.00484 0.986151
1.00531 0.994897 0.99131
1.00015 1.00192 0.992718
0.999986 1.00312 0.991743
1.00538 0.994869 0.990697
1.00536 0.994853 0.990523
1.00453 1.00209 0.985155
1.00497 0.999605 0.986463
1.00526 0.995411 0.989559
1.00528 0.994815 0.990267
1.00004 1.00464 0.990263
1.00176 1.00511 0.987073
1.00333 1.00298 0.986137
1.00439 1.00212 0.985817
1.0039 1.00466 0.983702
1.00249 1.00393 0.986559
1.00539 0.994809 0.991164
1.00539 0.995029 0.990383
1.00534 0.994852 0.990463
1.00524 0.995117 0.989931
1.00341 1.00101 0.987916
1.005 0.997823 0.9886
1.00032 1.00262 0.991701
0.999676 1.00355 0.991614
1.00145 1.00257 0.990709
1.00086 1.0049 0.988495
1.00225 1.00503 0.986642
1.00199 1.00211 0.988132
1.00237 1.00302 0.986981
1.00161 0.999287 0.993117
1.0008 1.00499 0.98815
1.0028 1.00513 0.987066
1.0054 0.994783 0.990448
1.00543 0.994809 0.990342
1.00473 1.00185 0.986337
1.00497 1.00063 0.985763
1.00515 0.997345 0.987924
1.00516 0.999741 0.986407
0.999106 1.00456 0.991563
1.00547 0.994766 0.990847
1.00151 1.00441 0.988666
1.0048 1.0002 0.986346
1.00538 0.994728 0.990789
1.00512 0.99717 0.987705
1.00507 1.00021 0.985882
0.998335 1.00495 0.993683
1.00506 0.99468 0.990442
1.0019 1.0036 0.988662
1.00439 1.00184 0.984792
1.00512 0.995521 0.99044
1.00353 1.00073 0.986943
0.999059 0.99476 0.983077
0.998402 1.0032 0.994273
0.997273 1.00255 0.996631
0.99679 1.00209 0.997731
1.00002 1.00399 0.990785
0.999271 1.00506 0.990612
1.00016 1.00466 0.990782
0.997098 1.00218 0.996437
1.00025 1.00398 0.990494
1.00014 1.00486 0.98971
0.997759 0.999923 0.99855
0.999288 1.00514 0.990702
0.998339 1.00389 0.993615
0.996501 1.00325 0.997347
0.999421 1.00469 0.991291
0.999688 1.0051 0.990663
1.00068 1.00426 0.989646
1.0003 1.00408 0.990093
1.00028 1.00498 0.989992
1.00006 1.00438 0.990112
0.999929 1.00256 0.992389
0.999961 1.00255 0.99237
0.999708 0.999469 0.99581
0.999956 1.00252 0.992356
0.999813 0.999501 0.995986
0.99998 0.997502 0.999064
0.999966 0.999467 0.996177
1.00002 0.997464 0.997689
1.00013 0.997459 0.997559
0.99998 1.00106 0.993833
1.00013 1.00141 0.993324
1.00007 0.998819 0.995929
1.00001 0.999399 0.995745
0.999911 0.997585 0.999021
0.999922 1.00013 0.9949
0.999893 0.997917 0.998888
0.999924 0.998425 0.998702
1.00532 0.99489 0.990868
1.0053 0.994888 0.991392
1.00531 0.994933 0.99143
1.00531 0.994898 0.991391
1.00534 0.994856 0.991289
1.00562 0.994799 0.991088
1.00542 0.994832 0.991382
1.0009 0.994709 0.980156
1.00532 0.99485 0.990516
1.00013 1.00238 0.992305
1.00531 0.994897 0.991292
1.00538 0.994864 0.990704
1.00535 0.994855 0.990541
1.00466 1.00171 0.985129
1.005 0.99928 0.986814
1.00528 0.995362 0.989496
1.00529 0.994831 0.99021
1.00376 1.00273 0.985877
1.0046 1.00271 0.984456
1.00376 1.00482 0.98331
1.00013 1.00202 0.992687
1.00299 1.00359 0.986637
1.00024 1.00447 0.990447
1.00168 1.00511 0.987028
0.99978 1.00323 0.991582
1.00539 0.994842 0.991155
1.00029 1.00246 0.991921
0.999866 1.00354 0.991667
1.00068 1.00303 0.99104
1.00539 0.994913 0.990392
1.00531 0.994843 0.990428
1.00277 1.00176 0.988013
1.00488 0.997427 0.988817
1.00526 0.995027 0.989913
1.00075 1.005 0.988504
1.00242 1.00477 0.986818
1.00255 0.999435 0.991841
1.00293 1.00406 0.986582
1.00331 1.00206 0.987995
1.00544 0.994821 0.990859
1.00535 0.994881 0.990506
1.00527 0.994856 0.990185
1.00468 0.997946 0.990048
1.00186 0.999546 0.99162
1.00027 1.00219 0.992005
1.00158 1.00324 0.988982
1.0001 1.0032 0.991204
1.00151 1.0049 0.988494
1.00179 1.00275 0.989334
1.00091 1.0017 0.990668
1.00153 0.998582 0.994183
1.00054 1.00389 0.991429
1.00028 1.00428 0.989534
1.00547 0.994754 0.991048
1.0054 0.994725 0.99085
1.00518 0.997323 0.987895
1.00472 1.00047 0.98615
1.0051 0.999896 0.985851
0.998068 1.00479 0.994748
1.00465 0.994697 0.990629
1.00178 1.00357 0.988611
1.00467 1.00191 0.984654
1.00493 0.995452 0.990733
1.00394 1.00064 0.987022
0.998887 0.994747 0.981396
0.99747 1.00484 0.994391
1.00372 0.99473 0.990579
1.00235 1.00311 0.986676
1.00318 1.00002 0.9883
1.00338 0.997362 0.991231
0.99997 0.994873 0.937448
0.994902 0.994726 0.959783
0.996261 0.996746 0.986705
0.996258 0.994763 0.846298
0.994698 0.995558 0.805821
0.998105 1.00199 0.996644
0.996798 1.00257 0.997832
0.995756 1.00375 0.998053
1.00028 1.00396 0.990504
1.00001 1.00487 0.989984
0.999413 1.00514 0.990652
0.998791 1.00413 0.993052
0.997337 1.00004 0.999207
0.999468 1.00507 0.990867
1.00041 1.004 0.990155
1.00056 1.00454 0.989601
0.997084 1.0025 0.99711
0.998952 1.00487 0.991765
0.999483 1.00461 0.99198
0.997138 1.00457 0.994751
0.999391 1.00476 0.991398
1.00048 1.0046 0.989235
1.00023 1.00433 0.990014
0.999939 1.00473 0.990097
0.999664 1.00393 0.991852
0.999423 1.00503 0.991041
0.999983 1.00497 0.99013
1.00007 1.00437 0.990395
1.00009 1.0044 0.9901
0.999874 1.00273 0.992339
0.999914 1.00262 0.992398
0.999675 0.999484 0.995873
0.999915 1.00266 0.992352
0.999696 0.999506 0.995813
0.999937 0.997487 0.999102
0.999788 0.999524 0.995673
0.999935 0.997506 0.99843
1.00005 0.99744 0.997676
0.999899 1.0008 0.9942
1.00002 1.00102 0.993844
1.00009 0.998469 0.996298
1.00015 1.00132 0.993355
1.00006 0.998815 0.996244
0.999948 0.997174 0.999136
1.00005 0.999509 0.995302
0.999922 0.997743 0.998965
0.999898 0.998078 0.998871
1.00535 0.99485 0.991237
1.0053 0.994897 0.991393
1.00569 0.994817 0.990986
1.00002 0.994739 0.980168
1.00545 0.994823 0.991327
1.00533 0.994797 0.990545
1.00549 0.994691 0.991292
0.995608 0.994865 0.961452
1.00336 0.994824 0.978692
1.00027 1.0019 0.992614
1.0003 1.00222 0.992279
0.999786 1.00324 0.991863
0.999943 1.00286 0.992067
1.0054 0.994857 0.991146
1.00541 0.994872 0.990402
1.00528 0.99483 0.990394
1.00383 1.00183 0.988103
1.00506 0.996175 0.989068
1.00525 0.994894 0.989912
1.00263 0.998713 0.990486
1.00333 1.00441 0.986208
1.0032 1.00166 0.987896
0.999991 1.00346 0.991718
1.00219 1.00388 0.987016
1.00094 1.00502 0.988511
1.00032 1.00229 0.992138
1.00012 1.00328 0.991414
1.00547 0.994787 0.990842
1.0002 1.0028 0.991713
1.00152 1.00314 0.989287
0.997785 1.00334 0.99429
1.00536 0.994921 0.99047
1.00527 0.994858 0.990171
1.00326 0.997783 0.991729
1.00451 0.997391 0.989919
1.00178 1.00501 0.987979
1.00141 1.0027 0.988622
1.00125 0.998613 0.994242
1.00197 1.00205 0.990233
1.00405 0.99649 0.990267
1.00523 0.994807 0.990739
1.00443 0.997412 0.989768
1.00344 0.996686 0.992922
0.997529 1.00481 0.993975
1.00233 1.00406 0.98712
0.999138 1.00253 0.994041
0.998233 1.00342 0.994101
0.999989 0.995419 0.922118
0.997435 1.0046 0.995864
1.0013 1.00365 0.988545
1.00415 0.9947 0.990855
1.0047 0.995415 0.991019
1.00422 1.00053 0.987071
1.00479 1.00211 0.984501
0.998754 0.994745 0.979469
0.997597 1.00455 0.99464
1.00331 0.994753 0.990459
1.00246 1.00372 0.986614
1.00368 0.999875 0.988481
1.00356 0.997895 0.991018
0.99952 0.994873 0.923041
0.995377 0.994771 0.956566
0.996306 0.996662 0.987186
0.996892 0.994752 0.851241
0.99476 0.995197 0.800637
0.997782 1.0043 0.993677
0.998551 0.994821 0.856031
0.994779 0.994888 0.796882
1.0009 0.996593 0.993406
1.00132 1.00131 0.991056
1.00121 1.00046 0.993026
0.994892 0.996322 0.990737
0.997425 0.994725 0.936881
0.994904 0.994797 0.95253
0.99472 0.995075 0.870939
0.994765 0.994837 0.782707
0.996585 1.00268 0.997931
0.995859 1.00386 0.997925
0.99534 1.00509 0.997816
1.00057 1.00384 0.990213
1.00045 1.00461 0.989555
0.998906 1.0051 0.991072
0.998666 1.00502 0.992237
0.997536 1.00166 0.996892
1.00037 1.00416 0.990005
0.999084 1.00484 0.991962
0.999255 1.00488 0.991085
1.00071 1.00457 0.989355
0.997206 1.00427 0.995089
0.998166 1.00426 0.993907
0.995656 1.00516 0.99633
0.99939 1.00501 0.990499
1.00056 1.00462 0.989504
1.00021 1.00466 0.990058
0.999322 1.00362 0.992325
0.999231 1.00448 0.99185
0.999702 1.00311 0.99232
0.998086 1.00292 0.994825
0.997884 1.00484 0.992819
0.998727 1.00507 0.991382
0.999403 1.00506 0.991027
0.999672 1.00482 0.990372
0.999741 1.00501 0.99027
1.00016 1.0044 0.99031
0.99994 1.00286 0.992172
1.00016 1.00439 0.990086
0.999921 1.00265 0.992359
0.999871 0.999489 0.996298
0.999909 1.00262 0.992405
0.999737 0.999457 0.996128
0.999902 0.997441 0.997927
0.999679 0.999502 0.995813
0.999928 0.997504 0.999112
0.999929 0.99755 0.997793
1.00029 1.0022 0.992325
0.999878 1.00073 0.99433
0.999932 1.00081 0.994197
1.00004 0.998375 0.996456
1.00002 1.00107 0.993858
1.00009 0.99845 0.996295
0.999985 0.996965 0.999195
1.00006 0.998914 0.996469
0.99994 0.997355 0.998475
0.999921 0.997738 0.99759
0.999447 0.994749 0.980147
1.00546 0.994814 0.991273
1.00525 0.994789 0.990569
0.996349 0.994795 0.96161
1.00363 0.994769 0.979033
1.00547 0.994795 0.991323
1.00364 0.994713 0.985581
0.998768 0.994729 0.961786
0.999225 0.994861 0.937015
0.996693 0.994765 0.874069
0.994783 0.995006 0.805311
0.999487 1.003 0.992407
1.00025 1.00196 0.992602
1.00042 1.00211 0.992246
0.999847 1.00296 0.992201
0.998346 1.00486 0.992985
1.00018 1.00322 0.991489
1.00013 1.004 0.990905
1.00006 1.00281 0.991996
1.00547 0.994822 0.990817
1.00535 0.994885 0.990437
1.00527 0.99486 0.990157
1.0033 0.99792 0.991849
1.00423 0.997623 0.989773
1.00108 0.99844 0.994301
1.00352 1.00196 0.989792
1.00292 1.00289 0.987907
1.00127 1.00342 0.989563
1.00168 1.00513 0.987421
1.00009 1.00349 0.991425
0.996387 1.00368 0.997129
1.0042 0.995586 0.990612
0.997568 1.00475 0.993959
1.00136 1.00406 0.989159
1.005 0.994825 0.990706
1.00406 0.99782 0.989957
1.00297 0.996883 0.992842
1.0001 1.00245 0.992632
0.999393 1.00215 0.994193
1.00299 0.9962 0.989153
1.00306 0.998914 0.99093
1.00351 0.998556 0.99126
1.00113 0.997577 0.995079
0.998907 1.00479 0.992183
0.997826 1.00486 0.99319
0.997853 1.00349 0.995136
0.999829 0.996051 0.855524
1.00062 0.994882 0.937794
0.99825 1.00413 0.994898
1.00276 1.0041 0.986574
1.00293 0.99476 0.990325
1.00382 0.99843 0.990824
1.00411 0.999644 0.988705
0.99999 0.994843 0.935244
0.995836 0.994775 0.956082
0.996334 0.99691 0.987834
0.996009 0.99479 0.871006
0.994826 0.994874 0.795074
0.998208 1.00438 0.993661
0.999849 0.994881 0.853426
0.994726 0.994865 0.79055
1.00086 0.997107 0.993226
1.00136 1.00129 0.991093
1.00118 1.00025 0.993614
0.994964 0.997546 0.991656
0.996806 0.99471 0.929945
0.994911 0.994808 0.952789
0.994783 0.99493 0.871553
0.994797 0.995091 0.780399
0.996655 1.00494 0.996099
0.994764 0.994798 0.78368
0.994742 0.994752 0.781799
0.99669 1.00143 0.997439
0.999152 1.00164 0.99718
0.994854 0.998789 0.98799
0.994919 0.994823 0.956876
0.994878 0.994682 0.924508
0.994806 0.994862 0.874689
0.994879 0.994889 0.794288
0.996164 1.00395 0.997803
0.995941 1.00502 0.997512
0.995048 1.00448 0.998653
1.0005 1.00403 0.989994
1.0008 1.00463 0.989474
0.999377 1.00505 0.990771
0.998544 1.00509 0.991946
0.997072 1.00408 0.995428
1.0006 1.00466 0.989463
0.998246 1.00429 0.993492
0.999828 1.00494 0.99048
0.995651 1.00496 0.996548
0.995202 1.00523 0.997837
0.997711 1.00475 0.99407
1.00022 1.00481 0.990669
1.0006 1.00423 0.99002
0.999185 1.00326 0.992789
0.999309 1.00423 0.99183
0.99989 1.00292 0.992231
0.997749 1.00311 0.995123
0.998063 1.00452 0.99245
0.997059 1.00497 0.994209
0.997704 1.00221 0.996493
0.999828 1.00224 0.993222
1.00408 0.999668 0.990396
0.99819 1.00472 0.992117
0.998335 1.00469 0.992833
0.99899 1.00514 0.990174
0.999032 1.00507 0.991454
0.999993 1.00504 0.989977
0.999375 1.00504 0.991011
0.999842 1.00475 0.990456
0.999834 1.0032 0.99178
1.00023 1.00441 0.990225
0.999921 1.00282 0.992185
1 0.99952 0.996039
0.999887 1.00267 0.992381
0.999855 0.99948 0.99593
1.00002 0.997368 0.997751
0.99973 0.999466 0.995833
0.999956 0.9974 0.999127
0.999925 0.997475 0.999124
1.00041 1.00267 0.991962
0.99992 1.00097 0.994084
1.00028 1.00216 0.992342
1.00003 0.998314 0.996512
0.999923 1.00068 0.994319
0.999965 1.00077 0.99419
1.00005 0.998356 0.996448
0.999999 0.996893 0.999221
1.00007 0.99849 0.996816
0.999993 0.997002 0.998622
0.999963 0.997297 0.997941
0.999302 0.995342 0.840114
0.994772 0.994857 0.782349
0.996012 0.994803 0.962328
1.00333 0.994716 0.97955
1.00551 0.994829 0.991355
0.99984 0.994829 0.959368
1.00333 0.994702 0.986248
0.999851 0.994867 0.932461
0.995982 0.994738 0.852357
0.994803 0.994993 0.800448
0.997893 0.994786 0.970199
0.996397 0.994747 0.93823
0.99474 0.994711 0.872827
0.994808 0.995394 0.793629
0.999687 1.0039 0.992049
0.99976 1.00271 0.992474
1.00022 1.00202 0.992598
0.999886 1.00265 0.992552
0.998033 1.00413 0.993954
1.00032 1.0042 0.990229
0.999645 1.00384 0.991704
1.00074 1.00416 0.989459
1.00014 1.00395 0.990775
0.999641 1.00342 0.991922
1.00415 0.994832 0.990934
1.00487 0.994844 0.99067
1.00338 0.998194 0.990146
1.0023 0.996592 0.992762
0.999954 1.00212 0.994273
0.99991 1.00259 0.991262
1.00017 1.00371 0.991414
0.997552 1.00465 0.993892
1.00218 0.995613 0.989757
0.998797 1.00499 0.992011
0.997585 1.00479 0.993495
1.00287 0.998747 0.990838
1.00308 0.998811 0.99093
1.00075 0.997573 0.995606
0.998057 1.00338 0.995336
0.999542 0.995452 0.988443
1.00056 1.00012 0.994675
0.996964 1.0025 0.997016
0.998468 1.00433 0.992163
0.996996 1.00519 0.99358
0.996786 1.00462 0.995715
0.994733 0.994798 0.803583
0.999828 0.994887 0.862682
1.00011 0.995388 0.922393
0.998507 1.0046 0.993626
1.00163 1.00138 0.991082
1.00078 0.997365 0.993035
1.00107 0.999841 0.994206
0.999841 0.99541 0.86864
0.996419 0.994748 0.923219
0.994925 0.994772 0.952594
0.99503 0.998485 0.992363
0.994786 0.994722 0.855302
0.994679 0.994845 0.797113
0.994827 0.995301 0.796601
0.996824 1.00492 0.9958
0.994754 0.994811 0.792691
0.994767 0.99476 0.781188
0.996776 0.999901 0.998166
0.998741 1.00152 0.997101
0.994862 0.997465 0.98982
0.994965 0.994803 0.954598
0.994846 0.994699 0.936469
0.994772 0.995031 0.854454
0.995157 0.994896 0.803866
0.99589 1.00416 1.00005
0.994749 0.994796 0.789573
0.994817 0.994828 0.782469
0.99482 1.00228 1.00013
0.994903 0.996626 0.964938
0.994803 0.994812 0.933461
0.994903 0.994923 0.851499
0.995785 0.994899 0.821136
0.996501 1.00484 0.997196
0.99541 1.00467 0.998815
0.994929 1.00437 0.999408
1.00041 1.00474 0.989417
1.00009 1.00486 0.990462
0.99829 1.0043 0.993076
0.995696 1.00466 0.996763
0.99963 1.00489 0.990669
0.997474 1.00482 0.994079
0.995028 1.00526 0.99796
0.994799 1.00531 0.998648
0.995426 1.00511 0.997577
0.998135 1.00506 0.993561
0.999432 1.00433 0.991801
0.999927 1.00269 0.992145
0.997265 1.00339 0.995414
0.997244 1.00488 0.994286
0.998996 1.00414 0.99239
0.996934 1.00306 0.99654
0.997441 1.00409 0.994944
0.995359 1.00504 0.997929
1.00125 0.999187 0.994606
0.999342 1.00157 0.994174
1.00227 0.999846 0.991238
1.00484 0.999656 0.988047
1.00319 1.00141 0.989504
1.00305 0.99929 0.991225
0.999017 1.0044 0.991907
0.99929 1.00515 0.989573
0.998953 1.00451 0.992851
0.999773 1.00512 0.990236
1.00053 1.00507 0.988789
0.999526 1.00509 0.991518
0.99992 1.00507 0.989985
0.999905 1.00391 0.990983
0.999959 1.00472 0.990542
0.99995 1.00326 0.991789
1.00015 0.999688 0.995688
0.999985 1.00273 0.9922
0.999981 0.999584 0.995621
1.00011 0.997468 0.997559
0.99985 0.999469 0.995629
1.00001 0.997368 0.998438
0.999971 0.997375 0.999106
1.00036 1.00367 0.99063
1.00003 1.00128 0.993636
1.00026 1.00279 0.991748
1.00005 0.998391 0.996413
0.999926 1.00091 0.994102
1.00027 1.00207 0.992359
1.00002 0.996849 0.99923
1.00002 0.998327 0.996512
0.99992 1.00073 0.994312
1.00007 0.998341 0.99644
1 0.996902 0.999215
0.999982 0.996982 0.999189
0.994729 0.994787 0.781165
0.999245 0.994869 0.853871
0.994781 0.994773 0.781596
0.994795 0.994838 0.783664
0.998938 0.994861 0.959345
1.0028 0.994758 0.986919
0.999491 0.99479 0.927076
0.996462 0.994772 0.873689
0.99483 0.994862 0.79562
0.998178 0.994812 0.968992
0.996573 0.994713 0.923321
0.994746 0.994791 0.87202
0.994792 0.995025 0.786059
0.994919 0.994795 0.96127
0.994756 0.994701 0.923034
0.994802 0.995409 0.847918
0.99485 0.994885 0.798215
1.00046 1.00453 0.990659
0.999063 1.00398 0.992212
0.999862 1.00262 0.992536
0.997412 1.00356 0.994917
1.00095 1.00362 0.989614
1.00005 1.00439 0.990429
0.999026 1.00413 0.991919
1.00129 1.00365 0.989492
1.00088 1.00439 0.989411
1.00023 1.00377 0.990643
1.00204 0.994826 0.990312
1.00253 0.998558 0.990776
1.0031 0.999011 0.990602
1.0002 0.997448 0.996142
0.999027 1.00356 0.995518
0.997874 1.00474 0.993804
0.998731 1.0051 0.991852
0.999501 1.00386 0.991917
0.999346 0.996432 0.989134
0.997994 1.00514 0.993141
0.997878 1.0041 0.995755
1.00032 0.999918 0.994788
0.998092 1.00127 0.996956
0.996065 1.00083 0.988156
0.996721 1.00163 0.999481
0.994826 1.00508 0.997771
0.996938 1.00446 0.995233
0.996043 1.00524 0.995861
0.994768 0.994786 0.79623
0.994736 0.994764 0.798691
0.999829 0.996026 0.842617
0.997026 1.00493 0.99555
0.998674 1.00104 0.997031
0.996989 0.999198 0.998884
0.994728 0.994796 0.789545
0.994788 0.994694 0.923516
0.994927 0.994798 0.954616
0.994855 0.995857 0.992138
0.994772 0.995236 0.874108
0.994795 0.994769 0.781594
0.995556 0.99488 0.805878
0.996081 1.00361 1.00034
0.994763 0.994805 0.791405
0.9948 0.994828 0.78372
0.994839 1.00245 0.999031
0.99489 0.995729 0.966778
0.994888 0.994801 0.920579
0.995475 0.994897 0.815837
0.995219 0.997217 0.860633
0.99479 1.00499 1.00088
0.99478 0.994832 0.777933
0.994865 0.994845 0.798633
0.994851 0.994888 0.797764
0.994791 0.999556 0.988145
0.994839 0.995262 0.937452
0.9973 0.994889 0.873385
0.995966 1.00499 0.998986
0.995202 1.00476 0.99923
0.995293 1.00523 0.998959
0.999328 1.00488 0.990676
0.997448 1.00495 0.994091
0.994827 1.00531 0.998088
0.997577 1.00505 0.993627
0.995564 1.005 0.997625
0.994799 1.00535 0.998544
0.994824 1.00517 0.998958
0.99551 1.00491 0.997868
0.997102 1.00478 0.994392
0.999751 1.00381 0.992326
0.996447 1.00372 0.996589
0.995356 1.00482 0.997839
0.997039 1.0043 0.994964
0.998505 1.00088 0.996964
0.998312 0.999232 0.998495
1.00203 1.00033 0.990029
0.998962 1.00105 0.995035
1.00252 0.999851 0.990886
1.00453 1.00128 0.98637
1.00487 1.00205 0.984951
1.00482 0.9997 0.987843
1.00397 0.999852 0.987986
1.00214 1.00336 0.988394
1.00207 1.00186 0.989781
1.00186 0.998958 0.992023
0.99982 1.0041 0.991696
0.999926 1.00514 0.989373
1.00086 1.00515 0.98775
1.00041 1.00511 0.990303
1.00079 1.00508 0.988768
1.00042 1.00435 0.989739
1.00008 1.00506 0.989987
1.00011 1.00372 0.990961
1.00017 1.00007 0.995301
0.999998 1.00321 0.991795
1.00012 0.999744 0.995241
1.00025 0.997552 0.997274
0.999976 0.999621 0.995288
1.0001 0.997433 0.998306
1.00005 0.997364 0.999037
1.00072 1.00379 0.989686
1.00012 1.00179 0.992583
1.00045 1.00356 0.990641
1.0001 0.998583 0.996147
1.00007 1.00124 0.993439
1.00023 1.00279 0.991534
1.00004 0.996883 0.999203
1.00005 0.998366 0.996429
0.999994 1.00075 0.994117
1.00001 0.99688 0.999228
1.00002 0.998333 0.996511
1 0.996902 0.99921
0.994811 0.994811 0.787052
0.994739 0.994826 0.79627
0.999289 0.99484 0.852628
1.00094 1.00385 0.989699
0.994785 0.994801 0.787302
0.994779 0.994788 0.781502
0.99484 0.994842 0.798394
0.998297 0.994789 0.96866
0.996366 0.994739 0.937927
0.994682 0.994892 0.854873
0.994769 0.994856 0.797596
0.995633 0.994787 0.95881
0.994804 0.994706 0.935784
0.994761 0.995081 0.851753
0.994867 0.99489 0.800132
0.994904 0.994767 0.953236
0.994781 0.994815 0.93186
0.996264 0.995811 0.864065
0.995514 0.994903 0.82136
0.998994 1.00387 0.992504
0.999645 1.0045 0.990886
0.999214 1.00353 0.992383
1.00133 1.00229 0.990475
1.00098 1.00394 0.989621
0.99996 1.00466 0.990627
1.00141 1.00364 0.989432
1.00097 1.00441 0.989364
0.998443 0.997314 0.989645
0.99967 0.999732 0.994812
0.999264 1.00405 0.99165
0.999383 1.00006 0.996895
0.998492 1.00341 0.995792
0.998746 1.00514 0.992668
0.997388 1.00437 0.994454
0.995642 1.00036 0.988421
0.996945 1.00505 0.995677
0.996063 1.00345 0.997916
0.995915 1.00137 0.999566
0.996222 1.00518 0.995873
0.994819 1.00237 0.985505
0.995189 1.00333 0.998784
0.995742 1.00457 0.997875
0.996465 1.00555 0.996184
0.994752 0.994811 0.781514
0.994763 0.99479 0.792763
0.994737 0.994732 0.793576
0.995891 1.00353 1.00061
0.994827 1.00181 0.997884
0.994779 0.994817 0.793046
0.994754 0.994847 0.935092
0.994886 0.995667 0.963647
0.995421 0.99575 0.859131
0.994788 0.994827 0.784717
0.994891 0.994906 0.810437
0.994833 1.00493 1.00086
0.994781 0.994831 0.778309
0.994874 0.994856 0.79746
0.994827 1.00016 0.991893
0.994866 0.994897 0.799831
0.994833 0.996841 0.930098
0.996565 0.997407 0.87501
0.995234 1.00403 0.997157
0.994838 0.994843 0.790702
0.994797 0.994815 0.789299
0.994803 0.995303 0.792972
0.996358 0.996577 0.863919
0.994891 1.0012 0.970845
0.994936 0.996145 0.92286
0.995544 1.00504 0.999073
0.99518 1.00522 0.999023
0.994819 1.00529 0.998016
0.996987 1.0051 0.993688
0.995128 1.00469 0.997671
0.994792 1.00534 0.998483
0.995263 1.00454 0.997826
0.994839 1.00512 0.998909
0.997157 1.00233 0.999293
0.995236 1.0047 0.997739
0.996368 1.00469 0.995028
0.997799 1.00136 0.99761
0.998269 1.0005 0.994836
0.995503 0.999281 1.00203
1.00169 1.00009 0.991269
1.00431 1.00426 0.982851
1.00436 1.00312 0.984283
1.00282 0.999793 0.990449
1.00435 1.0015 0.985904
1.00509 1.00218 0.984191
1.0051 1.00183 0.985107
1.00443 1.00207 0.985093
1.00421 1.00047 0.987856
1.00408 1.00026 0.987716
1.00339 0.999998 0.987953
1.00103 1.00503 0.987649
1.00156 1.00376 0.988479
1.00087 1.00236 0.990056
1.00064 1.00512 0.989175
1.00128 1.00513 0.987772
1.0007 1.00489 0.988526
1.00098 1.00509 0.988748
1.00059 1.00425 0.989724
1.0002 1.00056 0.993924
1.00039 1.00372 0.990952
1.00023 1.00007 0.99444
1.00011 0.997662 0.998786
1.00012 0.99985 0.994873
1.00019 0.997517 0.998107
1.00013 0.997424 0.998935
1.00072 1.00405 0.98952
1.00032 1.00256 0.991585
1.00067 1.00391 0.989879
1.00018 0.9989 0.995729
1.00022 1.00182 0.992461
1.0005 1.00356 0.990646
1.00006 0.996979 0.99914
1.00012 0.998524 0.996169
1.00006 1.00122 0.993244
1.00003 0.996872 0.999213
1.00005 0.998344 0.996446
1.00001 0.996881 0.999227
0.994773 0.99482 0.787436
0.994804 0.994805 0.787445
0.994733 0.994838 0.795308
1.00105 1.00366 0.989682
1.00025 1.00486 0.989054
1.00189 1.00166 0.99099
0.994872 0.994859 0.797456
0.994795 0.994801 0.788461
0.994792 0.994774 0.781581
0.996371 0.994782 0.959048
0.994844 0.994679 0.923388
0.994768 0.995363 0.873353
0.994868 0.994869 0.79433
0.994911 0.994816 0.954449
0.994793 0.994799 0.927533
0.996079 0.996673 0.862338
0.995361 0.994906 0.815938
0.994902 0.994875 0.953226
0.994841 0.994865 0.932521
0.997167 0.994895 0.873
0.994871 0.994891 0.796016
0.99837 1.00301 0.994036
0.999403 1.00363 0.992338
0.999581 1.00459 0.991116
1.00132 1.00236 0.990398
1.00062 1.00441 0.989629
1.00149 1.00367 0.98937
0.995473 1.00015 0.989029
0.995596 1.00154 0.999745
0.998555 1.00342 0.993704
0.997753 1.0025 0.997917
0.997883 1.00475 0.995506
0.996191 1.00452 0.996039
0.99595 1.00542 0.995997
0.994805 1.00294 0.985475
0.995336 1.00522 0.998113
0.994723 1.00391 0.99787
0.995591 1.00499 0.997806
0.9948 1.0005 0.983904
0.994962 1.00515 0.994629
0.994779 1.00269 0.999147
0.994866 0.99485 0.781738
0.994762 0.99482 0.780617
0.994759 0.994791 0.789325
0.994878 1.00477 1.0008
0.994848 1.00038 0.987413
0.994779 0.994829 0.778699
0.994805 0.996378 0.929984
0.996106 0.994883 0.860416
0.994886 0.994855 0.796257
0.994869 0.994867 0.794156
0.995062 1.00376 0.99766
0.994822 0.994844 0.789888
0.994813 0.994804 0.790601
0.994918 1.00143 0.967886
0.994784 0.995112 0.785617
0.995962 0.997354 0.861733
0.994859 0.996607 0.936812
0.994984 1.00514 0.988305
0.994775 0.994824 0.789133
0.99478 0.994793 0.782687
0.994779 0.995161 0.805183
0.99481 0.994961 0.846232
0.99482 0.995642 0.933747
0.994833 1.00135 0.961698
0.995087 1.0052 0.999021
0.994898 1.00528 0.99799
0.994943 1.0052 0.997772
0.995628 1.00422 0.997787
0.994887 1.0053 0.998794
0.995884 1.0036 0.999286
0.998012 1.00116 0.999014
0.996932 1.00188 0.998227
1.00076 1.00015 0.993845
1.00184 1.00514 0.986762
1.00119 0.999717 0.992976
1.00433 1.00413 0.983611
1.00421 1.00354 0.983218
1.00505 1.00067 0.985315
1.00506 1.0017 0.984632
1.00439 1.00297 0.984298
1.00433 1.00181 0.985449
1.005 1.00257 0.984127
1.0051 1.00205 0.98432
1.00513 1.00109 0.985727
1.00467 1.00201 0.985205
1.00377 1.00209 0.985243
1.00213 1.00292 0.988288
1.00364 1.00114 0.987716
1.00336 1.00087 0.987565
1.00094 1.0052 0.987781
1.00149 1.00502 0.987637
1.00079 1.00406 0.988566
1.00169 1.00512 0.987798
1.00106 1.0048 0.988545
1.00017 1.00142 0.993125
1.00094 1.00406 0.989699
1.00025 1.00059 0.993887
1.0002 0.997931 0.998684
1.00031 0.999998 0.994425
1.00023 0.997699 0.99795
1.0002 0.997519 0.998829
1.00147 1.00374 0.989054
1.00058 1.00295 0.991057
1.00093 1.00386 0.989494
1.00023 0.99933 0.995194
1.00033 1.00255 0.991667
1.00059 1.00396 0.990078
1.00009 0.997113 0.999045
1.00019 0.998812 0.995757
1.0003 1.00182 0.992341
1.00006 0.996938 0.99916
1.00014 0.99847 0.99619
1.00003 0.996893 0.999224
0.994831 0.994846 0.78864
0.994776 0.994835 0.787854
0.994807 0.994802 0.78774
0.999914 1.00536 0.989038
1.00228 1.00195 0.991597
1.00085 1.00379 0.989674
1.00048 1.00472 0.988935
1.00077 1.0019 0.991524
1.00071 1.00271 0.991002
0.999096 1.00109 0.994573
0.994832 0.994834 0.784503
0.994873 0.994859 0.796251
0.994796 0.994829 0.789589
0.99489 0.994916 0.810424
0.995352 0.994815 0.953205
0.99482 0.995376 0.921875
0.995939 0.994932 0.875035
0.994929 0.995154 0.952358
0.994833 0.998042 0.918705
0.996447 0.997153 0.874167
0.995098 0.994904 0.80539
0.994869 0.995972 0.956509
0.994871 0.997962 0.920402
0.994906 0.994974 0.851928
0.994777 0.995044 0.78455
0.996022 1.00485 0.996371
0.99821 1.00333 0.994583
0.999102 1.00419 0.992169
1.00122 1.00284 0.990327
0.994811 1.00248 0.985311
0.994604 1.00412 0.996979
0.996241 1.00477 0.996211
0.996724 1.00532 0.99581
0.99482 1.00529 0.998541
0.995173 1.00517 0.997689
0.995923 1.0036 0.99929
0.995123 1.00139 0.980892
0.9953 1.00514 0.99472
0.996034 1.00272 0.99958
0.995589 1.00156 0.976741
0.994676 1.00299 0.999707
0.994754 0.994831 0.783923
0.994848 0.99485 0.786599
0.994772 0.994837 0.779702
0.99483 1.00384 0.998159
0.994882 1.00122 0.971727
0.994806 0.994845 0.789093
0.994898 0.996973 0.924092
0.995831 0.994922 0.874877
0.994805 0.994833 0.791686
0.994752 0.994923 0.796802
0.994927 1.00514 0.989372
0.994783 0.994834 0.789613
0.994768 0.994801 0.782653
0.994822 1.00094 0.961776
0.994802 0.994967 0.800456
0.994758 0.995166 0.850066
0.994859 0.996155 0.920508
0.994903 1.00405 0.983198
0.994828 0.994817 0.78749
0.994745 0.99486 0.783029
0.994724 0.994708 0.871858
0.994823 0.99488 0.932361
0.99481 0.999778 0.956934
0.994917 1.00528 0.998518
0.995016 1.00502 0.997812
0.995581 1.00389 0.997778
0.995107 1.00429 0.999275
0.996393 1.00312 0.999311
1.00035 1.00081 0.994968
1.00321 0.999855 0.992872
1.0027 1.00514 0.985841
1.00435 1.00226 0.984834
1.00408 1.00397 0.984367
1.00447 1.0035 0.983187
1.00477 1.00147 0.984999
1.00524 0.998049 0.987365
1.00513 1.00016 0.98603
1.00501 1.00085 0.985354
1.00506 1.00181 0.984755
1.00505 1.00155 0.98463
1.00442 1.00286 0.984311
1.00509 1.00318 0.98334
1.00499 1.00257 0.984176
1.00509 1.00198 0.984456
1.00386 1.0016 0.987665
1.00421 1.00173 0.986204
1.0044 1.00202 0.985303
1.00207 1.00406 0.987397
1.00236 1.00272 0.988277
1.0031 1.00201 0.987576
1.00035 1.00191 0.992323
1.00123 1.00516 0.987835
1.00188 1.005 0.987624
1.00123 1.00471 0.988562
1.0002 1.00143 0.993107
1.00016 0.998327 0.998511
1.00024 1.00067 0.993852
1.0002 0.99793 0.998636
1.00023 0.99761 0.998734
1.00101 1.00504 0.989517
1.00156 1.00512 0.988451
1.00087 1.00344 0.990116
1.00117 1.00417 0.98905
1.00023 0.999823 0.994693
1.00053 1.00305 0.991056
1.00098 1.004 0.989468
1.0001 0.997437 0.998915
1.00023 0.999306 0.995217
1.0004 1.00256 0.991746
1.00008 0.997112 0.999074
1.0002 0.99878 0.995789
1.00006 0.996914 0.999181
0.994788 0.994847 0.78
0.994823 0.994836 0.787866
0.99478 0.994828 0.788263
1.0005 1.00535 0.988794
1.00038 1.00173 0.99209
1.00209 1.00072 0.988793
0.99858 1.00372 0.991387
1.0019 0.999396 0.992703
1.00086 1.00475 0.988807
1.00002 1.00251 0.992067
1.00049 1.00361 0.991
0.999356 1.00081 0.995416
0.999083 1.00333 0.99475
0.994762 0.994758 0.783608
0.994809 0.994837 0.785895
0.994871 0.994845 0.795059
0.99539 0.994876 0.807293
0.995994 0.994886 0.860158
0.994915 0.994947 0.951274
0.994816 0.995523 0.931518
0.994869 0.996461 0.952135
0.994897 0.997342 0.932925
0.995132 0.997375 0.861367
0.9948 0.995065 0.782376
0.994951 0.998196 0.954211
0.994791 0.995973 0.932686
0.994813 0.994925 0.875852
0.994726 0.99544 0.808265
0.998446 1.00018 0.996992
0.99572 1.00498 0.996682
0.998356 1.00275 0.995144
0.994721 1.00295 0.977443
0.994943 1.00511 0.994267
0.995048 1.00524 0.997513
0.994722 1.00446 0.999469
0.995404 1.0034 0.999411
0.994726 1.00157 1.0002
0.994786 1.0019 0.977326
0.99594 1.00158 1.00168
0.994913 1.00021 0.984524
0.99479 0.99481 0.796866
0.994779 0.994841 0.782906
0.994832 0.994841 0.791641
0.994951 1.00512 0.989701
0.994838 0.999976 0.959644
0.994801 0.994841 0.790097
0.994861 0.995654 0.932766
0.994763 0.995247 0.870879
0.994776 0.994775 0.782961
0.994837 0.994868 0.795779
0.995217 1.00466 0.983987
0.994815 0.994814 0.787645
0.994775 0.994849 0.784193
0.994857 0.998521 0.958047
0.994739 0.994838 0.8713
0.994832 0.995041 0.925003
0.994898 1.00257 0.981546
0.994724 0.994798 0.781661
0.996565 0.994762 0.873915
0.994788 0.99472 0.922473
0.994866 0.994855 0.957851
0.995405 1.00523 0.997902
0.995212 1.00438 0.997672
0.997575 1.00046 0.997853
0.994838 1.00489 0.999617
0.999262 1.00133 0.995703
1.00432 0.995754 0.992129
1.00368 1.00518 0.984892
1.00431 1.00208 0.984701
1.0049 0.998397 0.987505
1.0048 1.00352 0.983153
1.00473 1.00134 0.985056
1.00496 0.997933 0.988044
1.00531 0.995544 0.989636
1.00529 0.997582 0.987454
1.00525 0.997943 0.9874
1.00522 1.00011 0.986106
1.00512 1.00021 0.985969
1.00486 1.00095 0.985393
1.00523 1.00275 0.983584
1.00507 1.0017 0.984676
1.00504 1.00135 0.984628
1.00503 1.00294 0.984545
1.00459 1.00352 0.983772
1.00505 1.00263 0.984223
1.0023 1.00361 0.987376
1.0033 1.00176 0.987579
1.00344 1.0024 0.986678
1.00067 1.00277 0.992182
1.00186 1.00429 0.987494
1.00256 1.00266 0.988267
1.00023 0.999059 0.995786
1.00044 1.00203 0.992716
1.00144 1.00514 0.987892
1.00029 1.00141 0.993082
1.0002 0.998493 0.998434
1.00021 0.998061 0.998585
1.00171 1.00269 0.988752
1.00193 1.00518 0.987775
0.999697 1.00521 0.9894
1.0009 1.00437 0.989198
1.00106 1.00479 0.988418
1.00012 1.00039 0.994262
1.00072 1.00368 0.990112
1.00093 1.00456 0.989039
1.00008 0.997734 0.998815
1.00023 0.999764 0.994724
1.00046 1.00308 0.991056
1.00008 0.99736 0.998955
1.00024 0.999211 0.99524
1.00008 0.99704 0.999103
0.994769 0.994818 0.796306
0.994793 0.994844 0.780455
0.994806 0.994854 0.787008
1.0032 1.00297 0.98578
1.0004 1.00505 0.988561
0.999868 1.00225 0.992711
1.0001 1.00483 0.990795
1.00334 1.0007 0.98878
1.00127 0.99914 0.995109
1.00393 1.001 0.987679
0.996161 1.00478 0.994746
0.999502 1.00393 0.990995
0.999204 0.999313 0.996259
0.997516 1.00327 0.994736
0.998262 1.00231 0.995283
0.994791 0.994862 0.798303
0.994783 0.994768 0.783001
0.994798 0.994841 0.78699
0.994835 0.996243 0.79837
0.995288 0.995874 0.859823
0.994899 0.997747 0.920583
0.995733 0.995142 0.951809
0.995264 0.998194 0.954802
0.994763 0.995925 0.802943
0.994825 0.996645 0.924181
0.994765 0.995462 0.855782
0.99488 0.996434 0.960326
0.994787 0.994826 0.934507
0.994724 0.995301 0.873732
0.999829 0.995124 1.00146
0.998825 1.00047 0.996835
0.995265 1.00537 0.996974
0.994809 1.00199 0.977425
0.995997 1.00016 1.00061
0.995906 1.00271 0.999324
0.996617 0.999918 1.00205
0.994918 0.999298 0.984622
0.995744 0.998895 0.992596
0.994721 0.99479 0.798563
0.994781 0.994811 0.797083
0.994801 0.994839 0.781686
0.994939 1.00453 0.984128
0.994854 0.999805 0.957114
0.994796 0.994816 0.78808
0.994835 0.994864 0.919845
0.994672 0.994831 0.854262
0.994829 0.994857 0.798492
0.994872 1.00489 0.981196
0.994737 0.994836 0.796502
0.996111 0.994741 0.851974
0.994916 0.995205 0.953138
0.994823 0.994712 0.935437
0.995095 1.00027 0.989605
0.999378 0.995335 0.839625
0.996395 0.994752 0.938331
0.994924 0.994769 0.951459
0.994767 1.00535 0.997554
0.997184 1.00168 0.997541
1.00059 0.998503 0.993852
0.998408 1.00166 0.99644
1.00386 0.996336 0.99185
1.00496 0.995546 0.990729
1.00418 1.00192 0.984574
1.00485 0.998443 0.987398
1.00505 0.996096 0.989552
1.00468 1.0011 0.985119
1.0049 0.997858 0.987991
1.00533 0.994912 0.990219
1.00529 0.994873 0.990914
1.00532 0.995549 0.989629
1.00533 0.9955 0.989681
1.00537 0.997486 0.987503
1.00529 0.997547 0.987641
1.00527 0.997836 0.987432
1.00534 1.00081 0.984981
1.00522 0.99999 0.98602
1.00513 1.00027 0.985905
1.00536 1.00342 0.98263
1.00524 1.00276 0.983592
1.00505 1.00158 0.984594
1.00309 1.00295 0.986743
1.00426 1.00337 0.984502
1.00398 1.00372 0.984208
1.00111 1.00332 0.989705
1.00274 1.00315 0.98733
1.00282 1.00187 0.987481
0.999907 1.00032 0.997876
1.00081 1.00274 0.990794
1.00212 1.00431 0.987588
1.00024 0.998966 0.998185
1.00053 1.00207 0.992117
1.00024 0.998521 0.998347
1.00476 1.00127 0.986872
1.00262 1.00197 0.988292
1.0021 1.0043 0.987652
1.00126 1.00489 0.988504
1.00136 1.00521 0.987776
0.999951 1.00516 0.989281
0.999987 1.00135 0.993655
1.0008 1.00448 0.989203
1.00104 1.00423 0.988376
1.00006 0.998041 0.998708
1.00011 1.00041 0.994275
1.00053 1.00399 0.990105
1.00006 0.997714 0.998841
1.00022 0.99977 0.994747
1.00007 0.997313 0.998995
0.994749 0.994793 0.785405
0.994784 0.994816 0.796626
0.9948 0.994839 0.780982
1.00343 1.00329 0.985685
1.0047 1.00428 0.985065
1.00198 1.0047 0.986843
0.999945 1.00509 0.99019
1.00457 1.00059 0.98879
0.99833 0.998545 0.997336
0.997949 1.00321 0.994504
1.00201 1.00187 0.989372
1.00107 1.00004 0.992895
0.998636 0.999423 0.997003
0.998006 1.00359 0.994688
0.999352 1.00259 0.994756
0.99651 0.994771 0.847154
0.994753 0.994856 0.792277
0.994802 0.994778 0.78334
0.994817 0.994901 0.797167
0.994771 0.995169 0.875486
0.994843 0.995281 0.920333
0.994797 0.997605 0.953988
0.994872 0.997124 0.957548
0.994812 0.994938 0.87271
0.994838 0.994887 0.921769
0.994907 0.997298 0.961525
0.995133 0.994654 0.924709
0.999003 0.995309 1.005
0.999741 0.995015 1.00146
0.998522 1.00022 0.99683
0.994825 0.999148 0.98489
0.99629 0.99954 1.00242
0.995946 0.99898 0.992238
0.995392 0.996172 0.990258
0.999805 0.996926 0.853593
0.994727 0.994766 0.795119
0.99478 0.994819 0.796992
0.994853 1.00447 0.981729
0.994949 0.994857 0.951409
0.994733 0.994844 0.795337
0.994878 0.994688 0.923586
0.996511 0.994776 0.87333
0.995125 0.998351 0.985985
0.999307 0.994872 0.853894
0.996566 0.994715 0.92347
0.994918 0.994805 0.952539
0.995958 0.998059 0.986033
0.99927 0.994854 0.937237
0.994925 0.994807 0.959627
0.996531 1.00195 0.997247
0.999868 0.999202 0.993826
1.0032 0.998152 0.991559
1.0032 0.997023 0.991589
1.00489 0.995412 0.990639
1.00515 0.994993 0.990743
1.00484 0.998434 0.987294
1.00497 0.996298 0.989452
1.00533 0.99475 0.990318
1.00487 0.997819 0.987935
1.00534 0.994938 0.990169
1.00528 0.994806 0.990772
1.00533 0.994841 0.990827
1.00528 0.994861 0.990939
1.00529 0.994946 0.99093
1.00533 0.995938 0.989645
1.00532 0.995602 0.98979
1.00535 0.995446 0.989729
1.00541 0.998462 0.986916
1.00537 0.997538 0.987434
1.00529 0.997494 0.987828
1.00545 1.00239 0.983336
1.00536 1.00086 0.984991
1.00522 0.999904 0.985935
1.00442 1.00312 0.984638
1.00531 1.0033 0.982769
1.00523 1.00278 0.983602
1.00149 1.00359 0.988664
1.003 1.00324 0.98664
1.0037 1.00337 0.98447
1.00029 1.00062 0.997419
1.0013 1.00309 0.989726
1.00277 1.003 0.987272
1.00014 1.00022 0.996412
1.001 1.00255 0.990883
1.00029 0.999261 0.997998
1.0052 1.00335 0.983651
1.00379 1.00209 0.986682
1.00292 1.00207 0.987607
1.00321 1.00239 0.987836
1.00203 1.00435 0.98769
1.00129 1.00517 0.988039
1.0003 1.00171 0.992829
1.00094 1.00494 0.988485
1.0003 1.00523 0.987786
1.00006 0.998458 0.998501
1 1.00108 0.99367
1.00082 1.00445 0.989208
1.00003 0.998023 0.998744
1.00009 1.0003 0.994313
1.00005 0.997638 0.998869
0.998717 0.994812 0.855213
0.994746 0.99479 0.791503
0.994789 0.994812 0.797093
1.00348 1.00356 0.985602
1.00284 1.00464 0.985384
1.00435 1.00415 0.98458
1.00476 1.00309 0.984366
1.00136 1.0019 0.991163
0.999409 1.00331 0.994298
1.00194 1.0017 0.991046
1.00124 1.00039 0.993092
1.00468 0.994979 0.991875
1.00208 0.997154 0.995299
1.00128 0.997927 0.996069
1.0003 0.998301 0.99661
0.999893 1.00148 0.99422
0.997427 0.994754 0.934946
0.997037 0.994767 0.851533
0.994703 0.994846 0.798498
0.994809 0.994904 0.857434
0.994784 0.994823 0.932816
0.994911 0.996596 0.959603
0.994912 0.99653 0.963329
0.994808 0.994698 0.937665
0.995804 0.994794 0.961064
0.997556 0.996245 1.00357
0.997783 0.99599 1.00509
1.00001 0.995398 1.00134
0.995912 0.998354 0.992027
0.996545 0.996217 0.99114
1.00009 0.99575 0.921589
0.99982 0.994897 0.861188
0.994731 0.994743 0.791748
0.99523 0.997922 0.981931
0.994918 0.994787 0.952013
0.999364 0.994836 0.852846
0.996389 0.994741 0.937939
0.995946 0.997579 0.986289
0.99978 0.994865 0.93245
0.995421 0.994808 0.95732
0.999692 0.995065 0.984897
0.997577 0.994826 0.969047
0.999409 0.999422 0.993796
1.00233 0.997253 0.991575
1.00504 0.994679 0.991448
1.0048 0.995359 0.990542
1.00511 0.994902 0.990686
1.00529 0.994694 0.990682
1.00486 0.99647 0.989352
1.00532 0.994754 0.990274
1.00533 0.994788 0.990509
1.00534 0.994966 0.990119
1.00527 0.994817 0.990766
1.00533 0.994851 0.990635
1.00532 0.994843 0.990815
1.00535 0.994853 0.990791
1.00527 0.994852 0.990964
1.00529 0.994934 0.990937
1.00526 0.995239 0.990647
1.00533 0.997006 0.988767
1.00534 0.995957 0.989647
1.00532 0.995659 0.98995
1.00539 1.00093 0.984679
1.00543 0.998586 0.986705
1.00535 0.99758 0.987365
1.00528 1.00313 0.983095
1.00545 1.00238 0.983415
1.00538 1.00091 0.985
1.00226 1.00352 0.987462
1.004 1.00336 0.984688
1.00502 1.00349 0.982908
1.00067 1.0013 0.996949
1.0016 1.00348 0.988632
1.00291 1.00338 0.986552
1.00051 1.0008 0.99724
1.00136 1.00293 0.989751
1.00043 1.00022 0.997525
1.00523 1.00383 0.983422
1.00519 1.0027 0.98375
1.00327 1.00384 0.985459
1.00297 1.00224 0.986474
1.00257 1.00285 0.987444
1.0018 1.00421 0.987268
1.00179 1.00368 0.987722
1.00114 1.00517 0.987961
1.00065 1.00244 0.991618
1.00009 0.999012 0.998203
1.00008 1.00195 0.992834
1.00057 1.00514 0.988468
1.00001 0.998427 0.998579
1.00001 1.00114 0.993652
0.999994 0.997999 0.998774
0.999963 0.994841 0.937295
0.999841 0.994865 0.85269
0.99473 0.994771 0.78524
1.00307 1.00554 0.9839
1.00397 1.00386 0.984088
1.00274 1.00164 0.989657
1.00424 1.0032 0.984482
1.00519 0.999629 0.986226
1.00377 0.997257 0.990297
1.00122 1.00037 0.99326
1.00482 0.995152 0.99124
1.00187 0.996996 0.995391
1.00415 0.997113 0.991004
1.00207 0.998241 0.993822
1.00159 0.998826 0.994587
1.00102 0.998099 0.996131
1.00115 0.997973 0.996231
0.995054 0.994789 0.959931
0.997068 0.994721 0.929961
0.996242 0.994793 0.870619
0.994782 0.994672 0.924099
0.994918 0.996444 0.963841
0.995745 0.995501 0.966837
0.998929 0.994804 0.990647
0.999018 0.99575 1.0023
0.997248 0.996568 1.0052
0.998304 0.997756 0.992121
0.998576 0.99475 0.960861
1.00051 0.994885 0.937285
0.999809 0.9969 0.840949
0.995756 0.997424 0.986746
0.996026 0.994798 0.957299
0.999212 0.994815 0.927185
0.999114 0.996447 0.985475
0.997612 0.994822 0.967942
1.00246 0.996864 0.987497
1.0033 0.994688 0.984876
1.00138 0.997276 0.991582
1.00448 0.994712 0.991522
1.00522 0.99479 0.990831
1.00505 0.994827 0.990629
1.00529 0.994706 0.990631
1.00538 0.994839 0.990458
1.00533 0.994758 0.990229
1.00533 0.994797 0.990508
1.00536 0.994852 0.990536
1.00526 0.994826 0.990759
1.00533 0.994849 0.990656
1.00536 0.994866 0.990691
1.00531 0.994844 0.990804
1.00535 0.994845 0.990782
1.00529 0.994976 0.990914
1.00529 0.994927 0.990944
1.00526 0.995209 0.990669
1.00528 0.996325 0.989655
1.00533 0.999407 0.986433
1.00534 0.99724 0.98843
1.00534 0.99598 0.989649
1.00536 1.00245 0.983438
1.00541 1.00102 0.984699
1.00546 0.998721 0.986494
1.00309 1.00281 0.986917
1.00485 1.00348 0.983112
1.00544 1.00242 0.983497
1.00123 1.0016 0.996464
1.00232 1.00348 0.987352
1.00353 1.00372 0.984743
1.00089 1.00134 0.996768
1.00178 1.00333 0.988604
1.0007 1.00085 0.997065
1.00533 1.00124 0.984749
1.00512 1.00336 0.983355
1.00446 1.004 0.983422
1.00511 1.00226 0.983853
1.0039 1.00342 0.985098
1.0031 1.00305 0.986154
1.00248 1.00438 0.98729
1.0022 1.00423 0.987268
1.00109 1.00301 0.990095
1.00098 1.00513 0.9879
1.0004 1.00261 0.991623
1.00015 1.00003 0.997719
1.00004 0.998942 0.99832
0.999897 1.00197 0.99285
0.999979 0.998362 0.998648
0.995598 0.994973 0.963471
0.999551 0.994889 0.921343
0.999845 0.995745 0.86791
1.00527 0.997305 0.988046
1.00435 1.00136 0.988185
1.00384 1.00326 0.984595
1.00428 0.997384 0.990393
1.00519 0.99973 0.986274
1.00518 0.996182 0.989726
1.00519 0.99551 0.990604
1.00139 0.997188 0.995497
1.00467 0.995838 0.991016
1.00168 0.998209 0.994085
1.00365 0.997968 0.99038
1.00318 0.994797 0.994544
1.00127 0.998381 0.994809
1.0008 0.99863 0.996198
0.998415 0.99469 0.98917
0.99555 0.994776 0.958427
0.996867 0.994728 0.923427
0.995413 0.995523 0.968305
0.998802 0.994825 0.993183
0.999442 0.995461 1.00099
1.00323 0.995454 0.977476
0.999324 0.994842 0.95892
1.00024 0.995376 0.921665
0.998187 0.997236 0.986028
0.99741 0.994802 0.967535
1.00168 0.995806 0.988148
1.00274 0.994714 0.985371
1.00347 0.996915 0.990125
1.00546 0.994694 0.990706
1.00397 0.994722 0.991601
1.00522 0.994789 0.990827
1.00539 0.994885 0.990455
1.00528 0.994716 0.990582
1.00538 0.994832 0.990466
1.00539 0.994862 0.990505
1.00533 0.994806 0.990508
1.00535 0.994856 0.990542
1.00533 0.994898 0.990735
1.00533 0.994847 0.990678
1.00536 0.994867 0.990688
1.00531 0.994875 0.990918
1.00534 0.994838 0.990774
1.00529 0.994924 0.990907
1.00528 0.995323 0.990723
1.00526 0.995177 0.990692
1.00528 0.996122 0.989824
1.00532 0.998732 0.987337
1.00534 1.0015 0.984461
1.00532 0.999675 0.986164
1.00535 0.997462 0.988092
1.00341 1.0015 0.987439
1.0053 1.00252 0.983458
1.00543 1.00111 0.984719
1.00189 1.00147 0.99606
1.00313 1.00254 0.986879
1.00462 1.00363 0.983122
1.00144 1.00168 0.996255
1.00243 1.00337 0.987234
1.00106 1.00151 0.996555
1.00535 0.999024 0.986425
1.00529 1.00127 0.984712
1.00543 1.00258 0.983276
1.00489 1.00306 0.983296
1.00489 1.00398 0.983028
1.00356 1.00356 0.985141
1.00482 1.00266 0.984738
1.00312 1.00335 0.986211
1.00149 1.00341 0.988869
1.00223 1.00429 0.987224
1.00099 1.00322 0.990125
1.00039 1.00112 0.997205
1.0002 1.00278 0.991631
1.00003 0.999805 0.997915
0.999969 0.99887 0.998419
0.999344 0.995042 0.98548
0.996519 0.994845 0.958623
1.00009 0.994838 0.937
1.00541 0.995613 0.989541
1.00533 0.995378 0.989851
1.0053 0.996975 0.988283
1.0048 0.997416 0.990485
1.00518 0.999739 0.986329
1.00521 0.996038 0.989812
1.0054 0.994825 0.989964
1.0049 0.995292 0.991038
1.00159 0.998168 0.994375
1.0036 0.997969 0.991064
1.00519 0.994768 0.991091
1.00365 0.994693 0.993248
1.00263 0.994848 0.994359
1.00148 0.997643 0.995035
0.998968 0.994645 0.98908
0.996308 0.994796 0.957422
0.99904 0.994821 0.995864
1.00478 0.995694 0.989678
1.00335 0.995317 0.977601
0.9988 0.994882 0.958988
1.00153 0.994786 0.988699
1.00228 0.994731 0.985886
1.00368 0.995898 0.990497
1.00544 0.994689 0.990831
1.00545 0.994754 0.990901
1.00551 0.994836 0.991217
1.00523 0.994797 0.990818
1.00541 0.994867 0.990467
1.00539 0.994856 0.990777
1.00537 0.994822 0.990474
1.0054 0.994859 0.990533
1.00533 0.994881 0.990819
1.00534 0.994858 0.990548
1.00534 0.994899 0.990731
1.0053 0.994918 0.99096
1.00536 0.994868 0.990686
1.00531 0.994876 0.990913
1.00531 0.994957 0.991036
1.00529 0.994871 0.9909
1.00528 0.995308 0.99065
1.00534 0.997802 0.988227
1.00528 0.995923 0.989993
1.00532 0.998598 0.98748
1.00532 1.0009 0.985195
1.00355 1.00085 0.988027
1.00535 1.00148 0.984488
1.00532 0.999953 0.985895
1.00225 1.00088 0.996106
1.00342 1.00159 0.987483
1.00512 1.00275 0.983475
1.00199 1.00139 0.996051
1.00315 1.00251 0.986849
1.00164 1.00182 0.996104
1.00535 0.996708 0.988664
1.00534 0.998831 0.98671
1.00545 1.00112 0.984727
1.00526 1.00134 0.984667
1.00544 1.00268 0.983173
1.00428 1.00344 0.984087
1.00536 1.0039 0.982631
1.00382 1.00324 0.985148
1.00213 1.00366 0.987619
1.0035 1.00342 0.986288
1.00141 1.00353 0.988891
1.00072 1.00169 0.996781
1.00073 1.0034 0.990152
1.0002 1.00087 0.997388
1 0.999579 0.998089
1.00375 0.995274 0.992157
0.999036 0.995267 0.982979
0.996382 0.994834 0.959455
1.00538 0.995 0.990186
1.00537 0.995454 0.989702
1.00534 0.994875 0.990694
1.00534 0.995584 0.989801
1.00531 0.99672 0.988511
1.00544 0.994758 0.990395
1.00523 0.995997 0.989886
1.00536 0.99502 0.989961
1.00536 0.994694 0.990807
1.00364 0.997286 0.991739
1.0052 0.994755 0.990743
1.00305 0.99462 0.993495
1.00174 0.994878 0.9942
0.9994 0.994602 0.988719
1.00551 0.994787 0.991339
1.00501 0.995354 0.989654
1.00323 0.995216 0.977836
1.00373 0.994851 0.990854
1.00543 0.994692 0.990953
1.00543 0.99475 0.990868
1.00554 0.994836 0.99134
1.00539 0.994849 0.991311
1.00542 0.994853 0.99048
1.00539 0.994857 0.990777
1.00534 0.994884 0.991073
1.0054 0.994856 0.990561
1.00534 0.994883 0.990819
1.00528 0.994921 0.991105
1.00535 0.9949 0.990728
1.0053 0.994919 0.99096
1.00529 0.994898 0.991246
1.0053 0.994877 0.990908
1.00531 0.994965 0.990996
1.00533 0.996843 0.989292
1.00528 0.995293 0.990578
1.00534 0.997836 0.988227
1.00532 1.00036 0.985795
1.00531 0.998459 0.987623
1.00533 1.00087 0.985224
1.00347 1.00065 0.99021
1.00258 0.999934 0.992523
1.00353 1.00089 0.988965
1.00535 1.00145 0.984515
1.00217 1.00082 0.996168
1.0034 1.00145 0.987525
1.00199 1.00139 0.996071
1.00531 0.994894 0.990975
1.0053 0.995585 0.990152
1.00533 0.996684 0.9889
1.00528 0.999678 0.986259
1.00533 0.998582 0.986996
1.00541 1.00112 0.98466
1.00504 1.00266 0.983673
1.00545 1.00275 0.983072
1.00464 1.00302 0.984036
1.00297 1.00301 0.986684
1.00415 1.00294 0.985161
1.00201 1.0037 0.987639
1.00137 1.00208 0.996202
1.00142 1.00366 0.988925
1.00057 1.00157 0.996947
0.99998 1.00064 0.997596
1.00542 0.994815 0.991174
1.00357 0.995081 0.991604
0.999039 0.995248 0.980542
1.00533 0.994816 0.990726
1.00538 0.995061 0.990121
1.00534 0.995246 0.989878
1.00534 0.994893 0.990702
1.00534 0.995712 0.989752
1.00537 0.994827 0.9908
1.00541 0.994752 0.990354
1.00533 0.995157 0.989962
1.00531 0.994703 0.990849
1.0052 0.99478 0.990394
1.00276 0.99454 0.993713
1.00533 0.994859 0.991403
1.00548 0.994804 0.991342
1.00535 0.995006 0.989624
1.0054 0.994743 0.990826
1.00557 0.99483 0.991461
1.0054 0.994859 0.991286
1.00534 0.994902 0.991346
1.00538 0.994858 0.990776
1.00534 0.994886 0.991034
1.00527 0.994925 0.991273
1.00534 0.994885 0.990819
1.00528 0.994921 0.991104
1.00521 0.99493 0.991436
1.0053 0.994919 0.99096
1.0053 0.994899 0.991218
1.00533 0.996064 0.990239
1.00531 0.994972 0.990955
1.00535 0.996867 0.989282
1.0053 0.999925 0.986327
1.00534 0.997869 0.988227
1.00532 1.00034 0.985829
1.00349 1.00048 0.990345
1.00534 1.00083 0.985253
1.00371 1.00051 0.990052
1.00261 0.999646 0.992666
1.00224 1.00027 0.994495
1.00373 1.00091 0.989695
1.00215 1.00072 0.99622
1.0053 0.994869 0.990978
1.00527 0.995346 0.990587
1.00531 0.994901 0.991004
1.00527 0.998333 0.987702
1.0053 0.995528 0.990265
1.00532 0.996743 0.989135
1.0053 0.999626 0.986232
1.00534 1.0015 0.984436
1.00538 1.00114 0.984594
1.00517 1.00252 0.983671
1.00336 1.00187 0.987189
1.00484 1.00287 0.983993
1.00288 1.00313 0.986761
1.00185 1.00178 0.995977
1.00195 1.00365 0.987667
1.00113 1.00184 0.996443
1.00034 1.00148 0.997084
1.00534 0.994881 0.991073
1.00537 0.99482 0.99124
1.00303 0.995022 0.991072
1.0053 0.994871 0.99094
1.00534 0.994813 0.990675
1.00538 0.995108 0.990057
1.00534 0.994923 0.990709
1.00539 0.994836 0.990773
1.00537 0.994746 0.990312
1.00528 0.994717 0.990888
1.00533 0.994901 0.991387
1.00533 0.994862 0.991358
1.00546 0.994827 0.991343
1.00531 0.994922 0.991424
1.00542 0.994869 0.99126
1.00533 0.994902 0.99134
1.00528 0.994933 0.991397
1.00534 0.994886 0.990994
1.00528 0.994926 0.991277
1.00516 0.994961 0.991607
1.00528 0.994921 0.991103
1.00523 0.99493 0.991426
1.00533 0.995569 0.990867
1.00531 0.994901 0.991191
1.00531 0.996093 0.990234
1.00528 0.999579 0.986747
1.00536 0.996892 0.989273
1.0053 0.999908 0.986365
1.00345 1.00043 0.990414
1.00533 1.00031 0.985863
1.00371 1.00037 0.990163
1.00259 0.999684 0.992648
1.00394 1.00036 0.9899
1.00209 0.999801 0.993052
1.00151 1.00063 0.996874
1.00527 0.994913 0.991058
1.00532 0.994931 0.990961
1.0053 0.994877 0.99099
1.0053 0.997763 0.988318
1.00529 0.995175 0.990716
1.00531 0.994893 0.991036
1.00535 1.00053 0.985468
1.00527 0.998277 0.987697
1.0053 0.995471 0.990378
1.0053 0.99958 0.986204
1.00534 1.00153 0.984405
1.00334 1.00109 0.988083
1.00537 1.00235 0.983656
1.00329 1.00197 0.98718
1.00193 1.00116 0.996179
1.00274 1.0032 0.986813
1.00178 1.00176 0.996017
1.00095 1.00177 0.996669
1.00531 0.994907 0.991226
1.00536 0.994876 0.991002
1.00531 0.994821 0.99131
1.00529 0.994874 0.990954
1.00534 0.994811 0.990624
1.0054 0.994844 0.990746
1.0053 0.994929 0.991425
1.00533 0.994904 0.9914
1.00533 0.994866 0.991314
1.00531 0.994922 0.991433
1.00525 0.994947 0.991562
1.00533 0.994904 0.991335
1.00528 0.994936 0.991429
1.00514 0.994962 0.991662
1.00528 0.994926 0.991282
1.00517 0.99496 0.991605
1.00531 0.995298 0.991186
1.00525 0.99493 0.991416
1.00529 0.995612 0.990866
1.0053 0.999268 0.987049
1.00529 0.99612 0.99023
1.00529 0.999564 0.986774
1.00338 1.00043 0.99049
1.00529 0.999891 0.986404
1.00366 1.00035 0.990221
1.00247 0.999845 0.992626
1.00391 1.00027 0.98999
1.00212 0.999742 0.993057
1.00159 0.999987 0.993425
1.00525 0.994921 0.991266
1.00526 0.994938 0.991227
1.00526 0.994909 0.991037
1.00529 0.996622 0.989541
1.00533 0.994983 0.990926
1.00529 0.994885 0.991001
1.00529 0.999979 0.986221
1.00529 0.997335 0.988712
1.0053 0.995021 0.990844
1.00345 1.00048 0.988566
1.00533 1.00059 0.985432
1.00527 0.998225 0.987694
1.00535 1.00155 0.984373
1.00337 1.00106 0.988047
1.00198 1.00068 0.996336
1.00324 1.00217 0.987186
1.00199 1.00126 0.996092
1.00166 1.00169 0.996147
1.00527 0.994934 0.991424
1.00531 0.994904 0.991189
1.00538 0.994871 0.990931
1.00529 0.994878 0.990968
1.00524 0.994953 0.991576
1.00531 0.994928 0.991428
1.00532 0.994906 0.991412
1.00531 0.994921 0.991443
1.00525 0.994942 0.991562
1.00514 0.994956 0.991753
1.00527 0.994939 0.991462
1.00514 0.994963 0.991696
1.0053 0.995266 0.991294
1.00517 0.994959 0.991604
1.00529 0.995361 0.991182
1.00534 0.998981 0.987305
1.00525 0.995667 0.990866
1.00533 0.999247 0.987052
1.00341 1.00038 0.988818
1.00529 0.99955 0.9868
1.00359 1.00039 0.989413
1.00212 0.999945 0.996303
1.00387 1.00028 0.990028
1.00204 0.999851 0.993037
1.00167 0.999789 0.993449
1.00523 0.994943 0.991415
1.00522 0.994937 0.991403
1.00525 0.994924 0.991297
1.00525 0.995845 0.990618
1.00526 0.994938 0.991184
1.00526 0.994905 0.991016
1.00522 0.999073 0.987363
1.00528 0.996654 0.989538
1.00534 0.995019 0.99089
1.0035 1.0002 0.98878
1.00528 0.999704 0.986485
1.00529 0.996895 0.989105
1.00208 1.00022 0.996415
1.00348 1.00043 0.988535
1.00531 1.00063 0.985393
1.00341 1.00101 0.988012
1.00201 1.0007 0.996291
1.00202 1.00131 0.995991
1.00523 0.994953 0.991493
1.00528 0.994935 0.99141
1.0053 0.994902 0.991151
1.00516 0.994954 0.991785
1.00523 0.994951 0.991552
1.00531 0.994926 0.99143
1.00525 0.994938 0.991563
1.00514 0.994955 0.991749
1.00531 0.995929 0.990609
1.00515 0.994965 0.99173
1.0053 0.995606 0.990934
1.00535 0.99814 0.988261
1.00527 0.995412 0.991178
1.00536 0.998959 0.9873
1.00335 1.00017 0.989113
1.00535 0.999228 0.987058
1.00344 1.00034 0.988823
1.00203 1.00001 0.996322
1.00365 1.00036 0.988513
1.00194 0.999991 0.994744
1.00162 0.999841 0.993447
1.00521 0.99495 0.991536
1.00518 0.994954 0.991591
1.00523 0.994941 0.991425
1.00525 0.99579 0.990738
1.00521 0.99494 0.991436
1.00525 0.994926 0.991327
1.00526 0.998793 0.987624
1.00527 0.996094 0.990251
1.00526 0.994938 0.991142
1.00352 1.00018 0.988796
1.00521 0.999012 0.987404
1.00528 0.996696 0.989535
1.00214 0.999956 0.996407
1.00351 1.00019 0.988762
1.00528 0.99942 0.986751
1.00212 1.00025 0.996389
1.00351 1.00039 0.988504
1.00203 1.00076 0.996254
1.00519 0.994955 0.991653
1.00523 0.994952 0.991514
1.00529 0.994936 0.991395
1.00534 0.995959 0.99054
1.00516 0.994954 0.991748
1.00523 0.99495 0.991528
1.00515 0.994954 0.991744
1.00531 0.995908 0.990611
1.00533 0.998032 0.988401
1.00529 0.995943 0.990575
1.00536 0.998436 0.98788
1.0033 0.999982 0.989386
1.00538 0.998935 0.987293
1.00335 1.00018 0.989119
1.00189 1.00002 0.996379
1.00346 1.00032 0.988824
1.00197 1.00003 0.996336
1.00204 0.999995 0.99283
1.00517 0.994958 0.991617
1.0052 0.994946 0.991477
1.00528 0.995698 0.990848
1.00518 0.994955 0.991592
1.00523 0.99494 0.991435
1.00529 0.99922 0.98705
1.00527 0.995711 0.990737
1.0052 0.994945 0.991469
1.00349 1.00024 0.988817
1.00525 0.999081 0.987281
1.00528 0.996348 0.989887
1.00212 0.999912 0.996352
1.00351 1.00021 0.988793
1.00521 0.998954 0.987447
1.00216 0.999983 0.996415
1.00352 1.00019 0.988741
1.00218 1.00027 0.996359
1.00535 0.996044 0.99041
1.00519 0.994956 0.991673
1.00522 0.994952 0.991536
1.00531 0.998081 0.988384
1.00533 0.995955 0.990541
1.00516 0.994954 0.991712
1.0053 0.995889 0.990612
1.00535 0.997995 0.988386
1.00323 0.999871 0.989618
1.00537 0.998738 0.987498
1.0033 0.999984 0.989391
1.00181 1.00001 0.996455
1.00336 1.00019 0.989128
1.00184 1.00005 0.996415
1.00193 1.00005 0.996362
1.00531 0.995629 0.990922
1.00518 0.994957 0.991618
1.0052 0.994942 0.991417
1.0053 0.999052 0.987236
1.00529 0.995634 0.990851
1.00519 0.994957 0.991592
1.00341 1.00023 0.988974
1.00528 0.999251 0.987054
1.00529 0.995632 0.990735
1.00203 0.99997 0.996323
1.00347 1.00027 0.98882
1.00524 0.999365 0.986938
1.00215 0.99992 0.996373
1.00349 1.00024 0.988787
1.00222 0.999982 0.996413
1.0053 0.998727 0.987612
1.00534 0.995775 0.990746
1.00519 0.994956 0.991693
1.00319 0.999799 0.989792
1.00533 0.998035 0.988385
1.00532 0.995948 0.990542
1.00536 0.997954 0.988371
1.00325 0.999843 0.989621
1.00174 0.999999 0.996499
1.0033 0.999987 0.989397
1.00178 1.00002 0.996466
1.00179 1.00007 0.99644
1.0053 0.998884 0.98745
1.00531 0.995595 0.99096
1.00519 0.994956 0.991618
1.00348 1.00011 0.990689
1.00529 0.999068 0.987246
1.00529 0.995569 0.990853
1.00191 1.00002 0.996353
1.00339 1.00026 0.988976
1.00527 0.999282 0.98706
1.00208 0.999961 0.996333
1.00345 1.00031 0.988822
1.00219 0.999915 0.996394
1.00331 0.999796 0.989666
1.00529 0.99845 0.98795
1.00533 0.995514 0.991082
1.00165 0.999979 0.996566
1.00318 0.999782 0.989784
1.00534 0.997995 0.988388
1.00326 0.999814 0.98962
1.00171 0.999991 0.996521
1.00174 1.00003 0.996483
1.00351 0.999953 0.99087
1.00529 0.998889 0.987459
1.00532 0.99556 0.990999
1.00125 1.00007 0.997063
1.00331 1.00014 0.989233
1.00528 0.999083 0.987259
1.00194 1.00002 0.996348
1.00337 1.0003 0.988976
1.00212 0.999949 0.996344
1.00163 0.999907 0.993524
1.00333 0.999818 0.990387
1.00529 0.998163 0.988284
1.00167 0.999977 0.996575
1.0032 0.999769 0.989784
1.00172 0.999981 0.996539
1.00106 1.00003 0.994035
1.00338 0.999923 0.990191
1.00527 0.998899 0.987467
1.0015 1.00005 0.99514
1.00328 1.00015 0.989257
1.00199 1.00001 0.996345
1.00166 0.99997 0.996572
1.00317 0.999818 0.989774
1.00163 0.999971 0.996576
1.00141 0.999964 0.995301
1.00324 0.99992 0.989573
1.00184 1.00003 0.996396
1.00167 0.999984 0.996565
1.00172 0.999999 0.996486

TENSORS stress float
0.00261957 -0.00018678 0.000305863
-0.00018678 0.00136566 -5.68217e-05
0.000305863 -5.68217e-05 0.00133728
0.00802552 0.000161409 0.000374361
0.000161409 0.00486625 4.77935e-05
0.000374361 4.77935e-05 0.00488209
0.00222413 -0.000116742 0.000121623
-0.000116742 0.00110414 -2.16261e-05
0.000121623 -2.16261e-05 0.00106101
0.00244889 -0.000103982 0.000287332
-0.000103982 0.00123672 -3.21614e-05
0.000287332 -3.21614e-05 0.00122029
0.00260649 -0.000162825 0.000297363
-0.000162825 0.00134863 -4.94901e-05
0.000297363 -4.94901e-05 0.00132434
0.00269286 -0.000195639 0.00031986
-0.000195639 0.00141256 -5.97873e-05
0.00031986 -5.97873e-05 0.00138424
0.00213293 -0.000218244 6.12552e-05
-0.000218244 0.000891991 -1.58538e-05
6.12552e-05 -1.58538e-05 0.000743989
0.00816619 0.000153965 -1.03791e-05
0.000153965 0.00494705 -3.28916e-06
-1.03791e-05 -3.28916e-06 0.00496705
0.00722792 0.000275932 0.000184364
0.000275932 0.00436793 2.11301e-05
0.000184364 2.11301e-05 0.00433408
0.00749937 8.10719e-05 0.000124478
8.10719e-05 0.00450135 8.64901e-06
0.000124478 8.64901e-06 0.00448067
0.00199445 0.000261315 0.000340676
0.000261315 0.000982492 5.28502e-05
0.000340676 5.28502e-05 0.000960822
0.000249875 0.000291368 2.58856e-05
0.000291368 -0.000256386 2.30003e-05
2.58856e-05 2.30003e-05 -0.000442682
0.00198915 -2.97671e-05 0.000278692
-2.97671e-05 0.00093612 5.5438e-06
0.000278692 5.5438e-06 0.000941851
0.00174574 7.69242e-06 7.89299e-05
7.69242e-06 0.000804917 3.34797e-06
7.89299e-05 3.34797e-06 0.000752515
0.00190787 -0.000114941 -7.52647e-05
-0.000114941 0.000914092 1.42741e-05
-7.52647e-05 1.42741e-05 0.000846966
0.00210304 -0.000101778 9.22489e-05
-0.000101778 0.00103297 -6.25859e-06
9.22489e-05 -6.25859e-06 0.000993796
0.00228877 -0.000109124 0.000133948
-0.000109124 0.00114869 -2.45128e-05
0.000133948 -2.45128e-05 0.00110264
0.00219819 -0.000118754 0.00010877
-0.000118754 0.00108675 -1.61223e-05
0.00010877 -1.61223e-05 0.00104575
0.00225646 -0.000254864 -4.73137e-05
-0.000254864 0.000972797 8.11913e-06
-4.73137e-05 8.11913e-06 0.000834709
0.00671845 -0.000171397 0.000370362
-0.000171397 0.00404372 -1.91014e-05
0.000370362 -1.91014e-05 0.00407048
0.00232606 -7.85922e-05 0.000281871
-7.85922e-05 0.00115787 -2.41139e-05
0.000281871 -2.41139e-05 0.0011453
0.00253572 -0.000132764 0.000291051
-0.000132764 0.00129665 -4.08146e-05
0.000291051 -4.08146e-05 0.00127675
0.0020524 -0.000171073 7.65386e-05
-0.000171073 0.000873654 -1.26925e-05
7.65386e-05 -1.26925e-05 0.000760019
0.00212641 -0.000210892 6.87004e-05
-0.000210892 0.00088939 -1.55239e-05
6.87004e-05 -1.55239e-05 0.000755572
0.00260245 -0.000178118 0.000326762
-0.000178118 0.00134849 -5.73052e-05
0.000326762 -5.73052e-05 0.00132364
0.0021656 -0.000225899 5.76889e-05
-0.000225899 0.000924463 -1.6584e-05
5.76889e-05 -1.6584e-05 0.00075754
0.00215143 -0.000451297 1.74665e-05
-0.000451297 0.0005891 -6.37394e-06
1.74665e-05 -6.37394e-06 0.000306671
0.00820174 0.00015175 -0.000401735
0.00015175 0.00495792 -4.05627e-05
-0.000401735 -4.05627e-05 0.00498544
0.00478966 0.000201624 -0.000166497
0.000201624 0.0027737 -2.07504e-05
-0.000166497 -2.07504e-05 0.00274855
0.00490242 0.00013999 -0.000174667
0.00013999 0.00284487 -2.12936e-05
-0.000174667 -2.12936e-05 0.00282273
0.00842602 9.23261e-05 -2.30755e-06
9.23261e-05 0.00511625 -1.8641e-06
-2.30755e-06 -1.8641e-06 0.00513694
0.000243806 0.000276478 -1.41567e-06
0.000276478 -0.000253315 -1.25941e-06
-1.41567e-06 -1.25941e-06 -0.000437642
0.00212171 8.08191e-05 0.000290044
8.08191e-05 0.00102054 2.98616e-05
0.000290044 2.98616e-05 0.00101079
0.00225869 0.000173827 0.00030308
0.000173827 0.00113895 4.69592e-05
0.00030308 4.69592e-05 0.00111544
0.00300382 0.00026416 0.000176886
0.00026416 0.00145464 2.78139e-05
0.000176886 2.78139e-05 0.00134931
0.00780739 -0.000216234 5.70311e-05
-0.000216234 0.00477197 3.8305e-06
5.70311e-05 3.8305e-06 0.00472703
0.00314369 0.000363178 0.000191527
0.000363178 0.00159734 3.64933e-05
0.000191527 3.64933e-05 0.00146286
0.00027461 0.000273418 2.58687e-05
0.000273418 -0.000226249 3.23518e-05
2.58687e-05 3.23518e-05 -0.000415396
0.00131026 0.000458149 2.89872e-05
0.000458149 0.000174851 6.32161e-06
2.89872e-05 6.32161e-06 -0.000162745
0.00612854 -0.000102139 0.000234602
-0.000102139 0.00374468 3.05399e-05
0.000234602 3.05399e-05 0.00373637
0.00664898 9.14022e-05 3.1002e-06
9.14022e-05 0.00398226 -2.18193e-06
3.1002e-06 -2.18193e-06 0.00401856
0.0043796 0.000105257 -0.000140015
0.000105257 0.00250811 -6.87262e-06
-0.000140015 -6.87262e-06 0.00249814
0.00651435 5.73109e-05 0.000359094
5.73109e-05 0.00389751 5.21845e-06
0.000359094 5.21845e-06 0.00393507
0.00164008 9.29117e-05 8.08687e-05
9.29117e-05 0.000741147 6.38721e-06
8.08687e-05 6.38721e-06 0.000692927
0.000431673 1.54641e-05 1.26795e-05
1.54641e-05 -0.000183901 2.77324e-06
1.26795e-05 2.77324e-06 -0.000281004
0.0068557 0.000251864 0.000207904
0.000251864 0.00415043 2.13508e-05
0.000207904 2.13508e-05 0.00412397
0.00296871 9.79582e-05 0.00016249
9.79582e-05 0.00143605 1.22203e-05
0.00016249 1.22203e-05 0.00137084
0.00174052 -0.000102784 -9.43888e-05
-0.000102784 0.000819174 1.30788e-05
-9.43888e-05 1.30788e-05 0.000756632
0.00179122 -0.000134746 -8.77502e-05
-0.000134746 0.000851264 1.65912e-05
-8.77502e-05 1.65912e-05 0.000781886
0.00199765 -7.85613e-05 -6.34092e-05
-7.85613e-05 0.000962428 1.19051e-05
-6.34092e-05 1.19051e-05 0.000896653
0.00233986 -0.000256702 -0.000163171
-0.000256702 0.00101593 3.20117e-05
-0.000163171 3.20117e-05 0.000892536
0.00424028 -4.15067e-05 -0.000142959
-4.15067e-05 0.00242708 -9.17902e-07
-0.000142959 -9.17902e-07 0.00241765
0.00204336 -8.11582e-05 9.56934e-05
-8.11582e-05 0.00099144 -4.92098e-06
9.56934e-05 -4.92098e-06 0.000957217
0.00240889 -8.40774e-05 0.00013845
-8.40774e-05 0.00122236 -2.31223e-05
0.00013845 -2.31223e-05 0.00117455
0.00214702 -0.000109922 9.86204e-05
-0.000109922 0.00105706 -1.03973e-05
9.86204e-05 -1.03973e-05 0.00101734
0.00213811 -0.000148448 -3.85567e-05
-0.000148448 0.000914902 3.40101e-06
-3.85567e-05 3.40101e-06 0.000816252
0.00227999 -0.000273116 -5.46796e-05
-0.000273116 0.000997816 9.4899e-06
-5.46796e-05 9.4899e-06 0.000842719
0.0022151 -0.000225406 -4.20169e-05
-0.000225406 0.000944782 6.00939e-06
-4.20169e-05 6.00939e-06 0.000821688
0.00228154 -0.00046167 -1.03464e-05
-0.00046167 0.000672678 2.75131e-06
-1.03464e-05 2.75131e-06 0.000390574
0.0065233 -1.72372e-05 0.0003566
-1.72372e-05 0.00390024 -4.90418e-06
0.0003566 -4.90418e-06 0.00393904
0.00224307 -5.20826e-05 0.000275811
-5.20826e-05 0.00110728 -1.69335e-05
0.000275811 -1.69335e-05 0.00109993
0.00252816 -2.77951e-05 6.01613e-05
-2.77951e-05 0.0011929 -1.14314e-06
6.01613e-05 -1.14314e-06 0.001117
0.00199604 -0.000136377 6.92275e-05
-0.000136377 0.000841257 -8.52011e-06
6.92275e-05 -8.52011e-06 0.000739495
0.00208215 -0.000190733 7.39112e-05
-0.000190733 0.000873886 -1.45295e-05
7.39112e-05 -1.45295e-05 0.000751362
0.00200557 -0.000277976 2.30119e-06
-0.000277976 0.00041919 -1.71654e-06
2.30119e-06 -1.71654e-06 0.000231881
0.0020635 -0.000399641 1.27961e-05
-0.000399641 0.000482224 -3.79785e-06
1.27961e-05 -3.79785e-06 0.000241192
0.00253079 -0.000143514 0.00032216
-0.000143514 0.00129417 -5.1271e-05
0.00032216 -5.1271e-05 0.00126838
0.00215217 -0.000184573 4.98385e-05
-0.000184573 0.000952688 -1.47963e-05
4.98385e-05 -1.47963e-05 0.000779275
0.00210758 -0.0005056 2.15485e-05
-0.0005056 0.000596668 -6.45485e-06
2.15485e-05 -6.45485e-06 0.00027004
0.00207833 -0.00060494 2.2679e-06
-0.00060494 0.000286792 2.33363e-06
2.2679e-06 2.33363e-06 -3.59675e-05
0.00769976 0.000330648 -0.000413889
0.000330648 0.0046672 -5.26447e-05
-0.000413889 -5.26447e-05 0.00467697
0.00830136 5.33541e-05 -0.000360086
5.33541e-05 0.00503923 -3.33806e-05
-0.000360086 -3.33806e-05 0.0050602
0.00786757 0.000213663 -0.000390622
0.000213663 0.00474847 -4.41585e-05
-0.000390622 -4.41585e-05 0.00477175
0.000221406 0.000260771 -2.5562e-05
0.000260771 -0.000260821 -2.24632e-05
-2.5562e-05 -2.24632e-05 -0.000444883
0.00737366 0.000275279 -2.0917e-06
0.000275279 0.00445117 -2.73778e-06
-2.0917e-06 -2.73778e-06 0.00446849
0.00773658 0.000297595 -8.17356e-06
0.000297595 0.00467971 -3.87469e-06
-8.17356e-06 -3.87469e-06 0.00469215
0.000358277 0.000174882 2.78176e-07
0.000174882 -0.000264531 -3.1848e-07
2.78176e-07 -3.1848e-07 -0.000410398
0.00454808 -2.05043e-05 -0.000157627
-2.05043e-05 0.00266089 -1.07142e-05
-0.000157627 -1.07142e-05 0.00262935
0.00030245 0.000256082 1.71812e-06
0.000256082 -0.000244715 -4.03159e-07
1.71812e-06 -4.03159e-07 -0.000419885
0.00202394 0.000304332 7.94618e-05
0.000304332 0.000908671 4.94871e-06
7.94618e-05 4.94871e-06 0.000750954
0.0012081 0.000459781 1.10038e-06
0.000459781 9.45108e-05 3.64094e-07
1.10038e-06 3.64094e-07 -0.000245958
0.00693115 -6.54728e-05 0.000286966
-6.54728e-05 0.00424064 3.63249e-05
0.000286966 3.63249e-05 0.00423831
0.00049152 0.00016626 2.97316e-05
0.00016626 -3.78979e-05 1.66217e-05
2.97316e-05 1.66217e-05 -0.000143367
0.00044971 0.000136903 1.38266e-05
0.000136903 -0.000213243 1.21578e-05
1.38266e-05 1.21578e-05 -0.00034627
0.00045278 0.000208331 1.82908e-05
0.000208331 -0.000192854 2.05726e-05
1.82908e-05 2.05726e-05 -0.00035076
0.00151956 0.000380985 1.31641e-05
0.000380985 6.98129e-05 4.57888e-06
1.31641e-05 4.57888e-06 -0.000180738
0.00366162 0.000331197 0.000190651
0.000331197 0.00199089 3.32219e-05
0.000190651 3.32219e-05 0.00187227
0.00142222 0.000458026 2.56987e-05
0.000458026 0.000142685 7.06626e-06
2.56987e-05 7.06626e-06 -0.000171718
0.000735979 0.000402837 2.41728e-05
0.000402837 -8.6728e-05 5.64244e-06
2.41728e-05 5.64244e-06 -0.000425906
0.0018372 0.000692664 1.01527e-05
0.000692664 0.000313616 -5.40083e-06
1.01527e-05 -5.40083e-06 -0.000118792
0.00512212 -0.000148273 0.000162134
-0.000148273 0.00308587 1.78494e-05
0.000162134 1.78494e-05 0.00307269
0.00568131 -0.000156361 1.30565e-05
-0.000156361 0.00345331 2.97138e-06
1.30565e-05 2.97138e-06 0.00343701
0.00713133 8.34769e-05 -0.000379627
8.34769e-05 0.00427633 -2.14181e-05
-0.000379627 -2.14181e-05 0.00431081
0.00675075 8.33919e-05 -0.000370901
8.33919e-05 0.0040432 -1.31788e-05
-0.000370901 -1.31788e-05 0.00408087
0.00660577 8.39153e-05 -2.09245e-07
8.39153e-05 0.00396071 -4.51567e-06
-2.09245e-07 -4.51567e-06 0.00399584
0.00423852 4.65901e-05 -0.000151026
4.65901e-05 0.0024161 -8.78646e-06
-0.000151026 -8.78646e-06 0.00241223
0.00155636 4.4694e-05 7.16743e-05
4.4694e-05 0.000544541 2.28608e-06
7.16743e-05 2.28608e-06 0.00046883
0.00457125 0.000168509 -0.000143918
0.000168509 0.00263799 -9.28068e-06
-0.000143918 -9.28068e-06 0.00261896
0.00164591 0.000111418 7.29368e-05
0.000111418 0.000581378 4.09032e-06
7.29368e-05 4.09032e-06 0.000490007
0.0065657 0.000109097 0.000363132
0.000109097 0.0039425 7.4036e-06
0.000363132 7.4036e-06 0.00397346
0.000301659 1.03221e-05 1.63031e-05
1.03221e-05 -0.000260127 1.6135e-06
1.63031e-05 1.6135e-06 -0.000352906
0.00292385 5.42806e-05 0.000160777
5.42806e-05 0.00141833 8.44246e-06
0.000160777 8.44246e-06 0.00136176
0.0012863 9.06023e-05 4.12824e-06
9.06023e-05 -6.49101e-05 1.04393e-06
4.12824e-06 1.04393e-06 -0.00019875
0.00288829 0.000152833 0.000168158
0.000152833 0.0013762 1.5934e-05
0.000168158 1.5934e-05 0.00129961
0.00140312 0.000190008 2.35565e-06
0.000190008 -2.82205e-05 1.3035e-06
2.35565e-06 1.3035e-06 -0.000189668
0.00201759 3.63114e-05 -0.000279175
3.63114e-05 0.000949681 4.70637e-06
-0.000279175 4.70637e-06 0.000958593
0.00171852 -3.21195e-05 -8.07147e-05
-3.21195e-05 0.000794159 4.68414e-06
-8.07147e-05 4.68414e-06 0.000739878
0.00207592 -4.50068e-05 -5.71874e-05
-4.50068e-05 0.00100607 1.06233e-05
-5.71874e-05 1.06233e-05 0.00093957
0.00173342 -0.000120366 -9.53538e-05
-0.000120366 0.000815868 1.58184e-05
-9.53538e-05 1.58184e-05 0.000750512
0.00225016 -0.000125396 -0.000148941
-0.000125396 0.000973795 1.55175e-05
-0.000148941 1.55175e-05 0.000890184
0.00232581 -0.000211164 -0.0001566
-0.000211164 0.00100218 2.66213e-05
-0.0001566 2.66213e-05 0.000895336
0.0024022 -0.000298426 -0.00017258
-0.000298426 0.00107677 3.5083e-05
-0.00017258 3.5083e-05 0.000933039
0.00241564 -0.000473715 -3.49931e-05
-0.000473715 0.000759009 1.09352e-05
-3.49931e-05 1.09352e-05 0.00047675
0.00662499 -0.000124474 2.61144e-06
-0.000124474 0.0039813 -2.15184e-06
2.61144e-06 -2.15184e-06 0.00401114
0.00193175 1.37538e-05 0.000102338
1.37538e-05 0.000908413 -5.83277e-06
0.000102338 -5.83277e-06 0.000886191
0.00120869 -2.06471e-05 -7.52454e-05
-2.06471e-05 0.000325079 3.02152e-06
-7.52454e-05 3.02152e-06 0.00024954
0.00207486 -0.000100466 -4.09148e-05
-0.000100466 0.000882011 3.88291e-06
-4.09148e-05 3.88291e-06 0.000793606
0.0056812 -0.00012513 0.000327247
-0.00012513 0.00333981 -3.18711e-05
0.000327247 -3.18711e-05 0.003336
0.00282556 -0.000274848 -5.19566e-05
-0.000274848 0.00138656 6.14068e-06
-5.19566e-05 6.14068e-06 0.00122941
0.00217099 -0.000186201 -3.8761e-05
-0.000186201 0.000922754 4.40115e-06
-3.8761e-05 4.40115e-06 0.000813415
0.00209493 -0.000279955 -8.84041e-06
-0.000279955 0.000475405 2.04137e-06
-8.84041e-06 2.04137e-06 0.000294565
0.00232286 -0.000527752 -8.91414e-06
-0.000527752 0.000748762 2.68016e-06
-8.91414e-06 2.68016e-06 0.000419178
0.00217299 -0.000406019 -1.03339e-05
-0.000406019 0.000556666 2.97648e-06
-1.03339e-05 2.97648e-06 0.000312022
0.00210865 -0.000607289 9.8069e-07
-0.000607289 0.000309985 -1.27741e-07
9.8069e-07 -1.27741e-07 -1.29899e-05
0.000313714 4.36725e-06 1.71794e-05
4.36725e-06 -0.000256539 1.59739e-08
1.71794e-05 1.59739e-08 -0.000346233
0.00189141 -2.48315e-05 6.08642e-05
-2.48315e-05 0.000767409 -3.07875e-06
6.08642e-05 -3.07875e-06 0.000683412
0.00204997 -0.000101312 2.36363e-06
-0.000101312 0.000460659 2.70289e-07
2.36363e-06 2.70289e-07 0.000343234
0.00206556 -0.000224759 6.77284e-07
-0.000224759 0.000470307 -5.30199e-07
6.77284e-07 -5.30199e-07 0.000315584
0.00215494 -0.000343993 7.74146e-06
-0.000343993 0.00051316 -1.91187e-06
7.74146e-06 -1.91187e-06 0.000308162
0.00216271 -0.000396025 -1.34692e-07
-0.000396025 0.000167008 -3.46516e-09
-1.34692e-07 -3.46516e-09 -6.94685e-06
0.00783944 9.91058e-07 0.000308854
9.91058e-07 0.004768 -2.98376e-05
0.000308854 -2.98376e-05 0.00477734
0.00198475 -0.000548809 2.5175e-06
-0.000548809 0.000156542 1.65671e-06
2.5175e-06 1.65671e-06 -0.000117759
0.000323158 -0.000245543 2.18132e-05
-0.000245543 -0.000223851 -2.78657e-05
2.18132e-05 -2.78657e-05 -0.000398139
0.00111704 -0.000475286 2.10406e-05
-0.000475286 3.98801e-05 -6.13319e-06
2.10406e-05 -6.13319e-06 -0.000327071
0.00224865 -0.000674942 1.41438e-06
-0.000674942 0.000468694 3.21628e-06
1.41438e-06 3.21628e-06 8.79864e-05
0.0021638 -0.000672337 1.6131e-06
-0.000672337 0.000246186 3.84018e-06
1.6131e-06 3.84018e-06 -4.95883e-05
0.000336426 -0.000196125 2.22469e-05
-0.000196125 -0.000152154 -2.36792e-05
2.22469e-05 -2.36792e-05 -0.000301327
0.00127315 -0.000215751 -1.58049e-06
-0.000215751 0.000476135 -4.54525e-06
-1.58049e-06 -4.54525e-06 0.000186716
0.00752109 0.000303355 -0.000414003
0.000303355 0.00455166 -4.73955e-05
-0.000414003 -4.73955e-05 0.00456587
0.0078452 0.000294493 -0.000408315
0.000294493 0.00474799 -5.1175e-05
-0.000408315 -5.1175e-05 0.00476433
0.000327184 0.000174776 -1.73753e-05
0.000174776 -0.000285535 -1.49594e-05
-1.73753e-05 -1.49594e-05 -0.000432704
0.00749819 -3.62411e-05 -0.000293532
-3.62411e-05 0.00456419 -2.61781e-05
-0.000293532 -2.61781e-05 0.00457416
3.1383e-06 0.000229628 -2.15646e-05
0.000229628 -0.000393439 -2.589e-05
-2.15646e-05 -2.589e-05 -0.000562941
0.000281168 0.000244904 -2.13947e-05
0.000244904 -0.000257332 -2.15986e-05
-2.13947e-05 -2.15986e-05 -0.000432639
0.00118399 0.000461952 -3.17878e-05
0.000461952 6.81921e-05 -7.11186e-06
-3.17878e-05 -7.11186e-06 -0.00027402
0.0068161 -6.80915e-05 -1.17274e-05
-6.80915e-05 0.00416006 1.57673e-06
-1.17274e-05 1.57673e-06 0.00416053
0.000733996 0.00014187 1.7078e-06
0.00014187 0.000118004 3.61074e-07
1.7078e-06 3.61074e-07 1.50361e-05
0.00173759 0.000186158 7.64654e-05
0.000186158 0.000623553 7.46524e-06
7.64654e-05 7.46524e-06 0.000508541
0.00176229 0.000264009 8.08646e-05
0.000264009 0.000664997 9.4031e-06
8.08646e-05 9.4031e-06 0.000523916
0.00147665 0.00037807 -1.4977e-07
0.00037807 4.905e-05 -4.01316e-07
-1.4977e-07 -4.01316e-07 -0.000202488
0.000216208 0.000229128 -8.96294e-07
0.000229128 -0.000234467 -1.26454e-07
-8.96294e-07 -1.26454e-07 -0.000389062
0.00137134 0.000454243 6.98499e-07
0.000454243 0.00010921 3.58288e-08
6.98499e-07 3.58288e-08 -0.000205678
0.000913398 0.00040097 3.416e-06
0.00040097 2.38279e-05 -1.75892e-06
3.416e-06 -1.75892e-06 -0.00030944
0.00188373 0.000704114 -2.08482e-06
0.000704114 0.000338857 -4.10297e-08
-2.08482e-06 -4.10297e-08 -9.29058e-05
0.000482044 0.000202958 2.17221e-05
0.000202958 -5.78952e-05 2.19468e-05
2.17221e-05 2.19468e-05 -0.000188829
0.000716373 9.10696e-05 1.62085e-05
9.10696e-05 0.000142339 1.67493e-05
1.62085e-05 1.67493e-05 4.62855e-05
0.000523238 0.000339633 2.41165e-06
0.000339633 4.26761e-05 -1.79524e-07
2.41165e-06 -1.79524e-07 -0.000226458
0.00148392 0.000319145 8.88073e-06
0.000319145 1.58193e-05 3.11608e-06
8.88073e-06 3.11608e-06 -0.000200176
0.00149683 0.000428099 1.90527e-05
0.000428099 0.000108698 6.1842e-06
1.90527e-05 6.1842e-06 -0.000175586
0.00223188 0.000579403 4.56486e-06
0.000579403 0.000292872 -1.52111e-06
4.56486e-06 -1.52111e-06 1.82155e-05
0.00038789 0.000306589 1.03257e-05
0.000306589 -0.000188023 7.0299e-06
1.03257e-05 7.0299e-06 -0.000491905
0.00223555 0.000713815 4.10206e-06
0.000713815 0.000461484 -4.40259e-06
4.10206e-06 -4.40259e-06 7.90863e-05
0.00194481 0.000758167 6.01239e-06
0.000758167 0.000557171 -8.33639e-06
6.01239e-06 -8.33639e-06 4.88836e-05
0.00185461 0.000740037 -9.62805e-06
0.000740037 0.000217362 -9.38899e-06
-9.62805e-06 -9.38899e-06 -0.000195993
0.00445735 -0.000146849 0.000111285
-0.000146849 0.00263605 9.94095e-06
0.000111285 9.94095e-06 0.00262515
0.00493177 -0.000181582 1.71148e-05
-0.000181582 0.0029614 -4.15677e-07
1.71148e-05 -4.15677e-07 0.00294047
0.00547674 -0.000203686 -0.000138446
-0.000203686 0.00332156 -1.23251e-05
-0.000138446 -1.23251e-05 0.00329509
0.000505593 -0.000206221 2.5153e-05
-0.000206221 -2.94009e-05 -2.00678e-05
2.5153e-05 -2.00678e-05 -0.000157793
0.00685766 5.60235e-05 0.000257208
5.60235e-05 0.00417418 -2.74875e-05
0.000257208 -2.74875e-05 0.00417448
0.00734181 0.000245845 -0.000406337
0.000245845 0.0044291 -3.82189e-05
-0.000406337 -3.82189e-05 0.00445175
0.00686343 0.000113268 -0.00037321
0.000113268 0.00411238 -1.85306e-05
-0.00037321 -1.85306e-05 0.00414742
0.000294644 0.000113606 -1.60596e-05
0.000113606 -0.00029383 -7.35923e-06
-1.60596e-05 -7.35923e-06 -0.000407295
0.000262654 4.75342e-05 -1.62028e-05
4.75342e-05 -0.000290082 -3.69292e-06
-1.62028e-05 -3.69292e-06 -0.00038829
0.00654837 -2.01323e-06 -0.000357045
-2.01323e-06 0.00391517 -3.79533e-06
-0.000357045 -3.79533e-06 0.00395393
0.00649567 -4.03711e-06 1.43179e-07
-4.03711e-06 0.00388242 -1.33743e-06
1.43179e-07 -1.33743e-06 0.00392156
0.000272201 1.7461e-06 -2.20024e-07
1.7461e-06 -0.000282419 1.83708e-07
-2.20024e-07 1.83708e-07 -0.000373549
0.00157408 5.27168e-05 7.25076e-05
5.27168e-05 0.000544298 3.59406e-06
7.25076e-05 3.59406e-06 0.00046433
0.00127765 9.39891e-05 4.2576e-08
9.39891e-05 -6.81885e-05 -3.42421e-08
4.2576e-08 -3.42421e-08 -0.000202898
0.000355057 0.000111256 -8.50542e-07
0.000111256 -0.000263881 -3.93123e-07
-8.50542e-07 -3.93123e-07 -0.000387208
0.00135281 0.000190218 -2.01482e-07
0.000190218 -5.05138e-05 -1.16849e-07
-2.01482e-07 -1.16849e-07 -0.000213354
0.000260876 -3.39511e-05 1.70595e-05
-3.39511e-05 -0.000289808 -1.78263e-07
1.70595e-05 -1.78263e-07 -0.000378094
0.00123429 4.02489e-05 4.27292e-06
4.02489e-05 -8.14866e-05 7.00687e-07
4.27292e-06 7.00687e-07 -0.000208961
0.00133231 0.00014259 2.94025e-06
0.00014259 -5.34952e-05 1.26399e-06
2.94025e-06 1.26399e-06 -0.000199007
0.00216665 0.000147448 1.64341e-06
0.000147448 0.000100739 7.45126e-07
1.64341e-06 7.45126e-07 3.07054e-05
0.0014361 0.00025136 5.03037e-06
0.00025136 -1.61789e-05 2.14326e-06
5.03037e-06 2.14326e-06 -0.00020129
0.00216725 0.000320206 2.34633e-06
0.000320206 0.000110947 2.02945e-07
2.34633e-06 2.02945e-07 -7.50707e-06
0.00653291 -8.65182e-05 -0.000361369
-8.65182e-05 0.00391609 5.64721e-06
-0.000361369 5.64721e-06 0.00394973
0.00160453 -0.000169027 -8.04705e-05
-0.000169027 0.000744154 1.07161e-05
-8.04705e-05 1.07161e-05 0.00068188
-0.000227238 -1.10038e-05 -8.44e-06
-1.10038e-05 -0.000599795 1.16549e-06
-8.44e-06 1.16549e-06 -0.000705101
0.00218412 -9.04319e-05 -0.000145365
-9.04319e-05 0.000944576 1.09436e-05
-0.000145365 1.09436e-05 0.000868696
0.0085674 0.000165284 -7.9059e-05
0.000165284 0.00519998 3.78082e-06
-7.9059e-05 3.78082e-06 0.00516081
0.00312283 -0.000335353 -0.000175585
-0.000335353 0.00158594 3.57381e-05
-0.000175585 3.57381e-05 0.00143959
0.00228917 -0.000166311 -0.000151907
-0.000166311 0.00098421 2.07338e-05
-0.000151907 2.07338e-05 0.000890632
0.00216793 -0.000280936 -2.25085e-05
-0.000280936 0.000520888 4.5043e-06
-2.25085e-05 4.5043e-06 0.000346706
0.00225625 -0.000410805 -3.018e-05
-0.000410805 0.000612373 9.5538e-06
-3.018e-05 9.5538e-06 0.00036449
0.00244637 -0.000540353 -3.96202e-05
-0.000540353 0.000839713 1.18872e-05
-3.96202e-05 1.18872e-05 0.000509559
0.00211915 -0.000606838 -8.19402e-07
-0.000606838 0.000322579 -2.47104e-06
-8.19402e-07 -2.47104e-06 6.6327e-08
0.000264993 4.77125e-07 4.40947e-08
4.77125e-07 -0.000285824 3.84811e-07
4.40947e-08 3.84811e-07 -0.00037636
0.00201746 -0.000104446 -3.93133e-05
-0.000104446 0.000858998 7.78342e-07
-3.93133e-05 7.78342e-07 0.0007768
0.00172174 -9.74978e-05 -1.41484e-05
-9.74978e-05 0.000242178 9.23929e-07
-1.41484e-05 9.23929e-07 0.000121361
0.00200395 -0.000220455 -1.27551e-05
-0.000220455 0.000423288 2.09317e-06
-1.27551e-05 2.09317e-06 0.000263769
0.00814644 -7.96118e-06 5.15995e-06
-7.96118e-06 0.00496359 -2.78197e-07
5.15995e-06 -2.78197e-07 0.0049736
0.00170269 -0.000244808 9.97635e-06
-0.000244808 0.000687247 1.09832e-07
9.97635e-06 1.09832e-07 0.000508143
0.00175536 -0.000503227 2.54673e-07
-0.000503227 0.000460693 -1.62501e-06
2.54673e-07 -1.62501e-06 0.000101443
0.00218602 -0.000349878 -1.04912e-05
-0.000349878 0.00053078 2.96306e-06
-1.04912e-05 2.96306e-06 0.00032377
0.00220973 -0.000404033 2.14037e-06
-0.000404033 0.000190599 -1.02654e-06
2.14037e-06 -1.02654e-06 2.43317e-05
0.0021943 -0.000671096 1.77007e-06
-0.000671096 0.00043173 -3.65196e-08
1.77007e-06 -3.65196e-08 5.29617e-05
0.00212305 -0.000552915 2.30889e-07
-0.000552915 0.000255741 -1.63764e-07
2.30889e-07 -1.63764e-07 -2.04469e-05
0.00221049 -0.000675652 7.02912e-07
-0.000675652 0.000281654 3.59835e-07
7.02912e-07 3.59835e-07 -1.52747e-05
0.000374014 -0.000219715 1.91378e-06
-0.000219715 -0.000139519 4.18833e-07
1.91378e-06 4.18833e-07 -0.000285841
0.000779764 -0.000254592 -1.0478e-06
-0.000254592 0.000175881 2.72536e-07
-1.0478e-06 2.72536e-07 -0.00012401
0.00122399 -4.83998e-05 5.14323e-06
-4.83998e-05 -7.25341e-05 -1.91825e-09
5.14323e-06 -1.91825e-09 -0.000201823
0.00211264 -0.000160979 2.34109e-07
-0.000160979 0.000502826 5.47903e-08
2.34109e-07 5.47903e-08 0.000370609
0.00200728 -0.000161723 1.14699e-06
-0.000161723 6.15613e-06 -5.53449e-07
1.14699e-06 -5.53449e-07 -8.41172e-05
0.00222428 -0.000332811 -8.629e-07
-0.000332811 0.000168442 7.26932e-07
-8.629e-07 7.26932e-07 4.99173e-05
0.00203682 -0.000482492 -1.62125e-06
-0.000482492 0.000128397 1.01275e-06
-1.62125e-06 1.01275e-06 -9.22481e-05
0.0023109 -0.00044793 4.81066e-06
-0.00044793 0.000163464 -1.18264e-06
4.81066e-06 -1.18264e-06 4.1698e-05
0.000306419 -0.000228951 2.00206e-05
-0.000228951 -0.000207087 -2.74746e-05
2.00206e-05 -2.74746e-05 -0.000373167
0.0021951 -0.000609506 7.33085e-07
-0.000609506 0.000212108 2.02332e-06
7.33085e-07 2.02332e-06 -2.3809e-05
0.00155568 -0.000433422 1.61856e-05
-0.000433422 0.000422335 -9.26275e-06
1.61856e-05 -9.26275e-06 7.66648e-05
0.00187429 -0.000746934 9.09704e-06
-0.000746934 0.000306788 3.74186e-06
9.09704e-06 3.74186e-06 -0.000157783
0.00246201 -0.00075195 7.86705e-07
-0.00075195 0.000504541 3.51016e-06
7.86705e-07 3.51016e-06 0.000135361
0.0023955 -0.000706889 -1.1906e-06
-0.000706889 0.000370248 3.74573e-06
-1.1906e-06 3.74573e-06 9.75606e-05
0.000822177 -0.000263697 3.47059e-06
-0.000263697 0.000177262 -1.87333e-06
3.47059e-06 -1.87333e-06 -0.000138537
0.00164675 -0.000288931 7.50838e-06
-0.000288931 0.000719674 -2.3274e-06
7.50838e-06 -2.3274e-06 0.000463305
0.00164578 -0.000394994 -1.39499e-06
-0.000394994 0.000727598 5.57861e-07
-1.39499e-06 5.57861e-07 0.000347754
0.000336874 0.00014614 -1.61395e-05
0.00014614 -0.000284365 -1.16192e-05
-1.61395e-05 -1.16192e-05 -0.000420833
0.00625005 -0.000105307 -0.00022449
-0.000105307 0.00379583 -1.8785e-05
-0.00022449 -1.8785e-05 0.00379384
0.00044338 0.000121182 -1.97762e-05
0.000121182 -6.17369e-05 -1.7159e-05
-1.97762e-05 -1.7159e-05 -0.000160519
0.00027962 0.000207821 -1.89434e-05
0.000207821 -0.00029579 -1.86237e-05
-1.89434e-05 -1.86237e-05 -0.000455725
0.00143042 0.000375563 -1.47759e-05
0.000375563 2.48358e-05 -5.18912e-06
-1.47759e-05 -5.18912e-06 -0.000227819
0.000307047 0.000225487 -2.23152e-05
0.000225487 -0.000190606 -2.60498e-05
-2.23152e-05 -2.60498e-05 -0.000341054
0.00107058 0.000410807 -2.25669e-05
0.000410807 0.000117425 -1.12561e-05
-2.25669e-05 -1.12561e-05 -0.000214243
0.00132007 0.000449966 -2.69984e-05
0.000449966 7.63455e-05 -7.3732e-06
-2.69984e-05 -7.3732e-06 -0.000238868
0.0019389 0.000722581 -1.17559e-05
0.000722581 0.000359656 5.58785e-06
-1.17559e-05 5.58785e-06 -7.41275e-05
0.000367446 0.00020257 -6.14745e-06
0.00020257 -0.000134122 1.71604e-06
-6.14745e-06 1.71604e-06 -0.000258532
0.000359651 6.60686e-05 2.81573e-07
6.60686e-05 -7.83689e-05 1.0509e-06
2.81573e-07 1.0509e-06 -0.000170728
0.00103604 0.000281549 4.87706e-07
0.000281549 0.000333174 4.37203e-07
4.87706e-07 4.37203e-07 9.44469e-05
0.00146989 0.000318498 -2.90576e-07
0.000318498 1.53286e-05 -2.72273e-07
-2.90576e-07 -2.72273e-07 -0.000201914
0.00144834 0.000422608 1.15904e-07
0.000422608 8.38475e-05 -3.10964e-07
1.15904e-07 -3.10964e-07 -0.000200447
0.00220228 0.000577125 -6.30542e-07
0.000577125 0.000270599 -2.79066e-07
-6.30542e-07 -2.79066e-07 -3.51404e-06
0.000617005 0.000304131 2.62867e-07
0.000304131 -4.42687e-05 1.05002e-06
2.62867e-07 1.05002e-06 -0.000337074
0.00224978 0.00070979 -1.15071e-06
0.00070979 0.000471206 -4.73517e-07
-1.15071e-06 -4.73517e-07 8.86822e-05
0.00191739 0.000767582 -1.20861e-06
0.000767582 0.000503841 -2.6977e-06
-1.20861e-06 -2.6977e-06 -1.0042e-05
0.00179945 0.000746984 -1.36542e-06
0.000746984 0.000156682 3.56244e-06
-1.36542e-06 3.56244e-06 -0.000253685
0.000471284 4.34931e-05 8.77988e-06
4.34931e-05 5.45389e-06 1.50711e-05
8.77988e-06 1.50711e-05 -7.35991e-05
0.0011519 0.000337744 5.6061e-06
0.000337744 0.000400707 9.09246e-07
5.6061e-06 9.09246e-07 0.000117603
0.000713448 0.000169651 3.11805e-06
0.000169651 0.000181774 1.90969e-06
3.11805e-06 1.90969e-06 -6.06524e-05
-0.00062569 0.000132609 -6.68933e-06
0.000132609 -0.000696339 4.00062e-06
-6.68933e-06 4.00062e-06 -0.000985439
0.0022595 0.000501852 2.85176e-06
0.000501852 0.000239659 -2.43162e-06
2.85176e-06 -2.43162e-06 2.17846e-05
0.00218332 0.000646704 4.43171e-06
0.000646704 0.000342921 -2.34451e-06
4.43171e-06 -2.34451e-06 1.09364e-05
0.00226284 0.000636909 1.12838e-06
0.000636909 0.000231674 -1.85606e-06
1.12838e-06 -1.85606e-06 -2.09799e-05
0.00141189 0.000614504 -6.24293e-06
0.000614504 0.000334028 -6.90405e-06
-6.24293e-06 -6.90405e-06 -0.000133232
0.00256165 0.000814905 -6.4483e-06
0.000814905 0.000578712 -4.90021e-06
-6.4483e-06 -4.90021e-06 0.000208608
0.00232013 0.000913548 -1.65741e-05
0.000913548 0.000649806 -1.69453e-05
-1.65741e-05 -1.69453e-05 9.62743e-05
0.00216359 0.000785713 -5.99335e-06
0.000785713 0.000266048 -5.30898e-06
-5.99335e-06 -5.30898e-06 -0.000118201
0.000752344 0.000103997 -7.24149e-07
0.000103997 0.000239245 7.1531e-06
-7.24149e-07 7.1531e-06 0.000116103
0.00054512 2.6558e-05 4.02462e-06
2.6558e-05 5.81771e-05 1.27652e-05
4.02462e-06 1.27652e-05 6.03117e-06
0.00391587 -0.000131114 8.07957e-05
-0.000131114 0.00227126 7.23666e-06
8.07957e-05 7.23666e-06 0.00226415
0.00428119 -0.000174318 1.4548e-05
-0.000174318 0.00252918 -1.52212e-06
1.4548e-05 -1.52212e-06 0.00251017
0.0046808 -0.000226183 -8.40229e-05
-0.000226183 0.00281576 -1.05902e-05
-8.40229e-05 -1.05902e-05 0.00278039
0.000628064 -0.000226531 3.29212e-05
-0.000226531 6.54268e-05 -1.92838e-05
3.29212e-05 -1.92838e-05 -4.94074e-05
0.00640312 9.36845e-05 0.00022314
9.36845e-05 0.00389783 -2.53287e-05
0.00022314 -2.53287e-05 0.00389172
0.000508844 -0.000214885 3.30439e-06
-0.000214885 -3.56484e-05 7.81765e-07
3.30439e-06 7.81765e-07 -0.000166295
0.00727281 3.49885e-05 5.40213e-06
3.49885e-05 0.00443492 -1.28254e-08
5.40213e-06 -1.28254e-08 0.00443691
0.000325249 0.000135471 -1.6484e-05
0.000135471 -0.000283315 -9.53114e-06
-1.6484e-05 -9.53114e-06 -0.00040997
0.000278523 4.36297e-05 -1.48074e-05
4.36297e-05 -0.00029423 -4.52867e-06
-1.48074e-05 -4.52867e-06 -0.000397017
0.00132172 0.000190627 -3.03534e-06
0.000190627 -6.46607e-05 -1.47234e-06
-3.03534e-06 -1.47234e-06 -0.00022881
0.00127398 9.68416e-05 -4.23504e-06
9.68416e-05 -6.92461e-05 -9.83918e-07
-4.23504e-06 -9.83918e-07 -0.000204686
0.000316441 -5.76981e-06 -1.67515e-05
-5.76981e-06 -0.000257313 -1.56531e-06
-1.67515e-05 -1.56531e-06 -0.000346985
0.00659552 -0.00010628 -0.000368691
-0.00010628 0.00396044 6.82239e-06
-0.000368691 6.82239e-06 0.00399302
0.000309994 -3.97641e-06 -2.18502e-09
-3.97641e-06 -0.000259428 -6.8049e-07
-2.18502e-09 -6.8049e-07 -0.000347462
0.00123874 4.54579e-05 2.15174e-08
4.54579e-05 -7.81275e-05 4.26363e-08
2.15174e-08 4.26363e-08 -0.000206008
0.00132214 0.000142902 -6.12918e-08
0.000142902 -5.64934e-05 7.01863e-08
-6.12918e-08 7.01863e-08 -0.000202803
0.00213992 0.000145408 -9.9202e-08
0.000145408 8.33947e-05 2.13846e-07
-9.9202e-08 2.13846e-07 1.32181e-05
0.00141822 0.000251529 -3.6562e-07
0.000251529 -2.18305e-05 -9.31062e-08
-3.6562e-07 -9.31062e-08 -0.000208373
0.00216471 0.000320341 -4.84421e-07
0.000320341 0.000108241 2.07715e-07
-4.84421e-07 2.07715e-07 -1.08499e-05
0.00120535 -6.64211e-06 4.55668e-06
-6.64211e-06 -8.81695e-05 2.67646e-07
4.55668e-06 2.67646e-07 -0.000214811
0.00216634 6.79591e-05 1.95004e-06
6.79591e-05 0.000103464 6.63145e-07
1.95004e-06 6.63145e-07 4.07207e-05
0.00214905 0.000232549 1.33679e-06
0.000232549 9.24261e-05 5.4335e-07
1.33679e-06 5.4335e-07 4.19379e-06
0.00219115 0.000162301 5.71905e-06
0.000162301 4.15944e-05 1.22209e-06
5.71905e-06 1.22209e-06 2.33305e-05
0.00221288 0.000409272 3.32211e-06
0.000409272 0.000156546 -5.52653e-07
3.32211e-06 -5.52653e-07 -5.65188e-06
0.0022906 0.000342425 5.39171e-06
0.000342425 9.08492e-05 9.07772e-07
5.39171e-06 9.07772e-07 3.28628e-05
0.000307816 -6.33713e-06 -1.62417e-05
-6.33713e-06 -0.000254707 1.69663e-07
-1.62417e-05 1.69663e-07 -0.000347465
0.00212319 -6.00209e-05 -0.000143227
-6.00209e-05 0.000915097 7.37346e-06
-0.000143227 7.37346e-06 0.000847125
0.00136695 -9.32525e-05 -1.48805e-05
-9.32525e-05 5.30482e-06 1.27913e-06
-1.48805e-05 1.27913e-06 -0.000119303
0.00193784 -0.000216812 -1.99674e-05
-0.000216812 0.000372439 3.64084e-06
-1.99674e-05 3.64084e-06 0.000208036
0.00851175 -3.50932e-05 -0.00036294
-3.50932e-05 0.00519093 4.09537e-05
-0.00036294 4.09537e-05 0.00520244
0.00356951 -0.000354148 -0.000202909
-0.000354148 0.00189565 3.50195e-05
-0.000202909 3.50195e-05 0.00175267
0.00194216 -0.000527039 -3.12869e-05
-0.000527039 0.000615689 9.40533e-06
-3.12869e-05 9.40533e-06 0.000255886
0.00219778 -0.000354563 -2.79148e-05
-0.000354563 0.00053489 7.40503e-06
-2.79148e-05 7.40503e-06 0.000326128
0.00226949 -0.000412782 -5.86616e-07
-0.000412782 0.00022219 -1.46398e-06
-5.86616e-07 -1.46398e-06 6.37918e-05
0.00226073 -0.000556968 -9.18042e-07
-0.000556968 0.000356078 -1.04308e-06
-9.18042e-07 -1.04308e-06 7.79842e-05
0.00220685 -0.000673937 -1.70033e-07
-0.000673937 0.000434855 -3.66566e-06
-1.70033e-07 -3.66566e-06 5.67162e-05
0.00227178 -0.000681114 -2.82363e-07
-0.000681114 0.000324577 -2.97517e-06
-2.82363e-07 -2.97517e-06 2.59502e-05
0.000491558 -0.000232186 -2.1773e-05
-0.000232186 -6.64147e-05 2.39542e-05
-2.1773e-05 2.39542e-05 -0.000215981
1.19877e-05 -0.000213108 -1.22744e-06
-0.000213108 -0.000289444 3.25444e-06
-1.22744e-06 3.25444e-06 -0.000600667
0.00128371 -4.47305e-05 7.22743e-07
-4.47305e-05 -3.52866e-05 -4.06064e-08
7.22743e-07 -4.06064e-08 -0.000158207
0.00207805 -0.000161238 -1.20547e-05
-0.000161238 0.000475082 1.50978e-06
-1.20547e-05 1.50978e-06 0.000343091
0.00202656 -0.000157983 2.38954e-06
-0.000157983 1.65728e-05 -3.51054e-07
2.38954e-06 -3.51054e-07 -6.89354e-05
0.00209445 -0.000328167 -1.90708e-06
-0.000328167 8.48136e-05 6.0499e-07
-1.90708e-06 6.0499e-07 -4.54961e-05
0.000317537 -0.000250263 -6.29706e-07
-0.000250263 -0.000191803 3.49835e-07
-6.29706e-07 3.49835e-07 -0.000361907
0.000736441 -0.000401665 -4.4828e-06
-0.000401665 -7.97411e-05 -3.18005e-07
-4.4828e-06 -3.18005e-07 -0.000431297
0.00194697 -0.000753933 2.36544e-07
-0.000753933 0.000352272 1.02101e-06
2.36544e-07 1.02101e-06 -0.000117299
0.00211003 -0.000484124 -1.58407e-06
-0.000484124 0.00018367 4.38488e-07
-1.58407e-06 4.38488e-07 -4.05298e-05
0.00230876 -0.000452137 1.09633e-06
-0.000452137 0.000152136 -7.34569e-07
1.09633e-06 -7.34569e-07 3.70512e-05
0.00252718 -0.000759058 7.74677e-07
-0.000759058 0.000546007 -1.33752e-06
7.74677e-07 -1.33752e-06 0.000180011
0.00220107 -0.000609812 2.69177e-07
-0.000609812 0.000213698 4.87934e-07
2.69177e-07 4.87934e-07 -2.25073e-05
0.00226235 -0.000702058 2.05076e-07
-0.000702058 0.000275687 9.0382e-07
2.05076e-07 9.0382e-07 1.12747e-06
0.000789357 -0.000272666 3.5066e-07
-0.000272666 0.000158135 -9.93078e-07
3.5066e-07 -9.93078e-07 -0.000162636
0.000532806 -0.000267105 4.19518e-07
-0.000267105 -1.45623e-05 -4.5401e-07
4.19518e-07 -4.5401e-07 -0.000367849
0.00051255 -0.000235536 5.42901e-06
-0.000235536 4.50277e-05 2.03235e-06
5.42901e-06 2.03235e-06 -0.000231885
0.00199486 -7.88722e-05 1.79541e-06
-7.88722e-05 -1.91985e-06 -2.45499e-07
1.79541e-06 -2.45499e-07 -8.10219e-05
0.00207255 -0.000240554 -1.28724e-06
-0.000240554 4.20607e-05 -3.08167e-07
-1.28724e-06 -3.08167e-07 -5.86768e-05
0.00217299 -0.000159795 7.13495e-06
-0.000159795 4.30964e-05 -1.04589e-06
7.13495e-06 -1.04589e-06 1.39209e-05
0.00229088 -0.000366986 3.48471e-06
-0.000366986 9.29376e-05 -5.19983e-07
3.48471e-06 -5.19983e-07 2.70354e-05
0.00215702 -0.000543563 7.5326e-08
-0.000543563 0.000119268 7.0958e-07
7.5326e-08 7.0958e-07 -5.37137e-05
0.00230799 -0.00047121 1.81887e-06
-0.00047121 8.52346e-05 -3.12683e-07
1.81887e-06 -3.12683e-07 2.04584e-05
0.000768254 -0.000302667 9.36027e-06
-0.000302667 5.03824e-05 -6.80989e-06
9.36027e-06 -6.80989e-06 -0.000256613
0.00224073 -0.000651933 3.23692e-07
-0.000651933 0.000169408 4.92462e-07
3.23692e-07 4.92462e-07 -2.72319e-05
0.00181176 -0.000774386 1.50744e-06
-0.000774386 0.000434721 8.56511e-07
1.50744e-06 8.56511e-07 -9.22718e-05
0.00229366 -0.000879872 1.12214e-05
-0.000879872 0.000465329 4.81683e-06
1.12214e-05 4.81683e-06 -1.91192e-05
0.00257795 -0.000775483 2.71418e-06
-0.000775483 0.000557373 4.11971e-06
2.71418e-06 4.11971e-06 0.000212184
0.00247673 -0.000750189 -3.28413e-07
-0.000750189 0.000396288 5.05788e-07
-3.28413e-07 5.05788e-07 0.000138948
0.000685148 -0.000173681 -2.04861e-06
-0.000173681 0.00023249 -3.46055e-06
-2.04861e-06 -3.46055e-06 -6.75446e-05
0.00185735 -0.000487611 -7.04555e-06
-0.000487611 0.000724025 -2.44915e-06
-7.04555e-06 -2.44915e-06 0.000322774
-0.000756058 -0.000100061 6.82167e-06
-0.000100061 -0.000724218 1.61162e-06
6.82167e-06 1.61162e-06 -0.00105504
0.00145005 -0.000530444 1.0273e-05
-0.000530444 0.000555172 6.26279e-06
1.0273e-05 6.26279e-06 8.68615e-05
0.00145321 0.000317992 -1.0866e-05
0.000317992 1.25772e-05 -3.63405e-06
-1.0866e-05 -3.63405e-06 -0.000205925
0.000288286 4.88561e-05 -8.57214e-06
4.88561e-05 -0.000118563 -1.72652e-05
-8.57214e-06 -1.72652e-05 -0.000209071
0.000452428 0.000162623 -2.58917e-05
0.000162623 -7.03224e-05 -1.92272e-05
-2.58917e-05 -1.92272e-05 -0.000193956
0.000585029 0.000218396 -6.86604e-06
0.000218396 5.59235e-05 3.73969e-06
-6.86604e-06 3.73969e-06 -0.000182115
0.00138897 0.000417231 -2.03134e-05
0.000417231 5.0569e-05 -6.62503e-06
-2.03134e-05 -6.62503e-06 -0.000233922
0.00217375 0.000574645 -4.52355e-06
0.000574645 0.000249717 1.50085e-06
-4.52355e-06 1.50085e-06 -2.37671e-05
0.000651454 0.000270798 -1.15505e-05
0.000270798 -2.4294e-05 -5.12867e-06
-1.15505e-05 -5.12867e-06 -0.000296242
0.00175946 0.00074684 -9.23445e-06
0.00074684 0.000385809 3.64358e-06
-9.23445e-06 3.64358e-06 -0.000122352
0.00228075 0.00070692 -3.74505e-06
0.00070692 0.000491724 4.01226e-06
-3.74505e-06 4.01226e-06 0.000108944
0.00172547 0.00074535 1.02684e-05
0.00074535 9.71865e-05 1.49248e-05
1.02684e-05 1.49248e-05 -0.000307028
0.00038897 2.68437e-05 -3.3541e-06
2.68437e-05 -4.23579e-05 5.36801e-07
-3.3541e-06 5.36801e-07 -0.00011921
0.000630095 0.000248269 -9.11928e-07
0.000248269 8.22785e-05 -5.39022e-07
-9.11928e-07 -5.39022e-07 -0.000196089
0.000384714 0.000158084 4.48857e-06
0.000158084 -2.65766e-05 -1.64611e-06
4.48857e-06 -1.64611e-06 -0.000270929
0.000558765 0.000233991 -4.45805e-06
0.000233991 5.35974e-05 5.55795e-06
-4.45805e-06 5.55795e-06 -0.000249439
0.00221361 0.000497203 -1.89084e-06
0.000497203 0.000211059 -1.44919e-06
-1.89084e-06 -1.44919e-06 -5.90489e-06
0.00216187 0.000645883 -7.40273e-07
0.000645883 0.000326803 -3.17467e-07
-7.40273e-07 -3.17467e-07 -5.34863e-06
0.00225643 0.000634779 9.57325e-08
0.000634779 0.000233221 -3.35373e-10
9.57325e-08 -3.35373e-10 -1.86378e-05
0.00177562 0.000647077 2.45818e-06
0.000647077 0.000584092 -3.40912e-07
2.45818e-06 -3.40912e-07 0.000109709
0.00248557 0.00080037 1.49845e-06
0.00080037 0.000541393 9.87271e-07
1.49845e-06 9.87271e-07 0.00017035
0.00205419 0.000869723 -1.02238e-06
0.000869723 0.000495416 -2.01148e-06
-1.02238e-06 -2.01148e-06 -4.56326e-05
0.00226171 0.000772267 -7.26485e-06
0.000772267 0.000343161 3.09265e-06
-7.26485e-06 3.09265e-06 -2.63372e-05
0.000586414 2.74411e-05 6.52851e-06
2.74411e-05 7.81745e-05 1.39399e-05
6.52851e-06 1.39399e-05 1.79318e-05
0.00121955 0.000114107 -1.19768e-06
0.000114107 0.000533364 1.19091e-05
-1.19768e-06 1.19091e-05 0.000311241
0.000576479 0.000404891 -9.27677e-06
0.000404891 -1.60016e-05 -2.31482e-06
-9.27677e-06 -2.31482e-06 -0.00038013
0.00130038 0.000226411 8.62521e-06
0.000226411 0.000564058 -5.04654e-06
8.62521e-06 -5.04654e-06 0.000236521
0.00125353 0.000150205 -4.11251e-06
0.000150205 0.000370054 1.29578e-05
-4.11251e-06 1.29578e-05 0.000111281
0.00223087 0.000545867 5.946e-07
0.000545867 0.000132864 -1.91471e-06
5.946e-07 -1.91471e-06 -5.08022e-05
0.00228453 0.00072955 -1.31607e-06
0.00072955 0.00032286 -3.25332e-06
-1.31607e-06 -3.25332e-06 5.29877e-06
0.00223411 0.000691502 -3.25644e-06
0.000691502 0.000183072 -1.12478e-06
-3.25644e-06 -1.12478e-06 -6.33396e-05
0.00189254 0.000893614 -6.59462e-06
0.000893614 0.000637193 -1.19589e-05
-6.59462e-06 -1.19589e-05 2.26584e-05
0.00264662 0.000860782 -7.31191e-06
0.000860782 0.000557246 -4.51283e-06
-7.31191e-06 -4.51283e-06 0.000191714
0.00193175 0.000918699 3.05298e-06
0.000918699 0.000321467 -8.99688e-06
3.05298e-06 -8.99688e-06 -0.000200859
0.000588288 0.000101184 -1.23227e-06
0.000101184 0.000123027 9.14387e-06
-1.23227e-06 9.14387e-06 -1.69605e-05
0.000843464 0.000143403 -5.50359e-06
0.000143403 0.000394465 5.92328e-06
-5.50359e-06 5.92328e-06 0.000178034
0.000565747 7.78922e-05 -1.11505e-06
7.78922e-05 0.000111317 6.08343e-06
-1.11505e-06 6.08343e-06 1.13962e-05
0.000445641 3.31063e-05 -1.50329e-06
3.31063e-05 3.74577e-05 2.31849e-07
-1.50329e-06 2.31849e-07 -7.82547e-05
0.00155962 -6.21622e-06 2.17686e-06
-6.21622e-06 0.000720288 6.89244e-06
2.17686e-06 6.89244e-06 0.000682196
0.000983599 1.01372e-05 -3.01565e-07
1.01372e-05 0.000345489 -1.60346e-07
-3.01565e-07 -1.60346e-07 0.000296808
0.000943675 -2.67869e-05 6.43705e-05
-2.67869e-05 0.000315535 1.42244e-05
6.43705e-05 1.42244e-05 0.000308779
0.00386711 -0.000143386 1.31674e-05
-0.000143386 0.00224299 -1.25327e-06
1.31674e-05 -1.25327e-06 0.00223244
0.0041872 -0.000183733 -7.37294e-05
-0.000183733 0.00247078 -8.08675e-06
-7.37294e-05 -8.08675e-06 0.00244905
0.00024388 -0.00013487 1.96478e-05
-0.00013487 -0.000131552 -1.59599e-05
1.96478e-05 -1.59599e-05 -0.000228342
0.00569031 0.000158948 0.00015199
0.000158948 0.00346137 -1.92278e-05
0.00015199 -1.92278e-05 0.00343867
0.000522166 -0.000192804 2.24815e-06
-0.000192804 9.96835e-06 1.07167e-06
2.24815e-06 1.07167e-06 -0.000113719
0.00651108 8.55422e-05 5.31028e-07
8.55422e-05 0.00397387 1.00161e-06
5.31028e-07 1.00161e-06 0.0039655
0.00041018 -0.000219654 -2.57684e-05
-0.000219654 -0.000100457 2.17174e-05
-2.57684e-05 2.17174e-05 -0.000232584
0.00750347 2.66375e-05 -0.000307522
2.66375e-05 0.00458343 3.71477e-05
-0.000307522 3.71477e-05 0.00458621
0.00139169 0.000250764 -6.65458e-06
0.000250764 -3.0906e-05 -2.38727e-06
-6.65458e-06 -2.38727e-06 -0.00021868
0.00129342 0.00014402 -3.22325e-06
0.00014402 -6.87474e-05 -9.61886e-07
-3.22325e-06 -9.61886e-07 -0.000216125
0.0021914 0.000318001 -2.65478e-06
0.000318001 0.000126357 5.05787e-07
-2.65478e-06 5.05787e-07 7.48256e-06
0.00211206 0.000143371 -1.86602e-06
0.000143371 6.62599e-05 -3.0575e-07
-1.86602e-06 -3.0575e-07 -4.06558e-06
0.00124585 5.06445e-05 -4.28366e-06
5.06445e-05 -7.26985e-05 -6.16375e-07
-4.28366e-06 -6.16375e-07 -0.00020097
0.000276443 2.81949e-05 -1.70113e-05
2.81949e-05 -0.000284038 -1.38392e-06
-1.70113e-05 -1.38392e-06 -0.000370115
0.00121092 -2.00908e-06 -4.10487e-08
-2.00908e-06 -8.41966e-05 3.17004e-08
-4.10487e-08 3.17004e-08 -0.000210822
0.00212908 6.69396e-05 -1.29952e-09
6.69396e-05 8.05731e-05 1.50578e-07
-1.29952e-09 1.50578e-07 1.76301e-05
0.00216411 0.000231543 -1.21754e-07
0.000231543 0.00010064 1.84824e-07
-1.21754e-07 1.84824e-07 1.25382e-05
0.00216451 0.000157199 -3.85989e-07
0.000157199 1.40461e-05 2.42029e-08
-3.85989e-07 2.42029e-08 2.31719e-06
0.00219606 0.00040621 -1.01231e-06
0.00040621 0.00015234 9.48058e-08
-1.01231e-06 9.48058e-08 -9.52839e-06
0.00227405 0.000342142 -2.93117e-08
0.000342142 7.87256e-05 2.30323e-07
-2.93117e-08 2.30323e-07 2.05086e-05
0.0021464 -7.71119e-06 1.55615e-06
-7.71119e-06 9.47384e-05 3.27265e-07
1.55615e-06 3.27265e-07 3.31199e-05
0.00209491 7.24248e-05 4.41838e-06
7.24248e-05 -2.80332e-05 5.02806e-07
4.41838e-06 5.02806e-07 -3.16909e-05
0.00224026 0.000240636 5.95834e-06
0.000240636 6.58671e-05 1.36429e-06
5.95834e-06 1.36429e-06 3.55303e-05
0.00219537 0.000142882 3.72832e-06
0.000142882 -1.27083e-07 9.9354e-07
3.72832e-06 9.9354e-07 1.62827e-05
0.00229285 0.000457414 3.45987e-06
0.000457414 0.000115018 3.68606e-08
3.45987e-06 3.68606e-08 3.25889e-06
0.00228897 0.000350961 1.75651e-06
0.000350961 -1.70563e-05 3.75354e-08
1.75651e-06 3.75354e-08 -1.57336e-05
0.00132634 -4.14e-05 -6.55457e-06
-4.14e-05 -8.67091e-06 1.91649e-07
-6.55457e-06 1.91649e-07 -0.000125288
0.00206566 -0.000161546 -2.35846e-05
-0.000161546 0.000462445 2.78127e-06
-2.35846e-05 2.78127e-06 0.000330696
0.00206471 -0.000152906 2.7206e-06
-0.000152906 3.82374e-05 -3.2474e-07
2.7206e-06 -3.2474e-07 -4.21803e-05
0.00195647 -0.000322418 1.003e-06
-0.000322418 -3.77842e-06 6.07435e-07
1.003e-06 6.07435e-07 -0.000145587
0.000307812 -0.000278964 -2.55566e-05
-0.000278964 -0.0001923 2.79933e-05
-2.55566e-05 2.79933e-05 -0.00036525
0.000696039 -0.000406249 -1.48032e-05
-0.000406249 -0.000110382 5.70941e-06
-1.48032e-05 5.70941e-06 -0.000465551
0.00197614 -0.000762145 -8.68866e-08
-0.000762145 0.000362789 -2.51366e-06
-8.68866e-08 -2.51366e-06 -0.000113333
0.00217759 -0.000484935 -1.72692e-06
-0.000484935 0.000235526 -6.51485e-07
-1.72692e-06 -6.51485e-07 7.75529e-06
0.00229098 -0.000455115 -1.62373e-06
-0.000455115 0.000130272 -9.92965e-08
-1.62373e-06 -9.92965e-08 2.17211e-05
0.00220438 -0.000610029 -9.52851e-07
-0.000610029 0.000213302 -8.6009e-07
-9.52851e-07 -8.6009e-07 -2.32167e-05
0.00254515 -0.000760747 -3.46368e-07
-0.000760747 0.000559353 -6.98961e-06
-3.46368e-07 -6.98961e-06 0.000197869
0.0020965 -0.000692705 1.8563e-06
-0.000692705 0.000161795 -1.47214e-06
1.8563e-06 -1.47214e-06 -0.000113359
0.000678208 -0.000302856 -7.60229e-06
-0.000302856 9.47169e-05 3.37624e-06
-7.60229e-06 3.37624e-06 -0.000236998
0.000369795 -0.000242745 3.34724e-07
-0.000242745 -0.000116355 6.49216e-07
3.34724e-07 6.49216e-07 -0.000457958
0.000467494 -0.000293334 1.68923e-06
-0.000293334 2.99491e-05 4.51334e-06
1.68923e-06 4.51334e-06 -0.000256403
0.00206083 -7.53919e-05 3.33571e-06
-7.53919e-05 4.30329e-05 -1.84987e-07
3.33571e-06 -1.84987e-07 -2.92495e-05
0.0020641 -0.000247094 1.04015e-06
-0.000247094 4.14491e-05 -3.3576e-07
1.04015e-06 -3.3576e-07 -5.85458e-05
0.00218481 -0.00015579 8.58663e-07
-0.00015579 3.80742e-05 -9.24304e-08
8.58663e-07 -9.24304e-08 1.67694e-05
0.00226143 -0.000357917 -1.02531e-06
-0.000357917 8.31896e-05 2.28618e-07
-1.02531e-06 2.28618e-07 1.36692e-05
0.00083827 -0.000336418 1.07123e-07
-0.000336418 9.18702e-05 4.28657e-07
1.07123e-07 4.28657e-07 -0.000231961
0.00191955 -0.000796313 8.01009e-08
-0.000796313 0.000508666 -1.52082e-06
8.01009e-08 -1.52082e-06 -2.45261e-05
0.00217432 -0.000865113 5.05643e-07
-0.000865113 0.000395708 1.692e-06
5.05643e-07 1.692e-06 -9.12892e-05
0.00212219 -0.000534774 -6.63638e-07
-0.000534774 0.000103655 5.63302e-07
-6.63638e-07 5.63302e-07 -7.54528e-05
0.00231 -0.000475348 1.68674e-07
-0.000475348 7.35486e-05 6.20975e-08
1.68674e-07 6.20975e-08 1.51499e-05
0.00241439 -0.00076557 -7.39354e-07
-0.00076557 0.000439129 3.61517e-07
-7.39354e-07 3.61517e-07 9.49184e-05
0.00223283 -0.000650438 -6.7326e-07
-0.000650438 0.000161525 8.20579e-07
-6.7326e-07 8.20579e-07 -3.51092e-05
0.00240074 -0.000738625 1.12712e-06
-0.000738625 0.000344326 -5.83172e-07
1.12712e-06 -5.83172e-07 9.07231e-05
0.000934277 -0.000438222 -4.15142e-06
-0.000438222 0.000176671 -3.73683e-07
-4.15142e-06 -3.73683e-07 -0.000236575
0.00159286 -0.000526845 -1.9402e-06
-0.000526845 0.000655214 1.28004e-06
-1.9402e-06 1.28004e-06 0.000191718
0.000937251 -0.000229598 -3.53053e-06
-0.000229598 0.000360825 -2.68647e-06
-3.53053e-06 -2.68647e-06 8.23173e-05
0.000770694 -0.000198842 7.67234e-07
-0.000198842 0.000208476 1.05769e-06
7.67234e-07 1.05769e-06 -0.000103241
0.00218639 -8.65101e-05 6.16621e-06
-8.65101e-05 4.9483e-05 -5.4088e-07
6.16621e-06 -5.4088e-07 3.45601e-05
0.00208939 -0.000250838 4.21017e-06
-0.000250838 -5.41356e-05 -1.37397e-06
4.21017e-06 -1.37397e-06 -9.42201e-05
0.00217776 -0.000148245 4.149e-06
-0.000148245 2.03831e-05 -9.608e-07
4.149e-06 -9.608e-07 4.08005e-05
0.00226686 -0.000377357 -7.61027e-07
-0.000377357 -6.29074e-06 -1.70463e-07
-7.61027e-07 -1.70463e-07 -4.17561e-06
0.00227541 -0.000576977 -8.97052e-07
-0.000576977 0.000105383 3.54669e-07
-8.97052e-07 3.54669e-07 -1.20513e-05
0.00235065 -0.000507302 8.76964e-07
-0.000507302 2.34149e-05 -2.88906e-07
8.76964e-07 -2.88906e-07 -1.42422e-05
0.00164085 -0.000681128 -6.43256e-06
-0.000681128 0.000524835 1.29928e-06
-6.43256e-06 1.29928e-06 1.32609e-05
0.00234937 -0.00071166 -1.46278e-06
-0.00071166 0.000165316 2.68074e-07
-1.46278e-06 2.68074e-07 4.76119e-06
0.00205949 -0.000960042 9.59412e-08
-0.000960042 0.000522899 7.39891e-06
9.59412e-08 7.39891e-06 -7.04707e-05
0.00245364 -0.000919428 8.24029e-06
-0.000919428 0.000526869 3.68949e-06
8.24029e-06 3.68949e-06 4.54891e-05
0.00241765 -0.000773843 -3.15895e-06
-0.000773843 0.00042379 3.56315e-06
-3.15895e-06 3.56315e-06 8.78327e-05
0.00236031 -0.000799304 -5.34274e-06
-0.000799304 0.000249392 -2.22159e-06
-5.34274e-06 -2.22159e-06 -1.77496e-05
0.000733362 -0.000229994 1.10851e-06
-0.000229994 0.000231476 -9.13112e-06
1.10851e-06 -9.13112e-06 -1.04078e-05
0.00136728 -0.000296899 -3.09968e-06
-0.000296899 0.000668441 7.9766e-06
-3.09968e-06 7.9766e-06 0.000282157
0.00147376 -0.000672035 2.16158e-05
-0.000672035 0.000481801 3.68556e-06
2.16158e-05 3.68556e-06 -4.49539e-05
7.91647e-06 -0.000231824 1.54799e-05
-0.000231824 -0.000337971 -3.51941e-06
1.54799e-05 -3.51941e-06 -0.000667001
0.00133439 -0.000602303 -3.49062e-06
-0.000602303 0.000506276 1.56013e-05
-3.49062e-06 1.56013e-05 -5.06086e-05
0.000204668 1.56802e-05 -7.37761e-06
1.56802e-05 -0.000158151 -1.47195e-05
-7.37761e-06 -1.47195e-05 -0.000230584
0.00216786 0.000492307 -4.94206e-06
0.000492307 0.000183044 2.58079e-07
-4.94206e-06 2.58079e-07 -3.29265e-05
0.000823678 5.50044e-05 2.91826e-06
5.50044e-05 0.000264899 -6.5171e-06
2.91826e-06 -6.5171e-06 1.2594e-05
0.000402226 0.000272493 -7.35228e-06
0.000272493 -0.00010512 4.92112e-06
-7.35228e-06 4.92112e-06 -0.000349424
0.00108591 0.000307576 -3.11466e-06
0.000307576 0.000405532 1.08744e-05
-3.11466e-06 1.08744e-05 8.70723e-05
0.00213973 0.000644968 -4.28196e-06
0.000644968 0.000310589 2.27028e-06
-4.28196e-06 2.27028e-06 -2.17355e-05
0.00224448 0.000632192 -2.22418e-07
0.000632192 0.000231093 1.90418e-06
-2.22418e-07 1.90418e-06 -1.98897e-05
0.00142771 0.000661295 6.2151e-06
0.000661295 0.000381101 3.36588e-06
6.2151e-06 3.36588e-06 -0.000116073
0.0019491 0.000859795 9.0011e-06
0.000859795 0.000428045 1.20411e-05
9.0011e-06 1.20411e-05 -0.000112585
0.00239598 0.000783383 4.85756e-06
0.000783383 0.000493715 7.04302e-06
4.85756e-06 7.04302e-06 0.000122601
0.00240778 0.000770544 1.42548e-05
0.000770544 0.000447585 1.82083e-05
1.42548e-05 1.82083e-05 8.83428e-05
0.000443844 3.25971e-05 -2.43819e-07
3.25971e-05 -1.02078e-05 -4.49788e-09
-2.43819e-07 -4.49788e-09 -6.98295e-05
0.000666665 9.79725e-05 -2.45123e-06
9.79725e-05 0.000188261 -5.68995e-08
-2.45123e-06 -5.68995e-08 -3.53871e-05
0.000885537 0.000447007 6.63948e-06
0.000447007 0.000203513 -2.58451e-07
6.63948e-06 -2.58451e-07 -0.000167885
0.000641741 0.000147296 1.71066e-06
0.000147296 0.000141684 -5.16898e-06
1.71066e-06 -5.16898e-06 -0.000180561
0.000263975 0.00013147 -9.81147e-07
0.00013147 -0.000262348 4.44151e-06
-9.81147e-07 4.44151e-06 -0.000535648
0.00228868 0.000551177 -1.53109e-06
0.000551177 0.000172708 -1.13605e-06
-1.53109e-06 -1.13605e-06 -1.23525e-05
0.00226412 0.000725653 2.18865e-07
0.000725653 0.000314307 -3.66782e-08
2.18865e-07 -3.66782e-08 -1.60649e-06
0.00227348 0.000696284 1.44709e-06
0.000696284 0.000213256 3.04683e-07
1.44709e-06 3.04683e-07 -3.41035e-05
0.00199591 0.000907456 1.1228e-06
0.000907456 0.000721063 -2.68089e-06
1.1228e-06 -2.68089e-06 9.74377e-05
0.00258313 0.000854101 3.55992e-06
0.000854101 0.000494962 2.54872e-07
3.55992e-06 2.54872e-07 0.000128322
0.00238543 0.000964951 -4.6698e-06
0.000964951 0.000632048 4.50198e-07
-4.6698e-06 4.50198e-07 0.00010441
0.000881003 0.000145189 1.47433e-06
0.000145189 0.00029095 1.00264e-05
1.47433e-06 1.00264e-05 0.000129231
0.00276269 0.000426663 -3.94276e-07
0.000426663 0.00159006 4.81047e-06
-3.94276e-07 4.81047e-06 0.00123392
0.000271983 0.000509626 -3.16488e-06
0.000509626 -0.000188881 -2.38616e-07
-3.16488e-06 -2.38616e-07 -0.000634924
0.00172849 0.000228294 7.57968e-06
0.000228294 0.000635392 -1.6815e-06
7.57968e-06 -1.6815e-06 0.000362378
0.00285124 0.000655211 -2.40211e-06
0.000655211 0.00127863 -2.96431e-06
-2.40211e-06 -2.96431e-06 0.000877019
0.00230655 0.000587875 -3.20635e-06
0.000587875 9.91162e-05 -1.50762e-06
-3.20635e-06 -1.50762e-06 -4.36658e-05
0.00224314 0.00078672 -5.06489e-06
0.00078672 0.000263871 -1.75902e-06
-5.06489e-06 -1.75902e-06 -6.03759e-05
0.00230892 0.000765709 2.13949e-07
0.000765709 0.000199369 -8.61916e-07
2.13949e-07 -8.61916e-07 -4.93724e-05
0.00148593 0.000937308 6.46641e-06
0.000937308 0.000451216 -9.349e-06
6.46641e-06 -9.349e-06 -0.000185551
0.00210015 0.000941072 1.22626e-05
0.000941072 0.000324947 -4.29594e-06
1.22626e-05 -4.29594e-06 -0.00014699
0.000607365 8.73455e-05 -5.17543e-07
8.73455e-05 0.000136893 3.36142e-07
-5.17543e-07 3.36142e-07 -2.41963e-06
0.000515376 0.000213238 -1.08427e-06
0.000213238 0.000122395 -5.84301e-07
-1.08427e-06 -5.84301e-07 -7.03298e-05
-0.000358613 9.79861e-05 5.32799e-07
9.79861e-05 -0.000395439 -2.89704e-06
5.32799e-07 -2.89704e-06 -0.000593719
0.00167654 0.000284015 -5.54371e-06
0.000284015 0.000954614 -3.09386e-06
-5.54371e-06 -3.09386e-06 0.000709243
0.00138072 0.000226743 -2.60651e-06
0.000226743 0.000730052 3.3551e-06
-2.60651e-06 3.3551e-06 0.000534718
0.000547415 9.06955e-05 7.55057e-07
9.06955e-05 0.000108126 4.65458e-06
7.55057e-07 4.65458e-06 1.20093e-05
0.000560326 3.64824e-05 -1.26003e-06
3.64824e-05 0.00011486 -1.91124e-07
-1.26003e-06 -1.91124e-07 1.32269e-05
0.00145279 7.49804e-06 2.16904e-06
7.49804e-06 0.0006526 5.38175e-06
2.16904e-06 5.38175e-06 0.000621606
0.000475063 5.64712e-05 2.58434e-06
5.64712e-05 5.17586e-05 -7.25914e-06
2.58434e-06 -7.25914e-06 -5.90736e-05
0.00154946 -6.07863e-06 -1.37658e-05
-6.07863e-06 0.000714252 -2.06798e-06
-1.37658e-05 -2.06798e-06 0.000679577
0.000752636 -2.05777e-05 5.06348e-05
-2.05777e-05 0.000188782 1.15657e-05
5.06348e-05 1.15657e-05 0.000187694
0.00156654 9.62909e-06 -2.74682e-05
9.62909e-06 0.000727827 -9.4508e-06
-2.74682e-05 -9.4508e-06 0.000685759
0.0021804 -7.479e-05 5.76247e-05
-7.479e-05 0.00113062 1.32094e-06
5.76247e-05 1.32094e-06 0.00112383
0.00365529 -0.0001434 -5.9044e-05
-0.0001434 0.00210532 -7.26416e-06
-5.9044e-05 -7.26416e-06 0.00209422
0.000151408 2.49638e-05 4.43944e-07
2.49638e-05 -0.000171921 -1.08935e-05
4.43944e-07 -1.08935e-05 -0.000238358
0.000394974 -0.000124169 -3.16456e-06
-0.000124169 -3.78964e-05 5.33537e-07
-3.16456e-06 5.33537e-07 -0.000141206
0.00445843 0.000216741 3.39875e-05
0.000216741 0.00266504 -1.1149e-05
3.39875e-05 -1.1149e-05 0.00262701
0.00583248 0.000117418 -8.06462e-06
0.000117418 0.0035528 1.21463e-07
-8.06462e-06 1.21463e-07 0.00353733
0.000409333 -0.000191119 -2.43341e-05
-0.000191119 -6.50256e-05 1.98402e-05
-2.43341e-05 1.98402e-05 -0.000194133
0.00672097 8.6035e-05 -0.000248669
8.6035e-05 0.00411829 3.5556e-05
-0.000248669 3.5556e-05 0.00410603
0.00218096 0.000403857 -3.12107e-06
0.000403857 0.000147925 1.4666e-06
-3.12107e-06 1.4666e-06 -1.37918e-05
0.00215029 0.000232519 -1.83471e-06
0.000232519 8.85135e-05 -7.65388e-08
-1.83471e-06 -7.65388e-08 -1.82958e-07
0.00225544 0.000342672 -5.12904e-06
0.000342672 6.50965e-05 -3.50806e-07
-5.12904e-06 -3.50806e-07 6.47958e-06
0.00213861 0.00015208 -5.01905e-06
0.00015208 -1.39188e-05 -8.81212e-07
-5.01905e-06 -8.81212e-07 -1.90707e-05
0.00209219 6.68347e-05 -2.13353e-06
6.68347e-05 5.81307e-05 -3.70993e-07
-2.13353e-06 -3.70993e-07 -5.02623e-06
0.00122652 2.92626e-06 -4.29107e-06
2.92626e-06 -7.43183e-05 -2.90682e-07
-4.29107e-06 -2.90682e-07 -0.000200831
0.00212526 -5.76301e-06 9.46836e-08
-5.76301e-06 8.28695e-05 1.04065e-07
9.46836e-08 1.04065e-07 2.10221e-05
0.00210616 6.45903e-05 -5.70758e-07
6.45903e-05 -1.75285e-05 -6.6365e-08
-5.70758e-07 -6.6365e-08 -2.28124e-05
0.00222462 0.000238737 -8.28425e-08
0.000238737 5.12289e-05 9.40461e-08
-8.28425e-08 9.40461e-08 2.19055e-05
0.00215832 0.000143691 -2.34886e-08
0.000143691 -3.31302e-05 4.98265e-08
-2.34886e-08 4.98265e-08 -1.04492e-05
0.00232493 0.000462774 2.21685e-07
0.000462774 0.000129727 4.51676e-08
2.21685e-07 4.51676e-08 1.70503e-05
0.0022673 0.000341002 1.14097e-07
0.000341002 -3.37603e-05 1.89984e-07
1.14097e-07 1.89984e-07 -2.95972e-05
0.00209862 -1.05202e-05 4.58289e-06
-1.05202e-05 -2.07032e-05 -4.19137e-08
4.58289e-06 -4.19137e-08 -2.61695e-05
0.00221201 6.04717e-05 3.3094e-06
6.04717e-05 1.08231e-05 -5.33191e-08
3.3094e-06 -5.33191e-08 4.68696e-05
0.00218187 0.000214538 6.84353e-07
0.000214538 -4.86749e-05 3.12337e-07
6.84353e-07 3.12337e-07 -3.42371e-05
0.00229359 0.000151366 1.01816e-06
0.000151366 -3.98613e-05 6.6106e-07
1.01816e-06 6.6106e-07 2.18127e-05
0.00233466 0.000468048 5.12455e-07
0.000468048 4.16447e-05 -2.52239e-07
5.12455e-07 -2.52239e-07 -6.66021e-06
0.00240642 0.000337248 4.81906e-07
0.000337248 -3.34633e-05 2.67795e-07
4.81906e-07 2.67795e-07 -1.67204e-06
0.00213887 -7.2189e-05 8.81576e-07
-7.2189e-05 9.65313e-05 -1.63509e-07
8.81576e-07 -1.63509e-07 3.10851e-05
0.00206978 -0.000252707 3.29055e-06
-0.000252707 4.82828e-05 -4.1761e-07
3.29055e-06 -4.1761e-07 -5.08147e-05
0.00219164 -0.000152259 -3.52526e-06
-0.000152259 3.06258e-05 6.38025e-07
-3.52526e-06 6.38025e-07 1.72769e-05
0.00223683 -0.000349649 -5.06824e-06
-0.000349649 7.74671e-05 1.2358e-06
-5.06824e-06 1.2358e-06 4.05752e-06
0.000556053 -0.000344228 -7.28393e-06
-0.000344228 -7.35444e-05 7.66476e-06
-7.28393e-06 7.66476e-06 -0.000410903
0.00200161 -0.000804643 -3.32629e-06
-0.000804643 0.000583212 -2.27978e-06
-3.32629e-06 -2.27978e-06 4.92721e-05
0.00200194 -0.000842807 -9.18458e-07
-0.000842807 0.000296602 -3.61454e-06
-9.18458e-07 -3.61454e-06 -0.000191373
0.00209127 -0.000526609 -2.55502e-06
-0.000526609 9.022e-05 1.60331e-07
-2.55502e-06 1.60331e-07 -9.48044e-05
0.00230903 -0.000479126 1.03239e-07
-0.000479126 6.05194e-05 -2.86439e-07
1.03239e-07 -2.86439e-07 8.13709e-06
0.0022345 -0.000649762 -2.78196e-07
-0.000649762 0.000159043 3.72027e-07
-2.78196e-07 3.72027e-07 -3.76427e-05
0.00227031 -0.000762092 4.93355e-07
-0.000762092 0.000331359 -5.10225e-06
4.93355e-07 -5.10225e-06 -1.42854e-05
0.00233137 -0.00073469 3.60904e-06
-0.00073469 0.00029462 -1.24535e-06
3.60904e-06 -1.24535e-06 4.2173e-05
0.000660836 -0.000427278 5.80737e-06
-0.000427278 7.72581e-06 -2.68473e-06
5.80737e-06 -2.68473e-06 -0.000416643
0.00108124 -0.000446804 -1.42151e-05
-0.000446804 0.000307681 -3.9032e-06
-1.42151e-05 -3.9032e-06 -0.000128529
0.000436818 -0.000234098 -8.27559e-06
-0.000234098 2.24448e-05 2.31301e-06
-8.27559e-06 2.31301e-06 -0.000243132
-0.000327792 -0.000208435 -3.8083e-06
-0.000208435 -0.000522851 -2.25516e-06
-3.8083e-06 -2.25516e-06 -0.000810217
0.00219233 -8.66964e-05 -1.41745e-07
-8.66964e-05 5.19006e-05 3.91531e-08
-1.41745e-07 3.91531e-08 3.7031e-05
0.0021591 -0.00025518 1.9569e-06
-0.00025518 -1.84131e-06 -4.89503e-07
1.9569e-06 -4.89503e-07 -4.27822e-05
0.00212851 -0.00014655 1.29874e-07
-0.00014655 -1.74782e-05 -1.62002e-07
1.29874e-07 -1.62002e-07 5.26079e-06
0.00225964 -0.00037568 -4.46326e-07
-0.00037568 -1.84894e-06 3.06026e-07
-4.46326e-07 3.06026e-07 -7.85659e-06
0.00158722 -0.000642488 -2.32039e-06
-0.000642488 0.000467892 9.02332e-08
-2.32039e-06 9.02332e-08 -2.33997e-05
0.00198685 -0.000952882 3.22994e-06
-0.000952882 0.000484185 -2.84215e-08
3.22994e-06 -2.84215e-08 -0.000110935
0.00242273 -0.000933837 -2.27233e-07
-0.000933837 0.000504971 7.42866e-07
-2.27233e-07 7.42866e-07 1.32802e-05
0.00229784 -0.0005761 -1.13447e-06
-0.0005761 0.000129524 1.52204e-07
-1.13447e-06 1.52204e-07 5.13071e-06
0.00234144 -0.000506333 8.53293e-07
-0.000506333 1.84975e-05 -3.8415e-07
8.53293e-07 -3.8415e-07 -1.19628e-05
0.0023925 -0.000777229 -1.35498e-06
-0.000777229 0.000415512 9.07841e-07
-1.35498e-06 9.07841e-07 7.73561e-05
0.00232304 -0.000715053 -1.05129e-06
-0.000715053 0.000139297 8.27939e-07
-1.05129e-06 8.27939e-07 -2.19043e-05
0.0023701 -0.000796244 6.28124e-06
-0.000796244 0.000254972 -4.56327e-06
6.28124e-06 -4.56327e-06 -6.51764e-06
0.00147697 -0.000686702 3.51838e-07
-0.000686702 0.000499291 -1.75416e-06
3.51838e-07 -1.75416e-06 -3.82369e-05
0.001673 -0.000648736 -8.72722e-07
-0.000648736 0.000705847 1.37917e-06
-8.72722e-07 1.37917e-06 0.000159484
0.00114016 -0.000313225 -1.42156e-07
-0.000313225 0.000429396 -4.92285e-06
-1.42156e-07 -4.92285e-06 7.61163e-05
0.000186047 -0.000122829 -2.72313e-06
-0.000122829 -0.000103584 1.66571e-06
-2.72313e-06 1.66571e-06 -0.000349657
-0.000419223 -0.000202772 -1.47228e-06
-0.000202772 -0.000496266 1.06002e-06
-1.47228e-06 1.06002e-06 -0.000850699
0.00211958 -9.06898e-05 2.06403e-06
-9.06898e-05 -4.81167e-05 -2.39047e-07
2.06403e-06 -2.39047e-07 -1.33063e-05
0.00219923 -0.000222155 5.38588e-07
-0.000222155 -4.54118e-05 -1.00262e-06
5.38588e-07 -1.00262e-06 -1.42046e-05
0.00238602 -0.000455514 -1.51249e-06
-0.000455514 -5.14824e-05 -9.19881e-07
-1.51249e-06 -9.19881e-07 -1.66706e-05
0.00236648 -0.000611465 -2.17538e-07
-0.000611465 5.33572e-05 7.20964e-07
-2.17538e-07 7.20964e-07 -6.31636e-06
0.00177327 -0.000889266 6.03669e-06
-0.000889266 0.000567372 3.50481e-06
6.03669e-06 3.50481e-06 -4.56836e-05
0.00256009 -0.000854891 -4.6175e-06
-0.000854891 0.000180865 -1.00873e-06
-4.6175e-06 -1.00873e-06 -1.49521e-05
0.00150283 -0.000981493 -1.25673e-05
-0.000981493 0.000188814 9.97516e-06
-1.25673e-05 9.97516e-06 -0.000426549
0.00266321 -0.00099949 -2.45972e-06
-0.00099949 0.00062849 3.65225e-06
-2.45972e-06 3.65225e-06 0.000125097
0.00204017 -0.000751204 -1.33386e-05
-0.000751204 0.000162072 -1.82131e-06
-1.33386e-05 -1.82131e-06 -0.000157472
0.000153361 -8.5105e-05 1.07836e-07
-8.5105e-05 -0.000116385 -8.0426e-06
1.07836e-07 -8.0426e-06 -0.000287453
0.000710985 -0.000362698 -3.7157e-06
-0.000362698 0.000325821 1.64363e-06
-3.7157e-06 1.64363e-06 -5.16592e-05
0.00281913 -0.000324832 -9.07823e-06
-0.000324832 0.00156262 7.39764e-06
-9.07823e-06 7.39764e-06 0.00120259
0.00199512 -0.000825354 -1.4097e-06
-0.000825354 0.000816907 8.61391e-06
-1.4097e-06 8.61391e-06 0.000224292
0.00168851 -0.000476848 7.98901e-06
-0.000476848 0.000736215 1.7025e-06
7.98901e-06 1.7025e-06 0.000299945
0.00211165 -0.000782242 -4.20051e-06
-0.000782242 0.00095551 1.64913e-05
-4.20051e-06 1.64913e-05 0.000357822
0.000383456 3.28508e-05 -5.74761e-06
3.28508e-05 -4.67002e-05 -1.39873e-05
-5.74761e-06 -1.39873e-05 -0.000106314
0.000194718 8.68421e-05 -1.27448e-06
8.68421e-05 -0.000106827 -1.09073e-05
-1.27448e-06 -1.09073e-05 -0.000330044
0.00234759 0.000556645 -4.10887e-06
0.000556645 0.000213563 -6.51989e-07
-4.10887e-06 -6.51989e-07 2.70351e-05
-0.000629523 9.36155e-06 -2.47394e-06
9.36155e-06 -0.000638574 -5.13725e-07
-2.47394e-06 -5.13725e-07 -0.00097476
0.0027416 0.000555961 1.44751e-05
0.000555961 0.00137404 -4.44924e-06
1.44751e-05 -4.44924e-06 0.0010058
-0.000391568 0.000161997 -9.7953e-06
0.000161997 -0.000693093 1.86569e-06
-9.7953e-06 1.86569e-06 -0.000994214
0.00224165 0.000721 1.987e-06
0.000721 0.000305743 3.10965e-06
1.987e-06 3.10965e-06 -8.27315e-06
0.00231852 0.000701994 3.21861e-06
0.000701994 0.000245763 1.06499e-06
3.21861e-06 1.06499e-06 -2.77552e-06
0.00197067 0.000899062 9.75089e-06
0.000899062 0.000724697 9.49685e-06
9.75089e-06 9.49685e-06 9.96626e-05
0.00279903 0.000998891 -2.06787e-06
0.000998891 0.000918447 9.15785e-06
-2.06787e-06 9.15785e-06 0.000391563
0.0025046 0.000848551 5.74929e-06
0.000848551 0.000419562 5.17275e-06
5.74929e-06 5.17275e-06 5.11484e-05
0.000771146 0.000138995 1.28235e-06
0.000138995 0.000222078 -1.17193e-08
1.28235e-06 -1.17193e-08 6.42073e-05
0.00089164 0.000225424 -2.3016e-06
0.000225424 0.000387364 7.1245e-07
-2.3016e-06 7.1245e-07 5.16573e-05
0.000922024 0.000605067 6.5495e-07
0.000605067 0.000206762 6.60755e-07
6.5495e-07 6.60755e-07 -0.000280027
0.000836725 0.000170423 8.52866e-08
0.000170423 7.38942e-05 -1.88278e-06
8.52866e-08 -1.88278e-06 -0.000199166
0.00149763 0.000437896 3.84964e-06
0.000437896 0.000350903 -5.06396e-06
3.84964e-06 -5.06396e-06 6.24685e-06
0.00231687 0.000589063 -2.21778e-06
0.000589063 0.000119172 -1.02458e-06
-2.21778e-06 -1.02458e-06 -2.50498e-05
0.00235073 0.00079913 2.54364e-06
0.00079913 0.000317391 5.68527e-07
2.54364e-06 5.68527e-07 -9.50379e-06
0.00233049 0.000771275 1.18239e-06
0.000771275 0.000193163 4.77493e-07
1.18239e-06 4.77493e-07 -5.88086e-05
0.00182451 0.00100016 2.27778e-06
0.00100016 0.000627724 1.17327e-06
2.27778e-06 1.17327e-06 -1.89196e-05
0.00209554 0.000949783 -2.15609e-06
0.000949783 0.000353709 -2.84804e-06
-2.15609e-06 -2.84804e-06 -0.000128159
0.00179258 0.000344754 2.31931e-06
0.000344754 0.000946745 3.72159e-06
2.31931e-06 3.72159e-06 0.00068723
-0.000180102 0.000183276 5.44938e-07
0.000183276 -0.000285091 -2.41492e-06
5.44938e-07 -2.41492e-06 -0.000641699
0.00174572 0.000800486 2.40787e-06
0.000800486 0.000718456 -7.34338e-06
2.40787e-06 -7.34338e-06 0.000163877
-0.00237075 0.000248027 4.51093e-06
0.000248027 -0.00204481 -2.44793e-06
4.51093e-06 -2.44793e-06 -0.00234436
0.00316904 0.000824585 4.09294e-06
0.000824585 0.00133506 -6.39285e-06
4.09294e-06 -6.39285e-06 0.000881662
0.00251301 0.000692128 -2.67848e-06
0.000692128 0.000109396 -4.76669e-07
-2.67848e-06 -4.76669e-07 1.74135e-05
0.00235966 0.00085073 8.92653e-06
0.00085073 0.000268225 -3.18309e-06
8.92653e-06 -3.18309e-06 -9.46342e-05
0.00231024 0.000780236 7.41428e-06
0.000780236 0.000102122 3.78978e-07
7.41428e-06 3.78978e-07 -0.00016611
0.00203998 0.00105099 1.62637e-05
0.00105099 0.000678885 2.63593e-07
1.62637e-05 2.63593e-07 4.48389e-05
0.00246683 0.00112576 7.88353e-06
0.00112576 0.000629326 -3.90242e-07
7.88353e-06 -3.90242e-07 6.4487e-05
0.000515103 7.59361e-05 2.88047e-06
7.59361e-05 7.28519e-05 -9.62391e-06
2.88047e-06 -9.62391e-06 -5.98248e-05
0.000914055 0.000171433 1.87169e-07
0.000171433 0.000376372 -1.19354e-06
1.87169e-07 -1.19354e-06 0.000182855
-0.000201382 0.000106795 -3.57725e-06
0.000106795 -0.000348433 -1.34255e-05
-3.57725e-06 -1.34255e-05 -0.000485379
-0.000657953 -1.18249e-05 5.51397e-06
-1.18249e-05 -0.000620862 -2.80966e-06
5.51397e-06 -2.80966e-06 -0.000788074
0.000535412 0.000107918 -1.55801e-06
0.000107918 0.000160539 2.67587e-07
-1.55801e-06 2.67587e-07 -7.72637e-06
0.000242912 0.00011386 2.76053e-06
0.00011386 -2.41599e-06 -4.91202e-07
2.76053e-06 -4.91202e-07 -0.000202168
0.000494537 0.000195488 -1.0441e-06
0.000195488 0.000150167 -1.09342e-05
-1.0441e-06 -1.09342e-05 -3.26784e-05
0.000376067 1.81347e-05 -6.46381e-06
1.81347e-05 0.000100809 2.30858e-06
-6.46381e-06 2.30858e-06 -0.000109602
0.000753032 0.00013062 -1.15131e-06
0.00013062 0.000277203 1.22994e-06
-1.15131e-06 1.22994e-06 0.000134776
0.000524174 9.28836e-05 2.04399e-06
9.28836e-05 9.33168e-05 4.28347e-06
2.04399e-06 4.28347e-06 -1.91848e-06
0.000441034 3.59924e-05 -2.86983e-06
3.59924e-05 3.25976e-05 1.08533e-07
-2.86983e-06 1.08533e-07 -5.92707e-05
0.00138618 7.03115e-06 2.42645e-06
7.03115e-06 0.000609044 4.86669e-06
2.42645e-06 4.86669e-06 0.000582673
0.00025864 -8.22961e-05 6.94853e-06
-8.22961e-05 -7.07897e-05 -5.14724e-06
6.94853e-06 -5.14724e-06 -0.00017525
0.00143618 2.82328e-06 -1.19969e-05
2.82328e-06 0.000639218 -1.89558e-06
-1.19969e-05 -1.89558e-06 0.000611456
0.000720663 -1.53363e-05 4.09583e-05
-1.53363e-05 0.000166969 1.07474e-05
4.09583e-05 1.07474e-05 0.000169206
0.00149793 -1.16792e-06 -1.93328e-05
-1.16792e-06 0.000678341 -9.88779e-06
-1.93328e-05 -9.88779e-06 0.000646772
0.000751182 -3.31519e-05 1.98556e-05
-3.31519e-05 0.000187275 4.26869e-06
1.98556e-05 4.26869e-06 0.000181197
0.00334926 -0.000144763 4.5389e-06
-0.000144763 0.00189866 -4.82077e-06
4.5389e-06 -4.82077e-06 0.00188623
0.000208524 7.73343e-05 -4.78232e-06
7.73343e-05 -0.000113427 -8.39214e-06
-4.78232e-06 -8.39214e-06 -0.000174523
0.000337839 -3.70996e-05 -4.3599e-06
-3.70996e-05 -5.41211e-05 7.03077e-07
-4.3599e-06 7.03077e-07 -0.000126229
0.00363851 0.000205262 -2.28825e-05
0.000205262 0.00212403 -1.12187e-05
-2.28825e-05 -1.12187e-05 0.00209549
0.00078881 -0.000156658 -1.90813e-05
-0.000156658 0.00021004 1.4725e-05
-1.90813e-05 1.4725e-05 0.00010206
0.00494503 0.000165256 -4.74831e-05
0.000165256 0.0029775 -7.61828e-08
-4.74831e-05 -7.61828e-08 0.00295232
0.00623664 0.000142641 -0.00020117
0.000142641 0.00383638 3.49359e-05
-0.00020117 3.49359e-05 0.00380889
0.00235567 0.000467907 -4.33936e-06
0.000467907 0.000143666 -3.61004e-07
-4.33936e-06 -3.61004e-07 3.01628e-05
0.00221181 0.000236007 -5.59611e-06
0.000236007 3.94783e-05 -1.05138e-06
-5.59611e-06 -1.05138e-06 1.13337e-05
0.00224826 0.000331192 4.40377e-08
0.000331192 -4.86839e-05 2.36932e-07
4.40377e-08 2.36932e-07 -4.17313e-05
0.00212121 0.000144897 -8.71139e-07
0.000144897 -6.58877e-05 -5.22394e-07
-8.71139e-07 -5.22394e-07 -3.6989e-05
0.0021164 5.77295e-05 -5.29512e-06
5.77295e-05 -7.43299e-06 -1.55855e-07
-5.29512e-06 -1.55855e-07 -1.45723e-05
0.00209979 -4.37216e-06 -1.53089e-06
-4.37216e-06 6.77901e-05 -7.59074e-08
-1.53089e-06 -7.59074e-08 5.73938e-06
0.00214042 -1.21571e-05 1.40221e-07
-1.21571e-05 1.18626e-05 -1.02764e-08
1.40221e-07 -1.02764e-08 4.04917e-06
0.00219778 6.32848e-05 7.22452e-07
6.32848e-05 6.62578e-06 -1.60462e-08
7.22452e-07 -1.60462e-08 3.78038e-05
0.00220893 0.000215762 -4.60049e-07
0.000215762 -2.37881e-05 -5.50302e-08
-4.60049e-07 -5.50302e-08 -1.02374e-05
0.00225848 0.000151362 6.17041e-07
0.000151362 -6.75589e-05 1.09423e-07
6.17041e-07 1.09423e-07 2.39884e-06
0.00234281 0.00046807 -3.99384e-07
0.00046807 5.10933e-05 5.03577e-08
-3.99384e-07 5.03577e-08 1.45607e-06
0.00238043 0.000339921 2.11313e-06
0.000339921 -4.91986e-05 6.5786e-07
2.11313e-06 6.5786e-07 -9.25927e-06
0.00212857 -1.60952e-05 1.21308e-06
-1.60952e-05 -3.93909e-05 -9.03396e-08
1.21308e-06 -9.03396e-08 -1.04736e-05
0.00228291 7.58684e-05 1.13435e-06
7.58684e-05 -6.5654e-05 -1.38285e-07
1.13435e-06 -1.38285e-07 1.71598e-05
0.00236349 0.0002232 -1.48284e-06
0.0002232 -5.19614e-05 4.63716e-07
-1.48284e-06 4.63716e-07 1.90386e-05
0.00249514 0.00049203 -1.88511e-06
0.00049203 -1.50868e-05 -1.22899e-07
-1.88511e-06 -1.22899e-07 1.73528e-05
0.0022008 -8.69736e-05 -6.34795e-06
-8.69736e-05 5.56835e-05 6.70106e-07
-6.34795e-06 6.70106e-07 4.08359e-05
0.00222129 -0.000260094 -3.46611e-06
-0.000260094 4.60136e-05 8.86702e-07
-3.46611e-06 8.86702e-07 4.10417e-06
0.0020819 -0.000145611 -2.22711e-06
-0.000145611 -5.35863e-05 6.78108e-07
-2.22711e-06 6.78108e-07 -2.89238e-05
0.00225685 -0.000374661 -2.6686e-06
-0.000374661 3.93376e-06 7.19001e-07
-2.6686e-06 7.19001e-07 -9.89692e-06
0.00135475 -0.000617014 8.28979e-06
-0.000617014 0.000310998 -2.36527e-06
8.28979e-06 -2.36527e-06 -0.000173814
0.00195153 -0.000948737 4.67573e-06
-0.000948737 0.000465596 -6.11231e-06
4.67573e-06 -6.11231e-06 -0.000130792
0.00241992 -0.000953321 -4.54081e-06
-0.000953321 0.000500236 -4.14934e-06
-4.54081e-06 -4.14934e-06 -3.64886e-06
0.00232474 -0.000575192 -2.75097e-06
-0.000575192 0.00015725 9.2673e-07
-2.75097e-06 9.2673e-07 2.62432e-05
0.00233296 -0.000505897 2.69745e-06
-0.000505897 1.37487e-05 -3.81768e-07
2.69745e-06 -3.81768e-07 -9.09558e-06
0.00229948 -0.000716532 -1.27272e-06
-0.000716532 0.000117224 1.09111e-06
-1.27272e-06 1.09111e-06 -4.44438e-05
0.00237564 -0.000772891 1.59853e-06
-0.000772891 0.000413529 -2.13736e-06
1.59853e-06 -2.13736e-06 7.64642e-05
0.00245371 -0.000796356 9.7031e-06
-0.000796356 0.000307988 -7.92367e-07
9.7031e-06 -7.92367e-07 4.83485e-05
0.00179751 -0.000721886 -2.41353e-05
-0.000721886 0.000746813 -3.63642e-06
-2.41353e-05 -3.63642e-06 0.000196643
0.00101418 -0.000579792 5.64299e-06
-0.000579792 0.000273035 -1.56043e-05
5.64299e-06 -1.56043e-05 -0.000250626
0.00293067 -0.000401103 -8.30112e-06
-0.000401103 0.00152949 -5.48219e-06
-8.30112e-06 -5.48219e-06 0.00118809
-0.000126186 -5.54289e-05 3.87067e-06
-5.54289e-05 -0.00030056 5.17768e-06
3.87067e-06 5.17768e-06 -0.000543254
-0.000167994 -0.000136071 7.23724e-06
-0.000136071 -0.000324726 -9.57291e-06
7.23724e-06 -9.57291e-06 -0.000674639
0.00210789 -9.81392e-05 9.18323e-08
-9.81392e-05 -5.5007e-05 -8.82601e-08
9.18323e-08 -8.82601e-08 -2.11465e-05
0.0022244 -0.000223888 1.76488e-06
-0.000223888 -3.19758e-05 -4.18001e-09
1.76488e-06 -4.18001e-09 -1.93519e-06
0.00238353 -0.00044912 -9.41195e-07
-0.00044912 -3.4362e-05 3.12796e-07
-9.41195e-07 3.12796e-07 -9.09006e-06
0.00202953 -0.000897931 -1.93939e-06
-0.000897931 0.000726967 -1.13889e-07
-1.93939e-06 -1.13889e-07 0.000118501
0.00166683 -0.00098451 6.63636e-06
-0.00098451 0.000291034 -1.34291e-06
6.63636e-06 -1.34291e-06 -0.000321629
0.00249699 -0.00100109 -1.65597e-06
-0.00100109 0.000526384 2.34576e-07
-1.65597e-06 2.34576e-07 1.58365e-05
0.00237022 -0.000604642 4.56475e-07
-0.000604642 6.15433e-05 -4.79118e-07
4.56475e-07 -4.79118e-07 3.98261e-07
0.0022939 -0.000799909 3.45323e-06
-0.000799909 0.000286932 -4.26887e-06
3.45323e-06 -4.26887e-06 -3.845e-05
0.00255237 -0.000840268 -1.18001e-06
-0.000840268 0.000208746 -6.53123e-07
-1.18001e-06 -6.53123e-07 1.81472e-05
-0.000446826 4.49017e-06 -1.97068e-06
4.49017e-06 -0.000525875 -5.27132e-07
-1.97068e-06 -5.27132e-07 -0.000675549
0.00168671 -0.000771222 1.24794e-06
-0.000771222 0.000647539 -2.92217e-07
1.24794e-06 -2.92217e-07 6.07555e-05
0.00165065 -0.000733633 -4.5301e-06
-0.000733633 0.000690966 -8.12409e-07
-4.5301e-06 -8.12409e-07 7.07414e-05
0.00113098 -0.000403155 -2.1266e-06
-0.000403155 0.000365151 3.96156e-06
-2.1266e-06 3.96156e-06 -8.05181e-05
0.00188341 -0.000475311 1.21179e-06
-0.000475311 0.000984709 -8.53041e-08
1.21179e-06 -8.53041e-08 0.000595025
0.000458516 -0.000197472 -7.11215e-07
-0.000197472 0.000147427 8.38632e-07
-7.11215e-07 8.38632e-07 -0.000218568
0.00223593 -0.000124914 -1.68453e-08
-0.000124914 -7.74537e-05 -4.0997e-07
-1.68453e-08 -4.0997e-07 -7.1005e-06
0.00241203 -0.000299348 6.91416e-07
-0.000299348 -9.16791e-05 -1.00568e-06
6.91416e-07 -1.00568e-06 6.17205e-06
0.00247738 -0.000561101 -1.82057e-06
-0.000561101 -3.17816e-05 -2.17329e-08
-1.82057e-06 -2.17329e-08 7.63035e-06
0.00249725 -0.000733516 -2.6015e-06
-0.000733516 2.34626e-05 7.23793e-07
-2.6015e-06 7.23793e-07 -6.31595e-06
0.00232986 -0.00102175 -7.11324e-06
-0.00102175 0.000906161 5.89484e-06
-7.11324e-06 5.89484e-06 0.000258014
0.00252554 -0.000958851 -4.42971e-06
-0.000958851 0.000278384 -4.72863e-06
-4.42971e-06 -4.72863e-06 -3.17513e-05
0.00232289 -0.00116939 -6.04883e-05
-0.00116939 0.000681643 1.06261e-05
-6.04883e-05 1.06261e-05 -1.05995e-06
0.00217018 -0.00100905 -3.11733e-05
-0.00100905 0.000352232 3.38791e-06
-3.11733e-05 3.38791e-06 -0.000163422
-0.000388356 3.59961e-05 -3.97672e-06
3.59961e-05 -0.000497849 -5.11158e-06
-3.97672e-06 -5.11158e-06 -0.000602972
0.00113519 -5.76053e-05 -1.61142e-06
-5.76053e-05 0.000592581 9.674e-07
-1.61142e-06 9.674e-07 0.000305476
0.00241074 -0.000466471 -1.01756e-05
-0.000466471 0.0014166 2.61191e-06
-1.01756e-05 2.61191e-06 0.00101012
-0.000207214 -0.000294798 -6.39264e-06
-0.000294798 -0.00037217 -2.19892e-06
-6.39264e-06 -2.19892e-06 -0.000748992
0.00259911 -0.000917883 -5.02259e-06
-0.000917883 0.00119197 2.09045e-05
-5.02259e-06 2.09045e-05 0.000578444
0.00197368 -0.000757249 4.08408e-06
-0.000757249 0.000916695 1.59313e-05
4.08408e-06 1.59313e-05 0.000245725
0.000568717 0.000110035 1.40347e-06
0.000110035 9.65995e-05 -1.01291e-05
1.40347e-06 -1.01291e-05 -5.96065e-05
-0.000599238 0.000101824 2.03843e-07
0.000101824 -0.000583973 -2.99453e-06
2.03843e-07 -2.99453e-06 -0.000894489
0.00232459 0.000590305 -1.25111e-06
0.000590305 0.000136808 -4.81941e-07
-1.25111e-06 -4.81941e-07 -8.87781e-06
3.36036e-05 0.000121635 -4.66579e-06
0.000121635 -0.000419982 5.24055e-06
-4.66579e-06 5.24055e-06 -0.00069775
0.00182804 0.000731438 9.74087e-06
0.000731438 0.000773423 -2.2562e-06
9.74087e-06 -2.2562e-06 0.000238554
0.000331053 0.000227698 -7.10692e-06
0.000227698 -0.000380983 -4.33145e-06
-7.10692e-06 -4.33145e-06 -0.000658056
0.00246001 0.000811692 5.22393e-06
0.000811692 0.000371434 1.74007e-06
5.22393e-06 1.74007e-06 4.18651e-05
0.0023392 0.000774685 -3.33791e-06
0.000774685 0.00018015 3.62851e-07
-3.33791e-06 3.62851e-07 -7.39043e-05
0.00217904 0.00106344 -3.84045e-06
0.00106344 0.000816134 6.87318e-06
-3.84045e-06 6.87318e-06 0.000159093
0.00211897 0.000960448 -7.4507e-06
0.000960448 0.000406071 2.8791e-06
-7.4507e-06 2.8791e-06 -8.72383e-05
0.000733174 0.000247579 -4.80486e-07
0.000247579 0.000262001 -4.05276e-07
-4.80486e-07 -4.05276e-07 1.42081e-05
0.000740332 0.000295579 2.11841e-06
0.000295579 0.000292408 -1.9673e-06
2.11841e-06 -1.9673e-06 -8.0236e-05
0.00148281 0.00075299 -2.78055e-06
0.00075299 0.000559799 -3.64077e-07
-2.78055e-06 -3.64077e-07 1.77434e-05
0.000760839 0.000336125 -3.79847e-06
0.000336125 -7.69497e-05 2.66329e-06
-3.79847e-06 2.66329e-06 -0.000367636
0.00274208 0.000745474 3.39223e-07
0.000745474 0.00105506 -3.12643e-07
3.39223e-07 -3.12643e-07 0.000622782
0.00253942 0.000699102 -2.43822e-06
0.000699102 0.000107356 -5.08509e-07
-2.43822e-06 -5.08509e-07 1.26475e-05
0.00251421 0.000841586 2.91563e-06
0.000841586 0.000372254 -7.4533e-07
2.91563e-06 -7.4533e-07 2.19507e-05
0.00261653 0.000810036 5.9732e-07
0.000810036 0.000298414 2.68321e-06
5.9732e-07 2.68321e-06 2.17323e-05
0.00196995 0.00105418 4.83376e-06
0.00105418 0.000628418 1.36306e-06
4.83376e-06 1.36306e-06 -1.14969e-05
0.00239758 0.00116667 -5.11766e-06
0.00116667 0.000591949 8.15454e-07
-5.11766e-06 8.15454e-07 -3.01853e-07
-0.00176026 1.57019e-05 -9.8441e-06
1.57019e-05 -0.00130306 2.42234e-06
-9.8441e-06 2.42234e-06 -0.0015229
-0.00297166 0.000263476 -1.23701e-06
0.000263476 -0.00185853 -5.16286e-06
-1.23701e-06 -5.16286e-06 -0.00230328
0.00201354 0.00087159 1.01879e-05
0.00087159 0.000766207 -4.55181e-06
1.01879e-05 -4.55181e-06 0.000211296
0.00118104 0.000456186 6.12321e-06
0.000456186 7.92966e-05 -4.99941e-06
6.12321e-06 -4.99941e-06 -0.000243003
0.00268632 0.000656612 5.21112e-07
0.000656612 -0.000139019 7.26117e-07
5.21112e-07 7.26117e-07 -2.84413e-05
0.00265334 0.000841254 7.34347e-06
0.000841254 0.000189054 6.92244e-07
7.34347e-06 6.92244e-07 3.20046e-07
0.00265247 0.00103825 1.07146e-05
0.00103825 0.000461966 -3.91203e-06
1.07146e-05 -3.91203e-06 -1.78819e-05
0.00210653 0.00118221 6.68807e-06
0.00118221 0.000526309 -1.61901e-08
6.68807e-06 -1.61901e-08 -0.000149382
0.00141947 0.000228268 3.41913e-06
0.000228268 0.000738158 1.76944e-06
3.41913e-06 1.76944e-06 0.000512725
0.000448776 0.000209119 -4.51939e-06
0.000209119 0.000110414 5.44502e-07
-4.51939e-06 5.44502e-07 -6.09233e-05
0.000778292 0.000138537 -9.09683e-06
0.000138537 0.000336242 -6.75041e-06
-9.09683e-06 -6.75041e-06 0.000216312
6.49699e-05 4.5423e-05 2.61098e-06
4.5423e-05 -0.000166818 -3.5034e-06
2.61098e-06 -3.5034e-06 -0.000316069
-0.00135838 5.64658e-05 4.81558e-07
5.64658e-05 -0.000988933 1.14538e-06
4.81558e-07 1.14538e-06 -0.00119601
0.00073032 8.15207e-05 -1.00412e-06
8.15207e-05 0.000264176 -5.95039e-08
-1.00412e-06 -5.95039e-08 0.000119429
0.000690051 0.000229132 3.02529e-06
0.000229132 0.000318355 2.2559e-06
3.02529e-06 2.2559e-06 0.000125214
0.000622526 0.000102756 1.11765e-06
0.000102756 0.000286924 2.29531e-06
1.11765e-06 2.29531e-06 5.30891e-05
0.000560498 0.000147639 -1.64373e-06
0.000147639 0.000119563 -1.07213e-05
-1.64373e-06 -1.07213e-05 3.08595e-05
0.000545149 7.25091e-05 -2.05858e-06
7.25091e-05 0.000235514 -6.665e-06
-2.05858e-06 -6.665e-06 2.53026e-06
-0.000116786 7.47719e-05 -1.82769e-06
7.47719e-05 -0.000238409 2.72407e-06
-1.82769e-06 2.72407e-06 -0.000428249
0.000740341 0.000141103 1.97603e-06
0.000141103 0.000267793 3.46139e-06
1.97603e-06 3.46139e-06 0.000121979
0.000447 9.56733e-05 2.54338e-06
9.56733e-05 4.98061e-05 4.22446e-06
2.54338e-06 4.22446e-06 -4.94839e-05
0.000426308 2.14593e-05 -1.87972e-06
2.14593e-05 2.61242e-05 -4.23256e-07
-1.87972e-06 -4.23256e-07 -6.58707e-05
0.00128908 1.72115e-05 5.1332e-07
1.72115e-05 0.000551327 3.76178e-06
5.1332e-07 3.76178e-06 0.000525469
0.000426029 -4.77004e-05 2.71205e-06
-4.77004e-05 1.97315e-05 -4.22974e-06
2.71205e-06 -4.22974e-06 -6.90386e-05
0.00135636 3.30908e-06 -1.06285e-05
3.30908e-06 0.000591171 -1.88285e-06
-1.06285e-05 -1.88285e-06 0.000565542
0.000643659 -5.9143e-06 3.72968e-05
-5.9143e-06 0.000119454 1.0728e-05
3.72968e-05 1.0728e-05 0.00012285
0.00138549 -3.23766e-05 -1.22919e-05
-3.23766e-05 0.000608489 -8.8385e-06
-1.22919e-05 -8.8385e-06 0.000581413
0.000712847 -2.30201e-05 1.64264e-05
-2.30201e-05 0.000160831 3.95113e-06
1.64264e-05 3.95113e-06 0.000159907
0.000651746 -3.71792e-05 2.89528e-06
-3.71792e-05 0.000124805 -4.45249e-06
2.89528e-06 -4.45249e-06 0.000116219
0.000318169 4.0398e-05 -1.34271e-06
4.0398e-05 -7.58525e-05 -6.6845e-06
-1.34271e-06 -6.6845e-06 -0.000114045
0.000436929 5.07956e-05 -1.594e-06
5.07956e-05 1.47739e-05 9.44246e-08
-1.594e-06 9.44246e-08 -3.75652e-05
0.00292706 0.00015524 -1.63199e-05
0.00015524 0.00164484 -9.14811e-06
-1.63199e-05 -9.14811e-06 0.00163079
0.00056749 -4.52302e-05 -1.40865e-05
-4.52302e-05 9.34663e-05 1.27702e-05
-1.40865e-05 1.27702e-05 1.61776e-05
0.0037592 0.000164948 -2.65586e-05
0.000164948 0.00218874 -2.0529e-06
-2.65586e-05 -2.0529e-06 0.00216825
0.00504578 7.12475e-05 -0.000185938
7.12475e-05 0.00303157 2.69208e-05
-0.000185938 2.69208e-05 0.00302828
0.00235064 0.000467786 -1.63376e-07
0.000467786 6.1128e-05 4.76343e-07
-1.63376e-07 4.76343e-07 1.02763e-05
0.00223371 0.000217033 -1.82508e-06
0.000217033 -1.21271e-06 -8.9157e-07
-1.82508e-06 -8.9157e-07 1.14883e-05
0.00235339 0.000341867 1.98205e-06
0.000341867 -6.58025e-05 1.29545e-06
1.98205e-06 1.29545e-06 -1.76879e-05
0.00222779 0.000151534 5.18985e-07
0.000151534 -9.25952e-05 -4.56743e-07
5.18985e-07 -4.56743e-07 -1.41427e-05
0.00218011 6.60832e-05 -2.58273e-06
6.60832e-05 -1.57422e-07 3.56832e-09
-2.58273e-06 3.56832e-09 2.63484e-05
0.00218112 -1.50158e-05 -6.30926e-06
-1.50158e-05 4.33312e-05 1.61852e-07
-6.30926e-06 1.61852e-07 3.33532e-05
0.00214326 -1.53286e-05 7.09918e-07
-1.53286e-05 -2.81678e-05 2.01426e-08
7.09918e-07 2.01426e-08 2.11397e-06
0.00225772 8.01692e-05 4.99897e-07
8.01692e-05 -7.79059e-05 1.10962e-07
4.99897e-07 1.10962e-07 3.50286e-06
0.00235432 0.00022895 9.54241e-07
0.00022895 -5.94669e-05 1.69735e-07
9.54241e-07 1.69735e-07 1.40415e-05
0.00246962 0.000476629 4.91895e-07
0.000476629 -3.48847e-05 2.19915e-07
4.91895e-07 2.19915e-07 2.14843e-06
0.00224666 -1.64557e-05 -3.18753e-07
-1.64557e-05 -7.68574e-05 -2.21223e-07
-3.18753e-07 -2.21223e-07 -1.82475e-06
0.00239852 0.000130009 -9.24305e-07
0.000130009 -0.000109084 1.10271e-06
-9.24305e-07 1.10271e-06 2.72531e-05
0.00261701 0.000340911 -1.87126e-06
0.000340911 -5.69731e-05 5.47662e-08
-1.87126e-06 5.47662e-08 5.14693e-05
0.00209116 -0.000105448 -1.63788e-06
-0.000105448 -6.52081e-05 1.50872e-07
-1.63788e-06 1.50872e-07 -3.2084e-05
0.00224885 -0.000224848 -1.86579e-06
-0.000224848 -1.80719e-05 4.83155e-07
-1.86579e-06 4.83155e-07 1.08535e-05
0.00237416 -0.000441948 4.34267e-07
-0.000441948 -2.11588e-05 5.84526e-07
4.34267e-07 5.84526e-07 -5.9164e-06
0.00204932 -0.000890334 -6.74223e-06
-0.000890334 0.000715602 -4.37001e-06
-6.74223e-06 -4.37001e-06 0.000113763
0.00181299 -0.000977786 1.53337e-05
-0.000977786 0.000387201 -8.52042e-06
1.53337e-05 -8.52042e-06 -0.000218353
0.00233046 -0.00100031 3.95912e-06
-0.00100031 0.000427107 -2.36854e-06
3.95912e-06 -2.36854e-06 -8.81559e-05
0.00237674 -0.000599111 1.78495e-07
-0.000599111 6.9827e-05 -2.70997e-08
1.78495e-07 -2.70997e-08 7.27765e-06
0.00252713 -0.000824704 4.14449e-06
-0.000824704 0.000220941 6.90664e-07
4.14449e-06 6.90664e-07 4.09628e-05
0.00248659 -0.000844607 1.27718e-05
-0.000844607 0.000375177 -5.61651e-06
1.27718e-05 -5.61651e-06 4.61946e-05
0.00139326 -0.00072316 -3.28141e-06
-0.00072316 0.000480284 -8.14543e-06
-3.28141e-06 -8.14543e-06 -9.93528e-05
0.00201566 -0.000796885 2.53179e-06
-0.000796885 0.000910765 -2.58764e-05
2.53179e-06 -2.58764e-05 0.000284687
0.00255521 -0.000538973 -9.04638e-06
-0.000538973 0.00133283 1.39593e-05
-9.04638e-06 1.39593e-05 0.000829972
7.20451e-05 2.19848e-05 6.13371e-06
2.19848e-05 -0.000188606 3.7334e-06
6.13371e-06 3.7334e-06 -0.000338175
0.000864304 -0.000427333 9.53477e-06
-0.000427333 0.000293006 -1.37168e-05
9.53477e-06 -1.37168e-05 -7.23046e-05
-0.000193405 -9.67106e-05 8.37639e-06
-9.67106e-05 -0.000283634 -2.66127e-06
8.37639e-06 -2.66127e-06 -0.00064193
0.0022586 -0.000118803 -3.20294e-07
-0.000118803 -6.13477e-05 7.04387e-08
-3.20294e-07 7.04387e-08 6.66363e-06
0.00238944 -0.000311237 4.46694e-07
-0.000311237 -0.000114265 4.61667e-08
4.46694e-07 4.61667e-08 -1.2291e-05
0.00247203 -0.000550082 -5.23766e-07
-0.000550082 -3.10495e-05 3.70421e-08
-5.23766e-07 3.70421e-08 7.38773e-06
0.0020528 -0.000987909 -2.03621e-06
-0.000987909 0.000727801 1.038e-06
-2.03621e-06 1.038e-06 8.99862e-05
0.00216506 -0.00113586 1.0269e-05
-0.00113586 0.000600098 -1.79946e-06
1.0269e-05 -1.79946e-06 -6.78296e-05
0.00240719 -0.00101919 -1.45123e-06
-0.00101919 0.000487349 -2.57308e-06
-1.45123e-06 -2.57308e-06 -1.66718e-05
0.00251244 -0.000746532 6.13036e-07
-0.000746532 3.49323e-05 -2.55327e-07
6.13036e-07 -2.55327e-07 -7.16468e-06
0.00249351 -0.000934291 2.29499e-06
-0.000934291 0.000281165 -1.66615e-06
2.29499e-06 -1.66615e-06 -1.31073e-05
0.000158011 6.53333e-05 -2.543e-06
6.53333e-05 -0.000138095 -2.69562e-06
-2.543e-06 -2.69562e-06 -0.000243161
0.00080084 -9.37524e-05 -1.87706e-06
-9.37524e-05 0.000357607 1.08324e-06
-1.87706e-06 1.08324e-06 8.69469e-05
0.00127247 -0.000753845 -2.98716e-06
-0.000753845 0.000381871 4.55363e-07
-2.98716e-06 4.55363e-07 -0.000179364
0.00165047 -0.000673895 -7.44626e-06
-0.000673895 0.000747353 3.37315e-06
-7.44626e-06 3.37315e-06 9.56914e-05
0.0010614 -0.000246076 6.80661e-07
-0.000246076 0.000376174 -7.59325e-06
6.80661e-07 -7.59325e-06 1.06627e-06
0.00144194 -0.000406115 -3.16193e-06
-0.000406115 0.000789599 1.68815e-06
-3.16193e-06 1.68815e-06 0.000396509
0.00236355 -0.000154019 4.39393e-08
-0.000154019 -0.0001313 -1.51127e-06
4.39393e-08 -1.51127e-06 7.12133e-06
0.00258984 -0.000460637 -3.45778e-07
-0.000460637 -0.000155182 -1.74471e-06
-3.45778e-07 -1.74471e-06 1.88243e-05
0.00254688 -0.000696413 -1.41348e-07
-0.000696413 -5.85751e-05 1.2283e-06
-1.41348e-07 1.2283e-06 -2.17784e-05
0.00267176 -0.000946314 -1.10183e-07
-0.000946314 0.000169045 -7.14624e-07
-1.10183e-07 -7.14624e-07 1.52166e-05
0.00107429 -0.000882508 -9.70052e-06
-0.000882508 0.000179466 -1.9073e-06
-9.70052e-06 -1.9073e-06 -0.000415891
0.00266622 -0.00113233 1.30659e-06
-0.00113233 0.000552761 -1.1928e-06
1.30659e-06 -1.1928e-06 6.13109e-05
0.00247221 -0.00128341 -7.14737e-05
-0.00128341 0.000704614 6.19399e-06
-7.14737e-05 6.19399e-06 -7.47593e-06
0.000527475 4.99633e-05 -4.55268e-09
4.99633e-05 7.99505e-05 -2.91372e-06
-4.55268e-09 -2.91372e-06 1.30458e-06
0.000780017 -0.000165826 5.28352e-06
-0.000165826 0.000322318 -6.79176e-06
5.28352e-06 -6.79176e-06 0.000176851
-0.000214277 7.32459e-05 -6.61503e-06
7.32459e-05 -0.000318273 -2.28395e-06
-6.61503e-06 -2.28395e-06 -0.000495739
0.000654713 -0.000138005 -6.54012e-06
-0.000138005 0.00027842 5.39447e-06
-6.54012e-06 5.39447e-06 -4.34604e-05
0.00147853 -0.000212584 -8.71533e-06
-0.000212584 0.000721192 -1.03608e-05
-8.71533e-06 -1.03608e-05 0.000386405
0.00173425 -0.000380967 -9.81476e-06
-0.000380967 0.000935305 1.13509e-06
-9.81476e-06 1.13509e-06 0.000402395
0.00127111 -0.000829658 -1.51933e-05
-0.000829658 0.000362951 3.98956e-05
-1.51933e-05 3.98956e-05 -0.00020512
0.00450733 -0.00108762 -2.95143e-05
-0.00108762 0.00248166 2.026e-05
-2.95143e-05 2.026e-05 0.00166463
3.01076e-05 0.000120337 3.66764e-06
0.000120337 -0.00021466 -1.31394e-06
3.66764e-06 -1.31394e-06 -0.000436328
0.00213577 0.000469473 1.852e-06
0.000469473 0.00115033 1.59118e-06
1.852e-06 1.59118e-06 0.000766166
0.00257046 0.000707848 -6.79575e-07
0.000707848 0.000107322 -7.20426e-07
-6.79575e-07 -7.20426e-07 8.54627e-06
0.00250251 0.000292338 -9.1341e-07
0.000292338 0.000975028 1.84567e-06
-9.1341e-07 1.84567e-06 0.000693779
0.00124573 0.000709946 1.68363e-06
0.000709946 0.000415992 5.07435e-07
1.68363e-06 5.07435e-07 -0.000117098
0.00285803 0.000737246 -2.08684e-06
0.000737246 0.00111462 8.71467e-06
-2.08684e-06 8.71467e-06 0.00068443
0.00265014 0.000829036 -4.85546e-06
0.000829036 0.000464867 1.38018e-07
-4.85546e-06 1.38018e-07 0.000128451
0.00292469 0.000840644 -5.3811e-06
0.000840644 0.000495776 6.74499e-06
-5.3811e-06 6.74499e-06 0.000210085
0.00187444 0.00105524 -5.07288e-06
0.00105524 0.000560475 2.89979e-06
-5.07288e-06 2.89979e-06 -8.36621e-05
0.00222785 0.00119833 -1.53251e-05
0.00119833 0.000493995 -6.76018e-07
-1.53251e-05 -6.76018e-07 -0.000123038
-0.000540639 0.000108336 2.00967e-06
0.000108336 -0.000488325 1.82884e-06
2.00967e-06 1.82884e-06 -0.000759563
-7.67163e-06 0.000424663 5.44565e-06
0.000424663 6.05254e-06 -2.66045e-06
5.44565e-06 -2.66045e-06 -0.000450067
0.00182387 0.000871435 6.23796e-08
0.000871435 0.000607782 -5.57178e-07
6.23796e-08 -5.57178e-07 4.26722e-05
0.00224431 0.000579026 -5.76469e-06
0.000579026 0.000807015 -5.18058e-08
-5.76469e-06 -5.18058e-08 0.000446565
0.00264279 0.000629841 1.21953e-07
0.000629841 -0.000202244 -9.64242e-07
1.21953e-07 -9.64242e-07 -6.76399e-05
0.00279078 0.000854643 3.18789e-06
0.000854643 0.000265861 -6.88258e-07
3.18789e-06 -6.88258e-07 6.25293e-05
0.00244497 0.000993036 -3.79747e-06
0.000993036 0.000381867 -2.10033e-07
-3.79747e-06 -2.10033e-07 -8.11089e-05
0.00240408 0.00120108 1.91079e-06
0.00120108 0.00068826 7.72751e-07
1.91079e-06 7.72751e-07 1.92428e-05
-0.00119461 -7.0835e-07 -4.33428e-06
-7.0835e-07 -0.000874497 -1.98922e-06
-4.33428e-06 -1.98922e-06 -0.00107638
0.00259675 0.000437507 -2.01887e-06
0.000437507 -0.000249912 -1.67326e-07
-2.01887e-06 -1.67326e-07 -8.60297e-05
0.00329073 0.000777173 -7.54604e-06
0.000777173 0.002042 8.19739e-06
-7.54604e-06 8.19739e-06 0.00150585
0.00176369 0.000810117 1.6364e-06
0.000810117 0.000471211 -2.70704e-06
1.6364e-06 -2.70704e-06 -3.59672e-05
0.00274974 0.00083203 -1.62617e-05
0.00083203 1.00248e-05 -9.51125e-06
-1.62617e-05 -9.51125e-06 4.94936e-05
0.00143088 0.000912119 7.89893e-06
0.000912119 -0.000316837 -1.03907e-05
7.89893e-06 -1.03907e-05 -0.000738145
0.00319489 0.00132594 5.08152e-06
0.00132594 0.00109104 4.17074e-06
5.08152e-06 4.17074e-06 0.000390809
5.11576e-05 0.000141426 1.24531e-06
0.000141426 -0.000121973 5.10957e-06
1.24531e-06 5.10957e-06 -0.000307818
0.000461663 0.000150431 -1.73702e-06
0.000150431 0.000147175 -5.56908e-07
-1.73702e-06 -5.56908e-07 2.14476e-05
3.11417e-05 8.52992e-05 -4.35047e-06
8.52992e-05 -7.81443e-05 -5.26574e-06
-4.35047e-06 -5.26574e-06 -0.000174842
0.000176273 1.42668e-06 2.58709e-06
1.42668e-06 -0.000103654 -2.97651e-06
2.58709e-06 -2.97651e-06 -0.00023814
0.000516361 0.00012356 3.69806e-06
0.00012356 0.000213903 -4.49614e-06
3.69806e-06 -4.49614e-06 -1.49309e-05
-0.000214873 0.000195781 -5.88667e-06
0.000195781 -0.000207341 1.33268e-05
-5.88667e-06 1.33268e-05 -0.000390671
0.000497678 3.05493e-05 -1.70301e-06
3.05493e-05 0.000110623 -1.48155e-07
-1.70301e-06 -1.48155e-07 -3.41216e-05
0.000226816 9.07858e-06 -1.58108e-07
9.07858e-06 4.43441e-06 -5.00138e-07
-1.58108e-07 -5.00138e-07 -0.000201933
-4.83844e-05 9.68545e-05 -7.37758e-06
9.68545e-05 -0.000222473 3.71611e-06
-7.37758e-06 3.71611e-06 -0.000299959
0.000740838 0.000170333 2.32803e-06
0.000170333 0.000377637 -2.52284e-06
2.32803e-06 -2.52284e-06 0.000132673
0.00186155 0.000216627 -1.76666e-06
0.000216627 0.000958819 -8.88838e-06
-1.76666e-06 -8.88838e-06 0.000892602
-0.000446963 3.22622e-05 1.29829e-05
3.22622e-05 -0.000449957 -1.28946e-05
1.29829e-05 -1.28946e-05 -0.000561524
0.000570153 0.000132456 -1.90292e-06
0.000132456 0.000277788 2.78217e-06
-1.90292e-06 2.78217e-06 2.39669e-05
0.000580243 5.86787e-05 -1.20059e-06
5.86787e-05 0.000204937 2.83384e-06
-1.20059e-06 2.83384e-06 -2.59648e-06
0.000539879 2.87321e-05 1.64992e-06
2.87321e-05 0.000118915 3.03366e-06
1.64992e-06 3.03366e-06 -2.4171e-05
0.000459404 -7.50499e-05 -1.7178e-06
-7.50499e-05 4.80561e-05 3.29667e-06
-1.7178e-06 3.29667e-06 -4.69942e-05
0.000448648 1.71336e-05 5.4263e-07
1.71336e-05 3.48684e-05 -4.56745e-07
5.4263e-07 -4.56745e-07 -5.47402e-05
0.00133846 2.79955e-05 3.8639e-06
2.79955e-05 0.000587739 4.00741e-06
3.8639e-06 4.00741e-06 0.000562475
0.000439121 1.61135e-05 1.82114e-06
1.61135e-05 1.83746e-05 -3.92937e-06
1.82114e-06 -3.92937e-06 -6.31873e-05
0.00136287 2.03591e-05 -1.08512e-05
2.03591e-05 0.000601449 -2.05801e-06
-1.08512e-05 -2.05801e-06 0.000575087
0.000755132 -3.82888e-08 3.31107e-05
-3.82888e-08 0.000196961 9.89303e-06
3.31107e-05 9.89303e-06 0.000199651
0.00132699 -1.52291e-05 -1.09159e-05
-1.52291e-05 0.000570984 -8.34064e-06
-1.09159e-05 -8.34064e-06 0.000547106
0.00074971 -1.39199e-05 1.37584e-05
-1.39199e-05 0.000185297 3.9743e-06
1.37584e-05 3.9743e-06 0.000186027
0.000806974 -2.98183e-05 2.18839e-06
-2.98183e-05 0.000217964 -3.63609e-06
2.18839e-06 -3.63609e-06 0.000215303
0.000518234 -1.54098e-05 2.05825e-07
-1.54098e-05 5.95988e-05 -3.88649e-06
2.05825e-07 -3.88649e-06 -4.25952e-06
0.000255415 3.19115e-05 -8.40179e-07
3.19115e-05 -0.00012155 -6.13387e-06
-8.40179e-07 -6.13387e-06 -0.000152087
0.000340271 3.96312e-05 1.46005e-06
3.96312e-05 -5.82137e-05 5.54738e-07
1.46005e-06 5.54738e-07 -9.83409e-05
0.00284557 0.000123968 -2.63723e-06
0.000123968 0.00157729 -7.09585e-06
-2.63723e-06 -7.09585e-06 0.00157194
0.000346918 2.29557e-05 -2.30666e-08
2.29557e-05 -5.66768e-05 9.84829e-06
-2.30666e-08 9.84829e-06 -0.000104199
0.00327631 0.000170482 -1.11384e-05
0.000170482 0.00187575 -1.47512e-06
-1.11384e-05 -1.47512e-06 0.0018583
0.00408757 0.000113585 -7.96847e-05
0.000113585 0.00238982 1.07727e-05
-7.96847e-05 1.07727e-05 0.00238043
0.00244153 0.00046176 2.02269e-06
0.00046176 -5.60952e-05 5.87579e-07
2.02269e-06 5.87579e-07 -1.4855e-05
0.00234512 0.000235652 6.69617e-07
0.000235652 -6.67996e-05 -3.34985e-07
6.69617e-07 -3.34985e-07 8.89874e-06
0.00222557 8.45329e-05 -1.83657e-07
8.45329e-05 -9.46678e-05 -2.8564e-07
-1.83657e-07 -2.8564e-07 -1.48227e-05
0.00216549 -1.43669e-05 -2.56529e-06
-1.43669e-05 -1.12705e-05 3.85687e-08
-2.56529e-06 3.85687e-08 2.00384e-05
0.00224156 -1.21406e-05 -4.52244e-07
-1.21406e-05 -8.57511e-05 1.17731e-07
-4.52244e-07 1.17731e-07 -7.07473e-06
0.00236375 0.000125538 9.31669e-07
0.000125538 -0.000126644 3.67854e-07
9.31669e-07 3.67854e-07 8.27635e-06
0.00251814 0.000353738 -6.6691e-07
0.000353738 -0.000102487 -3.88491e-07
-6.6691e-07 -3.88491e-07 6.0752e-06
0.00233264 -1.4713e-05 1.80102e-06
-1.4713e-05 -0.000161018 -5.76313e-07
1.80102e-06 -5.76313e-07 -1.06082e-05
0.00267363 0.00016683 -1.17612e-06
0.00016683 -0.000118093 1.85282e-06
-1.17612e-06 1.85282e-06 5.63511e-05
0.00241404 0.000153632 -1.17372e-06
0.000153632 -0.000307799 4.88697e-06
-1.17372e-06 4.88697e-06 -0.000133066
0.00227609 -0.000112767 -3.62546e-07
-0.000112767 -4.96011e-05 3.04429e-07
-3.62546e-07 3.04429e-07 1.5941e-05
0.00238004 -0.000323804 -1.85434e-06
-0.000323804 -0.000128129 5.19175e-07
-1.85434e-06 5.19175e-07 -2.22577e-05
0.00246795 -0.000537719 2.17584e-06
-0.000537719 -2.64711e-05 3.30875e-07
2.17584e-06 3.30875e-07 9.57544e-06
0.00203977 -0.000990809 -2.8453e-07
-0.000990809 0.000708788 -2.75901e-06
-2.8453e-07 -2.75901e-06 7.06455e-05
0.00200633 -0.00111185 4.01404e-05
-0.00111185 0.000504237 -6.38349e-06
4.01404e-05 -6.38349e-06 -0.000154302
0.00255762 -0.00102324 1.84504e-05
-0.00102324 0.00056106 -3.64531e-06
1.84504e-05 -3.64531e-06 6.87989e-05
0.00249461 -0.000754539 3.98755e-06
-0.000754539 3.01943e-05 -1.01553e-06
3.98755e-06 -1.01553e-06 -2.524e-05
0.00240857 -0.000901 7.07337e-06
-0.000901 0.000260419 8.95721e-07
7.07337e-06 8.95721e-07 -1.90057e-05
0.00106713 -0.000725769 -2.41992e-06
-0.000725769 0.000276186 -2.52001e-05
-2.41992e-06 -2.52001e-05 -0.000304498
0.00114243 -0.000569875 1.04253e-05
-0.000569875 0.000487839 -2.08519e-05
1.04253e-05 -2.08519e-05 -0.000159424
0.000190337 -0.000203445 5.05619e-06
-0.000203445 -0.000224925 3.73869e-06
5.05619e-06 3.73869e-06 -0.0005987
0.000482538 6.04397e-06 1.20281e-08
6.04397e-06 6.96958e-05 3.7562e-06
1.20281e-08 3.7562e-06 -3.1597e-05
-0.00015094 -1.26908e-05 6.32382e-06
-1.26908e-05 -0.000269486 -7.70341e-07
6.32382e-06 -7.70341e-07 -0.000521656
0.00134159 -0.000341328 8.76495e-07
-0.000341328 0.000724432 1.96947e-06
8.76495e-07 1.96947e-06 0.000334204
0.00235855 -0.000157348 2.48307e-07
-0.000157348 -0.000145194 -1.45546e-07
2.48307e-07 -1.45546e-07 -1.98066e-06
0.000426563 -7.50492e-06 1.72647e-06
-7.50492e-06 1.24549e-05 4.35216e-07
1.72647e-06 4.35216e-07 -6.60867e-05
0.000383479 -8.54676e-05 -3.91088e-06
-8.54676e-05 2.52299e-05 -1.16784e-06
-3.91088e-06 -1.16784e-06 -9.53801e-05
0.00255379 -0.000448004 -2.7407e-07
-0.000448004 -0.000151722 -4.28751e-08
-2.7407e-07 -4.28751e-08 5.51759e-06
0.0025314 -0.000680411 -1.79617e-06
-0.000680411 -4.9819e-05 1.82559e-07
-1.79617e-06 1.82559e-07 -7.91391e-06
0.00209504 -0.00105204 1.91247e-06
-0.00105204 0.000770023 2.91032e-06
1.91247e-06 2.91032e-06 0.000121675
0.00259691 -0.00130472 1.23603e-05
-0.00130472 0.000780073 -1.7201e-06
1.23603e-05 -1.7201e-06 6.33177e-05
0.00240375 -0.00109212 1.47683e-06
-0.00109212 0.000392753 -2.55714e-06
1.47683e-06 -2.55714e-06 -7.76253e-05
0.00258817 -0.000943585 2.28022e-06
-0.000943585 0.000117461 -1.53374e-06
2.28022e-06 -1.53374e-06 -3.12787e-05
0.000603045 -1.08001e-05 -2.10606e-06
-1.08001e-05 0.000223077 -1.24999e-06
-2.10606e-06 -1.24999e-06 3.0456e-05
0.000811762 -0.000143221 -2.33918e-07
-0.000143221 0.000386742 1.98752e-06
-2.33918e-07 1.98752e-06 5.73569e-05
0.0012545 -0.000787047 9.10775e-06
-0.000787047 0.000394693 1.18388e-05
9.10775e-06 1.18388e-05 -0.000166229
0.00214408 -0.00074995 3.17646e-05
-0.00074995 0.00113191 -1.7367e-05
3.17646e-05 -1.7367e-05 0.000364905
0.000652876 -0.000294819 -3.20674e-06
-0.000294819 0.000304601 1.70315e-06
-3.20674e-06 1.70315e-06 -0.000243993
0.000193968 -0.000272481 5.21927e-06
-0.000272481 -8.91603e-05 -4.97597e-06
5.21927e-06 -4.97597e-06 -0.000425044
0.0023932 -0.000179076 4.80494e-07
-0.000179076 -0.000360999 4.95804e-07
4.80494e-07 4.95804e-07 -0.000137956
0.00267461 -0.000593869 -2.21554e-06
-0.000593869 -0.000214584 8.16434e-07
-2.21554e-06 8.16434e-07 4.30669e-05
0.00298074 -0.000990734 -5.23993e-06
-0.000990734 0.00014963 1.91409e-06
-5.23993e-06 1.91409e-06 0.000108115
0.00280319 -0.00118826 3.93811e-06
-0.00118826 0.000367153 -3.24772e-06
3.93811e-06 -3.24772e-06 4.12037e-05
0.00134733 -0.00102905 -2.25588e-06
-0.00102905 0.00039624 -9.32171e-06
-2.25588e-06 -9.32171e-06 -0.000260746
0.0036567 -0.00155977 -1.01715e-05
-0.00155977 0.00122364 2.50851e-06
-1.01715e-05 2.50851e-06 0.000471131
0.000356669 6.35303e-05 -2.50284e-06
6.35303e-05 -5.08487e-06 -9.27171e-06
-2.50284e-06 -9.27171e-06 -0.000124696
0.000113083 -5.23902e-05 7.27541e-06
-5.23902e-05 -0.000148999 -3.6719e-06
7.27541e-06 -3.6719e-06 -0.000266408
0.00160232 -0.00023313 -7.25969e-06
-0.00023313 0.000790749 1.07576e-05
-7.25969e-06 1.07576e-05 0.000620788
0.000412994 1.9286e-05 -3.79931e-06
1.9286e-05 9.67979e-05 7.36392e-06
-3.79931e-06 7.36392e-06 -0.000147814
0.0013017 -0.000273012 -1.09198e-05
-0.000273012 0.000688718 1.17927e-05
-1.09198e-05 1.17927e-05 0.000321783
-0.00138032 -0.000148043 -1.88788e-06
-0.000148043 -0.00111936 -2.64442e-05
-1.88788e-06 -2.64442e-05 -0.00140785
-0.00050193 -0.000317521 -2.03628e-05
-0.000317521 1.31474e-05 6.53601e-06
-2.03628e-05 6.53601e-06 -0.000981046
0.00106532 -0.0010241 -6.34732e-05
-0.0010241 0.000128926 3.22175e-05
-6.34732e-05 3.22175e-05 -0.000309791
-0.000147009 0.000282703 -5.29763e-08
0.000282703 -0.000163189 -2.21984e-06
-5.29763e-08 -2.21984e-06 -0.000499251
0.00347782 0.000613343 -1.52402e-05
0.000613343 0.00214777 -4.59746e-06
-1.52402e-05 -4.59746e-06 0.00171737
0.00257987 0.00059991 -3.05407e-06
0.00059991 -0.00027074 -2.43976e-07
-3.05407e-06 -2.43976e-07 -0.000113035
0.00291498 0.000865406 -6.18295e-06
0.000865406 0.000337999 -9.90233e-07
-6.18295e-06 -9.90233e-07 0.000121006
0.00322193 0.000649451 -8.75662e-06
0.000649451 0.00143711 2.68688e-06
-8.75662e-06 2.68688e-06 0.00106877
0.00160381 0.000869139 -1.20922e-05
0.000869139 0.000428915 5.79484e-08
-1.20922e-05 5.79484e-08 -0.000146032
0.00226188 0.000949569 -6.74168e-06
0.000949569 0.000316519 2.51501e-06
-6.74168e-06 2.51501e-06 -0.000130542
0.00271349 0.00121658 -1.06798e-05
0.00121658 0.000856441 -1.51936e-06
-1.06798e-05 -1.51936e-06 0.000194875
0.000139381 0.000222519 3.00341e-06
0.000222519 3.50652e-05 -2.84846e-08
3.00341e-06 -2.84846e-08 -0.000239552
0.00258994 0.000424912 -1.70468e-06
0.000424912 -0.000257958 -2.4345e-06
-1.70468e-06 -2.4345e-06 -7.78476e-05
0.00171584 0.000548893 3.49108e-06
0.000548893 0.00107335 8.33619e-06
3.49108e-06 8.33619e-06 0.000610338
0.00161811 0.000772637 4.14056e-06
0.000772637 0.000432478 1.66543e-06
4.14056e-06 1.66543e-06 -6.90851e-05
0.0028896 0.000806612 3.34456e-07
0.000806612 0.000139023 -2.16759e-07
3.34456e-07 -2.16759e-07 0.000170006
0.00209416 0.00100198 -2.56465e-06
0.00100198 7.08987e-05 -6.03407e-06
-2.56465e-06 -6.03407e-06 -0.000366576
0.00281062 0.00124644 -2.43547e-06
0.00124644 0.000886021 -7.46886e-07
-2.43547e-06 -7.46886e-07 0.000209713
0.00195059 0.000459391 -6.38417e-06
0.000459391 0.00128165 -3.71506e-06
-6.38417e-06 -3.71506e-06 0.000914225
0.00426745 0.000801011 -0.000111649
0.000801011 0.000639092 -3.98462e-05
-0.000111649 -3.98462e-05 0.000964185
0.00182349 0.000694122 -8.05539e-06
0.000694122 0.00101386 9.4283e-06
-8.05539e-06 9.4283e-06 0.000503052
0.00124501 0.000828361 -5.25689e-06
0.000828361 0.00019488 -1.02443e-05
-5.25689e-06 -1.02443e-05 -0.000381046
0.00345938 0.00114842 -4.40075e-05
0.00114842 0.000686203 -2.49149e-05
-4.40075e-05 -2.49149e-05 0.000405629
0.00110822 0.00100925 -3.05254e-05
0.00100925 -8.3245e-05 -3.03069e-06
-3.05254e-05 -3.03069e-06 -0.000671348
0.00148042 0.00160328 9.1616e-06
0.00160328 -0.00246778 -7.03604e-05
9.1616e-06 -7.03604e-05 -0.00122456
0.000404578 0.000195174 8.62625e-06
0.000195174 0.00015215 9.3191e-06
8.62625e-06 9.3191e-06 9.13191e-06
0.000146389 0.000135964 1.86132e-06
0.000135964 2.43635e-05 4.93849e-08
1.86132e-06 4.93849e-08 -9.63982e-05
-0.000143563 8.72702e-05 2.27645e-06
8.72702e-05 -0.000176671 -6.167e-06
2.27645e-06 -6.167e-06 -0.000286436
0.000350878 -6.7204e-05 2.5738e-06
-6.7204e-05 1.88197e-05 -4.03503e-06
2.5738e-06 -4.03503e-06 -0.000127859
-6.83582e-05 1.69547e-06 1.10576e-06
1.69547e-06 -0.000184666 -2.76754e-06
1.10576e-06 -2.76754e-06 -0.000390124
0.00169774 0.000304908 -2.45951e-07
0.000304908 0.000992625 -1.22858e-06
-2.45951e-07 -1.22858e-06 0.000736755
-0.000980069 5.55435e-05 -7.96147e-06
5.55435e-05 -0.000779751 2.15188e-05
-7.96147e-06 2.15188e-05 -0.00084868
0.00047258 -1.12579e-05 -2.88673e-07
-1.12579e-05 9.16744e-05 -3.10128e-07
-2.88673e-07 -3.10128e-07 -6.05671e-05
0.00040146 9.38673e-05 5.05687e-07
9.38673e-05 5.35498e-05 -3.2823e-07
5.05687e-07 -3.2823e-07 -0.000122829
0.000345295 0.000137023 5.34214e-06
0.000137023 1.94928e-05 3.10526e-06
5.34214e-06 3.10526e-06 -2.87253e-05
0.000236661 9.49717e-05 1.18301e-06
9.49717e-05 2.94517e-05 3.22648e-07
1.18301e-06 3.22648e-07 -0.000199641
0.000409254 0.000100464 2.50534e-07
0.000100464 7.74936e-05 -1.85188e-06
2.50534e-07 -1.85188e-06 -4.47261e-05
0.00035699 0.000126598 1.49533e-06
0.000126598 0.000100302 -1.42656e-05
1.49533e-06 -1.42656e-05 1.24146e-05
0.000783721 0.000173516 -4.70212e-06
0.000173516 0.000324405 -4.9149e-06
-4.70212e-06 -4.9149e-06 0.000141139
0.00107335 0.000154617 -4.54985e-07
0.000154617 0.000540833 2.92688e-06
-4.54985e-07 2.92688e-06 0.000317437
0.000677871 0.000124783 -3.77148e-06
0.000124783 0.000241421 -1.27474e-06
-3.77148e-06 -1.27474e-06 4.84301e-05
0.000166615 -1.60608e-05 -1.75549e-06
-1.60608e-05 -0.000135358 8.42149e-07
-1.75549e-06 8.42149e-07 -0.000276007
0.00126357 -0.000136829 2.31264e-06
-0.000136829 0.000706655 -3.09448e-06
2.31264e-06 -3.09448e-06 0.000460037
7.62482e-05 -5.51894e-05 -5.36564e-07
-5.51894e-05 -0.000181028 3.65467e-06
-5.36564e-07 3.65467e-06 -0.000327481
0.000382757 5.75406e-06 -1.87211e-06
5.75406e-06 6.82839e-06 3.47796e-06
-1.87211e-06 3.47796e-06 -9.24951e-05
0.000411907 4.72217e-05 2.35359e-06
4.72217e-05 2.28086e-05 -8.81234e-08
2.35359e-06 -8.81234e-08 -7.51148e-05
0.000315074 2.06265e-05 -2.11363e-06
2.06265e-05 -6.87444e-05 5.23062e-06
-2.11363e-06 5.23062e-06 -9.92062e-05
0.000332297 -1.37581e-06 -1.0012e-06
-1.37581e-06 -2.80283e-05 -4.30945e-06
-1.0012e-06 -4.30945e-06 -0.000125582
0.000845184 1.79057e-05 -4.57632e-06
1.79057e-05 0.000270883 -1.52619e-06
-4.57632e-06 -1.52619e-06 0.000243122
0.00266985 5.27672e-06 3.01275e-05
5.27672e-06 0.00143999 6.21713e-06
3.01275e-05 6.21713e-06 0.00145198
0.00140704 5.49298e-05 -1.82332e-05
5.49298e-05 0.000633712 -8.34666e-06
-1.82332e-05 -8.34666e-06 0.000606019
0.000764978 -4.79961e-06 1.30936e-05
-4.79961e-06 0.000199269 3.90586e-06
1.30936e-05 3.90586e-06 0.000200706
0.000838656 -1.88382e-05 1.75718e-06
-1.88382e-05 0.000239612 -3.46564e-06
1.75718e-06 -3.46564e-06 0.000239187
0.000388806 1.0093e-05 -1.96854e-06
1.0093e-05 -1.19491e-05 -5.0707e-06
-1.96854e-06 -5.0707e-06 -7.5024e-05
0.000514636 -4.0622e-05 5.47029e-07
-4.0622e-05 6.76967e-05 -2.01911e-07
5.47029e-07 -2.01911e-07 -2.40657e-06
0.00038221 2.57337e-05 -3.63074e-07
2.57337e-05 -4.88718e-05 -4.94916e-06
-3.63074e-07 -4.94916e-06 -7.09147e-05
0.000803984 4.78164e-05 3.5982e-08
4.78164e-05 0.000236187 1.78638e-07
3.5982e-08 1.78638e-07 0.000206445
0.00256046 9.29428e-05 -4.77352e-07
9.29428e-05 0.00138223 -6.05763e-06
-4.77352e-07 -6.05763e-06 0.00138452
0.000452608 5.48942e-05 4.46699e-06
5.48942e-05 2.25177e-05 7.89729e-06
4.46699e-06 7.89729e-06 -2.19667e-05
0.00280732 0.000129016 -2.17124e-06
0.000129016 0.00155532 -1.67954e-07
-2.17124e-06 -1.67954e-07 0.00154873
0.00335117 0.000139551 -7.3592e-06
0.000139551 0.00191151 7.80129e-06
-7.3592e-06 7.80129e-06 0.00189998
0.00242366 0.000365495 1.21292e-06
0.000365495 -0.000147517 1.36561e-07
1.21292e-06 1.36561e-07 -3.81183e-05
0.00234331 0.000122192 5.03077e-07
0.000122192 -0.000135601 -1.39676e-06
5.03077e-07 -1.39676e-06 -1.40444e-06
0.00224233 -7.98843e-06 -5.39885e-07
-7.98843e-06 -9.00709e-05 7.29415e-08
-5.39885e-07 7.29415e-08 -7.64008e-06
0.00233335 -5.61804e-06 -1.96989e-08
-5.61804e-06 -0.000160003 1.38967e-08
-1.96989e-08 1.38967e-08 -8.43114e-06
0.00262411 0.000178243 1.82319e-06
0.000178243 -0.000127663 -4.53413e-07
1.82319e-06 -4.53413e-07 4.33212e-05
0.00252895 0.000133937 3.04816e-06
0.000133937 -0.000250555 -1.20008e-06
3.04816e-06 -1.20008e-06 -7.99831e-05
0.00276414 3.01876e-05 -1.13612e-06
3.01876e-05 -0.000166754 4.49622e-06
-1.13612e-06 4.49622e-06 6.70992e-05
0.00573321 0.00166777 7.07884e-05
0.00166777 -0.00117768 1.76307e-05
7.07884e-05 1.76307e-05 0.000421219
0.00286034 0.000140142 -4.60169e-05
0.000140142 4.15348e-05 1.84339e-05
-4.60169e-05 1.84339e-05 0.000379294
0.00045 0.000121959 -3.95316e-06
0.000121959 7.05663e-05 -4.71788e-06
-3.95316e-06 -4.71788e-06 -4.59588e-05
0.0023612 -0.000159523 -1.75802e-07
-0.000159523 -0.000153988 1.15885e-06
-1.75802e-07 1.15885e-06 -5.90496e-06
0.00250481 -0.00043665 3.53216e-07
-0.00043665 -0.000162323 2.05465e-06
3.53216e-07 2.05465e-06 -1.86212e-05
0.00252118 -0.000665723 2.62005e-06
-0.000665723 -4.26996e-05 -9.04816e-07
2.62005e-06 -9.04816e-07 7.95806e-06
0.00183609 -0.00104487 -6.16686e-06
-0.00104487 0.000615631 8.28768e-06
-6.16686e-06 8.28768e-06 -3.22691e-05
0.00270659 -0.00129277 4.19479e-05
-0.00129277 0.000860495 2.78057e-06
4.19479e-05 2.78057e-06 0.000156445
0.00230292 -0.00107036 -2.581e-06
-0.00107036 0.000333632 -2.43453e-07
-2.581e-06 -2.43453e-07 -0.000122244
0.00257747 -0.000950522 4.24053e-06
-0.000950522 0.00010606 -9.79639e-07
4.24053e-06 -9.79639e-07 -4.05099e-05
0.00172022 -0.000809335 3.31856e-05
-0.000809335 0.000581192 -5.41174e-05
3.31856e-05 -5.41174e-05 7.87231e-05
0.00144396 -0.000686764 2.33774e-05
-0.000686764 0.000675367 -5.29492e-05
2.33774e-05 -5.29492e-05 -3.6441e-05
1.39696e-05 -0.000212512 2.02121e-05
-0.000212512 -0.000148004 2.06556e-06
2.02121e-05 2.06556e-06 -0.000661645
0.000476397 7.1461e-06 2.80197e-06
7.1461e-06 4.97544e-05 4.2841e-06
2.80197e-06 4.2841e-06 -3.20301e-05
0.00108766 -0.000372548 -3.73843e-06
-0.000372548 0.000490876 1.49111e-05
-3.73843e-06 1.49111e-05 0.000125058
0.00108667 -6.61249e-05 5.94327e-06
-6.61249e-05 0.00056349 -3.60632e-07
5.94327e-06 -3.60632e-07 0.0003537
0.000553588 -0.000151785 4.3007e-06
-0.000151785 0.00020128 -4.95103e-06
4.3007e-06 -4.95103e-06 -0.000115756
-0.000164001 -2.82352e-05 -6.19708e-06
-2.82352e-05 -0.000340313 5.6551e-06
-6.19708e-06 5.6551e-06 -0.000451678
0.0025256 -0.000205701 -1.32081e-06
-0.000205701 -0.000289084 -1.45923e-06
-1.32081e-06 -1.45923e-06 -5.30455e-05
0.000389823 5.42973e-05 9.05459e-07
5.42973e-05 3.1436e-05 -2.64445e-06
9.05459e-07 -2.64445e-06 -9.43746e-05
0.000594966 -9.47253e-05 3.12284e-06
-9.47253e-05 0.000207138 2.02303e-06
3.12284e-06 2.02303e-06 5.7361e-05
0.000955647 -0.00012405 8.6501e-06
-0.00012405 0.000363333 2.03979e-07
8.6501e-06 2.03979e-07 0.000219247
0.00259547 -0.000605627 2.25164e-06
-0.000605627 -0.000266126 -6.99354e-07
2.25164e-06 -6.99354e-07 -3.24381e-05
0.00283041 -0.000965351 -5.00517e-07
-0.000965351 7.60098e-05 -5.90645e-07
-5.00517e-07 -5.90645e-07 4.5157e-05
0.000771129 -0.000850661 7.79909e-06
-0.000850661 3.22601e-05 -9.65432e-07
7.79909e-06 -9.65432e-07 -0.000516912
0.00296215 -0.00145335 1.6226e-05
-0.00145335 0.000843318 8.60163e-07
1.6226e-05 8.60163e-07 0.000123981
0.00271688 -0.001188 2.02525e-08
-0.001188 0.000328108 1.07884e-06
2.02525e-08 1.07884e-06 -9.54238e-06
0.000292251 -3.03156e-05 -7.58356e-07
-3.03156e-05 9.98814e-06 -1.611e-06
-7.58356e-07 -1.611e-06 -0.000221962
0.00161287 -0.000303015 3.75717e-06
-0.000303015 0.000897716 2.23255e-06
3.75717e-06 2.23255e-06 0.000516276
0.00209373 -0.00118195 -1.46878e-06
-0.00118195 0.000740492 5.03054e-06
-1.46878e-06 5.03054e-06 0.000132077
0.00200904 -0.000473362 -3.32284e-07
-0.000473362 0.00119096 9.10719e-06
-3.32284e-07 9.10719e-06 0.000458133
0.00150818 -0.000292713 8.42196e-06
-0.000292713 0.000740101 1.05009e-05
8.42196e-06 1.05009e-05 0.000401573
0.00290665 -0.000417456 -1.56251e-05
-0.000417456 -0.000138983 5.81483e-06
-1.56251e-05 5.81483e-06 0.000148861
0.00240572 -0.000699011 -2.00967e-05
-0.000699011 -0.000368263 7.42735e-06
-2.00967e-05 7.42735e-06 -4.59285e-05
0.00281607 -0.00116216 -1.44756e-05
-0.00116216 0.000226266 -3.22613e-06
-1.44756e-05 -3.22613e-06 -1.43459e-05
0.00485658 -0.00163904 -2.68882e-06
-0.00163904 0.0017651 3.07879e-06
-2.68882e-06 3.07879e-06 0.00118494
0.000358646 -0.00100299 -1.88828e-05
-0.00100299 -0.00031629 1.29744e-05
-1.88828e-05 1.29744e-05 -0.000878721
0.000101422 -2.86743e-05 -6.78058e-08
-2.86743e-05 -0.000164962 -2.27605e-06
-6.78058e-08 -2.27605e-06 -0.000292113
0.0004082 -4.41094e-06 -3.71653e-06
-4.41094e-06 -2.80564e-05 1.08937e-05
-3.71653e-06 1.08937e-05 -0.000191672
0.00010231 -0.000173852 -1.07661e-05
-0.000173852 -0.00011913 -5.24235e-06
-1.07661e-05 -5.24235e-06 -0.000302356
0.00208651 -0.000365539 -4.64016e-05
-0.000365539 0.00115077 3.91893e-05
-4.64016e-05 3.91893e-05 0.000821442
0.000741155 -0.000192446 -2.82336e-06
-0.000192446 0.000298848 2.47314e-05
-2.82336e-06 2.47314e-05 -1.84729e-05
-0.00123289 -7.09741e-05 4.18189e-06
-7.09741e-05 -0.000470776 5.36602e-06
4.18189e-06 5.36602e-06 -0.00120169
0.00167239 -0.00127958 -8.2595e-06
-0.00127958 0.000811039 -8.91769e-06
-8.2595e-06 -8.91769e-06 5.75035e-06
0.00243529 0.000519183 5.49912e-06
0.000519183 0.00149052 -2.59782e-06
5.49912e-06 -2.59782e-06 0.00116137
-0.000315395 0.000264552 -3.32465e-06
0.000264552 -0.000163238 5.80692e-07
-3.32465e-06 5.80692e-07 -0.000539948
0.00258473 0.00040704 1.46879e-05
0.00040704 -0.000266054 4.35685e-06
1.46879e-05 4.35685e-06 -6.48021e-05
0.00303013 0.000783425 1.65614e-05
0.000783425 0.000258686 9.74099e-06
1.65614e-05 9.74099e-06 0.000286769
0.0026936 0.0010832 4.78982e-06
0.0010832 0.000422344 3.83544e-06
4.78982e-06 3.83544e-06 -2.8051e-05
0.00145693 0.000731797 -4.15736e-06
0.000731797 0.000395493 1.93355e-06
-4.15736e-06 1.93355e-06 -9.9449e-05
0.00243012 0.00117156 2.2148e-06
0.00117156 0.000684383 4.3969e-06
2.2148e-06 4.3969e-06 3.09761e-05
0.00257427 0.000478312 -7.04669e-07
0.000478312 0.00162981 1.82307e-06
-7.04669e-07 1.82307e-06 0.0013064
0.00312849 0.0006321 1.30565e-05
0.0006321 8.00536e-06 6.50307e-06
1.30565e-05 6.50307e-06 0.000408595
0.00137512 0.000575578 -7.14127e-06
0.000575578 0.000690315 4.24074e-06
-7.14127e-06 4.24074e-06 0.000250076
0.00188949 0.00093375 2.56461e-06
0.00093375 0.000607364 -2.26511e-06
2.56461e-06 -2.26511e-06 -1.08887e-05
0.00300872 0.00108178 -2.0272e-06
0.00108178 0.000472569 -3.85119e-06
-2.0272e-06 -3.85119e-06 0.000234272
0.00227562 0.00118034 -6.5086e-06
0.00118034 0.000559181 7.8509e-06
-6.5086e-06 7.8509e-06 -7.30859e-05
0.00314194 0.00197292 5.98719e-05
0.00197292 -0.00190611 1.22871e-05
5.98719e-05 1.22871e-05 -0.000835959
0.000598324 0.000365125 1.38364e-06
0.000365125 0.000513397 -1.37221e-07
1.38364e-06 -1.37221e-07 0.000108229
0.00457475 0.00132157 -0.000126724
0.00132157 0.000865998 -5.5789e-05
-0.000126724 -5.5789e-05 0.000912393
1.68419e-06 0.000520376 -2.14264e-05
0.000520376 -0.000381834 5.77948e-06
-2.14264e-05 5.77948e-06 -0.000827246
0.000501867 0.000842396 -5.78463e-06
0.000842396 -0.000239494 -2.13045e-05
-5.78463e-06 -2.13045e-05 -0.00080836
0.00195593 0.00128008 -4.93569e-05
0.00128008 0.000111778 -2.3898e-05
-4.93569e-05 -2.3898e-05 -0.00032278
0.0157833 0.000970558 -0.000826653
0.000970558 0.000710402 -0.000103486
-0.000826653 -0.000103486 0.0013734
0.00255571 0.00293176 -0.000130424
0.00293176 -0.00450032 -0.000125294
-0.000130424 -0.000125294 -0.00102336
0.000960485 0.00231771 2.70306e-05
0.00231771 -0.00118349 -7.32274e-06
2.70306e-05 -7.32274e-06 -0.00123792
0.00462985 -0.00516089 0.00307806
-0.00516089 0.00308324 0.000173973
0.00307806 0.000173973 -0.00331888
0.0322914 -0.0154277 -0.000113861
-0.0154277 0.0188012 3.01704e-05
-0.000113861 3.01704e-05 0.00835341
0.00134732 0.00023061 6.82589e-06
0.00023061 0.000785492 1.04875e-05
6.82589e-06 1.04875e-05 0.000642081
0.000724354 0.000138365 -2.04898e-06
0.000138365 0.000413828 8.40893e-07
-2.04898e-06 8.40893e-07 0.000275446
-4.15332e-05 0.000163713 1.28508e-05
0.000163713 -4.13342e-05 -1.49084e-06
1.28508e-05 -1.49084e-06 -0.000208877
0.000514326 -6.03e-05 9.81267e-07
-6.03e-05 0.00012998 -2.14262e-06
9.81267e-07 -2.14262e-06 -2.96725e-05
0.000498381 7.15299e-05 2.81436e-06
7.15299e-05 0.000131659 -3.52951e-06
2.81436e-06 -3.52951e-06 -4.77204e-05
0.000460059 -8.74533e-06 6.38709e-07
-8.74533e-06 0.000161799 -2.17202e-06
6.38709e-07 -2.17202e-06 -6.00452e-05
0.00103466 0.000129183 4.28358e-06
0.000129183 0.000456837 1.26137e-05
4.28358e-06 1.26137e-05 0.000326848
0.000465988 0.000129331 4.70601e-06
0.000129331 0.000104339 1.24074e-05
4.70601e-06 1.24074e-05 6.39044e-05
0.000782158 0.00017251 -2.00545e-06
0.00017251 0.000403248 4.65306e-07
-2.00545e-06 4.65306e-07 0.000153393
0.000391204 -1.78456e-05 3.49608e-07
-1.78456e-05 2.143e-05 9.21326e-07
3.49608e-07 9.21326e-07 -0.000128103
0.000736014 6.74972e-05 -1.18101e-06
6.74972e-05 0.000286569 3.7652e-07
-1.18101e-06 3.7652e-07 9.18413e-05
0.000350299 0.000124342 -3.61097e-06
0.000124342 6.70076e-05 -4.58096e-06
-3.61097e-06 -4.58096e-06 -1.25837e-05
0.000611609 0.000135741 -3.28833e-07
0.000135741 0.000224949 6.69133e-07
-3.28833e-07 6.69133e-07 4.88476e-05
0.00179045 0.000244068 -1.46189e-06
0.000244068 0.00102958 1.8744e-07
-1.46189e-06 1.8744e-07 0.00078568
-5.40326e-05 7.71553e-05 6.84999e-07
7.71553e-05 -6.36557e-05 -9.30065e-06
6.84999e-07 -9.30065e-06 -0.000261634
0.00092188 0.000106383 2.03411e-06
0.000106383 0.000464564 -1.63904e-06
2.03411e-06 -1.63904e-06 0.000243356
0.000113744 2.54388e-05 -1.15569e-06
2.54388e-05 -0.000153744 -2.60442e-06
-1.15569e-06 -2.60442e-06 -0.000330022
0.000260521 -7.07725e-05 -9.24573e-08
-7.07725e-05 -6.05458e-05 5.68938e-07
-9.24573e-08 5.68938e-07 -0.00021046
0.000296059 -2.84772e-05 1.08449e-07
-2.84772e-05 -1.00678e-05 -4.25053e-06
1.08449e-07 -4.25053e-06 -0.000182032
0.00105325 -6.43446e-05 2.97194e-06
-6.43446e-05 0.000494334 -6.71675e-06
2.97194e-06 -6.71675e-06 0.000320937
0.000877136 -7.19249e-05 -1.22688e-06
-7.19249e-05 0.000441327 -1.55932e-07
-1.22688e-06 -1.55932e-07 0.000233538
0.000786661 -0.000109596 2.00535e-06
-0.000109596 0.000350665 -3.38101e-07
2.00535e-06 -3.38101e-07 0.000144274
0.000484114 -0.00013019 -1.41065e-06
-0.00013019 0.000107405 3.09809e-06
-1.41065e-06 3.09809e-06 -5.06631e-05
0.000138508 -3.1219e-05 -1.17525e-07
-3.1219e-05 -0.000131668 1.27265e-06
-1.17525e-07 1.27265e-06 -0.000285147
0.000436412 -7.24878e-05 -1.04866e-06
-7.24878e-05 3.14633e-05 4.25604e-06
-1.04866e-06 4.25604e-06 -6.15043e-05
0.000446661 -4.67288e-05 2.20695e-06
-4.67288e-05 4.62993e-05 1.36096e-07
2.20695e-06 1.36096e-07 -5.16887e-05
0.000341888 3.57406e-06 4.84369e-06
3.57406e-06 -4.70375e-05 7.24327e-06
4.84369e-06 7.24327e-06 -7.90435e-05
0.000458312 6.82396e-05 -1.70237e-06
6.82396e-05 4.38238e-05 -3.78604e-06
-1.70237e-06 -3.78604e-06 -4.81863e-05
0.000345548 2.98261e-05 5.76629e-07
2.98261e-05 -4.87459e-05 1.45923e-07
5.76629e-07 1.45923e-07 -7.92258e-05
0.00260258 1.28652e-05 1.6224e-05
1.28652e-05 0.00139778 5.83147e-06
1.6224e-05 5.83147e-06 0.00140897
0.000369275 6.67343e-05 -5.5438e-06
6.67343e-05 -3.09227e-05 -8.52652e-06
-5.5438e-06 -8.52652e-06 -6.59706e-05
0.00168102 -1.60956e-07 -9.97002e-06
-1.60956e-07 0.000796951 1.0953e-07
-9.97002e-06 1.0953e-07 0.000803076
0.000802651 -8.446e-06 1.21784e-06
-8.446e-06 0.000218372 -2.56881e-06
1.21784e-06 -2.56881e-06 0.000219428
0.000374056 2.33043e-05 -1.17811e-06
2.33043e-05 -3.34064e-05 -3.83546e-06
-1.17811e-06 -3.83546e-06 -8.33624e-05
0.000451467 -4.02258e-05 1.27401e-06
-4.02258e-05 2.89582e-05 7.4921e-08
1.27401e-06 7.4921e-08 -3.51526e-05
0.00045742 5.01612e-06 1.75387e-06
5.01612e-06 -6.71832e-06 -4.50299e-06
1.75387e-06 -4.50299e-06 -2.21095e-05
0.000478634 -5.72385e-05 -8.23945e-07
-5.72385e-05 4.80275e-05 2.25661e-06
-8.23945e-07 2.25661e-06 -2.42281e-05
0.000791936 2.93176e-05 5.32581e-07
2.93176e-05 0.000218018 -8.37614e-07
5.32581e-07 -8.37614e-07 0.000198109
0.00221559 6.54455e-05 -2.98038e-07
6.54455e-05 0.00114914 -5.47126e-06
-2.98038e-07 -5.47126e-06 0.00115838
0.000417555 3.08862e-05 1.23486e-07
3.08862e-05 -1.86414e-05 6.25489e-06
1.23486e-07 6.25489e-06 -5.04682e-05
0.00273179 0.000104663 -1.13396e-06
0.000104663 0.00149941 1.74428e-06
-1.13396e-06 1.74428e-06 0.00149889
0.00302644 0.000143829 2.64953e-05
0.000143829 0.0017039 1.04527e-05
2.64953e-05 1.04527e-05 0.00169425
0.00257201 0.000191528 -8.81094e-08
0.000191528 -0.000138206 -2.87795e-06
-8.81094e-08 -2.87795e-06 2.89438e-05
0.00230556 2.68809e-08 -1.50682e-06
2.68809e-08 -0.000177461 7.88294e-09
-1.50682e-06 7.88294e-09 -2.44259e-05
0.00274713 0.000107 1.11141e-05
0.000107 -0.000106655 6.37905e-07
1.11141e-05 6.37905e-07 4.97558e-05
0.00287795 0.00127918 0.000140771
0.00127918 -0.00261872 4.41222e-05
0.000140771 4.41222e-05 -0.000968449
0.0027069 -6.30558e-06 -4.20693e-06
-6.30558e-06 -0.000186038 -1.63916e-06
-4.20693e-06 -1.63916e-06 4.39647e-05
0.00281375 0.000114016 -2.77202e-06
0.000114016 2.26141e-05 -2.14007e-06
-2.77202e-06 -2.14007e-06 0.000311949
0.00279584 -6.03561e-05 -4.43359e-05
-6.03561e-05 7.45553e-05 -1.05277e-05
-4.43359e-05 -1.05277e-05 0.000283928
0.0033143 0.000968857 -0.000149974
0.000968857 -0.00282126 -2.36828e-05
-0.000149974 -2.36828e-05 -0.000716848
0.00282046 0.000376921 0.00014891
0.000376921 -0.00156143 8.51318e-05
0.00014891 8.51318e-05 -0.000617431
0.00050366 9.26998e-05 2.32709e-07
9.26998e-05 0.000106681 -3.694e-06
2.32709e-07 -3.694e-06 -8.58216e-06
0.000567802 -1.46419e-05 -7.25223e-07
-1.46419e-05 0.00015627 -2.92534e-07
-7.25223e-07 -2.92534e-07 3.00815e-05
0.000308875 -0.000111489 -5.97292e-06
-0.000111489 -1.68707e-05 -1.56332e-08
-5.97292e-06 -1.56332e-08 -0.000146232
0.000376075 -7.12787e-05 -3.19294e-06
-7.12787e-05 5.51618e-05 -1.32006e-07
-3.19294e-06 -1.32006e-07 -8.69042e-05
0.00264452 -0.000227737 -1.04105e-06
-0.000227737 -0.000220125 1.67693e-06
-1.04105e-06 1.67693e-06 2.45526e-05
0.00262325 -0.000615313 1.62568e-06
-0.000615313 -0.000225421 9.58763e-07
1.62568e-06 9.58763e-07 -3.01798e-05
0.00266686 -0.00094046 1.34599e-06
-0.00094046 -6.02049e-06 -1.54786e-06
1.34599e-06 -1.54786e-06 -2.84304e-05
0.00405312 -0.00128638 2.86136e-05
-0.00128638 0.00189592 2.78301e-06
2.86136e-05 2.78301e-06 0.00124802
0.00201452 -0.00137816 -4.20199e-06
-0.00137816 0.000261154 3.04082e-06
-4.20199e-06 3.04082e-06 -0.000433276
0.0025022 -0.00117327 2.31378e-06
-0.00117327 0.000216651 -3.11755e-06
2.31378e-06 -3.11755e-06 -0.00012436
-0.000612731 -0.000824441 4.86995e-06
-0.000824441 -0.000725963 -1.85749e-05
4.86995e-06 -1.85749e-05 -0.00140974
0.00308894 -0.000558318 2.1268e-05
-0.000558318 0.00162231 -1.65761e-05
2.1268e-05 -1.65761e-05 0.00105818
0.000563068 -0.000248248 4.01151e-06
-0.000248248 0.000144978 1.18823e-05
4.01151e-06 1.18823e-05 -0.000188934
0.000851523 -9.74849e-05 3.27908e-06
-9.74849e-05 0.000370814 2.41188e-06
3.27908e-06 2.41188e-06 0.00021606
1.28559e-05 -0.00011445 -9.24772e-06
-0.00011445 -9.16031e-05 -1.10646e-05
-9.24772e-06 -1.10646e-05 -0.000477528
0.000779299 -6.02177e-05 1.49961e-06
-6.02177e-05 0.00032381 -3.58643e-06
1.49961e-06 -3.58643e-06 8.91854e-05
0.000509019 -9.91203e-06 3.51314e-07
-9.91203e-06 0.000125776 5.79428e-06
3.51314e-07 5.79428e-06 -9.14426e-06
0.000560949 -7.45001e-05 -8.92863e-06
-7.45001e-05 0.000100815 1.1858e-05
-8.92863e-06 1.1858e-05 -2.72131e-05
0.00277519 -0.000394156 3.19143e-06
-0.000394156 -0.000223445 1.57965e-06
3.19143e-06 1.57965e-06 9.29294e-05
0.000386767 -4.79892e-05 -3.44562e-08
-4.79892e-05 4.0516e-05 3.62785e-06
-3.44562e-08 3.62785e-06 -0.000101991
0.000563597 -8.7954e-05 6.16431e-06
-8.7954e-05 8.65077e-05 -3.41567e-06
6.16431e-06 -3.41567e-06 -8.50962e-05
-0.000763878 -7.17053e-05 1.27816e-05
-7.17053e-05 -0.000613071 -2.30479e-06
1.27816e-05 -2.30479e-06 -0.00074445
0.0024531 -0.000731579 8.05995e-07
-0.000731579 -0.000346319 -7.85471e-07
8.05995e-07 -7.85471e-07 -6.77411e-05
0.00276085 -0.00115811 2.2154e-06
-0.00115811 0.000189778 -1.55212e-06
2.2154e-06 -1.55212e-06 -4.95277e-05
0.00196752 -0.00131586 -1.58588e-05
-0.00131586 0.000561595 2.11228e-06
-1.58588e-05 2.11228e-06 -7.66951e-05
0.00351216 -0.00151361 -5.33401e-06
-0.00151361 0.000989039 -3.03674e-07
-5.33401e-06 -3.03674e-07 0.000441014
0.00206428 -0.000264114 1.63785e-05
-0.000264114 0.00118291 -8.29515e-06
1.63785e-05 -8.29515e-06 0.000828169
-0.00122939 -7.19098e-05 9.82155e-06
-7.19098e-05 -0.000911797 5.04562e-06
9.82155e-06 5.04562e-06 -0.00126821
0.000885289 -0.00125858 -9.93016e-08
-0.00125858 0.000510706 -7.19683e-07
-9.93016e-08 -7.19683e-07 -0.000383691
0.00183378 -0.000531429 -1.1638e-05
-0.000531429 0.00101919 -2.81632e-06
-1.1638e-05 -2.81632e-06 0.000431518
0.00402883 -0.000600266 -6.56915e-05
-0.000600266 0.000562906 1.94426e-05
-6.56915e-05 1.94426e-05 0.000903608
0.0027572 -0.000967563 -4.35958e-05
-0.000967563 3.58117e-05 1.64503e-05
-4.35958e-05 1.64503e-05 0.000134406
0.00305975 -0.00132008 -8.36387e-06
-0.00132008 0.000689659 -1.8142e-05
-8.36387e-06 -1.8142e-05 0.000201236
0.0027709 -0.00149887 9.9953e-06
-0.00149887 0.000790797 3.1916e-05
9.9953e-06 3.1916e-05 0.00029997
0.000258754 -0.000205907 -5.53902e-06
-0.000205907 0.000148126 -1.66112e-05
-5.53902e-06 -1.66112e-05 -7.63136e-05
0.00082603 -0.000318307 -1.80324e-05
-0.000318307 0.000342292 -9.67592e-07
-1.80324e-05 -9.67592e-07 6.12978e-06
0.000734341 -0.000334812 -1.77816e-05
-0.000334812 0.000559411 8.23248e-05
-1.77816e-05 8.23248e-05 0.000143106
-0.000429474 -0.000972518 8.61642e-06
-0.000972518 0.00042529 -3.92836e-05
8.61642e-06 -3.92836e-05 -0.000701478
0.00587925 -0.0005185 5.57226e-05
-0.0005185 -0.00658498 1.91894e-05
5.57226e-05 1.91894e-05 -0.00701688
0.00230335 0.000375645 1.42572e-05
0.000375645 0.00148292 -6.09669e-06
1.42572e-05 -6.09669e-06 0.00115926
0.000135622 0.000395739 -6.44582e-08
0.000395739 -7.59775e-05 -1.90382e-06
-6.44582e-08 -1.90382e-06 -0.000468589
0.00180327 0.000490916 6.65432e-05
0.000490916 -0.000787103 2.61046e-05
6.65432e-05 2.61046e-05 -0.000291197
0.00246577 0.00100572 2.68936e-05
0.00100572 0.000210189 1.34588e-05
2.68936e-05 1.34588e-05 1.72604e-05
0.0030316 0.00128765 1.25638e-05
0.00128765 0.000979301 1.46642e-05
1.25638e-05 1.46642e-05 0.000317529
0.00231568 0.00100792 1.64239e-05
0.00100792 0.000882007 1.30586e-05
1.64239e-05 1.30586e-05 0.000229479
0.00475148 0.00238948 0.000103151
0.00238948 -0.0014529 4.74209e-05
0.000103151 4.74209e-05 -0.00059244
0.00082683 0.000340839 3.1673e-06
0.000340839 0.000610235 -5.87972e-06
3.1673e-06 -5.87972e-06 0.000249284
0.00306109 0.00113358 -5.3336e-06
0.00113358 1.11024e-05 4.32259e-06
-5.3336e-06 4.32259e-06 0.000178022
0.00102902 0.000664794 -8.59843e-06
0.000664794 0.000279971 7.99858e-06
-8.59843e-06 7.99858e-06 -0.000215603
0.00192958 0.00106889 2.06128e-06
0.00106889 0.000570209 -9.56308e-06
2.06128e-06 -9.56308e-06 -5.26983e-05
0.00296345 0.00135355 -1.55132e-05
0.00135355 0.000688149 -8.89565e-07
-1.55132e-05 -8.89565e-07 0.000212471
0.0051742 -0.000130909 -0.000232385
-0.000130909 -0.00717947 -0.000167672
-0.000232385 -0.000167672 -0.00711249
0.00668401 0.00324881 -0.00020219
0.00324881 -0.00186424 -9.11312e-05
-0.00020219 -9.11312e-05 0.00084176
0.00144764 0.0022685 -1.33813e-05
0.0022685 -0.000871497 -1.68675e-06
-1.33813e-05 -1.68675e-06 -0.00101955
0.00858842 -0.00410429 0.000903498
-0.00410429 0.00572542 0.000268463
0.000903498 0.000268463 0.000983661
0.0277058 -0.0172239 -0.000588385
-0.0172239 0.0175691 -0.000564389
-0.000588385 -0.000564389 0.00669254
-0.000281917 0.000270699 -2.74189e-06
0.000270699 -0.000267026 -2.40587e-06
-2.74189e-06 -2.40587e-06 -0.000569621
0.00225705 -0.000403399 0.0016666
-0.000403399 0.00462991 5.6109e-05
0.0016666 5.6109e-05 0.00207578
0.00932974 -0.00789284 3.0499e-05
-0.00789284 0.0112023 -0.000209672
3.0499e-05 -0.000209672 0.000754647
0.00342963 0.00186861 -8.43667e-05
0.00186861 0.000491278 -3.04796e-05
-8.43667e-05 -3.04796e-05 0.000116787
0.000949459 0.000669758 -3.51338e-05
0.000669758 0.000149393 -7.53055e-06
-3.51338e-05 -7.53055e-06 -0.000302215
0.00173482 0.00110603 -5.56006e-05
0.00110603 0.000463284 -4.19728e-05
-5.56006e-05 -4.19728e-05 -9.64617e-05
7.74051e-05 0.00215133 0.000157082
0.00215133 -0.00104783 0.0001317
0.000157082 0.0001317 -0.00131346
0.0156762 0.00473663 0.000213506
0.00473663 -0.000465987 -3.92752e-06
0.000213506 -3.92752e-06 0.00117138
0.00687636 0.00497409 -0.000127241
0.00497409 -0.00076747 -0.000125995
-0.000127241 -0.000125995 0.00116654
0.0239957 -0.00923051 0.0013448
-0.00923051 0.0104898 0.000326766
0.0013448 0.000326766 0.00202325
0.019056 -0.00321201 -0.000442328
-0.00321201 0.00913161 0.000774418
-0.000442328 0.000774418 0.00441585
0.000516509 0.000123944 2.08531e-06
0.000123944 0.000327875 6.74405e-06
2.08531e-06 6.74405e-06 0.000174527
0.000209554 0.000195102 1.51474e-06
0.000195102 0.000153001 2.95553e-07
1.51474e-06 2.95553e-07 -2.98327e-05
6.14378e-05 0.000206868 7.39756e-06
0.000206868 0.00015675 -7.08979e-06
7.39756e-06 -7.08979e-06 -0.000152846
0.000600882 3.63844e-06 2.13366e-06
3.63844e-06 0.000186655 1.31229e-06
2.13366e-06 1.31229e-06 1.63869e-05
0.000527912 0.000105834 2.02393e-06
0.000105834 0.000133087 -4.40346e-07
2.02393e-06 -4.40346e-07 -4.71837e-05
-0.000179263 3.13893e-05 1.3136e-06
3.13893e-05 -0.000250239 1.63318e-06
1.3136e-06 1.63318e-06 -0.000461976
0.00083681 0.000142199 -3.71028e-06
0.000142199 0.000388662 4.27672e-06
-3.71028e-06 4.27672e-06 0.000207221
-7.09276e-05 9.7835e-05 -5.47515e-06
9.7835e-05 -0.000222716 5.64934e-06
-5.47515e-06 5.64934e-06 -0.000288545
0.000309312 -5.38512e-06 -3.85389e-07
-5.38512e-06 -2.24124e-05 6.96735e-07
-3.85389e-07 6.96735e-07 -0.00017927
0.00117634 0.000153289 2.64057e-06
0.000153289 0.000620379 1.6771e-06
2.64057e-06 1.6771e-06 0.000391668
0.000330315 6.48153e-05 -7.48173e-07
6.48153e-05 8.64052e-05 -1.21608e-06
-7.48173e-07 -1.21608e-06 -0.000137609
0.000772724 6.49861e-05 1.49754e-06
6.49861e-05 0.000321871 2.00975e-07
1.49754e-06 2.00975e-07 0.000111318
0.000192862 9.1435e-05 -8.28797e-07
9.1435e-05 8.69995e-05 -3.76101e-06
-8.28797e-07 -3.76101e-06 -0.000115971
0.000931371 0.000111395 4.93908e-07
0.000111395 0.000482266 -4.21757e-06
4.93908e-07 -4.21757e-06 0.000282538
-0.000713783 3.02709e-06 3.91007e-06
3.02709e-06 -0.000233053 -3.49035e-06
3.91007e-06 -3.49035e-06 -0.000599794
-1.10166e-05 -4.90094e-05 -5.24414e-08
-4.90094e-05 -0.000158874 3.40849e-07
-5.24414e-08 3.40849e-07 -0.000365804
0.000715866 -7.12446e-05 -4.25856e-06
-7.12446e-05 0.000285857 -2.35144e-06
-4.25856e-06 -2.35144e-06 7.94676e-05
0.000747301 -6.51276e-05 -3.89297e-07
-6.51276e-05 0.000311842 -2.34494e-06
-3.89297e-07 -2.34494e-06 0.00011523
0.000479405 -6.93672e-05 -4.4512e-06
-6.93672e-05 0.000117827 1.92646e-06
-4.4512e-06 1.92646e-06 -3.56396e-05
0.000779724 -3.0693e-06 -8.35043e-06
-3.0693e-06 0.000383715 -5.37945e-06
-8.35043e-06 -5.37945e-06 0.000182403
0.000648911 -0.000156403 6.26887e-06
-0.000156403 0.000187177 -9.1517e-06
6.26887e-06 -9.1517e-06 5.18444e-05
9.45403e-05 -4.9562e-05 -4.15069e-06
-4.9562e-05 -5.67601e-05 -3.75326e-06
-4.15069e-06 -3.75326e-06 -0.000220551
-0.000504641 -1.82848e-05 -4.24004e-07
-1.82848e-05 -0.000352837 -7.55832e-06
-4.24004e-07 -7.55832e-06 -0.000623675
-0.000196729 -5.55605e-05 3.90805e-07
-5.55605e-05 -0.000282524 1.47235e-06
3.90805e-07 1.47235e-06 -0.000453228
0.000849429 -0.000162972 -1.02109e-06
-0.000162972 0.000407953 9.36363e-07
-1.02109e-06 9.36363e-07 0.000209838
0.000188527 -7.29525e-05 2.42546e-07
-7.29525e-05 -8.99776e-05 1.93254e-06
2.42546e-07 1.93254e-06 -0.000240157
0.000504668 -0.000124663 2.7419e-06
-0.000124663 0.000128358 -9.59983e-07
2.7419e-06 -9.59983e-07 -4.45943e-05
0.000608321 -0.00014303 1.52119e-07
-0.00014303 0.000189152 3.9455e-07
1.52119e-07 3.9455e-07 2.64878e-05
0.000538019 -7.11049e-05 -9.62558e-07
-7.11049e-05 9.68717e-05 4.95344e-06
-9.62558e-07 4.95344e-06 9.12479e-07
0.00027257 -4.25833e-08 -5.20315e-08
-4.25833e-08 -2.20327e-05 -9.93744e-07
-5.20315e-08 -9.93744e-07 -0.000192345
0.000451301 3.00281e-06 2.80984e-06
3.00281e-06 5.16442e-05 1.28695e-07
2.80984e-06 1.28695e-07 -4.83181e-05
0.00139521 -4.12132e-05 -1.53962e-05
-4.12132e-05 0.000626745 7.77025e-06
-1.53962e-05 7.77025e-06 0.00060098
0.000450155 8.97935e-05 -3.02869e-06
8.97935e-05 4.86764e-05 -3.54814e-06
-3.02869e-06 -3.54814e-06 -4.91852e-05
0.000806967 -2.79865e-05 -6.01257e-06
-2.79865e-05 0.000254465 7.42414e-07
-6.01257e-06 7.42414e-07 0.00022425
0.000815134 -8.4075e-07 -1.00094e-05
-8.4075e-07 0.000237691 4.99232e-06
-1.00094e-05 4.99232e-06 0.000240918
0.000298229 -4.35117e-05 5.62646e-06
-4.35117e-05 -7.88293e-05 -5.73894e-06
5.62646e-06 -5.73894e-06 -0.000109015
0.00262211 3.84925e-06 1.40923e-05
3.84925e-06 0.00141074 4.32054e-08
1.40923e-05 4.32054e-08 0.00142175
0.000841625 7.29811e-06 -1.52301e-05
7.29811e-06 0.000254993 -5.77013e-06
-1.52301e-05 -5.77013e-06 0.00025656
0.000552823 8.15101e-05 2.19848e-06
8.15101e-05 0.00015185 -2.06208e-06
2.19848e-06 -2.06208e-06 2.41943e-05
0.00038918 6.54762e-05 -2.79512e-06
6.54762e-05 -5.33537e-06 -4.22792e-06
-2.79512e-06 -4.22792e-06 -6.44701e-05
0.000440337 9.87992e-07 1.62751e-06
9.87992e-07 2.49255e-05 1.75893e-07
1.62751e-06 1.75893e-07 -3.52127e-05
0.000424526 8.7648e-06 1.26825e-06
8.7648e-06 -2.68494e-05 -4.16322e-06
1.26825e-06 -4.16322e-06 -4.03162e-05
0.000534671 -8.06147e-05 -1.89434e-06
-8.06147e-05 9.63081e-05 4.5214e-06
-1.89434e-06 4.5214e-06 2.39067e-05
0.000437119 8.38579e-06 5.39322e-07
8.38579e-06 -2.01889e-05 -7.89354e-07
5.39322e-07 -7.89354e-07 -3.55568e-05
0.00208236 4.44128e-05 -4.84205e-07
4.44128e-05 0.00105692 -5.26982e-06
-4.84205e-07 -5.26982e-06 0.00107014
0.001248 4.54117e-05 1.9675e-06
4.54117e-05 0.000517182 3.28039e-06
1.9675e-06 3.28039e-06 0.000496577
0.00153007 5.453e-05 -1.31392e-06
5.453e-05 0.000704713 1.74057e-06
-1.31392e-06 1.74057e-06 0.000708584
0.000780811 5.82136e-05 9.0447e-06
5.82136e-05 0.000226328 1.21324e-05
9.0447e-06 1.21324e-05 0.000219077
0.000785879 0.000948705 0.000114451
0.000948705 -0.00362383 2.85338e-05
0.000114451 2.85338e-05 -0.00193196
0.00258588 -3.80049e-05 5.96632e-06
-3.80049e-05 -0.000257137 -1.82924e-06
5.96632e-06 -1.82924e-06 -2.72154e-05
0.00257757 8.63493e-05 5.31832e-05
8.63493e-05 -7.28467e-05 -1.5422e-05
5.31832e-05 -1.5422e-05 0.000134818
0.00479319 0.000914789 -0.000105747
0.000914789 -0.00273954 -4.97238e-05
-0.000105747 -4.97238e-05 0.000269175
0.00357533 0.000127403 0.000103858
0.000127403 -0.00108143 -7.35301e-06
0.000103858 -7.35301e-06 -5.55264e-05
0.00285425 -8.25012e-05 -7.25781e-06
-8.25012e-05 8.67018e-05 -4.7958e-07
-7.25781e-06 -4.7958e-07 0.000289131
0.00501927 -0.000729089 -7.75706e-05
-0.000729089 0.000160876 -4.74949e-05
-7.75706e-05 -4.74949e-05 0.000999345
0.00512711 -0.000935575 -6.54631e-06
-0.000935575 -0.00176047 -6.09164e-06
-6.54631e-06 -6.09164e-06 0.00055804
0.0204797 -0.00124727 0.00010409
-0.00124727 0.00177115 -0.0001006
0.00010409 -0.0001006 0.00200529
0.0218899 0.0101241 0.00242106
0.0101241 0.00945704 -0.000341283
0.00242106 -0.000341283 0.00230348
0.0350153 0.0123905 0.000199505
0.0123905 0.0227419 0.000124089
0.000199505 0.000124089 0.0134249
2.22895e-05 -0.000113497 2.09306e-06
-0.000113497 -0.000171324 -2.57975e-06
2.09306e-06 -2.57975e-06 -0.000302767
0.000511155 -1.45617e-05 2.4335e-06
-1.45617e-05 0.00011487 4.66157e-08
2.4335e-06 4.66157e-08 -2.00135e-06
0.000609323 -0.000103722 -1.9159e-06
-0.000103722 0.000191959 6.6652e-06
-1.9159e-06 6.6652e-06 5.79318e-05
0.000526028 -6.18965e-05 2.55262e-06
-6.18965e-05 0.000116469 -1.79688e-07
2.55262e-06 -1.79688e-07 -7.07148e-06
0.000909368 0.000150786 -7.53215e-06
0.000150786 0.000458799 -5.77569e-06
-7.53215e-06 -5.77569e-06 0.000301774
0.000630997 0.00015911 -1.78676e-06
0.00015911 0.00021043 3.18406e-06
-1.78676e-06 3.18406e-06 5.79058e-05
0.000799964 3.11684e-05 2.60002e-06
3.11684e-05 0.000333707 -1.20033e-06
2.60002e-06 -1.20033e-06 0.000166095
0.000479153 -2.19251e-05 -1.53029e-06
-2.19251e-05 0.000105834 9.92937e-07
-1.53029e-06 9.92937e-07 -3.15791e-05
0.00269579 -0.000387168 1.53407e-05
-0.000387168 -0.000275915 -8.55974e-06
1.53407e-05 -8.55974e-06 5.89688e-05
0.00240199 -0.000767782 1.8972e-05
-0.000767782 -0.00040972 -6.36437e-06
1.8972e-05 -6.36437e-06 -0.000163052
0.00274968 -0.00115499 7.03517e-06
-0.00115499 0.000174499 3.78769e-06
7.03517e-06 3.78769e-06 -5.69358e-05
0.00254069 -0.00139439 1.29365e-05
-0.00139439 0.000809025 1.23382e-06
1.29365e-05 1.23382e-06 0.000190988
0.00280426 -0.00142104 -2.36876e-05
-0.00142104 0.00062466 1.36553e-06
-2.36876e-05 1.36553e-06 6.89425e-05
0.000121244 -0.0012411 1.97412e-05
-0.0012411 0.0001452 1.329e-05
1.97412e-05 1.329e-05 -0.000836856
0.0052333 -0.000975809 1.1182e-05
-0.000975809 0.002877 5.81409e-06
1.1182e-05 5.81409e-06 0.00232729
0.00173015 -0.000456817 2.19654e-05
-0.000456817 0.00100927 -5.40127e-05
2.19654e-05 -5.40127e-05 0.000542582
0.00083011 -8.8356e-05 -5.47152e-06
-8.8356e-05 0.000252179 7.2013e-06
-5.47152e-06 7.2013e-06 9.66466e-05
0.00118912 -0.000135533 1.6205e-05
-0.000135533 0.000601639 -2.65963e-05
1.6205e-05 -2.65963e-05 0.000265408
0.000736681 -8.46874e-05 3.59539e-06
-8.46874e-05 0.0002755 7.59694e-06
3.59539e-06 7.59694e-06 0.000123328
0.000536447 1.86504e-05 6.8852e-06
1.86504e-05 0.000224178 4.68982e-06
6.8852e-06 4.68982e-06 0.00014745
0.00270078 -0.00052328 1.81345e-06
-0.00052328 -0.00024943 4.53159e-06
1.81345e-06 4.53159e-06 0.000194656
0.000257239 -9.56887e-05 -7.05351e-06
-9.56887e-05 0.000111371 1.88939e-06
-7.05351e-06 1.88939e-06 -8.90723e-05
0.0014282 -0.000284192 -4.97146e-06
-0.000284192 0.000736578 5.91079e-06
-4.97146e-06 5.91079e-06 0.000443278
0.00198108 -0.000906364 9.00742e-06
-0.000906364 -0.000417876 -5.38133e-06
9.00742e-06 -5.38133e-06 -0.000261986
0.00260258 -0.00123149 2.17101e-06
-0.00123149 0.000444267 5.76644e-06
2.17101e-06 5.76644e-06 1.93293e-05
0.00168377 -0.00133649 -2.17467e-06
-0.00133649 0.000139781 -1.65945e-05
-2.17467e-06 -1.65945e-05 -0.000305567
0.00116793 -0.00043633 -8.38264e-07
-0.00043633 0.000745898 -3.19607e-05
-8.38264e-07 -3.19607e-05 0.000218089
0.000952425 -0.000879347 1.73373e-05
-0.000879347 0.00108243 1.50372e-06
1.73373e-05 1.50372e-06 0.000104868
0.00643745 -0.00128642 -6.03803e-05
-0.00128642 0.00157521 3.73111e-05
-6.03803e-05 3.73111e-05 0.00194804
0.00318644 -0.00130797 -4.98693e-05
-0.00130797 0.000706454 1.70061e-05
-4.98693e-05 1.70061e-05 0.000373011
0.003 -0.00153559 -1.62537e-06
-0.00153559 0.000785616 1.63728e-05
-1.62537e-06 1.63728e-05 0.000296214
0.000450674 -0.000896574 -2.14559e-05
-0.000896574 -0.000200347 2.62355e-05
-2.14559e-05 2.62355e-05 -0.000388352
0.000893213 -0.000236345 1.50085e-06
-0.000236345 0.000586899 8.71609e-07
1.50085e-06 8.71609e-07 0.000262062
-0.000284041 -0.000180379 3.90345e-06
-0.000180379 -5.63034e-05 1.16878e-05
3.90345e-06 1.16878e-05 -0.000459571
0.000218695 -0.000352339 -1.54061e-05
-0.000352339 0.000633664 -1.38589e-05
-1.54061e-05 -1.38589e-05 -0.000168539
-0.00801462 -0.000722684 0.00109585
-0.000722684 -0.00233358 -4.44514e-05
0.00109585 -4.44514e-05 -0.00542276
0.0130772 -0.000582817 7.2072e-05
-0.000582817 -0.00108994 5.73012e-05
7.2072e-05 5.73012e-05 0.000358424
0.00222496 0.000423355 6.9766e-06
0.000423355 0.00136939 -9.21365e-06
6.9766e-06 -9.21365e-06 0.00106327
0.00223239 0.00083341 1.07233e-06
0.00083341 0.00104839 7.62831e-06
1.07233e-06 7.62831e-06 0.000495878
0.00157278 0.00090964 0.000115421
0.00090964 -0.000798517 6.20621e-05
0.000115421 6.20621e-05 -0.000537538
0.00423093 0.00147199 3.60435e-05
0.00147199 0.00139908 1.95482e-05
3.60435e-05 1.95482e-05 0.000871186
0.00307446 0.00125472 2.55227e-05
0.00125472 0.00120588 5.73471e-06
2.55227e-05 5.73471e-06 0.000539688
0.0192066 0.000945294 0.000106718
0.000945294 0.00138027 -0.00017077
0.000106718 -0.00017077 0.00202204
0.0087683 0.00396773 -0.000316101
0.00396773 -0.00259646 -2.1657e-05
-0.000316101 -2.1657e-05 0.000786487
0.00248244 0.00233259 -1.08248e-05
0.00233259 -0.000213886 -4.00957e-05
-1.08248e-05 -4.00957e-05 -0.000507437
0.0179939 -0.00783357 -0.00110554
-0.00783357 0.00866272 0.000169539
-0.00110554 0.000169539 0.00213768
0.0212201 -0.0193681 -0.00326895
-0.0193681 0.0165886 -0.0018252
-0.00326895 -0.0018252 0.00525968
0.000675357 0.000413739 7.76093e-06
0.000413739 0.000387862 -4.81492e-06
7.76093e-06 -4.81492e-06 3.26835e-05
0.00169002 -0.00508123 0.00101465
-0.00508123 -0.000742407 8.02658e-05
0.00101465 8.02658e-05 -0.00585555
0.00265608 -0.00616484 -0.00101655
-0.00616484 0.0119318 -0.000114931
-0.00101655 -0.000114931 0.00239928
0.00395418 0.0018014 -2.18162e-05
0.0018014 0.000709613 4.16034e-06
-2.18162e-05 4.16034e-06 0.000397451
0.000946818 0.000725479 -1.26919e-05
0.000725479 0.000214586 8.42422e-06
-1.26919e-05 8.42422e-06 -0.000283244
0.00228227 0.0012799 1.36162e-06
0.0012799 0.000749211 2.84766e-07
1.36162e-06 2.84766e-07 0.000127271
0.00223309 0.00221004 8.69837e-05
0.00221004 0.000418063 5.886e-05
8.69837e-05 5.886e-05 0.000123478
0.0145293 0.00513908 -0.000221494
0.00513908 -0.00212384 -0.000134054
-0.000221494 -0.000134054 -0.00165485
0.0028637 0.00455625 -2.32809e-05
0.00455625 -0.00164397 -5.89261e-05
-2.32809e-05 -5.89261e-05 0.000350718
0.0267308 -0.00800032 0.00090595
-0.00800032 0.0124509 -0.000113953
0.00090595 -0.000113953 0.00406413
0.0265656 -0.00632605 -0.000166591
-0.00632605 0.00941136 0.000966665
-0.000166591 0.000966665 0.00254401
0.000480933 0.000416277 -7.47287e-06
0.000416277 0.000186744 -1.69002e-05
-7.47287e-06 -1.69002e-05 -0.000126363
-0.00600251 0.00083339 4.48561e-05
0.00083339 0.00645211 -0.000171991
4.48561e-05 -0.000171991 -0.00282163
0.00810521 0.00238569 -0.000758951
0.00238569 0.00640353 -0.000635482
-0.000758951 -0.000635482 0.000776705
0.00294836 0.00141438 -5.49152e-05
0.00141438 0.000657207 -2.9793e-05
-5.49152e-05 -2.9793e-05 0.000478854
0.00288113 0.00133004 -9.46775e-05
0.00133004 0.00129051 -3.76499e-05
-9.46775e-05 -3.76499e-05 0.000677074
0.00234674 0.00173293 -0.000116805
0.00173293 0.0014251 -4.54731e-05
-0.000116805 -4.54731e-05 0.000516571
-0.0025575 0.00339739 6.45715e-05
0.00339739 -0.000808258 -2.88556e-05
6.45715e-05 -2.88556e-05 -0.000864237
0.00583333 0.0076517 0.000955761
0.0076517 -0.00242514 0.000106889
0.000955761 0.000106889 -0.00287382
0.0284945 -0.0100427 -0.00047358
-0.0100427 0.0163639 0.0010614
-0.00047358 0.0010614 0.00679738
0.0096367 0.000777323 -0.000190791
0.000777323 -0.00161391 -0.000242429
-0.000190791 -0.000242429 -0.00205209
0.00089893 0.000281301 -4.94387e-06
0.000281301 0.000614665 1.10775e-06
-4.94387e-06 1.10775e-06 0.000398161
0.00105135 0.000332124 2.28248e-06
0.000332124 0.000712642 -6.60702e-08
2.28248e-06 -6.60702e-08 0.00041184
-0.000632052 0.000177155 9.78851e-07
0.000177155 -0.000242696 1.75414e-06
9.78851e-07 1.75414e-06 -0.000530321
0.000389829 7.19521e-05 2.64177e-06
7.19521e-05 3.09305e-05 1.75709e-06
2.64177e-06 1.75709e-06 -0.000129355
0.00123641 0.000116726 3.19632e-07
0.000116726 0.000645577 1.26433e-06
3.19632e-07 1.26433e-06 0.000420626
0.00041322 2.26153e-05 -1.02269e-06
2.26153e-05 0.000142509 2.56266e-06
-1.02269e-06 2.56266e-06 -9.18739e-05
0.000200103 9.63189e-05 8.03509e-06
9.63189e-05 3.62196e-05 6.57327e-06
8.03509e-06 6.57327e-06 -0.000208948
6.4776e-05 7.44695e-05 -4.88698e-06
7.44695e-05 1.13947e-05 5.28998e-06
-4.88698e-06 5.28998e-06 -0.000188775
0.000806342 4.35809e-05 -1.23835e-07
4.35809e-05 0.000350109 -8.97564e-07
-1.23835e-07 -8.97564e-07 0.000138625
0.000557686 6.81106e-05 2.96744e-09
6.81106e-05 0.000242064 -4.15135e-07
2.96744e-09 -4.15135e-07 4.56702e-05
0.000879095 -3.67916e-05 -7.62299e-07
-3.67916e-05 0.000435999 2.36335e-06
-7.62299e-07 2.36335e-06 0.000204362
-0.000718778 5.21888e-05 -8.55162e-07
5.21888e-05 -0.000224182 5.7243e-07
-8.55162e-07 5.7243e-07 -0.00058942
0.000197956 1.15341e-05 3.62412e-06
1.15341e-05 0.000488061 7.81166e-06
3.62412e-06 7.81166e-06 -7.20678e-06
0.000725969 -3.70925e-05 2.90155e-06
-3.70925e-05 0.000484787 -4.4734e-06
2.90155e-06 -4.4734e-06 0.000200652
0.00186024 -4.86082e-05 -4.17877e-06
-4.86082e-05 0.00112693 3.37019e-06
-4.17877e-06 3.37019e-06 0.000853931
0.000981747 -0.000119138 -7.12494e-07
-0.000119138 0.000468068 -1.05521e-06
-7.12494e-07 -1.05521e-06 0.000260141
0.000303756 -0.000107521 1.04423e-06
-0.000107521 -1.72658e-06 1.03497e-05
1.04423e-06 1.03497e-05 -0.000144731
0.00057681 -0.000130026 6.19669e-07
-0.000130026 0.00023154 4.03805e-07
6.19669e-07 4.03805e-07 3.98851e-05
0.000702015 -0.000149534 -1.51766e-06
-0.000149534 0.000217462 -2.16044e-06
-1.51766e-06 -2.16044e-06 7.32634e-05
-1.71299e-05 -7.18618e-05 -1.5246e-06
-7.18618e-05 -0.000118252 5.87573e-06
-1.5246e-06 5.87573e-06 -0.000268935
-0.00107285 -3.99521e-05 1.35246e-06
-3.99521e-05 -0.000765301 -1.06555e-05
1.35246e-06 -1.06555e-05 -0.000981407
-0.000295676 -7.65302e-05 -8.60174e-06
-7.65302e-05 -0.000175299 3.58324e-07
-8.60174e-06 3.58324e-07 -0.000423825
0.000415117 -0.000133622 2.54858e-06
-0.000133622 0.000166182 -9.18308e-06
2.54858e-06 -9.18308e-06 1.1288e-05
0.00113057 -0.000172444 2.97544e-05
-0.000172444 0.000448366 -1.71355e-05
2.97544e-05 -1.71355e-05 0.000317779
0.00403212 -0.000685281 -3.22514e-06
-0.000685281 0.0021915 2.32495e-06
-3.22514e-06 2.32495e-06 0.00186042
-0.000957295 -0.000147716 -2.37526e-06
-0.000147716 -0.000703117 -2.02631e-06
-2.37526e-06 -2.02631e-06 -0.000937844
0.000383582 -4.27262e-05 1.9563e-06
-4.27262e-05 0.000186478 6.44393e-07
1.9563e-06 6.44393e-07 -7.35397e-05
-0.00125592 1.64586e-05 6.48199e-06
1.64586e-05 -0.000891896 -2.05087e-06
6.48199e-06 -2.05087e-06 -0.00115944
0.000646036 -0.000213208 -2.18358e-06
-0.000213208 0.000277542 -9.12927e-07
-2.18358e-06 -9.12927e-07 7.27547e-05
0.000698891 -6.33298e-05 3.40054e-06
-6.33298e-05 0.00024437 -7.72894e-07
3.40054e-06 -7.72894e-07 7.57073e-05
0.000750019 -0.000188695 1.61015e-06
-0.000188695 0.000318845 -2.40456e-06
1.61015e-06 -2.40456e-06 0.000134939
0.00059308 -9.78968e-05 -7.15134e-07
-9.78968e-05 0.000189446 3.40775e-07
-7.15134e-07 3.40775e-07 2.54495e-05
0.000219062 3.69694e-05 2.5322e-06
3.69694e-05 -0.000104796 4.34381e-06
2.5322e-06 4.34381e-06 -0.000205577
0.00068162 -0.000144566 -2.15666e-07
-0.000144566 0.000228364 -1.50186e-06
-2.15666e-07 -1.50186e-06 6.72746e-05
0.00046347 -5.60225e-05 -6.80602e-07
-5.60225e-05 4.27655e-05 2.12485e-07
-6.80602e-07 2.12485e-07 -4.88475e-05
0.00136956 3.28379e-05 -9.00744e-06
3.28379e-05 0.000602786 8.24445e-06
-9.00744e-06 8.24445e-06 0.000576768
0.000447088 -8.12788e-05 7.615e-07
-8.12788e-05 4.29376e-05 -3.59467e-06
7.615e-07 -3.59467e-06 -5.24617e-05
0.0008287 -2.94804e-05 -1.17216e-05
-2.94804e-05 0.000260937 9.62309e-07
-1.17216e-05 9.62309e-07 0.000231437
0.000738894 9.94917e-06 2.07789e-06
9.94917e-06 0.000177854 2.33422e-06
2.07789e-06 2.33422e-06 0.000179918
0.00039546 -4.22273e-05 4.17874e-06
-4.22273e-05 -1.9726e-05 -5.37637e-06
4.17874e-06 -5.37637e-06 -4.88739e-05
0.00255621 5.51718e-06 6.76692e-06
5.51718e-06 0.00136605 -1.17098e-08
6.76692e-06 -1.17098e-08 0.00137808
0.00258996 -4.55136e-06 1.11882e-05
-4.55136e-06 0.00138932 -5.23188e-06
1.11882e-05 -5.23188e-06 0.00140054
0.00101992 7.95701e-05 -1.1809e-06
7.95701e-05 0.000450804 -2.65635e-06
-1.1809e-06 -2.65635e-06 0.000316924
0.000488992 7.66983e-05 -1.82718e-06
7.66983e-05 6.57782e-05 -4.87705e-06
-1.82718e-06 -4.87705e-06 -1.56365e-06
0.000506416 -2.26008e-05 -8.75594e-07
-2.26008e-05 0.000118873 9.17866e-07
-8.75594e-07 9.17866e-07 -6.90186e-06
0.0003973 1.25454e-05 1.14665e-06
1.25454e-05 -4.43668e-05 -4.27299e-06
1.14665e-06 -4.27299e-06 -5.71735e-05
0.000407252 -1.03858e-05 2.13391e-06
-1.03858e-05 2.69675e-06 -2.66952e-07
2.13391e-06 -2.66952e-07 -5.50923e-05
0.000445867 -7.26116e-05 -3.0358e-06
-7.26116e-05 3.26506e-05 4.50797e-06
-3.0358e-06 4.50797e-06 -3.07256e-05
0.000419783 3.17125e-06 -6.45923e-07
3.17125e-06 -3.07155e-05 5.79122e-09
-6.45923e-07 5.79122e-09 -4.40473e-05
0.0020483 2.90158e-05 -5.79073e-06
2.90158e-05 0.00103221 -5.2651e-06
-5.79073e-06 -5.2651e-06 0.00104734
0.0011731 1.8768e-05 -1.24749e-06
1.8768e-05 0.00046055 3.14664e-06
-1.24749e-06 3.14664e-06 0.000448087
0.00135475 3.43878e-05 -4.25886e-06
3.43878e-05 0.000581353 1.2254e-08
-4.25886e-06 1.2254e-08 0.000590796
0.000752295 4.09277e-05 -7.16526e-07
4.09277e-05 0.000196359 9.25299e-06
-7.16526e-07 9.25299e-06 0.000197631
-0.00518894 0.00333847 0.00116683
0.00333847 -0.000967533 -0.000119547
0.00116683 -0.000119547 -0.0067554
0.00378173 0.00321113 0.00250615
0.00321113 0.0112476 -0.00032444
0.00250615 -0.00032444 0.0036317
0.00202697 0.00109377 -0.000133054
0.00109377 -0.003881 -5.79236e-05
-0.000133054 -5.79236e-05 -0.000536359
0.00302344 -6.08293e-05 4.45277e-05
-6.08293e-05 -0.0014485 -3.79213e-05
4.45277e-05 -3.79213e-05 -0.000282521
0.0029907 -9.41694e-05 5.0252e-05
-9.41694e-05 0.000128345 1.23016e-05
5.0252e-05 1.23016e-05 0.000345829
-3.20993e-05 -0.000196995 -0.000134973
-0.000196995 -0.00272872 -4.07731e-05
-0.000134973 -4.07731e-05 -0.000401626
0.00453847 -0.0007361 6.2725e-06
-0.0007361 -6.17248e-05 2.16908e-06
6.2725e-06 2.16908e-06 0.000653217
0.0128924 -0.00068915 0.000340862
-0.00068915 -0.00318506 -0.000137178
0.000340862 -0.000137178 -0.00288414
0.00773736 0.00674566 -1.66499e-05
0.00674566 0.00289066 -0.000101925
-1.66499e-05 -0.000101925 -0.00275095
0.0301273 0.0155101 -0.000879105
0.0155101 0.0201131 0.000318892
-0.000879105 0.000318892 0.00999918
0.00266801 -0.00166457 -2.23048e-05
-0.00166457 -0.00374196 -4.15646e-05
-2.23048e-05 -4.15646e-05 -0.000885388
0.0157683 -0.00472428 0.00037185
-0.00472428 -0.000862548 -7.9033e-05
0.00037185 -7.9033e-05 -0.000921669
0.0259837 0.00895423 0.000566996
0.00895423 0.0107191 -0.000481498
0.000566996 -0.000481498 0.00194081
0.0311521 0.00632569 -0.000412783
0.00632569 0.0127406 0.000405391
-0.000412783 0.000405391 0.00667273
0.00129884 0.00019779 -7.77177e-06
0.00019779 0.000734692 -1.18527e-06
-7.77177e-06 -1.18527e-06 0.000508762
0.00033479 3.31521e-05 1.18794e-06
3.31521e-05 2.83404e-06 -6.3217e-07
1.18794e-06 -6.3217e-07 -0.000117521
0.000535048 -0.000112807 3.21144e-06
-0.000112807 0.000142379 3.97266e-06
3.21144e-06 3.97266e-06 1.83765e-05
0.000669854 -2.32717e-05 5.5506e-06
-2.32717e-05 0.000217921 2.48619e-06
5.5506e-06 2.48619e-06 9.14099e-05
0.000530608 7.21417e-05 4.27126e-06
7.21417e-05 0.000196544 1.63716e-07
4.27126e-06 1.63716e-07 7.17849e-05
0.000606491 8.94699e-05 -8.9999e-07
8.94699e-05 0.000216123 3.91551e-06
-8.9999e-07 3.91551e-06 1.89628e-05
0.000596741 8.35873e-05 -1.23464e-06
8.35873e-05 0.000211125 2.52436e-06
-1.23464e-06 2.52436e-06 5.52167e-05
0.000409665 0.000119731 3.79288e-06
0.000119731 3.21039e-05 2.94274e-06
3.79288e-06 2.94274e-06 -0.000137459
0.000560922 1.10626e-05 1.53631e-06
1.10626e-05 0.000177359 -1.25553e-06
1.53631e-06 -1.25553e-06 1.01601e-05
0.00030174 -3.23204e-05 2.15376e-06
-3.23204e-05 -2.10822e-05 9.14484e-07
2.15376e-06 9.14484e-07 -0.000143415
0.00108672 -0.000424629 4.90329e-05
-0.000424629 -0.00130063 -1.89744e-05
4.90329e-05 -1.89744e-05 -0.000682081
0.0014163 -0.000846647 3.00812e-05
-0.000846647 -0.000714172 -1.15557e-05
3.00812e-05 -1.15557e-05 -0.000521883
0.0012564 -0.00103508 1.42114e-05
-0.00103508 -0.000306364 6.61459e-06
1.42114e-05 6.61459e-06 -0.000628978
-0.000765404 -0.000968676 -9.31617e-06
-0.000968676 -0.00121305 -1.15273e-05
-9.31617e-06 -1.15273e-05 -0.00157196
0.00263606 -0.000889627 -2.94801e-06
-0.000889627 0.0019091 4.74827e-05
-2.94801e-06 4.74827e-05 0.00106985
-0.00101002 -0.000724885 -7.19242e-06
-0.000724885 -0.000482222 -2.12659e-05
-7.19242e-06 -2.12659e-05 -0.00123145
0.0013066 -0.000313663 1.49354e-05
-0.000313663 0.000688849 -7.77975e-06
1.49354e-05 -7.77975e-06 0.000437574
-2.59332e-05 -3.66355e-05 4.5245e-06
-3.66355e-05 -9.51819e-05 6.60787e-06
4.5245e-06 6.60787e-06 -0.000272539
0.00298387 -0.000959393 1.35026e-05
-0.000959393 -0.000463648 -1.14798e-05
1.35026e-05 -1.14798e-05 0.000149317
0.000683707 -0.000146567 1.2361e-07
-0.000146567 0.000442147 1.97299e-06
1.2361e-07 1.97299e-06 0.000117661
-0.000493749 -0.000276937 -1.08105e-05
-0.000276937 -0.000177766 -4.72432e-07
-1.08105e-05 -4.72432e-07 -0.000582278
0.00204196 -0.00113332 2.1114e-05
-0.00113332 5.60848e-05 -1.81149e-06
2.1114e-05 -1.81149e-06 -0.000137507
0.0019269 -0.00135877 -1.11601e-06
-0.00135877 0.000158031 -5.19278e-06
-1.11601e-06 -5.19278e-06 -0.00021898
7.31806e-05 -0.000908362 1.73339e-05
-0.000908362 -0.000358917 -1.56947e-05
1.73339e-05 -1.56947e-05 -0.000636658
0.00102101 -0.000569074 2.61398e-05
-0.000569074 0.00107732 -2.74771e-05
2.61398e-05 -2.74771e-05 0.000326205
0.00187994 -0.00156003 -4.33166e-05
-0.00156003 -0.000657047 4.54973e-05
-4.33166e-05 4.54973e-05 -0.000597947
0.00237513 -0.00126517 -5.50196e-05
-0.00126517 0.000538413 2.75459e-05
-5.50196e-05 2.75459e-05 0.000340661
-0.000763694 -0.000591379 -5.04969e-05
-0.000591379 -0.000278308 3.12796e-05
-5.04969e-05 3.12796e-05 -0.000711638
-0.000828732 -6.3157e-05 -8.23477e-06
-6.3157e-05 -0.000563435 5.69657e-06
-8.23477e-06 5.69657e-06 -0.000841158
-0.00115171 7.54317e-06 -3.68767e-06
7.54317e-06 -0.00057946 1.87071e-05
-3.68767e-06 1.87071e-05 -0.000968624
0.000487225 -7.46165e-05 2.77383e-06
-7.46165e-05 0.000460584 1.77282e-06
2.77383e-06 1.77282e-06 6.29266e-05
-0.00272865 0.00155456 -0.000708384
0.00155456 0.00849191 1.8755e-05
-0.000708384 1.8755e-05 0.00132886
-0.000106144 -0.00242993 -1.95415e-05
-0.00242993 0.00442906 -5.35817e-05
-1.95415e-05 -5.35817e-05 0.00182927
0.00620977 0.000629211 -0.000152994
0.000629211 -0.00716411 -4.54547e-05
-0.000152994 -4.54547e-05 -0.00720508
0.00154169 0.000529837 1.93237e-05
0.000529837 0.000985652 -9.07778e-06
1.93237e-05 -9.07778e-06 0.000590188
0.00172682 0.00089794 2.13494e-05
0.00089794 0.000724577 3.02769e-05
2.13494e-05 3.02769e-05 0.000150221
0.00404525 0.0016352 9.79807e-05
0.0016352 0.000711861 4.59091e-05
9.79807e-05 4.59091e-05 0.000486478
0.00219087 0.00134352 3.16897e-05
0.00134352 0.000725244 3.15645e-05
3.16897e-05 3.15645e-05 6.46176e-05
0.0164351 -0.00602185 0.000370172
-0.00602185 0.00872073 0.000114951
0.000370172 0.000114951 0.00312285
0.0032846 0.00366392 -0.00066468
0.00366392 -0.00821785 -0.000146226
-0.00066468 -0.000146226 -0.00797761
0.00644908 0.00484906 2.27039e-05
0.00484906 0.000358619 1.85578e-05
2.27039e-05 1.85578e-05 0.00171724
0.00375873 0.00213883 0.000104903
0.00213883 0.00152571 1.71996e-05
0.000104903 1.71996e-05 0.0012029
0.0174761 -0.00475918 -0.000776347
-0.00475918 0.00766323 -0.000222391
-0.000776347 -0.000222391 0.000291578
0.0039691 -0.00763348 -0.00154925
-0.00763348 0.0130473 -0.000241708
-0.00154925 -0.000241708 0.00369648
0.0380749 -0.00959001 0.0014355
-0.00959001 0.0134497 0.000509806
0.0014355 0.000509806 0.00538043
0.000430026 0.000438664 1.02973e-05
0.000438664 0.000224943 -6.31018e-06
1.02973e-05 -6.31018e-06 -0.000123951
-0.00144063 -0.000332485 -0.000160994
-0.000332485 0.00893653 -1.53112e-05
-0.000160994 -1.53112e-05 0.000541873
0.00847668 0.00295239 -0.000287519
0.00295239 0.00470657 -0.000210307
-0.000287519 -0.000210307 -0.00179849
0.00226461 0.00145312 1.3988e-05
0.00145312 0.000444401 4.72474e-06
1.3988e-05 4.72474e-06 0.000163707
0.00116553 0.00105703 1.38054e-05
0.00105703 0.000465357 8.78198e-06
1.38054e-05 8.78198e-06 -0.000120428
0.00119006 0.00174678 -0.000136112
0.00174678 0.000736504 -9.67133e-05
-0.000136112 -9.67133e-05 1.66114e-05
0.00328323 0.00523942 8.73036e-05
0.00523942 0.000556114 5.58088e-05
8.73036e-05 5.58088e-05 0.000783506
0.0125418 0.0082566 -2.85641e-05
0.0082566 4.93015e-05 -7.64645e-06
-2.85641e-05 -7.64645e-06 -0.00160382
0.0123787 -0.00565478 0.00012967
-0.00565478 0.0100045 -0.000163012
0.00012967 -0.000163012 0.000498334
0.0191459 -0.00217904 -7.19877e-05
-0.00217904 0.00326245 -5.7245e-05
-7.19877e-05 -5.7245e-05 0.00290248
0.00171931 0.000949687 -2.23665e-05
0.000949687 0.000959954 -1.27617e-05
-2.23665e-05 -1.27617e-05 0.000453755
0.00150343 0.000614234 -0.00060646
0.000614234 0.00369711 -0.000168893
-0.00060646 -0.000168893 -0.00330068
0.00272339 0.00168919 -0.000180974
0.00168919 0.000704195 -0.000215813
-0.000180974 -0.000215813 -0.00203236
-0.000946886 0.000601308 -7.91588e-06
0.000601308 -0.000139464 -3.16467e-05
-7.91588e-06 -3.16467e-05 -0.00058342
-0.00223408 0.00135069 -0.000164865
0.00135069 0.000722018 1.48436e-05
-0.000164865 1.48436e-05 -0.000120928
0.00901443 0.00782683 0.000313662
0.00782683 0.00390578 2.0832e-05
0.000313662 2.0832e-05 -0.0014015
0.00803129 -0.00685639 -1.95657e-05
-0.00685639 0.00280407 0.00023766
-1.95657e-05 0.00023766 -0.00500342
0.0165896 -0.000661155 8.9736e-05
-0.000661155 -0.000630695 -0.000351021
8.9736e-05 -0.000351021 0.000560941
0.00179774 0.000402484 7.42048e-06
0.000402484 0.00113213 2.58714e-05
7.42048e-06 2.58714e-05 0.000847066
0.000868783 0.00033339 -6.46141e-06
0.00033339 0.000679673 -5.39882e-06
-6.46141e-06 -5.39882e-06 0.000354771
-0.000495906 0.000203826 5.95722e-06
0.000203826 3.98086e-05 -1.63096e-06
5.95722e-06 -1.63096e-06 -0.000423064
0.000416701 8.57868e-05 2.13211e-07
8.57868e-05 6.8315e-05 9.72468e-10
2.13211e-07 9.72468e-10 -0.000120129
0.00133127 -2.10148e-05 -3.54667e-06
-2.10148e-05 0.000746898 5.6562e-06
-3.54667e-06 5.6562e-06 0.000497972
7.2578e-05 7.84707e-05 2.59123e-06
7.84707e-05 -7.19317e-05 5.6064e-06
2.59123e-06 5.6064e-06 -0.000266379
-0.000761303 0.000105369 -1.01512e-06
0.000105369 -0.000243536 5.05618e-07
-1.01512e-06 5.05618e-07 -0.000612937
0.000614221 -5.05968e-05 2.48517e-06
-5.05968e-05 0.000261831 6.11493e-07
2.48517e-06 6.11493e-07 4.16465e-05
0.000273245 5.89368e-05 4.70995e-07
5.89368e-05 0.000192959 -2.13349e-06
4.70995e-07 -2.13349e-06 -8.26325e-05
-2.61796e-05 2.7858e-05 -1.08817e-06
2.7858e-05 0.000416496 1.23149e-06
-1.08817e-06 1.23149e-06 -0.000128732
-0.000415921 6.23111e-05 1.77293e-06
6.23111e-05 0.000308443 8.36038e-06
1.77293e-06 8.36038e-06 -0.000288957
0.000560099 -2.9502e-05 3.35297e-06
-2.9502e-05 0.000694702 -5.00987e-06
3.35297e-06 -5.00987e-06 0.000202512
0.001462 -1.35613e-05 -5.29436e-06
-1.35613e-05 0.000952286 4.66794e-06
-5.29436e-06 4.66794e-06 0.000673468
0.000956119 -0.000192813 4.81886e-06
-0.000192813 0.000485994 4.0511e-06
4.81886e-06 4.0511e-06 0.000284148
0.000324603 -0.000108623 -1.93284e-06
-0.000108623 -2.7888e-05 6.06898e-06
-1.93284e-06 6.06898e-06 -0.000171659
-0.000338109 -5.84231e-05 1.1729e-05
-5.84231e-05 -0.000330444 1.19976e-05
1.1729e-05 1.19976e-05 -0.000450218
0.000127271 -3.49408e-05 1.3955e-06
-3.49408e-05 8.0452e-05 1.2313e-06
1.3955e-06 1.2313e-06 -0.000157574
0.000542524 -4.93086e-05 1.02591e-06
-4.93086e-05 0.000208242 1.24509e-06
1.02591e-06 1.24509e-06 1.04747e-05
-8.00241e-05 -8.75437e-05 -4.63634e-06
-8.75437e-05 -0.000106409 2.86382e-07
-4.63634e-06 2.86382e-07 -0.000272194
0.00042127 -0.000117581 -4.06658e-06
-0.000117581 0.000166049 -7.23849e-06
-4.06658e-06 -7.23849e-06 4.85452e-06
0.000938038 -0.000115652 6.82088e-06
-0.000115652 0.00070176 -1e-05
6.82088e-06 -1e-05 0.000456773
0.00231436 -0.000439003 5.39404e-06
-0.000439003 0.00112305 6.13549e-06
5.39404e-06 6.13549e-06 0.000973049
0.000414808 -0.000159418 -2.55155e-05
-0.000159418 1.25479e-05 5.61627e-07
-2.55155e-05 5.61627e-07 -0.000115805
0.00105715 -0.000407308 7.63146e-06
-0.000407308 0.000327789 5.81905e-06
7.63146e-06 5.81905e-06 8.4288e-05
0.00284166 -0.000877717 -6.5114e-06
-0.000877717 0.0013895 1.80077e-05
-6.5114e-06 1.80077e-05 0.000890554
0.00279454 -0.000366318 1.32981e-05
-0.000366318 0.00141305 -7.22327e-06
1.32981e-05 -7.22327e-06 0.00117766
0.00206917 -0.000476346 7.74005e-07
-0.000476346 0.000983389 -7.18568e-06
7.74005e-07 -7.18568e-06 0.000721239
0.000288867 -0.000166002 -4.06123e-07
-0.000166002 5.98902e-05 -9.62937e-08
-4.06123e-07 -9.62937e-08 -0.000182391
-0.0014052 -0.000101615 2.1129e-06
-0.000101615 -0.000952417 -4.71445e-06
2.1129e-06 -4.71445e-06 -0.00128372
0.00163842 -5.79593e-05 3.30869e-06
-5.79593e-05 0.000957776 4.21963e-06
3.30869e-06 4.21963e-06 0.000708
0.000722317 -0.000213432 2.74994e-06
-0.000213432 0.000333802 -1.60913e-06
2.74994e-06 -1.60913e-06 6.8533e-05
0.000296961 -8.19079e-05 4.45042e-06
-8.19079e-05 -4.39219e-05 -1.8629e-06
4.45042e-06 -1.8629e-06 -0.000226769
0.00193528 -0.000359226 -6.25974e-06
-0.000359226 0.00112342 -1.05766e-07
-6.25974e-06 -1.05766e-07 0.000888269
0.000575137 -0.000160657 -5.01611e-07
-0.000160657 0.000179511 -2.65644e-07
-5.01611e-07 -2.65644e-07 1.71309e-06
0.00027709 -1.98036e-05 2.27116e-06
-1.98036e-05 -7.34713e-05 5.35915e-06
2.27116e-06 5.35915e-06 -0.000183662
0.000943602 -0.000175254 -1.76656e-06
-0.000175254 0.000429914 1.60755e-07
-1.76656e-06 1.60755e-07 0.000256378
0.000599893 -8.27449e-05 -3.19816e-07
-8.27449e-05 0.000141963 -1.18734e-09
-3.19816e-07 -1.18734e-09 3.76429e-05
0.00145469 1.42091e-06 -1.49275e-05
1.42091e-06 0.000654802 9.03081e-06
-1.49275e-05 9.03081e-06 0.000624463
0.00048308 -8.24607e-05 4.89722e-07
-8.24607e-05 6.77117e-05 -4.56713e-06
4.89722e-07 -4.56713e-06 -3.22404e-05
0.000825399 -1.8655e-05 -1.38362e-05
-1.8655e-05 0.000251508 8.60581e-07
-1.38362e-05 8.60581e-07 0.000221175
0.000811698 1.88176e-05 2.47649e-06
1.88176e-05 0.000222905 3.21286e-06
2.47649e-06 3.21286e-06 0.000222394
0.000384334 -5.01555e-05 3.65615e-06
-5.01555e-05 -2.99694e-05 -5.91639e-06
3.65615e-06 -5.91639e-06 -6.15895e-05
0.00167912 1.50749e-05 1.62926e-05
1.50749e-05 0.000792366 -1.63702e-06
1.62926e-05 -1.63702e-06 0.000799827
0.00252575 2.24915e-06 2.13569e-05
2.24915e-06 0.00134553 -5.47445e-06
2.13569e-05 -5.47445e-06 0.00135792
0.000463574 8.49257e-05 6.33123e-07
8.49257e-05 6.00025e-05 -3.06424e-06
6.33123e-07 -3.06424e-06 -7.22946e-05
0.000540996 7.87311e-05 -1.07035e-06
7.87311e-05 9.66713e-05 -4.92181e-06
-1.07035e-06 -4.92181e-06 2.35284e-05
0.000536249 1.82515e-05 6.16347e-07
1.82515e-05 0.000128004 6.83109e-07
6.16347e-07 6.83109e-07 4.97915e-07
0.000412256 8.95623e-06 2.62061e-06
8.95623e-06 -3.48078e-05 -4.85192e-06
2.62061e-06 -4.85192e-06 -4.86864e-05
0.000433248 6.57283e-05 7.77824e-08
6.57283e-05 2.27143e-05 -2.02677e-07
7.77824e-08 -2.02677e-07 -3.99555e-05
0.000396898 -0.000120252 -3.10055e-06
-0.000120252 3.02003e-05 4.06204e-06
-3.10055e-06 4.06204e-06 -8.43324e-05
0.00203912 1.42848e-05 -1.07534e-05
1.42848e-05 0.00102438 -5.28362e-06
-1.07534e-05 -5.28362e-06 0.00104072
0.000405081 8.49144e-06 -3.74748e-07
8.49144e-06 -3.93299e-05 4.14263e-09
-3.74748e-07 4.14263e-09 -5.20377e-05
0.000473582 3.52325e-06 -9.39633e-07
3.52325e-06 3.52263e-05 3.98198e-06
-9.39633e-07 3.98198e-06 -1.63864e-05
0.000419278 2.45921e-07 -2.44288e-06
2.45921e-07 -3.19474e-05 4.35279e-06
-2.44288e-06 4.35279e-06 -4.52252e-05
0.00205724 3.00082e-05 -5.96774e-06
3.00082e-05 0.00103819 -1.664e-07
-5.96774e-06 -1.664e-07 0.00105313
0.00209178 4.60664e-05 4.61214e-07
4.60664e-05 0.00106357 5.39175e-06
4.61214e-07 5.39175e-06 0.00107646
-0.00169664 -0.00202448 -0.000384148
-0.00202448 0.00942117 7.5267e-05
-0.000384148 7.5267e-05 0.00385537
0.00580913 0.00363392 -0.000476131
0.00363392 0.00328609 0.000154064
-0.000476131 0.000154064 -0.00184703
0.0033667 -0.00139895 -0.000637045
-0.00139895 0.00155684 0.000322526
-0.000637045 0.000322526 -0.00373231
0.00691095 0.0040176 0.00165409
0.0040176 0.0110397 -0.000249567
0.00165409 -0.000249567 0.00288366
0.00532119 0.00107853 -1.44218e-05
0.00107853 -0.000744093 -1.62598e-05
-1.44218e-05 -1.62598e-05 0.00104223
0.00350265 -0.00079391 0.00011412
-0.00079391 -0.000613721 2.76684e-05
0.00011412 2.76684e-05 1.15706e-05
0.00261461 -0.000634978 0.000499337
-0.000634978 -0.00831435 -3.4308e-05
0.000499337 -3.4308e-05 -0.0079046
0.025373 0.00643467 -0.00193579
0.00643467 0.0126669 -4.45791e-05
-0.00193579 -4.45791e-05 0.00607684
0.0225905 0.0188025 -0.00327324
0.0188025 0.0159797 0.00189696
-0.00327324 0.00189696 0.00508049
0.00542824 -0.00131366 6.99138e-05
-0.00131366 -0.00177955 2.24394e-06
6.99138e-05 2.24394e-06 0.00026165
0.00794172 -0.00466097 0.000267801
-0.00466097 -0.00554872 -0.00022107
0.000267801 -0.00022107 -0.00589556
0.0275425 0.00875362 -0.000493596
0.00875362 0.0116489 -0.000206227
-0.000493596 -0.000206227 0.00286162
0.0226632 0.00582646 0.000288501
0.00582646 0.00934164 0.000532393
0.000288501 0.000532393 0.00339613
0.00225674 -0.00303879 -0.000110988
-0.00303879 -0.00446501 7.09115e-05
-0.000110988 7.09115e-05 -0.00152061
0.00484158 -0.00738135 0.000838602
-0.00738135 -0.00218659 -0.000293632
0.000838602 -0.000293632 -0.00411499
0.0162406 0.00417673 -0.000312118
0.00417673 0.00689716 -0.00117692
-0.000312118 -0.00117692 -0.00183726
0.0107715 -0.000697761 -0.000430697
-0.000697761 0.000134006 5.03451e-05
-0.000430697 5.03451e-05 -0.000870818
0.00207564 -4.98313e-05 -2.20535e-06
-4.98313e-05 0.0012599 1.54168e-05
-2.20535e-06 1.54168e-05 0.000956343
0.000194217 5.97667e-05 -1.34358e-06
5.97667e-05 -2.74994e-05 -2.29483e-06
-1.34358e-06 -2.29483e-06 -0.000191991
0.000539035 0.000119435 4.15969e-06
0.000119435 0.000128009 2.15801e-06
4.15969e-06 2.15801e-06 1.06076e-05
-0.000343359 -6.87483e-05 2.61653e-06
-6.87483e-05 -0.000422544 1.60423e-06
2.61653e-06 1.60423e-06 -0.000479574
0.000377861 0.00016409 1.62611e-06
0.00016409 3.44287e-05 9.60404e-06
1.62611e-06 9.60404e-06 -0.000167724
0.000528701 8.78568e-05 -4.51733e-07
8.78568e-05 0.00016847 5.59224e-07
-4.51733e-07 5.59224e-07 -1.83605e-05
-9.36395e-05 5.0923e-06 2.64371e-06
5.0923e-06 -0.000245434 1.13754e-06
2.64371e-06 1.13754e-06 -0.000379719
0.000937514 0.00020004 6.44626e-06
0.00020004 0.000425585 1.02211e-05
6.44626e-06 1.02211e-05 0.000212153
0.000976029 0.0001885 8.48354e-10
0.0001885 0.000460555 -4.07594e-07
8.48354e-10 -4.07594e-07 0.000245664
0.000326225 1.59576e-05 -2.30476e-06
1.59576e-05 1.53681e-05 -1.65667e-06
-2.30476e-06 -1.65667e-06 -0.000148432
0.000961621 -0.000807086 0.000120039
-0.000807086 -0.00162588 -6.69777e-05
0.000120039 -6.69777e-05 -0.000926374
0.000508045 -0.000946371 1.13158e-05
-0.000946371 -0.000835093 -1.09278e-05
1.13158e-05 -1.09278e-05 -0.000886621
0.00192136 -0.00133713 1.27138e-05
-0.00133713 0.000148525 1.10277e-05
1.27138e-05 1.10277e-05 -0.000182387
-0.000894883 -0.000900316 8.44889e-06
-0.000900316 -0.000915633 -1.41953e-05
8.44889e-06 -1.41953e-05 -0.00123878
0.00419866 -0.000748284 -6.4743e-05
-0.000748284 0.00276277 6.92656e-05
-6.4743e-05 6.92656e-05 0.00222067
0.000609016 -0.000293731 -7.19816e-07
-0.000293731 0.000508501 -8.46918e-06
-7.19816e-07 -8.46918e-06 9.36723e-05
0.000465372 5.41004e-05 3.55544e-06
5.41004e-05 0.000280651 -1.20171e-05
3.55544e-06 -1.20171e-05 -3.37171e-05
0.000653855 7.15998e-06 -5.86561e-06
7.15998e-06 0.00036133 4.75584e-06
-5.86561e-06 4.75584e-06 5.6075e-05
0.0030282 -0.00157942 -2.87942e-05
-0.00157942 -6.61546e-05 2.19453e-06
-2.87942e-05 2.19453e-06 0.000141183
0.000586962 -3.71461e-05 1.18116e-06
-3.71461e-05 0.000433921 3.88761e-06
1.18116e-06 3.88761e-06 7.84997e-05
0.00250173 -0.000492757 1.00567e-05
-0.000492757 0.00165477 -5.70832e-06
1.00567e-05 -5.70832e-06 0.00124384
0.00169439 -0.00119839 2.30361e-05
-0.00119839 0.000150038 -4.73098e-06
2.30361e-05 -4.73098e-06 -5.08408e-05
0.00029579 -0.000717929 -2.83134e-05
-0.000717929 0.000235597 9.36159e-06
-2.83134e-05 9.36159e-06 -0.000152163
0.00279007 -0.00261778 6.01613e-05
-0.00261778 0.000427275 -2.72655e-05
6.01613e-05 -2.72655e-05 -0.00014467
0.00181624 -0.000887722 -2.69394e-05
-0.000887722 0.000982667 2.9729e-05
-2.69394e-05 2.9729e-05 0.000688475
-0.00164325 -0.000174103 6.64773e-06
-0.000174103 -0.000546751 3.84781e-06
6.64773e-06 3.84781e-06 -0.0011237
0.000111195 0.000111821 3.12829e-06
0.000111821 4.78318e-05 3.30576e-06
3.12829e-06 3.30576e-06 -0.000158573
-0.000193413 -0.000216075 -1.91077e-06
-0.000216075 5.89932e-05 2.57569e-05
-1.91077e-06 2.57569e-05 -0.000346556
0.00219803 0.000363445 -0.000142306
0.000363445 0.00252805 -4.90293e-05
-0.000142306 -4.90293e-05 -0.00279194
-0.00779932 0.000362947 -0.000742269
0.000362947 0.00769264 -1.04934e-05
-0.000742269 -1.04934e-05 0.0014102
-0.0129648 -0.00422629 -0.00137077
-0.00422629 -0.00312241 9.98757e-06
-0.00137077 9.98757e-06 -0.00694811
0.000519687 0.000491915 1.97493e-05
0.000491915 0.000360595 -5.88107e-08
1.97493e-05 -5.88107e-08 -4.21019e-05
2.51876e-05 0.000898592 3.92203e-06
0.000898592 -8.34729e-05 1.0315e-05
3.92203e-06 1.0315e-05 -0.00065863
0.00318418 0.0017195 6.2313e-05
0.0017195 0.000964048 5.70913e-05
6.2313e-05 5.70913e-05 0.000566182
-0.00260723 0.00208367 0.000189116
0.00208367 0.0100314 7.88758e-05
0.000189116 7.88758e-05 0.00373215
0.0047309 0.00739782 -0.00074895
0.00739782 -0.00261297 -0.00023125
-0.00074895 -0.00023125 -0.0042305
0.000188552 0.00357842 0.000533732
0.00357842 -0.000644684 0.000230013
0.000533732 0.000230013 -0.000285443
0.000209972 0.00160082 -7.57211e-06
0.00160082 0.000190938 -4.33996e-05
-7.57211e-06 -4.33996e-05 -0.000137642
0.0326646 -0.00532023 0.000100095
-0.00532023 0.013461 -0.000590303
0.000100095 -0.000590303 0.00565729
0.00914552 0.0037141 0.00111362
0.0037141 0.00427582 0.000359935
0.00111362 0.000359935 -0.00295884
0.0140306 -0.00109379 0.00014765
-0.00109379 0.00295092 7.36249e-05
0.00014765 7.36249e-05 0.00376483
0.00180963 0.000942938 1.29782e-05
0.000942938 0.00105291 -5.1592e-07
1.29782e-05 -5.1592e-07 0.00056001
0.00402955 0.00157796 -8.88832e-05
0.00157796 0.00474523 -1.02394e-05
-8.88832e-05 -1.02394e-05 -0.000928121
0.00280194 0.00129418 0.000145614
0.00129418 0.00112465 -1.8787e-05
0.000145614 -1.8787e-05 -0.00140023
-2.13983e-06 0.000975331 -1.22661e-05
0.000975331 0.000261126 -7.03469e-06
-1.22661e-05 -7.03469e-06 -0.000317605
-0.000989091 0.00237161 -0.00015121
0.00237161 0.00037385 -9.62442e-05
-0.00015121 -9.62442e-05 -0.00105638
0.00256394 0.00810371 0.000444848
0.00810371 0.00163867 0.000146525
0.000444848 0.000146525 -0.00312456
0.0131953 -0.000581691 1.72571e-05
-0.000581691 -0.00269727 -0.000229838
1.72571e-05 -0.000229838 -0.00114422
0.00989732 -0.00324686 -0.000147906
-0.00324686 0.00578817 -0.000246202
-0.000147906 -0.000246202 -0.00179189
0.00136325 0.000813752 -6.48396e-06
0.000813752 0.00117596 -1.31567e-05
-6.48396e-06 -1.31567e-05 0.000562968
-0.00418871 0.000942888 6.46865e-05
0.000942888 0.00150425 7.78455e-05
6.46865e-05 7.78455e-05 -0.000994171
0.0080407 -0.00116987 0.000320458
-0.00116987 0.000420959 -0.000105981
0.000320458 -0.000105981 -0.00168496
0.0105813 -0.000538936 0.000389902
-0.000538936 3.72556e-05 -1.78053e-05
0.000389902 -1.78053e-05 -0.000711897
-0.00298844 0.000486448 6.87793e-05
0.000486448 0.000414974 -1.38073e-05
6.87793e-05 -1.38073e-05 -0.000769025
0.00791364 0.00441607 0.000448515
0.00441607 0.00578464 0.000220362
0.000448515 0.000220362 -0.00145718
0.00785756 -0.000541036 -2.54444e-05
-0.000541036 0.00333922 0.000415224
-2.54444e-05 0.000415224 -0.00136568
0.00305169 0.000570294 2.31101e-05
0.000570294 0.00201209 1.30089e-05
2.31101e-05 1.30089e-05 0.00164124
0.000342702 0.000344543 -9.48121e-06
0.000344543 0.000535093 -2.34419e-06
-9.48121e-06 -2.34419e-06 2.42228e-05
0.000593324 0.000378794 1.98203e-06
0.000378794 0.000817266 -1.62704e-05
1.98203e-06 -1.62704e-05 0.000110671
-0.000102535 7.94558e-05 3.36377e-06
7.94558e-05 -0.000201154 -3.67723e-06
3.36377e-06 -3.67723e-06 -0.000411877
0.00042397 0.000115982 -1.36544e-06
0.000115982 0.000276933 -8.60201e-07
-1.36544e-06 -8.60201e-07 1.73141e-05
-0.000170901 3.08167e-05 -9.01459e-07
3.08167e-05 0.000401758 -5.23667e-06
-9.01459e-07 -5.23667e-06 -0.000186299
0.000229411 1.31509e-05 -5.77016e-07
1.31509e-05 0.000145877 -6.46298e-07
-5.77016e-07 -6.46298e-07 -0.000106912
0.000743152 -0.000101288 7.01574e-07
-0.000101288 0.000845084 -2.58971e-06
7.01574e-07 -2.58971e-06 0.000331178
-0.000120204 3.49933e-05 3.32464e-06
3.49933e-05 0.000515727 6.96738e-07
3.32464e-06 6.96738e-07 -9.296e-05
0.000115699 -9.88969e-05 -5.0831e-06
-9.88969e-05 0.000586952 1.63718e-05
-5.0831e-06 1.63718e-05 6.89571e-05
0.00102925 -8.92918e-05 2.1527e-06
-8.92918e-05 0.000898993 -1.48596e-05
2.1527e-06 -1.48596e-05 0.000523384
-0.000187907 -3.07047e-05 7.29552e-06
-3.07047e-05 -0.000154969 4.93469e-06
7.29552e-06 4.93469e-06 -0.00036286
0.00179952 -8.81511e-05 8.02852e-07
-8.81511e-05 0.00095929 6.5618e-06
8.02852e-07 6.5618e-06 0.000774481
-0.000176394 -6.65863e-05 -6.14192e-06
-6.65863e-05 -0.000131798 8.58617e-06
-6.14192e-06 8.58617e-06 -0.000314097
0.000504432 -8.24582e-05 8.53812e-07
-8.24582e-05 0.00042077 9.11648e-07
8.53812e-07 9.11648e-07 0.000185831
-0.000246952 -5.0673e-05 -2.3963e-06
-5.0673e-05 -0.000228804 -1.97684e-06
-2.3963e-06 -1.97684e-06 -0.000392375
0.00117642 -0.000359777 -2.3011e-08
-0.000359777 0.000581735 4.79977e-06
-2.3011e-08 4.79977e-06 0.000398636
0.000632114 -0.000261783 -2.64721e-05
-0.000261783 0.000192036 4.57007e-08
-2.64721e-05 4.57007e-08 0.000106814
-0.000701289 -0.00034888 1.37104e-05
-0.00034888 -0.000559538 2.15147e-05
1.37104e-05 2.15147e-05 -0.000946541
1.43168e-05 -0.000139029 2.43382e-06
-0.000139029 -0.000215473 1.52849e-06
2.43382e-06 1.52849e-06 -0.000340843
0.00118435 -0.000416119 -5.0502e-06
-0.000416119 0.000397611 8.95214e-06
-5.0502e-06 8.95214e-06 0.000147521
0.00236542 -0.000840499 -8.29243e-06
-0.000840499 0.00105528 1.15813e-05
-8.29243e-06 1.15813e-05 0.000528472
0.00212527 -0.000892032 -2.6169e-06
-0.000892032 0.000822946 -2.07347e-06
-2.6169e-06 -2.07347e-06 0.00024589
0.00205301 -0.000546965 6.52935e-06
-0.000546965 0.00091225 9.64075e-07
6.52935e-06 9.64075e-07 0.000568476
0.000779253 -0.000579541 1.09295e-05
-0.000579541 0.00010938 -3.60242e-06
1.09295e-05 -3.60242e-06 -0.000303574
0.00126652 -0.000255352 2.97186e-06
-0.000255352 0.000619011 -4.00842e-06
2.97186e-06 -4.00842e-06 0.000277574
0.00110048 -0.000264043 -7.99846e-06
-0.000264043 0.000406682 1.45352e-06
-7.99846e-06 1.45352e-06 0.000158084
-0.000273648 -0.0002322 1.8724e-05
-0.0002322 -0.000476958 -1.19511e-05
1.8724e-05 -1.19511e-05 -0.000661884
0.00149827 -0.000184353 -4.60881e-06
-0.000184353 0.00079822 4.62845e-06
-4.60881e-06 4.62845e-06 0.000548196
-0.000171742 -0.000169711 8.55688e-07
-0.000169711 -0.000199815 6.68252e-07
8.55688e-07 6.68252e-07 -0.000524338
-0.000298134 -4.17378e-05 3.04398e-06
-4.17378e-05 -0.000381053 -2.34736e-06
3.04398e-06 -2.34736e-06 -0.000640923
0.00237118 -0.000491667 -4.92063e-06
-0.000491667 0.00136009 1.68967e-06
-4.92063e-06 1.68967e-06 0.00108658
0.000897375 -0.00020972 -3.44095e-07
-0.00020972 0.000362904 -2.54269e-07
-3.44095e-07 -2.54269e-07 0.000156256
0.000307797 -3.11137e-05 5.75446e-06
-3.11137e-05 -4.89748e-05 8.29502e-06
5.75446e-06 8.29502e-06 -0.000189146
0.000928614 -0.000236824 -2.5724e-06
-0.000236824 0.00042389 1.475e-07
-2.5724e-06 1.475e-07 0.000231434
0.000425808 -1.51558e-05 -2.62593e-06
-1.51558e-05 3.89387e-05 -5.82066e-07
-2.62593e-06 -5.82066e-07 -8.54212e-05
0.00149703 -2.11871e-05 -2.34397e-05
-2.11871e-05 0.000682059 7.33042e-06
-2.34397e-05 7.33042e-06 0.000648208
0.000635843 -9.43387e-05 2.45339e-09
-9.43387e-05 0.000172652 -4.6851e-06
2.45339e-09 -4.6851e-06 6.24434e-05
0.000840655 -2.33123e-05 -1.27477e-05
-2.33123e-05 0.000255638 6.77791e-07
-1.27477e-05 6.77791e-07 0.000222627
0.000849457 2.94514e-05 2.03878e-06
2.94514e-05 0.000243458 3.69936e-06
2.03878e-06 3.69936e-06 0.00023939
0.000404875 -4.81943e-05 3.64549e-06
-4.81943e-05 -2.17631e-05 -7.01268e-06
3.64549e-06 -7.01268e-06 -5.63474e-05
0.00179035 2.71775e-05 1.96657e-05
2.71775e-05 0.00086214 -1.3711e-06
1.96657e-05 -1.3711e-06 0.00086798
0.00259305 1.48723e-05 2.66845e-05
1.48723e-05 0.00138623 -5.82729e-06
2.66845e-05 -5.82729e-06 0.00139851
0.000116662 3.85241e-05 7.12342e-07
3.85241e-05 -0.000151897 2.61394e-06
7.12342e-07 2.61394e-06 -0.000313269
-2.75742e-05 2.70308e-05 6.5762e-08
2.70308e-05 -0.000282327 -6.5889e-06
6.5762e-08 -6.5889e-06 -0.000364857
0.000524634 8.73211e-05 -4.22974e-07
8.73211e-05 0.00011241 6.81326e-07
-4.22974e-07 6.81326e-07 -2.96717e-05
0.000420641 1.48865e-05 1.84721e-06
1.48865e-05 -2.91076e-05 -5.29588e-06
1.84721e-06 -5.29588e-06 -4.65651e-05
0.000284941 7.57535e-06 1.71623e-06
7.57535e-06 -8.22649e-05 6.14821e-08
1.71623e-06 6.14821e-08 -0.0001506
0.000174523 -0.000104374 7.92099e-08
-0.000104374 -0.000111077 3.65441e-06
7.92099e-08 3.65441e-06 -0.000237874
0.0020941 -1.91514e-07 -1.48631e-05
-1.91514e-07 0.00105937 -5.44404e-06
-1.48631e-05 -5.44404e-06 0.00107568
0.000403198 8.20795e-06 4.04396e-07
8.20795e-06 -4.09717e-05 -8.06901e-08
4.04396e-07 -8.06901e-08 -5.46183e-05
0.000386344 -1.20559e-05 -3.9028e-06
-1.20559e-05 -1.58165e-05 4.39294e-06
-3.9028e-06 4.39294e-06 -7.40629e-05
0.0020725 1.54682e-05 -5.15097e-06
1.54682e-05 0.00104662 -2.52232e-08
-5.15097e-06 -2.52232e-08 0.00106261
0.000403693 4.7039e-06 -2.22498e-06
4.7039e-06 -4.00922e-05 4.22606e-06
-2.22498e-06 4.22606e-06 -5.27972e-05
0.00205361 3.11381e-05 6.00617e-06
3.11381e-05 0.00103594 5.50937e-06
6.00617e-06 5.50937e-06 0.00105067
-0.000994528 -0.0018091 -0.000375875
-0.0018091 -0.000186086 0.000160382
-0.000375875 0.000160382 -0.00479949
0.00495612 0.00242343 -0.000291153
0.00242343 0.0117937 7.3303e-05
-0.000291153 7.3303e-05 0.00451329
0.00620285 0.00125239 -0.00169164
0.00125239 0.00566066 0.000354356
-0.00169164 0.000354356 0.00278338
0.000730045 0.000149541 1.0569e-05
0.000149541 0.00028251 9.80364e-06
1.0569e-05 9.80364e-06 8.47673e-05
0.00686354 -0.00156896 -0.000231344
-0.00156896 0.00457828 0.000352128
-0.000231344 0.000352128 0.0013906
0.00468134 -0.00173762 -0.000334991
-0.00173762 0.00247037 4.00433e-05
-0.000334991 4.00433e-05 -0.00291394
0.0215735 0.00904671 0.000211773
0.00904671 0.0132175 -0.000579049
0.000211773 -0.000579049 0.00380716
0.00762925 -0.00200238 0.000174404
-0.00200238 -0.00083581 -2.04764e-05
0.000174404 -2.04764e-05 0.000720527
0.0149215 -0.00431562 0.000400053
-0.00431562 -0.000791974 -0.000276593
0.000400053 -0.000276593 0.000192375
0.0191377 0.00676764 -0.0010798
0.00676764 0.00620503 0.000377782
-0.0010798 0.000377782 -0.0020646
0.0170967 0.00506468 0.000322866
0.00506468 0.0107223 0.000309835
0.000322866 0.000309835 0.00604303
0.00773668 -0.00382431 -9.46946e-05
-0.00382431 -0.00112383 -5.45786e-06
-9.46946e-05 -5.45786e-06 0.000695174
0.0121194 -0.00773907 2.69484e-06
-0.00773907 0.000389537 -5.50445e-05
2.69484e-06 -5.50445e-05 -0.00153885
0.0127334 0.00260262 0.000127468
0.00260262 0.0084929 -0.000491214
0.000127468 -0.000491214 0.000595594
0.0164101 0.00138732 -1.90646e-05
0.00138732 0.00244649 7.76792e-05
-1.90646e-05 7.76792e-05 0.000115838
0.00413984 -0.00434886 -2.27237e-05
-0.00434886 0.000621295 5.56557e-05
-2.27237e-05 5.56557e-05 0.001544
0.010899 -0.00751833 0.000330051
-0.00751833 0.00484447 -0.000205422
0.000330051 -0.000205422 0.000918556
0.00761905 0.000230673 -2.3697e-05
0.000230673 0.00644356 -0.00052858
-2.3697e-05 -0.00052858 0.00100184
0.0160058 -0.000527455 -0.000248772
-0.000527455 2.82369e-05 0.000324998
-0.000248772 0.000324998 0.000656212
0.00028426 0.000174694 1.0975e-05
0.000174694 7.28988e-05 1.54294e-05
1.0975e-05 1.54294e-05 -0.000142098
0.000401911 -9.18034e-05 3.70478e-07
-9.18034e-05 0.000165362 -8.46839e-07
3.70478e-07 -8.46839e-07 -9.30018e-05
0.000131288 4.52572e-05 6.71001e-06
4.52572e-05 -8.58463e-05 7.09215e-07
6.71001e-06 7.09215e-07 -0.000234138
0.000617604 0.00020234 6.84297e-06
0.00020234 0.000129821 2.18666e-05
6.84297e-06 2.18666e-05 -3.26784e-05
0.000920752 0.0002673 -8.97055e-07
0.0002673 0.000419331 -1.54797e-06
-8.97055e-07 -1.54797e-06 0.000191048
0.000992292 0.000154291 3.40305e-07
0.000154291 0.000489208 -1.66976e-06
3.40305e-07 -1.66976e-06 0.000292716
0.00112611 0.000221461 -2.06714e-06
0.000221461 0.000548647 -3.4038e-07
-2.06714e-06 -3.4038e-07 0.000330344
0.00113322 0.000259308 3.17876e-06
0.000259308 0.000580391 2.55663e-06
3.17876e-06 2.55663e-06 0.000350753
0.00173846 -0.00131809 0.000160792
-0.00131809 -0.000832963 -9.75225e-05
0.000160792 -9.75225e-05 -0.000344994
-0.000340768 -0.000963507 -1.83414e-05
-0.000963507 -0.0010175 -1.57586e-05
-1.83414e-05 -1.57586e-05 -0.00110802
-4.74263e-05 -9.45119e-05 3.59325e-06
-9.45119e-05 -0.000101169 -2.4655e-05
3.59325e-06 -2.4655e-05 -0.000382697
0.00173772 -0.00087876 3.7489e-05
-0.00087876 0.00102088 -2.38503e-05
3.7489e-05 -2.38503e-05 0.000629169
0.00319929 -0.000742833 -2.93093e-05
-0.000742833 0.00198251 1.28965e-05
-2.93093e-05 1.28965e-05 0.00158181
0.00172634 -0.000191229 1.52073e-05
-0.000191229 0.00113764 -2.80641e-05
1.52073e-05 -2.80641e-05 0.000754807
-5.78809e-05 9.77182e-05 2.17028e-06
9.77182e-05 -6.27445e-05 1.20386e-05
2.17028e-06 1.20386e-05 -0.000298256
0.0010922 -0.00222778 -1.91562e-05
-0.00222778 -0.000311098 -4.25105e-06
-1.91562e-05 -4.25105e-06 -0.000736973
0.00141337 -0.000158466 -3.40816e-06
-0.000158466 0.00105383 -1.28246e-06
-3.40816e-06 -1.28246e-06 0.000636073
-0.000576534 -0.000267649 -1.06212e-05
-0.000267649 -3.90373e-05 9.69923e-06
-1.06212e-05 9.69923e-06 -0.000563446
-0.000789753 -0.000649099 2.78204e-05
-0.000649099 -0.000581887 -3.4793e-06
2.78204e-05 -3.4793e-06 -0.000675268
0.00038477 9.34519e-05 9.06925e-06
9.34519e-05 0.000247816 3.65191e-07
9.06925e-06 3.65191e-07 4.35391e-05
0.00064577 -0.00223492 -9.51269e-05
-0.00223492 0.00071051 -2.37665e-05
-9.51269e-05 -2.37665e-05 -0.000192158
-0.000323527 -0.000652806 -3.20199e-05
-0.000652806 0.000136252 1.46765e-05
-3.20199e-05 1.46765e-05 -0.000368974
0.000296569 0.000179378 2.1956e-06
0.000179378 0.000578633 -5.98967e-06
2.1956e-06 -5.98967e-06 1.58645e-05
0.00152122 0.000245131 9.36871e-07
0.000245131 0.00134305 1.50746e-05
9.36871e-07 1.50746e-05 0.000771672
-0.00030987 3.96277e-05 0.000289866
3.96277e-05 0.00413757 7.39304e-05
0.000289866 7.39304e-05 0.001401
-0.000113236 7.5818e-05 0.000224775
7.5818e-05 0.0013706 -3.32436e-05
0.000224775 -3.32436e-05 -0.00423233
-0.0145929 -0.000606518 -0.000647104
-0.000606518 0.00671833 2.65365e-05
-0.000647104 2.65365e-05 0.000959911
0.00147945 0.000851766 2.13997e-05
0.000851766 0.000928664 1.19929e-06
2.13997e-05 1.19929e-06 0.000478023
-0.000527857 0.00121845 2.10742e-05
0.00121845 -1.00738e-05 1.45799e-05
2.10742e-05 1.45799e-05 -0.000752498
0.00599071 0.0021177 0.000654946
0.0021177 0.00503397 0.000166682
0.000654946 0.000166682 0.000486818
0.00606672 0.00572559 0.000249529
0.00572559 0.0034614 0.000225135
0.000249529 0.000225135 -0.000524015
0.00203239 0.00378625 -0.00017483
0.00378625 0.00159193 -0.000177697
-0.00017483 -0.000177697 -0.000236072
0.00561396 -0.00210777 -0.000153837
-0.00210777 0.00596862 -0.000544212
-0.000153837 -0.000544212 0.000284742
0.00380523 0.000688973 0.000133219
0.000688973 0.00152528 0.000151303
0.000133219 0.000151303 -0.000958277
0.0103001 -0.000234703 -4.45534e-05
-0.000234703 -0.00473699 -0.000276442
-4.45534e-05 -0.000276442 -0.00308161
0.000754505 0.000861274 5.22096e-06
0.000861274 0.00075448 -1.19585e-06
5.22096e-06 -1.19585e-06 9.95358e-05
-0.00303896 0.000534571 3.56199e-06
0.000534571 0.00179898 8.71434e-06
3.56199e-06 8.71434e-06 -0.000908058
0.0066539 -0.00052516 0.000223843
-0.00052516 0.000331982 1.13719e-05
0.000223843 1.13719e-05 -0.0016409
-0.0018967 0.00097599 -2.4697e-05
0.00097599 0.000145153 -1.41092e-05
-2.4697e-05 -1.41092e-05 -0.000996184
0.016906 0.00173244 2.31209e-05
0.00173244 0.00236424 -8.39454e-05
2.31209e-05 -8.39454e-05 4.08761e-05
0.00442669 0.00303127 0.000367931
0.00303127 0.00577188 0.000229981
0.000367931 0.000229981 -0.00105962
0.0137379 0.000637153 -0.000212417
0.000637153 0.00519933 -1.6764e-06
-0.000212417 -1.6764e-06 0.000136466
0.00118824 0.000921916 -5.86956e-06
0.000921916 0.00115947 -2.45429e-05
-5.86956e-06 -2.45429e-05 0.000310723
0.00343585 -3.41737e-05 3.3382e-05
-3.41737e-05 0.0020954 3.18284e-05
3.3382e-05 3.18284e-05 2.37715e-05
0.00397811 -0.00283431 0.000287774
-0.00283431 0.00421768 -0.000288557
0.000287774 -0.000288557 0.00148881
0.0322004 0.00737529 0.000476584
0.00737529 0.0129099 -0.000385305
0.000476584 -0.000385305 0.00628249
0.00989531 -0.000387583 -0.00012643
-0.000387583 0.00756345 0.000624235
-0.00012643 0.000624235 0.00208715
-0.00177622 0.000910006 -0.00016516
0.000910006 0.000889324 -0.000130763
-0.00016516 -0.000130763 -0.000326591
0.00182221 0.0008135 0.000220699
0.0008135 0.00601539 1.69302e-05
0.000220699 1.69302e-05 -0.00390475
0.00122464 0.000512324 8.44358e-06
0.000512324 0.00102459 1.11658e-05
8.44358e-06 1.11658e-05 0.000476357
0.000573223 0.000358095 9.05837e-06
0.000358095 0.000870051 8.57131e-06
9.05837e-06 8.57131e-06 0.000204446
0.000477325 -0.000110409 -1.05975e-05
-0.000110409 0.00117665 1.95554e-05
-1.05975e-05 1.95554e-05 0.000535197
-0.00100573 -1.86517e-05 5.16157e-06
-1.86517e-05 -0.000641178 -5.35656e-06
5.16157e-06 -5.35656e-06 -0.000889237
-0.000762311 -1.38197e-06 2.48334e-06
-1.38197e-06 -1.4758e-05 3.64216e-06
2.48334e-06 3.64216e-06 -0.0005827
-2.0592e-06 4.16219e-05 -7.7819e-06
4.16219e-05 0.000634069 -7.18458e-06
-7.7819e-06 -7.18458e-06 -1.07068e-05
-0.000193076 -8.44656e-06 -1.16965e-06
-8.44656e-06 0.000105256 4.58556e-07
-1.16965e-06 4.58556e-07 -0.000235988
-5.05169e-05 -8.59103e-05 3.246e-06
-8.59103e-05 0.000477723 2.56831e-06
3.246e-06 2.56831e-06 -4.62111e-05
0.00239173 -0.000559499 9.60632e-06
-0.000559499 0.0015721 -1.35315e-05
9.60632e-06 -1.35315e-05 0.00120338
-7.47261e-05 -4.95938e-05 -2.36035e-06
-4.95938e-05 5.9838e-05 8.02546e-06
-2.36035e-06 8.02546e-06 -0.000172052
-0.0012201 1.32429e-07 3.1338e-06
1.32429e-07 -0.000808869 3.00954e-06
3.1338e-06 3.00954e-06 -0.000971558
0.0010912 -0.000389776 -3.08665e-06
-0.000389776 0.000553538 5.3009e-06
-3.08665e-06 5.3009e-06 0.000321539
-0.0040401 3.05232e-05 2.55624e-05
3.05232e-05 -0.00228143 2.17645e-05
2.55624e-05 2.17645e-05 -0.00269248
-0.0012398 -0.000100213 3.73209e-05
-0.000100213 -0.000875897 -7.90696e-06
3.73209e-05 -7.90696e-06 -0.000907119
2.21455e-05 -0.000434645 -1.1549e-05
-0.000434645 -0.000181942 -4.01782e-06
-1.1549e-05 -4.01782e-06 -0.000535158
0.00162883 -0.000837331 -1.60667e-06
-0.000837331 0.000597671 -1.82476e-06
-1.60667e-06 -1.82476e-06 -8.01935e-05
0.00203151 -0.00101748 -1.18853e-05
-0.00101748 0.000697151 1.72527e-06
-1.18853e-05 1.72527e-06 4.14075e-05
0.00126406 -0.000417574 3.86566e-06
-0.000417574 0.000426262 -5.67188e-06
3.86566e-06 -5.67188e-06 0.000174411
0.00157704 -0.000737981 1.25932e-06
-0.000737981 0.000564768 1.18113e-06
1.25932e-06 1.18113e-06 5.73819e-05
0.00179284 -0.000907139 6.54124e-06
-0.000907139 0.000542375 -7.1491e-06
6.54124e-06 -7.1491e-06 -4.26329e-05
0.00214045 -0.000720033 3.72376e-06
-0.000720033 0.000937914 2.24037e-06
3.72376e-06 2.24037e-06 0.000447197
0.00117601 -0.000758991 2.64584e-06
-0.000758991 0.000243624 -5.31586e-06
2.64584e-06 -5.31586e-06 -0.000294509
0.00134229 -0.000275274 -5.21407e-07
-0.000275274 0.000491684 -3.02767e-06
-5.21407e-07 -3.02767e-06 0.000204588
0.000915217 -0.000445677 -7.80714e-07
-0.000445677 0.00020026 6.30013e-07
-7.80714e-07 6.30013e-07 -0.000141026
-0.000555068 -0.000376114 -5.28657e-07
-0.000376114 -0.000702453 -7.86572e-06
-5.28657e-07 -7.86572e-06 -0.00105497
-0.000231775 -0.000102539 1.27543e-06
-0.000102539 -0.000297236 -5.23229e-06
1.27543e-06 -5.23229e-06 -0.000621885
0.000523228 -0.000229986 -2.05758e-07
-0.000229986 0.000188861 -5.51659e-07
-2.05758e-07 -5.51659e-07 -0.000159226
-0.000720776 -0.00015754 3.64378e-06
-0.00015754 -0.000669158 1.0451e-06
3.64378e-06 1.0451e-06 -0.000934393
0.00126426 -0.000239666 -2.70392e-06
-0.000239666 0.000672451 4.81788e-06
-2.70392e-06 4.81788e-06 0.000360911
0.000712463 -0.000183391 7.84681e-07
-0.000183391 0.000261852 6.2962e-07
7.84681e-07 6.2962e-07 -6.11931e-06
1.7343e-05 -5.76647e-05 2.56532e-06
-5.76647e-05 -0.000254488 8.77325e-06
2.56532e-06 8.77325e-06 -0.00041272
0.0013335 -0.000333268 -4.18568e-06
-0.000333268 0.000667432 2.17369e-06
-4.18568e-06 2.17369e-06 0.000434223
0.00055982 -5.74191e-05 -1.29971e-06
-5.74191e-05 9.52969e-05 -1.7546e-07
-1.29971e-06 -1.7546e-07 -3.88476e-05
0.000325824 4.02245e-05 3.37792e-06
4.02245e-05 -7.22716e-05 1.0944e-05
3.37792e-06 1.0944e-05 -0.000124567
0.00108047 -0.000123743 -1.79741e-06
-0.000123743 0.000452805 -5.32108e-06
-1.79741e-06 -5.32108e-06 0.000326886
0.00043534 -2.97149e-05 -1.88464e-06
-2.97149e-05 -1.19181e-05 4.14231e-08
-1.88464e-06 4.14231e-08 -5.34896e-05
0.00280611 9.63442e-05 1.12326e-06
9.63442e-05 0.00152801 3.38337e-06
1.12326e-06 3.38337e-06 0.00152824
0.000479133 -4.55484e-05 3.33537e-06
-4.55484e-05 2.02594e-05 -7.79207e-06
3.33537e-06 -7.79207e-06 -1.79864e-05
0.00181782 4.04286e-05 2.35013e-05
4.04286e-05 0.000879689 -1.14676e-06
2.35013e-05 -1.14676e-06 0.000882942
0.0027177 3.0593e-05 3.40772e-05
3.0593e-05 0.00146546 -6.29903e-06
3.40772e-05 -6.29903e-06 0.00147676
0.000264999 5.09369e-05 3.99537e-06
5.09369e-05 -7.08697e-05 2.95043e-06
3.99537e-06 2.95043e-06 -0.000226199
0.000108493 1.74144e-05 1.96699e-06
1.74144e-05 -0.000191558 -4.57188e-06
1.96699e-06 -4.57188e-06 -0.000292841
0.000432833 5.84836e-05 -1.90543e-07
5.84836e-05 5.72347e-05 -8.25956e-07
-1.90543e-07 -8.25956e-07 -0.000102911
0.000457683 1.31691e-05 2.54466e-06
1.31691e-05 -5.50249e-06 -5.97779e-06
2.54466e-06 -5.97779e-06 -2.80423e-05
7.04079e-05 2.84589e-05 -1.00522e-06
2.84589e-05 -0.000217756 -2.27969e-06
-1.00522e-06 -2.27969e-06 -0.000304154
0.000617456 8.68731e-05 1.31572e-06
8.68731e-05 0.000194385 3.98616e-06
1.31572e-06 3.98616e-06 3.77796e-05
0.00220333 -1.46636e-05 -2.06676e-05
-1.46636e-05 0.00113023 -5.51113e-06
-2.06676e-05 -5.51113e-06 0.00114562
0.000418771 9.7297e-06 -1.27478e-06
9.7297e-06 -3.19284e-05 -1.79709e-07
-1.27478e-06 -1.79709e-07 -4.855e-05
-3.59465e-05 1.68374e-05 1.59568e-06
1.68374e-05 -0.000288524 4.62564e-06
1.59568e-06 4.62564e-06 -0.000360277
0.00208773 4.69915e-07 -4.10074e-06
4.69915e-07 0.00105528 8.2683e-08
-4.10074e-06 8.2683e-08 0.00107163
0.000394336 8.4127e-06 -2.31461e-06
8.4127e-06 -4.68842e-05 4.50137e-06
-2.31461e-06 4.50137e-06 -6.01611e-05
0.00206582 1.64238e-05 1.10838e-05
1.64238e-05 0.00104256 5.48006e-06
1.10838e-05 5.48006e-06 0.00105837
0.000967286 -0.000145101 0.000277657
-0.000145101 0.00476199 0.000162463
0.000277657 0.000162463 0.00264123
-0.000741297 -0.000666881 -7.70687e-05
-0.000666881 0.000517484 5.24635e-06
-7.70687e-05 5.24635e-06 -0.00483393
0.00152295 0.00243184 -0.000377316
0.00243184 0.0110767 -0.000117746
-0.000377316 -0.000117746 0.00337631
0.000712914 0.000153747 8.32596e-07
0.000153747 0.000235731 2.28199e-07
8.32596e-07 2.28199e-07 5.70789e-05
-0.000312213 9.67597e-05 8.22994e-06
9.67597e-05 -0.000392618 5.87391e-06
8.22994e-06 5.87391e-06 -0.000595063
0.00167869 0.000281783 1.7307e-05
0.000281783 0.000847881 1.89623e-05
1.7307e-05 1.89623e-05 0.000663336
0.00906031 -0.00111788 -0.000325393
-0.00111788 0.000379474 0.0001439
-0.000325393 0.0001439 -0.0021668
0.00744961 -0.00257846 0.000175629
-0.00257846 0.00414823 4.04741e-05
0.000175629 4.04741e-05 0.00188879
0.00473702 -0.00378377 0.000355714
-0.00378377 0.0020689 -0.000357732
0.000355714 -0.000357732 -0.00308162
0.00898423 -0.00445922 -1.67587e-05
-0.00445922 -0.00130607 -5.50972e-05
-1.67587e-05 -5.50972e-05 0.000738946
0.00442403 -0.00731822 -0.000947174
-0.00731822 -0.00249833 3.47454e-05
-0.000947174 3.47454e-05 -0.00313104
0.0304028 0.00675079 0.000685644
0.00675079 0.0157469 0.000320615
0.000685644 0.000320615 0.00598375
0.00881681 -0.00118139 0.000465989
-0.00118139 -0.00131587 -0.000328478
0.000465989 -0.000328478 -0.00328468
0.00252873 -0.00429967 4.20739e-06
-0.00429967 -0.000977802 1.34651e-05
4.20739e-06 1.34651e-05 0.000608268
0.00521707 -0.00754496 -0.000294375
-0.00754496 0.00253537 4.57819e-06
-0.000294375 4.57819e-06 -0.00272666
0.00731954 0.00455357 -0.000133069
0.00455357 0.00748742 -0.000411716
-0.000133069 -0.000411716 0.000501961
0.0133388 -0.000389152 -0.00015612
-0.000389152 -0.00220803 0.000182393
-0.00015612 0.000182393 -0.00107214
-0.000773386 -0.00326117 -0.000176686
-0.00326117 0.000723345 9.27844e-05
-0.000176686 9.27844e-05 -4.6316e-05
0.0079685 -0.00398023 -0.000486041
-0.00398023 0.00589926 0.000275394
-0.000486041 0.000275394 -0.000387805
0.00672814 -0.000211889 5.32888e-05
-0.000211889 0.0036466 -0.000388468
5.32888e-05 -0.000388468 -0.00130877
0.00996388 0.000634401 5.92865e-05
0.000634401 -0.00127221 0.000178712
5.92865e-05 0.000178712 -0.00209774
-0.000245714 9.26908e-05 8.84997e-06
9.26908e-05 -0.000292203 2.28863e-05
8.84997e-06 2.28863e-05 -0.000436426
0.000674739 1.70705e-05 7.09185e-09
1.70705e-05 0.000315631 -6.4472e-07
7.09185e-09 -6.4472e-07 9.19813e-05
0.000743996 -0.000238784 1.19703e-05
-0.000238784 0.00034634 -1.02341e-05
1.19703e-05 -1.02341e-05 0.00010414
0.000563517 0.000189858 -1.52289e-06
0.000189858 0.000106731 2.44615e-06
-1.52289e-06 2.44615e-06 -6.14077e-05
0.000773621 0.000221649 1.88956e-06
0.000221649 0.000331583 -8.52443e-06
1.88956e-06 -8.52443e-06 0.000110763
0.00127719 0.000257343 -5.96925e-06
0.000257343 0.000648073 -6.66899e-06
-5.96925e-06 -6.66899e-06 0.000425286
0.00110112 -0.00196429 8.03499e-05
-0.00196429 -6.16543e-05 -2.73596e-05
8.03499e-05 -2.73596e-05 -0.000404032
-0.00102715 -0.000531941 8.1883e-06
-0.000531941 -0.000788035 -2.55371e-05
8.1883e-06 -2.55371e-05 -0.000798355
0.000274685 0.000228454 -6.48784e-06
0.000228454 0.000154472 -2.52244e-05
-6.48784e-06 -2.52244e-05 -0.000124203
0.00252591 -0.000580895 6.97235e-05
-0.000580895 0.00163651 -3.81101e-05
6.97235e-05 -3.81101e-05 0.00118695
0.00302876 -0.000149806 9.14932e-06
-0.000149806 0.00199415 -2.2808e-05
9.14932e-06 -2.2808e-05 0.00161033
-0.000465479 8.48817e-05 9.14681e-06
8.48817e-05 -0.000248015 7.55566e-07
9.14681e-06 7.55566e-07 -0.000474037
-0.000224151 3.3185e-05 3.237e-06
3.3185e-05 0.000242129 8.63611e-06
3.237e-06 8.63611e-06 -0.000270962
0.0018945 -0.00219177 -6.97345e-05
-0.00219177 0.00129998 1.48524e-06
-6.97345e-05 1.48524e-06 0.000322799
0.000383465 -6.31778e-05 -6.6227e-06
-6.31778e-05 0.000751227 -9.35463e-07
-6.6227e-06 -9.35463e-07 0.00010241
-3.168e-05 -0.000463911 -8.10836e-06
-0.000463911 0.000542311 1.82701e-06
-8.10836e-06 1.82701e-06 -0.000128951
0.000802712 0.00024487 1.46787e-05
0.00024487 0.000777908 -2.33748e-05
1.46787e-05 -2.33748e-05 0.000380834
-0.00409047 -0.000212159 -0.000141172
-0.000212159 -0.000655676 1.0042e-05
-0.000141172 1.0042e-05 -0.00178113
-0.000270073 -0.000205003 -9.19047e-06
-0.000205003 0.000908308 -1.60725e-05
-9.19047e-06 -1.60725e-05 0.000122671
-0.00372495 -0.000122771 -2.99842e-05
-0.000122771 -0.00124718 -5.01111e-06
-2.99842e-05 -5.01111e-06 -0.00201304
0.00106801 0.000611386 -4.0576e-06
0.000611386 -0.000138004 -3.23998e-06
-4.0576e-06 -3.23998e-06 -0.00394561
-0.00180981 0.00083458 0.000176642
0.00083458 0.00383965 5.73511e-06
0.000176642 5.73511e-06 0.00110468
-0.00173623 3.73668e-05 0.000479132
3.73668e-05 0.000489302 4.97679e-05
0.000479132 4.97679e-05 -0.00499762
-6.28184e-05 0.000871546 1.08795e-05
0.000871546 0.000221401 2.27274e-05
1.08795e-05 2.27274e-05 -0.000473221
0.000493468 0.00145816 -1.928e-05
0.00145816 0.000923305 -3.47981e-05
-1.928e-05 -3.47981e-05 -0.000179579
-0.00245153 0.000536713 -0.000198035
0.000536713 0.00215169 -6.17249e-05
-0.000198035 -6.17249e-05 -0.000688524
-0.00452749 0.00104854 0.000216661
0.00104854 0.00399722 0.000250116
0.000216661 0.000250116 -0.00244554
0.00405417 0.00069292 -0.000203644
0.00069292 -0.00128489 -0.000519355
-0.000203644 -0.000519355 -0.00734739
0.00618163 8.57956e-05 0.000120555
8.57956e-05 -1.65192e-05 3.34604e-05
0.000120555 3.34604e-05 -0.00133001
0.00797173 -0.000939367 -0.000452973
-0.000939367 -0.00155177 0.000310988
-0.000452973 0.000310988 -0.00344019
0.000531774 0.00071081 -7.16787e-06
0.00071081 0.000877955 -1.62492e-07
-7.16787e-06 -1.62492e-07 0.000132255
0.00193927 0.000393196 6.56486e-05
0.000393196 0.00203611 3.70308e-05
6.56486e-05 3.70308e-05 1.87074e-05
0.00641815 -0.00184921 -0.000164619
-0.00184921 0.00391241 -2.56906e-05
-0.000164619 -2.56906e-05 0.00179029
-4.35955e-05 0.00104365 -0.000157162
0.00104365 0.00257682 -2.13688e-05
-0.000157162 -2.13688e-05 0.000328567
0.0225497 0.00702438 -0.00029217
0.00702438 0.00974177 -0.000528147
-0.00029217 -0.000528147 0.00340209
0.0098336 0.00393289 0.00010514
0.00393289 0.00816346 0.000446263
0.00010514 0.000446263 0.000443243
0.00670448 0.00189309 9.13996e-05
0.00189309 0.00751708 -2.85628e-06
9.13996e-05 -2.85628e-06 -0.000216531
-2.43813e-05 7.40462e-05 2.48977e-05
7.40462e-05 0.00160801 -1.41004e-05
2.48977e-05 -1.41004e-05 2.2256e-05
0.000774503 1.41821e-05 -0.00027092
1.41821e-05 0.00565149 -5.73228e-06
-0.00027092 -5.73228e-06 0.00324062
0.000648069 -0.000941974 0.000872858
-0.000941974 0.000563414 -0.000283431
0.000872858 -0.000283431 -0.0053698
0.033366 0.0132846 -0.000102938
0.0132846 0.0230564 -0.000111164
-0.000102938 -0.000111164 0.0131034
0.015475 0.00552955 0.000439994
0.00552955 0.00714386 0.00118394
0.000439994 0.00118394 -0.00167899
0.0120461 -0.0056977 0.000579629
-0.0056977 0.00753607 -0.000367184
0.000579629 -0.000367184 -0.000376416
0.000844782 -0.000800782 -8.43169e-05
-0.000800782 0.00345089 5.33598e-05
-8.43169e-05 5.33598e-05 0.00193556
0.000587453 0.000299503 -9.26476e-06
0.000299503 0.000905105 2.67567e-06
-9.26476e-06 2.67567e-06 0.000307109
-0.000172828 -0.000107368 1.90199e-06
-0.000107368 0.000636642 -6.78509e-06
1.90199e-06 -6.78509e-06 -8.21984e-05
0.000394097 -0.000627202 5.69756e-05
-0.000627202 0.000658543 -2.1026e-05
5.69756e-05 -2.1026e-05 -0.00012641
0.000151557 -7.77152e-05 -3.78206e-06
-7.77152e-05 0.000259488 1.32925e-05
-3.78206e-06 1.32925e-05 -2.52038e-05
0.000160069 -0.000107112 1.50635e-06
-0.000107112 0.000529305 -1.97573e-05
1.50635e-06 -1.97573e-05 4.52703e-05
0.00093903 -0.000374357 -3.45957e-06
-0.000374357 0.000849418 -9.97963e-09
-3.45957e-06 -9.97963e-09 0.000475581
0.00128033 -0.00088067 2.93542e-05
-0.00088067 0.000710621 -1.83869e-05
2.93542e-05 -1.83869e-05 0.000186834
0.00059955 -0.000396647 7.03351e-06
-0.000396647 0.000302848 -3.45381e-07
7.03351e-06 -3.45381e-07 -5.23143e-06
0.00110634 -0.000712864 2.01446e-05
-0.000712864 0.000522588 -6.40651e-06
2.01446e-05 -6.40651e-06 2.44414e-06
0.00147898 -0.000894674 1.29208e-05
-0.000894674 0.000684078 -5.04759e-06
1.29208e-05 -5.04759e-06 -0.000179735
0.000835097 -0.00049318 -8.12398e-06
-0.00049318 0.000263311 -3.55131e-06
-8.12398e-06 -3.55131e-06 -3.92216e-05
0.00264321 -0.000982239 -2.97664e-06
-0.000982239 0.00115396 -4.27199e-07
-2.97664e-06 -4.27199e-07 0.000466855
0.00155747 -0.00106312 -1.78527e-05
-0.00106312 0.000361304 -1.37399e-06
-1.78527e-05 -1.37399e-06 -0.000421176
0.00268783 -0.00129924 -1.45542e-05
-0.00129924 0.000800384 -4.87017e-07
-1.45542e-05 -4.87017e-07 9.31279e-05
0.00221417 -0.0011464 -4.0947e-06
-0.0011464 0.000722753 -1.40188e-06
-4.0947e-06 -1.40188e-06 4.55855e-05
0.00194698 -0.00100135 -5.82734e-06
-0.00100135 0.000643805 3.1582e-07
-5.82734e-06 3.1582e-07 -7.96983e-06
0.00134995 -0.000716901 2.1699e-07
-0.000716901 0.000402549 -6.63956e-06
2.1699e-07 -6.63956e-06 -0.000104399
0.00185451 -0.000882675 9.38461e-06
-0.000882675 0.000649505 -8.16199e-06
9.38461e-06 -8.16199e-06 7.02031e-05
0.00181447 -0.000924234 9.50034e-06
-0.000924234 0.000557259 -1.89472e-06
9.50034e-06 -1.89472e-06 -3.23949e-05
0.00167151 -0.000435451 -3.39104e-07
-0.000435451 0.000634492 1.029e-06
-3.39104e-07 1.029e-06 0.000280654
0.00151188 -0.000654306 5.56618e-06
-0.000654306 0.000525026 -3.66368e-06
5.56618e-06 -3.66368e-06 4.97892e-05
-0.000290728 -0.000559065 -1.4978e-05
-0.000559065 -0.000665116 -4.60201e-07
-1.4978e-05 -4.60201e-07 -0.00114767
0.00033995 -9.8779e-05 -1.40905e-06
-9.8779e-05 -9.29213e-06 -6.26079e-06
-1.40905e-06 -6.26079e-06 -0.000312653
0.000733202 -0.000291993 1.3046e-07
-0.000291993 0.000133141 -1.16226e-06
1.3046e-07 -1.16226e-06 -0.000168535
-0.000135063 -0.000353978 -8.38212e-06
-0.000353978 -0.000465013 -1.05775e-06
-8.38212e-06 -1.05775e-06 -0.000803427
-8.98705e-06 -0.000108338 -7.42242e-07
-0.000108338 -0.000230191 7.42874e-06
-7.42242e-07 7.42874e-06 -0.00045707
0.000884553 -0.000203334 3.54323e-07
-0.000203334 0.000398623 3.45549e-07
3.54323e-07 3.45549e-07 7.74769e-05
-0.000803343 -0.000268838 -1.42569e-06
-0.000268838 -0.000629748 3.42628e-06
-1.42569e-06 3.42628e-06 -0.000971462
0.00172445 -0.00028022 -1.79602e-06
-0.00028022 0.000909799 2.92614e-06
-1.79602e-06 2.92614e-06 0.000635079
0.000784196 -0.000128093 5.61333e-08
-0.000128093 0.000236615 2.5252e-07
5.61333e-08 2.5252e-07 7.12652e-05
0.000340538 7.84601e-06 3.09067e-06
7.84601e-06 -5.58443e-05 1.45674e-05
3.09067e-06 1.45674e-05 -0.000121735
0.00105701 -0.000116908 -6.72145e-07
-0.000116908 0.000413431 -8.27647e-06
-6.72145e-07 -8.27647e-06 0.000273672
0.000419507 -9.24889e-06 -5.27335e-06
-9.24889e-06 -1.6005e-05 -5.1205e-07
-5.27335e-06 -5.1205e-07 -6.80156e-05
0.00323381 0.000102132 -4.9188e-05
0.000102132 0.00181407 6.3585e-06
-4.9188e-05 6.3585e-06 0.00181415
0.000489095 -3.90409e-05 2.59714e-06
-3.90409e-05 1.83879e-05 -9.47547e-06
2.59714e-06 -9.47547e-06 -2.30629e-05
0.0019653 6.23556e-05 2.87542e-05
6.23556e-05 0.000978192 -5.87162e-07
2.87542e-05 -5.87162e-07 0.000976993
0.00284825 5.03528e-05 4.14156e-05
5.03528e-05 0.00155054 -6.12587e-06
4.14156e-05 -6.12587e-06 0.0015599
0.000872117 0.00014887 3.93014e-06
0.00014887 0.000327659 -6.46501e-06
3.93014e-06 -6.46501e-06 0.00014439
0.000514088 7.59013e-05 3.99125e-06
7.59013e-05 7.29937e-05 -3.97758e-06
3.99125e-06 -3.97758e-06 -4.06056e-05
0.000405805 7.477e-05 -3.06554e-07
7.477e-05 4.13746e-05 -7.39398e-07
-3.06554e-07 -7.39398e-07 -0.000130659
0.000436251 2.54545e-05 4.59835e-07
2.54545e-05 -1.45974e-05 -7.57657e-06
4.59835e-07 -7.57657e-06 -4.56518e-05
0.000239553 5.10744e-05 -2.50766e-06
5.10744e-05 -0.000104368 -2.53028e-06
-2.50766e-06 -2.53028e-06 -0.000205735
0.000602869 0.000104426 -1.53614e-06
0.000104426 0.000174176 -3.06716e-06
-1.53614e-06 -3.06716e-06 1.39981e-05
0.00231891 -3.14347e-05 -2.38625e-05
-3.14347e-05 0.00120636 -5.82238e-06
-2.38625e-05 -5.82238e-06 0.00121975
0.000400527 2.10343e-06 1.13892e-06
2.10343e-06 -4.24616e-05 -2.95822e-07
1.13892e-06 -2.95822e-07 -6.4464e-05
7.95737e-05 2.4566e-05 -1.70459e-06
2.4566e-05 -0.000210872 1.89982e-06
-1.70459e-06 1.89982e-06 -0.000300561
0.00216952 -1.43226e-05 -6.1473e-06
-1.43226e-05 0.0011081 1.25274e-07
-6.1473e-06 1.25274e-07 0.00112375
0.000408716 2.62726e-06 -4.31996e-06
2.62726e-06 -3.94476e-05 4.97399e-06
-4.31996e-06 4.97399e-06 -5.53622e-05
0.00213009 1.90996e-06 1.59578e-05
1.90996e-06 0.00108321 5.43337e-06
1.59578e-05 5.43337e-06 0.00109935
0.00267867 -0.000336831 -0.00016975
-0.000336831 0.00175344 1.50058e-05
-0.00016975 1.50058e-05 -0.000379126
-0.00178191 -2.41236e-05 0.000157094
-2.41236e-05 0.00425683 -5.16215e-06
0.000157094 -5.16215e-06 0.00145219
-0.000595212 -0.000408375 0.000156351
-0.000408375 0.00143687 -0.000278883
0.000156351 -0.000278883 -0.00475122
-0.000406778 -2.52447e-05 4.07925e-06
-2.52447e-05 -0.000348813 -6.03316e-06
4.07925e-06 -6.03316e-06 -0.000674621
0.00403372 0.000414983 1.1227e-05
0.000414983 0.00236115 1.0554e-05
1.1227e-05 1.0554e-05 0.00210415
0.000400151 0.000158968 -5.21294e-06
0.000158968 4.28522e-05 -9.36332e-06
-5.21294e-06 -9.36332e-06 -0.000135319
-0.000160515 6.96778e-05 7.68426e-07
6.96778e-05 -0.000308967 -3.26964e-06
7.68426e-07 -3.26964e-06 -0.000514204
0.000204548 0.000112141 7.81684e-09
0.000112141 -0.000127273 -2.1956e-06
7.81684e-09 -2.1956e-06 -0.000262665
0.000496611 0.000125688 6.20206e-06
0.000125688 0.000106809 1.36007e-05
6.20206e-06 1.36007e-05 -8.29338e-05
-0.000516802 4.55161e-05 1.66788e-05
4.55161e-05 -0.000542521 9.11607e-06
1.66788e-05 9.11607e-06 -0.000635009
0.00443764 0.00194617 0.000286365
0.00194617 0.000236919 0.000249858
0.000286365 0.000249858 -0.00218118
0.00749 -0.000465405 -0.000121708
-0.000465405 0.000471618 4.35156e-05
-0.000121708 4.35156e-05 -0.00214308
0.00548013 -0.00102271 0.000472554
-0.00102271 0.00470148 -0.000133435
0.000472554 -0.000133435 0.00180734
0.0107229 2.25238e-05 -2.85021e-05
2.25238e-05 -0.00450946 0.000209956
-2.85021e-05 0.000209956 -0.00301123
0.0070282 -0.0055638 -0.00017584
-0.0055638 0.000842211 3.83733e-05
-0.00017584 3.83733e-05 0.00165443
0.000330444 -0.00638804 -0.000474091
-0.00638804 0.00214521 0.000182005
-0.000474091 0.000182005 -0.00471162
0.0242029 0.00477626 0.000293978
0.00477626 0.00957157 -0.000269047
0.000293978 -0.000269047 0.00280463
0.0026114 -0.00449835 -8.54636e-05
-0.00449835 0.000665249 5.07694e-05
-8.54636e-05 5.07694e-05 0.000894625
-8.94767e-06 -0.00172939 -0.000106076
-0.00172939 0.00585434 6.67941e-05
-0.000106076 6.67941e-05 -0.00279948
0.0144404 0.000221676 0.000350734
0.000221676 0.00551263 -4.49669e-05
0.000350734 -4.49669e-05 0.000236216
0.0192847 -0.00199508 -8.1904e-05
-0.00199508 0.00300441 -1.82212e-06
-8.1904e-05 -1.82212e-06 0.00287229
-0.00536049 -0.000657771 -0.000245915
-0.000657771 -0.000673389 0.000234684
-0.000245915 0.000234684 -0.00140707
0.00144735 0.00127255 -0.000261899
0.00127255 0.00602724 -0.000200205
-0.000261899 -0.000200205 -0.00264783
0.00813414 -0.00653988 -4.03452e-05
-0.00653988 0.00271009 -0.00027547
-4.03452e-05 -0.00027547 -0.00504625
0.0198484 -0.00292298 0.000424697
-0.00292298 0.00884404 -0.000781716
0.000424697 -0.000781716 0.00441112
1.55865e-05 3.22624e-05 3.10747e-05
3.22624e-05 0.000252807 -2.73655e-06
3.10747e-05 -2.73655e-06 -0.000174764
0.000640631 0.000203534 -6.67332e-07
0.000203534 0.000299736 -3.02852e-06
-6.67332e-07 -3.02852e-06 0.000133036
0.000524429 -3.10418e-05 1.44212e-06
-3.10418e-05 0.000240424 -6.90255e-06
1.44212e-06 -6.90255e-06 1.70794e-06
0.000925573 0.000199436 -3.97252e-06
0.000199436 0.000368491 -1.42758e-05
-3.97252e-06 -1.42758e-05 0.000181221
0.00126807 -0.00190515 9.59882e-05
-0.00190515 0.00092511 2.58808e-05
9.59882e-05 2.58808e-05 -4.86593e-05
0.000677518 -0.000476076 -2.05976e-06
-0.000476076 0.0010944 -1.44786e-05
-2.05976e-06 -1.44786e-05 0.000296362
0.000273038 9.10556e-05 -3.39045e-05
9.10556e-05 0.000202524 -1.16093e-05
-3.39045e-05 -1.16093e-05 -1.34178e-05
0.00127063 -0.000189723 7.42353e-06
-0.000189723 0.000978706 -4.12382e-05
7.42353e-06 -4.12382e-05 0.000603029
-0.000162631 -7.72017e-05 -1.57626e-05
-7.72017e-05 0.000472188 6.34434e-06
-1.57626e-05 6.34434e-06 -9.99146e-05
7.01088e-05 0.000128491 1.38162e-06
0.000128491 0.000251462 6.17672e-06
1.38162e-06 6.17672e-06 -9.87983e-05
0.00104276 -0.00011928 6.32877e-08
-0.00011928 0.00123357 9.90533e-07
6.32877e-08 9.90533e-07 0.000639869
0.000704078 -0.00119544 2.0301e-05
-0.00119544 0.00167678 -1.20955e-05
2.0301e-05 -1.20955e-05 -2.37193e-05
0.000813151 -0.000176668 -1.19109e-06
-0.000176668 0.00156942 -1.73711e-05
-1.19109e-06 -1.73711e-05 0.000841968
0.000627722 0.00014664 4.37762e-06
0.00014664 0.00063978 -1.17335e-05
4.37762e-06 -1.17335e-05 0.000281269
-0.00126165 0.000240231 -0.000230535
0.000240231 0.00246815 -6.83817e-06
-0.000230535 -6.83817e-06 6.72872e-05
0.00090926 0.000494633 1.55665e-05
0.000494633 0.00139207 -2.04823e-06
1.55665e-05 -2.04823e-06 0.000719674
-0.00354253 -0.000119241 -8.67997e-05
-0.000119241 0.00390446 -0.000100923
-8.67997e-05 -0.000100923 0.00137503
0.00226775 0.000205589 3.66752e-05
0.000205589 0.00107878 1.94982e-05
3.66752e-05 1.94982e-05 -0.00135448
-0.00434101 0.0013527 -0.000104566
0.0013527 0.00320286 -0.000102436
-0.000104566 -0.000102436 2.80148e-05
0.000167006 0.000513482 -1.90085e-05
0.000513482 0.000829957 1.97147e-06
-1.90085e-05 1.97147e-06 0.000190745
-0.00125172 0.00128115 0.000269084
0.00128115 0.00114074 0.000120084
0.000269084 0.000120084 -0.000157137
0.00110163 7.92287e-05 0.000103936
7.92287e-05 0.00224878 -1.10639e-05
0.000103936 -1.10639e-05 0.000462941
0.00676171 -0.00225494 0.000390935
-0.00225494 0.00681912 -0.000233454
0.000390935 -0.000233454 -0.0029004
0.02552 0.00444398 -0.000350692
0.00444398 0.00983139 0.000261701
-0.000350692 0.000261701 0.00256828
0.00320486 -0.000967989 -0.000443024
-0.000967989 0.00317383 8.04039e-05
-0.000443024 8.04039e-05 0.000538389
0.0162829 0.00581732 -0.000328812
0.00581732 0.0113361 -0.00031781
-0.000328812 -0.00031781 0.00599767
0.000668273 0.000238882 -5.26122e-05
0.000238882 0.00178031 5.74151e-06
-5.26122e-05 5.74151e-06 0.00026378
-0.000540816 -0.000593422 -0.000149923
-0.000593422 0.00419011 2.80219e-06
-0.000149923 2.80219e-06 0.00205853
0.00225066 -0.00221581 0.000309831
-0.00221581 0.0022209 -6.51119e-05
0.000309831 -6.51119e-05 -0.00357969
-0.00399186 3.17211e-05 8.49687e-05
3.17211e-05 0.000490424 4.35637e-05
8.49687e-05 4.35637e-05 -0.000447439
0.028945 0.0160872 0.000934238
0.0160872 0.020285 -0.000298213
0.000934238 -0.000298213 0.00956162
0.0130574 0.0035308 -0.00014811
0.0035308 0.00894055 0.000486726
-0.00014811 0.000486726 0.000738342
-0.00148187 -0.00192711 0.000305498
-0.00192711 0.00427425 -0.00021099
0.000305498 -0.00021099 -0.00477117
-0.0026629 -0.00072304 -4.84821e-05
-0.00072304 0.000319991 -4.38231e-05
-4.84821e-05 -4.38231e-05 -0.00131325
0.00155976 -0.00136754 0.000442389
-0.00136754 0.000136909 -0.000114271
0.000442389 -0.000114271 -0.0046381
0.00337059 0.00357827 -0.0023839
0.00357827 0.0121621 0.000327816
-0.0023839 0.000327816 0.00428352
0.0253442 0.00957894 -0.000625248
0.00957894 0.0107094 0.000458628
-0.000625248 0.000458628 0.00188487
0.00668771 -0.00563372 -0.000302921
-0.00563372 0.00399864 0.000147037
-0.000302921 0.000147037 0.000239271
0.00381 -0.00293765 8.72965e-05
-0.00293765 0.00454932 3.22646e-05
8.72965e-05 3.22646e-05 0.00275672
2.97157e-05 -0.00010644 8.08098e-06
-0.00010644 0.000684012 -2.1057e-05
8.08098e-06 -2.1057e-05 -9.38846e-05
0.000225797 -0.000524756 6.35011e-06
-0.000524756 0.00068841 -2.76685e-06
6.35011e-06 -2.76685e-06 -0.000157554
0.000360411 -0.00125652 -6.35628e-06
-0.00125652 0.00042807 1.08896e-05
-6.35628e-06 1.08896e-05 -0.000315162
-6.38885e-05 -0.000228005 -1.84293e-06
-0.000228005 0.000396849 1.04247e-05
-1.84293e-06 1.04247e-05 5.79476e-06
0.000320194 -0.000625608 -3.71484e-06
-0.000625608 0.000346925 4.27184e-06
-3.71484e-06 4.27184e-06 -0.000122986
0.00225059 -0.00110065 3.74917e-05
-0.00110065 0.000921759 -2.8777e-05
3.74917e-05 -2.8777e-05 0.000343102
0.00624021 -0.00146123 -1.07442e-05
-0.00146123 0.00332673 4.18105e-06
-1.07442e-05 4.18105e-06 0.00269475
0.00277755 -0.00110103 1.20408e-05
-0.00110103 0.00131838 -4.25762e-06
1.20408e-05 -4.25762e-06 0.000454099
0.00276152 -0.00138558 4.90441e-06
-0.00138558 0.000904203 -1.99041e-05
4.90441e-06 -1.99041e-05 3.33652e-05
0.00283507 -0.00100622 -9.82479e-06
-0.00100622 0.00123014 -8.14917e-06
-9.82479e-06 -8.14917e-06 0.000560378
0.00223016 -0.00117001 6.10661e-07
-0.00117001 0.000717108 -2.2068e-06
6.10661e-07 -2.2068e-06 -9.01409e-05
0.00298084 -0.00139931 -8.3597e-06
-0.00139931 0.000957606 -1.01762e-05
-8.3597e-06 -1.01762e-05 0.000179347
0.00259123 -0.00100824 -1.95994e-06
-0.00100824 0.000503175 -6.80786e-06
-1.95994e-06 -6.80786e-06 1.13659e-05
0.00308905 -0.00131771 -1.11599e-05
-0.00131771 0.000996108 -1.48468e-06
-1.11599e-05 -1.48468e-06 0.000317472
0.00291697 -0.0013287 -4.29302e-06
-0.0013287 0.000925436 -4.61546e-07
-4.29302e-06 -4.61546e-07 0.000208811
0.00229482 -0.00114247 8.41574e-06
-0.00114247 0.00078857 -7.41513e-06
8.41574e-06 -7.41513e-06 0.000126666
0.00189555 -0.00107891 3.7391e-06
-0.00107891 0.000548098 -1.26171e-06
3.7391e-06 -1.26171e-06 -0.000101536
0.00195089 -0.000995378 8.10099e-06
-0.000995378 0.000634207 -2.47267e-06
8.10099e-06 -2.47267e-06 -1.5483e-05
0.00162359 -0.000747124 1.11074e-05
-0.000747124 0.000561189 6.07689e-07
1.11074e-05 6.07689e-07 2.58687e-05
0.00190511 -0.000889857 -1.28371e-06
-0.000889857 0.000690852 -1.87984e-06
-1.28371e-06 -1.87984e-06 0.000109428
0.00187771 -0.000946872 1.07582e-06
-0.000946872 0.000601935 6.71711e-06
1.07582e-06 6.71711e-06 6.0071e-06
0.00181902 -0.000273443 -8.74174e-07
-0.000273443 0.000824105 -5.16817e-06
-8.74174e-07 -5.16817e-06 0.00053377
0.000986447 -0.000351541 -5.07411e-06
-0.000351541 0.000240388 3.11587e-06
-5.07411e-06 3.11587e-06 -0.000100015
0.0010042 -0.000596188 -7.36581e-06
-0.000596188 0.000188541 -6.18821e-06
-7.36581e-06 -6.18821e-06 -0.000271308
0.000494385 -0.000110313 8.84284e-07
-0.000110313 6.17821e-05 2.14782e-06
8.84284e-07 2.14782e-06 -0.00020378
0.00058821 -0.000214507 -5.65363e-07
-0.000214507 0.000144178 1.41986e-06
-5.65363e-07 1.41986e-06 -0.000165172
0.000485068 -0.00026174 3.09208e-06
-0.00026174 2.85353e-05 -1.69026e-07
3.09208e-06 -1.69026e-07 -0.000303609
0.000302119 -6.33447e-05 -1.29037e-05
-6.33447e-05 -0.00010368 1.96506e-05
-1.29037e-05 1.96506e-05 -0.000173646
0.000712928 -0.000118052 3.76562e-08
-0.000118052 0.000213648 5.9641e-07
3.76562e-08 5.9641e-07 -4.37456e-06
0.00177384 -0.000322238 -6.49116e-07
-0.000322238 0.000950331 4.07e-06
-6.49116e-07 4.07e-06 0.000631725
0.00107185 -0.000137492 1.48399e-07
-0.000137492 0.000417173 -8.16012e-06
1.48399e-07 -8.16012e-06 0.000249285
0.000403296 -2.19215e-05 -4.70857e-07
-2.19215e-05 -2.72502e-05 -5.36828e-07
-4.70857e-07 -5.36828e-07 -8.77733e-05
0.00348275 0.000135608 -5.14511e-05
0.000135608 0.00198863 6.85612e-06
-5.14511e-05 6.85612e-06 0.00198012
0.000462712 -3.50481e-05 3.81608e-06
-3.50481e-05 5.03718e-06 -1.18993e-05
3.81608e-06 -1.18993e-05 -4.33506e-05
0.00317124 0.000101417 7.44543e-06
0.000101417 0.001773 8.71706e-07
7.44543e-06 8.71706e-07 0.00177327
0.00291587 7.22648e-05 4.64269e-05
7.22648e-05 0.00159736 -6.1266e-06
4.64269e-05 -6.1266e-06 0.00160399
0.00240026 7.35989e-05 1.02922e-05
7.35989e-05 0.00151052 -9.61385e-06
1.02922e-05 -9.61385e-06 0.00112948
0.00221861 0.00023401 9.6246e-06
0.00023401 0.00134716 -1.7893e-05
9.6246e-06 -1.7893e-05 0.0010304
0.0005568 6.79176e-05 5.73927e-06
6.79176e-05 9.27232e-05 -7.45519e-06
5.73927e-06 -7.45519e-06 -3.444e-05
0.000771207 0.000164281 -3.70001e-07
0.000164281 0.000293554 1.37664e-06
-3.70001e-07 1.37664e-06 9.52541e-05
0.00042898 -1.61562e-05 5.4491e-06
-1.61562e-05 -1.70927e-05 -9.09153e-06
5.4491e-06 -9.09153e-06 -5.41311e-05
0.000546885 8.16717e-05 3.28108e-08
8.16717e-05 9.70625e-05 -3.66126e-07
3.28108e-08 -3.66126e-07 -1.72039e-05
0.000696247 7.35885e-05 -6.25031e-06
7.35885e-05 0.000220884 -3.99902e-06
-6.25031e-06 -3.99902e-06 5.33372e-05
0.002621 -5.03279e-05 -3.20958e-05
-5.03279e-05 0.00140678 -6.23383e-06
-3.20958e-05 -6.23383e-06 0.00141665
0.000429358 5.85396e-06 -1.93299e-06
5.85396e-06 -1.96752e-05 -2.6249e-07
-1.93299e-06 -2.6249e-07 -4.95771e-05
0.000527839 7.97731e-05 -5.24393e-06
7.97731e-05 8.62748e-05 1.50651e-06
-5.24393e-06 1.50651e-06 -1.70479e-05
0.00234543 -3.22035e-05 -5.6278e-06
-3.22035e-05 0.00122373 3.24178e-07
-5.6278e-06 3.24178e-07 0.00123704
0.000423089 6.52762e-06 -3.62346e-06
6.52762e-06 -2.89692e-05 5.55278e-06
-3.62346e-06 5.55278e-06 -5.0223e-05
0.0021715 -1.43067e-05 1.8838e-05
-1.43067e-05 0.00110908 5.40848e-06
1.8838e-05 5.40848e-06 0.00112476
-0.0024607 0.000983558 -3.5735e-05
0.000983558 0.00249435 -0.000136558
-3.5735e-05 -0.000136558 -0.000226519
0.00396257 -0.000361963 -3.08312e-05
-0.000361963 0.0026795 -6.17701e-05
-3.08312e-05 -6.17701e-05 0.000781521
0.00026314 -0.000453454 5.53333e-05
-0.000453454 0.00416572 -7.08309e-05
5.53333e-05 -7.08309e-05 0.001811
0.000560098 2.20816e-05 2.79962e-06
2.20816e-05 0.000359675 -8.16337e-06
2.79962e-06 -8.16337e-06 -4.95123e-05
-0.000118718 0.000229596 9.93571e-06
0.000229596 -0.00024308 -6.1945e-06
9.93571e-06 -6.1945e-06 -0.00048578
-0.00220604 4.55567e-05 2.58835e-05
4.55567e-05 -0.00172525 -1.58011e-05
2.58835e-05 -1.58011e-05 -0.00191113
-0.00264324 -2.88881e-05 -5.83559e-06
-2.88881e-05 -0.00164857 2.20113e-05
-5.83559e-06 2.20113e-05 -0.00203972
0.00127425 0.000344644 5.93335e-06
0.000344644 0.000574738 -2.48758e-06
5.93335e-06 -2.48758e-06 0.000288393
0.000620871 5.55064e-05 -7.6773e-06
5.55064e-05 0.000191907 -5.74446e-07
-7.6773e-06 -5.74446e-07 -3.46014e-05
0.000132468 0.00012011 -1.02928e-05
0.00012011 -0.00014258 -1.57011e-05
-1.02928e-05 -1.57011e-05 -0.000278691
0.00129608 -2.17045e-06 7.51297e-06
-2.17045e-06 0.000604986 2.20515e-06
7.51297e-06 2.20515e-06 0.000422868
0.000906187 0.000196597 -3.24236e-06
0.000196597 0.000395557 -6.61095e-06
-3.24236e-06 -6.61095e-06 0.000278938
0.00286362 0.000224487 -4.62099e-06
0.000224487 0.00184483 -1.32017e-05
-4.62099e-06 -1.32017e-05 0.00150201
0.00920196 0.00264294 0.000786094
0.00264294 0.00609837 0.000621163
0.000786094 0.000621163 0.000759579
0.00404141 0.00155847 2.65295e-05
0.00155847 0.00132488 8.16628e-05
2.65295e-05 8.16628e-05 -0.00139035
0.00740208 -0.000339121 0.000162678
-0.000339121 0.00015152 -2.81986e-06
0.000162678 -2.81986e-06 -0.00158303
0.0149767 -0.000797491 -0.000297521
-0.000797491 0.00235266 -0.000133432
-0.000297521 -0.000133432 0.00381629
0.00281464 0.000796085 0.000144505
0.000796085 -0.00118891 0.000474891
0.000144505 0.000474891 -0.00735882
0.00316444 -0.00461573 -8.67038e-05
-0.00461573 0.00155358 6.935e-06
-8.67038e-05 6.935e-06 0.00136324
0.00388628 -0.00218753 -0.000353003
-0.00218753 0.00565523 0.000118109
-0.000353003 0.000118109 -0.000972218
-0.000684631 -0.00171787 -0.000106511
-0.00171787 0.00100876 0.000139301
-0.000106511 0.000139301 4.23065e-05
0.0119741 -0.00032075 -0.000341949
-0.00032075 0.00881823 -1.01385e-06
-0.000341949 -1.01385e-06 0.000990848
0.00961068 -0.00320656 0.000160075
-0.00320656 0.00591217 0.00027109
0.000160075 0.00027109 -0.00135826
0.0269472 -0.00600333 0.000157095
-0.00600333 0.00916765 -0.000969573
0.000157095 -0.000969573 0.00256093
-0.000271888 0.000418333 -0.000194597
0.000418333 0.0029609 0.000120282
-0.000194597 0.000120282 0.000918353
0.00530566 0.00225864 -0.000293825
0.00225864 0.00667201 -0.000103687
-0.000293825 -0.000103687 -0.000226355
0.0284921 -0.0101375 0.000508035
-0.0101375 0.0161231 -0.00107663
0.000508035 -0.00107663 0.00634998
0.0328473 -0.0151511 8.26265e-05
-0.0151511 0.0189071 -8.13008e-05
8.26265e-05 -8.13008e-05 0.00861994
-0.00013976 0.000367096 3.25064e-05
0.000367096 6.26187e-05 2.03137e-05
3.25064e-05 2.03137e-05 -0.000433155
-0.000158993 7.76222e-05 1.22712e-05
7.76222e-05 0.00021407 1.85177e-06
1.22712e-05 1.85177e-06 -0.000262773
0.000954055 0.000194299 -2.69663e-05
0.000194299 0.000499968 -1.5257e-05
-2.69663e-05 -1.5257e-05 0.00032776
0.00350484 -0.00162028 0.000105048
-0.00162028 0.00283187 -4.56623e-06
0.000105048 -4.56623e-06 0.000747006
-0.00122702 -0.000196313 0.000111969
-0.000196313 0.000680563 1.2458e-05
0.000111969 1.2458e-05 -0.000165972
-0.00024334 0.000108348 -1.48882e-05
0.000108348 3.08793e-05 6.38822e-06
-1.48882e-05 6.38822e-06 -0.000302995
-0.000353374 -0.000265701 1.41083e-05
-0.000265701 0.000551403 -9.30305e-06
1.41083e-05 -9.30305e-06 -0.000201016
-0.000286928 0.000150078 -8.24162e-06
0.000150078 0.000115192 1.52512e-06
-8.24162e-06 1.52512e-06 -0.000248444
-0.000531815 0.000339684 2.82322e-05
0.000339684 0.000421513 8.18178e-06
2.82322e-05 8.18178e-06 -0.000303927
-0.00246508 0.000113837 0.00017457
0.000113837 0.00156237 -7.89713e-05
0.00017457 -7.89713e-05 -0.000699084
0.0018845 0.000938053 5.35452e-05
0.000938053 0.001033 5.20633e-05
5.35452e-05 5.20633e-05 0.000507683
0.00151561 0.00120418 -0.000122412
0.00120418 0.00197843 -0.000129579
-0.000122412 -0.000129579 4.04049e-05
0.000178006 -0.000341732 0.000310685
-0.000341732 0.00175477 0.000118532
0.000310685 0.000118532 -0.00386231
-0.00324034 0.00059761 -0.000189246
0.00059761 0.0036982 -3.39626e-06
-0.000189246 -3.39626e-06 0.000523276
0.00474238 -0.000485176 -0.000120975
-0.000485176 0.00283169 3.38241e-06
-0.000120975 3.38241e-06 0.00176438
0.000429922 0.000672278 7.28874e-05
0.000672278 0.00131483 2.03345e-05
7.28874e-05 2.03345e-05 -0.000282054
0.00049047 0.000336608 -0.000107729
0.000336608 0.00320621 0.000114279
-0.000107729 0.000114279 0.00111174
-0.00121692 -0.000241664 -3.17699e-05
-0.000241664 0.0032414 -6.58611e-05
-3.17699e-05 -6.58611e-05 0.000701975
0.0147307 -0.00611873 0.000403563
-0.00611873 0.0094972 -0.000249955
0.000403563 -0.000249955 0.000917426
0.0288687 0.0081232 -0.000682386
0.0081232 0.0158566 -0.00033793
-0.000682386 -0.00033793 0.00590642
0.00661922 -0.00284327 -0.00053916
-0.00284327 0.00373095 0.000354374
-0.00053916 0.000354374 -0.00113961
0.0217689 0.0193296 0.00315544
0.0193296 0.0160987 -0.00188023
0.00315544 -0.00188023 0.00488419
0.000170619 -0.00082643 4.65014e-05
-0.00082643 0.00163047 -1.21043e-05
4.65014e-05 -1.21043e-05 -4.53264e-05
3.69239e-05 -0.000907782 9.10274e-05
-0.000907782 0.00111138 6.65463e-06
9.10274e-05 6.65463e-06 -0.00436943
0.00645434 0.00424419 -0.00166548
0.00424419 0.0114878 0.00022809
-0.00166548 0.00022809 0.00313488
0.000215997 -0.00166456 5.28195e-05
-0.00166456 0.00210648 2.90274e-05
5.28195e-05 2.90274e-05 0.000743071
0.0276254 0.00945351 0.000509714
0.00945351 0.0116914 0.000205564
0.000509714 0.000205564 0.00291977
0.00603598 -0.00828612 0.000407739
-0.00828612 0.0029724 -0.00010909
0.000407739 -0.00010909 -0.0017964
-0.000386894 -0.00215287 9.30283e-06
-0.00215287 0.000527533 4.93634e-05
9.30283e-06 4.93634e-05 -0.000983174
-0.00175499 -0.00174933 0.000213311
-0.00174933 0.00951065 -0.00012588
0.000213311 -0.00012588 0.00387239
0.0215949 0.0102454 -0.00235633
0.0102454 0.00945904 0.000389467
-0.00235633 0.000389467 0.00223253
0.00497273 -0.00702947 -0.000786429
-0.00702947 -0.00249445 0.000263692
-0.000786429 0.000263692 -0.00396708
-0.00100664 -0.00287464 0.000206887
-0.00287464 -0.000274143 -0.000167571
0.000206887 -0.000167571 0.000619151
0.00167336 -0.000731892 -0.000131244
-0.000731892 0.00132613 4.96079e-05
-0.000131244 4.96079e-05 0.000515971
0.000194859 -0.00101489 -1.42557e-05
-0.00101489 0.000413127 1.20093e-05
-1.42557e-05 1.20093e-05 -0.000324448
0.000452822 -0.00109094 1.27988e-05
-0.00109094 4.52448e-05 -2.94403e-05
1.27988e-05 -2.94403e-05 -0.000544432
-0.000707084 -0.000365716 9.77973e-06
-0.000365716 -3.84205e-05 4.2126e-06
9.77973e-06 4.2126e-06 -0.000464678
0.000787254 -0.000907355 6.65297e-06
-0.000907355 0.000169303 -1.14683e-06
6.65297e-06 -1.14683e-06 -0.000363716
0.00324472 -0.00148346 8.50761e-06
-0.00148346 0.00093207 -1.55883e-05
8.50761e-06 -1.55883e-05 0.000360528
0.00442372 -0.00136402 -3.45751e-05
-0.00136402 0.00214152 7.67927e-06
-3.45751e-05 7.67927e-06 0.00126734
0.00220169 -0.00127456 -4.96374e-06
-0.00127456 0.000587671 -7.66925e-07
-4.96374e-06 -7.66925e-07 -0.000248567
0.00292892 -0.00149444 3.40525e-06
-0.00149444 0.000691803 -8.25724e-06
3.40525e-06 -8.25724e-06 1.66542e-06
0.00319073 -0.00131465 8.16953e-06
-0.00131465 0.00123585 4.57795e-06
8.16953e-06 4.57795e-06 0.000401325
0.00270987 -0.00134911 3.50294e-06
-0.00134911 0.000804598 -3.66503e-06
3.50294e-06 -3.66503e-06 5.09978e-05
0.00283117 -0.00108133 -3.00716e-06
-0.00108133 0.000591115 -6.52293e-06
-3.00716e-06 -6.52293e-06 9.83419e-05
0.00208067 -0.000651628 -1.10672e-06
-0.000651628 3.72232e-05 -2.55912e-06
-1.10672e-06 -2.55912e-06 -0.000223553
0.00213761 -0.000966182 7.56164e-07
-0.000966182 0.000171105 -3.81192e-06
7.56164e-07 -3.81192e-06 -0.000309939
0.0025235 -0.00101142 3.86694e-06
-0.00101142 0.000447538 -2.21914e-06
3.86694e-06 -2.21914e-06 -4.48763e-05
0.00296192 -0.00118315 -3.91911e-06
-0.00118315 0.000977232 -3.24208e-06
-3.91911e-06 -3.24208e-06 0.000361553
0.00305773 -0.00131255 -4.32323e-06
-0.00131255 0.000983727 -3.57576e-07
-4.32323e-06 -3.57576e-07 0.000300795
0.00273317 -0.00130316 1.05753e-05
-0.00130316 0.000817023 -2.99084e-06
1.05753e-05 -2.99084e-06 0.000102758
0.00208268 -0.00101254 7.30872e-06
-0.00101254 0.000708141 -8.60455e-06
7.30872e-06 -8.60455e-06 7.72784e-05
0.00201959 -0.00110296 1.93712e-06
-0.00110296 0.000634278 -8.61961e-07
1.93712e-06 -8.61961e-07 -1.6514e-05
0.00154536 -0.00101139 4.07549e-06
-0.00101139 0.0003532 2.70861e-06
4.07549e-06 2.70861e-06 -0.000269203
0.00241727 -0.000498836 3.50772e-06
-0.000498836 0.00112562 7.99643e-06
3.50772e-06 7.99643e-06 0.000751983
0.0014821 -0.000712982 6.87417e-07
-0.000712982 0.000510208 2.39918e-06
6.87417e-07 2.39918e-06 -8.3472e-06
0.00220851 -0.000921167 -7.60532e-06
-0.000921167 0.000891934 8.21085e-06
-7.60532e-06 8.21085e-06 0.000304042
0.000456882 -0.000222854 -4.65348e-06
-0.000222854 -3.84347e-05 -5.73294e-06
-4.65348e-06 -5.73294e-06 -0.000282429
0.000598135 -0.000259242 -3.45204e-06
-0.000259242 6.38165e-05 -4.83623e-06
-3.45204e-06 -4.83623e-06 -0.000235077
0.000729617 -0.000276713 -4.17762e-07
-0.000276713 0.000110077 -1.24433e-06
-4.17762e-07 -1.24433e-06 -0.000217419
0.00212977 -5.0693e-05 -7.00643e-05
-5.0693e-05 0.00108248 1.33154e-05
-7.00643e-05 1.33154e-05 0.0010014
0.00051931 -0.000208761 2.82692e-06
-0.000208761 6.62826e-05 1.31655e-06
2.82692e-06 1.31655e-06 -0.000191795
0.00101745 -0.000316294 3.31703e-06
-0.000316294 0.000418953 5.26955e-06
3.31703e-06 5.26955e-06 9.90558e-05
0.000808203 3.56151e-06 -8.16156e-05
3.56151e-06 0.000237569 9.07564e-06
-8.16156e-05 9.07564e-06 0.000222933
0.00126597 -4.84902e-05 -2.48382e-05
-4.84902e-05 0.000525576 -6.62395e-07
-2.48382e-05 -6.62395e-07 0.000455145
0.00126491 -0.000148267 1.32559e-06
-0.000148267 0.00055123 -6.39263e-06
1.32559e-06 -6.39263e-06 0.000340309
0.000554927 -4.16807e-05 7.13428e-06
-4.16807e-05 6.31939e-05 -1.391e-05
7.13428e-06 -1.391e-05 3.03613e-06
0.0037012 0.000135216 1.3239e-05
0.000135216 0.00213111 1.08235e-06
1.3239e-05 1.08235e-06 0.0021233
0.00332271 0.000100821 5.58915e-05
0.000100821 0.00187152 -6.47873e-06
5.58915e-05 -6.47873e-06 0.00187205
-0.000341533 0.000133999 3.52898e-06
0.000133999 -0.000439855 1.04548e-05
3.52898e-06 1.04548e-05 -0.000718439
0.00224906 0.000228427 7.24543e-06
0.000228427 0.00138026 -1.77744e-05
7.24543e-06 -1.77744e-05 0.00100399
-0.000635412 6.53347e-05 4.74272e-06
6.53347e-05 -0.000439317 -1.48016e-07
4.74272e-06 -1.48016e-07 -0.000797184
0.00068961 0.000106566 6.34609e-07
0.000106566 0.000186386 -1.15816e-05
6.34609e-07 -1.15816e-05 3.01715e-05
0.000541258 0.000148712 3.45867e-06
0.000148712 0.000199023 -5.73096e-07
3.45867e-06 -5.73096e-07 -6.72913e-05
0.000375492 1.54351e-05 -1.86558e-06
1.54351e-05 -3.95693e-05 -1.25866e-05
-1.86558e-06 -1.25866e-05 -8.66898e-05
0.000534701 7.89775e-05 -4.39445e-08
7.89775e-05 8.88997e-05 -1.49015e-07
-4.39445e-08 -1.49015e-07 -4.27082e-05
0.000767884 9.05752e-05 -5.78766e-06
9.05752e-05 0.00031571 4.55768e-06
-5.78766e-06 4.55768e-06 0.000107438
0.00287616 -7.01589e-05 -4.21981e-05
-7.01589e-05 0.00157855 -6.26831e-06
-4.21981e-05 -6.26831e-06 0.00158517
0.000383328 1.07638e-05 -6.15557e-07
1.07638e-05 -4.33409e-05 2.66792e-08
-6.15557e-07 2.66792e-08 -8.12293e-05
0.00042427 7.97445e-05 -2.95526e-06
7.97445e-05 1.8936e-05 4.40042e-06
-2.95526e-06 4.40042e-06 -9.47141e-05
0.00253747 -5.17989e-05 -7.80437e-06
-5.17989e-05 0.00135229 5.12212e-07
-7.80437e-06 5.12212e-07 0.00136212
0.000337205 -1.70621e-05 -7.81611e-06
-1.70621e-05 -7.95667e-05 6.96781e-06
-7.81611e-06 6.96781e-06 -0.000108422
0.00228039 -3.049e-05 2.38687e-05
-3.049e-05 0.0011811 5.58274e-06
2.38687e-05 5.58274e-06 0.00119508
0.00693416 0.00149329 0.000615477
0.00149329 0.00540856 0.000152597
0.000615477 0.000152597 0.0016642
-0.00226674 0.000871238 -2.04711e-05
0.000871238 0.00214217 -1.41878e-05
-2.04711e-05 -1.41878e-05 -0.000889908
0.000529941 0.00106014 -6.94006e-06
0.00106014 0.00279143 -2.1593e-05
-6.94006e-06 -2.1593e-05 0.000254496
-0.000462886 0.000291731 -1.1511e-05
0.000291731 -0.000594808 1.43198e-05
-1.1511e-05 1.43198e-05 -0.000897898
-0.000417616 5.4103e-05 -1.34058e-05
5.4103e-05 -0.000352012 2.84557e-05
-1.34058e-05 2.84557e-05 -0.000698111
0.000360904 0.000146224 -1.74905e-05
0.000146224 4.79166e-05 -1.22504e-05
-1.74905e-05 -1.22504e-05 -0.000156669
0.00186907 0.000164689 1.03736e-05
0.000164689 0.00106124 1.18451e-07
1.03736e-05 1.18451e-07 0.000784235
0.000842753 0.000264577 -1.99497e-07
0.000264577 0.000178007 -1.13104e-05
-1.99497e-07 -1.13104e-05 -3.14611e-05
0.00270925 0.000486909 -2.13153e-05
0.000486909 0.00148548 -8.79498e-06
-2.13153e-05 -8.79498e-06 0.00125691
0.00126537 0.00037845 1.02283e-05
0.00037845 0.00048798 -2.13609e-05
1.02283e-05 -2.13609e-05 0.000116991
-0.00218061 0.00016861 -1.25816e-05
0.00016861 -0.00112739 2.7042e-06
-1.25816e-05 2.7042e-06 -0.00154308
-0.000618647 1.16136e-05 -3.62648e-06
1.16136e-05 -0.000558528 -1.76243e-05
-3.62648e-06 -1.76243e-05 -0.000756389
-0.000378868 6.42063e-05 -1.16293e-05
6.42063e-05 -0.000501874 -1.52691e-05
-1.16293e-05 -1.52691e-05 -0.000555991
-0.00104679 4.63391e-05 -7.40479e-06
4.63391e-05 -0.000568107 2.16208e-06
-7.40479e-06 2.16208e-06 -0.000917637
6.44881e-05 0.000355814 -2.97542e-06
0.000355814 0.000247205 1.20315e-05
-2.97542e-06 1.20315e-05 -0.000351617
0.0099133 -0.00796629 -0.000122468
-0.00796629 0.0112409 0.000198392
-0.000122468 0.000198392 0.000820746
0.00951693 0.00321084 0.000281747
0.00321084 0.0044703 0.000206438
0.000281747 0.000206438 -0.00167432
0.00455012 0.000891495 5.64406e-05
0.000891495 0.00216299 -7.16214e-05
5.64406e-05 -7.16214e-05 -0.000899944
0.0388321 -0.00938276 -0.00136985
-0.00938276 0.0133411 -0.000494008
-0.00136985 -0.000494008 0.00554303
0.0062981 -0.00137228 0.000353482
-0.00137228 0.0053961 0.000636982
0.000353482 0.000636982 0.000110504
0.00158235 -0.00111768 -0.000235932
-0.00111768 0.00595891 0.000179328
-0.000235932 0.000179328 -0.00275942
0.000301166 -0.00223661 5.21913e-05
-0.00223661 0.00218218 7.99721e-05
5.21913e-05 7.99721e-05 0.000387886
-0.00135939 -0.000116714 0.000209052
-0.000116714 0.00194299 4.3342e-05
0.000209052 4.3342e-05 0.000510383
0.0291814 -0.0171507 0.000537326
-0.0171507 0.0178871 0.000558463
0.000537326 0.000558463 0.0069501
0.00413948 0.00261018 -0.000216391
0.00261018 0.0060217 -0.000135854
-0.000216391 -0.000135854 -0.00178017
0.0126832 -0.00543788 -0.000167577
-0.00543788 0.0100827 0.000183858
-0.000167577 0.000183858 0.000268123
-0.000429796 0.00115368 5.97492e-06
0.00115368 0.00167214 1.26183e-05
5.97492e-06 1.26183e-05 0.000554134
0.00627697 0.00621491 -0.000229898
0.00621491 0.00294944 1.67042e-06
-0.000229898 1.67042e-06 -0.00132965
0.0260719 -0.00894732 -0.0012053
-0.00894732 0.011043 -0.000374883
-0.0012053 -0.000374883 0.00182869
0.00131887 0.000883209 2.08781e-05
0.000883209 0.000455649 2.16071e-05
2.08781e-05 2.16071e-05 0.000202659
0.000972355 0.000417902 8.4563e-06
0.000417902 0.00074839 4.68333e-06
8.4563e-06 4.68333e-06 0.000223015
-0.000345458 5.50549e-05 -3.8111e-05
5.50549e-05 0.000102664 -7.18976e-07
-3.8111e-05 -7.18976e-07 -0.000376037
-0.00238727 -0.000267509 -0.000148501
-0.000267509 0.00143399 -3.24651e-05
-0.000148501 -3.24651e-05 -0.000682838
0.00145299 0.000410623 -3.99956e-05
0.000410623 0.00102075 -1.01957e-05
-3.99956e-05 -1.01957e-05 0.00046344
-0.000243203 0.000225613 -6.76168e-06
0.000225613 0.000148697 3.51683e-06
-6.76168e-06 3.51683e-06 -0.000276586
0.00145679 0.000896059 7.61592e-06
0.000896059 0.000781689 1.86551e-07
7.61592e-06 1.86551e-07 0.000258505
-5.3707e-05 0.00100234 -3.41249e-06
0.00100234 0.00124818 -5.12723e-05
-3.41249e-06 -5.12723e-05 -0.000438838
0.00252472 0.00252908 0.000119122
0.00252908 0.00108625 2.9575e-05
0.000119122 2.9575e-05 -0.000358142
-0.00688982 0.00120904 0.000593632
0.00120904 0.00650894 -4.12673e-05
0.000593632 -4.12673e-05 -0.00286392
0.00195536 -0.000742859 -3.2753e-05
-0.000742859 0.00260095 9.97392e-05
-3.2753e-05 9.97392e-05 -0.00123986
-0.00310742 9.39479e-05 -4.30611e-05
9.39479e-05 0.00287658 0.000110954
-4.30611e-05 0.000110954 -0.000102916
-0.00126318 -0.000510346 -6.53981e-05
-0.000510346 0.00088898 1.30688e-05
-6.53981e-05 1.30688e-05 -0.000812441
-0.00176089 -0.00111588 -5.5566e-05
-0.00111588 0.000476105 4.14389e-05
-5.5566e-05 4.14389e-05 0.000216839
-0.00170949 -0.00120064 -0.000291052
-0.00120064 0.00151288 0.00019894
-0.000291052 0.00019894 -0.00440825
-0.00196206 -0.00622122 0.000319792
-0.00622122 0.00259884 -0.000185316
0.000319792 -0.000185316 -0.00484216
0.0195678 0.00756641 0.000966823
0.00756641 0.00615746 -0.000416095
0.000966823 -0.000416095 -0.00215474
0.0206242 0.00885918 -0.0004276
0.00885918 0.0134801 0.000560763
-0.0004276 0.000560763 0.00343774
0.000710568 -0.00159984 -4.59492e-05
-0.00159984 0.00171963 1.15749e-05
-4.59492e-05 1.15749e-05 0.000282892
0.005304 0.00217042 0.000347483
0.00217042 0.0118401 -7.04781e-05
0.000347483 -7.04781e-05 0.00432069
0.00750962 0.00701428 3.26647e-05
0.00701428 0.00323221 0.000112306
3.26647e-05 0.000112306 -0.00271447
0.00232169 -0.00474638 7.80976e-05
-0.00474638 0.00094707 -6.18021e-05
7.80976e-05 -6.18021e-05 0.000949472
0.0127157 -0.00762968 -1.07858e-06
-0.00762968 -0.000165649 1.63641e-05
-1.07858e-06 1.63641e-05 -0.00147042
0.00348409 -0.00278471 2.54722e-05
-0.00278471 0.00162334 2.09071e-05
2.54722e-05 2.09071e-05 0.000853598
-0.00487411 0.00302863 -0.00126354
0.00302863 -3.94258e-05 0.000175406
-0.00126354 0.000175406 -0.00598975
0.0159394 -0.00488521 -0.000340968
-0.00488521 -0.000733554 7.89913e-05
-0.000340968 7.89913e-05 -0.000767767
0.00455142 -0.00455643 0.000134912
-0.00455643 -0.000242812 -9.92637e-05
0.000134912 -9.92637e-05 0.0012039
0.000435255 -0.000828281 2.65449e-06
-0.000828281 0.000662237 -3.95033e-06
2.65449e-06 -3.95033e-06 -9.32482e-05
0.00226988 -0.00153262 3.23347e-05
-0.00153262 0.000830352 -1.24345e-05
3.23347e-05 -1.24345e-05 0.000259107
0.00187529 -0.00127042 8.34238e-06
-0.00127042 0.000215962 -1.44628e-05
8.34238e-06 -1.44628e-05 -0.000246926
-0.000208022 -0.000785274 -6.57284e-06
-0.000785274 -0.00034487 1.85388e-05
-6.57284e-06 1.85388e-05 -0.000849293
0.00221614 -0.00137436 -8.47859e-06
-0.00137436 0.000392702 -3.319e-07
-8.47859e-06 -3.319e-07 -0.000178445
0.00349931 -0.00151451 4.8265e-06
-0.00151451 0.000838664 -3.97401e-06
4.8265e-06 -3.97401e-06 0.000296184
0.00142881 -0.00113379 -9.86976e-06
-0.00113379 0.000148076 9.51406e-06
-9.86976e-06 9.51406e-06 -0.000652569
0.00272837 -0.00145957 -3.64281e-07
-0.00145957 0.000588788 3.63604e-06
-3.64281e-07 3.63604e-06 -9.98018e-05
0.00268446 -0.00111399 -1.01053e-06
-0.00111399 0.000313649 -2.25047e-06
-1.01053e-06 -2.25047e-06 -7.70181e-05
0.00225206 -0.00127629 1.02177e-05
-0.00127629 0.000545251 3.97265e-06
1.02177e-05 3.97265e-06 -0.000180406
0.00245113 -0.00102201 -2.15159e-06
-0.00102201 0.000379727 2.31786e-06
-2.15159e-06 2.31786e-06 -9.43198e-05
0.00235385 -0.000721675 5.21186e-07
-0.000721675 9.54589e-05 -8.44986e-07
5.21186e-07 -8.44986e-07 -0.000122802
0.00234679 -0.000664323 -2.56644e-06
-0.000664323 0.000199642 4.17209e-07
-2.56644e-06 4.17209e-07 8.56843e-06
0.0019449 -0.000654268 -3.93085e-06
-0.000654268 -1.70851e-05 -1.83726e-06
-3.93085e-06 -1.83726e-06 -0.000296378
0.00209449 -0.000647887 1.25311e-06
-0.000647887 3.64568e-05 2.98725e-06
1.25311e-06 2.98725e-06 -0.00022015
0.00198333 -0.000837466 -4.12313e-06
-0.000837466 0.000144164 -5.06331e-06
-4.12313e-06 -5.06331e-06 -0.000281235
0.00230109 -0.0009739 3.2948e-06
-0.0009739 0.000297736 5.56654e-07
3.2948e-06 5.56654e-07 -0.000179857
0.00247031 -0.00100945 2.69772e-06
-0.00100945 0.000410153 4.443e-06
2.69772e-06 4.443e-06 -8.04276e-05
0.00225164 -0.00102531 -3.02254e-07
-0.00102531 0.000575096 -6.46498e-06
-3.02254e-07 -6.46498e-06 -8.77716e-06
0.00266918 -0.00115564 1.80885e-06
-0.00115564 0.000790558 -9.77582e-07
1.80885e-06 -9.77582e-07 0.000177148
0.00308344 -0.00131307 3.92338e-06
-0.00131307 0.00100602 -4.36297e-07
3.92338e-06 -4.36297e-07 0.000317685
0.00165231 -0.00070043 -5.14577e-06
-0.00070043 0.000487589 -6.15994e-07
-5.14577e-06 -6.15994e-07 -4.00234e-06
0.00212417 -0.00100311 1.12087e-06
-0.00100311 0.000738203 5.20322e-07
1.12087e-06 5.20322e-07 0.000114847
0.00163747 -0.00104874 1.90181e-07
-0.00104874 0.00041808 4.82423e-06
1.90181e-07 4.82423e-06 -0.000217984
0.000646055 -0.000263198 -5.66285e-06
-0.000263198 5.78219e-05 -3.19152e-06
-5.66285e-06 -3.19152e-06 -0.000198918
0.00115377 -0.000467424 4.84719e-06
-0.000467424 0.00032274 6.30972e-07
4.84719e-06 6.30972e-07 -4.6685e-05
0.000859362 -0.000635993 -6.02601e-06
-0.000635993 0.000156651 6.98215e-06
-6.02601e-06 6.98215e-06 -0.000339627
0.000456761 -0.000140901 -2.14616e-05
-0.000140901 -5.21811e-05 1.61978e-05
-2.14616e-05 1.61978e-05 -0.000164572
0.000798974 -0.000263866 -1.90551e-06
-0.000263866 0.000211618 7.90822e-07
-1.90551e-06 7.90822e-07 -6.1352e-05
-0.000518074 -0.000284281 -4.28853e-06
-0.000284281 -0.000643804 -1.7229e-06
-4.28853e-06 -1.7229e-06 -0.000945518
0.00484791 0.000333801 3.13078e-05
0.000333801 0.0029585 1.18573e-05
3.13078e-05 1.18573e-05 0.00288638
0.000429186 -0.000107624 8.09269e-07
-0.000107624 -3.92002e-05 -3.24447e-07
8.09269e-07 -3.24447e-07 -0.000139447
0.001338 -0.000245366 2.5433e-06
-0.000245366 0.000578444 -6.06772e-07
2.5433e-06 -6.06772e-07 0.000326303
0.00410129 0.000150511 1.18451e-05
0.000150511 0.00240117 7.90176e-07
1.18451e-05 7.90176e-07 0.00238922
0.000696214 -7.06355e-05 1.14729e-05
-7.06355e-05 0.000150458 -1.56751e-05
1.14729e-05 -1.56751e-05 6.93099e-05
0.0037015 0.000114189 8.10423e-05
0.000114189 0.0021261 -7.83892e-06
8.10423e-05 -7.83892e-06 0.00212364
0.00234702 0.000464364 2.33796e-06
0.000464364 0.00113894 6.9167e-06
2.33796e-06 6.9167e-06 0.00083436
0.000124261 0.000210387 1.67059e-06
0.000210387 -0.000142361 1.38416e-06
1.67059e-06 1.38416e-06 -0.000442711
0.00129832 0.00061215 -6.59619e-06
0.00061215 0.000690824 -3.82573e-06
-6.59619e-06 -3.82573e-06 0.000323322
0.00135404 0.000209745 -1.25406e-06
0.000209745 0.000609159 -1.30743e-05
-1.25406e-06 -1.30743e-05 0.000413887
0.000940058 0.000169897 4.34703e-08
0.000169897 0.000558714 3.91337e-07
4.34703e-08 3.91337e-07 0.000167448
-0.000291185 0.000108827 -2.67276e-06
0.000108827 -0.000192056 7.05863e-06
-2.67276e-06 7.05863e-06 -0.000579874
0.000584685 1.02617e-05 -3.84717e-06
1.02617e-05 0.000105088 -1.51036e-05
-3.84717e-06 -1.51036e-05 4.58358e-05
0.000622319 8.14002e-05 5.55199e-07
8.14002e-05 0.000147126 4.66597e-07
5.55199e-07 4.66597e-07 -6.70411e-06
-0.000389629 7.16712e-05 -5.38202e-06
7.16712e-05 -0.000424453 1.86441e-05
-5.38202e-06 1.86441e-05 -0.0006788
0.00311201 -8.81473e-05 -5.49492e-05
-8.81473e-05 0.00173958 -7.02827e-06
-5.49492e-05 -7.02827e-06 0.00174325
0.000390757 -2.96554e-05 1.89515e-06
-2.96554e-05 -2.68359e-05 -4.25028e-07
1.89515e-06 -4.25028e-07 -7.46219e-05
0.00055498 6.59901e-05 -4.49132e-06
6.59901e-05 0.000112683 7.66349e-06
-4.49132e-06 7.66349e-06 -2.18146e-05
0.00284541 -7.30531e-05 -9.25196e-06
-7.30531e-05 0.0015592 7.23818e-07
-9.25196e-06 7.23818e-07 0.00156479
0.000399369 2.12563e-05 -1.07972e-06
2.12563e-05 -3.3854e-05 8.71701e-06
-1.07972e-06 8.71701e-06 -7.0639e-05
0.00250796 -5.22023e-05 2.4902e-05
-5.22023e-05 0.00133295 5.88638e-06
2.4902e-05 5.88638e-06 0.00134287
-0.00577049 0.000429333 -0.000424144
0.000429333 0.00598198 7.45177e-05
-0.000424144 7.45177e-05 -0.00276846
0.00666115 0.00128276 6.89988e-05
0.00128276 0.00458498 1.92157e-06
6.89988e-05 1.92157e-06 0.00102072
-0.00129885 0.000898233 0.000199188
0.000898233 0.00215001 9.61095e-05
0.000199188 9.61095e-05 -0.00105971
0.000362558 0.000311852 -1.13962e-05
0.000311852 -3.58941e-05 1.16806e-05
-1.13962e-05 1.16806e-05 -0.000399897
0.00453376 0.00114158 2.66386e-05
0.00114158 0.00252851 3.06552e-05
2.66386e-05 3.06552e-05 0.0019305
0.000344433 0.000296113 -1.56549e-05
0.000296113 0.000271667 9.50631e-06
-1.56549e-05 9.50631e-06 -0.000279993
0.000954337 0.000196794 -1.31627e-05
0.000196794 0.000506691 -1.41845e-05
-1.31627e-05 -1.41845e-05 0.000219987
0.00369285 0.000525669 -4.73108e-06
0.000525669 0.00194931 -9.35156e-06
-4.73108e-06 -9.35156e-06 0.00170187
-0.00220117 2.13198e-05 -1.0099e-05
2.13198e-05 -0.00157114 1.84874e-05
-1.0099e-05 1.84874e-05 -0.00168412
-0.000393182 0.000307168 6.0661e-07
0.000307168 -0.000182641 8.08058e-06
6.0661e-07 8.08058e-06 -0.000536665
8.95866e-05 0.000186916 -8.9708e-06
0.000186916 -0.000114558 -5.42983e-06
-8.9708e-06 -5.42983e-06 -0.000484368
0.000745134 0.000888999 -1.20638e-05
0.000888999 0.000364064 -1.82797e-05
-1.20638e-05 -1.82797e-05 -0.000251973
-0.00120686 0.000678568 -3.4235e-05
0.000678568 -0.00102818 7.03392e-05
-3.4235e-05 7.03392e-05 -0.00126306
0.000540546 4.78183e-05 -1.56675e-05
4.78183e-05 0.000334735 9.30591e-06
-1.56675e-05 9.30591e-06 3.98031e-05
0.00238525 0.000616549 1.81037e-05
0.000616549 0.00154075 -4.39785e-06
1.81037e-05 -4.39785e-06 0.00100356
0.00582621 -0.005004 -0.00305744
-0.005004 0.00383493 -0.000157402
-0.00305744 -0.000157402 -0.0034
0.00375099 -0.00626681 0.000990593
-0.00626681 0.0119694 0.000108543
0.000990593 0.000108543 0.00236367
0.0100566 0.00387576 -0.00111687
0.00387576 0.00393569 -0.000346403
-0.00111687 -0.000346403 -0.00287883
0.022586 -0.0191087 0.00321019
-0.0191087 0.016758 0.00182173
0.00321019 0.00182173 0.0052277
0.0317249 -0.0051494 -0.000158579
-0.0051494 0.0135364 0.000548393
-0.000158579 0.000548393 0.00554269
-0.00258517 0.00162489 -0.000148082
0.00162489 0.00384383 -0.000225448
-0.000148082 -0.000225448 -0.00308396
-0.00113646 0.000147676 -0.000190016
0.000147676 0.00291193 7.58497e-07
-0.000190016 7.58497e-07 0.000686637
0.000406406 0.00126476 8.10585e-05
0.00126476 0.00233528 6.04857e-05
8.10585e-05 6.04857e-05 0.00130455
0.0271703 -0.00780975 -0.000942055
-0.00780975 0.0125793 0.000118006
-0.000942055 0.000118006 0.00369191
-0.00123946 0.00593629 -0.00030364
0.00593629 0.00105038 -4.14772e-05
-0.00030364 -4.14772e-05 -0.00389788
0.00328168 0.0037691 8.40486e-05
0.0037691 0.00137805 -9.07748e-05
8.40486e-05 -9.07748e-05 0.00192678
0.0083661 0.0101618 -0.000978472
0.0101618 -0.00172001 -9.33274e-05
-0.000978472 -9.33274e-05 -0.00330715
0.00444649 0.00184628 4.1123e-05
0.00184628 0.00190231 -1.08073e-05
4.1123e-05 -1.08073e-05 0.00132029
0.00108033 0.00082319 -5.28728e-06
0.00082319 0.000273954 -4.32767e-06
-5.28728e-06 -4.32767e-06 6.0335e-05
-0.000190121 0.000296457 -3.62063e-05
0.000296457 5.44549e-05 -1.59387e-05
-3.62063e-05 -1.59387e-05 -0.00046606
-0.000763841 0.000920564 -0.000160496
0.000920564 0.00102771 -8.03755e-05
-0.000160496 -8.03755e-05 -0.000436225
0.000327948 0.000820004 -6.85802e-05
0.000820004 0.000115776 -5.50005e-05
-6.85802e-05 -5.50005e-05 -0.000350971
0.00282123 0.00257634 3.30562e-06
0.00257634 0.00108743 -1.42751e-05
3.30562e-06 -1.42751e-05 -0.000286366
-0.00171094 0.0024814 0.000131925
0.0024814 -0.00227511 7.57292e-05
0.000131925 7.57292e-05 -0.00282143
-0.00700378 -0.000801602 -0.0011056
-0.000801602 -0.00179439 7.42197e-05
-0.0011056 7.42197e-05 -0.00535314
-0.0105891 0.000510506 0.000783193
0.000510506 0.00699952 3.81387e-06
0.000783193 3.81387e-06 -0.000738766
0.00231877 0.000236684 -0.00023463
0.000236684 0.00245399 3.84504e-05
-0.00023463 3.84504e-05 -7.47698e-05
0.00114199 -0.00173422 -8.07795e-05
-0.00173422 0.00139112 -6.38939e-05
-8.07795e-05 -6.38939e-05 -1.21009e-05
-0.000716844 -0.00351295 0.000227481
-0.00351295 0.000117543 1.52306e-05
0.000227481 1.52306e-05 1.25634e-05
0.00251283 0.00235987 0.000451899
0.00235987 0.0112415 0.000122704
0.000451899 0.000122704 0.00346997
0.00594607 -0.0074623 0.000967918
-0.0074623 -0.0025716 -9.00045e-05
0.000967918 -9.00045e-05 -0.00280901
0.0249136 0.00658032 0.00185065
0.00658032 0.0128281 9.38785e-06
0.00185065 9.38785e-06 0.00616513
0.00245812 -0.00316494 -2.40133e-05
-0.00316494 0.000804306 -4.03409e-07
-2.40133e-05 -4.03409e-07 -0.000253957
0.0059726 0.00372391 0.000488616
0.00372391 0.00347465 -0.000147079
0.000488616 -0.000147079 -0.00197484
0.00798421 -0.00457551 -0.000270165
-0.00457551 -0.00551504 0.000217692
-0.000270165 0.000217692 -0.00581267
0.00253353 -0.00412797 -2.20613e-05
-0.00412797 -0.00145825 3.96038e-05
-2.20613e-05 3.96038e-05 0.000653478
0.00262705 -0.00243733 5.63131e-05
-0.00243733 -3.85018e-05 -1.05175e-05
5.63131e-05 -1.05175e-05 -0.000207376
0.0198377 -0.00136453 -0.00014019
-0.00136453 0.00196713 0.00011771
-0.00014019 0.00011771 0.00200794
0.00292112 -0.00303516 0.000136426
-0.00303516 -0.00446014 -0.000132973
0.000136426 -0.000132973 -0.00139347
0.00196076 -0.00162702 -6.89008e-05
-0.00162702 0.000566309 4.98874e-05
-6.89008e-05 4.98874e-05 0.000115262
0.000633205 -0.00107315 -1.671e-05
-0.00107315 -0.000447793 1.24982e-06
-1.671e-05 1.24982e-06 -0.000750461
0.0054905 -0.00153755 4.89329e-05
-0.00153755 0.00179643 -2.35963e-05
4.89329e-05 -2.35963e-05 0.00146517
0.000762877 -0.00119868 -1.79988e-05
-0.00119868 -0.000359405 1.23845e-05
-1.79988e-05 1.23845e-05 -0.000909034
0.00286616 -0.00143223 3.66992e-07
-0.00143223 0.000518197 -6.50011e-07
3.66992e-07 -6.50011e-07 -3.89224e-06
0.003214 -0.00115555 1.99359e-06
-0.00115555 0.000424001 -1.39058e-06
1.99359e-06 -1.39058e-06 0.000204346
0.00255813 -0.00142544 7.90902e-06
-0.00142544 0.00050158 9.04614e-06
7.90902e-06 9.04614e-06 -0.000183183
0.00266439 -0.00109984 -3.88821e-06
-0.00109984 0.000302323 1.47881e-06
-3.88821e-06 1.47881e-06 -7.6426e-05
0.00249787 -0.000768157 5.35365e-07
-0.000768157 3.89056e-06 2.02725e-07
5.35365e-07 2.02725e-07 -6.72963e-05
0.00217137 -0.000980249 8.42011e-06
-0.000980249 0.000218767 6.01174e-06
8.42011e-06 6.01174e-06 -0.000241559
0.00229795 -0.000709158 3.80784e-08
-0.000709158 6.00286e-05 2.36227e-06
3.80784e-08 2.36227e-06 -0.000147314
0.00244458 -0.000738251 -1.11895e-06
-0.000738251 9.53657e-05 1.62181e-06
-1.11895e-06 1.62181e-06 -1.726e-05
0.00237854 -0.000709682 -3.67791e-06
-0.000709682 0.000145301 6.28072e-07
-3.67791e-06 6.28072e-07 -7.22259e-06
0.00234874 -0.000666412 -3.46372e-06
-0.000666412 0.000187703 2.37136e-06
-3.46372e-06 2.37136e-06 3.3776e-06
0.00235779 -0.00064872 -1.01323e-06
-0.00064872 0.000284685 -1.86234e-06
-1.01323e-06 -1.86234e-06 6.63725e-05
0.00236074 -0.000706951 -6.68767e-06
-0.000706951 0.000290993 -2.9581e-06
-6.68767e-06 -2.9581e-06 -9.94521e-06
0.00219962 -0.00067223 1.19587e-06
-0.00067223 0.000156097 1.47641e-06
1.19587e-06 1.47641e-06 -0.00012463
0.00209078 -0.000646 2.414e-06
-0.000646 1.68694e-05 8.02723e-06
2.414e-06 8.02723e-06 -0.000236147
0.00227099 -0.000841122 -5.91595e-06
-0.000841122 0.000382186 -6.25926e-06
-5.91595e-06 -6.25926e-06 -5.32863e-05
0.00194321 -0.000846441 -5.94021e-07
-0.000846441 0.00010154 1.52914e-07
-5.94021e-07 1.52914e-07 -0.000329462
0.00246377 -0.000985158 8.05731e-06
-0.000985158 0.000418362 4.63442e-06
8.05731e-06 4.63442e-06 -5.71272e-05
0.00189804 -0.000844776 -5.49722e-06
-0.000844776 0.000415744 -2.59815e-06
-5.49722e-06 -2.59815e-06 -0.000114182
0.0024033 -0.001047 -7.6065e-07
-0.001047 0.000657807 6.44562e-07
-7.6065e-07 6.44562e-07 6.83324e-05
0.00246197 -0.00113976 5.16239e-06
-0.00113976 0.000652974 2.93489e-06
5.16239e-06 2.93489e-06 3.89985e-05
0.00126639 -0.000355837 -1.25234e-05
-0.000355837 0.000363716 9.9538e-06
-1.25234e-05 9.9538e-06 6.9288e-05
0.00155762 -0.000692755 5.8673e-07
-0.000692755 0.000421635 1.40276e-06
5.8673e-07 1.40276e-06 -6.65402e-05
0.00214668 -0.000994438 -2.40068e-06
-0.000994438 0.000752995 7.95284e-06
-2.40068e-06 7.95284e-06 0.000136042
0.000314672 -0.000207893 -2.96607e-05
-0.000207893 -0.000177228 1.90448e-05
-2.96607e-05 1.90448e-05 -0.000310273
0.000701339 -0.000258604 -1.91587e-06
-0.000258604 0.000110851 -8.47438e-07
-1.91587e-06 -8.47438e-07 -0.000164049
-0.000202698 -0.000440032 3.38317e-06
-0.000440032 -0.000536336 -6.14813e-07
3.38317e-06 -6.14813e-07 -0.000908632
0.00552526 0.000201962 -0.000134228
0.000201962 0.0033513 1.25846e-05
-0.000134228 1.25846e-05 0.00332273
0.000608532 -0.00017621 1.5875e-06
-0.00017621 3.02667e-05 -2.05904e-07
1.5875e-06 -2.05904e-07 -8.32479e-05
0.000584454 -0.000280671 3.67835e-06
-0.000280671 8.93838e-05 5.77389e-07
3.67835e-06 5.77389e-07 -0.000199397
0.00315379 0.000154674 7.73563e-05
0.000154674 0.00181012 9.30381e-07
7.73563e-05 9.30381e-07 0.0017679
0.000748985 -0.000115888 1.89314e-05
-0.000115888 0.000160114 -1.62567e-05
1.89314e-05 -1.62567e-05 5.50321e-05
0.00437387 0.000137063 0.000110739
0.000137063 0.00257718 -1.08642e-05
0.000110739 -1.08642e-05 0.00256827
0.00216611 0.000537286 -4.23058e-07
0.000537286 0.000915577 9.40645e-06
-4.23058e-07 9.40645e-06 0.000545751
0.000935097 0.000290975 -4.57655e-06
0.000290975 0.000237958 1.29273e-06
-4.57655e-06 1.29273e-06 -2.12332e-05
7.01306e-05 0.000225872 3.21648e-06
0.000225872 -0.00022884 2.3046e-06
3.21648e-06 2.3046e-06 -0.000507775
0.00146553 0.000317363 -6.64114e-07
0.000317363 0.000707549 -5.95343e-06
-6.64114e-07 -5.95343e-06 0.000402635
0.00123997 0.000152331 -1.06587e-06
0.000152331 0.000639737 4.76221e-07
-1.06587e-06 4.76221e-07 0.000299785
0.00120006 0.000157626 -9.00668e-08
0.000157626 0.000552087 -1.55192e-05
-9.00668e-08 -1.55192e-05 0.000294157
0.000653913 8.4553e-05 -1.30814e-05
8.4553e-05 0.000135601 -1.86652e-05
-1.30814e-05 -1.86652e-05 6.25092e-05
0.00062836 0.000138466 -9.89428e-07
0.000138466 0.000170824 2.71935e-07
-9.89428e-07 2.71935e-07 -3.20575e-05
-0.00151206 -1.35453e-05 -1.14877e-05
-1.35453e-05 -0.00106486 2.04629e-05
-1.14877e-05 2.04629e-05 -0.00140508
0.00342383 -9.86684e-05 -7.95078e-05
-9.86684e-05 0.001952 -9.16716e-06
-7.95078e-05 -9.16716e-06 0.00195387
0.000234769 4.09875e-05 1.41521e-06
4.09875e-05 -0.000121029 -3.25266e-07
1.41521e-06 -3.25266e-07 -0.000179096
0.000633649 0.000116381 -2.93796e-06
0.000116381 0.000158148 1.12117e-05
-2.93796e-06 1.12117e-05 4.20809e-06
0.00306015 -9.37648e-05 -9.94756e-06
-9.37648e-05 0.00170756 9.1735e-07
-9.94756e-06 9.1735e-07 0.00170911
0.000225631 -6.20958e-06 -1.6924e-07
-6.20958e-06 -0.000130068 1.11422e-05
-1.6924e-07 1.11422e-05 -0.000177995
0.00273873 -7.33818e-05 3.10469e-05
-7.33818e-05 0.00148956 6.43331e-06
3.10469e-05 6.43331e-06 0.00149482
0.00295284 -0.00102295 -0.00180039
-0.00102295 0.00456944 -6.57781e-05
-0.00180039 -6.57781e-05 0.00177895
-0.00349922 -0.000816796 -4.50781e-05
-0.000816796 0.00756613 -5.05872e-05
-4.50781e-05 -5.05872e-05 -0.00165577
0.00690072 0.000769925 -0.000568152
0.000769925 0.00430217 -0.000149983
-0.000568152 -0.000149983 0.000910957
0.000762128 0.000217749 3.81297e-06
0.000217749 0.000192873 3.59879e-06
3.81297e-06 3.59879e-06 -0.000147739
0.000371412 0.000225962 1.15903e-05
0.000225962 0.000109366 3.36385e-06
1.15903e-05 3.36385e-06 -0.000381508
0.0026995 0.00087043 -6.66852e-06
0.00087043 0.00137307 3.03089e-07
-6.66852e-06 3.03089e-07 0.000819795
0.00256427 0.0011084 2.81072e-05
0.0011084 0.00113487 1.4012e-05
2.81072e-05 1.4012e-05 0.000442706
0.00137343 0.000830205 2.35204e-06
0.000830205 0.000835218 1.76069e-05
2.35204e-06 1.76069e-05 0.000229486
0.00301926 0.000439299 -1.09772e-06
0.000439299 0.00186092 3.85313e-06
-1.09772e-06 3.85313e-06 0.00155445
0.00198877 0.00039813 1.64928e-05
0.00039813 0.00113489 8.89512e-06
1.64928e-05 8.89512e-06 0.000755919
0.00190859 0.000863117 -4.63004e-06
0.000863117 0.00106789 2.39033e-06
-4.63004e-06 2.39033e-06 0.000476472
0.00147674 0.00118477 8.2555e-06
0.00118477 0.000337167 -1.39635e-06
8.2555e-06 -1.39635e-06 -0.000203278
0.00276755 0.00127737 2.04118e-06
0.00127737 0.00105167 4.13487e-05
2.04118e-06 4.13487e-05 0.000707077
0.00199141 0.00145227 4.17252e-05
0.00145227 0.000286916 -4.87732e-07
4.17252e-05 -4.87732e-07 -2.75661e-05
0.00122547 0.00094318 1.59882e-05
0.00094318 0.000387734 3.85856e-06
1.59882e-05 3.85856e-06 2.2466e-05
0.0016121 0.000804685 3.62023e-06
0.000804685 0.00105193 1.31894e-05
3.62023e-06 1.31894e-05 0.000405145
0.0174571 0.00521177 -0.000149478
0.00521177 0.00107948 6.74391e-05
-0.000149478 6.74391e-05 0.00102551
0.00946023 -0.00425018 -0.000897507
-0.00425018 0.00608035 -0.000262
-0.000897507 -0.000262 0.00085476
0.00484793 -0.00776295 0.0016326
-0.00776295 0.0132142 0.000255032
0.0016326 0.000255032 0.00367537
0.0193767 -0.00417194 0.000768062
-0.00417194 0.00803276 0.000202764
0.000768062 0.000202764 0.00010432
0.0114216 0.0081852 -0.000218737
0.0081852 0.00451346 -7.98346e-05
-0.000218737 -7.98346e-05 0.000140004
-0.00204251 0.000931889 -1.83692e-05
0.000931889 0.00147195 3.67929e-06
-1.83692e-05 3.67929e-06 0.000325524
0.00174262 0.00327771 -0.000116265
0.00327771 0.000596167 -5.49843e-05
-0.000116265 -5.49843e-05 0.00154933
0.0116544 0.00846436 2.17009e-05
0.00846436 -0.000189531 5.21721e-05
2.17009e-05 5.21721e-05 -0.00231958
0.00776632 0.00608768 -0.000199617
0.00608768 -0.000755917 -0.000148328
-0.000199617 -0.000148328 0.000518784
0.00141489 0.00171194 1.898e-05
0.00171194 8.82658e-06 -2.03229e-05
1.898e-05 -2.03229e-05 -0.000415405
0.00159016 0.00134745 1.58571e-05
0.00134745 0.000462369 -4.60963e-07
1.58571e-05 -4.60963e-07 3.08278e-05
0.00211741 0.000877134 -4.02173e-05
0.000877134 0.000990762 -2.59633e-05
-4.02173e-05 -2.59633e-05 0.000781259
0.00179511 0.00250338 -9.72345e-05
0.00250338 0.000374588 -4.63246e-05
-9.72345e-05 -4.63246e-05 -0.000920981
0.00179512 0.00293029 0.00012338
0.00293029 -0.000666108 6.5186e-05
0.00012338 6.5186e-05 -0.00148393
0.00618455 -0.000431192 -0.000119162
-0.000431192 -0.00580226 2.54627e-05
-0.000119162 2.54627e-05 -0.0064695
-0.00017288 -0.00266342 2.0094e-06
-0.00266342 0.00414121 8.28023e-05
2.0094e-06 8.28023e-05 0.00110206
-0.014506 -0.000407672 0.000767156
-0.000407672 0.00811094 -1.83679e-06
0.000767156 -1.83679e-06 0.0021246
0.00264216 -0.00383461 -0.000122025
-0.00383461 0.000446078 5.92024e-05
-0.000122025 5.92024e-05 -0.00090738
0.00670169 -0.00558497 1.79739e-05
-0.00558497 -0.000406105 8.85553e-05
1.79739e-05 8.85553e-05 0.00110324
0.00648907 0.00131852 0.00185493
0.00131852 0.00594273 -0.000390477
0.00185493 -0.000390477 0.00271742
0.0149919 -0.00450732 -0.000435733
-0.00450732 -0.000922264 0.000281643
-0.000435733 0.000281643 5.79114e-05
0.0022409 -0.00242881 -2.81763e-05
-0.00242881 -0.000237117 1.07343e-05
-2.81763e-05 1.07343e-05 -0.000552271
0.0129415 -0.000624123 -0.000349367
-0.000624123 -0.00296406 0.000114051
-0.000349367 0.000114051 -0.00287292
0.0073935 -0.00354272 0.000105712
-0.00354272 -0.0017012 7.81978e-06
0.000105712 7.81978e-06 0.000497694
0.0032108 -0.00190176 5.16802e-05
-0.00190176 -0.000623697 -5.3742e-05
5.16802e-05 -5.3742e-05 -0.000366447
0.00296114 -0.0013995 7.16882e-05
-0.0013995 -0.00369898 -1.46198e-05
7.16882e-05 -1.46198e-05 -0.000765841
-0.000501953 -0.000945113 -1.48017e-05
-0.000945113 -0.00109434 2.26724e-05
-1.48017e-05 2.26724e-05 -0.00127554
0.00144235 -0.0010838 -2.1349e-05
-0.0010838 -0.000484627 4.77637e-06
-2.1349e-05 4.77637e-06 -0.000510359
0.0039176 -0.0010843 4.28829e-05
-0.0010843 0.000612976 -1.90409e-05
4.28829e-05 -1.90409e-05 0.000717639
0.002334 -0.0013594 -1.17721e-05
-0.0013594 0.000250449 8.50195e-06
-1.17721e-05 8.50195e-06 -0.000251489
0.00282811 -0.00112869 -4.36783e-06
-0.00112869 0.000203093 1.62811e-06
-4.36783e-06 1.62811e-06 -1.56026e-05
0.00286257 -0.000870508 5.42886e-06
-0.000870508 2.3936e-05 -9.08917e-07
5.42886e-06 -9.08917e-07 4.84618e-05
0.00245952 -0.00105914 -8.20378e-06
-0.00105914 0.0001946 7.36241e-06
-8.20378e-06 7.36241e-06 -0.000164901
0.00240962 -0.000761344 9.85481e-08
-0.000761344 -5.30747e-05 1.63906e-06
9.85481e-08 1.63906e-06 -0.000123404
0.00260659 -0.000762055 -4.11025e-07
-0.000762055 3.64209e-05 -8.32976e-08
-4.11025e-07 -8.32976e-08 2.98935e-05
0.00223426 -0.000692029 1.81551e-06
-0.000692029 2.57418e-05 4.85956e-06
1.81551e-06 4.85956e-06 -0.000169024
0.00241388 -0.000730004 -1.008e-07
-0.000730004 8.69361e-05 7.30056e-07
-1.008e-07 7.30056e-07 -2.57958e-05
0.00255851 -0.000746325 -1.69903e-06
-0.000746325 0.000109986 4.1509e-07
-1.69903e-06 4.1509e-07 2.32786e-05
0.00235569 -0.000714432 -5.07728e-06
-0.000714432 0.000123299 7.04695e-07
-5.07728e-06 7.04695e-07 -2.16032e-05
0.00235539 -0.000673945 -1.28042e-06
-0.000673945 0.000180826 -1.97082e-07
-1.28042e-06 -1.97082e-07 1.73884e-05
0.00235039 -0.000668239 4.26249e-07
-0.000668239 0.000179279 3.74903e-06
4.26249e-07 3.74903e-06 1.23693e-06
0.00236577 -0.000645379 8.4724e-07
-0.000645379 0.000289659 -5.36118e-07
8.4724e-07 -5.36118e-07 7.13132e-05
0.00228416 -0.000654016 -2.88902e-06
-0.000654016 0.000267861 -1.00254e-06
-2.88902e-06 -1.00254e-06 2.23357e-05
0.0023834 -0.000707492 -2.68909e-06
-0.000707492 0.000376431 -6.37964e-06
-2.68909e-06 -6.37964e-06 5.44291e-05
0.00242009 -0.000715516 -5.75195e-07
-0.000715516 0.000330954 1.90652e-07
-5.75195e-07 1.90652e-07 2.7257e-05
0.00246018 -0.000689002 8.03617e-06
-0.000689002 0.000336693 4.58996e-06
8.03617e-06 4.58996e-06 5.47769e-05
0.00196069 -0.000776229 -6.73785e-06
-0.000776229 0.000279075 -3.24672e-06
-6.73785e-06 -3.24672e-06 -0.000176894
0.00219529 -0.000841789 -1.94545e-06
-0.000841789 0.000321065 -1.06072e-06
-1.94545e-06 -1.06072e-06 -0.000120217
0.00186874 -0.000850689 4.94498e-06
-0.000850689 3.64111e-05 4.68232e-06
4.94498e-06 4.68232e-06 -0.000398908
0.00137275 -0.000459894 -1.91847e-05
-0.000459894 0.000275794 1.0749e-05
-1.91847e-05 1.0749e-05 -7.22963e-05
0.0019862 -0.000849506 -8.77006e-08
-0.000849506 0.000483593 1.32644e-06
-8.77006e-08 1.32644e-06 -4.51736e-05
0.00255225 -0.00106587 6.25937e-07
-0.00106587 0.000741739 6.77108e-06
6.25937e-07 6.77108e-06 0.000148033
0.00033142 -0.00023495 -1.72959e-05
-0.00023495 -0.000165899 2.57688e-05
-1.72959e-05 2.57688e-05 -0.000338577
0.000704203 -0.000337282 3.1474e-06
-0.000337282 1.48212e-07 -7.59678e-07
3.1474e-06 -7.59678e-07 -0.000302149
0.0013306 -0.000663501 5.23186e-06
-0.000663501 0.000271732 2.26998e-06
5.23186e-06 2.26998e-06 -0.000205218
0.00672962 9.19788e-05 -0.000231983
9.19788e-05 0.00409204 1.71208e-05
-0.000231983 1.71208e-05 0.00408992
0.000367305 -0.000223258 -9.47924e-06
-0.000223258 -0.000134558 -1.19824e-06
-9.47924e-06 -1.19824e-06 -0.000276292
0.000561216 -0.000321525 5.11992e-06
-0.000321525 5.71912e-05 -3.55084e-06
5.11992e-06 -3.55084e-06 -0.000247735
0.00603137 0.000155773 8.74063e-06
0.000155773 0.00367379 -2.80289e-06
8.74063e-06 -2.80289e-06 0.00365612
0.000586761 -0.000204169 3.14146e-05
-0.000204169 1.6925e-05 -1.6411e-05
3.14146e-05 -1.6411e-05 -0.00010249
0.00540792 0.000147105 0.000170782
0.000147105 0.00326731 -1.66807e-05
0.000170782 -1.66807e-05 0.00325389
0.00319499 0.00105835 9.8028e-07
0.00105835 0.00151918 1.03493e-05
9.8028e-07 1.03493e-05 0.000876737
0.00132864 0.000541796 -2.29199e-06
0.000541796 0.00040827 1.02606e-06
-2.29199e-06 1.02606e-06 2.37426e-06
0.000549918 0.000304212 7.37566e-06
0.000304212 1.30616e-06 -1.33439e-06
7.37566e-06 -1.33439e-06 -0.000289231
-0.00117043 0.000112481 1.81364e-07
0.000112481 -0.00106772 -1.27801e-05
1.81364e-07 -1.27801e-05 -0.00131723
0.000137976 0.000310685 5.71593e-06
0.000310685 -0.000220521 -1.69842e-06
5.71593e-06 -1.69842e-06 -0.00047372
-2.3474e-06 0.000358516 -8.95656e-06
0.000358516 -0.000308418 -7.72652e-06
-8.95656e-06 -7.72652e-06 -0.000554925
-0.000254358 9.73942e-05 -6.16686e-06
9.73942e-05 -0.000307873 3.21996e-06
-6.16686e-06 3.21996e-06 -0.00066355
0.000741483 0.000207022 2.01686e-06
0.000207022 0.00025578 5.46212e-07
2.01686e-06 5.46212e-07 -4.41588e-06
0.000801643 0.000126858 -1.96291e-05
0.000126858 0.000220016 -2.12568e-05
-1.96291e-05 -2.12568e-05 0.000118977
0.00384475 -0.00011401 -0.000102855
-0.00011401 0.00223893 -1.34343e-05
-0.000102855 -1.34343e-05 0.00223618
0.00047959 5.27456e-05 3.9902e-06
5.27456e-05 3.77417e-05 -2.808e-07
3.9902e-06 -2.808e-07 -3.72025e-05
-1.46374e-05 4.92476e-05 -4.43543e-06
4.92476e-05 -0.000211497 1.47782e-05
-4.43543e-06 1.47782e-05 -0.000427146
0.00337898 -0.00011827 -1.24167e-05
-0.00011827 0.00192623 1.2687e-06
-1.24167e-05 1.2687e-06 0.00192225
0.000314303 -7.38632e-05 -1.15226e-05
-7.38632e-05 -5.45726e-05 1.53632e-05
-1.15226e-05 1.53632e-05 -0.000121026
0.00299768 -9.53126e-05 4.07841e-05
-9.53126e-05 0.00166776 6.86526e-06
4.07841e-05 6.86526e-06 0.00166827
0.0161449 0.000960326 0.000741672
0.000960326 0.000377256 0.000166585
0.000741672 0.000166585 0.00122862
0.00226723 -0.00542928 -0.00105312
-0.00542928 -0.000429491 -7.83913e-05
-0.00105312 -7.83913e-05 -0.00588691
-0.00715826 0.00142655 -0.000293036
0.00142655 0.00717255 -0.000107247
-0.000293036 -0.000107247 -0.00152419
0.000106337 0.000125232 1.12695e-05
0.000125232 -8.89541e-05 -3.49293e-05
1.12695e-05 -3.49293e-05 -0.000606162
0.000527451 0.000609313 -8.4376e-06
0.000609313 3.29495e-05 -1.03962e-05
-8.4376e-06 -1.03962e-05 -0.000496923
0.00240703 0.000902777 -1.42407e-05
0.000902777 0.00133932 -7.03876e-06
-1.42407e-05 -7.03876e-06 0.00072531
0.00146471 0.000953225 8.88686e-07
0.000953225 0.000479414 2.48473e-07
8.88686e-07 2.48473e-07 -0.000174265
0.00193708 0.00101799 2.41948e-05
0.00101799 0.000467879 2.4721e-05
2.41948e-05 2.4721e-05 -0.000116027
5.12096e-05 0.000914424 3.62735e-05
0.000914424 -0.000466283 1.23437e-05
3.62735e-05 1.23437e-05 -0.000984964
0.00191808 0.000777201 -1.45997e-05
0.000777201 0.00106964 -2.39122e-06
-1.45997e-05 -2.39122e-06 0.000508999
0.00124272 0.0011425 6.04778e-06
0.0011425 0.000175592 5.09295e-06
6.04778e-06 5.09295e-06 -0.000353104
0.00205087 0.00115515 2.97991e-05
0.00115515 0.000717307 3.76139e-06
2.97991e-05 3.76139e-06 0.000314944
0.00250156 0.00118805 1.57204e-05
0.00118805 0.000823017 4.20885e-06
1.57204e-05 4.20885e-06 0.000313481
0.00203736 0.00127504 1.29335e-05
0.00127504 0.000342267 5.20334e-06
1.29335e-05 5.20334e-06 6.99775e-05
0.00243083 0.0014947 2.69984e-05
0.0014947 0.0005469 1.14111e-05
2.69984e-05 1.14111e-05 1.62788e-05
0.00145095 0.00137201 1.26553e-05
0.00137201 7.63944e-06 -9.55797e-07
1.26553e-05 -9.55797e-07 -0.000264421
0.00254269 0.00103689 -3.74712e-05
0.00103689 0.00112377 -8.99692e-05
-3.74712e-05 -8.99692e-05 0.000733926
0.00383402 0.00291062 3.29983e-05
0.00291062 -0.00414457 5.75521e-05
3.29983e-05 5.75521e-05 -0.000728003
0.0132161 0.00598138 0.000428492
0.00598138 -0.00212089 0.00025772
0.000428492 0.00025772 -0.00241368
0.0177985 -0.00781218 0.00113207
-0.00781218 0.00898703 -0.000165379
0.00113207 -0.000165379 0.00184102
0.00687375 0.00974837 0.00109037
0.00974837 -0.00182758 0.000465529
0.00109037 0.000465529 -0.00485311
-0.000945191 0.00228747 -3.63124e-05
0.00228747 9.72005e-05 3.04545e-05
-3.63124e-05 3.04545e-05 0.000652419
0.00354778 0.00364566 -9.37975e-05
0.00364566 -0.00141497 -6.87335e-05
-9.37975e-05 -6.87335e-05 0.000494592
0.00729329 0.00331251 5.17743e-05
0.00331251 0.00105773 3.06426e-05
5.17743e-05 3.06426e-05 0.000876686
0.00609461 0.00254854 2.5387e-05
0.00254854 0.0021279 1.33466e-05
2.5387e-05 1.33466e-05 0.00148177
0.000895377 0.00120062 -4.65112e-05
0.00120062 6.57625e-05 7.17738e-06
-4.65112e-05 7.17738e-06 -0.000297994
0.00984181 0.00413655 -0.000222825
0.00413655 0.00309609 -2.51421e-06
-0.000222825 -2.51421e-06 0.00185026
0.00564635 -0.00114325 1.90011e-05
-0.00114325 -0.00185326 4.28466e-05
1.90011e-05 4.28466e-05 0.000414712
0.0126382 -0.000577379 -6.28308e-05
-0.000577379 -0.000886435 -5.02634e-05
-6.28308e-05 -5.02634e-05 0.000252108
-0.011963 -0.00451968 0.00142287
-0.00451968 -0.00251118 -3.26419e-05
0.00142287 -3.26419e-05 -0.00683556
0.00195683 -0.00222639 -0.000146247
-0.00222639 -0.000271919 5.23138e-05
-0.000146247 5.23138e-05 -0.000476297
0.00812535 -0.00411289 -8.69254e-05
-0.00411289 -0.00202023 0.000140662
-8.69254e-05 0.000140662 0.000436431
0.00253558 -0.000514596 -0.000479381
-0.000514596 -0.00806241 1.61243e-05
-0.000479381 1.61243e-05 -0.00787119
0.00366329 -0.00178146 4.88868e-05
-0.00178146 -0.000365528 -7.16473e-07
4.88868e-05 -7.16473e-07 0.000173249
0.00509694 -0.00147 -9.14854e-05
-0.00147 -0.0021957 -1.25187e-06
-9.14854e-05 -1.25187e-06 5.33191e-05
0.00734803 -0.00141652 7.11354e-05
-0.00141652 0.00164908 -5.0489e-05
7.11354e-05 -5.0489e-05 0.00226743
0.00686199 -0.000903248 0.00015309
-0.000903248 0.000824363 7.49704e-06
0.00015309 7.49704e-06 0.00189635
-0.00138795 -0.000794352 1.51162e-05
-0.000794352 -0.0021999 1.19342e-05
1.51162e-05 1.19342e-05 -0.00190881
0.00226213 -0.000926517 -1.0328e-05
-0.000926517 -0.000362819 3.88002e-06
-1.0328e-05 3.88002e-06 -9.73946e-05
0.00262329 -0.000690065 2.72043e-05
-0.000690065 -0.000345347 -1.1314e-05
2.72043e-05 -1.1314e-05 3.47837e-05
0.00243649 -0.00110744 -4.09049e-06
-0.00110744 -2.24798e-05 3.43785e-06
-4.09049e-06 3.43785e-06 -0.000244931
0.00281472 -0.000863793 8.39736e-07
-0.000863793 5.40103e-06 1.34938e-06
8.39736e-07 1.34938e-06 3.12305e-05
0.0027655 -0.000731687 -6.27447e-08
-0.000731687 -1.66762e-05 -1.15639e-06
-6.27447e-08 -1.15639e-06 2.02575e-05
0.00235041 -0.000760425 1.55425e-06
-0.000760425 -9.56806e-05 3.05406e-06
1.55425e-06 3.05406e-06 -0.000167908
0.00257097 -0.000758452 9.64008e-08
-0.000758452 2.83887e-05 3.94095e-07
9.64008e-08 3.94095e-07 1.17782e-05
0.00252389 -0.00064705 -1.73383e-06
-0.00064705 -1.14232e-06 -8.43444e-07
-1.73383e-06 -8.43444e-07 -2.5476e-05
0.00239181 -0.000724589 1.10349e-06
-0.000724589 8.01802e-05 6.59649e-07
1.10349e-06 6.59649e-07 -3.33148e-05
0.00255028 -0.000743562 -1.72968e-07
-0.000743562 0.000132452 -1.16153e-07
-1.72968e-07 -1.16153e-07 3.96943e-05
0.00244496 -0.000646353 8.75458e-07
-0.000646353 0.000117654 -3.34109e-07
8.75458e-07 -3.34109e-07 2.3663e-05
0.00233036 -0.000719358 -2.66964e-06
-0.000719358 9.7902e-05 3.68937e-07
-2.66964e-06 3.68937e-07 -3.93232e-05
0.00230386 -0.000672773 -1.52399e-06
-0.000672773 0.000142774 1.73863e-07
-1.52399e-06 1.73863e-07 -1.59335e-05
0.00238379 -0.000638486 -2.54623e-06
-0.000638486 0.000266974 4.31392e-07
-2.54623e-06 4.31392e-07 7.15117e-05
0.00237087 -0.000640469 3.38259e-06
-0.000640469 0.00029274 1.32061e-06
3.38259e-06 1.32061e-06 7.52582e-05
0.00229483 -0.000649324 -4.73688e-08
-0.000649324 0.000271229 5.99745e-08
-4.73688e-08 5.99745e-08 2.66822e-05
0.00234852 -0.000653774 -1.11068e-06
-0.000653774 0.00033192 -2.25671e-06
-1.11068e-06 -2.25671e-06 6.04796e-05
0.00208667 -0.000650741 -4.79018e-06
-0.000650741 0.000288407 -4.21077e-06
-4.79018e-06 -4.21077e-06 -6.22202e-05
0.00227703 -0.000704871 -4.97563e-07
-0.000704871 0.000303112 -1.71382e-06
-4.97563e-07 -1.71382e-06 -2.64484e-05
0.00248267 -0.000725212 4.90169e-06
-0.000725212 0.000373664 3.68175e-06
4.90169e-06 3.68175e-06 6.67507e-05
0.00130048 -0.000508 -2.35088e-05
-0.000508 8.97956e-05 6.39025e-06
-2.35088e-05 6.39025e-06 -0.000271223
0.00215451 -0.000789027 -1.35514e-06
-0.000789027 0.000416309 4.05022e-07
-1.35514e-06 4.05022e-07 -4.05048e-05
0.00214103 -0.000845132 8.23465e-07
-0.000845132 0.000273444 4.69265e-06
8.23465e-07 4.69265e-06 -0.000174407
0.00049817 -0.000266391 -2.2348e-05
-0.000266391 -9.74475e-05 2.54709e-05
-2.2348e-05 2.54709e-05 -0.00027688
0.000899152 -0.000435549 5.62525e-06
-0.000435549 -1.4754e-05 8.32977e-07
5.62525e-06 8.32977e-07 -0.000365848
0.00212178 -0.000859096 5.90028e-06
-0.000859096 0.000582964 4.22238e-06
5.90028e-06 4.22238e-06 5.40235e-05
0.00780363 -4.78329e-06 -0.000309311
-4.78329e-06 0.00474771 2.60498e-05
-0.000309311 2.60498e-05 0.00475826
0.000260045 -0.000251672 7.19523e-07
-0.000251672 -0.000210502 2.41524e-07
7.19523e-07 2.41524e-07 -0.000385383
0.000220288 -0.000318165 6.56865e-06
-0.000318165 -0.000313354 -6.80841e-06
6.56865e-06 -6.80841e-06 -0.000622555
0.00705601 5.65607e-05 -1.12146e-05
5.65607e-05 0.0043052 -2.18887e-06
-1.12146e-05 -2.18887e-06 0.00430275
0.000556104 -0.000231593 2.17925e-05
-0.000231593 -1.65506e-05 -2.24362e-05
2.17925e-05 -2.24362e-05 -0.000161148
0.00627787 0.00013693 0.00021901
0.00013693 0.0038511 -3.09371e-05
0.00021901 -3.09371e-05 0.00382822
0.00220973 0.000960386 -1.17439e-05
0.000960386 0.000658497 1.27868e-05
-1.17439e-05 1.27868e-05 8.70161e-05
0.00213572 0.000915288 -1.74631e-06
0.000915288 0.000825654 -3.67558e-07
-1.74631e-06 -3.67558e-07 0.000229001
0.00116005 0.000610388 -5.59295e-06
0.000610388 0.000263818 6.34766e-06
-5.59295e-06 6.34766e-06 -0.000196785
0.000640865 0.000521915 3.77004e-06
0.000521915 -1.36294e-05 -6.14631e-06
3.77004e-06 -6.14631e-06 -0.000436376
0.000979079 0.000321862 -3.40239e-06
0.000321862 0.00023911 -3.15039e-06
-3.40239e-06 -3.15039e-06 -5.89391e-05
-0.000128496 0.000220256 -4.55433e-06
0.000220256 -0.000418012 -2.99183e-06
-4.55433e-06 -2.99183e-06 -0.000697679
0.00194762 0.000212092 6.52629e-07
0.000212092 0.00092328 -3.9617e-06
6.52629e-07 -3.9617e-06 0.000686647
0.000962316 0.000195533 2.32308e-06
0.000195533 0.000346165 -1.14447e-06
2.32308e-06 -1.14447e-06 7.33863e-05
0.000523005 0.00017906 -2.95961e-05
0.00017906 -3.14301e-06 -2.11155e-05
-2.95961e-05 -2.11155e-05 -0.000120328
0.000182152 0.000161633 -9.65076e-07
0.000161633 -8.18216e-05 1.7669e-05
-9.65076e-07 1.7669e-05 -0.000350077
0.000464936 0.000118158 -6.09422e-07
0.000118158 1.12291e-05 -4.64772e-07
-6.09422e-07 -4.64772e-07 -8.53423e-05
0.0047728 -0.000134066 -0.0001482
-0.000134066 0.00286235 -1.96317e-05
-0.0001482 -1.96317e-05 0.00285027
0.00381528 -0.000139953 -1.41484e-05
-0.000139953 0.00222506 1.45863e-06
-1.41484e-05 1.45863e-06 0.00221525
0.000115657 9.4076e-05 1.35043e-05
9.4076e-05 -0.000195755 1.81726e-05
1.35043e-05 1.81726e-05 -0.000264906
0.00330489 -0.000123241 4.8737e-05
-0.000123241 0.00187874 7.73918e-06
4.8737e-05 7.73918e-06 0.00187293
0.00166165 0.000571472 0.000133264
0.000571472 -0.00303479 2.98897e-05
0.000133264 2.98897e-05 -0.000512498
0.00564333 -0.000419481 0.000283241
-0.000419481 -0.00647748 0.000164363
0.000283241 0.000164363 -0.00695155
0.0172428 -0.00615554 -0.000353912
-0.00615554 0.00954763 -0.000137762
-0.000353912 -0.000137762 0.00373698
0.00184684 0.000877463 1.24778e-05
0.000877463 0.000174849 1.2269e-05
1.24778e-05 1.2269e-05 -0.000273503
0.00414751 0.00107509 -1.8821e-05
0.00107509 0.00223213 -1.59569e-05
-1.8821e-05 -1.59569e-05 0.00162212
0.000615224 0.00083259 -1.29178e-05
0.00083259 -2.7134e-05 -1.73292e-05
-1.29178e-05 -1.73292e-05 -0.000650884
0.00174745 0.00113322 9.75709e-07
0.00113322 0.000558051 8.68572e-07
9.75709e-07 8.68572e-07 -2.43499e-05
0.00216535 0.00104928 1.53529e-07
0.00104928 0.000632158 5.35209e-06
1.53529e-07 5.35209e-06 3.45763e-05
0.00241683 0.00117425 3.05798e-05
0.00117425 0.000692977 1.87435e-05
3.05798e-05 1.87435e-05 0.000150898
0.0019118 0.00120711 -3.61794e-05
0.00120711 0.000568517 -4.50648e-06
-3.61794e-05 -4.50648e-06 1.01323e-06
0.00117649 0.00097201 -1.63234e-06
0.00097201 0.00027625 -3.94595e-05
-1.63234e-06 -3.94595e-05 -0.000108496
0.00209933 0.00125895 1.96616e-06
0.00125895 0.000502038 -9.05773e-07
1.96616e-06 -9.05773e-07 5.96423e-06
0.00114401 0.00117952 1.63696e-05
0.00117952 -0.000191909 -3.7335e-05
1.63696e-05 -3.7335e-05 -0.00035612
0.00230185 0.00120803 2.93602e-05
0.00120803 0.000427966 -2.33463e-06
2.93602e-05 -2.33463e-06 -0.000107019
0.00239593 0.00106545 3.74543e-05
0.00106545 0.000407436 4.59521e-05
3.74543e-05 4.59521e-05 0.000197358
0.00118475 0.00126488 -1.07263e-05
0.00126488 -0.000101386 -1.04904e-05
-1.07263e-05 -1.04904e-05 -0.000514551
0.00169343 0.00134768 -4.47729e-05
0.00134768 0.00018758 -7.19585e-06
-4.47729e-05 -7.19585e-06 -6.97157e-05
0.00285505 0.00139551 3.75232e-05
0.00139551 -0.00133916 4.37377e-05
3.75232e-05 4.37377e-05 -0.000206196
0.00629051 0.00319096 -0.000126429
0.00319096 -0.00282709 -5.09187e-05
-0.000126429 -5.09187e-05 0.000408226
0.00443581 0.00434092 0.000863132
0.00434092 -0.00792004 0.000260749
0.000863132 0.000260749 -0.00794685
0.00353735 0.0032985 -0.000303367
0.0032985 -0.000246506 -0.000141385
-0.000303367 -0.000141385 0.00105466
0.00592786 0.00275034 -3.58253e-05
0.00275034 0.00086532 -9.455e-06
-3.58253e-05 -9.455e-06 0.00082797
0.00759636 0.00284438 -0.000224308
0.00284438 0.00272587 -5.83699e-05
-0.000224308 -5.83699e-05 0.00200995
0.00388063 -0.00024664 -4.32643e-05
-0.00024664 -0.000729773 -2.44985e-05
-4.32643e-05 -2.44985e-05 3.71665e-05
0.000306352 -0.000759634 0.000140744
-0.000759634 -0.00244491 3.68214e-05
0.000140744 3.68214e-05 -0.000293506
0.00748198 0.000134997 0.000309339
0.000134997 -0.00628956 -1.66651e-05
0.000309339 -1.66651e-05 -0.00652122
0.00225469 -0.00150615 -8.1624e-05
-0.00150615 -0.00101735 0.000102419
-8.1624e-05 0.000102419 -0.000292952
0.00636291 -0.00149342 -0.000229602
-0.00149342 -0.00176762 6.52738e-05
-0.000229602 6.52738e-05 7.53569e-05
0.00341002 -0.00110266 -2.89389e-05
-0.00110266 -0.000679395 1.22588e-05
-2.89389e-05 1.22588e-05 0.000178009
0.00467179 -0.000801791 -3.3681e-05
-0.000801791 -0.000233038 5.69716e-07
-3.3681e-05 5.69716e-07 0.000648964
0.00475027 -0.000579615 0.000106667
-0.000579615 0.000882181 -2.05495e-05
0.000106667 -2.05495e-05 0.00126738
0.00285978 -0.000118721 4.85063e-05
-0.000118721 1.94208e-05 2.57843e-06
4.85063e-05 2.57843e-06 0.00024096
0.000662487 -0.000744143 -1.69582e-05
-0.000744143 -0.00124378 1.41158e-05
-1.69582e-05 1.41158e-05 -0.000836023
0.0026216 -0.000720387 -3.60301e-06
-0.000720387 -0.000328069 5.68839e-07
-3.60301e-06 5.68839e-07 5.88515e-06
0.00270406 -0.000540132 3.00125e-06
-0.000540132 -0.000263244 -2.43981e-06
3.00125e-06 -2.43981e-06 2.06932e-05
0.00273708 -0.000849876 -3.22609e-06
-0.000849876 -2.47126e-05 2.80161e-06
-3.22609e-06 2.80161e-06 4.86817e-06
0.00276162 -0.000706459 -1.80421e-07
-0.000706459 1.45223e-05 -4.56188e-07
-1.80421e-07 -4.56188e-07 6.42234e-05
0.00255314 -0.000527629 -1.67014e-06
-0.000527629 -0.000107258 -7.92717e-07
-1.67014e-06 -7.92717e-07 -2.79651e-05
0.00252939 -0.000752227 -6.02529e-07
-0.000752227 1.98579e-05 5.26715e-07
-6.02529e-07 5.26715e-07 -5.76301e-06
0.00251897 -0.000649246 -6.26349e-07
-0.000649246 1.13408e-05 -4.1239e-08
-6.26349e-07 -4.1239e-08 -1.07926e-05
0.00240601 -0.000536569 1.77957e-07
-0.000536569 3.21516e-05 -5.64608e-07
1.77957e-07 -5.64608e-07 -7.09922e-06
0.0025416 -0.000739561 -8.42688e-08
-0.000739561 0.000155953 -3.42213e-07
-8.42688e-08 -3.42213e-07 5.72711e-05
0.002446 -0.000647459 1.00503e-06
-0.000647459 0.000116348 -1.06322e-07
1.00503e-06 -1.06322e-07 2.1857e-05
0.00233079 -0.000575701 -9.78625e-07
-0.000575701 0.000139546 3.47906e-07
-9.78625e-07 3.47906e-07 1.55551e-05
0.00225542 -0.000672201 -1.48227e-06
-0.000672201 0.000107225 6.61362e-07
-1.48227e-06 6.61362e-07 -4.69976e-05
0.00229187 -0.00063408 -1.13506e-06
-0.00063408 0.000198589 4.83061e-07
-1.13506e-06 4.83061e-07 6.36245e-06
0.00239976 -0.00061941 -1.46006e-06
-0.00061941 0.000313985 -1.55835e-06
-1.46006e-06 -1.55835e-06 8.75909e-05
0.00230847 -0.000645024 3.14285e-06
-0.000645024 0.000276237 1.72812e-06
3.14285e-06 1.72812e-06 3.24199e-05
0.00231306 -0.000651829 -3.79728e-07
-0.000651829 0.000307129 2.82336e-07
-3.79728e-07 2.82336e-07 3.85583e-05
0.00221517 -0.000594525 -3.80426e-06
-0.000594525 0.000335777 -1.95805e-06
-3.80426e-06 -1.95805e-06 3.7662e-05
0.00139494 -0.000456124 -1.972e-05
-0.000456124 6.01284e-05 6.57014e-06
-1.972e-05 6.57014e-06 -0.000253166
0.00205972 -0.00064871 -3.01371e-07
-0.00064871 0.000275568 -1.39746e-06
-3.01371e-07 -1.39746e-06 -8.0088e-05
0.00216117 -0.000701661 1.19284e-06
-0.000701661 0.000222555 3.14635e-06
1.19284e-06 3.14635e-06 -0.000114451
0.00011626 -0.000265314 -2.14574e-05
-0.000265314 -0.000354633 2.21374e-05
-2.14574e-05 2.21374e-05 -0.000542184
0.00132417 -0.000501921 5.62656e-07
-0.000501921 0.000114779 -9.03915e-08
5.62656e-07 -9.03915e-08 -0.00024234
0.00231425 -0.000799201 4.39529e-06
-0.000799201 0.000529608 3.90952e-06
4.39529e-06 3.90952e-06 7.24443e-05
0.00856441 -5.91193e-05 -0.000360957
-5.91193e-05 0.00520255 3.30305e-05
-0.000360957 3.30305e-05 0.00521913
0.000131235 -0.000288058 1.14781e-06
-0.000288058 -0.000319056 2.13689e-06
1.14781e-06 2.13689e-06 -0.000510302
0.000624504 -0.000427207 1.92269e-05
-0.000427207 -0.000187845 -5.62851e-06
1.92269e-05 -5.62851e-06 -0.000542673
0.00809203 -2.67285e-05 -1.03413e-05
-2.67285e-05 0.00493379 1.04496e-06
-1.03413e-05 1.04496e-06 0.00494374
0.000192528 -0.00028841 2.1556e-05
-0.00028841 -0.000250486 -2.76509e-05
2.1556e-05 -2.76509e-05 -0.00043016
0.00738416 4.28836e-05 0.000299063
4.28836e-05 0.00452533 -3.81252e-05
0.000299063 -3.81252e-05 0.00452102
0.00187216 0.000816769 -5.61707e-06
0.000816769 0.000248107 1.23358e-05
-5.61707e-06 1.23358e-05 -0.000206797
0.00210555 0.000942303 -2.00287e-06
0.000942303 0.000595167 1.09821e-06
-2.00287e-06 1.09821e-06 2.85864e-05
0.0017813 0.000763303 -7.0269e-06
0.000763303 0.000433479 8.17548e-06
-7.0269e-06 8.17548e-06 -6.75219e-05
0.00102876 0.000764304 -2.19035e-06
0.000764304 0.000103752 -8.86141e-06
-2.19035e-06 -8.86141e-06 -0.000446383
0.00160673 0.000626587 -3.06291e-06
0.000626587 0.000501043 -1.62851e-06
-3.06291e-06 -1.62851e-06 4.3993e-05
0.000427207 0.000315569 -1.28156e-05
0.000315569 -0.000139426 -2.44177e-06
-1.28156e-05 -2.44177e-06 -0.000445107
0.00160174 0.000336535 -7.98681e-07
0.000336535 0.000575124 -7.84112e-06
-7.98681e-07 -7.84112e-06 0.000278038
0.00045137 0.000272219 3.3927e-06
0.000272219 -8.14015e-05 -1.10775e-06
3.3927e-06 -1.10775e-06 -0.00033348
0.000345847 0.000222119 -3.2785e-05
0.000222119 -0.000159478 -2.17755e-05
-3.2785e-05 -2.17755e-05 -0.000281054
0.00105954 0.000215211 1.97579e-06
0.000215211 0.000389632 8.98517e-06
1.97579e-06 8.98517e-06 0.000123064
0.000635509 0.000171093 -1.07494e-06
0.000171093 7.39581e-05 -8.74357e-07
-1.07494e-06 -8.74357e-07 -3.79131e-05
0.00615651 -0.000183171 -0.000192168
-0.000183171 0.00378606 -2.63188e-05
-0.000192168 -2.63188e-05 0.00375574
0.000252119 0.000118044 1.87369e-05
0.000118044 -0.000118278 2.13963e-05
1.87369e-05 2.13963e-05 -0.000211364
0.00444293 -0.000175679 -1.65318e-05
-0.000175679 0.00265918 1.91871e-06
-1.65318e-05 1.91871e-06 0.00263572
0.00368073 -0.000154446 6.32479e-05
-0.000154446 0.00213982 9.53936e-06
6.32479e-05 9.53936e-06 0.00212518
0.000715526 0.000471259 1.91711e-05
0.000471259 -0.00266036 1.51832e-05
1.91711e-05 1.51832e-05 -0.00124478
0.00534793 0.000428563 7.39664e-05
0.000428563 -0.0018008 3.33686e-05
7.39664e-05 3.33686e-05 0.000739338
0.0173919 0.000891614 3.32166e-05
0.000891614 0.000715867 0.000116172
3.32166e-05 0.000116172 0.00192561
0.00235914 0.0010208 3.55398e-06
0.0010208 0.000414317 6.72656e-06
3.55398e-06 6.72656e-06 -3.96349e-05
0.00231351 0.000917133 6.62502e-07
0.000917133 0.000239158 6.27201e-06
6.62502e-07 6.27201e-06 -0.00013589
0.00183657 0.000880619 -7.16306e-07
0.000880619 0.000172575 -4.89715e-06
-7.16306e-07 -4.89715e-06 -0.000272188
0.0033723 0.0013393 -1.81034e-05
0.0013393 0.0015315 -2.93378e-06
-1.81034e-05 -2.93378e-06 0.000893303
0.00222955 0.00105365 -1.62327e-05
0.00105365 0.000698121 -1.2925e-05
-1.62327e-05 -1.2925e-05 9.53772e-05
0.00243982 0.00121988 6.70885e-06
0.00121988 0.000654731 2.58228e-06
6.70885e-06 2.58228e-06 0.000107808
0.00261247 0.00115923 -6.26773e-06
0.00115923 0.000296509 -3.31524e-07
-6.26773e-06 -3.31524e-07 -9.83625e-05
0.00191033 0.00131618 -1.39385e-05
0.00131618 0.000320985 -5.57844e-06
-1.39385e-05 -5.57844e-06 -0.000174558
0.000922132 0.00118917 -3.86203e-05
0.00118917 -0.000327072 0.000101926
-3.86203e-05 0.000101926 -0.00048148
0.00295529 0.00132571 1.89658e-06
0.00132571 0.000767661 -5.45107e-06
1.89658e-06 -5.45107e-06 0.000212868
0.00319727 0.00112955 1.5495e-07
0.00112955 0.000499277 1.54631e-05
1.5495e-07 1.54631e-05 0.000262326
0.0021659 0.000539055 6.56857e-05
0.000539055 5.57807e-05 1.01592e-05
6.56857e-05 1.01592e-05 0.000246478
0.000377763 0.000845906 6.42832e-06
0.000845906 -0.000644641 -1.35535e-05
6.42832e-06 -1.35535e-05 -0.000822739
0.000972056 0.00120054 -4.9942e-05
0.00120054 -0.000189346 -3.89387e-06
-4.9942e-05 -3.89387e-06 -0.000587068
0.00406551 0.00153522 3.13712e-05
0.00153522 -0.000660608 1.46293e-05
3.13712e-05 1.46293e-05 0.000344313
0.0102594 0.00325964 -8.82218e-05
0.00325964 -0.000593511 -5.9653e-05
-8.82218e-05 -5.9653e-05 0.00186812
0.00576804 0.002322 -8.23314e-05
0.002322 0.00130727 -9.97815e-05
-8.23314e-05 -9.97815e-05 0.00137075
0.003392 -5.21178e-05 7.51386e-05
-5.21178e-05 0.000340435 7.55813e-06
7.51386e-05 7.55813e-06 0.000657489
0.00372459 -0.000270781 -0.000107484
-0.000270781 -0.00096801 1.01761e-05
-0.000107484 1.01761e-05 5.73635e-05
0.0053712 0.000558479 -2.96745e-05
0.000558479 -0.000448867 -1.89523e-05
-2.96745e-05 -1.89523e-05 0.00112713
0.00103262 -0.000963638 -0.000101614
-0.000963638 -0.00209653 7.78356e-05
-0.000101614 7.78356e-05 -0.00112695
0.00270483 -0.000788997 -0.000109734
-0.000788997 -0.00118772 8.76122e-06
-0.000109734 8.76122e-06 -0.00046703
0.00332264 -0.000521448 5.02657e-07
-0.000521448 -4.18599e-05 -5.65874e-06
5.02657e-07 -5.65874e-06 0.000503513
0.00248856 -0.000114523 -1.55746e-05
-0.000114523 -0.000220039 -2.04863e-06
-1.55746e-05 -2.04863e-06 3.15475e-05
0.00263332 -0.000318243 8.46195e-06
-0.000318243 -0.000319847 -1.57002e-07
8.46195e-06 -1.57002e-07 -1.07933e-05
0.00243563 8.79743e-05 3.78684e-06
8.79743e-05 -0.00041921 4.44899e-07
3.78684e-06 4.44899e-07 -0.000204922
0.00268184 -0.000760177 -1.98057e-05
-0.000760177 -0.000287289 8.62783e-06
-1.98057e-05 8.62783e-06 2.44459e-06
0.00275769 -0.000569102 -3.05536e-06
-0.000569102 -0.000244174 6.7798e-07
-3.05536e-06 6.7798e-07 8.89694e-07
0.00262797 -0.000386337 -9.19552e-07
-0.000386337 -0.000177004 -6.32281e-07
-9.19552e-07 -6.32281e-07 1.17417e-05
0.00275602 -0.000681916 -2.87499e-06
-0.000681916 3.94829e-05 1.10089e-06
-2.87499e-06 1.10089e-06 0.000103611
0.00257155 -0.000530493 3.01544e-07
-0.000530493 -8.49863e-05 -1.95971e-07
3.01544e-07 -1.95971e-07 -1.2213e-05
0.00243858 -0.000430213 6.6637e-07
-0.000430213 -5.25488e-05 -3.95344e-07
6.6637e-07 -3.95344e-07 -4.88269e-06
0.00251454 -0.000651971 -7.22007e-07
-0.000651971 2.28229e-05 5.68684e-07
-7.22007e-07 5.68684e-07 2.95592e-06
0.00242034 -0.00053576 3.8908e-07
-0.00053576 3.5281e-05 -1.39005e-07
3.8908e-07 -1.39005e-07 -3.98343e-06
0.00231603 -0.000477856 -9.59621e-07
-0.000477856 6.46134e-05 1.03635e-07
-9.59621e-07 1.03635e-07 7.07779e-07
0.00244792 -0.000648912 1.79936e-06
-0.000648912 0.00011525 4.55635e-08
1.79936e-06 4.55635e-08 2.02242e-05
0.0023157 -0.000575875 6.54863e-07
-0.000575875 0.000124704 -1.48315e-07
6.54863e-07 -1.48315e-07 5.57686e-07
0.00231635 -0.000543821 -2.51524e-06
-0.000543821 0.000199691 8.10568e-08
-2.51524e-06 8.10568e-08 2.60641e-05
0.00219753 -0.000629669 5.32238e-07
-0.000629669 0.000128271 2.31332e-07
5.32238e-07 2.31332e-07 -6.0548e-05
0.0022849 -0.000612385 4.20637e-08
-0.000612385 0.000237042 -4.15136e-07
4.20637e-08 -4.15136e-07 1.11899e-05
0.00215322 -0.000551041 -2.997e-06
-0.000551041 0.000230954 -1.54777e-06
-2.997e-06 -1.54777e-06 -2.77078e-05
0.00228062 -0.000650093 6.53748e-07
-0.000650093 0.000284864 3.47458e-06
6.53748e-07 3.47458e-06 1.90325e-05
0.00222182 -0.000597895 -6.81168e-07
-0.000597895 0.000340822 -1.00663e-07
-6.81168e-07 -1.00663e-07 4.38916e-05
0.00141435 -0.000396401 -1.49442e-05
-0.000396401 4.81707e-05 5.91764e-06
-1.49442e-05 5.91764e-06 -0.000223248
0.000335142 -0.00025754 -1.90761e-05
-0.00025754 -0.000250333 2.07404e-05
-1.90761e-05 2.07404e-05 -0.000429603
0.00143503 -0.000457509 -2.35419e-08
-0.000457509 8.97734e-05 1.622e-07
-2.35419e-08 1.622e-07 -0.000222376
0.00205294 -0.000648202 3.53284e-06
-0.000648202 0.000276936 1.56979e-06
3.53284e-06 1.56979e-06 -8.40033e-05
0.00864073 -0.000151584 -0.000404417
-0.000151584 0.00522984 3.84437e-05
-0.000404417 3.84437e-05 0.00525574
0.000328473 -0.000281475 -1.31887e-06
-0.000281475 -0.000230478 1.02894e-06
-1.31887e-06 1.02894e-06 -0.000416636
0.00123954 -0.0004858 2.17086e-05
-0.0004858 7.8506e-05 -6.26987e-06
2.17086e-05 -6.26987e-06 -0.000273457
0.00869032 -9.85637e-05 -2.6884e-07
-9.85637e-05 0.00528231 1.70261e-06
-2.6884e-07 1.70261e-06 0.00530139
0.000111737 -0.000299945 2.61075e-05
-0.000299945 -0.000333646 -2.53626e-05
2.61075e-05 -2.53626e-05 -0.000527372
0.00856153 -7.08101e-05 0.000372556
-7.08101e-05 0.00522637 -4.03184e-05
0.000372556 -4.03184e-05 0.00523958
0.00211037 0.000840015 1.03932e-06
0.000840015 0.000233381 1.11689e-05
1.03932e-06 1.11689e-05 -0.000162119
0.00197494 0.000835124 1.5446e-06
0.000835124 0.000324558 -1.13196e-07
1.5446e-06 -1.13196e-07 -0.000131924
0.00220144 0.000787873 -2.89232e-06
0.000787873 0.0005283 9.18105e-06
-2.89232e-06 9.18105e-06 6.83823e-05
0.00205327 0.000926669 8.7687e-06
0.000926669 0.000575978 -9.42752e-06
8.7687e-06 -9.42752e-06 1.36104e-05
0.00179921 0.000763905 -2.47782e-07
0.000763905 0.000443183 1.46229e-06
-2.47782e-07 1.46229e-06 -5.95262e-05
0.000765869 0.00038261 -2.36432e-05
0.00038261 -7.10881e-05 -2.09252e-06
-2.36432e-05 -2.09252e-06 -0.00039521
0.00209084 0.000633458 -9.09428e-07
0.000633458 0.000757669 -4.19578e-06
-9.09428e-07 -4.19578e-06 0.000308691
0.000571519 0.000282993 7.73559e-07
0.000282993 -6.13353e-05 -3.48849e-07
7.73559e-07 -3.48849e-07 -0.000347457
0.000492905 0.000286356 -3.42765e-05
0.000286356 -7.78276e-05 -2.65452e-05
-3.42765e-05 -2.65452e-05 -0.000230006
0.0015565 0.000206406 2.59863e-06
0.000206406 0.000612804 2.58266e-06
2.59863e-06 2.58266e-06 0.000368331
0.000355309 0.000209031 3.63793e-06
0.000209031 -0.000149372 -1.2868e-06
3.63793e-06 -1.2868e-06 -0.000270727
0.0071549 -0.000162326 -0.000244222
-0.000162326 0.00441639 -3.1488e-05
-0.000244222 -3.1488e-05 0.00438874
0.000301893 0.000163043 2.56265e-05
0.000163043 -0.00012768 2.29153e-05
2.56265e-05 2.29153e-05 -0.000238226
0.00561376 -0.00019122 -1.01904e-05
-0.00019122 0.00342733 1.97036e-07
-1.01904e-05 1.97036e-07 0.00339769
0.00429914 -0.000193813 8.67732e-05
-0.000193813 0.00256735 1.36906e-05
8.67732e-05 1.36906e-05 0.00253997
0.00169928 0.000339451 5.02181e-05
0.000339451 -0.000526324 1.67021e-05
5.02181e-05 1.67021e-05 -7.8476e-05
0.00203129 0.000551839 -4.71209e-06
0.000551839 -0.002286 -7.11714e-06
-4.71209e-06 -7.11714e-06 -0.000830255
0.00547187 0.00101589 0.000284611
0.00101589 -0.00195572 0.000112452
0.000284611 0.000112452 0.000950009
0.00274404 0.000983545 -9.33893e-06
0.000983545 0.00042087 2.85074e-07
-9.33893e-06 2.85074e-07 7.31468e-05
0.00232961 0.00103754 -9.17896e-06
0.00103754 0.000383197 -5.27963e-06
-9.17896e-06 -5.27963e-06 -7.11165e-05
0.00247615 0.00074347 4.45251e-06
0.00074347 0.000219042 4.5216e-06
4.45251e-06 4.5216e-06 -2.18855e-05
0.00251859 0.000926594 1.51014e-06
0.000926594 0.000373055 4.29223e-07
1.51014e-06 4.29223e-07 3.28271e-06
0.00188398 0.000886179 -5.04815e-06
0.000886179 0.000212064 -1.54346e-05
-5.04815e-06 -1.54346e-05 -0.000229443
0.00284672 0.000887831 -6.37816e-06
0.000887831 0.000209633 1.55905e-06
-6.37816e-06 1.55905e-06 3.30242e-05
0.00254449 0.00127616 -1.00232e-05
0.00127616 0.000664461 -8.04737e-06
-1.00232e-05 -8.04737e-06 0.000108708
0.00277077 0.00113461 -1.53897e-06
0.00113461 0.000418715 -1.16291e-06
-1.53897e-06 -1.16291e-06 2.70249e-05
0.00235441 0.00054384 -1.28769e-05
0.00054384 -0.000291134 -1.62061e-07
-1.28769e-05 -1.62061e-07 -0.000155684
0.00291305 0.00137765 -1.5691e-05
0.00137765 0.000666651 1.97462e-05
-1.5691e-05 1.97462e-05 0.000162051
0.00282144 0.00108564 1.28072e-06
0.00108564 0.000290165 -3.46872e-06
1.28072e-06 -3.46872e-06 5.67733e-05
0.000542832 0.000507724 -1.74224e-05
0.000507724 -0.00100253 8.45533e-07
-1.74224e-05 8.45533e-07 -0.000688718
-0.00263369 0.000541451 -2.73249e-05
0.000541451 -0.00224521 -1.72641e-05
-2.73249e-05 -1.72641e-05 -0.0023543
0.0046513 0.00165963 -0.000176939
0.00165963 -0.000341885 -6.72802e-05
-0.000176939 -6.72802e-05 0.00055046
0.00272486 0.000193964 1.59049e-06
0.000193964 -0.000178028 -2.02767e-06
1.59049e-06 -2.02767e-06 4.65327e-05
0.00308503 -2.38165e-05 -3.7283e-06
-2.38165e-05 0.00018983 7.63223e-07
-3.7283e-06 7.63223e-07 0.000438659
0.00318424 -0.00034194 -0.00013669
-0.00034194 -0.00131898 -1.05205e-05
-0.00013669 -1.05205e-05 -0.000125632
0.00150561 -0.000439254 -9.36783e-05
-0.000439254 -0.00120598 2.18826e-05
-9.36783e-05 2.18826e-05 -0.000488909
0.00218494 -0.000123049 -1.6501e-05
-0.000123049 -0.000406521 -1.87128e-06
-1.6501e-05 -1.87128e-06 -0.000135268
0.00255918 -0.000328946 4.88996e-06
-0.000328946 -0.000385155 -7.5756e-07
4.88996e-06 -7.5756e-07 -3.59146e-05
0.00274102 0.000102203 -3.10819e-06
0.000102203 -0.000217944 -4.94127e-07
-3.10819e-06 -4.94127e-07 -2.01125e-05
0.00263511 -6.64965e-05 -2.22824e-06
-6.64965e-05 -0.000209758 -6.51807e-07
-2.22824e-06 -6.51807e-07 1.24125e-05
0.0027933 -0.000593028 -2.68166e-06
-0.000593028 -0.00022808 1.9063e-06
-2.68166e-06 1.9063e-06 -2.20482e-05
0.00256116 -0.000370383 3.03553e-07
-0.000370383 -0.000200589 -3.3337e-07
3.03553e-07 -3.3337e-07 -2.24557e-05
0.00247112 -0.000277526 1.20078e-06
-0.000277526 -9.03046e-05 -3.45659e-07
1.20078e-06 -3.45659e-07 3.40905e-05
0.00259106 -0.000533704 3.10326e-07
-0.000533704 -6.06039e-05 8.99706e-07
3.10326e-07 8.99706e-07 4.82602e-06
0.00243883 -0.000428692 2.72908e-07
-0.000428692 -4.92402e-05 1.17182e-07
2.72908e-07 1.17182e-07 -4.84895e-06
0.00229134 -0.000361942 -3.98413e-07
-0.000361942 3.46789e-07 1.54055e-08
-3.98413e-07 1.54055e-08 -4.40768e-06
0.00243506 -0.000534707 6.54678e-07
-0.000534707 3.86453e-05 3.43565e-07
6.54678e-07 3.43565e-07 -6.3446e-07
0.00232268 -0.000478992 3.77471e-07
-0.000478992 6.58367e-05 8.80874e-09
3.77471e-07 8.80874e-09 1.63146e-06
0.00232449 -0.000452987 -4.09553e-06
-0.000452987 0.000140313 8.24578e-07
-4.09553e-06 8.24578e-07 2.99695e-05
0.00230276 -0.000576276 1.96242e-06
-0.000576276 0.000111459 -5.82075e-07
1.96242e-06 -5.82075e-07 -1.29203e-05
0.002273 -0.000539297 4.82785e-07
-0.000539297 0.00017087 -4.561e-07
4.82785e-07 -4.561e-07 -2.13764e-06
0.00216484 -0.00048015 -2.0054e-06
-0.00048015 0.00018156 -1.45102e-06
-2.0054e-06 -1.45102e-06 -2.77489e-05
0.0021735 -0.000605612 1.03376e-06
-0.000605612 0.000161898 6.40761e-07
1.03376e-06 6.40761e-07 -6.33474e-05
0.00220299 -0.000553868 -7.30031e-07
-0.000553868 0.00026876 1.3637e-07
-7.30031e-07 1.3637e-07 9.69379e-06
0.0014007 -0.000346188 -1.14185e-05
-0.000346188 1.60265e-05 4.79961e-06
-1.14185e-05 4.79961e-06 -0.000223423
0.00221509 -0.000599852 2.80931e-06
-0.000599852 0.000337093 2.03402e-06
2.80931e-06 2.03402e-06 4.1693e-05
0.00144063 -0.000398879 2.64422e-08
-0.000398879 5.89996e-05 1.97826e-07
2.64422e-08 1.97826e-07 -0.000211754
0.00299642 -0.000261931 -5.98119e-05
-0.000261931 0.00145283 1.52619e-05
-5.98119e-05 1.52619e-05 0.00131189
0.00284726 -0.000146915 -0.000317448
-0.000146915 0.00148596 4.93131e-05
-0.000317448 4.93131e-05 0.00146856
0.00171711 -0.000279616 -1.81395e-05
-0.000279616 0.000639483 4.13998e-07
-1.81395e-05 4.13998e-07 0.000472394
0.00145126 -0.000456946 1.81342e-05
-0.000456946 0.000103616 -6.22214e-06
1.81342e-05 -6.22214e-06 -0.000207079
0.00844852 -0.000153666 -1.02774e-05
-0.000153666 0.00511722 2.89232e-06
-1.02774e-05 2.89232e-06 0.00513654
0.000138172 -0.000300158 2.31943e-05
-0.000300158 -0.000352567 -2.26155e-05
2.31943e-05 -2.26155e-05 -0.000543955
0.00871762 -0.000107676 0.00037818
-0.000107676 0.00530527 -4.24602e-05
0.00037818 -4.24602e-05 0.00531907
0.00231653 0.000577095 2.08898e-06
0.000577095 0.00013444 1.57789e-06
2.08898e-06 1.57789e-06 -3.28339e-05
0.00236644 0.000749825 4.33668e-06
0.000749825 0.000317972 7.87296e-06
4.33668e-06 7.87296e-06 1.31867e-05
0.00237371 0.000858104 6.54641e-07
0.000858104 0.000402386 7.49344e-08
6.54641e-07 7.49344e-08 1.06119e-05
0.00217297 0.00073875 -6.99811e-07
0.00073875 0.000410795 8.65854e-06
-6.99811e-07 8.65854e-06 1.25157e-05
0.0020254 0.000853729 7.21934e-06
0.000853729 0.000356379 -1.07112e-05
7.21934e-06 -1.07112e-05 -0.000102521
0.002019 0.000769034 5.92231e-07
0.000769034 0.000407418 5.69072e-07
5.92231e-07 5.69072e-07 -4.94428e-05
0.0010831 0.000461685 -3.51518e-05
0.000461685 3.59995e-05 -3.57469e-06
-3.51518e-05 -3.57469e-06 -0.000307537
0.00176363 0.000761914 7.69941e-06
0.000761914 0.000410697 -6.82221e-06
7.69941e-06 -6.82221e-06 -9.3435e-05
0.000883203 0.000390843 -2.97617e-06
0.000390843 1.33613e-05 2.75551e-07
-2.97617e-06 2.75551e-07 -0.000309098
0.000181261 0.000318261 -3.17096e-05
0.000318261 -0.00028471 -2.45629e-05
-3.17096e-05 -2.45629e-05 -0.000467997
0.000935757 0.000268284 1.21401e-05
0.000268284 0.000167702 -1.02558e-06
1.21401e-05 -1.02558e-06 -0.000102547
0.000270723 0.000241568 4.28067e-06
0.000241568 -0.000217344 -1.38177e-06
4.28067e-06 -1.38177e-06 -0.000366035
0.00845681 -3.58893e-05 -0.000334499
-3.58893e-05 0.00518802 -3.78048e-05
-0.000334499 -3.78048e-05 0.005185
0.000583411 0.000190228 3.11365e-05
0.000190228 7.38456e-07 2.20138e-05
3.11365e-05 2.20138e-05 -0.000118371
0.00688907 -0.000163327 8.72143e-06
-0.000163327 0.00423172 -3.6962e-06
8.72143e-06 -3.6962e-06 0.00420899
0.00507459 -0.000237048 0.000110741
-0.000237048 0.0031013 1.91377e-05
0.000110741 1.91377e-05 0.00305574
0.00253629 0.000251052 -5.30729e-06
0.000251052 -0.000328829 5.46335e-07
-5.30729e-06 5.46335e-07 -6.0416e-05
0.00172103 0.000277778 1.18429e-05
0.000277778 -0.000794999 -3.53913e-06
1.18429e-05 -3.53913e-06 -0.000222066
0.00378327 0.000662948 -0.000165978
0.000662948 -0.00167598 -1.3632e-05
-0.000165978 -1.3632e-05 -0.00014513
0.00253422 0.000690277 -1.75184e-06
0.000690277 0.000146799 1.58735e-06
-1.75184e-06 1.58735e-06 1.88153e-06
0.0026457 0.000963 -4.20562e-06
0.000963 0.000399818 -7.37477e-07
-4.20562e-06 -7.37477e-07 6.0322e-05
0.00227108 0.00105022 -4.67547e-06
0.00105022 0.000332476 -9.22788e-06
-4.67547e-06 -9.22788e-06 -0.000120239
0.00245168 0.000723738 1.34236e-06
0.000723738 0.000223215 1.3349e-06
1.34236e-06 1.3349e-06 -1.55252e-05
0.00259515 0.00092515 -9.56482e-07
0.00092515 0.000422978 -7.7519e-06
-9.56482e-07 -7.7519e-06 5.99586e-05
0.00273282 0.000542696 4.72749e-06
0.000542696 -4.59188e-05 1.1701e-06
4.72749e-06 1.1701e-06 4.11559e-05
0.00274171 0.000879812 -2.14571e-06
0.000879812 0.000163099 3.97345e-07
-2.14571e-06 3.97345e-07 -6.95822e-06
0.0028937 0.00111145 2.53531e-06
0.00111145 0.000516709 -3.35061e-06
2.53531e-06 -3.35061e-06 0.000127149
0.00224977 0.000508823 7.79798e-08
0.000508823 -0.000297477 4.9065e-07
7.79798e-08 4.9065e-07 -0.000152858
0.00248832 0.00103046 1.0736e-05
0.00103046 9.14894e-05 -2.51772e-06
1.0736e-05 -2.51772e-06 -0.000135499
-0.000368313 0.000467191 -4.40287e-05
0.000467191 -0.00162977 -1.23732e-05
-4.40287e-05 -1.23732e-05 -0.00119341
0.00256524 0.000109896 9.77217e-08
0.000109896 -0.000150381 -1.73238e-07
9.77217e-08 -1.73238e-07 3.00698e-05
0.00260963 0.000185987 -4.02198e-07
0.000185987 -0.000261565 7.57086e-07
-4.02198e-07 7.57086e-07 -3.18268e-05
0.00302946 -2.04726e-06 -6.16985e-05
-2.04726e-06 0.000183022 -4.88368e-06
-6.16985e-05 -4.88368e-06 0.000371194
0.00243826 -0.000340375 -2.29328e-05
-0.000340375 -0.000490157 2.75588e-06
-2.29328e-05 2.75588e-06 -9.73301e-05
0.00299997 0.000121883 3.92447e-06
0.000121883 -5.30853e-05 3.04698e-06
3.92447e-06 3.04698e-06 0.000130204
0.00264061 -7.40765e-05 -9.54363e-07
-7.40765e-05 -0.000217382 -7.04721e-07
-9.54363e-07 -7.04721e-07 6.37887e-06
0.00232738 -8.00127e-05 7.72496e-07
-8.00127e-05 -0.000114571 4.51897e-08
7.72496e-07 4.51897e-08 -5.33845e-06
0.00249017 -0.00035361 1.19064e-06
-0.00035361 -0.000226786 -1.57354e-07
1.19064e-06 -1.57354e-07 -5.85387e-05
0.00242615 -0.000285644 -2.18836e-08
-0.000285644 -0.000114009 -1.43373e-08
-2.18836e-08 -1.43373e-08 1.70842e-06
0.00223151 -0.000237416 9.71654e-07
-0.000237416 -5.01924e-05 -3.70552e-07
9.71654e-07 -3.70552e-07 -1.91966e-05
0.00243684 -0.000427061 -8.68561e-07
-0.000427061 -4.76452e-05 8.49403e-07
-8.68561e-07 8.49403e-07 -6.35426e-06
0.00229858 -0.000361694 8.35542e-08
-0.000361694 1.08818e-06 3.17087e-08
8.35542e-08 3.17087e-08 -3.79944e-06
0.00229375 -0.000350085 -4.86194e-06
-0.000350085 7.35059e-05 6.8566e-07
-4.86194e-06 6.8566e-07 1.73165e-05
0.0023297 -0.000480148 1.66831e-06
-0.000480148 6.69637e-05 -1.22629e-07
1.66831e-06 -1.22629e-07 2.46683e-06
0.00230899 -0.000451253 5.06e-07
-0.000451253 0.000131797 -5.35127e-08
5.06e-07 -5.35127e-08 2.15443e-05
0.00218728 -0.000396486 -1.85114e-06
-0.000396486 0.000157764 -1.07355e-06
-1.85114e-06 -1.07355e-06 -2.30286e-06
0.00222329 -0.000534267 2.67757e-06
-0.000534267 0.00013787 -6.95323e-07
2.67757e-06 -6.95323e-07 -3.44059e-05
0.00221451 -0.000484235 -7.76579e-07
-0.000484235 0.000213951 1.12121e-07
-7.76579e-07 1.12121e-07 3.89918e-06
0.00140904 -0.000296162 -8.8311e-06
-0.000296162 1.11624e-06 3.59821e-06
-8.8311e-06 3.59821e-06 -0.000210706
0.00225259 -0.000556688 2.48181e-06
-0.000556688 0.000306572 1.31826e-06
2.48181e-06 1.31826e-06 4.71012e-05
0.00144386 -0.000350901 -1.15063e-07
-0.000350901 3.29852e-05 2.56749e-07
-1.15063e-07 2.56749e-07 -0.00020623
0.00294977 -0.000241263 -6.66282e-05
-0.000241263 0.00142298 1.45972e-05
-6.66282e-05 1.45972e-05 0.00129578
0.00147152 -0.000402632 1.36726e-05
-0.000402632 7.18004e-05 -5.5556e-06
1.36726e-05 -5.5556e-06 -0.000198661
0.00310899 -0.000294907 5.72349e-05
-0.000294907 0.00152914 -9.93562e-06
5.72349e-05 -9.93562e-06 0.00139896
0.00269332 -0.000170419 -0.000307438
-0.000170419 0.00139701 5.2818e-05
-0.000307438 5.2818e-05 0.00137603
0.0053772 -0.000185776 -0.000300838
-0.000185776 0.00314152 3.78407e-05
-0.000300838 3.78407e-05 0.00314102
0.00323524 -0.00035919 0.000190815
-0.00035919 0.00162938 -3.42272e-05
0.000190815 -3.42272e-05 0.00149495
0.00832133 -0.000165992 0.000378075
-0.000165992 0.00504405 -4.63546e-05
0.000378075 -4.63546e-05 0.0050599
0.00239329 0.000551973 1.76799e-07
0.000551973 0.00012592 -5.31483e-07
1.76799e-07 -5.31483e-07 2.39016e-05
0.00218648 0.000592142 -7.26154e-08
0.000592142 0.000169695 2.92181e-06
-7.26154e-08 2.92181e-06 -4.8777e-05
0.00231916 0.000567844 6.27761e-07
0.000567844 0.000143078 -8.7713e-08
6.27761e-07 -8.7713e-08 -1.27587e-05
0.00220257 0.000651018 -1.15937e-06
0.000651018 0.00033255 6.61939e-06
-1.15937e-06 6.61939e-06 1.016e-05
0.002441 0.000757499 -6.52484e-08
0.000757499 0.000352999 -1.70975e-07
-6.52484e-08 -1.70975e-07 4.79591e-05
0.00275953 0.000888291 -5.73689e-07
0.000888291 0.000652513 -1.01243e-05
-5.73689e-07 -1.01243e-05 0.00026213
0.00210241 0.000734742 1.12313e-06
0.000734742 0.000358481 3.85493e-07
1.12313e-06 3.85493e-07 -3.98927e-05
0.00143762 0.00049717 -3.28034e-05
0.00049717 0.000137555 -4.82437e-06
-3.28034e-05 -4.82437e-06 -0.00019373
0.00188972 0.000756821 5.89356e-06
0.000756821 0.000320565 -8.09147e-06
5.89356e-06 -8.09147e-06 -0.000135022
0.00117435 0.000478432 -3.42588e-06
0.000478432 7.34212e-05 -1.17986e-07
-3.42588e-06 -1.17986e-07 -0.00027405
0.000173015 0.000303729 -2.78267e-05
0.000303729 -0.000316234 -2.22002e-05
-2.78267e-05 -2.22002e-05 -0.000508716
0.00105292 0.00039614 2.44732e-05
0.00039614 0.000131232 5.49616e-06
2.44732e-05 5.49616e-06 -0.000188194
0.000270397 0.000281041 2.61725e-06
0.000281041 -0.000237165 2.37148e-06
2.61725e-06 2.37148e-06 -0.000412451
0.00883371 6.34276e-05 -0.000364453
6.34276e-05 0.0053909 -4.31511e-05
-0.000364453 -4.31511e-05 0.0053953
8.56465e-05 0.00020436 2.67259e-05
0.00020436 -0.000345177 2.45636e-05
2.67259e-05 2.45636e-05 -0.000485311
0.00787659 -7.95221e-05 9.44288e-06
-7.95221e-05 0.00481687 -2.28792e-06
9.44288e-06 -2.28792e-06 0.00481203
0.00640674 -0.000184904 0.000185247
-0.000184904 0.00391841 1.75474e-05
0.000185247 1.75474e-05 0.00389391
0.00260954 0.000311549 2.48797e-06
0.000311549 -0.000123358 9.83595e-08
2.48797e-06 9.83595e-08 3.06168e-05
0.00244237 0.00025283 2.30854e-06
0.00025283 -0.000314049 -1.17715e-06
2.30854e-06 -1.17715e-06 -4.94284e-05
0.00109531 0.000219932 -6.59853e-05
0.000219932 -0.00146593 -3.9369e-06
-6.59853e-05 -3.9369e-06 -0.000741254
0.00245242 0.000479069 3.85529e-06
0.000479069 -2.55409e-05 1.08301e-06
3.85529e-06 1.08301e-06 -1.23569e-05
0.00248254 0.000683736 -1.09345e-06
0.000683736 0.000128282 2.07478e-07
-1.09345e-06 2.07478e-07 -1.30776e-05
0.0025209 0.00093808 7.1813e-06
0.00093808 0.000363224 -2.82032e-06
7.1813e-06 -2.82032e-06 3.35427e-05
0.00245517 0.000706972 -2.59915e-06
0.000706972 0.00024437 -3.779e-06
-2.59915e-06 -3.779e-06 8.2627e-06
0.00270301 0.000527321 -2.57767e-06
0.000527321 -4.75361e-05 -2.35139e-07
-2.57767e-06 -2.35139e-07 3.70988e-05
0.00261512 0.000865216 3.10826e-06
0.000865216 0.000113601 -1.87037e-06
3.10826e-06 -1.87037e-06 -4.93283e-05
0.00216101 0.000492707 1.08276e-05
0.000492707 -0.000245698 -1.87934e-06
1.08276e-05 -1.87934e-06 -0.000103741
0.00238539 8.42275e-05 2.09494e-06
8.42275e-05 -8.34087e-05 2.6997e-07
2.09494e-06 2.6997e-07 1.66052e-05
0.00250594 0.000109953 7.55936e-08
0.000109953 -0.00017548 -1.19482e-07
7.55936e-08 -1.19482e-07 3.00795e-07
0.00251924 0.000183579 -9.32132e-06
0.000183579 -0.000320413 -1.33934e-07
-9.32132e-06 -1.33934e-07 -8.93924e-05
0.00221794 -1.44922e-05 1.06627e-07
-1.44922e-05 -7.92652e-05 2.40593e-07
1.06627e-07 2.40593e-07 -1.32829e-05
0.00266331 -8.63597e-05 3.37545e-06
-8.63597e-05 -0.000213481 3.17036e-08
3.37545e-06 3.17036e-08 1.23016e-05
0.00233876 -8.41913e-05 -3.40582e-07
-8.41913e-05 -0.00010753 3.16726e-07
-3.40582e-07 3.16726e-07 7.82643e-07
0.00217692 -0.000124882 -4.01474e-08
-0.000124882 -6.99741e-05 6.58156e-08
-4.01474e-08 6.58156e-08 -3.01995e-05
0.00238067 -0.000293763 -9.97342e-07
-0.000293763 -0.000137673 5.00944e-07
-9.97342e-07 5.00944e-07 -3.10118e-05
0.00223926 -0.00023395 7.25199e-07
-0.00023395 -4.62065e-05 -3.59061e-07
7.25199e-07 -3.59061e-07 -1.4416e-05
0.0022557 -0.000240901 -3.70974e-06
-0.000240901 4.38099e-05 6.02366e-07
-3.70974e-06 6.02366e-07 1.62005e-05
0.00230854 -0.000361136 7.46876e-07
-0.000361136 3.56378e-06 -5.74419e-08
7.46876e-07 -5.74419e-08 -1.41353e-06
0.0023178 -0.000350068 2.19687e-07
-0.000350068 9.192e-05 -1.59998e-07
2.19687e-07 -1.59998e-07 3.53097e-05
0.00219308 -0.000316501 -1.7198e-06
-0.000316501 0.000133481 -8.18552e-08
-1.7198e-06 -8.18552e-08 1.36475e-05
0.00229566 -0.000449544 4.35154e-06
-0.000449544 0.000125422 -7.56176e-07
4.35154e-06 -7.56176e-07 1.5259e-05
0.00218411 -0.000397034 -8.21436e-07
-0.000397034 0.000150085 -1.92722e-07
-8.21436e-07 -1.92722e-07 -1.00774e-05
0.00135947 -0.000242668 -5.88885e-06
-0.000242668 -3.64236e-05 2.63683e-06
-5.88885e-06 2.63683e-06 -0.00022438
0.00227237 -0.000488647 2.41989e-06
-0.000488647 0.000252389 9.63633e-07
2.41989e-06 9.63633e-07 4.15894e-05
0.00142998 -0.000297526 -2.92653e-07
-0.000297526 4.1921e-06 1.56045e-07
-2.92653e-07 1.56045e-07 -0.000206583
0.00283014 -0.000215919 -7.1732e-05
-0.000215919 0.00135433 1.36554e-05
-7.1732e-05 1.36554e-05 0.00123765
0.00147991 -0.000355332 1.02569e-05
-0.000355332 4.50182e-05 -4.40412e-06
1.02569e-05 -4.40412e-06 -0.000193901
0.00302399 -0.000257566 5.22801e-05
-0.000257566 0.0014714 -7.70432e-06
5.22801e-05 -7.70432e-06 0.00135572
0.00265646 -0.000143347 -0.000298417
-0.000143347 0.00136653 4.54668e-05
-0.000298417 4.54668e-05 0.00134847
0.00320119 -0.000297795 0.000179037
-0.000297795 0.00158362 -3.38384e-05
0.000179037 -3.38384e-05 0.00146808
0.00227813 -0.000105955 -0.000118437
-0.000105955 0.00112779 1.9229e-05
-0.000118437 1.9229e-05 0.00109013
0.00768288 -0.000102198 0.000134987
-0.000102198 0.00461511 -9.5952e-06
0.000134987 -9.5952e-06 0.00459479
0.00237112 0.000463516 4.80601e-07
0.000463516 8.08265e-05 2.41753e-07
4.80601e-07 2.41753e-07 2.60606e-05
0.00225793 0.000524916 -2.97334e-06
0.000524916 0.000116177 -9.76378e-07
-2.97334e-06 -9.76378e-07 -3.37721e-05
0.0023963 0.000549752 -2.9765e-06
0.000549752 0.000126819 5.9634e-08
-2.9765e-06 5.9634e-08 2.09018e-05
0.00212279 0.000549985 -2.31858e-06
0.000549985 0.000202416 2.50808e-06
-2.31858e-06 2.50808e-06 -5.81629e-05
0.0022157 0.000606984 -1.14445e-06
0.000606984 0.000165553 -2.21427e-06
-1.14445e-06 -2.21427e-06 -4.65933e-05
0.00230022 0.000555586 -5.25981e-06
0.000555586 0.00013773 -3.39977e-06
-5.25981e-06 -3.39977e-06 -6.43579e-06
0.00151499 0.000440235 -2.41534e-05
0.000440235 7.87586e-05 -4.49535e-06
-2.41534e-05 -4.49535e-06 -0.000203959
0.00212758 0.000645617 1.45908e-06
0.000645617 0.000280005 2.96316e-07
1.45908e-06 2.96316e-07 -4.15337e-05
0.00252293 0.000765068 2.33649e-06
0.000765068 0.000393678 -7.91119e-06
2.33649e-06 -7.91119e-06 8.80811e-05
0.0020239 0.000729523 2.09448e-06
0.000729523 0.000302116 -7.90316e-06
2.09448e-06 -7.90316e-06 -9.61097e-05
0.00141569 0.000498402 -8.32578e-07
0.000498402 0.000119625 8.31754e-08
-8.32578e-07 8.31754e-08 -0.00021363
0.000318282 0.000297612 -2.53005e-05
0.000297612 -0.000247769 -2.02466e-05
-2.53005e-05 -2.02466e-05 -0.000434426
0.00138114 0.000497682 3.71075e-05
0.000497682 0.000190262 6.2323e-06
3.71075e-05 6.2323e-06 -0.000159623
0.000143178 0.000289739 1.05799e-06
0.000289739 -0.000325209 1.3098e-06
1.05799e-06 1.3098e-06 -0.000515567
0.00840808 0.000153061 -0.000363591
0.000153061 0.00511061 -4.93472e-05
-0.000363591 -4.93472e-05 0.00511433
9.40879e-05 0.000235968 2.38059e-05
0.000235968 -0.000347872 2.50469e-05
2.38059e-05 2.50469e-05 -0.00051779
0.00868209 2.35323e-05 6.19584e-06
2.35323e-05 0.00528953 7.56441e-07
6.19584e-06 7.56441e-07 0.00529838
0.00769549 -0.000114052 0.000261537
-0.000114052 0.00469909 1.90621e-05
0.000261537 1.90621e-05 0.00469449
0.00237956 0.000253268 1.33137e-06
0.000253268 -6.53397e-05 -3.11884e-07
1.33137e-06 -3.11884e-07 6.00093e-06
0.00256116 0.000317572 -1.07808e-06
0.000317572 -0.000175147 3.9191e-07
-1.07808e-06 3.9191e-07 -1.51538e-05
0.00234509 0.000245001 -3.04891e-08
0.000245001 -0.000340273 1.16674e-07
-3.04891e-08 1.16674e-07 -7.24761e-05
0.00244762 0.00047414 3.25375e-07
0.00047414 -2.63445e-05 3.84594e-07
3.25375e-07 3.84594e-07 -1.10644e-05
0.00243551 0.000678187 -1.47984e-07
0.000678187 0.000113858 -1.89636e-06
-1.47984e-07 -1.89636e-06 -2.44596e-05
0.00262701 0.00051073 4.08001e-07
0.00051073 -9.40079e-05 -8.18671e-07
4.08001e-07 -8.18671e-07 -8.52041e-06
0.00226913 7.99296e-05 1.64787e-06
7.99296e-05 -5.14212e-05 2.21835e-07
1.64787e-06 2.21835e-07 4.57202e-06
0.00236993 8.38899e-05 2.92037e-07
8.38899e-05 -8.87891e-05 -2.04998e-07
2.92037e-07 -2.04998e-07 1.09619e-05
0.00243431 0.000109848 -2.76867e-07
0.000109848 -0.000209501 2.47031e-07
-2.76867e-07 2.47031e-07 -3.76971e-05
0.00223285 -1.13849e-05 -6.0406e-07
-1.13849e-05 -6.73633e-05 6.93882e-08
-6.0406e-07 6.93882e-08 -3.39599e-06
0.00220758 -3.3745e-05 -1.91175e-06
-3.3745e-05 9.29606e-06 4.29809e-07
-1.91175e-06 4.29809e-07 3.76222e-05
0.0023501 -8.80527e-05 -1.13595e-06
-8.80527e-05 -0.000100829 2.15632e-07
-1.13595e-06 2.15632e-07 6.81184e-06
0.00220548 -0.000126244 -1.14864e-06
-0.000126244 -4.23434e-05 2.293e-07
-1.14864e-06 2.293e-07 -7.63568e-06
0.00213646 -0.000148953 -4.67369e-06
-0.000148953 -2.77886e-05 8.89011e-07
-4.67369e-06 8.89011e-07 -4.01791e-05
0.00224338 -0.000230787 7.57257e-07
-0.000230787 -4.43733e-05 -4.00358e-07
7.57257e-07 -4.00358e-07 -1.18463e-05
0.00226419 -0.000241669 1.51667e-06
-0.000241669 5.22769e-05 -3.88496e-07
1.51667e-06 -3.88496e-07 2.42946e-05
0.00215608 -0.000235755 -6.55011e-07
-0.000235755 8.46167e-05 2.38415e-07
-6.55011e-07 2.38415e-07 -7.15649e-06
0.00233891 -0.000351017 4.94648e-06
-0.000351017 0.000108687 -1.00639e-06
4.94648e-06 -1.00639e-06 5.14435e-05
0.00216649 -0.000315734 -4.45289e-07
-0.000315734 0.000111528 -1.5288e-07
-4.45289e-07 -1.5288e-07 -8.00156e-06
0.00131788 -0.000192568 -3.68755e-06
-0.000192568 -5.85457e-05 1.87165e-06
-3.68755e-06 1.87165e-06 -0.000227102
0.00217883 -0.000397645 2.09588e-06
-0.000397645 0.00013976 1.28348e-07
2.09588e-06 1.28348e-07 -2.05029e-05
0.00138533 -0.000242292 -3.40642e-07
-0.000242292 -2.56969e-05 7.86021e-08
-3.40642e-07 7.86021e-08 -0.000212269
0.00271898 -0.000199778 -7.28703e-05
-0.000199778 0.00129399 1.17416e-05
-7.28703e-05 1.17416e-05 0.00118628
0.0014492 -0.000298914 7.31534e-06
-0.000298914 5.63462e-06 -3.29411e-06
7.31534e-06 -3.29411e-06 -0.000204064
0.00292153 -0.000213322 4.9246e-05
-0.000213322 0.00140834 -5.95451e-06
4.9246e-05 -5.95451e-06 0.00130496
0.00257636 -0.000116172 -0.000291077
-0.000116172 0.00131197 3.75654e-05
-0.000291077 3.75654e-05 0.00129588
0.00310458 -0.000246507 0.000173476
-0.000246507 0.00151434 -2.82922e-05
0.000173476 -2.82922e-05 0.00141429
0.00223672 -0.000100916 -0.000107837
-0.000100916 0.00110071 1.49131e-05
-0.000107837 1.49131e-05 0.00106487
0.00191394 -9.9819e-05 7.95823e-05
-9.9819e-05 0.000908406 -1.36605e-05
7.95823e-05 -1.36605e-05 0.00084708
0.00225776 0.000288013 6.69483e-07
0.000288013 -2.14271e-05 -3.51826e-07
6.69483e-07 -3.51826e-07 -1.9675e-05
0.00233759 0.000429666 -4.17199e-06
0.000429666 0.000128903 -5.53676e-07
-4.17199e-06 -5.53676e-07 3.08946e-05
0.00235507 0.000464173 -3.60995e-07
0.000464173 5.03816e-05 -1.10462e-07
-3.60995e-07 -1.10462e-07 6.719e-06
0.00218773 0.000493821 -1.1774e-06
0.000493821 0.000161538 5.15221e-07
-1.1774e-06 5.15221e-07 -4.14543e-05
0.0022896 0.000524613 -9.65007e-07
0.000524613 0.000146314 -3.87953e-07
-9.65007e-07 -3.87953e-07 -7.97149e-06
0.00240165 0.000549292 -5.10793e-08
0.000549292 0.000129434 2.50484e-07
-5.10793e-08 2.50484e-07 1.92637e-05
0.00148625 0.000367371 -1.70962e-05
0.000367371 3.42312e-05 -4.19169e-06
-1.70962e-05 -4.19169e-06 -0.000204896
0.00211309 0.000555569 6.14536e-07
0.000555569 0.000185668 -1.20047e-06
6.14536e-07 -1.20047e-06 -6.68403e-05
0.00227326 0.000625649 -2.57001e-06
0.000625649 0.00017925 -5.51357e-06
-2.57001e-06 -5.51357e-06 -2.71019e-05
0.000361485 0.000235 -2.20653e-05
0.000235 -0.000247847 -1.68255e-05
-2.20653e-05 -1.68255e-05 -0.000411541
0.00147892 0.00043316 -1.45588e-07
0.00043316 6.56479e-05 2.40036e-07
-1.45588e-07 2.40036e-07 -0.000216399
0.00206071 0.000640906 2.98831e-06
0.000640906 0.000232425 -6.43723e-06
2.98831e-06 -6.43723e-06 -8.83458e-05
0.00139067 0.000501206 3.46813e-05
0.000501206 9.72619e-05 5.4203e-06
3.46813e-05 5.4203e-06 -0.000238667
0.000292526 0.000282244 -6.44461e-08
0.000282244 -0.000261317 9.39096e-07
-6.44461e-08 9.39096e-07 -0.000447241
0.00805586 0.000245377 -0.000363933
0.000245377 0.00488143 -5.35489e-05
-0.000363933 -5.35489e-05 0.004883
0.000334413 0.000279478 2.61447e-05
0.000279478 -0.000200387 2.02957e-05
2.61447e-05 2.02957e-05 -0.000387859
0.00857854 0.000130246 1.04364e-05
0.000130246 0.00520574 1.91373e-06
1.04364e-05 1.91373e-06 0.00521817
0.0084916 -1.56936e-05 0.000324986
-1.56936e-05 0.00516211 2.59233e-05
0.000324986 2.59233e-05 0.00517124
0.00228229 0.000154153 7.72159e-07
0.000154153 -1.60869e-05 -2.35371e-07
7.72159e-07 -2.35371e-07 2.79213e-05
0.00234879 0.000257678 6.5281e-07
0.000257678 -9.1273e-05 4.14814e-07
6.5281e-07 4.14814e-07 -2.1801e-05
0.00254788 0.000325403 -5.6382e-07
0.000325403 -0.000195635 5.42904e-07
-5.6382e-07 5.42904e-07 -3.20202e-05
0.00244947 0.000467948 -2.01661e-06
0.000467948 -2.29295e-05 -1.50755e-06
-2.01661e-06 -1.50755e-06 -5.77432e-06
0.00217388 3.50378e-05 -1.90876e-06
3.50378e-05 1.59755e-05 2.95984e-07
-1.90876e-06 2.95984e-07 2.38592e-05
0.00226979 7.06747e-05 -1.79029e-08
7.06747e-05 -5.2792e-05 -5.50567e-08
-1.79029e-08 -5.50567e-08 5.35142e-06
0.00235413 8.32081e-05 -1.477e-06
8.32081e-05 -9.43401e-05 -1.28699e-07
-1.477e-06 -1.28699e-07 4.77994e-06
0.00224551 -7.79663e-06 -2.89886e-06
-7.79663e-06 -5.66266e-05 -3.24165e-07
-2.89886e-06 -3.24165e-07 5.11134e-06
0.00220898 -2.77022e-05 -6.14899e-07
-2.77022e-05 3.37011e-06 -1.55665e-07
-6.14899e-07 -1.55665e-07 3.48509e-05
0.0021209 -6.05909e-05 -4.6483e-06
-6.05909e-05 -1.72888e-05 8.19058e-07
-4.6483e-06 8.19058e-07 -3.24953e-05
0.00223474 -0.000127637 4.58753e-07
-0.000127637 -1.39949e-05 1.40954e-07
4.58753e-07 1.40954e-07 1.5388e-05
0.00217494 -0.000150384 -1.78233e-06
-0.000150384 6.75665e-06 3.47941e-07
-1.78233e-06 3.47941e-07 -1.299e-05
0.00219674 -0.000155591 -1.45046e-06
-0.000155591 9.96094e-05 5.19e-07
-1.45046e-06 5.19e-07 3.12073e-05
0.0022784 -0.000241657 6.6283e-06
-0.000241657 6.32053e-05 -1.35579e-06
6.6283e-06 -1.35579e-06 3.5042e-05
0.00218118 -0.000233526 8.13126e-07
-0.000233526 0.000104376 -2.95709e-07
8.13126e-07 -2.95709e-07 1.36547e-05
0.0013231 -0.000144478 -3.83711e-06
-0.000144478 -4.95072e-05 1.1851e-06
-3.83711e-06 1.1851e-06 -0.000201822
0.00215591 -0.000313502 1.82625e-06
-0.000313502 0.000101319 -5.14959e-07
1.82625e-06 -5.14959e-07 -1.74237e-05
0.00133869 -0.000191973 -1.53105e-07
-0.000191973 -4.75723e-05 1.21588e-07
-1.53105e-07 1.21588e-07 -0.000215061
0.000288508 -0.000104678 -1.69913e-05
-0.000104678 -0.000292205 6.90284e-06
-1.69913e-05 6.90284e-06 -0.000407
0.00140592 -0.00024156 4.70305e-06
-0.00024156 -1.73785e-05 -2.47279e-06
4.70305e-06 -2.47279e-06 -0.000202497
0.0015966 -0.00013965 7.34345e-05
-0.00013965 0.000551225 -6.14094e-06
7.34345e-05 -6.14094e-06 0.00044909
0.00721805 -0.000190374 -0.000387422
-0.000190374 0.00434136 3.19367e-05
-0.000387422 3.19367e-05 0.00436895
0.00302144 -0.000194607 0.000168207
-0.000194607 0.00146229 -2.2162e-05
0.000168207 -2.2162e-05 0.00137453
0.00218276 -9.17672e-05 -9.79506e-05
-9.17672e-05 0.00106986 9.63201e-06
-9.79506e-05 9.63201e-06 0.0010343
0.00181671 -0.000113765 9.05953e-05
-0.000113765 0.00085424 -1.51815e-05
9.05953e-05 -1.51815e-05 0.000792074
0.00220228 0.000189716 -4.09336e-07
0.000189716 -1.47868e-06 -8.83611e-07
-4.09336e-07 -8.83611e-07 2.97232e-08
0.0023148 0.000329041 -2.84666e-06
0.000329041 8.92957e-05 -5.36112e-07
-2.84666e-06 -5.36112e-07 3.09441e-05
0.00227318 0.000280449 -4.43735e-07
0.000280449 2.37472e-06 -4.45336e-08
-4.43735e-07 -4.45336e-08 -2.0755e-06
0.00231405 0.000400749 -9.89066e-07
0.000400749 0.000221979 5.80174e-07
-9.89066e-07 5.80174e-07 7.71365e-05
0.00227303 0.000425827 6.00338e-07
0.000425827 8.54975e-05 7.77496e-08
6.00338e-07 7.77496e-08 -1.14747e-05
0.00234279 0.000464792 -1.26319e-06
0.000464792 2.21949e-05 -5.9688e-07
-1.26319e-06 -5.9688e-07 -1.05083e-05
0.00156351 0.000318274 -1.04564e-05
0.000318274 8.49401e-05 -1.91358e-06
-1.04564e-05 -1.91358e-06 -0.000115058
0.00220347 0.000489127 3.01755e-08
0.000489127 0.000176462 -2.41634e-07
3.01755e-08 -2.41634e-07 -2.50353e-05
0.0022979 0.000521187 2.00159e-06
0.000521187 0.000161291 -1.11963e-06
2.00159e-06 -1.11963e-06 3.11487e-06
0.000349513 0.000169892 -1.86631e-05
0.000169892 -0.000265054 -1.29445e-05
-1.86631e-05 -1.29445e-05 -0.000406185
0.00145925 0.000363088 4.56984e-07
0.000363088 2.43102e-05 5.06029e-07
4.56984e-07 5.06029e-07 -0.000209618
0.00207037 0.000556551 3.32426e-06
0.000556551 0.000148798 -5.80708e-06
3.32426e-06 -5.80708e-06 -9.49344e-05
0.00771535 0.000301011 -0.000366291
0.000301011 0.00466114 -5.20933e-05
-0.000366291 -5.20933e-05 0.00466384
0.000321759 0.000231593 2.65331e-07
0.000231593 -0.00027711 7.37721e-07
2.65331e-07 7.37721e-07 -0.00044232
0.00141643 0.000424098 2.58948e-05
0.000424098 3.54438e-05 4.92687e-06
2.58948e-05 4.92687e-06 -0.000245602
0.000240601 0.000268177 2.29993e-05
0.000268177 -0.000291161 2.03054e-05
2.29993e-05 2.03054e-05 -0.000476384
0.00809892 0.000241772 1.02877e-05
0.000241772 0.00490507 2.74355e-06
1.02877e-05 2.74355e-06 0.00491265
0.00856644 0.000104958 0.000381668
0.000104958 0.00518323 3.46057e-05
0.000381668 3.46057e-05 0.005204
0.00213937 9.64121e-05 -2.99833e-06
9.64121e-05 -4.39222e-07 -1.0499e-07
-2.99833e-06 -1.0499e-07 -6.86951e-07
0.0022712 0.000148641 -1.25967e-07
0.000148641 -2.31377e-05 5.75541e-09
-1.25967e-07 5.75541e-09 1.8399e-05
0.0023123 0.000261498 -1.03671e-06
0.000261498 -0.000120834 3.41216e-07
-1.03671e-06 3.41216e-07 -5.26006e-05
0.0021545 1.60744e-05 -5.97586e-06
1.60744e-05 2.14314e-05 3.2999e-07
-5.97586e-06 3.2999e-07 -3.75613e-06
0.00214415 4.108e-05 7.81616e-07
4.108e-05 -8.13228e-06 9.10961e-09
7.81616e-07 9.10961e-09 3.67922e-06
0.0022709 6.04579e-05 -2.07563e-06
6.04579e-05 -5.42716e-05 -1.52392e-07
-2.07563e-06 -1.52392e-07 6.29136e-06
0.00221194 -2.18557e-05 5.99791e-07
-2.18557e-05 -1.9696e-06 -3.58234e-07
5.99791e-07 -3.58234e-07 3.30313e-05
0.00211978 -5.92739e-05 -6.48666e-07
-5.92739e-05 -1.8723e-05 2.79106e-08
-6.48666e-07 2.79106e-08 -3.30055e-05
0.00209518 -7.28344e-05 -9.7359e-07
-7.28344e-05 4.44847e-05 5.95132e-07
-9.7359e-07 5.95132e-07 -2.89158e-05
0.00221323 -0.000151983 4.16128e-06
-0.000151983 4.18257e-05 -7.33764e-07
4.16128e-06 -7.33764e-07 1.48473e-05
0.00214345 -0.00015703 8.58177e-07
-0.00015703 7.19764e-05 -4.24057e-08
8.58177e-07 -4.24057e-08 -6.46205e-06
0.00148641 -9.11542e-05 -4.59804e-06
-9.11542e-05 6.55264e-05 4.22494e-07
-4.59804e-06 4.22494e-07 -6.04881e-05
0.00218527 -0.000232512 2.322e-06
-0.000232512 0.000110276 -9.31395e-07
2.322e-06 -9.31395e-07 2.01365e-05
0.00132127 -0.000140742 1.29368e-08
-0.000140742 -5.54806e-05 6.77269e-08
1.29368e-08 6.77269e-08 -0.000206701
0.00028063 -3.46533e-05 -1.57128e-05
-3.46533e-05 -0.000295599 3.79895e-06
-1.57128e-05 3.79895e-06 -0.000399559
0.00137676 -0.000190691 3.02329e-06
-0.000190691 -2.79477e-05 -1.65835e-06
3.02329e-06 -1.65835e-06 -0.000194109
0.000316302 -8.95328e-05 -5.00716e-07
-8.95328e-05 -0.000271851 5.40363e-07
-5.00716e-07 5.40363e-07 -0.000386168
0.00712512 -8.10079e-05 -0.000376536
-8.10079e-05 0.00427385 2.04603e-05
-0.000376536 2.04603e-05 0.00430814
0.000411497 -9.89496e-05 1.25375e-05
-9.89496e-05 -0.000219145 -9.21805e-06
1.25375e-05 -9.21805e-06 -0.000342309
0.00460172 -0.000125123 0.000160995
-0.000125123 0.00264854 -9.52648e-06
0.000160995 -9.52648e-06 0.00263302
0.0017696 -9.98686e-05 9.5182e-05
-9.98686e-05 0.000826607 -1.41331e-05
9.5182e-05 -1.41331e-05 0.000766636
0.00220158 0.000157785 -5.17363e-06
0.000157785 5.78877e-05 -8.50269e-07
-5.17363e-06 -8.50269e-07 5.00615e-05
0.00228382 0.000235666 -4.83939e-06
0.000235666 9.35267e-05 -8.92064e-07
-4.83939e-06 -8.92064e-07 4.30013e-05
0.00219513 0.000182866 -6.3588e-07
0.000182866 -4.7862e-07 -2.27171e-07
-6.3588e-07 -2.27171e-07 1.0908e-06
0.00226294 0.000317737 -6.24784e-07
0.000317737 0.000179185 7.93523e-08
-6.24784e-07 7.93523e-08 5.72223e-05
0.00232832 0.000326198 -7.27765e-08
0.000326198 9.75814e-05 -1.29099e-07
-7.27765e-08 -1.29099e-07 3.83078e-05
0.00228569 0.000273133 8.85551e-07
0.000273133 2.4799e-05 5.19093e-07
8.85551e-07 5.19093e-07 1.41388e-05
0.00151572 0.000250997 -5.06323e-06
0.000250997 6.82453e-05 -1.32108e-06
-5.06323e-06 -1.32108e-06 -0.000104815
0.00215886 0.000391063 1.94468e-06
0.000391063 0.000125124 3.71454e-07
1.94468e-06 3.71454e-07 -2.88869e-05
0.00220112 0.000421933 3.53244e-06
0.000421933 3.67574e-05 3.39054e-08
3.53244e-06 3.39054e-08 -5.90275e-05
0.000330834 0.000122342 -1.66547e-05
0.000122342 -0.000275225 -9.70124e-06
-1.66547e-05 -9.70124e-06 -0.000402091
0.00150849 0.000309305 1.35171e-06
0.000309305 5.53717e-05 1.02647e-06
1.35171e-06 1.02647e-06 -0.000141921
0.00223174 0.000486207 1.90762e-06
0.000486207 0.000199956 -1.3634e-06
1.90762e-06 -1.3634e-06 -8.9058e-08
0.00743638 0.000330318 -0.0003788
0.000330318 0.00449353 -4.91887e-05
-0.0003788 -4.91887e-05 0.00449664
0.000343792 0.000173565 5.34825e-07
0.000173565 -0.000273938 3.97868e-07
5.34825e-07 3.97868e-07 -0.000417376
0.00143274 0.000360831 1.76723e-05
0.000360831 1.24114e-05 3.54245e-06
1.76723e-05 3.54245e-06 -0.000216928
0.00781783 0.000323329 1.16903e-05
0.000323329 0.00473728 5.12719e-06
1.16903e-05 5.12719e-06 0.00473692
0.000302272 0.000228257 1.96873e-05
0.000228257 -0.000294106 1.72258e-05
1.96873e-05 1.72258e-05 -0.000460833
0.00817246 0.000215427 0.000382948
0.000215427 0.00493556 4.32811e-05
0.000382948 4.32811e-05 0.00495311
0.00211505 7.80617e-05 -5.82126e-06
7.80617e-05 -1.10897e-05 -5.15744e-08
-5.82126e-06 -5.15744e-08 -4.27521e-05
0.00213879 0.000103629 -9.72174e-07
0.000103629 5.47766e-06 -2.40844e-07
-9.72174e-07 -2.40844e-07 5.00426e-06
0.00226174 0.000143647 -4.95825e-07
0.000143647 -2.79668e-05 3.28972e-07
-4.95825e-07 3.28972e-07 1.06411e-05
0.00207272 -3.97173e-06 -1.33891e-07
-3.97173e-06 3.50515e-05 3.0944e-07
-1.33891e-07 3.0944e-07 -3.82863e-05
0.00212244 1.74233e-05 -7.54066e-07
1.74233e-05 -4.73273e-06 -2.62937e-08
-7.54066e-07 -2.62937e-08 -2.67862e-05
0.00211328 4.78634e-05 1.86467e-06
4.78634e-05 -3.30132e-05 -4.77704e-08
1.86467e-06 -4.77704e-08 -1.72855e-05
0.00211782 -5.80803e-05 3.07757e-06
-5.80803e-05 -2.05428e-05 -7.20584e-07
3.07757e-06 -7.20584e-07 -3.40148e-05
0.0020489 -7.17721e-05 -9.84352e-07
-7.17721e-05 1.47419e-05 2.37325e-07
-9.84352e-07 2.37325e-07 -5.80249e-05
0.00142768 -3.72976e-05 -4.6037e-06
-3.72976e-05 4.65434e-05 4.47391e-08
-4.6037e-06 4.47391e-08 -7.17696e-05
0.00208312 -0.000158253 9.01851e-08
-0.000158253 3.9092e-05 -6.0687e-07
9.01851e-08 -6.0687e-07 -4.93317e-05
0.00138148 -9.14971e-05 3.29874e-06
-9.14971e-05 -9.56561e-06 -3.73609e-07
3.29874e-06 -3.73609e-07 -0.000142211
0.000270118 -1.4226e-05 -1.61822e-05
-1.4226e-05 -0.000295557 2.2667e-06
-1.61822e-05 2.2667e-06 -0.000393899
0.0013107 -0.000138433 3.23394e-06
-0.000138433 -6.57568e-05 -1.13205e-06
3.23394e-06 -1.13205e-06 -0.000216149
0.000288599 -4.60713e-05 4.31405e-07
-4.60713e-05 -0.00028787 -3.50544e-07
4.31405e-07 -3.50544e-07 -0.000391125
0.00688924 -0.000173643 -0.000375193
-0.000173643 0.00414262 2.21401e-05
-0.000375193 2.21401e-05 0.00416927
0.000321268 -7.38051e-05 1.56214e-05
-7.38051e-05 -0.000266929 -5.38903e-06
1.56214e-05 -5.38903e-06 -0.000379867
0.00703871 -0.000116993 7.00305e-06
-0.000116993 0.00422345 1.95308e-07
7.00305e-06 1.95308e-07 0.00425625
0.0020753 -4.98846e-05 0.000286597
-4.98846e-05 0.000991504 -2.19181e-05
0.000286597 -2.19181e-05 0.000983717
0.00212739 0.000160175 -6.98141e-06
0.000160175 -1.6486e-06 -1.0109e-06
-6.98141e-06 -1.0109e-06 -4.57814e-05
0.00213827 0.000159075 -1.18124e-06
0.000159075 3.34711e-06 -1.22578e-07
-1.18124e-06 -1.22578e-07 2.13125e-06
0.00226262 0.000234994 1.24815e-06
0.000234994 0.000165707 2.85542e-08
1.24815e-06 2.85542e-08 6.55319e-05
0.00229415 0.00023519 8.02292e-07
0.00023519 9.65354e-05 1.0973e-08
8.02292e-07 1.0973e-08 4.67215e-05
0.0021875 0.000175874 1.10823e-06
0.000175874 -4.89056e-07 2.96732e-07
1.10823e-06 2.96732e-07 1.33546e-06
0.00129094 0.000182209 -1.81797e-06
0.000182209 -6.98254e-05 -1.18457e-06
-1.81797e-06 -1.18457e-06 -0.000235165
0.00219795 0.000314869 3.26041e-07
0.000314869 0.000133574 1.04406e-08
3.26041e-07 1.04406e-08 1.10857e-05
0.00234587 0.000323505 4.32472e-06
0.000323505 0.000108378 8.07796e-07
4.32472e-06 8.07796e-07 4.79504e-05
0.000328236 8.96722e-05 -1.57652e-05
8.96722e-05 -0.000268952 -7.23102e-06
-1.57652e-05 -7.23102e-06 -0.000386915
0.00141141 0.000245213 2.88427e-06
0.000245213 4.26267e-06 9.66323e-07
2.88427e-06 9.66323e-07 -0.00017448
0.00201947 0.000382217 1.06881e-06
0.000382217 3.96177e-05 1.43537e-07
1.06881e-06 1.43537e-07 -0.00012362
0.00723438 0.000318841 -0.000391585
0.000318841 0.00437615 -4.43326e-05
-0.000391585 -4.43326e-05 0.00438154
0.000344125 0.000129013 7.04028e-07
0.000129013 -0.000269849 2.64339e-07
7.04028e-07 2.64339e-07 -0.000399006
0.00146008 0.000300484 9.99429e-06
0.000300484 2.99506e-05 3.57528e-06
9.99429e-06 3.57528e-06 -0.000164478
0.00754143 0.000357747 8.46082e-06
0.000357747 0.00457297 5.53905e-06
8.46082e-06 5.53905e-06 0.00457037
0.000346482 0.000176634 1.73379e-05
0.000176634 -0.000277316 1.35658e-05
1.73379e-05 1.35658e-05 -0.000422957
0.0079275 0.000336124 0.00039631
0.000336124 0.00480302 5.42213e-05
0.00039631 5.42213e-05 0.00480692
0.00203139 7.41051e-05 1.10508e-06
7.41051e-05 1.10347e-05 -1.58647e-07
1.10508e-06 -1.58647e-07 -6.93009e-05
0.00213248 7.86391e-05 -2.67368e-06
7.86391e-05 5.91647e-06 -1.86395e-07
-2.67368e-06 -1.86395e-07 -2.72675e-05
0.00213824 0.00011053 3.55137e-06
0.00011053 1.14306e-05 2.14983e-07
3.55137e-06 2.14983e-07 1.07524e-05
0.00138273 -7.58062e-06 -5.61842e-06
-7.58062e-06 3.56017e-05 -1.01522e-07
-5.61842e-06 -1.01522e-07 -8.17029e-05
0.00203857 -9.64163e-07 -5.74108e-07
-9.64163e-07 1.4707e-05 1.08833e-07
-5.74108e-07 1.08833e-07 -5.84398e-05
0.00209054 1.82219e-05 2.91461e-06
1.82219e-05 -3.04656e-05 -1.92761e-07
2.91461e-06 -1.92761e-07 -4.94748e-05
0.0020049 -7.10098e-05 -1.29564e-06
-7.10098e-05 -1.30455e-05 -1.39086e-07
-1.29564e-06 -1.39086e-07 -8.52793e-05
0.0013926 -3.98111e-05 2.58522e-06
-3.98111e-05 1.41544e-05 -1.43654e-07
2.58522e-06 -1.43654e-07 -0.000104318
0.000279774 -3.38853e-05 -1.69464e-05
-3.38853e-05 -0.000282911 1.18536e-06
-1.69464e-05 1.18536e-06 -0.000376891
0.00128336 -9.12573e-05 6.97484e-06
-9.12573e-05 -8.00459e-05 -1.18059e-06
6.97484e-06 -1.18059e-06 -0.000219252
0.000284634 -3.10883e-06 -6.80432e-09
-3.10883e-06 -0.0002864 6.0002e-08
-6.80432e-09 6.0002e-08 -0.000383122
0.00677673 -0.000140655 -0.000374238
-0.000140655 0.00406899 1.68714e-05
-0.000374238 1.68714e-05 0.00409955
0.000332973 -5.36401e-05 1.67409e-05
-5.36401e-05 -0.000254898 -3.73151e-06
1.67409e-05 -3.73151e-06 -0.000358799
0.00687719 -7.00945e-05 -2.81516e-06
-7.00945e-05 0.00412047 3.58443e-06
-2.81516e-06 3.58443e-06 0.00415609
0.00699963 -0.000130731 0.000374034
-0.000130731 0.00420103 -2.00777e-05
0.000374034 -2.00777e-05 0.00423343
0.00217101 0.000150663 1.64016e-06
0.000150663 0.000103346 -2.65053e-07
1.64016e-06 -2.65053e-07 1.76423e-05
0.00217399 0.000160439 -1.76903e-06
0.000160439 2.34273e-05 -1.78948e-07
-1.76903e-06 -1.78948e-07 -1.5221e-05
0.00207646 0.000160619 3.1229e-06
0.000160619 -5.04977e-05 7.23977e-07
3.1229e-06 7.23977e-07 -4.51543e-05
0.00125405 0.000123004 -2.41155e-06
0.000123004 -8.12901e-05 -7.18699e-07
-2.41155e-06 -7.18699e-07 -0.000230605
0.00219642 0.000231886 1.57724e-07
0.000231886 0.000118236 -1.39037e-07
1.57724e-07 -1.39037e-07 1.77613e-05
0.00230714 0.000234568 4.68012e-06
0.000234568 0.000101756 6.30851e-07
4.68012e-06 6.30851e-07 5.27231e-05
0.000321459 6.09713e-05 -1.51368e-05
6.09713e-05 -0.000262663 -5.26943e-06
-1.51368e-05 -5.26943e-06 -0.000372767
0.00131515 0.000184316 1.53462e-07
0.000184316 -4.49208e-05 2.80916e-07
1.53462e-07 2.80916e-07 -0.000211365
0.00213592 0.000311855 9.31866e-07
0.000311855 9.03239e-05 -1.91397e-07
9.31866e-07 -1.91397e-07 -3.26382e-05
0.00704341 0.000259526 -0.000397173
0.000259526 0.00425111 -3.56715e-05
-0.000397173 -3.56715e-05 0.0042674
0.0003333 9.78367e-05 8.87339e-07
9.78367e-05 -0.000267197 2.45585e-07
8.87339e-07 2.45585e-07 -0.000387506
0.00129588 0.000238366 4.66686e-06
0.000238366 -6.7873e-05 2.94361e-06
4.66686e-06 2.94361e-06 -0.000252074
0.00734125 0.000338611 4.53557e-06
0.000338611 0.00444945 3.56813e-06
4.53557e-06 3.56813e-06 0.00445258
0.000357265 0.000137207 1.59294e-05
0.000137207 -0.000263286 1.06507e-05
1.59294e-05 1.06507e-05 -0.000395348
0.00766779 0.000398656 0.000403893
0.000398656 0.00466722 5.94767e-05
0.000403893 5.94767e-05 0.00465839
0.00117377 3.96782e-05 -7.50382e-06
3.96782e-05 -9.87597e-05 -4.71128e-07
-7.50382e-06 -4.71128e-07 -0.000231081
0.00211752 7.13558e-05 -8.52721e-07
7.13558e-05 6.9562e-05 -9.44674e-10
-8.52721e-07 -9.44674e-10 -3.90454e-06
0.00214959 7.95948e-05 3.08229e-06
7.95948e-05 2.22074e-05 1.49728e-07
3.08229e-06 1.49728e-07 -1.24318e-05
0.000323373 3.27812e-05 -1.76848e-05
3.27812e-05 -0.000257881 -9.83936e-07
-1.76848e-05 -9.83936e-07 -0.000343061
0.00136537 -3.53676e-06 2.44992e-06
-3.53676e-06 1.68286e-05 3.89573e-08
2.44992e-06 3.89573e-08 -0.000100288
0.00200135 3.49679e-06 -1.09879e-06
3.49679e-06 -8.02636e-06 -1.372e-07
-1.09879e-06 -1.372e-07 -8.09291e-05
0.00134968 -4.18463e-05 9.50683e-06
-4.18463e-05 -2.37797e-05 -7.18463e-07
9.50683e-06 -7.18463e-07 -0.000142416
0.000289217 -7.19191e-06 2.28968e-07
-7.19191e-06 -0.000275921 4.33787e-07
2.28968e-07 4.33787e-07 -0.000369622
0.00667803 -1.98232e-07 -0.000376121
-1.98232e-07 0.00399561 3.73712e-06
-0.000376121 3.73712e-06 0.00403522
0.000289572 8.25459e-06 1.63226e-05
8.25459e-06 -0.000283793 -1.27971e-06
1.63226e-05 -1.27971e-06 -0.000378804
0.00673759 -0.000138085 -7.58343e-06
-0.000138085 0.00404592 2.33794e-06
-7.58343e-06 2.33794e-06 0.00407593
0.00680576 -5.29768e-05 0.000359931
-5.29768e-05 0.00407463 -1.16351e-05
0.000359931 -1.16351e-05 0.00411053
0.00123378 7.81807e-05 -5.58211e-06
7.81807e-05 -7.07373e-05 -7.89699e-07
-5.58211e-06 -7.89699e-07 -0.000209004
0.0022082 0.00014682 -4.03554e-07
0.00014682 0.000128033 -2.40323e-07
-4.03554e-07 -2.40323e-07 4.6382e-05
0.00221957 0.000160462 1.5855e-06
0.000160462 4.8126e-05 1.89206e-07
1.5855e-06 1.89206e-07 1.49349e-05
0.002767 7.6568e-05 -0.000166238
7.6568e-05 0.00132965 -7.14326e-06
-0.000166238 -7.14326e-06 0.00127189
0.00126607 0.00012449 7.48558e-08
0.00012449 -6.53825e-05 1.02743e-07
7.48558e-08 1.02743e-07 -0.000215427
0.00212611 0.000228466 5.37914e-09
0.000228466 6.85139e-05 -2.20014e-07
5.37914e-09 -2.20014e-07 -3.22627e-05
0.00689102 0.000189953 -0.000395137
0.000189953 0.004146 -2.57587e-05
-0.000395137 -2.57587e-05 0.0041734
0.000328774 8.08924e-05 1.16968e-06
8.08924e-05 -0.000257777 5.04562e-07
1.16968e-06 5.04562e-07 -0.00037064
0.00133364 0.000185867 2.24434e-06
0.000185867 -2.46214e-05 1.54732e-06
2.24434e-06 1.54732e-06 -0.000192172
0.00716172 0.000277078 1.42734e-06
0.000277078 0.00432804 1.77897e-06
1.42734e-06 1.77897e-06 0.00434272
0.000345674 0.00010819 1.56252e-05
0.00010819 -0.000259658 8.40313e-06
1.56252e-05 8.40313e-06 -0.000382899
0.00743936 0.000374374 0.000406812
0.000374374 0.00452608 5.55932e-05
0.000406812 5.55932e-05 0.00452255
0.000408818 1.57001e-05 -1.32937e-05
1.57001e-05 -0.000188882 -2.09032e-06
-1.32937e-05 -2.09032e-06 -0.000283585
0.00125399 3.93522e-05 -2.51594e-07
3.93522e-05 -4.87223e-05 9.8654e-08
-2.51594e-07 9.8654e-08 -0.00017535
0.00221033 6.72834e-05 -4.1658e-07
6.72834e-05 0.000132605 -7.69299e-08
-4.1658e-07 -7.69299e-08 6.59977e-05
0.00652405 -0.00010695 -0.000359399
-0.00010695 0.00391541 6.16186e-06
-0.000359399 6.16186e-06 0.00394395
0.000276978 1.16012e-05 -7.09602e-07
1.16012e-05 -0.000282664 -2.15192e-07
-7.09602e-07 -2.15192e-07 -0.000370488
0.00135597 -6.23163e-07 1.01128e-05
-6.23163e-07 3.38959e-06 -1.67942e-07
1.01128e-05 -1.67942e-07 -0.000113519
0.000268275 1.91567e-05 1.65884e-05
1.91567e-05 -0.000290188 2.79064e-07
1.65884e-05 2.79064e-07 -0.000382403
0.00662031 -3.46386e-05 1.68983e-06
-3.46386e-05 0.00396567 -1.99251e-06
1.68983e-06 -1.99251e-06 0.00399998
0.00671771 -6.36533e-05 0.000364752
-6.36533e-05 0.0040196 -8.70842e-06
0.000364752 -8.70842e-06 0.00405641
0.00285288 2.59073e-05 -0.00016071
2.59073e-05 0.00138787 -3.78659e-06
-0.00016071 -3.78659e-06 0.00133571
0.00121799 8.06998e-05 -6.30053e-08
8.06998e-05 -8.11055e-05 -8.08869e-08
-6.30053e-08 -8.08869e-08 -0.000220141
0.00224046 0.000143106 6.44201e-08
0.000143106 0.000148782 -1.89543e-07
6.44201e-08 -1.89543e-07 7.11422e-05
0.0064468 -1.27648e-05 -0.000170693
-1.27648e-05 0.00387217 -7.95273e-07
-0.000170693 -7.95273e-07 0.00386295
0.000304375 6.6612e-05 7.42647e-07
6.6612e-05 -0.000264565 2.48536e-07
7.42647e-07 2.48536e-07 -0.000368433
0.00128034 0.000126999 2.79749e-06
0.000126999 -4.99739e-05 7.60951e-07
2.79749e-06 7.60951e-07 -0.00020085
0.00696568 0.000167341 -9.08675e-06
0.000167341 0.00418729 -1.838e-06
-9.08675e-06 -1.838e-06 0.00421589
0.000329107 0.000103108 1.682e-05
0.000103108 -0.000258458 7.0328e-06
1.682e-05 7.0328e-06 -0.000373236
0.00725553 0.000299872 0.000408936
0.000299872 0.00439293 4.56018e-05
0.000408936 4.56018e-05 0.00440592
0.00199196 -5.25968e-05 -0.000277617
-5.25968e-05 0.000941639 1.78311e-06
-0.000277617 1.78311e-06 0.000946822
0.00153547 3.69952e-05 -7.07313e-05
3.69952e-05 0.000533848 -2.0549e-07
-7.07313e-05 -2.0549e-07 0.000466041
0.00132572 4.16021e-05 8.4496e-06
4.16021e-05 -3.82309e-06 4.04458e-07
8.4496e-06 4.04458e-07 -0.000124786
0.00658888 -5.23812e-05 6.64499e-06
-5.23812e-05 0.00395038 3.4826e-06
6.64499e-06 3.4826e-06 0.00398506
0.000291581 -8.15819e-06 1.72131e-05
-8.15819e-06 -0.000265716 8.83392e-07
1.72131e-05 8.83392e-07 -0.000357448
0.00665442 -9.5727e-05 0.000377178
-9.5727e-05 0.00399313 -7.42697e-06
0.000377178 -7.42697e-06 0.00402677
0.00156371 2.87367e-05 -7.98168e-05
2.87367e-05 0.000697164 -1.84543e-06
-7.98168e-05 -1.84543e-06 0.00065228
0.00152663 2.71884e-05 -7.15512e-05
2.71884e-05 0.000529101 -2.00356e-06
-7.15512e-05 -2.00356e-06 0.000455406
0.00121025 8.16257e-05 5.66954e-06
8.16257e-05 -8.48133e-05 5.44195e-07
5.66954e-06 5.44195e-07 -0.000224476
0.00422585 8.25199e-05 0.000140413
8.25199e-05 0.00241177 4.94992e-06
0.000140413 4.94992e-06 0.00240642
0.000287451 7.76053e-05 1.71831e-05
7.76053e-05 -0.000277281 5.26972e-06
1.71831e-05 5.26972e-06 -0.000381504
0.00705596 0.000155218 0.000389809
0.000155218 0.00423634 2.79131e-05
0.000389809 2.79131e-05 0.00426886
0.00653533 -1.568e-05 -8.38609e-06
-1.568e-05 0.00392068 -3.9597e-06
-8.38609e-06 -3.9597e-06 0.00395347
0.000274903 5.50032e-05 1.89425e-05
5.50032e-05 -0.00028567 2.74526e-06
1.89425e-05 2.74526e-06 -0.000370808
0.00650155 3.2012e-05 0.000364865
3.2012e-05 0.00388949 3.24487e-07
0.000364865 3.24487e-07 0.00392779
0.00410906 4.22756e-05 0.000151669
4.22756e-05 0.00234001 6.76179e-06
0.000151669 6.76179e-06 0.00233824
0.000299202 1.6036e-05 1.68181e-05
1.6036e-05 -0.00026423 2.86407e-06
1.68181e-05 2.86407e-06 -0.000359723
0.00682507 2.2888e-05 0.000375122
2.2888e-05 0.00408737 1.32678e-05
0.000375122 1.32678e-05 0.00412351
0.00657986 -0.000108916 0.000364245
-0.000108916 0.00395196 -4.46704e-06
0.000364245 -4.46704e-06 0.0039811
0.0066162 2.60318e-05 0.000367272
2.60318e-05 0.0039543 8.21758e-06
0.000367272 8.21758e-06 0.00399358
