# vtk DataFile Version 2.0
Wound Healing Simulation
ASCII
DATASET UNSTRUCTURED_GRID
POINTS 3012 float
69.9759 18.75 4
67.2507 60.3285 4
69.976 18.75 2
73.0099 25.446 4
71.1327 20.9142 4
68.6801 16.6661 4
67.8277 19.9247 3.98761
67.2507 60.3286 2
71.1327 54.0858 4
68.6801 58.3339 4
65.6939 62.2254 4
65.3141 59.0041 3.98876
74.6784 42.3946 4
73.7221 47.2057 4
69.9759 18.75 0
73.0099 25.446 2
68.6801 16.6661 2
71.1327 20.9142 2
67.8282 19.926 2
74.6792 32.6053 4
73.7222 27.7943 4
72.1454 23.1494 4
70.6158 26.2225 3.98617
68.8879 21.9582 3.98725
67.2507 14.6715 4
66.6391 17.9693 3.9882
65.8032 21.0214 3.98247
67.2507 60.3285 0
71.1327 54.0858 2
68.6801 58.3339 2
65.694 62.2255 2
65.3145 59.0037 2
72.1454 51.8506 4
69.9759 56.25 4
68.8387 53.1129 3.98699
64.0165 64.0165 4
66.6128 57.136 3.98844
63.8874 60.7689 3.99008
63.5055 57.7788 3.98416
60.3285 67.2507 4
74.6792 42.3947 2
73.7222 47.2057 2
74.9194 39.9526 4
74.2788 44.8158 4
72.1691 42.0854 3.98462
73.0099 49.554 4
71.2508 46.5971 3.98606
73.0099 25.446 0
71.1327 20.9142 0
68.6801 16.6661 0
67.8277 19.9247 0.0123935
74.6792 32.6053 2
73.7222 27.7943 2
67.2508 14.6715 2
72.1455 23.1494 2
70.6158 26.2233 2
66.6397 17.9699 2
68.8882 21.9596 2
65.8034 21.0208 2
74.9197 35.0474 4
74.2794 30.1841 4
72.1858 32.9434 3.98514
71.2796 28.4324 3.98599
69.8175 24.0609 3.98677
68.3509 26.9519 3.97831
66.7683 22.9314 3.98115
65.694 12.7746 4
65.3255 16.1001 3.98923
64.7197 19.1886 3.98369
63.8964 22.0285 3.97947
71.1327 54.0858 0
65.6939 62.2254 0
68.6801 58.3339 0
65.3141 59.0041 0.0112392
72.1455 51.8506 2
69.9759 56.25 2
68.839 53.1115 2
64.0165 64.0165 2
66.6133 57.1351 2
63.8877 60.7687 2
63.5055 57.7796 2
62.2254 65.694 4
58.8947 65.416 3.99265
69.7711 50.9877 3.98654
67.7861 55.1685 3.98787
66.6555 52.2111 3.98085
62.3374 62.43 3.9914
64.667 56.0373 3.98416
62.2066 59.4123 3.98458
61.8312 56.692 3.98172
58.3339 68.6801 4
60.3285 67.2508 2
73.7221 47.2057 0
74.6784 42.3946 0
74.9197 39.9526 2
74.2794 44.8159 2
72.1691 42.0857 2
73.0099 49.554 2
71.2508 46.5971 2
75 37.5 4
72.4059 39.8021 3.98363
71.7838 44.3524 3.98554
69.8069 41.7895 3.97709
70.577 48.8122 3.98635
68.9165 46.0146 3.97807
74.6792 32.6053 0
73.7222 27.7943 0
67.2507 14.6715 0
72.1454 23.1494 0
70.6158 26.2225 0.0138337
68.8879 21.9582 0.0127497
66.6391 17.9693 0.0117981
65.8032 21.0214 0.0175306
74.9197 35.0474 2
74.2794 30.1841 2
72.1858 32.9434 2
71.2796 28.4328 2
65.694 12.7745 2
65.3259 16.1001 2
69.8177 24.0621 2
68.3508 26.952 2
64.72 19.1877 2
66.7683 22.9311 2
63.8967 22.0277 2
72.4139 35.2241 3.984
71.8051 30.6767 3.98587
69.8431 33.2687 3.97757
68.97 29.0387 3.97811
67.6162 24.9117 3.9796
66.2003 27.6336 3.97527
64.0165 10.9835 4
64.7651 23.8257 3.97806
63.8915 14.3239 3.99035
63.5182 17.4387 3.98494
62.9163 20.3108 3.98055
62.1046 22.9337 3.97786
60.6847 11.0952 3.99188
57.6132 11.44 3.98697
72.1454 51.8506 0
69.9759 56.25 0
68.8387 53.1129 0.0130091
64.0165 64.0165 0
63.8874 60.7689 0.00991721
66.6128 57.136 0.0115613
63.5055 57.7788 0.0158435
62.2255 65.694 2
58.8949 65.4161 2
69.7712 50.9867 2
67.7865 55.1672 2
66.6554 52.2115 2
62.3377 62.4298 2
64.6671 56.0381 2
62.2066 59.4129 2
61.8312 56.6928 2
60.6695 63.9791 3.99209
57.0252 66.7368 3.99318
57.5588 63.6972 3.98745
67.5128 50.1774 3.97939
65.7086 54.1771 3.98285
64.5467 51.3899 3.97733
60.7755 60.9453 3.98548
62.8299 55.0774 3.98189
60.6644 58.1708 3.98177
60.3382 55.7992 3.98069
56.25 69.9759 4
58.3339 68.6801 2
60.3285 67.2507 0
58.9218 9.65354 3.99243
62.2254 9.30607 4
73.0099 49.554 0
74.2788 44.8158 0
71.2508 46.5971 0.0139367
72.1691 42.0854 0.0153822
74.9194 39.9526 0
75 37.5 2
72.4059 39.8024 2
71.7838 44.3527 2
69.807 41.7895 2
70.577 48.8116 2
68.9165 46.0146 2
72.4892 37.512 3.98339
70.0428 39.6572 3.97556
69.4341 43.9073 3.97788
67.6018 41.4983 3.97392
68.2706 48.1072 3.97856
66.7161 45.4413 3.9752
74.9197 35.0474 0
74.2794 30.1841 0
72.1858 32.9434 0.0148646
71.2796 28.4324 0.0140089
65.694 12.7746 0
65.3255 16.1001 0.0107671
69.8175 24.0609 0.0132281
68.3509 26.9519 0.0216923
66.7683 22.9314 0.0188452
64.7197 19.1886 0.0163144
63.8964 22.0285 0.0205338
72.4139 35.2241 2
71.8052 30.6768 2
69.8432 33.2688 2
68.97 29.0388 2
64.0165 10.9835 2
63.8917 14.3239 2
63.5185 17.4378 2
67.6161 24.9116 2
66.2003 27.6333 2
62.9167 20.3099 2
64.7652 23.8251 2
62.1049 22.9331 2
60.685 11.0953 2
57.6132 11.4393 2
70.0599 35.3922 3.97632
69.4709 31.1499 3.97818
67.6603 33.5905 3.97439
66.7778 29.6219 3.975
65.5311 25.697 3.97643
64.1532 28.2526 3.97431
62.3426 12.6522 3.99121
62.8674 24.6305 3.9766
62.2023 15.7762 3.98534
61.8216 18.6731 3.98201
61.2292 21.3295 3.97853
60.4391 23.7157 3.97734
59.2475 12.7713 3.98565
55.875 10.2266 3.98841
56.4066 13.1024 3.98381
69.7711 50.9877 0.0134558
62.2254 65.694 0
58.8947 65.416 0.00734543
67.7861 55.1685 0.0121279
66.6555 52.2111 0.0191508
62.3374 62.43 0.00860328
62.2066 59.4123 0.0154171
64.667 56.0373 0.0158395
61.8312 56.692 0.0182828
60.6698 63.9791 2
57.0255 66.7368 2
57.5586 63.6978 2
67.5126 50.1775 2
65.7087 54.1778 2
64.5466 51.3907 2
60.7755 60.9461 2
62.83 55.0783 2
60.6644 58.1716 2
60.3382 55.7999 2
55.0706 67.9336 3.99345
59.2208 62.3726 3.98612
55.805 64.9145 3.98885
56.3285 62.0983 3.98435
65.3396 49.4112 3.97605
63.7162 53.2996 3.97984
62.4528 50.6592 3.97555
59.3373 59.5677 3.98332
61.0893 54.3213 3.98093
59.2968 57.0264 3.9798
59.2536 55.1978 3.98128
48.1031 68.5817 3.99024
50.9484 69.9331 3.99386
54.0858 71.1327 4
56.25 69.976 2
58.3339 68.6801 0
57.0589 8.33341 3.99293
60.3285 7.74928 4
58.922 9.65348 2
62.2255 9.30602 2
70.577 48.8122 0.0136522
71.7838 44.3524 0.0144593
68.9165 46.0146 0.0219298
69.8069 41.7895 0.0229084
72.4059 39.8021 0.0163712
75 37.5 0
72.4892 37.5122 2
70.043 39.6573 2
69.4342 43.9073 2
67.6019 41.4985 2
68.2705 48.1072 2
66.7161 45.4416 2
70.1308 37.5216 3.9754
67.8369 39.5127 3.97235
67.2293 43.4711 3.97486
65.5616 41.2118 3.973
66.0757 47.4199 3.97563
64.6601 44.8516 3.97431
72.4139 35.2241 0.0159963
71.8051 30.6767 0.014132
69.8431 33.2687 0.0224288
68.97 29.0387 0.0218938
64.0165 10.9835 0
63.8915 14.3239 0.00965448
63.5182 17.4387 0.0150569
67.6162 24.9117 0.0203971
66.2003 27.6336 0.0247311
64.7651 23.8257 0.021936
62.9163 20.3108 0.0194467
62.1046 22.9337 0.0221404
60.6847 11.0952 0.0081239
57.6132 11.44 0.0130329
70.0601 35.3924 2
69.4709 31.15 2
67.6604 33.5904 2
66.778 29.6217 2
62.3429 12.6523 2
62.2024 15.7757 2
61.822 18.6722 2
65.5311 25.6966 2
64.1533 28.2524 2
61.2297 21.3287 2
62.8675 24.63 2
60.4394 23.7152 2
59.2475 12.7706 2
56.4065 13.1016 2
55.875 10.2259 2
67.8738 35.5476 3.97332
67.2711 31.6216 3.97518
65.7039 33.926 3.97318
64.6699 30.1896 3.97386
63.5465 26.4098 3.97498
62.2652 28.7731 3.97489
60.7772 14.2157 3.98523
61.0568 25.329 3.97596
60.618 17.116 3.98325
60.2323 19.8024 3.98013
59.6742 22.2443 3.97714
58.9926 24.3067 3.97772
54.038 9.13021 3.98902
57.9122 14.3211 3.98355
54.7876 12.0015 3.98502
55.3142 14.6329 3.98249
67.5128 50.1774 0.0206055
57.0252 66.7368 0.00681987
60.6695 63.9791 0.00791002
57.5588 63.6972 0.0125544
65.7086 54.1771 0.0171488
64.5467 51.3899 0.0226726
60.7755 60.9453 0.0145233
60.6644 58.1708 0.0182305
62.8299 55.0774 0.0181126
60.3382 55.7992 0.0193066
55.0709 67.9337 2
59.2207 62.3735 2
55.8049 64.9151 2
56.3284 62.0989 2
65.3395 49.4117 2
63.7163 53.3005 2
62.4528 50.6599 2
59.3372 59.5686 2
61.0894 54.3221 2
59.2969 57.027 2
59.2537 55.1985 2
53.0425 69.0014 3.99369
53.9671 66.0165 3.98946
57.8832 60.8795 3.9838
54.6846 63.2144 3.98553
55.2135 60.6264 3.98277
63.2038 48.6663 3.97455
61.7543 52.5851 3.97835
60.2861 50.029 3.97457
58.0234 58.2739 3.98125
59.3406 53.9614 3.98007
58.1359 55.8278 3.97789
50.1096 67.8597 3.99004
47.4637 66.5861 3.98796
46.0568 69.1613 3.99046
48.1031 68.5821 2
48.8026 70.7243 3.99403
50.9486 69.9332 2
51.8506 72.1454 4
54.0858 71.1327 2
56.25 69.9759 0
55.1031 7.13802 3.99315
58.3339 6.31992 4
57.0591 8.33328 2
60.3286 7.74926 2
58.9218 9.65354 0.00757146
62.2254 9.30607 0
68.2706 48.1072 0.0214395
69.4341 43.9073 0.0221156
66.7161 45.4413 0.0247993
67.6018 41.4983 0.0260788
70.0428 39.6572 0.0244419
72.4892 37.512 0.0166104
70.1308 37.5217 2
67.8371 39.5128 2
67.2294 43.4713 2
65.5618 41.2121 2
66.0756 47.4203 2
64.6602 44.852 2
67.9331 37.5222 3.97206
65.7908 39.3714 3.97138
65.1832 43.0281 3.97391
63.7625 40.9327 3.97261
63.9742 46.7208 3.97454
62.8164 44.2216 3.9749
70.0599 35.3922 0.0236808
69.4709 31.1499 0.0218165
67.6603 33.5905 0.0256092
66.7778 29.6219 0.0250021
62.3426 12.6522 0.00878937
62.2023 15.7762 0.0146602
61.8216 18.6731 0.0179894
65.5311 25.697 0.0235686
64.1532 28.2526 0.0256928
62.8674 24.6305 0.0233953
61.2292 21.3295 0.0214714
60.4391 23.7157 0.0226554
59.2475 12.7713 0.014347
56.4066 13.1024 0.016185
55.875 10.2266 0.0115928
67.8741 35.5475 2
67.2712 31.6214 2
65.7041 33.9257 2
64.6701 30.1893 2
60.7772 14.215 2
60.6181 17.1152 2
60.2328 19.8015 2
63.5466 26.4095 2
62.2654 28.7729 2
59.6747 22.2436 2
61.057 25.3285 2
58.993 24.3062 2
57.9121 14.3204 2
55.3141 14.6321 2
54.0379 9.1296 2
54.7876 12.0007 2
65.8807 35.6665 3.97224
65.1936 32.1518 3.97396
64.2913 34.2487 3.9732
62.6032 30.6317 3.97353
61.6605 27.0663 3.97417
60.8592 29.1337 3.97597
59.3136 15.6579 3.98362
59.3437 25.7853 3.97801
59.1302 18.3415 3.98214
58.751 20.8384 3.97815
58.2986 23.0768 3.97588
57.9827 24.6504 3.9782
52.1125 8.14894 3.98937
53.0584 11.0081 3.98605
56.6789 15.7294 3.98274
53.8106 13.6677 3.98333
54.3783 15.9838 3.98225
55.0706 67.9336 0.00654521
65.3396 49.4112 0.0239548
55.805 64.9145 0.0111549
59.2208 62.3726 0.0138799
56.3285 62.0983 0.0156469
63.7162 53.2996 0.0201604
62.4528 50.6592 0.0244502
59.3373 59.5677 0.0166814
59.2968 57.0264 0.0201996
61.0893 54.3213 0.0190672
59.2536 55.1978 0.0187181
53.0427 69.0014 2
53.9671 66.0169 2
57.8831 60.8801 2
54.6845 63.215 2
55.2134 60.6271 2
63.2038 48.6669 2
61.7544 52.586 2
60.2861 50.0297 2
58.0234 58.2747 2
59.3407 53.9621 2
58.1359 55.8284 2
52.0707 67.0028 3.98982
52.9536 64.2244 3.98659
56.6517 59.5003 3.98256
53.6823 61.6314 3.98378
54.2629 59.3329 3.9815
61.0046 47.8882 3.97364
59.7243 52.1177 3.97803
58.039 49.6304 3.97641
56.7832 57.0024 3.97826
57.1332 54.1379 3.9778
50.1096 67.8601 2
49.3373 65.9263 3.98774
47.4635 66.5866 2
46.8925 64.7434 3.98638
45.5588 67.1037 3.98787
43.9738 69.5937 3.99051
46.0569 69.1616 2
46.6092 71.3688 3.99422
48.1031 68.5817 0.00976381
48.8028 70.7244 2
49.554 73.0099 4
50.9484 69.9331 0.00613558
51.8506 72.1455 2
54.0858 71.1327 0
53.064 6.06961 3.99336
55.1033 7.13788 2
56.25 5.02411 4
58.3339 6.3199 2
57.0589 8.33341 0.00707023
60.3285 7.74928 0
66.0757 47.4199 0.0243737
67.2293 43.4711 0.0251426
64.6601 44.8516 0.0256916
65.5616 41.2118 0.0270048
67.8369 39.5127 0.0276486
70.1308 37.5216 0.0246025
67.9331 37.5223 2
65.7911 39.3715 2
65.1834 43.0285 2
63.7628 40.9329 2
63.9742 46.7212 2
62.8165 44.222 2
65.8934 37.5022 3.97063
63.904 39.2683 3.9712
63.3376 42.5546 3.97368
62.4396 40.7008 3.97268
61.9778 45.9255 3.97484
61.4625 43.6899 3.97495
67.8738 35.5476 0.0266797
67.2711 31.6216 0.0248162
65.7039 33.926 0.0268244
64.6699 30.1896 0.0261359
60.7772 14.2157 0.0147687
60.618 17.116 0.0167524
60.2323 19.8024 0.0198696
63.5465 26.4098 0.0250168
62.2652 28.7731 0.02511
61.0568 25.329 0.0240448
59.6742 22.2443 0.0228575
58.9926 24.3067 0.022276
57.9122 14.3211 0.0164488
55.3142 14.6329 0.0175057
54.038 9.13021 0.010979
54.7876 12.0015 0.0149812
65.8812 35.6664 2
65.1937 32.1516 2
64.2916 34.2483 2
62.6034 30.6314 2
59.3136 15.657 2
59.1305 18.3406 2
58.7516 20.8376 2
61.6607 27.0659 2
60.8594 29.1334 2
58.2991 23.0762 2
59.3441 25.7849 2
57.9831 24.65 2
56.6788 15.7286 2
54.3782 15.9829 2
53.8106 13.6667 2
52.1125 8.14836 2
53.0583 11.0074 2
64.0963 35.632 3.97218
62.9401 33.0436 3.97302
60.6247 30.606 3.97305
59.5821 27.9015 3.97469
57.9431 16.9701 3.98282
57.7541 25.7127 3.97951
57.7224 19.4604 3.98068
57.3822 21.8237 3.97575
57.2001 23.9315 3.97544
50.1125 7.2811 3.98958
51.2327 10.1168 3.98676
52.1726 12.7851 3.98461
55.5402 16.9576 3.98273
52.979 15.2486 3.98167
53.7606 16.9651 3.98242
53.0425 69.0014 0.00631335
53.9671 66.0165 0.0105398
63.2038 48.6663 0.0254467
54.6846 63.2144 0.0144651
57.8832 60.8795 0.0161985
55.2135 60.6264 0.0172304
61.7543 52.5851 0.0216546
60.2861 50.029 0.0254349
58.0234 58.2739 0.0187525
58.1359 55.8278 0.0221084
59.3406 53.9614 0.019932
52.0706 67.0032 2
52.9534 64.2249 2
56.6516 59.501 2
53.6821 61.632 2
54.2627 59.3337 2
61.0047 47.8888 2
59.7244 52.1184 2
58.0391 49.631 2
56.7833 57.0033 2
57.1333 54.1384 2
51.1681 65.1332 3.9873
52.0466 62.5463 3.98478
55.4847 58.2627 3.98201
52.8363 60.1457 3.98232
53.6435 58.4832 3.98063
58.3192 46.8605 3.97611
57.5753 51.8015 3.97732
56.262 49.5671 3.98099
55.4795 55.8088 3.97678
55.3694 53.3975 3.97291
50.1096 67.8597 0.0099582
49.3371 65.9267 2
48.6182 64.1296 3.98597
47.4637 66.5861 0.0120376
45.5587 67.1041 2
46.8923 64.7439 2
46.3819 63.0621 3.98516
45.1328 65.205 3.9865
43.6319 67.4747 3.98803
41.861 69.8812 3.99047
43.9739 69.5941 2
44.3767 71.8636 3.9942
46.0568 69.1613 0.00954092
46.6095 71.369 2
47.2057 73.7222 4
48.8026 70.7243 0.00597229
49.554 73.0099 2
51.8506 72.1454 0
50.9537 5.13006 3.99354
53.0643 6.06944 2
54.0858 3.86728 4
55.1031 7.13802 0.00685101
56.25 5.02406 2
58.3339 6.31992 0
63.9742 46.7208 0.0254613
65.1832 43.0281 0.0260864
62.8164 44.2216 0.0250968
63.7625 40.9327 0.0273898
65.7908 39.3714 0.0286166
67.9331 37.5222 0.0279351
65.8935 37.5023 2
63.9044 39.2685 2
63.3378 42.5549 2
62.4399 40.701 2
61.9779 45.9259 2
61.4627 43.6902 2
63.9638 37.4575 3.97058
62.1652 39.3565 3.97193
61.23 41.9634 3.97365
60.2624 44.7789 3.97539
65.8807 35.6665 0.0277637
65.1936 32.1518 0.0260443
64.2913 34.2487 0.0268034
62.6032 30.6317 0.0264671
59.3136 15.6579 0.0163813
59.1302 18.3415 0.0178621
58.751 20.8384 0.0218456
61.6605 27.0663 0.0258328
60.8592 29.1337 0.0240298
59.3437 25.7853 0.0219897
58.2986 23.0768 0.0241229
57.9827 24.6504 0.0218023
56.6789 15.7294 0.0172595
54.3783 15.9838 0.0177453
53.8106 13.6677 0.0166674
52.1125 8.14894 0.010626
53.0584 11.0081 0.0139513
64.0969 35.6318 2
62.9401 33.0432 2
60.6249 30.6057 2
57.9432 16.9692 2
57.723 19.4593 2
57.383 21.823 2
59.5823 27.9011 2
57.2006 23.9312 2
57.7545 25.7124 2
50.1125 7.28065 2
55.5402 16.9567 2
53.7605 16.9641 2
52.9789 15.2476 2
52.1726 12.7844 2
51.2326 10.1162 2
62.1989 35.3586 3.97186
60.3047 32.7426 3.97243
58.6345 30.0681 3.97283
57.3048 27.3687 3.97533
56.6403 18.1413 3.98266
56.3076 25.088 3.97502
56.3653 20.5052 3.97794
56.1209 22.8528 3.97273
48.0562 6.52432 3.98986
49.3244 9.32512 3.9871
50.4333 11.9837 3.98498
51.3787 14.484 3.98316
54.4181 17.9057 3.98276
52.3632 17.0204 3.98146
52.0707 67.0028 0.0101776
52.9536 64.2244 0.0134059
61.0046 47.8882 0.0263641
53.6823 61.6314 0.0162164
56.6517 59.5003 0.017436
54.2629 59.3329 0.0185009
59.7243 52.1177 0.021974
58.039 49.6304 0.0235888
56.7832 57.0024 0.0217359
57.1332 54.1379 0.0221952
51.1679 65.1337 2
52.0464 62.5469 2
55.4847 58.2636 2
52.8361 60.1463 2
53.6434 58.484 2
58.3193 46.8611 2
57.5755 51.8021 2
56.2621 49.5677 2
55.4797 55.8097 2
55.3695 53.3982 2
50.3464 63.3878 3.98551
51.2451 60.9444 3.98301
54.2247 57.2774 3.98064
52.3153 58.6457 3.98076
56.7378 44.1947 3.97316
55.5089 47.9097 3.97758
55.0844 51.4008 3.97366
54.0137 54.5599 3.97521
49.3373 65.9263 0.0122567
48.618 64.13 2
47.9622 62.483 3.98479
45.5588 67.1037 0.0121335
46.8925 64.7434 0.0136165
43.6318 67.4751 2
46.3817 63.0625 2
45.1326 65.2055 2
45.9872 61.5957 3.98418
44.7672 63.4635 3.9857
43.3567 65.5151 3.98669
41.6639 67.6938 3.98801
39.7026 70.0284 3.99034
41.861 69.8817 2
42.1111 72.2084 3.99412
43.9738 69.5937 0.00949203
44.3769 71.8638 2
44.8159 74.2794 4
46.6092 71.3688 0.00578129
47.2057 73.7222 2
49.554 73.0099 0
48.7842 4.32114 3.99377
50.9539 5.12989 2
51.8506 2.85458 4
53.064 6.06961 0.00663992
54.0858 3.86728 2
56.25 5.02411 0
61.9778 45.9255 0.0251597
63.3376 42.5546 0.026323
61.4625 43.6899 0.0250522
62.4396 40.7008 0.0273201
63.904 39.2683 0.028798
65.8934 37.5022 0.0293692
63.9638 37.4575 2
62.1656 39.3567 2
61.2304 41.9636 2
60.2626 44.7793 2
62.0011 37.4449 3.97134
60.2619 39.8509 3.97279
59.0121 42.9257 3.97389
64.0963 35.632 0.0278217
62.9401 33.0436 0.0269767
60.6247 30.606 0.0269515
57.9431 16.9701 0.0171761
57.7224 19.4604 0.0193193
57.3822 21.8237 0.024246
59.5821 27.9015 0.0253147
57.7541 25.7127 0.0204884
57.2001 23.9315 0.0245553
55.5402 16.9576 0.0172731
53.7606 16.9651 0.0175803
52.979 15.2486 0.0183264
50.1125 7.2811 0.0104199
52.1726 12.7851 0.0153903
51.2327 10.1168 0.0132424
62.1996 35.3585 2
60.3046 32.7422 2
58.6348 30.068 2
56.6406 18.1402 2
56.3661 20.5041 2
56.1218 22.8524 2
57.3051 27.3683 2
56.3081 25.0881 2
48.0562 6.52387 2
49.3243 9.32468 2
54.4182 17.9046 2
52.363 17.0193 2
51.3786 14.4832 2
50.4332 11.983 2
59.9093 35.1195 3.97248
58.0139 32.2659 3.97299
56.561 29.3296 3.97167
55.4637 26.5872 3.97719
55.3469 19.1745 3.98233
54.9435 24.0412 3.97182
55.0103 21.5467 3.9755
45.9621 5.87945 3.99016
43.3733 7.46872 3.98821
47.3547 8.61915 3.98734
48.5998 11.2855 3.9856
49.7143 13.7316 3.98391
50.6349 16.1174 3.98123
53.1281 18.6445 3.98084
51.305 18.033 3.98498
51.1681 65.1332 0.0126999
52.0466 62.5463 0.015215
58.3192 46.8605 0.0238921
52.8363 60.1457 0.0176759
55.4847 58.2627 0.0179852
53.6435 58.4832 0.0193747
57.5753 51.8015 0.0226806
56.262 49.5671 0.019011
55.4795 55.8088 0.0232188
55.3694 53.3975 0.0270872
50.3462 63.3881 2
51.2448 60.945 2
54.2247 57.2784 2
52.3151 58.6463 2
56.7383 44.1953 2
55.509 47.9105 2
55.0844 51.4014 2
54.0138 54.5615 2
49.5922 61.7528 3.98421
55.6713 41.7145 3.97562
50.5686 59.3384 3.9808
52.1908 56.5019 3.97763
54.2086 45.5801 3.97685
53.3588 49.3385 3.97511
52.6805 52.8619 3.97235
48.6182 64.1296 0.0140322
47.9619 62.4833 2
47.3294 61.0185 3.98367
43.6319 67.4747 0.0119694
45.1328 65.205 0.0134952
46.3819 63.0621 0.014842
41.6638 67.6943 2
43.3566 65.5155 2
45.987 61.596 2
44.767 63.4639 2
45.7663 60.6403 3.98334
44.4831 61.8457 3.98442
43.1465 63.7363 3.98555
41.5462 65.6531 3.98669
39.6329 67.7737 3.98786
37.526 70.0536 3.99026
39.7026 70.0289 2
39.8179 72.4055 3.99405
41.861 69.8812 0.00953066
42.1112 72.2087 2
42.3947 74.6792 4
44.3767 71.8636 0.00579823
44.8159 74.2794 2
47.2057 73.7222 0
43.8514 5.35657 3.99039
46.5702 3.64574 3.99399
48.7844 4.32094 2
49.554 1.99015 4
50.9537 5.13006 0.00645635
51.8506 2.85453 2
54.0858 3.86728 0
60.2624 44.7789 0.0246065
61.23 41.9634 0.0263498
62.1652 39.3565 0.0280701
63.9638 37.4575 0.029416
62.0016 37.445 2
60.2624 39.851 2
59.0125 42.9259 2
59.7745 37.5684 3.97221
58.0245 40.6632 3.9735
55.1474 39.7281 3.97731
62.1989 35.3586 0.0281421
60.3047 32.7426 0.0275684
58.6345 30.0681 0.0271714
56.6403 18.1413 0.0173355
56.3653 20.5052 0.0220612
56.1209 22.8528 0.027275
57.3048 27.3687 0.0246674
56.3076 25.088 0.0249821
54.4181 17.9057 0.0172378
52.3632 17.0204 0.0185382
51.3787 14.484 0.0168425
48.0562 6.52432 0.010145
49.3244 9.32512 0.0128972
50.4333 11.9837 0.0150225
59.9103 35.1195 2
45.9621 5.87897 2
43.3733 7.46822 2
58.0136 32.2655 2
56.5615 29.3292 2
55.3474 19.1732 2
55.0114 21.5453 2
54.9443 24.0418 2
55.4639 26.5874 2
47.3547 8.61869 2
48.5997 11.2851 2
53.1283 18.6433 2
51.305 18.0321 2
50.6347 16.1164 2
49.7142 13.7309 2
57.4231 34.7599 3.97451
55.7516 31.5128 3.97196
54.5266 28.3914 3.97681
53.7883 25.484 3.97448
53.9745 20.1217 3.98212
53.5912 22.6939 3.97239
41.3983 7.07391 3.98842
45.3593 7.99067 3.98759
42.8649 9.40937 3.98673
46.666 10.6467 3.98566
47.7453 13.0922 3.98417
48.9321 15.3884 3.98311
50.0079 17.6865 3.97913
51.6551 19.3096 3.98678
50.3464 63.3878 0.0144857
51.2451 60.9444 0.0169859
56.7378 44.1947 0.0268378
55.5089 47.9097 0.0224188
52.3153 58.6457 0.0192385
54.2247 57.2774 0.0193647
55.0844 51.4008 0.0263421
54.0137 54.5599 0.0247927
49.5919 61.7532 2
55.6722 41.7143 2
50.5683 59.3391 2
52.1908 56.5025 2
54.2093 45.5809 2
53.3588 49.3386 2
52.6808 52.8622 2
48.8497 60.2112 3.98274
52.5811 42.6584 3.976
49.7923 57.638 3.97973
50.6024 54.4377 3.97593
51.8404 47.2824 3.97866
51.2314 50.9539 3.97131
48.2238 43.8111 3.98877
47.9622 62.483 0.0152062
47.329 61.0187 2
46.6192 59.8053 3.98274
41.6639 67.6938 0.011991
43.3567 65.5151 0.0133145
44.7672 63.4635 0.0142982
45.9872 61.5957 0.0158247
39.6328 67.7742 2
41.5461 65.6535 2
45.766 60.6406 2
43.1463 63.7366 2
44.4828 61.846 2
44.6237 60.303 3.98364
42.9503 62.0946 3.98497
41.5998 63.8301 3.98549
39.6477 65.6216 3.98653
37.5634 67.7562 3.98783
31.6972 65.1402 3.98656
33.392 67.4938 3.98774
35.3333 69.9637 3.99022
37.526 70.0541 2
37.5096 72.4601 3.99396
39.7026 70.0284 0.00966462
39.8179 72.4058 2
39.9526 74.9197 4
42.1111 72.2084 0.00587697
42.3947 74.6792 2
44.8159 74.2794 0
41.7359 4.96568 3.99064
43.8514 5.35611 2
44.3256 3.10908 3.9941
46.5704 3.64551 2
47.2057 1.27793 4
48.7842 4.32114 0.00623228
49.554 1.99013 2
51.8506 2.85458 0
59.0121 42.9257 0.0261122
60.2619 39.8509 0.0272135
62.0011 37.4449 0.0286579
59.7753 37.5685 2
58.0251 40.6632 2
55.148 39.7279 2
56.8506 37.8995 3.97455
49.6671 41.3413 3.98158
53.1882 39.3138 3.97666
39.4416 6.79733 3.98863
59.9093 35.1195 0.0275236
58.0139 32.2659 0.0270137
56.561 29.3296 0.0283311
55.3469 19.1745 0.0176709
55.0103 21.5467 0.0245033
54.9435 24.0412 0.0281783
55.4637 26.5872 0.0228082
53.1281 18.6445 0.0191571
51.305 18.033 0.0150248
50.6349 16.1174 0.0187729
45.9621 5.87945 0.00984395
49.7143 13.7316 0.0160911
47.3547 8.61915 0.0126563
48.5998 11.2855 0.0144015
43.3733 7.46872 0.0117863
57.4245 34.7601 2
41.3983 7.07337 2
45.3594 7.99021 2
42.8649 9.40884 2
55.7514 31.5127 2
54.5266 28.3918 2
53.9752 20.1202 2
53.5921 22.6899 2
53.7888 25.4846 2
46.6659 10.6464 2
47.745 13.0918 2
51.6555 19.3087 2
50.0079 17.6855 2
48.9319 15.3875 2
54.9278 33.9698 3.97529
53.5187 30.4748 3.97284
52.6085 27.1854 3.97581
52.1572 24.0782 3.97363
52.3977 21.0473 3.981
41.0129 9.04255 3.98674
44.723 9.98983 3.986
42.4675 10.8951 3.98505
46.0047 12.7207 3.98434
47.6818 14.5735 3.98373
48.1149 16.9754 3.98144
49.8199 19.5864 3.9772
49.5922 61.7528 0.0157905
50.5686 59.3384 0.0191958
55.6713 41.7145 0.024378
54.2086 45.5801 0.0231503
53.3588 49.3385 0.0248899
52.1908 56.5019 0.0223676
52.6805 52.8619 0.0276534
48.8493 60.2116 2
52.5824 42.6581 2
49.7922 57.6386 2
50.6024 54.4386 2
51.8404 47.282 2
51.2317 50.9535 2
48.2207 43.8142 2
47.9884 58.7536 3.98191
50.1464 45.2962 3.97511
48.6032 55.9293 3.9812
49.1411 52.6078 3.97574
49.6922 49.0572 3.97344
46.0838 39.8913 3.90884
46.4763 42.7061 3.95634
46.538 45.8541 3.9894
43.9257 41.1946 3.92042
42.0881 42.0179 3.89594
47.3294 61.0185 0.0163348
46.6188 59.8055 2
45.4691 58.8021 3.98279
39.6329 67.7737 0.0121371
41.5462 65.6531 0.0133118
43.1465 63.7363 0.0144465
44.4831 61.8457 0.0155837
45.7663 60.6403 0.0166551
41.5997 63.8303 2
37.5634 67.7567 2
39.6476 65.6219 2
44.6234 60.3033 2
42.95 62.0949 2
41.7534 62.5055 3.98535
42.4817 59.9958 3.98447
39.8934 63.5656 3.98541
37.6423 65.5207 3.98605
35.4634 67.6656 3.98782
33.5754 65.3537 3.98636
31.9597 63.3139 3.9856
29.8833 64.731 3.98657
31.6972 65.1406 2
31.3766 67.2034 3.98783
33.3921 67.4942 2
33.156 69.757 3.99022
35.3332 69.9642 2
35.1949 72.3745 3.99393
37.526 70.0536 0.00974421
37.5095 72.4604 2
37.5 75 4
39.8179 72.4055 0.00595431
39.9526 74.9197 2
42.3947 74.6792 0
39.6234 4.71279 3.99079
41.736 4.96521 2
42.0619 2.71671 3.99426
43.8514 5.35657 0.00960645
44.3257 3.10882 2
44.8158 0.721173 4
46.5702 3.64574 0.00600798
47.2057 1.27779 2
49.554 1.99015 0
58.0245 40.6632 0.0264989
59.7745 37.5684 0.0277857
55.1474 39.7281 0.0226946
49.6702 41.3435 2
56.8512 37.8995 2
53.1888 39.3133 2
54.0313 36.6286 3.97613
47.6002 40.441 3.96624
50.6347 38.5124 3.97991
37.5153 6.66837 3.98862
39.4416 6.7968 2
39.2103 8.68495 3.98699
35.9407 8.48468 3.98728
57.4231 34.7599 0.0254858
55.7516 31.5128 0.0280437
54.5266 28.3914 0.0231938
53.9745 20.1217 0.01788
53.5912 22.6939 0.0276125
53.7883 25.484 0.0255233
51.6551 19.3096 0.0132152
50.0079 17.6865 0.0208684
48.9321 15.3884 0.0168935
45.3593 7.99067 0.0124137
47.7453 13.0922 0.0158285
46.666 10.6467 0.0143429
41.3983 7.07391 0.0115775
42.8649 9.40937 0.0132724
54.9292 33.9701 2
41.0129 9.04196 2
44.723 9.98943 2
42.4674 10.8945 2
53.5189 30.4737 2
52.6089 27.1873 2
52.3986 21.0463 2
52.1586 24.0781 2
46.0044 12.7204 2
47.6815 14.5728 2
49.8203 19.585 2
48.1148 16.9743 2
52.4742 32.8683 3.97646
51.357 29.1428 3.97217
50.8087 25.7102 3.97281
49.9466 22.1655 3.97923
40.5682 11.5982 3.98478
43.8572 11.9102 3.98507
45.803 15.4087 3.98359
47.506 19.2072 3.97963
46.425 37.5061 3.91315
48.8497 60.2112 0.0172632
49.7923 57.638 0.02027
52.5811 42.6584 0.0239996
51.8404 47.2824 0.0213418
51.2314 50.9539 0.0286925
50.6024 54.4377 0.0240692
48.2238 43.8111 0.0112281
47.988 58.7538 2
50.1478 45.2985 2
48.603 55.9301 2
49.1411 52.611 2
49.6922 49.0568 2
46.0945 39.8962 2
46.4857 42.7165 2
46.5355 45.8456 2
43.9376 41.2006 2
42.0934 42.0195 2
46.8409 57.3571 3.98272
44.6902 39.4753 3.91179
42.467 40.8872 3.91058
48.1199 47.2555 3.97766
47.1753 54.2657 3.98165
47.6041 50.7635 3.97611
44.834 47.4219 3.99757
45.1532 41.9864 3.91343
44.9565 44.6158 3.95703
42.7359 42.7153 3.92282
40.9461 42.3521 3.92146
46.6192 59.8053 0.0172638
45.4686 58.8023 2
43.8774 57.7273 3.98354
37.5634 67.7562 0.0121656
39.6477 65.6216 0.0134683
41.5998 63.8301 0.0145096
42.9503 62.0946 0.0150274
44.6237 60.303 0.0163607
35.4634 67.666 2
41.7531 62.5058 2
39.8932 63.5658 2
37.6423 65.5211 2
42.4813 59.9961 2
40.6232 61.6645 3.98461
40.4458 58.2298 3.98407
37.8368 63.2271 3.98551
35.573 65.443 3.98619
33.5755 65.3541 2
31.9597 63.3142 2
33.6292 63.3539 3.9854
30.3787 62.8724 3.98564
32.1234 62.0212 3.98497
26.8682 61.5155 3.9846
28.0621 64.1589 3.9864
29.8834 64.7314 2
29.406 66.7669 3.98783
31.6972 65.1402 0.0134388
31.3766 67.2038 2
31.0132 69.422 3.9902
33.392 67.4938 0.0122567
33.156 69.7575 2
32.892 72.1487 3.99395
35.3333 69.9637 0.00978462
35.1949 72.3748 2
35.0474 74.9194 4
37.5096 72.4601 0.00604186
37.5 75 2
39.9526 74.9197 0
35.6197 6.71937 3.98868
37.5225 4.61227 3.99091
39.6235 4.71235 2
39.7884 2.47316 3.99438
41.7359 4.96568 0.00936293
42.0621 2.71643 2
42.3946 0.32156 4
44.3256 3.10908 0.00589922
44.8159 0.72056 2
47.2057 1.27793 0
49.6671 41.3413 0.0184201
56.8506 37.8995 0.0254483
53.1882 39.3138 0.0233409
47.6038 40.4425 2
50.6353 38.5131 2
54.0317 36.6287 2
51.4199 35.5825 3.96639
48.2717 37.7732 3.97581
46.0838 35.1321 3.9143
43.9252 33.8137 3.91741
42.0816 32.9934 3.89475
37.457 8.52661 3.98716
37.5153 6.66785 2
39.4416 6.79733 0.0113704
39.2104 8.68433 2
38.9753 10.1169 3.98663
35.8972 9.76381 3.98612
34.1491 8.81413 3.98712
35.9407 8.484 2
54.9278 33.9698 0.0247091
53.5187 30.4748 0.0271571
52.6085 27.1854 0.024186
52.3977 21.0473 0.0189987
52.1572 24.0782 0.0263722
49.8199 19.5864 0.0227999
48.1149 16.9754 0.0185624
47.6818 14.5735 0.0162729
44.723 9.98983 0.0139952
46.0047 12.7207 0.0156556
41.0129 9.04255 0.0132608
42.4675 10.8951 0.0149474
52.4757 32.8675 2
40.5681 11.5976 2
43.8571 11.9098 2
51.3589 29.1442 2
50.8103 25.7115 2
49.9476 22.1639 2
45.8026 15.4083 2
47.5062 19.206 2
50.0461 31.4015 3.9653
49.311 27.4562 3.97627
49.4189 24.3768 3.98092
47.1904 21.9081 3.979
38.3006 12.7223 3.98452
42.1006 14.2929 3.98347
44.8018 18.4414 3.9832
44.9761 37.512 3.91332
46.4418 37.51 2
47.9884 58.7536 0.0180919
48.6032 55.9293 0.0187983
50.1464 45.2962 0.0248935
49.6922 49.0572 0.0265626
49.1411 52.6078 0.0242604
46.0838 39.8913 0.0911598
46.4763 42.7061 0.0436632
46.538 45.8541 0.0105987
43.9257 41.1946 0.0795759
42.0881 42.0179 0.10406
46.8405 57.3573 2
44.7038 39.4791 2
42.4681 40.8862 2
48.1198 47.2549 2
47.1752 54.2662 2
47.6044 50.7647 2
44.8353 47.4139 2
45.1613 41.9942 2
44.9673 44.6281 2
42.7536 42.7234 2
40.9517 42.351 2
45.4008 55.9445 3.98306
42.8129 39.2723 3.9246
40.9159 40.8044 3.96184
46.1175 48.9311 3.98117
45.5562 52.5621 3.98346
43.4797 48.4802 3.99468
43.3703 46.1873 3.96388
43.7181 43.8036 3.90874
41.2197 43.8795 3.92403
39.3167 42.6816 3.93169
45.4691 58.8021 0.0172075
43.8769 57.7274 2
42.1083 56.3542 3.98453
35.4634 67.6656 0.0121847
37.6423 65.5207 0.0139527
39.8934 63.5656 0.0145938
41.7534 62.5055 0.0146472
42.4817 59.9958 0.0155326
35.573 65.4433 2
40.6228 61.6647 2
37.8367 63.2272 2
40.4454 58.23 2
38.9269 56.5251 3.98666
38.2507 60.3497 3.98504
35.6071 63.2208 3.98522
33.5754 65.3537 0.0136365
31.9597 63.3139 0.0143957
33.6292 63.3542 2
30.3788 62.8726 2
32.1234 62.0213 2
28.681 62.2176 3.98542
33.3461 61.5343 3.98506
31.0663 61.2385 3.98489
27.5665 59.614 3.98285
23.7882 59.1012 3.98299
25.0332 60.8883 3.98383
26.8683 61.5157 2
26.2286 63.4909 3.98602
28.0622 64.1592 2
27.4625 66.1906 3.98781
29.8833 64.731 0.0134261
29.4061 66.7673 2
28.9055 68.9474 3.99019
31.3766 67.2034 0.0121696
31.0131 69.4223 2
30.6144 71.7798 3.99397
33.156 69.757 0.00977646
32.8918 72.149 2
32.6054 74.6784 4
35.1949 72.3745 0.00607244
35.0474 74.9197 2
37.5 75 0
33.7222 6.974 3.98841
35.4338 4.68265 3.99089
35.6197 6.71875 2
37.5139 2.38579 3.99445
37.5226 4.61182 2
39.6234 4.71279 0.00921004
39.7885 2.47287 2
39.9526 0.0806499 4
42.0619 2.71671 0.00574121
42.3947 0.320817 2
44.8158 0.721173 0
44.698 35.5348 3.91154
42.466 34.1184 3.90914
47.6002 40.441 0.033762
50.6347 38.5124 0.0200869
54.0313 36.6286 0.0238742
48.2737 37.7717 2
51.4212 35.5814 2
46.0922 35.1271 2
43.9414 33.8032 2
42.0852 32.9936 2
48.4331 34.2747 3.99652
45.1483 33.0282 3.90581
42.7333 32.2979 3.92304
40.938 32.6581 3.92388
37.3093 10.6198 3.98576
37.457 8.52597 2
37.5153 6.66837 0.011376
39.2103 8.68495 0.0130148
38.9753 10.1162 2
34.7523 10.3692 3.98571
35.8972 9.76306 2
32.3758 9.36071 3.98643
34.149 8.81337 2
35.9407 8.48468 0.0127168
52.4742 32.8683 0.0235428
51.357 29.1428 0.0278344
50.8087 25.7102 0.0271912
49.9466 22.1655 0.0207663
47.506 19.2072 0.0203684
45.803 15.4087 0.0164147
43.8572 11.9102 0.0149282
40.5682 11.5982 0.015223
50.0475 31.4009 2
38.3003 12.7216 2
42.1001 14.2922 2
49.3123 27.4567 2
49.4203 24.3752 2
47.1915 21.9087 2
44.8019 18.4408 2
47.8342 29.569 3.97257
47.12 25.0951 3.98471
44.2914 21.2901 3.98216
36.5803 12.9188 3.98407
38.6801 14.7911 3.98305
41.75 17.8202 3.9813
42.9542 37.4934 3.91834
44.9957 37.5115 2
46.425 37.5061 0.0868513
46.8409 57.3571 0.0172838
47.1753 54.2657 0.0183514
48.1199 47.2555 0.0223372
47.6041 50.7635 0.0238885
44.6902 39.4753 0.0882064
45.1532 41.9864 0.0865734
44.9565 44.6158 0.0429709
44.834 47.4219 0.0024261
42.7359 42.7153 0.0771813
42.467 40.8872 0.0894201
40.9461 42.3521 0.0785368
45.4005 55.9446 2
42.816 39.2707 2
40.9154 40.8015 2
46.1177 48.93 2
45.5566 52.5622 2
43.4792 48.4945 2
43.3968 46.1991 2
43.7314 43.8117 2
41.2319 43.8813 2
39.3197 42.6808 2
43.7405 54.4561 3.98815
41.0055 39.173 3.97279
39.2443 40.8875 3.97322
43.7263 50.5393 3.99146
41.9828 47.7209 3.98943
41.8958 45.2022 3.90345
39.4523 44.6273 3.92961
37.496 42.8168 3.93027
43.8774 57.7273 0.0164577
42.1076 56.3544 2
40.4215 54.9625 3.98535
35.573 65.443 0.0138058
37.8368 63.2271 0.0144889
40.6232 61.6645 0.0153935
40.4458 58.2298 0.015928
35.6071 63.2209 2
38.2503 60.3495 2
38.9261 56.5261 2
38.0005 55.2837 3.98656
36.9356 57.6553 3.98479
35.3638 60.9338 3.98505
33.6292 63.3539 0.014604
30.3787 62.8724 0.0143569
32.1234 62.0212 0.0150324
33.3461 61.5345 2
28.6812 62.2178 2
31.0663 61.2386 2
29.4021 60.3081 3.98422
32.3556 59.7671 3.98413
28.018 58.3934 3.98367
27.5666 59.614 2
25.3751 58.6137 3.98186
22.7504 58.2598 3.97976
23.3982 60.3677 3.98251
23.7883 59.1015 2
25.0333 60.8885 2
24.4309 62.7833 3.98546
26.8682 61.5155 0.0154046
26.2287 63.4912 2
25.5465 65.5004 3.98768
28.0621 64.1589 0.0136021
27.4626 66.191 2
26.8351 68.3356 3.99014
29.406 66.7669 0.0121656
28.9054 68.9478 2
28.3695 71.265 3.99397
31.0132 69.422 0.00979608
30.6142 71.78 2
30.1842 74.2788 4
32.892 72.1487 0.00605162
32.6053 74.6792 2
35.0474 74.9194 0
31.7865 7.41383 3.98818
33.3457 4.92182 3.99074
33.7221 6.97333 2
35.2442 2.46194 3.99443
35.4339 4.68213 2
35.6197 6.71937 0.0113174
37.5 0 4
37.514 2.3855 2
37.5225 4.61227 0.00908617
39.7884 2.47316 0.00562364
39.9526 0.0802889 2
42.3946 0.32156 0
42.8207 35.7225 3.92185
44.7089 35.5323 2
40.9157 34.2012 3.96198
42.4675 34.1191 2
48.2717 37.7732 0.0241918
51.4199 35.5825 0.0336143
46.0838 35.1321 0.0856988
43.9252 33.8137 0.0825889
42.0816 32.9934 0.105252
48.4374 34.2714 2
45.1586 33.0213 2
42.7486 32.2917 2
40.9401 32.6576 2
46.3763 31.5466 3.97796
43.7095 31.2157 3.91177
41.2208 31.1227 3.91719
39.3065 32.3257 3.93092
35.6906 11.7639 3.98429
37.3093 10.619 2
37.457 8.52661 0.0128359
38.9753 10.1169 0.0133697
33.0962 11.2058 3.98448
34.7523 10.3684 2
35.8972 9.76381 0.0138821
30.4804 10.0088 3.98578
32.3757 9.3599 2
34.1491 8.81413 0.0128813
50.0461 31.4015 0.0346963
49.311 27.4562 0.0237332
49.4189 24.3768 0.0190766
47.1904 21.9081 0.0209975
44.8018 18.4414 0.0168011
42.1006 14.2929 0.0165313
38.3006 12.7223 0.0154844
36.58 12.9181 2
47.8341 29.5669 2
38.6795 14.7905 2
41.7498 17.8192 2
47.122 25.0957 2
44.2921 21.289 2
45.5906 27.7226 3.98661
43.8139 24.0168 3.99008
41.3426 20.6965 3.98122
35.7701 14.7433 3.98333
38.6805 17.5769 3.98138
41.0543 37.4849 3.96933
42.9589 37.4942 2
44.9761 37.512 0.0866769
45.4008 55.9445 0.0169385
45.5562 52.5621 0.0165369
46.1175 48.9311 0.0188333
42.8129 39.2723 0.075397
43.7181 43.8036 0.091258
43.3703 46.1873 0.0361184
43.4797 48.4802 0.00532412
41.2197 43.8795 0.0759728
40.9159 40.8044 0.0381649
39.3167 42.6816 0.0683093
43.7402 54.4569 2
41.0063 39.1714 2
39.2433 40.8867 2
43.7259 50.5456 2
41.9852 47.7298 2
41.9139 45.2088 2
37.498 42.8163 2
39.4667 44.6236 2
41.8873 53.0312 3.99378
39.2404 39.1739 3.96413
37.4969 40.9326 3.9638
35.6815 42.6841 3.93217
40.9634 49.7703 4.00159
39.8057 46.0901 3.90098
37.4995 44.8807 3.93119
42.1083 56.3542 0.0154701
40.4204 54.9627 2
38.73 53.8967 3.9874
35.6071 63.2208 0.0147822
38.2507 60.3497 0.0149627
38.9269 56.5251 0.01334
35.3635 60.9337 2
36.9349 57.6546 2
37.9995 55.2829 2
36.3194 55.419 3.98813
34.4874 58.5466 3.98473
33.3461 61.5343 0.0149429
28.681 62.2176 0.0145754
31.0663 61.2385 0.0151133
32.3556 59.767 2
29.4022 60.3082 2
30.2935 57.8397 3.98441
28.0182 58.3933 2
26.9359 56.8436 3.98092
27.5665 59.614 0.0171524
25.3753 58.6138 2
23.8293 56.8255 3.97692
21.3252 57.4188 3.97946
21.9896 59.6399 3.9823
22.7505 58.2602 2
22.7343 62.0345 3.98449
23.3983 60.3681 2
23.7882 59.1012 0.0170148
25.0332 60.8883 0.0161728
24.4311 62.7836 2
23.6804 64.7187 3.98726
26.2286 63.4909 0.0139845
25.5467 65.5008 2
24.8074 67.5967 3.99004
27.4625 66.1906 0.0121885
26.8351 68.336 2
26.1648 70.6058 3.99395
28.9055 68.9474 0.00981457
28.3693 71.2651 2
27.7943 73.7221 4
30.6144 71.7798 0.00602768
30.1841 74.2794 2
32.6054 74.6784 0
29.8091 7.98706 3.98768
31.2508 5.32902 3.99043
31.7865 7.41303 2
32.9799 2.70005 3.99432
33.3457 4.92124 2
33.7222 6.974 0.0115915
35.0474 0.080333 4
35.2441 2.46162 2
35.4338 4.68265 0.00910808
37.5 0 2
37.5139 2.38579 0.00555131
39.9526 0.0806499 0
41.0132 35.8082 3.97166
42.8227 35.7243 2
44.698 35.5348 0.0884623
28.5413 10.6842 3.98562
39.2415 34.1191 3.97283
40.9147 34.204 2
42.466 34.1184 0.0908619
48.4331 34.2747 0.00347711
45.1483 33.0282 0.0941896
42.7333 32.2979 0.0769573
40.938 32.6581 0.0761227
46.3899 31.5439 2
43.7159 31.2079 2
41.2341 31.1175 2
39.309 32.326 2
44.4159 29.7261 3.96959
41.8974 29.8064 3.90465
39.4509 30.3791 3.92996
37.484 32.1863 3.93165
34.0904 12.9218 3.98368
35.6905 11.763 2
37.3093 10.6198 0.0142383
31.1841 11.974 3.98472
33.0961 11.2049 2
34.7523 10.3692 0.0142918
30.4803 10.008 2
32.3758 9.36071 0.0135666
47.8342 29.569 0.0274256
47.12 25.0951 0.0152883
36.5803 12.9188 0.0159308
44.2914 21.2901 0.0178351
41.75 17.8202 0.0186984
38.6801 14.7911 0.016954
35.7696 14.7426 2
45.5909 27.7141 2
38.6801 17.576 2
41.3427 20.6944 2
43.8163 24.02 2
33.6054 15.8599 3.9832
43.0814 26.4989 3.99632
40.9232 23.2694 3.98334
38.422 20.3045 3.98333
35.8465 17.4904 3.98292
39.2465 37.4846 3.95902
41.0547 37.4847 2
42.9542 37.4934 0.0816623
43.7405 54.4561 0.0118541
43.7263 50.5393 0.00854029
41.0055 39.173 0.0272063
41.8958 45.2022 0.0965466
41.9828 47.7209 0.0105678
39.4523 44.6273 0.070389
39.2443 40.8875 0.0267832
37.496 42.8168 0.0697344
41.8861 53.0331 2
39.2408 39.1733 2
37.4965 40.9316 2
40.9629 49.7715 2
35.6793 42.6833 2
39.8268 46.107 2
37.4968 44.8773 2
39.8296 51.9552 4.00023
37.495 39.1817 3.94245
35.7513 40.895 3.9733
34.0499 42.3495 3.92221
35.5309 44.628 3.92721
38.753 48.7648 4.00997
37.5012 46.4083 3.90076
40.4215 54.9625 0.0146497
38.7288 53.895 2
36.7171 53.2548 3.99678
35.3638 60.9338 0.014953
36.9356 57.6553 0.0152093
38.0005 55.2837 0.0134353
34.4871 58.5461 2
36.3186 55.4169 2
33.2219 55.5335 3.98606
32.3556 59.7671 0.015874
29.4021 60.3081 0.0157755
30.2937 57.8395 2
28.6751 55.3322 3.98105
28.018 58.3934 0.0163335
26.9361 56.8435 2
25.2945 55.1633 3.9777
21.7928 55.3664 3.97607
25.3751 58.6137 0.0181368
23.8294 56.8257 2
20.2085 57.0488 3.98164
20.6393 58.7978 3.98138
21.3253 57.4191 2
21.1638 61.1844 3.98388
21.9897 59.6403 2
22.7504 58.2598 0.0202415
21.8936 63.8467 3.98661
22.7344 62.035 2
23.3982 60.3677 0.0174859
24.4309 62.7833 0.014536
23.6806 64.7191 2
22.8357 66.7404 3.9899
25.5465 65.5004 0.0123178
24.8074 67.597 2
24.009 69.8069 3.99386
26.8351 68.3356 0.00986331
26.1645 70.6059 2
25.446 73.0099 4
28.3695 71.265 0.00602719
27.7943 73.7222 2
30.1842 74.2788 0
27.819 8.64677 3.98734
29.1527 5.87477 3.99006
29.809 7.98632 2
30.7251 3.09722 3.99412
31.2507 5.32836 2
31.7865 7.41383 0.0118218
32.6053 0.320823 4
32.9798 2.69973 2
33.3457 4.92182 0.00926336
35.0474 0.0802903 2
35.2442 2.46194 0.00557392
37.5 0 0
39.246 35.8079 3.96409
41.0136 35.8097 2
42.8207 35.7225 0.0781501
28.5412 10.6836 2
26.6202 11.3796 3.98531
29.223 12.6306 3.98477
37.4916 34.0711 3.96243
39.2403 34.1194 2
40.9157 34.2012 0.0380181
46.3763 31.5466 0.0220431
43.7095 31.2157 0.0882326
41.2208 31.1227 0.0828115
39.3065 32.3257 0.0690796
44.4292 29.7184 2
41.9157 29.7968 2
39.4631 30.3821 2
37.4845 32.1849 2
42.3415 28.3495 3.95207
39.8195 28.9154 3.90817
37.4882 30.1178 3.93164
35.6677 32.3153 3.93142
31.9118 14.4666 3.98379
34.0902 12.9209 2
35.6906 11.7639 0.0157123
31.1841 11.9732 2
33.0962 11.2058 0.015518
30.4804 10.0088 0.0142176
45.5906 27.7226 0.0133915
43.8139 24.0168 0.00992454
35.7701 14.7433 0.0166733
41.3426 20.6965 0.0187813
38.6805 17.5769 0.0186198
33.605 15.8596 2
35.846 17.4898 2
43.0829 26.4977 2
38.4217 20.3036 2
40.9241 23.2643 2
33.5474 17.3675 3.98452
40.4597 25.616 4.01116
38.0801 22.8303 3.99172
35.5824 20.0566 3.98377
37.496 37.4926 3.93144
39.2467 37.4846 2
41.0543 37.4849 0.0306679
41.8873 53.0312 0.00622124
40.9634 49.7703 -0.00159098
39.2404 39.1739 0.0358712
39.8057 46.0901 0.0990227
37.4995 44.8807 0.0688059
37.4969 40.9326 0.0362024
35.6815 42.6841 0.0678298
39.8288 51.9549 2
37.4952 39.181 2
35.7514 40.895 2
38.7487 48.7906 2
34.0463 42.3499 2
35.5219 44.6299 2
37.4975 46.4282 2
37.6719 51.0566 4.0093
35.7544 39.1868 3.96465
34.0843 40.8099 3.95963
32.905 42.0119 3.89561
33.7624 43.8734 3.92224
35.1797 46.0893 3.90657
36.8821 48.4125 3.99437
38.73 53.8967 0.0125989
36.7165 53.2515 2
34.3519 52.5133 3.98977
34.4874 58.5466 0.0152655
36.3194 55.419 0.0118674
33.2219 55.5321 2
30.5012 53.4342 3.98451
30.2935 57.8397 0.0155915
28.6754 55.3319 2
26.8597 53.4639 3.97721
26.9359 56.8436 0.0190793
25.2948 55.1633 2
23.5494 53.5051 3.97451
20.4443 53.2472 3.97326
19.9182 55.8524 3.98055
21.7929 55.3667 2
23.8293 56.8255 0.0230769
19.4303 57.9097 3.98103
20.2086 57.0491 2
19.7025 60.2184 3.98281
20.6394 58.7983 2
21.3252 57.4188 0.0205419
20.2056 62.868 3.98567
21.164 61.1849 2
21.9896 59.6399 0.0176978
20.9371 65.7696 3.98958
21.8938 63.8472 2
22.7343 62.0345 0.015511
23.6804 64.7187 0.012741
22.8357 66.7408 2
21.9115 68.874 3.99376
24.8074 67.5967 0.0099577
24.0088 69.807 2
23.1494 72.1454 4
26.1648 70.6058 0.00604961
25.446 73.0099 2
27.7943 73.7221 0
25.8582 9.37485 3.98692
27.0675 6.53891 3.98967
27.8189 8.64607 2
28.4873 3.64312 3.9939
29.1526 5.87417 2
29.8091 7.98706 0.0123176
30.1841 0.720592 4
30.725 3.09689 2
31.2508 5.32902 0.00957192
32.6053 0.320817 2
32.9799 2.70005 0.00567585
35.0474 0.080333 0
37.4966 35.8094 3.9414
39.2459 35.8083 2
41.0132 35.8082 0.0283389
24.775 12.0625 3.98531
23.7489 14.3465 3.98431
28.5413 10.6842 0.0143758
26.6202 11.379 2
29.223 12.6299 2
27.2892 13.3637 3.98461
29.7776 14.1891 3.98377
35.7471 34.1042 3.97303
37.491 34.071 2
39.2415 34.1191 0.0271741
37.484 32.1863 0.0683455
44.4159 29.7261 0.0304093
41.8974 29.8064 0.0953514
39.4509 30.3791 0.0700403
42.3533 28.3375 2
39.8378 28.9022 2
37.4881 30.1225 2
35.666 32.3145 2
40.025 27.5227 3.97112
37.4958 28.5841 3.90385
35.5174 30.3683 3.92867
34.0428 32.641 3.92242
30.923 16.8223 3.98353
31.9117 14.4658 2
34.0904 12.9218 0.0163227
31.1841 11.974 0.0152753
43.0814 26.4989 0.00368115
40.9232 23.2694 0.0166584
33.6054 15.8599 0.0167956
35.8465 17.4904 0.0170768
38.422 20.3045 0.0166656
33.547 17.3675 2
35.5821 20.0555 2
40.4587 25.6139 2
38.0799 22.8305 2
32.8604 19.7719 3.9848
37.7971 25.1289 4.02739
35.2024 22.6138 3.98304
35.7486 37.4964 3.95897
37.4963 37.4925 2
39.2465 37.4846 0.040979
39.8296 51.9552 -0.000226642
38.753 48.7648 -0.00997307
37.495 39.1817 0.0575547
37.5012 46.4083 0.0992416
35.5309 44.628 0.0727895
35.7513 40.895 0.0266982
34.0499 42.3495 0.0777908
37.671 51.0623 2
35.7547 39.1866 2
34.0842 40.8064 2
36.8786 48.4245 2
32.9003 42.0112 2
33.7523 43.8805 2
35.1569 46.1022 2
35.4308 50.1947 4.00888
33.9943 39.1849 3.96899
32.5232 40.884 3.90971
32.2514 42.7043 3.92196
33.1117 45.1866 3.91134
34.279 47.4753 3.9691
36.7171 53.2548 0.00322158
34.352 52.5117 2
31.9725 51.2408 3.98984
33.2219 55.5335 0.0139406
30.5018 53.4346 2
28.398 51.648 3.97989
28.6751 55.3322 0.0189509
26.8601 53.464 2
25.0468 51.7867 3.9723
25.2945 55.1633 0.0222961
23.5498 53.5052 2
21.9337 51.831 3.97227
19.174 51.6562 3.97286
18.9031 54.3287 3.97639
20.4445 53.2475 2
18.4362 56.7419 3.98175
19.9182 55.8528 2
21.7928 55.3664 0.0239337
18.3633 59.1256 3.98125
19.4305 57.9101 2
20.2085 57.0488 0.0183551
18.616 61.7758 3.98454
19.7026 60.2189 2
20.6393 58.7978 0.0186199
19.1259 64.6805 3.98886
20.2058 62.8686 2
21.1638 61.1844 0.0161194
19.8856 67.8107 3.99356
20.9371 65.77 2
21.8936 63.8467 0.0133853
22.8357 66.7404 0.0101003
21.9113 68.8741 2
20.9142 71.1327 4
24.009 69.8069 0.00613569
23.1494 72.1455 2
25.446 73.0099 0
23.0942 12.7772 3.98494
23.9708 10.1613 3.98671
25.0213 7.30899 3.98946
25.8582 9.37419 2
26.279 4.32734 3.99364
27.0673 6.53831 2
27.819 8.64677 0.0126564
27.7943 1.27781 4
28.4871 3.64285 2
29.1527 5.87477 0.00994058
30.1841 0.720551 2
30.7251 3.09722 0.00588296
32.6053 0.320823 0
35.75 35.8079 3.9643
37.4966 35.8095 2
39.246 35.8079 0.0359053
24.7751 12.062 2
23.7491 14.3463 2
22.4773 15.0229 3.98381
25.3552 13.8958 3.98419
24.0216 15.6081 3.98342
26.6202 11.3796 0.0146881
29.223 12.6306 0.0152251
27.2892 13.3634 2
29.7777 14.1884 2
28.3533 15.963 3.98411
34.0871 34.1889 3.96117
35.7477 34.1045 2
37.4916 34.0711 0.0375707
35.6677 32.3153 0.0685804
37.4882 30.1178 0.0683616
42.3415 28.3495 0.0479286
39.8195 28.9154 0.0918326
40.0318 27.5116 2
37.4955 28.5674 2
35.505 30.3714 2
34.0431 32.6395 2
37.6178 27.2045 3.97361
35.1492 28.8991 3.90706
33.7455 31.1151 3.92029
32.9038 32.9792 3.89605
30.204 19.3247 3.98489
30.9229 16.8218 2
31.9118 14.4666 0.0162112
40.4597 25.616 -0.0111562
38.0801 22.8303 0.00827624
33.5474 17.3675 0.0154792
35.5824 20.0566 0.0162315
32.8596 19.7722 2
35.202 22.611 2
37.7982 25.1324 2
32.306 22.3838 3.98446
34.9534 25.1412 4.00539
33.9461 37.4967 3.96759
35.749 37.4966 2
37.496 37.4926 0.0685563
37.6719 51.0566 -0.00929662
36.8821 48.4125 0.00563251
35.7544 39.1868 0.0353477
35.1797 46.0893 0.0934264
33.7624 43.8734 0.0777583
34.0843 40.8099 0.0403651
32.905 42.0119 0.104388
35.4303 50.1972 2
33.9945 39.1828 2
32.5207 40.8815 2
34.2719 47.5044 2
32.237 42.7068 2
33.093 45.203 2
33.195 49.1837 4.00776
32.1746 39.2751 3.92348
31.0611 41.1822 3.91947
31.2788 43.7863 3.90863
32.2325 46.4016 3.96663
34.3519 52.5133 0.0102306
31.973 51.2419 2
29.8083 49.7559 3.98312
30.5012 53.4342 0.0154892
28.3987 51.6453 2
26.4618 50.0267 3.9726
26.8597 53.4639 0.0227932
25.0474 51.7863 2
23.3004 50.2247 3.97244
23.5494 53.5051 0.0254856
21.9342 51.8313 2
20.4319 50.3376 3.9727
17.962 50.3475 3.9747
17.8122 52.8106 3.97474
19.1745 51.6564 2
17.4227 55.3578 3.97892
18.9031 54.3291 2
20.4443 53.2472 0.0267419
17.1273 57.888 3.98218
18.4362 56.7423 2
19.9182 55.8524 0.0194516
17.1328 60.5593 3.98309
18.3634 59.1261 2
19.4303 57.9097 0.0189653
17.406 63.4733 3.98766
18.6162 61.7764 2
19.7025 60.2184 0.0171947
17.9417 66.6192 3.99322
19.1259 64.6809 2
20.2056 62.868 0.0143318
18.75 69.9759 4
19.8853 67.8107 2
20.9371 65.7696 0.010418
21.9115 68.874 0.00624168
20.9142 71.1327 2
23.1494 72.1454 0
21.5849 13.5972 3.98454
22.1889 11.0206 3.98622
23.0944 12.7771 2
23.0394 8.17433 3.9893
23.9709 10.1609 2
24.1166 5.14202 3.99347
25.0212 7.30849 2
25.8582 9.37485 0.0130812
25.446 1.99014 4
26.2787 4.32712 2
27.0675 6.53891 0.0103305
27.7943 1.27778 2
28.4873 3.64312 0.00610386
30.1841 0.720592 0
33.9873 35.8101 3.97053
35.7501 35.8084 2
37.4966 35.8094 0.058601
21.3021 15.8186 3.98312
24.775 12.0625 0.0146905
23.7489 14.3465 0.0156883
25.3553 13.8954 2
22.4776 15.0229 2
24.022 15.608 2
23.2605 16.2395 3.9832
25.3769 16.0758 3.98415
27.2892 13.3637 0.015393
29.7776 14.1891 0.0162326
28.3536 15.9628 2
27.4355 18.7841 3.9846
32.536 34.1079 3.91083
34.0887 34.1901 2
35.7471 34.1042 0.0269656
34.0428 32.641 0.0775812
35.5174 30.3683 0.071327
37.4958 28.5841 0.0961509
40.025 27.5227 0.028877
37.614 27.171 2
32.9034 32.9802 2
35.1288 28.8837 2
33.7311 31.1027 2
35.0632 27.3263 3.97724
33.0785 29.8012 3.90827
32.238 32.2756 3.91934
29.5671 21.9189 3.99126
30.2037 19.3247 2
30.923 16.8223 0.0164732
37.7971 25.1289 -0.0273911
35.2024 22.6138 0.0169594
32.8604 19.7719 0.0151977
32.3053 22.3845 2
34.9569 25.1457 2
31.6545 25.5997 3.99383
32.0413 37.4976 3.91994
33.9469 37.4962 2
35.7486 37.4964 0.0410346
35.4308 50.1947 -0.00887709
34.279 47.4753 0.0308954
33.9943 39.1849 0.0310133
33.1117 45.1866 0.0886553
32.2514 42.7043 0.07804
32.5232 40.884 0.090295
33.1953 49.1675 2
32.1721 39.2724 2
31.0448 41.1886 2
32.2151 46.4178 2
31.2692 43.7944 2
31.0816 48.0034 4.00085
30.2916 39.4581 3.91186
29.8393 41.9756 3.90751
30.3699 44.9817 3.96616
31.9725 51.2408 0.010159
29.8091 49.7507 2
27.8082 48.2244 3.97761
28.398 51.648 0.0201117
26.4627 50.0252 2
24.5963 48.5025 3.9746
25.0468 51.7867 0.0277004
23.3012 50.2247 2
21.6092 48.815 3.97488
21.9337 51.831 0.0277279
20.4327 50.3376 2
19.0017 49.1104 3.97628
16.8707 49.345 3.97745
16.7526 51.4226 3.9753
17.9626 50.3477 2
16.3731 53.8861 3.97708
17.8125 52.8108 2
19.174 51.6562 0.0271366
15.9668 56.4895 3.98087
17.4227 55.3582 2
18.9031 54.3287 0.0236071
15.7452 59.2203 3.98292
17.1274 57.8885 2
18.4362 56.7419 0.01825
15.7863 62.1437 3.98605
17.1329 60.5599 2
18.3633 59.1256 0.0187543
16.0882 65.3017 3.99284
17.4061 63.4738 2
18.616 61.7758 0.0154642
16.6661 68.6801 4
17.9414 66.6191 2
19.1259 64.6805 0.0111362
18.75 69.9759 2
19.8856 67.8107 0.00644454
20.9142 71.1327 0
20.2166 14.5859 3.98385
21.5851 13.5971 2
20.5281 11.9901 3.98567
21.1425 9.14397 3.98916
22.1891 11.0202 2
23.0942 12.7772 0.0150601
22.0157 6.08099 3.99333
23.0393 8.17397 2
23.9708 10.1613 0.0132947
23.1494 2.85457 4
24.1163 5.14189 2
25.0213 7.30899 0.0105404
25.446 1.99012 2
26.279 4.32734 0.00635757
27.7943 1.27781 0
32.1787 35.7172 3.92376
33.9883 35.8108 2
35.75 35.8079 0.0356985
21.3023 15.8182 2
20.2988 16.9526 3.98342
22.0935 16.6239 3.98225
25.3552 13.8958 0.0158133
22.4773 15.0229 0.0161909
24.0216 15.6081 0.0165793
25.3773 16.0756 2
23.2609 16.2395 2
24.1996 18.4379 3.98194
27.0039 21.4419 3.98455
28.3533 15.963 0.0158927
27.4354 18.7841 2
31.0668 33.8033 3.91654
32.5343 34.1111 2
34.0871 34.1889 0.0388306
32.9038 32.9792 0.103947
33.7455 31.1151 0.0797104
35.1492 28.8991 0.0929418
37.6178 27.2045 0.026392
35.0519 27.309 2
32.234 32.2804 2
33.0607 29.7838 2
32.4916 28.0516 3.98623
31.2505 31.2022 3.90972
28.769 24.3843 3.98672
29.5662 21.9197 2
30.204 19.3247 0.0151142
34.9534 25.1412 -0.0053949
32.306 22.3838 0.0155424
31.6562 25.5875 2
29.5895 27.2891 3.97677
30.0089 37.4855 3.91284
32.0396 37.4971 2
33.9461 37.4967 0.0324122
33.195 49.1837 -0.00775572
32.2325 46.4016 0.0333746
32.1746 39.2751 0.0765243
31.2788 43.7863 0.0913727
31.0611 41.1822 0.080527
31.0834 48.0036 2
30.2782 39.4662 2
29.8288 41.9832 2
30.3561 44.9936 2
29.1022 46.5578 3.99348
28.9034 39.8671 3.90897
28.5784 43.1909 3.96749
29.8083 49.7559 0.0168783
27.8091 48.2202 2
25.8742 46.6922 3.98108
26.4618 50.0267 0.0274048
24.5973 48.5024 2
22.7491 47.1105 3.97935
23.3004 50.2247 0.0275587
21.6103 48.8148 2
19.9488 47.6386 3.97834
20.4319 50.3376 0.0272973
19.0026 49.1107 2
17.6462 48.1923 3.9791
16.1231 48.6946 3.97953
16.8714 49.3454 2
15.8314 50.1823 3.97667
15.3624 52.4283 3.9765
16.753 51.4229 2
17.962 50.3475 0.0253032
14.8573 54.9893 3.97898
16.3732 53.8865 2
17.8122 52.8106 0.0252646
14.4531 57.7491 3.98236
15.9668 56.49 2
17.4227 55.3578 0.0210764
14.2639 60.6981 3.98504
15.7453 59.2208 2
17.1273 57.888 0.0178225
14.3324 63.8609 3.99212
15.7863 62.1443 2
17.1328 60.5593 0.0169068
14.6715 67.2507 4
16.0879 65.3017 2
17.406 63.4733 0.0123404
16.6661 68.6801 2
17.9417 66.6192 0.00677833
18.75 69.9759 0
18.9301 15.773 3.98319
20.2168 14.5857 2
18.9776 13.1009 3.98494
21.5849 13.5972 0.0154612
20.5284 11.99 2
19.3418 10.2315 3.98886
19.9903 7.14563 3.99326
21.1425 9.14365 2
22.1889 11.0206 0.0137817
20.9142 3.86727 4
22.0153 6.08098 2
23.0394 8.17433 0.0107
23.1494 2.85451 2
24.1166 5.14202 0.0065263
25.446 1.99014 0
30.2984 35.5312 3.91484
32.1764 35.7186 2
33.9873 35.8101 0.0294672
21.3021 15.8186 0.0168848
22.0937 16.6236 2
20.2989 16.9519 2
19.237 18.3991 3.98263
21.7774 17.8398 3.98247
25.3769 16.0758 0.0158511
23.2605 16.2395 0.0168031
24.1997 18.4379 2
22.2699 19.8804 3.981
24.5804 21.3081 3.98287
26.3925 23.7071 3.98056
27.004 21.4424 2
27.4355 18.7841 0.0154004
29.8364 33.0044 3.90723
31.052 33.787 2
32.536 34.1079 0.0891722
32.238 32.2756 0.0806641
33.0785 29.8012 0.0917319
35.0632 27.3263 0.0227624
32.4783 28.0464 2
31.2543 31.2022 2
30.0423 29.5064 3.97696
27.8309 26.5259 3.97271
28.7693 24.389 2
29.5671 21.9189 0.00874354
31.6545 25.5997 0.00616691
29.5821 27.2526 2
28.5584 37.4913 3.91493
29.9966 37.4883 2
32.0413 37.4976 0.0800598
31.0816 48.0034 -0.00085426
30.3699 44.9817 0.0338434
30.2916 39.4581 0.0881397
29.8393 41.9756 0.0924851
29.1051 46.5786 2
28.8916 39.8715 2
28.5648 43.2007 2
27.1839 44.8406 3.97984
26.6826 40.6287 3.99545
27.8082 48.2244 0.0223893
25.8749 46.6907 2
23.9193 45.2403 3.9731
24.5963 48.5025 0.0253999
22.7504 47.1099 2
20.8837 45.9199 3.97799
21.6092 48.815 0.025122
19.9498 47.639 2
18.2936 46.7525 3.97753
19.0017 49.1104 0.0237158
17.6469 48.1929 2
16.3142 47.7244 3.97908
16.1237 48.6951 2
15.1791 49.025 3.97785
16.8707 49.345 0.0225509
15.8319 50.1827 2
14.477 50.9942 3.97668
13.819 53.4436 3.97794
15.3627 52.4287 2
16.7526 51.4226 0.0246951
13.2473 56.176 3.98106
14.8572 54.9898 2
16.3731 53.8861 0.0229179
12.8456 59.1317 3.9849
14.4532 57.7496 2
15.9668 56.4895 0.0191343
12.6777 62.3036 3.99105
14.2639 60.6984 2
15.7452 59.2203 0.0170824
12.7746 65.6939 4
14.3321 63.8608 2
15.7863 62.1437 0.0139471
14.6714 67.2507 2
16.0882 65.3017 0.00715571
16.6661 68.6801 0
17.6636 17.1485 3.9826
18.9301 15.7725 2
17.509 14.3654 3.9841
20.2166 14.5859 0.0161511
18.9779 13.1005 2
17.6375 11.4504 3.98803
20.5281 11.9901 0.0143348
19.342 10.2313 2
18.0504 8.33845 3.99318
18.75 5.0241 4
19.9899 7.1457 2
21.1425 9.14397 0.0108427
20.9142 3.86727 2
22.0157 6.08099 0.00667484
23.1494 2.85457 0
28.9011 35.1032 3.90868
30.2844 35.5275 2
32.1787 35.7172 0.0762436
22.0935 16.6239 0.0177519
20.2988 16.9526 0.0165758
21.7774 17.8392 2
19.2371 18.3984 2
17.9715 19.9311 3.98166
20.8688 19.3675 3.98247
24.1996 18.4379 0.0180606
22.2701 19.8796 2
24.5807 21.3086 2
22.3444 21.7049 3.98247
24.6746 23.1529 3.98061
25.4179 25.9348 3.97206
26.3935 23.7066 2
27.0039 21.4419 0.0154524
28.2199 32.2787 3.95725
29.8283 33.0034 2
31.0668 33.8033 0.0834627
31.2505 31.2022 0.0902849
32.4916 28.0516 0.0137719
30.0178 29.4957 2
26.945 29.1173 3.98487
27.8265 26.5231 2
28.769 24.3843 0.0132835
29.5895 27.2891 0.0232341
26.7854 37.3507 3.97047
28.5483 37.489 2
30.0089 37.4855 0.0871613
29.1022 46.5578 0.00652214
28.5784 43.1909 0.0325138
28.9034 39.8671 0.0910254
27.1873 44.8431 2
26.6771 40.6352 2
25.1644 43.1921 3.96862
23.9238 39.427 3.96832
25.8742 46.6922 0.0189179
23.9179 45.2414 2
21.852 43.9699 3.97643
22.7491 47.1105 0.0206481
20.8849 45.9205 2
18.953 44.9837 3.97422
19.9488 47.6386 0.0216628
18.2942 46.7535 2
16.6058 46.2232 3.97545
17.6462 48.1923 0.0209033
16.3148 47.725 2
14.9102 47.6781 3.97697
16.1231 48.6946 0.0204716
15.1797 49.0255 2
13.7762 49.553 3.9769
15.8314 50.1823 0.0233292
14.4774 50.9947 2
12.8865 51.8804 3.97741
12.1346 54.5329 3.97994
13.8191 53.4441 2
15.3624 52.4283 0.0235017
11.5297 57.4632 3.98412
13.2472 56.1766 2
14.8573 54.9893 0.0210203
11.1322 60.6297 3.99007
12.8457 59.132 2
14.4531 57.7491 0.0176383
10.9835 64.0165 4
12.6775 62.3033 2
14.2639 60.6981 0.0149631
12.7745 65.694 2
14.3324 63.8609 0.00788136
14.6715 67.2507 0
16.3951 18.6422 3.98229
17.6636 17.1478 2
16.0996 15.7743 3.98383
18.9301 15.773 0.0168115
17.5091 14.3647 2
16.0191 12.8039 3.98649
18.9776 13.1009 0.0150637
17.6377 11.4499 2
16.2015 9.66157 3.99289
19.3418 10.2315 0.0111403
18.0501 8.33856 2
16.6661 6.31991 4
18.75 5.02404 2
19.9903 7.14563 0.00674083
20.9142 3.86727 0
27.2955 34.7385 3.95782
28.8882 35.0996 2
30.2984 35.5312 0.085156
16.6704 21.3668 3.97902
21.7774 17.8398 0.0175293
19.237 18.3991 0.0173675
20.8689 19.3667 2
17.9716 19.9305 2
19.7118 21.5601 3.98447
22.2699 19.8804 0.019003
24.5804 21.3081 0.0171274
22.3448 21.7035 2
24.6746 23.1529 2
22.8196 24.5875 3.9761
24.4887 28.5114 3.96834
25.4152 25.9328 2
26.3925 23.7071 0.019443
26.0621 31.6887 3.99042
28.21 32.2703 2
29.8364 33.0044 0.0927687
30.0423 29.5064 0.0230442
26.9498 29.1173 2
27.8309 26.5259 0.0272881
24.6019 36.8509 3.98063
26.7806 37.3553 2
28.5584 37.4913 0.085071
27.1839 44.8406 0.0201572
26.6826 40.6287 0.00455261
25.1618 43.1948 2
23.9214 39.4293 2
22.899 41.8093 3.97841
21.6603 38.4974 3.9733
23.9193 45.2403 0.0269034
21.8523 43.9716 2
19.6982 42.896 3.97386
20.8837 45.9199 0.0220058
18.9528 44.9846 2
16.9326 44.388 3.97194
18.2936 46.7525 0.0224666
16.6062 46.224 2
14.832 46.0971 3.97418
16.3142 47.7244 0.0209239
14.9106 47.6787 2
13.2847 48.0137 3.97583
15.1791 49.025 0.0221541
13.7766 49.5536 2
12.1066 50.2569 3.97701
14.477 50.9942 0.0233212
12.8868 51.8809 2
11.1306 52.84 3.97905
10.3201 55.7139 3.98304
12.1346 54.5336 2
13.819 53.4436 0.0220567
9.69861 58.8517 3.98891
11.5296 57.4638 2
13.2473 56.176 0.0189378
9.30605 62.2254 4
11.1319 60.6295 2
12.8456 59.1317 0.0150956
10.9835 64.0165 2
12.6777 62.3036 0.00894674
12.7746 65.6939 0
15.1391 20.1765 3.98038
16.3952 18.6416 2
14.7447 17.297 3.98288
17.6636 17.1485 0.0174028
16.0997 15.7735 2
14.4815 14.2859 3.98548
17.509 14.3654 0.0159027
16.0193 12.8032 2
14.4443 11.1127 3.99237
17.6375 11.4504 0.0119668
16.2013 9.66163 2
14.6715 7.74927 4
18.0504 8.33845 0.00681745
16.6661 6.31988 2
18.75 5.0241 0
25.2459 34.2522 3.98754
27.2886 34.7379 2
28.9011 35.1032 0.0913213
17.8422 22.3113 3.98514
15.515 22.9108 3.97657
16.6704 21.366 2
20.8688 19.3675 0.0175299
17.9715 19.9311 0.0183435
19.712 21.5592 2
19.6429 24.3646 3.97885
22.3444 21.7049 0.0175296
24.6746 23.1529 0.0193933
22.8177 24.5856 2
21.8685 27.8056 3.96951
23.653 31.1707 3.9713
24.4908 28.5109 2
25.4179 25.9348 0.0279399
26.0658 31.6842 2
28.2199 32.2787 0.0427493
26.945 29.1173 0.015132
22.3791 36.267 3.97635
24.5991 36.8508 2
26.7854 37.3507 0.0295344
25.1644 43.1921 0.0313832
23.9238 39.427 0.0316764
22.8977 41.8107 2
21.6602 38.498 2
20.6249 40.6322 3.97443
20.0168 37.7779 3.97514
21.852 43.9699 0.023572
19.6983 42.8969 2
17.3255 42.1043 3.97405
18.953 44.9837 0.0257772
16.9325 44.3887 2
14.8314 44.2055 3.9728
16.6058 46.2232 0.0245495
14.8322 46.0978 2
12.958 46.2993 3.97381
14.9102 47.6781 0.0230251
13.285 48.0143 2
11.4794 48.5523 3.97578
13.7762 49.553 0.023102
12.107 50.2575 2
10.2572 51.082 3.97822
12.8865 51.8804 0.0225914
11.1308 52.8407 2
9.22909 53.8907 3.98216
8.38211 56.9837 3.98791
10.32 55.7146 2
12.1346 54.5329 0.0200556
7.74927 60.3285 4
9.69823 58.8515 2
11.5297 57.4632 0.0158836
9.306 62.2255 2
11.1322 60.6297 0.00992669
10.9835 64.0165 0
13.9509 21.7434 3.97856
15.1391 20.1757 2
13.4447 18.8939 3.98169
16.3951 18.6422 0.0177064
14.7448 17.2962 2
13.0266 15.8785 3.98483
16.0996 15.7743 0.0161714
14.4815 14.2851 2
12.7816 12.6859 3.99151
16.0191 12.8039 0.0135095
14.4441 11.1127 2
12.7746 9.30605 4
16.2015 9.66157 0.00711136
14.6715 7.74924 2
16.6661 6.31991 0
22.9671 33.7875 3.97381
25.2402 34.2509 2
27.2955 34.7385 0.0421788
17.6102 24.0299 3.97871
17.8419 22.3103 2
14.298 24.4434 3.97496
15.5144 22.9096 2
16.6704 21.3668 0.0209759
19.0028 27.1852 3.96815
19.7118 21.5601 0.015532
19.6414 24.364 2
21.1007 30.6464 3.97141
22.8196 24.5875 0.0239008
21.8693 27.8051 2
23.6488 31.1707 2
24.4887 28.5114 0.0316575
26.0621 31.6887 0.00957509
20.1433 35.9142 3.97546
22.3762 36.268 2
24.6019 36.8509 0.0193666
22.899 41.8093 0.0215902
21.6603 38.4974 0.0267011
20.6237 40.6325 2
20.0153 37.7782 2
18.0048 39.0003 3.97384
19.6982 42.896 0.0261419
17.3255 42.105 2
14.7781 41.9209 3.97303
16.9326 44.388 0.0280597
14.8314 44.2062 2
12.6968 44.395 3.97339
14.832 46.0971 0.0258235
12.9582 46.3 2
10.9823 46.735 3.97417
13.2847 48.0137 0.0241677
11.4797 48.5529 2
9.52157 49.2405 3.97693
12.1066 50.2569 0.0229937
10.2575 51.0826 2
8.26246 52.0024 3.98126
11.1306 52.84 0.0209472
9.22916 53.8912 2
7.19111 55.0329 3.98738
6.31991 58.3339 4
8.38163 56.9829 2
10.3201 55.7139 0.0169624
7.74924 60.3285 2
9.69861 58.8517 0.0110933
9.30605 62.2254 0
13.2196 25.3567 3.98045
12.8184 23.2735 3.97711
13.9505 21.7422 2
12.2298 20.5433 3.98066
15.1391 20.1765 0.0196211
13.4447 18.893 2
11.6559 17.5595 3.98452
14.7447 17.297 0.0171191
13.0266 15.8779 2
11.219 14.3707 3.99034
14.4815 14.2859 0.0145243
12.7814 12.686 2
10.9835 10.9835 4
14.4443 11.1127 0.00762516
12.7745 9.306 2
14.6715 7.74927 0
20.5248 33.3814 3.97304
22.9658 33.7885 2
25.2459 34.2522 0.0124568
15.8845 26.3917 3.972
17.6091 24.029 2
17.8422 22.3113 0.0148563
14.2976 24.4428 2
15.515 22.9108 0.0234262
18.3383 30.1583 3.97018
19.0031 27.1848 2
19.6429 24.3646 0.0211477
21.0975 30.6457 2
21.8685 27.8056 0.0304931
23.653 31.1707 0.0286972
17.6436 35.9585 3.9731
20.141 35.9144 2
22.3791 36.267 0.0236462
20.6249 40.6322 0.0255692
20.0168 37.7779 0.0248616
18.0037 39.0004 2
14.2886 39.1753 3.97235
17.3255 42.1043 0.025945
14.7781 41.9214 2
12.3836 42.2787 3.97278
14.8314 44.2055 0.0271999
12.6968 44.3956 2
10.5588 44.8037 3.97408
12.958 46.2993 0.0261883
10.9825 46.7356 2
8.90513 47.3188 3.97549
11.4794 48.5523 0.0242154
9.52192 49.241 2
7.43014 50.0347 3.97996
10.2572 51.082 0.021777
8.26274 52.0027 2
6.13179 53.0066 3.98717
9.22909 53.8907 0.0178371
7.19069 55.0316 2
5.0241 56.25 4
6.31988 58.3339 2
8.38211 56.9837 0.0120937
7.74927 60.3285 0
13.4574 26.8074 3.97347
11.9332 24.7836 3.9761
13.2194 25.3563 2
11.1331 22.2293 3.97913
12.8182 23.2727 2
13.9509 21.7434 0.0214391
12.2295 20.5422 2
10.3859 19.3148 3.98387
13.4447 18.8939 0.0183118
11.6559 17.5586 2
9.75971 16.1542 3.98919
13.0266 15.8785 0.0151688
11.2188 14.3707 2
9.30607 12.7746 4
12.7816 12.6859 0.00849031
10.9835 10.9835 2
12.7746 9.30605 0
17.8122 33.1011 3.97199
20.5234 33.3815 2
22.9671 33.7875 0.0261864
15.471 29.628 3.97199
15.8843 26.3916 2
17.6102 24.0299 0.0212891
14.298 24.4434 0.0250415
18.3375 30.1582 2
19.0028 27.1852 0.0318514
21.1007 30.6464 0.0285925
14.8919 36.0143 3.97197
17.6418 35.9585 2
20.1433 35.9142 0.0245375
12.5877 37.8277 3.97213
18.0048 39.0003 0.0261572
14.288 39.1755 2
11.8999 40.1409 3.97172
14.7781 41.9209 0.0269665
12.3837 42.2792 2
10.1578 42.7789 3.97342
12.6968 44.395 0.0266139
10.5588 44.8042 2
8.38299 45.3207 3.97533
10.9823 46.735 0.0258253
8.90536 47.3193 2
6.72224 47.9992 3.97863
9.52157 49.2405 0.0230688
7.43045 50.0349 2
5.20879 50.909 3.9869
8.26246 52.0024 0.0187376
6.13158 53.0052 2
3.86727 54.0858 4
7.19111 55.0329 0.012615
5.02404 56.25 2
6.31991 58.3339 0
12.9123 29.0272 3.97053
11.3641 26.4843 3.97464
13.4572 26.807 2
10.1935 23.9649 3.97719
11.933 24.7831 2
13.2196 25.3567 0.0195461
9.23824 21.1349 3.98243
11.133 22.2284 2
12.8184 23.2735 0.0228909
12.2298 20.5433 0.0193359
10.3857 19.3137 2
8.41545 18.0257 3.98836
11.6559 17.5595 0.0154768
9.75939 16.1543 2
7.74928 14.6715 4
11.219 14.3707 0.00965842
9.30602 12.7745 2
10.9835 10.9835 0
14.4643 32.8563 3.97218
17.8138 33.101 2
20.5248 33.3814 0.0269594
15.4708 29.6279 2
15.8845 26.3917 0.0279993
18.3383 30.1583 0.0298154
12.8791 36.2066 3.97141
14.8913 36.0143 2
17.6436 35.9585 0.0269016
12.5875 37.8276 2
11.2604 38.3087 3.97116
14.2886 39.1753 0.0276486
11.8995 40.1413 2
9.74549 40.7545 3.9722
12.3836 42.2787 0.0272219
10.1579 42.7794 2
7.93217 43.2697 3.9748
10.5588 44.8037 0.0259199
8.38306 45.3212 2
6.12863 45.9043 3.97832
8.90513 47.3188 0.0245058
6.72246 47.9994 2
4.42072 48.7495 3.98646
7.43014 50.0347 0.0200447
5.20874 50.9079 2
2.85457 51.8506 4
6.13179 53.0066 0.0128296
3.86727 54.0858 2
5.0241 56.25 0
12.0538 31.2522 3.97188
10.7769 28.4122 3.97306
12.9122 29.0269 2
9.40937 25.7965 3.97593
11.364 26.484 2
13.4574 26.8074 0.0265321
8.22614 23.0216 3.98039
10.1935 23.9642 2
11.9332 24.7836 0.023905
7.19757 19.9766 3.9876
9.23819 21.1341 2
11.1331 22.2293 0.0208674
10.3859 19.3148 0.0161319
8.41497 18.0262 2
6.31992 16.6661 4
9.75971 16.1542 0.0108081
7.74926 14.6714 2
9.30607 12.7746 0
12.075 34.2919 3.97176
14.4644 32.8563 2
17.8122 33.1011 0.0280066
15.471 29.628 0.0280068
10.8237 36.6096 3.97127
12.879 36.2065 2
14.8919 36.0143 0.0280275
12.5877 37.8277 0.027872
11.2603 38.3087 2
9.34334 38.8228 3.97102
11.8999 40.1409 0.0282803
9.7453 40.7549 2
7.54505 41.2107 3.97358
10.1578 42.7789 0.0265799
7.93222 43.2701 2
5.64069 43.7675 3.97828
8.38299 45.3207 0.0246701
6.12874 45.9044 2
3.76661 46.5358 3.9863
6.72224 47.9992 0.0213743
4.42074 48.749 2
1.99014 49.554 4
5.20879 50.909 0.0131015
2.85451 51.8506 2
3.86727 54.0858 0
10.9175 32.9166 3.97224
10.0907 30.3798 3.97286
12.0538 31.2521 2
8.71794 27.7308 3.97499
10.7768 28.412 2
12.9123 29.0272 0.0294713
7.35229 24.9819 3.97912
9.40937 25.7961 2
11.3641 26.4843 0.0253604
6.11469 22.0016 3.98672
8.22625 23.0212 2
10.1935 23.9649 0.0228134
5.02411 18.75 4
7.19712 19.9777 2
9.23824 21.1349 0.0175708
8.41545 18.0257 0.0116364
6.3199 16.6661 2
7.74928 14.6715 0
10.4335 34.9983 3.97164
12.0749 34.2918 2
14.4643 32.8563 0.0278183
9.01593 36.9841 3.97095
10.824 36.6096 2
12.8791 36.2066 0.0285908
11.2604 38.3087 0.0288357
9.34329 38.8228 2
7.22814 39.181 3.97212
9.74549 40.7545 0.0278029
7.54498 41.211 2
5.25702 41.6132 3.97708
7.93217 43.2697 0.0251997
5.64074 43.7676 2
3.24448 44.2813 3.98604
6.12863 45.9043 0.0216823
3.76665 46.5357 2
1.27781 47.2057 4
4.42072 48.7495 0.0135394
1.99012 49.554 2
2.85457 51.8506 0
10.0852 33.8797 3.97259
9.38498 32.1526 3.97303
10.9174 32.9164 2
8.06788 29.6947 3.97436
10.0906 30.3796 2
12.0538 31.2522 0.0281248
6.5964 27.0085 3.97832
8.71789 27.7306 2
10.7769 28.4122 0.0269358
5.17016 24.0956 3.98636
7.3524 24.9818 2
9.40937 25.7965 0.0240653
3.86728 20.9142 4
6.11446 22.0029 2
8.22614 23.0216 0.0196109
5.02406 18.75 2
7.19757 19.9766 0.0124013
6.31992 16.6661 0
8.84201 35.2783 3.97146
10.4334 34.9983 2
12.075 34.2919 0.0282353
7.01276 37.205 3.97193
9.01594 36.9841 2
10.8237 36.6096 0.0287292
9.34334 38.8228 0.0289847
7.22813 39.1811 2
4.98645 39.4665 3.97524
7.54505 41.2107 0.0264245
5.25701 41.6133 2
2.85536 42.002 3.98502
5.64069 43.7675 0.0217241
3.24452 44.2816 2
0.720592 44.8159 4
3.76661 46.5358 0.0136987
1.27778 47.2057 2
1.99014 49.554 0
8.88255 33.6963 3.97264
10.0851 33.8796 2
7.50644 31.6086 3.97409
9.38487 32.1524 2
10.9175 32.9166 0.0277553
5.94208 29.0697 3.97769
8.06783 29.6946 2
10.0907 30.3798 0.0271356
4.35801 26.2484 3.98619
6.59643 27.0084 2
8.71794 27.7308 0.0250058
2.85458 23.1494 4
5.17005 24.0965 2
7.35229 24.9819 0.0208813
3.86728 20.9142 2
6.11469 22.0016 0.0132798
5.02411 18.75 0
6.96295 35.3055 3.97226
8.84202 35.2783 2
10.4335 34.9983 0.0283559
4.83716 37.3393 3.9751
7.01277 37.2051 2
9.01593 36.9841 0.0290465
7.22814 39.181 0.0278815
4.98646 39.4666 2
2.60403 39.7138 3.9833
5.25702 41.6132 0.0229236
2.85542 42.0025 2
0.320823 42.3947 4
3.24448 44.2813 0.0139563
0.720551 44.8159 2
1.27781 47.2057 0
7.12167 33.4605 3.97346
8.88247 33.6962 2
10.0852 33.8797 0.0274101
5.4137 31.1338 3.97717
7.50631 31.6085 2
9.38498 32.1526 0.0269738
3.68002 28.4442 3.98581
5.94206 29.0698 2
8.06788 29.6947 0.0256433
1.99015 25.446 4
4.35794 26.249 2
6.5964 27.0085 0.0216826
2.85453 23.1494 2
5.17016 24.0956 0.0136373
3.86728 20.9142 0
4.85149 35.2515 3.97529
6.96297 35.3054 2
8.84201 35.2783 0.0285386
2.49562 37.4284 3.98311
4.83717 37.3395 2
7.01276 37.205 0.0280696
4.98645 39.4665 0.0247646
2.60408 39.7144 2
0.080333 39.9526 4
2.85536 42.002 0.0149774
0.320817 42.3947 2
0.720592 44.8159 0
5.0441 33.1904 3.97634
7.12158 33.4604 2
8.88255 33.6963 0.0273555
3.1447 30.6665 3.98496
5.41358 31.1339 2
7.50644 31.6086 0.025912
1.27793 27.7943 4
3.68 28.4444 2
5.94208 29.0697 0.0223082
1.99013 25.446 2
4.35801 26.2484 0.0138121
2.85458 23.1494 0
2.54778 35.159 3.98317
4.8515 35.2517 2
6.96295 35.3055 0.0277356
0 37.5 4
2.4957 37.429 2
4.83716 37.3393 0.0249009
2.60403 39.7138 0.0166966
0.0802903 39.9526 2
0.320823 42.3947 0
2.76512 32.9058 3.98393
5.04401 33.1906 2
7.12167 33.4605 0.0265397
0.721173 30.1842 4
3.14466 30.6666 2
5.4137 31.1338 0.0228289
1.27779 27.7943 2
3.68002 28.4442 0.0141924
1.99015 25.446 0
0.0806499 35.0474 4
2.54785 35.1595 2
4.85149 35.2515 0.0247142
0 37.5 2
2.49562 37.4284 0.0168872
0.080333 39.9526 0
0.32156 32.6054 4
2.76511 32.9061 2
5.0441 33.1904 0.0236623
0.72056 30.1841 2
3.1447 30.6665 0.0150417
1.27793 27.7943 0
0.0802889 35.0474 2
2.54778 35.159 0.0168295
0 37.5 0
0.320817 32.6053 2
2.76512 32.9058 0.0160728
0.721173 30.1842 0
0.0806499 35.0474 0
0.32156 32.6054 0
CELLS 1910 17190
8 18 6 25 56 2 0 5 16
8 57 23 6 18 17 4 0 2
8 78 36 9 29 31 11 1 7
8 31 11 1 7 79 37 10 30
8 110 57 18 50 48 17 2 14
8 50 18 56 111 14 2 16 49
8 116 62 22 55 52 20 3 15
8 56 25 67 118 16 5 24 53
8 119 63 23 57 54 21 4 17
8 55 22 63 119 15 3 21 54
8 58 26 68 121 18 6 25 56
8 122 65 26 58 57 23 6 18
8 73 31 7 27 142 79 30 71
8 143 78 29 72 73 31 7 27
8 83 147 76 34 32 74 28 8
8 84 148 78 36 33 75 29 9
8 76 34 8 28 148 84 33 75
8 37 79 150 86 10 30 77 35
8 151 87 36 78 80 38 11 31
8 80 38 11 31 152 88 37 79
8 175 100 42 94 96 44 12 40
8 44 96 176 101 12 40 95 43
8 101 176 98 46 43 95 41 13
8 46 98 178 103 13 41 97 45
8 178 103 45 97 147 83 32 74
8 189 116 55 109 106 52 15 47
8 111 56 118 191 49 16 53 107
8 192 119 57 110 108 54 17 48
8 109 55 119 192 47 15 54 108
8 194 122 58 112 110 57 18 50
8 112 58 121 195 50 18 56 111
8 115 61 19 51 197 124 59 113
8 115 61 125 198 51 19 60 114
8 198 125 62 116 114 60 20 52
8 200 127 64 120 116 62 22 55
8 118 67 132 202 53 24 66 117
8 121 68 133 203 56 25 67 118
8 120 64 128 204 55 22 63 119
8 204 128 65 122 119 63 23 57
8 206 134 68 121 123 69 26 58
8 123 69 26 58 207 131 65 122
8 226 147 74 138 140 76 28 70
8 229 148 75 139 143 78 29 72
8 140 76 28 70 229 148 75 139
8 142 79 30 71 231 150 77 141
8 144 80 31 73 232 152 79 142
8 233 151 78 143 144 80 31 73
8 150 86 35 77 235 154 81 145
8 235 154 81 145 146 82 39 91
8 146 82 39 91 236 155 90 165
8 238 157 83 147 149 85 34 76
8 239 158 84 148 151 87 36 78
8 149 85 34 76 239 158 84 148
8 152 88 37 79 241 160 86 150
8 242 161 87 151 153 89 38 80
8 153 89 38 80 243 162 88 152
8 171 98 41 92 265 178 97 169
8 265 178 97 169 226 147 74 138
8 172 96 40 93 266 176 95 170
8 266 176 95 170 171 98 41 92
8 269 175 94 173 172 96 40 93
8 271 180 99 174 175 100 42 94
8 197 124 59 113 271 180 99 174
8 272 181 100 175 177 102 44 96
8 273 182 101 176 179 104 46 98
8 177 102 44 96 273 182 101 176
8 179 104 46 98 275 184 103 178
8 275 184 103 178 238 157 83 147
8 188 115 51 105 283 197 113 186
8 188 115 198 284 105 51 114 187
8 284 198 116 189 187 114 52 106
8 286 200 120 193 189 116 55 109
8 191 118 202 288 107 53 117 190
8 195 121 203 289 111 56 118 191
8 193 120 204 290 109 55 119 192
8 290 204 122 194 192 119 57 110
8 196 123 58 112 292 207 122 194
8 293 206 121 195 196 123 58 112
8 199 126 61 115 297 211 124 197
8 298 212 127 200 198 125 62 116
8 199 126 212 298 115 61 125 198
8 205 129 64 120 300 214 127 200
8 301 217 130 201 202 132 66 117
8 209 136 168 264 301 217 130 201
8 302 219 132 202 203 133 67 118
8 303 220 133 203 206 134 68 121
8 205 129 215 304 120 64 128 204
8 304 215 131 207 204 128 65 122
8 306 221 134 206 208 135 69 123
8 208 135 69 123 307 218 131 207
8 210 137 167 263 309 223 136 209
8 328 238 147 226 230 149 76 140
8 228 146 91 166 329 236 165 260
8 231 150 77 141 330 235 145 227
8 330 235 145 227 228 146 91 166
8 332 239 148 229 233 151 78 143
8 230 149 76 140 332 239 148 229
8 232 152 79 142 334 241 150 231
8 234 153 80 144 335 243 152 232
8 336 242 151 233 234 153 80 144
8 236 155 90 165 338 245 164 259
8 241 160 86 150 339 246 154 235
8 339 246 154 235 237 156 82 146
8 237 156 82 146 340 247 155 236
8 342 249 157 238 240 159 85 149
8 343 250 158 239 242 161 87 151
8 240 159 85 149 343 250 158 239
8 243 162 88 152 345 252 160 241
8 244 163 253 346 153 89 161 242
8 244 163 89 153 347 254 162 243
8 311 224 261 371 210 137 167 263
8 263 167 262 372 209 136 168 264
8 267 179 98 171 375 275 178 265
8 375 275 178 265 328 238 147 226
8 376 273 176 266 267 179 98 171
8 268 177 96 172 376 273 176 266
8 379 272 175 269 268 177 96 172
8 380 271 174 270 269 175 94 173
8 283 197 113 186 380 271 174 270
8 381 277 180 271 272 181 100 175
8 297 211 124 197 381 277 180 271
8 382 278 181 272 274 183 102 177
8 274 183 102 177 383 279 182 273
8 383 279 182 273 276 185 104 179
8 385 281 184 275 342 249 157 238
8 276 185 104 179 385 281 184 275
8 285 199 115 188 393 297 197 283
8 394 298 200 286 284 198 116 189
8 285 199 298 394 188 115 198 284
8 291 205 120 193 396 300 200 286
8 397 301 201 287 288 202 117 190
8 295 209 264 374 397 301 201 287
8 398 302 202 288 289 203 118 191
8 399 303 203 289 293 206 121 195
8 291 205 304 400 193 120 204 290
8 400 304 207 292 290 204 122 194
8 294 208 123 196 402 307 207 292
8 403 306 206 293 294 208 123 196
8 296 210 263 373 405 309 209 295
8 408 312 213 299 297 211 126 199
8 299 213 313 409 199 126 212 298
8 409 313 214 300 298 212 127 200
8 305 216 129 205 411 315 214 300
8 412 318 217 301 302 219 132 202
8 309 223 136 209 412 318 217 301
8 413 320 219 302 303 220 133 203
8 306 221 321 414 206 134 220 303
8 307 218 131 207 415 316 215 304
8 305 216 316 415 205 129 215 304
8 417 322 221 306 308 222 135 208
8 308 222 135 208 418 319 218 307
8 310 225 137 210 420 325 223 309
8 423 326 224 311 310 225 137 210
8 329 236 165 260 441 338 259 368
8 442 342 238 328 333 240 149 230
8 331 237 146 228 443 340 236 329
8 334 241 150 231 444 339 235 330
8 444 339 235 330 331 237 146 228
8 446 343 239 332 336 242 151 233
8 333 240 149 230 446 343 239 332
8 335 243 152 232 448 345 241 334
8 337 244 153 234 449 347 243 335
8 337 244 346 450 234 153 242 336
8 338 245 164 259 452 349 258 367
8 340 247 155 236 453 350 245 338
8 345 252 160 241 454 351 246 339
8 454 351 246 339 341 248 156 237
8 341 248 156 237 455 352 247 340
8 240 159 251 344 342 249 354 457
8 242 161 253 346 343 250 355 458
8 343 250 355 458 240 159 251 344
8 347 254 162 243 460 357 252 345
8 348 255 358 461 244 163 253 346
8 348 255 163 244 462 359 254 347
8 473 360 257 365 363 256 364 482
8 452 349 258 367 365 257 366 485
8 422 324 369 488 311 224 261 371
8 371 261 370 490 263 167 262 372
8 407 311 371 491 296 210 263 373
8 373 263 372 492 295 209 264 374
8 493 385 275 375 442 342 238 328
8 377 276 179 267 493 385 275 375
8 378 274 177 268 494 383 273 376
8 494 383 273 376 377 276 179 267
8 497 382 272 379 378 274 177 268
8 498 381 271 380 379 272 175 269
8 393 297 197 283 498 381 271 380
8 499 387 277 381 382 278 181 272
8 408 312 211 297 499 387 277 381
8 500 388 278 382 384 280 183 274
8 501 389 279 383 386 282 185 276
8 384 280 183 274 501 389 279 383
8 386 282 185 276 503 391 281 385
8 503 391 281 385 457 354 249 342
8 511 408 299 395 393 297 199 285
8 395 299 409 512 285 199 298 394
8 512 409 300 396 394 298 200 286
8 401 305 205 291 514 411 300 396
8 515 412 301 397 398 302 202 288
8 405 309 209 295 515 412 301 397
8 516 413 302 398 399 303 203 289
8 403 306 414 517 293 206 303 399
8 402 307 207 292 518 415 304 400
8 401 305 415 518 291 205 304 400
8 404 308 208 294 520 418 307 402
8 521 417 306 403 404 308 208 294
8 406 310 210 296 523 420 309 405
8 526 423 311 407 406 310 210 296
8 410 314 213 299 527 424 312 408
8 528 425 315 411 409 313 214 300
8 410 314 425 528 299 213 313 409
8 416 317 216 305 530 427 315 411
8 531 430 318 412 413 320 219 302
8 420 325 223 309 531 430 318 412
8 532 432 320 413 414 321 220 303
8 417 322 433 533 306 221 321 414
8 418 319 218 307 534 428 316 415
8 416 317 428 534 305 216 316 415
8 419 323 434 536 308 222 322 417
8 419 323 222 308 537 431 319 418
8 421 327 225 310 539 438 325 420
8 421 327 439 541 310 225 326 423
8 543 437 324 422 423 326 224 311
8 441 338 259 368 559 452 367 486
8 443 340 236 329 560 453 338 441
8 333 240 344 447 442 342 457 561
8 445 341 237 331 562 455 340 443
8 448 345 241 334 563 454 339 444
8 563 454 339 444 445 341 237 331
8 336 242 346 450 446 343 458 565
8 446 343 458 565 333 240 344 447
8 449 347 243 335 567 460 345 448
8 451 348 244 337 568 462 347 449
8 451 348 461 569 337 244 346 450
8 570 463 349 452 473 360 257 365
8 453 350 245 338 570 463 349 452
8 455 352 247 340 571 464 350 453
8 460 357 252 345 572 465 351 454
8 572 465 351 454 456 353 248 341
8 456 353 248 341 573 466 352 455
8 344 251 356 459 457 354 468 575
8 458 355 469 576 344 251 356 459
8 346 253 358 461 458 355 469 576
8 462 359 254 347 578 471 357 460
8 348 255 359 462 461 358 472 579
8 591 474 360 473 475 361 256 363
8 475 361 256 363 594 477 362 479
8 363 256 364 482 479 362 480 603
8 590 473 365 484 481 363 482 605
8 482 364 257 365 606 483 366 485
8 559 452 367 486 484 365 485 607
8 542 436 487 609 422 324 369 488
8 525 422 488 611 407 311 371 491
8 488 369 489 612 371 261 370 490
8 491 371 490 613 373 263 372 492
8 495 386 276 377 614 503 385 493
8 614 503 385 493 561 457 342 442
8 615 501 383 494 495 386 276 377
8 496 384 274 378 615 501 383 494
8 618 500 382 497 496 384 274 378
8 619 499 381 498 497 382 272 379
8 511 408 297 393 619 499 381 498
8 620 505 387 499 500 388 278 382
8 527 424 312 408 620 505 387 499
8 502 390 506 621 384 280 388 500
8 622 507 389 501 504 392 282 386
8 502 390 280 384 622 507 389 501
8 504 392 282 386 624 509 391 503
8 624 509 391 503 575 468 354 457
8 513 410 299 395 630 527 408 511
8 631 528 411 514 512 409 300 396
8 513 410 528 631 395 299 409 512
8 519 416 305 401 633 530 411 514
8 634 531 412 515 516 413 302 398
8 523 420 309 405 634 531 412 515
8 635 532 413 516 517 414 303 399
8 521 417 533 636 403 306 414 517
8 520 418 307 402 637 534 415 518
8 519 416 534 637 401 305 415 518
8 522 419 308 404 639 537 418 520
8 522 419 536 640 404 308 417 521
8 524 421 310 406 642 539 420 523
8 524 421 541 644 406 310 423 526
8 646 543 422 525 526 423 311 407
8 529 426 314 410 647 544 424 527
8 528 425 545 648 411 315 427 530
8 529 426 545 648 410 314 425 528
8 535 429 317 416 649 546 427 530
8 650 548 430 531 532 432 320 413
8 539 438 325 420 650 548 430 531
8 533 433 550 651 414 321 432 532
8 536 434 551 652 417 322 433 533
8 537 431 319 418 653 547 428 534
8 535 429 547 653 416 317 428 534
8 538 435 552 654 419 323 434 536
8 538 435 323 419 655 549 431 537
8 540 440 327 421 657 556 438 539
8 540 440 557 659 421 327 439 541
8 541 439 555 660 423 326 437 543
8 661 554 436 542 543 437 324 422
8 676 570 452 559 590 473 365 484
8 560 453 338 441 676 570 452 559
8 562 455 340 443 677 571 453 560
8 447 344 459 566 561 457 575 678
8 564 456 341 445 679 573 455 562
8 567 460 345 448 680 572 454 563
8 680 572 454 563 564 456 341 445
8 565 458 576 682 447 344 459 566
8 450 346 461 569 565 458 576 682
8 568 462 347 449 684 578 460 567
8 451 348 462 568 569 461 579 685
8 686 580 463 570 591 474 360 473
8 571 464 350 453 686 580 463 570
8 573 466 352 455 687 581 464 571
8 572 465 582 688 460 357 471 578
8 574 467 582 688 456 353 465 572
8 574 467 353 456 689 583 466 573
8 459 356 470 577 575 468 585 691
8 576 469 586 692 459 356 470 577
8 461 358 472 579 576 469 586 692
8 462 359 471 578 579 472 588 694
8 704 591 473 590 593 475 363 481
8 595 476 592 705 475 361 474 591
8 593 475 363 481 707 594 479 602
8 594 477 362 479 709 598 478 600
8 595 476 361 475 711 597 477 594
8 479 362 480 603 600 478 601 720
8 481 363 482 605 602 479 603 722
8 603 480 364 482 723 604 483 606
8 605 482 365 484 724 606 485 607
8 656 553 608 726 542 436 487 609
8 645 542 609 728 525 422 488 611
8 609 487 610 729 488 369 489 612
8 611 488 612 730 491 371 490 613
8 616 504 386 495 731 624 503 614
8 731 624 503 614 678 575 457 561
8 732 622 501 615 616 504 386 495
8 617 502 384 496 732 622 501 615
8 617 502 621 735 496 384 500 618
8 736 620 499 619 618 500 382 497
8 630 527 408 511 736 620 499 619
8 621 506 626 737 500 388 505 620
8 647 544 424 527 737 626 505 620
8 623 508 627 738 502 390 506 621
8 623 508 390 502 739 628 507 622
8 625 510 628 739 504 392 507 622
8 740 629 509 624 691 585 468 575
8 625 510 392 504 740 629 509 624
8 632 529 410 513 744 647 527 630
8 631 528 648 745 514 411 530 633
8 632 529 648 745 513 410 528 631
8 638 535 416 519 746 649 530 633
8 747 650 531 634 635 532 413 516
8 642 539 420 523 747 650 531 634
8 636 533 651 748 517 414 532 635
8 640 536 652 749 521 417 533 636
8 639 537 418 520 750 653 534 637
8 638 535 653 750 519 416 534 637
8 641 538 419 522 751 655 537 639
8 641 538 654 752 522 419 536 640
8 643 540 421 524 753 657 539 642
8 643 540 659 755 524 421 541 644
8 644 541 660 757 526 423 543 646
8 758 661 542 645 646 543 422 525
8 529 426 544 647 648 545 662 759
8 530 427 545 648 649 546 663 760
8 535 429 546 649 653 547 664 761
8 762 666 548 650 651 550 432 532
8 657 556 438 539 762 666 548 650
8 652 551 668 763 533 433 550 651
8 654 552 669 764 536 434 551 652
8 655 549 431 537 765 665 547 653
8 538 435 549 655 654 552 667 766
8 661 554 671 768 542 436 553 656
8 658 558 440 540 769 674 556 657
8 658 558 675 770 540 440 557 659
8 659 557 673 771 541 439 555 660
8 660 555 672 772 543 437 554 661
8 788 686 570 676 704 591 473 590
8 677 571 453 560 788 686 570 676
8 679 573 455 562 789 687 571 677
8 566 459 577 683 678 575 691 790
8 681 574 456 564 791 689 573 679
8 680 572 688 792 567 460 578 684
8 681 574 688 792 564 456 572 680
8 682 576 692 794 566 459 577 683
8 569 461 579 685 682 576 692 794
8 568 462 578 684 685 579 694 796
8 687 581 464 571 798 696 580 686
8 798 696 580 686 705 592 474 591
8 689 583 466 573 799 697 581 687
8 688 582 698 800 578 471 588 694
8 690 584 698 800 574 467 582 688
8 690 584 467 574 801 699 583 689
8 693 587 701 803 577 470 585 691
8 693 587 470 577 804 702 586 692
8 695 589 702 804 579 472 586 692
8 695 589 472 579 805 703 588 694
8 708 595 705 813 593 475 591 704
8 710 596 706 814 595 476 592 705
8 707 594 479 602 816 709 600 719
8 708 595 475 593 817 711 594 707
8 709 598 478 600 819 715 599 717
8 711 597 477 594 820 714 598 709
8 710 596 476 595 822 713 597 711
8 600 478 601 720 717 599 718 832
8 602 479 603 722 719 600 720 834
8 720 601 480 603 835 721 604 723
8 722 603 482 605 836 723 606 724
8 767 670 725 839 656 553 608 726
8 756 656 726 841 645 542 609 728
8 726 608 727 842 609 487 610 729
8 728 609 729 843 611 488 612 730
8 844 740 624 731 790 691 575 678
8 733 625 504 616 844 740 624 731
8 734 623 502 617 845 739 622 732
8 733 625 739 845 616 504 622 732
8 734 623 738 846 617 502 621 735
8 735 621 737 847 618 500 620 736
8 744 647 527 630 847 737 620 736
8 621 506 627 738 737 626 741 848
8 647 544 626 737 759 662 741 848
8 623 508 628 739 738 627 742 849
8 740 629 585 691 850 743 700 802
8 625 510 629 740 739 628 743 850
8 632 529 647 744 745 648 759 854
8 633 530 648 745 746 649 760 855
8 638 535 649 746 750 653 761 856
8 857 762 650 747 748 651 532 635
8 753 657 539 642 857 762 650 747
8 749 652 763 858 636 533 651 748
8 752 654 764 859 640 536 652 749
8 751 655 537 639 860 765 653 750
8 641 538 655 751 752 654 766 861
8 754 658 540 643 862 769 657 753
8 754 658 770 863 643 540 659 755
8 755 659 771 864 644 541 660 757
8 758 661 768 866 645 542 656 756
8 757 660 772 867 646 543 661 758
8 759 662 773 868 648 545 663 760
8 649 546 663 760 761 664 774 871
8 765 665 547 653 872 775 664 761
8 873 777 666 762 763 668 550 651
8 769 674 556 657 873 777 666 762
8 764 669 779 874 652 551 668 763
8 654 552 667 766 764 669 778 875
8 655 549 665 765 766 667 776 876
8 768 671 782 877 656 553 670 767
8 772 672 783 878 661 554 671 768
8 658 558 674 769 770 675 786 879
8 659 557 675 770 771 673 785 881
8 882 784 672 772 771 673 555 660
8 789 687 571 677 897 798 686 788
8 897 798 686 788 813 705 591 704
8 791 689 573 679 898 799 687 789
8 795 693 803 900 683 577 691 790
8 793 690 574 681 901 801 689 791
8 792 688 800 902 684 578 694 796
8 793 690 800 902 681 574 688 792
8 795 693 577 683 903 804 692 794
8 797 695 804 903 685 579 692 794
8 797 695 579 685 904 805 694 796
8 905 806 697 799 798 696 581 687
8 814 706 806 905 705 592 696 798
8 689 583 697 799 801 699 808 907
8 800 698 809 908 694 588 703 805
8 690 584 699 801 800 698 809 908
8 803 701 810 909 691 585 700 802
8 693 587 702 804 803 701 811 910
8 695 589 703 805 804 702 812 911
8 818 710 814 919 708 595 705 813
8 821 712 815 920 710 596 706 814
8 816 709 600 719 922 819 717 831
8 817 711 594 707 923 820 709 816
8 818 710 595 708 924 822 711 817
8 819 715 599 717 926 827 716 829
8 820 714 598 709 927 826 715 819
8 929 825 713 822 820 714 597 711
8 821 712 596 710 930 824 713 822
8 717 599 718 832 829 716 830 942
8 719 600 720 834 831 717 832 944
8 832 718 601 720 945 833 721 835
8 834 720 603 722 946 835 723 836
8 869 780 838 950 767 670 725 839
8 865 767 839 952 756 656 726 841
8 839 725 840 953 726 608 727 842
8 841 726 842 954 728 609 729 843
8 844 740 691 790 955 850 802 899
8 733 625 740 844 845 739 850 955
8 734 623 739 845 846 738 849 956
8 735 621 738 846 847 737 848 957
8 744 647 737 847 854 759 848 957
8 738 627 742 849 848 741 851 958
8 848 741 851 958 759 662 773 868
8 850 743 700 802 959 852 807 906
8 849 742 628 739 959 852 743 850
8 854 759 868 965 745 648 760 855
8 746 649 760 855 856 761 871 966
8 860 765 653 750 967 872 761 856
8 968 873 762 857 858 763 651 748
8 862 769 657 753 968 873 762 857
8 859 764 874 969 749 652 763 858
8 752 654 766 861 859 764 875 970
8 751 655 765 860 861 766 876 971
8 754 658 769 862 863 770 879 972
8 755 659 770 863 864 771 881 974
8 976 882 772 867 864 771 660 757
8 866 768 877 977 756 656 767 865
8 867 772 878 978 758 661 768 866
8 760 663 773 868 871 774 883 980
8 870 781 837 948 982 890 780 869
8 982 890 780 869 877 782 670 767
8 761 664 774 871 872 775 884 984
8 876 776 665 765 985 885 775 872
8 873 777 668 763 986 887 779 874
8 769 674 777 873 879 786 887 986
8 764 669 778 875 874 779 888 987
8 766 667 776 876 875 778 886 988
8 878 783 892 989 768 671 782 877
8 878 783 672 772 990 893 784 882
8 880 787 675 770 991 896 786 879
8 880 787 895 992 770 675 785 881
8 881 785 894 993 771 673 784 882
8 1006 905 799 898 897 798 687 789
8 919 814 905 1006 813 705 798 897
8 791 689 799 898 901 801 907 1007
8 900 803 909 1009 790 691 802 899
8 795 693 804 903 900 803 910 1010
8 902 800 908 1011 796 694 805 904
8 793 690 801 901 902 800 908 1011
8 797 695 805 904 903 804 911 1012
8 799 697 806 905 907 808 912 1013
8 920 815 912 1013 814 706 806 905
8 802 700 810 909 906 807 913 1014
8 801 699 808 907 908 809 914 1015
8 805 703 809 908 911 812 915 1016
8 803 701 811 910 909 810 916 1017
8 911 812 917 1018 804 702 811 910
8 925 821 920 1030 818 710 814 919
8 928 823 921 1031 821 712 815 920
8 922 819 717 831 1033 926 829 941
8 923 820 709 816 1034 927 819 922
8 1035 929 822 924 923 820 711 817
8 925 821 710 818 1036 930 822 924
8 1038 933 825 929 927 826 714 820
8 926 827 716 829 1039 935 828 939
8 927 826 715 819 1040 934 827 926
8 928 823 712 821 1041 931 824 930
8 1042 932 824 930 929 825 713 822
8 829 716 830 942 939 828 940 1058
8 831 717 832 944 941 829 942 1060
8 942 830 718 832 1061 943 833 945
8 944 832 720 834 1062 945 835 946
8 981 889 947 1064 870 781 837 948
8 948 837 949 1067 869 780 838 950
8 975 869 950 1069 865 767 839 952
8 950 838 951 1070 839 725 840 953
8 952 839 953 1071 841 726 842 954
8 955 850 802 899 1072 959 906 1008
8 956 849 739 845 1072 959 850 955
8 846 738 849 956 957 848 958 1073
8 957 848 958 1073 854 759 868 965
8 849 742 852 959 958 851 961 1076
8 960 853 961 1076 906 807 852 959
8 958 851 961 1076 868 773 883 980
8 960 853 807 906 1077 963 913 1014
8 855 760 868 965 966 871 980 1085
8 856 761 871 966 967 872 984 1086
8 971 876 765 860 1087 985 872 967
8 968 873 763 858 1088 986 874 969
8 862 769 873 968 972 879 986 1088
8 859 764 875 970 969 874 987 1089
8 861 766 876 971 970 875 988 1090
8 973 880 770 863 1091 991 879 972
8 973 880 992 1092 863 770 881 974
8 974 881 993 1093 864 771 882 976
8 979 870 948 1066 1094 982 869 975
8 1094 982 869 975 977 877 767 865
8 978 878 772 867 1095 990 882 976
8 978 878 989 1096 866 768 877 977
8 871 774 883 980 984 884 994 1099
8 983 891 999 1100 870 781 889 981
8 1101 1000 890 982 989 892 782 877
8 983 891 781 870 1101 1000 890 982
8 872 775 884 984 985 885 995 1103
8 876 776 885 985 988 886 996 1104
8 986 887 779 874 1105 998 888 987
8 879 786 887 986 991 896 998 1105
8 875 778 886 988 987 888 997 1106
8 990 893 1002 1107 878 783 892 989
8 1108 1003 893 990 993 894 784 882
8 880 787 896 991 992 895 1005 1109
8 993 894 785 881 1110 1004 895 992
8 898 799 905 1006 1007 907 1013 1120
8 1030 920 1013 1120 919 814 905 1006
8 901 801 907 1007 1011 908 1015 1121
8 899 802 909 1009 1008 906 1014 1122
8 900 803 910 1010 1009 909 1017 1123
8 1012 911 1018 1124 903 804 910 1010
8 904 805 908 1011 1012 911 1016 1125
8 1013 912 1020 1127 907 808 914 1015
8 1031 921 1020 1127 920 815 912 1013
8 1019 918 962 1075 1128 1021 913 1014
8 1128 1021 913 1014 1017 916 810 909
8 1015 914 1022 1129 908 809 915 1016
8 1016 915 1023 1130 911 812 917 1018
8 1018 917 1024 1131 910 811 916 1017
8 1037 928 1031 1148 925 821 920 1030
8 928 823 931 1041 1031 921 1032 1149
8 1033 926 829 941 1151 1039 939 1057
8 1034 927 819 922 1152 1040 926 1033
8 1153 1038 929 1035 1034 927 820 923
8 1154 1042 930 1036 1035 929 822 924
8 1037 928 821 925 1155 1041 930 1036
8 1039 935 828 939 1156 1047 938 1055
8 1157 1043 932 1042 1038 933 825 929
8 1038 933 826 927 1158 1045 934 1040
8 1040 934 827 926 1159 1046 935 1039
8 930 824 932 1042 1041 931 1044 1160
8 1051 936 1048 1165 1175 1052 937 1053
8 1156 1047 938 1055 1053 937 1054 1178
8 939 828 940 1058 1055 938 1056 1181
8 941 829 942 1060 1057 939 1058 1183
8 942 830 943 1061 1058 940 1059 1184
8 1060 942 832 944 1185 1061 945 1062
8 1082 964 1063 1188 981 889 947 1064
8 1097 981 1064 1190 979 870 948 1066
8 1064 947 1065 1191 948 837 949 1067
8 1066 948 1067 1193 975 869 950 1069
8 1067 949 1068 1194 950 838 951 1070
8 1069 950 1070 1195 952 839 953 1071
8 956 849 959 1072 1073 958 1076 1197
8 1074 960 1076 1197 1008 906 959 1072
8 1073 958 1076 1197 965 868 980 1085
8 1074 960 906 1008 1198 1077 1014 1122
8 1133 1026 1079 1199 1019 918 962 1075
8 1077 963 913 1014 1200 1080 962 1075
8 960 853 963 1077 1076 961 1078 1201
8 980 883 961 1076 1099 994 1078 1201
8 1210 1083 964 1082 1100 999 889 981
8 966 871 980 1085 1086 984 1099 1215
8 967 872 984 1086 1087 985 1103 1216
8 971 876 985 1087 1090 988 1104 1217
8 1088 986 874 969 1218 1105 987 1089
8 972 879 986 1088 1091 991 1105 1218
8 970 875 988 1090 1089 987 1106 1219
8 973 880 991 1091 1092 992 1109 1220
8 1093 993 881 974 1221 1110 992 1092
8 1222 1108 990 1095 1093 993 882 976
8 1223 1101 982 1094 1096 989 877 977
8 1098 983 870 979 1223 1101 982 1094
8 1095 990 1107 1224 978 878 989 1096
8 1098 983 1100 1225 979 870 981 1097
8 984 884 994 1099 1103 995 1111 1227
8 1102 1001 1115 1228 983 891 999 1100
8 1101 1000 892 989 1229 1116 1002 1107
8 1102 1001 891 983 1229 1116 1000 1101
8 985 885 995 1103 1104 996 1112 1230
8 988 886 996 1104 1106 997 1113 1231
8 1105 998 888 987 1232 1114 997 1106
8 991 896 998 1105 1109 1005 1114 1232
8 1108 1003 1117 1233 990 893 1002 1107
8 1108 1003 894 993 1233 1117 1004 1110
8 992 895 1005 1109 1110 1004 1118 1234
8 1120 1013 1127 1244 1007 907 1015 1121
8 1148 1031 1127 1244 1030 920 1013 1120
8 1121 1015 1129 1245 1011 908 1016 1125
8 1126 1019 1075 1196 1246 1128 1014 1122
8 1246 1128 1014 1122 1123 1017 909 1009
8 1124 1018 1131 1247 1010 910 1017 1123
8 1125 1016 1130 1248 1012 911 1018 1124
8 1127 1020 1137 1254 1015 914 1022 1129
8 1031 921 1032 1149 1127 1020 1137 1254
8 1134 1027 918 1019 1257 1140 1021 1128
8 1257 1140 1021 1128 1131 1024 916 1017
8 1129 1022 1141 1258 1016 915 1023 1130
8 1130 1023 1142 1259 1018 917 1024 1131
8 1261 1144 1025 1132 1133 1026 1079 1199
8 1255 1138 1025 1132 1135 1028 1144 1261
8 1133 1026 918 1019 1262 1145 1027 1134
8 1136 1029 1139 1256 1263 1146 1028 1135
8 1037 928 1041 1155 1148 1031 1149 1275
8 1041 931 1044 1160 1149 1032 1150 1276
8 1151 1039 939 1057 1278 1156 1055 1180
8 1152 1040 926 1033 1279 1159 1039 1151
8 1153 1038 927 1034 1280 1158 1040 1152
8 1281 1157 1042 1154 1153 1038 929 1035
8 1036 930 1042 1154 1155 1041 1160 1282
8 1283 1164 1046 1159 1156 1047 935 1039
8 1165 1048 1164 1283 1053 937 1047 1156
8 1157 1043 933 1038 1284 1161 1045 1158
8 1157 1043 1161 1284 1042 932 1044 1160
8 1040 934 1046 1159 1158 1045 1163 1285
8 1166 1049 1167 1292 1051 936 1048 1165
8 1166 1049 936 1051 1293 1168 1050 1172
8 1051 936 1052 1175 1172 1050 1173 1306
8 1174 1051 1165 1290 1308 1175 1053 1177
8 1053 937 1054 1178 1175 1052 1176 1309
8 1278 1156 1055 1180 1177 1053 1178 1311
8 1055 938 1056 1181 1178 1054 1179 1312
8 1057 939 1058 1183 1180 1055 1181 1314
8 1058 940 1059 1184 1181 1056 1182 1315
8 1060 942 1061 1185 1183 1058 1184 1316
8 1208 1081 1187 1321 1082 964 1063 1188
8 1209 1082 1188 1322 1097 981 1064 1190
8 1188 1063 1189 1323 1064 947 1065 1191
8 1190 1064 1191 1325 1066 948 1067 1193
8 1191 1065 1192 1326 1067 949 1068 1194
8 1067 1193 1069 950 1194 1327 1195 1070
8 1250 1133 1199 1330 1126 1019 1075 1196
8 1198 1077 1014 1122 1331 1200 1075 1196
8 1074 960 1077 1198 1197 1076 1201 1332
8 1085 980 1076 1197 1215 1099 1201 1332
8 1199 1079 1203 1333 1075 962 1080 1200
8 1132 1025 1119 1243 1199 1079 1203 1333
8 1201 1078 963 1077 1334 1202 1080 1200
8 1099 994 1078 1201 1227 1111 1202 1334
8 1343 1207 1081 1208 1210 1083 964 1082
8 1214 1084 1186 1319 1343 1207 1081 1208
8 1345 1210 1082 1209 1225 1100 981 1097
8 1346 1211 1083 1210 1228 1115 999 1100
8 1086 984 1099 1215 1216 1103 1227 1352
8 1087 985 1103 1216 1217 1104 1230 1353
8 1090 988 1104 1217 1219 1106 1231 1354
8 1218 1105 987 1089 1355 1232 1106 1219
8 1091 991 1105 1218 1220 1109 1232 1355
8 1092 992 1109 1220 1221 1110 1234 1356
8 1222 1108 1233 1357 1095 990 1107 1224
8 1222 1108 993 1093 1357 1233 1110 1221
8 1223 1101 989 1096 1358 1229 1107 1224
8 1226 1102 983 1098 1358 1229 1101 1223
8 1226 1102 1228 1359 1098 983 1100 1225
8 1103 995 1111 1227 1230 1112 1235 1360
8 1107 1002 1117 1233 1229 1116 1240 1362
8 1102 1001 1116 1229 1228 1115 1240 1362
8 1104 996 1112 1230 1231 1113 1236 1363
8 1364 1237 1114 1232 1231 1113 997 1106
8 1109 1005 1114 1232 1234 1118 1238 1365
8 1110 1004 1118 1234 1233 1117 1241 1366
8 1242 1374 1255 1138 1119 1243 1132 1025
8 1244 1127 1254 1376 1121 1015 1129 1245
8 1148 1031 1149 1275 1244 1127 1254 1376
8 1245 1129 1258 1377 1125 1016 1130 1248
8 1251 1134 1019 1126 1378 1257 1128 1246
8 1378 1257 1128 1246 1247 1131 1017 1123
8 1248 1130 1259 1379 1124 1018 1131 1247
8 1261 1381 1250 1133 1132 1249 1330 1199
8 1255 1380 1252 1135 1132 1249 1381 1261
8 1250 1133 1019 1126 1382 1262 1134 1251
8 1253 1136 1256 1385 1384 1263 1135 1252
8 1254 1137 1265 1387 1129 1022 1141 1258
8 1149 1032 1150 1276 1254 1137 1265 1387
8 1028 1135 1255 1138 1139 1256 1388 1266
8 1136 1029 1147 1264 1256 1139 1267 1389
8 1390 1268 1140 1257 1259 1142 1024 1131
8 1260 1143 1027 1134 1390 1268 1140 1257
8 1258 1141 1269 1391 1130 1023 1142 1259
8 1262 1145 1027 1134 1393 1271 1143 1260
8 1261 1144 1026 1133 1394 1272 1145 1262
8 1135 1028 1144 1261 1263 1146 1272 1394
8 1136 1029 1146 1263 1264 1147 1273 1395
8 1155 1041 1160 1282 1275 1149 1276 1405
8 1276 1150 1044 1160 1406 1277 1162 1286
8 1408 1283 1159 1279 1278 1156 1039 1151
8 1290 1165 1283 1408 1177 1053 1156 1278
8 1152 1040 1159 1279 1280 1158 1285 1409
8 1281 1157 1038 1153 1410 1284 1158 1280
8 1281 1157 1284 1410 1154 1042 1160 1282
8 1159 1046 1164 1283 1285 1163 1289 1412
8 1292 1167 1289 1412 1165 1048 1164 1283
8 1158 1045 1163 1285 1284 1161 1288 1413
8 1284 1161 1288 1413 1160 1044 1162 1286
8 1291 1166 1292 1418 1174 1051 1165 1290
8 1291 1166 1051 1174 1419 1293 1172 1305
8 1294 1169 1296 1421 1166 1049 1167 1292
8 1293 1168 1050 1172 1422 1295 1171 1303
8 1294 1169 1049 1166 1423 1297 1168 1293
8 1422 1295 1171 1303 1301 1170 1302 1435
8 1172 1050 1173 1306 1303 1171 1304 1438
8 1174 1051 1175 1308 1305 1172 1306 1440
8 1175 1052 1176 1309 1306 1173 1307 1441
8 1177 1053 1178 1311 1308 1175 1309 1443
8 1178 1054 1179 1312 1309 1176 1310 1444
8 1180 1055 1181 1314 1311 1178 1312 1446
8 1056 1181 1312 1179 1182 1315 1447 1313
8 1183 1058 1184 1316 1314 1181 1315 1448
8 1319 1186 1084 1214 1451 1317 1213 1350
8 1319 1186 1318 1453 1208 1081 1187 1321
8 1321 1187 1320 1456 1188 1063 1189 1323
8 1344 1208 1321 1457 1209 1082 1188 1322
8 1322 1188 1323 1458 1190 1064 1191 1325
8 1323 1189 1324 1459 1191 1065 1192 1326
8 1191 1325 1193 1067 1326 1460 1327 1194
8 1242 1374 1243 1119 1328 1462 1335 1204
8 1330 1199 1333 1465 1196 1075 1200 1331
8 1132 1249 1330 1199 1243 1375 1465 1333
8 1332 1201 1077 1198 1466 1334 1200 1331
8 1215 1099 1201 1332 1352 1227 1334 1466
8 1119 1243 1333 1203 1204 1335 1470 1338
8 1333 1203 1338 1470 1200 1080 1202 1334
8 1227 1111 1202 1334 1360 1235 1338 1470
8 1328 1462 1335 1204 1205 1336 1471 1339
8 1337 1206 1340 1472 1464 1329 1205 1336
8 1346 1211 1342 1479 1210 1083 1207 1343
8 1346 1211 1115 1228 1479 1342 1239 1361
8 1348 1212 1084 1214 1479 1342 1207 1343
8 1480 1343 1208 1344 1345 1210 1082 1209
8 1351 1214 1319 1454 1480 1343 1208 1344
8 1481 1346 1210 1345 1359 1228 1100 1225
8 1348 1212 1347 1483 1214 1084 1213 1350
8 1216 1103 1227 1352 1353 1230 1360 1488
8 1217 1104 1230 1353 1354 1231 1363 1489
8 1490 1364 1232 1355 1354 1231 1106 1219
8 1220 1109 1232 1355 1356 1234 1365 1491
8 1221 1110 1234 1356 1357 1233 1366 1492
8 1224 1107 1233 1357 1358 1229 1362 1493
8 1226 1102 1229 1358 1359 1228 1362 1493
8 1230 1112 1235 1360 1363 1236 1367 1496
8 1361 1239 1115 1228 1497 1371 1240 1362
8 1366 1241 1372 1498 1233 1117 1240 1362
8 1364 1237 1113 1231 1499 1368 1236 1363
8 1364 1237 1368 1499 1232 1114 1238 1365
8 1234 1118 1238 1365 1366 1241 1369 1500
8 1507 1373 1242 1374 1388 1266 1138 1255
8 1508 1374 1243 1375 1380 1255 1132 1249
8 1376 1254 1387 1509 1245 1129 1258 1377
8 1275 1149 1276 1405 1376 1254 1387 1509
8 1377 1258 1391 1510 1248 1130 1259 1379
8 1511 1390 1257 1378 1379 1259 1131 1247
8 1383 1260 1134 1251 1511 1390 1257 1378
8 1252 1135 1256 1385 1380 1255 1388 1512
8 1261 1381 1513 1394 1133 1250 1382 1262
8 1135 1252 1384 1263 1261 1381 1513 1394
8 1382 1262 1134 1251 1514 1393 1260 1383
8 1253 1136 1263 1384 1386 1264 1395 1516
8 1253 1136 1264 1386 1385 1256 1389 1517
8 1387 1265 1397 1519 1258 1141 1269 1391
8 1276 1150 1277 1406 1387 1265 1397 1519
8 1256 1139 1267 1389 1388 1266 1398 1520
8 1264 1147 1274 1396 1389 1267 1399 1521
8 1392 1270 1143 1260 1522 1400 1268 1390
8 1390 1268 1142 1259 1522 1400 1269 1391
8 1392 1270 1401 1523 1260 1143 1271 1393
8 1272 1394 1524 1402 1145 1262 1393 1271
8 1395 1273 1146 1263 1524 1402 1272 1394
8 1273 1395 1264 1147 1403 1526 1396 1274
8 1405 1276 1160 1282 1534 1406 1286 1411
8 1414 1287 1407 1535 1286 1162 1277 1406
8 1279 1159 1283 1408 1409 1285 1412 1537
8 1418 1292 1412 1537 1290 1165 1283 1408
8 1280 1158 1285 1409 1410 1284 1413 1538
8 1410 1284 1413 1538 1282 1160 1286 1411
8 1285 1163 1289 1412 1413 1288 1417 1540
8 1421 1296 1417 1540 1292 1167 1289 1412
8 1414 1287 1162 1286 1541 1416 1288 1413
8 1420 1294 1421 1545 1291 1166 1292 1418
8 1419 1293 1172 1305 1546 1422 1303 1437
8 1420 1294 1166 1291 1547 1423 1293 1419
8 1294 1169 1297 1423 1421 1296 1425 1548
8 1423 1297 1168 1293 1549 1424 1295 1422
8 1301 1170 1298 1427 1422 1295 1424 1549
8 1432 1300 1428 1554 1301 1170 1298 1427
8 1431 1299 1428 1554 1560 1430 1300 1432
8 1563 1433 1300 1432 1435 1302 1170 1301
8 1546 1422 1303 1437 1434 1301 1435 1565
8 1303 1171 1304 1438 1435 1302 1436 1566
8 1305 1172 1306 1440 1437 1303 1438 1568
8 1306 1173 1307 1441 1438 1304 1439 1569
8 1308 1175 1309 1443 1440 1306 1441 1571
8 1309 1176 1310 1444 1441 1307 1442 1572
8 1311 1178 1312 1446 1443 1309 1444 1574
8 1179 1312 1444 1310 1313 1447 1575 1445
8 1314 1181 1315 1448 1446 1312 1447 1576
8 1350 1213 1349 1486 1451 1317 1449 1579
8 1451 1317 1450 1581 1319 1186 1318 1453
8 1454 1319 1214 1351 1582 1451 1350 1487
8 1453 1318 1452 1584 1321 1187 1320 1456
8 1454 1319 1453 1585 1344 1208 1321 1457
8 1456 1320 1455 1586 1323 1189 1324 1459
8 1457 1321 1456 1587 1322 1188 1323 1458
8 1458 1323 1459 1588 1325 1191 1326 1460
8 1205 1336 1464 1329 1328 1462 1590 1461
8 1507 1373 1461 1590 1374 1242 1328 1462
8 1508 1374 1462 1591 1375 1243 1335 1467
8 1337 1206 1329 1464 1473 1341 1463 1594
8 1375 1243 1335 1467 1465 1333 1470 1596
8 1465 1333 1470 1596 1331 1200 1334 1466
8 1352 1227 1334 1466 1488 1360 1470 1596
8 1591 1462 1336 1468 1467 1335 1471 1597
8 1469 1337 1472 1598 1595 1464 1336 1468
8 1471 1339 1474 1600 1335 1204 1338 1470
8 1600 1474 1367 1496 1470 1338 1235 1360
8 1336 1205 1340 1472 1471 1339 1475 1601
8 1337 1206 1341 1473 1472 1340 1476 1602
8 1495 1370 1478 1609 1361 1239 1342 1479
8 1348 1212 1342 1479 1483 1347 1478 1609
8 1481 1346 1479 1610 1345 1210 1343 1480
8 1481 1346 1228 1359 1610 1479 1361 1494
8 1484 1348 1214 1351 1610 1479 1343 1480
8 1483 1347 1482 1612 1350 1213 1349 1486
8 1484 1348 1483 1613 1351 1214 1350 1487
8 1353 1230 1360 1488 1489 1363 1496 1616
8 1490 1364 1231 1354 1617 1499 1363 1489
8 1490 1364 1499 1617 1355 1232 1365 1491
8 1356 1234 1365 1491 1492 1366 1500 1619
8 1492 1366 1498 1620 1357 1233 1362 1493
8 1494 1361 1228 1359 1621 1497 1362 1493
8 1495 1370 1239 1361 1622 1504 1371 1497
8 1363 1236 1367 1496 1499 1368 1501 1623
8 1497 1371 1240 1362 1624 1505 1372 1498
8 1625 1503 1372 1498 1500 1369 1241 1366
8 1365 1238 1368 1499 1500 1369 1502 1626
8 1520 1398 1506 1633 1388 1266 1373 1507
8 1634 1507 1374 1508 1512 1388 1255 1380
8 1509 1387 1519 1635 1377 1258 1391 1510
8 1405 1276 1406 1534 1509 1387 1519 1635
8 1515 1392 1260 1383 1636 1522 1390 1511
8 1511 1390 1259 1379 1636 1522 1391 1510
8 1385 1256 1389 1517 1512 1388 1520 1637
8 1513 1394 1262 1382 1638 1524 1393 1514
8 1395 1516 1638 1524 1263 1384 1513 1394
8 1515 1392 1523 1639 1383 1260 1393 1514
8 1516 1395 1526 1640 1386 1264 1396 1518
8 1386 1264 1396 1518 1517 1389 1521 1641
8 1519 1397 1527 1643 1391 1269 1400 1522
8 1535 1407 1527 1643 1406 1277 1397 1519
8 1389 1267 1399 1521 1520 1398 1528 1644
8 1645 1529 1399 1521 1525 1404 1274 1396
8 1392 1270 1400 1522 1523 1401 1531 1646
8 1524 1402 1271 1393 1648 1532 1401 1523
8 1403 1526 1648 1532 1273 1395 1524 1402
8 1525 1404 1274 1396 1649 1533 1403 1526
8 1539 1414 1535 1657 1411 1286 1406 1534
8 1542 1415 1536 1658 1414 1287 1407 1535
8 1409 1285 1412 1537 1538 1413 1540 1660
8 1545 1421 1540 1660 1418 1292 1412 1537
8 1539 1414 1286 1411 1661 1541 1413 1538
8 1540 1417 1544 1663 1413 1288 1416 1541
8 1421 1296 1425 1548 1540 1417 1544 1663
8 1542 1415 1287 1414 1664 1543 1416 1541
8 1420 1294 1423 1547 1545 1421 1548 1666
8 1547 1423 1293 1419 1667 1549 1422 1546
8 1434 1301 1427 1553 1546 1422 1549 1667
8 1423 1297 1424 1549 1548 1425 1550 1668
8 1551 1426 1550 1668 1427 1298 1424 1549
8 1551 1426 1298 1427 1671 1552 1428 1554
8 1562 1432 1554 1674 1434 1301 1427 1553
8 1431 1299 1429 1558 1554 1428 1555 1675
8 1431 1299 1430 1560 1558 1429 1557 1680
8 1560 1430 1300 1432 1683 1559 1433 1563
8 1561 1431 1554 1674 1684 1560 1432 1562
8 1685 1563 1432 1562 1565 1435 1301 1434
8 1435 1302 1436 1566 1563 1433 1564 1686
8 1437 1303 1438 1568 1565 1435 1566 1688
8 1438 1304 1439 1569 1566 1436 1567 1689
8 1440 1306 1441 1571 1568 1438 1569 1691
8 1441 1307 1442 1572 1569 1439 1570 1692
8 1443 1309 1444 1574 1571 1441 1572 1694
8 1310 1444 1572 1442 1445 1575 1695 1573
8 1446 1312 1447 1576 1574 1444 1575 1696
8 1486 1349 1485 1614 1579 1449 1577 1699
8 1451 1317 1449 1579 1581 1450 1578 1701
8 1487 1350 1486 1615 1582 1451 1579 1702
8 1581 1450 1580 1704 1453 1318 1452 1584
8 1582 1451 1581 1705 1454 1319 1453 1585
8 1584 1452 1583 1706 1456 1320 1455 1586
8 1585 1453 1584 1707 1457 1321 1456 1587
8 1587 1456 1586 1708 1458 1323 1459 1588
8 1633 1506 1589 1710 1507 1373 1461 1590
8 1464 1329 1461 1590 1594 1463 1589 1710
8 1468 1336 1462 1591 1595 1464 1590 1711
8 1634 1507 1590 1711 1508 1374 1462 1591
8 1473 1341 1463 1594 1603 1477 1593 1716
8 1469 1337 1464 1595 1599 1473 1594 1717
8 1471 1597 1467 1335 1600 1718 1596 1470
8 1718 1600 1496 1616 1596 1470 1360 1488
8 1336 1468 1597 1471 1472 1598 1719 1601
8 1469 1337 1473 1599 1598 1472 1602 1720
8 1722 1604 1501 1623 1600 1474 1367 1496
8 1475 1601 1471 1339 1604 1722 1600 1474
8 1602 1476 1605 1723 1472 1340 1475 1601
8 1476 1602 1724 1606 1341 1473 1603 1477
8 1483 1347 1478 1609 1612 1482 1608 1731
8 1495 1370 1504 1622 1609 1478 1608 1731
8 1618 1495 1609 1732 1494 1361 1479 1610
8 1484 1348 1479 1610 1613 1483 1609 1732
8 1486 1349 1482 1612 1614 1485 1611 1733
8 1613 1483 1612 1734 1487 1350 1486 1615
8 1489 1363 1496 1616 1617 1499 1623 1736
8 1491 1365 1499 1617 1619 1500 1626 1737
8 1618 1495 1361 1494 1738 1622 1497 1621
8 1739 1625 1498 1620 1619 1500 1366 1492
8 1621 1497 1362 1493 1740 1624 1498 1620
8 1742 1631 1504 1622 1624 1505 1371 1497
8 1743 1628 1502 1626 1623 1501 1368 1499
8 1744 1630 1505 1624 1625 1503 1372 1498
8 1745 1629 1503 1625 1626 1502 1369 1500
8 1520 1398 1528 1644 1633 1506 1632 1751
8 1637 1520 1633 1752 1512 1388 1507 1634
8 1635 1519 1643 1753 1510 1391 1522 1636
8 1657 1535 1643 1753 1534 1406 1519 1635
8 1515 1392 1522 1636 1639 1523 1646 1754
8 1517 1389 1521 1641 1637 1520 1644 1755
8 1524 1638 1756 1648 1393 1514 1639 1523
8 1640 1526 1395 1516 1756 1648 1524 1638
8 1642 1525 1396 1518 1757 1649 1526 1640
8 1758 1645 1521 1641 1642 1525 1396 1518
8 1646 1531 1400 1522 1760 1650 1527 1643
8 1535 1407 1536 1658 1643 1527 1650 1760
8 1521 1399 1529 1645 1644 1528 1651 1761
8 1647 1530 1652 1762 1525 1404 1529 1645
8 1401 1523 1648 1532 1531 1646 1763 1655
8 1525 1404 1533 1649 1647 1530 1654 1765
8 1533 1649 1766 1656 1403 1526 1648 1532
8 1662 1542 1658 1774 1539 1414 1535 1657
8 1542 1415 1543 1664 1658 1536 1659 1775
8 1660 1540 1663 1777 1538 1413 1541 1661
8 1545 1421 1548 1666 1660 1540 1663 1777
8 1662 1542 1414 1539 1778 1664 1541 1661
8 1664 1543 1416 1541 1779 1665 1544 1663
8 1548 1425 1550 1668 1663 1544 1665 1779
8 1547 1423 1549 1667 1666 1548 1668 1781
8 1670 1551 1668 1781 1553 1427 1549 1667
8 1551 1426 1552 1671 1668 1550 1669 1782
8 1670 1551 1427 1553 1784 1671 1554 1674
8 1675 1555 1672 1785 1554 1428 1552 1671
8 1678 1556 1673 1789 1558 1429 1555 1675
8 1561 1431 1558 1681 1674 1554 1675 1790
8 1794 1677 1556 1678 1680 1557 1429 1558
8 1560 1430 1559 1683 1680 1557 1679 1797
8 1561 1431 1560 1684 1681 1558 1680 1798
8 1563 1433 1564 1686 1683 1559 1682 1800
8 1684 1560 1432 1562 1801 1683 1563 1685
8 1565 1435 1566 1688 1685 1563 1686 1802
8 1566 1436 1567 1689 1686 1564 1687 1803
8 1568 1438 1569 1691 1688 1566 1689 1805
8 1569 1439 1570 1692 1689 1567 1690 1806
8 1571 1441 1572 1694 1691 1569 1692 1808
8 1442 1572 1692 1570 1573 1695 1809 1693
8 1574 1444 1575 1696 1694 1572 1695 1810
8 1614 1485 1592 1712 1699 1577 1697 1813
8 1579 1449 1577 1699 1701 1578 1698 1815
8 1615 1486 1614 1735 1702 1579 1699 1816
8 1701 1578 1700 1818 1581 1450 1580 1704
8 1582 1451 1579 1702 1705 1581 1701 1819
8 1704 1580 1703 1820 1584 1452 1583 1706
8 1705 1581 1704 1821 1585 1453 1584 1707
8 1707 1584 1706 1822 1587 1456 1586 1708
8 1710 1589 1506 1633 1824 1709 1632 1751
8 1594 1463 1589 1710 1716 1593 1709 1824
8 1752 1633 1710 1825 1634 1507 1590 1711
8 1595 1464 1590 1711 1717 1594 1710 1825
8 1830 1714 1592 1712 1733 1611 1485 1614
8 1603 1477 1593 1716 1725 1607 1715 1834
8 1599 1473 1594 1717 1721 1603 1716 1835
8 1837 1722 1623 1736 1718 1600 1496 1616
8 1719 1601 1722 1837 1597 1471 1600 1718
8 1602 1720 1598 1472 1723 1838 1719 1601
8 1720 1602 1473 1599 1839 1724 1603 1721
8 1723 1605 1726 1840 1601 1475 1604 1722
8 1840 1726 1628 1743 1722 1604 1501 1623
8 1724 1606 1727 1841 1602 1476 1605 1723
8 1725 1607 1728 1842 1603 1477 1606 1724
8 1612 1482 1608 1731 1733 1611 1730 1849
8 1741 1627 1730 1849 1622 1504 1608 1731
8 1613 1483 1609 1732 1734 1612 1731 1850
8 1618 1495 1622 1738 1732 1609 1731 1850
8 1615 1486 1612 1734 1735 1614 1733 1851
8 1852 1743 1626 1737 1736 1623 1499 1617
8 1853 1745 1625 1739 1737 1626 1500 1619
8 1855 1742 1622 1738 1740 1624 1497 1621
8 1856 1744 1624 1740 1739 1625 1498 1620
8 1741 1627 1504 1622 1857 1746 1631 1742
8 1742 1631 1505 1624 1858 1749 1630 1744
8 1859 1747 1629 1745 1743 1628 1502 1626
8 1860 1748 1630 1744 1745 1629 1503 1625
8 1644 1528 1651 1761 1751 1632 1750 1865
8 1637 1520 1644 1755 1752 1633 1751 1866
8 1754 1646 1522 1636 1867 1760 1643 1753
8 1657 1535 1658 1774 1753 1643 1760 1867
8 1639 1523 1646 1754 1756 1648 1763 1868
8 1641 1521 1645 1758 1755 1644 1761 1869
8 1757 1649 1526 1640 1870 1766 1648 1756
8 1642 1525 1649 1757 1759 1647 1765 1871
8 1759 1647 1762 1872 1642 1525 1645 1758
8 1760 1650 1767 1874 1646 1531 1655 1763
8 1658 1536 1659 1775 1760 1650 1767 1874
8 1762 1652 1768 1875 1645 1529 1651 1761
8 1764 1653 1769 1876 1647 1530 1652 1762
8 1656 1766 1877 1773 1532 1648 1763 1655
8 1771 1879 1765 1654 1653 1764 1647 1530
8 1533 1649 1765 1654 1656 1766 1880 1772
8 1662 1542 1664 1778 1774 1658 1775 1887
8 1664 1543 1665 1779 1775 1659 1776 1888
8 1778 1664 1541 1661 1890 1779 1663 1777
8 1666 1548 1668 1781 1777 1663 1779 1890
8 1782 1669 1780 1891 1668 1550 1665 1779
8 1670 1551 1671 1784 1781 1668 1782 1893
8 1671 1552 1672 1785 1782 1669 1783 1894
8 1790 1675 1785 1896 1674 1554 1671 1784
8 1675 1555 1673 1789 1785 1672 1786 1897
8 1792 1676 1788 1903 1678 1556 1673 1789
8 1795 1678 1789 1904 1681 1558 1675 1790
8 1792 1676 1556 1678 1906 1791 1677 1794
8 1680 1557 1679 1797 1794 1677 1793 1909
8 1910 1794 1678 1795 1798 1680 1558 1681
8 1683 1559 1682 1800 1797 1679 1796 1912
8 1684 1560 1683 1801 1798 1680 1797 1913
8 1686 1564 1687 1803 1800 1682 1799 1915
8 1685 1563 1686 1802 1801 1683 1800 1916
8 1688 1566 1689 1805 1802 1686 1803 1917
8 1689 1567 1690 1806 1803 1687 1804 1918
8 1691 1569 1692 1808 1805 1689 1806 1920
8 1692 1570 1693 1809 1806 1690 1807 1921
8 1694 1572 1695 1810 1808 1692 1809 1922
8 1829 1713 1811 1926 1712 1592 1697 1813
8 1813 1697 1812 1928 1699 1577 1698 1815
8 1735 1614 1712 1828 1816 1699 1813 1929
8 1815 1698 1814 1931 1701 1578 1700 1818
8 1702 1579 1699 1816 1819 1701 1815 1932
8 1818 1700 1817 1933 1704 1580 1703 1820
8 1819 1701 1818 1934 1705 1581 1704 1821
8 1821 1704 1820 1935 1707 1584 1706 1822
8 1824 1709 1632 1751 1937 1823 1750 1865
8 1716 1593 1709 1824 1834 1715 1823 1937
8 1825 1710 1633 1752 1938 1824 1751 1866
8 1717 1594 1710 1825 1835 1716 1824 1938
8 1945 1830 1712 1828 1851 1733 1614 1735
8 1830 1714 1831 1946 1712 1592 1713 1829
8 1947 1832 1714 1830 1849 1730 1611 1733
8 1843 1729 1607 1725 1950 1833 1715 1834
8 1721 1603 1716 1835 1836 1725 1834 1951
8 1836 1725 1842 1953 1721 1603 1724 1839
8 1723 1838 1719 1601 1840 1954 1837 1722
8 1954 1840 1743 1852 1837 1722 1623 1736
8 1724 1839 1720 1602 1841 1955 1838 1723
8 1841 1727 1844 1956 1723 1605 1726 1840
8 1956 1844 1747 1859 1840 1726 1628 1743
8 1728 1842 1724 1606 1845 1957 1841 1727
8 1725 1607 1729 1843 1842 1728 1846 1958
8 1741 1627 1746 1857 1849 1730 1848 1965
8 1734 1612 1731 1850 1851 1733 1849 1966
8 1854 1741 1849 1966 1738 1622 1731 1850
8 1967 1859 1745 1853 1852 1743 1626 1737
8 1968 1860 1744 1856 1853 1745 1625 1739
8 1854 1741 1622 1738 1969 1857 1742 1855
8 1855 1742 1624 1740 1970 1858 1744 1856
8 1857 1746 1631 1742 1971 1861 1749 1858
8 1858 1749 1630 1744 1972 1863 1748 1860
8 1859 1747 1862 1973 1745 1629 1748 1860
8 1875 1768 1864 1977 1761 1651 1750 1865
8 1755 1644 1761 1869 1866 1751 1865 1978
8 1867 1760 1874 1979 1754 1646 1763 1868
8 1774 1658 1775 1887 1867 1760 1874 1979
8 1870 1766 1648 1756 1980 1877 1763 1868
8 1872 1762 1875 1981 1758 1645 1761 1869
8 1757 1649 1766 1870 1871 1765 1880 1982
8 1983 1879 1764 1873 1871 1765 1647 1759
8 1873 1764 1876 1984 1759 1647 1762 1872
8 1877 1773 1655 1763 1986 1881 1767 1874
8 1775 1659 1776 1888 1874 1767 1881 1986
8 1876 1769 1882 1987 1762 1652 1768 1875
8 1878 1770 1883 1988 1764 1653 1769 1876
8 1880 1772 1656 1766 1989 1886 1773 1877
8 1878 1770 1653 1764 1990 1884 1771 1879
8 1765 1654 1772 1880 1879 1771 1885 1991
8 1778 1664 1779 1890 1887 1775 1888 1997
8 1998 1889 1776 1888 1891 1780 1665 1779
8 1893 1782 1891 2000 1781 1668 1779 1890
8 1894 1783 1892 2001 1782 1669 1780 1891
8 1784 1671 1785 1896 1893 1782 1894 2003
8 1897 1786 1895 2004 1785 1672 1783 1894
8 1790 1675 1789 1904 1896 1785 1897 2006
8 1901 1787 1898 2007 1789 1673 1786 1897
8 1903 1788 1900 2013 1789 1673 1787 1901
8 1792 1676 1791 1906 1903 1788 1902 2016
8 1907 1792 1903 2017 1795 1678 1789 1904
8 1906 1791 1677 1794 2019 1905 1793 1909
8 1907 1792 1678 1795 2020 1906 1794 1910
8 1797 1679 1796 1912 1909 1793 1908 2022
8 1798 1680 1797 1913 1910 1794 1909 2023
8 1800 1682 1799 1915 1912 1796 1911 2025
8 1801 1683 1800 1916 1913 1797 1912 2026
8 1803 1687 1804 1918 1915 1799 1914 2028
8 1802 1686 1803 1917 1916 1800 1915 2029
8 1805 1689 1806 1920 1917 1803 1918 2030
8 1806 1690 1807 1921 1918 1804 1919 2031
8 1808 1692 1809 1922 1920 1806 1921 2032
8 1939 1826 1924 2037 1829 1713 1811 1926
8 1926 1811 1925 2039 1813 1697 1812 1928
8 1944 1829 1926 2040 1828 1712 1813 1929
8 1928 1812 1927 2042 1815 1698 1814 1931
8 1929 1813 1928 2043 1816 1699 1815 1932
8 1931 1814 1930 2044 1818 1700 1817 1933
8 1932 1815 1931 2045 1819 1701 1818 1934
8 1934 1818 1933 2046 1821 1704 1820 1935
8 2048 1936 1823 1937 1977 1864 1750 1865
8 1950 1833 1715 1834 2048 1936 1823 1937
8 1938 1824 1751 1866 2049 1937 1865 1978
8 1835 1716 1824 1938 1951 1834 1937 2049
8 1939 1826 1713 1829 2053 1942 1831 1946
8 1940 1827 1923 2035 2053 1942 1826 1939
8 1945 1830 1946 2058 1828 1712 1829 1944
8 2059 1947 1830 1945 1966 1849 1733 1851
8 1947 1832 1730 1849 2060 1948 1848 1965
8 1947 1832 1948 2060 1830 1714 1831 1946
8 1959 1847 1729 1843 2063 1949 1833 1950
8 1952 1843 1725 1836 2064 1950 1834 1951
8 1836 1725 1843 1952 1953 1842 1958 2066
8 1953 1842 1957 2067 1839 1724 1841 1955
8 1841 1955 1838 1723 1956 2068 1954 1840
8 2068 1956 1859 1967 1954 1840 1743 1852
8 1956 1844 1960 2069 1859 1747 1862 1973
8 1845 1957 1841 1727 1960 2069 1956 1844
8 1728 1842 1957 1845 1846 1958 2071 1961
8 1962 2072 1959 1847 1846 1958 1843 1729
8 1971 1861 1964 2077 1857 1746 1848 1965
8 1854 1741 1857 1969 1966 1849 1965 2078
8 1967 1859 1973 2079 1853 1745 1860 1968
8 1970 1858 1744 1856 2080 1972 1860 1968
8 1969 1857 1742 1855 2081 1971 1858 1970
8 1971 1861 1749 1858 2082 1974 1863 1972
8 1973 1862 1975 2083 1860 1748 1863 1972
8 1987 1882 1976 2086 1875 1768 1864 1977
8 1981 1875 1977 2087 1869 1761 1865 1978
8 1980 1877 1763 1868 2088 1986 1874 1979
8 1887 1775 1888 1997 1979 1874 1986 2088
8 1880 1982 2089 1989 1766 1870 1980 1877
8 1984 1876 1987 2090 1872 1762 1875 1981
8 1765 1871 1983 1879 1880 1982 2091 1991
8 1985 1878 1764 1873 2092 1990 1879 1983
8 1985 1878 1988 2093 1873 1764 1876 1984
8 2094 1992 1881 1986 1998 1889 1776 1888
8 1986 1881 1992 2094 1877 1773 1886 1989
8 1988 1883 1993 2095 1876 1769 1882 1987
8 1878 1770 1884 1990 1988 1883 1994 2096
8 1991 1885 1772 1880 2097 1996 1886 1989
8 1879 1771 1885 1991 1990 1884 1995 2098
8 2103 1998 1888 1997 2000 1891 1779 1890
8 2104 1999 1889 1998 2001 1892 1780 1891
8 2003 1894 2001 2106 1893 1782 1891 2000
8 2004 1895 2002 2107 1894 1783 1892 2001
8 2006 1897 2004 2109 1896 1785 1894 2003
8 2007 1898 2005 2110 1897 1786 1895 2004
8 2014 1901 2007 2112 1904 1789 1897 2006
8 2011 1899 2008 2113 1901 1787 1898 2007
8 2119 2010 1899 2011 2013 1900 1787 1901
8 2016 1902 2012 2122 1903 1788 1900 2013
8 2017 1903 2013 2123 1904 1789 1901 2014
8 1906 1791 1905 2019 2016 1902 2015 2125
8 1907 1792 1906 2020 2017 1903 2016 2126
8 1909 1793 1908 2022 2019 1905 2018 2128
8 2020 1906 1794 1910 2129 2019 1909 2023
8 1912 1796 1911 2025 2022 1908 2021 2131
8 1913 1797 1912 2026 2023 1909 2022 2132
8 1915 1799 1914 2028 2025 1911 2024 2134
8 1916 1800 1915 2029 2026 1912 2025 2135
8 1918 1804 1919 2031 2028 1914 2027 2136
8 1917 1803 1918 2030 2029 1915 2028 2137
8 1920 1806 1921 2032 2030 1918 2031 2138
8 1940 1827 1941 2054 2035 1923 2033 2140
8 2035 1923 2034 2143 1939 1826 1924 2037
8 2037 1924 2036 2146 1926 1811 1925 2039
8 2051 1939 2037 2147 1944 1829 1926 2040
8 2039 1925 2038 2149 1928 1812 1927 2042
8 2040 1926 2039 2150 1929 1813 1928 2043
8 2042 1927 2041 2151 1931 1814 1930 2044
8 2043 1928 2042 2152 1932 1815 1931 2045
8 2045 1931 2044 2153 1934 1818 1933 2046
8 2155 2047 1936 2048 2086 1976 1864 1977
8 2063 1949 1833 1950 2155 2047 1936 2048
8 2156 2048 1937 2049 2087 1977 1865 1978
8 2064 1950 1834 1951 2156 2048 1937 2049
8 2051 1939 1829 1944 2160 2053 1946 2058
8 2052 1940 2035 2144 2160 2053 1939 2051
8 2053 1942 1831 1946 2163 2057 1948 2060
8 2055 1943 1827 1940 2163 2057 1942 2053
8 2055 1943 2056 2164 1940 1827 1941 2054
8 2059 1947 1849 1966 2167 2060 1965 2078
8 2059 1947 2060 2167 1945 1830 1946 2058
8 2077 1964 2061 2168 1965 1848 1948 2060
8 2070 1963 1847 1959 2170 2062 1949 2063
8 2065 1959 1843 1952 2171 2063 1950 2064
8 2173 2072 1958 2066 2065 1959 1843 1952
8 1953 1842 1958 2066 2067 1957 2071 2174
8 2068 1956 2069 2175 1967 1859 1973 2079
8 2067 1957 2069 2175 1955 1841 1956 2068
8 1845 1957 2069 1960 1961 2071 2176 2073
8 2069 1960 2073 2176 1973 1862 1975 2083
8 2070 1963 2075 2177 1959 1847 1962 2072
8 1846 1958 2071 1961 1962 2072 2178 2074
8 2077 1964 1861 1971 2182 2076 1974 2082
8 2081 1971 2077 2183 1969 1857 1965 2078
8 2079 1973 2083 2184 1968 1860 1972 2080
8 2081 1971 1858 1970 2185 2082 1972 2080
8 2083 1975 2084 2186 1972 1863 1974 2082
8 2086 1976 1882 1987 2189 2085 1993 2095
8 2090 1987 2086 2190 1981 1875 1977 2087
8 2191 2094 1986 2088 2103 1998 1888 1997
8 2088 1986 2094 2191 1980 1877 1989 2089
8 1991 2091 2192 2097 1880 1982 2089 1989
8 2093 1988 2095 2193 1984 1876 1987 2090
8 1879 1983 2092 1990 1991 2091 2194 2098
8 1985 1878 1990 2092 2093 1988 2096 2195
8 2097 1996 1886 1989 2196 2099 1992 2094
8 2196 2099 1992 2094 2104 1999 1889 1998
8 1994 2096 1988 1883 2100 2197 2095 1993
8 2096 1994 1884 1990 2198 2101 1995 2098
8 1995 2098 2199 2102 1885 1991 2097 1996
8 2203 2104 1998 2103 2106 2001 1891 2000
8 2107 2002 2105 2204 2001 1892 1999 2104
8 2109 2004 2107 2206 2003 1894 2001 2106
8 2110 2005 2108 2207 2004 1895 2002 2107
8 2112 2007 2110 2209 2006 1897 2004 2109
8 2113 2008 2111 2210 2007 1898 2005 2110
8 2120 2011 2113 2212 2014 1901 2007 2112
8 2117 2009 2114 2213 2011 1899 2008 2113
8 2219 2116 2009 2117 2119 2010 1899 2011
8 2222 2118 2010 2119 2122 2012 1900 2013
8 2223 2119 2011 2120 2123 2013 1901 2014
8 2016 1902 2015 2125 2122 2012 2121 2225
8 2126 2016 2122 2226 2017 1903 2013 2123
8 2019 1905 2018 2128 2125 2015 2124 2228
8 2020 1906 2019 2129 2126 2016 2125 2229
8 2022 1908 2021 2131 2128 2018 2127 2231
8 2023 1909 2022 2132 2129 2019 2128 2232
8 2025 1911 2024 2134 2131 2021 2130 2234
8 2026 1912 2025 2135 2132 2022 2131 2235
8 1914 2028 2134 2024 2027 2136 2236 2133
8 2029 1915 2028 2137 2135 2025 2134 2237
8 2030 1918 2031 2138 2137 2028 2136 2238
8 2157 2050 2139 2240 2054 1941 2033 2140
8 2052 1940 2054 2161 2144 2035 2140 2242
8 2140 2033 2141 2243 2035 1923 2034 2143
8 2143 2034 2142 2246 2037 1924 2036 2146
8 2144 2035 2143 2247 2051 1939 2037 2147
8 2146 2036 2145 2249 2039 1925 2038 2149
8 2147 2037 2146 2250 2040 1926 2039 2150
8 2149 2038 2148 2251 2042 1927 2041 2151
8 2150 2039 2149 2252 2043 1928 2042 2152
8 2152 2042 2151 2253 2045 1931 2044 2153
8 2255 2154 2047 2155 2189 2085 1976 2086
8 2170 2062 1949 2063 2255 2154 2047 2155
8 2256 2155 2048 2156 2190 2086 1977 2087
8 2171 2063 1950 2064 2256 2155 2048 2156
8 2258 2159 2050 2157 2164 2056 1941 2054
8 2160 2053 1946 2058 2262 2163 2060 2167
8 2162 2055 1940 2052 2262 2163 2053 2160
8 2162 2055 2164 2263 2052 1940 2054 2161
8 2163 2057 1948 2060 2264 2165 2061 2168
8 2055 1943 2057 2163 2164 2056 2165 2264
8 2182 2076 2166 2268 2077 1964 2061 2168
8 2183 2077 2168 2269 2078 1965 2060 2167
8 2070 1963 2062 2170 2177 2075 2169 2271
8 2172 2070 1959 2065 2272 2170 2063 2171
8 2172 2070 2177 2273 2065 1959 2072 2173
8 2066 1958 2072 2173 2174 2071 2178 2274
8 2067 1957 2071 2174 2175 2069 2176 2275
8 2175 2069 2176 2275 2079 1973 2083 2184
8 2071 1961 2074 2178 2176 2073 2179 2276
8 2176 2073 2179 2276 2083 1975 2084 2186
8 2072 1962 2075 2177 2178 2074 2180 2277
8 2182 2076 1974 2082 2280 2181 2084 2186
8 2183 2077 1971 2081 2281 2182 2082 2185
8 2184 2083 2186 2282 2080 1972 2082 2185
8 2189 2085 1993 2095 2285 2188 2100 2197
8 2190 2086 1987 2090 2286 2189 2095 2193
8 2192 2097 1989 2089 2287 2196 2094 2191
8 2287 2196 2094 2191 2203 2104 1998 2103
8 2194 2098 1991 2091 2288 2199 2097 2192
8 2195 2096 2197 2289 2093 1988 2095 2193
8 2096 2195 2290 2198 1990 2092 2194 2098
8 2097 1996 2099 2196 2199 2102 2200 2291
8 2196 2099 1999 2104 2291 2200 2105 2204
8 2100 2197 2292 2201 1994 2096 2198 2101
8 1995 2098 2198 2101 2102 2199 2293 2202
8 2206 2107 2204 2296 2106 2001 2104 2203
8 2207 2108 2205 2297 2107 2002 2105 2204
8 2209 2110 2207 2299 2109 2004 2107 2206
8 2210 2111 2208 2300 2110 2005 2108 2207
8 2212 2113 2210 2302 2112 2007 2110 2209
8 2213 2114 2211 2303 2113 2008 2111 2210
8 2220 2117 2213 2305 2120 2011 2113 2212
8 2216 2115 2214 2306 2117 2009 2114 2213
8 2216 2115 2009 2117 2311 2217 2116 2219
8 2219 2116 2010 2119 2314 2218 2118 2222
8 2315 2219 2117 2220 2223 2119 2011 2120
8 2122 2012 2121 2225 2222 2118 2221 2317
8 2318 2222 2119 2223 2226 2122 2013 2123
8 2125 2015 2124 2228 2225 2121 2224 2320
8 2126 2016 2125 2229 2226 2122 2225 2321
8 2128 2018 2127 2231 2228 2124 2227 2323
8 2129 2019 2128 2232 2229 2125 2228 2324
8 2131 2021 2130 2234 2231 2127 2230 2326
8 2132 2022 2131 2235 2232 2128 2231 2327
8 2134 2024 2133 2236 2234 2130 2233 2328
8 2135 2025 2134 2237 2235 2131 2234 2329
8 2137 2028 2136 2238 2237 2134 2236 2330
8 2157 2050 2158 2259 2240 2139 2239 2332
8 2257 2157 2240 2334 2161 2054 2140 2242
8 2240 2139 2241 2335 2140 2033 2141 2243
8 2242 2140 2243 2337 2144 2035 2143 2247
8 2243 2141 2244 2338 2143 2034 2142 2246
8 2246 2142 2245 2341 2146 2036 2145 2249
8 2247 2143 2246 2342 2147 2037 2146 2250
8 2249 2145 2248 2343 2149 2038 2148 2251
8 2250 2146 2249 2344 2150 2039 2149 2252
8 2252 2149 2251 2345 2152 2042 2151 2253
8 2169 2271 2347 2254 2062 2170 2255 2154
8 2189 2085 2188 2285 2255 2154 2254 2347
8 2348 2255 2155 2256 2286 2189 2086 2190
8 2272 2170 2063 2171 2348 2255 2155 2256
8 2349 2258 2157 2257 2263 2164 2054 2161
8 2258 2159 2261 2351 2157 2050 2158 2259
8 2258 2159 2056 2164 2351 2261 2165 2264
8 2262 2163 2060 2167 2355 2264 2168 2269
8 2162 2055 2163 2262 2263 2164 2264 2355
8 2357 2266 2165 2264 2268 2166 2061 2168
8 2268 2166 2076 2182 2361 2267 2181 2280
8 2281 2182 2268 2362 2183 2077 2168 2269
8 2271 2169 2270 2364 2177 2075 2180 2277
8 2172 2070 2170 2272 2273 2177 2271 2365
8 2072 2173 2274 2178 2177 2273 2366 2277
8 2071 2174 2275 2176 2178 2274 2367 2276
8 2275 2176 2276 2367 2184 2083 2186 2282
8 2283 2187 2084 2186 2368 2278 2179 2276
8 2178 2074 2180 2277 2276 2179 2278 2368
8 2283 2187 2279 2370 2186 2084 2181 2280
8 2281 2182 2082 2185 2371 2280 2186 2282
8 2188 2285 2374 2284 2100 2197 2292 2201
8 2286 2189 2095 2193 2375 2285 2197 2289
8 2192 2097 2196 2287 2288 2199 2291 2376
8 2287 2196 2104 2203 2376 2291 2204 2296
8 2194 2098 2199 2288 2290 2198 2293 2377
8 2289 2197 2096 2195 2378 2292 2198 2290
8 2291 2200 2105 2204 2379 2294 2205 2297
8 2199 2102 2200 2291 2293 2202 2294 2379
8 2198 2101 2202 2293 2292 2201 2295 2380
8 2299 2207 2297 2383 2206 2107 2204 2296
8 2300 2208 2298 2384 2207 2108 2205 2297
8 2302 2210 2300 2386 2209 2110 2207 2299
8 2303 2211 2301 2387 2210 2111 2208 2300
8 2305 2213 2303 2389 2212 2113 2210 2302
8 2306 2214 2304 2390 2213 2114 2211 2303
8 2310 2216 2306 2392 2220 2117 2213 2305
8 2308 2215 2307 2393 2216 2115 2214 2306
8 2308 2215 2115 2216 2396 2309 2217 2311
8 2310 2216 2117 2220 2398 2311 2219 2315
8 2311 2217 2116 2219 2399 2312 2218 2314
8 2314 2218 2118 2222 2402 2313 2221 2317
8 2315 2219 2119 2223 2403 2314 2222 2318
8 2225 2121 2224 2320 2317 2221 2316 2405
8 2226 2122 2225 2321 2318 2222 2317 2406
8 2228 2124 2227 2323 2320 2224 2319 2408
8 2229 2125 2228 2324 2321 2225 2320 2409
8 2231 2127 2230 2326 2323 2227 2322 2411
8 2232 2128 2231 2327 2324 2228 2323 2412
8 2234 2130 2233 2328 2326 2230 2325 2413
8 2235 2131 2234 2329 2327 2231 2326 2414
8 2237 2134 2236 2330 2329 2234 2328 2415
8 2259 2158 2260 2352 2332 2239 2331 2417
8 2257 2157 2259 2350 2334 2240 2332 2419
8 2240 2139 2239 2332 2335 2241 2333 2420
8 2334 2240 2335 2422 2242 2140 2243 2337
8 2335 2241 2336 2423 2243 2141 2244 2338
8 2337 2243 2338 2425 2247 2143 2246 2342
8 2338 2244 2339 2426 2246 2142 2245 2341
8 2341 2245 2340 2428 2249 2145 2248 2343
8 2342 2246 2341 2429 2250 2146 2249 2344
8 2344 2249 2343 2430 2252 2149 2251 2345
8 2188 2285 2347 2254 2284 2374 2432 2346
8 2347 2254 2346 2432 2271 2169 2270 2364
8 2365 2271 2170 2272 2433 2347 2255 2348
8 2286 2189 2285 2375 2348 2255 2347 2433
8 2349 2258 2351 2435 2257 2157 2259 2350
8 2349 2258 2164 2263 2435 2351 2264 2355
8 2259 2158 2261 2351 2352 2260 2354 2437
8 2356 2265 2354 2437 2264 2165 2261 2351
8 2441 2357 2264 2355 2362 2268 2168 2269
8 2356 2265 2165 2264 2442 2358 2266 2357
8 2443 2359 2266 2357 2361 2267 2166 2268
8 2370 2279 2360 2446 2280 2181 2267 2361
8 2362 2268 2182 2281 2447 2361 2280 2371
8 2180 2277 2368 2278 2270 2364 2449 2363
8 2271 2365 2273 2177 2364 2450 2366 2277
8 2372 2283 2186 2282 2451 2368 2276 2367
8 2178 2274 2367 2276 2277 2366 2451 2368
8 2283 2187 2278 2368 2370 2279 2369 2452
8 2372 2283 2370 2453 2282 2186 2280 2371
8 2284 2374 2455 2373 2201 2292 2380 2295
8 2375 2285 2197 2289 2456 2374 2292 2378
8 2376 2291 2204 2296 2457 2379 2297 2383
8 2288 2199 2291 2376 2377 2293 2379 2457
8 2198 2290 2378 2292 2293 2377 2458 2380
8 2293 2202 2294 2379 2380 2295 2381 2459
8 2384 2298 2381 2459 2297 2205 2294 2379
8 2386 2300 2384 2463 2299 2207 2297 2383
8 2387 2301 2385 2464 2300 2208 2298 2384
8 2389 2303 2387 2466 2302 2210 2300 2386
8 2390 2304 2388 2467 2303 2211 2301 2387
8 2392 2306 2390 2469 2305 2213 2303 2389
8 2393 2307 2391 2470 2306 2214 2304 2390
8 2395 2308 2393 2472 2310 2216 2306 2392
8 2308 2215 2309 2396 2393 2307 2394 2473
8 2395 2308 2216 2310 2475 2396 2311 2398
8 2396 2309 2217 2311 2476 2397 2312 2399
8 2398 2311 2219 2315 2478 2399 2314 2403
8 2399 2312 2218 2314 2479 2400 2313 2402
8 2317 2221 2316 2405 2402 2313 2401 2482
8 2403 2314 2222 2318 2483 2402 2317 2406
8 2320 2224 2319 2408 2405 2316 2404 2485
8 2321 2225 2320 2409 2406 2317 2405 2486
8 2323 2227 2322 2411 2408 2319 2407 2488
8 2324 2228 2323 2412 2409 2320 2408 2489
8 2326 2230 2325 2413 2411 2322 2410 2490
8 2327 2231 2326 2414 2412 2323 2411 2491
8 2329 2234 2328 2415 2414 2326 2413 2492
8 2417 2331 2260 2352 2494 2416 2353 2438
8 2350 2259 2352 2436 2419 2332 2417 2496
8 2332 2239 2331 2417 2420 2333 2418 2497
8 2334 2240 2332 2419 2422 2335 2420 2499
8 2420 2333 2421 2500 2335 2241 2336 2423
8 2422 2335 2423 2502 2337 2243 2338 2425
8 2423 2336 2424 2503 2338 2244 2339 2426
8 2425 2338 2426 2505 2342 2246 2341 2429
8 2426 2339 2427 2506 2341 2245 2340 2428
8 2429 2341 2428 2507 2344 2249 2343 2430
8 2432 2346 2284 2374 2509 2431 2373 2455
8 2432 2346 2431 2509 2364 2270 2363 2449
8 2375 2285 2374 2456 2433 2347 2432 2510
8 2347 2433 2365 2271 2432 2510 2450 2364
8 2350 2259 2351 2435 2436 2352 2437 2514
8 2440 2356 2437 2514 2355 2264 2351 2435
8 2352 2260 2354 2437 2438 2353 2439 2516
8 2356 2265 2358 2442 2437 2354 2439 2516
8 2440 2356 2264 2355 2518 2442 2357 2441
8 2519 2443 2357 2441 2447 2361 2268 2362
8 2443 2359 2444 2520 2357 2266 2358 2442
8 2443 2359 2267 2361 2520 2444 2360 2446
8 2446 2360 2279 2370 2523 2445 2369 2452
8 2453 2370 2446 2524 2371 2280 2361 2447
8 2449 2363 2448 2525 2368 2278 2369 2452
8 2366 2277 2364 2450 2451 2368 2449 2526
8 2372 2283 2368 2451 2453 2370 2452 2527
8 2455 2373 2295 2380 2529 2454 2382 2460
8 2456 2374 2292 2378 2530 2455 2380 2458
8 2377 2293 2379 2457 2458 2380 2459 2531
8 2463 2384 2459 2531 2383 2297 2379 2457
8 2533 2461 2382 2460 2459 2381 2295 2380
8 2464 2385 2461 2533 2384 2298 2381 2459
8 2466 2387 2464 2537 2386 2300 2384 2463
8 2467 2388 2465 2538 2387 2301 2385 2464
8 2469 2390 2467 2540 2389 2303 2387 2466
8 2470 2391 2468 2541 2390 2304 2388 2467
8 2472 2393 2470 2543 2392 2306 2390 2469
8 2393 2307 2394 2473 2470 2391 2471 2544
8 2395 2308 2396 2475 2472 2393 2473 2546
8 2396 2309 2397 2476 2473 2394 2474 2547
8 2475 2396 2311 2398 2549 2476 2399 2478
8 2476 2397 2312 2399 2550 2477 2400 2479
8 2478 2399 2314 2403 2552 2479 2402 2483
8 2479 2400 2313 2402 2553 2480 2401 2482
8 2405 2316 2404 2485 2482 2401 2481 2556
8 2406 2317 2405 2486 2483 2402 2482 2557
8 2408 2319 2407 2488 2485 2404 2484 2559
8 2409 2320 2408 2489 2486 2405 2485 2560
8 2411 2322 2410 2490 2488 2407 2487 2561
8 2412 2323 2411 2491 2489 2408 2488 2562
8 2414 2326 2413 2492 2491 2411 2490 2563
8 2513 2434 2493 2565 2438 2353 2416 2494
8 2496 2417 2352 2436 2567 2494 2438 2515
8 2494 2416 2495 2568 2417 2331 2418 2497
8 2419 2332 2417 2496 2499 2420 2497 2570
8 2497 2418 2498 2571 2420 2333 2421 2500
8 2499 2420 2500 2573 2422 2335 2423 2502
8 2500 2421 2501 2574 2423 2336 2424 2503
8 2502 2423 2503 2576 2425 2338 2426 2505
8 2503 2424 2504 2577 2426 2339 2427 2506
8 2505 2426 2506 2578 2429 2341 2428 2507
8 2509 2431 2373 2455 2580 2508 2454 2529
8 2509 2431 2508 2580 2449 2363 2448 2525
8 2432 2510 2581 2509 2374 2456 2530 2455
8 2432 2510 2450 2364 2509 2581 2526 2449
8 2583 2511 2434 2513 2516 2439 2353 2438
8 2436 2352 2437 2514 2515 2438 2516 2588
8 2440 2356 2442 2518 2514 2437 2516 2588
8 2442 2358 2444 2520 2516 2439 2517 2589
8 2519 2443 2520 2591 2441 2357 2442 2518
8 2519 2443 2361 2447 2591 2520 2446 2524
8 2446 2360 2445 2523 2520 2444 2521 2592
8 2525 2448 2522 2593 2452 2369 2445 2523
8 2524 2446 2370 2453 2594 2523 2452 2527
8 2526 2449 2525 2595 2451 2368 2452 2527
8 2534 2462 2528 2597 2460 2382 2454 2529
8 2530 2455 2380 2458 2598 2529 2460 2532
8 2599 2533 2460 2532 2531 2459 2380 2458
8 2537 2464 2533 2599 2463 2384 2459 2531
8 2534 2462 2382 2460 2601 2535 2461 2533
8 2538 2465 2535 2601 2464 2385 2461 2533
8 2540 2467 2538 2604 2466 2387 2464 2537
8 2541 2468 2539 2605 2467 2388 2465 2538
8 2543 2470 2541 2607 2469 2390 2467 2540
8 2470 2391 2471 2544 2541 2468 2542 2608
8 2472 2393 2473 2546 2543 2470 2544 2610
8 2473 2394 2474 2547 2544 2471 2545 2611
8 2475 2396 2476 2549 2546 2473 2547 2613
8 2476 2397 2477 2550 2547 2474 2548 2614
8 2549 2476 2399 2478 2616 2550 2479 2552
8 2479 2400 2480 2553 2550 2477 2551 2617
8 2552 2479 2402 2483 2619 2553 2482 2557
8 2482 2401 2481 2556 2553 2480 2554 2620
8 2485 2404 2484 2559 2556 2481 2555 2623
8 2486 2405 2485 2560 2557 2482 2556 2624
8 2488 2407 2487 2561 2559 2484 2558 2625
8 2489 2408 2488 2562 2560 2485 2559 2626
8 2491 2411 2490 2563 2562 2488 2561 2627
8 2513 2434 2512 2585 2565 2493 2564 2630
8 2586 2513 2565 2632 2515 2438 2494 2567
8 2565 2493 2566 2633 2494 2416 2495 2568
8 2567 2494 2568 2635 2496 2417 2497 2570
8 2568 2495 2569 2636 2497 2418 2498 2571
8 2570 2497 2571 2638 2499 2420 2500 2573
8 2571 2498 2572 2639 2500 2421 2501 2574
8 2573 2500 2574 2641 2502 2423 2503 2576
8 2574 2501 2575 2642 2503 2424 2504 2577
8 2576 2503 2577 2643 2505 2426 2506 2578
8 2597 2528 2579 2645 2529 2454 2508 2580
8 2580 2508 2579 2645 2525 2448 2522 2593
8 2581 2509 2455 2530 2646 2580 2529 2598
8 2581 2509 2580 2646 2526 2449 2525 2595
8 2583 2511 2582 2648 2513 2434 2512 2585
8 2583 2511 2439 2516 2648 2582 2517 2589
8 2649 2583 2513 2586 2588 2516 2438 2515
8 2589 2517 2444 2520 2653 2587 2521 2592
8 2518 2442 2520 2591 2588 2516 2589 2654
8 2593 2522 2590 2655 2523 2445 2521 2592
8 2524 2446 2523 2594 2591 2520 2592 2656
8 2595 2525 2593 2657 2527 2452 2523 2594
8 2602 2536 2596 2659 2534 2462 2528 2597
8 2600 2534 2597 2660 2532 2460 2529 2598
8 2600 2534 2460 2532 2661 2601 2533 2599
8 2604 2538 2601 2661 2537 2464 2533 2599
8 2602 2536 2462 2534 2663 2603 2535 2601
8 2601 2535 2465 2538 2663 2603 2539 2605
8 2607 2541 2605 2665 2540 2467 2538 2604
8 2608 2542 2606 2666 2541 2468 2539 2605
8 2543 2470 2544 2610 2607 2541 2608 2668
8 2544 2471 2545 2611 2608 2542 2609 2669
8 2546 2473 2547 2613 2610 2544 2611 2671
8 2547 2474 2548 2614 2611 2545 2612 2672
8 2549 2476 2550 2616 2613 2547 2614 2674
8 2550 2477 2551 2617 2614 2548 2615 2675
8 2552 2479 2553 2619 2616 2550 2617 2677
8 2553 2480 2554 2620 2617 2551 2618 2678
8 2557 2482 2556 2624 2619 2553 2620 2680
8 2556 2481 2555 2623 2620 2554 2621 2681
8 2559 2484 2558 2625 2623 2555 2622 2683
8 2560 2485 2559 2626 2624 2556 2623 2684
8 2562 2488 2561 2627 2626 2559 2625 2685
8 2690 2629 2564 2630 2650 2584 2512 2585
8 2586 2513 2585 2651 2632 2565 2630 2691
8 2630 2564 2631 2692 2565 2493 2566 2633
8 2632 2565 2633 2694 2567 2494 2568 2635
8 2633 2566 2634 2695 2568 2495 2569 2636
8 2635 2568 2636 2697 2570 2497 2571 2638
8 2636 2569 2637 2698 2571 2498 2572 2639
8 2638 2571 2639 2700 2573 2500 2574 2641
8 2639 2572 2640 2701 2574 2501 2575 2642
8 2641 2574 2642 2702 2576 2503 2577 2643
8 2597 2528 2596 2659 2645 2579 2644 2704
8 2645 2579 2644 2704 2593 2522 2590 2655
8 2660 2597 2645 2705 2598 2529 2580 2646
8 2646 2580 2645 2705 2595 2525 2593 2657
8 2650 2584 2512 2585 2707 2647 2582 2648
8 2648 2582 2517 2589 2707 2647 2587 2653
8 2649 2583 2648 2708 2586 2513 2585 2651
8 2649 2583 2516 2588 2708 2648 2589 2654
8 2655 2590 2652 2710 2592 2521 2587 2653
8 2654 2589 2520 2591 2711 2653 2592 2656
8 2657 2593 2655 2712 2594 2523 2592 2656
8 2602 2536 2603 2663 2659 2596 2658 2714
8 2662 2602 2659 2715 2600 2534 2597 2660
8 2662 2602 2534 2600 2717 2663 2601 2661
8 2661 2601 2538 2604 2717 2663 2605 2665
8 2666 2606 2664 2718 2605 2539 2603 2663
8 2668 2608 2666 2720 2607 2541 2605 2665
8 2608 2542 2609 2669 2666 2606 2667 2721
8 2610 2544 2611 2671 2668 2608 2669 2723
8 2611 2545 2612 2672 2669 2609 2670 2724
8 2613 2547 2614 2674 2671 2611 2672 2726
8 2614 2548 2615 2675 2672 2612 2673 2727
8 2616 2550 2617 2677 2674 2614 2675 2729
8 2617 2551 2618 2678 2675 2615 2676 2730
8 2619 2553 2620 2680 2677 2617 2678 2732
8 2620 2554 2621 2681 2678 2618 2679 2733
8 2624 2556 2623 2684 2680 2620 2681 2735
8 2681 2621 2555 2623 2736 2682 2622 2683
8 2626 2559 2625 2685 2684 2623 2683 2737
8 2688 2628 2584 2650 2740 2686 2647 2707
8 2688 2628 2687 2742 2650 2584 2629 2690
8 2690 2629 2689 2745 2630 2564 2631 2692
8 2746 2690 2630 2691 2709 2650 2585 2651
8 2691 2630 2692 2747 2632 2565 2633 2694
8 2692 2631 2693 2748 2633 2566 2634 2695
8 2694 2633 2695 2750 2635 2568 2636 2697
8 2695 2634 2696 2751 2636 2569 2637 2698
8 2697 2636 2698 2753 2638 2571 2639 2700
8 2698 2637 2699 2754 2639 2572 2640 2701
8 2700 2639 2701 2755 2641 2574 2642 2702
8 2659 2596 2658 2714 2704 2644 2703 2757
8 2704 2644 2703 2757 2655 2590 2652 2710
8 2660 2597 2659 2715 2705 2645 2704 2758
8 2705 2645 2704 2758 2657 2593 2655 2712
8 2759 2706 2647 2707 2710 2652 2587 2653
8 2709 2650 2585 2651 2760 2707 2648 2708
8 2708 2648 2589 2654 2760 2707 2653 2711
8 2712 2655 2710 2761 2656 2592 2653 2711
8 2763 2713 2658 2714 2718 2664 2603 2663
8 2662 2602 2663 2717 2715 2659 2714 2764
8 2720 2666 2718 2767 2665 2605 2663 2717
8 2768 2719 2664 2718 2721 2667 2606 2666
8 2668 2608 2669 2723 2720 2666 2721 2770
8 2669 2609 2670 2724 2721 2667 2722 2771
8 2671 2611 2672 2726 2723 2669 2724 2773
8 2672 2612 2673 2727 2724 2670 2725 2774
8 2674 2614 2675 2729 2726 2672 2727 2776
8 2675 2615 2676 2730 2727 2673 2728 2777
8 2677 2617 2678 2732 2729 2675 2730 2779
8 2678 2618 2679 2733 2730 2676 2731 2780
8 2680 2620 2681 2735 2732 2678 2733 2782
8 2733 2679 2621 2681 2783 2734 2682 2736
8 2735 2681 2623 2684 2784 2736 2683 2737
8 2740 2686 2647 2707 2787 2738 2706 2759
8 2688 2628 2686 2740 2742 2687 2739 2789
8 2743 2688 2650 2709 2790 2740 2707 2760
8 2742 2687 2741 2792 2690 2629 2689 2745
8 2743 2688 2742 2793 2709 2650 2690 2746
8 2745 2689 2744 2795 2692 2631 2693 2748
8 2746 2690 2745 2796 2691 2630 2692 2747
8 2747 2692 2748 2797 2694 2633 2695 2750
8 2748 2693 2749 2798 2695 2634 2696 2751
8 2750 2695 2751 2800 2697 2636 2698 2753
8 2751 2696 2752 2801 2698 2637 2699 2754
8 2753 2698 2754 2802 2700 2639 2701 2755
8 2763 2713 2756 2804 2714 2658 2703 2757
8 2759 2706 2652 2710 2804 2756 2703 2757
8 2715 2659 2714 2764 2758 2704 2757 2805
8 2758 2704 2757 2805 2712 2655 2710 2761
8 2806 2759 2707 2760 2761 2710 2653 2711
8 2765 2716 2762 2808 2718 2664 2713 2763
8 2809 2763 2714 2764 2767 2718 2663 2717
8 2765 2716 2664 2718 2811 2766 2719 2768
8 2813 2768 2718 2767 2770 2721 2666 2720
8 2814 2769 2719 2768 2771 2722 2667 2721
8 2723 2669 2724 2773 2770 2721 2771 2816
8 2724 2670 2725 2774 2771 2722 2772 2817
8 2726 2672 2727 2776 2773 2724 2774 2819
8 2727 2673 2728 2777 2774 2725 2775 2820
8 2729 2675 2730 2779 2776 2727 2777 2822
8 2730 2676 2731 2780 2777 2728 2778 2823
8 2732 2678 2733 2782 2779 2730 2780 2825
8 2780 2731 2679 2733 2826 2781 2734 2783
8 2782 2733 2681 2735 2827 2783 2736 2784
8 2830 2785 2738 2787 2804 2756 2706 2759
8 2789 2739 2686 2740 2832 2786 2738 2787
8 2790 2740 2707 2760 2833 2787 2759 2806
8 2742 2687 2739 2789 2792 2741 2788 2835
8 2743 2688 2740 2790 2793 2742 2789 2836
8 2792 2741 2791 2838 2745 2689 2744 2795
8 2793 2742 2792 2839 2746 2690 2745 2796
8 2795 2744 2794 2841 2748 2693 2749 2798
8 2796 2745 2795 2842 2747 2692 2748 2797
8 2797 2748 2798 2843 2750 2695 2751 2800
8 2798 2749 2799 2844 2751 2696 2752 2801
8 2800 2751 2801 2845 2753 2698 2754 2802
8 2808 2762 2803 2847 2763 2713 2756 2804
8 2809 2763 2804 2848 2764 2714 2757 2805
8 2806 2759 2710 2761 2848 2804 2757 2805
8 2765 2716 2766 2811 2808 2762 2807 2850
8 2810 2765 2808 2851 2767 2718 2763 2809
8 2810 2765 2718 2767 2852 2811 2768 2813
8 2811 2766 2719 2768 2853 2812 2769 2814
8 2855 2814 2768 2813 2816 2771 2721 2770
8 2856 2815 2769 2814 2817 2772 2722 2771
8 2773 2724 2774 2819 2816 2771 2817 2858
8 2774 2725 2775 2820 2817 2772 2818 2859
8 2776 2727 2777 2822 2819 2774 2820 2861
8 2777 2728 2778 2823 2820 2775 2821 2862
8 2779 2730 2780 2825 2822 2777 2823 2864
8 2823 2778 2731 2780 2865 2824 2781 2826
8 2825 2780 2733 2782 2866 2826 2783 2827
8 2869 2828 2785 2830 2847 2803 2756 2804
8 2871 2829 2786 2832 2830 2785 2738 2787
8 2872 2830 2787 2833 2848 2804 2759 2806
8 2789 2739 2786 2832 2835 2788 2831 2874
8 2836 2789 2740 2790 2875 2832 2787 2833
8 2792 2741 2788 2835 2838 2791 2834 2877
8 2793 2742 2789 2836 2839 2792 2835 2878
8 2838 2791 2837 2880 2795 2744 2794 2841
8 2839 2792 2838 2881 2796 2745 2795 2842
8 2841 2794 2840 2882 2798 2749 2799 2844
8 2842 2795 2841 2883 2797 2748 2798 2843
8 2843 2798 2844 2884 2800 2751 2801 2845
8 2886 2846 2803 2847 2850 2807 2762 2808
8 2851 2808 2847 2887 2809 2763 2804 2848
8 2850 2807 2766 2811 2889 2849 2812 2853
8 2810 2765 2811 2852 2851 2808 2850 2890
8 2852 2811 2768 2813 2891 2853 2814 2855
8 2853 2812 2769 2814 2892 2854 2815 2856
8 2894 2856 2814 2855 2858 2817 2771 2816
8 2817 2772 2818 2859 2856 2815 2857 2895
8 2819 2774 2820 2861 2858 2817 2859 2897
8 2820 2775 2821 2862 2859 2818 2860 2898
8 2822 2777 2823 2864 2861 2820 2862 2900
8 2823 2778 2824 2865 2862 2821 2863 2901
8 2864 2823 2780 2825 2902 2865 2826 2866
8 2904 2867 2828 2869 2886 2846 2803 2847
8 2869 2828 2868 2906 2830 2785 2829 2871
8 2907 2869 2830 2872 2887 2847 2804 2848
8 2871 2829 2870 2909 2832 2786 2831 2874
8 2910 2871 2832 2875 2872 2830 2787 2833
8 2835 2788 2831 2874 2877 2834 2873 2912
8 2836 2789 2832 2875 2878 2835 2874 2913
8 2877 2834 2876 2915 2838 2791 2837 2880
8 2839 2792 2835 2878 2881 2838 2877 2916
8 2880 2837 2879 2917 2841 2794 2840 2882
8 2881 2838 2880 2918 2842 2795 2841 2883
8 2883 2841 2882 2919 2843 2798 2844 2884
8 2921 2885 2846 2886 2889 2849 2807 2850
8 2922 2886 2847 2887 2890 2850 2808 2851
8 2889 2849 2812 2853 2924 2888 2854 2892
8 2890 2850 2811 2852 2925 2889 2853 2891
8 2891 2853 2814 2855 2926 2892 2856 2894
8 2892 2854 2815 2856 2927 2893 2857 2895
8 2858 2817 2859 2897 2894 2856 2895 2929
8 2859 2818 2860 2898 2895 2857 2896 2930
8 2861 2820 2862 2900 2897 2859 2898 2932
8 2862 2821 2863 2901 2898 2860 2899 2933
8 2864 2823 2865 2902 2900 2862 2901 2934
8 2904 2867 2846 2886 2936 2903 2885 2921
8 2904 2867 2903 2936 2869 2828 2868 2906
8 2937 2904 2869 2907 2922 2886 2847 2887
8 2906 2868 2905 2939 2871 2829 2870 2909
8 2907 2869 2906 2940 2872 2830 2871 2910
8 2909 2870 2908 2942 2874 2831 2873 2912
8 2910 2871 2909 2943 2875 2832 2874 2913
8 2912 2873 2911 2945 2877 2834 2876 2915
8 2878 2835 2874 2913 2916 2877 2912 2946
8 2915 2876 2914 2947 2880 2837 2879 2917
8 2916 2877 2915 2948 2881 2838 2880 2918
8 2918 2880 2917 2949 2883 2841 2882 2919
8 2921 2885 2849 2889 2951 2920 2888 2924
8 2952 2921 2886 2922 2925 2889 2850 2890
8 2924 2888 2854 2892 2954 2923 2893 2927
8 2925 2889 2853 2891 2955 2924 2892 2926
8 2926 2892 2856 2894 2956 2927 2895 2929
8 2895 2857 2896 2930 2927 2893 2928 2957
8 2897 2859 2898 2932 2929 2895 2930 2959
8 2898 2860 2899 2933 2930 2896 2931 2960
8 2900 2862 2901 2934 2932 2898 2933 2961
8 2936 2903 2885 2921 2963 2935 2920 2951
8 2936 2903 2935 2963 2906 2868 2905 2939
8 2937 2904 2886 2922 2964 2936 2921 2952
8 2937 2904 2936 2964 2907 2869 2906 2940
8 2939 2905 2938 2966 2909 2870 2908 2942
8 2940 2906 2939 2967 2910 2871 2909 2943
8 2942 2908 2941 2969 2912 2873 2911 2945
8 2943 2909 2942 2970 2913 2874 2912 2946
8 2945 2911 2944 2971 2915 2876 2914 2947
8 2946 2912 2945 2972 2916 2877 2915 2948
8 2948 2915 2947 2973 2918 2880 2917 2949
8 2951 2920 2888 2924 2975 2950 2923 2954
8 2952 2921 2889 2925 2976 2951 2924 2955
8 2927 2893 2928 2957 2954 2923 2953 2978
8 2955 2924 2892 2926 2979 2954 2927 2956
8 2929 2895 2930 2959 2956 2927 2957 2980
8 2930 2896 2931 2960 2957 2928 2958 2981
8 2932 2898 2933 2961 2959 2930 2960 2982
8 2951 2920 2950 2975 2963 2935 2962 2984
8 2963 2935 2962 2984 2939 2905 2938 2966
8 2964 2936 2921 2952 2985 2963 2951 2976
8 2964 2936 2963 2985 2940 2906 2939 2967
8 2966 2938 2965 2987 2942 2908 2941 2969
8 2967 2939 2966 2988 2943 2909 2942 2970
8 2969 2941 2968 2989 2945 2911 2944 2971
8 2970 2942 2969 2990 2946 2912 2945 2972
8 2972 2945 2971 2991 2948 2915 2947 2973
8 2954 2923 2953 2978 2975 2950 2974 2993
8 2976 2951 2924 2955 2994 2975 2954 2979
8 2957 2928 2958 2981 2978 2953 2977 2995
8 2956 2927 2957 2980 2979 2954 2978 2996
8 2959 2930 2960 2982 2980 2957 2981 2997
8 2984 2962 2983 2999 2966 2938 2965 2987
8 2975 2950 2974 2993 2984 2962 2983 2999
8 2976 2951 2975 2994 2985 2963 2984 3000
8 2985 2963 2984 3000 2967 2939 2966 2988
8 2987 2965 2986 3001 2969 2941 2968 2989
8 2988 2966 2987 3002 2970 2942 2969 2990
8 2990 2969 2989 3003 2972 2945 2971 2991
8 2978 2953 2977 2995 2993 2974 2992 3004
8 2979 2954 2978 2996 2994 2975 2993 3005
8 2980 2957 2981 2997 2996 2978 2995 3006
8 2974 2993 2999 2983 2992 3004 3007 2998
8 2983 2999 2987 2965 2998 3007 3001 2986
8 3000 2984 2999 3008 2988 2966 2987 3002
8 2994 2975 2993 3005 3000 2984 2999 3008
8 3002 2987 3001 3009 2990 2969 2989 3003
8 2996 2978 2995 3006 3005 2993 3004 3010
8 3005 2993 3004 3010 3008 2999 3007 3011
8 3008 2999 3007 3011 3002 2987 3001 3009

CELL_TYPES 1910
12
12
12
12
12
12
12
12
12
12
12
12
12
12
12
12
12
12
12
12
12
12
12
12
12
12
12
12
12
12
12
12
12
12
12
12
12
12
12
12
12
12
12
12
12
12
12
12
12
12
12
12
12
12
12
12
12
12
12
12
12
12
12
12
12
12
12
12
12
12
12
12
12
12
12
12
12
12
12
12
12
12
12
12
12
12
12
12
12
12
12
12
12
12
12
12
12
12
12
12
12
12
12
12
12
12
12
12
12
12
12
12
12
12
12
12
12
12
12
12
12
12
12
12
12
12
12
12
12
12
12
12
12
12
12
12
12
12
12
12
12
12
12
12
12
12
12
12
12
12
12
12
12
12
12
12
12
12
12
12
12
12
12
12
12
12
12
12
12
12
12
12
12
12
12
12
12
12
12
12
12
12
12
12
12
12
12
12
12
12
12
12
12
12
12
12
12
12
12
12
12
12
12
12
12
12
12
12
12
12
12
12
12
12
12
12
12
12
12
12
12
12
12
12
12
12
12
12
12
12
12
12
12
12
12
12
12
12
12
12
12
12
12
12
12
12
12
12
12
12
12
12
12
12
12
12
12
12
12
12
12
12
12
12
12
12
12
12
12
12
12
12
12
12
12
12
12
12
12
12
12
12
12
12
12
12
12
12
12
12
12
12
12
12
12
12
12
12
12
12
12
12
12
12
12
12
12
12
12
12
12
12
12
12
12
12
12
12
12
12
12
12
12
12
12
12
12
12
12
12
12
12
12
12
12
12
12
12
12
12
12
12
12
12
12
12
12
12
12
12
12
12
12
12
12
12
12
12
12
12
12
12
12
12
12
12
12
12
12
12
12
12
12
12
12
12
12
12
12
12
12
12
12
12
12
12
12
12
12
12
12
12
12
12
12
12
12
12
12
12
12
12
12
12
12
12
12
12
12
12
12
12
12
12
12
12
12
12
12
12
12
12
12
12
12
12
12
12
12
12
12
12
12
12
12
12
12
12
12
12
12
12
12
12
12
12
12
12
12
12
12
12
12
12
12
12
12
12
12
12
12
12
12
12
12
12
12
12
12
12
12
12
12
12
12
12
12
12
12
12
12
12
12
12
12
12
12
12
12
12
12
12
12
12
12
12
12
12
12
12
12
12
12
12
12
12
12
12
12
12
12
12
12
12
12
12
12
12
12
12
12
12
12
12
12
12
12
12
12
12
12
12
12
12
12
12
12
12
12
12
12
12
12
12
12
12
12
12
12
12
12
12
12
12
12
12
12
12
12
12
12
12
12
12
12
12
12
12
12
12
12
12
12
12
12
12
12
12
12
12
12
12
12
12
12
12
12
12
12
12
12
12
12
12
12
12
12
12
12
12
12
12
12
12
12
12
12
12
12
12
12
12
12
12
12
12
12
12
12
12
12
12
12
12
12
12
12
12
12
12
12
12
12
12
12
12
12
12
12
12
12
12
12
12
12
12
12
12
12
12
12
12
12
12
12
12
12
12
12
12
12
12
12
12
12
12
12
12
12
12
12
12
12
12
12
12
12
12
12
12
12
12
12
12
12
12
12
12
12
12
12
12
12
12
12
12
12
12
12
12
12
12
12
12
12
12
12
12
12
12
12
12
12
12
12
12
12
12
12
12
12
12
12
12
12
12
12
12
12
12
12
12
12
12
12
12
12
12
12
12
12
12
12
12
12
12
12
12
12
12
12
12
12
12
12
12
12
12
12
12
12
12
12
12
12
12
12
12
12
12
12
12
12
12
12
12
12
12
12
12
12
12
12
12
12
12
12
12
12
12
12
12
12
12
12
12
12
12
12
12
12
12
12
12
12
12
12
12
12
12
12
12
12
12
12
12
12
12
12
12
12
12
12
12
12
12
12
12
12
12
12
12
12
12
12
12
12
12
12
12
12
12
12
12
12
12
12
12
12
12
12
12
12
12
12
12
12
12
12
12
12
12
12
12
12
12
12
12
12
12
12
12
12
12
12
12
12
12
12
12
12
12
12
12
12
12
12
12
12
12
12
12
12
12
12
12
12
12
12
12
12
12
12
12
12
12
12
12
12
12
12
12
12
12
12
12
12
12
12
12
12
12
12
12
12
12
12
12
12
12
12
12
12
12
12
12
12
12
12
12
12
12
12
12
12
12
12
12
12
12
12
12
12
12
12
12
12
12
12
12
12
12
12
12
12
12
12
12
12
12
12
12
12
12
12
12
12
12
12
12
12
12
12
12
12
12
12
12
12
12
12
12
12
12
12
12
12
12
12
12
12
12
12
12
12
12
12
12
12
12
12
12
12
12
12
12
12
12
12
12
12
12
12
12
12
12
12
12
12
12
12
12
12
12
12
12
12
12
12
12
12
12
12
12
12
12
12
12
12
12
12
12
12
12
12
12
12
12
12
12
12
12
12
12
12
12
12
12
12
12
12
12
12
12
12
12
12
12
12
12
12
12
12
12
12
12
12
12
12
12
12
12
12
12
12
12
12
12
12
12
12
12
12
12
12
12
12
12
12
12
12
12
12
12
12
12
12
12
12
12
12
12
12
12
12
12
12
12
12
12
12
12
12
12
12
12
12
12
12
12
12
12
12
12
12
12
12
12
12
12
12
12
12
12
12
12
12
12
12
12
12
12
12
12
12
12
12
12
12
12
12
12
12
12
12
12
12
12
12
12
12
12
12
12
12
12
12
12
12
12
12
12
12
12
12
12
12
12
12
12
12
12
12
12
12
12
12
12
12
12
12
12
12
12
12
12
12
12
12
12
12
12
12
12
12
12
12
12
12
12
12
12
12
12
12
12
12
12
12
12
12
12
12
12
12
12
12
12
12
12
12
12
12
12
12
12
12
12
12
12
12
12
12
12
12
12
12
12
12
12
12
12
12
12
12
12
12
12
12
12
12
12
12
12
12
12
12
12
12
12
12
12
12
12
12
12
12
12
12
12
12
12
12
12
12
12
12
12
12
12
12
12
12
12
12
12
12
12
12
12
12
12
12
12
12
12
12
12
12
12
12
12
12
12
12
12
12
12
12
12
12
12
12
12
12
12
12
12
12
12
12
12
12
12
12
12
12
12
12
12
12
12
12
12
12
12
12
12
12
12
12
12
12
12
12
12
12
12
12
12
12
12
12
12
12
12
12
12
12
12
12
12
12
12
12
12
12
12
12
12
12
12
12
12
12
12
12
12
12
12
12
12
12
12
12
12
12
12
12
12
12
12
12
12
12
12
12
12
12
12
12
12
12
12
12
12
12
12
12
12
12
12
12
12
12
12
12
12
12
12
12
12
12
12
12
12
12
12
12
12
12
12
12
12
12
12
12
12
12
12
12
12
12
12
12
12
12
12
12
12
12
12
12
12
12
12
12
12
12
12
12
12
12
12
12
12
12
12
12
12
12
12
12
12
12
12
12
12
12
12
12
12
12
12
12
12
12
12
12
12
12
12
12
12
12
12
12
12
12
12
12
12
12
12
12
12
12
12
12
12
12
12
12
12
12
12
12
12
12
12
12
12
12
12
12
12
12
12
12
12
12
12
12
12
12
12
12
12
12
12
12
12
12
12
12
12
12
12
12
12
12
12
12
12
12
12
12
12
12
12
12
12
12
12
12
12
12
12
12
12
12
12
12
12
12
12
12
12
12
12
12
12
12
12
12
12
12
12
12
12
12
12
12
12
12
12
12
12
12
12
12
12
12
12
12
12
12
12
12
12
12
12
12
12
12
12
12
12
12
12
12
12
12
12
12
12
12
12
12
12
12
12
12
12
12
12
12
12
12
12
12
12
12
12
12
12
12
12
12
12
12
12
12
12
12
12
12
12
12
12
12
12
12
12
12
12
12
12
12
12
12
12
12
12
12
12
12
12
12
12
12
12
12
12
12
12
12
12
12
12
12
12
12
12
12
12
12
12
12
12
12
12
12
12
12
12
12
12
12
12
12
12
12
12
12
12
12
12
12
12
12
12
12
12
12
12
12
12
12
12
12
12
12
12
12
12
12
12
12
12
12
12
12
12
12
12
12
12
12
12
12
12
12
12
12
12
12
12
12
12
12
12
12
12
12
12
12
12
12
12
12
12
12
12
12
12
12
12
12
12
12
12
12
12
12
12
12
12
12
12
12
12
12
12
12
12
12
12
12
12
12
12
12
12
12
12
12
12
12
12
12
12
12
12
12
12
12
12
12
12
12
12
12
12
12
12
12
12
12
12
12
12
12
12
12
12
12
12
12
12
12
12
12
12
12
12
12
12
12
12
12
12
12
12
12
12
12
12
12
12
12
12
12
12
12
12
12
12
12
12
12
12
12
12
12
12
12
12
12
12

POINT_DATA 3012
SCALARS Jp_lamdaP float 4
LOOKUP_TABLE default
1 1 1 1
1 1 1 1
1 1 1 1
0.999995 1 1 0.999995
1 1 1 1
1 1 1 1
0.999911 1 1 0.999911
1 1 1 1
1 1 1 1
1 1 1 1
1 1 1 1
0.999978 1 1 0.999978
0.999984 1 1 0.999984
0.999996 1 1 0.999996
1 1 1 1
0.999996 1 1 0.999996
1 1 1 1
1 1 1 1
0.999912 1 1 0.999912
1 1 1 1
0.999992 1 1 0.999992
0.999998 1 1 0.999998
0.999845 1 1 0.999845
0.999894 1 1 0.999894
1 1 1 1
0.999932 1 1 0.999932
0.999742 1 1 0.999742
1 1 1 1
1 1 1 1
1 1 1 1
1 1 1 1
0.999981 1 1 0.999981
0.999999 1 1 0.999999
1 1 1 1
0.999933 1 1 0.999933
1 1 1 1
0.999967 1 1 0.999967
0.999989 1 1 0.999989
0.999782 1 1 0.999782
1 1 1 1
1 1 1 1
0.999997 1 1 0.999997
1 1 1 1
0.999992 1 1 0.999992
0.999848 1 1 0.999848
1 1 1 1
0.999898 1 1 0.999898
0.999997 1 1 0.999997
1 1 1 1
1 1 1 1
0.999913 1 1 0.999913
0.999992 1 1 0.999992
0.999993 1 1 0.999993
1 1 1 1
0.999999 1 1 0.999999
0.999847 1 1 0.999847
0.999933 1 1 0.999933
0.999895 1 1 0.999895
0.999736 1 1 0.999736
1 1 1 1
0.999989 1 1 0.999989
0.999865 1 1 0.999865
0.99983 1 1 0.99983
0.999871 1 1 0.999871
0.999582 1 1 0.999582
0.999677 1 1 0.999677
1 1 1 1
0.999956 1 1 0.999956
0.999788 1 1 0.999788
0.999525 1 1 0.999525
1 1 1 1
1 1 1 1
1 1 1 1
0.999984 1 1 0.999984
1 1 1 1
1 1 1 1
0.999938 1 1 0.999938
1 1 1 1
0.99997 1 1 0.99997
0.999992 1 1 0.999992
0.999781 1 1 0.999781
1 1 1 1
1 1 1 1
0.999917 1 1 0.999917
0.999951 1 1 0.999951
0.99965 1 1 0.99965
0.999998 1 1 0.999998
0.999761 1 1 0.999761
0.999803 1 1 0.999803
0.999623 1 1 0.999623
1 1 1 1
1 1 1 1
1 1 1 1
1 1 1 1
1 1 1 1
0.999995 1 1 0.999995
0.999858 1 1 0.999858
0.999998 1 1 0.999998
0.999899 1 1 0.999899
1 1 1 1
0.999825 1 1 0.999825
0.999882 1 1 0.999882
0.999449 1 1 0.999449
0.999908 1 1 0.999908
0.999511 1 1 0.999511
0.999987 1 1 0.999987
0.999994 1 1 0.999994
1 1 1 1
0.999999 1 1 0.999999
0.999849 1 1 0.999849
0.999896 1 1 0.999896
0.999934 1 1 0.999934
0.99973 1 1 0.99973
1 1 1 1
0.999991 1 1 0.999991
0.999831 1 1 0.999831
0.999831 1 1 0.999831
1 1 1 1
0.999971 1 1 0.999971
0.999873 1 1 0.999873
0.999568 1 1 0.999568
0.999782 1 1 0.999782
0.999686 1 1 0.999686
0.999526 1 1 0.999526
0.999834 1 1 0.999834
0.999825 1 1 0.999825
0.999486 1 1 0.999486
0.999529 1 1 0.999529
0.999617 1 1 0.999617
0.999367 1 1 0.999367
1 1 1 1
0.999489 1 1 0.999489
0.999997 1 1 0.999997
0.999799 1 1 0.999799
0.99956 1 1 0.99956
0.999437 1 1 0.999437
1 1 1 1
0.999871 1 1 0.999871
1 1 1 1
1 1 1 1
0.999943 1 1 0.999943
1 1 1 1
0.999995 1 1 0.999995
0.999973 1 1 0.999973
0.99978 1 1 0.99978
1 1 1 1
1 1 1 1
0.999921 1 1 0.999921
0.999956 1 1 0.999956
0.999651 1 1 0.999651
0.999999 1 1 0.999999
0.999761 1 1 0.999761
0.999803 1 1 0.999803
0.999618 1 1 0.999618
1 1 1 1
1 1 1 1
0.999885 1 1 0.999885
0.99959 1 1 0.99959
0.999715 1 1 0.999715
0.999467 1 1 0.999467
0.999833 1 1 0.999833
0.999599 1 1 0.999599
0.999635 1 1 0.999635
0.999554 1 1 0.999554
1 1 1 1
1 1 1 1
1 1 1 1
1 1 1 1
1 1 1 1
1 1 1 1
1 1 1 1
0.999899 1 1 0.999899
0.999857 1 1 0.999857
1 1 1 1
1 1 1 1
0.999827 1 1 0.999827
0.999884 1 1 0.999884
0.999449 1 1 0.999449
0.999909 1 1 0.999909
0.999511 1 1 0.999511
0.999817 1 1 0.999817
0.999412 1 1 0.999412
0.999484 1 1 0.999484
0.999269 1 1 0.999269
0.999544 1 1 0.999544
0.999337 1 1 0.999337
1 1 1 1
0.999993 1 1 0.999993
0.999795 1 1 0.999795
0.999832 1 1 0.999832
1 1 1 1
0.999985 1 1 0.999985
0.999874 1 1 0.999874
0.999554 1 1 0.999554
0.999696 1 1 0.999696
0.999775 1 1 0.999775
0.999527 1 1 0.999527
0.999832 1 1 0.999832
0.999826 1 1 0.999826
0.999459 1 1 0.999459
0.999538 1 1 0.999538
1 1 1 1
0.999995 1 1 0.999995
0.999811 1 1 0.999811
0.999618 1 1 0.999618
0.999351 1 1 0.999351
0.999557 1 1 0.999557
0.999496 1 1 0.999496
0.999439 1 1 0.999439
1 1 1 1
0.999871 1 1 0.999871
0.999419 1 1 0.999419
0.999513 1 1 0.999513
0.999295 1 1 0.999295
0.999299 1 1 0.999299
0.999443 1 1 0.999443
0.999287 1 1 0.999287
1 1 1 1
0.999406 1 1 0.999406
0.999819 1 1 0.999819
0.999607 1 1 0.999607
0.999471 1 1 0.999471
0.999413 1 1 0.999413
0.999843 1 1 0.999843
0.999911 1 1 0.999911
0.999669 1 1 0.999669
0.999924 1 1 0.999924
1 1 1 1
1 1 1 1
0.999961 1 1 0.999961
0.999652 1 1 0.999652
1 1 1 1
0.999803 1 1 0.999803
0.999762 1 1 0.999762
0.999613 1 1 0.999613
1 1 1 1
1 1 1 1
0.999885 1 1 0.999885
0.999591 1 1 0.999591
0.999717 1 1 0.999717
0.999467 1 1 0.999467
0.999833 1 1 0.999833
0.999605 1 1 0.999605
0.999634 1 1 0.999634
0.999547 1 1 0.999547
1 1 1 1
0.999858 1 1 0.999858
0.999916 1 1 0.999916
0.999697 1 1 0.999697
0.999407 1 1 0.999407
0.999547 1 1 0.999547
0.999375 1 1 0.999375
0.999662 1 1 0.999662
0.999531 1 1 0.999531
0.999531 1 1 0.999531
0.999495 1 1 0.999495
0.999979 1 1 0.999979
1 1 1 1
1 1 1 1
1 1 1 1
1 1 1 1
1 1 1 1
1 1 1 1
1 1 1 1
1 1 1 1
0.999911 1 1 0.999911
0.999883 1 1 0.999883
0.999512 1 1 0.999512
0.999449 1 1 0.999449
0.999828 1 1 0.999828
1 1 1 1
0.999816 1 1 0.999816
0.999412 1 1 0.999412
0.999484 1 1 0.999484
0.999269 1 1 0.999269
0.999545 1 1 0.999545
0.999337 1 1 0.999337
0.999401 1 1 0.999401
0.999231 1 1 0.999231
0.999305 1 1 0.999305
0.999216 1 1 0.999216
0.999369 1 1 0.999369
0.999277 1 1 0.999277
0.99983 1 1 0.99983
0.999826 1 1 0.999826
0.999431 1 1 0.999431
0.999547 1 1 0.999547
1 1 1 1
0.999993 1 1 0.999993
0.999823 1 1 0.999823
0.999619 1 1 0.999619
0.999334 1 1 0.999334
0.999503 1 1 0.999503
0.999555 1 1 0.999555
0.99944 1 1 0.99944
1 1 1 1
0.999871 1 1 0.999871
0.999409 1 1 0.999409
0.999513 1 1 0.999513
0.999288 1 1 0.999288
0.999316 1 1 0.999316
0.999999 1 1 0.999999
0.999819 1 1 0.999819
0.999618 1 1 0.999618
0.999443 1 1 0.999443
0.999283 1 1 0.999283
0.999458 1 1 0.999458
0.999406 1 1 0.999406
0.999412 1 1 0.999412
0.999843 1 1 0.999843
0.999666 1 1 0.999666
0.99991 1 1 0.99991
0.999264 1 1 0.999264
0.999304 1 1 0.999304
0.999203 1 1 0.999203
0.999235 1 1 0.999235
0.999358 1 1 0.999358
0.99929 1 1 0.99929
0.99983 1 1 0.99983
0.999391 1 1 0.999391
0.999662 1 1 0.999662
0.999503 1 1 0.999503
0.999395 1 1 0.999395
0.999437 1 1 0.999437
0.999947 1 1 0.999947
0.999671 1 1 0.999671
0.999674 1 1 0.999674
0.999591 1 1 0.999591
0.999591 1 1 0.999591
1 1 1 1
1 1 1 1
0.999885 1 1 0.999885
0.999719 1 1 0.999719
0.999467 1 1 0.999467
0.999833 1 1 0.999833
0.999633 1 1 0.999633
0.999611 1 1 0.999611
0.99954 1 1 0.99954
1 1 1 1
0.999858 1 1 0.999858
0.999917 1 1 0.999917
0.999696 1 1 0.999696
0.999406 1 1 0.999406
0.999548 1 1 0.999548
0.999375 1 1 0.999375
0.999662 1 1 0.999662
0.999539 1 1 0.999539
0.999528 1 1 0.999528
0.999513 1 1 0.999513
1 1 1 1
0.999942 1 1 0.999942
0.999683 1 1 0.999683
0.999721 1 1 0.999721
0.999588 1 1 0.999588
0.999326 1 1 0.999326
0.999462 1 1 0.999462
0.999342 1 1 0.999342
0.999549 1 1 0.999549
0.999487 1 1 0.999487
0.999421 1 1 0.999421
0.99997 1 1 0.99997
0.99983 1 1 0.99983
0.999986 1 1 0.999986
0.999981 1 1 0.999981
1 1 1 1
1 1 1 1
1 1 1 1
1 1 1 1
1 1 1 1
1 1 1 1
1 1 1 1
1 1 1 1
1 1 1 1
1 1 1 1
1 1 1 1
0.999545 1 1 0.999545
0.999484 1 1 0.999484
0.999337 1 1 0.999337
0.999269 1 1 0.999269
0.999412 1 1 0.999412
0.999816 1 1 0.999816
0.999401 1 1 0.999401
0.999231 1 1 0.999231
0.999305 1 1 0.999305
0.999213 1 1 0.999213
0.999369 1 1 0.999369
0.999277 1 1 0.999277
0.999218 1 1 0.999218
0.99918 1 1 0.99918
0.999244 1 1 0.999244
0.999204 1 1 0.999204
0.999304 1 1 0.999304
0.9993 1 1 0.9993
0.999399 1 1 0.999399
0.999512 1 1 0.999512
0.999282 1 1 0.999282
0.999334 1 1 0.999334
0.999999 1 1 0.999999
0.999819 1 1 0.999819
0.999629 1 1 0.999629
0.999442 1 1 0.999442
0.999279 1 1 0.999279
0.999407 1 1 0.999407
0.999446 1 1 0.999446
0.999411 1 1 0.999411
0.999844 1 1 0.999844
0.999662 1 1 0.999662
0.99991 1 1 0.99991
0.999251 1 1 0.999251
0.999304 1 1 0.999304
0.999195 1 1 0.999195
0.999239 1 1 0.999239
0.99983 1 1 0.99983
0.999661 1 1 0.999661
0.999515 1 1 0.999515
0.999363 1 1 0.999363
0.999296 1 1 0.999296
0.999385 1 1 0.999385
0.999391 1 1 0.999391
0.999441 1 1 0.999441
0.999672 1 1 0.999672
0.999582 1 1 0.999582
0.999944 1 1 0.999944
0.999679 1 1 0.999679
0.99917 1 1 0.99917
0.999212 1 1 0.999212
0.999158 1 1 0.999158
0.999226 1 1 0.999226
0.999358 1 1 0.999358
0.999318 1 1 0.999318
0.999675 1 1 0.999675
0.999443 1 1 0.999443
0.999567 1 1 0.999567
0.999417 1 1 0.999417
0.999343 1 1 0.999343
0.99944 1 1 0.99944
0.999965 1 1 0.999965
0.999713 1 1 0.999713
0.999596 1 1 0.999596
0.999575 1 1 0.999575
0.999551 1 1 0.999551
1 1 1 1
0.999406 1 1 0.999406
0.999918 1 1 0.999918
0.999857 1 1 0.999857
0.999695 1 1 0.999695
0.99955 1 1 0.99955
0.999375 1 1 0.999375
0.999663 1 1 0.999663
0.999525 1 1 0.999525
0.999546 1 1 0.999546
0.99953 1 1 0.99953
1 1 1 1
0.999944 1 1 0.999944
0.999682 1 1 0.999682
0.999721 1 1 0.999721
0.999585 1 1 0.999585
0.999325 1 1 0.999325
0.999463 1 1 0.999463
0.999339 1 1 0.999339
0.999551 1 1 0.999551
0.999492 1 1 0.999492
0.99943 1 1 0.99943
0.999958 1 1 0.999958
0.999751 1 1 0.999751
0.999573 1 1 0.999573
0.999602 1 1 0.999602
0.999535 1 1 0.999535
0.999307 1 1 0.999307
0.999421 1 1 0.999421
0.999382 1 1 0.999382
0.999449 1 1 0.999449
0.999368 1 1 0.999368
0.999972 1 1 0.999972
0.999786 1 1 0.999786
0.999819 1 1 0.999819
0.999716 1 1 0.999716
0.999841 1 1 0.999841
0.99999 1 1 0.99999
0.999987 1 1 0.999987
1 1 1 1
0.999983 1 1 0.999983
1 1 1 1
1 1 1 1
1 1 1 1
1 1 1 1
1 1 1 1
1 1 1 1
1 1 1 1
1 1 1 1
1 1 1 1
1 1 1 1
1 1 1 1
0.999368 1 1 0.999368
0.999306 1 1 0.999306
0.999278 1 1 0.999278
0.99921 1 1 0.99921
0.999231 1 1 0.999231
0.9994 1 1 0.9994
0.999218 1 1 0.999218
0.999175 1 1 0.999175
0.999244 1 1 0.999244
0.999203 1 1 0.999203
0.999302 1 1 0.999302
0.9993 1 1 0.9993
0.999155 1 1 0.999155
0.99929 1.00013 1 0.999165
0.999241 1 1 0.999241
0.999195 1 1 0.999195
0.999309 1 1 0.999309
0.999321 1 1 0.999321
0.999237 1 1 0.999237
0.999304 1 1 0.999304
0.999187 1 1 0.999187
0.999242 1 1 0.999242
0.999831 1 1 0.999831
0.99966 1 1 0.99966
0.999528 1 1 0.999528
0.999368 1 1 0.999368
0.999302 1 1 0.999302
0.999392 1 1 0.999392
0.999375 1 1 0.999375
0.999446 1 1 0.999446
0.999673 1 1 0.999673
0.999573 1 1 0.999573
0.999942 1 1 0.999942
0.999684 1 1 0.999684
0.999171 1 1 0.999171
0.999214 1 1 0.999214
0.999158 1 1 0.999158
0.999227 1 1 0.999227
0.999675 1 1 0.999675
0.999577 1 1 0.999577
0.999416 1 1 0.999416
0.999354 1 1 0.999354
0.999342 1 1 0.999342
0.999338 1 1 0.999338
0.999445 1 1 0.999445
0.999456 1 1 0.999456
0.999596 1 1 0.999596
0.999548 1 1 0.999548
0.999573 1 1 0.999573
0.999948 1 1 0.999948
0.999719 1 1 0.999719
0.999136 1 1 0.999136
0.99915 1 1 0.99915
0.999247 1 1 0.999247
0.999395 1 1 0.999395
0.999605 1 1 0.999605
0.999494 1 1 0.999494
0.999501 1 1 0.999501
0.999306 1 1 0.999306
0.999298 1 1 0.999298
0.999949 1 1 0.999949
0.999779 1 1 0.999779
0.999608 1 1 0.999608
0.999568 1 1 0.999568
0.999499 1 1 0.999499
0.99952 1 1 0.99952
1 1 1 1
0.999945 1 1 0.999945
0.999323 1 1 0.999323
0.99972 1 1 0.99972
0.999682 1 1 0.999682
0.999581 1 1 0.999581
0.999463 1 1 0.999463
0.999336 1 1 0.999336
0.999552 1 1 0.999552
0.999438 1 1 0.999438
0.999497 1 1 0.999497
0.999961 1 1 0.999961
0.999751 1 1 0.999751
0.999579 1 1 0.999579
0.999601 1 1 0.999601
0.999528 1 1 0.999528
0.999306 1 1 0.999306
0.999418 1 1 0.999418
0.999387 1 1 0.999387
0.999442 1 1 0.999442
0.999353 1 1 0.999353
0.999779 1 1 0.999779
0.999608 1 1 0.999608
0.999499 1 1 0.999499
0.999516 1 1 0.999516
0.999484 1 1 0.999484
0.999418 1 1 0.999418
0.999343 1 1 0.999343
0.999372 1 1 0.999372
0.999395 1 1.00002 0.999373
0.999233 1 1 0.999233
0.999975 1 1 0.999975
0.999795 1 1 0.999795
0.999659 1 1 0.999659
0.999808 1 1 0.999808
0.999841 1 1 0.999841
0.9997 1 1 0.9997
0.999615 1 1 0.999615
0.999696 1 1 0.999696
0.99985 1 1 0.99985
0.999992 1 1 0.999992
0.999991 1 1 0.999991
1 1 1 1
0.999988 1 1 0.999988
1 1 1 1
1 1 1 1
1 1 1 1
1 1 1 1
1 1 1 1
1 1 1 1
1 1 1 1
1 1 1 1
1 1 1 1
1 1 1 1
1 1 1 1
0.999301 1 1 0.999301
0.999245 1 1 0.999245
0.999299 1 1 0.999299
0.999201 1 1 0.999201
0.999169 1 1 0.999169
0.999218 1 1 0.999218
0.999153 1 1 0.999153
0.999244 1.00008 1 0.999167
0.999235 1 1 0.999235
0.999189 1 1 0.999189
0.999309 1 1 0.999309
0.999335 1 1 0.999335
0.999406 1.00026 1 0.999141
0.999375 1.0002 1 0.999175
0.999238 1 1 0.999238
0.999384 1 1 0.999384
0.999172 1 1 0.999172
0.999217 1 1 0.999217
0.999158 1 1 0.999158
0.999229 1 1 0.999229
0.999675 1 1 0.999675
0.999587 1 1 0.999587
0.999416 1 1 0.999416
0.999349 1 1 0.999349
0.999367 1 1 0.999367
0.999446 1 1 0.999446
0.999332 1 1 0.999332
0.999472 1 1 0.999472
0.999596 1 1 0.999596
0.999545 1 1 0.999545
0.999571 1 1 0.999571
0.999932 1 1 0.999932
0.999725 1 1 0.999725
0.999138 1 1 0.999138
0.999155 1 1 0.999155
0.999256 1 1 0.999256
0.999604 1 1 0.999604
0.999514 1 1 0.999514
0.999303 1 1 0.999303
0.999385 1 1 0.999385
0.999322 1 1 0.999322
0.999491 1 1 0.999491
0.999949 1 1 0.999949
0.999568 1 1 0.999568
0.999527 1 1 0.999527
0.999499 1 1 0.999499
0.999613 1 1 0.999613
0.999767 1 1 0.999767
0.999145 1.00001 1 0.999132
0.999139 1 1 0.999139
0.999314 1.00002 1 0.999296
0.999508 1.00005 1 0.999461
0.999562 1 1 0.999562
0.999365 1 1 0.999365
0.999381 1 1 0.999381
0.999257 1 1.00004 0.999218
0.999962 1 1 0.999962
0.999813 1 1 0.999813
0.999651 1 1 0.999651
0.99949 1 1 0.99949
0.999529 1 1 0.999529
0.999469 1 1 0.999469
0.999963 1 1 0.999963
0.999751 1 1 0.999751
0.999304 1 1 0.999304
0.9996 1 1 0.9996
0.999585 1 1 0.999585
0.99952 1 1 0.99952
0.999415 1 1 0.999415
0.999392 1 1 0.999392
0.999436 1 1 0.999436
0.999339 1 1 0.999339
0.99978 1 1 0.99978
0.999612 1 1 0.999612
0.999509 1 1 0.999509
0.999521 1 1 0.999521
0.999488 1 1 0.999488
0.999418 1 1 0.999418
0.999348 1 1 0.999348
0.999409 1 1 0.999409
0.999366 1 1 0.999364
0.999215 1 1 0.999215
0.999636 1 1 0.999636
0.999506 1 1 0.999506
0.999431 1 1 0.999429
0.999443 1 1 0.999443
0.99957 1.00018 1 0.999391
0.999767 1.00045 0.999872 0.999446
0.99922 1 1 0.99922
1.00058 1 1.00138 0.999201
0.999803 1 1 0.999803
0.999666 1 1 0.999666
0.999581 1 1 0.999581
0.999841 1 1 0.999841
0.999683 1 1 0.999683
0.99985 1 1 0.99985
0.999602 1 1 0.999602
0.999702 1 1 0.999702
0.999535 1 1 0.999535
0.999601 1 1 0.999601
0.999705 1 1 0.999705
0.999855 1 1 0.999855
0.999992 1 1 0.999992
0.999992 1 1 0.999992
1 1 1 1
0.999991 1 1 0.999991
1 1 1 1
1 1 1 1
1 1 1 1
1 1 1 1
1 1 1 1
1 1 1 1
1 1 1 1
1 1 1 1
1 1 1 1
1 1 1 1
1 1 1 1
0.999309 1 1 0.999309
0.999229 1 1 0.999229
0.99935 1 1 0.99935
0.999184 1 1 0.999184
0.999174 1.00001 1 0.999169
0.99915 1 1 0.99915
0.999336 1.00019 1 0.999145
0.999343 1.00017 1 0.999175
0.999245 1 1 0.999245
0.999379 1 1 0.999379
0.999514 1.00036 1 0.999156
0.999505 1.00029 1 0.999211
0.999306 1 1 0.999306
0.999139 1 1 0.999139
0.99916 1 1 0.99916
0.999269 1 1 0.999265
0.999603 1 1 0.999603
0.999527 1 1 0.999527
0.9993 1 1 0.9993
0.999376 1 1 0.999376
0.999488 1 1 0.999488
0.999346 1 1 0.999346
0.999567 1 1 0.999567
0.999535 1 1 0.999535
0.999498 1 1 0.999498
0.99995 1 1 0.99995
0.999618 1 1 0.999618
0.999755 1 1 0.999755
0.99921 1.00008 1 0.999135
0.999137 1 1 0.999137
0.999294 1.00001 1 0.999284
0.99956 1 1 0.99956
0.999401 1 1 0.999401
0.999291 1 1.00007 0.999223
0.999764 1.00029 1 0.99947
0.999363 1 1 0.999363
0.999974 1 1 0.999974
0.999813 1 1 0.999813
0.999529 1 1 0.999529
0.999475 1 1 0.999475
0.999495 1 1 0.999495
0.999642 1 1 0.999642
0.999322 1.00017 1 0.999155
0.999337 1.00018 1 0.999154
1.00007 1.00075 0.999905 0.999414
1.0003 1.00083 1 0.999477
0.999497 1 1 0.999497
1.00044 1 1.00127 0.99917
0.999382 1 1.00009 0.999292
0.999995 1 1 0.999995
0.999879 1 1 0.999879
0.999816 1 1 0.999816
0.999664 1 1 0.999664
0.999529 1 1 0.999529
0.999415 1 1 0.999415
0.99951 1 1 0.99951
0.999448 1 1 0.999448
0.99978 1 1 0.99978
0.999617 1 1 0.999617
0.999418 1 1 0.999418
0.999526 1 1 0.999526
0.999519 1 1 0.999519
0.999492 1 1 0.999492
0.999352 1 1 0.999352
0.999447 1 1 0.999447
0.999356 1 1 0.999356
0.999198 1 1 0.999198
0.999632 1 1 0.999632
0.999514 1 1 0.999514
0.999449 1 1.00001 0.999438
0.99945 1 1 0.99945
0.999471 1.00009 1 0.999385
0.999612 1.00022 0.999949 0.999444
0.999238 1 1 0.999238
1.00022 1 1.00102 0.999193
0.999552 1 1 0.999552
0.999353 1.00005 1 0.999306
0.999443 1 1 0.999443
0.999497 1 1.00015 0.999347
1.00092 1.00177 0.999722 0.999429
0.999582 1.00038 1 0.999203
1.00133 1 1.00221 0.999122
0.999674 1 1 0.999674
0.999581 1 1 0.999581
0.999509 1 1 0.999509
0.99985 1 1 0.99985
0.999708 1 1 0.999708
0.99959 1 1 0.99959
0.999855 1 1 0.999855
0.999704 1 1 0.999704
0.999525 1 1 0.999525
0.999613 1 1 0.999613
0.999477 1 1 0.999477
0.999522 1 1 0.999522
0.999624 1 1 0.999624
0.999723 1 1 0.999723
0.999855 1 1 0.999855
0.999992 1 1 0.999992
0.999992 1 1 0.999992
1 1 1 1
0.999992 1 1 0.999992
1 1 1 1
1 1 1 1
1 1 1 1
1 1 1 1
1 1 1 1
0.999999 1 1 0.999999
1 1 1 1
1 1 1 1
1 1 1 1
1 1 1 1
1 1 1 1
1 1 1 1
0.999374 1 1 0.999374
0.999251 1 1 0.999251
0.999326 1.00015 1 0.999174
0.99929 1.00014 1 0.999149
0.999535 1.00037 1 0.999161
0.999521 1.00032 1 0.999204
0.999319 1 1 0.999319
0.999634 1.00044 1 0.999196
0.999428 1.00019 1 0.999238
0.999393 1.00007 1 0.999326
0.999268 1.00013 1 0.999138
0.999135 1 1 0.999135
0.999272 1 1 0.999272
0.999558 1 1 0.999558
0.99942 1 1 0.99942
0.999231 1 1 0.999229
0.999987 1.00051 1 0.999479
0.999362 1 1 0.999362
0.999528 1 1 0.999528
0.99948 1 1 0.99948
0.9995 1 1 0.9995
0.999985 1 1 0.999985
0.999813 1 1 0.999813
0.999633 1 1 0.999633
0.999282 1.00012 1 0.999158
0.999993 1 1 0.999993
0.999871 1 1 0.999871
0.999406 1.00025 1 0.999155
1.00028 1.00089 1 0.999392
0.999507 1 1 0.999507
0.999767 1 1.0005 0.999272
0.999771 1 1.0006 0.999176
0.999994 1.00052 1 0.999476
0.999839 1 1 0.999839
0.999663 1 1 0.999663
0.999506 1 1 0.999506
0.999472 1 1 0.999472
0.999401 1 1 0.999401
0.999531 1 1 0.999531
0.999757 1.00057 1 0.999189
1.00041 1.00118 1 0.999237
1.00126 1.00212 0.999601 0.999543
0.999285 1 1 0.999285
0.999798 1 1.00034 0.999455
1.00208 1 1.00294 0.999144
0.999879 1 1 0.999879
0.999859 1 1 0.999859
0.999764 1 1 0.999764
0.999669 1 1 0.999669
0.999565 1 1 0.999565
0.999432 1 1 0.999432
0.999342 1 1 0.999342
0.999476 1 1 0.999476
0.999628 1 1 0.999628
0.999522 1 1 0.999522
0.999378 1 1 0.999378
0.999442 1 1 0.999441
0.999457 1 1 0.999457
0.999446 1 1 0.999446
0.999256 1 1 0.999256
0.999889 1 1.0007 0.999185
0.999552 1 1 0.999552
0.999342 1.00002 1 0.999321
0.999444 1 1 0.999444
0.99968 1 1.00035 0.999334
1.00029 1.00113 0.999746 0.999421
0.999804 1.0006 1 0.999207
1.00119 1 1.00207 0.999122
0.999468 1 1 0.999468
1.00709 1.00828 0.999451 0.999363
0.999386 1 1 0.999386
1.00086 1 1.00164 0.999221
0.998246 1.0018 0.997225 0.999228
1.001 1 1.00192 0.999076
1.00608 1.00884 0.998014 0.999252
0.999581 1 1 0.999581
0.999508 1 1 0.999508
0.999458 1 1 0.999458
0.999855 1 1 0.999855
0.999703 1 1 0.999703
0.999626 1 1 0.999626
0.999516 1 1 0.999516
0.999855 1 1 0.999855
0.999715 1 1 0.999715
0.999474 1 1 0.999474
0.999624 1 1 0.999624
0.999532 1 1 0.999532
0.999455 1 1 0.999455
0.999558 1 1 0.999558
0.999633 1 1 0.999633
0.999704 1 1 0.999704
0.999832 1 1 0.999832
0.999741 1 1 0.999741
0.999832 1 1 0.999832
0.999991 1 1 0.999991
0.999991 1 1 0.999991
1 1 1 1
0.999992 1 1 0.999992
1 1 1 1
1 1 1 1
1 1 1 1
1 1 1 1
1 1 1 1
1 1 1 1
0.999998 1 1 0.999998
1 1 1 1
1 1 1 1
1 1 1 1
1 1 1 1
1 1 1 1
1 1 1 1
0.999333 1 1 0.999333
0.99955 1.00035 1 0.999196
0.999547 1.00038 1 0.999166
0.99965 1.00046 1 0.999195
0.99952 1.00028 1 0.999244
0.999367 1.00003 1 0.999335
1.00013 1.00086 1 0.999264
1.00437 1.00967 0.995308 0.999441
1.00624 1.00711 0.999705 0.999431
0.999909 1 1 0.999909
0.999258 1.0001 1 0.999161
0.999476 1.00032 1 0.999155
1.00041 1.00104 1 0.999369
0.999517 1 1 0.999517
1.00035 1 1.0011 0.999252
0.9993 1 1.00012 0.999183
0.9997 1.00023 1 0.999475
0.999502 1 1 0.999502
0.999496 1 1 0.999496
0.999387 1 1 0.999387
0.999991 1 1 0.999991
0.999533 1 1 0.999533
0.999862 1 1 0.999862
0.999662 1 1 0.999662
0.999862 1 1 0.999862
0.999642 1.00046 1 0.999185
0.999889 1 1 0.999889
0.999859 1 1 0.999859
0.999746 1 1 0.999746
1.00065 1.00141 1 0.999241
1.00047 1.00149 0.999469 0.999514
0.999712 1 1.00025 0.999461
1.00229 1 1.00316 0.999135
0.999452 1 1.00016 0.99929
0.999682 1 1 0.999682
0.99956 1 1 0.99956
0.999464 1 1 0.999464
0.99941 1 1.00005 0.999356
0.999442 1 1 0.999442
1.0016 1.00237 1.00004 0.99918
1.00058 1.00384 0.997374 0.999383
1.00001 1.00093 0.999716 0.999363
1.00116 1 1.00199 0.999168
1.00184 1 1.00247 0.999367
0.999748 1 1 0.999748
0.999703 1 1 0.999703
0.999649 1 1 0.999649
0.999574 1 1 0.999574
0.999486 1 1 0.999486
0.999376 1 1 0.999376
1.00096 1 1.00165 0.999317
0.999551 1 1 0.999551
0.999444 1 1 0.999444
0.999336 1 1 0.999336
0.999627 1.00049 0.999725 0.999414
1.00001 1.0008 1 0.999212
0.999853 1 1.00053 0.99932
1.00092 1 1.0018 0.999122
0.999476 1 1 0.999476
1.0068 1.00838 0.999058 0.999369
0.999388 1 1 0.999388
1.00078 1 1.00156 0.999222
0.999339 1.00225 0.997842 0.999257
1.0015 1 1.00243 0.999072
1.00789 1.01109 0.997582 0.999247
0.99942 1 1 0.99942
0.998252 1.00692 0.992126 0.999264
0.999655 1 1.0003 0.99935
1.00428 1 1.00513 0.999156
1.00054 1.00036 1.00109 0.999093
0.959188 0.963823 0.998668 0.996518
1.00353 1.00103 1.00382 0.998678
0.989912 1.00982 0.980958 0.999316
0.930666 0.945179 0.985944 0.998684
0.939019 0.971121 0.967811 0.999103
0.999508 1 1 0.999508
0.999461 1 1 0.999461
0.99943 1 1 0.99943
0.999855 1 1 0.999855
0.999707 1 1 0.999707
0.999624 1 1 0.999624
0.999543 1 1 0.999543
0.999471 1 1 0.999471
0.999621 1 1 0.999621
0.999842 1 1 0.999842
0.999713 1 1 0.999713
0.999461 1 1 0.999461
0.999554 1 1 0.999554
0.999565 1 1 0.999565
0.999485 1 1 0.999485
0.999601 1 1 0.999601
0.999702 1 1 0.999702
0.999831 1 1 0.999831
0.999728 1 1 0.999728
0.999639 1 1 0.999639
0.999713 1 1 0.999713
0.999725 1 1 0.999725
0.999849 1 1 0.999849
0.999832 1 1 0.999832
0.99999 1 1 0.99999
0.999991 1 1 0.999991
1 1 1 1
0.999991 1 1 0.999991
1 1 1 1
1 1 1 1
1 1 1 1
1 1 1 1
1 1 1 1
1 1 1 1
1 1 1 1
1 1 1 1
0.999997 1 1 0.999997
1 1 1 1
1 1 1 1
1 1 1 1
1 1 1 1
1 1 1 1
0.999602 1.00035 1 0.999251
0.999629 1.00043 1 0.999195
0.999343 1 1 0.999343
1.00577 1.00963 0.996723 0.99945
1.00022 1.00096 1 0.99926
1.00625 1.00701 0.999852 0.999397
1.00528 1.00608 1.00004 0.999167
0.978835 0.984914 0.995456 0.998365
1.00603 1.00716 0.999342 0.999532
0.999915 1 1 0.999915
0.999908 1 1 0.999908
0.999784 1 1 0.999784
0.999798 1 1 0.999798
0.99952 1.00034 1 0.99918
1.00089 1.00165 1 0.999244
0.999745 1.00078 0.999481 0.999485
0.999467 1 1 0.999467
1.00203 1 1.00291 0.999126
0.999426 1 1.00013 0.999296
0.999453 1 1 0.999453
0.999501 1 1.00013 0.99937
0.999452 1 1 0.999452
0.999858 1 1 0.999858
0.999555 1 1 0.999555
0.999695 1 1 0.999695
0.999899 1 1 0.999899
0.999728 1 1 0.999728
1.00123 1.00201 1.00003 0.999196
0.999766 1 1 0.999766
0.999714 1 1 0.999714
0.999648 1 1 0.999648
1.00164 1.00395 0.998305 0.999388
0.99947 1.00057 0.999541 0.999363
1.00155 1 1.00219 0.999366
1.00114 1 1.00198 0.999161
0.999578 1 1 0.999578
0.99949 1 1 0.99949
1.00035 1 1.00103 0.999317
0.999431 1 1.00007 0.999365
1.00657 1.00738 0.999954 0.999241
1.00085 1.00382 0.997704 0.999341
1.00007 1.00024 1.00073 0.999109
1.00118 1 1.0019 0.99928
0.999614 1 1 0.999614
0.999598 1 1 0.999598
0.99945 1 1 0.99945
1.00142 1 1.00216 0.999259
0.954652 0.963719 0.994168 0.996402
0.999484 1 1 0.999484
0.999391 1 1 0.999391
1.0065 1.00841 0.998729 0.999375
1.0005 1.00265 0.998576 0.999285
1.00217 1 1.0031 0.999068
1.00092 1 1.0017 0.999222
1.00991 1.01321 0.997508 0.999241
0.999425 1 1 0.999425
0.998417 1.00718 0.992034 0.999256
0.999561 1 1.00021 0.999352
1.00412 1 1.00496 0.99916
0.999917 1.00049 1.00033 0.999105
0.958101 0.964303 0.996815 0.996743
0.99792 0.997427 1.00245 0.998049
0.993173 1.0116 0.982428 0.999343
0.936677 0.947785 0.989901 0.998363
0.932414 0.966527 0.965619 0.999055
0.999425 1 1 0.999425
0.939238 0.947749 0.992992 0.998014
0.953956 0.971358 0.98286 0.999211
0.980119 1.00195 0.978949 0.999244
1.00228 1 1.00294 0.999337
1.00892 1 1.00973 0.999199
0.995109 1.01017 0.985731 0.999353
0.970256 0.970896 1.00308 0.996272
1.00598 1.00395 1.00413 0.997898
0.931411 0.952989 0.978735 0.998593
0.978813 1.003 0.976443 0.999424
0.999463 1 1 0.999463
0.999431 1 1 0.999431
0.999416 1 1 0.999416
0.999851 1 1 0.999851
0.999722 1 1 0.999722
0.999609 1 1 0.999609
0.99955 1 1 0.99955
0.999467 1 1 0.999467
0.999831 1 1 0.999831
0.999566 1 1 0.999566
0.999614 1 1 0.999614
0.999712 1 1 0.999712
0.999474 1 1 0.999474
0.999526 1 1 0.999526
0.999634 1 1.0002 0.999437
0.999616 1 1 0.999616
0.999722 1 1 0.999722
0.999728 1 1 0.999728
0.999626 1 1 0.999626
0.999627 1 1 0.999627
0.999612 1 1 0.999612
0.999562 1 1 0.999562
0.999554 1 1 0.999554
0.999692 1 1 0.999692
0.999713 1 1 0.999713
0.999842 1 1 0.999842
0.999709 1 1 0.999709
0.99984 1 1 0.99984
0.999989 1 1 0.999989
0.999832 1 1 0.999832
0.99999 1 1 0.99999
1 1 1 1
0.99999 1 1 0.99999
1 1 1 1
1 1 1 1
1 1 1 1
1 1 1 1
1 1 1 1
0.999911 1 1 0.999911
1 1 1 1
1 1 1 1
1 1 1 1
1 1 1 1
1 1 1 1
1 1 1 1
1 1 1 1
1 1 1 1
1 1 1 1
1.00724 1.00994 0.997867 0.999458
1.00033 1.00107 1 0.999256
1.00622 1.00688 0.999977 0.999363
0.980504 0.98446 0.99722 0.998758
1.00627 1.007 0.99974 0.999542
1.00558 1.0064 1.00003 0.999152
1.00819 1.00734 1.00159 0.99926
0.986509 0.986526 1.00136 0.998621
0.962057 0.967083 0.999037 0.995762
0.924347 0.945303 0.979956 0.997831
0.934187 0.962817 0.971141 0.999097
0.999778 1 1 0.999778
0.999914 1 1 0.999914
0.999908 1 1 0.999908
0.999778 1 1 0.999778
0.999695 1 1 0.999695
0.999715 1 1 0.999715
0.999782 1 1 0.999782
0.99979 1 1 0.99979
1.00086 1.00163 1.00003 0.999212
1.00262 1.00411 0.999126 0.999393
0.999001 1.00032 0.999317 0.999363
1.00158 1 1.00222 0.999365
1.00157 1 1.00242 0.999154
0.999763 1 1.00045 0.999318
0.999462 1 1.00011 0.999355
0.999494 1 1 0.999494
0.999725 1 1 0.999725
0.999582 1 1 0.999582
0.999784 1 1 0.999784
0.999647 1 1 0.999647
1.00674 1.00807 0.999465 0.999222
0.999621 1 1 0.999621
0.9996 1 1 0.9996
0.999937 1.00333 0.997283 0.999338
0.999799 1.00026 1.0004 0.999139
1.00174 1 1.00248 0.999259
0.999445 1 1 0.999445
1.00137 1 1.00211 0.999263
0.999831 1.01086 0.989895 0.99919
1.00119 1.0008 1.00124 0.99916
1.00021 1 1.00103 0.999178
1.00433 1 1.0051 0.999238
0.999543 1 1 0.999543
0.999482 1 1 0.999482
0.999872 1 1.00054 0.999329
0.934947 0.950342 0.985356 0.998422
0.960664 0.965575 0.998337 0.996571
0.999431 1 1 0.999431
0.999354 1 1 0.999354
0.998865 1.00766 0.992015 0.999248
0.999203 1.00065 0.999438 0.999117
1.00369 1 1.00453 0.999164
0.959174 0.964993 0.998224 0.995738
0.998279 0.998025 1.00156 0.998699
0.996682 1.01381 0.98373 0.999368
0.931224 0.947686 0.984631 0.997966
0.925174 0.961481 0.963194 0.999007
0.999424 1 1 0.999424
0.933532 0.949775 0.984374 0.998501
0.956 0.969567 0.986772 0.999226
0.982393 1.00215 0.981033 0.999235
1.00173 1 1.00239 0.999342
1.00818 1 1.00898 0.999213
0.991025 1.0076 0.984198 0.99934
0.971668 0.972723 1.00294 0.995983
1.00072 0.999301 1.00286 0.998565
0.933283 0.95319 0.981164 0.997912
0.972634 1.00042 0.972833 0.999378
0.999404 1 1 0.999404
0.971661 0.974515 0.997633 0.999437
1.01525 1.01769 0.997914 0.999694
0.992372 1 0.993013 0.999354
1.00709 1 1.00764 0.999459
1.00887 1.00361 1.00561 0.999633
0.995712 0.996305 1.00029 0.99912
0.975762 0.973442 1.00628 0.996127
0.950996 0.973921 0.978538 0.997878
0.996656 1.01822 0.979256 0.999556
0.999432 1 1 0.999432
0.99941 1 1 0.99941
0.999833 1 1.00042 0.999411
0.999831 1 1 0.999831
0.999722 1 1 0.999722
0.999627 1 1 0.999627
0.999566 1 1 0.999566
0.999464 1 1 0.999464
0.999722 1 1 0.999722
0.999535 1 1 0.999535
0.999615 1 1 0.999615
0.999676 1 1.00024 0.999432
0.999966 1 1.00055 0.999411
0.999594 1 1.00009 0.999507
0.999621 1 1 0.999621
0.999727 1 1 0.999727
0.999613 1 1 0.999613
0.999627 1 1 0.999627
0.999611 1 1 0.999611
0.999559 1 1 0.999559
0.999584 1 1 0.999584
0.999554 1 1 0.999554
0.999517 1 1 0.999517
0.999485 1 1 0.999485
0.99949 1 1 0.99949
0.999537 1 1 0.999537
0.999555 1 1 0.999555
0.999666 1 1 0.999666
0.999691 1 1 0.999691
0.999829 1 1 0.999829
0.999712 1 1 0.999712
0.999842 1 1 0.999842
0.999986 1 1 0.999986
0.999831 1 1 0.999831
0.999988 1 1 0.999988
1 1 1 1
0.999989 1 1 0.999989
1 1 1 1
1 1 1 1
1 1 1 1
1 1 1 1
1 1 1 1
0.999918 1 1 0.999918
1 1 1 1
0.999911 1 1 0.999911
1 1 1 1
1 1 1 1
1 1 1 1
1 1 1 1
1 1 1 1
1 1 1 1
1 1 1 1
1 1 1 1
0.933715 0.947396 0.986915 0.998626
0.958213 0.970741 0.987726 0.99936
0.983577 0.98512 0.999366 0.999068
1.00637 1.00686 0.999962 0.999551
1.00589 1.00673 1.00003 0.999136
0.986057 0.985026 1.00172 0.999332
1.00725 1.00719 1.0008 0.999268
0.965203 0.969209 0.999336 0.996528
0.931718 0.946379 0.985877 0.998612
0.930167 0.962939 0.966879 0.999055
1.0004 0.997204 1.00371 0.999494
0.971701 0.972795 1.00246 0.996425
0.929701 0.952099 0.977861 0.998582
0.973142 0.997157 0.976622 0.999277
0.999662 1 1 0.999662
0.999786 1 1 0.999786
0.999914 1 1 0.999914
0.999773 1 1 0.999773
0.999705 1 1 0.999705
0.999678 1 1 0.999678
0.999717 1 1 0.999717
0.999733 1 1 0.999733
0.999772 1 1 0.999772
0.999782 1 1 0.999782
1.0069 1.00869 0.999025 0.999204
0.999195 1.0028 0.997063 0.999335
0.999531 1.00023 1.00013 0.99917
1.00204 1 1.00281 0.999238
1.00124 1 1.00198 0.999267
0.99944 1 1 0.99944
0.999601 1 1 0.999601
0.999628 1 1 0.999628
1.00135 1.01054 0.991742 0.999161
0.999537 1 1 0.999537
0.999468 1 1 0.999468
1.00004 1.00052 1.00038 0.999133
1.00054 1 1.00133 0.99921
1.00338 1 1.00416 0.999224
1.00044 1 1.00112 0.999321
1.00154 1.01275 0.989894 0.999036
1.0071 1 1.00784 0.999271
1.00399 1 1.00476 0.999235
0.999531 1 1 0.999531
0.999451 1 1 0.999451
0.999357 1 1 0.999357
0.971072 0.975743 0.995854 0.999356
0.937072 0.949468 0.989026 0.997895
0.957856 0.965399 0.995784 0.996388
0.999423 1 1 0.999423
1.0013 1 1.00196 0.999346
0.984454 1.00227 0.982988 0.999225
1.00765 1 1.00843 0.999225
0.931173 0.949068 0.983233 0.997875
0.969984 0.97195 1.00097 0.997011
1.00175 1.00015 1.00366 0.997946
0.988523 1.00518 0.984085 0.999333
0.936889 0.95307 0.984329 0.998673
0.956946 0.970544 0.986803 0.999175
0.964654 0.994528 0.970649 0.999291
0.999402 1 1 0.999402
0.968272 0.97418 0.994554 0.999378
1.01469 1.01722 0.997815 0.999696
0.993744 1 0.994378 0.999363
1.00728 1 1.00783 0.999461
1.00842 1.00315 1.00601 0.999247
0.996153 0.996237 1.00173 0.998187
0.974392 0.974862 1.00351 0.996026
0.957086 0.976937 0.980893 0.998763
0.989942 1.01217 0.97855 0.999477
0.999765 1 1.00021 0.999557
1.02024 1.02067 0.999791 0.999781
1.02366 1.02651 0.997399 0.999824
1.00797 1 1.00825 0.999718
0.997545 0.991823 1.00617 0.999605
0.981587 0.979632 1.00596 0.996058
0.977754 0.992397 0.986393 0.998836
0.991052 1.01404 0.97787 0.999451
0.999403 1 1 0.999403
0.999781 1 1.00036 0.999425
1.00077 1 1.0013 0.999473
0.999721 1 1 0.999721
0.999615 1 1 0.999615
0.999543 1 1 0.999543
0.999708 1 1.00028 0.999427
0.99962 1 1 0.99962
0.999539 1 1.00003 0.999508
1.00034 1 1.00093 0.999413
1.00032 1 1.00086 0.999467
0.999641 1 1.00021 0.999429
0.999542 1 1 0.999542
0.999627 1 1 0.999627
0.999611 1 1 0.999611
0.999556 1 1 0.999556
0.999556 1 1 0.999556
0.999584 1 1 0.999584
0.999522 1 1 0.999522
0.999494 1 1 0.999494
0.999492 1 1 0.999492
0.999454 1 1 0.999454
0.999487 1 1 0.999487
0.99947 1 1 0.99947
0.999436 1 1 0.999436
0.999566 1 1 0.999566
0.999519 1 1 0.999519
0.999547 1 1 0.999547
0.999628 1 1 0.999628
0.999555 1 1 0.999555
0.999665 1 1 0.999665
0.999808 1 1 0.999808
0.999691 1 1 0.999691
0.999828 1 1 0.999828
0.999983 1 1 0.999983
0.999842 1 1 0.999842
0.999986 1 1 0.999986
1 1 1 1
0.999988 1 1 0.999988
1 1 1 1
1 1 1 1
1 1 1 1
1 1 1 1
1 1 1 1
0.999877 1 1 0.999877
1 1 1 1
0.999901 1 1 0.999901
1 1 1 1
1 1 1 1
0.999911 1 1 0.999911
1 1 1 1
1 1 1 1
1 1 1 1
1 1 1 1
1 1 1 1
1 1 1 1
0.971866 0.974715 0.997591 0.999485
0.934792 0.94764 0.988198 0.998223
1.01301 1.01784 0.995575 0.999682
0.95539 0.968655 0.986977 0.99932
0.982286 0.983685 1.00005 0.998527
1.0064 1.00709 1.00004 0.999277
0.966103 0.969116 0.99957 0.99732
0.929262 0.947265 0.983085 0.997874
0.92631 0.96316 0.962691 0.999013
0.997809 0.998378 1.00024 0.999189
0.971049 0.970836 1.00398 0.996256
0.931887 0.955485 0.977381 0.997873
0.973451 0.997691 0.976408 0.999279
0.999981 1.00424 0.996443 0.999318
0.971637 0.970999 1.00458 0.996099
0.96053 0.9796 0.981789 0.998721
0.99433 1.01642 0.978756 0.999504
0.999593 1 1 0.999593
0.999674 1 1 0.999674
0.999794 1 1 0.999794
0.999714 1 1 0.999714
0.999613 1 1 0.999613
0.999686 1 1 0.999686
0.99972 1 1 0.99972
0.99972 1 1 0.99972
0.999744 1 1 0.999744
0.999761 1 1 0.999761
1.00303 1.01055 0.993421 0.999133
0.99847 1.00022 0.999148 0.999106
1.00083 1 1.00159 0.999243
1.0027 1 1.00349 0.999209
1.00107 1 1.00176 0.999314
0.999455 1 1 0.999455
0.999532 1 1 0.999532
0.999532 1 1 0.999532
1.00018 1.01039 0.990844 0.999052
0.999458 1 1 0.999458
0.999445 1 1.00009 0.999355
1.00568 1 1.00645 0.999238
1.00385 1 1.00462 0.999236
0.99822 1.01062 0.988542 0.99918
1.01646 1 1.01709 0.999376
1.00008 1 1.00078 0.999302
0.99947 1 1 0.99947
0.999359 1 1 0.999359
1.02121 1.02164 0.999768 0.999806
0.971946 0.975266 0.997161 0.999433
0.936545 0.950173 0.987049 0.99859
0.9994 1 1 0.9994
1.00727 1 1.00781 0.999463
0.994531 1 0.995157 0.999371
0.972653 0.975438 0.997673 0.999471
0.974181 0.972564 1.0057 0.995982
0.997477 0.996072 1.00245 0.998963
1.00622 1.002 1.00538 0.998837
0.952822 0.973468 0.98087 0.997881
1.01438 1.01702 0.997703 0.999699
0.988756 1.01055 0.978942 0.999484
0.999704 1 1.00014 0.999569
1.02041 1.02068 0.999921 0.999812
1.02464 1.02781 0.997088 0.999826
1.00827 0.999985 1.00868 0.999613
0.998689 0.993939 1.00546 0.999321
0.984973 0.981677 1.00742 0.995969
0.994179 1.01789 0.977178 0.999519
0.969975 0.98665 0.984651 0.998424
0.999975 1 1.00026 0.999711
1.02454 1.0263 0.998346 0.999935
1.02715 1.02994 0.997446 0.999844
0.995477 1.0155 0.980767 0.999507
1.00559 0.99397 1.01185 0.999842
0.982841 0.980269 1.0063 0.996351
0.964584 0.98139 0.984141 0.998714
0.999707 1 1.00027 0.999439
1.00053 1 1.00109 0.999437
1.00312 1 1.00355 0.99957
0.99962 1 1 0.99962
0.999509 1 1 0.999509
1.00079 1 1.00138 0.999414
0.999545 1 1 0.999545
0.999752 1 1.00033 0.999427
1.00071 1 1.00126 0.999444
0.999866 1 1.00035 0.999512
0.999458 1 1 0.999458
0.999557 1 1 0.999557
0.999584 1 1 0.999584
0.999526 1 1 0.999526
0.999492 1 1 0.999492
0.999496 1 1 0.999496
0.999464 1 1 0.999464
0.999476 1 1 0.999476
0.999982 1 1.00063 0.99935
0.99949 1 1 0.99949
0.999467 1 1 0.999467
0.999348 1 1 0.999348
0.999449 1 1 0.999449
0.999554 1 1 0.999554
0.999438 1 1 0.999438
0.999629 1 1 0.999629
0.999559 1 1 0.999559
0.999547 1 1 0.999547
0.999557 1 1 0.999557
0.999637 1 1 0.999637
0.999783 1 1 0.999783
0.999665 1 1 0.999665
0.999808 1 1 0.999808
0.999977 1 1 0.999977
0.999828 1 1 0.999828
0.999982 1 1 0.999982
1 1 1 1
0.999985 1 1 0.999985
1 1 1 1
1 1 1 1
1 1 1 1
1 1 1 1
1 1 1 1
0.999823 1 1 0.999823
0.999976 1 1 0.999976
0.999876 1 1 0.999876
1 1 1 1
0.99999 1 1 0.99999
0.999883 1 1 0.999883
1 1 1 1
1 1 1 1
1 1 1 1
1 1 1 1
1 1 1 1
1 1 1 1
1.02013 1.02069 0.999662 0.999793
0.966654 0.973858 0.993264 0.999334
0.937604 0.947759 0.991309 0.99796
0.999677 1 1 0.999677
1.02625 1.02905 0.997425 0.99986
1.01431 1.01822 0.996476 0.999685
0.951348 0.969039 0.982523 0.999207
0.995574 0.999141 0.99758 0.998848
0.971991 0.971501 1.00415 0.99637
0.935571 0.958357 0.977563 0.99863
0.971299 0.995447 0.976505 0.999217
1.00075 1.00749 0.994832 0.998468
0.972458 0.971584 1.00473 0.996185
0.960737 0.979525 0.982433 0.998357
0.991393 1.01474 0.977532 0.999443
0.991859 0.998605 0.995059 0.998176
0.977422 0.974796 1.00739 0.995335
0.970415 0.989197 0.982955 0.998024
0.991837 1.0162 0.976573 0.999436
0.999525 1 1 0.999525
0.999586 1 1 0.999586
0.999685 1 1 0.999685
0.999598 1 1 0.999598
0.999627 1 1 0.999627
0.999695 1 1 0.999695
0.999723 1 1 0.999723
0.999755 1 1 0.999755
0.998526 1.00784 0.991683 0.999067
1.00425 1 1.00505 0.999205
0.999533 1 1 0.999533
1.00361 1 1.00438 0.999236
0.999519 1 1.00017 0.999352
0.999465 1 1 0.999465
0.999471 1 1 0.999471
1.00092 1.00979 0.992021 0.999189
0.999368 1 1 0.999368
1.0009 1 1.0016 0.999296
1.01538 1 1.01603 0.999359
0.999471 1 1 0.999471
1.00084 1.00289 0.998411 0.999547
1.01309 1 1.01363 0.999464
0.999369 1 1 0.999369
0.99941 1 1 0.99941
1.02437 1.02514 0.999312 0.999941
1.02062 1.0211 0.999723 0.99981
0.972783 0.974666 0.998555 0.999512
0.999581 1 1 0.999581
1.00876 0.999979 1.00928 0.999509
1.02054 1.0207 0.999995 0.999844
0.980824 0.976639 1.00827 0.996045
1.00152 0.996087 1.00698 0.99848
0.969129 0.987467 0.983344 0.998053
1.02535 1.02881 0.996807 0.999829
0.997735 1.02222 0.976447 0.999588
1.00015 1 1.00047 0.999678
1.02532 1.02716 0.998278 0.999935
1.02711 1.02967 0.997638 0.999871
1.00682 0.995161 1.01179 0.999931
0.991878 1.01358 0.979136 0.999444
0.981218 0.981271 1.00344 0.996519
0.965548 0.984154 0.983108 0.997951
1.00646 0.99811 1.0086 0.999771
1.02104 1.02299 0.998144 0.999954
1.02714 1.0293 0.998035 0.999857
0.972932 0.996819 0.976732 0.999288
0.969227 0.98775 0.983182 0.998032
1.00293 0.992209 1.01066 1.00015
0.977937 0.97576 1.00602 0.996237
1.00029 1 1.00089 0.999401
1.00223 1 1.00268 0.999556
1.0122 1 1.01262 0.999581
0.999547 1 1 0.999547
0.999792 1 1.00037 0.999426
1.00096 1 1.00154 0.999421
0.999458 1 1 0.999458
0.999942 1 1.00043 0.999509
1.00283 1 1.00337 0.999456
0.999492 1 1 0.999492
0.999498 1 1 0.999498
0.999635 1 1.00018 0.999456
1.00153 1 1.00218 0.999346
0.999498 1 1 0.999498
0.999757 1 1.00039 0.999369
1.00036 1 1.00112 0.999248
0.999313 1 1 0.999313
0.999464 1 1 0.999464
0.999331 1 1 0.999331
0.999501 1 1 0.999501
0.999537 1 1 0.999537
0.999463 1 1 0.999463
0.999628 1 1 0.999628
0.999552 1 1 0.999552
0.99944 1 1 0.99944
0.999761 1 1 0.999761
0.999625 1 1 0.999625
0.999552 1 1 0.999552
0.999647 1 1 0.999647
0.999783 1 1 0.999783
0.999968 1 1 0.999968
0.999808 1 1 0.999808
0.999975 1 1 0.999975
1 1 1 1
0.99998 1 1 0.99998
1 1 1 1
1 1 1 1
1 1 1 1
1 1 1 1
1 1 1 1
0.999797 1 1 0.999797
0.99996 1 1 0.99996
0.999833 1 1 0.999833
1 1 1 1
0.999975 1 1 0.999975
0.999874 1 1 0.999874
1 1 1 1
1 1 1 1
0.999981 1 1 0.999981
1 1 1 1
1 1 1 1
1 1 1 1
1.02543 1.02641 0.999119 0.999932
1.01999 1.02073 0.999473 0.999795
0.967944 0.974003 0.994437 0.999338
0.999682 1 1 0.999682
0.999651 1 1 0.999651
0.999601 1 1 0.999601
1.02621 1.02913 0.997318 0.999844
1.027 1.02943 0.997777 0.999861
1.01624 1.01862 0.997973 0.999688
1.00718 1.01125 0.996762 0.999204
0.972709 0.971012 1.00562 0.996149
0.956969 0.976154 0.982428 0.997881
0.992742 1.01688 0.976765 0.999482
0.988658 0.996883 0.992786 0.998955
0.977846 0.974923 1.0069 0.996128
0.972481 0.989039 0.9845 0.998738
0.9943 1.01936 0.975891 0.99951
0.981387 0.990002 0.992245 0.999045
0.981561 0.977094 1.00834 0.996267
0.96983 0.985386 0.985542 0.998653
0.995103 1.01678 0.979124 0.999552
0.999507 1 1 0.999507
0.999525 1 1 0.999525
0.999579 1 1 0.999579
0.999597 1 1 0.999597
0.99964 1 1 0.99964
0.999727 1 1 0.999727
1.00427 1.00883 0.996286 0.999197
1.01422 1 1.01489 0.999342
0.999473 1 1 0.999473
1.0016 1 1.00231 0.999291
0.999376 1 1 0.999376
0.999468 1 1 0.999468
0.999406 1 1 0.999406
1.00255 1.0039 0.999119 0.999538
0.999384 1 1 0.999384
1.01285 0.99926 1.01412 0.999488
0.99944 1 1 0.99944
1.01776 0.996811 1.02127 0.999754
0.998373 0.998312 1.00044 0.999625
0.999383 1 1 0.999383
1.01791 1.01892 0.99904 0.999968
1.02354 1.0244 0.99921 0.999947
1.02001 1.02056 0.99965 0.999813
1.00035 1 1.00071 0.999646
1.00285 0.994846 1.00805 0.999986
1.02607 1.02796 0.998226 0.999935
0.988186 0.984799 1.00561 0.997839
0.973426 0.988714 0.985718 0.998802
1.02733 1.02948 0.998015 0.999897
0.993764 1.01583 0.978782 0.999484
1.00541 0.998761 1.00687 0.999788
1.0204 1.02198 0.998493 0.999958
1.02805 1.02969 0.998548 0.999859
1.00412 0.991057 1.01396 0.999238
0.97309 0.997546 0.97618 0.999287
0.970685 0.987558 0.984154 0.99874
0.981329 0.978164 1.00684 0.99642
1.02524 0.999627 1.02574 0.999889
1.02543 1.02619 0.999325 0.999931
1.01463 1.01821 0.996799 0.999678
0.933079 0.961565 0.971247 0.999103
0.958203 0.97787 0.981114 0.99875
0.987395 0.980954 1.01028 0.996322
0.983726 0.989283 0.995406 0.998972
1.00121 1 1.00167 0.999542
1.01327 1 1.01369 0.999586
1.0195 1 1.01998 0.999533
0.999458 1 1 0.999458
1.00006 1 1.00055 0.999507
1.00227 1 1.00281 0.999463
1.01026 1 1.01093 0.999341
0.999767 1 1.00032 0.999448
1.0018 1 1.00248 0.999325
1.00509 1 1.00592 0.999175
0.999525 1 1.00014 0.999388
1.0008 1 1.00156 0.999245
1.00137 1 1.00221 0.999159
0.999224 1 1 0.999224
0.99944 1 1 0.99944
0.999378 1 1.00008 0.999299
0.999313 1 1 0.999313
0.999555 1 1 0.999555
0.999516 1 1 0.999516
0.9996 1 1 0.9996
0.999547 1 1 0.999547
0.999477 1 1 0.999477
0.999743 1 1 0.999743
0.999629 1 1 0.999629
0.99955 1 1 0.99955
0.999955 1 1 0.999955
0.999762 1 1 0.999762
0.999621 1 1 0.999621
0.999783 1 1 0.999783
0.999966 1 1 0.999966
1 1 1 1
0.999973 1 1 0.999973
1 1 1 1
1 1 1 1
1 1 1 1
1 1 1 1
1 1 1 1
0.999794 1 1 0.999794
0.999974 1 1 0.999974
0.999806 1 1 0.999806
1 1 1 1
0.999973 1 1 0.999973
0.999844 1 1 0.999844
1 1 1 1
1 1 1 1
0.999974 1 1 0.999974
1 1 1 1
1 1 1 1
1 1 1 1
1.02138 1.02299 0.998468 0.999953
1.02577 1.02683 0.999037 0.999932
1.01973 1.02078 0.999175 0.999798
0.99964 1 1 0.99964
0.999587 1 1 0.999587
0.999686 1 1 0.999686
0.999649 1 1 0.999649
0.99959 1 1 0.99959
0.999581 1 1 0.999581
0.999534 1 1 0.999534
1.02243 1.02489 0.997775 0.999823
1.0264 1.02919 0.997419 0.99987
1.02739 1.02982 0.997777 0.999863
0.997622 1.02316 0.975448 0.999585
0.990993 1.00082 0.991974 0.998197
0.980167 0.976028 1.00739 0.996872
0.972011 0.985642 0.98823 0.997917
0.983929 0.990242 0.995018 0.9986
0.98249 0.979255 1.00714 0.996189
0.970683 0.988255 0.984246 0.997941
0.990351 1.01258 0.97858 0.999454
0.978823 0.983617 0.995774 0.99935
0.975836 0.980605 0.999011 0.996121
0.983673 0.996683 0.988169 0.998763
0.979702 1.00185 0.978467 0.999415
0.99949 1 1 0.99949
0.999505 1 1 0.999505
0.999524 1 1 0.999524
0.999596 1 1 0.999596
1.00346 1.00489 0.99904 0.999529
1.01289 0.998436 1.01497 0.999513
0.999465 1 1 0.999465
0.999403 1 1 0.999403
0.999399 1 1 0.999399
0.999442 1 1 0.999442
0.999375 1 1 0.999375
1.00874 0.99471 1.01435 0.99976
0.999229 0.999124 1.00044 0.999667
0.999394 1 1 0.999394
1.01924 0.990343 1.02924 0.999943
1.00337 1 1.00395 0.99942
1.02488 1.02531 0.999645 0.999939
1.01542 1.01627 0.999185 0.999973
1.02279 1.02366 0.999198 0.999952
1.00428 0.999371 1.00511 0.999805
1.0055 0.99103 1.01449 1.0001
1.01974 1.02101 0.998792 0.999962
0.977918 0.975682 1.00607 0.996242
0.969118 0.983539 0.98738 0.997931
1.02851 1.03007 0.998619 0.99986
0.971415 0.995173 0.976879 0.99923
1.02723 0.99877 1.02863 0.999873
1.02567 1.02657 0.999189 0.999931
1.01579 1.01859 0.997571 0.999681
0.988281 0.99195 0.996346 0.999955
0.929021 0.961715 0.966913 0.999061
0.9571 0.976613 0.981605 0.998385
0.989309 0.98108 1.01184 0.996584
1.01423 0.998442 1.01598 0.999835
1.02061 1.02078 1.00004 0.999788
0.958523 0.970128 0.988666 0.999365
0.928128 0.950314 0.978035 0.998587
0.980475 0.976198 1.00822 0.996188
0.983168 0.991461 0.993058 0.998567
1.01446 1 1.01487 0.99959
1.02018 1 1.02066 0.999531
1.01553 1 1.0161 0.999438
1.00177 1 1.0023 0.999471
1.0107 1 1.01134 0.99936
1.00804 1 1.00887 0.99917
1.0022 1 1.0029 0.999305
1.00509 1 1.00594 0.999157
1.003 1 1.00394 0.999063
1.00127 1 1.00203 0.999241
1.00125 1 1.00211 0.999142
1.00078 1 1.00167 0.999114
0.999206 1 1 0.999206
0.99934 1 1 0.99934
0.999304 1 1.0001 0.999208
0.999521 1 1 0.999521
0.99945 1 1 0.99945
0.999439 1 1.00015 0.999285
0.999583 1 1 0.999583
0.99955 1 1 0.99955
0.999532 1 1 0.999532
0.999714 1 1 0.999714
0.999607 1 1 0.999607
0.999557 1 1 0.999557
0.999934 1 1 0.999934
0.999743 1 1 0.999743
0.999629 1 1 0.999629
1 1 1 1
0.999953 1 1 0.999953
0.999762 1 1 0.999762
0.999963 1 1 0.999963
1 1 1 1
1 1 1 1
1 1 1 1
1 1 1 1
1 1 1 1
0.999641 1 1 0.999641
0.999771 1 1 0.999771
0.999965 1 1 0.999965
0.999793 1 1 0.999793
1 1 1 1
0.999977 1 1 0.999977
0.999814 1 1 0.999814
1 1 1 1
1 1 1 1
0.999987 1 1 0.999987
1 1 1 1
1 1 1 1
1 1 1 1
1.02505 1.0258 0.999336 0.999934
1.02082 1.02204 0.998852 0.999957
1.02614 1.02726 0.998978 0.999932
0.999644 1 1 0.999644
0.99958 1 1 0.99958
0.999565 1 1 0.999565
0.999574 1 1 0.999574
0.999547 1 1 0.999547
0.999647 1 1 0.999647
0.999579 1 1 0.999579
0.999582 1 1 0.999582
0.999533 1 1 0.999533
0.999533 1 1 0.999533
1.01467 1.01583 0.999178 0.999686
1.02336 1.02611 0.997493 0.999826
1.02628 1.029 0.997465 0.999896
0.988688 1.01066 0.97879 0.999463
0.976631 0.990828 0.986892 0.998764
0.983368 0.988845 0.996248 0.998207
0.978997 0.980263 1.00244 0.996283
0.982768 0.983805 1.00045 0.998493
0.979744 0.97931 1.00422 0.996238
0.974678 0.990797 0.985338 0.998369
0.974494 0.999454 0.975642 0.999369
0.999172 0.98238 1.01841 0.998707
0.979069 0.981537 1.00113 0.996358
0.952367 0.974831 0.979011 0.997902
0.940218 0.971701 0.968469 0.999103
0.999564 1 1 0.999564
0.999491 1 1 0.999491
0.999503 1 1 0.999503
1.00064 0.993092 1.00784 0.999765
1.00012 1 1.00041 0.99971
0.999444 1 1 0.999444
0.999367 1 1 0.999367
0.999436 1 1.00003 0.999402
1.00386 1 1.00444 0.99942
1.01897 0.991927 1.02732 0.999945
1.00379 1 1.00435 0.99944
1.01142 0.997721 1.01406 0.999683
1.02062 1.02082 1 0.999798
1.02398 1.02445 0.999593 0.999946
1.01288 1.01364 0.999277 0.999978
1.02904 0.997946 1.03131 0.999855
0.987001 0.991018 0.997135 0.998808
1.02596 1.02695 0.999098 0.999931
0.9813 0.979263 1.00669 0.995423
0.954782 0.974424 0.981872 0.997933
1.01759 1.01898 0.998948 0.999684
0.925611 0.962167 0.962953 0.999018
1.01458 0.998779 1.01598 0.999838
1.02055 1.02087 0.999899 0.999791
0.955189 0.967765 0.987672 0.999324
0.980016 0.990458 0.990394 0.999055
0.930874 0.954284 0.977528 0.997894
0.980561 0.97729 1.00765 0.995731
0.996189 0.998314 0.998217 0.999654
0.971735 0.974554 0.997617 0.999488
0.92483 0.944698 0.981086 0.997843
0.975019 0.973154 1.00582 0.996121
0.998278 0.997211 1.00202 0.999053
1.02042 1 1.02091 0.999528
1.01806 1 1.01864 0.999436
0.998402 1 0.999116 0.999285
1.01095 1 1.01158 0.999378
1.00755 1 1.00837 0.999185
1.00163 1 1.00254 0.999096
1.00495 1 1.00582 0.999139
1.00263 1 1.00356 0.999066
0.999172 1 1.00003 0.999138
1.00111 1 1.00199 0.999124
1.00038 1 1.00126 0.999122
0.999221 1 1 0.999221
0.999289 1 1 0.999289
0.999285 1 1 0.999285
0.999212 1 1 0.999212
0.999443 1 1 0.999443
0.999321 1 1 0.999321
0.999389 1 1.0002 0.999192
0.999586 1 1 0.999586
0.999534 1 1 0.999534
0.999461 1 1 0.999461
0.999682 1 1 0.999682
0.999584 1 1 0.999584
0.999546 1 1 0.999546
0.999904 1 1 0.999904
0.999714 1 1 0.999714
0.999614 1 1 0.999614
1 1 1 1
0.999933 1 1 0.999933
0.999744 1 1 0.999744
1 1 1 1
1 1 1 1
0.999951 1 1 0.999951
1 1 1 1
1 1 1 1
1 1 1 1
0.999617 1 1 0.999617
0.999749 1 1 0.999749
0.999635 1 1 0.999635
0.999956 1 1 0.999956
0.999771 1 1 0.999771
1 1 1 1
0.999967 1 1 0.999967
0.999793 1 1 0.999793
1 1 1 1
1 1 1 1
0.99998 1 1 0.99998
1 1 1 1
1 1 1 1
1 1 1 1
1.01935 1.01953 1 0.99983
1.02608 1.02685 0.999312 0.999934
1.02026 1.02113 0.999182 0.999961
0.999572 1 1 0.999572
0.999649 1 1 0.999649
0.999573 1 1 0.999573
0.999582 1 1 0.999582
0.999571 1 1 0.999571
0.999547 1 1 0.999547
0.999528 1 1 0.999528
0.999531 1 1 0.999531
0.999582 1 1 0.999582
0.999531 1 1 0.999531
0.999532 1 1 0.999532
0.999521 1 1 0.999521
0.956564 0.972017 0.984889 0.9992
1.01371 1.01497 0.99907 0.999688
1.02461 1.02757 0.997295 0.999828
0.967736 0.994928 0.973383 0.999267
0.976054 0.992941 0.984946 0.998017
0.974677 0.97976 0.998674 0.996133
0.985377 0.980874 1.00516 0.999435
0.998354 0.980859 1.01823 0.999612
0.934434 0.967092 0.967135 0.999064
0.9819 0.980489 1.00564 0.995822
0.954001 0.974981 0.979747 0.998709
0.993687 0.989374 1.00478 0.999581
0.977635 0.975916 1.00531 0.99647
0.92924 0.950662 0.978831 0.998606
1.00009 1 1.00041 0.999682
0.999566 1 1 0.999566
0.999492 1 1 0.999492
1.01848 0.993442 1.02526 0.999944
1.00448 1 1.00506 0.999419
0.999461 1 1.00005 0.99941
1.00409 1 1.00465 0.999442
1.01092 0.998733 1.01251 0.999693
1.00907 1 1.00939 0.999689
0.970731 0.975278 0.996036 0.999299
1.02033 1.02052 0.999986 0.999832
1.02315 1.02359 0.999616 0.999952
1.01495 0.999163 1.01596 0.999843
0.981325 0.992458 0.989372 0.999404
1.02041 1.02097 0.999666 0.999793
0.983196 0.978472 1.0079 0.99695
0.934622 0.957063 0.977884 0.998638
0.950422 0.96809 0.982524 0.999212
0.995804 0.998934 0.997196 0.999669
0.966042 0.973556 0.992941 0.999336
0.932528 0.94541 0.987732 0.998626
0.998583 0.995705 1.00464 0.998262
0.976487 0.975562 1.00478 0.996184
0.99241 1.0063 0.986725 0.999466
0.933445 0.947461 0.986551 0.998637
0.973501 0.9732 1.00397 0.996352
1.00159 1.00363 0.999807 0.998156
1.02141 1 1.02199 0.999434
0.996113 1 0.996814 0.999297
0.991565 1.00018 0.992106 0.99927
1.00726 1 1.00807 0.999199
1.00161 1 1.00251 0.999099
0.999532 1.00027 1 0.999266
1.0023 1 1.00323 0.999069
0.999442 1 1.00029 0.999148
0.999356 1 1 0.999356
0.999972 1 1.00084 0.999129
0.999226 1 1 0.999226
0.999398 1 1 0.999398
0.999423 1 1 0.999423
0.999319 1 1 0.999319
0.999303 1 1 0.999303
0.999379 1 1 0.999379
0.999298 1 1 0.999298
0.999217 1 1 0.999217
0.999551 1 1 0.999551
0.999443 1 1 0.999443
0.999301 1 1 0.999301
0.999666 1 1 0.999666
0.999585 1 1 0.999585
0.999546 1 1 0.999546
0.999866 1 1 0.999866
0.999683 1 1 0.999683
0.999586 1 1 0.999586
1 1 1 1
0.999903 1 1 0.999903
0.999714 1 1 0.999714
1 1 1 1
1 1 1 1
0.999933 1 1 0.999933
1 1 1 1
1 1 1 1
1 1 1 1
0.999624 1 1 0.999624
0.99962 1 1 0.99962
0.999726 1 1 0.999726
0.999944 1 1 0.999944
0.999749 1 1 0.999749
0.99963 1 1 0.99963
1 1 1 1
0.999958 1 1 0.999958
0.999771 1 1 0.999771
1 1 1 1
1 1 1 1
0.99997 1 1 0.99997
1 1 1 1
1 1 1 1
1 1 1 1
0.971146 0.974153 0.997473 0.999438
1.01936 1.01953 1 0.999832
1.02706 1.02784 0.999304 0.999933
0.999566 1 1 0.999566
0.99958 1 1 0.99958
0.99954 1 1 0.99954
0.999589 1 1 0.999589
0.999577 1 1 0.999577
0.999546 1 1 0.999546
0.999532 1 1 0.999532
0.99953 1 1 0.99953
0.999497 1 1 0.999497
0.999525 1 1 0.999525
0.999531 1 1 0.999531
0.999523 1 1 0.999523
0.9326 0.947071 0.986048 0.998653
0.956664 0.970322 0.98669 0.999224
1.013 1.01426 0.99907 0.999691
0.928787 0.962933 0.96548 0.999025
0.951303 0.971758 0.981003 0.997909
0.989326 0.985379 1.00688 0.997144
1.00446 0.981057 1.02522 0.998666
0.994411 0.989649 1.00614 0.998679
0.932185 0.952526 0.980672 0.997933
0.981916 0.979302 1.00592 0.99677
0.995083 0.991103 1.00531 0.998712
0.977103 0.975776 1.00499 0.996385
1.0077 1 1.00819 0.999515
0.999945 1 1.00027 0.999678
0.999567 1 1 0.999567
1.00993 0.999343 1.0109 0.999703
1.00438 1 1.00494 0.999445
1.00884 1 1.00918 0.999665
1.0016 1.00067 1.00146 0.999472
0.933907 0.951245 0.983295 0.998452
0.971636 0.974842 0.997307 0.999403
1.01993 1.02015 0.999918 0.999865
0.994401 0.999203 0.995507 0.999686
0.999772 0.995059 1.00569 0.999047
0.967385 0.973903 0.993964 0.99934
0.977034 0.973963 1.00702 0.996161
0.929075 0.946131 0.984057 0.997882
0.993985 1.00607 0.988524 0.999458
0.934607 0.947858 0.987783 0.998215
0.973603 0.972148 1.00529 0.996227
1.00223 1.00092 1.00237 0.998933
1.00988 1.01168 0.998955 0.999258
0.962883 0.967187 0.99982 0.995729
0.998268 1.00177 0.997325 0.999175
0.993855 1 0.994543 0.999308
0.993189 1.00022 0.99371 0.999257
0.994373 1.00087 0.994182 0.999325
1.00151 1 1.00241 0.999102
0.999532 1.00036 0.999906 0.999264
1.00029 1.00136 0.999403 0.999532
0.999728 1 1.00057 0.999158
0.999357 1 1 0.999357
0.999794 1.00025 1 0.999545
0.999232 1 1 0.999232
0.999398 1 1 0.999398
0.999517 1 1 0.999517
0.999492 1 1 0.999492
0.999438 1 1 0.999438
0.999411 1 1 0.999411
0.999375 1 1 0.999375
0.999321 1 1 0.999321
0.999317 1 1 0.999317
0.999474 1 1 0.999474
0.999393 1 1 0.999393
0.99931 1 1 0.99931
0.999644 1 1 0.999644
0.999549 1 1 0.999549
0.999442 1 1 0.999442
0.999834 1 1 0.999834
0.999667 1 1 0.999667
0.999584 1 1 0.999584
1 1 1 1
0.999866 1 1 0.999866
0.999684 1 1 0.999684
1 1 1 1
1 1 1 1
0.999902 1 1 0.999902
1 1 1 1
1 1 1 1
1 1 1 1
0.999616 1 1 0.999616
0.999615 1 1 0.999615
0.999706 1 1 0.999706
0.999623 1 1 0.999623
0.999726 1 1 0.999726
0.999924 1 1 0.999924
1 1 1 1
0.999945 1 1 0.999945
0.999749 1 1 0.999749
1 1 1 1
1 1 1 1
0.99996 1 1 0.99996
1 1 1 1
1 1 1 1
1 1 1 1
0.940639 0.949573 0.992538 0.99804
0.96906 0.974254 0.995313 0.999353
1.01939 1.01956 1 0.999834
0.999561 1 1 0.999561
0.999537 1 1 0.999537
0.999585 1 1 0.999585
0.99958 1 1 0.99958
0.999543 1 1 0.999543
0.999534 1 1 0.999534
0.999531 1 1 0.999531
0.9995 1 1 0.9995
0.999524 1 1 0.999524
0.99949 1 1 0.99949
0.999644 1 1.00026 0.999387
0.999522 1 1 0.999522
0.999524 1 1 0.999524
0.972782 0.97684 1.00014 0.995711
0.937625 0.949372 0.989278 0.998332
0.956474 0.970141 0.986734 0.999167
0.934117 0.95327 0.98121 0.998672
0.978617 0.975664 1.00752 0.995536
0.997529 0.990795 1.0072 0.9996
0.997045 0.993432 1.00446 0.999177
0.977497 0.977222 1.00379 0.996501
0.991914 0.998972 0.994196 0.998731
1.00611 1.00132 1.0057 0.999091
1.00616 1 1.00666 0.999504
0.999674 1 1 0.999674
1.00768 1 1.00804 0.999642
1.00064 1.00095 1.00017 0.999516
0.956291 0.965271 0.994246 0.996429
0.937122 0.950503 0.987948 0.99795
0.972956 0.974498 0.998909 0.999508
0.995386 1.00615 0.989842 0.99945
1.00681 1.00481 1.00383 0.998169
0.938004 0.947913 0.991586 0.997943
0.974185 0.971796 1.00615 0.996335
1.0037 1.01068 0.993835 0.999251
0.965328 0.968808 0.999923 0.996485
0.999113 1.00395 0.996784 0.998394
1.00198 1.01033 0.992645 0.999084
0.998163 0.994719 1.00401 0.999451
0.993618 1.00022 0.994151 0.999243
0.994835 1.00075 0.994776 0.999311
1.00048 1.00567 0.995435 0.9994
0.9994 1.0004 0.999738 0.999261
0.99951 1.00084 0.999144 0.999527
1.00033 1.00167 0.99908 0.99959
0.99936 1 1 0.999359
0.999674 1.00015 0.999994 0.999535
0.999835 1.00029 0.999987 0.999559
0.999398 1 1 0.999398
0.99951 1 1 0.99951
0.999507 1 1 0.999507
0.999509 1 1 0.999509
0.999452 1 1 0.999452
0.999453 1 1 0.999453
0.999408 1 1 0.999408
0.999404 1 1 0.999404
0.999433 1 1 0.999433
0.999372 1 1 0.999372
0.999323 1 1 0.999323
0.999598 1 1 0.999598
0.999483 1 1 0.999483
0.999408 1 1 0.999408
0.999809 1 1 0.999809
0.999643 1 1 0.999643
0.999548 1 1 0.999548
1 1 1 1
0.999835 1 1 0.999835
0.999668 1 1 0.999668
1 1 1 1
1 1 1 1
0.999866 1 1 0.999866
1 1 1 1
1 1 1 1
1 1 1 1
0.999597 1 1 0.999597
0.999617 1 1 0.999617
0.999677 1 1 0.999677
0.999606 1 1 0.999606
0.999698 1 1 0.999698
0.999893 1 1 0.999893
0.999726 1 1 0.999726
0.999924 1 1 0.999924
1 1 1 1
1 1 1 1
1 1 1 1
0.999947 1 1 0.999947
1 1 1 1
1 1 1 1
1 1 1 1
0.966932 0.970669 0.999671 0.996477
0.936661 0.952033 0.985279 0.998553
0.971879 0.975037 0.997347 0.999413
0.999533 1 1 0.999533
0.99959 1 1 0.99959
0.999546 1 1 0.999546
0.99958 1 1 0.99958
0.999555 1 1 0.999555
0.99956 1 1 0.99956
0.999503 1 1 0.999503
0.999512 1 1 0.999512
0.999488 1 1 0.999488
0.999497 1 1 0.999497
0.999416 1 1 0.999416
0.999208 1 1.00011 0.999094
0.999452 1 1.00006 0.999395
0.999519 1 1 0.999519
0.990045 0.994079 0.996926 0.999012
0.971212 0.973864 1.00093 0.996354
0.931683 0.949018 0.983804 0.997895
0.975688 0.975106 1.00431 0.996305
0.992974 0.991927 1.00142 0.999634
0.992807 0.997044 0.996317 0.999432
0.997216 1.00472 0.993324 0.999201
1.00318 1.00065 1.00337 0.999154
1.00512 1 1.00563 0.999493
0.998562 1.00108 0.997932 0.999556
0.987315 0.986386 1.00238 0.998561
0.962754 0.966874 0.999138 0.996598
0.935548 0.950791 0.985321 0.998627
1.00012 1.00962 0.991335 0.999245
1.00553 1.00747 0.999026 0.999052
0.966587 0.96849 1.00077 0.997269
0.998855 1.00817 0.991649 0.999103
0.994891 0.995287 1.00046 0.999138
0.997091 1.01025 0.987768 0.999192
1.00709 1.00543 1.00249 0.999168
0.99606 1.0006 0.996167 0.999298
1.00041 1.00528 0.995756 0.9994
1.00148 1.00479 0.997308 0.999399
0.999037 1.00048 0.999038 0.999522
1.00018 1.00139 0.999214 0.999583
1.00006 1.00082 0.999799 0.999438
0.999525 1 1 0.999525
0.999675 1.00012 1 0.99955
0.999426 1 1 0.999426
0.999504 1 1 0.999504
0.999512 1 1 0.999512
0.99942 1 1 0.99942
0.999525 1 1 0.999525
0.999461 1 1 0.999461
0.999411 1 1 0.999411
0.999405 1 1 0.999405
0.999401 1 1 0.999401
0.999436 1 1 0.999436
0.999536 1 1 0.999536
0.999442 1 1 0.999442
0.999369 1 1 0.999369
0.999773 1 1 0.999773
0.999598 1 1 0.999598
0.999493 1 1 0.999493
0.999996 1 1 0.999996
0.999809 1 1 0.999809
0.999642 1 1 0.999642
1 1 1 1
0.999999 1 1 0.999999
0.999835 1 1 0.999835
1 1 1 1
1 1 1 1
1 1 1 1
0.999577 1 1 0.999577
0.999603 1 1 0.999603
0.99966 1 1 0.99966
0.999617 1 1 0.999617
0.999675 1 1 0.999675
0.999859 1 1 0.999859
0.99969 1 1 0.99969
0.999893 1 1 0.999893
1 1 1 1
0.999925 1 1 0.999925
1 1 1 1
1 1 1 1
1 1 1 1
1 1 1 1
1 1 1 1
0.983691 0.986272 0.998432 0.998949
0.960968 0.967849 0.996445 0.996434
0.934464 0.951688 0.983956 0.997913
0.999506 1 1 0.999506
0.999549 1 1 0.999549
0.99958 1 1 0.99958
0.999558 1 1 0.999558
0.999552 1 1 0.999552
0.999592 1 1 0.999592
0.999501 1 1 0.999501
0.999485 1 1 0.999485
0.99951 1 1 0.99951
0.999442 1 1 0.999442
0.999232 1 1 0.999232
1.00168 1.00281 1 0.99887
0.999226 1 1.00013 0.999098
0.999404 1 1 0.999404
0.999137 1.00381 0.996052 0.999286
0.990855 0.995444 0.996723 0.998662
0.972868 0.974818 1.00095 0.997057
0.995523 0.998481 0.998346 0.998689
1.00159 1.00578 0.996688 0.999136
1.00163 1.00011 1.00231 0.999219
0.999816 1.00034 1.00002 0.999459
0.98843 0.985341 1.00393 0.999206
0.959676 0.966694 0.99626 0.996467
0.99428 1.00592 0.989299 0.999121
0.992324 0.995412 0.998108 0.998788
0.998923 1.01021 0.989643 0.999173
1.00537 1.00476 1.00136 0.999251
1.0079 1.00927 0.999492 0.999156
1.0029 1.0038 1 0.999103
1.00021 1.00491 0.995914 0.999401
1.00269 1.00516 0.998138 0.999404
0.999562 1.00028 1 0.999279
1.00001 1.00105 0.999384 0.999576
1.00034 1.00095 0.999957 0.999436
0.999335 1.00005 1 0.999285
0.999542 1 1 0.999542
0.999444 1 1 0.999444
0.999319 1 1 0.999319
0.999517 1 1 0.999517
0.999421 1 1 0.999421
0.999366 1 1 0.999366
0.99947 1 1 0.99947
0.999414 1 1 0.999414
0.999411 1 1 0.999411
0.999398 1 1 0.999398
0.999429 1 1 0.999429
0.99951 1 1 0.99951
0.999729 1 1 0.999729
0.999546 1 1 0.999546
0.999451 1 1 0.999451
0.999985 1 1 0.999985
0.999773 1 1 0.999773
0.999597 1 1 0.999597
1 1 1 1
0.999993 1 1 0.999993
0.999809 1 1 0.999809
1 1 1 1
0.999998 1 1 0.999998
1 1 1 1
0.999532 1 1 0.999532
0.999578 1 1 0.999578
0.999645 1 1 0.999645
0.999609 1 1 0.999609
0.999665 1 1 0.999665
0.999829 1 1 0.999829
0.999673 1 1 0.999673
0.999859 1 1 0.999859
1 1 1 1
0.999894 1 1 0.999894
1 1 1 1
1 1 1 1
1 1 1 1
1 1 1 1
1 1 1 1
1.00051 1.00392 0.997094 0.999507
0.983376 0.987573 0.997459 0.998288
0.964258 0.968098 0.99951 0.996522
0.999532 1 1 0.999532
0.9994 1 1 0.9994
0.999514 1 1 0.999514
0.999557 1 1 0.999557
0.999549 1 1 0.999549
0.999581 1 1 0.999581
0.999303 1 1 0.999303
0.999523 1 1 0.999523
0.999468 1 1 0.999468
0.999241 1 1 0.999241
0.999555 1.00059 1 0.998964
1.00315 1.00455 0.999519 0.999088
1.00107 1.00219 1 0.998882
0.999102 1 1 0.999102
1.00121 1.00567 0.996245 0.999313
0.988909 0.994916 0.995707 0.998247
1.00432 1.00657 0.998684 0.999071
1.00008 1.00061 1 0.999468
1.00076 1.00012 1.00116 0.999486
0.986502 0.98512 1.00298 0.998427
1.00118 1.01048 0.991634 0.999154
1.00362 1.00402 1.00027 0.999337
1.00809 1.00974 0.999187 0.999173
1.00354 1.00441 1 0.999138
1.00127 1.00209 1 0.999183
1.00098 1.00165 1 0.999328
1.00392 1.00557 0.998947 0.99941
0.999705 1.00042 1 0.999286
0.999201 1.00002 1 0.999186
1.00047 1.00103 1 0.999434
0.99939 1.00009 1 0.999296
0.999221 1 1 0.999221
0.999462 1 1 0.999462
0.999317 1 1 0.999317
0.99928 1 1 0.99928
0.999421 1 1 0.999421
0.999366 1 1 0.999366
0.999365 1 1 0.999365
0.999417 1 1 0.999417
0.999412 1 1 0.999412
0.999479 1 1 0.999479
0.999423 1 1 0.999423
0.999507 1 1 0.999507
0.999689 1 1 0.999689
0.999968 1 1 0.999968
0.999729 1 1 0.999729
0.999556 1 1 0.999556
1 1 1 1
0.99998 1 1 0.99998
0.999772 1 1 0.999772
1 1 1 1
0.99999 1 1 0.99999
1 1 1 1
0.999446 1 1 0.999446
0.999523 1 1 0.999523
0.999608 1 1 0.999608
0.999579 1 1 0.999579
0.999645 1 1 0.999645
0.999803 1 1 0.999803
0.999669 1 1 0.999669
0.999829 1 1 0.999829
0.999999 1 1 0.999999
0.999859 1 1 0.999859
1 1 1 1
1 1 1 1
1 1 1 1
1 1 1 1
1 1 1 1
1.00051 1.00175 0.999381 0.999381
0.999422 1.00285 0.997079 0.999496
0.983048 0.986214 0.997903 0.998884
0.999353 1 1 0.999353
0.999578 1 1 0.999578
0.999262 1 1 0.999262
0.999393 1 1 0.999393
0.999522 1 1 0.999522
0.999692 1.00063 1 0.999062
0.999569 1 1 0.999569
0.999297 1 1 0.999297
1.00008 1.00104 1 0.999045
0.99925 1 1 0.99925
0.99966 1.00072 1 0.998943
1.00266 1.00391 0.999671 0.999082
1.00024 1.00134 1 0.998895
1.00289 1.00699 0.996584 0.999339
1.00028 1.00082 1 0.999456
0.999903 1.00044 1 0.999465
1.00175 1 1.00224 0.999513
1.00834 1.01026 0.998911 0.99919
1.00435 1.00518 1 0.999172
1.00164 1.00247 1 0.999177
1.00142 1.0021 1 0.999327
0.999885 1.00061 1 0.999277
0.999859 1.00057 1 0.999292
0.999198 1.00001 1 0.999192
0.999185 1 1 0.999185
0.999448 1.00014 1 0.999307
0.999217 1 1 0.999217
0.999206 1 1 0.999206
0.999316 1 1 0.999316
0.999278 1 1 0.999278
0.999294 1 1 0.999294
0.999365 1 1 0.999365
0.999365 1 1 0.999365
0.999428 1 1 0.999428
0.999412 1 1 0.999412
0.99948 1 1 0.99948
0.99965 1 1 0.99965
0.999503 1 1 0.999503
0.999689 1 1 0.999689
0.999952 1 1 0.999952
1 1 1 1
0.999963 1 1 0.999963
0.999729 1 1 0.999729
1 1 1 1
0.999975 1 1 0.999975
1 1 1 1
0.999289 1 1 0.999289
0.999375 1 1 0.999375
0.999436 1 1 0.999436
0.999563 1 1 0.999563
0.999514 1 1 0.999514
0.999609 1 1 0.999609
0.999779 1 1 0.999779
0.999646 1 1 0.999646
0.999803 1 1 0.999803
0.999992 1 1 0.999992
0.999828 1 1 0.999828
0.999999 1 1 0.999999
1 1 1 1
1 1 1 1
1 1 1 1
1 1 1 1
1.00021 1.00092 1 0.999296
1.00175 1.00278 0.999567 0.999399
0.999065 1.00252 0.997069 0.999486
0.999311 1.00017 1 0.99914
0.999394 1 1 0.999394
0.999624 1 1 0.999624
0.999279 1 1 0.999279
0.999386 1 1 0.999386
1.00036 1.00135 1 0.999012
0.999619 1.00058 1 0.999042
0.99929 1 1 0.99929
1.0002 1.00116 1 0.999038
0.999747 1.00083 1 0.998921
1.00278 1.00392 0.99979 0.999077
1.00038 1.00101 1 0.999371
1.00015 1.0007 1 0.999445
0.999616 1.00015 1 0.999462
1.0019 1.00273 1 0.999172
1.00176 1.00243 1 0.999326
0.999911 1.00063 1 0.999278
0.999434 1.00019 1 0.999244
0.999197 1 1 0.999197
0.99918 1 1 0.99918
0.999197 1 1 0.999197
0.999213 1 1 0.999213
0.999205 1 1 0.999205
0.999236 1 1 0.999236
0.999276 1 1 0.999276
0.999293 1 1 0.999293
0.999365 1 1 0.999365
0.999364 1 1 0.999364
0.999428 1 1 0.999428
0.9996 1 1 0.9996
0.99948 1 1 0.99948
0.999649 1 1 0.999649
0.999939 1 1 0.999939
0.999689 1 1 0.999689
0.999948 1 1 0.999948
1 1 1 1
1 1 1 1
0.999958 1 1 0.999958
1 1 1 1
0.999168 1 1 0.999168
0.999362 1 1 0.999362
0.999348 1 1 0.999348
0.999498 1 1 0.999498
0.999374 1 1 0.999374
0.999425 1 1 0.999425
0.999564 1 1 0.999564
0.999746 1 1 0.999746
0.999611 1 1 0.999611
0.999779 1 1 0.999779
0.99998 1 1 0.99998
0.999803 1 1 0.999803
0.999995 1 1 0.999995
1 1 1 1
1 1 1 1
1 1 1 1
1 1 1 1
1.00071 1.00152 1 0.999197
1.00017 1.00088 1 0.999294
1.00264 1.00343 0.999796 0.999417
0.999789 1.00073 1 0.999058
0.999314 1.00017 1 0.999142
0.999434 1 1 0.999434
0.999296 1 1 0.999296
1.00041 1.0014 1 0.999013
0.999639 1.00062 1 0.999022
1.0003 1.00127 1 0.999032
1.00073 1.00145 1 0.999287
1.00041 1.00107 1 0.999347
0.99996 1.00053 1 0.999434
1.00001 1.00079 1 0.999223
0.999999 1.00072 1 0.999279
0.999487 1.00024 1 0.999243
0.999224 1 1 0.999224
0.999176 1 1 0.999176
0.999197 1 1 0.999197
0.999219 1 1 0.999219
0.999204 1 1 0.999204
0.999236 1 1 0.999236
0.999317 1 1 0.999317
0.999291 1 1 0.999291
0.999365 1 1 0.999365
0.999544 1 1 0.999544
0.999428 1 1 0.999428
0.999599 1 1 0.999599
0.999926 1 1 0.999926
0.999649 1 1 0.999649
0.999935 1 1 0.999935
1 1 1 1
0.999944 1 1 0.999944
1 1 1 1
1 1 1 1
0.999109 1.00002 1 0.999092
0.999242 1 1 0.999242
0.999189 1 1 0.999189
0.999452 1 1 0.999452
0.999361 1 1 0.999361
0.999407 1 1 0.999407
0.999685 1 1 0.999685
0.999497 1 1 0.999497
0.999373 1 1 0.999373
0.999565 1 1 0.999565
0.999747 1 1 0.999747
0.999964 1 1 0.999964
0.999779 1 1 0.999779
0.999984 1 1 0.999984
1 1 1 1
0.999997 1 1 0.999997
1 1 1 1
1 1 1 1
1.00036 1.0012 1 0.999168
1.00099 1.00182 1 0.999179
1.00023 1.00093 1 0.999292
0.999608 1.00056 1 0.999053
0.999312 1.00017 1 0.999144
1.00032 1.00131 1 0.999013
1.00089 1.00168 1 0.999216
1.00084 1.00155 1 0.999287
1.00048 1.00116 1 0.999324
0.999864 1.00064 1 0.999224
0.999569 1.00037 1 0.999202
0.999523 1.00028 1 0.999241
0.999225 1 1 0.999225
0.999231 1 1 0.999231
0.999198 1 1 0.999198
0.999221 1 1 0.999221
0.999294 1 1 0.999294
0.999236 1 1 0.999236
0.999317 1 1 0.999317
0.999504 1 1 0.999504
0.999364 1 1 0.999364
0.999543 1 1 0.999543
0.999912 1 1 0.999912
0.999598 1 1 0.999598
0.999923 1 1 0.999923
0.999998 1 1 0.999998
0.999932 1 1 0.999932
1 1 1 1
1 1 1 1
0.999185 1.00002 1 0.999169
0.999152 1 1 0.999152
0.999105 1.00002 1 0.999086
0.999357 1 1 0.999357
0.999252 1 1 0.999252
0.999211 1 1 0.999211
0.999615 1 1 0.999615
0.999433 1 1 0.999433
0.999359 1 1 0.999359
0.999942 1 1 0.999942
0.999686 1 1 0.999686
0.999497 1 1 0.999497
0.999747 1 1 0.999747
0.999969 1 1 0.999969
1 1 1 1
0.999988 1 1 0.999988
1 1 1 1
1 1 1 1
0.999896 1.00073 1 0.999165
1.00028 1.00111 1 0.999163
1.00126 1.0021 1 0.999161
0.999484 1.00044 1 0.999049
1.00022 1.00104 1 0.999174
1.00094 1.00172 1 0.999222
1.00097 1.00169 1 0.999287
0.99968 1.00046 1 0.999225
0.999663 1.00046 1 0.999202
0.999292 1.00007 1 0.999221
0.999225 1 1 0.999225
0.999235 1 1 0.999235
0.999282 1 1 0.999282
0.999222 1 1 0.999222
0.999294 1 1 0.999294
0.999484 1 1 0.999484
0.999316 1 1 0.999316
0.999504 1 1 0.999504
0.999899 1 1 0.999899
0.999542 1 1 0.999542
0.999908 1 1 0.999908
1 1 1 1
0.999919 1 1 0.999919
0.999999 1 1 0.999999
1 1 1 1
0.999228 1.00004 1 0.999187
0.999186 1 1 0.999186
0.999182 1.00001 1 0.999171
0.999256 1 1 0.999256
0.999165 1 1 0.999165
0.999102 1.00002 1 0.999079
0.999518 1 1 0.999518
0.999356 1 1 0.999356
0.999262 1 1 0.999262
0.999916 1 1 0.999916
0.999598 1 1 0.999598
0.999414 1 1 0.999414
1 1 1 1
0.999949 1 1 0.999949
0.999687 1 1 0.999687
0.999974 1 1 0.999974
1 1 1 1
1 1 1 1
0.999809 1.00064 1 0.999173
1.0001 1.00093 1 0.999173
1.00014 1.00098 1 0.999158
0.999436 1.00026 1 0.999175
1.00018 1.00101 1 0.999171
1.00098 1.00175 1 0.999227
0.999774 1.00057 1 0.999202
0.999291 1.00007 1 0.999221
0.999288 1 1 0.999288
0.999239 1 1 0.999239
0.999297 1 1 0.999297
0.999441 1 1 0.999441
0.999295 1 1 0.999295
0.999484 1 1 0.999484
0.999888 1 1 0.999888
0.999503 1 1 0.999503
0.999897 1 1 0.999897
1 1 1 1
0.999904 1 1 0.999904
0.999999 1 1 0.999999
0.999999 1 1 0.999999
0.999251 1.00006 1 0.999195
0.999218 1 1 0.999218
0.999249 1.00006 1 0.999187
0.999269 1 1 0.999269
0.999191 1 1 0.999191
0.999179 1.00001 1 0.999173
0.999456 1 1 0.999456
0.999277 1 1 0.999277
0.999178 1 1 0.999178
0.999897 1 1 0.999897
0.999509 1 1 0.999509
0.999355 1 1 0.999355
1 1 1 1
0.999923 1 1 0.999923
0.999581 1 1 0.999581
1 1 1 1
0.999956 1 1 0.999956
1 1 1 1
0.999348 1.00016 1 0.999187
0.999712 1.00054 1 0.999174
1.00033 1.00115 1 0.999181
0.999245 1 1 0.999245
0.999378 1.0002 1 0.999178
1.00016 1.001 1 0.999167
0.999295 1.00007 1 0.999221
0.999289 1 1 0.999289
0.999413 1 1 0.999413
0.999313 1 1 0.999313
0.999455 1 1 0.999455
0.999867 1 1 0.999867
0.999484 1 1 0.999484
0.999886 1 1 0.999886
1 1 1 1
0.999896 1 1 0.999896
1 1 1 1
0.999998 1 1 0.999998
0.999224 1 1 0.999224
0.999223 1.00003 1 0.999193
0.999276 1 1 0.999276
0.999219 1 1 0.999219
0.999271 1.00008 1 0.999188
0.999459 1 1 0.999459
0.999268 1 1 0.999268
0.999196 1 1 0.999196
0.999884 1 1 0.999884
0.999466 1 1 0.999466
0.999298 1 1 0.999298
1 1 1 1
0.999901 1 1 0.999901
0.999501 1 1 0.999501
1 1 1 1
0.999929 1 1 0.999929
1 1 1 1
0.99926 1 1 0.99926
0.999264 1.00007 1 0.99919
0.999588 1.00041 1 0.999176
0.999385 1 1 0.999385
0.999245 1 1 0.999245
0.9993 1.00012 1 0.99918
0.999289 1 1 0.999289
0.999418 1 1 0.999418
0.999839 1 1 0.999839
0.999469 1 1 0.999469
0.999865 1 1 0.999865
1 1 1 1
0.999885 1 1 0.999885
1 1 1 1
1 1 1 1
0.99927 1 1 0.99927
0.99922 1 1 0.99922
0.999192 1 1 0.999192
0.999451 1 1 0.999451
0.999275 1 1 0.999275
0.999219 1 1 0.999219
0.999874 1 1 0.999874
0.999458 1 1 0.999458
0.999266 1 1 0.999266
1 1 1 1
0.999887 1 1 0.999887
0.999476 1 1 0.999476
1 1 1 1
0.999905 1 1 0.999905
1 1 1 1
0.999414 1 1 0.999414
0.999245 1 1 0.999245
0.999193 1 1 0.999193
0.99982 1 1 0.99982
0.999388 1 1 0.999388
0.999245 1 1 0.999245
0.999422 1 1 0.999422
0.999837 1 1 0.999837
1 1 1 1
0.999863 1 1 0.999863
1 1 1 1
1 1 1 1
0.999435 1 1 0.999435
0.999264 1 1 0.999264
0.999215 1 1 0.999215
0.999869 1 1 0.999869
0.99945 1 1 0.99945
0.999275 1 1 0.999275
1 1 1 1
0.999875 1 1 0.999875
0.999457 1 1 0.999457
1 1 1 1
0.999889 1 1 0.999889
1 1 1 1
0.999816 1 1 0.999816
0.999403 1 1 0.999403
0.999231 1 1 0.999231
1 1 1 1
0.999819 1 1 0.999819
0.99939 1 1 0.99939
0.999836 1 1 0.999836
1 1 1 1
1 1 1 1
0.999848 1 1 0.999848
0.999435 1 1 0.999435
0.999259 1 1 0.999259
1 1 1 1
0.999861 1 1 0.999861
0.999449 1 1 0.999449
1 1 1 1
0.999875 1 1 0.999875
1 1 1 1
0.999968 1 1 0.999968
0.999829 1 1 0.999829
0.999391 1 1 0.999391
1 1 1 1
0.999819 1 1 0.999819
1 1 1 1
0.999977 1 1 0.999977
0.999846 1 1 0.999846
0.999435 1 1 0.999435
0.999991 1 1 0.999991
0.99986 1 1 0.99986
1 1 1 1
1 1 1 1
0.999822 1 1 0.999822
1 1 1 1
0.999986 1 1 0.999986
0.99984 1 1 0.99984
1 1 1 1
1 1 1 1
1 1 1 1

VECTORS lamdaE float
0.99896 1.00011 0.996807
0.999154 0.999165 0.998739
0.998888 1.0002 0.996861
0.999319 1.00005 0.996406
0.998974 1.00026 0.996695
0.999066 0.999707 0.996963
0.999646 1.0007 0.994779
0.999185 0.999041 0.998775
0.998873 1.0003 0.998631
0.99891 0.999608 0.998772
0.999332 0.998669 0.997462
0.999648 1.00037 0.994846
0.999609 0.999992 0.996016
0.999248 0.999908 0.996519
0.998808 1.00033 0.996922
0.999225 1.00009 0.996485
0.999006 0.999767 0.997019
0.998893 1.00035 0.996762
0.999703 1.00066 0.994779
0.9995 0.99999 0.998288
0.999423 0.99996 0.996349
0.999123 1.0002 0.996553
1.00047 1.00006 0.993985
0.99988 1.00055 0.994529
0.999246 0.9991 0.99722
0.999485 1.00067 0.995068
1.0009 1.00117 0.992045
0.999214 0.998909 0.998812
0.998924 1.00025 0.997645
0.998977 0.999689 0.997891
0.999314 0.99853 0.998883
0.999589 1.00045 0.994848
0.999154 1.00028 0.996543
0.998973 1.00029 0.996863
1.00008 1.00049 0.994841
0.999383 0.998037 0.99908
0.999707 1.00048 0.995387
0.999596 1.00009 0.995196
1.00026 1.00162 0.99248
0.999504 0.997575 0.999177
0.999584 1 0.998217
0.999321 0.999969 0.997443
0.999716 0.999999 0.998112
0.999314 0.999916 0.996398
1.0009 1.00001 0.992741
0.999165 1.00012 0.998548
1.00065 0.999961 0.99434
0.999132 1.00012 0.996562
0.998804 1.00049 0.996823
0.998947 0.99982 0.997085
0.999762 1.00059 0.994774
0.999476 0.999976 0.997261
0.999334 0.99995 0.996426
0.999207 0.999087 0.997277
0.999029 1.00027 0.996631
1.00051 1.00005 0.993966
0.999535 1.00063 0.99507
0.999935 1.00051 0.994526
1.00097 1.00119 0.99197
0.999591 1 0.99821
0.99945 0.999962 0.996286
1.00075 0.99999 0.994057
1.00059 0.999917 0.993919
1.00018 1.00032 0.99424
1.00243 1.00002 0.99043
1.00139 1.00071 0.99134
0.999464 0.99841 0.997529
0.999388 1.00039 0.995515
1.0004 1.00155 0.992548
1.00162 1.00127 0.990232
0.998949 1.00016 0.99857
0.999345 0.998387 0.998952
0.999038 0.999451 0.998719
0.999529 1.00054 0.994848
0.999165 1.00022 0.998474
0.998934 1.00006 0.998616
0.999964 1.00054 0.993977
0.999404 0.998094 0.998414
0.999622 1.00062 0.994602
0.999567 1.00005 0.99562
1.00026 1.00161 0.992468
0.999464 0.997811 0.999106
0.999672 0.998753 0.996414
1.00033 1.00024 0.993653
0.999824 1.00065 0.994257
1.00151 1.00072 0.990963
0.999572 0.999548 0.996387
1.00054 1.00133 0.992252
1.00007 1.00176 0.992701
1.00071 1.00185 0.991324
0.999557 0.997299 0.999238
0.9995 0.997528 0.999198
0.999344 1.00003 0.998418
0.999521 1 0.998271
0.999688 1 0.998135
0.999395 0.999982 0.997335
1.00088 1.00001 0.993336
0.999207 1.00006 0.997509
1.00061 0.999948 0.993891
0.999711 0.999997 0.998122
1.00104 0.999972 0.992475
1.00076 0.999982 0.994132
1.00292 0.999761 0.989228
1.00051 1.00004 0.994489
1.00255 0.999892 0.989812
0.999551 0.999958 0.996134
0.999246 0.99993 0.996502
0.999162 0.999044 0.99734
0.998937 1.00036 0.996704
1.00054 1.00005 0.993947
0.999993 1.00044 0.994528
0.999586 1.00059 0.995066
1.00104 1.00122 0.991895
0.999643 0.999999 0.998173
0.999365 0.999935 0.996374
1.0008 0.999967 0.993234
1.00063 0.999907 0.993887
0.999405 0.998368 0.998233
0.999464 1.00034 0.995625
1.00023 1.00029 0.994234
1.00242 1.00002 0.990326
1.00048 1.00158 0.99247
1.00143 1.00075 0.991408
1.00162 1.00127 0.990236
1.00094 0.999999 0.992648
1.00061 0.999919 0.99387
1.00278 0.999778 0.989725
1.00257 0.99976 0.990145
1.002 1.00031 0.990677
1.00339 0.999782 0.988617
0.999488 0.997937 0.999056
1.00215 1.00076 0.989709
0.999561 0.999904 0.995452
1.00002 1.0017 0.992747
1.00112 1.00186 0.990711
1.00208 1.00119 0.989451
0.999689 0.999024 0.996049
1.00008 1.00066 0.993761
0.999094 1.00019 0.998494
0.998913 0.999897 0.998654
0.999925 1.00057 0.99399
0.999422 0.998016 0.999071
0.999524 1.00009 0.995292
0.999547 1.00073 0.994593
1.00026 1.0016 0.992455
0.999461 0.997784 0.999129
0.999678 0.998702 0.996435
1.0003 1.00022 0.99416
0.999744 1.00065 0.994724
1.00151 1.00071 0.990981
0.999581 0.999514 0.995812
1.00052 1.00132 0.992259
1.00006 1.00176 0.992694
1.00072 1.00185 0.991288
0.999613 0.999136 0.996126
0.999748 0.998364 0.996669
1.00002 1.00054 0.993959
1.00204 1.0003 0.990367
1.00094 1.0011 0.991709
1.00229 1.00079 0.989432
1.00006 1.00141 0.993056
1.00106 1.00145 0.991059
1.00043 1.00236 0.991481
1.00087 1.00212 0.990845
0.999632 0.997027 0.999282
0.999563 0.997248 0.999253
0.9995 0.997477 0.999218
0.999735 0.998669 0.996341
0.999522 0.997697 0.999129
0.999238 1.00011 0.998454
0.99942 1 0.998361
1.00058 0.999918 0.993409
1.00083 1.00001 0.992841
0.999649 1 0.998165
0.999719 0.999999 0.99811
1.00103 0.999978 0.992488
1.0007 0.999988 0.993687
1.00291 0.999764 0.989233
1.00045 1.00001 0.993558
1.00254 0.999903 0.989812
1.00107 0.99996 0.992406
1.00318 0.999702 0.988769
1.00269 0.999805 0.98962
1.00389 0.999451 0.987717
1.00236 1.00003 0.990012
1.0035 0.999563 0.98837
0.99968 0.999995 0.998138
0.999277 0.999896 0.996465
1.00081 0.999947 0.992456
1.00066 0.99991 0.993856
0.999319 0.998302 0.998973
0.999538 1.00032 0.995732
1.00027 1.00025 0.99423
1.00241 1.00001 0.990222
1.00147 1.0008 0.991476
1.00055 1.00163 0.992392
1.00162 1.00127 0.99024
1.00095 0.999986 0.992634
1.00065 0.999905 0.99384
1.00277 0.999763 0.989519
1.00258 0.999805 0.990234
0.99947 0.997974 0.999028
0.999562 0.999877 0.995775
1.00009 1.00172 0.992844
1.00197 1.00035 0.990685
1.00339 0.999723 0.988482
1.00106 1.00186 0.990697
1.0022 1.00077 0.989756
1.00207 1.00119 0.98946
0.99967 0.999087 0.996037
1.00008 1.00064 0.993758
1.00309 0.99972 0.98893
1.00258 0.999754 0.99012
1.00373 0.999542 0.988207
1.0036 0.999345 0.988258
1.0028 1.00023 0.989132
1.00392 0.999284 0.98799
0.999626 0.99942 0.99574
1.00272 1.00052 0.988889
1 1.00155 0.992937
1.0005 1.00214 0.991299
1.00157 1.00199 0.989959
1.00243 1.00096 0.989124
1.00009 1.00113 0.993284
1.00009 1.00012 0.994276
1.00026 1.00175 0.992343
1.00024 1.00024 0.993719
0.999457 0.997749 0.999152
0.999682 0.99866 0.996456
0.99965 1.00077 0.994332
1.00149 1.0007 0.990999
0.999578 0.999472 0.995784
1.00004 1.00175 0.992688
1.00051 1.00131 0.992267
1.00072 1.00184 0.991251
0.999624 0.999078 0.996141
0.999743 0.998343 0.996684
1.00002 1.00056 0.993964
1.00203 1.00031 0.990374
1.00092 1.00109 0.991731
1.00229 1.00079 0.989435
1.00003 1.00145 0.993056
1.00108 1.00145 0.991103
1.00043 1.00236 0.991477
1.00085 1.00213 0.990799
0.999819 0.998055 0.996845
1.00007 1.00096 0.993462
1.00002 1.00005 0.994467
1.00019 1.00158 0.992643
1.00291 1.0002 0.988822
1.00157 1.00126 0.990374
1.00275 1.00068 0.988657
1.00031 1.00221 0.99188
1.00134 1.0015 0.990582
1.00045 1.00308 0.990703
1.00101 1.00206 0.990416
1.00014 0.999083 0.99522
0.999932 0.997639 0.997039
0.999714 0.996794 0.999312
0.999644 0.996986 0.999292
0.99957 0.997199 0.999268
0.999791 0.998342 0.996575
0.999558 0.997443 0.999193
0.999731 0.998713 0.99632
0.999523 0.997727 0.999107
1.00046 0.999988 0.99356
1.00068 0.99997 0.993181
1.00253 0.999914 0.989811
1.0029 0.999769 0.989237
1.00102 0.999984 0.992499
0.999729 1 0.998104
1.00108 0.999965 0.9924
1.00318 0.9997 0.988774
1.00268 0.999818 0.989619
1.00389 0.999458 0.987719
1.00236 1.00005 0.990014
1.0035 0.999559 0.988369
1.00325 0.999669 0.988674
1.0042 0.999377 0.987203
1.00367 0.99946 0.988148
1.0043 0.999075 0.987332
1.00327 0.999801 0.988543
1.00401 0.999048 0.987912
1.00097 0.999975 0.992618
1.00069 0.999906 0.993808
1.00275 0.999742 0.989314
1.00259 0.999842 0.990323
0.999455 0.998024 0.999001
0.999578 0.999873 0.996083
1.00018 1.00172 0.992939
1.00195 1.00039 0.990694
1.00337 0.999662 0.988346
1.00226 1.00078 0.989803
1.00099 1.00185 0.990683
1.00207 1.00118 0.989468
0.999655 0.999149 0.996023
1.00008 1.00063 0.993754
1.00306 0.999707 0.988869
1.0026 0.999749 0.990114
1.00374 0.999515 0.988131
1.0036 0.999418 0.988392
0.999617 0.999481 0.995739
1.00003 1.00157 0.992939
1.0005 1.00211 0.991396
1.00284 1.00027 0.989121
1.00392 0.999199 0.987957
1.00152 1.00201 0.989854
1.00272 1.00052 0.988888
1.00237 1.00094 0.989137
1.0001 1.00107 0.993291
1.00026 1.00171 0.992353
1.00008 1.00012 0.994265
1.00402 0.999479 0.987687
1.00358 0.999434 0.988453
1.0042 0.999285 0.987443
1.00415 0.998894 0.987805
1.00334 0.999773 0.988298
1.00423 0.998619 0.987959
1.00006 1.00141 0.99305
1.003 1.00021 0.988632
1.00037 1.00198 0.991919
1.00074 1.00257 0.990443
1.00182 1.00203 0.989286
1.00261 1.0006 0.989335
1.00013 0.999712 0.994604
1.00033 1.00177 0.992197
1.00025 1.00134 0.992707
1.00024 1.00232 0.991871
1.00203 1.00031 0.990382
0.999737 0.998322 0.9967
0.999637 0.99902 0.996156
1.00002 1.00055 0.993969
1.00089 1.00108 0.991754
1.00228 1.00079 0.989437
0.999998 1.0015 0.993056
1.00042 1.00235 0.991472
1.00109 1.00146 0.991146
1.00082 1.00214 0.990754
0.999811 0.998048 0.996853
1.00005 1.00099 0.993461
1.00002 1.00004 0.994477
1.00019 1.00161 0.992632
1.00292 1.00021 0.988813
1.00155 1.00126 0.990389
1.00275 1.00067 0.988661
1.00028 1.00222 0.991889
1.00136 1.00152 0.99063
1.00047 1.00308 0.990671
1.00097 1.00204 0.990597
0.999879 0.997826 0.99696
1.00006 0.999643 0.994808
1.00028 1.00184 0.992277
1.00018 1.00114 0.993104
1.00016 1.0024 0.99193
1.00343 0.999915 0.988124
1.00189 1.00126 0.989714
1.00299 1.00051 0.988383
1.00027 1.00316 0.991024
1.00149 1.00148 0.990291
1.0006 1.00331 0.989807
1.00012 0.999227 0.995123
1.00018 1.00009 0.99417
1.00017 0.998973 0.99529
1.00014 0.999102 0.995216
0.999965 0.99744 0.997551
0.999922 0.99762 0.997267
0.999833 0.99661 0.998455
0.999726 0.996758 0.99932
0.999655 0.996945 0.999302
0.999855 0.998079 0.99672
0.999622 0.997184 0.999239
0.999797 0.998362 0.996559
0.99956 0.997485 0.999174
0.999725 0.998759 0.996299
0.999523 0.997757 0.999085
1.00235 1.00007 0.990016
1.00268 0.999826 0.989618
1.0035 0.999563 0.988369
1.00389 0.999464 0.987721
1.00318 0.999697 0.988778
1.00109 0.99997 0.992395
1.00325 0.999669 0.98867
1.0042 0.999376 0.987208
1.00366 0.999473 0.988151
1.00433 0.999061 0.987266
1.00328 0.9998 0.988535
1.00401 0.999055 0.987914
1.00427 0.999332 0.987102
1.00463 0.999041 0.986689
1.00417 0.998968 0.987676
1.00453 0.998848 0.987197
1.00378 0.999381 0.98801
1.00427 0.998419 0.988054
1.00304 0.999695 0.988809
1.00262 0.999737 0.990108
1.00376 0.99949 0.988055
1.00359 0.99949 0.988526
0.999608 0.999527 0.995735
1.00005 1.00157 0.992942
1.00052 1.00208 0.991493
1.00288 1.00031 0.98911
1.00391 0.999113 0.987925
1.00272 1.00052 0.988886
1.00146 1.00202 0.98975
1.00231 1.00091 0.98915
1.00011 1.00102 0.993298
1.00026 1.00168 0.992364
1.00008 1.00014 0.994254
1.00405 0.999455 0.987547
1.0036 0.999395 0.988454
1.0042 0.999241 0.987401
1.00415 0.998933 0.987834
1.00008 1.00135 0.993059
1.00041 1.00197 0.991902
1.00071 1.00257 0.990566
1.00334 0.999869 0.988359
1.00424 0.998507 0.987979
1.00174 1.00208 0.989219
1.00301 1.00019 0.98863
1.00255 1.00052 0.989362
1.00033 1.00178 0.992211
1.00025 1.00233 0.991816
1.00012 0.999731 0.994597
1.00025 1.00127 0.99278
1.00447 0.999171 0.986918
1.0041 0.999097 0.987771
1.00442 0.998996 0.987252
1.00443 0.998488 0.987631
1.00377 0.999221 0.988122
1.00448 0.998193 0.987866
1.00034 1.00182 0.992131
1.0031 0.999473 0.98909
1.00037 1.00249 0.99124
1.00101 1.00298 0.989688
1.00197 1.00205 0.988802
1.00271 1.00051 0.989282
1.00015 0.999526 0.994763
1.00026 1.00081 0.993195
1.00034 1.00219 0.99179
1.00021 1.00211 0.992138
1.00025 1.0025 0.991662
0.999804 0.99804 0.996861
1.00292 1.00022 0.988804
1.00003 1.00002 0.994487
1.00004 1.00105 0.99346
1.00019 1.00164 0.992622
1.00152 1.00127 0.990404
1.00275 1.00067 0.988666
1.00025 1.00223 0.991897
1.00049 1.0031 0.990638
1.00138 1.00154 0.990678
1.00094 1.00201 0.990777
0.999873 0.997818 0.996964
1.00006 0.999636 0.994816
1.00027 1.00185 0.992274
1.00018 1.00115 0.993105
1.00015 1.00243 0.991881
1.00343 0.999929 0.98811
1.0019 1.00126 0.989721
1.00298 1.00053 0.988367
1.00024 1.00316 0.991038
1.00151 1.0015 0.990326
1.00069 1.00329 0.989883
1.00009 0.999404 0.995
1.00019 1.00068 0.993553
1.00027 1.00265 0.99151
1.00011 1.0021 0.992303
1.0001 1.00305 0.991436
1.00375 0.99951 0.987899
1.00211 1.00111 0.989447
1.00282 0.999979 0.989044
1.00018 1.0041 0.990159
1.00134 1.00269 0.989399
1.00011 0.999235 0.995123
1.00017 1.00021 0.99396
1.00017 1.0001 0.994114
1.00014 1.00087 0.993602
1.00019 1.00006 0.99418
1.0002 0.998895 0.995315
1.00017 0.998977 0.995288
1.00002 0.997273 0.997612
1.00013 0.999119 0.995213
0.999971 0.997431 0.99756
0.999909 0.99641 0.998506
0.999913 0.997607 0.997493
0.999813 0.996579 0.9989
0.999737 0.996724 0.999328
0.999907 0.99788 0.996819
0.99986 0.998089 0.996713
0.999699 0.99696 0.999269
0.999617 0.997228 0.999226
0.999802 0.99838 0.996543
0.999562 0.997526 0.999154
1.00329 0.9998 0.988527
1.00366 0.999478 0.988153
1.00401 0.99906 0.987917
1.00436 0.999048 0.9872
1.0042 0.999375 0.987213
1.00326 0.999669 0.988666
1.00428 0.999335 0.987101
1.00466 0.999046 0.986616
1.00417 0.998975 0.987683
1.00453 0.998801 0.987194
1.00378 0.999386 0.987995
1.00429 0.998386 0.98802
1.00474 0.999023 0.986499
1.00487 0.998841 0.986521
1.00443 0.998517 0.987605
1.00463 0.998682 0.987141
1.0041 0.998705 0.987997
1.00448 0.998161 0.987978
1.00408 0.999428 0.987408
1.00361 0.999364 0.988455
1.0042 0.9992 0.987359
1.00415 0.99897 0.987862
1.00011 1.0013 0.993068
1.00044 1.00197 0.991884
1.00067 1.00257 0.990689
1.00335 0.999966 0.98842
1.00426 0.998396 0.988
1.00303 1.00017 0.988629
1.00166 1.00214 0.989153
1.0025 1.00043 0.989389
1.00033 1.00177 0.992226
1.00027 1.00235 0.99176
1.00011 0.999748 0.994589
1.00026 1.0012 0.992854
1.00448 0.999172 0.986915
1.00411 0.99908 0.987794
1.00439 0.998971 0.987301
1.00444 0.998483 0.987643
1.00037 1.00181 0.992128
1.00037 1.00245 0.991341
1.00099 1.00304 0.989678
1.00377 0.999316 0.988109
1.00441 0.998069 0.988064
1.00196 1.00211 0.98876
1.00312 0.999493 0.989091
1.00266 1.00028 0.989377
1.00036 1.00218 0.991794
1.00026 1.0025 0.991649
1.0002 1.00212 0.99213
1.00015 0.999521 0.994689
1.00027 1.00077 0.993245
1.00475 0.998764 0.986782
1.00448 0.998705 0.987345
1.00468 0.998202 0.98739
1.00402 0.998491 0.988246
1.00035 1.00219 0.991744
1.00347 0.999051 0.989188
1.00027 1.00296 0.990737
1.00129 1.0035 0.988665
1.00233 1.00202 0.988302
1.00016 0.999382 0.994727
1.00026 1.00052 0.993646
1.0002 1.00158 0.992683
1.00033 1.00228 0.991732
1.00019 1.00265 0.991691
1.00032 1.00245 0.991544
0.999868 0.99781 0.996969
1.00006 0.99963 0.994823
1.00344 0.999942 0.988097
1.00017 1.00117 0.993106
1.00025 1.00184 0.992271
1.00015 1.00246 0.991831
1.0019 1.00126 0.989728
1.00296 1.00053 0.98835
1.00022 1.00314 0.991053
1.00078 1.00327 0.989957
1.00152 1.00152 0.990361
1.00009 0.999406 0.995003
1.00019 1.00067 0.993559
1.00025 1.00264 0.991544
1.00012 1.00209 0.992298
1.00009 1.00309 0.991361
1.00373 0.999553 0.987901
1.00213 1.0011 0.98942
1.0029 0.999853 0.989083
1.00015 1.00408 0.990119
1.00133 1.00285 0.989249
1.00017 1.0004 0.993872
1.00014 1.00162 0.992638
1.00015 1.00355 0.99089
1.00008 1.00289 0.991514
1.00018 1.00336 0.990941
1.00405 0.998214 0.988634
1.00223 1.00153 0.988999
1.00301 0.998931 0.989013
1.00044 1.00452 0.989614
1.0011 1.00344 0.98831
1.00011 0.999244 0.995123
1.00017 1.00021 0.994009
1.00015 1.00099 0.993265
1.00017 1.00013 0.994058
1.00019 1.00006 0.994181
1.00013 1.00085 0.993521
1.00009 1.00143 0.993099
1.00012 1.0008 0.993519
1.00021 1.00001 0.994201
1.00021 0.998887 0.995295
1.00019 0.998894 0.995316
1.00006 0.997167 0.997627
1.00016 0.998982 0.995285
1.00002 0.997268 0.997617
0.999965 0.996249 0.998547
0.999978 0.997416 0.99757
0.999901 0.996388 0.998505
0.999789 0.996542 0.999351
0.999958 0.997695 0.996912
0.999911 0.997888 0.996814
0.99977 0.996761 0.999294
0.999865 0.9981 0.996705
0.999689 0.996992 0.999261
0.999612 0.997267 0.999212
1.00379 0.999391 0.987981
1.00417 0.998984 0.987691
1.00431 0.998355 0.987985
1.00453 0.998748 0.987191
1.00469 0.999051 0.986542
1.00428 0.999339 0.9871
1.00475 0.999051 0.986478
1.00486 0.998849 0.986523
1.00444 0.998525 0.987573
1.00464 0.998606 0.987146
1.00411 0.998707 0.988004
1.00445 0.998104 0.988013
1.00502 0.998736 0.986293
1.0049 0.998484 0.986757
1.00464 0.998155 0.987569
1.00444 0.998123 0.988088
1.00448 0.999172 0.986912
1.00412 0.999057 0.987817
1.00434 0.998943 0.987351
1.00445 0.998475 0.987655
1.00039 1.00181 0.992126
1.00038 1.0024 0.991442
1.00096 1.0031 0.989667
1.00378 0.999408 0.988097
1.00434 0.997949 0.98826
1.00314 0.999513 0.989092
1.00195 1.00216 0.988717
1.00261 1.00006 0.989472
1.00038 1.00217 0.991799
1.00028 1.00249 0.991636
1.00019 1.00214 0.992122
1.00015 0.999517 0.994616
1.00028 1.00072 0.993296
1.00469 0.998767 0.986867
1.00448 0.998753 0.987335
1.00467 0.99823 0.987478
1.00039 1.00218 0.991732
1.00037 1.00292 0.990849
1.00123 1.00359 0.988641
1.00411 0.998513 0.988188
1.00231 1.00184 0.988466
1.00331 0.999021 0.989261
1.00016 0.999362 0.994744
1.00034 1.00228 0.99173
1.00031 1.00244 0.991578
1.00018 1.0027 0.991646
1.00021 1.00156 0.992715
1.00026 1.0005 0.993587
1.00483 0.998509 0.986944
1.00474 0.998293 0.987246
1.00467 0.998143 0.98729
1.00454 0.997817 0.988042
1.00033 1.00244 0.991538
1.00304 1.00044 0.988377
1.00048 1.00393 0.989524
1.00152 1.00397 0.987886
1.00017 0.999238 0.994862
1.00025 1.00034 0.993848
1.00022 1.00128 0.993003
1.00016 1.0023 0.992035
1.00034 1.00244 0.991582
1.00029 1.00264 0.991415
1.00008 0.999406 0.995006
1.00019 1.00066 0.993565
1.00371 0.999598 0.987902
1.00012 1.00208 0.992294
1.00021 1.00264 0.991578
1.00008 1.00312 0.991286
1.00216 1.00109 0.989393
1.00298 0.999719 0.989122
1.00012 1.00407 0.99008
1.00132 1.00304 0.989098
1.00017 1.00038 0.993877
1.00015 1.00162 0.992664
1.0001 1.00353 0.990972
1.00007 1.0029 0.991536
1.00014 1.00344 0.990907
1.00413 0.998234 0.988532
1.00229 1.00136 0.989025
1.00297 0.998905 0.989547
1.00036 1.00451 0.989559
1.00125 1.00381 0.988027
1.00015 1.00118 0.993068
1.00011 1.00245 0.991856
1.00009 1.00416 0.99036
1.0001 1.00353 0.990679
1.00477 0.997472 0.988197
1.00424 0.997083 0.98911
1.0024 1.00196 0.987991
1.0005 1.0048 0.988393
1.00018 1.00021 0.994057
1.00015 1.00101 0.993303
1.00011 1.00162 0.992811
1.00019 1.00006 0.994181
1.00013 1.00083 0.99344
1.00021 1 0.994202
1.00009 1.00143 0.993032
1.00012 1.00079 0.993543
1.00007 1.00189 0.992641
1.00008 1.00131 0.993078
1.00012 1.00075 0.993556
1.00022 0.99999 0.994193
1.00021 0.99893 0.995248
1.00021 0.998887 0.995294
1.00009 0.997133 0.997606
1.00019 0.99889 0.995317
1.00006 0.997179 0.997625
1.00001 0.996166 0.998545
1.00003 0.997266 0.997622
0.999959 0.996229 0.998548
0.999892 0.99637 0.998502
1 0.99751 0.997011
0.99996 0.997702 0.996908
0.999834 0.996574 0.999318
0.999916 0.997895 0.99681
0.999761 0.996792 0.999286
0.99968 0.997026 0.999252
1.00413 0.998709 0.988011
1.00444 0.998531 0.987542
1.00442 0.998043 0.988048
1.00466 0.998535 0.987151
1.00486 0.998858 0.986524
1.00475 0.999079 0.986456
1.00498 0.998725 0.986391
1.00491 0.99849 0.986763
1.00464 0.998143 0.987558
1.00442 0.998056 0.988082
1.00505 0.998381 0.986611
1.00498 0.997876 0.987274
1.00476 0.997759 0.987755
1.00464 0.998769 0.986952
1.00447 0.998804 0.987326
1.00466 0.998259 0.987567
1.00043 1.00217 0.991719
1.00047 1.00288 0.990961
1.00118 1.00372 0.988617
1.0042 0.998533 0.988131
1.00315 0.998992 0.989333
1.0023 1.00166 0.98863
1.00036 1.00228 0.991728
1.00029 1.00242 0.991613
1.00017 1.00275 0.991601
1.00016 0.99934 0.994761
1.00021 1.00154 0.992747
1.00026 1.00049 0.993528
1.00482 0.998539 0.986885
1.00474 0.998326 0.987218
1.00476 0.998153 0.987248
1.00037 1.00245 0.991508
1.00041 1.0039 0.989763
1.00158 1.00395 0.987884
1.00441 0.997945 0.988207
1.00306 1.00037 0.988343
1.00017 0.999218 0.99495
1.00025 1.00034 0.99385
1.0003 1.00241 0.991576
1.0003 1.00255 0.991515
1.00016 1.00229 0.992007
1.00021 1.00131 0.992954
1.0049 0.99814 0.987107
1.00493 0.997922 0.987247
1.00499 0.99754 0.987422
1.00424 0.997931 0.988475
1.00009 1.00316 0.991121
1.00211 1.00322 0.98736
1.00076 1.00473 0.988774
1.00019 0.999072 0.995151
1.00018 1.00005 0.994203
1.00022 1.00029 0.9938
1.0002 1.00113 0.993127
1.00014 1.00197 0.992393
1.00007 1.00305 0.991362
1.00045 1.00182 0.991806
1.00023 1.00292 0.991761
1.00018 1.00037 0.993881
1.00015 1.00162 0.992691
1.00421 0.998256 0.988429
1.00008 1.00291 0.991558
1.00006 1.00352 0.991053
1.00008 1.00352 0.990873
1.00236 1.00119 0.989051
1.00293 0.998876 0.990079
1.00028 1.00449 0.989502
1.0014 1.00412 0.987745
1.00016 1.00122 0.993025
1.00011 1.00247 0.99188
1.00006 1.00416 0.990411
1.00014 1.00356 0.990732
1.00485 0.997461 0.987995
1.00417 0.997231 0.989185
1.0025 1.00184 0.988207
1.00066 1.00482 0.988264
1.00012 1.0019 0.992508
1.00486 0.996911 0.988255
1.00007 1.00336 0.991246
1.00032 1.00429 0.989757
1.005 0.996225 0.988774
1.00383 0.999033 0.988125
1.00151 1.00432 0.987672
1.00015 1.00102 0.993341
1.00011 1.00162 0.992807
1.00007 1.00217 0.992332
1.00021 0.999996 0.994204
1.00013 1.00079 0.993567
1.0001 1.00143 0.992965
1.00022 0.999985 0.994193
1.00012 1.00076 0.993554
1.00008 1.0019 0.992581
1.00009 1.00131 0.993139
1.00008 1.00221 0.992272
1.00008 1.00175 0.992652
1.00009 1.00125 0.993222
1.00016 1.0007 0.993607
1.00023 1.00003 0.994147
1.0002 0.99898 0.995208
1.00021 0.998932 0.995248
1.00011 0.997139 0.997571
1.00021 0.998889 0.995294
1.00009 0.997155 0.997602
1.00004 0.99613 0.998527
1.00006 0.997191 0.997623
1.00001 0.996139 0.998548
0.999953 0.996209 0.998546
1.00019 0.998921 0.995279
1.00005 0.997337 0.997102
1.00001 0.997519 0.997006
0.999891 0.996398 0.999344
0.999963 0.997712 0.996904
0.999826 0.996604 0.99931
0.999751 0.99682 0.999278
1.00439 0.997994 0.988076
1.00465 0.998132 0.987548
1.00491 0.99849 0.98677
1.00493 0.998719 0.986489
1.00506 0.998369 0.986608
1.00498 0.997893 0.987217
1.00474 0.997749 0.987758
1.00507 0.997875 0.98707
1.00502 0.997358 0.98772
1.00491 0.996439 0.988579
1.00483 0.998572 0.986825
1.00474 0.998361 0.987191
1.00483 0.998185 0.987207
1.00041 1.00245 0.991478
1.00035 1.00385 0.990002
1.00162 1.00387 0.987882
1.00428 0.998068 0.988372
1.00306 1.00027 0.98831
1.00026 1.00237 0.991571
1.00032 1.00247 0.991613
1.00016 1.00229 0.991979
1.00017 0.999197 0.995038
1.00024 1.00034 0.993851
1.0002 1.00133 0.992905
1.00491 0.998066 0.987178
1.00019 0.999065 0.995149
1.00017 1.00005 0.994161
1.00493 0.99797 0.987214
1.00493 0.997683 0.987343
1.00006 1.00312 0.991269
1.00075 1.00471 0.988636
1.0021 1.00311 0.98738
1.00422 0.997931 0.988517
1.00022 1.00028 0.993927
1.00019 1.00113 0.993126
1.00054 1.0019 0.99164
1.00015 1.00244 0.992104
1.00005 1.00313 0.99128
1.00015 1.00193 0.992399
1.00498 0.997242 0.987856
1.00508 0.997876 0.987154
1.00502 0.996383 0.988308
1.00331 0.99993 0.988072
1.0002 1.00321 0.991117
1.00126 1.00475 0.987784
1.00016 0.999938 0.994242
1.00019 1.00019 0.994032
1.00011 1.0009 0.993614
1.00017 1.00111 0.993095
1.00013 1.00181 0.992659
0.99999 1.00259 0.991888
0.99991 1.00397 0.990957
1.00018 1.00195 0.992232
1.00016 1.00125 0.992982
1.00011 1.00248 0.991905
1.00494 0.997456 0.987794
1.0041 0.997403 0.989261
1.00017 1.00359 0.990784
1.00004 1.00415 0.990462
1.0026 1.00175 0.988423
1.00082 1.00485 0.988135
1.00011 1.00192 0.992496
1.00485 0.996956 0.988306
1.00005 1.00328 0.991262
1.0003 1.00425 0.989722
1.00497 0.996171 0.988705
1.00391 0.998976 0.988201
1.00141 1.00444 0.98776
1.00004 1.00279 0.99179
1.00511 0.99614 0.989326
1.00035 1.00364 0.990663
1.00069 1.00468 0.989094
1.00482 0.996345 0.988752
1.00218 1.00244 0.987751
1.00133 0.999963 0.991623
1.00011 1.00163 0.992802
1.00006 1.00218 0.992328
1.00012 1.00244 0.991968
1.00022 0.999977 0.994193
1.00012 1.00076 0.993551
1.00009 1.00132 0.9932
1.00009 1.00192 0.992521
1.00023 1.00003 0.994144
1.00016 1.00069 0.993573
1.00008 1.00221 0.992252
1.0001 1.00124 0.993217
1.00008 1.00177 0.992706
1.0001 1.0021 0.992322
1.00005 1.00156 0.992972
1.00014 1.00116 0.993236
1.00021 1.00069 0.993469
1.00024 1.00006 0.994002
1.00019 1.00071 0.99364
1.00022 1.00008 0.99401
1.0002 0.999004 0.995192
1.0002 0.998979 0.995209
1.00013 0.997183 0.99711
1.00021 0.998935 0.995248
1.00011 0.997162 0.997353
1.00002 0.99608 0.99937
1.00009 0.997175 0.997597
1.00004 0.996097 0.99853
1 0.996112 0.99855
1.0002 0.998814 0.995385
1.0002 0.998922 0.995275
1.00008 0.9972 0.997175
1.00004 0.997344 0.997314
0.999941 0.996251 0.999364
1.00001 0.997527 0.997002
0.999884 0.996427 0.999336
0.999817 0.996635 0.999303
1.00472 0.99773 0.987762
1.00499 0.997908 0.987159
1.00506 0.998357 0.986605
1.00507 0.997871 0.987062
1.00502 0.997377 0.987667
1.00483 0.996523 0.988776
1.00507 0.996906 0.987993
1.00245 1.00004 0.988732
1.00504 0.995777 0.989229
1.00017 0.999868 0.994412
1.00491 0.997989 0.987249
1.00494 0.997992 0.987182
1.00487 0.997847 0.987264
1.00003 1.00308 0.991416
1.00074 1.00472 0.988498
1.00209 1.00305 0.987401
1.0042 0.997972 0.988559
1.00061 1.00201 0.991474
1.00005 1.00193 0.992449
1.00003 1.0032 0.991197
1.00019 0.999061 0.995147
1.00017 1.00189 0.992406
1.00022 1.00028 0.994053
1.00019 1.00113 0.993126
1.00017 1.00005 0.994118
1.00495 0.997231 0.987904
1.00017 0.999929 0.994298
1.00019 1.0002 0.994028
1.00011 1.00089 0.993519
1.00508 0.997691 0.987166
1.00499 0.9967 0.988208
1.00028 1.00285 0.991184
1.00103 1.00482 0.987745
1.00334 0.999989 0.988077
1.00017 1.00112 0.993158
1.00012 1.00179 0.992632
1.00014 1.00221 0.992005
0.999902 1.00382 0.991059
1.00001 1.0026 0.99195
1.00501 0.996936 0.988177
1.00515 0.997972 0.986925
1.0046 0.997266 0.988216
1.00194 1.00273 0.988343
1.00018 1.00351 0.990783
1.00012 1.00075 0.993532
1.00012 1.00104 0.99329
1.00012 1.00143 0.993062
1.00009 1.00171 0.992728
1.00008 1.00223 0.992297
0.999883 1.00319 0.991597
0.99977 1.00415 0.990806
1.00009 1.00195 0.992483
1.00004 1.00321 0.991278
1.00484 0.996992 0.988356
1.00494 0.99612 0.988635
1.004 0.998896 0.988278
1.00027 1.00421 0.989688
1.0013 1.00455 0.987848
1.00003 1.00274 0.991876
1.00507 0.995913 0.989297
1.00023 1.00361 0.990703
1.00048 1.00469 0.989188
1.00484 0.996032 0.988958
1.00217 1.00264 0.987718
1.00136 0.999978 0.990571
1.00011 1.00308 0.991399
1.00513 0.995102 0.990435
1.00008 1.0039 0.990738
1.00044 1.00479 0.988956
1.0029 0.999188 0.988643
1.00066 0.995153 0.965584
0.996727 1.00128 0.981164
1.00096 1.00011 0.99247
0.997885 0.997478 0.959316
0.994562 0.998232 0.95958
1.00006 1.00219 0.992325
1.0001 1.00244 0.992013
1.00019 1.00224 0.992078
1.00022 1.00002 0.994141
1.00016 1.00068 0.993539
1.0001 1.00123 0.993211
1.00007 1.00178 0.992761
1.00009 1.0022 0.992232
1.00014 1.00116 0.993192
1.00023 1.00007 0.994054
1.00021 1.00067 0.99351
1.00009 1.0021 0.992334
1.00006 1.00155 0.992958
1.00008 1.00145 0.992981
1.00009 1.00173 0.992737
1.0002 1.00109 0.993092
1.00025 1.00071 0.993365
1.00022 1.00007 0.993998
1.00023 1.00068 0.99351
1.00019 1.00108 0.993242
1.00014 1.00076 0.993569
1.00019 1.00071 0.993574
1.00022 1.00006 0.994119
1.00022 1.00009 0.994007
1.0002 0.999011 0.995187
1.0002 0.999002 0.995191
1.00012 0.997226 0.997093
1.0002 0.998978 0.99521
1.00013 0.997186 0.997109
1.00003 0.996084 0.999365
1.00012 0.997186 0.997135
1.00004 0.996082 0.998941
1.00004 0.996065 0.998533
1.0002 0.998731 0.995464
1.0002 0.998809 0.995384
1.00011 0.997094 0.997239
1.0002 0.99892 0.995271
1.00008 0.997194 0.997386
0.99998 0.996137 0.999381
1.00005 0.997361 0.997088
0.999933 0.996296 0.999356
0.999876 0.996456 0.999328
1.00502 0.9974 0.987613
1.00507 0.997868 0.987054
1.00474 0.996607 0.988973
1.00228 0.998881 0.988862
1.00504 0.996892 0.988091
1.00509 0.996085 0.989127
1.00514 0.99706 0.987889
0.998597 0.999498 0.979063
1.00364 0.996923 0.989086
1.00017 0.999835 0.994446
1.00017 0.999865 0.994411
1.00011 1.00066 0.993739
1.00008 1.00063 0.993829
1.00492 0.997228 0.987952
1.00509 0.997579 0.987177
1.00501 0.99693 0.988107
1.00035 1.00252 0.991252
1.00081 1.00486 0.987705
1.00336 1.00008 0.988082
1.00011 1.00249 0.991776
0.999907 1.00367 0.991162
1.00004 1.00261 0.992013
1.0002 1.0002 0.994024
1.00011 1.00178 0.992605
1.00017 1.00112 0.99322
1.00017 0.999922 0.994355
1.00011 1.00087 0.993424
1.00488 0.996962 0.988222
1.00012 1.00075 0.993629
1.00012 1.00102 0.993332
1.00012 1.00141 0.993012
1.00515 0.997582 0.987027
1.00461 0.997382 0.988163
1.00024 1.00336 0.99077
1.00191 1.00302 0.988178
1.0001 1.00173 0.992733
1.00004 1.00224 0.992317
0.999791 1.00416 0.990796
0.999925 1.00337 0.99145
1.00521 0.997049 0.9877
1.00508 0.997227 0.987253
1.00294 1.00083 0.988222
1.00013 1.00404 0.990382
1.00011 1.0015 0.992872
1.00007 1.0016 0.992878
1.00004 1.00228 0.992259
0.99995 1.00391 0.990755
0.9997 0.995033 0.963238
1.00001 1.00269 0.991963
1.00011 1.00358 0.990743
1.00503 0.995658 0.989269
1.00486 0.995723 0.989165
1.00216 1.00284 0.987685
1.00027 1.00465 0.989281
1.00132 0.999991 0.989514
1.00004 1.00312 0.991445
1.00512 0.995027 0.990356
1.00003 1.00386 0.99076
1.00039 1.00488 0.988961
1.00316 0.99913 0.988634
1.0005 0.995627 0.96364
0.996579 1.00109 0.977828
1.00087 1.0001 0.992741
0.99727 0.997929 0.959254
0.994526 0.998163 0.956555
1.00005 1.00288 0.99174
0.998773 0.995045 0.959581
0.994878 0.999511 0.96039
1.00421 0.995948 0.990841
0.999807 1.00412 0.990985
1.00056 1.0037 0.989843
1.00051 0.999767 0.994797
0.998225 0.998756 0.965222
0.995306 1.00166 0.976821
0.9964 0.999439 0.960788
0.995325 0.997606 0.966313
1.00007 1.00245 0.992059
1.00016 1.00226 0.992076
1.00015 1.00194 0.992547
1.00022 1.00007 0.994105
1.00021 1.00066 0.993552
1.00014 1.00116 0.993148
1.00008 1.00153 0.992945
1.00008 1.00212 0.992347
1.00023 1.00008 0.993997
1.00008 1.00143 0.993014
1.00021 1.0011 0.993138
1.00026 1.00069 0.993431
1.00009 1.00174 0.992706
1.00019 1.00137 0.992837
1.00014 1.00155 0.992855
1.00025 1.00101 0.993143
1.00026 1.00069 0.99346
1.00024 1.00068 0.993507
1.00019 1.00107 0.993198
1.00026 1.00099 0.993143
1.00013 1.00117 0.993185
1.00023 1.00126 0.992998
1.00002 1.0018 0.992743
1.00011 1.00087 0.993505
1.00014 1.00077 0.993568
1.0002 1.00008 0.994127
1.00019 1.00071 0.993509
1.00022 1.00007 0.994079
1.00019 0.999022 0.995185
1.00022 1.0001 0.994004
1.0002 0.999007 0.995187
1.00009 0.997252 0.997533
1.0002 0.999001 0.995191
1.00011 0.997219 0.997313
1.00006 0.996107 0.998484
1.00013 0.997189 0.997108
1.00003 0.996089 0.999363
1.00006 0.996085 0.998511
1.00017 0.999838 0.994435
1.0002 0.998695 0.995508
1.0002 0.998729 0.995464
1.00012 0.997018 0.997293
1.0002 0.998804 0.995383
1.00011 0.997087 0.997241
1.00001 0.996046 0.999396
1.00006 0.997206 0.997586
0.99999 0.996178 0.998947
0.999966 0.996325 0.998489
1.00199 0.997795 0.988988
1.00502 0.996886 0.988188
1.00515 0.996381 0.989025
0.998128 0.9988 0.981105
1.00353 0.997553 0.989309
1.0052 0.996556 0.987901
1.00483 0.997566 0.988856
0.999143 0.997244 0.982589
0.999205 0.995535 0.963967
0.997588 0.997678 0.958873
0.994781 0.99682 0.959346
1.00008 1.00064 0.993727
1.00017 0.999836 0.994445
1.00017 0.999863 0.99441
1.00011 1.00067 0.993716
1.00004 1.00121 0.993314
1.00009 1.00108 0.993393
1.00009 1.0007 0.993759
1.00008 1.00064 0.993784
1.00475 0.996978 0.988268
1.00516 0.99715 0.987131
1.00458 0.99754 0.988109
1.00031 1.00317 0.990757
1.00188 1.0032 0.988012
0.999811 1.00416 0.990786
0.999964 1.00355 0.991303
1 1.00224 0.992337
1.00012 1.00099 0.993375
1.0001 1.00175 0.992738
1.00013 1.00075 0.993727
1.00012 1.00138 0.992963
1.0051 0.99723 0.987562
1.00009 1.00149 0.99293
1.00007 1.00161 0.992851
1.00499 0.997435 0.987257
1.00261 1.00063 0.988553
1.00021 1.00405 0.990242
1.00007 1.0023 0.992207
0.999978 1.00393 0.990763
1.00441 1.00051 0.986746
1.00413 0.997645 0.989124
1.00032 1.00306 0.990223
0.999999 1.00339 0.991336
1.00004 1.00181 0.992618
1.0001 1.00213 0.992315
1.0001 1.00281 0.991664
0.998618 0.994819 0.958246
1.00028 0.99508 0.96734
0.999982 1.00314 0.991491
0.999973 1.00386 0.990782
1.00511 0.994966 0.990277
1.00343 0.99913 0.988624
1.00033 1.00499 0.988966
1.00045 0.995233 0.962381
0.996635 1.00118 0.979192
1.00066 1.0001 0.993016
0.997178 0.99752 0.960351
0.994475 0.998166 0.953523
1.00002 1.00289 0.991733
0.99885 0.995081 0.958173
0.99476 0.999682 0.959279
1.00438 0.996254 0.990761
0.999711 1.00417 0.991021
1.00042 1.00347 0.989932
1.00049 0.998577 0.995281
0.998275 0.998729 0.963023
0.9955 1.00299 0.979514
0.996185 0.999677 0.959785
0.995591 0.997655 0.964753
1.00004 1.00252 0.992155
0.994983 0.999469 0.96383
0.997503 0.999626 0.975558
1.00161 0.998528 0.99341
0.999489 1.00396 0.992121
0.99909 1.00165 0.996042
0.996551 1.00157 0.983574
0.995873 1.00118 0.96274
0.995747 0.999597 0.961405
0.997923 0.99694 0.970611
1.00013 1.00229 0.992075
1.00015 1.00196 0.992467
0.999896 1.00152 0.993116
1.00023 1.00009 0.993997
1.00026 1.00067 0.993497
1.00021 1.00112 0.993182
1.00007 1.00141 0.993047
1.0001 1.00175 0.992675
1.00026 1.00069 0.99346
1.00017 1.00141 0.992881
1.00026 1.001 0.993138
1.0001 1.00153 0.992921
1.00019 1.00103 0.99341
1.00027 1.00112 0.992985
1.00028 1.00101 0.993097
1.00024 1.00068 0.993505
1.00019 1.00106 0.993155
1.00025 1.001 0.993146
1.00013 1.00118 0.993182
1.00023 1.00122 0.99298
1.00007 1.00139 0.993052
1.00025 1.00119 0.992974
1.00019 1.00143 0.992822
1.00006 1.00246 0.992008
0.999865 1.00349 0.991298
0.999979 1.00224 0.992297
1.00001 1.00185 0.992732
1.0001 1.00107 0.993341
1.00011 1.00089 0.993499
1.00018 1.00014 0.994113
1.00014 1.00078 0.993567
1.0002 1.00009 0.994127
1.00018 0.999062 0.995178
1.00022 1.00007 0.994039
1.00019 0.999018 0.995186
1.00006 0.997292 0.997538
1.0002 0.999003 0.995187
1.00009 0.997247 0.997316
1.00004 0.996117 0.998488
1.00012 0.99721 0.997094
1.00002 0.996108 0.999359
1.00003 0.996092 0.999361
1.00017 0.999912 0.994523
1.00019 0.998721 0.995497
1.00017 0.999852 0.994434
1.00012 0.996991 0.99732
1.0002 0.998694 0.995508
1.0002 0.998726 0.995464
1.00012 0.997021 0.997291
1.00002 0.995986 0.999407
1.00009 0.997087 0.99765
1.00002 0.996061 0.998975
1.00001 0.996187 0.998528
0.998565 0.995726 0.958804
0.994939 0.998769 0.962581
0.998345 0.997759 0.98251
1.00343 0.998331 0.989529
1.00527 0.996111 0.98791
0.999016 0.997151 0.985393
1.00482 0.997835 0.988798
0.999896 0.995024 0.966379
0.997341 0.99752 0.958849
0.994593 0.997472 0.956243
1.00034 0.996996 0.989233
0.997847 0.997959 0.967106
0.996142 0.99981 0.960513
0.995885 0.99781 0.963414
1.00007 1.00131 0.993141
1.00009 1.00063 0.993765
1.00017 0.999833 0.994444
1.0001 1.00067 0.993693
1.00003 1.00117 0.993385
1.00008 1.00132 0.993172
1.00009 1.00106 0.993377
1.00012 1.00093 0.993441
1.0001 1.0007 0.993706
1.00009 1.00064 0.993739
1.00499 0.997383 0.987427
1.00484 0.997534 0.987262
1.00227 1.00042 0.988887
1.00028 1.0041 0.990103
1.00001 1.00392 0.990771
1.0001 1.00231 0.992154
1.00008 1.00161 0.992823
1.00007 1.00149 0.992988
1.00454 0.999888 0.986718
1.00006 1.00184 0.992589
1.00012 1.00212 0.992246
1.00379 0.998076 0.988853
1.00019 1.00326 0.990501
1.00011 1.00328 0.991173
1.00015 1.00269 0.991698
1.00222 1.00364 0.988279
1.00125 0.999391 0.992998
0.999993 1.00293 0.991652
1.00004 1.00201 0.9925
1.00016 1.00215 0.992101
1.00026 1.00247 0.991682
0.996448 0.998266 0.966159
0.998662 0.995298 0.95886
0.999973 0.995128 0.962713
1 1.00291 0.991726
0.99963 1.00419 0.991057
1.00463 0.996473 0.990681
1.00027 1.0033 0.990017
0.999001 0.995017 0.958959
0.997985 0.998764 0.965342
0.995761 1.00266 0.976751
1.0006 0.997613 0.995727
0.996312 0.999787 0.959489
0.994617 0.999774 0.959266
0.996021 0.997685 0.964014
0.999968 1.00257 0.992154
0.995119 0.999241 0.964377
0.997462 0.999901 0.975523
1.00175 0.998674 0.993281
0.999272 1.00382 0.992162
0.999736 1.00014 0.996968
0.996738 1.00193 0.979525
0.996007 1.0024 0.964995
0.996389 0.999105 0.962069
0.997624 0.997089 0.970317
0.99951 1.00194 0.993965
0.999208 0.999792 0.978269
1.00199 0.999588 0.979281
0.998061 1.00225 0.996053
0.997368 1.00198 0.989188
0.99567 1.00166 0.964475
0.995452 0.999958 0.964057
0.998759 0.998603 0.967767
1.00013 1.00196 0.992388
0.999992 1.00145 0.993199
0.99982 1.00032 0.994413
1.00026 1.00068 0.993461
1.00026 1.00099 0.993132
1.00015 1.00144 0.992925
1.00006 1.00149 0.992986
1.00028 1.00101 0.993099
1.00026 1.00115 0.992968
1.00015 1.00085 0.993507
0.999983 1.0005 0.994291
1.00036 1.00067 0.993282
1.00026 1.00109 0.992987
1.00025 1.001 0.99315
1.00012 1.00118 0.993178
1.00024 1.00118 0.992962
1.00025 1.00119 0.992975
1.00006 1.00144 0.993041
1.0002 1.00139 0.99284
1.00008 1.00184 0.992581
1.00027 1.0013 0.992798
0.999966 1.0027 0.991954
1.00007 1.00244 0.992061
0.999844 1.00335 0.991471
1.00015 1.00382 0.990532
1.00004 1.00268 0.991956
0.999844 1.00337 0.991464
0.999986 1.00224 0.992397
1.00009 1.0014 0.992942
0.999996 1.0019 0.99272
1.0001 1.00109 0.993333
1.00017 1.00023 0.994042
1.00011 1.00091 0.993493
1.00018 1.00014 0.994111
1.00014 0.999143 0.995157
1.00021 1.00009 0.994126
1.00018 0.999057 0.995179
1.00003 0.997361 0.997537
1.00019 0.999013 0.995187
1.00007 0.997293 0.997321
1 0.99618 0.998493
1.00011 0.997236 0.997097
1.00002 0.996128 0.998923
1.00002 0.996113 0.999359
1.00017 1.00005 0.994272
1.00017 0.998805 0.995439
1.00016 0.999917 0.994407
1.00011 0.99702 0.99731
1.00019 0.99872 0.995497
1.00016 0.999867 0.994433
1.00002 0.995969 0.999412
1.00012 0.996989 0.99732
1.0002 0.998693 0.995508
1.00012 0.997026 0.997289
1.00002 0.995995 0.999404
1.00001 0.996057 0.999392
0.995594 0.998649 0.966413
0.998438 0.995229 0.958712
0.99728 1.00094 0.974643
0.994958 0.998693 0.961458
0.999431 0.997146 0.981262
1.00482 0.998054 0.988693
0.999358 0.995287 0.968648
0.997704 0.998022 0.95953
0.99445 0.998169 0.953137
0.999742 0.997901 0.987353
0.998716 0.997522 0.962716
0.996309 0.99956 0.95913
0.995763 0.998251 0.96232
0.997225 0.998447 0.987034
0.996916 0.999993 0.962937
0.995572 0.999579 0.960652
0.997952 0.998069 0.967545
1.00009 1.00176 0.992731
1.00007 1.00131 0.993194
1.0001 1.00062 0.993802
1.00002 1.00114 0.993456
1.00012 1.00158 0.992767
1.00008 1.00129 0.993221
1.00009 1.00105 0.993361
1.00015 1.00102 0.993361
1.00012 1.00092 0.993509
1.00011 1.0007 0.993654
1.00467 0.99938 0.986694
1.00349 0.998689 0.98858
1.00008 1.00342 0.990777
1.00023 1.00316 0.99101
1.00019 1.0026 0.991732
1.00013 1.00211 0.992176
1.00007 1.00187 0.99256
1.00005 1.00202 0.992498
1.0026 1.00224 0.988558
1.00015 1.00221 0.992142
1.00028 1.00244 0.991717
1.00122 0.999724 0.992464
1.00019 1.00265 0.991676
1.00038 1.0014 0.992239
0.999976 1.00055 0.994562
1.00018 1.00201 0.991972
1.00018 1.00205 0.992207
1.00029 1.00244 0.991573
1.00114 0.999309 0.978305
0.996447 0.998834 0.966145
0.998553 0.995752 0.958537
0.999891 1.00267 0.992152
0.999078 1.00372 0.992204
1.00177 0.99881 0.993165
0.995095 0.999021 0.966031
0.996488 1.00131 0.962201
0.996745 1.00169 0.981706
1.0004 0.998064 0.997969
0.995736 0.999405 0.961396
0.997268 1.00019 0.97549
0.997118 0.997231 0.970683
0.999455 1.00197 0.993889
0.998869 0.999305 0.980319
1.00162 0.999957 0.979576
0.998134 1.00212 0.996221
0.997172 1.00118 0.989018
0.995949 1.00192 0.961773
0.99911 0.998097 0.969064
0.995145 0.999662 0.963705
0.998443 1.00131 0.996549
1.00575 1.00007 0.981475
1.00301 1.0013 0.97823
0.998231 0.997745 0.967594
0.995242 1.003 0.996811
0.995484 0.999227 0.968024
0.994566 1.00009 0.965006
1.0001 1.00135 0.993282
0.999966 1.00049 0.994076
0.999619 0.99925 0.996013
1.00027 1.00101 0.993102
1.00025 1.00119 0.992951
1.00013 1.00065 0.993603
1.00028 1.00112 0.992979
1.00035 1.00063 0.993272
1.00011 1.00029 0.994171
0.999678 1.00005 0.995029
1.00041 1.00083 0.992972
1.00025 1.00118 0.992976
1.00005 1.00148 0.993029
1.0002 1.00135 0.992857
1.00027 1.0013 0.992785
1.0001 1.00178 0.992633
0.999867 1.00219 0.992622
0.999909 1.00269 0.99205
0.99981 1.004 0.990858
1.00009 1.00242 0.992113
0.999959 1.00334 0.991414
1.00007 1.00424 0.989961
1.00013 1.00397 0.990363
1.00005 1.00303 0.991519
1.0001 1.00384 0.990534
1.00011 1.00182 0.992592
1.00004 1.00271 0.991873
0.999822 1.00325 0.99163
0.999991 1.00223 0.992498
1.00009 1.00137 0.993025
1.00016 1.00042 0.993868
1.0001 1.00111 0.993325
1.00016 1.00025 0.994037
1.00011 0.999253 0.995115
1.00018 1.00014 0.994108
1.00015 0.999133 0.995159
0.999968 0.997472 0.997522
1.00018 0.999049 0.99518
1.00003 0.997369 0.997318
0.999955 0.996272 0.998492
1.00008 0.997284 0.997103
0.999989 0.996187 0.998926
0.999996 0.996151 0.99936
1.00018 1.00024 0.993917
1.00015 0.998968 0.995167
1.00017 1.00006 0.994269
1.00009 0.997114 0.997256
1.00017 0.998815 0.995356
1.00015 0.999924 0.994292
1.00001 0.995998 0.999407
1.00011 0.997014 0.997311
1.00019 0.998719 0.995498
1.00002 0.995969 0.999411
1.00012 0.996989 0.997319
1.00002 0.996004 0.999402
0.999877 0.999885 0.978201
0.995691 0.998182 0.965697
0.998446 0.995169 0.959161
1.00021 1.00104 0.993171
1.00093 1.00006 0.98121
0.997093 1.00052 0.974602
0.994896 0.998585 0.96136
0.999626 0.99903 0.985431
0.998556 0.997909 0.96707
0.996189 0.999652 0.95884
0.995762 0.998412 0.961488
0.996755 0.999515 0.982412
0.996079 1.00092 0.966253
0.996662 0.999865 0.961068
0.998033 0.997945 0.967037
0.995884 1.00237 0.978551
0.99561 1.0006 0.961898
0.995083 0.99983 0.963121
0.9985 0.99851 0.967939
1.00016 1.0019 0.992411
1.00008 1.00177 0.992703
1.00006 1.0013 0.993247
1.00016 1.00154 0.992761
1.00011 1.00157 0.992853
1.00008 1.00126 0.993269
1.00016 1.00102 0.993378
1.00013 1.00091 0.993577
1.00296 1.00107 0.988835
1.0012 1.00006 0.99193
1.00006 1.00202 0.992495
1.00038 1.00248 0.991699
1.00031 1.00236 0.991753
1.00013 1.00226 0.992183
1.00017 1.00209 0.992222
1.00102 1.00106 0.992527
1.00028 1.0024 0.991718
1.00027 1.00218 0.991951
1.00008 0.999976 0.994408
1.00023 1.00189 0.992366
0.998807 0.998715 0.996786
0.998917 1.00266 0.994619
1.00028 1.00153 0.992231
1.00026 1.00206 0.992105
1.00772 0.999787 0.980274
1.00122 0.999721 0.978096
0.996441 0.999393 0.96614
0.999379 1.00199 0.993817
0.998199 1.002 0.996365
0.998554 0.998828 0.98236
0.995814 1.00041 0.965101
0.997172 1.0017 0.984504
0.994874 0.999876 0.963147
1.00137 1.00029 0.979872
0.999554 0.997771 0.970361
0.998518 1.00153 0.996033
1.0056 1.00017 0.981778
1.0037 1.0012 0.978954
0.995524 1.00374 0.999302
0.99837 0.997596 0.966906
0.995028 0.99942 0.966036
0.995035 0.999951 0.963448
0.997301 1.00089 0.999102
1.01096 0.999425 0.976818
1.0012 0.999587 0.981223
0.996103 0.997389 0.963599
0.994838 0.999653 0.963255
0.995324 0.999413 0.99841
0.995149 1.00017 0.962807
1.00009 1.0007 0.993743
0.999687 0.999457 0.995847
0.998529 0.99863 0.99876
1.00029 1.00115 0.992971
1.00034 1.00061 0.993262
1.00021 1.00016 0.994052
1.00037 1.00096 0.992943
0.999831 0.999729 0.995039
0.999599 1.00151 0.993681
1.00026 1.00132 0.992771
1.00013 1.00173 0.992684
0.999983 1.00215 0.992557
0.999417 1.0041 0.991505
0.999854 1.00268 0.992146
0.999724 1.00393 0.991064
1.00009 1.00489 0.989547
1.00067 1.00423 0.98912
1.00008 1.00333 0.991357
1.00019 1.00437 0.98974
1.0003 1.00357 0.990725
0.999924 1.00349 0.991115
1.00013 1.00384 0.990496
1.0001 1.00218 0.992256
1.00008 1.00302 0.991507
1.00005 1.00387 0.990537
1.00015 1.00075 0.993563
1.00011 1.0018 0.992565
1.00005 1.00273 0.991789
1.00009 1.00134 0.993107
1.00016 1.00044 0.99386
1.00007 0.99941 0.99503
1.00016 1.00026 0.994032
1.00011 0.999247 0.995114
0.999925 0.997621 0.997053
1.00015 0.999124 0.99516
0.999986 0.997479 0.997085
0.999858 0.996386 0.99936
1.00004 0.997362 0.997101
0.999944 0.996273 0.998926
0.999962 0.996214 0.99936
1.00022 1.00032 0.993772
1.00014 0.999172 0.994974
1.00019 1.00024 0.993979
1.00006 0.99726 0.997167
1.00015 0.998983 0.995145
1.00018 1.00007 0.994265
0.99999 0.996079 0.999391
1.00009 0.997104 0.99726
1.00017 0.998825 0.995273
1.00002 0.995991 0.999409
1.00011 0.997009 0.997313
1.00002 0.99597 0.99941
1.00711 0.999059 0.980014
0.99979 1 0.978367
0.995662 0.997919 0.96591
1.0002 1.00105 0.993192
1.00023 1.00109 0.993034
1.00015 1.00155 0.992826
1.00289 1.00176 0.977947
1.00068 0.999846 0.981497
0.996898 1 0.974557
0.9961 1.00022 0.985752
0.996666 0.999953 0.962968
0.995699 0.999857 0.960171
0.997892 0.997827 0.967183
0.99551 1.00109 0.982714
0.995983 1.00156 0.962815
0.995115 1.00001 0.964638
0.998896 0.998438 0.969174
0.995894 1.00225 0.980365
0.995086 1.00071 0.965855
0.994568 1.00013 0.965498
0.997797 0.997104 0.970515
1.00023 1.00181 0.992384
1.00015 1.00191 0.992399
1.00008 1.00179 0.992675
1.00016 1.00155 0.992755
1.0001 1.00156 0.99294
1.00017 1.00102 0.993395
1.00172 1.00039 0.992812
1.00004 0.999406 0.994256
1.00016 1.00216 0.992237
1.00038 1.00215 0.991931
1.00025 1.00243 0.991863
1.00025 1.00184 0.992308
1.00023 1.00207 0.992141
0.999147 0.999932 0.99679
1.00025 1.0016 0.992448
0.998623 1.00205 0.995795
1.0002 1.00158 0.992681
0.997108 0.998817 0.999417
0.998415 1.0004 0.998225
1.00009 1.00183 0.99253
1.0139 0.998882 0.974828
1.00889 0.999619 0.979018
1.0013 1.00017 0.977888
0.998646 1.0017 0.995511
0.99597 1.00151 0.998631
1.00546 1.00025 0.982082
0.995272 1.00034 0.973175
0.995262 1.00002 0.964702
1.00435 1.00101 0.979677
0.998256 0.997516 0.967043
0.997514 1.00096 0.999026
1.01169 0.999558 0.975923
1.00094 0.999454 0.981483
0.995013 1.00071 0.992379
0.99596 0.997906 0.962354
0.995298 0.999952 0.964004
0.995048 1.00012 0.967323
0.996387 1.00103 1.00235
1.00732 0.99889 0.979926
0.997853 1.00048 0.974223
0.994918 0.996552 0.959301
0.995221 0.999415 0.961371
0.995125 1.00008 0.966404
0.99516 0.999588 0.988945
0.999766 0.999713 0.995684
0.998668 0.998365 0.99868
0.99859 1.0002 0.997466
1.00033 1.00106 0.992915
0.999984 0.999378 0.99505
0.999477 1.00164 0.993838
0.999336 1.00296 0.992869
1.0001 1.00212 0.992493
0.999704 1.00406 0.991283
1.00002 1.00508 0.989517
0.999624 1.00386 0.99127
1.00013 1.00489 0.989528
1.00092 1.00488 0.988272
1.00121 1.00448 0.98803
1.00041 1.00343 0.990209
1.00067 1.00425 0.989054
1.00029 1.00449 0.989519
1.00026 1.00312 0.991131
1.00021 1.00341 0.990875
1.00001 1.00281 0.991677
0.999971 1.00345 0.991203
1.00014 1.00371 0.990629
1.00015 1.00118 0.993132
1.00011 1.00217 0.992262
1.00011 1.003 0.991495
1.00003 0.99966 0.994852
1.00015 1.00075 0.993558
1.0001 1.00178 0.992538
1.00015 1.00045 0.993852
1.00007 0.99941 0.995027
0.999858 0.997804 0.996996
1.00012 0.99924 0.995113
0.999929 0.997625 0.997051
0.999809 0.996534 0.999348
0.999991 0.997477 0.997085
0.999881 0.996401 0.99892
0.999916 0.996304 0.999358
1.00023 1.00041 0.99374
1.00014 0.999324 0.994963
1.00021 1.00033 0.993815
1.00002 0.997448 0.997058
1.00014 0.999183 0.995034
1.0002 1.00024 0.994041
0.999954 0.996203 0.999369
1.00006 0.99725 0.997172
1.00015 0.999 0.995123
0.999993 0.996062 0.999396
1.00009 0.997094 0.997264
1.00002 0.995982 0.999411
1.01088 0.999761 0.976434
1.00675 0.9995 0.980306
0.999693 1.00005 0.978545
1.00023 1.00121 0.992923
1.00015 1.00179 0.992574
1.00019 1.00107 0.993214
1.00023 1.00112 0.99302
1.00016 1.00154 0.992774
1.00016 1.00159 0.992733
1.00015 1.00179 0.992541
1.00184 0.999821 0.979174
1.00353 1.00168 0.978629
1.00042 0.999659 0.981784
0.999264 0.998179 0.970408
0.994946 1.00026 0.979353
0.995843 1.00256 0.96397
0.994815 1.00006 0.963133
0.995643 1.00014 0.97866
0.995261 1.00011 0.963059
0.994995 0.999995 0.964175
0.997448 0.997286 0.97018
0.995634 0.99799 0.986088
0.994994 1.00021 0.96318
0.99573 1.00002 0.963951
0.995316 0.997436 0.966292
1.00023 1.0017 0.992555
1.00022 1.00177 0.992377
1.00014 1.00192 0.992387
1.00016 1.00156 0.992749
0.999541 1.00157 0.996774
0.998437 1.00155 0.996961
1.00027 1.00177 0.992249
1.00021 1.00204 0.992176
1.00021 1.00175 0.992665
1.00022 1.00158 0.992625
1.00006 1.00188 0.992458
0.99665 1.00056 0.998732
0.998324 1.00029 0.998608
0.999945 1.00172 0.992878
0.995813 0.997505 1.00127
0.99892 1.0023 0.995668
1.00786 0.999893 0.980049
1.01613 0.998006 0.972237
1.01006 0.999416 0.977761
0.997725 1.001 0.99896
0.99532 0.999523 0.998719
1.01245 0.999718 0.975028
0.995208 1.00016 0.963154
0.994693 1.00001 0.963043
1.00069 0.999334 0.981744
0.995987 0.998263 0.96173
0.996457 1.00077 1.00248
1.00696 0.999304 0.980232
0.997667 1.00011 0.974188
0.994992 0.999601 0.993663
0.994693 0.997355 0.956309
0.996197 0.9998 0.961878
0.995224 1.00011 0.964888
0.99646 1.0018 1.00005
1.00023 0.999819 0.977809
0.995345 0.998386 0.962621
0.996382 0.999591 0.960404
0.995615 1.00055 0.966414
0.994839 0.999933 0.983603
0.998871 0.998099 0.998595
0.998487 1.00041 0.997453
1.00008 0.998949 0.996743
0.999341 1.0018 0.993995
0.999035 1.00301 0.993086
1.00024 1.00394 0.990196
1 1.00399 0.991061
1.00017 1.00508 0.989345
1.00109 1.00465 0.987839
1.00017 1.00489 0.989509
1.00097 1.00487 0.988146
1.0015 1.00432 0.987353
1.00192 1.00344 0.987558
1.00118 1.00372 0.988979
1.00125 1.00451 0.987842
1.00039 1.00282 0.990819
1.00043 1.00342 0.990283
1.00067 1.00427 0.988987
1.00025 1.00289 0.99129
1.00024 1.00316 0.991105
1.00013 1.00325 0.991025
1.00015 1.0017 0.992582
1.00004 1.00274 0.991769
1.00002 1.0034 0.991292
1.00001 1.00002 0.994518
1.00016 1.00116 0.993133
1.00012 1.00215 0.992268
0.9998 0.99801 0.996915
1.00003 0.999666 0.994846
1.00015 1.00075 0.993553
1.00007 0.999409 0.995023
0.999863 0.99781 0.996992
0.999733 0.99671 0.999334
0.999933 0.997629 0.997049
0.999799 0.996558 0.999344
0.999858 0.996426 0.999351
1.00021 1.00132 0.992885
1.00025 1.00051 0.993611
1.00013 0.999459 0.994848
1.00024 1.0004 0.99374
0.999975 0.997641 0.996953
1.00014 0.999337 0.994963
1.0002 1.00034 0.993857
0.999907 0.996361 0.999343
1.00002 0.997436 0.997064
1.00015 0.999192 0.995094
0.999959 0.996181 0.999376
1.00006 0.99724 0.997177
0.999997 0.996045 0.999402
1.00577 1.00014 0.981368
1.01162 0.999985 0.975573
1.00638 0.999943 0.980599
1.00022 1.00121 0.992949
1.00016 1.00179 0.99253
1.00012 1.00212 0.992227
1.00014 1.00171 0.992576
1.00013 1.00213 0.992306
1.00023 1.00112 0.993006
1.00017 1.00153 0.992722
1.00015 1.0016 0.992738
1.00019 1.00177 0.992489
1.00011 1.00189 0.992579
0.997644 0.99949 0.975312
1.00152 1.00019 0.979465
1.00421 1.00173 0.979311
0.997051 0.997439 0.970569
0.995244 1.00006 0.965327
0.995243 1.00033 0.97675
0.995083 1.00011 0.965889
0.995487 0.996902 0.980977
0.994983 1.00013 0.96618
0.994974 0.999936 0.963839
0.995547 0.997504 0.964735
0.995092 0.994806 0.98593
0.995071 1.00007 0.966821
0.995945 0.999875 0.961059
0.994596 0.998173 0.959098
0.999887 1.00145 0.99333
1.00019 1.00177 0.992526
1.00022 1.00175 0.99237
0.996117 1.00194 0.998062
0.998231 1.00001 0.999018
1.00023 1.00158 0.992568
1.00004 1.00198 0.992387
0.999938 1.00167 0.992928
0.998758 1.00224 0.995392
0.995817 0.997169 1.00133
0.998721 1.00264 0.994335
0.997119 1.00117 0.997008
1.00079 0.999823 0.978115
1.00899 0.999617 0.978865
1.01834 0.997181 0.969646
0.996469 1.00061 1.00259
0.99492 0.999723 0.986807
1.0066 0.999729 0.98054
0.995357 1.00007 0.962302
0.995398 0.999643 0.961796
0.997479 0.9996 0.974155
0.994498 0.99811 0.953318
0.996515 1.00171 1.00028
1.00015 0.999917 0.977988
0.99535 0.998277 0.961464
0.994879 0.999853 0.985838
0.996163 0.999679 0.959372
0.995654 0.999853 0.9634
0.997863 1.00038 0.997088
0.995758 0.998402 0.966602
0.997217 0.997748 0.959098
0.997112 1.00047 0.96296
0.994897 1.00007 0.985536
0.99845 1.00059 0.997436
0.999911 0.998689 0.996759
1.00193 0.998934 0.992375
0.998746 1.00304 0.993302
0.99994 1.00399 0.99047
1.00172 1.00248 0.988523
1.00031 1.00509 0.989173
1.00114 1.00453 0.987838
1.00233 1.00291 0.98741
1.00101 1.00486 0.988019
1.00151 1.0043 0.98739
1.00251 1.00224 0.987564
1.00263 1.00153 0.988046
1.0016 1.00318 0.988311
1.00192 1.00332 0.987591
1.00093 1.00309 0.9899
1.00111 1.0038 0.988805
1.00128 1.00453 0.987654
1.00044 1.00251 0.991253
1.00038 1.0028 0.990936
1.00044 1.0034 0.990358
1.00024 1.00208 0.992072
1.00023 1.00288 0.991334
1.00021 1.00321 0.99108
1.00001 1.00054 0.993997
1.00017 1.0017 0.992583
1.00006 1.00267 0.991861
0.999719 0.998293 0.997219
1.00001 1.00003 0.994509
1.00016 1.00115 0.993134
0.99967 0.996946 0.998372
0.999795 0.998041 0.99712
1.00003 0.999671 0.99484
0.999868 0.997817 0.996989
0.999723 0.996743 0.999328
0.999789 0.996584 0.99934
1.00018 1.00164 0.992586
1.00025 1.00068 0.993435
1.00021 1.00136 0.992846
1.0001 0.999604 0.994765
1.00025 1.00052 0.993612
0.999922 0.99782 0.996869
1.00013 0.999477 0.994848
1.00024 1.00041 0.993739
0.999852 0.996534 0.999317
0.999971 0.997633 0.996958
1.00014 0.999355 0.994962
0.999912 0.996334 0.999351
1.00002 0.997425 0.99707
0.999963 0.996156 0.999383
0.999707 0.999111 0.981054
1.00562 1.00022 0.981653
1.01235 1.00026 0.974712
1.00007 1.00239 0.992112
1.00022 1.00124 0.992976
1.00017 1.0018 0.992486
1.00015 1.00172 0.992614
1.00014 1.00209 0.992272
1.00013 1.00211 0.992271
1.00012 1.0024 0.992016
1.00006 1.00213 0.9923
1.00013 1.00162 0.992743
1.00022 1.00175 0.992437
1.0001 1.0019 0.992558
1.00007 1.00223 0.992595
0.995071 0.999333 0.95999
0.997565 0.999818 0.975262
1.0012 1.00047 0.979754
0.995859 0.997607 0.96371
0.99521 0.999918 0.963602
0.995003 1.00021 0.963237
0.995302 0.995692 0.984157
0.994992 0.994826 0.989758
0.994524 0.998101 0.95623
0.994921 1.00013 0.963183
0.99607 0.999799 0.961278
0.995552 0.997375 0.988709
0.995762 0.999561 0.967816
0.996457 0.999842 0.959396
0.999423 1.00124 0.994331
0.999986 1.00142 0.993333
1.00015 1.00184 0.992498
0.99582 0.99685 1.00134
0.998746 1.00208 0.995129
0.999905 1.00163 0.992977
0.999087 1.00255 0.994187
0.99669 1.00133 0.997158
0.99838 1.00119 0.994859
0.99621 0.999138 0.962792
1.0012 0.999695 0.979522
1.01012 0.999326 0.977682
0.996495 1.0016 1.00056
0.9949 0.999819 0.987419
1.00005 1.00003 0.978179
0.995749 0.999208 0.966535
0.996239 0.99979 0.958915
0.995284 0.99821 0.961423
0.997691 1.00022 0.997191
0.995849 0.998073 0.965795
0.997042 0.997797 0.959337
0.994872 1.00021 0.981085
0.996269 1.0004 0.965913
0.999008 0.999755 0.996435
0.998481 0.995706 0.959075
0.997384 1.0001 0.965992
0.995254 1.00078 0.978988
0.999665 0.998499 0.996779
1.00156 0.99877 0.993142
1.00313 0.997184 0.991146
0.999639 1.00404 0.990745
1.00178 1.0024 0.988541
1.00353 0.999112 0.988457
1.00119 1.0044 0.987837
1.00228 1.00269 0.987465
1.00356 0.999526 0.988264
1.00151 1.00428 0.987427
1.00253 1.00211 0.987592
1.00339 0.999496 0.988657
1.00306 0.999767 0.989062
1.00227 1.00185 0.98842
1.00262 1.00143 0.988166
1.00125 1.00274 0.989179
1.00162 1.00315 0.988416
1.00192 1.0032 0.987624
1.00064 1.00257 0.990822
1.00082 1.0031 0.989912
1.00103 1.00388 0.98863
1.00039 1.00208 0.991801
1.00047 1.00251 0.991243
1.00038 1.00278 0.991052
1.00002 1.00116 0.993393
1.00025 1.00207 0.992085
1.00021 1.00286 0.991377
0.999672 0.998633 0.996506
1.00001 1.00054 0.993987
1.00018 1.00169 0.992585
0.999545 0.9972 0.999282
0.999731 0.998334 0.996717
1 1.00004 0.994499
0.999647 0.996941 0.999307
0.999802 0.998055 0.996881
0.999712 0.996776 0.999322
1.00012 1.00198 0.992449
1.00019 1.00163 0.992594
1.00022 1.00098 0.993186
1.00007 0.999758 0.994672
1.00025 1.00068 0.993438
1.00021 1.00138 0.992807
0.999869 0.997986 0.996807
1.0001 0.999604 0.994766
1.00024 1.00051 0.993613
0.999789 0.996706 0.999297
0.999918 0.997817 0.996872
1.00012 0.999489 0.994848
0.999858 0.996507 0.999325
0.999967 0.997625 0.996962
0.999918 0.996306 0.999359
0.995722 0.999202 0.963388
0.999496 0.999122 0.981234
1.00548 1.00029 0.981939
1.00006 1.00244 0.992068
1.00006 1.0027 0.991893
1.00006 1.00264 0.991874
1.00016 1.00173 0.992651
1.00015 1.00205 0.992318
1.00012 1.00209 0.992236
1.00008 1.00214 0.992278
1.0001 1.00241 0.991996
0.999967 1.00292 0.991814
1.00013 1.00188 0.992377
1.00009 1.00191 0.992536
1.00001 1.00211 0.992608
0.997896 0.998009 0.958291
0.994913 0.999624 0.958954
0.997429 1.00003 0.975221
0.994462 0.998171 0.953352
0.99525 0.999844 0.960866
0.995464 1.00014 0.967825
0.995055 0.994817 0.985619
0.995296 0.997467 0.985045
0.996263 0.999139 0.958785
0.995531 0.999964 0.965634
0.996788 0.996621 0.984564
0.997017 1.0008 0.962544
1.00077 1.0012 0.992585
0.999605 1.00108 0.994235
1.00007 1.00138 0.993336
0.996149 1.00159 0.997294
0.999401 1.00247 0.994034
0.999011 1.00147 0.994397
1.00165 0.999465 0.991072
0.998611 0.994845 0.958354
0.996086 0.999293 0.964684
1.00162 0.999536 0.980925
0.997584 0.999972 0.997321
0.99493 1.00003 0.983258
0.995828 0.997798 0.966004
0.996383 1.00068 0.962627
0.997634 0.998955 0.959819
0.998957 0.999806 0.995858
0.998419 0.995578 0.958738
0.99846 0.998679 0.962249
0.99511 1.00102 0.982522
0.999999 1.00037 0.994717
0.999168 0.996945 0.963123
0.996961 0.999134 0.984614
1.00123 0.998616 0.993906
1.00297 0.997455 0.991043
1.00458 0.99544 0.989988
1.00183 1.00233 0.988558
1.00358 0.999073 0.988404
1.00459 0.996292 0.989211
1.00223 1.00249 0.98752
1.00355 0.999396 0.988257
1.00447 0.996698 0.989118
1.00254 1.00197 0.987621
1.00337 0.99942 0.988642
1.00377 0.99773 0.98961
1.00337 0.998761 0.989636
1.00305 0.999632 0.989188
1.00273 1.00038 0.989037
1.00202 1.00183 0.988963
1.00228 1.00188 0.988441
1.00261 1.00132 0.988287
1.00103 1.00246 0.989993
1.00129 1.00275 0.989307
1.00165 1.00311 0.988521
1.00052 1.00208 0.991517
1.00067 1.00258 0.990802
1.00071 1.00311 0.989923
1.00008 1.00144 0.992962
1.00042 1.00205 0.991806
1.0005 1.00251 0.991234
0.99963 0.999037 0.996147
1.00004 1.00109 0.993395
1.00026 1.00205 0.992099
0.999507 0.997429 0.999232
0.99967 0.998672 0.996484
1.00001 1.00053 0.993976
0.999568 0.997218 0.998789
0.999739 0.998343 0.996711
0.999634 0.997005 0.999292
1.00012 1.0023 0.992108
1.00011 1.00201 0.9924
1.00015 1.00141 0.992912
1.0002 1.00163 0.992601
1.00022 1.00098 0.993186
1.00001 1.00003 0.994501
0.999815 0.998137 0.996761
1.00007 0.999749 0.994678
1.00024 1.0007 0.993441
0.999719 0.996876 0.999281
0.999863 0.997981 0.99681
1.0001 0.999605 0.994768
0.999796 0.996685 0.999303
0.999913 0.997814 0.996875
0.999863 0.996479 0.999332
0.998561 0.996008 0.959312
0.995432 0.999592 0.962474
0.999286 0.999138 0.98141
1.00005 1.0025 0.992025
1.00005 1.00273 0.991796
1.00002 1.00267 0.99195
1.00016 1.00271 0.991702
0.999986 1.00301 0.991683
1.00009 1.00215 0.992256
1.0001 1.00243 0.991975
0.99994 1.00282 0.99185
0.999842 1.0029 0.991593
1.00011 1.00242 0.99187
1.00151 1.00188 0.990264
0.999964 1.00221 0.99246
0.999991 1.00198 0.992621
0.999144 0.99904 0.961535
0.997325 0.998218 0.95838
0.994702 0.999893 0.958904
0.996634 0.999365 0.958387
0.995556 1.00063 0.963075
0.994986 0.997496 0.989554
0.997013 0.996826 0.986893
0.997046 0.998851 0.966501
0.999877 0.99795 0.981631
1.00308 0.999363 0.98957
1.00037 1.00103 0.992561
0.999743 1.00092 0.994138
0.99954 1.00171 0.993948
1.00237 0.999733 0.990378
0.99962 0.99555 0.962741
0.998689 0.995268 0.959187
0.995948 0.999515 0.966582
0.998867 0.999868 0.99526
0.994862 1.00141 0.979287
0.998495 0.995266 0.958953
0.99788 0.999552 0.966107
1.00029 1.00011 0.994751
1.00004 0.995866 0.965288
0.996723 1.00008 0.980915
1.00204 1.00219 0.990446
1.00036 0.99669 0.988202
1.00284 0.997723 0.990936
1.00435 0.995966 0.989757
1.00514 0.996012 0.988583
1.00364 0.999027 0.988354
1.00455 0.996546 0.989136
1.00503 0.99576 0.98898
1.00354 0.999259 0.988251
1.00445 0.996855 0.98904
1.00465 0.99652 0.989035
1.00335 0.999352 0.988627
1.00372 0.997834 0.989558
1.00388 0.997675 0.989539
1.00328 0.998597 0.989796
1.0032 0.999404 0.989277
1.00303 0.999508 0.989315
1.00273 1.0004 0.989006
1.00254 1.00076 0.989046
1.00163 1.00184 0.989495
1.00201 1.00186 0.988939
1.00229 1.00192 0.988462
1.00078 1.0021 0.991014
1.00101 1.00246 0.990082
1.00132 1.00276 0.989436
1.00012 1.00157 0.992702
1.00056 1.00208 0.9915
1.00069 1.00258 0.990783
0.999622 0.999466 0.995708
1.0001 1.0014 0.992972
1.00044 1.00203 0.991811
0.999472 0.997702 0.999162
0.99962 0.9991 0.996128
1.00005 1.00104 0.993396
0.99951 0.997474 0.999213
0.999667 0.998717 0.996463
0.999564 0.997254 0.999252
1.00023 1.00248 0.991746
1.00012 1.00228 0.992112
1.00014 1.00181 0.992478
1.00011 1.00203 0.992352
1.00014 1.00146 0.992845
0.999966 1.00047 0.994135
1.00022 1.00098 0.993187
1.00002 1.00001 0.994507
0.999743 0.998352 0.996684
0.999641 0.997048 0.999269
0.999808 0.998136 0.996764
1.00007 0.999738 0.994684
0.999729 0.996856 0.999286
0.999859 0.997977 0.996812
0.999802 0.996661 0.999309
1.00057 0.996479 0.964448
0.998282 0.996029 0.958759
0.995026 0.999966 0.962551
1.00002 1.00284 0.991718
0.999968 1.00264 0.992007
0.99999 1.00301 0.991718
1.00014 1.00271 0.991704
1.00026 1.00294 0.991284
0.999938 1.00286 0.991711
0.999914 1.00271 0.991887
0.99997 1.00305 0.991426
1.00002 1.00268 0.991777
1.00039 1.00214 0.991232
1.00177 1.00174 0.990551
1.00312 1.00034 0.988281
1.00127 1.00177 0.990465
0.999788 1.00255 0.992543
0.999699 0.998038 0.980372
0.998811 0.998976 0.962692
0.997461 0.998299 0.958886
0.997768 1.00045 0.96258
0.997172 0.996884 0.989183
1.00008 0.997804 0.98583
1.00357 0.997297 0.990551
1.00312 0.99903 0.989946
1.00023 1.00087 0.992534
1.00353 1.00016 0.989672
0.99912 0.998633 0.981701
1.0002 0.995659 0.96676
0.998549 0.995649 0.958939
1.00047 0.999974 0.994774
0.996482 1.00086 0.983174
0.99958 0.995719 0.967499
1.00213 1.0012 0.990671
0.999815 0.997784 0.986368
1.00423 1.00006 0.988209
1.0047 0.997478 0.988689
1.00414 0.996432 0.989527
1.00503 0.996014 0.98855
1.00513 0.99684 0.988116
1.00446 0.996768 0.989058
1.00497 0.995965 0.988972
1.005 0.99702 0.987984
1.00446 0.997021 0.988961
1.00461 0.996737 0.988976
1.00459 0.997611 0.988271
1.00368 0.997945 0.989506
1.00374 0.997748 0.989646
1.00363 0.99876 0.988874
1.00319 0.998434 0.989955
1.00316 0.999286 0.989354
1.00305 1.00004 0.988956
1.00274 1.00041 0.988975
1.00254 1.00079 0.989022
1.00228 1.00103 0.989362
1.0012 1.00173 0.990378
1.00161 1.00185 0.989584
1.002 1.0019 0.988915
1.00025 1.0017 0.992352
1.0008 1.0021 0.991006
1.00101 1.00246 0.990172
0.999582 1.00001 0.995268
1.00015 1.00159 0.992703
1.0006 1.00208 0.991484
0.999461 0.997981 0.999058
0.999618 0.999524 0.9957
1.00012 1.00136 0.992982
0.999482 0.997745 0.999131
0.999613 0.999157 0.996108
0.999515 0.997516 0.999193
1.00034 1.00268 0.991369
1.00024 1.00246 0.991779
1.00021 1.00209 0.992137
1.00011 1.00227 0.992116
1.00014 1.00186 0.992428
0.999977 1.00095 0.993627
1.00014 1.00152 0.992779
0.999972 1.00046 0.994141
0.999666 0.998668 0.996512
1.00003 0.999987 0.994514
0.99974 0.998335 0.996693
0.999562 0.997259 0.999249
0.999654 0.997028 0.999273
0.999802 0.998132 0.996768
0.999736 0.996838 0.999291
0.999507 0.997938 0.981035
1.00032 0.996376 0.961472
0.998431 0.995907 0.958869
1.00077 1.00258 0.990647
0.999993 1.00301 0.991753
1.00011 1.00271 0.991706
0.999981 1.00294 0.991705
1.00021 1.00302 0.991252
1.00025 1.00197 0.991948
1.0001 1.00324 0.99126
0.99999 1.00296 0.991683
1.00054 1.00215 0.991359
1.00149 1.00173 0.990617
1.00275 1.00042 0.988927
1.00479 0.998351 0.986761
1.00306 1.0002 0.988241
1.0011 1.00157 0.990667
1.00311 0.996853 0.992392
0.999584 0.998535 0.978807
0.998937 0.998842 0.964215
0.999908 0.997586 0.983103
1.00364 0.996764 0.991322
1.00283 0.998584 0.990333
1.00347 0.998612 0.988714
0.998949 0.997699 0.984176
0.999971 0.995494 0.962525
1.0023 1.00005 0.990888
0.999802 0.998923 0.984483
1.00424 0.999083 0.988267
1.00466 0.99771 0.989031
1.00518 0.996578 0.987971
1.00519 0.997482 0.987666
1.00487 0.996066 0.988517
1.00509 0.996523 0.988193
1.00494 0.997337 0.988017
1.00496 0.996124 0.988965
1.00502 0.996963 0.98799
1.00484 0.998109 0.987229
1.00456 0.996939 0.988916
1.00446 0.997631 0.988471
1.00419 0.998506 0.988008
1.0036 0.997814 0.989753
1.00363 0.998763 0.988866
1.00348 0.999481 0.988482
1.00312 0.999167 0.98943
1.00302 0.999961 0.988974
1.00274 1.00044 0.989011
1.00253 1.00081 0.988999
1.00223 1.00104 0.989314
1.00181 1.00119 0.99003
1.0006 1.0015 0.991913
1.00119 1.00173 0.99047
1.00158 1.00187 0.989674
0.999547 1.00053 0.994823
1.00027 1.00171 0.99235
1.00083 1.00208 0.990998
0.999388 0.998332 0.99894
0.999618 0.999969 0.995263
1.00017 1.00159 0.992706
0.99945 0.998029 0.999021
0.999615 0.999567 0.99569
0.999488 0.997785 0.999098
1.00061 1.00257 0.990784
1.00033 1.00264 0.991379
1.00036 1.0022 0.991814
1.00025 1.00244 0.991813
1.0002 1.00208 0.992157
1.00001 1.00137 0.99317
1.00014 1.00191 0.992378
0.999963 1.00099 0.993625
0.999592 0.999077 0.99623
0.999975 1.00046 0.994146
0.999668 0.99863 0.99653
0.999496 0.997502 0.999207
0.999739 0.998321 0.996701
0.999573 0.997224 0.999256
0.999664 0.99701 0.999277
1.00318 0.997397 0.991152
0.9995 0.998222 0.977668
0.999975 0.996756 0.964937
1.00087 1.00174 0.991055
1.0019 1.00159 0.989493
1.00058 1.00261 0.990757
1.00003 1.00298 0.9917
1.00016 1.0031 0.991218
1.00044 1.00193 0.991822
1.00279 1.00014 0.989268
1.00065 1.00217 0.991486
1.00108 1.00171 0.990683
1.00273 1.00039 0.988992
1.00447 0.999015 0.986668
1.0051 0.996982 0.987405
1.00481 0.998414 0.986801
1.00308 1.00016 0.9882
1.00337 0.996791 0.99256
0.999431 0.999244 0.976593
1.00395 0.996383 0.992078
1.00507 0.996856 0.988854
1.00323 0.998449 0.988976
0.999359 0.996962 0.980284
1.00428 0.998187 0.988337
1.00462 0.997945 0.989327
1.00509 0.996545 0.98815
1.0052 0.997086 0.9877
1.00497 0.997028 0.987997
1.00512 0.99651 0.987878
1.00506 0.996159 0.98827
1.00489 0.997175 0.988021
1.00476 0.997814 0.987623
1.00504 0.996995 0.987996
1.0048 0.998074 0.987363
1.00455 0.998456 0.987354
1.00432 0.997659 0.988671
1.00424 0.998501 0.987974
1.00405 0.998975 0.987871
1.00364 0.998767 0.988859
1.00348 0.999475 0.988476
1.00319 0.999998 0.988533
1.00299 0.999881 0.988992
1.00269 1.00042 0.989021
1.00222 1.00073 0.989656
1.00219 1.00104 0.989266
1.00176 1.00118 0.990007
1.00103 1.00109 0.991508
0.999609 1.00072 0.994456
1.00061 1.00151 0.991909
1.00119 1.00174 0.990562
0.999235 0.998842 0.998819
0.999616 1.00044 0.994813
1.00029 1.00172 0.992348
0.999359 0.998431 0.998903
0.999647 0.999959 0.995258
0.999444 0.998094 0.998985
1.00115 1.00224 0.989837
1.00061 1.00255 0.990691
1.00067 1.00211 0.991305
1.00031 1.00261 0.991389
1.00033 1.00219 0.991823
1.00005 1.00167 0.992832
1.00019 1.00208 0.992177
0.999979 1.00143 0.993164
0.999552 0.999528 0.995845
0.99995 1.00104 0.993623
0.999601 0.999021 0.996249
0.999451 0.997763 0.999134
0.99967 0.998592 0.996548
0.9995 0.99746 0.999222
0.999584 0.997195 0.999264
1.00504 0.996493 0.988018
1.0032 0.997243 0.990665
0.99959 0.997571 0.979262
1.00284 1.00038 0.989232
1.00068 1.00161 0.991561
1.00281 1.00037 0.988374
1.00193 1.00161 0.989425
1.00037 1.00266 0.990868
1.00449 0.999084 0.986995
1.00064 1.00189 0.991699
1.00285 1.00006 0.989159
1.00504 0.998285 0.986553
1.00274 1.00032 0.989056
1.00467 0.999014 0.986477
1.00505 0.997132 0.987411
1.00467 0.998523 0.986837
1.0035 0.996612 0.99273
1.00497 0.997069 0.987889
1.00492 0.996954 0.98882
1.00291 0.998266 0.98923
1.00499 0.996454 0.988332
1.00523 0.996785 0.987731
1.00493 0.996958 0.988063
1.00513 0.996643 0.987974
1.00505 0.997459 0.987506
1.00484 0.997046 0.988026
1.00474 0.997907 0.987613
1.00465 0.99833 0.987335
1.00477 0.998042 0.987496
1.00458 0.998468 0.987349
1.00438 0.998757 0.987481
1.00429 0.998497 0.987939
1.00407 0.998975 0.987854
1.00373 0.999464 0.988029
1.00349 0.999469 0.98847
1.00319 0.999992 0.98853
1.0027 1.00035 0.989111
1.00265 1.00039 0.989031
1.00221 1.00072 0.98966
1.00145 1.00072 0.991092
1.00171 1.00117 0.989984
1.00103 1.0011 0.991501
0.999695 1.00069 0.995087
0.999146 0.999532 0.996933
0.999678 1.00063 0.99487
1.00061 1.00153 0.991905
0.99921 0.998979 0.998777
0.999684 1.00036 0.994803
0.999337 0.998519 0.998862
1.00336 0.999422 0.988569
1.00187 1.00153 0.9892
1.00128 1.00223 0.989729
1.00105 1.00191 0.990758
1.00061 1.00254 0.990598
1.00063 1.00211 0.991325
1.00018 1.00174 0.992547
1.0003 1.00218 0.991833
1.00003 1.00169 0.99283
0.999565 0.999973 0.995391
0.99995 1.00151 0.993158
0.999556 0.999479 0.995858
0.999404 0.998068 0.999027
0.999609 0.998966 0.996269
0.999449 0.997722 0.999159
0.999507 0.997418 0.999236
1.00493 0.997703 0.987286
1.00504 0.9967 0.98855
1.00327 0.997294 0.990182
1.00426 0.999006 0.987384
1.0025 1.00043 0.989621
1.00048 1.00146 0.992062
1.00302 1.0003 0.988512
1.00196 1.00164 0.989357
1.00511 0.998567 0.986344
1.00445 0.999178 0.986817
1.00291 1.00002 0.989049
1.00504 0.998304 0.986547
1.0049 0.999008 0.986286
1.00502 0.997253 0.987427
1.00512 0.997642 0.987247
1.00502 0.996997 0.987897
1.00484 0.996986 0.988787
1.00489 0.996893 0.98813
1.00513 0.996747 0.98807
1.00503 0.997413 0.987584
1.00488 0.998304 0.986957
1.00473 0.997982 0.987602
1.00462 0.998397 0.987346
1.00447 0.998913 0.987155
1.00461 0.998478 0.987345
1.00438 0.998753 0.98748
1.00403 0.999147 0.987764
1.00409 0.998974 0.987836
1.00373 0.999463 0.988024
1.00318 0.999908 0.988629
1.0032 0.999987 0.988528
1.0027 1.00034 0.98911
1.00185 1.00045 0.990585
1.00221 1.00072 0.989664
1.00145 1.00072 0.99108
0.999875 1.00054 0.994953
1.00103 1.00112 0.991493
0.999797 1.00066 0.99504
0.999009 1.00007 0.996757
0.999079 0.999586 0.997789
0.999767 1.00054 0.995251
0.999187 0.999104 0.998729
1.00433 0.99874 0.987555
1.00271 1.00049 0.98905
1.00322 0.999145 0.989155
1.00152 1.00162 0.990095
1.00199 1.00156 0.989168
1.0014 1.0022 0.989621
1.001 1.00195 0.990766
1.00042 1.00167 0.992162
1.00059 1.0021 0.991345
1.00015 1.00173 0.992549
0.9996 1.00036 0.994954
0.999999 1.00169 0.992829
0.999543 0.999964 0.995398
0.999311 0.998483 0.998898
0.999561 0.99942 0.99587
0.999407 0.998013 0.999063
0.999448 0.997677 0.999183
1.00512 0.997973 0.986814
1.00498 0.997677 0.987271
1.00501 0.996835 0.989074
1.00494 0.998485 0.986618
1.00424 0.999073 0.987429
1.0022 1.00048 0.990011
1.00321 1.00022 0.988651
1.00511 0.998526 0.986341
1.00442 0.999272 0.986639
1.00503 0.998333 0.986541
1.00515 0.997977 0.986807
1.00511 0.997647 0.987195
1.00506 0.99694 0.987905
1.00511 0.998362 0.986629
1.00501 0.997383 0.987662
1.0049 0.998281 0.986978
1.00458 0.998972 0.986829
1.00459 0.998472 0.987358
1.00446 0.998921 0.987165
1.00414 0.999257 0.987448
1.00439 0.99875 0.987478
1.00404 0.999148 0.987761
1.00347 0.9996 0.988394
1.00374 0.999461 0.988019
1.00318 0.999906 0.988629
1.00223 1.00018 0.990136
1.00271 1.00034 0.989109
1.00187 1.00044 0.990571
1.0001 1.00031 0.994813
1.00145 1.00073 0.991067
0.999968 1.00053 0.994904
0.998982 1.00025 0.996683
0.999905 1.00061 0.99499
0.998943 1.00016 0.996808
0.998969 0.999593 0.998723
1.00469 0.998869 0.986909
1.00379 0.99932 0.988064
1.00421 0.998842 0.987741
1.00222 1.00095 0.98965
1.00271 1.00037 0.989069
1.00309 0.998879 0.989735
1.00084 1.00145 0.991543
1.00152 1.00163 0.990088
1.00211 1.00161 0.989136
1.00096 1.00199 0.990774
1.00039 1.00166 0.992169
0.999652 1.00067 0.994569
1.00013 1.0017 0.992551
0.999545 1.00043 0.994958
0.999157 0.999038 0.998773
0.999524 0.999961 0.995404
0.99933 0.998396 0.99894
0.999411 0.997961 0.999098
1.00509 0.998045 0.986819
1.00513 0.997968 0.986775
1.00506 0.997649 0.987257
1.00498 0.998349 0.986706
1.00422 0.999146 0.987473
1.0051 0.998471 0.986338
1.00515 0.998165 0.986614
1.00516 0.998005 0.986758
1.0051 0.997653 0.987143
1.00508 0.998267 0.986683
1.00499 0.998726 0.986442
1.0049 0.99825 0.987
1.0046 0.999027 0.98682
1.00428 0.999386 0.986969
1.00446 0.998929 0.987175
1.00414 0.999268 0.987448
1.00359 0.999631 0.988121
1.00404 0.999146 0.987759
1.00347 0.999597 0.988391
1.00245 0.999951 0.98993
1.00318 0.999903 0.988629
1.00224 1.00016 0.990129
1.00036 1.00007 0.994635
1.00188 1.00042 0.990556
1.00019 1.00032 0.994752
0.999078 1.00022 0.996594
1.00007 1.0005 0.994857
0.998918 1.00032 0.996745
0.998871 1.00028 0.996865
1.00484 0.998469 0.986824
1.00425 0.999056 0.98742
1.00467 0.998841 0.986868
1.00306 1.00002 0.988859
1.00377 0.999391 0.988114
1.00408 0.998941 0.987933
1.00141 1.00093 0.990906
1.0022 1.00089 0.989505
1.0027 1.00024 0.989089
0.999773 1.00081 0.994191
1.00083 1.00143 0.991556
1.00151 1.00165 0.990081
1.00037 1.00166 0.992176
0.999565 1.00077 0.994581
0.999002 0.999648 0.998665
0.999484 1.00051 0.994963
0.999185 0.998919 0.998816
0.999354 0.99831 0.998981
1.00507 0.998161 0.986769
1.00509 0.998056 0.986812
1.00514 0.997967 0.986735
1.00501 0.998218 0.986793
1.00508 0.998454 0.986474
1.00515 0.998174 0.986614
1.00518 0.998034 0.98671
1.00508 0.998184 0.986737
1.00499 0.998682 0.986466
1.00475 0.999145 0.986497
1.00462 0.999085 0.986811
1.00429 0.999431 0.987027
1.00376 0.999704 0.987588
1.00414 0.999281 0.987447
1.0036 0.999636 0.988116
1.00257 0.999906 0.989741
1.00347 0.999599 0.988389
1.00247 0.999935 0.989928
1.00051 0.999936 0.993528
1.00226 1.00014 0.990123
1.00041 1.00007 0.994097
0.999224 1.00015 0.998466
1.00027 1.00032 0.994693
0.999005 1.00028 0.996663
0.998844 1.00045 0.996799
1.00486 0.9984 0.986893
1.00437 0.998922 0.987214
1.00483 0.998508 0.986866
1.00355 0.999443 0.988157
1.00424 0.999082 0.987449
1.00465 0.998816 0.986827
1.00203 1.00025 0.990115
1.00307 1.00002 0.988852
1.00376 0.999467 0.988165
1.00002 1.00065 0.993835
1.00142 1.00089 0.990777
1.00219 1.00082 0.989359
0.998969 1.00012 0.998566
0.999686 1.00089 0.994211
1.00082 1.00143 0.991569
0.99948 1.00087 0.994592
0.99902 0.999511 0.998704
0.999218 0.998789 0.998854
1.00502 0.998397 0.986636
1.00508 0.99816 0.986755
1.00508 0.998071 0.986805
1.00491 0.998882 0.986459
1.00508 0.998432 0.986484
1.00516 0.998175 0.986614
1.00498 0.998627 0.98649
1.00474 0.999153 0.986488
1.00429 0.99947 0.98709
1.0043 0.999479 0.987084
1.00376 0.999738 0.987744
1.00281 0.99992 0.988997
1.0036 0.999637 0.98811
1.00258 0.999903 0.989737
1.00059 0.999962 0.993356
1.00248 0.99992 0.989927
1.00051 0.999942 0.993526
0.999288 1.00006 0.998445
1.00043 1.00008 0.993597
0.999188 1.00014 0.997532
0.998933 1.00035 0.996729
1.00482 0.998547 0.98691
1.00447 0.998806 0.987253
1.00486 0.998389 0.986901
1.00376 0.999336 0.988048
1.00439 0.9989 0.987242
1.00481 0.998547 0.986909
1.00249 0.999811 0.989704
1.00357 0.999511 0.988317
1.00422 0.999106 0.987478
1.0003 1.00028 0.993609
1.00208 1.00024 0.99006
1.00308 1.00001 0.988845
0.99906 1.00033 0.998488
0.999964 1.00068 0.993858
1.00143 1.00086 0.990647
0.998938 1.00001 0.998601
0.99961 1.00095 0.994231
0.999031 0.999366 0.998744
1.00482 0.9988 0.986657
1.005 0.998418 0.98666
1.00509 0.998155 0.986741
1.00446 0.999214 0.987012
1.00491 0.99885 0.986482
1.00508 0.998417 0.986494
1.00473 0.999163 0.986478
1.00427 0.999499 0.987083
1.00327 0.99974 0.988303
1.00378 0.999771 0.9879
1.00278 0.999936 0.989171
1.00076 1.00003 0.992936
1.00259 0.999894 0.989733
1.00059 0.999962 0.993348
0.999354 1.00001 0.998408
1.0005 0.999953 0.993524
0.999309 1.00005 0.998435
0.999224 1.00011 0.99652
1.00457 0.998852 0.987175
1.00481 0.998468 0.986961
1.00393 0.999248 0.987827
1.00449 0.998802 0.987241
1.00485 0.998378 0.98691
1.00272 0.999724 0.989639
1.00378 0.999328 0.988041
1.00441 0.998875 0.987269
1.00052 0.999972 0.993467
1.0025 0.999857 0.989791
1.00359 0.999584 0.988477
0.999205 1.00026 0.998442
1.00028 1.00028 0.993625
1.00212 1.00023 0.990006
0.999007 1.00025 0.998511
0.999907 1.00071 0.993884
0.998908 0.999895 0.99864
1.00434 0.99918 0.987271
1.00482 0.998821 0.986665
1.00498 0.998439 0.986683
1.00342 0.999558 0.988209
1.00446 0.99922 0.987008
1.00491 0.998815 0.986505
1.00426 0.999535 0.987076
1.00322 0.999763 0.988368
1.00103 1.00003 0.992428
1.00275 0.999949 0.989345
1.00079 1.00003 0.992914
0.999461 1.00001 0.998317
1.0006 0.999965 0.99334
0.999387 1 0.998384
0.999336 1.00003 0.998424
1.0041 0.999207 0.987578
1.00457 0.998786 0.987142
1.0048 0.998387 0.987013
1.0029 0.999678 0.989341
1.00394 0.999252 0.987819
1.0045 0.998798 0.987228
1.00069 0.99985 0.993266
1.00271 0.999737 0.989637
1.0038 0.999321 0.988034
0.999351 1.0001 0.998402
1.00052 0.999964 0.993478
1.00251 0.9999 0.989879
0.999156 1.00025 0.998454
1.00026 1.00029 0.993639
0.998944 1.0002 0.99854
1.00333 0.999599 0.988589
1.00436 0.999155 0.987131
1.00482 0.99884 0.986673
1.00118 0.999968 0.992205
1.00341 0.999558 0.988207
1.00446 0.999222 0.987005
1.00318 0.999784 0.988432
1.00104 1.00002 0.992416
0.999648 1.00001 0.998167
1.00081 1.00003 0.992893
0.999526 1.00001 0.998263
0.999421 0.999994 0.998354
1.00313 0.999642 0.988945
1.00412 0.999179 0.987509
1.00458 0.998721 0.98711
1.0009 0.999892 0.993985
1.0029 0.99969 0.989334
1.00396 0.999257 0.987811
0.999479 0.999984 0.998331
1.00069 0.999847 0.993275
1.00271 0.999751 0.989635
0.999307 1.00012 0.998416
1.00051 0.999959 0.993489
0.999105 1.00024 0.998466
1.00119 0.999957 0.992213
1.00334 0.999565 0.988488
1.00438 0.999127 0.986991
0.999779 1 0.998072
1.00118 0.999967 0.992204
1.00341 0.999561 0.988204
1.00106 1.00001 0.9924
0.999704 1.00001 0.998124
0.999596 1 0.998209
1.00111 0.999949 0.993579
1.00313 0.999638 0.988946
1.00414 0.999152 0.987439
0.999414 0.99997 0.998397
1.00083 0.999897 0.992977
1.0029 0.999697 0.989327
0.999434 1.00001 0.998359
1.00068 0.99985 0.993285
0.999267 1.00013 0.998428
0.999776 1.00001 0.995694
1.00118 0.99996 0.992841
1.00334 0.999534 0.988387
0.999786 0.999999 0.998064
1.00118 0.999964 0.992207
0.99975 1 0.998088
0.999517 0.999977 0.996035
1.00104 0.999962 0.993116
1.00313 0.999636 0.988946
0.999479 0.99997 0.997241
1.00083 0.999912 0.992958
0.999399 1.00002 0.998384
0.999779 0.999995 0.998068
1.00114 0.999961 0.992294
0.999793 0.999996 0.998059
0.999612 0.999995 0.997057
1.001 0.999968 0.992577
0.99951 0.999985 0.998303
0.999742 0.999991 0.998103
0.999633 0.999986 0.998197

TENSORS stress float
0.00118747 2.13647e-06 6.53665e-05
2.13647e-06 0.000284767 -7.58311e-06
6.53665e-05 -7.58311e-06 0.000265003
0.00319127 -8.09367e-05 5.9666e-05
-8.09367e-05 0.00132973 3.35737e-06
5.9666e-05 3.35737e-06 0.00132579
0.00119905 3.46615e-05 3.06981e-05
3.46615e-05 0.000299537 -2.39797e-06
3.06981e-05 -2.39797e-06 0.000275148
0.00156906 -1.07511e-05 8.23554e-05
-1.07511e-05 0.000459876 -5.9932e-06
8.23554e-05 -5.9932e-06 0.000438255
0.00128282 -8.63578e-06 7.14962e-05
-8.63578e-06 0.000335085 -7.64324e-06
7.14962e-05 -7.64324e-06 0.000313958
0.00113415 2.77718e-05 5.48251e-05
2.77718e-05 0.000247941 -7.01407e-06
5.48251e-05 -7.01407e-06 0.000229729
0.00110614 -1.29936e-06 8.74743e-06
-1.29936e-06 0.000198009 -3.94757e-06
8.74743e-06 -3.94757e-06 0.000150059
0.00315184 -9.16277e-05 2.0645e-06
-9.16277e-05 0.00130654 -2.73479e-07
2.0645e-06 -2.73479e-07 0.00130221
0.00388156 -0.000168997 1.57045e-06
-0.000168997 0.0017322 2.12655e-06
1.57045e-06 2.12655e-06 0.00170844
0.00317805 -0.000127735 1.18557e-05
-0.000127735 0.0013477 1.52077e-06
1.18557e-05 1.52077e-06 0.00133352
0.00112335 -3.71876e-05 4.54359e-05
-3.71876e-05 0.000216003 4.14322e-06
4.54359e-05 4.14322e-06 0.000207621
0.000749071 1.73527e-05 7.32956e-06
1.73527e-05 1.34729e-06 4.44244e-06
7.32956e-06 4.44244e-06 -3.94054e-05
0.00175414 -8.56386e-06 9.90485e-05
-8.56386e-06 0.000538033 7.49331e-07
9.90485e-05 7.49331e-07 0.000515396
0.00131956 5.00876e-06 1.52204e-05
5.00876e-06 0.000330861 1.22545e-06
1.52204e-05 1.22545e-06 0.000306406
0.00124405 7.45524e-05 -3.90253e-06
7.45524e-05 0.00033363 2.78823e-06
-3.90253e-06 2.78823e-06 0.000303538
0.00146226 9.03474e-06 3.60906e-05
9.03474e-06 0.00040976 -2.13238e-06
3.60906e-05 -2.13238e-06 0.000386001
0.00113243 4.27413e-05 2.54543e-05
4.27413e-05 0.000252817 -2.3782e-06
2.54543e-05 -2.3782e-06 0.000232004
0.00128355 3.0652e-05 3.53212e-05
3.0652e-05 0.000344828 -2.2544e-06
3.53212e-05 -2.2544e-06 0.000318827
0.00121326 -1.09302e-05 -1.30709e-05
-1.09302e-05 0.000249218 3.77506e-07
-1.30709e-05 3.77506e-07 0.000203421
0.00476631 2.56566e-09 9.84286e-05
2.56566e-09 0.0021384 -9.81856e-07
9.84286e-05 -9.81856e-07 0.00213315
0.00165082 -5.83947e-06 8.63074e-05
-5.83947e-06 0.000494909 -4.51066e-06
8.63074e-05 -4.51066e-06 0.000473858
0.00142221 -1.08279e-05 7.66688e-05
-1.08279e-05 0.000397676 -7.15366e-06
7.66688e-05 -7.15366e-06 0.00037593
0.00143895 -1.96175e-05 1.66846e-05
-1.96175e-05 0.000304711 -3.36345e-06
1.66846e-05 -3.36345e-06 0.000255938
0.00121122 -1.58514e-06 9.04062e-06
-1.58514e-06 0.000236631 -4.46316e-06
9.04062e-06 -4.46316e-06 0.000186692
0.00114675 4.26678e-05 4.40818e-05
4.26678e-05 0.000237842 -6.78117e-06
4.40818e-05 -6.78117e-06 0.000223687
0.00102367 5.35222e-06 8.2956e-06
5.35222e-06 0.000164127 -3.28898e-06
8.2956e-06 -3.28898e-06 0.000119975
0.00149202 -8.27527e-05 3.6723e-06
-8.27527e-05 0.00031189 -1.39123e-06
3.6723e-06 -1.39123e-06 0.000236471
0.00309742 -9.61289e-05 -4.77269e-05
-9.61289e-05 0.0012749 -3.14597e-06
-4.77269e-05 -3.14597e-06 0.00127078
0.00252516 -6.05507e-05 -3.29107e-05
-6.05507e-05 0.0010001 -7.30703e-07
-3.29107e-05 -7.30703e-07 0.000980006
0.00220718 -7.76889e-05 -2.35704e-05
-7.76889e-05 0.000826044 -5.74093e-07
-2.35704e-05 -5.74093e-07 0.000809915
0.00293714 -8.56978e-05 1.17177e-06
-8.56978e-05 0.00117927 -1.51487e-07
1.17177e-06 -1.51487e-07 0.00117906
0.000694403 9.29791e-06 -9.87554e-08
9.29791e-06 -2.24225e-05 -1.50214e-07
-9.87554e-08 -1.50214e-07 -6.37351e-05
0.00161936 2.15608e-05 7.82874e-05
2.15608e-05 0.000499414 4.69724e-06
7.82874e-05 4.69724e-06 0.000478042
0.00157977 3.03911e-06 6.7351e-05
3.03911e-06 0.000492733 5.32119e-06
6.7351e-05 5.32119e-06 0.000472363
0.002159 6.31062e-05 4.23586e-05
6.31062e-05 0.000721441 4.92796e-06
4.23586e-05 4.92796e-06 0.000679591
0.00270016 -8.80809e-05 1.41857e-05
-8.80809e-05 0.00104512 1.3813e-06
1.41857e-05 1.3813e-06 0.00104761
0.0018679 2.39972e-05 3.24924e-05
2.39972e-05 0.000592422 3.79487e-06
3.24924e-05 3.79487e-06 0.000555378
0.00068397 -1.82968e-05 7.38427e-06
-1.82968e-05 -2.9525e-05 6.51111e-06
7.38427e-06 6.51111e-06 -6.65527e-05
0.00091109 5.46146e-05 3.63464e-06
5.46146e-05 5.54941e-05 7.75343e-07
3.63464e-06 7.75343e-07 -1.83465e-05
0.00251602 -6.19315e-05 3.69975e-05
-6.19315e-05 0.000934406 3.3686e-06
3.69975e-05 3.3686e-06 0.000944085
0.00492667 -1.3505e-05 1.71289e-06
-1.3505e-05 0.00221779 -4.67558e-07
1.71289e-06 -4.67558e-07 0.00221214
0.00297774 3.2827e-06 -3.90266e-05
3.2827e-06 0.00120318 -8.82004e-07
-3.90266e-05 -8.82004e-07 0.00118807
0.00515258 7.16918e-06 0.000107663
7.16918e-06 0.00232837 3.37891e-07
0.000107663 3.37891e-07 0.00232293
0.00134656 1.11372e-05 1.37425e-05
1.11372e-05 0.000340934 8.23065e-07
1.37425e-05 8.23065e-07 0.000315271
0.00079914 -4.85115e-06 1.42085e-05
-4.85115e-06 -7.03476e-05 2.00728e-06
1.42085e-05 2.00728e-06 -0.000125883
0.00436435 -3.6432e-05 2.40951e-05
-3.6432e-05 0.00194631 1.03976e-06
2.40951e-05 1.03976e-06 0.00193599
0.00232667 7.18679e-06 5.12693e-05
7.18679e-06 0.000758334 2.95594e-06
5.12693e-05 2.95594e-06 0.000718976
0.00135142 6.74175e-06 -1.50317e-05
6.74175e-06 0.000356938 1.96683e-06
-1.50317e-05 1.96683e-06 0.000331558
0.00131642 7.01251e-05 -3.16861e-06
7.01251e-05 0.000372052 2.91139e-06
-3.16861e-06 2.91139e-06 0.00034102
0.0011361 6.74524e-05 -6.51068e-06
6.74524e-05 0.000261463 2.27623e-06
-6.51068e-06 2.27623e-06 0.000236896
0.0012769 -2.38798e-05 -3.48308e-05
-2.38798e-05 0.000276707 4.66023e-06
-3.48308e-05 4.66023e-06 0.000233666
0.00316583 4.12693e-05 -3.99563e-05
4.12693e-05 0.0012959 -1.01767e-06
-3.99563e-05 -1.01767e-06 0.0012777
0.00149364 4.22402e-06 3.59739e-05
4.22402e-06 0.000417406 -1.50544e-06
3.59739e-05 -1.50544e-06 0.00039451
0.0010999 5.05464e-05 1.90116e-05
5.05464e-05 0.000216229 -2.33275e-06
1.90116e-05 -2.33275e-06 0.000201024
0.00137504 2.20509e-05 3.66184e-05
2.20509e-05 0.000381038 -2.30711e-06
3.66184e-05 -2.30711e-06 0.000355774
0.00149252 -2.85508e-05 -1.30688e-05
-2.85508e-05 0.000330351 2.16259e-07
-1.30688e-05 2.16259e-07 0.000283256
0.00111789 1.80516e-06 -1.01512e-05
1.80516e-06 0.000209608 3.49131e-07
-1.01512e-05 3.49131e-07 0.000166974
0.0013082 -1.7288e-05 -1.43357e-05
-1.7288e-05 0.000281654 3.23374e-07
-1.43357e-05 3.23374e-07 0.00023465
0.00161595 -8.78666e-05 -2.13092e-06
-8.78666e-05 0.000372607 7.56211e-07
-2.13092e-06 7.56211e-07 0.000296163
0.00493401 3.19787e-05 9.76151e-05
3.19787e-05 0.00222166 1.33493e-07
9.76151e-05 1.33493e-07 0.00221573
0.00163892 3.0291e-06 8.8681e-05
3.0291e-06 0.000487045 -3.2217e-06
8.8681e-05 -3.2217e-06 0.000465753
0.00224329 4.00659e-05 1.21523e-05
4.00659e-05 0.00070883 -9.98593e-07
1.21523e-05 -9.98593e-07 0.00066207
0.00148473 -2.05819e-05 1.8779e-05
-2.05819e-05 0.000317478 -2.37577e-06
1.8779e-05 -2.37577e-06 0.000269915
0.00132613 -8.32438e-06 1.21895e-05
-8.32438e-06 0.000271452 -4.26498e-06
1.21895e-05 -4.26498e-06 0.000221691
0.00192966 -7.39003e-05 6.07711e-06
-7.39003e-05 0.000416403 -1.91144e-06
6.07711e-06 -1.91144e-06 0.000334835
0.00122616 -7.47321e-05 5.48655e-06
-7.47321e-05 0.000130946 -2.61518e-06
5.48655e-06 -2.61518e-06 5.17871e-05
0.001226 4.47939e-05 4.05683e-05
4.47939e-05 0.00025833 -6.5725e-06
4.05683e-05 -6.5725e-06 0.000250925
0.000984602 3.06063e-05 6.56959e-06
3.06063e-05 0.000146956 -2.88657e-06
6.56959e-06 -2.88657e-06 0.000109565
0.00131762 -6.98765e-05 2.70045e-06
-6.98765e-05 0.000258001 -9.12587e-07
2.70045e-06 -9.12587e-07 0.000185758
0.00112346 -9.10529e-05 2.45645e-06
-9.10529e-05 6.26553e-05 -7.11652e-07
2.45645e-06 -7.11652e-07 -3.37003e-05
0.00380501 -9.10564e-05 -6.15003e-05
-9.10564e-05 0.001678 -3.82465e-06
-6.15003e-05 -3.82465e-06 0.00166505
0.00291715 -8.69175e-05 -4.34254e-05
-8.69175e-05 0.00116541 -3.16294e-06
-4.34254e-05 -3.16294e-06 0.00116626
0.00324396 -0.000101291 -5.2975e-05
-0.000101291 0.00137006 -3.03638e-06
-5.2975e-05 -3.03638e-06 0.00136164
0.000645882 9.39927e-06 -6.24846e-06
9.39927e-06 -4.40748e-05 -5.06246e-06
-6.24846e-06 -5.06246e-06 -8.52369e-05
0.00439507 -3.8825e-05 -2.81855e-06
-3.8825e-05 0.00196777 -1.90608e-07
-2.81855e-06 -1.90608e-07 0.00195887
0.00368418 -9.06125e-05 2.26993e-06
-9.06125e-05 0.00161508 -2.04254e-07
2.26993e-06 -2.04254e-07 0.00160291
0.000639525 6.31677e-05 -4.75573e-07
6.31677e-05 -7.53396e-05 -1.47319e-07
-4.75573e-07 -1.47319e-07 -0.000125556
0.00187925 -6.32553e-05 -1.68541e-05
-6.32553e-05 0.000607767 -7.38648e-07
-1.68541e-05 -7.38648e-07 0.000607196
0.000666998 3.26487e-05 -2.50001e-07
3.26487e-05 -3.7271e-05 -8.25706e-08
-2.50001e-07 -8.25706e-08 -8.20352e-05
0.00115662 -2.68369e-05 9.27334e-06
-2.68369e-05 0.000222167 4.74945e-07
9.27334e-06 4.74945e-07 0.000189379
0.000865999 5.38429e-05 1.57702e-07
5.38429e-05 3.08142e-05 -2.23831e-07
1.57702e-07 -2.23831e-07 -4.23755e-05
0.00264138 -6.86271e-05 4.05317e-05
-6.86271e-05 0.00100564 3.34268e-06
4.05317e-05 3.34268e-06 0.00101291
0.000729809 -4.89227e-05 1.99419e-06
-4.89227e-05 -1.81534e-05 4.20551e-06
1.99419e-06 4.20551e-06 -3.75715e-05
0.000783894 5.66559e-05 1.39299e-05
5.66559e-05 -2.71128e-05 5.95903e-06
1.39299e-05 5.95903e-06 -7.85615e-05
0.000798374 5.48061e-05 1.2123e-05
5.48061e-05 1.94328e-05 7.12554e-06
1.2123e-05 7.12554e-06 -2.93774e-05
0.00104583 7.42343e-05 6.00303e-06
7.42343e-05 2.57803e-05 2.414e-06
6.00303e-06 2.414e-06 -5.70512e-05
0.00156344 -5.29752e-05 2.00203e-05
-5.29752e-05 0.000435967 3.66255e-06
2.00203e-05 3.66255e-06 0.000411505
0.000959192 6.9593e-05 3.88936e-06
6.9593e-05 5.91388e-05 1.29029e-06
3.88936e-06 1.29029e-06 -1.53729e-05
0.000888972 3.8356e-05 3.51608e-06
3.8356e-05 5.82835e-05 1.63354e-06
3.51608e-06 1.63354e-06 -1.40866e-05
0.00088822 8.29615e-05 2.01636e-06
8.29615e-05 1.34881e-05 -5.7643e-07
2.01636e-06 -5.7643e-07 -7.58696e-05
0.00235354 -5.5362e-05 3.23413e-05
-5.5362e-05 0.000842261 3.44312e-06
3.23413e-05 3.44312e-06 0.000854485
0.00246633 -6.21106e-05 7.3118e-07
-6.21106e-05 0.000908041 -9.65518e-08
7.3118e-07 -9.65518e-08 0.000917975
0.00456056 6.85629e-06 -9.13931e-05
6.85629e-06 0.00203886 -2.72735e-06
-9.13931e-05 -2.72735e-06 0.00203338
0.00482434 -1.75574e-05 -9.55554e-05
-1.75574e-05 0.00216761 -1.00826e-06
-9.55554e-05 -1.00826e-06 0.00216198
0.00510697 8.97047e-06 3.47161e-06
8.97047e-06 0.00230759 -5.46171e-07
3.47161e-06 -5.46171e-07 0.00230124
0.00305207 -9.3502e-06 -3.94292e-05
-9.3502e-06 0.00123821 -5.34473e-07
-3.94292e-05 -5.34473e-07 0.00122217
0.00161927 7.47092e-06 2.24119e-05
7.47092e-06 0.000365737 1.74115e-07
2.24119e-05 1.74115e-07 0.000316398
0.00287521 -1.51187e-05 -3.98286e-05
-1.51187e-05 0.00115805 -9.77339e-07
-3.98286e-05 -9.77339e-07 0.00114205
0.0015246 2.39665e-05 1.98517e-05
2.39665e-05 0.000338349 3.51778e-07
1.98517e-05 3.51778e-07 0.000293397
0.00514841 7.56156e-05 0.00010021
7.56156e-05 0.00232988 1.34251e-06
0.00010021 1.34251e-06 0.00232199
0.00077464 -1.0691e-06 1.28334e-05
-1.0691e-06 -9.49482e-05 3.06662e-07
1.28334e-05 3.06662e-07 -0.000152614
0.00237028 -1.5723e-05 5.34895e-05
-1.5723e-05 0.000773147 2.04722e-06
5.34895e-05 2.04722e-06 0.000732012
0.00125065 1.5186e-05 7.72356e-06
1.5186e-05 1.0753e-05 1.64836e-06
7.72356e-06 1.64836e-06 -7.88893e-05
0.00224417 4.87338e-05 4.83827e-05
4.87338e-05 0.000728884 3.41602e-06
4.83827e-05 3.41602e-06 0.000688657
0.00119673 4.41311e-05 7.63757e-06
4.41311e-05 1.57348e-05 1.45709e-06
7.63757e-06 1.45709e-06 -6.99942e-05
0.00170769 1.76708e-05 -9.56242e-05
1.76708e-05 0.000517486 3.55874e-07
-9.56242e-05 3.55874e-07 0.000495571
0.0013193 -5.64834e-06 -1.64229e-05
-5.64834e-06 0.000330983 1.46201e-06
-1.64229e-05 1.46201e-06 0.000306286
0.000999051 5.97234e-05 -7.91338e-06
5.97234e-05 0.000166643 1.85995e-06
-7.91338e-06 1.85995e-06 0.000150144
0.00134989 2.87132e-05 -1.04412e-05
2.87132e-05 0.000372567 2.37681e-06
-1.04412e-05 2.37681e-06 0.000346001
0.00155253 -2.63738e-05 -4.5013e-05
-2.63738e-05 0.000359714 3.92837e-06
-4.5013e-05 3.92837e-06 0.000313992
0.00136697 -3.20477e-05 -3.87636e-05
-3.20477e-05 0.000306102 4.88042e-06
-3.87636e-05 4.88042e-06 0.000262246
0.00120014 -7.07165e-06 -3.00914e-05
-7.07165e-06 0.000248198 4.05529e-06
-3.00914e-05 4.05529e-06 0.000207678
0.00177141 -9.35492e-05 -8.58216e-06
-9.35492e-05 0.000449772 3.18383e-06
-8.58216e-06 3.18383e-06 0.000372229
0.00502874 1.3258e-05 -2.99235e-06
1.3258e-05 0.00226801 -4.83504e-07
-2.99235e-06 -4.83504e-07 0.00226231
0.00148199 3.43166e-06 3.72474e-05
3.43166e-06 0.000409466 -8.78106e-07
3.72474e-05 -8.78106e-07 0.000386364
0.00115582 8.21857e-06 -2.40911e-05
8.21857e-06 0.00012738 3.0497e-07
-2.40911e-05 3.0497e-07 7.66496e-05
0.00151724 -2.29571e-05 -1.34728e-05
-2.29571e-05 0.00033244 2.20847e-07
-1.34728e-05 2.20847e-07 0.000286157
0.0020189 6.38434e-05 3.2058e-05
6.38434e-05 0.000683547 -1.53794e-06
3.2058e-05 -1.53794e-06 0.000680627
0.00129348 2.95471e-05 -6.41405e-06
2.95471e-05 0.000306182 3.09735e-07
-6.41405e-06 3.09735e-07 0.000269656
0.00140712 -2.70243e-05 -1.32764e-05
-2.70243e-05 0.000308782 2.8515e-07
-1.32764e-05 2.8515e-07 0.000261964
0.00174875 -6.86494e-05 -4.25329e-06
-6.86494e-05 0.000320939 6.75222e-07
-4.25329e-06 6.75222e-07 0.000238284
0.00148747 -7.87432e-05 -1.71228e-06
-7.87432e-05 0.000343006 7.38897e-07
-1.71228e-06 7.38897e-07 0.000269319
0.00149533 -8.19327e-05 -9.93235e-07
-8.19327e-05 0.000270807 1.05154e-07
-9.93235e-07 1.05154e-07 0.000192148
0.00113187 -9.07619e-05 -3.54955e-08
-9.07619e-05 6.66532e-05 6.13722e-08
-3.54955e-08 6.13722e-08 -2.95374e-05
0.000749526 2.67919e-06 1.26014e-05
2.67919e-06 -9.90846e-05 -1.55242e-06
1.26014e-05 -1.55242e-06 -0.000155434
0.00146624 -1.42694e-05 1.81997e-05
-1.42694e-05 0.000305532 -1.89779e-06
1.81997e-05 -1.89779e-06 0.000258082
0.00161323 -3.79007e-06 7.1624e-06
-3.79007e-06 0.000213336 -1.37891e-06
7.1624e-06 -1.37891e-06 0.000128703
0.00157012 -5.0468e-05 7.31919e-06
-5.0468e-05 0.000210436 -1.22042e-06
7.31919e-06 -1.22042e-06 0.000128473
0.00144734 -7.52653e-05 6.71437e-06
-7.52653e-05 0.000198424 -2.81523e-06
6.71437e-06 -2.81523e-06 0.000115934
0.0018212 -8.29321e-05 2.11687e-06
-8.29321e-05 0.000278302 -5.88183e-07
2.11687e-06 -5.88183e-07 0.000178508
0.00282465 7.77104e-05 4.1685e-05
7.77104e-05 0.00110195 -3.09533e-06
4.1685e-05 -3.09533e-06 0.00110726
0.00115621 -8.74459e-05 2.50531e-06
-8.74459e-05 3.43778e-05 -1.0888e-06
2.50531e-06 -1.0888e-06 -6.30277e-05
0.000689126 6.24727e-05 2.13906e-06
6.24727e-05 -2.1189e-05 -4.44257e-06
2.13906e-06 -4.44257e-06 -5.7662e-05
0.000706072 -4.646e-05 2.55592e-06
-4.646e-05 -3.66942e-05 -9.96333e-07
2.55592e-06 -9.96333e-07 -0.000107155
0.00121938 -9.85441e-05 2.34762e-06
-9.85441e-05 0.000156986 -8.44812e-07
2.34762e-06 -8.44812e-07 6.07115e-05
0.00124856 -0.000101878 1.02988e-06
-0.000101878 8.98821e-05 -1.38112e-07
1.02988e-06 -1.38112e-07 -1.50113e-05
0.000643416 5.16282e-05 2.77451e-06
5.16282e-05 -6.18185e-05 -4.37044e-06
2.77451e-06 -4.37044e-06 -8.63416e-05
0.000821835 3.02528e-05 9.93571e-07
3.02528e-05 1.24468e-05 -2.4267e-06
9.93571e-07 -2.4267e-06 -4.01604e-05
0.00418151 -3.79243e-05 -7.65382e-05
-3.79243e-05 0.00185868 -3.5321e-06
-7.65382e-05 -3.5321e-06 0.00185059
0.00343957 -0.000100921 -5.63693e-05
-0.000100921 0.00148664 -3.3367e-06
-5.63693e-05 -3.3367e-06 0.00147498
0.000583088 5.56115e-05 -9.84942e-06
5.56115e-05 -0.000102836 -5.60291e-06
-9.84942e-06 -5.60291e-06 -0.000152901
0.00276916 -7.75641e-05 -4.08878e-05
-7.75641e-05 0.0010783 -3.12432e-06
-4.08878e-05 -3.12432e-06 0.00108312
0.000621263 -4.52921e-05 -1.71478e-06
-4.52921e-05 -5.56154e-05 -5.2376e-06
-1.71478e-06 -5.2376e-06 -9.27611e-05
0.000603261 2.87979e-05 -7.44339e-06
2.87979e-05 -6.51841e-05 -4.8424e-06
-7.44339e-06 -4.8424e-06 -0.000110518
0.000834137 5.29174e-05 -3.55459e-06
5.29174e-05 1.31763e-05 -1.21018e-06
-3.55459e-06 -1.21018e-06 -5.96409e-05
0.00262889 -6.91068e-05 6.5711e-07
-6.91068e-05 0.000999096 -1.22922e-07
6.5711e-07 -1.22922e-07 0.00100652
0.000704204 -4.60651e-05 1.32676e-07
-4.60651e-05 -3.29509e-05 7.10382e-08
1.32676e-07 7.10382e-08 -5.15927e-05
0.00140553 5.81079e-05 1.73557e-05
5.81079e-05 0.000303879 2.09944e-07
1.73557e-05 2.09944e-07 0.000257728
0.00124226 4.59519e-05 1.4377e-05
4.59519e-05 0.000259871 2.62883e-07
1.4377e-05 2.62883e-07 0.000216002
0.0010271 7.42681e-05 3.77641e-07
7.42681e-05 1.69545e-05 -9.79922e-08
3.77641e-07 -9.79922e-08 -6.57561e-05
0.000698946 -5.86057e-05 -2.71157e-08
-5.86057e-05 -2.07297e-05 8.84833e-08
-2.71157e-08 8.84833e-08 -5.11917e-05
0.000904374 6.65152e-05 8.25659e-08
6.65152e-05 3.08047e-05 2.89011e-07
8.25659e-08 2.89011e-07 -4.33117e-05
0.0008427 3.2434e-05 2.51075e-07
3.2434e-05 3.45551e-05 -2.811e-07
2.51075e-07 -2.811e-07 -3.76659e-05
0.000845386 8.10586e-05 -7.17307e-08
8.10586e-05 -9.6857e-06 -1.68743e-07
-7.17307e-08 -1.68743e-07 -9.92946e-05
0.000698998 -5.57577e-05 1.72091e-06
-5.57577e-05 -2.60621e-05 4.42102e-06
1.72091e-06 4.42102e-06 -5.11707e-05
0.000758615 -4.09192e-05 2.57382e-06
-4.09192e-05 -1.31762e-05 3.85884e-06
2.57382e-06 3.85884e-06 -2.7081e-05
0.000767707 -6.21009e-06 2.49503e-06
-6.21009e-06 -1.08031e-05 2.32219e-06
2.49503e-06 2.32219e-06 -6.22728e-05
0.00109263 6.65863e-05 6.85314e-06
6.65863e-05 6.55642e-06 2.1909e-06
6.85314e-06 2.1909e-06 -7.83579e-05
0.00100794 7.55741e-05 4.81227e-06
7.55741e-05 5.29023e-05 2.21384e-06
4.81227e-06 2.21384e-06 -2.56593e-05
0.00123434 9.40504e-05 3.31591e-06
9.40504e-05 6.48091e-05 1.25195e-06
3.31591e-06 1.25195e-06 -3.63068e-05
0.000858663 2.24859e-05 2.88205e-06
2.24859e-05 4.13696e-05 2.0374e-06
2.88205e-06 2.0374e-06 -2.55241e-05
0.000929221 8.61329e-05 1.60474e-06
8.61329e-05 5.64127e-06 -1.01229e-07
1.60474e-06 -1.01229e-07 -8.39605e-05
0.00105479 8.59502e-05 2.19037e-06
8.59502e-05 0.000125402 1.1e-07
2.19037e-06 1.1e-07 3.4545e-05
0.00106084 9.86316e-05 -3.09261e-07
9.86316e-05 9.44594e-05 -1.47987e-06
-3.09261e-07 -1.47987e-06 -3.31616e-06
0.00223759 -4.92796e-05 2.83308e-05
-4.92796e-05 0.000773124 3.50797e-06
2.83308e-05 3.50797e-06 0.000787783
0.00231819 -5.55558e-05 6.24604e-07
-5.55558e-05 0.000822749 -7.90951e-08
6.24604e-07 -7.90951e-08 0.000835266
0.00242017 -6.21938e-05 -3.25174e-05
-6.21938e-05 0.000883291 -3.25115e-06
-3.25174e-05 -3.25115e-06 0.000893526
0.00068651 4.23355e-05 2.9985e-06
4.23355e-05 -4.7211e-05 -3.92894e-06
2.9985e-06 -3.92894e-06 -6.59331e-05
0.00267914 6.99891e-05 3.79556e-05
6.99891e-05 0.00102044 -3.20053e-06
3.79556e-05 -3.20053e-06 0.0010283
0.00442241 -5.88991e-06 -8.63407e-05
-5.88991e-06 0.00197344 -3.26035e-06
-8.63407e-05 -3.26035e-06 0.00196721
0.00465938 1.1207e-05 -9.376e-05
1.1207e-05 0.00208655 -1.98433e-06
-9.376e-05 -1.98433e-06 0.00208112
0.000705914 3.04593e-05 -1.19002e-05
3.04593e-05 -9.31359e-05 -2.80791e-06
-1.19002e-05 -2.80791e-06 -0.000143005
0.000733831 1.80449e-05 -1.24362e-05
1.80449e-05 -9.86039e-05 -1.65419e-06
-1.24362e-05 -1.65419e-06 -0.000153585
0.00504301 -2.59974e-05 -9.88143e-05
-2.59974e-05 0.00227526 -1.8053e-07
-9.88143e-05 -1.8053e-07 0.00226939
0.00515792 9.93827e-06 -1.25636e-06
9.93827e-06 0.00233153 4.79437e-07
-1.25636e-06 4.79437e-07 0.00232574
0.000764039 7.5399e-07 -7.52647e-08
7.5399e-07 -9.93512e-05 -3.61246e-07
-7.52647e-08 -3.61246e-07 -0.000156992
0.00157619 7.07471e-06 2.11059e-05
7.07471e-06 0.000356976 3.52139e-07
2.11059e-05 3.52139e-07 0.000310682
0.00124278 1.88457e-05 1.54706e-07
1.88457e-05 7.35826e-06 9.48811e-08
1.54706e-07 9.48811e-08 -8.23207e-05
0.000666328 4.13852e-05 6.08431e-08
4.13852e-05 -0.000102128 -7.39223e-08
6.08431e-08 -7.39223e-08 -0.000151798
0.00119421 4.58346e-05 1.5982e-08
4.58346e-05 1.51806e-05 -1.66508e-07
1.5982e-08 -1.66508e-07 -7.07817e-05
0.000747227 -6.49256e-06 1.29718e-05
-6.49256e-06 -0.000111777 -7.94849e-07
1.29718e-05 -7.94849e-07 -0.000170078
0.00129093 7.10768e-06 8.06449e-06
7.10768e-06 9.81268e-06 5.19353e-07
8.06449e-06 5.19353e-07 -8.40763e-05
0.00122446 2.94052e-05 7.60121e-06
2.94052e-05 1.63926e-05 1.41176e-06
7.60121e-06 1.41176e-06 -6.99849e-05
0.00150299 1.80513e-05 3.2667e-06
1.80513e-05 6.22114e-05 1.39045e-06
3.2667e-06 1.39045e-06 -4.16328e-05
0.00115022 5.58296e-05 7.35985e-06
5.58296e-05 8.29153e-06 1.90455e-06
7.35985e-06 1.90455e-06 -7.72753e-05
0.00143718 5.07457e-05 3.21652e-06
5.07457e-05 6.31125e-05 2.66338e-07
3.21652e-06 2.66338e-07 -3.60648e-05
0.00507978 1.65397e-05 -0.000108494
1.65397e-05 0.00229271 -7.81397e-07
-0.000108494 -7.81397e-07 0.00228709
0.00130554 -1.17481e-05 -1.4477e-05
-1.17481e-05 0.000321738 1.0337e-06
-1.4477e-05 1.0337e-06 0.000296774
1.68543e-05 3.11379e-07 -1.27712e-05
3.11379e-07 -0.000476686 2.39324e-06
-1.27712e-05 2.39324e-06 -0.000535659
0.00157287 -1.60853e-05 -4.66205e-05
-1.60853e-05 0.000359594 2.7187e-06
-4.66205e-05 2.7187e-06 0.000314469
0.00274625 9.56738e-05 -1.48833e-05
9.56738e-05 0.00107642 1.27988e-06
-1.48833e-05 1.27988e-06 0.00107562
0.00163907 1.51497e-05 -2.40531e-05
1.51497e-05 0.000480455 3.79894e-06
-2.40531e-05 3.79894e-06 0.000447806
0.00147076 -3.21987e-05 -4.20575e-05
-3.21987e-05 0.000338596 4.69052e-06
-4.20575e-05 4.69052e-06 0.000293644
0.00156374 -6.36299e-05 -1.34425e-05
-6.36299e-05 0.000223283 3.10097e-06
-1.34425e-05 3.10097e-06 0.000139571
0.00178259 -8.99976e-05 -8.61549e-06
-8.99976e-05 0.000420459 3.03778e-06
-8.61549e-06 3.03778e-06 0.000342177
0.00167041 -8.72454e-05 -7.00805e-06
-8.72454e-05 0.000435032 2.62233e-06
-7.00805e-06 2.62233e-06 0.000359867
0.00114228 -9.05927e-05 -1.99568e-06
-9.05927e-05 7.17037e-05 6.99852e-07
-1.99568e-06 6.99852e-07 -2.43379e-05
0.00075821 4.52717e-06 -4.60546e-08
4.52717e-06 -9.60547e-05 -2.43993e-07
-4.60546e-08 -2.43993e-07 -0.00015241
0.00151566 -1.15313e-05 -1.4611e-05
-1.15313e-05 0.000329067 9.5075e-08
-1.4611e-05 9.5075e-08 0.000282864
0.0012365 -3.89092e-06 -2.70948e-06
-3.89092e-06 1.54607e-05 5.93094e-08
-2.70948e-06 5.93094e-08 -7.14388e-05
0.00178557 -5.23994e-05 -2.16354e-06
-5.23994e-05 0.000323859 2.74278e-07
-2.16354e-06 2.74278e-07 0.000242902
0.00278644 7.66998e-05 -6.14242e-07
7.66998e-05 0.0010833 -1.40197e-07
-6.14242e-07 -1.40197e-07 0.00108834
0.00112506 4.04438e-05 1.68005e-06
4.04438e-05 0.000205124 1.86176e-07
1.68005e-06 1.86176e-07 0.000173774
0.00109689 -4.81609e-05 1.23623e-07
-4.81609e-05 0.000165636 -8.50522e-08
1.23623e-07 -8.50522e-08 9.51255e-05
0.00145244 -7.45587e-05 -1.89605e-06
-7.45587e-05 0.000202575 2.3274e-07
-1.89605e-06 2.3274e-07 0.000120079
0.00151025 -7.60624e-05 -1.71758e-06
-7.60624e-05 0.000113938 4.57463e-07
-1.71758e-06 4.57463e-07 1.28686e-05
0.00100592 -8.95713e-05 -3.18701e-07
-8.95713e-05 4.7912e-05 -1.38489e-07
-3.18701e-07 -1.38489e-07 -4.80273e-05
0.00140749 -9.3639e-05 5.27072e-08
-9.3639e-05 0.000163049 -1.50909e-08
5.27072e-08 -1.50909e-08 6.61549e-05
0.00123703 -0.000100931 1.11273e-07
-0.000100931 8.39636e-05 1.35349e-07
1.11273e-07 1.35349e-07 -2.07093e-05
0.000662099 5.4184e-05 -2.03682e-07
5.4184e-05 -4.9934e-05 4.05325e-08
-2.03682e-07 4.05325e-08 -7.52733e-05
0.000796567 2.80565e-05 -2.97275e-07
2.80565e-05 -1.29793e-06 1.16023e-07
-2.97275e-07 1.16023e-07 -5.37801e-05
0.00126546 -2.52309e-06 7.59662e-06
-2.52309e-06 4.33935e-06 -1.6627e-06
7.59662e-06 -1.6627e-06 -8.79257e-05
0.00155227 -2.12057e-05 7.033e-06
-2.12057e-05 0.000197639 -1.16184e-06
7.033e-06 -1.16184e-06 0.00011683
0.00185839 -8.11756e-06 2.277e-06
-8.11756e-06 0.000263622 -6.22984e-07
2.277e-06 -6.22984e-07 0.000165001
0.00127064 -5.12787e-05 4.06642e-06
-5.12787e-05 -3.49589e-05 -4.3785e-07
4.06642e-06 -4.3785e-07 -0.000134646
0.00146074 -9.05593e-05 2.52762e-06
-9.05593e-05 0.000140269 -1.08969e-06
2.52762e-06 -1.08969e-06 4.1093e-05
0.00176857 -8.13507e-05 1.11556e-07
-8.13507e-05 0.000200384 1.55406e-07
1.11556e-07 1.55406e-07 9.70666e-05
0.000587911 5.87492e-05 1.85548e-06
5.87492e-05 -8.22513e-05 -4.63734e-06
1.85548e-06 -4.63734e-06 -0.000112938
0.00132804 -9.81667e-05 6.28213e-07
-9.81667e-05 7.56447e-05 -7.3583e-07
6.28213e-07 -7.3583e-07 -2.95122e-05
0.000718736 -1.67702e-05 2.00301e-06
-1.67702e-05 -2.74125e-05 -1.002e-06
2.00301e-06 -1.002e-06 -9.624e-05
0.00064799 -7.23695e-05 1.82978e-06
-7.23695e-05 -9.67473e-05 -1.25155e-06
1.82978e-06 -1.25155e-06 -0.000187795
0.00166672 -0.00012521 5.97335e-07
-0.00012521 0.000358681 4.47178e-08
5.97335e-07 4.47178e-08 0.000251811
0.00148836 -0.000113323 -6.98557e-07
-0.000113323 0.00018322 9.22625e-07
-6.98557e-07 9.22625e-07 7.59826e-05
0.000861724 3.10917e-06 1.81184e-06
3.10917e-06 3.75358e-05 -2.27799e-06
1.81184e-06 -2.27799e-06 -2.3946e-05
0.000811299 3.61834e-05 8.52428e-07
3.61834e-05 3.26922e-06 -1.91555e-06
8.52428e-07 -1.91555e-06 -4.15096e-05
0.000881687 -2.79612e-05 5.95731e-07
-2.79612e-05 4.2365e-05 -7.83832e-07
5.95731e-07 -7.83832e-07 -3.46194e-05
0.000624539 5.4285e-05 -1.08281e-05
5.4285e-05 -0.000105236 -4.95251e-06
-1.08281e-05 -4.95251e-06 -0.000155979
0.00259783 -6.94443e-05 -3.70034e-05
-6.94443e-05 0.000982771 -3.16838e-06
-3.70034e-05 -3.16838e-06 0.00099038
0.000684485 -4.29417e-05 -3.08344e-06
-4.29417e-05 -4.44525e-05 -3.91249e-06
-3.08344e-06 -3.91249e-06 -6.23554e-05
0.000572977 4.24262e-05 -8.08747e-06
4.24262e-05 -8.77029e-05 -5.33249e-06
-8.08747e-06 -5.33249e-06 -0.000135757
0.00100374 7.42492e-05 -5.76025e-06
7.42492e-05 5.93978e-06 -2.73336e-06
-5.76025e-06 -2.73336e-06 -7.66797e-05
0.000585994 -5.80931e-05 -1.8047e-06
-5.80931e-05 -7.95416e-05 -4.80194e-06
-1.8047e-06 -4.80194e-06 -0.000110207
0.000758809 2.72735e-05 -2.31632e-06
2.72735e-05 -9.20233e-06 -1.90532e-06
-2.31632e-06 -1.90532e-06 -8.08725e-05
0.000861902 6.34906e-05 -3.66436e-06
6.34906e-05 8.94481e-06 -7.89804e-07
-3.66436e-06 -7.89804e-07 -6.4795e-05
0.000797215 7.89578e-05 -2.49626e-06
7.89578e-05 -3.57348e-05 2.31868e-07
-2.49626e-06 2.31868e-07 -0.000125563
0.000665924 -5.38442e-05 1.83051e-07
-5.38442e-05 -4.47403e-05 6.75461e-08
1.83051e-07 6.75461e-08 -6.92103e-05
0.000735211 -3.88014e-05 3.85669e-09
-3.88014e-05 -2.56399e-05 8.07539e-08
3.85669e-09 8.07539e-08 -3.9132e-05
0.000796497 -2.83057e-05 1.22057e-07
-2.83057e-05 2.49115e-06 1.33578e-07
1.22057e-07 1.33578e-07 -4.76458e-05
0.00110184 6.78183e-05 3.44091e-07
6.78183e-05 1.2082e-05 -1.5882e-07
3.44091e-07 -1.5882e-07 -7.29397e-05
0.000953235 7.32857e-05 2.58974e-07
7.32857e-05 2.57405e-05 2.08452e-07
2.58974e-07 2.08452e-07 -5.24665e-05
0.00122279 9.42834e-05 2.17435e-07
9.42834e-05 5.95229e-05 6.9999e-08
2.17435e-07 6.9999e-08 -4.16929e-05
0.000826921 1.93312e-05 -2.93569e-07
1.93312e-05 2.72601e-05 5.17517e-10
-2.93569e-07 5.17517e-10 -3.98085e-05
0.00105101 9.13673e-05 -9.24049e-08
9.13673e-05 6.96447e-05 -9.79069e-08
-9.24049e-08 -9.79069e-08 -1.98797e-05
0.00101507 8.41899e-05 2.36748e-07
8.41899e-05 0.000104795 -3.22176e-07
2.36748e-07 -3.22176e-07 1.40576e-05
0.000942994 9.42086e-05 -6.60933e-07
9.42086e-05 3.34019e-05 3.77349e-07
-6.60933e-07 3.77349e-07 -6.47155e-05
0.000772608 -3.46976e-05 2.74469e-06
-3.46976e-05 -1.45878e-05 3.54663e-06
2.74469e-06 3.54663e-06 -2.44379e-05
0.000790939 -1.65133e-06 2.80306e-06
-1.65133e-06 3.72371e-07 1.8551e-06
2.80306e-06 1.8551e-06 -5.81581e-05
0.000779141 -3.0226e-05 1.17387e-06
-3.0226e-05 -9.79517e-06 2.38015e-06
1.17387e-06 2.38015e-06 -5.22139e-05
0.000896452 1.99615e-05 1.07172e-06
1.99615e-05 5.31088e-05 9.17654e-07
1.07172e-06 9.17654e-07 -1.95074e-05
0.00130788 8.18736e-05 4.1654e-06
8.18736e-05 4.9366e-05 7.667e-07
4.1654e-06 7.667e-07 -5.23077e-05
0.00115932 9.70002e-05 2.44108e-06
9.70002e-05 8.62324e-05 1.25355e-06
2.44108e-06 1.25355e-06 -9.39161e-06
0.00132693 0.000103005 1.46542e-06
0.000103005 7.33314e-05 1.23454e-06
1.46542e-06 1.23454e-06 -3.61547e-05
0.00105922 5.87148e-05 2.00263e-06
5.87148e-05 0.00013537 9.77723e-07
2.00263e-06 9.77723e-07 5.02988e-05
0.00115152 0.000102279 2.72998e-07
0.000102279 0.000100698 -3.87205e-07
2.72998e-07 -3.87205e-07 4.25846e-06
0.00104594 9.78011e-05 1.03656e-06
9.78011e-05 0.000122641 -1.14667e-06
1.03656e-06 -1.14667e-06 1.76797e-05
0.000775284 8.87445e-05 6.1935e-07
8.87445e-05 -7.10984e-05 -1.3446e-06
6.1935e-07 -1.3446e-06 -0.00017262
0.000838727 -1.65206e-05 9.7078e-07
-1.65206e-05 4.30486e-06 1.7589e-06
9.7078e-07 1.7589e-06 -2.42379e-05
0.000780261 -2.64655e-05 1.90448e-06
-2.64655e-05 -2.35211e-05 3.43446e-06
1.90448e-06 3.43446e-06 -2.83973e-05
0.00217749 -4.36443e-05 2.49736e-05
-4.36443e-05 0.000733377 3.62289e-06
2.49736e-05 3.62289e-06 0.000750101
0.00222554 -4.94648e-05 7.91035e-07
-4.94648e-05 0.000765637 -7.80517e-08
7.91035e-07 -7.80517e-08 0.000780529
0.00228793 -5.54482e-05 -2.91312e-05
-5.54482e-05 0.000805854 -3.35856e-06
-2.91312e-05 -3.35856e-06 0.000818707
0.000714687 3.65522e-05 2.98068e-06
3.65522e-05 -4.03612e-05 -3.53547e-06
2.98068e-06 -3.53547e-06 -5.4478e-05
0.00250478 6.31017e-05 3.31941e-05
6.31017e-05 0.000923456 -3.28736e-06
3.31941e-05 -3.28736e-06 0.000933761
0.000705918 4.60771e-05 -2.26879e-07
4.60771e-05 -3.57007e-05 4.537e-08
-2.26879e-07 4.537e-08 -5.52417e-05
0.00269531 6.94847e-05 -5.59017e-07
6.94847e-05 0.00102906 -1.18618e-07
-5.59017e-07 -1.18618e-07 0.00103676
0.000663281 4.49936e-05 -1.1467e-05
4.49936e-05 -0.000103816 -3.85687e-06
-1.1467e-05 -3.85687e-06 -0.000153767
0.000741992 2.75552e-05 -1.21854e-05
2.75552e-05 -8.22408e-05 -2.06477e-06
-1.21854e-05 -2.06477e-06 -0.000134242
0.00117705 4.63202e-05 -7.50666e-06
4.63202e-05 7.10155e-06 -1.66325e-06
-7.50666e-06 -1.66325e-06 -7.90379e-05
0.00123544 2.04579e-05 -7.50315e-06
2.04579e-05 4.26793e-06 -1.44029e-06
-7.50315e-06 -1.44029e-06 -8.54212e-05
0.000752977 4.87756e-06 -1.29692e-05
4.87756e-06 -0.000104158 -1.07978e-06
-1.29692e-05 -1.07978e-06 -0.000161685
0.00518395 -1.97517e-05 -0.000105994
-1.97517e-05 0.00234441 7.55257e-07
-0.000105994 7.55257e-07 0.00233884
0.000767031 -7.40792e-07 8.12487e-08
-7.40792e-07 -0.000102004 -3.80924e-07
8.12487e-08 -3.80924e-07 -0.000160275
0.00128992 1.0993e-05 7.35926e-08
1.0993e-05 9.46906e-06 -4.35495e-07
7.35926e-08 -4.35495e-07 -8.43448e-05
0.00120765 2.94987e-05 -4.31605e-08
2.94987e-05 8.58162e-06 3.75709e-08
-4.31605e-08 3.75709e-08 -7.79386e-05
0.00151663 1.76475e-05 1.00356e-07
1.76475e-05 6.94006e-05 1.57147e-07
1.00356e-07 1.57147e-07 -3.44285e-05
0.00115511 5.77479e-05 1.85838e-07
5.77479e-05 1.19212e-05 -1.3067e-07
1.85838e-07 -1.3067e-07 -7.39254e-05
0.00144552 5.31486e-05 1.77248e-08
5.31486e-05 6.73723e-05 -5.24147e-08
1.77248e-08 -5.24147e-08 -3.1947e-05
0.00129717 1.31302e-07 7.99669e-06
1.31302e-07 7.66871e-06 -9.18771e-07
7.99669e-06 -9.18771e-07 -8.68949e-05
0.00155479 1.42606e-05 3.62803e-06
1.42606e-05 6.4136e-05 5.44178e-07
3.62803e-06 5.44178e-07 -4.46775e-05
0.00147819 3.36567e-05 3.23167e-06
3.36567e-05 6.84878e-05 7.30138e-07
3.23167e-06 7.30138e-07 -3.14079e-05
0.00163639 1.41666e-05 9.22522e-07
1.41666e-05 9.36398e-05 1.16097e-06
9.22522e-07 1.16097e-06 -1.18017e-05
0.00137689 6.80711e-05 3.22516e-06
6.80711e-05 5.27956e-05 2.54281e-07
3.22516e-06 2.54281e-07 -4.75313e-05
0.00156019 5.49947e-05 7.56029e-07
5.49947e-05 7.9619e-05 -2.26141e-07
7.56029e-07 -2.26141e-07 -2.12514e-05
0.000775389 8.35908e-06 -1.25053e-05
8.35908e-06 -8.84885e-05 1.00616e-06
-1.25053e-05 1.00616e-06 -0.000145027
0.00158413 -1.92446e-07 -4.764e-05
-1.92446e-07 0.000362771 1.76179e-06
-4.764e-05 1.76179e-06 0.000317758
0.000846934 -2.48437e-06 -8.18254e-06
-2.48437e-06 -0.00018902 1.69338e-06
-8.18254e-06 1.69338e-06 -0.000278243
0.00198666 -5.33241e-05 -1.23227e-05
-5.33241e-05 0.000429601 1.94063e-06
-1.23227e-05 1.94063e-06 0.000349774
0.0027747 7.61198e-05 -4.29997e-05
7.61198e-05 0.00107853 3.26209e-06
-4.29997e-05 3.26209e-06 0.0010832
0.00161269 4.26494e-05 -2.15126e-05
4.26494e-05 0.000464142 3.10558e-06
-2.15126e-05 3.10558e-06 0.000434626
0.00148969 -5.98793e-05 -4.94401e-06
-5.98793e-05 0.000368167 1.64477e-06
-4.94401e-06 1.64477e-06 0.000297845
0.00146203 -7.4218e-05 -1.02949e-05
-7.4218e-05 0.000209153 3.28381e-06
-1.02949e-05 3.28381e-06 0.00012663
0.00119492 -6.90594e-05 -4.63066e-06
-6.90594e-05 -5.26734e-05 1.17121e-06
-4.63066e-06 1.17121e-06 -0.00015501
0.00165805 -9.98571e-05 -3.21194e-06
-9.98571e-05 0.000291359 1.25696e-06
-3.21194e-06 1.25696e-06 0.000194968
0.000787239 -8.0246e-05 -1.90076e-06
-8.0246e-05 -6.37327e-05 5.52215e-07
-1.90076e-06 5.52215e-07 -0.000159313
0.00122385 -9.99177e-05 -3.79275e-07
-9.99177e-05 7.72091e-05 3.33674e-07
-3.79275e-07 3.33674e-07 -2.72403e-05
0.000689642 5.60009e-05 -1.67027e-06
5.60009e-05 -3.37917e-05 4.43482e-06
-1.67027e-06 4.43482e-06 -5.97806e-05
0.000766707 1.87036e-05 -1.94573e-06
1.87036e-05 -1.72152e-05 2.07953e-06
-1.94573e-06 2.07953e-06 -6.97926e-05
0.00108899 1.10786e-06 -3.61553e-07
1.10786e-06 -8.70553e-05 -1.20171e-07
-3.61553e-07 -1.20171e-07 -0.000180216
0.00158834 -2.35565e-05 -2.3401e-06
-2.35565e-05 0.000215424 2.78194e-07
-2.3401e-06 2.78194e-07 0.000134572
0.00176375 -5.5761e-06 -1.73068e-06
-5.5761e-06 0.000211899 3.6969e-07
-1.73068e-06 3.6969e-07 0.00011251
0.0015599 -5.50796e-05 8.75094e-07
-5.50796e-05 0.000118586 -2.41974e-07
8.75094e-07 -2.41974e-07 2.02739e-05
0.000648237 5.85081e-05 -2.84499e-07
5.85081e-05 -5.00445e-05 4.04168e-08
-2.84499e-07 4.04168e-08 -8.09317e-05
0.000833231 -2.7521e-05 -5.41614e-08
-2.7521e-05 3.1177e-05 -1.03795e-07
-5.41614e-08 -1.03795e-07 -3.77962e-05
0.000764773 -7.73597e-05 7.28692e-07
-7.73597e-05 -3.51923e-05 -5.72706e-07
7.28692e-07 -5.72706e-07 -0.000125336
0.00162651 -9.38596e-05 -7.25273e-07
-9.38596e-05 0.000224782 1.16446e-07
-7.25273e-07 1.16446e-07 0.000125443
0.00158935 -7.63764e-05 -5.24349e-07
-7.63764e-05 0.000104993 5.27429e-07
-5.24349e-07 5.27429e-07 1.82426e-06
0.00137058 -0.000113007 -9.54902e-07
-0.000113007 0.000205474 4.45624e-07
-9.54902e-07 4.45624e-07 9.7986e-05
0.00132937 -9.77228e-05 -2.2476e-08
-9.77228e-05 7.61092e-05 9.02667e-08
-2.2476e-08 9.02667e-08 -2.8991e-05
0.00130914 -0.000106448 3.62058e-07
-0.000106448 9.23597e-05 6.29651e-07
3.62058e-07 6.29651e-07 -1.43911e-05
0.000815469 -7.64429e-07 -2.61278e-07
-7.64429e-07 1.18394e-05 -6.54684e-08
-2.61278e-07 -6.54684e-08 -4.92585e-05
0.000851746 -9.58181e-06 -4.11827e-07
-9.58181e-06 2.28653e-05 -2.40218e-07
-4.11827e-07 -2.40218e-07 -5.17382e-05
0.000796414 3.4334e-05 -1.34432e-08
3.4334e-05 -4.69035e-06 2.12301e-07
-1.34432e-08 2.12301e-07 -4.9481e-05
0.00188796 4.38896e-06 2.28636e-06
4.38896e-06 0.000254651 -8.61781e-07
2.28636e-06 -8.61781e-07 0.000151104
0.00163243 -2.60381e-05 3.15193e-06
-2.60381e-05 0.00015594 -5.15263e-07
3.15193e-06 -5.15263e-07 5.96933e-05
0.00180134 -4.09029e-06 7.14345e-07
-4.09029e-06 0.000190798 -1.97516e-07
7.14345e-07 -1.97516e-07 8.53891e-05
0.00161492 -4.88098e-05 1.08384e-06
-4.88098e-05 9.50603e-05 -8.07589e-08
1.08384e-06 -8.07589e-08 -5.90873e-06
0.00121701 -8.87093e-05 1.32222e-06
-8.87093e-05 -3.90884e-05 -8.25927e-07
1.32222e-06 -8.25927e-07 -0.000144597
0.00169807 -7.31173e-05 -1.50422e-06
-7.31173e-05 0.000128295 8.90815e-07
-1.50422e-06 8.90815e-07 2.97338e-05
0.000822718 -1.41207e-05 2.4893e-06
-1.41207e-05 2.37447e-05 -1.58718e-06
2.4893e-06 -1.58718e-06 -4.34335e-05
0.00137309 -0.000102016 -1.31126e-06
-0.000102016 6.9598e-05 -4.69404e-07
-1.31126e-06 -4.69404e-07 -3.64014e-05
0.000929913 -7.90389e-05 1.06961e-06
-7.90389e-05 6.28601e-05 2.46839e-07
1.06961e-06 2.46839e-07 -2.11008e-05
0.000753175 -8.81231e-05 1.49302e-06
-8.81231e-05 -5.69097e-05 -1.73842e-06
1.49302e-06 -1.73842e-06 -0.000161354
0.00149694 -0.000123724 1.17919e-06
-0.000123724 0.000244542 7.22977e-07
1.17919e-06 7.22977e-07 0.000130195
0.0018383 -0.000127013 -2.37752e-06
-0.000127013 0.000345252 2.41905e-06
-2.37752e-06 2.41905e-06 0.000242253
0.000813722 3.11009e-05 1.35596e-06
3.11009e-05 -1.31627e-06 -1.60389e-06
1.35596e-06 -1.60389e-06 -4.01196e-05
0.0009155 -3.76649e-05 1.26017e-06
-3.76649e-05 5.41647e-05 6.85292e-08
1.26017e-06 6.85292e-08 -2.35468e-05
0.000786859 -4.63867e-06 7.42117e-07
-4.63867e-06 -1.19933e-05 -1.44053e-06
7.42117e-07 -1.44053e-06 -8.16994e-05
0.000999238 -7.32362e-05 -5.90476e-08
-7.32362e-05 0.000108981 9.86264e-07
-5.90476e-08 9.86264e-07 2.25353e-05
0.00110512 6.91798e-05 -7.09401e-06
6.91798e-05 1.46143e-05 -2.59256e-06
-7.09401e-06 -2.59256e-06 -7.05404e-05
0.000709583 -3.70697e-05 -3.02577e-06
-3.70697e-05 -3.91857e-05 -3.61037e-06
-3.02577e-06 -3.61037e-06 -5.23091e-05
0.000640624 -5.12894e-05 -2.80088e-06
-5.12894e-05 -5.97033e-05 -4.31074e-06
-2.80088e-06 -4.31074e-06 -8.34014e-05
0.000809473 -3.48384e-05 -1.06191e-06
-3.48384e-05 9.75745e-06 -2.53057e-06
-1.06191e-06 -2.53057e-06 -4.06114e-05
0.000902774 7.11346e-05 -4.16389e-06
7.11346e-05 1.02159e-06 -1.88438e-06
-4.16389e-06 -1.88438e-06 -7.68775e-05
0.00121609 9.46427e-05 -3.24601e-06
9.46427e-05 5.67232e-05 -1.20594e-06
-3.24601e-06 -1.20594e-06 -4.45974e-05
0.000804634 1.4773e-05 -2.51648e-06
1.4773e-05 1.80391e-05 -1.89497e-06
-2.51648e-06 -1.89497e-06 -4.92311e-05
0.00098154 8.25444e-05 -2.19398e-06
8.25444e-05 8.75117e-05 -1.00041e-06
-2.19398e-06 -1.00041e-06 -3.13782e-06
0.0011643 9.6255e-05 -1.81549e-06
9.6255e-05 0.000129314 -3.14637e-08
-1.81549e-06 -3.14637e-08 3.989e-05
0.000819244 8.9509e-05 -2.23908e-06
8.9509e-05 -3.06657e-05 1.00762e-06
-2.23908e-06 1.00762e-06 -0.000129106
0.000750356 -3.37279e-05 9.87791e-08
-3.37279e-05 -2.59782e-05 2.95612e-08
9.87791e-08 2.95612e-08 -3.56833e-05
0.000811887 5.1399e-06 2.40923e-08
5.1399e-06 1.39776e-05 -3.06364e-08
2.40923e-08 -3.06364e-08 -4.56748e-05
0.000796391 -3.39128e-05 -8.53328e-08
-3.39128e-05 -7.77843e-07 2.01483e-07
-8.53328e-08 2.01483e-07 -4.32104e-05
0.000910785 1.19488e-05 2.29383e-07
1.19488e-05 5.9902e-05 -2.1621e-07
2.29383e-07 -2.1621e-07 -1.21506e-05
0.00132307 8.29237e-05 8.17595e-07
8.29237e-05 5.72607e-05 2.3874e-07
8.17595e-07 2.3874e-07 -4.4653e-05
0.00111716 9.59827e-05 9.19669e-08
9.59827e-05 6.60677e-05 4.84139e-08
9.19669e-08 4.84139e-08 -2.9509e-05
0.00132739 0.000103142 -2.97813e-08
0.000103142 7.37163e-05 4.81659e-07
-2.97813e-08 4.81659e-07 -3.57342e-05
0.000992425 5.9368e-05 2.57508e-07
5.9368e-05 0.000101362 2.30714e-07
2.57508e-07 2.30714e-07 1.69724e-05
0.00130886 0.000108731 -4.95731e-07
0.000108731 0.000183234 -8.5432e-07
-4.95731e-07 -8.5432e-07 8.68373e-05
0.00106469 9.90564e-05 2.45292e-07
9.90564e-05 0.000131567 -6.70466e-07
2.45292e-07 -6.70466e-07 2.60876e-05
0.000894552 9.38812e-05 -1.68201e-06
9.38812e-05 -4.91588e-06 4.27671e-09
-1.68201e-06 4.27671e-09 -0.000104725
0.000781237 -3.04164e-05 2.35038e-06
-3.04164e-05 -1.70019e-05 3.4665e-06
2.35038e-06 3.4665e-06 -2.40522e-05
0.000801587 -3.12079e-05 1.07958e-06
-3.12079e-05 -3.38107e-06 2.12509e-06
1.07958e-06 2.12509e-06 -4.00943e-05
0.000990976 3.07248e-05 1.53821e-06
3.07248e-05 9.88941e-05 5.90682e-07
1.53821e-06 5.90682e-07 2.10208e-05
0.000873658 2.87254e-06 8.02324e-07
2.87254e-06 3.71372e-05 1.45116e-06
8.02324e-07 1.45116e-06 -2.68965e-05
0.00096883 6.24186e-05 1.17124e-06
6.24186e-05 9.83753e-05 1.12206e-08
1.17124e-06 1.12206e-08 1.26116e-05
0.0014248 8.65754e-05 2.31842e-06
8.65754e-05 6.42399e-05 4.99469e-08
2.31842e-06 4.99469e-08 -4.32698e-05
0.00119559 0.000105313 8.42058e-07
0.000105313 7.64877e-05 1.20176e-06
8.42058e-07 1.20176e-06 -2.71214e-05
0.0014452 0.000110406 -6.11364e-07
0.000110406 0.000109553 8.89406e-07
-6.11364e-07 8.89406e-07 -2.37164e-06
0.00109821 9.60347e-05 2.63618e-06
9.60347e-05 0.000164891 2.22481e-06
2.63618e-06 2.22481e-06 6.30377e-05
0.00117352 0.000107978 1.77702e-06
0.000107978 9.56355e-05 -2.74536e-07
1.77702e-06 -2.74536e-07 -4.34682e-06
0.00051775 7.8381e-05 2.01125e-06
7.8381e-05 -0.000169735 -1.74717e-06
2.01125e-06 -1.74717e-06 -0.000284711
0.0008326 -2.04516e-05 1.14065e-06
-2.04516e-05 4.48824e-06 1.85374e-06
1.14065e-06 1.85374e-06 -2.60412e-05
0.000860525 5.57988e-06 3.67919e-07
5.57988e-06 2.45335e-05 8.45617e-07
3.67919e-07 8.45617e-07 -2.23459e-05
0.000850231 -1.15706e-05 7.49759e-07
-1.15706e-05 7.42528e-06 1.78688e-06
7.49759e-07 1.78688e-06 -1.96136e-05
0.000839811 -1.49761e-05 1.29875e-07
-1.49761e-05 5.51822e-06 4.05171e-09
1.29875e-07 4.05171e-09 -2.31415e-05
0.00132806 -2.83945e-05 2.00943e-06
-2.83945e-05 0.000263313 2.06579e-06
2.00943e-06 2.06579e-06 0.000263392
0.001051 -2.89913e-05 7.95269e-07
-2.89913e-05 0.000121084 -3.12512e-08
7.95269e-07 -3.12512e-08 0.000117804
0.00102099 -2.59883e-05 2.05638e-05
-2.59883e-05 0.000108126 6.34654e-06
2.05638e-05 6.34654e-06 0.000120942
0.00217069 -4.37506e-05 9.45453e-07
-4.37506e-05 0.000728675 -7.21323e-08
9.45453e-07 -7.21323e-08 0.000745611
0.00221177 -4.94814e-05 -2.608e-05
-4.94814e-05 0.00075724 -3.48167e-06
-2.608e-05 -3.48167e-06 0.000772396
0.000730788 3.26266e-05 2.60682e-06
3.26266e-05 -3.94932e-05 -3.41117e-06
2.60682e-06 -3.41117e-06 -5.03286e-05
0.00237689 5.66316e-05 2.96779e-05
5.66316e-05 0.000849038 -3.40254e-06
2.96779e-05 -3.40254e-06 0.000861762
0.000736612 3.81867e-05 -1.29056e-08
3.81867e-05 -2.8733e-05 7.15083e-08
-1.29056e-08 7.15083e-08 -4.32021e-05
0.00254331 6.27223e-05 -7.6755e-07
6.27223e-05 0.000943976 -1.01828e-07
-7.6755e-07 -1.01828e-07 0.000954065
0.000726368 4.91043e-05 -1.7695e-06
4.91043e-05 -2.36592e-05 4.25152e-06
-1.7695e-06 4.25152e-06 -4.39828e-05
0.00270492 6.91232e-05 -4.08885e-05
6.91232e-05 0.0010343 3.34215e-06
-4.08885e-05 3.34215e-06 0.00104182
0.00116493 5.97741e-05 -7.57608e-06
5.97741e-05 1.79272e-05 -2.1376e-06
-7.57608e-06 -2.1376e-06 -6.81768e-05
0.00120243 3.26127e-05 -7.37493e-06
3.26127e-05 6.50913e-06 -1.23335e-06
-7.37493e-06 -1.23335e-06 -8.01867e-05
0.00144663 5.15171e-05 -3.23977e-06
5.15171e-05 6.80164e-05 -3.71687e-07
-3.23977e-06 -3.71687e-07 -3.12905e-05
0.00153123 1.75042e-05 -3.26415e-06
1.75042e-05 7.70424e-05 -1.04616e-06
-3.26415e-06 -1.04616e-06 -2.67681e-05
0.00128366 1.35756e-05 -7.98764e-06
1.35756e-05 6.53292e-06 -1.42452e-06
-7.98764e-06 -1.42452e-06 -8.72475e-05
0.000781936 4.41587e-06 -1.30352e-05
4.41587e-06 -9.445e-05 3.75833e-08
-1.30352e-05 3.75833e-08 -0.000152825
0.00129646 1.94707e-06 -1.9697e-08
1.94707e-06 7.12934e-06 -3.92353e-07
-1.9697e-08 -3.92353e-07 -8.75192e-05
0.00156455 1.60133e-05 2.04424e-08
1.60133e-05 6.92238e-05 -4.09354e-07
2.04424e-08 -4.09354e-07 -3.95336e-05
0.00147692 3.06124e-05 8.45093e-08
3.06124e-05 6.83122e-05 1.35349e-07
8.45093e-08 1.35349e-07 -3.15119e-05
0.00160558 1.33803e-05 -2.38192e-08
1.33803e-05 7.4873e-05 2.13587e-07
-2.38192e-08 2.13587e-07 -3.12376e-05
0.00139433 6.87845e-05 -8.04627e-08
6.87845e-05 6.12869e-05 -4.20168e-08
-8.04627e-08 -4.20168e-08 -3.91396e-05
0.00157054 5.46756e-05 -3.78467e-08
5.46756e-05 8.51448e-05 7.64113e-08
-3.78467e-08 7.64113e-08 -1.57089e-05
0.00156876 6.72507e-06 3.90292e-06
6.72507e-06 6.49922e-05 -1.04794e-06
3.90292e-06 -1.04794e-06 -4.45485e-05
0.00162884 1.29649e-05 9.02321e-07
1.29649e-05 6.33583e-05 1.24825e-06
9.02321e-07 1.24825e-06 -4.88874e-05
0.00158826 3.34805e-05 9.4683e-07
3.34805e-05 7.90233e-05 3.75472e-07
9.4683e-07 3.75472e-07 -2.2814e-05
0.0018182 9.02221e-06 5.85593e-08
9.02221e-06 0.000165851 5.5361e-07
5.85593e-08 5.5361e-07 6.08324e-05
0.00150394 6.8604e-05 5.96445e-07
6.8604e-05 7.22841e-05 -6.78852e-07
5.96445e-07 -6.78852e-07 -3.08234e-05
0.00165636 4.50949e-05 -1.70798e-06
4.50949e-05 9.85504e-05 1.22988e-07
-1.70798e-06 1.22988e-07 4.29815e-06
0.000914787 2.73299e-06 -7.6635e-06
2.73299e-06 -0.000177207 1.23718e-06
-7.6635e-06 1.23718e-06 -0.000271294
0.00161629 -2.77826e-05 -1.18613e-05
-2.77826e-05 0.000228678 1.50153e-06
-1.18613e-05 1.50153e-06 0.000147865
0.00167355 7.52788e-07 -5.36565e-06
7.52788e-07 0.000162412 1.46629e-06
-5.36565e-06 1.46629e-06 6.23153e-05
0.00185168 -5.90352e-05 -3.48933e-06
-5.90352e-05 0.000273407 1.73341e-07
-3.48933e-06 1.73341e-07 0.000176464
0.00068896 4.40454e-05 -3.76798e-06
4.40454e-05 -3.04909e-05 4.18005e-06
-3.76798e-06 4.18005e-06 -6.00345e-05
0.000892635 -3.08249e-05 -2.86907e-06
-3.08249e-05 6.18242e-05 1.33389e-06
-2.86907e-06 1.33389e-06 -7.49701e-06
0.000890705 -8.29732e-05 -6.71005e-07
-8.29732e-05 3.07373e-05 6.29353e-08
-6.71005e-07 6.29353e-08 -5.85254e-05
0.0017971 -9.73165e-05 -4.29325e-06
-9.73165e-05 0.000311827 1.6182e-06
-4.29325e-06 1.6182e-06 0.000212308
0.0014073 -7.13183e-05 -1.41089e-06
-7.13183e-05 8.13817e-06 3.74544e-07
-1.41089e-06 3.74544e-07 -9.48762e-05
0.00133049 -9.72884e-05 -7.29362e-07
-9.72884e-05 7.64793e-05 9.39967e-07
-7.29362e-07 9.39967e-07 -2.85669e-05
0.00107127 -0.000100705 -1.3605e-06
-0.000100705 5.06007e-05 7.63276e-07
-1.3605e-06 7.63276e-07 -5.74936e-05
0.00112186 -9.92352e-05 1.91329e-06
-9.92352e-05 -2.61156e-06 -3.92407e-07
1.91329e-06 -3.92407e-07 -0.000108851
0.000784032 2.43949e-06 -2.626e-06
2.43949e-06 -6.26237e-06 1.70621e-06
-2.626e-06 1.70621e-06 -6.68233e-05
0.000833066 -6.51609e-06 -1.18107e-06
-6.51609e-06 1.24019e-05 2.76076e-07
-1.18107e-06 2.76076e-07 -6.18693e-05
0.000781343 3.35798e-05 -9.24262e-07
3.35798e-05 -1.24826e-05 2.09474e-06
-9.24262e-07 2.09474e-06 -5.7411e-05
0.00174194 5.08288e-06 -1.78998e-06
5.08288e-06 0.000174897 4.36933e-07
-1.78998e-06 4.36933e-07 6.97524e-05
0.00163007 -3.09879e-05 -8.30354e-07
-3.09879e-05 0.000153059 9.80897e-08
-8.30354e-07 9.80897e-08 5.69877e-05
0.00166785 -1.53251e-06 -6.85586e-07
-1.53251e-06 0.000120225 5.25179e-07
-6.85586e-07 5.25179e-07 1.44097e-05
0.00170259 -4.74924e-05 2.7063e-07
-4.74924e-05 0.000141698 -2.15463e-07
2.7063e-07 -2.15463e-07 4.10229e-05
0.000825635 -1.73658e-05 1.71104e-07
-1.73658e-05 2.31002e-05 -2.03376e-07
1.71104e-07 -2.03376e-07 -4.36225e-05
0.00101206 -8.31884e-05 -1.2897e-07
-8.31884e-05 0.000103634 2.70792e-07
-1.2897e-07 2.70792e-07 1.92744e-05
0.000840924 -9.09268e-05 5.47676e-07
-9.09268e-05 -8.19181e-06 -8.17768e-07
5.47676e-07 -8.17768e-07 -0.00011143
0.00145588 -9.42602e-05 2.18345e-07
-9.42602e-05 8.75137e-05 -5.52116e-07
2.18345e-07 -5.52116e-07 -1.78214e-05
0.00161156 -7.11391e-05 2.78781e-07
-7.11391e-05 8.01767e-05 9.25571e-07
2.78781e-07 9.25571e-07 -1.7422e-05
0.00123809 -0.000113497 -1.85767e-09
-0.000113497 0.000113922 1.95674e-07
-1.85767e-09 1.95674e-07 -1.1469e-06
0.00138198 -0.000101048 -1.49842e-07
-0.000101048 7.30267e-05 2.52334e-07
-1.49842e-07 2.52334e-07 -3.27155e-05
0.00158833 -0.000118304 8.64256e-07
-0.000118304 0.000217075 5.0818e-07
8.64256e-07 5.0818e-07 0.000115126
0.00095458 -4.38529e-05 -1.58384e-07
-4.38529e-05 7.59096e-05 -2.07255e-07
-1.58384e-07 -2.07255e-07 -2.45318e-06
0.000972688 -7.71512e-05 -2.89759e-07
-7.71512e-05 9.52194e-05 3.56181e-07
-2.89759e-07 3.56181e-07 7.5159e-06
0.000809125 3.24273e-05 9.976e-08
3.24273e-05 -3.13284e-06 8.61943e-08
9.976e-08 8.61943e-08 -4.22049e-05
0.000799417 1.10993e-05 -8.48652e-08
1.10993e-05 -8.44587e-06 -5.16708e-07
-8.48652e-08 -5.16708e-07 -7.53891e-05
0.00166046 2.50823e-06 1.22441e-06
2.50823e-06 9.43572e-05 -1.04839e-06
1.22441e-06 -1.04839e-06 -1.62422e-05
0.00170241 -2.40607e-05 1.26045e-06
-2.40607e-05 0.000145326 1.23976e-07
1.26045e-06 1.23976e-07 4.39825e-05
0.00175886 4.11252e-07 1.53475e-07
4.11252e-07 0.000146804 1.37924e-07
1.53475e-07 1.37924e-07 4.09337e-05
0.00162689 -3.96547e-05 -4.82416e-07
-3.96547e-05 7.17381e-05 -7.84412e-07
-4.82416e-07 -7.84412e-07 -2.78274e-05
0.00145994 -9.31466e-05 -1.63115e-06
-9.31466e-05 4.51217e-05 7.33456e-08
-1.63115e-06 7.33456e-08 -5.80834e-05
0.00172283 -6.88341e-05 5.18296e-07
-6.88341e-05 0.000111499 1.81829e-07
5.18296e-07 1.81829e-07 1.55942e-05
0.000930845 -7.55873e-05 1.2309e-06
-7.55873e-05 6.41496e-05 5.74419e-07
1.2309e-06 5.74419e-07 -1.63166e-05
0.00130209 -0.000100569 -3.33091e-06
-0.000100569 1.28698e-05 7.64359e-07
-3.33091e-06 7.64359e-07 -8.32719e-05
0.000698317 -8.06588e-05 -5.00563e-08
-8.06588e-05 -5.67416e-05 -5.99831e-07
-5.00563e-08 -5.99831e-07 -0.00015214
0.00110502 -0.000108816 1.72178e-06
-0.000108816 0.0001081 -1.24442e-06
1.72178e-06 -1.24442e-06 -8.16922e-06
0.00131576 -0.000122639 1.10235e-06
-0.000122639 0.000131851 2.29464e-06
1.10235e-06 2.29464e-06 1.18243e-05
0.00198061 -0.000132846 -8.6505e-07
-0.000132846 0.000404994 1.79899e-06
-8.6505e-07 1.79899e-06 0.000301893
0.000824768 2.12048e-05 1.58555e-06
2.12048e-05 9.65895e-07 -1.56331e-06
1.58555e-06 -1.56331e-06 -3.45931e-05
0.000753523 3.18019e-06 5.35651e-07
3.18019e-06 -3.2467e-05 -1.3197e-06
5.35651e-07 -1.3197e-06 -9.4677e-05
0.000972541 -8.8123e-05 3.02997e-07
-8.8123e-05 9.04867e-05 1.30288e-06
3.02997e-07 1.30288e-06 2.18014e-06
0.000976645 -5.95581e-05 8.55199e-07
-5.95581e-05 9.54741e-05 3.79657e-08
8.55199e-07 3.79657e-08 1.41554e-05
0.000976155 -8.84009e-05 -3.79567e-07
-8.84009e-05 9.94976e-05 1.95118e-06
-3.79567e-07 1.95118e-06 7.81467e-06
0.000728362 -3.28598e-05 -2.63593e-06
-3.28598e-05 -3.72445e-05 -3.51353e-06
-2.63593e-06 -3.51353e-06 -4.68114e-05
0.00134372 8.41378e-05 -2.75259e-06
8.41378e-05 6.79442e-05 -3.25122e-07
-2.75259e-06 -3.25122e-07 -3.42217e-05
0.000810359 -3.69867e-05 -1.05089e-06
-3.69867e-05 6.58034e-06 -2.18905e-06
-1.05089e-06 -2.18905e-06 -3.59122e-05
0.000857772 -4.75222e-06 -1.69325e-06
-4.75222e-06 3.86465e-05 -2.24567e-06
-1.69325e-06 -2.24567e-06 -2.06568e-05
0.000921474 5.01182e-06 -4.38766e-07
5.01182e-06 6.4763e-05 -1.20302e-06
-4.38766e-07 -1.20302e-06 -6.72034e-06
0.00107748 9.51466e-05 -2.51148e-06
9.51466e-05 4.72066e-05 -1.26145e-06
-2.51148e-06 -1.26145e-06 -4.83425e-05
0.00132609 0.000103213 -1.44459e-06
0.000103213 7.32444e-05 -2.66553e-07
-1.44459e-06 -2.66553e-07 -3.61749e-05
0.000936628 7.43503e-05 -1.66494e-06
7.43503e-05 7.48657e-05 -4.73163e-07
-1.66494e-06 -4.73163e-07 -9.9595e-06
0.00109694 0.000100964 -2.15387e-06
0.000100964 0.000147498 -9.72148e-07
-2.15387e-06 -9.72148e-07 4.14355e-05
0.00146774 0.000115252 -1.749e-06
0.000115252 0.000266546 -8.81014e-07
-1.749e-06 -8.81014e-07 0.000170188
0.00102162 9.92936e-05 -3.59661e-06
9.92936e-05 6.52046e-05 2.05676e-06
-3.59661e-06 2.05676e-06 -3.29006e-05
0.000759519 -2.97357e-05 1.03273e-07
-2.97357e-05 -2.82267e-05 2.40543e-08
1.03273e-07 2.40543e-08 -3.5172e-05
0.000809749 -3.16e-05 -6.9993e-08
-3.16e-05 8.94897e-07 7.30419e-08
-6.9993e-08 7.30419e-08 -3.57474e-05
0.000954165 3.77539e-05 2.91445e-07
3.77539e-05 8.04985e-05 -9.04387e-08
2.91445e-07 -9.04387e-08 2.45085e-06
0.000882377 -7.26952e-06 4.31039e-08
-7.26952e-06 4.09041e-05 5.32453e-08
4.31039e-08 5.32453e-08 -2.23869e-05
0.00091931 5.25093e-05 3.85476e-07
5.25093e-05 7.10182e-05 -2.88605e-07
3.85476e-07 -2.88605e-07 -1.42119e-05
0.0014358 8.72747e-05 1.03432e-06
8.72747e-05 6.98962e-05 4.86789e-07
1.03432e-06 4.86789e-07 -3.78895e-05
0.00120271 0.000106272 1.54267e-07
0.000106272 8.04735e-05 -1.56931e-08
1.54267e-07 -1.56931e-08 -2.31857e-05
0.00139535 0.0001101 8.79753e-07
0.0001101 8.46391e-05 7.32113e-07
8.79753e-07 7.32113e-07 -2.77137e-05
0.00102989 9.31715e-05 7.65911e-07
9.31715e-05 0.000131063 8.71962e-07
7.65911e-07 8.71962e-07 2.9452e-05
0.0012976 0.000112441 4.58441e-07
0.000112441 0.000161001 -7.61569e-07
4.58441e-07 -7.61569e-07 6.10753e-05
0.000880325 9.508e-05 -1.39211e-06
9.508e-05 1.55684e-05 -7.68607e-07
-1.39211e-06 -7.68607e-07 -9.93976e-05
0.000820695 -2.56391e-05 1.14726e-06
-2.56391e-05 2.30538e-06 1.97344e-06
1.14726e-06 1.97344e-06 -3.07709e-05
0.000867715 -1.00617e-05 5.22838e-07
-1.00617e-05 2.82279e-05 1.33874e-06
5.22838e-07 1.33874e-06 -2.69489e-05
0.00104553 8.8999e-05 7.68683e-07
8.8999e-05 0.000135129 -1.07564e-07
7.68683e-07 -1.07564e-07 4.16887e-05
0.000936054 1.96304e-05 6.71338e-07
1.96304e-05 7.6915e-05 6.88896e-07
6.71338e-07 6.88896e-07 1.92003e-07
0.00102753 5.29826e-05 7.73363e-07
5.29826e-05 0.000134188 -6.75174e-07
7.73363e-07 -6.75174e-07 4.11161e-05
0.00149066 8.64359e-05 -1.46838e-06
8.64359e-05 6.5354e-05 -1.40674e-06
-1.46838e-06 -1.40674e-06 -4.16335e-05
0.00124515 0.000114435 1.05814e-06
0.000114435 7.85707e-05 8.48235e-07
1.05814e-06 8.48235e-07 -2.79523e-05
0.0011561 0.000113191 -2.84332e-06
0.000113191 -3.97993e-05 -6.39089e-07
-2.84332e-06 -6.39089e-07 -0.000142843
0.00097339 9.51254e-05 1.04547e-06
9.51254e-05 0.000108334 2.40907e-06
1.04547e-06 2.40907e-06 -8.18699e-06
0.00122007 0.000118027 4.00482e-06
0.000118027 0.000139221 -9.26214e-07
4.00482e-06 -9.26214e-07 2.11256e-05
0.000830714 -1.9189e-05 7.05993e-08
-1.9189e-05 3.86058e-06 1.4715e-09
7.05993e-08 1.4715e-09 -2.66802e-05
0.000713352 -1.85381e-05 4.79354e-07
-1.85381e-05 -5.46433e-05 1.55591e-06
4.79354e-07 1.55591e-06 -0.000102923
0.000801122 -9.74808e-06 -6.46256e-07
-9.74808e-06 -7.62872e-06 -4.30455e-09
-6.46256e-07 -4.30455e-09 -5.45995e-05
0.00107365 1.3051e-05 9.18979e-07
1.3051e-05 0.000144192 1.40089e-07
9.18979e-07 1.40089e-07 8.61538e-05
0.000868095 1.13865e-05 1.4987e-06
1.13865e-05 2.74168e-05 9.83245e-07
1.4987e-06 9.83245e-07 -1.90814e-05
0.000857783 -4.63721e-06 7.18806e-07
-4.63721e-06 8.42144e-06 1.77966e-06
7.18806e-07 1.77966e-06 -1.77517e-05
0.000848777 -1.21129e-05 4.53158e-08
-1.21129e-05 6.82039e-06 2.08497e-08
4.53158e-08 2.08497e-08 -2.02724e-05
0.0013214 -2.31841e-05 1.46078e-06
-2.31841e-05 0.000254245 2.02125e-06
1.46078e-06 2.02125e-06 0.000256204
0.000840249 -1.3942e-05 -1.00312e-06
-1.3942e-05 6.34283e-06 -1.85e-06
-1.00312e-06 -1.85e-06 -2.24398e-05
0.0013435 -2.67607e-05 -3.65733e-06
-2.67607e-05 0.000271075 -1.18276e-06
-3.65733e-06 -1.18276e-06 0.000271441
0.00102442 -2.23204e-05 1.7506e-05
-2.23204e-05 0.000102604 6.25955e-06
1.7506e-05 6.25955e-06 0.000117319
0.00133198 -2.96595e-05 -8.92392e-06
-2.96595e-05 0.000271158 -3.21188e-06
-8.92392e-06 -3.21188e-06 0.000269669
0.00155939 -3.22505e-05 1.57739e-05
-3.22505e-05 0.000395679 2.08694e-06
1.57739e-05 2.08694e-06 0.000411428
0.00216637 -4.37826e-05 -2.30552e-05
-4.37826e-05 0.000725297 -3.59788e-06
-2.30552e-05 -3.59788e-06 0.000742447
0.000737642 2.95142e-05 2.1997e-06
2.95142e-05 -4.1875e-05 -3.37762e-06
2.1997e-06 -3.37762e-06 -5.03337e-05
0.00074856 3.3268e-05 -1.36852e-07
3.3268e-05 -3.02333e-05 2.01561e-08
-1.36852e-07 2.01561e-08 -4.12142e-05
0.00231517 5.09297e-05 2.64659e-05
5.09297e-05 0.000808866 -3.53185e-06
2.64659e-05 -3.53185e-06 0.000823626
0.00240649 5.65876e-05 -7.17606e-07
5.65876e-05 0.000865361 -8.37614e-08
-7.17606e-07 -8.37614e-08 0.000877812
0.000755163 4.03693e-05 -2.44033e-06
4.03693e-05 -1.88013e-05 3.81395e-06
-2.44033e-06 3.81395e-06 -3.36826e-05
0.00257988 6.23223e-05 -3.75093e-05
6.23223e-05 0.000963431 3.40753e-06
-3.75093e-05 3.40753e-06 0.000973317
0.00141234 6.96446e-05 -3.47392e-06
6.96446e-05 7.00649e-05 -3.51069e-07
-3.47392e-06 -3.51069e-07 -3.04736e-05
0.00147929 3.12505e-05 -3.1871e-06
3.12505e-05 6.99547e-05 -4.33823e-07
-3.1871e-06 -4.33823e-07 -2.99459e-05
0.00158061 5.55048e-05 -5.38598e-07
5.55048e-05 9.05231e-05 4.26597e-07
-5.38598e-07 4.26597e-07 -1.03562e-05
0.00157176 1.25346e-05 -8.19134e-07
1.25346e-05 5.46562e-05 -7.88863e-07
-8.19134e-07 -7.88863e-07 -5.21341e-05
0.00157755 1.94813e-05 -3.43989e-06
1.94813e-05 7.59858e-05 -1.33509e-06
-3.43989e-06 -1.33509e-06 -3.27538e-05
0.0013099 6.68293e-06 -8.0349e-06
6.68293e-06 1.36017e-05 6.84254e-08
-8.0349e-06 6.84254e-08 -8.1054e-05
0.00158108 1.09638e-05 4.09087e-08
1.09638e-05 7.13587e-05 -5.42537e-07
4.09087e-08 -5.42537e-07 -3.82842e-05
0.00160408 4.8379e-06 2.81799e-07
4.8379e-06 4.82684e-05 2.52374e-07
2.81799e-07 2.52374e-07 -6.48079e-05
0.00160435 3.27597e-05 1.9423e-08
3.27597e-05 8.75716e-05 1.3873e-07
1.9423e-08 1.3873e-07 -1.41414e-05
0.00174532 8.3925e-06 -7.56708e-08
8.3925e-06 0.00012692 -4.52224e-07
-7.56708e-08 -4.52224e-07 2.20504e-05
0.00151691 6.9991e-05 -1.3845e-07
6.9991e-05 7.85196e-05 4.97473e-08
-1.3845e-07 4.97473e-08 -2.48599e-05
0.00162645 4.45754e-05 -1.54615e-08
4.45754e-05 8.03954e-05 4.5421e-07
-1.54615e-08 4.5421e-07 -1.39849e-05
0.00163724 3.12693e-07 1.77849e-06
3.12693e-07 5.93556e-05 -1.03667e-06
1.77849e-06 -1.03667e-06 -5.4907e-05
0.00179317 1.38003e-05 -3.251e-07
1.38003e-05 0.000127382 6.62395e-07
-3.251e-07 6.62395e-07 1.47657e-05
0.00162073 2.46687e-05 -5.2105e-07
2.46687e-05 6.6985e-05 1.08958e-06
-5.2105e-07 1.08958e-06 -3.21602e-05
0.00177593 4.05145e-06 -3.44114e-07
4.05145e-06 0.000133186 9.97284e-08
-3.44114e-07 9.97284e-08 2.85979e-05
0.00149542 6.24968e-05 -1.28749e-06
6.24968e-05 3.09791e-05 -1.24793e-06
-1.28749e-06 -1.24793e-06 -6.72405e-05
0.00184638 3.72793e-05 -7.04528e-07
3.72793e-05 0.000173241 -3.38795e-07
-7.04528e-07 -3.38795e-07 8.096e-05
0.00157408 5.0917e-06 -5.04843e-06
5.0917e-06 8.41427e-05 1.6914e-06
-5.04843e-06 1.6914e-06 -2.26275e-05
0.00162403 -3.27168e-05 -4.84052e-06
-3.27168e-05 0.000148634 5.98596e-07
-4.84052e-06 5.98596e-07 5.27355e-05
0.00155865 -1.01319e-06 -1.84457e-06
-1.01319e-06 6.19491e-05 9.19581e-07
-1.84457e-06 9.19581e-07 -4.42824e-05
0.00179544 -4.68129e-05 -1.48227e-06
-4.68129e-05 0.000190881 -2.54919e-07
-1.48227e-06 -2.54919e-07 9.05059e-05
0.000843101 -2.03827e-05 -2.70101e-06
-2.03827e-05 2.99951e-05 1.33853e-06
-2.70101e-06 1.33853e-06 -3.63288e-05
0.00108911 -8.70278e-05 -1.45535e-06
-8.70278e-05 0.000142029 3.26928e-07
-1.45535e-06 3.26928e-07 5.72614e-05
0.00092027 -9.31604e-05 -3.09627e-07
-9.31604e-05 3.64441e-05 9.48515e-08
-3.09627e-07 9.48515e-08 -6.55608e-05
0.00169787 -9.98188e-05 -1.05252e-06
-9.98188e-05 0.000215711 2.58201e-07
-1.05252e-06 2.58201e-07 0.00011055
0.00152856 -6.92213e-05 6.88118e-07
-6.92213e-05 3.38711e-05 1.2439e-07
6.88118e-07 1.2439e-07 -6.27661e-05
0.00139187 -0.000100167 1.53641e-06
-0.000100167 7.70143e-05 8.53095e-07
1.53641e-06 8.53095e-07 -2.84798e-05
0.000988573 -0.00010365 -7.78047e-07
-0.00010365 -1.19327e-05 -8.84219e-08
-7.78047e-07 -8.84219e-08 -0.000127753
0.00133172 -0.000109384 3.19628e-06
-0.000109384 8.52488e-05 -2.66134e-06
3.19628e-06 -2.66134e-06 -1.56022e-05
0.000973918 -3.5908e-05 -1.31664e-06
-3.5908e-05 8.54098e-05 -3.70706e-07
-1.31664e-06 -3.70706e-07 7.61316e-06
0.000956805 -6.47358e-05 -8.10185e-07
-6.47358e-05 8.32789e-05 -5.95708e-07
-8.10185e-07 -5.95708e-07 -3.42241e-06
0.000800246 3.27407e-05 -9.06188e-07
3.27407e-05 -7.29203e-06 1.8141e-06
-9.06188e-07 1.8141e-06 -4.6543e-05
0.000819372 2.09927e-05 -2.07464e-07
2.09927e-05 4.9087e-07 3.72396e-07
-2.07464e-07 3.72396e-07 -6.48327e-05
0.00167722 3.46099e-06 -1.56966e-07
3.46099e-06 0.000102641 1.61516e-07
-1.56966e-07 1.61516e-07 -7.95727e-06
0.00174181 -2.14125e-05 -5.50066e-07
-2.14125e-05 0.000165078 2.5471e-08
-5.50066e-07 2.5471e-08 6.4251e-05
0.00170586 -3.72593e-07 -7.3542e-07
-3.72593e-07 0.000121081 6.63695e-07
-7.3542e-07 6.63695e-07 1.57996e-05
0.00167202 -4.06873e-05 -1.21405e-07
-4.06873e-05 9.45798e-05 -4.42362e-07
-1.21405e-07 -4.42362e-07 -4.78626e-06
0.000988267 -6.20747e-05 -1.92157e-07
-6.20747e-05 9.15505e-05 7.70294e-08
-1.92157e-07 7.70294e-08 1.18492e-05
0.000780666 -8.34156e-05 4.87916e-07
-8.34156e-05 -1.3538e-05 -4.19929e-07
4.87916e-07 -4.19929e-07 -0.00010768
0.00110551 -0.000108234 1.15225e-07
-0.000108234 0.00011008 -1.58975e-07
1.15225e-07 -1.58975e-07 -6.51597e-06
0.00159139 -9.58162e-05 -6.43895e-07
-9.58162e-05 0.000115122 -5.14006e-07
-6.43895e-07 -5.14006e-07 1.12441e-05
0.00162329 -6.77848e-05 -4.12926e-07
-6.77848e-05 6.4185e-05 5.84984e-07
-4.12926e-07 5.84984e-07 -2.88025e-05
0.0013092 -0.000121157 -2.44706e-07
-0.000121157 0.000129181 5.91992e-07
-2.44706e-07 5.91992e-07 8.46545e-06
0.00139628 -0.000102031 -1.5011e-07
-0.000102031 6.04914e-05 1.0878e-06
-1.5011e-07 1.0878e-06 -3.56442e-05
0.00161146 -0.000120183 9.95193e-07
-0.000120183 0.000213877 -1.39354e-06
9.95193e-07 -1.39354e-06 0.000113718
0.0010215 -9.03823e-05 5.9698e-08
-9.03823e-05 0.000115009 -3.39568e-08
5.9698e-08 -3.39568e-08 2.66766e-05
0.000998643 -8.63962e-05 4.30436e-08
-8.63962e-05 0.000109735 1.71986e-07
4.30436e-08 1.71986e-07 1.83758e-05
0.000965976 -4.27231e-05 -3.34422e-07
-4.27231e-05 8.83981e-05 -1.43656e-08
-3.34422e-07 -1.43656e-08 8.22221e-06
0.000705815 2.64713e-05 -2.21798e-07
2.64713e-05 -6.15884e-05 1.69604e-09
-2.21798e-07 1.69604e-09 -9.82392e-05
0.000781708 1.91742e-05 5.47882e-08
1.91742e-05 -2.07307e-05 -3.46345e-07
5.47882e-08 -3.46345e-07 -8.06312e-05
0.00171304 5.97474e-06 -3.40519e-08
5.97474e-06 9.42981e-05 -7.05421e-07
-3.40519e-08 -7.05421e-07 -1.52166e-05
0.00166563 -6.56266e-06 1.3995e-06
-6.56266e-06 8.88462e-05 7.42286e-08
1.3995e-06 7.42286e-08 -1.44261e-05
0.00162151 -4.44462e-05 1.1504e-06
-4.44462e-05 4.18742e-05 -1.36983e-06
1.1504e-06 -1.36983e-06 -5.81477e-05
0.00137907 -8.13424e-05 9.15356e-09
-8.13424e-05 -3.11447e-05 -1.62256e-06
9.15356e-09 -1.62256e-06 -0.000126767
0.000944155 -8.84269e-05 -1.00266e-07
-8.84269e-05 7.42049e-05 1.28402e-06
-1.00266e-07 1.28402e-06 -1.4624e-05
0.00198906 -0.000123588 -1.21056e-06
-0.000123588 0.000329426 1.37576e-06
-1.21056e-06 1.37576e-06 0.000237179
0.000379883 -6.86946e-05 -1.54379e-07
-6.86946e-05 -0.00021812 -1.87424e-06
-1.54379e-07 -1.87424e-06 -0.000321105
0.0012095 -0.000120522 2.92949e-06
-0.000120522 0.000140745 -9.93429e-07
2.92949e-06 -9.93429e-07 9.53622e-06
0.00164931 -0.000137941 1.60018e-06
-0.000137941 0.000272285 2.29748e-06
1.60018e-06 2.29748e-06 0.000146721
0.000614444 1.94905e-05 1.2473e-06
1.94905e-05 -0.000112985 -2.2782e-06
1.2473e-06 -2.2782e-06 -0.000148217
0.000975345 7.01602e-07 1.30051e-06
7.01602e-07 8.32918e-05 -6.53765e-07
1.30051e-06 -6.53765e-07 2.76956e-05
0.000992609 -2.77516e-05 8.96271e-08
-2.77516e-05 9.77738e-05 -1.8186e-07
8.96271e-08 -1.8186e-07 2.70869e-05
0.000976614 -8.8802e-05 -4.16888e-07
-8.8802e-05 9.32175e-05 2.12451e-06
-4.16888e-07 2.12451e-06 3.56234e-06
0.00107772 -6.36472e-05 3.899e-07
-6.36472e-05 0.000150709 1.36822e-06
3.899e-07 1.36822e-06 6.19258e-05
0.000943638 -8.67538e-05 -1.83439e-07
-8.67538e-05 7.62796e-05 1.90755e-06
-1.83439e-07 1.90755e-06 -1.63287e-05
0.000739421 -2.91266e-05 -2.17567e-06
-2.91266e-05 -3.85957e-05 -3.48884e-06
-2.17567e-06 -3.48884e-06 -4.54428e-05
0.000818323 -3.12498e-05 -1.4052e-06
-3.12498e-05 5.35921e-06 -1.91118e-06
-1.4052e-06 -1.91118e-06 -3.11925e-05
0.00145096 8.81493e-05 -6.35437e-07
8.81493e-05 7.76054e-05 8.38808e-07
-6.35437e-07 8.38808e-07 -3.04564e-05
0.000901838 -1.95005e-05 -2.6073e-07
-1.95005e-05 5.01746e-05 -1.41609e-06
-2.6073e-07 -1.41609e-06 -1.2337e-05
0.000896977 3.0945e-05 -1.1735e-06
3.0945e-05 4.96413e-05 -4.99786e-07
-1.1735e-06 -4.99786e-07 -2.74186e-05
0.000872608 4.46794e-05 -2.55387e-07
4.46794e-05 4.515e-05 -2.91356e-07
-2.55387e-07 -2.91356e-07 -3.95993e-05
0.00120793 0.000107111 -1.13447e-06
0.000107111 8.34994e-05 -1.39338e-06
-1.13447e-06 -1.39338e-06 -2.01991e-05
0.00133943 0.000109545 6.4973e-07
0.000109545 5.66661e-05 2.68323e-07
6.4973e-07 2.68323e-07 -5.61013e-05
0.000955044 8.99419e-05 -6.76398e-07
8.99419e-05 9.34433e-05 -2.95141e-07
-6.76398e-07 -2.95141e-07 -7.83058e-06
0.00122994 0.000111037 -2.15574e-06
0.000111037 0.000194158 7.80465e-07
-2.15574e-06 7.80465e-07 7.92746e-05
0.00141908 0.000116839 -2.70889e-06
0.000116839 0.000225146 -6.57061e-07
-2.70889e-06 -6.57061e-07 0.00012527
0.000822537 -2.48043e-05 3.12394e-08
-2.48043e-05 3.44231e-06 2.38461e-08
3.12394e-08 2.38461e-08 -2.95958e-05
0.00087127 -1.76238e-05 -1.35342e-07
-1.76238e-05 3.00409e-05 1.44237e-07
-1.35342e-07 1.44237e-07 -2.50426e-05
0.00100983 8.74571e-05 -4.12378e-07
8.74571e-05 0.000118161 -2.73188e-07
-4.12378e-07 -2.73188e-07 2.51747e-05
0.000923669 1.48274e-05 1.32156e-07
1.48274e-05 6.84951e-05 1.49585e-09
1.32156e-07 1.49585e-09 -7.26648e-06
0.000944239 5.89032e-05 1.36652e-07
5.89032e-05 9.22591e-05 -5.99625e-07
1.36652e-07 -5.99625e-07 -2.6405e-06
0.00149681 8.86018e-05 -7.19307e-07
8.86018e-05 7.05307e-05 -1.9894e-07
-7.19307e-07 -1.9894e-07 -3.69841e-05
0.00127129 0.000115317 1.00327e-06
0.000115317 9.0715e-05 -1.01178e-07
1.00327e-06 -1.01178e-07 -1.60648e-05
0.00128099 0.000116202 5.31746e-07
0.000116202 1.77967e-05 1.19851e-06
5.31746e-07 1.19851e-06 -8.38482e-05
0.000794549 8.70624e-05 5.61438e-07
8.70624e-05 1.60212e-05 1.45676e-06
5.61438e-07 1.45676e-06 -0.000100494
0.00122194 0.000117934 -3.68703e-07
0.000117934 0.000141699 -8.03175e-07
-3.68703e-07 -8.03175e-07 2.09873e-05
0.000863505 -1.08111e-05 6.6706e-07
-1.08111e-05 2.54849e-05 1.20607e-06
6.6706e-07 1.20607e-06 -2.45495e-05
0.000806458 -2.94132e-06 2.31875e-07
-2.94132e-06 1.1854e-06 1.46783e-06
2.31875e-07 1.46783e-06 -6.79253e-05
0.00112928 9.89792e-05 4.39965e-07
9.89792e-05 0.000192558 -5.95658e-07
4.39965e-07 -5.95658e-07 8.64123e-05
0.000839185 3.39786e-05 4.89253e-07
3.39786e-05 3.22356e-05 5.78073e-07
4.89253e-07 5.78073e-07 -5.74137e-05
0.0010255 6.98104e-05 3.40593e-07
6.98104e-05 0.000130555 -9.55664e-07
3.40593e-07 -9.55664e-07 2.89099e-05
0.00165113 8.91951e-05 -2.49763e-06
8.91951e-05 0.00010348 2.77516e-07
-2.49763e-06 2.77516e-07 1.36647e-05
0.00161954 0.000140725 8.88301e-07
0.000140725 0.000262622 -1.43992e-06
8.88301e-07 -1.43992e-06 0.000146456
0.000219799 8.95677e-05 3.72829e-07
8.95677e-05 -0.000559531 -1.75523e-06
3.72829e-07 -1.75523e-06 -0.000655991
0.00159393 0.000126652 4.06004e-06
0.000126652 0.000417221 3.13827e-06
4.06004e-06 3.13827e-06 0.000290685
7.49265e-05 7.51863e-05 7.47381e-07
7.51863e-05 -0.000446705 -9.78297e-07
7.47381e-07 -9.78297e-07 -0.000580253
0.000829686 -1.71195e-05 -1.30363e-06
-1.71195e-05 3.66033e-06 -1.81297e-06
-1.30363e-06 -1.81297e-06 -2.68703e-05
0.000797506 -1.21147e-05 1.35251e-07
-1.21147e-05 -1.00419e-05 5.39501e-07
1.35251e-07 5.39501e-07 -5.80277e-05
0.00079553 -1.86569e-05 2.36082e-07
-1.86569e-05 -6.94088e-06 1.16185e-06
2.36082e-07 1.16185e-06 -6.6874e-05
0.000755612 -2.55803e-05 -6.52085e-07
-2.55803e-05 -3.26071e-05 -8.09446e-07
-6.52085e-07 -8.09446e-07 -7.95988e-05
0.000881584 -1.61887e-06 2.18458e-07
-1.61887e-06 3.30743e-05 -3.63115e-08
2.18458e-07 -3.63115e-08 -1.24681e-05
0.000923574 -1.61566e-05 1.68885e-07
-1.61566e-05 6.22438e-05 -3.89644e-07
1.68885e-07 -3.89644e-07 5.22095e-06
0.00102914 5.59851e-06 2.92244e-07
5.59851e-06 0.000122244 9.853e-08
2.92244e-07 9.853e-08 5.77051e-05
0.000813236 -3.129e-05 9.04083e-08
-3.129e-05 5.54062e-06 6.99736e-07
9.04083e-08 6.99736e-07 -5.19028e-05
0.000895957 -1.75973e-05 7.18628e-08
-1.75973e-05 3.72597e-05 8.74315e-07
7.18628e-08 8.74315e-07 -6.69983e-06
0.000850081 1.75276e-06 7.65506e-07
1.75276e-06 3.37634e-06 1.63504e-06
7.65506e-07 1.63504e-06 -2.28637e-05
0.000851977 -8.91056e-06 -1.42897e-07
-8.91056e-06 5.59209e-06 1.88166e-08
-1.42897e-07 1.88166e-08 -2.06306e-05
0.00131697 -1.73306e-05 1.21339e-06
-1.73306e-05 0.000247422 1.95529e-06
1.21339e-06 1.95529e-06 0.000250461
0.000847878 -1.24185e-05 -6.33485e-07
-1.24185e-05 6.51308e-06 -1.8382e-06
-6.33485e-07 -1.8382e-06 -2.06235e-05
0.00133375 -2.17161e-05 -3.02332e-06
-2.17161e-05 0.000260535 -1.16238e-06
-3.02332e-06 -1.16238e-06 0.000262663
0.00101428 -1.8518e-05 1.406e-05
-1.8518e-05 9.16721e-05 6.19486e-06
1.406e-05 6.19486e-06 0.000107912
0.00135343 -2.5526e-05 -7.66016e-06
-2.5526e-05 0.000275899 -4.41477e-06
-7.66016e-06 -4.41477e-06 0.000276499
0.000970233 -2.35843e-05 5.75197e-06
-2.35843e-05 7.4022e-05 2.37775e-06
5.75197e-06 2.37775e-06 8.85495e-05
0.00208563 -4.22144e-05 -6.1777e-06
-4.22144e-05 0.000676735 -1.56876e-06
-6.1777e-06 -1.56876e-06 0.000694995
0.000751002 2.64409e-05 1.68789e-06
2.64409e-05 -4.05952e-05 -3.36551e-06
1.68789e-06 -3.36551e-06 -4.68317e-05
0.000755037 2.98629e-05 -1.15047e-07
2.98629e-05 -3.28837e-05 2.40215e-08
-1.15047e-07 2.40215e-08 -4.14204e-05
0.00226549 4.508e-05 2.32978e-05
4.508e-05 0.000775655 -3.65169e-06
2.32978e-05 -3.65169e-06 0.000792244
0.000767819 3.40429e-05 -2.82117e-06
3.40429e-05 -2.01877e-05 3.45122e-06
-2.82117e-06 3.45122e-06 -3.13238e-05
0.00232034 5.06851e-05 -9.55991e-07
5.06851e-05 0.000812547 -8.28082e-08
-9.55991e-07 -8.28082e-08 0.000827138
0.00242961 5.60484e-05 -3.29476e-05
5.60484e-05 0.000878206 3.47532e-06
-3.29476e-05 3.47532e-06 0.00089048
0.00152913 7.12879e-05 -1.42479e-06
7.12879e-05 8.43718e-05 6.59475e-07
-1.42479e-06 6.59475e-07 -1.92768e-05
0.00162336 3.11224e-05 -4.06786e-07
3.11224e-05 9.75976e-05 -3.45332e-09
-4.06786e-07 -3.45332e-09 -3.95394e-06
0.00160085 4.41186e-05 1.8929e-06
4.41186e-05 6.44692e-05 7.02148e-07
1.8929e-06 7.02148e-07 -3.00493e-05
0.00166729 7.68933e-06 -7.08507e-08
7.68933e-06 8.5211e-05 -1.34167e-06
-7.08507e-08 -1.34167e-06 -1.94886e-05
0.0015933 9.87393e-08 -8.76527e-07
9.87393e-08 4.02011e-05 -8.69569e-07
-8.76527e-07 -8.69569e-07 -7.37117e-05
0.00159609 1.43346e-05 -3.62876e-06
1.43346e-05 7.9039e-05 2.24102e-09
-3.62876e-06 2.24102e-09 -3.06611e-05
0.00167365 4.00718e-06 2.54507e-07
4.00718e-06 7.80529e-05 -4.97878e-07
2.54507e-07 -4.97878e-07 -3.65808e-05
0.00179337 9.79406e-06 5.74622e-08
9.79406e-06 0.000128356 -2.46503e-07
5.74622e-08 -2.46503e-07 1.5795e-05
0.00161232 2.2904e-05 4.53734e-08
2.2904e-05 6.18825e-05 4.436e-07
4.53734e-08 4.436e-07 -3.76232e-05
0.00173047 3.98833e-06 7.79251e-08
3.98833e-06 0.000107005 -8.39933e-07
7.79251e-08 -8.39933e-07 2.85729e-06
0.00155297 6.42623e-05 -5.50658e-07
6.42623e-05 6.00945e-05 1.24702e-07
-5.50658e-07 1.24702e-07 -3.80592e-05
0.0017228 3.67241e-05 1.20234e-06
3.67241e-05 0.000110224 -5.24776e-07
1.20234e-06 -5.24776e-07 1.86515e-05
0.00177289 1.155e-05 -7.91289e-08
1.155e-05 0.000102433 -5.22852e-07
-7.91289e-08 -5.22852e-07 -1.21733e-05
0.00174083 4.58704e-06 -8.02115e-07
4.58704e-06 9.19489e-05 4.64773e-07
-8.02115e-07 4.64773e-07 -1.57088e-05
0.00170869 1.65092e-05 -3.94906e-07
1.65092e-05 8.854e-05 6.15078e-07
-3.94906e-07 6.15078e-07 -8.04281e-06
0.00186105 5.78247e-05 -1.49868e-06
5.78247e-05 0.000181241 -7.31047e-07
-1.49868e-06 -7.31047e-07 8.96429e-05
0.00168532 4.35612e-06 -1.24848e-06
4.35612e-06 0.000106623 1.39754e-06
-1.24848e-06 1.39754e-06 -3.99168e-06
0.00176987 -2.04909e-05 -2.78477e-06
-2.04909e-05 0.000178924 2.5697e-07
-2.78477e-06 2.5697e-07 7.85884e-05
0.00159447 -1.40131e-06 -1.57552e-06
-1.40131e-06 6.61041e-05 7.87117e-07
-1.57552e-06 7.87117e-07 -3.86777e-05
0.00170541 -4.11322e-05 -3.5695e-07
-4.11322e-05 0.000111343 -6.14021e-08
-3.5695e-07 -6.14021e-08 1.21912e-05
0.00104661 -6.22676e-05 -1.36672e-06
-6.22676e-05 0.000121264 -4.23863e-07
-1.36672e-06 -4.23863e-07 4.1217e-05
0.00088568 -8.74346e-05 5.34295e-07
-8.74346e-05 4.11358e-05 -3.42297e-07
5.34295e-07 -3.42297e-07 -5.18443e-05
0.00109799 -0.000107305 -9.37113e-07
-0.000107305 0.000107982 1.39275e-06
-9.37113e-07 1.39275e-06 -8.91622e-06
0.00171847 -9.83565e-05 1.66958e-07
-9.83565e-05 0.000182824 -2.53111e-07
1.66958e-07 -2.53111e-07 7.8289e-05
0.00152988 -6.69241e-05 -5.64136e-07
-6.69241e-05 2.00614e-05 1.37486e-06
-5.64136e-07 1.37486e-06 -7.00348e-05
0.00148234 -0.000103334 2.64356e-06
-0.000103334 0.00010415 1.41231e-06
2.64356e-06 1.41231e-06 8.01429e-06
0.00127443 -0.00011856 -1.01891e-06
-0.00011856 0.000112209 -9.0728e-07
-1.01891e-06 -9.0728e-07 -9.14216e-06
0.00127058 -0.000108386 -1.28789e-08
-0.000108386 3.76569e-05 -5.97796e-06
-1.28789e-08 -5.97796e-06 -5.97008e-05
0.0010675 -9.25636e-05 -2.46407e-07
-9.25636e-05 0.000138184 -1.29081e-06
-2.46407e-07 -1.29081e-06 4.98017e-05
0.00103132 -8.67393e-05 -3.26538e-07
-8.67393e-05 0.000125367 -1.95667e-06
-3.26538e-07 -1.95667e-06 3.40389e-05
0.000945915 -2.73059e-05 4.67087e-09
-2.73059e-05 7.7254e-05 1.5741e-07
4.67087e-09 1.5741e-07 -2.11168e-06
0.000593435 2.81424e-05 -1.03915e-06
2.81424e-05 -0.000120989 1.68085e-06
-1.03915e-06 1.68085e-06 -0.000158567
0.000814291 3.20822e-05 -1.13567e-07
3.20822e-05 -5.66411e-06 3.7091e-07
-1.13567e-07 3.7091e-07 -6.39741e-05
0.00165656 5.22533e-06 -3.82354e-07
5.22533e-06 6.96653e-05 3.79695e-07
-3.82354e-07 3.79695e-07 -3.90736e-05
0.00170679 -7.48369e-06 -3.83442e-07
-7.48369e-06 0.000111431 -1.59034e-07
-3.83442e-07 -1.59034e-07 7.82567e-06
0.00177159 -4.65776e-05 -1.20277e-06
-4.65776e-05 0.000121442 -6.49293e-08
-1.20277e-06 -6.49293e-08 2.23491e-05
0.00103323 -9.21774e-05 -4.92279e-09
-9.21774e-05 0.000118504 2.12822e-07
-4.92279e-09 2.12822e-07 2.94307e-05
0.000778698 -8.62984e-05 1.08449e-06
-8.62984e-05 -1.43502e-05 -9.94264e-07
1.08449e-06 -9.94264e-07 -0.000116796
0.00114594 -0.000116945 -1.07774e-07
-0.000116945 0.000111465 -1.26893e-07
-1.07774e-07 -1.26893e-07 -2.02736e-05
0.00156916 -8.51242e-05 5.49316e-07
-8.51242e-05 6.2425e-05 -1.0812e-06
5.49316e-07 -1.0812e-06 -3.38486e-05
0.00152923 -0.00013064 -1.62115e-07
-0.00013064 0.000211017 -2.34715e-07
-1.62115e-07 -2.34715e-07 8.88603e-05
0.00156229 -0.000114371 -1.21279e-06
-0.000114371 0.000119415 -1.73088e-07
-1.21279e-06 -1.73088e-07 2.78196e-05
0.000609269 2.26941e-05 6.56139e-08
2.26941e-05 -0.000115829 -5.87002e-07
6.56139e-08 -5.87002e-07 -0.000150823
0.0010249 -9.1064e-05 3.18575e-08
-9.1064e-05 0.000117761 1.2417e-07
3.18575e-08 1.2417e-07 2.79107e-05
0.000947952 -8.66796e-05 -5.70165e-07
-8.66796e-05 7.8814e-05 1.24852e-07
-5.70165e-07 1.24852e-07 -1.32613e-05
0.00106192 -6.5236e-05 -3.0823e-07
-6.5236e-05 0.000144846 8.03558e-07
-3.0823e-07 8.03558e-07 5.442e-05
0.00101779 -2.50217e-05 1.24483e-08
-2.50217e-05 0.000111663 9.82645e-09
1.24483e-08 9.82645e-09 4.08501e-05
0.000870824 1.25932e-05 -2.12e-07
1.25932e-05 2.5783e-05 1.87099e-07
-2.12e-07 1.87099e-07 -2.90384e-05
0.00182848 5.13306e-06 9.96047e-08
5.13306e-06 0.000144747 -7.65759e-07
9.96047e-08 -7.65759e-07 3.88648e-05
0.00173065 -8.7266e-06 5.00799e-07
-8.7266e-06 9.51393e-05 3.42986e-07
5.00799e-07 3.42986e-07 -6.42583e-06
0.00141894 -5.44275e-05 2.2021e-06
-5.44275e-05 -6.93348e-05 -1.44845e-06
2.2021e-06 -1.44845e-06 -0.000170549
0.00175075 -0.00010434 3.46091e-07
-0.00010434 0.000101035 -2.22903e-06
3.46091e-07 -2.22903e-06 7.69745e-06
0.000960583 -9.02546e-05 -7.40551e-07
-9.02546e-05 8.43936e-05 1.318e-06
-7.40551e-07 1.318e-06 -8.37677e-06
0.00159786 -0.000131376 2.80074e-06
-0.000131376 0.000167044 2.81328e-06
2.80074e-06 2.81328e-06 5.39881e-05
0.000683261 -8.88124e-05 -5.01976e-07
-8.88124e-05 -7.07786e-05 -2.48385e-06
-5.01976e-07 -2.48385e-06 -0.00019339
0.0014891 -0.000137229 9.66223e-07
-0.000137229 0.00026744 1.18927e-06
9.66223e-07 1.18927e-06 0.000123963
0.000624365 1.88498e-05 8.42885e-07
1.88498e-05 -0.00010998 -2.32879e-06
8.42885e-07 -2.32879e-06 -0.000142871
0.000989197 -6.44012e-07 1.08151e-06
-6.44012e-07 8.93356e-05 -7.56396e-07
1.08151e-06 -7.56396e-07 3.76001e-05
0.00105669 -2.56894e-05 2.39889e-07
-2.56894e-05 0.000131337 6.43407e-07
2.39889e-07 6.43407e-07 6.43963e-05
0.000986087 -3.05653e-05 4.12434e-07
-3.05653e-05 9.96765e-05 -7.73962e-07
4.12434e-07 -7.73962e-07 1.76149e-05
0.00106186 -9.27426e-05 -2.45064e-07
-9.27426e-05 0.000136619 2.17171e-06
-2.45064e-07 2.17171e-06 4.40992e-05
0.000970277 -8.91299e-05 -7.80957e-07
-8.91299e-05 9.19558e-05 2.8763e-06
-7.80957e-07 2.8763e-06 -3.60558e-06
0.000822729 -2.37004e-05 -1.43894e-06
-2.37004e-05 3.62592e-06 -1.84382e-06
-1.43894e-06 -1.84382e-06 -2.93221e-05
0.000870523 -2.33238e-05 -4.02034e-07
-2.33238e-05 2.97197e-05 -1.25794e-06
-4.02034e-07 -1.25794e-06 -2.53317e-05
0.00151203 9.10443e-05 4.94151e-07
9.10443e-05 8.02663e-05 1.32748e-06
4.94151e-07 1.32748e-06 -2.77843e-05
0.000920876 7.39702e-06 -3.85195e-07
7.39702e-06 6.50789e-05 -7.4752e-07
-3.85195e-07 -7.4752e-07 -9.68489e-06
0.000965286 8.55753e-05 -5.48926e-07
8.55753e-05 9.69274e-05 -2.30657e-07
-5.48926e-07 -2.30657e-07 4.37977e-06
0.000869287 4.9305e-05 -8.14845e-07
4.9305e-05 5.1322e-05 -3.10951e-07
-8.14845e-07 -3.10951e-07 -4.32506e-05
0.00129699 0.00011619 -9.68326e-07
0.00011619 0.00010261 -1.39858e-06
-9.68326e-07 -1.39858e-06 -4.42429e-06
0.00139558 0.000118862 1.4041e-06
0.000118862 6.99062e-05 8.28251e-07
1.4041e-06 8.28251e-07 -3.02771e-05
0.000623779 7.94981e-05 -5.68988e-07
7.94981e-05 -7.20097e-05 2.42693e-07
-5.68988e-07 2.42693e-07 -0.000188585
0.00125518 0.000119335 -2.04466e-06
0.000119335 0.000160747 5.92818e-07
-2.04466e-06 5.92818e-07 3.72417e-05
0.000862937 -1.71896e-05 -1.49543e-07
-1.71896e-05 2.49118e-05 9.78532e-08
-1.49543e-07 9.78532e-08 -2.51286e-05
0.000856567 2.48206e-06 9.15566e-08
2.48206e-06 2.74432e-05 5.57309e-07
9.15566e-08 5.57309e-07 -4.15186e-05
0.0010878 9.68534e-05 -5.35903e-08
9.68534e-05 0.000174085 -8.79774e-07
-5.35903e-08 -8.79774e-07 6.89299e-05
0.000891832 1.77034e-05 -1.60562e-07
1.77034e-05 5.66704e-05 -1.3486e-08
-1.60562e-07 -1.3486e-08 -3.05145e-05
0.000938572 6.4278e-05 -1.09539e-06
6.4278e-05 8.77447e-05 -8.66671e-07
-1.09539e-06 -8.66671e-07 -1.40316e-05
0.00177766 9.0664e-05 -1.56383e-06
9.0664e-05 0.000162751 -8.64835e-08
-1.56383e-06 -8.64835e-08 7.19844e-05
0.00161285 0.000139704 1.44305e-06
0.000139704 0.00025291 1.16148e-07
1.44305e-06 1.16148e-07 0.000138162
0.000808616 0.000108149 -6.97799e-07
0.000108149 -0.000246783 6.13857e-07
-6.97799e-07 6.13857e-07 -0.000337928
0.00124645 0.000111267 1.26555e-06
0.000111267 0.00023951 1.41579e-06
1.26555e-06 1.41579e-06 0.000113223
0.000638957 0.000100541 -1.3684e-06
0.000100541 -0.0001579 -6.51685e-07
-1.3684e-06 -6.51685e-07 -0.000297579
0.000805586 -7.7655e-06 4.02736e-07
-7.7655e-06 -1.88033e-06 1.33999e-06
4.02736e-07 1.33999e-06 -6.44815e-05
0.00080375 3.37239e-05 4.72974e-07
3.37239e-05 8.27645e-06 3.71945e-07
4.72974e-07 3.71945e-07 -7.60213e-05
0.00107678 9.71997e-05 1.1128e-06
9.71997e-05 0.00017108 -2.92069e-07
1.1128e-06 -2.92069e-07 5.61191e-05
0.000641742 4.76397e-05 5.22788e-07
4.76397e-05 -6.87181e-05 7.64953e-07
5.22788e-07 7.64953e-07 -0.000172062
0.00209823 6.30933e-05 -1.20539e-06
6.30933e-05 0.000262149 2.84715e-07
-1.20539e-06 2.84715e-07 0.000176296
0.00133763 0.000107177 2.12664e-06
0.000107177 -0.000100003 -4.84505e-07
2.12664e-06 -4.84505e-07 -0.000178259
0.00135821 0.000140798 1.79266e-06
0.000140798 0.00010841 -3.37543e-06
1.79266e-06 -3.37543e-06 -2.24535e-05
0.000400109 7.9862e-05 8.88577e-07
7.9862e-05 -0.000209712 1.42422e-06
8.88577e-07 1.42422e-06 -0.000362479
0.000873123 3.8886e-06 -5.5186e-07
3.8886e-06 3.22626e-05 -5.91902e-07
-5.5186e-07 -5.91902e-07 -1.6836e-05
0.000882688 -3.86369e-06 -8.09277e-08
-3.86369e-06 4.02611e-05 3.83499e-07
-8.09277e-08 3.83499e-07 -2.01096e-05
0.000962458 -7.36779e-06 2.64e-07
-7.36779e-06 8.46238e-05 7.94576e-07
2.64e-07 7.94576e-07 1.69984e-05
0.000875815 -1.30646e-05 -6.26016e-07
-1.30646e-05 2.85328e-05 -8.80859e-07
-6.26016e-07 -8.80859e-07 -1.60021e-05
0.000771312 -2.80109e-05 1.14027e-07
-2.80109e-05 -1.83762e-05 -8.97196e-07
1.14027e-07 -8.97196e-07 -7.61055e-05
0.000884299 -1.13128e-05 9.8232e-08
-1.13128e-05 3.08985e-05 3.49215e-08
9.8232e-08 3.49215e-08 -1.29017e-05
0.000950932 1.54063e-05 -1.35328e-07
1.54063e-05 8.34528e-05 -3.28032e-07
-1.35328e-07 -3.28032e-07 1.62282e-05
0.000836186 -1.38676e-05 1.54859e-07
-1.38676e-05 1.95148e-05 2.9908e-07
1.54859e-07 2.9908e-07 -3.89535e-05
0.000985851 2.40407e-06 3.93106e-07
2.40407e-06 0.000101159 3.56754e-07
3.93106e-07 3.56754e-07 2.97454e-05
0.000817951 -3.22641e-05 -2.088e-07
-3.22641e-05 1.2255e-05 7.99898e-07
-2.088e-07 7.99898e-07 -5.32238e-05
0.000782968 1.83342e-05 3.86222e-07
1.83342e-05 -8.9617e-06 8.67406e-07
3.86222e-07 8.67406e-07 -6.68635e-05
0.000896538 -9.07754e-07 1.76248e-07
-9.07754e-07 3.60746e-05 7.6729e-07
1.76248e-07 7.6729e-07 -7.50213e-06
0.00084125 5.59441e-06 6.65664e-07
5.59441e-06 -8.9411e-07 1.57369e-06
6.65664e-07 1.57369e-06 -2.78061e-05
0.000848306 -5.14332e-06 -2.62763e-07
-5.14332e-06 2.56208e-06 8.41022e-09
-2.62763e-07 8.41022e-09 -2.37398e-05
0.00132124 -1.14094e-05 1.00268e-06
-1.14094e-05 0.000247015 1.87892e-06
1.00268e-06 1.87892e-06 0.000250298
0.000843121 -1.39161e-05 -2.78185e-07
-1.39161e-05 1.09317e-06 -1.74302e-06
-2.78185e-07 -1.74302e-06 -2.51655e-05
0.00133588 -1.60808e-05 -2.40055e-06
-1.60808e-05 0.000257525 -1.19056e-06
-2.40055e-06 -1.19056e-06 0.00026052
0.00101494 -1.4314e-05 1.10898e-05
-1.4314e-05 8.80134e-05 6.24064e-06
1.10898e-05 6.24064e-06 0.000104905
0.00135027 -2.06997e-05 -5.84539e-06
-2.06997e-05 0.00026906 -4.33732e-06
-5.84539e-06 -4.33732e-06 0.00027127
0.000968826 -1.9451e-05 4.30753e-06
-1.9451e-05 6.75674e-05 2.36574e-06
4.30753e-06 2.36574e-06 8.37318e-05
0.000914085 -2.39476e-05 -2.31672e-06
-2.39476e-05 4.44723e-05 -1.62153e-06
-2.31672e-06 -1.62153e-06 5.89685e-05
0.000761617 2.29265e-05 1.23739e-06
2.29265e-05 -4.03597e-05 -3.30776e-06
1.23739e-06 -3.30776e-06 -4.43419e-05
0.000764118 2.66448e-05 -1.60365e-07
2.66448e-05 -3.37495e-05 1.97608e-08
-1.60365e-07 1.97608e-08 -4.00561e-05
0.00221584 3.90123e-05 1.98771e-05
3.90123e-05 0.00074299 -3.74104e-06
1.98771e-05 -3.74104e-06 0.000761302
0.000773654 3.0245e-05 -2.43263e-06
3.0245e-05 -2.32735e-05 3.35656e-06
-2.43263e-06 3.35656e-06 -3.18909e-05
0.00227309 4.50422e-05 -1.06881e-06
4.50422e-05 0.000780565 -7.55852e-08
-1.06881e-06 -7.55852e-08 0.000796965
0.00233174 5.03839e-05 -2.89316e-05
5.03839e-05 0.000819482 3.54148e-06
-2.89316e-05 3.54148e-06 0.000833903
0.00160561 6.60373e-05 1.49592e-06
6.60373e-05 8.67522e-05 1.98025e-06
1.49592e-06 1.98025e-06 -1.13453e-05
0.00160004 2.10726e-05 3.28881e-07
2.10726e-05 5.4819e-05 -2.30832e-07
3.28881e-07 -2.30832e-07 -4.50443e-05
0.00159458 3.61225e-05 2.08007e-06
3.61225e-05 4.468e-05 -9.83626e-07
2.08007e-06 -9.83626e-07 -4.61583e-05
0.00169246 3.9525e-06 5.19744e-07
3.9525e-06 8.47323e-05 -1.53944e-06
5.19744e-07 -1.53944e-06 -1.89878e-05
0.00181084 7.07465e-06 4.87372e-07
7.07465e-06 0.000138278 -1.20067e-06
4.87372e-07 -1.20067e-06 2.57214e-05
0.00169692 2.72938e-06 -1.2747e-06
2.72938e-06 9.00951e-05 -3.74464e-08
-1.2747e-06 -3.74464e-08 -2.48878e-05
0.00178405 1.30664e-05 -2.23509e-07
1.30664e-05 0.000112018 -1.86466e-08
-2.23509e-07 -1.86466e-08 -1.40863e-06
0.00176258 5.26597e-07 2.34592e-07
5.26597e-07 0.000103493 -2.25496e-07
2.34592e-07 -2.25496e-07 -4.04118e-06
0.00168259 1.68711e-05 5.253e-07
1.68711e-05 7.4633e-05 -8.32969e-08
5.253e-07 -8.32969e-08 -2.20067e-05
0.00168105 5.27886e-05 -3.63498e-08
5.27886e-05 8.83709e-05 -1.13186e-07
-3.63498e-08 -1.13186e-07 -2.87576e-06
0.00181142 6.7639e-06 -1.42368e-06
6.7639e-06 0.000115871 -2.25076e-07
-1.42368e-06 -2.25076e-07 7.27848e-06
0.00189064 -2.86275e-06 -8.77226e-07
-2.86275e-06 0.000152269 4.42113e-07
-8.77226e-07 4.42113e-07 5.47751e-05
0.00178713 3.46047e-05 1.24485e-07
3.46047e-05 0.000112148 8.40847e-07
1.24485e-07 8.40847e-07 2.02741e-05
0.001645 4.81956e-06 -7.07741e-07
4.81956e-06 6.73821e-05 1.46965e-06
-7.07741e-07 1.46965e-06 -4.04897e-05
0.0017391 -8.55993e-06 -1.12821e-06
-8.55993e-06 0.000129801 1.68418e-07
-1.12821e-06 1.68418e-07 2.58228e-05
0.00191833 -4.87146e-05 -1.15794e-06
-4.87146e-05 0.000199377 6.96391e-07
-1.15794e-06 6.96391e-07 0.000101211
0.00110931 -9.51904e-05 -2.80966e-07
-9.51904e-05 0.000156009 -6.03503e-07
-2.80966e-07 -6.03503e-07 6.67777e-05
0.00119231 -0.000104646 2.72127e-07
-0.000104646 0.000197005 1.64445e-07
2.72127e-07 1.64445e-07 9.5033e-05
0.00114349 -0.000115815 -1.69082e-06
-0.000115815 0.000114055 1.69537e-06
-1.69082e-06 1.69537e-06 -1.84294e-05
0.00178228 -8.92756e-05 -3.33881e-07
-8.92756e-05 0.000167292 1.91578e-07
-3.33881e-07 1.91578e-07 7.04129e-05
0.0011628 -0.00010569 -3.15113e-06
-0.00010569 -7.73568e-05 7.29905e-07
-3.15113e-06 7.29905e-07 -0.0001683
0.00147542 -0.000126286 -2.06507e-06
-0.000126286 0.000183312 -3.14178e-06
-2.06507e-06 -3.14178e-06 6.44167e-05
0.00106917 -9.31244e-05 2.38222e-07
-9.31244e-05 0.000140251 -1.73831e-06
2.38222e-07 -1.73831e-06 5.02211e-05
0.000908791 -8.44089e-05 -1.54528e-06
-8.44089e-05 5.9564e-05 -2.16954e-06
-1.54528e-06 -2.16954e-06 -3.18712e-05
0.00103478 -7.29133e-05 3.02933e-07
-7.29133e-05 0.00013393 -3.70365e-08
3.02933e-07 -3.70365e-08 4.13561e-05
0.000594037 2.39798e-05 -9.69655e-07
2.39798e-05 -0.000123817 1.09792e-06
-9.69655e-07 1.09792e-06 -0.000158578
0.00104333 -1.62357e-05 -1.03416e-08
-1.62357e-05 0.000124023 1.63414e-07
-1.03416e-08 1.63414e-07 5.41658e-05
0.000756467 2.61546e-05 -1.27247e-07
2.61546e-05 -3.63312e-05 9.8654e-07
-1.27247e-07 9.8654e-07 -9.06569e-05
0.00176714 5.54681e-06 -3.96846e-08
5.54681e-06 0.00011286 -4.28191e-07
-3.96846e-08 -4.28191e-07 6.04524e-06
0.00171852 -1.06902e-05 8.70822e-07
-1.06902e-05 8.93166e-05 -7.20871e-08
8.70822e-07 -7.20871e-08 -1.28274e-05
0.00162438 -5.66295e-05 3.84389e-07
-5.66295e-05 3.1766e-05 -6.09117e-07
3.84389e-07 -6.09117e-07 -6.97291e-05
0.00104016 -9.38362e-05 -8.71446e-09
-9.38362e-05 0.000123589 6.36363e-07
-8.71446e-09 6.36363e-07 3.0331e-05
0.000799703 -9.29719e-05 -1.93966e-07
-9.29719e-05 -4.82401e-06 2.69829e-07
-1.93966e-07 2.69829e-07 -0.000124902
0.00162481 -0.000142608 -1.79123e-06
-0.000142608 0.000334143 1.20452e-06
-1.79123e-06 1.20452e-06 0.000190541
0.00179677 -0.000107082 -1.01974e-06
-0.000107082 0.000133692 8.17328e-07
-1.01974e-06 8.17328e-07 4.08611e-05
0.00148542 -0.000127744 1.69942e-06
-0.000127744 0.000106723 -9.99454e-07
1.69942e-06 -9.99454e-07 -6.03439e-06
0.000726601 1.88595e-05 1.58478e-07
1.88595e-05 -5.61058e-05 -5.66974e-07
1.58478e-07 -5.66974e-07 -8.79508e-05
0.00097448 1.10602e-05 -3.15695e-07
1.10602e-05 8.13324e-05 1.69896e-07
-3.15695e-07 1.69896e-07 2.99863e-05
0.000877707 -8.43158e-05 -8.21042e-07
-8.43158e-05 4.1436e-05 2.29322e-07
-8.21042e-07 2.29322e-07 -5.04322e-05
0.00101047 -8.82783e-05 1.02476e-06
-8.82783e-05 0.000111549 6.56408e-07
1.02476e-06 6.56408e-07 1.7821e-05
0.000940386 -3.10085e-05 -5.88691e-08
-3.10085e-05 7.6307e-05 -3.06757e-07
-5.88691e-08 -3.06757e-07 -6.53514e-06
0.000993494 -2.17349e-05 -5.21838e-07
-2.17349e-05 9.80391e-05 8.51143e-07
-5.21838e-07 8.51143e-07 3.09429e-05
0.00174935 7.03932e-06 -2.47779e-06
7.03932e-06 9.11033e-05 -2.64638e-07
-2.47779e-06 -2.64638e-07 -1.05406e-05
0.00176253 -2.10647e-05 4.58303e-07
-2.10647e-05 8.89545e-05 1.03769e-06
4.58303e-07 1.03769e-06 -1.01411e-05
0.00180192 -7.86704e-05 1.45436e-06
-7.86704e-05 7.87839e-05 -2.40642e-06
1.45436e-06 -2.40642e-06 -1.60354e-05
0.00177562 -0.000131934 6.94218e-07
-0.000131934 0.000117873 -1.57111e-06
6.94218e-07 -1.57111e-06 2.51572e-05
0.000718781 -8.0668e-05 -1.53636e-06
-8.0668e-05 -2.42114e-05 9.90547e-07
-1.53636e-06 9.90547e-07 -0.000125126
0.00141788 -0.000139819 -6.05831e-07
-0.000139819 0.000177072 3.38264e-06
-6.05831e-07 3.38264e-06 2.22418e-05
0.00163739 -0.000136629 6.31894e-07
-0.000136629 0.000412716 -2.30134e-06
6.31894e-07 -2.30134e-06 0.000274494
0.000847568 1.51164e-05 6.1207e-07
1.51164e-05 5.20439e-06 -1.64595e-06
6.1207e-07 -1.64595e-06 -2.36222e-05
0.00085764 -4.14347e-05 8.80655e-07
-4.14347e-05 2.57855e-05 -8.33274e-07
8.80655e-07 -8.33274e-07 -2.20255e-05
0.000747959 1.08357e-05 4.51171e-07
1.08357e-05 -3.56133e-05 -1.40771e-06
4.51171e-07 -1.40771e-06 -8.79883e-05
0.000954683 -2.69685e-05 8.58679e-07
-2.69685e-05 7.88638e-05 -1.053e-07
8.58679e-07 -1.053e-07 1.37444e-05
0.000956739 9.03629e-06 -1.59588e-07
9.03629e-06 8.05711e-05 -1.89759e-07
-1.59588e-07 -1.89759e-07 6.63385e-06
0.000851309 -8.55437e-05 2.13032e-06
-8.55437e-05 4.64306e-05 1.72267e-06
2.13032e-06 1.72267e-06 -5.26173e-05
0.000801521 -8.05196e-05 -1.88244e-06
-8.05196e-05 -1.56261e-05 2.22674e-06
-1.88244e-06 2.22674e-06 -0.000101534
0.00172821 -0.000126226 -1.36343e-06
-0.000126226 0.000497888 2.82357e-06
-1.36343e-06 2.82357e-06 0.000401218
0.00087093 -2.34882e-05 -4.41614e-07
-2.34882e-05 2.88658e-05 -1.15515e-06
-4.41614e-07 -1.15515e-06 -2.1201e-05
0.000906429 9.09309e-06 -4.35974e-07
9.09309e-06 5.36865e-05 -2.88589e-07
-4.35974e-07 -2.88589e-07 -1.51797e-05
0.00188521 9.16772e-05 6.84717e-07
9.16772e-05 0.000212687 6.44576e-07
6.84717e-07 6.44576e-07 0.000120958
0.000936007 2.198e-05 -6.51706e-07
2.198e-05 8.03656e-05 -5.97458e-07
-6.51706e-07 -5.97458e-07 -6.87149e-06
0.00105366 9.50751e-05 -8.52893e-07
9.50751e-05 0.000159456 -2.05169e-06
-8.52893e-07 -2.05169e-06 5.52525e-05
0.000855164 5.93526e-05 -1.81119e-06
5.93526e-05 4.73096e-05 -4.24246e-07
-1.81119e-06 -4.24246e-07 -5.47006e-05
0.00159672 0.000138241 -3.9858e-10
0.000138241 0.000238008 6.02576e-07
-3.9858e-10 6.02576e-07 0.000124755
0.00142917 0.00012792 1.60309e-06
0.00012792 8.15567e-05 3.69067e-06
1.60309e-06 3.69067e-06 -4.29521e-06
0.000882268 9.5009e-05 -1.81132e-07
9.5009e-05 5.32419e-05 6.48768e-07
-1.81132e-07 6.48768e-07 -7.28622e-05
0.00112465 0.000122529 -4.27122e-06
0.000122529 8.91337e-05 -1.05798e-06
-4.27122e-06 -1.05798e-06 -5.62615e-05
0.000809585 3.46753e-06 2.13983e-07
3.46753e-06 1.95049e-06 4.75723e-07
2.13983e-07 4.75723e-07 -6.24972e-05
0.000854822 4.0712e-05 -1.41042e-07
4.0712e-05 3.61931e-05 -7.72256e-07
-1.41042e-07 -7.72256e-07 -4.82676e-05
0.00108031 9.75219e-05 -5.21625e-07
9.75219e-05 0.00017483 -1.02409e-06
-5.21625e-07 -1.02409e-06 6.02818e-05
0.000873068 5.61709e-05 -2.83705e-07
5.61709e-05 5.1269e-05 -2.16887e-07
-2.83705e-07 -2.16887e-07 -5.20293e-05
0.00203192 5.97605e-05 -1.1306e-07
5.97605e-05 0.000221827 1.03812e-06
-1.1306e-07 1.03812e-06 0.000134112
0.00144206 0.000109709 1.84364e-06
0.000109709 -3.43271e-05 -1.35391e-06
1.84364e-06 -1.35391e-06 -0.000113558
0.00179616 0.000156213 -2.37191e-06
0.000156213 0.000328125 -2.19487e-07
-2.37191e-06 -2.19487e-07 0.000200117
0.000712598 9.69635e-05 9.56571e-07
9.69635e-05 -6.0161e-05 3.76803e-07
9.56571e-07 3.76803e-07 -0.000211565
0.000954598 5.36492e-06 3.85472e-07
5.36492e-06 8.09962e-05 5.31885e-07
3.85472e-07 5.31885e-07 8.89174e-06
0.00157082 2.7229e-05 -2.4648e-06
2.7229e-05 -1.84743e-05 -1.32914e-06
-2.4648e-06 -1.32914e-06 -9.93404e-05
0.00113273 8.38903e-05 4.14662e-07
8.38903e-05 0.000195504 1.61878e-06
4.14662e-07 1.61878e-06 9.51166e-05
0.00108875 0.000100666 8.12622e-07
0.000100666 0.000159236 1.3363e-06
8.12622e-07 1.3363e-06 3.56106e-05
0.00215048 8.82651e-05 6.30712e-07
8.82651e-05 0.000217966 -3.86589e-07
6.30712e-07 -3.86589e-07 0.000147381
0.00161417 0.000154215 3.93146e-06
0.000154215 8.96335e-05 -4.0005e-06
3.93146e-06 -4.0005e-06 -2.08602e-05
0.00169951 0.00014954 4.96404e-07
0.00014954 0.000393419 1.76493e-06
4.96404e-07 1.76493e-06 0.000226717
0.000970485 -5.21021e-07 -1.06293e-06
-5.21021e-07 8.55618e-05 -3.95969e-07
-1.06293e-06 -3.95969e-07 2.61913e-05
0.000961462 -7.76022e-06 -4.59996e-08
-7.76022e-06 8.40913e-05 4.86367e-08
-4.59996e-08 4.86367e-08 1.64377e-05
0.000958531 -1.61012e-06 3.94592e-07
-1.61012e-06 8.71133e-05 9.56217e-07
3.94592e-07 9.56217e-07 1.16133e-05
0.000879351 -1.37157e-05 -1.45429e-07
-1.37157e-05 2.90079e-05 -8.57875e-07
-1.45429e-07 -8.57875e-07 -1.52137e-05
0.000876258 -6.02814e-06 5.99971e-08
-6.02814e-06 4.13338e-05 -7.06852e-08
5.99971e-08 -7.06852e-08 -1.74161e-05
0.000866863 5.98853e-06 -3.51728e-07
5.98853e-06 3.94804e-05 -1.03123e-06
-3.51728e-07 -1.03123e-06 -2.89167e-05
0.000887491 -1.78533e-05 -1.20797e-07
-1.78533e-05 3.28014e-05 2.25074e-08
-1.20797e-07 2.25074e-08 -1.17479e-05
0.000801093 -1.52516e-05 -4.55335e-07
-1.52516e-05 -5.13418e-07 3.59786e-07
-4.55335e-07 3.59786e-07 -5.78125e-05
0.000955198 -1.17763e-05 2.38682e-07
-1.17763e-05 8.40805e-05 -3.83055e-07
2.38682e-07 -3.83055e-07 1.20305e-05
0.000918137 3.55989e-06 8.66434e-08
3.55989e-06 6.73473e-05 4.73121e-07
8.66434e-08 4.73121e-07 9.85567e-07
0.000948086 3.53453e-06 4.69208e-07
3.53453e-06 8.09271e-05 -7.22199e-08
4.69208e-07 -7.22199e-08 4.42439e-06
0.000847082 -2.85786e-05 6.40032e-08
-2.85786e-05 2.74679e-05 6.81489e-07
6.40032e-08 6.81489e-07 -4.4034e-05
0.000957788 1.09425e-05 3.41816e-07
1.09425e-05 8.55153e-05 1.95635e-07
3.41816e-07 1.95635e-07 2.19334e-05
0.000894948 7.82201e-06 9.90577e-07
7.82201e-06 4.88321e-05 5.28836e-07
9.90577e-07 5.28836e-07 -9.11254e-06
0.000893424 2.33408e-06 2.57199e-07
2.33408e-06 3.46155e-05 7.16744e-07
2.57199e-07 7.16744e-07 -9.55653e-06
0.000838324 9.30645e-06 4.03616e-07
9.30645e-06 -1.44498e-06 1.54726e-06
4.03616e-07 1.54726e-06 -2.90695e-05
0.000844366 -1.35694e-06 -1.60948e-07
-1.35694e-06 8.00549e-07 1.83712e-09
-1.60948e-07 1.83712e-09 -2.61307e-05
0.00132677 -5.58708e-06 7.58295e-07
-5.58708e-06 0.000248624 1.83787e-06
7.58295e-07 1.83787e-06 0.000251703
0.000849771 -1.18442e-05 -2.2934e-07
-1.18442e-05 3.4551e-06 -1.61588e-06
-2.2934e-07 -1.61588e-06 -2.29093e-05
0.00134414 -1.03435e-05 -1.76534e-06
-1.03435e-05 0.000259488 -1.21216e-06
-1.76534e-06 -1.21216e-06 0.000262612
0.00102167 -9.91364e-06 8.17455e-06
-9.91364e-06 8.90236e-05 6.32502e-06
8.17455e-06 6.32502e-06 0.000106091
0.00135764 -1.52312e-05 -4.32949e-06
-1.52312e-05 0.000269106 -4.28045e-06
-4.32949e-06 -4.28045e-06 0.000272002
0.000978288 -1.49232e-05 3.02791e-06
-1.49232e-05 6.81183e-05 2.38901e-06
3.02791e-06 2.38901e-06 8.50943e-05
0.000923192 -1.95648e-05 -1.7095e-06
-1.95648e-05 4.33044e-05 -1.58345e-06
-1.7095e-06 -1.58345e-06 5.95296e-05
0.000842593 1.12677e-05 3.25585e-07
1.12677e-05 2.04467e-07 -1.59261e-06
3.25585e-07 -1.59261e-06 -2.64482e-05
0.00077323 1.86889e-05 9.92787e-07
1.86889e-05 -3.93957e-05 -3.20657e-06
9.92787e-07 -3.20657e-06 -4.12556e-05
0.000776788 2.32075e-05 -1.28225e-07
2.32075e-05 -3.24688e-05 2.51738e-08
-1.28225e-07 2.51738e-08 -3.65345e-05
0.00216106 3.25914e-05 1.65167e-05
3.25914e-05 0.000708266 -3.79422e-06
1.65167e-05 -3.79422e-06 0.000728237
0.000780252 2.69132e-05 -2.00887e-06
2.69132e-05 -2.52709e-05 3.32081e-06
-2.00887e-06 3.32081e-06 -3.16636e-05
0.00222286 3.90679e-05 -1.29319e-06
3.90679e-05 0.00074756 -6.92575e-08
-1.29319e-06 -6.92575e-08 0.000765679
0.00227621 4.48335e-05 -2.53988e-05
4.48335e-05 0.000783109 3.6726e-06
-2.53988e-05 3.6726e-06 0.000799358
0.00150805 4.77924e-05 8.63392e-07
4.77924e-05 -7.90648e-07 -1.28794e-07
8.63392e-07 -1.28794e-07 -9.17087e-05
0.00166056 1.71727e-05 7.6784e-07
1.71727e-05 6.2786e-05 -6.92902e-07
7.6784e-07 -6.92902e-07 -3.39071e-05
0.0017774 4.02783e-07 1.08162e-06
4.02783e-07 0.000111173 -1.0158e-06
1.08162e-06 -1.0158e-06 3.81665e-06
0.00176362 1.46199e-05 3.6144e-07
1.46199e-05 0.000105775 1.35713e-07
3.6144e-07 1.35713e-07 -6.4908e-06
0.00180923 7.15608e-06 -1.15367e-07
7.15608e-06 0.000113803 1.71329e-07
-1.15367e-07 1.71329e-07 5.39783e-06
0.00182693 -1.82793e-06 1.34231e-07
-1.82793e-06 0.000119079 -7.17525e-08
1.34231e-07 -7.17525e-08 2.07297e-05
0.00173111 3.48356e-05 2.80646e-07
3.48356e-05 8.39939e-05 3.45657e-07
2.80646e-07 3.45657e-07 -7.76136e-06
0.00182267 -1.74675e-06 -1.67717e-06
-1.74675e-06 0.0001114 3.16396e-07
-1.67717e-06 3.16396e-07 1.16092e-05
0.00188705 9.86127e-06 -2.75374e-06
9.86127e-06 0.000142354 4.05683e-07
-2.75374e-06 4.05683e-07 5.33093e-05
0.00179721 7.38495e-06 -1.12539e-06
7.38495e-06 7.85339e-05 3.5269e-07
-1.12539e-06 3.5269e-07 4.99977e-06
0.00176464 6.33578e-06 8.07905e-07
6.33578e-06 0.000110504 4.983e-07
8.07905e-07 4.983e-07 2.84354e-06
0.00173275 -1.26251e-05 -4.44947e-07
-1.26251e-05 9.67286e-05 -7.26058e-07
-4.44947e-07 -7.26058e-07 -5.96697e-06
0.00183924 -5.89592e-05 -1.58589e-06
-5.89592e-05 0.000138479 -2.70151e-07
-1.58589e-06 -2.70151e-07 3.65703e-05
0.00111269 -9.70985e-05 -6.35394e-08
-9.70985e-05 0.000159154 2.64957e-07
-6.35394e-08 2.64957e-07 6.5433e-05
0.000874076 -9.53937e-05 4.79552e-07
-9.53937e-05 3.9009e-05 2.82395e-06
4.79552e-07 2.82395e-06 -7.83571e-05
0.00162853 -0.000142135 -2.43084e-06
-0.000142135 0.000332367 2.40351e-06
-2.43084e-06 2.40351e-06 0.000189801
0.00183573 -0.00010957 3.05908e-06
-0.00010957 0.000163285 2.72663e-06
3.05908e-06 2.72663e-06 7.10175e-05
0.00129304 -0.000121126 -2.07589e-06
-0.000121126 5.852e-06 -2.25921e-06
-2.07589e-06 -2.25921e-06 -0.000106402
0.000687881 -7.57253e-05 -1.21651e-06
-7.57253e-05 -5.69314e-05 -9.49378e-07
-1.21651e-06 -9.49378e-07 -0.000148102
0.0010923 -9.12791e-05 2.28169e-06
-9.12791e-05 0.000152913 -2.8817e-06
2.28169e-06 -2.8817e-06 6.05225e-05
0.000895871 2.63046e-06 -2.92193e-08
2.63046e-06 4.83168e-05 -4.16287e-07
-2.92193e-08 -4.16287e-07 -3.1613e-05
0.000833171 1.85005e-05 -7.82078e-07
1.85005e-05 -1.20533e-07 1.1195e-06
-7.82078e-07 1.1195e-06 -3.09021e-05
0.000963497 2.55325e-05 -6.44494e-07
2.55325e-05 7.56011e-05 1.02666e-06
-6.44494e-07 1.02666e-06 2.43837e-05
0.000931968 -1.01711e-05 -5.75884e-07
-1.01711e-05 6.61029e-05 1.09872e-06
-5.75884e-07 1.09872e-06 -1.47171e-06
0.00178238 7.49759e-06 3.07171e-07
7.49759e-06 0.000107296 3.65766e-08
3.07171e-07 3.65766e-08 6.95669e-06
0.000846079 1.42995e-05 9.95527e-09
1.42995e-05 4.05385e-06 1.18847e-08
9.95527e-09 1.18847e-08 -2.47297e-05
0.000791523 -3.93754e-06 -3.21289e-07
-3.93754e-06 -1.27485e-05 7.09714e-08
-3.21289e-07 7.09714e-08 -5.86066e-05
0.00180833 -2.2009e-05 -1.84191e-07
-2.2009e-05 0.00011161 -4.60158e-07
-1.84191e-07 -4.60158e-07 1.18766e-05
0.00172847 -7.7792e-05 -1.061e-07
-7.7792e-05 4.71333e-05 -3.11216e-07
-1.061e-07 -3.11216e-07 -5.06216e-05
0.000767947 -8.22801e-05 9.4014e-08
-8.22801e-05 3.8605e-06 1.71459e-06
9.4014e-08 1.71459e-06 -9.53886e-05
0.00136677 -0.000124273 -7.58616e-07
-0.000124273 0.000273477 3.72197e-07
-7.58616e-07 3.72197e-07 0.000130777
0.0012559 -0.000131033 8.7141e-07
-0.000131033 8.82157e-05 9.5632e-07
8.7141e-07 9.5632e-07 -5.98535e-05
0.00176031 -0.000132697 4.94718e-07
-0.000132697 0.000115278 -1.48307e-07
4.94718e-07 -1.48307e-07 2.29628e-05
0.000927566 -1.19224e-05 9.73328e-07
-1.19224e-05 5.89972e-05 -4.8344e-07
9.73328e-07 -4.8344e-07 8.28566e-06
0.000935054 -1.46191e-05 -4.37794e-07
-1.46191e-05 6.98065e-05 4.30006e-07
-4.37794e-07 4.30006e-07 4.02443e-06
0.000920766 -8.5845e-05 3.86908e-07
-8.5845e-05 4.27213e-05 4.80709e-07
3.86908e-07 4.80709e-07 -4.56012e-05
0.00126324 -0.000104912 7.58755e-07
-0.000104912 0.000254998 -1.0626e-06
7.58755e-07 -1.0626e-06 0.0001656
0.000807482 -6.13155e-05 -3.87587e-08
-6.13155e-05 2.15622e-05 3.015e-07
-3.87587e-08 3.015e-07 -7.66398e-05
0.000948757 4.64243e-06 4.02529e-08
4.64243e-06 7.72835e-05 -2.4187e-07
4.02529e-08 -2.4187e-07 2.26972e-06
0.00178725 4.1997e-06 -2.77212e-06
4.1997e-06 8.91714e-05 -1.30879e-07
-2.77212e-06 -1.30879e-07 1.99172e-06
0.00207265 -2.80555e-05 7.45802e-07
-2.80555e-05 0.000224684 2.14338e-06
7.45802e-07 2.14338e-06 0.000125678
0.00172241 -0.000116082 -2.90385e-06
-0.000116082 -1.25305e-05 -4.28725e-06
-2.90385e-06 -4.28725e-06 -8.9703e-05
0.00131078 -0.000140925 1.87384e-07
-0.000140925 -2.24454e-05 1.68415e-06
1.87384e-07 1.68415e-06 -0.0001383
0.00110452 -8.62172e-05 -2.4071e-06
-8.62172e-05 0.000170489 -5.43773e-07
-2.4071e-06 -5.43773e-07 6.76249e-05
0.00175511 -0.000157108 -1.84668e-06
-0.000157108 0.000441862 -3.69376e-07
-1.84668e-06 -3.69376e-07 0.000268986
0.000708566 3.42775e-05 -9.71671e-07
3.42775e-05 -5.5375e-05 -1.25453e-06
-9.71671e-07 -1.25453e-06 -0.000100565
0.000859303 -1.73368e-05 5.44883e-07
-1.73368e-05 2.19739e-05 -9.48336e-07
5.44883e-07 -9.48336e-07 -2.5329e-05
0.00106686 -3.01782e-05 4.63008e-07
-3.01782e-05 0.00014592 -2.8192e-07
4.63008e-07 -2.8192e-07 8.65496e-05
0.000787112 1.78562e-05 -6.12572e-07
1.78562e-05 -4.01387e-06 -6.77178e-07
-6.12572e-07 -6.77178e-07 -7.1499e-05
0.00107551 -4.15401e-06 1.77573e-07
-4.15401e-06 0.000145839 -3.79633e-08
1.77573e-07 -3.79633e-08 7.40341e-05
0.000706433 -1.08637e-05 1.72566e-07
-1.08637e-05 -3.47074e-05 7.03281e-07
1.72566e-07 7.03281e-07 -0.000120397
0.00116825 -6.98072e-05 4.52244e-06
-6.98072e-05 0.000224604 3.75933e-07
4.52244e-06 3.75933e-07 0.000117282
0.000841401 -8.99207e-05 -5.72081e-06
-8.99207e-05 2.30421e-05 2.6842e-06
-5.72081e-06 2.6842e-06 -6.17756e-05
0.000806865 1.56972e-05 -3.89775e-07
1.56972e-05 2.144e-06 -4.05865e-07
-3.89775e-07 -4.05865e-07 -6.41385e-05
0.000902817 4.37648e-05 -1.42349e-06
4.37648e-05 6.21009e-05 -1.68154e-06
-1.42349e-06 -1.68154e-06 -2.22451e-05
0.00198769 5.66597e-05 1.46845e-06
5.66597e-05 0.000192711 8.2165e-07
1.46845e-06 8.2165e-07 0.000103114
0.00159455 0.000113266 -8.09421e-08
0.000113266 5.59119e-05 9.40719e-07
-8.09421e-08 9.40719e-07 -2.42606e-05
0.00110386 6.06523e-05 -1.92058e-06
6.06523e-05 0.000170304 -1.05273e-06
-1.92058e-06 -1.05273e-06 6.74133e-05
0.00108176 9.75748e-05 -2.00942e-06
9.75748e-05 0.000176912 -2.14102e-06
-2.00942e-06 -2.14102e-06 6.30161e-05
0.00226529 0.000172862 -1.90394e-06
0.000172862 0.000564907 1.98621e-06
-1.90394e-06 1.98621e-06 0.000439539
0.00104612 0.000114812 -1.75906e-06
0.000114812 0.000100933 -7.50976e-07
-1.75906e-06 -7.50976e-07 -4.94465e-05
0.000938327 1.8064e-05 6.0276e-08
1.8064e-05 7.51416e-05 -4.98755e-07
6.0276e-08 -4.98755e-07 1.53868e-06
0.00176753 2.67178e-05 -8.31709e-07
2.67178e-05 8.12631e-05 7.66878e-08
-8.31709e-07 7.66878e-08 8.6162e-07
0.000990834 6.96181e-05 1.33286e-07
6.96181e-05 0.000119328 7.66457e-07
1.33286e-07 7.66457e-07 2.09998e-05
0.000899764 9.09271e-05 3.04076e-08
9.09271e-05 6.33019e-05 -2.04938e-07
3.04076e-08 -2.04938e-07 -6.206e-05
0.00187808 8.3915e-05 1.32847e-06
8.3915e-05 8.4903e-05 -2.55193e-07
1.32847e-06 -2.55193e-07 1.37146e-05
0.00189922 0.000164308 7.26082e-07
0.000164308 0.000226086 -4.96475e-07
7.26082e-07 -4.96475e-07 0.000116562
0.0016952 0.000150779 4.69245e-07
0.000150779 0.000398715 9.65101e-07
4.69245e-07 9.65101e-07 0.000233519
0.00102181 3.23454e-05 1.58397e-09
3.23454e-05 0.000128365 9.48776e-07
1.58397e-09 9.48776e-07 4.15035e-05
0.00222138 4.82026e-05 -3.31216e-06
4.82026e-05 0.000264399 -9.38793e-07
-3.31216e-06 -9.38793e-07 0.000201664
0.00154609 0.000102939 -1.17659e-06
0.000102939 0.000393963 3.84976e-07
-1.17659e-06 3.84976e-07 0.000284982
0.00183704 0.000143939 -1.82422e-06
0.000143939 0.00053108 1.20385e-06
-1.82422e-06 1.20385e-06 0.000385533
0.00197961 0.000159743 3.82767e-06
0.000159743 0.000103002 -1.52856e-06
3.82767e-06 -1.52856e-06 4.25705e-05
0.00107601 0.000133768 -7.14413e-07
0.000133768 -1.42136e-05 -3.62289e-07
-7.14413e-07 -3.62289e-07 -0.000168313
0.000699291 6.2231e-05 1.25491e-05
6.2231e-05 -0.00026727 1.56472e-06
1.25491e-05 1.56472e-06 -0.000352456
0.000965336 -4.95612e-06 -2.77974e-07
-4.95612e-06 8.60922e-05 -7.32377e-07
-2.77974e-07 -7.32377e-07 1.8383e-05
0.000958659 4.57897e-07 6.0493e-08
4.57897e-07 8.74104e-05 -1.07995e-08
6.0493e-08 -1.07995e-08 1.18084e-05
0.000982002 1.57007e-05 2.62085e-07
1.57007e-05 9.73635e-05 1.55737e-07
2.62085e-07 1.55737e-07 1.6012e-05
0.000877051 -2.75299e-05 3.45584e-09
-2.75299e-05 2.82792e-05 -7.92083e-07
3.45584e-09 -7.92083e-07 -1.69097e-05
0.000809878 -4.04472e-05 -4.56939e-07
-4.04472e-05 4.46393e-06 -1.50888e-07
-4.56939e-07 -1.50888e-07 -5.3108e-05
0.00100849 4.13555e-05 -7.98903e-07
4.13555e-05 0.000117777 -4.511e-08
-7.98903e-07 -4.511e-08 5.03031e-05
0.000930974 -1.42247e-05 1.02384e-08
-1.42247e-05 7.08622e-05 -9.48372e-07
1.02384e-08 -9.48372e-07 -2.19082e-06
0.000877343 -1.67824e-05 -2.00494e-07
-1.67824e-05 2.9112e-05 3.61392e-08
-2.00494e-07 3.61392e-08 -1.70187e-05
0.00083008 -1.89277e-06 1.67299e-07
-1.89277e-06 1.09934e-05 1.68588e-10
1.67299e-07 1.68588e-10 -4.49707e-05
0.000932905 2.87924e-08 2.5265e-07
2.87924e-08 7.26522e-05 -5.85021e-07
2.5265e-07 -5.85021e-07 -4.06168e-06
0.000958112 -1.23338e-05 -2.00283e-07
-1.23338e-05 8.50435e-05 -1.35415e-07
-2.00283e-07 -1.35415e-07 2.14902e-05
0.000936524 -2.13286e-05 1.87524e-07
-2.13286e-05 7.48321e-05 -1.68159e-08
1.87524e-07 -1.68159e-08 3.98008e-06
0.000925572 -5.20496e-06 -9.57708e-08
-5.20496e-06 6.74546e-05 2.77175e-07
-9.57708e-08 2.77175e-07 -8.50315e-06
0.000941402 9.17657e-07 4.5158e-07
9.17657e-07 7.73347e-05 -9.59549e-08
4.5158e-07 -9.59549e-08 1.08179e-05
0.000997948 7.05837e-06 5.80065e-07
7.05837e-06 0.000100865 -1.57989e-07
5.80065e-07 -1.57989e-07 3.90905e-05
0.000828676 8.26302e-06 -1.38418e-07
8.26302e-06 9.8663e-06 5.44633e-07
-1.38418e-07 5.44633e-07 -4.93623e-05
0.000754787 5.13203e-06 2.93849e-07
5.13203e-06 -3.89777e-05 1.18313e-06
2.93849e-07 1.18313e-06 -8.4951e-05
0.00102883 -4.72288e-06 2.89609e-07
-4.72288e-06 0.000123019 2.40495e-08
2.89609e-07 2.40495e-08 6.22068e-05
0.000744057 5.55265e-06 -4.0359e-07
5.55265e-06 -4.24739e-05 1.18158e-06
-4.0359e-07 1.18158e-06 -8.92399e-05
0.000839702 1.19167e-05 2.46796e-07
1.19167e-05 -1.68208e-07 1.55299e-06
2.46796e-07 1.55299e-06 -2.81424e-05
0.000838415 1.64873e-06 -2.29431e-07
1.64873e-06 -1.42503e-06 4.3893e-09
-2.29431e-07 4.3893e-09 -2.90129e-05
0.00078766 5.0924e-07 2.50364e-07
5.0924e-07 -3.93538e-05 3.05702e-06
2.50364e-07 3.05702e-06 -3.96227e-05
0.000847884 -8.53007e-06 6.65227e-08
-8.53007e-06 2.71976e-06 -1.54663e-06
6.65227e-08 -1.54663e-06 -2.42341e-05
0.00107171 -4.41878e-06 -1.10353e-06
-4.41878e-06 0.000112598 -1.25437e-06
-1.10353e-06 -1.25437e-06 0.000114083
0.00211083 -6.85981e-06 4.9987e-06
-6.85981e-06 0.000669055 3.9712e-06
4.9987e-06 3.9712e-06 0.000692046
0.00136714 -9.65947e-06 -2.71547e-06
-9.65947e-06 0.000271986 -4.27194e-06
-2.71547e-06 -4.27194e-06 0.00027492
0.000987537 -1.01977e-05 1.64742e-06
-1.01977e-05 7.01191e-05 2.42692e-06
1.64742e-06 2.42692e-06 8.73809e-05
0.000937676 -1.47474e-05 -1.22069e-06
-1.47474e-05 4.62144e-05 -1.55213e-06
-1.22069e-06 -1.55213e-06 6.33753e-05
0.000850192 7.59372e-06 2.32505e-07
7.59372e-06 2.78905e-06 -1.57951e-06
2.32505e-07 -1.57951e-06 -2.22093e-05
0.000848347 1.06599e-05 -3.6584e-08
1.06599e-05 2.96255e-06 1.14595e-08
-3.6584e-08 1.14595e-08 -2.37053e-05
0.000781411 1.41807e-05 5.64551e-07
1.41807e-05 -3.91604e-05 -3.15671e-06
5.64551e-07 -3.15671e-06 -3.93311e-05
0.00106802 2.08548e-05 -4.81991e-07
2.08548e-05 0.000117964 3.12907e-08
-4.81991e-07 3.12907e-08 0.000117427
0.0021196 2.59361e-05 1.35431e-05
2.59361e-05 0.000681373 -3.86203e-06
1.35431e-05 -3.86203e-06 0.000702754
0.000791288 2.34914e-05 -1.47638e-06
2.34914e-05 -2.49197e-05 3.29083e-06
-1.47638e-06 3.29083e-06 -2.90679e-05
0.00216978 3.28247e-05 -1.36536e-06
3.28247e-05 0.000713638 -6.18934e-08
-1.36536e-06 -6.18934e-08 0.000733397
0.00223343 3.90773e-05 -2.2001e-05
3.90773e-05 0.00075401 3.7709e-06
-2.2001e-05 3.7709e-06 0.000771931
0.00164674 3.50975e-05 -2.06335e-07
3.50975e-05 4.13602e-05 3.38682e-07
-2.06335e-07 3.38682e-07 -5.0267e-05
0.00178351 -7.15341e-08 1.30993e-06
-7.15341e-08 9.57961e-05 -7.59306e-07
1.30993e-06 -7.59306e-07 -3.36664e-06
0.0017924 3.50932e-06 9.57627e-07
3.50932e-06 0.000104582 3.08238e-07
9.57627e-07 3.08238e-07 -3.70374e-06
0.00180935 1.62658e-06 1.55157e-07
1.62658e-06 0.000104303 2.68749e-07
1.55157e-07 2.68749e-07 4.41447e-06
0.00182705 9.89777e-06 -1.44902e-07
9.89777e-06 0.00011109 2.16789e-08
-1.44902e-07 2.16789e-08 2.12655e-05
0.00178893 4.68646e-06 1.76685e-06
4.68646e-06 9.16746e-05 5.62605e-09
1.76685e-06 5.62605e-09 1.97717e-05
0.0017349 8.14934e-06 -2.33621e-06
8.14934e-06 5.28023e-05 2.63868e-07
-2.33621e-06 2.63868e-07 -3.01341e-05
0.00377404 -7.47745e-05 4.50959e-06
-7.47745e-05 0.00099975 -1.17888e-06
4.50959e-06 -1.17888e-06 0.00095229
0.00140044 6.13678e-06 -1.33372e-06
6.13678e-06 -0.000154329 2.02401e-07
-1.33372e-06 2.02401e-07 -0.000214528
0.00088132 1.81183e-05 9.07393e-08
1.81183e-05 3.2695e-05 -7.22569e-07
9.07393e-08 -7.22569e-07 -8.69778e-06
0.00177645 7.6536e-06 1.67939e-06
7.6536e-06 0.000103752 -2.73722e-07
1.67939e-06 -2.73722e-07 4.67444e-06
0.00182702 -2.29561e-05 -1.25751e-06
-2.29561e-05 0.00011954 -1.48758e-06
-1.25751e-06 -1.48758e-06 1.93159e-05
0.0016675 -7.66353e-05 1.70487e-06
-7.66353e-05 2.15084e-05 9.99931e-07
1.70487e-06 9.99931e-07 -7.85324e-05
0.000847998 -8.52537e-05 1.59665e-06
-8.52537e-05 4.79244e-05 9.6218e-07
1.59665e-06 9.6218e-07 -4.9778e-05
0.0011645 -0.000114761 5.36842e-07
-0.000114761 0.000171379 2.89424e-06
5.36842e-07 2.89424e-06 2.20548e-05
0.00117992 -0.000126462 1.3124e-06
-0.000126462 4.57816e-05 -1.22238e-06
1.3124e-06 -1.22238e-06 -9.7536e-05
0.00182626 -0.000135831 2.41e-07
-0.000135831 0.000153928 -7.60529e-07
2.41e-07 -7.60529e-07 6.16979e-05
0.00105671 -8.98271e-05 3.59039e-06
-8.98271e-05 0.000109728 -3.07126e-06
3.59039e-06 -3.07126e-06 1.92337e-05
0.000715604 -8.02586e-05 -2.46692e-06
-8.02586e-05 -3.05648e-05 -7.09555e-06
-2.46692e-06 -7.09555e-06 -0.000112429
0.000717933 -5.64232e-05 3.15224e-07
-5.64232e-05 -2.43872e-05 3.96615e-07
3.15224e-07 3.96615e-07 -0.000123284
0.000847071 1.36862e-05 -7.46053e-07
1.36862e-05 4.30242e-06 1.69631e-06
-7.46053e-07 1.69631e-06 -2.44633e-05
0.000945583 -5.93095e-06 -4.92644e-08
-5.93095e-06 7.60554e-05 -5.4104e-07
-4.92644e-08 -5.4104e-07 9.20428e-08
0.0011082 -3.52429e-05 -4.52569e-07
-3.52429e-05 0.000156597 4.70543e-07
-4.52569e-07 4.70543e-07 0.000105925
0.000922364 -4.60342e-06 -5.27206e-07
-4.60342e-06 6.36695e-05 1.02451e-06
-5.27206e-07 1.02451e-06 -2.35975e-06
0.000719863 4.4177e-06 1.72845e-07
4.4177e-06 -5.30783e-05 7.83357e-07
1.72845e-07 7.83357e-07 -9.77248e-05
0.00176732 3.50684e-06 -4.95875e-07
3.50684e-06 8.16555e-05 -1.76849e-07
-4.95875e-07 -1.76849e-07 -5.05818e-06
0.000793879 1.25031e-05 2.11917e-07
1.25031e-05 -1.0493e-05 -4.98234e-07
2.11917e-07 -4.98234e-07 -5.51265e-05
0.000867583 -2.46296e-05 -4.26061e-07
-2.46296e-05 2.84767e-05 2.31583e-08
-4.26061e-07 2.31583e-08 -2.04998e-05
0.000907573 -1.10213e-05 -7.2645e-07
-1.10213e-05 6.22825e-05 4.7323e-07
-7.2645e-07 4.7323e-07 1.38954e-06
0.00183726 -2.82089e-05 1.38422e-06
-2.82089e-05 9.69085e-05 -7.19113e-08
1.38422e-06 -7.19113e-08 -1.00559e-06
0.00191826 -0.000120496 -1.7045e-06
-0.000120496 9.97778e-05 4.36761e-08
-1.7045e-06 4.36761e-08 1.99163e-05
0.000900769 -8.24923e-05 -5.35406e-07
-8.24923e-05 5.42482e-05 3.24423e-07
-5.35406e-07 3.24423e-07 -4.53121e-05
0.001119 -0.000125735 2.18513e-07
-0.000125735 0.000132807 -6.5557e-07
2.18513e-07 -6.5557e-07 -4.43563e-05
0.0014838 -0.000149461 4.10792e-07
-0.000149461 6.58377e-05 5.0179e-07
4.10792e-07 5.0179e-07 -5.15341e-05
0.00088936 9.03091e-06 -1.75103e-07
9.03091e-06 5.02271e-05 3.54606e-08
-1.75103e-07 3.54606e-08 -1.67162e-05
0.000991242 -2.033e-05 -1.48802e-07
-2.033e-05 0.000104818 3.18976e-08
-1.48802e-07 3.18976e-08 3.08348e-05
0.000773515 -8.75631e-05 -3.81382e-06
-8.75631e-05 -8.44232e-06 8.04801e-07
-3.81382e-06 8.04801e-07 -9.68999e-05
0.00106347 -5.26333e-05 4.96847e-07
-5.26333e-05 0.000168025 -4.97418e-07
4.96847e-07 -4.97418e-07 6.35957e-05
0.00087851 -2.59831e-05 2.00257e-07
-2.59831e-05 5.56574e-05 7.47984e-07
2.00257e-07 7.47984e-07 -3.02489e-05
0.00204597 -1.26548e-05 -2.34835e-06
-1.26548e-05 0.000192326 5.29877e-07
-2.34835e-06 5.29877e-07 0.000110848
0.00239687 -6.51167e-05 -7.47813e-07
-6.51167e-05 0.000320742 4.26541e-07
-7.47813e-07 4.26541e-07 0.000238758
0.00164289 -0.000157307 2.59336e-06
-0.000157307 -9.41956e-06 -3.05917e-06
2.59336e-06 -3.05917e-06 -0.000101429
0.00167171 -0.000160063 -5.06883e-06
-0.000160063 0.000316196 3.33599e-07
-5.06883e-06 3.33599e-07 0.000168004
0.00101693 -9.53195e-05 -8.13114e-07
-9.53195e-05 0.000143822 -1.37652e-06
-8.13114e-07 -1.37652e-06 1.14909e-05
0.000728347 9.94921e-06 6.43282e-08
9.94921e-06 -3.32592e-05 -6.90235e-07
6.43282e-08 -6.90235e-07 -9.31678e-05
0.000829876 3.62622e-05 -6.47984e-08
3.62622e-05 2.19398e-05 -8.03965e-07
-6.47984e-08 -8.03965e-07 -4.30745e-05
0.00107841 1.33016e-05 4.90157e-07
1.33016e-05 0.000151665 4.84628e-07
4.90157e-07 4.84628e-07 8.35031e-05
0.000909011 -3.98878e-05 1.02863e-06
-3.98878e-05 6.59843e-05 -1.88663e-07
1.02863e-06 -1.88663e-07 -8.30056e-06
0.00104578 5.28138e-06 5.91315e-07
5.28138e-06 0.000131911 7.32444e-07
5.91315e-07 7.32444e-07 5.53833e-05
0.000863851 -1.57152e-05 -6.85481e-07
-1.57152e-05 5.66291e-05 -9.42866e-07
-6.85481e-07 -9.42866e-07 -3.53232e-05
0.000796985 -6.30676e-05 6.22693e-06
-6.30676e-05 4.87502e-05 1.49758e-06
6.22693e-06 1.49758e-06 -7.51125e-05
0.000921901 3.41361e-05 -5.54872e-07
3.41361e-05 6.95573e-05 -1.63185e-06
-5.54872e-07 -1.63185e-06 -5.71094e-06
0.000857222 5.66164e-05 -2.34408e-07
5.66164e-05 4.77276e-05 -3.16979e-07
-2.34408e-07 -3.16979e-07 -4.86881e-05
0.001944 2.55262e-05 2.42737e-06
2.55262e-05 0.00017053 4.15967e-07
2.42737e-06 4.15967e-07 9.06384e-05
0.00159236 7.94996e-05 1.4326e-06
7.94996e-05 -5.47598e-05 -4.40686e-07
1.4326e-06 -4.40686e-07 -0.000126207
0.00217071 0.000173758 -1.02927e-06
0.000173758 0.000354679 1.32106e-06
-1.02927e-06 1.32106e-06 0.000246286
0.000709447 8.14034e-05 -5.34227e-08
8.14034e-05 -3.32888e-05 -6.86818e-07
-5.34227e-08 -6.86818e-07 -0.000160369
0.00166753 0.000151021 -5.46833e-07
0.000151021 0.000391125 9.52111e-07
-5.46833e-07 9.52111e-07 0.000228438
0.00102273 2.51638e-05 -6.81285e-08
2.51638e-05 0.000128092 5.78959e-08
-6.81285e-08 5.78959e-08 4.3573e-05
0.00179189 4.38191e-05 -1.7031e-06
4.38191e-05 3.03651e-05 -4.16952e-07
-1.7031e-06 -4.16952e-07 -2.66393e-05
0.0012038 8.97856e-05 -6.71819e-07
8.97856e-05 0.000221529 1.98932e-07
-6.71819e-07 1.98932e-07 0.000113873
0.00134599 0.000118789 -6.87006e-07
0.000118789 0.000290013 7.6348e-07
-6.87006e-07 7.6348e-07 0.000145611
0.00186648 0.00014818 1.31835e-06
0.00014818 4.28941e-05 -7.27351e-07
1.31835e-06 -7.27351e-07 -1.70303e-05
0.00131322 0.000145826 -1.02831e-06
0.000145826 0.00011204 1.29838e-06
-1.02831e-06 1.29838e-06 -4.72581e-05
0.00179557 5.18527e-05 2.96976e-06
5.18527e-05 0.000103002 8.67321e-08
2.96976e-06 8.67321e-08 1.70523e-05
0.0010668 4.48872e-05 -3.95448e-07
4.48872e-05 0.000149665 -3.68549e-07
-3.95448e-07 -3.68549e-07 5.65249e-05
0.00226103 0.000106574 -2.58808e-06
0.000106574 0.000216117 -6.83749e-06
-2.58808e-06 -6.83749e-06 0.000214155
0.0012379 0.000107544 -1.91749e-06
0.000107544 0.000253341 -7.60922e-07
-1.91749e-06 -7.60922e-07 0.00013984
0.00107395 0.000112469 -2.71393e-06
0.000112469 0.000157847 -4.24447e-07
-2.71393e-06 -4.24447e-07 -1.60242e-05
0.000200324 0.000146273 -2.09864e-06
0.000146273 -0.00059426 -1.82371e-06
-2.09864e-06 -1.82371e-06 -0.000717752
0.00650272 -8.26796e-05 -3.58324e-05
-8.26796e-05 0.0021112 -9.77602e-06
-3.58324e-05 -9.77602e-06 0.00148482
0.00264422 -9.71285e-06 7.23977e-05
-9.71285e-06 -9.27161e-06 2.62465e-06
7.23977e-05 2.62465e-06 -0.000430431
0.000956369 0.000150168 1.16031e-05
0.000150168 -0.000258515 1.39284e-05
1.16031e-05 1.39284e-05 -0.000255426
-0.00217668 -0.000283739 -1.67793e-05
-0.000283739 -0.00103898 -1.41001e-05
-1.67793e-05 -1.41001e-05 -0.00098083
0.00254442 -0.000420251 -2.35848e-05
-0.000420251 0.000196648 -4.13226e-06
-2.35848e-05 -4.13226e-06 0.00115619
0.000964176 -3.7711e-07 -2.85586e-07
-3.7711e-07 9.04127e-05 -9.70572e-07
-2.85586e-07 -9.70572e-07 1.47358e-05
0.000983533 9.47707e-06 1.71654e-07
9.47707e-06 9.92328e-05 -2.97407e-07
1.71654e-07 -2.97407e-07 1.87341e-05
0.00104954 3.64601e-05 -1.32989e-08
3.64601e-05 0.000130413 -4.90446e-08
-1.32989e-08 -4.90446e-08 4.88573e-05
0.000863234 -3.8038e-05 2.65454e-07
-3.8038e-05 2.44664e-05 -8.70836e-07
2.65454e-07 -8.70836e-07 -2.35131e-05
0.00076362 1.92012e-05 -4.97361e-07
1.92012e-05 -2.32292e-05 -5.00089e-07
-4.97361e-07 -5.00089e-07 -8.01596e-05
0.000958251 -3.48475e-05 -4.39922e-08
-3.48475e-05 8.40351e-05 -4.64625e-07
-4.39922e-08 -4.64625e-07 2.08129e-05
0.00102008 -1.27636e-05 -3.27914e-07
-1.27636e-05 0.000118913 -3.61867e-07
-3.27914e-07 -3.61867e-07 4.89546e-05
0.000904899 -4.69178e-06 2.87685e-07
-4.69178e-06 5.7582e-05 -1.36116e-06
2.87685e-07 -1.36116e-06 -1.93516e-05
0.000926548 1.75281e-05 -4.88096e-07
1.75281e-05 6.51268e-05 -3.25289e-07
-4.88096e-07 -3.25289e-07 1.63108e-06
0.00081048 2.58574e-06 8.65121e-08
2.58574e-06 -6.07997e-06 4.64995e-07
8.65121e-08 4.64995e-07 -5.33129e-05
0.000872006 8.94832e-06 -2.51225e-07
8.94832e-06 3.27427e-05 -4.16332e-08
-2.51225e-07 -4.16332e-08 -2.60008e-05
0.000927245 -4.17197e-06 -4.50745e-08
-4.17197e-06 6.88301e-05 2.0633e-07
-4.50745e-08 2.0633e-07 -6.8749e-06
0.000939585 -3.13641e-06 7.8293e-08
-3.13641e-06 7.54699e-05 -1.09061e-07
7.8293e-08 -1.09061e-07 8.91916e-06
0.000871306 1.46717e-05 5.43779e-07
1.46717e-05 3.78382e-05 -2.43803e-07
5.43779e-07 -2.43803e-07 -2.77305e-05
0.000976932 1.21323e-05 5.76472e-07
1.21323e-05 9.29075e-05 5.53341e-08
5.76472e-07 5.53341e-08 2.28344e-05
0.000855181 5.82771e-06 7.56735e-07
5.82771e-06 2.06463e-05 5.03464e-07
7.56735e-07 5.03464e-07 -4.23272e-05
0.000829715 1.15749e-06 8.0298e-07
1.15749e-06 6.48133e-06 2.56873e-07
8.0298e-07 2.56873e-07 -5.29786e-05
0.000724912 -3.38358e-05 -1.28186e-06
-3.38358e-05 -5.07683e-05 1.27978e-06
-1.28186e-06 1.27978e-06 -9.89047e-05
0.000948009 7.73267e-06 -2.374e-07
7.73267e-06 7.3358e-05 3.7221e-07
-2.374e-07 3.7221e-07 1.36748e-05
0.00101931 6.52911e-05 9.80123e-08
6.52911e-05 0.000115155 6.85329e-08
9.80123e-08 6.85329e-08 4.95048e-05
0.000877361 3.14816e-06 -4.79932e-07
3.14816e-06 4.21234e-05 4.16106e-07
-4.79932e-07 4.16106e-07 -1.72815e-05
0.000944364 9.58489e-06 4.51888e-07
9.58489e-06 7.40006e-05 -3.43528e-07
4.51888e-07 -3.43528e-07 1.51483e-05
0.000875689 -2.31164e-05 -1.19806e-06
-2.31164e-05 2.84083e-05 7.70271e-07
-1.19806e-06 7.70271e-07 -1.78544e-05
0.000752953 4.91876e-06 1.2955e-07
4.91876e-06 -3.51956e-05 3.81225e-07
1.2955e-07 3.81225e-07 -8.3657e-05
0.000844187 1.2666e-05 -8.09965e-08
1.2666e-05 2.21816e-06 1.6201e-06
-8.09965e-08 1.6201e-06 -2.58413e-05
0.000836876 4.06836e-06 -1.68531e-07
4.06836e-06 -1.82991e-06 6.37716e-10
-1.68531e-07 6.37716e-10 -2.97164e-05
0.000801944 4.81662e-06 -2.77114e-07
4.81662e-06 -3.07311e-05 4.33274e-06
-2.77114e-07 4.33274e-06 -3.14582e-05
0.000837665 -6.23996e-06 2.77151e-07
-6.23996e-06 -1.85975e-06 -1.51851e-06
2.77151e-07 -1.51851e-06 -2.93966e-05
0.000790541 5.47834e-07 1.48247e-07
5.47834e-07 -3.7835e-05 -4.54283e-09
1.48247e-07 -4.54283e-09 -3.81248e-05
0.0021238 -9.67759e-07 1.64106e-07
-9.67759e-07 0.000675553 4.01288e-06
1.64106e-07 4.01288e-06 0.000698464
0.000807708 -3.6971e-06 -5.4985e-07
-3.6971e-06 -2.81055e-05 -4.29933e-06
-5.4985e-07 -4.29933e-06 -2.82322e-05
0.00154969 -5.81476e-06 -2.61397e-07
-5.81476e-06 0.000369052 2.18925e-08
-2.61397e-07 2.18925e-08 0.000389176
0.000950386 -9.70412e-06 -7.39113e-07
-9.70412e-06 4.96923e-05 -1.53157e-06
-7.39113e-07 -1.53157e-06 6.72195e-05
0.000853007 3.45214e-06 1.06451e-09
3.45214e-06 3.20315e-06 -1.63818e-06
1.06451e-09 -1.63818e-06 -2.05414e-05
0.000849307 6.9389e-06 2.95434e-08
6.9389e-06 2.06602e-06 3.30916e-09
2.95434e-08 3.30916e-09 -2.28928e-05
0.000787565 9.50755e-06 3.33247e-07
9.50755e-06 -3.87025e-05 -3.11761e-06
3.33247e-07 -3.11761e-06 -3.75145e-05
0.000851615 1.00668e-05 -5.49161e-07
1.00668e-05 4.38466e-06 1.65302e-06
-5.49161e-07 1.65302e-06 -2.22857e-05
0.00105938 1.56853e-05 -2.39431e-07
1.56853e-05 0.000109093 -6.1812e-07
-2.39431e-07 -6.1812e-07 0.000110344
0.00209054 1.93896e-05 1.00442e-05
1.93896e-05 0.000662108 -3.91456e-06
1.00442e-05 -3.91456e-06 0.000684571
0.000790768 1.92341e-05 -1.07473e-06
1.92341e-05 -2.99375e-05 3.22598e-06
-1.07473e-06 3.22598e-06 -3.20676e-05
0.00214906 2.55638e-05 -5.55524e-06
2.55638e-05 0.000698143 1.10274e-06
-5.55524e-06 1.10274e-06 0.000719252
0.002179 3.29703e-05 -1.83274e-05
3.29703e-05 0.000719288 3.85185e-06
-1.83274e-05 3.85185e-06 0.00073884
0.00176203 1.02911e-05 1.35555e-06
1.02911e-05 7.76082e-05 9.83798e-08
1.35555e-06 9.83798e-08 -1.30285e-05
0.00179658 4.26436e-06 1.7199e-06
4.26436e-06 9.78116e-05 2.08941e-07
1.7199e-06 2.08941e-07 -2.18297e-06
0.00176434 3.04656e-06 5.2709e-06
3.04656e-06 9.65187e-05 -4.88111e-07
5.2709e-06 -4.88111e-07 2.62173e-05
0.00167973 -3.3197e-05 3.31194e-06
-3.3197e-05 -5.2106e-05 1.22795e-06
3.31194e-06 1.22795e-06 -0.000108432
0.00183448 7.31472e-06 -2.18792e-07
7.31472e-06 0.000102816 3.2334e-07
-2.18792e-07 3.2334e-07 2.09817e-05
0.00178893 1.13094e-05 9.68937e-07
1.13094e-05 5.48039e-05 -5.49654e-07
9.68937e-07 -5.49654e-07 -8.80748e-06
0.00210358 2.01949e-05 -2.28442e-08
2.01949e-05 0.000196724 1.80415e-06
-2.28442e-08 1.80415e-06 0.000111127
0.00324887 -0.000143367 0.000138868
-0.000143367 0.000611806 2.18265e-05
0.000138868 2.18265e-05 0.000369757
0.00117588 -4.57574e-05 -4.14885e-06
-4.57574e-05 -0.000288365 9.26386e-07
-4.14885e-06 9.26386e-07 -0.000355352
0.000884803 2.02407e-05 -6.70229e-07
2.02407e-05 3.52129e-05 -7.69557e-07
-6.70229e-07 -7.69557e-07 -6.28257e-06
0.000879131 -1.38259e-05 6.00768e-07
-1.38259e-05 3.36641e-05 -3.56307e-08
6.00768e-07 -3.56307e-08 -9.22682e-06
0.00088243 -3.38298e-05 -2.25677e-07
-3.38298e-05 4.35174e-05 -1.24817e-09
-2.25677e-07 -1.24817e-09 -1.03774e-05
0.000885659 -2.80252e-05 -9.12971e-07
-2.80252e-05 5.50816e-05 1.04158e-07
-9.12971e-07 1.04158e-07 -2.95666e-06
0.00174692 2.69441e-06 3.12142e-06
2.69441e-06 7.43695e-05 -5.91207e-07
3.12142e-06 -5.91207e-07 -1.19422e-05
0.00171128 -2.9264e-05 1.83004e-06
-2.9264e-05 2.68535e-05 -6.151e-07
1.83004e-06 -6.151e-07 -7.03707e-05
0.0021206 -0.000125503 -2.81286e-06
-0.000125503 0.000212592 1.87731e-06
-2.81286e-06 1.87731e-06 0.000129348
0.00073857 -8.02527e-05 2.31622e-06
-8.02527e-05 -4.06791e-05 2.25817e-06
2.31622e-06 2.25817e-06 -0.000136031
0.000449623 -9.29682e-05 3.20073e-06
-9.29682e-05 -0.000198686 -1.11007e-06
3.20073e-06 -1.11007e-06 -0.000375624
0.00171163 -0.000160202 7.30286e-07
-0.000160202 0.000182317 -1.08469e-06
7.30286e-07 -1.08469e-06 6.46448e-05
0.000745636 -8.61225e-05 -5.6219e-06
-8.61225e-05 -1.97213e-05 7.51526e-08
-5.6219e-06 7.51526e-08 -0.00011184
0.00101304 -3.84916e-05 -7.0229e-07
-3.84916e-05 0.000139742 -6.48296e-07
-7.0229e-07 -6.48296e-07 3.7762e-05
0.0010571 -4.17117e-05 -8.38396e-07
-4.17117e-05 0.000149491 9.11288e-07
-8.38396e-07 9.11288e-07 6.33474e-05
0.00087913 -4.06119e-06 -1.01171e-06
-4.06119e-06 3.4218e-05 9.77697e-07
-1.01171e-06 9.77697e-07 -1.47992e-05
0.000907812 -3.4095e-05 -3.03097e-07
-3.4095e-05 6.45973e-05 6.38357e-08
-3.03097e-07 6.38357e-08 -1.17991e-05
0.000984089 7.08101e-06 -6.98945e-07
7.08101e-06 9.86784e-05 6.40269e-07
-6.98945e-07 6.40269e-07 3.35806e-05
0.000881222 -3.87443e-06 -8.09103e-10
-3.87443e-06 3.63006e-05 2.90463e-07
-8.09103e-10 2.90463e-07 -8.32131e-06
0.000745219 1.70159e-05 1.92028e-07
1.70159e-05 -2.27076e-05 9.51247e-07
1.92028e-07 9.51247e-07 -8.51946e-05
0.00176072 -9.03528e-06 -7.03867e-07
-9.03528e-06 5.78202e-05 9.56302e-07
-7.03867e-07 9.56302e-07 -2.38035e-05
0.000891489 9.29118e-06 4.65153e-07
9.29118e-06 5.13058e-05 -4.65613e-07
4.65153e-07 -4.65613e-07 -6.71195e-06
0.000851038 1.89379e-05 5.25839e-07
1.89379e-05 3.27608e-05 1.00597e-08
5.25839e-07 1.00597e-08 -3.13397e-05
0.000963251 4.14861e-05 -2.89789e-07
4.14861e-05 9.19294e-05 7.27904e-07
-2.89789e-07 7.27904e-07 2.28197e-05
0.00202396 -6.14553e-05 -3.54072e-06
-6.14553e-05 0.00012565 5.96482e-07
-3.54072e-06 5.96482e-07 4.01684e-05
0.00171973 -0.000153194 9.01315e-07
-0.000153194 3.52861e-05 -8.80154e-07
9.01315e-07 -8.80154e-07 -5.6387e-05
0.000975878 -9.80988e-05 -5.13569e-07
-9.80988e-05 0.000109313 -3.02397e-07
-5.13569e-07 -3.02397e-07 -1.82406e-05
0.00177033 -0.000164415 -5.37506e-07
-0.000164415 0.000372114 -9.35793e-07
-5.37506e-07 -9.35793e-07 0.000218392
0.000967139 -1.25808e-05 -3.85071e-07
-1.25808e-05 9.36096e-05 8.2592e-08
-3.85071e-07 8.2592e-08 2.10835e-05
0.000966285 -5.65163e-06 1.05737e-07
-5.65163e-06 9.56495e-05 6.31346e-07
1.05737e-07 6.31346e-07 1.76236e-05
0.000867775 -6.6147e-05 3.37674e-06
-6.6147e-05 7.94314e-05 -8.74684e-07
3.37674e-06 -8.74684e-07 -3.96149e-05
0.00103407 -4.06467e-05 1.44214e-07
-4.06467e-05 0.000147637 -8.088e-07
1.44214e-07 -8.088e-07 5.05917e-05
0.00172277 -3.05818e-06 -1.43619e-06
-3.05818e-06 -1.5766e-05 2.22018e-06
-1.43619e-06 2.22018e-06 -0.000102314
0.00212143 -0.000141841 5.8854e-06
-0.000141841 0.000125503 -4.02351e-06
5.8854e-06 -4.02351e-06 4.18957e-05
0.00181509 -0.000167709 -2.44588e-06
-0.000167709 0.000263292 -2.43736e-06
-2.44588e-06 -2.43736e-06 0.000135031
0.00111725 -0.000122377 -2.29176e-06
-0.000122377 0.000186107 1.32021e-08
-2.29176e-06 1.32021e-08 4.77838e-05
0.000861107 2.1498e-05 -8.10395e-07
2.1498e-05 4.2123e-05 3.22761e-08
-8.10395e-07 3.22761e-08 -3.14474e-05
0.000897245 -3.68229e-05 7.39872e-07
-3.68229e-05 6.31739e-05 -5.35671e-07
7.39872e-07 -5.35671e-07 -1.00507e-05
0.000951364 -2.71564e-05 5.37279e-07
-2.71564e-05 8.70084e-05 -3.54916e-08
5.37279e-07 -3.54916e-08 7.63038e-06
0.000905126 -9.23136e-06 -2.06143e-06
-9.23136e-06 9.12268e-05 6.65882e-07
-2.06143e-06 6.65882e-07 -3.16143e-05
0.00045692 -3.67454e-05 -2.7021e-06
-3.67454e-05 -0.000847012 -8.10234e-06
-2.7021e-06 -8.10234e-06 -0.00128953
0.0010054 1.51347e-05 4.31475e-08
1.51347e-05 0.000118363 -1.05411e-06
4.31475e-08 -1.05411e-06 3.62802e-05
0.000861017 7.39135e-05 9.03413e-07
7.39135e-05 4.82896e-05 4.43031e-07
9.03413e-07 4.43031e-07 -5.76894e-05
0.00137263 3.97534e-05 2.96528e-06
3.97534e-05 -0.000201158 8.96934e-07
2.96528e-06 8.96934e-07 -0.000252769
0.00174888 0.000135751 -1.77409e-06
0.000135751 -1.79666e-05 9.93415e-07
-1.77409e-06 9.93415e-07 -7.81433e-05
0.00152807 0.000157388 -1.04042e-06
0.000157388 0.000228962 2.87438e-06
-1.04042e-06 2.87438e-06 6.29113e-05
0.000796198 9.11295e-05 1.58136e-06
9.11295e-05 1.86726e-05 1.26391e-07
1.58136e-06 1.26391e-07 -0.000125741
0.00273436 4.42327e-05 -3.45316e-06
4.42327e-05 0.000410442 3.42926e-07
-3.45316e-06 3.42926e-07 0.000312596
0.00098932 4.27671e-05 4.96845e-07
4.27671e-05 0.000113467 -3.34246e-07
4.96845e-07 -3.34246e-07 2.07818e-05
0.00202131 0.000102755 -3.78616e-06
0.000102755 9.08208e-05 -2.26132e-06
-3.78616e-06 -2.26132e-06 9.38684e-05
0.00105433 9.87987e-05 6.01846e-07
9.87987e-05 0.000160075 -3.63389e-07
6.01846e-07 -3.63389e-07 4.79462e-05
0.0010455 0.000113715 -2.36996e-07
0.000113715 0.0001501 2.88895e-07
-2.36996e-07 2.88895e-07 -2.50718e-05
0.000906865 0.000171909 -2.91541e-06
0.000171909 -0.000266284 3.04423e-07
-2.91541e-06 3.04423e-07 -0.000382334
0.00197021 -0.000172147 -2.8444e-05
-0.000172147 -4.75289e-05 -9.88585e-06
-2.8444e-05 -9.88585e-06 -0.000605183
0.00326802 -8.15973e-05 6.70802e-06
-8.15973e-05 0.000209012 -1.17074e-05
6.70802e-06 -1.17074e-05 -0.000304122
0.000897451 0.000143877 4.84924e-06
0.000143877 -0.000291644 1.32399e-06
4.84924e-06 1.32399e-06 -0.000288112
-0.00159494 -0.000260134 1.62471e-05
-0.000260134 -0.000602385 3.55306e-06
1.62471e-05 3.55306e-06 -0.00077169
0.000464921 -0.000452771 1.07416e-05
-0.000452771 -0.000968235 6.07238e-07
1.07416e-05 6.07238e-07 0.000122491
0.00110302 6.6804e-05 -4.071e-08
6.6804e-05 0.000173927 -6.51313e-07
-4.071e-08 -6.51313e-07 8.28842e-05
0.000560941 5.79749e-05 -8.72455e-05
5.79749e-05 0.000401441 -2.02448e-05
-8.72455e-05 -2.02448e-05 0.000154437
0.0016012 -0.000262357 -3.38892e-05
-0.000262357 0.000471181 -2.09458e-05
-3.38892e-05 -2.09458e-05 0.000827293
0.00125231 0.000126001 -4.87382e-06
0.000126001 -0.00022735 -7.50883e-07
-4.87382e-06 -7.50883e-07 -0.000196836
0.00112843 5.5439e-05 -1.81726e-06
5.5439e-05 0.000219878 -1.27396e-06
-1.81726e-06 -1.27396e-06 9.54714e-05
0.00130656 0.000133447 -5.97314e-06
0.000133447 0.000273263 -1.19921e-06
-5.97314e-06 -1.19921e-06 7.59509e-05
0.00154793 0.000184865 5.70031e-06
0.000184865 9.43547e-05 2.22483e-05
5.70031e-06 2.22483e-05 0.00013613
0.00643905 -0.000271325 -5.53231e-05
-0.000271325 0.00207809 -1.60267e-05
-5.53231e-05 -1.60267e-05 0.00111509
0.00151672 5.9704e-05 1.31471e-05
5.9704e-05 -0.000689603 2.10307e-05
1.31471e-05 2.10307e-05 -0.00141853
-1.57292e-05 -0.000414204 -4.30152e-05
-0.000414204 -0.000314433 -1.49619e-05
-4.30152e-05 -1.49619e-05 -8.66549e-06
0.000236823 -0.000208178 -3.0084e-05
-0.000208178 -0.00165811 9.39367e-07
-3.0084e-05 9.39367e-07 -0.000982442
0.000982976 4.59637e-06 -2.61638e-07
4.59637e-06 0.000100602 -8.86613e-07
-2.61638e-07 -8.86613e-07 2.07089e-05
0.000997247 2.78238e-05 -2.76093e-07
2.78238e-05 0.000103336 1.47712e-07
-2.76093e-07 1.47712e-07 2.26811e-05
0.00117172 5.94297e-05 -1.66792e-07
5.94297e-05 0.000198144 -6.62257e-07
-1.66792e-07 -6.62257e-07 0.00012111
0.00086681 1.91503e-06 -6.24626e-08
1.91503e-06 2.80627e-05 -3.96139e-07
-6.24626e-08 -3.96139e-07 -2.10732e-05
0.000917471 -5.14238e-07 -4.74075e-07
-5.14238e-07 5.60122e-05 -4.72926e-07
-4.74075e-07 -4.72926e-07 -1.83362e-06
0.000869214 -1.78055e-05 -2.48946e-07
-1.78055e-05 3.21261e-05 -7.12735e-07
-2.48946e-07 -7.12735e-07 -3.01994e-05
0.000948823 -6.40259e-06 -5.80099e-08
-6.40259e-06 7.9292e-05 -3.92109e-07
-5.80099e-08 -3.92109e-07 1.26239e-05
0.000937842 -6.53706e-06 -3.03557e-08
-6.53706e-06 7.51553e-05 -1.38259e-07
-3.03557e-08 -1.38259e-07 -5.11759e-07
0.000745889 -5.37993e-06 3.76573e-07
-5.37993e-06 -3.93282e-05 4.01936e-07
3.76573e-07 4.01936e-07 -8.78656e-05
0.000885177 -9.07522e-08 -1.36221e-07
-9.07522e-08 4.53565e-05 -3.1305e-07
-1.36221e-07 -3.1305e-07 -1.98047e-05
0.000954809 -1.69215e-05 -1.82746e-07
-1.69215e-05 7.47812e-05 3.46739e-07
-1.82746e-07 3.46739e-07 1.11704e-05
0.000908275 1.99343e-05 3.79146e-07
1.99343e-05 5.05579e-05 -2.10686e-07
3.79146e-07 -2.10686e-07 -9.9786e-06
0.000949722 1.38599e-05 3.23715e-08
1.38599e-05 7.86093e-05 4.86513e-08
3.23715e-08 4.86513e-08 8.01557e-06
0.000864806 -4.02112e-06 5.45204e-07
-4.02112e-06 2.56318e-05 1.92007e-07
5.45204e-07 1.92007e-07 -4.1122e-05
0.00103067 3.29671e-05 -1.39422e-07
3.29671e-05 0.000118817 -7.28183e-07
-1.39422e-07 -7.28183e-07 4.70161e-05
0.000966003 -5.21927e-05 1.27304e-07
-5.21927e-05 7.8646e-05 2.43798e-07
1.27304e-07 2.43798e-07 1.4461e-05
0.000966296 -3.65321e-05 -4.22748e-07
-3.65321e-05 8.199e-05 9.94393e-08
-4.22748e-07 9.94393e-08 2.11877e-05
0.000961199 -3.66323e-06 -3.75395e-07
-3.66323e-06 7.94883e-05 -6.82737e-08
-3.75395e-07 -6.82737e-08 2.0045e-05
0.000948885 4.51492e-05 -2.78652e-07
4.51492e-05 7.4267e-05 -2.76743e-07
-2.78652e-07 -2.76743e-07 1.04091e-05
0.000944092 2.29811e-05 -1.82245e-08
2.29811e-05 7.13831e-05 5.3438e-08
-1.82245e-08 5.3438e-08 4.4323e-06
0.000911583 3.8906e-05 1.60781e-07
3.8906e-05 5.76447e-05 4.34065e-07
1.60781e-07 4.34065e-07 -6.13745e-06
0.00105689 5.34193e-05 -3.3631e-08
5.34193e-05 0.000128501 -1.24592e-08
-3.3631e-08 -1.24592e-08 6.12262e-05
0.000866106 1.336e-05 6.17764e-07
1.336e-05 4.08664e-05 1.57243e-06
6.17764e-07 1.57243e-06 -2.89597e-05
0.000874369 1.25718e-05 -1.3442e-07
1.25718e-05 3.70902e-05 4.992e-07
-1.3442e-07 4.992e-07 -2.0086e-05
0.000884762 4.48202e-07 -3.47776e-08
4.48202e-07 4.42451e-05 -1.4018e-08
-3.47776e-08 -1.4018e-08 -1.40348e-05
0.000870986 1.89526e-06 -8.84802e-07
1.89526e-06 2.56903e-05 7.24065e-07
-8.84802e-07 7.24065e-07 -1.97082e-05
0.00085816 1.12534e-05 3.28213e-07
1.12534e-05 2.35671e-05 -6.72117e-07
3.28213e-07 -6.72117e-07 -3.29725e-05
0.00082302 -1.32123e-05 6.32863e-08
-1.32123e-05 1.35532e-07 1.82097e-08
6.32863e-08 1.82097e-08 -4.62953e-05
0.000847315 1.30818e-05 -3.943e-07
1.30818e-05 4.22925e-06 1.69664e-06
-3.943e-07 1.69664e-06 -2.39505e-05
0.000765424 5.77348e-06 3.70142e-07
5.77348e-06 -2.7332e-05 -4.51924e-07
3.70142e-07 -4.51924e-07 -7.66914e-05
0.000841174 6.01607e-06 -1.49527e-07
6.01607e-06 4.0362e-07 -4.29129e-09
-1.49527e-07 -4.29129e-09 -2.75592e-05
0.00137719 1.04667e-05 -2.75318e-06
1.04667e-05 0.000278149 4.29953e-06
-2.75318e-06 4.29953e-06 0.000280058
0.000834989 -3.73817e-06 5.10099e-07
-3.73817e-06 -2.93806e-06 -1.56352e-06
5.10099e-07 -1.56352e-06 -3.07706e-05
0.00108477 5.45873e-06 -1.20476e-06
5.45873e-06 0.00012031 6.21561e-07
-1.20476e-06 6.21561e-07 0.000121088
0.000998903 2.89957e-06 -2.53813e-06
2.89957e-06 7.46127e-05 3.92882e-06
-2.53813e-06 3.92882e-06 9.15516e-05
0.000794261 5.80199e-07 -3.18027e-08
5.80199e-07 -3.58487e-05 -3.04718e-06
-3.18027e-08 -3.04718e-06 -3.61673e-05
0.00212728 -5.47031e-07 1.95607e-06
-5.47031e-07 0.000677425 3.0772e-10
1.95607e-06 3.0772e-10 0.000700297
0.00100545 -3.68065e-06 -1.70346e-06
-3.68065e-06 7.79169e-05 -3.9076e-06
-1.70346e-06 -3.9076e-06 9.52131e-05
0.00087253 3.83238e-05 3.40544e-07
3.83238e-05 3.14196e-05 -1.68832e-07
3.40544e-07 -1.68832e-07 -1.19725e-05
0.000854147 -7.03088e-07 -5.98885e-08
-7.03088e-07 3.73478e-06 -1.61032e-06
-5.98885e-08 -1.61032e-06 -1.94079e-05
0.000853883 2.80381e-06 -5.04117e-08
2.80381e-06 3.57434e-06 1.15088e-09
-5.04117e-08 1.15088e-09 -2.01564e-05
0.000795566 4.57302e-06 5.35106e-08
4.57302e-06 -3.62462e-05 -3.08801e-06
5.35106e-08 -3.08801e-06 -3.4036e-05
0.000849301 6.32907e-06 -2.66075e-07
6.32907e-06 1.8085e-06 1.56558e-06
-2.66075e-07 1.56558e-06 -2.31154e-05
0.000788639 9.66426e-06 5.27502e-08
9.66426e-06 -3.84243e-05 -6.29607e-07
5.27502e-08 -6.29607e-07 -3.71665e-05
0.0020576 1.2725e-05 6.64748e-06
1.2725e-05 0.000641912 -3.94437e-06
6.64748e-06 -3.94437e-06 0.000665256
0.00132866 1.82705e-05 -1.27431e-06
1.82705e-05 0.000253402 1.93115e-06
-1.27431e-06 1.93115e-06 0.000255836
0.00155554 1.67877e-05 3.41031e-07
1.67877e-05 0.000377093 1.2296e-06
3.41031e-07 1.2296e-06 0.000396402
0.00104012 1.89791e-05 -1.40153e-05
1.89791e-05 0.000105929 6.38469e-06
-1.40153e-05 6.38469e-06 0.000121158
-0.000705327 2.00425e-05 4.72588e-06
2.00425e-05 -0.00125018 3.47745e-06
4.72588e-06 3.47745e-06 -0.00131019
0.00195414 6.02089e-06 2.56422e-06
6.02089e-06 0.000163104 -5.98301e-08
2.56422e-06 -5.98301e-08 8.23475e-05
0.00214229 1.61773e-05 -1.30616e-06
1.61773e-05 0.000246587 -2.47457e-06
-1.30616e-06 -2.47457e-06 0.000179609
0.00109899 -6.75137e-05 2.76337e-05
-6.75137e-05 -0.000266231 2.82325e-07
2.76337e-05 2.82325e-07 -0.000494452
0.00173503 -4.05588e-05 -1.71097e-06
-4.05588e-05 5.33312e-05 -1.01487e-07
-1.71097e-06 -1.01487e-07 -2.72513e-05
0.00172579 1.69191e-05 -3.74781e-06
1.69191e-05 -2.64691e-05 -1.81029e-06
-3.74781e-06 -1.81029e-06 -0.00010979
0.0019591 3.15691e-05 -1.06912e-05
3.15691e-05 0.000212203 1.6125e-06
-1.06912e-05 1.6125e-06 0.000125475
0.00163251 -7.71117e-05 0.000128491
-7.71117e-05 3.77988e-05 -1.56052e-06
0.000128491 -1.56052e-06 -0.000282715
0.00595633 9.81811e-05 -1.54902e-05
9.81811e-05 0.00177213 -1.45481e-07
-1.54902e-05 -1.45481e-07 0.00101221
0.00418235 0.000536241 -1.82694e-05
0.000536241 0.00180698 4.98725e-06
-1.82694e-05 4.98725e-06 0.00201904
0.00166711 0.000450013 -1.74079e-05
0.000450013 0.000117642 6.71116e-06
-1.74079e-05 6.71116e-06 0.000977395
0.000738076 -3.86056e-05 1.13123e-06
-3.86056e-05 -2.81568e-05 -6.37762e-07
1.13123e-06 -6.37762e-07 -8.38423e-05
0.000884476 -9.35343e-06 1.94142e-07
-9.35343e-06 3.58055e-05 -3.10499e-08
1.94142e-07 -3.10499e-08 -6.21802e-06
0.000878028 -4.41071e-05 -8.25951e-07
-4.41071e-05 3.53321e-05 8.40827e-07
-8.25951e-07 8.40827e-07 -9.13653e-06
0.000847992 -1.17285e-05 -3.07498e-07
-1.17285e-05 2.74167e-05 3.45336e-08
-3.07498e-07 3.45336e-08 -2.80854e-05
0.000885083 3.9703e-05 3.58152e-08
3.9703e-05 5.72345e-05 7.3811e-07
3.58152e-08 7.3811e-07 -8.69179e-06
0.000934327 4.88112e-05 1.50711e-07
4.88112e-05 7.68048e-05 7.50024e-07
1.50711e-07 7.50024e-07 1.46539e-05
0.000921373 -2.71615e-05 6.98299e-07
-2.71615e-05 6.87223e-05 -7.76117e-07
6.98299e-07 -7.76117e-07 1.25527e-05
0.000835867 -4.35463e-05 -5.61854e-07
-4.35463e-05 2.50446e-05 4.80757e-07
-5.61854e-07 4.80757e-07 -3.11634e-05
0.00144484 -4.76571e-06 2.14898e-06
-4.76571e-06 -9.21189e-05 -9.84092e-07
2.14898e-06 -9.84092e-07 -0.000173849
0.00159499 -5.76454e-05 -1.25836e-06
-5.76454e-05 -0.000100751 9.07482e-08
-1.25836e-06 9.07482e-08 -0.000188963
0.00174003 -0.000148867 -4.63924e-06
-0.000148867 5.30257e-05 2.66078e-06
-4.63924e-06 2.66078e-06 -3.81848e-05
0.000877025 -9.8392e-05 1.37081e-06
-9.8392e-05 4.64243e-05 1.0728e-06
1.37081e-06 1.0728e-06 -7.84992e-05
0.00170276 -0.000162181 1.66315e-06
-0.000162181 0.000343739 -4.79609e-08
1.66315e-06 -4.79609e-08 0.000181688
0.000915923 -6.71715e-05 4.98899e-07
-6.71715e-05 9.86012e-05 -1.12197e-06
4.98899e-07 -1.12197e-06 -1.5758e-05
0.00120664 -6.5005e-05 1.96963e-07
-6.5005e-05 0.000239845 -5.35029e-07
1.96963e-07 -5.35029e-07 0.000137894
0.000876984 -1.93136e-05 -7.82021e-07
-1.93136e-05 5.4094e-05 2.26598e-07
-7.82021e-07 2.26598e-07 -2.5286e-05
0.000870266 6.50472e-06 4.21772e-07
6.50472e-06 4.29066e-05 4.72802e-07
4.21772e-07 4.72802e-07 -2.04624e-05
0.00103137 3.84648e-06 -7.89663e-07
3.84648e-06 0.000124672 2.18781e-07
-7.89663e-07 2.18781e-07 5.36574e-05
0.00106484 1.46755e-06 3.66369e-07
1.46755e-06 0.000140436 -1.33467e-08
3.66369e-07 -1.33467e-08 8.46895e-05
0.000840172 6.78738e-05 1.17576e-06
6.78738e-05 2.80553e-05 1.21877e-06
1.17576e-06 1.21877e-06 -4.19786e-05
0.00158501 1.46389e-06 1.73006e-07
1.46389e-06 -9.14187e-05 -3.32201e-06
1.73006e-07 -3.32201e-06 -0.000176414
0.00087482 2.18125e-05 -3.85879e-07
2.18125e-05 5.00659e-05 3.6331e-07
-3.85879e-07 3.6331e-07 -2.22353e-05
0.000887084 -2.48226e-05 -2.99262e-07
-2.48226e-05 5.51341e-05 -3.22873e-07
-2.99262e-07 -3.22873e-07 -1.69314e-05
0.00220788 -0.000143497 -7.87558e-07
-0.000143497 0.000177845 1.3734e-06
-7.87558e-07 1.3734e-06 9.63361e-05
0.00111441 -0.000140517 6.48398e-07
-0.000140517 -7.98822e-05 6.2767e-07
6.48398e-07 6.2767e-07 -0.000200727
0.00118927 -0.000126689 9.11434e-07
-0.000126689 0.000219597 -9.72891e-07
9.11434e-07 -9.72891e-07 7.60398e-05
0.000973512 -2.96894e-05 1.31046e-07
-2.96894e-05 9.90102e-05 -1.59146e-07
1.31046e-07 -1.59146e-07 1.75307e-05
0.00102979 -2.41085e-05 -4.54959e-08
-2.41085e-05 0.000156337 3.62294e-07
-4.54959e-08 3.62294e-07 3.27849e-05
0.00254186 -8.36192e-05 -7.73925e-06
-8.36192e-05 0.000442251 1.07281e-05
-7.73925e-06 1.07281e-05 0.000369147
0.00257464 -0.000223349 -9.61138e-07
-0.000223349 0.00046909 -5.66754e-06
-9.61138e-07 -5.66754e-06 0.000365061
0.000315302 -0.000110293 -4.13228e-06
-0.000110293 -0.000285336 -5.11117e-07
-4.13228e-06 -5.11117e-07 -0.000413487
0.00131498 -8.63546e-05 -4.10015e-06
-8.63546e-05 0.000305428 2.4061e-06
-4.10015e-06 2.4061e-06 0.00015796
0.000765973 -6.2079e-05 7.92326e-07
-6.2079e-05 -5.84706e-06 -1.12275e-07
7.92326e-07 -1.12275e-07 -8.22839e-05
0.000958827 -4.50661e-05 1.56747e-06
-4.50661e-05 9.07745e-05 9.13697e-09
1.56747e-06 9.13697e-09 1.04513e-05
0.00102782 -1.87327e-05 -1.34274e-06
-1.87327e-05 0.000128619 4.57633e-07
-1.34274e-06 4.57633e-07 3.45477e-05
-0.00275552 -1.65926e-05 -1.707e-05
-1.65926e-05 -0.00132451 -1.41591e-06
-1.707e-05 -1.41591e-06 -0.00115286
0.00681229 -2.63226e-05 -2.27868e-05
-2.63226e-05 0.00230262 -1.70529e-06
-2.27868e-05 -1.70529e-06 0.00173924
0.000920814 4.12372e-05 9.74043e-07
4.12372e-05 8.18207e-05 -6.77774e-07
9.74043e-07 -6.77774e-07 -1.0473e-05
0.000925306 9.22725e-05 1.74435e-06
9.22725e-05 9.53323e-05 -8.2647e-07
1.74435e-06 -8.2647e-07 -1.49497e-05
0.00178852 9.7826e-05 -4.2318e-06
9.7826e-05 -3.3038e-05 3.32045e-06
-4.2318e-06 3.32045e-06 -2.36848e-05
0.00173533 0.000202124 -8.84769e-07
0.000202124 0.000121507 1.58209e-06
-8.84769e-07 1.58209e-06 1.3618e-05
0.00103943 0.000114988 2.27301e-06
0.000114988 0.000152565 6.70953e-07
2.27301e-06 6.70953e-07 -2.16211e-05
0.00551782 1.29157e-05 3.2749e-05
1.29157e-05 0.00155594 -8.20115e-06
3.2749e-05 -8.20115e-06 0.0008344
0.00363788 -7.29347e-05 -6.89305e-05
-7.29347e-05 0.000370009 -1.59633e-05
-6.89305e-05 -1.59633e-05 -3.85925e-05
0.000488687 0.000116351 -4.23357e-06
0.000116351 -0.000513514 -1.44077e-05
-4.23357e-06 -1.44077e-05 -0.000492838
0.00318858 -0.000413505 2.89455e-05
-0.000413505 0.00155888 1.56541e-05
2.89455e-05 1.56541e-05 0.00156794
-0.00161877 -0.000494091 1.4903e-05
-0.000494091 -0.00212229 -1.28197e-05
1.4903e-05 -1.28197e-05 -0.000885018
0.00102695 7.86137e-05 -2.00817e-08
7.86137e-05 0.000139389 -2.39981e-07
-2.00817e-08 -2.39981e-07 4.63194e-05
-0.00231989 -0.000104432 9.37164e-07
-0.000104432 -0.00116241 -1.32145e-06
9.37164e-07 -1.32145e-06 -0.00100068
0.000266002 -0.000246625 -1.07472e-05
-0.000246625 -0.000115207 -2.13748e-06
-1.07472e-05 -2.13748e-06 7.26212e-05
0.00213722 0.000151602 -1.44418e-06
0.000151602 0.000204614 -1.62833e-06
-1.44418e-06 -1.62833e-06 0.000234882
0.0009558 6.48839e-05 -5.69121e-08
6.48839e-05 0.000140418 -9.40371e-07
-5.69121e-08 -9.40371e-07 1.63392e-05
0.000711128 0.000108116 5.74614e-08
0.000108116 -2.81036e-05 2.9727e-07
5.74614e-08 2.9727e-07 -0.000224328
-0.000185369 0.000112285 1.55153e-05
0.000112285 -0.000736799 7.41578e-06
1.55153e-05 7.41578e-06 -0.000675137
0.00482859 -0.000196585 5.37971e-07
-0.000196585 0.00118121 3.89579e-07
5.37971e-07 3.89579e-07 0.000158489
0.00401123 0.000123996 -2.55283e-05
0.000123996 0.000647111 -1.62212e-05
-2.55283e-05 -1.62212e-05 0.000173194
0.00370212 -0.000573402 1.21032e-05
-0.000573402 0.00128525 -2.36194e-06
1.21032e-05 -2.36194e-06 0.0014082
0.000689711 -0.000264254 8.33473e-06
-0.000264254 -0.00154869 2.34598e-05
8.33473e-06 2.34598e-05 -0.000691692
0.00113195 4.34846e-05 -2.22471e-06
4.34846e-05 0.00018898 -1.59619e-06
-2.22471e-06 -1.59619e-06 0.0001052
-0.000830179 -7.57541e-05 -4.45816e-05
-7.57541e-05 -0.000394409 -6.13588e-06
-4.45816e-05 -6.13588e-06 -0.000576405
0.00161783 -2.30386e-05 -3.22996e-05
-2.30386e-05 2.47224e-06 -2.98108e-05
-3.22996e-05 -2.98108e-05 -9.0816e-05
0.000784852 0.000121636 -8.64148e-06
0.000121636 -0.000156152 -7.66354e-06
-8.64148e-06 -7.66354e-06 -0.00018979
0.001645 0.000108954 -9.61426e-06
0.000108954 0.000548079 -2.10324e-06
-9.61426e-06 -2.10324e-06 0.000397475
0.000854366 3.43804e-05 -7.82735e-06
3.43804e-05 0.000145027 -4.50426e-06
-7.82735e-06 -4.50426e-06 8.71136e-05
0.00270321 0.000346806 -9.39063e-05
0.000346806 0.000311841 1.39386e-05
-9.39063e-05 1.39386e-05 -9.9903e-05
0.000131178 -0.000265243 2.07393e-05
-0.000265243 -0.000683073 2.20655e-05
2.07393e-05 2.20655e-05 -0.00199
0.00616195 -0.000566115 -5.18655e-05
-0.000566115 0.00163971 -3.54422e-06
-5.18655e-05 -3.54422e-06 0.00183617
0.000624552 -0.000119523 -6.73422e-06
-0.000119523 -0.00151178 -1.19568e-05
-6.73422e-06 -1.19568e-05 -0.000966752
0.000942252 3.34996e-05 2.24475e-07
3.34996e-05 7.77733e-05 6.08178e-07
2.24475e-07 6.08178e-07 -3.91403e-06
0.00107976 5.71396e-05 1.00771e-06
5.71396e-05 0.000149651 6.52289e-07
1.00771e-06 6.52289e-07 7.17979e-05
0.000646841 5.55388e-05 1.0245e-06
5.55388e-05 -5.93263e-05 -2.49165e-06
1.0245e-06 -2.49165e-06 -0.000134066
0.000761694 2.31032e-05 2.04439e-07
2.31032e-05 -3.10644e-05 -4.29627e-07
2.04439e-07 -4.29627e-07 -7.96383e-05
0.000978405 2.92695e-05 -5.10485e-07
2.92695e-05 9.01193e-05 -5.38706e-07
-5.10485e-07 -5.38706e-07 2.8716e-05
0.00105102 -3.28828e-05 -1.14095e-07
-3.28828e-05 0.000126001 9.37182e-09
-1.14095e-07 9.37182e-09 6.26266e-05
0.000875398 -5.33707e-06 -7.23386e-07
-5.33707e-06 4.11499e-05 -4.86547e-07
-7.23386e-07 -4.86547e-07 -2.38287e-05
0.000939142 1.05382e-05 -5.6398e-07
1.05382e-05 7.21771e-05 3.11801e-07
-5.6398e-07 3.11801e-07 1.54084e-06
0.000947627 1.47089e-05 3.96846e-07
1.47089e-05 7.27653e-05 -3.98952e-07
3.96846e-07 -3.98952e-07 1.16698e-05
0.000933387 -7.2215e-06 -4.18571e-08
-7.2215e-06 6.38186e-05 -5.14922e-08
-4.18571e-08 -5.14922e-08 -2.96392e-06
0.000948207 -3.64669e-05 1.66149e-07
-3.64669e-05 6.96974e-05 5.58412e-08
1.66149e-07 5.58412e-08 5.04715e-06
0.000975062 1.77576e-05 2.25774e-08
1.77576e-05 9.13208e-05 1.54364e-07
2.25774e-08 1.54364e-07 2.07532e-05
0.00122725 -2.42693e-05 9.77206e-07
-2.42693e-05 0.00021808 -5.70118e-07
9.77206e-07 -5.70118e-07 0.000150067
0.000948457 -1.69802e-05 -5.29614e-09
-1.69802e-05 6.53579e-05 7.79463e-09
-5.29614e-09 7.79463e-09 -1.5836e-06
0.00095665 3.67066e-06 1.84634e-07
3.67066e-06 7.74174e-05 2.48844e-07
1.84634e-07 2.48844e-07 9.39671e-06
0.000964307 -2.60468e-05 1.1282e-07
-2.60468e-05 8.30773e-05 -5.78397e-07
1.1282e-07 -5.78397e-07 2.21252e-05
0.00087269 2.15978e-05 -2.43623e-07
2.15978e-05 3.04292e-05 -6.4503e-07
-2.43623e-07 -6.4503e-07 -3.15975e-05
0.000935053 -8.51964e-07 2.63378e-07
-8.51964e-07 6.67864e-05 -1.52761e-07
2.63378e-07 -1.52761e-07 1.01568e-07
0.000898269 3.80972e-05 -6.95596e-08
3.80972e-05 5.06025e-05 -1.10107e-08
-6.95596e-08 -1.10107e-08 -1.30506e-05
0.000983367 3.70103e-05 -5.28018e-07
3.70103e-05 8.74383e-05 -4.67304e-07
-5.28018e-07 -4.67304e-07 2.14063e-05
0.000866717 2.94175e-05 6.33827e-07
2.94175e-05 3.69345e-05 1.03229e-06
6.33827e-07 1.03229e-06 -2.82939e-05
0.000986406 3.50291e-05 4.03881e-07
3.50291e-05 9.23219e-05 2.07337e-07
4.03881e-07 2.07337e-07 2.30932e-05
0.000925113 2.65296e-05 7.21001e-08
2.65296e-05 5.87084e-05 4.31081e-07
7.21001e-08 4.31081e-07 -9.11367e-06
0.00088603 1.30368e-06 8.94357e-07
1.30368e-06 5.12157e-05 5.49916e-07
8.94357e-07 5.49916e-07 -2.95788e-05
0.000803119 -5.08264e-05 -1.63119e-07
-5.08264e-05 3.28844e-05 6.9035e-07
-1.63119e-07 6.9035e-07 -6.4615e-05
0.000752854 9.65423e-07 -2.81915e-07
9.65423e-07 -1.42801e-05 6.07675e-07
-2.81915e-07 6.07675e-07 -9.05546e-05
0.000892804 1.3274e-05 1.29217e-07
1.3274e-05 5.59269e-05 3.84195e-07
1.29217e-07 3.84195e-07 -1.42683e-05
0.000885601 1.53292e-05 1.28792e-07
1.53292e-05 4.39427e-05 1.12271e-06
1.28792e-07 1.12271e-06 -1.55657e-05
0.000891297 1.02691e-05 -1.67447e-07
1.02691e-05 4.69399e-05 -6.19892e-08
-1.67447e-07 -6.19892e-08 -1.09288e-05
0.000870277 1.8335e-05 -4.56742e-07
1.8335e-05 2.70896e-05 7.70239e-07
-4.56742e-07 7.70239e-07 -1.89494e-05
0.000897995 1.23241e-05 3.43916e-07
1.23241e-05 4.94386e-05 -3.3884e-07
3.43916e-07 -3.3884e-07 -7.67467e-06
0.000880177 3.12573e-06 -5.42664e-08
3.12573e-06 3.05811e-05 8.12593e-09
-5.42664e-08 8.12593e-09 -1.50006e-05
0.000843055 1.644e-05 -7.19069e-07
1.644e-05 3.82268e-06 1.69566e-06
-7.19069e-07 1.69566e-06 -2.48323e-05
0.000768494 3.04454e-06 4.33831e-07
3.04454e-06 -3.01563e-05 -7.3506e-07
4.33831e-07 -7.3506e-07 -7.6051e-05
0.000845115 8.70262e-06 -7.86906e-08
8.70262e-06 2.89352e-06 -4.14199e-09
-7.86906e-08 -4.14199e-09 -2.52102e-05
0.00137259 1.57972e-05 -4.4324e-06
1.57972e-05 0.000278036 4.30082e-06
-4.4324e-06 4.30082e-06 0.000279591
0.000839196 3.27453e-07 6.37443e-07
3.27453e-07 -8.57176e-07 -1.61471e-06
6.37443e-07 -1.61471e-06 -2.87401e-05
0.00108186 1.04294e-05 -1.89399e-06
1.04294e-05 0.000120299 6.09341e-07
-1.89399e-06 6.09341e-07 0.000120829
0.00095483 9.27277e-06 -6.57085e-07
9.27277e-06 5.25049e-05 1.55592e-06
-6.57085e-07 1.55592e-06 6.93257e-05
0.00079017 5.02027e-06 2.68224e-07
5.02027e-06 -3.74448e-05 -3.06728e-06
2.68224e-07 -3.06728e-06 -3.80416e-05
0.00213517 5.98504e-06 1.80607e-06
5.98504e-06 0.000682118 1.37059e-08
1.80607e-06 1.37059e-08 0.000704815
0.00213019 -1.23775e-07 1.02286e-06
-1.23775e-07 0.000678975 -4.02846e-06
1.02286e-06 -4.02846e-06 0.000701807
0.0011144 2.4317e-05 -8.81706e-07
2.4317e-05 0.000158002 -3.46993e-07
-8.81706e-07 -3.46993e-07 0.000116128
0.000854484 -4.27017e-06 -2.06544e-07
-4.27017e-06 4.76851e-06 -1.53101e-06
-2.06544e-07 -1.53101e-06 -1.86548e-05
0.000878386 2.78698e-06 6.59044e-07
2.78698e-06 3.4296e-05 4.49449e-07
6.59044e-07 4.49449e-07 -8.76326e-06
0.000801426 -4.81067e-07 -9.77672e-08
-4.81067e-07 -3.35516e-05 -3.05132e-06
-9.77672e-08 -3.05132e-06 -3.09193e-05
0.000855289 -1.15859e-06 2.98975e-08
-1.15859e-06 4.27196e-06 1.84384e-09
2.98975e-08 1.84384e-09 -1.88685e-05
0.000852042 2.18791e-06 -1.87579e-07
2.18791e-06 2.48432e-06 1.59631e-06
-1.87579e-07 1.59631e-06 -2.12191e-05
0.000798345 4.76649e-06 -1.29332e-07
4.76649e-06 -3.4761e-05 9.43584e-09
-1.29332e-07 9.43584e-09 -3.25881e-05
0.00203032 6.12616e-06 2.91982e-06
6.12616e-06 0.000625867 -3.9574e-06
2.91982e-06 -3.9574e-06 0.000649794
0.00132183 1.23719e-05 -7.74183e-07
1.23719e-05 0.00024668 1.89346e-06
-7.74183e-07 1.89346e-06 0.000250592
0.00151532 1.14092e-05 1.92949e-06
1.14092e-05 0.000352295 3.06806e-08
1.92949e-06 3.06806e-08 0.000372755
0.00103305 1.40212e-05 -1.17008e-05
1.40212e-05 9.74886e-05 6.3678e-06
-1.17008e-05 6.3678e-06 0.000114125
-0.00425414 0.000119805 -1.63284e-05
0.000119805 -0.00213098 5.95473e-06
-1.63284e-05 5.95473e-06 -0.00205929
-0.00108894 0.000220527 -8.67707e-06
0.000220527 -0.00080708 1.28735e-05
-8.67707e-06 1.28735e-05 -0.000609742
0.000551109 -2.35244e-05 -9.28322e-05
-2.35244e-05 -0.000572404 -9.32923e-06
-9.28322e-05 -9.32923e-06 -0.000789145
0.00254002 -4.24142e-05 2.09143e-06
-4.24142e-05 0.000519978 -3.6581e-07
2.09143e-06 -3.6581e-07 0.000427825
0.00144062 1.40377e-05 -9.12102e-06
1.40377e-05 -0.000200505 -7.99001e-07
-9.12102e-06 -7.99001e-07 -0.000281675
0.00115888 -2.42043e-05 2.29301e-05
-2.42043e-05 -2.51488e-05 -2.35573e-06
2.29301e-05 -2.35573e-06 -0.000265912
0.00208576 3.72286e-05 1.20151e-07
3.72286e-05 0.000284624 1.62393e-06
1.20151e-07 1.62393e-06 0.000198458
0.00522218 0.0002618 -2.11834e-05
0.0002618 0.00135264 -5.59009e-06
-2.11834e-05 -5.59009e-06 0.000695336
-0.0032308 0.000258233 -1.02073e-05
0.000258233 -0.00137307 -2.23482e-06
-1.02073e-05 -2.23482e-06 -0.00134498
5.7341e-05 0.0004778 4.21103e-06
0.0004778 -0.00103565 -6.5111e-06
4.21103e-06 -6.5111e-06 2.43557e-05
0.00156247 -5.48378e-06 4.95682e-05
-5.48378e-06 0.000166923 -1.02812e-05
4.95682e-05 -1.02812e-05 -7.1539e-05
0.00622546 0.000422015 -2.59436e-06
0.000422015 0.00183208 -8.76016e-06
-2.59436e-06 -8.76016e-06 0.000961273
-8.46151e-05 0.000436298 -4.04296e-05
0.000436298 -0.000313968 1.3583e-05
-4.04296e-05 1.3583e-05 3.79396e-05
0.00292785 0.000256726 -4.07649e-05
0.000256726 -2.32476e-05 2.20517e-05
-4.07649e-05 2.20517e-05 0.000613352
0.000863462 3.23969e-05 -6.49364e-07
3.23969e-05 4.50655e-05 -1.62813e-07
-6.49364e-07 -1.62813e-07 -2.408e-05
0.000800474 -1.23007e-05 1.14603e-07
-1.23007e-05 3.95315e-06 -3.49537e-07
1.14603e-07 -3.49537e-07 -5.10351e-05
0.000876151 -4.15642e-05 -7.98455e-07
-4.15642e-05 3.32835e-05 8.1765e-07
-7.98455e-07 8.1765e-07 -9.96455e-06
0.000796968 6.91465e-06 1.8754e-07
6.91465e-06 1.75011e-06 2.70336e-07
1.8754e-07 2.70336e-07 -5.46155e-05
0.000894608 4.50322e-05 7.43786e-07
4.50322e-05 6.35644e-05 7.61968e-07
7.43786e-07 7.61968e-07 -1.70575e-06
0.000935596 2.98018e-05 -6.58953e-07
2.98018e-05 8.23695e-05 3.19032e-07
-6.58953e-07 3.19032e-07 1.41134e-05
0.000901688 3.44239e-05 1.11353e-06
3.44239e-05 6.42247e-05 1.00713e-06
1.11353e-06 1.00713e-06 -1.2758e-06
0.000863553 -1.64829e-05 6.47517e-07
-1.64829e-05 3.73637e-05 2.02417e-07
6.47517e-07 2.02417e-07 -2.36053e-05
0.000858587 -2.60911e-05 3.70474e-07
-2.60911e-05 3.71275e-05 -5.53186e-07
3.70474e-07 -5.53186e-07 -2.09794e-05
0.000780998 -3.77349e-05 -2.44631e-07
-3.77349e-05 -3.19456e-06 5.4457e-07
-2.44631e-07 5.4457e-07 -6.04994e-05
0.00147243 6.63205e-06 -6.57124e-07
6.63205e-06 -0.000155817 -1.11091e-06
-6.57124e-07 -1.11091e-06 -0.000239626
0.00196089 -0.000136343 -4.30001e-06
-0.000136343 6.35178e-05 3.93207e-06
-4.30001e-06 3.93207e-06 -1.48124e-05
0.000351453 -0.000109937 3.84307e-06
-0.000109937 -0.000453857 2.38613e-06
3.84307e-06 2.38613e-06 -0.0005671
0.00128173 -0.000132257 2.38049e-06
-0.000132257 0.000263292 -3.14168e-07
2.38049e-06 -3.14168e-07 0.000116355
0.00111977 -4.05237e-05 2.49991e-06
-4.05237e-05 0.000202206 -9.68979e-07
2.49991e-06 -9.68979e-07 7.86904e-05
0.00101524 -4.16317e-05 -2.5356e-07
-4.16317e-05 0.000119719 -4.81337e-07
-2.5356e-07 -4.81337e-07 3.68888e-05
0.000876672 -2.0839e-05 -9.13574e-07
-2.0839e-05 4.7032e-05 -1.25224e-07
-9.13574e-07 -1.25224e-07 -2.38845e-05
0.000892529 2.28022e-05 -5.51588e-07
2.28022e-05 6.01092e-05 1.59074e-07
-5.51588e-07 1.59074e-07 -1.0967e-05
0.00178461 -6.54674e-05 -5.89803e-06
-6.54674e-05 5.63139e-05 1.96337e-06
-5.89803e-06 1.96337e-06 -1.83416e-05
0.000811912 -2.91827e-05 -1.76662e-07
-2.91827e-05 1.74689e-05 8.96622e-08
-1.76662e-07 8.96622e-08 -5.95614e-05
0.000907684 -4.74519e-05 6.02065e-07
-4.74519e-05 6.26809e-05 -3.20425e-07
6.02065e-07 -3.20425e-07 -1.8664e-05
0.00193703 -0.000196088 1.26622e-06
-0.000196088 0.000166588 -9.40033e-07
1.26622e-06 -9.40033e-07 6.38538e-05
0.000509895 -0.00011398 1.48508e-06
-0.00011398 -0.000168045 1.81165e-06
1.48508e-06 1.81165e-06 -0.000294787
0.00117476 -8.18102e-05 1.38489e-06
-8.18102e-05 0.000222726 -4.09305e-07
1.38489e-06 -4.09305e-07 8.22833e-05
0.0010552 -3.2202e-05 -6.44121e-07
-3.2202e-05 0.000143896 -3.42064e-07
-6.44121e-07 -3.42064e-07 4.5471e-05
0.00271397 -0.000194992 1.36443e-07
-0.000194992 0.000648366 -1.38778e-06
1.36443e-07 -1.38778e-06 0.000574283
0.00209364 -0.000208449 -7.30036e-06
-0.000208449 0.000512411 -1.40679e-06
-7.30036e-06 -1.40679e-06 0.000393916
0.000880408 -1.02789e-05 -3.83916e-06
-1.02789e-05 8.96803e-05 3.78274e-06
-3.83916e-06 3.78274e-06 -4.16274e-05
0.000885271 2.75103e-05 4.3486e-07
2.75103e-05 5.63411e-05 1.0159e-06
4.3486e-07 1.0159e-06 -2.12644e-05
0.000870824 -7.76748e-05 1.1857e-06
-7.76748e-05 4.34184e-05 7.24235e-08
1.1857e-06 7.24235e-08 -4.19607e-05
0.00102274 -3.74878e-05 2.32967e-07
-3.74878e-05 0.000108691 1.51127e-06
2.32967e-07 1.51127e-06 2.23945e-05
0.00111598 1.02477e-06 -4.462e-05
1.02477e-06 0.000761232 1.21077e-06
-4.462e-05 1.21077e-06 0.000677255
0.00131213 -1.11415e-05 1.296e-05
-1.11415e-05 0.000653776 2.32766e-06
1.296e-05 2.32766e-06 0.000607335
0.000232245 0.000156538 -4.46377e-05
0.000156538 -0.000996607 1.61612e-05
-4.46377e-05 1.61612e-05 -0.0015406
0.000972012 7.74236e-05 5.68328e-07
7.74236e-05 0.000112776 5.39572e-07
5.68328e-07 5.39572e-07 1.95359e-05
0.000793171 7.39558e-05 2.87478e-06
7.39558e-05 6.49429e-05 1.12794e-07
2.87478e-06 1.12794e-07 -5.94061e-05
0.00310401 0.000178672 1.69419e-06
0.000178672 0.000685383 -1.15231e-06
1.69419e-06 -1.15231e-06 0.000704513
0.000153846 8.40342e-05 4.96379e-06
8.40342e-05 -0.000307652 7.878e-07
4.96379e-06 7.878e-07 -0.00050568
0.00314775 -0.000271598 4.74476e-05
-0.000271598 0.00133486 9.14155e-06
4.74476e-05 9.14155e-06 0.00150033
0.00102419 -0.000273273 8.05709e-06
-0.000273273 -0.000588565 1.84274e-05
8.05709e-06 1.84274e-05 -0.00136234
0.00475521 0.000165398 -7.69859e-05
0.000165398 0.00079802 -5.5347e-05
-7.69859e-05 -5.5347e-05 0.000177679
-0.001263 8.75036e-05 5.49032e-06
8.75036e-05 -0.00121661 1.36269e-06
5.49032e-06 1.36269e-06 -0.00117318
-0.00223919 -0.000339033 5.38374e-05
-0.000339033 -0.00130397 2.49165e-05
5.38374e-05 2.49165e-05 -0.00122107
0.00155222 -0.000245455 3.37494e-05
-0.000245455 0.000511685 1.66961e-05
3.37494e-05 1.66961e-05 0.000688053
0.0033548 -0.000322143 3.99759e-05
-0.000322143 4.59414e-05 2.30411e-05
3.99759e-05 2.30411e-05 0.00100359
0.00100133 5.48946e-05 2.23899e-07
5.48946e-05 0.000126036 -2.00029e-07
2.23899e-07 -2.00029e-07 4.08842e-05
8.94438e-05 -9.66908e-05 -1.57475e-05
-9.66908e-05 5.06995e-05 -3.03836e-06
-1.57475e-05 -3.03836e-06 -4.41595e-06
0.0018828 -2.22016e-05 -2.99813e-06
-2.22016e-05 0.00015026 -8.44603e-06
-2.99813e-06 -8.44603e-06 5.91054e-05
0.00124461 0.000109976 -2.95206e-06
0.000109976 0.000109549 -2.96807e-07
-2.95206e-06 -2.96807e-07 3.138e-05
0.000816484 5.91902e-05 -1.49481e-06
5.91902e-05 0.000140394 -5.44331e-07
-1.49481e-06 -5.44331e-07 -1.73713e-05
0.000551794 5.61063e-05 9.92175e-06
5.61063e-05 -3.50562e-06 -1.06013e-05
9.92175e-06 -1.06013e-05 -4.33352e-05
0.00555912 0.000477927 -3.39833e-05
0.000477927 0.00155161 -1.3893e-05
-3.39833e-05 -1.3893e-05 0.000926232
0.00774042 -0.000367527 4.64124e-06
-0.000367527 0.00253109 4.21645e-06
4.64124e-06 4.21645e-06 0.00143572
0.000326344 -0.00032356 5.67e-06
-0.00032356 -0.00104532 7.99144e-06
5.67e-06 7.99144e-06 -0.00084472
0.00327774 -0.000162187 2.08575e-06
-0.000162187 0.000169544 1.15984e-06
2.08575e-06 1.15984e-06 0.000751046
0.00141122 0.000102243 -4.09873e-06
0.000102243 0.000370506 -5.54211e-06
-4.09873e-06 -5.54211e-06 0.000299836
0.00187346 -1.69831e-06 -2.09588e-05
-1.69831e-06 0.000320182 -4.4216e-06
-2.09588e-05 -4.4216e-06 0.000204517
0.00139899 -6.06717e-06 -5.19831e-06
-6.06717e-06 3.75482e-05 -1.40923e-05
-5.19831e-06 -1.40923e-05 -2.1911e-05
4.19765e-05 -3.27708e-05 -1.36465e-05
-3.27708e-05 -0.000142522 -9.49571e-06
-1.36465e-05 -9.49571e-06 -0.000258119
0.00307075 0.000264193 -1.13375e-05
0.000264193 0.0011109 4.85849e-05
-1.13375e-05 4.85849e-05 0.000731049
0.00834196 -0.00022442 1.52809e-05
-0.00022442 0.00249668 -9.1771e-06
1.52809e-05 -9.1771e-06 0.00117357
-0.00204189 -0.00017579 -4.37361e-05
-0.00017579 -0.00229375 -3.31625e-05
-4.37361e-05 -3.31625e-05 -0.00239942
0.00384578 3.08432e-05 -3.79405e-07
3.08432e-05 0.000512359 -1.858e-05
-3.79405e-07 -1.858e-05 0.00107347
0.000932297 5.57607e-05 9.56453e-08
5.57607e-05 7.26343e-05 7.99858e-07
9.56453e-08 7.99858e-07 -6.02864e-06
0.000936071 6.82716e-05 -2.60075e-07
6.82716e-05 8.64255e-05 -7.00127e-07
-2.60075e-07 -7.00127e-07 1.29005e-05
0.000587751 4.11547e-05 1.17881e-06
4.11547e-05 -8.89945e-05 -2.12482e-06
1.17881e-06 -2.12482e-06 -0.000151415
0.000945398 4.97639e-05 -8.9756e-07
4.97639e-05 6.93547e-05 -9.26626e-07
-8.9756e-07 -9.26626e-07 9.63994e-06
0.000935458 -2.3239e-05 9.96384e-08
-2.3239e-05 6.47261e-05 -6.13598e-08
9.96384e-08 -6.13598e-08 -1.38631e-06
0.00100078 -9.9911e-06 -7.72314e-07
-9.9911e-06 0.000101033 1.24286e-07
-7.72314e-07 1.24286e-07 3.43484e-05
0.000897083 3.10422e-06 -4.49073e-07
3.10422e-06 5.22272e-05 4.79347e-07
-4.49073e-07 4.79347e-07 -1.73742e-05
0.000963292 8.60463e-06 3.38171e-07
8.60463e-06 7.73527e-05 1.21532e-09
3.38171e-07 1.21532e-09 1.17962e-05
0.000946318 -9.92771e-06 -1.92271e-07
-9.92771e-06 6.46978e-05 1.31842e-07
-1.92271e-07 1.31842e-07 -2.20409e-06
0.000992703 -1.60965e-05 2.9088e-07
-1.60965e-05 9.85243e-05 3.98567e-07
2.9088e-07 3.98567e-07 2.96771e-05
0.00117749 -3.57253e-05 1.29463e-07
-3.57253e-05 0.000200553 7.82991e-07
1.29463e-07 7.82991e-07 0.000142266
0.00100766 -4.23988e-05 1.4169e-06
-4.23988e-05 8.50674e-05 -1.52663e-07
1.4169e-06 -1.52663e-07 2.19709e-05
0.000890854 3.38792e-05 1.0394e-06
3.38792e-05 4.06907e-05 4.22997e-07
1.0394e-06 4.22997e-07 -2.83004e-05
0.000934705 -1.69276e-05 7.97214e-07
-1.69276e-05 6.52626e-05 -3.58772e-07
7.97214e-07 -3.58772e-07 -2.66316e-07
0.000882663 3.86948e-05 -2.17556e-07
3.86948e-05 4.2667e-05 -5.20515e-07
-2.17556e-07 -5.20515e-07 -2.10554e-05
0.000926701 2.91419e-05 -7.01371e-07
2.91419e-05 5.55538e-05 -7.3886e-07
-7.01371e-07 -7.3886e-07 -9.54312e-06
0.000972428 3.3897e-05 -2.24979e-07
3.3897e-05 8.33694e-05 -1.71978e-07
-2.24979e-07 -1.71978e-07 1.53951e-05
0.000884053 3.25004e-05 2.64621e-07
3.25004e-05 4.77668e-05 3.52752e-07
2.64621e-07 3.52752e-07 -1.82529e-05
0.000919059 3.54606e-05 5.44707e-08
3.54606e-05 5.55455e-05 -1.87762e-07
5.44707e-08 -1.87762e-07 -1.23576e-05
0.000874668 1.67975e-05 1.0925e-06
1.67975e-05 4.04382e-05 1.18457e-06
1.0925e-06 1.18457e-06 -3.17612e-05
0.000944893 2.33022e-05 2.62415e-07
2.33022e-05 6.14362e-05 6.86634e-07
2.62415e-07 6.86634e-07 -5.69831e-06
0.000905703 -4.53366e-05 1.18388e-07
-4.53366e-05 7.39237e-05 5.92212e-07
1.18388e-07 5.92212e-07 -1.27429e-05
0.000977033 -6.07492e-06 -2.89954e-07
-6.07492e-06 9.87336e-05 -4.7301e-08
-2.89954e-07 -4.7301e-08 1.79942e-05
0.000788776 -4.0781e-05 -3.94326e-08
-4.0781e-05 2.35956e-05 2.45001e-06
-3.94326e-08 2.45001e-06 -7.03067e-05
0.00102348 -9.3158e-05 -1.84832e-06
-9.3158e-05 0.000133909 3.3238e-06
-1.84832e-06 3.3238e-06 2.29972e-05
0.00107126 -3.32455e-05 4.52904e-07
-3.32455e-05 0.000155943 -1.55524e-07
4.52904e-07 -1.55524e-07 7.21398e-05
0.00080856 -5.37821e-05 3.68079e-07
-5.37821e-05 3.7136e-05 -1.85847e-06
3.68079e-07 -1.85847e-06 -5.81236e-05
0.000911831 1.73602e-07 -2.05557e-07
1.73602e-07 6.88869e-05 -5.81082e-07
-2.05557e-07 -5.81082e-07 -6.15127e-06
0.000773413 7.86822e-06 2.689e-07
7.86822e-06 -1.40494e-05 1.15491e-06
2.689e-07 1.15491e-06 -7.91238e-05
0.000916105 1.29245e-05 -2.59382e-07
1.29245e-05 6.92408e-05 -7.14643e-07
-2.59382e-07 -7.14643e-07 -1.30552e-06
0.000898029 6.85777e-06 1.00133e-08
6.85777e-06 5.07642e-05 3.54367e-07
1.00133e-08 3.54367e-07 -8.98343e-06
0.000866215 1.95019e-05 -5.35234e-07
1.95019e-05 2.63304e-05 9.28125e-07
-5.35234e-07 9.28125e-07 -2.10758e-05
0.000900799 -5.91787e-06 1.81216e-07
-5.91787e-06 5.36587e-05 -6.1566e-07
1.81216e-07 -6.1566e-07 -5.40813e-06
0.000872631 3.24899e-06 -2.79759e-07
3.24899e-06 2.85025e-05 7.50457e-09
-2.79759e-07 7.50457e-09 -1.77748e-05
0.000837851 1.95976e-05 -9.23019e-07
1.95976e-05 4.34221e-06 1.71828e-06
-9.23019e-07 1.71828e-06 -2.52025e-05
0.000890701 -5.10436e-06 9.46213e-07
-5.10436e-06 3.62464e-05 -7.58731e-07
9.46213e-07 -7.58731e-07 -9.5704e-06
0.000844808 1.19792e-05 -1.45484e-07
1.19792e-05 4.36332e-06 1.27553e-09
-1.45484e-07 1.27553e-09 -2.41665e-05
0.00136671 2.11291e-05 -6.0946e-06
2.11291e-05 0.000278427 4.29302e-06
-6.0946e-06 4.29302e-06 0.000279335
0.000841937 3.52175e-06 9.4739e-07
3.52175e-06 1.00001e-06 -1.65626e-06
9.4739e-07 -1.65626e-06 -2.70018e-05
0.00107764 1.54171e-05 -2.53562e-06
1.54171e-05 0.000120649 5.84208e-07
-2.53562e-06 5.84208e-07 0.00012077
0.00095 1.43255e-05 -1.1875e-06
1.43255e-05 5.32569e-05 1.56932e-06
-1.1875e-06 1.56932e-06 6.95059e-05
0.000787124 9.60339e-06 5.10656e-07
9.60339e-06 -3.75632e-05 -3.10615e-06
5.10656e-07 -3.10615e-06 -3.84052e-05
0.00154486 1.16128e-05 3.90116e-06
1.16128e-05 0.000367925 -1.1938e-06
3.90116e-06 -1.1938e-06 0.000387552
0.00213412 6.70225e-06 4.5761e-06
6.70225e-06 0.000681831 -3.99625e-06
4.5761e-06 -3.99625e-06 0.000704492
0.000932453 -2.49334e-05 7.04639e-07
-2.49334e-05 6.21823e-05 -3.68545e-07
7.04639e-07 -3.68545e-07 1.73885e-05
0.000851459 -7.9013e-06 -2.63127e-07
-7.9013e-06 5.09344e-06 -1.44253e-06
-2.63127e-07 -1.44253e-06 -1.94151e-05
0.00091889 -7.36336e-06 4.40668e-07
-7.36336e-06 5.51575e-05 1.49833e-07
4.40668e-07 1.49833e-07 1.22415e-05
0.00080524 -5.3912e-06 -3.44266e-07
-5.3912e-06 -3.06048e-05 -3.01724e-06
-3.44266e-07 -3.01724e-06 -2.82891e-05
0.000855369 -4.818e-06 -2.97367e-08
-4.818e-06 5.20647e-06 -4.7862e-09
-2.97367e-08 -4.7862e-09 -1.82166e-05
0.00088859 -2.66484e-05 -8.9822e-07
-2.66484e-05 3.76077e-05 1.04899e-06
-8.9822e-07 1.04899e-06 -3.92428e-06
0.00201775 -4.5406e-07 -7.228e-07
-4.5406e-07 0.00061891 -3.957e-06
-7.228e-07 -3.957e-06 0.000643021
0.000800098 -2.47184e-07 -7.60097e-08
-2.47184e-07 -3.43181e-05 1.21338e-09
-7.60097e-08 1.21338e-09 -3.16798e-05
0.000855898 -1.65183e-06 3.50508e-08
-1.65183e-06 4.50993e-06 1.58929e-06
3.50508e-08 1.58929e-06 -1.86204e-05
0.000802012 4.96163e-06 -2.27713e-07
4.96163e-06 -3.27945e-05 3.08291e-06
-2.27713e-07 3.08291e-06 -3.06654e-05
0.00203327 6.48821e-06 -1.92106e-06
6.48821e-06 0.000627625 -1.41077e-08
-1.92106e-06 -1.41077e-08 0.000651482
0.00206274 1.27589e-05 -8.72484e-06
1.27589e-05 0.000644829 3.93129e-06
-8.72484e-06 3.93129e-06 0.000668125
-0.00107415 7.96154e-05 -2.3945e-05
7.96154e-05 -0.000475944 1.50651e-06
-2.3945e-05 1.50651e-06 -0.000626747
-0.00107449 0.000230998 9.24404e-06
0.000230998 -0.000415918 2.13638e-06
9.24404e-06 2.13638e-06 -0.000431178
0.0017479 4.65692e-05 -4.25939e-05
4.65692e-05 6.11921e-06 2.28328e-05
-4.25939e-05 2.28328e-05 -3.56305e-05
-0.00124336 0.000252205 2.75738e-05
0.000252205 -0.000845579 -9.58574e-06
2.75738e-05 -9.58574e-06 -0.000617873
0.00194458 3.31517e-05 -7.91727e-05
3.31517e-05 0.000231858 4.04336e-07
-7.91727e-05 4.04336e-07 -7.81292e-05
0.00183413 3.45976e-05 2.64123e-05
3.45976e-05 0.000169413 -4.12318e-06
2.64123e-05 -4.12318e-06 8.52928e-05
0.00123357 -8.60651e-05 -4.93172e-05
-8.60651e-05 -0.000416485 -4.40535e-06
-4.93172e-05 -4.40535e-06 -0.000965891
0.00524845 0.000411729 8.00214e-05
0.000411729 0.00253047 -2.60368e-05
8.00214e-05 -2.60368e-05 0.00263505
-0.00148423 0.000509069 1.52171e-05
0.000509069 -0.00215276 1.57565e-05
1.52171e-05 1.57565e-05 -0.000889518
0.00127725 6.60497e-05 -2.48231e-06
6.60497e-05 -0.000102402 2.817e-06
-2.48231e-06 2.817e-06 -0.000316037
0.00259733 0.000286088 8.79317e-06
0.000286088 0.000196178 -1.55164e-05
8.79317e-06 -1.55164e-05 -0.00090077
0.00401447 0.000618739 -4.92361e-06
0.000618739 0.00111524 -4.82007e-06
-4.92361e-06 -4.82007e-06 0.00143709
0.00207441 0.000260855 -2.75748e-06
0.000260855 -0.000556097 4.15341e-06
-2.75748e-06 4.15341e-06 7.1739e-05
0.00169271 7.34713e-06 -1.63128e-05
7.34713e-06 -0.000253688 -1.43811e-06
-1.63128e-05 -1.43811e-06 -0.000451831
0.0031244 0.000400343 5.5778e-05
0.000400343 0.000592607 -3.70008e-05
5.5778e-05 -3.70008e-05 -0.00060546
-0.00352229 0.000247174 -7.93186e-05
0.000247174 -0.00292468 2.51092e-05
-7.93186e-05 2.51092e-05 -0.00276175
0.00107275 0.00013882 -1.07042e-05
0.00013882 -0.00130066 1.61275e-05
-1.07042e-05 1.61275e-05 -0.000774489
0.000983841 -1.43451e-05 1.08774e-06
-1.43451e-05 0.000109162 2.90881e-07
1.08774e-06 2.90881e-07 3.27621e-05
0.000923646 3.10075e-05 -1.2415e-06
3.10075e-05 7.64973e-05 -3.6002e-07
-1.2415e-06 -3.6002e-07 8.50778e-06
0.00087676 3.76248e-06 7.57995e-07
3.76248e-06 4.4091e-05 -1.67704e-07
7.57995e-07 -1.67704e-07 -1.07906e-05
0.000921868 5.01755e-05 1.74346e-06
5.01755e-05 7.90704e-05 7.75168e-07
1.74346e-06 7.75168e-07 1.44037e-05
0.000848431 1.10704e-05 -1.9203e-07
1.10704e-05 3.63126e-05 6.23743e-07
-1.9203e-07 6.23743e-07 -3.9149e-05
0.000968059 2.98814e-05 1.64146e-07
2.98814e-05 0.000100312 5.28446e-07
1.64146e-07 5.28446e-07 3.21749e-05
0.000871271 -4.92801e-06 -3.06569e-07
-4.92801e-06 4.54036e-05 1.10262e-06
-3.06569e-07 1.10262e-06 -1.83872e-05
0.000982543 5.39124e-05 -7.49968e-07
5.39124e-05 0.00010492 1.98462e-07
-7.49968e-07 1.98462e-07 3.80625e-05
0.000964484 2.06769e-05 -3.47182e-07
2.06769e-05 9.5156e-05 3.49429e-07
-3.47182e-07 3.49429e-07 3.17294e-05
0.000801649 -2.24575e-05 -8.34833e-07
-2.24575e-05 8.22254e-06 -3.21832e-07
-8.34833e-07 -3.21832e-07 -5.16726e-05
0.00116235 -5.43849e-05 5.15936e-06
-5.43849e-05 -0.000256169 -9.24256e-07
5.15936e-06 -9.24256e-07 -0.000334878
0.00168183 -0.000178882 4.37361e-07
-0.000178882 5.69873e-05 4.1896e-06
4.37361e-07 4.1896e-06 -4.44344e-05
0.000726718 -0.000119344 9.6849e-06
-0.000119344 -4.05119e-05 6.14161e-07
9.6849e-06 6.14161e-07 -0.000166035
0.00100665 -7.41666e-05 4.3803e-06
-7.41666e-05 0.000127614 -1.46101e-06
4.3803e-06 -1.46101e-06 -8.41621e-06
0.00107111 -2.22534e-05 3.65012e-07
-2.22534e-05 0.00015538 -1.00383e-06
3.65012e-07 -1.00383e-06 5.18353e-05
0.00083344 -4.92135e-05 -5.99396e-07
-4.92135e-05 2.51073e-05 -5.65826e-07
-5.99396e-07 -5.65826e-07 -5.86928e-05
0.000864953 3.77772e-05 -8.23571e-08
3.77772e-05 4.46274e-05 -1.39507e-07
-8.23571e-08 -1.39507e-07 -3.30962e-05
0.000919732 -2.16906e-05 1.06253e-08
-2.16906e-05 7.58667e-05 5.72542e-07
1.06253e-08 5.72542e-07 -2.9865e-06
0.00169131 -0.000161503 1.93817e-07
-0.000161503 0.000145946 -2.79284e-07
1.93817e-07 -2.79284e-07 8.42695e-05
0.000976358 -2.40017e-06 -2.01648e-07
-2.40017e-06 9.93229e-05 -3.86606e-07
-2.01648e-07 -3.86606e-07 1.47699e-05
0.00107392 -3.64046e-05 -4.31566e-07
-3.64046e-05 0.000137644 -1.07542e-07
-4.31566e-07 -1.07542e-07 4.91967e-05
0.00155508 -0.000180976 -1.49865e-07
-0.000180976 0.000256754 -1.80046e-06
-1.49865e-07 -1.80046e-06 0.000131605
0.00108823 -2.76808e-05 -9.94583e-07
-2.76808e-05 0.000180946 9.46043e-07
-9.94583e-07 9.46043e-07 5.2639e-05
-0.000188363 -0.000186771 -1.2233e-06
-0.000186771 -0.000834962 -7.53541e-06
-1.2233e-06 -7.53541e-06 -0.000758163
0.00182243 -7.69003e-05 -3.39107e-06
-7.69003e-05 0.000575262 9.14731e-06
-3.39107e-06 9.14731e-06 0.000411449
0.000561199 1.99274e-05 -2.09707e-06
1.99274e-05 -0.000127979 4.95763e-06
-2.09707e-06 4.95763e-06 -0.000215936
0.000926929 8.82394e-06 3.50332e-07
8.82394e-06 6.48328e-05 7.68283e-07
3.50332e-07 7.68283e-07 -1.42165e-05
0.000910459 2.12806e-05 -5.71518e-07
2.12806e-05 5.17762e-05 1.04254e-06
-5.71518e-07 1.04254e-06 -3.77686e-05
0.00162531 -3.2291e-06 -6.90118e-06
-3.2291e-06 0.000217501 7.36155e-07
-6.90118e-06 7.36155e-07 0.000109058
2.37632e-05 -3.21484e-06 -4.6704e-06
-3.21484e-06 0.000179587 -9.75305e-07
-4.6704e-06 -9.75305e-07 4.40323e-05
-0.00482756 -4.79031e-05 1.02572e-05
-4.79031e-05 -0.00253187 4.30084e-06
1.02572e-05 4.30084e-06 -0.00242643
0.000913737 6.83573e-05 1.76197e-06
6.83573e-05 8.63279e-05 1.05044e-06
1.76197e-06 1.05044e-06 -5.19363e-07
0.000133137 1.92356e-05 3.40317e-06
1.92356e-05 -0.000194415 7.98269e-07
3.40317e-06 7.98269e-07 -0.000357764
0.00134476 8.51033e-05 7.50411e-06
8.51033e-05 0.000176915 -1.14942e-06
7.50411e-06 -1.14942e-06 7.91439e-05
-0.0013046 -5.04391e-05 1.63542e-05
-5.04391e-05 -0.000662453 2.30295e-06
1.63542e-05 2.30295e-06 -0.000825618
0.00291851 -0.000390491 1.27426e-05
-0.000390491 0.000466136 5.89736e-06
1.27426e-05 5.89736e-06 -0.000827162
0.00524173 0.00043775 8.56701e-05
0.00043775 0.00143225 -3.20129e-05
8.56701e-05 -3.20129e-05 0.00097289
-0.000165782 5.04595e-05 -1.27461e-05
5.04595e-05 -0.000388917 1.03178e-05
-1.27461e-05 1.03178e-05 -0.000391329
0.00516365 -0.000526178 4.34483e-05
-0.000526178 0.00141145 4.13183e-05
4.34483e-05 4.13183e-05 0.00148913
0.00201561 -2.08043e-05 2.45091e-05
-2.08043e-05 0.000210555 1.19759e-05
2.45091e-05 1.19759e-05 0.000120975
0.00284038 -0.000141953 1.50875e-05
-0.000141953 7.56444e-06 1.24276e-05
1.50875e-05 1.24276e-05 0.000576107
0.00116105 9.20018e-05 8.2566e-07
9.20018e-05 0.000245756 -7.33916e-07
8.2566e-07 -7.33916e-07 0.000175476
0.00155616 -2.41814e-07 2.56544e-07
-2.41814e-07 0.000158395 -3.0196e-06
2.56544e-07 -3.0196e-06 5.9139e-05
0.00147737 -7.23374e-06 -2.68917e-06
-7.23374e-06 6.76068e-05 -1.83352e-06
-2.68917e-06 -1.83352e-06 1.13401e-05
-5.13082e-05 1.38571e-05 1.78299e-06
1.38571e-05 -0.000188518 3.66949e-07
1.78299e-06 3.66949e-07 -0.000306924
0.00303747 0.00032197 -2.57191e-05
0.00032197 0.000806042 -2.29469e-05
-2.57191e-05 -2.29469e-05 0.000497172
0.00453349 8.46659e-05 3.44566e-05
8.46659e-05 0.000821851 9.09381e-06
3.44566e-05 9.09381e-06 -0.000647275
0.00234023 1.61091e-05 1.24388e-06
1.61091e-05 -0.000458268 -6.96314e-06
1.24388e-06 -6.96314e-06 0.000124139
0.00101498 -0.000215375 -8.32301e-06
-0.000215375 -0.000644173 2.03033e-05
-8.32301e-06 2.03033e-05 -0.000706556
0.00111194 4.39351e-05 -2.23158e-06
4.39351e-05 0.00028744 -9.13088e-06
-2.23158e-06 -9.13088e-06 0.000247145
0.000878404 4.41836e-06 4.34406e-06
4.41836e-06 3.03778e-05 4.88739e-06
4.34406e-06 4.88739e-06 -2.82979e-05
0.00154318 2.31891e-06 -3.954e-06
2.31891e-06 0.000165611 -7.02669e-06
-3.954e-06 -7.02669e-06 8.65749e-05
0.00110821 0.000127763 1.01797e-05
0.000127763 -0.00118986 -1.72389e-05
1.01797e-05 -1.72389e-05 -0.000730913
-0.00124164 6.89056e-05 9.17602e-06
6.89056e-05 -0.000632998 -5.79309e-06
9.17602e-06 -5.79309e-06 -0.000850559
0.00737069 -1.31818e-05 4.51149e-05
-1.31818e-05 0.00212029 1.03221e-05
4.51149e-05 1.03221e-05 0.000908655
-0.000893337 -2.79413e-05 1.29004e-05
-2.79413e-05 -0.000984237 -5.58449e-05
1.29004e-05 -5.58449e-05 -0.000978846
0.00122929 8.84452e-05 1.89004e-06
8.84452e-05 0.000234462 3.02231e-06
1.89004e-06 3.02231e-06 0.00016164
0.00075003 5.77075e-05 -8.95713e-07
5.77075e-05 -1.21234e-05 1.61224e-06
-8.95713e-07 1.61224e-06 -7.79756e-05
0.000691976 2.49511e-05 -7.42561e-07
2.49511e-05 -1.15606e-05 -2.89226e-06
-7.42561e-07 -2.89226e-06 -7.1563e-05
0.00096602 6.16652e-05 -3.12886e-07
6.16652e-05 7.9931e-05 -2.80918e-07
-3.12886e-07 -2.80918e-07 1.36753e-05
0.000937581 3.35359e-06 -5.13e-07
3.35359e-06 5.95433e-05 -2.78053e-07
-5.13e-07 -2.78053e-07 -6.40891e-06
0.000790668 -2.72062e-05 -1.36496e-06
-2.72062e-05 -4.6079e-06 1.98375e-06
-1.36496e-06 1.98375e-06 -7.50606e-05
0.000954005 3.80332e-05 1.53269e-07
3.80332e-05 7.07757e-05 2.71553e-08
1.53269e-07 2.71553e-08 3.28138e-06
0.000894701 -4.94251e-05 -1.50601e-08
-4.94251e-05 2.89797e-05 -3.33658e-07
-1.50601e-08 -3.33658e-07 -3.59557e-05
0.00104867 -5.50129e-05 2.20665e-06
-5.50129e-05 0.000127435 1.40425e-06
2.20665e-06 1.40425e-06 6.4653e-05
0.000792641 -1.22034e-05 7.60481e-07
-1.22034e-05 1.19883e-05 1.33829e-06
7.60481e-07 1.33829e-06 -3.47307e-05
0.00093744 -9.35922e-06 5.78458e-07
-9.35922e-06 4.49202e-05 1.89509e-08
5.78458e-07 1.89509e-08 -1.91053e-05
0.000954151 3.33812e-05 -6.67991e-07
3.33812e-05 7.18962e-05 -3.46633e-07
-6.67991e-07 -3.46633e-07 5.34352e-06
0.000903375 3.57043e-05 -1.6712e-07
3.57043e-05 5.94985e-05 -4.35407e-07
-1.6712e-07 -4.35407e-07 -7.28036e-06
0.00090265 3.85518e-05 -6.07185e-07
3.85518e-05 4.6696e-05 -9.46863e-07
-6.07185e-07 -9.46863e-07 -2.10667e-05
0.000929823 1.82901e-05 4.31373e-08
1.82901e-05 5.32641e-05 2.63365e-07
4.31373e-08 2.63365e-07 -1.38685e-05
0.000938651 1.82341e-05 5.58102e-07
1.82341e-05 7.25381e-05 3.37786e-07
5.58102e-07 3.37786e-07 1.00035e-06
0.000840909 -3.86369e-05 2.42863e-07
-3.86369e-05 4.31209e-05 1.28795e-06
2.42863e-07 1.28795e-06 -3.40323e-05
0.000862197 -2.92622e-05 -1.19752e-07
-2.92622e-05 5.24497e-05 -7.32145e-07
-1.19752e-07 -7.32145e-07 -3.11683e-05
0.000775025 -4.8654e-05 9.96044e-07
-4.8654e-05 2.60025e-05 1.87429e-06
9.96044e-07 1.87429e-06 -8.38632e-05
0.00107131 -1.25732e-05 -6.18812e-07
-1.25732e-05 0.000147747 -1.0879e-06
-6.18812e-07 -1.0879e-06 6.72039e-05
0.00103172 -5.24962e-05 -3.06386e-07
-5.24962e-05 0.000143974 7.76083e-07
-3.06386e-07 7.76083e-07 4.88388e-05
0.000580437 -7.57425e-05 -1.59259e-06
-7.57425e-05 -9.37493e-05 3.19719e-06
-1.59259e-06 3.19719e-06 -0.000212759
0.000939496 -8.99156e-05 -3.12037e-06
-8.99156e-05 9.27538e-05 7.94927e-07
-3.12037e-06 7.94927e-07 -2.04102e-05
0.000974971 -6.57302e-05 -9.95553e-07
-6.57302e-05 0.000110663 1.4553e-06
-9.95553e-07 1.4553e-06 1.77171e-05
0.000907068 -8.72725e-05 5.154e-08
-8.72725e-05 7.62994e-05 2.00354e-07
5.154e-08 2.00354e-07 -3.43593e-05
0.000919237 -7.77064e-06 1.17215e-07
-7.77064e-06 6.45918e-05 1.22569e-06
1.17215e-07 1.22569e-06 -6.10354e-06
0.0010033 -3.50618e-05 -5.23664e-07
-3.50618e-05 0.000119898 -5.12116e-07
-5.23664e-07 -5.12116e-07 3.49238e-05
0.000809353 -5.60058e-05 7.96166e-07
-5.60058e-05 3.89215e-05 -3.17581e-06
7.96166e-07 -3.17581e-06 -5.40525e-05
0.00107337 -8.25218e-07 -5.33967e-07
-8.25218e-07 0.000153464 -1.58604e-06
-5.33967e-07 -1.58604e-06 7.96492e-05
0.000849435 8.16339e-06 6.58027e-08
8.16339e-06 2.59448e-05 -2.69515e-08
6.58027e-08 -2.69515e-08 -3.80485e-05
0.000867111 2.65598e-05 -2.76378e-07
2.65598e-05 2.85998e-05 1.1339e-06
-2.76378e-07 1.1339e-06 -2.19564e-05
0.00091445 1.7422e-06 1.7822e-07
1.7422e-06 6.03093e-05 -4.73533e-07
1.7822e-07 -4.73533e-07 -1.49204e-07
0.000872901 1.39797e-05 -3.0749e-07
1.39797e-05 3.00206e-05 -6.04921e-08
-3.0749e-07 -6.04921e-08 -1.75351e-05
0.000829998 2.38158e-05 -1.11424e-06
2.38158e-05 4.14096e-06 1.75308e-06
-1.11424e-06 1.75308e-06 -2.67602e-05
0.000880664 -3.0533e-06 8.01158e-07
-3.0533e-06 3.25866e-05 -8.66944e-07
8.01158e-07 -8.66944e-07 -1.37566e-05
0.000838568 1.85031e-05 -8.68312e-08
1.85031e-05 4.2427e-06 8.61755e-10
-8.68312e-08 8.61755e-10 -2.52075e-05
0.00133722 2.63588e-05 -6.87712e-06
2.63588e-05 0.000268318 3.08863e-06
-6.87712e-06 3.08863e-06 0.000268114
0.000844079 8.21983e-06 1.03772e-06
8.21983e-06 3.57682e-06 -1.66478e-06
1.03772e-06 -1.66478e-06 -2.48288e-05
0.00107387 2.03912e-05 -3.13781e-06
2.03912e-05 0.000122401 5.54726e-07
-3.13781e-06 5.54726e-07 0.000121797
0.00094095 1.91646e-05 -1.73693e-06
1.91646e-05 5.29526e-05 1.58007e-06
-1.73693e-06 1.58007e-06 6.83387e-05
0.000785945 1.42797e-05 7.89468e-07
1.42797e-05 -3.55309e-05 -3.14352e-06
7.89468e-07 -3.14352e-06 -3.68102e-05
0.00153973 1.74729e-05 5.19366e-06
1.74729e-05 0.000368249 -1.1418e-06
5.19366e-06 -1.1418e-06 0.000387354
0.00212964 1.34592e-05 7.94623e-06
1.34592e-05 0.000681404 -3.93129e-06
7.94623e-06 -3.93129e-06 0.000703748
0.000727683 -1.33252e-06 -2.74091e-07
-1.33252e-06 -4.21251e-05 -1.04769e-06
-2.74091e-07 -1.04769e-06 -9.41763e-05
0.000623104 -1.20666e-05 -2.07284e-07
-1.20666e-05 -0.000112219 -1.83752e-06
-2.07284e-07 -1.83752e-06 -0.00014041
0.00095293 -1.11627e-05 -1.34511e-08
-1.11627e-05 7.43061e-05 2.83735e-08
-1.34511e-08 2.83735e-08 2.84183e-05
0.000806461 -1.02357e-05 -4.57931e-07
-1.02357e-05 -2.75678e-05 -3.01201e-06
-4.57931e-07 -3.01201e-06 -2.63933e-05
0.000732898 -8.35261e-06 3.85101e-08
-8.35261e-06 -5.72206e-05 1.39977e-08
3.85101e-08 1.39977e-08 -8.26172e-05
0.000728586 -3.49369e-05 5.42753e-08
-3.49369e-05 -4.4131e-05 6.46573e-07
5.42753e-08 6.46573e-07 -8.86736e-05
0.00202177 -6.92832e-06 -4.54065e-06
-6.92832e-06 0.000622043 -3.94571e-06
-4.54065e-06 -3.94571e-06 0.0006459
0.000799649 -5.20092e-06 -1.47265e-07
-5.20092e-06 -3.36612e-05 -8.11232e-09
-1.47265e-07 -8.11232e-09 -3.12933e-05
0.000854922 -5.43808e-06 4.9209e-08
-5.43808e-06 4.93559e-06 1.53408e-06
4.9209e-08 1.53408e-06 -1.84822e-05
0.00201692 -8.16604e-08 -1.87832e-06
-8.16604e-08 0.000618449 -1.07702e-09
-1.87832e-06 -1.07702e-09 0.00064256
0.000800574 -1.91984e-08 3.83745e-08
-1.91984e-08 -3.41183e-05 3.06213e-06
3.83745e-08 3.06213e-06 -3.14845e-05
0.0020369 6.84397e-06 -4.38798e-06
6.84397e-06 0.000629735 3.97749e-06
-4.38798e-06 3.97749e-06 0.000653512
0.00105205 6.67976e-06 -2.16083e-05
6.67976e-06 -0.000135666 6.51632e-06
-2.16083e-05 6.51632e-06 -0.000250988
0.00114076 0.000120882 1.28188e-06
0.000120882 0.000694165 -2.63006e-06
1.28188e-06 -2.63006e-06 0.000707926
0.000559833 1.03105e-05 6.18401e-05
1.03105e-05 0.000351018 -1.29532e-05
6.18401e-05 -1.29532e-05 0.000191273
0.000906154 1.79887e-05 -7.60393e-08
1.79887e-05 5.77771e-05 4.62412e-08
-7.60393e-08 4.62412e-08 -9.68078e-06
0.00148931 2.61643e-05 -3.20057e-06
2.61643e-05 9.24944e-05 1.22501e-05
-3.20057e-06 1.22501e-05 4.23268e-05
0.00144222 3.83656e-05 -1.34927e-05
3.83656e-05 -0.000173909 4.62641e-06
-1.34927e-05 4.62641e-06 -0.000246224
0.00119664 0.000292403 4.62052e-05
0.000292403 0.000342351 -2.4928e-05
4.62052e-05 -2.4928e-05 0.000749611
0.00330415 6.89176e-05 -3.67802e-05
6.89176e-05 0.00069695 7.68248e-06
-3.67802e-05 7.68248e-06 0.000467102
0.00852443 0.000520187 1.82572e-05
0.000520187 0.00297488 -1.16194e-05
1.82572e-05 -1.16194e-05 0.00202013
-0.00240214 0.000394959 4.68668e-05
0.000394959 -0.00193044 -1.24469e-05
4.68668e-05 -1.24469e-05 -0.00150683
0.00293939 0.000273864 2.79948e-05
0.000273864 1.44569e-05 -2.23123e-05
2.79948e-05 -2.23123e-05 0.000614361
0.00222831 1.56004e-05 -4.15821e-05
1.56004e-05 -0.00029903 4.19573e-06
-4.15821e-05 4.19573e-06 -0.000628934
0.0068876 0.000385771 3.54512e-05
0.000385771 0.00239083 -1.31235e-05
3.54512e-05 -1.31235e-05 0.00126771
0.00347301 0.000419018 -4.67649e-06
0.000419018 0.000133184 4.22431e-06
-4.67649e-06 4.22431e-06 0.00024687
0.00292521 0.000154619 -3.59412e-06
0.000154619 -0.000236667 1.90661e-06
-3.59412e-06 1.90661e-06 0.000325883
0.00469947 -0.000190263 5.24464e-05
-0.000190263 0.000882692 -2.82118e-05
5.24464e-05 -2.82118e-05 0.000454829
0.00686725 0.000404561 2.58132e-05
0.000404561 0.00223486 -7.20016e-06
2.58132e-05 -7.20016e-06 0.000686137
0.0022592 0.000290951 1.01629e-05
0.000290951 -0.000410101 4.67681e-05
1.01629e-05 4.67681e-05 -0.000440465
0.00375913 4.70595e-05 -1.77221e-07
4.70595e-05 0.000336644 1.10242e-05
-1.77221e-07 1.10242e-05 0.000944333
0.000918565 -1.74539e-05 4.45573e-07
-1.74539e-05 6.87291e-05 4.03109e-07
4.45573e-07 4.03109e-07 -1.09058e-05
0.000949234 -2.85754e-05 4.54841e-07
-2.85754e-05 9.25265e-05 7.75353e-09
4.54841e-07 7.75353e-09 1.48919e-05
0.000978857 3.78145e-05 -8.86312e-07
3.78145e-05 0.000107019 4.34801e-08
-8.86312e-07 4.34801e-08 3.89443e-05
0.000915862 -9.12835e-06 -2.31856e-07
-9.12835e-06 6.28618e-05 -8.76685e-08
-2.31856e-07 -8.76685e-08 -8.80672e-06
0.000942234 3.7991e-05 -5.04102e-07
3.7991e-05 8.61347e-05 3.40417e-07
-5.04102e-07 3.40417e-07 1.18749e-05
0.000994786 1.58045e-05 5.49403e-07
1.58045e-05 0.000115546 8.95349e-07
5.49403e-07 8.95349e-07 4.73287e-05
0.00103614 5.02196e-05 -4.77202e-07
5.02196e-05 0.000132016 1.17597e-07
-4.77202e-07 1.17597e-07 6.58034e-05
0.00107184 5.51943e-05 7.02752e-07
5.51943e-05 0.000153885 8.32531e-07
7.02752e-07 8.32531e-07 8.9649e-05
0.000946853 -0.000139832 1.61036e-05
-0.000139832 -0.000227488 -7.56742e-06
1.61036e-05 -7.56742e-06 -0.000272266
0.00107141 -0.000156732 4.49797e-06
-0.000156732 2.57637e-05 -1.20499e-06
4.49797e-06 -1.20499e-06 -0.000103824
0.000934312 -9.01461e-05 -1.952e-06
-9.01461e-05 8.86846e-05 -5.46999e-08
-1.952e-06 -5.46999e-08 6.20836e-06
0.00145166 -4.87422e-05 2.13487e-06
-4.87422e-05 0.000353276 -1.99284e-06
2.13487e-06 -1.99284e-06 0.000229196
0.00110264 -4.54442e-05 -1.14662e-06
-4.54442e-05 0.00015171 -9.90002e-07
-1.14662e-06 -9.90002e-07 6.25243e-05
0.00106525 -1.20863e-05 -9.12395e-07
-1.20863e-05 0.000142582 -4.93377e-07
-9.12395e-07 -4.93377e-07 6.13494e-05
0.000989818 1.22728e-05 2.85022e-08
1.22728e-05 0.000101631 -7.43669e-08
2.85022e-08 -7.43669e-08 2.06949e-05
0.00142831 -0.000251809 -4.58061e-06
-0.000251809 -3.47373e-05 -2.72052e-07
-4.58061e-06 -2.72052e-07 7.82285e-06
0.00100479 1.05109e-05 1.20747e-07
1.05109e-05 0.000106654 -6.09669e-07
1.20747e-07 -6.09669e-07 1.62048e-05
0.00106173 -2.15708e-05 -1.02839e-06
-2.15708e-05 0.00013372 1.12298e-07
-1.02839e-06 1.12298e-07 3.91473e-05
0.00104109 -6.48774e-05 -3.99961e-07
-6.48774e-05 0.000173633 1.51265e-06
-3.99961e-07 1.51265e-06 1.0255e-05
0.00108403 -1.71582e-06 9.36814e-08
-1.71582e-06 0.000140661 9.74536e-07
9.36814e-08 9.74536e-07 6.56777e-05
-0.00188078 -0.000216141 3.06665e-06
-0.000216141 -0.00140577 -8.98863e-06
3.06665e-06 -8.98863e-06 -0.00137386
0.00157653 2.78452e-05 -7.15357e-06
2.78452e-05 0.000583845 1.38509e-05
-7.15357e-06 1.38509e-05 0.000427446
0.000545321 4.66443e-06 -9.40823e-07
4.66443e-06 -0.000149953 3.52643e-06
-9.40823e-07 3.52643e-06 -0.000226841
0.00100616 7.49474e-05 3.23475e-07
7.49474e-05 0.000106967 1.33093e-06
3.23475e-07 1.33093e-06 2.29975e-05
0.00126848 -5.22761e-07 1.05879e-05
-5.22761e-07 0.000308279 1.48723e-06
1.05879e-05 1.48723e-06 0.000237087
0.00140804 -6.82815e-06 1.07536e-05
-6.82815e-06 0.000109476 5.11287e-07
1.07536e-05 5.11287e-07 -1.85846e-06
-0.00108964 -4.30581e-06 1.6711e-05
-4.30581e-06 -0.000413679 -4.68137e-07
1.6711e-05 -4.68137e-07 -0.000605143
0.000828243 7.48365e-05 4.76232e-06
7.48365e-05 7.8357e-05 2.41264e-06
4.76232e-06 2.41264e-06 9.63942e-06
-0.000241489 2.53667e-05 -2.60359e-06
2.53667e-05 -0.00027057 5.82145e-06
-2.60359e-06 5.82145e-06 -0.000392457
0.00126141 -1.25029e-08 1.57326e-05
-1.25029e-08 6.54192e-06 -1.79709e-06
1.57326e-05 -1.79709e-06 -7.45506e-05
0.00561982 -0.000464365 6.02326e-05
-0.000464365 0.00156495 1.97189e-05
6.02326e-05 1.97189e-05 0.000168007
0.00573529 0.000448139 -2.57328e-05
0.000448139 0.00186398 -6.84768e-05
-2.57328e-05 -6.84768e-05 0.00126193
0.00308156 -0.00032492 9.96358e-06
-0.00032492 4.94007e-06 7.35641e-05
9.96358e-06 7.35641e-05 -3.38851e-05
0.00163456 -9.34278e-06 -2.6865e-06
-9.34278e-06 0.000156699 1.02246e-05
-2.6865e-06 1.02246e-05 0.000102103
0.00105117 1.41164e-05 2.45146e-07
1.41164e-05 -0.00130904 3.99331e-06
2.45146e-07 3.99331e-06 -0.000709687
0.000909622 6.00232e-05 3.00195e-07
6.00232e-05 0.000178541 1.40901e-07
3.00195e-07 1.40901e-07 0.000129149
0.000947349 4.31817e-06 -1.20927e-06
4.31817e-06 7.67859e-05 3.60952e-07
-1.20927e-06 3.60952e-07 1.91625e-05
0.00132593 1.35131e-06 -2.30683e-06
1.35131e-06 0.000102338 3.98649e-07
-2.30683e-06 3.98649e-07 2.82984e-05
-0.000467871 7.4765e-05 2.16141e-06
7.4765e-05 -0.000168865 -1.25504e-06
2.16141e-06 -1.25504e-06 -0.000313714
0.00290381 0.000148865 3.19781e-06
0.000148865 -0.000176524 -2.39595e-06
3.19781e-06 -2.39595e-06 0.000338542
0.00519701 0.0002335 3.7283e-05
0.0002335 0.000867061 7.07333e-07
3.7283e-05 7.07333e-07 -0.000174887
0.00324719 0.00011637 -4.622e-05
0.00011637 0.000622675 -3.62015e-06
-4.622e-05 -3.62015e-06 0.000539092
-0.000344933 4.36857e-05 1.4074e-06
4.36857e-05 -0.000276367 -1.15682e-05
1.4074e-06 -1.15682e-05 -0.000355675
0.00107496 2.66686e-07 -5.23692e-06
2.66686e-07 0.000202949 9.77341e-06
-5.23692e-06 9.77341e-06 0.000123951
0.00147011 1.88511e-05 5.93613e-06
1.88511e-05 8.23881e-05 -1.17696e-05
5.93613e-06 -1.17696e-05 2.26639e-05
0.00293198 0.00026804 3.79072e-05
0.00026804 -1.87779e-05 -2.13399e-05
3.79072e-05 -2.13399e-05 0.000625014
0.00189683 0.000334542 -9.02579e-06
0.000334542 -0.000520405 -5.33597e-05
-9.02579e-06 -5.33597e-05 -0.00054348
0.00135683 0.000211569 1.85211e-05
0.000211569 0.000285286 -1.1747e-05
1.85211e-05 -1.1747e-05 0.000318297
0.00278693 -0.000186928 9.07762e-05
-0.000186928 0.000370425 6.83699e-06
9.07762e-05 6.83699e-06 -0.000905804
0.00091257 7.63054e-05 -1.01647e-06
7.63054e-05 6.69409e-05 5.99337e-06
-1.01647e-06 5.99337e-06 -2.64293e-06
0.000992659 1.69326e-05 1.26789e-06
1.69326e-05 0.00013595 2.47798e-06
1.26789e-06 2.47798e-06 8.07222e-05
0.000242103 -3.16824e-05 5.83334e-06
-3.16824e-05 -8.92552e-05 -4.92245e-06
5.83334e-06 -4.92245e-06 -0.000190801
0.00101793 1.66361e-05 -6.20816e-07
1.66361e-05 0.000100747 -3.28404e-07
-6.20816e-07 -3.28404e-07 3.528e-05
0.000828479 -5.19492e-05 -1.05465e-06
-5.19492e-05 -4.17234e-06 1.7339e-07
-1.05465e-06 1.7339e-07 -6.98312e-05
0.000960697 -5.26424e-05 -9.37208e-07
-5.26424e-05 7.58794e-05 1.12203e-06
-9.37208e-07 1.12203e-06 1.03662e-05
0.00096809 -2.18503e-05 -4.47403e-09
-2.18503e-05 6.52011e-05 -2.59223e-07
-4.47403e-09 -2.59223e-07 -5.40068e-08
0.000780991 -2.02527e-05 -8.24391e-07
-2.02527e-05 -8.10795e-06 1.78049e-06
-8.24391e-07 1.78049e-06 -5.27734e-05
0.000693725 -4.13846e-05 1.55379e-06
-4.13846e-05 7.80839e-06 -1.43983e-07
1.55379e-06 -1.43983e-07 -9.07531e-05
0.000921095 9.63867e-06 -3.4744e-07
9.63867e-06 4.93109e-05 -2.31084e-07
-3.4744e-07 -2.31084e-07 -1.8205e-05
0.00101233 3.0373e-05 -1.89606e-07
3.0373e-05 0.000109655 -2.84549e-07
-1.89606e-07 -2.84549e-07 3.86165e-05
0.00100998 -3.51174e-05 3.15811e-07
-3.51174e-05 0.000124162 3.68346e-07
3.15811e-07 3.68346e-07 4.55912e-05
0.000683523 -4.98618e-05 2.09452e-06
-4.98618e-05 2.0703e-05 2.07755e-06
2.09452e-06 2.07755e-06 -9.81194e-05
0.000821644 -1.52074e-05 -2.09273e-06
-1.52074e-05 3.27526e-05 -1.27774e-06
-2.09273e-06 -1.27774e-06 -4.81098e-05
0.000704601 -5.41352e-05 2.68668e-07
-5.41352e-05 -5.49034e-06 -1.65148e-07
2.68668e-07 -1.65148e-07 -0.000111903
0.00103116 -0.000103112 7.28934e-07
-0.000103112 0.000150011 1.74823e-06
7.28934e-07 1.74823e-06 1.2214e-05
0.00113501 -0.000106982 -4.0771e-06
-0.000106982 0.000152501 2.85004e-06
-4.0771e-06 2.85004e-06 2.33819e-05
0.00128015 -6.54629e-05 -3.05153e-07
-6.54629e-05 0.000267222 -1.39211e-06
-3.05153e-07 -1.39211e-06 0.000170728
0.000782315 -8.54869e-05 -6.42849e-07
-8.54869e-05 4.78884e-06 4.02484e-07
-6.42849e-07 4.02484e-07 -0.000117554
0.00135165 -0.00011079 -6.0023e-07
-0.00011079 0.000299212 -2.86715e-07
-6.0023e-07 -2.86715e-07 0.000190628
0.000706141 -6.70721e-05 -1.51793e-06
-6.70721e-05 -1.8862e-05 5.57941e-07
-1.51793e-06 5.57941e-07 -0.000119195
0.000946584 -8.98812e-05 2.56784e-07
-8.98812e-05 9.5981e-05 -3.53429e-07
2.56784e-07 -3.53429e-07 -1.50748e-05
0.000947741 -1.44957e-05 -5.88697e-07
-1.44957e-05 8.20692e-05 9.85471e-07
-5.88697e-07 9.85471e-07 6.25355e-06
0.00103582 -6.70367e-05 -1.07534e-06
-6.70367e-05 0.000140411 8.69153e-07
-1.07534e-06 8.69153e-07 4.72571e-05
0.00078826 -8.13005e-05 3.96658e-07
-8.13005e-05 1.74115e-05 -1.92911e-06
3.96658e-07 -1.92911e-06 -9.29873e-05
0.000885973 2.36948e-05 -2.87411e-07
2.36948e-05 4.10457e-05 1.28777e-06
-2.87411e-07 1.28777e-06 -1.4553e-05
0.000847695 -6.07114e-06 3.92247e-07
-6.07114e-06 2.69915e-05 6.78647e-08
3.92247e-07 6.78647e-08 -4.39289e-05
0.000938717 -3.68155e-05 1.03978e-06
-3.68155e-05 8.55769e-05 -1.97859e-06
1.03978e-06 -1.97859e-06 -5.78602e-07
0.000923702 7.0307e-06 3.13247e-08
7.0307e-06 6.50177e-05 -1.07389e-06
3.13247e-08 -1.07389e-06 2.0934e-06
0.000870672 2.09793e-05 -1.31014e-07
2.09793e-05 3.03305e-05 -1.0277e-07
-1.31014e-07 -1.0277e-07 -2.01444e-05
0.000825131 2.91914e-05 -1.15729e-06
2.91914e-05 6.12532e-06 1.79706e-06
-1.15729e-06 1.79706e-06 -2.6923e-05
0.000873881 7.18937e-06 4.95968e-07
7.18937e-06 3.06195e-05 -1.05347e-06
4.95968e-07 -1.05347e-06 -1.69936e-05
0.000831303 2.47762e-05 -5.21218e-09
2.47762e-05 4.58206e-06 -5.63006e-09
-5.21218e-09 -5.63006e-09 -2.63502e-05
0.000753703 2.69524e-05 -1.5443e-06
2.69524e-05 -3.73092e-05 3.30582e-06
-1.5443e-06 3.30582e-06 -4.20266e-05
0.000841087 1.6878e-05 9.64715e-07
1.6878e-05 5.07869e-06 -1.70473e-06
9.64715e-07 -1.70473e-06 -2.42642e-05
0.00077253 2.31645e-05 1.35165e-07
2.31645e-05 -3.34691e-05 1.36296e-08
1.35165e-07 1.36296e-08 -3.6679e-05
0.00206983 3.53993e-05 -4.83171e-06
3.53993e-05 0.000661838 1.54192e-06
-4.83171e-06 1.54192e-06 0.000681653
0.000785111 1.89156e-05 1.06292e-06
1.89156e-05 -3.21784e-05 -3.17711e-06
1.06292e-06 -3.17711e-06 -3.42093e-05
0.00153331 2.31482e-05 6.36868e-06
2.31482e-05 0.000369045 -1.08373e-06
6.36868e-06 -1.08373e-06 0.000387361
0.00212307 2.00335e-05 1.12067e-05
2.00335e-05 0.000681053 -3.84703e-06
1.12067e-05 -3.84703e-06 0.000702854
0.000748843 -2.15489e-05 9.78657e-08
-2.15489e-05 -3.64167e-05 -9.3589e-07
9.78657e-08 -9.3589e-07 -8.83445e-05
0.000594663 -1.52222e-05 -2.75123e-07
-1.52222e-05 -0.000124046 -1.90656e-06
-2.75123e-07 -1.90656e-06 -0.000155419
0.000849673 -3.13224e-06 -2.23892e-07
-3.13224e-06 2.15853e-05 -5.48783e-07
-2.23892e-07 -5.48783e-07 -2.97409e-05
0.000802718 -1.50996e-05 -5.43069e-07
-1.50996e-05 -2.58264e-05 -3.06231e-06
-5.43069e-07 -3.06231e-06 -2.64899e-05
0.000608536 -1.21429e-05 2.18186e-08
-1.21429e-05 -0.00011971 -5.74664e-07
2.18186e-08 -5.74664e-07 -0.000148214
0.000967988 -8.21915e-07 -1.51078e-07
-8.21915e-07 8.40303e-05 4.84056e-07
-1.51078e-07 4.84056e-07 3.67475e-05
0.0020501 -1.35067e-05 -7.97349e-06
-1.35067e-05 0.00063943 -3.94265e-06
-7.97349e-06 -3.94265e-06 0.000662534
0.000795934 -1.00399e-05 -1.11954e-07
-1.00399e-05 -3.32155e-05 -1.9453e-08
-1.11954e-07 -1.9453e-08 -3.19484e-05
0.000609047 -8.63046e-06 1.20305e-07
-8.63046e-06 -0.000122224 1.39104e-06
1.20305e-07 1.39104e-06 -0.000148503
0.00201983 -6.60326e-06 -1.99949e-06
-6.60326e-06 0.000620816 1.36866e-08
-1.99949e-06 1.36866e-08 0.000644735
0.000794554 -5.01602e-06 1.66327e-07
-5.01602e-06 -3.64364e-05 3.02846e-06
1.66327e-07 3.02846e-06 -3.40226e-05
0.0020183 2.95099e-07 -6.24674e-07
2.95099e-07 0.000619166 3.97078e-06
-6.24674e-07 3.97078e-06 0.000643261
0.00102366 6.18692e-07 5.37488e-06
6.18692e-07 8.06909e-05 -1.40623e-06
5.37488e-06 -1.40623e-06 9.01463e-06
0.00115367 3.47955e-06 -1.45779e-06
3.47955e-06 -7.20595e-05 8.05842e-07
-1.45779e-06 8.05842e-07 -0.00018368
0.000991249 9.28226e-05 3.35311e-05
9.28226e-05 0.000681405 -6.06937e-06
3.35311e-05 -6.06937e-06 0.000651271
0.000934331 1.85129e-05 1.26039e-07
1.85129e-05 7.09009e-05 6.46811e-08
1.26039e-07 6.46811e-08 5.3196e-06
0.000857845 -3.26433e-06 4.1543e-08
-3.26433e-06 2.55952e-05 -2.40976e-08
4.1543e-08 -2.40976e-08 -4.00898e-05
0.00099625 2.98187e-05 -3.55797e-07
2.98187e-05 0.000107926 6.76217e-07
-3.55797e-07 6.76217e-07 3.56319e-05
0.00153258 1.42252e-05 4.27909e-06
1.42252e-05 0.000163934 1.47512e-05
4.27909e-06 1.47512e-05 8.92574e-05
0.00131434 2.23547e-05 -3.7343e-06
2.23547e-05 -1.84348e-05 2.827e-06
-3.7343e-06 2.827e-06 -7.36626e-05
0.00106765 3.15025e-05 1.67002e-05
3.15025e-05 -0.000388663 -1.73399e-05
1.67002e-05 -1.73399e-05 -0.000502935
0.00288484 -8.6708e-06 -4.53051e-05
-8.6708e-06 8.34534e-05 1.41783e-05
-4.53051e-05 1.41783e-05 -0.000156755
0.00118061 0.000316239 -4.2329e-06
0.000316239 -0.000126234 7.22932e-06
-4.2329e-06 7.22932e-06 -0.00137072
0.00466727 0.000506928 5.60885e-05
0.000506928 0.0010461 -2.5822e-05
5.60885e-05 -2.5822e-05 0.00108378
0.00164067 0.000119675 6.31541e-06
0.000119675 -0.00105875 -1.5582e-05
6.31541e-06 -1.5582e-05 -0.000476444
0.00268442 -0.000134124 -5.32094e-06
-0.000134124 6.21411e-05 5.99053e-06
-5.32094e-06 5.99053e-06 -6.1563e-05
0.00545374 0.000200726 3.43138e-05
0.000200726 0.00154196 -3.24384e-05
3.43138e-05 -3.24384e-05 0.000160242
0.000846291 8.71864e-05 -9.02344e-06
8.71864e-05 -0.000692775 8.20166e-06
-9.02344e-06 8.20166e-06 -0.000661437
0.00248648 3.292e-05 -8.45496e-07
3.292e-05 -0.00044746 1.27558e-06
-8.45496e-07 1.27558e-06 0.000168922
0.00577153 -0.000457434 9.0248e-06
-0.000457434 0.00152721 -6.15778e-05
9.0248e-06 -6.15778e-05 0.00127746
0.00798228 0.000206393 4.58419e-05
0.000206393 0.00284438 -2.18967e-05
4.58419e-05 -2.18967e-05 0.00139696
-0.000474427 5.2992e-05 1.47005e-05
5.2992e-05 -0.000873244 4.61167e-05
1.47005e-05 4.61167e-05 -0.000947207
0.000629708 -9.52443e-05 5.70228e-06
-9.52443e-05 -0.00147468 7.20136e-06
5.70228e-06 7.20136e-06 -0.000929911
0.000975257 -9.28952e-07 3.7429e-08
-9.28952e-07 9.00465e-05 8.43808e-07
3.7429e-08 8.43808e-07 1.21122e-05
0.000912911 -1.10169e-05 -5.19103e-09
-1.10169e-05 6.76103e-05 -1.51234e-07
-5.19103e-09 -1.51234e-07 -1.33333e-05
0.000927717 -3.66825e-05 -3.17945e-07
-3.66825e-05 8.15182e-05 -2.00591e-07
-3.17945e-07 -2.00591e-07 3.40789e-06
0.000920641 1.00584e-05 -3.19433e-07
1.00584e-05 6.57767e-05 -4.26773e-07
-3.19433e-07 -4.26773e-07 -6.2502e-06
0.00104018 7.07847e-05 1.19262e-06
7.07847e-05 0.000137971 1.02663e-07
1.19262e-06 1.02663e-07 6.50047e-05
0.00108468 5.34812e-05 -1.31861e-08
5.34812e-05 0.000158293 2.21822e-07
-1.31861e-08 2.21822e-07 9.1498e-05
0.00266592 -0.000298991 6.63912e-06
-0.000298991 0.000598283 -4.98478e-06
6.63912e-06 -4.98478e-06 0.000587061
-0.000186398 -4.31244e-05 5.39332e-06
-4.31244e-05 -0.000435814 -1.94595e-06
5.39332e-06 -1.94595e-06 -0.000611129
0.00107253 3.67862e-05 2.37709e-07
3.67862e-05 0.000149556 -5.72422e-07
2.37709e-07 -5.72422e-07 6.64106e-05
0.00131313 -6.21082e-05 1.7994e-06
-6.21082e-05 0.00026377 -4.80148e-06
1.7994e-06 -4.80148e-06 0.000162656
0.00115965 1.61103e-06 -2.17947e-07
1.61103e-06 0.000189201 -1.9299e-06
-2.17947e-07 -1.9299e-06 0.000101023
0.000977272 -5.7228e-06 3.97823e-07
-5.7228e-06 8.37575e-05 -1.47009e-07
3.97823e-07 -1.47009e-07 7.8411e-06
0.000975419 3.86162e-05 1.70866e-07
3.86162e-05 9.00084e-05 -6.39947e-08
1.70866e-07 -6.39947e-08 8.40378e-06
0.000765496 -0.00026135 -7.82899e-06
-0.00026135 -7.45167e-05 2.38105e-06
-7.82899e-06 2.38105e-06 -7.60805e-05
0.000935758 -1.76081e-05 8.67554e-07
-1.76081e-05 5.63701e-05 -1.25112e-06
8.67554e-07 -1.25112e-06 -1.94377e-05
0.000993905 2.29282e-05 -1.12454e-06
2.29282e-05 0.000328243 -1.94273e-06
-1.12454e-06 -1.94273e-06 0.00018228
0.00096327 2.46953e-07 8.92908e-07
2.46953e-07 8.11725e-05 8.63983e-07
8.92908e-07 8.63983e-07 9.20592e-06
-0.0019388 -0.000112255 9.3145e-07
-0.000112255 -0.000964888 -1.10974e-05
9.3145e-07 -1.10974e-05 -0.00120232
0.000747625 1.36013e-07 -2.4032e-07
1.36013e-07 0.000151441 1.98705e-05
-2.4032e-07 1.98705e-05 0.000119891
0.00100337 -1.81642e-05 4.46714e-07
-1.81642e-05 0.000100961 2.59025e-06
4.46714e-07 2.59025e-06 2.45876e-05
0.00115848 1.37071e-06 -4.12208e-07
1.37071e-06 0.000314447 3.92939e-07
-4.12208e-07 3.92939e-07 0.000223586
0.000928779 4.34985e-07 1.14834e-06
4.34985e-07 0.000111207 8.2002e-07
1.14834e-06 8.2002e-07 3.52122e-05
0.00121688 -8.99481e-06 2.88832e-05
-8.99481e-06 1.92415e-05 6.40697e-08
2.88832e-05 6.40697e-08 -9.5556e-05
0.00077749 7.44323e-05 5.22822e-06
7.44323e-05 0.000101698 7.21677e-06
5.22822e-06 7.21677e-06 4.33995e-05
0.000783906 0.00014752 1.06603e-05
0.00014752 0.000271408 -1.51515e-05
1.06603e-05 -1.51515e-05 0.000146952
0.00101362 4.32486e-06 -7.44831e-06
4.32486e-06 0.000121702 -3.91517e-06
-7.44831e-06 -3.91517e-06 6.51397e-05
0.00303271 8.9497e-05 -2.83991e-05
8.9497e-05 0.000370665 -2.64069e-06
-2.83991e-05 -2.64069e-06 -0.000647081
-0.00316447 2.6436e-05 -1.79359e-05
2.6436e-05 -0.00251983 5.92055e-05
-1.79359e-05 5.92055e-05 -0.00260816
0.00102303 1.23608e-06 -4.52093e-06
1.23608e-06 -1.77257e-05 5.07756e-06
-4.52093e-06 5.07756e-06 -8.90651e-05
0.00166024 0.000111149 -5.34757e-06
0.000111149 -0.000965055 1.54325e-05
-5.34757e-06 1.54325e-05 -0.000446258
0.000441162 4.00644e-05 -4.24939e-06
4.00644e-05 9.79212e-05 -3.18001e-06
-4.24939e-06 -3.18001e-06 3.1461e-05
0.000937258 -3.33008e-07 -3.18911e-06
-3.33008e-07 0.000136247 2.74511e-06
-3.18911e-06 2.74511e-06 5.05035e-05
0.00131902 1.44098e-05 4.21269e-06
1.44098e-05 -1.13267e-05 -2.72792e-06
4.21269e-06 -2.72792e-06 -7.78947e-05
0.00180344 0.000264549 4.71198e-05
0.000264549 0.00022075 1.47184e-06
4.71198e-05 1.47184e-06 0.000124875
0.00202734 0.000265801 2.24359e-06
0.000265801 -0.000606583 -5.62137e-06
2.24359e-06 -5.62137e-06 4.35876e-05
0.00089513 0.000116714 9.42955e-06
0.000116714 -0.000679175 -9.45386e-06
9.42955e-06 -9.45386e-06 -0.000612727
0.0072985 0.000153092 1.27081e-05
0.000153092 0.00260404 -1.88714e-05
1.27081e-05 -1.88714e-05 0.00129093
-0.000528784 -3.9806e-07 -2.40225e-05
-3.9806e-07 -0.000100837 -1.39275e-05
-2.40225e-05 -1.39275e-05 -0.000240457
0.00102293 -2.07977e-06 -4.14903e-06
-2.07977e-06 8.23021e-05 1.72964e-06
-4.14903e-06 1.72964e-06 9.08932e-06
0.00171792 4.09226e-05 4.18688e-05
4.09226e-05 -1.55737e-07 -2.10696e-05
4.18688e-05 -2.10696e-05 -7.38801e-05
0.00143582 0.000465857 1.80945e-05
0.000465857 2.04074e-05 -2.83891e-06
1.80945e-05 -2.83891e-06 0.000880942
-0.00421708 0.000278726 6.77923e-05
0.000278726 -0.00311411 -2.40125e-05
6.77923e-05 -2.40125e-05 -0.00292455
0.00799125 0.000253906 1.96667e-05
0.000253906 0.0026715 -4.44689e-05
1.96667e-05 -4.44689e-05 0.00114285
0.0024847 -6.81681e-05 -1.24674e-06
-6.81681e-05 0.00038646 9.82702e-05
-1.24674e-06 9.82702e-05 0.000276519
0.00140034 1.05702e-05 -2.92799e-06
1.05702e-05 0.000338648 8.50637e-06
-2.92799e-06 8.50637e-06 0.000289188
0.000215583 -2.82258e-05 2.89199e-07
-2.82258e-05 -0.000102066 1.03596e-06
2.89199e-07 1.03596e-06 -0.000217996
0.000362487 -5.51143e-05 3.35567e-06
-5.51143e-05 5.02361e-05 -4.11188e-06
3.35567e-06 -4.11188e-06 -0.000121982
0.000949113 -3.01568e-05 -2.06744e-07
-3.01568e-05 5.96964e-05 -8.26751e-07
-2.06744e-07 -8.26751e-07 -7.08266e-06
0.000723177 -2.42295e-05 -3.32285e-07
-2.42295e-05 -5.19765e-05 2.791e-06
-3.32285e-07 2.791e-06 -9.47379e-05
0.000761751 -1.09007e-05 2.10978e-07
-1.09007e-05 4.41646e-05 1.01827e-07
2.10978e-07 1.01827e-07 -4.49911e-05
0.000930012 -9.48702e-05 5.21096e-06
-9.48702e-05 0.00021071 -3.13915e-07
5.21096e-06 -3.13915e-07 3.09456e-05
0.00121504 -3.66234e-05 -7.48601e-07
-3.66234e-05 0.000223026 -4.92396e-07
-7.48601e-07 -4.92396e-07 0.000143588
0.00116236 -8.60112e-05 4.98073e-07
-8.60112e-05 0.000251069 4.15248e-07
4.98073e-07 4.15248e-07 0.00012734
0.00104566 -0.000106861 1.80097e-06
-0.000106861 0.000198097 3.14743e-06
1.80097e-06 3.14743e-06 1.59975e-05
0.000608455 -5.34586e-05 -3.24787e-07
-5.34586e-05 -5.11361e-05 -1.91861e-06
-3.24787e-07 -1.91861e-06 -0.000152987
0.00111061 -0.000105466 -4.72141e-07
-0.000105466 0.000190561 -1.70962e-08
-4.72141e-07 -1.70962e-08 4.93991e-05
0.00163786 -0.000141479 -1.50689e-06
-0.000141479 0.000409793 2.15066e-06
-1.50689e-06 2.15066e-06 0.000246897
0.00152827 -0.0001361 -4.06967e-06
-0.0001361 0.000315471 2.82874e-06
-4.06967e-06 2.82874e-06 0.000171172
0.000740899 -8.72063e-05 -1.71201e-06
-8.72063e-05 -3.60447e-05 2.32412e-06
-1.71201e-06 2.32412e-06 -0.000148349
0.00105363 -0.000104452 -1.1543e-06
-0.000104452 0.000109867 8.25147e-07
-1.1543e-06 8.25147e-07 -2.07679e-05
0.000972494 -9.46774e-05 -4.4506e-07
-9.46774e-05 9.73829e-05 -1.46122e-06
-4.4506e-07 -1.46122e-06 -2.82685e-05
0.0011662 -0.000100032 3.56011e-07
-0.000100032 0.00020198 -8.92241e-07
3.56011e-07 -8.92241e-07 0.000100991
0.00107908 -9.72719e-05 1.75344e-06
-9.72719e-05 0.000159874 -7.88351e-07
1.75344e-06 -7.88351e-07 5.45956e-05
0.000777073 -3.81132e-05 -3.37376e-07
-3.81132e-05 5.01119e-06 1.4179e-06
-3.37376e-07 1.4179e-06 -8.24907e-05
0.000905423 -7.26155e-05 4.39066e-07
-7.26155e-05 8.32091e-05 -1.39967e-07
4.39066e-07 -1.39967e-07 -1.62777e-05
0.000951718 -8.9706e-05 3.67344e-06
-8.9706e-05 9.81841e-05 -2.34755e-06
3.67344e-06 -2.34755e-06 -1.0744e-05
0.000895045 2.65263e-05 -4.09434e-07
2.65263e-05 4.92877e-05 1.40908e-06
-4.09434e-07 1.40908e-06 -1.35991e-05
0.00095876 -2.33875e-05 -1.47844e-07
-2.33875e-05 8.90911e-05 -3.31399e-08
-1.47844e-07 -3.31399e-08 1.22653e-05
0.00109711 -6.7549e-05 3.24011e-07
-6.7549e-05 0.000170187 -6.84262e-07
3.24011e-07 -6.84262e-07 7.69948e-05
0.000816392 3.33269e-05 -1.0848e-06
3.33269e-05 6.687e-06 1.92057e-06
-1.0848e-06 1.92057e-06 -2.98658e-05
0.000873955 2.20318e-05 1.70629e-08
2.20318e-05 3.44758e-05 -9.97188e-08
1.70629e-08 -9.97188e-08 -2.09106e-05
0.00077884 -5.2201e-06 5.47502e-07
-5.2201e-06 -9.17171e-06 -1.13582e-06
5.47502e-07 -1.13582e-06 -8.0336e-05
0.000874438 1.83373e-05 4.08125e-07
1.83373e-05 3.22998e-05 -1.29524e-06
4.08125e-07 -1.29524e-06 -1.81679e-05
0.000823371 3.15677e-05 2.829e-08
3.15677e-05 5.3631e-06 -2.76901e-08
2.829e-08 -2.76901e-08 -2.79033e-05
0.000741045 3.0978e-05 -1.87845e-06
3.0978e-05 -3.70098e-05 3.34569e-06
-1.87845e-06 3.34569e-06 -4.37458e-05
0.00083298 2.58792e-05 8.99849e-07
2.58792e-05 5.18468e-06 -1.81859e-06
8.99849e-07 -1.81859e-06 -2.57722e-05
0.000768121 2.73766e-05 9.446e-08
2.73766e-05 -2.99131e-05 -1.5177e-09
9.446e-08 -1.5177e-09 -3.46723e-05
0.00212552 3.82383e-05 -1.87036e-05
3.82383e-05 0.000696669 3.56931e-06
-1.87036e-05 3.56931e-06 0.000715482
0.00078529 2.3448e-05 1.36808e-06
2.3448e-05 -2.71182e-05 -3.22287e-06
1.36808e-06 -3.22287e-06 -3.03147e-05
0.00152843 2.88444e-05 7.51637e-06
2.88444e-05 0.000372319 -1.01188e-06
7.51637e-06 -1.01188e-06 0.00038944
0.00211602 2.64072e-05 1.42344e-05
2.64072e-05 0.000681582 -3.74761e-06
1.42344e-05 -3.74761e-06 0.000702592
0.000873193 1.37008e-05 -5.37551e-07
1.37008e-05 2.98715e-05 -5.60837e-07
-5.37551e-07 -5.60837e-07 -2.34403e-05
0.000817039 -1.73621e-05 -6.74928e-07
-1.73621e-05 -5.11324e-06 -1.45295e-06
-6.74928e-07 -1.45295e-06 -3.74066e-05
0.000797888 9.20549e-06 -6.44674e-07
9.20549e-06 -7.06705e-06 -5.03261e-07
-6.44674e-07 -5.03261e-07 -6.02625e-05
0.000795925 -1.9863e-05 -6.19126e-07
-1.9863e-05 -2.43591e-05 -3.16864e-06
-6.19126e-07 -3.16864e-06 -2.73415e-05
0.000716025 -1.54941e-05 -1.17525e-07
-1.54941e-05 -6.0133e-05 -6.03346e-07
-1.17525e-07 -6.03346e-07 -9.09287e-05
0.000976501 -4.50732e-06 3.72043e-09
-4.50732e-06 8.78815e-05 -5.30204e-09
3.72043e-09 -5.30204e-09 3.72762e-05
0.00209386 -2.01364e-05 -1.12047e-05
-2.01364e-05 0.000666246 -3.93172e-06
-1.12047e-05 -3.93172e-06 0.000688191
0.000789175 -1.486e-05 -1.2473e-07
-1.486e-05 -3.29583e-05 -2.02326e-08
-1.2473e-07 -2.02326e-08 -3.35182e-05
0.000599351 -1.21716e-05 5.80035e-08
-1.21716e-05 -0.000124359 7.32418e-07
5.80035e-08 7.32418e-07 -0.000153193
0.00204201 -1.31568e-05 -1.82013e-06
-1.31568e-05 0.000634759 2.84352e-08
-1.82013e-06 2.84352e-08 0.000658013
0.000785694 -9.85151e-06 3.7609e-07
-9.85151e-06 -3.87007e-05 3.01844e-06
3.7609e-07 3.01844e-06 -3.73447e-05
0.00201602 -6.26416e-06 3.0023e-06
-6.26416e-06 0.000618567 3.94264e-06
3.0023e-06 3.94264e-06 0.000642554
0.000988084 1.34933e-06 5.13734e-06
1.34933e-06 0.000149969 -9.17268e-06
5.13734e-06 -9.17268e-06 6.59317e-05
0.00107325 -2.29623e-07 -2.38616e-06
-2.29623e-07 0.000121428 6.09001e-07
-2.38616e-06 6.09001e-07 5.11716e-05
0.00121697 -3.82329e-07 1.90225e-05
-3.82329e-07 -3.39708e-05 2.34161e-06
1.90225e-05 2.34161e-06 -0.000139571
0.000849708 -2.98121e-05 5.50751e-08
-2.98121e-05 1.81049e-05 -3.36663e-07
5.50751e-08 -3.36663e-07 -4.66474e-05
0.000989775 -8.57586e-06 -1.38422e-07
-8.57586e-06 9.80459e-05 -3.4253e-07
-1.38422e-07 -3.4253e-07 2.72526e-05
0.000965298 1.77165e-05 1.06378e-06
1.77165e-05 8.58756e-05 -2.83868e-09
1.06378e-06 -2.83868e-09 2.19413e-05
0.000858336 -1.50211e-05 2.61096e-08
-1.50211e-05 2.37912e-05 2.43968e-08
2.61096e-08 2.43968e-08 -4.05974e-05
0.000938295 1.02869e-05 3.67138e-08
1.02869e-05 7.44673e-05 3.29173e-07
3.67138e-08 3.29173e-07 2.95007e-06
0.000966297 5.47205e-06 -6.3244e-07
5.47205e-06 8.70169e-05 2.44062e-07
-6.3244e-07 2.44062e-07 1.63572e-05
0.000935637 8.28716e-05 1.89307e-07
8.28716e-05 8.00113e-05 8.87218e-07
1.89307e-07 8.87218e-07 7.33343e-07
0.00135969 -2.83131e-07 2.88777e-06
-2.83131e-07 3.6097e-05 2.22678e-05
2.88777e-06 2.22678e-05 -2.50385e-05
0.00126679 1.18e-05 1.58418e-06
1.18e-05 6.64399e-05 5.71508e-06
1.58418e-06 5.71508e-06 -5.30902e-06
0.0011561 1.84874e-05 -3.74558e-06
1.84874e-05 -0.000123179 -8.04018e-06
-3.74558e-06 -8.04018e-06 -0.000177957
0.00109481 2.14885e-05 2.61419e-06
2.14885e-05 -0.00132819 -1.12469e-05
2.61419e-06 -1.12469e-05 -0.000705945
9.02615e-05 -0.000121519 -4.74362e-05
-0.000121519 -0.00143928 6.10341e-05
-4.74362e-05 6.10341e-05 -0.00171925
0.0023968 9.24123e-05 3.99509e-05
9.24123e-05 0.000290729 -3.38132e-05
3.99509e-05 -3.38132e-05 -0.00102021
0.00518378 0.000385047 2.79208e-05
0.000385047 0.00150327 -2.29424e-05
2.79208e-05 -2.29424e-05 0.00122158
0.00190984 -0.00029694 -2.43277e-05
-0.00029694 -0.000337158 8.93337e-06
-2.43277e-05 8.93337e-06 -0.000767075
0.00237266 -9.64078e-05 3.6064e-05
-9.64078e-05 2.07402e-05 -4.07904e-05
3.6064e-05 -4.07904e-05 -0.00134686
0.00360789 1.49355e-05 -1.72265e-05
1.49355e-05 0.000655805 1.72267e-06
-1.72265e-05 1.72267e-06 0.000506012
0.00330076 -0.000132425 -1.73388e-06
-0.000132425 0.000165138 -8.86679e-06
-1.73388e-06 -8.86679e-06 0.000741439
0.00364555 -0.00027093 1.23536e-06
-0.00027093 0.000839306 -1.16023e-05
1.23536e-06 -1.16023e-05 0.000763775
0.00299355 -0.000374606 4.13558e-06
-0.000374606 -0.000437285 -8.81438e-05
4.13558e-06 -8.81438e-05 -0.00114266
-0.00105942 -0.000153779 3.89404e-05
-0.000153779 -0.00196771 3.06338e-05
3.89404e-05 3.06338e-05 -0.00214064
0.000220079 -0.00018302 2.51069e-05
-0.00018302 -0.0015807 5.15738e-06
2.51069e-05 5.15738e-06 -0.000968621
0.00107117 -3.66879e-05 -7.62686e-08
-3.66879e-05 0.000134105 1.53349e-06
-7.62686e-08 1.53349e-06 6.17678e-05
0.000885228 1.13612e-06 7.6491e-08
1.13612e-06 4.35999e-05 -6.81438e-08
7.6491e-08 -6.81438e-08 -3.4676e-05
0.000873041 -1.96358e-06 -4.22046e-07
-1.96358e-06 4.86526e-05 -1.1391e-06
-4.22046e-07 -1.1391e-06 -3.33549e-05
0.000923605 2.16867e-05 -6.02804e-08
2.16867e-05 6.81864e-05 -1.18116e-06
-6.02804e-08 -1.18116e-06 -4.45765e-06
0.00417413 -0.000313309 1.04144e-05
-0.000313309 0.00164012 2.33065e-06
1.04144e-05 2.33065e-06 0.0016144
0.000888279 1.01615e-05 4.93388e-06
1.01615e-05 0.000306711 -7.81557e-06
4.93388e-06 -7.81557e-06 0.000181302
0.000861132 -2.1371e-05 1.0605e-07
-2.1371e-05 1.93332e-05 -1.50379e-06
1.0605e-07 -1.50379e-06 -5.60094e-05
0.000927907 3.66142e-05 6.73726e-07
3.66142e-05 6.92283e-05 -1.43686e-06
6.73726e-07 -1.43686e-06 -1.37359e-05
0.00143579 -4.20176e-06 1.24408e-06
-4.20176e-06 0.000324303 -5.56838e-06
1.24408e-06 -5.56838e-06 0.000247289
0.000924639 1.83361e-06 -5.50595e-08
1.83361e-06 5.85496e-05 5.34137e-08
-5.50595e-08 5.34137e-08 -1.32262e-05
0.000912349 -8.92648e-06 -1.47747e-06
-8.92648e-06 5.72597e-05 5.12424e-08
-1.47747e-06 5.12424e-08 -2.17351e-05
0.000380037 -0.000127852 -3.3353e-06
-0.000127852 0.000210355 -4.33029e-06
-3.3353e-06 -4.33029e-06 -9.84101e-06
0.000979714 -8.83601e-06 3.41416e-06
-8.83601e-06 0.000277723 5.82703e-06
3.41416e-06 5.82703e-06 0.000252644
0.000917471 -1.14866e-05 9.00127e-07
-1.14866e-05 6.62688e-05 -9.22826e-08
9.00127e-07 -9.22826e-08 -6.78332e-06
-4.88998e-05 2.80201e-05 -8.28878e-06
2.80201e-05 0.000457983 -2.11181e-05
-8.28878e-06 -2.11181e-05 -0.000176248
0.0015275 -4.04321e-05 3.13566e-06
-4.04321e-05 0.000546177 1.20616e-05
3.13566e-06 1.20616e-05 0.000464357
0.00130236 -1.347e-07 -1.03805e-05
-1.347e-07 0.000331043 -1.45373e-06
-1.03805e-05 -1.45373e-06 0.000256532
0.000932038 7.73985e-07 -9.70973e-09
7.73985e-07 0.000152984 1.98714e-07
-9.70973e-09 1.98714e-07 5.09181e-05
0.000579407 1.49703e-06 -7.9259e-06
1.49703e-06 -9.24996e-05 1.62315e-06
-7.9259e-06 1.62315e-06 -0.000173758
0.00125403 4.05537e-05 1.67909e-06
4.05537e-05 0.000480586 4.70182e-06
1.67909e-06 4.70182e-06 0.000427476
0.00155627 0.000168459 -6.02424e-05
0.000168459 0.000411184 1.15758e-05
-6.02424e-05 1.15758e-05 0.000445446
0.000833215 -9.4856e-07 -4.45397e-06
-9.4856e-07 9.10814e-05 -5.33847e-06
-4.45397e-06 -5.33847e-06 -1.06765e-06
0.00318343 0.000217316 4.80076e-05
0.000217316 0.000493872 -7.75873e-05
4.80076e-05 -7.75873e-05 -0.000765294
0.0049743 0.000394546 -3.34718e-05
0.000394546 0.0014103 2.99228e-05
-3.34718e-05 2.99228e-05 0.00118174
0.00117878 9.98039e-06 2.29981e-06
9.98039e-06 -0.000104593 8.1166e-06
2.29981e-06 8.1166e-06 -0.000170647
0.00313443 0.000273328 -2.9382e-05
0.000273328 0.000153044 1.94118e-05
-2.9382e-05 1.94118e-05 0.000740385
-0.000325835 -1.96833e-05 2.04832e-05
-1.96833e-05 -1.30994e-05 -2.72511e-06
2.04832e-05 -2.72511e-06 -0.000156072
0.00106788 -2.26975e-06 2.7909e-06
-2.26975e-06 0.000120103 -7.57263e-07
2.7909e-06 -7.57263e-07 4.85648e-05
0.00144717 3.15017e-05 1.20455e-05
3.15017e-05 -0.000160344 -4.59975e-06
1.20455e-05 -4.59975e-06 -0.00026148
0.00175044 -2.86915e-05 -1.31042e-05
-2.86915e-05 0.000148303 2.15529e-05
-1.31042e-05 2.15529e-05 0.000181873
-4.78949e-05 0.000491145 -4.00993e-06
0.000491145 -0.00105386 4.92304e-06
-4.00993e-06 4.92304e-06 7.3705e-06
0.00300948 0.000452546 2.52017e-06
0.000452546 4.06191e-05 -4.61182e-07
2.52017e-06 -4.61182e-07 0.000203752
0.00254325 -4.07086e-05 3.61024e-05
-4.07086e-05 0.000257756 -1.68313e-05
3.61024e-05 -1.68313e-05 -0.00136215
0.0006493 -6.75852e-05 2.64354e-05
-6.75852e-05 0.00028239 -7.11377e-06
2.64354e-05 -7.11377e-06 0.000200085
0.00102748 1.14552e-06 1.98314e-05
1.14552e-06 -0.000148562 -5.76402e-06
1.98314e-05 -5.76402e-06 -0.000272475
-0.00106614 0.000223686 9.38367e-06
0.000223686 -0.000739749 -1.09269e-05
9.38367e-06 -1.09269e-05 -0.000572926
-6.9992e-05 0.000453414 4.45195e-05
0.000453414 -0.000257152 -4.06713e-06
4.45195e-05 -4.06713e-06 8.68047e-05
0.00876172 0.000534136 2.5593e-05
0.000534136 0.00298519 -5.01489e-05
2.5593e-05 -5.01489e-05 0.00164026
0.00286738 -0.00027574 -6.11938e-05
-0.00027574 0.000305234 8.83194e-05
-6.11938e-05 8.83194e-05 -0.000145939
0.000370177 -3.32788e-05 -3.48284e-06
-3.32788e-05 -3.09775e-05 7.20222e-06
-3.48284e-06 7.20222e-06 -0.000157584
0.000407536 -2.73702e-05 4.6699e-07
-2.73702e-05 8.04769e-05 -6.67437e-07
4.6699e-07 -6.67437e-07 -9.42797e-05
0.00161221 -0.000159164 1.17839e-05
-0.000159164 0.000537075 -3.31097e-06
1.17839e-05 -3.31097e-06 0.000402753
0.000803948 1.22075e-05 -2.37482e-06
1.22075e-05 6.95566e-05 -1.44513e-06
-2.37482e-06 -1.44513e-06 -1.13017e-05
0.000409025 -5.62558e-05 9.33987e-07
-5.62558e-05 -3.13092e-05 -5.4462e-07
9.33987e-07 -5.4462e-07 -0.000216538
0.0011498 -0.000123105 4.27711e-06
-0.000123105 0.00022891 5.34424e-06
4.27711e-06 5.34424e-06 3.6774e-05
0.00162907 -0.000125386 -1.39549e-06
-0.000125386 0.000475426 -8.3682e-07
-1.39549e-06 -8.3682e-07 0.000345352
0.00125281 -0.000115741 1.66461e-07
-0.000115741 0.000290045 1.02209e-06
1.66461e-07 1.02209e-06 0.000108735
0.00121532 -0.000135838 -8.89694e-07
-0.000135838 0.000172429 9.61115e-07
-8.89694e-07 9.61115e-07 -1.09265e-05
0.0012062 -0.000108524 -6.84825e-07
-0.000108524 0.000238927 -1.93214e-06
-6.84825e-07 -1.93214e-06 9.42451e-05
0.00158407 -0.000139288 1.38438e-07
-0.000139288 0.000374158 4.70912e-07
1.38438e-07 4.70912e-07 0.000211934
0.00123384 -0.000132672 -1.29809e-06
-0.000132672 0.000139674 -2.18455e-07
-1.29809e-06 -2.18455e-07 -2.56926e-05
0.00142712 -0.000133794 -3.05079e-06
-0.000133794 0.000198451 -1.07408e-06
-3.05079e-06 -1.07408e-06 5.54401e-05
0.00165587 -0.000135416 -4.47201e-06
-0.000135416 0.00038715 3.93182e-06
-4.47201e-06 3.93182e-06 0.000257953
0.00141139 -0.000132225 -7.90195e-07
-0.000132225 0.000251275 6.26527e-07
-7.90195e-07 6.26527e-07 0.000104107
0.000650678 -8.01524e-05 -2.08163e-07
-8.01524e-05 -8.37326e-05 -3.67153e-07
-2.08163e-07 -3.67153e-07 -0.000185392
0.000875092 -9.27279e-05 1.48942e-06
-9.27279e-05 3.3519e-05 -4.35226e-07
1.48942e-06 -4.35226e-07 -7.81047e-05
0.000989942 -0.000102688 1.74194e-06
-0.000102688 7.61907e-05 -1.9142e-06
1.74194e-06 -1.9142e-06 -5.59571e-05
0.00102999 -8.84915e-05 -3.28242e-07
-8.84915e-05 0.000128982 5.14855e-07
-3.28242e-07 5.14855e-07 3.22811e-05
0.0011223 -9.75089e-05 -1.50792e-07
-9.75089e-05 0.000180414 -3.65171e-07
-1.50792e-07 -3.65171e-07 7.9107e-05
0.000817485 -8.43132e-05 3.432e-06
-8.43132e-05 2.6338e-05 -1.88533e-07
3.432e-06 -1.88533e-07 -7.57033e-05
0.000859605 1.12632e-05 8.09328e-08
1.12632e-05 3.68782e-05 1.42518e-06
8.09328e-08 1.42518e-06 -3.67482e-05
0.000872991 -4.11271e-05 5.03427e-08
-4.11271e-05 5.47481e-05 4.73999e-07
5.03427e-08 4.73999e-07 -3.21095e-05
0.00110328 -7.89697e-05 1.24946e-06
-7.89697e-05 0.000184786 -1.25096e-06
1.24946e-06 -1.25096e-06 8.59738e-05
0.000800573 4.23992e-05 -1.03662e-06
4.23992e-05 3.51291e-06 2.19018e-06
-1.03662e-06 2.19018e-06 -3.92446e-05
0.000874154 1.5814e-05 -1.46197e-07
1.5814e-05 3.94226e-05 -7.74331e-08
-1.46197e-07 -7.74331e-08 -2.42239e-05
0.000965617 -2.95971e-05 4.60699e-07
-2.95971e-05 9.36728e-05 -1.02289e-06
4.60699e-07 -1.02289e-06 1.60121e-05
0.000753685 3.4977e-05 -3.19923e-06
3.4977e-05 -2.36883e-05 4.61892e-06
-3.19923e-06 4.61892e-06 -3.27734e-05
0.000810521 3.80996e-05 1.54071e-07
3.80996e-05 4.41193e-06 -7.67812e-08
1.54071e-07 -7.67812e-08 -3.27226e-05
0.000861306 2.02029e-05 5.17751e-07
2.02029e-05 2.76339e-05 -1.353e-06
5.17751e-07 -1.353e-06 -2.75823e-05
0.000820631 3.39564e-05 7.45368e-07
3.39564e-05 4.05615e-06 -1.95823e-06
7.45368e-07 -1.95823e-06 -2.94056e-05
0.000760091 3.16103e-05 5.40005e-08
3.16103e-05 -2.71887e-05 -1.99323e-08
5.40005e-08 -1.99323e-08 -3.40086e-05
0.00214387 4.42278e-05 -2.12484e-05
4.42278e-05 0.000713512 3.45211e-06
-2.12484e-05 3.45211e-06 0.000730703
0.000784025 2.78381e-05 1.68638e-06
2.78381e-05 -2.17405e-05 -3.27648e-06
1.68638e-06 -3.27648e-06 -2.6546e-05
0.00212671 3.8454e-05 1.03758e-06
3.8454e-05 0.000698202 6.46848e-08
1.03758e-06 6.46848e-08 0.000716855
0.00211588 3.25849e-05 1.71446e-05
3.25849e-05 0.00068691 -3.65219e-06
1.71446e-05 -3.65219e-06 0.000706824
0.000920933 1.03792e-05 -1.81728e-07
1.03792e-05 6.0076e-05 -5.68327e-07
-1.81728e-07 -5.68327e-07 -7.52122e-06
0.000872204 2.3272e-05 -8.85051e-07
2.3272e-05 3.17734e-05 -9.84177e-07
-8.85051e-07 -9.84177e-07 -2.53697e-05
0.000811622 -2.42635e-05 -7.0091e-07
-2.42635e-05 -5.38319e-06 -1.61901e-06
-7.0091e-07 -1.61901e-06 -3.98984e-05
0.000875485 1.11526e-05 -1.39544e-07
1.11526e-05 3.03138e-05 -4.61995e-08
-1.39544e-07 -4.61995e-08 -2.26097e-05
0.000782034 -2.38155e-05 -1.04014e-06
-2.38155e-05 -2.60894e-05 -3.26611e-06
-1.04014e-06 -3.26611e-06 -3.14149e-05
0.000825234 -1.88743e-05 -1.08139e-07
-1.88743e-05 -3.64762e-07 4.24149e-09
-1.08139e-07 4.24149e-09 -3.27828e-05
0.00084449 5.33635e-06 1.464e-07
5.33635e-06 1.39816e-05 5.94523e-08
1.464e-07 5.94523e-08 -3.58829e-05
0.00215134 -2.67187e-05 -1.44192e-05
-2.67187e-05 0.000701438 -3.91948e-06
-1.44192e-05 -3.91948e-06 0.000721909
0.000778664 -1.95084e-05 -1.19743e-07
-1.95084e-05 -3.34474e-05 -2.20219e-08
-1.19743e-07 -2.20219e-08 -3.6308e-05
0.000834187 -1.59854e-05 8.66341e-08
-1.59854e-05 2.01224e-06 8.49991e-07
8.66341e-08 8.49991e-07 -2.81924e-05
0.00208558 -1.98249e-05 -1.6925e-06
-1.98249e-05 0.000661355 4.43703e-08
-1.6925e-06 4.43703e-08 0.000683486
0.000774153 -1.46172e-05 4.42336e-07
-1.46172e-05 -4.08554e-05 3.06143e-06
4.42336e-07 3.06143e-06 -4.13108e-05
0.00203512 -1.27816e-05 6.74836e-06
-1.27816e-05 0.000630703 3.91091e-06
6.74836e-06 3.91091e-06 0.000654102
0.000875758 2.53007e-06 -4.56033e-06
2.53007e-06 4.15107e-05 -4.60703e-06
-4.56033e-06 -4.60703e-06 -2.59774e-05
0.000920464 7.97322e-07 3.19242e-06
7.97322e-07 0.000129169 -2.74219e-06
3.19242e-06 -2.74219e-06 3.83626e-05
0.00112139 -1.12358e-06 -9.6919e-06
-1.12358e-06 0.000161623 6.3299e-06
-9.6919e-06 6.3299e-06 9.24152e-05
0.000883014 -5.02403e-07 -2.40887e-07
-5.02403e-07 3.9557e-05 -7.91457e-09
-2.40887e-07 -7.91457e-09 -2.73025e-05
0.000942093 -1.11552e-05 -8.03808e-08
-1.11552e-05 7.25967e-05 2.51353e-07
-8.03808e-08 2.51353e-07 1.3155e-06
0.000884522 -9.31301e-06 6.97563e-08
-9.31301e-06 4.59804e-05 -1.36168e-06
6.97563e-08 -1.36168e-06 -2.98788e-05
0.000847256 -1.80214e-05 -6.21244e-08
-1.80214e-05 2.3363e-05 -5.65969e-07
-6.21244e-08 -5.65969e-07 -4.73697e-05
0.00103295 3.06618e-05 -4.41452e-07
3.06618e-05 0.000128295 -8.89316e-08
-4.41452e-07 -8.89316e-08 4.98305e-05
0.000841572 -2.09989e-05 -1.00838e-07
-2.09989e-05 1.35503e-05 1.62803e-07
-1.00838e-07 1.62803e-07 -5.00259e-05
0.000870537 -8.46574e-06 1.77398e-07
-8.46574e-06 3.57951e-05 -3.08598e-07
1.77398e-07 -3.08598e-07 -3.48413e-05
0.000931306 1.71793e-05 -1.81657e-07
1.71793e-05 7.07515e-05 -4.7092e-08
-1.81657e-07 -4.7092e-08 -4.27045e-07
0.000952281 2.50242e-05 2.48236e-07
2.50242e-05 8.01785e-05 3.89231e-07
2.48236e-07 3.89231e-07 4.2122e-06
0.00101159 1.87991e-05 -1.59397e-07
1.87991e-05 0.000117477 4.96018e-07
-1.59397e-07 4.96018e-07 4.20016e-05
0.00150458 -2.70855e-05 2.8938e-05
-2.70855e-05 6.66718e-06 3.02629e-05
2.8938e-05 3.02629e-05 -0.000122004
0.00147167 -1.02199e-06 2.08691e-06
-1.02199e-06 9.22269e-05 9.62468e-06
2.08691e-06 9.62468e-06 3.41391e-05
0.0011025 1.02638e-05 3.13418e-06
1.02638e-05 3.71959e-05 4.70541e-07
3.13418e-06 4.70541e-07 -3.00185e-05
0.00296555 -0.000118118 -1.17277e-05
-0.000118118 6.41558e-05 -2.31311e-05
-1.17277e-05 -2.31311e-05 0.00063303
-0.00273867 9.60411e-05 -9.39829e-06
9.60411e-05 -0.00234194 -4.80672e-05
-9.39829e-06 -4.80672e-05 -0.00250427
0.00170785 -0.00031521 -0.00010368
-0.00031521 -0.000527207 8.35404e-05
-0.00010368 8.35404e-05 -0.00104206
0.00788971 0.000200048 -3.29411e-05
0.000200048 0.00224009 -4.18111e-05
-3.29411e-05 -4.18111e-05 0.00126414
0.00217084 -0.000270367 -3.87565e-05
-0.000270367 -3.72474e-05 4.06848e-05
-3.87565e-05 4.06848e-05 -0.000455541
0.00805229 -0.000146354 4.02404e-05
-0.000146354 0.00260542 -7.89742e-07
4.02404e-05 -7.89742e-07 0.00142824
0.000864938 -0.000188748 1.55424e-05
-0.000188748 -0.000821772 -1.51707e-05
1.55424e-05 -1.51707e-05 -0.000908791
0.000664863 -0.000222771 -7.99697e-06
-0.000222771 -0.00144068 -2.24927e-05
-7.99697e-06 -2.24927e-05 -0.00068392
0.00224858 -8.06972e-05 -7.46134e-05
-8.06972e-05 0.000306432 -4.57019e-05
-7.46134e-05 -4.57019e-05 -0.000156784
0.00811793 -0.000414769 -2.5049e-05
-0.000414769 0.00219593 4.86437e-05
-2.5049e-05 4.86437e-05 0.00132259
0.00764479 -0.000603856 3.13952e-05
-0.000603856 0.00224603 1.35292e-05
3.13952e-05 1.35292e-05 0.00246487
0.00252803 -0.000380344 1.31996e-05
-0.000380344 0.000214708 7.33125e-07
1.31996e-05 7.33125e-07 0.00115444
0.000837143 1.67676e-05 6.4047e-07
1.67676e-05 3.78926e-05 1.63926e-06
6.4047e-07 1.63926e-06 -2.8906e-05
0.00101168 -2.65642e-05 -1.15441e-07
-2.65642e-05 0.000107121 2.43038e-07
-1.15441e-07 2.43038e-07 3.33052e-05
0.000839441 1.64652e-06 1.89784e-07
1.64652e-06 1.91339e-05 -9.73804e-07
1.89784e-07 -9.73804e-07 -5.90712e-05
0.00207343 -0.000130815 1.82106e-05
-0.000130815 0.00104574 -1.42415e-06
1.82106e-05 -1.42415e-06 0.000861519
0.000979968 -2.85115e-05 -7.16006e-06
-2.85115e-05 0.000286648 -6.06566e-06
-7.16006e-06 -6.06566e-06 0.000266161
0.000880305 -7.22937e-06 -4.52164e-07
-7.22937e-06 3.41639e-05 -5.3972e-07
-4.52164e-07 -5.3972e-07 -3.81691e-05
0.000887279 -4.18296e-05 -1.31878e-06
-4.18296e-05 4.34644e-05 -2.30441e-06
-1.31878e-06 -2.30441e-06 -3.48456e-05
0.000877372 -1.3874e-05 -4.5151e-07
-1.3874e-05 4.67704e-05 -2.37422e-07
-4.5151e-07 -2.37422e-07 -2.56417e-05
0.0005822 -3.80675e-05 1.18148e-06
-3.80675e-05 6.79252e-05 4.44241e-06
1.18148e-06 4.44241e-06 -1.71502e-05
-0.000378607 -3.96827e-06 2.02118e-05
-3.96827e-06 0.000195059 -2.13564e-05
2.02118e-05 -2.13564e-05 -0.000404923
-6.77613e-05 -9.26248e-06 -1.46112e-06
-9.26248e-06 -0.000278872 5.9611e-06
-1.46112e-06 5.9611e-06 -0.000381128
0.00166778 0.00012607 2.13615e-05
0.00012607 0.000736049 -7.74961e-06
2.13615e-05 -7.74961e-06 0.00044279
0.00157341 -1.97354e-06 1.40756e-05
-1.97354e-06 0.000210855 -7.32768e-07
1.40756e-05 -7.32768e-07 9.3271e-05
0.000907882 9.50697e-07 -9.29898e-07
9.50697e-07 9.93513e-05 -8.38663e-07
-9.29898e-07 -8.38663e-07 2.02561e-05
0.00070329 1.75324e-07 2.53376e-07
1.75324e-07 -8.43505e-06 -2.41625e-07
2.53376e-07 -2.41625e-07 -0.000121611
-0.00066797 -2.31968e-05 -2.03237e-05
-2.31968e-05 -0.000152195 1.10853e-05
-2.03237e-05 1.10853e-05 -0.000305889
0.00130451 3.45379e-05 2.93527e-05
3.45379e-05 -0.000244187 -4.34536e-05
2.93527e-05 -4.34536e-05 -0.000499636
0.00112045 -2.47329e-06 9.36641e-06
-2.47329e-06 0.000163522 -6.65451e-06
9.36641e-06 -6.65451e-06 9.31128e-05
0.00928624 0.000206659 5.79811e-05
0.000206659 0.00302693 7.71781e-06
5.79811e-05 7.71781e-06 0.0015362
0.00528089 0.000613454 -4.91825e-05
0.000613454 0.00138907 3.11487e-05
-4.91825e-05 3.11487e-05 0.00145922
0.00109338 2.34171e-05 -1.91155e-05
2.34171e-05 -0.000365989 1.59649e-05
-1.91155e-05 1.59649e-05 -0.000504354
-0.00153117 0.000519536 -1.47372e-05
0.000519536 -0.00212908 -1.75391e-05
-1.47372e-05 -1.75391e-05 -0.000875528
0.000190462 -4.00961e-05 -7.40853e-06
-4.00961e-05 9.82983e-05 -7.62005e-07
-7.40853e-06 -7.62005e-07 -4.86617e-06
0.00113016 -1.33713e-06 8.54599e-07
-1.33713e-06 -8.39269e-05 -7.33535e-07
8.54599e-07 -7.33535e-07 -0.000204847
-0.00127559 0.000255708 -2.62738e-05
0.000255708 -0.000808646 8.71741e-06
-2.62738e-05 8.71741e-06 -0.00060139
0.00212418 -0.000243878 -6.58755e-06
-0.000243878 8.83975e-05 2.89899e-05
-6.58755e-06 2.89899e-05 -0.000212251
0.00376224 0.000637447 7.0511e-06
0.000637447 0.00104357 5.35665e-06
7.0511e-06 5.35665e-06 0.00135215
0.00546947 0.000155605 3.46174e-05
0.000155605 0.00134274 -1.91343e-05
3.46174e-05 -1.91343e-05 -0.000157848
0.00248828 -0.000193189 2.53902e-05
-0.000193189 0.000724624 1.02669e-05
2.53902e-05 1.02669e-05 0.000811269
-0.00109835 7.48338e-05 2.31066e-05
7.48338e-05 -0.00048622 -1.37904e-06
2.31066e-05 -1.37904e-06 -0.000631868
0.00292623 0.000473401 2.21517e-05
0.000473401 0.00134081 -5.92463e-06
2.21517e-05 -5.92463e-06 0.00148948
0.00494182 0.000474216 -4.06674e-05
0.000474216 0.0012334 3.7212e-05
-4.06674e-05 3.7212e-05 -3.67418e-05
0.00210727 -0.000345187 -1.48351e-05
-0.000345187 0.000103921 2.66117e-05
-1.48351e-05 2.66117e-05 -0.000418185
0.000632533 -2.88989e-06 -3.19798e-06
-2.88989e-06 0.000190817 4.68175e-06
-3.19798e-06 4.68175e-06 2.12765e-05
0.000774801 -0.000123749 1.38518e-06
-0.000123749 0.000137732 -2.64645e-06
1.38518e-06 -2.64645e-06 -2.45094e-05
0.00202996 -0.000169373 8.27458e-06
-0.000169373 0.000422384 9.34145e-07
8.27458e-06 9.34145e-07 0.000358834
-9.54388e-05 -1.70535e-05 -1.30491e-06
-1.70535e-05 -0.000267203 -5.23869e-08
-1.30491e-06 -5.23869e-08 -0.000455945
0.000781247 -0.000104377 2.73352e-06
-0.000104377 5.74977e-05 8.97988e-08
2.73352e-06 8.97988e-08 -0.000132479
0.00112533 -0.000153297 5.5388e-09
-0.000153297 2.21722e-05 7.79553e-07
5.5388e-09 7.79553e-07 -0.000132411
0.00142769 -0.000122757 -1.40786e-06
-0.000122757 0.000366113 -1.27851e-06
-1.40786e-06 -1.27851e-06 0.000186455
0.00118048 -0.000132969 -7.86012e-07
-0.000132969 0.000146816 -7.73876e-07
-7.86012e-07 -7.73876e-07 -3.21783e-05
0.00177265 -0.000165031 -2.08067e-06
-0.000165031 0.000318546 -2.0544e-06
-2.08067e-06 -2.0544e-06 0.000173715
0.00150891 -0.000136233 1.03292e-06
-0.000136233 0.000328369 -1.52438e-06
1.03292e-06 -1.52438e-06 0.000166683
0.00127153 -0.000131464 5.05459e-07
-0.000131464 0.000156529 -8.89749e-07
5.05459e-07 -8.89749e-07 -4.5465e-06
0.00147206 -0.000136729 -2.62827e-06
-0.000136729 0.000158707 -3.27302e-06
-2.62827e-06 -3.27302e-06 2.32585e-05
0.00142688 -0.000123992 -2.49123e-06
-0.000123992 0.000128104 -2.48246e-06
-2.49123e-06 -2.48246e-06 4.11972e-06
0.00114002 -0.000115603 -2.82654e-06
-0.000115603 7.65383e-05 3.6278e-07
-2.82654e-06 3.6278e-07 -5.56583e-05
0.00129407 -0.000127044 4.15614e-07
-0.000127044 0.000128032 -8.15484e-07
4.15614e-07 -8.15484e-07 -1.35496e-05
0.00131662 -0.000114618 -2.18356e-06
-0.000114618 0.000227593 2.46576e-06
-2.18356e-06 2.46576e-06 0.000113078
0.00131187 -0.000121021 -1.95769e-07
-0.000121021 0.000210692 7.10865e-07
-1.95769e-07 7.10865e-07 7.97386e-05
0.00127966 -0.00012766 1.88502e-06
-0.00012766 0.000179745 -1.03813e-06
1.88502e-06 -1.03813e-06 2.96906e-05
0.00096274 -9.04858e-05 -7.12039e-07
-9.04858e-05 7.80641e-05 -6.81647e-07
-7.12039e-07 -6.81647e-07 -1.73846e-05
0.000766175 -8.47365e-05 -2.61763e-07
-8.47365e-05 -2.20273e-05 -1.14184e-06
-2.61763e-07 -1.14184e-06 -0.000122571
0.00100547 -9.8122e-05 4.71011e-06
-9.8122e-05 0.00010099 -3.13556e-06
4.71011e-06 -3.13556e-06 -9.93278e-06
0.000912159 -4.13149e-05 -4.13769e-07
-4.13149e-05 6.24213e-05 1.31521e-06
-4.13769e-07 1.31521e-06 -1.97319e-05
0.00101191 -8.18229e-05 2.6883e-07
-8.18229e-05 0.000119625 4.95137e-07
2.6883e-07 4.95137e-07 2.4188e-05
0.00107259 -9.47361e-05 9.86828e-07
-9.47361e-05 0.000155816 6.77552e-07
9.86828e-07 6.77552e-07 5.42148e-05
0.000812282 5.96915e-05 -5.45283e-07
5.96915e-05 1.61006e-05 2.59156e-06
-5.45283e-07 2.59156e-06 -3.6733e-05
0.000889573 1.73119e-06 -7.94051e-09
1.73119e-06 5.35618e-05 -2.88401e-08
-7.94051e-09 -2.88401e-08 -2.11774e-05
0.000973953 -4.79206e-05 7.31386e-08
-4.79206e-05 0.000107501 -5.01961e-07
7.31386e-08 -5.01961e-07 2.10546e-05
0.00136746 4.55847e-05 -1.26225e-05
4.55847e-05 0.000311544 3.13964e-06
-1.26225e-05 3.13964e-06 0.000302265
0.000791489 4.13689e-05 1.844e-08
4.13689e-05 -1.44334e-06 -1.62326e-07
1.844e-08 -1.62326e-07 -4.41132e-05
0.000857324 6.25389e-06 6.26667e-07
6.25389e-06 3.16505e-05 -1.47128e-06
6.26667e-07 -1.47128e-06 -3.2725e-05
0.000919498 3.03649e-05 -1.99029e-05
3.03649e-05 6.91986e-05 3.53616e-06
-1.99029e-05 3.53616e-06 7.85514e-05
0.00107936 3.93222e-05 -5.25718e-06
3.93222e-05 0.000150142 3.72091e-07
-5.25718e-06 3.72091e-07 0.000142258
0.000803169 4.26454e-05 5.55415e-07
4.26454e-05 1.18406e-06 -2.12962e-06
5.55415e-07 -2.12962e-06 -3.64116e-05
0.000780544 3.23305e-05 1.90845e-06
3.23305e-05 -1.66371e-05 -3.34302e-06
1.90845e-06 -3.34302e-06 -2.3548e-05
0.00215145 4.44133e-05 8.19693e-07
4.44133e-05 0.000718552 6.65288e-08
8.19693e-07 6.65288e-08 0.00073552
0.00212897 3.85964e-05 1.99536e-05
3.85964e-05 0.000700339 -3.5479e-06
1.99536e-05 -3.5479e-06 0.000718833
0.000860608 -7.12281e-06 -5.12203e-08
-7.12281e-06 2.89054e-05 -1.20045e-06
-5.12203e-08 -1.20045e-06 -4.12858e-05
0.000879836 2.37339e-06 -4.36757e-07
2.37339e-06 3.49584e-05 -1.32532e-06
-4.36757e-07 -1.32532e-06 -2.41174e-05
0.000914138 -7.39714e-06 -1.70479e-08
-7.39714e-06 5.50861e-05 -1.88827e-08
-1.70479e-08 -1.88827e-08 -1.19896e-05
0.000805895 -3.5358e-05 -5.45803e-07
-3.5358e-05 -3.62206e-06 -1.91481e-06
-5.45803e-07 -1.91481e-06 -4.065e-05
0.000889307 -1.09272e-06 4.66051e-07
-1.09272e-06 3.90361e-05 -8.90884e-08
4.66051e-07 -8.90884e-08 -1.68427e-05
0.000768583 -2.73719e-05 -1.39917e-06
-2.73719e-05 -2.73853e-05 -3.38375e-06
-1.39917e-06 -3.38375e-06 -3.48301e-05
0.000821384 -2.05851e-05 -1.9909e-07
-2.05851e-05 1.8848e-07 1.22857e-08
-1.9909e-07 1.22857e-08 -3.43218e-05
0.000895384 2.96627e-05 9.61803e-07
2.96627e-05 4.48837e-05 7.51503e-07
9.61803e-07 7.51503e-07 -1.08013e-05
0.00220708 -3.29521e-05 -1.80734e-05
-3.29521e-05 0.000736447 -3.85861e-06
-1.80734e-05 -3.85861e-06 0.000755353
0.000767665 -2.34824e-05 -2.40644e-07
-2.34824e-05 -3.35457e-05 -5.50356e-09
-2.40644e-07 -5.50356e-09 -3.87915e-05
0.000839585 -1.86981e-05 3.51496e-07
-1.86981e-05 7.62097e-06 1.46879e-06
3.51496e-07 1.46879e-06 -2.4889e-05
0.00213804 -2.64745e-05 -1.52377e-06
-2.64745e-05 0.000693781 5.72787e-08
-1.52377e-06 5.72787e-08 0.000714474
0.000762784 -1.91875e-05 5.37057e-07
-1.91875e-05 -4.17805e-05 3.15644e-06
5.37057e-07 3.15644e-06 -4.45295e-05
0.00207238 -1.94449e-05 9.98265e-06
-1.94449e-05 0.000653821 3.8833e-06
9.98265e-06 3.8833e-06 0.000676168
0.00144981 -2.38165e-06 1.80088e-05
-2.38165e-06 0.000176717 4.90131e-06
1.80088e-05 4.90131e-06 8.67728e-05
0.000919853 3.11156e-06 1.11825e-06
3.11156e-06 6.95393e-05 -3.6957e-07
1.11825e-06 -3.6957e-07 2.93421e-06
0.00088901 2.18599e-07 4.68046e-06
2.18599e-07 0.000131603 4.78203e-06
4.68046e-06 4.78203e-06 3.45222e-05
0.000957846 3.49571e-05 -6.78435e-07
3.49571e-05 9.4479e-05 -1.5209e-08
-6.78435e-07 -1.5209e-08 1.31972e-05
0.000951317 -4.07018e-06 1.21419e-07
-4.07018e-06 7.57563e-05 3.36255e-07
1.21419e-07 3.36255e-07 9.25571e-06
0.000926858 -1.47876e-05 9.31623e-08
-1.47876e-05 6.37236e-05 4.43259e-07
9.31623e-08 4.43259e-07 -8.10639e-06
0.0009414 -1.98206e-05 1.10835e-07
-1.98206e-05 7.25842e-05 -1.76358e-07
1.10835e-07 -1.76358e-07 2.21459e-06
0.000948999 7.69257e-06 1.02345e-07
7.69257e-06 8.04026e-05 -3.59288e-07
1.02345e-07 -3.59288e-07 4.0937e-06
0.000964941 1.97506e-05 -4.97566e-08
1.97506e-05 9.05218e-05 4.67239e-07
-4.97566e-08 4.67239e-07 1.28256e-05
0.000972384 2.83531e-05 -3.42751e-07
2.83531e-05 9.70676e-05 -1.13182e-06
-3.42751e-07 -1.13182e-06 1.50918e-05
0.000825619 1.28915e-06 1.91717e-07
1.28915e-06 1.89282e-05 4.59872e-09
1.91717e-07 4.59872e-09 -5.6887e-05
0.000900593 3.7525e-05 3.68727e-07
3.7525e-05 5.81431e-05 -2.17409e-07
3.68727e-07 -2.17409e-07 -1.44349e-05
0.000942385 -3.26977e-05 3.31145e-07
-3.26977e-05 6.77996e-05 -3.97151e-07
3.31145e-07 -3.97151e-07 -5.41218e-06
0.000965622 1.09008e-05 -8.2158e-08
1.09008e-05 9.27763e-05 9.45989e-08
-8.2158e-08 9.45989e-08 1.7904e-05
0.00142586 1.43244e-05 2.51904e-06
1.43244e-05 0.000339186 6.3179e-07
2.51904e-06 6.3179e-07 0.000262724
0.00153467 -0.000247406 3.40539e-05
-0.000247406 0.000483893 2.388e-05
3.40539e-05 2.388e-05 0.000756767
0.00175064 -2.44108e-05 2.78554e-06
-2.44108e-05 0.000148818 8.32582e-06
2.78554e-06 8.32582e-06 2.25144e-05
0.0015332 -2.21392e-06 2.30534e-06
-2.21392e-06 0.000112014 -2.55658e-06
2.30534e-06 -2.55658e-06 5.54296e-05
0.00316853 -0.000278639 -3.26207e-05
-0.000278639 1.08168e-05 -2.65059e-05
-3.26207e-05 -2.65059e-05 0.000877249
0.00410906 -0.000316774 3.99651e-06
-0.000316774 0.000306255 -6.12962e-05
3.99651e-06 -6.12962e-05 0.000205433
0.00294825 5.47019e-06 -8.98291e-05
5.47019e-06 -0.000425925 8.99042e-05
-8.98291e-05 8.99042e-05 -0.00110312
0.00213001 -0.000288527 -5.68245e-05
-0.000288527 0.000177743 8.76212e-05
-5.68245e-05 8.76212e-05 -0.00021095
0.00267546 -0.000144205 -9.43066e-06
-0.000144205 0.000671422 1.63793e-05
-9.43066e-06 1.63793e-05 0.000379117
0.000490638 -0.000407593 -1.30919e-05
-0.000407593 -0.000894219 -3.31956e-06
-1.30919e-05 -3.31956e-06 0.000136501
0.00485869 -0.000128451 1.27624e-05
-0.000128451 0.00100978 4.5909e-05
1.27624e-05 4.5909e-05 -0.000254032
-3.64615e-05 -0.000311824 -2.85032e-06
-0.000311824 -0.00116293 -1.76399e-06
-2.85032e-06 -1.76399e-06 -0.000900047
0.00316598 0.000157804 -6.94825e-05
0.000157804 0.000682256 -4.23118e-05
-6.94825e-05 -4.23118e-05 0.000481837
0.00855668 -0.000409372 2.33749e-06
-0.000409372 0.00286627 3.69696e-05
2.33749e-06 3.69696e-05 0.00174368
-6.16192e-05 -0.000381327 1.19923e-05
-0.000381327 -0.000213397 -8.42182e-06
1.19923e-05 -8.42182e-06 9.60545e-05
0.00067692 0.000100589 -1.37971e-06
0.000100589 -3.13505e-05 -4.60877e-07
-1.37971e-06 -4.60877e-07 -9.65861e-05
0.00107133 1.76635e-05 2.25336e-06
1.76635e-05 0.000154498 9.70148e-08
2.25336e-06 9.70148e-08 8.9057e-05
0.000950084 -7.81483e-06 -5.36313e-07
-7.81483e-06 7.94407e-05 -8.01839e-07
-5.36313e-07 -8.01839e-07 3.99483e-06
-0.000735855 -2.26469e-05 -1.88643e-05
-2.26469e-05 -8.58098e-05 -2.15117e-05
-1.88643e-05 -2.15117e-05 -0.000646496
-4.83966e-05 -1.88261e-05 -8.34763e-07
-1.88261e-05 -0.000258419 -4.78928e-06
-8.34763e-07 -4.78928e-06 -0.000347655
0.000766769 6.78416e-06 1.03869e-06
6.78416e-06 -7.52122e-06 4.51728e-07
1.03869e-06 4.51728e-07 -7.96417e-05
0.000782995 4.37776e-05 1.44665e-06
4.37776e-05 0.000123738 6.20699e-07
1.44665e-06 6.20699e-07 1.98012e-05
0.000704249 7.77459e-05 1.39674e-06
7.77459e-05 0.000198634 -1.21465e-05
1.39674e-06 -1.21465e-05 -3.42329e-05
-0.00063924 8.48377e-05 1.1812e-05
8.48377e-05 -0.000620494 1.19595e-05
1.1812e-05 1.19595e-05 -0.000758882
0.0013995 -9.58136e-06 4.08287e-05
-9.58136e-06 0.000878478 -1.8253e-06
4.08287e-05 -1.8253e-06 0.000757163
0.00116666 -2.00196e-06 -1.81737e-06
-2.00196e-06 2.67594e-05 -7.23276e-07
-1.81737e-06 -7.23276e-07 -7.48173e-05
0.000511911 2.15082e-06 8.34068e-06
2.15082e-06 -0.000133708 -1.9515e-06
8.34068e-06 -1.9515e-06 -0.00021783
5.87096e-05 -3.46269e-05 3.18175e-06
-3.46269e-05 5.26279e-05 4.50865e-06
3.18175e-06 4.50865e-06 -6.07393e-05
0.00164854 -0.000230049 2.33897e-05
-0.000230049 -0.000145825 -3.51086e-05
2.33897e-05 -3.51086e-05 -0.000349896
0.00123564 -4.50167e-06 -1.79284e-05
-4.50167e-06 -1.67422e-05 -2.84668e-06
-1.79284e-05 -2.84668e-06 -0.000133172
0.00194342 0.00015288 -5.59071e-07
0.00015288 -0.000171996 1.55235e-05
-5.59071e-07 1.55235e-05 -0.00146374
-0.00237554 0.000411832 -4.62165e-05
0.000411832 -0.00184556 8.61508e-06
-4.62165e-05 8.61508e-06 -0.00144305
0.00121738 0.000299577 -4.54949e-05
0.000299577 0.000380448 2.18593e-05
-4.54949e-05 2.18593e-05 0.0007921
0.00163181 -0.000156239 -4.78963e-06
-0.000156239 0.000257019 4.40027e-06
-4.78963e-06 4.40027e-06 0.000395562
0.0011291 0.000116995 -2.16457e-06
0.000116995 0.000685544 2.83912e-06
-2.16457e-06 2.83912e-06 0.000717942
-0.00354373 0.000235849 8.9081e-06
0.000235849 -0.00135681 6.01918e-07
8.9081e-06 6.01918e-07 -0.00142114
0.00305979 -0.000359903 -7.01541e-06
-0.000359903 0.000498416 1.53773e-05
-7.01541e-06 1.53773e-05 -0.000297134
0.00694465 0.000408241 -1.64559e-05
0.000408241 0.00211114 1.96787e-06
-1.64559e-05 1.96787e-06 0.000968582
0.000205347 -0.000160141 -3.0607e-06
-0.000160141 -0.000460621 4.98468e-06
-3.0607e-06 4.98468e-06 -0.000413647
-0.00453824 0.000117624 1.6394e-05
0.000117624 -0.00227748 -1.05323e-05
1.6394e-05 -1.05323e-05 -0.00219679
0.00655932 0.00037671 7.23602e-07
0.00037671 0.00213971 3.00856e-06
7.23602e-07 3.00856e-06 0.00113214
0.00321804 -0.000161909 -2.0642e-05
-0.000161909 -4.34397e-05 2.8765e-05
-2.0642e-05 2.8765e-05 -0.00058596
-0.000184254 -8.22148e-05 -7.5313e-06
-8.22148e-05 -0.000304183 -1.52618e-06
-7.5313e-06 -1.52618e-06 -0.000506255
0.00128273 -0.00014082 -1.03079e-06
-0.00014082 8.62916e-05 -1.64291e-07
-1.03079e-06 -1.64291e-07 3.75104e-05
0.00164563 -0.000159601 4.05805e-06
-0.000159601 3.56992e-05 -3.59995e-06
4.05805e-06 -3.59995e-06 2.03661e-05
0.000395392 -8.49615e-05 -1.28919e-06
-8.49615e-05 -0.000120778 -4.11548e-06
-1.28919e-06 -4.11548e-06 -0.000310611
0.00123955 -0.000155081 -1.01799e-06
-0.000155081 7.36781e-05 -1.72429e-06
-1.01799e-06 -1.72429e-06 -8.00509e-05
0.00158741 -0.000172501 -3.74898e-06
-0.000172501 5.94598e-05 -2.873e-06
-3.74898e-06 -2.873e-06 -4.97487e-05
0.00114652 -0.00013028 -2.80186e-08
-0.00013028 0.000121533 -2.4123e-06
-2.80186e-08 -2.4123e-06 -5.31517e-05
0.00137793 -0.000147759 6.37697e-07
-0.000147759 0.000119497 -9.40906e-07
6.37697e-07 -9.40906e-07 -2.52774e-05
0.0017443 -0.000146842 -2.75804e-06
-0.000146842 0.000178963 -3.8592e-06
-2.75804e-06 -3.8592e-06 7.00909e-05
0.00130571 -0.000130106 1.12591e-06
-0.000130106 0.000171239 -8.28508e-07
1.12591e-06 -8.28508e-07 1.46208e-05
0.00136239 -0.000130917 -3.37841e-07
-0.000130917 9.92444e-05 -8.27218e-07
-3.37841e-07 -8.27218e-07 -3.46666e-05
0.00165617 -0.000125434 -2.70425e-06
-0.000125434 0.000161209 -3.94946e-06
-2.70425e-06 -3.94946e-06 5.87485e-05
0.00160531 -0.000115817 -2.27467e-06
-0.000115817 0.000173057 -3.10574e-06
-2.27467e-06 -3.10574e-06 7.37751e-05
0.00134588 -0.000119752 -2.98727e-06
-0.000119752 0.000122157 -1.33124e-06
-2.98727e-06 -1.33124e-06 1.9417e-07
0.00142129 -0.000121137 8.42251e-07
-0.000121137 0.000125817 8.87451e-08
8.42251e-07 8.87451e-08 4.12956e-06
0.00071389 -9.229e-05 -2.56834e-06
-9.229e-05 -0.000120217 1.33172e-06
-2.56834e-06 1.33172e-06 -0.000239277
0.00131735 -0.000121714 1.13298e-06
-0.000121714 0.000167867 -1.07015e-06
1.13298e-06 -1.07015e-06 3.69557e-05
0.00114749 -0.000119738 2.90271e-06
-0.000119738 5.08243e-05 -4.10876e-07
2.90271e-06 -4.10876e-07 -8.92969e-05
0.00101975 -9.69816e-05 -8.68701e-07
-9.69816e-05 9.30643e-05 1.05477e-06
-8.68701e-07 1.05477e-06 -7.74166e-06
0.0010112 -0.000100848 4.44708e-07
-0.000100848 7.38425e-05 -2.06813e-07
4.44708e-07 -2.06813e-07 -3.99125e-05
0.000964004 -0.000106394 2.39402e-06
-0.000106394 3.22824e-05 -2.04845e-06
2.39402e-06 -2.04845e-06 -0.000100416
0.000978325 -7.59699e-05 -1.80807e-06
-7.59699e-05 8.58232e-05 4.27678e-07
-1.80807e-06 4.27678e-07 1.03709e-06
0.00104406 -9.36731e-05 -2.30705e-07
-9.36731e-05 0.000118766 -4.47844e-07
-2.30705e-07 -4.47844e-07 2.31125e-05
0.000884988 -8.94742e-05 5.64649e-07
-8.94742e-05 4.13583e-05 -1.71382e-06
5.64649e-07 -1.71382e-06 -5.80764e-05
0.000874638 1.63525e-05 -7.35799e-07
1.63525e-05 4.97791e-05 2.83326e-06
-7.35799e-07 2.83326e-06 -1.11534e-05
0.000954244 -3.65103e-05 7.04398e-07
-3.65103e-05 8.36755e-05 3.65765e-07
7.04398e-07 3.65765e-07 1.7807e-06
0.000989011 -7.37654e-05 1.0811e-06
-7.37654e-05 0.000107683 4.9729e-07
1.0811e-06 4.9729e-07 1.35832e-05
0.00068906 4.35164e-05 -2.96257e-06
4.35164e-05 -4.16546e-05 3.84987e-06
-2.96257e-06 3.84987e-06 -5.90397e-05
0.000792307 2.86154e-05 -2.46973e-07
2.86154e-05 2.48697e-06 -2.13159e-07
-2.46973e-07 -2.13159e-07 -4.85206e-05
0.000915846 -8.68011e-06 3.46543e-07
-8.68011e-06 6.82336e-05 -1.60579e-06
3.46543e-07 -1.60579e-06 -7.56336e-06
0.00223937 6.20074e-05 -9.46391e-06
6.20074e-05 0.000781893 1.38525e-06
-9.46391e-06 1.38525e-06 0.000793596
0.000734087 3.96818e-05 1.51475e-07
3.96818e-05 -2.54696e-05 -9.08055e-09
1.51475e-07 -9.08055e-09 -3.873e-05
0.00078156 4.03851e-05 9.7709e-07
4.03851e-05 -6.41031e-06 -2.30638e-06
9.7709e-07 -2.30638e-06 -4.92812e-05
0.0021926 4.99439e-05 8.4679e-07
4.99439e-05 0.000747602 5.96676e-08
8.4679e-07 5.96676e-08 0.000762775
0.000775655 3.67958e-05 2.25821e-06
3.67958e-05 -1.16513e-05 -3.47972e-06
2.25821e-06 -3.47972e-06 -2.1404e-05
0.00216118 4.44721e-05 2.27901e-05
4.44721e-05 0.000724737 -3.45032e-06
2.27901e-05 -3.45032e-06 0.000741492
0.000986234 3.11419e-05 -4.11091e-07
3.11419e-05 0.000104016 -1.72155e-07
-4.11091e-07 -1.72155e-07 2.87778e-05
0.000883959 9.43758e-07 6.28987e-08
9.43758e-07 4.16348e-05 -3.05614e-07
6.28987e-08 -3.05614e-07 -2.92118e-05
0.000877036 -8.00305e-06 -4.0715e-07
-8.00305e-06 3.77049e-05 -1.53354e-06
-4.0715e-07 -1.53354e-06 -2.61369e-05
0.000796917 -4.03595e-05 -7.47261e-07
-4.03595e-05 -4.2605e-06 -2.18588e-06
-7.47261e-07 -2.18588e-06 -4.36043e-05
0.000865496 -1.09384e-05 4.93508e-07
-1.09384e-05 2.81571e-05 -5.15282e-08
4.93508e-07 -5.15282e-08 -3.10805e-05
0.000871724 4.95741e-06 4.98715e-07
4.95741e-06 3.52634e-05 7.31546e-07
4.98715e-07 7.31546e-07 -3.37192e-05
0.00076309 -3.06169e-05 -2.03801e-06
-3.06169e-05 -2.45146e-05 -3.49288e-06
-2.03801e-06 -3.49288e-06 -3.38101e-05
0.00081176 -2.79539e-05 -2.20431e-07
-2.79539e-05 -1.29376e-06 9.15982e-09
-2.20431e-07 9.15982e-09 -3.78195e-05
0.000874985 -8.44414e-06 9.40348e-07
-8.44414e-06 3.15082e-05 9.71884e-07
9.40348e-07 9.71884e-07 -2.42902e-05
0.00224748 -3.89344e-05 -2.13122e-05
-3.89344e-05 0.000763896 -3.77471e-06
-2.13122e-05 -3.77471e-06 0.000781248
0.000754281 -2.69026e-05 -1.55623e-07
-2.69026e-05 -3.46965e-05 1.499e-09
-1.55623e-07 1.499e-09 -4.20914e-05
0.00083005 -1.93317e-05 8.25784e-07
-1.93317e-05 4.92224e-06 1.57816e-06
8.25784e-07 1.57816e-06 -2.95366e-05
0.00219602 -3.28425e-05 -1.58877e-06
-3.28425e-05 0.000729966 7.07693e-08
-1.58877e-06 7.07693e-08 0.000749055
0.000750952 -2.31269e-05 7.16791e-07
-2.31269e-05 -4.22213e-05 3.29275e-06
7.16791e-07 3.29275e-06 -4.73824e-05
0.00212614 -2.61472e-05 1.30368e-05
-2.61472e-05 0.00068686 3.86392e-06
1.30368e-05 3.86392e-06 0.000707778
-0.000776874 -9.56197e-05 2.82402e-05
-9.56197e-05 -0.000359272 7.43369e-06
2.82402e-05 7.43369e-06 -0.000535439
0.0013948 -5.94115e-06 1.76344e-06
-5.94115e-06 0.000128729 2.73333e-06
1.76344e-06 2.73333e-06 4.03813e-05
0.000968829 3.66183e-06 7.5862e-06
3.66183e-06 0.000100497 3.70002e-06
7.5862e-06 3.70002e-06 3.48066e-05
0.000942841 1.9436e-05 -5.08929e-07
1.9436e-05 8.51223e-05 5.52217e-07
-5.08929e-07 5.52217e-07 4.69123e-06
0.00107771 8.1252e-05 -1.33909e-07
8.1252e-05 0.000166171 9.91542e-07
-1.33909e-07 9.91542e-07 7.68477e-05
0.000966049 3.81773e-05 -3.55246e-07
3.81773e-05 0.000100325 2.98871e-07
-3.55246e-07 2.98871e-07 1.51381e-05
0.00102666 -2.43693e-05 1.07968e-07
-2.43693e-05 0.000117087 -3.76366e-07
1.07968e-07 -3.76366e-07 4.71171e-05
0.000979128 1.58407e-05 3.74377e-07
1.58407e-05 9.44399e-05 4.84288e-07
3.74377e-07 4.84288e-07 1.96407e-05
0.000850338 -9.31335e-06 -5.99231e-07
-9.31335e-06 2.7567e-05 1.14355e-06
-5.99231e-07 1.14355e-06 -4.82264e-05
0.000853836 1.21532e-05 -4.17045e-07
1.21532e-05 3.57947e-05 -7.19485e-09
-4.17045e-07 -7.19485e-09 -4.23274e-05
0.000921013 1.61042e-05 2.07488e-07
1.61042e-05 6.94591e-05 -9.34299e-09
2.07488e-07 -9.34299e-09 -1.16724e-05
0.00101547 4.67459e-05 6.17272e-07
4.67459e-05 0.000135474 -8.52724e-07
6.17272e-07 -8.52724e-07 4.58098e-05
0.00082523 4.53363e-05 1.82417e-06
4.53363e-05 1.44791e-05 -1.76237e-06
1.82417e-06 -1.76237e-06 -6.56057e-05
0.000933478 3.36748e-05 -1.08508e-07
3.36748e-05 7.84347e-05 -5.95086e-07
-1.08508e-07 -5.95086e-07 1.8678e-06
0.00109805 2.92649e-05 4.84355e-07
2.92649e-05 0.000170846 2.59387e-07
4.84355e-07 2.59387e-07 9.42151e-05
-0.00211745 -0.000266152 1.62489e-05
-0.000266152 -0.00108527 2.4407e-05
1.62489e-05 2.4407e-05 -0.00105363
0.000314862 -0.000244208 9.32504e-06
-0.000244208 -0.000114168 2.47662e-06
9.32504e-06 2.47662e-06 7.58934e-05
0.00187837 -2.23684e-05 -2.09628e-05
-2.23684e-05 0.000215579 -1.29501e-05
-2.09628e-05 -1.29501e-05 9.00525e-05
-0.00144515 -0.000430165 -1.06974e-05
-0.000430165 -0.00196273 1.24334e-05
-1.06974e-05 1.24334e-05 -0.000830419
0.00434642 -0.000479531 -2.47315e-05
-0.000479531 0.00116834 -4.22668e-05
-2.47315e-05 -4.22668e-05 0.00127009
0.00412163 -9.69822e-06 5.02534e-05
-9.69822e-06 0.000715557 2.36975e-05
5.02534e-05 2.36975e-05 -0.000463215
0.00187262 -0.000135909 -7.58762e-05
-0.000135909 0.000249861 7.82734e-05
-7.58762e-05 7.82734e-05 -0.000399355
0.00275008 0.000115501 -4.17204e-05
0.000115501 0.000340682 -1.52343e-05
-4.17204e-05 -1.52343e-05 4.21276e-06
0.00301945 -0.000511517 -7.45914e-06
-0.000511517 0.000976911 8.5701e-06
-7.45914e-06 8.5701e-06 0.00113365
0.00237971 -8.07507e-05 2.07862e-05
-8.07507e-05 3.70909e-06 3.50619e-05
2.07862e-05 3.50619e-05 -0.00119915
0.00149474 0.00021849 -8.64837e-05
0.00021849 -8.60067e-05 -8.84832e-05
-8.64837e-05 -8.84832e-05 -0.000678053
0.00314443 0.000100094 -9.10424e-05
0.000100094 0.000588444 -3.15719e-05
-9.10424e-05 -3.15719e-05 -0.000632544
0.00238317 0.000235217 1.11991e-05
0.000235217 0.000705234 -6.30044e-06
1.11991e-05 -6.30044e-06 0.000577251
0.000880997 0.00010002 -1.02484e-06
0.00010002 6.39681e-05 -1.08355e-07
-1.02484e-06 -1.08355e-07 7.08859e-07
0.00125407 2.22821e-05 -8.0664e-08
2.22821e-05 0.000246522 -2.11338e-06
-8.0664e-08 -2.11338e-06 0.000180925
-0.000405579 3.08104e-05 -2.20259e-05
3.08104e-05 -0.000402272 -1.40796e-05
-2.20259e-05 -1.40796e-05 -0.000578737
0.00154402 8.34596e-05 -1.79783e-06
8.34596e-05 0.000478707 -5.28798e-06
-1.79783e-06 -5.28798e-06 0.000373929
0.00101214 0.000159133 1.11776e-05
0.000159133 0.000133492 2.13065e-07
1.11776e-05 2.13065e-07 1.6472e-05
0.00067996 0.000187012 3.56911e-05
0.000187012 -0.000330654 2.44986e-05
3.56911e-05 2.44986e-05 -0.00039224
-0.00269111 -1.33331e-05 1.87437e-06
-1.33331e-05 -0.00144083 -8.37112e-06
1.87437e-06 -8.37112e-06 -0.00116659
0.000101119 1.19167e-07 4.43601e-06
1.19167e-07 0.000198326 1.07141e-06
4.43601e-06 1.07141e-06 4.49485e-05
0.000748667 -2.45084e-06 -1.2642e-05
-2.45084e-06 -0.000165251 -1.05517e-06
-1.2642e-05 -1.05517e-06 -0.000250128
0.000698225 -0.000138139 -3.17862e-05
-0.000138139 -0.000200337 -7.42288e-06
-3.17862e-05 -7.42288e-06 -7.72626e-05
0.00347794 -0.000408725 -5.15216e-05
-0.000408725 0.000674736 -3.11917e-06
-5.15216e-05 -3.11917e-06 7.75031e-05
0.00100237 9.40314e-05 -3.26856e-05
9.40314e-05 0.000664027 7.2521e-06
-3.26856e-05 7.2521e-06 0.000658354
0.00111813 0.000278714 2.35529e-05
0.000278714 -0.000267551 -4.27661e-05
2.35529e-05 -4.27661e-05 -0.00161801
0.00625659 0.000437961 -9.26655e-05
0.000437961 0.00310259 1.58161e-05
-9.26655e-05 1.58161e-05 0.00315795
0.00121526 -0.000220442 9.2656e-06
-0.000220442 -2.08639e-05 2.50719e-07
9.2656e-06 2.50719e-07 -1.12233e-05
-0.000946438 0.000204485 -1.77674e-05
0.000204485 -0.00038551 -1.83133e-06
-1.77674e-05 -1.83133e-06 -0.000395332
0.00252323 0.000250038 -6.9789e-06
0.000250038 0.000216101 1.3008e-05
-6.9789e-06 1.3008e-05 -0.000981358
0.0037186 -0.000129401 2.51467e-06
-0.000129401 0.000592636 5.94261e-06
2.51467e-06 5.94261e-06 0.000154118
0.000427555 -0.000127453 -3.43738e-06
-0.000127453 -0.000310228 -8.19943e-06
-3.43738e-06 -8.19943e-06 -0.000385805
0.0063292 8.44102e-05 2.95991e-05
8.44102e-05 0.00202367 3.11843e-06
2.95991e-05 3.11843e-06 0.00118152
0.00135238 5.852e-05 1.76065e-06
5.852e-05 -0.00053687 -7.50051e-06
1.76065e-06 -7.50051e-06 -0.000799602
0.000641313 -0.00012182 -5.36785e-06
-0.00012182 -0.000196523 -5.21944e-07
-5.36785e-06 -5.21944e-07 -0.000233884
0.00140822 -0.000159628 -3.58359e-07
-0.000159628 -6.22674e-05 -3.53401e-07
-3.58359e-07 -3.53401e-07 -9.01375e-05
0.00201174 -0.000189747 -5.42818e-06
-0.000189747 7.69935e-05 1.12633e-06
-5.42818e-06 1.12633e-06 5.09167e-05
0.00133787 -0.000156222 -2.71038e-06
-0.000156222 0.000117865 -3.01571e-06
-2.71038e-06 -3.01571e-06 -3.439e-05
0.00159058 -0.000169713 -2.83014e-06
-0.000169713 5.66857e-05 9.37727e-07
-2.83014e-06 9.37727e-07 -5.13738e-05
0.00168318 -0.000147676 -6.98946e-06
-0.000147676 -7.44461e-06 1.00854e-06
-6.98946e-06 1.00854e-06 -7.66733e-05
0.000988189 -0.000130763 2.42519e-06
-0.000130763 -7.65307e-05 4.2818e-07
2.42519e-06 4.2818e-07 -0.000221579
0.00150728 -0.000136302 -7.88742e-07
-0.000136302 5.5277e-05 1.15054e-07
-7.88742e-07 1.15054e-07 -5.22859e-05
0.00160117 -0.000119663 -2.4093e-06
-0.000119663 3.14462e-07 -6.15108e-07
-2.4093e-06 -6.15108e-07 -7.52513e-05
0.00125026 -0.000125292 2.24163e-06
-0.000125292 3.84833e-05 1.51817e-06
2.24163e-06 1.51817e-06 -9.38725e-05
0.00146998 -0.000118966 -4.28e-07
-0.000118966 6.48782e-05 6.17337e-07
-4.28e-07 6.17337e-07 -3.70375e-05
0.00159813 -0.000109107 -2.04971e-06
-0.000109107 8.45632e-05 -8.09759e-07
-2.04971e-06 -8.09759e-07 6.65085e-06
0.00186786 -0.000109142 -7.07735e-07
-0.000109142 0.000278499 -1.83949e-06
-7.07735e-07 -1.83949e-06 0.00019385
0.00154708 -0.000111837 -1.09897e-06
-0.000111837 0.000142872 1.46326e-06
-1.09897e-06 1.46326e-06 4.61219e-05
0.00142759 -0.000110357 -1.2773e-06
-0.000110357 0.00011793 -3.49052e-06
-1.2773e-06 -3.49052e-06 1.41365e-05
0.00132876 -0.000113938 -2.86829e-06
-0.000113938 0.000138476 -2.00745e-07
-2.86829e-06 -2.00745e-07 2.29256e-05
0.00145772 -0.000122626 1.01815e-06
-0.000122626 0.000180773 -3.74073e-07
1.01815e-06 -3.74073e-07 5.88536e-05
0.00140752 -0.000118172 3.25713e-06
-0.000118172 0.000119096 2.59136e-06
3.25713e-06 2.59136e-06 -2.50533e-07
0.000792634 -9.06046e-05 -2.69892e-06
-9.06046e-05 -5.90576e-05 2.10157e-06
-2.69892e-06 2.10157e-06 -0.000167391
0.00103926 -0.000104516 1.55245e-07
-0.000104516 4.86473e-05 -5.32798e-08
1.55245e-07 -5.32798e-08 -6.94114e-05
0.00149267 -0.000127725 4.31663e-06
-0.000127725 0.000258188 -2.29251e-06
4.31663e-06 -2.29251e-06 0.000128579
0.00095164 -8.15911e-05 -1.62104e-06
-8.15911e-05 6.27988e-05 6.39434e-07
-1.62104e-06 6.39434e-07 -2.57097e-05
0.00107567 -9.87711e-05 1.39232e-07
-9.87711e-05 0.00012031 -2.00083e-07
1.39232e-07 -2.00083e-07 1.93266e-05
0.000742205 -8.87441e-05 1.37615e-06
-8.87441e-05 -6.14393e-05 -2.79292e-06
1.37615e-06 -2.79292e-06 -0.000174541
0.000830058 -1.50204e-05 -2.51232e-06
-1.50204e-05 2.46431e-05 2.48693e-06
-2.51232e-06 2.48693e-06 -4.29147e-05
0.00101769 -7.82188e-05 -1.88448e-08
-7.82188e-05 0.000105062 -4.3798e-08
-1.88448e-08 -4.3798e-08 2.02671e-05
0.0011184 -9.6506e-05 1.13125e-06
-9.6506e-05 0.000155822 -6.34852e-07
1.13125e-06 -6.34852e-07 6.00046e-05
0.000632011 5.1803e-05 -2.22481e-06
5.1803e-05 -6.37052e-05 4.47761e-06
-2.22481e-06 4.47761e-06 -8.76616e-05
0.000819632 5.79733e-06 -2.92491e-08
5.79733e-06 2.06279e-05 3.62121e-08
-2.92491e-08 3.62121e-08 -4.09448e-05
0.000994631 -4.16507e-05 1.60388e-06
-4.16507e-05 0.000104773 -5.50206e-07
1.60388e-06 -5.50206e-07 2.25237e-05
0.00239212 6.28786e-05 -3.04952e-05
6.28786e-05 0.000867616 3.12056e-06
-3.04952e-05 3.12056e-06 0.000878118
0.000710961 4.62769e-05 -1.08358e-07
4.62769e-05 -2.92265e-05 -1.07424e-07
-1.08358e-07 -1.07424e-07 -4.72954e-05
0.000766445 9.98845e-06 2.26605e-06
9.98845e-06 -1.17025e-05 -2.64839e-06
2.26605e-06 -2.64839e-06 -6.26094e-05
0.00161939 4.86947e-05 1.17614e-05
4.86947e-05 0.000450815 -7.64956e-07
1.17614e-05 -7.64956e-07 0.00046002
0.000763808 4.15199e-05 2.60169e-06
4.15199e-05 -1.00463e-05 -3.7383e-06
2.60169e-06 -3.7383e-06 -2.35213e-05
0.0022256 5.02809e-05 2.6181e-05
5.02809e-05 0.000766519 -3.37037e-06
2.6181e-05 -3.37037e-06 0.000781217
0.000968416 4.74755e-05 1.12862e-07
4.74755e-05 9.727e-05 7.63245e-07
1.12862e-07 7.63245e-07 1.61617e-05
0.000951179 9.21882e-06 -1.24587e-07
9.21882e-06 8.28828e-05 5.10817e-07
-1.24587e-07 5.10817e-07 9.0503e-06
0.000893269 -2.28395e-05 -4.19578e-07
-2.28395e-05 5.21248e-05 -1.28157e-06
-4.19578e-07 -1.28157e-06 -1.58423e-05
0.000930431 1.26598e-05 2.80497e-07
1.26598e-05 6.67643e-05 5.91882e-07
2.80497e-07 5.91882e-07 -5.03058e-06
0.000875345 -2.68933e-05 1.53965e-07
-2.68933e-05 3.47065e-05 -4.02999e-08
1.53965e-07 -4.02999e-08 -2.76181e-05
0.000777809 -3.86205e-05 -1.12205e-06
-3.86205e-05 -9.03361e-06 -2.34164e-06
-1.12205e-06 -2.34164e-06 -5.15919e-05
0.000757202 -3.43553e-05 -2.51812e-06
-3.43553e-05 -2.18244e-05 -3.583e-06
-2.51812e-06 -3.583e-06 -3.28443e-05
0.000800027 -3.62214e-05 -1.54235e-07
-3.62214e-05 -3.26297e-06 -1.71376e-08
-1.54235e-07 -1.71376e-08 -4.21656e-05
0.000873461 -4.00383e-05 -6.12383e-08
-4.00383e-05 3.07206e-05 1.34613e-06
-6.12383e-08 1.34613e-06 -2.70399e-05
0.00226972 -4.46028e-05 -2.43154e-05
-4.46028e-05 0.000782266 -3.63188e-06
-2.43154e-05 -3.63188e-06 0.000798108
0.000744447 -3.00619e-05 -2.14159e-07
-3.00619e-05 -3.4065e-05 1.96374e-08
-2.14159e-07 1.96374e-08 -4.33024e-05
0.000818773 -1.98234e-05 1.48281e-06
-1.98234e-05 1.71958e-06 1.8026e-06
1.48281e-06 1.8026e-06 -3.43376e-05
0.00224501 -3.89286e-05 -1.2434e-06
-3.89286e-05 0.000761927 7.95915e-08
-1.2434e-06 7.95915e-08 0.000779403
0.000739818 -2.64774e-05 1.21261e-06
-2.64774e-05 -4.20402e-05 3.41589e-06
1.21261e-06 3.41589e-06 -4.93969e-05
0.00218214 -3.2688e-05 1.60775e-05
-3.2688e-05 0.000721966 3.82984e-06
1.60775e-05 3.82984e-06 0.000741257
0.00112837 8.189e-05 9.7664e-05
8.189e-05 0.000562122 2.52285e-05
9.7664e-05 2.52285e-05 0.00031293
0.000381274 -0.000108444 5.70997e-06
-0.000108444 0.000208459 3.28059e-06
5.70997e-06 3.28059e-06 0.000102783
0.00134195 -8.67566e-06 -1.36019e-05
-8.67566e-06 8.16837e-05 3.79077e-07
-1.36019e-05 3.79077e-07 -5.20705e-06
0.000938041 8.55891e-06 3.7308e-07
8.55891e-06 8.18246e-05 5.67044e-07
3.7308e-07 5.67044e-07 1.7915e-06
0.000937217 2.07985e-05 9.72809e-08
2.07985e-05 8.44752e-05 4.22232e-07
9.72809e-08 4.22232e-07 -4.36276e-07
0.000975163 7.97401e-05 -9.8019e-08
7.97401e-05 0.000115924 4.46002e-08
-9.8019e-08 4.46002e-08 2.69688e-05
0.00109253 9.76542e-05 6.81299e-07
9.76542e-05 0.000169659 9.73101e-07
6.81299e-07 9.73101e-07 7.61596e-05
0.000999367 6.91203e-05 -8.19539e-07
6.91203e-05 0.0001305 5.66625e-07
-8.19539e-07 5.66625e-07 3.77674e-05
0.000885956 2.04229e-05 1.24148e-07
2.04229e-05 5.21422e-05 7.31399e-07
1.24148e-07 7.31399e-07 -2.65316e-05
0.000899979 1.4861e-05 1.74339e-07
1.4861e-05 5.80316e-05 7.59572e-07
1.74339e-07 7.59572e-07 -2.28672e-05
0.000840339 4.94518e-05 -4.95229e-07
4.94518e-05 4.43951e-05 -5.8072e-07
-4.95229e-07 -5.8072e-07 -4.40156e-05
0.00029165 5.99524e-05 -3.58018e-07
5.99524e-05 -0.000233997 1.32648e-06
-3.58018e-07 1.32648e-06 -0.000327667
0.000837599 8.11017e-05 2.47022e-08
8.11017e-05 2.1064e-05 -1.42472e-06
2.47022e-08 -1.42472e-06 -6.92936e-05
0.00192281 0.000169568 3.16145e-06
0.000169568 0.000466607 -4.31815e-06
3.16145e-06 -4.31815e-06 0.000355467
0.000922684 5.2495e-05 -1.6813e-06
5.2495e-05 8.0495e-05 -2.58112e-07
-1.6813e-06 -2.58112e-07 -1.33721e-06
0.00087602 1.23332e-05 -1.78192e-07
1.23332e-05 5.21684e-05 -3.31496e-07
-1.78192e-07 -3.31496e-07 -2.21457e-05
0.00894531 -0.000136624 -2.98747e-05
-0.000136624 0.00270493 -1.39813e-05
-2.98747e-05 -1.39813e-05 0.00176948
-0.00161129 -0.000270536 -1.61405e-05
-0.000270536 -0.000740219 1.76616e-06
-1.61405e-05 1.76616e-06 -0.000892213
0.00157342 -0.000248835 -3.19749e-05
-0.000248835 0.000560471 -1.89309e-05
-3.19749e-05 -1.89309e-05 0.000738332
-0.00228902 -0.000316047 -2.67561e-05
-0.000316047 -0.00149945 -8.85348e-06
-2.67561e-05 -8.85348e-06 -0.001269
0.0090379 -0.000366126 5.43788e-05
-0.000366126 0.00306054 2.77324e-05
5.43788e-05 2.77324e-05 0.00155252
0.00202867 7.09445e-05 1.60319e-05
7.09445e-05 0.000158462 1.50135e-05
1.60319e-05 1.50135e-05 -1.31093e-05
0.00196888 0.000238139 -3.53131e-05
0.000238139 6.30354e-05 -2.34096e-05
-3.53131e-05 -2.34096e-05 -0.000404081
0.00629199 -0.000284391 4.08815e-05
-0.000284391 0.00169502 1.75826e-05
4.08815e-05 1.75826e-05 0.000679386
0.00225437 0.000165808 -9.66778e-06
0.000165808 -4.41552e-05 -4.34562e-05
-9.66778e-06 -4.34562e-05 -0.000453749
0.00222066 0.000266239 1.62669e-05
0.000266239 0.000408599 1.11792e-05
1.62669e-05 1.11792e-05 0.000264049
0.000891644 0.000154128 4.50272e-07
0.000154128 2.32666e-05 -4.62761e-06
4.50272e-07 -4.62761e-06 -0.000118159
0.000948344 8.13846e-05 -2.54749e-06
8.13846e-05 9.17084e-05 1.7885e-06
-2.54749e-06 1.7885e-06 3.27869e-05
0.00198857 0.000207885 -3.58925e-05
0.000207885 0.00058998 -1.8937e-05
-3.58925e-05 -1.8937e-05 0.000481963
0.000459176 0.00018987 -1.18069e-05
0.00018987 -0.000424069 1.34541e-05
-1.18069e-05 1.34541e-05 -0.00049735
0.000245564 -2.52508e-05 8.49843e-07
-2.52508e-05 -0.00103818 -5.82291e-06
8.49843e-07 -5.82291e-06 -0.00149979
0.00160382 1.57159e-05 -5.18662e-06
1.57159e-05 0.000685767 1.93736e-07
-5.18662e-06 1.93736e-07 0.00069464
-0.00118468 7.5524e-06 -1.38316e-05
7.5524e-06 -0.00046467 6.84648e-07
-1.38316e-05 6.84648e-07 -0.000664226
0.0021587 -0.000262877 -3.71487e-05
-0.000262877 0.000384022 1.05657e-05
-3.71487e-05 1.05657e-05 0.000383317
0.00342701 -0.000159834 1.12735e-06
-0.000159834 0.000276576 -2.06707e-05
1.12735e-06 -2.06707e-05 -0.000413806
0.000137109 -2.21004e-06 -7.59993e-05
-2.21004e-06 0.00014539 2.30663e-05
-7.59993e-05 2.30663e-05 -4.26173e-05
0.00761118 0.000437461 -2.77488e-05
0.000437461 0.00273755 1.73125e-05
-2.77488e-05 1.73125e-05 0.00161591
0.000808638 -0.000137139 1.20006e-06
-0.000137139 -0.000155255 -1.72658e-06
1.20006e-06 -1.72658e-06 -0.000191521
0.00520006 0.000203295 2.21381e-05
0.000203295 0.00140231 8.47146e-06
2.21381e-05 8.47146e-06 0.000680857
0.00315425 6.48676e-05 3.85942e-05
6.48676e-05 0.00013642 -2.79659e-06
3.85942e-05 -2.79659e-06 -0.000289887
0.00306271 -0.000146411 -5.1089e-06
-0.000146411 0.000908719 2.99508e-07
-5.1089e-06 2.99508e-07 0.000827407
0.00148953 3.29846e-05 -5.46792e-05
3.29846e-05 0.000119453 -2.77824e-07
-5.46792e-05 -2.77824e-07 -0.000151491
0.00122369 -0.000155448 4.52098e-06
-0.000155448 -0.000144424 -2.17004e-06
4.52098e-06 -2.17004e-06 -0.000175274
0.00177987 -0.000183573 -1.24238e-06
-0.000183573 -1.40278e-05 2.60673e-06
-1.24238e-06 2.60673e-06 -4.92783e-05
0.0023334 -0.00013262 -9.51935e-06
-0.00013262 0.000192369 4.33493e-07
-9.51935e-06 4.33493e-07 0.000152153
0.00161927 -0.000167617 4.31523e-06
-0.000167617 6.70193e-05 1.72425e-06
4.31523e-06 1.72425e-06 -3.92184e-05
0.00180565 -0.000145996 1.71962e-07
-0.000145996 6.73007e-05 1.29836e-06
1.71962e-07 1.29836e-06 -2.17497e-06
0.00179608 -9.99794e-05 -1.73688e-06
-9.99794e-05 1.98062e-05 1.96423e-06
-1.73688e-06 1.96423e-06 -3.99095e-05
0.00128188 -0.000126389 3.11116e-06
-0.000126389 -6.31379e-05 3.09146e-06
3.11116e-06 3.09146e-06 -0.000169343
0.00165368 -0.000120654 -1.90869e-07
-0.000120654 3.25531e-05 1.5741e-06
-1.90869e-07 1.5741e-06 -4.49128e-05
0.00169561 -9.90699e-05 -5.13338e-07
-9.90699e-05 4.07333e-05 2.20122e-06
-5.13338e-07 2.20122e-06 -3.17268e-05
0.00129279 -0.000112925 3.76634e-06
-0.000112925 -2.66071e-05 3.6511e-06
3.76634e-06 3.6511e-06 -0.000128038
0.00153266 -0.000108297 -6.36474e-08
-0.000108297 5.56844e-05 1.37992e-06
-6.36474e-08 1.37992e-06 -2.36085e-05
0.00170698 -9.85698e-05 3.07314e-07
-9.85698e-05 0.000137688 -8.39837e-08
3.07314e-07 -8.39837e-08 6.07643e-05
0.00158686 -0.000102914 -2.17961e-06
-0.000102914 0.000137012 1.11868e-06
-2.17961e-06 1.11868e-06 5.50418e-05
0.00175351 -0.000105865 1.6063e-06
-0.000105865 0.00024322 -2.47731e-06
1.6063e-06 -2.47731e-06 0.000150376
0.00150418 -0.000108423 2.14012e-06
-0.000108423 0.000120831 4.79935e-06
2.14012e-06 4.79935e-06 2.65313e-05
0.00142745 -0.000109282 2.37697e-07
-0.000109282 0.000117322 -5.67604e-07
2.37697e-07 -5.67604e-07 1.31715e-05
0.00140655 -0.000106649 -1.41717e-06
-0.000106649 0.000129956 -1.47001e-06
-1.41717e-06 -1.47001e-06 2.39651e-05
0.000928062 -9.46536e-05 -3.14721e-06
-9.46536e-05 -3.93933e-05 9.98161e-07
-3.14721e-06 9.98161e-07 -0.000148471
0.00131536 -0.000112483 7.7338e-08
-0.000112483 0.000132033 -2.1483e-07
7.7338e-08 -2.1483e-07 1.61468e-05
0.00157379 -0.00012573 3.77862e-06
-0.00012573 0.000241654 3.91703e-07
3.77862e-06 3.91703e-07 0.000119744
0.000998058 -8.91389e-05 -2.26701e-06
-8.91389e-05 6.83669e-05 1.19232e-06
-2.26701e-06 1.19232e-06 -2.60582e-05
0.000890992 -9.40501e-05 -6.36789e-07
-9.40501e-05 -6.39644e-06 7.30664e-07
-6.36789e-07 7.30664e-07 -0.000113844
0.00132773 -0.000115082 3.05527e-06
-0.000115082 0.000198843 -1.69286e-06
3.05527e-06 -1.69286e-06 8.18764e-05
0.000752032 -2.77452e-05 -2.46419e-06
-2.77452e-05 -1.99545e-05 1.79705e-06
-2.46419e-06 1.79705e-06 -9.02086e-05
0.0010354 -8.57402e-05 6.74788e-08
-8.57402e-05 0.000104603 -1.97077e-07
6.74788e-08 -1.97077e-07 1.56841e-05
0.00114009 -0.000100996 1.53454e-06
-0.000100996 0.000152025 -1.51566e-06
1.53454e-06 -1.51566e-06 5.08153e-05
0.00059503 5.8796e-05 -1.32527e-06
5.8796e-05 -7.80159e-05 4.9816e-06
-1.32527e-06 4.9816e-06 -0.000109257
0.000840796 -1.81436e-05 -4.08964e-08
-1.81436e-05 2.88575e-05 2.35698e-07
-4.08964e-08 2.35698e-07 -3.84323e-05
0.00106296 -7.11739e-05 1.8126e-06
-7.11739e-05 0.000126765 -4.76123e-07
1.8126e-06 -4.76123e-07 4.25274e-05
0.00258863 7.13341e-05 -3.37662e-05
7.13341e-05 0.000976538 3.06877e-06
-3.37662e-05 3.06877e-06 0.000984202
0.000668677 5.44324e-05 4.27756e-08
5.44324e-05 -4.29866e-05 -1.33071e-07
4.27756e-08 -1.33071e-07 -6.7764e-05
0.000786266 -1.69169e-05 2.37289e-06
-1.69169e-05 3.22093e-07 -2.42425e-06
2.37289e-06 -2.42425e-06 -6.01147e-05
0.00243963 6.33642e-05 4.72478e-07
6.33642e-05 0.000892868 8.69407e-08
4.72478e-07 8.69407e-08 0.000903015
0.000738183 4.88929e-05 1.70191e-06
4.88929e-05 -1.39519e-05 -4.22996e-06
1.70191e-06 -4.22996e-06 -3.27266e-05
0.0023289 5.64402e-05 2.99156e-05
5.64402e-05 0.000828436 -3.26555e-06
2.99156e-05 -3.26555e-06 0.000840847
0.00101555 8.66776e-05 1.09732e-07
8.66776e-05 0.000121133 4.58426e-07
1.09732e-07 4.58426e-07 3.12047e-05
0.000922534 5.9789e-05 3.51373e-07
5.9789e-05 7.5222e-05 1.34864e-07
3.51373e-07 1.34864e-07 -6.9117e-06
0.000822862 -1.38373e-05 -8.59467e-07
-1.38373e-05 1.86242e-05 -6.11384e-07
-8.59467e-07 -6.11384e-07 -5.66802e-05
0.000902161 -3.16894e-06 1.67161e-07
-3.16894e-06 5.65135e-05 9.34279e-07
1.67161e-07 9.34279e-07 -1.74919e-05
0.000863024 -3.10368e-05 -3.79861e-09
-3.10368e-05 3.58618e-05 1.17494e-07
-3.79861e-09 1.17494e-07 -3.25077e-05
0.000769752 -3.46074e-05 -1.31656e-06
-3.46074e-05 -8.4427e-06 -2.28078e-06
-1.31656e-06 -2.28078e-06 -5.67953e-05
0.000858024 -3.72465e-05 1.78029e-07
-3.72465e-05 2.54814e-05 1.51622e-06
1.78029e-07 1.51622e-06 -3.66344e-05
0.000791289 -3.84257e-05 -2.2996e-08
-3.84257e-05 -2.81011e-06 -1.04223e-07
-2.2996e-08 -1.04223e-07 -4.51269e-05
0.000749462 -4.0177e-05 -2.59713e-06
-4.0177e-05 -1.79647e-05 -3.71692e-06
-2.59713e-06 -3.71692e-06 -3.1605e-05
0.00227719 -5.01438e-05 -2.66941e-05
-5.01438e-05 0.000793463 -3.43638e-06
-2.66941e-05 -3.43638e-06 0.000807751
0.000741099 -3.35417e-05 -6.4483e-08
-3.35417e-05 -2.99569e-05 2.02183e-08
-6.4483e-08 2.02183e-08 -4.09016e-05
0.000800631 -3.19474e-05 1.47447e-06
-3.19474e-05 -3.59394e-06 2.00951e-06
1.47447e-06 2.00951e-06 -4.206e-05
0.00227372 -4.46331e-05 -1.11147e-06
-4.46331e-05 0.000783576 8.73558e-08
-1.11147e-06 8.73558e-08 0.000799516
0.000728736 -2.95246e-05 1.65853e-06
-2.95246e-05 -4.21157e-05 3.54229e-06
1.65853e-06 3.54229e-06 -5.12959e-05
0.0022371 -3.88073e-05 1.96514e-05
-3.88073e-05 0.000757115 3.76854e-06
1.96514e-05 3.76854e-06 0.000774743
0.0070968 1.98733e-05 4.66805e-05
1.98733e-05 0.0021075 6.77003e-06
4.66805e-05 6.77003e-06 0.00138007
-0.00203857 -7.9514e-05 8.3378e-07
-7.9514e-05 -0.00104552 1.32687e-06
8.3378e-07 1.32687e-06 -0.000932338
-0.000850479 -7.09134e-05 -2.66492e-05
-7.09134e-05 -0.000470879 -1.6282e-06
-2.66492e-05 -1.6282e-06 -0.000659259
0.00090908 3.69141e-06 3.49676e-07
3.69141e-06 6.94799e-05 6.43207e-07
3.49676e-07 6.43207e-07 -1.52967e-05
0.000868247 7.60564e-05 -1.21572e-07
7.60564e-05 6.20864e-05 -3.53418e-07
-1.21572e-07 -3.53418e-07 -2.56351e-05
0.00105686 7.31697e-05 4.06714e-07
7.31697e-05 0.000161015 -1.07901e-08
4.06714e-07 -1.07901e-08 6.83332e-05
0.001023 9.45512e-05 -7.45154e-07
9.45512e-05 0.000134375 -1.96848e-07
-7.45154e-07 -1.96848e-07 4.10915e-05
0.00113894 0.000102541 5.38771e-06
0.000102541 0.000185647 1.83989e-06
5.38771e-06 1.83989e-06 8.63826e-05
0.000678691 7.85528e-05 -8.8296e-07
7.85528e-05 -3.46967e-05 1.49848e-06
-8.8296e-07 1.49848e-06 -0.00012798
0.000646692 5.05894e-05 -1.53538e-07
5.05894e-05 -5.49287e-05 -1.16678e-07
-1.53538e-07 -1.16678e-07 -0.000143098
0.000642489 7.69771e-05 5.06687e-07
7.69771e-05 -5.60741e-05 -5.56285e-08
5.06687e-07 -5.56285e-08 -0.000153304
0.000804154 7.12815e-05 3.02482e-07
7.12815e-05 1.15696e-05 4.84244e-08
3.02482e-07 4.84244e-08 -8.05763e-05
0.000325536 7.86814e-05 1.32819e-06
7.86814e-05 -0.000267288 6.9179e-07
1.32819e-06 6.9179e-07 -0.000362461
0.00287025 0.000199561 1.21085e-06
0.000199561 0.000942346 -3.95815e-07
1.21085e-06 -3.95815e-07 0.000836098
0.00176748 0.000179669 3.05192e-06
0.000179669 0.000219825 -9.85945e-07
3.05192e-06 -9.85945e-07 9.67501e-05
0.00133398 0.000144945 1.23426e-06
0.000144945 0.000179891 -6.99581e-07
1.23426e-06 -6.99581e-07 7.30568e-05
0.00102835 5.35954e-05 -3.12895e-06
5.35954e-05 0.000147652 1.12142e-06
-3.12895e-06 1.12142e-06 6.51883e-05
0.00221688 -7.09522e-05 -2.12958e-05
-7.09522e-05 -0.000177926 -1.27194e-05
-2.12958e-05 -1.27194e-05 -0.000395035
0.00444104 -0.000146331 4.39087e-06
-0.000146331 0.00088895 3.22022e-07
4.39087e-06 3.22022e-07 2.99105e-06
0.00419631 -0.000424353 -3.6751e-05
-0.000424353 0.00192657 -2.5889e-05
-3.6751e-05 -2.5889e-05 0.00197417
0.00661248 -0.00014157 0.000168395
-0.00014157 0.00190462 5.39747e-05
0.000168395 5.39747e-05 0.00072615
0.00334951 0.00026425 4.68147e-05
0.00026425 0.000764706 4.91874e-05
4.68147e-05 4.91874e-05 0.000558387
0.00189655 0.00011468 -4.07597e-05
0.00011468 1.99153e-05 -1.34033e-05
-4.07597e-05 -1.34033e-05 -0.000216445
0.00170021 0.000179516 2.76678e-05
0.000179516 1.84029e-05 1.60518e-05
2.76678e-05 1.60518e-05 -1.46442e-06
0.00193723 0.000255116 -1.77756e-06
0.000255116 0.000271206 5.17009e-06
-1.77756e-06 5.17009e-06 0.000145544
0.000232616 0.000114754 -2.70471e-06
0.000114754 -0.000293783 3.03312e-06
-2.70471e-06 3.03312e-06 -0.000431442
0.00188397 0.00026457 -6.69933e-05
0.00026457 0.000239758 -4.86284e-05
-6.69933e-05 -4.86284e-05 0.000180155
0.00319513 -6.87444e-05 -0.000137389
-6.87444e-05 0.000845321 -1.90037e-06
-0.000137389 -1.90037e-06 0.000469072
0.00679881 4.31868e-05 1.13768e-05
4.31868e-05 0.00228213 -3.2416e-06
1.13768e-05 -3.2416e-06 0.00166576
-0.00466239 -5.04e-05 1.80975e-06
-5.04e-05 -0.00257196 4.93248e-06
1.80975e-06 4.93248e-06 -0.00237627
0.00103121 -0.000146665 -2.86389e-07
-0.000146665 -6.12623e-05 1.14488e-05
-2.86389e-07 1.14488e-05 -8.51806e-05
0.00438103 4.58701e-05 6.25873e-05
4.58701e-05 0.000771597 1.27131e-06
6.25873e-05 1.27131e-06 0.000408356
0.000912934 -0.000101233 4.84965e-05
-0.000101233 -0.000486381 9.85752e-06
4.84965e-05 9.85752e-06 -0.00112694
0.00154504 -0.000109426 3.89775e-06
-0.000109426 0.000156518 8.26432e-07
3.89775e-06 8.26432e-07 0.000102458
0.00147869 9.14707e-05 -1.64201e-06
9.14707e-05 2.43633e-06 -3.1054e-06
-1.64201e-06 -3.1054e-06 -0.000243787
0.0033486 -4.84955e-05 2.64459e-06
-4.84955e-05 0.000880659 -9.81698e-06
2.64459e-06 -9.81698e-06 0.000824605
0.00130288 5.98491e-05 1.77127e-05
5.98491e-05 -0.000107103 -2.77715e-06
1.77127e-05 -2.77715e-06 -0.000209224
0.00154206 -0.00018011 4.4329e-06
-0.00018011 -0.000102235 -3.33659e-07
4.4329e-06 -3.33659e-07 -0.000154087
0.00204482 -0.000125733 -2.297e-07
-0.000125733 5.68789e-05 -1.80853e-06
-2.297e-07 -1.80853e-06 1.32939e-05
0.00238103 -3.33728e-05 1.44446e-06
-3.33728e-05 0.000299885 -2.17048e-06
1.44446e-06 -2.17048e-06 0.000241434
0.00171232 -0.000141611 9.31923e-06
-0.000141611 3.29545e-05 7.94251e-07
9.31923e-06 7.94251e-07 -3.74823e-05
0.00186791 -9.93756e-05 2.70799e-06
-9.93756e-05 6.96155e-05 -3.47807e-07
2.70799e-06 -3.47807e-07 7.45504e-06
0.00192029 -5.77867e-05 4.88768e-07
-5.77867e-05 0.000131331 7.3935e-07
4.88768e-07 7.3935e-07 4.86108e-05
0.00179037 -0.000122908 4.56476e-06
-0.000122908 0.000106815 2.91523e-06
4.56476e-06 2.91523e-06 2.7292e-05
0.00181284 -0.000101482 7.89407e-07
-0.000101482 0.000109149 6.11661e-07
7.89407e-07 6.11661e-07 3.42566e-05
0.00187745 -8.0862e-05 -4.96603e-07
-8.0862e-05 0.000166155 1.58074e-06
-4.96603e-07 1.58074e-06 7.87229e-05
0.00148646 -0.000107711 3.09219e-06
-0.000107711 3.65554e-05 2.56876e-06
3.09219e-06 2.56876e-06 -4.41635e-05
0.00155616 -9.79002e-05 4.06202e-07
-9.79002e-05 7.09577e-05 -8.44687e-07
4.06202e-07 -8.44687e-07 -5.78082e-06
0.00149267 -9.12025e-05 2.45096e-06
-9.12025e-05 6.50393e-05 1.21167e-07
2.45096e-06 1.21167e-07 -2.66865e-05
0.00131681 -9.68553e-05 -5.702e-07
-9.68553e-05 9.22637e-07 3.8354e-06
-5.702e-07 3.8354e-06 -7.8379e-05
0.00157838 -0.000100712 -1.21217e-06
-0.000100712 0.00015272 -1.05028e-06
-1.21217e-06 -1.05028e-06 6.15392e-05
0.00171821 -0.000103902 1.93799e-08
-0.000103902 0.000248164 -1.25462e-06
1.93799e-08 -1.25462e-06 0.000147684
0.00142738 -0.000108207 1.60871e-06
-0.000108207 0.000116625 2.07401e-06
1.60871e-06 2.07401e-06 1.21364e-05
0.00140518 -0.000105668 3.04962e-07
-0.000105668 0.000129402 -3.90435e-07
3.04962e-07 -3.90435e-07 2.30751e-05
0.00145891 -0.000105287 -1.94202e-06
-0.000105287 0.000184733 -3.80551e-07
-1.94202e-06 -3.80551e-07 8.05464e-05
0.000756252 -8.07761e-05 -3.7296e-06
-8.07761e-05 -9.53076e-05 1.4895e-06
-3.7296e-06 1.4895e-06 -0.00019332
0.00102258 -9.72262e-05 -5.00847e-07
-9.72262e-05 1.23419e-05 4.67648e-07
-5.00847e-07 4.67648e-07 -9.59347e-05
0.00130275 -0.00011107 2.71918e-06
-0.00011107 0.000125998 -3.87838e-07
2.71918e-06 -3.87838e-07 9.77327e-06
0.000824969 -5.31455e-05 -3.21146e-06
-5.31455e-05 9.1468e-06 1.7763e-06
-3.21146e-06 1.7763e-06 -6.52505e-05
0.00104895 -9.08479e-05 1.18812e-07
-9.08479e-05 9.32592e-05 3.01002e-08
1.18812e-07 3.01002e-08 -1.18609e-06
0.00100368 -9.80755e-05 1.18748e-06
-9.80755e-05 5.34254e-05 -5.99546e-07
1.18748e-06 -5.99546e-07 -5.31566e-05
0.000633877 4.88674e-05 -3.15498e-06
4.88674e-05 -5.34367e-05 4.72933e-06
-3.15498e-06 4.72933e-06 -9.0371e-05
0.000858376 -3.13084e-05 1.287e-07
-3.13084e-05 3.56616e-05 4.53009e-08
1.287e-07 4.53009e-08 -3.53767e-05
0.00111054 -8.93332e-05 2.18514e-06
-8.93332e-05 0.000142048 -1.18564e-06
2.18514e-06 -1.18564e-06 5.27552e-05
0.0028151 8.02468e-05 -3.83484e-05
8.02468e-05 0.0010995 3.07748e-06
-3.83484e-05 3.07748e-06 0.00110411
0.000658742 4.88467e-05 7.38158e-07
4.88467e-05 -4.63899e-05 -1.16222e-08
7.38158e-07 -1.16222e-08 -7.65789e-05
0.000852334 -2.09264e-05 2.89353e-06
-2.09264e-05 3.33104e-05 -2.07846e-06
2.89353e-06 -2.07846e-06 -3.36982e-05
0.0026335 7.12349e-05 5.4112e-07
7.12349e-05 0.000999872 1.08147e-07
5.4112e-07 1.08147e-07 0.00100722
0.000704591 5.4741e-05 1.29676e-06
5.4741e-05 -2.3442e-05 -4.65428e-06
1.29676e-06 -4.65428e-06 -4.86423e-05
0.00248465 6.33532e-05 3.396e-05
6.33532e-05 0.000916687 -3.24351e-06
3.396e-05 -3.24351e-06 0.000926569
0.00108497 9.55943e-05 -4.21563e-07
9.55943e-05 0.000150361 -6.40396e-07
-4.21563e-07 -6.40396e-07 5.46115e-05
0.00106323 8.91251e-05 2.3068e-07
8.91251e-05 0.000145989 1.35538e-07
2.3068e-07 1.35538e-07 5.63222e-05
0.000949777 4.13547e-05 -1.25233e-06
4.13547e-05 8.30548e-05 -2.61437e-07
-1.25233e-06 -2.61437e-07 1.7918e-06
0.000891162 7.6265e-05 2.99431e-07
7.6265e-05 6.21026e-05 -1.0502e-07
2.99431e-07 -1.0502e-07 -2.19669e-05
0.000826615 -1.70318e-06 -4.06804e-07
-1.70318e-06 2.14359e-05 -7.12627e-08
-4.06804e-07 -7.12627e-08 -5.50245e-05
0.000767935 -8.2082e-06 -2.26795e-06
-8.2082e-06 -5.72981e-06 -1.76969e-06
-2.26795e-06 -1.76969e-06 -6.28472e-05
0.000837592 -3.7699e-05 2.50734e-07
-3.7699e-05 2.31025e-05 1.24325e-06
2.50734e-07 1.24325e-06 -4.64715e-05
0.000783966 -3.63345e-05 1.004e-07
-3.63345e-05 -9.10067e-07 -2.1938e-07
1.004e-07 -2.1938e-07 -4.93316e-05
0.000734364 -4.8341e-05 -2.08607e-06
-4.8341e-05 -1.62262e-05 -3.96155e-06
-2.08607e-06 -3.96155e-06 -3.42703e-05
0.000805237 -3.88175e-05 1.15366e-06
-3.88175e-05 3.76599e-06 2.23563e-06
1.15366e-06 2.23563e-06 -3.83669e-05
0.000729815 -3.84404e-05 5.61103e-08
-3.84404e-05 -2.85286e-05 -2.53501e-08
5.61103e-08 -2.53501e-08 -4.18621e-05
0.00232495 -5.6052e-05 -2.93634e-05
-5.6052e-05 0.000826399 -3.24654e-06
-2.93634e-05 -3.24654e-06 0.000838759
0.00228922 -5.02351e-05 -6.43155e-07
-5.02351e-05 0.000798794 8.47965e-08
-6.43155e-07 8.47965e-08 0.000813176
0.000724798 -3.27506e-05 2.3735e-06
-3.27506e-05 -3.82709e-05 3.58873e-06
2.3735e-06 3.58873e-06 -4.91326e-05
0.00227813 -4.47343e-05 2.27481e-05
-4.47343e-05 0.000785218 3.66516e-06
2.27481e-05 3.66516e-06 0.00080123
0.00100122 -6.90769e-05 -5.72272e-05
-6.90769e-05 -0.000422886 -1.88149e-06
-5.72272e-05 -1.88149e-06 -0.000656432
0.00171866 -0.000130626 2.19958e-06
-0.000130626 -0.00042268 -1.16486e-06
2.19958e-06 -1.16486e-06 -0.00104469
0.00267233 -0.000292628 -4.28717e-05
-0.000292628 0.00107577 -9.45242e-06
-4.28717e-05 -9.45242e-06 0.00120939
0.00119731 0.000109071 5.7988e-06
0.000109071 0.000173772 1.70666e-06
5.7988e-06 1.70666e-06 6.99258e-05
0.00112602 7.56958e-05 3.72371e-07
7.56958e-05 0.000197533 -7.06423e-07
3.72371e-07 -7.06423e-07 0.000104969
0.000946509 9.10385e-05 -5.68744e-07
9.10385e-05 9.56564e-05 -6.07691e-07
-5.68744e-07 -6.07691e-07 2.61478e-06
0.000914434 8.98319e-05 2.0376e-07
8.98319e-05 8.79831e-05 2.5495e-07
2.0376e-07 2.5495e-07 -6.58807e-06
0.00103135 9.80564e-05 -1.48302e-07
9.80564e-05 0.000133597 -6.18839e-07
-1.48302e-07 -6.18839e-07 3.37285e-05
0.000653022 8.62346e-05 -2.22853e-07
8.62346e-05 -8.22447e-05 1.799e-06
-2.22853e-07 1.799e-06 -0.00016876
0.00105699 9.75847e-05 3.73389e-07
9.75847e-05 0.000155798 -1.69519e-06
3.73389e-07 -1.69519e-06 5.44954e-05
0.000992271 6.96835e-05 -1.20927e-06
6.96835e-05 0.000113081 1.29405e-06
-1.20927e-06 1.29405e-06 1.85761e-05
0.000967232 0.000107198 1.20683e-07
0.000107198 5.85543e-05 -1.58519e-07
1.20683e-07 -1.58519e-07 -3.69201e-05
0.00212677 0.00016958 6.81147e-07
0.00016958 0.00057694 2.05889e-06
6.81147e-07 2.05889e-06 0.000472792
0.00159677 0.000158013 1.46722e-06
0.000158013 0.000179168 -1.35e-06
1.46722e-06 -1.35e-06 6.58522e-05
0.00186418 0.000144766 7.12889e-06
0.000144766 9.11776e-05 6.0955e-06
7.12889e-06 6.0955e-06 -3.05368e-05
0.00133454 0.000162468 7.13319e-07
0.000162468 2.85883e-06 3.06678e-07
7.13319e-07 3.06678e-07 -0.000119711
0.000827787 0.000121323 -1.35463e-06
0.000121323 -7.19404e-05 3.34203e-06
-1.35463e-06 3.34203e-06 -0.000174191
0.000489165 3.38546e-05 -8.08319e-06
3.38546e-05 -0.000401882 1.97858e-06
-8.08319e-06 1.97858e-06 -0.0004098
0.00367945 -6.12332e-05 -1.00748e-05
-6.12332e-05 0.000355749 1.24882e-06
-1.00748e-05 1.24882e-06 7.44533e-05
0.00151249 -0.000180195 6.57153e-06
-0.000180195 -0.000478081 4.27228e-06
6.57153e-06 4.27228e-06 -0.00126978
0.00281302 0.000196497 4.29096e-05
0.000196497 0.000225014 2.3652e-05
4.29096e-05 2.3652e-05 -0.000146899
0.00125695 0.00015305 -6.62417e-06
0.00015305 -0.000131679 5.28317e-07
-6.62417e-06 5.28317e-07 -0.000163484
0.000399779 0.000182417 -1.72083e-05
0.000182417 -0.00042368 -1.19988e-05
-1.72083e-05 -1.19988e-05 -0.000557729
0.00269197 -7.50799e-05 1.20046e-05
-7.50799e-05 0.000583744 -5.20519e-06
1.20046e-05 -5.20519e-06 0.000490368
0.00117807 -1.17323e-05 -2.2273e-05
-1.17323e-05 7.98773e-06 2.93197e-06
-2.2273e-05 2.93197e-06 -0.000325533
0.000712598 0.000195164 4.78939e-05
0.000195164 -0.000853337 -8.10888e-06
4.78939e-05 -8.10888e-06 -0.00142927
6.50189e-05 -6.66102e-05 -6.57896e-06
-6.66102e-05 -0.000598903 1.31601e-05
-6.57896e-06 1.31601e-05 -0.000608291
0.00360977 0.000158696 3.89955e-05
0.000158696 0.000905895 -4.75054e-06
3.89955e-05 -4.75054e-06 0.000616406
0.0017292 -2.73666e-05 5.1537e-06
-2.73666e-05 4.08779e-05 -1.86784e-06
5.1537e-06 -1.86784e-06 9.88509e-08
0.00209169 7.59422e-05 1.58708e-06
7.59422e-05 0.00030425 -3.10911e-06
1.58708e-06 -3.10911e-06 0.000211712
0.00107747 3.44645e-05 2.35345e-06
3.44645e-05 -0.000356842 -3.363e-06
2.35345e-06 -3.363e-06 -0.000437348
0.00241859 4.80444e-05 -2.17337e-06
4.80444e-05 0.000379876 -3.52072e-06
-2.17337e-06 -3.52072e-06 0.000288798
0.00168007 -0.000116116 2.98601e-06
-0.000116116 -0.00011517 -1.51924e-06
2.98601e-06 -1.51924e-06 -0.00015936
0.00196504 -3.26309e-05 3.82919e-06
-3.26309e-05 8.28703e-05 3.11913e-07
3.82919e-06 3.11913e-07 2.02996e-05
0.00212265 -7.06592e-06 2.62431e-07
-7.06592e-06 0.000263439 -2.52445e-06
2.62431e-07 -2.52445e-06 0.000177936
0.0020436 -0.000101788 2.19962e-06
-0.000101788 0.000168784 7.89319e-07
2.19962e-06 7.89319e-07 0.000103805
0.00189892 -6.06353e-05 -1.40368e-07
-6.06353e-05 0.000118714 -6.18726e-07
-1.40368e-07 -6.18726e-07 3.50675e-05
0.00180152 -4.33038e-05 -6.22835e-07
-4.33038e-05 0.000114598 -4.40588e-07
-6.22835e-07 -4.40588e-07 1.43104e-05
0.00184691 -0.000102524 4.50345e-07
-0.000102524 0.000135902 5.53739e-08
4.50345e-07 5.53739e-08 5.87638e-05
0.00180773 -8.26176e-05 -4.17677e-08
-8.26176e-05 0.000141226 -1.10249e-06
-4.17677e-08 -1.10249e-06 5.54513e-05
0.00150962 -7.07343e-05 5.4059e-07
-7.07343e-05 2.66296e-05 1.82853e-06
5.4059e-07 1.82853e-06 -7.08195e-05
0.00138532 -9.67806e-05 -4.05883e-07
-9.67806e-05 -6.03343e-06 -1.68623e-06
-4.05883e-07 -1.68623e-06 -8.25333e-05
0.00150247 -9.10647e-05 4.96542e-07
-9.10647e-05 6.98184e-05 -8.13015e-07
4.96542e-07 -8.13015e-07 -2.19633e-05
0.00147919 -9.12915e-05 3.30925e-07
-9.12915e-05 8.2612e-05 8.04784e-08
3.30925e-07 8.04784e-08 -1.84203e-05
0.001399 -9.55231e-05 -2.54093e-06
-9.55231e-05 6.00815e-05 1.75963e-06
-2.54093e-06 1.75963e-06 -2.94445e-05
0.00154034 -9.8074e-05 -2.58004e-07
-9.8074e-05 0.000155581 -6.81566e-07
-2.58004e-07 -6.81566e-07 5.59419e-05
0.00143529 -9.41713e-05 -1.74218e-06
-9.41713e-05 0.000130528 -2.5638e-07
-1.74218e-06 -2.5638e-07 2.81188e-05
0.00140423 -0.000104698 1.97952e-06
-0.000104698 0.000129021 6.6851e-07
1.97952e-06 6.6851e-07 2.23636e-05
0.00126791 -9.8644e-05 4.04369e-07
-9.8644e-05 8.68336e-05 -2.3263e-07
4.04369e-07 -2.3263e-07 -1.77668e-05
0.00127376 -9.34613e-05 -3.54991e-06
-9.34613e-05 0.000127025 7.25538e-07
-3.54991e-06 7.25538e-07 2.9547e-05
0.000900672 -6.54084e-05 -3.99116e-06
-6.54084e-05 2.34004e-05 1.83727e-06
-3.99116e-06 1.83727e-06 -5.49451e-05
0.000880472 -8.50515e-05 -8.09659e-07
-8.50515e-05 -2.91148e-05 5.67524e-07
-8.09659e-07 5.67524e-07 -0.000126285
0.00110105 -9.90928e-05 1.91519e-06
-9.90928e-05 5.59255e-05 -1.74064e-07
1.91519e-06 -1.74064e-07 -5.1505e-05
0.000641881 -7.73322e-06 -5.82643e-06
-7.73322e-06 -4.77536e-05 4.79289e-06
-5.82643e-06 4.79289e-06 -8.89037e-05
0.000880151 -5.52242e-05 1.57399e-07
-5.52242e-05 3.77877e-05 -6.72217e-09
1.57399e-07 -6.72217e-09 -3.71559e-05
0.00109948 -9.2698e-05 2.61341e-06
-9.2698e-05 0.000117758 -1.18516e-06
2.61341e-06 -1.18516e-06 2.33011e-05
0.00294489 8.79929e-05 -4.25173e-05
8.79929e-05 0.00117644 3.04696e-06
-4.25173e-05 3.04696e-06 0.00117744
0.000675479 1.87196e-05 -2.12243e-07
1.87196e-05 -3.72049e-05 -1.41243e-07
-2.12243e-07 -1.41243e-07 -7.22358e-05
0.000918291 -3.74724e-05 3.43702e-06
-3.74724e-05 6.62102e-05 -2.08734e-06
3.43702e-06 -2.08734e-06 -4.95334e-06
0.00279933 7.86352e-05 8.57281e-07
7.86352e-05 0.00109224 1.41073e-07
8.57281e-07 1.41073e-07 0.00109658
0.000700304 3.69267e-05 4.43098e-06
3.69267e-05 -2.5135e-05 -4.50269e-06
4.43098e-06 -4.50269e-06 -5.50426e-05
0.00266391 7.04794e-05 3.83377e-05
7.04794e-05 0.00101571 -3.35677e-06
3.83377e-05 -3.35677e-06 0.00102283
0.000882121 9.26193e-05 -3.52694e-07
9.26193e-05 2.03293e-05 -6.32456e-07
-3.52694e-07 -6.32456e-07 -8.08732e-05
0.00100935 9.17633e-05 -4.33467e-08
9.17633e-05 0.000111092 -4.85392e-07
-4.33467e-08 -4.85392e-07 1.58926e-05
0.0010809 8.13343e-05 -9.70046e-07
8.13343e-05 0.000142574 -1.55724e-07
-9.70046e-07 -1.55724e-07 5.66258e-05
0.00110476 9.14056e-05 -5.41495e-08
9.14056e-05 0.000167535 -6.01245e-07
-5.41495e-08 -6.01245e-07 7.81519e-05
0.00093531 4.37997e-05 -6.80342e-07
4.37997e-05 7.57169e-05 -2.91565e-07
-6.80342e-07 -2.91565e-07 -4.94262e-06
0.000807575 8.55129e-06 -2.27758e-06
8.55129e-06 1.6311e-05 -1.44181e-06
-2.27758e-06 -1.44181e-06 -4.82846e-05
0.000827977 1.1745e-05 2.42523e-07
1.1745e-05 2.22128e-05 7.54379e-08
2.42523e-07 7.54379e-08 -5.48245e-05
0.000789579 -2.8628e-05 -1.53332e-07
-2.8628e-05 6.04428e-06 -4.56414e-09
-1.53332e-07 -4.56414e-09 -5.06305e-05
0.00070443 -5.63302e-05 -1.52027e-06
-5.63302e-05 -2.2029e-05 -4.14194e-06
-1.52027e-06 -4.14194e-06 -4.60615e-05
0.000796444 -3.87224e-05 1.25928e-06
-3.87224e-05 5.9245e-06 2.34088e-06
1.25928e-06 2.34088e-06 -4.26142e-05
0.000710354 -4.56388e-05 4.65955e-08
-4.56388e-05 -2.97803e-05 -6.81434e-08
4.65955e-08 -6.81434e-08 -4.71606e-05
0.00242809 -6.25694e-05 -3.26677e-05
-6.25694e-05 0.000887867 -3.07924e-06
-3.26677e-05 -3.07924e-06 0.00089792
0.000717463 -3.70953e-05 2.87214e-06
-3.70953e-05 -3.52764e-05 3.60599e-06
2.87214e-06 3.60599e-06 -4.83457e-05
0.00231674 -5.60621e-05 -3.94605e-07
-5.60621e-05 0.000820997 7.60257e-08
-3.94605e-07 7.60257e-08 0.000833563
0.00229799 -5.02138e-05 2.58062e-05
-5.02138e-05 0.00080256 3.51346e-06
2.58062e-05 3.51346e-06 0.000817036
0.000546282 -3.68007e-05 -1.10845e-06
-3.68007e-05 -0.000406667 -2.96476e-08
-1.10845e-06 -2.96476e-08 -0.000439948
0.00311049 -5.53065e-05 1.66337e-06
-5.53065e-05 0.000353429 1.04973e-05
1.66337e-06 1.04973e-05 4.08155e-05
0.00569774 0.000107697 -7.37612e-05
0.000107697 0.00169849 -9.52577e-06
-7.37612e-05 -9.52577e-06 0.000989004
0.000841982 9.0905e-05 3.09166e-06
9.0905e-05 -3.05814e-05 1.32547e-06
3.09166e-06 1.32547e-06 -0.000123979
0.00140626 0.000121911 3.96226e-06
0.000121911 0.000185983 -1.30461e-06
3.96226e-06 -1.30461e-06 7.602e-05
0.000818893 9.38848e-05 1.13662e-07
9.38848e-05 -1.20011e-05 -6.98645e-07
1.13662e-07 -6.98645e-07 -0.000114341
0.00112299 9.98152e-05 -8.74149e-07
9.98152e-05 0.000195599 -2.00474e-06
-8.74149e-07 -2.00474e-06 0.000100004
0.000956111 9.50206e-05 -8.58891e-07
9.50206e-05 9.77851e-05 -1.08472e-06
-8.58891e-07 -1.08472e-06 -2.78331e-06
0.00100708 0.000103269 2.1206e-06
0.000103269 8.98787e-05 1.24321e-06
2.1206e-06 1.24321e-06 1.18285e-06
0.0017217 0.00015057 -2.16817e-06
0.00015057 0.000250183 -3.18085e-06
-2.16817e-06 -3.18085e-06 0.000143607
0.00148579 0.000130077 9.95564e-07
0.000130077 0.000323606 -4.30648e-07
9.95564e-07 -4.30648e-07 0.000228022
0.000951953 0.000121632 -1.45784e-06
0.000121632 -2.30269e-06 5.11148e-06
-1.45784e-06 5.11148e-06 -0.000103654
0.00157905 0.000157056 -1.16347e-06
0.000157056 0.000172738 3.55032e-09
-1.16347e-06 3.55032e-09 6.00086e-05
0.00150474 0.000128922 -8.72804e-07
0.000128922 -2.90899e-05 -6.74744e-07
-8.72804e-07 -6.74744e-07 -0.000154453
0.00159132 3.82063e-05 8.3862e-06
3.82063e-05 -9.55062e-05 4.13473e-06
8.3862e-06 4.13473e-06 -0.000186041
0.00205118 0.000147469 3.94815e-06
0.000147469 0.000191354 1.9664e-06
3.94815e-06 1.9664e-06 7.02358e-05
0.0012523 0.000156759 -4.10971e-06
0.000156759 -3.89801e-05 1.63556e-06
-4.10971e-06 1.63556e-06 -0.0001607
0.00112962 2.76572e-05 4.28373e-07
2.76572e-05 -8.68524e-05 -5.2747e-07
4.28373e-07 -5.2747e-07 -9.91776e-05
0.00464083 -0.00014476 4.78875e-05
-0.00014476 0.000710952 2.20616e-05
4.78875e-05 2.20616e-05 0.000397306
0.00173263 0.000148015 -2.57944e-07
0.000148015 0.00016313 -7.32588e-06
-2.57944e-07 -7.32588e-06 0.000122421
0.00191507 -1.06638e-05 5.08583e-06
-1.06638e-05 0.000190823 -1.88836e-06
5.08583e-06 -1.88836e-06 0.000119042
0.00183225 -4.87417e-05 -8.06738e-07
-4.87417e-05 0.000192242 5.63351e-07
-8.06738e-07 5.63351e-07 8.09426e-05
0.000690077 6.13284e-05 5.53784e-05
6.13284e-05 -0.000430341 9.49701e-07
5.53784e-05 9.49701e-07 -0.000833262
0.000250969 -1.7196e-05 -6.46836e-06
-1.7196e-05 -0.000713453 3.37372e-06
-6.46836e-06 3.37372e-06 -0.00074483
0.00255839 7.91273e-05 -2.74103e-05
7.91273e-05 0.000559246 4.06318e-06
-2.74103e-05 4.06318e-06 0.000479053
0.00119526 3.01662e-05 -1.3172e-07
3.01662e-05 -0.000304914 4.39521e-06
-1.3172e-07 4.39521e-06 -0.000378792
0.00214569 3.95007e-05 1.61077e-06
3.95007e-05 0.000216324 1.0418e-06
1.61077e-06 1.0418e-06 0.000127571
0.00191932 1.02074e-05 -8.96308e-07
1.02074e-05 0.000127171 5.96448e-08
-8.96308e-07 5.96448e-08 4.27091e-05
0.00145978 1.51676e-05 1.80916e-06
1.51676e-05 -0.000125836 -1.31055e-06
1.80916e-06 -1.31055e-06 -0.000207531
0.00149894 -3.23198e-05 6.09344e-06
-3.23198e-05 -0.00016194 1.87807e-06
6.09344e-06 1.87807e-06 -0.000228371
0.00175041 -7.62722e-06 -1.94837e-06
-7.62722e-06 7.00179e-05 5.69809e-08
-1.94837e-06 5.69809e-08 -1.46293e-05
0.00165996 -5.28647e-06 5.73313e-07
-5.28647e-06 4.80522e-05 -1.72972e-06
5.73313e-07 -1.72972e-06 -4.59239e-05
0.00199926 -6.40661e-05 -3.0056e-06
-6.40661e-05 0.000169819 -2.5392e-07
-3.0056e-06 -2.5392e-07 8.55709e-05
0.00181676 -4.37086e-05 -4.21962e-07
-4.37086e-05 0.000125502 -2.41692e-07
-4.21962e-07 -2.41692e-07 2.69035e-05
0.00153483 -3.3759e-05 -5.76204e-07
-3.3759e-05 1.07302e-05 -1.91351e-07
-5.76204e-07 -1.91351e-07 -9.14191e-05
0.00172288 -8.40167e-05 -2.09053e-06
-8.40167e-05 0.000108996 -3.2243e-06
-2.09053e-06 -3.2243e-06 2.48165e-05
0.00160947 -7.17366e-05 4.74519e-07
-7.17366e-05 7.46663e-05 5.32875e-07
4.74519e-07 5.32875e-07 -2.29373e-05
0.00154693 -7.36457e-05 -2.91863e-07
-7.36457e-05 6.73229e-05 6.41592e-07
-2.91863e-07 6.41592e-07 -3.51854e-05
0.00151806 -9.10432e-05 -1.08823e-06
-9.10432e-05 7.74776e-05 -1.72358e-06
-1.08823e-06 -1.72358e-06 -1.43537e-05
0.00148548 -9.05314e-05 1.9088e-07
-9.05314e-05 8.51609e-05 -3.669e-07
1.9088e-07 -3.669e-07 -1.57855e-05
0.00142417 -8.89503e-05 -1.45309e-06
-8.89503e-05 8.50936e-05 3.71251e-07
-1.45309e-06 3.71251e-07 -1.88255e-05
0.00136205 -9.22921e-05 -7.82091e-08
-9.22921e-05 6.27902e-05 4.57218e-07
-7.82091e-08 4.57218e-07 -3.60182e-05
0.0012849 -8.96693e-05 -1.77258e-07
-8.96693e-05 5.40103e-05 -2.67725e-07
-1.77258e-07 -2.67725e-07 -4.81082e-05
0.00123545 -8.51771e-05 -3.64662e-06
-8.51771e-05 7.08899e-05 6.82203e-07
-3.64662e-06 6.82203e-07 -2.62792e-05
0.00107195 -9.18793e-05 2.59545e-06
-9.18793e-05 -1.34869e-05 -1.08021e-07
2.59545e-06 -1.08021e-07 -0.000118518
0.00106685 -8.59047e-05 2.06454e-07
-8.59047e-05 2.10307e-05 1.47819e-08
2.06454e-07 1.47819e-08 -7.63871e-05
0.000963584 -6.85883e-05 -4.99834e-06
-6.85883e-05 2.18643e-05 1.92387e-06
-4.99834e-06 1.92387e-06 -5.78051e-05
0.000576986 -2.96764e-05 -7.10142e-06
-2.96764e-05 -8.39059e-05 5.08784e-06
-7.10142e-06 5.08784e-06 -0.000130116
0.0009281 -6.77813e-05 1.73784e-07
-6.77813e-05 3.77959e-05 2.91062e-08
1.73784e-07 2.91062e-08 -4.08621e-05
0.00101211 -8.96924e-05 1.8583e-06
-8.96924e-05 4.08708e-05 -2.86319e-07
1.8583e-06 -2.86319e-07 -5.54891e-05
0.00306995 9.76103e-05 -4.43748e-05
9.76103e-05 0.00125829 2.96387e-06
-4.43748e-05 2.96387e-06 0.00125429
0.000701825 -2.02295e-07 -3.20614e-07
-2.02295e-07 -1.9574e-05 -5.80292e-08
-3.20614e-07 -5.80292e-08 -6.17385e-05
0.000956657 -5.46983e-05 3.74338e-06
-5.46983e-05 7.81536e-05 -1.86801e-06
3.74338e-06 -1.86801e-06 2.14421e-06
0.00295184 8.74488e-05 8.88763e-07
8.74488e-05 0.00118296 1.65071e-07
8.88763e-07 1.65071e-07 0.00118323
0.000739759 1.67466e-05 5.89518e-06
1.67466e-05 -5.71224e-06 -4.4413e-06
5.89518e-06 -4.4413e-06 -4.07589e-05
0.00282216 7.80274e-05 4.2318e-05
7.80274e-05 0.00110519 -3.32748e-06
4.2318e-05 -3.32748e-06 0.00110909
0.000634838 8.82901e-05 -9.95951e-08
8.82901e-05 -0.000156786 -5.63838e-07
-9.95951e-08 -5.63838e-07 -0.000265812
0.00072574 8.6022e-05 2.31515e-08
8.6022e-05 -6.2594e-05 -1.33553e-07
2.31515e-08 -1.33553e-07 -0.000164356
0.00112542 9.13423e-05 -1.49389e-06
9.13423e-05 0.000142675 -2.61656e-07
-1.49389e-06 -2.61656e-07 5.12035e-05
0.00093561 8.79974e-05 -2.01577e-07
8.79974e-05 7.27014e-05 -5.75841e-07
-2.01577e-07 -5.75841e-07 -2.19361e-05
0.00099275 7.66951e-05 -1.87407e-07
7.66951e-05 9.75177e-05 -1.67066e-07
-1.87407e-07 -1.67066e-07 1.2099e-05
0.000888997 2.62884e-05 -2.69319e-06
2.62884e-05 5.92552e-05 -1.20843e-06
-2.69319e-06 -1.20843e-06 -1.14381e-05
0.000923365 4.5727e-05 3.20086e-07
4.5727e-05 6.9822e-05 -5.13899e-07
3.20086e-07 -5.13899e-07 -1.0304e-05
0.000810625 1.12023e-06 4.24951e-08
1.12023e-06 2.10326e-05 9.35254e-08
4.24951e-08 9.35254e-08 -4.43865e-05
0.000685791 -5.22178e-05 -2.60446e-06
-5.22178e-05 -2.69634e-05 -4.11425e-06
-2.60446e-06 -4.11425e-06 -5.64599e-05
0.000808939 -3.94733e-05 1.38099e-06
-3.94733e-05 1.7782e-05 2.24444e-06
1.38099e-06 2.24444e-06 -3.92673e-05
0.000675401 -5.43402e-05 -1.98057e-08
-5.43402e-05 -3.85357e-05 -9.89371e-08
-1.98057e-08 -9.89371e-08 -6.18759e-05
0.00257493 -6.9881e-05 -3.64413e-05
-6.9881e-05 0.000971114 -3.00924e-06
-3.64413e-05 -3.00924e-06 0.00097851
0.000687294 -4.29795e-05 3.05081e-06
-4.29795e-05 -4.28375e-05 3.68105e-06
3.05081e-06 3.68105e-06 -5.95726e-05
0.00240174 -6.25387e-05 -4.04254e-07
-6.25387e-05 0.000873294 7.81378e-08
-4.04254e-07 7.81378e-08 0.000883613
0.00231907 -5.59894e-05 2.79906e-05
-5.59894e-05 0.00082119 3.30356e-06
2.79906e-05 3.30356e-06 0.000833946
0.00154058 -2.44829e-05 9.92717e-06
-2.44829e-05 -9.97196e-05 1.00473e-06
9.92717e-06 1.00473e-06 -0.000174925
0.00104683 -5.77928e-05 7.85001e-07
-5.77928e-05 -0.000210997 1.73136e-06
7.85001e-07 1.73136e-06 -0.000255011
0.00220453 -0.000105432 6.68558e-05
-0.000105432 -1.75136e-05 1.62489e-05
6.68558e-05 1.62489e-05 -0.000264077
0.0020557 0.000142039 2.10515e-06
0.000142039 0.000440347 -2.73865e-06
2.10515e-06 -2.73865e-06 0.000335323
0.000837358 9.35278e-05 -1.43673e-06
9.35278e-05 -1.96541e-05 5.36809e-07
-1.43673e-06 5.36809e-07 -0.00010781
0.000729726 9.94401e-05 -2.71323e-06
9.94401e-05 -0.000257703 1.21543e-06
-2.71323e-06 1.21543e-06 -0.000371119
0.00142032 0.000122703 4.32883e-07
0.000122703 0.000192094 1.60478e-07
4.32883e-07 1.60478e-07 8.12442e-05
0.000447167 7.87599e-05 -2.82665e-06
7.87599e-05 -0.000193494 5.75432e-07
-2.82665e-06 5.75432e-07 -0.000294427
0.00190881 0.000127159 -2.08981e-06
0.000127159 0.000199163 -4.26105e-06
-2.08981e-06 -4.26105e-06 7.97699e-05
0.00134528 0.00011944 -1.31518e-06
0.00011944 0.00025427 -8.25181e-07
-1.31518e-06 -8.25181e-07 0.000163507
0.00163503 0.000145392 -2.07867e-07
0.000145392 0.00020206 5.94614e-07
-2.07867e-07 5.94614e-07 9.52833e-05
0.00173876 6.11072e-05 4.12624e-06
6.11072e-05 5.01571e-05 2.12253e-06
4.12624e-06 2.12253e-06 -6.20328e-05
0.00160174 0.000158147 1.20129e-06
0.000158147 0.000185381 2.86623e-06
1.20129e-06 2.86623e-06 7.32657e-05
0.00176025 0.000137573 -1.10849e-06
0.000137573 8.87273e-05 -1.10381e-06
-1.10849e-06 -1.10381e-06 -3.86916e-05
0.00168635 4.59561e-05 -2.58455e-07
4.59561e-05 -3.50647e-05 -3.81726e-07
-2.58455e-07 -3.81726e-07 -0.000127739
0.00181525 0.000134602 -1.43543e-06
0.000134602 9.05744e-05 -1.05655e-06
-1.43543e-06 -1.05655e-06 -3.02152e-05
0.00118788 2.71335e-05 -4.41531e-06
2.71335e-05 -6.0863e-05 -6.80047e-06
-4.41531e-06 -6.80047e-06 -7.48087e-05
0.00161193 -4.19608e-06 4.51802e-06
-4.19608e-06 -1.02886e-05 -3.46644e-07
4.51802e-06 -3.46644e-07 -9.42104e-05
0.0017846 -4.42084e-06 -8.70698e-07
-4.42084e-06 0.00012593 -6.26702e-08
-8.70698e-07 -6.26702e-08 5.29365e-05
0.000677712 -1.27807e-05 -8.10314e-06
-1.27807e-05 -0.000349707 3.07763e-06
-8.10314e-06 3.07763e-06 -0.000477669
0.00130908 2.70635e-05 -1.00304e-06
2.70635e-05 -0.000261535 3.07169e-06
-1.00304e-06 3.07169e-06 -0.000328709
0.00201539 3.24913e-05 8.66744e-06
3.24913e-05 0.000127183 3.07938e-06
8.66744e-06 3.07938e-06 4.05555e-05
0.0018101 1.09383e-05 -3.14223e-06
1.09383e-05 6.87659e-05 -1.94348e-07
-3.14223e-06 -1.94348e-07 -1.48622e-05
0.00170723 1.34385e-05 5.7246e-07
1.34385e-05 7.77806e-06 7.5547e-07
5.7246e-07 7.5547e-07 -7.33236e-05
0.00182568 7.69837e-06 1.53064e-06
7.69837e-06 0.000103498 -3.33235e-07
1.53064e-06 -3.33235e-07 1.20229e-05
0.00142498 -7.93034e-06 -3.26543e-06
-7.93034e-06 -9.8785e-05 9.91167e-07
-3.26543e-06 9.91167e-07 -0.000182797
0.00173526 -4.31672e-06 -2.81764e-09
-4.31672e-06 8.92388e-05 6.74759e-08
-2.81764e-09 6.74759e-08 -5.3624e-06
0.00162758 4.37888e-07 -3.42445e-07
4.37888e-07 4.85455e-05 -8.95664e-07
-3.42445e-07 -8.95664e-07 -5.20336e-05
0.00186252 -4.46429e-05 -1.39637e-06
-4.46429e-05 0.000151714 -4.32896e-09
-1.39637e-06 -4.32896e-09 5.48098e-05
0.00163746 -3.48392e-05 -6.60693e-08
-3.48392e-05 6.21566e-05 7.79817e-07
-6.60693e-08 7.79817e-07 -3.99746e-05
0.00162576 -3.62093e-05 -1.18452e-06
-3.62093e-05 7.87551e-05 -6.56069e-07
-1.18452e-06 -6.56069e-07 -2.41853e-05
0.00171553 -7.27265e-05 7.19168e-07
-7.27265e-05 0.000125819 -6.81752e-07
7.19168e-07 -6.81752e-07 2.8073e-05
0.00158368 -7.32548e-05 2.56475e-07
-7.32548e-05 8.48246e-05 5.1627e-07
2.56475e-07 5.1627e-07 -1.77362e-05
0.00150826 -7.53304e-05 -1.72875e-06
-7.53304e-05 8.09074e-05 3.67627e-07
-1.72875e-06 3.67627e-07 -2.33868e-05
0.00149521 -8.99107e-05 2.27475e-07
-8.99107e-05 8.94456e-05 -8.31092e-07
2.27475e-07 -8.31092e-07 -1.14181e-05
0.0014263 -8.83457e-05 1.01234e-07
-8.83457e-05 8.56759e-05 -1.27883e-07
1.01234e-07 -1.27883e-07 -1.81499e-05
0.00130458 -8.14824e-05 -3.50659e-06
-8.14824e-05 6.62204e-05 9.50921e-07
-3.50659e-06 9.50921e-07 -3.33451e-05
0.00114081 -8.53227e-05 1.50496e-06
-8.53227e-05 -1.93869e-05 -1.45042e-07
1.50496e-06 -1.45042e-07 -0.000121202
0.00122772 -8.43163e-05 2.72183e-08
-8.43163e-05 6.68659e-05 -1.03379e-07
2.72183e-08 -1.03379e-07 -3.01506e-05
0.00102142 -6.66376e-05 -6.0067e-06
-6.66376e-05 1.7956e-05 2.1944e-06
-6.0067e-06 2.1944e-06 -6.28278e-05
0.000859974 -7.8286e-05 3.11617e-06
-7.8286e-05 -8.49432e-05 -5.23085e-07
3.11617e-06 -5.23085e-07 -0.00018229
0.000977036 -6.94579e-05 2.1878e-07
-6.94579e-05 2.88563e-05 -2.19936e-08
2.1878e-07 -2.19936e-08 -5.09923e-05
0.00169265 -7.30781e-06 -7.82331e-06
-7.30781e-06 0.000504256 3.41323e-06
-7.82331e-06 3.41323e-06 0.000459843
0.00106579 3.69479e-05 -4.81149e-05
3.69479e-05 0.000205168 6.80501e-06
-4.81149e-05 6.80501e-06 0.000186512
0.00124 -1.55344e-05 -1.32067e-06
-1.55344e-05 0.000262878 -7.18418e-08
-1.32067e-06 -7.18418e-08 0.000218931
0.000971529 -7.04469e-05 4.3033e-06
-7.04469e-05 6.05892e-05 -1.62703e-06
4.3033e-06 -1.62703e-06 -1.84282e-05
0.00313783 9.57118e-05 2.08979e-06
9.57118e-05 0.00129695 2.38823e-07
2.08979e-06 2.38823e-07 0.00129235
0.000768232 -1.5837e-05 7.13509e-06
-1.5837e-05 8.54387e-06 -4.61961e-06
7.13509e-06 -4.61961e-06 -3.23742e-05
0.00295446 8.44045e-05 4.72619e-05
8.44045e-05 0.00118653 -3.19423e-06
4.72619e-05 -3.19423e-06 0.00118652
0.00125258 0.000104667 -2.39389e-07
0.000104667 -3.36038e-05 3.12882e-07
-2.39389e-07 3.12882e-07 -0.0001369
0.000796453 9.70756e-05 2.29079e-06
9.70756e-05 -0.000133561 1.29714e-06
2.29079e-06 1.29714e-06 -0.000245209
0.000814653 9.63656e-05 -1.93816e-07
9.63656e-05 -7.06515e-05 -1.04974e-07
-1.93816e-07 -1.04974e-07 -0.0001811
0.00114315 9.68651e-05 -1.75387e-06
9.68651e-05 0.000121519 -4.89848e-07
-1.75387e-06 -4.89848e-07 2.53305e-05
0.000564634 7.92391e-05 -1.0793e-07
7.92391e-05 -0.000147942 4.50136e-07
-1.0793e-07 4.50136e-07 -0.000250254
0.00102913 8.59916e-05 -2.92654e-07
8.59916e-05 9.45898e-05 -7.9846e-08
-2.92654e-07 -7.9846e-08 3.70787e-06
0.000948674 4.59153e-05 -3.14018e-06
4.59153e-05 8.13738e-05 -9.3317e-07
-3.14018e-06 -9.3317e-07 7.60726e-06
0.000912595 7.23284e-05 9.446e-07
7.23284e-05 5.66736e-05 2.2737e-08
9.446e-07 2.2737e-08 -2.82489e-05
0.000831219 2.18002e-05 -5.53182e-08
2.18002e-05 3.02285e-05 1.92652e-07
-5.53182e-08 1.92652e-07 -4.02896e-05
0.000715838 -3.29275e-05 -4.79137e-06
-3.29275e-05 -1.04383e-05 -3.98298e-06
-4.79137e-06 -3.98298e-06 -4.58961e-05
0.000828315 -1.5176e-05 1.48914e-06
-1.5176e-05 3.22781e-05 1.62504e-06
1.48914e-06 1.62504e-06 -3.31693e-05
0.00064425 -6.08699e-05 -7.82456e-08
-6.08699e-05 -4.72414e-05 -1.25255e-07
-7.82456e-08 -1.25255e-07 -7.76637e-05
0.00272927 -7.77852e-05 -4.01697e-05
-7.77852e-05 0.00105885 -3.02698e-06
-4.01697e-05 -3.02698e-06 0.00106303
0.000646208 -5.14825e-05 2.71949e-06
-5.14825e-05 -5.52796e-05 3.91506e-06
2.71949e-06 3.91506e-06 -7.7794e-05
0.0025456 -7.00844e-05 -4.42162e-07
-7.00844e-05 0.000955455 9.27371e-08
-4.42162e-07 9.27371e-08 0.000963118
0.00238058 -6.23769e-05 3.01814e-05
-6.23769e-05 0.00086131 3.08028e-06
3.01814e-05 3.08028e-06 0.000871929
0.00162456 5.4027e-06 5.89558e-06
5.4027e-06 -5.10703e-06 1.74111e-06
5.89558e-06 1.74111e-06 -0.00010125
0.00206638 -2.62655e-05 -1.88177e-06
-2.62655e-05 0.000199966 -9.08187e-07
-1.88177e-06 -9.08187e-07 0.000127724
0.00213336 -9.46681e-05 -5.14367e-07
-9.46681e-05 0.000277386 1.1821e-07
-5.14367e-07 1.1821e-07 0.000219169
0.00162746 0.000113837 -5.37212e-06
0.000113837 8.17916e-05 -2.77746e-06
-5.37212e-06 -2.77746e-06 -3.15066e-05
0.00169223 0.000129462 -3.54877e-07
0.000129462 0.000277989 5.69561e-07
-3.54877e-07 5.69561e-07 0.000176783
0.00076426 9.39074e-05 -7.79354e-06
9.39074e-05 -4.45871e-05 4.74006e-07
-7.79354e-06 4.74006e-07 -0.000127301
0.00144264 0.000122466 2.03161e-06
0.000122466 0.000101018 1.52475e-06
2.03161e-06 1.52475e-06 -1.05692e-05
0.00145588 0.000124281 -2.99779e-06
0.000124281 0.000209257 6.21421e-07
-2.99779e-06 6.21421e-07 9.74708e-05
0.00201673 6.24581e-05 -2.24992e-07
6.24581e-05 0.000198289 1.39499e-06
-2.24992e-07 1.39499e-06 8.20241e-05
0.00168221 0.000121898 -2.36953e-06
0.000121898 8.42425e-05 -1.828e-06
-2.36953e-06 -1.828e-06 -3.81976e-05
0.00156025 0.000141156 1.31866e-06
0.000141156 0.000160205 5.48172e-06
1.31866e-06 5.48172e-06 5.29731e-05
0.00176872 6.21894e-05 -4.6052e-07
6.21894e-05 6.46572e-05 -1.961e-08
-4.6052e-07 -1.961e-08 -4.78404e-05
0.00211181 0.00014919 7.0662e-07
0.00014919 0.000253282 -6.21819e-07
7.0662e-07 -6.21819e-07 0.000123893
0.00182798 5.1444e-05 -9.72245e-06
5.1444e-05 4.13814e-05 -4.75468e-06
-9.72245e-06 -4.75468e-06 -5.27065e-05
0.00190468 -3.48265e-06 3.07775e-06
-3.48265e-06 0.000139403 3.60563e-07
3.07775e-06 3.60563e-07 4.48174e-05
0.00179573 -2.60772e-06 -4.48952e-07
-2.60772e-06 7.6345e-05 -6.62623e-07
-4.48952e-07 -6.62623e-07 -7.11235e-06
0.00176834 1.74327e-06 -5.99172e-06
1.74327e-06 0.000114493 2.95886e-06
-5.99172e-06 2.95886e-06 4.07247e-05
0.00170358 1.12448e-05 -1.76947e-06
1.12448e-05 1.31035e-05 1.45503e-06
-1.76947e-06 1.45503e-06 -6.97091e-05
0.00188351 1.14425e-05 2.01341e-06
1.14425e-05 0.000105053 2.46405e-06
2.01341e-06 2.46405e-06 2.4656e-05
0.0018103 8.54426e-06 -6.07635e-07
8.54426e-06 9.69144e-05 -3.14097e-07
-6.07635e-07 -3.14097e-07 6.48747e-06
0.00172299 9.5486e-06 1.42539e-06
9.5486e-06 8.05105e-05 -1.46896e-07
1.42539e-06 -1.46896e-07 -2.31148e-05
0.0017889 -3.49621e-06 3.53894e-07
-3.49621e-06 0.000118821 1.52235e-06
3.53894e-07 1.52235e-06 2.36916e-05
0.00164603 -1.39204e-06 -6.71015e-07
-1.39204e-06 6.1135e-05 1.16828e-09
-6.71015e-07 1.16828e-09 -3.97881e-05
0.00165255 -6.09921e-06 -1.61226e-06
-6.09921e-06 8.43938e-05 1.7133e-07
-1.61226e-06 1.7133e-07 -2.18386e-05
0.00173111 -3.59757e-05 8.73024e-07
-3.59757e-05 0.000108999 1.23658e-06
8.73024e-07 1.23658e-06 6.88572e-06
0.00163891 -3.64397e-05 -1.57521e-08
-3.64397e-05 8.49785e-05 6.54575e-09
-1.57521e-08 6.54575e-09 -1.79285e-05
0.00156317 -4.46309e-05 -2.15325e-06
-4.46309e-05 8.0107e-05 -6.80129e-07
-2.15325e-06 -6.80129e-07 -2.27548e-05
0.00161784 -7.2692e-05 1.34135e-06
-7.2692e-05 0.000101021 3.48479e-07
1.34135e-06 3.48479e-07 -1.58416e-06
0.00151575 -7.48767e-05 1.22849e-07
-7.48767e-05 8.42362e-05 4.6238e-07
1.22849e-07 4.6238e-07 -2.00404e-05
0.00138903 -7.14545e-05 -3.70947e-06
-7.14545e-05 6.80512e-05 7.86539e-07
-3.70947e-06 7.86539e-07 -3.2526e-05
0.00142871 -8.77949e-05 1.71598e-06
-8.77949e-05 8.6409e-05 -6.22039e-07
1.71598e-06 -6.22039e-07 -1.73291e-05
0.0013063 -8.08914e-05 9.05303e-08
-8.08914e-05 6.66541e-05 -2.31615e-08
9.05303e-08 -2.31615e-08 -3.28121e-05
0.00107982 -6.40416e-05 -6.75944e-06
-6.40416e-05 1.52257e-05 2.46288e-06
-6.75944e-06 2.46288e-06 -6.83002e-05
0.00121972 -8.34548e-05 3.26745e-06
-8.34548e-05 6.27396e-05 -7.7951e-07
3.26745e-06 -7.7951e-07 -3.41301e-05
0.00103032 -6.67713e-05 2.80904e-07
-6.67713e-05 2.201e-05 -1.01596e-07
2.80904e-07 -1.01596e-07 -5.88746e-05
0.00179908 -9.03957e-06 -7.67215e-06
-9.03957e-06 0.000547799 3.59909e-06
-7.67215e-06 3.59909e-06 0.000502517
0.000993967 -7.05779e-05 5.07579e-06
-7.05779e-05 3.78855e-05 -1.78301e-06
5.07579e-06 -1.78301e-06 -4.21978e-05
0.00188095 -2.31326e-05 1.475e-05
-2.31326e-05 0.000595754 -1.02786e-06
1.475e-05 -1.02786e-06 0.000552636
0.00120281 4.39081e-06 -6.48759e-05
4.39081e-06 0.00028901 7.52463e-06
-6.48759e-05 7.52463e-06 0.000268913
0.00220452 5.44842e-05 -4.80018e-05
5.44842e-05 0.000814222 1.30273e-06
-4.80018e-05 1.30273e-06 0.000801667
0.00193213 -2.35259e-05 3.27095e-05
-2.35259e-05 0.000622262 -3.89199e-06
3.27095e-05 -3.89199e-06 0.000583654
0.00318175 8.19783e-05 5.78777e-05
8.19783e-05 0.00132177 -3.29635e-06
5.78777e-05 -3.29635e-06 0.00131794
0.00162903 0.000102541 -3.81117e-06
0.000102541 8.1161e-05 -3.46787e-06
-3.81117e-06 -3.46787e-06 -2.66337e-05
0.00154145 0.000115335 4.02346e-06
0.000115335 0.000186235 4.22278e-07
4.02346e-06 4.22278e-07 8.06128e-05
0.00126877 0.000106469 1.47674e-06
0.000106469 -1.50173e-05 9.70283e-07
1.47674e-06 9.70283e-07 -0.000110402
0.00115914 0.000101408 -1.92741e-06
0.000101408 9.0039e-05 -9.39031e-07
-1.92741e-06 -9.39031e-07 -1.15158e-05
0.00115451 0.000112084 -5.33615e-07
0.000112084 4.67591e-05 2.55178e-07
-5.33615e-07 2.55178e-07 -6.60072e-05
0.000994104 0.000104748 1.43203e-07
0.000104748 1.51554e-05 4.77915e-07
1.43203e-07 4.77915e-07 -9.67296e-05
0.00108976 9.46213e-05 -1.73678e-07
9.46213e-05 9.68296e-05 -1.40774e-07
-1.73678e-07 -1.40774e-07 5.22115e-07
0.000982817 6.62053e-05 -3.31455e-06
6.62053e-05 8.01556e-05 -1.17982e-06
-3.31455e-06 -1.17982e-06 3.20413e-06
0.000929806 8.05726e-05 8.7943e-07
8.05726e-05 4.48152e-05 5.8661e-08
8.7943e-07 5.8661e-08 -4.54589e-05
0.00085819 4.20224e-05 -2.55713e-07
4.20224e-05 3.42373e-05 3.8434e-08
-2.55713e-07 3.8434e-08 -3.87746e-05
0.000749626 -3.58648e-06 -6.02617e-06
-3.58648e-06 4.68573e-06 -3.92638e-06
-6.02617e-06 -3.92638e-06 -3.52034e-05
0.000751421 1.60586e-05 1.814e-06
1.60586e-05 -1.02528e-05 1.19272e-06
1.814e-06 1.19272e-06 -8.05989e-05
0.000649452 -4.20447e-05 -1.50944e-07
-4.20447e-05 -4.42797e-05 -9.15188e-08
-1.50944e-07 -9.15188e-08 -7.92117e-05
0.00287913 -8.58646e-05 -4.45832e-05
-8.58646e-05 0.00114863 -2.92807e-06
-4.45832e-05 -2.92807e-06 0.00114873
0.000588184 -5.89226e-05 1.80348e-06
-5.89226e-05 -7.73897e-05 4.32397e-06
1.80348e-06 4.32397e-06 -0.000107216
0.0027116 -7.84367e-05 -6.20566e-07
-7.84367e-05 0.00104889 1.22001e-07
-6.20566e-07 1.22001e-07 0.00105343
0.00251238 -6.98769e-05 3.30845e-05
-6.98769e-05 0.000937559 2.89431e-06
3.30845e-05 2.89431e-06 0.00094558
0.00181717 9.08981e-06 3.1602e-07
9.08981e-06 8.73786e-05 1.03241e-06
3.1602e-07 1.03241e-06 -1.58877e-05
0.00170249 4.33943e-06 6.14722e-07
4.33943e-06 3.25021e-05 1.92997e-07
6.14722e-07 1.92997e-07 -6.35466e-05
0.00236979 -2.71424e-05 -1.82339e-05
-2.71424e-05 0.000390262 -2.54682e-06
-1.82339e-05 -2.54682e-06 0.000320843
0.00176636 6.08729e-05 -7.03796e-07
6.08729e-05 8.87399e-05 6.60508e-07
-7.03796e-07 6.60508e-07 -2.42223e-05
0.00173884 0.000116476 1.64607e-07
0.000116476 0.000142772 -1.12941e-06
1.64607e-07 -1.12941e-06 2.94698e-05
0.00141807 0.000119884 -3.4032e-06
0.000119884 0.00015992 2.1843e-06
-3.4032e-06 2.1843e-06 6.25327e-05
0.00210063 0.000143552 1.70454e-06
0.000143552 0.000431526 3.47334e-07
1.70454e-06 3.47334e-07 0.000321904
0.00194722 6.26339e-05 -5.7277e-07
6.26339e-05 0.000160956 -1.29809e-07
-5.7277e-07 -1.29809e-07 4.4725e-05
0.00147041 0.000116719 8.88417e-07
0.000116719 -2.33959e-05 3.9984e-07
8.88417e-07 3.9984e-07 -0.000148835
0.00176949 6.38107e-05 -3.32991e-06
6.38107e-05 6.55801e-05 -2.17542e-06
-3.32991e-06 -2.17542e-06 -4.73997e-05
0.00183694 2.00102e-06 2.46572e-06
2.00102e-06 0.000104194 2.56127e-07
2.46572e-06 2.56127e-07 1.70565e-06
0.00181821 -1.94394e-06 -5.27298e-07
-1.94394e-06 9.41705e-05 -2.36667e-07
-5.27298e-07 -2.36667e-07 -1.30359e-06
0.00194483 -7.29231e-09 -4.82789e-06
-7.29231e-09 0.00014727 2.24567e-07
-4.82789e-06 2.24567e-07 6.4171e-05
0.00198121 1.67869e-05 9.169e-07
1.67869e-05 0.00019802 8.27547e-08
9.169e-07 8.27547e-08 9.06576e-05
0.00181844 9.88211e-06 -2.03989e-06
9.88211e-06 0.000102427 5.64794e-07
-2.03989e-06 5.64794e-07 1.29385e-05
0.00175713 1.05923e-05 -1.44324e-07
1.05923e-05 9.69236e-05 9.5251e-08
-1.44324e-07 9.5251e-08 -6.2999e-06
0.00160119 6.34428e-06 7.02665e-07
6.34428e-06 4.95481e-05 -5.29265e-07
7.02665e-07 -5.29265e-07 -6.02531e-05
0.00169022 -2.96736e-06 -8.37746e-08
-2.96736e-06 8.69312e-05 1.55118e-06
-8.37746e-08 1.55118e-06 -1.43587e-05
0.00166592 -5.6235e-06 -4.89117e-07
-5.6235e-06 9.19491e-05 4.33747e-07
-4.89117e-07 4.33747e-07 -1.42142e-05
0.00158218 -1.16929e-05 -2.89151e-06
-1.16929e-05 8.00129e-05 7.5261e-07
-2.89151e-06 7.5261e-07 -2.54861e-05
0.00165737 -3.6144e-05 1.51523e-06
-3.6144e-05 9.39026e-05 6.66227e-07
1.51523e-06 6.66227e-07 -8.95852e-06
0.00157069 -4.29877e-05 -5.81613e-08
-4.29877e-05 8.37425e-05 -1.24586e-07
-5.81613e-08 -1.24586e-07 -1.91113e-05
0.00143989 -5.04026e-05 -3.96921e-06
-5.04026e-05 6.75402e-05 -9.23129e-08
-3.96921e-06 -9.23129e-08 -3.18055e-05
0.0015254 -7.43849e-05 2.34214e-06
-7.43849e-05 8.86352e-05 5.18319e-07
2.34214e-06 5.18319e-07 -1.56143e-05
0.00138693 -7.08063e-05 8.95783e-08
-7.08063e-05 6.67232e-05 3.85317e-07
8.95783e-08 3.85317e-07 -3.37725e-05
0.00114777 -5.77136e-05 -7.42814e-06
-5.77136e-05 1.88256e-05 2.18722e-06
-7.42814e-06 2.18722e-06 -6.67463e-05
0.00130796 -8.02538e-05 3.63481e-06
-8.02538e-05 6.70727e-05 -9.77019e-07
3.63481e-06 -9.77019e-07 -3.22922e-05
0.00109042 -6.34342e-05 3.62825e-07
-6.34342e-05 1.92433e-05 -3.35518e-09
3.62825e-07 -3.35518e-09 -6.42339e-05
0.00192925 -1.55443e-05 -9.94226e-06
-1.55443e-05 0.000596708 3.22707e-06
-9.94226e-06 3.22707e-06 0.000552831
0.00103486 -6.67515e-05 5.91986e-06
-6.67515e-05 2.39858e-05 -2.24562e-06
5.91986e-06 -2.24562e-06 -5.70128e-05
0.0019885 -2.8281e-05 1.64398e-05
-2.8281e-05 0.000640172 -1.06682e-06
1.64398e-05 -1.06682e-06 0.000596491
0.00127563 -5.10069e-06 -6.96678e-05
-5.10069e-06 0.000330379 7.27442e-06
-6.96678e-05 7.27442e-06 0.00030903
0.00205216 -4.22769e-05 3.92438e-05
-4.22769e-05 0.000677158 -6.02729e-06
3.92438e-05 -6.02729e-06 0.000635894
0.0012192 3.62568e-05 -2.99849e-05
3.62568e-05 0.000305743 2.3821e-06
-2.99849e-05 2.3821e-06 0.000281131
0.00325788 0.000128857 1.22305e-05
0.000128857 0.00138516 -1.52618e-06
1.22305e-05 -1.52618e-06 0.00137081
0.00193901 7.33849e-05 -2.03489e-06
7.33849e-05 0.000214245 -1.43827e-06
-2.03489e-06 -1.43827e-06 0.000101836
0.00157276 9.87525e-05 -6.30266e-07
9.87525e-05 0.00010571 -3.10287e-06
-6.30266e-07 -3.10287e-06 -1.63778e-07
0.00169642 0.000105834 -2.86349e-06
0.000105834 0.000127599 1.47481e-06
-2.86349e-06 1.47481e-06 2.0906e-05
0.00158784 0.000111709 -1.35161e-06
0.000111709 0.00025734 -2.43155e-07
-1.35161e-06 -2.43155e-07 0.000155878
0.00137135 0.000112134 5.58183e-07
0.000112134 9.55973e-05 -1.52868e-06
5.58183e-07 -1.52868e-06 -9.25461e-06
0.00133542 0.000109655 2.68562e-06
0.000109655 2.88033e-05 1.67952e-06
2.68562e-06 1.67952e-06 -5.87518e-05
0.00101195 7.75031e-05 -4.22605e-06
7.75031e-05 6.23934e-05 -2.05891e-06
-4.22605e-06 -2.05891e-06 -2.02902e-05
0.00116022 0.000101875 -1.33112e-07
0.000101875 9.13582e-05 -9.13554e-08
-1.33112e-07 -9.13554e-08 -1.04908e-05
0.0015118 0.000126824 1.72109e-06
0.000126824 0.000226935 7.3993e-07
1.72109e-06 7.3993e-07 0.000113032
0.0010252 9.18869e-05 1.29521e-06
9.18869e-05 6.64053e-05 1.50593e-07
1.29521e-06 1.50593e-07 -2.99799e-05
0.000912888 6.28851e-05 -2.08706e-07
6.28851e-05 4.45426e-05 -1.81303e-07
-2.08706e-07 -1.81303e-07 -3.20401e-05
0.0007856 3.10826e-05 -7.47934e-06
3.10826e-05 2.27043e-05 -4.4767e-06
-7.47934e-06 -4.4767e-06 -2.2694e-05
0.000768573 3.96807e-05 2.24803e-06
3.96807e-05 -1.29011e-05 7.44685e-07
2.24803e-06 7.44685e-07 -8.50208e-05
0.000688603 -8.23218e-06 1.05563e-07
-8.23218e-06 -2.19418e-05 -4.54241e-08
1.05563e-07 -4.54241e-08 -6.27561e-05
0.00306122 -8.76342e-05 -5.3507e-05
-8.76342e-05 0.00126067 -2.78529e-06
-5.3507e-05 -2.78529e-06 0.00125675
0.00059037 -6.19548e-05 1.45368e-06
-6.19548e-05 -6.95506e-05 4.5009e-06
1.45368e-06 4.5009e-06 -0.000107065
0.00286658 -8.75091e-05 -9.15748e-07
-8.75091e-05 0.00113999 1.65363e-07
-9.15748e-07 1.65363e-07 0.00114054
0.00269912 -7.88957e-05 3.64024e-05
-7.88957e-05 0.00104159 2.78951e-06
3.64024e-05 2.78951e-06 0.00104653
0.00181692 1.54291e-05 -4.68735e-07
1.54291e-05 9.68071e-05 3.07998e-07
-4.68735e-07 3.07998e-07 -7.20778e-06
0.0017735 1.0857e-05 -7.58157e-07
1.0857e-05 6.11723e-05 2.64494e-07
-7.58157e-07 2.64494e-07 -4.27542e-05
0.00188486 2.72912e-06 -5.24075e-06
2.72912e-06 0.000120684 -1.45267e-06
-5.24075e-06 -1.45267e-06 2.49083e-05
0.0017932 6.16208e-05 9.71617e-07
6.16208e-05 9.971e-05 -2.00279e-07
9.71617e-07 -2.00279e-07 -1.13879e-05
0.00183238 0.000118914 1.04893e-06
0.000118914 0.000195249 2.43498e-08
1.04893e-06 2.43498e-08 8.18611e-05
0.0018444 6.21447e-05 5.4964e-07
6.21447e-05 0.00010755 -1.56623e-06
5.4964e-07 -1.56623e-06 -8.58911e-06
0.00182736 7.10916e-06 4.35595e-07
7.10916e-06 0.000101216 3.01393e-07
4.35595e-07 3.01393e-07 -5.29016e-06
0.00184776 4.69983e-06 2.39875e-07
4.69983e-06 0.000108591 -2.0362e-07
2.39875e-07 -2.0362e-07 5.43004e-06
0.00172804 2.36133e-07 -2.28325e-06
2.36133e-07 4.68835e-05 -5.04053e-07
-2.28325e-06 -5.04053e-07 -4.94764e-05
0.00183716 6.94093e-06 -7.64564e-07
6.94093e-06 0.000124777 -1.37807e-07
-7.64564e-07 -1.37807e-07 1.84691e-05
0.00187427 8.47399e-06 1.2664e-06
8.47399e-06 0.000159074 7.4625e-09
1.2664e-06 7.4625e-09 4.69754e-05
0.00176451 1.14885e-05 -1.26625e-06
1.14885e-05 9.97743e-05 8.45538e-10
-1.26625e-06 8.45538e-10 -3.03489e-06
0.00171218 7.36842e-06 4.26831e-07
7.36842e-06 0.000107394 -3.45047e-07
4.26831e-07 -3.45047e-07 -2.6829e-06
0.00149293 2.08706e-06 -2.9618e-07
2.08706e-06 2.25461e-05 9.7095e-09
-2.9618e-07 9.7095e-09 -8.86351e-05
0.00167564 -5.79172e-06 5.61648e-07
-5.79172e-06 9.77567e-05 7.10884e-07
5.61648e-07 7.10884e-07 -8.36238e-06
0.00159592 -1.23647e-05 -8.84971e-07
-1.23647e-05 8.743e-05 6.16085e-07
-8.84971e-07 6.16085e-07 -1.81795e-05
0.00146327 -1.9758e-05 -4.68368e-06
-1.9758e-05 6.77112e-05 7.66152e-07
-4.68368e-06 7.66152e-07 -3.32874e-05
0.00157793 -4.28759e-05 2.08497e-06
-4.28759e-05 8.71709e-05 4.08403e-07
2.08497e-06 4.08403e-07 -1.56975e-05
0.00144194 -4.93434e-05 2.84538e-08
-4.93434e-05 6.82082e-05 -6.28632e-08
2.84538e-08 -6.28632e-08 -3.10791e-05
0.00116929 -4.2456e-05 -7.77021e-06
-4.2456e-05 9.23359e-06 1.23907e-06
-7.77021e-06 1.23907e-06 -7.58181e-05
0.00138318 -7.0059e-05 3.99086e-06
-7.0059e-05 6.45485e-05 -2.56716e-08
3.99086e-06 -2.56716e-08 -3.58622e-05
0.00114657 -5.61885e-05 2.78441e-07
-5.61885e-05 1.68359e-05 3.11733e-07
2.78441e-07 3.11733e-07 -6.85187e-05
0.00208835 -2.42542e-05 -1.37352e-05
-2.42542e-05 0.00065674 2.41298e-06
-1.37352e-05 2.41298e-06 0.000614632
0.00109498 -6.28126e-05 6.86592e-06
-6.28126e-05 2.01843e-05 -2.41482e-06
6.86592e-06 -2.41482e-06 -6.32496e-05
0.00209755 -3.92777e-05 1.55583e-05
-3.92777e-05 0.000677906 -1.13355e-06
1.55583e-05 -1.13355e-06 0.000635914
0.0013843 -6.71476e-06 -7.34872e-05
-6.71476e-06 0.000380763 6.51527e-06
-7.34872e-05 6.51527e-06 0.000358961
0.00216724 -5.11448e-05 4.29643e-05
-5.11448e-05 0.000725534 -5.90713e-06
4.29643e-05 -5.90713e-06 0.000684071
0.0012913 3.29676e-05 -3.37381e-05
3.29676e-05 0.00034669 2.17317e-06
-3.37381e-05 2.17317e-06 0.000320626
0.00127048 7.47849e-05 4.65391e-06
7.47849e-05 0.000342453 -2.81633e-06
4.65391e-06 -2.81633e-06 0.000312319
0.00167474 2.49508e-05 -1.35297e-06
2.49508e-05 5.71481e-05 3.9218e-07
-1.35297e-06 3.9218e-07 -5.01563e-05
0.00163504 7.353e-05 -3.03537e-06
7.353e-05 9.5563e-05 -1.08434e-06
-3.03537e-06 -1.08434e-06 -1.2965e-05
0.00179274 7.10999e-05 -1.86397e-06
7.10999e-05 0.000137902 -9.87326e-07
-1.86397e-06 -9.87326e-07 2.48952e-05
0.00155535 9.84365e-05 -2.80989e-06
9.84365e-05 0.000165204 -1.13588e-06
-2.80989e-06 -1.13588e-06 6.32792e-05
0.00170984 0.000102857 1.26538e-06
0.000102857 0.000180126 7.10024e-07
1.26538e-06 7.10024e-07 7.43586e-05
0.00172607 0.000108037 4.40087e-06
0.000108037 0.000155506 3.14185e-06
4.40087e-06 3.14185e-06 4.99365e-05
0.000979978 7.81563e-05 -5.42662e-06
7.81563e-05 -1.34211e-06 -2.23423e-06
-5.42662e-06 -2.23423e-06 -8.71042e-05
0.00123838 0.000101779 1.63296e-06
0.000101779 7.31371e-05 8.79927e-07
1.63296e-06 8.79927e-07 -2.9481e-05
0.00119773 0.000108867 7.37755e-07
0.000108867 2.88901e-06 1.2684e-06
7.37755e-07 1.2684e-06 -0.000101145
0.000789024 5.7582e-05 -1.00072e-05
5.7582e-05 1.83799e-05 -5.36188e-06
-1.00072e-05 -5.36188e-06 -3.19494e-05
0.000970389 7.47323e-05 -3.62886e-07
7.47323e-05 4.12456e-05 -2.12704e-07
-3.62886e-07 -2.12704e-07 -4.10256e-05
0.00116539 0.00010251 2.12956e-06
0.00010251 9.48309e-05 9.05954e-07
2.12956e-06 9.05954e-07 -7.33306e-06
0.000857196 5.95108e-05 2.91337e-06
5.95108e-05 1.6403e-05 9.14805e-07
2.91337e-06 9.14805e-07 -5.98326e-05
0.000701452 2.61693e-05 1.2197e-09
2.61693e-05 -1.50819e-05 -3.75257e-09
1.2197e-09 -3.75257e-09 -6.07139e-05
0.00335111 -7.1253e-05 -6.45495e-05
-7.1253e-05 0.00142909 -3.73729e-06
-6.45495e-05 -3.73729e-06 0.00142181
0.000643958 -1.4619e-05 3.968e-06
-1.4619e-05 -4.17995e-05 4.27068e-06
3.968e-06 4.27068e-06 -8.21556e-05
0.00303423 -9.73241e-05 -1.72615e-06
-9.73241e-05 0.0012441 2.41297e-07
-1.72615e-06 2.41297e-07 0.00123969
0.00287234 -8.84219e-05 4.00078e-05
-8.84219e-05 0.00114055 2.74468e-06
4.00078e-05 2.74468e-06 0.00114172
0.00182665 5.65118e-06 -3.44618e-07
5.65118e-06 0.00011141 -1.93894e-07
-3.44618e-07 -1.93894e-07 6.22943e-06
0.0018108 1.49199e-05 -3.29611e-07
1.49199e-05 9.43532e-05 1.0805e-07
-3.29611e-07 1.0805e-07 -9.84947e-06
0.00174662 1.22574e-05 2.6917e-08
1.22574e-05 4.35504e-05 -1.01796e-06
2.6917e-08 -1.01796e-06 -6.10389e-05
0.00183014 6.2225e-05 1.56742e-06
6.2225e-05 0.00011547 -3.03773e-07
1.56742e-06 -3.03773e-07 6.25093e-06
0.00182148 -9.01779e-07 -4.34071e-08
-9.01779e-07 0.000113846 -3.99121e-07
-4.34071e-08 -3.99121e-07 3.48741e-06
0.0018451 5.35998e-06 3.2505e-08
5.35998e-06 0.000110243 -5.40333e-08
3.2505e-08 -5.40333e-08 3.71362e-06
0.00185865 7.12633e-06 -1.9528e-06
7.12633e-06 0.000112866 -1.13705e-07
-1.9528e-06 -1.13705e-07 9.0069e-06
0.00177062 1.45706e-06 -2.62169e-06
1.45706e-06 9.11992e-05 -6.1454e-07
-2.62169e-06 -6.1454e-07 -1.4074e-05
0.00184017 1.34759e-05 -1.04969e-07
1.34759e-05 0.000140123 -2.2463e-07
-1.04969e-07 -2.2463e-07 2.84367e-05
0.00184608 9.49587e-06 -6.89445e-07
9.49587e-06 0.000169974 3.86393e-07
-6.89445e-07 3.86393e-07 5.58833e-05
0.00183459 8.54389e-06 2.60262e-07
8.54389e-06 0.00017107 -4.36811e-07
2.60262e-07 -4.36811e-07 6.07185e-05
0.00166606 3.69724e-06 6.60549e-07
3.69724e-06 0.000113477 -4.08085e-07
6.60549e-07 -4.08085e-07 2.93228e-06
0.00128502 7.98474e-07 -3.42927e-06
7.98474e-07 -3.99221e-05 1.04433e-06
-3.42927e-06 1.04433e-06 -0.000146712
0.00160249 -1.14832e-05 8.68461e-07
-1.14832e-05 9.13411e-05 5.0168e-07
8.68461e-07 5.0168e-07 -1.43678e-05
0.00146999 -1.7325e-05 -5.85865e-07
-1.7325e-05 7.09519e-05 2.18229e-07
-5.85865e-07 2.18229e-07 -3.0023e-05
0.00117591 -2.03886e-05 -7.64326e-06
-2.03886e-05 1.28217e-06 1.04169e-06
-7.64326e-06 1.04169e-06 -8.44047e-05
0.00143953 -4.61163e-05 3.85568e-06
-4.61163e-05 6.66738e-05 -1.60501e-08
3.85568e-06 -1.60501e-08 -3.24797e-05
0.00118167 -4.26471e-05 2.44356e-08
-4.26471e-05 1.46226e-05 1.46548e-07
2.44356e-08 1.46548e-07 -7.03038e-05
0.000685733 -2.50208e-05 -1.16885e-05
-2.50208e-05 -9.83325e-05 2.56519e-06
-1.16885e-05 2.56519e-06 -0.000147021
0.00114623 -5.48722e-05 7.57315e-06
-5.48722e-05 1.52013e-05 -1.60671e-06
7.57315e-06 -1.60671e-06 -6.99392e-05
0.00143951 -4.17967e-05 1.89031e-05
-4.17967e-05 0.000310261 -7.00038e-07
1.89031e-05 -7.00038e-07 0.000265637
0.00445427 1.73878e-05 -8.65059e-05
1.73878e-05 0.00199172 3.00101e-06
-8.65059e-05 3.00101e-06 0.00198507
0.00226209 -4.95763e-05 4.6073e-05
-4.95763e-05 0.000758791 -5.30225e-06
4.6073e-05 -5.30225e-06 0.000717542
0.00136349 2.53424e-05 -3.45495e-05
2.53424e-05 0.000376675 2.11506e-06
-3.45495e-05 2.11506e-06 0.000351392
0.00133531 7.75084e-05 2.79386e-06
7.75084e-05 0.00038033 -2.90005e-06
2.79386e-06 -2.90005e-06 0.000348324
0.00172826 1.19849e-05 -1.96237e-07
1.19849e-05 8.45013e-05 6.51219e-08
-1.96237e-07 6.51219e-08 -2.10921e-05
0.00147731 3.60949e-05 -1.87053e-06
3.60949e-05 -6.28263e-08 4.80345e-08
-1.87053e-06 4.80345e-08 -0.000107145
0.00174747 2.52206e-05 -3.02815e-07
2.52206e-05 9.74275e-05 -1.86681e-07
-3.02815e-07 -1.86681e-07 -9.56245e-06
0.00115922 6.92155e-05 -4.25758e-06
6.92155e-05 -9.09406e-05 -1.63393e-06
-4.25758e-06 -1.63393e-06 -0.000194619
0.00166655 7.42577e-05 1.67471e-07
7.42577e-05 0.000114102 -9.45e-09
1.67471e-07 -9.45e-09 5.7849e-06
0.00165297 6.91612e-05 3.46309e-07
6.91612e-05 6.49178e-05 -1.85002e-07
3.46309e-07 -1.85002e-07 -4.87187e-05
0.000657653 6.19863e-05 -8.04284e-06
6.19863e-05 -0.000225803 -2.88256e-06
-8.04284e-06 -2.88256e-06 -0.00031426
0.00157136 0.000100358 8.86308e-07
0.000100358 0.000172935 8.13863e-08
8.86308e-07 8.13863e-08 7.08072e-05
0.00185795 0.000107367 2.9937e-06
0.000107367 0.000260317 1.89637e-06
2.9937e-06 1.89637e-06 0.000154618
0.000743673 7.03026e-05 -1.16403e-05
7.03026e-05 -2.30719e-05 -5.45263e-06
-1.16403e-05 -5.45263e-06 -7.59138e-05
0.000779063 7.15635e-05 -1.15977e-07
7.15635e-05 -0.000108808 1.30632e-07
-1.15977e-07 1.30632e-07 -0.000195617
0.000888075 9.1873e-05 3.93524e-06
9.1873e-05 -0.000111531 2.1065e-06
3.93524e-06 2.1065e-06 -0.000215303
0.00381034 -6.67226e-05 -7.17593e-05
-6.67226e-05 0.00167885 -4.66329e-06
-7.17593e-05 -4.66329e-06 0.00166723
0.000680355 4.99962e-05 -6.66774e-08
4.99962e-05 -3.28466e-05 2.59827e-08
-6.66774e-08 2.59827e-08 -8.31089e-05
0.00093266 7.21214e-05 3.8573e-06
7.21214e-05 2.24474e-05 1.85649e-06
3.8573e-06 1.85649e-06 -5.94751e-05
0.000616322 2.15e-05 6.14777e-06
2.15e-05 -5.38144e-05 4.46504e-06
6.14777e-06 4.46504e-06 -9.9617e-05
0.00325721 -9.78013e-05 -3.96681e-06
-9.78013e-05 0.00137904 1.80641e-07
-3.96681e-06 1.80641e-07 0.00137053
0.00299238 -9.79996e-05 4.28621e-05
-9.79996e-05 0.00121848 2.67924e-06
4.28621e-05 2.67924e-06 0.00121482
0.00179426 -2.48529e-06 -1.06365e-06
-2.48529e-06 0.000104383 -6.74839e-07
-1.06365e-06 -6.74839e-07 -3.84486e-06
0.00184001 5.48209e-06 -2.98272e-07
5.48209e-06 0.000115767 1.67219e-09
-2.98272e-07 1.67219e-09 1.05039e-05
0.00181126 1.46627e-05 3.97844e-07
1.46627e-05 9.58137e-05 -4.13721e-07
3.97844e-07 -4.13721e-07 -8.58698e-06
0.00189133 1.05414e-05 -8.14037e-07
1.05414e-05 0.000176176 -2.87031e-07
-8.14037e-07 -2.87031e-07 6.30288e-05
0.00180346 3.14071e-06 -4.55715e-07
3.14071e-06 0.000104433 -1.42572e-07
-4.55715e-07 -1.42572e-07 -5.72933e-06
0.00185005 3.07258e-07 -1.61902e-06
3.07258e-07 0.000112504 -1.25705e-07
-1.61902e-06 -1.25705e-07 6.03699e-06
0.00174866 1.62863e-05 -5.80752e-07
1.62863e-05 9.17946e-05 -1.80083e-07
-5.80752e-07 -1.80083e-07 -1.94486e-05
0.00180688 1.14111e-05 6.90829e-07
1.14111e-05 0.000150406 -1.85176e-07
6.90829e-07 -1.85176e-07 3.60571e-05
0.0017871 6.29029e-06 -2.9105e-06
6.29029e-06 0.000181197 7.76577e-07
-2.9105e-06 7.76577e-07 7.15415e-05
0.00184471 5.30332e-06 2.06477e-06
5.30332e-06 0.000207212 -1.06517e-06
2.06477e-06 -1.06517e-06 9.73066e-05
0.00158024 3.76956e-06 -4.01769e-08
3.76956e-06 0.000115543 3.61424e-08
-4.01769e-08 3.61424e-08 1.07289e-05
0.000826325 -2.31675e-06 -8.89737e-06
-2.31675e-06 -0.000203192 2.15474e-06
-8.89737e-06 2.15474e-06 -0.000296615
0.00146541 -1.73297e-05 3.09669e-06
-1.73297e-05 6.85342e-05 -3.14158e-07
3.09669e-06 -3.14158e-07 -3.25335e-05
0.00119249 -1.80752e-05 -6.63639e-08
-1.80752e-05 9.08495e-06 -1.64543e-07
-6.63639e-08 -1.64543e-07 -7.65014e-05
0.000707818 -1.41435e-05 -1.17183e-05
-1.41435e-05 -9.39297e-05 1.65919e-06
-1.17183e-05 1.65919e-06 -0.000143674
0.00118712 -4.12503e-05 7.93804e-06
-4.12503e-05 1.64463e-05 -1.08123e-06
7.93804e-06 -1.08123e-06 -6.82764e-05
0.00068883 -2.18611e-05 -4.1079e-08
-2.18611e-05 -9.67634e-05 1.49199e-07
-4.1079e-08 1.49199e-07 -0.000145392
0.00447814 1.12892e-05 -8.846e-05
1.12892e-05 0.0019991 2.19173e-06
-8.846e-05 2.19173e-06 0.0019933
0.000768952 -4.17368e-05 1.36416e-05
-4.17368e-05 -4.57667e-05 -4.44826e-06
1.36416e-05 -4.44826e-06 -9.55181e-05
0.00297311 2.43544e-05 3.34768e-05
2.43544e-05 0.001211 6.88329e-07
3.34768e-05 6.88329e-07 0.00119477
0.00135715 3.09556e-05 1.06822e-05
3.09556e-05 0.000376674 -2.16547e-06
1.06822e-05 -2.16547e-06 0.00035026
0.00182419 1.80529e-06 -2.68028e-07
1.80529e-06 0.000141625 -2.14305e-07
-2.68028e-07 -2.14305e-07 3.55841e-05
0.00165254 1.81257e-05 -1.00463e-06
1.81257e-05 8.33194e-05 -2.84801e-07
-1.00463e-06 -2.84801e-07 -2.12257e-05
0.00170628 1.10566e-05 2.5684e-07
1.10566e-05 7.32437e-05 1.66029e-07
2.5684e-07 1.66029e-07 -3.22177e-05
0.00145101 4.53309e-05 -3.4412e-06
4.53309e-05 4.33961e-05 -7.17376e-07
-3.4412e-06 -7.17376e-07 -5.78614e-05
0.00154544 3.61233e-05 4.11062e-07
3.61233e-05 3.39232e-05 -5.3199e-08
4.11062e-07 -5.3199e-08 -7.25038e-05
0.00181327 2.5384e-05 6.29479e-07
2.5384e-05 0.00013418 -5.43002e-07
6.29479e-07 -5.43002e-07 2.75023e-05
0.00074874 5.23447e-05 -8.84031e-06
5.23447e-05 -0.000217369 -2.73648e-06
-8.84031e-06 -2.73648e-06 -0.000305995
0.00154409 7.86596e-05 -1.24906e-06
7.86596e-05 0.000111537 -3.81574e-07
-1.24906e-06 -3.81574e-07 9.36113e-06
0.00169823 7.48407e-05 3.27076e-06
7.48407e-05 0.000132641 4.24564e-07
3.27076e-06 4.24564e-07 2.45551e-05
0.000707574 6.66173e-05 -1.25578e-05
6.66173e-05 -6.6601e-05 -4.77981e-06
-1.25578e-05 -4.77981e-06 -0.000118352
0.000700798 6.38257e-05 -2.13642e-06
6.38257e-05 -0.00020613 -6.61702e-07
-2.13642e-06 -6.61702e-07 -0.000295238
0.00158668 0.000102269 4.54477e-06
0.000102269 0.000180264 1.40668e-06
4.54477e-06 1.40668e-06 7.79418e-05
0.00426084 -7.53906e-05 -7.50695e-05
-7.53906e-05 0.00191366 -4.94013e-06
-7.50695e-05 -4.94013e-06 0.00189893
0.000674402 6.44065e-05 4.95449e-07
6.44065e-05 -5.67188e-05 1.91889e-07
4.95449e-07 1.91889e-07 -0.000109114
0.000571964 6.468e-05 5.26368e-06
6.468e-05 -0.000219308 2.67515e-06
5.26368e-06 2.67515e-06 -0.000307168
0.00360122 -8.56753e-05 -4.18541e-06
-8.56753e-05 0.00157076 2.74326e-07
-4.18541e-06 2.74326e-07 0.001559
0.000579298 4.2891e-05 7.5789e-06
4.2891e-05 -8.09865e-05 5.10373e-06
7.5789e-06 5.10373e-06 -0.000131122
0.00313223 -0.000108187 4.53949e-05
-0.000108187 0.00131186 2.59093e-06
4.53949e-05 2.59093e-06 0.00130283
0.00179858 7.08841e-06 -8.96871e-07
7.08841e-06 0.000133299 -8.65862e-07
-8.96871e-07 -8.65862e-07 2.26783e-05
0.00180064 -1.47174e-06 6.9107e-08
-1.47174e-06 0.00011032 2.97899e-07
6.9107e-08 2.97899e-07 2.23567e-06
0.00184517 5.5279e-06 -2.06422e-07
5.5279e-06 0.000115737 1.77516e-07
-2.06422e-07 1.77516e-07 1.03955e-05
0.00182431 -2.18604e-06 -3.33117e-06
-2.18604e-06 0.00018384 -1.59333e-07
-3.33117e-06 -1.59333e-07 7.46754e-05
0.00187141 1.03552e-05 5.71848e-07
1.03552e-05 0.000166262 -7.83368e-08
5.71848e-07 -7.83368e-08 5.35394e-05
0.00179578 9.9834e-06 6.89457e-07
9.9834e-06 0.000100439 1.23478e-07
6.89457e-07 1.23478e-07 -9.64605e-06
0.00177071 1.20646e-05 1.5645e-06
1.20646e-05 0.000132375 -5.89177e-07
1.5645e-06 -5.89177e-07 1.77785e-05
0.00178132 6.18209e-06 1.02022e-06
6.18209e-06 0.000179216 -1.1811e-07
1.02022e-06 -1.1811e-07 6.93496e-05
0.000919454 5.25317e-07 -9.08156e-06
5.25317e-07 -0.000191872 1.69927e-06
-9.08156e-06 1.69927e-06 -0.000291199
0.0018917 6.65311e-06 4.24758e-06
6.65311e-06 0.000279077 -1.17092e-06
4.24758e-06 -1.17092e-06 0.000176286
0.00102335 8.95238e-08 -1.73716e-06
8.95238e-08 -9.70492e-05 5.00802e-07
-1.73716e-06 5.00802e-07 -0.000188423
0.000706361 -5.29762e-06 -1.20571e-05
-5.29762e-06 -0.000107616 1.48466e-06
-1.20571e-05 1.48466e-06 -0.000161703
0.00121891 -1.75084e-05 7.60906e-06
-1.75084e-05 2.17193e-05 -1.4889e-06
7.60906e-06 -1.4889e-06 -6.38036e-05
0.00071255 -5.06783e-06 2.15749e-07
-5.06783e-06 -9.17626e-05 -1.1472e-07
2.15749e-07 -1.1472e-07 -0.000141695
0.0045496 1.25806e-05 -9.01797e-05
1.25806e-05 0.00203262 1.35189e-06
-9.01797e-05 1.35189e-06 0.00202719
0.000680388 -1.66135e-05 1.12334e-05
-1.66135e-05 -0.000101097 -2.19562e-06
1.12334e-05 -2.19562e-06 -0.000149457
0.00451148 1.92503e-05 7.22813e-07
1.92503e-05 0.00201564 3.46068e-07
7.22813e-07 3.46068e-07 0.00200993
0.00154812 -7.31858e-06 7.87082e-05
-7.31858e-06 0.000456338 -3.16871e-06
7.87082e-05 -3.16871e-06 0.000435445
0.00189643 6.78619e-06 -5.98194e-07
6.78619e-06 0.000205418 -6.95118e-07
-5.98194e-07 -6.95118e-07 0.000100462
0.00175114 1.1813e-06 6.08975e-07
1.1813e-06 0.000103577 6.24526e-07
6.08975e-07 6.24526e-07 -1.53495e-06
0.0014894 1.77111e-05 -3.07166e-06
1.77111e-05 4.87925e-05 -8.80958e-07
-3.07166e-06 -8.80958e-07 -5.25725e-05
0.0016698 1.75921e-05 2.99829e-07
1.75921e-05 9.11626e-05 -1.1919e-07
2.99829e-07 -1.1919e-07 -1.34292e-05
0.00168953 1.01222e-05 1.23618e-06
1.01222e-05 6.45808e-05 1.28078e-07
1.23618e-06 1.28078e-07 -4.07395e-05
0.00121648 4.02337e-05 -7.77208e-06
4.02337e-05 9.06485e-06 -1.98395e-06
-7.77208e-06 -1.98395e-06 -7.7487e-05
0.00148479 4.58845e-05 -6.39435e-08
4.58845e-05 5.95606e-05 1.21433e-07
-6.39435e-08 1.21433e-07 -4.16762e-05
0.00160835 3.60889e-05 1.83405e-06
3.60889e-05 6.52338e-05 1.94049e-07
1.83405e-06 1.94049e-07 -4.05389e-05
0.000701061 4.8532e-05 -1.26263e-05
4.8532e-05 -8.98432e-05 -3.93561e-06
-1.26263e-05 -3.93561e-06 -0.000140389
0.000977745 5.83732e-05 -2.42879e-06
5.83732e-05 -9.66102e-05 -5.24674e-07
-2.42879e-06 -5.24674e-07 -0.000184565
0.00193252 8.81114e-05 3.6162e-06
8.81114e-05 0.000315938 8.91603e-07
3.6162e-06 8.91603e-07 0.000215254
0.00453234 -3.72237e-05 -8.61531e-05
-3.72237e-05 0.00203804 -4.03829e-06
-8.61531e-05 -4.03829e-06 0.00202898
0.000667533 6.05638e-05 1.92044e-07
6.05638e-05 -8.56326e-05 1.98852e-07
1.92044e-07 1.98852e-07 -0.000137723
0.000743488 6.58335e-05 4.81709e-06
6.58335e-05 -0.000186665 1.88169e-06
4.81709e-06 1.88169e-06 -0.00027645
0.00403529 -5.81247e-05 9.99551e-07
-5.81247e-05 0.00179328 1.26361e-07
9.99551e-07 1.26361e-07 0.001782
0.000579297 5.75916e-05 9.8531e-06
5.75916e-05 -0.000103102 5.47139e-06
9.8531e-06 5.47139e-06 -0.000155301
0.00339891 -0.000106758 5.29306e-05
-0.000106758 0.00146654 3.05103e-06
5.29306e-05 3.05103e-06 0.00145402
0.00180074 1.11795e-05 -2.73474e-06
1.11795e-05 0.000180297 -9.92418e-07
-2.73474e-06 -9.92418e-07 7.41388e-05
0.00183375 4.98811e-06 4.04236e-07
4.98811e-06 0.000152982 1.60195e-07
4.04236e-07 1.60195e-07 4.24649e-05
0.00181023 -8.64041e-07 1.40814e-06
-8.64041e-07 0.000118121 1.00988e-06
1.40814e-06 1.00988e-06 1.01863e-05
0.000951922 -1.2959e-05 -9.64232e-06
-1.2959e-05 -0.000187711 -3.54788e-08
-9.64232e-06 -3.54788e-08 -0.000287236
0.00182712 5.03848e-06 1.04299e-06
5.03848e-06 0.000185505 -3.86349e-08
1.04299e-06 -3.86349e-08 7.62409e-05
0.00185003 1.04411e-05 2.1637e-06
1.04411e-05 0.000155611 1.1668e-07
2.1637e-06 1.1668e-07 4.33378e-05
0.00178651 5.8227e-06 4.71748e-06
5.8227e-06 0.000183068 -8.53973e-07
4.71748e-06 -8.53973e-07 7.29587e-05
0.000910552 -1.90957e-07 -1.32531e-06
-1.90957e-07 -0.000192867 5.80542e-07
-1.32531e-06 5.80542e-07 -0.000291656
0.000754148 3.79964e-06 -1.27864e-05
3.79964e-06 -0.000103971 9.89059e-07
-1.27864e-05 9.89059e-07 -0.000162369
0.00121348 3.32194e-06 5.87553e-06
3.32194e-06 5.46973e-06 -1.28975e-06
5.87553e-06 -1.28975e-06 -8.38405e-05
0.000747131 4.19266e-06 2.89097e-07
4.19266e-06 -8.83323e-05 -8.14292e-08
2.89097e-07 -8.14292e-08 -0.000142478
0.0047237 1.34659e-05 -9.29438e-05
1.34659e-05 0.00211809 5.41819e-07
-9.29438e-05 5.41819e-07 0.00211234
0.000727925 4.21441e-06 1.14198e-05
4.21441e-06 -8.44582e-05 -1.62625e-06
1.14198e-05 -1.62625e-06 -0.000134323
0.00459563 4.17515e-05 3.69291e-06
4.17515e-05 0.0020568 2.04359e-07
3.69291e-06 2.04359e-07 0.00205034
0.00455065 2.40467e-05 9.33436e-05
2.40467e-05 0.00203473 -1.47195e-06
9.33436e-05 -1.47195e-06 0.00202928
0.00156266 7.89804e-06 -3.21028e-06
7.89804e-06 7.42213e-05 -1.30864e-06
-3.21028e-06 -1.30864e-06 -2.91191e-05
0.00175581 5.55899e-06 4.81032e-07
5.55899e-06 0.000130549 1.24263e-07
4.81032e-07 1.24263e-07 2.54091e-05
0.00167197 6.92406e-07 1.25634e-06
6.92406e-07 6.24364e-05 1.1372e-06
1.25634e-06 1.1372e-06 -4.17458e-05
0.0012383 1.48519e-05 -7.54462e-06
1.48519e-05 4.96709e-06 -1.89315e-06
-7.54462e-06 -1.89315e-06 -8.29795e-05
0.00152275 1.78847e-05 1.47143e-07
1.78847e-05 6.5264e-05 -6.3789e-08
1.47143e-07 -6.3789e-08 -3.61614e-05
0.00168044 1.70384e-05 1.33236e-06
1.70384e-05 9.57313e-05 8.76033e-08
1.33236e-06 8.76033e-08 -8.92145e-06
0.000720635 2.90663e-05 -1.23946e-05
2.90663e-05 -9.49372e-05 -3.1969e-06
-1.23946e-05 -3.1969e-06 -0.000145486
0.00121747 4.10594e-05 -4.5893e-08
4.10594e-05 1.01764e-05 1.31402e-07
-4.5893e-08 1.31402e-07 -7.65745e-05
0.00151984 4.64113e-05 3.75209e-06
4.64113e-05 7.6329e-05 1.03524e-06
3.75209e-06 1.03524e-06 -2.48856e-05
0.00466069 -5.61159e-06 -9.68263e-05
-5.61159e-06 0.00209123 -3.21748e-06
-9.68263e-05 -3.21748e-06 0.00208562
0.000684168 4.7117e-05 1.5479e-08
4.7117e-05 -9.81154e-05 1.14462e-07
1.5479e-08 1.14462e-07 -0.000148741
0.00120007 6.44681e-05 5.64147e-06
6.44681e-05 2.0687e-05 1.85956e-06
5.64147e-06 1.85956e-06 -6.65984e-05
0.00437872 -2.98238e-05 4.59793e-06
-2.98238e-05 0.00196079 2.10399e-07
4.59793e-06 2.10399e-07 0.0019515
0.000625313 5.52194e-05 1.09615e-05
5.52194e-05 -0.000106294 4.91474e-06
1.09615e-05 4.91474e-06 -0.000158396
0.00381993 -7.68739e-05 6.37209e-05
-7.68739e-05 0.00168465 3.8781e-06
6.37209e-05 3.8781e-06 0.00167286
0.00132231 3.6078e-06 -8.18944e-06
3.6078e-06 1.40244e-05 -8.53931e-07
-8.18944e-06 -8.53931e-07 -8.09762e-05
0.00162298 5.90622e-06 1.07824e-06
5.90622e-06 8.47623e-05 -3.10249e-09
1.07824e-06 -3.10249e-09 -2.30635e-05
0.00186554 1.735e-06 1.99002e-06
1.735e-06 0.000170801 1.06843e-06
1.99002e-06 1.06843e-06 6.0375e-05
0.000771619 1.38115e-05 -1.35593e-05
1.38115e-05 -0.000108948 -4.18745e-07
-1.35593e-05 -4.18745e-07 -0.000167644
0.000938155 -5.79061e-06 -1.62634e-06
-5.79061e-06 -0.000194818 1.42493e-07
-1.62634e-06 1.42493e-07 -0.000294318
0.00182386 1.18788e-05 5.33417e-06
1.18788e-05 0.000183973 4.12141e-08
5.33417e-06 4.12141e-08 7.46184e-05
0.00089449 -4.0493e-07 5.94013e-06
-4.0493e-07 -0.000197558 -4.39796e-07
5.94013e-06 -4.39796e-07 -0.000295806
0.000761134 7.01239e-06 1.48557e-07
7.01239e-06 -0.000101415 4.30412e-07
1.48557e-07 4.30412e-07 -0.000159902
0.00505405 1.70109e-05 -9.75375e-05
1.70109e-05 0.0022808 -3.42533e-07
-9.75375e-05 -3.42533e-07 0.00227446
0.000775767 1.30639e-05 1.20767e-05
1.30639e-05 -7.48457e-05 -1.3779e-06
1.20767e-05 -1.3779e-06 -0.000129241
0.00482991 1.78497e-05 1.7661e-06
1.78497e-05 0.00217011 3.49395e-07
1.7661e-06 3.49395e-07 0.00216441
0.00464023 2.37251e-05 9.79618e-05
2.37251e-05 0.00207664 -6.91003e-07
9.79618e-05 -6.91003e-07 0.00207149
0.00128517 4.83852e-06 -7.9528e-06
4.83852e-06 1.10604e-05 -1.83758e-06
-7.9528e-06 -1.83758e-06 -8.03759e-05
0.00148809 6.35164e-06 -4.80816e-08
6.35164e-06 3.27988e-05 -1.38959e-07
-4.80816e-08 -1.38959e-07 -7.12574e-05
0.00161958 4.27714e-06 1.48526e-06
4.27714e-06 5.7928e-05 1.1213e-06
1.48526e-06 1.1213e-06 -4.73957e-05
0.00244797 7.08344e-06 -5.4746e-05
7.08344e-06 0.000802585 -1.95234e-06
-5.4746e-05 -1.95234e-06 0.000760774
0.00124386 1.5871e-05 1.18074e-07
1.5871e-05 8.05825e-06 3.3183e-08
1.18074e-07 3.3183e-08 -8.00976e-05
0.00155814 1.78903e-05 3.45404e-06
1.78903e-05 8.27635e-05 7.77963e-07
3.45404e-06 7.77963e-07 -1.87219e-05
0.00476268 1.13556e-06 -0.000104035
1.13556e-06 0.00213572 -2.34253e-06
-0.000104035 -2.34253e-06 0.00213097
0.000717467 3.04595e-05 -1.1591e-08
3.04595e-05 -9.61138e-05 4.08571e-08
-1.1591e-08 4.08571e-08 -0.000146714
0.00121653 4.17253e-05 7.91041e-06
4.17253e-05 1.02863e-05 2.18265e-06
7.91041e-06 2.18265e-06 -7.6669e-05
0.00457758 2.84115e-07 1.94463e-06
2.84115e-07 0.00205097 4.11092e-07
1.94463e-06 4.11092e-07 0.00204485
0.000671114 4.6268e-05 1.18207e-05
4.6268e-05 -0.000104301 4.07218e-06
1.18207e-05 4.07218e-06 -0.000154976
0.00423519 -1.91765e-05 8.11068e-05
-1.91765e-05 0.00188583 3.90288e-06
8.11068e-05 3.90288e-06 0.00187826
0.000800128 6.78549e-06 -1.51003e-05
6.78549e-06 -9.29338e-05 -1.88335e-06
-1.51003e-05 -1.88335e-06 -0.000152716
0.00112783 5.53759e-07 2.90712e-07
5.53759e-07 -8.88447e-05 3.84785e-07
2.90712e-07 3.84785e-07 -0.000185013
0.00143967 6.18448e-07 4.61636e-06
6.18448e-07 -1.37963e-05 9.09767e-07
4.61636e-06 9.09767e-07 -0.000123233
0.00527983 -4.24596e-05 -9.98077e-05
-4.24596e-05 0.00239744 -1.64161e-06
-9.98077e-05 -1.64161e-06 0.00238726
0.000778547 9.87005e-06 -3.49127e-08
9.87005e-06 -0.00010419 2.91142e-07
-3.49127e-08 2.91142e-07 -0.000163798
0.000932503 1.04205e-06 6.27526e-06
1.04205e-06 -0.000197725 2.99658e-07
6.27526e-06 2.99658e-07 -0.000297213
0.000780255 1.43681e-05 1.27658e-05
1.43681e-05 -9.24549e-05 1.89331e-09
1.27658e-05 1.89331e-09 -0.000151235
0.00514937 5.26521e-05 4.09757e-06
5.26521e-05 0.00232915 4.71865e-07
4.09757e-06 4.71865e-07 0.00232181
0.00494545 7.17993e-05 0.000102647
7.17993e-05 0.00222955 2.51439e-07
0.000102647 2.51439e-07 0.00222183
0.00256513 -1.34942e-05 -5.92553e-05
-1.34942e-05 0.000848224 -2.03715e-06
-5.92553e-05 -2.03715e-06 0.000802815
0.0012867 6.585e-06 -9.41575e-08
6.585e-06 1.17194e-05 2.91641e-08
-9.41575e-08 2.91641e-08 -7.97078e-05
0.00141389 4.96329e-06 3.19397e-06
4.96329e-06 -8.42966e-06 1.0767e-06
3.19397e-06 1.0767e-06 -0.0001132
0.00464915 2.35215e-05 -2.95581e-05
2.35215e-05 0.00208011 -1.12673e-06
-2.95581e-05 -1.12673e-06 0.00207027
0.000767935 1.10276e-05 -1.39106e-07
1.10276e-05 -8.10852e-05 9.72325e-08
-1.39106e-07 9.72325e-08 -0.000133993
0.00125788 1.77705e-05 7.74014e-06
1.77705e-05 1.5167e-05 1.94833e-06
7.74014e-06 1.94833e-06 -7.31405e-05
0.00470365 8.00797e-06 -8.35308e-07
8.00797e-06 0.00210791 4.14014e-07
-8.35308e-07 4.14014e-07 0.00210284
0.000710623 3.23544e-05 1.25443e-05
3.23544e-05 -9.88278e-05 3.39057e-06
1.25443e-05 3.39057e-06 -0.00014952
0.00449466 9.29399e-06 9.16833e-05
9.29399e-06 0.00200973 3.73137e-06
9.16833e-05 3.73137e-06 0.00200362
0.00179839 -1.39627e-05 -0.00010218
-1.39627e-05 0.000549794 -1.25911e-07
-0.00010218 -1.25911e-07 0.000524138
0.0017037 6.59524e-06 -2.40068e-05
6.59524e-06 0.000385417 5.19093e-07
-2.40068e-05 5.19093e-07 0.000333073
0.000939718 9.28322e-07 8.01969e-06
9.28322e-07 -0.000188374 1.54909e-06
8.01969e-06 1.54909e-06 -0.00028571
0.00528403 -4.7999e-05 4.20738e-06
-4.7999e-05 0.00239892 -9.5832e-07
4.20738e-06 -9.5832e-07 0.00238909
0.000772983 7.97516e-06 1.35366e-05
7.97516e-06 -0.000106399 1.02208e-06
1.35366e-05 1.02208e-06 -0.000166402
0.00522504 2.05226e-05 0.000109206
2.05226e-05 0.00236434 1.03433e-06
0.000109206 1.03433e-06 0.00235818
0.0014938 -5.81915e-05 -9.03529e-06
-5.81915e-05 0.00040841 -8.05676e-07
-9.03529e-06 -8.05676e-07 0.000376947
0.00168798 4.42344e-06 -2.29271e-05
4.42344e-06 0.000389434 1.8612e-07
-2.29271e-05 1.8612e-07 0.000338725
0.00128742 6.09708e-06 7.63144e-06
6.09708e-06 1.21168e-05 1.94146e-06
7.63144e-06 1.94146e-06 -7.93382e-05
0.00314139 4.87538e-06 4.10622e-05
4.87538e-06 0.00127871 4.50264e-07
4.10622e-05 4.50264e-07 0.00126238
0.000762817 1.80863e-05 1.29023e-05
1.80863e-05 -8.35974e-05 2.97719e-06
1.29023e-05 2.97719e-06 -0.000136803
0.00466055 1.73837e-05 9.77129e-05
1.73837e-05 0.00208776 3.17709e-06
9.77129e-05 3.17709e-06 0.0020824
0.00526555 -5.11096e-05 -4.74837e-06
-5.11096e-05 0.00238637 4.61163e-07
-4.74837e-06 4.61163e-07 0.00237852
0.000772742 1.36002e-05 1.35696e-05
1.36002e-05 -0.000104439 1.98718e-06
1.35696e-05 1.98718e-06 -0.000162765
0.00529368 3.20166e-05 0.000105015
3.20166e-05 0.00240146 -1.06875e-06
0.000105015 -1.06875e-06 0.00239292
0.00329912 1.41193e-06 4.47895e-05
1.41193e-06 0.00135359 9.55192e-08
4.47895e-05 9.55192e-08 0.00133578
0.000777316 9.41945e-06 1.3002e-05
9.41945e-06 -8.89763e-05 2.62342e-06
1.3002e-05 2.62342e-06 -0.000145741
0.00481181 1.35314e-05 9.94909e-05
1.35314e-05 0.00216024 2.27171e-06
9.94909e-05 2.27171e-06 0.0021549
0.0051969 -0.000121133 9.77272e-05
-0.000121133 0.00236061 -7.82454e-08
9.77272e-05 -7.82454e-08 0.00234703
0.00501426 -6.70098e-05 9.714e-05
-6.70098e-05 0.00226277 8.51963e-07
9.714e-05 8.51963e-07 0.00225472
